####################################################################### 
# 
# This file contains crystal structure data downloaded from the 
# Cambridge Structural Database (CSD) hosted by the Cambridge 
# Crystallographic Data Centre (CCDC).
# 
# Full information about CCDC data access policies and citation 
# guidelines are available at http://www.ccdc.cam.ac.uk/access/V1 
# 
# Audit and citation data items may have been added by the CCDC. 
# Please retain this information to preserve the provenance of 
# this file and to allow appropriate attribution of the data. 
# 
#######################################################################

data_tn12_170
_audit_block_doi                 10.5517/cc14c5j6
_database_code_depnum_ccdc_archive 'CCDC 1053427'
loop_
_citation_id
_citation_doi
_citation_year
1 10.1021/ja512437u 2015
_audit_update_record             
;
2015-03-11 deposited with the CCDC.	2024-07-12 downloaded from the CCDC.
;
_audit_creation_date             2014-09-14
_audit_creation_method           
;
Olex2 1.2
(compiled 2014.07.22 svn.r2960 for OlexSys, GUI svn.r4862)
;
_shelxl_version_number           2013-2
_chemical_name_common            ?
_chemical_name_systematic        
;
 ?
;
_chemical_formula_moiety         
'C34 H20 Co2 O10 S4, C2.81 H6.37 N0.94 O0.94, C2.71 H6.71 N0.71 O0.71, C2 H5 O0.71'
_chemical_formula_sum            'C41.52 H38.08 Co2 N1.64 O12.35 S4'
_chemical_formula_weight         1003.69
_chemical_absolute_configuration unk
_chemical_melting_point          ?
loop_
_atom_type_symbol
_atom_type_description
_atom_type_scat_dispersion_real
_atom_type_scat_dispersion_imag
_atom_type_scat_source
C C 0.0033 0.0016 'International Tables Vol C Tables 4.2.6.8 and 6.1.1.4'
H H 0.0000 0.0000 'International Tables Vol C Tables 4.2.6.8 and 6.1.1.4'
N N 0.0061 0.0033 'International Tables Vol C Tables 4.2.6.8 and 6.1.1.4'
O O 0.0106 0.0060 'International Tables Vol C Tables 4.2.6.8 and 6.1.1.4'
S S 0.1246 0.1234 'International Tables Vol C Tables 4.2.6.8 and 6.1.1.4'
Co Co 0.3494 0.9721 'International Tables Vol C Tables 4.2.6.8 and 6.1.1.4'

_shelx_space_group_comment       
;
The symmetry employed for this shelxl refinement is uniquely defined
by the following loop, which should always be used as a source of
symmetry information in preference to the above space-group names.
They are only intended as comments.
;
_space_group_crystal_system      hexagonal
_space_group_IT_number           169
_space_group_name_H-M_alt        'P 61'
_space_group_name_Hall           'P 61'
loop_
_space_group_symop_operation_xyz
'x, y, z'
'-y, x-y, z+1/3'
'-x+y, -x, z+2/3'
'-x, -y, z+1/2'
'y, -x+y, z+5/6'
'x-y, x, z+1/6'

_cell_length_a                   19.3867(7)
_cell_length_b                   19.3867(7)
_cell_length_c                   20.8268(15)
_cell_angle_alpha                90
_cell_angle_beta                 90
_cell_angle_gamma                120
_cell_volume                     6778.9(7)
_cell_formula_units_Z            6
_cell_measurement_reflns_used    9399
_cell_measurement_temperature    100(2)
_cell_measurement_theta_max      26.89
_cell_measurement_theta_min      2.30
_shelx_estimated_absorpt_T_max   0.908
_shelx_estimated_absorpt_T_min   0.695
_exptl_absorpt_coefficient_mu    0.981
_exptl_absorpt_correction_T_max  0.7455
_exptl_absorpt_correction_T_min  0.6809
_exptl_absorpt_correction_type   multi-scan
_exptl_absorpt_process_detail    'SADABS (Sheldrick, 2009)'
_exptl_crystal_colour            red
_exptl_crystal_colour_primary    red
_exptl_crystal_density_diffrn    1.475
_exptl_crystal_density_meas      .
_exptl_crystal_density_method    'not measured'
_exptl_crystal_description       Needle
_exptl_crystal_F_000             3093
_exptl_crystal_size_max          0.4
_exptl_crystal_size_mid          0.15
_exptl_crystal_size_min          0.1
_exptl_special_details           
;
 Bruker X8 Kappa DUO four-circle diffractometer, Bruker APEX2 CCD.
;
_exptl_transmission_factor_max   ?
_exptl_transmission_factor_min   ?
_diffrn_reflns_av_R_equivalents  0.0807
_diffrn_reflns_av_unetI/netI     0.0357
_diffrn_reflns_Laue_measured_fraction_full 1.000
_diffrn_reflns_Laue_measured_fraction_max 1.000
_diffrn_reflns_limit_h_max       24
_diffrn_reflns_limit_h_min       -24
_diffrn_reflns_limit_k_max       24
_diffrn_reflns_limit_k_min       -24
_diffrn_reflns_limit_l_max       26
_diffrn_reflns_limit_l_min       -26
_diffrn_reflns_number            130979
_diffrn_reflns_point_group_measured_fraction_full 1.000
_diffrn_reflns_point_group_measured_fraction_max 1.000
_diffrn_reflns_theta_full        25.242
_diffrn_reflns_theta_max         27.114
_diffrn_reflns_theta_min         1.213
_diffrn_ambient_temperature      100.0
_diffrn_detector_area_resol_mean 8.3
_diffrn_measured_fraction_theta_full 1.000
_diffrn_measured_fraction_theta_max 1.000
_diffrn_measurement_device_type  'CCD area detector'
_diffrn_measurement_method       'phi and omega scans'
_diffrn_radiation_monochromator  graphite
_diffrn_radiation_type           MoK\a
_diffrn_radiation_wavelength     0.71073
_diffrn_source                   ?
_reflns_Friedel_coverage         0.946
_reflns_Friedel_fraction_full    1.000
_reflns_Friedel_fraction_max     1.000
_reflns_number_gt                9462
_reflns_number_total             9985
_reflns_special_details          
;
 Reflections were merged by SHELXL according to the crystal
 class for the calculation of statistics and refinement.
 
 _reflns_Friedel_fraction is defined as the number of unique
 Friedel pairs measured divided by the number that would be
 possible theoretically, ignoring centric projections and
 systematic absences.
;
_reflns_threshold_expression     'I > 2\s(I)'
_computing_cell_refinement       'SAINT v7.68A (Bruker, 2009)'
_computing_data_collection       'APEX2 v2011.4.0 (Bruker-AXS, 2011)'
_computing_data_reduction        'SAINT v7.68A (Bruker, 2009)'
_computing_molecular_graphics    'Olex2 (Dolomanov et al., 2009)'
_computing_publication_material  'Olex2 (Dolomanov et al., 2009)'
_computing_structure_refinement  'XL (Sheldrick, 2008)'
_computing_structure_solution    'SHELXS-97 (Sheldrick, 2008)'
_refine_diff_density_max         0.879
_refine_diff_density_min         -0.525
_refine_diff_density_rms         0.076
_refine_ls_abs_structure_details 
;
 Flack x determined using 4327 quotients [(I+)-(I-)]/[(I+)+(I-)]
 (Parsons and Flack (2004), Acta Cryst. A60, s61).
;
_refine_ls_abs_structure_Flack   -0.002(5)
_refine_ls_extinction_coef       .
_refine_ls_extinction_method     none
_refine_ls_goodness_of_fit_ref   1.046
_refine_ls_hydrogen_treatment    mixed
_refine_ls_matrix_type           full
_refine_ls_number_parameters     578
_refine_ls_number_reflns         9985
_refine_ls_number_restraints     133
_refine_ls_R_factor_all          0.0416
_refine_ls_R_factor_gt           0.0374
_refine_ls_restrained_S_all      1.050
_refine_ls_shift/su_max          0.001
_refine_ls_shift/su_mean         0.000
_refine_ls_structure_factor_coef Fsqd
_refine_ls_weighting_details     
;
 w=1/[\s^2^(Fo^2^)+(0.0506P)^2^+6.2779P]
 where P=(Fo^2^+2Fc^2^)/3
;
_refine_ls_weighting_scheme      calc
_refine_ls_wR_factor_gt          0.0940
_refine_ls_wR_factor_ref         0.0973
_refine_special_details          
;
 Refined as a 2-component twin.
;
_olex2_refinement_description    
;
1. Fixed Uiso
 At 1.2 times of:
  All C(H) groups, All C(H,H) groups, All O(H,H) groups
 At 1.5 times of:
  All C(H,H,H) groups
2. Restrained distances
 O1W1-H1WA = O1W2-H1WC = O1W1-H1WB = O1W2-H1WD
 0.84 with sigma of 0.02
 C1E1-C2E1
 1.41 with sigma of 0.01
 C1E1-O1E1
 1.47 with sigma of 0.01
 N1D1-C2D1 = N1D1-C3D1 = N1D2-C2D2 = N1D2-C3D2
 1.42 with sigma of 0.02
 N1D1-C1D1 = N1D2-C1D2
 1.35 with sigma of 0.02
 C1D1-O1D1 = C1D2-O1D2
 1.22 with sigma of 0.02
 C2E1-O1E1
 2.33 with sigma of 0.02
 O1E1-C1E1 \\sim O1E1-C0AA
 with sigma of 0.02
 C1E1-C10 \\sim C0AA-C2E1
 with sigma of 0.02
 O1E1-C10 \\sim O1E1-C2E1
 with sigma of 0.02
3. Rigid bond restraints
 O1D1, C1D1, N1D1, C2D1, C3D1, O1D2, C1D2, N1D2, C2D2, C3D2, O1E1, C1E1, C10,
 C0AA, C2E1
 with sigma for 1-2 distances of 0.01 and sigma for 1-3 distances of 0.01
4. Uiso/Uaniso restraints and constraints
O1D1 \\sim C1D1 \\sim N1D1 \\sim C2D1 \\sim C3D1 \\sim O1D2 \\sim C1D2 \\sim
N1D2 \\sim C2D2 \\sim C3D2 \\sim O1E1 \\sim C1E1 \\sim C10 \\sim C0AA \\sim
C2E1: within 1.7A with sigma of 0.04 and sigma for terminal atoms of 0.08
C3D1 \\sim N1D1: within 1.7A with sigma of 0.04 and sigma for terminal atoms of
0.08
N1D2 \\sim C2D2 \\sim C3D2: within 1.7A with sigma of 0.04 and sigma for
terminal atoms of 0.08
Uanis(C1E1) = Uanis(C0AA)
Uanis(C2E1) = Uanis(C10)
Uanis(C3D1) = Uanis(N1D1)
Uanis(N1D2) = Uanis(C2D2) = Uanis(C3D2)
5. Same fragment restrains
{O1D1, C1D1, N1D1, C2D1, C3D1}
as
{O1D2, C1D2, N1D2, C2D2, C3D2}
6. Others
 Sof(O1D1)=Sof(C1D1)=Sof(H1D1)=Sof(N1D1)=Sof(C2D1)=Sof(H2DA)=Sof(H2DB)=
 Sof(H2DC)=Sof(C3D1)=Sof(H3DA)=Sof(H3DC)=FVAR(1)
 Sof(O1D2)=Sof(C1D2)=Sof(H1D2)=Sof(N1D2)=FVAR(2)
 Sof(C0AA)=Sof(H0AA)=Sof(H0AB)=Sof(C2E1)=Sof(H2EA)=Sof(H2EB)=Sof(H2EC)=1-FVAR(3)
 Sof(O1E1)=Sof(C1E1)=Sof(H1EA)=Sof(H1EB)=Sof(C10)=Sof(H10A)=Sof(H10B)=
 Sof(H10C)=FVAR(3)
 Fixed Sof: H3DB(0.75)
7.a Secondary CH2 refined with riding coordinates:
 C1E1(H1EA,H1EB), C0AA(H0AA,H0AB)
7.b Aromatic/amide H refined with riding coordinates:
 C12(H12), C13(H13), C15(H15), C16(H16), C22(H22), C23(H23), C25(H25),
 C26(H26), C32(H32), C33(H33), C35(H35), C36(H36), C42(H42), C43(H43), C45(H45),
  C46(H46), C1D1(H1D1), C1D2(H1D2)
7.c Idealised Me refined as rotating group:
 C2D1(H2DA,H2DB,H2DC), C3D1(H3DA,H3DB,H3DC), C2D2(H2DD,H2DE,H2DF), C3D2(H3DD,
 H3DE,H3DF), C10(H10A,H10B,H10C), C2E1(H2EA,H2EB,H2EC)
;
_atom_sites_solution_hydrogens   mixed
_atom_sites_solution_primary     ?
_atom_sites_solution_secondary   ?
loop_
_atom_site_label
_atom_site_type_symbol
_atom_site_fract_x
_atom_site_fract_y
_atom_site_fract_z
_atom_site_U_iso_or_equiv
_atom_site_adp_type
_atom_site_occupancy
_atom_site_site_symmetry_order
_atom_site_calc_flag
_atom_site_refinement_flags_posn
_atom_site_refinement_flags_adp
_atom_site_refinement_flags_occupancy
_atom_site_disorder_assembly
_atom_site_disorder_group
C105 C 0.9107(4) -0.0739(4) 1.1495(4) 0.0204(14) Uani 1 1 d . . . . .
C104 C 0.9096(4) -0.0059(4) 1.1555(3) 0.0195(14) Uani 1 1 d . . . . .
C103 C 0.8751(4) -0.2222(4) 1.1324(3) 0.0185(14) Uani 1 1 d . . . . .
C101 C 0.8690(4) 0.1027(4) 1.1674(4) 0.0203(15) Uani 1 1 d . . . . .
C102 C 0.9548(4) -0.1792(4) 1.1308(3) 0.0185(14) Uani 1 1 d . . . . .
C100 C 0.9491(4) 0.1428(4) 1.1700(4) 0.0196(15) Uani 1 1 d . . . . .
S4 S 0.82426(11) -0.16833(11) 1.14362(10) 0.0225(4) Uani 1 1 d . . . . .
S1 S 0.99710(11) 0.08637(11) 1.16427(10) 0.0247(4) Uani 1 1 d . . . . .
S3 S 0.99963(10) -0.07649(10) 1.14391(9) 0.0222(3) Uani 1 1 d . . . . .
S2 S 0.82116(11) -0.00201(11) 1.15986(10) 0.0221(4) Uani 1 1 d . . . . .
C11 C 1.1255(4) -0.2538(4) 1.1014(3) 0.0176(14) Uani 1 1 d . . . . .
C12 C 1.0653(4) -0.2937(4) 1.1451(4) 0.0178(14) Uani 1 1 d . . . . .
H12 H 1.0625 -0.3369 1.1687 0.021 Uiso 1 1 calc R . . . .
C13 C 1.0080(4) -0.2711(4) 1.1551(3) 0.0167(14) Uani 1 1 d . . . . .
H13 H 0.9661 -0.2995 1.1850 0.020 Uiso 1 1 calc R . . . .
C14 C 1.0123(5) -0.2073(4) 1.1214(3) 0.0195(15) Uani 1 1 d . . . . .
C15 C 1.0759(5) -0.1652(4) 1.0789(3) 0.0216(14) Uani 1 1 d . . . . .
H15 H 1.0808 -0.1201 1.0568 0.026 Uiso 1 1 calc R . . . .
C16 C 1.1319(5) -0.1889(5) 1.0690(4) 0.0235(16) Uani 1 1 d . . . . .
H16 H 1.1746 -0.1604 1.0398 0.028 Uiso 1 1 calc R . . . .
C1 C 1.1853(4) -0.2807(4) 1.0888(4) 0.0199(14) Uani 1 1 d . . . . .
O1 O 1.2281(3) -0.2503(3) 1.0386(3) 0.0221(11) Uani 1 1 d . . . . .
O2 O 1.1873(3) -0.3288(3) 1.1270(3) 0.0222(11) Uani 1 1 d . . . . .
C21 C 0.7197(5) -0.4758(4) 1.1208(4) 0.0197(14) Uani 1 1 d . . . . .
C22 C 0.7047(5) -0.4292(5) 1.1623(4) 0.0250(17) Uani 1 1 d . . . . .
H22 H 0.6596 -0.4539 1.1897 0.030 Uiso 1 1 calc R . . . .
C23 C 0.7538(5) -0.3474(5) 1.1648(4) 0.0257(17) Uani 1 1 d . . . . .
H23 H 0.7413 -0.3166 1.1928 0.031 Uiso 1 1 calc R . . . .
C24 C 0.8217(4) -0.3099(4) 1.1262(3) 0.0156(14) Uani 1 1 d . . . . .
C25 C 0.8373(4) -0.3562(4) 1.0843(4) 0.0192(14) Uani 1 1 d . . . . .
H25 H 0.8824 -0.3313 1.0568 0.023 Uiso 1 1 calc R . . . .
C26 C 0.7878(4) -0.4385(4) 1.0818(4) 0.0177(14) Uani 1 1 d . . . . .
H26 H 0.8000 -0.4694 1.0536 0.021 Uiso 1 1 calc R . . . .
C2 C 0.6668(4) -0.5633(4) 1.1199(3) 0.0184(14) Uani 1 1 d . . . . .
O3 O 0.6155(3) -0.5952(3) 1.1641(3) 0.0228(11) Uani 1 1 d . . . . .
O4 O 0.6735(3) -0.6070(3) 1.0761(3) 0.0195(10) Uani 1 1 d . . . . .
C31 C 0.7133(4) 0.1993(4) 1.1712(3) 0.0164(13) Uani 1 1 d . . . . .
C32 C 0.7775(4) 0.2286(4) 1.2129(4) 0.0187(15) Uani 1 1 d . . . . .
H32 H 0.7864 0.2698 1.2423 0.022 Uiso 1 1 calc R . . . .
C33 C 0.8291(4) 0.1978(4) 1.2119(3) 0.0172(14) Uani 1 1 d . . . . .
H33 H 0.8734 0.2185 1.2402 0.021 Uiso 1 1 calc R . . . .
C34 C 0.8157(4) 0.1367(4) 1.1693(4) 0.0192(15) Uani 1 1 d . . . . .
C35 C 0.7507(5) 0.1070(5) 1.1274(4) 0.0253(17) Uani 1 1 d . . . . .
H35 H 0.7412 0.0653 1.0984 0.030 Uiso 1 1 calc R . . . .
C36 C 0.7000(5) 0.1380(5) 1.1280(4) 0.0264(18) Uani 1 1 d . . . . .
H36 H 0.6561 0.1179 1.0992 0.032 Uiso 1 1 calc R . . . .
C3 C 0.6595(4) 0.2328(4) 1.1683(4) 0.0195(14) Uani 1 1 d . . . . .
O5 O 0.6624(3) 0.2818(3) 1.2101(2) 0.0180(10) Uani 1 1 d . . . . .
O6 O 0.6104(3) 0.2135(3) 1.1225(2) 0.0212(11) Uani 1 1 d . . . . .
C41 C 1.1162(4) 0.3907(4) 1.1893(3) 0.0186(14) Uani 1 1 d . . . . .
C42 C 1.1197(4) 0.3360(4) 1.2304(3) 0.0213(15) Uani 1 1 d . . . . .
H42 H 1.1596 0.3535 1.2626 0.026 Uiso 1 1 calc R . . . .
C43 C 1.0637(5) 0.2549(5) 1.2240(4) 0.0269(17) Uani 1 1 d . . . . .
H43 H 1.0658 0.2172 1.2518 0.032 Uiso 1 1 calc R . . . .
C44 C 1.0049(4) 0.2293(4) 1.1769(3) 0.0179(14) Uani 1 1 d . . . . .
C45 C 1.0012(5) 0.2852(4) 1.1373(4) 0.0209(14) Uani 1 1 d . . . . .
H45 H 0.9607 0.2681 1.1056 0.025 Uiso 1 1 calc R . . . .
C46 C 1.0558(4) 0.3653(4) 1.1439(4) 0.0182(14) Uani 1 1 d . . . . .
H46 H 1.0521 0.4031 1.1173 0.022 Uiso 1 1 calc R . . . .
C4 C 1.1794(4) 0.4770(4) 1.1963(3) 0.0166(14) Uani 1 1 d . . . . .
O7 O 1.1793(3) 0.5275(3) 1.1588(2) 0.0183(10) Uani 1 1 d . . . . .
O8 O 1.2298(3) 0.4921(3) 1.2401(3) 0.0281(12) Uani 1 1 d . . . . .
Co1 Co 0.63199(6) 0.27354(5) 1.31056(6) 0.01605(16) Uani 1 1 d . . . . .
Co2 Co 0.56752(4) 0.28741(6) 1.14465(6) 0.01588(16) Uani 1 1 d . . . . .
O1W1 O 0.7509(3) 0.3623(4) 1.3244(3) 0.0271(13) Uani 1 1 d D . . . .
H1WA H 0.769(5) 0.408(3) 1.306(4) 0.032 Uiso 1 1 d DR . . . .
H1WB H 0.775(5) 0.348(5) 1.350(3) 0.032 Uiso 1 1 d DR . . . .
O1W2 O 0.6108(3) 0.3689(3) 1.2945(3) 0.0227(11) Uani 1 1 d D . . . .
H1WC H 0.564(2) 0.351(5) 1.307(4) 0.027 Uiso 1 1 d DR . . . .
H1WD H 0.625(5) 0.385(5) 1.2562(19) 0.027 Uiso 1 1 d DR . . . .
O1D1 O 1.3557(4) -0.1087(3) 1.1286(3) 0.0389(17) Uani 0.937(10) 1 d D U P . .
C1D1 C 1.3707(6) -0.0764(5) 1.0759(4) 0.037(2) Uani 0.937(10) 1 d D U P . .
H1D1 H 1.3783 -0.1035 1.0411 0.044 Uiso 0.937(10) 1 calc R . P . .
N1D1 N 1.3774(6) -0.0045(7) 1.0637(5) 0.059(2) Uani 0.937(10) 1 d D U P . .
C2D1 C 1.3583(10) 0.0339(8) 1.1124(6) 0.078(4) Uani 0.937(10) 1 d D U P . .
H2DA H 1.3561 0.0091 1.1539 0.117 Uiso 0.937(10) 1 calc GR . P . .
H2DB H 1.3063 0.0288 1.1032 0.117 Uiso 0.937(10) 1 calc GR . P . .
H2DC H 1.3991 0.0904 1.1139 0.117 Uiso 0.937(10) 1 calc GR . P . .
C3D1 C 1.3966(8) 0.0293(6) 1.0017(5) 0.059(2) Uani 0.937(10) 1 d D U P . .
H3DA H 1.3483 0.0223 0.9806 0.089 Uiso 0.937(10) 1 calc GR . P . .
H3DB H 1.4192 0.0028 0.9763 0.089 Uiso 0.75 1 calc GR . P . .
H3DC H 1.4355 0.0863 1.0050 0.089 Uiso 0.937(10) 1 calc GR . P . .
O1D2 O 1.5662(8) -0.1025(8) 1.1552(8) 0.096(5) Uani 0.705(13) 1 d D U P . .
C1D2 C 1.5432(10) -0.0587(11) 1.1745(10) 0.084(5) Uani 0.705(13) 1 d D U P . .
H1D2 H 1.5577 -0.0126 1.1493 0.101 Uiso 0.705(13) 1 calc R . P . .
N1D2 N 1.4989(11) -0.0673(11) 1.2280(9) 0.110(4) Uani 0.705(13) 1 d D U P . .
C2D2 C 1.4865(10) -0.0083(10) 1.2449(8) 0.110(4) Uani 1 1 d D U . . .
H2DD H 1.5242 0.0404 1.2223 0.165 Uiso 1 1 calc GR . . . .
H2DE H 1.4941 0.0003 1.2914 0.165 Uiso 1 1 calc GR . . . .
H2DF H 1.4319 -0.0223 1.2336 0.165 Uiso 1 1 calc GR . . . .
C3D2 C 1.4691(10) -0.1374(10) 1.2678(8) 0.110(4) Uani 1 1 d D U . . .
H3DD H 1.4516 -0.1845 1.2406 0.165 Uiso 1 1 calc GR . . . .
H3DE H 1.4240 -0.1432 1.2933 0.165 Uiso 1 1 calc GR . . . .
H3DF H 1.5115 -0.1321 1.2966 0.165 Uiso 1 1 calc GR . . . .
O1E1 O 0.7747(6) 0.5138(6) 1.2965(6) 0.067(4) Uani 0.706(13) 1 d D U P . .
C1E1 C 0.8482(7) 0.5777(8) 1.2774(7) 0.053(3) Uani 0.706(13) 1 d D U P A 1
H1EA H 0.8747 0.6162 1.3127 0.063 Uiso 0.706(13) 1 calc R . P A 1
H1EB H 0.8428 0.6056 1.2396 0.063 Uiso 0.706(13) 1 calc R . P A 1
C10 C 0.8975(12) 0.5279(18) 1.2586(16) 0.120(9) Uani 0.706(13) 1 d . U P A 1
H10A H 0.8684 0.4738 1.2762 0.180 Uiso 0.706(13) 1 calc GR . P A 1
H10B H 0.9512 0.5561 1.2771 0.180 Uiso 0.706(13) 1 calc GR . P A 1
H10C H 0.9012 0.5252 1.2119 0.180 Uiso 0.706(13) 1 calc GR . P A 1
C0AA C 0.8172(17) 0.4926(18) 1.2528(14) 0.053(3) Uani 0.294(13) 1 d . U P A 2
H0AA H 0.8083 0.5015 1.2075 0.063 Uiso 0.294(13) 1 calc R . P A 2
H0AB H 0.8054 0.4371 1.2586 0.063 Uiso 0.294(13) 1 calc R . P A 2
C2E1 C 0.9115(14) 0.562(3) 1.280(4) 0.120(9) Uani 0.294(13) 1 d D U P A 2
H2EA H 0.9215 0.6156 1.2708 0.180 Uiso 0.294(13) 1 calc GR . P A 2
H2EB H 0.9514 0.5534 1.2575 0.180 Uiso 0.294(13) 1 calc GR . P A 2
H2EC H 0.9150 0.5553 1.3261 0.180 Uiso 0.294(13) 1 calc GR . P A 2

loop_
_atom_site_aniso_label
_atom_site_aniso_U_11
_atom_site_aniso_U_22
_atom_site_aniso_U_33
_atom_site_aniso_U_23
_atom_site_aniso_U_13
_atom_site_aniso_U_12
C105 0.009(3) 0.021(3) 0.027(4) -0.007(3) 