####################################################################### 
# 
# This file contains crystal structure data downloaded from the 
# Cambridge Structural Database (CSD) hosted by the Cambridge 
# Crystallographic Data Centre (CCDC).
# 
# Full information about CCDC data access policies and citation 
# guidelines are available at http://www.ccdc.cam.ac.uk/access/V1 
# 
# Audit and citation data items may have been added by the CCDC. 
# Please retain this information to preserve the provenance of 
# this file and to allow appropriate attribution of the data. 
# 
#######################################################################

data_Yb-pna21
_audit_block_doi                 10.5517/cc13d4wj
_database_code_depnum_ccdc_archive 'CCDC 1024577'
loop_
_citation_id
_citation_doi
_citation_year
1 10.1039/C5CE00263J 2015
_audit_update_record             
;
2015-01-16 deposited with the CCDC.	2024-07-12 downloaded from the CCDC.
;
_audit_creation_date             2015-01-12
_audit_creation_method           
;
  Olex2 1.2
  (compiled 2012.05.09 svn.r2324, GUI svn.r4230)
;
_chemical_name_common            ?
_chemical_name_systematic        
;
 ? 
;
_chemical_formula_moiety         'C75 H60 N2 O22 Yb2, 2(C3 H7 N O), C3 N O, O'
_chemical_formula_sum            'C84 H83 N5 O26 Yb2'
_chemical_formula_weight         1924.62
_chemical_absolute_configuration ad
_chemical_melting_point          ?
loop_
_atom_type_symbol
_atom_type_description
_atom_type_scat_dispersion_real
_atom_type_scat_dispersion_imag
_atom_type_scat_source
C C 0.0033 0.0016 'International Tables Vol C Tables 4.2.6.8 and 6.1.1.4'
H H 0.0000 0.0000 'International Tables Vol C Tables 4.2.6.8 and 6.1.1.4'
N N 0.0061 0.0033 'International Tables Vol C Tables 4.2.6.8 and 6.1.1.4'
O O 0.0106 0.0060 'International Tables Vol C Tables 4.2.6.8 and 6.1.1.4'
Yb Yb -0.3850 5.5486 'International Tables Vol C Tables 4.2.6.8 and 6.1.1.4'

_space_group_crystal_system      orthorhombic
_space_group_IT_number           33
_space_group_name_H-M_alt        'P n a 21'
_space_group_name_Hall           'P 2c -2n'
loop_
_space_group_symop_id
_space_group_symop_operation_xyz
1 'x, y, z'
2 '-x, -y, z+1/2'
3 '-x+1/2, y+1/2, z+1/2'
4 'x+1/2, -y+1/2, z'

_cell_length_a                   19.08923(19)
_cell_length_b                   14.38724(17)
_cell_length_c                   30.5462(4)
_cell_angle_alpha                90.00
_cell_angle_beta                 90.00
_cell_angle_gamma                90.00
_cell_volume                     8389.26(17)
_cell_formula_units_Z            4
_cell_measurement_reflns_used    16160
_cell_measurement_temperature    291(2)
_cell_measurement_theta_max      29.1801
_cell_measurement_theta_min      2.9193
_exptl_absorpt_coefficient_mu    2.296
_exptl_absorpt_correction_T_max  0.72600
_exptl_absorpt_correction_T_min  0.65820
_exptl_absorpt_correction_type   multi-scan
_exptl_absorpt_process_details   
;
CrysAlisPro, Agilent Technologies,
Version 1.171.35.15 (release 03-08-2011 CrysAlis171 .NET)
(compiled Aug  3 2011,13:03:54)
Empirical absorption correction using spherical harmonics,
 implemented in SCALE3 ABSPACK scaling algorithm.
;
_exptl_crystal_colour            'pale yellow'
_exptl_crystal_density_diffrn    1.517
_exptl_crystal_density_meas      ?
_exptl_crystal_density_method    'not measured'
_exptl_crystal_description       Prism
_exptl_crystal_F_000             3844
_exptl_crystal_size_max          0.20
_exptl_crystal_size_mid          0.20
_exptl_crystal_size_min          0.15
_exptl_special_details           
;
 ? 
;
_diffrn_reflns_av_R_equivalents  0.0396
_diffrn_reflns_av_unetI/netI     0.0478
_diffrn_reflns_limit_h_max       24
_diffrn_reflns_limit_h_min       -21
_diffrn_reflns_limit_k_max       17
_diffrn_reflns_limit_k_min       -17
_diffrn_reflns_limit_l_max       38
_diffrn_reflns_limit_l_min       -35
_diffrn_reflns_number            44562
_diffrn_reflns_theta_full        26.73
_diffrn_reflns_theta_max         26.73
_diffrn_reflns_theta_min         3.03
_diffrn_ambient_temperature      291.15
_diffrn_detector_area_resol_mean 16.2312
_diffrn_measured_fraction_theta_full 0.991
_diffrn_measured_fraction_theta_max 0.991
_diffrn_measurement_details      
;
#__ type_ start__ end____ width___ exp.time_
  1 omega  -11.00   14.00   0.5000    8.0000
omega____ theta____ kappa____ phi______ frames
    -      -17.1323 -116.0000  157.0000 50

#__ type_ start__ end____ width___ exp.time_
  2 omega  -10.00   32.00   0.5000    8.0000
omega____ theta____ kappa____ phi______ frames
    -       19.7885 -116.0000  157.0000 84

#__ type_ start__ end____ width___ exp.time_
  3 omega   35.00   60.00   0.5000    8.0000
omega____ theta____ kappa____ phi______ frames
    -       19.7885 -165.0000   10.0000 50

#__ type_ start__ end____ width___ exp.time_
  4 omega   -6.00   22.00   0.5000    8.0000
omega____ theta____ kappa____ phi______ frames
    -      -17.1323  -99.0000  -30.0000 56

#__ type_ start__ end____ width___ exp.time_
  5 omega  -24.00   25.00   0.5000    8.0000
omega____ theta____ kappa____ phi______ frames
    -      -17.1323  -99.0000  120.0000 98

#__ type_ start__ end____ width___ exp.time_
  6 omega  -25.00    6.00   0.5000    8.0000
omega____ theta____ kappa____ phi______ frames
    -      -17.1323  -99.0000    0.0000 62

#__ type_ start__ end____ width___ exp.time_
  7 omega   -8.00   23.00   0.5000    8.0000
omega____ theta____ kappa____ phi______ frames
    -      -17.1323  -99.0000   30.0000 62

#__ type_ start__ end____ width___ exp.time_
  8 omega   35.00   96.00   0.5000    8.0000
omega____ theta____ kappa____ phi______ frames
    -       19.7885  178.0000  150.0000 122
;
_diffrn_measurement_device_type  'Xcalibur, Eos, Gemini'
_diffrn_measurement_method       '\w scans'
_diffrn_orient_matrix_UB_11      0.0000027000
_diffrn_orient_matrix_UB_12      -0.0200049000
_diffrn_orient_matrix_UB_13      0.0212240000
_diffrn_orient_matrix_UB_21      0.0143446000
_diffrn_orient_matrix_UB_22      0.0415606000
_diffrn_orient_matrix_UB_23      0.0086929000
_diffrn_orient_matrix_UB_31      -0.0342794000
_diffrn_orient_matrix_UB_32      0.0173892000
_diffrn_orient_matrix_UB_33      0.0036391000
_diffrn_radiation_monochromator  graphite
_diffrn_radiation_type           'Mo K\a'
_diffrn_radiation_wavelength     0.7107
_diffrn_source                   'Enhance (Mo) X-ray Source'
_diffrn_source_current           n/a
_diffrn_source_voltage           n/a
_diffrn_standards_decay_%        ?
_diffrn_standards_interval_count ?
_diffrn_standards_interval_time  ?
_diffrn_standards_number         ?
_reflns_number_gt                14726
_reflns_number_total             16297
_reflns_odcompleteness_completeness 99.70
_reflns_odcompleteness_iscentric 1
_reflns_odcompleteness_theta     26.32
_reflns_threshold_expression     >2sigma(I)
_computing_cell_refinement       
;
CrysAlisPro, Agilent Technologies,
Version 1.171.35.15 (release 03-08-2011 CrysAlis171 .NET)
(compiled Aug  3 2011,13:03:54)
;
_computing_data_collection       
;
CrysAlisPro, Agilent Technologies,
Version 1.171.35.15 (release 03-08-2011 CrysAlis171 .NET)
(compiled Aug  3 2011,13:03:54)
;
_computing_data_reduction        
;
CrysAlisPro, Agilent Technologies,
Version 1.171.35.15 (release 03-08-2011 CrysAlis171 .NET)
(compiled Aug  3 2011,13:03:54)
;
_computing_molecular_graphics    
;
O. V. Dolomanov, L. J. Bourhis, R. J. Gildea, J. A. K. Howard and H. Puschmann,
OLEX2: a complete structure solution, refinement and analysis program.
J. Appl. Cryst. (2009). 42, 339-341.
;
_computing_publication_material  
;
O. V. Dolomanov, L. J. Bourhis, R. J. Gildea, J. A. K. Howard and H. Puschmann,
OLEX2: a complete structure solution, refinement and analysis program.
J. Appl. Cryst. (2009). 42, 339-341.
;
_computing_structure_refinement  
;
XL, G.M. Sheldrick, Acta Cryst.
(2008). A64, 112-122
;
_computing_structure_solution    
;
XS, G.M. Sheldrick, Acta Cryst.
(2008). A64, 112-122
;
_refine_diff_density_max         0.954
_refine_diff_density_min         -0.766
_refine_diff_density_rms         0.100
_refine_ls_abs_structure_details 'Flack H D (1983), Acta Cryst. A39, 876-881'
_refine_ls_abs_structure_Flack   0.00(7)
_refine_ls_extinction_coef       ?
_refine_ls_extinction_method     none
_refine_ls_goodness_of_fit_ref   1.043
_refine_ls_hydrogen_treatment    noref
_refine_ls_matrix_type           full
_refine_ls_number_parameters     995
_refine_ls_number_reflns         16297
_refine_ls_number_restraints     78
_refine_ls_R_factor_all          0.0478
_refine_ls_R_factor_gt           0.0408
_refine_ls_restrained_S_all      1.056
_refine_ls_shift/su_max          0.025
_refine_ls_shift/su_mean         0.008
_refine_ls_structure_factor_coef Fsqd
_refine_ls_weighting_details     
'calc w=1/[\s^2^(Fo^2^)+(0.0480P)^2^+10.1157P] where P=(Fo^2^+2Fc^2^)/3'
_refine_ls_weighting_scheme      calc
_refine_ls_wR_factor_gt          0.0940
_refine_ls_wR_factor_ref         0.0981
_refine_special_details          
;
 Refinement of F^2^ against ALL reflections.  The weighted R-factor wR and 
 goodness of fit S are based on F^2^, conventional R-factors R are based 
 on F, with F set to zero for negative F^2^. The threshold expression of 
 F^2^ > 2sigma(F^2^) is used only for calculating R-factors(gt) etc. and is 
 not relevant to the choice of reflections for refinement.  R-factors based 
 on F^2^ are statistically about twice as large as those based on F, and R- 
 factors based on ALL data will be even larger. 
;
_atom_sites_solution_hydrogens   geom
_atom_sites_solution_primary     direct
_atom_sites_solution_secondary   difmap
loop_
_atom_site_label
_atom_site_type_symbol
_atom_site_fract_x
_atom_site_fract_y
_atom_site_fract_z
_atom_site_U_iso_or_equiv
_atom_site_adp_type
_atom_site_occupancy
_atom_site_symmetry_multiplicity
_atom_site_calc_flag
_atom_site_refinement_flags
_atom_site_disorder_assembly
_atom_site_disorder_group
Yb1 Yb 0.141348(9) 0.462687(12) 0.370201(6) 0.02512(4) Uani 1 1 d . . .
Yb2 Yb 0.189107(9) 0.524192(12) 0.494440(7) 0.02643(4) Uani 1 1 d . . .
O4 O 0.08936(17) 0.5211(2) 0.45781(13) 0.0376(9) Uani 1 1 d U . .
O6 O -0.10683(18) 0.5077(3) 0.39920(12) 0.0397(10) Uani 1 1 d . . .
H6 H -0.0681 0.5156 0.3882 0.059 Uiso 1 1 calc R . .
O13 O 0.23722(16) 0.4693(2) 0.41451(12) 0.0329(9) Uani 1 1 d . . .
O5 O 0.02943(17) 0.4995(3) 0.39746(11) 0.0372(9) Uani 1 1 d . . .
O3 O 0.2406(2) 0.8208(3) 0.46896(11) 0.0441(10) Uani 1 1 d . . .
H3 H 0.2580 0.7693 0.4725 0.066 Uiso 1 1 calc R . .
O8 O 0.1616(2) 0.4668(3) 0.56149(12) 0.0468(11) Uani 1 1 d U . .
C9 C 0.2384(2) 0.9476(3) 0.36493(19) 0.0343(12) Uani 1 1 d . . .
C22 C -0.1633(3) 0.5094(3) 0.46767(18) 0.0327(12) Uani 1 1 d U . .
O11 O 0.19032(19) 0.5091(3) 0.30225(12) 0.0409(10) Uani 1 1 d . . .
O14 O 0.30208(18) 0.4779(3) 0.47338(12) 0.0391(10) Uani 1 1 d . . .
O22 O 0.2160(2) 0.3423(3) 0.34652(12) 0.0464(10) Uani 1 1 d . . .
H22A H 0.2319 0.3082 0.3692 0.070 Uiso 1 1 d R . .
H22B H 0.1942 0.3026 0.3281 0.070 Uiso 1 1 d R . .
C12 C 0.2681(3) 0.9999(3) 0.44411(17) 0.0331(12) Uani 1 1 d . . .
H12A H 0.2680 1.0597 0.4294 0.040 Uiso 1 1 calc R . .
H12B H 0.2313 1.0018 0.4660 0.040 Uiso 1 1 calc R . .
C14 C -0.0341(3) 0.5108(3) 0.46441(17) 0.0315(12) Uani 1 1 d . . .
O21 O 0.1283(2) 0.6471(3) 0.52721(12) 0.0469(10) Uani 1 1 d . . .
H2A H 0.0974 0.6686 0.5093 0.070 Uiso 1 1 d R . .
H2B H 0.1570 0.6912 0.5339 0.070 Uiso 1 1 d R . .
C23 C -0.1012(2) 0.5103(3) 0.44395(16) 0.0256(11) Uani 1 1 d . . .
O10 O 0.08231(18) 0.5531(3) 0.31451(11) 0.0393(9) Uani 1 1 d . . .
C1 C 0.1951(2) 0.6703(3) 0.41049(16) 0.0288(11) Uani 1 1 d . . .
C2 C 0.2119(2) 0.7660(3) 0.39520(16) 0.0299(11) Uani 1 1 d U . .
C10 C 0.2481(2) 0.9271(3) 0.41073(17) 0.0311(12) Uani 1 1 d . . .
O1 O 0.16678(18) 0.6161(2) 0.38426(11) 0.0395(9) Uani 1 1 d . . .
C13 C 0.0316(2) 0.5117(3) 0.43796(17) 0.0284(11) Uani 1 1 d U . .
C47 C 0.2973(2) 0.4741(3) 0.43186(19) 0.0334(13) Uani 1 1 d . . .
C11 C 0.2333(2) 0.8380(3) 0.42473(17) 0.0324(12) Uani 1 1 d . . .
O2 O 0.21057(18) 0.6485(2) 0.45031(11) 0.0352(9) Uani 1 1 d . . .
C3 C 0.2038(3) 0.7863(4) 0.35160(17) 0.0338(12) Uani 1 1 d U . .
H3A H 0.1889 0.7401 0.3325 0.041 Uiso 1 1 calc R . .
O20 O 0.0690(2) 0.3599(3) 0.33288(12) 0.0467(10) Uani 1 1 d U . .
C36 C 0.1357(3) 0.5563(3) 0.29143(17) 0.0331(12) Uani 1 1 d . . .
C56 C 0.4889(2) 0.4982(3) 0.39840(17) 0.0297(12) Uani 1 1 d D . .
O18 O 0.59097(19) 0.3293(2) 0.39825(10) 0.0371(9) Uani 1 1 d . . .
H18 H 0.5975 0.2737 0.3940 0.056 Uiso 1 1 calc R . .
O9 O 0.2084(2) 0.3142(3) 0.59310(11) 0.0466(10) Uani 1 1 d . . .
H9 H 0.2076 0.3577 0.5757 0.070 Uiso 1 1 calc R . .
O15 O 0.43662(19) 0.4924(3) 0.46778(12) 0.0445(10) Uani 1 1 d . . .
H15 H 0.3981 0.4889 0.4795 0.067 Uiso 1 1 calc R . .
C61 C 0.6196(2) 0.2998(3) 0.51556(15) 0.0304(12) Uani 1 1 d . . .
H61 H 0.6323 0.2542 0.5356 0.036 Uiso 1 1 calc R . .
O12 O 0.2525(2) 0.5623(3) 0.23193(12) 0.0515(11) Uani 1 1 d . . .
H12 H 0.2453 0.5349 0.2550 0.077 Uiso 1 1 calc R . .
C37 C 0.1386(2) 0.6179(3) 0.25214(16) 0.0328(12) Uani 1 1 d . . .
C67 C 0.5854(2) 0.4600(3) 0.50026(18) 0.0313(12) Uani 1 1 d U . .
C4 C 0.2176(2) 0.8764(3) 0.33530(17) 0.0336(12) Uani 1 1 d . . .
C55 C 0.4814(3) 0.5043(4) 0.35223(16) 0.0363(13) Uani 1 1 d D . .
C68 C 0.5799(2) 0.4353(3) 0.45521(15) 0.0277(11) Uani 1 1 d D . .
C62 C 0.6037(2) 0.3889(3) 0.53048(16) 0.0316(12) Uani 1 1 d . . .
C64 C 0.5969(3) 0.4978(5) 0.5906(2) 0.0555(17) Uani 1 1 d . . .
H64 H 0.5994 0.5107 0.6204 0.067 Uiso 1 1 calc R . .
C15 C -0.0313(3) 0.5069(4) 0.50935(16) 0.0354(13) Uani 1 1 d . . .
H15A H 0.0123 0.5065 0.5229 0.042 Uiso 1 1 calc R . .
C66 C 0.5758(3) 0.5520(4) 0.5165(2) 0.0457(15) Uani 1 1 d U . .
H66 H 0.5654 0.6002 0.4973 0.055 Uiso 1 1 calc R . .
C48 C 0.3614(2) 0.4823(3) 0.40447(18) 0.0307(12) Uani 1 1 d . . .
C38 C 0.0820(3) 0.6731(4) 0.24328(17) 0.0424(14) Uani 1 1 d . . .
H38 H 0.0428 0.6704 0.2613 0.051 Uiso 1 1 calc R . .
C49 C 0.3549(2) 0.4879(4) 0.35999(17) 0.0367(14) Uani 1 1 d . . .
H49 H 0.3107 0.4846 0.3473 0.044 Uiso 1 1 calc R . .
C50 C 0.4135(3) 0.4983(4) 0.33355(18) 0.0392(14) Uani 1 1 d . . .
C8 C 0.2473(3) 1.0387(4) 0.3466(2) 0.0496(16) Uani 1 1 d . . .
H8 H 0.2610 1.0873 0.3648 0.059 Uiso 1 1 calc R . .
C33 C 0.1901(3) 0.2831(4) 0.66891(16) 0.0374(13) Uani 1 1 d . . .
C5 C 0.2081(3) 0.8943(4) 0.29045(18) 0.0436(15) Uani 1 1 d . . .
H5 H 0.1947 0.8470 0.2715 0.052 Uiso 1 1 calc R . .
C46 C 0.1991(3) 0.6209(4) 0.22374(16) 0.0371(13) Uani 1 1 d . . .
C58 C 0.5610(2) 0.5094(3) 0.42019(17) 0.0355(13) Uani 1 1 d D . .
H58A H 0.5629 0.5702 0.4338 0.043 Uiso 1 1 calc R . .
H58B H 0.5965 0.5079 0.3975 0.043 Uiso 1 1 calc R . .
C54 C 0.5394(3) 0.5153(5) 0.3228(2) 0.0564(17) Uani 1 1 d DU . .
H54 H 0.5849 0.5164 0.3337 0.068 Uiso 1 1 calc R . .
C25 C 0.1477(3) 0.4301(4) 0.63583(15) 0.0398(14) Uani 1 1 d D . .
O19 O 0.2698(2) 0.5925(4) 0.53909(14) 0.0687(14) Uani 1 1 d . . .
C16 C -0.0902(3) 0.5035(4) 0.53489(15) 0.0405(14) Uani 1 1 d D . .
C44 C 0.1435(3) 0.7389(4) 0.17974(17) 0.0381(13) Uani 1 1 d . . .
C52 C 0.4610(3) 0.5193(5) 0.2602(2) 0.065(2) Uani 1 1 d . . .
H52 H 0.4549 0.5252 0.2301 0.077 Uiso 1 1 calc R . .
O7 O 0.1105(3) 0.5703(3) 0.60354(14) 0.0780(16) Uani 1 1 d . . .
C63 C 0.6074(3) 0.4113(4) 0.57585(17) 0.0415(14) Uani 1 1 d . . .
H63 H 0.6174 0.3644 0.5958 0.050 Uiso 1 1 calc R . .
C57 C 0.4288(2) 0.4909(3) 0.42383(17) 0.0293(11) Uani 1 1 d . . .
C24 C 0.1385(4) 0.4958(4) 0.59818(18) 0.0506(17) Uani 1 1 d DU . .
C6 C 0.2188(3) 0.9822(5) 0.2753(2) 0.0551(18) Uani 1 1 d . . .
H6A H 0.2145 0.9946 0.2455 0.066 Uiso 1 1 calc R . .
C32 C 0.1598(3) 0.3115(4) 0.70833(17) 0.0410(14) Uani 1 1 d . . .
C53 C 0.5278(4) 0.5243(6) 0.2783(2) 0.066(2) Uani 1 1 d U . .
H53 H 0.5658 0.5341 0.2598 0.080 Uiso 1 1 calc R . .
C17 C -0.0862(4) 0.4946(6) 0.58136(18) 0.067(2) Uani 1 1 d D . .
H17 H -0.0426 0.4926 0.5948 0.080 Uiso 1 1 calc R . .
C21 C -0.1577(2) 0.5055(4) 0.51431(18) 0.0358(13) Uani 1 1 d DU . .
C34 C 0.1813(3) 0.3427(4) 0.63247(16) 0.0380(13) Uani 1 1 d . . .
C26 C 0.1210(3) 0.4553(4) 0.67583(18) 0.0453(15) Uani 1 1 d . . .
H26 H 0.0988 0.5126 0.6783 0.054 Uiso 1 1 calc R . .
C51 C 0.4058(3) 0.5060(5) 0.2862(2) 0.0562(18) Uani 1 1 d . . .
H51 H 0.3614 0.5015 0.2739 0.067 Uiso 1 1 calc R . .
C31 C 0.1604(3) 0.2520(4) 0.74669(17) 0.0455(15) Uani 1 1 d . . .
H31 H 0.1810 0.1935 0.7452 0.055 Uiso 1 1 calc R . .
C45 C 0.2035(3) 0.6840(4) 0.19017(15) 0.0332(12) Uani 1 1 d . . .
C69 C 0.5959(2) 0.3477(3) 0.44195(15) 0.0274(11) Uani 1 1 d . . .
C7 C 0.2364(4) 1.0549(5) 0.3046(2) 0.063(2) Uani 1 1 d . . .
H7 H 0.2403 1.1153 0.2941 0.075 Uiso 1 1 calc R . .
C65 C 0.5820(3) 0.5690(4) 0.5604(2) 0.0615(19) Uani 1 1 d . . .
H65 H 0.5763 0.6294 0.5706 0.074 Uiso 1 1 calc R . .
C39 C 0.0824(3) 0.7348(4) 0.20673(18) 0.0407(13) Uani 1 1 d . . .
C27 C 0.1255(3) 0.3992(4) 0.71289(16) 0.0445(15) Uani 1 1 d . . .
C59 C 0.6366(2) 0.1817(3) 0.45722(16) 0.0298(11) Uani 1 1 d DU . .
C60 C 0.6168(2) 0.2780(3) 0.47132(15) 0.0266(11) Uani 1 1 d D . .
C28 C 0.0966(4) 0.4257(5) 0.7540(2) 0.0629(19) Uani 1 1 d . . .
H28 H 0.0752 0.4834 0.7567 0.075 Uiso 1 1 calc R . .
C40 C 0.0227(4) 0.7846(5) 0.1956(2) 0.065(2) Uani 1 1 d . . .
H40 H -0.0171 0.7799 0.2131 0.078 Uiso 1 1 calc R . .
C43 C 0.1395(3) 0.7976(5) 0.14240(18) 0.0562(18) Uani 1 1 d . . .
H43 H 0.1777 0.8021 0.1236 0.067 Uiso 1 1 calc R . .
C29 C 0.0995(4) 0.3682(6) 0.7894(2) 0.068(2) Uani 1 1 d . . .
H29 H 0.0809 0.3864 0.8162 0.082 Uiso 1 1 calc R . .
C20 C -0.2175(3) 0.5013(5) 0.5430(2) 0.063(2) Uani 1 1 d D . .
H20 H -0.2623 0.5044 0.5311 0.076 Uiso 1 1 calc R . .
C42 C 0.0805(4) 0.8470(5) 0.1339(2) 0.067(2) Uani 1 1 d . . .
H42 H 0.0800 0.8867 0.1099 0.080 Uiso 1 1 calc R . .
C19 C -0.2104(4) 0.4930(6) 0.5861(3) 0.075(2) Uani 1 1 d . . .
H19 H -0.2506 0.4899 0.6033 0.090 Uiso 1 1 calc R . .
C30 C 0.1312(3) 0.2814(5) 0.7845(2) 0.0620(19) Uani 1 1 d . . .
H30 H 0.1322 0.2417 0.8085 0.074 Uiso 1 1 calc R . .
C41 C 0.0215(4) 0.8407(5) 0.1593