####################################################################### 
# 
# This file contains crystal structure data downloaded from the 
# Cambridge Structural Database (CSD) hosted by the Cambridge 
# Crystallographic Data Centre (CCDC).
# 
# Full information about CCDC data access policies and citation 
# guidelines are available at http://www.ccdc.cam.ac.uk/access/V1 
# 
# Audit and citation data items may have been added by the CCDC. 
# Please retain this information to preserve the provenance of 
# this file and to allow appropriate attribution of the data. 
# 
#######################################################################

data_Er-pna21
_audit_block_doi                 10.5517/cc13d4vh
_database_code_depnum_ccdc_archive 'CCDC 1024576'
loop_
_citation_id
_citation_doi
_citation_year
1 10.1039/C5CE00263J 2015
_audit_update_record             
;
2015-01-16 deposited with the CCDC.	2024-07-12 downloaded from the CCDC.
;
_audit_creation_date             2015-01-12
_audit_creation_method           
;
  Olex2 1.2
  (compiled 2012.05.09 svn.r2324, GUI svn.r4230)
;
_chemical_name_common            ?
_chemical_name_systematic        
;
 ? 
;
_chemical_formula_moiety         'C75 H60 Er2 N2 O22, 3(C3 H7 N O), O'
_chemical_formula_sum            'C84 H83 Er2 N5 O26'
_chemical_formula_weight         1913.06
_chemical_absolute_configuration ad
_chemical_melting_point          ?
_chemical_oxdiff_formula         C40H40O6N4Er1
loop_
_atom_type_symbol
_atom_type_description
_atom_type_scat_dispersion_real
_atom_type_scat_dispersion_imag
_atom_type_scat_source
C C 0.0033 0.0016 'International Tables Vol C Tables 4.2.6.8 and 6.1.1.4'
H H 0.0000 0.0000 'International Tables Vol C Tables 4.2.6.8 and 6.1.1.4'
Er Er -0.2586 4.9576 'International Tables Vol C Tables 4.2.6.8 and 6.1.1.4'
N N 0.0061 0.0033 'International Tables Vol C Tables 4.2.6.8 and 6.1.1.4'
O O 0.0106 0.0060 'International Tables Vol C Tables 4.2.6.8 and 6.1.1.4'

_space_group_crystal_system      orthorhombic
_space_group_IT_number           33
_space_group_name_H-M_alt        'P n a 21'
_space_group_name_Hall           'P 2c -2n'
loop_
_space_group_symop_id
_space_group_symop_operation_xyz
1 'x, y, z'
2 '-x, -y, z+1/2'
3 '-x+1/2, y+1/2, z+1/2'
4 'x+1/2, -y+1/2, z'

_cell_length_a                   19.0983(3)
_cell_length_b                   14.4221(3)
_cell_length_c                   30.5560(10)
_cell_angle_alpha                90.00
_cell_angle_beta                 90.00
_cell_angle_gamma                90.00
_cell_volume                     8416.3(4)
_cell_formula_units_Z            4
_cell_measurement_reflns_used    7239
_cell_measurement_temperature    291(2)
_cell_measurement_theta_max      29.1242
_cell_measurement_theta_min      2.8791
_exptl_absorpt_coefficient_mu    2.061
_exptl_absorpt_correction_T_max  0.82100
_exptl_absorpt_correction_T_min  0.68238
_exptl_absorpt_correction_type   multi-scan
_exptl_absorpt_process_details   
;
CrysAlisPro, Agilent Technologies,
Version 1.171.36.21 (release 14-08-2012 CrysAlis171 .NET)
(compiled Sep 14 2012,17:21:16)
Empirical absorption correction using spherical harmonics,
 implemented in SCALE3 ABSPACK scaling algorithm.
;
_exptl_crystal_colour            'PALE YELLOW'
_exptl_crystal_density_diffrn    1.508
_exptl_crystal_density_meas      ?
_exptl_crystal_density_method    'not measured'
_exptl_crystal_description       PRISMATIC
_exptl_crystal_F_000             3856
_exptl_crystal_size_max          0.20
_exptl_crystal_size_mid          0.15
_exptl_crystal_size_min          0.10
_exptl_special_details           
;
 ? 
;
_diffrn_reflns_av_R_equivalents  0.0462
_diffrn_reflns_av_unetI/netI     0.0610
_diffrn_reflns_limit_h_max       22
_diffrn_reflns_limit_h_min       -24
_diffrn_reflns_limit_k_max       18
_diffrn_reflns_limit_k_min       -11
_diffrn_reflns_limit_l_max       15
_diffrn_reflns_limit_l_min       -38
_diffrn_reflns_number            27069
_diffrn_reflns_theta_full        27.10
_diffrn_reflns_theta_max         27.10
_diffrn_reflns_theta_min         2.88
_diffrn_ambient_temperature      291.15
_diffrn_detector_area_resol_mean 16.2312
_diffrn_measured_fraction_theta_full 0.984
_diffrn_measured_fraction_theta_max 0.984
_diffrn_measurement_details      
;
#__ type_ start__ end____ width___ exp.time_
  1 omega   36.00   61.00   1.0000  175.4600
omega____ theta____ kappa____ phi______ frames
    -       19.6323  178.0000   90.0000 25

#__ type_ start__ end____ width___ exp.time_
  2 omega   40.00   82.00   1.0000  175.4600
omega____ theta____ kappa____ phi______ frames
    -       19.6323 -133.0000  105.0000 42

#__ type_ start__ end____ width___ exp.time_
  3 omega  -17.00   86.00   1.0000  175.4600
omega____ theta____ kappa____ phi______ frames
    -       19.6323   19.0000 -120.0000 103
;
_diffrn_measurement_device_type  'Xcalibur, Eos, Gemini'
_diffrn_measurement_method       '\w scans'
_diffrn_orient_matrix_UB_11      0.0084297000
_diffrn_orient_matrix_UB_12      0.0299312000
_diffrn_orient_matrix_UB_13      -0.0176533000
_diffrn_orient_matrix_UB_21      -0.0107085000
_diffrn_orient_matrix_UB_22      -0.0346320000
_diffrn_orient_matrix_UB_23      -0.0150518000
_diffrn_orient_matrix_UB_31      -0.0345576000
_diffrn_orient_matrix_UB_32      0.0180216000
_diffrn_orient_matrix_UB_33      0.0003661000
_diffrn_radiation_monochromator  graphite
_diffrn_radiation_type           'Mo K\a'
_diffrn_radiation_wavelength     0.7107
_diffrn_source                   'Enhance (Mo) X-ray Source'
_diffrn_standards_decay_%        ?
_diffrn_standards_interval_count ?
_diffrn_standards_interval_time  ?
_diffrn_standards_number         ?
_reflns_number_gt                9403
_reflns_number_total             11460
_reflns_odcompleteness_completeness 99.69
_reflns_odcompleteness_iscentric 1
_reflns_odcompleteness_theta     26.32
_reflns_threshold_expression     >2sigma(I)
_computing_cell_refinement       
;
CrysAlisPro, Agilent Technologies,
Version 1.171.36.21 (release 14-08-2012 CrysAlis171 .NET)
(compiled Sep 14 2012,17:21:16)
;
_computing_data_collection       
;
CrysAlisPro, Agilent Technologies,
Version 1.171.36.21 (release 14-08-2012 CrysAlis171 .NET)
(compiled Sep 14 2012,17:21:16)
;
_computing_data_reduction        
;
CrysAlisPro, Agilent Technologies,
Version 1.171.36.21 (release 14-08-2012 CrysAlis171 .NET)
(compiled Sep 14 2012,17:21:16)
;
_computing_molecular_graphics    
;
O. V. Dolomanov, L. J. Bourhis, R. J. Gildea, J. A. K. Howard and H. Puschmann,
OLEX2: a complete structure solution, refinement and analysis program.
J. Appl. Cryst. (2009). 42, 339-341.
;
_computing_publication_material  
;
O. V. Dolomanov, L. J. Bourhis, R. J. Gildea, J. A. K. Howard and H. Puschmann,
OLEX2: a complete structure solution, refinement and analysis program.
J. Appl. Cryst. (2009). 42, 339-341.
;
_computing_structure_refinement  
;
XL, G.M. Sheldrick, Acta Cryst.
(2008). A64, 112-122
;
_computing_structure_solution    
;
XS, G.M. Sheldrick, Acta Cryst.
(2008). A64, 112-122
;
_refine_diff_density_max         0.962
_refine_diff_density_min         -0.886
_refine_diff_density_rms         0.117
_refine_ls_abs_structure_details 'Flack H D (1983), Acta Cryst. A39, 876-881'
_refine_ls_abs_structure_Flack   -0.016(10)
_refine_ls_extinction_coef       ?
_refine_ls_extinction_method     none
_refine_ls_goodness_of_fit_ref   1.045
_refine_ls_hydrogen_treatment    noref
_refine_ls_matrix_type           full
_refine_ls_number_parameters     996
_refine_ls_number_reflns         11460
_refine_ls_number_restraints     88
_refine_ls_R_factor_all          0.0612
_refine_ls_R_factor_gt           0.0423
_refine_ls_restrained_S_all      1.054
_refine_ls_shift/su_max          0.018
_refine_ls_shift/su_mean         0.003
_refine_ls_structure_factor_coef Fsqd
_refine_ls_weighting_details     
'calc w=1/[\s^2^(Fo^2^)+(0.0509P)^2^+2.3737P] where P=(Fo^2^+2Fc^2^)/3'
_refine_ls_weighting_scheme      calc
_refine_ls_wR_factor_gt          0.0930
_refine_ls_wR_factor_ref         0.1022
_refine_special_details          
;
 Refinement of F^2^ against ALL reflections.  The weighted R-factor wR and 
 goodness of fit S are based on F^2^, conventional R-factors R are based 
 on F, with F set to zero for negative F^2^. The threshold expression of 
 F^2^ > 2sigma(F^2^) is used only for calculating R-factors(gt) etc. and is 
 not relevant to the choice of reflections for refinement.  R-factors based 
 on F^2^ are statistically about twice as large as those based on F, and R- 
 factors based on ALL data will be even larger. 
;
_atom_sites_solution_hydrogens   geom
_atom_sites_solution_primary     direct
_atom_sites_solution_secondary   difmap
loop_
_atom_site_label
_atom_site_type_symbol
_atom_site_fract_x
_atom_site_fract_y
_atom_site_fract_z
_atom_site_U_iso_or_equiv
_atom_site_adp_type
_atom_site_occupancy
_atom_site_symmetry_multiplicity
_atom_site_calc_flag
_atom_site_refinement_flags
_atom_site_disorder_assembly
_atom_site_disorder_group
Er1 Er 0.141263(11) 0.462202(15) 0.747513(9) 0.02415(5) Uani 1 1 d . . .
Er2 Er 0.187847(12) 0.524188(15) 0.623267(10) 0.02567(6) Uani 1 1 d . . .
O1 O 0.1111(3) 0.5707(4) 0.51329(19) 0.0797(19) Uani 1 1 d U . .
O2 O 0.1610(3) 0.4670(3) 0.55599(16) 0.0447(13) Uani 1 1 d . . .
O3 O 0.2074(2) 0.3145(3) 0.52424(15) 0.0454(13) Uani 1 1 d . . .
H3 H 0.2162 0.3602 0.5392 0.068 Uiso 1 1 calc R . .
O4 O 0.08212(19) 0.5531(3) 0.80315(15) 0.0357(12) Uani 1 1 d . . .
O5 O 0.1906(2) 0.5082(3) 0.81640(16) 0.0359(12) Uani 1 1 d . . .
O6 O 0.2522(2) 0.5615(3) 0.88661(17) 0.0498(14) Uani 1 1 d . . .
H6 H 0.2417 0.5270 0.8663 0.075 Uiso 1 1 calc R . .
O7 O 0.1659(2) 0.3689(2) 0.63210(14) 0.0330(11) Uani 1 1 d . . .
O8 O 0.12024(19) 0.3404(3) 0.69900(14) 0.0304(11) Uani 1 1 d . . .
O9 O 0.0904(2) 0.1690(3) 0.71935(14) 0.0379(12) Uani 1 1 d . . .
H9 H 0.0975 0.2244 0.7236 0.057 Uiso 1 1 calc R . .
O10 O 0.23660(18) 0.4702(3) 0.70156(15) 0.0292(11) Uani 1 1 d . . .
O11 O 0.3027(2) 0.4790(3) 0.64316(15) 0.0358(12) Uani 1 1 d . . .
O12 O 0.4361(2) 0.4931(3) 0.64921(15) 0.0429(13) Uani 1 1 d . . .
H12 H 0.3974 0.4893 0.6377 0.064 Uiso 1 1 calc R . .
O13 O 0.1678(2) 0.6167(3) 0.73385(14) 0.0356(12) Uani 1 1 d . . .
O14 O 0.2085(2) 0.6503(3) 0.66744(15) 0.0337(11) Uani 1 1 d . . .
O15 O 0.2391(2) 0.8222(3) 0.64908(15) 0.0382(12) Uani 1 1 d . . .
H15 H 0.2506 0.7681 0.6453 0.057 Uiso 1 1 calc R . .
O16 O 0.08852(19) 0.5211(3) 0.66244(17) 0.0391(13) Uani 1 1 d . . .
O17 O 0.02714(19) 0.4983(3) 0.72169(15) 0.0344(12) Uani 1 1 d . . .
O18 O -0.10849(19) 0.5059(3) 0.71860(15) 0.0371(12) Uani 1 1 d . . .
H18 H -0.0696 0.5005 0.7297 0.056 Uiso 1 1 calc R . .
O19 O 0.2166(2) 0.3410(3) 0.77101(15) 0.0375(12) Uani 1 1 d . . .
H19A H 0.2289 0.3001 0.7489 0.056 Uiso 1 1 d R . .
H19B H 0.2582 0.3629 0.7820 0.056 Uiso 1 1 d R . .
O20 O 0.1262(2) 0.6468(3) 0.59038(16) 0.0466(13) Uani 1 1 d . . .
H20A H 0.0912 0.6678 0.6074 0.070 Uiso 1 1 d R . .
H20B H 0.1067 0.6288 0.5651 0.070 Uiso 1 1 d R . .
O21 O 0.0694(2) 0.3580(3) 0.78526(16) 0.0471(14) Uani 1 1 d DU . .
O22 O 0.2683(2) 0.5941(4) 0.5781(2) 0.0684(17) Uani 1 1 d . . .
O23 O 0.5141(3) 0.7647(5) 0.6270(3) 0.111(2) Uiso 1 1 d . . .
O24 O 0.3023(3) 0.2479(5) 0.7144(3) 0.102(2) Uiso 1 1 d . . .
O25 O 0.7576(5) 0.7133(7) 0.3552(3) 0.156(4) Uiso 1 1 d . . .
N1 N 0.3534(4) 0.6788(5) 0.5482(3) 0.092(2) Uani 1 1 d U . .
N2 N -0.0368(4) 0.3058(6) 0.80493(16) 0.112(2) Uani 1 1 d DU . .
N3 N 0.4730(3) 0.7529(5) 0.69402(18) 0.076(2) Uiso 1 1 d D . .
N4 N 0.3629(3) 0.2461(5) 0.65237(19) 0.0672(19) Uiso 1 1 d D . .
N5 N 0.7158(5) 0.7222(5) 0.4274(3) 0.137(4) Uiso 1 1 d D . .
C1 C 0.1377(4) 0.4952(5) 0.5191(3) 0.048(2) Uani 1 1 d . . .
C2 C 0.1476(3) 0.4294(5) 0.4810(2) 0.0414(18) Uani 1 1 d . . .
C3 C 0.1209(4) 0.4555(5) 0.4413(2) 0.0429(19) Uani 1 1 d . . .
H3A H 0.0990 0.5128 0.4387 0.051 Uiso 1 1 calc R . .
C4 C 0.1259(3) 0.3971(5) 0.4040(2) 0.0422(19) Uani 1 1 d . . .
C5 C 0.0971(4) 0.4226(6) 0.3631(3) 0.064(2) Uani 1 1 d U . .
H5 H 0.0749 0.4797 0.3604 0.077 Uiso 1 1 calc R . .
C6 C 0.1010(4) 0.3670(6) 0.3282(3) 0.062(2) Uani 1 1 d U . .
H6A H 0.0834 0.3859 0.3012 0.075 Uiso 1 1 calc R . .
C7 C 0.1317(3) 0.2807(6) 0.3329(3) 0.061(2) Uani 1 1 d . . .
H7 H 0.1329 0.2412 0.3088 0.073 Uiso 1 1 calc R . .
C8 C 0.1601(3) 0.2514(5) 0.3710(2) 0.048(2) Uani 1 1 d . . .
H8 H 0.1796 0.1924 0.3727 0.058 Uiso 1 1 calc R . .
C9 C 0.1603(3) 0.3102(5) 0.4087(2) 0.0349(17) Uani 1 1 d . . .
C10 C 0.1891(3) 0.2834(4) 0.4488(2) 0.0352(17) Uani 1 1 d . . .
C11 C 0.1813(3) 0.3420(5) 0.4852(2) 0.0368(17) Uani 1 1 d . . .
C12 C 0.2296(3) 0.1924(4) 0.4548(2) 0.047(2) Uani 1 1 d . . .
H12A H 0.2414 0.1859 0.4855 0.056 Uiso 1 1 calc R . .
H12B H 0.1988 0.1414 0.4472 0.056 Uiso 1 1 calc R . .
C13 C 0.2036(3) 0.6836(4) 0.9281(2) 0.0354(17) Uani 1 1 d U . .
C14 C 0.1439(3) 0.7386(4) 0.9378(2) 0.0361(17) Uani 1 1 d . . .
C15 C 0.1410(4) 0.7973(5) 0.9751(3) 0.055(2) Uani 1 1 d . . .
H15A H 0.1797 0.8019 0.9934 0.066 Uiso 1 1 calc R . .
C16 C 0.0807(4) 0.8480(5) 0.9843(3) 0.066(2) Uani 1 1 d . . .
H16 H 0.0794 0.8853 1.0091 0.079 Uiso 1 1 calc R . .
C17 C 0.0240(4) 0.8440(6) 0.9577(3) 0.067(3) Uani 1 1 d . . .
H17 H -0.0151 0.8802 0.9639 0.081 Uiso 1 1 calc R . .
C18 C 0.0238(4) 0.7870(5) 0.9220(3) 0.056(2) Uani 1 1 d . . .
H18A H -0.0159 0.7839 0.9044 0.067 Uiso 1 1 calc R . .
C19 C 0.0823(3) 0.7337(4) 0.9116(2) 0.0405(19) Uani 1 1 d . . .
C20 C 0.0818(3) 0.6745(5) 0.8738(2) 0.045(2) Uani 1 1 d . . .
H20 H 0.0438 0.6747 0.8549 0.055 Uiso 1 1 calc R . .
C21 C 0.1385(3) 0.6170(4) 0.8659(2) 0.0334(16) Uani 1 1 d . . .
C22 C 0.1990(3) 0.6211(4) 0.8942(2) 0.0334(16) Uani 1 1 d . . .
C23 C 0.1351(3) 0.5564(4) 0.8270(2) 0.0333(16) Uani 1 1 d . . .
C24 C 0.1355(3) 0.3171(4) 0.6602(2) 0.0248(14) Uani 1 1 d . . .
C25 C 0.1165(3) 0.2199(4) 0.6458(2) 0.0261(15) Uani 1 1 d . . .
C26 C 0.1184(3) 0.1972(4) 0.6021(2) 0.0289(16) Uani 1 1 d . . .
H26 H 0.1302 0.2429 0.5820 0.035 Uiso 1 1 calc R . .
C27 C 0.1034(3) 0.1100(4) 0.5872(2) 0.0315(16) Uani 1 1 d . . .
C28 C 0.1072(3) 0.0892(5) 0.5418(2) 0.0439(19) Uani 1 1 d . . .
H28 H 0.1172 0.1364 0.5220 0.053 Uiso 1 1 calc R . .
C29 C 0.0967(4) 0.0032(5) 0.5270(3) 0.053(2) Uani 1 1 d . . .
H29 H 0.0986 -0.0092 0.4971 0.063 Uiso 1 1 calc R . .
C30 C 0.0824(3) -0.0697(5) 0.5575(3) 0.051(2) Uani 1 1 d U . .
H30 H 0.0777 -0.1302 0.5476 0.061 Uiso 1 1 calc R . .
C31 C 0.0757(3) -0.0516(5) 0.6004(3) 0.047(2) Uani 1 1 d U . .
H31 H 0.0642 -0.0997 0.6193 0.057 Uiso 1 1 calc R . .
C32 C 0.0857(3) 0.0391(3) 0.6177(2) 0.0314(16) Uani 1 1 d . . .
C33 C 0.0797(3) 0.0620(4) 0.6619(2) 0.0271(15) Uani 1 1 d . . .
C34 C 0.0954(3) 0.1506(4) 0.6762(2) 0.0248(14) Uani 1 1 d . . .
C35 C 0.0593(3) -0.0100(4) 0.6969(2) 0.0359(18) Uani 1 1 d . . .
H35A H 0.0602 -0.0707 0.6832 0.043 Uiso 1 1 calc R . .
H35B H 0.0953 -0.0097 0.7193 0.043 Uiso 1 1 calc R . .
C36 C 0.4893(3) 0.4987(4) 0.7192(2) 0.0324(16) Uani 1 1 d U . .
C37 C 0.4811(3) 0.5058(4) 0.7651(2) 0.0311(16) Uani 1 1 d . . .
C38 C 0.5381(3) 0.5171(5) 0.7939(3) 0.050(2) Uani 1 1 d . . .
H38 H 0.5835 0.5198 0.7831 0.060 Uiso 1 1 calc R . .
C39 C 0.5264(4) 0.5240(7) 0.8380(3) 0.074(3) Uani 1 1 d . . .
H39 H 0.5647 0.5313 0.8564 0.089 Uiso 1 1 calc R . .
C40 C 0.4602(4) 0.5205(6) 0.8563(3) 0.060(3) Uani 1 1 d . . .
H40 H 0.4542 0.5265 0.8864 0.072 Uiso 1 1 calc R . .
C41 C 0.4050(4) 0.5084(6) 0.8299(3) 0.056(2) Uani 1 1 d . . .
H41 H 0.3604 0.5048 0.8420 0.067 Uiso 1 1 calc R . .
C42 C 0.4129(3) 0.5009(5) 0.7834(2) 0.0379(18) Uani 1 1 d . . .
C43 C 0.3541(3) 0.4899(4) 0.7557(2) 0.0329(18) Uani 1 1 d . . .
H43 H 0.3096 0.4875 0.7681 0.040 Uiso 1 1 calc R . .
C44 C 0.3605(3) 0.4827(4) 0.7123(2) 0.0276(15) Uani 1 1 d . . .
C45 C 0.4291(3) 0.4915(4) 0.6925(2) 0.0305(16) Uani 1 1 d . . .
C46 C 0.2980(3) 0.4752(4) 0.6849(2) 0.0310(16) Uani 1 1 d . . .
C47 C 0.1936(3) 0.6706(4) 0.7077(2) 0.0297(17) Uani 1 1 d . . .
C48 C 0.2119(3) 0.7677(4) 0.7230(2) 0.0280(15) Uani 1 1 d . . .
C49 C 0.2035(3) 0.7864(4) 0.7664(2) 0.0348(18) Uani 1 1 d . . .
H49 H 0.1887 0.7399 0.7854 0.042 Uiso 1 1 calc R . .
C50 C 0.2175(3) 0.8778(4) 0.7830(2) 0.0318(17) Uani 1 1 d . . .
C51 C 0.2078(3) 0.8966(5) 0.8270(2) 0.0395(18) Uani 1 1 d . . .
H51 H 0.1953 0.8490 0.8460 0.047 Uiso 1 1 calc R . .
C52 C 0.2164(4) 0.9849(6) 0.8427(3) 0.057(2) Uani 1 1 d . . .
H52 H 0.2105 0.9978 0.8723 0.068 Uiso 1 1 calc R . .
C53 C 0.2343(4) 1.0553(6) 0.8132(3) 0.062(3) Uani 1 1 d . . .
H53 H 0.2387 1.1156 0.8236 0.074 Uiso 1 1 calc R . .
C54 C 0.2452(4) 1.0392(5) 0.7713(3) 0.050(2) Uani 1 1 d . . .
H54 H 0.2580 1.0880 0.7531 0.060 Uiso 1 1 calc R . .
C55 C 0.2377(3) 0.9486(4) 0.7534(2) 0.0305(16) Uani 1 1 d . . .
C56 C 0.2475(2) 0.9282(4) 0.7074(2) 0.0295(17) Uani 1 1 d . . .
C57 C 0.2329(3) 0.8394(4) 0.6927(2) 0.0311(16) Uani 1 1 d . . .
C58 C 0.2665(3) 1.0005(4) 0.6739(2) 0.0328(17) Uani 1 1 d . . .
H58A H 0.2657 1.0603 0.6884 0.039 Uiso 1 1 calc R . .
H58B H 0.2297 1.0012 0.6521 0.039 Uiso 1 1 calc R . .
C59 C -0.1635(3) 0.5076(4) 0.6497(2) 0.0293(16) Uani 1 1 d U . .
C60 C -0.1579(3) 0.5049(5) 0.6042(2) 0.0374(18) Uani 1 1 d . . .
C61 C -0.2169(4) 0.5015(6) 0.5749(3) 0.055(2) Uani 1 1 d . . .
H61 H -0.2617 0.5071 0.5866 0.066 Uiso 1 1 calc R . .
C62 C -0.2101(4) 0.4907(6) 0.5317(3) 0.069(3) Uani 1 1 d U . .
H62 H -0.2503 0.4866 0.5146 0.082 Uiso 1 1 calc R . .
C63 C -0.1439(5) 0.4854(7) 0.5109(3) 0.074(3) Uani 1 1 d U . .
H63 H -0.1396 0.4772 0.4808 0.089 Uiso 1 1 calc R . .
C64 C -0.0856(4) 0.4933(6) 0.5382(3) 0.061(3) Uani 1 1 d . . .
H64 H -0.0413 0.4931 0.5256 0.074 Uiso 1 1 calc R . .
C65 C -0.0912(3) 0.5012(5) 0.5833(3) 0.042(2) Uani 1 1 d . . .
C66 C -0.0315(3) 0.5059(4) 0.6097(2) 0.0389(19) Uani 1 1 d . . .
H66 H 0.0123 0.5066 0.5965 0.047 Uiso 1 1 calc R . .
C67 C -0.0355(3) 0.5096(4) 0.6543(2) 0.0277(16) Uani 1 1 d . . .
C68 C -0.1019(3) 0.5083(4) 0.6740(2) 0.0265(16) Uani 1 1 d . . .
C69 C 0.0303(3) 0.510