####################################################################### 
# 
# This file contains crystal structure data downloaded from the 
# Cambridge Structural Database (CSD) hosted by the Cambridge 
# Crystallographic Data Centre (CCDC).
# 
# Full information about CCDC data access policies and citation 
# guidelines are available at http://www.ccdc.cam.ac.uk/access/V1 
# 
# Audit and citation data items may have been added by the CCDC. 
# Please retain this information to preserve the provenance of 
# this file and to allow appropriate attribution of the data. 
# 
#######################################################################

data_ch14263
_audit_block_doi                 10.5517/cc13v2xy
_database_code_depnum_ccdc_archive 'CCDC 1037970'
loop_
_citation_id
_citation_doi
_citation_year
1 10.1039/C4CE02421D 2015
2 10.1016/j.ica.2016.02.004 2016
_audit_update_record             
;
2015-02-07 deposited with the CCDC.	2024-07-12 downloaded from the CCDC.
;

_audit_creation_method           SHELXL-97
_chemical_name_systematic        'Compound 2'
_chemical_name_common            ch14263
_chemical_melting_point          ?
_chemical_formula_moiety         'C150 H162 Mn6 N30 O38 S12'
_chemical_formula_sum            'C150 H162 Mn6 N30 O38 S12'
_chemical_formula_weight         3707.46

loop_
_atom_type_symbol
_atom_type_description
_atom_type_scat_dispersion_real
_atom_type_scat_dispersion_imag
_atom_type_scat_source
C C 0.0033 0.0016 'International Tables Vol C Tables 4.2.6.8 and 6.1.1.4'
H H 0.0000 0.0000 'International Tables Vol C Tables 4.2.6.8 and 6.1.1.4'
N N 0.0061 0.0033 'International Tables Vol C Tables 4.2.6.8 and 6.1.1.4'
O O 0.0106 0.0060 'International Tables Vol C Tables 4.2.6.8 and 6.1.1.4'
S S 0.1246 0.1234 'International Tables Vol C Tables 4.2.6.8 and 6.1.1.4'
Mn Mn 0.3368 0.7283 'International Tables Vol C Tables 4.2.6.8 and 6.1.1.4'

_symmetry_cell_setting           monoclinic
_symmetry_space_group_name_H-M   'P 21'

loop_
_symmetry_equiv_pos_as_xyz
'x, y, z'
'-x, y+1/2, -z'

_cell_length_a                   11.8071(15)
_cell_length_b                   29.765(4)
_cell_length_c                   13.1818(16)
_cell_angle_alpha                90.00
_cell_angle_beta                 110.456(2)
_cell_angle_gamma                90.00
_cell_volume                     4340.4(9)
_cell_formula_units_Z            1
_cell_measurement_temperature    200(2)
_cell_measurement_reflns_used    0
_cell_measurement_theta_min      0
_cell_measurement_theta_max      0

_exptl_crystal_description       prism
_exptl_crystal_colour            yellow
_exptl_crystal_size_max          0.52
_exptl_crystal_size_mid          0.32
_exptl_crystal_size_min          0.21
_exptl_crystal_density_meas      ?
_exptl_crystal_density_diffrn    1.418
_exptl_crystal_density_method    'not measured'
_exptl_crystal_F_000             1918
_exptl_absorpt_coefficient_mu    0.649
_exptl_absorpt_correction_type   multi-scan
_exptl_absorpt_correction_T_min  0.7291
_exptl_absorpt_correction_T_max  0.8758
_exptl_absorpt_process_details   SADABS

_exptl_special_details           
;
 ?
;

_diffrn_ambient_temperature      200(2)
_diffrn_radiation_wavelength     0.71073
_diffrn_radiation_type           MoK\a
_diffrn_radiation_source         'fine-focus sealed tube'
_diffrn_radiation_monochromator  graphite
_diffrn_measurement_device_type  ?
_diffrn_measurement_method       ?
_diffrn_detector_area_resol_mean ?
_diffrn_standards_number         ?
_diffrn_standards_interval_count ?
_diffrn_standards_interval_time  ?
_diffrn_standards_decay_%        ?
_diffrn_reflns_number            29475
_diffrn_reflns_av_R_equivalents  0.0371
_diffrn_reflns_av_sigmaI/netI    0.0611
_diffrn_reflns_limit_h_min       -12
_diffrn_reflns_limit_h_max       14
_diffrn_reflns_limit_k_min       -35
_diffrn_reflns_limit_k_max       35
_diffrn_reflns_limit_l_min       -13
_diffrn_reflns_limit_l_max       15
_diffrn_reflns_theta_min         1.37
_diffrn_reflns_theta_max         25.00
_reflns_number_total             13920
_reflns_number_gt                10640
_reflns_threshold_expression     >2\s(I)

_computing_data_collection       ?
_computing_cell_refinement       ?
_computing_data_reduction        ?
_computing_structure_solution    'SHELXL-97 (Sheldrick, 2008)'
_computing_structure_refinement  'SHELXL-97 (Sheldrick, 2008)'
_computing_molecular_graphics    'Ortep-3 for Windows (Farrugia, 1997)'
_computing_publication_material  'WinGX publication routines (Farrugia, 1999)'

_refine_special_details          
;
 Refinement of F^2^ against ALL reflections.  The weighted R-factor wR and
 goodness of fit S are based on F^2^, conventional R-factors R are based
 on F, with F set to zero for negative F^2^. The threshold expression of
 F^2^ > 2\s(F^2^) is used only for calculating R-factors(gt) etc. and is
 not relevant to the choice of reflections for refinement.  R-factors based
 on F^2^ are statistically about twice as large as those based on F, and R-
 factors based on ALL data will be even larger.
DELU  0.010 0.010 O5A O6A C13A C14A C15A N3A C16A C17A C18A S3A
DELU     0.010   0.010 S4A C19A N4A C20A C21A C22A C23A C24A O7A O8A
DELU     0.010   0.010 O5B O6B C13B C14B C15B N3B C16B C17B C18B S3B
DELU     0.010   0.010 S4B C19B N4B C20B C21B C22B C23B C24B O7B O8B
SIMU     0.040   0.080   1.700 O5A O6A C13A C14A C15A N3A C16A C17A
SIMU  0.040 0.080 1.700 C18A S3A S4A C19A N4A C20A C21A C22A
SIMU     0.040   0.080   1.700 C23A C24A O7A O8A O5B O6B C13B C14B
SIMU     0.040   0.080   1.700 C15B N3B C16B C17B C18B S3B S4B C19B
SIMU     0.040   0.080   1.700 N4B C20B C21B C22B C23B C24B O7B O8B
DELU     0.010   0.010 O14 C61 N11 C62 C63 O16 C67 N13 C68 C69 O17
DELU     0.010   0.010 C73 N15 C74 C75
SIMU     0.040   0.080   1.700 O14 C61 N11 C62 C63 O16 C67 N13 C68
SIMU     0.040   0.080   1.700 C69 O17 C73 N15 C74 C75
DELU     0.010   0.010 O15 C64 N12 C65 C66
SIMU     0.040   0.080   1.700 O15 C64 N12 C65 C66
EADP   O6A O6B  C14B C14A C24A C24B
;

_refine_ls_structure_factor_coef Fsqd
_refine_ls_matrix_type           full
_refine_ls_weighting_scheme      calc
_refine_ls_weighting_details     
'calc w=1/[\s^2^(Fo^2^)+(0.1034P)^2^+1.2700P] where P=(Fo^2^+2Fc^2^)/3'
_atom_sites_solution_primary     direct
_atom_sites_solution_secondary   difmap
_atom_sites_solution_hydrogens   geom
_refine_ls_hydrogen_treatment    constr
_refine_ls_extinction_method     none
_refine_ls_extinction_coef       ?
_refine_ls_abs_structure_details 'Flack H D (1983), Acta Cryst. A39, 876-881'
_refine_ls_abs_structure_Flack   0.50(2)
_refine_ls_number_reflns         13920
_refine_ls_number_parameters     1199
_refine_ls_number_restraints     504
_refine_ls_R_factor_all          0.0848
_refine_ls_R_factor_gt           0.0576
_refine_ls_wR_factor_ref         0.1760
_refine_ls_wR_factor_gt          0.1490
_refine_ls_goodness_of_fit_ref   1.064
_refine_ls_restrained_S_all      1.066
_refine_ls_shift/su_max          0.000
_refine_ls_shift/su_mean         0.000

loop_
_atom_site_label
_atom_site_type_symbol
_atom_site_fract_x
_atom_site_fract_y
_atom_site_fract_z
_atom_site_U_iso_or_equiv
_atom_site_adp_type
_atom_site_occupancy
_atom_site_symmetry_multiplicity
_atom_site_calc_flag
_atom_site_refinement_flags
_atom_site_disorder_assembly
_atom_site_disorder_group
C1 C 0.6404(6) 0.1915(2) 0.3182(5) 0.0385(15) Uani 1 1 d . . .
C2 C 0.5665(5) 0.1629(2) 0.2249(5) 0.0405(16) Uani 1 1 d . . .
C3 C 0.4460(6) 0.1544(2) 0.2022(5) 0.0457(17) Uani 1 1 d . . .
H3 H 0.4059 0.1683 0.2452 0.055 Uiso 1 1 calc R . .
C4 C 0.4408(6) 0.1087(3) 0.0605(5) 0.0495(17) Uani 1 1 d . . .
C5 C 0.5599(6) 0.1159(3) 0.0756(6) 0.0525(18) Uani 1 1 d . . .
H5 H 0.5970 0.1024 0.0298 0.063 Uiso 1 1 calc R . .
C6 C 0.6226(6) 0.1431(3) 0.1581(6) 0.0505(18) Uani 1 1 d . . .
H6 H 0.7056 0.1488 0.1712 0.061 Uiso 1 1 calc R . .
C7 C 0.1073(6) 0.0926(2) -0.1358(5) 0.0433(16) Uani 1 1 d . . .
C8 C 0.0626(6) 0.1496(2) -0.2708(6) 0.0431(16) Uani 1 1 d . . .
H8 H 0.0865 0.1712 -0.3125 0.052 Uiso 1 1 calc R . .
C9 C -0.0594(5) 0.1430(2) -0.2882(6) 0.0404(16) Uani 1 1 d . . .
C10 C -0.0861(6) 0.1103(3) -0.2264(6) 0.0508(18) Uani 1 1 d . . .
H10 H -0.1691 0.1052 -0.2380 0.061 Uiso 1 1 calc R . .
C11 C -0.0069(5) 0.0857(2) -0.1527(5) 0.0345(14) Uani 1 1 d . . .
H11 H -0.0319 0.0635 -0.1131 0.041 Uiso 1 1 calc R . .
C12 C -0.1538(5) 0.1687(3) -0.3729(5) 0.0432(16) Uani 1 1 d . . .
C25 C 0.4614(6) 0.1621(2) 0.7260(5) 0.0406(15) Uani 1 1 d . A .
C26 C 0.5389(6) 0.1896(2) 0.8180(5) 0.0429(16) Uani 1 1 d . . .
C27 C 0.4912(6) 0.2107(3) 0.8849(6) 0.0471(17) Uani 1 1 d . . .
H27 H 0.4088 0.2050 0.8748 0.057 Uiso 1 1 calc R . .
C28 C 0.6669(5) 0.2444(2) 0.9794(5) 0.0397(15) Uani 1 1 d . . .
C29 C 0.7284(6) 0.2219(2) 0.9215(5) 0.0441(16) Uani 1 1 d . . .
H29 H 0.8131 0.2252 0.9391 0.053 Uiso 1 1 calc R . .
C30 C 0.6617(5) 0.1948(2) 0.8384(5) 0.0389(15) Uani 1 1 d . . .
H30 H 0.6991 0.1797 0.7949 0.047 Uiso 1 1 calc R . .
C31 C 0.9924(6) 0.2608(2) 1.1834(5) 0.0372(15) Uani 1 1 d . . .
C32 C 1.1897(5) 0.2424(3) 1.2728(5) 0.0442(17) Uani 1 1 d . . .
H32 H 1.2732 0.2458 1.2840 0.053 Uiso 1 1 calc R . .
C33 C 1.1580(5) 0.2112(2) 1.3358(5) 0.0348(14) Uani 1 1 d . . .
C34 C 1.0363(5) 0.2056(2) 1.3179(5) 0.0390(15) Uani 1 1 d . . .
H34 H 1.0108 0.1844 1.3593 0.047 Uiso 1 1 calc R . .
C35 C 0.9529(5) 0.2306(2) 1.2408(5) 0.0391(16) Uani 1 1 d . . .
H35 H 0.8689 0.2270 1.2275 0.047 Uiso 1 1 calc R . .
C36 C 1.2531(6) 0.1837(2) 1.4205(5) 0.0429(16) Uani 1 1 d . . .
C37 C 0.5605(8) 0.3074(3) 0.3181(9) 0.085(3) Uani 1 1 d . . .
H37 H 0.5110 0.2873 0.3401 0.102 Uiso 1 1 calc R . .
C38 C 0.5034(9) 0.3400(3) 0.2421(10) 0.095(4) Uani 1 1 d . . .
C39 C 0.3629(10) 0.3448(4) 0.1986(13) 0.134(6) Uani 1 1 d . . .
H39A H 0.3258 0.3150 0.1806 0.202 Uiso 1 1 calc R . .
H39B H 0.3376 0.3637 0.1336 0.202 Uiso 1 1 calc R . .
H39C H 0.3369 0.3587 0.2543 0.202 Uiso 1 1 calc R . .
C40 C 0.5807(12) 0.3671(3) 0.2085(10) 0.094(3) Uani 1 1 d . . .
H40 H 0.5478 0.3890 0.1536 0.112 Uiso 1 1 calc R . .
C41 C 0.7021(11) 0.3623(3) 0.2539(8) 0.079(3) Uani 1 1 d . . .
H41 H 0.7539 0.3816 0.2326 0.094 Uiso 1 1 calc R . .
C42 C 0.7525(7) 0.3285(3) 0.3335(6) 0.0542(19) Uani 1 1 d . . .
C43 C 0.8841(7) 0.3218(3) 0.3860(7) 0.056(2) Uani 1 1 d . . .
C44 C 0.9720(9) 0.3471(3) 0.3643(8) 0.076(3) Uani 1 1 d . . .
H44 H 0.9499 0.3707 0.3125 0.091 Uiso 1 1 calc R . .
C45 C 1.0941(9) 0.3370(4) 0.4206(10) 0.086(3) Uani 1 1 d . . .
H45 H 1.1556 0.3539 0.4071 0.103 Uiso 1 1 calc R . .
C46 C 1.1239(8) 0.3038(4) 0.4928(9) 0.076(3) Uani 1 1 d . . .
C47 C 1.2552(8) 0.2922(5) 0.5596(10) 0.117(5) Uani 1 1 d . . .
H47A H 1.2659 0.2923 0.6367 0.176 Uiso 1 1 calc R . .
H47B H 1.3091 0.3146 0.5459 0.176 Uiso 1 1 calc R . .
H47C H 1.2747 0.2624 0.5389 0.176 Uiso 1 1 calc R . .
C48 C 1.0325(7) 0.2800(3) 0.5071(7) 0.062(2) Uani 1 1 d . . .
H48 H 1.0542 0.2559 0.5573 0.075 Uiso 1 1 calc R . .
C49 C 0.0605(7) 0.0759(3) 0.5323(7) 0.066(2) Uani 1 1 d . . .
H49 H 0.0409 0.1010 0.4848 0.079 Uiso 1 1 calc R . .
C50 C -0.0344(8) 0.0494(4) 0.5448(10) 0.083(3) Uani 1 1 d . . .
C51 C -0.1631(8) 0.0605(5) 0.4846(11) 0.118(5) Uani 1 1 d . . .
H51A H -0.2001 0.0365 0.4328 0.176 Uiso 1 1 calc R . .
H51B H -0.1678 0.0889 0.4456 0.176 Uiso 1 1 calc R . .
H51C H -0.2061 0.0635 0.5357 0.176 Uiso 1 1 calc R . .
C52 C 0.0028(12) 0.0141(4) 0.6168(12) 0.105(4) Uani 1 1 d . . .
H52 H -0.0572 -0.0034 0.6309 0.126 Uiso 1 1 calc R . .
C53 C 0.1174(10) 0.0034(3) 0.6672(9) 0.083(3) Uani 1 1 d . . .
H53 H 0.1376 -0.0228 0.7110 0.099 Uiso 1 1 calc R . .
C54 C 0.2083(7) 0.0305(3) 0.6561(6) 0.055(2) Uani 1 1 d . . .
C55 C 0.3400(8) 0.0228(3) 0.7113(7) 0.059(2) Uani 1 1 d . . .
C56 C 0.3903(10) -0.0120(3) 0.7875(8) 0.075(3) Uani 1 1 d . . .
H56 H 0.3393 -0.0324 0.8067 0.089 Uiso 1 1 calc R . .
C57 C 0.5133(10) -0.0158(4) 0.8327(8) 0.086(3) Uani 1 1 d . . .
H57 H 0.5469 -0.0390 0.8839 0.103 Uiso 1 1 calc R . .
C58 C 0.5887(10) 0.0128(4) 0.8066(9) 0.098(4) Uani 1 1 d . . .
C59 C 0.7263(10) 0.0083(4) 0.8551(11) 0.132(5) Uani 1 1 d . . .
H59A H 0.7560 0.0232 0.9258 0.198 Uiso 1 1 calc R . .
H59B H 0.7626 0.0224 0.8066 0.198 Uiso 1 1 calc R . .
H59C H 0.7484 -0.0236 0.8639 0.198 Uiso 1 1 calc R . .
C60 C 0.5337(8) 0.0473(3) 0.7362(7) 0.075(3) Uani 1 1 d . . .
H60 H 0.5842 0.0689 0.7201 0.090 Uiso 1 1 calc R . .
N1 N 0.3821(5) 0.1267(2) 0.1200(5) 0.0543(16) Uani 1 1 d . . .
N2 N 0.1486(6) 0.1248(2) -0.1933(6) 0.0632(18) Uani 1 1 d . . .
N5 N 0.5516(5) 0.2388(2) 0.9639(4) 0.0459(14) Uani 1 1 d . . .
N6 N 1.1107(5) 0.2684(2) 1.1964(4) 0.0464(14) Uani 1 1 d . . .
N7 N 0.6783(5) 0.3024(2) 0.3617(5) 0.0569(17) Uani 1 1 d . . .
N8 N 0.9133(5) 0.2878(2) 0.4560(5) 0.0507(15) Uani 1 1 d . . .
N9 N 0.1757(5) 0.0662(2) 0.5858(5) 0.0501(15) Uani 1 1 d . A .
N10 N 0.4123(6) 0.0522(2) 0.6888(5) 0.0527(15) Uani 1 1 d . A .
O1 O 0.7445(4) 0.20172(18) 0.3259(4) 0.0536(13) Uani 1 1 d . . .
O2 O 0.5932(4) 0.20519(15) 0.3866(3) 0.0396(10) Uani 1 1 d . A .
O3 O -0.1172(4) 0.1970(2) -0.4248(4) 0.0641(15) Uani 1 1 d . . .
O4 O -0.2625(4) 0.16199(17) -0.3840(4) 0.0474(13) Uani 1 1 d . . .
O9 O 0.5024(4) 0.14727(14) 0.6552(3) 0.0381(10) Uani 1 1 d . A .
O10 O 0.3538(4) 0.15316(17) 0.7192(4) 0.0521(13) Uani 1 1 d . A .
O11 O 1.3622(4) 0.19193(17) 1.4292(4) 0.0503(13) Uani 1 1 d . . .
O12 O 1.2157(4) 0.15777(18) 1.4736(4) 0.0524(13) Uani 1 1 d . . .
S1 S 0.37246(18) 0.06736(7) -0.03976(16) 0.0664(6) Uani 1 1 d . . .
S2 S 0.2052(2) 0.05655(7) -0.03597(16) 0.0663(6) Uani 1 1 d . . .
S5 S 0.72988(16) 0.28589(7) 1.08099(14) 0.0528(5) Uani 1 1 d . . .
S6 S 0.89848(17) 0.29760(7) 1.08102(14) 0.0547(5) Uani 1 1 d . . .
Mn1 Mn 0.76883(8) 0.24479(3) 0.47172(8) 0.0419(3) Uani 1 1 d . . .
Mn2 Mn 0.54901(8) 0.17573(4) 0.52152(8) 0.0312(2) Uani 1 1 d . . .
Mn3 Mn 0.32528(8) 0.10854(3) 0.57455(7) 0.0382(2) Uani 1 1 d . . .
O5A O 0.5321(15) 0.1107(7) 0.438(2) 0.036(3) Uani 0.659(13) 1 d PDU A 1
O6A O 0.3733(9) 0.0750(3) 0.4589(7) 0.0421(10) Uani 0.659(13) 1 d PDU A 1
C13A C 0.4496(16) 0.0815(7) 0.411(2) 0.038(4) Uani 0.659(13) 1 d PDU A 1
C14A C 0.4474(12) 0.0464(6) 0.3308(14) 0.0421(10) Uani 0.659(13) 1 d PDU A 1
C15A C 0.5338(18) 0.0441(8) 0.283(2) 0.053(5) Uani 0.659(13) 1 d PDU A 1
H15A H 0.5972 0.0656 0.3041 0.063 Uiso 0.659(13) 1 calc PR A 1
N3A N 0.5336(11) 0.0137(5) 0.2105(12) 0.048(3) Uani 0.659(13) 1 d PDU A 1
C16A C 0.4457(14) -0.0165(5) 0.1831(13) 0.043(3) Uani 0.659(13) 1 d PDU A 1
C17A C 0.3528(13) -0.0163(6) 0.2231(17) 0.045(3) Uani 0.659(13) 1 d PDU A 1
H17A H 0.2903 -0.0381 0.2001 0.054 Uiso 0.659(13) 1 calc PR A 1
C18A C 0.3524(18) 0.0159(9) 0.297(2) 0.051(5) Uani 0.659(13) 1 d PDU A 1
H18A H 0.2880 0.0175 0.3239 0.061 Uiso 0.659(13) 1 calc PR A 1
S3A S 0.4625(6) -0.05344(12) 0.0839(4) 0.0546(14) Uani 0.659(13) 1 d PDU A 1
S4A S 0.3078(5) -0.08965(12) 0.0353(2) 0.0535(13) Uani 0.659(13) 1 d PDU A 1
C19A C 0.3346(13) -0.1327(5) 0.1362(11) 0.038(3) Uani 0.659(13) 1 d PDU A 1
N4A N 0.2395(10) -0.1398(6) 0.1646(14) 0.056(3) Uani 0.659(13) 1 d PDU A 1
C20A C 0.2479(13) -0.1719(7) 0.2396(17) 0.055(4) Uani 0.659(13) 1 d PDU A 1
H20A H 0.1792 -0.1778 0.2592 0.066 Uiso 0.659(13) 1 calc PR A 1
C21A C 0.349(2) -0.1958(11) 0.288(3) 0.042(5) Uani 0.659(13) 1 d PDU A 1
C22A C 0.4467(19) -0.1888(8) 0.254(2) 0.051(5) Uani 0.659(13) 1 d PDU A 1
H22A H 0.5188 -0.2056 0.2860 0.061 Uiso 0.659(13) 1 calc PR A 1
C23A C 0.4399(13) -0.1575(5) 0.1749(14) 0.046(3) Uani 0.659(13) 1 d PDU A 1
H23A H 0.5044 -0.1532 0.1484 0.055 Uiso 0.659(13) 1 calc PR A 1
C24A C 0.3552(16) -0.2325(6) 0.3696(16) 0.0421(10) Uani 0.659(13) 1 d PDU A 1
O7A O 0.4374(17) -0.2614(6) 0.3918(15) 0.036(4) Uani 0.659(13) 1 d PDU . 1
O8A O 0.2723(16) -0.2281(10) 0.4113(17) 0.062(4) Uani 0.659(13) 1 d PDU . 1
O5B O 0.542(4) 0.1097(16) 0.459(5) 0.052(10) Uani 0.341(13) 1 d PDU A 2
O6B O 0.3570(18) 0.0852(6) 0.4355(15) 0.0421(10) Uani 0.341(13) 1 d PDU A 2
C13B C 0.460(3) 0.0802(16) 0.423(4) 0.039(6) Uani 0.341(13) 1 d PDU A 2
C14B C 0.468(2) 0.0485(11) 0.339(3) 0.0421(10) Uani 0.341(13) 1 d PDU A 2
C15B C 0.564(3) 0.0480(11) 0.301(3) 0.035(5) Uani 0.341(13) 1 d PDU A 2
H15B H 0.6214 0.0718 0.3241 0.042 Uiso 0.341(13) 1 calc PR A 2
N3B N 0.584(2) 0.0170(8) 0.236(2) 0.049(6) Uani 0.341(13) 1 d PDU A 2
C16B C 0.502(3) -0.0152(9) 0.201(3) 0.049(6) Uani 0.341(13) 1 d PDU A 2
C17B C 0.398(3) -0.0152(11) 0.225(3) 0.053(6) Uani 0.341(13) 1 d PDU A 2
H17B H 0.3350 -0.0358 0.1898 0.063 Uiso 0.341(13) 1 calc PR A 2
C18B C 0.385(3) 0.0143(11) 0.299(3) 0.042(6) Uani 0.341(13) 1 d PDU A 2
H18B H 0.3188 0.0114 0.3243 0.051 Uiso 0.341(13) 1 calc PR A 2
S3B S 0.550(2) -0.0552(3) 0.1253(9) 0.085(5) Uani 0.341(13) 1 d PDU A 2
S4B S 0.399(2) -0.0903(3) 0.0475(7) 0.098(6) Uani 0.341(13) 1 d PDU A 2
C19B C 0.396(3) -0.1328(9) 0.145(3) 0.069(9) Uani 0.341(13) 1 d PDU A 2
N4B N 0.293(3) -0.1342(11) 0.160(3) 0.072(9) Uani 0.341(13) 1 d PDU A 2
C20B C 0.282(3) -0.1650(12) 0.233(3) 0.056(8) Uani 0.341(13) 1 d PDU A 2
H20B H 0.2120 -0.1645 0.2530 0.068 Uiso 0.341(13) 1 calc PR A 2
C21B C 0.368(4) -0.1960(19) 0.278(5) 0.031(6) Uani 0.341(13) 1 d PDU A 2
C22B C 0.472(3) -0.1948(13) 0.252(3) 0.039(5) Uani 0.341(13) 1 d PDU A 2
H22B H 0.5294 -0.2185 0.2761 0.046 Uiso 0.341(13) 1 calc PR A 2
C23B C 0.495(3) -0.1601(10) 0.192(3) 0.056(6) Uani 0.341(13) 1 d PDU A 2
H23B H 0.5715 -0.1556 0.1837 0.067 Uiso 0.341(13) 1 calc PR A 2
C24B C 0.360(3) -0.2266(11) 0.366(3) 0.0421(10) Uani 0.341(13) 1 d PDU A 2
O7B O 0.442(3) -0.2538(10) 0.415(3) 0.022(5) Uani 0.341(13) 1 d PDU . 2
O8B O 0.258(3) -0.2227(18) 0.382(3) 0.053(6) Uani 0.341(13) 1 d PDU . 2
O14 O 0.2536(11) 0.3320(4) -0.1617(12) 0.190(5) Uani 1 1 d DU . .
C61 C 0.2799(13) 0.2988(4) -0.1012(13) 0.138(5) Uani 1 1 d DU . .
H61 H 0.3639 0.2936 -0.0654 0.165 Uiso 1 1 calc R . .
N11 N 0.2087(10) 0.2703(3) -0.0803(9) 0.