
#######################################################################
#
#                 Cambridge Crystallographic Data Centre
#                                CCDC
#
#######################################################################
#
# If this CIF has been generated from an entry in the Cambridge
# Structural Database, then it will include bibliographic, chemical,
# crystal, experimental, refinement or atomic coordinate data resulting
# from the CCDC's data processing and validation procedures.
#
#######################################################################

data_CSD_CIF_RUBQUC
_audit_creation_date 2015-03-12
_audit_creation_method CSD-ConQuest-V1
_database_code_CSD RUBQUC
_database_code_depnum_ccdc_archive 'CCDC 1053572'
_chemical_formula_sum 'C49 H64 N18 O19 S6'
_chemical_formula_moiety
;
C42 H24 O18 S6 6-,6(C1 H6 N3 1+),C1 H4 O1
;
_journal_coden_Cambridge 4
_journal_volume 137
_journal_year 2015
_journal_page_first 3386
_journal_name_full 'J.Am.Chem.Soc. '
loop_
_publ_author_name
"Yuzhou Liu"
"Wenchang Xiao"
"Jin Ju Yi"
"Chunhua Hu"
"Sang-Jae Park"
"M.D.Ward"
_chemical_name_systematic
;
hexakis(Guanidinium) hexakis(4-sulfonatophenyl)benzene methanol solvate
;
_chemical_name_common
;
Teaching Subset: Symmetry
;
_cell_volume   3222.564
_exptl_crystal_colour 'yellow'
_exptl_crystal_density_diffrn 1.444
_exptl_crystal_description 'rod'
_diffrn_ambient_temperature 100
_refine_special_details
;
The structure is disordered, including the methanol molecule, which is 
disordered by symmetry.
;
#These two values have been output from a single CSD field.
_refine_ls_R_factor_gt 0.1131
_refine_ls_wR_factor_gt 0.1131
_symmetry_cell_setting hexagonal
_symmetry_space_group_name_H-M 'P 6'
_symmetry_Int_Tables_number 168
loop_
_symmetry_equiv_pos_site_id
_symmetry_equiv_pos_as_xyz
1 x,y,z
2 -y,x-y,z
3 -x+y,-x,z
4 -x,-y,z
5 y,-x+y,z
6 x-y,x,z
_cell_length_a 18.723(5)
_cell_length_b 18.723(5)
_cell_length_c 10.615(3)
_cell_angle_alpha 90
_cell_angle_beta 90
_cell_angle_gamma 120
_cell_formula_units_Z 2
loop_
_atom_type_symbol
_atom_type_radius_bond
C 0.68
H 0.23
N 0.68
O 0.68
S 1.02
loop_
_atom_site_label
_atom_site_type_symbol
_atom_site_fract_x
_atom_site_fract_y
_atom_site_fract_z
S1 S 0.8037(8) 0.2648(8) 0.3225(14)
O1 O 0.7960(19) 0.2800(19) 0.1904(16)
O2 O 0.7295(15) 0.230(2) 0.402(3)
O3 O 0.8526(18) 0.3359(16) 0.404(3)
C1 C 0.960(2) 0.046(2) 0.345(4)
C2 C 0.9169(14) 0.0981(13) 0.332(2)
C3 C 0.8633(14) 0.0918(13) 0.428(2)
H1 H 0.85100 0.05350 0.49460
C4 C 0.8276(15) 0.1414(16) 0.426(2)
H2 H 0.79100 0.13710 0.49160
C5 C 0.8455(17) 0.1975(15) 0.329(3)
C6 C 0.8991(17) 0.2039(14) 0.233(2)
H3 H 0.91140 0.24220 0.16650
C7 C 0.9348(14) 0.1542(15) 0.235(2)
H4 H 0.97140 0.15850 0.16950
N1 N 0.566(2) -0.024(2) 0.174(3)
H5 H 0.55890 -0.01470 0.09510
H6 H 0.54490 -0.07500 0.20160
N2 N 0.630(2) 0.106(2) 0.175(3)
H7 H 0.61410 0.09660 0.09560
H8 H 0.65970 0.15640 0.20280
N3 N 0.605(2) 0.029(2) 0.382(2)
H9 H 0.57360 -0.01990 0.41360
H10 H 0.63400 0.07180 0.43180
C8 C 0.610(3) 0.0405(19) 0.254(2)
N4 N 0.847(3) 0.362(4) 0.654(4)
H11 H 0.84040 0.36020 0.57200
H12 H 0.89030 0.40480 0.68870
N5 N 0.797(3) 0.285(4) 0.865(4)
H13 H 0.76210 0.23830 0.90340
H14 H 0.83850 0.32380 0.90620
N6 N 0.718(3) 0.229(4) 0.681(5)
H15 H 0.68650 0.18560 0.72530
H16 H 0.70740 0.23190 0.60050
C9 C 0.785(3) 0.295(4) 0.735(5)
S2 S 0.6214(8) 0.0431(9) -0.1644(13)
O4 O 0.604(2) 0.047(3) -0.2978(18)
O5 O 0.6433(15) 0.1194(13) -0.097(3)
O6 O 0.5609(14) -0.0287(14) -0.093(3)
C10 C 0.925(2) 0.005(3) -0.157(4)
C11 C 0.8511(11) 0.0163(16) -0.171(3)
C12 C 0.8363(13) 0.0560(15) -0.073(2)
H17 H 0.87300 0.07610 -0.00310
C13 C 0.7677(15) 0.0662(16) -0.076(2)
H18 H 0.75750 0.09330 -0.00850
C14 C 0.7140(11) 0.0367(16) -0.178(3)
C15 C 0.7288(13) -0.0029(16) -0.277(2)
H19 H 0.69210 -0.02310 -0.34620
C16 C 0.7974(15) -0.0131(16) -0.273(2)
H20 H 0.80750 -0.04020 -0.34080
N7? N 0.794(2) 0.314(2) 0.290(3)
H21? H 0.84370 0.34340 0.25790
H22? H 0.75120 0.28670 0.24070
N8? N 0.721(2) 0.255(2) 0.492(4)
H23? H 0.73000 0.25230 0.57240
H24? H 0.67260 0.22210 0.45870
N9? N 0.852(3) 0.355(3) 0.488(5)
H25? H 0.90020 0.38320 0.45200
H26? H 0.84750 0.35450 0.57080
C17? C 0.784(3) 0.311(3) 0.417(3)
S3? S 0.6278(7) 0.0481(8) 0.3376(13)
O7? O 0.6135(19) 0.049(2) 0.4736(16)
O8? O 0.6454(19) 0.1275(13) 0.285(3)
O9? O 0.5642(16) -0.0272(14) 0.279(3)
C18? C 0.9337(17) 0.014(2) 0.302(4)
C19? C 0.8566(11) 0.0210(15) 0.313(2)
C20? C 0.8009(15) -0.0138(15) 0.412(2)
H27? H 0.80950 -0.04470 0.47520
C21? C 0.7325(13) -0.0033(17) 0.419(2)
H28? H 0.69440 -0.02710 0.48620
C22? C 0.7199(11) 0.0419(17) 0.326(3)
C23? C 0.7756(14) 0.0767(15) 0.228(2)
H29? H 0.76700 0.10770 0.16470
C24? C 0.8440(12) 0.0663(15) 0.221(2)
H30? H 0.88210 0.09010 0.15380
S4? S 0.8057(8) 0.2646(11) 0.8079(14)
O10? O 0.803(3) 0.285(4) 0.9405(19)
O11? O 0.8702(13) 0.3441(21) 0.760(3)
O12? O 0.7208(11) 0.2141(19) 0.765(3)
C25? C 0.969(4) 0.048(4) 0.806(4)
C26? C 0.9279(14) 0.1069(16) 0.808(3)
C27? C 0.9404(15) 0.1585(20) 0.910(2)
H31? H 0.97600 0.16240 0.97640
C28? C 0.9006(16) 0.2043(21) 0.914(2)
H32? H 0.90910 0.23960 0.98380
C29? C 0.8484(15) 0.1986(17) 0.817(3)
C30? C 0.8360(14) 0.1470(19) 0.715(2)
H33? H 0.80030 0.14300 0.64810
C31? C 0.8758(15) 0.1012(20) 0.710(2)
H34? H 0.86730 0.06590 0.64080
N10? N 0.5643(18) -0.0217(19) 0.022(3)
H35? H 0.53260 -0.07340 -0.00140
H36? H 0.57140 -0.00880 0.10230
N11? N 0.6388(19) 0.123(2) 0.010(3)
H37? H 0.66100 0.17360 -0.01930
H38? H 0.63340 0.11380 0.09140
N12? N 0.614(3) 0.055(3) -0.212(3)
H39? H 0.63590 0.10400 -0.24870
H40? H 0.59640 0.01060 -0.25850
C32? C 0.609(3) 0.049(3) -0.083(3)
C33? C 0.66670 0.33330 0.053(4)
H41? H 0.66820 0.31750 -0.03470
H42? H 0.72150 0.37780 0.07740
H43? H 0.62680 0.35250 0.06060
O13? O 0.644(3) 0.263(2) 0.129(4)
H44? H 0.59240 0.23290 0.12910
S1D S 1.2648(8) 0.4611(8) 0.3225(14)
O1D O 1.2800(19) 0.4840(19) 0.1904(16)
O2D O 1.2300(15) 0.5005(20) 0.402(3)
O3D O 1.3359(18) 0.4833(16) 0.404(3)
C1D C 1.046(2) 0.086(2) 0.345(4)
C2D C 1.0981(14) 0.1812(13) 0.332(2)
C3D C 1.0918(14) 0.2285(13) 0.428(2)
H1D H 1.05350 0.20250 0.49460
C4D C 1.1414(15) 0.3138(16) 0.426(2)
H2D H 1.13710 0.34610 0.49160
C5D C 1.1975(17) 0.3520(15) 0.329(3)
C6D C 1.2039(17) 0.3048(14) 0.233(2)
H3D H 1.24220 0.33080 0.16650
C7D C 1.1542(14) 0.2194(15) 0.235(2)
H4D H 1.15850 0.18710 0.16950
S1E S 0.5389(8) -0.1963(8) 0.3225(14)
O1E O 0.5160(19) -0.2040(19) 0.1904(16)
O2E O 0.4995(15) -0.2705(20) 0.402(3)
O3E O 0.5167(18) -0.1474(16) 0.404(3)
C1E C 0.914(2) -0.040(2) 0.345(4)
C2E C 0.8188(14) -0.0831(13) 0.332(2)
C3E C 0.7715(14) -0.1367(13) 0.428(2)
H1E H 0.79750 -0.14900 0.49460
C4E C 0.6862(15) -0.1724(16) 0.426(2)
H2E H 0.65390 -0.20900 0.49160
C5E C 0.6480(17) -0.1545(15) 0.329(3)
C6E C 0.6952(17) -0.1009(14) 0.233(2)
H3E H 0.66920 -0.08860 0.16650
C7E C 0.7806(14) -0.0652(15) 0.235(2)
H4E H 0.81290 -0.02860 0.16950
S1A S 0.7352(8) -0.4611(8) 0.3225(14)
O1A O 0.7200(19) -0.4840(19) 0.1904(16)
O2A O 0.7700(15) -0.5005(20) 0.402(3)
O3A O 0.6641(18) -0.4833(16) 0.404(3)
C1A C 0.954(2) -0.086(2) 0.345(4)
C2A C 0.9019(14) -0.1812(13) 0.332(2)
C3A C 0.9082(14) -0.2285(13) 0.428(2)
H1A H 0.94650 -0.20250 0.49460
C4A C 0.8586(15) -0.3138(16) 0.426(2)
H2A H 0.86290 -0.34610 0.49160
C5A C 0.8025(17) -0.3520(15) 0.329(3)
C6A C 0.7961(17) -0.3048(14) 0.233(2)
H3A H 0.75780 -0.33080 0.16650
C7A C 0.8458(14) -0.2194(15) 0.235(2)
H4A H 0.84150 -0.18710 0.16950
S1B S 1.4611(8) 0.1963(8) 0.3225(14)
O1B O 1.4840(19) 0.2040(19) 0.1904(16)
O2B O 1.5005(15) 0.2705(20) 0.402(3)
O3B O 1.4833(18) 0.1474(16) 0.404(3)
C1B C 1.086(2) 0.040(2) 0.345(4)
C2B C 1.1812(14) 0.0831(13) 0.332(2)
C3B C 1.2285(14) 0.1367(13) 0.428(2)
H1B H 1.20250 0.14900 0.49460
C4B C 1.3138(15) 0.1724(16) 0.426(2)
H2B H 1.34610 0.20900 0.49160
C5B C 1.3520(17) 0.1545(15) 0.329(3)
C6B C 1.3048(17) 0.1009(14) 0.233(2)
H3B H 1.33080 0.08860 0.16650
C7B C 1.2194(14) 0.0652(15) 0.235(2)
H4B H 1.18710 0.02860 0.16950
S1C S 1.1963(8) -0.2648(8) 0.3225(14)
O1C O 1.2040(19) -0.2800(19) 0.1904(16)
O2C O 1.2705(15) -0.230(2) 0.402(3)
O3C O 1.1474(18) -0.3359(16) 0.404(3)
C1C C 1.040(2) -0.046(2) 0.345(4)
C2C C 1.0831(14) -0.0981(13) 0.332(2)
C3C C 1.1367(14) -0.0918(13) 0.428(2)
H1C H 1.14900 -0.05350 0.49460
C4C C 1.1724(15) -0.1414(16) 0.426(2)
H2C H 1.20900 -0.13710 0.49160
C5C C 1.1545(17) -0.1975(15) 0.329(3)
C6C C 1.1009(17) -0.2039(14) 0.233(2)
H3C H 1.08860 -0.24220 0.16650
C7C C 1.0652(14) -0.1542(15) 0.235(2)
H4C H 1.02860 -0.15850 0.16950
S2D S 1.0431(8) 0.4217(9) -0.1644(13)
O4D O 1.047(2) 0.443(3) -0.2978(18)
O5D O 1.1194(15) 0.4761(13) -0.097(3)
O6D O 0.9713(14) 0.4104(14) -0.093(3)
C10D C 1.005(2) 0.080(3) -0.157(4)
C11D C 1.0163(11) 0.1652(16) -0.171(3)
C12D C 1.0560(13) 0.2197(15) -0.073(2)
H17D H 1.07610 0.20310 -0.00310
C13D C 1.0662(15) 0.2985(16) -0.076(2)
H18D H 1.09330 0.33580 -0.00850
C14D C 1.0367(11) 0.3227(16) -0.178(3)
C15D C 0.9971(13) 0.2683(16) -0.277(2)
H19D H 0.97690 0.28480 -0.34620
C16D C 0.9869(15) 0.1895(16) -0.273(2)
H20D H 0.95980 0.15230 -0.34080
S2E S 0.5783(8) -0.3786(9) -0.1644(13)
O4E O 0.557(2) -0.396(3) -0.2978(18)
O5E O 0.5239(15) -0.3567(13) -0.097(3)
O6E O 0.5896(14) -0.4391(14) -0.093(3)
C10E C 0.920(2) -0.075(3) -0.157(4)
C11E C 0.8348(11) -0.1489(16) -0.171(3)
C12E C 0.7803(13) -0.1637(15) -0.073(2)
H17E H 0.79690 -0.12700 -0.00310
C13E C 0.7015(15) -0.2323(16) -0.076(2)
H18E H 0.66420 -0.24250 -0.00850
C14E C 0.6773(11) -0.2860(16) -0.178(3)
C15E C 0.7317(13) -0.2712(16) -0.277(2)
H19E H 0.71520 -0.30790 -0.34620
C16E C 0.8105(15) -0.2026(16) -0.273(2)
H20E H 0.84770 -0.19250 -0.34080
S2A S 0.9569(8) -0.4217(9) -0.1644(13)
O4A O 0.953(2) -0.443(3) -0.2978(18)
O5A O 0.8806(15) -0.4761(13) -0.097(3)
O6A O 1.0287(14) -0.4104(14) -0.093(3)
C10A C 0.995(2) -0.080(3) -0.157(4)
C11A C 0.9837(11) -0.1652(16) -0.171(3)
C12A C 0.9440(13) -0.2197(15) -0.073(2)
H17A H 0.92390 -0.20310 -0.00310
C13A C 0.9338(15) -0.2985(16) -0.076(2)
H18A H 0.90670 -0.33580 -0.00850
C14A C 0.9633(11) -0.3227(16) -0.178(3)
C15A C 1.0029(13) -0.2683(16) -0.277(2)
H19A H 1.02310 -0.28480 -0.34620
C16A C 1.0131(15) -0.1895(16) -0.273(2)
H20A H 1.04020 -0.15230 -0.34080
S2B S 1.4217(8) 0.3786(9) -0.1644(13)
O4B O 1.443(2) 0.396(3) -0.2978(18)
O5B O 1.4761(15) 0.3567(13) -0.097(3)
O6B O 1.4104(14) 0.4391(14) -0.093(3)
C10B C 1.080(2) 0.075(3) -0.157(4)
C11B C 1.1652(11) 0.1489(16) -0.171(3)
C12B C 1.2197(13) 0.1637(15) -0.073(2)
H17B H 1.20310 0.12700 -0.00310
C13B C 1.2985(15) 0.2323(16) -0.076(2)
H18B H 1.33580 0.24250 -0.00850
C14B C 1.3227(11) 0.2860(16) -0.178(3)
C15B C 1.2683(13) 0.2712(16) -0.277(2)
H19B H 1.28480 0.30790 -0.34620
C16B C 1.1895(15) 0.2026(16) -0.273(2)
H20B H 1.15230 0.19250 -0.34080
S2C S 1.3786(8) -0.0431(9) -0.1644(13)
O4C O 1.396(2) -0.047(3) -0.2978(18)
O5C O 1.3567(15) -0.1194(13) -0.097(3)
O6C O 1.4391(14) 0.0287(14) -0.093(3)
C10C C 1.075(2) -0.005(3) -0.157(4)
C11C C 1.1489(11) -0.0163(16) -0.171(3)
C12C C 1.1637(13) -0.0560(15) -0.073(2)
H17C H 1.12700 -0.07610 -0.00310
C13C C 1.2323(15) -0.0662(16) -0.076(2)
H18C H 1.24250 -0.09330 -0.00850
C14C C 1.2860(11) -0.0367(16) -0.178(3)
C15C C 1.2712(13) 0.0029(16) -0.277(2)
H19C H 1.30790 0.02310 -0.34620
C16C C 1.2026(15) 0.0131(16) -0.273(2)
H20C H 1.19250 0.04020 -0.34080
#END
