####################################################################### 
# 
# This file contains crystal structure data downloaded from the 
# Cambridge Structural Database (CSD) hosted by the Cambridge 
# Crystallographic Data Centre (CCDC).
# 
# Full information about CCDC data access policies and citation 
# guidelines are available at http://www.ccdc.cam.ac.uk/access/V1 
# 
# Audit and citation data items may have been added by the CCDC. 
# Please retain this information to preserve the provenance of 
# this file and to allow appropriate attribution of the data. 
# 
#######################################################################

data_[2]
_audit_block_doi                 10.5517/ccs8nk7
_database_code_depnum_ccdc_archive 'CCDC 723309'
loop_
_citation_id
_citation_doi
_citation_year
1 10.1246/cl.2009.526 2009
_audit_update_record             
;
2009-03-09 deposited with the CCDC.	2024-07-12 downloaded from the CCDC.
;

_audit_creation_method           SHELXL-97
_chemical_name_systematic        
;
?
;
_chemical_name_common            ?
_chemical_melting_point          ?
_chemical_formula_moiety         ?
_chemical_formula_sum            'C20 H54 Au2 N4 O17 Pt2 S4 Zn'
_chemical_formula_weight         1600.40

loop_
_atom_type_symbol
_atom_type_description
_atom_type_scat_dispersion_real
_atom_type_scat_dispersion_imag
_atom_type_scat_source
C C 0.0033 0.0016 'International Tables Vol C Tables 4.2.6.8 and 6.1.1.4'
H H 0.0000 0.0000 'International Tables Vol C Tables 4.2.6.8 and 6.1.1.4'
N N 0.0061 0.0033 'International Tables Vol C Tables 4.2.6.8 and 6.1.1.4'
O O 0.0106 0.0060 'International Tables Vol C Tables 4.2.6.8 and 6.1.1.4'
S S 0.1246 0.1234 'International Tables Vol C Tables 4.2.6.8 and 6.1.1.4'
Zn Zn 0.2839 1.4301 'International Tables Vol C Tables 4.2.6.8 and 6.1.1.4'
Pt Pt -1.7033 8.3905 'International Tables Vol C Tables 4.2.6.8 and 6.1.1.4'
Au Au -2.0133 8.8022 'International Tables Vol C Tables 4.2.6.8 and 6.1.1.4'

_symmetry_cell_setting           Hexagonal
_symmetry_space_group_name_H-M   P6422

loop_
_symmetry_equiv_pos_as_xyz
'x, y, z'
'-x, -y, z'
'-y, x-y, z+1/3'
'-x+y, -x, z+2/3'
'x-y, x, z+2/3'
'y, -x+y, z+1/3'
'x-y, -y, -z'
'-x, -x+y, -z+2/3'
'y, x, -z+1/3'
'-y, -x, -z+1/3'
'x, x-y, -z+2/3'
'-x+y, y, -z'

_cell_length_a                   12.458(3)
_cell_length_b                   12.458(3)
_cell_length_c                   24.673(5)
_cell_angle_alpha                90.00
_cell_angle_beta                 90.00
_cell_angle_gamma                120.00
_cell_volume                     3316.5(13)
_cell_formula_units_Z            3
_cell_measurement_temperature    200(2)
_cell_measurement_reflns_used    24897
_cell_measurement_theta_min      6.230
_cell_measurement_theta_max      54.990

_exptl_crystal_description       block
_exptl_crystal_colour            colorless
_exptl_crystal_size_max          0.15
_exptl_crystal_size_mid          0.15
_exptl_crystal_size_min          0.15
_exptl_crystal_density_meas      ?
_exptl_crystal_density_diffrn    2.404
_exptl_crystal_density_method    'not measured'
_exptl_crystal_F_000             2238
_exptl_absorpt_coefficient_mu    13.703
_exptl_absorpt_correction_type   empirical
_exptl_absorpt_correction_T_min  0.2330
_exptl_absorpt_correction_T_max  0.2330
_exptl_absorpt_process_details   ?

_exptl_special_details           
;
?
;

_diffrn_ambient_temperature      200(2)
_diffrn_radiation_wavelength     0.71075
_diffrn_radiation_type           MoK\a
_diffrn_radiation_source         'fine-focus sealed tube'
_diffrn_radiation_monochromator  graphite
_diffrn_measurement_device_type  'rigaku RAXIS-RAPID'
_diffrn_measurement_method       \w
_diffrn_detector_area_resol_mean ?
_diffrn_standards_number         ?
_diffrn_standards_interval_count ?
_diffrn_standards_interval_time  ?
_diffrn_standards_decay_%        ?
_diffrn_reflns_number            31523
_diffrn_reflns_av_R_equivalents  0.0463
_diffrn_reflns_av_sigmaI/netI    0.0221
_diffrn_reflns_limit_h_min       -16
_diffrn_reflns_limit_h_max       16
_diffrn_reflns_limit_k_min       -16
_diffrn_reflns_limit_k_max       13
_diffrn_reflns_limit_l_min       -30
_diffrn_reflns_limit_l_max       31
_diffrn_reflns_theta_min         3.11
_diffrn_reflns_theta_max         27.48
_reflns_number_total             2546
_reflns_number_gt                2374
_reflns_threshold_expression     >2sigma(I)
_chemical_absolute_configuration rm

_computing_data_collection       PROCESS-AUTO
_computing_cell_refinement       PROCESS-AUTO
_computing_data_reduction        CrystalStructure
_computing_structure_solution    SIR97
_computing_structure_refinement  'SHELXL-97 (Sheldrick, 1997)'
_computing_molecular_graphics    ?
_computing_publication_material  ?

_refine_special_details          
;
Refinement of F^2^ against ALL reflections. The weighted R-factor wR and
goodness of fit S are based on F^2^, conventional R-factors R are based
on F, with F set to zero for negative F^2^. The threshold expression of
F^2^ > 2sigma(F^2^) is used only for calculating R-factors(gt) etc. and is
not relevant to the choice of reflections for refinement. R-factors based
on F^2^ are statistically about twice as large as those based on F, and R-
factors based on ALL data will be even larger.
;

_refine_ls_structure_factor_coef Fsqd
_refine_ls_matrix_type           full
_refine_ls_weighting_scheme      calc
_refine_ls_weighting_details     
'calc w=1/[\s^2^(Fo^2^)+(0.0350P)^2^+8.6402P] where P=(Fo^2^+2Fc^2^)/3'
_atom_sites_solution_primary     direct
_atom_sites_solution_secondary   difmap
_atom_sites_solution_hydrogens   geom
_refine_ls_hydrogen_treatment    constr
_refine_ls_extinction_method     none
_refine_ls_extinction_coef       ?
_refine_ls_abs_structure_details 'Flack H D (1983), Acta Cryst. A39, 876-881'
_refine_ls_abs_structure_Flack   0.004(15)
_refine_ls_number_reflns         2546
_refine_ls_number_parameters     120
_refine_ls_number_restraints     6
_refine_ls_R_factor_all          0.0289
_refine_ls_R_factor_gt           0.0261
_refine_ls_wR_factor_ref         0.0679
_refine_ls_wR_factor_gt          0.0666
_refine_ls_goodness_of_fit_ref   1.086
_refine_ls_restrained_S_all      1.088
_refine_ls_shift/su_max          0.001
_refine_ls_shift/su_mean         0.000

loop_
_atom_site_label
_atom_site_type_symbol
_atom_site_fract_x
_atom_site_fract_y
_atom_site_fract_z
_atom_site_U_iso_or_equiv
_atom_site_adp_type
_atom_site_occupancy
_atom_site_symmetry_multiplicity
_atom_site_calc_flag
_atom_site_refinement_flags
_atom_site_disorder_assembly
_atom_site_disorder_group
Au1 Au 0.606893(16) 0.393107(16) 0.1667 0.03545(10) Uani 1 2 d S . .
Pt1 Pt 0.5000 0.5000 0.261660(15) 0.03399(10) Uani 1 2 d S . .
Zn1 Zn 1.0000 1.0000 0.3333 0.0248(2) Uani 1 4 d S . .
S1 S 0.62949(16) 0.41791(15) 0.25890(7) 0.0374(4) Uani 1 1 d . . .
N1 N 0.6588(5) 0.6694(6) 0.2651(2) 0.0401(13) Uani 1 1 d . . .
H1 H 0.6478 0.7249 0.2447 0.048 Uiso 1 1 calc R . .
H2 H 0.6717 0.6968 0.3004 0.048 Uiso 1 1 calc R . .
O1 O 0.8756(4) 0.8476(5) 0.3006(2) 0.0451(13) Uani 1 1 d . . .
O2 O 0.9812(5) 0.8306(6) 0.2315(2) 0.0518(14) Uani 1 1 d . . .
C1 C 0.7817(7) 0.5618(6) 0.2708(2) 0.0353(13) Uani 1 1 d . . .
C2 C 0.7726(6) 0.6690(6) 0.2453(3) 0.0303(13) Uani 1 1 d . . .
H3 H 0.7670 0.6583 0.2050 0.036 Uiso 1 1 calc R . .
C3 C 0.8819(7) 0.5448(8) 0.2445(4) 0.048(2) Uani 1 1 d . . .
H4 H 0.8664 0.5321 0.2055 0.073 Uiso 1 1 calc R . .
H5 H 0.8815 0.4724 0.2604 0.073 Uiso 1 1 calc R . .
H6 H 0.9628 0.6188 0.2508 0.073 Uiso 1 1 calc R . .
C4 C 0.7964(7) 0.5733(7) 0.3329(3) 0.0475(16) Uani 1 1 d . . .
H7 H 0.7929 0.4986 0.3476 0.071 Uiso 1 1 calc R . .
H8 H 0.7292 0.5827 0.3485 0.071 Uiso 1 1 calc R . .
H9 H 0.8763 0.6459 0.3420 0.071 Uiso 1 1 calc R . .
C5 C 0.8876(7) 0.7940(6) 0.2590(3) 0.0343(13) Uani 1 1 d . . .
O3 O 0.9558(10) 0.7750(8) 0.1229(3) 0.107(3) Uani 1 1 d . . .
O4 O 0.8878(10) 0.6052(9) 0.0451(4) 0.115(3) Uani 1 1 d . . .
O5 O 1.0000 0.5000 0.1043(14) 0.153(12) Uani 0.50 2 d SPU . .

loop_
_atom_site_aniso_label
_atom_site_aniso_U_11
_atom_site_aniso_U_22
_atom_site_aniso_U_33
_atom_site_aniso_U_23
_atom_site_aniso_U_13
_atom_site_aniso_U_12
Au1 0.02361(13) 0.02361(13) 0.0594(2) -0.00887(14) -0.00887(14) 0.01197(14)
Pt1 0.02259(18) 0.02344(19) 0.0540(2) 0.000 0.000 0.01008(14)
Zn1 0.0174(6) 0.0220(4) 0.0334(6) 0.000 0.000 0.0087(3)
S1 0.0277(8) 0.0242(8) 0.0594(10) -0.0003(6) -0.0034(7) 0.0124(7)
N1 0.025(3) 0.028(3) 0.067(4) -0.003(3) -0.012(3) 0.013(2)
O1 0.031(3) 0.030(3) 0.056(3) -0.016(2) 0.007(2) 0.002(2)
O2 0.034(3) 0.045(3) 0.060(3) -0.006(3) 0.012(3) 0.007(3)
C1 0.029(3) 0.031(3) 0.045(3) -0.002(3) -0.008(3) 0.014(3)
C2 0.024(3) 0.027(3) 0.034(3) -0.006(2) -0.005(2) 0.009(3)
C3 0.025(4) 0.036(4) 0.084(6) -0.014(4) -0.003(3) 0.015(3)
C4 0.052(5) 0.042(4) 0.047(4) 0.003(3) -0.006(4) 0.022(4)
C5 0.033(4) 0.028(3) 0.041(3) -0.003(3) 0.000(3) 0.014(3)
O3 0.161(10) 0.071(5) 0.056(4) 0.003(4) -0.001(5) 0.034(6)
O4 0.079(6) 0.085(7) 0.151(8) -0.004(6) 0.023(6) 0.020(6)
O5 0.20(2) 0.17(2) 0.146(18) 0.000 0.000 0.137(17)

_geom_special_details            
;
All esds (except the esd in the dihedral angle between two l.s. planes)
are estimated using the full covariance matrix. The cell esds are taken
into account individually in the estimation of esds in distances, angles
and torsion angles; correlations between esds in cell parameters are only
used when they are defined by crystal symmetry. An approximate (isotropic)
treatment of cell esds is used for estimating esds involving l.s. planes.
;

loop_
_geom_bond_atom_site_label_1
_geom_bond_atom_site_label_2
_geom_bond_distance
_geom_bond_site_symmetry_2
_geom_bond_publ_flag
Au1 S1 2.2947(19) . ?
Au1 S1 2.2948(19) 10_665 ?
Au1 Pt1 3.2884(6) . ?
Au1 Pt1 3.2884(6) 9 ?
Pt1 N1 2.050(6) . ?
Pt1 N1 2.050(6) 2_665 ?
Pt1 S1 2.3028(18) 2_665 ?
Pt1 S1 2.3028(18) . ?
Pt1 Au1 3.2884(6) 2_665 ?
Zn1 O1 1.928(5) . ?
Zn1 O1 1.928(5) 2_775 ?
Zn1 O1 1.928(5) 11_565 ?
Zn1 O1 1.928(5) 8_765 ?
S1 C1 1.870(7) . ?
N1 C2 1.501(9) . ?
O1 C5 1.274(8) . ?
O2 C5 1.222(9) . ?
C1 C3 1.512(11) . ?
C1 C2 1.531(10) . ?
C1 C4 1.542(9) . ?
C2 C5 1.536(9) . ?

loop_
_geom_angle_atom_site_label_1
_geom_angle_atom_site_label_2
_geom_angle_atom_site_label_3
_geom_angle
_geom_angle_site_symmetry_1
_geom_angle_site_symmetry_3
_geom_angle_publ_flag
S1 Au1 S1 178.81(9) . 10_665 ?
S1 Au1 Pt1 44.43(4) . . ?
S1 Au1 Pt1 134.39(5) 10_665 . ?
S1 Au1 Pt1 134.39(5) . 9 ?
S1 Au1 Pt1 44.43(4) 10_665 9 ?
Pt1 Au1 Pt1 90.92(2) . 9 ?
N1 Pt1 N1 175.2(3) . 2_665 ?
N1 Pt1 S1 94.25(18) . 2_665 ?
N1 Pt1 S1 85.89(18) 2_665 2_665 ?
N1 Pt1 S1 85.89(18) . . ?
N1 Pt1 S1 94.25(18) 2_665 . ?
S1 Pt1 S1 176.60(9) 2_665 . ?
N1 Pt1 Au1 93.94(18) . . ?
N1 Pt1 Au1 89.47(17) 2_665 . ?
S1 Pt1 Au1 132.39(5) 2_665 . ?
S1 Pt1 Au1 44.24(5) . . ?
N1 Pt1 Au1 89.47(17) . 2_665 ?
N1 Pt1 Au1 93.94(18) 2_665 2_665 ?
S1 Pt1 Au1 44.24(5) 2_665 2_665 ?
S1 Pt1 Au1 132.39(5) . 2_665 ?
Au1 Pt1 Au1 89.08(2) . 2_665 ?
O1 Zn1 O1 130.5(3) . 2_775 ?
O1 Zn1 O1 91.7(3) . 11_565 ?
O1 Zn1 O1 108.7(4) 2_775 11_565 ?
O1 Zn1 O1 108.7(4) . 8_765 ?
O1 Zn1 O1 91.7(3) 2_775 8_765 ?
O1 Zn1 O1 130.5(3) 11_565 8_765 ?
C1 S1 Au1 106.4(2) . . ?
C1 S1 Pt1 99.8(3) . . ?
Au1 S1 Pt1 91.33(6) . . ?
C2 N1 Pt1 114.2(4) . . ?
C5 O1 Zn1 127.3(5) . . ?
C3 C1 C2 111.9(6) . . ?
C3 C1 C4 111.7(7) . . ?
C2 C1 C4 112.6(6) . . ?
C3 C1 S1 108.1(5) . . ?
C2 C1 S1 106.9(5) . . ?
C4 C1 S1 105.1(5) . . ?
N1 C2 C1 110.5(6) . . ?
N1 C2 C5 109.2(5) . . ?
C1 C2 C5 110.8(6) . . ?
O2 C5 O1 126.2(7) . . ?
O2 C5 C2 119.2(6) . . ?
O1 C5 C2 114.5(6) . . ?

_diffrn_measured_fraction_theta_max 0.996
_diffrn_reflns_theta_full        27.48
_diffrn_measured_fraction_theta_full 0.996
_refine_diff_density_max         0.866
_refine_diff_density_min         -0.959
_refine_diff_density_rms         0.140
