####################################################################### 
# 
# This file contains crystal structure data downloaded from the 
# Cambridge Structural Database (CSD) hosted by the Cambridge 
# Crystallographic Data Centre (CCDC).
# 
# Full information about CCDC data access policies and citation 
# guidelines are available at http://www.ccdc.cam.ac.uk/access/V1 
# 
# Audit and citation data items may have been added by the CCDC. 
# Please retain this information to preserve the provenance of 
# this file and to allow appropriate attribution of the data. 
# 
#######################################################################

data_shi_2295_maan_twin1_hklf4
_audit_block_doi                 10.5517/cc13m7gf
_database_code_depnum_ccdc_archive 'CCDC 1031384'
loop_
_citation_id
_citation_doi
_citation_year
1 10.1021/cg501604c 2015
_audit_update_record             
;
2014-10-28 deposited with the CCDC.	2024-07-12 downloaded from the CCDC.
;
_audit_creation_date             2014-08-03
_audit_creation_method           
;
Olex2 1.2
(compiled 2014.07.22 svn.r2960 for OlexSys, GUI svn.r4862)
;
_chemical_name_common            ?
_chemical_name_systematic        
;
 ? 
;
_chemical_formula_moiety         'C36 H40 N2 O19 Zn5, 2.6(H2 O)'
_chemical_formula_sum            'C36 H45.20 N2 O21.60 Zn5'
_chemical_formula_weight         1178.39
_chemical_melting_point          ?
_chemical_oxdiff_formula         'C25 H30 N2 O8 Zn'
_chemical_oxdiff_usercomment     TIFT
loop_
_atom_type_symbol
_atom_type_description
_atom_type_scat_dispersion_real
_atom_type_scat_dispersion_imag
_atom_type_scat_source
C C 0.0033 0.0016 'International Tables Vol C Tables 4.2.6.8 and 6.1.1.4'
H H 0.0000 0.0000 'International Tables Vol C Tables 4.2.6.8 and 6.1.1.4'
N N 0.0061 0.0033 'International Tables Vol C Tables 4.2.6.8 and 6.1.1.4'
O O 0.0106 0.0060 'International Tables Vol C Tables 4.2.6.8 and 6.1.1.4'
Zn Zn 0.2839 1.4301 'International Tables Vol C Tables 4.2.6.8 and 6.1.1.4'

_space_group_crystal_system      triclinic
_space_group_IT_number           2
_space_group_name_H-M_alt        'P -1'
_space_group_name_Hall           '-P 1'
loop_
_space_group_symop_id
_space_group_symop_operation_xyz
1 'x, y, z'
2 '-x, -y, -z'

_cell_length_a                   13.6546(18)
_cell_length_b                   14.2126(18)
_cell_length_c                   14.6377(19)
_cell_angle_alpha                76.057(11)
_cell_angle_beta                 86.390(11)
_cell_angle_gamma                67.910(12)
_cell_volume                     2553.4(6)
_cell_formula_units_Z            2
_cell_measurement_reflns_used    2307
_cell_measurement_temperature    173.05(10)
_cell_measurement_theta_max      25.3130
_cell_measurement_theta_min      1.7830
_exptl_absorpt_coefficient_mu    2.388
_exptl_absorpt_correction_T_max  1.00000
_exptl_absorpt_correction_T_min  0.82102
_exptl_absorpt_correction_type   multi-scan
_exptl_absorpt_process_details   
;
CrysAlisPro, Agilent Technologies,
Version 1.171.36.32 (release 02-08-2013 CrysAlis171 .NET)
(compiled Aug  2 2013,16:46:58)
Empirical absorption correction using spherical harmonics,
 implemented in SCALE3 ABSPACK scaling algorithm.
;
_exptl_crystal_colour            'clear light colourless'
_exptl_crystal_density_diffrn    1.533
_exptl_crystal_density_meas      ?
_exptl_crystal_density_method    'not measured'
_exptl_crystal_description       plate
_exptl_crystal_F_000             1196
_exptl_crystal_size_max          0.4
_exptl_crystal_size_mid          0.2
_exptl_crystal_size_min          0.02
_exptl_special_details           
;
 ? 
;
_diffrn_reflns_av_R_equivalents  0.0000
_diffrn_reflns_av_unetI/netI     0.1686
_diffrn_reflns_limit_h_max       16
_diffrn_reflns_limit_h_min       -16
_diffrn_reflns_limit_k_max       16
_diffrn_reflns_limit_k_min       -16
_diffrn_reflns_limit_l_max       17
_diffrn_reflns_limit_l_min       -17
_diffrn_reflns_number            12760
_diffrn_reflns_theta_full        24.71
_diffrn_reflns_theta_max         24.71
_diffrn_reflns_theta_min         2.08
_diffrn_ambient_temperature      173.05(10)
_diffrn_detector_area_resol_mean 16.1593
_diffrn_measured_fraction_theta_full 0.993
_diffrn_measured_fraction_theta_max 0.993
_diffrn_measurement_details      
;
#__ type_ start__ end____ width___ exp.time_
  1 omega  -24.00   21.00   1.0000   30.0000
omega____ theta____ kappa____ phi______ frames
    -      -13.9352  -99.0000  -90.0000 45

#__ type_ start__ end____ width___ exp.time_
  2 omega   -7.00   23.00   1.0000   30.0000
omega____ theta____ kappa____ phi______ frames
    -      -13.9352  -99.0000    0.0000 30

#__ type_ start__ end____ width___ exp.time_
  3 omega  -72.00  -37.00   1.0000   30.0000
omega____ theta____ kappa____ phi______ frames
    -      -13.9352 -178.0000 -150.0000 35

#__ type_ start__ end____ width___ exp.time_
  4 omega    0.00   85.00   1.0000   30.0000
omega____ theta____ kappa____ phi______ frames
    -       16.3570   38.0000 -180.0000 85

#__ type_ start__ end____ width___ exp.time_
  5 omega  -41.00   25.00   1.0000   30.0000
omega____ theta____ kappa____ phi______ frames
    -       16.3570  -57.0000    0.0000 66

#__ type_ start__ end____ width___ exp.time_
  6 omega  -22.00   51.00   1.0000   30.0000
omega____ theta____ kappa____ phi______ frames
    -       16.3570  -99.0000 -120.0000 73

#__ type_ start__ end____ width___ exp.time_
  7 omega   -4.00   39.00   1.0000   30.0000
omega____ theta____ kappa____ phi______ frames
    -       16.3570  -19.0000    0.0000 43
;
_diffrn_measurement_device_type  'Xcalibur, Eos'
_diffrn_measurement_method       '\w scans'
_diffrn_orient_matrix_UB_11      0.0271212000
_diffrn_orient_matrix_UB_12      0.0172834000
_diffrn_orient_matrix_UB_13      0.0281102000
_diffrn_orient_matrix_UB_21      -0.0291944000
_diffrn_orient_matrix_UB_22      0.0525959000
_diffrn_orient_matrix_UB_23      -0.0231048000
_diffrn_orient_matrix_UB_31      -0.0394704000
_diffrn_orient_matrix_UB_32      0.0023098000
_diffrn_orient_matrix_UB_33      0.0342222000
loop_
_diffrn_oxdiff_twin_id
_diffrn_oxdiff_twin_ratio
_diffrn_oxdiff_twin_reflns_isolated
_diffrn_oxdiff_twin_reflns_overlapped
1 0.5480 7208 15618
2 0.4520 7164 15618

_diffrn_radiation_monochromator  graphite
_diffrn_radiation_type           MoK\a
_diffrn_radiation_wavelength     0.71073
_diffrn_source                   'Enhance (Mo) X-ray Source'
_diffrn_standards_decay_%        ?
_diffrn_standards_interval_count ?
_diffrn_standards_interval_time  ?
_diffrn_standards_number         ?
_reflns_number_gt                7884
_reflns_number_total             12782
_reflns_threshold_expression     >2sigma(I)
_computing_cell_refinement       
;
CrysAlisPro, Agilent Technologies,
Version 1.171.36.32 (release 02-08-2013 CrysAlis171 .NET)
(compiled Aug  2 2013,16:46:58)
;
_computing_data_collection       
;
CrysAlisPro, Agilent Technologies,
Version 1.171.36.32 (release 02-08-2013 CrysAlis171 .NET)
(compiled Aug  2 2013,16:46:58)
;
_computing_data_reduction        
;
CrysAlisPro, Agilent Technologies,
Version 1.171.36.32 (release 02-08-2013 CrysAlis171 .NET)
(compiled Aug  2 2013,16:46:58)
;
_computing_molecular_graphics    'Olex2 (Dolomanov et al., 2009)'
_computing_publication_material  'Olex2 (Dolomanov et al., 2009)'
_computing_structure_refinement  'ShelXL (Sheldrick, 2008)'
_computing_structure_solution    'ShelXS (Sheldrick, 2008)'
_refine_diff_density_max         0.804
_refine_diff_density_min         -0.968
_refine_diff_density_rms         0.159
_refine_ls_extinction_coef       ?
_refine_ls_extinction_method     none
_refine_ls_goodness_of_fit_ref   0.937
_refine_ls_hydrogen_treatment    mixed
_refine_ls_matrix_type           full
_refine_ls_number_parameters     619
_refine_ls_number_reflns         12782
_refine_ls_number_restraints     159
_refine_ls_R_factor_all          0.1083
_refine_ls_R_factor_gt           0.0617
_refine_ls_restrained_S_all      0.939
_refine_ls_shift/su_max          0.000
_refine_ls_shift/su_mean         0.000
_refine_ls_structure_factor_coef Fsqd
_refine_ls_weighting_details     
'calc w=1/[\s^2^(Fo^2^)+(0.0633P)^2^+0.0000P] where P=(Fo^2^+2Fc^2^)/3'
_refine_ls_weighting_scheme      calc
_refine_ls_wR_factor_gt          0.1299
_refine_ls_wR_factor_ref         0.1445
_refine_special_details          
;
 Refinement of F^2^ against ALL reflections.  The weighted R-factor wR and 
 goodness of fit S are based on F^2^, conventional R-factors R are based 
 on F, with F set to zero for negative F^2^. The threshold expression of 
 F^2^ > 2sigma(F^2^) is used only for calculating R-factors(gt) etc. and is 
 not relevant to the choice of reflections for refinement.  R-factors based 
 on F^2^ are statistically about twice as large as those based on F, and R- 
 factors based on ALL data will be even larger. 
;
_olex2_refinement_description    
;
1. Fixed Uiso
 At 1.2 times of:
  All C(H) groups, All C(H,H) groups
 At 1.5 times of:
  All O(H) groups, All O(H,H) groups
2. Restrained distances
 H9WA-H9WB
 1.45 with sigma of 0.01
 O9W-H9WB = O9W-H9WA
 0.86 with sigma of 0.01
 O7W-H7WB = O7W-H7WA
 0.86 with sigma of 0.01
 H7WA-H7WB
 1.45 with sigma of 0.01
 O8W-H8WA = O8W-H8WB
 0.86 with sigma of 0.01
 H8WA-H8WB
 1.45 with sigma of 0.01
 O8-H8
 0.85 with sigma of 0.01
 O18-H18
 0.85 with sigma of 0.01
 C18-H8
 1.919011 with sigma of 0.02
 Zn3-H8
 2.769068 with sigma of 0.02
 C35-H18
 1.887559 with sigma of 0.02
 Zn1-H18
 2.802417 with sigma of 0.02
3. Uiso/Uaniso restraints and constraints
Uanis(O5) \\sim Ueq: with sigma of 0.001 and sigma for terminal atoms of 0.002
Uanis(O1) \\sim Ueq, Uanis(C24) \\sim Ueq, Uanis(C15) \\sim Ueq, Uanis(C11)
\\sim Ueq, Uanis(C22) \\sim Ueq: with sigma of 0.005 and sigma for terminal
atoms of 0.01
Uanis(C15) \\sim Ueq, Uanis(O4) \\sim Ueq, Uanis(O9) \\sim Ueq: with sigma of
0.005 and sigma for terminal atoms of 0.01
Uanis(O9) \\sim Ueq: with sigma of 0.005 and sigma for terminal atoms of 0.01
Uanis(C11) \\sim Ueq, Uanis(O4) \\sim Ueq, Uanis(C15) \\sim Ueq, Uanis(C21)
\\sim Ueq, Uanis(C34) \\sim Ueq: with sigma of 0.01 and sigma for terminal
atoms of 0.02
Uanis(C13) \\sim Ueq: with sigma of 0.005 and sigma for terminal atoms of 0.01
Uanis(O9) \\sim Ueq, Uanis(O18) \\sim Ueq: with sigma of 0.005 and sigma for
terminal atoms of 0.01
Uanis(C1) \\sim Ueq, Uanis(C33) \\sim Ueq, Uanis(C21) \\sim Ueq, Uanis(C29)
\\sim Ueq: with sigma of 0.005 and sigma for terminal atoms of 0.01
Uanis(C31) \\sim Ueq: with sigma of 0.005 and sigma for terminal atoms of 0.01
Uanis(C9) \\sim Ueq: with sigma of 0.005 and sigma for terminal atoms of 0.01
4. Others
 Fixed Sof: O14W(0.15) H14A(0.15) H14B(0.15) O10W(0.25) H10A(0.25) H10B(0.25)
 O4W(0.25) H4WA(0.25) H4WB(0.25) O2W(0.25) H2WA(0.25) H2WB(0.25) O11W(0.15)
 H11A(0.15) H11B(0.15) O6W(0.25) H6WA(0.25) H6WB(0.25) O9W(0.25) H9WA(0.25)
 H9WB(0.25) O12W(0.15) H12A(0.15) H12B(0.15) O7W(0.15) H7WA(0.15) H7WB(0.15)
 O8W(0.1) H8WA(0.1) H8WB(0.1) O13W(0.25) H13A(0.25) H13B(0.25) O5W(0.25)
 H5WA(0.25) H5WB(0.25) O3W(0.15) H3WA(0.15) H3WB(0.15)
5.a Riding coordinates:
 O14W(H14A,H14B), O10W(H10A,H10B), O4W(H4WA,H4WB), O2W(H2WA,H2WB), O11W(H11A,
 H11B), O6W(H6WA,H6WB), O9W(H9WA,H9WB), O12W(H12A,H12B), O7W(H7WA,H7WB),
 O8W(H8WA,H8WB), O13W(H13A,H13B), O5W(H5WA,H5WB), O3W(H3WA,H3WB)
5.b Rotating group:
 O1W(H1WA,H1WB)
5.c Secondary CH2 refined with riding coordinates:
 C31(H31A,H31B), C21(H21A,H21B), C32(H32A,H32B), C18(H18A,H18B), C34(H34A,
 H34B), C16(H16A,H16B), C17(H17A,H17B), C20(H20A,H20B), C19(H19A,H19B),
 C35(H35A,H35B), C36(H36A,H36B), C33(H33A,H33B)
5.d Aromatic/amide H refined with riding coordinates:
 C10(H10), C7(H7), C25(H25), C5(H5), C28(H28), C29(H29), C3(H3), C12(H12),
 C4(H4), C27(H27), C14(H14), C13(H13)
;
_atom_sites_solution_hydrogens   geom
_atom_sites_solution_primary     direct
_atom_sites_solution_secondary   difmap
loop_
_atom_site_label
_atom_site_type_symbol
_atom_site_fract_x
_atom_site_fract_y
_atom_site_fract_z
_atom_site_U_iso_or_equiv
_atom_site_adp_type
_atom_site_occupancy
_atom_site_calc_flag
_atom_site_disorder_assembly
_atom_site_disorder_group
_atom_site_refinement_flags_posn
_atom_site_refinement_flags_adp
Zn4 Zn 0.66531(7) 0.14237(7) 0.22925(6) 0.0121(2) Uani 1 d . . . .
Zn1 Zn 0.01581(7) 0.37062(7) 0.14125(6) 0.0120(2) Uani 1 d . . D .
Zn5 Zn 0.85043(7) 0.24347(7) 0.22410(6) 0.0123(2) Uani 1 d . . . .
Zn2 Zn 0.26143(7) 0.23310(7) 0.10812(6) 0.0117(2) Uani 1 d . . . .
Zn3 Zn 0.51164(7) 0.05299(7) 0.12742(6) 0.0120(2) Uani 1 d . . D .
O13 O 0.1827(4) 0.1815(4) 0.2239(3) 0.0165(13) Uani 1 d . . . .
O9 O 0.3618(4) 0.0773(4) 0.1002(4) 0.0137(13) Uani 1 d . . . U
O11 O 0.3559(4) 0.2845(4) 0.0075(4) 0.0169(13) Uani 1 d . . . .
O16 O 0.1512(4) 0.3853(4) 0.0916(3) 0.0113(12) Uani 1 d . . . .
O12 O 0.2576(4) 0.1854(4) 0.3551(4) 0.0229(14) Uani 1 d . . . .
O18 O -0.1024(4) 0.5114(4) 0.0817(4) 0.0217(14) Uani 1 d . . D U
H18 H -0.133(4) 0.548(3) 0.0292(14) 0.033 Uiso 1 d . . DR .
O17 O -0.0603(4) 0.3118(4) 0.2464(3) 0.0136(13) Uani 1 d . . . .
O15 O -0.0046(4) 0.2881(4) 0.0596(4) 0.0204(14) Uani 1 d . . . .
O10 O 0.5257(4) 0.1791(4) 0.0411(4) 0.0179(14) Uani 1 d . . . .
O5 O 0.9064(4) 0.1154(4) 0.1798(4) 0.0179(14) Uani 1 d . . . U
O4 O 0.5931(4) 0.2925(4) 0.1980(4) 0.0172(13) Uani 1 d . . . U
O14 O 0.1618(4) 0.2086(4) 0.0183(4) 0.0139(13) Uani 1 d . . . .
O8 O 0.6237(4) -0.0592(4) 0.0712(3) 0.0165(13) Uani 1 d . . D .
H8 H 0.637(4) -0.071(2) 0.0160(9) 0.025 Uiso 1 d . . DR .
O7 O 0.5526(4) 0.0901(4) 0.2414(3) 0.0146(13) Uani 1 d . . . .
O1 O 0.8110(4) 0.1959(4) 0.3554(4) 0.0180(13) Uani 1 d . . . U
O3 O 0.7260(4) 0.3487(4) 0.1527(4) 0.0188(14) Uani 1 d . . . .
O6 O 0.7706(4) 0.0789(4) 0.1440(4) 0.0207(14) Uani 1 d . . . .
O2 O 0.7362(4) 0.0806(4) 0.3529(4) 0.0225(14) Uani 1 d . . . .
N1 N 0.5078(5) -0.0812(5) 0.2324(4) 0.0134(16) Uani 1 d . . . .
C15 C 0.8681(6) 0.0615(6) 0.1496(5) 0.0103(18) Uani 1 d . . . U
C23 C 0.0670(7) 0.2268(6) 0.0163(5) 0.0152(19) Uani 1 d . . . .
O1W O 0.3567(4) 0.2567(4) 0.2067(4) 0.0191(13) Uani 1 d . . . .
H1WA H 0.4234 0.2305 0.1943 0.029 Uiso 1 d . . GR .
H1WB H 0.3480 0.2260 0.2639 0.029 Uiso 1 d . . GR .
N2 N 0.0265(5) 0.4590(5) 0.2380(4) 0.0163(16) Uani 1 d . . . .
C10 C 0.5826(6) 0.5504(6) 0.0830(5) 0.0125(19) Uani 1 d . . . .
H10 H 0.6545 0.5369 0.0761 0.015 Uiso 1 calc . . R .
C7 C 0.7967(6) -0.0189(6) 0.5407(5) 0.016(2) Uani 1 d . . . .
H7 H 0.7525 -0.0394 0.5110 0.019 Uiso 1 calc . . R .
C8 C 0.6299(7) 0.3615(7) 0.1625(6) 0.018(2) Uani 1 d . . . .
C31 C 0.1710(6) 0.4619(6) 0.1286(5) 0.0170(19) Uani 1 d . . . U
H31A H 0.1325 0.5312 0.0904 0.020 Uiso 1 calc . . R .
H31B H 0.2458 0.4497 0.1259 0.020 Uiso 1 calc . . R .
C25 C 0.0947(6) 0.0878(6) -0.0707(5) 0.0128(19) Uani 1 d . . . .
H25 H 0.1671 0.0677 -0.0611 0.015 Uiso 1 calc . . R .
C21 C 0.3373(6) -0.0106(6) 0.1477(6) 0.018(2) Uani 1 d . . . U
H21A H 0.3552 -0.0603 0.1083 0.021 Uiso 1 calc . . R .
H21B H 0.2618 0.0120 0.1577 0.021 Uiso 1 calc . . R .
C5 C 0.9027(6) -0.0423(6) 0.6737(5) 0.018(2) Uani 1 d . . . .
H5 H 0.9293 -0.0778 0.7345 0.022 Uiso 1 calc . . R .
C6 C 0.8331(6) -0.0697(6) 0.6321(5) 0.0147(19) Uani 1 d . . . .
C32 C 0.1363(6) 0.4559(7) 0.2304(6) 0.019(2) Uani 1 d . . . .
H32A H 0.1834 0.3917 0.2706 0.022 Uiso 1 calc . . R .
H32B H 0.1405 0.5141 0.2513 0.022 Uiso 1 calc . . R .
C18 C 0.6615(7) -0.1584(6) 0.1396(6) 0.023(2) Uani 1 d . . D .
H18A H 0.7130 -0.1589 0.1826 0.028 Uiso 1 calc . . R .
H18B H 0.6954 -0.2145 0.1078 0.028 Uiso 1 calc . . R .
C34 C -0.0794(6) 0.3608(6) 0.3250(5) 0.0171(19) Uani 1 d . . . U
H34A H -0.0798 0.3104 0.3829 0.021 Uiso 1 calc . . R .
H34B H -0.1479 0.4177 0.3163 0.021 Uiso 1 calc . . R .
C16 C 0.5358(6) 0.0277(6) 0.3275(5) 0.0158(19) Uani 1 d . . . .
H16A H 0.4627 0.0580 0.3446 0.019 Uiso 1 calc . . R .
H16B H 0.5803 0.0274 0.3767 0.019 Uiso 1 calc . . R .
C26 C 0.0561(6) 0.0323(6) -0.1169(5) 0.0116(18) Uani 1 d . . . .
C28 C -0.1188(6) 0.1504(7) -0.1023(6) 0.022(2) Uani 1 d . . . .
H28 H -0.1910 0.1745 -0.1159 0.026 Uiso 1 calc . . R .
C17 C 0.5600(7) -0.0825(7) 0.3208(5) 0.021(2) Uani 1 d . . . .
H17A H 0.5341 -0.1191 0.3755 0.025 Uiso 1 calc . . R .
H17B H 0.6359 -0.1188 0.3192 0.025 Uiso 1 calc . . R .
C29 C -0.0822(6) 0.2010(6) -0.0555(5) 0.015(2) Uani 1 d . . . U
H29 H -0.1296 0.2567 -0.0332 0.018 Uiso 1 calc . . R .
C2 C 0.8266(6) 0.0634(6) 0.4928(5) 0.019(2) Uani 1 d . . . .
C11 C 0.5089(6) 0.6508(6) 0.0483(5) 0.0114(18) Uani 1 d . . . U
C30 C 0.2054(6) 0.1526(6) 0.3113(6) 0.0144(19) Uani 1 d . . . .
C24 C 0.0255(6) 0.1717(6) -0.0398(5) 0.0120(18) Uani 1 d . . . U
C9 C 0.5500(6) 0.4725(6) 0.1266(5) 0.0135(19) Uani 1 d . . . U
C3 C 0.8949(6) 0.0908(6) 0.5367(5) 0.020(2) Uani 1 d . . . .
H3 H 0.9148 0.1457 0.5054 0.024 Uiso 1 calc . . R .
C12 C 0.4028(6) 0.6715(6) 0.0603(6) 0.017(2) Uani 1 d . . . .
H12 H 0.3529 0.7380 0.0368 0.021 Uiso 1 calc . . R .
C4 C 0.9333(6) 0.0379(6) 0.6253(5) 0.019(2) Uani 1 d . . . .
H4 H 0.9807 0.0559 0.6537 0.022 Uiso 1 calc . . R .
C27 C -0.0513(6) 0.0626(7) -0.1309(5) 0.018(2) Uani 1 d . . . .
H27 H -0.0779 0.0248 -0.1591 0.022 Uiso 1 calc . . R .
C20 C 0.3965(6) -0.0645(6) 0.2426(5) 0.016(2) Uani 1 d . . . .
H20A H 0.3666 -0.0217 0.2875 0.020 Uiso 1 calc . . R .
H20B H 0.3888 -0.1311 0.2666 0.020 Uiso 1 calc . . R .
C14 C 0.4440(6) 0.4927(6) 0.1398(6) 0.022(2) Uani 1 d . . . .
H14 H 0.4218 0.4391 0.1702 0.026 Uiso 1 calc . . R .
C19 C 0.5674(7) -0.1746(6) 0.1945(6) 0.021(2) Uani 1 d . . . .
H19A H 0.5214 -0.1849 0.1532 0.026 Uiso 1 calc . . R .
H19B H 0.5926 -0.2363 0.2458 0.026 Uiso 1 calc . . R .
C35 C -0.1445(7) 0.5731(7) 0.1508(6) 0.026(2) Uani 1 d . . D .
H35A H -0.1908 0.5458 0.1923 0.031 Uiso 1 calc . . R .
H35B H -0.1849 0.6451 0.1197 0.031 Uiso 1 calc . . R .
C36 C -0.0543(6) 0.5673(6) 0.2055(6) 0.020(2) Uani 1 d . . . .
H36A H -0.0810 0.5954 0.2602 0.023 Uiso 1 calc . . R .
H36B H -0.0200 0.6111 0.1670 0.023 Uiso 1 calc . . R .
C1 C 0.7874(6) 0.1188(6) 0.3924(5) 0.018(2) Uani 1 d . . . U
C22 C 0.4540(6) 0.2651(6) 0.0035(5) 0.012(2) Uani 1 d . . . U
C33 C 0.0059(6) 0.4018(6) 0.3314(5) 0.021(2) Uani 1 d . . . U
H33A H -0.0151 0.4482 0.3741 0.025 Uiso 1 calc . . R .
H33B H 0.0704 0.3439 0.3570 0.025 Uiso 1 calc . . R .
C13 C 0.3719(6) 0.5909(6) 0.1083(6) 0.017(2) Uani 1 d . . . U
H13 H 0.3006 0.6043 0.1192 0.021 Uiso 1 calc . . R .
O14W O 0.897(4) 0.789(4) 0.409(3) 0.051(13) Uiso 0.15 d A 2 . .
H14A H 0.9517 0.7855 0.4368 0.076 Uiso 0.15 d A 2 R .
H14B H 0.9040 0.8054 0.3496 0.076 Uiso 0.15 d A 2 R .
O10W O 0.5623(16) 0.6902(16) 0.5019(14) 0.020(5) Uiso 0.25 d B 1 . .
H1