####################################################################### 
# 
# This file contains crystal structure data downloaded from the 
# Cambridge Structural Database (CSD) hosted by the Cambridge 
# Crystallographic Data Centre (CCDC).
# 
# Full information about CCDC data access policies and citation 
# guidelines are available at http://www.ccdc.cam.ac.uk/access/V1 
# 
# Audit and citation data items may have been added by the CCDC. 
# Please retain this information to preserve the provenance of 
# this file and to allow appropriate attribution of the data. 
# 
#######################################################################

data_1
_audit_block_doi                 10.5517/cc14cpck
_database_code_depnum_ccdc_archive 'CCDC 1053918'
loop_
_citation_id
_citation_doi
_citation_year
1 10.1021/cg501758a 2015
_audit_update_record             
;
2015-03-13 deposited with the CCDC.	2024-07-12 downloaded from the CCDC.
;
_audit_creation_date             2014-11-21
_audit_creation_method           
;
Olex2 1.2
(compiled 2014.11.20 svn.r3092 for OlexSys, GUI svn.r4949)
;
_chemical_name_common            ?
_chemical_name_systematic        
;
 ? 
;
_chemical_formula_moiety         'C76 H52 N16 O13 Zn4'
_chemical_formula_sum            'C76 H52 N16 O13 Zn4'
_chemical_formula_weight         1658.82
_chemical_melting_point          ?
_chemical_oxdiff_formula         'C Zn'
loop_
_atom_type_symbol
_atom_type_description
_atom_type_scat_dispersion_real
_atom_type_scat_dispersion_imag
_atom_type_scat_source
C C 0.0033 0.0016 'International Tables Vol C Tables 4.2.6.8 and 6.1.1.4'
H H 0.0000 0.0000 'International Tables Vol C Tables 4.2.6.8 and 6.1.1.4'
N N 0.0061 0.0033 'International Tables Vol C Tables 4.2.6.8 and 6.1.1.4'
O O 0.0106 0.0060 'International Tables Vol C Tables 4.2.6.8 and 6.1.1.4'
Zn Zn 0.2839 1.4301 'International Tables Vol C Tables 4.2.6.8 and 6.1.1.4'

_space_group_crystal_system      triclinic
_space_group_IT_number           2
_space_group_name_H-M_alt        'P -1'
_space_group_name_Hall           '-P 1'
loop_
_space_group_symop_id
_space_group_symop_operation_xyz
1 'x, y, z'
2 '-x, -y, -z'

_cell_length_a                   14.7979(4)
_cell_length_b                   18.6413(5)
_cell_length_c                   22.2879(5)
_cell_angle_alpha                86.672(2)
_cell_angle_beta                 79.485(2)
_cell_angle_gamma                75.825(3)
_cell_volume                     5860.3(3)
_cell_formula_units_Z            2
_cell_measurement_reflns_used    13277
_cell_measurement_temperature    130(3)
_cell_measurement_theta_max      28.0570
_cell_measurement_theta_min      3.3330
_exptl_absorpt_coefficient_mu    0.856
_exptl_absorpt_correction_T_max  1.00000
_exptl_absorpt_correction_T_min  0.83802
_exptl_absorpt_correction_type   multi-scan
_exptl_absorpt_process_details   
;
CrysAlisPro, Agilent Technologies,
Version 1.171.36.32 (release 02-08-2013 CrysAlis171 .NET)
(compiled Aug  2 2013,16:46:58)
Empirical absorption correction using spherical harmonics,
 implemented in SCALE3 ABSPACK scaling algorithm.
;
_exptl_crystal_colour            yellow
_exptl_crystal_colour_primary    yellow
_exptl_crystal_density_diffrn    0.940
_exptl_crystal_density_meas      ?
_exptl_crystal_density_method    'not measured'
_exptl_crystal_description       block
_exptl_crystal_F_000             1688
_exptl_crystal_size_max          0.2
_exptl_crystal_size_mid          0.2
_exptl_crystal_size_min          0.2
_exptl_special_details           
;
 ? 
;
_diffrn_reflns_av_R_equivalents  0.0507
_diffrn_reflns_av_unetI/netI     0.0785
_diffrn_reflns_limit_h_max       17
_diffrn_reflns_limit_h_min       -17
_diffrn_reflns_limit_k_max       22
_diffrn_reflns_limit_k_min       -22
_diffrn_reflns_limit_l_max       26
_diffrn_reflns_limit_l_min       -26
_diffrn_reflns_number            49703
_diffrn_reflns_theta_full        25.00
_diffrn_reflns_theta_max         25.00
_diffrn_reflns_theta_min         2.88
_diffrn_ambient_temperature      130(3)
_diffrn_detector_area_resol_mean 16.2116
_diffrn_measured_fraction_theta_full 0.998
_diffrn_measured_fraction_theta_max 0.998
_diffrn_measurement_details      
;
#__ type_ start__ end____ width___ exp.time_
  1 omega   35.00   60.00   1.0000   19.0000
omega____ theta____ kappa____ phi______ frames
    -       18.0372  -99.0000  -90.0000 25

#__ type_ start__ end____ width___ exp.time_
  2 omega  -51.00   -2.00   1.0000   19.0000
omega____ theta____ kappa____ phi______ frames
    -       18.0372  -57.0000 -150.0000 49

#__ type_ start__ end____ width___ exp.time_
  3 omega  -55.00   50.00   1.0000   19.0000
omega____ theta____ kappa____ phi______ frames
    -       18.0372  -19.0000  -90.0000 105

#__ type_ start__ end____ width___ exp.time_
  4 omega   -3.00   69.00   1.0000   19.0000
omega____ theta____ kappa____ phi______ frames
    -       18.0372   57.0000  -60.0000 72

#__ type_ start__ end____ width___ exp.time_
  5 omega  -12.00   56.00   1.0000   19.0000
omega____ theta____ kappa____ phi______ frames
    -       18.0372  -99.0000 -180.0000 68

#__ type_ start__ end____ width___ exp.time_
  6 omega   20.00   46.00   1.0000   19.0000
omega____ theta____ kappa____ phi______ frames
    -      -18.8185   57.0000   60.0000 26

#__ type_ start__ end____ width___ exp.time_
  7 omega  -36.00  -10.00   1.0000   19.0000
omega____ theta____ kappa____ phi______ frames
    -      -18.8185   57.0000   60.0000 26

#__ type_ start__ end____ width___ exp.time_
  8 omega  -83.00    1.00   1.0000   19.0000
omega____ theta____ kappa____ phi______ frames
    -      -18.8185  -77.0000   60.0000 84

#__ type_ start__ end____ width___ exp.time_
  9 omega  -13.00   15.00   1.0000   19.0000
omega____ theta____ kappa____ phi______ frames
    -      -18.8185  -86.0000  -70.0000 28
;
_diffrn_measurement_device_type  'SuperNova, Single source at offset, Eos'
_diffrn_measurement_method       '\w scans'
_diffrn_orient_matrix_UB_11      -0.0077646000
_diffrn_orient_matrix_UB_12      0.0174290000
_diffrn_orient_matrix_UB_13      -0.0283753000
_diffrn_orient_matrix_UB_21      -0.0468856000
_diffrn_orient_matrix_UB_22      -0.0048719000
_diffrn_orient_matrix_UB_23      0.0057256000
_diffrn_orient_matrix_UB_31      -0.0161771000
_diffrn_orient_matrix_UB_32      0.0348276000
_diffrn_orient_matrix_UB_33      0.0144895000
_diffrn_radiation_monochromator  mirror
_diffrn_radiation_type           MoK\a
_diffrn_radiation_wavelength     0.71073
_diffrn_source                   'SuperNova (Mo) X-ray Source'
_diffrn_standards_decay_%        ?
_diffrn_standards_interval_count ?
_diffrn_standards_interval_time  ?
_diffrn_standards_number         ?
_reflns_number_gt                14651
_reflns_number_total             20613
_reflns_odcompleteness_completeness 99.84
_reflns_odcompleteness_iscentric 1
_reflns_odcompleteness_theta     26.32
_reflns_threshold_expression     >2sigma(I)
_computing_cell_refinement       
;
CrysAlisPro, Agilent Technologies,
Version 1.171.36.32 (release 02-08-2013 CrysAlis171 .NET)
(compiled Aug  2 2013,16:46:58)
;
_computing_data_collection       
;
CrysAlisPro, Agilent Technologies,
Version 1.171.36.32 (release 02-08-2013 CrysAlis171 .NET)
(compiled Aug  2 2013,16:46:58)
;
_computing_data_reduction        
;
CrysAlisPro, Agilent Technologies,
Version 1.171.36.32 (release 02-08-2013 CrysAlis171 .NET)
(compiled Aug  2 2013,16:46:58)
;
_computing_molecular_graphics    'Olex2 (Dolomanov et al., 2009)'
_computing_publication_material  'Olex2 (Dolomanov et al., 2009)'
_computing_structure_refinement  'XL (Sheldrick, 2008)'
_computing_structure_solution    'ShelXS (Sheldrick, 2008)'
_refine_diff_density_max         2.206
_refine_diff_density_min         -1.060
_refine_diff_density_rms         0.088
_refine_ls_extinction_coef       ?
_refine_ls_extinction_method     none
_refine_ls_goodness_of_fit_ref   1.060
_refine_ls_hydrogen_treatment    constr
_refine_ls_matrix_type           full
_refine_ls_number_parameters     987
_refine_ls_number_reflns         20613
_refine_ls_number_restraints     0
_refine_ls_R_factor_all          0.0713
_refine_ls_R_factor_gt           0.0540
_refine_ls_restrained_S_all      1.060
_refine_ls_shift/su_max          0.002
_refine_ls_shift/su_mean         0.000
_refine_ls_structure_factor_coef Fsqd
_refine_ls_weighting_details     
'calc w=1/[\s^2^(Fo^2^)+(0.0830P)^2^+0.0000P] where P=(Fo^2^+2Fc^2^)/3'
_refine_ls_weighting_scheme      calc
_refine_ls_wR_factor_gt          0.1564
_refine_ls_wR_factor_ref         0.1661
_refine_special_details          
;
 Refinement of F^2^ against ALL reflections.  The weighted R-factor wR and 
 goodness of fit S are based on F^2^, conventional R-factors R are based 
 on F, with F set to zero for negative F^2^. The threshold expression of 
 F^2^ > 2sigma(F^2^) is used only for calculating R-factors(gt) etc. and is 
 not relevant to the choice of reflections for refinement.  R-factors based 
 on F^2^ are statistically about twice as large as those based on F, and R- 
 factors based on ALL data will be even larger. 
;
_olex2_refinement_description    
;
1. Others
 Fixed Uiso: H10A(0.037) H10B(0.037) H10C(0.036) H10D(0.036) H10E(0.038)
 H10F(0.038) H19(0.025) H90(0.03) H15(0.027) H45(0.025) H31(0.026) H10G(0.036)
 H10H(0.036) H91(0.029) H11A(0.09) H11B(0.09) H30(0.028) H18(0.028) H42(0.027)
 H16(0.027) H72(0.027) H46(0.025) H27(0.033) H36(0.023) H43(0.025) H40(0.024)
 H13(0.023) H88(0.027) H6(0.023) H87(0.026) H22(0.026) H75(0.027) H12(0.024)
 H10(0.023) H66(0.024) H70(0.025) H51(0.033) H49(0.03) H21(0.026) H76(0.028)
 H48(0.024) H60(0.033) H61(0.027) H57(0.03) H78(0.034) H73(0.027) H28(0.031)
 H52(0.03) H58(0.034) H82(0.036) H79(0.035) H81(0.036)
 Fixed X: H10A(0.3518) H10B(0.4378) H10C(0.2098) H10D(0.2186) H10E(0.414)
 H10F(0.401) H19(0.6515) H90(0.6944) H15(0.1928) H45(1.135) H31(-0.0266)
 H10G(0.2584) H10H(0.2599) H91(0.8547) H11A(0.1448) H11B(0.1152) H30(0.0252)
 H18(0.8136) H42(1.1927) H16(0.0955) H72(1.3123) H46(1.0358) H27(0.2337)
 H36(1.1417) H43(1.2862) H40(0.9173) H13(0.3456) H88(0.7116) H6(0.1951)
 H87(0.872) H22(0.8248) H75(1.2316) H12(0.2557) H10(-0.0227) H66(1.0226)
 H70(1.2396) H51(0.6032) H49(0.6013) H21(0.6634) H76(1.1318) H48(0.763)
 H60(0.988) H61(0.93) H57(1.1808) H78(0.0179) H73(1.4051) H28(0.2843)
 H52(0.7657) H58(1.2343) H82(1.2805) H79(0.0699) H81(1.3315)
 Fixed Y: H10A(0.6558) H10B(0.6726) H10C(0.9242) H10D(0.862) H10E(0.8393)
 H10F(0.9008) H19(0.8852) H90(0.6356) H15(1.004) H45(0.7196) H31(0.8843)
 H10G(1.1182) H10H(1.0972) H91(0.5869) H11A(0.877) H11B(0.9468) H30(0.847)
 H18(0.858) H42(0.4738) H16(0.9509) H72(0.5824) H46(0.6524) H27(0.7949)
 H36(0.4137) H43(0.5481) H40(0.5861) H13(1.0259) H88(0.7592) H6(0.8804)
 H87(0.7171) H22(1.0329) H75(0.8345) H12(0.9733) H10(0.9685) H66(0.7068)
 H70(0.5323) H51(0.6366) H49(0.4823) H21(1.0629) H76(0.7747) H48(0.441)
 H60(0.1564) H61(0.2843) H57(0.3144) H78(1.4096) H73(0.647) H28(0.7581)
 H52(0.5999) H58(0.1885) H82(0.4301) H79(1.283) H81(0.3032)
 Fixed Z: H10A(-0.0217) H10B(-0.0486) H10C(0.0902) H10D(0.1293) H10E(0.7393)
 H10F(0.6995) H19(0.5612) H90(0.7316) H15(0.7273) H45(0.0857) H31(0.3875) H10G(-
 0.1763) H10H(-0.1148) H91(0.7186) H11A(-0.0577) H11B(-0.0904) H30(0.287)
 H18(0.5318) H42(0.1377) H16(0.6838) H72(0.8124) H46(0.0631) H27(0.4235)
 H36(0.0646) H43(0.1594) H40(0.0996) H13(0.5684) H88(0.8679) H6(0.4942)
 H87(0.8503) H22(0.6225) H75(0.8146) H12(0.5207) H10(0.6241) H66(0.7968)
 H70(0.7549) H51(0.1593) H49(0.042) H21(0.6482) H76(0.7829) H48(0.0332)
 H60(0.0762) H61(0.0861) H57(0.0002) H78(0.7713) H73(0.8455) H28(0.3235)
 H52(0.1454) H58(-0.0147) H82(0.7033) H79(0.7645) H81(0.6965)
;
_atom_sites_solution_hydrogens   geom
_atom_sites_solution_primary     direct
_atom_sites_solution_secondary   difmap
loop_
_atom_site_label
_atom_site_type_symbol
_atom_site_fract_x
_atom_site_fract_y
_atom_site_fract_z
_atom_site_U_iso_or_equiv
_atom_site_adp_type
_atom_site_occupancy
_atom_site_calc_flag
_atom_site_disorder_assembly
_atom_site_disorder_group
_atom_site_refinement_flags_posn
Zn1 Zn 0.40363(3) 0.80348(2) 0.872094(18) 0.01568(11) Uani 1 d . . .
Zn4 Zn 0.36145(3) 1.06322(2) 0.695656(18) 0.01541(11) Uani 1 d . . .
Zn3 Zn 0.31222(3) 0.70247(2) 0.133193(18) 0.01546(11) Uani 1 d . . .
Zn2 Zn 0.27045(5) 0.95898(3) -0.04439(2) 0.05121(19) Uani 1 d . . .
O12 O 0.14149(18) 0.79778(14) 0.19063(11) 0.0272(6) Uani 1 d . . .
O4 O 0.1294(2) 1.03402(14) 0.06348(13) 0.0398(8) Uani 1 d . . .
O7 O 0.53778(18) 0.73632(14) 0.76636(12) 0.0291(6) Uani 1 d . . .
O2 O 0.44089(18) 0.64721(13) 0.13907(12) 0.0271(6) Uani 1 d . . .
O8 O 0.18534(19) 1.15774(13) 0.74954(13) 0.0320(7) Uani 1 d . . .
N6 N 0.3610(2) 1.00201(15) 0.77339(13) 0.0175(7) Uani 1 d . . .
N15 N 0.2774(2) 1.02136(15) 0.65273(13) 0.0187(7) Uani 1 d . . .
N4 N 0.3970(3) 0.67450(16) -0.01525(15) 0.0305(8) Uani 1 d . . .
H10A H 0.3518 0.6558 -0.0217 0.037 Uiso 1 d . . GR
H10B H 0.4378 0.6726 -0.0486 0.037 Uiso 1 d . . GR
O9 O 0.32493(18) 1.17115(13) 0.70336(13) 0.0269(6) Uani 1 d . . .
N1 N 0.3195(2) 0.76660(15) 0.05856(13) 0.0185(7) Uani 1 d . . .
O6 O 0.53972(17) 0.75867(13) 0.86261(12) 0.0239(6) Uani 1 d . . .
C26 C 0.3623(2) 0.74654(18) 0.00089(17) 0.0196(8) Uani 1 d . . .
C74 C 0.5344(2) 0.9920(2) 0.62738(16) 0.0211(8) Uani 1 d . . .
N7 N 0.3790(2) 0.90307(15) 0.83542(13) 0.0179(7) Uani 1 d . . .
C76 C 0.3908(2) 0.92753(18) 0.77820(16) 0.0182(8) Uani 1 d . . .
O13 O 0.28150(17) 0.74301(14) 0.21496(11) 0.0239(6) Uani 1 d . . .
N12 N 1.2215(2) 0.63967(15) 0.12296(13) 0.0193(7) Uani 1 d . . .
N3 N 0.3156(2) 0.86634(15) -0.00213(13) 0.0205(7) Uani 1 d . . .
N14 N 1.3254(2) 0.74719(15) 0.83561(14) 0.0191(7) Uani 1 d . . .
N8 N 0.3374(2) 0.96717(15) -0.12878(13) 0.0194(7) Uani 1 d . . .
N2 N 0.3619(2) 0.80223(15) -0.03719(13) 0.0178(7) Uani 1 d . . .
N5 N 0.2489(2) 0.88628(16) 0.10224(15) 0.0300(8) Uani 1 d . . .
H10C H 0.2098 0.9242 0.0902 0.036 Uiso 1 d . . GR
H10D H 0.2186 0.8620 0.1293 0.036 Uiso 1 d . . GR
O10 O 0.49512(17) 1.05081(13) 0.65765(12) 0.0250(6) Uani 1 d . . .
O1 O 0.43757(17) 0.56097(13) 0.07512(12) 0.0237(6) Uani 1 d . . .
N10 N 0.4268(2) 0.88164(16) 0.73021(15) 0.0317(8) Uani 1 d . . .
H10E H 0.4140 0.8393 0.7393 0.038 Uiso 1 d . . GR
H10F H 0.4010 0.9008 0.6995 0.038 Uiso 1 d . . GR
C65 C 0.6861(2) 0.91551(19) 0.57324(17) 0.0211(8) Uani 1 d . . .
H19 H 0.6515 0.8852 0.5612 0.025 Uiso 1 calc . . R
O3 O 0.2156(2) 1.05878(15) -0.02461(14) 0.0515(10) Uani 1 d . . .
C33 C 0.7299(3) 0.6512(2) 0.75636(18) 0.0252(9) Uani 1 d . . .
H90 H 0.6944 0.6356 0.7316 0.030 Uiso 1 calc . . R
O11 O 0.49199(17) 0.94638(14) 0.61586(12) 0.0268(6) Uani 1 d . . .
N16 N -0.0267(2) 0.88941(16) 0.49975(13) 0.0208(7) Uani 1 d . . .
C27 C 0.5796(2) 0.73429(18) 0.80972(18) 0.0201(8) Uani 1 d . . .
N11 N 0.9219(2) 0.41932(15) 0.06577(14) 0.0199(7) Uani 1 d . . .
C50 C 0.2406(3) 1.19645(19) 0.72761(17) 0.0233(9) Uani 1 d . . .
C51 C 0.2047(2) 0.9983(2) 0.68521(17) 0.0225(8) Uani 1 d . . .
H15 H 0.1928 1.0040 0.7273 0.027 Uiso 1 calc . . R
C16 C 1.1466(2) 0.66948(19) 0.09585(17) 0.0206(8) Uani 1 d . . .
H45 H 1.1350 0.7196 0.0857 0.025 Uiso 1 calc . . R
N13 N 1.0179(2) 0.54518(15) 0.75757(14) 0.0197(7) Uani 1 d . . .
C72 C 0.0360(2) 0.8591(2) 0.37478(16) 0.0216(8) Uani 1 d . . .
H31 H -0.0266 0.8843 0.3875 0.026 Uiso 1 calc . . R
N9 N 0.2935(2) 1.09505(16) -0.15090(15) 0.0296(8) Uani 1 d . . .
H10G H 0.2584 1.1182 -0.1763 0.036 Uiso 1 d . . GR
H10H H 0.2599 1.0972 -0.1148 0.036 Uiso 1 d . . GR
C32 C 0.8265(3) 0.62277(19) 0.74802(18) 0.0244(9) Uani 1 d . . .
H91 H 0.8547 0.5869 0.7186 0.029 Uiso 1 calc . . R
C70 C 0.1613(3) 0.80134(19) 0.29457(16) 0.0194(8) Uani 1 d . . .
C25 C 0.2922(2) 0.84219(18) 0.05338(16) 0.0192(8) Uani 1 d . . .
C67 C 0.0982(2) 0.84333(19) 0.41619(16) 0.0196(8) Uani 1 d . . .
O5 O 0.1580(3) 0.92128(19) -0.06811(15) 0.0598(10) Uani 1 d . . .
H11A H 0.1448 0.8770 -0.0577 0.090 Uiso 1 d . . GR
H11B H 0.1152 0.9468 -0.0904 0.090 Uiso 1 d . . GR
C28 C 0.6850(2) 0.70294(19) 0.80137(16) 0.0193(8) Uani 1 d . . .
C53 C 0.1619(2) 0.95713(19) 0.59672(16) 0.0193(8) Uani 1 d . . .
C64 C 0.6403(2) 0.9765(2) 0.60805(16) 0.0214(8) Uani 1 d . . .
C71 C 0.0674(3) 0.8373(2) 0.31433(17) 0.0232(8) Uani 1 d . . .
H30 H 0.0252 0.8470 0.2870 0.028 Uiso 1 calc . . R
C66 C 0.7836(2) 0.8989(2) 0.55604(17) 0.0233(9) Uani 1 d . . .
H18 H 0.8136 0.8580 0.5318 0.028 Uiso 1 calc . . R
C14 C 1.1793(2) 0.52369(19) 0.12681(17) 0.0222(8) Uani 1 d . . .
H42 H 1.1927 0.4738 0.1377 0.027 Uiso 1 calc . . R
C52 C 0.1455(3) 0.9662(2) 0.65926(17) 0.0225(8) Uani 1 d . . .
H16 H 0.0955 0.9509 0.6838 0.027 Uiso 1 calc . . R
C43 C 1.2933(3) 0.63380(19) 0.81357(17) 0.0226(8) Uani 1 d . . .
H72 H 1.3123 0.5824 0.8124 0.027 Uiso 1 calc . . R
C17 C 1.0865(3) 0.62979(18) 0.08238(17) 0.0207(8) Uani 1 d . . .
H46 H 1.0358 0.6524 0.0631 0.025 Uiso 1 calc . . R
C75 C 0.3274(2) 1.02327(18) -0.16699(16) 0.0171(8) Uani 1 d . . .
C12 C 1.0155(2) 0.39255(18) 0.05911(16) 0.0179(8) Uani 1 d . . .
C18 C 1.0510(3) 0.31207(18) 0.04563(16) 0.0192(8) Uani 1 d . . .
C68 C 0.1915(3) 0.8057(2) 0.39622(18) 0.0272(9) Uani 1 d . . .
H27 H 0.2337 0.7949 0.4235 0.033 Uiso 1 calc . . R
C11 C 1.0770(2) 0.43455(18) 0.06896(16) 0.0194(8) Uani 1 d . . .
H36 H 1.1417 0.4137 0.0646 0.023 Uiso 1 calc . . R
C31 C 0.8825(2) 0.64652(18) 0.78246(17) 0.0181(8) Uani 1 d . . .
C15 C 1.2361(2) 0.56864(19) 0.13909(17) 0.0210(8) Uani 1 d . . .
H43 H 1.2862 0.5481 0.1594 0.025 Uiso 1 calc . . R
C34 C 0.9864(2) 0.61607(19) 0.77393(16) 0.0184(8) Uani 1 d . . .
C13 C 1.1031(2) 0.55359(18) 0.09836(16) 0.0178(8) Uani 1 d . . .
C73 C 0.1952(3) 0.77978(19) 0.22886(17) 0.0207(8) Uani 1 d . . .
C59 C 0.0672(2) 0.87385(18) 0.47890(16) 0.0180(8) Uani 1 d . . .
C9 C 0.9437(2) 0.53654(1