####################################################################### 
# 
# This file contains crystal structure data downloaded from the 
# Cambridge Structural Database (CSD) hosted by the Cambridge 
# Crystallographic Data Centre (CCDC).
# 
# Full information about CCDC data access policies and citation 
# guidelines are available at http://www.ccdc.cam.ac.uk/access/V1 
# 
# Audit and citation data items may have been added by the CCDC. 
# Please retain this information to preserve the provenance of 
# this file and to allow appropriate attribution of the data. 
# 
#######################################################################

data_Complex1
_audit_block_doi                 10.5517/cc14p0rl
_database_code_depnum_ccdc_archive 'CCDC 1062889'
loop_
_citation_id
_citation_doi
_citation_year
1 10.1016/j.poly.2015.07.056 2015
_audit_update_record             
;
2015-05-04 deposited with the CCDC.	2024-07-12 downloaded from the CCDC.
;

_audit_creation_method           SHELXL-97
_chemical_name_systematic        
;
 ?
;
_chemical_name_common            ?
_chemical_melting_point          ?
_chemical_formula_moiety         'C90 H66 N6 O34 Zn8'
_chemical_formula_sum            'C90 H66 N6 O34 Zn8'
_chemical_formula_weight         2298.45

loop_
_atom_type_symbol
_atom_type_description
_atom_type_scat_dispersion_real
_atom_type_scat_dispersion_imag
_atom_type_scat_source
C C 0.0033 0.0016 'International Tables Vol C Tables 4.2.6.8 and 6.1.1.4'
H H 0.0000 0.0000 'International Tables Vol C Tables 4.2.6.8 and 6.1.1.4'
N N 0.0061 0.0033 'International Tables Vol C Tables 4.2.6.8 and 6.1.1.4'
O O 0.0106 0.0060 'International Tables Vol C Tables 4.2.6.8 and 6.1.1.4'
Zn Zn 0.2839 1.4301 'International Tables Vol C Tables 4.2.6.8 and 6.1.1.4'

_symmetry_cell_setting           Triclinic
_symmetry_space_group_name_H-M   P-1

loop_
_symmetry_equiv_pos_as_xyz
'x, y, z'
'-x, -y, -z'

_cell_length_a                   19.170(5)
_cell_length_b                   21.209(4)
_cell_length_c                   21.615(5)
_cell_angle_alpha                62.249(6)
_cell_angle_beta                 69.866(5)
_cell_angle_gamma                89.315(5)
_cell_volume                     7185(3)
_cell_formula_units_Z            2
_cell_measurement_temperature    100(2)
_cell_measurement_reflns_used    999
_cell_measurement_theta_min      ?
_cell_measurement_theta_max      ?

_exptl_crystal_description       Block
_exptl_crystal_colour            Colorless
_exptl_crystal_size_max          0.27
_exptl_crystal_size_mid          0.20
_exptl_crystal_size_min          0.14
_exptl_crystal_density_meas      ?
_exptl_crystal_density_diffrn    1.062
_exptl_crystal_density_method    'not measured'
_exptl_crystal_F_000             2320
_exptl_absorpt_coefficient_mu    1.369
_exptl_absorpt_correction_type   Multi-scan
_exptl_absorpt_correction_T_min  0.7088
_exptl_absorpt_correction_T_max  0.8315
_exptl_absorpt_process_details   Sadabs

_exptl_special_details           
;
 ?
;

_diffrn_ambient_temperature      100(2)
_diffrn_radiation_wavelength     0.71073
_diffrn_radiation_type           MoK\a
_diffrn_radiation_source         'fine-focus sealed tube'
_diffrn_radiation_monochromator  graphite
_diffrn_measurement_device_type  'BRUKER SMART APEX'
_diffrn_measurement_method       /w-scans
_diffrn_detector_area_resol_mean ?
_diffrn_standards_number         ?
_diffrn_standards_interval_count ?
_diffrn_standards_interval_time  ?
_diffrn_standards_decay_%        ?
_diffrn_reflns_number            26321
_diffrn_reflns_av_R_equivalents  0.0917
_diffrn_reflns_av_sigmaI/netI    0.1414
_diffrn_reflns_limit_h_min       -21
_diffrn_reflns_limit_h_max       23
_diffrn_reflns_limit_k_min       -22
_diffrn_reflns_limit_k_max       25
_diffrn_reflns_limit_l_min       0
_diffrn_reflns_limit_l_max       26
_diffrn_reflns_theta_min         2.14
_diffrn_reflns_theta_max         25.50
_reflns_number_total             26321
_reflns_number_gt                13397
_reflns_threshold_expression     >2sigma(I)

_computing_data_collection       'SMART 5.628 (Bruker, 2003)'
_computing_cell_refinement       'SAINT 6.45 ( Bruker, 2003)'
_computing_data_reduction        'SAINT 6.45 ( Bruker, 2003)'
_computing_structure_solution    SIR-97
_computing_structure_refinement  'SHELXL-97 (Sheldrick, 1997)'
_computing_molecular_graphics    'DIAMOND 2.1e'
_computing_publication_material  ?

_refine_special_details          
;
 Refinement of F^2^ against ALL reflections.  The weighted R-factor wR and
 goodness of fit S are based on F^2^, conventional R-factors R are based
 on F, with F set to zero for negative F^2^. The threshold expression of
 F^2^ > 2sigma(F^2^) is used only for calculating R-factors(gt) etc. and is
 not relevant to the choice of reflections for refinement.  R-factors based
 on F^2^ are statistically about twice as large as those based on F, and R-
 factors based on ALL data will be even larger.
;

_refine_ls_structure_factor_coef Fsqd
_refine_ls_matrix_type           full
_refine_ls_weighting_scheme      calc
_refine_ls_weighting_details     
'calc w=1/[\s^2^(Fo^2^)+(0.1702P)^2^+0.0000P] where P=(Fo^2^+2Fc^2^)/3'
_atom_sites_solution_primary     direct
_atom_sites_solution_secondary   difmap
_atom_sites_solution_hydrogens   geom
_refine_ls_hydrogen_treatment    mixed
_refine_ls_extinction_method     SHELXL
_refine_ls_number_reflns         26321
_refine_ls_number_parameters     1218
_refine_ls_number_restraints     1112
_refine_ls_R_factor_all          0.1232
_refine_ls_R_factor_gt           0.0684
_refine_ls_wR_factor_ref         0.2078
_refine_ls_wR_factor_gt          0.1895
_refine_ls_goodness_of_fit_ref   0.983
_refine_ls_restrained_S_all      0.970
_refine_ls_shift/su_max          0.002
_refine_ls_shift/su_mean         0.000

loop_
_atom_site_label
_atom_site_type_symbol
_atom_site_fract_x
_atom_site_fract_y
_atom_site_fract_z
_atom_site_U_iso_or_equiv
_atom_site_adp_type
_atom_site_occupancy
_atom_site_symmetry_multiplicity
_atom_site_calc_flag
_atom_site_refinement_flags
_atom_site_disorder_assembly
_atom_site_disorder_group
C1 C 0.9328(5) 0.1733(5) 0.3103(5) 0.029(2) Uani 1 1 d U . .
C2 C 1.0027(5) 0.1528(5) 0.2743(5) 0.0250(19) Uani 1 1 d U . .
C3 C 1.0197(5) 0.1593(5) 0.2012(5) 0.0236(19) Uani 1 1 d U . .
H3 H 0.9884 0.1798 0.1751 0.028 Uiso 1 1 calc R . .
C4 C 1.0823(5) 0.1355(4) 0.1692(5) 0.0199(18) Uani 1 1 d U . .
C5 C 1.1309(5) 0.1051(5) 0.2102(5) 0.0242(19) Uani 1 1 d U . .
H5 H 1.1735 0.0894 0.1888 0.029 Uiso 1 1 calc R . .
C6 C 1.1159(5) 0.0987(5) 0.2796(5) 0.0227(19) Uani 1 1 d U . .
C7 C 1.0499(5) 0.1236(5) 0.3117(5) 0.0238(19) Uani 1 1 d U . .
H7 H 1.0392 0.1198 0.3588 0.029 Uiso 1 1 calc R . .
C8 C 0.8395(5) -0.0648(5) 0.6756(5) 0.027(2) Uani 1 1 d U . .
C9 C 1.0561(5) 0.1740(5) 0.0551(5) 0.031(2) Uani 1 1 d U . .
H9A H 1.0655 0.2248 0.0403 0.037 Uiso 1 1 calc R . .
H9B H 1.0024 0.1558 0.0841 0.037 Uiso 1 1 calc R . .
C10 C 1.0800(5) 0.1657(5) -0.0152(5) 0.029(2) Uani 1 1 d U . .
C11 C 1.0589(6) 0.1025(6) -0.0105(6) 0.042(3) Uani 1 1 d U . .
H11 H 1.0263 0.0654 0.0361 0.050 Uiso 1 1 calc R . .
C12 C 1.0842(6) 0.0896(7) -0.0736(7) 0.054(3) Uani 1 1 d U . .
H12 H 1.0685 0.0456 -0.0687 0.065 Uiso 1 1 calc R . .
C13 C 1.1322(6) 0.1447(7) -0.1409(6) 0.054(3) Uani 1 1 d U . .
H13 H 1.1522 0.1379 -0.1827 0.065 Uiso 1 1 calc R . .
C14 C 1.1521(6) 0.2132(8) -0.1478(6) 0.065(3) Uani 1 1 d U . .
H14 H 1.1803 0.2527 -0.1946 0.078 Uiso 1 1 calc R . .
C15 C 1.1288(6) 0.2188(6) -0.0845(6) 0.048(3) Uani 1 1 d U . .
H15 H 1.1469 0.2614 -0.0881 0.058 Uiso 1 1 calc R . .
C16 C 0.5994(5) -0.0306(5) 0.6355(5) 0.030(2) Uani 1 1 d U . .
C17 C 0.5192(5) -0.0696(5) 0.6818(5) 0.0220(19) Uani 1 1 d U . .
C18 C 0.4972(5) -0.1036(5) 0.7610(5) 0.031(2) Uani 1 1 d U . .
H18 H 0.5319 -0.1018 0.7816 0.037 Uiso 1 1 calc R . .
C19 C 0.4228(5) -0.1403(5) 0.8085(5) 0.029(2) Uani 1 1 d U . .
C20 C 0.3743(5) -0.1471(5) 0.7769(5) 0.033(2) Uani 1 1 d U . .
H20 H 0.3259 -0.1739 0.8079 0.040 Uiso 1 1 calc R . .
C21 C 0.6021(5) 0.1133(5) 0.3031(5) 0.027(2) Uani 1 1 d U . .
C22 C 0.4693(5) -0.0739(5) 0.6519(5) 0.029(2) Uani 1 1 d U . .
H22 H 0.4837 -0.0496 0.5996 0.035 Uiso 1 1 calc R . .
C23 C 0.6575(5) 0.1197(5) 0.3365(5) 0.026(2) Uani 1 1 d U . .
C24 C 0.3275(6) -0.2130(7) 0.9396(6) 0.048(3) Uani 1 1 d U . .
H24A H 0.3158 -0.2513 0.9303 0.058 Uiso 1 1 calc R . .
H24B H 0.2903 -0.1816 0.9330 0.058 Uiso 1 1 calc R . .
C25 C 0.3244(6) -0.2452(8) 1.0195(6) 0.058(3) Uani 1 1 d U . .
C26 C 0.3071(8) -0.2133(9) 1.0643(8) 0.086(4) Uani 1 1 d U . .
H26 H 0.2924 -0.1683 1.0473 0.104 Uiso 1 1 calc R . .
C27 C 0.3117(9) -0.2503(9) 1.1384(8) 0.085(5) Uani 1 1 d U . .
H27 H 0.3021 -0.2293 1.1692 0.103 Uiso 1 1 calc R . .
C28 C 0.3305(8) -0.3160(11) 1.1600(9) 0.086(4) Uani 1 1 d U . .
H28 H 0.3336 -0.3396 1.2073 0.103 Uiso 1 1 calc R . .
C29 C 0.3454(8) -0.3515(9) 1.1203(8) 0.081(4) Uani 1 1 d U . .
H29 H 0.3552 -0.3984 1.1396 0.097 Uiso 1 1 calc R . .
C30 C 0.3449(8) -0.3131(8) 1.0503(7) 0.090(4) Uani 1 1 d U . .
H30 H 0.3596 -0.3341 1.0195 0.108 Uiso 1 1 calc R . .
C31 C 0.7102(4) 0.1616(4) 0.6099(4) 0.0159(18) Uiso 1 1 d U . .
C32 C 0.6728(5) 0.2073(5) 0.6420(5) 0.0220(18) Uani 1 1 d U . .
C33 C 0.6085(5) 0.1763(5) 0.7099(5) 0.026(2) Uani 1 1 d U . .
H33 H 0.5872 0.1279 0.7325 0.031 Uiso 1 1 calc R . .
C34 C 0.5761(5) 0.2179(5) 0.7440(5) 0.0242(19) Uani 1 1 d U . .
C35 C 0.6089(5) 0.2896(5) 0.7096(5) 0.027(2) Uani 1 1 d U . .
H35 H 0.5887 0.3177 0.7316 0.032 Uiso 1 1 calc R . .
C36 C 0.6737(5) 0.3209(5) 0.6400(6) 0.032(2) Uani 1 1 d U . .
C37 C 0.7047(5) 0.2799(5) 0.6081(5) 0.0269(19) Uani 1 1 d U . .
H37 H 0.7474 0.3004 0.5634 0.032 Uiso 1 1 calc R . .
C38 C 0.7096(5) 0.3977(5) 0.6066(6) 0.032(2) Uani 1 1 d U . .
C39 C 0.4714(6) 0.1184(5) 0.8452(5) 0.032(2) Uani 1 1 d U . .
H39A H 0.4405 0.1046 0.8972 0.038 Uiso 1 1 calc R . .
H39B H 0.5070 0.0854 0.8462 0.038 Uiso 1 1 calc R . .
C40 C 0.4209(6) 0.1086(5) 0.8086(6) 0.040(2) Uani 1 1 d U . .
C41 C 0.4127(6) 0.0477(6) 0.7998(6) 0.039(2) Uani 1 1 d U . .
H41 H 0.4424 0.0128 0.8141 0.046 Uiso 1 1 calc R . .
C42 C 0.3643(7) 0.0378(6) 0.7720(8) 0.059(3) Uani 1 1 d U . .
H42 H 0.3582 -0.0059 0.7725 0.070 Uiso 1 1 calc R . .
C43 C 0.3230(7) 0.0886(6) 0.7427(7) 0.053(3) Uani 1 1 d U . .
H43 H 0.2916 0.0808 0.7214 0.064 Uiso 1 1 calc R . .
C44 C 0.3298(7) 0.1532(7) 0.7459(7) 0.054(3) Uani 1 1 d U . .
H44 H 0.3029 0.1893 0.7269 0.065 Uiso 1 1 calc R . .
C45 C 0.3783(6) 0.1613(6) 0.7788(6) 0.043(3) Uiso 1 1 d U . .
H45 H 0.3827 0.2036 0.7811 0.052 Uiso 1 1 calc R . .
C46 C 0.8382(5) 0.4644(5) 0.6641(5) 0.022(2) Uiso 1 1 d U . .
C47 C 1.1056(5) 0.5775(5) 0.3030(5) 0.023(2) Uani 1 1 d U . .
C48 C 1.0296(5) 0.5699(5) 0.3513(5) 0.026(2) Uani 1 1 d U . .
H48 H 1.0133 0.5406 0.4034 0.032 Uiso 1 1 calc R . .
C49 C 0.9823(5) 0.6060(5) 0.3197(5) 0.0237(19) Uani 1 1 d U . .
C50 C 1.0071(5) 0.6537(5) 0.2386(5) 0.024(2) Uani 1 1 d U . .
H50 H 0.9736 0.6777 0.2171 0.029 Uiso 1 1 calc R . .
C51 C 1.0837(5) 0.6623(5) 0.1933(4) 0.022(2) Uani 1 1 d U . .
C52 C 1.1304(5) 0.6228(5) 0.2265(5) 0.030(2) Uani 1 1 d U . .
H52 H 1.1802 0.6270 0.1962 0.036 Uiso 1 1 calc R . .
C53 C 0.9011(4) 0.5974(4) 0.3632(4) 0.0128(16) Uiso 1 1 d U . .
C54 C 1.0648(5) 0.7592(6) 0.0790(5) 0.041(3) Uani 1 1 d U . .
H54A H 1.0537 0.7922 0.0993 0.050 Uiso 1 1 calc R . .
H54B H 1.0174 0.7322 0.0907 0.050 Uiso 1 1 calc R . .
C55 C 1.1061(5) 0.8014(6) -0.0044(5) 0.036(2) Uani 1 1 d U . .
C56 C 1.1209(6) 0.7659(7) -0.0492(6) 0.049(3) Uani 1 1 d U . .
H56 H 1.1063 0.7160 -0.0258 0.059 Uiso 1 1 calc R . .
C57 C 1.1563(6) 0.8055(7) -0.1264(6) 0.053(3) Uani 1 1 d U . .
H57 H 1.1665 0.7810 -0.1539 0.064 Uiso 1 1 calc R . .
C58 C 1.1770(6) 0.8771(8) -0.1641(6) 0.065(3) Uani 1 1 d U . .
H58 H 1.2008 0.9019 -0.2166 0.078 Uiso 1 1 calc R . .
C59 C 1.1617(6) 0.9159(8) -0.1218(7) 0.068(3) Uani 1 1 d U . .
H59 H 1.1747 0.9661 -0.1468 0.082 Uiso 1 1 calc R . .
C60 C 1.1264(6) 0.8758(6) -0.0413(7) 0.050(3) Uani 1 1 d U . .
H60 H 1.1170 0.8999 -0.0135 0.061 Uiso 1 1 calc R . .
C61 C 0.5642(5) 0.4984(5) 0.6891(5) 0.026(2) Uani 1 1 d U . .
C62 C 0.5058(5) 0.5569(5) 0.2724(5) 0.0217(19) Uani 1 1 d U . .
C63 C 0.5513(4) 0.5535(3) 0.3099(4) 0.0114(13) Uiso 1 1 d U . .
H63 H 0.5406 0.5144 0.3581 0.014 Uiso 1 1 calc R . .
C64 C 0.6148(5) 0.6084(5) 0.2768(5) 0.0259(19) Uani 1 1 d U . .
C65 C 0.6275(5) 0.6685(4) 0.2060(5) 0.0203(18) Uani 1 1 d U . .
H65 H 0.6680 0.7058 0.1836 0.024 Uiso 1 1 calc R . .
C66 C 0.5794(5) 0.6723(4) 0.1688(5) 0.0202(18) Uani 1 1 d U . .
C67 C 0.5200(5) 0.6181(4) 0.2009(5) 0.0188(18) Uani 1 1 d U . .
H67 H 0.4883 0.6214 0.1756 0.023 Uiso 1 1 calc R . .
C68 C 0.6617(6) 0.6017(5) 0.3207(5) 0.030(2) Uani 1 1 d U . .
C69 C 0.5515(6) 0.7358(5) 0.0512(6) 0.041(2) Uani 1 1 d U . .
H69A H 0.4976 0.7197 0.0801 0.049 Uiso 1 1 calc R . .
H69B H 0.5704 0.7018 0.0340 0.049 Uiso 1 1 calc R . .
C70 C 0.5662(6) 0.8106(5) -0.0168(5) 0.037(2) Uani 1 1 d U . .
C71 C 0.6238(6) 0.8310(6) -0.0827(6) 0.048(3) Uani 1 1 d U . .
H71 H 0.6569 0.7999 -0.0885 0.058 Uiso 1 1 calc R . .
C72 C 0.6329(6) 0.9029(6) -0.1446(6) 0.047(3) Uani 1 1 d U . .
H72 H 0.6714 0.9169 -0.1912 0.057 Uiso 1 1 calc R . .
C73 C 0.5898(6) 0.9489(7) -0.1381(6) 0.045(3) Uani 1 1 d U . .
H73 H 0.5991 0.9956 -0.1783 0.054 Uiso 1 1 calc R . .
C74 C 0.5291(7) 0.9267(6) -0.0697(6) 0.054(3) Uani 1 1 d U . .
H74 H 0.4958 0.9579 -0.0649 0.065 Uiso 1 1 calc R . .
C75 C 0.5183(6) 0.8593(6) -0.0095(6) 0.041(2) Uani 1 1 d U . .
H75 H 0.4790 0.8457 0.0366 0.049 Uiso 1 1 calc R . .
C76 C 0.7840(5) 0.7665(5) 0.3878(5) 0.0207(18) Uani 1 1 d U . .
C77 C 0.8226(5) 0.8408(5) 0.3552(5) 0.0250(19) Uani 1 1 d U . .
C78 C 0.7918(5) 0.8822(5) 0.3891(5) 0.028(2) Uani 1 1 d U . .
H78 H 0.7489 0.8616 0.4336 0.034 Uiso 1 1 calc R . .
C79 C 0.8242(5) 0.9531(5) 0.3576(5) 0.0229(18) Uani 1 1 d U . .
C80 C 0.8911(5) 0.9817(5) 0.2932(5) 0.027(2) Uani 1 1 d U . .
H80 H 0.9145 1.0288 0.2733 0.032 Uiso 1 1 calc R . .
C81 C 0.9239(5) 0.9424(5) 0.2578(5) 0.0221(18) Uani 1 1 d U . .
C82 C 0.8907(5) 0.8710(5) 0.2921(5) 0.025(2) Uani 1 1 d U . .
H82 H 0.9144 0.8419 0.2726 0.030 Uiso 1 1 calc R . .
C83 C 0.7898(5) 0.9976(6) 0.3925(6) 0.033(2) Uani 1 1 d U . .
C84 C 1.0376(6) 0.9316(5) 0.1613(6) 0.036(2) Uani 1 1 d U . .
H84A H 1.0704 0.9644 0.1092 0.044 Uiso 1 1 calc R . .
H84B H 1.0050 0.8970 0.1612 0.044 Uiso 1 1 calc R . .
C85 C 1.0856(6) 0.8913(6) 0.2046(6) 0.036(2) Uani 1 1 d U . .
C86 C 1.0900(8) 0.8204(7) 0.2231(9) 0.079(4) Uani 1 1 d U . .
H86 H 1.0650 0.7986 0.2060 0.095 Uiso 1 1 calc R . .
C87 C 1.1313(11) 0.7790(8) 0.2671(12) 0.116(6) Uani 1 1 d U . .
H87 H 1.1268 0.7293 0.2855 0.139 Uiso 1 1 calc R . .
C88 C 1.1754(10) 0.8121(9) 0.2811(12) 0.111(6) Uani 1 1 d U . .
H88 H 1.2079 0.7871 0.3036 0.134 Uiso 1 1 calc R . .
C89 C 1.1752(9) 0.8833(8) 0.2634(10) 0.093(5) Uani 1 1 d U . .
H89 H 1.2065 0.9056 0.2750 0.111 Uiso 1 1 calc R . .
C90 C 1.1296(8) 0.9209(7) 0.2292(9) 0.078(4) Uani 1 1 d U . .
H90 H 1.1268 0.9677 0.2215 0.094 Uiso 1 1 calc R . .
N1 N 1.0980(4) 0.1342(4) 0.1019(4) 0.0234(17) Uani 1 1 d U . .
H1 H 1.1312 0.1106 0.0884 0.028 Uiso 1 1 calc R . .
N2 N 0.4016(5) -0.1721(5) 0.8868(4) 0.047(3) Uani 1 1 d U . .
H2 H 0.4342 -0.1670 0.9040 0.057 Uiso 1 1 calc R . .
N3 N 0.5116(5) 0.1881(5) 0.8099(5) 0.035(2) Uani 1 1 d DU . .
N4 N 1.1100(5) 0.7091(5) 0.1146(4) 0.046(2) Uani 1 1 d U . .
H4 H 1.1540 0.7082 0.0864 0.055 Uiso 1 1 calc R . .
N5 N 0.5884(4) 0.7370(4) 0.0991(4) 0.0257(17) Uani 1 1 d U . .
H5A H 0.6156 0.7764 0.0861 0.031 Uiso 1 1 calc R . .
N6 N 0.9899(4) 0.9740(4) 0.1928(4) 0.0293(18) Uani 1 1 d U . .
H6 H 1.0038 1.0202 0.1697 0.035 Uiso 1 1 calc R . .
O1 O 0.8972(3) 0.2089(3) 0.2704(4) 0.0311(15) Uani 1 1 d U . .
O2 O 0.9146(3) 0.1547(4) 0.3795(3) 0.0402(17) Uani 1 1 d U . .
O1W O 0.7812(5) 0.3074(4) 0.2689(5) 0.063(2) Uani 1 1 d U . .
O3 O 0.7929(3) -0.0261(3) 0.6977(3) 0.0238(14) Uani 1 1 d U . .
O2W O 0.8700(6) 0.2735(5) 0.3992(6) 0.098(3) Uani 1 1 d U . .
O4 O 0.8445(5) -0.0727(5) 0.6196(5) 0.055(2) Uani 1 1 d U . .
O3W O 0.9000(5) 0.1495(7) 0.5180(6) 0.095(3) Uani 1 1 d U . .
O5 O 0.6145(3) 0.0134(4) 0.5640(3) 0.0335(16) Uani 1 1 d U . .
O4W O 0.7150(5) 0.5957(4) 0.7251(5) 0.058(2) Uani 1 1 d U . .
O6 O 0.6445(3) -0.0470(3) 0.6668(3) 0.0283(14) Uani 1 1 d U . .
O5W O 0.6250(5) 0.6858(4) 0.5994(4) 0.052(2) Uani 1 1 d U . .
O7 O 0.7145(3) 0.1722(4) 0.2873(3) 0.0337(16) Uani 1 1 d U . .
O6W O 0.5908(4) 0.6679(3) 0.4779(4) 0.0423(18) Uani 1 1 d U . .
O8 O 0.6441(3) 0.0822(3) 0.4033(3) 0.0259(14) Uani 1 1 d U . .
O9 O 0.7442(3) 0.1653(3) 0.4269(3) 0.0223(12) Uani 1 1 d U . .
O10 O 0.7869(3) 0.0554(3) 0.5229(3) 0.0258(13) Uani 1 1 d U . .
O11 O 0.7555(4) 0.1932(4) 0.5433(4) 0.0486(19) Uani 1 1 d U . .
O12 O 0.6954(4) 0.0940(3) 0.6526(4) 0.0335(16) Uani 1 1 d U . .
O13 O 0.7608(3) 0.4300(3) 0.5382(4) 0.0323(14) Uani 1 1 d U . .
O14 O 0.6867(4) 0.4315(3) 0.6408(4) 0.0395(17) Uani 1 1 d U . .
O15 O 0.7842(3) 0.4739(3) 0.7099(3) 0.0352(17) Uani 1 1 d U . .
O16 O 0.8535(3) 0.4869(3) 0.5933(3) 0.0257(14) Uani 1 1 d U . .
O17 O 0.8828(3) 0.5730(3) 0.4350(3) 0.0239(14) Uiso 1 1 d U . .
O18 O 0.8566(4) 0.6143(4) 0.3305(4) 0.048(2) Uani 1 1 d U . .
O19 O 0.6006(3) 0.4956(3) 0.7291(3) 0.0293(15) Uani 1 1 d U . .
O20 O 0.5824(3) 0.5441(3) 0.6207(4) 0.0332(15) Uani 1 1 d U . .
O21 O 0.7053(3) 0.6608(3) 0.2989(3) 0.0291(15) Uani 1 1 d U . .
O22 O 0.6578(5) 0.5435(4) 0.3759(5) 0.059(2) Uani 1 1 d U . .
O23 O 0.7384(4) 0.7338(3) 0.4567(4) 0.0393(17) Uani 1 1 d U . .
O24 O 0.7969(3) 0.7396(3) 0.3466(4) 0.0306(15) Uani 1 1 d U . .
O25 O 0.7370(4) 0.9697(4) 0.4585(4) 0.0375(17) Uani 1 1 d U . .
O26 O 0.8115(4) 1.0656(4) 0.3556(4) 0.0411(18) Uani 1 1 d U . .
O27 O 0.7512(3) 0.5962(3) 0.5721(3) 0.0251(13) Uani 1 1 d U . .
O28 O 0.7109(3) 0.5769(3) 0.4757(3) 0.0200(12) Uani 1 1 d U . .
Zn1 Zn 0.78897(6) 0.20354(6) 0.31558(6) 0.0300(3) Uani 1 1 d U . .
Zn2 Zn 0.70954(6) 0.05725(6) 0.47007(5) 0.0241(3) Uani 1 1 d U . .
Zn3 Zn 0.82934(6) 0.16680(6) 0.46498(6) 0.0264(3) Uani 1 1 d U . .
Zn4 Zn 0.73882(5) 0.02033(5) 0.62962(5) 0.0183(2) Uani 1 1 d U . .
Zn5 Zn 0.70949(6) 0.53160(6) 0.68241(6) 0.0289(3) Uani 1 1 d U . .
Zn6 Zn 0.78613(6) 0.52778(6) 0.