####################################################################### 
# 
# This file contains crystal structure data downloaded from the 
# Cambridge Structural Database (CSD) hosted by the Cambridge 
# Crystallographic Data Centre (CCDC).
# 
# Full information about CCDC data access policies and citation 
# guidelines are available at http://www.ccdc.cam.ac.uk/access/V1 
# 
# Audit and citation data items may have been added by the CCDC. 
# Please retain this information to preserve the provenance of 
# this file and to allow appropriate attribution of the data. 
# 
#######################################################################

data_Compound_3
_audit_block_doi                 10.5517/ccrxnfq
_database_code_depnum_ccdc_archive 'CCDC 712734'
loop_
_citation_id
_citation_doi
_citation_year
1 10.1002/asia.200800458 2009
_audit_update_record             
;
2008-12-08 deposited with the CCDC.	2024-07-12 downloaded from the CCDC.
;

_audit_creation_method           SHELXL-97
_chemical_name_systematic        
;
?
;
_chemical_name_common            ?
_chemical_melting_point          ?
_chemical_formula_moiety         ?
_chemical_formula_sum            'C48 H110 Cu7 N12 O68'
_chemical_formula_weight         2388.26

loop_
_atom_type_symbol
_atom_type_description
_atom_type_scat_dispersion_real
_atom_type_scat_dispersion_imag
_atom_type_scat_source
C C 0.0033 0.0016 'International Tables Vol C Tables 4.2.6.8 and 6.1.1.4'
H H 0.0000 0.0000 'International Tables Vol C Tables 4.2.6.8 and 6.1.1.4'
N N 0.0061 0.0033 'International Tables Vol C Tables 4.2.6.8 and 6.1.1.4'
O O 0.0106 0.0060 'International Tables Vol C Tables 4.2.6.8 and 6.1.1.4'
Cu Cu 0.3201 1.2651 'International Tables Vol C Tables 4.2.6.8 and 6.1.1.4'

_symmetry_cell_setting           triclinic
_symmetry_space_group_name_H-M   P-1

loop_
_symmetry_equiv_pos_as_xyz
'x, y, z'
'-x, -y, -z'

_cell_length_a                   11.800(2)
_cell_length_b                   12.800(3)
_cell_length_c                   16.800(3)
_cell_angle_alpha                70.70(3)
_cell_angle_beta                 79.80(3)
_cell_angle_gamma                65.20(3)
_cell_volume                     2171.8(8)
_cell_formula_units_Z            1
_cell_measurement_temperature    213(2)
_cell_measurement_reflns_used    ?
_cell_measurement_theta_min      ?
_cell_measurement_theta_max      ?

_exptl_crystal_description       block
_exptl_crystal_colour            blue
_exptl_crystal_size_max          0.15
_exptl_crystal_size_mid          0.14
_exptl_crystal_size_min          0.12
_exptl_crystal_density_meas      ?
_exptl_crystal_density_diffrn    1.826
_exptl_crystal_density_method    'not measured'
_exptl_crystal_F_000             1229
_exptl_absorpt_coefficient_mu    1.811
_exptl_absorpt_correction_type   empirical
_exptl_absorpt_correction_T_min  0.7729
_exptl_absorpt_correction_T_max  0.8120
_exptl_absorpt_process_details   SADABS

_exptl_special_details           
;
?
;

_diffrn_ambient_temperature      213(2)
_diffrn_radiation_wavelength     0.71073
_diffrn_radiation_type           MoK\a
_diffrn_radiation_source         'fine-focus sealed tube'
_diffrn_radiation_monochromator  graphite
_diffrn_measurement_device_type  'Rigaku/MSC Mercury CCD'
_diffrn_measurement_method       \w
_diffrn_detector_area_resol_mean ?
_diffrn_standards_number         ?
_diffrn_standards_interval_count ?
_diffrn_standards_interval_time  ?
_diffrn_standards_decay_%        ?
_diffrn_reflns_number            16519
_diffrn_reflns_av_R_equivalents  0.0574
_diffrn_reflns_av_sigmaI/netI    0.1041
_diffrn_reflns_limit_h_min       -15
_diffrn_reflns_limit_h_max       11
_diffrn_reflns_limit_k_min       -16
_diffrn_reflns_limit_k_max       14
_diffrn_reflns_limit_l_min       -21
_diffrn_reflns_limit_l_max       21
_diffrn_reflns_theta_min         3.11
_diffrn_reflns_theta_max         27.00
_reflns_number_total             9098
_reflns_number_gt                6507
_reflns_threshold_expression     >2sigma(I)

_computing_data_collection       crystalclear
_computing_cell_refinement       crystalclear
_computing_data_reduction        crystalclear
_computing_structure_solution    SIR-97
_computing_structure_refinement  'SHELXL-97 (Sheldrick, 1997)'
_computing_molecular_graphics    ?
_computing_publication_material  ?

_refine_special_details          
;
Refinement of F^2^ against ALL reflections. The weighted R-factor wR and
goodness of fit S are based on F^2^, conventional R-factors R are based
on F, with F set to zero for negative F^2^. The threshold expression of
F^2^ > 2sigma(F^2^) is used only for calculating R-factors(gt) etc. and is
not relevant to the choice of reflections for refinement. R-factors based
on F^2^ are statistically about twice as large as those based on F, and R-
factors based on ALL data will be even larger.
;

_refine_ls_structure_factor_coef Fsqd
_refine_ls_matrix_type           full
_refine_ls_weighting_scheme      calc
_refine_ls_weighting_details     
'calc w=1/[\s^2^(Fo^2^)+(0.0858P)^2^+7.4418P] where P=(Fo^2^+2Fc^2^)/3'
_atom_sites_solution_primary     direct
_atom_sites_solution_secondary   difmap
_atom_sites_solution_hydrogens   geom
_refine_ls_hydrogen_treatment    mixed
_refine_ls_extinction_method     none
_refine_ls_extinction_coef       ?
_refine_ls_number_reflns         9098
_refine_ls_number_parameters     610
_refine_ls_number_restraints     0
_refine_ls_R_factor_all          0.1082
_refine_ls_R_factor_gt           0.0764
_refine_ls_wR_factor_ref         0.2023
_refine_ls_wR_factor_gt          0.1808
_refine_ls_goodness_of_fit_ref   1.066
_refine_ls_restrained_S_all      1.066
_refine_ls_shift/su_max          0.000
_refine_ls_shift/su_mean         0.000

loop_
_atom_site_label
_atom_site_type_symbol
_atom_site_fract_x
_atom_site_fract_y
_atom_site_fract_z
_atom_site_U_iso_or_equiv
_atom_site_adp_type
_atom_site_occupancy
_atom_site_symmetry_multiplicity
_atom_site_calc_flag
_atom_site_refinement_flags
_atom_site_disorder_assembly
_atom_site_disorder_group
Cu1 Cu -0.02775(6) 0.51273(6) 0.07724(5) 0.01230(19) Uani 1 1 d . . .
Cu2 Cu 0.5000 0.5000 0.5000 0.0140(2) Uani 1 2 d S . .
Cu3 Cu 0.22062(7) 0.57770(7) 0.48615(5) 0.0170(2) Uani 1 1 d . . .
Cu4 Cu 0.57398(8) 0.71773(7) 0.49816(5) 0.0217(2) Uani 1 1 d . . .
O1 O 0.9015(4) -0.0230(4) 0.1045(3) 0.0227(10) Uani 1 1 d . . .
O2 O 0.5969(4) 0.3130(4) -0.0387(3) 0.0213(10) Uani 1 1 d . . .
O3 O 0.5139(4) -0.0153(4) 0.1091(3) 0.0298(12) Uani 1 1 d . . .
O4 O 0.1394(4) 0.3919(4) 0.1093(3) 0.0219(10) Uani 1 1 d . . .
O5 O -0.0859(4) 0.3816(4) 0.1005(3) 0.0197(10) Uani 1 1 d . . .
O6 O -0.1858(4) 0.6243(4) 0.0224(3) 0.0216(10) Uani 1 1 d . . .
O7 O 0.0480(4) 0.6326(4) 0.0313(3) 0.0194(10) Uani 1 1 d . . .
O8 O -0.0787(4) 0.5425(3) 0.2004(3) 0.0136(9) Uani 1 1 d . . .
O9 O -0.1193(5) 0.6487(4) 0.2913(3) 0.0259(11) Uani 1 1 d . . .
O10 O 0.3919(4) 0.3661(4) 0.7327(3) 0.0259(11) Uani 1 1 d . . .
O11 O 0.7896(4) 0.2351(4) 0.8023(3) 0.0232(10) Uani 1 1 d . . .
O12 O 0.5214(5) 0.6093(5) 0.8032(3) 0.0310(12) Uani 1 1 d . . .
O13 O 0.2318(4) 0.6375(4) 0.5796(3) 0.0202(10) Uani 1 1 d . . .
O14 O 0.4374(4) 0.5854(4) 0.5854(3) 0.0181(9) Uani 1 1 d . . .
O15 O 0.7865(4) 0.4604(4) 0.6169(3) 0.0221(10) Uani 1 1 d . . .
O16 O 0.6851(6) 0.6578(5) 0.5879(4) 0.0525(19) Uani 1 1 d . . .
O17 O 0.3840(4) 0.6598(4) 0.4105(3) 0.0243(11) Uani 1 1 d . . .
O18 O 0.4491(4) 0.8001(4) 0.4144(3) 0.0264(11) Uani 1 1 d . . .
O19 O 0.6415(4) 0.5701(4) 0.4655(3) 0.0207(10) Uani 1 1 d . . .
OW1 O 0.0852(4) 0.7348(4) 0.4455(3) 0.0230(10) Uani 1 1 d . . .
OW2 O 0.0617(5) 0.5189(5) 0.5572(3) 0.0397(14) Uani 1 1 d . . .
OW3 O 0.7026(6) 0.7982(5) 0.4007(4) 0.0542(18) Uani 1 1 d . . .
OW4 O 0.4896(5) 0.8583(5) 0.5417(4) 0.0369(13) Uani 1 1 d . . .
OW5 O 0.8471(6) 0.0347(5) 0.2959(4) 0.0457(15) Uani 1 1 d . . .
OW6 O 0.9907(4) 0.7966(4) 0.2966(3) 0.0230(10) Uani 1 1 d . . .
OW7 O 0.2474(8) 0.9977(12) 0.5396(6) 0.170(7) Uani 1 1 d . . .
OW8 O 0.0963(6) 0.9405(6) 0.4502(5) 0.0592(19) Uani 1 1 d . . .
OW9 O 0.0112(5) 0.6794(5) 0.6812(3) 0.0348(13) Uani 1 1 d . . .
OW10 O 0.0307(7) 0.1224(8) 0.2584(8) 0.121(4) Uani 1 1 d . . .
OW11 O 0.1170(9) 0.0306(9) 0.1141(9) 0.141(5) Uani 1 1 d . . .
OW12 O 0.8310(19) 0.7908(17) 0.5503(19) 0.307(15) Uani 1 1 d . . .
OW13 O 0.8042(14) 0.8775(12) 0.6318(14) 0.208(8) Uani 1 1 d . . .
OW14 O 0.4468(6) 0.0593(5) 0.3449(4) 0.0450(15) Uani 1 1 d . . .
OW15 O 0.6099(5) 0.1411(5) 0.2212(3) 0.0404(14) Uani 1 1 d . . .
N1 N 0.5550(5) 0.1471(4) 0.0296(3) 0.0138(11) Uani 1 1 d . . .
N2 N 0.7544(5) 0.1413(4) 0.0252(3) 0.0147(11) Uani 1 1 d . . .
N3 N 0.7096(5) -0.0239(4) 0.1080(3) 0.0140(11) Uani 1 1 d . . .
N4 N 0.4503(5) 0.4886(5) 0.7743(3) 0.0181(11) Uani 1 1 d . . .
N5 N 0.5888(5) 0.2941(5) 0.7759(3) 0.0161(11) Uani 1 1 d . . .
N6 N 0.6617(5) 0.4314(5) 0.7887(3) 0.0182(11) Uani 1 1 d . . .
C1 C 0.6321(6) 0.2090(5) 0.0024(4) 0.0153(13) Uani 1 1 d . . .
C2 C 0.7958(6) 0.0268(5) 0.0811(4) 0.0165(13) Uani 1 1 d . . .
C3 C 0.5871(6) 0.0334(5) 0.0839(4) 0.0175(13) Uani 1 1 d . . .
C4 C 0.4220(5) 0.2135(6) 0.0082(4) 0.0172(13) Uani 1 1 d . . .
H7A H 0.3897 0.1588 0.0013 0.021 Uiso 1 1 calc R . .
H7B H 0.4153 0.2758 -0.0450 0.021 Uiso 1 1 calc R . .
C5 C 0.3446(6) 0.2698(6) 0.0766(4) 0.0250(16) Uani 1 1 d . . .
H8A H 0.3425 0.2065 0.1275 0.030 Uiso 1 1 calc R . .
H8B H 0.3847 0.3147 0.0891 0.030 Uiso 1 1 calc R . .
C6 C 0.2120(6) 0.3530(6) 0.0523(4) 0.0186(13) Uani 1 1 d . . .
C7 C 0.7445(6) -0.1356(5) 0.1791(4) 0.0133(12) Uani 1 1 d . . .
H10A H 0.6693 -0.1430 0.2100 0.016 Uiso 1 1 calc R . .
H10B H 0.7937 -0.1309 0.2174 0.016 Uiso 1 1 calc R . .
C8 C 0.8181(7) -0.2445(6) 0.1492(4) 0.0216(14) Uani 1 1 d . . .
H11A H 0.8838 -0.2296 0.1094 0.026 Uiso 1 1 calc R . .
H11B H 0.7634 -0.2563 0.1192 0.026 Uiso 1 1 calc R . .
C9 C -0.1229(6) 0.6401(6) 0.2189(4) 0.0173(13) Uani 1 1 d . . .
C10 C 0.8421(6) 0.2045(6) -0.0002(4) 0.0161(13) Uani 1 1 d . . .
H13A H 0.8199 0.2650 -0.0542 0.019 Uiso 1 1 calc R . .
H13B H 0.9268 0.1475 -0.0061 0.019 Uiso 1 1 calc R . .
C11 C 0.1652(6) 0.7370(6) -0.0661(4) 0.0221(15) Uani 1 1 d . . .
H14A H 0.2523 0.6897 -0.0770 0.026 Uiso 1 1 calc R . .
H14B H 0.1342 0.7995 -0.1180 0.026 Uiso 1 1 calc R . .
C12 C 0.0927(5) 0.6564(5) -0.0434(4) 0.0145(13) Uani 1 1 d . . .
C13 C 0.4704(6) 0.3830(6) 0.7573(4) 0.0197(14) Uani 1 1 d . . .
C14 C 0.6861(6) 0.3157(6) 0.7903(4) 0.0177(13) Uani 1 1 d . . .
C15 C 0.5430(6) 0.5163(6) 0.7895(4) 0.0214(14) Uani 1 1 d . . .
C16 C 0.3223(6) 0.5814(7) 0.7663(4) 0.0274(16) Uani 1 1 d . . .
H22A H 0.3029 0.6168 0.8125 0.033 Uiso 1 1 calc R . .
H22B H 0.2642 0.5436 0.7715 0.033 Uiso 1 1 calc R . .
C17 C 0.3033(6) 0.6804(6) 0.6836(4) 0.0227(15) Uani 1 1 d . . .
H23A H 0.2190 0.7406 0.6837 0.027 Uiso 1 1 calc R . .
H23B H 0.3610 0.7188 0.6780 0.027 Uiso 1 1 calc R . .
C18 C 0.3240(6) 0.6324(5) 0.6100(4) 0.0162(13) Uani 1 1 d . . .
C19 C 0.7685(6) 0.4617(6) 0.7929(4) 0.0223(14) Uani 1 1 d . . .
H25A H 0.8451 0.3904 0.7980 0.027 Uiso 1 1 calc R . .
H25B H 0.7570 0.4880 0.8428 0.027 Uiso 1 1 calc R . .
C20 C 0.7805(7) 0.5589(7) 0.7161(4) 0.0259(16) Uani 1 1 d . . .
H26A H 0.8660 0.5531 0.7105 0.031 Uiso 1 1 calc R . .
H26B H 0.7273 0.6359 0.7256 0.031 Uiso 1 1 calc R . .
C21 C 0.7479(6) 0.5580(6) 0.6337(4) 0.0223(15) Uani 1 1 d . . .
C22 C 0.6148(6) 0.1740(6) 0.7715(4) 0.0237(15) Uani 1 1 d . . .
H28A H 0.5362 0.1649 0.7753 0.028 Uiso 1 1 calc R . .
H28B H 0.6623 0.1148 0.8196 0.028 Uiso 1 1 calc R . .
C23 C 0.3127(6) 0.8514(6) 0.3094(4) 0.0240(15) Uani 1 1 d . . .
H29A H 0.2965 0.9326 0.3083 0.029 Uiso 1 1 calc R . .
H29B H 0.2330 0.8445 0.3132 0.029 Uiso 1 1 calc R . .
C24 C 0.3869(6) 0.7632(6) 0.3854(4) 0.0203(14) Uani 1 1 d . . .

loop_
_atom_site_aniso_label
_atom_site_aniso_U_11
_atom_site_aniso_U_22
_atom_site_aniso_U_33
_atom_site_aniso_U_23
_atom_site_aniso_U_13
_atom_site_aniso_U_12
Cu1 0.0098(4) 0.0120(4) 0.0155(4) -0.0046(3) -0.0013(3) -0.0039(3)
Cu2 0.0127(5) 0.0147(5) 0.0158(5) -0.0069(4) 0.0008(4) -0.0052(4)
Cu3 0.0151(4) 0.0179(4) 0.0162(4) -0.0050(3) -0.0036(3) -0.0034(3)
Cu4 0.0285(5) 0.0158(4) 0.0223(4) -0.0062(3) -0.0081(4) -0.0067(4)
O1 0.014(2) 0.018(2) 0.032(3) -0.002(2) -0.013(2) -0.002(2)
O2 0.019(2) 0.016(2) 0.023(2) 0.001(2) -0.0020(19) -0.0056(19)
O3 0.021(3) 0.029(3) 0.040(3) 0.002(2) -0.005(2) -0.017(2)
O4 0.016(2) 0.027(3) 0.019(2) -0.009(2) -0.0042(19) -0.003(2)
O5 0.024(2) 0.021(2) 0.022(2) -0.008(2) 0.0031(19) -0.016(2)
O6 0.014(2) 0.029(3) 0.020(2) -0.014(2) -0.0027(19) -0.001(2)
O7 0.021(2) 0.024(2) 0.020(2) -0.006(2) 0.0043(19) -0.017(2)
O8 0.015(2) 0.008(2) 0.015(2) -0.0038(17) 0.0001(17) -0.0020(17)
O9 0.038(3) 0.019(2) 0.021(2) -0.005(2) -0.011(2) -0.007(2)
O10 0.017(2) 0.034(3) 0.029(3) -0.011(2) -0.002(2) -0.010(2)
O11 0.017(2) 0.024(3) 0.027(3) -0.007(2) -0.007(2) -0.005(2)
O12 0.030(3) 0.031(3) 0.035(3) -0.016(2) -0.009(2) -0.007(2)
O13 0.018(2) 0.026(3) 0.016(2) -0.006(2) -0.0052(19) -0.007(2)
O14 0.011(2) 0.020(2) 0.023(2) -0.010(2) 0.0016(18) -0.0031(18)
O15 0.028(3) 0.018(2) 0.015(2) -0.0033(19) -0.0061(19) -0.003(2)
O16 0.085(5) 0.018(3) 0.054(4) -0.012(3) -0.047(4) -0.001(3)
O17 0.021(3) 0.037(3) 0.024(3) -0.011(2) 0.005(2) -0.020(2)
O18 0.032(3) 0.020(3) 0.031(3) -0.012(2) -0.012(2) -0.006(2)
O19 0.025(3) 0.013(2) 0.020(2) -0.0032(19) -0.007(2) -0.0018(19)
OW1 0.018(2) 0.020(2) 0.027(3) -0.007(2) -0.006(2) -0.0004(19)
OW2 0.043(3) 0.062(4) 0.025(3) -0.002(3) -0.004(2) -0.037(3)
OW3 0.055(4) 0.045(4) 0.074(5) -0.033(3) 0.028(3) -0.030(3)
OW4 0.036(3) 0.032(3) 0.050(4) -0.027(3) -0.013(3) -0.004(2)
OW5 0.052(4) 0.032(3) 0.045(4) -0.018(3) -0.009(3) -0.001(3)
OW6 0.023(3) 0.020(2) 0.026(3) -0.006(2) -0.007(2) -0.007(2)
OW7 0.056(6) 0.235(14) 0.055(6) 0.013(7) 0.002(4) 0.055(7)
OW8 0.062(4) 0.047(4) 0.080(5) -0.043(4) 0.038(4) -0.028(3)
OW9 0.027(3) 0.027(3) 0.036(3) 0.003(2) 0.000(2) -0.007(2)
OW10 0.049(5) 0.085(6) 0.267(14) -0.114(8) -0.010(6) -0.012(4)
OW11 0.098(7) 0.083(7) 0.255(15) -0.073(8) -0.105(9) 0.008(6)
OW12 0.22(2) 0.162(16) 0.51(4) 0.04(2) -0.17(2) -0.091(15)
OW13 0.142(12) 0.089(9) 0.36(3) -0.068(13) -0.021(14) -0.007(8)
OW14 0.063(4) 0.029(3) 0.044(4) -0.009(3) -0.012(3) -0.016(3)
OW15 0.052(4) 0.034(3) 0.036(3) -0.021(3) -0.010(3) -0.006(3)
N1 0.010(3) 0.011(3) 0.015(3) 0.000(2) -0.006(2) 0.001(2)
N2 0.018(3) 0.011(3) 0.019(3) -0.008(2) 0.001(2) -0.008(2)
N3 0.012(3) 0.009(2) 0.018(3) -0.003(2) -0.004(2) -0.001(2)
N4 0.019(3) 0.025(3) 0.013(3) -0.010(2) 0.001(2) -0.008(2)
N5 0.017(3) 0.019(3) 0.015(3) -0.006(2) 0.000(2) -0.010(2)
N6 0.018(3) 0.021(3) 0.016(3) -0.005(2) -0.005(2) -0.007(2)
C1 0.020(3) 0.011(3) 0.014(3) -0.004(2) -0.002(2) -0.005(3)
C2 0.017(3) 0.010(3) 0.021(3) -0.006(3) 0.000(3) -0.003(3)
C3 0.016(3) 0.013(3) 0.022(3) -0.005(3) -0.001(3) -0.004(3)
C4 0.007(3) 0.018(3) 0.023(3) -0.005(3) -0.008(3) 0.001(3)
C5 0.017(3) 0.024(4) 0.028(4) -0.007(3) -0.015(3) 0.003(3)
C6 0.017(3) 0.015(3) 0.026(4) -0.006(3) -0.005(3) -0.007(3)
C7 0.012(3) 0.012(3) 0.011(3) 0.001(2) -0.004(2) -0.001(2)
C8 0.033(4) 0.014(3) 0.017(3) -0.004(3) -0.004(3) -0.007(3)
C9 0.018(3) 0.015(3) 0.020(3) -0.002(3) -0.006(3) -0.007(3)
C10 0.014(3) 0.020(3) 0.023(3) -0.010(3) 0.003(3) -0.013(3)
C11 0.027(4) 0.031(4) 0.017(3) -0.011(3) 0.005(3) -0.019(3)
C12 0.007(3) 0.011(3) 0.028(3) -0.010(3) 0.001(2) -0.002(2)
C13 0.019(3) 0.028(4) 0.013(3) -0.005(3) 0.001(3) -0.011(3)
C14 0.020(4) 0.016(3) 0.013(3) -0.002(3) -0.001(3) -0.004(3)
C15 0.027(4) 0.023(4) 0.016(3) -0.008(3) -0.002(3) -0.009(3)
C16 0.018(4) 0.041(4) 0.024(4) -0.021(3) 0.004(3) -0.005(3)
C17 0.023(4) 0.018(3) 0.024(4) -0.010(3) -0.001(3) -0.002(3)
C18 0.018(3) 0.012(3) 0.020(3) -0.007(3) -0.003(3) -0.005(3)
C19 0.023(4) 0.025(4) 0.022(4) -0.005(3) -0.007(3) -0.010(3)
C20 0.030(4) 0.033(4) 0.021(4) -0.004(3) -0.003(3) -0.020(3)
C21 0.026(4) 0.023(4) 0.023(4) -0.003(3) -0.005(3) -0.015(3)
C22 0.024(4) 0.024(4) 0.023(4) -0.004(3) -0.003(3) -0.011(3)
C23 0.018(4) 0.022(4) 0.032(4) -0.009(3) -0.008(3) -0.005(3)
C24 0.023(4) 0.024(4) 0.020(3) -0.016(3) 0.007(3) -0.010(3)

_geom_special_details            
;
All esds (except the esd in the dihedral angle between two l.s. planes)
are estimated using the full covariance matrix. The cell esds are taken
into account individually in the estimation of esds in distances, angles
and torsion angles; correlations between esds in cell parameters are only
used when they are defined by crystal symmetry. An approximate (isotropic)
treatment of cell esds is used for estimating esds involving l.s. planes.
;

loop_
_geom_bond_atom_site_label_1
_geom_bond_atom_site_label_2
_geom_bond_distance
_geom_bond_site_symmetry_2
_geom_bond_publ_flag
Cu1 O4 1.959(4) . ?
Cu1 O7 1.967(4) . ?
Cu1 O6 1.967(4) . ?
Cu1 O5 1.969(4) . ?
Cu1 O8 2.163(4) . ?
Cu1 Cu1 2.6550(16) 2_565 ?
Cu2 O14 1.945(4) . ?
Cu2 O14 1.945(4) 2_666 ?
Cu2 O19 2.121(5) . ?
Cu2 O19 2.121(5) 2_666 ?
Cu2 O17 2.160(5) 2_666 ?
Cu2 O17 2.160(5) . ?
Cu2 Cu3 3.0463(11) . ?
Cu2 Cu3 3.0463(11) 2_666 ?
Cu3 O19 1.939(4) 2_666 ?
Cu3 OW1 1.961(5) . ?
Cu3 O15 1.972(4) 2_666 ?
Cu3 O13 2.004(4) . ?
Cu3 OW2 2.303(5) . ?
Cu4 O16 1.916(5) . ?
Cu4 O18 1.926(5) . ?
Cu4 O19 1.942(4) . ?
Cu4 OW4 1.968(5) . ?
Cu4 OW3 2.316(6) . ?
O1 C2 1.208(7) . ?
O2 C1 1.204(7) . ?
O3 C3 1.208(8) . ?
O4 C6 1.251(8) . ?
O5 C12 1.238(7) 2_565 ?
O6 C6 1.257(8) 2_565 ?
O7 C12 1.262(7) . ?
O8 C9 1.258(7) . ?
O9 C9 1.265(8) . ?
O10 C13 1.200(8) . ?
O11 C14 1.221(8) . ?
O12 C15 1.200(8) . ?
O13 C18 1.251(7) . ?
O14 C18 1.272(7) . ?
O15 C21 1.247(8) . ?
O15 Cu3 1.972(4) 2_666 ?
O16 C21 1.238(8) . ?
O17 C24 1.262(8) . ?
O18 C24 1.254(8) . ?
O19 Cu3 1.939(4) 2_666 ?
N1 C3 1.370(8) . ?
N1 C1 1.372(8) . ?
N1 C4 1.481(7) . ?
N2 C1 1.381(8) . ?
N2 C2 1.386(8) . ?
N2 C10 1.493(7) . ?
N3 C2 1.363(8) . ?
N3 C3 1.384(8) . ?
N3 C7 1.480(7) . ?
N4 C15 1.368(8) . ?
N4 C13 1.387(8) . ?
N4 C16 1.474(8) . ?
N5 C14 1.364(8) . ?
N5 C13 1.390(8) . ?
N5 C22 1.462(8) . ?
N6 C15 1.366(9) . ?
N6 C14 1.377(8) . ?
N6 C19 1.485(8) . ?
C4 C5 1.516(9) . ?
C5 C6 1.512(9) . ?
C6 O6 1.257(8) 2_565 ?
C7 C8 1.498(8) . ?
C8 C9 1.