
#######################################################################
#
#                 Cambridge Crystallographic Data Centre
#                                CCDC
#
#######################################################################
#
# If this CIF has been generated from an entry in the Cambridge
# Structural Database, then it will include bibliographic, chemical,
# crystal, experimental, refinement or atomic coordinate data resulting
# from the CCDC's data processing and validation procedures.
#
#######################################################################

data_CSD_CIF_RUMQOF
_audit_creation_date 1998-03-04
_audit_creation_method CSD-ConQuest-V1
_database_code_CSD RUMQOF
_database_code_depnum_ccdc_archive 'CCDC 1252803'
_chemical_formula_sum 'C20 H38 Ca1 Co2 N4 O23'
_chemical_formula_moiety
;
2(C10 H12 Co1 N2 O8 1-),H14 Ca1 O7 2+
;
_journal_coden_Cambridge 233
_journal_volume 41
_journal_year 1996
_journal_page_first 1647
_journal_name_full 'Zh.Neorg.Khim.(Russ.)(Russ.J.Inorg.Chem.) '
loop_
_publ_author_name
"L.A.Zasurskaya"
"A.L.Pozdnyak"
"T.N.Polynova"
"V.B.Rybakov"
"M.A.Porai-Koshits"
_chemical_name_systematic
;
Hepta-aqua-calcium bis((ethylenediaminotetra-acetato)-cobalt(iii))
;
_chemical_name_common
;
Teaching Subset: Fundamental Chemistry
;
_cell_volume    814.726
_exptl_crystal_density_diffrn 1.754
_diffrn_ambient_temperature ?
_diffrn_special_details
;
The study was carried out at room temperature,in the range 283-303K

;
#These two values have been output from a single CSD field.
_refine_ls_R_factor_gt 0.042
_refine_ls_wR_factor_gt 0.042
_symmetry_cell_setting triclinic
_symmetry_space_group_name_H-M 'P 1'
_symmetry_Int_Tables_number 1
loop_
_symmetry_equiv_pos_site_id
_symmetry_equiv_pos_as_xyz
1 x,y,z
_cell_length_a 6.448(4)
_cell_length_b 11.488(4)
_cell_length_c 11.887(4)
_cell_angle_alpha 68.40(2)
_cell_angle_beta 88.49(2)
_cell_angle_gamma 84.39(2)
_cell_formula_units_Z 1
loop_
_atom_type_symbol
_atom_type_radius_bond
C 0.68
H 0.23
Ca 1.43
Co 1.35
N 0.68
O 0.68
loop_
_atom_site_label
_atom_site_type_symbol
_atom_site_fract_x
_atom_site_fract_y
_atom_site_fract_z
Co1 Co 0.6751(4) 0.8350(2) -0.0380(2)
O1 O 0.551(2) 0.790(1) -0.1577(9)
O2 O 0.424(2) 0.876(1) -0.3438(9)
O3 O 0.443(2) 0.955(1) -0.043(1)
O4 O 0.398(2) 1.159(1) -0.078(1)
O5 O 0.784(2) 0.8781(9) 0.0865(9)
O6 O 1.055(2) 0.835(1) 0.213(1)
O7 O 0.582(2) 0.6856(9) 0.0804(9)
O8 O 0.646(2) 0.479(1) 0.140(1)
N1 N 0.778(2) 0.973(1) -0.168(1)
N2 N 0.933(2) 0.734(1) -0.032(1)
C1 C 0.665(2) 0.988(1) -0.282(1)
C2 C 0.536(2) 0.881(1) -0.266(1)
C3 C 0.718(3) 1.085(1) -0.136(1)
C4 C 0.503(3) 1.071(1) -0.086(1)
C5 C 1.062(2) 0.734(1) 0.071(1)
C6 C 0.966(3) 0.821(1) 0.128(1)
C7 C 0.876(3) 0.604(1) -0.007(1)
C8 C 0.681(2) 0.586(1) 0.079(1)
C9 C 1.009(2) 0.937(1) -0.175(2)
C10 C 1.032(2) 0.795(1) -0.152(1)
H1 H 0.78(3) 0.98(2) -0.35(2)
H2 H 0.57(3) 1.07(2) -0.31(2)
H3 H 0.71(3) 1.16(2) -0.20(2)
H4 H 0.81(3) 1.09(2) -0.08(2)
H5 H 1.19(3) 0.76(2) 0.03(2)
H6 H 1.09(3) 0.64(2) 0.15(2)
H7 H 1.05(3) 0.54(2) 0.01(2)
H8 H 0.82(3) 0.59(2) -0.08(2)
H9 H 1.08(3) 0.96(2) -0.11(2)
H10 H 1.07(3) 0.98(2) -0.25(2)
H11 H 1.02(3) 0.77(2) -0.22(2)
H12 H 1.19(3) 0.77(2) -0.14(2)
Ca1 Ca 0.2284(5) 0.1622(3) 0.2554(3)
O9 O 0.281(2) 0.372(1) 0.249(1)
O10 O 0.375(2) 0.100(1) 0.450(1)
O11 O 0.005(2) -0.005(1) 0.339(1)
O12 O -0.104(2) 0.258(1) 0.296(1)
O13 O 0.571(2) 0.193(1) 0.172(1)
O14 O 0.100(2) 0.226(1) 0.057(1)
O15 O 0.386(2) -0.029(1) 0.219(1)
H13 H 0.32(3) 0.44(2) 0.25(2)
H14 H 0.12(3) 0.38(2) 0.23(2)
H15 H 0.41(3) 0.11(2) 0.53(2)
H16 H 0.33(3) 0.00(2) 0.47(2)
H17 H 0.03(3) -0.08(2) 0.39(2)
H18 H -0.07(3) -0.03(2) 0.27(2)
H19 H -0.05(3) 0.33(2) 0.28(2)
H20 H -0.15(3) 0.22(2) 0.38(2)
H21 H 0.58(3) 0.25(2) 0.09(2)
H22 H 0.67(3) 0.11(2) 0.22(2)
H23 H 0.04(3) 0.19(2) 0.01(2)
H24 H -0.01(3) 0.23(2) 0.12(2)
H25 H 0.50(3) 0.02(2) 0.17(2)
H26 H 0.37(3) -0.08(2) 0.19(2)
Co2 Co 0.6703(4) 0.5076(2) 0.6055(2)
O16 O 0.576(2) 0.379(1) 0.560(1)
O17 O 0.324(2) 0.254(1) 0.591(1)
O18 O 0.773(2) 0.3890(9) 0.7544(9)
O19 O 0.730(2) 0.349(1) 0.952(1)
O20 O 0.771(2) 0.6326(9) 0.6495(9)
O21 O 0.873(2) 0.825(1) 0.565(1)
O22 O 0.906(2) 0.505(1) 0.504(1)
O23 O 0.964(2) 0.521(1) 0.316(1)
N3 N 0.413(2) 0.505(1) 0.690(1)
N4 N 0.551(2) 0.643(1) 0.463(1)
C11 C 0.300(2) 0.401(1) 0.690(1)
C12 C 0.400(2) 0.339(1) 0.607(1)
C13 C 0.477(2) 0.494(1) 0.811(1)
C14 C 0.673(2) 0.402(1) 0.845(2)
C15 C 0.646(2) 0.758(1) 0.453(1)
C16 C 0.770(2) 0.744(1) 0.561(1)
C17 C 0.631(3) 0.597(2) 0.364(1)
C18 C 0.849(3) 0.540(1) 0.394(1)
C19 C 0.296(2) 0.629(1) 0.616(1)
C20 C 0.325(3) 0.648(1) 0.483(2)
H27 H 0.16(3) 0.43(2) 0.66(2)
H28 H 0.30(3) 0.34(2) 0.77(2)
H29 H 0.37(3) 0.42(2) 0.88(2)
H30 H 0.48(3) 0.57(2) 0.82(2)
H31 H 0.54(3) 0.82(2) 0.44(2)
H32 H 0.73(3) 0.78(2) 0.39(2)
H33 H 0.62(3) 0.66(2) 0.29(2)
H34 H 0.55(3) 0.53(2) 0.36(2)
H35 H 0.34(3) 0.70(2) 0.63(2)
H36 H 0.16(3) 0.62(2) 0.64(2)
H37 H 0.29(3) 0.72(2) 0.44(2)
H38 H 0.25(3) 0.59(2) 0.46(2)
#END
