####################################################################### 
# 
# This file contains crystal structure data downloaded from the 
# Cambridge Structural Database (CSD) hosted by the Cambridge 
# Crystallographic Data Centre (CCDC).
# 
# Full information about CCDC data access policies and citation 
# guidelines are available at http://www.ccdc.cam.ac.uk/access/V1 
# 
# Audit and citation data items may have been added by the CCDC. 
# Please retain this information to preserve the provenance of 
# this file and to allow appropriate attribution of the data. 
# 
#######################################################################

data_RUNZUV
#This CIF has been generated from an entry in the Cambridge Structural Database
_database_code_depnum_ccdc_archive 'CCDC 1252927'
_database_code_CSD               RUNZUV
loop_
_citation_id
_citation_doi
_citation_year
1 10.1021/ic9607245 1997
_audit_creation_method           'Created from the CSD'
_audit_update_record             
;
2024-07-12 downloaded from the CCDC.
;
_database_code_NBS               690108
_chemical_formula_moiety         '(C18 H28 Au4 N4 P4 S4)n,n(C2 H6 O1 S1)'
_chemical_name_systematic        
'catena-(bis(\m~2~-Di-isocyanoethene-1,1-dithiolato)-bis(\m~2~-bis(dimethylphosphino)methane)-tetra-gold(i) dimethylsulfoxide solvate)'
_chemical_absolute_configuration unk
_diffrn_ambient_temperature      295
_exptl_crystal_density_diffrn    2.615
#These two values have been output from a single CSD field.
_refine_ls_R_factor_gt           0.0542
_refine_ls_wR_factor_gt          0.0542
_diffrn_radiation_probe          x-ray
_symmetry_cell_setting           orthorhombic
_symmetry_space_group_name_H-M   'F d d 2'
_symmetry_Int_Tables_number      43
_space_group_name_Hall           'F 2 -2d'
loop_
_symmetry_equiv_pos_site_id
_symmetry_equiv_pos_as_xyz
1 x,y,z
2 -x,-y,z
3 1/4-x,1/4+y,1/4+z
4 3/4+x,3/4-y,1/4+z
5 x,1/2+y,1/2+z
6 -x,1/2-y,1/2+z
7 1/4-x,3/4+y,3/4+z
8 3/4+x,1/4-y,3/4+z
9 1/2+x,y,1/2+z
10 1/2-x,-y,1/2+z
11 3/4-x,1/4+y,3/4+z
12 1/4+x,3/4-y,3/4+z
13 1/2+x,1/2+y,z
14 1/2-x,1/2-y,z
15 3/4-x,3/4+y,1/4+z
16 1/4+x,1/4-y,1/4+z
_cell_length_a                   19.574(3)
_cell_length_b                   48.220(11)
_cell_length_c                   15.273(2)
_cell_angle_alpha                90
_cell_angle_beta                 90
_cell_angle_gamma                90
_cell_volume                     14415.5
_exptl_crystal_colour            yellow
_chemical_melting_point          231deg.C(dec.)
_cell_formula_units_Z            16
loop_
_atom_site_label
_atom_site_type_symbol
_atom_site_fract_x
_atom_site_fract_y
_atom_site_fract_z
Au1 Au 0.1141(1) 0.2150(1) 0.0000
Au2 Au 0.1430(1) 0.2515(1) -0.1484(2)
Au3 Au 0.0713(1) 0.1813(1) 0.1635(2)
Au4 Au -0.0205(1) 0.2184(1) 0.2544(2)
S1 S 0.0981(9) 0.2528(2) 0.0917(8)
S2 S 0.1420(10) 0.2910(3) -0.0633(9)
S3 S -0.0241(6) 0.1601(2) 0.1022(8)
S4 S -0.0992(6) 0.2146(3) 0.1407(8)
P1 P 0.1286(8) 0.1762(3) -0.0820(9)
P2 P 0.1508(6) 0.2149(3) -0.2397(9)
P3 P 0.1649(6) 0.1949(3) 0.2378(8)
P4 P 0.0631(6) 0.2238(3) 0.3587(8)
N1 N 0.0903(24) 0.3041(10) 0.2682(34)
N2 N 0.1035(30) 0.3559(13) 0.0359(41)
N3 N -0.1266(22) 0.1358(9) -0.0798(33)
N4 N -0.2328(26) 0.2118(10) -0.0289(33)
C1 C 0.1767(27) 0.1845(11) -0.1824(36)
C2 C 0.1469(26) 0.2256(10) 0.3108(35)
C3 C 0.1160(21) 0.2830(9) 0.0443(28)
C4 C 0.1037(20) 0.3065(8) 0.0932(26)
C5 C 0.0961(28) 0.3054(11) 0.1891(38)
C6 C 0.1043(26) 0.3359(11) 0.0609(33)
C7 C -0.0875(18) 0.1840(7) 0.0838(23)
C8 C -0.1328(20) 0.1790(8) 0.0096(29)
C9 C -0.1322(22) 0.1554(9) -0.0391(30)
C10 C -0.1877(26) 0.1963(10) -0.0160(33)
C13 C 0.1866(30) 0.1483(12) -0.0260(40)
C14 C 0.0529(30) 0.1588(12) -0.1078(41)
C15 C 0.0709(25) 0.2082(10) -0.2946(36)
C16 C 0.2169(35) 0.2175(13) -0.3302(47)
C17 C 0.2090(28) 0.1673(10) 0.2990(36)
C18 C 0.2396(26) 0.2098(12) 0.1862(39)
C19 C 0.0585(28) 0.2555(10) 0.4244(38)
C20 C 0.0592(30) 0.1949(11) 0.4457(40)
H1 H 0.1727 0.1690 -0.2216
H2 H 0.2240 0.1863 -0.1671
H3 H 0.1515 0.2424 0.2776
H4 H 0.1803 0.2259 0.3568
H5 H 0.1908 0.1325 -0.0638
H6 H 0.2311 0.1559 -0.0148
H7 H 0.1661 0.1427 0.0283
H8 H 0.0628 0.1426 -0.1424
H9 H 0.0292 0.1533 -0.0555
H10 H 0.0248 0.1712 -0.1410
H11 H 0.0765 0.1926 -0.3328
H12 H 0.0366 0.2041 -0.2516
H13 H 0.0572 0.2241 -0.3283
H14 H 0.2158 0.2010 -0.3651
H15 H 0.2080 0.2333 -0.3668
H16 H 0.2611 0.2194 -0.3038
H17 H 0.2483 0.1746 0.3287
H18 H 0.1772 0.1601 0.3412
H19 H 0.2229 0.1524 0.2602
H20 H 0.2738 0.2144 0.2290
H21 H 0.2272 0.2263 0.1544
H22 H 0.0952 0.2559 0.4661
H23 H 0.0623 0.2712 0.3858
H24 H 0.0156 0.2564 0.4548
H25 H 0.0942 0.1972 0.4890
H26 H 0.0152 0.1952 0.4736
H27 H 0.0653 0.1774 0.4166
Au4E Au 0.0205(1) 0.2816(1) -0.2456(2)
Au2E Au -0.1430(1) 0.2485(1) 0.3516(2)
S5 S 0.4087(9) 0.1139(4) 0.7904(13)
O1 O 0.3841(27) 0.0920(11) 0.8464(40)
C11 C 0.3462(34) 0.1396(13) 0.8033(45)
C12 C 0.4821(42) 0.1357(16) 0.8387(61)

#END
