####################################################################### 
# 
# This file contains crystal structure data downloaded from the 
# Cambridge Structural Database (CSD) hosted by the Cambridge 
# Crystallographic Data Centre (CCDC).
# 
# Full information about CCDC data access policies and citation 
# guidelines are available at http://www.ccdc.cam.ac.uk/access/V1 
# 
# Audit and citation data items may have been added by the CCDC. 
# Please retain this information to preserve the provenance of 
# this file and to allow appropriate attribution of the data. 
# 
#######################################################################

data__Ni(dps)2(NO3)2-RT-1alfa
_audit_block_doi                 10.5517/cc7k7rr
_database_code_depnum_ccdc_archive 'CCDC 225114'
loop_
_citation_id
_citation_doi
_citation_year
1 10.1246/cl.2004.514 2004
_audit_update_record             
;
2003-11-25 deposited with the CCDC.	2024-07-12 downloaded from the CCDC.
;
#-------------------------------------------------------------------------
# CHEMICAL DATA
_chemical_formula_sum            'C22 H22 N6 O7 Ni S2 '
_chemical_formula_moiety         'C22 H22 N6 O7 Ni S2 '
_chemical_formula_weight         605.27
_chemical_melting_point          ?
#-------------------------------------------------------------------------
# CRYSTAL DATA
_symmetry_cell_setting           orthorhombic
_symmetry_space_group_name_H-M   'C c c 2      '
_symmetry_Int_Tables_number      37
loop_
_symmetry_equiv_pos_as_xyz
x,y,z
-x,-y,z
-x,y,1/2+z
x,-y,1/2+z
1/2+x,1/2+y,z
1/2-x,1/2-y,z
1/2-x,1/2+y,1/2+z
1/2+x,1/2-y,1/2+z
_cell_length_a                   13.27(1)
_cell_length_b                   19.88(2)
_cell_length_c                   10.100(9)
_cell_angle_alpha                90
_cell_angle_beta                 90
_cell_angle_gamma                90
_cell_volume                     2665(3)
_cell_formula_units_Z            4
_cell_measurement_reflns_used    5683
_cell_measurement_theta_min      1.4
_cell_measurement_theta_max      15.8
_cell_measurement_temperature    296.2
#-------------------------------------------------------------------------
_exptl_crystal_description       plate
_exptl_crystal_colour            light-blue
_exptl_crystal_size_max          0.180
_exptl_crystal_size_mid          0.100
_exptl_crystal_size_min          0.070
_exptl_crystal_size_rad          ?
_exptl_crystal_density_diffrn    1.508
_exptl_crystal_density_meas      ?
_exptl_crystal_density_method    'not measured'
_exptl_absorpt_coefficient_mu    0.937
_exptl_absorpt_correction_type   none
_exptl_absorpt_process_details   ?
_exptl_absorpt_correction_T_min  0.509
_exptl_absorpt_correction_T_max  0.829
#-------------------------------------------------------------------------
# EXPERIMENTAL DATA
_diffrn_radiation_type           'Mo K\a'
_diffrn_radiation_wavelength     0.7107
_diffrn_measurement_device_type  'Rigaku/MSC Mercury CCD'
_diffrn_measurement_method       \w
_diffrn_detector_area_resol_mean 14.62
_diffrn_reflns_number            11807
_diffrn_reflns_av_R_equivalents  0.040
_diffrn_reflns_theta_max         30.00
_diffrn_measured_fraction_theta_max 0.9600
_diffrn_reflns_theta_full        30.00
_diffrn_measured_fraction_theta_full 0.9600
_diffrn_reflns_limit_h_min       -14
_diffrn_reflns_limit_h_max       18
_diffrn_reflns_limit_k_min       -27
_diffrn_reflns_limit_k_max       27
_diffrn_reflns_limit_l_min       -14
_diffrn_reflns_limit_l_max       12
#-------------------------------------------------------------------------
# REFINEMENT DATA
_refine_special_details          
;
Refinement using reflections with F^2^ > 2.0 sigma(F^2^). The weighted R-factor
(wR), goodness of fit (S) and R-factor (gt) are based on F, with F set to zero
for negative F. The threshold expression of F^2^ > 2.0 sigma(F^2^) is used only
for calculating R-factor (gt).
;
_reflns_number_total             1969
_reflns_number_gt                1641
_reflns_threshold_expression     F^2^>2.0\s(F^2^)
_refine_ls_structure_factor_coef F
_refine_ls_R_factor_gt           0.0724
_refine_ls_wR_factor_ref         0.0946
_refine_ls_hydrogen_treatment    noref
_refine_ls_number_reflns         1641
_refine_ls_number_parameters     158
_refine_ls_goodness_of_fit_ref   1.867
_refine_ls_weighting_scheme      calc
_refine_ls_weighting_details     'w = 1/[\s^2^(Fo) + 0.00090|Fo|^2^]'
_refine_ls_shift/su_max          0.0111
_refine_diff_density_max         0.77
_refine_diff_density_min         -0.51
_refine_ls_extinction_method     none
_refine_ls_extinction_coef       ?
_refine_ls_abs_structure_details 'Flack H D (1983), Acta Cryst. A39, 876-881'
_refine_ls_abs_structure_Flack   0.04(4)
loop_
_atom_type_symbol
_atom_type_description
_atom_type_scat_dispersion_real
_atom_type_scat_dispersion_imag
_atom_type_scat_source
Ni Ni 0.339 1.112
;International Tables for Crystallography
(1992, Vol. C, Tables 4.2.6.8 and 6.1.1.1)
;
S S 0.125 0.123
;International Tables for Crystallography
(1992, Vol. C, Tables 4.2.6.8 and 6.1.1.1)
;
C C 0.003 0.002
;International Tables for Crystallography
(1992, Vol. C, Tables 4.2.6.8 and 6.1.1.1)
;
O O 0.011 0.006
;International Tables for Crystallography
(1992, Vol. C, Tables 4.2.6.8 and 6.1.1.1)
;
N N 0.006 0.003
;International Tables for Crystallography
(1992, Vol. C, Tables 4.2.6.8 and 6.1.1.1)
;
H H 0.000 0.000
;International Tables for Crystallography
(1992, Vol. C, Table 6.1.1.2)
;
#-------------------------------------------------------------------------
# ATOMIC COORDINATES AND DISPLACEMENT PARAMETERS
loop_
_atom_site_label
_atom_site_type_symbol
_atom_site_fract_x
_atom_site_fract_y
_atom_site_fract_z
_atom_site_U_iso_or_equiv
_atom_site_adp_type
_atom_site_occupancy
_atom_site_calc_flag
_atom_site_refinement_flags
_atom_site_disorder_assembly
_atom_site_disorder_group
Ni(1) Ni -0.7500 -0.2500 -0.2270 0.0434(2) Uani 1.00 d S . .
S(1) S -0.8537(1) -0.45848(7) -0.7263(2) 0.0719(4) Uani 1.00 d . . .
O(1) O -0.8977(5) -0.2198(6) -0.2120(9) 0.153(3) Uani 1.00 d . . .
O(2) O -1.004(1) -0.2671(7) -0.299(1) 0.174(4) Uani 1.00 d . . .
O(3) O -1.0489(5) -0.1886(5) -0.187(1) 0.160(4) Uani 1.00 d . . .
N(1) N -0.7875(5) -0.3203(3) -0.3754(5) 0.049(1) Uani 1.00 d . . .
N(2) N -0.7795(4) -0.3217(3) -1.0764(5) 0.049(1) Uani 1.00 d . . .
N(3) N -0.9790(4) -0.2078(5) -0.2452(9) 0.092(2) Uani 1.00 d . . .
C(1) C -0.8404(6) -0.2987(3) -0.4820(6) 0.062(2) Uani 1.00 d . . .
C(2) C -0.8614(6) -0.3382(3) -0.5902(6) 0.060(2) Uani 1.00 d . . .
C(3) C -0.8272(5) -0.4043(3) -0.5924(6) 0.058(2) Uani 1.00 d . . .
C(4) C -0.7694(5) -0.4269(3) -0.4820(7) 0.058(1) Uani 1.00 d . . .
C(5) C -0.7543(4) -0.3829(3) -0.3785(6) 0.055(1) Uani 1.00 d . . .
C(6) C -0.8641(4) -0.3583(3) -1.0731(6) 0.052(1) Uani 1.00 d . . .
C(7) C -0.8897(4) -0.3998(3) -0.9686(6) 0.054(1) Uani 1.00 d . . .
C(8) C -0.8239(4) -0.4054(3) -0.8621(5) 0.045(1) Uani 1.00 d . . .
C(9) C -0.7368(5) -0.3683(4) -0.8670(6) 0.057(1) Uani 1.00 d . . .
C(10) C -0.7165(5) -0.3285(3) -0.9742(6) 0.056(1) Uani 1.00 d . . .
H(1) H -0.8644 -0.2536 -0.4819 0.0749 Uiso 1.00 calc . . .
H(2) H -0.8987 -0.3205 -0.6625 0.0719 Uiso 1.00 calc . . .
H(3) H -0.7421 -0.4710 -0.4799 0.0695 Uiso 1.00 calc . . .
H(4) H -0.7173 -0.3987 -0.3042 0.0662 Uiso 1.00 calc . . .
H(5) H -0.9088 -0.3556 -1.1463 0.0629 Uiso 1.00 calc . . .
H(6) H -0.9513 -0.4241 -0.9695 0.0654 Uiso 1.00 calc . . .
H(7) H -0.6903 -0.3703 -0.7955 0.0679 Uiso 1.00 calc . . .
H(8) H -0.6546 -0.3045 -0.9760 0.0675 Uiso 1.00 calc . . .

loop_
_atom_site_aniso_label
_atom_site_aniso_U_11
_atom_site_aniso_U_22
_atom_site_aniso_U_33
_atom_site_aniso_U_12
_atom_site_aniso_U_13
_atom_site_aniso_U_23
Ni(1) 0.0547(4) 0.0465(4) 0.0290(3) 0.0042(3) 0.0000 0.0000
S(1) 0.126(1) 0.0502(6) 0.0401(5) -0.0330(6) 0.002(1) -0.0014(8)
O(1) 0.079(3) 0.291(8) 0.090(4) 0.106(4) -0.032(3) -0.065(6)
O(2) 0.197(9) 0.202(9) 0.124(7) -0.112(8) -0.002(8) -0.010(7)
O(3) 0.064(3) 0.171(7) 0.24(1) 0.038(4) 0.036(5) 0.054(8)
N(1) 0.068(3) 0.043(2) 0.036(2) 0.003(2) -0.005(2) 0.000(2)
N(2) 0.056(2) 0.059(3) 0.031(2) 0.003(2) -0.003(2) 0.000(2)
N(3) 0.056(3) 0.129(6) 0.091(5) 0.008(3) -0.010(4) 0.018(5)
C(1) 0.096(4) 0.053(3) 0.038(2) 0.008(3) -0.012(3) 0.004(2)
C(2) 0.081(4) 0.057(3) 0.042(3) 0.005(3) -0.009(2) -0.003(2)
C(3) 0.084(4) 0.051(3) 0.039(3) -0.011(3) 0.007(3) 0.004(2)
C(4) 0.085(4) 0.042(3) 0.047(3) -0.001(3) -0.005(3) -0.001(2)
C(5) 0.080(4) 0.044(3) 0.041(2) 0.002(2) -0.004(2) 0.008(2)
C(6) 0.050(2) 0.063(3) 0.044(2) -0.005(2) -0.012(2) -0.001(2)
C(7) 0.061(3) 0.055(3) 0.047(2) -0.015(2) -0.009(2) -0.002(2)
C(8) 0.065(3) 0.042(2) 0.028(2) -0.007(2) -0.001(2) -0.002(2)
C(9) 0.065(3) 0.061(3) 0.044(3) -0.012(2) -0.011(2) 0.008(3)
C(10) 0.057(2) 0.070(3) 0.042(2) -0.012(3) -0.004(2) 0.011(2)
#-------------------------------------------------------------------------
_computing_data_collection       .
_computing_cell_refinement       .
_computing_data_reduction        'teXsan Ver. 1.11'
_computing_structure_solution    SIR92
_computing_structure_refinement  'teXsan Ver. 1.10'
_computing_publication_material  'teXsan Ver. 1.11'
_computing_molecular_graphics    ?
#-------------------------------------------------------------------------
_geom_special_details            
;
?
;
loop_
_geom_bond_atom_site_label_1
_geom_bond_atom_site_label_2
_geom_bond_distance
_geom_bond_site_symmetry_1
_geom_bond_site_symmetry_2
_geom_bond_publ_flag
Ni(1) O(1) 2.056(5) . . yes
Ni(1) O(1) 2.056(5) . 6_345 yes
Ni(1) N(1) 2.109(5) . . yes
Ni(1) N(1) 2.109(5) . 6_345 yes
Ni(1) N(2) 2.121(5) . 6_346 yes
Ni(1) N(2) 2.121(5) . 1_556 yes
S(1) C(3) 1.764(7) . . yes
S(1) C(8) 1.775(6) . . yes
O(1) N(3) 1.155(8) . . yes
O(2) N(3) 1.34(2) . . yes
O(3) N(3) 1.16(1) . . yes
N(1) C(1) 1.356(8) . . yes
N(1) C(5) 1.321(8) . . yes
N(2) C(6) 1.338(8) . . yes
N(2) C(10) 1.336(8) . . yes
C(1) C(2) 1.374(8) . . yes
C(2) C(3) 1.391(9) . . yes
C(3) C(4) 1.426(9) . . yes
C(4) C(5) 1.378(9) . . yes
C(6) C(7) 1.382(8) . . yes
C(7) C(8) 1.390(7) . . yes
C(8) C(9) 1.372(8) . . yes
C(9) C(10) 1.368(9) . . yes
#-------------------------------------------------------------------------
loop_
_geom_angle_atom_site_label_1
_geom_angle_atom_site_label_2
_geom_angle_atom_site_label_3
_geom_angle
_geom_angle_site_symmetry_1
_geom_angle_site_symmetry_2
_geom_angle_site_symmetry_3
_geom_angle_publ_flag
O(1) Ni(1) O(1) 171.6(5) . . 6_345 yes
O(1) Ni(1) N(1) 91.2(3) . . . yes
O(1) Ni(1) N(1) 94.8(4) . . 6_345 yes
O(1) Ni(1) N(2) 85.8(3) . . 6_346 yes
O(1) Ni(1) N(2) 88.2(4) . . 1_556 yes
O(1) Ni(1) N(1) 94.8(4) 6_345 . . yes
O(1) Ni(1) N(1) 91.2(3) 6_345 . 6_345 yes
O(1) Ni(1) N(2) 88.2(4) 6_345 . 6_346 yes
O(1) Ni(1) N(2) 85.8(3) 6_345 . 1_556 yes
N(1) Ni(1) N(1) 89.4(3) . . 6_345 yes
N(1) Ni(1) N(2) 177.0(3) . . 6_346 yes
N(1) Ni(1) N(2) 91.2(1) . . 1_556 yes
N(1) Ni(1) N(2) 91.2(1) 6_345 . 6_346 yes
N(1) Ni(1) N(2) 177.0(3) 6_345 . 1_556 yes
N(2) Ni(1) N(2) 88.4(3) 6_346 . 1_556 yes
C(3) S(1) C(8) 100.6(2) . . . yes
Ni(1) O(1) N(3) 158.5(7) . . . yes
Ni(1) N(1) C(1) 118.4(4) . . . yes
Ni(1) N(1) C(5) 124.2(4) . . . yes
C(1) N(1) C(5) 116.9(5) . . . yes
Ni(1) N(2) C(6) 122.6(4) 1_554 . . yes
Ni(1) N(2) C(10) 120.4(4) 1_554 . . yes
C(6) N(2) C(10) 116.8(5) . . . yes
O(1) N(3) O(2) 99(1) . . . yes
O(1) N(3) O(3) 131(1) . . . yes
O(2) N(3) O(3) 107.1(10) . . . yes
N(1) C(1) C(2) 123.7(6) . . . yes
C(1) C(2) C(3) 119.2(6) . . . yes
S(1) C(3) C(2) 121.6(5) . . . yes
S(1) C(3) C(4) 121.0(5) . . . yes
C(2) C(3) C(4) 117.4(6) . . . yes
C(3) C(4) C(5) 118.2(6) . . . yes
N(1) C(5) C(4) 124.6(6) . . . yes
N(2) C(6) C(7) 123.4(5) . . . yes
C(6) C(7) C(8) 118.9(5) . . . yes
S(1) C(8) C(7) 120.3(4) . . . yes
S(1) C(8) C(9) 122.4(4) . . . yes
C(7) C(8) C(9) 117.3(5) . . . yes
C(8) C(9) C(10) 120.3(5) . . . yes
N(2) C(10) C(9) 123.1(6) . . . yes
#-------------------------------------------------------------------------
loop_
_geom_torsion_atom_site_label_1
_geom_torsion_atom_site_label_2
_geom_torsion_atom_site_label_3
_geom_torsion_atom_site_label_4
_geom_torsion
_geom_torsion_site_symmetry_1
_geom_torsion_site_symmetry_2
_geom_torsion_site_symmetry_3
_geom_torsion_site_symmetry_4
_geom_torsion_publ_flag
Ni(1) O(1) N(3) O(2) 55(2) . . . . yes
Ni(1) O(1) N(3) O(3) 178(2) . . . . yes
Ni(1) O(1) N(3) O(2) 55(2) . 6_345 6_345 6_345 yes
Ni(1) O(1) N(3) O(3) 178(2) . 6_345 6_345 6_345 yes
Ni(1) N(1) C(1) C(2) 173.9(6) . . . . yes
Ni(1) N(1) C(5) C(4) -172.6(5) . . . . yes
Ni(1) N(1) C(1) C(2) 173.9(6) . 6_345 6_345 6_345 yes
Ni(1) N(1) C(5) C(4) -172.6(5) . 6_345 6_345 6_345 yes
S(1) C(3) C(2) C(1) 178.6(5) . . . . yes
S(1) C(3) C(4) C(5) -177.8(5) . . . . yes
S(1) C(8) C(7) C(6) -179.7(4) . . . . yes
S(1) C(8) C(9) C(10) 179.4(6) . . . . yes
O(1) Ni(1) O(1) N(3) -167(2) . . 6_345 6_345 yes
O(1) Ni(1) N(1) C(1) 52.2(6) . . . . yes
O(1) Ni(1) N(1) C(5) -135.0(6) . . . . yes
O(1) Ni(1) N(1) C(1) -133.7(6) . . 6_345 6_345 yes
O(1) Ni(1) N(1) C(5) 39.1(6) . . 6_345 6_345 yes
N(1) Ni(1) O(1) N(3) -32(2) . . . . yes
N(1) Ni(1) O(1) N(3) 56(2) . . 6_345 6_345 yes
N(1) Ni(1) N(1) C(1) -42.6(4) . . 6_345 6_345 yes
N(1) Ni(1) N(1) C(5) 130.3(6) . . 6_345 6_345 yes
N(1) C(1) C(2) C(3) 0(1) . . . . yes
N(1) C(5) C(4) C(3) -1.8(10) . . . . yes
N(2) Ni(1) N(2) C(6) 127.9(6) . 1_554 6_345 6_345 yes
N(2) Ni(1) N(2) C(10) -47.0(4) . 1_554 6_345 6_345 yes
N(2) C(6) C(7) C(8) -1.4(9) . . . . yes
N(2) C(10) C(9) C(8) 1(1) . . . . yes
C(1) N(1) C(5) C(4) 0.3(10) . . . . yes
C(1) C(2) C(3) C(4) -1(1) . . . . yes
C(2) C(1) N(1) C(5) 0(1) . . . . yes
C(2) C(3) S(1) C(8) 46.7(6) . . . . yes
C(2) C(3) C(4) C(5) 2.4(9) . . . . yes
C(3) S(1) C(8) C(7) -132.8(6) . . . . yes
C(3) S(1) C(8) C(9) 46.9(6) . . . . yes
C(4) C(3) S(1) C(8) -133.1(6) . . . . yes
C(6) N(2) C(10) C(9) -2.6(10) . . . . yes
C(6) C(7) C(8) C(9) 0.6(9) . . . . yes
C(7) C(6) N(2) C(10) 2.3(9) . . . . yes
C(7) C(8) C(9) C(10) -0.9(10) . . . . yes
C(7) C(8) C(9) C(10) -0.9(10) . . . . yes
#-------------------------------------------------------------------------
loop_
_geom_contact_atom_site_label_1
_geom_contact_atom_site_label_2
_geom_contact_distance
_geom_contact_site_symmetry_1
_geom_contact_site_symmetry_2
_geom_contact_publ_flag
O(2) C(2) 3.10(1) . 3_355 ?
O(2) C(7) 3.45(1) . 3_355 ?
O(3) C(9) 3.29(1) . 8_445 ?
O(3) C(2) 3.35(1) . 3_355 ?
O(3) C(1) 3.35(1) . 3_355 ?
N(2) C(5) 3.301(8) . 1_554 ?
