
#######################################################################
#
#                 Cambridge Crystallographic Data Centre
#                                CCDC
#
#######################################################################
#
# If this CIF has been generated from an entry in the Cambridge
# Structural Database, then it will include bibliographic, chemical,
# crystal, experimental, refinement or atomic coordinate data resulting
# from the CCDC's data processing and validation procedures.
#
#######################################################################

data_CSD_CIF_SAHYOQ02
_audit_creation_date 2005-12-01
_audit_creation_method CSD-ConQuest-V1
_database_code_CSD SAHYOQ02
_database_code_depnum_ccdc_archive 'CCDC 277428'
_chemical_formula_sum 'C24 H12 O13 Zn4'
_chemical_formula_moiety
;
(C24 H12 O13 Zn4)n
;
_journal_coden_Cambridge 38
_journal_volume 309
_journal_year 2005
_journal_page_first 1350
_journal_name_full 'Science '
loop_
_publ_author_name
"J.L.C.Rowsell"
"E.C.Spencer"
"J.Eckert"
"J.A.K.Howard"
"O.M.Yaghi"
_chemical_name_systematic
;
catena-(tris(\m~4~-1,4-Benzenedicarboxylato)-(\m~4~-oxo)-tetra-zinc)
;
_chemical_name_common
;
Teaching Subset: MOFs, MOF-5
;
_cell_volume  17361.907
_exptl_crystal_colour 'colorless'
_exptl_crystal_density_diffrn 1.767
_exptl_special_details
;
evacuated

;
_exptl_crystal_description 'block'
_diffrn_ambient_temperature 30
#These two values have been output from a single CSD field.
_refine_ls_R_factor_gt 0.0198
_refine_ls_wR_factor_gt 0.0198
_symmetry_cell_setting cubic
_symmetry_space_group_name_H-M 'F m -3 m'
_symmetry_Int_Tables_number 225
loop_
_symmetry_equiv_pos_site_id
_symmetry_equiv_pos_as_xyz
1 x,y,z
2 z,x,y
3 y,z,x
4 y,x,-z
5 y,-x,z
6 -y,x,z
7 x,z,-y
8 -x,z,y
9 x,-z,y
10 z,y,-x
11 z,-y,x
12 -z,y,x
13 x,1/2+y,1/2+z
14 z,1/2+x,1/2+y
15 y,1/2+z,1/2+x
16 y,1/2+x,1/2-z
17 y,1/2-x,1/2+z
18 -y,1/2+x,1/2+z
19 x,1/2+z,1/2-y
20 -x,1/2+z,1/2+y
21 x,1/2-z,1/2+y
22 z,1/2+y,1/2-x
23 z,1/2-y,1/2+x
24 -z,1/2+y,1/2+x
25 1/2+x,y,1/2+z
26 1/2+z,x,1/2+y
27 1/2+y,z,1/2+x
28 1/2+y,x,1/2-z
29 1/2+y,-x,1/2+z
30 1/2-y,x,1/2+z
31 1/2+x,z,1/2-y
32 1/2-x,z,1/2+y
33 1/2+x,-z,1/2+y
34 1/2+z,y,1/2-x
35 1/2+z,-y,1/2+x
36 1/2-z,y,1/2+x
37 1/2+x,1/2+y,z
38 1/2+z,1/2+x,y
39 1/2+y,1/2+z,x
40 1/2+y,1/2+x,-z
41 1/2+y,1/2-x,z
42 1/2-y,1/2+x,z
43 1/2+x,1/2+z,-y
44 1/2-x,1/2+z,y
45 1/2+x,1/2-z,y
46 1/2+z,1/2+y,-x
47 1/2+z,1/2-y,x
48 1/2-z,1/2+y,x
49 -x,-y,z
50 -x,y,-z
51 x,-y,-z
52 z,-x,-y
53 -z,-x,y
54 -z,x,-y
55 -y,z,-x
56 y,-z,-x
57 -y,-z,x
58 -y,-x,-z
59 -x,-z,-y
60 -z,-y,-x
61 -x,1/2-y,1/2+z
62 -x,1/2+y,1/2-z
63 x,1/2-y,1/2-z
64 z,1/2-x,1/2-y
65 -z,1/2-x,1/2+y
66 -z,1/2+x,1/2-y
67 -y,1/2+z,1/2-x
68 y,1/2-z,1/2-x
69 -y,1/2-z,1/2+x
70 -y,1/2-x,1/2-z
71 -x,1/2-z,1/2-y
72 -z,1/2-y,1/2-x
73 1/2-x,-y,1/2+z
74 1/2-x,y,1/2-z
75 1/2+x,-y,1/2-z
76 1/2+z,-x,1/2-y
77 1/2-z,-x,1/2+y
78 1/2-z,x,1/2-y
79 1/2-y,z,1/2-x
80 1/2+y,-z,1/2-x
81 1/2-y,-z,1/2+x
82 1/2-y,-x,1/2-z
83 1/2-x,-z,1/2-y
84 1/2-z,-y,1/2-x
85 1/2-x,1/2-y,z
86 1/2-x,1/2+y,-z
87 1/2+x,1/2-y,-z
88 1/2+z,1/2-x,-y
89 1/2-z,1/2-x,y
90 1/2-z,1/2+x,-y
91 1/2-y,1/2+z,-x
92 1/2+y,1/2-z,-x
93 1/2-y,1/2-z,x
94 1/2-y,1/2-x,-z
95 1/2-x,1/2-z,-y
96 1/2-z,1/2-y,-x
97 -x,-y,-z
98 -z,-x,-y
99 -y,-z,-x
100 -y,-x,z
101 -y,x,-z
102 y,-x,-z
103 -x,-z,y
104 x,-z,-y
105 -x,z,-y
106 -z,-y,x
107 -z,y,-x
108 z,-y,-x
109 -x,-1/2-y,-1/2-z
110 -z,-1/2-x,-1/2-y
111 -y,-1/2-z,-1/2-x
112 -y,-1/2-x,-1/2+z
113 -y,-1/2+x,-1/2-z
114 y,-1/2-x,-1/2-z
115 -x,-1/2-z,-1/2+y
116 x,-1/2-z,-1/2-y
117 -x,-1/2+z,-1/2-y
118 -z,-1/2-y,-1/2+x
119 -z,-1/2+y,-1/2-x
120 z,-1/2-y,-1/2-x
121 -1/2-x,-y,-1/2-z
122 -1/2-z,-x,-1/2-y
123 -1/2-y,-z,-1/2-x
124 -1/2-y,-x,-1/2+z
125 -1/2-y,x,-1/2-z
126 -1/2+y,-x,-1/2-z
127 -1/2-x,-z,-1/2+y
128 -1/2+x,-z,-1/2-y
129 -1/2-x,z,-1/2-y
130 -1/2-z,-y,-1/2+x
131 -1/2-z,y,-1/2-x
132 -1/2+z,-y,-1/2-x
133 -1/2-x,-1/2-y,-z
134 -1/2-z,-1/2-x,-y
135 -1/2-y,-1/2-z,-x
136 -1/2-y,-1/2-x,z
137 -1/2-y,-1/2+x,-z
138 -1/2+y,-1/2-x,-z
139 -1/2-x,-1/2-z,y
140 -1/2+x,-1/2-z,-y
141 -1/2-x,-1/2+z,-y
142 -1/2-z,-1/2-y,x
143 -1/2-z,-1/2+y,-x
144 -1/2+z,-1/2-y,-x
145 x,y,-z
146 x,-y,z
147 -x,y,z
148 -z,x,y
149 z,x,-y
150 z,-x,y
151 y,-z,x
152 -y,z,x
153 y,z,-x
154 y,x,z
155 x,z,y
156 z,y,x
157 x,-1/2+y,-1/2-z
158 x,-1/2-y,-1/2+z
159 -x,-1/2+y,-1/2+z
160 -z,-1/2+x,-1/2+y
161 z,-1/2+x,-1/2-y
162 z,-1/2-x,-1/2+y
163 y,-1/2-z,-1/2+x
164 -y,-1/2+z,-1/2+x
165 y,-1/2+z,-1/2-x
166 y,-1/2+x,-1/2+z
167 x,-1/2+z,-1/2+y
168 z,-1/2+y,-1/2+x
169 -1/2+x,y,-1/2-z
170 -1/2+x,-y,-1/2+z
171 -1/2-x,y,-1/2+z
172 -1/2-z,x,-1/2+y
173 -1/2+z,x,-1/2-y
174 -1/2+z,-x,-1/2+y
175 -1/2+y,-z,-1/2+x
176 -1/2-y,z,-1/2+x
177 -1/2+y,z,-1/2-x
178 -1/2+y,x,-1/2+z
179 -1/2+x,z,-1/2+y
180 -1/2+z,y,-1/2+x
181 -1/2+x,-1/2+y,-z
182 -1/2+x,-1/2-y,z
183 -1/2-x,-1/2+y,z
184 -1/2-z,-1/2+x,y
185 -1/2+z,-1/2+x,-y
186 -1/2+z,-1/2-x,y
187 -1/2+y,-1/2-z,x
188 -1/2-y,-1/2+z,x
189 -1/2+y,-1/2+z,-x
190 -1/2+y,-1/2+x,z
191 -1/2+x,-1/2+z,y
192 -1/2+z,-1/2+y,x
_cell_length_a 25.894(4)
_cell_length_b 25.894(4)
_cell_length_c 25.894(4)
_cell_angle_alpha 90
_cell_angle_beta 90
_cell_angle_gamma 90
_cell_formula_units_Z 24
loop_
_atom_type_symbol
_atom_type_radius_bond
C 0.68
H 0.23
O 0.68
Zn 1.34
loop_
_atom_site_label
_atom_site_type_symbol
_atom_site_fract_x
_atom_site_fract_y
_atom_site_fract_z
Zn1 Zn 0.293424(4) 0.293424(4) 0.206576(4)
O1 O 0.25000 0.25000 0.25000
O2 O 0.28069(2) 0.36628(3) 0.21931(2)
C1 C 0.25000 0.38846(5) 0.25000
C2 C 0.25000 0.44627(5) 0.25000
C3 C 0.28296(3) 0.47323(4) 0.21704(3)
H1 H 0.30540 0.45490 0.19460
Zn1B Zn 0.293424(4) 0.206576(4) 0.293424(4)
Zn1A Zn 0.206576(4) 0.293424(4) 0.293424(4)
Zn1OD Zn 0.206576(4) 0.206576(4) 0.206576(4)
Zn1D Zn 0.293424(4) 0.706576(4) 0.206576(4)
Zn1J Zn 0.206576(4) 0.706576(4) 0.293424(4)
Zn1E Zn 0.706576(4) 0.293424(4) 0.206576(4)
Zn1G Zn 0.706576(4) 0.206576(4) 0.293424(4)
Zn1C Zn 0.293424(4) 0.293424(4) -0.206576(4)
Zn1V Zn 0.206576(4) 0.206576(4) -0.206576(4)
O2YE O 0.21931(2) 0.36628(3) 0.28069(2)
O2OE O 0.28069(2) 0.63372(3) 0.21931(2)
O2J O 0.21931(2) 0.63372(3) 0.28069(2)
O2WE O 0.36628(2) 0.28069(3) 0.21931(2)
O2B O 0.36628(2) 0.21931(3) 0.28069(2)
O2E O 0.63372(2) 0.28069(3) 0.21931(2)
O2UE O 0.63372(2) 0.21931(3) 0.28069(2)
O2KD O 0.28069(2) 0.28069(3) 0.13372(2)
O2XD O 0.21931(2) 0.21931(3) 0.13372(2)
O2T O 0.28069(2) 0.28069(3) -0.13372(2)
O2EA O 0.21931(2) 0.21931(3) -0.13372(2)
O2XE O 0.28069(2) 0.21931(3) 0.36628(2)
O2KE O 0.28069(2) 0.13372(3) 0.28069(2)
O2A O 0.21931(2) 0.28069(3) 0.36628(2)
O2TD O 0.13372(2) 0.28069(3) 0.28069(2)
O2OD O 0.21931(2) 0.13372(3) 0.21931(2)
O2EE O 0.13372(2) 0.21931(3) 0.21931(2)
C1J C 0.25000 0.61154(5) 0.25000
C1B C 0.38846 0.25000(5) 0.25000
C1E C 0.61154 0.25000(5) 0.25000
C1KD C 0.25000 0.25000(5) 0.11154
C1T C 0.25000 0.25000(5) -0.11154
C2J C 0.25000 0.55373(5) 0.25000
C2B C 0.44627 0.25000(5) 0.25000
C2E C 0.55373 0.25000(5) 0.25000
C2KD C 0.25000 0.25000(5) 0.05373
C2T C 0.25000 0.25000(5) -0.05373
C3OE C 0.28296(3) 0.52677(4) 0.21704(3)
C3J C 0.21704(3) 0.52677(4) 0.28296(3)
C3YE C 0.21704(3) 0.47323(4) 0.28296(3)
C3WE C 0.47323(3) 0.28296(4) 0.21704(3)
C3E C 0.52677(3) 0.28296(4) 0.21704(3)
C3UE C 0.52677(3) 0.21704(4) 0.28296(3)
C3B C 0.47323(3) 0.21704(4) 0.28296(3)
C3KD C 0.28296(3) 0.28296(4) 0.02677(3)
C3T C 0.28296(3) 0.28296(4) -0.02677(3)
C3EA C 0.21704(3) 0.21704(4) -0.02677(3)
C3XD C 0.21704(3) 0.21704(4) 0.02677(3)
H1YE H 0.19460 0.45490 0.30540
H1J H 0.19460 0.54510 0.30540
H1OE H 0.30540 0.54510 0.19460
H1WE H 0.45490 0.30540 0.19460
H1B H 0.45490 0.19460 0.30540
H1UE H 0.54510 0.19460 0.30540
H1E H 0.54510 0.30540 0.19460
H1KD H 0.30540 0.30540 0.04510
H1XD H 0.19460 0.19460 0.04510
H1EA H 0.19460 0.19460 -0.04510
H1T H 0.30540 0.30540 -0.04510
#END
