####################################################################### 
# 
# This file contains crystal structure data downloaded from the 
# Cambridge Structural Database (CSD) hosted by the Cambridge 
# Crystallographic Data Centre (CCDC).
# 
# Full information about CCDC data access policies and citation 
# guidelines are available at http://www.ccdc.cam.ac.uk/access/V1 
# 
# Audit and citation data items may have been added by the CCDC. 
# Please retain this information to preserve the provenance of 
# this file and to allow appropriate attribution of the data. 
# 
#######################################################################

data_rou126cd
_audit_block_doi                 10.5517/cc7x0rw
_database_code_depnum_ccdc_archive 'CCDC 235468'
loop_
_citation_id
_citation_doi
_citation_year
1 10.1002/ejic.200400199 2004
_audit_update_record             
;
2004-04-03 deposited with the CCDC.	2024-07-12 downloaded from the CCDC.
;

_audit_creation_date             2003-11-11T21:10:07-00:00
_audit_creation_method           'WinGX routine CIF_UPDATE'
_audit_conform_dict_name         cif_core.dic
_audit_conform_dict_version      2.2
_audit_conform_dict_location     ftp://ftp.iucr.org/pub/cif_core.dic

#----------------------------------------------------------------------------#
#                   CHEMICAL INFORMATION                                     #
#----------------------------------------------------------------------------#

_chemical_name_systematic        
;
?
;
_chemical_formula_moiety         'C54 H30 Cd2 Cl6 N6 O14'
_chemical_formula_sum            'C54 H30 Cd2 Cl6 N6 O14'
_chemical_formula_weight         1424.34
_chemical_compound_source        'synthesis as described'

#----------------------------------------------------------------------------#
#                   UNIT CELL INFORMATION                                    #
#----------------------------------------------------------------------------#

_symmetry_cell_setting           trigonal
_symmetry_space_group_name_H-M   'P -3 1 m'
_symmetry_space_group_name_Hall  '-P 3 2'
_symmetry_Int_Tables_number      162
loop_
_symmetry_equiv_pos_as_xyz
'x, y, z'
'-y, x-y, z'
'-x+y, -x, z'
'-y, -x, -z'
'x, x-y, -z'
'-x+y, y, -z'
'-x, -y, -z'
'y, -x+y, -z'
'x-y, x, -z'
'y, x, z'
'-x, -x+y, z'
'x-y, -y, z'

_cell_length_a                   14.359(2)
_cell_length_b                   14.359(2)
_cell_length_c                   8.6510(17)
_cell_angle_alpha                90
_cell_angle_beta                 90
_cell_angle_gamma                120
_cell_volume                     1544.7(4)
_cell_formula_units_Z            1
_cell_measurement_temperature    293(2)
_cell_measurement_reflns_used    0
_cell_measurement_theta_min      0
_cell_measurement_theta_max      0
_cell_measurement_wavelength     0.71073

#----------------------------------------------------------------------------#
#                   CRYSTAL INFORMATION                                      #
#----------------------------------------------------------------------------#

_exptl_crystal_description       prism
_exptl_crystal_colour            black
_exptl_crystal_size_max          0.25
_exptl_crystal_size_mid          0.15
_exptl_crystal_size_min          0.15
_exptl_crystal_density_diffrn    1.531
_exptl_crystal_density_method    'not measured'
_exptl_crystal_F_000             706
_exptl_special_details           
;
?
;

#----------------------------------------------------------------------------#
#                   ABSORPTION CORRECTION                                    #
#----------------------------------------------------------------------------#

_exptl_absorpt_coefficient_mu    1.013
_exptl_absorpt_correction_type   none

#----------------------------------------------------------------------------#
#                   DATA COLLECTION                                          #
#----------------------------------------------------------------------------#

_diffrn_ambient_temperature      293(2)
_diffrn_radiation_wavelength     0.71073
_diffrn_radiation_type           MoK\a
_diffrn_radiation_monochromator  graphite
_diffrn_radiation_probe          x-ray
_diffrn_reflns_av_R_equivalents  0.0324
_diffrn_reflns_av_unetI/netI     0.0357
_diffrn_reflns_number            3839
_diffrn_reflns_limit_h_min       -18
_diffrn_reflns_limit_h_max       18
_diffrn_reflns_limit_k_min       -15
_diffrn_reflns_limit_k_max       15
_diffrn_reflns_limit_l_min       -11
_diffrn_reflns_limit_l_max       10
_diffrn_reflns_theta_min         4.34
_diffrn_reflns_theta_max         27.46
_diffrn_reflns_theta_full        27.46
_diffrn_measured_fraction_theta_full 0.987
_diffrn_measured_fraction_theta_max 0.987
_reflns_number_total             1259
_reflns_number_gt                1042
_reflns_threshold_expression     >2sigma(I)

#----------------------------------------------------------------------------#
#                   COMPUTER PROGRAMS USED                                   #
#----------------------------------------------------------------------------#

_computing_data_collection       'Collect (Nonius BV, 1997-2000)'
_computing_cell_refinement       'HKL Scalepack (Otwinowski & Minor 1997)'
_computing_data_reduction        
'HKL Denzo and Scalepack (Otwinowski & Minor 1997)'
_computing_structure_solution    'SHELXS-97 (Sheldrick, 1997)'
_computing_structure_refinement  'SHELXL-97 (Sheldrick, 1997)'
_computing_molecular_graphics    'Ortep-3 for Windows (Farrugia, 1997)'
_computing_publication_material  'WinGX publication routines (Farrugia, 1999)'

#----------------------------------------------------------------------------#
#                   REFINEMENT INFORMATION                                   #
#----------------------------------------------------------------------------#

_refine_special_details          
;
Refinement of F^2^ against ALL reflections.  The weighted R-factor wR and
goodness of fit S are based on F^2^, conventional R-factors R are based
on F, with F set to zero for negative F^2^. The threshold expression of
F^2^ > 2sigma(F^2^) is used only for calculating R-factors(gt) etc. and is
not relevant to the choice of reflections for refinement.  R-factors based
on F^2^ are statistically about twice as large as those based on F, and R-
factors based on ALL data will be even larger.
;
_refine_ls_structure_factor_coef Fsqd
_refine_ls_matrix_type           full
_refine_ls_weighting_scheme      calc
_refine_ls_weighting_details     
'calc w=1/[\s^2^(Fo^2^)+(0.0942P)^2^+0.6792P] where P=(Fo^2^+2Fc^2^)/3'
_atom_sites_solution_primary     direct
_atom_sites_solution_secondary   difmap
_atom_sites_solution_hydrogens   geom
_refine_ls_hydrogen_treatment    mixed
_refine_ls_extinction_method     SHELXL
_refine_ls_extinction_expression Fc^*^=kFc[1+0.001xFc^2^\l^3^/sin(2\q)]^-1/4^
_refine_ls_extinction_coef       0.019(5)
_refine_ls_number_reflns         1259
_refine_ls_number_parameters     70
_refine_ls_number_restraints     0
_refine_ls_R_factor_all          0.0582
_refine_ls_R_factor_gt           0.0477
_refine_ls_wR_factor_ref         0.1602
_refine_ls_wR_factor_gt          0.1512
_refine_ls_goodness_of_fit_ref   1.137
_refine_ls_restrained_S_all      1.137
_refine_ls_shift/su_max          0
_refine_ls_shift/su_mean         0
_refine_diff_density_max         1.526
_refine_diff_density_min         -0.445
_refine_diff_density_rms         0.137

#----------------------------------------------------------------------------#
#                   ATOMIC TYPES, COORDINATES AND THERMAL PARAMETERS         #
#----------------------------------------------------------------------------#

loop_
_atom_type_symbol
_atom_type_description
_atom_type_scat_dispersion_real
_atom_type_scat_dispersion_imag
_atom_type_scat_source
Cd Cd -0.8075 1.2024 'International Tables Vol C Tables 4.2.6.8 and 6.1.1.4'
Cl Cl 0.1484 0.1585 'International Tables Vol C Tables 4.2.6.8 and 6.1.1.4'
C C 0.0033 0.0016 'International Tables Vol C Tables 4.2.6.8 and 6.1.1.4'
O O 0.0106 0.006 'International Tables Vol C Tables 4.2.6.8 and 6.1.1.4'
N N 0.0061 0.0033 'International Tables Vol C Tables 4.2.6.8 and 6.1.1.4'
H H 0 0 'International Tables Vol C Tables 4.2.6.8 and 6.1.1.4'

loop_
_atom_site_label
_atom_site_type_symbol
_atom_site_fract_x
_atom_site_fract_y
_atom_site_fract_z
_atom_site_U_iso_or_equiv
_atom_site_adp_type
_atom_site_occupancy
_atom_site_symmetry_multiplicity
_atom_site_calc_flag
_atom_site_refinement_flags
_atom_site_disorder_assembly
_atom_site_disorder_group
Cd1 Cd 0.6667 0.3333 0 0.0545(4) Uani 1 6 d S . .
Cl1 Cl 0.33091(8) 0 -0.23658(15) 0.0490(4) Uani 1 2 d S . .
C1 C 0.5103(2) 0.0981(2) -0.0615(3) 0.0356(7) Uani 1 1 d . . .
C2 C 0.4236(3) 0 -0.1077(5) 0.0348(9) Uani 1 2 d S . .
C3 C 0.4660(3) 0.4085(3) -0.4162(4) 0.0438(8) Uani 1 1 d . . .
C4 C 0.4264(4) 0.3130(3) -0.3243(4) 0.0546(9) Uani 1 1 d . . .
H4 H 0.4631 0.275 -0.3222 0.066 Uiso 1 1 calc R . .
C5 C 0.3360(4) 0.2787(4) -0.2415(5) 0.0664(12) Uani 1 1 d . . .
H5 H 0.3103 0.2163 -0.1829 0.08 Uiso 1 1 calc R . .
O1 O 0.5302(2) 0.1869(2) -0.1148(3) 0.0493(7) Uani 1 1 d . . .
O2 O 0.6667 0.3333 -0.5 0.108(5) Uani 1 6 d S . .
N1 N 0.55621(15) 0.44379(15) -0.5 0.0431(9) Uani 1 2 d S . .
H3 H 0.631(3) 0.369(3) -0.5 0.09(2) Uiso 1 2 d S . .

loop_
_atom_site_aniso_label
_atom_site_aniso_U_11
_atom_site_aniso_U_22
_atom_site_aniso_U_33
_atom_site_aniso_U_23
_atom_site_aniso_U_13
_atom_site_aniso_U_12
Cd1 0.0254(3) 0.0254(3) 0.1127(7) 0 0 0.01268(17)
Cl1 0.0424(5) 0.0464(7) 0.0595(7) 0 -0.0125(4) 0.0232(3)
C1 0.0295(14) 0.0277(14) 0.0493(16) 0.0012(11) 0.0023(12) 0.0140(12)
C2 0.0310(15) 0.027(2) 0.045(2) 0 -0.0028(14) 0.0136(10)
C3 0.0491(19) 0.0441(18) 0.0472(16) -0.0069(13) -0.0085(14) 0.0301(16)
C4 0.064(2) 0.050(2) 0.060(2) 0.0000(16) -0.0058(18) 0.0362(19)
C5 0.066(3) 0.056(3) 0.070(2) 0.010(2) 0.004(2) 0.025(2)
O1 0.0422(13) 0.0271(12) 0.0775(17) 0.0056(10) -0.0073(11) 0.0166(10)
O2 0.039(3) 0.039(3) 0.244(15) 0 0 0.0196(14)
N1 0.0465(17) 0.0465(17) 0.049(2) -0.0059(15) -0.0059(15) 0.0326(19)


#----------------------------------------------------------------------------#
#                   MOLECULAR GEOMETRY                                       #
#----------------------------------------------------------------------------#

_geom_special_details            
;
All esds (except the esd in the dihedral angle between two l.s. planes)
are estimated using the full covariance matrix.  The cell esds are taken
into account individually in the estimation of esds in distances, angles
and torsion angles; correlations between esds in cell parameters are only
used when they are defined by crystal symmetry.  An approximate (isotropic)
treatment of cell esds is used for estimating esds involving l.s. planes.
;
loop_
_geom_bond_atom_site_label_1
_geom_bond_atom_site_label_2
_geom_bond_distance
_geom_bond_site_symmetry_2
_geom_bond_publ_flag
Cd1 O1 2.264(3) 2_655 ?
Cd1 O1 2.264(3) 6_655 ?
Cd1 O1 2.264(3) 4_665 ?
Cd1 O1 2.264(3) . ?
Cd1 O1 2.264(3) 5 ?
Cd1 O1 2.264(3) 3_665 ?
Cl1 C2 1.737(4) . ?
C1 O1 1.247(4) . ?
C1 C2 1.393(4) . ?
C1 C1 1.539(6) 6_655 ?
C2 C1 1.393(4) 12 ?
C3 N1 1.343(4) . ?
C3 C3 1.430(6) 10 ?
C3 C4 1.433(5) . ?
C4 C5 1.342(6) . ?
C4 H4 0.93 . ?
C5 C5 1.426(10) 10 ?
C5 H5 0.93 . ?
O2 H3 0.88(7) . ?
N1 C3 1.343(4) 4_664 ?

loop_
_geom_angle_atom_site_label_1
_geom_angle_atom_site_label_2
_geom_angle_atom_site_label_3
_geom_angle
_geom_angle_site_symmetry_1
_geom_angle_site_symmetry_3
_geom_angle_publ_flag
O1 Cd1 O1 82.93(14) 2_655 6_655 ?
O1 Cd1 O1 72.91(11) 2_655 4_665 ?
O1 Cd1 O1 102.21(8) 6_655 4_665 ?
O1 Cd1 O1 102.21(8) 2_655 . ?
O1 Cd1 O1 72.91(11) 6_655 . ?
O1 Cd1 O1 173.70(12) 4_665 . ?
O1 Cd1 O1 173.70(12) 2_655 5 ?
O1 Cd1 O1 102.21(8) 6_655 5 ?
O1 Cd1 O1 102.21(8) 4_665 5 ?
O1 Cd1 O1 82.93(14) . 5 ?
O1 Cd1 O1 102.21(8) 2_655 3_665 ?
O1 Cd1 O1 173.70(12) 6_655 3_665 ?
O1 Cd1 O1 82.93(14) 4_665 3_665 ?
O1 Cd1 O1 102.21(8) . 3_665 ?
O1 Cd1 O1 72.91(11) 5 3_665 ?
O1 C1 C2 124.1(3) . . ?
O1 C1 C1 117.33(19) . 6_655 ?
C2 C1 C1 118.6(2) . 6_655 ?
C1 C2 C1 122.3(4) . 12 ?
C1 C2 Cl1 118.8(2) . . ?
C1 C2 Cl1 118.8(2) 12 . ?
N1 C3 C3 120.6(2) . 10 ?
N1 C3 C4 120.5(3) . . ?
C3 C3 C4 119.0(2) 10 . ?
C5 C4 C3 119.8(4) . . ?
C5 C4 H4 120.1 . . ?
C3 C4 H4 120.1 . . ?
C4 C5 C5 121.3(3) . 10 ?
C4 C5 H5 119.4 . . ?
C5 C5 H5 119.4 10 . ?
C1 O1 Cd1 115.9(2) . . ?
C3 N1 C3 118.9(4) . 4_664 ?
