####################################################################### 
# 
# This file contains crystal structure data downloaded from the 
# Cambridge Structural Database (CSD) hosted by the Cambridge 
# Crystallographic Data Centre (CCDC).
# 
# Full information about CCDC data access policies and citation 
# guidelines are available at http://www.ccdc.cam.ac.uk/access/V1 
# 
# Audit and citation data items may have been added by the CCDC. 
# Please retain this information to preserve the provenance of 
# this file and to allow appropriate attribution of the data. 
# 
#######################################################################

data_rou126zn
_audit_block_doi                 10.5517/cc7x0sx
_database_code_depnum_ccdc_archive 'CCDC 235469'
loop_
_citation_id
_citation_doi
_citation_year
1 10.1002/ejic.200400199 2004
_audit_update_record             
;
2004-04-03 deposited with the CCDC.	2024-07-12 downloaded from the CCDC.
;

_audit_creation_date             2003-11-11T22:16:16-00:00
_audit_creation_method           'WinGX routine CIF_UPDATE'
_audit_conform_dict_name         cif_core.dic
_audit_conform_dict_version      2.2
_audit_conform_dict_location     ftp://ftp.iucr.org/pub/cif_core.dic

#----------------------------------------------------------------------------#
#                   CHEMICAL INFORMATION                                     #
#----------------------------------------------------------------------------#

_chemical_name_systematic        
;
?
;
_chemical_formula_moiety         'C54 H30 Cl6 N6 O14 Zn2'
_chemical_formula_sum            'C54 H30 Cl6 N6 O14 Zn2'
_chemical_formula_weight         1330.28
_chemical_compound_source        'synthesis as described'

#----------------------------------------------------------------------------#
#                   UNIT CELL INFORMATION                                    #
#----------------------------------------------------------------------------#

_symmetry_cell_setting           triclinic
_symmetry_space_group_name_H-M   'P -3 1 m'
_symmetry_space_group_name_Hall  '-P 3 2'
_symmetry_Int_Tables_number      162
loop_
_symmetry_equiv_pos_as_xyz
'x, y, z'
'-y, x-y, z'
'-x+y, -x, z'
'-y, -x, -z'
'x, x-y, -z'
'-x+y, y, -z'
'-x, -y, -z'
'y, -x+y, -z'
'x-y, x, -z'
'y, x, z'
'-x, -x+y, z'
'x-y, -y, z'

_cell_length_a                   13.7520(6)
_cell_length_b                   13.7520(6)
_cell_length_c                   9.1950(5)
_cell_angle_alpha                90
_cell_angle_beta                 90
_cell_angle_gamma                120
_cell_volume                     1505.96(12)
_cell_formula_units_Z            1
_cell_measurement_temperature    293(2)
_cell_measurement_reflns_used    0
_cell_measurement_theta_min      0
_cell_measurement_theta_max      0
_cell_measurement_wavelength     0.71073

#----------------------------------------------------------------------------#
#                   CRYSTAL INFORMATION                                      #
#----------------------------------------------------------------------------#

_exptl_crystal_description       prism
_exptl_crystal_colour            black
_exptl_crystal_size_max          0.1
_exptl_crystal_size_mid          0.05
_exptl_crystal_size_min          0.05
_exptl_crystal_density_diffrn    1.467
_exptl_crystal_density_method    'not measured'
_exptl_crystal_F_000             670
_exptl_special_details           
;
?
;

#----------------------------------------------------------------------------#
#                   ABSORPTION CORRECTION                                    #
#----------------------------------------------------------------------------#

_exptl_absorpt_coefficient_mu    1.129
_exptl_absorpt_correction_type   none

#----------------------------------------------------------------------------#
#                   DATA COLLECTION                                          #
#----------------------------------------------------------------------------#

_diffrn_ambient_temperature      293(2)
_diffrn_radiation_wavelength     0.71073
_diffrn_radiation_type           MoK\a
_diffrn_radiation_monochromator  graphite
_diffrn_radiation_probe          x-ray
_diffrn_reflns_av_R_equivalents  0.0416
_diffrn_reflns_av_unetI/netI     0.0401
_diffrn_reflns_number            4026
_diffrn_reflns_limit_h_min       -17
_diffrn_reflns_limit_h_max       17
_diffrn_reflns_limit_k_min       -14
_diffrn_reflns_limit_k_max       14
_diffrn_reflns_limit_l_min       -11
_diffrn_reflns_limit_l_max       11
_diffrn_reflns_theta_min         4.08
_diffrn_reflns_theta_max         27.47
_diffrn_reflns_theta_full        27.47
_diffrn_measured_fraction_theta_full 0.994
_diffrn_measured_fraction_theta_max 0.994
_reflns_number_total             1234
_reflns_number_gt                987
_reflns_threshold_expression     >2sigma(I)

#----------------------------------------------------------------------------#
#                   COMPUTER PROGRAMS USED                                   #
#----------------------------------------------------------------------------#

_computing_data_collection       'Collect (Nonius BV, 1997-2000)'
_computing_cell_refinement       'HKL Scalepack (Otwinowski & Minor 1997)'
_computing_data_reduction        
'HKL Denzo and Scalepack (Otwinowski & Minor 1997)'
_computing_structure_solution    'SHELXS-97 (Sheldrick, 1997)'
_computing_structure_refinement  'SHELXL-97 (Sheldrick, 1997)'
_computing_molecular_graphics    'Ortep-3 for Windows (Farrugia, 1997)'
_computing_publication_material  'WinGX publication routines (Farrugia, 1999)'

#----------------------------------------------------------------------------#
#                   REFINEMENT INFORMATION                                   #
#----------------------------------------------------------------------------#

_refine_special_details          
;
Refinement of F^2^ against ALL reflections.  The weighted R-factor wR and
goodness of fit S are based on F^2^, conventional R-factors R are based
on F, with F set to zero for negative F^2^. The threshold expression of
F^2^ > 2sigma(F^2^) is used only for calculating R-factors(gt) etc. and is
not relevant to the choice of reflections for refinement.  R-factors based
on F^2^ are statistically about twice as large as those based on F, and R-
factors based on ALL data will be even larger.
;
_refine_ls_structure_factor_coef Fsqd
_refine_ls_matrix_type           full
_refine_ls_weighting_scheme      calc
_refine_ls_weighting_details     
'calc w=1/[\s^2^(Fo^2^)+(0.1019P)^2^+1.2233P] where P=(Fo^2^+2Fc^2^)/3'
_atom_sites_solution_primary     direct
_atom_sites_solution_secondary   difmap
_atom_sites_solution_hydrogens   geom
_refine_ls_hydrogen_treatment    mixed
_refine_ls_extinction_method     SHELXL
_refine_ls_extinction_expression Fc^*^=kFc[1+0.001xFc^2^\l^3^/sin(2\q)]^-1/4^
_refine_ls_extinction_coef       0.038(8)
_refine_ls_number_reflns         1234
_refine_ls_number_parameters     70
_refine_ls_number_restraints     0
_refine_ls_R_factor_all          0.0731
_refine_ls_R_factor_gt           0.0598
_refine_ls_wR_factor_ref         0.1973
_refine_ls_wR_factor_gt          0.1862
_refine_ls_goodness_of_fit_ref   1.195
_refine_ls_restrained_S_all      1.195
_refine_ls_shift/su_max          0
_refine_ls_shift/su_mean         0
_refine_diff_density_max         1.202
_refine_diff_density_min         -0.375
_refine_diff_density_rms         0.148

#----------------------------------------------------------------------------#
#                   ATOMIC TYPES, COORDINATES AND THERMAL PARAMETERS         #
#----------------------------------------------------------------------------#

loop_
_atom_type_symbol
_atom_type_description
_atom_type_scat_dispersion_real
_atom_type_scat_dispersion_imag
_atom_type_scat_source
C C 0.0033 0.0016 'International Tables Vol C Tables 4.2.6.8 and 6.1.1.4'
H H 0 0 'International Tables Vol C Tables 4.2.6.8 and 6.1.1.4'
Cl Cl 0.1484 0.1585 'International Tables Vol C Tables 4.2.6.8 and 6.1.1.4'
Zn Zn 0.2839 1.4301 'International Tables Vol C Tables 4.2.6.8 and 6.1.1.4'
N N 0.0061 0.0033 'International Tables Vol C Tables 4.2.6.8 and 6.1.1.4'
O O 0.0106 0.006 'International Tables Vol C Tables 4.2.6.8 and 6.1.1.4'

loop_
_atom_site_label
_atom_site_type_symbol
_atom_site_fract_x
_atom_site_fract_y
_atom_site_fract_z
_atom_site_U_iso_or_equiv
_atom_site_adp_type
_atom_site_occupancy
_atom_site_symmetry_multiplicity
_atom_site_calc_flag
_atom_site_refinement_flags
_atom_site_disorder_assembly
_atom_site_disorder_group
Zn1 Zn 0.3333 0.6667 0 0.0353(4) Uani 1 6 d S . .
Cl1 Cl 0 0.33603(10) 0.24392(16) 0.0471(5) Uani 1 2 d S . .
O1 O 0.1963(2) 0.5383(2) 0.1122(3) 0.0419(7) Uani 1 1 d . . .
C1 C 0.1021(3) 0.5136(3) 0.0627(4) 0.0349(8) Uani 1 1 d . . .
C2 C 0 0.4257(4) 0.1107(5) 0.0362(11) Uani 1 2 d S . .
C3 C 0.0597(3) 0.5923(3) 0.4149(4) 0.0459(10) Uani 1 1 d . . .
C5 C 0.0586(5) 0.7201(5) 0.2385(5) 0.0653(14) Uani 1 1 d . . .
H5 H 0.0968 0.7819 0.1778 0.078 Uiso 1 1 calc R . .
C4 C 0.1183(4) 0.6886(4) 0.3255(5) 0.0544(11) Uani 1 1 d . . .
H4 H 0.1963 0.7297 0.3263 0.065 Uiso 1 1 calc R . .
N1 N 0.1165(4) 0.5583(2) 0.5 0.0504(12) Uani 1 2 d S . .
O2 O 0.3333 0.6667 0.5 0.117(6) Uani 1 6 d S . .
H3 H 0.239(8) 0.620(4) 0.5 0.11(3) Uiso 1 2 d S . .

loop_
_atom_site_aniso_label
_atom_site_aniso_U_11
_atom_site_aniso_U_22
_atom_site_aniso_U_33
_atom_site_aniso_U_23
_atom_site_aniso_U_13
_atom_site_aniso_U_12
Zn1 0.0273(7) 0.026 0.0518(7) 0 0 0.013
Cl1 0.0414(8) 0.0452(6) 0.0541(9) 0.0151(5) 0 0.021
O1 0.0266(13) 0.0420(15) 0.0549(16) 0.0102(11) -0.0026(11) 0.0155(12)
C1 0.0318(18) 0.0307(17) 0.0422(19) 0.0012(14) -0.0010(14) 0.0154(14)
C2 0.031(2) 0.0349(19) 0.041(3) 0.0066(18) 0 0.0157(12)
C3 0.040(2) 0.047(2) 0.047(2) -0.0035(17) -0.0001(16) 0.0185(18)
C5 0.069(3) 0.061(3) 0.067(3) 0.010(2) 0.005(2) 0.033(3)
C4 0.048(2) 0.050(2) 0.058(3) 0.0016(19) 0.0051(19) 0.019(2)
N1 0.036(3) 0.054(2) 0.055(3) -0.001(2) 0 0.0182(13)
O2 0.051(4) 0.051(4) 0.249(18) 0 0 0.0255(19)


#----------------------------------------------------------------------------#
#                   MOLECULAR GEOMETRY                                       #
#----------------------------------------------------------------------------#

_geom_special_details            
;
All esds (except the esd in the dihedral angle between two l.s. planes)
are estimated using the full covariance matrix.  The cell esds are taken
into account individually in the estimation of esds in distances, angles
and torsion angles; correlations between esds in cell parameters are only
used when they are defined by crystal symmetry.  An approximate (isotropic)
treatment of cell esds is used for estimating esds involving l.s. planes.
;
loop_
_geom_bond_atom_site_label_1
_geom_bond_atom_site_label_2
_geom_bond_distance
_geom_bond_site_symmetry_2
_geom_bond_publ_flag
Zn1 O1 2.099(3) 5_565 ?
Zn1 O1 2.099(3) 3_565 ?
Zn1 O1 2.099(3) . ?
Zn1 O1 2.099(3) 4_665 ?
Zn1 O1 2.099(3) 2_665 ?
Zn1 O1 2.099(3) 6 ?
Cl1 C2 1.738(5) . ?
O1 C1 1.250(4) . ?
C1 C2 1.389(4) . ?
C1 C1 1.546(7) 5_565 ?
C2 C1 1.389(4) 11 ?
C3 N1 1.345(5) . ?
C3 C4 1.418(6) . ?
C3 C3 1.421(8) 11 ?
C5 C4 1.362(7) . ?
C5 C5 1.396(12) 11 ?
C5 H5 0.93 . ?
C4 H4 0.93 . ?
N1 C3 1.345(5) 5_566 ?
N1 H3 1.46(9) . ?
O2 H3 1.12(9) . ?

loop_
_geom_angle_atom_site_label_1
_geom_angle_atom_site_label_2
_geom_angle_atom_site_label_3
_geom_angle
_geom_angle_site_symmetry_1
_geom_angle_site_symmetry_3
_geom_angle_publ_flag
O1 Zn1 O1 86.48(16) 5_565 3_565 ?
O1 Zn1 O1 77.96(13) 5_565 . ?
O1 Zn1 O1 97.90(10) 3_565 . ?
O1 Zn1 O1 97.90(10) 5_565 4_665 ?
O1 Zn1 O1 77.95(13) 3_565 4_665 ?
O1 Zn1 O1 174.40(14) . 4_665 ?
O1 Zn1 O1 174.39(14) 5_565 2_665 ?
O1 Zn1 O1 97.90(10) 3_565 2_665 ?
O1 Zn1 O1 97.90(10) . 2_665 ?
O1 Zn1 O1 86.48(16) 4_665 2_665 ?
O1 Zn1 O1 97.90(10) 5_565 6 ?
O1 Zn1 O1 174.39(14) 3_565 6 ?
O1 Zn1 O1 86.48(16) . 6 ?
O1 Zn1 O1 97.90(10) 4_665 6 ?
O1 Zn1 O1 77.95(13) 2_665 6 ?
C1 O1 Zn1 115.0(2) . . ?
O1 C1 C2 125.5(3) . . ?
O1 C1 C1 115.8(2) . 5_565 ?
C2 C1 C1 118.7(2) . 5_565 ?
C1 C2 C1 122.1(4) 11 . ?
C1 C2 Cl1 118.9(2) 11 . ?
C1 C2 Cl1 118.9(2) . . ?
N1 C3 C4 120.3(4) . . ?
N1 C3 C3 120.2(3) . 11 ?
C4 C3 C3 119.5(3) . 11 ?
C4 C5 C5 121.4(3) . 11 ?
C4 C5 H5 119.3 . . ?
C5 C5 H5 119.3 11 . ?
C5 C4 C3 119.0(5) . . ?
C5 C4 H4 120.5 . . ?
C3 C4 H4 120.5 . . ?
C3 N1 C3 119.6(5) . 5_566 ?
C3 N1 H3 120.2(3) . . ?
C3 N1 H3 120.2(3) 5_566 . ?
