####################################################################### 
# 
# This file contains crystal structure data downloaded from the 
# Cambridge Structural Database (CSD) hosted by the Cambridge 
# Crystallographic Data Centre (CCDC).
# 
# Full information about CCDC data access policies and citation 
# guidelines are available at http://www.ccdc.cam.ac.uk/access/V1 
# 
# Audit and citation data items may have been added by the CCDC. 
# Please retain this information to preserve the provenance of 
# this file and to allow appropriate attribution of the data. 
# 
#######################################################################

data_rou126cu
_audit_block_doi                 10.5517/cc7x0pt
_database_code_depnum_ccdc_archive 'CCDC 235466'
loop_
_citation_id
_citation_doi
_citation_year
1 10.1002/ejic.200400199 2004
_audit_update_record             
;
2004-04-03 deposited with the CCDC.	2024-07-12 downloaded from the CCDC.
;

_audit_creation_date             2003-11-11T20:51:26-00:00
_audit_creation_method           'WinGX routine CIF_UPDATE'
_audit_conform_dict_name         cif_core.dic
_audit_conform_dict_version      2.2
_audit_conform_dict_location     ftp://ftp.iucr.org/pub/cif_core.dic

#----------------------------------------------------------------------------#
#                   CHEMICAL INFORMATION                                     #
#----------------------------------------------------------------------------#

_chemical_name_systematic        
;
?
;
_chemical_formula_moiety         'C54 H30 Cl6 Cu2 N6 O14'
_chemical_formula_sum            'C60 H46 Cl6 Cu2 N6 O18'
_chemical_formula_weight         1478.81
_chemical_compound_source        'synthesis as described'

#----------------------------------------------------------------------------#
#                   UNIT CELL INFORMATION                                    #
#----------------------------------------------------------------------------#

_symmetry_cell_setting           trigonal
_symmetry_space_group_name_H-M   'P -3 1 m'
_symmetry_space_group_name_Hall  '-P 3 2'
_symmetry_Int_Tables_number      162
loop_
_symmetry_equiv_pos_as_xyz
'x, y, z'
'-y, x-y, z'
'-x+y, -x, z'
'-y, -x, -z'
'x, x-y, -z'
'-x+y, y, -z'
'-x, -y, -z'
'y, -x+y, -z'
'x-y, x, -z'
'y, x, z'
'-x, -x+y, z'
'x-y, -y, z'

_cell_length_a                   13.7593(2)
_cell_length_b                   13.7592(2)
_cell_length_c                   9.1869(2)
_cell_angle_alpha                90
_cell_angle_beta                 90
_cell_angle_gamma                120
_cell_volume                     1506.22(5)
_cell_formula_units_Z            1
_cell_measurement_temperature    293(2)
_cell_measurement_reflns_used    10349
_cell_measurement_theta_min      4.076
_cell_measurement_theta_max      27.485
_cell_measurement_wavelength     0.71073

#----------------------------------------------------------------------------#
#                   CRYSTAL INFORMATION                                      #
#----------------------------------------------------------------------------#

_exptl_crystal_description       prism
_exptl_crystal_colour            black
_exptl_crystal_size_max          0.38
_exptl_crystal_size_mid          0.38
_exptl_crystal_size_min          0.18
_exptl_crystal_density_diffrn    1.63
_exptl_crystal_density_method    'not measured'
_exptl_crystal_F_000             752
_exptl_special_details           
;
?
;

#----------------------------------------------------------------------------#
#                   ABSORPTION CORRECTION                                    #
#----------------------------------------------------------------------------#

_exptl_absorpt_coefficient_mu    1.052
_exptl_absorpt_correction_type   multi-scan
_exptl_absorpt_process_details   
;
[c.f. r.h. blessing, acta cryst. (1995), a51, 33-38]
;
_exptl_absorpt_correction_T_min  0.6348
_exptl_absorpt_correction_T_max  0.77

#----------------------------------------------------------------------------#
#                   DATA COLLECTION                                          #
#----------------------------------------------------------------------------#

_diffrn_source                   'Enraf Nonius FR590'
_diffrn_ambient_temperature      293(2)
_diffrn_radiation_wavelength     0.71073
_diffrn_radiation_type           MoK\a
_diffrn_radiation_monochromator  graphite
_diffrn_radiation_probe          x-ray
_diffrn_detector                 'CCD plate'
_diffrn_orient_matrix_type       'by Nonius Collect from scalepack cell'
_diffrn_orient_matrix_ub_11      0.476358E-1
_diffrn_orient_matrix_ub_12      0.786592E-1
_diffrn_orient_matrix_ub_13      0.358426E-1
_diffrn_orient_matrix_ub_21      0.131796E-1
_diffrn_orient_matrix_ub_22      0.27912E-1
_diffrn_orient_matrix_ub_23      -0.102647
_diffrn_orient_matrix_ub_31      -0.678229E-1
_diffrn_orient_matrix_ub_32      0.87497E-2
_diffrn_orient_matrix_ub_33      0.52275E-2
_diffrn_measurement_device       '95mm CCD camera on \k-goniostat'
_diffrn_measurement_device_type  KappaCCD
_diffrn_measurement_method       'CCD rotation images, thick slices'
_diffrn_reflns_av_R_equivalents  0.0381
_diffrn_reflns_av_unetI/netI     0.0316
_diffrn_reflns_number            4953
_diffrn_reflns_limit_h_min       -11
_diffrn_reflns_limit_h_max       15
_diffrn_reflns_limit_k_min       -11
_diffrn_reflns_limit_k_max       16
_diffrn_reflns_limit_l_min       -11
_diffrn_reflns_limit_l_max       8
_diffrn_reflns_theta_min         4.44
_diffrn_reflns_theta_max         27.48
_diffrn_reflns_theta_full        27.48
_diffrn_measured_fraction_theta_full 0.992
_diffrn_measured_fraction_theta_max 0.992
_reflns_number_total             1233
_reflns_number_gt                1069
_reflns_threshold_expression     >2sigma(I)

#----------------------------------------------------------------------------#
#                   COMPUTER PROGRAMS USED                                   #
#----------------------------------------------------------------------------#

_computing_data_collection       'Collect (Nonius BV, 1997-2000)'
_computing_cell_refinement       'HKL Scalepack (Otwinowski & Minor 1997)'
_computing_data_reduction        
'HKL Denzo and Scalepack (Otwinowski & Minor 1997)'
_computing_structure_solution    'SHELXS-97 (Sheldrick, 1997)'
_computing_structure_refinement  'SHELXL-97 (Sheldrick, 1997)'
_computing_molecular_graphics    'Ortep-3 for Windows (Farrugia, 1997)'
_computing_publication_material  'WinGX publication routines (Farrugia, 1999)'

#----------------------------------------------------------------------------#
#                   REFINEMENT INFORMATION                                   #
#----------------------------------------------------------------------------#

_refine_special_details          
;
Refinement of F^2^ against ALL reflections.  The weighted R-factor wR and
goodness of fit S are based on F^2^, conventional R-factors R are based
on F, with F set to zero for negative F^2^. The threshold expression of
F^2^ > 2sigma(F^2^) is used only for calculating R-factors(gt) etc. and is
not relevant to the choice of reflections for refinement.  R-factors based
on F^2^ are statistically about twice as large as those based on F, and R-
factors based on ALL data will be even larger.
;
_refine_ls_structure_factor_coef Fsqd
_refine_ls_matrix_type           full
_refine_ls_weighting_scheme      calc
_refine_ls_weighting_details     
'calc w=1/[\s^2^(Fo^2^)+(0.1094P)^2^+1.0070P] where P=(Fo^2^+2Fc^2^)/3'
_atom_sites_solution_primary     direct
_atom_sites_solution_secondary   difmap
_atom_sites_solution_hydrogens   geom
_refine_ls_hydrogen_treatment    mixed
_refine_ls_extinction_method     SHELXL
_refine_ls_extinction_expression Fc^*^=kFc[1+0.001xFc^2^\l^3^/sin(2\q)]^-1/4^
_refine_ls_extinction_coef       0.021(8)
_refine_ls_number_reflns         1233
_refine_ls_number_parameters     70
_refine_ls_number_restraints     0
_refine_ls_R_factor_all          0.0585
_refine_ls_R_factor_gt           0.0522
_refine_ls_wR_factor_ref         0.2017
_refine_ls_wR_factor_gt          0.1973
_refine_ls_goodness_of_fit_ref   1.29
_refine_ls_restrained_S_all      1.29
_refine_ls_shift/su_max          0
_refine_ls_shift/su_mean         0
_refine_diff_density_max         1.247
_refine_diff_density_min         -0.454
_refine_diff_density_rms         0.143

#----------------------------------------------------------------------------#
#                   ATOMIC TYPES, COORDINATES AND THERMAL PARAMETERS         #
#----------------------------------------------------------------------------#

loop_
_atom_type_symbol
_atom_type_description
_atom_type_scat_dispersion_real
_atom_type_scat_dispersion_imag
_atom_type_scat_source
Cu Cu 0.3201 1.2651 'International Tables Vol C Tables 4.2.6.8 and 6.1.1.4'
Cl Cl 0.1484 0.1585 'International Tables Vol C Tables 4.2.6.8 and 6.1.1.4'
C C 0.0033 0.0016 'International Tables Vol C Tables 4.2.6.8 and 6.1.1.4'
O O 0.0106 0.006 'International Tables Vol C Tables 4.2.6.8 and 6.1.1.4'
N N 0.0061 0.0033 'International Tables Vol C Tables 4.2.6.8 and 6.1.1.4'
H H 0 0 'International Tables Vol C Tables 4.2.6.8 and 6.1.1.4'

loop_
_atom_site_label
_atom_site_type_symbol
_atom_site_fract_x
_atom_site_fract_y
_atom_site_fract_z
_atom_site_U_iso_or_equiv
_atom_site_adp_type
_atom_site_occupancy
_atom_site_symmetry_multiplicity
_atom_site_calc_flag
_atom_site_refinement_flags
_atom_site_disorder_assembly
_atom_site_disorder_group
Cu1 Cu 0.6667 0.3333 0 0.0280(4) Uani 1 6 d S . .
Cl1 Cl 0.33580(9) 0 -0.24230(15) 0.0487(5) Uani 1 2 d S . .
C1 C 0.5134(3) 0.1025(2) -0.0615(3) 0.0308(7) Uani 1 1 d . . .
C2 C 0.4256(3) 0 -0.1100(5) 0.0319(9) Uani 1 2 d S . .
C3 C 0.4674(3) 0.4073(3) -0.4151(3) 0.0345(7) Uani 1 1 d . . .
C4 C 0.4303(3) 0.3117(3) -0.3246(4) 0.0440(9) Uani 1 1 d . . .
H4 H 0.4681 0.2714 -0.3241 0.053 Uiso 1 1 calc R . .
C5 C 0.3386(3) 0.2797(4) -0.2386(4) 0.0530(11) Uani 1 1 d . . .
H5 H 0.3145 0.2174 -0.1785 0.064 Uiso 1 1 calc R . .
O1 O 0.5372(2) 0.1968(2) -0.1091(3) 0.0426(7) Uani 1 1 d . . .
O2 O 0.6667 0.3333 -0.5 0.104(5) Uani 1 6 d S . .
N1 N 0.55832(15) 0.44168(15) -0.5 0.0358(9) Uani 1 2 d S . .
H3 H 0.628(3) 0.372(3) -0.5 0.09(3) Uiso 1 2 d S . .

loop_
_atom_site_aniso_label
_atom_site_aniso_U_11
_atom_site_aniso_U_22
_atom_site_aniso_U_33
_atom_site_aniso_U_23
_atom_site_aniso_U_13
_atom_site_aniso_U_12
Cu1 0.0203(4) 0.0203(4) 0.0433(7) 0 0 0.0102(2)
Cl1 0.0444(6) 0.0581(9) 0.0481(8) 0 -0.0113(4) 0.0291(4)
C1 0.0305(15) 0.0251(14) 0.0376(16) 0.0024(11) 0.0040(12) 0.0146(12)
C2 0.0312(16) 0.031(2) 0.034(2) 0 -0.0037(15) 0.0154(11)
C3 0.0361(16) 0.0362(16) 0.0379(16) -0.0017(13) -0.0028(13) 0.0231(14)
C4 0.048(2) 0.0388(18) 0.051(2) 0.0052(15) 0.0000(17) 0.0261(16)
C5 0.052(2) 0.045(2) 0.059(2) 0.0134(18) 0.0073(17) 0.0222(18)
O1 0.0453(14) 0.0275(12) 0.0570(16) 0.0103(10) 0.0039(11) 0.0197(11)
O2 0.030(2) 0.030(2) 0.252(16) 0 0 0.0148(12)
N1 0.0369(15) 0.0369(15) 0.042(2) -0.0004(14) -0.0004(14) 0.0251(17)


#----------------------------------------------------------------------------#
#                   MOLECULAR GEOMETRY                                       #
#----------------------------------------------------------------------------#

_geom_special_details            
;
All esds (except the esd in the dihedral angle between two l.s. planes)
are estimated using the full covariance matrix.  The cell esds are taken
into account individually in the estimation of esds in distances, angles
and torsion angles; correlations between esds in cell parameters are only
used when they are defined by crystal symmetry.  An approximate (isotropic)
treatment of cell esds is used for estimating esds involving l.s. planes.
;
loop_
_geom_bond_atom_site_label_1
_geom_bond_atom_site_label_2
_geom_bond_distance
_geom_bond_site_symmetry_2
_geom_bond_publ_flag
Cu1 O1 2.088(3) 6_655 ?
Cu1 O1 2.088(3) . ?
Cu1 O1 2.088(3) 4_665 ?
Cu1 O1 2.088(3) 3_665 ?
Cu1 O1 2.088(3) 2_655 ?
Cu1 O1 2.088(3) 5 ?
Cl1 C2 1.734(4) . ?
C1 O1 1.247(4) . ?
C1 C2 1.394(4) . ?
C1 C1 1.536(6) 6_655 ?
C2 C1 1.394(4) 12 ?
C3 N1 1.344(4) . ?
C3 C4 1.418(5) . ?
C3 C3 1.432(6) 10 ?
C4 C5 1.362(5) . ?
C4 H4 0.93 . ?
C5 C5 1.405(9) 10 ?
C5 H5 0.93 . ?
O2 H3 0.92(8) . ?
N1 C3 1.344(4) 4_664 ?

loop_
_geom_angle_atom_site_label_1
_geom_angle_atom_site_label_2
_geom_angle_atom_site_label_3
_geom_angle
_geom_angle_site_symmetry_1
_geom_angle_site_symmetry_3
_geom_angle_publ_flag
O1 Cu1 O1 77.61(12) 6_655 . ?
O1 Cu1 O1 98.90(9) 6_655 4_665 ?
O1 Cu1 O1 175.35(13) . 4_665 ?
O1 Cu1 O1 175.35(13) 6_655 3_665 ?
O1 Cu1 O1 98.90(9) . 3_665 ?
O1 Cu1 O1 84.75(14) 4_665 3_665 ?
O1 Cu1 O1 84.75(14) 6_655 2_655 ?
O1 Cu1 O1 98.90(9) . 2_655 ?
O1 Cu1 O1 77.61(12) 4_665 2_655 ?
O1 Cu1 O1 98.90(9) 3_665 2_655 ?
O1 Cu1 O1 98.90(9) 6_655 5 ?
O1 Cu1 O1 84.75(14) . 5 ?
O1 Cu1 O1 98.90(9) 4_665 5 ?
O1 Cu1 O1 77.61(12) 3_665 5 ?
O1 Cu1 O1 175.35(13) 2_655 5 ?
O1 C1 C2 125.7(3) . . ?
O1 C1 C1 115.62(19) . 6_655 ?
C2 C1 C1 118.7(2) . 6_655 ?
C1 C2 C1 122.4(4) 12 . ?
C1 C2 Cl1 118.8(2) 12 . ?
C1 C2 Cl1 118.8(2) . . ?
N1 C3 C4 120.4(3) . . ?
N1 C3 C3 120.10(19) . 10 ?
C4 C3 C3 119.5(2) . 10 ?
C5 C4 C3 119.1(4) . . ?
C5 C4 H4 120.5 . . ?
C3 C4 H4 120.5 . . ?
C4 C5 C5 121.5(2) . 10 ?
C4 C5 H5 119.3 . . ?
C5 C5 H5 119.3 10 . ?
C1 O1 Cu1 115.4(2) . . ?
C3 N1 C3 119.8(4) 4_664 . ?
