####################################################################### 
# 
# This file contains crystal structure data downloaded from the 
# Cambridge Structural Database (CSD) hosted by the Cambridge 
# Crystallographic Data Centre (CCDC).
# 
# Full information about CCDC data access policies and citation 
# guidelines are available at http://www.ccdc.cam.ac.uk/access/V1 
# 
# Audit and citation data items may have been added by the CCDC. 
# Please retain this information to preserve the provenance of 
# this file and to allow appropriate attribution of the data. 
# 
#######################################################################

data_rou126co
_audit_block_doi                 10.5517/cc7x0ty
_database_code_depnum_ccdc_archive 'CCDC 235470'
loop_
_citation_id
_citation_doi
_citation_year
1 10.1002/ejic.200400199 2004
_audit_update_record             
;
2004-04-03 deposited with the CCDC.	2024-07-12 downloaded from the CCDC.
;

_audit_creation_date             2003-11-11T21:56:51-00:00
_audit_creation_method           'WinGX routine CIF_UPDATE'
_audit_conform_dict_name         cif_core.dic
_audit_conform_dict_version      2.2
_audit_conform_dict_location     ftp://ftp.iucr.org/pub/cif_core.dic

#----------------------------------------------------------------------------#
#                   CHEMICAL INFORMATION                                     #
#----------------------------------------------------------------------------#

_chemical_name_systematic        
;
?
;
_chemical_formula_moiety         'C54 H30 Cl6 Co2 N6 O14'
_chemical_formula_sum            'C54 H30 Cl6 Co2 Cu0 N6 O14'
_chemical_formula_weight         1317.4
_chemical_compound_source        'synthesis as described'

#----------------------------------------------------------------------------#
#                   UNIT CELL INFORMATION                                    #
#----------------------------------------------------------------------------#

_symmetry_cell_setting           trigonal
_symmetry_space_group_name_H-M   'P -3 1 m'
_symmetry_space_group_name_Hall  '-P 3 2'
_symmetry_Int_Tables_number      162
loop_
_symmetry_equiv_pos_as_xyz
'x, y, z'
'-y, x-y, z'
'-x+y, -x, z'
'-y, -x, -z'
'x, x-y, -z'
'-x+y, y, -z'
'-x, -y, -z'
'y, -x+y, -z'
'x-y, x, -z'
'y, x, z'
'-x, -x+y, z'
'x-y, -y, z'

_cell_length_a                   13.7930(8)
_cell_length_b                   13.7930(8)
_cell_length_c                   9.1310(7)
_cell_angle_alpha                90
_cell_angle_beta                 90
_cell_angle_gamma                120
_cell_volume                     1504.41(17)
_cell_formula_units_Z            1
_cell_measurement_temperature    293(2)
_cell_measurement_reflns_used    0
_cell_measurement_theta_min      0
_cell_measurement_theta_max      0
_cell_measurement_wavelength     0.71073

#----------------------------------------------------------------------------#
#                   CRYSTAL INFORMATION                                      #
#----------------------------------------------------------------------------#

_exptl_crystal_description       prism
_exptl_crystal_colour            black
_exptl_crystal_size_max          0.05
_exptl_crystal_size_mid          0.03
_exptl_crystal_size_min          0.03
_exptl_crystal_density_diffrn    1.454
_exptl_crystal_density_method    'not measured'
_exptl_crystal_F_000             664
_exptl_special_details           
;
?
;

#----------------------------------------------------------------------------#
#                   ABSORPTION CORRECTION                                    #
#----------------------------------------------------------------------------#

_exptl_absorpt_coefficient_mu    0.884
_exptl_absorpt_correction_type   none

#----------------------------------------------------------------------------#
#                   DATA COLLECTION                                          #
#----------------------------------------------------------------------------#

_diffrn_ambient_temperature      293(2)
_diffrn_radiation_wavelength     0.71073
_diffrn_radiation_type           MoK\a
_diffrn_radiation_monochromator  graphite
_diffrn_radiation_probe          x-ray
_diffrn_reflns_av_R_equivalents  0.1051
_diffrn_reflns_av_unetI/netI     0.0896
_diffrn_reflns_number            3835
_diffrn_reflns_limit_h_min       -17
_diffrn_reflns_limit_h_max       17
_diffrn_reflns_limit_k_min       -14
_diffrn_reflns_limit_k_max       14
_diffrn_reflns_limit_l_min       -11
_diffrn_reflns_limit_l_max       10
_diffrn_reflns_theta_min         6.83
_diffrn_reflns_theta_max         27.47
_diffrn_reflns_theta_full        27.47
_diffrn_measured_fraction_theta_full 0.977
_diffrn_measured_fraction_theta_max 0.977
_reflns_number_total             1211
_reflns_number_gt                756
_reflns_threshold_expression     >2sigma(I)

#----------------------------------------------------------------------------#
#                   COMPUTER PROGRAMS USED                                   #
#----------------------------------------------------------------------------#

_computing_data_collection       'Collect (Nonius BV, 1997-2000)'
_computing_cell_refinement       'HKL Scalepack (Otwinowski & Minor 1997)'
_computing_data_reduction        
'HKL Denzo and Scalepack (Otwinowski & Minor 1997)'
_computing_structure_solution    'SHELXS-97 (Sheldrick, 1997)'
_computing_structure_refinement  'SHELXL-97 (Sheldrick, 1997)'
_computing_molecular_graphics    'Ortep-3 for Windows (Farrugia, 1997)'
_computing_publication_material  'WinGX publication routines (Farrugia, 1999)'

#----------------------------------------------------------------------------#
#                   REFINEMENT INFORMATION                                   #
#----------------------------------------------------------------------------#

_refine_special_details          
;
Refinement of F^2^ against ALL reflections.  The weighted R-factor wR and
goodness of fit S are based on F^2^, conventional R-factors R are based
on F, with F set to zero for negative F^2^. The threshold expression of
F^2^ > 2sigma(F^2^) is used only for calculating R-factors(gt) etc. and is
not relevant to the choice of reflections for refinement.  R-factors based
on F^2^ are statistically about twice as large as those based on F, and R-
factors based on ALL data will be even larger.
;
_refine_ls_structure_factor_coef Fsqd
_refine_ls_matrix_type           full
_refine_ls_weighting_scheme      calc
_refine_ls_weighting_details     
'calc w=1/[\s^2^(Fo^2^)+(0.0858P)^2^+1.7582P] where P=(Fo^2^+2Fc^2^)/3'
_atom_sites_solution_primary     direct
_atom_sites_solution_secondary   difmap
_atom_sites_solution_hydrogens   geom
_refine_ls_hydrogen_treatment    mixed
_refine_ls_extinction_method     SHELXL
_refine_ls_extinction_expression Fc^*^=kFc[1+0.001xFc^2^\l^3^/sin(2\q)]^-1/4^
_refine_ls_extinction_coef       0.012(5)
_refine_ls_number_reflns         1211
_refine_ls_number_parameters     67
_refine_ls_number_restraints     0
_refine_ls_R_factor_all          0.1158
_refine_ls_R_factor_gt           0.0669
_refine_ls_wR_factor_ref         0.1907
_refine_ls_wR_factor_gt          0.1635
_refine_ls_goodness_of_fit_ref   1.021
_refine_ls_restrained_S_all      1.021
_refine_ls_shift/su_max          0
_refine_ls_shift/su_mean         0
_refine_diff_density_max         0.741
_refine_diff_density_min         -1.067
_refine_diff_density_rms         0.09

#----------------------------------------------------------------------------#
#                   ATOMIC TYPES, COORDINATES AND THERMAL PARAMETERS         #
#----------------------------------------------------------------------------#

loop_
_atom_type_symbol
_atom_type_description
_atom_type_scat_dispersion_real
_atom_type_scat_dispersion_imag
_atom_type_scat_source
C C 0.0033 0.0016 'International Tables Vol C Tables 4.2.6.8 and 6.1.1.4'
H H 0 0 'International Tables Vol C Tables 4.2.6.8 and 6.1.1.4'
Cl Cl 0.1484 0.1585 'International Tables Vol C Tables 4.2.6.8 and 6.1.1.4'
Co Co 0.3494 0.9721 'International Tables Vol C Tables 4.2.6.8 and 6.1.1.4'
N N 0.0061 0.0033 'International Tables Vol C Tables 4.2.6.8 and 6.1.1.4'
O O 0.0106 0.006 'International Tables Vol C Tables 4.2.6.8 and 6.1.1.4'
Cu Cu 0.3201 1.2651 'International Tables Vol C Tables 4.2.6.8 and 6.1.1.4'

loop_
_atom_site_label
_atom_site_type_symbol
_atom_site_fract_x
_atom_site_fract_y
_atom_site_fract_z
_atom_site_U_iso_or_equiv
_atom_site_adp_type
_atom_site_occupancy
_atom_site_symmetry_multiplicity
_atom_site_calc_flag
_atom_site_refinement_flags
_atom_site_disorder_assembly
_atom_site_disorder_group
Co1 Co 0.6667 0.3333 0 0.0301(5) Uani 1 6 d S . .
Cl1 Cl 0.33499(12) 0 0.24295(18) 0.0405(5) Uani 1 2 d S . .
O1 O 0.5367(3) 0.1968(2) 0.1102(3) 0.0348(8) Uani 1 1 d . . .
C1 C 0.5137(4) 0.1023(4) 0.0615(5) 0.0300(10) Uani 1 1 d . . .
N1 N 0.556 0.112 0.5 0.0400(14) Uani 1 2 d S . .
C2 C 0.4261(5) 0 0.1124(7) 0.0323(14) Uani 1 2 d S . .
C3 C 0.5923(4) 0.0596(4) 0.4145(5) 0.0373(11) Uani 1 1 d . . .
C4 C 0.4303(5) 0.3120(4) 0.3240(6) 0.0441(12) Uani 1 1 d . . .
H4 H 0.4683 0.2721 0.3227 0.053 Uiso 1 1 calc R . .
C5 C 0.3383(5) 0.2799(5) 0.2390(7) 0.0558(15) Uani 1 1 d . . .
H5 H 0.3135 0.2173 0.1793 0.067 Uiso 1 1 calc R . .
O2 O 0.6667 0.3333 0.5 0.102(6) Uani 1 6 d S . .
H3 H 0.621 0.242 0.5 0.1 Uiso 1 2 d S . .

loop_
_atom_site_aniso_label
_atom_site_aniso_U_11
_atom_site_aniso_U_22
_atom_site_aniso_U_33
_atom_site_aniso_U_23
_atom_site_aniso_U_13
_atom_site_aniso_U_12
Co1 0.0213(6) 0.0213(6) 0.0479(9) 0 0 0.0106(3)
Cl1 0.0191(7) 0.0357(10) 0.0482(9) 0 0.0145(6) 0
O1 0.0328(17) 0.0199(15) 0.0504(18) -0.0028(13) 0.0042(14) 0.0121(13)
C1 0.023(2) 0.028(2) 0.039(2) -0.0006(18) 0.0001(17) 0.0127(18)
N1 0.037(2) 0.034(3) 0.048(3) 0 -0.003(2) 0.0169(15)
C2 0.018(3) 0.026(3) 0.039(3) 0 0.007(2) 0
C3 0.036(3) 0.029(2) 0.046(2) 0.001(2) -0.001(2) 0.016(2)
C4 0.047(3) 0.042(3) 0.049(3) -0.004(2) 0.001(2) 0.026(2)
C5 0.051(3) 0.047(3) 0.062(3) -0.014(3) -0.004(3) 0.019(3)
O2 0.031(3) 0.031(3) 0.243(18) 0 0 0.0156(17)


#----------------------------------------------------------------------------#
#                   MOLECULAR GEOMETRY                                       #
#----------------------------------------------------------------------------#

_geom_special_details            
;
All esds (except the esd in the dihedral angle between two l.s. planes)
are estimated using the full covariance matrix.  The cell esds are taken
into account individually in the estimation of esds in distances, angles
and torsion angles; correlations between esds in cell parameters are only
used when they are defined by crystal symmetry.  An approximate (isotropic)
treatment of cell esds is used for estimating esds involving l.s. planes.
;
loop_
_geom_bond_atom_site_label_1
_geom_bond_atom_site_label_2
_geom_bond_distance
_geom_bond_site_symmetry_2
_geom_bond_publ_flag
Co1 O1 2.096(3) 2_655 ?
Co1 O1 2.096(3) 6_655 ?
Co1 O1 2.097(3) 4_665 ?
Co1 O1 2.097(3) . ?
Co1 O1 2.097(3) 3_665 ?
Co1 O1 2.097(3) 5 ?
Cl1 C2 1.732(6) . ?
O1 C1 1.258(5) . ?
C1 C2 1.401(5) . ?
C1 C1 1.527(8) 6_655 ?
N1 C3 1.320(5) . ?
N1 C3 1.320(5) 6_656 ?
C2 C1 1.401(5) 12 ?
C3 C4 1.419(7) 2_655 ?
C3 C3 1.424(9) 12 ?
C4 C5 1.359(8) . ?
C4 C3 1.419(7) 3_665 ?
C4 H4 0.93 . ?
C5 C5 1.395(13) 10 ?
C5 H5 0.93 . ?
O2 H3 1.091 . ?

loop_
_geom_angle_atom_site_label_1
_geom_angle_atom_site_label_2
_geom_angle_atom_site_label_3
_geom_angle
_geom_angle_site_symmetry_1
_geom_angle_site_symmetry_3
_geom_angle_publ_flag
O1 Co1 O1 84.50(18) 2_655 6_655 ?
O1 Co1 O1 77.84(16) 2_655 4_665 ?
O1 Co1 O1 98.90(11) 6_655 4_665 ?
O1 Co1 O1 98.90(11) 2_655 . ?
O1 Co1 O1 77.84(16) 6_655 . ?
O1 Co1 O1 175.67(17) 4_665 . ?
O1 Co1 O1 98.90(11) 2_655 3_665 ?
O1 Co1 O1 175.66(17) 6_655 3_665 ?
O1 Co1 O1 84.50(18) 4_665 3_665 ?
O1 Co1 O1 98.90(11) . 3_665 ?
O1 Co1 O1 175.66(17) 2_655 5 ?
O1 Co1 O1 98.90(11) 6_655 5 ?
O1 Co1 O1 98.90(11) 4_665 5 ?
O1 Co1 O1 84.50(18) . 5 ?
O1 Co1 O1 77.83(16) 3_665 5 ?
C1 O1 Co1 114.9(3) . . ?
O1 C1 C2 124.8(4) . . ?
O1 C1 C1 116.1(2) . 6_655 ?
C2 C1 C1 119.1(3) . 6_655 ?
C3 N1 C3 123.4(4) . 6_656 ?
C1 C2 C1 121.5(6) 12 . ?
C1 C2 Cl1 119.2(3) 12 . ?
C1 C2 Cl1 119.2(3) . . ?
N1 C3 C4 122.1(4) . 2_655 ?
N1 C3 C3 118.3(2) . 12 ?
C4 C3 C3 119.6(3) 2_655 12 ?
C5 C4 C3 118.6(5) . 3_665 ?
C5 C4 H4 120.7 . . ?
C3 C4 H4 120.7 3_665 . ?
C4 C5 C5 121.8(3) . 10 ?
C4 C5 H5 119.1 . . ?
C5 C5 H5 119.1 10 . ?

