
#######################################################################
#
#                 Cambridge Crystallographic Data Centre
#                                CCDC
#
#######################################################################
#
# If this CIF has been generated from an entry in the Cambridge
# Structural Database, then it will include bibliographic, chemical,
# crystal, experimental, refinement or atomic coordinate data resulting
# from the CCDC's data processing and validation procedures.
#
#######################################################################

data_CSD_CIF_SALIAC
_audit_creation_date 1971-12-31
_audit_creation_method CSD-ConQuest-V1
_database_code_CSD SALIAC
_database_code_depnum_ccdc_archive 'CCDC 1254506'
_chemical_formula_sum 'C7 H6 O3'
_chemical_formula_moiety
;
C7 H6 O3
;
_journal_coeditor_code "IUCr A04697"
_journal_coden_Cambridge 1
_journal_volume 18
_journal_year 1965
_journal_page_first 1053
_journal_name_full 'Acta Crystallogr. '
loop_
_publ_author_name
"M.Sundaralingam"
"L.H.Jensen"
_chemical_name_systematic
;
2-Hydroxybenzoic acid
;
_chemical_name_common
;
Salicylic acid; DrugBank: DB00936; Teaching Subset: Drug Molecules
;
_cell_volume    635.298
_exptl_special_details
;
antiseptic, antiinflammatory, antibacterial, antidiabetic, antipyretic, food 
preservative
No study temperature is reported
;
_diffrn_ambient_temperature ?
_diffrn_special_details
;
The study was carried out at room temperature,in the range 283-303K

;
#These two values have been output from a single CSD field.
_refine_ls_R_factor_gt 0.059
_refine_ls_wR_factor_gt 0.059
_symmetry_cell_setting monoclinic
_symmetry_space_group_name_H-M 'P 21/a'
_symmetry_Int_Tables_number 14
loop_
_symmetry_equiv_pos_site_id
_symmetry_equiv_pos_as_xyz
1 x,y,z
2 1/2-x,1/2+y,-z
3 -x,-y,-z
4 -1/2+x,-1/2-y,z
_cell_length_a 11.52
_cell_length_b 11.21
_cell_length_c 4.92
_cell_angle_alpha 90
_cell_angle_beta 90.83
_cell_angle_gamma 90
_cell_formula_units_Z 4
loop_
_atom_type_symbol
_atom_type_radius_bond
C 0.68
H 0.20
O 0.68
loop_
_atom_site_label
_atom_site_type_symbol
_atom_site_fract_x
_atom_site_fract_y
_atom_site_fract_z
C1 C 0.08361 0.19261 -0.49399
C2 C 0.18470 0.16977 -0.64129
C3 C 0.22036 0.25058 -0.83534
C4 C 0.15721 0.35264 -0.88626
C5 C 0.05729 0.37610 -0.74258
C6 C 0.02141 0.29689 -0.54988
C7 C 0.04504 0.10881 -0.28740
H1 H -0.06920 0.07810 -0.01720
H2 H 0.20960 0.02130 -0.45510
H3 H 0.29360 0.23800 -0.93260
H4 H 0.18010 0.41230 -1.03380
H5 H 0.00850 0.43650 -0.78610
H6 H -0.05110 0.30940 -0.45110
O1 O -0.05050 0.13729 -0.16203
O2 O 0.09881 0.01676 -0.22973
O3 O 0.25092 0.07103 -0.60079
#END
