####################################################################### 
# 
# This file contains crystal structure data downloaded from the 
# Cambridge Structural Database (CSD) hosted by the Cambridge 
# Crystallographic Data Centre (CCDC).
# 
# Full information about CCDC data access policies and citation 
# guidelines are available at http://www.ccdc.cam.ac.uk/access/V1 
# 
# Audit and citation data items may have been added by the CCDC. 
# Please retain this information to preserve the provenance of 
# this file and to allow appropriate attribution of the data. 
# 
#######################################################################

data_DMOF-2,5NH2Br_DMF
_audit_block_doi                 10.5517/ccx9zpv
_database_code_depnum_ccdc_archive 'CCDC 843748'
loop_
_citation_id
_citation_doi
_citation_year
1 10.1002/anie.201106429 2011
2 10.1002/anie.201200730 2012
_audit_update_record             
;
2011-09-10 deposited with the CCDC.	2024-07-12 downloaded from the CCDC.
;

_audit_creation_method           SHELXL-97
_chemical_name_systematic        
;
?
;
_chemical_name_common            ?
_chemical_melting_point          ?
_chemical_formula_moiety         ?
_chemical_formula_sum            'C7.33 H0 Br0.67 N0.67 O2.67 Zn0.67'
_chemical_formula_weight         236.93

loop_
_atom_type_symbol
_atom_type_description
_atom_type_scat_dispersion_real
_atom_type_scat_dispersion_imag
_atom_type_scat_source
C C 0.0033 0.0016 'International Tables Vol C Tables 4.2.6.8 and 6.1.1.4'
H H 0.0000 0.0000 'International Tables Vol C Tables 4.2.6.8 and 6.1.1.4'
N N 0.0061 0.0033 'International Tables Vol C Tables 4.2.6.8 and 6.1.1.4'
O O 0.0106 0.0060 'International Tables Vol C Tables 4.2.6.8 and 6.1.1.4'
Zn Zn 0.2839 1.4301 'International Tables Vol C Tables 4.2.6.8 and 6.1.1.4'
Br Br -0.2901 2.4595 'International Tables Vol C Tables 4.2.6.8 and 6.1.1.4'

_symmetry_cell_setting           ?
_symmetry_space_group_name_H-M   I41/acd

loop_
_symmetry_equiv_pos_as_xyz
'x, y, z'
'-x+1/2, -y, z+1/2'
'-y+1/4, x+3/4, z+1/4'
'y+1/4, -x+1/4, z+3/4'
'-x+1/2, y, -z'
'x, -y, -z+1/2'
'y+1/4, x+3/4, -z+3/4'
'-y+1/4, -x+1/4, -z+1/4'
'x+1/2, y+1/2, z+1/2'
'-x+1, -y+1/2, z+1'
'-y+3/4, x+5/4, z+3/4'
'y+3/4, -x+3/4, z+5/4'
'-x+1, y+1/2, -z+1/2'
'x+1/2, -y+1/2, -z+1'
'y+3/4, x+5/4, -z+5/4'
'-y+3/4, -x+3/4, -z+3/4'
'-x, -y, -z'
'x-1/2, y, -z-1/2'
'y-1/4, -x-3/4, -z-1/4'
'-y-1/4, x-1/4, -z-3/4'
'x-1/2, -y, z'
'-x, y, z-1/2'
'-y-1/4, -x-3/4, z-3/4'
'y-1/4, x-1/4, z-1/4'
'-x+1/2, -y+1/2, -z+1/2'
'x, y+1/2, -z'
'y+1/4, -x-1/4, -z+1/4'
'-y+1/4, x+1/4, -z-1/4'
'x, -y+1/2, z+1/2'
'-x+1/2, y+1/2, z'
'-y+1/4, -x-1/4, z-1/4'
'y+1/4, x+1/4, z+1/4'

_cell_length_a                   21.7448(8)
_cell_length_b                   21.7448(8)
_cell_length_c                   38.3937(15)
_cell_angle_alpha                90.00
_cell_angle_beta                 90.00
_cell_angle_gamma                90.00
_cell_volume                     18153.9(12)
_cell_formula_units_Z            48
_cell_measurement_temperature    200(2)
_cell_measurement_reflns_used    ?
_cell_measurement_theta_min      ?
_cell_measurement_theta_max      ?

_exptl_crystal_description       ?
_exptl_crystal_colour            ?
_exptl_crystal_size_max          0.30
_exptl_crystal_size_mid          0.10
_exptl_crystal_size_min          0.10
_exptl_crystal_density_meas      ?
_exptl_crystal_density_diffrn    1.040
_exptl_crystal_density_method    'not measured'
_exptl_crystal_F_000             5440
_exptl_absorpt_coefficient_mu    2.844
_exptl_absorpt_correction_type   Semi-empirical
_exptl_absorpt_correction_T_min  ?
_exptl_absorpt_correction_T_max  ?
_exptl_absorpt_process_details   ?

_exptl_special_details           
;
?
;

_diffrn_ambient_temperature      200(2)
_diffrn_radiation_wavelength     0.71073
_diffrn_radiation_type           MoK\a
_diffrn_radiation_source         'fine-focus sealed tube'
_diffrn_radiation_monochromator  graphite
_diffrn_measurement_device_type  ?
_diffrn_measurement_method       ?
_diffrn_detector_area_resol_mean ?
_diffrn_standards_number         ?
_diffrn_standards_interval_count ?
_diffrn_standards_interval_time  ?
_diffrn_standards_decay_%        ?
_diffrn_reflns_number            38892
_diffrn_reflns_av_R_equivalents  0.0419
_diffrn_reflns_av_sigmaI/netI    0.0250
_diffrn_reflns_limit_h_min       -15
_diffrn_reflns_limit_h_max       26
_diffrn_reflns_limit_k_min       -23
_diffrn_reflns_limit_k_max       26
_diffrn_reflns_limit_l_min       -44
_diffrn_reflns_limit_l_max       46
_diffrn_reflns_theta_min         1.70
_diffrn_reflns_theta_max         25.37
_reflns_number_total             4175
_reflns_number_gt                3135
_reflns_threshold_expression     >2sigma(I)

_computing_data_collection       ?
_computing_cell_refinement       ?
_computing_data_reduction        ?
_computing_structure_solution    'SHELXS-97 (Sheldrick, 1990)'
_computing_structure_refinement  'SHELXL-97 (Sheldrick, 1997)'
_computing_molecular_graphics    ?
_computing_publication_material  ?

_refine_special_details          
;
Refinement of F^2^ against ALL reflections. The weighted R-factor wR and
goodness of fit S are based on F^2^, conventional R-factors R are based
on F, with F set to zero for negative F^2^. The threshold expression of
F^2^ > 2sigma(F^2^) is used only for calculating R-factors(gt) etc. and is
not relevant to the choice of reflections for refinement. R-factors based
on F^2^ are statistically about twice as large as those based on F, and R-
factors based on ALL data will be even larger.
;

_refine_ls_structure_factor_coef Fsqd
_refine_ls_matrix_type           full
_refine_ls_weighting_scheme      calc
_refine_ls_weighting_details     
'calc w=1/[\s^2^(Fo^2^)+(0.2000P)^2^+0.0000P] where P=(Fo^2^+2Fc^2^)/3'
_atom_sites_solution_primary     direct
_atom_sites_solution_secondary   difmap
_atom_sites_solution_hydrogens   .
_refine_ls_hydrogen_treatment    .
_refine_ls_extinction_method     none
_refine_ls_extinction_coef       ?
_refine_ls_number_reflns         4175
_refine_ls_number_parameters     117
_refine_ls_number_restraints     0
_refine_ls_R_factor_all          0.0866
_refine_ls_R_factor_gt           0.0715
_refine_ls_wR_factor_ref         0.2673
_refine_ls_wR_factor_gt          0.2531
_refine_ls_goodness_of_fit_ref   1.085
_refine_ls_restrained_S_all      1.085
_refine_ls_shift/su_max          0
_refine_ls_shift/su_mean         0.109

loop_
_atom_site_label
_atom_site_type_symbol
_atom_site_fract_x
_atom_site_fract_y
_atom_site_fract_z
_atom_site_U_iso_or_equiv
_atom_site_adp_type
_atom_site_occupancy
_atom_site_symmetry_multiplicity
_atom_site_calc_flag
_atom_site_refinement_flags
_atom_site_disorder_assembly
_atom_site_disorder_group
N1 N 0.75640(19) 0.02112(15) 0.03322(12) 0.0220(9) Uani 1 1 d . . .
O1 O 0.7664(2) 0.10933(17) 0.09931(10) 0.0549(13) Uani 1 1 d . . .
O2 O 0.7676(2) 0.10859(19) 0.15664(11) 0.0612(15) Uani 1 1 d . . .
O3 O 0.7683(3) -0.07445(19) 0.09264(10) 0.0633(16) Uani 1 1 d . . .
C1 C 0.7418(2) 0.3323(2) 0.12189(12) 0.0298(11) Uiso 1 1 d . . .
C2 C 0.7653(2) 0.1341(2) 0.12780(12) 0.0271(11) Uiso 1 1 d . . .
C3 C 0.7590(2) 0.2030(2) 0.12726(12) 0.0316(12) Uiso 1 1 d . . .
O4 O 0.67560(18) 0.0162(3) 0.10013(11) 0.0628(15) Uani 1 1 d . . .
C4 C 0.7647(2) -0.0998(2) 0.12135(12) 0.0297(12) Uiso 1 1 d . . .
C5 C 0.7518(3) 0.0858(3) 0.02004(17) 0.0567(16) Uiso 1 1 d . . .
C6 C 0.7349(2) 0.2289(2) 0.09713(14) 0.0353(12) Uiso 1 1 d . . .
C7 C 0.7667(2) 0.3054(3) 0.15178(15) 0.0369(13) Uiso 1 1 d . . .
C8 C 0.7764(2) 0.2418(3) 0.15492(14) 0.0356(12) Uiso 1 1 d . . .
C9 C 0.6985(3) -0.0123(3) 0.02296(16) 0.0450(14) Uiso 1 1 d . . .
C10 C 0.7258(2) 0.2922(2) 0.09402(14) 0.0360(12) Uiso 1 1 d . . .
Br2 Br 0.81287(9) 0.21315(6) 0.19564(3) 0.0721(6) Uani 0.50 1 d P . .
Br1 Br 0.69192(9) 0.31918(6) 0.05201(4) 0.0798(6) Uani 0.50 1 d P . .
C11 C 0.8090(3) -0.0100(3) 0.01672(17) 0.0487(15) Uiso 1 1 d . . .
Zn1 Zn 0.76611(2) 0.01869(2) 0.086621(14) 0.0206(3) Uani 1 1 d . . .

loop_
_atom_site_aniso_label
_atom_site_aniso_U_11
_atom_site_aniso_U_22
_atom_site_aniso_U_33
_atom_site_aniso_U_23
_atom_site_aniso_U_13
_atom_site_aniso_U_12
N1 0.027(2) 0.016(2) 0.023(2) 0.0003(15) -0.0041(18) -0.0011(14)
O1 0.119(4) 0.0170(18) 0.028(2) -0.0048(16) -0.006(2) 0.004(2)
O2 0.125(5) 0.030(2) 0.029(2) 0.0061(18) 0.014(2) 0.012(2)
O3 0.148(5) 0.0197(19) 0.023(2) 0.0084(16) -0.001(2) -0.007(2)
O4 0.021(2) 0.144(5) 0.024(2) -0.002(2) 0.0084(17) -0.003(2)
Br2 0.1286(14) 0.0372(7) 0.0506(8) 0.0007(5) -0.0412(8) -0.0039(7)
Br1 0.1494(16) 0.0333(7) 0.0567(9) 0.0038(6) -0.0520(9) 0.0014(8)
Zn1 0.0244(4) 0.0251(4) 0.0123(4) 0.00056(19) -0.00088(19) -0.0017(2)

_geom_special_details            
;
All esds (except the esd in the dihedral angle between two l.s. planes)
are estimated using the full covariance matrix. The cell esds are taken
into account individually in the estimation of esds in distances, angles
and torsion angles; correlations between esds in cell parameters are only
used when they are defined by crystal symmetry. An approximate (isotropic)
treatment of cell esds is used for estimating esds involving l.s. planes.
;

loop_
_geom_bond_atom_site_label_1
_geom_bond_atom_site_label_2
_geom_bond_distance
_geom_bond_site_symmetry_2
_geom_bond_publ_flag
N1 C11 1.472(8) . ?
N1 C9 1.507(8) . ?
N1 C5 1.499(8) . ?
N1 Zn1 2.062(5) . ?
O1 C2 1.220(6) . ?
O1 Zn1 2.030(4) . ?
O2 C2 1.239(6) . ?
O2 Zn1 2.028(4) 15_534 ?
O3 C4 1.235(6) . ?
O3 Zn1 2.039(4) . ?
C1 C7 1.396(7) . ?
C1 C10 1.423(7) . ?
C1 C4 1.484(8) 30_655 ?
C2 C3 1.504(8) . ?
C3 C6 1.389(7) . ?
C3 C8 1.408(7) . ?
O4 C4 1.227(6) 15_534 ?
O4 Zn1 2.036(4) . ?
C4 O4 1.227(6) 15_534 ?
C4 C1 1.484(8) 30_645 ?
C5 C5 1.540(13) 5_655 ?
C6 C10 1.396(8) . ?
C7 C8 1.404(8) . ?
C8 Br2 1.860(5) . ?
C9 C11 1.533(8) 5_655 ?
C10 Br1 1.868(5) . ?
C11 C9 1.533(8) 5_655 ?
Zn1 O2 2.028(4) 15_534 ?
Zn1 Zn1 2.9481(11) 15_534 ?

loop_
_geom_angle_atom_site_label_1
_geom_angle_atom_site_label_2
_geom_angle_atom_site_label_3
_geom_angle
_geom_angle_site_symmetry_1
_geom_angle_site_symmetry_3
_geom_angle_publ_flag
C11 N1 C9 108.4(4) . . ?
C11 N1 C5 109.8(5) . . ?
C9 N1 C5 108.0(4) . . ?
C11 N1 Zn1 109.7(3) . . ?
C9 N1 Zn1 109.5(3) . . ?
C5 N1 Zn1 111.5(3) . . ?
C2 O1 Zn1 130.1(4) . . ?
C2 O2 Zn1 123.9(4) . 15_534 ?
C4 O3 Zn1 122.9(4) . . ?
C7 C1 C10 117.2(5) . . ?
C7 C1 C4 117.7(4) . 30_655 ?
C10 C1 C4 125.1(4) . 30_655 ?
O1 C2 O2 127.1(5) . . ?
O1 C2 C3 115.4(4) . . ?
O2 C2 C3 117.5(4) . . ?
C6 C3 C8 119.1(5) . . ?
C6 C3 C2 116.7(4) . . ?
C8 C3 C2 124.2(4) . . ?
C4 O4 Zn1 131.6(4) 15_534 . ?
O3 C4 O4 126.4(5) . 15_534 ?
O3 C4 C1 117.6(5) . 30_645 ?
O4 C4 C1 116.0(5) 15_534 30_645 ?
C5 C5 N1 109.9(3) 5_655 . ?
C3 C6 C10 121.7(5) . . ?
C1 C7 C8 122.7(5) . . ?
C7 C8 C3 119.0(5) . . ?
C7 C8 Br2 117.8(4) . . ?
C3 C8 Br2 123.2(4) . . ?
N1 C9 C11 109.4(5) . 5_655 ?
C1 C10 C6 120.3(5) . . ?
C1 C10 Br1 123.6(4) . . ?
C6 C10 Br1 116.1(4) . . ?
N1 C11 C9 111.1(5) . 5_655 ?
O2 Zn1 O4 157.79(18) 15_534 . ?
O2 Zn1 O1 88.73(19) 15_534 . ?
O4 Zn1 O1 88.1(2) . . ?
O2 Zn1 O3 87.2(2) 15_534 . ?
O4 Zn1 O3 88.1(2) . . ?
O1 Zn1 O3 159.56(17) . . ?
O2 Zn1 N1 103.23(17) 15_534 . ?
O4 Zn1 N1 98.92(17) . . ?
O1 Zn1 N1 102.35(15) . . ?
O3 Zn1 N1 98.08(15) . . ?
O2 Zn1 Zn1 81.57(12) 15_534 15_534 ?
O4 Zn1 Zn1 76.30(12) . 15_534 ?
O1 Zn1 Zn1 77.21(12) . 15_534 ?
O3 Zn1 Zn1 82.38(11) . 15_534 ?
N1 Zn1 Zn1 175.19(12) . 15_534 ?

_diffrn_measured_fraction_theta_max 1.000
_diffrn_reflns_theta_full        25.37
_diffrn_measured_fraction_theta_full 1.000
_refine_diff_density_max         1.383
_refine_diff_density_min         -0.626
_refine_diff_density_rms         0.163
