####################################################################### 
# 
# This file contains crystal structure data downloaded from the 
# Cambridge Structural Database (CSD) hosted by the Cambridge 
# Crystallographic Data Centre (CCDC).
# 
# Full information about CCDC data access policies and citation 
# guidelines are available at http://www.ccdc.cam.ac.uk/access/V1 
# 
# Audit and citation data items may have been added by the CCDC. 
# Please retain this information to preserve the provenance of 
# this file and to allow appropriate attribution of the data. 
# 
#######################################################################

data_DMOF-2,5NH2Cl_DMF
_audit_block_doi                 10.5517/ccx9zrx
_database_code_depnum_ccdc_archive 'CCDC 843750'
loop_
_citation_id
_citation_doi
_citation_year
1 10.1002/anie.201106429 2011
2 10.1002/anie.201200730 2012
_audit_update_record             
;
2011-09-10 deposited with the CCDC.	2024-07-12 downloaded from the CCDC.
;

_audit_creation_method           SHELXL-97
_chemical_name_systematic        
;
?
;
_chemical_name_common            ?
_chemical_melting_point          ?
_chemical_formula_moiety         ?
_chemical_formula_sum            'C8.52 H0 Cl1.42 N0.77 O3.10 Zn0.77'
_chemical_formula_weight         263.60

loop_
_atom_type_symbol
_atom_type_description
_atom_type_scat_dispersion_real
_atom_type_scat_dispersion_imag
_atom_type_scat_source
C C 0.0181 0.0091 'International Tables Vol C Tables 4.2.6.8 and 6.1.1.4'
H H 0.0000 0.0000 'International Tables Vol C Tables 4.2.6.8 and 6.1.1.4'
N N 0.0311 0.0180 'International Tables Vol C Tables 4.2.6.8 and 6.1.1.4'
O O 0.0492 0.0322 'International Tables Vol C Tables 4.2.6.8 and 6.1.1.4'
Cl Cl 0.3639 0.7018 'International Tables Vol C Tables 4.2.6.8 and 6.1.1.4'
Zn Zn -1.5491 0.6778 'International Tables Vol C Tables 4.2.6.8 and 6.1.1.4'

_symmetry_cell_setting           ?
_symmetry_space_group_name_H-M   Ibca

loop_
_symmetry_equiv_pos_as_xyz
'x, y, z'
'x, -y, -z+1/2'
'-x+1/2, y, -z'
'-x, -y+1/2, z'
'x+1/2, y+1/2, z+1/2'
'x+1/2, -y+1/2, -z+1'
'-x+1, y+1/2, -z+1/2'
'-x+1/2, -y+1, z+1/2'
'-x, -y, -z'
'-x, y, z-1/2'
'x-1/2, -y, z'
'x, y-1/2, -z'
'-x+1/2, -y+1/2, -z+1/2'
'-x+1/2, y+1/2, z'
'x, -y+1/2, z+1/2'
'x+1/2, y, -z+1/2'

_cell_length_a                   21.7463(7)
_cell_length_b                   21.746
_cell_length_c                   57.664(2)
_cell_angle_alpha                90.00
_cell_angle_beta                 90.00
_cell_angle_gamma                90.00
_cell_volume                     27269.3(13)
_cell_formula_units_Z            62
_cell_measurement_temperature    293(2)
_cell_measurement_reflns_used    ?
_cell_measurement_theta_min      ?
_cell_measurement_theta_max      ?

_exptl_crystal_description       ?
_exptl_crystal_colour            ?
_exptl_crystal_size_max          0.30
_exptl_crystal_size_mid          0.10
_exptl_crystal_size_min          0.10
_exptl_crystal_density_meas      ?
_exptl_crystal_density_diffrn    0.995
_exptl_crystal_density_method    'not measured'
_exptl_crystal_F_000             7976
_exptl_absorpt_coefficient_mu    3.539
_exptl_absorpt_correction_type   Semi-empirical
_exptl_absorpt_correction_T_min  ?
_exptl_absorpt_correction_T_max  ?
_exptl_absorpt_process_details   ?

_exptl_special_details           
;
?
;

_diffrn_ambient_temperature      293(2)
_diffrn_radiation_wavelength     1.54178
_diffrn_radiation_type           CuK\a
_diffrn_radiation_source         'fine-focus sealed tube'
_diffrn_radiation_monochromator  graphite
_diffrn_measurement_device_type  ?
_diffrn_measurement_method       ?
_diffrn_detector_area_resol_mean ?
_diffrn_standards_number         ?
_diffrn_standards_interval_count ?
_diffrn_standards_interval_time  ?
_diffrn_standards_decay_%        ?
_diffrn_reflns_number            37273
_diffrn_reflns_av_R_equivalents  0.0470
_diffrn_reflns_av_sigmaI/netI    0.0384
_diffrn_reflns_limit_h_min       -24
_diffrn_reflns_limit_h_max       23
_diffrn_reflns_limit_k_min       -24
_diffrn_reflns_limit_k_max       25
_diffrn_reflns_limit_l_min       -50
_diffrn_reflns_limit_l_max       68
_diffrn_reflns_theta_min         3.07
_diffrn_reflns_theta_max         67.89
_reflns_number_total             11051
_reflns_number_gt                8845
_reflns_threshold_expression     >2sigma(I)

_computing_data_collection       ?
_computing_cell_refinement       ?
_computing_data_reduction        ?
_computing_structure_solution    'SHELXS-97 (Sheldrick, 1990)'
_computing_structure_refinement  'SHELXL-97 (Sheldrick, 1997)'
_computing_molecular_graphics    ?
_computing_publication_material  ?

_refine_special_details          
;
Refinement of F^2^ against ALL reflections. The weighted R-factor wR and
goodness of fit S are based on F^2^, conventional R-factors R are based
on F, with F set to zero for negative F^2^. The threshold expression of
F^2^ > 2sigma(F^2^) is used only for calculating R-factors(gt) etc. and is
not relevant to the choice of reflections for refinement. R-factors based
on F^2^ are statistically about twice as large as those based on F, and R-
factors based on ALL data will be even larger.
;

_refine_ls_structure_factor_coef Fsqd
_refine_ls_matrix_type           full
_refine_ls_weighting_scheme      calc
_refine_ls_weighting_details     
'calc w=1/[\s^2^(Fo^2^)+(0.2000P)^2^+0.0000P] where P=(Fo^2^+2Fc^2^)/3'
_atom_sites_solution_primary     direct
_atom_sites_solution_secondary   difmap
_atom_sites_solution_hydrogens   .
_refine_ls_hydrogen_treatment    .
_refine_ls_extinction_method     none
_refine_ls_extinction_coef       ?
_refine_ls_number_reflns         11051
_refine_ls_number_parameters     343
_refine_ls_number_restraints     0
_refine_ls_R_factor_all          0.1955
_refine_ls_R_factor_gt           0.1828
_refine_ls_wR_factor_ref         0.5406
_refine_ls_wR_factor_gt          0.5211
_refine_ls_goodness_of_fit_ref   2.415
_refine_ls_restrained_S_all      2.415
_refine_ls_shift/su_max          0
_refine_ls_shift/su_mean         0.024

loop_
_atom_site_label
_atom_site_type_symbol
_atom_site_fract_x
_atom_site_fract_y
_atom_site_fract_z
_atom_site_U_iso_or_equiv
_atom_site_adp_type
_atom_site_occupancy
_atom_site_symmetry_multiplicity
_atom_site_calc_flag
_atom_site_refinement_flags
_atom_site_disorder_assembly
_atom_site_disorder_group
N1 N 0.2463(2) 0.4745(2) 0.02267(10) 0.0197(13) Uiso 1 1 d . . .
N2 N 0.2287(3) 0.4853(2) 0.14477(12) 0.0244(13) Uiso 1 1 d . . .
N3 N 0.2262(3) 0.4900(3) 0.18887(12) 0.0306(15) Uiso 1 1 d . . .
O1 O 0.3266(4) 0.4795(5) 0.06642(14) 0.081(3) Uani 1 1 d . . .
O2 O 0.3270(4) 0.4751(6) 0.10432(13) 0.089(4) Uani 1 1 d . . .
O3 O 0.1440(4) 0.4739(4) 0.06241(12) 0.062(2) Uani 1 1 d . . .
O4 O 0.1418(5) 0.4804(4) 0.10038(13) 0.076(3) Uani 1 1 d . . .
O5 O 0.2388(5) 0.3849(3) 0.06546(12) 0.069(3) Uani 1 1 d . . .
O6 O 0.2321(4) 0.3861(3) 0.10358(11) 0.064(3) Uani 1 1 d . . .
O7 O 0.2322(6) 0.5683(3) 0.06285(13) 0.088(4) Uani 1 1 d . . .
O8 O 0.2373(6) 0.5700(3) 0.10099(12) 0.085(4) Uani 1 1 d . . .
O9 O 0.2298(5) 0.4055(4) 0.23335(12) 0.086(3) Uani 1 1 d . . .
O10 O 0.1331(4) 0.4965(5) 0.23064(12) 0.080(3) Uani 1 1 d . . .
O11 O 0.3161(4) 0.5049(5) 0.23090(15) 0.077(3) Uani 1 1 d . . .
O12 O 0.2196(5) 0.5916(4) 0.22945(13) 0.085(3) Uani 1 1 d . . .
C1 C 0.1182(4) 0.4805(4) 0.08085(15) 0.0395(19) Uiso 1 1 d . . .
C2 C 0.2363(4) 0.3601(4) 0.08461(14) 0.041(2) Uiso 1 1 d . . .
C3 C 0.2429(4) 0.6631(4) 0.08149(14) 0.0388(19) Uiso 1 1 d . . .
C4 C 0.0379(6) 0.5000 0.2500 0.043(3) Uiso 1 2 d S . .
C5 C 0.2424(4) 0.2913(4) 0.08436(14) 0.0390(18) Uiso 1 1 d . . .
C6 C 0.4098(6) 0.5000 0.2500 0.041(3) Uiso 1 2 d S . .
C7 C 0.3392(8) 0.5000 0.2500 0.057(3) Uiso 1 2 d S . .
C8 C 0.0487(4) 0.4888(4) 0.08213(14) 0.0376(18) Uiso 1 1 d . . .
C9 C 0.2387(5) 0.3127(5) 0.2516(2) 0.057(2) Uiso 1 1 d . . .
C10 C 0.2320(4) 0.1907(4) 0.10116(15) 0.0385(18) Uiso 1 1 d . . .
C11 C 0.2367(4) 0.5948(4) 0.08185(15) 0.043(2) Uiso 1 1 d . . .
C12 C 0.1066(8) 0.5000 0.2500 0.059(4) Uiso 1 2 d S . .
C13 C 0.2287(5) 0.3836(4) 0.25215(18) 0.051(2) Uiso 1 1 d . . .
C14 C 0.4230(4) 0.4901(4) 0.08548(15) 0.0420(19) Uiso 1 1 d . . .
C15 C 0.3532(5) 0.4812(4) 0.08629(16) 0.0404(19) Uiso 1 1 d . . .
C16 C -0.0396(4) 0.5275(4) 0.10320(16) 0.0410(19) Uiso 1 1 d . . .
C17 C 0.2471(7) 0.4115(6) 0.0130(2) 0.075(3) Uiso 1 1 d . . .
C18 C 0.2688(4) 0.2634(4) 0.06485(15) 0.0387(18) Uiso 1 1 d . . .
C19 C 0.2749(4) 0.2043(4) 0.06325(17) 0.045(2) Uiso 1 1 d . . .
C20 C 0.2955(7) 0.5117(6) 0.0150(2) 0.075(3) Uiso 1 1 d . . .
C21 C 0.0211(5) 0.5161(4) 0.10194(17) 0.049(2) Uiso 1 1 d . . .
C22 C 0.2240(4) 0.2510(4) 0.10310(15) 0.0393(19) Uiso 1 1 d . . .
C23 C 0.4405(5) 0.4769(4) 0.26863(19) 0.053(2) Uiso 1 1 d . . .
C24 C 0.0013(5) 0.5233(4) 0.26872(17) 0.049(2) Uiso 1 1 d . . .
C25 C 0.2558(10) 0.4275(9) 0.1562(3) 0.115(6) Uiso 1 1 d . . .
C26 C 0.1649(10) 0.4949(10) 0.1522(4) 0.118(6) Uiso 1 1 d . . .
C27 C 0.1957(8) 0.5078(7) 0.0106(3) 0.092(4) Uiso 1 1 d . . .
C28 C 0.2638(5) 0.2889(5) 0.23238(19) 0.051(2) Uiso 1 1 d . . .
C29 C 0.2187(5) 0.2720(5) 0.26902(18) 0.054(2) Uiso 1 1 d . . .
C30 C -0.0521(5) 0.4830(4) 0.06568(17) 0.044(2) Uiso 1 1 d . . .
C31 C 0.0109(4) 0.4708(3) 0.06379(15) 0.0393(18) Uiso 1 1 d . . .
C32 C 0.2558(10) 0.4396(10) 0.1818(4) 0.116(6) Uiso 1 1 d . . .
C33 C 0.1626(9) 0.4961(8) 0.1783(3) 0.102(5) Uiso 1 1 d . . .
C34 C 0.2639(9) 0.5475(9) 0.1519(3) 0.109(6) Uiso 1 1 d . . .
C35 C 0.2614(9) 0.5482(9) 0.1781(3) 0.104(5) Uiso 1 1 d . . .
Zn1 Zn 0.23417(6) 0.47834(5) 0.108806(18) 0.0374(5) Uani 1 1 d . . .
Zn3 Zn 0.23626(6) 0.47642(5) 0.057844(17) 0.0354(5) Uani 1 1 d . . .
Zn2 Zn 0.22427(6) 0.49941(6) 0.224471(17) 0.0433(5) Uani 1 1 d . . .
Cl2B Cl 0.1876(3) 0.28046(18) 0.12712(10) 0.078(2) Uani 0.50 1 d P . .
Cl1A Cl 0.0349(2) 0.4349(4) 0.03968(9) 0.0762(18) Uani 0.50 1 d P . .
Cl1B Cl -0.0655(3) 0.5605(4) 0.12789(10) 0.159(3) Uani 1 1 d . . .
Cl2A Cl 0.3079(4) 0.1746(2) 0.03802(10) 0.178(3) Uani 1 1 d . . .
Cl4 Cl 0.4194(4) 0.4406(7) 0.2933(2) 0.326(8) Uani 1 1 d . . .
Cl3 Cl 0.0274(10) 0.5664(8) 0.2941(4) 0.598(16) Uani 1 1 d . . .
Cl5 Cl 0.1844(4) 0.3010(3) 0.29372(10) 0.087(2) Uani 0.50 1 d P . .

loop_
_atom_site_aniso_label
_atom_site_aniso_U_11
_atom_site_aniso_U_22
_atom_site_aniso_U_33
_atom_site_aniso_U_23
_atom_site_aniso_U_13
_atom_site_aniso_U_12
O1 0.055(5) 0.154(9) 0.034(4) -0.011(5) -0.014(4) -0.014(5)
O2 0.037(4) 0.198(12) 0.032(4) 0.031(5) -0.002(3) -0.014(5)
O3 0.040(4) 0.115(6) 0.032(3) -0.007(4) 0.008(3) -0.011(4)
O4 0.075(6) 0.126(7) 0.026(4) 0.002(4) -0.018(4) 0.003(5)
O5 0.155(9) 0.020(3) 0.031(3) 0.004(3) 0.008(4) -0.008(3)
O6 0.153(9) 0.014(3) 0.026(3) -0.003(2) 0.004(4) 0.006(3)
O7 0.209(13) 0.023(3) 0.031(4) -0.001(3) -0.018(5) 0.000(4)
O8 0.196(12) 0.029(3) 0.031(4) 0.003(3) 0.022(5) -0.032(4)
O9 0.157(11) 0.075(6) 0.026(4) 0.022(4) 0.001(4) 0.006(5)
O10 0.027(4) 0.191(10) 0.023(3) 0.002(4) 0.005(3) 0.031(5)
O11 0.026(4) 0.154(9) 0.051(4) -0.013(5) -0.002(4) -0.004(4)
O12 0.140(10) 0.089(6) 0.024(3) -0.002(4) -0.011(4) -0.007(6)
Zn1 0.0644(10) 0.0321(7) 0.0157(7) -0.0006(4) 0.0035(5) -0.0109(4)
Zn3 0.0591(9) 0.0314(7) 0.0157(7) -0.0001(4) 0.0024(5) -0.0087(4)
Zn2 0.0252(8) 0.0882(12) 0.0165(7) -0.0027(7) 0.0008(4) -0.0040(5)
Cl2B 0.138(6) 0.0257(18) 0.072(3) -0.001(2) 0.047(4) -0.012(2)
Cl1A 0.040(3) 0.133(5) 0.055(3) -0.044(3) 0.002(2) -0.010(3)
Cl1B 0.106(4) 0.245(7) 0.126(4) -0.086(5) -0.006(3) 0.027(4)
Cl2A 0.289(10) 0.090(3) 0.156(5) 0.008(3) 0.110(5) 0.015(4)
Cl4 0.109(6) 0.56(2) 0.311(12) 0.201(13) 0.032(7) 0.063(10)
Cl3 0.51(3) 0.39(2) 0.90(4) -0.23(3) -0.26(3) 0.10(2)
Cl5 0.138(6) 0.069(3) 0.054(3) 0.006(3) 0.048(4) 0.009(3)

_geom_special_details            
;
All esds (except the esd in the dihedral angle between two l.s. planes)
are estimated using the full covariance matrix. The cell esds are taken
into account individually in the estimation of esds in distances, angles
and torsion angles; correlations between esds in cell parameters are only
used when they are defined by crystal symmetry. An approximate (isotropic)
treatment of cell esds is used for estimating esds involving l.s. planes.
;

loop_
_geom_bond_atom_site_label_1
_geom_bond_atom_site_label_2
_geom_bond_distance
_geom_bond_site_symmetry_2
_geom_bond_publ_flag
N1 C20 1.414(15) . ?
N1 C17 1.477(15) . ?
N1 C27 1.492(17) . ?
N1 Zn3 2.041(6) . ?
N2 C26 1.47(2) . ?
N2 C25 1.54(2) . ?
N2 C34 1.61(2) . ?
N2 Zn1 2.083(7) . ?
N3 C32 1.33(2) . ?
N3 C33 1.52(2) . ?
N3 C35 1.60(2) . ?
N3 Zn2 2.063(7) . ?
O1 C15 1.285(12) . ?
O1 Zn3 2.026(9) . ?
O2 C15 1.193(12) . ?
O2 Zn1 2.037(8) . ?
O3 C1 1.211(11) . ?
O3 Zn3 2.024(8) . ?
O4 C1 1.238(11) . ?
O4 Zn1 2.066(9) . ?
O5 C2 1.230(10) . ?
O5 Zn3 2.038(6) . ?
O6 C2 1.235(10) . ?
O6 Zn1 2.029(6) . ?
O7 C11 1.242(11) . ?
O7 Zn3 2.020(7) . ?
O8 C11 1.228(11) . ?
O8 Zn1 2.045(7) . ?
O9 C13 1.184(12) . ?
O9 Zn2 2.109(9) . ?
O10 C12 1.259(11) . ?
O10 Zn2 2.016(8) . ?
O11 C7 1.215(11) . ?
O11 Zn2 2.035(8) . ?
O12 C13 1.206(12) 2_565 ?
O12 Zn2 2.027(10) . ?
C1 C8 1.523(13) . ?
C2 C5 1.502(13) . ?
C3 C10 1.394(11) 14 ?
C3 C19 1.435(12) 14 ?
C3 C11 1.493(13) . ?
C4 C24 1.434(12) . ?
C4 C24 1.434(12) 2_565 ?
C4 C12 1.49(2) . ?
C5 C18 1.401(11) . ?
C5 C22 1.449(11) . ?
C6 C23 1.360(13) . ?
C6 C23 1.360(13) 2_565 ?
C6 C7 1.53(2) . ?
C7 O11 1.215(11) 2_565 ?
C8 C31 1.395(12) . ?
C8 C21 1.420(13) . ?
C9 C28 1.339(15) . ?
C9 C29 1.408(15) . ?
C9 C13 1.559(14) . ?
C10 C22 1.328(12) . ?
C10 C3 1.394(11) 14_545 ?
C12 O10 1.259(11) 2_565 ?
C13 O12 1.206(12) 2_565 ?
C14 C16 1.361(13) 11_665 ?
C14 C30 1.393(13) 11_665 ?
C14 C15 1.530(13) . ?
C16 C21 1.346(15) . ?
C16 C14 1.361(13) 11_565 ?
C16 Cl1B 1.690(10) . ?
C17 C17 1.50(3) 3 ?
C18 C19 1.296(13) . ?
C19 C3 1.435(12) 14_545 ?
C19 Cl2A 1.745(11) . ?
C20 C27 1.49(2) 3 ?
C22 Cl2B 1.720(10) . ?
C23 C24 1.322(16) 11_665 ?
C23 Cl4 1.689(13) . ?
C24 C23 1.321(16) 11_565 ?
C24 Cl3 1.826(18) . ?
C25 C32 1.50(3) . ?
C26 C33 1.51(3) . ?
C27 C20 1.49(2) 3 ?
C28 C29 1.382(14) 13 ?
C29 C28 1.382(14) 13 ?
C29 Cl5 1.727(11) . ?
C30 C14 1.393(13) 11_565 ?
C30 C31 1.400(13) . ?
C31 Cl1A 1.678(10) . ?
C34 C35 1.51(2) . ?
Zn1 Zn3 2.9393(15) . ?
Zn2 Zn2 2.944(2) 2_565 ?
Cl4 Cl3 2.35(2) 11_665 ?
Cl3 Cl4 2.35(2) 11_565 ?

loop_
_geom_angle_atom_site_label_1
_geom_angle_atom_site_label_2
_geom_angle_atom_site_label_3
_geom_angle
_geom_angle_site_symmetry_1
_geom_angle_site_symmetry_3
_geom_angle_publ_flag
C20 N1 C17 113.8(9) . . ?
C20 N1 C27 97.6(9) . . ?
C17 N1 C27 106.4(9) . . ?
C20 N1 Zn3 112.4(7) . . ?
C17 N1 Zn3 113.3(6) . . ?
C27 N1 Zn3 112.1(7) . . ?
C26 N2 C25 110.6(12) . . ?
C26 N2 C34 104.8(11) . . ?
C25 N2 C34 113.2(11) . . ?
C26 N2 Zn1 110.9(9) . . ?
C25 N2 Zn1 110.3(8) . . ?
C34 N2 Zn1 106.9(8) . . ?
C32 N3 C33 112.9(12) . . ?
C32 N3 C35 107.5(13) . . ?
C33 N3 C35 102.2(10) . . ?
C32 N3 Zn2 113.2(11) . . ?
C33 N3 Zn2 111.8(8) . . ?
C35 N3 Zn2 108.5(7) . . ?
C15 O1 Zn3 131.0(8) . . ?
C15 O2 Zn1 125.5(7) . . ?
C1 O3 Zn3 124.8(7) . . ?
C1 O4 Zn1 128.1(8) . . ?
C2 O5 Zn3 128.3(6) . . ?
C2 O6 Zn1 125.6(6) . . ?
C11 O7 Zn3 125.6(6) . . ?
C11 O8 Zn1 128.7(6) . . ?
C13 O9 Zn2 127.6(8) . . ?
C12 O10 Zn2 127.3(9) . . ?
C7 O11 Zn2 124.5(10) . . ?
C13 O12 Zn2 123.9(8) 2_565 . ?
O3 C1 O4 127.3(11) . . ?
O3 C1 C8 121.1(9) . . ?
O4 C1 C8 111.6(9) . . ?
O5 C2 O6 126.7(9) . . ?
O5 C2 C5 115.1(8) . . ?
O6 C2 C5 118.1(8) . . ?
C10 C3 C19 115.8(8) 14 14 ?
C10 C3 C11 116.9(8) 14 . ?
C19 C3 C11 127.4(8) 14 . ?
C24 C4 C24 112.6(13) . 2_565 ?
C24 C4 C12 123.7(6) . . ?
C24 C4 C12 123.7(6) 2_565 . ?
C18 C5 C22 116.7(8) . . ?
C18 C5 C2 118.4(8) . . ?
C22 C5 C2 124.9(7) . . ?
C23 C6 C23 121.2(14) . 2_565 ?
C23 C6 C7 119.4(7) . . ?
C23 C6 C7 119.4(7) 2_565 . ?
O11 C7 O11 131.1(17) 2_565 . ?
O11 C7 C6 114.4(8) 2_565 . ?
O11 C7 C6 114.4(8) . . ?
C31 C8 C21 118.6(8) . . ?
C31 C8 C1 121.0(8) . . ?
C21 C8 C1 120.4(8) . . ?
C28 C9 C29 118.3(10) . . ?
C28 C9 C13 117.1(10) . . ?
C29 C9 C13 124.3(10) . . ?
C22 C10 C3 122.9(8) . 14_545 ?
O8 C11 O7 126.1(9) . . ?
O8 C11 C3 116.6(8) . . ?
O7 C11 C3 117.2(8) . . ?
O10 C12 O10 125.4(16) 2_565 . ?
O10 C12 C4 117.3(8) 2_565 . ?
O10 C12 C4 117.3(8) . . ?
O9 C13 O12 129.0(10) . 2_565 ?
O9 C13 C9 112.1(10) . . ?
O12 C13 C9 118.9(10) 2_565 . ?
C16 C14 C30 120.1(9) 11_665 11_665 ?
C16 C14 C15 122.3(8) 11_665 . ?
C30 C14 C15 117.6(8) 11_665 . ?
O2 C15 O1 124.0(10) . . ?
O2 C15 C14 120.9(9) . . ?
O1 C15 C14 115.1(9) . . ?
C21 C16 C14 119.6(9) . 11_565 ?
C21 C16 Cl1B 116.8(8) . . ?
C14 C16 Cl1B 123.5(8) 11_565 . ?
N1 C17 C17 112.2(6) . 3 ?
C19 C18 C5 122.0(9) . . ?
C18 C19 C3 122.6(9) . 14_545 ?
C18 C19 Cl2A 118.0(8) . . ?
C3 C19 Cl2A 119.4(7) 14_545 . ?
N1 C20 C27 112.1(12) . 3 ?
C16 C21 C8 122.3(10) . . ?
C10 C22 C5 120.0(8) . . ?
C10 C22 Cl2B 119.7(7) . . ?
C5 C22 Cl2B 120.2(6) . . ?
C24 C23 C6 119.7(11) 11_665 . ?
C24 C23 Cl4 105.4(9) 11_665 . ?
C6 C23 Cl4 134.7(10) . . ?
C23 C24 C4 123.4(10) 11_565 . ?
C23 C24 Cl3 108.5(11) 11_565 . ?
C4 C24 Cl3 127.7(12) . . ?
C32 C25 N2 106.2(16) . . ?
N2 C26 C33 109.1(15) . . ?
C20 C27 N1 113.3(13) 3 . ?
C9 C28 C29 122.1(11) . 13 ?
C28 C29 C9 118.4(10) 13 . ?
C28 C29 Cl5 121.2(9) 13 . ?
C9 C29 Cl5 119.5(8) . . ?
C14 C30 C31 121.6(9) 11_565 . ?
C8 C31 C30 117.7(8) . . ?
C8 C31 Cl1A 125.1(7) . . ?
C30 C31 Cl1A 117.2(8) . . ?
N3 C32 C25 116.4(18) . . ?
C26 C33 N3 111.6(14) . . ?
C35 C34 N2 104.3(14) . . ?
C34 C35 N3 113.3(14) . . ?
O6 Zn1 O2 88.2(4) . . ?
O6 Zn1 O8 158.7(3) . . ?
O2 Zn1 O8 88.4(5) . . ?
O6 Zn1 O4 88.0(4) . . ?
O2 Zn1 O4 159.1(3) . . ?
O8 Zn1 O4 87.6(4) . . ?
O6 Zn1 N2 102.6(2) . . ?
O2 Zn1 N2 100.7(3) . . ?
O8 Zn1 N2 98.6(3) . . ?
O4 Zn1 N2 100.2(3) . . ?
O6 Zn1 Zn3 8