####################################################################### 
# 
# This file contains crystal structure data downloaded from the 
# Cambridge Structural Database (CSD) hosted by the Cambridge 
# Crystallographic Data Centre (CCDC).
# 
# Full information about CCDC data access policies and citation 
# guidelines are available at http://www.ccdc.cam.ac.uk/access/V1 
# 
# Audit and citation data items may have been added by the CCDC. 
# Please retain this information to preserve the provenance of 
# this file and to allow appropriate attribution of the data. 
# 
#######################################################################

data_mof
_audit_block_doi                 10.5517/ccwz443
_database_code_depnum_ccdc_archive 'CCDC 833315'
loop_
_citation_id
_citation_doi
_citation_year
1 10.1038/ncomms1618 2012
_audit_update_record             
;
2011-07-07 deposited with the CCDC.	2024-07-12 downloaded from the CCDC.
;
#TrackingRef 'web_deposit_cif_file_0_EhmkePohl_1310060422.mof.cif'


_audit_creation_method           SHELXL-97
_chemical_name_systematic        
;
?
;
_chemical_name_common            ?
_chemical_melting_point          ?
_chemical_formula_moiety         ?
_chemical_formula_sum            'C26 H16 N5 O6.50 Zn2'
_chemical_formula_weight         633.18

loop_
_atom_type_symbol
_atom_type_description
_atom_type_scat_dispersion_real
_atom_type_scat_dispersion_imag
_atom_type_scat_source
C C 0.0181 0.0091 'International Tables Vol C Tables 4.2.6.8 and 6.1.1.4'
H H 0.0000 0.0000 'International Tables Vol C Tables 4.2.6.8 and 6.1.1.4'
N N 0.0311 0.0180 'International Tables Vol C Tables 4.2.6.8 and 6.1.1.4'
O O 0.0492 0.0322 'International Tables Vol C Tables 4.2.6.8 and 6.1.1.4'
Zn Zn -1.5491 0.6778 'International Tables Vol C Tables 4.2.6.8 and 6.1.1.4'

_symmetry_cell_setting           ?
_symmetry_space_group_name_H-M   ?

loop_
_symmetry_equiv_pos_as_xyz
'x, y, z'
'-x+1/2, -y, z+1/2'
'-x, y+1/2, -z+1/2'
'x+1/2, -y+1/2, -z'
'z, x, y'
'z+1/2, -x+1/2, -y'
'-z+1/2, -x, y+1/2'
'-z, x+1/2, -y+1/2'
'y, z, x'
'-y, z+1/2, -x+1/2'
'y+1/2, -z+1/2, -x'
'-y+1/2, -z, x+1/2'
'y+3/4, x+1/4, -z+1/4'
'-y+3/4, -x+3/4, -z+3/4'
'y+1/4, -x+1/4, z+3/4'
'-y+1/4, x+3/4, z+1/4'
'x+3/4, z+1/4, -y+1/4'
'-x+1/4, z+3/4, y+1/4'
'-x+3/4, -z+3/4, -y+3/4'
'x+1/4, -z+1/4, y+3/4'
'z+3/4, y+1/4, -x+1/4'
'z+1/4, -y+1/4, x+3/4'
'-z+1/4, y+3/4, x+1/4'
'-z+3/4, -y+3/4, -x+3/4'
'x+1/2, y+1/2, z+1/2'
'-x+1, -y+1/2, z+1'
'-x+1/2, y+1, -z+1'
'x+1, -y+1, -z+1/2'
'z+1/2, x+1/2, y+1/2'
'z+1, -x+1, -y+1/2'
'-z+1, -x+1/2, y+1'
'-z+1/2, x+1, -y+1'
'y+1/2, z+1/2, x+1/2'
'-y+1/2, z+1, -x+1'
'y+1, -z+1, -x+1/2'
'-y+1, -z+1/2, x+1'
'y+5/4, x+3/4, -z+3/4'
'-y+5/4, -x+5/4, -z+5/4'
'y+3/4, -x+3/4, z+5/4'
'-y+3/4, x+5/4, z+3/4'
'x+5/4, z+3/4, -y+3/4'
'-x+3/4, z+5/4, y+3/4'
'-x+5/4, -z+5/4, -y+5/4'
'x+3/4, -z+3/4, y+5/4'
'z+5/4, y+3/4, -x+3/4'
'z+3/4, -y+3/4, x+5/4'
'-z+3/4, y+5/4, x+3/4'
'-z+5/4, -y+5/4, -x+5/4'
'-x, -y, -z'
'x-1/2, y, -z-1/2'
'x, -y-1/2, z-1/2'
'-x-1/2, y-1/2, z'
'-z, -x, -y'
'-z-1/2, x-1/2, y'
'z-1/2, x, -y-1/2'
'z, -x-1/2, y-1/2'
'-y, -z, -x'
'y, -z-1/2, x-1/2'
'-y-1/2, z-1/2, x'
'y-1/2, z, -x-1/2'
'-y-3/4, -x-1/4, z-1/4'
'y-3/4, x-3/4, z-3/4'
'-y-1/4, x-1/4, -z-3/4'
'y-1/4, -x-3/4, -z-1/4'
'-x-3/4, -z-1/4, y-1/4'
'x-1/4, -z-3/4, -y-1/4'
'x-3/4, z-3/4, y-3/4'
'-x-1/4, z-1/4, -y-3/4'
'-z-3/4, -y-1/4, x-1/4'
'-z-1/4, y-1/4, -x-3/4'
'z-1/4, -y-3/4, -x-1/4'
'z-3/4, y-3/4, x-3/4'
'-x+1/2, -y+1/2, -z+1/2'
'x, y+1/2, -z'
'x+1/2, -y, z'
'-x, y, z+1/2'
'-z+1/2, -x+1/2, -y+1/2'
'-z, x, y+1/2'
'z, x+1/2, -y'
'z+1/2, -x, y'
'-y+1/2, -z+1/2, -x+1/2'
'y+1/2, -z, x'
'-y, z, x+1/2'
'y, z+1/2, -x'
'-y-1/4, -x+1/4, z+1/4'
'y-1/4, x-1/4, z-1/4'
'-y+1/4, x+1/4, -z-1/4'
'y+1/4, -x-1/4, -z+1/4'
'-x-1/4, -z+1/4, y+1/4'
'x+1/4, -z-1/4, -y+1/4'
'x-1/4, z-1/4, y-1/4'
'-x+1/4, z+1/4, -y-1/4'
'-z-1/4, -y+1/4, x+1/4'
'-z+1/4, y+1/4, -x-1/4'
'z+1/4, -y-1/4, -x+1/4'
'z-1/4, y-1/4, x-1/4'

_cell_length_a                   69.12(2)
_cell_length_b                   69.12(2)
_cell_length_c                   69.12(2)
_cell_angle_alpha                90.00
_cell_angle_beta                 90.00
_cell_angle_gamma                90.00
_cell_volume                     330226(166)
_cell_formula_units_Z            96
_cell_measurement_temperature    296(2)
_cell_measurement_reflns_used    ?
_cell_measurement_theta_min      ?
_cell_measurement_theta_max      ?

_exptl_crystal_description       ?
_exptl_crystal_colour            ?
_exptl_crystal_size_max          ?
_exptl_crystal_size_mid          ?
_exptl_crystal_size_min          ?
_exptl_crystal_density_meas      ?
_exptl_crystal_density_diffrn    0.306
_exptl_crystal_density_method    'not measured'
_exptl_crystal_F_000             30624
_exptl_absorpt_coefficient_mu    0.517
_exptl_absorpt_correction_type   ?
_exptl_absorpt_correction_T_min  ?
_exptl_absorpt_correction_T_max  ?
_exptl_absorpt_process_details   ?

_exptl_special_details           
;
?
;

_diffrn_ambient_temperature      296(2)
_diffrn_radiation_wavelength     1.54178
_diffrn_radiation_type           CuK\a
_diffrn_radiation_source         'rotating anode'
_diffrn_radiation_monochromator  mirror
_diffrn_measurement_device_type  'Bruker MicroStar'
_diffrn_measurement_method       ?
_diffrn_detector_area_resol_mean ?
_diffrn_standards_number         ?
_diffrn_standards_interval_count ?
_diffrn_standards_interval_time  ?
_diffrn_standards_decay_%        ?
_diffrn_reflns_number            130942
_diffrn_reflns_av_R_equivalents  0.0296
_diffrn_reflns_av_sigmaI/netI    0.0130
_diffrn_reflns_limit_h_min       -54
_diffrn_reflns_limit_h_max       54
_diffrn_reflns_limit_k_min       -54
_diffrn_reflns_limit_k_max       54
_diffrn_reflns_limit_l_min       -45
_diffrn_reflns_limit_l_max       48
_diffrn_reflns_theta_min         1.57
_diffrn_reflns_theta_max         37.65
_reflns_number_total             6951
_reflns_number_gt                5169
_reflns_threshold_expression     >2sigma(I)

_computing_data_collection       ?
_computing_cell_refinement       ?
_computing_data_reduction        ?
_computing_structure_solution    'SHELXS-97 (Sheldrick, 1990)'
_computing_structure_refinement  'SHELXL-97 (Sheldrick, 1997)'
_computing_molecular_graphics    ?
_computing_publication_material  ?

_refine_special_details          
;
Refinement of F^2^ against ALL reflections. The weighted R-factor wR and
goodness of fit S are based on F^2^, conventional R-factors R are based
on F, with F set to zero for negative F^2^. The threshold expression of
F^2^ > 2sigma(F^2^) is used only for calculating R-factors(gt) etc. and is
not relevant to the choice of reflections for refinement. R-factors based
on F^2^ are statistically about twice as large as those based on F, and R-
factors based on ALL data will be even larger.
;

_refine_ls_structure_factor_coef Fsqd
_refine_ls_matrix_type           full
_refine_ls_weighting_scheme      calc
_refine_ls_weighting_details     
'calc w=1/[\s^2^(Fo^2^)+(0.2000P)^2^+0.0000P] where P=(Fo^2^+2Fc^2^)/3'
_atom_sites_solution_primary     direct
_atom_sites_solution_secondary   difmap
_atom_sites_solution_hydrogens   geom
_refine_ls_hydrogen_treatment    mixed
_refine_ls_extinction_method     none
_refine_ls_extinction_coef       ?
_refine_ls_number_reflns         6951
_refine_ls_number_parameters     359
_refine_ls_number_restraints     204
_refine_ls_R_factor_all          0.1486
_refine_ls_R_factor_gt           0.1264
_refine_ls_wR_factor_ref         0.4152
_refine_ls_wR_factor_gt          0.3802
_refine_ls_goodness_of_fit_ref   1.843
_refine_ls_restrained_S_all      1.840
_refine_ls_shift/su_max          0.001
_refine_ls_shift/su_mean         0.000

loop_
_atom_site_label
_atom_site_type_symbol
_atom_site_fract_x
_atom_site_fract_y
_atom_site_fract_z
_atom_site_U_iso_or_equiv
_atom_site_adp_type
_atom_site_occupancy
_atom_site_symmetry_multiplicity
_atom_site_calc_flag
_atom_site_refinement_flags
_atom_site_disorder_assembly
_atom_site_disorder_group
Zn1 Zn 0.48946(2) 0.22986(2) 0.18967(2) 0.1885(12) Uani 1 1 d . . .
Zn2 Zn 0.436884(18) 0.224604(18) 0.12422(2) 0.1774(12) Uani 1 1 d . . .
N1 N 0.45012(12) 0.24370(14) 0.14342(14) 0.188(3) Uani 1 1 d DU . .
C1 C 0.45954(14) 0.23611(17) 0.15833(16) 0.180(4) Uani 1 1 d DU . .
H1 H 0.4566 0.2233 0.1613 0.216 Uiso 1 1 calc R . .
N2 N 0.47283(12) 0.24486(13) 0.16962(12) 0.177(3) Uani 1 1 d DU . .
C2 C 0.47555(16) 0.26318(16) 0.16400(18) 0.176(4) Uani 1 1 d DU . .
C3 C 0.46633(16) 0.27318(17) 0.14825(18) 0.193(4) Uani 1 1 d DU . .
C4 C 0.45317(19) 0.26317(19) 0.13844(19) 0.197(4) Uani 1 1 d DU . .
N3 N 0.47379(13) 0.29166(12) 0.14588(15) 0.188(3) Uani 1 1 d DU . .
C5 C 0.48642(17) 0.29169(18) 0.16084(17) 0.191(4) Uani 1 1 d DU . .
H5 H 0.4937 0.3027 0.1636 0.230 Uiso 1 1 calc R . .
N4 N 0.48835(13) 0.27558(14) 0.17179(14) 0.185(3) Uani 1 1 d DU . .
N5 N 0.44332(13) 0.27191(12) 0.12346(15) 0.214(4) Uani 1 1 d DU . .
H10A H 0.4457 0.2838 0.1205 0.257 Uiso 1 1 calc R . .
H10B H 0.4348 0.2655 0.1171 0.257 Uiso 1 1 calc R . .
O1 O 0.5000 0.2500 0.20618(13) 0.188(3) Uani 1 2 d S . .
C11 C 0.4709(2) 0.1973(2) 0.1955(2) 0.229(7) Uani 1 1 d DU . .
O11A O 0.47684(16) 0.21104(14) 0.20520(17) 0.258(5) Uani 1 1 d D . .
O11B O 0.47244(17) 0.19581(15) 0.17792(16) 0.248(4) Uani 1 1 d D . .
C12 C 0.45977(17) 0.18176(18) 0.2061(2) 0.228(6) Uani 1 1 d DU . .
C13 C 0.4512(2) 0.16717(18) 0.19656(19) 0.243(6) Uani 1 1 d DU . .
H13 H 0.4518 0.1668 0.1831 0.292 Uiso 1 1 calc R . .
C14 C 0.4412(2) 0.15233(19) 0.20649(18) 0.245(6) Uani 1 1 d DU . .
H14 H 0.4356 0.1422 0.1995 0.294 Uiso 1 1 calc R . .
C15 C 0.4395(2) 0.15267(18) 0.22581(19) 0.225(6) Uani 1 1 d DU . .
C16 C 0.4471(3) 0.1681(2) 0.2348(2) 0.370(12) Uani 1 1 d DU . .
H16 H 0.4447 0.1697 0.2480 0.444 Uiso 1 1 calc R . .
C17 C 0.4584(3) 0.1821(2) 0.2254(2) 0.328(10) Uani 1 1 d DU . .
H17 H 0.4649 0.1916 0.2325 0.393 Uiso 1 1 calc R . .
C21 C 0.3988(2) 0.0930(2) 0.2678(2) 0.241(7) Uani 1 1 d DU . .
O21A O 0.38807(12) 0.08232(10) 0.25832(11) 0.196(3) Uani 1 1 d D . .
O21B O 0.3996(2) 0.09167(18) 0.28525(14) 0.355(8) Uani 1 1 d D . .
C22 C 0.40962(17) 0.10843(17) 0.25668(19) 0.229(6) Uani 1 1 d DU . .
C23 C 0.4099(2) 0.10877(18) 0.23774(18) 0.250(6) Uani 1 1 d DU . .
H23 H 0.4034 0.0992 0.2308 0.299 Uiso 1 1 calc R . .
C24 C 0.4198(2) 0.1235(2) 0.22766(19) 0.275(7) Uani 1 1 d DU . .
H24 H 0.4200 0.1232 0.2142 0.330 Uiso 1 1 calc R . .
C25 C 0.4290(2) 0.13786(18) 0.2366(2) 0.245(6) Uani 1 1 d DU . .
C26 C 0.4296(3) 0.1369(2) 0.2560(2) 0.349(11) Uani 1 1 d DU . .
H26 H 0.4371 0.1456 0.2630 0.419 Uiso 1 1 calc R . .
C27 C 0.4191(3) 0.1228(2) 0.2656(2) 0.382(14) Uani 1 1 d DU . .
H27 H 0.4185 0.1233 0.2791 0.459 Uiso 1 1 calc R . .
C31 C 0.4252(2) 0.1952(2) 0.1457(2) 0.204(6) Uani 1 1 d DU . .
O31A O 0.43832(11) 0.19874(11) 0.13372(14) 0.205(3) Uani 1 1 d D . .
O31B O 0.41450(14) 0.20772(12) 0.15138(18) 0.265(5) Uani 1 1 d D . .
C32 C 0.42114(16) 0.17411(17) 0.15106(15) 0.203(5) Uani 1 1 d DU . .
C33 C 0.40605(19) 0.16913(18) 0.16246(18) 0.239(6) Uani 1 1 d DU . .
H33 H 0.3982 0.1788 0.1676 0.287 Uiso 1 1 calc R . .
C34 C 0.40208(19) 0.14982(18) 0.1666(2) 0.238(6) Uani 1 1 d DU . .
H34A H 0.3915 0.1466 0.1743 0.285 Uiso 1 1 calc R . .
C35 C 0.41367(18) 0.13582(16) 0.15948(17) 0.188(4) Uani 1 1 d DU . .
C36 C 0.42890(17) 0.14068(18) 0.14821(17) 0.203(5) Uani 1 1 d DU . .
H36A H 0.4369 0.1310 0.1434 0.244 Uiso 1 1 calc R . .
C37 C 0.43270(17) 0.16000(16) 0.14380(18) 0.214(5) Uani 1 1 d DU . .
H37A H 0.4431 0.1632 0.1359 0.256 Uiso 1 1 calc R . .

loop_
_atom_site_aniso_label
_atom_site_aniso_U_11
_atom_site_aniso_U_22
_atom_site_aniso_U_33
_atom_site_aniso_U_23
_atom_site_aniso_U_13
_atom_site_aniso_U_12
Zn1 0.1844(16) 0.1596(15) 0.2215(18) 0.0044(11) 0.0008(11) -0.0124(10)
Zn2 0.1473(15) 0.1504(15) 0.2346(18) 0.0098(10) -0.0099(10) -0.0058(8)
N1 0.156(7) 0.171(7) 0.236(10) 0.010(7) -0.015(6) -0.004(6)
C1 0.147(10) 0.187(10) 0.207(12) -0.011(8) 0.007(7) 0.003(7)
N2 0.150(7) 0.172(7) 0.209(8) 0.008(7) -0.014(6) 0.002(6)
C2 0.152(10) 0.161(9) 0.216(11) 0.017(8) 0.025(7) 0.010(8)
C3 0.174(12) 0.165(9) 0.241(13) 0.002(8) 0.008(7) 0.013(7)
C4 0.194(13) 0.165(9) 0.233(13) -0.016(9) 0.001(7) 0.002(8)
N3 0.165(8) 0.141(6) 0.257(10) 0.021(7) -0.006(6) 0.014(6)
C5 0.174(11) 0.158(8) 0.242(14) 0.016(8) 0.005(7) 0.011(8)
N4 0.173(8) 0.160(8) 0.220(8) 0.018(6) 0.002(6) 0.005(6)
N5 0.199(9) 0.169(8) 0.273(11) 0.007(7) -0.026(7) 0.013(6)
O1 0.212(8) 0.146(6) 0.204(8) 0.000 0.000 -0.024(6)
C11 0.213(15) 0.197(16) 0.28(2) 0.061(16) 0.021(16) -0.006(11)
O11A 0.279(10) 0.194(9) 0.302(11) 0.019(8) 0.017(8) -0.072(8)
O11B 0.260(9) 0.205(8) 0.279(11) 0.036(9) 0.034(10) -0.025(6)
C12 0.271(15) 0.183(12) 0.229(12) 0.025(10) 0.010(12) -0.043(9)
C13 0.312(17) 0.205(14) 0.212(11) 0.010(9) 0.049(11) -0.054(10)
C14 0.334(17) 0.205(12) 0.196(9) 0.010(10) 0.024(12) -0.079(11)
C15 0.320(16) 0.160(10) 0.194(10) 0.001(9) 0.031(12) -0.063(9)
C16 0.60(3) 0.283(19) 0.227(12) -0.033(12) 0.064(17) -0.251(18)
C17 0.48(3) 0.270(16) 0.230(12) 0.008(13) 0.023(17) -0.192(15)
C21 0.33(2) 0.184(14) 0.207(15) 0.000(12) 0.014(15) -0.077(11)
O21A 0.251(8) 0.139(6) 0.197(7) 0.021(5) 0.027(6) -0.014(5)
O21B 0.55(2) 0.324(12) 0.186(8) 0.030(9) -0.009(11) -0.214(13)
C22 0.319(16) 0.186(12) 0.183(10) -0.009(9) 0.016(12) -0.068(10)
C23 0.354(17) 0.204(12) 0.191(10) -0.016(10) 0.024(12) -0.115(11)
C24 0.37(2) 0.245(16) 0.207(11) 0.018(10) 0.002(12) -0.144(12)
C25 0.367(19) 0.173(12) 0.196(10) -0.003(10) 0.033(12) -0.093(10)
C26 0.55(3) 0.308(18) 0.193(10) 0.007(13) 0.036(17) -0.226(18)
C27 0.62(4) 0.34(2) 0.186(11) -0.002(12) 0.012(16) -0.29(2)
C31 0.180(14) 0.138(10) 0.294(18) 0.026(11) -0.021(12) -0.012(10)
O31A 0.166(7) 0.154(6) 0.293(10) 0.043(6) -0.010(6) -0.022(5)
O31B 0.251(10) 0.155(7) 0.389(12) 0.024(8) 0.066(9) 0.010(6)
C32 0.181(11) 0.156(9) 0.271(14) 0.020(9) 0.018(8) -0.007(8)
C33 0.252(14) 0.165(9) 0.301(15) 0.007(10) 0.084(10) -0.019(10)
C34 0.240(13) 0.158(10) 0.315(15) 0.021(11) 0.071(11) -0.003(9)
C35 0.202(12) 0.160(10) 0.201(12) 0.029(8) 0.003(8) -0.004(8)
C36 0.225(12) 0.151(8) 0.234(12) 0.021(9) 0.026(8) -0.005(9)
C37 0.198(11) 0.148(9) 0.295(14) 0.021(10) 0.029(9) -0.001(8)

_geom_special_details            
;
All esds (except the esd in the dihedral angle between two l.s. planes)
are estimated using the full covariance matrix. The cell esds are taken
into account individually in the estimation of esds in distances, angles
and torsion angles; correlations between esds in cell parameters are only
used when they are defined by crystal symmetry. An approximate (isotropic)
treatment of cell esds is used for estimating esds involving l.s. planes.
;

loop_
_geom_bond_atom_site_label_1
_geom_bond_atom_site_label_2
_geom_bond_distance
_geom_bond_site_symmetry_2
_geom_bond_publ_flag
Zn1 O11A 1.899(9) . ?
Zn1 O1 1.942(5) . ?
Zn1 N4 2.006(9) 26_554 ?
Zn1 N2 2.078(9) . ?
Zn1 Zn1 3.143(3) 26_554 ?
Zn2 O31A 1.907(7) . ?
Zn2 O21A 1.969(7) 81 ?
Zn2 N3 2.033(9) 63_656 ?
Zn2 N1 2.083(9) . ?
N1 C1 1.327(10) . ?
N1 C4 1.405(12) . ?
C1 N2 1.349(10) . ?
N2 C2 1.338(10) . ?
C2 N4 1.344(11) . ?
C2 C3 1.439(12) . ?
C3 C4 1.329(11) . ?
C3 N3 1.387(10) . ?
C4 N5 1.378(11) . ?
N3 C5 1.353(10) . ?
N3 Zn2 2.033(9) 88_565 ?
C5 N4 1.353(10) . ?
N4 Zn1 2.006(9) 26_554 ?
O1 Zn1 1.942(5) 26_554 ?
C11 O11B 1.225(13) . ?
C11 O11A 1.234(13) . ?
C11 C12 1.510(16) . ?
C12 C17 1.333(11) . ?
C12 C13 1.345(11) . ?
C13 C14 1.415(11) . ?
C14 C15 1.340(10) . ?
C15 C16 1.344(11) . ?
C15 C25 1.461(17) . ?
C16 C17 1.406(12) . ?
C21 O21B 1.211(12) . ?
C21 O21A 1.235(12) . ?
C21 C22 1.512(15) . ?
O21A Zn2 1.969(7) 77 ?
C22 C23 1.309(10) . ?
C22 C27 1.338(12) . ?
C23 C24 1.414(11) . ?
C24 C25 1.330(11) . ?
C25 C26 1.344(11) . ?
C26 C27 1.386(12) . ?
C31 O31B 1.207(11) . ?
C31 O31A 1.249(12) . ?
C31 C32 1.531(15) . ?
C32 C33 1.352(10) . ?
C32 C37 1.357(11) . ?
C33 C34 1.392(11) . ?
C34 C35 1.349(11) . ?
C35 C36 1.352(10) . ?
C35 C35 1.55(2) 22_554 ?
C36 C37 1.394(11) . ?

loop_
_geom_angle_atom_site_label_1
_geom_angle_atom_site_label_2
_geom_angle_atom_site_label_3
_geom_angle
_geom_angle_site_symmetry_1
_geom_angle_site_symmetry_3
_geom_angle_publ_flag
O11A Zn1 O1 109.3(4) . . ?
O11A Zn1 N4 124.8(4) . 26_554 ?
O1 Zn1 N4 102.1(3) . 26_554 ?
O11A Zn1 N2 117.7(4) . . ?
O1 Zn1 N2 104.0(3) . . ?
N4 Zn1 N2 96.1(3) 26_554 . ?
O11A Zn1 Zn1 145.1(3) . 26_554 ?
O1 Zn1 Zn1 36.0(2) . 26_554 ?
N4 Zn1 Zn1 79.1(3) 26_554 26_554 ?
N2 Zn1 Zn1 79.3(3) . 26_554 ?
O31A Zn2 O21A 138.2(3) . 81 ?
O31A Zn2 N3 99.9(4) . 63_656 ?
O21A Zn2 N3 102.3(4) 81 63_656 ?
O31A Zn2 N1 110.6(4) . . ?
O21A Zn2 N1 101.0(4) 81 . ?
N3 Zn2 N1 97.6(3) 63_656 . ?
C1 N1 C4 119.7(11) . . ?
C1 N1 Zn2 117.4(8) . . ?
C4 N1 Zn2 121.1(8) . . ?
N1 C1 N2 127.3(12) . . ?
C2 N2 C1 110.6(11) . . ?
C2 N2 Zn1 126.0(9) . . ?
C1 N2 Zn1 122.6(8) . . ?
N2 C2 N4 125.4(13) . . ?
N2 C2 C3 127.7(11) . . ?
N4 C2 C3 106.8(9) . . ?
C4 C3 N3 132.4(13) . . ?
C4 C3 C2 116.1(11) . . ?
N3 C3 C2 111.5(9) . . ?
C3 C4 N5 119.5(13) . . ?
C3 C4 N1 118.4(12) . . ?
N5 C4 N1 122.0(12) . . ?
C5 N3 C3 98.7(10) . . ?
C5 N3 Zn2 120.2(9) . 88_565 ?
C3 N3 Zn2 139.7(9) . 88_565 ?
N3 C5 N4 119.3(12) . . ?
C2 N4 C5 103.6(11) . . ?
C2 N4 Zn1 129.1(8) . 26_554 ?
C5 N4 Zn1 125.1(9) . 26_554 ?
Zn1 O1 Zn1 108.0(4) . 26_554 ?
O11B C11 O11A 125.0(18) . . ?
O11B C11 C12 117.9(15) . . ?
O11A C11 C12 117.0(14) . . ?
C11 O11A Zn1 112.0(12) . . ?
C17 C12 C13 118.3(14) . . ?
C17 C12 C11 120.5(13) . . ?
C13 C12 C11 121.2(13) . . ?
C12 C13 C14 1