####################################################################### 
# 
# This file contains crystal structure data downloaded from the 
# Cambridge Structural Database (CSD) hosted by the Cambridge 
# Crystallographic Data Centre (CCDC).
# 
# Full information about CCDC data access policies and citation 
# guidelines are available at http://www.ccdc.cam.ac.uk/access/V1 
# 
# Audit and citation data items may have been added by the CCDC. 
# Please retain this information to preserve the provenance of 
# this file and to allow appropriate attribution of the data. 
# 
#######################################################################

data_compound_1
_audit_block_doi                 10.5517/ccq0pjx
_database_code_depnum_ccdc_archive 'CCDC 656069'
loop_
_citation_id
_citation_doi
_citation_year
1 10.1007/s10870-008-9436-5 2009
_audit_update_record             
;
2007-07-30 deposited with the CCDC.	2024-07-12 downloaded from the CCDC.
;

_audit_creation_method           SHELXL-97
_chemical_name_systematic        
;
?
;
_chemical_name_common            ?
_chemical_melting_point          ?
_chemical_formula_moiety         ?
_chemical_formula_sum            'C8 H18 Cd O11'
_chemical_formula_weight         402.62

loop_
_atom_type_symbol
_atom_type_description
_atom_type_scat_dispersion_real
_atom_type_scat_dispersion_imag
_atom_type_scat_source
C C 0.0033 0.0016 'International Tables Vol C Tables 4.2.6.8 and 6.1.1.4'
H H 0.0000 0.0000 'International Tables Vol C Tables 4.2.6.8 and 6.1.1.4'
O O 0.0106 0.0060 'International Tables Vol C Tables 4.2.6.8 and 6.1.1.4'
Cd Cd -0.8075 1.2024 'International Tables Vol C Tables 4.2.6.8 and 6.1.1.4'

_symmetry_cell_setting           Orthorhombic
_symmetry_space_group_name_H-M   Pcca

loop_
_symmetry_equiv_pos_as_xyz
'x, y, z'
'-x+1/2, -y, z'
'-x, y, -z+1/2'
'x+1/2, -y, -z+1/2'
'-x, -y, -z'
'x-1/2, y, -z'
'x, -y, z-1/2'
'-x-1/2, y, z-1/2'

_cell_length_a                   7.30180(10)
_cell_length_b                   9.9975(3)
_cell_length_c                   19.9695(5)
_cell_angle_alpha                90.00
_cell_angle_beta                 90.00
_cell_angle_gamma                90.00
_cell_volume                     1457.77(6)
_cell_formula_units_Z            4
_cell_measurement_temperature    293(2)
_cell_measurement_reflns_used    203
_cell_measurement_theta_min      2.04
_cell_measurement_theta_max      24.96

_exptl_crystal_description       needle
_exptl_crystal_colour            colorless
_exptl_crystal_size_max          0.60
_exptl_crystal_size_mid          0.28
_exptl_crystal_size_min          0.08
_exptl_crystal_density_meas      ?
_exptl_crystal_density_diffrn    1.835
_exptl_crystal_density_method    'not measured'
_exptl_crystal_F_000             808
_exptl_absorpt_coefficient_mu    1.548
_exptl_absorpt_correction_type   empirical
_exptl_absorpt_correction_T_min  0.5429
_exptl_absorpt_correction_T_max  1.0000
_exptl_absorpt_process_details   sadabs

_exptl_special_details           
;
?
;

_diffrn_ambient_temperature      293(2)
_diffrn_radiation_wavelength     0.71073
_diffrn_radiation_type           MoK\a
_diffrn_radiation_source         'fine-focus sealed tube'
_diffrn_radiation_monochromator  graphite
_diffrn_measurement_device_type  'CCD area detector'
_diffrn_measurement_method       'phi and omega scans'
_diffrn_detector_area_resol_mean ?
_diffrn_standards_number         ?
_diffrn_standards_interval_count ?
_diffrn_standards_interval_time  ?
_diffrn_standards_decay_%        ?
_diffrn_reflns_number            4824
_diffrn_reflns_av_R_equivalents  0.0346
_diffrn_reflns_av_sigmaI/netI    0.0330
_diffrn_reflns_limit_h_min       -8
_diffrn_reflns_limit_h_max       8
_diffrn_reflns_limit_k_min       -9
_diffrn_reflns_limit_k_max       11
_diffrn_reflns_limit_l_min       -14
_diffrn_reflns_limit_l_max       23
_diffrn_reflns_theta_min         2.04
_diffrn_reflns_theta_max         24.96
_reflns_number_total             1280
_reflns_number_gt                1007
_reflns_threshold_expression     >2sigma(I)

_computing_data_collection       'Siemens SMART'
_computing_cell_refinement       'Siemens SMART'
_computing_data_reduction        'Siemens SHELXTL'
_computing_structure_solution    'SHELXS-97 (Sheldrick, 1990)'
_computing_structure_refinement  'SHELXL-97 (Sheldrick, 1997)'
_computing_molecular_graphics    'Bruker SHELXTL'
_computing_publication_material  'Bruker SHELXTL'

_refine_special_details          
;
Refinement of F^2^ against ALL reflections. The weighted R-factor wR and
goodness of fit S are based on F^2^, conventional R-factors R are based
on F, with F set to zero for negative F^2^. The threshold expression of
F^2^ > 2sigma(F^2^) is used only for calculating R-factors(gt) etc. and is
not relevant to the choice of reflections for refinement. R-factors based
on F^2^ are statistically about twice as large as those based on F, and R-
factors based on ALL data will be even larger.
;

_refine_ls_structure_factor_coef Fsqd
_refine_ls_matrix_type           full
_refine_ls_weighting_scheme      calc
_refine_ls_weighting_details     
'calc w=1/[\s^2^(Fo^2^)+(0.0500P)^2^+1.2800P] where P=(Fo^2^+2Fc^2^)/3'
_atom_sites_solution_primary     direct
_atom_sites_solution_secondary   difmap
_atom_sites_solution_hydrogens   geom
_refine_ls_hydrogen_treatment    mixed
_refine_ls_extinction_method     SHELXL
_refine_ls_extinction_coef       0.0208(12)
_refine_ls_extinction_expression Fc^*^=kFc[1+0.001xFc^2^\l^3^/sin(2\q)]^-1/4^
_refine_ls_number_reflns         1280
_refine_ls_number_parameters     117
_refine_ls_number_restraints     0
_refine_ls_R_factor_all          0.0405
_refine_ls_R_factor_gt           0.0290
_refine_ls_wR_factor_ref         0.0833
_refine_ls_wR_factor_gt          0.0758
_refine_ls_goodness_of_fit_ref   1.007
_refine_ls_restrained_S_all      1.007
_refine_ls_shift/su_max          0.243
_refine_ls_shift/su_mean         0.028

loop_
_atom_site_label
_atom_site_type_symbol
_atom_site_fract_x
_atom_site_fract_y
_atom_site_fract_z
_atom_site_U_iso_or_equiv
_atom_site_adp_type
_atom_site_occupancy
_atom_site_symmetry_multiplicity
_atom_site_calc_flag
_atom_site_refinement_flags
_atom_site_disorder_assembly
_atom_site_disorder_group
Cd Cd 0.2500 0.5000 0.397842(17) 0.0259(2) Uani 1 2 d S . .
O3 O 0.2500 0.5000 0.2857(3) 0.0601(16) Uani 1 2 d S . .
O2 O 0.1445(4) 0.2636(2) 0.38124(12) 0.0353(7) Uani 1 1 d . . .
O4 O -0.0469(4) 0.5628(4) 0.39898(16) 0.0452(8) Uani 1 1 d . . .
H4A H -0.0744 0.5892 0.4365 0.068 Uiso 1 1 calc R . .
O1 O 0.1822(4) 0.3440(2) 0.48275(13) 0.0355(7) Uani 1 1 d . . .
C2 C 0.0598(5) 0.1002(3) 0.54253(17) 0.0292(8) Uani 1 1 d . . .
H2A H 0.1001 0.1672 0.5713 0.035 Uiso 1 1 calc R . .
C7 C 0.1350(5) 0.2503(3) 0.44446(18) 0.0278(8) Uani 1 1 d . . .
C1 C 0.0655(5) 0.1208(3) 0.47351(17) 0.0258(8) Uani 1 1 d . . .
C3 C -0.0049(5) -0.0183(3) 0.56862(18) 0.0283(8) Uani 1 1 d . . .
H3A H -0.0083 -0.0302 0.6148 0.034 Uiso 1 1 calc R . .
O02 O -0.1782(6) 0.1254(4) 0.7239(2) 0.0580(10) Uani 1 1 d . . .
O01 O 0.1932(5) 0.3103(4) 0.18606(16) 0.0514(8) Uani 1 1 d . . .
H01A H 0.216(7) 0.232(5) 0.210(3) 0.064(16) Uiso 1 1 d . . .
H03B H 0.220(7) 0.444(5) 0.265(3) 0.051(16) Uiso 1 1 d . . .
H02A H -0.210(9) 0.161(7) 0.695(4) 0.07(2) Uiso 1 1 d . . .
H02B H -0.12(2) 0.091(14) 0.739(12) 0.37(12) Uiso 1 1 d . . .
H01B H 0.087(9) 0.290(6) 0.167(3) 0.08(2) Uiso 1 1 d . . .
H4B H -0.100(7) 0.589(5) 0.373(2) 0.042(16) Uiso 1 1 d . . .

loop_
_atom_site_aniso_label
_atom_site_aniso_U_11
_atom_site_aniso_U_22
_atom_site_aniso_U_33
_atom_site_aniso_U_23
_atom_site_aniso_U_13
_atom_site_aniso_U_12
Cd 0.0330(3) 0.0186(3) 0.0262(3) 0.000 0.000 -0.00523(15)
O3 0.109(5) 0.038(3) 0.033(3) 0.000 0.000 -0.033(3)
O2 0.0463(17) 0.0283(15) 0.0314(14) 0.0070(12) 0.0019(12) -0.0053(12)
O4 0.0382(18) 0.064(2) 0.0336(17) -0.0068(14) -0.0044(14) 0.0119(17)
O1 0.0477(15) 0.0214(14) 0.0375(15) 0.0002(11) 0.0063(13) -0.0091(12)
C2 0.035(2) 0.0209(18) 0.032(2) -0.0028(15) -0.0005(15) -0.0032(16)
C7 0.0238(18) 0.0220(19) 0.0377(19) 0.0059(16) 0.0028(15) 0.0003(15)
C1 0.0261(18) 0.0189(18) 0.0326(18) 0.0028(14) 0.0048(15) 0.0012(15)
C3 0.0375(19) 0.022(2) 0.0252(19) 0.0024(14) 0.0038(15) -0.0017(15)
O02 0.076(2) 0.055(2) 0.043(2) -0.0020(18) -0.0050(18) 0.008(2)
O01 0.059(2) 0.049(2) 0.0454(19) 0.0052(16) -0.0120(16) -0.0066(17)

_geom_special_details            
;
All esds (except the esd in the dihedral angle between two l.s. planes)
are estimated using the full covariance matrix. The cell esds are taken
into account individually in the estimation of esds in distances, angles
and torsion angles; correlations between esds in cell parameters are only
used when they are defined by crystal symmetry. An approximate (isotropic)
treatment of cell esds is used for estimating esds involving l.s. planes.
;

loop_
_geom_bond_atom_site_label_1
_geom_bond_atom_site_label_2
_geom_bond_distance
_geom_bond_site_symmetry_2
_geom_bond_publ_flag
Cd O3 2.240(5) . ?
Cd O4 2.257(3) 2_565 ?
Cd O4 2.257(3) . ?
Cd O1 2.357(2) 2_565 ?
Cd O1 2.357(2) . ?
Cd O2 2.508(2) . ?
Cd O2 2.508(2) 2_565 ?
O3 H03B 0.73(4) . ?
O2 C7 1.271(4) . ?
O4 H4A 0.8200 . ?
O4 H4B 0.69(5) . ?
O1 C7 1.258(4) . ?
C2 C3 1.378(5) . ?
C2 C1 1.394(5) . ?
C2 H2A 0.9300 . ?
C7 C1 1.507(5) . ?
C1 C3 1.398(5) 5_556 ?
C3 C1 1.398(5) 5_556 ?
C3 H3A 0.9300 . ?
O02 H02A 0.71(7) . ?
O02 H02B 0.63(18) . ?
O01 H01A 0.93(6) . ?
O01 H01B 0.88(6) . ?

loop_
_geom_angle_atom_site_label_1
_geom_angle_atom_site_label_2
_geom_angle_atom_site_label_3
_geom_angle
_geom_angle_site_symmetry_1
_geom_angle_site_symmetry_3
_geom_angle_publ_flag
O3 Cd O4 90.58(8) . 2_565 ?
O3 Cd O4 90.58(8) . . ?
O4 Cd O4 178.84(16) 2_565 . ?
O3 Cd O1 136.01(6) . 2_565 ?
O4 Cd O1 88.57(12) 2_565 2_565 ?
O4 Cd O1 90.59(11) . 2_565 ?
O3 Cd O1 136.01(6) . . ?
O4 Cd O1 90.59(11) 2_565 . ?
O4 Cd O1 88.57(12) . . ?
O1 Cd O1 87.97(12) 2_565 . ?
O3 Cd O2 82.40(6) . . ?
O4 Cd O2 91.96(12) 2_565 . ?
O4 Cd O2 88.19(12) . . ?
O1 Cd O2 141.58(8) 2_565 . ?
O1 Cd O2 53.61(8) . . ?
O3 Cd O2 82.40(6) . 2_565 ?
O4 Cd O2 88.19(12) 2_565 2_565 ?
O4 Cd O2 91.96(12) . 2_565 ?
O1 Cd O2 53.61(8) 2_565 2_565 ?
O1 Cd O2 141.58(8) . 2_565 ?
O2 Cd O2 164.81(11) . 2_565 ?
Cd O3 H03B 125(4) . . ?
C7 O2 Cd 89.1(2) . . ?
Cd O4 H4A 109.5 . . ?
Cd O4 H4B 129(4) . . ?
H4A O4 H4B 114.8 . . ?
C7 O1 Cd 96.5(2) . . ?
C3 C2 C1 120.7(3) . . ?
C3 C2 H2A 119.6 . . ?
C1 C2 H2A 119.6 . . ?
O1 C7 O2 120.7(3) . . ?
O1 C7 C1 119.9(3) . . ?
O2 C7 C1 119.4(3) . . ?
C2 C1 C3 118.5(3) . 5_556 ?
C2 C1 C7 121.2(3) . . ?
C3 C1 C7 120.3(3) 5_556 . ?
C2 C3 C1 120.7(3) . 5_556 ?
C2 C3 H3A 119.6 . . ?
C1 C3 H3A 119.6 5_556 . ?
H02A O02 H02B 151(10) . . ?
H01A O01 H01B 101(5) . . ?

loop_
_geom_torsion_atom_site_label_1
_geom_torsion_atom_site_label_2
_geom_torsion_atom_site_label_3
_geom_torsion_atom_site_label_4
_geom_torsion
_geom_torsion_site_symmetry_1
_geom_torsion_site_symmetry_2
_geom_torsion_site_symmetry_3
_geom_torsion_site_symmetry_4
_geom_torsion_publ_flag
O3 Cd O2 C7 -178.9(2) . . . . ?
O4 Cd O2 C7 90.8(2) 2_565 . . . ?
O4 Cd O2 C7 -88.1(2) . . . . ?
O1 Cd O2 C7 0.6(3) 2_565 . . . ?
O1 Cd O2 C7 1.51(19) . . . . ?
O2 Cd O2 C7 -178.9(2) 2_565 . . . ?
O3 Cd O1 C7 -2.1(3) . . . . ?
O4 Cd O1 C7 -93.5(2) 2_565 . . . ?
O4 Cd O1 C7 87.3(2) . . . . ?
O1 Cd O1 C7 177.9(3) 2_565 . . . ?
O2 Cd O1 C7 -1.53(19) . . . . ?
O2 Cd O1 C7 178.63(19) 2_565 . . . ?
Cd O1 C7 O2 2.8(4) . . . . ?
Cd O1 C7 C1 -176.9(3) . . . . ?
Cd O2 C7 O1 -2.6(3) . . . . ?
Cd O2 C7 C1 177.1(3) . . . . ?
C3 C2 C1 C3 -0.3(6) . . . 5_556 ?
C3 C2 C1 C7 179.7(3) . . . . ?
O1 C7 C1 C2 -2.8(5) . . . . ?
O2 C7 C1 C2 177.4(3) . . . . ?
O1 C7 C1 C3 177.1(3) . . . 5_556 ?
O2 C7 C1 C3 -2.6(5) . . . 5_556 ?
C1 C2 C3 C1 0.3(6) . . . 5_556 ?

loop_
_geom_hbond_atom_site_label_D
_geom_hbond_atom_site_label_H
_geom_hbond_atom_site_label_A
_geom_hbond_distance_DH
_geom_hbond_distance_HA
_geom_hbond_distance_DA
_geom_hbond_angle_DHA
_geom_hbond_site_symmetry_A
O4 H4A O1 0.82 1.91 2.724(4) 169.4 5_566
O01 H01A O02 0.93(6) 1.87(6) 2.745(5) 157(5) 6_656
O3 H03B O01 0.73(4) 2.08(5) 2.780(5) 163(5) .
O02 H02A O2 0.71(7) 2.12(8) 2.826(6) 168(7) 6_556
O02 H02B O02 0.63(18) 2.31(18) 2.804(9) 136(16) 3_556
O01 H01B O2 0.88(6) 1.97(6) 2.847(4) 173(6) 3
O4 H4B O01 0.69(5) 2.17(5) 2.845(5) 165(5) 4_465

_diffrn_measured_fraction_theta_max 0.996
_diffrn_reflns_theta_full        24.96
_diffrn_measured_fraction_theta_full 0.996
_refine_diff_density_max         0.708
_refine_diff_density_min         -0.573
_refine_diff_density_rms         0.151
