####################################################################### 
# 
# This file contains crystal structure data downloaded from the 
# Cambridge Structural Database (CSD) hosted by the Cambridge 
# Crystallographic Data Centre (CCDC).
# 
# Full information about CCDC data access policies and citation 
# guidelines are available at http://www.ccdc.cam.ac.uk/access/V1 
# 
# Audit and citation data items may have been added by the CCDC. 
# Please retain this information to preserve the provenance of 
# this file and to allow appropriate attribution of the data. 
# 
#######################################################################

data_0170
_audit_block_doi                 10.5517/cc97cyt
_database_code_depnum_ccdc_archive 'CCDC 275216'
loop_
_citation_id
_citation_doi
_citation_year
1 10.1007/s10870-008-9336-8 2008
2 10.1016/j.jssc.2007.11.004 2008
_audit_update_record             
;
2005-06-15 deposited with the CCDC.	2024-07-12 downloaded from the CCDC.
;

_audit_creation_method           SHELXL-97
_chemical_name_systematic        
;
?
;
_chemical_name_common            ?
_chemical_melting_point          ?
_chemical_formula_moiety         ?
_chemical_formula_sum            'C8 H18 Cd O11'
_chemical_formula_weight         402.62

loop_
_atom_type_symbol
_atom_type_description
_atom_type_scat_dispersion_real
_atom_type_scat_dispersion_imag
_atom_type_scat_source
C C 0.0033 0.0016 'International Tables Vol C Tables 4.2.6.8 and 6.1.1.4'
H H 0.0000 0.0000 'International Tables Vol C Tables 4.2.6.8 and 6.1.1.4'
O O 0.0106 0.0060 'International Tables Vol C Tables 4.2.6.8 and 6.1.1.4'
Cd Cd -0.8075 1.2024 'International Tables Vol C Tables 4.2.6.8 and 6.1.1.4'

_symmetry_cell_setting           Orthorhombic
_symmetry_space_group_name_H-M   Pcca

loop_
_symmetry_equiv_pos_as_xyz
'x, y, z'
'-x+1/2, -y, z'
'-x, y, -z+1/2'
'x+1/2, -y, -z+1/2'
'-x, -y, -z'
'x-1/2, y, -z'
'x, -y, z-1/2'
'-x-1/2, y, z-1/2'

_cell_length_a                   7.293(2)
_cell_length_b                   9.980(3)
_cell_length_c                   19.889(6)
_cell_angle_alpha                90.00
_cell_angle_beta                 90.00
_cell_angle_gamma                90.00
_cell_volume                     1447.6(8)
_cell_formula_units_Z            4
_cell_measurement_temperature    293(2)
_cell_measurement_reflns_used    3067
_cell_measurement_theta_min      3.46
_cell_measurement_theta_max      25.99

_exptl_crystal_description       needle
_exptl_crystal_colour            colorless
_exptl_crystal_size_max          0.50
_exptl_crystal_size_mid          0.09
_exptl_crystal_size_min          0.05
_exptl_crystal_density_meas      ?
_exptl_crystal_density_diffrn    1.847
_exptl_crystal_density_method    'not measured'
_exptl_crystal_F_000             808
_exptl_absorpt_coefficient_mu    1.559
_exptl_absorpt_correction_type   Multi-scan
_exptl_absorpt_correction_T_min  0.5090
_exptl_absorpt_correction_T_max  0.9233
_exptl_absorpt_process_details   ?

_exptl_special_details           
;
?
;

_diffrn_ambient_temperature      293(2)
_diffrn_radiation_wavelength     0.71073
_diffrn_radiation_type           MoK\a
_diffrn_radiation_source         'fine-focus sealed tube'
_diffrn_radiation_monochromator  graphite
_diffrn_measurement_device_type  'CCD area detector'
_diffrn_measurement_method       'phi and omega scans'
_diffrn_detector_area_resol_mean ?
_diffrn_standards_number         ?
_diffrn_standards_interval_count ?
_diffrn_standards_interval_time  ?
_diffrn_standards_decay_%        ?
_diffrn_reflns_number            7204
_diffrn_reflns_av_R_equivalents  0.0330
_diffrn_reflns_av_sigmaI/netI    0.0255
_diffrn_reflns_limit_h_min       -9
_diffrn_reflns_limit_h_max       8
_diffrn_reflns_limit_k_min       -12
_diffrn_reflns_limit_k_max       12
_diffrn_reflns_limit_l_min       -24
_diffrn_reflns_limit_l_max       21
_diffrn_reflns_theta_min         2.04
_diffrn_reflns_theta_max         26.08
_reflns_number_total             1407
_reflns_number_gt                1264
_reflns_threshold_expression     >2sigma(I)

_computing_data_collection       'Bruker SMART'
_computing_cell_refinement       'Bruker SMART'
_computing_data_reduction        'Bruker SAINT'
_computing_structure_solution    'SHELXS-97 (Sheldrick, 1990)'
_computing_structure_refinement  'SHELXL-97 (Sheldrick, 1997)'
_computing_molecular_graphics    'Bruker SHELXTL'
_computing_publication_material  'Bruker SHELXTL'

_refine_special_details          
;
Refinement of F^2^ against ALL reflections. The weighted R-factor wR and
goodness of fit S are based on F^2^, conventional R-factors R are based
on F, with F set to zero for negative F^2^. The threshold expression of
F^2^ > 2sigma(F^2^) is used only for calculating R-factors(gt) etc. and is
not relevant to the choice of reflections for refinement. R-factors based
on F^2^ are statistically about twice as large as those based on F, and R-
factors based on ALL data will be even larger.
;

_refine_ls_structure_factor_coef Fsqd
_refine_ls_matrix_type           full
_refine_ls_weighting_scheme      calc
_refine_ls_weighting_details     
'calc w=1/[\s^2^(Fo^2^)+(0.0353P)^2^+9.7677P] where P=(Fo^2^+2Fc^2^)/3'
_atom_sites_solution_primary     direct
_atom_sites_solution_secondary   difmap
_atom_sites_solution_hydrogens   geom
_refine_ls_hydrogen_treatment    constr
_refine_ls_extinction_method     none
_refine_ls_extinction_coef       ?
_refine_ls_number_reflns         1407
_refine_ls_number_parameters     92
_refine_ls_number_restraints     0
_refine_ls_R_factor_all          0.0532
_refine_ls_R_factor_gt           0.0483
_refine_ls_wR_factor_ref         0.1143
_refine_ls_wR_factor_gt          0.1118
_refine_ls_goodness_of_fit_ref   1.185
_refine_ls_restrained_S_all      1.185
_refine_ls_shift/su_max          0.000
_refine_ls_shift/su_mean         0.000

loop_
_atom_site_label
_atom_site_type_symbol
_atom_site_fract_x
_atom_site_fract_y
_atom_site_fract_z
_atom_site_U_iso_or_equiv
_atom_site_adp_type
_atom_site_occupancy
_atom_site_symmetry_multiplicity
_atom_site_calc_flag
_atom_site_refinement_flags
_atom_site_disorder_assembly
_atom_site_disorder_group
Cd Cd 0.2500 0.0000 0.10225(3) 0.0248(2) Uani 1 2 d S . .
O1 O 0.1825(6) -0.1564(4) 0.0171(2) 0.0294(9) Uani 1 1 d . . .
O2 O 0.1440(6) -0.2359(4) 0.1187(2) 0.0311(9) Uani 1 1 d . . .
O3 O 0.2500 0.0000 0.2152(3) 0.0497(19) Uani 1 2 d S . .
O4 O -0.0490(6) 0.0637(5) 0.1013(2) 0.0397(11) Uani 1 1 d . . .
O5 O -0.1913(7) -0.1909(5) 0.1862(2) 0.0468(12) Uani 1 1 d . . .
O6 O -0.3206(8) -0.3735(5) 0.2765(3) 0.0511(13) Uani 1 1 d . . .
C1 C 0.1350(7) -0.2489(5) 0.0553(3) 0.0220(11) Uani 1 1 d . . .
C2 C 0.0653(7) -0.3801(5) 0.0269(3) 0.0215(11) Uani 1 1 d . . .
C3 C 0.0588(8) -0.3989(6) -0.0430(3) 0.0269(12) Uani 1 1 d . . .
H3 H 0.0965 -0.3310 -0.0718 0.032 Uiso 1 1 calc R . .
C4 C 0.0043(8) -0.4801(5) 0.0688(3) 0.0264(12) Uani 1 1 d . . .
H4 H 0.0052 -0.4668 0.1151 0.032 Uiso 1 1 calc R . .

loop_
_atom_site_aniso_label
_atom_site_aniso_U_11
_atom_site_aniso_U_22
_atom_site_aniso_U_33
_atom_site_aniso_U_23
_atom_site_aniso_U_13
_atom_site_aniso_U_12
Cd 0.0294(3) 0.0182(3) 0.0268(3) 0.000 0.000 -0.0066(2)
O1 0.039(2) 0.0178(18) 0.032(2) 0.0002(16) -0.0058(18) -0.0053(17)
O2 0.039(2) 0.022(2) 0.032(2) -0.0050(18) -0.0033(19) -0.0051(18)
O3 0.090(6) 0.039(3) 0.021(3) 0.000 0.000 -0.036(4)
O4 0.035(3) 0.048(3) 0.036(2) 0.008(2) -0.002(2) 0.005(2)
O5 0.052(3) 0.048(3) 0.041(3) 0.002(2) 0.010(2) 0.007(2)
O6 0.060(3) 0.046(3) 0.047(3) 0.002(2) -0.005(2) -0.004(3)
C1 0.019(3) 0.016(2) 0.032(3) -0.004(2) 0.000(2) 0.000(2)
C2 0.017(3) 0.016(2) 0.031(3) -0.003(2) -0.005(2) -0.001(2)
C3 0.030(3) 0.020(3) 0.031(3) 0.002(2) 0.000(2) -0.004(2)
C4 0.037(3) 0.017(3) 0.025(3) -0.001(2) -0.003(2) -0.005(2)

_geom_special_details            
;
All esds (except the esd in the dihedral angle between two l.s. planes)
are estimated using the full covariance matrix. The cell esds are taken
into account individually in the estimation of esds in distances, angles
and torsion angles; correlations between esds in cell parameters are only
used when they are defined by crystal symmetry. An approximate (isotropic)
treatment of cell esds is used for estimating esds involving l.s. planes.
;

loop_
_geom_bond_atom_site_label_1
_geom_bond_atom_site_label_2
_geom_bond_distance
_geom_bond_site_symmetry_2
_geom_bond_publ_flag
Cd O3 2.247(6) . ?
Cd O4 2.271(5) 2 ?
Cd O4 2.271(5) . ?
Cd O1 2.356(4) . ?
Cd O1 2.356(4) 2 ?
Cd O2 2.500(4) . ?
Cd O2 2.500(4) 2 ?
O1 C1 1.245(7) . ?
O2 C1 1.270(7) . ?
C1 C2 1.513(7) . ?
C2 C4 1.374(8) . ?
C2 C3 1.404(8) . ?
C3 C4 1.390(7) 5_545 ?
C3 H3 0.9300 . ?
C4 C3 1.390(7) 5_545 ?
C4 H4 0.9300 . ?

loop_
_geom_angle_atom_site_label_1
_geom_angle_atom_site_label_2
_geom_angle_atom_site_label_3
_geom_angle
_geom_angle_site_symmetry_1
_geom_angle_site_symmetry_3
_geom_angle_publ_flag
O3 Cd O4 90.50(11) . 2 ?
O3 Cd O4 90.50(11) . . ?
O4 Cd O4 179.0(2) 2 . ?
O3 Cd O1 136.00(9) . . ?
O4 Cd O1 90.50(15) 2 . ?
O4 Cd O1 88.78(16) . . ?
O3 Cd O1 136.00(9) . 2 ?
O4 Cd O1 88.78(16) 2 2 ?
O4 Cd O1 90.50(15) . 2 ?
O1 Cd O1 88.01(19) . 2 ?
O3 Cd O2 82.49(10) . . ?
O4 Cd O2 91.96(16) 2 . ?
O4 Cd O2 88.17(16) . . ?
O1 Cd O2 53.51(13) . . ?
O1 Cd O2 141.51(14) 2 . ?
O3 Cd O2 82.49(10) . 2 ?
O4 Cd O2 88.17(16) 2 2 ?
O4 Cd O2 91.96(16) . 2 ?
O1 Cd O2 141.51(14) . 2 ?
O1 Cd O2 53.51(13) 2 2 ?
O2 Cd O2 164.99(19) . 2 ?
C1 O1 Cd 96.4(3) . . ?
C1 O2 Cd 89.0(3) . . ?
O1 C1 O2 121.1(5) . . ?
O1 C1 C2 120.6(5) . . ?
O2 C1 C2 118.4(5) . . ?
C4 C2 C3 119.5(5) . . ?
C4 C2 C1 120.8(5) . . ?
C3 C2 C1 119.7(5) . . ?
C4 C3 C2 119.6(5) 5_545 . ?
C4 C3 H3 120.2 5_545 . ?
C2 C3 H3 120.2 . . ?
C2 C4 C3 120.9(5) . 5_545 ?
C2 C4 H4 119.5 . . ?
C3 C4 H4 119.5 5_545 . ?

_diffrn_measured_fraction_theta_max 0.979
_diffrn_reflns_theta_full        26.08
_diffrn_measured_fraction_theta_full 0.979
_refine_diff_density_max         1.238
_refine_diff_density_min         -0.516
_refine_diff_density_rms         0.123


