####################################################################### 
# 
# This file contains crystal structure data downloaded from the 
# Cambridge Structural Database (CSD) hosted by the Cambridge 
# Crystallographic Data Centre (CCDC).
# 
# Full information about CCDC data access policies and citation 
# guidelines are available at http://www.ccdc.cam.ac.uk/access/V1 
# 
# Audit and citation data items may have been added by the CCDC. 
# Please retain this information to preserve the provenance of 
# this file and to allow appropriate attribution of the data. 
# 
#######################################################################

data_1
_audit_block_doi                 10.5517/ccwv461
_database_code_depnum_ccdc_archive 'CCDC 829473'
loop_
_citation_id
_citation_doi
_citation_year
1 10.1002/chem.201101963 2012
_audit_update_record             
;
2011-06-13 deposited with the CCDC.	2024-07-12 downloaded from the CCDC.
;
#TrackingRef '1.cif'


_audit_creation_method           SHELXL-97
_chemical_name_systematic        
;
?
;
_chemical_name_common            ?
_chemical_melting_point          ?
_chemical_formula_moiety         'C48 H40 Cu5 I2 N16 S4 W, I'
_chemical_formula_sum            'C48 H40 Cu5 I3 N16 S4 W'
_chemical_formula_weight         1851.45

loop_
_atom_type_symbol
_atom_type_description
_atom_type_scat_dispersion_real
_atom_type_scat_dispersion_imag
_atom_type_scat_source
C C 0.0033 0.0016 'International Tables Vol C Tables 4.2.6.8 and 6.1.1.4'
H H 0.0000 0.0000 'International Tables Vol C Tables 4.2.6.8 and 6.1.1.4'
N N 0.0061 0.0033 'International Tables Vol C Tables 4.2.6.8 and 6.1.1.4'
S S 0.1246 0.1234 'International Tables Vol C Tables 4.2.6.8 and 6.1.1.4'
Cu Cu 0.3201 1.2651 'International Tables Vol C Tables 4.2.6.8 and 6.1.1.4'
I I -0.4742 1.8119 'International Tables Vol C Tables 4.2.6.8 and 6.1.1.4'
W W -0.8490 6.8722 'International Tables Vol C Tables 4.2.6.8 and 6.1.1.4'

_symmetry_cell_setting           Monoclinic
_symmetry_space_group_name_H-M   'P 2/c'
_symmetry_space_group_name_Hall  '-P 2yc'

loop_
_symmetry_equiv_pos_as_xyz
'x, y, z'
'-x, y, -z+1/2'
'-x, -y, -z'
'x, -y, z-1/2'

_cell_length_a                   12.7204(11)
_cell_length_b                   18.9452(17)
_cell_length_c                   19.4378(18)
_cell_angle_alpha                90.00
_cell_angle_beta                 101.771(2)
_cell_angle_gamma                90.00
_cell_volume                     4585.8(7)
_cell_formula_units_Z            2
_cell_measurement_temperature    291(2)
_cell_measurement_reflns_used    7763
_cell_measurement_theta_min      2.381
_cell_measurement_theta_max      24.245

_exptl_crystal_description       prism
_exptl_crystal_colour            red
_exptl_crystal_size_max          0.32
_exptl_crystal_size_mid          0.26
_exptl_crystal_size_min          0.19
_exptl_crystal_density_meas      ?
_exptl_crystal_density_diffrn    1.341
_exptl_crystal_density_method    'not measured'
_exptl_crystal_F_000             1764
_exptl_absorpt_coefficient_mu    3.520
_exptl_absorpt_correction_type   MULTI-SCAN
_exptl_absorpt_correction_T_min  0.347
_exptl_absorpt_correction_T_max  0.512
_exptl_absorpt_process_details   'SADABS; Bruker, 2000'

_exptl_special_details           
;
?
;

_diffrn_ambient_temperature      291(2)
_diffrn_radiation_wavelength     0.71073
_diffrn_radiation_type           MoK\a
_diffrn_radiation_source         'fine-focus sealed tube'
_diffrn_radiation_monochromator  graphite
_diffrn_measurement_device_type  'Bruker Smart Apex CCD'
_diffrn_measurement_method       'phi and omega scans'
_diffrn_detector_area_resol_mean ?
_diffrn_standards_number         ?
_diffrn_standards_interval_count ?
_diffrn_standards_interval_time  ?
_diffrn_standards_decay_%        ?
_diffrn_reflns_number            32268
_diffrn_reflns_av_R_equivalents  0.0673
_diffrn_reflns_av_sigmaI/netI    0.0573
_diffrn_reflns_limit_h_min       -15
_diffrn_reflns_limit_h_max       14
_diffrn_reflns_limit_k_min       -22
_diffrn_reflns_limit_k_max       21
_diffrn_reflns_limit_l_min       -23
_diffrn_reflns_limit_l_max       23
_diffrn_reflns_theta_min         1.96
_diffrn_reflns_theta_max         25.05
_reflns_number_total             8122
_reflns_number_gt                5969
_reflns_threshold_expression     >2sigma(I)

_computing_data_collection       'SMART (Bruker, 2000)'
_computing_cell_refinement       SMART
_computing_data_reduction        'SAINT (Bruker, 2000)'
_computing_structure_solution    'SHELXTL (Bruker, 2000)'
_computing_structure_refinement  SHELXTL
_computing_molecular_graphics    SHELXTL
_computing_publication_material  SHELXTL

_refine_special_details          
;
Refinement of F^2^ against ALL reflections. The weighted R-factor wR and
goodness of fit S are based on F^2^, conventional R-factors R are based
on F, with F set to zero for negative F^2^. The threshold expression of
F^2^ > 2sigma(F^2^) is used only for calculating R-factors(gt) etc. and is
not relevant to the choice of reflections for refinement. R-factors based
on F^2^ are statistically about twice as large as those based on F, and R-
factors based on ALL data will be even larger.
;

_refine_ls_structure_factor_coef Fsqd
_refine_ls_matrix_type           full
_refine_ls_weighting_scheme      calc
_refine_ls_weighting_details     
'calc w=1/[\s^2^(Fo^2^)+(0.0614P)^2^+0.0000P] where P=(Fo^2^+2Fc^2^)/3'
_atom_sites_solution_primary     direct
_atom_sites_solution_secondary   difmap
_atom_sites_solution_hydrogens   geom
_refine_ls_hydrogen_treatment    constr
_refine_ls_extinction_method     none
_refine_ls_extinction_coef       ?
_refine_ls_number_reflns         8122
_refine_ls_number_parameters     349
_refine_ls_number_restraints     0
_refine_ls_R_factor_all          0.0594
_refine_ls_R_factor_gt           0.0446
_refine_ls_wR_factor_ref         0.1166
_refine_ls_wR_factor_gt          0.1124
_refine_ls_goodness_of_fit_ref   0.973
_refine_ls_restrained_S_all      0.973
_refine_ls_shift/su_max          0.002
_refine_ls_shift/su_mean         0.000

loop_
_platon_squeeze_void_nr
_platon_squeeze_void_average_x
_platon_squeeze_void_average_y
_platon_squeeze_void_average_z
_platon_squeeze_void_volume
_platon_squeeze_void_count_electrons
_platon_squeeze_void_content
1 -0.065 0.000 0.131 2033 415 ' '

loop_
_atom_site_label
_atom_site_type_symbol
_atom_site_fract_x
_atom_site_fract_y
_atom_site_fract_z
_atom_site_U_iso_or_equiv
_atom_site_adp_type
_atom_site_occupancy
_atom_site_symmetry_multiplicity
_atom_site_calc_flag
_atom_site_refinement_flags
_atom_site_disorder_assembly
_atom_site_disorder_group
C1 C -0.1761(5) 0.5665(4) 0.2112(4) 0.0668(19) Uani 1 1 d . . .
H1 H -0.2153 0.5420 0.2389 0.080 Uiso 1 1 calc R . .
C2 C -0.1054(6) 0.5292(4) 0.1785(4) 0.080(2) Uani 1 1 d . . .
H2 H -0.1001 0.4804 0.1836 0.096 Uiso 1 1 calc R . .
C3 C -0.0441(5) 0.5635(4) 0.1393(4) 0.0608(17) Uani 1 1 d . . .
C4 C -0.0592(6) 0.6341(5) 0.1314(4) 0.089(3) Uani 1 1 d . . .
H4 H -0.0209 0.6597 0.1038 0.107 Uiso 1 1 calc R . .
C5 C -0.1315(6) 0.6681(4) 0.1642(5) 0.093(3) Uani 1 1 d . . .
H5 H -0.1407 0.7166 0.1580 0.112 Uiso 1 1 calc R . .
C6 C 0.0335(5) 0.5256(4) 0.1081(4) 0.080(2) Uani 1 1 d . . .
H6 H 0.0372 0.4767 0.1131 0.096 Uiso 1 1 calc R . .
C7 C 0.2235(5) 0.5320(4) 0.0149(4) 0.0693(19) Uani 1 1 d . . .
H7 H 0.2218 0.5804 0.0071 0.083 Uiso 1 1 calc R . .
C8 C 0.2990(5) 0.4869(4) -0.0141(3) 0.0598(17) Uani 1 1 d . . .
C9 C 0.3591(5) 0.5124(4) -0.0585(4) 0.0717(19) Uani 1 1 d . . .
H9 H 0.3561 0.5600 -0.0703 0.086 Uiso 1 1 calc R . .
C10 C 0.4247(5) 0.4673(4) -0.0858(3) 0.0649(18) Uani 1 1 d . . .
H10 H 0.4655 0.4860 -0.1160 0.078 Uiso 1 1 calc R . .
C11 C 0.3745(7) 0.3753(4) -0.0279(5) 0.101(3) Uani 1 1 d . . .
H11 H 0.3798 0.3277 -0.0161 0.121 Uiso 1 1 calc R . .
C12 C 0.3074(6) 0.4165(5) 0.0005(5) 0.097(3) Uani 1 1 d . . .
H12 H 0.2668 0.3965 0.0302 0.116 Uiso 1 1 calc R . .
C13 C -0.1513(6) 0.7532(4) 0.3851(4) 0.0679(19) Uani 1 1 d . . .
H13 H -0.1757 0.7149 0.4073 0.081 Uiso 1 1 calc R . .
C14 C -0.0831(6) 0.7999(4) 0.4249(4) 0.073(2) Uani 1 1 d . . .
H14 H -0.0637 0.7936 0.4733 0.088 Uiso 1 1 calc R . .
C15 C -0.0433(5) 0.8554(4) 0.3941(4) 0.0648(18) Uani 1 1 d . . .
C16 C -0.0777(6) 0.8629(4) 0.3233(4) 0.080(2) Uani 1 1 d . . .
H16 H -0.0529 0.9002 0.2999 0.096 Uiso 1 1 calc R . .
C17 C -0.1492(6) 0.8152(4) 0.2870(4) 0.077(2) Uani 1 1 d . . .
H17 H -0.1739 0.8222 0.2391 0.092 Uiso 1 1 calc R . .
C18 C 0.0326(6) 0.9064(4) 0.4331(5) 0.073(2) Uani 1 1 d . . .
H18 H 0.0584 0.9424 0.4085 0.088 Uiso 1 1 calc R . .
C19 C 0.1679(6) 0.9583(4) 0.5876(5) 0.077(2) Uani 1 1 d . . .
H19 H 0.1382 0.9253 0.6135 0.093 Uiso 1 1 calc R . .
C20 C 0.2469(5) 1.0082(4) 0.6247(4) 0.0658(18) Uani 1 1 d . . .
C21 C 0.2820(7) 1.0072(4) 0.6955(4) 0.090(3) Uani 1 1 d . . .
H21 H 0.2562 0.9728 0.7219 0.108 Uiso 1 1 calc R . .
C22 C 0.3531(7) 1.0546(4) 0.7281(4) 0.085(2) Uani 1 1 d . . .
H22 H 0.3756 1.0516 0.7766 0.102 Uiso 1 1 calc R . .
C23 C 0.3591(6) 1.1097(4) 0.6261(4) 0.0683(19) Uani 1 1 d . . .
H23 H 0.3837 1.1462 0.6017 0.082 Uiso 1 1 calc R . .
C24 C 0.2886(6) 1.0619(4) 0.5885(4) 0.079(2) Uani 1 1 d . . .
H24 H 0.2689 1.0653 0.5398 0.095 Uiso 1 1 calc R . .
Cu1 Cu -0.46380(6) 0.67242(4) 0.39223(4) 0.0577(2) Uani 1 1 d . . .
Cu2 Cu -0.28727(6) 0.68860(4) 0.25636(4) 0.0567(2) Uani 1 1 d . . .
Cu3 Cu -0.5000 0.82243(5) 0.2500 0.0550(3) Uani 1 2 d S . .
I1 I -0.35951(4) 0.72753(3) 0.50499(3) 0.08064(18) Uani 1 1 d . . .
I2 I 0.0000 0.05027(6) 0.2500 0.1601(5) Uani 1 2 d S . .
N1 N -0.1889(4) 0.6344(3) 0.2043(3) 0.0586(14) Uani 1 1 d . . .
N2 N 0.0957(5) 0.5549(3) 0.0748(4) 0.0835(19) Uani 1 1 d . . .
N3 N 0.1619(5) 0.5047(3) 0.0499(3) 0.0807(18) Uani 1 1 d . . .
N4 N 0.4332(4) 0.4001(3) -0.0719(3) 0.0599(14) Uani 1 1 d . . .
N5 N -0.1844(4) 0.7599(3) 0.3164(3) 0.0567(13) Uani 1 1 d . . .
N6 N 0.0636(5) 0.9033(3) 0.4979(4) 0.0798(18) Uani 1 1 d . . .
N7 N 0.1391(5) 0.9584(3) 0.5229(4) 0.0793(18) Uani 1 1 d . . .
N8 N 0.3935(4) 1.1067(3) 0.6938(3) 0.0590(14) Uani 1 1 d . . .
S1 S -0.62421(12) 0.61365(8) 0.18260(9) 0.0543(4) Uani 1 1 d . . .
S2 S -0.57945(12) 0.74926(8) 0.31865(8) 0.0485(4) Uani 1 1 d . . .
W1 W -0.5000 0.679732(17) 0.2500 0.04187(12) Uani 1 2 d S . .

loop_
_atom_site_aniso_label
_atom_site_aniso_U_11
_atom_site_aniso_U_22
_atom_site_aniso_U_33
_atom_site_aniso_U_23
_atom_site_aniso_U_13
_atom_site_aniso_U_12
C1 0.058(4) 0.075(5) 0.075(5) -0.009(4) 0.032(4) -0.006(4)
C2 0.071(5) 0.070(5) 0.106(6) -0.010(4) 0.039(5) 0.015(4)
C3 0.043(4) 0.072(5) 0.071(4) -0.014(4) 0.021(3) 0.000(3)
C4 0.068(5) 0.092(6) 0.127(7) -0.004(5) 0.065(5) -0.002(4)
C5 0.098(6) 0.064(5) 0.144(8) 0.003(5) 0.087(6) 0.007(4)
C6 0.057(5) 0.083(5) 0.107(6) -0.012(5) 0.034(4) 0.010(4)
C7 0.051(4) 0.079(5) 0.082(5) -0.017(4) 0.023(4) 0.009(4)
C8 0.044(4) 0.075(5) 0.063(4) -0.015(4) 0.018(3) 0.002(3)
C9 0.068(5) 0.067(5) 0.087(5) 0.000(4) 0.033(4) 0.010(4)
C10 0.065(5) 0.070(5) 0.066(4) 0.001(4) 0.030(4) 0.011(4)
C11 0.119(7) 0.063(5) 0.153(8) 0.001(5) 0.102(6) 0.006(5)
C12 0.102(6) 0.083(6) 0.131(7) 0.007(5) 0.086(6) 0.005(5)
C13 0.069(5) 0.065(5) 0.073(5) -0.006(4) 0.023(4) -0.010(4)
C14 0.079(5) 0.076(5) 0.065(4) -0.005(4) 0.018(4) -0.009(4)
C15 0.054(4) 0.070(5) 0.075(5) -0.008(4) 0.024(4) -0.005(4)
C16 0.079(5) 0.073(5) 0.091(6) -0.003(4) 0.026(5) -0.022(4)
C17 0.075(5) 0.081(5) 0.073(5) 0.000(4) 0.013(4) -0.017(4)
C18 0.073(5) 0.059(5) 0.091(6) -0.016(4) 0.023(4) -0.015(4)
C19 0.079(5) 0.060(5) 0.098(6) -0.013(4) 0.030(5) -0.016(4)
C20 0.065(5) 0.050(4) 0.084(5) -0.012(4) 0.020(4) -0.001(3)
C21 0.108(7) 0.085(6) 0.075(6) 0.014(4) 0.010(5) -0.039(5)
C22 0.107(6) 0.071(5) 0.070(5) 0.003(4) 0.006(4) -0.037(5)
C23 0.074(5) 0.068(5) 0.069(5) 0.004(4) 0.027(4) -0.012(4)
C24 0.082(5) 0.087(6) 0.073(5) -0.015(4) 0.024(4) -0.018(5)
Cu1 0.0543(5) 0.0637(5) 0.0617(5) 0.0069(4) 0.0271(4) 0.0010(4)
Cu2 0.0391(4) 0.0633(5) 0.0738(5) -0.0053(4) 0.0261(4) -0.0007(4)
Cu3 0.0558(7) 0.0453(6) 0.0681(7) 0.000 0.0222(5) 0.000
I1 0.0891(4) 0.0871(4) 0.0683(3) -0.0029(3) 0.0222(3) -0.0089(3)
I2 0.2141(13) 0.0997(8) 0.2059(13) 0.000 0.1353(11) 0.000
N1 0.045(3) 0.063(4) 0.075(4) -0.014(3) 0.028(3) -0.001(3)
N2 0.055(4) 0.093(5) 0.112(5) -0.027(4) 0.040(4) 0.003(3)
N3 0.062(4) 0.084(4) 0.109(5) -0.027(4) 0.047(4) 0.005(3)
N4 0.050(3) 0.066(4) 0.071(4) -0.013(3) 0.030(3) 0.001(3)
N5 0.046(3) 0.057(3) 0.071(4) -0.007(3) 0.020(3) -0.005(2)
N6 0.071(4) 0.074(4) 0.096(5) -0.027(4) 0.020(4) -0.016(3)
N7 0.078(4) 0.074(4) 0.086(5) -0.024(4) 0.016(4) -0.015(3)
N8 0.059(3) 0.049(3) 0.072(4) -0.002(3) 0.023(3) -0.002(3)
S1 0.0451(9) 0.0543(10) 0.0695(10) -0.0091(8) 0.0257(8) -0.0102(7)
S2 0.0449(9) 0.0492(9) 0.0578(9) -0.0001(7) 0.0251(7) 0.0045(7)
W1 0.03472(19) 0.0417(2) 0.0551(2) 0.000 0.02314(15) 0.000

_geom_special_details            
;
All esds (except the esd in the dihedral angle between two l.s. planes)
are estimated using the full covariance matrix. The cell esds are taken
into account individually in the estimation of esds in distances, angles
and torsion angles; correlations between esds in cell parameters are only
used when they are defined by crystal symmetry. An approximate (isotropic)
treatment of cell esds is used for estimating esds involving l.s. planes.
;

loop_
_geom_bond_atom_site_label_1
_geom_bond_atom_site_label_2
_geom_bond_distance
_geom_bond_site_symmetry_2
_geom_bond_publ_flag
C1 N1 1.300(8) . ?
C1 C2 1.394(9) . ?
C1 H1 0.9300 . ?
C2 C3 1.362(9) . ?
C2 H2 0.9300 . ?
C3 C4 1.357(10) . ?
C3 C6 1.450(8) . ?
C4 C5 1.380(9) . ?
C4 H4 0.9300 . ?
C5 N1 1.334(8) . ?
C5 H5 0.9300 . ?
C6 N2 1.250(8) . ?
C6 H6 0.9300 . ?
C7 N3 1.249(8) . ?
C7 C8 1.480(8) . ?
C7 H7 0.9300 . ?
C8 C9 1.352(8) . ?
C8 C12 1.364(10) . ?
C9 C10 1.373(8) . ?
C9 H9 0.9300 . ?
C10 N4 1.302(8) . ?
C10 H10 0.9300 . ?
C11 N4 1.331(8) . ?
C11 C12 1.353(9) . ?
C11 H11 0.9300 . ?
C12 H12 0.9300 . ?
C13 N5 1.321(8) . ?
C13 C14 1.364(9) . ?
C13 H13 0.9300 . ?
C14 C15 1.359(9) . ?
C14 H14 0.9300 . ?
C15 C16 1.363(10) . ?
C15 C18 1.463(9) . ?
C16 C17 1.372(10) . ?
C16 H16 0.9300 . ?
C17 N5 1.315(8) . ?
C17 H17 0.9300 . ?
C18 N6 1.242(9) . ?
C18 H18 0.9300 . ?
C19 N7 1.236(9) . ?
C19 C20 1.459(9) . ?
C19 H19 0.9300 . ?
C20 C21 1.357(9) . ?
C20 C24 1.401(10) . ?
C21 C22 1.340(10) . ?
C21 H21 0.9300 . ?
C22 N8 1.350(8) . ?
C22 H22 0.9300 . ?
C23 N8 1.301(8) . ?
C23 C24 1.374(9) . ?
C23 H23 0.9300 . ?
C24 H24 0.9300 . ?
Cu1 N4 2.113(5) 4_466 ?
Cu1 S1 2.2962(16) 2_455 ?
Cu1 S2 2.3389(17) . ?
Cu1 I1 2.5433(10) . ?
Cu1 W1 2.7120(8) . ?
Cu2 N1 2.040(5) . ?
Cu2 N5 2.068(5) . ?
Cu2 S1 2.2884(17) 2_455 ?
Cu2 S2 2.3049(18) 2_455 ?
Cu2 W1 2.6888(7) . ?
Cu3 N8 2.056(5) 3_576 ?
Cu3 N8 2.056(5) 4_475 ?
Cu3 S2 2.2966(16) . ?
Cu3 S2 2.2966(16) 2_455 ?
Cu3 W1 2.7035(11) . ?
N2 N3 1.420(7) . ?
N4 Cu1 2.113(5) 4_665 ?
N6 N7 1.435(8) . ?
N8 Cu3 2.056(5) 3_576 ?
S1 W1 2.2215(16) . ?
S1 Cu2 2.2884(17) 2_455 ?
S1 Cu1 2.2962(16) 2_455 ?
S2 W1 2.2556(14) . ?
S2 Cu2 2.3049(18) 2_455 ?
W1 S1 2.2215(16) 2_455 ?
W1 S2 2.2556(14) 2_455 ?
W1 Cu2 2.6888(7) 2_455 ?
W1 Cu1 2.7120(8) 2_455 ?

loop_
_geom_angle_atom_site_label_1
_geom_angle_atom_site_label_2
_geom_angle_atom_site_label_3
_geom_angle
_geom_angle_site_symmetry_1
_geom_angle_site_symmetry_3
_geom_angle_publ_flag
N1 C1 C2 122.2(6) . . ?
N1 C1 H1 118.9 . . ?
C2 C1 H1 118.9 . . ?
C3 C2 C1 120.7(7) . . ?
C3 C2 H2 119.7 . . ?
C1 C2 H2 119.7 . . ?
C4 C3 C2 116.7(6) . . ?
C4 C3 C6 122.3(7) . . ?
C2 C3 C6 121.0(7) . . ?
C3 C4 C5 120.0(7) . . ?
C3 C4 H4 120.0 . . ?
C5 C4 H4 120.0 . . ?
N1 C5 C4 122.8(7) . . ?
N1 C5 H5 118.6 . . ?
C4 C5 H5 118.6 . . ?
N2 C6 C3 123.6(8) . . ?
N2 C6 H6 118.2 . . ?
C3 C6 H6 118.2 . . ?
N3 C7 C8 119.8(7) . . ?
N3 C7 H7 120.1 . . ?
C8 C7 H7 120.1 . . ?
C9 C8 C12 116.8(6) . . ?
C9 C8 C7 122.2(7) . . ?
C12 C8 C7 121.0(6) . . ?
C8 C9 C10 119.5(7) . . ?
C8 C9 H9 120.3 . . ?
C10 C9 H9 120.3 . . ?
N4 C10 C9 124.0(6) . . ?
N4 C10 H10 118.0 . . ?
C9 C10 H10 118.0 . . ?
N4 C11 C12 122.8(7) . . ?
N4 C11 H11 118.6 . . ?
C12 C11 H11 118.6 . . ?
C11 C12 C8 120.5(7) . . ?
C11 C12 H12 119.7 . . ?
C8 C12 H12 119.7 . . ?
N5 C13 C14 123.1(7) . . ?
N5 C13 H13 118.4 . . ?
C14 C13 H13 118.4 . . ?
C15 C14 C13 120.2(7) . . ?
C15 C14 H14 119.9 . . ?
C13 C14 H14 119.9 . . ?
C14 C15 C16 117.0(7) . . ?
C14 C15 C18 123.2(7) . . ?
C16 C15 C18 119.7(7) . . ?
C15 C16 C17 119.5(7) . . ?
C15 C16 H16 120.2 . . ?
C17 C16 H16 120.2 . . ?
N5 C17 C16 123.4(7) . . ?
N5 C17 H17 118.3 . . ?
C16 C17 H17 118.3 . . ?
N6 C18 C15 122.2(7) . . ?
N6 C18 H18 118.9 . . ?
C15 C18 H18 118.9 . . ?
N7 C19 C20 122.2(7) . . ?
N7 C19 H19 118.9 . . ?
C20 C19 H19 118.9 . . ?
C21 C20 C24 116.1(7) . . ?
C21 C20 C19 122.8(7) . . ?
C24 C20 C19 121.1(7) . . ?
C22 C21 C20 121.4(7) . . ?
C22 C21 H21 119.3 . . ?
C20 C21 H21 119.3 . . ?
C21 C22 N8 123.0(7) . . ?
C21 C22 H22 118.5 . . ?
N8 C22 H22 118.5 . . ?
N8 C23 C24 124.0(7) . . ?
N8 C23 H23 118.0 . . ?
C24 C23 H23 118.0 . . ?
C23 C24 C20 118.9(7) . . ?
C23 C24 H24 120.5 . . ?
C20 C24 H24 120.5 . . ?
N4 Cu1 S1 107.99(16) 4_466 2_455 ?
N4 Cu1 S2 104.56(15) 4_466 . ?
S1 Cu1 S2 103.98(6) 2_455 . ?
N4 Cu1 I1 103.44(15) 4_466 . ?
S1 Cu1 I1 120.60(5) 2_455 . ?
S2 Cu1 I1 115.08(5) . . ?
N4 Cu1 W1 112.44(15) 4_466 . ?
S1 Cu1 W1 51.86(4) 2_455 . ?
S2 Cu1 W1 52.42(4) . . ?
I1 Cu1 W1 143.89(3) . . ?
N1 Cu2 N5 103.2(2) . . ?
N1 Cu2 S1 111.18(17) . 2_455 ?
N5 Cu2 S1 115.73(16) . 2_455 ?
N1 Cu2 S2 112.56(16) . 2_455 ?
N5 Cu2 S2 109.30(16) . 2_455 ?
S1 Cu2 S2 105.13(6) 2_455 2_455 ?
N1 Cu2 W1 131.24(15) . . ?
N5 Cu2 W1 125.56(14) . . ?
S1 Cu2 W1 52.27(4) 2_455 . ?
S2 Cu2 W1 53.03(4) 2_455 . ?
N8 Cu3 N8 98.5(3) 3_576 4_475 ?
N8 Cu3 S2 113.96(16) 3_576 . ?
N