####################################################################### 
# 
# This file contains crystal structure data downloaded from the 
# Cambridge Structural Database (CSD) hosted by the Cambridge 
# Crystallographic Data Centre (CCDC).
# 
# Full information about CCDC data access policies and citation 
# guidelines are available at http://www.ccdc.cam.ac.uk/access/V1 
# 
# Audit and citation data items may have been added by the CCDC. 
# Please retain this information to preserve the provenance of 
# this file and to allow appropriate attribution of the data. 
# 
#######################################################################

data_compound1 #caporp
_audit_block_doi                 10.5517/cc9m96d
_database_code_depnum_ccdc_archive 'CCDC 286663'
loop_
_citation_id
_citation_doi
_citation_year
1 10.1039/b515083n 2005
_audit_update_record             
;
2005-10-14 deposited with the CCDC.	2024-07-12 downloaded from the CCDC.
;

_audit_creation_method           SHELXL-97
_chemical_name_systematic        
;
?
;
_chemical_name_common            ?
_chemical_melting_point          ?
_chemical_formula_moiety         ?
_chemical_formula_sum            'C43 H29 Cl7 N8 O0.67 Zn'
_chemical_formula_weight         981.93

_refine_special_details          
;
A region of poorly defined and badly disordered solvent was
accounted for using SQUEEZE, within PLATON. This was
calculated as 208 electrons per unit cell and included
in the formula as two molecules of MeOH and 3 molecules of CHCl3,
hence the discrepancy between the calculated from
model and reported cell contents.
;

loop_
_atom_type_symbol
_atom_type_description
_atom_type_scat_dispersion_real
_atom_type_scat_dispersion_imag
_atom_type_scat_source
C C 0.0033 0.0016 'International Tables Vol C Tables 4.2.6.8 and 6.1.1.4'
H H 0.0000 0.0000 'International Tables Vol C Tables 4.2.6.8 and 6.1.1.4'
N N 0.0061 0.0033 'International Tables Vol C Tables 4.2.6.8 and 6.1.1.4'
Zn Zn 0.2839 1.4301 'International Tables Vol C Tables 4.2.6.8 and 6.1.1.4'
Cl Cl 0.1484 0.1585 'International Tables Vol C Tables 4.2.6.8 and 6.1.1.4'
O O 0.0106 0.0060 'International Tables Vol C Tables 4.2.6.8 and 6.1.1.4'

_symmetry_cell_setting           Triclinic
_symmetry_space_group_name_H-M   'P -1'

loop_
_symmetry_equiv_pos_as_xyz
'x, y, z'
'-x, -y, -z'

_cell_length_a                   13.4415(11)
_cell_length_b                   14.8653(12)
_cell_length_c                   18.7182(16)
_cell_angle_alpha                72.018(1)
_cell_angle_beta                 71.597(1)
_cell_angle_gamma                69.434(1)
_cell_volume                     3239.3(5)
_cell_formula_units_Z            3
_cell_measurement_temperature    100(2)
_cell_measurement_reflns_used    5884
_cell_measurement_theta_min      2.25
_cell_measurement_theta_max      25.7

_exptl_crystal_description       block
_exptl_crystal_colour            purple
_exptl_crystal_size_max          0.34
_exptl_crystal_size_mid          0.32
_exptl_crystal_size_min          0.26
_exptl_crystal_density_meas      ?
_exptl_crystal_density_diffrn    1.510
_exptl_crystal_density_method    'not measured'
_exptl_crystal_F_000             1492
_exptl_absorpt_coefficient_mu    1.046
_exptl_absorpt_correction_type   multi-scan
_exptl_absorpt_correction_T_min  0.597
_exptl_absorpt_correction_T_max  0.762
_exptl_absorpt_process_details   '(Bruker SADABS v2.05)'

_exptl_special_details           
;
?
;

_diffrn_ambient_temperature      100(2)
_diffrn_radiation_wavelength     0.71073
_diffrn_radiation_type           MoK\a
_diffrn_radiation_source         'sealed tube'
_diffrn_radiation_monochromator  graphite
_diffrn_measurement_device_type  'Bruker SMART1000 CCD area detector'
_diffrn_measurement_method       \w
_diffrn_detector_area_resol_mean ?
_diffrn_standards_number         0
_diffrn_standards_interval_count .
_diffrn_standards_interval_time  ?
_diffrn_standards_decay_%        0
_diffrn_reflns_number            28999
_diffrn_reflns_av_R_equivalents  0.037
_diffrn_reflns_av_sigmaI/netI    0.0667
_diffrn_reflns_limit_h_min       -16
_diffrn_reflns_limit_h_max       17
_diffrn_reflns_limit_k_min       -18
_diffrn_reflns_limit_k_max       19
_diffrn_reflns_limit_l_min       -24
_diffrn_reflns_limit_l_max       24
_diffrn_reflns_theta_min         1.18
_diffrn_reflns_theta_max         27.51
_reflns_number_total             14484
_reflns_number_gt                9679
_reflns_threshold_expression     >2\s(I)

_computing_data_collection       'Bruker SMART version 5.624 (Bruker, 2001)'
_computing_cell_refinement       'Bruker SAINT version 6.36a (Bruker, 2000)'
_computing_data_reduction        'Bruker SAINT; Bruker SHELXTL (Bruker, 2001)'
_computing_structure_solution    'SHELXS-97 (Sheldrick, 1990)'
_computing_structure_refinement  
'SHELXL-97 (Sheldrick, 1997);PLATON (Spek, 2003)'
_computing_molecular_graphics    ?
_computing_publication_material  'enCIFer (CCDC, 2003); PLATON (Spek, 2003)'


_refine_ls_structure_factor_coef Fsqd
_refine_ls_matrix_type           full
_refine_ls_weighting_scheme      calc
_refine_ls_weighting_details     
'calc w=1/[\s^2^(Fo^2^)+(0.0757P)^2^] where P=(Fo^2^+2Fc^2^)/3'
_atom_sites_solution_primary     direct
_atom_sites_solution_secondary   difmap
_atom_sites_solution_hydrogens   geom
_refine_ls_hydrogen_treatment    constr
_refine_ls_extinction_method     none
_refine_ls_extinction_coef       ?
_refine_ls_number_reflns         14484
_refine_ls_number_parameters     736
_refine_ls_number_restraints     0
_refine_ls_R_factor_all          0.0825
_refine_ls_R_factor_gt           0.0519
_refine_ls_wR_factor_ref         0.1404
_refine_ls_wR_factor_gt          0.1290
_refine_ls_goodness_of_fit_ref   1.028
_refine_ls_restrained_S_all      1.028
_refine_ls_shift/su_max          0.001
_refine_ls_shift/su_mean         0.000

loop_
_atom_site_label
_atom_site_type_symbol
_atom_site_fract_x
_atom_site_fract_y
_atom_site_fract_z
_atom_site_U_iso_or_equiv
_atom_site_adp_type
_atom_site_occupancy
_atom_site_symmetry_multiplicity
_atom_site_calc_flag
_atom_site_refinement_flags
_atom_site_disorder_assembly
_atom_site_disorder_group
Zn1 Zn 0.35741(3) -0.13462(2) 0.424197(19) 0.01421(9) Uani 1 1 d . . .
Zn2 Zn 0.0000 0.0000 0.0000 0.01467(12) Uani 1 2 d S . .
C1 C 0.2030(2) -0.2581(2) 0.53302(17) 0.0158(6) Uani 1 1 d . . .
C2 C 0.1753(3) -0.3468(2) 0.54036(18) 0.0190(6) Uani 1 1 d . . .
H2A H 0.1125 -0.3655 0.5737 0.023 Uiso 1 1 calc R . .
C3 C 0.2554(3) -0.3980(2) 0.49101(18) 0.0195(7) Uani 1 1 d . . .
H3A H 0.2598 -0.4595 0.4831 0.023 Uiso 1 1 calc R . .
C4 C 0.3333(2) -0.3410(2) 0.45241(17) 0.0175(6) Uani 1 1 d . . .
C5 C 0.4293(2) -0.3693(2) 0.39609(17) 0.0165(6) Uani 1 1 d . . .
C6 C 0.5055(2) -0.3159(2) 0.35717(18) 0.0190(6) Uani 1 1 d . . .
C7 C 0.6028(3) -0.3456(2) 0.29803(19) 0.0242(7) Uani 1 1 d . . .
H7A H 0.6293 -0.4064 0.2823 0.029 Uiso 1 1 calc R . .
C8 C 0.6482(3) -0.2706(2) 0.26991(19) 0.0238(7) Uani 1 1 d . . .
H8A H 0.7129 -0.2686 0.2304 0.029 Uiso 1 1 calc R . .
C9 C 0.5806(2) -0.1928(2) 0.31068(17) 0.0166(6) Uani 1 1 d . . .
C10 C 0.5966(2) -0.0998(2) 0.29597(17) 0.0169(6) Uani 1 1 d . . .
C11 C 0.5325(2) -0.0261(2) 0.33637(17) 0.0173(6) Uani 1 1 d . . .
C12 C 0.5520(3) 0.0695(2) 0.32147(19) 0.0247(7) Uani 1 1 d . . .
H12A H 0.6098 0.0917 0.2837 0.030 Uiso 1 1 calc R . .
C13 C 0.4725(3) 0.1201(2) 0.37134(19) 0.0244(7) Uani 1 1 d . . .
H13A H 0.4639 0.1848 0.3751 0.029 Uiso 1 1 calc R . .
C14 C 0.4033(2) 0.0583(2) 0.41777(17) 0.0162(6) Uani 1 1 d . . .
C15 C 0.3086(2) 0.0864(2) 0.47418(17) 0.0154(6) Uani 1 1 d . . .
C16 C 0.2367(2) 0.0289(2) 0.51717(17) 0.0160(6) Uani 1 1 d . . .
C17 C 0.1440(2) 0.0554(2) 0.57910(17) 0.0177(6) Uani 1 1 d . . .
H17A H 0.1202 0.1144 0.5971 0.021 Uiso 1 1 calc R . .
C18 C 0.0973(2) -0.0188(2) 0.60673(18) 0.0186(6) Uani 1 1 d . . .
H18A H 0.0349 -0.0223 0.6482 0.022 Uiso 1 1 calc R . .
C19 C 0.1603(2) -0.0926(2) 0.56121(16) 0.0150(6) Uani 1 1 d . . .
C20 C 0.1373(2) -0.1820(2) 0.57185(17) 0.0171(6) Uani 1 1 d . . .
N21 N 0.29911(19) -0.25640(17) 0.47922(14) 0.0147(5) Uani 1 1 d . . .
N22 N 0.49558(19) -0.22359(18) 0.36508(14) 0.0161(5) Uani 1 1 d . . .
N23 N 0.44106(19) -0.03068(17) 0.39565(14) 0.0152(5) Uani 1 1 d . . .
N24 N 0.2448(2) -0.06212(18) 0.50768(14) 0.0157(5) Uani 1 1 d . . .
C1P C 0.4485(2) -0.4641(2) 0.37432(18) 0.0187(6) Uani 1 1 d . . .
C2P C 0.3870(3) -0.4710(3) 0.3306(2) 0.0305(8) Uani 1 1 d . . .
H2PA H 0.3314 -0.4152 0.3133 0.037 Uiso 1 1 calc R . .
C3P C 0.4069(3) -0.5600(3) 0.3119(2) 0.0349(9) Uani 1 1 d . . .
H3PA H 0.3630 -0.5630 0.2821 0.042 Uiso 1 1 calc R . .
N4P N 0.4834(2) -0.6412(2) 0.33301(18) 0.0328(7) Uani 1 1 d . . .
C5P C 0.5423(3) -0.6338(2) 0.3753(2) 0.0294(8) Uani 1 1 d . . .
H5PA H 0.5978 -0.6907 0.3913 0.035 Uiso 1 1 calc R . .
C6P C 0.5278(3) -0.5489(2) 0.39729(19) 0.0255(7) Uani 1 1 d . . .
H6PA H 0.5719 -0.5484 0.4280 0.031 Uiso 1 1 calc R . .
C7P C 0.6862(2) -0.0746(2) 0.22946(17) 0.0158(6) Uani 1 1 d . . .
C8P C 0.7725(3) -0.0524(2) 0.23847(18) 0.0211(7) Uani 1 1 d . . .
H8PA H 0.7783 -0.0560 0.2886 0.025 Uiso 1 1 calc R . .
C9P C 0.8503(2) -0.0249(2) 0.17424(17) 0.0187(6) Uani 1 1 d . . .
H9PA H 0.9090 -0.0102 0.1819 0.022 Uiso 1 1 calc R . .
N10P N 0.8475(2) -0.01758(18) 0.10134(14) 0.0178(5) Uani 1 1 d . . .
C11P C 0.7636(3) -0.0388(2) 0.09263(18) 0.0240(7) Uani 1 1 d . . .
H11A H 0.7597 -0.0340 0.0417 0.029 Uiso 1 1 calc R . .
C12P C 0.6820(3) -0.0674(3) 0.15383(18) 0.0241(7) Uani 1 1 d . . .
H12B H 0.6242 -0.0818 0.1447 0.029 Uiso 1 1 calc R . .
C13P C 0.2779(2) 0.1884(2) 0.48671(17) 0.0170(6) Uani 1 1 d . . .
C14P C 0.1846(3) 0.2588(2) 0.46673(19) 0.0230(7) Uani 1 1 d . . .
H14A H 0.1393 0.2424 0.4456 0.028 Uiso 1 1 calc R . .
C15P C 0.1586(3) 0.3531(2) 0.47804(19) 0.0256(7) Uani 1 1 d . . .
H15A H 0.0947 0.4001 0.4639 0.031 Uiso 1 1 calc R . .
N16P N 0.2179(2) 0.38197(19) 0.50766(16) 0.0255(6) Uani 1 1 d . . .
C17P C 0.3078(3) 0.3132(2) 0.52645(18) 0.0218(7) Uani 1 1 d . . .
H17B H 0.3516 0.3316 0.5475 0.026 Uiso 1 1 calc R . .
C18P C 0.3406(2) 0.2179(2) 0.51717(17) 0.0189(6) Uani 1 1 d . . .
H18B H 0.4052 0.1727 0.5314 0.023 Uiso 1 1 calc R . .
C19P C 0.0341(2) -0.1959(2) 0.62823(17) 0.0166(6) Uani 1 1 d . . .
C20P C 0.0355(3) -0.2721(2) 0.69404(17) 0.0205(7) Uani 1 1 d . . .
H20A H 0.1029 -0.3169 0.7038 0.025 Uiso 1 1 calc R . .
C21P C -0.0620(3) -0.2819(2) 0.74484(19) 0.0261(7) Uani 1 1 d . . .
H21A H -0.0595 -0.3338 0.7897 0.031 Uiso 1 1 calc R . .
N22P N -0.1603(2) -0.2221(2) 0.73434(16) 0.0259(6) Uani 1 1 d . . .
C23P C -0.1608(3) -0.1490(2) 0.67092(18) 0.0224(7) Uani 1 1 d . . .
H23A H -0.2293 -0.1057 0.6620 0.027 Uiso 1 1 calc R . .
C24P C -0.0668(2) -0.1334(2) 0.61769(17) 0.0186(6) Uani 1 1 d . . .
H24A H -0.0715 -0.0799 0.5740 0.022 Uiso 1 1 calc R . .
C1' C -0.1372(2) 0.1299(2) -0.11961(17) 0.0166(6) Uani 1 1 d . . .
C2' C -0.1807(3) 0.2318(2) -0.15642(18) 0.0199(7) Uani 1 1 d . . .
H2'A H -0.2214 0.2550 -0.1950 0.024 Uiso 1 1 calc R . .
C3' C -0.1525(3) 0.2874(2) -0.12541(18) 0.0209(7) Uani 1 1 d . . .
H3'A H -0.1690 0.3572 -0.1384 0.025 Uiso 1 1 calc R . .
C4' C -0.0927(2) 0.2209(2) -0.06881(17) 0.0170(6) Uani 1 1 d . . .
C5' C -0.0429(2) 0.2484(2) -0.02591(17) 0.0174(6) Uani 1 1 d . . .
C6' C 0.0145(2) 0.1860(2) 0.03026(17) 0.0172(6) Uani 1 1 d . . .
C7' C 0.0553(3) 0.2183(2) 0.07785(18) 0.0225(7) Uani 1 1 d . . .
H7'A H 0.0488 0.2845 0.0763 0.027 Uiso 1 1 calc R . .
C8' C 0.1045(3) 0.1368(2) 0.12514(18) 0.0206(7) Uani 1 1 d . . .
H8'A H 0.1371 0.1351 0.1640 0.025 Uiso 1 1 calc R . .
C9' C 0.0978(2) 0.0527(2) 0.10501(17) 0.0153(6) Uani 1 1 d . . .
C10' C 0.1427(2) -0.0472(2) 0.13860(16) 0.0152(6) Uani 1 1 d . . .
N21' N -0.08690(19) 0.12601(17) -0.06502(14) 0.0154(5) Uani 1 1 d . . .
N22' N 0.04046(19) 0.08463(17) 0.04887(14) 0.0146(5) Uani 1 1 d . . .
C1Q C -0.0453(3) 0.3545(2) -0.04554(18) 0.0237(7) Uani 1 1 d . . .
C2Q C -0.1402(3) 0.4306(2) -0.0348(2) 0.0307(8) Uani 1 1 d . . .
H2QA H -0.2087 0.4168 -0.0120 0.037 Uiso 1 1 calc R . .
C3Q C -0.1349(4) 0.5269(3) -0.0574(2) 0.0459(11) Uani 1 1 d . . .
H3QA H -0.2011 0.5780 -0.0494 0.055 Uiso 1 1 calc R . .
N4Q N -0.0423(4) 0.5518(2) -0.0895(2) 0.0537(11) Uani 1 1 d . . .
C5Q C 0.0496(4) 0.4788(3) -0.0995(2) 0.0440(11) Uani 1 1 d . . .
H5QA H 0.1168 0.4952 -0.1217 0.053 Uiso 1 1 calc R . .
C6Q C 0.0524(3) 0.3800(3) -0.0792(2) 0.0343(9) Uani 1 1 d . . .
H6QA H 0.1198 0.3306 -0.0881 0.041 Uiso 1 1 calc R . .
C7Q C 0.1931(2) -0.0661(2) 0.20413(17) 0.0166(6) Uani 1 1 d . . .
C8Q C 0.2865(2) -0.0386(2) 0.19492(17) 0.0189(6) Uani 1 1 d . . .
H8QA H 0.3228 -0.0096 0.1452 0.023 Uiso 1 1 calc R . .
C9Q C 0.3252(2) -0.0540(2) 0.25899(18) 0.0198(7) Uani 1 1 d . . .
H9QA H 0.3884 -0.0344 0.2519 0.024 Uiso 1 1 calc R . .
N10Q N 0.2784(2) -0.09513(18) 0.33090(14) 0.0165(5) Uani 1 1 d . . .
C11Q C 0.1907(2) -0.1232(2) 0.33924(17) 0.0176(6) Uani 1 1 d . . .
H11B H 0.1570 -0.1530 0.3896 0.021 Uiso 1 1 calc R . .
C12Q C 0.1463(2) -0.1112(2) 0.27860(17) 0.0179(6) Uani 1 1 d . . .
H12C H 0.0844 -0.1335 0.2874 0.021 Uiso 1 1 calc R . .
C1S C -0.0199(3) -0.3952(3) 0.3387(2) 0.0362(9) Uani 1 1 d . . .
H1SA H -0.0756 -0.4172 0.3847 0.043 Uiso 1 1 calc R . .
Cl1 Cl 0.08442(9) -0.38484(8) 0.37192(7) 0.0528(3) Uani 1 1 d . . .
Cl2 Cl -0.08394(8) -0.27912(8) 0.28825(6) 0.0477(3) Uani 1 1 d . . .
Cl3 Cl 0.03348(12) -0.48392(9) 0.28267(7) 0.0680(4) Uani 1 1 d . . .
C2S C -0.3136(4) 0.2804(3) 0.1990(2) 0.0449(10) Uani 1 1 d . . .
H2SA H -0.3908 0.2873 0.2295 0.054 Uiso 1 1 calc R . .
Cl4 Cl -0.29712(10) 0.23630(9) 0.11770(6) 0.0540(3) Uani 1 1 d . . .
Cl5 Cl -0.22654(10) 0.19564(10) 0.25837(8) 0.0614(3) Uani 1 1 d . . .
Cl6 Cl -0.29012(16) 0.39666(11) 0.17223(8) 0.0975(6) Uani 1 1 d . . .

loop_
_atom_site_aniso_label
_atom_site_aniso_U_11
_atom_site_aniso_U_22
_atom_site_aniso_U_33
_atom_site_aniso_U_23
_atom_site_aniso_U_13
_atom_site_aniso_U_12
Zn1 0.01689(18) 0.01278(18) 0.01477(18) -0.00277(13) -0.00381(14) -0.00647(14)
Zn2 0.0188(3) 0.0122(2) 0.0153(2) -0.00275(19) -0.0059(2) -0.0057(2)
C1 0.0189(15) 0.0146(15) 0.0151(15) -0.0016(12) -0.0049(12) -0.0067(12)
C2 0.0228(16) 0.0179(16) 0.0190(16) -0.0019(13) -0.0046(13) -0.0110(13)
C3 0.0251(16) 0.0136(15) 0.0235(17) -0.0037(13) -0.0074(14) -0.0087(13)
C4 0.0178(15) 0.0144(15) 0.0200(16) -0.0029(12) -0.0044(13) -0.0051(12)
C5 0.0212(15) 0.0143(15) 0.0170(15) -0.0033(12) -0.0068(13) -0.0066(12)
C6 0.0203(16) 0.0190(16) 0.0211(16) -0.0063(13) -0.0048(13) -0.0081(13)
C7 0.0265(17) 0.0208(17) 0.0263(18) -0.0102(14) 0.0004(14) -0.0093(14)
C8 0.0252(17) 0.0244(17) 0.0246(17) -0.0101(14) 0.0008(14) -0.0122(14)
C9 0.0154(14) 0.0210(16) 0.0148(15) -0.0040(12) -0.0018(12) -0.0085(12)
C10 0.0166(15) 0.0180(15) 0.0170(15) -0.0053(12) -0.0019(12) -0.0064(12)
C11 0.0167(15) 0.0169(15) 0.0202(16) -0.0010(12) -0.0070(13) -0.0073(12)
C12 0.0276(17) 0.0215(17) 0.0261(18) -0.0063(14) 0.0030(14) -0.0153(14)
C13 0.0286(18) 0.0189(17) 0.0275(18) -0.0080(14) 0.0019(14) -0.0140(14)
C14 0.0191(15) 0.0138(15) 0.0171(15) -0.0030(12) -0.0046(12) -0.0064(12)
C15 0.0163(14) 0.0152(15) 0.0163(15) -0.0022(12) -0.0077(12) -0.0039(12)
C16 0.0194(15) 0.0141(15) 0.0159(15) -0.0022(12) -0.0063(12) -0.0054(12)
C17 0.0197(15) 0.0154(15) 0.0171(15) -0.0074(12) -0.0011(12) -0.0036(12)
C18 0.0194(15) 0.0187(16) 0.0199(16) -0.0097(13) 0.0006(13) -0.0078(13)
C19 0.0173(15) 0.0157(15) 0.0131(14) -0.0036(12) -0.0012(12) -0.0075(12)
C20 0.0193(15) 0.0184(15) 0.0153(15) -0.0029(12) -0.0046(12) -0.0077(13)
N21 0.0176(12) 0.0148(12) 0.0134(12) -0.0027(10) -0.0045(10) -0.0062(10)
N22 0.0147(12) 0.0184(13) 0.0181(13) -0.0045(10) -0.0046(10) -0.0071(10)
N23 0.0164(12) 0.0136(12) 0.0167(13) -0.0041(10) -0.0032(10) -0.0055(10)
N24 0.0196(13) 0.0163(13) 0.0135(12) -0.0031(10) -0.0031(10) -0.0084(11)
C1P 0.0206(16) 0.0148(15) 0.0209(16) -0.0056(12) 0.0001(13) -0.0082(13)
C2P 0.0302(19) 0.0225(18) 0.042(2) -0.0145(16) -0.0135(17) -0.0003(15)
C3P 0.032(2) 0.035(2) 0.051(2) -0.0232(18) -0.0122(18) -0.0106(17)
N4P 0.0377(17) 0.0232(16) 0.0397(18) -0.0159(14) 0.0015(15) -0.0127(14)
C5P 0.041(2) 0.0195(17) 0.0261(18) -0.0075(14) -0.0059(16) -0.0055(15)
C6P 0.0347(19) 0.0208(17) 0.0219(17) -0.0042(14) -0.0105(15) -0.0061(15)
C7P 0.0144(14) 0.0145(15) 0.0174(15) -0.0057(12) -0.0010(12) -0.0035(12)
C8P 0.0232(16) 0.0247(17) 0.0176(16) -0.0037(13) -0.0063(13) -0.0085(14)
C9P 0.0187(15) 0.0216(16) 0.0184(16) -0.0069(13) -0.0041(13) -0.0070(13)
N10P 0.0193(13) 0.0173(13) 0.0161(13) -0.0040(10) -0.0031(11) -0.0051(11)
C11P 0.0246(17) 0.036(2) 0.0144(16) -0.0094(14) -0.0035(13) -0.0094(15)
C12P 0.0192(16) 0.0350(19) 0.0243(18) -0.0083(15) -0.0076(14) -0.0112(14)
C13P 0.0213(15) 0.0171(15) 0.0148(15) -0.0028(12) -0.0018(12) -0.0109(13)
C14P 0.0283(18) 0.0203(17) 0.0274(18) -0.0070(14) -0.0110(15) -0.0096(14)
C15P 0.0320(19) 0.0163(16) 0.0307(19) -0.0036(14) -0.0157(16) -0.0033(14)
N16P 0.0348(16) 0.0170(14) 0.0273(15) -0.0053(12) -0.0078(13) -0.0094(12)
C17P 0.0270(17) 0.0211(17) 0.0221(17) -0.0056(13) -0.0058(14) -0.0118(14)
C18P 0.0198(15) 0.0176(16) 0.0188(16) -0.0039(12) -0.0059(13) -0.0038(13)
C19P 0.0196(15) 0.0161(15) 0.0190(16) -0.0057(12) -0.0048(13) -0.0091(13)
C20P 0.0260(17) 0.0188(16) 0.0175(16) -0.0028(13) -0.0029(13) -0.0101(14)
C21P 0.037(2) 0.0213(17) 0.0193(17) -0.0018(13) -0.0026(15) -0.0138(15)
N22P 0.0251(15) 0.0330(16) 0.0231(15) -0.0097(13) 0.0004(12) -0.0147(13)
C23P 0.0205(16) 0.0256(17) 0.0247(17) -0.0125(14) -0.0046(14) -0.0052(14)
C24P 0.0238(16) 0.0168(15) 0.0174(15) -0.0026(12) -0.0056(13) -0.0088(13)
C1' 0.0183(15) 0.0161(15) 0.0153(15) -0.0037(12) -0.0047(12) -0.0038(12)
C2' 0.0246(16) 0.0165(16) 0.0189(16) -0.0015(12) -0.0103(13) -0.0037(13)
C3' 0.0256(17) 0.0147(15) 0.0231(17) -0.0041(13) -0.0090(14) -0.0037(13)
C4' 0.0219(16) 0.0147(15) 0.0129(14) -0.0018(12) -0.0033(12) -0.0051(12)
C5' 0.0225(16) 0.0158(15) 0.0158(15) -0.0017(12) -0.0053(13) -0.0083(13)
C6' 0.0218(16) 0.0158(15) 0.0164(15) -0.0044(12) -0.0031(13) -0.0084(13)
C7' 0.0352(19) 0.0142(15) 0.0248