
#######################################################################
#
#                 Cambridge Crystallographic Data Centre
#                                CCDC
#
#######################################################################
#
# If this CIF has been generated from an entry in the Cambridge
# Structural Database, then it will include bibliographic, chemical,
# crystal, experimental, refinement or atomic coordinate data resulting
# from the CCDC's data processing and validation procedures.
#
#######################################################################

data_CSD_CIF_SEDNAQ
_audit_creation_date 1999-01-22
_audit_creation_method CSD-ConQuest-V1
_database_code_CSD SEDNAQ
_database_code_depnum_ccdc_archive 'CCDC 130731'
_chemical_formula_sum 'C7 H8 N4 O2'
_chemical_formula_moiety
;
C7 H8 N4 O2
;
_journal_coeditor_code "IUCr FR1140"
_journal_coden_Cambridge 591
_journal_volume 54
_journal_year 1998
_journal_page_first 1980
_journal_name_full 'Acta Crystallogr.,Sect.C:Cryst.Struct.Commun. '
loop_
_publ_author_name
"K.A.Ford"
"Y.Ebisuzaki"
"P.D.Boyle"
_chemical_name_systematic
;
3,7-Dihydro-3,7-dimethyl-1H-purine-2,6-dione
;
_chemical_name_common
;
Theobromine; DrugBank: DB01412; Teaching Subset: Drug Molecules
;
_chemical_melting_point 620
_cell_volume   1570.746
_exptl_crystal_colour 'colorless'
_exptl_crystal_density_diffrn 1.524
_exptl_special_details
;
vasodilator, diuretic, heart stimulant, tooth decay preventative

;
_exptl_crystal_description 'parallelepiped'
_exptl_crystal_preparation 'vacuum sublimation'
_diffrn_ambient_temperature ?
_diffrn_special_details
;
The study was carried out at room temperature,in the range 283-303K

;
#These two values have been output from a single CSD field.
_refine_ls_R_factor_gt 0.067
_refine_ls_wR_factor_gt 0.067
_symmetry_cell_setting monoclinic
_symmetry_space_group_name_H-M 'P 21/c'
_symmetry_Int_Tables_number 14
loop_
_symmetry_equiv_pos_site_id
_symmetry_equiv_pos_as_xyz
1 x,y,z
2 -x,1/2+y,1/2-z
3 -x,-y,-z
4 x,-1/2-y,-1/2+z
_cell_length_a 9.2990(14)
_cell_length_b 18.698(1)
_cell_length_c 9.0381(16)
_cell_angle_alpha 90
_cell_angle_beta 91.75(3)
_cell_angle_gamma 90
_cell_formula_units_Z 8
loop_
_atom_type_symbol
_atom_type_radius_bond
C 0.68
H 0.23
N 0.68
O 0.68
loop_
_atom_site_label
_atom_site_type_symbol
_atom_site_fract_x
_atom_site_fract_y
_atom_site_fract_z
N1 N 0.6377(2) 0.41996(12) 0.4128(3)
C1 C 0.5735(3) 0.35776(14) 0.3614(3)
N2 N 0.4686(2) 0.3654(1) 0.2517(2)
C2 C 0.4342(3) 0.43304(13) 0.2018(3)
C3 C 0.5022(3) 0.49279(13) 0.2551(3)
C4 C 0.6132(3) 0.49045(13) 0.3674(3)
N3 N 0.4385(2) 0.54929(11) 0.1781(2)
C5 C 0.3397(3) 0.51951(15) 0.0858(3)
N4 N 0.3320(2) 0.44812(11) 0.0950(2)
C6 C 0.4740(4) 0.62564(15) 0.1906(5)
O1 O 0.6095(2) 0.29879(9) 0.4105(2)
C7 C 0.4036(4) 0.30097(16) 0.1838(4)
O2 O 0.6834(2) 0.53998(9) 0.4211(2)
H1 H 0.702(3) 0.4155(13) 0.482(3)
H2 H 0.282(3) 0.5499(13) 0.011(3)
H3 H 0.579(4) 0.6326(17) 0.159(4)
H4 H 0.470(3) 0.6390(16) 0.285(3)
H5 H 0.397(3) 0.6561(17) 0.128(3)
H6 H 0.371(3) 0.2671(16) 0.257(3)
H7 H 0.310(3) 0.3158(15) 0.126(3)
H8 H 0.467(4) 0.2797(18) 0.124(4)
N5 N 0.8291(2) 0.27066(11) 0.6297(2)
C8 C 0.8888(3) 0.33296(13) 0.6849(3)
N6 N 0.9957(2) 0.32581(11) 0.7927(2)
C9 C 1.0379(3) 0.25776(14) 0.8359(3)
C10 C 0.9766(3) 0.19769(13) 0.7759(3)
C11 C 0.8634(3) 0.19979(14) 0.6651(3)
N7 N 1.0484(2) 0.14117(11) 0.8456(2)
C12 C 1.1441(3) 0.17098(15) 0.9407(3)
N8 N 1.1420(2) 0.24274(12) 0.9398(2)
C13 C 1.0264(5) 0.06446(17) 0.8205(5)
O3 O 0.8481(2) 0.39252(9) 0.6415(2)
C14 C 1.0653(4) 0.39019(17) 0.8552(4)
O4 O 0.7999(2) 0.14969(9) 0.6044(2)
H9 H 0.756(3) 0.2770(14) 0.565(3)
H10 H 1.209(3) 0.1433(14) 1.005(3)
H11 H 0.939(4) 0.0494(19) 0.836(4)
H12 H 1.043(4) 0.0501(19) 0.717(4)
H13 H 1.105(4) 0.0378(17) 0.872(4)
H14 H 1.117(4) 0.4190(19) 0.784(4)
H15 H 1.140(4) 0.3741(17) 0.932(4)
H16 H 0.988(4) 0.4166(18) 0.899(4)
#END
