####################################################################### 
# 
# This file contains crystal structure data downloaded from the 
# Cambridge Structural Database (CSD) hosted by the Cambridge 
# Crystallographic Data Centre (CCDC).
# 
# Full information about CCDC data access policies and citation 
# guidelines are available at http://www.ccdc.cam.ac.uk/access/V1 
# 
# Audit and citation data items may have been added by the CCDC. 
# Please retain this information to preserve the provenance of 
# this file and to allow appropriate attribution of the data. 
# 
#######################################################################

data_50617cm
_audit_block_doi                 10.5517/cc98j68
_database_code_depnum_ccdc_archive 'CCDC 276309'
loop_
_citation_id
_citation_doi
_citation_year
1 10.1021/cg050458i 2006
_audit_update_record             
;
2005-06-25 deposited with the CCDC.	2024-07-12 downloaded from the CCDC.
;

_audit_creation_method           SHELXL-97
_chemical_name_systematic        
;
?
;
_chemical_name_common            ?
_chemical_melting_point          ?
_chemical_formula_moiety         ?
_chemical_formula_sum            'C72 H78 Cd3 N16 O22 S'
_chemical_formula_weight         1888.76

loop_
_atom_type_symbol
_atom_type_description
_atom_type_scat_dispersion_real
_atom_type_scat_dispersion_imag
_atom_type_scat_source
C C 0.0033 0.0016 'International Tables Vol C Tables 4.2.6.8 and 6.1.1.4'
H H 0.0000 0.0000 'International Tables Vol C Tables 4.2.6.8 and 6.1.1.4'
N N 0.0061 0.0033 'International Tables Vol C Tables 4.2.6.8 and 6.1.1.4'
O O 0.0106 0.0060 'International Tables Vol C Tables 4.2.6.8 and 6.1.1.4'
Cd Cd -0.8075 1.2024 'International Tables Vol C Tables 4.2.6.8 and 6.1.1.4'
S S 0.1246 0.1234 'International Tables Vol C Tables 4.2.6.8 and 6.1.1.4'

_symmetry_cell_setting           Triclinic
_symmetry_space_group_name_H-M   P-1
_symmetry_space_group_name_Hall  '-P 1'

loop_
_symmetry_equiv_pos_as_xyz
'x, y, z'
'-x, -y, -z'

_cell_length_a                   10.080(2)
_cell_length_b                   13.063(3)
_cell_length_c                   17.815(4)
_cell_angle_alpha                79.029(4)
_cell_angle_beta                 86.325(4)
_cell_angle_gamma                78.211(4)
_cell_volume                     2253.6(9)
_cell_formula_units_Z            1
_cell_measurement_temperature    293(2)
_cell_measurement_reflns_used    800
_cell_measurement_theta_min      2.40
_cell_measurement_theta_max      22.51

_exptl_crystal_description       block
_exptl_crystal_colour            colouress
_exptl_crystal_size_max          0.15
_exptl_crystal_size_mid          0.12
_exptl_crystal_size_min          0.10
_exptl_crystal_density_meas      ?
_exptl_crystal_density_diffrn    1.392
_exptl_crystal_density_method    'not measured'
_exptl_crystal_F_000             958
_exptl_absorpt_coefficient_mu    0.798
_exptl_absorpt_correction_type   Multi-scan
_exptl_absorpt_correction_T_min  0.89
_exptl_absorpt_correction_T_max  0.92
_exptl_absorpt_process_details   'SADABS(Bruker, 2000)'

_exptl_special_details           
;
?
;

_diffrn_ambient_temperature      293(2)
_diffrn_radiation_wavelength     0.71073
_diffrn_radiation_type           MoK\a
_diffrn_radiation_source         'fine-focus sealed tube'
_diffrn_radiation_monochromator  graphite
_diffrn_measurement_device_type  ?
_diffrn_measurement_method       ?
_diffrn_detector_area_resol_mean ?
_diffrn_standards_number         ?
_diffrn_standards_interval_count ?
_diffrn_standards_interval_time  ?
_diffrn_standards_decay_%        ?
_diffrn_reflns_number            12224
_diffrn_reflns_av_R_equivalents  0.0227
_diffrn_reflns_av_sigmaI/netI    0.0785
_diffrn_reflns_limit_h_min       -12
_diffrn_reflns_limit_h_max       12
_diffrn_reflns_limit_k_min       -11
_diffrn_reflns_limit_k_max       16
_diffrn_reflns_limit_l_min       -19
_diffrn_reflns_limit_l_max       21
_diffrn_reflns_theta_min         2.06
_diffrn_reflns_theta_max         26.00
_reflns_number_total             8642
_reflns_number_gt                5971
_reflns_threshold_expression     >2sigma(I)

_computing_data_collection       'SMART (Bruker, 2000)'
_computing_cell_refinement       SMART
_computing_data_reduction        'SAINT (Bruker, 2000)'
_computing_structure_solution    'SHELXTL (Bruker, 2000)'
_computing_structure_refinement  SHELXTL
_computing_molecular_graphics    SHELXTL
_computing_publication_material  SHELXTL

_refine_special_details          
;
Refinement of F^2^ against ALL reflections. The weighted R-factor wR and
goodness of fit S are based on F^2^, conventional R-factors R are based
on F, with F set to zero for negative F^2^. The threshold expression of
F^2^ > 2sigma(F^2^) is used only for calculating R-factors(gt) etc. and is
not relevant to the choice of reflections for refinement. R-factors based
on F^2^ are statistically about twice as large as those based on F, and R-
factors based on ALL data will be even larger.
;

_refine_ls_structure_factor_coef Fsqd
_refine_ls_matrix_type           fullcycle
_refine_ls_weighting_scheme      calc
_refine_ls_weighting_details     
'calc w=1/[\s^2^(Fo^2^)+(0.03P)^2^] where P=(Fo^2^+2Fc^2^)/3'
_atom_sites_solution_primary     direct
_atom_sites_solution_secondary   difmap
_atom_sites_solution_hydrogens   geom
_refine_ls_hydrogen_treatment    constr
_refine_ls_extinction_method     none
_refine_ls_extinction_coef       ?
_refine_ls_number_reflns         8642
_refine_ls_number_parameters     593
_refine_ls_number_restraints     0
_refine_ls_R_factor_all          0.0727
_refine_ls_R_factor_gt           0.0444
_refine_ls_wR_factor_ref         0.0754
_refine_ls_wR_factor_gt          0.0727
_refine_ls_goodness_of_fit_ref   1.048
_refine_ls_restrained_S_all      1.048
_refine_ls_shift/su_max          0.000
_refine_ls_shift/su_mean         0.000

loop_
_atom_site_label
_atom_site_type_symbol
_atom_site_fract_x
_atom_site_fract_y
_atom_site_fract_z
_atom_site_U_iso_or_equiv
_atom_site_adp_type
_atom_site_occupancy
_atom_site_symmetry_multiplicity
_atom_site_calc_flag
_atom_site_refinement_flags
_atom_site_disorder_assembly
_atom_site_disorder_group
C1 C 0.1610(3) -0.4318(2) 0.49702(16) 0.0357(7) Uani 1 1 d . . .
H1 H 0.1486 -0.4995 0.5198 0.043 Uiso 1 1 calc R . .
C2 C 0.0585(3) -0.3499(2) 0.46684(17) 0.0358(7) Uani 1 1 d . . .
H2 H -0.0332 -0.3510 0.4650 0.043 Uiso 1 1 calc R . .
C3 C 0.2522(3) -0.2994(2) 0.45380(16) 0.0326(6) Uani 1 1 d . . .
H3 H 0.3172 -0.2573 0.4405 0.039 Uiso 1 1 calc R . .
C4 C 0.0554(4) -0.1609(2) 0.40317(19) 0.0454(8) Uani 1 1 d . . .
H4A H -0.0303 -0.1665 0.3841 0.054 Uiso 1 1 calc R . .
H4B H 0.1106 -0.1362 0.3595 0.054 Uiso 1 1 calc R . .
C5 C 0.0287(3) -0.0786(2) 0.45511(16) 0.0330(6) Uani 1 1 d . . .
C6 C -0.0155(3) 0.0257(2) 0.42356(18) 0.0422(7) Uani 1 1 d . . .
H6 H -0.0267 0.0448 0.3710 0.051 Uiso 1 1 calc R . .
C7 C 0.0438(4) -0.1035(3) 0.53131(19) 0.0467(8) Uani 1 1 d . . .
H7 H 0.0738 -0.1741 0.5541 0.056 Uiso 1 1 calc R . .
C8 C 0.4036(3) -0.6854(2) 0.43711(19) 0.0380(7) Uani 1 1 d . . .
H8 H 0.3686 -0.7073 0.4858 0.046 Uiso 1 1 calc R . .
C9 C 0.4621(3) -0.6819(2) 0.31688(19) 0.0364(7) Uani 1 1 d . . .
H9 H 0.4765 -0.6974 0.2678 0.044 Uiso 1 1 calc R . .
C10 C 0.4940(3) -0.5952(3) 0.34267(17) 0.0416(7) Uani 1 1 d . . .
H10 H 0.5346 -0.5427 0.3131 0.050 Uiso 1 1 calc R . .
C11 C 0.3584(3) -0.8382(2) 0.38258(18) 0.0379(7) Uani 1 1 d . . .
H11A H 0.2622 -0.8270 0.3955 0.045 Uiso 1 1 calc R . .
H11B H 0.3717 -0.8612 0.3335 0.045 Uiso 1 1 calc R . .
C12 C 0.4326(3) -0.9213(2) 0.44151(16) 0.0310(6) Uani 1 1 d . . .
C13 C 0.5723(3) -0.9455(2) 0.44597(16) 0.0368(7) Uani 1 1 d . . .
H13 H 0.6233 -0.9095 0.4086 0.044 Uiso 1 1 d R . .
C14 C 0.3627(3) -0.9778(2) 0.49873(17) 0.0384(7) Uani 1 1 d . . .
H14 H 0.2685 -0.9641 0.4982 0.046 Uiso 1 1 d R . .
C15 C 0.6129(3) -0.1987(2) 0.30419(17) 0.0379(7) Uani 1 1 d . . .
C16 C 0.4762(3) -0.1502(2) 0.28920(16) 0.0351(6) Uani 1 1 d . . .
H16 H 0.4068 -0.1876 0.3038 0.042 Uiso 1 1 calc R . .
C17 C 0.4488(3) -0.0451(2) 0.25199(18) 0.0384(7) Uani 1 1 d . . .
C18 C 0.3055(3) 0.0101(3) 0.23183(19) 0.0425(7) Uani 1 1 d . . .
C19 C 0.5511(3) 0.0111(2) 0.23342(19) 0.0424(7) Uani 1 1 d . . .
H19 H 0.5292 0.0823 0.2104 0.051 Uiso 1 1 calc R . .
C20 C 0.6878(3) -0.0354(2) 0.24803(17) 0.0367(7) Uani 1 1 d . . .
C21 C 0.7954(3) 0.0245(2) 0.22789(18) 0.0360(7) Uani 1 1 d . . .
C22 C 0.7143(3) -0.1432(3) 0.28444(19) 0.0425(8) Uani 1 1 d . . .
H22 H 0.8033 -0.1771 0.2952 0.051 Uiso 1 1 calc R . .
C23 C -0.1322(3) 0.2876(3) 0.27866(18) 0.0396(7) Uani 1 1 d . . .
H23 H -0.2131 0.2645 0.2768 0.048 Uiso 1 1 calc R . .
C24 C -0.1183(4) 0.3740(3) 0.30813(19) 0.0465(8) Uani 1 1 d . . .
H24 H -0.1862 0.4214 0.3285 0.056 Uiso 1 1 calc R . .
C25 C 0.0785(3) 0.2964(3) 0.26790(18) 0.0405(7) Uani 1 1 d . . .
H25 H 0.1710 0.2811 0.2566 0.049 Uiso 1 1 calc R . .
C26 C 0.0835(3) 0.45266(19) 0.32679(14) 0.0372(7) Uani 1 1 d . . .
H26A H 0.1757 0.4185 0.3405 0.045 Uiso 1 1 d R A .
H26B H 0.0358 0.4725 0.3725 0.045 Uiso 1 1 d R . .
C27 C 0.0843(3) 0.55246(19) 0.26822(14) 0.048(3) Uani 0.718(4) 1 d PR A 1
C28 C -0.0061(3) 0.58742(19) 0.20872(14) 0.0335(10) Uani 0.718(4) 1 d PR A 1
H28 H -0.0726 0.5492 0.2040 0.040 Uiso 0.718(4) 1 calc PR A 1
C29 C 0.0029(4) 0.6794(3) 0.1563(2) 0.0383(11) Uani 0.718(4) 1 d P A 1
H29 H -0.0606 0.7039 0.1180 0.046 Uiso 0.718(4) 1 calc PR A 1
C30 C 0.1040(11) 0.7350(8) 0.1599(9) 0.038(3) Uani 0.718(4) 1 d P A 1
C31 C 0.1947(4) 0.6999(3) 0.2226(2) 0.0326(10) Uani 0.718(4) 1 d P A 1
H31 H 0.2607 0.7382 0.2279 0.039 Uiso 0.718(4) 1 calc PR A 1
C32 C 0.1839(5) 0.6086(4) 0.2753(3) 0.0459(13) Uani 0.718(4) 1 d P A 1
H32 H 0.2436 0.5853 0.3155 0.055 Uiso 0.718(4) 1 calc PR A 1
C33 C 0.1227(3) 0.8334(3) 0.1071(2) 0.0445(8) Uani 1 1 d . . .
H33A H 0.1082 0.8930 0.1339 0.053 Uiso 1 1 d R A .
H33B H 0.2152 0.8237 0.0870 0.053 Uiso 1 1 d R . .
C34 C -0.1018(3) 0.8902(2) 0.04621(19) 0.0374(7) Uani 1 1 d . . .
H34 H -0.1538 0.9006 0.0901 0.045 Uiso 1 1 calc R A .
C35 C -0.1476(3) 0.9051(2) -0.02437(17) 0.0346(7) Uani 1 1 d . A .
H35 H -0.2377 0.9300 -0.0377 0.041 Uiso 1 1 calc R . .
C36 C 0.0625(3) 0.8520(3) -0.03011(19) 0.0433(8) Uani 1 1 d . . .
H36 H 0.1505 0.8313 -0.0485 0.052 Uiso 1 1 calc R A .
C27' C 0.116(3) 0.5432(15) 0.2599(10) 0.043(5) Uani 0.282(4) 1 d P A 2
C28' C 0.1880(13) 0.5310(9) 0.1921(6) 0.043(3) Uani 0.282(4) 1 d P A 2
H28' H 0.2276 0.4637 0.1827 0.052 Uiso 0.282(4) 1 calc PR A 2
C29' C 0.1999(10) 0.6198(8) 0.1396(6) 0.030(2) Uani 0.282(4) 1 d P A 2
H29' H 0.2435 0.6146 0.0925 0.037 Uiso 0.282(4) 1 calc PR A 2
C30' C 0.145(3) 0.718(3) 0.159(2) 0.045(8) Uani 0.282(4) 1 d P A 2
C31' C 0.0705(12) 0.7304(9) 0.2210(7) 0.038(3) Uani 0.282(4) 1 d P A 2
H31' H 0.0284 0.7979 0.2290 0.046 Uiso 0.282(4) 1 calc PR A 2
C32' C 0.0558(12) 0.6396(11) 0.2752(6) 0.043(3) Uani 0.282(4) 1 d P A 2
H32' H 0.0060 0.6458 0.3205 0.052 Uiso 0.282(4) 1 calc PR A 2
Cd1 Cd 0.5000 -0.5000 0.5000 0.04053(9) Uani 1 2 d S . .
Cd2 Cd 0.04291(2) 0.096561(19) 0.199011(14) 0.03874(7) Uani 1 1 d . . .
N1 N 0.2805(3) -0.4012(2) 0.48925(16) 0.0403(6) Uani 1 1 d . . .
N2 N 0.1229(3) -0.26561(19) 0.43996(15) 0.0363(6) Uani 1 1 d . . .
N3 N 0.4567(3) -0.5999(2) 0.41649(17) 0.0453(7) Uani 1 1 d . . .
N4 N 0.4067(3) -0.7376(2) 0.37715(17) 0.0425(7) Uani 1 1 d . . .
N5 N -0.0065(3) 0.2398(2) 0.25183(17) 0.0421(7) Uani 1 1 d . . .
N6 N 0.0215(3) 0.37552(19) 0.30102(16) 0.0363(6) Uani 1 1 d . A .
N7 N 0.0318(3) 0.8576(2) 0.04225(15) 0.0368(6) Uani 1 1 d . A .
N8 N -0.0448(3) 0.8789(2) -0.07355(16) 0.0478(7) Uani 1 1 d . . .
O1 O 0.5421(2) -0.35669(17) 0.39939(12) 0.0402(5) Uani 1 1 d . . .
O2 O 0.6749(2) -0.39309(17) 0.29018(12) 0.0417(6) Uani 1 1 d . . .
O3 O 0.7723(2) -0.34037(16) 0.39112(12) 0.0385(5) Uani 1 1 d . . .
O4 O 0.2127(2) -0.04222(18) 0.24743(12) 0.0417(5) Uani 1 1 d . . .
O5 O 0.2815(2) 0.10453(16) 0.20342(11) 0.0361(5) Uani 1 1 d . . .
O6 O 0.7687(2) 0.11818(17) 0.19456(12) 0.0384(5) Uani 1 1 d . . .
O7 O 0.9158(2) -0.02237(17) 0.24254(12) 0.0395(5) Uani 1 1 d . . .
O8 O 0.3762(4) 0.4799(3) 0.8369(2) 0.0341(9) Uani 0.50 1 d P . .
H8D H 0.3640 0.4280 0.8176 0.041 Uiso 0.50 1 d PR . .
H8C H 0.3060 0.5017 0.8629 0.051 Uiso 0.50 1 d PR . .
O9 O 1.0000 0.5000 1.0000 0.0392(7) Uani 1 2 d S . .
H9B H 1.0617 0.4584 0.9795 0.059 Uiso 0.50 1 d PR . .
H9C H 0.9250 0.4798 1.0001 0.059 Uiso 0.50 1 d PR . .
O10 O 0.2855(4) 0.3479(3) 0.0887(2) 0.0376(10) Uani 0.50 1 d P . .
H10B H 0.3323 0.3882 0.1023 0.056 Uiso 0.50 1 d PR . .
H10C H 0.2625 0.3063 0.1279 0.056 Uiso 0.50 1 d PR . .
O11 O 0.3267(4) 0.6759(3) 0.8931(2) 0.0386(10) Uani 0.50 1 d P . .
H11F H 0.3245 0.6582 0.8497 0.046 Uiso 0.50 1 d PR . .
H11D H 0.3297 0.7415 0.8869 0.058 Uiso 0.50 1 d PR . .
O12 O 0.4856(4) 0.9312(3) 1.0048(2) 0.0316(9) Uani 0.50 1 d P . .
H12A H 0.5069 0.9919 0.9913 0.047 Uiso 0.50 1 d PR . .
H12C H 0.4112 0.9315 0.9848 0.047 Uiso 0.50 1 d PR . .
O13 O 0.2849(2) 0.40860(16) 0.95322(11) 0.0350(5) Uani 1 1 d . . .
H13A H 0.2765 0.3443 0.9578 0.052 Uiso 1 1 d R . .
H13B H 0.3539 0.4114 0.9773 0.052 Uiso 1 1 d R . .
O14 O 0.5315(4) 0.7631(3) 0.0671(2) 0.0363(10) Uani 0.50 1 d P . .
H14D H 0.5182 0.7440 0.1149 0.044 Uiso 0.50 1 d PR . .
H14C H 0.5866 0.8056 0.0598 0.054 Uiso 0.50 1 d PR . .
S1 S 0.65503(14) -0.33415(11) 0.34923(9) 0.0325(3) Uani 0.50 1 d P . .

loop_
_atom_site_aniso_label
_atom_site_aniso_U_11
_atom_site_aniso_U_22
_atom_site_aniso_U_33
_atom_site_aniso_U_23
_atom_site_aniso_U_13
_atom_site_aniso_U_12
C1 0.0376(17) 0.0322(15) 0.0331(15) 0.0038(12) -0.0035(12) -0.0049(13)
C2 0.0320(16) 0.0394(16) 0.0413(16) -0.0119(13) -0.0125(12) -0.0112(13)
C3 0.0326(15) 0.0359(15) 0.0323(15) -0.0181(12) 0.0052(11) -0.0044(12)
C4 0.053(2) 0.0278(16) 0.048(2) -0.0003(13) -0.0119(15) 0.0067(14)
C5 0.0313(15) 0.0285(14) 0.0329(15) 0.0034(11) -0.0018(12) 0.0005(11)
C6 0.055(2) 0.0334(16) 0.0372(17) -0.0044(13) -0.0092(14) -0.0056(14)
C7 0.057(2) 0.0323(17) 0.0441(19) 0.0033(13) -0.0068(15) -0.0019(15)
C8 0.0304(16) 0.0344(16) 0.0495(18) -0.0058(13) -0.0135(13) -0.0049(12)
C9 0.0304(15) 0.0311(15) 0.0561(19) -0.0251(14) 0.0100(13) -0.0124(12)
C10 0.0389(17) 0.060(2) 0.0336(16) -0.0196(14) -0.0001(13) -0.0167(15)
C11 0.0400(17) 0.0413(17) 0.0410(17) -0.0144(13) -0.0146(13) -0.0174(13)
C12 0.0375(16) 0.0278(14) 0.0326(15) -0.0131(11) -0.0107(12) -0.0082(11)
C13 0.0385(17) 0.0344(16) 0.0331(16) 0.0154(12) -0.0070(12) -0.0152(13)
C14 0.0497(19) 0.0333(15) 0.0395(16) -0.0133(12) -0.0255(14) -0.0108(14)
C15 0.0394(17) 0.0283(15) 0.0413(17) 0.0047(12) -0.0019(13) -0.0055(13)
C16 0.0343(16) 0.0305(15) 0.0376(16) 0.0038(12) -0.0011(12) -0.0089(12)
C17 0.0390(17) 0.0315(16) 0.0408(17) -0.0003(13) -0.0018(13) -0.0037(13)
C18 0.0311(16) 0.0497(19) 0.0455(18) -0.0025(14) 0.0002(13) -0.0112(14)
C19 0.0330(16) 0.0325(16) 0.056(2) 0.0054(14) -0.0069(14) -0.0038(12)
C20 0.0355(16) 0.0300(15) 0.0430(17) -0.0007(12) -0.0056(13) -0.0070(12)
C21 0.0344(17) 0.0296(16) 0.0440(18) -0.0034(13) -0.0049(13) -0.0080(13)
C22 0.0327(17) 0.0456(19) 0.0435(19) 0.0047(15) -0.0062(14) -0.0050(14)
C23 0.0347(17) 0.0465(19) 0.0413(18) -0.0197(14) 0.0019(13) -0.0061(14)
C24 0.058(2) 0.043(2) 0.0355(18) -0.0130(14) -0.0034(16) 0.0051(16)
C25 0.0356(18) 0.0394(18) 0.0435(19) -0.0013(14) -0.0037(14) -0.0052(14)
C26 0.0317(16) 0.0307(16) 0.0475(18) 0.0050(13) -0.0132(13) -0.0093(13)
C27 0.059(6) 0.039(5) 0.049(5) -0.019(3) -0.008(3) -0.009(4)
C28 0.033(2) 0.031(2) 0.035(2) 0.0128(17) -0.0136(18) -0.0177(18)
C29 0.033(2) 0.040(2) 0.039(2) 0.0113(19) -0.0203(19) -0.0120(19)
C30 0.034(6) 0.030(4) 0.046(5) 0.020(4) -0.024(5) -0.017(4)
C31 0.041(3) 0.029(2) 0.033(2) -0.0080(17) -0.0081(19) -0.0156(18)
C32 0.047(3) 0.046(3) 0.052(3) -0.001(2) -0.019(2) -0.030(2)
C33 0.042(2) 0.0346(18) 0.055(2) 0.0124(15) -0.0180(16) -0.0166(15)
C34 0.0356(18) 0.0356(17) 0.0467(19) -0.0035(14) 0.0078(14) -0.0269(14)
C35 0.0302(16) 0.0308(15) 0.0388(17) -0.0017(12) 0.0133(13) -0.0055(12)
C36 0.0353(18) 0.048(2) 0.048(2) 0.0095(15) -0.0101(15) -0.0254(15)
C27' 0.036(7) 0.043(11) 0.042(10) 0.003(7) -0.012(7) 0.008(7)
C28' 0.064(9) 0.035(6) 0.028(6) -0.004(5) 0.015(5) -0.008(5)
C29' 0.022(5) 0.039(6) 0.029(5) -0.011(4) 0.008(4) -0.003(4)
C30' 0.031(15) 0.049(11) 0.042(10) 0.008(7) -0.014(11) 0.014(9)
C31' 0.040(7) 0.028(6) 0.037(7) 0.008(5) -0.001(5) 0.001(5)
C32' 0.038(7) 0.066(10) 0.028(6) -0.005(6) -0.004(5) -0.019(6)
Cd1 0.03700(19) 0.03113(18) 0.0503(2) -0.00329(15) -0.00628(15) -0.00163(14)
Cd2 0.03432(13) 0.03642(13) 0.04145(14) 0.00178(10) -0.00281(10) -0.00530(10)
N1 0.0315(14) 0.0381(15) 0.0488(16) -0.0003(12) -0.0036(12) -0.0073(12)
N2 0.0373(15) 0.0258(13) 0.0398(15) -0.0010(11) -0.0035(11) 0.0040(11)
N3 0.0479(18) 0.0380(15) 0.0517(17) -0.0104(13) -0.0071(14) -0.0085(13)
N4 0.0374(15) 0.0352(15) 0.0568(18) -0.0070(12) -0.0235(13) -0.0062(11)
N5 0.0309(15) 0.0372(15) 0.0573(18) -0.0109(13) 0.0009(12) -0.0029(12)
N6 0.0329(14) 0.0280(13) 0.0494(16) -0.0004(11) -0.0110(11) -0.0123(11)
N7 0.0342(15) 0.0315(14) 0.0414(15) 0.0110(11) -0.0086(11) -0.0130(11)
N8 0.0509(19) 0.0459(17) 0.0420(17) 0.0053(13) -0.0004(14) -0.0112(14)
O1 0.0402(12) 0.0369(12) 0.0360(12) 0.0114(9) 0.0050(9) -0.0087(10)
O2 0.0416(13) 0.0405(13) 0.0348(12) 0.0132(10) 0.0155(9) -0.0131(10)
O3 0.0351(12) 0.0402(12) 0.0345(11) 0.0170(9) -0.0116(9) -0.0126(10)
O4 0.0406(13) 0.0446(13) 0.0334(12) 0.0162(10) -0.0141(9) 