####################################################################### 
# 
# This file contains crystal structure data downloaded from the 
# Cambridge Structural Database (CSD) hosted by the Cambridge 
# Crystallographic Data Centre (CCDC).
# 
# Full information about CCDC data access policies and citation 
# guidelines are available at http://www.ccdc.cam.ac.uk/access/V1 
# 
# Audit and citation data items may have been added by the CCDC. 
# Please retain this information to preserve the provenance of 
# this file and to allow appropriate attribution of the data. 
# 
#######################################################################

data_3
_audit_block_doi                 10.5517/ccnkz6c
_database_code_depnum_ccdc_archive 'CCDC 613093'
loop_
_citation_id
_citation_doi
_citation_year
1 10.1021/ic051557o 2006
_audit_update_record             
;
2006-07-04 deposited with the CCDC.	2024-07-12 downloaded from the CCDC.
;

_audit_creation_method           SHELXL-97
_chemical_name_systematic        
;
?
;
_chemical_name_common            ?
_chemical_melting_point          'not measured'
_chemical_formula_moiety         ?
_chemical_formula_sum            'C48 H47 La2 N4 O16.50'
_chemical_formula_weight         1221.72

loop_
_atom_type_symbol
_atom_type_description
_atom_type_scat_dispersion_real
_atom_type_scat_dispersion_imag
_atom_type_scat_source
C C 0.0033 0.0016 'International Tables Vol C Tables 4.2.6.8 and 6.1.1.4'
H H 0.0000 0.0000 'International Tables Vol C Tables 4.2.6.8 and 6.1.1.4'
N N 0.0061 0.0033 'International Tables Vol C Tables 4.2.6.8 and 6.1.1.4'
O O 0.0106 0.0060 'International Tables Vol C Tables 4.2.6.8 and 6.1.1.4'
La La -0.2871 2.4523 'International Tables Vol C Tables 4.2.6.8 and 6.1.1.4'

_symmetry_cell_setting           Triclinic
_symmetry_space_group_name_H-M   P-1

loop_
_symmetry_equiv_pos_as_xyz
'x, y, z'
'-x, -y, -z'

_cell_length_a                   11.5541(9)
_cell_length_b                   11.7802(10)
_cell_length_c                   23.5745(15)
_cell_angle_alpha                79.366(5)
_cell_angle_beta                 87.169(5)
_cell_angle_gamma                62.000(5)
_cell_volume                     2781.9(4)
_cell_formula_units_Z            2
_cell_measurement_temperature    293(2)
_cell_measurement_reflns_used    ?
_cell_measurement_theta_min      2.06
_cell_measurement_theta_max      28.57

_exptl_crystal_description       block
_exptl_crystal_colour            Colorless
_exptl_crystal_size_max          0.39
_exptl_crystal_size_mid          0.33
_exptl_crystal_size_min          0.16
_exptl_crystal_density_meas      none
_exptl_crystal_density_diffrn    1.459
_exptl_crystal_density_method    'not measured'
_exptl_crystal_F_000             1218
_exptl_absorpt_coefficient_mu    1.581
_exptl_absorpt_correction_type   empirical
_exptl_absorpt_correction_T_min  ?
_exptl_absorpt_correction_T_max  ?
_exptl_absorpt_process_details   SADABS

_exptl_special_details           
;
?
;

_diffrn_ambient_temperature      293(2)
_diffrn_radiation_wavelength     0.71073
_diffrn_radiation_type           MoK\a
_diffrn_radiation_source         'fine-focus sealed tube'
_diffrn_radiation_monochromator  graphite
_diffrn_measurement_device_type  'CCD area detector'
_diffrn_measurement_method       ?
_diffrn_detector_area_resol_mean none
_diffrn_standards_number         none
_diffrn_standards_interval_count none
_diffrn_standards_interval_time  none
_diffrn_standards_decay_%        none
_diffrn_reflns_number            19842
_diffrn_reflns_av_R_equivalents  0.0552
_diffrn_reflns_av_sigmaI/netI    0.1123
_diffrn_reflns_limit_h_min       -14
_diffrn_reflns_limit_h_max       15
_diffrn_reflns_limit_k_min       -10
_diffrn_reflns_limit_k_max       15
_diffrn_reflns_limit_l_min       -29
_diffrn_reflns_limit_l_max       31
_diffrn_reflns_theta_min         2.06
_diffrn_reflns_theta_max         28.57
_reflns_number_total             13544
_reflns_number_gt                8385
_reflns_threshold_expression     >2sigma(I)

_computing_data_collection       'Bruker SMART'
_computing_cell_refinement       'Bruker SMART'
_computing_data_reduction        'Bruker SMART'
_computing_structure_solution    'SHELXS-97 (Sheldrick, 1990)'
_computing_structure_refinement  'SHELXL-97 (Sheldrick, 1997)'
_computing_molecular_graphics    SHELXP-97
_computing_publication_material  SHELXTL

_refine_special_details          
;
Refinement of F^2^ against ALL reflections. The weighted R-factor wR and
goodness of fit S are based on F^2^, conventional R-factors R are based
on F, with F set to zero for negative F^2^. The threshold expression of
F^2^ > 2sigma(F^2^) is used only for calculating R-factors(gt) etc. and is
not relevant to the choice of reflections for refinement. R-factors based
on F^2^ are statistically about twice as large as those based on F, and R-
factors based on ALL data will be even larger.
;

_refine_ls_structure_factor_coef Fsqd
_refine_ls_matrix_type           full
_refine_ls_weighting_scheme      calc
_refine_ls_weighting_details     
'calc w=1/[\s^2^(Fo^2^)+(0.0383P)^2^+0.0000P] where P=(Fo^2^+2Fc^2^)/3'
_atom_sites_solution_primary     direct
_atom_sites_solution_secondary   difmap
_atom_sites_solution_hydrogens   geom
_refine_ls_hydrogen_treatment    mixed
_refine_ls_extinction_method     none
_refine_ls_extinction_coef       ?
_refine_ls_number_reflns         13544
_refine_ls_number_parameters     633
_refine_ls_number_restraints     0
_refine_ls_R_factor_all          0.0922
_refine_ls_R_factor_gt           0.0518
_refine_ls_wR_factor_ref         0.1161
_refine_ls_wR_factor_gt          0.1019
_refine_ls_goodness_of_fit_ref   0.915
_refine_ls_restrained_S_all      0.915
_refine_ls_shift/su_max          0.002
_refine_ls_shift/su_mean         0.000

loop_
_atom_site_label
_atom_site_type_symbol
_atom_site_fract_x
_atom_site_fract_y
_atom_site_fract_z
_atom_site_U_iso_or_equiv
_atom_site_adp_type
_atom_site_occupancy
_atom_site_symmetry_multiplicity
_atom_site_calc_flag
_atom_site_refinement_flags
_atom_site_disorder_assembly
_atom_site_disorder_group
La2 La 0.92760(3) 0.16521(3) 0.192997(12) 0.01853(9) Uani 1 1 d . . .
La1 La 1.08841(3) -0.19007(3) 0.309706(12) 0.01855(9) Uani 1 1 d . . .
O5 O 1.0377(4) 0.1617(4) 0.09459(17) 0.0405(11) Uani 1 1 d . . .
O9 O 0.9654(4) 0.0500(4) 0.30703(16) 0.0289(9) Uani 1 1 d . . .
C29 C 0.9434(6) 0.1805(6) 0.5022(2) 0.0287(14) Uani 1 1 d . . .
C14 C 0.9403(6) 0.1773(5) 0.0032(2) 0.0278(13) Uani 1 1 d . . .
O2 O 1.2509(4) -0.1083(4) 0.28119(18) 0.0372(11) Uani 1 1 d . . .
O3 O 1.8589(4) -0.1201(4) 0.27589(17) 0.0312(10) Uani 1 1 d . . .
O13 O 0.9538(5) 0.3712(4) 0.1663(2) 0.0519(13) Uani 1 1 d . . .
O4 O 1.7710(4) 0.0795(4) 0.22042(19) 0.0366(11) Uani 1 1 d . . .
C22 C 1.1955(8) 0.2767(8) -0.0532(3) 0.056(2) Uani 1 1 d . . .
H30 H 1.2562 0.2974 -0.0396 0.067 Uiso 1 1 calc R . .
O1 O 1.1591(4) 0.0902(4) 0.22432(18) 0.0324(10) Uani 1 1 d . . .
O15 O 1.0598(5) -0.3946(5) 0.3343(3) 0.0621(16) Uani 1 1 d . . .
O6 O 0.8436(4) 0.1679(5) 0.09384(18) 0.0445(12) Uani 1 1 d . . .
O10 O 0.8903(5) 0.2616(4) 0.28698(17) 0.0453(13) Uani 1 1 d . . .
O16 O 1.3148(4) -0.3917(4) 0.3225(2) 0.0451(12) Uani 1 1 d . . .
O14 O 0.7004(4) 0.3611(4) 0.1803(2) 0.0462(12) Uani 1 1 d . . .
N4 N 1.4742(6) -0.5926(6) 0.3162(3) 0.0507(16) Uani 1 1 d . . .
C23 C 1.1854(8) 0.2789(8) -0.1126(3) 0.053(2) Uani 1 1 d . . .
H29 H 1.2392 0.3005 -0.1380 0.063 Uiso 1 1 calc R . .
C43 C 1.0240(9) 0.3968(7) 0.1314(4) 0.052(2) Uani 1 1 d . . .
H43 H 0.9993 0.4126 0.0926 0.062 Uiso 1 1 calc R . .
C21 C 1.1188(7) 0.2450(7) -0.0153(3) 0.0421(17) Uani 1 1 d . . .
H31 H 1.1271 0.2449 0.0237 0.051 Uiso 1 1 calc R . .
C35 C 1.2073(10) 0.2716(10) 0.4464(4) 0.077(3) Uani 1 1 d . . .
H35 H 1.2636 0.2981 0.4597 0.093 Uiso 1 1 calc R . .
C36 C 1.1205(9) 0.2469(8) 0.4833(3) 0.057(2) Uani 1 1 d . . .
H36 H 1.1203 0.2578 0.5214 0.069 Uiso 1 1 calc R . .
C12 C 1.6079(6) 0.0482(7) 0.1361(3) 0.0423(17) Uani 1 1 d . . .
H12 H 1.6869 0.0515 0.1348 0.051 Uiso 1 1 calc R . .
N2 N 0.5351(6) 0.5648(6) 0.1796(3) 0.0577(18) Uani 1 1 d . . .
C3 C 1.4671(6) -0.0609(6) 0.2949(3) 0.0349(15) Uani 1 1 d . . .
H3 H 1.4384 -0.0894 0.3295 0.042 Uiso 1 1 calc R . .
C1 C 1.2551(5) -0.0110(6) 0.2507(3) 0.0276(13) Uani 1 1 d . . .
N3 N 0.8846(8) -0.4304(7) 0.3485(4) 0.076(2) Uani 1 1 d . . .
C19 C 1.0163(6) 0.2144(5) -0.0951(2) 0.0273(13) Uani 1 1 d . . .
C7 C 1.5603(5) 0.0180(5) 0.1904(2) 0.0248(12) Uani 1 1 d . . .
C32 C 1.0321(6) 0.1957(6) 0.4063(2) 0.0331(15) Uani 1 1 d . . .
C15 C 0.8566(6) 0.1439(6) -0.0195(2) 0.0327(15) Uani 1 1 d . . .
H22 H 0.8026 0.1208 0.0051 0.039 Uiso 1 1 calc R . .
C26 C 0.9427(6) 0.1595(5) 0.3860(2) 0.0278(13) Uani 1 1 d . . .
C37 C 1.3531(7) -0.4996(6) 0.3099(3) 0.0418(17) Uani 1 1 d . . .
H37 H 1.2912 -0.5165 0.2947 0.050 Uiso 1 1 calc R . .
C2 C 1.3881(5) -0.0166(5) 0.2452(2) 0.0266(12) Uani 1 1 d . . .
C17 C 0.9255(6) 0.1795(5) -0.1162(2) 0.0265(13) Uani 1 1 d . . .
N1 N 1.1274(8) 0.4043(6) 0.1422(4) 0.068(2) Uani 1 1 d . . .
C5 C 1.6357(5) -0.0225(5) 0.2435(2) 0.0238(12) Uani 1 1 d . . .
C20 C 1.0257(6) 0.2121(6) -0.0345(2) 0.0283(14) Uani 1 1 d . . .
C16 C 0.8490(6) 0.1432(6) -0.0786(2) 0.0307(14) Uani 1 1 d . . .
H23 H 0.7921 0.1180 -0.0923 0.037 Uiso 1 1 calc R . .
C28 C 0.8596(7) 0.1440(6) 0.4803(3) 0.0342(15) Uani 1 1 d . . .
H28 H 0.8019 0.1263 0.5046 0.041 Uiso 1 1 calc R . .
C46 C 0.4945(11) 0.6961(9) 0.1906(6) 0.109(4) Uani 1 1 d . . .
H46A H 0.4020 0.7493 0.1820 0.163 Uiso 1 1 calc R . .
H46B H 0.5415 0.7342 0.1666 0.163 Uiso 1 1 calc R . .
H46C H 0.5132 0.6911 0.2305 0.163 Uiso 1 1 calc R . .
C27 C 0.8602(6) 0.1333(6) 0.4230(2) 0.0300(14) Uani 1 1 d . . .
H27 H 0.8034 0.1078 0.4094 0.036 Uiso 1 1 calc R . .
C48 C 0.6586(7) 0.4723(7) 0.1887(3) 0.0499(19) Uani 1 1 d . . .
H48 H 0.7181 0.4940 0.2026 0.060 Uiso 1 1 calc R . .
C39 C 1.5140(10) -0.7195(8) 0.3001(4) 0.080(3) Uani 1 1 d . . .
H39A H 1.6065 -0.7740 0.3081 0.120 Uiso 1 1 calc R . .
H39C H 1.4947 -0.7073 0.2596 0.120 Uiso 1 1 calc R . .
H39B H 1.4670 -0.7605 0.3219 0.120 Uiso 1 1 calc R . .
C8 C 1.4357(5) 0.0201(5) 0.1916(2) 0.0245(12) Uani 1 1 d . . .
C6 C 1.7663(5) -0.0208(6) 0.2467(2) 0.0265(13) Uani 1 1 d . . .
C31 C 1.0334(6) 0.2063(6) 0.4660(2) 0.0309(14) Uani 1 1 d . . .
C11 C 1.5399(7) 0.0725(8) 0.0860(3) 0.054(2) Uani 1 1 d . . .
H11 H 1.5746 0.0885 0.0508 0.064 Uiso 1 1 calc R . .
C42 C 0.8596(15) -0.4214(13) 0.2871(7) 0.135(6) Uani 1 1 d . . .
H42A H 0.7839 -0.4328 0.2824 0.202 Uiso 1 1 calc R . .
H42B H 0.9344 -0.4884 0.2723 0.202 Uiso 1 1 calc R . .
H42C H 0.8443 -0.3372 0.2662 0.202 Uiso 1 1 calc R . .
C25 C 0.9331(6) 0.1564(5) 0.3225(2) 0.0256(13) Uani 1 1 d . . .
C9 C 1.3662(6) 0.0495(6) 0.1374(3) 0.0367(15) Uani 1 1 d . . .
H9 H 1.2846 0.0518 0.1370 0.044 Uiso 1 1 calc R . .
C24 C 1.0967(7) 0.2493(6) -0.1327(3) 0.0398(16) Uani 1 1 d . . .
H28' H 1.0892 0.2523 -0.1721 0.048 Uiso 1 1 calc R . .
C40 C 0.9838(9) -0.4172(8) 0.3664(4) 0.062(2) Uani 1 1 d . . .
H40 H 0.9965 -0.4256 0.4059 0.074 Uiso 1 1 calc R . .
C13 C 0.9413(6) 0.1693(5) 0.0677(2) 0.0264(13) Uani 1 1 d . . .
O7 O 0.9467(4) 0.0766(4) -0.19622(15) 0.0285(9) Uani 1 1 d . . .
O8 O 0.8694(5) 0.2887(4) -0.21398(17) 0.0430(12) Uani 1 1 d . . .
C18 C 0.9132(5) 0.1829(5) -0.1800(2) 0.0242(12) Uani 1 1 d . . .
C4 C 1.5900(6) -0.0637(6) 0.2939(3) 0.0357(15) Uani 1 1 d . . .
H4 H 1.6414 -0.0940 0.3279 0.043 Uiso 1 1 calc R . .
C33 C 1.1226(8) 0.2209(7) 0.3689(3) 0.0498(19) Uani 1 1 d . . .
H33 H 1.1228 0.2133 0.3304 0.060 Uiso 1 1 calc R . .
C47 C 0.4362(8) 0.5362(9) 0.1585(4) 0.075(3) Uani 1 1 d . . .
H47B H 0.3525 0.6133 0.1542 0.112 Uiso 1 1 calc R . .
H47C H 0.4309 0.4675 0.1857 0.112 Uiso 1 1 calc R . .
H47A H 0.4604 0.5092 0.1218 0.112 Uiso 1 1 calc R . .
C10 C 1.4187(7) 0.0737(7) 0.0870(3) 0.0485(18) Uani 1 1 d . . .
H10 H 1.3730 0.0914 0.0524 0.058 Uiso 1 1 calc R . .
C34 C 1.2078(10) 0.2556(10) 0.3886(4) 0.076(3) Uani 1 1 d . . .
H34 H 1.2670 0.2689 0.3637 0.091 Uiso 1 1 calc R . .
C38 C 1.5760(8) -0.5729(10) 0.3413(4) 0.082(3) Uani 1 1 d . . .
H38C H 1.6589 -0.6505 0.3431 0.124 Uiso 1 1 calc R . .
H38A H 1.5533 -0.5548 0.3795 0.124 Uiso 1 1 calc R . .
H38B H 1.5823 -0.5005 0.3177 0.124 Uiso 1 1 calc R . .
C45 C 1.2031(13) 0.4386(12) 0.0950(7) 0.135(6) Uani 1 1 d . . .
H45A H 1.2782 0.4371 0.1115 0.203 Uiso 1 1 calc R . .
H45B H 1.1482 0.5244 0.0735 0.203 Uiso 1 1 calc R . .
H45C H 1.2316 0.3761 0.0696 0.203 Uiso 1 1 calc R . .
C44 C 1.1787(12) 0.3769(11) 0.2014(7) 0.117(5) Uani 1 1 d . . .
H44A H 1.2569 0.3865 0.2008 0.175 Uiso 1 1 calc R . .
H44B H 1.1989 0.2891 0.2190 0.175 Uiso 1 1 calc R . .
H44C H 1.1141 0.4372 0.2231 0.175 Uiso 1 1 calc R . .
C41 C 0.7966(12) -0.4518(12) 0.3914(7) 0.148(7) Uani 1 1 d . . .
H41B H 0.7295 -0.4586 0.3721 0.222 Uiso 1 1 calc R . .
H41A H 0.7570 -0.3796 0.4116 0.222 Uiso 1 1 calc R . .
H41C H 0.8461 -0.5312 0.4184 0.222 Uiso 1 1 calc R . .
C30 C 0.9354(6) 0.1874(6) 0.5659(2) 0.0302(14) Uani 1 1 d . . .
O12 O 1.0268(5) 0.1841(5) 0.59349(18) 0.0461(12) Uani 1 1 d . . .
O11 O 0.8344(5) 0.1932(5) 0.59132(18) 0.0496(13) Uani 1 1 d . . .
OW1 O 0.5000 0.5000 0.0000 0.060(4) Uiso 0.50 2 d SP . .
OW2 O 1.5000 0.0000 0.5000 0.101(6) Uiso 0.50 2 d SP . .

loop_
_atom_site_aniso_label
_atom_site_aniso_U_11
_atom_site_aniso_U_22
_atom_site_aniso_U_33
_atom_site_aniso_U_23
_atom_site_aniso_U_13
_atom_site_aniso_U_12
La2 0.01626(16) 0.02470(17) 0.01500(17) -0.00299(11) 0.00021(12) -0.01010(14)
La1 0.01631(16) 0.02500(18) 0.01481(17) -0.00300(11) -0.00001(12) -0.01022(14)
O5 0.043(3) 0.068(3) 0.018(2) -0.0089(19) 0.0006(19) -0.032(2)
O9 0.033(2) 0.029(2) 0.025(2) -0.0097(15) 0.0048(17) -0.0134(18)
C29 0.027(3) 0.033(3) 0.018(3) -0.004(2) -0.005(2) -0.008(3)
C14 0.028(3) 0.031(3) 0.018(3) -0.004(2) 0.001(2) -0.008(3)
O2 0.028(2) 0.048(3) 0.039(3) 0.0039(19) -0.0025(19) -0.025(2)
O3 0.0161(19) 0.037(2) 0.037(2) 0.0009(17) -0.0049(17) -0.0113(18)
O13 0.055(3) 0.035(3) 0.074(4) -0.016(2) 0.027(3) -0.027(2)
O4 0.024(2) 0.041(2) 0.051(3) 0.0068(19) -0.0069(19) -0.024(2)
C22 0.066(5) 0.086(6) 0.038(4) 0.002(4) -0.006(4) -0.058(5)
O1 0.018(2) 0.035(2) 0.042(3) -0.0007(18) -0.0059(18) -0.0125(18)
O15 0.058(4) 0.042(3) 0.100(5) -0.020(3) 0.031(3) -0.035(3)
O6 0.034(3) 0.080(3) 0.024(2) -0.010(2) 0.0045(19) -0.031(3)
O10 0.070(3) 0.029(2) 0.022(2) -0.0025(17) -0.007(2) -0.011(2)
O16 0.034(3) 0.034(3) 0.063(3) -0.016(2) -0.004(2) -0.009(2)
O14 0.033(3) 0.033(3) 0.064(3) -0.009(2) -0.002(2) -0.009(2)
N4 0.040(4) 0.050(4) 0.050(4) -0.005(3) 0.004(3) -0.013(3)
C23 0.062(5) 0.082(6) 0.034(4) -0.012(3) 0.018(4) -0.050(5)
C43 0.064(5) 0.045(4) 0.060(5) -0.011(3) 0.018(4) -0.038(4)
C21 0.047(4) 0.062(5) 0.028(4) -0.009(3) 0.005(3) -0.035(4)
C35 0.099(8) 0.135(9) 0.053(6) -0.031(5) 0.019(5) -0.095(7)
C36 0.076(6) 0.104(6) 0.025(4) -0.016(4) 0.002(4) -0.067(5)
C12 0.035(4) 0.071(5) 0.030(3) -0.001(3) 0.005(3) -0.036(4)
N2 0.038(4) 0.038(3) 0.079(5) -0.008(3) 0.013(3) -0.004(3)
C3 0.023(3) 0.048(4) 0.033(3) 0.003(3) 0.003(2) -0.020(3)
C1 0.019(3) 0.035(3) 0.036(3) -0.006(2) 0.003(2) -0.019(3)
N3 0.064(5) 0.051(4) 0.131(8) -0.023(4) 0.024(5) -0.041(4)
C19 0.032(3) 0.028(3) 0.019(3) -0.006(2) 0.003(2) -0.012(3)
C7 0.020(3) 0.026(3) 0.027(3) -0.005(2) 0.002(2) -0.009(2)
C32 0.042(4) 0.042(4) 0.017(3) -0.006(2) 0.004(3) -0.021(3)
C15 0.032(3) 0.052(4) 0.019(3) -0.007(2) 0.004(2) -0.023(3)
C26 0.032(3) 0.025(3) 0.018(3) -0.005(2) 0.000(2) -0.007(3)
C37 0.033(4) 0.036(4) 0.046(4) -0.004(3) 0.003(3) -0.010(3)
C2 0.019(3) 0.035(3) 0.029(3) -0.003(2) 0.000(2) -0.016(2)
C17 0.033(3) 0.029(3) 0.013(3) -0.002(2) 0.001(2) -0.010(3)
N1 0.057(5) 0.048(4) 0.112(7) -0.014(4) 0.021(4) -0.038(4)
C5 0.015(3) 0.026(3) 0.032(3) -0.003(2) 0.002(2) -0.011(2)
C20 0.034(3) 0.034(3) 0.016(3) 0.000(2) -0.005(2) -0.016(3)
C16 0.035(3) 0.037(3) 0.019(3) -0.008(2) -0.002(2) -0.015(3)
C28 0.044(4) 0.043(4) 0.021(3) -0.005(2) 0.000(3) -0.025(3)
C46 0.077(7) 0.042(5) 0.193(13) -0.036(6) 0.042(8) -0.014(5)
C27 0.033(3) 0.036(3) 0.025(3) -0.009(2) 0.000(3) -0.019(3)
C48 0.035(4) 0.050(5) 0.068(5) -0.014(3) 0.004(3) -0.022(4)
C39 0.082(7) 0.043(5) 0.087(7) -0.019(4) 0.032(5) -0.007(5)
C8 0.018(3) 0.026(3) 0.029(3) 0.001(2) -0.003(2) -0.011(2)
C6 0.015(3) 0.034(3) 0.032(3) -0.005(2) 0.003(2) -0.013(3)
C31 0.033(3) 0.046(4) 0.018(3) -0.010(2) -0.001(2) -0.021(3)
C11 0.040(4) 0.091(6) 0.022(3) 0.003(3) 0.001(3) -0.030(4)
C42 0.163(14) 0.117(11) 0.125(12) -0.003(8) -0.061(10) -0.066(10)
C25 0.030(3) 0.029(3) 0.016(3) -0.007(2) -0.001(2) -0.011(3)
C9 0.025(3) 0.052(4) 0.034(3) 0.000(3) -0.003(2) -0.021(3)
C24 0.046(4) 0.054(4) 0.021(3) -0.003(3) 0.009(3) -0.027(3)
C40 0.067(6) 0.056(5) 0.076(6) -0.019(4) 0.019(5) -0.038(5)
C13 0.032(3) 0.031(3) 0.012(3) -0.002(2) -0.004(2) -0.011(3)
O7 0.035(2) 0.032(2) 0.017(2) -0.0074(15) 0.0008(16) -0.0136(19)
O8 0.066(3) 0.031(2) 0.020(2) -0.0056(16) -0.002(2) -0.012(2)
C18 0.024(3) 0.026(3) 0.018(3) -0.007(2) 0.003(2) -0.008(2)
C4 0.028(3) 0.053(4) 0.028(3) 0.003(3) -0.008(2) -0.024(3)
C33 0.055(5) 0.068(5) 0.035(4) -0.017(3) 0.016(3) -0.035(4)
C47 0.030(4) 0.080(6) 0.092(7) -0.016(5) -0.004(4) -0.008(4)
C10 0.038(4) 0.076(5) 0.030(4) -0.001(3) -0.011(3) -0.027(4)
C34 0.079(7) 0.134(9) 0.048(6) -0.017(5) 0.016(5) -0.080(7)
C38 0.036(5) 0.091(7) 0.095(8) -0.022(5) -0.004(5) -0.007(5)
C45 0.119(11) 0.101(9) 0.229(16) -0.066(9) 0.105(11) -0.084(8)
C44 0.097(9) 0.088(8) 0.181(14) 0.008(8) -0.046(9) -0.062(7)
C41 0.090(9) 0.105(10) 0.260(19) -0.010(10) 0.068(11) -0.068(8)
C30 0.033(3) 0.035(3) 0.018(3) -0.00