
#######################################################################
#
#                 Cambridge Crystallographic Data Centre
#                                CCDC
#
#######################################################################
#
# If this CIF has been generated from an entry in the Cambridge
# Structural Database, then it will include bibliographic, chemical,
# crystal, experimental, refinement or atomic coordinate data resulting
# from the CCDC's data processing and validation procedures.
#
#######################################################################

data_CSD_CIF_SEPVEP
_audit_creation_date 2007-02-08
_audit_creation_method CSD-ConQuest-V1
_database_code_CSD SEPVEP
_database_code_depnum_ccdc_archive 'CCDC 256312'
_chemical_formula_sum 'C14 H20 Ar0.67 F6 O6'
_chemical_formula_moiety
;
C14 H20 F6 O6,0.67(Ar1)
;
_journal_coden_Cambridge 241
_journal_volume 35
_journal_year 2006
_journal_page_first 504
_journal_name_full 'Chem.Lett. '
loop_
_publ_author_name
"T.Katagiri"
"S.Takahashi"
"K.Kawabata"
"Y.Hattori"
"K.Kaneko"
"K.Uneyama"
_chemical_name_systematic
;
(S,S)-Octamethylenebis(trifluorolactate) argon
;
_chemical_name_common
;
Teaching Subset: Fundamental Chemistry, Symmetry
;
_cell_volume   1000.480
_exptl_crystal_colour 'colorless'
_exptl_crystal_density_diffrn 1.411
_exptl_special_details
;
cell parameters a, b and c in the cif are published as b, c and a in the 
;
_exptl_crystal_description 'platelet'
_diffrn_ambient_temperature 100
#These two values have been output from a single CSD field.
_refine_ls_R_factor_gt 0.1425
_refine_ls_wR_factor_gt 0.1425
_symmetry_cell_setting orthorhombic
_symmetry_space_group_name_H-M 'P 21 21 2'
_symmetry_Int_Tables_number 18
loop_
_symmetry_equiv_pos_site_id
_symmetry_equiv_pos_as_xyz
1 x,y,z
2 -x,-y,z
3 1/2+x,1/2-y,-z
4 1/2-x,1/2+y,-z
_cell_length_a 24.635(4)
_cell_length_b 5.0851(5)
_cell_length_c 7.9865(14)
_cell_angle_alpha 90
_cell_angle_beta 90
_cell_angle_gamma 90
_cell_formula_units_Z 2
loop_
_atom_type_symbol
_atom_type_radius_bond
C 0.68
H 0.23
Ar 1.61
F 0.64
O 0.68
loop_
_atom_site_label
_atom_site_type_symbol
_atom_site_fract_x
_atom_site_fract_y
_atom_site_fract_z
F1 F 0.8711(4) -0.1367(17) 0.5461(8)
F2 F 0.8802(4) 0.265(2) 0.4545(11)
F3 F 0.9011(4) -0.071(3) 0.3029(12)
O1 O 0.7735(4) 0.093(2) 0.4836(13)
H1 H 0.74430 0.01720 0.47440
O2 O 0.7768(4) 0.4119(17) 0.2132(11)
O3 O 0.8245(4) 0.1106(19) 0.0642(10)
C1 C 0.8637(7) 0.009(4) 0.4033(17)
C2 C 0.8085(5) 0.011(3) 0.3538(14)
H2 H 0.79810 -0.16630 0.31820
C3 C 0.7997(4) 0.208(3) 0.2024(19)
C4 C 0.8243(5) 0.269(2) -0.0886(15)
H3 H 0.78910 0.35200 -0.10180
H4 H 0.83040 0.15620 -0.18470
C5 C 0.8704(5) 0.490(2) -0.0812(14)
H5 H 0.86740 0.60580 -0.17710
H6 H 0.86640 0.59420 0.01970
C6 C 0.9268(5) 0.350(3) -0.0819(19)
H7 H 0.93090 0.24620 0.01910
H8 H 0.92930 0.23350 -0.17750
C7 C 0.9715(6) 0.559(3) -0.0908(16)
H9 H 0.96670 0.66190 -0.19180
H10 H 0.96800 0.67630 0.00410
Ar1 Ar 1.00000 0.50000 0.4202(15)
F1A F 1.1289(4) 1.1367(17) 0.5461(8)
F2A F 1.1198(4) 0.735(2) 0.4545(11)
F3A F 1.0989(4) 1.071(3) 0.3029(12)
O1A O 1.2265(4) 0.907(2) 0.4836(13)
H1A H 1.25570 0.98280 0.47440
O2A O 1.2232(4) 0.5881(17) 0.2132(11)
O3A O 1.1755(4) 0.8894(19) 0.0642(10)
C1A C 1.1363(7) 0.991(4) 0.4033(17)
C2A C 1.1915(5) 0.989(3) 0.3538(14)
H2A H 1.20190 1.16630 0.31820
C3A C 1.2003(4) 0.792(3) 0.2024(19)
C4A C 1.1757(5) 0.731(2) -0.0886(15)
H3A H 1.21090 0.64800 -0.10180
H4A H 1.16960 0.84380 -0.18470
C5A C 1.1296(5) 0.510(2) -0.0812(14)
H5A H 1.13260 0.39420 -0.17710
H6A H 1.13360 0.40580 0.01970
C6A C 1.0732(5) 0.650(3) -0.0819(19)
H7A H 1.06910 0.75380 0.01910
H8A H 1.07070 0.76650 -0.17750
C7A C 1.0285(6) 0.441(3) -0.0908(16)
H9A H 1.03330 0.33810 -0.19180
H10A H 1.03200 0.32370 0.00410
#END
