####################################################################### 
# 
# This file contains crystal structure data downloaded from the 
# Cambridge Structural Database (CSD) hosted by the Cambridge 
# Crystallographic Data Centre (CCDC).
# 
# Full information about CCDC data access policies and citation 
# guidelines are available at http://www.ccdc.cam.ac.uk/access/V1 
# 
# Audit and citation data items may have been added by the CCDC. 
# Please retain this information to preserve the provenance of 
# this file and to allow appropriate attribution of the data. 
# 
#######################################################################

data_New2
_audit_block_doi                 10.5517/cc10j6pf
_database_code_depnum_ccdc_archive 'CCDC 939104'
loop_
_citation_id
_citation_doi
_citation_year
1 10.1021/cg301161c 2013
_audit_update_record             
;
2013-05-10 deposited with the CCDC.	2024-07-12 downloaded from the CCDC.
;

_audit_creation_method           SHELXL-97
_chemical_name_systematic        
; 
 ? 
;
_chemical_name_common            ?
_chemical_melting_point          ?
_chemical_formula_moiety         ?
_chemical_formula_sum            'C85 H95 Mn4 N5 O27'
_chemical_formula_weight         1838.42

loop_
_atom_type_symbol
_atom_type_description
_atom_type_scat_dispersion_real
_atom_type_scat_dispersion_imag
_atom_type_scat_source
C C 0.0181 0.0091 'International Tables Vol C Tables 4.2.6.8 and 6.1.1.4'
H H 0.0000 0.0000 'International Tables Vol C Tables 4.2.6.8 and 6.1.1.4'
N N 0.0311 0.0180 'International Tables Vol C Tables 4.2.6.8 and 6.1.1.4'
O O 0.0492 0.0322 'International Tables Vol C Tables 4.2.6.8 and 6.1.1.4'
Mn Mn -0.5299 2.8052 'International Tables Vol C Tables 4.2.6.8 and 6.1.1.4'

_symmetry_cell_setting           triclinic
_symmetry_space_group_name_H-M   P-1

loop_
_symmetry_equiv_pos_as_xyz
'x, y, z'
'-x, -y, -z'

_cell_length_a                   16.4674(11)
_cell_length_b                   18.1705(18)
_cell_length_c                   20.4456(14)
_cell_angle_alpha                64.167(8)
_cell_angle_beta                 70.668(6)
_cell_angle_gamma                70.119(8)
_cell_volume                     5055.9(7)
_cell_formula_units_Z            2
_cell_measurement_temperature    293(2)
_cell_measurement_reflns_used    20960
_cell_measurement_theta_min      3.39
_cell_measurement_theta_max      58.93

_exptl_crystal_description       block
_exptl_crystal_colour            'light red'
_exptl_crystal_size_max          0.45
_exptl_crystal_size_mid          0.15
_exptl_crystal_size_min          0.09
_exptl_crystal_density_meas      ?
_exptl_crystal_density_diffrn    1.208
_exptl_crystal_density_method    'not measured'
_exptl_crystal_F_000             1912
_exptl_absorpt_coefficient_mu    4.556
_exptl_absorpt_correction_type   empirical
_exptl_absorpt_correction_T_min  0.462
_exptl_absorpt_correction_T_max  0.664
_exptl_absorpt_process_details   CrysAlisPro

_exptl_special_details           
; 
 ? 
;

_diffrn_ambient_temperature      293(2)
_diffrn_radiation_wavelength     1.54184
_diffrn_radiation_type           CuK\a
_diffrn_radiation_source         'fine-focus sealed tube'
_diffrn_radiation_monochromator  graphite
_diffrn_measurement_device_type  ?
_diffrn_measurement_method       ?
_diffrn_detector_area_resol_mean ?
_diffrn_standards_number         ?
_diffrn_standards_interval_count ?
_diffrn_standards_interval_time  ?
_diffrn_standards_decay_%        ?
_diffrn_reflns_number            20960
_diffrn_reflns_av_R_equivalents  0.0364
_diffrn_reflns_av_sigmaI/netI    0.0629
_diffrn_reflns_limit_h_min       -17
_diffrn_reflns_limit_h_max       18
_diffrn_reflns_limit_k_min       -20
_diffrn_reflns_limit_k_max       17
_diffrn_reflns_limit_l_min       -22
_diffrn_reflns_limit_l_max       17
_diffrn_reflns_theta_min         3.39
_diffrn_reflns_theta_max         58.93
_reflns_number_total             13895
_reflns_number_gt                9372
_reflns_threshold_expression     >2sigma(I)

_computing_data_collection       ?
_computing_cell_refinement       ?
_computing_data_reduction        ?
_computing_structure_solution    'SHELXS-97 (Sheldrick, 1990)'
_computing_structure_refinement  'SHELXL-97 (Sheldrick, 1997)'
_computing_molecular_graphics    ?
_computing_publication_material  ?

_refine_special_details          
; 
 Refinement of F^2^ against ALL reflections.  The weighted R-factor wR and 
 goodness of fit S are based on F^2^, conventional R-factors R are based 
 on F, with F set to zero for negative F^2^. The threshold expression of 
 F^2^ > 2sigma(F^2^) is used only for calculating R-factors(gt) etc. and is 
 not relevant to the choice of reflections for refinement.  R-factors based 
 on F^2^ are statistically about twice as large as those based on F, and R- 
 factors based on ALL data will be even larger. 
;

# SQUEEZE RESULTS (APPEND TO CIF)
# Note: Data are Listed for all Voids in the P1 Unit Cell
# i.e. Centre of Gravity, Solvent Accessible Volume,
# Recovered number of Electrons in the Void and
# Details about the Squeezed Material
loop_
_platon_squeeze_void_nr
_platon_squeeze_void_average_x
_platon_squeeze_void_average_y
_platon_squeeze_void_average_z
_platon_squeeze_void_volume
_platon_squeeze_void_count_electrons
_platon_squeeze_void_content
1 -0.016 0.500 0.000 937 126 ' '
2 0.013 0.318 0.672 38 2 ' '
3 -0.013 0.682 0.328 39 2 ' '
4 0.385 0.424 0.585 20 1 ' '
5 0.615 0.576 0.415 20 1 ' '
_platon_squeeze_details          
;
;

_refine_ls_structure_factor_coef Fsqd
_refine_ls_matrix_type           full
_refine_ls_weighting_scheme      calc
_refine_ls_weighting_details     
'calc w=1/[\s^2^(Fo^2^)+(0.0556P)^2^+9.3510P] where P=(Fo^2^+2Fc^2^)/3'
_atom_sites_solution_primary     direct
_atom_sites_solution_secondary   difmap
_atom_sites_solution_hydrogens   geom
_refine_ls_hydrogen_treatment    constr
_refine_ls_extinction_method     none
_refine_ls_extinction_coef       ?
_refine_ls_number_reflns         13895
_refine_ls_number_parameters     1090
_refine_ls_number_restraints     0
_refine_ls_R_factor_all          0.1113
_refine_ls_R_factor_gt           0.0807
_refine_ls_wR_factor_ref         0.2085
_refine_ls_wR_factor_gt          0.1895
_refine_ls_goodness_of_fit_ref   1.090
_refine_ls_restrained_S_all      1.090
_refine_ls_shift/su_max          0.005
_refine_ls_shift/su_mean         0.000

loop_
_atom_site_label
_atom_site_type_symbol
_atom_site_fract_x
_atom_site_fract_y
_atom_site_fract_z
_atom_site_U_iso_or_equiv
_atom_site_adp_type
_atom_site_occupancy
_atom_site_symmetry_multiplicity
_atom_site_calc_flag
_atom_site_refinement_flags
_atom_site_disorder_assembly
_atom_site_disorder_group
Mn1 Mn 1.35956(7) 0.26113(7) 0.42044(6) 0.0741(3) Uani 1 1 d . . .
Mn2 Mn 1.12131(7) 0.33133(7) 0.41362(6) 0.0795(3) Uani 1 1 d . . .
Mn3 Mn 0.90969(7) 0.27948(7) 0.37851(6) 0.0748(3) Uani 1 1 d . . .
Mn4 Mn 0.67386(7) 0.30190(7) 0.45047(6) 0.0725(3) Uani 1 1 d . . .
O1 O 1.4021(3) 0.3092(3) -0.5185(2) 0.0786(12) Uani 1 1 d . . .
O2 O 1.5432(3) 0.2889(3) -0.5233(2) 0.0906(14) Uani 1 1 d . . .
O3 O 1.1756(4) -0.5626(3) 0.3540(3) 0.1045(17) Uani 1 1 d . . .
O4 O 1.3351(4) 0.2007(3) 0.3607(3) 0.0967(15) Uani 1 1 d . . .
O5 O 1.1972(4) 0.2581(4) 0.3474(3) 0.0979(15) Uani 1 1 d . . .
O6 O 1.3212(4) -0.6161(3) 0.3409(3) 0.0917(15) Uani 1 1 d . . .
O7 O 1.4262(3) 0.0650(3) -0.1864(2) 0.0836(14) Uani 1 1 d . . .
O8 O 1.3191(3) 0.0587(3) 0.1321(3) 0.0832(13) Uani 1 1 d . . .
O9 O 1.3143(3) -0.2437(3) 0.1130(3) 0.1075(18) Uani 1 1 d . . .
O10 O 0.9012(3) 0.0473(3) 0.8287(2) 0.0816(13) Uani 1 1 d . . .
O11 O 0.8479(4) 0.2227(4) 1.3466(4) 0.120(2) Uani 1 1 d . . .
O12 O 0.8161(4) -0.2594(3) 1.1374(4) 0.119(2) Uani 1 1 d . . .
O13 O 0.7896(4) -0.6212(3) 1.3794(3) 0.1012(16) Uani 1 1 d . . .
O14 O 0.8793(3) 0.2478(3) 0.4930(3) 0.0894(14) Uani 1 1 d . . .
O15 O 0.7074(4) 0.2198(3) 1.3905(3) 0.0926(14) Uani 1 1 d . . .
O16 O 0.6608(4) -0.5777(3) 1.3518(3) 0.1129(19) Uani 1 1 d . . .
O17 O 0.8205(3) 0.0336(3) 1.1640(3) 0.0901(14) Uani 1 1 d . . .
O18 O 0.7460(3) 0.2189(3) 0.5353(2) 0.0873(14) Uani 1 1 d . . .
O19 O 1.4172(4) 0.1327(3) 0.4954(3) 0.0877(14) Uani 1 1 d . . .
O20 O 1.0152(4) 0.1642(4) 0.3937(3) 0.1018(16) Uani 1 1 d . . .
O21 O 0.6247(5) 0.3824(6) 0.5152(5) 0.155(3) Uani 1 1 d . . .
O22 O 1.4906(4) 0.2531(4) 0.3463(3) 0.1063(18) Uani 1 1 d . . .
O23 O 1.0145(5) 0.4020(5) 0.4758(5) 0.141(3) Uani 1 1 d . . .
O24 O 1.0188(3) 0.3555(3) 0.3551(3) 0.0889(14) Uani 1 1 d . . .
O25 O 0.9839(4) 0.3417(4) 0.2681(3) 0.1085(18) Uani 1 1 d . . .
O26 O 1.2268(3) 0.2633(3) 0.4925(3) 0.0878(14) Uani 1 1 d . . .
O27 O 1.1087(4) 0.2191(4) 0.5175(3) 0.1070(17) Uani 1 1 d . . .
N1 N 1.5296(4) 0.0420(4) 0.5498(4) 0.0878(17) Uani 1 1 d . . .
N2 N 1.0960(5) 0.0490(5) 0.4658(5) 0.120(2) Uani 1 1 d . . .
N3 N 1.5654(6) 0.3344(6) 0.2412(4) 0.133(3) Uani 1 1 d . . .
N4 N 0.8792(8) 0.4895(8) 0.4731(7) 0.154(4) Uani 1 1 d . . .
N5 N 0.5800(5) 0.4240(5) 0.6105(4) 0.108(2) Uani 1 1 d . . .
C1 C 1.4677(5) 0.2793(4) -0.4886(4) 0.0713(17) Uani 1 1 d . . .
C2 C 1.2060(6) -0.4016(5) 0.2609(5) 0.112(3) Uani 1 1 d . . .
H2A H 1.1506 -0.4040 0.2927 0.134 Uiso 1 1 calc R . .
C3 C 1.2218(6) -0.3269(5) 0.2103(6) 0.120(3) Uani 1 1 d . . .
H3A H 1.1778 -0.2780 0.2078 0.144 Uiso 1 1 calc R . .
C4 C 1.3525(5) -0.4701(5) 0.2191(4) 0.088(2) Uani 1 1 d . . .
H4A H 1.3972 -0.5188 0.2234 0.106 Uiso 1 1 calc R . .
C5 C 1.3049(6) -0.3230(5) 0.1613(5) 0.094(2) Uani 1 1 d . . .
C6 C 1.3698(6) -0.3947(5) 0.1653(4) 0.091(2) Uani 1 1 d . . .
H6A H 1.4246 -0.3929 0.1324 0.109 Uiso 1 1 calc R . .
C7 C 1.2158(5) 0.1710(5) 0.2580(4) 0.088(2) Uani 1 1 d . . .
H7A H 1.1587 0.1958 0.2773 0.106 Uiso 1 1 calc R . .
C8 C 1.3715(5) -0.1308(5) -0.0871(4) 0.093(2) Uani 1 1 d . . .
H8A H 1.3815 -0.1906 -0.0616 0.140 Uiso 1 1 calc R . .
H8B H 1.4163 -0.1179 -0.1319 0.140 Uiso 1 1 calc R . .
H8C H 1.3144 -0.1094 -0.0994 0.140 Uiso 1 1 calc R . .
C9 C 1.5251(5) 0.1813(4) -0.3734(3) 0.0742(18) Uani 1 1 d . . .
H9A H 1.5818 0.1867 -0.4010 0.089 Uiso 1 1 calc R . .
C10 C 1.4004(5) -0.2342(4) 0.0651(4) 0.085(2) Uani 1 1 d . . .
H10A H 1.4131 -0.2559 0.0261 0.102 Uiso 1 1 calc R . .
H10B H 1.4464 -0.2638 0.0934 0.102 Uiso 1 1 calc R . .
C11 C 1.5139(5) 0.1278(5) -0.3004(4) 0.0788(19) Uani 1 1 d . . .
H11A H 1.5628 0.0965 -0.2792 0.095 Uiso 1 1 calc R . .
C12 C 1.2560(6) -0.5598(5) 0.3253(4) 0.084(2) Uani 1 1 d . . .
C13 C 1.3560(5) 0.1283(4) -0.0454(4) 0.086(2) Uani 1 1 d . . .
H13A H 1.3413 0.1536 -0.0934 0.128 Uiso 1 1 calc R . .
H13B H 1.4091 0.1420 -0.0490 0.128 Uiso 1 1 calc R . .
H13C H 1.3085 0.1492 -0.0108 0.128 Uiso 1 1 calc R . .
C14 C 1.2286(5) 0.1321(5) 0.2099(4) 0.090(2) Uani 1 1 d . . .
H14A H 1.1802 0.1298 0.1975 0.108 Uiso 1 1 calc R . .
C15 C 1.3705(5) 0.1379(5) 0.2469(4) 0.0808(19) Uani 1 1 d . . .
H15A H 1.4188 0.1393 0.2601 0.097 Uiso 1 1 calc R . .
C16 C 1.3707(5) 0.2197(5) -0.3648(4) 0.082(2) Uani 1 1 d . . .
H16A H 1.3221 0.2507 -0.3865 0.098 Uiso 1 1 calc R . .
C17 C 1.3579(5) 0.1663(5) -0.2905(4) 0.089(2) Uani 1 1 d . . .
H17A H 1.3010 0.1617 -0.2629 0.106 Uiso 1 1 calc R . .
C18 C 1.2715(6) -0.4751(5) 0.2662(4) 0.083(2) Uani 1 1 d . . .
C19 C 1.4211(5) -0.1611(5) 0.1544(4) 0.092(2) Uani 1 1 d . . .
H19A H 1.4253 -0.1278 0.1785 0.138 Uiso 1 1 calc R . .
H19B H 1.4758 -0.2019 0.1496 0.138 Uiso 1 1 calc R . .
H19C H 1.3739 -0.1893 0.1837 0.138 Uiso 1 1 calc R . .
C20 C 1.2866(5) 0.1740(4) 0.2783(4) 0.0740(18) Uani 1 1 d . . .
C21 C 1.4293(4) 0.1202(4) -0.2579(3) 0.0725(18) Uani 1 1 d . . .
C22 C 1.3856(5) 0.1003(4) 0.1977(4) 0.0758(18) Uani 1 1 d . . .
H22A H 1.4429 0.0780 0.1765 0.091 Uiso 1 1 calc R . .
C23 C 1.2733(6) 0.2142(5) 0.3336(4) 0.0773(19) Uani 1 1 d . . .
C24 C 1.3131(4) 0.0963(4) 0.1798(4) 0.0716(17) Uani 1 1 d . . .
C25 C 1.4054(4) 0.0231(5) 0.0963(4) 0.0751(18) Uani 1 1 d . . .
H25A H 1.4388 -0.0186 0.1333 0.090 Uiso 1 1 calc R . .
H25B H 1.4376 0.0667 0.0645 0.090 Uiso 1 1 calc R . .
C26 C 1.3753(4) -0.0908(5) -0.0377(4) 0.0704(17) Uani 1 1 d . . .
C27 C 1.3703(4) 0.0337(4) -0.0184(3) 0.0669(16) Uani 1 1 d . . .
C28 C 1.4541(4) 0.2271(4) -0.4065(3) 0.0682(17) Uani 1 1 d . . .
C29 C 1.3942(4) -0.1405(4) 0.0325(4) 0.0705(17) Uani 1 1 d . . .
C30 C 1.3617(4) -0.0029(4) -0.0623(3) 0.0667(16) Uani 1 1 d . . .
C31 C 1.3425(4) 0.0523(4) -0.1378(3) 0.0749(18) Uani 1 1 d . . .
H31A H 1.3155 0.0253 -0.1542 0.090 Uiso 1 1 calc R . .
H31B H 1.3028 0.1055 -0.1369 0.090 Uiso 1 1 calc R . .
C32 C 1.3931(4) -0.0168(4) 0.0511(3) 0.0659(16) Uani 1 1 d . . .
C33 C 1.4025(4) -0.1041(4) 0.0774(3) 0.0707(17) Uani 1 1 d . . .
C34 C 0.7208(8) -0.3471(7) 1.2047(9) 0.206(8) Uani 1 1 d . . .
H34A H 0.6772 -0.3024 1.1837 0.247 Uiso 1 1 calc R . .
C35 C 0.8020(6) -0.3370(5) 1.1857(5) 0.102(3) Uani 1 1 d . . .
C36 C 0.8869(6) -0.1642(5) 0.9468(5) 0.103(3) Uani 1 1 d . . .
H36A H 0.8993 -0.2235 0.9752 0.154 Uiso 1 1 calc R . .
H36B H 0.9319 -0.1521 0.9021 0.154 Uiso 1 1 calc R . .
H36C H 0.8304 -0.1473 0.9342 0.154 Uiso 1 1 calc R . .
C37 C 0.8331(4) 0.0192(5) 0.8923(3) 0.0791(19) Uani 1 1 d . . .
H37A H 0.8082 -0.0170 0.8847 0.095 Uiso 1 1 calc R . .
H37B H 0.7861 0.0673 0.8976 0.095 Uiso 1 1 calc R . .
C38 C 0.8853(4) -0.1162(5) 0.9929(4) 0.0747(18) Uani 1 1 d . . .
C39 C 0.9059(5) -0.2512(5) 1.1023(5) 0.096(2) Uani 1 1 d . . .
H39A H 0.9314 -0.2788 1.0663 0.115 Uiso 1 1 calc R . .
H39B H 0.9420 -0.2760 1.1390 0.115 Uiso 1 1 calc R . .
C40 C 0.8677(4) -0.0280(5) 0.9627(3) 0.0693(17) Uani 1 1 d . . .
C41 C 0.8622(5) 0.1106(5) 0.9659(4) 0.089(2) Uani 1 1 d . . .
H41A H 0.8500 0.1298 0.9175 0.134 Uiso 1 1 calc R . .
H41B H 0.9149 0.1258 0.9610 0.134 Uiso 1 1 calc R . .
H41C H 0.8134 0.1362 0.9966 0.134 Uiso 1 1 calc R . .
C42 C 0.9000(4) -0.1589(4) 1.0646(3) 0.0723(18) Uani 1 1 d . . .
C43 C 0.9134(6) -0.1596(6) 1.1854(4) 0.105(3) Uani 1 1 d . . .
H43A H 0.9127 -0.1196 1.2045 0.158 Uiso 1 1 calc R . .
H43B H 0.9687 -0.2005 1.1871 0.158 Uiso 1 1 calc R . .
H43C H 0.8658 -0.1873 1.2151 0.158 Uiso 1 1 calc R . .
C44 C 0.8752(4) 0.0161(4) 1.0013(3) 0.0698(17) Uani 1 1 d . . .
C45 C 0.9023(4) -0.1144(5) 1.1050(4) 0.0753(18) Uani 1 1 d . . .
C46 C 0.8942(4) -0.0272(5) 1.0722(3) 0.0682(17) Uani 1 1 d . . .
C47 C 0.9039(4) 0.0170(5) 1.1140(4) 0.081(2) Uani 1 1 d . . .
H47A H 0.9498 -0.0174 1.1420 0.097 Uiso 1 1 calc R . .
H47B H 0.9206 0.0694 1.0798 0.097 Uiso 1 1 calc R . .
C48 C 0.8160(5) 0.0725(5) 1.2096(4) 0.0766(19) Uani 1 1 d . . .
C49 C 0.8759(4) 0.0897(5) 0.7617(3) 0.0750(18) Uani 1 1 d . . .
C50 C 0.8867(5) 0.0926(6) 1.2144(5) 0.099(2) Uani 1 1 d . . .
H50A H 0.9428 0.0782 1.1865 0.118 Uiso 1 1 calc R . .
C51 C 0.7344(5) 0.0922(5) 1.2532(4) 0.087(2) Uani 1 1 d . . .
H51A H 0.6866 0.0777 1.2510 0.104 Uiso 1 1 calc R . .
C52 C 0.9352(5) 0.1317(5) 0.7016(4) 0.086(2) Uani 1 1 d . . .
H52A H 0.9887 0.1307 0.7085 0.103 Uiso 1 1 calc R . .
C53 C 0.7975(5) 0.0915(5) 0.7503(4) 0.086(2) Uani 1 1 d . . .
H53A H 0.7573 0.0637 0.7898 0.103 Uiso 1 1 calc R . .
C54 C 0.8740(5) 0.1338(6) 1.2603(5) 0.099(2) Uani 1 1 d . . .
H54A H 0.9222 0.1472 1.2629 0.119 Uiso 1 1 calc R . .
C55 C 0.7222(5) 0.1326(5) 1.2995(4) 0.084(2) Uani 1 1 d . . .
H55A H 0.6666 0.1445 1.3291 0.101 Uiso 1 1 calc R . .
C56 C 0.9158(5) 0.1739(5) 0.6336(4) 0.084(2) Uani 1 1 d . . .
H56A H 0.9561 0.2021 0.5945 0.101 Uiso 1 1 calc R . .
C57 C 0.7780(5) 0.1341(5) 0.6809(4) 0.085(2) Uani 1 1 d . . .
H57A H 0.7246 0.1349 0.6741 0.102 Uiso 1 1 calc R . .
C58 C 0.7920(5) 0.1563(5) 1.3030(4) 0.0786(19) Uani 1 1 d . . .
C59 C 0.8375(4) 0.1764(4) 0.6204(3) 0.0717(17) Uani 1 1 d . . .
C60 C 0.7574(5) -0.4855(5) 1.2868(5) 0.093(2) Uani 1 1 d . . .
C61 C 0.8175(5) 0.2169(4) 0.5446(4) 0.0746(18) Uani 1 1 d . . .
C62 C 0.7345(6) -0.5672(5) 1.3427(4) 0.086(2) Uani 1 1 d . . .
C63 C 0.8600(7) -0.3996(6) 1.2193(8) 0.173(6) Uani 1 1 d . . .
H63A H 0.9176 -0.3940 1.2085 0.208 Uiso 1 1 calc R . .
C64 C 0.8384(7) -0.4733(6) 1.2699(7) 0.172(6) Uani 1 1 d . . .
H64A H 0.8815 -0.5162 1.2934 0.206 Uiso 1 1 calc R . .
C65 C 0.7803(6) 0.2034(5) 1.3498(4) 0.081(2) Uani 1 1 d . . .
C66 C 0.6981(7) -0.4213(7) 1.2543(8) 0.189(7) Uani 1 1 d . . .
H66A H 0.6403 -0.4262 1.2651 0.227 Uiso 1 1 calc R . .
C67 C 1.4741(6) -0.0070(5) 0.6146(4) 0.105(3) Uani 1 1 d . . .
H67A H 1.4138 0.0142 0.6093 0.158 Uiso 1 1 calc R . .
H67B H 1.4785 -0.0027 0.6585 0.158 Uiso 1 1 calc R . .
H67C H 1.4933 -0.0648 0.6190 0.158 Uiso 1 1 calc R . .
C68 C 1.4953(6) 0.1071(5) 0.4979(4) 0.082(2) Uani 1 1 d . . .
H68A H 1.5341 0.1371 0.4589 0.099 Uiso 1 1 calc R . .
C69 C 1.6238(6) 0.0168(6) 0.5503(6) 0.117(3) Uani 1 1 d . . .
H69A H 1.6552 0.0513 0.5047 0.175 Uiso 1 1 calc R . .
H69B H 1.6461 -0.0410 0.5548 0.175 Uiso 1 1 calc R . .
H69C H 1.6319 0.0234 0.5916 0.175 Uiso 1 1 calc R . .
C70 C 1.1251(8) 0.0046(8) 0.5371(8) 0.175(5) Uani 1 1 d . . .
H70A H 1.1014 0.0400 0.5659 0.262 Uiso 1 1 calc R . .
H70B H 1.1885 -0.0089 0.5276 0.262 Uiso 1 1 calc R . .
H70C H 1.1042 -0.0462 0.5642 0.262 Uiso 1 1 calc R . .
C71 C 1.1223(9) 0.0044(7) 0.4163(7) 0.167(5) Uani 1 1 d . . .
H71A H 1.0996 0.0398 0.3722 0.251 Uiso 1 1 calc R . .
H71B H 1.0992 -0.0452 0.4405 0.251 Uiso 1 1 calc R . .
H71C H 1.1857 -0.0112 0.4031 0.251 Uiso 1 1 calc R . .
C72 C 1.0465(6) 0.1248(6) 0.4494(6) 0.097(2) Uani 1 1 d . . .
H72A H 1.0336 0.1513 0.4828 0.117 Uiso 1 1 calc R . .
C73 C 1.5451(11) 0.3020(10) 0.1964(6) 0.208(7) Uani 1 1 d . . .
H73A H 1.5093 0.2620 0.2281 0.311 Uiso 1 1 calc R . .
H73B H 1.5990 0.2751 0.1709 0.311 Uiso 1 1 calc R . .
H73C H 1.5134 0.3475 0.1607 0.311 Uiso 1 1 calc R . .
C74 C 1.5302(6) 0.3038(7) 0.3161(6) 0.107(3) Uani 1 1 d . . .
H74A H 1.5395 0.3267 0.3451 0.128 Uiso 1 1 calc R . .
C75 C 1.6197(10) 0.3950(9) 0.2096(7) 0.197(6) Uani 1 1 d . . .
H75A H 1.6251 0.4081 0.2484 0.295 Uiso 1 1 calc R . .
H75B H 1.5927 0.4452 0.1739 0.295 Uiso 1 1 calc R . .
H75C H 1.6773 0.3717 0.1854 0.295 Uiso 1 1 calc R . .
C76 C 1.0280(5) 0.3689(6) 0.2870(5) 0.096(2) Uani 1 1 d . . .
C77 C 1.0938(7) 0.4188(7) 0.2288(5) 0.1