####################################################################### 
# 
# This file contains crystal structure data downloaded from the 
# Cambridge Structural Database (CSD) hosted by the Cambridge 
# Crystallographic Data Centre (CCDC).
# 
# Full information about CCDC data access policies and citation 
# guidelines are available at http://www.ccdc.cam.ac.uk/access/V1 
# 
# Audit and citation data items may have been added by the CCDC. 
# Please retain this information to preserve the provenance of 
# this file and to allow appropriate attribution of the data. 
# 
#######################################################################

data_New4
_audit_block_doi                 10.5517/cc10j6rh
_database_code_depnum_ccdc_archive 'CCDC 939106'
loop_
_citation_id
_citation_doi
_citation_year
1 10.1021/cg301161c 2013
_audit_update_record             
;
2013-05-10 deposited with the CCDC.	2024-07-12 downloaded from the CCDC.
;

_audit_creation_method           SHELXL-97
_chemical_name_systematic        
; 
 ? 
;
_chemical_name_common            ?
_chemical_melting_point          ?
_chemical_formula_moiety         ?
_chemical_formula_sum            'C66 H64 Co3 O23'
_chemical_formula_weight         1401.96

loop_
_atom_type_symbol
_atom_type_description
_atom_type_scat_dispersion_real
_atom_type_scat_dispersion_imag
_atom_type_scat_source
C C 0.0181 0.0091 'International Tables Vol C Tables 4.2.6.8 and 6.1.1.4'
H H 0.0000 0.0000 'International Tables Vol C Tables 4.2.6.8 and 6.1.1.4'
O O 0.0492 0.0322 'International Tables Vol C Tables 4.2.6.8 and 6.1.1.4'
Co Co -2.3653 3.6143 'International Tables Vol C Tables 4.2.6.8 and 6.1.1.4'

_symmetry_cell_setting           triclinic
_symmetry_space_group_name_H-M   P-1

loop_
_symmetry_equiv_pos_as_xyz
'x, y, z'
'-x, -y, -z'

_cell_length_a                   14.056(2)
_cell_length_b                   18.053(2)
_cell_length_c                   19.335(2)
_cell_angle_alpha                111.129(12)
_cell_angle_beta                 93.381(11)
_cell_angle_gamma                109.639(13)
_cell_volume                     4218.7(9)
_cell_formula_units_Z            2
_cell_measurement_temperature    293(2)
_cell_measurement_reflns_used    16186
_cell_measurement_theta_min      4.63
_cell_measurement_theta_max      58.92

_exptl_crystal_description       block
_exptl_crystal_colour            red
_exptl_crystal_size_max          0.33
_exptl_crystal_size_mid          0.16
_exptl_crystal_size_min          0.09
_exptl_crystal_density_meas      ?
_exptl_crystal_density_diffrn    1.104
_exptl_crystal_density_method    'not measured'
_exptl_crystal_F_000             1450
_exptl_absorpt_coefficient_mu    5.081
_exptl_absorpt_correction_type   empirical
_exptl_absorpt_correction_T_min  0.434
_exptl_absorpt_correction_T_max  0.633
_exptl_absorpt_process_details   CrysAlisPro

_exptl_special_details           
; 
 ? 
;

_diffrn_ambient_temperature      293(2)
_diffrn_radiation_wavelength     1.54178
_diffrn_radiation_type           CuK\a
_diffrn_radiation_source         'fine-focus sealed tube'
_diffrn_radiation_monochromator  graphite
_diffrn_measurement_device_type  ?
_diffrn_measurement_method       ?
_diffrn_detector_area_resol_mean ?
_diffrn_standards_number         ?
_diffrn_standards_interval_count ?
_diffrn_standards_interval_time  ?
_diffrn_standards_decay_%        ?
_diffrn_reflns_number            16186
_diffrn_reflns_av_R_equivalents  0.1026
_diffrn_reflns_av_sigmaI/netI    0.3111
_diffrn_reflns_limit_h_min       -12
_diffrn_reflns_limit_h_max       15
_diffrn_reflns_limit_k_min       -19
_diffrn_reflns_limit_k_max       20
_diffrn_reflns_limit_l_min       -18
_diffrn_reflns_limit_l_max       21
_diffrn_reflns_theta_min         4.63
_diffrn_reflns_theta_max         58.92
_reflns_number_total             11322
_reflns_number_gt                2618
_reflns_threshold_expression     >2sigma(I)

_computing_data_collection       ?
_computing_cell_refinement       ?
_computing_data_reduction        ?
_computing_structure_solution    'SHELXS-97 (Sheldrick, 1990)'
_computing_structure_refinement  'SHELXL-97 (Sheldrick, 1997)'
_computing_molecular_graphics    ?
_computing_publication_material  ?

_refine_special_details          
; 
 Refinement of F^2^ against ALL reflections.  The weighted R-factor wR and 
 goodness of fit S are based on F^2^, conventional R-factors R are based 
 on F, with F set to zero for negative F^2^. The threshold expression of 
 F^2^ > 2sigma(F^2^) is used only for calculating R-factors(gt) etc. and is 
 not relevant to the choice of reflections for refinement.  R-factors based 
 on F^2^ are statistically about twice as large as those based on F, and R- 
 factors based on ALL data will be even larger. 
;

# SQUEEZE RESULTS (APPEND TO CIF)
# Note: Data are Listed for all Voids in the P1 Unit Cell
# i.e. Centre of Gravity, Solvent Accessible Volume,
# Recovered number of Electrons in the Void and
# Details about the Squeezed Material
loop_
_platon_squeeze_void_nr
_platon_squeeze_void_average_x
_platon_squeeze_void_average_y
_platon_squeeze_void_average_z
_platon_squeeze_void_volume
_platon_squeeze_void_count_electrons
_platon_squeeze_void_content
1 0.146 0.424 1.000 1255 204 ' '
2 0.500 0.000 0.500 296 54 ' '
_platon_squeeze_details          
;
;

_refine_ls_structure_factor_coef Fsqd
_refine_ls_matrix_type           full
_refine_ls_weighting_scheme      calc
_refine_ls_weighting_details     
'calc w=1/[\s^2^(Fo^2^)+(0.0002P)^2^+0.0000P] where P=(Fo^2^+2Fc^2^)/3'
_atom_sites_solution_primary     direct
_atom_sites_solution_secondary   difmap
_atom_sites_solution_hydrogens   geom
_refine_ls_hydrogen_treatment    constr
_refine_ls_extinction_method     none
_refine_ls_extinction_coef       ?
_refine_ls_number_reflns         11322
_refine_ls_number_parameters     829
_refine_ls_number_restraints     0
_refine_ls_R_factor_all          0.2178
_refine_ls_R_factor_gt           0.0936
_refine_ls_wR_factor_ref         0.2428
_refine_ls_wR_factor_gt          0.1825
_refine_ls_goodness_of_fit_ref   0.684
_refine_ls_restrained_S_all      0.684
_refine_ls_shift/su_max          0.001
_refine_ls_shift/su_mean         0.000

loop_
_atom_site_label
_atom_site_type_symbol
_atom_site_fract_x
_atom_site_fract_y
_atom_site_fract_z
_atom_site_U_iso_or_equiv
_atom_site_adp_type
_atom_site_occupancy
_atom_site_symmetry_multiplicity
_atom_site_calc_flag
_atom_site_refinement_flags
_atom_site_disorder_assembly
_atom_site_disorder_group
Co1 Co 0.42977(13) 0.89644(11) 0.23577(9) 0.1050(6) Uani 1 1 d . . .
Co2 Co -0.75864(14) -0.00648(11) 0.08881(10) 0.1120(6) Uani 1 1 d . . .
Co3 Co 0.59238(14) 0.77836(11) 0.19331(9) 0.1057(6) Uani 1 1 d . . .
O1 O 0.3876(7) 0.7988(6) 0.2753(5) 0.133(3) Uani 1 1 d . . .
O2 O 0.4953(8) 0.7327(5) 0.2546(4) 0.139(3) Uani 1 1 d . . .
O3 O 0.3971(6) 0.8156(5) 1.1252(5) 0.120(2) Uani 1 1 d . . .
O4 O 0.4894(11) 0.7356(7) 1.0996(6) 0.184(4) Uani 1 1 d . . .
O5 O -0.2866(6) -0.1279(5) 0.2802(5) 0.130(3) Uani 1 1 d . . .
O6 O -0.4112(6) -0.0925(4) 0.2537(4) 0.109(2) Uani 1 1 d . . .
O7 O 0.2341(8) 0.5801(6) 0.7717(5) 0.144(3) Uani 1 1 d . . .
O8 O 0.2628(6) 0.5723(4) 0.4652(4) 0.110(2) Uani 1 1 d . . .
O9 O -0.0933(6) 0.2671(4) 0.4964(4) 0.107(2) Uani 1 1 d . . .
O10 O 0.2506(9) 0.9816(7) 0.9631(5) 0.155(3) Uani 1 1 d . . .
O11 O 0.1112(7) 0.9462(5) 1.0066(5) 0.135(3) Uani 1 1 d . . .
O12 O -0.7208(8) 0.1210(6) 0.1263(6) 0.139(4) Uani 1 1 d . . .
O13 O -0.6033(9) 0.1047(7) 0.1824(9) 0.223(6) Uani 1 1 d . . .
O14 O 0.2844(6) 0.9044(5) 0.2043(5) 0.125(2) Uani 1 1 d . . .
O15 O 0.1795(6) 0.9596(5) 0.1684(5) 0.124(2) Uani 1 1 d . . .
O16 O -0.0891(6) 0.8227(5) 0.6581(4) 0.120(2) Uani 1 1 d . . .
O17 O -0.0602(7) 0.8210(5) 0.3934(4) 0.122(2) Uani 1 1 d . . .
O18 O -0.4434(6) 0.5067(4) 0.3663(4) 0.111(2) Uani 1 1 d . . .
O19 O 0.4961(6) 1.0012(5) 0.2056(5) 0.142(3) Uani 1 1 d . . .
O20 O -0.6872(7) -0.0905(5) 0.0580(4) 0.136(3) Uani 1 1 d . . .
O21 O 0.6410(7) 0.6773(5) 0.1597(5) 0.151(3) Uani 1 1 d . . .
O22 O 0.7011(12) 0.8274(8) 0.1210(7) 0.241(6) Uani 1 1 d . . .
O23 O 0.4414(6) 0.9893(7) 0.3497(6) 0.180(4) Uani 1 1 d . . .
C1 C 0.2285(10) 0.6616(8) 0.8997(7) 0.131(4) Uani 1 1 d . . .
H1A H 0.1624 0.6567 0.8830 0.157 Uiso 1 1 calc R . .
C2 C 0.2705(13) 0.7047(8) 0.9756(7) 0.128(4) Uani 1 1 d . . .
H2A H 0.2351 0.7296 1.0100 0.154 Uiso 1 1 calc R . .
C3 C -0.3271(11) -0.0707(8) 0.2906(7) 0.110(4) Uani 1 1 d . . .
C4 C 0.2776(13) 0.6257(8) 0.8478(7) 0.128(4) Uani 1 1 d . . .
C5 C -0.1118(9) 0.1180(7) 0.4394(6) 0.101(3) Uani 1 1 d . . .
H5A H -0.0461 0.1311 0.4646 0.121 Uiso 1 1 calc R . .
C6 C 0.3831(11) 0.6117(7) 0.3975(7) 0.120(4) Uani 1 1 d . . .
H6A H 0.4160 0.5810 0.4117 0.144 Uiso 1 1 calc R . .
C7 C 0.4170(13) 0.6693(15) 0.9454(10) 0.212(9) Uani 1 1 d . . .
H7A H 0.4816 0.6712 0.9622 0.254 Uiso 1 1 calc R . .
C8 C 0.0315(9) 0.3928(8) 0.6806(6) 0.122(4) Uani 1 1 d . . .
H8A H 0.0027 0.3316 0.6519 0.183 Uiso 1 1 calc R . .
H8B H -0.0206 0.4110 0.7025 0.183 Uiso 1 1 calc R . .
H8C H 0.0878 0.4075 0.7201 0.183 Uiso 1 1 calc R . .
C9 C 0.2515(8) 0.6639(7) 0.4018(5) 0.093(3) Uani 1 1 d . . .
H9A H 0.1926 0.6692 0.4188 0.111 Uiso 1 1 calc R . .
C10 C -0.1699(10) 0.0394(7) 0.3911(6) 0.114(4) Uani 1 1 d . . .
H10A H -0.1446 -0.0034 0.3854 0.137 Uiso 1 1 calc R . .
C11 C 0.4200(11) 0.7593(11) 1.0816(8) 0.120(4) Uani 1 1 d . . .
C12 C 0.3827(10) 0.7022(8) 0.3291(7) 0.111(3) Uani 1 1 d . . .
C13 C 0.3731(16) 0.6265(12) 0.8683(10) 0.181(6) Uani 1 1 d . . .
H13A H 0.4064 0.6001 0.8330 0.217 Uiso 1 1 calc R . .
C14 C 0.2949(10) 0.7058(7) 0.3589(6) 0.110(3) Uani 1 1 d . . .
H14A H 0.2640 0.7397 0.3483 0.132 Uiso 1 1 calc R . .
C15 C 0.2944(9) 0.6132(8) 0.4205(7) 0.104(3) Uani 1 1 d . . .
C16 C 0.4222(10) 0.7528(9) 0.2835(7) 0.110(4) Uani 1 1 d . . .
C17 C 0.1146(8) 0.5267(7) 0.6596(6) 0.096(3) Uani 1 1 d . . .
C18 C 0.1316(9) 0.5745(7) 0.7449(6) 0.109(3) Uani 1 1 d . . .
H18A H 0.1301 0.6312 0.7581 0.131 Uiso 1 1 calc R . .
H18B H 0.0800 0.5426 0.7658 0.131 Uiso 1 1 calc R . .
C19 C 0.1358(7) 0.5242(6) 0.5345(5) 0.082(3) Uani 1 1 d . . .
C20 C 0.0736(8) 0.3839(7) 0.4187(6) 0.112(3) Uani 1 1 d . . .
H20A H 0.0445 0.3233 0.4064 0.168 Uiso 1 1 calc R . .
H20B H 0.1383 0.3983 0.4028 0.168 Uiso 1 1 calc R . .
H20C H 0.0270 0.3989 0.3931 0.168 Uiso 1 1 calc R . .
C21 C 0.3672(12) 0.7092(9) 0.9984(7) 0.126(4) Uani 1 1 d . . .
C22 C 0.4277(10) 0.6566(8) 0.3519(7) 0.121(4) Uani 1 1 d . . .
H22A H 0.4890 0.6543 0.3375 0.146 Uiso 1 1 calc R . .
C23 C 0.2095(10) 0.6651(7) 0.6478(7) 0.130(4) Uani 1 1 d . . .
H23A H 0.2301 0.6853 0.6093 0.196 Uiso 1 1 calc R . .
H23B H 0.2696 0.6791 0.6837 0.196 Uiso 1 1 calc R . .
H23C H 0.1657 0.6921 0.6731 0.196 Uiso 1 1 calc R . .
C24 C -0.2480(10) 0.1641(7) 0.4157(7) 0.116(4) Uani 1 1 d . . .
H24A H -0.2749 0.2065 0.4248 0.139 Uiso 1 1 calc R . .
C25 C -0.3041(8) 0.0788(7) 0.3643(6) 0.111(3) Uani 1 1 d . . .
H25A H -0.3707 0.0648 0.3400 0.133 Uiso 1 1 calc R . .
C26 C 0.1632(9) 0.5689(7) 0.4824(6) 0.113(3) Uani 1 1 d . . .
H26A H 0.1112 0.5383 0.4359 0.136 Uiso 1 1 calc R . .
H26B H 0.1647 0.6268 0.5060 0.136 Uiso 1 1 calc R . .
C27 C 0.0908(7) 0.4335(6) 0.5041(5) 0.083(3) Uani 1 1 d . . .
C28 C 0.0601(7) 0.3902(7) 0.5506(6) 0.090(3) Uani 1 1 d . . .
C29 C -0.2666(10) 0.0153(6) 0.3478(6) 0.100(3) Uani 1 1 d . . .
C30 C -0.1526(10) 0.1811(7) 0.4514(6) 0.106(3) Uani 1 1 d . . .
C31 C 0.0704(7) 0.4373(7) 0.6288(5) 0.084(3) Uani 1 1 d . . .
C32 C 0.1511(8) 0.5685(6) 0.6117(7) 0.096(3) Uani 1 1 d . . .
C33 C 0.0157(8) 0.2936(6) 0.5193(5) 0.091(3) Uani 1 1 d . . .
H33A H 0.0448 0.2701 0.4763 0.110 Uiso 1 1 calc R . .
H33B H 0.0307 0.2740 0.5576 0.110 Uiso 1 1 calc R . .
C34 C 0.1624(10) 0.8671(7) 0.3077(7) 0.113(3) Uani 1 1 d . . .
H34A H 0.2264 0.8628 0.3111 0.135 Uiso 1 1 calc R . .
C35 C 0.1513(15) 0.9507(10) 0.9517(9) 0.134(5) Uani 1 1 d . . .
C36 C -0.3322(9) 0.6361(8) 0.5713(7) 0.132(4) Uani 1 1 d . . .
H36A H -0.3158 0.6753 0.6235 0.198 Uiso 1 1 calc R . .
H36B H -0.3056 0.5924 0.5662 0.198 Uiso 1 1 calc R . .
H36C H -0.4058 0.6100 0.5538 0.198 Uiso 1 1 calc R . .
C37 C 0.0419(9) 0.9067(6) 0.2547(6) 0.105(3) Uani 1 1 d . . .
H37A H 0.0248 0.9303 0.2227 0.126 Uiso 1 1 calc R . .
C38 C 0.0972(10) 0.8426(7) 0.3525(7) 0.110(3) Uani 1 1 d . . .
H38A H 0.1162 0.8218 0.3863 0.132 Uiso 1 1 calc R . .
C39 C 0.0844(11) 0.9162(8) 0.8744(7) 0.118(4) Uani 1 1 d . . .
C40 C 0.1236(11) 0.8958(8) 0.8116(9) 0.138(4) Uani 1 1 d . . .
H40A H 0.1923 0.9017 0.8174 0.165 Uiso 1 1 calc R . .
C41 C -0.5715(10) 0.3911(7) 0.2651(7) 0.108(3) Uani 1 1 d . . .
H41A H -0.5942 0.4303 0.2561 0.130 Uiso 1 1 calc R . .
C42 C -0.0739(11) 0.8798(8) 0.7962(8) 0.144(5) Uani 1 1 d . . .
H42A H -0.1423 0.8748 0.7926 0.173 Uiso 1 1 calc R . .
C43 C -0.4449(9) 0.3613(7) 0.3279(7) 0.112(3) Uani 1 1 d . . .
H43A H -0.3831 0.3813 0.3617 0.134 Uiso 1 1 calc R . .
C44 C 0.1335(9) 0.8983(6) 0.2570(6) 0.091(3) Uani 1 1 d . . .
C45 C -0.2683(8) 0.6791(8) 0.3997(7) 0.104(3) Uani 1 1 d . . .
C46 C -0.0289(9) 0.8819(7) 0.2980(8) 0.111(4) Uani 1 1 d . . .
H46A H -0.0928 0.8865 0.2950 0.133 Uiso 1 1 calc R . .
C47 C 0.0695(10) 0.8669(8) 0.7396(7) 0.126(4) Uani 1 1 d . . .
H47A H 0.1010 0.8545 0.6983 0.151 Uiso 1 1 calc R . .
C48 C -0.2857(9) 0.6831(8) 0.5259(7) 0.099(3) Uani 1 1 d . . .
C49 C -0.4975(10) 0.2717(8) 0.2820(8) 0.134(4) Uani 1 1 d . . .
H49A H -0.4741 0.2318 0.2887 0.161 Uiso 1 1 calc R . .
C50 C -0.2294(8) 0.7705(7) 0.5611(6) 0.092(3) Uani 1 1 d . . .
C51 C -0.1627(9) 0.8162(7) 0.3879(6) 0.104(3) Uani 1 1 d . . .
H51A H -0.2004 0.7836 0.3358 0.125 Uiso 1 1 calc R . .
H51B H -0.1639 0.8734 0.4052 0.125 Uiso 1 1 calc R . .
C52 C 0.2053(11) 0.9216(8) 0.2100(7) 0.112(3) Uani 1 1 d . . .
C53 C -0.6472(17) 0.1511(10) 0.1691(12) 0.142(6) Uani 1 1 d . . .
C54 C -0.1360(8) 0.9117(6) 0.5506(6) 0.103(3) Uani 1 1 d . . .
H54A H -0.1155 0.9327 0.5125 0.154 Uiso 1 1 calc R . .
H54B H -0.0759 0.9269 0.5872 0.154 Uiso 1 1 calc R . .
H54C H -0.1814 0.9371 0.5755 0.154 Uiso 1 1 calc R . .
C55 C -0.4884(9) 0.4197(7) 0.3209(6) 0.095(3) Uani 1 1 d . . .
C56 C -0.2850(10) 0.6303(7) 0.3156(6) 0.128(4) Uani 1 1 d . . .
H56A H -0.3241 0.5704 0.3023 0.192 Uiso 1 1 calc R . .
H56B H -0.2195 0.6375 0.3011 0.192 Uiso 1 1 calc R . .
H56C H -0.3222 0.6519 0.2898 0.192 Uiso 1 1 calc R . .
C57 C -0.3433(9) 0.5397(6) 0.4135(7) 0.113(4) Uani 1 1 d . . .
H57A H -0.2972 0.5191 0.3838 0.136 Uiso 1 1 calc R . .
H57B H -0.3485 0.5198 0.4540 0.136 Uiso 1 1 calc R . .
C58 C -0.3005(8) 0.6384(7) 0.4469(7) 0.105(3) Uani 1 1 d . . .
C59 C -0.6223(9) 0.3042(8) 0.2216(6) 0.099(3) Uani 1 1 d . . .
H59A H -0.6837 0.2852 0.1876 0.118 Uiso 1 1 calc R . .
C60 C 0.0045(10) 0.8496(6) 0.3460(6) 0.100(3) Uani 1 1 d . . .
C61 C -0.5850(9) 0.2450(7) 0.2270(6) 0.104(3) Uani 1 1 d . . .
C62 C -0.1926(6) 0.8125(6) 0.5131(5) 0.078(2) Uani 1 1 d . . .
C63 C -0.0190(14) 0.9097(8) 0.8671(6) 0.132(4) Uani 1 1 d . . .
H63A H -0.0481 0.9254 0.9093 0.159 Uiso 1 1 calc R . .
C64 C -0.1943(9) 0.8160(7) 0.6462(5) 0.112(4) Uani 1 1 d . . .
H64A H -0.1979 0.8724 0.6647 0.134 Uiso 1 1 calc R . .
H64B H -0.2356 0.7826 0.6712 0.134 Uiso 1 1 calc R . .
C65 C -0.0416(10) 0.8559(6) 0.7290(7) 0.105(3) Uani 1 1 d . . .
C66 C -0.2095(8) 0.7729(7) 0.4364(5) 0.092(3) Uani 1 1 d . . .

loop_
_atom_site_aniso_label
_atom_site_aniso_U_11
_atom_site_aniso_U_22
_atom_site_aniso_U_33
_atom_site_aniso_U_23
_atom_site_aniso_U_13
_atom_site_aniso_U_12
Co1 0.1007(13) 0.1075(12) 0.1062(12) 0.0431(9) 0.0195(9) 0.0396(10)
Co2 0.1167(14) 0.1051(12) 0.1101(12) 0.0424(9) 0.0242(10) 0.0387(11)
Co3 0.1108(13) 0.1014(11) 0.0969(11) 0.0294(9) 0.0199(10) 0.0430(10)
O1 0.141(8) 0.158(7) 0.151(7) 0.090(6) 0.047(5) 0.083(6)
O2 0.188(9) 0.111(5) 0.138(6) 0.063(4) 0.076(6) 0.060(6)
O3 0.110(6) 0.115(6) 0.136(6) 0.051(5) 0.016(5) 0.048(5)
O4 0.212(12) 0.185(9) 0.129(7) 0.020(6) 0.020(7) 0.095(9)
O5 0.127(6) 0.095(5) 0.153(6) 0.038(4) 0.014(5) 0.042(5)
O6 0.095(5) 0.109(5) 0.129(5) 0.055(4) 0.012(4) 0.041(4)
O7 0.163(8) 0.168(7) 0.105(6) 0.030(5) 0.017(5) 0.096(6)
O8 0.101(5) 0.124(5) 0.141(6) 0.079(5) 0.050(5) 0.054(4)
O9 0.089(5) 0.085(5) 0.138(5) 0.030(4) 0.032(4) 0.038(4)
O10 0.124(7) 0.228(10) 0.147(7) 0.108(6) 0.040(6) 0.070(7)
O11 0.150(7) 0.120(5) 0.104(6) 0.028(4) 0.021(5) 0.034(5)
O12 0.118(7) 0.125(7) 0.142(8) 0.040(6) 0.004(6) 0.027(6)
O13 0.165(10) 0.109(7) 0.304(15) 0.012(8) -0.017(9) 0.031(7)
O14 0.093(5) 0.155(6) 0.156(6) 0.080(5) 0.055(5) 0.058(5)
O15 0.120(6) 0.120(5) 0.116(6) 0.045(5) 0.028(5) 0.029(5)
O16 0.098(6) 0.155(6) 0.084(5) 0.021(4) -0.004(4) 0.055(5)
O17 0.123(6) 0.149(6) 0.143(6) 0.094(5) 0.058(5) 0.068(5)
O18 0.111(6) 0.080(4) 0.124(5) 0.024(4) 0.016(5) 0.035(4)
O19 0.129(6) 0.158(6) 0.172(7) 0.094(5) 0.046(5) 0.063(5)
O20 0.168(7) 0.141(6) 0.099(5) 0.042(4) 0.022(5) 0.068(5)
O21 0.190(9) 0.155(6) 0.153(6) 0.071(5) 0.055(6) 0.106(6)
O22 0.302(16) 0.207(10) 0.179(9) 0.071(8) 0.023(10) 0.070(11)
O23 0.095(6) 0.220(9) 0.203(9) 0.095(7) -0.018(6) 0.032(6)
C1 0.133(10) 0.155(10) 0.100(9) 0.035(8) 0.006(8) 0.072(9)
C2 0.164(13) 0.124(9) 0.091(9) 0.037(7) 0.000(8) 0.061(9)
C3 0.106(9) 0.116(10) 0.138(9) 0.058(8) 0.011(8) 0.074(8)
C4 0.129(11) 0.144(10) 0.084(9) 0.014(7) 0.019(8) 0.058(9)
C5 0.105(8) 0.077(7) 0.112(8) 0.037(6) 0.011(6) 0.028(7)
C6 0.134(11) 0.120(9) 0.141(9) 0.064(8) 0.045(8) 0.076(8)
C7 0.161(15) 0.34(2) 0.120(12) 0.043(14) 0.016(11) 0.142(17)
C8 0.116(9) 0.160(10) 0.103(7) 0.071(7) 0.026(6) 0.050(8)
C9 0.101(8) 0.111(7) 0.100(7) 0.062(6) 0.039(6) 0.055(6)
C10 0.128(10) 0.092(8) 0.1