####################################################################### 
# 
# This file contains crystal structure data downloaded from the 
# Cambridge Structural Database (CSD) hosted by the Cambridge 
# Crystallographic Data Centre (CCDC).
# 
# Full information about CCDC data access policies and citation 
# guidelines are available at http://www.ccdc.cam.ac.uk/access/V1 
# 
# Audit and citation data items may have been added by the CCDC. 
# Please retain this information to preserve the provenance of 
# this file and to allow appropriate attribution of the data. 
# 
#######################################################################

data_e2505b
_audit_block_doi                 10.5517/cc100fl1
_database_code_depnum_ccdc_archive 'CCDC 923942'
loop_
_citation_id
_citation_doi
_citation_year
1 10.1039/c3cc41140k 2013
_audit_update_record             
;
2013-02-08 deposited with the CCDC.	2024-07-12 downloaded from the CCDC.
;
#TrackingRef 'web_deposit_cif_file_3_Gruber_1360327886.s2505.cif'




_audit_creation_method           SHELXL-97

_chemical_name_systematic        
;

?

;

_chemical_name_common            ?

_chemical_melting_point          ?

_chemical_formula_moiety         'C44 H48 F6 N4 O8 Si Zn, C H Cl3'

_chemical_formula_sum            'C45 H49 Cl3 F6 N4 O8 Si Zn'

_chemical_formula_weight         1087.69



loop_

_atom_type_symbol

_atom_type_description

_atom_type_scat_dispersion_real

_atom_type_scat_dispersion_imag

_atom_type_scat_source
















C C 0.0033 0.0016 'International Tables Vol C Tables 4.2.6.8 and 6.1.1.4'
H H 0.0000 0.0000 'International Tables Vol C Tables 4.2.6.8 and 6.1.1.4'
N N 0.0061 0.0033 'International Tables Vol C Tables 4.2.6.8 and 6.1.1.4'
O O 0.0106 0.0060 'International Tables Vol C Tables 4.2.6.8 and 6.1.1.4'
F F 0.0171 0.0103 'International Tables Vol C Tables 4.2.6.8 and 6.1.1.4'
Si Si 0.0817 0.0704 'International Tables Vol C Tables 4.2.6.8 and 6.1.1.4'
Zn Zn 0.2839 1.4301 'International Tables Vol C Tables 4.2.6.8 and 6.1.1.4'
Cl Cl 0.1484 0.1585 'International Tables Vol C Tables 4.2.6.8 and 6.1.1.4'



_symmetry_cell_setting           Tetragonal

_symmetry_space_group_name_H-M   P4

_symmetry_space_group_name_Hall  'P 4'



loop_

_symmetry_equiv_pos_as_xyz




'x, y, z'
'-x, -y, z'
'-y, x, z'
'y, -x, z'



_cell_length_a                   22.0440(15)

_cell_length_b                   22.0440(15)

_cell_length_c                   15.1513(18)

_cell_angle_alpha                90.00

_cell_angle_beta                 90.00

_cell_angle_gamma                90.00

_cell_volume                     7362.6(11)

_cell_formula_units_Z            4

_cell_measurement_temperature    173(2)

_cell_measurement_reflns_used    2951

_cell_measurement_theta_min      2.46

_cell_measurement_theta_max      25.67



_exptl_crystal_description       prism

_exptl_crystal_colour            colorless

_exptl_crystal_size_max          0.06

_exptl_crystal_size_mid          0.05

_exptl_crystal_size_min          0.04

_exptl_crystal_density_meas      none

_exptl_crystal_density_diffrn    0.981

_exptl_crystal_density_method    'not measured'

_exptl_crystal_F_000             2240

_exptl_absorpt_coefficient_mu    0.511

_exptl_absorpt_correction_type   multi-scan

_exptl_absorpt_correction_T_min  0.9700

_exptl_absorpt_correction_T_max  0.9799

_exptl_absorpt_process_details   sadabs



_exptl_special_details           
;

The EADP command was used many times because of the flopiness

of many atoms.It's why there is a large Non-solvent H on the chain

The disordered solvent molecules could not be refined.

The SQUEEZE command was therefore applied.



;



_diffrn_ambient_temperature      173(2)

_diffrn_radiation_wavelength     0.71073

_diffrn_radiation_type           MoK\a

_diffrn_radiation_source         'fine-focus sealed tube'

_diffrn_radiation_monochromator  graphite

_diffrn_measurement_device_type  'CCD area detector'

_diffrn_measurement_method       'phi and omega scans'

_diffrn_detector_area_resol_mean ?

_diffrn_standards_number         ?

_diffrn_standards_interval_count ?

_diffrn_standards_interval_time  ?

_diffrn_standards_decay_%        ?

_diffrn_reflns_number            49262

_diffrn_reflns_av_R_equivalents  0.0450

_diffrn_reflns_av_sigmaI/netI    0.2390

_diffrn_reflns_limit_h_min       -21

_diffrn_reflns_limit_h_max       21

_diffrn_reflns_limit_k_min       0

_diffrn_reflns_limit_k_max       31

_diffrn_reflns_limit_l_min       -20

_diffrn_reflns_limit_l_max       15

_diffrn_reflns_theta_min         1.63

_diffrn_reflns_theta_max         30.04

_reflns_number_total             19262

_reflns_number_gt                6772

_reflns_threshold_expression     >2sigma(I)



_computing_data_collection       'Bruker SMART'

_computing_cell_refinement       'Bruker SMART'

_computing_data_reduction        'Bruker SAINT'

_computing_structure_solution    'SHELXS-97 (Sheldrick, 1990)'

_computing_structure_refinement  'SHELXL-97 (Sheldrick, 1997)'

_computing_molecular_graphics    'Bruker SHELXTL'

_computing_publication_material  'Bruker SHELXTL'



_refine_special_details          
;

Refinement of F^2^ against ALL reflections. The weighted R-factor wR and

goodness of fit S are based on F^2^, conventional R-factors R are based

on F, with F set to zero for negative F^2^. The threshold expression of

F^2^ > 2sigma(F^2^) is used only for calculating R-factors(gt) etc. and is

not relevant to the choice of reflections for refinement. R-factors based

on F^2^ are statistically about twice as large as those based on F, and R-

factors based on ALL data will be even larger.

;



_refine_ls_structure_factor_coef Fsqd

_refine_ls_matrix_type           full

_refine_ls_weighting_scheme      calc

_refine_ls_weighting_details     
'calc w=1/[\s^2^(Fo^2^)+(0.0725P)^2^+0.5000P] where P=(Fo^2^+2Fc^2^)/3'

_atom_sites_solution_primary     direct

_atom_sites_solution_secondary   difmap

_atom_sites_solution_hydrogens   geom

_refine_ls_hydrogen_treatment    constr

_refine_ls_extinction_method     none

_refine_ls_extinction_coef       ?

_refine_ls_abs_structure_details 'Flack H D (1983), Acta Cryst. A39, 876-881'

_refine_ls_abs_structure_Flack   0.26(3)

_chemical_absolute_configuration rm

_refine_ls_number_reflns         19262

_refine_ls_number_parameters     461

_refine_ls_number_restraints     42

_refine_ls_R_factor_all          0.2082

_refine_ls_R_factor_gt           0.0931

_refine_ls_wR_factor_ref         0.2511

_refine_ls_wR_factor_gt          0.2261

_refine_ls_goodness_of_fit_ref   1.041

_refine_ls_restrained_S_all      1.046

_refine_ls_shift/su_max          0.016

_refine_ls_shift/su_mean         0.093



loop_

_atom_site_label

_atom_site_type_symbol

_atom_site_fract_x

_atom_site_fract_y

_atom_site_fract_z

_atom_site_U_iso_or_equiv

_atom_site_adp_type

_atom_site_occupancy

_atom_site_symmetry_multiplicity

_atom_site_calc_flag

_atom_site_refinement_flags

_atom_site_disorder_assembly

_atom_site_disorder_group

































































































































Zn1 Zn 0.5000 0.5000 0.01429(9) 0.0119(4) Uani 1 4 d S . .
Zn2 Zn 0.5000 0.5000 0.51289(9) 0.0146(4) Uani 1 4 d S . .
Zn3 Zn 0.0000 0.0000 -0.00054(12) 0.0219(5) Uani 1 4 d S . .
Zn4 Zn 0.0000 0.0000 0.49761(11) 0.0206(5) Uani 1 4 d S . .
Si1 Si 0.5000 0.5000 0.2629(3) 0.0151(8) Uani 1 4 d S . .
Si2 Si 0.5000 0.5000 0.7630(4) 0.0233(10) Uani 1 4 d S . .
Si3 Si 0.0000 0.0000 0.2480(4) 0.0207(11) Uani 1 4 d S . .
Si4 Si 0.0000 0.0000 0.7512(4) 0.0291(12) Uani 1 4 d S . .
F1 F 0.5000 0.5000 -0.1226(7) 0.046(3) Uani 1 4 d S . .
F2 F 0.5000 0.5000 0.1491(5) 0.046(3) Uani 1 4 d S . .
F3 F 0.5169(2) 0.42654(16) 0.2595(4) 0.0431(11) Uani 1 1 d . . .
F4 F 0.5000 0.5000 0.3760(6) 0.028(3) Uani 1 4 d S . .
F5 F 0.5000 0.5000 0.6528(6) 0.032(3) Uani 1 4 d S . .
F6 F 0.5727(3) 0.4974(7) 0.7680(5) 0.199(5) Uani 1 1 d . . .
F7 F 0.0000 0.0000 0.1389(6) 0.020(2) Uani 1 4 d S . .
F9 F -0.07321(17) 0.01903(18) 0.2467(3) 0.0342(11) Uani 1 1 d . . .
F10 F 0.0000 0.0000 0.3664(7) 0.031(3) Uani 1 4 d S . .
F11 F 0.0000 0.0000 0.6331(7) 0.041(3) Uani 1 4 d S . .
F12 F 0.0723(3) 0.0095(5) 0.7485(5) 0.158(4) Uani 1 1 d . . .
F13 F 0.0000 0.0000 0.8579(8) 0.049(4) Uani 1 4 d S . .
N1 N 0.42979(19) 0.43633(19) 0.0142(3) 0.0276(8) Uani 1 1 d G . .
C1 C 0.4312(2) 0.3905(2) 0.0771(3) 0.0276(8) Uani 1 1 d G . .
H1 H 0.4631 0.3892 0.1193 0.033 Uiso 1 1 calc R . .
C2 C 0.3859(2) 0.3466(2) 0.0785(3) 0.0276(8) Uani 1 1 d G . .
H2 H 0.3869 0.3153 0.1215 0.033 Uiso 1 1 calc R . .
C3 C 0.3393(2) 0.3485(2) 0.0168(3) 0.0276(8) Uani 1 1 d G . .
C4 C 0.3379(2) 0.3944(2) -0.0462(3) 0.0276(8) Uani 1 1 d G . .
H4 H 0.3060 0.3957 -0.0883 0.033 Uiso 1 1 calc R . .
C5 C 0.3831(2) 0.4383(2) -0.0475(3) 0.0276(8) Uani 1 1 d G . .
H5 H 0.3822 0.4696 -0.0905 0.033 Uiso 1 1 calc R . .
C6 C 0.2916(4) 0.2974(4) 0.0136(6) 0.0379(9) Uani 1 1 d . . .
C7 C 0.2318(4) 0.3112(4) 0.0130(6) 0.0379(9) Uani 1 1 d . . .
C8 C 0.1875(4) 0.2633(3) 0.0087(6) 0.0379(9) Uani 1 1 d . . .
H8 H 0.1455 0.2725 0.0057 0.045 Uiso 1 1 calc R . .
C9 C 0.2080(4) 0.2008(4) 0.0089(6) 0.0379(9) Uani 1 1 d . . .
C10 C 0.2711(4) 0.1919(4) 0.0189(6) 0.0379(9) Uani 1 1 d . . .
C11 C 0.3107(4) 0.2379(4) 0.0223(6) 0.0379(9) Uani 1 1 d . . .
H11 H 0.3526 0.2296 0.0309 0.045 Uiso 1 1 calc R . .
O1 O 0.2155(3) 0.3706(3) 0.0018(5) 0.0570(18) Uani 1 1 d D . .
C12 C 0.1493(4) 0.3857(4) 0.0021(9) 0.066(3) Uani 1 1 d D . .
H12A H 0.1309 0.3753 -0.0555 0.079 Uiso 1 1 calc R . .
H12B H 0.1281 0.3625 0.0488 0.079 Uiso 1 1 calc R . .
C13 C 0.1435(5) 0.4515(5) 0.0190(12) 0.122(6) Uani 1 1 d D . .
H13 H 0.1580 0.4547 0.0814 0.147 Uiso 1 1 calc R . .
O2 O 0.0815(4) 0.4719(6) 0.0265(10) 0.122(6) Uani 1 1 d D . .
H2A H 0.0649 0.4546 0.0696 0.147 Uiso 1 1 calc R . .
C14 C 0.1739(12) 0.5053(10) -0.0233(16) 0.122(6) Uani 1 1 d D . .
H14A H 0.1960 0.4920 -0.0760 0.147 Uiso 1 1 calc R . .
H14B H 0.2022 0.5237 0.0186 0.147 Uiso 1 1 calc R . .
H14C H 0.1431 0.5352 -0.0403 0.147 Uiso 1 1 calc R . .
O3 O 0.2870(3) 0.1321(3) 0.0275(7) 0.121(6) Uani 1 1 d D . .
C15 C 0.3382(5) 0.1092(5) -0.0215(11) 0.121(6) Uani 1 1 d D . .
H15A H 0.3738 0.1364 -0.0166 0.145 Uiso 1 1 calc R . .
H15B H 0.3282 0.1031 -0.0845 0.145 Uiso 1 1 calc RD . .
C16 C 0.3497(6) 0.0463(5) 0.0275(11) 0.115(6) Uani 1 1 d D . .
H16 H 0.3355 0.0392 0.0893 0.138 Uiso 1 1 calc R . .
O4 O 0.4132(6) 0.0358(6) 0.001(2) 0.115(6) Uani 1 1 d D . .
H4A H 0.4192 -0.0017 -0.0048 0.138 Uiso 1 1 calc R . .
C17 C 0.3259(7) 0.0113(8) -0.0468(17) 0.115(6) Uani 1 1 d D . .
H17A H 0.3560 0.0105 -0.0944 0.138 Uiso 1 1 calc R . .
H17B H 0.2884 0.0302 -0.0683 0.138 Uiso 1 1 calc RD . .
H17C H 0.3173 -0.0302 -0.0275 0.432 Uiso 1 1 calc R . .
C18 C 0.1616(3) 0.1540(3) 0.0073(5) 0.0285(8) Uani 1 1 d . . .
C19 C 0.1161(3) 0.1567(3) -0.0541(5) 0.0285(8) Uani 1 1 d . . .
H19 H 0.1150 0.1889 -0.0957 0.034 Uiso 1 1 calc R . .
C20 C 0.0709(3) 0.1113(3) -0.0551(5) 0.0285(8) Uani 1 1 d . . .
H20 H 0.0403 0.1130 -0.0993 0.034 Uiso 1 1 calc R . .
N2 N 0.0696(3) 0.0682(3) 0.0008(4) 0.0285(8) Uani 1 1 d . . .
C21 C 0.1118(3) 0.0676(3) 0.0625(5) 0.0285(8) Uani 1 1 d . . .
H21 H 0.1105 0.0362 0.1054 0.034 Uiso 1 1 calc R . .
C22 C 0.1569(3) 0.1090(3) 0.0680(5) 0.0285(8) Uani 1 1 d . . .
H22 H 0.1856 0.1066 0.1147 0.034 Uiso 1 1 calc R . .
N3 N 0.4327(2) 0.4315(2) 0.5092(4) 0.0157(10) Uani 1 1 d . . .
C23 C 0.4326(3) 0.3868(3) 0.4485(4) 0.0157(10) Uani 1 1 d . . .
H23 H 0.4638 0.3873 0.4053 0.019 Uiso 1 1 calc R . .
C24 C 0.3927(4) 0.3425(3) 0.4444(5) 0.030(2) Uani 1 1 d . . .
H24 H 0.3957 0.3126 0.3995 0.036 Uiso 1 1 calc R . .
C25 C 0.3453(3) 0.3396(4) 0.5069(5) 0.0261(18) Uani 1 1 d . . .
C26 C 0.3436(3) 0.3862(4) 0.5703(5) 0.029(2) Uani 1 1 d . . .
H26 H 0.3117 0.3887 0.6124 0.035 Uiso 1 1 calc R . .
C27 C 0.3898(3) 0.4280(3) 0.5689(5) 0.029(2) Uani 1 1 d . . .
H27 H 0.3908 0.4570 0.6153 0.035 Uiso 1 1 calc R . .
C28 C 0.2950(2) 0.2928(2) 0.5077(4) 0.0352(7) Uani 1 1 d G . .
C29 C 0.3078(2) 0.2312(2) 0.5018(5) 0.0352(7) Uani 1 1 d G . .
C30 C 0.2608(2) 0.1892(2) 0.4999(4) 0.0352(7) Uani 1 1 d G . .
H30 H 0.2695 0.1471 0.4959 0.042 Uiso 1 1 calc R . .
C31 C 0.2009(2) 0.2089(2) 0.5039(4) 0.0352(7) Uani 1 1 d G . .
C32 C 0.1881(2) 0.2705(2) 0.5098(4) 0.0352(7) Uani 1 1 d G . .
C33 C 0.2351(2) 0.3124(2) 0.5117(4) 0.0352(7) Uani 1 1 d G . .
H33 H 0.2264 0.3546 0.5157 0.042 Uiso 1 1 calc R . .
O5 O 0.3685(2) 0.2131(2) 0.4828(5) 0.058(2) Uani 1 1 d D . .
C34 C 0.3897(5) 0.1582(5) 0.5310(9) 0.098(5) Uani 1 1 d DU . .
H34A H 0.3879 0.1652 0.5955 0.118 Uiso 1 1 calc R . .
H34B H 0.3634 0.1231 0.5166 0.118 Uiso 1 1 calc R . .
C35 C 0.4528(5) 0.1459(5) 0.5033(11) 0.102(5) Uani 1 1 d DU . .
H35 H 0.4556 0.1573 0.4395 0.122 Uiso 1 1 calc R . .
O6 O 0.4698(6) 0.0791(6) 0.5094(16) 0.102(5) Uani 1 1 d D . .
H6 H 0.4453 0.0585 0.4793 0.122 Uiso 1 1 calc R . .
C36 C 0.4989(8) 0.1870(8) 0.5537(17) 0.102(5) Uani 1 1 d DU . .
H36A H 0.4955 0.2288 0.5324 0.122 Uiso 1 1 calc R . .
H36B H 0.5402 0.1721 0.5433 0.122 Uiso 1 1 calc R . .
H36C H 0.4901 0.1857 0.6171 0.122 Uiso 1 1 calc R . .
O7 O 0.1299(3) 0.2855(3) 0.5000(6) 0.068(2) Uani 1 1 d D . .
C37 C 0.1150(4) 0.3486(4) 0.4994(7) 0.052(3) Uani 1 1 d D . .
H37A H 0.1355 0.3698 0.4502 0.062 Uiso 1 1 calc R . .
H37B H 0.1265 0.3681 0.5558 0.062 Uiso 1 1 calc R . .
C38 C 0.0451(6) 0.3487(6) 0.4869(14) 0.052(3) Uani 1 1 d DU . .
H38 H 0.0353 0.3340 0.4261 0.062 Uiso 1 1 calc R . .
O8 O 0.0337(5) 0.4145(4) 0.4914(11) 0.052(3) Uani 1 1 d DU . .
H8A H 0.0631 0.4332 0.4689 0.062 Uiso 1 1 calc R . .
C39 C 0.0048(11) 0.3179(12) 0.5508(14) 0.052(3) Uani 1 1 d DU . .
H39A H 0.0137 0.2744 0.5512 0.062 Uiso 1 1 calc R . .
H39B H -0.0376 0.3244 0.5338 0.062 Uiso 1 1 calc R . .
H39C H 0.0117 0.3347 0.6099 0.062 Uiso 1 1 calc R . .
C40 C 0.1509(2) 0.1638(2) 0.4968(4) 0.029(2) Uani 1 1 d G . .
C41 C 0.1540(2) 0.1182(3) 0.4336(3) 0.052(3) Uani 1 1 d G . .
H41 H 0.1855 0.1186 0.3908 0.063 Uiso 1 1 calc R . .
C42 C 0.1111(2) 0.0720(2) 0.4331(3) 0.037(2) Uani 1 1 d G . .
H42 H 0.1132 0.0408 0.3899 0.044 Uiso 1 1 calc R . .
N4 N 0.0651(2) 0.0714(2) 0.4958(4) 0.0318(18) Uani 1 1 d G . .
C43 C 0.0619(2) 0.1170(3) 0.5590(3) 0.054(3) Uani 1 1 d G . .
H43 H 0.0305 0.1166 0.6019 0.064 Uiso 1 1 calc R . .
C44 C 0.1049(3) 0.1632(2) 0.5595(4) 0.050(3) Uani 1 1 d G . .
H44 H 0.1027 0.1944 0.6027 0.060 Uiso 1 1 calc R . .
C45 C 0.5758(4) 0.3013(4) 0.2671(7) 0.059(2) Uani 1 1 d . . .
H45 H 0.5775 0.3466 0.2712 0.071 Uiso 1 1 calc R . .
Cl1 Cl 0.52974(17) 0.28179(15) 0.1773(2) 0.0933(11) Uani 1 1 d . . .
Cl2 Cl 0.53916(19) 0.27226(17) 0.3669(2) 0.1055(13) Uani 1 1 d . . .
Cl3 Cl 0.64521(14) 0.27544(17) 0.2638(3) 0.1094(11) Uani 1 1 d . . .



loop_

_atom_site_aniso_label

_atom_site_aniso_U_11

_atom_site_aniso_U_22

_atom_site_aniso_U_33

_atom_site_aniso_U_23

_atom_site_aniso_U_13

_atom_site_aniso_U_12
















































































Zn1 0.0153(6) 0.0153(6) 0.0052(8) 0.000 0.000 0.000
Zn2 0.0143(6) 0.0143(6) 0.0152(9) 0.000 0.000 0.000
Zn3 0.0136(6) 0.0136(6) 0.0385(13) 0.000 0.000 0.000
Zn4 0.0126(6) 0.0126(6) 0.0364(13) 0.000 0.000 0.000
Si1 0.0176(13) 0.0176(13) 0.0102(18) 0.000 0.000 0.000
Si2 0.0310(16) 0.0310(16) 0.0079(18) 0.000 0.000 0.000
Si3 0.0124(13) 0.0124(13) 0.037(3) 0.000 0.000 0.000
Si4 0.0253(16) 0.0253(16) 0.037(3) 0.000 0.000 0.000
F1 0.060(5) 0.060(5) 0.020(6) 0.000 0.000 0.000
F2 0.060(5) 0.060(5) 0.020(6) 0.000 0.000 0.000
F3 0.077(3) 0.014(2) 0.038(2) -0.005(2) 0.002(3) 0.018(2)
F4 0.040(4) 0.040(4) 0.005(5) 0.000 0.000 0.000
F5 0.042(4) 0.042(4) 0.011(5) 0.000 0.000 0.000
F6 0.059(4) 0.512(14) 0.026(3) -0.027(9) 0.007(4) -0.019(8)
F7 0.011(3) 0.011(3) 0.037(6) 0.000 0.000 0.000
F9 0.023(2) 0.057(3) 0.023(2) -0.005(2) -0.0050(19) 0.0248(19)
F10 0.027(4) 0.027(4) 0.040(6) 0.000 0.000 0.000
F11 0.030(4) 0.030(4) 0.061(8) 0.000 0.000 0.000
F12 0.052(4) 0.362(11) 0.059(5) -0.034(8) 0.006(4) -0.012(7)
F13 0.032(4) 0.032(4) 0.083(10) 0.000 0.000 0.000
N1 0.030(2) 0.0262(19) 0.0261(16) 0.0108(15) -0.0006(15) 0.0052(15)
C1 0.030(2) 0.0262(19) 0.0261(16) 0.0108(15) -0.0006(15) 0.0052(15)
C2 0.030(2) 0.0262(19) 0.0261(16) 0.0108(15) -0.0006(15) 0.0052(15)
C3 0.030(2) 0.0262(19) 0.0261(16) 0.0108(15) -0.0006(15) 0.0052(15)
C4 0.030(2) 0.0262(19) 0.0261(16) 0.0108(15) -0.0006(15) 0.0052(15)
C5 0.030(2) 0.0262(19) 0.0261(16) 0.0108(15) -0.0006(15) 0.0052(15)
C6 0.0213(13) 0.0230(14) 0.069(2) 0.0040(16) -0.0082(15) -0.0078(11)
C7 0.0213(13) 0.0230(14) 0.069(2) 0.0040(16) -0.0082(15) -0.0078(11)
C8 0.0213(13) 0.0230(14) 0.069(2) 0.0040(16) -0.0082(15) -0.0078(11)
C9 0.0213(13) 0.0230(14) 0.069(2) 0.0040(16) -0.0082(15) -0.0078(11)
C10 0.0213(13) 0.0230(14) 0.069(2) 0.0040(16) -0.0082(15) -0.0078(11)
C11 0.0213(13) 0.0230(14) 0.069(2) 0.0040(16) -0.0082(15) -0.0078(11)
O1 0.029(4) 0.035(4) 0.106(5) 0.000(4) -0.002(4) -0.010(3)
C12 0.031(5) 0.030(5) 0.137(10) -0.020(6) -0.014(6) 0.008(4)
C13 0.029(6) 0.088(10) 0.251(19) 0.052(11) 0.027(9) 0.011(6)
O2 0.029(6) 0.088(10) 0.251(19) 0.052(11) 0.027(9) 0.011(6)
C14 0.029(6) 0.088(10) 0.251(19) 0.052(11) 0.027(9) 0.011(6)
O3 0.049(8) 0.079(10) 0.234(18) -0.019(11) 0.038(10) -0.020(7)
C15 0.049(8) 0.079(10) 0.234(18) -0.019(11) 0.038(10) -0.020(7)
C16 0.068(9) 0.027(6) 0.249(18) 0.008(9) 0.054(11) 0.020(6)
O4 0.068(9) 0.027(6) 0.249(18) 0.008(9) 0.054(11) 0.020(6)
C17 0.068(9) 0.027(6) 0.249(18) 0.008(9) 0.054(11) 0.020(6)
C18 0.0226(18) 0.0216(18) 0.042(2) 0.0025(15) -0.0137(15) -0.0111(15)
C19 0.0226(18) 0.0216(18) 0.042(2) 0.0025(15) -0.0137(15) -0.0111(15)
C20 0.0226(18) 0.0216(18) 0.042(2) 0.0025(15) -0.0137(15) -0.0111(15)
N2 0.0226(18) 0.0216(18) 0.042(2) 0.0025(15) -0.0137(15) -0.0111(15)
C21 0.0226(18) 0.0216(18) 0.042(2) 0.0025(15) -0.0137(15) -0.0111(15)
C22 0.0226(18) 0.0216(18) 0.042(2) 0.0025(15) -0.0137(15) -0.0111(15)
N3 0.017(2) 0.014(2) 0.015(2) 0.0055(18) 0.005(2) -0.002(2)
C23 0.017(2) 0.014(2) 0.015(2) 0.0055(18) 0.005(2) -0.002(2)
C24 0.039(5) 0.016(4) 0.037(5) -0.010(3) 0.004(4) -0.004(4)
C25 0.009(4) 0.035(5) 0.034(4) 0.004(4) -0.007(4) 0.005(3)
C26 0.019(4) 0.032(5) 0.037(5) -0.008(4) 0.021(3) -0.008(4)
C27 0.019(4) 0.032(5) 0.037(5) -0.008(4) 0.021(3) -0.008(4)
C28 0.0246(14) 0.0218(14) 0.0591(17) -0.0064(13) 0.0065(13) -0.0034(11)
C29 0.0246(14) 0.0218(14) 0.0591(17) -0.0064(13) 0.0065(13) -0.0034(11)
C30 0.0246(14) 0.0218(14) 0.0591(17) -0.0064(13) 0.0065(13) -0.0034(11)
C31 0.0246(14) 0.0218(14) 0.0591(17) -0.0064(13) 0.0065(13) -0.0034(11)
C32 0.0246(14) 0.0218(14) 0.0591(17) -0.0064(13) 0.0065(13) -0.0034(11)
C33 0.0246(14) 0.0218(14) 0.0591(17) -0.0064(13) 0.0065(13) -0.0034(11)
O5 0.018(3) 0.018(3) 0.137(6) -0.007(4) 0.027(4) 0.000(2)
C34 0.053(8) 0.085(10) 0.157(13) 0.015(9) -0.008(8) 0.025(7)
C35 0.046(7) 0.035(6) 0.223(14) -0.004(9) -0.035(9) -0.007(5)
O6 0.046(7) 0.035(6) 0.223(14) -0.004(9) -0.035(9) -0.007(5)
C36 0.046(7) 0.035(6) 0.223(14) -0.004(9) -0.035(9) -0.007(5)
O7 0.016(3) 0.040(4) 0.148(7) -0.008(4) -0.024(4) -0.005(3)
C37 0.039(5) 0.032(5) 0.085(7) -0.005(5) -0.010(5) -0.008(4)
C38 0.039(5) 0.032(5) 0.085(7) -0.005(5) -0.010(5) -0.008(4)
O8 0.039(5) 0.032(5) 0.085(7) -0.005(5) -0.010(5) -0.008(4)
C39 0.039(5) 0.032(5) 0.085(7) -0.005(5) -0.010(5) -0.008(4)
C40 0.033(5) 0.011(4) 0.045(5) -0.006(4) 0.019(4) -0.014(3)
C41 0.041(6) 0.044(7) 0.071(7) -0.031(5) -0.009(5) -0.005(5)
C42 0.060(7) 0.041(6) 0.010(4) -0.007(3) 0.006(4) -0.005(5)
N4 0.017(3) 0.017(3) 0.062(5) -0.018(3) 0.005(3) 0.000(3)
C43 0.018(5) 0.070(7) 0.073(7) -0.025(6) 0.004(5) -0.007(5)
C44 0.046(7) 0.016(5) 0.089(8) -0.008(5) 0.009(6) -0.007(4)
C45 0.074(6) 0.041(5) 0.063(5) -0.004(5) 0.011(6) 0.019(4)
Cl1 0.124(3) 0.078(2) 0.078(2) -0.0188(17) -0.034(2) 0.00