
#######################################################################
#
#                 Cambridge Crystallographic Data Centre
#                                CCDC
#
#######################################################################
#
# If this CIF has been generated from an entry in the Cambridge
# Structural Database, then it will include bibliographic, chemical,
# crystal, experimental, refinement or atomic coordinate data resulting
# from the CCDC's data processing and validation procedures.
#
#######################################################################

data_CSD_CIF_SESPAH01
_audit_creation_date 2009-11-04
_audit_creation_method CSD-ConQuest-V1
_database_code_CSD SESPAH01
_database_code_depnum_ccdc_archive 'CCDC 706409'
_chemical_formula_sum 'C14 H11 N3 O8'
_chemical_formula_moiety
;
C7 H4 N2 O6,C7 H7 N1 O2
;
_journal_coden_Cambridge 1147
_journal_volume 9
_journal_year 2009
_journal_page_first 1278
_journal_name_full 'Cryst.Growth Des. '
loop_
_publ_author_name
"K.Chadwick"
"G.Sadiq"
"R.J.Davey"
"C.C.Seaton"
"R.G.Pritchard"
"A.Parkin"
_chemical_name_systematic
;
4-Aminobenzoic acid 3,5-dinitrobenzoic acid
;
_chemical_name_common
;
Teaching Subset: Fundamental Chemistry
;
_cell_volume   3044.906
_exptl_crystal_density_diffrn 1.524
_exptl_crystal_preparation 'ethanol'
_diffrn_ambient_temperature 293
_refine_special_details
;
The protons of the carboxylic acid groups are equally disordered over two 
sites by symmetry.
;
#These two values have been output from a single CSD field.
_refine_ls_R_factor_gt 0.0219
_refine_ls_wR_factor_gt 0.0219
_symmetry_cell_setting orthorhombic
_symmetry_space_group_name_H-M 'F d 2 d'
_symmetry_Int_Tables_number 43
loop_
_symmetry_equiv_pos_site_id
_symmetry_equiv_pos_as_xyz
1 x,y,z
2 x,1/2+y,1/2+z
3 1/2+x,y,1/2+z
4 1/2+x,1/2+y,z
5 1/4-x,1/4+y,1/4+z
6 1/4-x,3/4+y,3/4+z
7 3/4-x,1/4+y,3/4+z
8 3/4-x,3/4+y,1/4+z
9 -x,y,-z
10 -x,1/2+y,1/2-z
11 1/2-x,y,1/2-z
12 1/2-x,1/2+y,-z
13 3/4+x,1/4+y,3/4-z
14 3/4+x,3/4+y,1/4-z
15 1/4+x,1/4+y,1/4-z
16 1/4+x,3/4+y,3/4-z
_cell_length_a 6.918(2)
_cell_length_b 20.663(7)
_cell_length_c 21.301(6)
_cell_angle_alpha 90
_cell_angle_beta 90
_cell_angle_gamma 90
_cell_formula_units_Z 8
loop_
_atom_type_symbol
_atom_type_radius_bond
C 0.68
H 0.23
N 0.68
O 0.68
loop_
_atom_site_label
_atom_site_type_symbol
_atom_site_fract_x
_atom_site_fract_y
_atom_site_fract_z
C1 C 0.4460(2) 0.33189(15) 0.44781(8)
C2 C 0.4470(2) 0.39898(14) 0.44591(8)
C3 C 0.50000 0.43217(16) 0.50000
C4 C 0.50000 0.50453(16) 0.50000
O1 O 0.48248(19) 0.53302(13) 0.44767(6)
C5 C 0.50000 0.29686(16) 0.50000
N1 N 0.3824(2) 0.29626(13) 0.39144(7)
O2 O 0.3841(2) 0.23675(15) 0.39393(6)
O3 O 0.3279(2) 0.32727(14) 0.34596(6)
H1 H 0.412(3) 0.4204(10) 0.4100(9)
H2 H 0.50000 0.2549(15) 0.50000
C6 C 0.4589(3) 0.79429(14) 0.44490(8)
C7 C 0.50000 0.75956(16) 0.50000
C8 C 0.50000 0.68857(17) 0.50000
O4 O 0.4635(2) 0.65926(14) 0.44883(6)
C9 C 0.4595(3) 0.86101(15) 0.44451(8)
C10 C 0.50000 0.89586(16) 0.50000
N2 N 0.50000 0.96184(15) 0.50000
H3 H 0.431(3) 0.7716(10) 0.4094(9)
H4 H 0.432(3) 0.8845(10) 0.4082(10)
H5 H 0.492(4) 0.9831(14) 0.4636(11)
H6? H 0.461(7) 0.620(3) 0.447(2)
H7? H 0.489(7) 0.574(4) 0.453(2)
C1H C 0.5540(2) 0.33189(15) 0.55219(8)
C2H C 0.5530(2) 0.39898(14) 0.55409(8)
O1H O 0.51752(19) 0.53302(13) 0.55233(6)
N1H N 0.6176(2) 0.29626(13) 0.60856(7)
O2H O 0.6159(2) 0.23675(15) 0.60607(6)
O3H O 0.6721(2) 0.32727(14) 0.65404(6)
H1H H 0.588(3) 0.4204(10) 0.5900(9)
C6H C 0.5411(3) 0.79429(14) 0.55510(8)
O4H O 0.5365(2) 0.65926(14) 0.55117(6)
C9H C 0.5405(3) 0.86101(15) 0.55549(8)
H3H H 0.569(3) 0.7716(10) 0.5906(9)
H4H H 0.568(3) 0.8845(10) 0.5918(10)
H5H H 0.508(4) 0.9831(14) 0.5364(11)
#END
