####################################################################### 
# 
# This file contains crystal structure data downloaded from the 
# Cambridge Structural Database (CSD) hosted by the Cambridge 
# Crystallographic Data Centre (CCDC).
# 
# Full information about CCDC data access policies and citation 
# guidelines are available at http://www.ccdc.cam.ac.uk/access/V1 
# 
# Audit and citation data items may have been added by the CCDC. 
# Please retain this information to preserve the provenance of 
# this file and to allow appropriate attribution of the data. 
# 
#######################################################################

data_[agl](pf6)
_audit_block_doi                 10.5517/cc102z02
_database_code_depnum_ccdc_archive 'CCDC 926373'
loop_
_citation_id
_citation_doi
_citation_year
1 10.1039/c3ce40395e 2013
_audit_update_record             
;
2013-02-25 deposited with the CCDC.	2024-07-12 downloaded from the CCDC.
;
#TrackingRef 'Revised Brodie Ag combined.cif'


_audit_creation_method           SHELXL-97
_chemical_name_systematic        
;
?
;
_chemical_name_common            ?
_chemical_melting_point          ?
_chemical_formula_moiety         
'C40 H32 Ag N12 O8 P4, F6 P, 0.37(C4 O), 0.63(C2 N)'
_chemical_formula_sum            'C42.75 H32 Ag F6 N12.63 O8.37 P5'
_chemical_formula_weight         1233.31

loop_
_atom_type_symbol
_atom_type_description
_atom_type_scat_dispersion_real
_atom_type_scat_dispersion_imag
_atom_type_scat_source
C C 0.0033 0.0016 'International Tables Vol C Tables 4.2.6.8 and 6.1.1.4'
H H 0.0000 0.0000 'International Tables Vol C Tables 4.2.6.8 and 6.1.1.4'
N N 0.0061 0.0033 'International Tables Vol C Tables 4.2.6.8 and 6.1.1.4'
O O 0.0106 0.0060 'International Tables Vol C Tables 4.2.6.8 and 6.1.1.4'
F F 0.0171 0.0103 'International Tables Vol C Tables 4.2.6.8 and 6.1.1.4'
P P 0.1023 0.0942 'International Tables Vol C Tables 4.2.6.8 and 6.1.1.4'
Ag Ag -0.8971 1.1015 'International Tables Vol C Tables 4.2.6.8 and 6.1.1.4'

_symmetry_cell_setting           monoclinic
_symmetry_space_group_name_H-M   'C 1 c 1'

loop_
_symmetry_equiv_pos_as_xyz
'x, y, z'
'x, -y, z+1/2'
'x+1/2, y+1/2, z'
'x+1/2, -y+1/2, z+1/2'

_cell_length_a                   11.1835(3)
_cell_length_b                   31.5719(9)
_cell_length_c                   14.7373(4)
_cell_angle_alpha                90.00
_cell_angle_beta                 91.6320(10)
_cell_angle_gamma                90.00
_cell_volume                     5201.4(2)
_cell_formula_units_Z            4
_cell_measurement_temperature    78(2)
_cell_measurement_reflns_used    ?
_cell_measurement_theta_min      ?
_cell_measurement_theta_max      ?

_exptl_crystal_description       needle
_exptl_crystal_colour            colourless
_exptl_crystal_size_max          0.36
_exptl_crystal_size_mid          0.18
_exptl_crystal_size_min          0.10
_exptl_crystal_density_meas      ?
_exptl_crystal_density_diffrn    1.575
_exptl_crystal_density_method    'not measured'
_exptl_crystal_F_000             2450
_exptl_absorpt_coefficient_mu    0.627
_exptl_absorpt_correction_type   multi-scan
_exptl_absorpt_correction_T_min  0.8141
_exptl_absorpt_correction_T_max  0.9428
_exptl_absorpt_process_details   SADABS

_exptl_special_details           
;
?
;

_diffrn_ambient_temperature      78(2)
_diffrn_radiation_wavelength     0.71073
_diffrn_radiation_type           MoK\a
_diffrn_radiation_source         'fine-focus sealed tube'
_diffrn_radiation_monochromator  graphite
_diffrn_measurement_device_type  'CCD Area detector'
_diffrn_measurement_method       'phi and omega scans'
_diffrn_detector_area_resol_mean ?
_diffrn_standards_number         ?
_diffrn_standards_interval_count ?
_diffrn_standards_interval_time  ?
_diffrn_standards_decay_%        ?
_diffrn_reflns_number            15541
_diffrn_reflns_av_R_equivalents  0.0273
_diffrn_reflns_av_sigmaI/netI    0.0493
_diffrn_reflns_limit_h_min       -13
_diffrn_reflns_limit_h_max       13
_diffrn_reflns_limit_k_min       -39
_diffrn_reflns_limit_k_max       22
_diffrn_reflns_limit_l_min       -18
_diffrn_reflns_limit_l_max       17
_diffrn_reflns_theta_min         2.77
_diffrn_reflns_theta_max         26.39
_reflns_number_total             9377
_reflns_number_gt                8772
_reflns_threshold_expression     >2sigma(I)

_computing_data_collection       ?
_computing_cell_refinement       ?
_computing_data_reduction        ?
_computing_structure_solution    'SHELXS-97 (Sheldrick, 1990)'
_computing_structure_refinement  'SHELXL-97 (Sheldrick, 1997)'
_computing_molecular_graphics    ?
_computing_publication_material  ?

_refine_special_details          
;
Refinement of F^2^ against ALL reflections. The weighted R-factor wR and
goodness of fit S are based on F^2^, conventional R-factors R are based
on F, with F set to zero for negative F^2^. The threshold expression of
F^2^ > 2sigma(F^2^) is used only for calculating R-factors(gt) etc. and is
not relevant to the choice of reflections for refinement. R-factors based
on F^2^ are statistically about twice as large as those based on F, and R-
factors based on ALL data will be even larger.
The Flack parameter is reported from the penultimate cycle of refinment.
In the final cycle, inversion twinning was introduced, leading to a final
value of the minor twin component of 0.205(15) and to the final refinment
statistics and parameters reported herein.
;

_refine_ls_structure_factor_coef Fsqd
_refine_ls_matrix_type           full
_refine_ls_weighting_scheme      calc
_refine_ls_weighting_details     
'calc w=1/[\s^2^(Fo^2^)+(0.0244P)^2^+13.1432P] where P=(Fo^2^+2Fc^2^)/3'
_atom_sites_solution_primary     direct
_atom_sites_solution_secondary   difmap
_atom_sites_solution_hydrogens   geom
_refine_ls_hydrogen_treatment    constr
_refine_ls_extinction_method     none
_refine_ls_extinction_coef       ?
_refine_ls_abs_structure_details 'Flack H D (1983), Acta Cryst. A39, 876-881'
_refine_ls_abs_structure_Flack   0.00
_refine_ls_number_reflns         9377
_refine_ls_number_parameters     752
_refine_ls_number_restraints     156
_refine_ls_R_factor_all          0.0430
_refine_ls_R_factor_gt           0.0378
_refine_ls_wR_factor_ref         0.0904
_refine_ls_wR_factor_gt          0.0862
_refine_ls_goodness_of_fit_ref   1.113
_refine_ls_restrained_S_all      1.109
_refine_ls_shift/su_max          0.001
_refine_ls_shift/su_mean         0.000

loop_
_atom_site_label
_atom_site_type_symbol
_atom_site_fract_x
_atom_site_fract_y
_atom_site_fract_z
_atom_site_U_iso_or_equiv
_atom_site_adp_type
_atom_site_occupancy
_atom_site_symmetry_multiplicity
_atom_site_calc_flag
_atom_site_refinement_flags
_atom_site_disorder_assembly
_atom_site_disorder_group
C74 C -0.1423(5) 0.07779(18) 0.7934(4) 0.0423(13) Uani 1 1 d . . .
H74 H -0.1999 0.0577 0.8069 0.051 Uiso 1 1 calc R . .
C33 C 0.5934(6) 0.03391(18) 1.0576(5) 0.0570(19) Uani 1 1 d . . .
H33 H 0.6316 0.0177 1.1025 0.068 Uiso 1 1 calc R . .
C53 C 0.0002(7) 0.0467(2) 1.0015(5) 0.0667(19) Uani 1 1 d U . .
H53 H -0.0428 0.0320 0.9567 0.080 Uiso 1 1 calc R . .
C52 C 0.1024(6) 0.0705(2) 0.9789(4) 0.0505(15) Uani 1 1 d U . .
H52 H 0.1294 0.0720 0.9199 0.061 Uiso 1 1 calc R . .
C54 C -0.0344(6) 0.0453(2) 1.0887(4) 0.0542(15) Uani 1 1 d U . .
H54 H -0.1007 0.0294 1.1042 0.065 Uiso 1 1 calc R . .
C84 C 0.0592(4) 0.34877(15) 0.7656(3) 0.0284(10) Uani 1 1 d . . .
H84 H 0.0516 0.3769 0.7474 0.034 Uiso 1 1 calc R . .
C83 C 0.0593(4) 0.31623(15) 0.7019(3) 0.0274(10) Uani 1 1 d . . .
H83 H 0.0515 0.3224 0.6403 0.033 Uiso 1 1 calc R . .
C85 C 0.0705(4) 0.33842(14) 0.8564(3) 0.0252(9) Uani 1 1 d . . .
H85 H 0.0688 0.3601 0.8991 0.030 Uiso 1 1 calc R . .
Ag1 Ag 0.59670(2) 0.218912(9) 0.53546(2) 0.02288(8) Uani 1 1 d . . .
P1 P 0.41688(9) 0.20116(3) 0.75796(7) 0.0170(2) Uani 1 1 d . . .
P4 P 0.18058(9) 0.19158(3) 0.82087(7) 0.0159(2) Uani 1 1 d . . .
P2 P 0.51317(9) 0.17593(3) 0.93605(7) 0.0169(2) Uani 1 1 d . . .
P3 P 0.27073(9) 0.15901(3) 0.99086(7) 0.0161(2) Uani 1 1 d . . .
P5 P 0.76024(13) 0.04705(4) 0.35136(9) 0.0338(3) Uani 1 1 d . . .
C24 C 0.3700(4) 0.33882(14) 0.5650(3) 0.0233(9) Uani 1 1 d . . .
H24 H 0.3473 0.3608 0.5263 0.028 Uiso 1 1 calc R . .
O4 O 0.6017(2) 0.21243(9) 0.97380(19) 0.0200(6) Uani 1 1 d . . .
O8 O 0.0951(2) 0.22764(9) 0.86057(18) 0.0177(6) Uani 1 1 d . . .
O7 O 0.1042(3) 0.16888(9) 0.74122(17) 0.0196(6) Uani 1 1 d . . .
F1 F 0.6360(3) 0.06617(10) 0.3835(2) 0.0411(8) Uani 1 1 d . . .
N46 N 0.4618(3) 0.26524(12) 0.9501(2) 0.0237(8) Uani 1 1 d . . .
O3 O 0.6052(3) 0.13876(9) 0.9601(2) 0.0214(6) Uani 1 1 d . . .
O1 O 0.4122(3) 0.17125(9) 0.66954(18) 0.0211(6) Uani 1 1 d . . .
C13 C 0.5682(5) 0.06994(16) 0.6781(4) 0.0356(12) Uani 1 1 d . . .
H13 H 0.5639 0.0434 0.7052 0.043 Uiso 1 1 calc R . .
C21 C 0.4401(4) 0.27412(12) 0.6726(3) 0.0165(8) Uani 1 1 d . . .
O5 O 0.2645(3) 0.11329(9) 1.03562(18) 0.0210(6) Uani 1 1 d . . .
C42 C 0.6536(4) 0.28136(14) 1.0215(3) 0.0240(9) Uani 1 1 d . . .
H42 H 0.7283 0.2716 1.0414 0.029 Uiso 1 1 calc R . .
C71 C 0.0204(4) 0.13772(13) 0.7596(3) 0.0202(8) Uani 1 1 d . . .
C12 C 0.4859(5) 0.10099(15) 0.6973(3) 0.0321(11) Uani 1 1 d . . .
H12 H 0.4245 0.0959 0.7371 0.038 Uiso 1 1 calc R . .
N16 N 0.5826(3) 0.14995(12) 0.5982(2) 0.0239(8) Uani 1 1 d . . .
F3 F 0.6891(3) 0.00589(11) 0.3150(3) 0.0638(10) Uani 1 1 d . . .
N1 N 0.4973(3) 0.17853(11) 0.8310(2) 0.0183(7) Uani 1 1 d . . .
O2 O 0.4885(3) 0.24204(9) 0.72668(18) 0.0193(6) Uani 1 1 d . . .
O6 O 0.1926(3) 0.18864(9) 1.05398(18) 0.0192(6) Uani 1 1 d . . .
C64 C 0.2858(4) 0.24517(18) 1.2949(3) 0.0338(12) Uani 1 1 d . . .
H64 H 0.3061 0.2595 1.3484 0.041 Uiso 1 1 calc R . .
C45 C 0.4326(5) 0.30622(15) 0.9613(3) 0.0292(10) Uani 1 1 d . . .
H45 H 0.3567 0.3149 0.9417 0.035 Uiso 1 1 calc R . .
C22 C 0.3902(4) 0.30927(14) 0.7135(3) 0.0246(9) Uani 1 1 d . . .
H22 H 0.3809 0.3105 0.7759 0.029 Uiso 1 1 calc R . .
N3 N 0.2015(3) 0.15737(11) 0.8968(2) 0.0188(7) Uani 1 1 d . . .
N4 N 0.2850(3) 0.21552(11) 0.7744(2) 0.0194(7) Uani 1 1 d . . .
F4 F 0.8844(3) 0.02751(11) 0.3192(2) 0.0511(9) Uani 1 1 d . . .
F6 F 0.8255(4) 0.08911(13) 0.3823(3) 0.0779(13) Uani 1 1 d . . .
C44 C 0.5085(5) 0.33626(16) 1.0003(3) 0.0337(11) Uani 1 1 d . . .
H44 H 0.4848 0.3643 1.0060 0.040 Uiso 1 1 calc R . .
C11 C 0.4976(4) 0.14001(14) 0.6552(3) 0.0219(9) Uani 1 1 d . . .
C25 C 0.4187(4) 0.30250(13) 0.5310(3) 0.0204(8) Uani 1 1 d . . .
H25 H 0.4276 0.3003 0.4686 0.024 Uiso 1 1 calc R . .
C15 C 0.6615(4) 0.11929(15) 0.5799(3) 0.0283(10) Uani 1 1 d . . .
H15 H 0.7221 0.1253 0.5399 0.034 Uiso 1 1 calc R . .
C23 C 0.3551(4) 0.34228(14) 0.6580(3) 0.0277(10) Uani 1 1 d . . .
H23 H 0.3218 0.3666 0.6823 0.033 Uiso 1 1 calc R . .
C61 C 0.2301(4) 0.20627(15) 1.1363(3) 0.0215(9) Uani 1 1 d . . .
N2 N 0.4042(3) 0.17298(11) 1.0001(2) 0.0193(7) Uani 1 1 d . . .
N26 N 0.4546(3) 0.26960(11) 0.5844(2) 0.0183(7) Uani 1 1 d . . .
N56 N 0.1259(4) 0.09053(13) 1.1347(3) 0.0370(10) Uani 1 1 d . . .
C41 C 0.5688(4) 0.25439(13) 0.9810(3) 0.0204(8) Uani 1 1 d . . .
C43 C 0.6209(4) 0.32310(14) 1.0304(3) 0.0289(11) Uani 1 1 d . . .
H43 H 0.6742 0.3425 1.0566 0.035 Uiso 1 1 calc R . .
C62 C 0.2469(4) 0.18129(16) 1.2128(3) 0.0277(10) Uani 1 1 d . . .
H62 H 0.2400 0.1520 1.2098 0.033 Uiso 1 1 calc R . .
C63 C 0.2746(4) 0.20187(18) 1.2949(3) 0.0324(11) Uani 1 1 d . . .
H63 H 0.2851 0.1865 1.3484 0.039 Uiso 1 1 calc R . .
C14 C 0.6575(5) 0.07907(15) 0.6175(3) 0.0299(10) Uani 1 1 d . . .
H14 H 0.7134 0.0586 0.6025 0.036 Uiso 1 1 calc R . .
N36 N 0.4814(4) 0.08231(13) 0.9214(3) 0.0331(9) Uani 1 1 d . . .
F5 F 0.7818(4) 0.02587(15) 0.4471(2) 0.0738(13) Uani 1 1 d . . .
C55 C 0.0274(6) 0.0671(2) 1.1527(4) 0.0499(15) Uani 1 1 d U . .
H55 H 0.0016 0.0661 1.2121 0.060 Uiso 1 1 calc R . .
C35 C 0.4507(5) 0.04148(17) 0.9369(4) 0.0423(13) Uani 1 1 d . . .
H35 H 0.3904 0.0295 0.9004 0.051 Uiso 1 1 calc R . .
C31 C 0.5672(4) 0.09740(14) 0.9741(3) 0.0239(9) Uani 1 1 d . . .
F2 F 0.7366(4) 0.06788(13) 0.2530(2) 0.0652(11) Uani 1 1 d . . .
C34 C 0.5036(5) 0.01662(16) 1.0035(4) 0.0472(15) Uani 1 1 d . . .
H34 H 0.4792 -0.0112 1.0118 0.057 Uiso 1 1 calc R . .
C51 C 0.1587(4) 0.09116(14) 1.0493(3) 0.0271(10) Uani 1 1 d U . .
C65 C 0.2668(4) 0.26742(16) 1.2146(3) 0.0295(10) Uani 1 1 d . . .
H65 H 0.2746 0.2967 1.2154 0.035 Uiso 1 1 calc R . .
C75 C -0.1570(5) 0.11985(18) 0.8172(3) 0.0376(12) Uani 1 1 d . . .
H75 H -0.2270 0.1275 0.8456 0.045 Uiso 1 1 calc R . .
N76 N -0.0759(4) 0.15024(12) 0.8018(3) 0.0279(8) Uani 1 1 d . . .
C72 C 0.0437(5) 0.09723(15) 0.7315(3) 0.0362(12) Uani 1 1 d . . .
H72 H 0.1135 0.0906 0.7016 0.043 Uiso 1 1 calc R . .
C73 C -0.0410(6) 0.06655(17) 0.7495(4) 0.0487(15) Uani 1 1 d . . .
H73 H -0.0290 0.0386 0.7319 0.058 Uiso 1 1 calc R . .
C32 C 0.6259(5) 0.07564(18) 1.0442(4) 0.0440(14) Uani 1 1 d . . .
H32 H 0.6846 0.0886 1.0806 0.053 Uiso 1 1 calc R . .
N86 N 0.0841(3) 0.29829(11) 0.8859(2) 0.0200(7) Uani 1 1 d . . .
N61 N 0.2375(3) 0.24810(13) 1.1352(2) 0.0247(8) Uani 1 1 d . . .
C81 C 0.0850(4) 0.26784(13) 0.8231(3) 0.0180(8) Uani 1 1 d . . .
C82 C 0.0709(4) 0.27488(14) 0.7307(3) 0.0235(9) Uani 1 1 d . . .
H82 H 0.0694 0.2525 0.6895 0.028 Uiso 1 1 calc R . .
C92A C 0.796(2) 0.4320(7) 0.8970(14) 0.075(4) Uani 0.373(11) 1 d PDU A 1
O9A O 0.7708(13) 0.4668(4) 0.8366(8) 0.074(4) Uani 0.373(11) 1 d PDU A 1
C93A C 0.730(2) 0.4367(8) 0.9817(15) 0.074(7) Uani 0.373(11) 1 d PDU A 1
C94A C 0.833(2) 0.4686(8) 0.7514(15) 0.074(4) Uani 0.373(11) 1 d PDU A 1
C95A C 0.787(3) 0.5036(9) 0.6950(17) 0.080(8) Uani 0.373(11) 1 d PDU A 1
N90D N 0.7605(16) 0.5150(5) 0.7103(13) 0.045(5) Uani 0.317(10) 1 d PDU B 2
C93D C 0.8916(12) 0.4488(4) 0.7265(9) 0.023(3) Uani 0.317(10) 1 d PDU B 2
C92D C 0.8173(11) 0.4862(4) 0.7222(9) 0.017(3) Uani 0.317(10) 1 d PDU B 2
C92B C 0.7375(16) 0.4252(6) 0.9438(15) 0.045(5) Uani 0.312(9) 1 d PDU C 3
C93B C 0.6385(19) 0.4526(7) 0.9591(17) 0.067(7) Uani 0.312(9) 1 d PDU C 3
N90B N 0.8131(16) 0.4022(6) 0.9455(14) 0.068(6) Uani 0.312(9) 1 d PDU C 3

loop_
_atom_site_aniso_label
_atom_site_aniso_U_11
_atom_site_aniso_U_22
_atom_site_aniso_U_33
_atom_site_aniso_U_23
_atom_site_aniso_U_13
_atom_site_aniso_U_12
C74 0.045(3) 0.044(3) 0.038(3) 0.005(2) -0.011(2) -0.023(3)
C33 0.051(4) 0.039(3) 0.082(5) 0.027(3) 0.000(4) -0.003(3)
C53 0.067(2) 0.066(2) 0.067(2) 0.0013(10) -0.0008(10) -0.0031(10)
C52 0.0514(17) 0.0505(17) 0.0495(17) 0.0019(10) 0.0005(10) -0.0037(10)
C54 0.0529(17) 0.0538(17) 0.0558(17) 0.0042(10) 0.0007(10) -0.0007(10)
C84 0.032(3) 0.029(2) 0.024(2) 0.0060(18) 0.0018(19) -0.0018(19)
C83 0.029(3) 0.036(3) 0.017(2) 0.0078(19) 0.0013(18) 0.003(2)
C85 0.034(3) 0.024(2) 0.019(2) -0.0019(17) 0.0050(18) -0.0046(18)
Ag1 0.03155(17) 0.02280(14) 0.01454(13) 0.00085(14) 0.00479(11) 0.00185(15)
P1 0.0169(5) 0.0202(5) 0.0139(5) 0.0016(4) 0.0038(4) -0.0010(4)
P4 0.0155(5) 0.0200(5) 0.0124(5) -0.0003(4) 0.0012(4) -0.0012(4)
P2 0.0159(5) 0.0212(5) 0.0137(5) 0.0024(4) 0.0015(4) -0.0004(4)
P3 0.0158(5) 0.0210(5) 0.0115(5) 0.0017(4) 0.0018(4) -0.0021(4)
P5 0.0415(7) 0.0250(6) 0.0357(7) 0.0021(5) 0.0161(6) 0.0044(5)
C24 0.021(2) 0.025(2) 0.024(2) 0.0070(17) 0.0017(18) 0.0029(18)
O4 0.0159(14) 0.0230(15) 0.0211(15) 0.0009(11) 0.0001(12) -0.0010(11)
O8 0.0200(15) 0.0191(14) 0.0142(14) -0.0002(11) 0.0044(11) -0.0005(11)
O7 0.0219(15) 0.0263(15) 0.0107(13) -0.0019(11) -0.0005(11) -0.0038(12)
F1 0.0450(19) 0.0313(16) 0.0479(19) 0.0037(14) 0.0151(15) 0.0103(14)
N46 0.028(2) 0.0264(19) 0.0168(17) -0.0062(15) -0.0002(15) 0.0018(16)
O3 0.0171(15) 0.0229(15) 0.0240(15) 0.0053(12) -0.0023(11) 0.0000(11)
O1 0.0259(16) 0.0249(15) 0.0126(13) -0.0020(11) 0.0026(11) -0.0005(12)
C13 0.053(3) 0.020(2) 0.034(3) 0.001(2) 0.009(2) 0.000(2)
C21 0.0126(18) 0.021(2) 0.0165(19) 0.0010(15) 0.0027(15) -0.0039(15)
O5 0.0210(15) 0.0234(15) 0.0186(14) 0.0052(12) 0.0017(12) -0.0041(12)
C42 0.026(2) 0.028(2) 0.018(2) 0.0004(17) 0.0033(17) -0.0034(19)
C71 0.022(2) 0.022(2) 0.016(2) 0.0019(16) -0.0048(16) -0.0047(17)
C12 0.041(3) 0.027(2) 0.029(2) -0.0022(19) 0.012(2) -0.003(2)
N16 0.027(2) 0.0260(19) 0.0184(17) 0.0014(14) 0.0014(15) -0.0002(15)
F3 0.057(2) 0.0401(19) 0.095(3) -0.020(2) 0.012(2) 0.0008(17)
N1 0.0146(17) 0.0256(18) 0.0151(16) 0.0030(14) 0.0044(13) 0.0028(14)
O2 0.0168(14) 0.0255(15) 0.0160(14) 0.0020(11) 0.0045(11) -0.0007(12)
O6 0.0173(15) 0.0269(15) 0.0134(13) -0.0010(11) 0.0002(11) 0.0006(12)
C64 0.015(2) 0.062(4) 0.024(2) -0.012(2) 0.0006(18) 0.007(2)
C45 0.034(3) 0.034(3) 0.020(2) -0.0012(19) 0.0016(19) 0.008(2)
C22 0.030(2) 0.027(2) 0.017(2) -0.0010(17) 0.0059(17) 0.0017(18)
N3 0.0193(18) 0.0215(17) 0.0154(16) 0.0003(14) -0.0005(14) -0.0018(14)
N4 0.0180(18) 0.0241(18) 0.0162(17) 0.0046(14) -0.0008(14) -0.0011(14)
F4 0.053(2) 0.0438(19) 0.058(2) 0.0075(16) 0.0325(17) 0.0107(15)
F6 0.049(2) 0.056(2) 0.129(4) -0.038(3) 0.009(2) -0.0064(18)
C44 0.052(3) 0.028(2) 0.022(2) -0.0030(19) 0.006(2) 0.000(2)
C11 0.030(2) 0.021(2) 0.0147(19) -0.0037(16) 0.0025(17) -0.0014(17)
C25 0.015(2) 0.028(2) 0.018(2) 0.0028(17) 0.0003(16) -0.0012(16)
C15 0.032(3) 0.033(2) 0.020(2) 0.0004(18) 0.0007(19) 0.001(2)
C23 0.029(2) 0.021(2) 0.033(3) 0.0004(19) 0.006(2) 0.0013(19)
C61 0.012(2) 0.040(3) 0.0123(19) -0.0041(1