####################################################################### 
# 
# This file contains crystal structure data downloaded from the 
# Cambridge Structural Database (CSD) hosted by the Cambridge 
# Crystallographic Data Centre (CCDC).
# 
# Full information about CCDC data access policies and citation 
# guidelines are available at http://www.ccdc.cam.ac.uk/access/V1 
# 
# Audit and citation data items may have been added by the CCDC. 
# Please retain this information to preserve the provenance of 
# this file and to allow appropriate attribution of the data. 
# 
#######################################################################

data_ocMOM-2
_audit_block_doi                 10.5517/cc10f5m7
_database_code_depnum_ccdc_archive 'CCDC 936188'
loop_
_citation_id
_citation_doi
_citation_year
1 10.1039/C3CC43801E 2013
_audit_update_record             
;
2013-07-11 deposited with the CCDC.	2024-07-12 downloaded from the CCDC.
;

_audit_creation_method           SHELXL-97
_chemical_name_systematic        
; 
 ? 
;
_chemical_name_common            ?
_chemical_melting_point          ?
_chemical_formula_moiety         ?
_chemical_formula_sum            'C52 H19 Cd2 O20 P'
_chemical_formula_weight         1219.44

loop_
_atom_type_symbol
_atom_type_description
_atom_type_scat_dispersion_real
_atom_type_scat_dispersion_imag
_atom_type_scat_source
C C 0.0181 0.0091 'International Tables Vol C Tables 4.2.6.8 and 6.1.1.4'
H H 0.0000 0.0000 'International Tables Vol C Tables 4.2.6.8 and 6.1.1.4'
O O 0.0492 0.0322 'International Tables Vol C Tables 4.2.6.8 and 6.1.1.4'
Cd Cd 0.1185 4.6533 'International Tables Vol C Tables 4.2.6.8 and 6.1.1.4'
P P 0.2955 0.4335 'International Tables Vol C Tables 4.2.6.8 and 6.1.1.4'

_symmetry_cell_setting           Orthorhombic
_symmetry_space_group_name_H-M   P212121

loop_
_symmetry_equiv_pos_as_xyz
'x, y, z'
'-x+1/2, -y, z+1/2'
'x+1/2, -y+1/2, -z'
'-x, y+1/2, -z+1/2'

_cell_length_a                   17.4396(10)
_cell_length_b                   22.4040(15)
_cell_length_c                   29.2728(18)
_cell_angle_alpha                90.00
_cell_angle_beta                 90.00
_cell_angle_gamma                90.00
_cell_volume                     11437.4(12)
_cell_formula_units_Z            4
_cell_measurement_temperature    230(2)
_cell_measurement_reflns_used    ?
_cell_measurement_theta_min      3.16
_cell_measurement_theta_max      64.37

_exptl_crystal_description       block
_exptl_crystal_colour            yellow
_exptl_crystal_size_max          0.10
_exptl_crystal_size_mid          0.10
_exptl_crystal_size_min          0.10
_exptl_crystal_density_meas      0.708
_exptl_crystal_density_diffrn    0.708
_exptl_crystal_density_method    'not measured'
_exptl_crystal_F_000             2408
_exptl_absorpt_coefficient_mu    3.415
_exptl_absorpt_correction_type   multi-scan
_exptl_absorpt_correction_T_min  0.8250
_exptl_absorpt_correction_T_max  0.8250
_exptl_absorpt_process_details   'SADABS; (Sheldrick, 2003)'

_exptl_special_details           
; 
 ? 
;

_diffrn_ambient_temperature      230(2)
_diffrn_radiation_wavelength     1.54178
_diffrn_radiation_type           CuK\a
_diffrn_radiation_source         'fine-focus sealed tube'
_diffrn_radiation_monochromator  graphite
_diffrn_measurement_device_type  'BRUKER SMART APEXII CCD'
_diffrn_measurement_method       'omega scans'
_diffrn_detector_area_resol_mean ?
_diffrn_reflns_number            96572
_diffrn_reflns_av_R_equivalents  0.0718
_diffrn_reflns_av_sigmaI/netI    0.0639
_diffrn_reflns_limit_h_min       -18
_diffrn_reflns_limit_h_max       20
_diffrn_reflns_limit_k_min       -26
_diffrn_reflns_limit_k_max       26
_diffrn_reflns_limit_l_min       -33
_diffrn_reflns_limit_l_max       34
_diffrn_reflns_theta_min         2.48
_diffrn_reflns_theta_max         64.74
_reflns_number_total             19193
_reflns_number_gt                16705
_reflns_threshold_expression     >2sigma(I)

_computing_data_collection       'APEX2 (Bruker, 2010)'
_computing_cell_refinement       'APEX2 (Bruker, 2010); SAINT (Bruker, 2009)'
_computing_data_reduction        'SAINT (Bruker, 2009);XPREP(Sheldrick,2008)'
_computing_structure_solution    'SHELXS-97 (Sheldrick, 2008)'
_computing_structure_refinement  'SHELXL-97 (Sheldrick, 2008)'
_computing_molecular_graphics    ?
_computing_publication_material  'APEX2 (Bruker, 2010)'

_refine_special_details          
; 


DELU O15 C1D O12
DELU O6 C8
DELU O21 C18
SIMU O21 C18

 Refinement of F^2^ against ALL reflections.  The weighted R-factor wR and 
 goodness of fit S are based on F^2^, conventional R-factors R are based 
 on F, with F set to zero for negative F^2^. The threshold expression of 
 F^2^ > 2sigma(F^2^) is used only for calculating R-factors(gt) etc. and is 
 not relevant to the choice of reflections for refinement.  R-factors based 
 on F^2^ are statistically about twice as large as those based on F, and R- 
 factors based on ALL data will be even larger. 
;

_refine_ls_structure_factor_coef Fsqd
_refine_ls_matrix_type           full
_refine_ls_weighting_scheme      calc
_refine_ls_weighting_details     
'calc w=1/[\s^2^(Fo^2^)+(0.0054P)^2^+0.0000P] where P=(Fo^2^+2Fc^2^)/3'
_atom_sites_solution_primary     direct
_atom_sites_solution_secondary   difmap
_atom_sites_solution_hydrogens   geom
_refine_ls_hydrogen_treatment    constr
_refine_ls_extinction_method     none
_refine_ls_extinction_coef       ?
_refine_ls_abs_structure_details 'Flack H D (1983), Acta Cryst. A39, 876-881'
_refine_ls_abs_structure_Flack   0.007(3)
_refine_ls_number_reflns         19193
_refine_ls_number_parameters     676
_refine_ls_number_restraints     11
_refine_ls_R_factor_all          0.0363
_refine_ls_R_factor_gt           0.0313
_refine_ls_wR_factor_ref         0.0713
_refine_ls_wR_factor_gt          0.0697
_refine_ls_goodness_of_fit_ref   0.923
_refine_ls_restrained_S_all      0.923
_refine_ls_shift/su_max          0.002
_refine_ls_shift/su_mean         0.000

loop_
_atom_site_label
_atom_site_type_symbol
_atom_site_fract_x
_atom_site_fract_y
_atom_site_fract_z
_atom_site_U_iso_or_equiv
_atom_site_adp_type
_atom_site_occupancy
_atom_site_symmetry_multiplicity
_atom_site_calc_flag
_atom_site_refinement_flags
_atom_site_disorder_assembly
_atom_site_disorder_group
Cd1 Cd -0.116089(11) 0.622325(9) 0.492078(7) 0.04500(5) Uani 1 1 d . . .
Cd2 Cd 0.842418(13) 0.772001(11) 0.065295(8) 0.05586(6) Uani 1 1 d . . .
P3 P 0.36249(6) 0.59629(6) 0.40439(3) 0.0780(3) Uani 1 1 d . . .
O1 O 0.78216(12) 0.62996(12) 0.43791(8) 0.0628(6) Uani 1 1 d . . .
O2 O 0.22409(14) 0.71718(14) -0.02558(8) 0.0781(8) Uani 1 1 d . . .
O3 O 0.77212(13) 0.68600(11) 0.49775(10) 0.0767(8) Uani 1 1 d . . .
O4 O 0.44438(14) 0.79898(10) 0.47648(8) 0.0641(6) Uani 1 1 d . . .
C5 C 0.42021(16) 0.62095(17) 0.30207(9) 0.0520(7) Uani 1 1 d . . .
O6 O -0.03563(16) 0.61988(16) 0.41441(11) 0.0944(9) Uani 1 1 d U . .
C7 C 0.33578(17) 0.61643(17) 0.29566(10) 0.0550(8) Uani 1 1 d . . .
O8 O -0.04528(13) 0.75246(14) 0.11866(9) 0.0832(9) Uani 1 1 d . . .
O9 O 0.40151(12) 0.65108(11) 0.37837(7) 0.0600(6) Uani 1 1 d . . .
O10 O 0.32747(12) 0.55780(10) 0.36300(7) 0.0562(5) Uani 1 1 d . . .
C11 C 0.12469(19) 0.73132(19) 0.05056(11) 0.0675(9) Uani 1 1 d . . .
H11 H 0.1034 0.7357 0.0216 0.081 Uiso 1 1 calc R . .
O12 O 0.77609(14) 0.70885(11) 0.11293(8) 0.0642(6) Uani 1 1 d U . .
O13 O 0.60584(18) 0.42667(12) 0.06430(9) 0.0812(7) Uani 1 1 d . . .
C14 C 0.6632(2) 0.51714(15) 0.08543(10) 0.0555(8) Uani 1 1 d . . .
O15 O 0.81261(16) 0.65809(14) 0.05240(9) 0.0856(8) Uani 1 1 d U . .
C16 C 0.6184(2) 0.52417(14) 0.12498(9) 0.0531(7) Uani 1 1 d . . .
H16 H 0.5826 0.4951 0.1326 0.064 Uiso 1 1 calc R . .
C17 C 0.62673(18) 0.57336(15) 0.15244(10) 0.0524(7) Uani 1 1 d . . .
O18 O 0.11290(17) 0.36870(11) 0.44189(10) 0.0824(7) Uani 1 1 d . . .
C19 C 0.63585(16) 0.66125(14) 0.40632(10) 0.0493(7) Uani 1 1 d . . .
H19 H 0.6631 0.6327 0.3899 0.059 Uiso 1 1 calc R . .
C20 C 0.2542(2) 0.7244(2) 0.01307(14) 0.0736(11) Uani 1 1 d . . .
C21 C 0.67851(17) 0.61669(16) 0.14067(10) 0.0520(7) Uani 1 1 d . . .
H21 H 0.6831 0.6502 0.1592 0.062 Uiso 1 1 calc R . .
O22 O 0.19142(16) 0.36023(12) 0.38549(10) 0.0815(8) Uani 1 1 d . . .
O23 O -0.03351(13) 0.74466(12) 0.04471(9) 0.0705(7) Uani 1 1 d . . .
C24 C 0.1092(2) 0.7206(2) 0.13077(11) 0.0773(11) Uani 1 1 d . . .
H24 H 0.0773 0.7195 0.1562 0.093 Uiso 1 1 calc R . .
C25 C 0.6531(2) 0.46428(16) 0.05543(11) 0.0626(9) Uani 1 1 d . . .
O26 O 0.32450(13) 0.72802(15) 0.01801(9) 0.0829(8) Uani 1 1 d . . .
C27 C 0.72386(18) 0.61241(16) 0.10255(11) 0.0553(8) Uani 1 1 d . . .
C28 C 0.71669(19) 0.56219(16) 0.07460(11) 0.0580(8) Uani 1 1 d . . .
H28 H 0.7473 0.5584 0.0487 0.070 Uiso 1 1 calc R . .
C29 C 0.57824(17) 0.64315(15) 0.31135(10) 0.0527(8) Uani 1 1 d . . .
H29 H 0.6303 0.6511 0.3143 0.063 Uiso 1 1 calc R . .
O30 O -0.03756(15) 0.55118(12) 0.46518(9) 0.0801(8) Uani 1 1 d . . .
C31 C 0.55037(16) 0.62000(17) 0.27012(10) 0.0526(7) Uani 1 1 d . . .
C32 C 0.10161(17) 0.57203(16) 0.37595(10) 0.0538(8) Uani 1 1 d . . .
H32 H 0.0899 0.6112 0.3681 0.065 Uiso 1 1 calc R . .
C33 C 0.52353(17) 0.72261(16) 0.41628(10) 0.0536(7) Uani 1 1 d . . .
H33 H 0.4751 0.7350 0.4069 0.064 Uiso 1 1 calc R . .
O34 O 0.69488(16) 0.45899(13) 0.02034(9) 0.0830(8) Uani 1 1 d . . .
O35 O 0.4215(2) 0.55597(17) 0.42612(11) 0.1122(12) Uani 1 1 d . . .
C36 C 0.16392(18) 0.54519(15) 0.35593(10) 0.0517(7) Uani 1 1 d . . .
C37 C 0.20305(18) 0.72316(19) 0.05496(11) 0.0652(9) Uani 1 1 d . . .
C38 C 0.17839(17) 0.48593(16) 0.36661(11) 0.0572(8) Uani 1 1 d . . .
H38 H 0.2191 0.4663 0.3527 0.069 Uiso 1 1 calc R . .
C39 C 0.66826(16) 0.68557(14) 0.44511(10) 0.0492(7) Uani 1 1 d . . .
C40 C 0.07785(18) 0.73302(19) 0.08836(12) 0.0638(9) Uani 1 1 d . . .
C41 C 0.56275(16) 0.67840(15) 0.39087(10) 0.0485(7) Uani 1 1 d . . .
O42 O 0.29969(19) 0.62402(18) 0.43153(11) 0.1115(11) Uani 1 1 d . . .
C43 C 0.07353(18) 0.48408(16) 0.41789(11) 0.0568(8) Uani 1 1 d . . .
H43 H 0.0441 0.4637 0.4393 0.068 Uiso 1 1 calc R . .
C44 C 0.57397(18) 0.58197(16) 0.19307(10) 0.0560(8) Uani 1 1 d . . .
C46 C 0.45151(18) 0.64148(14) 0.34244(10) 0.0491(7) Uani 1 1 d . . .
C47 C 0.62884(17) 0.72971(16) 0.46973(11) 0.0572(8) Uani 1 1 d . . .
H47 H 0.6506 0.7469 0.4956 0.069 Uiso 1 1 calc R . .
C48 C 0.60115(17) 0.60713(14) 0.23297(10) 0.0521(8) Uani 1 1 d . . .
H48 H 0.6531 0.6158 0.2358 0.062 Uiso 1 1 calc R . .
C49 C 0.44596(18) 0.57750(19) 0.22460(11) 0.0665(10) Uani 1 1 d . . .
H49 H 0.3949 0.5660 0.2221 0.080 Uiso 1 1 calc R . .
C50 C 0.53013(16) 0.65441(15) 0.34774(10) 0.0488(7) Uani 1 1 d . . .
C1 C 0.13368(18) 0.45597(15) 0.39734(10) 0.0557(8) Uani 1 1 d . . .
C2 C 0.05585(18) 0.54294(15) 0.40718(11) 0.0542(8) Uani 1 1 d . . .
C3 C -0.00628(19) 0.74343(16) 0.08383(13) 0.0598(9) Uani 1 1 d . . .
C4 C 0.21723(18) 0.63829(19) 0.25233(11) 0.0648(10) Uani 1 1 d . . .
C6 C 0.55580(17) 0.74748(15) 0.45451(12) 0.0569(8) Uani 1 1 d . . .
C8 C -0.01100(18) 0.57464(16) 0.43030(13) 0.0579(8) Uani 1 1 d U . .
C9 C 0.74575(18) 0.66603(16) 0.46123(11) 0.0548(8) Uani 1 1 d . . .
C10 C 0.47221(17) 0.60628(16) 0.26531(10) 0.0553(8) Uani 1 1 d . . .
C12 C 0.17564(18) 0.60471(17) 0.28458(11) 0.0627(9) Uani 1 1 d . . .
H12 H 0.1231 0.5998 0.2806 0.075 Uiso 1 1 calc R . .
C13 C 0.3355(2) 0.68494(18) 0.22868(12) 0.0692(10) Uani 1 1 d . . .
H13 H 0.3860 0.6959 0.2345 0.083 Uiso 1 1 calc R . .
C15 C 0.29915(18) 0.64657(18) 0.25879(11) 0.0632(10) Uani 1 1 d . . .
C18 C 0.5137(2) 0.79602(18) 0.48076(14) 0.0739(11) Uani 1 1 d U . .
C1A C 0.23394(19) 0.71324(19) 0.09682(12) 0.0711(11) Uani 1 1 d . . .
H1A H 0.2868 0.7088 0.0995 0.085 Uiso 1 1 calc R . .
C1B C 0.18223(19) 0.6608(2) 0.21204(12) 0.0735(11) Uani 1 1 d . . .
H1B H 0.1305 0.6535 0.2069 0.088 Uiso 1 1 calc R . .
C1C C 0.29163(17) 0.58503(16) 0.32651(10) 0.0531(8) Uani 1 1 d . . .
C1D C 0.77528(18) 0.66320(19) 0.08837(12) 0.0622(9) Uani 1 1 d U . .
C1E C 0.21056(17) 0.57903(16) 0.32188(11) 0.0544(8) Uani 1 1 d . . .
C1F C 0.49519(19) 0.56678(18) 0.18941(11) 0.0627(9) Uani 1 1 d . . .
H1F H 0.4770 0.5493 0.1627 0.075 Uiso 1 1 calc R . .
C1G C 0.2226(2) 0.6928(2) 0.18094(12) 0.0698(10) Uani 1 1 d . . .
C1H C 0.29962(19) 0.7075(2) 0.19033(13) 0.0742(12) Uani 1 1 d . . .
H1H H 0.3264 0.7325 0.1706 0.089 Uiso 1 1 calc R . .
O21 O 0.5519(2) 0.8331(2) 0.50081(19) 0.177(2) Uani 1 1 d U . .
C22 C 0.18773(18) 0.7094(2) 0.13647(12) 0.0777(13) Uani 1 1 d . . .
C23 C 0.1479(2) 0.39098(15) 0.40889(13) 0.0623(9) Uani 1 1 d . . .

loop_
_atom_site_aniso_label
_atom_site_aniso_U_11
_atom_site_aniso_U_22
_atom_site_aniso_U_33
_atom_site_aniso_U_23
_atom_site_aniso_U_13
_atom_site_aniso_U_12
Cd1 0.03756(10) 0.05086(11) 0.04659(10) -0.00203(9) -0.00272(8) 0.00250(9)
Cd2 0.04004(11) 0.06717(14) 0.06038(13) 0.00801(12) 0.00030(10) -0.00744(10)
P3 0.0699(7) 0.1072(8) 0.0568(6) -0.0003(5) 0.0051(4) -0.0094(5)
O1 0.0410(12) 0.0926(17) 0.0549(12) 0.0000(14) -0.0081(10) 0.0219(12)
O2 0.0563(15) 0.122(2) 0.0560(15) 0.0170(15) 0.0090(12) 0.0068(14)
O3 0.0523(14) 0.0836(17) 0.094(2) -0.0301(15) -0.0374(13) 0.0128(11)
O4 0.0574(16) 0.0591(14) 0.0759(16) -0.0125(11) 0.0060(11) 0.0133(11)
C5 0.0388(16) 0.080(2) 0.0375(15) -0.0034(16) -0.0023(11) -0.0018(15)
O6 0.0727(19) 0.097(2) 0.114(2) 0.015(2) 0.0285(15) 0.0279(17)
C7 0.0329(15) 0.084(2) 0.0483(16) 0.0040(16) -0.0006(12) -0.0056(16)
O8 0.0420(14) 0.130(3) 0.0772(17) 0.0232(16) 0.0059(12) 0.0025(13)
O9 0.0404(12) 0.0882(16) 0.0513(12) -0.0067(11) 0.0105(9) 0.0035(10)
O10 0.0483(13) 0.0650(14) 0.0553(13) 0.0057(10) 0.0018(10) -0.0005(10)
C11 0.0475(19) 0.103(3) 0.0516(18) 0.0253(18) -0.0017(15) -0.0021(19)
O12 0.0635(15) 0.0662(16) 0.0630(15) 0.0060(12) 0.0035(11) -0.0158(11)
O13 0.111(2) 0.0687(16) 0.0635(15) -0.0151(13) -0.0034(16) -0.0175(16)
C14 0.058(2) 0.065(2) 0.0436(16) 0.0004(14) 0.0022(14) 0.0063(16)
O15 0.0823(19) 0.104(2) 0.0706(18) 0.0020(15) 0.0295(14) -0.0235(15)
C16 0.0546(18) 0.0594(19) 0.0454(16) -0.0014(14) 0.0043(15) -0.0073(15)
C17 0.0461(18) 0.066(2) 0.0450(16) -0.0034(14) 0.0051(13) -0.0043(15)
O18 0.0948(19) 0.0538(14) 0.0987(19) 0.0109(14) 0.0175(17) 0.0120(14)
C19 0.0391(18) 0.0615(19) 0.0473(17) -0.0068(14) 0.0010(12) 0.0052(13)
C20 0.051(2) 0.099(3) 0.071(3) 0.034(2) 0.0059(17) 0.0107(19)
C21 0.0502(18) 0.0589(19) 0.0470(16) -0.0005(15) 0.0030(12) -0.0036(14)
O22 0.0778(18) 0.0689(18) 0.098(2) -0.0066(14) 0.0120(15) 0.0202(13)
O23 0.0451(13) 0.095(2) 0.0718(16) 0.0001(13) -0.0081(12) 0.0029(11)
C24 0.048(2) 0.130(3) 0.0538(19) 0.023(2) -0.0011(16) -0.014(2)
C25 0.073(2) 0.066(2) 0.048(2) -0.0016(16) -0.0159(17) 0.010(2)
O26 0.0478(16) 0.128(2) 0.0730(17) 0.0197(17) 0.0097(11) -0.0063(14)
C27 0.0483(18) 0.066(2) 0.0517(18) -0.0012(16) 0.0010(13) -0.0090(15)
C28 0.055(2) 0.067(2) 0.0513(19) -0.0026(16) 0.0108(14) 0.0073(15)
C29 0.0287(15) 0.078(2) 0.0511(18) -0.0065(15) -0.0019(12) 0.0004(13)
O30 0.0795(19) 0.0729(17) 0.0878(18) -0.0033(14) 0.0438(15) 0.0069(13)
C31 0.0327(15) 0.080(2) 0.0456(16) -0.0032(17) 0.0079(12) -0.0070(15)
C32 0.0407(18) 0.066(2) 0.0549(18) 0.0052(15) 0.0082(13) 0.0070(14)
C33 0.0410(16) 0.070(2) 0.0502(17) -0.0035(16) -0.0061(13) 0.0077(15)
O34 0.0808(19) 0.100(2) 0.0684(18) -0.0329(15) 0.0024(14) 0.0062(15)
O35 0.119(3) 0.132(3) 0.085(2) 0.023(2) -0.0425(19) -0.014(2)
C36 0.0371(17) 0.070(2) 0.0480(17) 0.0018(15) 0.0030(13) 0.0030(14)
C37 0.0446(19) 0.101(3) 0.050(2) 0.0141(19) 0.0038(14) -0.0046(18)
C38 0.0416(18) 0.072(2) 0.0576(19) -0.0078(17) 0.0049(13) 0.0056(14)
C39 0.0349(16) 0.0591(18) 0.0535(18) -0.0022(14) -0.0047(13) 0.0012(13)
C40 0.0360(17) 0.094(3) 0.061(2) 0.0128(19) -0.0074(14) -0.0018(16)
C41 0.0284(15) 0.065(2) 0.0519(18) -0.0011(15) -0.0038(12) 0.0014(13)
O42 0.115(2) 0.134(3) 0.086(2) -0.029(2) 0.0454(18) -0.032(2)
C43 0.0500(19) 0.068(2) 0.0522(19) 0.0021(16) 0.0105(14) -0.0046(15)
C44 0.0485(19) 0.074(2) 0.0454(18) -0.0016(16) 0.0075(13) -0.0100(15)
C46 0.0478(18) 0.0572(19) 0.0422(16) 0.0004(13) -0.0052(13) 0.0057(13)
C47 0.0484(18) 0.0624(19) 0.0608(18) -0.0131(16) -0.0065(14) -0.0006(15)
C48 0.0354(17) 0.073(2) 0.0476(16) -0.0093(14) 0.0038(12) -0.0043(13)
C49 0.0367(18) 0.116(3) 0.0463(18) -0.0100(19) 0.0026(13) -0.0194(18)
C50 0.0328(16) 0.075(2) 0.0389(16) -0.0025(14) 0.0010(12) 0.0083(13)
C1 0.051(2) 0.069(2) 0.0476(17) 0.0029(15) -0.0006(13) 0.0008(14)
C2 0.0427(18) 0.067(2) 0.0526(18) -0.0101(16) 0.0100(14) -0.0044(14)
C3 0.0456(19) 0.064(2) 0.070(2) 0.0076(17) -0.0022(18) 0.0007(14)
C4 0.0354(17) 0.112(3) 0.0469(18) 0.0057(18) -0.0030(13) -0.0055(16)
C6 0.0373(17) 0.069(2) 0.065(2) -0.0098(16) -0.0028(14) 0.0082(14)
C8 0.0442(18) 0.061(2) 0.068(2) -0.0025(18) 0.0070(16) -0.0037(15)
C9 0.0438(18) 0.064(2) 0.057(2) 0.0069(16) -0.0078(15) -0.0070(15)
C10 0.0401(17) 0.087(3) 0.0383(16) -0.0046(15) 0.0006(12) -0.0039(15)
C12 0.0349(18) 0.095(3) 0.058(2) 0.0