
#######################################################################
#
#                 Cambridge Crystallographic Data Centre
#                                CCDC
#
#######################################################################
#
# If this CIF has been generated from an entry in the Cambridge
# Structural Database, then it will include bibliographic, chemical,
# crystal, experimental, refinement or atomic coordinate data resulting
# from the CCDC's data processing and validation procedures.
#
#######################################################################

data_CSD_CIF_SIMLIJ
_audit_creation_date 1991-07-31
_audit_creation_method CSD-ConQuest-V1
_database_code_CSD SIMLIJ
_database_code_depnum_ccdc_archive 'CCDC 1259479'
_chemical_formula_sum 'C28 H66 Be1 Cl12 N14 Zr6'
_chemical_formula_moiety
;
C12 H42 Be1 Cl12 N6 Zr6,8(C2 H3 N1)
;
_journal_coden_Cambridge 4
_journal_volume 112
_journal_year 1990
_journal_page_first 8198
_journal_name_full 'J.Am.Chem.Soc. '
loop_
_publ_author_name
"F.Rogel"
"J.D.Corbett"
_chemical_name_systematic
;
(\m~6~-Beryllium)-dodecakis(\m~2~-chloro)-hexakis((ethylamine-N)-zirconium) 
acetonitrile solvate
;
_chemical_name_common
;
Teaching Subset: Fundamental Chemistry, Symmetry
;
_cell_volume   3069.176
_exptl_crystal_colour 'red'
_exptl_crystal_density_diffrn 1.71
_diffrn_ambient_temperature 213.15
#These two values have been output from a single CSD field.
_refine_ls_R_factor_gt 0.041
_refine_ls_wR_factor_gt 0.041
_symmetry_cell_setting monoclinic
_symmetry_space_group_name_H-M 'P 21/n'
_symmetry_Int_Tables_number 14
loop_
_symmetry_equiv_pos_site_id
_symmetry_equiv_pos_as_xyz
1 x,y,z
2 1/2-x,1/2+y,1/2-z
3 -x,-y,-z
4 -1/2+x,-1/2-y,-1/2+z
_cell_length_a 13.115(6)
_cell_length_b 17.667(5)
_cell_length_c 13.248(4)
_cell_angle_alpha 90
_cell_angle_beta 90.95(3)
_cell_angle_gamma 90
_cell_formula_units_Z 2
loop_
_atom_type_symbol
_atom_type_radius_bond
C 0.68
H 0.23
Be 0.38
Cl 0.99
N 0.68
Zr 1.56
loop_
_atom_site_label
_atom_site_type_symbol
_atom_site_fract_x
_atom_site_fract_y
_atom_site_fract_z
Be1 Be 1.00000 0.00000 1.00000
Zr1 Zr 0.93659(4) 0.00950(2) 0.83517(3)
Zr2 Zr 0.99995(4) -0.13122(2) 0.98556(3)
Zr3 Zr 0.83436(3) -0.00385(2) 1.06031(3)
Cl1 Cl 0.9301(1) -0.13433(7) 0.80249(8)
Cl2 Cl 0.7475(1) 0.00607(7) 0.88477(8)
Cl3 Cl 0.8177(1) -0.14950(7) 1.05220(8)
Cl4 Cl 0.9295(1) 0.15593(7) 0.83447(8)
Cl5 Cl 1.1128(1) 0.01373(7) 0.75199(8)
Cl6 Cl 1.1833(1) -0.14116(7) 0.91920(9)
N1 N 0.876(4) 0.0203(3) 0.6609(3)
C1 C 0.7887(6) -0.0230(4) 0.6218(4)
C2 C 0.7720(6) -0.0145(4) 0.5095(4)
N2 N 0.9920(4) -0.2667(2) 0.9554(3)
C3 C 1.0078(7) -0.3232(4) 1.0342(5)
C4 C 0.9889(8) -0.4018(4) 1.0011(5)
N3 N 0.6598(4) -0.0134(3) 1.1192(3)
C5 C 0.6228(5) 0.0343(4) 1.2009(5)
C6 C 0.5105(5) 0.0201(5) 1.2219(5)
H1 H 0.85790 0.07930 0.64930
H2 H 0.94020 0.00510 0.61440
H3 H 0.80120 -0.08220 0.63850
H4 H 0.72110 -0.00380 0.65950
H5 H 0.75850 0.04430 0.49170
H6 H 0.83880 -0.03400 0.47060
H7 H 0.70680 -0.04780 0.48590
H8 H 0.91690 -0.27750 0.92400
H9 H 1.04860 -0.27840 0.89910
H10 H 1.08580 -0.31920 1.06110
H11 H 0.95690 -0.31060 1.09530
H12 H 0.91070 -0.40740 0.97530
H13 H 1.03940 -0.41570 0.94020
H14 H 1.00280 -0.44000 1.06350
H15 H 0.61080 -0.00220 1.05460
H16 H 0.64950 -0.07120 1.14340
H17 H 0.66700 0.02250 1.26860
H18 H 0.63260 0.09300 1.18020
H19 H 0.48660 0.05620 1.28290
H20 H 0.46560 0.03250 1.15490
H21 H 0.49990 -0.03840 1.24280
N4 N 0.2456(5) 0.3155(4) 0.1160(4)
C7 C 0.2880(5) 0.2628(3) 0.1373(4)
C8 C 0.3451(6) 0.1954(4) 0.1644(5)
N5 N 0.9975(5) 0.1251(5) 0.4822(5)
C9 C 0.9340(6) 0.1486(4) 0.4313(5)
C10 C 0.8511(7) 0.1798(4) 0.3661(5)
N6 N 0.5150(6) 0.1310(5) 0.9846(5)
C11 C 0.5689(6) 0.1606(5) 0.9306(6)
C12 C 0.6425(8) 0.1997(6) 0.8633(7)
N7 N 0.3438(6) 0.1604(4) 0.6995(5)
C13 C 0.2606(7) 0.1794(4) 0.6877(5)
C14 C 0.1540(6) 0.2041(4) 0.6734(6)
Zr1B Zr 1.06341(4) -0.00950(2) 1.16483(3)
Zr2B Zr 1.00005(4) 0.13122(2) 1.01444(3)
Zr3B Zr 1.16564(3) 0.00385(2) 0.93969(3)
Cl4B Cl 1.0705(1) -0.15593(7) 1.16553(8)
Cl5B Cl 0.8872(1) -0.01373(7) 1.24801(8)
Cl6B Cl 0.8167(1) 0.14116(7) 1.08080(9)
Cl1B Cl 1.0699(1) 0.13433(7) 1.19751(8)
Cl2B Cl 1.2525(1) -0.00607(7) 1.11523(8)
N1B N 1.124(4) -0.0203(3) 1.3391(3)
Cl3B Cl 1.1823(1) 0.14950(7) 0.94780(8)
N2B N 1.0080(4) 0.2667(2) 1.0446(3)
N3B N 1.3402(4) 0.0134(3) 0.8808(3)
C1B C 1.2113(6) 0.0230(4) 1.3782(4)
H1B H 1.14210 -0.07930 1.35070
H2B H 1.05980 -0.00510 1.38560
C3B C 0.9922(7) 0.3232(4) 0.9658(5)
H8B H 1.08310 0.27750 1.07600
H9B H 0.95140 0.27840 1.10090
C5B C 1.3772(5) -0.0343(4) 0.7991(5)
H15B H 1.38920 0.00220 0.94540
H16B H 1.35050 0.07120 0.85660
C2B C 1.2280(6) 0.0145(4) 1.4905(4)
H3B H 1.19880 0.08220 1.36150
H4B H 1.27890 0.00380 1.34050
C4B C 1.0111(8) 0.4018(4) 0.9989(5)
H10B H 0.91420 0.31920 0.93890
H11B H 1.04310 0.31060 0.90470
C6B C 1.4895(5) -0.0201(5) 0.7781(5)
H17B H 1.33300 -0.02250 0.73140
H18B H 1.36740 -0.09300 0.81980
H5B H 1.24150 -0.04430 1.50830
H6B H 1.16120 0.03400 1.52940
H7B H 1.29320 0.04780 1.51410
H12B H 1.08930 0.40740 1.02470
H13B H 0.96060 0.41570 1.05980
H14B H 0.99720 0.44000 0.93650
H19B H 1.51340 -0.05620 0.71710
H20B H 1.53440 -0.03250 0.84510
H21B H 1.50010 0.03840 0.75720
#END
