
#######################################################################
#
#                 Cambridge Crystallographic Data Centre
#                                CCDC
#
#######################################################################
#
# If this CIF has been generated from an entry in the Cambridge
# Structural Database, then it will include bibliographic, chemical,
# crystal, experimental, refinement or atomic coordinate data resulting
# from the CCDC's data processing and validation procedures.
#
#######################################################################

data_CSD_CIF_SIMPEJ
_audit_creation_date 1991-07-31
_audit_creation_method CSD-ConQuest-V1
_database_code_CSD SIMPEJ
_database_code_depnum_ccdc_archive 'CCDC 1259503'
_chemical_formula_sum 'C9 H11 N1 O2'
_chemical_formula_moiety
;
C9 H11 N1 O2
;
_journal_coden_Cambridge 4
_journal_volume 112
_journal_year 1990
_journal_page_first 7718
_journal_name_full 'J.Am.Chem.Soc. '
loop_
_publ_author_name
"I.Weissbuch"
"F.Frolow"
"L.Addadi"
"M.Lahav"
"L.Leiserowitz"
_chemical_name_systematic
;
(R)-Phenylalanine
;
_chemical_name_common
;
Teaching Subset: Fundamental Chemistry
;
_cell_volume   1667.605
_exptl_crystal_density_diffrn 1.32
_diffrn_ambient_temperature ?
_diffrn_special_details
;
The study was carried out at room temperature,in the range 283-303K

;
_refine_special_details
;
Orientational disorder of the phenyl rings.

;
#These two values have been output from a single CSD field.
_refine_ls_R_factor_gt 0.1472
_refine_ls_wR_factor_gt 0.1472
loop_
_citation_database_id_CSD
_citation_special_details
QQQAUJ "is a stereoisomer of this entry"
QQQASG "is a racemate of this entry"
_symmetry_cell_setting monoclinic
_symmetry_space_group_name_H-M 'C 2'
_symmetry_Int_Tables_number 5
loop_
_symmetry_equiv_pos_site_id
_symmetry_equiv_pos_as_xyz
1 x,y,z
2 1/2+x,1/2+y,z
3 -x,y,-z
4 1/2-x,1/2+y,-z
_cell_length_a 8.804
_cell_length_b 6.041
_cell_length_c 31.564
_cell_angle_alpha 90
_cell_angle_beta 96.6
_cell_angle_gamma 90
_cell_formula_units_Z 8
loop_
_atom_type_symbol
_atom_type_radius_bond
C 0.68
H 0.23
N 0.68
O 0.68
loop_
_atom_site_label
_atom_site_type_symbol
_atom_site_fract_x
_atom_site_fract_y
_atom_site_fract_z
O1 O 0.4474(13) 0.3201(36) 0.4511(4)
O2 O 0.5922(11) 0.6309(35) 0.4560(4)
N1 N 0.2054(14) 0.5881(42) 0.4691(5)
C1 C 0.4706(14) 0.536(5) 0.4482(5)
C2 C 0.3128(17) 0.66140 0.4388(5)
C3 C 0.2475(19) 0.6349(46) 0.3955(5)
C4 C 0.3382(15) 0.7048(44) 0.3595(4)
C5 C 0.3998(15) 0.5433(44) 0.3348(4)
C6 C 0.4811(15) 0.6055(44) 0.3013(4)
C7 C 0.5008(15) 0.8292(44) 0.2924(4)
C8 C 0.4392(15) 0.9907(44) 0.3170(4)
C9 C 0.3579(15) 0.9284(44) 0.3505(4)
H1 H 0.3050(14) 0.6220(42) 0.4915(5)
H2 H 0.1725(14) 0.4170(42) 0.4719(5)
H3 H 0.1124(14) 0.6939(42) 0.4760(5)
H4 H 0.3352(17) 0.83570 0.4438(5)
H5 H 0.2200(19) 0.4619(46) 0.3906(5)
H6 H 0.1434(19) 0.7312(46) 0.3919(5)
H7 H 0.3846(15) 0.3701(44) 0.3417(4)
H8 H 0.5288(15) 0.4805(44) 0.2822(4)
H9 H 0.5637(15) 0.8774(44) 0.2665(4)
H10 H 0.4545(15) 1.1638(44) 0.3102(4)
H11 H 0.3103(15) 1.0534(44) 0.3696(4)
O3 O 0.1293(10) 0.0075(34) 0.0448(3)
O4 O -0.0106(10) 0.3150(35) 0.0496(4)
N2 N -0.267(1) 0.0514(35) 0.0319(5)
C10 C 0.0033(17) 0.0991(41) 0.0498(5)
C11 C -0.1319(14) -0.0248(36) 0.0587(6)
C12 C -0.1706(15) 0.0037(48) 0.1060(5)
C13 C -0.0486(12) -0.0681(39) 0.1401(4)
C14 C 0.0447(12) 0.0875(39) 0.1631(4)
C15 C 0.1563(12) 0.0181(39) 0.1954(4)
C16 C 0.1745(12) -0.2067(39) 0.2047(4)
C17 C 0.0812(12) -0.3622(39) 0.1817(4)
C18 C -0.0303(12) -0.2929(39) 0.1494(4)
H12 H -0.3691(10) -0.0303(35) 0.0399(5)
H13 H -0.2683(10) 0.0561(35) -0.0024(5)
H14 H -0.2633(10) 0.2182(35) 0.0442(5)
H15 H -0.1036(14) -0.1951(36) 0.0527(6)
H16 H -0.2722(15) -0.0918(48) 0.1093(5)
H17 H -0.1931(15) 0.1767(48) 0.1112(5)
H18 H 0.0306(12) 0.2616(39) 0.1559(4)
H19 H 0.2285(12) 0.1386(39) 0.2131(4)
H20 H 0.2609(12) -0.2604(39) 0.2296(4)
H21 H 0.0953(12) -0.5363(39) 0.1889(4)
H22 H -0.1026(12) -0.4133(39) 0.1316(4)
#END
