####################################################################### 
# 
# This file contains crystal structure data downloaded from the 
# Cambridge Structural Database (CSD) hosted by the Cambridge 
# Crystallographic Data Centre (CCDC).
# 
# Full information about CCDC data access policies and citation 
# guidelines are available at http://www.ccdc.cam.ac.uk/access/V1 
# 
# Audit and citation data items may have been added by the CCDC. 
# Please retain this information to preserve the provenance of 
# this file and to allow appropriate attribution of the data. 
# 
#######################################################################

data_g
_audit_block_doi                 10.5517/cc9tpg7
_database_code_depnum_ccdc_archive 'CCDC 292809'
loop_
_citation_id
_citation_doi
_citation_year
1 10.1016/j.poly.2007.07.048 2007
_audit_update_record             
;
2005-12-13 deposited with the CCDC.	2024-07-12 downloaded from the CCDC.
;

_audit_creation_method           SHELXL-97
_chemical_name_systematic        
;
?
;
_chemical_name_common            ?
_chemical_melting_point          ?
_chemical_formula_moiety         ?
_chemical_formula_sum            'C28 H22 Cd N2 O9'
_chemical_formula_weight         642.88

loop_
_atom_type_symbol
_atom_type_description
_atom_type_scat_dispersion_real
_atom_type_scat_dispersion_imag
_atom_type_scat_source
C C 0.0033 0.0016 'International Tables Vol C Tables 4.2.6.8 and 6.1.1.4'
Cd Cd -0.8075 1.2024 'International Tables Vol C Tables 4.2.6.8 and 6.1.1.4'
N N 0.0061 0.0033 'International Tables Vol C Tables 4.2.6.8 and 6.1.1.4'
O O 0.0106 0.0060 'International Tables Vol C Tables 4.2.6.8 and 6.1.1.4'
H H 0.0000 0.0000 'International Tables Vol C Tables 4.2.6.8 and 6.1.1.4'

_symmetry_cell_setting           Monoclinic
_symmetry_space_group_name_H-M   C2

loop_
_symmetry_equiv_pos_as_xyz
'x, y, z'
'-x, y, -z'
'x+1/2, y+1/2, z'
'-x+1/2, y+1/2, -z'
'-x, -y, -z'
'x, -y, z'
'-x+1/2, -y+1/2, -z'
'x+1/2, -y+1/2, z'

_cell_length_a                   12.9512(10)
_cell_length_b                   31.835(2)
_cell_length_c                   8.6952(7)
_cell_angle_alpha                90.00
_cell_angle_beta                 100.022(2)
_cell_angle_gamma                90.00
_cell_volume                     3530.3(5)
_cell_formula_units_Z            4
_cell_measurement_temperature    273(2)
_cell_measurement_reflns_used    ?
_cell_measurement_theta_min      ?
_cell_measurement_theta_max      ?

_exptl_crystal_description       ?
_exptl_crystal_colour            ?
_exptl_crystal_size_max          ?
_exptl_crystal_size_mid          ?
_exptl_crystal_size_min          ?
_exptl_crystal_density_meas      0
_exptl_crystal_density_diffrn    1.210
_exptl_crystal_density_method    'not measured'
_exptl_crystal_F_000             1296
_exptl_absorpt_coefficient_mu    0.663
_exptl_absorpt_correction_type   none
_exptl_absorpt_correction_T_min  ?
_exptl_absorpt_correction_T_max  ?
_exptl_absorpt_process_details   ?

_exptl_special_details           
;
?
;

_diffrn_ambient_temperature      273(2)
_diffrn_radiation_wavelength     0.71073
_diffrn_radiation_type           MoK\a
_diffrn_radiation_source         'fine-focus sealed tube'
_diffrn_radiation_monochromator  graphite
_diffrn_measurement_device_type  'CCD area detector'
_diffrn_measurement_method       'phi and omega scans'
_diffrn_detector_area_resol_mean ?
_diffrn_standards_number         ?
_diffrn_standards_interval_count ?
_diffrn_standards_interval_time  ?
_diffrn_standards_decay_%        ?
_diffrn_reflns_number            3805
_diffrn_reflns_av_R_equivalents  0.0456
_diffrn_reflns_av_sigmaI/netI    0.0444
_diffrn_reflns_limit_h_min       -11
_diffrn_reflns_limit_h_max       12
_diffrn_reflns_limit_k_min       -23
_diffrn_reflns_limit_k_max       30
_diffrn_reflns_limit_l_min       -8
_diffrn_reflns_limit_l_max       8
_diffrn_reflns_theta_min         2.38
_diffrn_reflns_theta_max         20.00
_reflns_number_total             1695
_reflns_number_gt                1440
_reflns_threshold_expression     >2sigma(I)

_computing_data_collection       'Bruker SMART'
_computing_cell_refinement       'Bruker SMART'
_computing_data_reduction        'Bruker SAINT'
_computing_structure_solution    'SHELXS-97 (Sheldrick, 1990)'
_computing_structure_refinement  'SHELXL-97 (Sheldrick, 1997)'
_computing_molecular_graphics    'Bruker SHELXTL'
_computing_publication_material  'Bruker SHELXTL'

_refine_special_details          
;
Refinement of F^2^ against ALL reflections. The weighted R-factor wR and
goodness of fit S are based on F^2^, conventional R-factors R are based
on F, with F set to zero for negative F^2^. The threshold expression of
F^2^ > 2sigma(F^2^) is used only for calculating R-factors(gt) etc. and is
not relevant to the choice of reflections for refinement. R-factors based
on F^2^ are statistically about twice as large as those based on F, and R-
factors based on ALL data will be even larger.
;

_refine_ls_structure_factor_coef Fsqd
_refine_ls_matrix_type           full
_refine_ls_weighting_scheme      calc
_refine_ls_weighting_details     
'calc w=1/[\s^2^(Fo^2^)+(0.1105P)^2^+20.4932P] where P=(Fo^2^+2Fc^2^)/3'
_atom_sites_solution_primary     direct
_atom_sites_solution_secondary   difmap
_atom_sites_solution_hydrogens   geom
_refine_ls_hydrogen_treatment    mixed
_refine_ls_extinction_method     SHELXL
_refine_ls_extinction_coef       0.0013(4)
_refine_ls_extinction_expression Fc^*^=kFc[1+0.001xFc^2^\l^3^/sin(2\q)]^-1/4^
_refine_ls_number_reflns         1695
_refine_ls_number_parameters     200
_refine_ls_number_restraints     0
_refine_ls_R_factor_all          0.0731
_refine_ls_R_factor_gt           0.0609
_refine_ls_wR_factor_ref         0.1814
_refine_ls_wR_factor_gt          0.1680
_refine_ls_goodness_of_fit_ref   1.159
_refine_ls_restrained_S_all      1.159
_refine_ls_shift/su_max          0.000
_refine_ls_shift/su_mean         0.000

loop_
_atom_site_label
_atom_site_type_symbol
_atom_site_fract_x
_atom_site_fract_y
_atom_site_fract_z
_atom_site_U_iso_or_equiv
_atom_site_adp_type
_atom_site_occupancy
_atom_site_symmetry_multiplicity
_atom_site_calc_flag
_atom_site_refinement_flags
_atom_site_disorder_assembly
_atom_site_disorder_group
Cd Cd 0.14991(7) 0.0000 0.54375(10) 0.0398(6) Uani 1 2 d S . .
O1 O -0.0069(7) 0.0000 0.6591(10) 0.048(2) Uani 1 2 d S . .
O2 O 0.1404(8) 0.0000 0.8269(10) 0.054(3) Uani 1 2 d S . .
O3 O 0.2742(8) 0.0000 0.3661(13) 0.069(3) Uani 1 2 d S . .
O4 O 0.3343(7) 0.0000 0.6179(13) 0.064(3) Uani 1 2 d S . .
O5 O 0.1219(7) 0.1801(3) 0.8868(9) 0.079(2) Uani 1 1 d . . .
O7 O 0.2771(16) 0.0573(6) 0.108(2) 0.242(9) Uani 1 1 d . . .
O6 O 0.411(2) 0.0361(13) 0.911(3) 0.23(2) Uani 0.50 1 d P . .
N1 N 0.1485(6) 0.0723(2) 0.5450(9) 0.045(2) Uani 1 1 d . . .
C1 C 0.0425(12) 0.0000 0.7970(16) 0.045(4) Uani 1 2 d S . .
C2 C -0.0196(11) 0.0000 0.9275(15) 0.053(4) Uani 1 2 d S . .
H2A H -0.0923 0.0000 0.9005 0.064 Uiso 1 2 calc SR . .
C3 C 0.3463(12) 0.0000 0.4818(18) 0.048(4) Uani 1 2 d S . .
C4 C 0.4599(10) 0.0000 0.4499(17) 0.061(4) Uani 1 2 d S . .
H4A H 0.4687 0.0000 0.3460 0.073 Uiso 1 2 calc SR . .
C5 C 0.1749(8) 0.0934(4) 0.6822(13) 0.058(3) Uani 1 1 d . . .
H5 H 0.1934 0.0776 0.7728 0.069 Uiso 1 1 calc R . .
C6 C 0.1211(9) 0.0947(4) 0.4168(12) 0.059(3) Uani 1 1 d . . .
H6 H 0.1032 0.0810 0.3215 0.071 Uiso 1 1 calc R . .
C7 C 0.1184(11) 0.1386(4) 0.4204(14) 0.085(4) Uani 1 1 d . . .
H7 H 0.0984 0.1538 0.3288 0.102 Uiso 1 1 calc R . .
C8 C 0.1460(10) 0.1591(4) 0.5621(15) 0.085(4) Uani 1 1 d . . .
H8 H 0.1439 0.1883 0.5659 0.102 Uiso 1 1 calc R . .
C9 C 0.1762(9) 0.1366(4) 0.6965(12) 0.065(3) Uani 1 1 d . . .
C10 C 0.2090(11) 0.1575(4) 0.8518(13) 0.077(4) Uani 1 1 d . . .
H10A H 0.2313 0.1366 0.9318 0.092 Uiso 1 1 calc R . .
H10B H 0.2671 0.1764 0.8478 0.092 Uiso 1 1 calc R . .
C11 C 0.1376(11) 0.2030(4) 1.0255(12) 0.067(4) Uani 1 1 d . . .
C12 C 0.0506(11) 0.2255(4) 1.0548(12) 0.069(3) Uani 1 1 d . . .
C13 C 0.0619(13) 0.2484(4) 1.1917(15) 0.089(4) Uani 1 1 d . . .
H13 H 0.0042 0.2626 1.2162 0.107 Uiso 1 1 calc R . .
C14 C 0.1567(15) 0.2507(5) 1.2936(14) 0.096(5) Uani 1 1 d . . .
H14 H 0.1629 0.2669 1.3837 0.115 Uiso 1 1 calc R . .
C15 C 0.2422(13) 0.2286(4) 1.2597(16) 0.090(4) Uani 1 1 d . . .
H15 H 0.3053 0.2300 1.3293 0.108 Uiso 1 1 calc R . .
C16 C 0.2369(11) 0.2047(4) 1.1269(14) 0.081(4) Uani 1 1 d . . .
H16 H 0.2950 0.1903 1.1043 0.098 Uiso 1 1 calc R . .

loop_
_atom_site_aniso_label
_atom_site_aniso_U_11
_atom_site_aniso_U_22
_atom_site_aniso_U_33
_atom_site_aniso_U_23
_atom_site_aniso_U_13
_atom_site_aniso_U_12
Cd 0.0317(8) 0.0608(8) 0.0283(7) 0.000 0.0092(4) 0.000
O1 0.047(6) 0.075(7) 0.022(6) 0.000 0.004(5) 0.000
O2 0.045(7) 0.094(8) 0.022(5) 0.000 0.007(4) 0.000
O3 0.042(7) 0.116(9) 0.049(7) 0.000 0.010(6) 0.000
O4 0.033(6) 0.113(9) 0.048(7) 0.000 0.016(5) 0.000
O5 0.095(6) 0.082(6) 0.055(5) -0.013(5) 0.000(4) 0.006(5)
O7 0.25(2) 0.27(2) 0.207(17) 0.127(16) 0.047(15) 0.007(16)
O6 0.14(2) 0.46(6) 0.095(17) -0.11(2) -0.007(15) -0.01(3)
N1 0.049(5) 0.053(5) 0.032(5) 0.004(5) 0.005(4) -0.002(4)
C1 0.035(10) 0.065(10) 0.035(11) 0.000 0.005(8) 0.000
C2 0.033(8) 0.097(11) 0.033(8) 0.000 0.013(7) 0.000
C3 0.051(11) 0.067(10) 0.028(10) 0.000 0.012(9) 0.000
C4 0.032(10) 0.111(13) 0.045(10) 0.000 0.022(6) 0.000
C5 0.056(7) 0.064(8) 0.053(8) 0.004(6) 0.009(6) -0.002(6)
C6 0.076(8) 0.065(8) 0.035(7) -0.006(6) 0.006(6) -0.010(6)
C7 0.108(11) 0.085(11) 0.055(9) 0.020(7) -0.004(7) -0.018(8)
C8 0.123(12) 0.065(8) 0.062(9) -0.001(8) 0.001(8) -0.011(7)
C9 0.081(8) 0.068(9) 0.043(8) -0.001(6) 0.004(6) -0.006(6)
C10 0.113(11) 0.064(8) 0.046(8) -0.004(6) -0.008(7) -0.004(8)
C11 0.111(11) 0.050(7) 0.038(7) -0.005(6) 0.007(8) -0.016(7)
C12 0.111(11) 0.056(7) 0.039(8) -0.004(6) 0.008(6) -0.003(7)
C13 0.121(12) 0.101(11) 0.045(8) -0.006(8) 0.013(8) -0.007(9)
C14 0.151(15) 0.100(11) 0.032(7) -0.012(7) 0.001(10) -0.026(11)
C15 0.114(13) 0.089(10) 0.059(10) 0.001(8) -0.008(8) -0.016(9)
C16 0.105(12) 0.082(9) 0.049(8) -0.009(7) -0.009(8) -0.010(7)

_geom_special_details            
;
All esds (except the esd in the dihedral angle between two l.s. planes)
are estimated using the full covariance matrix. The cell esds are taken
into account individually in the estimation of esds in distances, angles
and torsion angles; correlations between esds in cell parameters are only
used when they are defined by crystal symmetry. An approximate (isotropic)
treatment of cell esds is used for estimating esds involving l.s. planes.
;

loop_
_geom_bond_atom_site_label_1
_geom_bond_atom_site_label_2
_geom_bond_distance
_geom_bond_site_symmetry_2
_geom_bond_publ_flag
Cd N1 2.303(8) 6 ?
Cd N1 2.303(8) . ?
Cd O1 2.324(9) 5_556 ?
Cd O4 2.362(9) . ?
Cd O1 2.416(9) . ?
Cd O3 2.417(10) . ?
Cd O2 2.486(8) . ?
O1 C1 1.258(16) . ?
O1 Cd 2.324(9) 5_556 ?
O2 C1 1.249(16) . ?
O3 C3 1.248(16) . ?
O4 C3 1.220(16) . ?
O5 C11 1.394(13) . ?
O5 C10 1.415(15) . ?
N1 C6 1.318(12) . ?
N1 C5 1.359(12) . ?
C1 C2 1.501(19) . ?
C2 C2 1.27(3) 5_557 ?
C3 C4 1.544(19) . ?
C4 C4 1.23(3) 5_656 ?
C5 C9 1.382(15) . ?
C6 C7 1.398(16) . ?
C7 C8 1.385(16) . ?
C8 C9 1.368(15) . ?
C9 C10 1.499(15) . ?
C11 C12 1.394(16) . ?
C11 C16 1.428(16) . ?
C12 C13 1.382(16) . ?
C12 C12 1.48(2) 2_557 ?
C13 C14 1.39(2) . ?
C14 C15 1.386(19) . ?
C15 C16 1.375(17) . ?

loop_
_geom_angle_atom_site_label_1
_geom_angle_atom_site_label_2
_geom_angle_atom_site_label_3
_geom_angle
_geom_angle_site_symmetry_1
_geom_angle_site_symmetry_3
_geom_angle_publ_flag
N1 Cd N1 178.9(4) 6 . ?
N1 Cd O1 89.9(2) 6 5_556 ?
N1 Cd O1 89.85(19) . 5_556 ?
N1 Cd O4 90.42(19) 6 . ?
N1 Cd O4 90.42(19) . . ?
O1 Cd O4 147.2(3) 5_556 . ?
N1 Cd O1 89.43(19) 6 . ?
N1 Cd O1 89.43(19) . . ?
O1 Cd O1 72.5(3) 5_556 . ?
O4 Cd O1 140.3(3) . . ?
N1 Cd O3 90.56(19) 6 . ?
N1 Cd O3 90.56(19) . . ?
O1 Cd O3 92.7(3) 5_556 . ?
O4 Cd O3 54.6(4) . . ?
O1 Cd O3 165.1(3) . . ?
N1 Cd O2 89.6(2) 6 . ?
N1 Cd O2 89.6(2) . . ?
O1 Cd O2 125.5(3) 5_556 . ?
O4 Cd O2 87.2(4) . . ?
O1 Cd O2 53.1(3) . . ?
O3 Cd O2 141.8(4) . . ?
C1 O1 Cd 158.4(9) . 5_556 ?
C1 O1 Cd 94.0(8) . . ?
Cd O1 Cd 107.5(3) 5_556 . ?
C1 O2 Cd 91.0(8) . . ?
C3 O3 Cd 88.4(9) . . ?
C3 O4 Cd 91.7(9) . . ?
C11 O5 C10 116.8(9) . . ?
C6 N1 C5 117.7(9) . . ?
C6 N1 Cd 122.6(7) . . ?
C5 N1 Cd 119.7(7) . . ?
O2 C1 O1 121.9(12) . . ?
O2 C1 C2 120.1(12) . . ?
O1 C1 C2 118.0(13) . . ?
C2 C2 C1 125.1(17) 5_557 . ?
O4 C3 O3 125.3(14) . . ?
O4 C3 C4 117.5(13) . . ?
O3 C3 C4 117.2(13) . . ?
C4 C4 C3 125.7(18) 5_656 . ?
N1 C5 C9 124.5(10) . . ?
N1 C6 C7 121.7(10) . . ?
C8 C7 C6 119.2(11) . . ?
C9 C8 C7 120.3(12) . . ?
C8 C9 C5 116.6(10) . . ?
C8 C9 C10 122.1(11) . . ?
C5 C9 C10 121.3(10) . . ?
O5 C10 C9 107.9(10) . . ?
O5 C11 C12 115.2(11) . . ?
O5 C11 C16 122.2(12) . . ?
C12 C11 C16 122.5(11) . . ?
C13 C12 C11 117.4(11) . . ?
C13 C12 C12 120.2(14) . 2_557 ?
C11 C12 C12 122.4(11) . 2_557 ?
C12 C13 C14 121.9(14) . . ?
C13 C14 C15 119.2(12) . . ?
C16 C15 C14 122.3(13) . . ?
C15 C16 C11 116.5(13) . . ?

_diffrn_measured_fraction_theta_max 0.999
_diffrn_reflns_theta_full        20.00
_diffrn_measured_fraction_theta_full 0.999
_refine_diff_density_max         0.885
_refine_diff_density_min         -0.550
_refine_diff_density_rms         0.154


