####################################################################### 
# 
# This file contains crystal structure data downloaded from the 
# Cambridge Structural Database (CSD) hosted by the Cambridge 
# Crystallographic Data Centre (CCDC).
# 
# Full information about CCDC data access policies and citation 
# guidelines are available at http://www.ccdc.cam.ac.uk/access/V1 
# 
# Audit and citation data items may have been added by the CCDC. 
# Please retain this information to preserve the provenance of 
# this file and to allow appropriate attribution of the data. 
# 
#######################################################################

data_c2c
_audit_block_doi                 10.5517/cczwxrh
_database_code_depnum_ccdc_archive 'CCDC 920568'
loop_
_citation_id
_citation_doi
_citation_year
1 10.1016/j.poly.2013.10.022 2014
_audit_update_record             
;
2013-01-18 deposited with the CCDC.	2024-07-12 downloaded from the CCDC.
;
#TrackingRef '3.cif'


_audit_creation_method           SHELXL-97
_chemical_name_systematic        
;
?
;
_chemical_name_common            ?
_chemical_melting_point          ?
_chemical_formula_moiety         ?
_chemical_formula_sum            'C38 H24 Cd2 N2 O9'
_chemical_formula_weight         877.39

loop_
_atom_type_symbol
_atom_type_description
_atom_type_scat_dispersion_real
_atom_type_scat_dispersion_imag
_atom_type_scat_source
C C 0.0033 0.0016 'International Tables Vol C Tables 4.2.6.8 and 6.1.1.4'
H H 0.0000 0.0000 'International Tables Vol C Tables 4.2.6.8 and 6.1.1.4'
N N 0.0061 0.0033 'International Tables Vol C Tables 4.2.6.8 and 6.1.1.4'
O O 0.0106 0.0060 'International Tables Vol C Tables 4.2.6.8 and 6.1.1.4'
Cd Cd -0.8075 1.2024 'International Tables Vol C Tables 4.2.6.8 and 6.1.1.4'

_symmetry_cell_setting           ?
_symmetry_space_group_name_H-M   C2/c

loop_
_symmetry_equiv_pos_as_xyz
'x, y, z'
'-x, y, -z+1/2'
'x+1/2, y+1/2, z'
'-x+1/2, y+1/2, -z+1/2'
'-x, -y, -z'
'x, -y, z-1/2'
'-x+1/2, -y+1/2, -z'
'x+1/2, -y+1/2, z-1/2'

_cell_length_a                   17.332(4)
_cell_length_b                   17.988(4)
_cell_length_c                   10.660(2)
_cell_angle_alpha                90.00
_cell_angle_beta                 94.12(3)
_cell_angle_gamma                90.00
_cell_volume                     3315.0(11)
_cell_formula_units_Z            4
_cell_measurement_temperature    293(2)
_cell_measurement_reflns_used    4674
_cell_measurement_theta_min      1.6337
_cell_measurement_theta_max      27.9524

_exptl_crystal_description       Prism
_exptl_crystal_colour            Colorless
_exptl_crystal_size_max          0.2000
_exptl_crystal_size_mid          0.2000
_exptl_crystal_size_min          0.2000
_exptl_crystal_density_meas      ?
_exptl_crystal_density_diffrn    1.758
_exptl_crystal_density_method    'not measured'
_exptl_crystal_F_000             1736
_exptl_absorpt_coefficient_mu    1.345
_exptl_absorpt_correction_type   Multi-scan
_exptl_absorpt_correction_T_min  0.6346
_exptl_absorpt_correction_T_max  1.0000
_exptl_absorpt_process_details   Multi-scan

_exptl_special_details           
;
?
;

_diffrn_ambient_temperature      293(2)
_diffrn_radiation_wavelength     0.71073
_diffrn_radiation_type           MoK\a
_diffrn_radiation_source         'fine-focus sealed tube'
_diffrn_radiation_monochromator  graphite
_diffrn_measurement_device_type  ?
_diffrn_measurement_method       dtprofit.ref
_diffrn_detector_area_resol_mean ?
_diffrn_standards_number         ?
_diffrn_standards_interval_count ?
_diffrn_standards_interval_time  ?
_diffrn_standards_decay_%        ?
_diffrn_reflns_number            8308
_diffrn_reflns_av_R_equivalents  0.0523
_diffrn_reflns_av_sigmaI/netI    0.0604
_diffrn_reflns_limit_h_min       -20
_diffrn_reflns_limit_h_max       19
_diffrn_reflns_limit_k_min       -21
_diffrn_reflns_limit_k_max       13
_diffrn_reflns_limit_l_min       -12
_diffrn_reflns_limit_l_max       11
_diffrn_reflns_theta_min         2.26
_diffrn_reflns_theta_max         25.00
_reflns_number_total             2914
_reflns_number_gt                2587
_reflns_threshold_expression     >2sigma(I)

_computing_data_collection       ?
_computing_cell_refinement       ?
_computing_data_reduction        ?
_computing_structure_solution    'SHELXS-97 (Sheldrick, 1990)'
_computing_structure_refinement  'SHELXL-97 (Sheldrick, 1997)'
_computing_molecular_graphics    ?
_computing_publication_material  ?

_refine_special_details          
;
Refinement of F^2^ against ALL reflections. The weighted R-factor wR and
goodness of fit S are based on F^2^, conventional R-factors R are based
on F, with F set to zero for negative F^2^. The threshold expression of
F^2^ > 2sigma(F^2^) is used only for calculating R-factors(gt) etc. and is
not relevant to the choice of reflections for refinement. R-factors based
on F^2^ are statistically about twice as large as those based on F, and R-
factors based on ALL data will be even larger.
;

_refine_ls_structure_factor_coef Fsqd
_refine_ls_matrix_type           full
_refine_ls_weighting_scheme      calc
_refine_ls_weighting_details     
'calc w=1/[\s^2^(Fo^2^)+(0.0560P)^2^+39.9106P] where P=(Fo^2^+2Fc^2^)/3'
_atom_sites_solution_primary     direct
_atom_sites_solution_secondary   difmap
_atom_sites_solution_hydrogens   geom
_refine_ls_hydrogen_treatment    constr
_refine_ls_extinction_method     none
_refine_ls_extinction_coef       ?
_refine_ls_number_reflns         2914
_refine_ls_number_parameters     233
_refine_ls_number_restraints     163
_refine_ls_R_factor_all          0.0682
_refine_ls_R_factor_gt           0.0584
_refine_ls_wR_factor_ref         0.1508
_refine_ls_wR_factor_gt          0.1446
_refine_ls_goodness_of_fit_ref   1.168
_refine_ls_restrained_S_all      1.145
_refine_ls_shift/su_max          0.000
_refine_ls_shift/su_mean         0.000

loop_
_atom_site_label
_atom_site_type_symbol
_atom_site_fract_x
_atom_site_fract_y
_atom_site_fract_z
_atom_site_U_iso_or_equiv
_atom_site_adp_type
_atom_site_occupancy
_atom_site_symmetry_multiplicity
_atom_site_calc_flag
_atom_site_refinement_flags
_atom_site_disorder_assembly
_atom_site_disorder_group
O2 O 0.4173(3) 0.6638(3) 1.0773(5) 0.0345(13) Uani 1 1 d U . .
O5 O 0.5000 0.934(2) 0.7500 0.45(3) Uani 1 2 d SU . .
O3 O 0.0966(3) 0.9915(3) 0.3603(5) 0.0328(13) Uani 1 1 d U . .
O4 O 0.0777(3) 1.0501(3) 0.1739(5) 0.0257(12) Uani 1 1 d U . .
C19 C 0.1152(5) 1.0078(4) 0.2528(7) 0.0254(17) Uani 1 1 d U . .
C15 C 0.1901(4) 0.9763(4) 0.2134(7) 0.0232(16) Uani 1 1 d U . .
C18 C 0.2203(5) 0.9991(4) 0.1012(7) 0.0317(19) Uani 1 1 d U . .
H18A H 0.1935 1.0337 0.0500 0.038 Uiso 1 1 calc R . .
C14 C 0.2308(4) 0.9235(4) 0.2857(7) 0.0257(16) Uani 1 1 d U . .
H14A H 0.2109 0.9070 0.3594 0.031 Uiso 1 1 calc R . .
C16 C 0.3293(5) 0.9194(5) 0.1411(8) 0.040(2) Uani 1 1 d U . .
H16A H 0.3763 0.9011 0.1172 0.048 Uiso 1 1 calc R . .
C13 C 0.3004(4) 0.8947(4) 0.2517(7) 0.0268(17) Uani 1 1 d U . .
C17 C 0.2892(5) 0.9709(5) 0.0663(8) 0.041(2) Uani 1 1 d U . .
H17A H 0.3088 0.9866 -0.0082 0.049 Uiso 1 1 calc R . .
C11 C 0.3403(5) 0.8356(4) 0.3318(7) 0.0284(17) Uani 1 1 d U . .
C12 C 0.3306(5) 0.8298(5) 0.4583(7) 0.0303(18) Uani 1 1 d U . .
H12A H 0.3030 0.8666 0.4970 0.036 Uiso 1 1 calc R . .
C10 C 0.3881(5) 0.7822(5) 0.2803(7) 0.0334(19) Uani 1 1 d U . .
H10A H 0.3990 0.7866 0.1964 0.040 Uiso 1 1 calc R . .
N1 N 0.4182(4) 0.7259(4) 0.3470(6) 0.0320(16) Uani 1 1 d U . .
H1A H 0.4473 0.6943 0.3128 0.038 Uiso 1 1 calc R . .
C9 C 0.4032(5) 0.7182(5) 0.4681(7) 0.0343(19) Uani 1 1 d U . .
H9A H 0.4218 0.6764 0.5118 0.041 Uiso 1 1 calc R . .
C8 C 0.3609(5) 0.7703(4) 0.5307(7) 0.0306(18) Uani 1 1 d U . .
C6 C 0.3497(4) 0.7648(4) 0.6690(7) 0.0260(17) Uani 1 1 d U . .
C5 C 0.2968(5) 0.8121(5) 0.7222(8) 0.040(2) Uani 1 1 d U . .
H5A H 0.2680 0.8451 0.6705 0.048 Uiso 1 1 calc R . .
Cd1 Cd 0.0000 1.14052(4) 0.2500 0.0208(2) Uani 1 2 d SU . .
Cd2 Cd 0.5000 0.5000 1.0000 0.0214(2) Uani 1 2 d SU . .
O1 O 0.4618(3) 0.6069(3) 0.9107(5) 0.0287(12) Uani 1 1 d U . .
C1 C 0.4225(4) 0.6565(4) 0.9613(6) 0.0220(16) Uani 1 1 d DU . .
C3 C 0.3293(5) 0.7613(5) 0.9256(8) 0.036(2) Uani 1 1 d U . .
H3A H 0.3236 0.7615 1.0117 0.044 Uiso 1 1 calc R . .
C7 C 0.3916(5) 0.7146(4) 0.7462(7) 0.0276(17) Uani 1 1 d U . .
H7A H 0.4268 0.6829 0.7119 0.033 Uiso 1 1 calc R . .
C2 C 0.3811(4) 0.7112(4) 0.8756(7) 0.0284(17) Uani 1 1 d DU . .
C4 C 0.2862(6) 0.8109(5) 0.8478(8) 0.048(2) Uani 1 1 d U . .
H4A H 0.2507 0.8428 0.8813 0.057 Uiso 1 1 calc R . .

loop_
_atom_site_aniso_label
_atom_site_aniso_U_11
_atom_site_aniso_U_22
_atom_site_aniso_U_33
_atom_site_aniso_U_23
_atom_site_aniso_U_13
_atom_site_aniso_U_12
O2 0.040(3) 0.043(3) 0.020(3) 0.001(2) 0.000(2) 0.013(3)
O5 0.106(18) 0.30(4) 0.92(8) 0.000 -0.10(3) 0.000
O3 0.031(3) 0.050(4) 0.018(3) 0.000(2) 0.004(2) 0.010(3)
O4 0.029(3) 0.025(3) 0.022(3) -0.002(2) -0.002(2) 0.011(2)
C19 0.029(4) 0.030(4) 0.018(4) -0.003(3) 0.003(3) -0.002(3)
C15 0.027(4) 0.026(4) 0.017(4) -0.005(3) 0.000(3) -0.003(3)
C18 0.043(5) 0.033(4) 0.019(4) 0.008(3) 0.003(4) 0.008(4)
C14 0.030(4) 0.028(4) 0.020(4) 0.000(3) 0.006(3) -0.002(3)
C16 0.040(5) 0.052(5) 0.031(5) 0.013(4) 0.013(4) 0.016(4)
C13 0.031(4) 0.034(4) 0.016(4) 0.000(3) 0.003(3) 0.004(3)
C17 0.046(5) 0.048(5) 0.030(5) 0.011(4) 0.018(4) 0.006(4)
C11 0.034(4) 0.031(4) 0.020(4) 0.006(3) 0.004(3) 0.003(4)
C12 0.035(4) 0.034(4) 0.022(4) 0.001(3) 0.007(3) 0.014(4)
C10 0.045(5) 0.036(4) 0.019(4) -0.001(3) 0.002(4) 0.010(4)
N1 0.038(4) 0.038(4) 0.020(3) 0.000(3) 0.006(3) 0.019(3)
C9 0.051(5) 0.031(4) 0.021(4) 0.004(3) 0.002(4) 0.018(4)
C8 0.043(5) 0.032(4) 0.017(4) 0.003(3) 0.007(3) 0.010(4)
C6 0.032(4) 0.028(4) 0.018(4) 0.005(3) 0.003(3) 0.004(3)
C5 0.051(5) 0.045(5) 0.025(4) 0.009(4) 0.009(4) 0.022(4)
Cd1 0.0269(4) 0.0224(4) 0.0134(4) 0.000 0.0035(3) 0.000
Cd2 0.0282(4) 0.0217(4) 0.0145(4) 0.0006(3) 0.0015(3) 0.0007(3)
O1 0.038(3) 0.028(3) 0.020(3) 0.002(2) 0.000(2) 0.008(2)
C1 0.021(4) 0.026(4) 0.018(4) -0.006(3) -0.001(3) 0.000(3)
C3 0.054(5) 0.039(5) 0.018(4) -0.001(3) 0.013(4) 0.014(4)
C7 0.034(4) 0.029(4) 0.021(4) 0.000(3) 0.007(3) -0.003(3)
C2 0.029(4) 0.031(4) 0.025(4) 0.001(3) -0.001(3) -0.001(3)
C4 0.056(6) 0.052(6) 0.037(5) 0.004(4) 0.016(5) 0.035(5)

_geom_special_details            
;
All esds (except the esd in the dihedral angle between two l.s. planes)
are estimated using the full covariance matrix. The cell esds are taken
into account individually in the estimation of esds in distances, angles
and torsion angles; correlations between esds in cell parameters are only
used when they are defined by crystal symmetry. An approximate (isotropic)
treatment of cell esds is used for estimating esds involving l.s. planes.
;

loop_
_geom_bond_atom_site_label_1
_geom_bond_atom_site_label_2
_geom_bond_distance
_geom_bond_site_symmetry_2
_geom_bond_publ_flag
O2 C1 1.253(9) . ?
O2 Cd1 2.289(5) 3_546 ?
O3 C19 1.248(9) . ?
O3 Cd2 2.325(6) 4_556 ?
O4 C19 1.277(9) . ?
O4 Cd1 2.297(5) . ?
O4 Cd2 2.388(5) 3_454 ?
C19 C15 1.504(11) . ?
C15 C14 1.384(10) . ?
C15 C18 1.401(11) . ?
C18 C17 1.374(12) . ?
C14 C13 1.385(10) . ?
C16 C17 1.377(12) . ?
C16 C13 1.388(11) . ?
C13 C11 1.500(10) . ?
C11 C12 1.375(11) . ?
C11 C10 1.407(11) . ?
C12 C8 1.400(10) . ?
C10 N1 1.322(10) . ?
N1 C9 1.342(10) . ?
N1 Cd1 2.378(6) 3_545 ?
C9 C8 1.389(11) . ?
C8 C6 1.503(10) . ?
C6 C7 1.391(10) . ?
C6 C5 1.400(11) . ?
C5 C4 1.365(12) . ?
Cd1 O2 2.289(5) 4_556 ?
Cd1 O2 2.289(5) 3_454 ?
Cd1 O4 2.297(5) 2 ?
Cd1 N1 2.378(6) 4 ?
Cd1 N1 2.378(6) 3_455 ?
Cd2 O1 2.225(5) . ?
Cd2 O1 2.225(5) 5_667 ?
Cd2 O3 2.325(6) 4_546 ?
Cd2 O3 2.325(6) 8_566 ?
Cd2 O4 2.388(5) 7_566 ?
Cd2 O4 2.388(5) 3_546 ?
O1 C1 1.265(9) . ?
C1 C2 1.492(7) . ?
C3 C2 1.405(11) . ?
C3 C4 1.398(12) . ?
C7 C2 1.405(10) . ?

loop_
_geom_angle_atom_site_label_1
_geom_angle_atom_site_label_2
_geom_angle_atom_site_label_3
_geom_angle
_geom_angle_site_symmetry_1
_geom_angle_site_symmetry_3
_geom_angle_publ_flag
C1 O2 Cd1 133.6(5) . 3_546 ?
C19 O3 Cd2 144.9(5) . 4_556 ?
C19 O4 Cd1 118.2(5) . . ?
C19 O4 Cd2 121.2(4) . 3_454 ?
Cd1 O4 Cd2 103.24(18) . 3_454 ?
O3 C19 O4 126.3(7) . . ?
O3 C19 C15 116.9(7) . . ?
O4 C19 C15 116.7(7) . . ?
C14 C15 C18 118.0(7) . . ?
C14 C15 C19 121.2(7) . . ?
C18 C15 C19 120.7(7) . . ?
C17 C18 C15 120.6(7) . . ?
C13 C14 C15 122.0(7) . . ?
C17 C16 C13 120.6(8) . . ?
C14 C13 C16 118.5(7) . . ?
C14 C13 C11 119.4(7) . . ?
C16 C13 C11 122.1(7) . . ?
C18 C17 C16 120.3(8) . . ?
C12 C11 C10 116.6(7) . . ?
C12 C11 C13 121.9(7) . . ?
C10 C11 C13 121.4(7) . . ?
C11 C12 C8 122.1(7) . . ?
N1 C10 C11 122.2(7) . . ?
C10 N1 C9 120.0(7) . . ?
C10 N1 Cd1 119.0(5) . 3_545 ?
C9 N1 Cd1 121.0(5) . 3_545 ?
N1 C9 C8 122.5(7) . . ?
C9 C8 C12 116.1(7) . . ?
C9 C8 C6 122.5(7) . . ?
C12 C8 C6 121.4(7) . . ?
C7 C6 C5 118.9(7) . . ?
C7 C6 C8 121.6(7) . . ?
C5 C6 C8 119.5(7) . . ?
C4 C5 C6 121.8(8) . . ?
O2 Cd1 O2 158.9(3) 4_556 3_454 ?
O2 Cd1 O4 101.21(18) 4_556 2 ?
O2 Cd1 O4 93.7(2) 3_454 2 ?
O2 Cd1 O4 93.7(2) 4_556 . ?
O2 Cd1 O4 101.21(18) 3_454 . ?
O4 Cd1 O4 89.8(3) 2 . ?
O2 Cd1 N1 82.7(2) 4_556 4 ?
O2 Cd1 N1 83.7(2) 3_454 4 ?
O4 Cd1 N1 174.1(2) 2 4 ?
O4 Cd1 N1 85.4(2) . 4 ?
O2 Cd1 N1 83.7(2) 4_556 3_455 ?
O2 Cd1 N1 82.7(2) 3_454 3_455 ?
O4 Cd1 N1 85.4(2) 2 3_455 ?
O4 Cd1 N1 174.1(2) . 3_455 ?
N1 Cd1 N1 99.5(3) 4 3_455 ?
O1 Cd2 O1 180.000(1) . 5_667 ?
O1 Cd2 O3 97.2(2) . 4_546 ?
O1 Cd2 O3 82.8(2) 5_667 4_546 ?
O1 Cd2 O3 82.8(2) . 8_566 ?
O1 Cd2 O3 97.2(2) 5_667 8_566 ?
O3 Cd2 O3 180.000(1) 4_546 8_566 ?
O1 Cd2 O4 81.96(17) . 7_566 ?
O1 Cd2 O4 98.04(18) 5_667 7_566 ?
O3 Cd2 O4 94.61(18) 4_546 7_566 ?
O3 Cd2 O4 85.39(18) 8_566 7_566 ?
O1 Cd2 O4 98.04(18) . 3_546 ?
O1 Cd2 O4 81.96(17) 5_667 3_546 ?
O3 Cd2 O4 85.39(18) 4_546 3_546 ?
O3 Cd2 O4 94.61(18) 8_566 3_546 ?
O4 Cd2 O4 180.000(1) 7_566 3_546 ?
C1 O1 Cd2 125.4(5) . . ?
O2 C1 O1 124.9(6) . . ?
O2 C1 C2 118.0(6) . . ?
O1 C1 C2 117.0(6) . . ?
C2 C3 C4 120.9(7) . . ?
C2 C7 C6 120.7(7) . . ?
C3 C2 C7 118.4(7) . . ?
C3 C2 C1 118.9(7) . . ?
C7 C2 C1 122.7(7) . . ?
C5 C4 C3 119.2(8) . . ?

_diffrn_measured_fraction_theta_max 0.998
_diffrn_reflns_theta_full        25.00
_diffrn_measured_fraction_theta_full 0.998
_refine_diff_density_max         1.123
_refine_diff_density_min         -0.882
_refine_diff_density_rms         0.180
