####################################################################### 
# 
# This file contains crystal structure data downloaded from the 
# Cambridge Structural Database (CSD) hosted by the Cambridge 
# Crystallographic Data Centre (CCDC).
# 
# Full information about CCDC data access policies and citation 
# guidelines are available at http://www.ccdc.cam.ac.uk/access/V1 
# 
# Audit and citation data items may have been added by the CCDC. 
# Please retain this information to preserve the provenance of 
# this file and to allow appropriate attribution of the data. 
# 
#######################################################################

data_1_150K
_audit_block_doi                 10.5517/cc11jnnw
_database_code_depnum_ccdc_archive 'CCDC 969328'
loop_
_citation_id
_citation_doi
_citation_year
1 10.1039/C3CE42219D 2014
_audit_update_record             
;
2013-10-30 deposited with the CCDC.	2024-07-12 downloaded from the CCDC.
;

_audit_creation_method           SHELXL-97
_chemical_name_systematic        
; 
 ? 
;
_chemical_name_common            ?
_chemical_melting_point          ?
_chemical_formula_moiety         ?
_chemical_formula_sum            'C24 H14 Cu N2 O4'
_chemical_formula_weight         457.92

loop_
_atom_type_symbol
_atom_type_description
_atom_type_scat_dispersion_real
_atom_type_scat_dispersion_imag
_atom_type_scat_source
C C 0.0181 0.0091 'International Tables Vol C Tables 4.2.6.8 and 6.1.1.4'
H H 0.0000 0.0000 'International Tables Vol C Tables 4.2.6.8 and 6.1.1.4'
Cu Cu -1.9646 0.5888 'International Tables Vol C Tables 4.2.6.8 and 6.1.1.4'
N N 0.0311 0.0180 'International Tables Vol C Tables 4.2.6.8 and 6.1.1.4'
O O 0.0492 0.0322 'International Tables Vol C Tables 4.2.6.8 and 6.1.1.4'

_symmetry_cell_setting           Monoclinic
_symmetry_space_group_name_H-M   P21/c

loop_
_symmetry_equiv_pos_as_xyz
'x, y, z'
'-x, y+1/2, -z+1/2'
'-x, -y, -z'
'x, -y-1/2, z-1/2'

_cell_length_a                   13.8932(6)
_cell_length_b                   14.9017(8)
_cell_length_c                   28.2244(15)
_cell_angle_alpha                90.00
_cell_angle_beta                 117.982(6)
_cell_angle_gamma                90.00
_cell_volume                     5160.2(4)
_cell_formula_units_Z            4
_cell_measurement_temperature    150(2)
_cell_measurement_reflns_used    ?
_cell_measurement_theta_min      ?
_cell_measurement_theta_max      ?

_exptl_crystal_description       block
_exptl_crystal_colour            green
_exptl_crystal_size_max          0.20
_exptl_crystal_size_mid          0.20
_exptl_crystal_size_min          0.10
_exptl_crystal_density_meas      ?
_exptl_crystal_density_diffrn    0.589
_exptl_crystal_density_method    'not measured'
_exptl_crystal_F_000             932
_exptl_absorpt_coefficient_mu    0.713
_exptl_absorpt_correction_type   ?
_exptl_absorpt_correction_T_min  0.8705
_exptl_absorpt_correction_T_max  0.9321
_exptl_absorpt_process_details   ?

_exptl_special_details           
; 
 ? 
;

_diffrn_ambient_temperature      150(2)
_diffrn_radiation_wavelength     1.54178
_diffrn_radiation_type           CuK\a
_diffrn_radiation_source         'Enhance Ultra (Cu) X-ray Source'
_diffrn_radiation_monochromator  mirror
_diffrn_measurement_device_type  'Xcalibur, Sapphire3, Gemini ultra'
_diffrn_measurement_method       '\w scans'
_diffrn_detector_area_resol_mean ?
_diffrn_standards_number         ?
_diffrn_standards_interval_count ?
_diffrn_standards_interval_time  ?
_diffrn_standards_decay_%        ?
_diffrn_reflns_number            14064
_diffrn_reflns_av_R_equivalents  0.0361
_diffrn_reflns_av_sigmaI/netI    0.0552
_diffrn_reflns_limit_h_min       -10
_diffrn_reflns_limit_h_max       15
_diffrn_reflns_limit_k_min       -13
_diffrn_reflns_limit_k_max       16
_diffrn_reflns_limit_l_min       -31
_diffrn_reflns_limit_l_max       31
_diffrn_reflns_theta_min         3.46
_diffrn_reflns_theta_max         60.00
_reflns_number_total             7578
_reflns_number_gt                5075
_reflns_threshold_expression     >2sigma(I)

_computing_data_collection       
;
CrysAlisPro, Agilent Technologies,
Version 1.171.35.11 (release 16-05-2011 CrysAlis171 .NET)
(compiled May 16 2011,17:55:39)
;
_computing_cell_refinement       
;
CrysAlisPro, Agilent Technologies,
Version 1.171.35.11 (release 16-05-2011 CrysAlis171 .NET)
(compiled May 16 2011,17:55:39)
;
_computing_data_reduction        
;
CrysAlisPro, Agilent Technologies,
Version 1.171.35.11 (release 16-05-2011 CrysAlis171 .NET)
(compiled May 16 2011,17:55:39)
;
_computing_structure_solution    'SHELXS-97 (Sheldrick, 1990)'
_computing_structure_refinement  'SHELXL-97 (Sheldrick, 1997)'
_computing_molecular_graphics    ?
_computing_publication_material  ?

_refine_special_details          
; 
 Refinement of F^2^ against ALL reflections.  The weighted R-factor wR and 
 goodness of fit S are based on F^2^, conventional R-factors R are based 
 on F, with F set to zero for negative F^2^. The threshold expression of 
 F^2^ > 2sigma(F^2^) is used only for calculating R-factors(gt) etc. and is 
 not relevant to the choice of reflections for refinement.  R-factors based 
 on F^2^ are statistically about twice as large as those based on F, and R- 
 factors based on ALL data will be even larger. 
;

_refine_ls_structure_factor_coef Fsqd
_refine_ls_matrix_type           full
_refine_ls_weighting_scheme      calc
_refine_ls_weighting_details     
'calc w=1/[\s^2^(Fo^2^)+(0.0480P)^2^+0.0000P] where P=(Fo^2^+2Fc^2^)/3'
_atom_sites_solution_primary     direct
_atom_sites_solution_secondary   difmap
_atom_sites_solution_hydrogens   geom
_refine_ls_hydrogen_treatment    constr
_refine_ls_extinction_method     none
_refine_ls_extinction_coef       ?
_refine_ls_number_reflns         7578
_refine_ls_number_parameters     280
_refine_ls_number_restraints     0
_refine_ls_R_factor_all          0.0623
_refine_ls_R_factor_gt           0.0471
_refine_ls_wR_factor_ref         0.1157
_refine_ls_wR_factor_gt          0.1120
_refine_ls_goodness_of_fit_ref   1.009
_refine_ls_restrained_S_all      1.009
_refine_ls_shift/su_max          0.000
_refine_ls_shift/su_mean         0.000

loop_
_atom_site_label
_atom_site_type_symbol
_atom_site_fract_x
_atom_site_fract_y
_atom_site_fract_z
_atom_site_U_iso_or_equiv
_atom_site_adp_type
_atom_site_occupancy
_atom_site_symmetry_multiplicity
_atom_site_calc_flag
_atom_site_refinement_flags
_atom_site_disorder_assembly
_atom_site_disorder_group
O2 O 0.04819(14) 0.38973(15) 0.46338(8) 0.0686(6) Uani 1 1 d . . .
O1 O 0.14945(14) 0.51379(16) 0.48622(7) 0.0637(5) Uani 1 1 d . . .
O3 O 0.04080(14) 0.11157(15) 0.06045(7) 0.0699(6) Uani 1 1 d . . .
O4 O 0.14248(14) -0.01234(15) 0.08237(7) 0.0639(5) Uani 1 1 d . . .
N1 N 0.84867(15) 0.30278(16) 0.46055(8) 0.0547(6) Uani 1 1 d . . .
N2 N 0.32874(16) 0.24336(19) 0.32851(9) 0.0684(7) Uani 1 1 d . . .
C1 C 0.12622(19) 0.4360(2) 0.46692(10) 0.0556(7) Uani 1 1 d . . .
C2 C 0.1950(2) 0.3952(2) 0.44451(10) 0.0641(8) Uani 1 1 d . . .
C3 C 0.2962(2) 0.4329(2) 0.45611(11) 0.0704(8) Uani 1 1 d . . .
H3 H 0.3231 0.4835 0.4791 0.084 Uiso 1 1 calc R . .
C4 C 0.3555(2) 0.3960(2) 0.43398(12) 0.0711(9) Uani 1 1 d . . .
H4 H 0.4238 0.4221 0.4420 0.085 Uiso 1 1 calc R . .
C5 C 0.3208(2) 0.3233(2) 0.40085(11) 0.0665(8) Uani 1 1 d . . .
C6 C 0.2207(2) 0.2858(3) 0.38956(14) 0.0953(13) Uani 1 1 d . . .
H6 H 0.1941 0.2354 0.3663 0.114 Uiso 1 1 calc R . .
C7 C 0.1595(2) 0.3216(3) 0.41208(14) 0.0900(12) Uani 1 1 d . . .
H7 H 0.0921 0.2946 0.4049 0.108 Uiso 1 1 calc R . .
C8 C 0.1188(2) 0.0632(2) 0.09230(10) 0.0556(7) Uani 1 1 d . . .
C9 C 0.1882(2) 0.0999(2) 0.14774(10) 0.0599(8) Uani 1 1 d . . .
C10 C 0.2805(2) 0.0562(2) 0.18320(11) 0.0759(9) Uani 1 1 d . . .
H10 H 0.3011 0.0022 0.1724 0.091 Uiso 1 1 calc R . .
C11 C 0.3448(2) 0.0890(2) 0.23455(11) 0.0782(9) Uani 1 1 d . . .
H11 H 0.4095 0.0581 0.2581 0.094 Uiso 1 1 calc R . .
C12 C 0.3161(2) 0.1647(2) 0.25146(10) 0.0663(8) Uani 1 1 d . . .
C13 C 0.2221(3) 0.2085(3) 0.21651(14) 0.1021(14) Uani 1 1 d . . .
H13 H 0.1998 0.2605 0.2282 0.123 Uiso 1 1 calc R . .
C14 C 0.1598(3) 0.1780(3) 0.16455(13) 0.0972(13) Uani 1 1 d . . .
H14 H 0.0973 0.2108 0.1404 0.117 Uiso 1 1 calc R . .
C15 C 0.3835(2) 0.2017(2) 0.30653(10) 0.0630(8) Uani 1 1 d . . .
C16 C 0.4957(2) 0.1944(2) 0.33286(11) 0.0622(8) Uani 1 1 d . . .
H16 H 0.5319 0.1621 0.3168 0.075 Uiso 1 1 calc R . .
C17 C 0.5559(2) 0.2340(2) 0.38278(10) 0.0597(7) Uani 1 1 d . . .
C18 C 0.50024(19) 0.2791(2) 0.40516(10) 0.0609(7) Uani 1 1 d . . .
H18 H 0.5387 0.3079 0.4390 0.073 Uiso 1 1 calc R . .
C19 C 0.3858(2) 0.2817(2) 0.37716(10) 0.0635(8) Uani 1 1 d . . .
C20 C 0.73924(19) 0.3036(2) 0.43479(9) 0.0540(7) Uani 1 1 d . . .
H20 H 0.7030 0.3586 0.4328 0.065 Uiso 1 1 calc R . .
C21 C 0.6769(2) 0.2288(2) 0.41117(11) 0.0597(7) Uani 1 1 d . . .
C22 C 0.7304(3) 0.1501(3) 0.41342(15) 0.0917(11) Uani 1 1 d . . .
H22 H 0.6903 0.0976 0.3965 0.110 Uiso 1 1 calc R . .
C23 C 0.8441(3) 0.1480(3) 0.44065(19) 0.1089(14) Uani 1 1 d . . .
H23 H 0.8827 0.0939 0.4437 0.131 Uiso 1 1 calc R . .
C24 C 0.8981(2) 0.2260(2) 0.46283(14) 0.0829(10) Uani 1 1 d . . .
H24 H 0.9755 0.2250 0.4809 0.099 Uiso 1 1 calc R . .
Cu1 Cu 0.05970(2) 0.57382(3) 0.513383(13) 0.05018(13) Uani 1 1 d . . .

loop_
_atom_site_aniso_label
_atom_site_aniso_U_11
_atom_site_aniso_U_22
_atom_site_aniso_U_33
_atom_site_aniso_U_23
_atom_site_aniso_U_13
_atom_site_aniso_U_12
O2 0.0454(10) 0.0925(15) 0.0739(12) -0.0166(11) 0.0329(9) -0.0066(10)
O1 0.0419(10) 0.0908(16) 0.0633(11) -0.0104(12) 0.0287(9) -0.0058(10)
O3 0.0457(11) 0.0978(16) 0.0465(10) -0.0070(10) 0.0052(9) 0.0060(10)
O4 0.0512(11) 0.0836(15) 0.0392(9) -0.0076(10) 0.0066(8) 0.0063(10)
N1 0.0309(11) 0.0762(16) 0.0473(11) -0.0081(11) 0.0103(9) -0.0050(11)
N2 0.0402(11) 0.110(2) 0.0508(13) -0.0242(13) 0.0177(10) -0.0071(12)
C1 0.0347(13) 0.088(2) 0.0399(13) -0.0040(15) 0.0135(10) 0.0007(15)
C2 0.0408(14) 0.100(2) 0.0496(14) -0.0119(16) 0.0199(12) -0.0038(14)
C3 0.0506(16) 0.101(2) 0.0628(16) -0.0296(17) 0.0294(13) -0.0180(16)
C4 0.0449(15) 0.099(2) 0.0739(18) -0.0311(18) 0.0319(14) -0.0170(15)
C5 0.0343(14) 0.110(3) 0.0526(15) -0.0197(16) 0.0183(11) -0.0045(14)
C6 0.0472(17) 0.143(3) 0.101(2) -0.069(3) 0.0394(17) -0.0280(19)
C7 0.0484(17) 0.128(3) 0.101(2) -0.054(2) 0.0416(17) -0.0264(18)
C8 0.0363(14) 0.086(2) 0.0425(13) -0.0055(15) 0.0169(12) -0.0049(14)
C9 0.0392(14) 0.092(2) 0.0420(13) -0.0112(14) 0.0136(11) -0.0015(14)
C10 0.0552(17) 0.097(3) 0.0502(16) -0.0160(16) 0.0040(13) 0.0148(17)
C11 0.0569(17) 0.098(3) 0.0527(16) -0.0181(17) 0.0030(13) 0.0134(17)
C12 0.0364(14) 0.110(3) 0.0479(15) -0.0199(16) 0.0157(12) -0.0068(15)
C13 0.065(2) 0.133(3) 0.073(2) -0.043(2) 0.0028(17) 0.030(2)
C14 0.0623(19) 0.126(3) 0.065(2) -0.031(2) -0.0019(15) 0.030(2)
C15 0.0393(14) 0.096(2) 0.0496(14) -0.0203(15) 0.0174(12) -0.0058(14)
C16 0.0424(15) 0.088(2) 0.0539(15) -0.0204(15) 0.0209(12) -0.0019(14)
C17 0.0400(14) 0.084(2) 0.0520(15) -0.0127(15) 0.0190(12) -0.0058(14)
C18 0.0363(14) 0.092(2) 0.0478(14) -0.0176(15) 0.0144(11) -0.0083(14)
C19 0.0424(14) 0.098(2) 0.0506(15) -0.0201(16) 0.0222(12) -0.0069(15)
C20 0.0381(14) 0.078(2) 0.0416(13) -0.0057(13) 0.0152(11) 0.0021(13)
C21 0.0376(14) 0.080(2) 0.0557(15) -0.0168(15) 0.0171(11) -0.0038(15)
C22 0.0523(19) 0.088(3) 0.114(3) -0.029(2) 0.0223(18) -0.0096(18)
C23 0.049(2) 0.089(3) 0.156(4) -0.029(3) 0.021(2) 0.0031(19)
C24 0.0349(15) 0.091(3) 0.098(2) -0.012(2) 0.0112(15) 0.0088(17)
Cu1 0.03067(18) 0.0784(3) 0.03664(18) -0.00057(19) 0.01174(14) -0.00070(18)

_geom_special_details            
; 
 All esds (except the esd in the dihedral angle between two l.s. planes) 
 are estimated using the full covariance matrix.  The cell esds are taken 
 into account individually in the estimation of esds in distances, angles 
 and torsion angles; correlations between esds in cell parameters are only 
 used when they are defined by crystal symmetry.  An approximate (isotropic) 
 treatment of cell esds is used for estimating esds involving l.s. planes. 
;

loop_
_geom_bond_atom_site_label_1
_geom_bond_atom_site_label_2
_geom_bond_distance
_geom_bond_site_symmetry_2
_geom_bond_publ_flag
O2 C1 1.248(3) . ?
O2 Cu1 1.9733(17) 3_566 ?
O1 C1 1.257(4) . ?
O1 Cu1 1.9595(18) . ?
O3 C8 1.260(3) . ?
O3 Cu1 1.9693(18) 2_545 ?
O4 C8 1.241(4) . ?
O4 Cu1 1.9627(18) 4_565 ?
N1 C24 1.320(4) . ?
N1 C20 1.343(3) . ?
N1 Cu1 2.160(2) 3_666 ?
N2 C15 1.339(3) . ?
N2 C19 1.349(3) . ?
C1 C2 1.499(4) . ?
C2 C7 1.364(4) . ?
C2 C3 1.403(4) . ?
C3 C4 1.361(4) . ?
C4 C5 1.363(4) . ?
C5 C6 1.392(4) . ?
C5 C19 1.488(4) . ?
C6 C7 1.385(4) . ?
C8 C9 1.504(4) . ?
C9 C14 1.383(5) . ?
C9 C10 1.366(4) . ?
C10 C11 1.386(4) . ?
C11 C12 1.356(4) . ?
C12 C13 1.376(4) . ?
C12 C15 1.493(4) . ?
C13 C14 1.384(4) . ?
C15 C16 1.382(4) . ?
C16 C17 1.388(4) . ?
C17 C18 1.381(4) . ?
C17 C21 1.487(4) . ?
C18 C19 1.405(4) . ?
C20 C21 1.377(4) . ?
C20 C22 2.353(5) . ?
C21 C22 1.373(5) . ?
C22 C23 1.395(5) . ?
C23 C24 1.366(5) . ?
C24 Cu1 3.053(4) 3_666 ?
Cu1 O4 1.9627(18) 4_566 ?
Cu1 N1 2.160(2) 3_666 ?
Cu1 O3 1.9693(18) 2 ?
Cu1 O2 1.9733(17) 3_566 ?
Cu1 Cu1 2.6433(8) 3_566 ?
Cu1 C24 3.053(4) 3_666 ?

loop_
_geom_angle_atom_site_label_1
_geom_angle_atom_site_label_2
_geom_angle_atom_site_label_3
_geom_angle
_geom_angle_site_symmetry_1
_geom_angle_site_symmetry_3
_geom_angle_publ_flag
C1 O2 Cu1 126.02(19) . 3_566 ?
C1 O1 Cu1 120.63(16) . . ?
C8 O3 Cu1 122.47(19) . 2_545 ?
C8 O4 Cu1 123.59(17) . 4_565 ?
C24 N1 C20 117.7(2) . . ?
C24 N1 Cu1 120.74(18) . 3_666 ?
C20 N1 Cu1 120.9(2) . 3_666 ?
C15 N2 C19 118.5(2) . . ?
O1 C1 O2 125.5(2) . . ?
O1 C1 C2 118.1(3) . . ?
O2 C1 C2 116.4(3) . . ?
C7 C2 C3 119.0(3) . . ?
C7 C2 C1 120.5(3) . . ?
C3 C2 C1 120.5(3) . . ?
C2 C3 C4 119.2(3) . . ?
C5 C4 C3 122.7(3) . . ?
C4 C5 C6 118.0(3) . . ?
C4 C5 C19 123.1(2) . . ?
C6 C5 C19 118.8(3) . . ?
C5 C6 C7 120.2(3) . . ?
C2 C7 C6 120.8(3) . . ?
O4 C8 O3 126.0(2) . . ?
O4 C8 C9 117.1(3) . . ?
O3 C8 C9 116.8(3) . . ?
C14 C9 C10 118.1(3) . . ?
C14 C9 C8 121.1(3) . . ?
C10 C9 C8 120.8(3) . . ?
C9 C10 C11 121.3(3) . . ?
C12 C11 C10 120.7(3) . . ?
C11 C12 C13 118.6(3) . . ?
C11 C12 C15 121.9(3) . . ?
C13 C12 C15 119.5(3) . . ?
C12 C13 C14 121.0(3) . . ?
C9 C14 C13 120.1(3) . . ?
N2 C15 C16 122.1(2) . . ?
N2 C15 C12 116.0(2) . . ?
C16 C15 C12 121.9(2) . . ?
C17 C16 C15 120.2(2) . . ?
C18 C17 C16 118.1(2) . . ?
C18 C17 C21 120.9(2) . . ?
C16 C17 C21 121.0(2) . . ?
C17 C18 C19 119.0(2) . . ?
N2 C19 C18 122.0(2) . . ?
N2 C19 C5 116.3(2) . . ?
C18 C19 C5 121.6(2) . . ?
C21 C20 N1 123.4(3) . . ?
C21 C20 C22 31.12(15) . . ?
N1 C20 C22 92.28(19) . . ?
C22 C21 C20 117.7(2) . . ?
C22 C21 C17 121.3(3) . . ?
C20 C21 C17 121.0(3) . . ?
C21 C22 C23 119.6(3) . . ?
C21 C22 C20 31.20(15) . . ?
C23 C22 C20 88.4(2) . . ?
C24 C23 C22 118.0(3) . . ?
N1 C24 C23 123.6(3) . . ?
N1 C24 Cu1 37.44(14) . 3_666 ?
C23 C24 Cu1 160.0(2) . 3_666 ?
O4 Cu1 N1 94.71(9) 4_566 3_666 ?
O4 Cu1 O1 89.47(8) 4_566 . ?
N1 Cu1 O1 98.07(9) 3_666 . ?
O4 Cu1 O3 167.87(9) 4_566 2 ?
N1 Cu1 O3 97.42(9) 3_666 2 ?
O1 Cu1 O3 88.96(8) . 2 ?
O4 Cu1 O2 88.95(9) 4_566 3_566 ?
N1 Cu1 O2 94.05(8) 3_666 3_566 ?
O1 Cu1 O2 167.86(9) . 3_566 ?
O3 Cu1 O2 90.06(8) 2 3_566 ?
O4 Cu1 Cu1 83.80(6) 4_566 3_566 ?
N1 Cu1 Cu1 175.28(6) 3_666 3_566 ?
O1 Cu1 Cu1 86.41(6) . 3_566 ?
O3 Cu1 Cu1 84.09(7) 2 3_566 ?
O2 Cu1 Cu1 81.45(6) 3_566 3_566 ?
O4 Cu1 C24 105.97(9) 4_566 3_666 ?
N1 Cu1 C24 21.82(7) 3_666 3_666 ?
O1 Cu1 C24 116.12(9) . 3_666 ?
O3 Cu1 C24 85.48(9) 2 3_666 ?
O2 Cu1 C24 75.85(9) 3_566 3_666 ?
Cu1 Cu1 C24 154.96(6) 3_566 3_666 ?

_diffrn_measured_fraction_theta_max 0.988
_diffrn_reflns_theta_full        60.00
_diffrn_measured_fraction_theta_full 0.988
_refine_diff_density_max         0.545
_refine_diff_density_min         -0.238
_refine_diff_density_rms         0.041
loop_
_platon_squeeze_void_nr
_platon_squeeze_void_average_x
_platon_squeeze_void_average_y
_platon_squeeze_void_average_z
_platon_squeeze_void_volume
_platon_squeeze_void_count_electrons
_platon_squeeze_void_content
1 -0.027 0.495 0.027 3658 1119 ' '
_platon_squeeze_details          
;
;
