####################################################################### 
# 
# This file contains crystal structure data downloaded from the 
# Cambridge Structural Database (CSD) hosted by the Cambridge 
# Crystallographic Data Centre (CCDC).
# 
# Full information about CCDC data access policies and citation 
# guidelines are available at http://www.ccdc.cam.ac.uk/access/V1 
# 
# Audit and citation data items may have been added by the CCDC. 
# Please retain this information to preserve the provenance of 
# this file and to allow appropriate attribution of the data. 
# 
#######################################################################

data_1_298K
_audit_block_doi                 10.5517/cc11jnpx
_database_code_depnum_ccdc_archive 'CCDC 969329'
loop_
_citation_id
_citation_doi
_citation_year
1 10.1039/C3CE42219D 2014
_audit_update_record             
;
2013-10-30 deposited with the CCDC.	2024-07-12 downloaded from the CCDC.
;

_audit_creation_method           SHELXL-97
_chemical_name_systematic        
; 
 ? 
;
_chemical_name_common            ?
_chemical_melting_point          ?
_chemical_formula_moiety         ?
_chemical_formula_sum            'C24 H14 Cu N2 O4'
_chemical_formula_weight         457.92

loop_
_atom_type_symbol
_atom_type_description
_atom_type_scat_dispersion_real
_atom_type_scat_dispersion_imag
_atom_type_scat_source
C C 0.0033 0.0016 'International Tables Vol C Tables 4.2.6.8 and 6.1.1.4'
H H 0.0000 0.0000 'International Tables Vol C Tables 4.2.6.8 and 6.1.1.4'
Cu Cu 0.3201 1.2651 'International Tables Vol C Tables 4.2.6.8 and 6.1.1.4'
N N 0.0061 0.0033 'International Tables Vol C Tables 4.2.6.8 and 6.1.1.4'
O O 0.0106 0.0060 'International Tables Vol C Tables 4.2.6.8 and 6.1.1.4'

_symmetry_cell_setting           Monoclinic
_symmetry_space_group_name_H-M   P21/c

loop_
_symmetry_equiv_pos_as_xyz
'x, y, z'
'-x, y+1/2, -z+1/2'
'-x, -y, -z'
'x, -y-1/2, z-1/2'

_cell_length_a                   13.8641(6)
_cell_length_b                   18.1349(9)
_cell_length_c                   26.5914(12)
_cell_angle_alpha                90.00
_cell_angle_beta                 117.3390(10)
_cell_angle_gamma                90.00
_cell_volume                     5939.0(5)
_cell_formula_units_Z            4
_cell_measurement_temperature    298(2)
_cell_measurement_reflns_used    ?
_cell_measurement_theta_min      ?
_cell_measurement_theta_max      ?

_exptl_crystal_description       block
_exptl_crystal_colour            green
_exptl_crystal_size_max          0.40
_exptl_crystal_size_mid          0.30
_exptl_crystal_size_min          0.25
_exptl_crystal_density_meas      ?
_exptl_crystal_density_diffrn    0.512
_exptl_crystal_density_method    'not measured'
_exptl_crystal_F_000             932
_exptl_absorpt_coefficient_mu    0.379
_exptl_absorpt_correction_type   ?
_exptl_absorpt_correction_T_min  0.8630
_exptl_absorpt_correction_T_max  0.9111
_exptl_absorpt_process_details   ?

_exptl_special_details           
; 
 ? 
;

_diffrn_ambient_temperature      298(2)
_diffrn_radiation_wavelength     0.71073
_diffrn_radiation_type           MoK\a
_diffrn_radiation_source         'fine-focus sealed tube'
_diffrn_radiation_monochromator  graphite
_diffrn_measurement_device_type  CCD
_diffrn_measurement_method       '/w scan'
_diffrn_detector_area_resol_mean ?
_diffrn_standards_number         ?
_diffrn_standards_interval_count ?
_diffrn_standards_interval_time  ?
_diffrn_standards_decay_%        ?
_diffrn_reflns_number            38161
_diffrn_reflns_av_R_equivalents  0.0667
_diffrn_reflns_av_sigmaI/netI    0.0748
_diffrn_reflns_limit_h_min       -16
_diffrn_reflns_limit_h_max       17
_diffrn_reflns_limit_k_min       -22
_diffrn_reflns_limit_k_max       22
_diffrn_reflns_limit_l_min       -32
_diffrn_reflns_limit_l_max       32
_diffrn_reflns_theta_min         1.72
_diffrn_reflns_theta_max         26.00
_reflns_number_total             11453
_reflns_number_gt                7673
_reflns_threshold_expression     >2sigma(I)

_computing_data_collection       ?
_computing_cell_refinement       ?
_computing_data_reduction        ?
_computing_structure_solution    'SHELXS-97 (Sheldrick, 1990)'
_computing_structure_refinement  'SHELXL-97 (Sheldrick, 1997)'
_computing_molecular_graphics    ?
_computing_publication_material  ?

_refine_special_details          
; 
 Refinement of F^2^ against ALL reflections.  The weighted R-factor wR and 
 goodness of fit S are based on F^2^, conventional R-factors R are based 
 on F, with F set to zero for negative F^2^. The threshold expression of 
 F^2^ > 2sigma(F^2^) is used only for calculating R-factors(gt) etc. and is 
 not relevant to the choice of reflections for refinement.  R-factors based 
 on F^2^ are statistically about twice as large as those based on F, and R- 
 factors based on ALL data will be even larger. 
;

_refine_ls_structure_factor_coef Fsqd
_refine_ls_matrix_type           full
_refine_ls_weighting_scheme      calc
_refine_ls_weighting_details     
'calc w=1/[\s^2^(Fo^2^)+(0.0200P)^2^+0.0000P] where P=(Fo^2^+2Fc^2^)/3'
_atom_sites_solution_primary     direct
_atom_sites_solution_secondary   difmap
_atom_sites_solution_hydrogens   geom
_refine_ls_hydrogen_treatment    constr
_refine_ls_extinction_method     none
_refine_ls_extinction_coef       ?
_refine_ls_number_reflns         11453
_refine_ls_number_parameters     280
_refine_ls_number_restraints     0
_refine_ls_R_factor_all          0.0605
_refine_ls_R_factor_gt           0.0411
_refine_ls_wR_factor_ref         0.0867
_refine_ls_wR_factor_gt          0.0839
_refine_ls_goodness_of_fit_ref   1.014
_refine_ls_restrained_S_all      1.014
_refine_ls_shift/su_max          0.001
_refine_ls_shift/su_mean         0.000

loop_
_atom_site_label
_atom_site_type_symbol
_atom_site_fract_x
_atom_site_fract_y
_atom_site_fract_z
_atom_site_U_iso_or_equiv
_atom_site_adp_type
_atom_site_occupancy
_atom_site_symmetry_multiplicity
_atom_site_calc_flag
_atom_site_refinement_flags
_atom_site_disorder_assembly
_atom_site_disorder_group
O2 O 0.03164(10) 0.41655(8) 0.44926(5) 0.0524(4) Uani 1 1 d . . .
O1 O 0.14917(10) 0.51053(7) 0.48375(5) 0.0482(3) Uani 1 1 d . . .
O3 O 0.03008(10) 0.10176(7) 0.05262(5) 0.0500(4) Uani 1 1 d . . .
O4 O 0.14827(10) 0.00799(8) 0.08586(5) 0.0495(4) Uani 1 1 d . . .
N1 N 0.83431(12) 0.34519(9) 0.44581(6) 0.0425(4) Uani 1 1 d . . .
N2 N 0.31830(12) 0.27509(9) 0.31480(6) 0.0517(5) Uani 1 1 d . . .
C1 C 0.11616(15) 0.45093(12) 0.45683(7) 0.0422(5) Uani 1 1 d . . .
C2 C 0.18314(16) 0.41770(11) 0.43144(8) 0.0476(5) Uani 1 1 d . . .
C3 C 0.28156(17) 0.44659(13) 0.44132(9) 0.0666(7) Uani 1 1 d . . .
H3 H 0.3065 0.4891 0.4631 0.080 Uiso 1 1 calc R . .
C4 C 0.34455(18) 0.41406(13) 0.41965(10) 0.0711(7) Uani 1 1 d . . .
H4 H 0.4121 0.4339 0.4281 0.085 Uiso 1 1 calc R . .
C5 C 0.30846(16) 0.35239(12) 0.38566(8) 0.0536(6) Uani 1 1 d . . .
C6 C 0.20712(18) 0.32411(15) 0.37478(10) 0.0798(8) Uani 1 1 d . . .
H6 H 0.1802 0.2830 0.3515 0.096 Uiso 1 1 calc R . .
C7 C 0.14676(17) 0.35562(14) 0.39769(10) 0.0757(8) Uani 1 1 d . . .
H7 H 0.0802 0.3350 0.3905 0.091 Uiso 1 1 calc R . .
C8 C 0.11485(15) 0.07128(11) 0.08916(7) 0.0418(5) Uani 1 1 d . . .
C9 C 0.18278(15) 0.11532(11) 0.14233(7) 0.0457(5) Uani 1 1 d . . .
C10 C 0.28366(16) 0.08976(12) 0.18060(8) 0.0619(7) Uani 1 1 d . . .
H10 H 0.3097 0.0456 0.1738 0.074 Uiso 1 1 calc R . .
C11 C 0.34643(16) 0.12999(12) 0.22929(8) 0.0616(7) Uani 1 1 d . . .
H11 H 0.4150 0.1129 0.2546 0.074 Uiso 1 1 calc R . .
C12 C 0.30848(15) 0.19457(12) 0.24049(8) 0.0500(6) Uani 1 1 d . . .
C13 C 0.20634(17) 0.21965(13) 0.20218(9) 0.0669(7) Uani 1 1 d . . .
H13 H 0.1790 0.2629 0.2095 0.080 Uiso 1 1 calc R . .
C14 C 0.14495(17) 0.18028(13) 0.15292(9) 0.0652(7) Uani 1 1 d . . .
H14 H 0.0775 0.1981 0.1269 0.078 Uiso 1 1 calc R . .
C15 C 0.37518(16) 0.23753(11) 0.29366(8) 0.0494(5) Uani 1 1 d . . .
C16 C 0.48744(16) 0.23833(11) 0.31823(8) 0.0537(6) Uani 1 1 d . . .
H16 H 0.5238 0.2114 0.3024 0.064 Uiso 1 1 calc R . .
C17 C 0.54522(15) 0.27980(11) 0.36690(8) 0.0465(5) Uani 1 1 d . . .
C18 C 0.48758(15) 0.31834(11) 0.38858(8) 0.0494(5) Uani 1 1 d . . .
H18 H 0.5242 0.3466 0.4211 0.059 Uiso 1 1 calc R . .
C19 C 0.37506(16) 0.31530(11) 0.36229(8) 0.0497(5) Uani 1 1 d . . .
C20 C 0.72641(15) 0.34244(11) 0.42036(7) 0.0420(5) Uani 1 1 d . . .
H20 H 0.6888 0.3853 0.4195 0.050 Uiso 1 1 calc R . .
C21 C 0.66626(15) 0.27973(11) 0.39508(8) 0.0463(5) Uani 1 1 d . . .
C22 C 0.72405(17) 0.21671(12) 0.39704(10) 0.0714(7) Uani 1 1 d . . .
H22 H 0.6876 0.1735 0.3801 0.086 Uiso 1 1 calc R . .
C23 C 0.83610(18) 0.21825(13) 0.42427(12) 0.0851(9) Uani 1 1 d . . .
H23 H 0.8762 0.1761 0.4267 0.102 Uiso 1 1 calc R . .
C24 C 0.88693(16) 0.28349(12) 0.44770(10) 0.0655(7) Uani 1 1 d . . .
H24 H 0.9624 0.2844 0.4659 0.079 Uiso 1 1 calc R . .
Cu1 Cu 0.069147(17) 0.556040(12) 0.520087(8) 0.03344(7) Uani 1 1 d . . .

loop_
_atom_site_aniso_label
_atom_site_aniso_U_11
_atom_site_aniso_U_22
_atom_site_aniso_U_33
_atom_site_aniso_U_23
_atom_site_aniso_U_13
_atom_site_aniso_U_12
O2 0.0363(8) 0.0632(10) 0.0631(9) -0.0198(7) 0.0276(7) -0.0089(7)
O1 0.0406(8) 0.0507(9) 0.0585(8) -0.0129(7) 0.0272(7) -0.0065(7)
O3 0.0389(8) 0.0530(9) 0.0410(7) -0.0098(6) 0.0036(6) 0.0015(7)
O4 0.0402(8) 0.0535(9) 0.0387(7) -0.0107(6) 0.0043(6) 0.0024(7)
N1 0.0264(9) 0.0453(10) 0.0483(9) -0.0082(7) 0.0106(8) -0.0016(8)
N2 0.0343(10) 0.0670(12) 0.0519(10) -0.0262(9) 0.0183(8) -0.0085(9)
C1 0.0316(12) 0.0556(14) 0.0375(10) 0.0015(10) 0.0142(9) 0.0081(11)
C2 0.0364(12) 0.0602(14) 0.0480(11) -0.0128(10) 0.0208(10) -0.0025(10)
C3 0.0506(14) 0.0758(16) 0.0871(16) -0.0437(13) 0.0435(13) -0.0198(13)
C4 0.0460(14) 0.0827(18) 0.0997(18) -0.0456(14) 0.0463(14) -0.0240(12)
C5 0.0331(12) 0.0739(16) 0.0543(12) -0.0238(11) 0.0205(10) -0.0068(11)
C6 0.0470(15) 0.104(2) 0.0949(18) -0.0627(15) 0.0383(14) -0.0251(14)
C7 0.0411(14) 0.105(2) 0.0923(17) -0.0502(15) 0.0407(13) -0.0209(13)
C8 0.0342(12) 0.0568(15) 0.0307(10) -0.0097(9) 0.0116(9) -0.0094(10)
C9 0.0326(12) 0.0544(13) 0.0409(11) -0.0106(9) 0.0089(9) -0.0052(10)
C10 0.0462(14) 0.0693(15) 0.0533(13) -0.0254(11) 0.0084(11) 0.0038(12)
C11 0.0345(13) 0.0741(16) 0.0534(12) -0.0241(11) 0.0006(10) 0.0068(11)
C12 0.0330(12) 0.0657(15) 0.0460(11) -0.0230(10) 0.0138(10) -0.0082(10)
C13 0.0427(14) 0.0688(16) 0.0704(15) -0.0320(12) 0.0099(12) 0.0060(12)
C14 0.0413(13) 0.0706(16) 0.0597(13) -0.0241(12) 0.0026(11) 0.0064(12)
C15 0.0402(13) 0.0568(14) 0.0506(12) -0.0208(10) 0.0203(10) -0.0092(10)
C16 0.0345(12) 0.0670(15) 0.0571(12) -0.0293(11) 0.0190(10) -0.0064(11)
C17 0.0330(12) 0.0539(13) 0.0510(12) -0.0197(10) 0.0181(10) -0.0089(10)
C18 0.0331(12) 0.0617(14) 0.0496(11) -0.0249(10) 0.0158(10) -0.0129(10)
C19 0.0387(13) 0.0606(14) 0.0519(12) -0.0206(10) 0.0226(10) -0.0091(10)
C20 0.0336(12) 0.0468(12) 0.0428(10) -0.0110(9) 0.0153(9) 0.0021(9)
C21 0.0328(12) 0.0503(13) 0.0515(11) -0.0203(10) 0.0156(9) -0.0067(10)
C22 0.0441(15) 0.0529(15) 0.1021(18) -0.0348(13) 0.0205(13) -0.0143(12)
C23 0.0399(15) 0.0559(16) 0.141(2) -0.0338(15) 0.0253(15) 0.0045(12)
C24 0.0270(12) 0.0568(15) 0.0937(17) -0.0159(13) 0.0114(12) -0.0001(11)
Cu1 0.02551(13) 0.04024(13) 0.02999(11) -0.00014(10) 0.00880(9) 0.00048(11)

_geom_special_details            
; 
 All esds (except the esd in the dihedral angle between two l.s. planes) 
 are estimated using the full covariance matrix.  The cell esds are taken 
 into account individually in the estimation of esds in distances, angles 
 and torsion angles; correlations between esds in cell parameters are only 
 used when they are defined by crystal symmetry.  An approximate (isotropic) 
 treatment of cell esds is used for estimating esds involving l.s. planes. 
;

loop_
_geom_bond_atom_site_label_1
_geom_bond_atom_site_label_2
_geom_bond_distance
_geom_bond_site_symmetry_2
_geom_bond_publ_flag
O2 C1 1.259(2) . ?
O2 Cu1 1.9774(14) 3_566 ?
O1 C1 1.261(2) . ?
O1 Cu1 1.9572(13) . ?
O3 C8 1.258(2) . ?
O3 Cu1 1.9686(11) 2_545 ?
O4 C8 1.256(2) . ?
O4 Cu1 1.9617(12) 4_565 ?
N1 C24 1.324(2) . ?
N1 C20 1.330(2) . ?
N1 Cu1 2.1697(15) 3_666 ?
N2 C15 1.345(2) . ?
N2 C19 1.354(2) . ?
C1 C2 1.502(3) . ?
C2 C3 1.370(3) . ?
C2 C7 1.383(3) . ?
C3 C4 1.380(3) . ?
C4 C5 1.379(3) . ?
C5 C6 1.395(3) . ?
C5 C19 1.489(3) . ?
C6 C7 1.366(3) . ?
C8 C9 1.517(2) . ?
C9 C14 1.370(3) . ?
C9 C10 1.378(2) . ?
C10 C11 1.390(2) . ?
C11 C12 1.372(3) . ?
C12 C13 1.387(3) . ?
C12 C15 1.503(2) . ?
C13 C14 1.388(2) . ?
C15 C16 1.384(2) . ?
C16 C17 1.389(2) . ?
C17 C18 1.372(3) . ?
C17 C21 1.491(2) . ?
C18 C19 1.387(2) . ?
C20 C21 1.388(2) . ?
C21 C22 1.383(3) . ?
C22 C23 1.380(3) . ?
C23 C24 1.372(3) . ?
Cu1 O4 1.9617(12) 4_566 ?
Cu1 O3 1.9686(11) 2 ?
Cu1 O2 1.9774(14) 3_566 ?
Cu1 N1 2.1697(15) 3_666 ?
Cu1 Cu1 2.6584(4) 3_566 ?

loop_
_geom_angle_atom_site_label_1
_geom_angle_atom_site_label_2
_geom_angle_atom_site_label_3
_geom_angle
_geom_angle_site_symmetry_1
_geom_angle_site_symmetry_3
_geom_angle_publ_flag
C1 O2 Cu1 126.26(13) . 3_566 ?
C1 O1 Cu1 120.11(13) . . ?
C8 O3 Cu1 123.87(12) . 2_545 ?
C8 O4 Cu1 122.02(11) . 4_565 ?
C24 N1 C20 117.33(16) . . ?
C24 N1 Cu1 117.29(13) . 3_666 ?
C20 N1 Cu1 125.27(13) . 3_666 ?
C15 N2 C19 117.48(16) . . ?
O2 C1 O1 125.72(18) . . ?
O2 C1 C2 116.83(18) . . ?
O1 C1 C2 117.45(18) . . ?
C3 C2 C7 118.0(2) . . ?
C3 C2 C1 121.83(18) . . ?
C7 C2 C1 120.12(19) . . ?
C2 C3 C4 121.5(2) . . ?
C5 C4 C3 120.8(2) . . ?
C4 C5 C6 117.5(2) . . ?
C4 C5 C19 122.12(19) . . ?
C6 C5 C19 120.38(19) . . ?
C7 C6 C5 121.2(2) . . ?
C6 C7 C2 121.0(2) . . ?
O4 C8 O3 126.25(16) . . ?
O4 C8 C9 117.09(16) . . ?
O3 C8 C9 116.66(18) . . ?
C14 C9 C10 119.46(17) . . ?
C14 C9 C8 120.79(17) . . ?
C10 C9 C8 119.75(19) . . ?
C9 C10 C11 120.0(2) . . ?
C12 C11 C10 120.81(18) . . ?
C11 C12 C13 118.98(17) . . ?
C11 C12 C15 121.01(17) . . ?
C13 C12 C15 120.01(19) . . ?
C12 C13 C14 120.1(2) . . ?
C9 C14 C13 120.64(19) . . ?
N2 C15 C16 123.05(17) . . ?
N2 C15 C12 115.47(17) . . ?
C16 C15 C12 121.48(18) . . ?
C15 C16 C17 119.20(19) . . ?
C18 C17 C16 117.99(17) . . ?
C18 C17 C21 121.85(16) . . ?
C16 C17 C21 120.13(18) . . ?
C17 C18 C19 120.35(17) . . ?
N2 C19 C18 121.94(18) . . ?
N2 C19 C5 115.23(17) . . ?
C18 C19 C5 122.76(17) . . ?
N1 C20 C21 124.22(18) . . ?
C22 C21 C20 116.75(18) . . ?
C22 C21 C17 121.25(18) . . ?
C20 C21 C17 122.00(18) . . ?
C23 C22 C21 119.74(19) . . ?
C24 C23 C22 118.4(2) . . ?
N1 C24 C23 123.54(19) . . ?
O1 Cu1 O4 88.79(6) . 4_566 ?
O1 Cu1 O3 89.52(6) . 2 ?
O4 Cu1 O3 167.79(5) 4_566 2 ?
O1 Cu1 O2 167.86(5) . 3_566 ?
O4 Cu1 O2 89.60(6) 4_566 3_566 ?
O3 Cu1 O2 89.52(6) 2 3_566 ?
O1 Cu1 N1 100.01(6) . 3_666 ?
O4 Cu1 N1 97.53(6) 4_566 3_666 ?
O3 Cu1 N1 94.68(5) 2 3_666 ?
O2 Cu1 N1 92.13(6) 3_566 3_666 ?
O1 Cu1 Cu1 86.96(4) . 3_566 ?
O4 Cu1 Cu1 84.87(4) 4_566 3_566 ?
O3 Cu1 Cu1 82.97(4) 2 3_566 ?
O2 Cu1 Cu1 80.91(4) 3_566 3_566 ?
N1 Cu1 Cu1 172.65(5) 3_666 3_566 ?

_diffrn_measured_fraction_theta_max 0.981
_diffrn_reflns_theta_full        26.00
_diffrn_measured_fraction_theta_full 0.981
_refine_diff_density_max         0.429
_refine_diff_density_min         -0.357
_refine_diff_density_rms         0.041
loop_
_platon_squeeze_void_nr
_platon_squeeze_void_average_x
_platon_squeeze_void_average_y
_platon_squeeze_void_average_z
_platon_squeeze_void_volume
_platon_squeeze_void_count_electrons
_platon_squeeze_void_content
1 -0.013 0.438 0.002 4443 1025 ' '
_platon_squeeze_details          
;
;
