
#######################################################################
#
#                 Cambridge Crystallographic Data Centre
#                                CCDC
#
#######################################################################
#
# If this CIF has been generated from an entry in the Cambridge
# Structural Database, then it will include bibliographic, chemical,
# crystal, experimental, refinement or atomic coordinate data resulting
# from the CCDC's data processing and validation procedures.
#
#######################################################################

data_CSD_CIF_SIYZIJ
_audit_creation_date 1991-10-31
_audit_creation_method CSD-ConQuest-V1
_database_code_CSD SIYZIJ
_database_code_depnum_ccdc_archive 'CCDC 1260558'
_database_code_depnum_ccdc_fiz 'CSD 320182'
_chemical_formula_sum 'C12 H20 Cl2 Cu1 O12 S2'
_chemical_formula_moiety
;
2(C6 H4 Cl1 O3 S1 1-),H12 Cu1 O6 2+
;
_journal_coden_Cambridge 643
_journal_volume 195
_journal_year 1991
_journal_page_first 141
_journal_name_full 'Z.Krist.Cryst.Mater. '
loop_
_publ_author_name
"G.Bernardinelli"
"E.A.C.Lucken"
"M.Costines"
_chemical_name_systematic
;
Hexa-aqua-copper(ii) bis(4-chloro-benzenesulfonate)
;
_chemical_name_common
;
Teaching Subset: Fundamental Chemistry, Symmetry
;
_cell_volume   1054.203
_exptl_crystal_colour 'colorless'
_diffrn_ambient_temperature ?
_diffrn_special_details
;
The study was carried out at room temperature,in the range 283-303K

;
#These two values have been output from a single CSD field.
_refine_ls_R_factor_gt 0.033
_refine_ls_wR_factor_gt 0.033
_symmetry_cell_setting monoclinic
_symmetry_space_group_name_H-M 'P 21/c'
_symmetry_Int_Tables_number 14
loop_
_symmetry_equiv_pos_site_id
_symmetry_equiv_pos_as_xyz
1 x,y,z
2 -x,1/2+y,1/2-z
3 -x,-y,-z
4 x,-1/2-y,-1/2+z
_cell_length_a 5.7910(5)
_cell_length_b 25.614(3)
_cell_length_c 7.3360(9)
_cell_angle_alpha 90
_cell_angle_beta 104.350(9)
_cell_angle_gamma 90
_cell_formula_units_Z 2
loop_
_atom_type_symbol
_atom_type_radius_bond
C 0.68
H 0.23
Cl 0.99
Cu 1.52
O 0.68
S 1.02
loop_
_atom_site_label
_atom_site_type_symbol
_atom_site_fract_x
_atom_site_fract_y
_atom_site_fract_z
Cu1 Cu 0.00000 0.50000 0.50000
O1 O 0.15654(43) 0.54271(12) 0.71588(37)
O2 O 0.16461(38) 0.53726(11) 0.33845(33)
O3 O 0.35130(41) 0.44552(10) 0.58069(31)
H1 H 0.270(14) 0.5538(27) 0.7105(86)
H2 H 0.086(11) 0.5476(24) 0.8063(93)
H3 H 0.291(15) 0.5401(26) 0.3588(89)
H4 H 0.099(12) 0.5445(26) 0.246(11)
H5 H 0.343(11) 0.4305(28) 0.498(11)
H6 H 0.344(11) 0.4242(28) 0.662(10)
Cl1 Cl -0.06573(22) 0.33810(4) 0.51006(16)
S1 S 0.27188(12) 0.10580(3) 0.55830(9)
O4 O 0.41155(46) 0.10396(11) 0.41854(35)
O5 O 0.41733(41) 0.09607(10) 0.74863(32)
O6 O 0.06047(39) 0.07279(9) 0.51109(31)
C1 C 0.16743(54) 0.17087(13) 0.55741(38)
C2 C -0.07063(60) 0.18243(15) 0.48870(51)
C3 C -0.14214(62) 0.23447(17) 0.47588(57)
C4 C 0.02500(71) 0.27335(14) 0.53344(46)
C5 C 0.26175(74) 0.26173(17) 0.60661(62)
C6 C 0.33206(62) 0.21041(16) 0.62066(55)
H7 H -0.198(11) 0.1570(25) 0.4579(84)
H8 H -0.305(12) 0.2427(24) 0.4486(86)
H9 H 0.378(11) 0.2882(26) 0.6572(84)
H10 H 0.493(13) 0.2048(24) 0.6664(86)
O1B O -0.15654(43) 0.45729(12) 0.28412(37)
O2B O -0.16461(38) 0.46274(11) 0.66155(33)
O3B O -0.35130(41) 0.55448(10) 0.41931(31)
H1B H -0.270(14) 0.4462(27) 0.2895(86)
H2B H -0.086(11) 0.4524(24) 0.1937(93)
H3B H -0.291(15) 0.4599(26) 0.6412(89)
H4B H -0.099(12) 0.4555(26) 0.754(11)
H5B H -0.343(11) 0.5695(28) 0.502(11)
H6B H -0.344(11) 0.5758(28) 0.338(10)
#END
