
#######################################################################
#
#                 Cambridge Crystallographic Data Centre
#                                CCDC
#
#######################################################################
#
# If this CIF has been generated from an entry in the Cambridge
# Structural Database, then it will include bibliographic, chemical,
# crystal, experimental, refinement or atomic coordinate data resulting
# from the CCDC's data processing and validation procedures.
#
#######################################################################

data_CSD_CIF_SOBWAH
_audit_creation_date 1992-01-27
_audit_creation_method CSD-ConQuest-V1
_database_code_CSD SOBWAH
_database_code_depnum_ccdc_archive 'CCDC 1260877'
_chemical_formula_sum 'C4 H12 F5 N1 Xe1'
_chemical_formula_moiety
;
C4 H12 N1 1+,F5 Xe1 1-
;
_journal_coden_Cambridge 4
_journal_volume 113
_journal_year 1991
_journal_page_first 3351
_journal_name_full 'J.Am.Chem.Soc. '
loop_
_publ_author_name
"K.O.Christe"
"E.C.Curtis"
"D.A.Dixon"
"H.P.Mercier"
"J.C.P.Sanders"
"G.J.Schrobilgen"
_chemical_name_systematic
;
Tetramethylammonium pentafluoro-xenate(iv)
;
_chemical_name_common
;
Teaching Subset: Fundamental Chemistry, Symmetry
;
_cell_volume    902.503
_exptl_crystal_colour 'colorless'
_exptl_crystal_density_diffrn 2.153
_exptl_special_details
;
At room temperature a=6.400, b=10.321, c=14.029 and v=926.71
Dx reported as 2.153; we calculate 2.21. Author has supplied correct H atom 
coordinates
;
_diffrn_ambient_temperature 187.15
#These two values have been output from a single CSD field.
_refine_ls_R_factor_gt 0.0435
_refine_ls_wR_factor_gt 0.0435
_symmetry_cell_setting orthorhombic
_symmetry_space_group_name_H-M 'P m c n'
_symmetry_Int_Tables_number 62
loop_
_symmetry_equiv_pos_site_id
_symmetry_equiv_pos_as_xyz
1 x,y,z
2 1/2-x,1/2-y,1/2+z
3 1/2+x,-y,-z
4 -x,1/2+y,1/2-z
5 -x,-y,-z
6 -1/2+x,-1/2+y,-1/2-z
7 -1/2-x,y,z
8 x,-1/2-y,-1/2+z
_cell_length_a 6.340(2)
_cell_length_b 10.244(3)
_cell_length_c 13.896(4)
_cell_angle_alpha 90
_cell_angle_beta 90
_cell_angle_gamma 90
_cell_formula_units_Z 4
loop_
_atom_type_symbol
_atom_type_radius_bond
C 0.68
H 0.21
F 0.64
N 0.68
Xe 1.00
loop_
_atom_site_label
_atom_site_type_symbol
_atom_site_fract_x
_atom_site_fract_y
_atom_site_fract_z
Xe1 Xe 0.25000 0.1233(1) 0.0155(1)
F1 F 0.25000 0.1876(9) 0.1497(6)
F2 F 0.25000 -0.0324(8) 0.1025(6)
F3 F 0.25000 -0.0399(8) -0.0673(6)
F4 F 0.25000 0.1799(9) -0.1236(6)
F5 F 0.25000 0.3217(8) 0.0110(6)
N1 N 0.25000 -0.403(1) 0.172(1)
C1 C 0.25000 -0.372(2) 0.068(1)
C2 C 0.25000 -0.281(2) 0.231(1)
C3 C 0.437(5) -0.483(2) 0.196(1)
H1 H 0.25000 -0.46600 0.02500
H2 H 0.35300 -0.34000 0.06100
H3 H 0.25000 -0.30000 0.30000
H4 H 0.32100 -0.20500 0.22200
H5 H 0.58200 -0.50900 0.15500
H6 H 0.44900 -0.49600 0.24500
H7 H 0.46200 -0.54200 0.14700
C3F C 0.063(5) -0.483(2) 0.196(1)
H2F H 0.14700 -0.34000 0.06100
H4F H 0.17900 -0.20500 0.22200
H5F H -0.08200 -0.50900 0.15500
H6F H 0.05100 -0.49600 0.24500
H7F H 0.03800 -0.54200 0.14700
#END
