
#######################################################################
#
#                 Cambridge Crystallographic Data Centre
#                                CCDC
#
#######################################################################
#
# If this CIF has been generated from an entry in the Cambridge
# Structural Database, then it will include bibliographic, chemical,
# crystal, experimental, refinement or atomic coordinate data resulting
# from the CCDC's data processing and validation procedures.
#
#######################################################################

data_CSD_CIF_SOCLIF
_audit_creation_date 1992-01-27
_audit_creation_method CSD-ConQuest-V1
_database_code_CSD SOCLIF
_database_code_depnum_ccdc_archive 'CCDC 1260938'
_chemical_formula_sum 'C16 H11 F3 O1'
_chemical_formula_moiety
;
C16 H11 F3 O1
;
_journal_coden_Cambridge 182
_journal_year 1991
_journal_page_first 765
_journal_name_full 'Chem.Commun. '
loop_
_publ_author_name
"H.S.Rzepa"
"M.L.Webb"
"A.M.Z.Slawin"
"D.J.Williams"
_chemical_name_systematic
;
(S)-2,2,2-Trifluoro-1-(9-anthryl)ethanol
;
_chemical_name_common
;
Teaching Subset: Fundamental Chemistry
;
_cell_volume   1289.141
_exptl_crystal_density_diffrn 1.42
_diffrn_ambient_temperature ?
_diffrn_special_details
;
The study was carried out at room temperature,in the range 283-303K

;
#These two values have been output from a single CSD field.
_refine_ls_R_factor_gt 0.047
_refine_ls_wR_factor_gt 0.047
loop_
_citation_database_id_CSD
_citation_special_details
EWOGUT "is a stereoisomer of this entry"
VAFNIZ "is a racemate of this entry"
_symmetry_cell_setting monoclinic
_symmetry_space_group_name_H-M 'P 21'
_symmetry_Int_Tables_number 4
loop_
_symmetry_equiv_pos_site_id
_symmetry_equiv_pos_as_xyz
1 x,y,z
2 -x,1/2+y,-z
_cell_length_a 9.764(3)
_cell_length_b 10.603(2)
_cell_length_c 12.529(3)
_cell_angle_alpha 90
_cell_angle_beta 96.35(2)
_cell_angle_gamma 90
_cell_formula_units_Z 4
loop_
_atom_type_symbol
_atom_type_radius_bond
C 0.68
H 0.23
F 0.64
O 0.68
loop_
_atom_site_label
_atom_site_type_symbol
_atom_site_fract_x
_atom_site_fract_y
_atom_site_fract_z
C1 C 0.6353(3) 0.15590 0.8075(2)
C2 C 0.5851(4) 0.2495(3) 0.7392(3)
C3 C 0.6722(4) 0.3241(3) 0.6843(3)
C4 C 0.8101(4) 0.3058(3) 0.7002(3)
C5 C 0.8696(3) 0.2119(3) 0.7727(2)
C6 C 1.2179(3) 0.0962(4) 0.8848(3)
C7 C 1.2766(4) 0.0087(5) 0.9510(3)
C8 C 1.1929(3) -0.0773(4) 0.9999(3)
C9 C 1.0552(3) -0.0697(4) 0.9846(3)
C10 C 0.9840(3) 0.0240(3) 0.9149(2)
C11 C 0.8403(3) 0.0360(3) 0.8954(2)
C12 C 0.7792(3) 0.1318(3) 0.8267(2)
C13 C 1.0108(3) 0.1979(3) 0.7929(2)
C14 C 1.0718(3) 0.1080(3) 0.8635(2)
C15 C 0.7509(3) -0.0564(3) 0.9519(2)
O1 O 0.6251(2) -0.0919(2) 0.8915(2)
C16 C 0.7124(3) -0.0051(4) 1.0566(3)
F1 F 0.8247(2) 0.0236(3) 1.1220(1)
F2 F 0.6419(3) -0.0875(3) 1.1085(2)
F3 F 0.6350(2) 0.0977(3) 1.0463(2)
H1 H 0.57220 0.10590 0.84330
H2 H 0.48750 0.26420 0.72830
H3 H 0.63440 0.38820 0.63550
H4 H 0.86920 0.35710 0.66190
H5 H 1.27570 0.15310 0.85050
H6 H 1.37510 0.00420 0.96540
H7 H 1.23540 -0.14270 1.04510
H8 H 1.00170 -0.12820 1.02130
H9 H 1.06920 0.25220 0.75650
H10 H 0.80950 -0.12910 0.96210
H11 H 0.6545(40) -0.1488(36) 0.8368(26)
C17 C 0.6682(3) -0.1818(4) 0.6239(3)
C18 C 0.6142(4) -0.2758(4) 0.6788(3)
C19 C 0.6994(4) -0.3481(4) 0.7556(4)
C20 C 0.8357(4) -0.3269(4) 0.7703(3)
C21 C 0.8988(3) -0.2308(3) 0.7113(2)
C22 C 1.2499(3) -0.1105(4) 0.6783(3)
C23 C 1.3121(3) -0.0214(4) 0.6244(3)
C24 C 1.2318(4) 0.0585(4) 0.5534(3)
C25 C 1.0940(3) 0.0500(3) 0.5387(2)
C26 C 1.0197(3) -0.0423(3) 0.5944(2)
C27 C 0.8757(3) -0.0568(3) 0.5818(2)
C28 C 0.8128(3) -0.1539(3) 0.6376(2)
C29 C 1.0392(3) -0.2153(3) 0.7231(2)
C30 C 1.1038(3) -0.1244(3) 0.6663(2)
C31 C 0.7904(3) 0.0352(3) 0.5073(2)
O2 O 0.6598(2) 0.0668(2) 0.5392(2)
C32 C 0.7632(3) -0.0158(3) 0.3932(2)
F4 F 0.8790(2) -0.0393(3) 0.3522(2)
F5 F 0.6944(2) 0.0666(3) 0.3282(1)
F6 F 0.6896(3) -0.1208(3) 0.3868(2)
H12 H 0.60830 -0.13240 0.57440
H13 H 0.51740 -0.29390 0.66610
H14 H 0.65950 -0.41190 0.79670
H15 H 0.89230 -0.37720 0.82140
H16 H 1.30510 -0.16610 0.72580
H17 H 1.41050 -0.01260 0.63470
H18 H 1.27710 0.12070 0.51410
H19 H 1.04320 0.10730 0.49000
H20 H 1.09460 -0.26890 0.77230
H21 H 0.84710 0.10940 0.51130
H22 H 0.6688(54) 0.1317(44) 0.5952(32)
#END
