####################################################################### 
# 
# This file contains crystal structure data downloaded from the 
# Cambridge Structural Database (CSD) hosted by the Cambridge 
# Crystallographic Data Centre (CCDC).
# 
# Full information about CCDC data access policies and citation 
# guidelines are available at http://www.ccdc.cam.ac.uk/access/V1 
# 
# Audit and citation data items may have been added by the CCDC. 
# Please retain this information to preserve the provenance of 
# this file and to allow appropriate attribution of the data. 
# 
#######################################################################

data_ic12110
_audit_block_doi                 10.5517/ccqsq4b
_database_code_depnum_ccdc_archive 'CCDC 679152'
loop_
_citation_id
_citation_doi
_citation_year
1 10.1002/chem.200701852 2008
_audit_update_record             
;
2008-02-22 deposited with the CCDC.	2024-07-12 downloaded from the CCDC.
;

_audit_creation_method           SHELXL-97
_chemical_name_systematic        
;
?
;
_chemical_name_common            ?
_chemical_melting_point          ?
_chemical_formula_moiety         ?
_chemical_formula_sum            'C34.50 H44.50 N11.50 O13.50 Zn'
_chemical_formula_weight         901.69

loop_
_atom_type_symbol
_atom_type_description
_atom_type_scat_dispersion_real
_atom_type_scat_dispersion_imag
_atom_type_scat_source
C C 0.0033 0.0016 'International Tables Vol C Tables 4.2.6.8 and 6.1.1.4'
H H 0.0000 0.0000 'International Tables Vol C Tables 4.2.6.8 and 6.1.1.4'
N N 0.0061 0.0033 'International Tables Vol C Tables 4.2.6.8 and 6.1.1.4'
O O 0.0106 0.0060 'International Tables Vol C Tables 4.2.6.8 and 6.1.1.4'
Zn Zn 0.2839 1.4301 'International Tables Vol C Tables 4.2.6.8 and 6.1.1.4'

_symmetry_cell_setting           Triclinic
_symmetry_space_group_name_H-M   P-1

loop_
_symmetry_equiv_pos_as_xyz
'x, y, z'
'-x, -y, -z'

_cell_length_a                   14.6735(7)
_cell_length_b                   16.9018(9)
_cell_length_c                   17.1077(9)
_cell_angle_alpha                91.883(1)
_cell_angle_beta                 107.244(1)
_cell_angle_gamma                91.690(1)
_cell_volume                     4046.5(4)
_cell_formula_units_Z            4
_cell_measurement_temperature    150(2)
_cell_measurement_reflns_used    5849
_cell_measurement_theta_min      2.41
_cell_measurement_theta_max      24.33

_exptl_crystal_description       rod
_exptl_crystal_colour            colorless
_exptl_crystal_size_max          0.35
_exptl_crystal_size_mid          0.15
_exptl_crystal_size_min          0.10
_exptl_crystal_density_meas      not_measured
_exptl_crystal_density_diffrn    1.480
_exptl_crystal_density_method    'not measured'
_exptl_crystal_F_000             1880
_exptl_absorpt_coefficient_mu    0.687
_exptl_absorpt_correction_type   multi-scan
_exptl_absorpt_correction_T_min  0.7950
_exptl_absorpt_correction_T_max  0.9345
_exptl_absorpt_process_details   ?

_exptl_special_details           
;
?
;

_diffrn_ambient_temperature      150(2)
_diffrn_radiation_wavelength     0.71073
_diffrn_radiation_type           MoK\a
_diffrn_radiation_source         'fine-focus sealed tube'
_diffrn_radiation_monochromator  graphite
_diffrn_measurement_device_type  'BRUKER SMART APEXCCD area detector'
_diffrn_measurement_method       'omega scans'
_diffrn_detector_area_resol_mean ?
_diffrn_standards_number         ?
_diffrn_standards_interval_count ?
_diffrn_standards_interval_time  ?
_diffrn_standards_decay_%        ?
_diffrn_reflns_number            44013
_diffrn_reflns_av_R_equivalents  0.0610
_diffrn_reflns_av_sigmaI/netI    0.0719
_diffrn_reflns_limit_h_min       -17
_diffrn_reflns_limit_h_max       17
_diffrn_reflns_limit_k_min       -20
_diffrn_reflns_limit_k_max       20
_diffrn_reflns_limit_l_min       -20
_diffrn_reflns_limit_l_max       20
_diffrn_reflns_theta_min         1.21
_diffrn_reflns_theta_max         25.00
_reflns_number_total             14256
_reflns_number_gt                11734
_reflns_threshold_expression     >2sigma(I)

_computing_data_collection       'Bruker SMART'
_computing_cell_refinement       'Bruker SAINT'
_computing_data_reduction        'Bruker SAINT'
_computing_structure_solution    'SHELXS-97 (Sheldrick, 1990)'
_computing_structure_refinement  'SHELXL-97 (Sheldrick, 1997)'
_computing_molecular_graphics    'Bruker SHELXTL'
_computing_publication_material  'Bruker SHELXTL'

_refine_special_details          
;
Refinement of F^2^ against ALL reflections. The weighted R-factor wR and
goodness of fit S are based on F^2^, conventional R-factors R are based
on F, with F set to zero for negative F^2^. The threshold expression of
F^2^ > 2sigma(F^2^) is used only for calculating R-factors(gt) etc. and is

not relevant to the choice of reflections for refinement. R-factors based

on F^2^ are statistically about twice as large as those based on F, and R-

factors based on ALL data will be even larger.
;

_refine_ls_structure_factor_coef Fsqd
_refine_ls_matrix_type           full
_refine_ls_weighting_scheme      calc
_refine_ls_weighting_details     
'calc w=1/[\s^2^(Fo^2^)+(0.0432P)^2^+20.3639P] where P=(Fo^2^+2Fc^2^)/3'
_atom_sites_solution_primary     direct
_atom_sites_solution_secondary   difmap
_atom_sites_solution_hydrogens   geom
_refine_ls_hydrogen_treatment    constr
_refine_ls_extinction_method     none
_refine_ls_extinction_coef       ?
_refine_ls_number_reflns         14256
_refine_ls_number_parameters     1084
_refine_ls_number_restraints     0
_refine_ls_R_factor_all          0.1200
_refine_ls_R_factor_gt           0.1001
_refine_ls_wR_factor_ref         0.2069
_refine_ls_wR_factor_gt          0.1987
_refine_ls_goodness_of_fit_ref   1.307
_refine_ls_restrained_S_all      1.307
_refine_ls_shift/su_max          0.008
_refine_ls_shift/su_mean         0.000

loop_
_atom_site_label
_atom_site_type_symbol
_atom_site_fract_x
_atom_site_fract_y
_atom_site_fract_z
_atom_site_U_iso_or_equiv
_atom_site_adp_type
_atom_site_occupancy
_atom_site_symmetry_multiplicity
_atom_site_calc_flag
_atom_site_refinement_flags
_atom_site_disorder_assembly
_atom_site_disorder_group
Zn1 Zn 0.78452(5) 0.62525(5) 0.73338(4) 0.01413(19) Uani 1 1 d . . .
O1 O 0.4245(4) 0.5897(3) 0.3487(3) 0.0361(14) Uani 1 1 d . . .
O2 O 0.6396(3) 0.6876(3) 0.0891(3) 0.0248(11) Uani 1 1 d . . .
O3 O 0.1714(3) 0.5736(3) 0.0864(3) 0.0314(13) Uani 1 1 d . . .
O4 O 0.8161(3) 0.7508(3) 0.7335(3) 0.0209(10) Uani 1 1 d . . .
O5 O 0.7716(3) 0.8712(3) 0.7159(3) 0.0247(11) Uani 1 1 d . . .
O6 O 0.6737(4) 0.7805(3) 0.7340(4) 0.0369(13) Uani 1 1 d . . .
O7 O 0.7856(4) 0.5011(3) 0.7179(3) 0.0326(12) Uani 1 1 d . . .
O8 O 0.8851(4) 0.5473(4) 0.6549(4) 0.0504(17) Uani 1 1 d . . .
O9 O 0.8674(7) 0.4219(5) 0.6655(5) 0.098(3) Uani 1 1 d . . .
N1 N 0.7073(4) 0.6341(3) 0.6124(3) 0.0204(13) Uani 1 1 d . . .
N2 N 0.5707(4) 0.6460(3) 0.3610(3) 0.0216(13) Uani 1 1 d . . .
H2A H 0.6047 0.6702 0.3337 0.026 Uiso 1 1 calc R . .
N3 N 0.7041(4) 0.6222(3) -0.1872(3) 0.0174(12) Uani 1 1 d . . .
N4 N 0.5438(4) 0.6175(3) -0.0226(3) 0.0190(12) Uani 1 1 d . . .
H4A H 0.4883 0.5916 -0.0417 0.023 Uiso 1 1 calc R . .
N5 N -0.0791(4) 0.6284(3) -0.1871(3) 0.0187(12) Uani 1 1 d . . .
N6 N 0.1948(4) 0.6389(3) -0.0206(3) 0.0178(12) Uani 1 1 d . . .
H6B H 0.2380 0.6643 -0.0376 0.021 Uiso 1 1 calc R . .
N7 N 0.7520(4) 0.8015(3) 0.7280(3) 0.0211(13) Uani 1 1 d . . .
N8 N 0.8471(6) 0.4885(4) 0.6788(4) 0.046(2) Uani 1 1 d . . .
C1 C 0.4550(5) 0.6231(4) 0.2263(4) 0.0163(14) Uani 1 1 d . . .
C2 C 0.5224(4) 0.6340(4) 0.1837(4) 0.0149(13) Uani 1 1 d . . .
H2 H 0.5885 0.6401 0.2129 0.018 Uiso 1 1 calc R . .
C3 C 0.4925(4) 0.6357(4) 0.0991(4) 0.0163(14) Uani 1 1 d . . .
C4 C 0.3966(4) 0.6281(4) 0.0570(4) 0.0141(13) Uani 1 1 d . . .
H4 H 0.3764 0.6294 -0.0011 0.017 Uiso 1 1 calc R . .
C5 C 0.3290(4) 0.6187(4) 0.0988(4) 0.0180(14) Uani 1 1 d . . .
C6 C 0.3587(4) 0.6146(4) 0.1830(4) 0.0155(14) Uani 1 1 d . . .
H6A H 0.3129 0.6058 0.2115 0.019 Uiso 1 1 calc R . .
C7 C 0.4818(4) 0.6168(4) 0.3167(4) 0.0180(14) Uani 1 1 d . . .
C8 C 0.7430(5) 0.6773(4) 0.5630(4) 0.0264(17) Uani 1 1 d . . .
H8A H 0.8025 0.7056 0.5860 0.032 Uiso 1 1 calc R . .
C9 C 0.6979(5) 0.6826(4) 0.4813(4) 0.0246(16) Uani 1 1 d . . .
H9A H 0.7255 0.7148 0.4491 0.029 Uiso 1 1 calc R . .
C10 C 0.6125(5) 0.6413(4) 0.4453(4) 0.0187(14) Uani 1 1 d . . .
C11 C 0.5756(5) 0.5958(4) 0.4957(4) 0.0265(16) Uani 1 1 d . . .
H11 H 0.5170 0.5661 0.4739 0.032 Uiso 1 1 calc R . .
C12 C 0.6246(5) 0.5944(4) 0.5775(4) 0.0247(17) Uani 1 1 d . . .
H12 H 0.5981 0.5632 0.6112 0.030 Uiso 1 1 calc R . .
C13 C 0.5651(4) 0.6493(4) 0.0558(4) 0.0166(14) Uani 1 1 d . . .
C14 C 0.7309(5) 0.6680(4) -0.1189(4) 0.0247(16) Uani 1 1 d . . .
H14 H 0.7868 0.7013 -0.1091 0.030 Uiso 1 1 calc R . .
C15 C 0.6815(5) 0.6697(4) -0.0613(4) 0.0230(16) Uani 1 1 d . . .
H15 H 0.7032 0.7032 -0.0132 0.028 Uiso 1 1 calc R . .
C16 C 0.5999(4) 0.6213(4) -0.0755(4) 0.0177(14) Uani 1 1 d . . .
C17 C 0.5697(5) 0.5758(4) -0.1479(4) 0.0178(14) Uani 1 1 d . . .
H17 H 0.5121 0.5443 -0.1612 0.021 Uiso 1 1 calc R . .
C18 C 0.6253(4) 0.5772(4) -0.2004(4) 0.0183(14) Uani 1 1 d . . .
H18 H 0.6058 0.5439 -0.2487 0.022 Uiso 1 1 calc R . .
C19 C 0.2250(4) 0.6080(4) 0.0558(4) 0.0160(14) Uani 1 1 d . . .
C20 C -0.0600(5) 0.5877(4) -0.1191(4) 0.0274(17) Uani 1 1 d . . .
H20 H -0.1101 0.5558 -0.1103 0.033 Uiso 1 1 calc R . .
C21 C 0.0281(5) 0.5893(5) -0.0609(4) 0.0279(17) Uani 1 1 d . . .
H21 H 0.0374 0.5602 -0.0127 0.034 Uiso 1 1 calc R . .
C22 C 0.1019(4) 0.6333(4) -0.0734(4) 0.0159(14) Uani 1 1 d . . .
C23 C 0.0837(5) 0.6747(4) -0.1451(4) 0.0173(14) Uani 1 1 d . . .
H23 H 0.1332 0.7053 -0.1565 0.021 Uiso 1 1 calc R . .
C24 C -0.0067(4) 0.6706(4) -0.1992(4) 0.0157(14) Uani 1 1 d . . .
H24 H -0.0182 0.6994 -0.2477 0.019 Uiso 1 1 calc R . .
Zn2 Zn 0.73781(5) 0.88393(4) 0.28650(4) 0.01179(18) Uani 1 1 d . . .
O10 O 1.1022(3) 0.9026(3) 0.6699(3) 0.0244(11) Uani 1 1 d . . .
O11 O 0.8777(3) 0.8235(3) 0.9272(3) 0.0225(11) Uani 1 1 d . . .
O12 O 1.3508(3) 0.9299(3) 0.9360(3) 0.0260(12) Uani 1 1 d . . .
O13 O 0.7070(3) 0.7574(3) 0.2973(3) 0.0192(10) Uani 1 1 d . . .
O14 O 0.7541(4) 0.6377(3) 0.3081(3) 0.0325(12) Uani 1 1 d . . .
O15 O 0.8488(3) 0.7314(3) 0.2935(4) 0.0392(14) Uani 1 1 d . . .
O16 O 0.7289(3) 1.0099(3) 0.2917(3) 0.0196(10) Uani 1 1 d . . .
H16A H 0.7868 1.0330 0.3158 0.029 Uiso 1 1 d R . .
H16B H 0.6896 1.0274 0.3195 0.029 Uiso 1 1 d R . .
O17 O 0.8201(6) 1.0928(5) 0.5188(4) 0.080(3) Uani 1 1 d . . .
O18 O 0.8987(5) 1.0686(5) 0.6425(4) 0.067(2) Uani 1 1 d . . .
O19 O 0.7451(5) 1.0523(4) 0.5989(4) 0.0598(19) Uani 1 1 d . . .
N9 N 0.8138(4) 0.8865(3) 0.4077(3) 0.0171(12) Uani 1 1 d . . .
N10 N 0.9475(4) 0.8785(3) 0.6602(3) 0.0187(12) Uani 1 1 d . . .
H10A H 0.9078 0.8678 0.6885 0.022 Uiso 1 1 calc R . .
N11 N 0.8137(4) 0.8829(3) 1.2054(3) 0.0155(12) Uani 1 1 d . . .
N12 N 0.9735(4) 0.8919(3) 1.0404(3) 0.0164(12) Uani 1 1 d . . .
H12A H 1.0279 0.9197 1.0589 0.020 Uiso 1 1 calc R . .
N13 N 1.5964(3) 0.8824(3) 1.2172(3) 0.0143(11) Uani 1 1 d . . .
N14 N 1.3256(3) 0.8660(3) 1.0430(3) 0.0149(11) Uani 1 1 d . . .
H14A H 1.2819 0.8394 1.0585 0.018 Uiso 1 1 calc R . .
N15 N 0.7721(4) 0.7076(4) 0.2989(3) 0.0216(13) Uani 1 1 d . . .
N16 N 0.8230(5) 1.0712(5) 0.5871(5) 0.0474(19) Uani 1 1 d . . .
C25 C 1.0659(4) 0.8820(4) 0.7938(3) 0.0122(13) Uani 1 1 d . . .
C26 C 0.9989(4) 0.8729(4) 0.8356(4) 0.0151(14) Uani 1 1 d . . .
H26 H 0.9329 0.8672 0.8062 0.018 Uiso 1 1 calc R . .
C27 C 1.0281(4) 0.8721(4) 0.9202(4) 0.0141(13) Uani 1 1 d . . .
C28 C 1.1242(4) 0.8791(4) 0.9646(4) 0.0172(14) Uani 1 1 d . . .
H28 H 1.1434 0.8791 1.0227 0.021 Uiso 1 1 calc R . .
C29 C 1.1922(4) 0.8861(4) 0.9225(4) 0.0140(13) Uani 1 1 d . . .
C30 C 1.1627(4) 0.8881(4) 0.8382(4) 0.0157(14) Uani 1 1 d . . .
H30 H 1.2091 0.8936 0.8099 0.019 Uiso 1 1 calc R . .
C31 C 1.0408(5) 0.8878(4) 0.7027(4) 0.0176(14) Uani 1 1 d . . .
C32 C 0.7667(5) 0.8838(5) 0.4617(4) 0.0277(17) Uani 1 1 d . . .
H32 H 0.6989 0.8830 0.4422 0.033 Uiso 1 1 calc R . .
C33 C 0.8092(5) 0.8820(5) 0.5450(4) 0.0275(18) Uani 1 1 d . . .
H33 H 0.7711 0.8792 0.5811 0.033 Uiso 1 1 calc R . .
C34 C 0.9073(4) 0.8843(4) 0.5755(4) 0.0155(14) Uani 1 1 d . . .
C35 C 0.9598(5) 0.8890(4) 0.5198(4) 0.0216(15) Uani 1 1 d . . .
H35 H 1.0277 0.8922 0.5378 0.026 Uiso 1 1 calc R . .
C36 C 0.9098(5) 0.8890(4) 0.4375(4) 0.0250(16) Uani 1 1 d . . .
H36 H 0.9454 0.8910 0.3994 0.030 Uiso 1 1 calc R . .
C37 C 0.9517(5) 0.8595(4) 0.9622(4) 0.0169(14) Uani 1 1 d . . .
C38 C 0.7799(5) 0.8473(4) 1.1317(4) 0.0221(15) Uani 1 1 d . . .
H38 H 0.7193 0.8200 1.1182 0.026 Uiso 1 1 calc R . .
C39 C 0.8278(5) 0.8476(4) 1.0738(4) 0.0214(15) Uani 1 1 d . . .
H39 H 0.7999 0.8225 1.0212 0.026 Uiso 1 1 calc R . .
C40 C 0.9176(4) 0.8850(4) 1.0934(4) 0.0133(13) Uani 1 1 d . . .
C41 C 0.9549(4) 0.9198(4) 1.1714(4) 0.0173(14) Uani 1 1 d . . .
H41 H 1.0170 0.9446 1.1879 0.021 Uiso 1 1 calc R . .
C42 C 0.9011(5) 0.9179(4) 1.2244(4) 0.0165(14) Uani 1 1 d . . .
H42 H 0.9271 0.9426 1.2773 0.020 Uiso 1 1 calc R . .
C43 C 1.2967(5) 0.8963(4) 0.9669(4) 0.0194(15) Uani 1 1 d . . .
C44 C 1.5251(4) 0.8352(4) 1.2244(4) 0.0179(14) Uani 1 1 d . . .
H44 H 1.5372 0.8036 1.2710 0.021 Uiso 1 1 calc R . .
C45 C 1.4360(4) 0.8290(4) 1.1695(4) 0.0130(13) Uani 1 1 d . . .
H45 H 1.3876 0.7956 1.1791 0.016 Uiso 1 1 calc R . .
C46 C 1.4170(4) 0.8728(4) 1.0990(4) 0.0146(13) Uani 1 1 d . . .
C47 C 1.4909(5) 0.9229(4) 1.0902(4) 0.0190(14) Uani 1 1 d . . .
H47 H 1.4813 0.9542 1.0435 0.023 Uiso 1 1 calc R . .
C48 C 1.5768(4) 0.9260(4) 1.1495(4) 0.0199(15) Uani 1 1 d . . .
H48 H 1.6259 0.9608 1.1431 0.024 Uiso 1 1 calc R . .
O20 O 1.2152(3) 0.7840(3) 1.1280(3) 0.0300(12) Uani 1 1 d . . .
N17 N 1.1105(5) 0.7418(4) 1.1930(4) 0.0349(16) Uani 1 1 d . . .
C49 C 1.1398(5) 0.7546(4) 1.1294(5) 0.0257(16) Uani 1 1 d . . .
H49 H 1.0963 0.7388 1.0776 0.031 Uiso 1 1 calc R . .
C50 C 1.0214(6) 0.7023(6) 1.1892(7) 0.066(3) Uani 1 1 d . . .
H50A H 0.9818 0.6959 1.1320 0.099 Uiso 1 1 calc R . .
H50B H 0.9882 0.7339 1.2204 0.099 Uiso 1 1 calc R . .
H50C H 1.0335 0.6501 1.2127 0.099 Uiso 1 1 calc R . .
C51 C 1.1768(9) 0.7603(7) 1.2750(6) 0.075(4) Uani 1 1 d . . .
H51A H 1.1978 0.7109 1.3019 0.113 Uiso 1 1 calc R . .
H51B H 1.1444 0.7911 1.3075 0.113 Uiso 1 1 calc R . .
H51C H 1.2323 0.7912 1.2702 0.113 Uiso 1 1 calc R . .
O21 O 1.0864(8) 0.7068(7) 0.6556(7) 0.121(4) Uiso 1 1 d . . .
N18 N 1.0501(6) 0.6955(5) 0.5190(6) 0.053(2) Uani 1 1 d . . .
C52 C 1.0990(12) 0.7261(7) 0.5894(7) 0.091(5) Uani 1 1 d . . .
H52 H 1.1472 0.7655 0.5912 0.110 Uiso 1 1 calc R . .
C53 C 0.9742(8) 0.6359(8) 0.5087(10) 0.100(5) Uani 1 1 d . . .
H53A H 0.9887 0.5883 0.4811 0.151 Uiso 1 1 calc R . .
H53B H 0.9138 0.6563 0.4756 0.151 Uiso 1 1 calc R . .
H53C H 0.9688 0.6225 0.5625 0.151 Uiso 1 1 calc R . .
C54 C 1.0660(7) 0.7232(6) 0.4457(6) 0.056(3) Uani 1 1 d . . .
H54A H 1.1135 0.7674 0.4596 0.085 Uiso 1 1 calc R . .
H54B H 1.0059 0.7411 0.4091 0.085 Uiso 1 1 calc R . .
H54C H 1.0894 0.6800 0.4181 0.085 Uiso 1 1 calc R . .
O22 O 0.3644(4) 0.5255(3) -0.1078(3) 0.0382(14) Uani 1 1 d . . .
N19 N 0.2090(4) 0.4998(4) -0.1779(4) 0.0343(16) Uani 1 1 d . . .
C55 C 0.2931(6) 0.5348(5) -0.1661(5) 0.036(2) Uani 1 1 d . . .
H55 H 0.2997 0.5704 -0.2060 0.043 Uiso 1 1 calc R . .
C56 C 0.1274(7) 0.5095(7) -0.2516(6) 0.069(3) Uani 1 1 d . . .
H56A H 0.1416 0.5541 -0.2819 0.104 Uiso 1 1 calc R . .
H56B H 0.0702 0.5199 -0.2352 0.104 Uiso 1 1 calc R . .
H56C H 0.1164 0.4609 -0.2866 0.104 Uiso 1 1 calc R . .
C57 C 0.1946(6) 0.4446(6) -0.1206(7) 0.057(3) Uani 1 1 d . . .
H57A H 0.2480 0.4502 -0.0700 0.085 Uiso 1 1 calc R . .
H57B H 0.1910 0.3906 -0.1442 0.085 Uiso 1 1 calc R . .
H57C H 0.1348 0.4554 -0.1084 0.085 Uiso 1 1 calc R . .
O23 O 1.3079(4) 0.7245(3) 0.8934(3) 0.0374(14) Uani 1 1 d . . .
N20 N 1.3944(6) 0.7702(5) 0.8134(5) 0.055(2) Uani 1 1 d . . .
C58 C 1.3687(10) 0.7489(8) 0.8696(8) 0.082(4) Uiso 1 1 d . . .
H58A H 1.4234 0.7548 0.9162 0.099 Uiso 1 1 calc R . .
C59 C 1.4713(16) 0.8019(14) 0.8008(14) 0.184(9) Uiso 1 1 d . . .
H59A H 1.4552 0.8508 0.7714 0.276 Uiso 1 1 calc R . .
H59B H 1.4964 0.7645 0.7680 0.276 Uiso 1 1 calc R . .
H59C H 1.5198 0.8140 0.8535 0.276 Uiso 1 1 calc R . .
C60 C 1.3164(11) 0.7530(10) 0.7309(10) 0.119(5) Uiso 1 1 d . . .
H60A H 1.3350 0.7089 0.7011 0.178 Uiso 1 1 calc R . .
H60B H 1.3091 0.8002 0.6982 0.178 Uiso 1 1 calc R . .
H60C H 1.2558 0.7390 0.7410 0.178 Uiso 1 1 calc R . .
O24 O 1.1411(3) 0.9822(3) 1.1242(3) 0.0293(12) Uani 1 1 d . . .
N21 N 1.2995(4) 1.0092(3) 1.1835(3) 0.0240(13) Uani 1 1 d . . .
C61 C 1.2147(5) 0.9787(4) 1.1821(5) 0.0271(17) Uani 1 1 d . . .
H61 H 1.2102 0.9522 1.2291 0.033 Uiso 1 1 calc R . .
C62 C 1.3088(5) 1.0558(5) 1.1175(5) 0.0345(19) Uani 1 1 d . . .
H62A H 1.3168 1.1119 1.1353 0.052 Uiso 1 1 calc R . .
H62B H 1.2513 1.0476 1.0705 0.052 Uiso 1 1 calc R . .
H62C H 1.3647 1.0397 1.1017 0.052 Uiso 1 1 calc R . .
C63 C 1.3802(5) 1.0099(5) 1.2581(5) 0.041(2) Uani 1 1 d . . .
H63A H 1.3615 0.9813 1.3003 0.061 Uiso 1 1 calc R . .
H63B H 1.3993 1.0647 1.2778 0.061 Uiso 1 1 calc R . .
H63C H 1.4339 0.9840 1.2464 0.061 Uiso 1 1 calc R . .
O25 O 0.5657(6) 0.4394(6) 0.3381(6) 0.105(3) Uani 1 1 d . . .
N22 N 0.7058(6) 0.4416(5) 0.4298(5) 0.050(2) Uani 1 1 d . . .
C64 C 0.6405(8) 0.4623(7) 0.3604(7) 0.067(3) Uani 1 1 d . . .
H64 H 0.6606 0.4998 0.3280 0.081 Uiso 1 1 calc R . .
C65 C 0.7983(8) 0.4797(6) 0.4529(7) 0.064(3) Uani 1 1 d . . .
H65A H 0.8457 0.4410 0.4499 0.097 Uiso 1 1 calc R . .
H65B H 0.8134 0.5020 0.5091 0.097 Uiso 1 1 calc R . .
H65C H 0.7996 0.5222 0.4156 0.097 Uiso 1 1 calc R . .
C66 C 0.6828(8) 0.3868(8) 0.4848(9) 0.089(4) Uani 1 1 d . . .
H66A H 0.6138 0.3748 0.4675 0.134 Uiso 1 1 calc R . .
H66B H 0.7024 0.4106 0.5406 0.134 Uiso 1 1 calc R . .
H66C H 0.7166 0.3378 0.4837 0.134 Uiso 1 1 calc R . .
N23 N 0.5113(6) 1.1607(5) 0.5095(5) 0.053(2) Uani 1 1 d . . .
O26 O 0.4703(5) 1.0622(