####################################################################### 
# 
# This file contains crystal structure data downloaded from the 
# Cambridge Structural Database (CSD) hosted by the Cambridge 
# Crystallographic Data Centre (CCDC).
# 
# Full information about CCDC data access policies and citation 
# guidelines are available at http://www.ccdc.cam.ac.uk/access/V1 
# 
# Audit and citation data items may have been added by the CCDC. 
# Please retain this information to preserve the provenance of 
# this file and to allow appropriate attribution of the data. 
# 
#######################################################################

data_Compound-4
_audit_block_doi                 10.5517/ccr884d
_database_code_depnum_ccdc_archive 'CCDC 693133'
loop_
_citation_id
_citation_doi
_citation_year
1 10.1021/cg701213g 2008
_audit_update_record             
;
2008-06-30 deposited with the CCDC.	2024-07-12 downloaded from the CCDC.
;
_audit_creation_method           SHELXL-97
_chemical_name_systematic        
;
?
;
_chemical_name_common            ?
_chemical_melting_point          ?
_chemical_formula_moiety         'C42 H24 I2 N6 Zn'
_chemical_formula_sum            'C42 H24 I2 N6 Zn'
_chemical_formula_weight         931.84
loop_
_atom_type_symbol
_atom_type_description
_atom_type_scat_dispersion_real
_atom_type_scat_dispersion_imag
_atom_type_scat_source
C C 0.0033 0.0016 'International Tables Vol C Tables 4.2.6.8 and 6.1.1.4'
H H 0.0000 0.0000 'International Tables Vol C Tables 4.2.6.8 and 6.1.1.4'
N N 0.0061 0.0033 'International Tables Vol C Tables 4.2.6.8 and 6.1.1.4'
I I -0.4742 1.8119 'International Tables Vol C Tables 4.2.6.8 and 6.1.1.4'
Zn Zn 0.2839 1.4301 'International Tables Vol C Tables 4.2.6.8 and 6.1.1.4'
_symmetry_cell_setting           trigonal
_symmetry_space_group_name_H-M   'R -3'
loop_
_symmetry_equiv_pos_as_xyz
'x, y, z'
'-y, x-y, z'
'-x, -x, z'
'x, y, z'
'-y, x-y, z'
'-x, -x, z'
'x, y, z'
'-y, x-y, z'
'-x, -x, z'
'-x, -y, -z'
'y, -x, -z'
'x-y, x, -z'
'-x, -y, -z'
'y, -x, -z'
'x-y, x, -z'
'-x, -y, -z'
'y, -x, -z'
'x-y, x, -z'
_cell_length_a                   33.1619(11)
_cell_length_b                   33.1619(11)
_cell_length_c                   9.0988(5)
_cell_angle_alpha                90.00
_cell_angle_beta                 90.00
_cell_angle_gamma                120.00
_cell_volume                     8665.5(6)
_cell_formula_units_Z            9
_cell_measurement_temperature    110(2)
_cell_measurement_reflns_used    3401
_cell_measurement_theta_min      2.65
_cell_measurement_theta_max      25.68
_exptl_crystal_description       needles
_exptl_crystal_colour            purple
_exptl_crystal_size_max          0.60
_exptl_crystal_size_mid          0.10
_exptl_crystal_size_min          0.10
_exptl_crystal_density_meas      ?
_exptl_crystal_density_diffrn    1.607
_exptl_crystal_density_method    'not measured'
_exptl_crystal_F_000             4086
_exptl_absorpt_coefficient_mu    2.278
_exptl_absorpt_correction_type   multi-scan
_exptl_absorpt_correction_T_min  0.3418
_exptl_absorpt_correction_T_max  0.8042
_exptl_absorpt_process_details   'Blessing, 1995'
_exptl_special_details           
;
?
;
_diffrn_ambient_temperature      110(2)
_diffrn_radiation_wavelength     0.71073
_diffrn_radiation_type           MoK\a
_diffrn_radiation_source         'fine-focus sealed tube'
_diffrn_radiation_monochromator  graphite
_diffrn_measurement_device_type  'Nonius KappaCCD'
_diffrn_measurement_method       '0.7 deg. \f scans'
_diffrn_detector_area_resol_mean 12.8
_diffrn_standards_number         0
_diffrn_standards_interval_count ?
_diffrn_standards_interval_time  ?
_diffrn_standards_decay_%        ?
_diffrn_reflns_number            11284
_diffrn_reflns_av_R_equivalents  0.0900
_diffrn_reflns_av_sigmaI/netI    0.0667
_diffrn_reflns_limit_h_min       0
_diffrn_reflns_limit_h_max       40
_diffrn_reflns_limit_k_min       -34
_diffrn_reflns_limit_k_max       0
_diffrn_reflns_limit_l_min       -11
_diffrn_reflns_limit_l_max       11
_diffrn_reflns_theta_min         2.65
_diffrn_reflns_theta_max         25.67
_reflns_number_total             3594
_reflns_number_gt                2538
_reflns_threshold_expression     >2sigma(I)
_computing_data_collection       'Collect, Nonius B.V.'
_computing_cell_refinement       Denzo
_computing_data_reduction        'Denzo & Scalepack'
_computing_structure_solution    'SHELXS-97 (Sheldrick, 1990)'
_computing_structure_refinement  'SHELXL-97 (Sheldrick, 1997)'
_computing_molecular_graphics    ?
_computing_publication_material  ?
_refine_special_details          
;
Refinement of F^2^ against ALL reflections. The weighted R-factor wR and
goodness of fit S are based on F^2^, conventional R-factors R are based
on F, with F set to zero for negative F^2^. The threshold expression of
F^2^ > 2sigma(F^2^) is used only for calculating R-factors(gt) etc. and is
not relevant to the choice of reflections for refinement. R-factors based
on F^2^ are statistically about twice as large as those based on F, and Rfactors
based on ALL data will be even larger.
The structure may contain traces of disordered water/DMF solvent, which could't
be located and modeled with acceptable precision by discrete atoms.
Its contribution was then subtracted from the diffraction data by the
SQUEEZE procedure (A. Spek, 2003) in the final cycles of the
refinement.
;
_refine_ls_structure_factor_coef Fsqd
_refine_ls_matrix_type           full
_refine_ls_weighting_scheme      calc
_refine_ls_weighting_details     
'calc w=1/[\s^2^(Fo^2^)(0.0846P)^2^.1798P] where P=(Fo^2^^2^)/3'
_atom_sites_solution_primary     direct
_atom_sites_solution_secondary   difmap
_atom_sites_solution_hydrogens   geom
_refine_ls_hydrogen_treatment    constr
_refine_ls_extinction_method     none
_refine_ls_extinction_coef       ?
_refine_ls_number_reflns         3594
_refine_ls_number_parameters     232
_refine_ls_number_restraints     0
_refine_ls_R_factor_all          0.1089
_refine_ls_R_factor_gt           0.0732
_refine_ls_wR_factor_ref         0.1904
_refine_ls_wR_factor_gt          0.1740
_refine_ls_goodness_of_fit_ref   1.011
_refine_ls_restrained_S_all      1.011
_refine_ls_shift/su_max          0.000
_refine_ls_shift/su_mean         0.000
loop_
_atom_site_label
_atom_site_type_symbol
_atom_site_fract_x
_atom_site_fract_y
_atom_site_fract_z
_atom_site_U_iso_or_equiv
_atom_site_adp_type
_atom_site_occupancy
_atom_site_symmetry_multiplicity
_atom_site_calc_flag
_atom_site_refinement_flags
_atom_site_disorder_assembly
_atom_site_disorder_group
Zn Zn 0.1667 0.3333 0.3333 0.0289(3) Uani 1 2 d S . .
C1 C 0.2477(2) 0.3573(3) 0.1229(9) 0.0321(17) Uani 1 1 d . . .
C2 C 0.2602(3) 0.3397(3) -0.0048(10) 0.0375(19) Uani 1 1 d . . .
H2 H 0.2905 0.3514 -0.0446 0.045 Uiso 1 1 calc R . .
C3 C 0.2205(3) 0.3035(3) -0.0559(10) 0.0389(19) Uani 1 1 d . . .
H3 H 0.2176 0.2851 -0.1397 0.047 Uiso 1 1 calc R . .
C4 C 0.1828(2) 0.2975(3) 0.0399(9) 0.0313(17) Uani 1 1 d . . .
C5 C 0.1363(3) 0.2612(3) 0.0264(9) 0.0334(18) Uani 1 1 d . . .
C6 C 0.1014(3) 0.2514(3) 0.1306(9) 0.0329(17) Uani 1 1 d . . .
C7 C 0.0522(2) 0.2168(3) 0.1123(10) 0.0327(18) Uani 1 1 d . . .
H7 H 0.0385 0.1961 0.0318 0.039 Uiso 1 1 calc R . .
C8 C 0.0301(3) 0.2201(3) 0.2320(9) 0.0348(18) Uani 1 1 d . . .
H8 H -0.0021 0.2014 0.2531 0.042 Uiso 1 1 calc R . .
C9 C 0.0645(3) 0.2572(3) 0.3224(9) 0.0298(17) Uani 1 1 d . . .
C10 C 0.0542(2) 0.2731(3) 0.4539(10) 0.0343(19) Uani 1 1 d . . .
N11 N 0.2000(2) 0.3308(2) 0.1454(7) 0.0313(15) Uani 1 1 d . . .
N12 N 0.1074(2) 0.2750(2) 0.2601(7) 0.0269(13) Uani 1 1 d . . .
C13 C 0.1235(3) 0.2314(3) -0.1093(10) 0.0356(19) Uani 1 1 d . . .
C14 C 0.1257(3) 0.2512(3) -0.2450(10) 0.040(2) Uani 1 1 d . . .
H14 H 0.1365 0.2837 -0.2509 0.048 Uiso 1 1 calc R . .
C15 C 0.1124(3) 0.2247(3) -0.3730(10) 0.040(2) Uani 1 1 d . . .
H15 H 0.1137 0.2387 -0.4654 0.048 Uiso 1 1 calc R . .
C16 C 0.0974(3) 0.1776(3) -0.3631(11) 0.045(2) Uani 1 1 d . . .
C17 C 0.0959(3) 0.1573(3) -0.2306(13) 0.056(3) Uani 1 1 d . . .
H17 H 0.0867 0.1252 -0.2262 0.068 Uiso 1 1 calc R . .
C18 C 0.1079(3) 0.1840(3) -0.1005(11) 0.044(2) Uani 1 1 d . . .
H18 H 0.1055 0.1697 -0.0079 0.053 Uiso 1 1 calc R . .
I19 I 0.07828(3) 0.13908(2) -0.55909(9) 0.0662(3) Uani 1 1 d . . .
C20 C 0.0040(2) 0.2489(3) 0.4968(10) 0.0347(18) Uani 1 1 d . . .
C21 C -0.0279(3) 0.2582(3) 0.4301(9) 0.0345(18) Uani 1 1 d . . .
H21 H -0.0177 0.2817 0.3567 0.041 Uiso 1 1 calc R . .
C22 C -0.0738(3) 0.2343(3) 0.4682(10) 0.040(2) Uani 1 1 d . . .
H22 H -0.0947 0.2414 0.4193 0.048 Uiso 1 1 calc R . .
N23 N -0.0905(2) 0.2013(2) 0.5707(8) 0.0349(15) Uani 1 1 d . . .
C24 C -0.0594(3) 0.1924(3) 0.6396(10) 0.041(2) Uani 1 1 d . . .
H24 H -0.0703 0.1694 0.7146 0.049 Uiso 1 1 calc R . .
C25 C -0.0130(3) 0.2153(3) 0.6054(10) 0.0367(19) Uani 1 1 d . . .
H25 H 0.0076 0.2081 0.6564 0.044 Uiso 1 1 calc R . .
loop_
_atom_site_aniso_label
_atom_site_aniso_U_11
_atom_site_aniso_U_22
_atom_site_aniso_U_33
_atom_site_aniso_U_23
_atom_site_aniso_U_13
_atom_site_aniso_U_12
Zn 0.0194(6) 0.0262(6) 0.0391(7) -0.0029(5) -0.0011(5) 0.0100(5)
C1 0.019(4) 0.036(4) 0.040(5) 0.001(4) 0.004(3) 0.013(3)
C2 0.028(4) 0.038(4) 0.048(5) -0.003(4) 0.001(4) 0.017(4)
C3 0.033(4) 0.038(4) 0.048(5) -0.007(4) 0.005(4) 0.019(4)
C4 0.023(4) 0.031(4) 0.046(5) 0.004(3) 0.003(3) 0.018(3)
C5 0.033(4) 0.027(4) 0.045(5) -0.001(3) -0.005(4) 0.018(3)
C6 0.028(4) 0.027(4) 0.048(5) -0.002(4) -0.005(4) 0.016(3)
C7 0.023(4) 0.032(4) 0.043(5) -0.005(3) -0.003(3) 0.014(3)
C8 0.021(4) 0.034(4) 0.046(5) 0.000(4) 0.000(3) 0.012(3)
C9 0.030(4) 0.027(4) 0.036(4) 0.005(3) -0.004(3) 0.017(3)
C10 0.020(4) 0.032(4) 0.052(5) 0.000(4) 0.006(3) 0.014(3)
N11 0.021(3) 0.027(3) 0.042(4) -0.008(3) -0.002(3) 0.010(3)
N12 0.023(3) 0.024(3) 0.036(4) 0.001(3) 0.002(3) 0.014(3)
C13 0.020(4) 0.035(4) 0.050(5) -0.013(4) -0.004(3) 0.013(3)
C14 0.028(4) 0.041(5) 0.054(6) -0.007(4) -0.006(4) 0.019(4)
C15 0.036(5) 0.042(5) 0.052(5) -0.008(4) -0.006(4) 0.027(4)
C16 0.034(4) 0.039(5) 0.061(6) -0.007(4) -0.001(4) 0.018(4)
C17 0.043(5) 0.027(4) 0.087(8) -0.010(5) 0.001(5) 0.009(4)
C18 0.041(5) 0.028(4) 0.058(6) 0.000(4) -0.008(4) 0.013(4)
I19 0.0667(5) 0.0543(5) 0.0693(5) -0.0263(4) -0.0130(4) 0.0239(4)
C20 0.021(4) 0.030(4) 0.049(5) -0.004(4) -0.001(3) 0.009(3)
C21 0.028(4) 0.033(4) 0.037(5) -0.001(3) -0.005(3) 0.011(3)
C22 0.029(4) 0.040(5) 0.050(5) 0.006(4) -0.006(4) 0.018(4)
N23 0.024(3) 0.033(4) 0.045(4) 0.003(3) 0.004(3) 0.012(3)
C24 0.037(4) 0.035(4) 0.049(5) 0.011(4) 0.003(4) 0.017(4)
C25 0.028(4) 0.039(4) 0.047(5) 0.004(4) -0.002(4) 0.019(4)
_geom_special_details            
;
All esds (except the esd in the dihedral angle between two l.s. planes)
are estimated using the full covariance matrix. The cell esds are taken
into account individually in the estimation of esds in distances, angles
and torsion angles; correlations between esds in cell parameters are only
used when they are defined by crystal symmetry. An approximate (isotropic)
treatment of cell esds is used for estimating esds involving l.s. planes.
;
loop_
_geom_bond_atom_site_label_1
_geom_bond_atom_site_label_2
_geom_bond_distance
_geom_bond_site_symmetry_2
_geom_bond_publ_flag
Zn N12 2.061(6) 16 ?
Zn N12 2.061(6) . ?
Zn N11 2.061(6) . ?
Zn N11 2.061(6) 16 ?
Zn N23 2.358(6) 8_554 ?
Zn N23 2.358(6) 11_556 ?
C1 N11 1.389(9) . ?
C1 C10 1.396(11) 16 ?
C1 C2 1.450(11) . ?
C2 C3 1.345(11) . ?
C2 H2 0.9500 . ?
C3 C4 1.454(11) . ?
C3 H3 0.9500 . ?
C4 N11 1.356(10) . ?
C4 C5 1.410(11) . ?
C5 C6 1.401(11) . ?
C5 C13 1.503(11) . ?
C6 N12 1.373(10) . ?
C6 C7 1.460(10) . ?
C7 C8 1.348(12) . ?
C7 H7 0.9500 . ?
C8 C9 1.445(11) . ?
C8 H8 0.9500 . ?
C9 N12 1.362(9) . ?
C9 C10 1.416(11) . ?
C10 C1 1.396(11) 16 ?
C10 C20 1.493(10) . ?
C13 C14 1.382(12) . ?
C13 C18 1.393(11) . ?
C14 C15 1.392(12) . ?
C14 H14 0.9500 . ?
C15 C16 1.387(12) . ?
C15 H15 0.9500 . ?
C16 C17 1.369(15) . ?
C16 I19 2.098(10) . ?
C17 C18 1.410(14) . ?
C17 H17 0.9500 . ?
C18 H18 0.9500 . ?
C20 C25 1.381(12) . ?
C20 C21 1.383(11) . ?
C21 C22 1.363(11) . ?
C21 H21 0.9500 . ?
C22 N23 1.328(11) . ?
C22 H22 0.9500 . ?
N23 C24 1.359(10) . ?
N23 Zn 2.359(6) 6_455 ?
C24 C25 1.370(11) . ?
C24 H24 0.9500 . ?
C25 H25 0.9500 . ?
loop_
_geom_angle_atom_site_label_1
_geom_angle_atom_site_label_2
_geom_angle_atom_site_label_3
_geom_angle
_geom_angle_site_symmetry_1
_geom_angle_site_symmetry_3
_geom_angle_publ_flag
N12 Zn N12 179.997(1) 16 . ?
N12 Zn N11 91.6(2) 16 . ?
N12 Zn N11 88.4(2) . . ?
N12 Zn N11 88.4(2) 16 16 ?
N12 Zn N11 91.6(2) . 16 ?
N11 Zn N11 179.994(1) . 16 ?
N12 Zn N23 94.9(2) 16 8_554 ?
N12 Zn N23 85.1(2) . 8_554 ?
N11 Zn N23 98.3(2) . 8_554 ?
N11 Zn N23 81.7(2) 16 8_554 ?
N12 Zn N23 85.1(2) 16 11_556 ?
N12 Zn N23 94.9(2) . 11_556 ?
N11 Zn N23 81.7(2) . 11_556 ?
N11 Zn N23 98.3(2) 16 11_556 ?
N23 Zn N23 179.995(1) 8_554 11_556 ?
N11 C1 C10 125.5(7) . 16 ?
N11 C1 C2 109.1(7) . . ?
C10 C1 C2 125.3(7) 16 . ?
C3 C2 C1 106.7(7) . . ?
C3 C2 H2 126.6 . . ?
C1 C2 H2 126.6 . . ?
C2 C3 C4 107.8(7) . . ?
C2 C3 H3 126.1 . . ?
C4 C3 H3 126.1 . . ?
N11 C4 C5 126.4(7) . . ?
N11 C4 C3 109.3(6) . . ?
C5 C4 C3 124.3(7) . . ?
C6 C5 C4 124.2(7) . . ?
C6 C5 C13 118.3(7) . . ?
C4 C5 C13 117.5(7) . . ?
N12 C6 C5 125.5(7) . . ?
N12 C6 C7 109.3(7) . . ?
C5 C6 C7 125.0(8) . . ?
C8 C7 C6 106.5(7) . . ?
C8 C7 H7 126.7 . . ?
C6 C7 H7 126.7 . . ?
C7 C8 C9 107.4(7) . . ?
C7 C8 H8 126.3 . . ?
C9 C8 H8 126.3 . . ?
N12 C9 C10 125.8(7) . . ?
N12 C9 C8 109.9(7) . . ?
C10 C9 C8 124.2(7) . . ?
C1 C10 C9 126.9(7) 16 . ?
C1 C10 C20 117.4(7) 16 . ?
C9 C10 C20 115.7(7) . . ?
C4 N11 C1 107.0(6) . . ?
C4 N11 Zn 127.2(5) . . ?
C1 N11 Zn 124.2(5) . . ?
C9 N12 C6 106.8(6) . . ?
C9 N12 Zn 124.8(5) . . ?
C6 N12 Zn 127.7(5) . . ?
C14 C13 C18 119.4(8) . . ?
C14 C13 C5 119.5(7) . . ?
C18 C13 C5 121.1(8) . . ?
C13 C14 C15 121.5(8) . . ?
C13 C14 H14 119.2 . . ?
C15 C14 H14 119.2 . . ?
C16 C15 C14 118.7(9) . . ?
C16 C15 H15 120.7 . . ?
C14 C15 H15 120.7 . . ?
C17 C16 C15 121.0(9) . . ?
C17 C16 I19 121.7(7) . . ?
C15 C16 I19 117.4(7) . . ?
C16 C17 C18 120.2(8) . . ?
C16 C17 H17 119.9 . . ?
C18 C17 H17 119.9 . . ?
C13 C18 C17 119.2(9) . . ?
C13 C18 H18 120.4 . . ?
C17 C18 H18 120.4 . . ?
C25 C20 C21 116.5(7) . . ?
C25 C20 C10 121.0(7) . . ?
C21 C20 C10 122.5(7) . . ?
C22 C21 C20 120.9(8) . . ?
C22 C21 H21 119.5 . . ?
C20 C21 H21 119.5 . . ?
N23 C22 C21 122.9(7) . . ?
N23 C22 H22 118.5 . . ?
C21 C22 H22 118.5 . . ?
C22 N23 C24 116.9(7) . . ?
C22 N23 Zn 124.5(5) . 6_455 ?
C24 N23 Zn 117.8(5) . 6_455 ?
N23 C24 C25 122.7(8) . . ?
N23 C24 H24 118.7 . . ?
C25 C24 H24 118.7 . . ?
C24 C25 C20 120.1(7) . . ?
C24 C25 H25 120.0 . . ?
C20 C25 H25 120.0 . . ?
# start Validation Reply Form
_vrf_PLAT601_Compound-4          
;
PROBLEM: Structure Contains Sovent Accessible VOIDS of ... 302.00 A**3
RESPONSE: There might be a small amount of the water or DMF solvent
located within the narrow channel voids along the -3 axis.
It is severely disordered, and couldn't be modeled
by discrete atoms.
;
# end Validation Reply Form
_diffrn_measured_fraction_theta_max 0.984
_diffrn_reflns_theta_full        25.67
_diffrn_measured_fraction_theta_full 0.984
_refine_diff_density_max         1.283
_refine_diff_density_min         -1.111
_refine_diff_density_rms         0.142
