####################################################################### 
# 
# This file contains crystal structure data downloaded from the 
# Cambridge Structural Database (CSD) hosted by the Cambridge 
# Crystallographic Data Centre (CCDC).
# 
# Full information about CCDC data access policies and citation 
# guidelines are available at http://www.ccdc.cam.ac.uk/access/V1 
# 
# Audit and citation data items may have been added by the CCDC. 
# Please retain this information to preserve the provenance of 
# this file and to allow appropriate attribution of the data. 
# 
#######################################################################

data_imw862r #(Os-ErBpymA)
_audit_block_doi                 10.5517/ccr91dg
_database_code_depnum_ccdc_archive 'CCDC 693885'
loop_
_citation_id
_citation_doi
_citation_year
1 10.1021/ic702353c 2008
_audit_update_record             
;
2008-07-02 deposited with the CCDC.	2024-07-12 downloaded from the CCDC.
;

_audit_creation_method           SHELXL-97
_chemical_name_systematic        
;
?
;
_chemical_name_common            ?
_chemical_melting_point          ?
_chemical_formula_moiety         ?
_chemical_formula_sum            'C57 H74 Er2 N22 O21 Os3'
_chemical_formula_weight         2308.50

loop_
_atom_type_symbol
_atom_type_description
_atom_type_scat_dispersion_real
_atom_type_scat_dispersion_imag
_atom_type_scat_source
C C 0.0033 0.0016 'International Tables Vol C Tables 4.2.6.8 and 6.1.1.4'
H H 0.0000 0.0000 'International Tables Vol C Tables 4.2.6.8 and 6.1.1.4'
N N 0.0061 0.0033 'International Tables Vol C Tables 4.2.6.8 and 6.1.1.4'
O O 0.0106 0.0060 'International Tables Vol C Tables 4.2.6.8 and 6.1.1.4'
Er Er -0.2586 4.9576 'International Tables Vol C Tables 4.2.6.8 and 6.1.1.4'
Os Os -1.2165 7.6030 'International Tables Vol C Tables 4.2.6.8 and 6.1.1.4'

_symmetry_cell_setting           triclinic
_symmetry_space_group_name_H-M   P-1

loop_
_symmetry_equiv_pos_as_xyz
'x, y, z'
'-x, -y, -z'

_cell_length_a                   15.4500(9)
_cell_length_b                   15.7773(9)
_cell_length_c                   17.6472(10)
_cell_angle_alpha                111.210(3)
_cell_angle_beta                 95.676(3)
_cell_angle_gamma                95.219(3)
_cell_volume                     3953.2(4)
_cell_formula_units_Z            2
_cell_measurement_temperature    100(2)
_cell_measurement_reflns_used    9947
_cell_measurement_theta_min      2
_cell_measurement_theta_max      25

_exptl_crystal_description       plate
_exptl_crystal_colour            red
_exptl_crystal_size_max          0.43
_exptl_crystal_size_mid          0.14
_exptl_crystal_size_min          0.04
_exptl_crystal_density_meas      ?
_exptl_crystal_density_diffrn    1.939
_exptl_crystal_density_method    'not measured'
_exptl_crystal_F_000             2204
_exptl_absorpt_coefficient_mu    6.982
_exptl_absorpt_correction_type   multi-scan
_exptl_absorpt_correction_T_min  0.1532
_exptl_absorpt_correction_T_max  0.7676
_exptl_absorpt_process_details   sadabs

_exptl_special_details           
;
?
;

_diffrn_ambient_temperature      100(2)
_diffrn_radiation_wavelength     0.71073
_diffrn_radiation_type           MoK\a
_diffrn_radiation_source         'fine-focus sealed tube'
_diffrn_radiation_monochromator  graphite
_diffrn_measurement_device_type  'Bruker APEX2 CCD area detector'
_diffrn_measurement_method       'phi and omega scans'
_diffrn_detector_area_resol_mean ?
_diffrn_standards_number         ?
_diffrn_standards_interval_count ?
_diffrn_standards_interval_time  ?
_diffrn_standards_decay_%        ?
_diffrn_reflns_number            54328
_diffrn_reflns_av_R_equivalents  0.0822
_diffrn_reflns_av_sigmaI/netI    0.0794
_diffrn_reflns_limit_h_min       -18
_diffrn_reflns_limit_h_max       18
_diffrn_reflns_limit_k_min       -18
_diffrn_reflns_limit_k_max       18
_diffrn_reflns_limit_l_min       -20
_diffrn_reflns_limit_l_max       20
_diffrn_reflns_theta_min         1.70
_diffrn_reflns_theta_max         25.00
_reflns_number_total             13829
_reflns_number_gt                9409
_reflns_threshold_expression     >2sigma(I)

_computing_data_collection       ?
_computing_cell_refinement       ?
_computing_data_reduction        ?
_computing_structure_solution    'SHELXS-97 (Sheldrick, 1990)'
_computing_structure_refinement  'SHELXL-97 (Sheldrick, 1997)'
_computing_molecular_graphics    ?
_computing_publication_material  ?

_refine_special_details          
;
Refinement of F^2^ against ALL reflections. The weighted R-factor wR and
goodness of fit S are based on F^2^, conventional R-factors R are based
on F, with F set to zero for negative F^2^. The threshold expression of
F^2^ > 2sigma(F^2^) is used only for calculating R-factors(gt) etc. and is
not relevant to the choice of reflections for refinement. R-factors based
on F^2^ are statistically about twice as large as those based on F, and R-
factors based on ALL data will be even larger.
;

_refine_ls_structure_factor_coef Fsqd
_refine_ls_matrix_type           full
_refine_ls_weighting_scheme      calc
_refine_ls_weighting_details     
'calc w=1/[\s^2^(Fo^2^)+(0.0502P)^2^+93.9081P] where P=(Fo^2^+2Fc^2^)/3'
_atom_sites_solution_primary     direct
_atom_sites_solution_secondary   difmap
_atom_sites_solution_hydrogens   geom
_refine_ls_hydrogen_treatment    mixed
_refine_ls_extinction_method     none
_refine_ls_extinction_coef       ?
_refine_ls_number_reflns         13829
_refine_ls_number_parameters     993
_refine_ls_number_restraints     30
_refine_ls_R_factor_all          0.1029
_refine_ls_R_factor_gt           0.0549
_refine_ls_wR_factor_ref         0.1631
_refine_ls_wR_factor_gt          0.1271
_refine_ls_goodness_of_fit_ref   1.139
_refine_ls_restrained_S_all      1.138
_refine_ls_shift/su_max          0.043
_refine_ls_shift/su_mean         0.000

loop_
_atom_site_label
_atom_site_type_symbol
_atom_site_fract_x
_atom_site_fract_y
_atom_site_fract_z
_atom_site_U_iso_or_equiv
_atom_site_adp_type
_atom_site_occupancy
_atom_site_symmetry_multiplicity
_atom_site_calc_flag
_atom_site_refinement_flags
_atom_site_disorder_assembly
_atom_site_disorder_group
Os1 Os 0.27772(4) 0.15895(4) 0.21646(4) 0.02351(16) Uani 1 1 d . . .
Os2 Os 0.75035(4) 0.33427(4) 0.31263(4) 0.02526(16) Uani 1 1 d . . .
Os3 Os 0.78363(4) -0.27420(5) 0.13284(4) 0.03320(18) Uani 1 1 d . . .
Er1 Er 0.45783(4) 0.48673(5) 0.30441(4) 0.02461(17) Uani 1 1 d . . .
Er2 Er 0.57212(4) -0.00102(5) 0.18647(4) 0.02317(17) Uani 1 1 d . . .
C1 C 0.2007(12) -0.0203(12) 0.2352(10) 0.041(4) Uani 1 1 d . . .
H1 H 0.2593 -0.0339 0.2387 0.050 Uiso 1 1 calc R . .
C2 C 0.1325(15) -0.0813(15) 0.2438(12) 0.063(6) Uani 1 1 d . . .
H2 H 0.1449 -0.1350 0.2529 0.076 Uiso 1 1 calc R . .
C3 C 0.0482(14) -0.0608(18) 0.2385(13) 0.070(7) Uani 1 1 d . . .
H3 H 0.0019 -0.0999 0.2456 0.084 Uiso 1 1 calc R . .
C4 C 0.0294(12) 0.0168(15) 0.2229(11) 0.048(5) Uani 1 1 d . . .
C5 C -0.0572(12) 0.0431(14) 0.2153(12) 0.050(5) Uani 1 1 d . . .
H5 H -0.1056 0.0068 0.2227 0.060 Uiso 1 1 calc R . .
C6 C -0.0709(11) 0.1152(15) 0.1984(12) 0.055(6) Uani 1 1 d . . .
H6 H -0.1294 0.1271 0.1888 0.066 Uiso 1 1 calc R . .
C7 C 0.0008(11) 0.1762(15) 0.1943(10) 0.051(5) Uani 1 1 d . . .
C8 C -0.0093(12) 0.2608(15) 0.1827(11) 0.053(6) Uani 1 1 d . . .
H8 H -0.0657 0.2794 0.1775 0.064 Uiso 1 1 calc R . .
C9 C 0.0625(12) 0.3124(15) 0.1793(11) 0.055(6) Uani 1 1 d . . .
H9 H 0.0571 0.3688 0.1725 0.067 Uiso 1 1 calc R . .
C10 C 0.1453(12) 0.2848(12) 0.1857(10) 0.041(4) Uani 1 1 d . . .
H10 H 0.1947 0.3225 0.1815 0.050 Uiso 1 1 calc R . .
C11 C 0.0846(10) 0.1529(11) 0.2019(9) 0.032(4) Uani 1 1 d U . .
C12 C 0.0994(9) 0.0738(12) 0.2159(9) 0.034(4) Uani 1 1 d . . .
C13 C 0.3858(10) 0.1017(10) 0.2340(9) 0.026(3) Uani 1 1 d . . .
C14 C 0.3486(9) 0.2706(10) 0.2186(9) 0.020(3) Uani 1 1 d . . .
C15 C 0.2798(10) 0.2294(13) 0.3390(11) 0.040(4) Uani 1 1 d . . .
C16 C 0.2751(9) 0.0903(11) 0.0928(10) 0.031(4) Uani 1 1 d . . .
C17 C 0.8175(12) 0.5286(11) 0.3146(10) 0.038(4) Uani 1 1 d . . .
H17 H 0.7586 0.5305 0.2946 0.045 Uiso 1 1 calc R . .
C18 C 0.8806(11) 0.6040(12) 0.3298(11) 0.041(4) Uani 1 1 d . . .
H18 H 0.8649 0.6551 0.3178 0.049 Uiso 1 1 calc R . .
C19 C 0.9631(13) 0.6047(14) 0.3612(11) 0.051(5) Uani 1 1 d . . .
H19 H 1.0049 0.6575 0.3734 0.061 Uiso 1 1 calc R . .
C20 C 0.9889(11) 0.5295(14) 0.3763(11) 0.046(5) Uani 1 1 d . . .
C21 C 1.0738(12) 0.5204(15) 0.4085(12) 0.056(6) Uani 1 1 d . . .
H21 H 1.1201 0.5690 0.4197 0.067 Uiso 1 1 calc R . .
C22 C 1.0916(12) 0.4450(16) 0.4239(13) 0.062(6) Uani 1 1 d . . .
H22 H 1.1489 0.4430 0.4478 0.075 Uiso 1 1 calc R . .
C23 C 1.0260(11) 0.3700(13) 0.4047(10) 0.042(4) Uani 1 1 d . . .
C24 C 1.0414(12) 0.2916(16) 0.4236(11) 0.060(6) Uani 1 1 d . . .
H24 H 1.0982 0.2868 0.4465 0.072 Uiso 1 1 calc R . .
C25 C 0.9730(11) 0.2237(13) 0.4083(11) 0.045(5) Uani 1 1 d . . .
H25 H 0.9818 0.1707 0.4201 0.054 Uiso 1 1 calc R . .
C26 C 0.8898(11) 0.2327(11) 0.3748(9) 0.034(4) Uani 1 1 d . . .
H26 H 0.8430 0.1846 0.3639 0.040 Uiso 1 1 calc R . .
C27 C 0.9413(9) 0.3745(11) 0.3741(9) 0.031(4) Uani 1 1 d . . .
C28 C 0.9219(9) 0.4539(11) 0.3581(9) 0.031(4) Uani 1 1 d . . .
C29 C 0.6448(9) 0.3803(10) 0.2825(8) 0.022(3) Uani 1 1 d U . .
C30 C 0.6814(10) 0.2168(11) 0.2980(10) 0.031(4) Uani 1 1 d . . .
C31 C 0.7279(10) 0.3872(11) 0.4322(11) 0.031(4) Uani 1 1 d . . .
C32 C 0.7600(9) 0.2753(10) 0.1897(10) 0.025(3) Uani 1 1 d . . .
C33 C 0.8685(15) -0.1450(15) 0.0516(12) 0.059(6) Uani 1 1 d . . .
H33 H 0.8146 -0.1202 0.0534 0.071 Uiso 1 1 calc R . .
C34 C 0.9345(18) -0.1094(18) 0.0212(12) 0.073(7) Uani 1 1 d . . .
H34 H 0.9265 -0.0599 0.0038 0.088 Uiso 1 1 calc R . .
C35 C 1.0124(19) -0.145(2) 0.0159(13) 0.089(9) Uani 1 1 d . . .
H35 H 1.0594 -0.1192 -0.0033 0.107 Uiso 1 1 calc R . .
C36 C 1.0218(15) -0.221(2) 0.0398(13) 0.078(8) Uani 1 1 d . . .
C37 C 1.099(2) -0.262(3) 0.0371(17) 0.116(14) Uani 1 1 d . . .
H37 H 1.1492 -0.2362 0.0220 0.139 Uiso 1 1 calc R . .
C38 C 1.1017(19) -0.337(3) 0.0557(18) 0.114(14) Uani 1 1 d . . .
H38 H 1.1527 -0.3666 0.0481 0.137 Uiso 1 1 calc R . .
C39 C 1.0323(16) -0.373(2) 0.0859(14) 0.082(8) Uani 1 1 d . . .
C40 C 1.028(2) -0.455(2) 0.1047(17) 0.111(13) Uani 1 1 d . . .
H40 H 1.0768 -0.4875 0.1004 0.133 Uiso 1 1 calc R . .
C41 C 0.957(2) -0.484(2) 0.1279(14) 0.093(10) Uani 1 1 d . . .
H41 H 0.9550 -0.5370 0.1419 0.111 Uiso 1 1 calc R . .
C42 C 0.8834(17) -0.4376(16) 0.1320(12) 0.070(7) Uani 1 1 d . . .
H42 H 0.8319 -0.4610 0.1473 0.084 Uiso 1 1 calc R . .
C43 C 0.9543(13) -0.3311(16) 0.0915(11) 0.052(5) Uani 1 1 d . . .
C44 C 0.9519(12) -0.2518(16) 0.0701(11) 0.054(6) Uani 1 1 d . . .
C45 C 0.7024(10) -0.1789(12) 0.1504(9) 0.031(4) Uani 1 1 d . . .
C46 C 0.7050(13) -0.3453(13) 0.1776(12) 0.045(5) Uani 1 1 d . . .
C47 C 0.8490(10) -0.2010(11) 0.2505(10) 0.028(4) Uani 1 1 d . . .
C48 C 0.7180(12) -0.3486(13) 0.0199(11) 0.046(5) Uani 1 1 d . . .
C49 C 0.4868(10) 0.6782(10) 0.4856(9) 0.027(3) Uani 1 1 d . . .
H49 H 0.4804 0.7078 0.4475 0.032 Uiso 1 1 calc R . .
C50 C 0.5013(9) 0.4506(9) 0.4842(9) 0.022(3) Uani 1 1 d . . .
C51 C 0.4949(9) 0.3129(10) 0.3778(9) 0.027(3) Uani 1 1 d . . .
H51 H 0.4899 0.2782 0.3206 0.033 Uiso 1 1 calc R . .
C52 C 0.5053(10) 0.2696(12) 0.4307(9) 0.032(4) Uani 1 1 d . . .
H52 H 0.5072 0.2053 0.4115 0.039 Uiso 1 1 calc R . .
C53 C 0.4979(9) 0.0498(10) 0.0187(9) 0.023(3) Uani 1 1 d . . .
C54 C 0.5214(9) 0.1814(10) 0.1311(9) 0.024(3) Uani 1 1 d . . .
H54 H 0.5390 0.2135 0.1884 0.029 Uiso 1 1 calc R . .
C55 C 0.4944(9) 0.2302(10) 0.0836(9) 0.026(3) Uani 1 1 d . . .
H55 H 0.4941 0.2947 0.1073 0.032 Uiso 1 1 calc R . .
C56 C 0.5320(11) -0.1825(10) -0.0013(9) 0.029(4) Uani 1 1 d . . .
H56 H 0.5508 -0.2141 0.0326 0.035 Uiso 1 1 calc R . .
C57 C 0.8004(15) 0.032(2) 0.396(3) 0.16(2) Uani 1 1 d . . .
H57A H 0.7878 0.0944 0.4272 0.233 Uiso 1 1 calc R . .
H57B H 0.7619 -0.0125 0.4083 0.233 Uiso 1 1 calc R . .
H57C H 0.7901 0.0203 0.3373 0.233 Uiso 1 1 calc R . .
N1 N 0.1852(8) 0.0549(8) 0.2226(7) 0.029(3) Uani 1 1 d . . .
N2 N 0.1578(8) 0.2072(9) 0.1975(8) 0.028(3) Uani 1 1 d . . .
N3 N 0.4462(8) 0.0670(9) 0.2373(8) 0.029(3) Uani 1 1 d . . .
N4 N 0.3849(8) 0.3405(9) 0.2228(7) 0.027(3) Uani 1 1 d . . .
N5 N 0.2777(10) 0.2680(13) 0.4081(9) 0.060(5) Uani 1 1 d . . .
N6 N 0.2740(9) 0.0463(9) 0.0245(8) 0.035(3) Uani 1 1 d . . .
N7 N 0.8374(8) 0.4544(9) 0.3272(8) 0.033(3) Uani 1 1 d . . .
N8 N 0.8733(8) 0.3059(8) 0.3575(7) 0.026(3) Uani 1 1 d . . .
N9 N 0.5821(8) 0.4115(9) 0.2668(8) 0.030(3) Uani 1 1 d . . .
N10 N 0.6406(8) 0.1440(9) 0.2813(7) 0.027(3) Uani 1 1 d . . .
N11 N 0.7120(8) 0.4191(10) 0.4985(8) 0.035(3) Uani 1 1 d . . .
N12 N 0.7586(9) 0.2378(9) 0.1188(8) 0.033(3) Uani 1 1 d . . .
N13 N 0.8762(10) -0.2128(11) 0.0786(8) 0.045(4) Uani 1 1 d . . .
N14 N 0.8831(11) -0.3641(11) 0.1159(9) 0.047(4) Uani 1 1 d . . .
N15 N 0.6573(8) -0.1232(9) 0.1623(8) 0.033(3) Uani 1 1 d . . .
N16 N 0.6591(14) -0.3861(15) 0.2035(12) 0.083(6) Uani 1 1 d . . .
N17 N 0.8866(10) -0.1620(10) 0.3140(9) 0.041(4) Uani 1 1 d . . .
N18 N 0.6790(15) -0.3964(16) -0.0463(12) 0.088(7) Uani 1 1 d . . .
N19 N 0.4881(8) 0.5876(8) 0.4575(7) 0.027(3) Uani 1 1 d . . .
N20 N 0.4912(7) 0.4050(8) 0.4038(7) 0.022(3) Uani 1 1 d . . .
N21 N 0.5236(7) 0.0914(8) 0.0995(7) 0.021(3) Uani 1 1 d . . .
N22 N 0.5314(7) -0.0895(8) 0.0325(7) 0.024(3) Uani 1 1 d . . .
O1 O 0.4605(8) -0.1221(7) 0.1624(7) 0.041(3) Uani 1 1 d . . .
H1B H 0.4683 -0.1856 0.1393 0.049 Uiso 1 1 d R . .
H1C H 0.4260 -0.1323 0.1185 0.049 Uiso 1 1 d R . .
O2 O 0.6966(6) 0.0442(7) 0.1322(6) 0.028(2) Uani 1 1 d . . .
H2B H 0.7293 0.0908 0.1676 0.033 Uiso 1 1 d R . .
H2C H 0.7306 0.0041 0.1296 0.033 Uiso 1 1 d R . .
O3 O 0.5894(8) -0.0264(8) 0.3080(7) 0.046(3) Uani 1 1 d . . .
H3B H 0.6353 -0.0301 0.3312 0.055 Uiso 1 1 d R . .
H3C H 0.5855 0.0269 0.3440 0.055 Uiso 1 1 d R . .
O4 O 0.4544(8) 0.4857(8) 0.1725(7) 0.049(3) Uani 1 1 d . . .
H4B H 0.4724 0.5167 0.1452 0.059 Uiso 1 1 d R . .
H4C H 0.4040 0.4574 0.1394 0.059 Uiso 1 1 d R . .
O5 O 0.5713(7) 0.6056(7) 0.3259(7) 0.042(3) Uani 1 1 d . . .
H5B H 0.5883 0.6154 0.2851 0.051 Uiso 1 1 d R . .
H5C H 0.6136 0.6124 0.3632 0.051 Uiso 1 1 d R . .
O6 O 0.3819(9) 0.6087(9) 0.3078(8) 0.064(4) Uani 1 1 d . . .
H6B H 0.3785 0.6493 0.3544 0.077 Uiso 1 1 d R . .
H6C H 0.3359 0.5950 0.2682 0.077 Uiso 1 1 d R . .
O7 O 0.3237(7) 0.4652(8) 0.3568(7) 0.044(3) Uani 1 1 d . . .
H7B H 0.3064 0.4092 0.3475 0.052 Uiso 1 1 d R . .
H7C H 0.3416 0.5027 0.4083 0.052 Uiso 1 1 d R . .
O8 O 0.6480(13) 0.8249(10) 0.3394(9) 0.086(5) Uani 1 1 d . . .
O9 O 0.5781(11) 0.0895(10) 0.4676(9) 0.073(5) Uani 1 1 d . . .
O10 O 0.3066(9) 0.4074(9) 0.5583(9) 0.060(4) Uani 1 1 d . . .
O11 O 0.3185(9) 0.8728(9) 0.0469(8) 0.055(3) Uani 1 1 d . . .
O12 O 0.6991(15) 0.253(2) 0.5405(17) 0.157(11) Uani 1 1 d . . .
O13 O 0.8894(14) 0.0256(16) 0.4194(13) 0.124(7) Uani 1 1 d . . .
H13 H 0.9082 0.0622 0.4683 0.149 Uiso 1 1 d R . .
O14 O 0.694(2) 0.4026(17) 0.083(2) 0.077(10) Uani 0.50 1 d P . .
O15 O 0.840(2) 0.274(2) 0.654(3) 0.127(19) Uani 0.50 1 d P . .
O16 O 0.0478(16) 0.8522(19) 0.4158(16) 0.157(10) Uani 1 1 d . . .
O17 O 0.785(2) 0.506(3) 0.824(4) 0.16(2) Uani 0.50 1 d P . .
O18 O 0.3693(12) 0.8855(17) 0.2968(12) 0.115(7) Uani 1 1 d . . .
O19 O 0.3933(17) 0.0283(18) 0.4479(13) 0.145(10) Uani 1 1 d . . .
O20 O 0.2734(18) 0.1478(18) 0.4978(15) 0.051(5) Uani 0.50 1 d PU A 1
O21 O 0.477(5) 0.768(4) 0.337(5) 0.20(2) Uani 0.50 1 d PU B 1
O20' O 0.1721(18) 0.1115(18) 0.4732(15) 0.055(5) Uani 0.50 1 d PU C 2
O21' O 0.465(5) 0.742(4) 0.268(5) 0.20(2) Uani 0.50 1 d PU D 2
O22 O 0.487(2) 0.411(2) 0.916(2) 0.090(8) Uani 0.50 1 d PU E 1
O22' O 0.513(2) 0.306(2) 0.876(2) 0.089(8) Uani 0.50 1 d PU F 2
O23 O 0.672(3) 0.399(3) 0.939(3) 0.19(3) Uani 0.50 1 d P . .

loop_
_atom_site_aniso_label
_atom_site_aniso_U_11
_atom_site_aniso_U_22
_atom_site_aniso_U_33
_atom_site_aniso_U_23
_atom_site_aniso_U_13
_atom_site_aniso_U_12
Os1 0.0172(3) 0.0238(3) 0.0208(3) -0.0024(2) 0.0041(2) 0.0035(2)
Os2 0.0175(3) 0.0230(3) 0.0249(3) -0.0032(3) 0.0026(2) 0.0025(2)
Os3 0.0368(4) 0.0396(4) 0.0260(4) 0.0129(3) 0.0061(3) 0.0147(3)
Er1 0.0226(4) 0.0195(4) 0.0242(4) -0.0003(3) 0.0006(3) 0.0046(3)
Er2 0.0220(3) 0.0216(4) 0.0208(4) 0.0014(3) 0.0029(3) 0.0048(3)
C1 0.050(11) 0.034(10) 0.031(10) 0.002(8) 0.018(8) -0.008(9)
C2 0.078(16) 0.051(13) 0.045(13) 0.005(10) 0.016(11) -0.014(12)
C3 0.053(14) 0.087(18) 0.043(13) 0.002(12) 0.015(10) -0.043(13)
C4 0.046(11) 0.056(13) 0.025(10) -0.003(9) 0.010(8) -0.001(10)
C5 0.031(10) 0.042(12) 0.059(13) -0.002(10) 0.021(9) -0.009(9)
C6 0.022(9) 0.068(15) 0.047(12) -0.010(11) 0.004(8) -0.004(10)
C7 0.027(9) 0.070(14) 0.024(9) -0.019(9) 0.007(7) 0.004(10)
C8 0.026(10) 0.071(15) 0.039(11) -0.007(10) -0.010(8) 0.023(10)
C9 0.038(11) 0.067(14) 0.043(12) -0.003(10) -0.007(9) 0.031(11)
C10 0.046(11) 0.034(10) 0.034(10) -0.003(8) 0.006(8) 0.018(9)
C11 0.025(7) 0.035(7) 0.021(7) -0.008(6) -0.005(5) 0.007(6)
C12 0.017(8) 0.049(11) 0.016(8) -0.009(7) 0.005(6) -0.008(8)
C13 0.026(8) 0.026(8) 0.018(8) 0.000(7) 0.006(6) -0.001(7)
C14 0.013(7) 0.020(8) 0.027(8) 0.005(6) 0.006(6) 0.012(6)
C15 0.024(9) 0.060(12) 0.034(11) 0.014(9) 0.007(7) 0.011(8)
C16 0.022(8) 0.034(9) 0.028(9) 0.004(8) -0.005(7) 0.006(7)
C17 0.047(11) 0.035(10) 0.026(9) 0.002(8) 0.011(8) 0.014(9)
C18 0.039(10) 0.029(10) 0.044(11) 0.005(8) -0.005(8) -0.008(8)
C19 0.049(12) 0.051(13) 0.040(11) 0.010(10) -0.002(9) -0.015(10)
C20 0.029(9) 0.051(12) 0.041(11) 0.003(9) -0.006(8) -0.006(9)
C21 0.034(10) 0.050(13) 0.056(13) -0.003(10) 0.004(9) -0.025(10)
C22 0.023(10) 0.076(16) 0.065(15) 0.010(12) -0.018(9) -0.006(11)
C23 0.037(10) 0.041(11) 0.031(10) -0.002(8) -0.010(8) 0.001(9)
C24 0.028(10) 0.098(18) 0.026(10) -0.006(11) -0.011(8) 0.0