
#######################################################################
#
#                 Cambridge Crystallographic Data Centre
#                                CCDC
#
#######################################################################
#
# If this CIF has been generated from an entry in the Cambridge
# Structural Database, then it will include bibliographic, chemical,
# crystal, experimental, refinement or atomic coordinate data resulting
# from the CCDC's data processing and validation procedures.
#
#######################################################################

data_CSD_CIF_SODVOW02
_audit_creation_date 1993-11-16
_audit_creation_method CSD-ConQuest-V1
_database_code_CSD SODVOW02
_database_code_depnum_ccdc_archive 'CCDC 1261103'
_chemical_formula_sum 'C4 H12 F6 I1 N1 O1'
_chemical_formula_moiety
;
C4 H12 N1 1+,F6 I1 O1 1-
;
_journal_coden_Cambridge 4
_journal_volume 115
_journal_year 1993
_journal_page_first 2696
_journal_name_full 'J.Am.Chem.Soc. '
loop_
_publ_author_name
"K.O.Christe"
"D.A.Dixon"
"A.R.Mahjoub"
"H.P.A.Mercier"
"J.C.P.Sanders"
"K.Seppelt"
"G.J.Schrobilgen"
"W.W.Wilson"
_chemical_name_systematic
;
Tetramethylammonium hexafluoro-oxo-iodate
;
_chemical_name_common
;
Teaching Subset: Fundamental Chemistry, Symmetry
;
_cell_volume    491.203
_exptl_crystal_colour 'very pale yellow'
_exptl_crystal_density_diffrn 2.238
_exptl_special_details
;
Moisture-sensitive

;
_diffrn_ambient_temperature 118.15
_refine_special_details
;
Equatorial fluorines are disordered with site occupancies of 0.25 and 0.125.

;
#These two values have been output from a single CSD field.
_refine_ls_R_factor_gt 0.0255
_refine_ls_wR_factor_gt 0.0255
_symmetry_cell_setting tetragonal
_symmetry_space_group_name_H-M 'P 4/n m m'
_symmetry_Int_Tables_number 129
loop_
_symmetry_equiv_pos_site_id
_symmetry_equiv_pos_as_xyz
1 x,y,z
2 1/2-y,x,z
3 1/2-x,1/2-y,z
4 y,1/2-x,z
5 1/2+x,-y,-z
6 -y,-x,-z
7 -x,1/2+y,-z
8 1/2+y,1/2+x,-z
9 -x,-y,-z
10 -1/2+y,-x,-z
11 -1/2+x,-1/2+y,-z
12 -y,-1/2+x,-z
13 -1/2-x,y,z
14 y,x,z
15 x,-1/2-y,z
16 -1/2-y,-1/2-x,z
_cell_length_a 8.8151(10)
_cell_length_b 8.8151(10)
_cell_length_c 6.3213(10)
_cell_angle_alpha 90
_cell_angle_beta 90
_cell_angle_gamma 90
_cell_formula_units_Z 2
loop_
_atom_type_symbol
_atom_type_radius_bond
C 0.68
H 0.23
F 0.64
I 1.40
N 0.68
O 0.68
loop_
_atom_site_label
_atom_site_type_symbol
_atom_site_fract_x
_atom_site_fract_y
_atom_site_fract_z
N1 N 0.25000 0.75000 0.50000
C1 C 0.1116(3) 0.75000 0.3633(4)
H1 H 0.0284(35) 0.75000 0.4490(38)
H2 H 0.1096(23) 0.6559(24) 0.2699(27)
I1 I 0.25000 0.25000 0.10290
F1 F 0.25000 0.25000 -0.1850(5)
O1 O 0.25000 0.25000 0.3786(6)
F2 F 0.3973(8) 0.3973(8) 0.0408(15)
F3? F 0.2087(6) 0.0393(6) 0.0723(7)
F4? F 0.4321(8) 0.1400(8) 0.0938(9)
C1I C 0.2500(3) 0.88840 0.6367(4)
C1B C 0.3884(3) 0.75000 0.3633(4)
C1K C 0.2500(3) 0.61160 0.6367(4)
H2N H 0.1096(23) 0.8441(24) 0.2699(27)
H1I H 0.2500(35) 0.97160 0.5510(38)
H2I H 0.1559(23) 0.8904(24) 0.7301(27)
H2E H 0.3441(23) 0.8904(24) 0.7301(27)
H1B H 0.4716(35) 0.75000 0.4490(38)
H2B H 0.3904(23) 0.8441(24) 0.2699(27)
H2L H 0.3904(23) 0.6559(24) 0.2699(27)
H1K H 0.2500(35) 0.52840 0.5510(38)
H2K H 0.3441(23) 0.6096(24) 0.7301(27)
H2G H 0.1559(23) 0.6096(24) 0.7301(27)
F2A F 0.1027(8) 0.3973(8) 0.0408(15)
F2B F 0.1027(8) 0.1027(8) 0.0408(15)
F2C F 0.3973(8) 0.1027(8) 0.0408(15)
#END
