####################################################################### 
# 
# This file contains crystal structure data downloaded from the 
# Cambridge Structural Database (CSD) hosted by the Cambridge 
# Crystallographic Data Centre (CCDC).
# 
# Full information about CCDC data access policies and citation 
# guidelines are available at http://www.ccdc.cam.ac.uk/access/V1 
# 
# Audit and citation data items may have been added by the CCDC. 
# Please retain this information to preserve the provenance of 
# this file and to allow appropriate attribution of the data. 
# 
#######################################################################

data_128
_audit_block_doi                 10.5517/cc8zff2
_database_code_depnum_ccdc_archive 'CCDC 267574'
loop_
_citation_id
_citation_doi
_citation_year
1 10.1016/j.inoche.2008.05.016 2008
_audit_update_record             
;
2005-03-31 deposited with the CCDC.	2024-07-12 downloaded from the CCDC.
;

_audit_creation_method           SHELXL-97
_chemical_name_systematic        
;
?
;
_chemical_name_common            ?
_chemical_melting_point          ?
_chemical_formula_moiety         ?
_chemical_formula_sum            'C8 H18 Mn N8 O7'
_chemical_formula_weight         393.24

loop_
_atom_type_symbol
_atom_type_description
_atom_type_scat_dispersion_real
_atom_type_scat_dispersion_imag
_atom_type_scat_source
C C 0.0033 0.0016 'International Tables Vol C Tables 4.2.6.8 and 6.1.1.4'
H H 0.0000 0.0000 'International Tables Vol C Tables 4.2.6.8 and 6.1.1.4'
N N 0.0061 0.0033 'International Tables Vol C Tables 4.2.6.8 and 6.1.1.4'
O O 0.0106 0.0060 'International Tables Vol C Tables 4.2.6.8 and 6.1.1.4'
Mn Mn 0.3368 0.7283 'International Tables Vol C Tables 4.2.6.8 and 6.1.1.4'

_symmetry_cell_setting           TETRAGONAL
_symmetry_space_group_name_H-M   P4/mnc

loop_
_symmetry_equiv_pos_as_xyz
'x, y, z'
'-x, -y, z'
'-y, x, z'
'y, -x, z'
'-x+1/2, y+1/2, -z+1/2'
'x+1/2, -y+1/2, -z+1/2'
'y+1/2, x+1/2, -z+1/2'
'-y+1/2, -x+1/2, -z+1/2'
'-x, -y, -z'
'x, y, -z'
'y, -x, -z'
'-y, x, -z'
'x-1/2, -y-1/2, z-1/2'
'-x-1/2, y-1/2, z-1/2'
'-y-1/2, -x-1/2, z-1/2'
'y-1/2, x-1/2, z-1/2'

_cell_length_a                   13.1517(6)
_cell_length_b                   13.1517(6)
_cell_length_c                   23.990(3)
_cell_angle_alpha                90.00
_cell_angle_beta                 90.00
_cell_angle_gamma                90.00
_cell_volume                     4149.5(6)
_cell_formula_units_Z            8
_cell_measurement_temperature    293(2)
_cell_measurement_reflns_used    6441
_cell_measurement_theta_min      3.0957
_cell_measurement_theta_max      27.4835

_exptl_crystal_description       Prism
_exptl_crystal_colour            Colorless
_exptl_crystal_size_max          0.2000
_exptl_crystal_size_mid          0.2000
_exptl_crystal_size_min          0.1000
_exptl_crystal_density_meas      ?
_exptl_crystal_density_diffrn    1.259
_exptl_crystal_density_method    'not measured'
_exptl_crystal_F_000             1624
_exptl_absorpt_coefficient_mu    0.676
_exptl_absorpt_correction_type   Multi-scan
_exptl_absorpt_correction_T_min  0.8189
_exptl_absorpt_correction_T_max  1.0000
_exptl_absorpt_process_details   'Sphere (CrystalClear)'

_exptl_special_details           
;
?
;

_diffrn_ambient_temperature      293(2)
_diffrn_radiation_wavelength     0.71073
_diffrn_radiation_type           MoK\a
_diffrn_radiation_source         'rotating-anode generator'
_diffrn_radiation_monochromator  graphite
_diffrn_measurement_device_type  'Rigaku Mercury CCD'
_diffrn_measurement_method       \w
_diffrn_detector_area_resol_mean ?
_diffrn_standards_number         3
_diffrn_standards_interval_count 250
_diffrn_standards_interval_time  ?
_diffrn_standards_decay_%        ?
_diffrn_reflns_number            24982
_diffrn_reflns_av_R_equivalents  0.0646
_diffrn_reflns_av_sigmaI/netI    0.0862
_diffrn_reflns_limit_h_min       -15
_diffrn_reflns_limit_h_max       14
_diffrn_reflns_limit_k_min       -15
_diffrn_reflns_limit_k_max       15
_diffrn_reflns_limit_l_min       -18
_diffrn_reflns_limit_l_max       28
_diffrn_reflns_theta_min         3.10
_diffrn_reflns_theta_max         24.99
_reflns_number_total             1860
_reflns_number_gt                1012
_reflns_threshold_expression     >2sigma(I)

_computing_data_collection       'CrystalClear (Rigaku Corp., 2002)'
_computing_cell_refinement       'CrystalClear (Rigaku Corp., 2002)'
_computing_data_reduction        'CrystalClear (Rigaku Corp., 2002)'
_computing_structure_solution    'Siemens SHELXTL^TM^ 5'
_computing_structure_refinement  'Siemens SHELXTL^TM^ 5'
_computing_molecular_graphics    'Bruker SHELXTL'
_computing_publication_material  'Siemens SHELXTL^TM^ 5'

_refine_special_details          
;
Refinement of F^2^ against ALL reflections. The weighted R-factor wR and
goodness of fit S are based on F^2^, conventional R-factors R are based
on F, with F set to zero for negative F^2^. The threshold expression of
F^2^ > 2sigma(F^2^) is used only for calculating R-factors(gt) etc. and is
not relevant to the choice of reflections for refinement. R-factors based
on F^2^ are statistically about twice as large as those based on F, and R-
factors based on ALL data will be even larger.
;

_refine_ls_structure_factor_coef Fsqd
_refine_ls_matrix_type           full
_refine_ls_weighting_scheme      calc
_refine_ls_weighting_details     
'calc w=1/[\s^2^(Fo^2^)+(0.0587P)^2^+0.0000P] where P=(Fo^2^+2Fc^2^)/3'
_atom_sites_solution_primary     direct
_atom_sites_solution_secondary   difmap
_atom_sites_solution_hydrogens   geom
_refine_ls_hydrogen_treatment    mixed
_refine_ls_extinction_method     SHELXL
_refine_ls_extinction_coef       0.00047(11)
_refine_ls_extinction_expression Fc^*^=kFc[1+0.001xFc^2^\l^3^/sin(2\q)]^-1/4^
_refine_ls_number_reflns         1860
_refine_ls_number_parameters     111
_refine_ls_number_restraints     0
_refine_ls_R_factor_all          0.1104
_refine_ls_R_factor_gt           0.0617
_refine_ls_wR_factor_ref         0.1647
_refine_ls_wR_factor_gt          0.1423
_refine_ls_goodness_of_fit_ref   1.028
_refine_ls_restrained_S_all      1.028
_refine_ls_shift/su_max          0.000
_refine_ls_shift/su_mean         0.000

loop_
_atom_site_label
_atom_site_type_symbol
_atom_site_fract_x
_atom_site_fract_y
_atom_site_fract_z
_atom_site_U_iso_or_equiv
_atom_site_adp_type
_atom_site_occupancy
_atom_site_symmetry_multiplicity
_atom_site_calc_flag
_atom_site_refinement_flags
_atom_site_disorder_assembly
_atom_site_disorder_group
Mn1 Mn 0.240104(19) 0.259896(19) 0.2500 0.02674(10) Uani 1 2 d S . .
N11 N 0.25470(12) 0.09378(11) 0.27471(7) 0.0376(5) Uani 1 1 d . . .
N12 N 0.32352(13) 0.06570(12) 0.31505(7) 0.0433(6) Uani 1 1 d . . .
H12A H 0.3556 0.1069 0.3366 0.052 Uiso 1 1 calc R . .
N14 N 0.27259(12) -0.07559(11) 0.27644(7) 0.0324(5) Uani 1 1 d . . .
C13 C 0.33295(15) -0.03506(14) 0.31555(9) 0.0346(6) Uani 1 1 d . . .
C15 C 0.22871(15) 0.00633(12) 0.25324(9) 0.0362(6) Uani 1 1 d . . .
H15A H 0.1829 0.0011 0.2238 0.043 Uiso 1 1 calc R . .
N1 N 0.39661(15) -0.08665(13) 0.34843(8) 0.0653(7) Uani 1 1 d . . .
H1A H 0.4353 -0.0546 0.3714 0.078 Uiso 1 1 calc R . .
H1B H 0.3989 -0.1519 0.3467 0.078 Uiso 1 1 calc R . .
C1 C 0.20428(16) 0.16032(16) 0.12595(9) 0.0426(7) Uani 1 1 d . . .
C2 C 0.1281(2) 0.1669(3) 0.07972(13) 0.1230(13) Uani 1 1 d . . .
H2A H 0.1511 0.1271 0.0487 0.184 Uiso 1 1 calc R . .
H2B H 0.1207 0.2366 0.0684 0.184 Uiso 1 1 calc R . .
H2C H 0.0638 0.1415 0.0925 0.184 Uiso 1 1 calc R . .
O1 O 0.18268(10) 0.21014(10) 0.16913(6) 0.0405(4) Uani 1 1 d . . .
O2 O 0.28179(11) 0.10936(12) 0.11914(7) 0.0578(5) Uani 1 1 d . . .
O1W O 0.5000 0.0000 0.04748(11) 0.0776(10) Uani 1 2 d S A 1
O2W O 0.3800(3) 0.0554(3) 0.0000 0.269(4) Uani 1 2 d S B 2
O2WA O 0.4394(5) 0.0237(5) 0.0000 0.267(3) Uiso 1 2 d S . 3

loop_
_atom_site_aniso_label
_atom_site_aniso_U_11
_atom_site_aniso_U_22
_atom_site_aniso_U_33
_atom_site_aniso_U_23
_atom_site_aniso_U_13
_atom_site_aniso_U_12
Mn1 0.02417(12) 0.02417(12) 0.0319(2) -0.00182(14) -0.00182(14) 0.00269(17)
N11 0.0396(9) 0.0273(8) 0.0459(10) -0.0006(8) -0.0140(8) 0.0020(7)
N12 0.0555(10) 0.0275(9) 0.0468(11) -0.0058(8) -0.0242(9) -0.0006(8)
N14 0.0346(9) 0.0243(8) 0.0384(10) 0.0019(8) -0.0128(8) -0.0016(7)
C13 0.0394(11) 0.0238(10) 0.0407(13) 0.0067(9) -0.0110(10) -0.0011(9)
C15 0.0391(12) 0.0272(10) 0.0422(12) 0.0012(11) -0.0116(11) 0.0020(9)
N1 0.0892(14) 0.0285(10) 0.0782(14) 0.0007(10) -0.0506(11) -0.0014(9)
C1 0.0414(12) 0.0495(13) 0.0368(13) -0.0123(10) -0.0104(11) 0.0061(11)
C2 0.0958(19) 0.183(3) 0.090(2) -0.068(2) -0.0514(17) 0.0794(19)
O1 0.0424(8) 0.0417(8) 0.0374(8) -0.0093(7) -0.0060(7) 0.0073(7)
O2 0.0396(8) 0.0718(10) 0.0621(10) -0.0328(8) -0.0116(8) 0.0168(8)
O1W 0.0775(17) 0.107(2) 0.0484(16) 0.000 0.000 -0.0007(15)
O2W 0.125(3) 0.068(2) 0.613(11) 0.000 0.000 0.005(2)

_geom_special_details            
;
All esds (except the esd in the dihedral angle between two l.s. planes)
are estimated using the full covariance matrix. The cell esds are taken
into account individually in the estimation of esds in distances, angles
and torsion angles; correlations between esds in cell parameters are only
used when they are defined by crystal symmetry. An approximate (isotropic)
treatment of cell esds is used for estimating esds involving l.s. planes.
;

loop_
_geom_bond_atom_site_label_1
_geom_bond_atom_site_label_2
_geom_bond_distance
_geom_bond_site_symmetry_2
_geom_bond_publ_flag
Mn1 O1 2.1822(14) 8 ?
Mn1 O1 2.1822(14) . ?
Mn1 N14 2.2609(15) 3 ?
Mn1 N14 2.2609(15) 5 ?
Mn1 N11 2.2719(15) . ?
Mn1 N11 2.2719(15) 8 ?
N11 C15 1.306(2) . ?
N11 N12 1.376(2) . ?
N12 C13 1.331(2) . ?
N14 C13 1.340(3) . ?
N14 C15 1.343(2) . ?
N14 Mn1 2.2609(15) 4 ?
C13 N1 1.335(3) . ?
C1 O2 1.231(3) . ?
C1 O1 1.258(2) . ?
C1 C2 1.497(4) . ?
O2WA O2WA 1.712(13) 9_655 ?

loop_
_geom_angle_atom_site_label_1
_geom_angle_atom_site_label_2
_geom_angle_atom_site_label_3
_geom_angle
_geom_angle_site_symmetry_1
_geom_angle_site_symmetry_3
_geom_angle_publ_flag
O1 Mn1 O1 176.25(7) 8 . ?
O1 Mn1 N14 90.69(5) 8 3 ?
O1 Mn1 N14 86.58(5) . 3 ?
O1 Mn1 N14 86.58(5) 8 5 ?
O1 Mn1 N14 90.69(5) . 5 ?
N14 Mn1 N14 86.41(8) 3 5 ?
O1 Mn1 N11 94.33(6) 8 . ?
O1 Mn1 N11 88.44(6) . . ?
N14 Mn1 N11 94.51(6) 3 . ?
N14 Mn1 N11 178.69(6) 5 . ?
O1 Mn1 N11 88.44(6) 8 8 ?
O1 Mn1 N11 94.33(6) . 8 ?
N14 Mn1 N11 178.69(6) 3 8 ?
N14 Mn1 N11 94.51(6) 5 8 ?
N11 Mn1 N11 84.58(8) . 8 ?
C15 N11 N12 102.32(15) . . ?
C15 N11 Mn1 136.22(14) . . ?
N12 N11 Mn1 119.82(11) . . ?
C13 N12 N11 109.57(16) . . ?
C13 N14 C15 103.04(15) . . ?
C13 N14 Mn1 128.39(12) . 4 ?
C15 N14 Mn1 128.30(13) . 4 ?
N12 C13 N1 124.72(18) . . ?
N12 C13 N14 109.55(17) . . ?
N1 C13 N14 125.66(17) . . ?
N11 C15 N14 115.51(18) . . ?
O2 C1 O1 125.4(2) . . ?
O2 C1 C2 119.2(2) . . ?
O1 C1 C2 115.4(2) . . ?
C1 O1 Mn1 144.09(13) . . ?

_diffrn_measured_fraction_theta_max 0.985
_diffrn_reflns_theta_full        24.99
_diffrn_measured_fraction_theta_full 0.985
_refine_diff_density_max         1.238
_refine_diff_density_min         -1.014
_refine_diff_density_rms         0.091
