####################################################################### 
# 
# This file contains crystal structure data downloaded from the 
# Cambridge Structural Database (CSD) hosted by the Cambridge 
# Crystallographic Data Centre (CCDC).
# 
# Full information about CCDC data access policies and citation 
# guidelines are available at http://www.ccdc.cam.ac.uk/access/V1 
# 
# Audit and citation data items may have been added by the CCDC. 
# Please retain this information to preserve the provenance of 
# this file and to allow appropriate attribution of the data. 
# 
#######################################################################

data_mfu3
_audit_block_doi                 10.5517/ccqy55z
_database_code_depnum_ccdc_archive 'CCDC 683431'
loop_
_citation_id
_citation_doi
_citation_year
1 10.1002/zaac.200800158 2008
_audit_update_record             
;
2008-04-02 deposited with the CCDC.	2024-07-12 downloaded from the CCDC.
;

_audit_creation_method           SHELXL-97
_chemical_name_systematic        
;catena-((\m~4~-4,4'-(1,4-phenylene)dipyrazolato)-
cobalt(ii) tris(dimethylformamide) clathrate)
;
_chemical_name_common            
;
catena-((mu!4$-4,4'-(1,4-phenylene)dipyrazolato)-cobalt(ii)
tris(dimethylformamide) clathrate)
;
_chemical_melting_point          ?
_chemical_formula_moiety         'C24 H16 Co2 N8, 6(C3 H7 N1 O1)'
_chemical_formula_sum            'C42 H58 Co2 N14 O6'
_chemical_formula_weight         972.88

loop_
_atom_type_symbol
_atom_type_description
_atom_type_scat_dispersion_real
_atom_type_scat_dispersion_imag
_atom_type_scat_source
C C 0.0033 0.0016 'International Tables Vol C Tables 4.2.6.8 and 6.1.1.4'
H H 0.0000 0.0000 'International Tables Vol C Tables 4.2.6.8 and 6.1.1.4'
N N 0.0061 0.0033 'International Tables Vol C Tables 4.2.6.8 and 6.1.1.4'
O O 0.0106 0.0060 'International Tables Vol C Tables 4.2.6.8 and 6.1.1.4'
Co Co 0.3494 0.9721 'International Tables Vol C Tables 4.2.6.8 and 6.1.1.4'

_symmetry_cell_setting           monoclinic
_symmetry_space_group_name_H-M   'P 21/c'
_symmetry_int_tables_number      14

loop_
_symmetry_equiv_pos_as_xyz
'x, y, z'
'-x, y+1/2, -z+1/2'
'-x, -y, -z'
'x, -y-1/2, z-1/2'

_cell_length_a                   13.327(3)
_cell_length_b                   14.151(3)
_cell_length_c                   26.532(6)
_cell_angle_alpha                90.00
_cell_angle_beta                 101.512(7)
_cell_angle_gamma                90.00
_cell_volume                     4903(2)
_cell_formula_units_Z            4
_cell_measurement_temperature    100(2)
_cell_measurement_reflns_used    4920
_cell_measurement_theta_min      2.43
_cell_measurement_theta_max      22.16

_exptl_crystal_description       block
_exptl_crystal_colour            'deep purple'
_exptl_crystal_size_max          0.43
_exptl_crystal_size_mid          0.15
_exptl_crystal_size_min          0.12
_exptl_crystal_density_diffrn    1.318
_exptl_crystal_density_method    'not measured'
_exptl_crystal_F_000             2040
_exptl_absorpt_coefficient_mu    0.735
_exptl_absorpt_correction_type   multi-scan
_exptl_absorpt_correction_T_min  0.7419
_exptl_absorpt_correction_T_max  0.9144
_exptl_absorpt_process_details   'Twinabs (Sheldrick, 2003)'


_exptl_special_details           
;
?
;

_diffrn_ambient_temperature      100(2)
_diffrn_radiation_probe          x-ray
_diffrn_radiation_type           MoK\a
_diffrn_radiation_wavelength     0.71073
_diffrn_source                   'fine-focus sealed tube'
_diffrn_source_type              'Siemens FF sealed tube'
_diffrn_radiation_monochromator  graphite
_diffrn_measurement_device_type  'Bruker APEX DUO'
_diffrn_measurement_method       'Phi scans and Omega scans'
_diffrn_reflns_number            11470
_diffrn_detector_area_resol_mean 8.33
_diffrn_reflns_av_R_equivalents  0.0000
_diffrn_reflns_av_sigmaI/netI    0.0707
_diffrn_reflns_limit_h_min       -16
_diffrn_reflns_limit_h_max       16
_diffrn_reflns_limit_k_min       0
_diffrn_reflns_limit_k_max       17
_diffrn_reflns_limit_l_min       0
_diffrn_reflns_limit_l_max       33
_diffrn_reflns_theta_min         1.56
_diffrn_reflns_theta_max         26.43
_reflns_number_total             11470
_reflns_number_gt                9098
_reflns_threshold_expression     >2sigma(I)

_computing_data_collection       'Bruker XSCANS'
_computing_cell_refinement       'Bruker XSCANS'
_computing_data_reduction        'Bruker SHELXTL'
_computing_structure_solution    'SHELXS-97 (Sheldrick, 1990)'
_computing_structure_refinement  'SHELXL-97 (Sheldrick, 1997)'
_computing_molecular_graphics    'Bruker SHELXTL'
_computing_publication_material  'Bruker SHELXTL'

_refine_special_details          
;
Refinement of F^2^ against ALL reflections. The weighted R-factor wR and
goodness of fit S are based on F^2^, conventional R-factors R are based
on F, with F set to zero for negative F^2^. The threshold expression of
F^2^ > 2sigma(F^2^) is used only for calculating R-factors(gt) etc. and is
not relevant to the choice of reflections for refinement. R-factors based
on F^2^ are statistically about twice as large as those based on F, and R-
factors based on ALL data will be even larger.
;

_refine_ls_structure_factor_coef Fsqd
_refine_ls_matrix_type           full
_refine_ls_weighting_scheme      calc
_refine_ls_weighting_details     
'calc w=1/[\s^2^(Fo^2^)+(0.1128P)^2^+114.0643P] where P=(Fo^2^+2Fc^2^)/3'
_atom_sites_solution_primary     direct
_atom_sites_solution_secondary   difmap
_atom_sites_solution_hydrogens   geom
_refine_ls_hydrogen_treatment    constr
_refine_ls_extinction_method     none
_refine_ls_extinction_coef       0.0001(3)
_refine_ls_number_reflns         11470
_refine_ls_number_parameters     590
_refine_ls_number_restraints     463
_refine_ls_R_factor_all          0.1607
_refine_ls_R_factor_gt           0.1339
_refine_ls_wR_factor_ref         0.3592
_refine_ls_wR_factor_gt          0.3432
_refine_ls_goodness_of_fit_ref   1.112
_refine_ls_restrained_S_all      1.102
_refine_ls_shift/su_max          0.001
_refine_ls_shift/su_mean         0.000

loop_
_atom_site_label
_atom_site_type_symbol
_atom_site_fract_x
_atom_site_fract_y
_atom_site_fract_z
_atom_site_U_iso_or_equiv
_atom_site_adp_type
_atom_site_occupancy
_atom_site_symmetry_multiplicity
_atom_site_calc_flag
_atom_site_refinement_flags
_atom_site_disorder_assembly
_atom_site_disorder_group
Co1 Co -0.01706(12) 1.13325(11) 0.73093(6) 0.0220(4) Uani 1 1 d . . .
Co2 Co -0.01055(12) 0.88648(11) 0.75607(6) 0.0203(4) Uani 1 1 d . . .
N1 N -0.1433(8) 1.0556(7) 0.7286(4) 0.026(2) Uani 1 1 d U . .
N2 N -0.1337(7) 0.9686(6) 0.7489(4) 0.0174(19) Uani 1 1 d U . .
N3 N 0.1008(8) 1.0540(7) 0.7294(4) 0.030(2) Uani 1 1 d U . .
N4 N 0.1116(7) 0.9637(7) 0.7518(4) 0.022(2) Uani 1 1 d U . .
N5 N -0.0054(7) 0.8168(6) 0.8201(4) 0.022(2) Uani 1 1 d U . .
N6 N 0.0101(8) 0.7237(7) 0.8241(4) 0.029(2) Uani 1 1 d U . .
N7 N -0.0075(7) 0.7961(6) 1.2018(4) 0.025(2) Uani 1 1 d U . .
N8 N -0.0302(7) 0.7043(6) 1.1960(4) 0.023(2) Uani 1 1 d U . .
C1 C -0.2428(8) 1.0827(8) 0.7195(5) 0.021(2) Uani 1 1 d U . .
H1 H -0.2698 1.1407 0.7045 0.025 Uiso 1 1 calc R . .
C2 C -0.2993(8) 1.0080(8) 0.7365(5) 0.023(2) Uani 1 1 d U . .
C3 C -0.2276(9) 0.9405(7) 0.7536(5) 0.022(2) Uani 1 1 d U . .
H3 H -0.2422 0.8811 0.7672 0.027 Uiso 1 1 calc R . .
C4 C 0.1921(9) 1.0773(8) 0.7212(5) 0.024(2) Uani 1 1 d U . .
H4 H 0.2062 1.1348 0.7055 0.028 Uiso 1 1 calc R . .
C5 C 0.2680(9) 1.0061(8) 0.7388(5) 0.027(2) Uani 1 1 d U . .
C6 C 0.2087(9) 0.9366(7) 0.7565(5) 0.022(2) Uani 1 1 d U . .
H6 H 0.2345 0.8774 0.7702 0.026 Uiso 1 1 calc R . .
C7 C 0.3755(9) 1.0065(8) 0.7353(5) 0.025(2) Uani 1 1 d U . .
C8 C 0.4212(10) 1.0820(9) 0.7145(6) 0.035(3) Uani 1 1 d U . .
H8 H 0.3814 1.1353 0.7010 0.042 Uiso 1 1 calc R . .
C9 C 0.5244(9) 1.0789(9) 0.7135(5) 0.032(3) Uani 1 1 d U . .
H9 H 0.5531 1.1291 0.6972 0.038 Uiso 1 1 calc R . .
C10 C 0.5872(9) 1.0068(8) 0.7347(5) 0.029(3) Uani 1 1 d U . .
C11 C 0.5430(8) 0.9326(8) 0.7573(5) 0.022(2) Uani 1 1 d U . .
H11 H 0.5850 0.8826 0.7735 0.026 Uiso 1 1 calc R . .
C12 C 0.4396(10) 0.9309(9) 0.7564(6) 0.034(3) Uani 1 1 d U . .
H12 H 0.4107 0.8779 0.7703 0.041 Uiso 1 1 calc R . .
C13 C -0.0159(8) 0.8512(8) 0.8684(5) 0.024(2) Uani 1 1 d U . .
H13 H -0.0248 0.9157 0.8763 0.028 Uiso 1 1 calc R . .
C14 C -0.0113(9) 0.7764(8) 0.9030(5) 0.026(2) Uani 1 1 d U . .
C15 C 0.0072(9) 0.6996(9) 0.8754(5) 0.025(2) Uani 1 1 d U . .
H15 H 0.0170 0.6374 0.8890 0.030 Uiso 1 1 calc R . .
C16 C -0.0186(9) 0.7773(9) 0.9589(5) 0.028(2) Uani 1 1 d U . .
C17 C -0.0512(10) 0.6968(9) 0.9788(6) 0.035(3) Uani 1 1 d U . .
H17 H -0.0713 0.6437 0.9573 0.042 Uiso 1 1 calc R . .
C18 C -0.0553(10) 0.6924(9) 1.0319(5) 0.034(3) Uani 1 1 d U . .
H18 H -0.0757 0.6354 1.0459 0.040 Uiso 1 1 calc R . .
C19 C -0.0304(9) 0.7680(9) 1.0625(5) 0.029(2) Uani 1 1 d U . .
C20 C 0.0001(10) 0.8523(9) 1.0411(5) 0.033(3) Uani 1 1 d U . .
H20 H 0.0156 0.9067 1.0621 0.040 Uiso 1 1 calc R . .
C21 C 0.0078(10) 0.8562(9) 0.9891(6) 0.036(3) Uani 1 1 d U . .
H21 H 0.0307 0.9121 0.9751 0.043 Uiso 1 1 calc R . .
C22 C -0.0064(11) 0.8346(9) 1.1563(6) 0.039(3) Uani 1 1 d U . .
H22 H 0.0070 0.8990 1.1499 0.047 Uiso 1 1 calc R . .
C23 C -0.0290(9) 0.7614(8) 1.1184(5) 0.024(2) Uani 1 1 d U . .
C24 C -0.0474(10) 0.6837(8) 1.1462(5) 0.030(2) Uani 1 1 d U . .
H24 H -0.0693 0.6239 1.1319 0.036 Uiso 1 1 calc R . .
O1 O 0.1422(8) 0.5091(7) 0.9191(4) 0.052(3) Uani 1 1 d U . .
C25 C 0.2192(12) 0.5505(11) 0.9133(6) 0.048(3) Uani 1 1 d U . .
H25 H 0.2091 0.6059 0.8926 0.057 Uiso 1 1 calc R . .
N9 N 0.3146(10) 0.5274(9) 0.9323(6) 0.053(3) Uani 1 1 d U . .
C26 C 0.3979(13) 0.5854(12) 0.9259(8) 0.070(5) Uani 1 1 d U . .
H26A H 0.3775 0.6244 0.8950 0.105 Uiso 1 1 calc R . .
H26B H 0.4561 0.5455 0.9221 0.105 Uiso 1 1 calc R . .
H26C H 0.4176 0.6262 0.9560 0.105 Uiso 1 1 calc R . .
C27 C 0.3349(14) 0.4478(12) 0.9653(8) 0.072(5) Uani 1 1 d U . .
H27A H 0.3258 0.4653 0.9998 0.108 Uiso 1 1 calc R . .
H27B H 0.4054 0.4265 0.9669 0.108 Uiso 1 1 calc R . .
H27C H 0.2874 0.3967 0.9519 0.108 Uiso 1 1 calc R . .
O2 O 0.7132(7) 0.7663(6) 0.8322(4) 0.040(2) Uani 1 1 d U . .
C28 C 0.7324(11) 0.8228(10) 0.8686(6) 0.040(3) Uani 1 1 d U . .
H28 H 0.7673 0.8799 0.8644 0.048 Uiso 1 1 calc R . .
N10 N 0.7044(10) 0.8045(9) 0.9150(5) 0.050(3) Uani 1 1 d U . .
C29 C 0.6587(13) 0.7143(11) 0.9242(7) 0.062(4) Uani 1 1 d U . .
H29A H 0.5849 0.7226 0.9218 0.094 Uiso 1 1 calc R . .
H29B H 0.6900 0.6914 0.9586 0.094 Uiso 1 1 calc R . .
H29C H 0.6706 0.6684 0.8984 0.094 Uiso 1 1 calc R . .
C30 C 0.7288(14) 0.8747(12) 0.9573(7) 0.064(4) Uani 1 1 d U . .
H30A H 0.7940 0.8581 0.9798 0.096 Uiso 1 1 calc R . .
H30B H 0.6743 0.8747 0.9772 0.096 Uiso 1 1 calc R . .
H30C H 0.7341 0.9377 0.9427 0.096 Uiso 1 1 calc R . .
O3 O 0.5786(10) 0.6466(11) 0.5462(5) 0.084(4) Uani 1 1 d U . .
C31 C 0.5863(15) 0.7130(14) 0.5784(9) 0.070(4) Uani 1 1 d U . .
H31 H 0.5430 0.7665 0.5705 0.084 Uiso 1 1 calc R . .
N11 N 0.6505(12) 0.7110(10) 0.6215(7) 0.070(4) Uani 1 1 d U . .
C32 C 0.7202(16) 0.6295(15) 0.6364(9) 0.090(6) Uani 1 1 d U . .
H32A H 0.7196 0.5892 0.6063 0.135 Uiso 1 1 calc R . .
H32B H 0.6972 0.5930 0.6634 0.135 Uiso 1 1 calc R . .
H32C H 0.7899 0.6527 0.6494 0.135 Uiso 1 1 calc R . .
C33 C 0.6566(17) 0.7825(15) 0.6611(9) 0.098(6) Uani 1 1 d U . .
H33A H 0.7048 0.8319 0.6555 0.147 Uiso 1 1 calc R . .
H33B H 0.6803 0.7536 0.6949 0.147 Uiso 1 1 calc R . .
H33C H 0.5887 0.8104 0.6595 0.147 Uiso 1 1 calc R . .
O4 O 0.3162(9) 0.7803(8) 0.8439(4) 0.062(3) Uani 1 1 d U . .
C34 C 0.2788(14) 0.8158(12) 0.8780(8) 0.059(4) Uani 1 1 d U . .
H34 H 0.2078 0.8055 0.8766 0.071 Uiso 1 1 calc R . .
N12 N 0.3324(10) 0.8709(10) 0.9193(6) 0.060(3) Uani 1 1 d U . .
C35 C 0.4338(14) 0.8951(14) 0.9206(9) 0.083(5) Uani 1 1 d U . .
H35A H 0.4781 0.8415 0.9336 0.124 Uiso 1 1 calc R . .
H35B H 0.4522 0.9496 0.9434 0.124 Uiso 1 1 calc R . .
H35C H 0.4427 0.9113 0.8859 0.124 Uiso 1 1 calc R . .
C36 C 0.2741(18) 0.9134(15) 0.9561(9) 0.095(6) Uani 1 1 d U . .
H36A H 0.2518 0.9772 0.9445 0.142 Uiso 1 1 calc R . .
H36B H 0.3181 0.9168 0.9903 0.142 Uiso 1 1 calc R . .
H36C H 0.2140 0.8743 0.9575 0.142 Uiso 1 1 calc R . .
O5 O 0.5732(10) 0.3967(10) 0.9262(5) 0.082(4) Uani 1 1 d U . .
C37 C 0.6467(15) 0.4275(13) 0.9091(8) 0.068(4) Uani 1 1 d U . .
H37 H 0.6335 0.4775 0.8848 0.082 Uiso 1 1 calc R . .
N13 N 0.7425(12) 0.3966(10) 0.9220(6) 0.067(4) Uani 1 1 d U . .
C38 C 0.8270(15) 0.4385(14) 0.9024(8) 0.077(5) Uani 1 1 d U . .
H38A H 0.8534 0.3925 0.8806 0.116 Uiso 1 1 calc R . .
H38B H 0.8818 0.4563 0.9313 0.116 Uiso 1 1 calc R . .
H38C H 0.8028 0.4948 0.8820 0.116 Uiso 1 1 calc R . .
C39 C 0.7697(14) 0.3220(13) 0.9632(7) 0.069(5) Uani 1 1 d U . .
H39A H 0.7791 0.3518 0.9972 0.103 Uiso 1 1 calc R . .
H39B H 0.8332 0.2904 0.9595 0.103 Uiso 1 1 calc R . .
H39C H 0.7142 0.2755 0.9597 0.103 Uiso 1 1 calc R . .
O6 O 0.8082(8) 0.0499(8) 0.8750(4) 0.053(3) Uani 1 1 d U . .
C40 C 0.7638(13) 0.1182(12) 0.8531(7) 0.058(4) Uani 1 1 d U . .
H40 H 0.8046 0.1584 0.8367 0.069 Uiso 1 1 calc R . .
N14 N 0.6658(11) 0.1452(10) 0.8486(6) 0.063(3) Uani 1 1 d U . .
C41 C 0.6285(14) 0.2327(12) 0.8236(7) 0.063(4) Uani 1 1 d U . .
H41A H 0.6843 0.2645 0.8113 0.095 Uiso 1 1 calc R . .
H41B H 0.6032 0.2736 0.8481 0.095 Uiso 1 1 calc R . .
H41C H 0.5727 0.2191 0.7944 0.095 Uiso 1 1 calc R . .
C42 C 0.5927(14) 0.0803(13) 0.8702(8) 0.076(5) Uani 1 1 d U . .
H42A H 0.5339 0.0646 0.8429 0.114 Uiso 1 1 calc R . .
H42B H 0.5687 0.1126 0.8983 0.114 Uiso 1 1 calc R . .
H42C H 0.6286 0.0221 0.8833 0.114 Uiso 1 1 calc R . .

loop_
_atom_site_aniso_label
_atom_site_aniso_U_11
_atom_site_aniso_U_22
_atom_site_aniso_U_33
_atom_site_aniso_U_23
_atom_site_aniso_U_13
_atom_site_aniso_U_12
Co1 0.0295(9) 0.0302(8) 0.0073(7) -0.0037(7) 0.0059(7) -0.0081(7)
Co2 0.0276(9) 0.0303(8) 0.0029(7) -0.0010(6) 0.0028(6) -0.0072(7)
N1 0.026(4) 0.028(4) 0.022(4) -0.001(3) 0.003(3) -0.003(3)
N2 0.020(3) 0.025(3) 0.006(4) 0.001(3) 0.002(3) -0.003(3)
N3 0.031(4) 0.031(4) 0.028(4) -0.001(3) 0.008(3) -0.002(3)
N4 0.027(4) 0.028(3) 0.012(4) 0.001(3) 0.007(3) -0.003(3)
N5 0.021(4) 0.027(3) 0.016(4) -0.004(3) 0.002(3) -0.003(3)
N6 0.038(4) 0.031(4) 0.018(4) 0.003(3) 0.006(4) 0.003(3)
N7 0.028(4) 0.022(3) 0.026(4) -0.001(3) 0.004(3) -0.003(3)
N8 0.026(4) 0.023(3) 0.016(4) -0.001(3) -0.003(3) 0.002(3)
C1 0.020(4) 0.025(4) 0.018(4) -0.001(3) 0.005(3) -0.004(3)
C2 0.025(4) 0.025(4) 0.020(4) 0.004(3) 0.009(4) -0.002(3)
C3 0.024(4) 0.021(4) 0.020(4) 0.002(3) 0.002(4) -0.008(3)
C4 0.023(4) 0.023(4) 0.026(5) 0.002(3) 0.009(4) -0.008(3)
C5 0.029(3) 0.030(4) 0.024(5) 0.003(4) 0.011(4) -0.002(3)
C6 0.025(4) 0.021(4) 0.019(4) 0.002(3) 0.004(4) -0.004(3)
C7 0.026(3) 0.028(4) 0.023(5) -0.001(4) 0.010(4) -0.002(3)
C8 0.033(4) 0.039(4) 0.036(5) 0.010(4) 0.017(4) 0.003(3)
C9 0.034(4) 0.036(4) 0.026(5) 0.006(4) 0.009(4) -0.007(3)
C10 0.029(4) 0.032(4) 0.025(5) -0.002(4) 0.005(4) -0.004(3)
C11 0.020(4) 0.025(4) 0.019(4) 0.003(3) 0.002(3) -0.001(3)
C12 0.031(4) 0.039(4) 0.032(5) 0.002(4) 0.007(4) 0.001(3)
C13 0.024(4) 0.032(4) 0.014(4) -0.003(3) 0.003(4) -0.003(3)
C14 0.021(4) 0.033(4) 0.022(4) 0.004(3) 0.001(4) 0.006(3)
C15 0.027(4) 0.035(4) 0.015(4) 0.006(3) 0.008(4) -0.004(4)
C16 0.027(4) 0.039(4) 0.019(4) 0.003(3) 0.004(4) -0.001(4)
C17 0.036(5) 0.039(4) 0.028(4) 0.000(4) 0.004(4) -0.004(4)
C18 0.039(5) 0.036(4) 0.027(4) 0.002(3) 0.008(4) -0.002(4)
C19 0.026(4) 0.035(4) 0.024(4) 0.002(3) 0.001(4) 0.000(4)
C20 0.038(5) 0.036(4) 0.027(4) 0.001(3) 0.011(4) 0.000(4)
C21 0.041(5) 0.038(4) 0.029(4) 0.006(4) 0.008(4) 0.001(4)
C22 0.047(5) 0.035(4) 0.033(4) -0.002(3) 0.003(4) -0.001(4)
C23 0.021(4) 0.033(4) 0.017(3) 0.005(3) -0.004(4) -0.003(3)
C24 0.032(5) 0.033(4) 0.025(4) -0.002(3) 0.004(4) -0.006(4)
O1 0.067(6) 0.056(6) 0.033(7) 0.000(5) 0.010(6) -0.019(5)
C25 0.050(4) 0.050(5) 0.042(5) -0.001(4) 0.007(4) -0.004(4)
N9 0.054(4) 0.054(5) 0.048(5) 0.002(4) 0.009(4) 0.005(4)
C26 0.057(7) 0.075(8) 0.077(9) 0.009(7) 0.011(7) 0.001(6)
C27 0.070(8) 0.072(8) 0.074(9) 0.018(7) 0.018(7) 0.012(6)
O2 0.042(6) 0.049(6) 0.025(5) -0.005(4) -0.001(5) -0.003(4)
C28 0.041(5) 0.043(5) 0.038(4) 0.000(4) 0.011(4) -0.002(4)
N10 0.055(5) 0.055(5) 0.041(4) -0.002(4) 0.012(4) -0.005(4)
C29 0.069(8) 0.062(7) 0.058(8) 0.016(6) 0.015(7) -0.008(6)
C30 0.071(8) 0.073(7) 0.049(7) -0.014(6) 0.015(7) -0.009(7)
O3 0.093(10) 0.128(11) 0.039(7) -0.014(7) 0.036(7) -0.015(8)
C31 0.069(6) 0.073(6) 0.069(6) -0.001(4) 0.014(4) 0.000(4)
N11 0.070(5) 0.076(5) 0.065(5) -0.008(4) 0.017(4) -0.007(4)
C32 0.088(9) 0.091(8) 0.086(10) 0.009(7) 0.006(7) 0.002(7)
C33 0.096(10) 0.110(9) 0.087(9) -0.034(7) 0.016(8) -0.005(8)
O4 0.080(8) 0.065(7) 0.031(6) 0.004(5) -0.014(6) 0.013(6)
C34 0.057(6) 0.062(5) 0.059(5) 0.000(4) 0.011(4) -0.001(4)
N12 0.062(5) 0.060(5) 0.059(5) -0.003(4) 0.011(4) 0.002(4)
C35 0.075(7) 0.083(9) 0.087(10) 0.001(8) 0.008(7) -0.015(7)
C36 0.109(9) 0.103(10) 0.078(9) -0.018(7) 0.034(8) -0.007(8)
O5 0.073(8) 0.107(10) 0.065(9) -0.011(8) 0.015(7) 0.001(8)
C37 0.069(5) 0.067(6) 0.066(6) 0.000(4) 0.009(4) 0.002(4)
N13 0.067(5) 0.067(5) 0.067(6) 0.003(4) 0.010(4) 0.003(4)
C38 0.072(7) 0.094(9) 0.065(9) 0.004(7) 0.012(7) -0.002(7)
C39 0.074(8) 0.072(8) 0.058(8) 0.001(6) 0.003(7) 0.003(6)
O6 0.059(7) 0.077(7) 0.027(6) -0.009(5) 0.018(5) -0.008(5)
C40 0.060(5) 0.057(5) 0.057(6) -0.003(4) 0.012(4) -0.005(4)
N14 0.066(5) 0.065(5) 0.059(5) -0.004(4) 0.015(4) 0.003(4)
C41 0.068(8) 0.071(7) 0.050(8) -0.009(6) 0.006(7) 0.008(6)
C42 0.069(8) 0.078(8) 0.081(10) -0.003(7) 0.014(7) -0.008(7)

_geom_special_details            
;
All esds (except the esd in the dihedral angle between two l.s. planes)
are estimated using the full covariance matrix. The cell esds are taken
into account individually in the estimation of esds in distances, angles
and torsion angles; correlations between esds in cell parameters are only
used when they are defined by crystal symmetry. An approximate (isotropic)
treatment of cell esds is used for estimating esds involving l.s. planes.
;

loop_
_geom_bond_atom_site_label_1
_geom_bond_atom_site_label_2
_geom_bond_distance
_geom_bond_site_symmetry_2
_geom_bond_publ_flag
Co1 N3 1.937(10) . ?
Co1 N6 1.957(10) 2_556 ?
Co1 N1 2.000(10) . ?
Co1 N7 2.014(10) 3_577 ?
Co2 N5 1.953(10) . ?
Co2 N4 1.982(9) . ?
Co2 N2 1.989(9) . ?
Co2 N8 2.023(9) 4_575 ?
N1 N2 1.339(12) . ?
N1 C1 1.355(14) . ?
N2 C3 1.343(14) . ?
N3 C4 1.320(15) . ?
N3 N4 1.405(13) . ?
N4 C6 1.331(14) . ?
N5 N6 1.334(13) . ?
N5 C13 1.404(14) . ?
N6 C15 1.412(15) . ?
N6 Co1 1.957(10) 2_546 ?
N7 C22 1.328(17) . ?
N7 N8 1.337(12) . ?
N7 Co1 2.014(10) 3_577 ?
N8 C24 1.327(15) . ?
N8 Co2 2.023(9) 4_576 ?
C1 C2 1.424(15) . ?
C2 C3 1.364(15) . ?
C2 C10 1.503(17) 1_455 ?
C4 C5 1.437(16) . ?
C5 C6 1.401(15) . ?
C5 C7 1.454(16) . ?
C7 C8 1.397(17) . ?
C7 C12 1.413(17) . ?
C8 C9 1.382(17) . ?
C9 C10 1.368(17) . ?
C10 C11 1.396(16) . ?
C10 C2 1.503(17) 1_655 ?
C11 C12 1.373(16) . ?
C13 C14 1.394(16) . ?
C14 C15 1.359(17) . ?
C14 C16 1.505(17) . ?
C16 C17 1.363(17) . ?
C16 C21 1.379(18) . ?
C17 C18 1.421(18) . ?
C18 C19 1.344(18) . ?
C19 C20 1.415(17) . ?
C19 C23 1.483(17) . ?
C20 C21 1.404(18) . ?
C22 C23 1.432(17) . ?
C23 C24 1.373(16) . ?
O1 C25 1.218(17) . ?
C25 N9 1.313(19) . ?
N9 C26 1.42(2) . ?
N9 C27 1.42(2) . ?
O2 C28 1.240(16) . ?
C28 N10 1.381(18) . ?
N10 C29 1.455(19) . ?
N10 C30 1.49(2) . ?
O3 C31 1.26(2) . ?
C31 N11 1.29(2) . ?
N11 C33 1.45(2) . ?
N11 C32 1.48(2) . ?
O4 C34 1.22(2) . ?
C34 N12 1.42(2) . ?
N12 C35 1.39(2) . ?
N12 C36 1.49(2) . ?
O5 C37 1.24(2) . ?
C37 N13 1.33(2) . ?
N13 C38 1.46(2) . ?
N13 C39 1.51(2) . ?
O6 C40 1.219(18) . ?
C40 N14 1.34(2) . ?
N14 C41 1.45(2) . ?
N14 C42 1.53(2) . ?

loop_
_geom_angle_atom_site_label_1
_geom_angle_atom_site_label_2
_geom_angle_atom_site_label_3
_geom_angle
_geom_angle_site_symmetry_1
_geom_angle_site_symmetry_3
_geom_angle_publ_flag
N3 Co1 N6 101.7(4) . 2_556 ?
N3 Co1 N1 111.2(4) . . ?
N6 Co1 N1 120.1(4) 2_556 . ?
N3 Co1 N7 108.5(4) . 3_577 ?
N6 Co1 N7 108.2(4) 2_556 3_577 ?
N1 Co1 N7 106.7(4) . 3_577 ?
N5 Co2 N4 116.2(4) . . ?
N5 Co2 N2 105.3(4) . . ?
N4 Co2 N2 110.1(4) . . ?
N5 Co2 N8 109.9(4) . 4_575 ?
N4 Co2 N8 106.4(4) . 4_575 ?
N2 Co2 N8 108.7(4) . 4_575 ?
N2 N1 C1 110.1(9) . . ?
N2 N1 Co1 118.7(8) . . ?
C1 N1 Co1 129.5(8) . . ?
N1 N2 C3 107.1(9) . . ?
N1 N2 Co2 125.9(8) . . ?
C3 N2 Co2 125.7(7) . . ?
C4 N3 N4 106.0(10) . . ?
C4 N3 Co1 129.6(8) . . ?
N4 N3 Co1 122.2(8) . . ?
C6 N4 N3 108.5(9) . . ?
C6 N4 Co2 129.0(8) . . ?
N3 N4 Co2 120.7(8) . . ?
N6 N5 C13 108.1(10) . . ?
N6 N5 Co2 123.1(8) . . ?
C13 N5 Co2 128.7(8) . . ?
N5 N6 C15 106.4(10) . . ?
N5 N6 Co1 128.0(8) . 2_546 ?
C15 N6 Co1 125.2(8) . 2_546 ?
C22 N7 N8 109.7(11) . . ?
C22 N7 Co1 125.0(8) . 3_577 ?
N8 N7 Co1 125.3(8) . 3_577 ?
C24 N8 N7 108.6(10) . . ?
C24 N8 Co2 127.9(8) . 4_576 ?
N7 N8 Co2 122.4(8) . 4_576 ?
N1 C1 C2 107.1(10) . . ?
C3 C2 C1 104.2(10) . . ?
C3 C2 C10 129.5(10) . 1_455 ?
C1 C2 C10 126.2(10) . 1_455 ?
N2 C3 C2 111.4(10) . . ?
N3 C4 C5 112.6(10) . . ?
C6 C5 C4 101.1(9) . . ?
C6 C5 C7 130.8(11) . . ?
C4 C5 C7 128.0(11) . . ?
N4 C6 C5 111.7(10) . . ?
C8 C7 C12 117.3(11) . . ?
C8 C7 C5 122.7(11) . . ?
C12 C7 C5 119.9(11) . . ?
C9 C8 C7 119.8(12) . . ?
C10 C9 C8 123.0(12) . . ?
C9 C10 C11 117.5(11) . . ?
C9 C10 C2 122.2(11) . 1_655 ?
C11 C10 C2 120.2(11) . 1_655 ?
C12 C11 C10 121.0(12) . . ?
C11 C12 C7 121.2(12) . . ?
C14 C13 N5 109.8(10) . . ?
C15 C14 C13 104.0(11) . . ?
C15 C14 C16 126.2(11) . . ?
C13 C14 C16 129.7(12) . . ?
C14 C15 N6 111.6(11) . . ?
C17 C16 C21 120.9(13) . . ?
C17 C16 C14 117.6(12) . . ?
C21 C16 C14 121.4(12) . . ?
C16 C17 C18 120.0(13) . . ?
C19 C18 C17 120.6(13) . . ?
C18 C19 C20 119.0(13) . . ?
C18 C19 C23 120.4(11) . . ?
C20 C19 C23 120.5(12) . . ?
C21 C20 C19 120.7(13) . . ?
C16 C21 C20 118.6(13) . . ?
N7 C22 C23 107.7(11) . . ?
C24 C23 C22 103.7(12) . . ?
C24 C23 C19 128.3(11) . . ?
C22 C23 C19 128.0(11) . . ?
N8 C24 C23 110.2(11) . . ?
O1 C25 N9 127.4(16) . . ?
C25 N9 C26 122.1(14) . . ?
C25 N9 C27 119.0(14) . . ?
C26 N9 C27 118.4(15) . . ?
O2 C28 N10 121.5(13) . . ?
C28 N10 C29 120.7(14) . . ?
C28 N10 C30 119.4(13) . . ?
C29 N10 C30 119.7(14) . . ?
O3 C31 N11 122.5(19) . . ?
C31 N11 C33 124.1(18) . . ?
C31 N11 C32 121.6(17) . . ?
C33 N11 C32 114.1(18) . . ?
O4 C34 N12 125.5(17) . . ?
C35 N12 C34 119.6(16) . . ?
C35 N12 C36 121.1(17) . . ?
C34 N12 C36 118.7(15) . . ?
O5 C37 N13 125.5(19) . . ?
C37 N13 C38 123.1(17) . . ?
C37 N13 C39 119.7(16) . . ?
C38 N13 C39 116.8(15) . . ?
O6 C40 N14 129.7(17) . . ?
C40 N14 C41 121.6(15) . . ?
C40 N14 C42 118.5(15) . . ?
C41 N14 C42 120.0(14) . . ?

_diffrn_measured_fraction_theta_max 0.841
_diffrn_reflns_theta_full        26.43
_diffrn_measured_fraction_theta_full 0.841
_refine_diff_density_max         1.989
_refine_diff_density_min         -1.901
_refine_diff_density_rms         0.205
_exptl_crystal_recrystallization_method 'Solvothermal synthesis in DMF'



