####################################################################### 
# 
# This file contains crystal structure data downloaded from the 
# Cambridge Structural Database (CSD) hosted by the Cambridge 
# Crystallographic Data Centre (CCDC).
# 
# Full information about CCDC data access policies and citation 
# guidelines are available at http://www.ccdc.cam.ac.uk/access/V1 
# 
# Audit and citation data items may have been added by the CCDC. 
# Please retain this information to preserve the provenance of 
# this file and to allow appropriate attribution of the data. 
# 
#######################################################################

data_Zn3I6(1)2(2b)
_audit_block_doi                 10.5517/ccr4nn5
_database_code_depnum_ccdc_archive 'CCDC 689677'
loop_
_citation_id
_citation_doi
_citation_year
1 10.1002/anie.200802545 2008
_audit_update_record             
;
2008-05-29 deposited with the CCDC.	2024-07-12 downloaded from the CCDC.
;


_audit_creation_method           SHELXL-97
_chemical_name_systematic        
;
?
;
_chemical_name_common            ?
_chemical_melting_point          ?
_chemical_formula_moiety         ?
_chemical_formula_sum            'C65.53 H45.07 I6 N14 O4.92 Zn3'
_chemical_formula_weight         2064.84

loop_
_atom_type_symbol
_atom_type_description
_atom_type_scat_dispersion_real
_atom_type_scat_dispersion_imag
_atom_type_scat_source
C C 0.0033 0.0016 'International Tables Vol C Tables 4.2.6.8 and 6.1.1.4'
H H 0.0000 0.0000 'International Tables Vol C Tables 4.2.6.8 and 6.1.1.4'
N N 0.0061 0.0033 'International Tables Vol C Tables 4.2.6.8 and 6.1.1.4'
O O 0.0106 0.0060 'International Tables Vol C Tables 4.2.6.8 and 6.1.1.4'
Zn Zn 0.2839 1.4301 'International Tables Vol C Tables 4.2.6.8 and 6.1.1.4'
I I -0.4742 1.8119 'International Tables Vol C Tables 4.2.6.8 and 6.1.1.4'

_symmetry_cell_setting           Orthorhombic
_symmetry_space_group_name_H-M   Pbca

loop_
_symmetry_equiv_pos_as_xyz
'x, y, z'
'-x+1/2, -y, z+1/2'
'-x, y+1/2, -z+1/2'
'x+1/2, -y+1/2, -z'
'-x, -y, -z'
'x-1/2, y, -z-1/2'
'x, -y-1/2, z-1/2'
'-x-1/2, y-1/2, z'

_cell_length_a                   28.1745(4)
_cell_length_b                   13.8238(2)
_cell_length_c                   45.1995(8)
_cell_angle_alpha                90.00
_cell_angle_beta                 90.00
_cell_angle_gamma                90.00
_cell_volume                     17604.2(5)
_cell_formula_units_Z            8
_cell_measurement_temperature    90(2)
_cell_measurement_reflns_used    16270
_cell_measurement_theta_min      2.5
_cell_measurement_theta_max      23

_exptl_crystal_description       needle
_exptl_crystal_colour            yellow
_exptl_crystal_size_max          0.07
_exptl_crystal_size_mid          0.05
_exptl_crystal_size_min          0.05
_exptl_crystal_density_meas      ?
_exptl_crystal_density_diffrn    1.558
_exptl_crystal_density_method    'not measured'
_exptl_crystal_F_000             7869
_exptl_absorpt_coefficient_mu    2.962
_exptl_absorpt_correction_type   none
_exptl_absorpt_correction_T_min  ?
_exptl_absorpt_correction_T_max  ?
_exptl_absorpt_process_details   ?

_exptl_special_details           
;
?
;

_diffrn_ambient_temperature      90(2)
_diffrn_radiation_wavelength     0.68890
_diffrn_radiation_type           synchrotron
_diffrn_radiation_source         KEK
_diffrn_radiation_monochromator  Si
_diffrn_measurement_device_type  CCD
_diffrn_measurement_method       omega_scan
_diffrn_detector_area_resol_mean ?
_diffrn_standards_number         ?
_diffrn_standards_interval_count ?
_diffrn_standards_interval_time  ?
_diffrn_standards_decay_%        none
_diffrn_reflns_number            88160
_diffrn_reflns_av_R_equivalents  0.1557
_diffrn_reflns_av_sigmaI/netI    0.0961
_diffrn_reflns_limit_h_min       -34
_diffrn_reflns_limit_h_max       33
_diffrn_reflns_limit_k_min       -16
_diffrn_reflns_limit_k_max       16
_diffrn_reflns_limit_l_min       -55
_diffrn_reflns_limit_l_max       50
_diffrn_reflns_theta_min         1.12
_diffrn_reflns_theta_max         24.95
_reflns_number_total             16270
_reflns_number_gt                7830
_reflns_threshold_expression     >2sigma(I)

_computing_data_collection       'Rigaku Crystal Clear'
_computing_cell_refinement       HKL2000
_computing_data_reduction        HKL2000
_computing_structure_solution    'SHELXS-97 (Sheldrick, 1990)'
_computing_structure_refinement  'SHELXL-97 (Sheldrick, 1997)'
_computing_molecular_graphics    'Bruker XP'
_computing_publication_material  'Bruker SHELXTL'

_refine_special_details          
;
Refinement of F^2^ against ALL reflections. The weighted R-factor wR
and
goodness of fit S are based on F^2^, conventional R-factors R are based
on F, with F set to zero for negative F^2^. The threshold expression of
F^2^ > 2sigma(F^2^) is used only for calculating R-factors(gt) etc. and
is
not relevant to the choice of reflections for refinement. R-factors
based
on F^2^ are statistically about twice as large as those based on F, and
R-
factors based on ALL data will be even larger.
The occupancy factors of the disordered molecules converged as follows:
2-formyltriphenylene, 21%(C101 to O101), 50%(C201 to O201) and
21%(C301 to O301); nitrobenzene, 68%(C1A to O2A), 32%(C1B to O2B),
50%(C1C to O2D) and 50%(C1D to O2D).
Several restraints and constraints were applied to disordered molecules
on a basis of chemical symmetry of the molecules.
;

_refine_ls_structure_factor_coef Fsqd
_refine_ls_matrix_type           full
_refine_ls_weighting_scheme      calc
_refine_ls_weighting_details     
'calc w=1/[\s^2^(Fo^2^)+(0.2000P)^2^+0.0000P] where P=(Fo^2^+2Fc^2^)/3'
_atom_sites_solution_primary     direct
_atom_sites_solution_secondary   difmap
_atom_sites_solution_hydrogens   geom
_refine_ls_hydrogen_treatment    constr
_refine_ls_extinction_method     none
_refine_ls_extinction_coef       ?
_refine_ls_number_reflns         16270
_refine_ls_number_parameters     1334
_refine_ls_number_restraints     2166
_refine_ls_R_factor_all          0.1535
_refine_ls_R_factor_gt           0.0986
_refine_ls_wR_factor_ref         0.3113
_refine_ls_wR_factor_gt          0.2788
_refine_ls_goodness_of_fit_ref   0.948
_refine_ls_restrained_S_all      0.900
_refine_ls_shift/su_max          0.002
_refine_ls_shift/su_mean         0.000

loop_
_atom_site_label
_atom_site_type_symbol
_atom_site_fract_x
_atom_site_fract_y
_atom_site_fract_z
_atom_site_U_iso_or_equiv
_atom_site_adp_type
_atom_site_occupancy
_atom_site_symmetry_multiplicity
_atom_site_calc_flag
_atom_site_refinement_flags
_atom_site_disorder_assembly
_atom_site_disorder_group
Zn1 Zn 0.55258(5) -0.14466(11) 0.42112(3) 0.0873(4) Uani 1 1 d . . .
Zn2 Zn 0.76140(5) 0.16584(8) 0.18444(3) 0.0802(4) Uani 1 1 d . . .
Zn3 Zn 1.02205(5) -0.12742(9) 0.41337(3) 0.0836(4) Uani 1 1 d . . .
I1 I 0.56118(5) -0.32587(7) 0.42633(3) 0.1308(4) Uani 1 1 d . . .
I2 I 0.48776(4) -0.05362(11) 0.39343(3) 0.1449(5) Uani 1 1 d . . .
I3 I 0.80493(3) 0.32694(5) 0.19090(2) 0.1013(3) Uani 1 1 d . . .
I4 I 0.67434(4) 0.16771(7) 0.16952(3) 0.1188(4) Uani 1 1 d . . .
I5 I 1.00595(3) -0.20327(6) 0.46404(2) 0.1076(3) Uani 1 1 d . . .
I6 I 1.06958(4) -0.21186(7) 0.37358(3) 0.1225(4) Uani 1 1 d . . .
C1 C 0.7452(4) -0.0448(6) 0.3550(3) 0.072(3) Uani 1 1 d . . .
C2 C 0.7817(4) -0.0079(6) 0.3119(2) 0.063(2) Uani 1 1 d . . .
C3 C 0.8239(4) -0.0433(6) 0.3520(2) 0.069(3) Uani 1 1 d . . .
C4 C 0.6995(3) -0.0611(6) 0.3720(2) 0.062(2) Uani 1 1 d . . .
C5 C 0.7001(4) -0.0863(7) 0.4005(3) 0.080(3) Uani 1 1 d . . .
H5 H 0.7285 -0.0904 0.4110 0.096 Uiso 1 1 calc R . .
C6 C 0.6555(4) -0.1067(8) 0.4145(2) 0.077(3) Uani 1 1 d . . .
H6 H 0.6559 -0.1258 0.4342 0.093 Uiso 1 1 calc R . .
C7 C 0.6149(4) -0.0726(7) 0.3739(2) 0.075(3) Uani 1 1 d . . .
H7 H 0.5857 -0.0675 0.3644 0.090 Uiso 1 1 calc R . .
C8 C 0.6564(4) -0.0502(7) 0.3578(2) 0.077(3) Uani 1 1 d . . .
H8 H 0.6548 -0.0287 0.3384 0.093 Uiso 1 1 calc R . .
C9 C 0.7768(3) 0.0208(6) 0.2817(2) 0.065(2) Uani 1 1 d . . .
C10 C 0.7342(4) 0.0255(6) 0.2674(3) 0.076(3) Uani 1 1 d . . .
H10 H 0.7066 0.0070 0.2772 0.092 Uiso 1 1 calc R . .
C11 C 0.7315(4) 0.0582(7) 0.2380(2) 0.074(3) Uani 1 1 d . . .
H11 H 0.7022 0.0572 0.2284 0.089 Uiso 1 1 calc R . .
C12 C 0.8099(4) 0.0852(8) 0.2368(3) 0.086(3) Uani 1 1 d . . .
H12 H 0.8366 0.1052 0.2264 0.104 Uiso 1 1 calc R . .
C13 C 0.8152(4) 0.0533(8) 0.2645(3) 0.087(3) Uani 1 1 d . . .
H13 H 0.8455 0.0526 0.2728 0.104 Uiso 1 1 calc R . .
C14 C 0.8703(4) -0.0576(7) 0.3666(2) 0.073(3) Uani 1 1 d . . .
C15 C 0.9121(4) -0.0524(8) 0.3506(3) 0.086(3) Uani 1 1 d . . .
H15 H 0.9118 -0.0370 0.3305 0.103 Uiso 1 1 calc R . .
C16 C 0.9551(4) -0.0711(9) 0.3654(3) 0.090(3) Uani 1 1 d . . .
H16 H 0.9829 -0.0673 0.3544 0.108 Uiso 1 1 calc R . .
C17 C 0.9159(5) -0.0992(8) 0.4095(3) 0.087(3) Uani 1 1 d . . .
H17 H 0.9169 -0.1176 0.4293 0.105 Uiso 1 1 calc R . .
C18 C 0.8718(4) -0.0789(7) 0.3973(3) 0.079(3) Uani 1 1 d . . .
H18 H 0.8444 -0.0792 0.4088 0.094 Uiso 1 1 calc R . .
C19 C 0.5975(5) 0.0679(7) 0.5405(2) 0.081(3) Uani 1 1 d . . .
C20 C 0.6345(4) 0.0709(7) 0.5854(2) 0.077(3) Uani 1 1 d . . .
C21 C 0.6006(4) 0.2059(7) 0.5676(2) 0.078(3) Uani 1 1 d . . .
C22 C 0.5819(4) 0.0153(7) 0.5138(2) 0.080(3) Uani 1 1 d . . .
C23 C 0.5601(4) 0.0641(8) 0.4908(3) 0.085(3) Uani 1 1 d . . .
H23 H 0.5531 0.1296 0.4924 0.102 Uiso 1 1 calc R . .
C24 C 0.5489(4) 0.0136(9) 0.4650(3) 0.094(3) Uani 1 1 d . . .
H24 H 0.5343 0.0463 0.4495 0.113 Uiso 1 1 calc R . .
C25 C 0.5773(5) -0.1294(8) 0.4846(3) 0.096(4) Uani 1 1 d . . .
H25 H 0.5819 -0.1959 0.4831 0.115 Uiso 1 1 calc R . .
C26 C 0.5901(5) -0.0834(8) 0.5103(3) 0.103(4) Uani 1 1 d . . .
H26 H 0.6042 -0.1184 0.5256 0.124 Uiso 1 1 calc R . .
C27 C 0.6579(4) 0.0176(7) 0.6094(2) 0.078(3) Uani 1 1 d . . .
C28 C 0.6587(5) -0.0814(8) 0.6106(3) 0.097(4) Uani 1 1 d . . .
H28 H 0.6443 -0.1162 0.5954 0.116 Uiso 1 1 calc R . .
C29 C 0.6792(5) -0.1294(8) 0.6326(3) 0.093(4) Uani 1 1 d . . .
H29 H 0.6783 -0.1966 0.6326 0.112 Uiso 1 1 calc R . .
C30 C 0.7035(5) 0.0118(7) 0.6536(3) 0.094(4) Uani 1 1 d . . .
H30 H 0.7209 0.0444 0.6680 0.113 Uiso 1 1 calc R . .
C31 C 0.6809(5) 0.0629(8) 0.6321(3) 0.100(4) Uani 1 1 d . . .
H31 H 0.6811 0.1301 0.6328 0.120 Uiso 1 1 calc R . .
C32 C 0.5869(4) 0.3081(7) 0.5710(2) 0.076(3) Uani 1 1 d . . .
C33 C 0.5927(5) 0.3554(8) 0.5977(3) 0.093(4) Uani 1 1 d . . .
H33 H 0.6069 0.3236 0.6135 0.111 Uiso 1 1 calc R . .
C34 C 0.5776(5) 0.4492(9) 0.6009(3) 0.099(4) Uani 1 1 d . . .
H34 H 0.5842 0.4814 0.6185 0.119 Uiso 1 1 calc R . .
C35 C 0.5476(5) 0.4525(9) 0.5527(3) 0.108(4) Uani 1 1 d . . .
H35 H 0.5324 0.4852 0.5374 0.130 Uiso 1 1 calc R . .
C36 C 0.5649(5) 0.3556(9) 0.5483(3) 0.100(4) Uani 1 1 d . . .
H36 H 0.5612 0.3254 0.5300 0.120 Uiso 1 1 calc R . .
N1 N 0.7400(3) -0.0213(5) 0.32642(18) 0.069(2) Uani 1 1 d . . .
N2 N 0.8231(3) -0.0179(6) 0.3236(2) 0.072(2) Uani 1 1 d . . .
N3 N 0.7848(3) -0.0591(5) 0.36918(18) 0.067(2) Uani 1 1 d . . .
N4 N 0.6157(3) -0.1006(6) 0.4019(2) 0.073(2) Uani 1 1 d . . .
N5 N 0.7679(3) 0.0894(6) 0.22386(19) 0.074(2) Uani 1 1 d . . .
N6 N 0.9587(3) -0.0940(6) 0.3942(2) 0.080(2) Uani 1 1 d . . .
N7 N 0.6208(3) 0.0198(6) 0.5612(2) 0.085(3) Uani 1 1 d . . .
N8 N 0.6269(3) 0.1660(6) 0.5888(2) 0.078(2) Uani 1 1 d . . .
N9 N 0.5864(4) 0.1628(6) 0.5422(2) 0.086(3) Uani 1 1 d . . .
N10 N 0.5589(3) -0.0831(7) 0.4619(2) 0.086(3) Uani 1 1 d . . .
N11 N 0.7010(3) -0.0842(6) 0.6544(2) 0.085(3) Uani 1 1 d . . .
N12 N 0.5537(3) 0.4960(6) 0.5796(2) 0.081(2) Uani 1 1 d . . .
C101 C 0.7809(9) 0.74581(9) 0.3057(3) 0.119(6) Uani 0.212(10) 1 d PDU A 1
C102 C 0.7668(10) 0.77118(10) 0.2772(3) 0.127(6) Uani 0.212(10) 1 d PDU A 1
H102 H 0.7347 0.7754 0.2727 0.152 Uiso 0.212(10) 1 calc PR A 1
C103 C 0.8005(11) 0.7902(2) 0.2555(3) 0.137(7) Uani 0.212(10) 1 d PDU A 1
H103 H 0.7909 0.8071 0.2365 0.165 Uiso 0.212(10) 1 calc PR A 1
C104 C 0.8486(11) 0.7837(4) 0.2624(4) 0.144(7) Uani 0.212(10) 1 d PDU A 1
C105 C 0.8626(9) 0.7585(4) 0.2908(5) 0.135(7) Uani 0.212(10) 1 d PDU A 1
H105 H 0.8947 0.7542 0.2954 0.162 Uiso 0.212(10) 1 calc PR A 1
C106 C 0.8288(9) 0.7394(2) 0.3126(3) 0.129(6) Uani 0.212(10) 1 d PDU A 1
C107 C 0.8430(9) 0.7139(3) 0.3412(4) 0.127(6) Uani 0.212(10) 1 d PDU A 1
C108 C 0.8910(9) 0.7072(5) 0.3484(6) 0.137(8) Uani 0.212(10) 1 d PDU A 1
H108 H 0.9140 0.7197 0.3342 0.165 Uiso 0.212(10) 1 calc PR A 1
C109 C 0.9046(11) 0.6819(6) 0.3769(6) 0.134(8) Uani 0.212(10) 1 d PDU A 1
H109 H 0.9366 0.6774 0.3817 0.160 Uiso 0.212(10) 1 calc PR A 1
C110 C 0.8704(13) 0.6632(5) 0.3983(5) 0.133(8) Uani 0.212(10) 1 d PDU A 1
H110 H 0.8795 0.6462 0.4174 0.160 Uiso 0.212(10) 1 calc PR A 1
C111 C 0.8226(12) 0.6698(4) 0.3912(4) 0.131(7) Uani 0.212(10) 1 d PDU A 1
H111 H 0.7997 0.6573 0.4055 0.157 Uiso 0.212(10) 1 calc PR A 1
C112 C 0.8088(9) 0.6952(3) 0.3627(3) 0.123(6) Uani 0.212(10) 1 d PDU A 1
C113 C 0.7606(9) 0.7016(3) 0.3558(3) 0.120(6) Uani 0.212(10) 1 d PDU A 1
C114 C 0.7262(11) 0.6829(4) 0.3772(4) 0.123(6) Uani 0.212(10) 1 d PDU A 1
H114 H 0.7352 0.6659 0.3963 0.147 Uiso 0.212(10) 1 calc PR A 1
C115 C 0.6783(10) 0.6896(6) 0.3700(6) 0.126(7) Uani 0.212(10) 1 d PDU A 1
H115 H 0.6554 0.6771 0.3843 0.151 Uiso 0.212(10) 1 calc PR A 1
C116 C 0.6646(9) 0.7149(6) 0.3416(7) 0.122(7) Uani 0.212(10) 1 d PDU A 1
H116 H 0.6326 0.7193 0.3368 0.146 Uiso 0.212(10) 1 calc PR A 1
C117 C 0.6988(9) 0.7336(4) 0.3201(5) 0.118(7) Uani 0.212(10) 1 d PDU A 1
H117 H 0.6897 0.7506 0.3010 0.141 Uiso 0.212(10) 1 calc PR A 1
C118 C 0.7468(8) 0.7270(3) 0.3273(4) 0.120(6) Uani 0.212(10) 1 d PDU A 1
C119 C 0.8855(13) 0.8037(6) 0.2395(6) 0.178(12) Uani 0.212(10) 1 d PDU A 1
H119 H 0.9165 0.8152 0.2457 0.213 Uiso 0.212(10) 1 calc PR A 1
O101 O 0.8767(18) 0.806(6) 0.2132(6) 0.21(2) Uani 0.212(10) 1 d PDU A 1
C201 C 0.7697(7) 0.7304(4) 0.3232(4) 0.115(4) Uani 0.498(10) 1 d PDU B 2
C202 C 0.7466(8) 0.7541(4) 0.2966(5) 0.124(5) Uani 0.498(10) 1 d PDU B 2
H202 H 0.7136 0.7543 0.2966 0.148 Uiso 0.498(10) 1 calc PR B 2
C203 C 0.7692(9) 0.7771(5) 0.2705(5) 0.131(5) Uani 0.498(10) 1 d PDU B 2
H203 H 0.7519 0.7923 0.2535 0.157 Uiso 0.498(10) 1 calc PR B 2
C204 C 0.8189(8) 0.7771(5) 0.2702(5) 0.135(6) Uani 0.498(10) 1 d PDU B 2
C205 C 0.8416(9) 0.7536(5) 0.2965(5) 0.136(6) Uani 0.498(10) 1 d PDU B 2
H205 H 0.8746 0.7533 0.2965 0.163 Uiso 0.498(10) 1 calc PR B 2
C206 C 0.8189(7) 0.7305(4) 0.3227(4) 0.121(5) Uani 0.498(10) 1 d PDU B 2
C207 C 0.8455(7) 0.7073(4) 0.3486(4) 0.124(5) Uani 0.498(10) 1 d PDU B 2
C208 C 0.8954(8) 0.7066(6) 0.3491(6) 0.139(6) Uani 0.498(10) 1 d PDU B 2
H208 H 0.9124 0.7215 0.3321 0.167 Uiso 0.498(10) 1 calc PR B 2
C209 C 0.9191(9) 0.6836(6) 0.3749(6) 0.137(6) Uani 0.498(10) 1 d PDU B 2
H209 H 0.9521 0.6831 0.3751 0.164 Uiso 0.498(10) 1 calc PR B 2
C210 C 0.8940(9) 0.6611(6) 0.4005(6) 0.134(6) Uani 0.498(10) 1 d PDU B 2
H210 H 0.9103 0.6457 0.4177 0.160 Uiso 0.498(10) 1 calc PR B 2
C211 C 0.8454(9) 0.6615(5) 0.4004(5) 0.132(6) Uani 0.498(10) 1 d PDU B 2
H211 H 0.8290 0.6464 0.4176 0.159 Uiso 0.498(10) 1 calc PR B 2
C212 C 0.8202(7) 0.6845(4) 0.3747(5) 0.121(5) Uani 0.498(10) 1 d PDU B 2
C213 C 0.7701(7) 0.6842(4) 0.3754(4) 0.116(5) Uani 0.498(10) 1 d PDU B 2
C214 C 0.7449(9) 0.6613(5) 0.4014(5) 0.122(5) Uani 0.498(10) 1 d PDU B 2
H214 H 0.7611 0.6459 0.4187 0.147 Uiso 0.498(10) 1 calc PR B 2
C215 C 0.6954(9) 0.6622(6) 0.4008(6) 0.130(6) Uani 0.498(10) 1 d PDU B 2
H215 H 0.6787 0.6472 0.4179 0.156 Uiso 0.498(10) 1 calc PR B 2
C216 C 0.6707(9) 0.6849(6) 0.3753(6) 0.126(6) Uani 0.498(10) 1 d PDU B 2
H216 H 0.6377 0.6850 0.3755 0.151 Uiso 0.498(10) 1 calc PR B 2
C217 C 0.6953(7) 0.7078(5) 0.3494(5) 0.118(5) Uani 0.498(10) 1 d PDU B 2
H217 H 0.6787 0.7231 0.3322 0.142 Uiso 0.498(10) 1 calc PR B 2
C218 C 0.7449(7) 0.7075(4) 0.3493(4) 0.113(5) Uani 0.498(10) 1 d PDU B 2
C219 C 0.8535(11) 0.7983(6) 0.2459(6) 0.164(7) Uani 0.498(10) 1 d PDU B 2
H219 H 0.8458 0.7893 0.2261 0.197 Uiso 0.498(10) 1 calc PR B 2
O201 O 0.8938(10) 0.829(3) 0.2538(10) 0.238(14) Uani 0.498(10) 1 d PDU B 2
C301 C 0.7100(11) 0.7073(6) 0.3498(6) 0.121(6) Uani 0.213(8) 1 d PDU C 3
C302 C 0.6647(12) 0.6966(7) 0.3622(7) 0.122(7) Uani 0.213(8) 1 d PDU C 3
H302 H 0.6631 0.6791 0.3820 0.146 Uiso 0.213(8) 1 calc PR C 3
C303 C 0.6219(12) 0.7101(7) 0.3473(8) 0.126(9) Uani 0.213(8) 1 d PDU C 3
H303 H 0.5929 0.7019 0.3568 0.151 Uiso 0.213(8) 1 calc PR C 3
C304 C 0.6247(11) 0.7365(7) 0.3175(8) 0.128(9) Uani 0.213(8) 1 d PDU C 3
C305 C 0.6697(11) 0.7471(7) 0.3051(7) 0.123(8) Uani 0.213(8) 1 d PDU C 3
H305 H 0.6716 0.7647 0.2853 0.148 Uiso 0.213(8) 1 calc PR C 3
C306 C 0.7118(10) 0.7335(6) 0.3202(6) 0.121(6) Uani 0.213(8) 1 d PDU C 3
C307 C 0.7559(11) 0.7460(5) 0.3057(6) 0.124(6) Uani 0.213(8) 1 d PDU C 3
C308 C 0.7582(16) 0.7724(6) 0.2759(6) 0.127(7) Uani 0.213(8) 1 d PDU C 3
H308 H 0.7304 0.7821 0.2652 0.152 Uiso 0.213(8) 1 calc PR C 3
C309 C 0.8019(17) 0.7842(7) 0.2622(8) 0.138(7) Uani 0.213(8) 1 d PDU C 3
H309 H 0.8035 0.8018 0.2424 0.165 Uiso 0.213(8) 1 calc PR C 3
C310 C 0.8435(16) 0.7695(8) 0.2785(9) 0.136(7) Uani 0.213(8) 1 d PDU C 3
H310 H 0.8730 0.7773 0.2695 0.163 Uiso 0.213(8) 1 calc PR C 3
C311 C 0.8408(12) 0.7435(8) 0.3079(8) 0.134(7) Uani 0.213(8) 1 d PDU C 3
H311 H 0.8687 0.7339 0.3185 0.161 Uiso 0.213(8) 1 calc PR C 3
C312 C 0.7974(11) 0.7313(5) 0.3220(6) 0.121(6) Uani 0.213(8) 1 d PDU C 3
C313 C 0.7960(11) 0.7046(5) 0.3521(6) 0.124(6) Uani 0.213(8) 1 d PDU C 3
C314 C 0.8375(13) 0.6894(7) 0.3690(8) 0.130(6) Uani 0.213(8) 1 d PDU C 3
H314 H 0.8669 0.6971 0.3600 0.156 Uiso 0.213(8) 1 calc PR C 3
C315 C 0.8355(16) 0.6631(8) 0.3987(8) 0.133(7) Uani 0.213(8) 1 d PDU C 3
H315 H 0.8632 0.6534 0.4094 0.159 Uiso 0.213(8) 1 calc PR C 3
C316 C 0.7915(17) 0.6515(7) 0.4121(7) 0.132(8) Uani 0.213(8) 1 d PDU C 3
H316 H 0.7897 0.6340 0.4319 0.158 Uiso 0.213(8) 1 calc PR C 3
C317 C 0.7501(15) 0.6663(6) 0.3958(7) 0.129(7) Uani 0.213(8) 1 d PDU C 3
H317 H 0.7208 0.6583 0.4050 0.155 Uiso 0.213(8) 1 calc PR C 3
C318 C 0.7516(11) 0.6927(6) 0.3659(6) 0.123(6) Uani 0.213(8) 1 d PDU C 3
C319 C 0.5850(13) 0.7551(9) 0.2968(10) 0.142(14) Uani 0.213(8) 1 d PDU C 3
H319 H 0.5545 0.7656 0.3040 0.171 Uiso 0.213(8) 1 calc PR C 3
O301 O 0.5926(19) 0.757(5) 0.2699(10) 0.19(2) Uani 0.213(8) 1 d PDU C 3
C1A C 0.8173(7) 0.819(2) 0.4758(3) 0.328(15) Uani 0.678(9) 1 d PGDU D 1
C2A C 0.7809(7) 0.882(2) 0.4683(3) 0.310(15) Uani 0.678(9) 1 d PGDU D 1
H2A H 0.7507 0.8580 0.4641 0.372 Uiso 0.678(9) 1 calc PR D 1
C3