####################################################################### 
# 
# This file contains crystal structure data downloaded from the 
# Cambridge Structural Database (CSD) hosted by the Cambridge 
# Crystallographic Data Centre (CCDC).
# 
# Full information about CCDC data access policies and citation 
# guidelines are available at http://www.ccdc.cam.ac.uk/access/V1 
# 
# Audit and citation data items may have been added by the CCDC. 
# Please retain this information to preserve the provenance of 
# this file and to allow appropriate attribution of the data. 
# 
#######################################################################

data_Zn3I6(1)2(4c)
_audit_block_doi                 10.5517/ccr4nr8
_database_code_depnum_ccdc_archive 'CCDC 689680'
loop_
_citation_id
_citation_doi
_citation_year
1 10.1002/anie.200802545 2008
_audit_update_record             
;
2008-05-29 deposited with the CCDC.	2024-07-12 downloaded from the CCDC.
;

_audit_creation_method           SHELXL-97
_chemical_name_systematic        
;
?
;
_chemical_name_common            ?
_chemical_melting_point          ?
_chemical_formula_moiety         ?
_chemical_formula_sum            'C124 H96 I12 N26 O12 Zn6'
_chemical_formula_weight         4057.29

loop_
_atom_type_symbol
_atom_type_description
_atom_type_scat_dispersion_real
_atom_type_scat_dispersion_imag
_atom_type_scat_source
C C 0.0033 0.0016 'International Tables Vol C Tables 4.2.6.8 and 6.1.1.4'
H H 0.0000 0.0000 'International Tables Vol C Tables 4.2.6.8 and 6.1.1.4'
N N 0.0061 0.0033 'International Tables Vol C Tables 4.2.6.8 and 6.1.1.4'
O O 0.0106 0.0060 'International Tables Vol C Tables 4.2.6.8 and 6.1.1.4'
Zn Zn 0.2839 1.4301 'International Tables Vol C Tables 4.2.6.8 and 6.1.1.4'
I I -0.4742 1.8119 'International Tables Vol C Tables 4.2.6.8 and 6.1.1.4'

_symmetry_cell_setting           Orthorhombic
_symmetry_space_group_name_H-M   P2(1)2(1)2(1)

loop_
_symmetry_equiv_pos_as_xyz
'x, y, z'
'-x+1/2, -y, z+1/2'
'-x, y+1/2, -z+1/2'
'x+1/2, -y+1/2, -z'

_cell_length_a                   13.82960(10)
_cell_length_b                   28.1807(3)
_cell_length_c                   44.3094(5)
_cell_angle_alpha                90.00
_cell_angle_beta                 90.00
_cell_angle_gamma                90.00
_cell_volume                     17268.6(3)
_cell_formula_units_Z            4
_cell_measurement_temperature    90(2)
_cell_measurement_reflns_used    22667
_cell_measurement_theta_min      2.5
_cell_measurement_theta_max      23

_exptl_crystal_description       needle
_exptl_crystal_colour            yellow
_exptl_crystal_size_max          0.08
_exptl_crystal_size_mid          0.06
_exptl_crystal_size_min          0.03
_exptl_crystal_density_meas      ?
_exptl_crystal_density_diffrn    1.561
_exptl_crystal_density_method    'not measured'
_exptl_crystal_F_000             7736
_exptl_absorpt_coefficient_mu    3.018
_exptl_absorpt_correction_type   none
_exptl_absorpt_correction_T_min  ?
_exptl_absorpt_correction_T_max  ?
_exptl_absorpt_process_details   ?

_exptl_special_details           
;
?
;

_diffrn_ambient_temperature      90(2)
_diffrn_radiation_wavelength     0.68890
_diffrn_radiation_type           synchrotron
_diffrn_radiation_source         KEK
_diffrn_radiation_monochromator  Si
_diffrn_measurement_device_type  CCD
_diffrn_measurement_method       omega_scan
_diffrn_detector_area_resol_mean ?
_diffrn_standards_number         ?
_diffrn_standards_interval_count ?
_diffrn_standards_interval_time  ?
_diffrn_standards_decay_%        none
_diffrn_reflns_number            100129
_diffrn_reflns_av_R_equivalents  0.1428
_diffrn_reflns_av_sigmaI/netI    0.1408
_diffrn_reflns_limit_h_min       -16
_diffrn_reflns_limit_h_max       16
_diffrn_reflns_limit_k_min       -32
_diffrn_reflns_limit_k_max       34
_diffrn_reflns_limit_l_min       -53
_diffrn_reflns_limit_l_max       45
_diffrn_reflns_theta_min         1.40
_diffrn_reflns_theta_max         24.84
_reflns_number_total             32480
_reflns_number_gt                22667
_reflns_threshold_expression     >2sigma(I)

_computing_data_collection       'Rigaku Crystal Clear'
_computing_cell_refinement       HKL2000
_computing_data_reduction        HKL2000
_computing_structure_solution    'SHELXS-97 (Sheldrick, 1990)'
_computing_structure_refinement  'SHELXL-97 (Sheldrick, 1997)'
_computing_molecular_graphics    'Bruker XP'
_computing_publication_material  'Bruker SHELXTL'

_refine_special_details          
;
Refinement of F^2^ against ALL reflections. The weighted R-factor wR
and
goodness of fit S are based on F^2^, conventional R-factors R are based
on F, with F set to zero for negative F^2^. The threshold expression of
F^2^ > 2sigma(F^2^) is used only for calculating R-factors(gt) etc. and
is
not relevant to the choice of reflections for refinement. R-factors
based
on F^2^ are statistically about twice as large as those based on F, and
R-
factors based on ALL data will be even larger.
The occupancy factors of the disordered molecules converged as follows:
Several restraints and constraints were applied to disordered molecules
on a basis of chemical symmetry of the molecules.
;

_refine_ls_structure_factor_coef Fsqd
_refine_ls_matrix_type           full
_refine_ls_weighting_scheme      calc
_refine_ls_weighting_details     
'calc w=1/[\s^2^(Fo^2^)+(0.0727P)^2^+0.0000P] where P=(Fo^2^+2Fc^2^)/3'
_atom_sites_solution_primary     direct
_atom_sites_solution_secondary   difmap
_atom_sites_solution_hydrogens   geom
_refine_ls_hydrogen_treatment    constr
_refine_ls_extinction_method     none
_refine_ls_extinction_coef       ?
_refine_ls_abs_structure_details 'Flack H D (1983), Acta Cryst. A39, 876-881'
_refine_ls_abs_structure_Flack   0.56(2)
_refine_ls_number_reflns         32480
_refine_ls_number_parameters     1621
_refine_ls_number_restraints     0
_refine_ls_R_factor_all          0.0962
_refine_ls_R_factor_gt           0.0723
_refine_ls_wR_factor_ref         0.2031
_refine_ls_wR_factor_gt          0.1909
_refine_ls_goodness_of_fit_ref   1.110
_refine_ls_restrained_S_all      1.110
_refine_ls_shift/su_max          0.026
_refine_ls_shift/su_mean         0.000

loop_
_atom_site_label
_atom_site_type_symbol
_atom_site_fract_x
_atom_site_fract_y
_atom_site_fract_z
_atom_site_U_iso_or_equiv
_atom_site_adp_type
_atom_site_occupancy
_atom_site_symmetry_multiplicity
_atom_site_calc_flag
_atom_site_refinement_flags
_atom_site_disorder_assembly
_atom_site_disorder_group
Zn1 Zn 1.42954(13) 0.97244(6) 0.06893(3) 0.0266(4) Uani 1 1 d . . .
Zn2 Zn 0.62695(12) 0.76865(7) 0.17293(4) 0.0320(4) Uani 1 1 d . . .
Zn3 Zn 0.61119(13) 0.29533(6) 0.15793(4) 0.0276(4) Uani 1 1 d . . .
Zn4 Zn 0.43883(12) 0.50279(6) 0.93028(3) 0.0269(4) Uani 1 1 d . . .
Zn5 Zn 0.38741(13) 0.30290(6) 0.66726(4) 0.0274(4) Uani 1 1 d . . .
Zn6 Zn -0.36713(13) 0.27923(6) 0.84775(4) 0.0327(4) Uani 1 1 d . . .
I1 I 1.43361(9) 1.05921(4) 0.08554(2) 0.0406(3) Uani 1 1 d . . .
I2 I 1.58907(7) 0.92780(4) 0.06297(2) 0.0375(3) Uani 1 1 d . . .
I3 I 0.56092(9) 0.74971(4) 0.22542(3) 0.0475(3) Uani 1 1 d . . .
I4 I 0.53421(9) 0.81814(5) 0.13503(4) 0.0640(4) Uani 1 1 d . . .
I5 I 0.42716(8) 0.29806(4) 0.16158(3) 0.0398(3) Uani 1 1 d . . .
I6 I 0.69979(9) 0.23275(4) 0.12747(2) 0.0387(3) Uani 1 1 d . . .
I7 I 0.43082(9) 0.59150(4) 0.91858(2) 0.0392(3) Uani 1 1 d . . .
I8 I 0.60118(8) 0.46212(5) 0.93788(2) 0.0420(3) Uani 1 1 d . . .
I9 I 0.57285(8) 0.30682(4) 0.67121(3) 0.0392(3) Uani 1 1 d . . .
I10 I 0.30359(9) 0.23811(4) 0.63738(2) 0.0391(3) Uani 1 1 d . . .
I11 I -0.45791(9) 0.27144(5) 0.79755(3) 0.0553(4) Uani 1 1 d . . .
I12 I -0.43941(10) 0.32253(4) 0.89320(3) 0.0566(3) Uani 1 1 d . . .
C1 C 1.2358(11) 0.7915(6) 0.2957(3) 0.028(4) Uani 1 1 d . . .
H1A H 1.2018 0.7772 0.3113 0.034 Uiso 1 1 calc R . .
C2 C 1.1859(11) 0.8036(6) 0.2702(3) 0.030(3) Uani 1 1 d . . .
H2A H 1.1192 0.7996 0.2690 0.036 Uiso 1 1 calc R . .
C3 C 1.3823(11) 0.8165(5) 0.2756(3) 0.028(3) Uani 1 1 d . . .
H3A H 1.4486 0.8209 0.2776 0.034 Uiso 1 1 calc R . .
C4 C 1.3371(10) 0.8281(6) 0.2478(3) 0.029(4) Uani 1 1 d . . .
H4A H 1.3728 0.8394 0.2315 0.035 Uiso 1 1 calc R . .
C5 C 1.2392(10) 0.8222(5) 0.2458(3) 0.025(3) Uani 1 1 d . . .
C6 C 1.1894(11) 0.8370(5) 0.2184(3) 0.026(3) Uani 1 1 d . . .
C7 C 1.3923(11) 0.9268(6) 0.1272(3) 0.028(3) Uani 1 1 d . . .
H7A H 1.4576 0.9336 0.1297 0.033 Uiso 1 1 calc R . .
C8 C 1.3426(10) 0.9060(5) 0.1501(3) 0.026(3) Uani 1 1 d . . .
H8A H 1.3745 0.8977 0.1678 0.031 Uiso 1 1 calc R . .
C9 C 1.2517(11) 0.9288(6) 0.0979(3) 0.031(4) Uani 1 1 d . . .
H9A H 1.2205 0.9378 0.0802 0.037 Uiso 1 1 calc R . .
C10 C 1.2001(10) 0.9069(5) 0.1207(3) 0.024(3) Uani 1 1 d . . .
H10A H 1.1355 0.8989 0.1179 0.029 Uiso 1 1 calc R . .
C11 C 1.2452(10) 0.8972(5) 0.1472(3) 0.023(3) Uani 1 1 d . . .
C12 C 1.1895(10) 0.8738(5) 0.1728(3) 0.025(3) Uani 1 1 d . . .
C13 C 0.8037(11) 0.8217(6) 0.1558(4) 0.034(4) Uani 1 1 d . . .
H13A H 0.7709 0.8268 0.1378 0.041 Uiso 1 1 calc R . .
C14 C 0.9030(10) 0.8354(5) 0.1593(3) 0.027(3) Uani 1 1 d . . .
H14A H 0.9363 0.8484 0.1431 0.033 Uiso 1 1 calc R . .
C15 C 0.8043(11) 0.7956(6) 0.2071(3) 0.033(4) Uani 1 1 d . . .
H15A H 0.7704 0.7819 0.2230 0.039 Uiso 1 1 calc R . .
C16 C 0.8977(13) 0.8096(6) 0.2122(4) 0.041(4) Uani 1 1 d . . .
H16A H 0.9266 0.8066 0.2311 0.049 Uiso 1 1 calc R . .
C17 C 0.9492(10) 0.8293(5) 0.1864(3) 0.024(3) Uani 1 1 d . . .
C18 C 1.0540(10) 0.8409(5) 0.1912(3) 0.026(3) Uani 1 1 d . . .
C21 C 0.6520(11) 0.6631(5) 0.1657(3) 0.030(4) Uani 1 1 d . . .
H21A H 0.6368 0.6620 0.1862 0.036 Uiso 1 1 calc R . .
C22 C 0.6647(11) 0.6220(5) 0.1499(3) 0.029(4) Uani 1 1 d . . .
H22A H 0.6585 0.5933 0.1601 0.035 Uiso 1 1 calc R . .
C23 C 0.6853(12) 0.7057(6) 0.1223(4) 0.035(4) Uani 1 1 d . . .
H23A H 0.6922 0.7348 0.1127 0.042 Uiso 1 1 calc R . .
C24 C 0.7005(12) 0.6650(6) 0.1055(3) 0.031(4) Uani 1 1 d . . .
H24A H 0.7196 0.6668 0.0854 0.038 Uiso 1 1 calc R . .
C25 C 0.6862(11) 0.6209(5) 0.1197(3) 0.029(3) Uani 1 1 d . . .
C26 C 0.7028(9) 0.5768(5) 0.1027(3) 0.020(3) Uani 1 1 d . . .
C27 C 0.8544(13) 0.5743(6) -0.0133(4) 0.039(4) Uani 1 1 d . . .
H27A H 0.8873 0.6003 -0.0210 0.046 Uiso 1 1 calc R . .
C28 C 0.8072(14) 0.5786(6) 0.0144(3) 0.040(4) Uani 1 1 d . . .
H28A H 0.7977 0.6082 0.0232 0.048 Uiso 1 1 calc R . .
C29 C 0.8185(10) 0.4934(5) -0.0169(3) 0.025(3) Uani 1 1 d . . .
H29A H 0.8220 0.4648 -0.0272 0.030 Uiso 1 1 calc R . .
C30 C 0.7750(10) 0.4952(5) 0.0127(3) 0.024(3) Uani 1 1 d . . .
H30A H 0.7473 0.4681 0.0209 0.028 Uiso 1 1 calc R . .
C31 C 0.7744(10) 0.5372(5) 0.0287(3) 0.025(3) Uani 1 1 d . . .
C32 C 0.7411(10) 0.5374(5) 0.0602(3) 0.021(3) Uani 1 1 d . . .
C33 C 0.6847(12) 0.3651(5) 0.1133(3) 0.029(4) Uani 1 1 d . . .
H33A H 0.6989 0.3380 0.1022 0.035 Uiso 1 1 calc R . .
C34 C 0.6976(11) 0.4094(5) 0.1000(3) 0.028(3) Uani 1 1 d . . .
H34A H 0.7119 0.4114 0.0796 0.033 Uiso 1 1 calc R . .
C35 C 0.6450(11) 0.4013(6) 0.1585(3) 0.028(3) Uani 1 1 d . . .
H35A H 0.6292 0.3991 0.1788 0.034 Uiso 1 1 calc R . .
C36 C 0.6601(11) 0.4456(6) 0.1461(3) 0.027(3) Uani 1 1 d . . .
H36A H 0.6504 0.4726 0.1578 0.033 Uiso 1 1 calc R . .
C37 C 0.6894(11) 0.4500(5) 0.1168(3) 0.027(3) Uani 1 1 d . . .
C38 C 0.7013(10) 0.4969(5) 0.1017(3) 0.021(3) Uani 1 1 d . . .
C41 C 0.1731(10) 0.6324(6) 1.1189(3) 0.028(4) Uani 1 1 d . . .
H41A H 0.1726 0.6608 1.1082 0.034 Uiso 1 1 calc R . .
C42 C 0.1939(11) 0.5923(5) 1.1042(3) 0.027(3) Uani 1 1 d . . .
H42A H 0.2141 0.5940 1.0842 0.032 Uiso 1 1 calc R . .
C43 C 0.1460(11) 0.5919(6) 1.1622(3) 0.029(3) Uani 1 1 d . . .
H43A H 0.1290 0.5918 1.1825 0.035 Uiso 1 1 calc R . .
C44 C 0.1629(10) 0.5480(5) 1.1478(3) 0.026(3) Uani 1 1 d . . .
H44A H 0.1583 0.5198 1.1585 0.031 Uiso 1 1 calc R . .
C45 C 0.1860(9) 0.5477(5) 1.1181(3) 0.018(3) Uani 1 1 d . . .
C46 C 0.2029(10) 0.5031(5) 1.0999(3) 0.020(3) Uani 1 1 d . . .
C47 C 0.1509(11) 0.3265(5) 1.1528(3) 0.029(3) Uani 1 1 d . . .
H47A H 0.1287 0.3233 1.1725 0.034 Uiso 1 1 calc R . .
C48 C 0.1646(10) 0.3731(5) 1.1404(3) 0.025(3) Uani 1 1 d . . .
H48A H 0.1510 0.3998 1.1519 0.030 Uiso 1 1 calc R . .
C49 C 0.1982(13) 0.2925(5) 1.1087(4) 0.039(4) Uani 1 1 d . . .
H49A H 0.2080 0.2653 1.0972 0.047 Uiso 1 1 calc R . .
C50 C 0.2151(12) 0.3362(6) 1.0953(4) 0.034(4) Uani 1 1 d . . .
H50A H 0.2378 0.3375 1.0755 0.041 Uiso 1 1 calc R . .
C51 C 0.1985(10) 0.3779(5) 1.1110(3) 0.022(3) Uani 1 1 d . . .
C52 C 0.2038(11) 0.4251(5) 1.0973(3) 0.027(3) Uani 1 1 d . . .
C53 C 0.3568(12) 0.4467(6) 0.9817(3) 0.033(4) Uani 1 1 d . . .
H53A H 0.3844 0.4212 0.9715 0.039 Uiso 1 1 calc R . .
C54 C 0.3176(13) 0.4400(7) 1.0080(4) 0.044(5) Uani 1 1 d . . .
H54A H 0.3159 0.4094 1.0158 0.053 Uiso 1 1 calc R . .
C55 C 0.3134(10) 0.5247(5) 0.9838(3) 0.023(3) Uani 1 1 d . . .
H55A H 0.3075 0.5544 0.9748 0.028 Uiso 1 1 calc R . .
C56 C 0.2753(11) 0.5187(6) 1.0119(3) 0.028(3) Uani 1 1 d . . .
H56A H 0.2473 0.5443 1.0218 0.034 Uiso 1 1 calc R . .
C57 C 0.2778(10) 0.4769(5) 1.0250(3) 0.020(3) Uani 1 1 d . . .
C58 C 0.2430(9) 0.4694(5) 1.0569(3) 0.016(3) Uani 1 1 d . . .
C61 C 0.2627(11) 0.4664(7) 0.9005(4) 0.043(5) Uani 1 1 d . . .
H61A H 0.2336 0.4851 0.9153 0.052 Uiso 1 1 calc R . .
C62 C 0.2046(12) 0.4429(6) 0.8800(3) 0.037(4) Uani 1 1 d . . .
H62A H 0.1380 0.4476 0.8796 0.044 Uiso 1 1 calc R . .
C63 C 0.4008(12) 0.4337(6) 0.8822(3) 0.034(4) Uani 1 1 d . . .
H63A H 0.4669 0.4286 0.8840 0.041 Uiso 1 1 calc R . .
C64 C 0.3491(10) 0.4094(6) 0.8604(3) 0.030(3) Uani 1 1 d . . .
H64A H 0.3817 0.3913 0.8461 0.036 Uiso 1 1 calc R . .
C65 C 0.2500(10) 0.4118(5) 0.8597(3) 0.024(3) Uani 1 1 d . . .
C66 C 0.1931(11) 0.3836(5) 0.8358(3) 0.030(3) Uani 1 1 d . . .
C67 C 0.3806(12) 0.3264(5) 0.7325(3) 0.028(3) Uani 1 1 d . . .
H67A H 0.4460 0.3330 0.7300 0.034 Uiso 1 1 calc R . .
C68 C 0.3354(10) 0.3375(6) 0.7594(3) 0.027(3) Uani 1 1 d . . .
H68A H 0.3711 0.3505 0.7751 0.033 Uiso 1 1 calc R . .
C69 C 0.2350(11) 0.2946(6) 0.7155(3) 0.029(4) Uani 1 1 d . . .
H69A H 0.2022 0.2775 0.7008 0.035 Uiso 1 1 calc R . .
C70 C 0.1849(11) 0.3077(6) 0.7424(3) 0.031(4) Uani 1 1 d . . .
H70A H 0.1195 0.3014 0.7453 0.038 Uiso 1 1 calc R . .
C71 C 0.2381(10) 0.3296(5) 0.7630(3) 0.022(3) Uani 1 1 d . . .
C72 C 0.1880(12) 0.3468(5) 0.7918(3) 0.028(3) Uani 1 1 d . . .
C73 C -0.1987(11) 0.3086(6) 0.8105(3) 0.033(4) Uani 1 1 d . . .
H73A H -0.2397 0.2994 0.7949 0.039 Uiso 1 1 calc R . .
C74 C -0.1023(10) 0.3226(5) 0.8022(3) 0.029(3) Uani 1 1 d . . .
H74A H -0.0796 0.3218 0.7824 0.035 Uiso 1 1 calc R . .
C75 C -0.1745(11) 0.3219(5) 0.8602(3) 0.028(3) Uani 1 1 d . . .
H75A H -0.1983 0.3213 0.8799 0.034 Uiso 1 1 calc R . .
C76 C -0.0822(10) 0.3369(5) 0.8560(3) 0.023(3) Uani 1 1 d . . .
H76A H -0.0449 0.3466 0.8723 0.028 Uiso 1 1 calc R . .
C77 C -0.0444(9) 0.3378(4) 0.8272(3) 0.023(3) Uani 1 1 d . . .
C78 C 0.0533(10) 0.3510(5) 0.8214(3) 0.025(3) Uani 1 1 d . . .
N1 N 1.3309(9) 0.7989(4) 0.2996(2) 0.025(3) Uani 1 1 d . . .
N2 N 1.3491(8) 0.9374(4) 0.1013(2) 0.023(3) Uani 1 1 d . . .
N3 N 0.7583(9) 0.8006(4) 0.1802(3) 0.028(3) Uani 1 1 d . . .
N4 N 1.2427(8) 0.8601(4) 0.1973(3) 0.025(3) Uani 1 1 d . . .
N5 N 1.0956(9) 0.8671(4) 0.1687(3) 0.030(3) Uani 1 1 d . . .
N6 N 1.0961(9) 0.8260(4) 0.2160(2) 0.026(3) Uani 1 1 d . . .
N21 N 0.6617(9) 0.7058(4) 0.1513(3) 0.026(3) Uani 1 1 d . . .
N22 N 0.8535(9) 0.5325(5) -0.0293(3) 0.030(3) Uani 1 1 d . . .
N23 N 0.6523(9) 0.3602(5) 0.1420(3) 0.031(3) Uani 1 1 d . . .
N24 N 0.7289(8) 0.5808(4) 0.0741(2) 0.024(3) Uani 1 1 d . . .
N25 N 0.7269(8) 0.4956(4) 0.0727(3) 0.024(3) Uani 1 1 d . . .
N26 N 0.6890(8) 0.5358(5) 0.1175(2) 0.028(3) Uani 1 1 d . . .
N41 N 0.1534(9) 0.6334(4) 1.1480(3) 0.027(3) Uani 1 1 d . . .
N42 N 0.1695(10) 0.2874(4) 1.1364(3) 0.033(3) Uani 1 1 d . . .
N43 N 0.3580(9) 0.4911(5) 0.9687(3) 0.030(3) Uani 1 1 d . . .
N44 N 0.1905(8) 0.4617(4) 1.1142(2) 0.021(3) Uani 1 1 d . . .
N45 N 0.2317(9) 0.4267(4) 1.0681(2) 0.027(3) Uani 1 1 d . . .
N46 N 0.2281(8) 0.5082(4) 1.0721(2) 0.024(3) Uani 1 1 d . . .
N61 N 0.3586(8) 0.4634(5) 0.8999(2) 0.026(3) Uani 1 1 d . . .
N62 N 0.3319(9) 0.3066(4) 0.7107(3) 0.027(3) Uani 1 1 d . . .
N63 N -0.2341(8) 0.3075(4) 0.8377(2) 0.023(3) Uani 1 1 d . . .
N64 N 0.2413(10) 0.3690(5) 0.8119(2) 0.032(3) Uani 1 1 d . . .
N65 N 0.0971(8) 0.3351(4) 0.7948(2) 0.024(3) Uani 1 1 d . . .
N66 N 0.1009(9) 0.3772(4) 0.8412(3) 0.027(3) Uani 1 1 d . . .
C101 C 0.9360(11) 0.4695(5) 0.1192(3) 0.026(3) Uani 1 1 d . A 1
C102 C 0.9101(12) 0.4904(5) 0.1464(4) 0.036(4) Uani 1 1 d . A 1
H10B H 0.8959 0.4710 0.1628 0.043 Uiso 1 1 calc R A 1
C103 C 0.9045(12) 0.5406(6) 0.1501(3) 0.034(4) Uani 1 1 d . A 1
C104 C 0.9296(11) 0.5682(6) 0.1250(3) 0.034(4) Uani 1 1 d . A 1
H10C H 0.9308 0.6011 0.1267 0.040 Uiso 1 1 calc R A 1
C105 C 0.9519(12) 0.5481(6) 0.0986(4) 0.042(4) Uani 1 1 d . A 1
H10D H 0.9645 0.5677 0.0822 0.050 Uiso 1 1 calc R A 1
C106 C 0.9575(11) 0.4983(6) 0.0943(4) 0.036(4) Uani 1 1 d . A 1
C107 C 0.9822(12) 0.4773(7) 0.0661(4) 0.041(4) Uani 1 1 d . A 1
C108 C 1.0134(12) 0.5045(8) 0.0399(4) 0.057(6) Uani 1 1 d . A 1
H10E H 1.0202 0.5371 0.0423 0.069 Uiso 1 1 calc R A 1
C109 C 1.0340(13) 0.4859(10) 0.0112(5) 0.068(7) Uani 1 1 d . A 1
H10F H 1.0492 0.5061 -0.0047 0.081 Uiso 1 1 calc R A 1
C110 C 1.0317(15) 0.4366(10) 0.0065(5) 0.082(9) Uani 1 1 d . A 1
H11A H 1.0472 0.4228 -0.0119 0.098 Uiso 1 1 calc R A 1
C111 C 1.0024(16) 0.4081(9) 0.0334(4) 0.063(6) Uani 1 1 d . A 1
H11B H 0.9993 0.3753 0.0315 0.075 Uiso 1 1 calc R A 1
C112 C 0.9786(12) 0.4289(8) 0.0625(4) 0.050(5) Uani 1 1 d . A 1
C113 C 0.9546(11) 0.3975(7) 0.0879(4) 0.040(4) Uani 1 1 d . A 1
C114 C 0.9530(17) 0.3476(8) 0.0871(4) 0.066(6) Uani 1 1 d . A 1
H11C H 0.9659 0.3325 0.0689 0.079 Uiso 1 1 calc R A 1
C115 C 0.9329(15) 0.3198(7) 0.1125(5) 0.066(6) Uani 1 1 d . A 1
H11D H 0.9303 0.2868 0.1112 0.079 Uiso 1 1 calc R A 1
C116 C 0.9181(12) 0.3414(6) 0.1378