####################################################################### 
# 
# This file contains crystal structure data downloaded from the 
# Cambridge Structural Database (CSD) hosted by the Cambridge 
# Crystallographic Data Centre (CCDC).
# 
# Full information about CCDC data access policies and citation 
# guidelines are available at http://www.ccdc.cam.ac.uk/access/V1 
# 
# Audit and citation data items may have been added by the CCDC. 
# Please retain this information to preserve the provenance of 
# this file and to allow appropriate attribution of the data. 
# 
#######################################################################

data_Zn3I6(1)2(5a)
_audit_block_doi                 10.5517/ccr4nvc
_database_code_depnum_ccdc_archive 'CCDC 689683'
loop_
_citation_id
_citation_doi
_citation_year
1 10.1002/anie.200802545 2008
_audit_update_record             
;
2008-05-29 deposited with the CCDC.	2024-07-13 downloaded from the CCDC.
;


_audit_creation_method           SHELXL-97
_chemical_name_systematic        
;
?
;
_chemical_name_common            ?
_chemical_melting_point          ?
_chemical_formula_moiety         ?
_chemical_formula_sum            'C85 H89 I6 N13 O0 Zn3'
_chemical_formula_weight         2250.20

loop_
_atom_type_symbol
_atom_type_description
_atom_type_scat_dispersion_real
_atom_type_scat_dispersion_imag
_atom_type_scat_source
C C 0.0033 0.0016 'International Tables Vol C Tables 4.2.6.8 and 6.1.1.4'
H H 0.0000 0.0000 'International Tables Vol C Tables 4.2.6.8 and 6.1.1.4'
N N 0.0061 0.0033 'International Tables Vol C Tables 4.2.6.8 and 6.1.1.4'
O O 0.0106 0.0060 'International Tables Vol C Tables 4.2.6.8 and 6.1.1.4'
Zn Zn 0.2839 1.4301 'International Tables Vol C Tables 4.2.6.8 and 6.1.1.4'
I I -0.4742 1.8119 'International Tables Vol C Tables 4.2.6.8 and 6.1.1.4'

_symmetry_cell_setting           Orthorhombic
_symmetry_space_group_name_H-M   Pbca

loop_
_symmetry_equiv_pos_as_xyz
'x, y, z'
'-x+1/2, -y, z+1/2'
'-x, y+1/2, -z+1/2'
'x+1/2, -y+1/2, -z'
'-x, -y, -z'
'x-1/2, y, -z-1/2'
'x, -y-1/2, z-1/2'
'-x-1/2, y-1/2, z'

_cell_length_a                   13.6728(3)
_cell_length_b                   45.5987(7)
_cell_length_c                   28.4576(3)
_cell_angle_alpha                90.00
_cell_angle_beta                 90.00
_cell_angle_gamma                90.00
_cell_volume                     17742.2(5)
_cell_formula_units_Z            8
_cell_measurement_temperature    90(2)
_cell_measurement_reflns_used    24652
_cell_measurement_theta_min      2.5
_cell_measurement_theta_max      23

_exptl_crystal_description       needle
_exptl_crystal_colour            yellow
_exptl_crystal_size_max          0.13
_exptl_crystal_size_mid          0.10
_exptl_crystal_size_min          0.07
_exptl_crystal_density_meas      ?
_exptl_crystal_density_diffrn    1.685
_exptl_crystal_density_method    'not measured'
_exptl_crystal_F_000             8784
_exptl_absorpt_coefficient_mu    2.942
_exptl_absorpt_correction_type   ?
_exptl_absorpt_correction_T_min  0.7010
_exptl_absorpt_correction_T_max  0.8205
_exptl_absorpt_process_details   ?

_exptl_special_details           
;
?
;

_diffrn_ambient_temperature      90(2)
_diffrn_radiation_wavelength     0.68890
_diffrn_radiation_type           synchrotron
_diffrn_radiation_source         KEK
_diffrn_radiation_monochromator  Si
_diffrn_measurement_device_type  CCD
_diffrn_measurement_method       omega_scan
_diffrn_detector_area_resol_mean ?
_diffrn_standards_number         ?
_diffrn_standards_interval_count ?
_diffrn_standards_interval_time  ?
_diffrn_standards_decay_%        none
_diffrn_reflns_number            115016
_diffrn_reflns_av_R_equivalents  0.1732
_diffrn_reflns_av_sigmaI/netI    0.1393
_diffrn_reflns_limit_h_min       -16
_diffrn_reflns_limit_h_max       19
_diffrn_reflns_limit_k_min       -63
_diffrn_reflns_limit_k_max       63
_diffrn_reflns_limit_l_min       -25
_diffrn_reflns_limit_l_max       39
_diffrn_reflns_theta_min         1.39
_diffrn_reflns_theta_max         28.92
_reflns_number_total             24652
_reflns_number_gt                10945
_reflns_threshold_expression     >2sigma(I)

_computing_data_collection       'Rigaku Crystal Clear'
_computing_cell_refinement       HKL2000
_computing_data_reduction        HKL2000
_computing_structure_solution    'SHELXS-97 (Sheldrick, 1990)'
_computing_structure_refinement  'SHELXL-97 (Sheldrick, 1997)'
_computing_molecular_graphics    'Bruker XP'
_computing_publication_material  'Bruker SHELXTL'

_refine_special_details          
;
Refinement of F^2^ against ALL reflections. The weighted R-factor wR
and
goodness of fit S are based on F^2^, conventional R-factors R are based
on F, with F set to zero for negative F^2^. The threshold expression of
F^2^ > 2sigma(F^2^) is used only for calculating R-factors(gt) etc. and
is
not relevant to the choice of reflections for refinement. R-factors
based
on F^2^ are statistically about twice as large as those based on F, and
R-
factors based on ALL data will be even larger.
The occupancy factors of the disordered molecules converged as follows:
Several restraints and constraints were applied to disordered molecules
on a basis of chemical symmetry of the molecules.
;

_refine_ls_structure_factor_coef Fsqd
_refine_ls_matrix_type           full
_refine_ls_weighting_scheme      calc
_refine_ls_weighting_details     
'calc w=1/[\s^2^(Fo^2^)+(0.0975P)^2^+0.0000P] where P=(Fo^2^+2Fc^2^)/3'
_atom_sites_solution_primary     direct
_atom_sites_solution_secondary   difmap
_atom_sites_solution_hydrogens   geom
_refine_ls_hydrogen_treatment    constr
_refine_ls_extinction_method     none
_refine_ls_extinction_coef       ?
_refine_ls_number_reflns         24652
_refine_ls_number_parameters     964
_refine_ls_number_restraints     264
_refine_ls_R_factor_all          0.1389
_refine_ls_R_factor_gt           0.0761
_refine_ls_wR_factor_ref         0.2128
_refine_ls_wR_factor_gt          0.1913
_refine_ls_goodness_of_fit_ref   0.877
_refine_ls_restrained_S_all      0.883
_refine_ls_shift/su_max          0.086
_refine_ls_shift/su_mean         0.003

loop_
_atom_site_label
_atom_site_type_symbol
_atom_site_fract_x
_atom_site_fract_y
_atom_site_fract_z
_atom_site_U_iso_or_equiv
_atom_site_adp_type
_atom_site_occupancy
_atom_site_symmetry_multiplicity
_atom_site_calc_flag
_atom_site_refinement_flags
_atom_site_disorder_assembly
_atom_site_disorder_group
Zn1 Zn 0.33055(6) 0.568229(16) 0.56324(3) 0.0395(2) Uani 1 1 d . . .
Zn2 Zn 0.63817(6) 0.810057(16) 0.75686(3) 0.0417(2) Uani 1 1 d . . .
Zn3 Zn 0.34718(7) 0.58737(2) 1.02618(3) 0.0523(3) Uani 1 1 d . . .
I1 I 0.40234(5) 0.596605(11) 0.495380(19) 0.05379(16) Uani 1 1 d . . .
I2 I 0.15060(4) 0.555327(12) 0.57667(2) 0.06039(18) Uani 1 1 d . . .
I3 I 0.80099(4) 0.803272(12) 0.79881(2) 0.06103(18) Uani 1 1 d . . .
I4 I 0.63409(6) 0.824702(15) 0.67096(2) 0.0782(2) Uani 1 1 d . . .
I5 I 0.27007(5) 0.537427(17) 1.01020(2) 0.0777(2) Uani 1 1 d . . .
I6 I 0.26145(5) 0.62796(2) 1.07173(3) 0.0901(3) Uani 1 1 d . . .
C1 C 0.4153(5) 0.64139(13) 0.7486(3) 0.0323(15) Uani 1 1 d . . .
C2 C 0.4528(5) 0.68484(13) 0.7824(3) 0.0326(15) Uani 1 1 d . . .
C3 C 0.4170(5) 0.64556(13) 0.8273(3) 0.0327(15) Uani 1 1 d . . .
C4 C 0.4015(5) 0.62402(12) 0.7046(2) 0.0304(14) Uani 1 1 d . . .
C5 C 0.3748(5) 0.59473(13) 0.7068(3) 0.0355(16) Uani 1 1 d . . .
H5 H 0.3671 0.5853 0.7363 0.043 Uiso 1 1 calc R . .
C6 C 0.3598(5) 0.57968(14) 0.6660(3) 0.0407(17) Uani 1 1 d . . .
H6 H 0.3420 0.5596 0.6680 0.049 Uiso 1 1 calc R . .
C7 C 0.3963(5) 0.61983(13) 0.6213(3) 0.0340(15) Uani 1 1 d . . .
H7 H 0.4044 0.6285 0.5911 0.041 Uiso 1 1 calc R . .
C8 C 0.4134(5) 0.63670(13) 0.6605(3) 0.0358(16) Uani 1 1 d . . .
H8 H 0.4330 0.6566 0.6576 0.043 Uiso 1 1 calc R . .
C9 C 0.4868(4) 0.71569(13) 0.7771(3) 0.0338(16) Uani 1 1 d . . .
C10 C 0.4819(5) 0.72957(13) 0.7345(3) 0.0407(17) Uani 1 1 d . . .
H10 H 0.4521 0.7201 0.7084 0.049 Uiso 1 1 calc R . .
C11 C 0.5208(5) 0.75767(13) 0.7298(3) 0.0392(17) Uani 1 1 d . . .
H11 H 0.5166 0.7674 0.7003 0.047 Uiso 1 1 calc R . .
C12 C 0.5666(7) 0.75807(17) 0.8075(3) 0.056(2) Uani 1 1 d . . .
H12 H 0.5954 0.7680 0.8334 0.068 Uiso 1 1 calc R . .
C13 C 0.5284(6) 0.72999(17) 0.8144(3) 0.050(2) Uani 1 1 d . . .
H13 H 0.5312 0.7210 0.8445 0.060 Uiso 1 1 calc R . .
C14 C 0.4069(5) 0.63164(14) 0.8741(3) 0.0338(15) Uani 1 1 d . . .
C15 C 0.4073(6) 0.64856(17) 0.9150(3) 0.0484(19) Uani 1 1 d . . .
H15 H 0.4155 0.6692 0.9135 0.058 Uiso 1 1 calc R . .
C16 C 0.3957(6) 0.63470(17) 0.9575(3) 0.052(2) Uani 1 1 d . . .
H16 H 0.3971 0.6463 0.9852 0.062 Uiso 1 1 calc R . .
C17 C 0.3827(5) 0.58963(16) 0.9223(3) 0.0439(18) Uani 1 1 d . . .
H17 H 0.3735 0.5690 0.9247 0.053 Uiso 1 1 calc R . .
C18 C 0.3958(5) 0.60202(14) 0.8784(3) 0.0387(17) Uani 1 1 d . . .
H18 H 0.3971 0.5899 0.8512 0.046 Uiso 1 1 calc R . .
C19 C 0.5826(5) 0.45546(14) 0.6075(3) 0.0402(17) Uani 1 1 d . . .
C20 C 0.5914(5) 0.41001(13) 0.6383(2) 0.0366(16) Uani 1 1 d . . .
C21 C 0.7254(5) 0.43054(13) 0.6066(2) 0.0357(16) Uani 1 1 d . . .
C22 C 0.5241(5) 0.48167(13) 0.5946(3) 0.0381(16) Uani 1 1 d . . .
C23 C 0.5605(6) 0.50352(14) 0.5665(3) 0.0427(18) Uani 1 1 d . . .
H23 H 0.6253 0.5024 0.5545 0.051 Uiso 1 1 calc R . .
C24 C 0.5009(6) 0.52739(15) 0.5557(3) 0.0462(19) Uani 1 1 d . . .
H24 H 0.5254 0.5422 0.5354 0.055 Uiso 1 1 calc R . .
C25 C 0.3744(6) 0.50879(14) 0.5985(3) 0.0466(19) Uani 1 1 d . . .
H25 H 0.3083 0.5100 0.6086 0.056 Uiso 1 1 calc R . .
C26 C 0.4293(5) 0.48431(13) 0.6113(3) 0.048(2) Uani 1 1 d . . .
H26 H 0.4021 0.4697 0.6312 0.058 Uiso 1 1 calc R . .
C27 C 0.5407(5) 0.38509(13) 0.6604(3) 0.0368(16) Uani 1 1 d . . .
C28 C 0.4395(5) 0.38444(15) 0.6619(3) 0.050(2) Uani 1 1 d . . .
H28 H 0.4029 0.4000 0.6483 0.060 Uiso 1 1 calc R . .
C29 C 0.3917(6) 0.36131(15) 0.6830(3) 0.054(2) Uani 1 1 d . . .
H29 H 0.3222 0.3607 0.6825 0.064 Uiso 1 1 calc R . .
C30 C 0.5378(6) 0.33996(15) 0.7028(3) 0.050(2) Uani 1 1 d . . .
H30 H 0.5723 0.3243 0.7171 0.061 Uiso 1 1 calc R . .
C31 C 0.5911(6) 0.36240(15) 0.6809(3) 0.0467(19) Uani 1 1 d . . .
H31 H 0.6605 0.3619 0.6803 0.056 Uiso 1 1 calc R . .
C32 C 0.8286(5) 0.42781(14) 0.5907(2) 0.0349(15) Uani 1 1 d . . .
C33 C 0.8834(6) 0.40297(16) 0.6011(3) 0.051(2) Uani 1 1 d . . .
H33 H 0.8564 0.3881 0.6206 0.061 Uiso 1 1 calc R . .
C34 C 0.9755(5) 0.39973(16) 0.5836(3) 0.0467(19) Uani 1 1 d . . .
H34 H 1.0112 0.3825 0.5912 0.056 Uiso 1 1 calc R . .
C35 C 0.9658(6) 0.44387(18) 0.5467(3) 0.053(2) Uani 1 1 d . . .
H35 H 0.9950 0.4586 0.5277 0.064 Uiso 1 1 calc R . .
C36 C 0.8732(6) 0.44859(18) 0.5628(3) 0.051(2) Uani 1 1 d . . .
H36 H 0.8395 0.4661 0.5548 0.061 Uiso 1 1 calc R . .
N1 N 0.4382(4) 0.67009(10) 0.7422(2) 0.0314(12) Uani 1 1 d . . .
N2 N 0.4412(4) 0.67415(11) 0.8254(2) 0.0343(13) Uani 1 1 d . . .
N3 N 0.4044(4) 0.62833(11) 0.7893(2) 0.0338(13) Uani 1 1 d . . .
N4 N 0.3687(4) 0.59164(11) 0.6239(2) 0.0344(13) Uani 1 1 d . . .
N5 N 0.5642(4) 0.77137(11) 0.7661(2) 0.0388(14) Uani 1 1 d . . .
N6 N 0.3826(4) 0.60608(13) 0.9620(2) 0.0389(14) Uani 1 1 d . . .
N7 N 0.5367(4) 0.43382(11) 0.6279(2) 0.0381(14) Uani 1 1 d . . .
N8 N 0.6872(4) 0.40754(11) 0.6286(2) 0.0355(13) Uani 1 1 d . . .
N9 N 0.6792(4) 0.45551(11) 0.5957(2) 0.0361(13) Uani 1 1 d . . .
N10 N 0.4101(4) 0.53017(11) 0.5730(2) 0.0391(14) Uani 1 1 d . . .
N11 N 0.4404(4) 0.33993(11) 0.7041(2) 0.0398(14) Uani 1 1 d . . .
N12 N 1.0178(5) 0.42002(14) 0.5558(2) 0.0460(15) Uani 1 1 d . . .
C101 C 0.1572(6) 0.6255(3) 0.7761(5) 0.088(4) Uani 1 1 d . . .
C102 C 0.1347(9) 0.6011(4) 0.7465(7) 0.117(5) Uani 1 1 d . . .
H102 H 0.1203 0.5821 0.7586 0.140 Uiso 1 1 calc R . .
C103 C 0.1355(8) 0.6076(3) 0.6961(6) 0.101(4) Uani 1 1 d . . .
H103 H 0.1231 0.5924 0.6742 0.121 Uiso 1 1 calc R . .
C104 C 0.1541(7) 0.6356(3) 0.6800(5) 0.088(4) Uani 1 1 d . . .
C105 C 0.1793(8) 0.6608(3) 0.7114(6) 0.102(4) Uani 1 1 d . . .
H105 H 0.1946 0.6796 0.6990 0.122 Uiso 1 1 calc R . .
C106 C 0.1793(7) 0.6556(3) 0.7583(6) 0.089(4) Uani 1 1 d . . .
C107 C 0.1967(7) 0.6776(3) 0.7861(6) 0.091(3) Uani 1 1 d U . .
C108 C 0.2266(7) 0.7078(3) 0.7679(6) 0.106(4) Uani 1 1 d U . .
H108 H 0.2329 0.7114 0.7352 0.127 Uiso 1 1 calc R . .
C109 C 0.2445(8) 0.7302(3) 0.8007(6) 0.108(4) Uani 1 1 d U . .
H109 H 0.2649 0.7484 0.7880 0.130 Uiso 1 1 calc R . .
C110 C 0.2360(11) 0.7290(4) 0.8512(7) 0.133(5) Uani 1 1 d U . .
H110 H 0.2479 0.7447 0.8723 0.160 Uiso 1 1 calc R . .
C111 C 0.2055(9) 0.6992(3) 0.8639(6) 0.108(4) Uani 1 1 d U . .
H111 H 0.1965 0.6968 0.8968 0.130 Uiso 1 1 calc R . .
C112 C 0.1873(8) 0.6740(3) 0.8395(6) 0.107(3) Uani 1 1 d U . .
C113 C 0.1647(6) 0.6460(2) 0.8557(6) 0.087(4) Uani 1 1 d . . .
C114 C 0.1570(8) 0.6417(3) 0.9069(6) 0.105(5) Uani 1 1 d . . .
H114 H 0.1637 0.6579 0.9277 0.127 Uiso 1 1 calc R . .
C115 C 0.1413(8) 0.6160(4) 0.9231(6) 0.099(4) Uani 1 1 d . . .
H115 H 0.1369 0.6130 0.9560 0.119 Uiso 1 1 calc R . .
C116 C 0.1305(8) 0.5923(4) 0.8923(7) 0.112(5) Uani 1 1 d . . .
H116 H 0.1172 0.5737 0.9060 0.134 Uiso 1 1 calc R . .
C117 C 0.1372(7) 0.5933(3) 0.8444(5) 0.091(4) Uani 1 1 d . . .
H117 H 0.1315 0.5764 0.8250 0.110 Uiso 1 1 calc R . .
C118 C 0.1537(6) 0.6219(2) 0.8263(5) 0.084(4) Uani 1 1 d . . .
C119 C 0.1480(7) 0.6409(3) 0.6294(5) 0.095(4) Uani 1 1 d . . .
H119 H 0.1422 0.6249 0.6083 0.114 Uiso 1 1 calc R . .
C120 C 0.1376(10) 0.6696(3) 0.5634(5) 0.091(4) Uani 1 1 d . . .
C121 C 0.0942(12) 0.6944(3) 0.5481(5) 0.110(5) Uani 1 1 d . . .
H121 H 0.0794 0.7096 0.5698 0.132 Uiso 1 1 calc R . .
C122 C 0.0710(18) 0.6979(3) 0.5005(5) 0.170(10) Uani 1 1 d . . .
H122 H 0.0327 0.7142 0.4908 0.204 Uiso 1 1 calc R . .
C123 C 0.1026(17) 0.6782(5) 0.4681(7) 0.156(8) Uani 1 1 d . . .
H123 H 0.0907 0.6803 0.4354 0.187 Uiso 1 1 calc R . .
C124 C 0.1534(14) 0.6551(5) 0.4870(8) 0.144(7) Uani 1 1 d . . .
H124 H 0.1784 0.6411 0.4655 0.173 Uiso 1 1 calc R . .
C125 C 0.1711(10) 0.6505(3) 0.5318(6) 0.101(4) Uani 1 1 d . . .
H125 H 0.2072 0.6337 0.5415 0.121 Uiso 1 1 calc R . .
N101 N 0.1503(7) 0.6669(2) 0.6137(5) 0.098(3) Uani 1 1 d . . .
C1A C 0.2951(10) 0.5220(3) 0.8515(4) 0.108(4) Uani 1 1 d D A 1
H1AA H 0.2715 0.5117 0.8800 0.129 Uiso 1 1 calc R A 1
H1AB H 0.2829 0.5432 0.8557 0.129 Uiso 1 1 calc R A 1
C2A C 0.4072(11) 0.5165(3) 0.8456(5) 0.123(6) Uani 1 1 d D A 1
H2AA H 0.4419 0.5253 0.8727 0.147 Uiso 1 1 calc R A 1
H2AB H 0.4194 0.4952 0.8463 0.147 Uiso 1 1 calc R A 1
C3A C 0.4497(10) 0.5288(2) 0.8013(5) 0.115(5) Uani 1 1 d D A 1
H3AA H 0.5196 0.5233 0.7987 0.138 Uiso 1 1 calc R A 1
H3AB H 0.4449 0.5505 0.8014 0.138 Uiso 1 1 calc R A 1
C4A C 0.3929(14) 0.5163(3) 0.7604(5) 0.152(8) Uani 1 1 d D A 1
H4AA H 0.4196 0.5246 0.7309 0.182 Uiso 1 1 calc R A 1
H4AB H 0.4030 0.4948 0.7595 0.182 Uiso 1 1 calc R A 1
C5A C 0.2866(13) 0.5223(3) 0.7623(5) 0.170(10) Uani 1 1 d D A 1
H5AA H 0.2543 0.5127 0.7352 0.204 Uiso 1 1 calc R A 1
H5AB H 0.2757 0.5437 0.7596 0.204 Uiso 1 1 calc R A 1
C6A C 0.2390(10) 0.5110(3) 0.8089(4) 0.115(5) Uani 1 1 d D A 1
H6AA H 0.1704 0.5178 0.8107 0.138 Uiso 1 1 calc R A 1
H6AB H 0.2385 0.4893 0.8089 0.138 Uiso 1 1 calc R A 1
C1B C 0.9242(17) 0.7307(5) 0.4150(11) 0.274(10) Uani 1 1 d DU B 2
H1BA H 0.9491 0.7152 0.4363 0.329 Uiso 1 1 calc R B 2
H1BB H 0.9269 0.7230 0.3825 0.329 Uiso 1 1 calc R B 2
C2B C 0.8144(17) 0.7377(5) 0.4281(12) 0.308(11) Uani 1 1 d DU B 2
H2BA H 0.7721 0.7211 0.4184 0.370 Uiso 1 1 calc R B 2
H2BB H 0.8083 0.7400 0.4625 0.370 Uiso 1 1 calc R B 2
C3B C 0.7816(17) 0.7652(6) 0.4040(14) 0.341(12) Uani 1 1 d DU B 2
H3BA H 0.7742 0.7611 0.3700 0.410 Uiso 1 1 calc R B 2
H3BB H 0.7163 0.7707 0.4163 0.410 Uiso 1 1 calc R B 2
C4B C 0.8476(16) 0.7904(5) 0.4097(14) 0.310(11) Uani 1 1 d DU B 2
H4BA H 0.8279 0.8053 0.3861 0.371 Uiso 1 1 calc R B 2
H4BB H 0.8341 0.7990 0.4410 0.371 Uiso 1 1 calc R B 2
C5B C 0.9490(15) 0.7871(5) 0.4061(10) 0.265(10) Uani 1 1 d DU B 2
H5BA H 0.9806 0.8017 0.4269 0.318 Uiso 1 1 calc R B 2
H5BB H 0.9688 0.7917 0.3734 0.318 Uiso 1 1 calc R B 2
C6B C 0.9883(15) 0.7567(5) 0.4186(11) 0.245(9) Uani 1 1 d DU B 2
H6BA H 1.0459 0.7530 0.3984 0.294 Uiso 1 1 calc R B 2
H6BB H 1.0123 0.7576 0.4514 0.294 Uiso 1 1 calc R B 2
C1C C 1.0658(14) 0.8049(4) 0.5503(11) 0.306(11) Uani 1 1 d DU C 3
H1CA H 1.1298 0.8102 0.5642 0.368 Uiso 1 1 calc R C 3
H1CB H 1.0751 0.8025 0.5160 0.368 Uiso 1 1 calc R C 3
C2C C 1.0311(17) 0.7754(5) 0.5715(12) 0.311(11) Uani 1 1 d DU C 3
H2CA H 1.0626 0.7595 0.5532 0.374 Uiso 1 1 calc R C 3
H2CB H 1.0575 0.7742 0.6038 0.374 Uiso 1 1 calc R C 3
C3C C 0.9246(17) 0.7684(4) 0.5742(11) 0.279(11) Uani 1 1 d DU C 3
H3CA H 0.9050 0.7588 0.5445 0.335 Uiso 1 1 calc R C 3
H3CB H 0.9144 0.7542 0.5999 0.335 Uiso 1 1 calc R C 3
C4C C 0.8615(16) 0.7930(4) 0.5819(11) 0.271(10) Uani 1 1 d DU C 3
H4CA H 0.7981 0.7884 0.5668 0.325 Uiso 1 1 calc R C 3
H4CB H 0.8492 0.7941 0.6161 0.325 Uiso 1 1 calc R C 3
C5C C 0.8883(13) 0.8214(4) 0.5670(10) 0.225(9) Uani 1 1 d DU C 3
H5CA H 0.8636 0.8355 0.5907 0.270 Uiso 1 1 calc R C 3
H5CB H 0.8530 0.8255 0.5374 0.270 Uiso 1 1 calc R C 3
C6C C 0.9968(13) 0.8284(4) 0.5587(11) 0.263(10) Uani 1 1 d DU C 3
H6CA H 1.0004 0.8419 0.5314 0.316 Uiso 1 1 calc R C 3
H6CB H 1.0204 0.8395 0.5864 0.316 Uiso 1 1 calc R C 3
C1D C 0.1720(15) 0.4061(5) 0.7247(8) 0.212(9) Uani 1 1 d DU D 4
H1DA H 0.1909 0.3923 0.6994 0.254 Uiso 1 1 calc R D 4
H1DB H 0.1786 0.3957 0.7550 0.254 Uiso 1 1 calc R D 4
C2D C 0.2434(16) 0.4328(5) 0.7241(9) 0.229(9) Uani 1 1 d DU D 4
H2DA H 0.2349 0.4445 0.7530 0.274 Uiso 1 1 calc R D 4
H2DB H 0.3119 0.4258 0.7229 0.274 Uiso 1 1 calc R D 4
C3D C 0.2222(16) 0.4508(5) 0.6827(10) 0.241(10) Uani 1 1 d DU D 4
H3DA H 0.2695 0.4672 0.6805 0.289 Uiso 1 1 calc R D 4
H3DB H 0.2273 0.4389 0.6538 0.289 Uiso 1 1 calc R D 4
C4D C 0.1241(16) 0.4621(4) 0.6878(11) 0.243(9) Uani 1 1 d DU D 4
H4DA H 0.1208 0.4732 0.7176 0.291 Uiso 1 1 calc R D 4
H4DB H 0.1120 0.4762 0.6620 0.291 Uiso 1 1 calc R D 4
C5D C 0.0479(13) 0.4413(3) 0.6877(7) 0.166(6) Uani 1 1 d DU D 4
H5DA H 0.0365 0.4348 0.6550 0.200 Uiso 1 1 calc R D 4
H5DB H 