####################################################################### 
# 
# This file contains crystal structure data downloaded from the 
# Cambridge Structural Database (CSD) hosted by the Cambridge 
# Crystallographic Data Centre (CCDC).
# 
# Full information about CCDC data access policies and citation 
# guidelines are available at http://www.ccdc.cam.ac.uk/access/V1 
# 
# Audit and citation data items may have been added by the CCDC. 
# Please retain this information to preserve the provenance of 
# this file and to allow appropriate attribution of the data. 
# 
#######################################################################

data_Zn3I6(1)2(5b)
_audit_block_doi                 10.5517/ccr4nwd
_database_code_depnum_ccdc_archive 'CCDC 689684'
loop_
_citation_id
_citation_doi
_citation_year
1 10.1002/anie.200802545 2008
_audit_update_record             
;
2008-05-29 deposited with the CCDC.	2024-07-13 downloaded from the CCDC.
;


_audit_creation_method           SHELXL-97
_chemical_name_systematic        
;
?
;
_chemical_name_common            ?
_chemical_melting_point          ?
_chemical_formula_moiety         ?
_chemical_formula_sum            'C70.27 H56.54 I6 N13 O7.14 Zn3'
_chemical_formula_weight         2154.74

loop_
_atom_type_symbol
_atom_type_description
_atom_type_scat_dispersion_real
_atom_type_scat_dispersion_imag
_atom_type_scat_source
C C 0.0033 0.0016 'International Tables Vol C Tables 4.2.6.8 and 6.1.1.4'
H H 0.0000 0.0000 'International Tables Vol C Tables 4.2.6.8 and 6.1.1.4'
N N 0.0061 0.0033 'International Tables Vol C Tables 4.2.6.8 and 6.1.1.4'
O O 0.0106 0.0060 'International Tables Vol C Tables 4.2.6.8 and 6.1.1.4'
Zn Zn 0.2839 1.4301 'International Tables Vol C Tables 4.2.6.8 and 6.1.1.4'
I I -0.4742 1.8119 'International Tables Vol C Tables 4.2.6.8 and 6.1.1.4'

_symmetry_cell_setting           Orthorhombic
_symmetry_space_group_name_H-M   Pbca

loop_
_symmetry_equiv_pos_as_xyz
'x, y, z'
'-x+1/2, -y, z+1/2'
'-x, y+1/2, -z+1/2'
'x+1/2, -y+1/2, -z'
'-x, -y, -z'
'x-1/2, y, -z-1/2'
'x, -y-1/2, z-1/2'
'-x-1/2, y-1/2, z'

_cell_length_a                   27.8060(3)
_cell_length_b                   13.80910(10)
_cell_length_c                   45.1378(6)
_cell_angle_alpha                90.00
_cell_angle_beta                 90.00
_cell_angle_gamma                90.00
_cell_volume                     17331.8(3)
_cell_formula_units_Z            8
_cell_measurement_temperature    90(2)
_cell_measurement_reflns_used    16305
_cell_measurement_theta_min      2.5
_cell_measurement_theta_max      23

_exptl_crystal_description       needle
_exptl_crystal_colour            yellow
_exptl_crystal_size_max          0.07
_exptl_crystal_size_mid          0.06
_exptl_crystal_size_min          0.05
_exptl_crystal_density_meas      ?
_exptl_crystal_density_diffrn    1.652
_exptl_crystal_density_method    'not measured'
_exptl_crystal_F_000             8274
_exptl_absorpt_coefficient_mu    3.014
_exptl_absorpt_correction_type   ?
_exptl_absorpt_correction_T_min  0.2268
_exptl_absorpt_correction_T_max  0.3142
_exptl_absorpt_process_details   ?

_exptl_special_details           
;
?
;

_diffrn_ambient_temperature      90(2)
_diffrn_radiation_wavelength     0.68890
_diffrn_radiation_type           synchrotron
_diffrn_radiation_source         KEK
_diffrn_radiation_monochromator  Si
_diffrn_measurement_device_type  CCD
_diffrn_measurement_method       omega_scan
_diffrn_detector_area_resol_mean ?
_diffrn_standards_number         ?
_diffrn_standards_interval_count ?
_diffrn_standards_interval_time  ?
_diffrn_standards_decay_%        none
_diffrn_reflns_number            97309
_diffrn_reflns_av_R_equivalents  0.1373
_diffrn_reflns_av_sigmaI/netI    0.0809
_diffrn_reflns_limit_h_min       -28
_diffrn_reflns_limit_h_max       33
_diffrn_reflns_limit_k_min       -13
_diffrn_reflns_limit_k_max       16
_diffrn_reflns_limit_l_min       -54
_diffrn_reflns_limit_l_max       54
_diffrn_reflns_theta_min         1.13
_diffrn_reflns_theta_max         24.79
_reflns_number_total             16305
_reflns_number_gt                11038
_reflns_threshold_expression     >2sigma(I)

_computing_data_collection       'Rigaku Crystal Clear'
_computing_cell_refinement       HKL2000
_computing_data_reduction        HKL2000
_computing_structure_solution    'SHELXS-97 (Sheldrick, 1990)'
_computing_structure_refinement  'SHELXL-97 (Sheldrick, 1997)'
_computing_molecular_graphics    'Bruker XP'
_computing_publication_material  'Bruker SHELXTL'

_refine_special_details          
;
Refinement of F^2^ against ALL reflections. The weighted R-factor wR
and
goodness of fit S are based on F^2^, conventional R-factors R are based
on F, with F set to zero for negative F^2^. The threshold expression of
F^2^ > 2sigma(F^2^) is used only for calculating R-factors(gt) etc. and
is
not relevant to the choice of reflections for refinement. R-factors
based
on F^2^ are statistically about twice as large as those based on F, and
R-
factors based on ALL data will be even larger.
The occupancy factors of the disordered molecules converged as follows:
ethyl acetate, 50%(C1A to O2A), 50%(C1B to O2B), 20%(C1C to O2D),
38%(C1D to O2D) and 49%(C1E to O2E).
Several restraints and constraints were applied to disordered molecules
on a basis of chemical symmetry of the molecules.
;

_refine_ls_structure_factor_coef Fsqd
_refine_ls_matrix_type           full
_refine_ls_weighting_scheme      calc
_refine_ls_weighting_details     
'calc w=1/[\s^2^(Fo^2^)+(0.1312P)^2^+0.0000P] where P=(Fo^2^+2Fc^2^)/3'
_atom_sites_solution_primary     direct
_atom_sites_solution_secondary   difmap
_atom_sites_solution_hydrogens   geom
_refine_ls_hydrogen_treatment    constr
_refine_ls_extinction_method     none
_refine_ls_extinction_coef       ?
_refine_ls_number_reflns         16305
_refine_ls_number_parameters     1057
_refine_ls_number_restraints     282
_refine_ls_R_factor_all          0.0905
_refine_ls_R_factor_gt           0.0636
_refine_ls_wR_factor_ref         0.2054
_refine_ls_wR_factor_gt          0.1832
_refine_ls_goodness_of_fit_ref   0.976
_refine_ls_restrained_S_all      0.975
_refine_ls_shift/su_max          0.002
_refine_ls_shift/su_mean         0.000

loop_
_atom_site_label
_atom_site_type_symbol
_atom_site_fract_x
_atom_site_fract_y
_atom_site_fract_z
_atom_site_U_iso_or_equiv
_atom_site_adp_type
_atom_site_occupancy
_atom_site_symmetry_multiplicity
_atom_site_calc_flag
_atom_site_refinement_flags
_atom_site_disorder_assembly
_atom_site_disorder_group
Zn1 Zn 0.47652(3) 1.12844(7) 0.41532(2) 0.0445(2) Uani 1 1 d . . .
Zn2 Zn 0.73880(4) 0.83092(6) 0.185328(19) 0.0413(2) Uani 1 1 d . . .
Zn3 Zn 0.95148(3) 1.14518(7) 0.421690(19) 0.0423(2) Uani 1 1 d . . .
I1 I 0.49452(2) 1.20158(4) 0.466332(14) 0.05754(19) Uani 1 1 d . . .
I2 I 0.43073(2) 1.21682(5) 0.375277(18) 0.0728(2) Uani 1 1 d . . .
I3 I 0.69389(2) 0.67095(4) 0.192263(12) 0.05224(17) Uani 1 1 d . . .
I4 I 0.82676(2) 0.83229(5) 0.170096(14) 0.0654(2) Uani 1 1 d . . .
I5 I 0.94575(2) 1.32757(4) 0.426944(15) 0.06189(19) Uani 1 1 d . . .
I6 I 1.01626(2) 1.05227(6) 0.394448(15) 0.0671(2) Uani 1 1 d . . .
C1 C 0.6766(3) 1.0471(5) 0.35344(15) 0.0360(16) Uani 1 1 d . . .
C2 C 0.7198(3) 1.0106(5) 0.31267(15) 0.0361(16) Uani 1 1 d . . .
C3 C 0.7569(3) 1.0502(5) 0.35504(15) 0.0333(15) Uani 1 1 d . . .
C4 C 0.6293(3) 1.0600(5) 0.36850(17) 0.0391(17) Uani 1 1 d . . .
C5 C 0.6265(3) 1.0806(6) 0.39786(17) 0.0408(17) Uani 1 1 d . . .
H5 H 0.6551 1.0842 0.4093 0.049 Uiso 1 1 calc R . .
C6 C 0.5833(3) 1.0964(6) 0.41123(17) 0.0413(17) Uani 1 1 d . . .
H6 H 0.5826 1.1120 0.4317 0.050 Uiso 1 1 calc R . .
C7 C 0.5446(3) 1.0677(7) 0.3673(2) 0.055(2) Uani 1 1 d . . .
H7 H 0.5155 1.0625 0.3564 0.066 Uiso 1 1 calc R . .
C8 C 0.5866(3) 1.0514(6) 0.35276(19) 0.050(2) Uani 1 1 d . . .
H8 H 0.5867 1.0346 0.3323 0.060 Uiso 1 1 calc R . .
C9 C 0.7236(3) 0.9775(5) 0.28164(15) 0.0372(16) Uani 1 1 d . . .
C10 C 0.6830(3) 0.9405(6) 0.26716(17) 0.0434(18) Uani 1 1 d . . .
H10 H 0.6524 0.9400 0.2764 0.052 Uiso 1 1 calc R . .
C11 C 0.6896(3) 0.9038(6) 0.23823(18) 0.047(2) Uani 1 1 d . . .
H11 H 0.6626 0.8773 0.2283 0.056 Uiso 1 1 calc R . .
C12 C 0.7692(3) 0.9424(5) 0.23828(17) 0.0405(17) Uani 1 1 d . . .
H12 H 0.7991 0.9447 0.2281 0.049 Uiso 1 1 calc R . .
C13 C 0.7669(3) 0.9783(5) 0.26678(15) 0.0375(16) Uani 1 1 d . . .
H13 H 0.7949 1.0034 0.2761 0.045 Uiso 1 1 calc R . .
C14 C 0.8024(3) 1.0670(5) 0.37145(16) 0.0352(16) Uani 1 1 d . . .
C15 C 0.8469(3) 1.0580(6) 0.35748(15) 0.0397(17) Uani 1 1 d . . .
H15 H 0.8484 1.0399 0.3372 0.048 Uiso 1 1 calc R . .
C16 C 0.8882(3) 1.0753(5) 0.37296(15) 0.0394(17) Uani 1 1 d . . .
H16 H 0.9182 1.0679 0.3632 0.047 Uiso 1 1 calc R . .
C17 C 0.8454(3) 1.1103(6) 0.41546(17) 0.0421(18) Uani 1 1 d . . .
H17 H 0.8451 1.1292 0.4357 0.051 Uiso 1 1 calc R . .
C18 C 0.8020(3) 1.0921(5) 0.40169(15) 0.0384(17) Uani 1 1 d . . .
H18 H 0.7727 1.0965 0.4123 0.046 Uiso 1 1 calc R . .
C19 C 0.3943(3) 0.7068(6) 0.43380(16) 0.0407(17) Uani 1 1 d . . .
C20 C 0.3988(3) 0.5693(6) 0.46020(16) 0.0395(17) Uani 1 1 d . . .
C21 C 0.3615(3) 0.5717(6) 0.41556(17) 0.0418(18) Uani 1 1 d . . .
C22 C 0.4085(3) 0.8098(6) 0.43015(17) 0.0425(18) Uani 1 1 d . . .
C23 C 0.4055(3) 0.8556(6) 0.40305(18) 0.048(2) Uani 1 1 d . . .
H23 H 0.3923 0.8230 0.3864 0.057 Uiso 1 1 calc R . .
C24 C 0.4217(3) 0.9477(6) 0.40053(18) 0.051(2) Uani 1 1 d . . .
H24 H 0.4181 0.9794 0.3820 0.061 Uiso 1 1 calc R . .
C25 C 0.4452(3) 0.9529(6) 0.44898(18) 0.0450(19) Uani 1 1 d . . .
H25 H 0.4589 0.9872 0.4651 0.054 Uiso 1 1 calc R . .
C26 C 0.4293(3) 0.8612(6) 0.45412(18) 0.0457(19) Uani 1 1 d . . .
H26 H 0.4320 0.8326 0.4732 0.055 Uiso 1 1 calc R . .
C27 C 0.4150(3) 0.5154(5) 0.48604(16) 0.0386(17) Uani 1 1 d . . .
C28 C 0.4395(3) 0.5619(6) 0.50894(17) 0.0457(19) Uani 1 1 d . . .
H28 H 0.4470 0.6288 0.5073 0.055 Uiso 1 1 calc R . .
C29 C 0.4526(3) 0.5115(6) 0.53385(17) 0.0434(18) Uani 1 1 d . . .
H29 H 0.4695 0.5447 0.5491 0.052 Uiso 1 1 calc R . .
C30 C 0.4203(3) 0.3708(6) 0.51555(17) 0.0442(18) Uani 1 1 d . . .
H30 H 0.4140 0.3036 0.5177 0.053 Uiso 1 1 calc R . .
C31 C 0.4060(3) 0.4181(6) 0.48932(17) 0.0451(19) Uani 1 1 d . . .
H31 H 0.3902 0.3830 0.4740 0.054 Uiso 1 1 calc R . .
C32 C 0.3380(3) 0.5178(6) 0.39165(16) 0.0425(18) Uani 1 1 d . . .
C33 C 0.3404(4) 0.4174(6) 0.3907(2) 0.056(2) Uani 1 1 d . . .
H33 H 0.3570 0.3829 0.4058 0.067 Uiso 1 1 calc R . .
C34 C 0.3192(4) 0.3687(6) 0.3682(2) 0.059(2) Uani 1 1 d . . .
H34 H 0.3206 0.3000 0.3683 0.070 Uiso 1 1 calc R . .
C35 C 0.2928(3) 0.5088(6) 0.34687(19) 0.055(2) Uani 1 1 d . . .
H35 H 0.2755 0.5407 0.3316 0.066 Uiso 1 1 calc R . .
C36 C 0.3126(4) 0.5643(6) 0.36838(18) 0.056(2) Uani 1 1 d . . .
H36 H 0.3095 0.6328 0.3679 0.067 Uiso 1 1 calc R . .
N1 N 0.6760(2) 1.0210(4) 0.32454(13) 0.0388(14) Uani 1 1 d . . .
N2 N 0.7613(2) 1.0253(4) 0.32704(12) 0.0353(13) Uani 1 1 d . . .
N3 N 0.7156(2) 1.0631(4) 0.36963(13) 0.0352(13) Uani 1 1 d . . .
N4 N 0.5416(2) 1.0905(4) 0.39623(14) 0.0412(15) Uani 1 1 d . . .
N5 N 0.7312(2) 0.9045(4) 0.22441(13) 0.0399(14) Uani 1 1 d . . .
N6 N 0.8877(2) 1.1026(4) 0.40184(13) 0.0375(14) Uani 1 1 d . . .
N7 N 0.4093(2) 0.6640(5) 0.45851(14) 0.0426(15) Uani 1 1 d . . .
N8 N 0.3742(2) 0.5199(5) 0.43948(14) 0.0428(15) Uani 1 1 d . . .
N9 N 0.3697(2) 0.6663(4) 0.41180(14) 0.0416(15) Uani 1 1 d . . .
N10 N 0.4428(2) 0.9975(5) 0.42312(14) 0.0422(15) Uani 1 1 d . . .
N11 N 0.4427(2) 0.4182(5) 0.53760(13) 0.0408(15) Uani 1 1 d . . .
N12 N 0.2960(3) 0.4133(5) 0.34560(14) 0.0457(16) Uani 1 1 d . . .
C101 C 0.7308(4) 0.2732(7) 0.3245(3) 0.070(3) Uani 1 1 d . A 1
C102 C 0.7553(5) 0.2442(7) 0.2986(3) 0.074(3) Uani 1 1 d . A 1
H102 H 0.7894 0.2430 0.2984 0.088 Uiso 1 1 calc R A 1
C103 C 0.7315(4) 0.2188(6) 0.2746(2) 0.061(3) Uani 1 1 d . A 1
H103 H 0.7493 0.2043 0.2572 0.073 Uiso 1 1 calc R A 1
C104 C 0.6801(5) 0.2121(8) 0.2734(3) 0.075(3) Uani 1 1 d . A 1
C105 C 0.6551(5) 0.2407(8) 0.2991(3) 0.079(3) Uani 1 1 d . A 1
H105 H 0.6210 0.2391 0.2994 0.095 Uiso 1 1 calc R A 1
C106 C 0.6803(4) 0.2715(7) 0.3241(2) 0.063(3) Uani 1 1 d . A 1
C107 C 0.6535(4) 0.2984(6) 0.3515(2) 0.062(3) Uani 1 1 d . A 1
C108 C 0.6019(4) 0.3048(7) 0.3519(3) 0.069(3) Uani 1 1 d . A 1
H108 H 0.5840 0.2925 0.3344 0.083 Uiso 1 1 calc R A 1
C109 C 0.5792(4) 0.3281(6) 0.3772(3) 0.066(3) Uani 1 1 d . A 1
H109 H 0.5453 0.3348 0.3777 0.079 Uiso 1 1 calc R A 1
C110 C 0.6062(5) 0.3421(7) 0.4024(3) 0.074(3) Uani 1 1 d . A 1
H110 H 0.5899 0.3543 0.4205 0.089 Uiso 1 1 calc R A 1
C111 C 0.6534(5) 0.3394(7) 0.4025(2) 0.068(3) Uani 1 1 d . A 1
H111 H 0.6704 0.3521 0.4204 0.081 Uiso 1 1 calc R A 1
C112 C 0.6782(4) 0.3182(6) 0.3771(3) 0.063(3) Uani 1 1 d . A 1
C113 C 0.7315(5) 0.3191(7) 0.3778(3) 0.073(3) Uani 1 1 d . A 1
C114 C 0.7575(5) 0.3414(7) 0.4032(3) 0.083(4) Uani 1 1 d . A 1
H114 H 0.7401 0.3539 0.4209 0.100 Uiso 1 1 calc R A 1
C115 C 0.8084(5) 0.3469(9) 0.4043(3) 0.089(4) Uani 1 1 d . A 1
H115 H 0.8256 0.3654 0.4216 0.107 Uiso 1 1 calc R A 1
C116 C 0.8306(5) 0.3228(8) 0.3779(3) 0.083(4) Uani 1 1 d . A 1
H116 H 0.8648 0.3205 0.3784 0.099 Uiso 1 1 calc R A 1
C117 C 0.8105(4) 0.3021(7) 0.3515(3) 0.075(3) Uani 1 1 d . A 1
H117 H 0.8290 0.2902 0.3342 0.091 Uiso 1 1 calc R A 1
C118 C 0.7555(4) 0.2993(7) 0.3516(3) 0.068(3) Uani 1 1 d . A 1
C119 C 0.6557(5) 0.1672(11) 0.2504(3) 0.095(4) Uani 1 1 d . A 1
H119 H 0.6715 0.1653 0.2317 0.114 Uiso 1 1 calc R A 1
C120 C 0.5939(5) 0.0764(11) 0.2277(3) 0.096(4) Uani 1 1 d . A 1
C121 C 0.5668(5) -0.0063(12) 0.2340(3) 0.106(5) Uani 1 1 d . A 1
H121 H 0.5602 -0.0226 0.2540 0.127 Uiso 1 1 calc R A 1
C122 C 0.5500(5) -0.0634(12) 0.2121(3) 0.105(5) Uani 1 1 d . A 1
C123 C 0.5565(6) -0.0357(15) 0.1835(3) 0.131(6) Uani 1 1 d . A 1
H123 H 0.5458 -0.0748 0.1675 0.157 Uiso 1 1 calc R A 1
C124 C 0.5786(7) 0.0485(18) 0.1789(4) 0.174(10) Uani 1 1 d . A 1
H124 H 0.5795 0.0725 0.1591 0.209 Uiso 1 1 calc R A 1
C125 C 0.5987(6) 0.0994(15) 0.1992(3) 0.132(6) Uani 1 1 d . A 1
H125 H 0.6173 0.1543 0.1938 0.159 Uiso 1 1 calc R A 1
C126 C 0.5221(10) -0.1596(15) 0.2213(5) 0.183(11) Uani 1 1 d . A 1
N101 N 0.6138(4) 0.1278(8) 0.2517(2) 0.096(3) Uani 1 1 d . A 1
O101 O 0.5246(9) -0.1959(12) 0.2477(4) 0.277(14) Uani 1 1 d . A 1
O102 O 0.4992(4) -0.1991(10) 0.1998(3) 0.158(5) Uani 1 1 d . A 1
O1Z O 0.5356(7) 0.1371(11) 0.2930(3) 0.199(7) Uani 1 1 d . B 2
C1A C 0.4555(13) -0.179(2) 0.3139(8) 0.229(19) Uani 0.50 1 d PDU C 3
H1AA H 0.4727 -0.1812 0.3329 0.343 Uiso 0.50 1 calc PR C 3
H1AB H 0.4699 -0.2256 0.3002 0.343 Uiso 0.50 1 calc PR C 3
H1AC H 0.4216 -0.1958 0.3171 0.343 Uiso 0.50 1 calc PR C 3
C2A C 0.4588(14) -0.079(3) 0.3012(9) 0.30(2) Uani 0.50 1 d PDU C 3
C3A C 0.4366(16) -0.002(2) 0.2554(9) 0.25(2) Uani 0.50 1 d PDU C 3
H3AA H 0.4705 0.0053 0.2490 0.303 Uiso 0.50 1 calc PR C 3
H3AB H 0.4277 0.0575 0.2664 0.303 Uiso 0.50 1 calc PR C 3
C4A C 0.4068(17) -0.008(2) 0.2294(9) 0.25(2) Uani 0.50 1 d PDU C 3
H4AA H 0.4144 0.0456 0.2160 0.380 Uiso 0.50 1 calc PR C 3
H4AB H 0.3729 -0.0045 0.2352 0.380 Uiso 0.50 1 calc PR C 3
H4AC H 0.4129 -0.0698 0.2193 0.380 Uiso 0.50 1 calc PR C 3
O1A O 0.4953(12) -0.031(2) 0.3031(8) 0.32(2) Uani 0.50 1 d PDU C 3
O2A O 0.4338(13) -0.076(3) 0.2736(8) 0.308(18) Uani 0.50 1 d PDU C 3
C1B C 0.3908(10) 0.271(3) 0.1983(8) 0.192(16) Uani 0.50 1 d PDU D 4
H1BA H 0.4086 0.3243 0.1893 0.289 Uiso 0.50 1 calc PR D 4
H1BB H 0.3777 0.2910 0.2174 0.289 Uiso 0.50 1 calc PR D 4
H1BC H 0.3644 0.2514 0.1851 0.289 Uiso 0.50 1 calc PR D 4
C2B C 0.4187(11) 0.200(3) 0.2020(9) 0.182(12) Uani 0.50 1 d PDU D 4
C3B C 0.4617(12) 0.300(3) 0.1702(9) 0.185(13) Uani 0.50 1 d PDU D 4
H3BA H 0.4384 0.2969 0.1536 0.222 Uiso 0.50 1 calc PR D 4
H3BB H 0.4558 0.3600 0.1816 0.222 Uiso 0.50 1 calc PR D 4
C4B C 0.5030(12) 0.298(2) 0.1609(6) 0.148(11) Uani 0.50 1 d PDU D 4
H4BA H 0.5029 0.3098 0.1394 0.222 Uiso 0.50 1 calc PR D 4
H4BB H 0.5172 0.2345 0.1649 0.222 Uiso 0.50 1 calc PR D 4
H4BC H 0.5220 0.3484 0.1707 0.222 Uiso 0.50 1 calc PR D 4
O1B O 0.4213(14) 0.113(3) 0.2202(9) 0.277(17) Uani 0.50 1 d PDU D 4
O2B O 0.4576(8) 0.217(2) 0.1887(6) 0.169(9) Uani 0.50 1 d PDU D 4
C1C C 0.2790(12) 0.466(3) 0.4935(14) 0.085(16) Uani 0.198(7) 1 d PDU E 5
H1CA H 0.2495 0.4997 0.4873 0.127 Uiso 0.198(7) 1 calc PR E 5
H1CB H 0.2975 0.4478 0.4759 0.127 Uiso 0.198(7) 1 calc PR E 5
H1CC H 0.2983 0.5096 0.5059 0.127 Uiso 0.198(7) 1 calc PR E 5
C2C C 0.2680(13) 0.391(3) 0.5081(13) 0.097(13) Uani 0.198(7) 1 d PDU E 5
C3C C 0.2045(15) 0.284(4) 0.5234(9) 0.081(13) Uani 0.198(7) 1 d PDU E 5
H3CA H 0.2214 0.2221 0.5204 0.097 Uiso 0.198(7) 1 calc PR E 5
H3CB H 0.2085 0.3030 0.5445 0.097 Uiso 0.198(7) 1 calc PR E 5
C4C C 0.1615(15) 0.273(4) 0.5182(9) 0.083(18) Uani 0.198(7) 1 d PDU E 5
H4CA H 0.1487 0.2211 0.5306 0.124 Uiso 0.198(7) 1 calc PR E 5
H4CB H 0.1572 0.2562 0.4973 0.124 Uiso 0.198(7) 1 calc PR E 5
H4CC H 0.1442 0.3334 0.5224 0.124 Uiso 0.198(7) 1 calc PR E 5
O1C O 0.3016(12) 0.323(3) 0.5220(8) 0.094(13) Uani 0.198(7) 1 d PDU E 5
O2C O 0.2261(11) 0.357(3) 0.5051(8) 0.094(11) Uani 0.198(7) 1 d PDU E 5
C1D C 0.3140(15) 0.105(3) 0.4245(8) 0.138(13) Uani 0.379(8) 1 d PDU F 6
H1DA H 0.3245 0.0381 0.4223 0.208 Uiso 0.379(8) 1 calc PR F 6
H1DB H 0.3242 0.1429 0.4072 0.208 Uiso 0.379(8) 1 calc PR F 6
H1DC H 0.2789 0.1075 0.4261 0.208 Uiso 0.379(8) 1 calc PR F 6
C2D C 0.3325(19) 0.141(3) 0.4476(10) 0.197(17) Uani 0.379(8) 1 d PDU F 6
C3D C 0.3552(19) 0.108(3) 0.4985(10) 0.194(18) Uani 0.379(8) 1 d PDU F 6
H3DA H 0.3874 0.1381 0.4968 0.232 Uiso 0.379(8) 1 calc PR F 6
H3DB H 0.3334 0.1556 0.5080 0.232 Uiso 0.379(8) 1 calc PR F 6
C4D C 0.358(2) 0.035(4) 0.5139(9) 0.22(2) Uani 0.379(8) 1 d PDU F 6
H4DA H 0.3695 0.0525 0.5337 0.326 Uiso 0.379(8) 1 calc PR F 6
H4DB H 0.3802 -0.0110 0.5048 0.326 Uiso 0.379(8) 1 calc PR F 6
H4DC H 0.3260 0.0053 0.5155 0.326 Uiso 0.379(8) 1 calc PR F 6
O1D O 0.3234(18) 0.240(3) 0.4592(14) 0.28(2) Uani 0.379(8) 1 d PDU F 6
O2D O 0.3374(16) 0.085(3) 0.4694