####################################################################### 
# 
# This file contains crystal structure data downloaded from the 
# Cambridge Structural Database (CSD) hosted by the Cambridge 
# Crystallographic Data Centre (CCDC).
# 
# Full information about CCDC data access policies and citation 
# guidelines are available at http://www.ccdc.cam.ac.uk/access/V1 
# 
# Audit and citation data items may have been added by the CCDC. 
# Please retain this information to preserve the provenance of 
# this file and to allow appropriate attribution of the data. 
# 
#######################################################################

data_platon
_audit_block_doi                 10.5517/cc10lyj2
_database_code_depnum_ccdc_archive 'CCDC 941734'
loop_
_citation_id
_citation_doi
_citation_year
1 10.1021/cg401804e 2014
_audit_update_record             
;
2013-05-28 deposited with the CCDC.	2024-07-13 downloaded from the CCDC.
;

_audit_creation_method           SHELXL-97
_chemical_name_systematic        
; 
 ? 
;
_chemical_name_common            ?
_chemical_melting_point          ?
_chemical_formula_moiety         'C75 H42 Gd2 N2 O22'
_chemical_formula_sum            'C75 H42 Gd2 N2 O22'
_chemical_formula_weight         1637.61

loop_
_atom_type_symbol
_atom_type_description
_atom_type_scat_dispersion_real
_atom_type_scat_dispersion_imag
_atom_type_scat_source
C C 0.0033 0.0016 'International Tables Vol C Tables 4.2.6.8 and 6.1.1.4'
Gd Gd -0.1653 3.9035 'International Tables Vol C Tables 4.2.6.8 and 6.1.1.4'
N N 0.0061 0.0033 'International Tables Vol C Tables 4.2.6.8 and 6.1.1.4'
O O 0.0106 0.0060 'International Tables Vol C Tables 4.2.6.8 and 6.1.1.4'
H H 0.0000 0.0000 'International Tables Vol C Tables 4.2.6.8 and 6.1.1.4'

_symmetry_cell_setting           Monoclinic
_symmetry_space_group_name_H-M   'C 2/c'

loop_
_symmetry_equiv_pos_as_xyz
'x, y, z'
'-x, y, -z+1/2'
'x+1/2, y+1/2, z'
'-x+1/2, y+1/2, -z+1/2'
'-x, -y, -z'
'x, -y, z-1/2'
'-x+1/2, -y+1/2, -z'
'x+1/2, -y+1/2, z-1/2'

_cell_length_a                   31.517(12)
_cell_length_b                   14.882(4)
_cell_length_c                   28.494(8)
_cell_angle_alpha                90.00
_cell_angle_beta                 120.19(2)
_cell_angle_gamma                90.00
_cell_volume                     11552(6)
_cell_formula_units_Z            4
_cell_measurement_temperature    296(2)
_cell_measurement_reflns_used    8721
_cell_measurement_theta_min      2.39
_cell_measurement_theta_max      24.10

_exptl_crystal_description       needle
_exptl_crystal_colour            yellow
_exptl_crystal_size_max          0.41
_exptl_crystal_size_mid          0.36
_exptl_crystal_size_min          0.28
_exptl_crystal_density_meas      ?
_exptl_crystal_density_diffrn    0.942
_exptl_crystal_density_method    'not measured'
_exptl_crystal_F_000             3240
_exptl_absorpt_coefficient_mu    1.186
_exptl_absorpt_correction_type   multi-scan
_exptl_absorpt_correction_T_min  0.620
_exptl_absorpt_correction_T_max  0.717
_exptl_absorpt_process_details   multi-scan

_exptl_special_details           
; 
 ? 
;

_diffrn_ambient_temperature      296(2)
_diffrn_radiation_wavelength     0.71073
_diffrn_radiation_type           MoK\a
_diffrn_radiation_source         'fine-focus sealed tube'
_diffrn_radiation_monochromator  graphite
_diffrn_measurement_device_type  'Bruker APEX-II CCD'
_diffrn_measurement_method       '\f and \w scans'
_diffrn_detector_area_resol_mean ?
_diffrn_reflns_number            51826
_diffrn_reflns_av_R_equivalents  0.0838
_diffrn_reflns_av_sigmaI/netI    0.0467
_diffrn_reflns_limit_h_min       -40
_diffrn_reflns_limit_h_max       40
_diffrn_reflns_limit_k_min       -19
_diffrn_reflns_limit_k_max       19
_diffrn_reflns_limit_l_min       -36
_diffrn_reflns_limit_l_max       36
_diffrn_reflns_theta_min         1.49
_diffrn_reflns_theta_max         27.51
_reflns_number_total             13267
_reflns_number_gt                13041
_reflns_threshold_expression     >2sigma(I)

_computing_data_collection       'Bruker APEX2'
_computing_cell_refinement       'Bruker SAINT'
_computing_data_reduction        'Bruker SAINT'
_computing_structure_solution    'SHELXS-97 (Sheldrick, 2008)'
_computing_structure_refinement  'SHELXL-97 (Sheldrick, 2008)'
_computing_molecular_graphics    'Bruker SHELXTL'
_computing_publication_material  'Bruker SHELXTL'

_refine_special_details          
; 
 Refinement of F^2^ against ALL reflections.  The weighted R-factor wR and 
 goodness of fit S are based on F^2^, conventional R-factors R are based 
 on F, with F set to zero for negative F^2^. The threshold expression of 
 F^2^ > 2sigma(F^2^) is used only for calculating R-factors(gt) etc. and is 
 not relevant to the choice of reflections for refinement.  R-factors based 
 on F^2^ are statistically about twice as large as those based on F, and R- 
 factors based on ALL data will be even larger. 
;

_refine_ls_structure_factor_coef Fsqd
_refine_ls_matrix_type           full
_refine_ls_weighting_scheme      calc
_refine_ls_weighting_details     
'calc w=1/[\s^2^(Fo^2^)+(0.0506P)^2^+1.0384P] where P=(Fo^2^+2Fc^2^)/3'
_atom_sites_solution_primary     direct
_atom_sites_solution_secondary   difmap
_atom_sites_solution_hydrogens   geom
_refine_ls_hydrogen_treatment    constr
_refine_ls_extinction_method     none
_refine_ls_extinction_coef       ?
_refine_ls_number_reflns         13267
_refine_ls_number_parameters     459
_refine_ls_number_restraints     0
_refine_ls_R_factor_all          0.0649
_refine_ls_R_factor_gt           0.0623
_refine_ls_wR_factor_ref         0.1548
_refine_ls_wR_factor_gt          0.1532
_refine_ls_goodness_of_fit_ref   1.171
_refine_ls_restrained_S_all      1.171
_refine_ls_shift/su_max          0.019
_refine_ls_shift/su_mean         0.007

loop_
_atom_site_label
_atom_site_type_symbol
_atom_site_fract_x
_atom_site_fract_y
_atom_site_fract_z
_atom_site_U_iso_or_equiv
_atom_site_adp_type
_atom_site_occupancy
_atom_site_symmetry_multiplicity
_atom_site_calc_flag
_atom_site_refinement_flags
_atom_site_disorder_assembly
_atom_site_disorder_group
Gd1 Gd 0.267515(8) 0.118113(15) 0.487805(9) 0.02584(8) Uani 1 1 d . . .
O7 O 0.07431(17) 0.3571(3) 0.3558(2) 0.0546(11) Uani 1 1 d . . .
H7 H 0.0890 0.4027 0.3560 0.082 Uiso 1 1 calc R . .
O4 O 0.25307(14) -0.0257(3) 0.12819(15) 0.0386(8) Uani 1 1 d . . .
H4 H 0.2343 0.0142 0.1093 0.058 Uiso 1 1 calc R . .
O3 O 0.22859(14) 0.0704(3) 0.30124(16) 0.0376(8) Uani 1 1 d . . .
H3 H 0.2328 0.1196 0.3160 0.056 Uiso 1 1 calc R . .
O8 O 0.24117(13) 0.1323(2) 0.55091(14) 0.0314(7) Uani 1 1 d . . .
O10 O 0.29678(13) 0.2398(3) 0.45910(15) 0.0370(8) Uani 1 1 d . . .
O1 O 0.25082(15) 0.0729(3) 0.40110(16) 0.0439(9) Uani 1 1 d . . .
O2 O 0.32533(15) 0.0485(3) 0.46461(16) 0.0423(9) Uani 1 1 d . . .
O11 O 0.29927(18) -0.0118(3) 0.5455(2) 0.0517(11) Uani 1 1 d . . .
O5 O 0.20066(14) 0.2087(3) 0.43746(16) 0.0394(8) Uani 1 1 d . . .
O6 O 0.16113(13) 0.3353(3) 0.43457(16) 0.0381(8) Uani 1 1 d . . .
O9 O 0.20344(18) 0.0143(4) 0.4556(2) 0.0575(12) Uani 1 1 d . . .
C24 C 0.12767(19) 0.2395(4) 0.3577(2) 0.0340(10) Uani 1 1 d . . .
C25 C 0.1338(2) 0.1724(5) 0.3287(3) 0.0502(16) Uani 1 1 d . . .
H25 H 0.1621 0.1375 0.3460 0.060 Uiso 1 1 calc R . .
C26 C 0.1000(2) 0.1543(5) 0.2751(3) 0.0464(13) Uani 1 1 d . . .
C31 C 0.0562(2) 0.2064(4) 0.2471(3) 0.0437(12) Uani 1 1 d . . .
C32 C 0.0474(2) 0.2720(4) 0.2755(2) 0.0368(11) Uani 1 1 d . . .
C33 C 0.08192(19) 0.2917(4) 0.3278(2) 0.0388(12) Uani 1 1 d . . .
C34 C 0.0000 0.3256(6) 0.2500 0.048(2) Uani 1 2 d S . .
H34A H -0.0005 0.3643 0.2223 0.058 Uiso 0.50 1 calc PR . .
H34B H 0.0005 0.3643 0.2777 0.058 Uiso 0.50 1 calc PR . .
C30 C 0.0232(2) 0.1885(5) 0.1903(3) 0.0549(16) Uani 1 1 d . . .
H30 H -0.0066 0.2189 0.1721 0.066 Uiso 1 1 calc R . .
C29 C 0.0347(3) 0.1294(6) 0.1640(4) 0.069(2) Uani 1 1 d . . .
H29 H 0.0167 0.1267 0.1263 0.082 Uiso 1 1 calc R . .
C15 C 0.21110(17) -0.1709(3) 0.11012(19) 0.0270(9) Uani 1 1 d . . .
C16 C 0.1874(2) -0.2316(4) 0.1256(3) 0.0405(12) Uani 1 1 d . . .
H16 H 0.1763 -0.2855 0.1068 0.049 Uiso 1 1 calc R . .
C17 C 0.17958(17) -0.2140(3) 0.16919(18) 0.0275(9) Uani 1 1 d . . .
C18 C 0.19817(19) -0.1335(4) 0.1993(2) 0.0347(10) Uani 1 1 d . . .
C14 C 0.22802(17) -0.0868(3) 0.14105(19) 0.0290(9) Uani 1 1 d . . .
C13 C 0.22447(18) -0.0717(3) 0.18644(19) 0.0286(9) Uani 1 1 d . . .
C12 C 0.24455(19) 0.0171(4) 0.2190(2) 0.0366(11) Uani 1 1 d . . .
H12A H 0.2571 0.0536 0.2004 0.044 Uiso 1 1 calc R . .
H12B H 0.2171 0.0493 0.2174 0.044 Uiso 1 1 calc R . .
C19 C 0.1874(2) -0.1185(4) 0.2405(2) 0.0439(13) Uani 1 1 d . . .
H19 H 0.1971 -0.0652 0.2602 0.053 Uiso 1 1 calc R . .
C1 C 0.29512(18) 0.0479(4) 0.41353(19) 0.0326(10) Uani 1 1 d . . .
C11 C 0.2715(2) 0.0348(4) 0.3146(2) 0.0413(12) Uani 1 1 d . . .
C3 C 0.3515(2) -0.0080(4) 0.3860(3) 0.0433(13) Uani 1 1 d . . .
H3A H 0.3730 -0.0205 0.4225 0.052 Uiso 1 1 calc R . .
C2 C 0.30677(17) 0.0285(3) 0.3728(2) 0.0316(10) Uani 1 1 d . . .
C10 C 0.28412(18) 0.0103(3) 0.27764(19) 0.0286(9) Uani 1 1 d . . .
C9 C 0.33103(19) -0.0238(3) 0.2933(2) 0.0336(11) Uani 1 1 d . . .
C4 C 0.36728(18) -0.0279(4) 0.3497(2) 0.0345(10) Uani 1 1 d . . .
C8 C 0.3456(3) -0.0460(5) 0.2551(3) 0.0558(16) Uani 1 1 d . . .
H8 H 0.3229 -0.0408 0.2182 0.067 Uiso 1 1 calc R . .
C7 C 0.3925(3) -0.0750(5) 0.2709(3) 0.0624(19) Uani 1 1 d . . .
H7A H 0.4006 -0.0913 0.2449 0.075 Uiso 1 1 calc R . .
C20 C 0.1620(2) -0.1839(4) 0.2522(3) 0.0475(13) Uani 1 1 d . . .
H20 H 0.1560 -0.1731 0.2805 0.057 Uiso 1 1 calc R . .
C5 C 0.4139(3) -0.0570(6) 0.3623(4) 0.068(2) Uani 1 1 d . . .
H5 H 0.4372 -0.0608 0.3990 0.081 Uiso 1 1 calc R . .
C35 C 0.21977(15) 0.1913(3) 0.56505(18) 0.0237(8) Uani 1 1 d . . .
C27 C 0.1075(3) 0.0908(7) 0.2428(5) 0.081(3) Uani 1 1 d . . .
H27 H 0.1385 0.0647 0.2586 0.098 Uiso 1 1 calc R . .
C28 C 0.0775(3) 0.0660(7) 0.1956(5) 0.084(3) Uani 1 1 d . . .
H28 H 0.0811 0.0126 0.1810 0.101 Uiso 1 1 calc R . .
C23 C 0.16539(18) 0.2607(4) 0.4131(2) 0.0346(10) Uani 1 1 d . . .
C21 C 0.1452(3) -0.2646(4) 0.2233(3) 0.0510(15) Uani 1 1 d . . .
H21 H 0.1281 -0.3071 0.2313 0.061 Uiso 1 1 calc R . .
C22 C 0.1552(3) -0.2761(5) 0.1841(3) 0.062(2) Uani 1 1 d . . .
H22 H 0.1454 -0.3297 0.1649 0.075 Uiso 1 1 calc R . .
C6 C 0.4288(3) -0.0800(6) 0.3277(4) 0.066(2) Uani 1 1 d . . .
H6 H 0.4609 -0.0982 0.3396 0.079 Uiso 1 1 calc R . .
C36 C 0.3052(8) -0.0900(15) 0.5259(10) 0.189(8) Uani 1 1 d . . .
C38 C 0.2393(9) -0.0919(12) 0.5243(12) 0.215(11) Uani 1 1 d . . .
C37 C 0.3043(15) -0.251(2) 0.5382(17) 0.350(16) Uani 1 1 d . . .
N1 N 0.2761(8) -0.1536(9) 0.5280(9) 0.208(10) Uani 1 1 d . . .

loop_
_atom_site_aniso_label
_atom_site_aniso_U_11
_atom_site_aniso_U_22
_atom_site_aniso_U_33
_atom_site_aniso_U_23
_atom_site_aniso_U_13
_atom_site_aniso_U_12
Gd1 0.02616(12) 0.02562(12) 0.02591(12) 0.00002(9) 0.01322(9) 0.00023(9)
O7 0.041(2) 0.044(2) 0.063(3) -0.003(2) 0.015(2) 0.0000(19)
O4 0.041(2) 0.038(2) 0.0326(18) 0.0022(15) 0.0152(16) 0.0037(16)
O3 0.040(2) 0.036(2) 0.039(2) -0.0020(16) 0.0220(17) -0.0016(16)
O8 0.0426(19) 0.0263(17) 0.0364(18) 0.0004(13) 0.0282(16) 0.0003(14)
O10 0.0313(18) 0.047(2) 0.0357(19) -0.0059(16) 0.0188(16) -0.0074(16)
O1 0.036(2) 0.057(3) 0.038(2) 0.0001(18) 0.0185(17) 0.0020(18)
O2 0.042(2) 0.043(2) 0.041(2) -0.0010(17) 0.0205(18) -0.0003(17)
O11 0.057(3) 0.040(2) 0.069(3) 0.019(2) 0.040(2) 0.018(2)
O5 0.0352(19) 0.047(2) 0.0359(19) 0.0064(16) 0.0177(16) -0.0012(16)
O6 0.0287(17) 0.038(2) 0.045(2) 0.0135(16) 0.0163(16) 0.0039(15)
O9 0.048(2) 0.074(3) 0.054(3) -0.017(2) 0.028(2) -0.011(2)
C24 0.033(2) 0.038(3) 0.031(2) 0.005(2) 0.016(2) 0.004(2)
C25 0.029(3) 0.071(4) 0.051(3) -0.021(3) 0.020(2) -0.004(3)
C26 0.046(3) 0.048(3) 0.046(3) 0.000(3) 0.024(3) 0.002(3)
C31 0.046(3) 0.042(3) 0.045(3) -0.002(2) 0.024(3) -0.001(2)
C32 0.033(2) 0.033(3) 0.045(3) 0.000(2) 0.020(2) 0.001(2)
C33 0.031(2) 0.053(3) 0.034(3) 0.012(2) 0.018(2) 0.006(2)
C34 0.030(4) 0.034(4) 0.075(6) 0.000 0.023(4) 0.000
C30 0.043(3) 0.066(4) 0.048(3) 0.004(3) 0.017(3) -0.004(3)
C29 0.060(4) 0.085(6) 0.064(5) -0.010(4) 0.033(4) -0.006(4)
C15 0.024(2) 0.030(2) 0.027(2) 0.0006(17) 0.0130(17) -0.0009(17)
C16 0.043(3) 0.027(2) 0.061(4) 0.004(2) 0.033(3) 0.002(2)
C17 0.027(2) 0.032(2) 0.024(2) -0.0033(17) 0.0138(18) -0.0039(18)
C18 0.032(2) 0.034(3) 0.039(3) -0.004(2) 0.018(2) -0.001(2)
C14 0.026(2) 0.031(2) 0.025(2) 0.0027(18) 0.0091(18) -0.0002(18)
C13 0.030(2) 0.025(2) 0.030(2) 0.0012(18) 0.0153(19) 0.0022(18)
C12 0.034(3) 0.042(3) 0.038(3) 0.005(2) 0.021(2) 0.007(2)
C19 0.050(3) 0.043(3) 0.036(3) -0.004(2) 0.019(2) -0.010(3)
C1 0.027(2) 0.047(3) 0.023(2) 0.006(2) 0.0121(18) 0.001(2)
C11 0.038(3) 0.042(3) 0.043(3) -0.001(2) 0.019(2) 0.002(2)
C3 0.034(3) 0.044(3) 0.046(3) -0.014(2) 0.016(2) 0.000(2)
C2 0.025(2) 0.028(2) 0.040(3) 0.0031(19) 0.015(2) 0.0000(18)
C10 0.035(2) 0.028(2) 0.025(2) -0.0030(17) 0.0175(19) 0.0044(18)
C9 0.033(2) 0.027(2) 0.055(3) 0.003(2) 0.033(2) 0.0020(19)
C4 0.029(2) 0.046(3) 0.028(2) -0.002(2) 0.0134(19) 0.001(2)
C8 0.049(4) 0.047(4) 0.070(4) -0.014(3) 0.030(3) -0.004(3)
C7 0.081(5) 0.058(4) 0.073(5) -0.017(4) 0.057(4) -0.014(4)
C20 0.045(3) 0.046(3) 0.044(3) 0.000(3) 0.016(3) 0.001(3)
C5 0.058(4) 0.073(5) 0.073(5) -0.018(4) 0.034(4) -0.013(4)
C35 0.0169(18) 0.0132(17) 0.030(2) 0.0039(15) 0.0038(16) 0.0016(14)
C27 0.056(5) 0.081(6) 0.100(7) -0.023(5) 0.034(5) -0.002(4)
C28 0.067(5) 0.063(5) 0.118(8) -0.018(5) 0.044(6) -0.002(4)
C23 0.025(2) 0.033(3) 0.041(3) 0.008(2) 0.013(2) 0.0027(19)
C21 0.067(4) 0.042(3) 0.059(4) -0.001(3) 0.043(4) -0.001(3)
C22 0.090(5) 0.050(4) 0.086(5) -0.028(4) 0.073(5) -0.032(4)
C6 0.061(4) 0.063(5) 0.082(5) -0.011(4) 0.042(4) -0.004(4)
C36 0.208(19) 0.158(16) 0.25(2) -0.020(15) 0.154(18) -0.056(15)
C38 0.27(2) 0.101(10) 0.41(3) 0.055(15) 0.27(3) 0.067(12)
C37 0.41(4) 0.17(3) 0.41(5) 0.00(3) 0.16(4) -0.02(3)
N1 0.34(2) 0.088(8) 0.37(3) -0.093(12) 0.30(2) -0.092(12)

_geom_special_details            
; 
 All esds (except the esd in the dihedral angle between two l.s. planes) 
 are estimated using the full covariance matrix.  The cell esds are taken 
 into account individually in the estimation of esds in distances, angles 
 and torsion angles; correlations between esds in cell parameters are only 
 used when they are defined by crystal symmetry.  An approximate (isotropic) 
 treatment of cell esds is used for estimating esds involving l.s. planes. 
;

loop_
_geom_bond_atom_site_label_1
_geom_bond_atom_site_label_2
_geom_bond_distance
_geom_bond_site_symmetry_2
_geom_bond_publ_flag
Gd1 O5 2.296(4) . ?
Gd1 O6 2.330(4) 7_556 ?
Gd1 O9 2.333(5) . ?
Gd1 O8 2.339(3) . ?
Gd1 O1 2.351(4) . ?
Gd1 O10 2.357(4) . ?
Gd1 O11 2.405(4) . ?
Gd1 O2 2.458(4) . ?
Gd1 C1 2.860(5) . ?
O7 C33 1.354(8) . ?
O7 H7 0.8200 . ?
O4 C14 1.370(6) . ?
O4 H4 0.8201 . ?
O3 C11 1.318(7) . ?
O3 H3 0.8200 . ?
O8 C35 1.289(6) . ?
O10 C35 1.199(6) 7_556 ?
O1 C1 1.310(6) . ?
O2 C1 1.277(6) . ?
O11 C36 1.34(2) . ?
O5 C23 1.241(6) . ?
O6 C23 1.307(7) . ?
O6 Gd1 2.330(4) 7_556 ?
C24 C25 1.369(8) . ?
C24 C23 1.456(7) . ?
C24 C33 1.474(7) . ?
C25 C26 1.381(9) . ?
C25 H25 0.9300 . ?
C26 C27 1.420(11) . ?
C26 C31 1.426(9) . ?
C31 C32 1.384(8) . ?
C31 C30 1.441(9) . ?
C32 C33 1.363(8) . ?
C32 C34 1.518(7) . ?
C34 C32 1.518(7) 2 ?
C34 H34A 0.9700 . ?
C34 H34B 0.9700 . ?
C30 C29 1.321(11) . ?
C30 H30 0.9300 . ?
C29 C28 1.516(13) . ?
C29 H29 0.9300 . ?
C15 C16 1.378(7) . ?
C15 C14 1.468(7) . ?
C15 C35 1.473(6) 6 ?
C16 C17 1.408(7) . ?
C16 H16 0.9300 . ?
C17 C22 1.398(8) . ?
C17 C18 1.416(7) . ?
C18 C19 1.394(8) . ?
C18 C13 1.404(7) . ?
C14 C13 1.372(7) . ?
C13 C12 1.554(7) . ?
C12 C10 1.504(7) . ?
C12 H12A 0.9700 . ?
C12 H12B 0.9700 . ?
C19 C20 1.403(9) . ?
C19 H19 0.9300 . ?
C1 C2 1.412(7) . ?
C11 C10 1.349(7) . ?
C11 C2 1.464(8) . ?
C3 C2 1.375(7) . ?
C3 C4 1.388(8) . ?
C3 H3A 0.9300 . ?
C10 C9 1.406(7) . ?
C9 C8 1.418(9) . ?
C9 C4 1.428(8) . ?
C4 C5 1.395(9) . ?
C8 C7 1.380(11) . ?
C8 H8 0.9300 . ?
C7 C6 1.439(12) . ?
C7 H7A 0.9300 . ?
C20 C21 1.401(9) . ?
C20 H20 0.9300 . ?
C5 C6 1.332(11) . ?
C5 H5 0.9300 . ?
C35 O10 1.199(6) 7_556 ?
C35 C15 1.473(6) 6_556 ?
C27 C28 1.248(14) . ?
C27 H27 0.9300 . ?
C28 H28 0.9300 . ?
C21 C22 1.315(9) . ?
C21 H21 0.9300 . ?
C22 H22 0.9300 . ?
C6 H6 0.9300 . ?
C36 N1 1.34(2) . ?
C36 C38 2.05(3) . ?
C38 N1 1.44(2) . ?
C37 N1 1.65(4) . ?

loop_
_geom_angle_atom_site_label_1
_geom_angle_atom_site_label_2
_geom_angle_atom_site_label_3
_geom_angle
_geom_angle_site_symmetry_1
_geom_angle_site_symmetry_3
_geom_angle_publ_flag
O5 Gd1 O6 124.25(14) . 7_556 ?
O5 Gd1 O9 78.59(18) . . ?
O6 Gd1 O9 143.29(16) 7_556 . ?
O5 Gd1 O8 81.85(13) . . ?
O6 Gd1 O8 77.85(13) 7_556 . ?
O9 Gd1 O8 77.90(15) . . ?
O5 Gd1 O1 82.03(15) . . ?
O6 Gd1 O1 133.01(14) 7_556 . ?
O9 Gd1 O1 72.85(16) . . ?
O8 Gd1 O1 148.82(14) . . ?
O5 Gd1 O10 74.26(14) . . ?
O6 Gd1 O10 75.02(13) 7_556 . ?
O9 Gd1 O10 141.68(16) . . ?
O8 Gd1 O10 123.34(12) . . ?
O1 Gd1 O10 77.01(14) . . ?
O5 Gd1 O11 146.54(15) . . ?
O6 Gd1 O11 73.69(16) 7_556 . ?
O9 Gd1 O11 73.56(19) . . ?
O8 Gd1 O11 74.57(14) . . ?
O1 Gd1 O11 106.51(17) . . ?
O10 Gd1 O11 138.88(15) . . ?
O5 Gd1 O2 130.60(14) . . ?
O6 Gd1 O2 83.60(14) 7_556 . ?
O9 Gd1 O