####################################################################### 
# 
# This file contains crystal structure data downloaded from the 
# Cambridge Structural Database (CSD) hosted by the Cambridge 
# Crystallographic Data Centre (CCDC).
# 
# Full information about CCDC data access policies and citation 
# guidelines are available at http://www.ccdc.cam.ac.uk/access/V1 
# 
# Audit and citation data items may have been added by the CCDC. 
# Please retain this information to preserve the provenance of 
# this file and to allow appropriate attribution of the data. 
# 
#######################################################################

data_ZnW02-3
_audit_block_doi                 10.5517/cc11sy81
_database_code_depnum_ccdc_archive 'CCDC 977283'
loop_
_citation_id
_citation_doi
_citation_year
1 10.1002/ejic.201402094 2014
_audit_update_record             
;
2013-12-16 deposited with the CCDC.	2024-07-13 downloaded from the CCDC.
;

_audit_creation_method           SHELXL-97
_chemical_name_systematic        
; 
 ? 
;
_chemical_name_common            ?
_chemical_melting_point          ?
_chemical_formula_moiety         ?
_chemical_formula_sum            'C30 H38 N5 O8 Zn'
_chemical_formula_weight         662.02

loop_
_atom_type_symbol
_atom_type_description
_atom_type_scat_dispersion_real
_atom_type_scat_dispersion_imag
_atom_type_scat_source
C C 0.0033 0.0016 'International Tables Vol C Tables 4.2.6.8 and 6.1.1.4'
H H 0.0000 0.0000 'International Tables Vol C Tables 4.2.6.8 and 6.1.1.4'
N N 0.0061 0.0033 'International Tables Vol C Tables 4.2.6.8 and 6.1.1.4'
O O 0.0106 0.0060 'International Tables Vol C Tables 4.2.6.8 and 6.1.1.4'
Zn Zn 0.2839 1.4301 'International Tables Vol C Tables 4.2.6.8 and 6.1.1.4'

_symmetry_cell_setting           triclinic
_symmetry_space_group_name_H-M   P-1

loop_
_symmetry_equiv_pos_as_xyz
'x, y, z'
'-x, -y, -z'

_cell_length_a                   9.000(3)
_cell_length_b                   10.197(3)
_cell_length_c                   18.109(4)
_cell_angle_alpha                100.459(7)
_cell_angle_beta                 90.851(9)
_cell_angle_gamma                106.781(8)
_cell_volume                     1560.7(7)
_cell_formula_units_Z            2
_cell_measurement_temperature    173(2)
_cell_measurement_reflns_used    ?
_cell_measurement_theta_min      ?
_cell_measurement_theta_max      ?

_exptl_crystal_description       sheet
_exptl_crystal_colour            yellow
_exptl_crystal_size_max          0.26
_exptl_crystal_size_mid          0.24
_exptl_crystal_size_min          0.20
_exptl_crystal_density_meas      ?
_exptl_crystal_density_diffrn    1.409
_exptl_crystal_density_method    'not measured'
_exptl_crystal_F_000             694
_exptl_absorpt_coefficient_mu    0.844
_exptl_absorpt_correction_type   multi-scan
_exptl_absorpt_correction_T_min  0.8104
_exptl_absorpt_correction_T_max  0.8493
_exptl_absorpt_process_details   sadabs

_exptl_special_details           
; 
 ? 
;

_diffrn_ambient_temperature      173(2)
_diffrn_radiation_wavelength     0.71073
_diffrn_radiation_type           MoK\a
_diffrn_radiation_source         'fine-focus sealed tube'
_diffrn_radiation_monochromator  graphite
_diffrn_measurement_device_type  ?
_diffrn_measurement_method       ?
_diffrn_detector_area_resol_mean ?
_diffrn_reflns_number            4901
_diffrn_reflns_av_R_equivalents  0.0000
_diffrn_reflns_av_sigmaI/netI    0.0655
_diffrn_reflns_limit_h_min       -11
_diffrn_reflns_limit_h_max       11
_diffrn_reflns_limit_k_min       -13
_diffrn_reflns_limit_k_max       12
_diffrn_reflns_limit_l_min       0
_diffrn_reflns_limit_l_max       23
_diffrn_reflns_theta_min         1.15
_diffrn_reflns_theta_max         27.52
_reflns_number_total             4901
_reflns_number_gt                3774
_reflns_threshold_expression     >2sigma(I)

_computing_data_collection       'bruker smart'
_computing_cell_refinement       'bruker smart'
_computing_data_reduction        'bruker sanit'
_computing_structure_solution    'SHELXS-97 (Sheldrick, 1990)'
_computing_structure_refinement  'SHELXL-97 (Sheldrick, 1997)'
_computing_molecular_graphics    'bruker shelxtl'
_computing_publication_material  'bruker shelxtl'

_refine_special_details          
; 
 Refinement of F^2^ against ALL reflections.  The weighted R-factor wR and 
 goodness of fit S are based on F^2^, conventional R-factors R are based 
 on F, with F set to zero for negative F^2^. The threshold expression of 
 F^2^ > 2sigma(F^2^) is used only for calculating R-factors(gt) etc. and is 
 not relevant to the choice of reflections for refinement.  R-factors based 
 on F^2^ are statistically about twice as large as those based on F, and R- 
 factors based on ALL data will be even larger. 
;

_refine_ls_structure_factor_coef Fsqd
_refine_ls_matrix_type           full
_refine_ls_weighting_scheme      calc
_refine_ls_weighting_details     
'calc w=1/[\s^2^(Fo^2^)+(0.1688P)^2^+1.1702P] where P=(Fo^2^+2Fc^2^)/3'
_atom_sites_solution_primary     direct
_atom_sites_solution_secondary   difmap
_atom_sites_solution_hydrogens   geom
_refine_ls_hydrogen_treatment    mixed
_refine_ls_extinction_method     none
_refine_ls_extinction_coef       ?
_refine_ls_number_reflns         4901
_refine_ls_number_parameters     364
_refine_ls_number_restraints     13
_refine_ls_R_factor_all          0.1037
_refine_ls_R_factor_gt           0.0767
_refine_ls_wR_factor_ref         0.2398
_refine_ls_wR_factor_gt          0.2101
_refine_ls_goodness_of_fit_ref   1.049
_refine_ls_restrained_S_all      1.049
_refine_ls_shift/su_max          0.008
_refine_ls_shift/su_mean         0.001

loop_
_atom_site_label
_atom_site_type_symbol
_atom_site_fract_x
_atom_site_fract_y
_atom_site_fract_z
_atom_site_U_iso_or_equiv
_atom_site_adp_type
_atom_site_occupancy
_atom_site_symmetry_multiplicity
_atom_site_calc_flag
_atom_site_refinement_flags
_atom_site_disorder_assembly
_atom_site_disorder_group
O6 O 0.8134(17) 0.2488(15) 0.3964(9) 0.130(5) Uiso 1 1 d DU . .
C28 C 0.928(2) 0.289(2) 0.4444(11) 0.146(7) Uiso 1 1 d DU . .
H28 H 1.0327 0.2977 0.4325 0.176 Uiso 1 1 calc R . .
N5 N 0.884(2) 0.3180(18) 0.5150(10) 0.149(6) Uiso 1 1 d DU . .
C29 C 1.005(3) 0.375(3) 0.5788(12) 0.191(11) Uiso 1 1 d DU . .
H29A H 0.9553 0.3897 0.6260 0.287 Uiso 1 1 calc R . .
H29B H 1.0759 0.4634 0.5712 0.287 Uiso 1 1 calc R . .
H29C H 1.0637 0.3079 0.5810 0.287 Uiso 1 1 calc R . .
C30 C 0.729(2) 0.307(3) 0.5338(14) 0.203(12) Uiso 1 1 d DU . .
H30A H 0.7274 0.3334 0.5885 0.305 Uiso 1 1 calc R . .
H30B H 0.6637 0.2106 0.5167 0.305 Uiso 1 1 calc R . .
H30C H 0.6897 0.3695 0.5092 0.305 Uiso 1 1 calc R . .
C1 C 0.5414(10) 0.8998(10) 0.3137(5) 0.0275(19) Uani 1 1 d . . .
C2 C 0.4952(10) 1.0013(8) 0.2836(5) 0.0230(17) Uani 1 1 d . . .
H2 H 0.5317 1.0963 0.3085 0.028 Uiso 1 1 calc R . .
C3 C 0.3971(10) 0.9656(10) 0.2181(5) 0.029(2) Uani 1 1 d . . .
C4 C 0.3393(10) 0.8222(10) 0.1822(4) 0.0224(17) Uani 1 1 d . . .
H4 H 0.2751 0.7958 0.1367 0.027 Uiso 1 1 calc R . .
C5 C 0.3773(10) 0.7229(9) 0.2139(5) 0.0243(18) Uani 1 1 d . . .
C6 C 0.4776(10) 0.7625(9) 0.2792(5) 0.028(2) Uani 1 1 d . . .
H6 H 0.5024 0.6921 0.3004 0.034 Uiso 1 1 calc R . .
C7 C 0.7289(13) 0.8489(11) 0.3948(6) 0.044(3) Uani 1 1 d . . .
H7A H 0.7608 0.8002 0.3482 0.053 Uiso 1 1 calc R . .
H7B H 0.6598 0.7776 0.4195 0.053 Uiso 1 1 calc R . .
C8 C 1.0160(12) 0.9856(12) 0.4237(5) 0.036(2) Uani 1 1 d . . .
C9 C 0.8762(13) 0.9323(13) 0.4487(5) 0.045(3) Uani 1 1 d . . .
C10 C 0.8523(12) 0.9447(13) 0.5277(5) 0.042(3) Uani 1 1 d . . .
C11 C 1.0325(15) 0.9787(14) 0.3377(6) 0.056(3) Uani 1 1 d . . .
H11A H 0.9310 0.9306 0.3103 0.084 Uiso 1 1 calc R . .
H11B H 1.1067 0.9275 0.3209 0.084 Uiso 1 1 calc R . .
H11C H 1.0702 1.0736 0.3277 0.084 Uiso 1 1 calc R . .
C12 C 0.6917(14) 0.8822(17) 0.5561(8) 0.067(4) Uani 1 1 d . . .
H12A H 0.6147 0.8411 0.5130 0.100 Uiso 1 1 calc R . .
H12B H 0.6612 0.9559 0.5892 0.100 Uiso 1 1 calc R . .
H12C H 0.6968 0.8097 0.5841 0.100 Uiso 1 1 calc R . .
C13 C 0.3593(11) 1.0748(10) 0.1806(6) 0.032(2) Uani 1 1 d . . .
C14 C 0.3198(10) 0.5716(9) 0.1715(5) 0.027(2) Uani 1 1 d . . .
C15 C -0.0039(11) 0.1761(9) 0.0709(5) 0.029(2) Uani 1 1 d . . .
C16 C -0.1661(12) 0.1274(11) 0.0642(6) 0.038(2) Uani 1 1 d . . .
H16 H -0.2203 0.0968 0.0159 0.046 Uiso 1 1 calc R . .
C17 C -0.2475(11) 0.1237(10) 0.1285(7) 0.042(2) Uani 1 1 d . . .
H17 H -0.3580 0.0909 0.1246 0.050 Uiso 1 1 calc R . .
C18 C -0.1653(13) 0.1690(12) 0.1993(7) 0.045(3) Uani 1 1 d . . .
H18 H -0.2183 0.1689 0.2443 0.054 Uiso 1 1 calc R . .
C19 C -0.0035(13) 0.2140(11) 0.2016(6) 0.038(3) Uani 1 1 d . . .
H19 H 0.0537 0.2425 0.2492 0.046 Uiso 1 1 calc R . .
C20 C 0.0909(10) 0.1913(9) 0.0070(5) 0.0277(19) Uani 1 1 d . . .
C21 C 0.0279(11) 0.1477(10) -0.0689(5) 0.034(2) Uani 1 1 d . . .
H21 H -0.0809 0.1066 -0.0803 0.040 Uiso 1 1 calc R . .
C22 C 0.1267(12) 0.1660(10) -0.1252(5) 0.036(2) Uani 1 1 d . . .
H22 H 0.0864 0.1385 -0.1763 0.043 Uiso 1 1 calc R . .
C23 C 0.2857(13) 0.2245(11) -0.1081(6) 0.040(2) Uani 1 1 d . . .
H23 H 0.3541 0.2375 -0.1474 0.048 Uiso 1 1 calc R . .
C24 C 0.3423(11) 0.2626(11) -0.0362(6) 0.037(2) Uani 1 1 d . . .
H24 H 0.4514 0.3022 -0.0255 0.045 Uiso 1 1 calc R . .
C25 C 0.6623(13) 0.4296(12) 0.1594(6) 0.041(2) Uani 1 1 d . . .
H25 H 0.6349 0.4390 0.2101 0.049 Uiso 1 1 calc R . .
C26 C 0.8561(13) 0.4716(11) 0.0671(6) 0.040(3) Uani 1 1 d . . .
H26A H 0.9674 0.5200 0.0674 0.061 Uiso 1 1 calc R . .
H26B H 0.7966 0.5137 0.0377 0.061 Uiso 1 1 calc R . .
H26C H 0.8359 0.3728 0.0444 0.061 Uiso 1 1 calc R . .
C27 C 0.9230(12) 0.5499(12) 0.2101(6) 0.048(3) Uani 1 1 d . . .
H27A H 1.0246 0.5876 0.1908 0.071 Uiso 1 1 calc R . .
H27B H 0.9290 0.4803 0.2399 0.071 Uiso 1 1 calc R . .
H27C H 0.8935 0.6258 0.2417 0.071 Uiso 1 1 calc R . .
N1 N 0.6444(9) 0.9419(8) 0.3759(4) 0.038(2) Uani 1 1 d . . .
H1 H 0.6596 1.0250 0.4043 0.045 Uiso 1 1 calc R . .
N2 N 0.0742(8) 0.2187(8) 0.1394(5) 0.0302(17) Uani 1 1 d . . .
N3 N 0.2501(9) 0.2470(8) 0.0223(4) 0.0288(16) Uani 1 1 d . . .
N4 N 0.8070(9) 0.4846(9) 0.1472(5) 0.037(2) Uani 1 1 d . . .
O1 O 0.3184(8) 1.0461(7) 0.1128(4) 0.0398(18) Uani 1 1 d . . .
O2 O 0.3816(8) 1.1944(6) 0.2214(4) 0.0357(16) Uani 1 1 d . . .
O3 O 0.3486(8) 0.4807(7) 0.2066(4) 0.0348(16) Uani 1 1 d . . .
O4 O 0.2540(9) 0.5434(7) 0.1095(4) 0.044(2) Uani 1 1 d . . .
O5 O 0.5540(8) 0.3636(8) 0.1077(4) 0.0405(17) Uani 1 1 d . . .
Zn1 Zn 0.32300(13) 0.29531(13) 0.13742(7) 0.0280(3) Uani 1 1 d . . .
O9 O 0.671(3) 0.597(3) 0.6432(13) 0.275(13) Uiso 1 1 d . . .
H9A H 0.7063 0.6719 0.6660 0.330 Uiso 1 1 d R . .
H9B H 0.6702 0.5454 0.6755 0.330 Uiso 1 1 d R . .
O10 O 0.623(3) 0.417(3) 0.3515(12) 0.256(11) Uiso 1 1 d . . .
H10A H 0.5364 0.4167 0.3671 0.308 Uiso 1 1 d R . .
H10B H 0.6590 0.3579 0.3677 0.308 Uiso 1 1 d R . .

loop_
_atom_site_aniso_label
_atom_site_aniso_U_11
_atom_site_aniso_U_22
_atom_site_aniso_U_33
_atom_site_aniso_U_23
_atom_site_aniso_U_13
_atom_site_aniso_U_12
C1 0.030(4) 0.036(5) 0.021(4) 0.011(4) -0.001(3) 0.013(4)
C2 0.028(4) 0.007(4) 0.029(5) -0.001(3) 0.000(3) 0.000(3)
C3 0.032(5) 0.039(6) 0.024(5) 0.009(4) 0.000(4) 0.021(4)
C4 0.023(4) 0.020(4) 0.022(4) 0.000(3) 0.000(3) 0.005(3)
C5 0.024(4) 0.023(5) 0.027(5) 0.004(3) -0.001(4) 0.011(4)
C6 0.039(5) 0.030(5) 0.020(4) 0.006(4) -0.003(4) 0.015(4)
C7 0.053(7) 0.049(7) 0.034(6) 0.015(5) -0.015(5) 0.016(6)
C8 0.039(6) 0.051(7) 0.022(5) 0.010(4) 0.001(4) 0.016(5)
C9 0.052(6) 0.069(8) 0.019(5) 0.006(4) -0.010(5) 0.029(6)
C10 0.046(6) 0.072(8) 0.021(5) 0.021(5) 0.001(4) 0.028(6)
C11 0.062(7) 0.081(10) 0.029(6) 0.015(6) 0.001(5) 0.026(7)
C12 0.049(7) 0.103(12) 0.053(8) 0.024(8) 0.001(6) 0.025(8)
C13 0.027(5) 0.023(5) 0.053(7) 0.017(4) 0.002(4) 0.011(4)
C14 0.030(5) 0.014(4) 0.038(5) 0.000(3) -0.004(4) 0.011(4)
C15 0.041(6) 0.022(5) 0.029(5) 0.008(4) 0.004(4) 0.016(5)
C16 0.043(6) 0.037(6) 0.039(6) 0.005(4) 0.005(5) 0.019(5)
C17 0.028(5) 0.034(6) 0.060(8) 0.010(5) 0.008(5) 0.003(4)
C18 0.048(7) 0.047(7) 0.050(7) 0.019(5) 0.029(5) 0.024(6)
C19 0.050(6) 0.033(6) 0.040(6) 0.015(5) 0.008(5) 0.022(5)
C20 0.031(5) 0.019(5) 0.032(5) 0.003(4) -0.001(4) 0.007(4)
C21 0.038(5) 0.032(6) 0.032(5) 0.004(4) -0.009(4) 0.016(5)
C22 0.059(6) 0.026(5) 0.023(5) -0.002(4) 0.001(4) 0.017(5)
C23 0.048(6) 0.039(7) 0.038(5) 0.023(4) 0.008(5) 0.010(5)
C24 0.035(5) 0.052(7) 0.036(5) 0.011(4) 0.012(4) 0.028(5)
C25 0.042(6) 0.044(6) 0.036(6) 0.007(5) 0.001(5) 0.013(5)
C26 0.047(6) 0.036(6) 0.047(7) 0.019(5) 0.011(5) 0.020(5)
C27 0.038(6) 0.041(7) 0.056(7) 0.006(5) -0.014(5) 0.003(5)
N1 0.050(5) 0.033(5) 0.032(4) -0.004(3) -0.019(4) 0.022(4)
N2 0.033(4) 0.039(5) 0.025(4) 0.013(4) 0.008(4) 0.015(4)
N3 0.033(4) 0.026(4) 0.029(4) 0.005(3) 0.001(3) 0.012(3)
N4 0.027(4) 0.038(5) 0.043(5) 0.006(4) -0.004(4) 0.004(4)
O1 0.041(4) 0.045(5) 0.039(4) 0.023(3) -0.007(3) 0.014(4)
O2 0.042(4) 0.018(3) 0.052(4) 0.016(3) -0.002(3) 0.011(3)
O3 0.045(4) 0.029(4) 0.034(4) 0.010(3) -0.005(3) 0.015(3)
O4 0.068(5) 0.033(4) 0.032(4) -0.004(3) -0.023(4) 0.021(4)
O5 0.037(4) 0.046(5) 0.033(4) 0.006(3) -0.007(3) 0.006(4)
Zn1 0.0325(5) 0.0257(5) 0.0283(5) 0.0061(5) -0.0025(5) 0.0125(4)

_geom_special_details            
; 
 All esds (except the esd in the dihedral angle between two l.s. planes) 
 are estimated using the full covariance matrix.  The cell esds are taken 
 into account individually in the estimation of esds in distances, angles 
 and torsion angles; correlations between esds in cell parameters are only 
 used when they are defined by crystal symmetry.  An approximate (isotropic) 
 treatment of cell esds is used for estimating esds involving l.s. planes. 
;

loop_
_geom_bond_atom_site_label_1
_geom_bond_atom_site_label_2
_geom_bond_distance
_geom_bond_site_symmetry_2
_geom_bond_publ_flag
O6 C28 1.261(15) . ?
C28 N5 1.353(17) . ?
C28 H28 0.9500 . ?
N5 C30 1.413(16) . ?
N5 C29 1.488(17) . ?
C29 H29A 0.9800 . ?
C29 H29B 0.9800 . ?
C29 H29C 0.9800 . ?
C30 H30A 0.9800 . ?
C30 H30B 0.9800 . ?
C30 H30C 0.9800 . ?
C1 N1 1.370(10) . ?
C1 C6 1.374(13) . ?
C1 C2 1.410(11) . ?
C2 C3 1.394(12) . ?
C2 H2 0.9500 . ?
C3 C4 1.427(13) . ?
C3 C13 1.518(12) . ?
C4 C5 1.370(12) . ?
C4 H4 0.9500 . ?
C5 C6 1.400(11) . ?
C5 C14 1.528(12) . ?
C6 H6 0.9500 . ?
C7 N1 1.457(11) . ?
C7 C9 1.562(14) . ?
C7 H7A 0.9900 . ?
C7 H7B 0.9900 . ?
C8 C9 1.340(15) . ?
C8 C10 1.393(14) 2_776 ?
C8 C11 1.559(13) . ?
C9 C10 1.438(13) . ?
C10 C8 1.393(14) 2_776 ?
C10 C12 1.539(16) . ?
C11 H11A 0.9800 . ?
C11 H11B 0.9800 . ?
C11 H11C 0.9800 . ?
C12 H12A 0.9800 . ?
C12 H12B 0.9800 . ?
C12 H12C 0.9800 . ?
C13 O1 1.233(11) . ?
C13 O2 1.265(12) . ?
C14 O4 1.208(10) . ?
C14 O3 1.296(10) . ?
C15 N2 1.350(12) . ?
C15 C16 1.395(13) . ?
C15 C20 1.453(13) . ?
C16 C17 1.385(15) . ?
C16 H16 0.9500 . ?
C17 C18 1.401(16) . ?
C17 H17 0.9500 . ?
C18 C19 1.392(15) . ?
C18 H18 0.9500 . ?
C19 N2 1.336(13) . ?
C19 H19 0.9500 . ?
C20 N3 1.383(12) . ?
C20 C21 1.421(12) . ?
C21 C22 1.365(14) . ?
C21 H21 0.9500 . ?
C22 C23 1.388(15) . ?
C22 H22 0.9500 . ?
C23 C24 1.338(14) . ?
C23 H23 0.9500 . ?
C24 N3 1.358(12) . ?
C24 H24 0.9500 . ?
C25 O5 1.282(12) . ?
C25 N4 1.300(13) . ?
C25 H25 0.9500 . ?
C26 N4 1.516(14) . ?
C26 H26A 0.9800 . ?
C26 H26B 0.9800 . ?
C26 H26C 0.9800 . ?
C27 N4 1.455(12) . ?
C27 H27A 0.9800 . ?
C27 H27B 0.9800 . ?
C27 H27C 0.9800 . ?
N1 H1 0.8800 . ?
N2 Zn1 2.151(7) . ?
N3 Zn1 2.102(7) . ?
O1 Zn1 2.487(7) 1_565 ?
O2 Zn1 2.122(6) 1_565 ?
O3 Zn1 2.019(7) . ?
O5 Zn1 2.105(7) . ?
Zn1 O2 2.122(6) 1_545 ?
Zn1 O1 2.487(7) 1_545 ?
O9 H9A 0.7741 . ?
O9 H9B 0.8500 . ?
O10 H10A 0.8367 . ?
O10 H10B 0.8499 . ?

loop_
_geom_angle_atom_site_label_1
_geom_angle_atom_site_label_2
_geom_angle_atom_site_label_3
_geom_angle
_geom_angle_site_symmetry_1
_geom_angle_site_symmetry_3
_geom_angle_publ_flag
O6 C28 N5 111.3(17) . . ?
O6 C28 H28 124.3 . . ?
N5 C28 H28 124.3 . . ?
C28 N5 C30 125.2(13) . . ?
C28 N5 C29 118.9(12) . . ?
C30 N5 C29 115.8(12) . . ?
N5 C29 H29A 109.5 . . ?
N5 C29 H29B 109.5 . . ?
H29A C29 H29B 109.5 . . ?
N5 C29 H29C 109.5 . . ?
H29A C29 H29C 109.5 . . ?
H29B C29 H29C 109.5 . . ?
N5 C30 H30A 109.5 . . ?
N5 C30 H30B 109.5 . . ?
H30A C30 H30B 109.5 . . ?
N5 C30 H30C 109.5 . . ?
H30A C30 H30C 109.5 . . ?
H30B C30 H30C 109.5 . . ?
N1 C1 C6 123.5(8) . . ?
N1 C1 C2 119.0(8) . . ?
C6 C1 C2 117.6(7) . . ?
C3 C2 C1 121.5(8) . . ?
C3 C2 H2 119.2 . . ?
C1 C2 H2 119.2 . . ?
C2 C3 C4 118.9(7) . . ?
C2 C3 C13 122.2(8) . . ?
C4 C3 C13 118.8(8) . . ?
C5 C4 C3 119.5(7) . . ?
C5 C4 H4 120.3 . . ?
C3 C4 H4 120.3 . . ?
C4 C5 C6 120.2(8) . . ?
C4 C5 C14 117.7(7) . . ?
C6 C5 C14 121.8(7) . . ?
C1 C6 C5 122.2(8) . . ?
C1 C6 H6 118.9 . . ?
C5 C6 H6 118.9 . . ?
N1 C7 C9 110.9(9) . . ?
N1 C7 H7A 109.5 . . ?
C9 C7 H7A 109.5 . . ?
N1 C7 H7B 109.5 . . ?
C9 C7 H7B 109.5 . . ?
H7A C7 H7B 108.1 . . ?
C9 C8 C10 122.4(9) . 2_776 ?
C9 C8 C11 119.7(9) . . ?
C10 C8 C11 117.8(10) 2_776 . ?
C8 C9 C10 121.9(10) . . ?
C8 C9 C7 122.9(9) . . ?
C10 C9 C7 115.1(11) . . ?
C8 C10 C9 115.7(10) 2_776 . ?
C8 C10 C12 122.6(9) 2_776 . ?
C9 C10 C12 121.7(10) . . ?
C8 C11 H11A 109.5 . . ?
C8 C11 H11B 109.5 . . ?
H11A C11 H11B 109.5 . . ?
C8 C11 H11C 109.5 . . ?
H11A C11 H11C 109.5 . . ?
H11B C11 H11C 109.5 . . ?
C10 C12 H12A 109.5 . . ?
C10 C12 H12B 109.5 . . ?
H12A C12 H12B 109.5 . . ?
C10 C12 H12C 109.5 . . ?
H12A C12 H12C 109.5 . . ?
H12B C12 H12C 109.5 . . ?
O1 C13 O2 124.0(9) . . ?
O1 C13 C3 119.6(9) . . ?
O2 C13 C3 116.3(9) . . ?
O4 C14 O3 124.4(9) . . ?
O4 C14 C5 120.5(8) . . ?
O3 C14 C5 115.2(8) . . ?
N2 C15 C16 120.5(9) . . ?
N2 C15 C20 115.8(8) . . ?
C16 C15 C20 123.6(9) . . ?
C17 C16 C15 119.7(10) . . ?
C17 C16 H16 120.2 . . ?
C15 C16 H16 120.2 . . ?
C16 C17 C18 119.3(9) . . ?
C16 C17 H17 120.3 . . ?
C18 C17 H17 120.3 . . ?
C19 C18 C17 117.9(10) . . ?
C19 C18 H18 121.1 . . ?
C17 C18 H18 121.1 . . ?
N2 C19 C18 122.5(10) . . ?
N2 C19 H19 118.8