####################################################################### 
# 
# This file contains crystal structure data downloaded from the 
# Cambridge Structural Database (CSD) hosted by the Cambridge 
# Crystallographic Data Centre (CCDC).
# 
# Full information about CCDC data access policies and citation 
# guidelines are available at http://www.ccdc.cam.ac.uk/access/V1 
# 
# Audit and citation data items may have been added by the CCDC. 
# Please retain this information to preserve the provenance of 
# this file and to allow appropriate attribution of the data. 
# 
#######################################################################

data_ALF-6
_audit_block_doi                 10.5517/ccqjsss
_database_code_depnum_ccdc_archive 'CCDC 671546'
loop_
_citation_id
_citation_doi
_citation_year
1 10.1021/ja805272j 2008
_audit_update_record             
;
2007-12-19 deposited with the CCDC.	2024-07-13 downloaded from the CCDC.
;

_audit_creation_method           SHELXL-97
_chemical_name_systematic        
;
?
;
_chemical_name_common            ?
_chemical_melting_point          ?
_chemical_formula_moiety         ?
_chemical_formula_sum            'C16 H16 In N O8 S2'
_chemical_formula_weight         529.26

loop_
_atom_type_symbol
_atom_type_description
_atom_type_scat_dispersion_real
_atom_type_scat_dispersion_imag
_atom_type_scat_source
C C 0.0033 0.0016 'International Tables Vol C Tables 4.2.6.8 and 6.1.1.4'
H H 0.0000 0.0000 'International Tables Vol C Tables 4.2.6.8 and 6.1.1.4'
In In -0.7276 1.3100 'International Tables Vol C Tables 4.2.6.8 and 6.1.1.4'
N N 0.0061 0.0033 'International Tables Vol C Tables 4.2.6.8 and 6.1.1.4'
O O 0.0106 0.0060 'International Tables Vol C Tables 4.2.6.8 and 6.1.1.4'
S S 0.1246 0.1234 'International Tables Vol C Tables 4.2.6.8 and 6.1.1.4'

_symmetry_cell_setting           Tetragonal
_symmetry_space_group_name_H-M   P4(3)22

loop_
_symmetry_equiv_pos_as_xyz
'x, y, z'
'-y, x, z+3/4'
'-x, -y, z+1/2'
'y, -x, z+1/4'
'x, -y, -z+1/2'
'y, x, -z+1/4'
'-x, y, -z'
'-y, -x, -z+3/4'

_cell_length_a                   13.5065(2)
_cell_length_b                   13.5065(2)
_cell_length_c                   15.9076(4)
_cell_angle_alpha                90.00
_cell_angle_beta                 90.00
_cell_angle_gamma                90.00
_cell_volume                     2901.95(9)
_cell_formula_units_Z            4
_cell_measurement_temperature    293(2)
_cell_measurement_reflns_used    2120
_cell_measurement_theta_min      2.49
_cell_measurement_theta_max      16.71

_exptl_crystal_description       ?
_exptl_crystal_colour            ?
_exptl_crystal_size_max          ?
_exptl_crystal_size_mid          ?
_exptl_crystal_size_min          ?
_exptl_crystal_density_meas      0
_exptl_crystal_density_diffrn    1.211
_exptl_crystal_density_method    'not measured'
_exptl_crystal_F_000             1056
_exptl_absorpt_coefficient_mu    0.988
_exptl_absorpt_correction_type   none
_exptl_absorpt_correction_T_min  ?
_exptl_absorpt_correction_T_max  ?
_exptl_absorpt_process_details   ?

_exptl_special_details           
;
?
;

_diffrn_ambient_temperature      293(2)
_diffrn_radiation_wavelength     0.71073
_diffrn_radiation_type           MoK\a
_diffrn_radiation_source         'fine-focus sealed tube'
_diffrn_radiation_monochromator  graphite
_diffrn_measurement_device_type  'CCD area detector'
_diffrn_measurement_method       'phi and omega scans'
_diffrn_detector_area_resol_mean ?
_diffrn_standards_number         ?
_diffrn_standards_interval_count ?
_diffrn_standards_interval_time  ?
_diffrn_standards_decay_%        ?
_diffrn_reflns_number            16733
_diffrn_reflns_av_R_equivalents  0.0994
_diffrn_reflns_av_sigmaI/netI    0.1094
_diffrn_reflns_limit_h_min       -11
_diffrn_reflns_limit_h_max       16
_diffrn_reflns_limit_k_min       -16
_diffrn_reflns_limit_k_max       13
_diffrn_reflns_limit_l_min       -16
_diffrn_reflns_limit_l_max       18
_diffrn_reflns_theta_min         1.51
_diffrn_reflns_theta_max         25.01
_reflns_number_total             2563
_reflns_number_gt                1833
_reflns_threshold_expression     >2sigma(I)

_computing_data_collection       'Bruker SMART'
_computing_cell_refinement       'Bruker SMART'
_computing_data_reduction        'Bruker SAINT'
_computing_structure_solution    'SHELXS-97 (Sheldrick, 1990)'
_computing_structure_refinement  'SHELXL-97 (Sheldrick, 1997)'
_computing_molecular_graphics    'Bruker SHELXTL'
_computing_publication_material  'Bruker SHELXTL'

_refine_special_details          
;
Refinement of F^2^ against ALL reflections. The weighted R-factor wR and
goodness of fit S are based on F^2^, conventional R-factors R are based
on F, with F set to zero for negative F^2^. The threshold expression of
F^2^ > 2sigma(F^2^) is used only for calculating R-factors(gt) etc. and is
not relevant to the choice of reflections for refinement. R-factors based
on F^2^ are statistically about twice as large as those based on F, and R-
factors based on ALL data will be even larger.
;

_refine_ls_structure_factor_coef Fsqd
_refine_ls_matrix_type           full
_refine_ls_weighting_scheme      calc
_refine_ls_weighting_details     
'calc w=1/[\s^2^(Fo^2^)+(0.1051P)^2^+0.0000P] where P=(Fo^2^+2Fc^2^)/3'
_atom_sites_solution_primary     direct
_atom_sites_solution_secondary   difmap
_atom_sites_solution_hydrogens   geom
_refine_ls_hydrogen_treatment    constr
_refine_ls_extinction_method     SHELXL
_refine_ls_extinction_coef       0.0096(14)
_refine_ls_extinction_expression Fc^*^=kFc[1+0.001xFc^2^\l^3^/sin(2\q)]^-1/4^
_refine_ls_abs_structure_details 'Flack H D (1983), Acta Cryst. A39, 876-881'
_refine_ls_abs_structure_Flack   0.0(7)
_refine_ls_number_reflns         2563
_refine_ls_number_parameters     117
_refine_ls_number_restraints     3
_refine_ls_R_factor_all          0.0819
_refine_ls_R_factor_gt           0.0597
_refine_ls_wR_factor_ref         0.1988
_refine_ls_wR_factor_gt          0.1903
_refine_ls_goodness_of_fit_ref   1.092
_refine_ls_restrained_S_all      1.092
_refine_ls_shift/su_max          0.003
_refine_ls_shift/su_mean         0.000

loop_
_atom_site_label
_atom_site_type_symbol
_atom_site_fract_x
_atom_site_fract_y
_atom_site_fract_z
_atom_site_U_iso_or_equiv
_atom_site_adp_type
_atom_site_occupancy
_atom_site_symmetry_multiplicity
_atom_site_calc_flag
_atom_site_refinement_flags
_atom_site_disorder_assembly
_atom_site_disorder_group
In1 In 0.0000 0.58199(8) 0.5000 0.0280(4) Uani 1 2 d S . .
S1 S 0.2211(2) 0.2867(3) 0.3902(2) 0.0431(9) Uani 1 1 d . . .
O1 O 0.1211(6) 0.4561(6) 0.4836(5) 0.048(2) Uani 1 1 d . . .
O2 O 0.0249(5) 0.5027(6) 0.3803(5) 0.043(2) Uani 1 1 d . . .
O4 O 0.2996(7) 0.1061(7) 0.2071(5) 0.045(2) Uani 1 1 d . . .
O3 O 0.3485(7) 0.1139(5) 0.3400(5) 0.044(2) Uani 1 1 d . . .
C4 C 0.2262(9) 0.2289(9) 0.2938(7) 0.039(3) Uani 1 1 d . . .
C1 C 0.1349(9) 0.3661(8) 0.3560(7) 0.041(3) Uani 1 1 d . . .
C5 C 0.0929(9) 0.4485(9) 0.4097(8) 0.039(3) Uani 1 1 d . . .
C6 C 0.2911(10) 0.1474(10) 0.2798(9) 0.045(3) Uani 1 1 d . . .
C2 C 0.1110(9) 0.3533(10) 0.2715(7) 0.051(4) Uani 1 1 d . . .
H2A H 0.0690 0.3945 0.2411 0.061 Uiso 1 1 calc R . .
C3 C 0.1595(11) 0.2686(10) 0.2381(8) 0.065(4) Uani 1 1 d . . .
H3A H 0.1475 0.2430 0.1848 0.078 Uiso 1 1 calc R . .
N1 N 0.5000 0.165(2) 0.5000 0.198(14) Uiso 1 2 d SD . .
C21 C 0.446(4) 0.216(3) 0.571(2) 0.36(3) Uiso 1 1 d D . .
C22 C 0.429(5) 0.328(3) 0.552(3) 0.48(4) Uiso 1 1 d D . .

loop_
_atom_site_aniso_label
_atom_site_aniso_U_11
_atom_site_aniso_U_22
_atom_site_aniso_U_33
_atom_site_aniso_U_23
_atom_site_aniso_U_13
_atom_site_aniso_U_12
In1 0.0259(7) 0.0282(7) 0.0299(6) 0.000 -0.0010(6) 0.000
S1 0.046(2) 0.0461(19) 0.0369(19) -0.0076(16) -0.0044(16) 0.0164(16)
O1 0.059(6) 0.048(5) 0.037(5) -0.009(4) -0.003(5) 0.015(4)
O2 0.042(5) 0.036(4) 0.051(5) 0.001(4) 0.007(4) 0.010(4)
O4 0.047(6) 0.054(6) 0.034(5) 0.005(4) 0.006(4) 0.013(4)
O3 0.065(6) 0.032(5) 0.036(4) -0.009(4) -0.010(4) 0.020(5)
C4 0.041(8) 0.041(8) 0.034(7) -0.003(6) 0.005(6) 0.012(6)
C1 0.041(7) 0.035(7) 0.045(7) -0.008(6) 0.007(6) 0.019(6)
C5 0.031(7) 0.035(7) 0.050(8) -0.008(6) 0.017(6) -0.003(6)
C6 0.038(8) 0.049(9) 0.048(8) 0.002(7) 0.011(6) -0.007(7)
C2 0.058(9) 0.058(9) 0.036(7) -0.011(6) -0.009(6) 0.033(7)
C3 0.092(12) 0.066(10) 0.038(8) 0.008(8) 0.000(9) 0.036(8)

_geom_special_details            
;
All esds (except the esd in the dihedral angle between two l.s. planes)
are estimated using the full covariance matrix. The cell esds are taken
into account individually in the estimation of esds in distances, angles
and torsion angles; correlations between esds in cell parameters are only
used when they are defined by crystal symmetry. An approximate (isotropic)
treatment of cell esds is used for estimating esds involving l.s. planes.
;

loop_
_geom_bond_atom_site_label_1
_geom_bond_atom_site_label_2
_geom_bond_distance
_geom_bond_site_symmetry_2
_geom_bond_publ_flag
In1 O2 2.211(8) . ?
In1 O2 2.211(8) 7_556 ?
In1 O4 2.253(8) 4_565 ?
In1 O4 2.253(8) 8_565 ?
In1 O3 2.301(7) 4_565 ?
In1 O3 2.301(7) 8_565 ?
In1 O1 2.373(8) 7_556 ?
In1 O1 2.373(8) . ?
In1 C5 2.624(12) 7_556 ?
In1 C5 2.624(12) . ?
In1 C6 2.670(13) 4_565 ?
In1 C6 2.670(13) 8_565 ?
S1 C1 1.673(11) . ?
S1 C4 1.722(12) . ?
O1 C5 1.240(14) . ?
O2 C5 1.264(14) . ?
O4 C6 1.290(14) . ?
O4 In1 2.253(8) 2_654 ?
O3 C6 1.312(14) . ?
O3 In1 2.301(7) 2_654 ?
C4 C3 1.372(17) . ?
C4 C6 1.424(16) . ?
C1 C2 1.394(16) . ?
C1 C5 1.514(15) . ?
C6 In1 2.670(13) 2_654 ?
C2 C3 1.421(17) . ?
C2 H2A 0.9300 . ?
C3 H3A 0.9300 . ?
N1 C21 1.508(19) . ?
N1 C21 1.508(19) 7_656 ?
C21 C22 1.55(2) . ?

loop_
_geom_angle_atom_site_label_1
_geom_angle_atom_site_label_2
_geom_angle_atom_site_label_3
_geom_angle
_geom_angle_site_symmetry_1
_geom_angle_site_symmetry_3
_geom_angle_publ_flag
O2 In1 O2 122.0(4) . 7_556 ?
O2 In1 O4 89.2(3) . 4_565 ?
O2 In1 O4 134.6(3) 7_556 4_565 ?
O2 In1 O4 134.6(3) . 8_565 ?
O2 In1 O4 89.2(3) 7_556 8_565 ?
O4 In1 O4 89.5(5) 4_565 8_565 ?
O2 In1 O3 129.2(3) . 4_565 ?
O2 In1 O3 76.3(3) 7_556 4_565 ?
O4 In1 O3 58.2(3) 4_565 4_565 ?
O4 In1 O3 87.0(3) 8_565 4_565 ?
O2 In1 O3 76.3(3) . 8_565 ?
O2 In1 O3 129.2(3) 7_556 8_565 ?
O4 In1 O3 87.0(3) 4_565 8_565 ?
O4 In1 O3 58.2(3) 8_565 8_565 ?
O3 In1 O3 131.8(4) 4_565 8_565 ?
O2 In1 O1 81.5(3) . 7_556 ?
O2 In1 O1 56.9(3) 7_556 7_556 ?
O4 In1 O1 168.5(3) 4_565 7_556 ?
O4 In1 O1 92.1(3) 8_565 7_556 ?
O3 In1 O1 133.2(3) 4_565 7_556 ?
O3 In1 O1 84.3(3) 8_565 7_556 ?
O2 In1 O1 56.9(3) . . ?
O2 In1 O1 81.5(3) 7_556 . ?
O4 In1 O1 92.1(3) 4_565 . ?
O4 In1 O1 168.5(3) 8_565 . ?
O3 In1 O1 84.3(3) 4_565 . ?
O3 In1 O1 133.2(3) 8_565 . ?
O1 In1 O1 88.5(4) 7_556 . ?
O2 In1 C5 102.2(4) . 7_556 ?
O2 In1 C5 28.7(3) 7_556 7_556 ?
O4 In1 C5 163.2(4) 4_565 7_556 ?
O4 In1 C5 91.1(3) 8_565 7_556 ?
O3 In1 C5 105.0(4) 4_565 7_556 ?
O3 In1 C5 107.5(4) 8_565 7_556 ?
O1 In1 C5 28.2(3) 7_556 7_556 ?
O1 In1 C5 84.1(3) . 7_556 ?
O2 In1 C5 28.7(3) . . ?
O2 In1 C5 102.2(4) 7_556 . ?
O4 In1 C5 91.1(3) 4_565 . ?
O4 In1 C5 163.2(4) 8_565 . ?
O3 In1 C5 107.5(4) 4_565 . ?
O3 In1 C5 105.0(4) 8_565 . ?
O1 In1 C5 84.1(3) 7_556 . ?
O1 In1 C5 28.2(3) . . ?
C5 In1 C5 93.2(5) 7_556 . ?
O2 In1 C6 110.5(3) . 4_565 ?
O2 In1 C6 105.8(4) 7_556 4_565 ?
O4 In1 C6 28.8(3) 4_565 4_565 ?
O4 In1 C6 88.0(3) 8_565 4_565 ?
O3 In1 C6 29.4(3) 4_565 4_565 ?
O3 In1 C6 110.3(4) 8_565 4_565 ?
O1 In1 C6 162.6(4) 7_556 4_565 ?
O1 In1 C6 88.0(4) . 4_565 ?
C5 In1 C6 134.5(4) 7_556 4_565 ?
C5 In1 C6 100.5(4) . 4_565 ?
O2 In1 C6 105.8(4) . 8_565 ?
O2 In1 C6 110.5(3) 7_556 8_565 ?
O4 In1 C6 88.0(3) 4_565 8_565 ?
O4 In1 C6 28.8(3) 8_565 8_565 ?
O3 In1 C6 110.3(4) 4_565 8_565 ?
O3 In1 C6 29.4(3) 8_565 8_565 ?
O1 In1 C6 88.0(4) 7_556 8_565 ?
O1 In1 C6 162.6(4) . 8_565 ?
C5 In1 C6 100.5(4) 7_556 8_565 ?
C5 In1 C6 134.5(4) . 8_565 ?
C6 In1 C6 100.1(6) 4_565 8_565 ?
C1 S1 C4 91.7(6) . . ?
C5 O1 In1 87.2(7) . . ?
C5 O2 In1 94.1(7) . . ?
C6 O4 In1 93.8(7) . 2_654 ?
C6 O3 In1 91.1(7) . 2_654 ?
C3 C4 C6 127.3(12) . . ?
C3 C4 S1 111.8(9) . . ?
C6 C4 S1 120.9(10) . . ?
C2 C1 C5 123.3(11) . . ?
C2 C1 S1 113.3(8) . . ?
C5 C1 S1 123.2(9) . . ?
O1 C5 O2 121.8(11) . . ?
O1 C5 C1 118.8(12) . . ?
O2 C5 C1 119.2(11) . . ?
O1 C5 In1 64.6(6) . . ?
O2 C5 In1 57.2(6) . . ?
C1 C5 In1 173.4(8) . . ?
O4 C6 O3 116.9(11) . . ?
O4 C6 C4 121.9(12) . . ?
O3 C6 C4 121.1(12) . . ?
O4 C6 In1 57.4(6) . 2_654 ?
O3 C6 In1 59.5(6) . 2_654 ?
C4 C6 In1 177.5(10) . 2_654 ?
C1 C2 C3 110.7(11) . . ?
C1 C2 H2A 124.7 . . ?
C3 C2 H2A 124.7 . . ?
C4 C3 C2 112.1(12) . . ?
C4 C3 H3A 123.9 . . ?
C2 C3 H3A 123.9 . . ?
C21 N1 C21 126(3) . 7_656 ?
N1 C21 C22 112(2) . . ?

_diffrn_measured_fraction_theta_max 1.000
_diffrn_reflns_theta_full        25.01
_diffrn_measured_fraction_theta_full 1.000
_refine_diff_density_max         0.911
_refine_diff_density_min         -0.492
_refine_diff_density_rms         0.178
