####################################################################### 
# 
# This file contains crystal structure data downloaded from the 
# Cambridge Structural Database (CSD) hosted by the Cambridge 
# Crystallographic Data Centre (CCDC).
# 
# Full information about CCDC data access policies and citation 
# guidelines are available at http://www.ccdc.cam.ac.uk/access/V1 
# 
# Audit and citation data items may have been added by the CCDC. 
# Please retain this information to preserve the provenance of 
# this file and to allow appropriate attribution of the data. 
# 
#######################################################################

data_5
_audit_block_doi                 10.5517/cc125d6v
_database_code_depnum_ccdc_archive 'CCDC 988286'
loop_
_citation_id
_citation_doi
_citation_year
1 10.1021/cg500286v 2014
_audit_update_record             
;
2014-02-23 deposited with the CCDC.	2024-07-13 downloaded from the CCDC.
;



_audit_creation_method           SHELXL-97

_chemical_name_systematic        
; 

 ? 

;

_chemical_name_common            ?

_chemical_melting_point          ?

_chemical_formula_moiety         ?

_chemical_formula_sum            
'C31 H38 Er N4 O12.50'

_chemical_formula_weight         833.91



loop_

_atom_type_symbol

_atom_type_description

_atom_type_scat_dispersion_real

_atom_type_scat_dispersion_imag

_atom_type_scat_source










C C 0.0033 0.0016 'International Tables Vol C Tables 4.2.6.8 and 6.1.1.4'
H H 0.0000 0.0000 'International Tables Vol C Tables 4.2.6.8 and 6.1.1.4'
Er Er -0.2586 4.9576 'International Tables Vol C Tables 4.2.6.8 and 6.1.1.4'
N N 0.0061 0.0033 'International Tables Vol C Tables 4.2.6.8 and 6.1.1.4'
O O 0.0106 0.0060 'International Tables Vol C Tables 4.2.6.8 and 6.1.1.4'



_symmetry_cell_setting           monoclinic

_symmetry_space_group_name_H-M   P-1



loop_

_symmetry_equiv_pos_as_xyz


'x, y, z'
'-x, -y, -z'



_cell_length_a                   11.8978(4)

_cell_length_b                   12.4423(4)

_cell_length_c                   13.2083(5)

_cell_angle_alpha                84.049(3)

_cell_angle_beta                 85.054(3)

_cell_angle_gamma                85.456(3)

_cell_volume                     1932.65(12)

_cell_formula_units_Z            2

_cell_measurement_temperature    293(2)

_cell_measurement_reflns_used    ?

_cell_measurement_theta_min      ?

_cell_measurement_theta_max      ?



_exptl_crystal_description       ?

_exptl_crystal_colour            ?

_exptl_crystal_size_max          ?

_exptl_crystal_size_mid          ?

_exptl_crystal_size_min          ?

_exptl_crystal_density_meas      ?

_exptl_crystal_density_diffrn    1.433

_exptl_crystal_density_method    'not measured'

_exptl_crystal_F_000             840

_exptl_absorpt_coefficient_mu    2.232

_exptl_absorpt_correction_type   multi-scan

_exptl_absorpt_correction_T_min  ?

_exptl_absorpt_correction_T_max  ?

_exptl_absorpt_process_details   ?



_exptl_special_details           
; 

 ? 

;



_diffrn_ambient_temperature      293(2)

_diffrn_radiation_wavelength     0.71073

_diffrn_radiation_type           MoK\a

_diffrn_radiation_source         'fine-focus sealed tube'

_diffrn_radiation_monochromator  graphite

_diffrn_measurement_device_type  ?

_diffrn_measurement_method       ?

_diffrn_detector_area_resol_mean ?

_diffrn_standards_number         ?

_diffrn_standards_interval_count ?

_diffrn_standards_interval_time  ?

_diffrn_standards_decay_%        ?

_diffrn_reflns_number            13979

_diffrn_reflns_av_R_equivalents  0.0312

_diffrn_reflns_av_sigmaI/netI    0.0555

_diffrn_reflns_limit_h_min       -14

_diffrn_reflns_limit_h_max       14

_diffrn_reflns_limit_k_min       -13

_diffrn_reflns_limit_k_max       15

_diffrn_reflns_limit_l_min       -16

_diffrn_reflns_limit_l_max       16

_diffrn_reflns_theta_min         2.93

_diffrn_reflns_theta_max         26.00

_reflns_number_total             7585

_reflns_number_gt                6579

_reflns_threshold_expression     >2sigma(I)



_computing_data_collection       'SMART (Bruker, 2001)'

_computing_cell_refinement       'SAINT (Bruker, 2001)'

_computing_data_reduction        'SAINT (Bruker, 2001)'

_computing_structure_solution    'SHELXS97 (Sheldrick, 1997)'

_computing_structure_refinement  'SHELXL97 (Sheldrick, 1997)'

_computing_molecular_graphics    'SHELXTL (Bruker, 2001)'

_computing_publication_material  'SHELXTL (Bruker, 2001)'



_refine_special_details          
; 

 Refinement of F^2^ against ALL reflections.  The weighted R-factor wR and 

 goodness of fit S are based on F^2^, conventional R-factors R are based 

 on F, with F set to zero for negative F^2^. The threshold expression of 

 F^2^ > 2sigma(F^2^) is used only for calculating R-factors(gt) etc. and is 

 not relevant to the choice of reflections for refinement.  R-factors based 

 on F^2^ are statistically about twice as large as those based on F, and R- 

 factors based on ALL data will be even larger. 

;



_refine_ls_structure_factor_coef Fsqd

_refine_ls_matrix_type           full

_refine_ls_weighting_scheme      calc

_refine_ls_weighting_details     
'calc w=1/[\s^2^(Fo^2^)+(0.0773P)^2^+16.6900P] where P=(Fo^2^+2Fc^2^)/3'

_atom_sites_solution_primary     direct

_atom_sites_solution_secondary   difmap

_atom_sites_solution_hydrogens   geom

_refine_ls_hydrogen_treatment    mixed

_refine_ls_extinction_method     none

_refine_ls_extinction_coef       ?

_refine_ls_number_reflns         7585

_refine_ls_number_parameters     437

_refine_ls_number_restraints     0

_refine_ls_R_factor_all          0.0687

_refine_ls_R_factor_gt           0.0590

_refine_ls_wR_factor_ref         0.1464

_refine_ls_wR_factor_gt          0.1420

_refine_ls_goodness_of_fit_ref   1.033

_refine_ls_restrained_S_all      1.033

_refine_ls_shift/su_max          0.002

_refine_ls_shift/su_mean         0.000



loop_

_atom_site_label

_atom_site_type_symbol

_atom_site_fract_x

_atom_site_fract_y

_atom_site_fract_z

_atom_site_U_iso_or_equiv

_atom_site_adp_type

_atom_site_occupancy

_atom_site_symmetry_multiplicity

_atom_site_calc_flag

_atom_site_refinement_flags

_atom_site_disorder_assembly

_atom_site_disorder_group
























































































Er1 Er 0.64565(2) 1.06371(2) 0.39396(2) 0.01488(11) Uiso 1 1 d . . .
C1 C 0.6411(6) 0.5358(5) 0.2930(5) 0.0181(14) Uani 1 1 d . . .
C2 C 0.6977(6) 0.6315(6) 0.2749(6) 0.0219(15) Uani 1 1 d . . .
H2A H 0.7645 0.6331 0.2329 0.026 Uiso 1 1 calc R . .
C3 C 0.6548(6) 0.7233(6) 0.3190(6) 0.0216(15) Uani 1 1 d . . .
H3A H 0.6938 0.7858 0.3066 0.026 Uiso 1 1 calc R . .
C4 C 0.5540(6) 0.7248(5) 0.3818(5) 0.0166(13) Uani 1 1 d . . .
C5 C 0.4980(6) 0.6288(6) 0.3995(5) 0.0203(15) Uani 1 1 d . . .
H5A H 0.4311 0.6274 0.4414 0.024 Uiso 1 1 calc R . .
C6 C 0.5400(6) 0.5373(6) 0.3563(6) 0.0218(15) Uani 1 1 d . . .
H6A H 0.5009 0.4749 0.3690 0.026 Uiso 1 1 calc R . .
C7 C 0.5092(6) 0.8234(5) 0.4319(5) 0.0178(14) Uani 1 1 d . . .
C8 C 1.0261(6) 0.1572(6) 0.0125(6) 0.0248(16) Uani 1 1 d . . .
C9 C 0.9891(6) 0.1714(6) -0.0858(6) 0.0275(17) Uani 1 1 d . . .
H9A H 0.9210 0.2107 -0.0980 0.033 Uiso 1 1 calc R . .
C10 C 1.0541(7) 0.1269(7) -0.1650(7) 0.0292(17) Uani 1 1 d . . .
H10A H 1.0300 0.1385 -0.2306 0.035 Uiso 1 1 calc R . .
C11 C 1.1540(6) 0.0656(6) -0.1487(6) 0.0240(16) Uani 1 1 d . . .
C12 C 1.1873(7) 0.0469(6) -0.0488(6) 0.0290(17) Uani 1 1 d . . .
H12A H 1.2530 0.0038 -0.0360 0.035 Uiso 1 1 calc R . .
C13 C 1.1241(7) 0.0914(7) 0.0306(6) 0.0289(17) Uani 1 1 d . . .
H13A H 1.1467 0.0775 0.0966 0.035 Uiso 1 1 calc R . .
C14 C 1.2234(6) 0.0212(6) -0.2349(6) 0.0223(15) Uani 1 1 d . . .
C15 C 0.7704(6) 0.6105(6) -0.1302(6) 0.0238(16) Uani 1 1 d . . .
C16 C 0.6598(6) 0.5780(6) -0.1219(6) 0.0255(16) Uani 1 1 d . . .
H16A H 0.6418 0.5158 -0.0803 0.031 Uiso 1 1 calc R . .
C17 C 0.5772(6) 0.6375(6) -0.1749(6) 0.0240(16) Uani 1 1 d . . .
H17A H 0.5040 0.6152 -0.1681 0.029 Uiso 1 1 calc R . .
C18 C 0.6018(6) 0.7304(6) -0.2383(6) 0.0205(15) Uani 1 1 d . . .
C19 C 0.7131(6) 0.7625(6) -0.2475(7) 0.0298(18) Uani 1 1 d . . .
H19A H 0.7308 0.8246 -0.2895 0.036 Uiso 1 1 calc R . .
C20 C 0.7956(6) 0.7036(7) -0.1958(7) 0.0315(19) Uani 1 1 d . . .
H20A H 0.8691 0.7253 -0.2039 0.038 Uiso 1 1 calc R . .
C21 C 0.5133(6) 0.7957(6) -0.2946(5) 0.0168(14) Uani 1 1 d . . .
C22 C 0.7598(6) 0.4224(6) 0.1732(5) 0.0199(14) Uani 1 1 d . . .
C23 C 0.7676(6) 0.4987(6) 0.0872(6) 0.0221(15) Uani 1 1 d . . .
H23A H 0.7229 0.5636 0.0854 0.027 Uiso 1 1 calc R . .
C24 C 0.8432(6) 0.4757(6) 0.0051(6) 0.0227(15) Uani 1 1 d . . .
C25 C 0.9106(6) 0.3793(6) 0.0059(6) 0.0231(15) Uani 1 1 d . . .
H25A H 0.9632 0.3672 -0.0488 0.028 Uiso 1 1 calc R . .
C26 C 0.8992(6) 0.3002(6) 0.0891(5) 0.0174(14) Uani 1 1 d . . .
C27 C 0.8235(6) 0.3240(6) 0.1727(6) 0.0206(15) Uani 1 1 d . . .
H27A H 0.8159 0.2728 0.2290 0.025 Uiso 1 1 calc R . .
C28 C 0.5419(13) 0.8263(14) 0.0366(12) 0.091(5) Uani 1 1 d . . .
H28A H 0.5720 0.8709 0.0813 0.137 Uiso 1 1 calc R . .
H28B H 0.5551 0.8567 -0.0328 0.137 Uiso 1 1 calc R . .
H28C H 0.5784 0.7546 0.0445 0.137 Uiso 1 1 calc R . .
C29 C 0.3601(11) 0.7558(13) -0.0002(12) 0.086(5) Uani 1 1 d . . .
H29A H 0.2811 0.7583 0.0220 0.129 Uiso 1 1 calc R . .
H29B H 0.3914 0.6822 0.0070 0.129 Uiso 1 1 calc R . .
H29C H 0.3696 0.7845 -0.0705 0.129 Uiso 1 1 calc R . .
C30 C 0.3631(16) 0.8681(10) 0.1397(11) 0.086(5) Uani 1 1 d . . .
C31 C 0.2654(8) 0.8543(12) 0.1612(10) 0.079(5) Uani 1 1 d . . .
H31A H 0.2407 0.8057 0.1170 0.119 Uiso 1 1 calc R . .
H31B H 0.2216 0.9224 0.1531 0.119 Uiso 1 1 calc R . .
H31C H 0.2552 0.8235 0.2308 0.119 Uiso 1 1 calc R . .
N1 N 0.6836(5) 0.4386(5) 0.2578(5) 0.0202(12) Uani 1 1 d . . .
H1A H 0.6603 0.3810 0.2922 0.024 Uiso 1 1 calc R . .
N2 N 0.9640(5) 0.2029(5) 0.0943(5) 0.0274(14) Uani 1 1 d . . .
H2B H 0.9665 0.1669 0.1534 0.033 Uiso 1 1 calc R . .
N3 N 0.8565(5) 0.5517(5) -0.0821(5) 0.0264(14) Uani 1 1 d . . .
H3B H 0.9244 0.5618 -0.1070 0.032 Uiso 1 1 calc R . .
N4 N 0.4188(9) 0.8210(8) 0.0626(9) 0.068(3) Uani 1 1 d . . .
O1 O 0.5639(4) 0.9063(4) 0.4171(4) 0.0217(11) Uani 1 1 d . . .
O2 O 0.4184(4) 0.8175(4) 0.4880(4) 0.0230(11) Uani 1 1 d . . .
O3 O 1.3133(5) -0.0375(5) -0.2195(4) 0.0337(14) Uani 1 1 d . . .
O4 O 1.1940(4) 0.0414(4) -0.3258(4) 0.0270(12) Uani 1 1 d . . .
O5 O 0.5378(4) 0.8862(4) -0.3436(4) 0.0165(10) Uani 1 1 d . . .
O6 O 0.4153(4) 0.7643(4) -0.2947(4) 0.0208(10) Uani 1 1 d . . .
O7 O 0.4332(16) 0.9409(13) 0.1931(12) 0.162(7) Uani 1 1 d . . .
O1W O 0.8024(4) 1.1590(4) 0.4066(4) 0.0242(11) Uani 1 1 d . . .
H1WA H 0.8436 1.1425 0.4562 0.029 Uiso 1 1 d R . .
H1WB H 0.8187 1.2105 0.3616 0.029 Uiso 1 1 d R . .
O2W O 0.7144(4) 0.9752(4) 0.5446(4) 0.0209(11) Uani 1 1 d . . .
H2WA H 0.7735 0.9952 0.5670 0.025 Uiso 1 1 d R . .
H2WB H 0.6801 0.9230 0.5768 0.025 Uiso 1 1 d R . .
O3W O 0.080(3) 0.400(2) 0.4223(15) 0.21(2) Uani 0.50 1 d P . .
H3WA H 0.1276 0.3483 0.4414 0.252 Uiso 0.50 1 d PR . .
H3WB H 0.0099 0.3936 0.4362 0.252 Uiso 0.50 1 d PR . .
O4W O 0.9357(13) 0.8144(9) 0.4697(13) 0.167(8) Uani 1 1 d . . .
H4WA H 0.9258 0.8307 0.5310 0.201 Uiso 1 1 d R . .
H4WB H 1.0010 0.8161 0.4381 0.201 Uiso 1 1 d R . .
O5W O 0.1579(6) 0.9267(6) 0.3333(6) 0.0531(19) Uani 1 1 d . . .
H5WA H 0.1282 0.8905 0.2927 0.064 Uiso 1 1 d R . .
H5WB H 0.1217 0.9822 0.3556 0.064 Uiso 1 1 d R . .
O6W O 0.0209(5) 0.1219(5) 0.3266(5) 0.0413(15) Uani 1 1 d . . .
H6WA H 0.0255 0.1047 0.3902 0.050 Uiso 1 1 d R . .
H6WB H -0.0138 0.0830 0.2921 0.050 Uiso 1 1 d R . .



loop_

_atom_site_aniso_label

_atom_site_aniso_U_11

_atom_site_aniso_U_22

_atom_site_aniso_U_33

_atom_site_aniso_U_23

_atom_site_aniso_U_13

_atom_site_aniso_U_12
















































C1 0.024(3) 0.010(3) 0.020(3) -0.003(3) -0.001(3) 0.001(3)
C2 0.015(3) 0.019(4) 0.031(4) -0.010(3) 0.009(3) -0.001(3)
C3 0.025(4) 0.013(3) 0.028(4) -0.008(3) 0.002(3) -0.002(3)
C4 0.019(3) 0.013(3) 0.019(3) -0.006(3) 0.001(3) 0.002(3)
C5 0.021(3) 0.021(4) 0.020(3) -0.005(3) 0.006(3) -0.005(3)
C6 0.027(4) 0.015(3) 0.023(4) -0.003(3) 0.006(3) -0.007(3)
C7 0.020(3) 0.012(3) 0.023(4) -0.002(3) -0.009(3) 0.002(3)
C8 0.029(4) 0.014(4) 0.029(4) -0.003(3) 0.008(3) -0.001(3)
C9 0.022(4) 0.025(4) 0.036(4) -0.009(3) -0.001(3) 0.002(3)
C10 0.028(4) 0.027(4) 0.034(4) -0.011(3) 0.003(3) -0.002(3)
C11 0.029(4) 0.014(4) 0.027(4) -0.005(3) 0.007(3) -0.002(3)
C12 0.035(4) 0.020(4) 0.029(4) -0.001(3) 0.007(3) 0.010(3)
C13 0.032(4) 0.028(4) 0.024(4) -0.004(3) 0.005(3) 0.005(3)
C14 0.025(4) 0.017(4) 0.023(4) -0.002(3) 0.012(3) -0.001(3)
C15 0.025(4) 0.018(4) 0.028(4) 0.002(3) -0.005(3) -0.005(3)
C16 0.027(4) 0.023(4) 0.026(4) 0.008(3) -0.007(3) -0.008(3)
C17 0.021(4) 0.028(4) 0.024(4) 0.002(3) -0.003(3) -0.007(3)
C18 0.021(3) 0.017(4) 0.024(4) 0.000(3) -0.003(3) -0.001(3)
C19 0.025(4) 0.023(4) 0.041(5) 0.009(3) -0.006(3) -0.009(3)
C20 0.020(4) 0.028(4) 0.045(5) 0.013(4) -0.010(3) -0.009(3)
C21 0.018(3) 0.017(3) 0.016(3) -0.005(3) 0.004(3) -0.003(3)
C22 0.021(3) 0.020(4) 0.019(3) -0.005(3) 0.001(3) -0.001(3)
C23 0.020(3) 0.014(3) 0.032(4) -0.004(3) -0.004(3) 0.002(3)
C24 0.020(3) 0.025(4) 0.024(4) 0.002(3) -0.006(3) -0.004(3)
C25 0.016(3) 0.029(4) 0.025(4) -0.009(3) 0.001(3) 0.000(3)
C26 0.016(3) 0.018(3) 0.018(3) -0.005(3) 0.001(3) 0.005(3)
C27 0.024(4) 0.015(3) 0.022(4) -0.004(3) 0.000(3) -0.001(3)
C28 0.081(10) 0.120(14) 0.077(10) -0.001(9) -0.007(8) -0.038(9)
C29 0.066(8) 0.115(12) 0.092(11) -0.065(10) 0.000(7) -0.026(8)
C30 0.149(15) 0.048(7) 0.072(9) -0.041(7) -0.064(10) 0.038(8)
C31 0.022(5) 0.140(13) 0.090(9) -0.094(10) -0.026(5) 0.029(6)
N1 0.024(3) 0.012(3) 0.024(3) -0.004(2) 0.006(2) -0.002(2)
N2 0.033(3) 0.030(4) 0.016(3) -0.002(3) 0.012(3) 0.005(3)
N3 0.021(3) 0.028(4) 0.030(4) 0.007(3) -0.006(3) -0.007(3)
N4 0.074(7) 0.060(6) 0.078(7) -0.030(6) -0.025(6) -0.004(5)
O1 0.030(3) 0.013(2) 0.023(3) -0.005(2) -0.002(2) -0.001(2)
O2 0.019(2) 0.026(3) 0.025(3) -0.009(2) 0.001(2) -0.002(2)
O3 0.034(3) 0.039(3) 0.021(3) -0.002(2) 0.011(2) 0.019(3)
O4 0.024(3) 0.028(3) 0.030(3) -0.007(2) 0.000(2) -0.001(2)
O5 0.016(2) 0.012(2) 0.022(2) 0.0002(19) 0.0002(19) -0.0007(18)
O6 0.017(2) 0.020(3) 0.025(3) 0.003(2) 0.001(2) -0.0054(19)
O7 0.232(18) 0.142(13) 0.135(12) -0.066(10) -0.080(12) -0.022(12)
O1W 0.019(2) 0.028(3) 0.026(3) -0.001(2) -0.002(2) -0.005(2)
O2W 0.018(2) 0.023(3) 0.022(3) 0.006(2) -0.007(2) -0.005(2)
O3W 0.34(4) 0.21(3) 0.082(14) -0.101(17) -0.16(2) 0.26(3)
O4W 0.213(15) 0.080(8) 0.234(17) -0.070(10) -0.174(14) 0.079(9)
O5W 0.055(4) 0.045(4) 0.067(5) -0.025(4) -0.031(4) 0.007(3)
O6W 0.027(3) 0.044(4) 0.052(4) -0.003(3) 0.002(3) -0.006(3)



_geom_special_details            
; 

 All esds (except the esd in the dihedral angle between two l.s. planes) 

 are estimated using the full covariance matrix.  The cell esds are taken 

 into account individually in the estimation of esds in distances, angles 

 and torsion angles; correlations between esds in cell parameters are only 

 used when they are defined by crystal symmetry.  An approximate (isotropic) 

 treatment of cell esds is used for estimating esds involving l.s. planes. 

;



loop_

_geom_bond_atom_site_label_1

_geom_bond_atom_site_label_2

_geom_bond_distance

_geom_bond_site_symmetry_2

_geom_bond_publ_flag




































































































Er1 O1 2.237(5) . ?
Er1 O2 2.300(5) 2_676 ?
Er1 O1W 2.315(5) . ?
Er1 O2W 2.351(5) . ?
Er1 O5 2.354(4) 2_675 ?
Er1 O3 2.365(5) 2_765 ?
Er1 O4 2.390(5) 2_765 ?
Er1 O6 2.482(5) 2_675 ?
Er1 C14 2.755(7) 2_765 ?
Er1 C21 2.790(7) 2_675 ?
C1 N1 1.383(9) . ?
C1 C2 1.404(10) . ?
C1 C6 1.404(10) . ?
C2 C3 1.377(10) . ?
C2 H2A 0.9300 . ?
C3 C4 1.398(10) . ?
C3 H3A 0.9300 . ?
C4 C5 1.402(9) . ?
C4 C7 1.494(9) . ?
C5 C6 1.366(10) . ?
C5 H5A 0.9300 . ?
C6 H6A 0.9300 . ?
C7 O1 1.253(8) . ?
C7 O2 1.259(9) . ?
C8 C13 1.395(11) . ?
C8 C9 1.395(11) . ?
C8 N2 1.400(10) . ?
C9 C10 1.383(11) . ?
C9 H9A 0.9300 . ?
C10 C11 1.381(11) . ?
C10 H10A 0.9300 . ?
C11 C12 1.401(12) . ?
C11 C14 1.477(10) . ?
C12 C13 1.375(11) . ?
C12 H12A 0.9300 . ?
C13 H13A 0.9300 . ?
C14 O3 1.265(9) . ?
C14 O4 1.273(9) . ?
C14 Er1 2.755(7) 2_765 ?
C15 N3 1.373(10) . ?
C15 C16 1.400(10) . ?
C15 C20 1.409(11) . ?
C16 C17 1.377(10) . ?
C16 H16A 0.9300 . ?
C17 C18 1.391(10) . ?
C17 H17A 0.9300 . ?
C18 C19 1.405(10) . ?
C18 C21 1.482(10) . ?
C19 C20 1.365(11) . ?
C19 H19A 0.9300 . ?
C20 H20A 0.9300 . ?
C21 O6 1.259(8) . ?
C21 O5 1.280(8) . ?
C21 Er1 2.790(7) 2_675 ?
C22 C27 1.388(10) . ?
C22 N1 1.397(9) . ?
C22 C23 1.405(10) . ?
C23 C24 1.386(11) . ?
C23 H23A 0.9300 . ?
C24 C25 1.389(11) . ?
C24 N3 1.418(10) . ?
C25 C26 1.403(11) . ?
C25 H25A 0.9300 . ?
C26 N2 1.382(9) . ?
C26 C27 1.404(10) . ?
C27 H27A 0.9300 . ?
C28 N4 1.481(17) . ?
C28 H28A 0.9600 . ?
C28 H28B 0.9600 . ?
C28 H28C 0.9600 . ?
C29 N4 1.469(14) . ?
C29 H29A 0.9600 . ?
C29 H29B 0.9600 . ?
C29 H29C 0.9600 . ?
C30 C31 1.19(2) . ?
C30 N4 1.329(18) . ?
C30 O7 1.539(17) . ?
C31 H31A 0.9600 . ?
C31 H31B 0.9600 . ?
C31 H31C 0.9600 . ?
N1 H1A 0.8600 . ?
N2 H2B 0.8600 . ?
N3 H3B 0.8600 . ?
O2 Er1 2.300(5) 2_676 ?
O3 Er1 2.365(5) 2_765 ?
O4 Er1 2.390(5) 2_765 ?
O5 Er1 2.354(4) 2_675 ?
O6 Er1 2.482(5) 2_675 ?
O1W H1WA 0.8500 . ?
O1W H1WB 0.8500 . ?
O2W H2WA 0.8500 . ?
O2W H2WB 0.8500 . ?
O3W H3WA 0.8499 . ?
O3W H3WB 0.8500 . ?
O4W H4WA 0.8501 . ?
O4W H4WB 0.8500 . ?
O5W H5WA 0.8500 . ?
O5W H5WB 0.8500 . ?
O6W H6WA 0.8500 . ?
O6W H6WB 0.8500 . ?



loop_

_geom_angle_atom_site_label_1

_geom_angle_atom_site_label_2

_geom_angle_atom_site_label_3

_geom_angle

_geom_angle_site_symmetry_1

_geom_angle_site_symmetry_3

_geom_angle_publ_flag





















































































































































































O1 Er1 O2 114.02(18) . 2_676 ?
O1 Er1 O1W 148.77(19) . . ?
O2 Er1 O1W 77.03(18) 2_676 . ?
O1 Er1 O2W 75.17(17) . . ?
O2 Er1 O2W 78.07(18) 2_676 . ?
O1W Er1 O2W 79.17(18) . . ?
O1 Er1 O5 77.49(17) . 2_675 ?
O2 Er1 O5 79.29(17) 2_676 2_675 ?
O1W Er1 O5 133.69(1