####################################################################### 
# 
# This file contains crystal structure data downloaded from the 
# Cambridge Structural Database (CSD) hosted by the Cambridge 
# Crystallographic Data Centre (CCDC).
# 
# Full information about CCDC data access policies and citation 
# guidelines are available at http://www.ccdc.cam.ac.uk/access/V1 
# 
# Audit and citation data items may have been added by the CCDC. 
# Please retain this information to preserve the provenance of 
# this file and to allow appropriate attribution of the data. 
# 
#######################################################################

data_6
_audit_block_doi                 10.5517/cc125d7w
_database_code_depnum_ccdc_archive 'CCDC 988287'
loop_
_citation_id
_citation_doi
_citation_year
1 10.1021/cg500286v 2014
_audit_update_record             
;
2014-02-23 deposited with the CCDC.	2024-07-13 downloaded from the CCDC.
;



_audit_creation_method           SHELXL-97

_chemical_name_systematic        
; 

 ? 

;

_chemical_name_common            ?

_chemical_melting_point          ?

_chemical_formula_moiety         ?

_chemical_formula_sum            
'C31 H38 N4 O12.50 Yb'

_chemical_formula_weight         839.69



loop_

_atom_type_symbol

_atom_type_description

_atom_type_scat_dispersion_real

_atom_type_scat_dispersion_imag

_atom_type_scat_source










C C 0.0033 0.0016 'International Tables Vol C Tables 4.2.6.8 and 6.1.1.4'
H H 0.0000 0.0000 'International Tables Vol C Tables 4.2.6.8 and 6.1.1.4'
Yb Yb -0.3850 5.5486 'International Tables Vol C Tables 4.2.6.8 and 6.1.1.4'
N N 0.0061 0.0033 'International Tables Vol C Tables 4.2.6.8 and 6.1.1.4'
O O 0.0106 0.0060 'International Tables Vol C Tables 4.2.6.8 and 6.1.1.4'



_symmetry_cell_setting           monoclinic

_symmetry_space_group_name_H-M   P-1



loop_

_symmetry_equiv_pos_as_xyz


'x, y, z'
'-x, -y, -z'



_cell_length_a                   11.8938(4)

_cell_length_b                   12.4541(3)

_cell_length_c                   13.1622(3)

_cell_angle_alpha                84.035(2)

_cell_angle_beta                 85.080(2)

_cell_angle_gamma                85.246(2)

_cell_volume                     1926.58(9)

_cell_formula_units_Z            2

_cell_measurement_temperature    293(2)

_cell_measurement_reflns_used    ?

_cell_measurement_theta_min      ?

_cell_measurement_theta_max      ?



_exptl_crystal_description       ?

_exptl_crystal_colour            ?

_exptl_crystal_size_max          0.37

_exptl_crystal_size_mid          0.33

_exptl_crystal_size_min          0.32

_exptl_crystal_density_meas      ?

_exptl_crystal_density_diffrn    1.447

_exptl_crystal_density_method    'not measured'

_exptl_crystal_F_000             844

_exptl_absorpt_coefficient_mu    2.488

_exptl_absorpt_correction_type   multi-scan

_exptl_absorpt_correction_T_min  0.4612

_exptl_absorpt_correction_T_max  0.5023

_exptl_absorpt_process_details   ?



_exptl_special_details           
; 

 ? 

;



_diffrn_ambient_temperature      293(2)

_diffrn_radiation_wavelength     0.71073

_diffrn_radiation_type           MoK\a

_diffrn_radiation_source         'fine-focus sealed tube'

_diffrn_radiation_monochromator  graphite

_diffrn_measurement_device_type  ?

_diffrn_measurement_method       ?

_diffrn_detector_area_resol_mean ?

_diffrn_standards_number         ?

_diffrn_standards_interval_count ?

_diffrn_standards_interval_time  ?

_diffrn_standards_decay_%        ?

_diffrn_reflns_number            13112

_diffrn_reflns_av_R_equivalents  0.0249

_diffrn_reflns_av_sigmaI/netI    0.0421

_diffrn_reflns_limit_h_min       -14

_diffrn_reflns_limit_h_max       8

_diffrn_reflns_limit_k_min       -15

_diffrn_reflns_limit_k_max       15

_diffrn_reflns_limit_l_min       -16

_diffrn_reflns_limit_l_max       16

_diffrn_reflns_theta_min         2.91

_diffrn_reflns_theta_max         26.00

_reflns_number_total             7576

_reflns_number_gt                6969

_reflns_threshold_expression     >2sigma(I)



_computing_data_collection       'SMART (Bruker, 2001)'

_computing_cell_refinement       'SAINT (Bruker, 2001)'

_computing_data_reduction        'SAINT (Bruker, 2001)'

_computing_structure_solution    'SHELXS97 (Sheldrick, 1997)'

_computing_structure_refinement  'SHELXL97 (Sheldrick, 1997)'

_computing_molecular_graphics    'SHELXTL (Bruker, 2001)'

_computing_publication_material  'SHELXTL (Bruker, 2001)'



_refine_special_details          
; 

 Refinement of F^2^ against ALL reflections.  The weighted R-factor wR and 

 goodness of fit S are based on F^2^, conventional R-factors R are based 

 on F, with F set to zero for negative F^2^. The threshold expression of 

 F^2^ > 2sigma(F^2^) is used only for calculating R-factors(gt) etc. and is 

 not relevant to the choice of reflections for refinement.  R-factors based 

 on F^2^ are statistically about twice as large as those based on F, and R- 

 factors based on ALL data will be even larger. 

;



_refine_ls_structure_factor_coef Fsqd

_refine_ls_matrix_type           full

_refine_ls_weighting_scheme      calc

_refine_ls_weighting_details     
'calc w=1/[\s^2^(Fo^2^)+(0.0254P)^2^+2.1193P] where P=(Fo^2^+2Fc^2^)/3'

_atom_sites_solution_primary     direct

_atom_sites_solution_secondary   difmap

_atom_sites_solution_hydrogens   geom

_refine_ls_hydrogen_treatment    mixed

_refine_ls_extinction_method     none

_refine_ls_extinction_coef       ?

_refine_ls_number_reflns         7576

_refine_ls_number_parameters     352

_refine_ls_number_restraints     0

_refine_ls_R_factor_all          0.0310

_refine_ls_R_factor_gt           0.0272

_refine_ls_wR_factor_ref         0.0700

_refine_ls_wR_factor_gt          0.0683

_refine_ls_goodness_of_fit_ref   1.147

_refine_ls_restrained_S_all      1.147

_refine_ls_shift/su_max          0.003

_refine_ls_shift/su_mean         0.000



loop_

_atom_site_label

_atom_site_type_symbol

_atom_site_fract_x

_atom_site_fract_y

_atom_site_fract_z

_atom_site_U_iso_or_equiv

_atom_site_adp_type

_atom_site_occupancy

_atom_site_symmetry_multiplicity

_atom_site_calc_flag

_atom_site_refinement_flags

_atom_site_disorder_assembly

_atom_site_disorder_group





























































Yb1 Yb 0.645600(13) 1.062345(12) 0.393355(11) 0.01119(5) Uani 1 1 d . . .
C1 C 0.6381(3) 0.5353(3) 0.2949(3) 0.0139(7) Uani 1 1 d . . .
C2 C 0.6959(3) 0.6304(3) 0.2766(3) 0.0169(8) Uani 1 1 d . . .
H2A H 0.7631 0.6307 0.2347 0.020 Uiso 1 1 calc R . .
C3 C 0.6542(3) 0.7231(3) 0.3198(3) 0.0176(8) Uani 1 1 d . . .
H3A H 0.6937 0.7851 0.3074 0.021 Uiso 1 1 calc R . .
C4 C 0.5526(3) 0.7246(3) 0.3826(3) 0.0141(7) Uani 1 1 d . . .
C5 C 0.4952(3) 0.6315(3) 0.3998(3) 0.0173(8) Uani 1 1 d . . .
H5A H 0.4276 0.6316 0.4410 0.021 Uiso 1 1 calc R . .
C6 C 0.5368(3) 0.5381(3) 0.3566(3) 0.0172(8) Uani 1 1 d . . .
H6A H 0.4967 0.4765 0.3689 0.021 Uiso 1 1 calc R . .
C7 C 0.5094(3) 0.8246(3) 0.4328(3) 0.0143(7) Uani 1 1 d . . .
C8 C 1.0258(3) 0.1562(3) 0.0148(3) 0.0188(8) Uani 1 1 d . . .
C9 C 0.9894(3) 0.1707(3) -0.0843(3) 0.0222(8) Uani 1 1 d . . .
H9A H 0.9210 0.2096 -0.0967 0.027 Uiso 1 1 calc R . .
C10 C 1.0555(3) 0.1270(3) -0.1640(3) 0.0221(8) Uani 1 1 d . . .
H10A H 1.0320 0.1393 -0.2301 0.027 Uiso 1 1 calc R . .
C11 C 1.1554(3) 0.0657(3) -0.1473(3) 0.0183(8) Uani 1 1 d . . .
C12 C 1.1882(3) 0.0466(3) -0.0473(3) 0.0230(9) Uani 1 1 d . . .
H12A H 1.2537 0.0030 -0.0343 0.028 Uiso 1 1 calc R . .
C13 C 1.1247(3) 0.0914(3) 0.0322(3) 0.0225(9) Uani 1 1 d . . .
H13A H 1.1481 0.0782 0.0982 0.027 Uiso 1 1 calc R . .
C14 C 1.2261(3) 0.0215(3) -0.2346(3) 0.0177(8) Uani 1 1 d . . .
C15 C 0.7685(3) 0.6115(3) -0.1279(3) 0.0176(8) Uani 1 1 d . . .
C16 C 0.6578(3) 0.5799(3) -0.1192(3) 0.0190(8) Uani 1 1 d . . .
H16A H 0.6395 0.5183 -0.0769 0.023 Uiso 1 1 calc R . .
C17 C 0.5755(3) 0.6397(3) -0.1733(3) 0.0183(8) Uani 1 1 d . . .
H17A H 0.5024 0.6172 -0.1672 0.022 Uiso 1 1 calc R . .
C18 C 0.5998(3) 0.7331(3) -0.2368(3) 0.0158(7) Uani 1 1 d . . .
C19 C 0.7109(3) 0.7636(3) -0.2454(3) 0.0227(9) Uani 1 1 d . . .
H19A H 0.7290 0.8253 -0.2877 0.027 Uiso 1 1 calc R . .
C20 C 0.7943(3) 0.7047(3) -0.1929(3) 0.0240(9) Uani 1 1 d . . .
H20A H 0.8677 0.7265 -0.2003 0.029 Uiso 1 1 calc R . .
C21 C 0.5123(3) 0.7974(3) -0.2937(3) 0.0134(7) Uani 1 1 d . . .
C22 C 0.7578(3) 0.4219(3) 0.1749(3) 0.0137(7) Uani 1 1 d . . .
C23 C 0.7658(3) 0.4977(3) 0.0896(3) 0.0157(7) Uani 1 1 d . . .
H23A H 0.7205 0.5623 0.0879 0.019 Uiso 1 1 calc R . .
C24 C 0.8423(3) 0.4759(3) 0.0070(3) 0.0160(7) Uani 1 1 d . . .
C25 C 0.9100(3) 0.3793(3) 0.0077(3) 0.0157(7) Uani 1 1 d . . .
H25A H 0.9624 0.3670 -0.0473 0.019 Uiso 1 1 calc R . .
C26 C 0.8991(3) 0.3006(3) 0.0911(3) 0.0146(7) Uani 1 1 d . . .
C27 C 0.8226(3) 0.3225(3) 0.1751(3) 0.0149(7) Uani 1 1 d . . .
H27A H 0.8148 0.2709 0.2311 0.018 Uiso 1 1 calc R . .
N1 N 0.6823(3) 0.4372(2) 0.2607(2) 0.0157(6) Uani 1 1 d . . .
H1A H 0.6609 0.3796 0.2963 0.019 Uiso 1 1 calc R . .
N2 N 0.9637(3) 0.2012(2) 0.0964(2) 0.0197(7) Uani 1 1 d . . .
H2B H 0.9651 0.1647 0.1555 0.024 Uiso 1 1 calc R . .
N3 N 0.8552(3) 0.5519(3) -0.0794(2) 0.0212(7) Uani 1 1 d . . .
H3B H 0.9232 0.5622 -0.1043 0.025 Uiso 1 1 calc R . .
O1 O 0.5648(2) 0.90700(19) 0.41693(18) 0.0172(5) Uani 1 1 d . . .
O2 O 0.4188(2) 0.8198(2) 0.48909(18) 0.0179(6) Uani 1 1 d . . .
O3 O 1.3173(2) -0.0355(2) -0.21904(19) 0.0258(6) Uani 1 1 d . . .
O4 O 1.1954(2) 0.0420(2) -0.32516(19) 0.0199(6) Uani 1 1 d . . .
O5 O 0.5365(2) 0.88759(19) -0.34357(17) 0.0144(5) Uani 1 1 d . . .
O6 O 0.4141(2) 0.76669(19) -0.29425(18) 0.0163(5) Uani 1 1 d . . .
O1W O 0.8009(2) 1.1553(2) 0.40555(19) 0.0196(6) Uani 1 1 d . . .
H1WA H 0.8423 1.1383 0.4551 0.023 Uiso 1 1 d R . .
H1WB H 0.8172 1.2069 0.3606 0.023 Uiso 1 1 d R . .
O2W O 0.7148(2) 0.9745(2) 0.54232(18) 0.0190(6) Uani 1 1 d . . .
H2WA H 0.7741 0.9944 0.5643 0.023 Uiso 1 1 d R . .
H2WB H 0.6808 0.9224 0.5748 0.023 Uiso 1 1 d R . .



loop_

_atom_site_aniso_label

_atom_site_aniso_U_11

_atom_site_aniso_U_22

_atom_site_aniso_U_33

_atom_site_aniso_U_23

_atom_site_aniso_U_13

_atom_site_aniso_U_12







































Yb1 0.01051(8) 0.01037(8) 0.01212(8) -0.00279(5) 0.00203(5) 0.00176(5)
C1 0.0157(19) 0.0099(17) 0.0156(17) -0.0025(13) -0.0025(14) 0.0036(14)
C2 0.0139(19) 0.0159(18) 0.0206(18) -0.0050(14) 0.0056(15) -0.0017(14)
C3 0.020(2) 0.0127(17) 0.0201(18) -0.0029(14) 0.0031(15) -0.0031(15)
C4 0.0173(19) 0.0112(17) 0.0132(16) -0.0030(13) -0.0003(14) 0.0033(14)
C5 0.0158(19) 0.0182(19) 0.0173(17) -0.0044(14) 0.0058(15) -0.0015(15)
C6 0.019(2) 0.0123(17) 0.0207(18) -0.0059(14) 0.0052(15) -0.0037(15)
C7 0.0154(19) 0.0137(18) 0.0134(16) -0.0028(13) -0.0039(14) 0.0060(14)
C8 0.021(2) 0.0158(18) 0.0186(18) -0.0033(14) 0.0069(15) -0.0010(15)
C9 0.017(2) 0.024(2) 0.026(2) -0.0105(16) 0.0003(16) 0.0045(16)
C10 0.021(2) 0.024(2) 0.0215(19) -0.0079(16) 0.0010(16) 0.0023(16)
C11 0.021(2) 0.0121(18) 0.0211(18) -0.0056(14) 0.0041(15) -0.0001(15)
C12 0.022(2) 0.022(2) 0.0221(19) -0.0026(15) 0.0042(16) 0.0081(16)
C13 0.024(2) 0.022(2) 0.0197(19) -0.0042(15) 0.0011(16) 0.0059(17)
C14 0.018(2) 0.0107(17) 0.0234(19) -0.0024(14) 0.0072(16) -0.0026(15)
C15 0.018(2) 0.0164(18) 0.0174(17) 0.0026(14) -0.0046(15) 0.0003(15)
C16 0.016(2) 0.0185(19) 0.0219(19) 0.0049(15) -0.0047(15) -0.0047(15)
C17 0.0134(19) 0.0213(19) 0.0209(18) -0.0013(15) -0.0013(15) -0.0065(15)
C18 0.0172(19) 0.0147(18) 0.0152(17) -0.0004(14) -0.0024(14) 0.0009(15)
C19 0.020(2) 0.0182(19) 0.028(2) 0.0101(16) -0.0036(17) -0.0059(16)
C20 0.017(2) 0.025(2) 0.029(2) 0.0079(17) -0.0038(17) -0.0069(17)
C21 0.0124(18) 0.0141(17) 0.0139(16) -0.0046(13) 0.0017(14) -0.0012(14)
C22 0.0156(19) 0.0102(16) 0.0166(17) -0.0077(13) -0.0003(14) -0.0024(14)
C23 0.0161(19) 0.0132(17) 0.0183(18) -0.0049(14) -0.0028(14) 0.0028(14)
C24 0.0155(19) 0.0184(18) 0.0148(17) 0.0011(14) -0.0063(14) -0.0034(15)
C25 0.0142(19) 0.0197(19) 0.0127(16) -0.0035(14) 0.0027(14) -0.0002(15)
C26 0.0120(18) 0.0156(18) 0.0165(17) -0.0057(14) -0.0022(14) 0.0041(14)
C27 0.0161(19) 0.0154(18) 0.0128(16) -0.0017(13) 0.0016(14) -0.0013(15)
N1 0.0163(16) 0.0111(15) 0.0191(15) -0.0049(12) 0.0054(13) 0.0001(12)
N2 0.0258(19) 0.0154(16) 0.0151(15) -0.0022(12) 0.0074(13) 0.0075(13)
N3 0.0134(17) 0.0246(17) 0.0239(16) 0.0091(13) -0.0043(13) -0.0019(13)
O1 0.0201(14) 0.0096(12) 0.0223(13) -0.0035(10) -0.0013(11) -0.0010(10)
O2 0.0171(14) 0.0186(13) 0.0184(12) -0.0104(10) 0.0028(11) 0.0023(11)
O3 0.0281(17) 0.0278(15) 0.0184(13) -0.0042(11) 0.0049(12) 0.0113(13)
O4 0.0175(14) 0.0226(14) 0.0200(13) -0.0090(11) 0.0022(11) 0.0021(11)
O5 0.0144(13) 0.0134(12) 0.0150(12) 0.0006(9) -0.0011(10) -0.0014(10)
O6 0.0111(13) 0.0146(13) 0.0226(13) 0.0012(10) -0.0002(10) -0.0015(10)
O1W 0.0157(14) 0.0217(14) 0.0208(13) 0.0016(10) -0.0011(11) -0.0038(11)
O2W 0.0151(14) 0.0207(14) 0.0208(13) 0.0032(10) -0.0032(11) -0.0038(11)



_geom_special_details            
; 

 All esds (except the esd in the dihedral angle between two l.s. planes) 

 are estimated using the full covariance matrix.  The cell esds are taken 

 into account individually in the estimation of esds in distances, angles 

 and torsion angles; correlations between esds in cell parameters are only 

 used when they are defined by crystal symmetry.  An approximate (isotropic) 

 treatment of cell esds is used for estimating esds involving l.s. planes. 

;



loop_

_geom_bond_atom_site_label_1

_geom_bond_atom_site_label_2

_geom_bond_distance

_geom_bond_site_symmetry_2

_geom_bond_publ_flag
















































































Yb1 O1 2.213(2) . ?
Yb1 O2 2.284(2) 2_676 ?
Yb1 O1W 2.285(3) . ?
Yb1 O2W 2.324(2) . ?
Yb1 O5 2.333(3) 2_675 ?
Yb1 O3 2.352(2) 2_765 ?
Yb1 O4 2.370(2) 2_765 ?
Yb1 O6 2.464(2) 2_675 ?
Yb1 C14 2.725(3) 2_765 ?
Yb1 C21 2.775(4) 2_675 ?
Yb1 C7 3.183(3) 2_676 ?
C1 N1 1.392(4) . ?
C1 C6 1.394(5) . ?
C1 C2 1.408(5) . ?
C2 C3 1.376(5) . ?
C2 H2A 0.9300 . ?
C3 C4 1.404(5) . ?
C3 H3A 0.9300 . ?
C4 C5 1.383(5) . ?
C4 C7 1.502(4) . ?
C5 C6 1.384(5) . ?
C5 H5A 0.9300 . ?
C6 H6A 0.9300 . ?
C7 O2 1.257(4) . ?
C7 O1 1.254(4) . ?
C7 Yb1 3.183(3) 2_676 ?
C8 N2 1.391(4) . ?
C8 C13 1.393(5) . ?
C8 C9 1.398(5) . ?
C9 C10 1.386(5) . ?
C9 H9A 0.9300 . ?
C10 C11 1.380(5) . ?
C10 H10A 0.9300 . ?
C11 C12 1.395(6) . ?
C11 C14 1.490(5) . ?
C12 C13 1.375(5) . ?
C12 H12A 0.9300 . ?
C13 H13A 0.9300 . ?
C14 O3 1.266(5) . ?
C14 O4 1.271(5) . ?
C14 Yb1 2.725(3) 2_765 ?
C15 N3 1.381(5) . ?
C15 C16 1.397(5) . ?
C15 C20 1.407(5) . ?
C16 C17 1.381(5) . ?
C16 H16A 0.9300 . ?
C17 C18 1.396(5) . ?
C17 H17A 0.9300 . ?
C18 C19 1.397(5) . ?
C18 C21 1.468(5) . ?
C19 C20 1.375(6) . ?
C19 H19A 0.9300 . ?
C20 H20A 0.9300 . ?
C21 O6 1.259(4) . ?
C21 O5 1.282(4) . ?
C21 Yb1 2.775(4) 2_675 ?
C22 C23 1.392(5) . ?
C22 N1 1.400(4) . ?
C22 C27 1.402(5) . ?
C23 C24 1.391(5) . ?
C23 H23A 0.9300 . ?
C24 C25 1.391(5) . ?
C24 N3 1.409(4) . ?
C25 C26 1.399(5) . ?
C25 H25A 0.9300 . ?
C26 N2 1.400(4) . ?
C26 C27 1.406(5) . ?
C27 H27A 0.9300 . ?
N1 H1A 0.8600 . ?
N2 H2B 0.8600 . ?
N3 H3B 0.8600 . ?
O2 Yb1 2.284(2) 2_676 ?
O3 Yb1 2.352(2) 2_765 ?
O4 Yb1 2.370(2) 2_765 ?
O5 Yb1 2.333(2) 2_675 ?
O6 Yb1 2.464(2) 2_675 ?
O1W H1WA 0.8500 . ?
O1W H1WB 0.8499 . ?
O2W H2WA 0.8501 . ?
O2W H2WB 0.8500 . ?



loop_

_geom_angle_atom_site_label_1

_geom_angle_atom_site_label_2

_geom_angle_atom_site_label_3

_geom_angle

_geom_angle_site_symmetry_1

_geom_angle_site_symmetry_3

_geom_angle_publ_flag






































































































































































O1 Yb1 O2 113.67(9) . 2_676 ?
O1 Yb1 O1W 148.54(10) . . ?
O2 Yb1 O1W 77.51(9) 2_676 . ?
O1 Yb1 O2W 75.11(9) . . ?
O2 Yb1 O2W 78.37(9) 2_676 . ?
O1W Yb1 O2W 78.95(9) . . ?
O1 Yb1 O5 77.50(9) . 2_675 ?
O2 Yb1 O5 79.04(9) 2_676 2_675 ?
O1W Yb1 O5 133.92(9) . 2_675 ?
O2W Yb1 O5 133.31(8) . 2_675 ?
O1 Yb1 O3 88.69(9) . 2_765 ?
O2 Yb1 O3 146.86(9) 2_676 2_765 ?
O1W Yb1 O3 96.29(10) . 2_765 ?
O2W Yb1 O3 133.00(9) . 2_765 ?
O5 Yb1 O3 82.69(9) 2_675 2_765 ?
O1 Yb1 O4 84.73(9) . 2_765 ?
O2 Yb1 O4 145.64(9) 2_676 2_765 ?
O1W Yb1 O4 73.02(9) . 2_765 ?
O2W Yb1 O4 79.01(9) . 2_765 ?
O5 Yb1 O4 134.81(8) 2_675 2_765 ?
O3 Yb1 O4 55.42(9) 2_765 2_765 ?
O1 Yb1 O6 129.65(9) . 2_675 ?
O2 Yb1 O6 73.87(9) 2_676 2_675 ?
O1W Yb1 O6 81.16(9) . 2_675 ?
O2W Yb1 O6 148.69(9) . 2_675 ?
O5 Yb1 O6 54.31(8) 2_675 2_675 ?
O3 Yb1 O6 73.01(9) 2_765 2_675 ?
O4 Yb1 O6 117.63(8) 2_765 2_675 ?
O1 Yb1 C14 86.73(10) . 2_765 ?
O2 Yb1 C14 159.48(10) 2_676 2_765 ?
O1W Yb1 C14 83.72(10) . 2_765 ?
O2W Yb1 C14 106.26(10) . 2_765 ?
O5 Yb1 C14 109.12(10) 2_675 2_765 ?
O3 Yb1 C14 27.65(11) 2_765 2_765 ?
O4 Yb1 C14 27.78(10) 2_765 2_765 ?
O6 Yb1 C14 95.26(9) 2_675 2_765 ?
O1 Yb1 C21 103.59(10) . 2_675 ?
O2 Yb1 C21 75.83(9) 2_676 2_675 ?
O1W Yb1 C21 107.72(10) . 2_675 ?
O2W Yb1 C21 151.03(9) . 2_675 ?
O5 Yb1 C21 27.36(9) 2_675 2_675 ?
O3 Yb1 C21 75.25(9) 2_765 2_675 ?
O4 Yb1 C21 129.95(9) 2_765 2_675 ?
O6 Yb1 C21 26.99(9) 2_675 2_675 ?
C14 Yb1 C21 102.51(11) 2_765 2_675 ?
O1 Yb1 C7 95.79(9) . 2_676 ?
O2 Yb1 C7 18.73(9) 2_676 2_676 ?
O1W Yb1 C7 95.79(9) . 2_676 ?
O2W Yb1 C7 77.74(9) . 2_676 ?
O5 Yb1 C7 68.23(9) 2_675 2_676 ?
O3 Yb1 C7 148.70(9) 2_765 2_676 ?
O4 Yb1 C7 155.76(9) 2_765 2_676 ?
O6 Yb1 C7 80.50(8) 2_675 2_676 ?
C14 Yb1 C7 175.75(10) 2_765 2_676 ?
C21 Yb1 C7 73.59(9) 2_675 2_676 ?
N1 C1 C6 119.0(3) . . ?
N1 C1 C2 122.6(3) . . ?
C6 C1 C2 118.2(3) . . ?
C3 C2 C1 120.7(3) . . ?
C3 C2 H2A 119.6 . . ?
C1 C2 H2A 119.6 . . ?
C2 C3 C4 120.6(3) . . ?
C2 C3 H3A 119.7 . . ?
C4 C3 H3A 119.7 . . ?
C5 C4 C3 118.7(3) . . ?
C5 C4 C7 120.8(3) . . ?
C3 C4 C7 120.4(3) . . ?
C4 C5 C6 120.9(3) . . ?
C4 C5 H5A 119.5 . . ?
C6 C5 H5A 119.5 . . ?
C5 C6 C1 120.9(3) . . ?
C5 C6 H6A 119.6 . . ?
C1 C6 H6A 119.6 . . ?
O2 C7 O1 123.9(3) . . ?
O2 C7 C4 117.0(3) . . ?
O1 C7 C4 119.1(3) . . ?
O2 C7 Yb1 35.70(16) . 2_676 ?
O1 C7 Yb1 89.30(19) . 2_676 ?
C4 C7 Yb1 150.2(2) . 2_676 ?
N2 C8 C13 119.5(3) . . ?
N2 C8 C9 12