####################################################################### 
# 
# This file contains crystal structure data downloaded from the 
# Cambridge Structural Database (CSD) hosted by the Cambridge 
# Crystallographic Data Centre (CCDC).
# 
# Full information about CCDC data access policies and citation 
# guidelines are available at http://www.ccdc.cam.ac.uk/access/V1 
# 
# Audit and citation data items may have been added by the CCDC. 
# Please retain this information to preserve the provenance of 
# this file and to allow appropriate attribution of the data. 
# 
#######################################################################

data_7
_audit_block_doi                 10.5517/cc125d8x
_database_code_depnum_ccdc_archive 'CCDC 988288'
loop_
_citation_id
_citation_doi
_citation_year
1 10.1021/cg500286v 2014
_audit_update_record             
;
2014-02-23 deposited with the CCDC.	2024-07-13 downloaded from the CCDC.
;



_audit_creation_method           SHELXL-97

_chemical_name_systematic        
; 

 ? 

;

_chemical_name_common            ?

_chemical_melting_point          ?

_chemical_formula_moiety         ?

_chemical_formula_sum            
'C35 H48 Lu N5 O14'

_chemical_formula_weight         937.75



loop_

_atom_type_symbol

_atom_type_description

_atom_type_scat_dispersion_real

_atom_type_scat_dispersion_imag

_atom_type_scat_source










C C 0.0033 0.0016 'International Tables Vol C Tables 4.2.6.8 and 6.1.1.4'
H H 0.0000 0.0000 'International Tables Vol C Tables 4.2.6.8 and 6.1.1.4'
Lu Lu -0.4720 5.8584 'International Tables Vol C Tables 4.2.6.8 and 6.1.1.4'
N N 0.0061 0.0033 'International Tables Vol C Tables 4.2.6.8 and 6.1.1.4'
O O 0.0106 0.0060 'International Tables Vol C Tables 4.2.6.8 and 6.1.1.4'



_symmetry_cell_setting           monoclinic

_symmetry_space_group_name_H-M   P-1



loop_

_symmetry_equiv_pos_as_xyz


'x, y, z'
'-x, -y, -z'



_cell_length_a                   11.8842(3)

_cell_length_b                   12.4550(3)

_cell_length_c                   13.1712(3)

_cell_angle_alpha                83.924(2)

_cell_angle_beta                 84.970(2)

_cell_angle_gamma                85.196(2)

_cell_volume                     1925.69(8)

_cell_formula_units_Z            2

_cell_measurement_temperature    293(2)

_cell_measurement_reflns_used    ?

_cell_measurement_theta_min      ?

_cell_measurement_theta_max      ?



_exptl_crystal_description       ?

_exptl_crystal_colour            ?

_exptl_crystal_size_max          ?

_exptl_crystal_size_mid          ?

_exptl_crystal_size_min          ?

_exptl_crystal_density_meas      ?

_exptl_crystal_density_diffrn    1.617

_exptl_crystal_density_method    'not measured'

_exptl_crystal_F_000             952

_exptl_absorpt_coefficient_mu    2.637

_exptl_absorpt_correction_type   multi-scan

_exptl_absorpt_correction_T_min  ?

_exptl_absorpt_correction_T_max  ?

_exptl_absorpt_process_details   ?



_exptl_special_details           
; 

 ? 

;



_diffrn_ambient_temperature      293(2)

_diffrn_radiation_wavelength     0.71073

_diffrn_radiation_type           MoK\a

_diffrn_radiation_source         'fine-focus sealed tube'

_diffrn_radiation_monochromator  graphite

_diffrn_measurement_device_type  ?

_diffrn_measurement_method       ?

_diffrn_detector_area_resol_mean ?

_diffrn_standards_number         ?

_diffrn_standards_interval_count ?

_diffrn_standards_interval_time  ?

_diffrn_standards_decay_%        ?

_diffrn_reflns_number            15877

_diffrn_reflns_av_R_equivalents  0.0276

_diffrn_reflns_av_sigmaI/netI    0.0377

_diffrn_reflns_limit_h_min       -13

_diffrn_reflns_limit_h_max       14

_diffrn_reflns_limit_k_min       -14

_diffrn_reflns_limit_k_max       15

_diffrn_reflns_limit_l_min       -15

_diffrn_reflns_limit_l_max       16

_diffrn_reflns_theta_min         2.91

_diffrn_reflns_theta_max         26.00

_reflns_number_total             7569

_reflns_number_gt                6906

_reflns_threshold_expression     >2sigma(I)



_computing_data_collection       'SMART (Bruker, 2001)'

_computing_cell_refinement       'SAINT (Bruker, 2001)'

_computing_data_reduction        'SAINT (Bruker, 2001)'

_computing_structure_solution    'SHELXS97 (Sheldrick, 1997)'

_computing_structure_refinement  'SHELXL97 (Sheldrick, 1997)'

_computing_molecular_graphics    'SHELXTL (Bruker, 2001)'

_computing_publication_material  'SHELXTL (Bruker, 2001)'



_refine_special_details          
; 

 Refinement of F^2^ against ALL reflections.  The weighted R-factor wR and 

 goodness of fit S are based on F^2^, conventional R-factors R are based 

 on F, with F set to zero for negative F^2^. The threshold expression of 

 F^2^ > 2sigma(F^2^) is used only for calculating R-factors(gt) etc. and is 

 not relevant to the choice of reflections for refinement.  R-factors based 

 on F^2^ are statistically about twice as large as those based on F, and R- 

 factors based on ALL data will be even larger. 

;



_refine_ls_structure_factor_coef Fsqd

_refine_ls_matrix_type           full

_refine_ls_weighting_scheme      calc

_refine_ls_weighting_details     
'calc w=1/[\s^2^(Fo^2^)+(0.0496P)^2^+6.9630P] where P=(Fo^2^+2Fc^2^)/3'

_atom_sites_solution_primary     direct

_atom_sites_solution_secondary   difmap

_atom_sites_solution_hydrogens   geom

_refine_ls_hydrogen_treatment    mixed

_refine_ls_extinction_method     none

_refine_ls_extinction_coef       ?

_refine_ls_number_reflns         7569

_refine_ls_number_parameters     496

_refine_ls_number_restraints     0

_refine_ls_R_factor_all          0.0426

_refine_ls_R_factor_gt           0.0374

_refine_ls_wR_factor_ref         0.0988

_refine_ls_wR_factor_gt          0.0960

_refine_ls_goodness_of_fit_ref   1.107

_refine_ls_restrained_S_all      1.107

_refine_ls_shift/su_max          0.003

_refine_ls_shift/su_mean         0.000



loop_

_atom_site_label

_atom_site_type_symbol

_atom_site_fract_x

_atom_site_fract_y

_atom_site_fract_z

_atom_site_U_iso_or_equiv

_atom_site_adp_type

_atom_site_occupancy

_atom_site_symmetry_multiplicity

_atom_site_calc_flag

_atom_site_refinement_flags

_atom_site_disorder_assembly

_atom_site_disorder_group







































































































Lu1 Lu 1.145867(16) -0.437350(15) 0.893389(14) 0.01318(8) Uani 1 1 d . . .
C1 C 0.9886(4) -0.2979(4) 0.7942(3) 0.0153(9) Uani 1 1 d . . .
C2 C 0.8996(4) -0.2332(4) 0.7376(4) 0.0181(10) Uani 1 1 d . . .
C3 C 0.9247(4) -0.1396(4) 0.6738(4) 0.0211(10) Uani 1 1 d . . .
H3A H 0.9979 -0.1171 0.6676 0.025 Uiso 1 1 calc R . .
C4 C 0.8415(4) -0.0801(4) 0.6198(4) 0.0229(11) Uani 1 1 d . . .
H4A H 0.8596 -0.0184 0.5772 0.027 Uiso 1 1 calc R . .
C5 C 0.7312(4) -0.1118(4) 0.6287(4) 0.0212(10) Uani 1 1 d . . .
C6 C 0.7056(5) -0.2046(5) 0.6944(4) 0.0281(12) Uani 1 1 d . . .
H6A H 0.6318 -0.2256 0.7029 0.034 Uiso 1 1 calc R . .
C7 C 0.7887(5) -0.2642(4) 0.7459(4) 0.0254(12) Uani 1 1 d . . .
H7A H 0.7709 -0.3267 0.7872 0.030 Uiso 1 1 calc R . .
C8 C 0.2751(4) 0.4797(4) 0.7346(4) 0.0208(10) Uani 1 1 d . . .
C9 C 0.3453(4) 0.4350(4) 0.6476(4) 0.0222(11) Uani 1 1 d . . .
C10 C 0.3122(5) 0.4544(4) 0.5480(4) 0.0282(12) Uani 1 1 d . . .
H10A H 0.2467 0.4983 0.5353 0.034 Uiso 1 1 calc R . .
C11 C 0.3756(5) 0.4093(4) 0.4677(4) 0.0263(12) Uani 1 1 d . . .
H11A H 0.3525 0.4228 0.4016 0.032 Uiso 1 1 calc R . .
C12 C 0.4739(4) 0.3438(4) 0.4860(4) 0.0216(11) Uani 1 1 d . . .
C13 C 0.5105(5) 0.3288(4) 0.5848(4) 0.0257(11) Uani 1 1 d . . .
H13A H 0.5785 0.2889 0.5971 0.031 Uiso 1 1 calc R . .
C14 C 0.4457(5) 0.3733(4) 0.6642(4) 0.0255(11) Uani 1 1 d . . .
H14A H 0.4699 0.3616 0.7300 0.031 Uiso 1 1 calc R . .
C15 C 0.9901(4) -0.3253(4) 0.0676(4) 0.0164(10) Uani 1 1 d . . .
C16 C 0.9468(4) -0.2259(4) 0.1177(4) 0.0172(10) Uani 1 1 d . . .
C17 C 0.8457(4) -0.2241(4) 0.1805(4) 0.0193(10) Uani 1 1 d . . .
H17A H 0.8063 -0.2862 0.1932 0.023 Uiso 1 1 calc R . .
C18 C 0.8034(4) -0.1308(4) 0.2241(4) 0.0198(10) Uani 1 1 d . . .
H18A H 0.7364 -0.1311 0.2663 0.024 Uiso 1 1 calc R . .
C19 C 0.8609(4) -0.0362(4) 0.2050(4) 0.0162(9) Uani 1 1 d . . .
C20 C 0.9626(4) -0.0387(4) 0.1434(4) 0.0207(10) Uani 1 1 d . . .
H20A H 1.0029 0.0229 0.1316 0.025 Uiso 1 1 calc R . .
C21 C 1.0043(4) -0.1316(4) 0.0997(4) 0.0193(10) Uani 1 1 d . . .
H21A H 1.0715 -0.1314 0.0578 0.023 Uiso 1 1 calc R . .
C22 C 0.6576(4) 0.0240(4) 0.4938(4) 0.0194(10) Uani 1 1 d . . .
C23 C 0.5904(4) 0.1208(4) 0.4924(4) 0.0183(10) Uani 1 1 d . . .
H23A H 0.5380 0.1334 0.5473 0.022 Uiso 1 1 calc R . .
C24 C 0.6013(4) 0.1992(4) 0.4091(4) 0.0169(10) Uani 1 1 d . . .
C25 C 0.6775(4) 0.1766(4) 0.3256(4) 0.0173(10) Uani 1 1 d . . .
H25A H 0.6855 0.2281 0.2694 0.021 Uiso 1 1 calc R . .
C26 C 0.7414(4) 0.0779(4) 0.3259(4) 0.0172(10) Uani 1 1 d . . .
C27 C 0.7343(4) 0.0017(4) 0.4108(4) 0.0180(10) Uani 1 1 d . . .
H27A H 0.7797 -0.0629 0.4123 0.022 Uiso 1 1 calc R . .
C28 C 0.5462(5) -0.1228(7) 0.9381(6) 0.050(2) Uani 1 1 d . . .
H28A H 0.4780 -0.0948 0.9075 0.074 Uiso 1 1 calc R . .
H28B H 0.5347 -0.1223 1.0112 0.074 Uiso 1 1 calc R . .
H28C H 0.5655 -0.1957 0.9215 0.074 Uiso 1 1 calc R . .
C29 C 0.7415(6) -0.0858(8) 0.9356(6) 0.063(2) Uani 1 1 d . . .
H29A H 0.7471 -0.1508 0.9817 0.094 Uiso 1 1 calc R . .
H29B H 0.7608 -0.0259 0.9691 0.094 Uiso 1 1 calc R . .
H29C H 0.7928 -0.0940 0.8759 0.094 Uiso 1 1 calc R . .
C30 C 0.6936(8) 0.1045(8) 0.8028(7) 0.068(2) Uani 1 1 d . . .
H30A H 0.7644 0.0777 0.8292 0.101 Uiso 1 1 calc R . .
H30B H 0.6699 0.1734 0.8273 0.101 Uiso 1 1 calc R . .
H30C H 0.7026 0.1128 0.7293 0.101 Uiso 1 1 calc R . .
C31 C 0.6034(6) 0.0238(7) 0.8388(5) 0.0481(18) Uani 1 1 d . . .
C32 C 0.0818(9) 0.5599(7) 0.3010(7) 0.068(3) Uani 1 1 d . . .
H32A H 0.0078 0.5513 0.3350 0.103 Uiso 1 1 calc R . .
H32B H 0.1245 0.4909 0.3031 0.103 Uiso 1 1 calc R . .
H32C H 0.0748 0.5883 0.2311 0.103 Uiso 1 1 calc R . .
C33 C 0.2404(5) 0.6608(7) 0.3283(6) 0.052(2) Uani 1 1 d . . .
H33A H 0.2638 0.7084 0.3739 0.078 Uiso 1 1 calc R . .
H33B H 0.2437 0.6961 0.2598 0.078 Uiso 1 1 calc R . .
H33C H 0.2900 0.5958 0.3305 0.078 Uiso 1 1 calc R . .
C34 C 0.1400(8) 0.7507(9) 0.4929(8) 0.086(4) Uani 1 1 d . . .
H34A H 0.2182 0.7530 0.4679 0.129 Uiso 1 1 calc R . .
H34B H 0.1350 0.7218 0.5636 0.129 Uiso 1 1 calc R . .
H34C H 0.1035 0.8225 0.4867 0.129 Uiso 1 1 calc R . .
C35 C 0.0840(7) 0.6814(6) 0.4328(6) 0.0485(18) Uani 1 1 d . . .
N1 N 0.6446(4) -0.0521(4) 0.5805(3) 0.0250(10) Uani 1 1 d . . .
H1A H 0.5766 -0.0622 0.6055 0.030 Uiso 1 1 calc R . .
N2 N 0.5361(4) 0.2979(3) 0.4038(3) 0.0237(10) Uani 1 1 d . . .
H2A H 0.5339 0.3339 0.3445 0.028 Uiso 1 1 calc R . .
N3 N 0.8179(3) 0.0624(3) 0.2396(3) 0.0182(8) Uani 1 1 d . . .
H3B H 0.8405 0.1199 0.2046 0.022 Uiso 1 1 calc R . .
N4 N 0.6244(9) -0.0655(9) 0.9048(7) 0.101(3) Uani 1 1 d . . .
N5 N 0.1427(12) 0.6379(7) 0.3550(7) 0.116(5) Uani 1 1 d . . .
O1 O 0.9641(3) -0.3880(3) 0.8433(2) 0.0159(7) Uani 1 1 d . . .
O2 O 1.0861(3) -0.2663(3) 0.7951(3) 0.0190(7) Uani 1 1 d . . .
O3 O 0.3051(3) 0.4584(3) 0.8257(3) 0.0219(8) Uani 1 1 d . . .
O4 O 0.1845(3) 0.5372(3) 0.7199(3) 0.0280(9) Uani 1 1 d . . .
O5 O 0.9332(3) -0.4079(3) 0.0839(3) 0.0197(7) Uani 1 1 d . . .
O6 O 1.0803(3) -0.3208(3) 0.0110(3) 0.0204(7) Uani 1 1 d . . .
O7 O 0.4869(9) 0.0477(11) 0.8071(9) 0.164(5) Uani 1 1 d . . .
O8 O -0.0407(9) 0.6682(10) 0.4618(8) 0.140(4) Uani 1 1 d . . .
O1W O 1.2998(3) -0.3441(3) 0.9052(3) 0.0217(7) Uani 1 1 d . . .
H1WA H 1.3004 -0.2781 0.8809 0.026 Uiso 1 1 d R . .
H1WB H 1.3569 -0.3752 0.9339 0.026 Uiso 1 1 d R . .
O2W O 1.2143(3) -0.5249(3) 1.0419(3) 0.0203(7) Uani 1 1 d . . .
H2WA H 1.1797 -0.5147 1.0997 0.024 Uiso 1 1 d R . .
H2WB H 1.2742 -0.5673 1.0385 0.024 Uiso 1 1 d R . .
O3W O 0.6820(5) 0.1400(4) 0.0552(4) 0.0548(13) Uani 1 1 d . . .
H3WA H 0.7336 0.1282 0.0080 0.066 Uiso 1 1 d R . .
H3WB H 0.6166 0.1663 0.0399 0.066 Uiso 1 1 d R . .
O4W O 0.5429(6) 0.6774(5) 0.0454(6) 0.089(2) Uani 1 1 d . . .
H4WA H 0.5801 0.6540 -0.0069 0.106 Uiso 1 1 d R . .
H4WB H 0.5143 0.7425 0.0426 0.106 Uiso 1 1 d R . .
O5W O 0.4800(3) 0.3790(3) 0.1729(3) 0.0364(10) Uani 1 1 d . . .
H5WA H 0.5144 0.3770 0.1137 0.044 Uiso 1 1 d R . .
H5WB H 0.4194 0.4196 0.1811 0.044 Uiso 1 1 d R . .
O6W O 0.3464(4) 0.5749(4) 0.1612(4) 0.0443(11) Uani 1 1 d . . .
H6WA H 0.3333 0.5315 0.1188 0.053 Uiso 1 1 d R . .
H6WB H 0.4097 0.6030 0.1562 0.053 Uiso 1 1 d R . .



loop_

_atom_site_aniso_label

_atom_site_aniso_U_11

_atom_site_aniso_U_22

_atom_site_aniso_U_33

_atom_site_aniso_U_23

_atom_site_aniso_U_13

_atom_site_aniso_U_12























































Lu1 0.01170(11) 0.01269(11) 0.01433(11) -0.00245(7) 0.00299(7) 0.00108(7)
C1 0.016(2) 0.016(2) 0.013(2) -0.0035(18) 0.0007(18) 0.0011(18)
C2 0.020(3) 0.016(2) 0.018(2) 0.0017(19) -0.0035(19) -0.0008(19)
C3 0.018(3) 0.024(3) 0.022(2) 0.002(2) -0.003(2) -0.007(2)
C4 0.024(3) 0.020(3) 0.024(3) 0.006(2) -0.004(2) -0.005(2)
C5 0.022(3) 0.020(2) 0.021(2) 0.001(2) -0.004(2) -0.002(2)
C6 0.019(3) 0.030(3) 0.035(3) 0.012(2) -0.007(2) -0.009(2)
C7 0.022(3) 0.020(3) 0.032(3) 0.011(2) -0.005(2) -0.007(2)
C8 0.018(2) 0.017(2) 0.026(3) -0.005(2) 0.007(2) -0.0014(19)
C9 0.023(3) 0.018(2) 0.025(3) -0.007(2) 0.007(2) -0.002(2)
C10 0.029(3) 0.023(3) 0.030(3) -0.001(2) 0.006(2) 0.007(2)
C11 0.030(3) 0.027(3) 0.019(3) -0.001(2) 0.005(2) 0.005(2)
C12 0.021(3) 0.017(2) 0.025(3) -0.005(2) 0.010(2) -0.001(2)
C13 0.020(3) 0.028(3) 0.029(3) -0.008(2) 0.002(2) 0.004(2)
C14 0.023(3) 0.027(3) 0.027(3) -0.009(2) 0.001(2) -0.002(2)
C15 0.019(2) 0.016(2) 0.016(2) -0.0060(18) -0.0043(19) 0.0022(19)
C16 0.021(3) 0.012(2) 0.018(2) -0.0035(18) 0.0021(19) 0.0004(18)
C17 0.018(2) 0.014(2) 0.025(3) -0.0038(19) 0.006(2) -0.0022(19)
C18 0.015(2) 0.018(2) 0.027(3) -0.007(2) 0.005(2) -0.0008(19)
C19 0.016(2) 0.013(2) 0.019(2) -0.0042(18) -0.0023(19) 0.0033(18)
C20 0.020(3) 0.015(2) 0.026(3) -0.005(2) 0.006(2) -0.0046(19)
C21 0.017(2) 0.020(2) 0.020(2) -0.006(2) 0.0079(19) -0.0037(19)
C22 0.015(2) 0.025(3) 0.019(2) -0.001(2) -0.0033(19) -0.004(2)
C23 0.013(2) 0.023(3) 0.018(2) -0.0033(19) 0.0027(19) -0.0003(19)
C24 0.016(2) 0.018(2) 0.017(2) -0.0061(19) 0.0002(19) 0.0016(19)
C25 0.017(2) 0.014(2) 0.020(2) -0.0036(19) 0.0025(19) 0.0000(18)
C26 0.018(2) 0.015(2) 0.020(2) -0.0071(19) -0.0007(19) -0.0016(19)
C27 0.016(2) 0.015(2) 0.023(2) -0.0048(19) -0.0031(19) 0.0031(18)
C28 0.019(3) 0.071(5) 0.051(4) 0.036(4) -0.001(3) -0.010(3)
C29 0.034(4) 0.108(7) 0.048(4) -0.012(5) -0.007(3) -0.010(4)
C30 0.060(6) 0.083(6) 0.061(5) -0.022(5) 0.001(4) 0.001(5)
C31 0.040(4) 0.066(5) 0.035(3) 0.011(3) -0.002(3) -0.004(3)
C32 0.095(7) 0.058(5) 0.061(5) -0.031(4) -0.025(5) -0.005(5)
C33 0.006(3) 0.090(6) 0.069(5) -0.057(5) 0.001(3) -0.004(3)
C34 0.057(6) 0.111(8) 0.104(8) -0.077(7) 0.015(5) -0.028(5)
C35 0.047(4) 0.045(4) 0.060(5) -0.030(4) -0.005(4) -0.008(3)
N1 0.016(2) 0.028(2) 0.028(2) 0.0102(19) -0.0016(18) -0.0033(18)
N2 0.029(2) 0.021(2) 0.017(2) -0.0013(17) 0.0091(18) 0.0097(18)
N3 0.019(2) 0.0125(19) 0.022(2) -0.0032(16) 0.0067(17) 0.0009(16)
N4 0.089(7) 0.140(9) 0.071(6) -0.016(6) -0.001(5) 0.011(7)
N5 0.218(14) 0.056(5) 0.087(6) -0.035(5) -0.088(8) 0.031(7)
O1 0.0150(17) 0.0157(16) 0.0163(16) 0.0014(13) 0.0005(13) -0.0025(13)
O2 0.0147(17) 0.0158(17) 0.0253(18) 0.0012(14) 0.0020(14) -0.0010(13)
O3 0.0181(18) 0.0231(18) 0.0245(19) -0.0094(15) 0.0043(14) 0.0021(14)
O4 0.027(2) 0.032(2) 0.0211(19) -0.0033(16) 0.0076(16) 0.0112(17)
O5 0.0249(19) 0.0131(16) 0.0214(17) -0.0041(13) -0.0007(15) -0.0009(14)
O6 0.0156(18) 0.0232(18) 0.0229(18) -0.0104(15) 0.0036(14) 0.0002(14)
O7 0.101(8) 0.245(14) 0.140(9) 0.019(9) -0.036(7) -0.004(8)
O8 0.109(8) 0.170(10) 0.144(9) -0.023(7) 0.016(7) -0.043(7)
O1W 0.0167(18) 0.0199(18) 0.0271(19) 0.0020(15) 0.0002(15) -0.0010(14)
O2W 0.0180(18) 0.0212(18) 0.0202(17) 0.0012(14) 0.0005(14) 0.0011(14)
O3W 0.053(3) 0.056(3) 0.054(3) -0.012(3) -0.004(3) 0.008(3)
O4W 0.078(5) 0.052(4) 0.143(7) -0.024(4) -0.055(5) 0.025(3)
O5W 0.023(2) 0.039(2) 0.046(3) -0.006(2) 0.0093(18) -0.0035(18)
O6W 0.037(3) 0.050(3) 0.051(3) -0.019(2) -0.020(2) -0.002(2)



_geom_special_details            
; 

 All esds (except the esd in the dihedral angle between two l.s. planes) 

 are estimated using the full covariance matrix.  The cell esds are taken 

 into account individually in the estimation of esds in distances, angles 

 and torsion angles; correlations between esds in cell parameters are only 

 used when they are defined by crystal symmetry.  An approximate (isotropic) 

 treatment of cell esds is used for estimating esds involving l.s. planes. 

;



loop_

_geom_bond_atom_site_label_1

_geom_bond_atom_site_label_2

_geom_bond_distance

_geom_bond_site_symmetry_2

_geom_bond_publ_flag
















































































































Lu1 O5 2.196(3) 2_746 ?
Lu1 O1W 2.273(4) . ?
Lu1 O6 2.277(3) 1_556 ?
Lu1 O2W 2.314(3) . ?
Lu1 O1 2.328(3) . ?
Lu1 O4 2.341(4) 1_645 ?
Lu1 O3 2.366(3) 1_645 ?
Lu1 O2 2.458(3) . ?
Lu1 C8 2.725(5) 1_645 ?
Lu1 C1 2.760(5) . ?
C1 O2 1.256(6) . ?
C1 O1 1.276(6) . ?
C1 C2 1.481(6) . ?
C2 C7 1.396(7) . ?
C2 C3 1.400(7) . ?
C3 C4 1.386(7) . ?
C3 H3A 0.9300 . ?
C4 C5 1.393(7) . ?
C4 H4A 0.9300 . ?
C5 N1 1.378(7) . ?
C5 C6 1.407(7) . ?
C6 C7 1.369(7) . ?
C6 H6A 0.9300 . ?
C7 H7A 0.9300 . ?
C8 O4 1.260(6) . ?
C8 O3 1.275(6) . ?
C8 C9 1.487(7) . ?
C8 Lu1 2.725(5) 1_465 ?
C9 C14 1.386(8) . ?
C9 C10 1.393(8) . ?
C10 C11 1.384(7) . ?
C10 H10A 0.9300 . ?
C11 C12 1.392(7) . ?
C11 H11A 0.9300 . ?
C12 N2 1.402(6) . ?
C12 C13 1.398(8) . ?
C13 C14 1.379(7) . ?
C13 H13A 0.9300 . ?
C14 H14A 0.9300 . ?
C15 O6 1.253(6) . ?
C15 O5 1.267(6) . ?
C15 C16 1.496(6) . ?
C16 C17 1.397(7) . ?
C16 C21 1.397(7) . ?
C17 C18 1.388(7) . ?
C17 H17A 0.9300 . ?
C18 C19 