####################################################################### 
# 
# This file contains crystal structure data downloaded from the 
# Cambridge Structural Database (CSD) hosted by the Cambridge 
# Crystallographic Data Centre (CCDC).
# 
# Full information about CCDC data access policies and citation 
# guidelines are available at http://www.ccdc.cam.ac.uk/access/V1 
# 
# Audit and citation data items may have been added by the CCDC. 
# Please retain this information to preserve the provenance of 
# this file and to allow appropriate attribution of the data. 
# 
#######################################################################

data_compound1
_audit_block_doi                 10.5517/ccztz3v
_database_code_depnum_ccdc_archive 'CCDC 918688'
loop_
_citation_id
_citation_doi
_citation_year
1 10.1021/cg401760m 2014
_audit_update_record             
;
2014-06-03 deposited with the CCDC.	2024-07-13 downloaded from the CCDC.
;

_audit_creation_method           SHELXL-97
_chemical_name_systematic        
;
 ?
;
_chemical_name_common            ?
_chemical_melting_point          ?
_chemical_formula_moiety         'C54 H40 Cd2 N8 O16'
_chemical_formula_sum            'C54 H40 Cd2 N8 O16'
_chemical_formula_weight         1281.74

loop_
_atom_type_symbol
_atom_type_description
_atom_type_scat_dispersion_real
_atom_type_scat_dispersion_imag
_atom_type_scat_source
C C 0.0033 0.0016 'International Tables Vol C Tables 4.2.6.8 and 6.1.1.4'
H H 0.0000 0.0000 'International Tables Vol C Tables 4.2.6.8 and 6.1.1.4'
N N 0.0061 0.0033 'International Tables Vol C Tables 4.2.6.8 and 6.1.1.4'
O O 0.0106 0.0060 'International Tables Vol C Tables 4.2.6.8 and 6.1.1.4'
Cd Cd -0.8075 1.2024 'International Tables Vol C Tables 4.2.6.8 and 6.1.1.4'

_symmetry_cell_setting           Monoclinic
_symmetry_space_group_name_H-M   C2/c

loop_
_symmetry_equiv_pos_as_xyz
'x, y, z'
'-x, y, -z+1/2'
'x+1/2, y+1/2, z'
'-x+1/2, y+1/2, -z+1/2'
'-x, -y, -z'
'x, -y, z-1/2'
'-x+1/2, -y+1/2, -z'
'x+1/2, -y+1/2, z-1/2'

_cell_length_a                   46.715(6)
_cell_length_b                   9.674(5)
_cell_length_c                   32.798(4)
_cell_angle_alpha                90.000
_cell_angle_beta                 100.790(5)
_cell_angle_gamma                90.000
_cell_volume                     14560(8)
_cell_formula_units_Z            8
_cell_measurement_temperature    100(2)
_cell_measurement_reflns_used    ?
_cell_measurement_theta_min      2.2
_cell_measurement_theta_max      28.6

_exptl_crystal_description       needle
_exptl_crystal_colour            colorless
_exptl_crystal_size_max          0.21
_exptl_crystal_size_mid          0.19
_exptl_crystal_size_min          0.18
_exptl_crystal_density_meas      ?
_exptl_crystal_density_diffrn    1.169
_exptl_crystal_density_method    'not measured'
_exptl_crystal_F_000             5152
_exptl_absorpt_coefficient_mu    0.642
_exptl_absorpt_correction_type   empirical
_exptl_absorpt_correction_T_min  0.8770
_exptl_absorpt_correction_T_max  0.8932
_exptl_absorpt_process_details   'SADABAS 2.10 (Bruker 2003)'

_exptl_special_details           
;
 ?
;

_diffrn_ambient_temperature      100(2)
_diffrn_radiation_wavelength     0.71069
_diffrn_radiation_type           MoK\a
_diffrn_radiation_source         'fine-focus sealed tube'
_diffrn_radiation_monochromator  graphite
_diffrn_measurement_device_type  'Bruker SMART APEX'
_diffrn_measurement_method       /w-scans
_diffrn_detector_area_resol_mean ?
_diffrn_standards_number         ?
_diffrn_standards_interval_count ?
_diffrn_standards_interval_time  ?
_diffrn_standards_decay_%        ?
_diffrn_reflns_number            47393
_diffrn_reflns_av_R_equivalents  0.1117
_diffrn_reflns_av_sigmaI/netI    0.2216
_diffrn_reflns_limit_h_min       -57
_diffrn_reflns_limit_h_max       62
_diffrn_reflns_limit_k_min       -12
_diffrn_reflns_limit_k_max       11
_diffrn_reflns_limit_l_min       -43
_diffrn_reflns_limit_l_max       42
_diffrn_reflns_theta_min         2.22
_diffrn_reflns_theta_max         28.59
_reflns_number_total             18329
_reflns_number_gt                9665
_reflns_threshold_expression     >2sigma(I)

_computing_data_collection       'SMART 5.628 (Bruker, 2003)'
_computing_cell_refinement       'SAINT 6.45 ( Bruker, 2003)'
_computing_data_reduction        'SAINT 6.45 ( Bruker, 2003)'
_computing_structure_solution    SIR-97
_computing_structure_refinement  'SHELXL-97 (Sheldrick, 1997)'
_computing_molecular_graphics    'Diamond 2.1e'
_computing_publication_material  ?

_refine_special_details          
;
 Refinement of F^2^ against ALL reflections.  The weighted R-factor wR and
 goodness of fit S are based on F^2^, conventional R-factors R are based
 on F, with F set to zero for negative F^2^. The threshold expression of
 F^2^ > 2sigma(F^2^) is used only for calculating R-factors(gt) etc. and is
 not relevant to the choice of reflections for refinement.  R-factors based
 on F^2^ are statistically about twice as large as those based on F, and R-
 factors based on ALL data will be even larger.
;

_refine_ls_structure_factor_coef Fsqd
_refine_ls_matrix_type           full
_refine_ls_weighting_scheme      calc
_refine_ls_weighting_details     
'calc w=1/[\s^2^(Fo^2^)+(0.0766P)^2^+0.0000P] where P=(Fo^2^+2Fc^2^)/3'
_atom_sites_solution_primary     direct
_atom_sites_solution_secondary   difmap
_atom_sites_solution_hydrogens   geom
_refine_ls_hydrogen_treatment    constr
_refine_ls_extinction_method     none
_refine_ls_extinction_coef       ?
_refine_ls_number_reflns         18329
_refine_ls_number_parameters     721
_refine_ls_number_restraints     0
_refine_ls_R_factor_all          0.1672
_refine_ls_R_factor_gt           0.0701
_refine_ls_wR_factor_ref         0.1843
_refine_ls_wR_factor_gt          0.1564
_refine_ls_goodness_of_fit_ref   0.803
_refine_ls_restrained_S_all      0.803
_refine_ls_shift/su_max          0.003
_refine_ls_shift/su_mean         0.000

loop_
_atom_site_label
_atom_site_type_symbol
_atom_site_fract_x
_atom_site_fract_y
_atom_site_fract_z
_atom_site_U_iso_or_equiv
_atom_site_adp_type
_atom_site_occupancy
_atom_site_symmetry_multiplicity
_atom_site_calc_flag
_atom_site_refinement_flags
_atom_site_disorder_assembly
_atom_site_disorder_group
Cd1 Cd 0.242018(10) -0.17821(5) -0.134890(12) 0.03856(14) Uani 1 1 d . . .
Cd2 Cd 0.601321(11) 0.53899(5) 0.042694(15) 0.04609(16) Uani 1 1 d . . .
O5 O 0.28509(9) -0.0409(4) -0.10692(11) 0.0402(10) Uani 1 1 d . . .
O3 O 0.23921(11) -0.0343(5) -0.19979(12) 0.0560(13) Uani 1 1 d . . .
O1 O 0.24393(10) -0.7285(5) -0.57063(12) 0.0507(12) Uani 1 1 d . . .
O6 O 0.29002(10) -0.2358(5) -0.13859(13) 0.0536(12) Uani 1 1 d . . .
O9 O 0.58754(11) 0.6882(5) 0.09443(14) 0.0589(13) Uani 1 1 d . . .
O4 O 0.22410(10) -0.2501(5) -0.20008(12) 0.0508(12) Uani 1 1 d . . .
N2 N 0.21060(10) -0.1727(5) -0.39412(13) 0.0355(12) Uani 1 1 d . . .
N1 N 0.21145(10) -0.2515(5) -0.45547(13) 0.0344(12) Uani 1 1 d . . .
O10 O 0.62575(10) 0.5529(5) 0.10994(13) 0.0567(13) Uani 1 1 d . . .
O'1 O 0.64159(10) 0.4145(5) 0.02955(14) 0.0463(13) Uani 1 1 d . . .
C5 C 0.21931(13) -0.3356(6) -0.48822(16) 0.0341(14) Uani 1 1 d . . .
C8 C 0.18820(13) -0.1565(6) -0.45977(17) 0.0380(15) Uani 1 1 d . . .
H8 H 0.1756 -0.1316 -0.4841 0.046 Uiso 1 1 calc R . .
C11 C 0.21579(13) -0.1628(6) -0.34972(17) 0.0359(14) Uani 1 1 d . . .
N3 N 0.42296(13) -0.0581(6) -0.0926(2) 0.0496(17) Uani 1 1 d . . .
N4 N 0.46619(13) 0.0263(7) -0.0704(2) 0.0507(19) Uani 1 1 d . . .
C10 C 0.22438(14) -0.2582(6) -0.41557(16) 0.0351(14) Uani 1 1 d . . .
H10 H 0.2403 -0.3134 -0.4047 0.042 Uiso 1 1 calc R . .
N6 N 0.63564(13) 0.9899(7) 0.33808(16) 0.0476(17) Uani 1 1 d . . .
N23 C 0.30072(15) -0.1325(7) -0.11958(18) 0.0425(16) Uani 1 1 d . . .
C19 C 0.33283(13) -0.1166(7) -0.1108(2) 0.0429(16) Uani 1 1 d . . .
C9 C 0.18805(14) -0.1103(6) -0.42198(18) 0.0410(15) Uani 1 1 d . . .
H9 H 0.1750 -0.0461 -0.4150 0.049 Uiso 1 1 calc R . .
C2 C 0.23165(13) -0.5107(6) -0.54915(17) 0.0353(14) Uani 1 1 d . . .
C6 C 0.21128(13) -0.2934(6) -0.52965(16) 0.0372(15) Uani 1 1 d . . .
H6 H 0.2020 -0.2093 -0.5367 0.045 Uiso 1 1 calc R . .
N7 N 0.66186(14) 0.2357(7) 0.0020(2) 0.050(2) Uani 1 1 d . . .
C34 C 0.55588(17) 0.3657(9) 0.0132(3) 0.046(2) Uani 1 1 d . . .
C18 C 0.22975(15) -0.1410(8) -0.21838(19) 0.0483(18) Uani 1 1 d . . .
C15 C 0.22483(13) -0.1491(7) -0.26460(18) 0.0422(16) Uani 1 1 d . . .
C17 C 0.21611(13) -0.0345(7) -0.33126(19) 0.0445(16) Uani 1 1 d . . .
H17 H 0.2131 0.0460 -0.3470 0.053 Uiso 1 1 calc R . .
C35 C 0.60979(16) 0.6448(7) 0.1195(2) 0.0468(17) Uani 1 1 d . . .
O7 O 0.55232(14) 0.4859(7) 0.0180(3) 0.060(3) Uani 1 1 d . . .
C4 C 0.23386(13) -0.4585(6) -0.47685(18) 0.0389(15) Uani 1 1 d . . .
H4 H 0.2394 -0.4831 -0.4491 0.047 Uiso 1 1 calc R . .
C14 C 0.22489(14) -0.2746(6) -0.28356(17) 0.0426(16) Uani 1 1 d . . .
H14 H 0.2279 -0.3546 -0.2676 0.051 Uiso 1 1 calc R . .
N5 N 0.63797(13) 0.8842(7) 0.28134(17) 0.0506(18) Uani 1 1 d . . .
C13 C 0.22046(14) -0.2835(7) -0.32666(18) 0.0398(17) Uani 1 1 d . . .
H13 H 0.2206 -0.3687 -0.3397 0.046 Uiso 1 1 calc R . .
C44 C 0.62002(17) 0.9473(8) 0.3024(2) 0.045(2) Uani 1 1 d . . .
H44 H 0.6001 0.9594 0.2935 0.059 Uiso 1 1 calc R . .
C39 C 0.63021(17) 0.8238(8) 0.2401(2) 0.0578(19) Uani 1 1 d . . .
C16 C 0.22117(14) -0.0309(7) -0.28833(18) 0.0463(17) Uani 1 1 d . . .
H16 H 0.2221 0.0543 -0.2750 0.056 Uiso 1 1 calc R . .
C24 C 0.34544(15) 0.0054(7) -0.0927(2) 0.0413(19) Uani 1 1 d . . .
H24 H 0.3337 0.0749 -0.0851 0.064 Uiso 1 1 calc R . .
C3 C 0.23990(13) -0.5436(6) -0.50807(17) 0.0365(14) Uani 1 1 d . . .
H3 H 0.2499 -0.6258 -0.5009 0.044 Uiso 1 1 calc R . .
C7 C 0.21776(13) -0.3820(7) -0.55935(17) 0.0359(16) Uani 1 1 d . . .
H7 H 0.2129 -0.3565 -0.5871 0.051 Uiso 1 1 calc R . .
C'1 C 0.64080(16) 0.2953(7) 0.0166(2) 0.0462(19) Uani 1 1 d . . .
H'1 H 0.6241 0.2438 0.0172 0.057 Uiso 1 1 calc R . .
C23 C 0.37468(16) 0.0218(6) -0.0861(2) 0.0498(19) Uani 1 1 d . . .
H23 H 0.3829 0.1023 -0.0735 0.067 Uiso 1 1 calc R . .
C27 C 0.43822(15) 0.0292(7) -0.0645(2) 0.047(2) Uani 1 1 d . . .
H27 H 0.4310 0.0814 -0.0449 0.061 Uiso 1 1 calc R . .
C1 C 0.23524(14) -0.6092(7) -0.58154(18) 0.0400(15) Uani 1 1 d . . .
C26 C 0.46847(18) -0.0649(10) -0.1024(3) 0.051(3) Uani 1 1 d . . .
H26 H 0.4854 -0.0855 -0.1121 0.081 Uiso 1 1 calc R . .
C20 C 0.35085(14) -0.2155(6) -0.1224(2) 0.0448(17) Uani 1 1 d . . .
H20 H 0.3426 -0.2953 -0.1355 0.054 Uiso 1 1 calc R . .
C31 C 0.53307(15) 0.2721(8) -0.0060(2) 0.0465(19) Uani 1 1 d . . .
C21 C 0.38035(16) -0.2008(7) -0.1154(2) 0.0459(18) Uani 1 1 d . . .
H21 H 0.3922 -0.2708 -0.1224 0.062 Uiso 1 1 calc R . .
C22 C 0.39235(14) -0.0786(7) -0.0976(2) 0.0386(19) Uani 1 1 d . . .
C28 C 0.48965(16) 0.1075(8) -0.0473(2) 0.048(2) Uani 1 1 d . . .
C40 C 0.60514(18) 0.8661(9) 0.2133(2) 0.062(3) Uani 1 1 d . . .
H40 H 0.5931 0.9339 0.2211 0.084 Uiso 1 1 calc R . .
C38 C 0.64776(17) 0.7243(10) 0.2292(2) 0.058(3) Uani 1 1 d . . .
H38 H 0.6645 0.6975 0.2476 0.093 Uiso 1 1 calc R . .
C'3 C 0.65754(19) 0.0913(9) -0.0128(3) 0.062(4) Uani 1 1 d . . .
H'3A H 0.6742 0.0616 -0.0236 0.085 Uiso 1 1 calc R . .
H'3B H 0.6405 0.0860 -0.0342 0.085 Uiso 1 1 calc R . .
H'3C H 0.6551 0.0326 0.0099 0.085 Uiso 1 1 calc R . .
C42 C 0.66651(17) 0.8883(9) 0.3052(2) 0.047(2) Uani 1 1 d . . .
H42 H 0.6833 0.8516 0.2981 0.083 Uiso 1 1 calc R . .
C36 C 0.61651(16) 0.7044(8) 0.1625(2) 0.0547(19) Uani 1 1 d . . .
C'2 C 0.6895(2) 0.2990(10) 0.0027(4) 0.055(6) Uani 1 1 d . . .
H'2A H 0.7012 0.2407 -0.0114 0.093 Uiso 1 1 calc R . .
H'2B H 0.6992 0.3116 0.0310 0.093 Uiso 1 1 calc R . .
H'2C H 0.6868 0.3871 -0.0109 0.093 Uiso 1 1 calc R . .
C43 C 0.66426(17) 0.9557(9) 0.3399(2) 0.053(2) Uani 1 1 d . . .
H43 H 0.6795 0.9760 0.3616 0.084 Uiso 1 1 calc R . .
C29 C 0.51736(17) 0.0642(10) -0.0431(3) 0.059(4) Uani 1 1 d . . .
H29 H 0.5216 -0.0209 -0.0538 0.123 Uiso 1 1 calc R . .
C41 C 0.59880(18) 0.8052(8) 0.1754(2) 0.058(2) Uani 1 1 d . . .
H41 H 0.5819 0.8319 0.1572 0.086 Uiso 1 1 calc R . .
C30 C 0.53951(18) 0.1487(9) -0.0226(3) 0.052(3) Uani 1 1 d . . .
H30 H 0.5588 0.1212 -0.0202 0.104 Uiso 1 1 calc R . .
C33 C 0.48196(18) 0.2263(10) -0.0296(3) 0.053(4) Uani 1 1 d . . .
H33 H 0.4626 0.2517 -0.0315 0.129 Uiso 1 1 calc R . .
C37 C 0.64066(18) 0.6627(9) 0.1903(2) 0.064(2) Uani 1 1 d . . .
H37 H 0.6524 0.5926 0.1831 0.085 Uiso 1 1 calc R . .
C25 C 0.44172(19) -0.1188(10) -0.1170(3) 0.050(4) Uani 1 1 d . . .
H25 H 0.4367 -0.1821 -0.1385 0.132 Uiso 1 1 calc R . .
C32 C 0.50505(19) 0.3093(10) -0.0081(3) 0.050(4) Uani 1 1 d . . .
H32 H 0.5008 0.3904 0.0048 0.128 Uiso 1 1 calc R . .
O2 O 0.22893(9) -0.5755(4) -0.61918(12) 0.0489(12) Uani 1 1 d . . .
O8 O 0.57973(14) 0.3195(6) 0.0299(2) 0.049(2) Uani 1 1 d . . .
C45 C 0.62477(16) 1.0554(8) 0.3719(2) 0.0542(19) Uani 1 1 d . . .
C48 C 0.64055(16) 1.1592(9) 0.3927(2) 0.056(2) Uani 1 1 d . . .
H48 H 0.6570 1.1920 0.3837 0.079 Uiso 1 1 calc R . .
C46 C 0.59972(16) 1.0083(8) 0.3841(2) 0.062(2) Uani 1 1 d . . .
H46 H 0.5887 0.9387 0.3691 0.074 Uiso 1 1 calc R . .
C47 C 0.59093(16) 1.0649(8) 0.4187(2) 0.053(2) Uani 1 1 d . . .
H47 H 0.5741 1.0332 0.4271 0.076 Uiso 1 1 calc R . .
C50 C 0.60732(14) 1.1680(7) 0.44051(18) 0.0466(17) Uani 1 1 d . . .
C51 C 0.59879(17) 1.2232(7) 0.48014(19) 0.0481(18) Uani 1 1 d . . .
C49 C 0.63216(17) 1.2164(8) 0.4272(2) 0.059(2) Uani 1 1 d . . .
H49 H 0.6431 1.2874 0.4416 0.079 Uiso 1 1 calc R . .
O11 O 0.61459(11) 1.3238(5) 0.49625(13) 0.0462(14) Uani 1 1 d . . .
O12 O 0.57841(11) 1.1735(6) 0.49269(14) 0.0514(15) Uani 1 1 d . . .
O14 O 0.18972(15) -0.1266(10) -0.1259(2) 0.048(3) Uani 1 1 d . . .
O15 O 0.22045(13) 0.0264(6) -0.11242(15) 0.0643(14) Uani 1 1 d . . .
N8 N 0.1939(4) 0.0068(13) -0.1103(3) 0.053(5) Uani 1 1 d . . .
O16 O 0.1755(3) 0.030(2) -0.0811(7) 0.050(5) Uani 1 1 d . . .

loop_
_atom_site_aniso_label
_atom_site_aniso_U_11
_atom_site_aniso_U_22
_atom_site_aniso_U_33
_atom_site_aniso_U_23
_atom_site_aniso_U_13
_atom_site_aniso_U_12
Cd1 0.0533(3) 0.0331(3) 0.0306(2) -0.0032(2) 0.0112(2) -0.0073(2)
Cd2 0.0503(3) 0.0417(3) 0.0487(3) -0.0058(2) 0.0156(2) -0.0020(2)
O5 0.055(3) 0.025(2) 0.041(2) 0.002(2) 0.010(2) -0.009(2)
O3 0.088(4) 0.041(3) 0.037(2) -0.011(2) 0.008(2) -0.017(3)
O1 0.069(3) 0.042(3) 0.042(2) -0.004(2) 0.011(2) 0.010(2)
O6 0.063(3) 0.037(3) 0.063(3) -0.020(2) 0.017(2) -0.016(2)
O9 0.068(4) 0.054(3) 0.055(3) -0.009(3) 0.011(3) 0.000(3)
O4 0.067(3) 0.048(3) 0.037(2) 0.001(2) 0.008(2) -0.016(2)
N2 0.047(3) 0.029(3) 0.033(3) 0.002(2) 0.013(2) 0.003(2)
N1 0.048(3) 0.029(3) 0.024(2) 0.004(2) 0.002(2) 0.003(2)
O10 0.059(3) 0.055(3) 0.059(3) -0.004(2) 0.018(2) 0.013(3)
O'1 0.062(3) 0.034(3) 0.046(3) -0.013(3) 0.015(3) -0.006(2)
C5 0.049(4) 0.023(3) 0.031(3) -0.009(3) 0.011(3) -0.001(3)
C8 0.052(4) 0.027(4) 0.033(3) 0.007(3) 0.004(3) 0.015(3)
C11 0.042(4) 0.034(4) 0.033(3) 0.002(3) 0.011(3) 0.003(3)
N3 0.061(4) 0.038(4) 0.054(5) -0.010(3) 0.011(4) -0.004(3)
N4 0.047(4) 0.057(4) 0.053(5) -0.015(4) 0.014(4) -0.008(3)
C10 0.056(4) 0.024(3) 0.029(3) 0.002(3) 0.018(3) 0.003(3)
N6 0.059(4) 0.044(5) 0.041(3) -0.011(3) 0.007(3) 0.009(3)
N23 0.052(5) 0.035(4) 0.040(4) -0.003(3) 0.007(3) -0.013(3)
C19 0.035(4) 0.034(4) 0.062(4) -0.014(3) 0.015(3) -0.009(3)
C9 0.048(4) 0.030(4) 0.042(4) 0.008(3) 0.001(3) 0.009(3)
C2 0.036(4) 0.039(4) 0.033(3) 0.007(3) 0.011(3) -0.003(3)
C6 0.045(4) 0.034(4) 0.031(3) 0.005(3) 0.006(3) 0.000(3)
N7 0.054(4) 0.053(4) 0.046(5) -0.017(4) 0.014(4) 0.004(3)
C34 0.043(5) 0.054(6) 0.043(5) -0.023(5) 0.011(4) 0.013(4)
C18 0.057(5) 0.051(5) 0.038(4) 0.001(3) 0.014(3) -0.005(4)
C15 0.047(4) 0.040(4) 0.040(3) 0.000(3) 0.012(3) -0.011(3)
C17 0.051(4) 0.037(4) 0.044(4) 0.001(3) 0.006(3) 0.010(3)
C35 0.047(5) 0.045(5) 0.050(4) -0.001(3) 0.010(4) -0.003(3)
O7 0.077(5) 0.047(5) 0.054(5) -0.014(5) 0.004(5) -0.004(4)
C4 0.051(4) 0.030(4) 0.038(3) 0.008(3) 0.014(3) -0.001(3)
C14 0.061(5) 0.030(4) 0.036(3) 0.003(3) 0.005(3) 0.003(3)
N5 0.043(4) 0.057(5) 0.055(4) -0.010(4) 0.011(3) 0.001(3)
C13 0.057(5) 0.030(4) 0.033(3) -0.006(3) 0.010(3) 0.003(3)
C44 0.060(5) 0.041(4) 0.037(4) -0.010(4) 0.015(4) 0.009(4)
C39 0.065(5) 0.066(5) 0.044(4) -0.007(4) 0.016(4) 0.010(4)
C16 0.066(5) 0.030(4) 0.042(4) -0.011(3) 0.008(3) -0.004(3)
C24 0.050(5) 0.036(4) 0.040(5) -0.012(4) 0.017(4) -0.009(3)
C3 0.044(4) 0.022(3) 0.043(3) 0.004(3) 0.007(3) 0.004(3)
C7 0.051(4) 0.039(5) 0.021(3) 0.008(3) 0.014(3) -0.004(4)
C'1 0.053(5) 0.038(5) 0.048(5) -0.011(4) 0.012(4) -0.009(4)
C23 0.060(5) 0.039(4) 0.054(5) -0.011(4) 0.018(4) -0.007(3)
C27 0.050(5) 0.045(5) 0.049(5) -0.009(4) 0.019(4) -0.004(4)
C1 0.059(5) 0.033(4) 0.033(3) 0.001(3) 0.021(3) 0.008(3)
C26 0.054(4) 0.064(4) 0.035(5) -0.014(4) 0.012(5) -0.003(4)
C20 0.043(4) 0.031(4) 0.063(4) -0.013(3) 0.017(3) -0.009(3)
C31 0.036(4) 0.048(4) 0.048(5) -0.009(4) -0.008(4) -0.002(3)
C21 0.065(5) 0.028(4) 0.047(4) -0.012(3) 0.013(4) 0.000(3)
C22 0.035(4) 0.044(5) 0.042(5) -0.018(4) 0.020(4) -0.009(3)
C28 0.051(5) 0.052(5) 0.042(4) -0.015(5) 0.010(5) -0.005(4)
C40 0.079(4) 0.046(4) 0.057(5) -0.019(5) 0.002(4) 0.010(5)
C38 0.067(5) 0.058(5) 0.047(4) -0.014(5) 0.007(4) 0.008(4)
C'3 0.071(4) 0.061(5) 0.046(4) -0.018(4) -0.009(5) 0.010(4)
C42 0.059(6) 0.045(5) 0.039(5) -0.012(4) 0.016(4) -0.010(4)
C36 0.057(5) 0.069(6) 0.040(4) -0.004(4) 0.015(4) 0.010(4)
C'2 0.063(4) 0.056(5) 0.049(5) -0.013(4) 0.015(4) -0.010(4)
C43 0.056(5) 0.045(5) 0.056(5) -0.020(5) 0.006(4) 0.009(5)
C29 0.067(5) 0.054(5) 0.057(4) -0.021(5) 0.012(5) -0.007(5)
C41 0.061(4) 0.059(5) 0.051(4) -0.016(4) 0.005(4) 0.008(5)
C30 0.052(5) 0.065(5) 0.043(4) -0.014(5) 0.018(5) 0.006(4)
C33 0.050(6) 0.061(5) 0.049(6) -0.013(5) 0.014(5) -0.005(5)
C37 0.084(6) 0.062(