####################################################################### 
# 
# This file contains crystal structure data downloaded from the 
# Cambridge Structural Database (CSD) hosted by the Cambridge 
# Crystallographic Data Centre (CCDC).
# 
# Full information about CCDC data access policies and citation 
# guidelines are available at http://www.ccdc.cam.ac.uk/access/V1 
# 
# Audit and citation data items may have been added by the CCDC. 
# Please retain this information to preserve the provenance of 
# this file and to allow appropriate attribution of the data. 
# 
#######################################################################

data_compound_4a
_audit_block_doi                 10.5517/cc12snn5
_database_code_depnum_ccdc_archive 'CCDC 1006807'
loop_
_citation_id
_citation_doi
_citation_year
1 10.1021/cg401847w 2014
_audit_update_record             
;
2014-06-04 deposited with the CCDC.	2024-07-13 downloaded from the CCDC.
;

_audit_creation_method           SHELXL-2013
_chemical_name_systematic        
;
 ?
;
_chemical_name_common            ?
_chemical_melting_point          ?
_chemical_formula_moiety         ?
_chemical_formula_sum            'C20 H22 Cu N8 O6 P2'
_chemical_formula_weight         595.93

loop_
_atom_type_symbol
_atom_type_description
_atom_type_scat_dispersion_real
_atom_type_scat_dispersion_imag
_atom_type_scat_source
C C 0.0033 0.0016 'International Tables Vol C Tables 4.2.6.8 and 6.1.1.4'
H H 0.0000 0.0000 'International Tables Vol C Tables 4.2.6.8 and 6.1.1.4'
N N 0.0061 0.0033 'International Tables Vol C Tables 4.2.6.8 and 6.1.1.4'
O O 0.0106 0.0060 'International Tables Vol C Tables 4.2.6.8 and 6.1.1.4'
P P 0.1023 0.0942 'International Tables Vol C Tables 4.2.6.8 and 6.1.1.4'
Cu Cu 0.3201 1.2651 'International Tables Vol C Tables 4.2.6.8 and 6.1.1.4'

_space_group_crystal_system      Orthorhombic
_space_group_IT_number           66
_space_group_name_H-M_alt        Cccm
_space_group_name_Hall           '-C 2 2c'

_shelx_space_group_comment       
;
The symmetry employed for this shelxl refinement is uniquely defined
by the following loop, which should always be used as a source of
symmetry information in preference to the above space-group names.
They are only intended as comments.
;

loop_
_space_group_symop_operation_xyz
'x, y, z'
'-x, -y, z'
'-x, y, -z+1/2'
'x, -y, -z+1/2'
'x+1/2, y+1/2, z'
'-x+1/2, -y+1/2, z'
'-x+1/2, y+1/2, -z+1/2'
'x+1/2, -y+1/2, -z+1/2'
'-x, -y, -z'
'x, y, -z'
'x, -y, z-1/2'
'-x, y, z-1/2'
'-x+1/2, -y+1/2, -z'
'x+1/2, y+1/2, -z'
'x+1/2, -y+1/2, z-1/2'
'-x+1/2, y+1/2, z-1/2'

_cell_length_a                   13.4495(14)
_cell_length_b                   15.0521(16)
_cell_length_c                   16.6729(17)
_cell_angle_alpha                90
_cell_angle_beta                 90
_cell_angle_gamma                90
_cell_volume                     3375.3(6)
_cell_formula_units_Z            4
_cell_measurement_temperature    100(2)
_cell_measurement_reflns_used    6988
_cell_measurement_theta_min      2.37
_cell_measurement_theta_max      28.05

_exptl_crystal_description       prism
_exptl_crystal_colour            blue
_exptl_crystal_density_meas      ?
_exptl_crystal_density_method    ?
_exptl_crystal_density_diffrn    1.173
_exptl_crystal_F_000             1220
_exptl_transmission_factor_min   ?
_exptl_transmission_factor_max   ?
_exptl_crystal_size_max          0.18
_exptl_crystal_size_mid          0.15
_exptl_crystal_size_min          0.12
_exptl_absorpt_coefficient_mu    0.782
_shelx_estimated_absorpt_T_min   ?
_shelx_estimated_absorpt_T_max   ?
_exptl_absorpt_correction_type   multi-scan'
_exptl_absorpt_correction_T_min  0.6579
_exptl_absorpt_correction_T_max  0.7457
_exptl_absorpt_process_details   SADABS

_exptl_special_details           
;
 ?
;

_diffrn_ambient_temperature      100(2)
_diffrn_radiation_wavelength     0.71073
_diffrn_radiation_type           MoK\a
_diffrn_source                   ?
_diffrn_measurement_device_type  'Bruker APEX-II CCD'
_diffrn_measurement_method       '\f and \w scans'
_diffrn_detector_area_resol_mean ?
_diffrn_reflns_number            16101
_diffrn_reflns_av_unetI/netI     0.0182
_diffrn_reflns_av_R_equivalents  0.0353
_diffrn_reflns_limit_h_min       -16
_diffrn_reflns_limit_h_max       16
_diffrn_reflns_limit_k_min       -17
_diffrn_reflns_limit_k_max       17
_diffrn_reflns_limit_l_min       -14
_diffrn_reflns_limit_l_max       19
_diffrn_reflns_theta_min         4.192
_diffrn_reflns_theta_max         25.027
_diffrn_reflns_theta_full        25.242
_diffrn_measured_fraction_theta_max 0.994
_diffrn_measured_fraction_theta_full 0.971
_diffrn_reflns_Laue_measured_fraction_max 0.994
_diffrn_reflns_Laue_measured_fraction_full 0.971
_diffrn_reflns_point_group_measured_fraction_max 0.994
_diffrn_reflns_point_group_measured_fraction_full 0.971
_reflns_number_total             1541
_reflns_number_gt                1489
_reflns_threshold_expression     'I > 2\s(I)'
_reflns_Friedel_coverage         0.000
_reflns_Friedel_fraction_max     .
_reflns_Friedel_fraction_full    .

_reflns_special_details          
;
 Reflections were merged by SHELXL according to the crystal
 class for the calculation of statistics and refinement.
 
 _reflns_Friedel_fraction is defined as the number of unique
 Friedel pairs measured divided by the number that would be
 possible theoretically, ignoring centric projections and
 systematic absences.
;

_computing_data_collection       'Bruker APEX2'
_computing_cell_refinement       'Bruker SAINT'
_computing_data_reduction        'Bruker SAINT'
_computing_structure_solution    'SHELXS-97 (Sheldrick, 2008)'
_computing_structure_refinement  'SHELXL-2013 (Sheldrick, 2013)'
_computing_molecular_graphics    'Bruker SHELXTL'
_computing_publication_material  'Bruker SHELXTL'

_refine_special_details          
;
Solvated methanol and water molecules in the channel structure of 4a were disordered and hence treated as a diffuse contribution to the overall scattering without specific atom positions by SQUEEZE/PLATON.
;
_refine_ls_structure_factor_coef Fsqd
_refine_ls_matrix_type           full
_refine_ls_weighting_scheme      calc
_refine_ls_weighting_details     
'w=1/[\s^2^(Fo^2^)+53.0880P] where P=(Fo^2^+2Fc^2^)/3'
_atom_sites_solution_primary     ?
_atom_sites_solution_secondary   ?
_atom_sites_solution_hydrogens   mixed
_refine_ls_hydrogen_treatment    mixed
_refine_ls_extinction_method     none
_refine_ls_extinction_coef       .
_refine_ls_number_reflns         1541
_refine_ls_number_parameters     91
_refine_ls_number_restraints     2
_refine_ls_R_factor_all          0.0878
_refine_ls_R_factor_gt           0.0862
_refine_ls_wR_factor_ref         0.1838
_refine_ls_wR_factor_gt          0.1832
_refine_ls_goodness_of_fit_ref   1.201
_refine_ls_restrained_S_all      1.204
_refine_ls_shift/su_max          0.002
_refine_ls_shift/su_mean         0.000

loop_
_atom_site_label
_atom_site_type_symbol
_atom_site_fract_x
_atom_site_fract_y
_atom_site_fract_z
_atom_site_U_iso_or_equiv
_atom_site_adp_type
_atom_site_occupancy
_atom_site_site_symmetry_order
_atom_site_calc_flag
_atom_site_refinement_flags_posn
_atom_site_refinement_flags_adp
_atom_site_refinement_flags_occupancy
_atom_site_disorder_assembly
_atom_site_disorder_group
Cu1 Cu 1.0000 0.5000 0.0000 0.0435(5) Uani 1 4 d DS T P . .
P2 P 0.7500 0.2500 0.32335(12) 0.0465(7) Uani 1 2 d S T P . .
N2 N 0.9104(3) 0.4512(3) 0.0876(3) 0.0292(11) Uani 1 1 d . . . . .
N1 N 0.7257(4) 0.3360(3) 0.2626(3) 0.0383(13) Uani 1 1 d . . . . .
H1 H 0.6662 0.3597 0.2672 0.046 Uiso 1 1 calc R U . . .
O2 O 1.1110(5) 0.3593(4) 0.0000 0.0363(14) Uani 1 2 d DS T P . .
H1W H 1.090(4) 0.313(2) 0.033(3) 0.054 Uiso 1 1 d D U . . .
O1 O 0.8449(4) 0.2638(3) 0.3668(2) 0.0623(16) Uani 1 1 d . . . . .
C1 C 0.7873(4) 0.3741(4) 0.2063(3) 0.0327(13) Uani 1 1 d . . . . .
C3 C 0.8165(5) 0.4787(4) 0.1006(3) 0.0387(15) Uani 1 1 d . . . . .
H3 H 0.7916 0.5257 0.0683 0.046 Uiso 1 1 calc R U . . .
C2 C 0.7546(5) 0.4433(4) 0.1576(4) 0.0395(15) Uani 1 1 d . . . . .
H2A H 0.6892 0.4661 0.1638 0.047 Uiso 1 1 calc R U . . .
C5 C 0.9427(4) 0.3863(4) 0.1358(3) 0.0366(14) Uani 1 1 d . . . . .
H5 H 1.0095 0.3669 0.1296 0.044 Uiso 1 1 calc R U . . .
C6 C 0.8857(4) 0.3457(4) 0.1938(3) 0.0368(14) Uani 1 1 d . . . . .
H6 H 0.9127 0.2989 0.2252 0.044 Uiso 1 1 calc R U . . .

loop_
_atom_site_aniso_label
_atom_site_aniso_U_11
_atom_site_aniso_U_22
_atom_site_aniso_U_33
_atom_site_aniso_U_23
_atom_site_aniso_U_13
_atom_site_aniso_U_12
Cu1 0.0578(10) 0.0605(11) 0.0122(6) 0.000 0.000 -0.0430(9)
P2 0.0690(17) 0.0549(15) 0.0156(10) 0.000 0.000 -0.0395(13)
N2 0.033(3) 0.037(3) 0.018(2) 0.0018(19) -0.003(2) -0.017(2)
N1 0.056(3) 0.035(3) 0.024(2) -0.002(2) 0.011(2) -0.023(2)
O2 0.060(4) 0.021(3) 0.028(3) 0.000 0.000 0.002(3)
O1 0.088(4) 0.074(3) 0.025(2) 0.006(2) -0.019(2) -0.050(3)
C1 0.038(3) 0.039(3) 0.022(3) -0.010(2) 0.004(2) -0.018(3)
C3 0.051(4) 0.032(3) 0.034(3) 0.003(3) 0.002(3) -0.010(3)
C2 0.047(4) 0.028(3) 0.044(3) -0.003(3) 0.012(3) -0.007(3)
C5 0.028(3) 0.056(4) 0.026(3) 0.009(3) 0.000(2) -0.016(3)
C6 0.037(3) 0.047(4) 0.027(3) 0.011(3) -0.004(3) -0.014(3)

_geom_special_details            
;
 All esds (except the esd in the dihedral angle between two l.s. planes)
 are estimated using the full covariance matrix.  The cell esds are taken
 into account individually in the estimation of esds in distances, angles
 and torsion angles; correlations between esds in cell parameters are only
 used when they are defined by crystal symmetry.  An approximate (isotropic)
 treatment of cell esds is used for estimating esds involving l.s. planes.
;

loop_
_geom_bond_atom_site_label_1
_geom_bond_atom_site_label_2
_geom_bond_distance
_geom_bond_site_symmetry_2
_geom_bond_publ_flag
Cu1 N2 2.030(4) 10 ?
Cu1 N2 2.030(4) 2_765 ?
Cu1 N2 2.030(4) 9_765 ?
Cu1 N2 2.030(4) . ?
Cu1 O2 2.591(6) . ?
P2 O1 1.482(5) 6_655 ?
P2 O1 1.482(5) . ?
P2 N1 1.676(5) 6_655 ?
P2 N1 1.676(5) . ?
N2 C5 1.337(7) . ?
N2 C3 1.348(8) . ?
N1 C1 1.376(7) . ?
N1 H1 0.8800 . ?
O2 H1W 0.923(19) . ?
C1 C2 1.392(8) . ?
C1 C6 1.407(8) . ?
C3 C2 1.370(8) . ?
C3 H3 0.9500 . ?
C2 H2A 0.9500 . ?
C5 C6 1.377(7) . ?
C5 H5 0.9500 . ?
C6 H6 0.9500 . ?

loop_
_geom_angle_atom_site_label_1
_geom_angle_atom_site_label_2
_geom_angle_atom_site_label_3
_geom_angle
_geom_angle_site_symmetry_1
_geom_angle_site_symmetry_3
_geom_angle_publ_flag
N2 Cu1 N2 180.00(17) 10 2_765 ?
N2 Cu1 N2 88.1(2) 10 9_765 ?
N2 Cu1 N2 91.9(2) 2_765 9_765 ?
N2 Cu1 N2 91.9(2) 10 . ?
N2 Cu1 N2 88.1(2) 2_765 . ?
N2 Cu1 N2 180.0 9_765 . ?
N2 Cu1 O2 92.63(17) 10 . ?
N2 Cu1 O2 87.37(17) 2_765 . ?
N2 Cu1 O2 87.37(17) 9_765 . ?
N2 Cu1 O2 92.63(17) . . ?
O1 P2 O1 121.6(4) 6_655 . ?
O1 P2 N1 110.8(2) 6_655 6_655 ?
O1 P2 N1 103.6(3) . 6_655 ?
O1 P2 N1 103.6(3) 6_655 . ?
O1 P2 N1 110.8(2) . . ?
N1 P2 N1 105.6(3) 6_655 . ?
C5 N2 C3 115.6(5) . . ?
C5 N2 Cu1 120.3(4) . . ?
C3 N2 Cu1 124.1(4) . . ?
C1 N1 P2 128.1(5) . . ?
C1 N1 H1 116.0 . . ?
P2 N1 H1 116.0 . . ?
Cu1 O2 H1W 116(3) . . ?
N1 C1 C2 121.3(6) . . ?
N1 C1 C6 122.7(6) . . ?
C2 C1 C6 115.9(5) . . ?
N2 C3 C2 124.2(6) . . ?
N2 C3 H3 117.9 . . ?
C2 C3 H3 117.9 . . ?
C3 C2 C1 120.3(6) . . ?
C3 C2 H2A 119.9 . . ?
C1 C2 H2A 119.9 . . ?
N2 C5 C6 124.4(6) . . ?
N2 C5 H5 117.8 . . ?
C6 C5 H5 117.8 . . ?
C5 C6 C1 119.6(6) . . ?
C5 C6 H6 120.2 . . ?
C1 C6 H6 120.2 . . ?

loop_
_geom_hbond_atom_site_label_D
_geom_hbond_atom_site_label_H
_geom_hbond_atom_site_label_A
_geom_hbond_distance_DH
_geom_hbond_distance_HA
_geom_hbond_distance_DA
_geom_hbond_angle_DHA
_geom_hbond_site_symmetry_A
O2 H1W O1 0.923(19) 2.03(5) 2.711(5) 129(5) 3_755

_refine_diff_density_max         0.614
_refine_diff_density_min         -0.656
_refine_diff_density_rms         0.108

_shelxl_version_number           2013-3

# SQUEEZE RESULTS (APPEND TO CIF)
# Note: Data are Listed for all Voids in the P1 Unit Cell
# i.e. Centre of Gravity, Solvent Accessible Volume,
# Recovered number of Electrons in the Void and
# Details about the Squeezed Material
loop_
_platon_squeeze_void_nr
_platon_squeeze_void_average_x
_platon_squeeze_void_average_y
_platon_squeeze_void_average_z
_platon_squeeze_void_volume
_platon_squeeze_void_count_electrons
_platon_squeeze_void_content
1 -0.026 0.017 -0.028 1193 425 ' '
_platon_squeeze_details          
;
;
_shelx_res_file                  
;
TITL Trial_o2 in Cccm
CELL 0.71073  13.4495  15.0521  16.6729  90.000  90.000  90.000
ZERR    4.00   0.0014   0.0016   0.0017   0.000   0.000   0.000
LATT 7
SYMM -X, -Y, Z
SYMM -X, Y, 0.5-Z
SYMM X, -Y, 0.5-Z
SFAC C  H  N  O  P  Cu
UNIT 80 88 32  24  8  4
shel 0.84 5
L.S. 12
BOND
FMAP 2
EQIV $1 -x+2, y, -z+1/2
HTAB O2 O1_$1
BOND $H
ACTA
PLAN 20
BIND Cu1  O2
TEMP -173.000
WGHT    0.000000   53.088001
FVAR       0.94590
MOLE 1
CU1   6    1.000000    0.500000    0.000000    10.25000    0.05782    0.06053 =
         0.01224    0.00000    0.00000   -0.04301
P2    5    0.750000    0.250000    0.323351    10.50000    0.06902    0.05488 =
         0.01558    0.00000    0.00000   -0.03949
N2    3    0.910447    0.451157    0.087561    11.00000    0.03273    0.03668 =
         0.01811    0.00177   -0.00287   -0.01742
N1    3    0.725722    0.335972    0.262559    11.00000    0.05633    0.03455 =
         0.02413   -0.00201    0.01069   -0.02270
AFIX  43
H1    2    0.666211    0.359721    0.267199    11.00000   -1.20000
AFIX   0
dfix O2 H1W 0.95
dang 3.0 0.04 Cu1 H1W
O2    4    1.111005    0.359294    0.000000    10.50000    0.05956    0.02144 =
         0.02800    0.00000    0.00000    0.00176
H1W   2    1.089935    0.313392    0.032565    11.00000   -1.50000
O1    4    0.844945    0.263839    0.366755    11.00000    0.08790    0.07403 =
         0.02500    0.00592   -0.01895   -0.05022
C1    1    0.787255    0.374053    0.206289    11.00000    0.03770    0.03867 =
         0.02169   -0.01002    0.00392   -0.01813
C3    1    0.816489    0.478725    0.100641    11.00000    0.05094    0.03172 =
         0.03351    0.00285    0.00219   -0.01007
AFIX  43
H3    2    0.791569    0.525703    0.068334    11.00000   -1.20000
AFIX   0
C2    1    0.754625    0.443302    0.157572    11.00000    0.04685    0.02758 =
         0.04419   -0.00331    0.01200   -0.00705
AFIX  43
H2A   2    0.689209    0.466080    0.163829    11.00000   -1.20000
AFIX   0
C5    1    0.942707    0.386284    0.135795    11.00000    0.02788    0.05610 =
         0.02594    0.00857   -0.00035   -0.01585
AFIX  43
H5    2    1.009483    0.366879    0.129620    11.00000   -1.20000
AFIX   0
C6    1    0.885725    0.345714    0.193785    11.00000    0.03691    0.04650 =
         0.02710    0.01069   -0.00429   -0.01350
AFIX  43
H6    2    0.912721    0.298878    0.225161    11.00000   -1.20000

REM  Trial_o2 in Cccm
REM R1 =  0.1143 for   1517 Fo > 4sig(Fo)  and  0.1150 for all   1541 data
REM    114 parameters refined using      0 restraints

AFIX   0
HKLF 4

REM  Trial_o2 in Cccm
REM R1 =  0.0862 for    1489 Fo > 4sig(Fo)  and  0.0878 for all    1541 data
REM     91 parameters refined using      2 restraints

END

WGHT      0.0000     53.1843

REM Highest difference peak  0.614,  deepest hole -0.656,  1-sigma level  0.108
Q1    1   0.7500  0.2500  0.4585  10.50000  0.05    0.61
Q2    1   1.1260  0.2826  0.0000  10.50000  0.05    0.49
Q3    1   0.8614  0.3237  0.1281  11.00000  0.05    0.39
Q4    1   0.8630  0.5528  0.0742  11.00000  0.05    0.38
Q5    1   0.8428  0.3305  0.3257  11.00000  0.05    0.37
Q6    1   0.6266  0.4226  0.2014  11.00000  0.05    0.37
Q7    1   1.1477  0.3141  0.0384  11.00000  0.05    0.37
Q8    1   0.9444  0.2796  0.1376  11.00000  0.05    0.37
Q9    1   1.0348  0.4521  0.0988  11.00000  0.05    0.36
Q10   1   0.