####################################################################### 
# 
# This file contains crystal structure data downloaded from the 
# Cambridge Structural Database (CSD) hosted by the Cambridge 
# Crystallographic Data Centre (CCDC).
# 
# Full information about CCDC data access policies and citation 
# guidelines are available at http://www.ccdc.cam.ac.uk/access/V1 
# 
# Audit and citation data items may have been added by the CCDC. 
# Please retain this information to preserve the provenance of 
# this file and to allow appropriate attribution of the data. 
# 
#######################################################################

data_compound_4
_audit_block_doi                 10.5517/cc12snm4
_database_code_depnum_ccdc_archive 'CCDC 1006806'
loop_
_citation_id
_citation_doi
_citation_year
1 10.1021/cg401847w 2014
_audit_update_record             
;
2014-06-04 deposited with the CCDC.	2024-07-13 downloaded from the CCDC.
;

_audit_creation_method           SHELXL-2013
_chemical_name_systematic        
;
 ?
;
_chemical_name_common            ?
_chemical_melting_point          ?
_chemical_formula_moiety         ?
_chemical_formula_sum            'C20 H24 Cu N8 O6 P2'
_chemical_formula_weight         597.95

loop_
_atom_type_symbol
_atom_type_description
_atom_type_scat_dispersion_real
_atom_type_scat_dispersion_imag
_atom_type_scat_source
C C 0.0033 0.0016 'International Tables Vol C Tables 4.2.6.8 and 6.1.1.4'
H H 0.0000 0.0000 'International Tables Vol C Tables 4.2.6.8 and 6.1.1.4'
N N 0.0061 0.0033 'International Tables Vol C Tables 4.2.6.8 and 6.1.1.4'
O O 0.0106 0.0060 'International Tables Vol C Tables 4.2.6.8 and 6.1.1.4'
P P 0.1023 0.0942 'International Tables Vol C Tables 4.2.6.8 and 6.1.1.4'
Cu Cu 0.3201 1.2651 'International Tables Vol C Tables 4.2.6.8 and 6.1.1.4'

_space_group_crystal_system      Orthorhombic
_space_group_IT_number           66
_space_group_name_H-M_alt        Cccm
_space_group_name_Hall           '-C 2 2c'

_shelx_space_group_comment       
;
The symmetry employed for this shelxl refinement is uniquely defined
by the following loop, which should always be used as a source of
symmetry information in preference to the above space-group names.
They are only intended as comments.
;

loop_
_space_group_symop_operation_xyz
'x, y, z'
'-x, -y, z'
'-x, y, -z+1/2'
'x, -y, -z+1/2'
'x+1/2, y+1/2, z'
'-x+1/2, -y+1/2, z'
'-x+1/2, y+1/2, -z+1/2'
'x+1/2, -y+1/2, -z+1/2'
'-x, -y, -z'
'x, y, -z'
'x, -y, z-1/2'
'-x, y, z-1/2'
'-x+1/2, -y+1/2, -z'
'x+1/2, y+1/2, -z'
'x+1/2, -y+1/2, z-1/2'
'-x+1/2, y+1/2, z-1/2'

_cell_length_a                   13.158(8)
_cell_length_b                   14.942(9)
_cell_length_c                   16.667(10)
_cell_angle_alpha                90
_cell_angle_beta                 90
_cell_angle_gamma                90
_cell_volume                     3277(3)
_cell_formula_units_Z            4
_cell_measurement_temperature    100(2)
_cell_measurement_reflns_used    5494
_cell_measurement_theta_min      2.99
_cell_measurement_theta_max      28.33

_exptl_crystal_description       prism
_exptl_crystal_colour            blue
_exptl_crystal_density_meas      ?
_exptl_crystal_density_method    ?
_exptl_crystal_density_diffrn    1.212
_exptl_crystal_F_000             1228
_exptl_transmission_factor_min   ?
_exptl_transmission_factor_max   ?
_exptl_crystal_size_max          0.26
_exptl_crystal_size_mid          0.11
_exptl_crystal_size_min          0.06
_exptl_absorpt_coefficient_mu    0.805
_shelx_estimated_absorpt_T_min   ?
_shelx_estimated_absorpt_T_max   ?
_exptl_absorpt_correction_type   multi-scan
_exptl_absorpt_correction_T_min  0.6455
_exptl_absorpt_correction_T_max  0.7457
_exptl_absorpt_process_details   SADABS

_exptl_special_details           
;
 ?
;

_diffrn_ambient_temperature      100(2)
_diffrn_radiation_wavelength     0.71073
_diffrn_radiation_type           MoK\a
_diffrn_source                   ?
_diffrn_measurement_device_type  'Bruker APEX-II CCD'
_diffrn_measurement_method       '\f and \w scans'
_diffrn_detector_area_resol_mean ?
_diffrn_reflns_number            13698
_diffrn_reflns_av_unetI/netI     0.0375
_diffrn_reflns_av_R_equivalents  0.0541
_diffrn_reflns_limit_h_min       -17
_diffrn_reflns_limit_h_max       17
_diffrn_reflns_limit_k_min       -20
_diffrn_reflns_limit_k_max       20
_diffrn_reflns_limit_l_min       -10
_diffrn_reflns_limit_l_max       22
_diffrn_reflns_theta_min         2.062
_diffrn_reflns_theta_max         28.639
_diffrn_reflns_theta_full        25.242
_diffrn_measured_fraction_theta_max 0.990
_diffrn_measured_fraction_theta_full 0.997
_diffrn_reflns_Laue_measured_fraction_max 0.990
_diffrn_reflns_Laue_measured_fraction_full 0.997
_diffrn_reflns_point_group_measured_fraction_max 0.990
_diffrn_reflns_point_group_measured_fraction_full 0.997
_reflns_number_total             2168
_reflns_number_gt                1939
_reflns_threshold_expression     'I > 2\s(I)'
_reflns_Friedel_coverage         0.000
_reflns_Friedel_fraction_max     .
_reflns_Friedel_fraction_full    .

_reflns_special_details          
;
 Reflections were merged by SHELXL according to the crystal
 class for the calculation of statistics and refinement.
 
 _reflns_Friedel_fraction is defined as the number of unique
 Friedel pairs measured divided by the number that would be
 possible theoretically, ignoring centric projections and
 systematic absences.
;

_computing_data_collection       'Bruker APEX2'
_computing_cell_refinement       'Bruker SAINT'
_computing_data_reduction        'Bruker SAINT'
_computing_structure_solution    'SHELXS-97 (Sheldrick, 2008)'
_computing_structure_refinement  'SHELXL-2013 (Sheldrick, 2013)'
_computing_molecular_graphics    'Bruker SHELXTL'
_computing_publication_material  'Bruker SHELXTL'

_refine_special_details          
;
The solvated molecules of DMF and water in 4 were disordered onto each other. Moreover, hydrogens pertaining to the methyl groups of the DMF could not be fixed due to the presence of a disorder with respect to mirror plane symmetry. Hence the SQUEEZE routine of the PLATON was applied to treat the disordered contributions of the solvated molecules.In addition, we also provide a model which attempts to describe the disorder in the structure.
;
_refine_ls_structure_factor_coef Fsqd
_refine_ls_matrix_type           full
_refine_ls_weighting_scheme      calc
_refine_ls_weighting_details     
'w=1/[\s^2^(Fo^2^)+(0.0220P)^2^+7.8659P] where P=(Fo^2^+2Fc^2^)/3'
_atom_sites_solution_primary     ?
_atom_sites_solution_secondary   ?
_atom_sites_solution_hydrogens   mixed
_refine_ls_hydrogen_treatment    mixed
_refine_ls_extinction_method     none
_refine_ls_extinction_coef       .
_refine_ls_number_reflns         2168
_refine_ls_number_parameters     92
_refine_ls_number_restraints     0
_refine_ls_R_factor_all          0.0434
_refine_ls_R_factor_gt           0.0396
_refine_ls_wR_factor_ref         0.1096
_refine_ls_wR_factor_gt          0.1080
_refine_ls_goodness_of_fit_ref   1.129
_refine_ls_restrained_S_all      1.129
_refine_ls_shift/su_max          0.000
_refine_ls_shift/su_mean         0.000

loop_
_atom_site_label
_atom_site_type_symbol
_atom_site_fract_x
_atom_site_fract_y
_atom_site_fract_z
_atom_site_U_iso_or_equiv
_atom_site_adp_type
_atom_site_occupancy
_atom_site_site_symmetry_order
_atom_site_calc_flag
_atom_site_refinement_flags_posn
_atom_site_refinement_flags_adp
_atom_site_refinement_flags_occupancy
_atom_site_disorder_assembly
_atom_site_disorder_group
Cu1 Cu 1.0000 0.0000 0.0000 0.03486(18) Uani 1 4 d S T P . .
P1 P 0.7500 0.2500 0.32207(5) 0.0341(2) Uani 1 2 d S T P . .
N1 N 0.72475(16) 0.16454(13) 0.26076(12) 0.0364(5) Uani 1 1 d . . . . .
H1 H 0.6637 0.1410 0.2650 0.044 Uiso 1 1 calc R U . . .
C11 C 0.78689(17) 0.12666(14) 0.20494(13) 0.0291(4) Uani 1 1 d . . . . .
C13 C 0.94260(17) 0.11352(17) 0.13433(14) 0.0360(5) Uani 1 1 d . . . . .
H13 H 1.0107 0.1332 0.1274 0.043 Uiso 1 1 calc R U . . .
C12 C 0.88552(18) 0.15356(16) 0.19244(14) 0.0349(5) Uani 1 1 d . . . . .
H12 H 0.9139 0.2000 0.2243 0.042 Uiso 1 1 calc R U . . .
C15 C 0.81499(19) 0.02089(17) 0.10079(16) 0.0412(6) Uani 1 1 d . . . . .
H15 H 0.7897 -0.0274 0.0695 0.049 Uiso 1 1 calc R U . . .
C16 C 0.7524(2) 0.05693(17) 0.15711(18) 0.0445(6) Uani 1 1 d . . . . .
H16 H 0.6853 0.0345 0.1637 0.053 Uiso 1 1 calc R U . . .
N14 N 0.90871(14) 0.04870(13) 0.08674(11) 0.0301(4) Uani 1 1 d . . . . .
O1 O 0.84621(15) 0.23565(14) 0.36487(10) 0.0496(5) Uani 1 1 d . . . . .
O2 O 1.1124(2) 0.14186(17) 0.0000 0.0386(6) Uani 1 2 d S T P . .
H2 H 1.132(2) 0.1668(19) 0.0357(17) 0.043(8) Uiso 1 1 d . . . . .

loop_
_atom_site_aniso_label
_atom_site_aniso_U_11
_atom_site_aniso_U_22
_atom_site_aniso_U_33
_atom_site_aniso_U_23
_atom_site_aniso_U_13
_atom_site_aniso_U_12
Cu1 0.0390(3) 0.0523(4) 0.0133(2) 0.000 0.000 0.0267(3)
P1 0.0463(5) 0.0388(4) 0.0172(4) 0.000 0.000 0.0231(4)
N1 0.0380(10) 0.0319(9) 0.0394(11) -0.0019(8) 0.0166(9) 0.0070(8)
C11 0.0343(11) 0.0273(10) 0.0258(10) 0.0008(8) 0.0077(8) 0.0084(8)
C13 0.0284(10) 0.0477(13) 0.0318(12) -0.0091(10) 0.0050(9) 0.0007(9)
C12 0.0339(11) 0.0395(12) 0.0314(12) -0.0116(10) 0.0050(9) 0.0007(9)
C15 0.0398(12) 0.0392(13) 0.0446(14) -0.0165(11) 0.0041(11) -0.0003(10)
C16 0.0356(12) 0.0401(13) 0.0577(16) -0.0139(12) 0.0139(12) -0.0029(10)
N14 0.0323(9) 0.0376(10) 0.0204(8) -0.0036(7) 0.0017(7) 0.0119(7)
O1 0.0599(12) 0.0638(12) 0.0252(8) 0.0018(8) -0.0112(8) 0.0320(10)
O2 0.0633(17) 0.0311(12) 0.0215(12) 0.000 0.000 -0.0103(11)

_geom_special_details            
;
 All esds (except the esd in the dihedral angle between two l.s. planes)
 are estimated using the full covariance matrix.  The cell esds are taken
 into account individually in the estimation of esds in distances, angles
 and torsion angles; correlations between esds in cell parameters are only
 used when they are defined by crystal symmetry.  An approximate (isotropic)
 treatment of cell esds is used for estimating esds involving l.s. planes.
;

loop_
_geom_bond_atom_site_label_1
_geom_bond_atom_site_label_2
_geom_bond_distance
_geom_bond_site_symmetry_2
_geom_bond_publ_flag
Cu1 N14 2.0156(19) 10 ?
Cu1 N14 2.0156(19) 2_755 ?
Cu1 N14 2.0156(19) 9_755 ?
Cu1 N14 2.0156(19) . ?
Cu1 O2 2.585(3) . ?
P1 O1 1.4689(19) 6_655 ?
P1 O1 1.4689(19) . ?
P1 N1 1.669(2) 6_655 ?
P1 N1 1.669(2) . ?
N1 C11 1.362(3) . ?
N1 H1 0.8800 . ?
C11 C12 1.374(3) . ?
C11 C16 1.388(3) . ?
C13 N14 1.329(3) . ?
C13 C12 1.364(3) . ?
C13 H13 0.9500 . ?
C12 H12 0.9500 . ?
C15 N14 1.322(3) . ?
C15 C16 1.360(3) . ?
C15 H15 0.9500 . ?
C16 H16 0.9500 . ?
O2 H2 0.75(3) . ?

loop_
_geom_angle_atom_site_label_1
_geom_angle_atom_site_label_2
_geom_angle_atom_site_label_3
_geom_angle
_geom_angle_site_symmetry_1
_geom_angle_site_symmetry_3
_geom_angle_publ_flag
N14 Cu1 N14 180.00(14) 10 2_755 ?
N14 Cu1 N14 88.34(11) 10 9_755 ?
N14 Cu1 N14 91.66(11) 2_755 9_755 ?
N14 Cu1 N14 91.66(11) 10 . ?
N14 Cu1 N14 88.34(11) 2_755 . ?
N14 Cu1 N14 180.0 9_755 . ?
N14 Cu1 O2 92.58(8) 10 . ?
N14 Cu1 O2 87.42(8) 2_755 . ?
N14 Cu1 O2 87.42(8) 9_755 . ?
N14 Cu1 O2 92.58(8) . . ?
O1 P1 O1 121.89(16) 6_655 . ?
O1 P1 N1 110.93(11) 6_655 6_655 ?
O1 P1 N1 103.74(11) . 6_655 ?
O1 P1 N1 103.74(11) 6_655 . ?
O1 P1 N1 110.93(11) . . ?
N1 P1 N1 104.48(15) 6_655 . ?
C11 N1 P1 128.09(18) . . ?
C11 N1 H1 116.0 . . ?
P1 N1 H1 116.0 . . ?
N1 C11 C12 123.3(2) . . ?
N1 C11 C16 120.5(2) . . ?
C12 C11 C16 116.2(2) . . ?
N14 C13 C12 124.0(2) . . ?
N14 C13 H13 118.0 . . ?
C12 C13 H13 118.0 . . ?
C13 C12 C11 120.0(2) . . ?
C13 C12 H12 120.0 . . ?
C11 C12 H12 120.0 . . ?
N14 C15 C16 124.3(2) . . ?
N14 C15 H15 117.9 . . ?
C16 C15 H15 117.9 . . ?
C15 C16 C11 119.7(2) . . ?
C15 C16 H16 120.2 . . ?
C11 C16 H16 120.2 . . ?
C15 N14 C13 115.87(19) . . ?
C15 N14 Cu1 124.71(16) . . ?
C13 N14 Cu1 119.42(16) . . ?
Cu1 O2 H2 127(2) . . ?

loop_
_geom_hbond_atom_site_label_D
_geom_hbond_atom_site_label_H
_geom_hbond_atom_site_label_A
_geom_hbond_distance_DH
_geom_hbond_distance_HA
_geom_hbond_distance_DA
_geom_hbond_angle_DHA
_geom_hbond_site_symmetry_A
O2 H2 O1 0.75(3) 1.97(3) 2.708(2) 168(3) 3_755

_refine_diff_density_max         0.307
_refine_diff_density_min         -0.527
_refine_diff_density_rms         0.063

# SQUEEZE RESULTS (APPEND TO CIF)
# Note: Data are Listed for all Voids in the P1 Unit Cell
# i.e. Centre of Gravity, Solvent Accessible Volume,
# Recovered number of Electrons in the Void and
# Details about the Squeezed Material
loop_
_platon_squeeze_void_nr
_platon_squeeze_void_average_x
_platon_squeeze_void_average_y
_platon_squeeze_void_average_z
_platon_squeeze_void_volume
_platon_squeeze_void_count_electrons
_platon_squeeze_void_content
1 -0.180 0.317 0.063 1117 351 ' '
_platon_squeeze_details          
;
;


_shelxl_version_number           2013-3

_shelx_res_file                  
;
TITL TRIALB1 in Cccm
CELL 0.71073  13.1579  14.9416  16.6673  90.000  90.000  90.000
ZERR   4.00   0.0075   0.0085   0.0095   0.000   0.000   0.000
LATT 7
SYMM -X, -Y, Z
SYMM -X, Y, 0.5-Z
SYMM X, -Y, 0.5-Z
SFAC C  H  N  O  P  Cu
UNIT 80  96  32  24  8  4
L.S. 24
acta
BOND $H
FMAP 2
PLAN 30
TEMP -173.000
EQIV $1 -x+2, y, -z+1/2
HTAB O2 O1_$1
WGHT    0.022000    7.865900
FVAR       0.84028
MOLE 1
CU1   6    1.000000    0.000000    0.000000    10.25000    0.03900    0.05229 =
         0.01328    0.00000    0.00000    0.02667
P1    5    0.750000    0.250000    0.322066    10.50000    0.04628    0.03882 =
         0.01721    0.00000    0.00000    0.02306
N1    3    0.724752    0.164543    0.260755    11.00000    0.03798    0.03189 =
         0.03937   -0.00188    0.01658    0.00700
AFIX  43
H1    2    0.663670    0.141033    0.265026    11.00000   -1.20000
AFIX   0
C11   1    0.786888    0.126660    0.204944    11.00000    0.03433    0.02728 =
         0.02578    0.00075    0.00770    0.00837
C13   1    0.942601    0.113523    0.134325    11.00000    0.02843    0.04767 =
         0.03183   -0.00910    0.00503    0.00065
AFIX  43
H13   2    1.010714    0.133165    0.127446    11.00000   -1.20000
AFIX   0
C12   1    0.885515    0.153565    0.192441    11.00000    0.03385    0.03946 =
         0.03140   -0.01156    0.00501    0.00073
AFIX  43
H12   2    0.913906    0.200019    0.224255    11.00000   -1.20000
AFIX   0
C15   1    0.814985    0.020892    0.100787    11.00000    0.03975    0.03916 =
         0.04458   -0.01655    0.00410   -0.00027
AFIX  43
H15   2    0.789746   -0.027389    0.069508    11.00000   -1.20000
AFIX   0
C16   1    0.752350    0.056926    0.157113    11.00000    0.03562    0.04013 =
         0.05770   -0.01385    0.01386   -0.00294
AFIX  43
H16   2    0.685311    0.034489    0.163690    11.00000   -1.20000
AFIX   0
N14   3    0.908709    0.048697    0.086742    11.00000    0.03226    0.03765 =
         0.02042   -0.00362    0.00166    0.01189
O1    4    0.846214    0.235646    0.364868    11.00000    0.05986    0.06379 =
         0.02518    0.00184   -0.01118    0.03197
Bind Cu1 O2
O2    4    1.112428    0.141863    0.000000    10.50000    0.06327    0.03115 =
         0.02150    0.00000    0.00000   -0.01031
H2    2    1.132384    0.166780    0.035742    11.00000    0.04326
HKLF 4

REM  TRIALB1 in Cccm
REM R1 =  0.0396 for    1939 Fo > 4sig(Fo)  and  0.0434 for all    2168 data
REM     92 parameters refined using      0 restraints

END

WGHT      0.0220      7.8569

REM Highest difference peak  0.307,  deepest hole -0.527,  1-sigma level  0.063
Q1    1   1.0306  0.1026  0.0000  10.50000  0.05    0.31
Q2    1   1.0243  0.1399  0.0000  10.50000  0.05    0.29
Q3    1   0.74