####################################################################### 
# 
# This file contains crystal structure data downloaded from the 
# Cambridge Structural Database (CSD) hosted by the Cambridge 
# Crystallographic Data Centre (CCDC).
# 
# Full information about CCDC data access policies and citation 
# guidelines are available at http://www.ccdc.cam.ac.uk/access/V1 
# 
# Audit and citation data items may have been added by the CCDC. 
# Please retain this information to preserve the provenance of 
# this file and to allow appropriate attribution of the data. 
# 
#######################################################################

data_Zn3I6(1)2(4d)
_audit_block_doi                 10.5517/ccr4ns9
_database_code_depnum_ccdc_archive 'CCDC 689681'
loop_
_citation_id
_citation_doi
_citation_year
1 10.1002/anie.200802545 2008
_audit_update_record             
;
2008-05-29 deposited with the CCDC.	2024-07-13 downloaded from the CCDC.
;

_audit_creation_method           SHELXL-97
_chemical_name_systematic        
;
?
;
_chemical_name_common            ?
_chemical_melting_point          ?
_chemical_formula_moiety         ?
_chemical_formula_sum            'C62 H46 I6 N13 O6 Zn3'
_chemical_formula_weight         2026.63

loop_
_atom_type_symbol
_atom_type_description
_atom_type_scat_dispersion_real
_atom_type_scat_dispersion_imag
_atom_type_scat_source
C C 0.0033 0.0016 'International Tables Vol C Tables 4.2.6.8 and 6.1.1.4'
H H 0.0000 0.0000 'International Tables Vol C Tables 4.2.6.8 and 6.1.1.4'
N N 0.0061 0.0033 'International Tables Vol C Tables 4.2.6.8 and 6.1.1.4'
O O 0.0106 0.0060 'International Tables Vol C Tables 4.2.6.8 and 6.1.1.4'
Zn Zn 0.2839 1.4301 'International Tables Vol C Tables 4.2.6.8 and 6.1.1.4'
I I -0.4742 1.8119 'International Tables Vol C Tables 4.2.6.8 and 6.1.1.4'

_symmetry_cell_setting           Orthorhombic
_symmetry_space_group_name_H-M   Pbca

loop_
_symmetry_equiv_pos_as_xyz
'x, y, z'
'-x+1/2, -y, z+1/2'
'-x, y+1/2, -z+1/2'
'x+1/2, -y+1/2, -z'
'-x, -y, -z'
'x-1/2, y, -z-1/2'
'x, -y-1/2, z-1/2'
'-x-1/2, y-1/2, z'

_cell_length_a                   27.9987(2)
_cell_length_b                   13.8164(3)
_cell_length_c                   44.1589(5)
_cell_angle_alpha                90.00
_cell_angle_beta                 90.00
_cell_angle_gamma                90.00
_cell_volume                     17082.5(4)
_cell_formula_units_Z            8
_cell_measurement_temperature    90(2)
_cell_measurement_reflns_used    17133
_cell_measurement_theta_min      2.5
_cell_measurement_theta_max      25

_exptl_crystal_description       needle
_exptl_crystal_colour            yellow
_exptl_crystal_size_max          0.08
_exptl_crystal_size_mid          0.08
_exptl_crystal_size_min          0.04
_exptl_crystal_density_meas      ?
_exptl_crystal_density_diffrn    1.576
_exptl_crystal_density_method    'not measured'
_exptl_crystal_F_000             7720
_exptl_absorpt_coefficient_mu    3.051
_exptl_absorpt_correction_type   none
_exptl_absorpt_correction_T_min  ?
_exptl_absorpt_correction_T_max  ?
_exptl_absorpt_process_details   ?

_exptl_special_details           
;
?
;

_diffrn_ambient_temperature      90(2)
_diffrn_radiation_wavelength     0.68830
_diffrn_radiation_type           synchrotron
_diffrn_radiation_source         KEK
_diffrn_radiation_monochromator  Si
_diffrn_measurement_device_type  CCD
_diffrn_measurement_method       omega_scan
_diffrn_detector_area_resol_mean ?
_diffrn_standards_number         ?
_diffrn_standards_interval_count ?
_diffrn_standards_interval_time  ?
_diffrn_standards_decay_%        none
_diffrn_reflns_number            237184
_diffrn_reflns_av_R_equivalents  0.0868
_diffrn_reflns_av_sigmaI/netI    0.0368
_diffrn_reflns_limit_h_min       -37
_diffrn_reflns_limit_h_max       37
_diffrn_reflns_limit_k_min       -18
_diffrn_reflns_limit_k_max       18
_diffrn_reflns_limit_l_min       -59
_diffrn_reflns_limit_l_max       59
_diffrn_reflns_theta_min         1.41
_diffrn_reflns_theta_max         27.72
_reflns_number_total             22034
_reflns_number_gt                17133
_reflns_threshold_expression     >2sigma(I)

_computing_data_collection       'Rigaku Crystal Clear'
_computing_cell_refinement       HKL2000
_computing_data_reduction        HKL2000
_computing_structure_solution    'SHELXS-97 (Sheldrick, 1990)'
_computing_structure_refinement  'SHELXL-97 (Sheldrick, 1997)'
_computing_molecular_graphics    'Bruker XP'
_computing_publication_material  'Bruker SHELXTL'

_refine_special_details          
;
Refinement of F^2^ against ALL reflections. The weighted R-factor wR
and
goodness of fit S are based on F^2^, conventional R-factors R are based
on F, with F set to zero for negative F^2^. The threshold expression of
F^2^ > 2sigma(F^2^) is used only for calculating R-factors(gt) etc. and
is
not relevant to the choice of reflections for refinement. R-factors
based
on F^2^ are statistically about twice as large as those based on F, and
R-
factors based on ALL data will be even larger.
The occupancy factors of the disordered molecules converged as follows:
2-(maleylamino)triphenylene, 50%(C1T to O4T) and 50%(C1S to O4T).
Several restraints and constraints were applied to disordered molecules
on a basis of chemical symmetry of the molecules.
;

_refine_ls_structure_factor_coef Fsqd
_refine_ls_matrix_type           full
_refine_ls_weighting_scheme      calc
_refine_ls_weighting_details     
'calc w=1/[\s^2^(Fo^2^)+(0.1030P)^2^+82.7974P] where P=(Fo^2^+2Fc^2^)/3'
_atom_sites_solution_primary     direct
_atom_sites_solution_secondary   difmap
_atom_sites_solution_hydrogens   geom
_refine_ls_hydrogen_treatment    constr
_refine_ls_extinction_method     none
_refine_ls_extinction_coef       ?
_refine_ls_number_reflns         22034
_refine_ls_number_parameters     1054
_refine_ls_number_restraints     859
_refine_ls_R_factor_all          0.0773
_refine_ls_R_factor_gt           0.0614
_refine_ls_wR_factor_ref         0.2072
_refine_ls_wR_factor_gt          0.1950
_refine_ls_goodness_of_fit_ref   1.097
_refine_ls_restrained_S_all      1.080
_refine_ls_shift/su_max          0.026
_refine_ls_shift/su_mean         0.002

loop_
_atom_site_label
_atom_site_type_symbol
_atom_site_fract_x
_atom_site_fract_y
_atom_site_fract_z
_atom_site_U_iso_or_equiv
_atom_site_adp_type
_atom_site_occupancy
_atom_site_symmetry_multiplicity
_atom_site_calc_flag
_atom_site_refinement_flags
_atom_site_disorder_assembly
_atom_site_disorder_group
Zn1 Zn 0.45206(3) -0.13888(5) 0.089348(17) 0.03678(17) Uani 1 1 d . . .
Zn2 Zn 0.23851(3) 0.18873(5) 0.321055(16) 0.03839(17) Uani 1 1 d . . .
Zn3 Zn -0.02451(3) -0.11851(5) 0.086595(19) 0.03827(17) Uani 1 1 d . . .
I1 I 0.446129(18) -0.32302(3) 0.085736(14) 0.05443(14) Uani 1 1 d . . .
I2 I 0.516304(16) -0.05450(4) 0.119696(12) 0.05140(13) Uani 1 1 d . . .
I3 I 0.32736(2) 0.18645(4) 0.334016(13) 0.05848(15) Uani 1 1 d . . .
I4 I 0.19646(2) 0.35109(3) 0.315269(12) 0.05487(15) Uani 1 1 d . . .
I5 I -0.07358(2) -0.20143(4) 0.126873(18) 0.0710(2) Uani 1 1 d . . .
I6 I -0.008217(19) -0.19517(3) 0.034720(13) 0.05401(14) Uani 1 1 d . . .
C1 C 0.3165(2) -0.1510(4) -0.12367(15) 0.0383(13) Uani 1 1 d . . .
H1A H 0.3135 -0.2192 -0.1218 0.046 Uiso 1 1 calc R . .
C2 C 0.3401(2) -0.1007(4) -0.10101(16) 0.0378(13) Uani 1 1 d . . .
H2A H 0.3525 -0.1341 -0.0839 0.045 Uiso 1 1 calc R . .
C3 C 0.3032(3) -0.0120(5) -0.15045(15) 0.0465(17) Uani 1 1 d . . .
H3A H 0.2901 0.0193 -0.1677 0.056 Uiso 1 1 calc R . .
C4 C 0.3271(3) 0.0442(5) -0.12886(15) 0.0496(18) Uani 1 1 d . . .
H4A H 0.3306 0.1120 -0.1315 0.060 Uiso 1 1 calc R . .
C5 C 0.3454(2) -0.0013(4) -0.10356(13) 0.0325(12) Uani 1 1 d . . .
C6 C 0.3709(2) 0.0532(4) -0.08000(14) 0.0327(12) Uani 1 1 d . . .
C7 C 0.4276(2) 0.4313(5) -0.10056(16) 0.0393(14) Uani 1 1 d . . .
H7A H 0.4246 0.4600 -0.1200 0.047 Uiso 1 1 calc R . .
C8 C 0.4128(3) 0.3364(5) -0.09687(16) 0.0411(14) Uani 1 1 d . . .
H8A H 0.4002 0.3006 -0.1134 0.049 Uiso 1 1 calc R . .
C9 C 0.4500(2) 0.4437(4) -0.05052(16) 0.0393(14) Uani 1 1 d . . .
H9A H 0.4637 0.4803 -0.0345 0.047 Uiso 1 1 calc R . .
C10 C 0.4349(3) 0.3497(5) -0.04489(15) 0.0399(14) Uani 1 1 d . . .
H10A H 0.4369 0.3232 -0.0251 0.048 Uiso 1 1 calc R . .
C11 C 0.4168(2) 0.2953(4) -0.06857(15) 0.0347(12) Uani 1 1 d . . .
C12 C 0.4040(2) 0.1915(4) -0.06351(14) 0.0323(11) Uani 1 1 d . . .
C13 C 0.4576(2) 0.0123(5) 0.04232(15) 0.0389(13) Uani 1 1 d . . .
H13A H 0.4724 0.0479 0.0581 0.047 Uiso 1 1 calc R . .
C14 C 0.4457(2) 0.0595(5) 0.01566(15) 0.0388(13) Uani 1 1 d . . .
H14A H 0.4517 0.1268 0.0134 0.047 Uiso 1 1 calc R . .
C15 C 0.4310(3) -0.1336(4) 0.02317(15) 0.0401(14) Uani 1 1 d . . .
H15A H 0.4268 -0.2015 0.0254 0.048 Uiso 1 1 calc R . .
C16 C 0.4185(2) -0.0913(5) -0.00401(15) 0.0387(13) Uani 1 1 d . . .
H16A H 0.4058 -0.1292 -0.0200 0.046 Uiso 1 1 calc R . .
C17 C 0.4251(2) 0.0076(4) -0.00745(13) 0.0322(11) Uani 1 1 d . . .
C18 C 0.4096(2) 0.0576(4) -0.03549(14) 0.0317(11) Uani 1 1 d . . .
C21 C 0.3455(2) -0.1019(5) 0.09071(14) 0.0341(12) Uani 1 1 d . . .
H21A H 0.3468 -0.1205 0.0700 0.041 Uiso 1 1 calc R . .
C22 C 0.3014(2) -0.0841(4) 0.10331(13) 0.0327(12) Uani 1 1 d . . .
H22A H 0.2731 -0.0889 0.0915 0.039 Uiso 1 1 calc R . .
C23 C 0.3847(2) -0.0659(5) 0.13517(14) 0.0359(12) Uani 1 1 d . . .
H23A H 0.4136 -0.0575 0.1461 0.043 Uiso 1 1 calc R . .
C24 C 0.3424(2) -0.0484(5) 0.14985(14) 0.0354(12) Uani 1 1 d . . .
H24A H 0.3421 -0.0295 0.1705 0.042 Uiso 1 1 calc R . .
C25 C 0.2995(2) -0.0588(4) 0.13369(13) 0.0283(11) Uani 1 1 d . . .
C26 C 0.2534(2) -0.0429(4) 0.14971(12) 0.0269(10) Uani 1 1 d . . .
C27 C 0.2659(3) 0.0697(4) 0.26804(13) 0.0362(13) Uani 1 1 d . . .
H27A H 0.2957 0.0673 0.2783 0.043 Uiso 1 1 calc R . .
C28 C 0.2625(2) 0.0302(4) 0.23907(14) 0.0357(12) Uani 1 1 d . . .
H28A H 0.2896 0.0023 0.2295 0.043 Uiso 1 1 calc R . .
C29 C 0.1865(2) 0.1126(5) 0.26792(15) 0.0419(14) Uani 1 1 d . . .
H29A H 0.1602 0.1419 0.2779 0.050 Uiso 1 1 calc R . .
C30 C 0.1791(3) 0.0730(5) 0.23909(15) 0.0410(14) Uani 1 1 d . . .
H30A H 0.1484 0.0735 0.2299 0.049 Uiso 1 1 calc R . .
C31 C 0.2185(2) 0.0326(4) 0.22440(13) 0.0317(11) Uani 1 1 d . . .
C32 C 0.2149(2) -0.0026(4) 0.19257(12) 0.0279(10) Uani 1 1 d . . .
C33 C 0.0418(2) -0.0602(5) 0.13575(16) 0.0401(14) Uani 1 1 d . . .
H33A H 0.0126 -0.0540 0.1465 0.048 Uiso 1 1 calc R . .
C34 C 0.0840(2) -0.0431(5) 0.15097(15) 0.0384(13) Uani 1 1 d . . .
H34A H 0.0838 -0.0240 0.1716 0.046 Uiso 1 1 calc R . .
C35 C 0.0815(2) -0.0934(5) 0.09154(14) 0.0349(12) Uani 1 1 d . . .
H35A H 0.0807 -0.1098 0.0707 0.042 Uiso 1 1 calc R . .
C36 C 0.1252(2) -0.0790(4) 0.10514(14) 0.0322(11) Uani 1 1 d . . .
H36A H 0.1538 -0.0862 0.0938 0.039 Uiso 1 1 calc R . .
C37 C 0.1271(2) -0.0543(4) 0.13526(13) 0.0312(11) Uani 1 1 d . . .
C38 C 0.1737(2) -0.0407(4) 0.15082(13) 0.0286(11) Uani 1 1 d . . .
N1 N 0.2979(2) -0.1082(4) -0.14786(11) 0.0348(11) Uani 1 1 d . . .
N2 N 0.44591(18) 0.4843(4) -0.07820(13) 0.0356(11) Uani 1 1 d . . .
N3 N 0.44865(18) -0.0830(4) 0.04649(12) 0.0345(10) Uani 1 1 d . . .
N4 N 0.37780(18) 0.1486(4) -0.08493(12) 0.0323(10) Uani 1 1 d . . .
N5 N 0.42040(18) 0.1510(4) -0.03856(12) 0.0343(10) Uani 1 1 d . . .
N6 N 0.38542(18) 0.0047(4) -0.05580(12) 0.0336(10) Uani 1 1 d . . .
N21 N 0.38717(18) -0.0947(4) 0.10606(12) 0.0332(10) Uani 1 1 d . . .
N22 N 0.2285(2) 0.1111(4) 0.28192(12) 0.0368(11) Uani 1 1 d . . .
N23 N 0.04023(18) -0.0852(4) 0.10658(12) 0.0349(11) Uani 1 1 d . . .
N24 N 0.25680(18) -0.0166(3) 0.17867(10) 0.0295(9) Uani 1 1 d . . .
N25 N 0.17235(18) -0.0134(4) 0.18010(11) 0.0307(10) Uani 1 1 d . . .
N26 N 0.21291(17) -0.0563(3) 0.13480(11) 0.0290(9) Uani 1 1 d . . .
C1T C 0.2219(7) 0.687(5) 0.1325(6) 0.051(7) Uani 0.50 1 d PDU A 1
C2T C 0.2434(7) 0.669(4) 0.1043(5) 0.048(6) Uani 0.50 1 d PDU A 1
H2TA H 0.2243 0.6554 0.0870 0.057 Uiso 0.50 1 calc PR A 1
C3T C 0.2907(8) 0.672(3) 0.1020(5) 0.056(6) Uani 0.50 1 d PDU A 1
C4T C 0.3201(8) 0.689(4) 0.1265(6) 0.047(6) Uani 0.50 1 d PDU A 1
H4TA H 0.3539 0.6894 0.1243 0.056 Uiso 0.50 1 calc PR A 1
C5T C 0.2991(7) 0.704(3) 0.1548(4) 0.039(5) Uani 0.50 1 d PDU A 1
H5TA H 0.3185 0.7096 0.1724 0.047 Uiso 0.50 1 calc PR A 1
C6T C 0.2500(7) 0.712(6) 0.1571(7) 0.047(6) Uani 0.50 1 d PDU A 1
C7T C 0.2276(8) 0.736(3) 0.1860(5) 0.047(5) Uani 0.50 1 d PDU A 1
C8T C 0.2566(10) 0.767(4) 0.2109(6) 0.066(7) Uani 0.50 1 d PDU A 1
H8TA H 0.2903 0.7711 0.2093 0.080 Uiso 0.50 1 calc PR A 1
C9T C 0.2326(10) 0.792(3) 0.2377(6) 0.060(6) Uani 0.50 1 d PDU A 1
H9TA H 0.2513 0.8155 0.2541 0.072 Uiso 0.50 1 calc PR A 1
C10T C 0.1827(9) 0.785(2) 0.2419(5) 0.062(6) Uani 0.50 1 d PDU A 1
H10B H 0.1680 0.7995 0.2608 0.074 Uiso 0.50 1 calc PR A 1
C11T C 0.1566(9) 0.757(3) 0.2167(5) 0.062(6) Uani 0.50 1 d PDU A 1
H11A H 0.1229 0.7510 0.2183 0.074 Uiso 0.50 1 calc PR A 1
C12T C 0.1790(9) 0.736(4) 0.1888(6) 0.057(6) Uani 0.50 1 d PDU A 1
C13T C 0.1492(8) 0.716(3) 0.1628(6) 0.058(6) Uani 0.50 1 d PDU A 1
C14T C 0.0965(8) 0.704(3) 0.1639(6) 0.055(5) Uani 0.50 1 d PDU A 1
H14B H 0.0811 0.7100 0.1830 0.066 Uiso 0.50 1 calc PR A 1
C15T C 0.0694(8) 0.686(2) 0.1395(6) 0.051(5) Uani 0.50 1 d PDU A 1
H15B H 0.0356 0.6817 0.1414 0.061 Uiso 0.50 1 calc PR A 1
C16T C 0.0902(9) 0.675(2) 0.1126(6) 0.051(6) Uani 0.50 1 d PDU A 1
H16B H 0.0707 0.6644 0.0953 0.062 Uiso 0.50 1 calc PR A 1
C17T C 0.1389(9) 0.679(4) 0.1092(6) 0.057(7) Uani 0.50 1 d PDU A 1
H17A H 0.1521 0.6761 0.0894 0.068 Uiso 0.50 1 calc PR A 1
C18T C 0.1701(7) 0.687(3) 0.1347(5) 0.044(5) Uani 0.50 1 d PDU A 1
C19T C 0.2926(11) 0.608(4) 0.0478(7) 0.094(8) Uani 0.50 1 d PDU A 1
C20T C 0.3348(9) 0.590(3) 0.0254(5) 0.082(7) Uani 0.50 1 d PDU A 1
H20B H 0.3539 0.5329 0.0267 0.098 Uiso 0.50 1 calc PR A 1
N1T N 0.3154(9) 0.633(3) 0.0745(6) 0.067(6) Uani 0.50 1 d PDU A 1
H1TA H 0.3466 0.6254 0.0753 0.080 Uiso 0.50 1 calc PR A 1
O1T O 0.2507(11) 0.574(4) 0.0472(8) 0.146(13) Uani 0.50 1 d PDU A 1
C21T C 0.3434(10) 0.6600(18) 0.0034(5) 0.101(7) Uani 0.50 1 d PDU A 1
H21C H 0.3677 0.6497 -0.0112 0.121 Uiso 0.50 1 calc PR A 1
C22T C 0.3104(9) 0.765(2) 0.0024(6) 0.149(12) Uani 0.50 1 d PDU A 1
O2T O 0.2998(5) 0.7981(11) 0.0239(4) 0.094(6) Uani 0.50 1 d PDU A 1
O3T O 0.3160(7) 0.7929(19) -0.0272(5) 0.172(13) Uani 0.50 1 d PDU A 1
O4T O 0.2783(7) 0.9589(17) 0.9961(5) 0.118(7) Uani 0.50 1 d P B 1
C1S C 0.2204(7) 0.697(5) 0.1315(6) 0.045(6) Uani 0.50 1 d PDU C 2
C2S C 0.2455(9) 0.667(4) 0.1056(6) 0.061(7) Uani 0.50 1 d PDU C 2
H2SA H 0.2287 0.6503 0.0877 0.073 Uiso 0.50 1 calc PR C 2
C3S C 0.2929(9) 0.661(3) 0.1064(5) 0.054(6) Uani 0.50 1 d PDU C 2
C4S C 0.3179(9) 0.685(4) 0.1323(6) 0.051(6) Uani 0.50 1 d PDU C 2
H4SA H 0.3518 0.6810 0.1325 0.062 Uiso 0.50 1 calc PR C 2
C5S C 0.2934(9) 0.717(3) 0.1582(7) 0.066(7) Uani 0.50 1 d PDU C 2
H5SA H 0.3106 0.7376 0.1756 0.079 Uiso 0.50 1 calc PR C 2
C6S C 0.2441(8) 0.717(6) 0.1584(7) 0.052(6) Uani 0.50 1 d PDU C 2
C7S C 0.2175(8) 0.744(3) 0.1854(5) 0.048(6) Uani 0.50 1 d PDU C 2
C8S C 0.2422(9) 0.773(3) 0.2124(6) 0.053(6) Uani 0.50 1 d PDU C 2
H8SA H 0.2760 0.7799 0.2127 0.064 Uiso 0.50 1 calc PR C 2
C9S C 0.2147(10) 0.791(3) 0.2384(6) 0.067(7) Uani 0.50 1 d PDU C 2
H9SA H 0.2306 0.8116 0.2563 0.081 Uiso 0.50 1 calc PR C 2
C10S C 0.1644(11) 0.781(3) 0.2393(6) 0.076(7) Uani 0.50 1 d PDU C 2
H10C H 0.1463 0.7958 0.2569 0.091 Uiso 0.50 1 calc PR C 2
C11S C 0.1431(10) 0.749(4) 0.2129(6) 0.070(7) Uani 0.50 1 d PDU C 2
H11B H 0.1096 0.7382 0.2128 0.084 Uiso 0.50 1 calc PR C 2
C12S C 0.1690(8) 0.730(4) 0.1862(6) 0.048(5) Uani 0.50 1 d PDU C 2
C13S C 0.1435(7) 0.703(3) 0.1590(5) 0.045(5) Uani 0.50 1 d PDU C 2
C14S C 0.0909(8) 0.693(3) 0.1557(6) 0.069(7) Uani 0.50 1 d PDU C 2
H14C H 0.0719 0.6996 0.1735 0.083 Uiso 0.50 1 calc PR C 2
C15S C 0.0686(10) 0.676(3) 0.1296(7) 0.062(7) Uani 0.50 1 d PDU C 2
H15C H 0.0347 0.6758 0.1288 0.074 Uiso 0.50 1 calc PR C 2
C16S C 0.0938(10) 0.660(3) 0.1046(7) 0.060(6) Uani 0.50 1 d PDU C 2
H16C H 0.0777 0.6450 0.0863 0.072 Uiso 0.50 1 calc PR C 2
C17S C 0.1427(9) 0.664(4) 0.1048(6) 0.059(6) Uani 0.50 1 d PDU C 2
H17B H 0.1599 0.6441 0.0873 0.070 Uiso 0.50 1 calc PR C 2
C18S C 0.1684(7) 0.697(3) 0.1307(5) 0.052(7) Uani 0.50 1 d PDU C 2
C19S C 0.3049(8) 0.601(3) 0.0521(6) 0.076(6) Uani 0.50 1 d PDU C 2
C20S C 0.3490(10) 0.588(4) 0.0310(7) 0.096(8) Uani 0.50 1 d PDU C 2
H20A H 0.3689 0.6418 0.0272 0.116 Uiso 0.50 1 calc PR C 2
N1S N 0.3213(9) 0.645(3) 0.0781(6) 0.066(6) Uani 0.50 1 d PDU C 2
H1SA H 0.3511 0.6651 0.0781 0.079 Uiso 0.50 1 calc PR C 2
O1S O 0.2619(6) 0.590(3) 0.0449(5) 0.088(8) Uani 0.50 1 d PDU C 2
C21S C 0.3616(10) 0.490(2) 0.0160(5) 0.108(7) Uani 0.50 1 d PDU C 2
H21B H 0.3845 0.4906 0.0002 0.130 Uiso 0.50 1 calc PR C 2
C22S C 0.3376(7) 0.383(2) 0.0260(5) 0.095(8) Uani 0.50 1 d PDU C 2
O2S O 0.3158(6) 0.3740(12) 0.0453(3) 0.083(4) Uani 0.50 1 d PDU C 2
O3S O 0.3474(6) 0.314(2) 0.0056(7) 0.206(15) Uani 0.50 1 d PDU C 2
O4S O 0.3157(7) 0.1619(14) 0.0049(4) 0.106(6) Uani 0.50 1 d P D 2
C1A C 0.2803(3) 0.2821(7) 0.9305(2) 0.064(2) Uani 1 1 d . E 3
H1AA H 0.3036 0.2952 0.9465 0.097 Uiso 1 1 calc R E 3
H1AB H 0.2535 0.3273 0.9322 0.097 Uiso 1 1 calc R E 3
H1AC H 0.2956 0.2902 0.9107 0.097 Uiso 1 1 calc R E 3
C2A C 0.2627(4) 0.1823(9) 0.9334(3) 0.087(4) Uani 1 1 d . E 3
C3A C 0.2097(7) 0.0510(10) 0.9082(4) 0.118(6) Uani 1 1 d . E 3
H3AA H 0.1961 0.0409 0.8877 0.142 Uiso 1 1 calc R E 3
H3AB H 0.2350 0.0025 0.9121 0.142 Uiso 1 1 calc R E 3
C4A C 0.1751(6) 0.0509(17) 0.9304(6) 0.177(11) Uani 1 1 d . E 3
H4AA H 0.1593 -0.0124 0.9309 0.266 Uiso 1 1 calc R E 3
H4AB H 0.1514 0.1013 0.9260 0.266 Uiso 1 1 calc R E 3
H4AC H 0.1899 0.0639 0.9501 0.266 Uiso 1 1 calc R E 3
O1A O 0.2780(3) 0.1205(6) 0.95066(19) 0.087(2) Uani 1 1 d . E 3
O2A O 0.2291(4) 0.1640(8) 0.9132(4) 0.196(8) Uani 1 1 d . E 3

loop_
_atom_site_aniso_label
_atom_site_aniso_U_11
_atom_site_aniso_U_22
_atom_site_aniso_U_33
_atom_site_aniso_U_23
_atom_site_aniso_U_13
_atom_site_aniso_U_12
Zn1 0.0336(4) 0.0345(4) 0.0422(4) 0.0075(3) 0.0058(3) 0.0070(3)
Zn2 0.0579(5) 0.0286(3) 0.0287(3) 0.0004(3) 0.0038(3) -0.0018(3)
Zn3 0.0302(3) 0.0255(3) 0.0591(5) 0.0016(3) -0.0044(3) -0.0001(3)
I1 0.0467(3) 0.0327(2) 0.0839(4) 0.