####################################################################### 
# 
# This file contains crystal structure data downloaded from the 
# Cambridge Structural Database (CSD) hosted by the Cambridge 
# Crystallographic Data Centre (CCDC).
# 
# Full information about CCDC data access policies and citation 
# guidelines are available at http://www.ccdc.cam.ac.uk/access/V1 
# 
# Audit and citation data items may have been added by the CCDC. 
# Please retain this information to preserve the provenance of 
# this file and to allow appropriate attribution of the data. 
# 
#######################################################################

data_complex
_audit_block_doi                 10.5517/ccs2z93
_database_code_depnum_ccdc_archive 'CCDC 717845'
loop_
_citation_id
_citation_doi
_citation_year
1 10.1021/ja8007227 2008
_audit_update_record             
;
2009-01-26 deposited with the CCDC.	2024-07-13 downloaded from the CCDC.
;

_audit_creation_method           SHELXL-97
_chemical_name_systematic        
;
?
;
_chemical_name_common            ?
_chemical_melting_point          ?
_chemical_formula_moiety         ?
_chemical_formula_sum            'C528 H468 Cu8 N64 O32'
_chemical_formula_weight         8729.98

loop_
_atom_type_symbol
_atom_type_description
_atom_type_scat_dispersion_real
_atom_type_scat_dispersion_imag
_atom_type_scat_source
C C 0.0033 0.0016 'International Tables Vol C Tables 4.2.6.8 and 6.1.1.4'
H H 0.0000 0.0000 'International Tables Vol C Tables 4.2.6.8 and 6.1.1.4'
N N 0.0061 0.0033 'International Tables Vol C Tables 4.2.6.8 and 6.1.1.4'
O O 0.0106 0.0060 'International Tables Vol C Tables 4.2.6.8 and 6.1.1.4'
Cu Cu 0.3201 1.2651 'International Tables Vol C Tables 4.2.6.8 and 6.1.1.4'

_symmetry_cell_setting           ?
_symmetry_space_group_name_H-M   ?

loop_
_symmetry_equiv_pos_as_xyz
'x, y, z'
'-x+1/2, -y+1/2, z'
'-y+1/2, x, z'
'y, -x+1/2, z'
'-x, y+1/2, -z+1/2'
'x+1/2, -y, -z+1/2'
'y+1/2, x+1/2, -z+1/2'
'-y, -x, -z+1/2'
'-x, -y, -z'
'x-1/2, y-1/2, -z'
'y-1/2, -x, -z'
'-y, x-1/2, -z'
'x, -y-1/2, z-1/2'
'-x-1/2, y, z-1/2'
'-y-1/2, -x-1/2, z-1/2'
'y, x, z-1/2'

_cell_length_a                   48.488(7)
_cell_length_b                   48.488
_cell_length_c                   33.480(7)
_cell_angle_alpha                90.00
_cell_angle_beta                 90.00
_cell_angle_gamma                90.00
_cell_volume                     78714(20)
_cell_formula_units_Z            4
_cell_measurement_temperature    213(2)
_cell_measurement_reflns_used    ?
_cell_measurement_theta_min      ?
_cell_measurement_theta_max      ?

_exptl_crystal_description       ?
_exptl_crystal_colour            ?
_exptl_crystal_size_max          0.24
_exptl_crystal_size_mid          0.20
_exptl_crystal_size_min          0.16
_exptl_crystal_density_meas      ?
_exptl_crystal_density_diffrn    0.737
_exptl_crystal_density_method    'not measured'
_exptl_crystal_F_000             18288
_exptl_absorpt_coefficient_mu    0.255
_exptl_absorpt_correction_type   ?
_exptl_absorpt_correction_T_min  0.9414
_exptl_absorpt_correction_T_max  0.9604
_exptl_absorpt_process_details   ?

_exptl_special_details           
;
?
;

_diffrn_ambient_temperature      213(2)
_diffrn_radiation_wavelength     0.71073
_diffrn_radiation_type           MoK\a
_diffrn_radiation_source         'fine-focus sealed tube'
_diffrn_radiation_monochromator  graphite
_diffrn_measurement_device_type  ?
_diffrn_measurement_method       ?
_diffrn_detector_area_resol_mean ?
_diffrn_standards_number         ?
_diffrn_standards_interval_count ?
_diffrn_standards_interval_time  ?
_diffrn_standards_decay_%        ?
_diffrn_reflns_number            436162
_diffrn_reflns_av_R_equivalents  0.1195
_diffrn_reflns_av_sigmaI/netI    0.0668
_diffrn_reflns_limit_h_min       -52
_diffrn_reflns_limit_h_max       52
_diffrn_reflns_limit_k_min       -52
_diffrn_reflns_limit_k_max       52
_diffrn_reflns_limit_l_min       -36
_diffrn_reflns_limit_l_max       36
_diffrn_reflns_theta_min         1.12
_diffrn_reflns_theta_max         22.50
_reflns_number_total             25738
_reflns_number_gt                15927
_reflns_threshold_expression     >2sigma(I)

_computing_data_collection       ?
_computing_cell_refinement       ?
_computing_data_reduction        ?
_computing_structure_solution    'SHELXS-97 (Sheldrick, 1990)'
_computing_structure_refinement  'SHELXL-97 (Sheldrick, 1997)'
_computing_molecular_graphics    ?
_computing_publication_material  ?

_refine_special_details          
;
Refinement of F^2^ against ALL reflections. The weighted R-factor wR and
goodness of fit S are based on F^2^, conventional R-factors R are based
on F, with F set to zero for negative F^2^. The threshold expression of
F^2^ > 2sigma(F^2^) is used only for calculating R-factors(gt) etc. and is
not relevant to the choice of reflections for refinement. R-factors based
on F^2^ are statistically about twice as large as those based on F, and R-
factors based on ALL data will be even larger.
;

_refine_ls_structure_factor_coef Fsqd
_refine_ls_matrix_type           full
_refine_ls_weighting_scheme      calc
_refine_ls_weighting_details     
'calc w=1/[\s^2^(Fo^2^)+(0.1000P)^2^+0.0000P] where P=(Fo^2^+2Fc^2^)/3'
_atom_sites_solution_primary     direct
_atom_sites_solution_secondary   difmap
_atom_sites_solution_hydrogens   geom
_refine_ls_hydrogen_treatment    mixed
_refine_ls_extinction_method     none
_refine_ls_extinction_coef       ?
_refine_ls_number_reflns         25738
_refine_ls_number_parameters     1423
_refine_ls_number_restraints     0
_refine_ls_R_factor_all          0.1794
_refine_ls_R_factor_gt           0.1009
_refine_ls_wR_factor_ref         0.2711
_refine_ls_wR_factor_gt          0.2289
_refine_ls_goodness_of_fit_ref   1.278
_refine_ls_restrained_S_all      1.278
_refine_ls_shift/su_max          0.002
_refine_ls_shift/su_mean         0.000

loop_
_atom_site_label
_atom_site_type_symbol
_atom_site_fract_x
_atom_site_fract_y
_atom_site_fract_z
_atom_site_U_iso_or_equiv
_atom_site_adp_type
_atom_site_occupancy
_atom_site_symmetry_multiplicity
_atom_site_calc_flag
_atom_site_refinement_flags
_atom_site_disorder_assembly
_atom_site_disorder_group
Cu1 Cu 0.491262(14) 0.603379(13) 0.60332(2) 0.0873(3) Uani 1 1 d . . .
Cu2 Cu 0.672983(14) 0.465369(15) 0.59792(3) 0.0980(3) Uani 1 1 d . . .
N1 N 0.52273(11) 0.60713(9) 0.64190(18) 0.0869(14) Uani 1 1 d . . .
N2 N 0.56499(14) 0.61093(11) 0.6668(2) 0.1038(18) Uani 1 1 d . . .
N3 N 0.55809(9) 0.54717(10) 0.51284(17) 0.0825(13) Uani 1 1 d . . .
N4 N 0.58939(9) 0.57534(12) 0.48548(19) 0.0980(16) Uani 1 1 d . . .
N5 N 0.66579(9) 0.49782(12) 0.5621(2) 0.0899(15) Uani 1 1 d . . .
N6 N 0.66217(10) 0.53963(13) 0.5374(2) 0.1012(17) Uani 1 1 d . . .
N7 N 0.61353(11) 0.52116(12) 0.7026(2) 0.1001(15) Uani 1 1 d . . .
N8 N 0.63396(13) 0.55965(12) 0.7240(3) 0.117(2) Uani 1 1 d . . .
N9 N 0.69693(11) 0.48650(11) 0.6347(2) 0.0964(15) Uani 1 1 d . . .
N10 N 0.72080(11) 0.52215(13) 0.6597(2) 0.1072(17) Uani 1 1 d . . .
N11 N 0.75673(11) 0.47671(17) 0.4997(3) 0.119(2) Uani 1 1 d . . .
N12 N 0.75725(13) 0.51897(17) 0.4750(3) 0.126(2) Uani 1 1 d . . .
N13 N 0.50843(9) 0.62881(10) 0.56400(16) 0.0789(13) Uani 1 1 d . . .
N14 N 0.53361(10) 0.66129(10) 0.53659(19) 0.0894(14) Uani 1 1 d . . .
N15 N 0.47437(17) 0.69064(12) 0.6871(2) 0.118(2) Uani 1 1 d . . .
N16 N 0.5129(2) 0.70394(12) 0.7195(2) 0.128(2) Uani 1 1 d . . .
O1 O 0.64255(10) 0.44468(9) 0.57331(16) 0.1104(14) Uani 1 1 d . . .
O2 O 0.62621(9) 0.44899(10) 0.63507(19) 0.1151(15) Uani 1 1 d . . .
O3 O 0.47363(8) 0.57854(9) 0.64139(13) 0.0993(13) Uani 1 1 d . . .
O4 O 0.49282(9) 0.54428(8) 0.60596(14) 0.0940(12) Uani 1 1 d . . .
O5 O 0.86985(9) 0.43947(9) 0.60755(15) 0.1112(15) Uani 1 1 d . . .
O6 O 0.90089(8) 0.45968(8) 0.56810(12) 0.0952(12) Uani 1 1 d . . .
O7 O 0.42532(12) 0.79656(10) 0.5592(2) 0.139(2) Uani 1 1 d . . .
O8 O 0.43021(11) 0.81384(12) 0.6199(2) 0.136(2) Uani 1 1 d . . .
C1 C 0.55015(16) 0.60441(11) 0.6336(3) 0.094(2) Uani 1 1 d . . .
C2 C 0.52036(19) 0.61610(12) 0.6811(2) 0.100(2) Uani 1 1 d . . .
C3 C 0.49652(18) 0.62319(13) 0.7020(3) 0.115(2) Uani 1 1 d . . .
H3 H 0.4789 0.6212 0.6905 0.138 Uiso 1 1 calc R . .
C4 C 0.4999(2) 0.63339(14) 0.7408(3) 0.129(3) Uani 1 1 d . . .
H4 H 0.4844 0.6391 0.7556 0.155 Uiso 1 1 calc R . .
C5 C 0.5266(3) 0.63523(17) 0.7581(3) 0.146(3) Uani 1 1 d . . .
H5 H 0.5286 0.6413 0.7846 0.175 Uiso 1 1 calc R . .
C6 C 0.5498(2) 0.62817(17) 0.7361(3) 0.129(3) Uani 1 1 d . . .
H6 H 0.5673 0.6298 0.7479 0.155 Uiso 1 1 calc R . .
C7 C 0.5476(2) 0.61873(14) 0.6970(4) 0.116(3) Uani 1 1 d . . .
C8 C 0.59471(15) 0.60925(15) 0.6734(2) 0.135(3) Uani 1 1 d . . .
H8A H 0.6027 0.5963 0.6546 0.203 Uiso 1 1 calc R . .
H8B H 0.5983 0.6030 0.7005 0.203 Uiso 1 1 calc R . .
H8C H 0.6029 0.6273 0.6695 0.203 Uiso 1 1 calc R . .
C9 C 0.56217(13) 0.59717(12) 0.5958(2) 0.0843(17) Uani 1 1 d . . .
C10 C 0.55203(12) 0.57357(13) 0.5778(2) 0.0892(18) Uani 1 1 d . . .
H10 H 0.5388 0.5622 0.5899 0.107 Uiso 1 1 calc R . .
C11 C 0.56267(12) 0.56811(13) 0.5411(2) 0.0873(17) Uani 1 1 d . . .
C12 C 0.57378(13) 0.55209(15) 0.4807(2) 0.0927(18) Uani 1 1 d . . .
C13 C 0.58240(13) 0.58566(14) 0.5226(2) 0.0918(18) Uani 1 1 d . . .
C14 C 0.59210(13) 0.60932(14) 0.5413(3) 0.097(2) Uani 1 1 d . . .
C15 C 0.58182(13) 0.61396(12) 0.5778(3) 0.097(2) Uani 1 1 d . . .
H15 H 0.5882 0.6294 0.5920 0.117 Uiso 1 1 calc R . .
C16 C 0.61123(13) 0.62852(13) 0.5208(2) 0.129(3) Uani 1 1 d . . .
H16A H 0.6031 0.6345 0.4958 0.194 Uiso 1 1 calc R . .
H16B H 0.6285 0.6192 0.5155 0.194 Uiso 1 1 calc R . .
H16C H 0.6146 0.6444 0.5377 0.194 Uiso 1 1 calc R . .
C17 C 0.57592(13) 0.53362(15) 0.4458(2) 0.116(2) Uani 1 1 d . . .
H17A H 0.5768 0.5446 0.4213 0.139 Uiso 1 1 calc R . .
H17B H 0.5596 0.5218 0.4444 0.139 Uiso 1 1 calc R . .
C18 C 0.60247(15) 0.5155(2) 0.4496(3) 0.172(4) Uani 1 1 d . . .
H18A H 0.6187 0.5274 0.4504 0.206 Uiso 1 1 calc R . .
H18B H 0.6018 0.5051 0.4748 0.206 Uiso 1 1 calc R . .
C19 C 0.60499(19) 0.4967(2) 0.4174(4) 0.209(5) Uani 1 1 d . . .
H19A H 0.6070 0.5069 0.3926 0.314 Uiso 1 1 calc R . .
H19B H 0.5886 0.4852 0.4160 0.314 Uiso 1 1 calc R . .
H19C H 0.6211 0.4851 0.4214 0.314 Uiso 1 1 calc R . .
C20 C 0.53723(10) 0.52510(12) 0.51828(18) 0.0871(17) Uani 1 1 d . . .
H20A H 0.5272 0.5225 0.4932 0.104 Uiso 1 1 calc R . .
H20B H 0.5239 0.5309 0.5386 0.104 Uiso 1 1 calc R . .
C21 C 0.55000(12) 0.49757(12) 0.5309(2) 0.0788(16) Uani 1 1 d . . .
C22 C 0.56263(13) 0.49504(14) 0.5664(2) 0.0970(19) Uani 1 1 d . . .
H22 H 0.5643 0.5105 0.5833 0.116 Uiso 1 1 calc R . .
C23 C 0.57310(12) 0.47007(15) 0.5783(2) 0.100(2) Uani 1 1 d . . .
H23 H 0.5818 0.4686 0.6033 0.120 Uiso 1 1 calc R . .
C24 C 0.57102(11) 0.44681(12) 0.5540(2) 0.0812(16) Uani 1 1 d . . .
C25 C 0.55830(12) 0.44970(13) 0.5189(2) 0.0865(17) Uani 1 1 d . . .
H25 H 0.5566 0.4344 0.5019 0.104 Uiso 1 1 calc R . .
C26 C 0.54745(11) 0.47496(14) 0.50710(18) 0.0827(16) Uani 1 1 d . . .
H26 H 0.5383 0.4764 0.4825 0.099 Uiso 1 1 calc R . .
C27 C 0.58109(12) 0.41965(13) 0.56960(19) 0.0891(18) Uani 1 1 d . . .
C28 C 0.60507(13) 0.41608(13) 0.5909(2) 0.0950(19) Uani 1 1 d . . .
C29 C 0.61265(14) 0.39010(15) 0.6046(2) 0.118(2) Uani 1 1 d . . .
H29 H 0.6287 0.3879 0.6201 0.142 Uiso 1 1 calc R . .
C30 C 0.59620(17) 0.36737(15) 0.5954(2) 0.121(2) Uani 1 1 d . . .
H30 H 0.6014 0.3498 0.6044 0.145 Uiso 1 1 calc R . .
C31 C 0.57366(15) 0.37018(15) 0.5743(2) 0.105(2) Uani 1 1 d . . .
H31 H 0.5628 0.3547 0.5681 0.126 Uiso 1 1 calc R . .
C32 C 0.56598(13) 0.39592(14) 0.5613(2) 0.0982(19) Uani 1 1 d . . .
H32 H 0.5498 0.3976 0.5461 0.118 Uiso 1 1 calc R . .
C33 C 0.62528(16) 0.43865(15) 0.6007(3) 0.098(2) Uani 1 1 d . . .
C34 C 0.65964(11) 0.52445(16) 0.5704(3) 0.0902(18) Uani 1 1 d . . .
C35 C 0.67245(12) 0.49677(18) 0.5233(3) 0.0908(19) Uani 1 1 d . . .
C36 C 0.68094(13) 0.47461(17) 0.5004(3) 0.104(2) Uani 1 1 d . . .
H36 H 0.6820 0.4568 0.5115 0.125 Uiso 1 1 calc R . .
C37 C 0.68768(15) 0.4791(2) 0.4618(3) 0.126(3) Uani 1 1 d . . .
H37 H 0.6934 0.4642 0.4459 0.152 Uiso 1 1 calc R . .
C38 C 0.68614(16) 0.5068(3) 0.4443(3) 0.134(3) Uani 1 1 d . . .
H38 H 0.6913 0.5097 0.4175 0.161 Uiso 1 1 calc R . .
C39 C 0.67694(14) 0.52875(19) 0.4676(3) 0.113(2) Uani 1 1 d . . .
H39 H 0.6753 0.5466 0.4571 0.136 Uiso 1 1 calc R . .
C40 C 0.67053(13) 0.52313(18) 0.5060(3) 0.0957(19) Uani 1 1 d . . .
C41 C 0.65464(13) 0.56924(13) 0.5313(2) 0.126(3) Uani 1 1 d . . .
H41A H 0.6432 0.5710 0.5077 0.189 Uiso 1 1 calc R . .
H41B H 0.6713 0.5801 0.5278 0.189 Uiso 1 1 calc R . .
H41C H 0.6446 0.5759 0.5544 0.189 Uiso 1 1 calc R . .
C42 C 0.65187(12) 0.53469(14) 0.6097(2) 0.0853(17) Uani 1 1 d . . .
C43 C 0.63394(11) 0.52027(12) 0.6345(2) 0.0810(16) Uani 1 1 d . . .
H43 H 0.6255 0.5039 0.6258 0.097 Uiso 1 1 calc R . .
C44 C 0.62910(12) 0.53003(15) 0.6703(2) 0.0876(18) Uani 1 1 d . . .
C45 C 0.61663(18) 0.53950(19) 0.7348(3) 0.111(2) Uani 1 1 d . . .
C46 C 0.64232(15) 0.55491(16) 0.6846(3) 0.0963(19) Uani 1 1 d . . .
C47 C 0.65964(14) 0.56929(15) 0.6619(3) 0.105(2) Uani 1 1 d . . .
C48 C 0.66461(12) 0.55959(14) 0.6241(3) 0.103(2) Uani 1 1 d . . .
H48 H 0.6766 0.5694 0.6073 0.124 Uiso 1 1 calc R . .
C49 C 0.67453(15) 0.59512(16) 0.6778(3) 0.159(3) Uani 1 1 d . . .
H49A H 0.6611 0.6080 0.6883 0.239 Uiso 1 1 calc R . .
H49B H 0.6847 0.6038 0.6562 0.239 Uiso 1 1 calc R . .
H49C H 0.6872 0.5898 0.6988 0.239 Uiso 1 1 calc R . .
C50 C 0.60307(17) 0.53617(16) 0.7738(3) 0.124(2) Uani 1 1 d . . .
H50A H 0.5928 0.5187 0.7736 0.149 Uiso 1 1 calc R . .
H50B H 0.6174 0.5347 0.7944 0.149 Uiso 1 1 calc R . .
C51 C 0.5842(2) 0.5582(2) 0.7850(3) 0.156(3) Uani 1 1 d . . .
H51A H 0.5690 0.5586 0.7657 0.187 Uiso 1 1 calc R . .
H51B H 0.5940 0.5758 0.7829 0.187 Uiso 1 1 calc R . .
C52 C 0.5719(2) 0.5559(2) 0.8273(3) 0.195(4) Uani 1 1 d . . .
H52A H 0.5622 0.5384 0.8299 0.292 Uiso 1 1 calc R . .
H52B H 0.5591 0.5709 0.8318 0.292 Uiso 1 1 calc R . .
H52C H 0.5866 0.5567 0.8469 0.292 Uiso 1 1 calc R . .
C53 C 0.59643(13) 0.49634(13) 0.70175(19) 0.0968(19) Uani 1 1 d . . .
H53A H 0.5992 0.4862 0.7267 0.116 Uiso 1 1 calc R . .
H53B H 0.6027 0.4845 0.6798 0.116 Uiso 1 1 calc R . .
C54 C 0.56520(13) 0.50190(14) 0.69636(17) 0.0868(17) Uani 1 1 d . . .
C55 C 0.55460(14) 0.52865(13) 0.68823(17) 0.0888(17) Uani 1 1 d . . .
H55 H 0.5667 0.5436 0.6850 0.107 Uiso 1 1 calc R . .
C56 C 0.52653(13) 0.53252(12) 0.68515(17) 0.0837(16) Uani 1 1 d . . .
H56 H 0.5196 0.5504 0.6808 0.100 Uiso 1 1 calc R . .
C57 C 0.50856(12) 0.51101(12) 0.68826(17) 0.0797(16) Uani 1 1 d . . .
C58 C 0.51922(14) 0.48482(12) 0.69528(17) 0.0853(17) Uani 1 1 d . . .
H58 H 0.5072 0.4697 0.6971 0.102 Uiso 1 1 calc R . .
C59 C 0.54720(15) 0.48090(13) 0.69953(19) 0.0971(19) Uani 1 1 d . . .
H59 H 0.5539 0.4631 0.7048 0.117 Uiso 1 1 calc R . .
C60 C 0.47844(13) 0.51477(12) 0.68666(18) 0.0814(16) Uani 1 1 d . . .
C61 C 0.46438(13) 0.53340(12) 0.66183(18) 0.0845(17) Uani 1 1 d . . .
C62 C 0.43569(15) 0.53563(14) 0.6635(2) 0.111(2) Uani 1 1 d . . .
H62 H 0.4268 0.5488 0.6473 0.134 Uiso 1 1 calc R . .
C63 C 0.41988(15) 0.51891(17) 0.6884(3) 0.128(3) Uani 1 1 d . . .
H63 H 0.4006 0.5203 0.6887 0.153 Uiso 1 1 calc R . .
C64 C 0.43309(16) 0.50049(16) 0.7122(2) 0.119(2) Uani 1 1 d . . .
H64 H 0.4227 0.4891 0.7293 0.143 Uiso 1 1 calc R . .
C65 C 0.46183(15) 0.49823(12) 0.71181(19) 0.0964(19) Uani 1 1 d . . .
H65 H 0.4704 0.4853 0.7287 0.116 Uiso 1 1 calc R . .
C66 C 0.47863(14) 0.55270(16) 0.6340(2) 0.0914(19) Uani 1 1 d . . .
C67 C 0.71572(14) 0.50660(17) 0.6273(3) 0.107(2) Uani 1 1 d . . .
C68 C 0.69086(16) 0.4901(2) 0.6743(3) 0.111(2) Uani 1 1 d . . .
C69 C 0.67185(17) 0.47505(18) 0.6983(3) 0.125(3) Uani 1 1 d . . .
H69 H 0.6619 0.4603 0.6870 0.150 Uiso 1 1 calc R . .
C70 C 0.66773(19) 0.4819(3) 0.7381(3) 0.148(3) Uani 1 1 d . . .
H70 H 0.6556 0.4715 0.7541 0.177 Uiso 1 1 calc R . .
C71 C 0.6820(2) 0.5046(3) 0.7542(3) 0.146(3) Uani 1 1 d . . .
H71 H 0.6786 0.5100 0.7807 0.175 Uiso 1 1 calc R . .
C72 C 0.70089(19) 0.5191(2) 0.7317(3) 0.135(3) Uani 1 1 d . . .
H72 H 0.7110 0.5337 0.7429 0.162 Uiso 1 1 calc R . .
C73 C 0.70473(17) 0.51117(19) 0.6913(3) 0.112(2) Uani 1 1 d . . .
C74 C 0.74063(15) 0.54361(16) 0.6649(3) 0.141(3) Uani 1 1 d . . .
H74A H 0.7554 0.5413 0.6457 0.212 Uiso 1 1 calc R . .
H74B H 0.7481 0.5428 0.6917 0.212 Uiso 1 1 calc R . .
H74C H 0.7318 0.5614 0.6607 0.212 Uiso 1 1 calc R . .
C75 C 0.72788(12) 0.51101(16) 0.5873(3) 0.097(2) Uani 1 1 d . . .
C76 C 0.73751(12) 0.48862(14) 0.5645(3) 0.094(2) Uani 1 1 d . . .
H76 H 0.7372 0.4705 0.5745 0.113 Uiso 1 1 calc R . .
C77 C 0.74674(13) 0.4941(2) 0.5293(3) 0.096(2) Uani 1 1 d . . .
C78 C 0.76251(14) 0.4927(3) 0.4674(3) 0.124(3) Uani 1 1 d . . .
C79 C 0.74744(14) 0.5202(2) 0.5125(3) 0.108(2) Uani 1 1 d . . .
C80 C 0.73846(14) 0.54309(18) 0.5343(3) 0.112(2) Uani 1 1 d . . .
C81 C 0.72902(12) 0.53744(17) 0.5703(3) 0.117(3) Uani 1 1 d . . .
H81 H 0.7226 0.5523 0.5858 0.140 Uiso 1 1 calc R . .
C82 C 0.73813(14) 0.57129(16) 0.5147(3) 0.145(3) Uani 1 1 d . . .
H82A H 0.7201 0.5796 0.5182 0.218 Uiso 1 1 calc R . .
H82B H 0.7420 0.5694 0.4864 0.218 Uiso 1 1 calc R . .
H82C H 0.7520 0.5829 0.5270 0.218 Uiso 1 1 calc R . .
C83 C 0.7737(2) 0.4820(2) 0.4292(3) 0.171(4) Uani 1 1 d . . .
H83A H 0.7621 0.4891 0.4076 0.205 Uiso 1 1 calc R . .
H83B H 0.7717 0.4619 0.4293 0.205 Uiso 1 1 calc R . .
C84 C 0.8040(3) 0.4888(3) 0.4189(4) 0.234(6) Uani 1 1 d . . .
H84A H 0.8067 0.5088 0.4211 0.281 Uiso 1 1 calc R . .
H84B H 0.8160 0.4799 0.4387 0.281 Uiso 1 1 calc R . .
C85 C 0.8126(3) 0.4797(4) 0.3780(4) 0.303(8) Uani 1 1 d . . .
H85A H 0.8067 0.4608 0.3737 0.454 Uiso 1 1 calc R . .
H85B H 0.8325 0.4808 0.3758 0.454 Uiso 1 1 calc R . .
H85C H 0.8041 0.4915 0.3582 0.454 Uiso 1 1 calc R . .
C86 C 0.75922(14) 0.44552(17) 0.5033(3) 0.129(3) Uani 1 1 d . . .
H86A H 0.7532 0.4371 0.4781 0.155 Uiso 1 1 calc R . .
H86B H 0.7468 0.4391 0.5244 0.155 Uiso 1 1 calc R . .
C87 C 0.78851