
#######################################################################
#
#                 Cambridge Crystallographic Data Centre
#                                CCDC
#
#######################################################################
#
# If this CIF has been generated from an entry in the Cambridge
# Structural Database, then it will include bibliographic, chemical,
# crystal, experimental, refinement or atomic coordinate data resulting
# from the CCDC's data processing and validation procedures.
#
#######################################################################

data_CSD_CIF_SONROC
_audit_creation_date 1992-05-19
_audit_creation_method CSD-ConQuest-V1
_database_code_CSD SONROC
_database_code_depnum_ccdc_archive 'CCDC 1262012'
_chemical_formula_sum 'C14 H30 Br2 Mo1 O2 P2'
_chemical_formula_moiety
;
C14 H30 Br2 Mo1 O2 P2
;
_journal_coden_Cambridge 9
_journal_volume 30
_journal_year 1991
_journal_page_first 3711
_journal_name_full 'Inorg.Chem. '
loop_
_publ_author_name
"R.S.Herrick"
"M.S.George"
"R.R.Duff Junior"
"F.H.D'Aulnois"
"R.M.Jarret"
"J.L.Hubbard"
_chemical_name_systematic
;
Dibromo-dicarbonyl-bis(triethylphosphine)-molybdenum
;
_chemical_name_common
;
Teaching Subset: Fundamental Chemistry, Symmetry
;
_cell_volume   2124.837
_exptl_crystal_colour 'blue'
_exptl_crystal_density_diffrn 1.713
_exptl_special_details
;
Structure could also be solved and refined in P41212

;
_diffrn_ambient_temperature ?
_diffrn_special_details
;
The study was carried out at room temperature,in the range 283-303K

;
#These two values have been output from a single CSD field.
_refine_ls_R_factor_gt 0.0499
_refine_ls_wR_factor_gt 0.0499
_symmetry_cell_setting tetragonal
_symmetry_space_group_name_H-M 'P 43 21 2'
_symmetry_Int_Tables_number 96
loop_
_symmetry_equiv_pos_site_id
_symmetry_equiv_pos_as_xyz
1 x,y,z
2 1/2-y,1/2+x,3/4+z
3 -x,-y,1/2+z
4 1/2+y,1/2-x,1/4+z
5 y,x,-z
6 1/2+x,1/2-y,1/4-z
7 -y,-x,1/2-z
8 1/2-x,1/2+y,3/4-z
_cell_length_a 9.066(2)
_cell_length_b 9.066(2)
_cell_length_c 25.852(6)
_cell_angle_alpha 90
_cell_angle_beta 90
_cell_angle_gamma 90
_cell_formula_units_Z 4
loop_
_atom_type_symbol
_atom_type_radius_bond
C 0.68
H 0.23
Br 1.21
Mo 1.47
O 0.68
P 1.05
loop_
_atom_site_label
_atom_site_type_symbol
_atom_site_fract_x
_atom_site_fract_y
_atom_site_fract_z
Mo1 Mo 0.1907(1) 0.1907(1) 0.00000
Br1 Br 0.2490(2) 0.4269(1) 0.0533(1)
C1 C -0.005(2) 0.1951(2) 0.0318(6)
O1 O -0.120(1) 0.204(2) 0.0509(5)
P1 P 0.2172(5) 0.0293(5) 0.0759(2)
C2 C 0.417(2) 0.035(2) 0.0904(6)
C3 C 0.516(2) -0.051(2) 0.0549(2)
C4 C 0.166(2) -0.164(2) 0.0728(6)
C5 C 0.003(2) -0.189(3) 0.0664(7)
C6 C 0.133(2) 0.094(2) 0.1347(6)
C7 C 0.167(2) 0.005(2) 0.1828(5)
H1 H 0.43150 0.00050 0.12520
H2 H 0.44870 0.13550 0.08910
H3 H 0.50870 -0.01440 0.02010
H4 H 0.49100 -0.15390 0.05510
H5 H 0.61240 -0.03450 0.06890
H6 H 0.19600 -0.21010 0.10450
H7 H 0.21890 -0.20990 0.04500
H8 H -0.03540 -0.13110 0.03840
H9 H -0.04670 -0.16160 0.09760
H10 H -0.01070 -0.29220 0.05950
H11 H 0.02780 0.09880 0.12960
H12 H 0.16640 0.19340 0.14010
H13 H 0.12390 0.05110 0.21270
H14 H 0.27120 -0.00230 0.18770
H15 H 0.12440 -0.09110 0.17750
Br1D Br 0.4269(2) 0.2490(1) -0.0533(1)
C1D C 0.1951(20) -0.0050(2) -0.0318(6)
P1D P 0.0293(5) 0.2172(5) -0.0759(2)
O1D O 0.204(1) -0.120(2) -0.0509(5)
C2D C 0.035(2) 0.417(2) -0.0904(6)
C4D C -0.164(2) 0.166(2) -0.0728(6)
C6D C 0.094(2) 0.133(2) -0.1347(6)
C3D C -0.051(2) 0.516(2) -0.0549(2)
H1D H 0.00050 0.43150 -0.12520
H2D H 0.13550 0.44870 -0.08910
C5D C -0.189(2) 0.003(3) -0.0664(7)
H6D H -0.21010 0.19600 -0.10450
H7D H -0.20990 0.21890 -0.04500
C7D C 0.005(2) 0.167(2) -0.1828(5)
H11D H 0.09880 0.02780 -0.12960
H12D H 0.19340 0.16640 -0.14010
H3D H -0.01440 0.50870 -0.02010
H4D H -0.15390 0.49100 -0.05510
H5D H -0.03450 0.61240 -0.06890
H8D H -0.13110 -0.03540 -0.03840
H9D H -0.16160 -0.04670 -0.09760
H10D H -0.29220 -0.01070 -0.05950
H13D H 0.05110 0.12390 -0.21270
H14D H -0.00230 0.27120 -0.18770
H15D H -0.09110 0.12440 -0.17750
#END
