####################################################################### 
# 
# This file contains crystal structure data downloaded from the 
# Cambridge Structural Database (CSD) hosted by the Cambridge 
# Crystallographic Data Centre (CCDC).
# 
# Full information about CCDC data access policies and citation 
# guidelines are available at http://www.ccdc.cam.ac.uk/access/V1 
# 
# Audit and citation data items may have been added by the CCDC. 
# Please retain this information to preserve the provenance of 
# this file and to allow appropriate attribution of the data. 
# 
#######################################################################

data_rsfrjm4008e
_audit_block_doi                 10.5517/cc12yvql
_database_code_depnum_ccdc_archive 'CCDC 1011800'
loop_
_citation_id
_citation_doi
_citation_year
1 10.1039/C4CE01379D 2015
_audit_update_record             
;
2014-10-21 deposited with the CCDC.	2024-07-13 downloaded from the CCDC.
;

_audit_creation_method           SHELXL-2014/7
_shelx_SHELXL_version_number     2014/7
_chemical_name_systematic        ?
_chemical_name_common            ?
_chemical_melting_point          ?
_chemical_formula_moiety         'C40 H26 N4 O10 Zn2, 8(C3 H7 N O)'
_chemical_formula_sum            'C64 H82 N12 O18 Zn2'
_chemical_formula_weight         1438.15

loop_
_atom_type_symbol
_atom_type_description
_atom_type_scat_dispersion_real
_atom_type_scat_dispersion_imag
_atom_type_scat_source
Zn Zn 0.2839 1.4301 'International Tables Vol C Tables 4.2.6.8 and 6.1.1.4'
O O 0.0106 0.0060 'International Tables Vol C Tables 4.2.6.8 and 6.1.1.4'
N N 0.0061 0.0033 'International Tables Vol C Tables 4.2.6.8 and 6.1.1.4'
C C 0.0033 0.0016 'International Tables Vol C Tables 4.2.6.8 and 6.1.1.4'
H H 0.0000 0.0000 'International Tables Vol C Tables 4.2.6.8 and 6.1.1.4'

_space_group_crystal_system      monoclinic
_space_group_IT_number           14
_space_group_name_H-M_alt        'P 21/c'
_space_group_name_Hall           '-P 2ybc'

_shelx_space_group_comment       
;
The symmetry employed for this shelxl refinement is uniquely defined
by the following loop, which should always be used as a source of
symmetry information in preference to the above space-group names.
They are only intended as comments.
;

loop_
_space_group_symop_operation_xyz
'x, y, z'
'-x, y+1/2, -z+1/2'
'-x, -y, -z'
'x, -y-1/2, z-1/2'

_cell_length_a                   19.7220(5)
_cell_length_b                   28.0588(6)
_cell_length_c                   28.0835(4)
_cell_angle_alpha                90
_cell_angle_beta                 94.423(2)
_cell_angle_gamma                90
_cell_volume                     15494.4(6)
_cell_formula_units_Z            8
_cell_measurement_temperature    150(2)
_cell_measurement_reflns_used    14057
_cell_measurement_theta_min      3.20
_cell_measurement_theta_max      25.9

_exptl_crystal_description       block
_exptl_crystal_colour            colorless
_exptl_crystal_density_meas      .
_exptl_crystal_density_method    none
_exptl_crystal_density_diffrn    1.233
_exptl_crystal_F_000             6032
_exptl_transmission_factor_min   ?
_exptl_transmission_factor_max   ?
_exptl_crystal_size_max          0.536
_exptl_crystal_size_mid          0.262
_exptl_crystal_size_min          0.145
_exptl_absorpt_coefficient_mu    0.688
_shelx_estimated_absorpt_T_min   0.709
_shelx_estimated_absorpt_T_max   0.907
_exptl_absorpt_correction_type   analytical
_exptl_absorpt_correction_T_min  0.400
_exptl_absorpt_correction_T_max  0.711
_exptl_absorpt_process_details   
;
CrysAlisPro, Agilent Technologies,
Version 1.171.36.28 (release 01-02-2013 CrysAlis171 .NET)
(compiled Feb  1 2013,16:14:44)
Analytical numeric absorption correction using a multifaceted crystal
			model based on expressions derived by R.C. Clark & J.S. Reid.
(Clark, R. C. & Reid, J. S. (1995). Acta Cryst. A51, 887-897)
;
_diffrn_ambient_temperature      150(2)
_diffrn_radiation_wavelength     0.71073
_diffrn_radiation_type           MoK\a
_diffrn_source                   'Enhance (Mo) X-ray Source'
_diffrn_measurement_device_type  'Oxford Diff Xcalibur, Atlas, Gemini ultra'
_diffrn_measurement_method       '\w & \p scans'
_diffrn_detector_area_resol_mean ?
_diffrn_reflns_number            125275
_diffrn_reflns_av_unetI/netI     0.0751
_diffrn_reflns_av_R_equivalents  0.0720
_diffrn_reflns_limit_h_min       -23
_diffrn_reflns_limit_h_max       24
_diffrn_reflns_limit_k_min       -33
_diffrn_reflns_limit_k_max       34
_diffrn_reflns_limit_l_min       -34
_diffrn_reflns_limit_l_max       34
_diffrn_reflns_theta_min         2.880
_diffrn_reflns_theta_max         26.000
_diffrn_reflns_theta_full        25.242
_diffrn_measured_fraction_theta_max 0.998
_diffrn_measured_fraction_theta_full 0.998
_diffrn_reflns_Laue_measured_fraction_max 0.998
_diffrn_reflns_Laue_measured_fraction_full 0.998
_diffrn_reflns_point_group_measured_fraction_max 0.998
_diffrn_reflns_point_group_measured_fraction_full 0.998
_reflns_number_total             30417
_reflns_number_gt                15834
_reflns_threshold_expression     'I > 2\s(I)'
_reflns_Friedel_coverage         0.000
_reflns_Friedel_fraction_max     .
_reflns_Friedel_fraction_full    .

_reflns_special_details          
;
 Reflections were merged by SHELXL according to the crystal
 class for the calculation of statistics and refinement.
 
 Structure factors included contributions from the .fab file.
 
 _reflns_Friedel_fraction is defined as the number of unique
 Friedel pairs measured divided by the number that would be
 possible theoretically, ignoring centric projections and
 systematic absences.
;

_computing_data_collection       
;
CrysAlisPro, Agilent Technologies,
Version 1.171.36.28 (release 01-02-2013 CrysAlis171 .NET)
(compiled Feb  1 2013,16:14:44)
;
_computing_cell_refinement       
;
CrysAlisPro, Agilent Technologies,
Version 1.171.36.28 (release 01-02-2013 CrysAlis171 .NET)
(compiled Feb  1 2013,16:14:44)
;
_computing_data_reduction        
;
CrysAlisPro, Agilent Technologies,
Version 1.171.36.28 (release 01-02-2013 CrysAlis171 .NET)
(compiled Feb  1 2013,16:14:44)
;
_computing_structure_solution    'SHELXS-2008 (Sheldrick, 2008)'
_computing_structure_refinement  'SHELXL-2014/7 (Sheldrick, 2014)'
_computing_molecular_graphics    Diamond3
_computing_publication_material  WinGX
_refine_special_details          
;
 The obtained crystals for this compound presented very poor 
 diffraction quality, so determining the solvent content 
 presented some difficulties. The solvent employed was always 
 pure DMF, and therefore disordered solvent molecules were
 modelled as such. Firstly the sensible solvent DMF 
 molecules were modeled. After that, SQUEEZE was applied to  
 remove the remaining random electron density peaks. 
 Structure refinement against the new HKL data improved about 
 5% of the R1 value.

 Large solvent area with disordered solvent DMF that can't be
 modeled have become voids after SQUEEZE was applied. 
 SQUEEZE results are: Total Potential Solvent Accessible Void 
 Vol 8324 A^3; Electron Count/Cell = 1356. 
  
 Reported formula was determined by considering the above 
 SQUEEZE results. Therefore there is big molecular weight 
 difference between calculated and reported formulae.  
;

_refine_ls_structure_factor_coef Fsqd
_refine_ls_matrix_type           full
_refine_ls_weighting_scheme      calc
_refine_ls_weighting_details     
'w=1/[\s^2^(Fo^2^)+(0.1222P)^2^+39.2927P] where P=(Fo^2^+2Fc^2^)/3'
_atom_sites_solution_primary     direct
_atom_sites_solution_secondary   difmap
_atom_sites_solution_hydrogens   geom
_refine_ls_hydrogen_treatment    constr
_refine_ls_extinction_method     none
_refine_ls_extinction_coef       .
_refine_ls_number_reflns         30417
_refine_ls_number_parameters     1029
_refine_ls_number_restraints     9
_refine_ls_R_factor_all          0.1393
_refine_ls_R_factor_gt           0.0812
_refine_ls_wR_factor_ref         0.2952
_refine_ls_wR_factor_gt          0.2480
_refine_ls_goodness_of_fit_ref   1.054
_refine_ls_restrained_S_all      1.055
_refine_ls_shift/su_max          0.001
_refine_ls_shift/su_mean         0.000

loop_
_atom_site_label
_atom_site_type_symbol
_atom_site_fract_x
_atom_site_fract_y
_atom_site_fract_z
_atom_site_U_iso_or_equiv
_atom_site_adp_type
_atom_site_occupancy
_atom_site_site_symmetry_order
_atom_site_calc_flag
_atom_site_refinement_flags_posn
_atom_site_refinement_flags_adp
_atom_site_refinement_flags_occupancy
_atom_site_disorder_assembly
_atom_site_disorder_group
Zn1 Zn 0.39004(3) 0.24642(2) 0.16131(2) 0.02851(17) Uani 1 1 d . . . . .
Zn2 Zn 0.39189(3) 0.24935(2) 0.05708(2) 0.03025(17) Uani 1 1 d . . . . .
Zn3 Zn 0.89337(3) 0.75258(2) 0.15309(2) 0.03095(17) Uani 1 1 d . . . . .
Zn4 Zn 0.88477(3) 0.74817(2) 0.04834(2) 0.03014(17) Uani 1 1 d . . . . .
O1 O 0.3068(2) 0.20520(15) 0.14656(13) 0.0498(11) Uani 1 1 d . . . . .
O2 O 0.3050(2) 0.21146(13) 0.06738(13) 0.0420(9) Uani 1 1 d . . . . .
O3 O 0.4475(2) 0.18796(14) 0.14934(14) 0.0514(11) Uani 1 1 d . . . . .
O4 O 0.4432(2) 0.18774(14) 0.06950(13) 0.0467(10) Uani 1 1 d . . . . .
O5 O 0.3313(2) 0.30476(13) 0.14299(13) 0.0479(11) Uani 1 1 d . . . . .
O6 O 0.3407(2) 0.31164(13) 0.06481(13) 0.0451(10) Uani 1 1 d . . . . .
O7 O 0.4707(2) 0.28936(16) 0.15687(14) 0.0548(12) Uani 1 1 d . . . . .
O8 O 0.4782(2) 0.28684(15) 0.07873(14) 0.0495(11) Uani 1 1 d . . . . .
O9 O 0.8380(3) 0.69299(15) 0.13720(14) 0.0607(13) Uani 1 1 d . . . . .
O10 O 0.8269(2) 0.68867(13) 0.05810(13) 0.0458(10) Uani 1 1 d . . . . .
O11 O 0.8084(2) -0.20850(15) 0.13624(14) 0.0526(11) Uani 1 1 d . . . . .
O12 O 0.8016(2) -0.21098(13) 0.05702(13) 0.0427(10) Uani 1 1 d . . . . .
O13 O -0.0528(3) -0.18811(16) 0.14193(15) 0.0637(13) Uani 1 1 d . . . . .
O14 O -0.0583(2) -0.19214(15) 0.06318(14) 0.0532(11) Uani 1 1 d . . . . .
O15 O -0.0232(3) 0.71247(18) 0.14552(15) 0.0710(15) Uani 1 1 d . . . . .
O16 O -0.0326(2) 0.70642(15) 0.06689(14) 0.0519(11) Uani 1 1 d . . . . .
O17 O 0.0366(5) 0.0466(3) 0.0498(3) 0.151(3) Uiso 1 1 d . . . . .
O18 O 0.5293(4) -0.0506(3) 0.0471(3) 0.142(3) Uiso 1 1 d . . . . .
O19 O 0.1910(5) 0.5235(4) 0.1812(4) 0.169(3) Uiso 1 1 d . . . . .
O20 O 0.6932(3) 0.4791(2) 0.1859(2) 0.0950(18) Uiso 1 1 d . . . . .
O21 O 0.6061(3) 0.4900(2) 0.0103(2) 0.0281(15) Uiso 0.5 1 d D . P . .
O22 O 0.5747(10) 0.1533(7) 0.4649(7) 0.174(7) Uiso 0.5 1 d D . P . .
O23 O 0.4826(9) 0.0572(6) 0.2886(6) 0.141(5) Uiso 0.5 1 d D . P . .
N1 N 0.3896(2) 0.24709(14) 0.23362(14) 0.0305(10) Uani 1 1 d . . . . .
N2 N 0.3923(2) 0.25075(15) -0.01516(14) 0.0339(10) Uani 1 1 d . . . . .
N3 N 0.8903(2) 0.75177(16) 0.22482(14) 0.0378(11) Uani 1 1 d . . . . .
N4 N 0.8868(2) 0.74800(15) -0.02414(14) 0.0336(10) Uani 1 1 d . . . . .
N5 N 0.0946(5) 0.0119(4) 0.1082(4) 0.129(3) Uiso 1 1 d . . . . .
H5 H 0.1282 0.0132 0.1307 0.155 Uiso 1 1 calc R U . . .
N6 N 0.5842(5) -0.0165(3) 0.1134(3) 0.121(3) Uiso 1 1 d . . . . .
H6 H 0.6105 -0.0218 0.1396 0.145 Uiso 1 1 calc R U . . .
N7 N 0.1912(4) 0.5090(3) 0.1008(3) 0.094(2) Uiso 1 1 d . . . . .
H7 H 0.1826 0.5202 0.0717 0.113 Uiso 1 1 calc R U . . .
N8 N 0.6723(4) 0.4963(3) 0.1087(3) 0.102(2) Uiso 1 1 d . . . . .
H8 H 0.6516 0.4869 0.0815 0.123 Uiso 1 1 calc R U . . .
N9 N 0.5898(4) 0.4789(3) -0.0696(3) 0.037(2) Uiso 0.5 1 d . . P . .
N10 N 0.4778(5) 0.1307(4) 0.4356(3) 0.047(2) Uiso 0.5 1 d . . P . .
N11 N 0.3930(5) 0.0740(3) 0.2484(3) 0.039(2) Uiso 0.5 1 d . . P . .
C1 C 0.3318(3) 0.2476(2) 0.25572(19) 0.0483(16) Uani 1 1 d . . . . .
H1 H 0.2898 0.2470 0.2367 0.058 Uiso 1 1 calc R U . . .
C2 C 0.3301(3) 0.2488(2) 0.30489(19) 0.0496(16) Uani 1 1 d . . . . .
H2 H 0.2880 0.2495 0.3192 0.060 Uiso 1 1 calc R U . . .
C3 C 0.3908(3) 0.2491(2) 0.33269(17) 0.0368(13) Uani 1 1 d . . . . .
C4 C 0.4511(3) 0.2484(3) 0.3103(2) 0.062(2) Uani 1 1 d . . . . .
H4 H 0.4938 0.2484 0.3286 0.074 Uiso 1 1 calc R U . . .
C5 C 0.4481(3) 0.2476(2) 0.26110(19) 0.0533(17) Uani 1 1 d . . . . .
H5A H 0.4896 0.2473 0.2460 0.064 Uiso 1 1 calc R U . . .
C6 C 0.3439(3) 0.2729(2) -0.04213(18) 0.0381(13) Uani 1 1 d . . . . .
H6A H 0.3090 0.2888 -0.0268 0.046 Uiso 1 1 calc R U . . .
C7 C 0.3418(3) 0.2741(2) -0.09090(18) 0.0388(13) Uani 1 1 d . . . . .
H7A H 0.3063 0.2905 -0.1087 0.047 Uiso 1 1 calc R U . . .
C8 C 0.3920(3) 0.2490(2) 0.38592(17) 0.0370(13) Uani 1 1 d . . . . .
C9 C 0.4423(3) 0.2727(3) 0.41364(19) 0.0585(19) Uani 1 1 d . . . . .
H9 H 0.4775 0.2891 0.3993 0.070 Uiso 1 1 calc R U . . .
C10 C 0.4401(3) 0.2282(3) -0.0378(2) 0.0570(18) Uani 1 1 d . . . . .
H10 H 0.4746 0.2117 -0.0190 0.068 Uiso 1 1 calc R U . . .
C11 C 0.8636(4) 0.7878(3) 0.2481(2) 0.068(2) Uani 1 1 d . . . . .
H11 H 0.8448 0.8139 0.2300 0.082 Uiso 1 1 calc R U . . .
C12 C 0.8621(4) 0.7889(3) 0.2969(2) 0.070(2) Uani 1 1 d . . . . .
H12 H 0.8427 0.8154 0.3119 0.084 Uiso 1 1 calc R U . . .
C13 C 0.8891(3) 0.7510(2) 0.32412(17) 0.0383(13) Uani 1 1 d . . . . .
C14 C 0.9137(5) 0.7141(3) 0.3003(3) 0.087(3) Uani 1 1 d . . . . .
H14 H 0.9323 0.6873 0.3173 0.104 Uiso 1 1 calc R U . . .
C15 C 0.9120(5) 0.7150(3) 0.2506(2) 0.085(3) Uani 1 1 d . . . . .
H15 H 0.9272 0.6877 0.2346 0.102 Uiso 1 1 calc R U . . .
C16 C 0.8355(3) 0.7282(2) -0.05144(18) 0.0414(14) Uani 1 1 d . . . . .
H16 H 0.7983 0.7146 -0.0367 0.050 Uiso 1 1 calc R U . . .
C17 C 0.8359(3) 0.7274(2) -0.10096(18) 0.0406(14) Uani 1 1 d . . . . .
H17 H 0.7998 0.7125 -0.1198 0.049 Uiso 1 1 calc R U . . .
C18 C 0.8890(3) 0.7515(2) 0.37719(17) 0.0370(13) Uani 1 1 d . . . . .
C19 C 0.9396(3) 0.7296(3) 0.4062(2) 0.0588(19) Uani 1 1 d . . . . .
H19 H 0.9758 0.7136 0.3926 0.071 Uiso 1 1 calc R U . . .
C20 C 0.9370(3) 0.7689(3) -0.0454(2) 0.0569(18) Uani 1 1 d . . . . .
H20 H 0.9728 0.7835 -0.0260 0.068 Uiso 1 1 calc R U . . .
C21 C 0.2844(3) 0.19444(19) 0.10526(19) 0.0362(13) Uani 1 1 d . . . . .
C22 C 0.2304(3) 0.1576(2) 0.1008(2) 0.0456(15) Uani 1 1 d . . . . .
C23 C 0.2130(4) 0.1330(2) 0.1411(2) 0.0570(18) Uani 1 1 d . . . . .
H23 H 0.2336 0.1414 0.1716 0.068 Uiso 1 1 calc R U . . .
C24 C 0.1665(4) 0.0967(3) 0.1373(3) 0.078(2) Uani 1 1 d . . . . .
H24 H 0.1559 0.0797 0.1650 0.094 Uiso 1 1 calc R U . . .
C25 C 0.1341(4) 0.0844(3) 0.0921(3) 0.076(2) Uani 1 1 d . . . . .
C26 C 0.1484(4) 0.1104(3) 0.0523(3) 0.072(2) Uani 1 1 d . . . . .
H26 H 0.1257 0.1035 0.0221 0.087 Uiso 1 1 calc R U . . .
C27 C 0.0865(6) 0.0448(4) 0.0844(4) 0.109(4) Uani 1 1 d . . . . .
C28 C 0.0520(6) -0.0355(3) 0.1049(5) 0.109(4) Uani 1 1 d . . . . .
C29 C 0.1966(3) 0.1468(2) 0.0570(2) 0.0523(16) Uani 1 1 d . . . . .
H29 H 0.2064 0.1646 0.0296 0.063 Uiso 1 1 calc R U . . .
C30 C 0.0258(5) -0.0530(4) 0.0619(4) 0.114(4) Uani 1 1 d . . . . .
H30 H 0.0269 -0.0345 0.0336 0.137 Uiso 1 1 calc R U . . .
C31 C -0.0036(4) -0.1004(3) 0.0604(3) 0.083(3) Uani 1 1 d . . . . .
H31 H -0.0190 -0.1144 0.0308 0.099 Uiso 1 1 calc R U . . .
C32 C -0.0088(3) -0.1240(2) 0.1009(3) 0.0550(17) Uani 1 1 d . . . . .
C33 C 0.0156(6) -0.1034(3) 0.1428(4) 0.126(4) Uani 1 1 d . U . . .
H33 H 0.0077 -0.1194 0.1717 0.152 Uiso 1 1 calc R U . . .
C34 C 0.0499(9) -0.0622(5) 0.1458(5) 0.178(7) Uani 1 1 d . . . . .
H34 H 0.0720 -0.0518 0.1753 0.214 Uiso 1 1 calc R U . . .
C35 C -0.0426(3) -0.1717(2) 0.1022(2) 0.0422(14) Uani 1 1 d . . . . .
C36 C 0.4576(3) 0.1689(2) 0.1096(2) 0.0406(14) Uani 1 1 d . . . . .
C37 C 0.4891(4) 0.1203(2) 0.1106(2) 0.0532(17) Uani 1 1 d . . . . .
C38 C 0.4966(4) 0.0962(3) 0.0686(3) 0.069(2) Uani 1 1 d . . . . .
H38 H 0.4828 0.1110 0.0390 0.083 Uiso 1 1 calc R U . . .
C39 C 0.5243(4) 0.0504(3) 0.0689(3) 0.083(3) Uani 1 1 d . . . . .
H39 H 0.5272 0.0334 0.0398 0.099 Uiso 1 1 calc R U . . .
C40 C 0.5472(5) 0.0302(3) 0.1116(4) 0.096(3) Uani 1 1 d . . . . .
C41 C 0.5391(6) 0.0542(3) 0.1543(4) 0.124(4) Uani 1 1 d . . . . .
H41 H 0.5536 0.0398 0.1839 0.149 Uiso 1 1 calc R U . . .
C42 C 0.5103(6) 0.0985(3) 0.1532(3) 0.103(3) Uani 1 1 d . . . . .
H42 H 0.5048 0.1146 0.1824 0.124 Uiso 1 1 calc R U . . .
C43 C 0.5831(6) -0.0480(3) 0.0840(4) 0.103(3) Uani 1 1 d . . . . .
C44 C 0.6307(4) -0.0866(3) 0.0905(3) 0.081(3) Uani 1 1 d . . . . .
C45 C 0.6430(4) -0.1119(3) 0.0491(3) 0.070(2) Uani 1 1 d . . . . .
H45 H 0.6182 -0.1046 0.0197 0.084 Uiso 1 1 calc R U . . .
C46 C 0.6911(3) -0.1476(2) 0.0510(2) 0.0531(17) Uani 1 1 d . . . . .
H46 H 0.6998 -0.1642 0.0227 0.064 Uiso 1 1 calc R U . . .
C47 C 0.7270(3) -0.15951(19) 0.0937(2) 0.0418(14) Uani 1 1 d . . . . .
C48 C 0.7121(4) -0.1364(2) 0.1354(2) 0.0616(19) Uani 1 1 d . . . . .
H48 H 0.7347 -0.1452 0.1652 0.074 Uiso 1 1 calc R U . . .
C49 C 0.6640(4) -0.1004(3) 0.1329(3) 0.078(2) Uani 1 1 d . . . . .
H49 H 0.6537 -0.0848 0.1615 0.094 Uiso 1 1 calc R U . . .
C50 C 0.7835(3) -0.19596(18) 0.09596(19) 0.0359(