####################################################################### 
# 
# This file contains crystal structure data downloaded from the 
# Cambridge Structural Database (CSD) hosted by the Cambridge 
# Crystallographic Data Centre (CCDC).
# 
# Full information about CCDC data access policies and citation 
# guidelines are available at http://www.ccdc.cam.ac.uk/access/V1 
# 
# Audit and citation data items may have been added by the CCDC. 
# Please retain this information to preserve the provenance of 
# this file and to allow appropriate attribution of the data. 
# 
#######################################################################

data_1
_audit_block_doi                 10.5517/cc11wdq1
_database_code_depnum_ccdc_archive 'CCDC 979653'
loop_
_citation_id
_citation_doi
_citation_year
1 10.1021/ic500788z 2014
_audit_update_record             
;
2014-01-04 deposited with the CCDC.	2024-07-13 downloaded from the CCDC.
;

_audit_creation_method           SHELXL-97
_chemical_name_systematic        
; 
 ? 
;
_chemical_name_common            ?
_chemical_melting_point          ?
_chemical_formula_moiety         ?
_chemical_formula_sum            'C86 H99 N27 O23 Zn5'
_chemical_formula_weight         2205.77

loop_
_atom_type_symbol
_atom_type_description
_atom_type_scat_dispersion_real
_atom_type_scat_dispersion_imag
_atom_type_scat_source
C C 0.0033 0.0016 'International Tables Vol C Tables 4.2.6.8 and 6.1.1.4'
H H 0.0000 0.0000 'International Tables Vol C Tables 4.2.6.8 and 6.1.1.4'
N N 0.0061 0.0033 'International Tables Vol C Tables 4.2.6.8 and 6.1.1.4'
O O 0.0106 0.0060 'International Tables Vol C Tables 4.2.6.8 and 6.1.1.4'
Zn Zn 0.2839 1.4301 'International Tables Vol C Tables 4.2.6.8 and 6.1.1.4'

_symmetry_cell_setting           Monoclinic
_symmetry_space_group_name_H-M   'C 2/c'

loop_
_symmetry_equiv_pos_as_xyz
'x, y, z'
'-x, y, -z+1/2'
'x+1/2, y+1/2, z'
'-x+1/2, y+1/2, -z+1/2'
'-x, -y, -z'
'x, -y, z-1/2'
'-x+1/2, -y+1/2, -z'
'x+1/2, -y+1/2, z-1/2'

_cell_length_a                   49.31(3)
_cell_length_b                   15.081(10)
_cell_length_c                   29.103(18)
_cell_angle_alpha                90.00
_cell_angle_beta                 99.335(13)
_cell_angle_gamma                90.00
_cell_volume                     21356(23)
_cell_formula_units_Z            8
_cell_measurement_temperature    386(2)
_cell_measurement_reflns_used    ?
_cell_measurement_theta_min      1.41
_cell_measurement_theta_max      25.00

_exptl_crystal_description       block
_exptl_crystal_colour            colorless
_exptl_crystal_size_max          0.23
_exptl_crystal_size_mid          0.21
_exptl_crystal_size_min          0.20
_exptl_crystal_density_meas      ?
_exptl_crystal_density_diffrn    1.372
_exptl_crystal_density_method    'not measured'
_exptl_crystal_F_000             9104
_exptl_absorpt_coefficient_mu    1.185
_exptl_absorpt_correction_type   Multi-scan
_exptl_absorpt_correction_T_min  0.761
_exptl_absorpt_correction_T_max  0.789
_exptl_absorpt_process_details   'SADABS (Bruker, 1998)'

_exptl_special_details           
; 
 ? 
;

_diffrn_ambient_temperature      113(2)
_diffrn_radiation_wavelength     0.71073
_diffrn_radiation_type           MoK\a
_diffrn_radiation_source         'fine-focus sealed tube'
_diffrn_radiation_monochromator  graphite
_diffrn_measurement_device_type  'Saturn70 (4x4 bin mode)'
_diffrn_measurement_method       dtprofit.ref
_diffrn_detector_area_resol_mean ?
_diffrn_standards_number         ?
_diffrn_standards_interval_count ?
_diffrn_standards_interval_time  ?
_diffrn_standards_decay_%        ?
_diffrn_reflns_number            67769
_diffrn_reflns_av_R_equivalents  0.0524
_diffrn_reflns_av_sigmaI/netI    0.0727
_diffrn_reflns_limit_h_min       -57
_diffrn_reflns_limit_h_max       58
_diffrn_reflns_limit_k_min       -17
_diffrn_reflns_limit_k_max       17
_diffrn_reflns_limit_l_min       -32
_diffrn_reflns_limit_l_max       34
_diffrn_reflns_theta_min         1.41
_diffrn_reflns_theta_max         25.00
_reflns_number_total             18794
_reflns_number_gt                13770
_reflns_threshold_expression     >2sigma(I)

_computing_data_collection       'CrystalClear (Rigaku Inc., 2008)'
_computing_cell_refinement       'CrystalClear (Rigaku Inc., 2008)'
_computing_data_reduction        'CrystalClear (Rigaku Inc., 2008)'
_computing_structure_solution    'SHELXS-97 (Sheldrick, 1990)'
_computing_structure_refinement  'SHELXL-97 (Sheldrick, 1997)'
_computing_molecular_graphics    'Bruker SHELXTL'
_computing_publication_material  'Bruker SHELXTL'

_refine_special_details          
; 
 Refinement of F^2^ against ALL reflections.  The weighted R-factor wR and 
 goodness of fit S are based on F^2^, conventional R-factors R are based 
 on F, with F set to zero for negative F^2^. The threshold expression of 
 F^2^ > 2sigma(F^2^) is used only for calculating R-factors(gt) etc. and is 
 not relevant to the choice of reflections for refinement.  R-factors based 
 on F^2^ are statistically about twice as large as those based on F, and R- 
 factors based on ALL data will be even larger. 
;

_refine_ls_structure_factor_coef Fsqd
_refine_ls_matrix_type           full
_refine_ls_weighting_scheme      calc
_refine_ls_weighting_details     
'calc w=1/[\s^2^(Fo^2^)+(0.1160P)^2^+14.6583P] where P=(Fo^2^+2Fc^2^)/3'
_atom_sites_solution_primary     direct
_atom_sites_solution_secondary   difmap
_atom_sites_solution_hydrogens   geom
_refine_ls_hydrogen_treatment    mixed
_refine_ls_extinction_method     none
_refine_ls_extinction_coef       ?
_refine_ls_number_reflns         18794
_refine_ls_number_parameters     1045
_refine_ls_number_restraints     0
_refine_ls_R_factor_all          0.0861
_refine_ls_R_factor_gt           0.0649
_refine_ls_wR_factor_ref         0.1948
_refine_ls_wR_factor_gt          0.1808
_refine_ls_goodness_of_fit_ref   1.011
_refine_ls_restrained_S_all      1.011
_refine_ls_shift/su_max          0.002
_refine_ls_shift/su_mean         0.000

loop_
_atom_site_label
_atom_site_type_symbol
_atom_site_fract_x
_atom_site_fract_y
_atom_site_fract_z
_atom_site_U_iso_or_equiv
_atom_site_adp_type
_atom_site_occupancy
_atom_site_symmetry_multiplicity
_atom_site_calc_flag
_atom_site_refinement_flags
_atom_site_disorder_assembly
_atom_site_disorder_group
O4 O 0.46265(10) 0.2308(4) 0.0268(2) 0.133(2) Uani 1 1 d . . .
O3 O 0.45331(9) 0.1011(4) 0.05274(19) 0.1134(17) Uani 1 1 d . . .
C21 C 0.47049(13) 0.1545(6) 0.0413(3) 0.107(3) Uani 1 1 d . . .
C18 C 0.49959(12) 0.1287(4) 0.0460(3) 0.095(2) Uani 1 1 d . . .
C19 C 0.50715(12) 0.0442(5) 0.0551(3) 0.124(3) Uani 1 1 d . . .
C17 C 0.52002(14) 0.1877(4) 0.0409(3) 0.112(2) Uani 1 1 d . . .
C16 C 0.54727(12) 0.1630(4) 0.0463(3) 0.102(2) Uani 1 1 d . . .
C20 C 0.53414(13) 0.0165(4) 0.0590(3) 0.122(3) Uani 1 1 d . . .
C15 C 0.55421(10) 0.0770(3) 0.0551(2) 0.0760(15) Uani 1 1 d . . .
N20 N 0.58280(8) 0.0525(3) 0.06168(17) 0.0718(12) Uani 1 1 d . . .
C14 C 0.59251(10) -0.0278(3) 0.0566(2) 0.0721(14) Uani 1 1 d . . .
Zn1 Zn 0.849920(10) 0.72416(3) 0.057681(17) 0.04974(15) Uani 1 1 d . . .
Zn2 Zn 0.811011(11) 0.52536(3) 0.06251(2) 0.05836(16) Uani 1 1 d . . .
Zn3 Zn 0.817108(12) 0.85921(3) -0.03663(2) 0.06084(17) Uani 1 1 d . . .
Zn4 Zn 0.918623(11) 0.66718(4) 0.03634(2) 0.06929(19) Uani 1 1 d . . .
Zn5 Zn 0.644983(14) -0.66282(4) 0.32956(2) 0.07345(19) Uani 1 1 d . . .
O1 O 0.78299(7) 0.4375(2) 0.05828(14) 0.0783(10) Uani 1 1 d . . .
O2 O 0.80896(10) 0.3852(2) 0.12116(16) 0.0937(12) Uani 1 1 d . . .
O5 O 0.67446(14) -0.5889(3) 0.28639(19) 0.1273(19) Uani 1 1 d . . .
O6 O 0.63266(11) -0.5540(3) 0.29410(15) 0.1153(17) Uani 1 1 d . . .
O7 O 0.62842(13) -0.7458(5) 0.2659(2) 0.159(2) Uani 1 1 d . . .
H9A H 0.6117 -0.7720 0.2677 0.238 Uiso 1 1 d R . .
H9B H 0.6256 -0.7131 0.2389 0.238 Uiso 1 1 d R . .
O10 O 0.68269(8) 0.1219(4) 0.02101(15) 0.1158(18) Uani 1 1 d . . .
O11 O 0.57838(7) -0.0933(2) 0.04301(17) 0.0951(13) Uani 1 1 d . . .
O12 O 0.69094(11) -0.2495(4) 0.1258(2) 0.136(2) Uani 1 1 d . . .
O13 O 0.21690(11) 0.5281(3) 0.18057(14) 0.1080(15) Uani 1 1 d . . .
O14 O 0.11488(10) 0.7037(3) 0.0908(2) 0.1239(18) Uani 1 1 d . . .
N1 N 0.85111(7) 0.5158(2) 0.05997(13) 0.0532(9) Uani 1 1 d . . .
N2 N 0.86521(7) 0.5890(2) 0.05211(13) 0.0535(9) Uani 1 1 d . . .
N3 N 0.89109(8) 0.5695(2) 0.04772(14) 0.0609(10) Uani 1 1 d . . .
N4 N 0.81168(8) 0.6167(2) 0.11451(13) 0.0585(9) Uani 1 1 d . . .
N5 N 0.82972(8) 0.6837(2) 0.11719(13) 0.0546(9) Uani 1 1 d . . .
N6 N 0.82827(8) 0.7335(2) 0.15422(13) 0.0590(10) Uani 1 1 d . . .
N7 N 0.79884(7) 0.6149(2) 0.01087(13) 0.0534(9) Uani 1 1 d . . .
N8 N 0.81221(7) 0.6916(2) 0.01016(13) 0.0541(9) Uani 1 1 d . . .
N9 N 0.79874(7) 0.7459(2) -0.02271(13) 0.0547(9) Uani 1 1 d . . .
N10 N 0.83589(7) 0.8608(2) 0.06510(13) 0.0517(8) Uani 1 1 d . . .
N11 N 0.82584(7) 0.9133(2) 0.02859(13) 0.0548(9) Uani 1 1 d . . .
N12 N 0.84082(7) 0.9070(2) 0.10470(13) 0.0544(9) Uani 1 1 d . . .
N13 N 0.86891(8) 0.7666(2) -0.00298(14) 0.0583(9) Uani 1 1 d . . .
N14 N 0.85699(8) 0.8227(2) -0.03617(14) 0.0589(9) Uani 1 1 d . . .
N15 N 0.89558(8) 0.7519(2) -0.00716(15) 0.0654(11) Uani 1 1 d . . .
N16 N 0.88879(7) 0.7556(2) 0.10467(14) 0.0586(9) Uani 1 1 d . . .
N17 N 0.88933(8) 0.7988(3) 0.14493(15) 0.0684(11) Uani 1 1 d . . .
N18 N 0.91408(8) 0.7364(3) 0.09671(17) 0.0765(12) Uani 1 1 d . . .
N19 N 0.71025(7) 0.1018(2) 0.09063(14) 0.0597(10) Uani 1 1 d . . .
H19 H 0.7129 0.0680 0.1148 0.072 Uiso 1 1 calc R . .
H20 H 0.5944 0.0941 0.0698 0.072 Uiso 1 1 d R . .
N21 N 0.65605(9) -0.2304(3) 0.16764(14) 0.0678(11) Uani 1 1 d . . .
H21 H 0.6435 -0.1932 0.1721 0.081 Uiso 1 1 calc R . .
N22 N 0.2068(2) 0.4287(4) 0.2316(2) 0.157(4) Uani 1 1 d . . .
N23 N 0.15461(16) 0.7622(5) 0.1204(3) 0.132(2) Uani 1 1 d . . .
C1 C 0.76759(10) 0.3083(3) 0.09180(19) 0.0637(12) Uani 1 1 d . . .
C2 C 0.74716(12) 0.2986(4) 0.0550(3) 0.108(3) Uani 1 1 d . . .
H2 H 0.7461 0.3382 0.0303 0.130 Uiso 1 1 calc R . .
C3 C 0.72744(12) 0.2302(5) 0.0529(3) 0.127(3) Uani 1 1 d . . .
H3 H 0.7133 0.2254 0.0276 0.152 Uiso 1 1 calc R . .
C4 C 0.72960(9) 0.1707(3) 0.08943(18) 0.0613(12) Uani 1 1 d . . .
C5 C 0.75072(11) 0.1798(3) 0.12644(17) 0.0619(12) Uani 1 1 d . . .
H5 H 0.7522 0.1400 0.1511 0.074 Uiso 1 1 calc R . .
C6 C 0.76976(11) 0.2476(3) 0.12726(18) 0.0695(13) Uani 1 1 d . . .
H6 H 0.7841 0.2520 0.1521 0.083 Uiso 1 1 calc R . .
C7 C 0.68814(10) 0.0829(4) 0.05826(19) 0.0700(14) Uani 1 1 d . . .
C8 C 0.66984(9) 0.0115(3) 0.07145(16) 0.0550(11) Uani 1 1 d . . .
C9 C 0.64195(9) 0.0245(3) 0.05812(17) 0.0612(12) Uani 1 1 d . . .
H9C H 0.6356 0.0753 0.0416 0.073 Uiso 1 1 calc R . .
C11 C 0.63270(10) -0.1124(3) 0.09404(17) 0.0656(13) Uani 1 1 d . . .
H11A H 0.6202 -0.1533 0.1022 0.079 Uiso 1 1 calc R . .
C12 C 0.66099(10) -0.1275(3) 0.10714(18) 0.0628(12) Uani 1 1 d . . .
C13 C 0.67960(9) -0.0646(3) 0.09537(16) 0.0594(11) Uani 1 1 d . . .
H13 H 0.6984 -0.0739 0.1036 0.071 Uiso 1 1 calc R . .
H16 H 0.5609 0.2049 0.0454 0.071 Uiso 1 1 d R . .
H17 H 0.5156 0.2462 0.0342 0.071 Uiso 1 1 d R . .
H19A H 0.4937 0.0014 0.0592 0.071 Uiso 1 1 d R . .
H20A H 0.5390 -0.0440 0.0648 0.071 Uiso 1 1 d R . .
C22 C 0.67123(11) -0.2073(3) 0.1350(2) 0.0726(14) Uani 1 1 d . . .
C23 C 0.65794(11) -0.3069(3) 0.19518(18) 0.0697(13) Uani 1 1 d . . .
C24 C 0.63615(13) -0.3207(4) 0.2198(2) 0.0904(18) Uani 1 1 d . . .
H24 H 0.6222 -0.2787 0.2183 0.109 Uiso 1 1 calc R . .
C25 C 0.63535(14) -0.3951(5) 0.2457(2) 0.096(2) Uani 1 1 d . . .
H25 H 0.6208 -0.4041 0.2619 0.115 Uiso 1 1 calc R . .
C26 C 0.65604(15) -0.4578(4) 0.2482(2) 0.0895(18) Uani 1 1 d . . .
C27 C 0.67778(15) -0.4417(4) 0.2247(2) 0.0941(19) Uani 1 1 d . . .
H27 H 0.6919 -0.4830 0.2266 0.113 Uiso 1 1 calc R . .
C28 C 0.67897(13) -0.3667(3) 0.19858(19) 0.0766(15) Uani 1 1 d . . .
H28 H 0.6939 -0.3565 0.1834 0.092 Uiso 1 1 calc R . .
C29 C 0.65547(19) -0.5412(5) 0.2768(2) 0.097(2) Uani 1 1 d . . .
C30 C 0.78822(11) 0.3801(3) 0.0912(2) 0.0681(14) Uani 1 1 d . . .
C31 C 0.77549(8) 0.6186(3) -0.02210(15) 0.0515(10) Uani 1 1 d . . .
C32 C 0.75524(9) 0.5545(3) -0.03660(18) 0.0640(12) Uani 1 1 d . . .
H32 H 0.7552 0.4994 -0.0223 0.077 Uiso 1 1 calc R . .
C33 C 0.73560(10) 0.5785(4) -0.07310(19) 0.0738(15) Uani 1 1 d . . .
H33 H 0.7220 0.5376 -0.0843 0.089 Uiso 1 1 calc R . .
C34 C 0.73501(10) 0.6626(4) -0.0946(2) 0.0799(16) Uani 1 1 d . . .
H34 H 0.7209 0.6758 -0.1190 0.096 Uiso 1 1 calc R . .
C35 C 0.75474(10) 0.7252(3) -0.08047(19) 0.0684(13) Uani 1 1 d . . .
H35 H 0.7543 0.7807 -0.0945 0.082 Uiso 1 1 calc R . .
C36 C 0.77582(9) 0.7018(3) -0.04362(16) 0.0559(11) Uani 1 1 d . . .
C39 C 0.87677(12) 0.8460(3) -0.06260(17) 0.0662(13) Uani 1 1 d . . .
C40 C 0.87528(13) 0.9023(3) -0.10143(19) 0.0812(17) Uani 1 1 d . . .
H40 H 0.8592 0.9313 -0.1141 0.097 Uiso 1 1 calc R . .
C41 C 0.89933(18) 0.9115(5) -0.1194(3) 0.107(2) Uani 1 1 d . . .
H41 H 0.8996 0.9499 -0.1443 0.128 Uiso 1 1 calc R . .
C42 C 0.92360(18) 0.8646(5) -0.1013(3) 0.116(3) Uani 1 1 d . . .
H42 H 0.9389 0.8721 -0.1157 0.139 Uiso 1 1 calc R . .
C43 C 0.92579(14) 0.8081(4) -0.0632(3) 0.097(2) Uani 1 1 d . . .
H43 H 0.9418 0.7778 -0.0512 0.117 Uiso 1 1 calc R . .
C44 C 0.90068(12) 0.8012(3) -0.04414(19) 0.0706(14) Uani 1 1 d . . .
C45 C 0.82467(9) 0.9970(3) 0.04565(17) 0.0541(11) Uani 1 1 d . . .
C46 C 0.81542(10) 1.0766(3) 0.0228(2) 0.0660(13) Uani 1 1 d . . .
H46 H 0.8084 1.0784 -0.0089 0.079 Uiso 1 1 calc R . .
C47 C 0.81749(12) 1.1519(3) 0.0504(2) 0.0792(16) Uani 1 1 d . . .
H47 H 0.8120 1.2062 0.0368 0.095 Uiso 1 1 calc R . .
C48 C 0.82762(13) 1.1487(3) 0.0984(2) 0.0801(16) Uani 1 1 d . . .
H48 H 0.8285 1.2010 0.1155 0.096 Uiso 1 1 calc R . .
C49 C 0.83613(11) 1.0718(3) 0.12078(19) 0.0706(13) Uani 1 1 d . . .
H49 H 0.8428 1.0706 0.1526 0.085 Uiso 1 1 calc R . .
C50 C 0.83434(9) 0.9941(3) 0.09355(18) 0.0581(11) Uani 1 1 d . . .
C51 C 0.93211(12) 0.7714(5) 0.1322(3) 0.107(2) Uani 1 1 d . . .
C52 C 0.96122(15) 0.7744(8) 0.1411(4) 0.187(6) Uani 1 1 d . . .
H52 H 0.9719 0.7465 0.1218 0.224 Uiso 1 1 calc R . .
C53 C 0.97254(19) 0.8212(11) 0.1800(5) 0.258(9) Uani 1 1 d . . .
H53 H 0.9915 0.8278 0.1860 0.310 Uiso 1 1 calc R . .
C54 C 0.95714(19) 0.8598(9) 0.2112(4) 0.202(6) Uani 1 1 d . . .
H54 H 0.9662 0.8884 0.2376 0.242 Uiso 1 1 calc R . .
C55 C 0.92901(17) 0.8560(7) 0.2037(3) 0.148(4) Uani 1 1 d . . .
H55 H 0.9186 0.8816 0.2241 0.178 Uiso 1 1 calc R . .
C56 C 0.91647(13) 0.8106(5) 0.1623(2) 0.098(2) Uani 1 1 d . . .
C57 C 0.79808(10) 0.6239(3) 0.15151(17) 0.0638(13) Uani 1 1 d . . .
C58 C 0.80822(10) 0.6977(3) 0.17686(17) 0.0639(13) Uani 1 1 d . . .
C59 C 0.79803(13) 0.7239(4) 0.2172(2) 0.0840(17) Uani 1 1 d . . .
H59 H 0.8053 0.7720 0.2351 0.101 Uiso 1 1 calc R . .
C60 C 0.77647(15) 0.6741(5) 0.2288(2) 0.099(2) Uani 1 1 d . . .
H60 H 0.7690 0.6890 0.2551 0.119 Uiso 1 1 calc R . .
C61 C 0.76556(13) 0.6008(4) 0.2012(2) 0.0893(19) Uani 1 1 d . . .
H61 H 0.7508 0.5699 0.2097 0.107 Uiso 1 1 calc R . .
C62 C 0.77574(11) 0.5745(4) 0.1634(2) 0.0756(15) Uani 1 1 d . . .
H62 H 0.7685 0.5260 0.1457 0.091 Uiso 1 1 calc R . .
C63 C 0.89444(10) 0.4801(3) 0.05282(17) 0.0589(11) Uani 1 1 d . . .
C64 C 0.91719(11) 0.4238(4) 0.0514(2) 0.0800(15) Uani 1 1 d . . .
H64 H 0.9342 0.4457 0.0469 0.096 Uiso 1 1 calc R . .
C65 C 0.91268(14) 0.3345(4) 0.0570(2) 0.0894(18) Uani 1 1 d . . .
H65 H 0.9272 0.2953 0.0563 0.107 Uiso 1 1 calc R . .
C66 C 0.88713(14) 0.3001(3) 0.0636(2) 0.0859(17) Uani 1 1 d . . .
H66 H 0.8853 0.2392 0.0671 0.103 Uiso 1 1 calc R . .
C67 C 0.86479(12) 0.3534(3) 0.06523(19) 0.0731(14) Uani 1 1 d . . .
H67 H 0.8479 0.3305 0.0695 0.088 Uiso 1 1 calc R . .
C68 C 0.86905(10) 0.4458(3) 0.05989(17) 0.0592(11) Uani 1 1 d . . .
C69 C 0.1798(2) 0.4903(7) 0.2306(4) 0.176(5) Uani 1 1 d . . .
H69A H 0.1649 0.4549 0.2377 0.264 Uiso 1 1 calc R . .
H69B H 0.1749 0.5160 0.2002 0.264 Uiso 1 1 calc R . .
H69C H 0.1837 0.5367 0.2533 0.264 Uiso 1 1 calc R . .
C70 C 0.2102(4) 0.3600(7) 0.2621(4) 0.232(8) Uani 1 1 d . . .
H70A H 0.2294 0.3492 0.2718 0.349 Uiso 1 1 calc R . .
H70B H 0.2016 0.3079 0.2473 0.349 Uiso 1 1 calc R . .
H70C H 0.2018 0.3743 0.2888 0.349 Uiso 1 1 calc R . .
C71 C 0.2510(2) 0.4143(8) 0.2089(5) 0.218(7) Uani 1 1 d . . .
H71A H 0.2490 0.3658 0.1873 0.328 Uiso 1 1 calc R . .
H71B H 0.2565 0.3921 0.2399 0.328 Uiso 1 1 calc R . .
H71C H 0.2646 0.4547 0.2013 0.328 Uiso 1 1 calc R . .
C72 C 0.2229(3) 0.4637(5) 0.2061(3) 0.150(4) Uani 1 1 d . . .
C80 C 0.1333(2) 0.7610(6) 0.0908(4) 0.145(3) Uani 1 1 d . . .
C81 C 0.1366(4) 0.8255(8) 0.0537(5) 0.259(9) Uani 1 1 d . . .
H81A H 0.1311 0.8834 0.0623 0.388 Uiso 1 1 calc R . .
H81B H 0.1254 0.8078 0.0250 0.388 Uiso 1 1 calc R . .
H81C H 0.1555 0.8273 0.0496 0.388 Uiso 1 1 calc R . .
C82 C 0.1773(2) 0.8185(11) 0.1330(6) 0.271(9) Uani 1 1 d . . .
H82A H 0.1848 0.8344 0.1057 0.406 Uiso 1 1 calc R . .
H82B H 0.1910 0.7885 0.1546 0.406 Uiso 1 1 calc R . .
H82C H 0.1715 0.8711 0.1473 0.406 Uiso 1 1 calc R . .
C83 C 0.1535(4) 0.6818(12) 0.1593(4) 0.278(10) Uani 1 1 d . . .
H83A H 0.1443 0.7030 0.1838 0.417 Uiso 1 1 calc R . .
H83B H 0.1719 0.6641 0.1722 0.417 Uiso 1 1 calc R . .
H83C H 0.1437 0.6318 0.1444 0.417 Uiso 1 1 calc R . .
N24 N 0.79456(7) 0.9661(2) -0.08971(11) 0.0413(7) Uiso 1 1 d . . .
O8 O 0.77921(13) 0.9242(4) -0.0733(2) 0.142(2) Uiso 1 1 d . . .
C10 C 0.62317(10) -0.0381(3) 0.