####################################################################### 
# 
# This file contains crystal structure data downloaded from the 
# Cambridge Structural Database (CSD) hosted by the Cambridge 
# Crystallographic Data Centre (CCDC).
# 
# Full information about CCDC data access policies and citation 
# guidelines are available at http://www.ccdc.cam.ac.uk/access/V1 
# 
# Audit and citation data items may have been added by the CCDC. 
# Please retain this information to preserve the provenance of 
# this file and to allow appropriate attribution of the data. 
# 
#######################################################################

data_2
_audit_block_doi                 10.5517/cc11wdr2
_database_code_depnum_ccdc_archive 'CCDC 979654'
loop_
_citation_id
_citation_doi
_citation_year
1 10.1021/ic500788z 2014
_audit_update_record             
;
2014-01-04 deposited with the CCDC.	2024-07-13 downloaded from the CCDC.
;

_audit_creation_method           SHELXL-97
_chemical_name_systematic        
; 
 ? 
;
_chemical_name_common            ?
_chemical_melting_point          ?
_chemical_formula_moiety         ?
_chemical_formula_sum            'C132 H112 N42 O32 Zn9'
_chemical_formula_weight         3387.25

loop_
_atom_type_symbol
_atom_type_description
_atom_type_scat_dispersion_real
_atom_type_scat_dispersion_imag
_atom_type_scat_source
C C 0.0033 0.0016 'International Tables Vol C Tables 4.2.6.8 and 6.1.1.4'
H H 0.0000 0.0000 'International Tables Vol C Tables 4.2.6.8 and 6.1.1.4'
N N 0.0061 0.0033 'International Tables Vol C Tables 4.2.6.8 and 6.1.1.4'
O O 0.0106 0.0060 'International Tables Vol C Tables 4.2.6.8 and 6.1.1.4'
Zn Zn 0.2839 1.4301 'International Tables Vol C Tables 4.2.6.8 and 6.1.1.4'

_symmetry_cell_setting           Triclinic
_symmetry_space_group_name_H-M   'P -1'

loop_
_symmetry_equiv_pos_as_xyz
'x, y, z'
'-x, -y, -z'

_cell_length_a                   14.473(3)
_cell_length_b                   17.611(3)
_cell_length_c                   20.541(4)
_cell_angle_alpha                68.12(3)
_cell_angle_beta                 77.79(3)
_cell_angle_gamma                69.05(3)
_cell_volume                     4518.7(19)
_cell_formula_units_Z            1
_cell_measurement_temperature    293(2)
_cell_measurement_reflns_used    ?
_cell_measurement_theta_min      3.03
_cell_measurement_theta_max      25.00

_exptl_crystal_description       block
_exptl_crystal_colour            colorless
_exptl_crystal_size_max          0.21
_exptl_crystal_size_mid          0.18
_exptl_crystal_size_min          0.16
_exptl_crystal_density_meas      ?
_exptl_crystal_density_diffrn    1.242
_exptl_crystal_density_method    'not measured'
_exptl_crystal_F_000             1718
_exptl_absorpt_coefficient_mu    1.243
_exptl_absorpt_correction_type   Multi-scan
_exptl_absorpt_correction_T_min  0.77
_exptl_absorpt_correction_T_max  0.82
_exptl_absorpt_process_details   'SADABS (Bruker, 1998)'

_exptl_special_details           
; 
 ? 
;

_diffrn_ambient_temperature      293(2)
_diffrn_radiation_wavelength     0.71073
_diffrn_radiation_type           MoK\a
_diffrn_radiation_source         'fine-focus sealed tube'
_diffrn_radiation_monochromator  graphite
_diffrn_measurement_device_type  scx-mini
_diffrn_measurement_method       '\w scan'
_diffrn_detector_area_resol_mean ?
_diffrn_standards_number         ?
_diffrn_standards_interval_count ?
_diffrn_standards_interval_time  ?
_diffrn_standards_decay_%        ?
_diffrn_reflns_number            15807
_diffrn_reflns_av_R_equivalents  0.0000
_diffrn_reflns_av_sigmaI/netI    0.3056
_diffrn_reflns_limit_h_min       -16
_diffrn_reflns_limit_h_max       17
_diffrn_reflns_limit_k_min       -19
_diffrn_reflns_limit_k_max       20
_diffrn_reflns_limit_l_min       0
_diffrn_reflns_limit_l_max       24
_diffrn_reflns_theta_min         3.03
_diffrn_reflns_theta_max         25.00
_reflns_number_total             15807
_reflns_number_gt                5511
_reflns_threshold_expression     >2sigma(I)

_computing_data_collection       'CrystalClear (Rigaku/MSC Inc., 2005)'
_computing_cell_refinement       SMART
_computing_data_reduction        'CrystalClear (Rigaku/MSC Inc., 2005)'
_computing_structure_solution    'SHELXS-97 (Sheldrick, 1990)'
_computing_structure_refinement  'SHELXL-97 (Sheldrick, 1997)'
_computing_molecular_graphics    'SHELXTL (Bruker, 1998)'
_computing_publication_material  SHELXTL

_refine_special_details          
; 
 Refinement of F^2^ against ALL reflections.  The weighted R-factor wR and 
 goodness of fit S are based on F^2^, conventional R-factors R are based 
 on F, with F set to zero for negative F^2^. The threshold expression of 
 F^2^ > 2sigma(F^2^) is used only for calculating R-factors(gt) etc. and is 
 not relevant to the choice of reflections for refinement.  R-factors based 
 on F^2^ are statistically about twice as large as those based on F, and R- 
 factors based on ALL data will be even larger. 
;

_refine_ls_structure_factor_coef Fsqd
_refine_ls_matrix_type           full
_refine_ls_weighting_scheme      calc
_refine_ls_weighting_details     
'calc w=1/[\s^2^(Fo^2^)+(0.0789P)^2^+0.3000P] where P=(Fo^2^+2Fc^2^)/3'
_atom_sites_solution_primary     direct
_atom_sites_solution_secondary   difmap
_atom_sites_solution_hydrogens   geom
_refine_ls_hydrogen_treatment    mixed
_refine_ls_extinction_method     none
_refine_ls_extinction_coef       ?
_refine_ls_number_reflns         15807
_refine_ls_number_parameters     900
_refine_ls_number_restraints     46
_refine_ls_R_factor_all          0.2115
_refine_ls_R_factor_gt           0.0974
_refine_ls_wR_factor_ref         0.2424
_refine_ls_wR_factor_gt          0.2064
_refine_ls_goodness_of_fit_ref   0.889
_refine_ls_restrained_S_all      0.888
_refine_ls_shift/su_max          0.015
_refine_ls_shift/su_mean         0.001

loop_
_atom_site_label
_atom_site_type_symbol
_atom_site_fract_x
_atom_site_fract_y
_atom_site_fract_z
_atom_site_U_iso_or_equiv
_atom_site_adp_type
_atom_site_occupancy
_atom_site_symmetry_multiplicity
_atom_site_calc_flag
_atom_site_refinement_flags
_atom_site_disorder_assembly
_atom_site_disorder_group
C1 C -0.0105(10) 0.2964(8) 0.7788(7) 0.067(4) Uani 1 1 d D . .
C3 C -0.1104(10) 0.4036(8) 0.6829(9) 0.105(5) Uani 1 1 d . . .
H3A H -0.1467 0.4322 0.7146 0.126 Uiso 1 1 calc R . .
C4 C -0.1309(13) 0.4393(12) 0.6130(10) 0.130(6) Uani 1 1 d U . .
H4A H -0.1829 0.4897 0.5983 0.156 Uiso 1 1 calc R . .
C5 C -0.0714(12) 0.3979(11) 0.5642(9) 0.121(6) Uani 1 1 d U . .
H5A H -0.0851 0.4200 0.5173 0.145 Uiso 1 1 calc R . .
C6 C 0.0077(10) 0.3237(8) 0.5871(6) 0.075(4) Uani 1 1 d . . .
C7 C 0.0227(9) 0.2906(8) 0.6574(6) 0.067(4) Uani 1 1 d . . .
H7A H 0.0761 0.2416 0.6726 0.080 Uiso 1 1 calc R . .
C8 C 0.0796(12) 0.3080(10) 0.4719(8) 0.095(5) Uani 1 1 d . . .
C9 C 0.1460(9) 0.2374(8) 0.4416(6) 0.062(3) Uani 1 1 d . . .
C10 C 0.2039(8) 0.2581(7) 0.3808(6) 0.054(3) Uani 1 1 d . . .
H10A H 0.2067 0.3142 0.3607 0.065 Uiso 1 1 calc R . .
C11 C 0.2604(8) 0.1969(7) 0.3472(6) 0.057(3) Uani 1 1 d . . .
C12 C 0.2566(9) 0.1133(7) 0.3778(6) 0.064(4) Uani 1 1 d . . .
H12A H 0.2947 0.0716 0.3572 0.077 Uiso 1 1 calc R . .
C13 C 0.1971(9) 0.0921(8) 0.4384(6) 0.059(3) Uani 1 1 d . . .
C14 C 0.1429(8) 0.1533(8) 0.4710(6) 0.058(3) Uani 1 1 d . . .
H14A H 0.1040 0.1376 0.5130 0.069 Uiso 1 1 calc R . .
C15 C 0.1957(9) 0.0002(8) 0.4693(7) 0.063(3) Uani 1 1 d U . .
C16 C 0.1061(9) -0.0943(8) 0.5591(7) 0.074(4) Uani 1 1 d . . .
C17 C 0.0440(8) -0.0987(7) 0.6206(6) 0.071(4) Uani 1 1 d . . .
H17A H 0.0216 -0.0518 0.6367 0.085 Uiso 1 1 calc R . .
C18 C 0.0144(8) -0.1685(7) 0.6581(6) 0.051(3) Uani 1 1 d U . .
C19 C 0.0495(9) -0.2376(9) 0.6357(7) 0.084(4) Uani 1 1 d U . .
H19A H 0.0334 -0.2874 0.6633 0.101 Uiso 1 1 calc R . .
C20 C 0.1102(10) -0.2369(8) 0.5715(7) 0.094(5) Uani 1 1 d . . .
H20A H 0.1301 -0.2833 0.5549 0.113 Uiso 1 1 calc R . .
C21 C 0.1390(9) -0.1615(8) 0.5337(6) 0.075(4) Uani 1 1 d . . .
H21A H 0.1802 -0.1582 0.4919 0.090 Uiso 1 1 calc R . .
C22 C -0.0526(10) -0.1725(10) 0.7251(6) 0.072(4) Uani 1 1 d . . .
C23 C 0.3226(9) 0.2137(7) 0.2795(5) 0.053(3) Uani 1 1 d . . .
C24 C 0.4214(8) 0.3131(7) 0.2032(6) 0.057(3) Uani 1 1 d . . .
C25 C 0.4520(8) 0.3809(7) 0.2007(6) 0.057(3) Uani 1 1 d . . .
H25A H 0.4339 0.4022 0.2383 0.069 Uiso 1 1 calc R . .
C26 C 0.5090(7) 0.4158(6) 0.1427(6) 0.050(3) Uani 1 1 d . . .
C27 C 0.5330(7) 0.3842(6) 0.0859(5) 0.044(3) Uani 1 1 d U . .
H27A H 0.5710 0.4080 0.0462 0.053 Uiso 1 1 calc R . .
C28 C 0.5017(7) 0.3199(7) 0.0883(6) 0.052(3) Uani 1 1 d . . .
H28A H 0.5178 0.3008 0.0495 0.063 Uiso 1 1 calc R . .
C29 C 0.4465(7) 0.2811(6) 0.1463(5) 0.046(3) Uani 1 1 d . . .
H29A H 0.4267 0.2357 0.1478 0.056 Uiso 1 1 calc R . .
C30 C 0.5413(9) 0.4903(8) 0.1440(8) 0.063(4) Uani 1 1 d . . .
C31 C 0.7331(8) 0.9371(7) 0.1331(6) 0.055(3) Uani 1 1 d . . .
C32 C 0.7758(10) 0.9538(8) 0.1771(7) 0.091(5) Uani 1 1 d . . .
H32A H 0.8375 0.9185 0.1930 0.109 Uiso 1 1 calc R . .
C33 C 0.7232(12) 1.0261(9) 0.1974(8) 0.128(7) Uani 1 1 d . . .
H33A H 0.7501 1.0395 0.2275 0.154 Uiso 1 1 calc R . .
C34 C 0.6272(11) 1.0807(8) 0.1724(8) 0.114(6) Uani 1 1 d . . .
H34A H 0.5911 1.1274 0.1877 0.136 Uiso 1 1 calc R . .
C35 C 0.5906(10) 1.0620(8) 0.1254(7) 0.086(4) Uani 1 1 d . . .
H35A H 0.5310 1.0988 0.1069 0.103 Uiso 1 1 calc R . .
C36 C 0.5960(8) 1.0311(7) -0.1573(6) 0.048(3) Uani 1 1 d . . .
C37 C 0.5316(9) 1.1142(8) -0.1921(7) 0.079(4) Uani 1 1 d . . .
H37A H 0.4778 1.1421 -0.1668 0.095 Uiso 1 1 calc R . .
C38 C 0.5496(9) 1.1519(8) -0.2622(6) 0.080(4) Uani 1 1 d . . .
H38A H 0.5079 1.2051 -0.2864 0.097 Uiso 1 1 calc R . .
C39 C 0.6356(10) 1.1061(8) -0.2976(7) 0.088(5) Uani 1 1 d . . .
H39A H 0.6530 1.1348 -0.3442 0.106 Uiso 1 1 calc R . .
C40 C 0.6917(9) 1.0268(7) -0.2691(6) 0.064(4) Uani 1 1 d . . .
H40A H 0.7406 0.9971 -0.2960 0.077 Uiso 1 1 calc R . .
C41 C 0.6739(8) 0.9888(6) -0.1951(5) 0.037(3) Uani 1 1 d . . .
C42 C 0.7509(7) 0.5883(6) -0.0604(6) 0.042(3) Uani 1 1 d . . .
C43 C 0.7432(8) 0.5086(7) -0.0569(6) 0.064(4) Uani 1 1 d . . .
H43A H 0.7088 0.4781 -0.0188 0.077 Uiso 1 1 calc R . .
C44 C 0.7884(10) 0.4788(8) -0.1120(7) 0.081(4) Uani 1 1 d . . .
H44A H 0.7854 0.4265 -0.1109 0.098 Uiso 1 1 calc R . .
C45 C 0.8381(9) 0.5240(9) -0.1690(7) 0.078(4) Uani 1 1 d . . .
H45A H 0.8664 0.5020 -0.2059 0.094 Uiso 1 1 calc R . .
C46 C 0.8476(8) 0.6021(7) -0.1734(5) 0.057(3) Uani 1 1 d . . .
H46A H 0.8844 0.6310 -0.2110 0.068 Uiso 1 1 calc R . .
C47 C 0.7977(7) 0.6353(7) -0.1171(5) 0.037(3) Uani 1 1 d . . .
C48 C 0.6410(9) 0.9891(6) 0.1049(5) 0.049(3) Uani 1 1 d . . .
C49 C 0.8292(10) 0.5994(7) 0.2069(6) 0.071(4) Uani 1 1 d . . .
C50 C 0.8871(11) 0.5592(8) 0.2636(8) 0.114(6) Uani 1 1 d . . .
H50A H 0.9341 0.5803 0.2697 0.137 Uiso 1 1 calc R . .
C51 C 0.8686(14) 0.4870(10) 0.3090(9) 0.173(10) Uani 1 1 d . . .
H51A H 0.9076 0.4555 0.3466 0.208 Uiso 1 1 calc R . .
C52 C 0.7917(15) 0.4547(13) 0.3033(11) 0.167(8) Uani 1 1 d U . .
H52A H 0.7796 0.4066 0.3384 0.201 Uiso 1 1 calc R . .
C53 C 0.7363(12) 0.4967(10) 0.2444(9) 0.136(7) Uani 1 1 d . . .
H53A H 0.6884 0.4768 0.2381 0.164 Uiso 1 1 calc R . .
C54 C 0.7574(9) 0.5703(8) 0.1956(7) 0.067(4) Uani 1 1 d . . .
C59 C 0.4330(4) 0.7571(5) 0.0810(4) 0.046(3) Uani 1 1 d G . .
C63 C 0.4020(5) 0.8464(5) 0.0599(4) 0.047(3) Uani 1 1 d G . .
C62 C 0.3022(6) 0.8911(4) 0.0703(4) 0.066(3) Uani 1 1 d G . .
H62A H 0.2815 0.9508 0.0561 0.079 Uiso 1 1 calc R . .
C66 C 0.2335(4) 0.8465(6) 0.1017(4) 0.108(6) Uani 1 1 d G . .
H66A H 0.1668 0.8764 0.1087 0.130 Uiso 1 1 calc R . .
C65 C 0.2645(6) 0.7572(6) 0.1228(4) 0.078(4) Uani 1 1 d G . .
H65A H 0.2185 0.7274 0.1439 0.094 Uiso 1 1 calc R . .
C60 C 0.3643(7) 0.7125(4) 0.1125(4) 0.075(4) Uani 1 1 d G . .
H60A H 0.3851 0.6527 0.1266 0.090 Uiso 1 1 calc R . .
C64 C -0.0372(9) 0.3265(8) 0.7060(6) 0.057(3) Uani 1 1 d D . .
N1 N 0.7661(6) 0.8700(5) 0.1080(5) 0.050(2) Uani 1 1 d . . .
N2 N 0.6980(7) 0.8858(5) 0.0634(4) 0.045(2) Uani 1 1 d . . .
N3 N 0.6207(6) 0.9561(5) 0.0616(4) 0.041(2) Uani 1 1 d . . .
N4 N 0.6001(6) 0.9769(5) -0.0887(4) 0.040(2) Uani 1 1 d . . .
N5 N 0.6721(6) 0.9051(5) -0.0867(4) 0.035(2) Uani 1 1 d . . .
N6 N 0.7215(6) 0.9102(5) -0.1505(4) 0.041(2) Uani 1 1 d . . .
N7 N 0.7409(6) 0.7060(5) -0.0451(4) 0.047(2) Uani 1 1 d . . .
N8 N 0.7130(6) 0.6330(5) -0.0149(4) 0.042(2) Uani 1 1 d . . .
N9 N 0.7935(6) 0.7063(5) -0.1056(4) 0.042(2) Uani 1 1 d . . .
N10 N 0.5617(5) 0.8006(5) 0.0380(4) 0.0323(19) Uani 1 1 d . . .
N11 N 0.5328(6) 0.7296(5) 0.0653(4) 0.042(2) Uani 1 1 d . . .
N12 N 0.4862(6) 0.8696(5) 0.0353(4) 0.037(2) Uani 1 1 d . . .
N13 N 0.8265(7) 0.6738(6) 0.1503(5) 0.062(3) Uani 1 1 d . . .
N14 N 0.7600(6) 0.6839(5) 0.1086(4) 0.046(2) Uani 1 1 d . . .
N15 N 0.7193(6) 0.6209(5) 0.1373(5) 0.053(3) Uani 1 1 d . . .
N16 N 0.9392(7) 0.7790(6) 0.0214(5) 0.050(2) Uani 1 1 d . . .
N17 N 0.8764(7) 0.7902(5) -0.0226(5) 0.049(2) Uani 1 1 d . . .
N18 N 0.9213(6) 0.7976(6) -0.0867(4) 0.053(3) Uani 1 1 d . . .
N19 N 0.0705(8) 0.2790(6) 0.5428(6) 0.083(3) Uani 1 1 d . . .
H19B H 0.1071 0.2276 0.5628 0.100 Uiso 1 1 calc R . .
N20 N 0.3619(6) 0.2788(6) 0.2645(4) 0.057(3) Uani 1 1 d . . .
H20B H 0.3491 0.3025 0.2965 0.068 Uiso 1 1 calc R . .
N21 N 0.1288(8) -0.0168(6) 0.5240(5) 0.092(4) Uani 1 1 d . . .
H21C H 0.0954 0.0251 0.5398 0.111 Uiso 1 1 calc R . .
O1 O -0.0861(6) -0.1100(6) 0.7437(4) 0.083(3) Uani 1 1 d . . .
O2 O -0.0697(7) -0.2409(6) 0.7620(4) 0.096(3) Uani 1 1 d . . .
O3 O 0.5871(6) 0.5212(5) 0.0819(5) 0.076(3) Uani 1 1 d . . .
O4 O 0.5249(8) 0.5125(6) 0.1931(5) 0.099(4) Uani 1 1 d . . .
O5 O -0.0627(7) 0.3272(5) 0.8241(5) 0.091(3) Uani 1 1 d . . .
O6 O 0.0684(6) 0.2323(6) 0.7954(4) 0.081(3) Uani 1 1 d . . .
O7 O 0.0397(8) 0.3779(6) 0.4356(4) 0.100(3) Uani 1 1 d . . .
O8 O 0.2467(8) -0.0502(6) 0.4411(5) 0.141(5) Uani 1 1 d . . .
O9 O 0.3277(7) 0.1799(5) 0.2384(4) 0.089(3) Uani 1 1 d . . .
C57 C 1.0156(5) 0.7872(5) -0.0863(5) 0.058(3) Uani 1 1 d G . .
C67 C 1.0967(7) 0.7838(6) -0.1366(4) 0.112(6) Uani 1 1 d G . .
H67A H 1.0884 0.7920 -0.1826 0.134 Uiso 1 1 calc R . .
C68 C 1.1904(6) 0.7683(7) -0.1180(5) 0.114(6) Uani 1 1 d GD . .
H68A H 1.2447 0.7660 -0.1517 0.137 Uiso 1 1 calc R . .
C56 C 1.2029(5) 0.7560(7) -0.0492(6) 0.138(7) Uani 1 1 d GD . .
H56A H 1.2656 0.7456 -0.0368 0.166 Uiso 1 1 calc R . .
C69 C 1.1218(7) 0.7594(6) 0.0011(4) 0.085(4) Uani 1 1 d G . .
H69A H 1.1302 0.7512 0.0472 0.102 Uiso 1 1 calc R . .
C70 C 1.0282(6) 0.7750(5) -0.0174(4) 0.068(4) Uani 1 1 d G . .
Zn1 Zn 0.71525(8) 0.79831(7) 0.00675(6) 0.0385(3) Uani 1 1 d . . .
Zn2 Zn 0.88995(9) 0.76737(8) 0.12166(7) 0.0479(4) Uani 1 1 d . . .
Zn3 Zn 0.63115(10) 0.61302(8) 0.07770(7) 0.0520(4) Uani 1 1 d . . .
Zn4 Zn -0.16112(9) -0.18943(7) 0.83532(6) 0.0464(4) Uani 1 1 d . . .
Zn5 Zn 0.5000 1.0000 0.0000 0.0411(5) Uani 1 2 d S . .
O10 O 0.3688(10) 0.3493(9) 0.3776(6) 0.187(6) Uani 1 1 d . . .
O12 O 1.0002(14) 0.1054(12) 0.6183(10) 0.280(9) Uiso 1 1 d . . .
O13 O 0.9096(14) 0.1175(12) 0.7153(10) 0.285(9) Uiso 1 1 d . . .

loop_
_atom_site_aniso_label
_atom_site_aniso_U_11
_atom_site_aniso_U_22
_atom_site_aniso_U_33
_atom_site_aniso_U_23
_atom_site_aniso_U_13
_atom_site_aniso_U_12
C1 0.067(10) 0.067(10) 0.083(11) -0.046(9) 0.006(8) -0.023(8)
C3 0.100(12) 0.054(9) 0.125(14) -0.044(9) -0.010(10) 0.033(8)
C4 0.130(6) 0.130(6) 0.129(6) -0.042(2) -0.0119(11) -0.039(2)
C5 0.121(6) 0.121(6) 0.121(6) -0.040(2) -0.0107(11) -0.036(2)
C6 0.093(11) 0.079(10) 0.048(9) -0.031(8) -0.005(8) -0.012(8)
C7 0.079(10) 0.081(10) 0.049(8) -0.038(8) -0.021(7) -0.007(7)
C8 0.156(16) 0.067(11) 0.054(11) -0.020(9) 0.024(10) -0.044(11)
C9 0.092(10) 0.066(9) 0.039(8) -0.026(7) 0.016(7) -0.041(8)
C10 0.077(9) 0.050(8) 0.045(8) -0.013(7) -0.007(7) -0.032(7)
C11 0.076(9) 0.060(8) 0.034(7) -0.013(7) 0.017(6) -0.035(7)
C12 0.123(11) 0.043(7) 0.033(7) 0.002(6) 0.000(7) -0.051(8)
C13 0.087(10) 0.059(8) 0.034(7) -0.011(7) -0.002(7) -0.034(7)
C14 0.072(9) 0.064(9) 0.041(7) -0.008(7) 0.008(6) -0.043(7)
C15 0.063(4) 0.063(4) 0.063(4) -0.0204(15) -0.0044(10) -0.0197(14)
C16 0.095(10) 0.057(8) 0.074(9) -0.049(8) 0.049(8) -0.031(7)
C17 0.090(10) 0.054(8) 0.073(9) -0.043(7) 0.042(8) -0.031(7)
C18 0.051(3) 0.051(3) 0.051(3) -0.0163(14) -0.0036(10) -0.0158(13)
C19 0.084(4) 0.084(4) 0.084(4) -0.0268(16) -0.0071(11) -0.0266(16)
C20 0.129(12) 0.073(10) 0.098(11) -0.063(9) 0.061(10) -0.054(9)
C21 0.110(11) 0.072(9) 0.051(8) -0.022(7) 0.045(7) -0.065(8)
C22 0.081(10) 0.097(12) 0.036(8) -0.019(9) 0.027(7) -0.044(9)
C23 0.104(10) 0.062(8) 0.022(6) -0.014(6) 0.016(6) -0.072(8)
C24 0.074(9) 0.061(8) 0.034(7) -0.019(6) 0.011(6) -0.022(7)
C25 0.076(9) 0.053(8) 0.067(9) -0.030(7) 0.017(7) -0.048(7)
C26 0.047(7) 0.037(7) 0.059(8) 0.000(6) -0.002(6) -0.023(6)
C27 0.044(3) 0.044(3) 0.044(3) -0.0142(13) -0.0029(10) -0.0138(13)
C28 0.058(8) 0.058(8) 0.045(7) -0.016(6) -0.008(6) -0.021(6)
C29 0.059(8) 0.055(7) 0.037(7) -0.022(6) 0.018(6) -0.037(6)
C30 0.046(8) 0.048(8) 0.087(11) -0.001(8) -0.008(8) -0.026(7)
C31 0.050(8) 0.036(7) 0.079(9) -0.032(7) -0.025(7) 0.013(6)
C32 0.083(10) 0.075(10) 0.123(12) -0.061(9) -0.078(9) 0.036(8)
C33 0.154(16) 0.099(12) 0.174(16) -0.103(12) -0.111(13) 0.028(11)
C34 0.133(14) 0.076(10) 0.155(15) -0.085(11) -0.079(12) 0.027(10)
C35 0.115(12) 0.061(9) 0.090(11) -0.049(8) -0.046(9) 0.009(8)
C36 0.070(8) 0.036(7) 0.045(7) -0.037(6) 0.010(6) -0.008(6)
C37 0.089(11) 0.068(10) 0.060(9) -0.026(8) -0.016(8) 0.009(8)
C38 0.092(11) 0.081(10) 0.0