####################################################################### 
# 
# This file contains crystal structure data downloaded from the 
# Cambridge Structural Database (CSD) hosted by the Cambridge 
# Crystallographic Data Centre (CCDC).
# 
# Full information about CCDC data access policies and citation 
# guidelines are available at http://www.ccdc.cam.ac.uk/access/V1 
# 
# Audit and citation data items may have been added by the CCDC. 
# Please retain this information to preserve the provenance of 
# this file and to allow appropriate attribution of the data. 
# 
#######################################################################

data_3
_audit_block_doi                 10.5517/ccnxn6d
_database_code_depnum_ccdc_archive 'CCDC 623354'
loop_
_citation_id
_citation_doi
_citation_year
1 10.1016/j.ica.2008.05.033 2009
_audit_update_record             
;
2006-10-09 deposited with the CCDC.	2024-07-13 downloaded from the CCDC.
;

_audit_creation_method           SHELXL-97
_chemical_name_systematic        
;
?
;
_chemical_name_common            ?
_chemical_melting_point          ?
_chemical_formula_moiety         'C19 H14 Cu N5 O2 S, H2O'
_chemical_formula_sum            'C19 H16 Cu N5 O3 S'
_chemical_formula_weight         454.94

loop_
_atom_type_symbol
_atom_type_description
_atom_type_scat_dispersion_real
_atom_type_scat_dispersion_imag
_atom_type_scat_source
C C 0.0033 0.0016 'International Tables Vol C Tables 4.2.6.8 and 6.1.1.4'
H H 0.0000 0.0000 'International Tables Vol C Tables 4.2.6.8 and 6.1.1.4'
N N 0.0061 0.0033 'International Tables Vol C Tables 4.2.6.8 and 6.1.1.4'
O O 0.0106 0.0060 'International Tables Vol C Tables 4.2.6.8 and 6.1.1.4'
S S 0.1246 0.1234 'International Tables Vol C Tables 4.2.6.8 and 6.1.1.4'
Cu Cu 0.3201 1.2651 'International Tables Vol C Tables 4.2.6.8 and 6.1.1.4'

_symmetry_cell_setting           Orthorhombic
_symmetry_space_group_name_H-M   Pccn

loop_
_symmetry_equiv_pos_as_xyz
'x, y, z'
'-x+1/2, -y+1/2, z'
'-x, y+1/2, -z+1/2'
'x+1/2, -y, -z+1/2'
'-x, -y, -z'
'x-1/2, y-1/2, -z'
'x, -y-1/2, z-1/2'
'-x-1/2, y, z-1/2'

_cell_length_a                   18.866(2)
_cell_length_b                   24.059(3)
_cell_length_c                   9.9612(12)
_cell_angle_alpha                90.00
_cell_angle_beta                 90.00
_cell_angle_gamma                90.00
_cell_volume                     4521.4(9)
_cell_formula_units_Z            8
_cell_measurement_temperature    291(2)
_cell_measurement_reflns_used    1544
_cell_measurement_theta_min      2.74
_cell_measurement_theta_max      16.61

_exptl_crystal_description       Prism
_exptl_crystal_colour            Red
_exptl_crystal_size_max          0.21
_exptl_crystal_size_mid          0.16
_exptl_crystal_size_min          0.14
_exptl_crystal_density_meas      0
_exptl_crystal_density_diffrn    1.337
_exptl_crystal_density_method    'not measured'
_exptl_crystal_F_000             1848
_exptl_absorpt_coefficient_mu    1.085
_exptl_absorpt_correction_type   Multi-scan
_exptl_absorpt_correction_T_min  0.8041
_exptl_absorpt_correction_T_max  0.8647
_exptl_absorpt_process_details   ?

_exptl_special_details           
;
?
;

_diffrn_ambient_temperature      291(2)
_diffrn_radiation_wavelength     0.71073
_diffrn_radiation_type           MoK\a
_diffrn_radiation_source         'fine-focus sealed tube'
_diffrn_radiation_monochromator  graphite
_diffrn_measurement_device_type  'CCD area detector'
_diffrn_measurement_method       'phi and omega scans'
_diffrn_detector_area_resol_mean ?
_diffrn_standards_number         ?
_diffrn_standards_interval_count ?
_diffrn_standards_interval_time  ?
_diffrn_standards_decay_%        ?
_diffrn_reflns_number            24932
_diffrn_reflns_av_R_equivalents  0.1073
_diffrn_reflns_av_sigmaI/netI    0.0726
_diffrn_reflns_limit_h_min       -22
_diffrn_reflns_limit_h_max       22
_diffrn_reflns_limit_k_min       -28
_diffrn_reflns_limit_k_max       29
_diffrn_reflns_limit_l_min       -11
_diffrn_reflns_limit_l_max       11
_diffrn_reflns_theta_min         2.46
_diffrn_reflns_theta_max         25.50
_reflns_number_total             4194
_reflns_number_gt                2156
_reflns_threshold_expression     >2sigma(I)

_computing_data_collection       'Bruker SMART'
_computing_cell_refinement       'Bruker SMART'
_computing_data_reduction        'Bruker SAINT'
_computing_structure_solution    'SHELXS-97 (Sheldrick, 1990)'
_computing_structure_refinement  'SHELXL-97 (Sheldrick, 1997)'
_computing_molecular_graphics    'Bruker SHELXTL'
_computing_publication_material  'Bruker SHELXTL'

_refine_special_details          
;
Refinement of F^2^ against ALL reflections. The weighted R-factor wR and
goodness of fit S are based on F^2^, conventional R-factors R are based
on F, with F set to zero for negative F^2^. The threshold expression of
F^2^ > 2sigma(F^2^) is used only for calculating R-factors(gt) etc. and is
not relevant to the choice of reflections for refinement. R-factors based
on F^2^ are statistically about twice as large as those based on F, and R-
factors based on ALL data will be even larger.
;

_refine_ls_structure_factor_coef Fsqd
_refine_ls_matrix_type           full
_refine_ls_weighting_scheme      calc
_refine_ls_weighting_details     
'calc w=1/[\s^2^(Fo^2^)+(0.1542P)^2^+2.7513P] where P=(Fo^2^+2Fc^2^)/3'
_atom_sites_solution_primary     direct
_atom_sites_solution_secondary   difmap
_atom_sites_solution_hydrogens   geom
_refine_ls_hydrogen_treatment    constr
_refine_ls_extinction_method     none
_refine_ls_extinction_coef       ?
_refine_ls_number_reflns         4194
_refine_ls_number_parameters     264
_refine_ls_number_restraints     1
_refine_ls_R_factor_all          0.1397
_refine_ls_R_factor_gt           0.0696
_refine_ls_wR_factor_ref         0.2749
_refine_ls_wR_factor_gt          0.2127
_refine_ls_goodness_of_fit_ref   1.027
_refine_ls_restrained_S_all      1.027
_refine_ls_shift/su_max          0.015
_refine_ls_shift/su_mean         0.000

loop_
_atom_site_label
_atom_site_type_symbol
_atom_site_fract_x
_atom_site_fract_y
_atom_site_fract_z
_atom_site_U_iso_or_equiv
_atom_site_adp_type
_atom_site_occupancy
_atom_site_symmetry_multiplicity
_atom_site_calc_flag
_atom_site_refinement_flags
_atom_site_disorder_assembly
_atom_site_disorder_group
Cu1 Cu 0.20569(3) 0.52177(2) 0.29600(5) 0.05608(17) Uani 1 1 d . . .
S1 S 0.32442(7) 0.55044(6) 0.32985(11) 0.0677(4) Uani 1 1 d . . .
O1 O 0.14087(16) 0.26619(12) 0.6090(2) 0.0619(9) Uani 1 1 d . . .
O2 O -0.02906(17) 0.27067(11) 0.3338(3) 0.0591(9) Uani 1 1 d . . .
N1 N 0.19187(19) 0.44093(14) 0.3572(3) 0.0559(11) Uani 1 1 d . . .
N2 N 0.11830(17) 0.23815(12) 0.3952(3) 0.0448(9) Uani 1 1 d . . .
N3 N -0.01101(18) 0.23769(12) 0.5452(3) 0.0449(9) Uani 1 1 d . . .
N4 N -0.14301(19) 0.41835(14) 0.6150(3) 0.0550(10) Uani 1 1 d . . .
N5 N 0.3204(2) 0.52700(15) 0.6050(4) 0.0641(12) Uani 1 1 d . . .
C1 C 0.2122(3) 0.41976(19) 0.4739(5) 0.0760(16) Uani 1 1 d . . .
H1 H 0.2389 0.4424 0.5303 0.091 Uiso 1 1 calc R . .
C2 C 0.1972(3) 0.3674(2) 0.5177(4) 0.0744(16) Uani 1 1 d . . .
H2 H 0.2118 0.3560 0.6025 0.089 Uiso 1 1 calc R . .
C3 C 0.1608(2) 0.33171(16) 0.4367(4) 0.0459(11) Uani 1 1 d . . .
C4 C 0.1432(3) 0.35075(17) 0.3098(4) 0.0692(15) Uani 1 1 d . . .
H4 H 0.1208 0.3276 0.2482 0.083 Uiso 1 1 calc R . .
C5 C 0.1601(3) 0.40579(19) 0.2765(4) 0.0737(17) Uani 1 1 d . . .
H5 H 0.1480 0.4183 0.1912 0.088 Uiso 1 1 calc R . .
C6 C 0.1390(2) 0.27540(15) 0.4875(4) 0.0423(11) Uani 1 1 d . . .
C8 C 0.0840(2) 0.18753(16) 0.4314(4) 0.0450(11) Uani 1 1 d . . .
C9 C 0.1120(3) 0.13701(16) 0.3892(4) 0.0604(13) Uani 1 1 d . . .
H9 H 0.1533 0.1364 0.3382 0.073 Uiso 1 1 calc R . .
C10 C 0.0793(3) 0.08829(18) 0.4222(5) 0.0735(16) Uani 1 1 d . . .
H10 H 0.0983 0.0547 0.3932 0.088 Uiso 1 1 calc R . .
C11 C 0.0201(3) 0.08849(18) 0.4961(5) 0.0720(16) Uani 1 1 d . . .
H11 H -0.0014 0.0550 0.5190 0.086 Uiso 1 1 calc R . .
C12 C -0.0096(2) 0.13795(16) 0.5389(4) 0.0564(13) Uani 1 1 d . . .
H12 H -0.0505 0.1377 0.5911 0.068 Uiso 1 1 calc R . .
C13 C 0.0216(2) 0.18737(14) 0.5040(4) 0.0419(11) Uani 1 1 d . . .
C14 C -0.0346(2) 0.27584(16) 0.4552(4) 0.0441(11) Uani 1 1 d . . .
C15 C -0.0708(2) 0.32577(16) 0.5141(4) 0.0459(11) Uani 1 1 d . . .
C16 C -0.0592(3) 0.34444(19) 0.6427(4) 0.0766(15) Uani 1 1 d . . .
H16 H -0.0271 0.3263 0.6982 0.092 Uiso 1 1 calc R . .
C17 C -0.0960(3) 0.3907(2) 0.6887(5) 0.0796(17) Uani 1 1 d . . .
H17 H -0.0872 0.4030 0.7757 0.096 Uiso 1 1 calc R . .
C18 C -0.1520(3) 0.4001(2) 0.4920(4) 0.0797(17) Uani 1 1 d . . .
H18 H -0.1840 0.4191 0.4377 0.096 Uiso 1 1 calc R . .
C19 C -0.1177(3) 0.3552(2) 0.4377(4) 0.0787(16) Uani 1 1 d . . .
H19 H -0.1263 0.3449 0.3492 0.094 Uiso 1 1 calc R . .
C20 C 0.3235(2) 0.53771(17) 0.4916(4) 0.0521(12) Uani 1 1 d . . .
O3 O 0.0000 0.5000 0.5000 0.708(13) Uani 1 2 d S . .
O4 O 0.7500 0.2500 0.4455(8) 0.97(2) Uani 1 2 d SD . .
H4W H 0.7618 0.2718 0.3842 0.070 Uiso 1 1 d D . .

loop_
_atom_site_aniso_label
_atom_site_aniso_U_11
_atom_site_aniso_U_22
_atom_site_aniso_U_33
_atom_site_aniso_U_23
_atom_site_aniso_U_13
_atom_site_aniso_U_12
Cu1 0.0845(4) 0.0429(3) 0.0409(3) 0.0008(2) -0.0019(3) 0.0084(3)
S1 0.0750(7) 0.0854(8) 0.0426(6) 0.0179(6) 0.0023(5) -0.0036(7)
O1 0.097(2) 0.0668(18) 0.0225(13) 0.0076(13) -0.0033(14) -0.0191(17)
O2 0.091(2) 0.0571(16) 0.0294(14) -0.0007(12) 0.0024(14) 0.0190(16)
N1 0.080(2) 0.0466(18) 0.0416(18) 0.0045(16) -0.0068(18) -0.0104(18)
N2 0.0618(19) 0.0402(17) 0.0326(16) -0.0017(14) 0.0049(15) -0.0047(15)
N3 0.065(2) 0.0359(16) 0.0340(16) 0.0069(14) 0.0024(15) 0.0029(15)
N4 0.080(2) 0.0509(19) 0.0344(18) -0.0007(15) -0.0012(17) 0.0121(18)
N5 0.093(3) 0.062(2) 0.0370(19) -0.0040(17) -0.0034(19) 0.002(2)
C1 0.115(4) 0.057(3) 0.055(3) 0.017(2) -0.027(3) -0.030(3)
C2 0.114(4) 0.067(3) 0.042(2) 0.017(2) -0.022(2) -0.035(3)
C3 0.061(2) 0.043(2) 0.034(2) 0.0014(17) 0.0053(18) -0.0011(19)
C4 0.127(4) 0.045(2) 0.036(2) 0.0012(19) -0.014(2) -0.022(3)
C5 0.128(4) 0.052(3) 0.041(2) 0.012(2) -0.019(3) -0.006(3)
C6 0.049(2) 0.041(2) 0.037(2) 0.0019(17) 0.0050(17) -0.0035(18)
C8 0.057(2) 0.042(2) 0.035(2) -0.0001(17) -0.0043(18) 0.0048(19)
C9 0.078(3) 0.053(2) 0.050(2) -0.013(2) 0.001(2) 0.016(2)
C10 0.115(4) 0.033(2) 0.072(3) -0.008(2) -0.022(3) 0.007(2)
C11 0.102(4) 0.042(2) 0.072(3) 0.007(2) -0.005(3) -0.004(3)
C12 0.066(3) 0.050(2) 0.053(2) 0.011(2) 0.003(2) -0.001(2)
C13 0.056(2) 0.0309(18) 0.039(2) 0.0016(16) 0.0019(18) 0.0035(17)
C14 0.058(2) 0.041(2) 0.033(2) -0.0011(17) -0.0001(17) 0.0002(19)
C15 0.064(2) 0.043(2) 0.031(2) 0.0014(17) 0.0010(18) 0.0064(19)
C16 0.117(4) 0.066(3) 0.046(2) -0.014(2) -0.034(2) 0.036(3)
C17 0.114(4) 0.077(3) 0.048(3) -0.017(2) -0.023(3) 0.035(3)
C18 0.108(4) 0.094(3) 0.037(2) 0.001(2) -0.004(2) 0.049(3)
C19 0.122(4) 0.088(3) 0.026(2) -0.006(2) -0.009(2) 0.050(3)
C20 0.062(3) 0.047(2) 0.047(2) -0.0041(19) -0.001(2) 0.002(2)
O3 0.164(7) 0.387(10) 1.57(4) 0.509(14) 0.183(14) -0.090(8)
O4 0.864(12) 1.019(15) 1.02(7) 0.000 0.000 -0.907(9)

_geom_special_details            
;
All esds (except the esd in the dihedral angle between two l.s. planes)
are estimated using the full covariance matrix. The cell esds are taken
into account individually in the estimation of esds in distances, angles
and torsion angles; correlations between esds in cell parameters are only
used when they are defined by crystal symmetry. An approximate (isotropic)
treatment of cell esds is used for estimating esds involving l.s. planes.
;

loop_
_geom_bond_atom_site_label_1
_geom_bond_atom_site_label_2
_geom_bond_distance
_geom_bond_site_symmetry_2
_geom_bond_publ_flag
Cu1 N5 1.969(4) 8_655 ?
Cu1 N1 2.055(3) . ?
Cu1 N4 2.064(3) 5_566 ?
Cu1 S1 2.3677(15) . ?
S1 C20 1.640(4) . ?
O1 C6 1.231(4) . ?
O2 C14 1.221(4) . ?
N1 C5 1.311(6) . ?
N1 C1 1.326(6) . ?
N2 C6 1.342(5) . ?
N2 C8 1.426(5) . ?
N3 C14 1.358(5) . ?
N3 C13 1.419(5) . ?
N4 C18 1.312(5) . ?
N4 C17 1.331(6) . ?
N4 Cu1 2.064(3) 5_566 ?
N5 C20 1.160(5) . ?
N5 Cu1 1.970(4) 8_656 ?
C1 C2 1.363(6) . ?
C1 H1 0.9300 . ?
C2 C3 1.364(6) . ?
C2 H2 0.9300 . ?
C3 C4 1.384(5) . ?
C3 C6 1.503(5) . ?
C4 C5 1.402(6) . ?
C4 H4 0.9300 . ?
C5 H5 0.9300 . ?
C8 C13 1.381(6) . ?
C8 C9 1.390(5) . ?
C9 C10 1.365(6) . ?
C9 H9 0.9300 . ?
C10 C11 1.337(7) . ?
C10 H10 0.9300 . ?
C11 C12 1.383(6) . ?
C11 H11 0.9300 . ?
C12 C13 1.372(5) . ?
C12 H12 0.9300 . ?
C14 C15 1.501(5) . ?
C15 C19 1.365(6) . ?
C15 C16 1.375(6) . ?
C16 C17 1.389(7) . ?
C16 H16 0.9300 . ?
C17 H17 0.9300 . ?
C18 C19 1.371(7) . ?
C18 H18 0.9300 . ?
C19 H19 0.9300 . ?
O4 H4W 0.8350 . ?

loop_
_geom_angle_atom_site_label_1
_geom_angle_atom_site_label_2
_geom_angle_atom_site_label_3
_geom_angle
_geom_angle_site_symmetry_1
_geom_angle_site_symmetry_3
_geom_angle_publ_flag
N5 Cu1 N1 108.40(14) 8_655 . ?
N5 Cu1 N4 103.14(15) 8_655 5_566 ?
N1 Cu1 N4 117.41(14) . 5_566 ?
N5 Cu1 S1 110.81(13) 8_655 . ?
N1 Cu1 S1 110.70(11) . . ?
N4 Cu1 S1 106.11(10) 5_566 . ?
C20 S1 Cu1 94.35(16) . . ?
C5 N1 C1 114.9(4) . . ?
C5 N1 Cu1 119.1(3) . . ?
C1 N1 Cu1 125.9(3) . . ?
C6 N2 C8 122.0(3) . . ?
C14 N3 C13 121.9(3) . . ?
C18 N4 C17 115.8(4) . . ?
C18 N4 Cu1 124.1(3) . 5_566 ?
C17 N4 Cu1 119.6(3) . 5_566 ?
C20 N5 Cu1 165.4(4) . 8_656 ?
N1 C1 C2 125.1(4) . . ?
N1 C1 H1 117.4 . . ?
C2 C1 H1 117.4 . . ?
C1 C2 C3 119.8(4) . . ?
C1 C2 H2 120.1 . . ?
C3 C2 H2 120.1 . . ?
C2 C3 C4 116.9(4) . . ?
C2 C3 C6 120.4(3) . . ?
C4 C3 C6 122.7(4) . . ?
C3 C4 C5 118.3(4) . . ?
C3 C4 H4 120.9 . . ?
C5 C4 H4 120.9 . . ?
N1 C5 C4 124.6(4) . . ?
N1 C5 H5 117.7 . . ?
C4 C5 H5 117.7 . . ?
O1 C6 N2 124.1(3) . . ?
O1 C6 C3 119.1(3) . . ?
N2 C6 C3 116.8(3) . . ?
C13 C8 C9 118.7(4) . . ?
C13 C8 N2 121.4(3) . . ?
C9 C8 N2 119.9(4) . . ?
C10 C9 C8 120.4(4) . . ?
C10 C9 H9 119.8 . . ?
C8 C9 H9 119.8 . . ?
C11 C10 C9 120.5(4) . . ?
C11 C10 H10 119.8 . . ?
C9 C10 H10 119.8 . . ?
C10 C11 C12 120.7(4) . . ?
C10 C11 H11 119.6 . . ?
C12 C11 H11 119.6 . . ?
C13 C12 C11 119.6(4) . . ?
C13 C12 H12 120.2 . . ?
C11 C12 H12 120.2 . . ?
C12 C13 C8 120.1(4) . . ?
C12 C13 N3 118.6(4) . . ?
C8 C13 N3 121.3(3) . . ?
O2 C14 N3 123.8(3) . . ?
O2 C14 C15 120.5(3) . . ?
N3 C14 C15 115.6(3) . . ?
C19 C15 C16 116.9(4) . . ?
C19 C15 C14 119.5(4) . . ?
C16 C15 C14 123.6(4) . . ?
C15 C16 C17 119.3(4) . . ?
C15 C16 H16 120.3 . . ?
C17 C16 H16 120.3 . . ?
N4 C17 C16 123.5(4) . . ?
N4 C17 H17 118.3 . . ?
C16 C17 H17 118.3 . . ?
N4 C18 C19 124.8(4) . . ?
N4 C18 H18 117.6 . . ?
C19 C18 H18 117.6 . . ?
C15 C19 C18 119.6(4) . . ?
C15 C19 H19 120.2 . . ?
C18 C19 H19 120.2 . . ?
N5 C20 S1 176.9(4) . . ?

loop_
_geom_torsion_atom_site_label_1
_geom_torsion_atom_site_label_2
_geom_torsion_atom_site_label_3
_geom_torsion_atom_site_label_4
_geom_torsion
_geom_torsion_site_symmetry_1
_geom_torsion_site_symmetry_2
_geom_torsion_site_symmetry_3
_geom_torsion_site_symmetry_4
_geom_torsion_publ_flag
N5 Cu1 S1 C20 -178.14(19) 8_655 . . . ?
N1 Cu1 S1 C20 -57.85(19) . . . . ?
N4 Cu1 S1 C20 70.58(18) 5_566 . . . ?
N5 Cu1 N1 C5 -9.2(4) 8_655 . . . ?
N4 Cu1 N1 C5 107.1(4) 5_566 . . . ?
S1 Cu1 N1 C5 -130.9(4) . . . . ?
N5 Cu1 N1 C1 170.9(4) 8_655 . . . ?
N4 Cu1 N1 C1 -72.8(4) 5_566 . . . ?
S1 Cu1 N1 C1 49.2(4) . . . . ?
C5 N1 C1 C2 -5.9(8) . . . . ?
Cu1 N1 C1 C2 173.9(4) . . . . ?
N1 C1 C2 C3 2.6(8) . . . . ?
C1 C2 C3 C4 2.4(7) . . . . ?
C1 C2 C3 C6 -175.3(4) . . . . ?
C2 C3 C4 C5 -3.7(7) . . . . ?
C6 C3 C4 C5 174.0(4) . . . . ?
C1 N1 C5 C4 4.4(8) . . . . ?
Cu1 N1 C5 C4 -175.5(4) . . . . ?
C3 C4 C5 N1 0.3(8) . . . . ?
C8 N2 C6 O1 11.8(6) . . . . ?
C8 N2 C6 C3 -167.9(3) . . . . ?
C2 C3 C6 O1 15.1(6) . . . . ?
C4 C3 C6 O1 -162.5(4) . . . . ?
C2 C3 C6 N2 -165.1(4) . . . . ?
C4 C3 C6 N2 17.2(6) . . . . ?
C6 N2 C8 C13 57.8(5) . . . . ?
C6 N2 C8 C9 -124.5(4) . . . . ?
C13 C8 C9 C10 -1.7(6) . . . . ?
N2 C8 C9 C10 -179.4(4) . . . . ?
C8 C9 C10 C11 -0.4(7) . . . . ?
C9 C10 C11 C12 0.9(8) . . . . ?
C10 C11 C12 C13 0.7(7) . . . . ?
C11 C12 C13 C8 -2.7(6) . . . . ?
C11 C12 C13 N3 177.9(4) . . . . ?
C9 C8 C13 C12 3.2(6) . . . . ?
N2 C8 C13 C12 -179.1(4) . . . . ?
C9 C8 C13 N3 -177.5(4) . . . . ?
N2 C8 C13 N3 0.3(6) . . . . ?
C14 N3 C13 C12 -118.8(4) . . . . ?
C14 N3 C13 C8 61.8(5) . . . . ?
C13 N3 C14 O2 -1.0(6) . . . . ?
C13 N3 C14 C15 177.4(3) . . . . ?
O2 C14 C15 C19 22.3(6) . . . . ?
N3 C14 C15 C19 -156.3(4) . . . . ?
O2 C14 C15 C16 -157.3(4) . . . . ?
N3 C14 C15 C16 24.2(6) . . . . ?
C19 C15 C16 C17 1.3(7) . . . . ?
C14 C15 C16 C17 -179.2(4) . . . . ?
C18 N4 C17 C16 -1.6(8) . . . . ?
Cu1 N4 C17 C16 170.1(4) 5_566 . . . ?
C15 C16 C17 N4 0.5(8) . . . . ?
C17 N4 C18 C19 1.0(8) . . . . ?
Cu1 N4 C18 C19 -170.3(4) 5_566 . . . ?
C16 C15 C19 C18 -1.8(7) . . . . ?
C14 C15 C19 C18 178.6(4) . . . . ?
N4 C18 C19 C15 0.7(8) . . . . ?
Cu1 N5 C20 S1 -79(8) 8_656 . . . ?
Cu1 S1 C20 N5 23(8) . . . . ?

_diffrn_measured_fraction_theta_max 0.997
_diffrn_reflns_theta_full        25.50
_diffrn_measured_fraction_theta_full 0.997
_refine_diff_density_max         0.947
_refine_diff_density_min         -0.451
_refine_diff_density_rms         0.125
