####################################################################### 
# 
# This file contains crystal structure data downloaded from the 
# Cambridge Structural Database (CSD) hosted by the Cambridge 
# Crystallographic Data Centre (CCDC).
# 
# Full information about CCDC data access policies and citation 
# guidelines are available at http://www.ccdc.cam.ac.uk/access/V1 
# 
# Audit and citation data items may have been added by the CCDC. 
# Please retain this information to preserve the provenance of 
# this file and to allow appropriate attribution of the data. 
# 
#######################################################################

data_8Yb
_audit_block_doi                 10.5517/cc11b4dx
_database_code_depnum_ccdc_archive 'CCDC 963058'
loop_
_citation_id
_citation_doi
_citation_year
1 10.1002/jccs.201400116 2014
_audit_update_record             
;
2013-09-25 deposited with the CCDC.	2024-07-13 downloaded from the CCDC.
;
#=======================================================================   

_audit_creation_method           SHELXL-97
_chemical_name_systematic        
; 
 ? 
;
_chemical_name_common            ?
_chemical_melting_point          ?
_chemical_formula_moiety         ?
_chemical_formula_sum            'C72 H286 N18 O24 Yb2'
_chemical_formula_weight         1933.68

loop_
_atom_type_symbol
_atom_type_description
_atom_type_scat_dispersion_real
_atom_type_scat_dispersion_imag
_atom_type_scat_source
C C 0.0033 0.0016 'International Tables Vol C Tables 4.2.6.8 and 6.1.1.4'
H H 0.0000 0.0000 'International Tables Vol C Tables 4.2.6.8 and 6.1.1.4'
N N 0.0061 0.0033 'International Tables Vol C Tables 4.2.6.8 and 6.1.1.4'
O O 0.0106 0.0060 'International Tables Vol C Tables 4.2.6.8 and 6.1.1.4'
Yb Yb -0.3850 5.5486 'International Tables Vol C Tables 4.2.6.8 and 6.1.1.4'

_symmetry_cell_setting           cubic
_symmetry_space_group_name_H-M   'P 21 3'
_symmetry_space_group_name_Hall  'P 2ac 2ab 3'

loop_
_symmetry_equiv_pos_as_xyz
'x, y, z'
'-x+1/2, -y, z+1/2'
'-x, y+1/2, -z+1/2'
'x+1/2, -y+1/2, -z'
'z, x, y'
'z+1/2, -x+1/2, -y'
'-z+1/2, -x, y+1/2'
'-z, x+1/2, -y+1/2'
'y, z, x'
'-y, z+1/2, -x+1/2'
'y+1/2, -z+1/2, -x'
'-y+1/2, -z, x+1/2'

_cell_length_a                   20.3177(13)
_cell_length_b                   20.3177(13)
_cell_length_c                   20.3177(13)
_cell_angle_alpha                90.00
_cell_angle_beta                 90.00
_cell_angle_gamma                90.00
_cell_volume                     8387.3(9)
_cell_formula_units_Z            4
_cell_measurement_temperature    173(2)
_cell_measurement_reflns_used    998
_cell_measurement_theta_min      -23.529
_cell_measurement_theta_max      23.529

_exptl_crystal_description       ?
_exptl_crystal_colour            ?
_exptl_crystal_size_max          0.07
_exptl_crystal_size_mid          0.07
_exptl_crystal_size_min          0.06
_exptl_crystal_density_meas      ?
_exptl_crystal_density_diffrn    1.531
_exptl_crystal_density_method    'not measured'
_exptl_crystal_F_000             3904
_exptl_absorpt_coefficient_mu    2.299
_exptl_absorpt_correction_type   Empirical
_exptl_absorpt_correction_T_min  0.8593
_exptl_absorpt_correction_T_max  0.8668
_exptl_absorpt_process_details   SADABS

_exptl_special_details           
; 
 ? 
;

_diffrn_ambient_temperature      173(2)
_diffrn_radiation_wavelength     0.71073
_diffrn_radiation_type           MoK\a
_diffrn_radiation_source         'fine-focus sealed tube'
_diffrn_radiation_monochromator  graphite
_diffrn_measurement_device_type  'Bruker Smart Apex'
_diffrn_measurement_method       'phi-omega scan'
_diffrn_detector_area_resol_mean ?
_diffrn_standards_number         ?
_diffrn_standards_interval_count ?
_diffrn_standards_interval_time  ?
_diffrn_standards_decay_%        0
_diffrn_reflns_number            46112
_diffrn_reflns_av_R_equivalents  0.0416
_diffrn_reflns_av_sigmaI/netI    0.0249
_diffrn_reflns_limit_h_min       -24
_diffrn_reflns_limit_h_max       20
_diffrn_reflns_limit_k_min       -24
_diffrn_reflns_limit_k_max       24
_diffrn_reflns_limit_l_min       -24
_diffrn_reflns_limit_l_max       24
_diffrn_reflns_theta_min         3.17
_diffrn_reflns_theta_max         25.48
_reflns_number_total             5216
_reflns_number_gt                4547
_reflns_threshold_expression     >2sigma(I)

_computing_data_collection       'BRUKER SMART'
_computing_cell_refinement       'BRUKER SMART'
_computing_data_reduction        'BRUKER SAINT'
_computing_structure_solution    'SHELXS-97 (Sheldrick, 1990)'
_computing_structure_refinement  'SHELXL-97 (Sheldrick, 1997)'
_computing_molecular_graphics    Ortep-3
_computing_publication_material  'Wingx publication routines (Farrugia, 1999)'

_refine_special_details          
; 
 Refinement of F^2^ against ALL reflections.  The weighted R-factor wR and 
 goodness of fit S are based on F^2^, conventional R-factors R are based 
 on F, with F set to zero for negative F^2^. The threshold expression of 
 F^2^ > 2sigma(F^2^) is used only for calculating R-factors(gt) etc. and is 
 not relevant to the choice of reflections for refinement.  R-factors based 
 on F^2^ are statistically about twice as large as those based on F, and R- 
 factors based on ALL data will be even larger. 
;

_refine_ls_structure_factor_coef Fsqd
_refine_ls_matrix_type           full
_refine_ls_weighting_scheme      calc
_refine_ls_weighting_details     
'calc w=1/[\s^2^(Fo^2^)+(0.0678P)^2^+75.9188P] where P=(Fo^2^+2Fc^2^)/3'
_atom_sites_solution_primary     direct
_atom_sites_solution_secondary   difmap
_atom_sites_solution_hydrogens   geom
_refine_ls_hydrogen_treatment    mixed
_refine_ls_extinction_method     none
_refine_ls_extinction_coef       ?
_refine_ls_abs_structure_details 'Flack H D (1983), Acta Cryst. A39, 876-881'
_refine_ls_abs_structure_Flack   0.0(14)
_refine_ls_number_reflns         5216
_refine_ls_number_parameters     361
_refine_ls_number_restraints     633
_refine_ls_R_factor_all          0.0729
_refine_ls_R_factor_gt           0.0627
_refine_ls_wR_factor_ref         0.1746
_refine_ls_wR_factor_gt          0.1670
_refine_ls_goodness_of_fit_ref   1.146
_refine_ls_restrained_S_all      1.111
_refine_ls_shift/su_max          0.003
_refine_ls_shift/su_mean         0.001

loop_
_atom_site_label
_atom_site_type_symbol
_atom_site_fract_x
_atom_site_fract_y
_atom_site_fract_z
_atom_site_U_iso_or_equiv
_atom_site_adp_type
_atom_site_occupancy
_atom_site_symmetry_multiplicity
_atom_site_calc_flag
_atom_site_refinement_flags
_atom_site_disorder_assembly
_atom_site_disorder_group
Yb1 Yb 0.15627(2) 0.84373(2) 0.34373(2) 0.0317(2) Uani 1 3 d S . .
Yb2 Yb 0.34236(3) 0.65764(3) 0.15764(3) 0.0377(3) Uani 1 3 d S . .
O1 O 0.1297(4) 0.8146(4) 0.2441(4) 0.036(2) Uani 1 1 d U . .
O2 O 0.0474(5) 0.8839(4) 0.2156(5) 0.046(3) Uani 1 1 d U . .
O3 O 0.2419(4) 0.6269(5) 0.1808(4) 0.040(2) Uani 1 1 d U . .
O4 O 0.2120(4) 0.5501(5) 0.1138(4) 0.038(2) Uani 1 1 d U . .
O5 O 0.2659(6) 0.7341(6) 0.2341(6) 0.096(5) Uani 1 3 d SU . .
H5A H 0.2544 0.7143 0.2780 0.144 Uiso 0.33 1 d PU . .
H5B H 0.2220 0.7456 0.2143 0.144 Uiso 0.33 1 d PU . .
O6 O 0.1696(5) 0.8673(5) 0.4497(4) 0.049(3) Uani 1 1 d . . .
O7 O 0.3319(5) 0.6319(5) 0.0511(5) 0.047(2) Uani 1 1 d U . .
O1W O 0.2061(10) 0.7061(10) 0.7939(10) 0.180(9) Uani 1 3 d SU . .
O2W O 0.3071(9) 0.8071(9) 0.6929(9) 0.179(9) Uani 1 3 d SU . .
O3W O 0.177(2) 0.723(2) 0.686(2) 0.180(9) Uani 0.50 1 d PU . .
O4W O 0.2400(14) 0.3669(13) 0.1962(13) 0.106(8) Uani 0.50 1 d PU . .
N1 N -0.0030(4) 0.6559(5) 0.0089(4) 0.0264(19) Uani 1 1 d U . .
H1 H -0.0392 0.6700 -0.0104 0.032 Uiso 1 1 calc R . .
N2 N -0.0092(5) 0.5776(5) -0.0700(5) 0.026(2) Uani 1 1 d U . .
N3 N 0.0126(4) 0.4940(4) 0.3516(4) 0.0279(19) Uani 1 1 d U . .
H3 H -0.0020 0.4544 0.3421 0.033 Uiso 1 1 calc R . .
N4 N 0.0124(5) 0.5726(5) 0.4305(5) 0.028(2) Uani 1 1 d U . .
N5 N 0.1935(8) 0.9078(7) 0.5473(7) 0.064(4) Uani 1 1 d U . .
N6 N 0.3093(7) 0.5805(7) -0.0431(6) 0.060(4) Uani 1 1 d D . .
C1 C 0.0779(6) 0.8315(5) 0.2090(6) 0.0282(18) Uani 1 1 d U . .
C2 C 0.0576(6) 0.7838(5) 0.1548(6) 0.0260(17) Uani 1 1 d U . .
C3 C 0.0118(6) 0.7992(6) 0.1168(6) 0.0337(18) Uani 1 1 d U . .
H3A H -0.0089 0.8409 0.1211 0.040 Uiso 1 1 calc R . .
C4 C -0.0094(6) 0.7549(6) 0.0675(6) 0.0308(17) Uani 1 1 d U . .
H4 H -0.0429 0.7686 0.0379 0.037 Uiso 1 1 calc R . .
C5 C 0.0167(6) 0.6929(5) 0.0609(6) 0.0251(17) Uani 1 1 d U . .
C6 C 0.0733(6) 0.6798(5) 0.0998(5) 0.0266(16) Uani 1 1 d U . .
H6 H 0.0982 0.6409 0.0927 0.032 Uiso 1 1 calc R . .
C7 C 0.0921(5) 0.7241(5) 0.1484(6) 0.0263(16) Uani 1 1 d U . .
H7 H 0.1278 0.7142 0.1769 0.032 Uiso 1 1 calc R . .
C8 C 0.0242(5) 0.5988(5) -0.0198(5) 0.0202(18) Uani 1 1 d U . .
C9 C 0.2065(6) 0.5804(6) 0.1647(6) 0.0316(17) Uani 1 1 d U . .
C10 C 0.1594(6) 0.5588(6) 0.2157(6) 0.0300(17) Uani 1 1 d U . .
C11 C 0.1535(6) 0.5870(6) 0.2759(6) 0.0316(18) Uani 1 1 d U . .
H11 H 0.1832 0.6213 0.2872 0.038 Uiso 1 1 calc R . .
C12 C 0.1063(5) 0.5686(6) 0.3221(6) 0.0292(17) Uani 1 1 d U . .
H12 H 0.1051 0.5888 0.3642 0.035 Uiso 1 1 calc R . .
C13 C 0.0613(6) 0.5206(6) 0.3055(6) 0.0280(17) Uani 1 1 d U . .
C14 C 0.0704(6) 0.4814(6) 0.2490(6) 0.0337(18) Uani 1 1 d U . .
H14 H 0.0458 0.4420 0.2433 0.040 Uiso 1 1 calc R . .
C15 C 0.1140(6) 0.5003(5) 0.2037(6) 0.0329(18) Uani 1 1 d U . .
H15 H 0.1168 0.4770 0.1632 0.039 Uiso 1 1 calc R . .
C16 C -0.0121(6) 0.5202(6) 0.4043(5) 0.025(2) Uani 1 1 d U . .
C17 C 0.2074(8) 0.8719(7) 0.4956(7) 0.048(3) Uani 1 1 d U . .
C18 C 0.2695(9) 0.8344(9) 0.5016(8) 0.070(4) Uani 1 1 d DU . .
H18A H 0.2769 0.8091 0.4612 0.105 Uiso 1 1 calc RU . .
H18B H 0.2665 0.8043 0.5392 0.105 Uiso 1 1 calc RU . .
H18C H 0.3061 0.8650 0.5084 0.105 Uiso 1 1 calc RU . .
C19 C 0.1260(9) 0.9506(9) 0.5334(8) 0.072(4) Uani 1 1 d U . .
H19A H 0.1176 0.9524 0.4860 0.108 Uiso 1 1 calc RU . .
H19B H 0.1316 0.9954 0.5505 0.108 Uiso 1 1 calc RU . .
H19C H 0.0887 0.9295 0.5556 0.108 Uiso 1 1 calc RU . .
C20 C 0.2400(9) 0.9195(9) 0.6017(8) 0.077(4) Uani 1 1 d DU . .
H20A H 0.2763 0.8879 0.5989 0.115 Uiso 1 1 calc RU . .
H20B H 0.2172 0.9142 0.6438 0.115 Uiso 1 1 calc RU . .
H20C H 0.2576 0.9644 0.5984 0.115 Uiso 1 1 calc RU . .
C21 C 0.2923(10) 0.6224(9) 0.0025(9) 0.064(4) Uani 1 1 d U . .
C22 C 0.2271(8) 0.6579(8) 0.0054(8) 0.062(3) Uani 1 1 d U . .
H22A H 0.1925 0.6270 0.0186 0.093 Uiso 1 1 calc RU . .
H22B H 0.2167 0.6761 -0.0380 0.093 Uiso 1 1 calc RU . .
H22C H 0.2297 0.6938 0.0376 0.093 Uiso 1 1 calc RU . .
C23 C 0.2794(9) 0.5657(9) -0.1041(7) 0.073(4) Uani 1 1 d DU . .
H23A H 0.2335 0.5808 -0.1036 0.109 Uiso 1 1 calc RU . .
H23B H 0.2805 0.5181 -0.1114 0.109 Uiso 1 1 calc RU . .
H23C H 0.3032 0.5880 -0.1396 0.109 Uiso 1 1 calc RU . .
C24 C 0.3707(10) 0.5554(10) -0.0527(10) 0.081(4) Uani 1 1 d U . .
H24A H 0.3974 0.5627 -0.0133 0.122 Uiso 1 1 calc RU . .
H24D H 0.3913 0.5773 -0.0904 0.122 Uiso 1 1 calc RU . .
H24B H 0.3674 0.5080 -0.0614 0.122 Uiso 1 1 calc RU . .

loop_
_atom_site_aniso_label
_atom_site_aniso_U_11
_atom_site_aniso_U_22
_atom_site_aniso_U_33
_atom_site_aniso_U_23
_atom_site_aniso_U_13
_atom_site_aniso_U_12
Yb1 0.0317(2) 0.0317(2) 0.0317(2) -0.0005(2) 0.0005(2) 0.0005(2)
Yb2 0.0377(3) 0.0377(3) 0.0377(3) 0.0148(3) -0.0148(3) -0.0148(3)
O1 0.047(5) 0.033(4) 0.028(4) -0.014(3) -0.018(4) -0.003(4)
O2 0.073(6) 0.017(4) 0.050(5) -0.013(4) -0.026(5) 0.019(4)
O3 0.036(4) 0.050(5) 0.034(4) -0.008(4) -0.001(4) 0.000(4)
O4 0.021(4) 0.064(6) 0.029(4) -0.006(4) 0.001(3) -0.002(4)
O5 0.096(5) 0.096(5) 0.096(5) -0.005(5) 0.005(5) 0.005(5)
O6 0.062(6) 0.064(6) 0.022(4) 0.000(4) -0.009(4) -0.028(5)
O7 0.038(5) 0.058(5) 0.045(5) -0.005(4) -0.008(4) 0.005(4)
O1W 0.180(9) 0.180(9) 0.180(9) 0.042(9) 0.042(9) -0.042(9)
O2W 0.179(9) 0.179(9) 0.179(9) 0.043(8) 0.043(8) -0.043(8)
O3W 0.178(11) 0.179(10) 0.182(10) 0.042(10) 0.043(10) -0.044(10)
O4W 0.124(16) 0.094(14) 0.099(14) -0.012(12) -0.041(13) -0.032(13)
N1 0.026(2) 0.026(2) 0.027(2) -0.0005(10) -0.0012(10) 0.0012(10)
N2 0.024(4) 0.024(4) 0.029(4) -0.005(4) -0.007(4) 0.006(4)
N3 0.033(4) 0.032(4) 0.018(4) -0.006(3) 0.013(3) -0.014(3)
N4 0.039(5) 0.024(4) 0.021(4) -0.002(4) 0.012(4) -0.010(4)
N5 0.077(7) 0.068(7) 0.048(6) -0.013(6) -0.006(6) -0.017(6)
N6 0.077(9) 0.052(7) 0.052(8) -0.001(6) 0.007(7) -0.004(6)
C1 0.039(4) 0.021(3) 0.025(3) -0.004(3) -0.004(3) -0.002(3)
C2 0.036(3) 0.017(3) 0.026(3) -0.007(3) -0.003(3) 0.002(3)
C3 0.042(4) 0.025(3) 0.033(3) -0.014(3) -0.011(3) 0.004(3)
C4 0.035(3) 0.026(3) 0.031(3) -0.007(3) -0.008(3) 0.009(3)
C5 0.031(3) 0.019(3) 0.025(3) -0.008(3) -0.006(3) 0.004(3)
C6 0.033(3) 0.021(3) 0.026(3) -0.010(3) -0.004(3) 0.007(3)
C7 0.028(3) 0.024(3) 0.027(3) -0.005(3) -0.006(3) 0.005(3)
C8 0.024(4) 0.018(3) 0.018(3) -0.005(3) -0.001(3) 0.007(3)
C9 0.029(3) 0.038(3) 0.028(3) 0.000(3) -0.002(3) 0.001(3)
C10 0.026(3) 0.034(3) 0.030(3) -0.005(3) 0.001(3) -0.007(3)
C11 0.027(3) 0.035(3) 0.032(3) -0.007(3) 0.000(3) -0.008(3)
C12 0.027(3) 0.033(3) 0.027(3) -0.003(3) 0.000(3) -0.009(3)
C13 0.025(3) 0.029(3) 0.030(3) -0.001(3) 0.002(3) -0.009(3)
C14 0.034(3) 0.033(3) 0.034(3) -0.007(3) 0.002(3) -0.014(3)
C15 0.033(3) 0.035(4) 0.031(3) -0.010(3) 0.005(3) -0.013(3)
C16 0.023(4) 0.024(4) 0.028(4) 0.004(3) -0.003(3) -0.006(3)
C17 0.048(6) 0.048(6) 0.047(6) 0.000(5) -0.005(5) -0.014(5)
C18 0.064(7) 0.073(8) 0.073(8) 0.012(7) -0.005(6) -0.004(7)
C19 0.068(7) 0.088(8) 0.060(7) -0.023(7) 0.013(6) 0.013(7)
C20 0.083(8) 0.092(8) 0.056(7) -0.009(7) -0.009(6) -0.007(7)
C21 0.068(7) 0.061(6) 0.062(7) 0.008(6) 0.012(6) -0.013(6)
C22 0.051(6) 0.060(6) 0.076(7) 0.011(6) -0.006(5) 0.009(5)
C23 0.087(8) 0.064(7) 0.067(7) 0.000(6) -0.003(7) -0.012(7)
C24 0.082(8) 0.082(8) 0.079(8) -0.019(7) 0.003(7) -0.009(7)

_geom_special_details            
; 
 All esds (except the esd in the dihedral angle between two l.s. planes) 
 are estimated using the full covariance matrix.  The cell esds are taken 
 into account individually in the estimation of esds in distances, angles 
 and torsion angles; correlations between esds in cell parameters are only 
 used when they are defined by crystal symmetry.  An approximate (isotropic) 
 treatment of cell esds is used for estimating esds involving l.s. planes. 
;

loop_
_geom_bond_atom_site_label_1
_geom_bond_atom_site_label_2
_geom_bond_distance
_geom_bond_site_symmetry_2
_geom_bond_publ_flag
Yb1 O1 2.177(7) . ?
Yb1 O1 2.177(7) 10_655 ?
Yb1 O1 2.177(8) 7_564 ?
Yb1 O6 2.222(8) 7_564 ?
Yb1 O6 2.222(8) . ?
Yb1 O6 2.222(8) 10_655 ?
Yb1 C1 3.177(11) 7_564 ?
Yb1 C1 3.177(11) 10_655 ?
Yb2 O3 2.185(9) 10_655 ?
Yb2 O3 2.185(9) . ?
Yb2 O3 2.185(9) 7_564 ?
Yb2 O7 2.237(9) . ?
Yb2 O7 2.237(9) 10_655 ?
Yb2 O7 2.237(9) 7_564 ?
Yb2 O5 2.69(2) . ?
Yb2 C9 3.179(12) 10_655 ?
Yb2 C9 3.179(12) 7_564 ?
O1 C1 1.318(14) . ?
O2 C1 1.239(14) . ?
O3 C9 1.232(14) . ?
O4 C9 1.209(15) . ?
O6 C17 1.211(17) . ?
O7 C21 1.29(2) . ?
N1 C5 1.358(14) . ?
N1 C8 1.411(13) . ?
N2 C8 1.300(14) . ?
N2 C8 1.366(14) 8 ?
N3 C16 1.298(14) . ?
N3 C13 1.466(14) . ?
N4 C16 1.290(15) . ?
N4 C16 1.420(14) 12_565 ?
N5 C17 1.310(19) . ?
N5 C20 1.47(2) . ?
N5 C19 1.65(2) . ?
N6 C21 1.30(2) . ?
N6 C24 1.36(2) . ?
N6 C23 1.413(15) . ?
C1 C2 1.524(15) . ?
C2 C3 1.248(16) . ?
C2 C7 1.407(14) . ?
C3 C4 1.414(16) . ?
C4 C5 1.375(16) . ?
C5 C6 1.420(16) . ?
C6 C7 1.388(15) . ?
C8 N2 1.366(14) 11_455 ?
C9 C10 1.476(17) . ?
C10 C11 1.356(15) . ?
C10 C15 1.525(15) . ?
C11 C12 1.392(16) . ?
C12 C13 1.379(16) . ?
C13 C14 1.410(17) . ?
C14 C15 1.335(17) . ?
C16 N4 1.420(14) 6_456 ?
C17 C18 1.48(2) . ?
C21 C22 1.51(2) . ?

loop_
_geom_angle_atom_site_label_1
_geom_angle_atom_site_label_2
_geom_angle_atom_site_label_3
_geom_angle
_geom_angle_site_symmetry_1
_geom_angle_site_symmetry_3
_geom_angle_publ_flag
O1 Yb1 O1 92.6(3) . 10_655 ?
O1 Yb1 O1 92.6(3) . 7_564 ?
O1 Yb1 O1 92.6(3) 10_655 7_564 ?
O1 Yb1 O6 85.8(4) . 7_564 ?
O1 Yb1 O6 95.6(3) 10_655 7_564 ?
O1 Yb1 O6 171.7(4) 7_564 7_564 ?
O1 Yb1 O6 171.7(4) . . ?
O1 Yb1 O6 85.8(4) 10_655 . ?
O1 Yb1 O6 95.6(3) 7_564 . ?
O6 Yb1 O6 86.3(4) 7_564 . ?
O1 Yb1 O6 95.6(3) . 10_655 ?
O1 Yb1 O6 171.7(4) 10_655 10_655 ?
O1 Yb1 O6 85.8(4) 7_564 10_655 ?
O6 Yb1 O6 86.3(4) 7_564 10_655 ?
O6 Yb1 O6 86.3(4) . 10_655 ?
O1 Yb1 C1 106.1(3) . 7_564 ?
O1 Yb1 C1 104.5(3) 10_655 7_564 ?
O1 Yb1 C1 18.8(3) 7_564 7_564 ?
O6 Yb1 C1 155.9(4) 7_564 7_564 ?
O6 Yb1 C1 82.1(3) . 7_564 ?
O6 Yb1 C1 71.9(3) 10_655 7_564 ?
O1 Yb1 C1 104.5(3) . 10_655 ?
O1 Yb1 C1 18.8(3) 10_655 10_655 ?
O1 Yb1 C1 106.1(3) 7_564 10_655 ?
O6 Yb1 C1 82.1(3) 7_564 10_655 ?
O6 Yb1 C1 71.9(3) . 10_655 ?
O6 Yb1 C1 155.9(4) 10_655 10_655 ?
C1 Yb1 C1 113.82(18) 7_564 10_655 ?
O3 Yb2 O3 97.3(3) 10_655 . ?
O3 Yb2 O3 97.3(3) 10_655 7_564 ?
O3 Yb2 O3 97.3(3) . 7_564 ?
O3 Yb2 O7 168.8(4) 10_655 . ?
O3 Yb2 O7 93.0(3) . . ?
O3 Yb2 O7 85.5(3) 7_564 . ?
O3 Yb2 O7 93.0(3) 10_655 10_655 ?
O3 Yb2 O7 85.5(3) . 10_655 ?
O3 Yb2 O7 168.8(4) 7_564 10_655 ?
O7 Yb2 O7 83.6(4) . 10_655 ?
O3 Yb2 O7 85.5(3) 10_655 7_564 ?
O3 Yb2 O7 168.8(4) . 7_564 ?
O3 Yb2 O7 93.0(3) 7_564 7_564 ?
O7 Yb2 O7 83.6(4) . 7_564 ?
O7 Yb2 O7 83.6(4) 10_655 7_564 ?
O3 Yb2 O5 60.1(2) 10_655 . ?
O3 Yb2 O5 60.1(2) . . ?
O3 Yb2 O5 60.1(2) 7_564 . ?
O7 Yb2 O5 129.7(2) . . ?
O7 Yb2 O5 129.7(2) 10_655 . ?
O7 Yb2 O5 129.7(2) 7_564 . ?
O3 Yb2 C9 15.9(3) 10_655 10_655 ?
O3 Yb2 C9 106.7(3) . 10_655 ?
O3 Yb2 C9 108.2(3) 7_564 10_655 ?
O7 Yb2 C9 153.9(3) . 10_655 ?
O7 Yb2 C9 81.1(4) 10_655 10_655 ?
O7 Yb2 C9 73.8(3) 7_564 10_655 ?
O5 Yb2 C9 76.0(2) . 10_655 ?
O3 Yb2 C9 106.7(3) 10_655 7_564 ?
O3 Yb2 C9 108.2(3) . 7_564 ?
O3 Yb2 C9 15.9(3) 7_564 7_564 ?
O7 Yb2 C9 73.8(3) . 7_564 ?
O7 Yb2 C9 153.9(3) 10_655 7_564 ?
O7 Yb2 C9 81.1(3) 7_564 7_564 ?
O5 Yb2 C9 76.0(2) . 7_564 ?
C9 Yb2 C9 114.32(18) 10_655 7_564 ?
C1 O1 Yb1 129.1(7) . . ?
C9 O3 Yb2 135.1(8) . . ?
C17 O6 Yb1 147.1(11) . . ?
C21 O7 Yb2 146.8(11) . . ?
C5 N1 C8 131.3(10) . . ?
C8 N2 C8 111.9(10) . 8 ?
C16 N3 C13 129.6(10) . . ?
C16 N4 C16 115.5(11) . 12_565 ?
C17 N5 C20 123.5(16) . . ?
C17 N5 C19 109.6(13) . . ?
C20 N5 C19 125.3(13) . . ?
C21 N6 C24 126.1(16) . . ?
C21 N6 C23 130.4(17) . . ?
C24 N6 C23 100.9(14) . . ?
O2 C1 O1 124.4(10) . . ?
O2 C1 C2 119.4(11) . . ?
O1 C1 C2 116.2(10) . . ?
C3 C2 C7 122.0(11) . . ?
C3 C2 C1 119.2(10) . . ?
C7 C2 C1 118.8(10) . . ?
C2 C3 C4 120.3(11) . . ?
C5 C4 C3 122.4(11) . . ?
N1 C5 C4 118.0(11) . . ?
N1 C5 C6 124.7(10) . . ?
C4 C5 C6 115.4(10) . . ?
C7 C6 C5 119.8(10) . . ?
C6 C7 C2 119.2(10) . . ?
N2 C8 N2 127.8(10) . 11_455 ?
N2 C8 N