####################################################################### 
# 
# This file contains crystal structure data downloaded from the 
# Cambridge Structural Database (CSD) hosted by the Cambridge 
# Crystallographic Data Centre (CCDC).
# 
# Full information about CCDC data access policies and citation 
# guidelines are available at http://www.ccdc.cam.ac.uk/access/V1 
# 
# Audit and citation data items may have been added by the CCDC. 
# Please retain this information to preserve the provenance of 
# this file and to allow appropriate attribution of the data. 
# 
#######################################################################

data_1
_audit_block_doi                 10.5517/cc11fcc6
_database_code_depnum_ccdc_archive 'CCDC 966157'
loop_
_citation_id
_citation_doi
_citation_year
1 10.1016/j.inoche.2015.03.028 2015
_audit_update_record             
;
2013-10-12 deposited with the CCDC.	2024-07-13 downloaded from the CCDC.
;

_audit_creation_method           SHELXL-97
_chemical_name_systematic        
; 
 ? 
;
_chemical_name_common            ?
_chemical_melting_point          ?
_chemical_formula_moiety         ?
_chemical_formula_sum            'C18 H19 Cu N3 O7'
_chemical_formula_weight         452.90

loop_
_atom_type_symbol
_atom_type_description
_atom_type_scat_dispersion_real
_atom_type_scat_dispersion_imag
_atom_type_scat_source
C C 0.0033 0.0016 'International Tables Vol C Tables 4.2.6.8 and 6.1.1.4'
H H 0.0000 0.0000 'International Tables Vol C Tables 4.2.6.8 and 6.1.1.4'
N N 0.0061 0.0033 'International Tables Vol C Tables 4.2.6.8 and 6.1.1.4'
O O 0.0106 0.0060 'International Tables Vol C Tables 4.2.6.8 and 6.1.1.4'
Cu Cu 0.3201 1.2651 'International Tables Vol C Tables 4.2.6.8 and 6.1.1.4'

_symmetry_cell_setting           Monoclinic
_symmetry_space_group_name_H-M   P2(1)/c
_symmetry_space_group_name_Hall  '-P 2ybc'

loop_
_symmetry_equiv_pos_as_xyz
'x, y, z'
'-x, y+1/2, -z+1/2'
'-x, -y, -z'
'x, -y-1/2, z-1/2'

_cell_length_a                   13.882(2)
_cell_length_b                   13.365(3)
_cell_length_c                   14.209(2)
_cell_angle_alpha                90.00
_cell_angle_beta                 112.046(2)
_cell_angle_gamma                90.00
_cell_volume                     2443.5(7)
_cell_formula_units_Z            4
_cell_measurement_temperature    291(2)
_cell_measurement_reflns_used    3641
_cell_measurement_theta_min      2.12
_cell_measurement_theta_max      25.26

_exptl_crystal_description       block
_exptl_crystal_colour            blue
_exptl_crystal_size_max          0.26
_exptl_crystal_size_mid          0.22
_exptl_crystal_size_min          0.16
_exptl_crystal_density_meas      ?
_exptl_crystal_density_diffrn    1.231
_exptl_crystal_density_method    'not measured'
_exptl_crystal_F_000             932
_exptl_absorpt_coefficient_mu    0.931
_exptl_absorpt_correction_type   multi-scan
_exptl_absorpt_correction_T_min  0.7939
_exptl_absorpt_correction_T_max  0.8654
_exptl_absorpt_process_details   'SADABS; Bruker, 2000'

_exptl_special_details           
; 
 ? 
;

_diffrn_ambient_temperature      291(2)
_diffrn_radiation_wavelength     0.71069
_diffrn_radiation_type           MoK\a
_diffrn_radiation_source         'fine-focus sealed tube'
_diffrn_radiation_monochromator  graphite
_diffrn_measurement_device_type  'Bruker Smart Aepex CCD'
_diffrn_measurement_method       'phi and omega scans'
_diffrn_detector_area_resol_mean ?
_diffrn_standards_number         ?
_diffrn_standards_interval_count ?
_diffrn_standards_interval_time  ?
_diffrn_standards_decay_%        ?
_diffrn_reflns_number            12931
_diffrn_reflns_av_R_equivalents  0.0384
_diffrn_reflns_av_sigmaI/netI    0.0636
_diffrn_reflns_limit_h_min       -16
_diffrn_reflns_limit_h_max       17
_diffrn_reflns_limit_k_min       -16
_diffrn_reflns_limit_k_max       16
_diffrn_reflns_limit_l_min       -10
_diffrn_reflns_limit_l_max       17
_diffrn_reflns_theta_min         2.17
_diffrn_reflns_theta_max         26.00
_reflns_number_total             4785
_reflns_number_gt                3528
_reflns_threshold_expression     >2sigma(I)

_computing_data_collection       'SMART (Bruker, 2000)'
_computing_cell_refinement       SMART
_computing_data_reduction        'SAINT (Bruker, 2000)'
_computing_structure_solution    'SHELXTL (Bruker, 2000)'
_computing_structure_refinement  SHELXTL
_computing_molecular_graphics    SHELXTL
_computing_publication_material  SHELXTL

_refine_special_details          
; 
 Refinement of F^2^ against ALL reflections.  The weighted R-factor wR and 
 goodness of fit S are based on F^2^, conventional R-factors R are based 
 on F, with F set to zero for negative F^2^. The threshold expression of 
 F^2^ > 2sigma(F^2^) is used only for calculating R-factors(gt) etc. and is 
 not relevant to the choice of reflections for refinement.  R-factors based 
 on F^2^ are statistically about twice as large as those based on F, and R- 
 factors based on ALL data will be even larger. 
;

_refine_ls_structure_factor_coef Fsqd
_refine_ls_matrix_type           full
_refine_ls_weighting_scheme      calc
_refine_ls_weighting_details     
'calc w=1/[\s^2^(Fo^2^)+(0.0772P)^2^+0.2737P] where P=(Fo^2^+2Fc^2^)/3'
_atom_sites_solution_primary     direct
_atom_sites_solution_secondary   difmap
_atom_sites_solution_hydrogens   geom
_refine_ls_hydrogen_treatment    constr
_refine_ls_extinction_method     none
_refine_ls_extinction_coef       ?
_refine_ls_number_reflns         4785
_refine_ls_number_parameters     280
_refine_ls_number_restraints     0
_refine_ls_R_factor_all          0.0936
_refine_ls_R_factor_gt           0.0604
_refine_ls_wR_factor_ref         0.1518
_refine_ls_wR_factor_gt          0.1331
_refine_ls_goodness_of_fit_ref   1.034
_refine_ls_restrained_S_all      1.034
_refine_ls_shift/su_max          0.000
_refine_ls_shift/su_mean         0.000

loop_
_atom_site_label
_atom_site_type_symbol
_atom_site_fract_x
_atom_site_fract_y
_atom_site_fract_z
_atom_site_U_iso_or_equiv
_atom_site_adp_type
_atom_site_occupancy
_atom_site_symmetry_multiplicity
_atom_site_calc_flag
_atom_site_refinement_flags
_atom_site_disorder_assembly
_atom_site_disorder_group
C1 C 1.2249(3) 0.6953(3) 0.8848(3) 0.0371(10) Uani 1 1 d . . .
H1 H 1.2780 0.7417 0.9124 0.044 Uiso 1 1 calc R . .
C2 C 1.1214(3) 0.7261(3) 0.8468(3) 0.0387(10) Uani 1 1 d . . .
H2 H 1.1048 0.7936 0.8461 0.046 Uiso 1 1 calc R . .
C3 C 1.0447(3) 0.6560(3) 0.8106(3) 0.0365(10) Uani 1 1 d . . .
C4 C 1.0666(3) 0.5542(3) 0.8086(3) 0.0410(10) Uani 1 1 d . . .
H4 H 1.0134 0.5073 0.7847 0.049 Uiso 1 1 calc R . .
C5 C 1.1695(3) 0.5252(3) 0.8431(3) 0.0353(10) Uani 1 1 d . . .
H5 H 1.1859 0.4580 0.8406 0.042 Uiso 1 1 calc R . .
C6 C 0.9344(3) 0.6953(3) 0.7746(3) 0.0328(9) Uani 1 1 d . . .
C7 C 0.7582(3) 0.6555(3) 0.7617(3) 0.0364(10) Uani 1 1 d . . .
C8 C 0.7075(3) 0.6067(3) 0.8147(3) 0.0363(10) Uani 1 1 d . . .
H8 H 0.7434 0.5603 0.8642 0.044 Uiso 1 1 calc R . .
C9 C 0.6041(3) 0.6252(3) 0.7955(3) 0.0361(10) Uani 1 1 d . . .
C10 C 0.5513(3) 0.6969(3) 0.7222(3) 0.0279(8) Uani 1 1 d . . .
H10 H 0.4817 0.7100 0.7092 0.034 Uiso 1 1 calc R . .
C11 C 0.6004(3) 0.7481(3) 0.6692(4) 0.0388(10) Uani 1 1 d . . .
C12 C 0.7061(3) 0.7279(3) 0.6880(3) 0.0296(9) Uani 1 1 d . . .
H12 H 0.7404 0.7615 0.6524 0.036 Uiso 1 1 calc R . .
C13 C 0.5562(3) 0.5763(3) 0.8627(3) 0.0340(10) Uani 1 1 d . . .
C14 C 0.5519(3) 0.8330(3) 0.5979(3) 0.0282(9) Uani 1 1 d . . .
C15 C 0.8572(4) 0.1772(4) 0.9050(4) 0.0529(13) Uani 1 1 d . . .
H15A H 0.9143 0.1586 0.8862 0.079 Uiso 1 1 calc R . .
H15C H 0.7997 0.1329 0.8727 0.079 Uiso 1 1 calc R . .
H15B H 0.8780 0.1725 0.9773 0.079 Uiso 1 1 calc R . .
C16 C 0.7149(4) 0.3092(4) 0.8225(4) 0.0512(13) Uani 1 1 d . . .
H16A H 0.6868 0.3232 0.8735 0.077 Uiso 1 1 calc R . .
H16B H 0.6769 0.2551 0.7805 0.077 Uiso 1 1 calc R . .
H16C H 0.7090 0.3677 0.7815 0.077 Uiso 1 1 calc R . .
C17 C 0.9049(4) 0.3560(4) 0.8936(4) 0.0479(12) Uani 1 1 d . . .
C18 C 1.0182(4) 0.3234(4) 0.9543(4) 0.0486(12) Uani 1 1 d . . .
H18B H 1.0322 0.2619 0.9268 0.073 Uiso 1 1 calc R . .
H18C H 1.0280 0.3137 1.0242 0.073 Uiso 1 1 calc R . .
H18A H 1.0650 0.3743 0.9495 0.073 Uiso 1 1 calc R . .
N1 N 1.2481(3) 0.5941(3) 0.8812(3) 0.0370(9) Uani 1 1 d . . .
N2 N 0.8629(2) 0.6312(2) 0.7821(2) 0.0298(7) Uani 1 1 d . . .
H2A H 0.8825 0.5709 0.8007 0.036 Uiso 1 1 calc R . .
N3 N 0.8257(4) 0.2810(3) 0.8722(3) 0.0521(11) Uani 1 1 d . . .
O5 O 0.9180(2) 0.7833(2) 0.7475(2) 0.0383(7) Uani 1 1 d . . .
O1 O 0.6093(2) 0.5133(2) 0.9239(2) 0.0379(7) Uani 1 1 d . . .
O2 O 0.4656(2) 0.6028(2) 0.8508(2) 0.0371(7) Uani 1 1 d . . .
O4 O 0.4593(2) 0.8235(2) 0.5385(2) 0.0393(7) Uani 1 1 d . . .
O3 O 0.6059(2) 0.9083(2) 0.6023(2) 0.0398(7) Uani 1 1 d . . .
O6 O 0.8912(3) 0.4444(3) 0.8670(3) 0.0500(8) Uani 1 1 d . . .
O1W O 0.3163(8) 0.9788(8) 0.9444(7) 0.042(3) Uani 0.30 1 d P . .
H1A H 0.3129 1.0428 0.9449 0.050 Uiso 0.30 1 d PR . .
H1B H 0.3125 0.9555 0.9987 0.050 Uiso 0.30 1 d PR . .
O2W O 0.0000 1.0000 1.0000 0.0576(17) Uani 0.80 2 d SP . .
H2C H -0.0356 0.9467 0.9938 0.069 Uiso 0.40 1 d PR . .
H2B H 0.0419 0.9922 0.9700 0.069 Uiso 0.40 1 d PR . .
O3W O 0.3688(9) 0.1155(8) 0.0807(8) 0.050(3) Uani 0.30 1 d P . .
H3A H 0.3364 0.1467 0.0256 0.060 Uiso 0.30 1 d PR . .
H3B H 0.4334 0.1198 0.0946 0.060 Uiso 0.30 1 d PR . .
Cu1 Cu 0.59967(4) 0.44686(4) 1.05103(4) 0.03529(17) Uani 1 1 d . . .

loop_
_atom_site_aniso_label
_atom_site_aniso_U_11
_atom_site_aniso_U_22
_atom_site_aniso_U_33
_atom_site_aniso_U_23
_atom_site_aniso_U_13
_atom_site_aniso_U_12
C1 0.028(2) 0.038(2) 0.040(2) 0.0068(19) 0.0063(19) -0.0076(18)
C2 0.030(2) 0.038(2) 0.039(2) 0.0050(19) 0.0010(19) 0.0026(18)
C3 0.028(2) 0.038(2) 0.042(3) 0.0133(19) 0.0119(19) 0.0013(18)
C4 0.030(2) 0.041(2) 0.040(2) 0.007(2) -0.0002(19) 0.008(2)
C5 0.039(2) 0.030(2) 0.040(2) 0.0005(18) 0.018(2) 0.0015(18)
C6 0.030(2) 0.030(2) 0.033(2) 0.0015(17) 0.0052(17) 0.0050(17)
C7 0.030(2) 0.043(3) 0.030(2) 0.0059(19) 0.0055(18) 0.0049(19)
C8 0.033(2) 0.035(2) 0.034(2) 0.0112(18) 0.0054(19) -0.0003(18)
C9 0.027(2) 0.042(2) 0.031(2) 0.0039(19) 0.0016(18) -0.0001(18)
C10 0.0251(19) 0.029(2) 0.0240(19) -0.0052(16) 0.0032(16) -0.0019(16)
C11 0.032(2) 0.039(2) 0.042(3) 0.009(2) 0.010(2) 0.0025(18)
C12 0.032(2) 0.0198(18) 0.035(2) 0.0028(16) 0.0103(18) -0.0101(16)
C13 0.039(2) 0.029(2) 0.031(2) -0.0009(17) 0.0098(19) -0.0006(18)
C14 0.032(2) 0.031(2) 0.0172(18) -0.0042(15) 0.0046(17) -0.0031(17)
C15 0.063(3) 0.045(3) 0.048(3) -0.017(2) 0.018(3) -0.019(2)
C16 0.061(3) 0.049(3) 0.052(3) -0.016(2) 0.030(3) -0.017(2)
C17 0.049(3) 0.047(3) 0.050(3) 0.002(2) 0.021(2) 0.007(2)
C18 0.056(3) 0.055(3) 0.041(3) 0.016(2) 0.025(2) 0.011(2)
N1 0.0241(18) 0.042(2) 0.0325(19) 0.0081(16) -0.0034(15) -0.0045(15)
N2 0.0308(18) 0.0260(17) 0.0281(18) -0.0122(14) 0.0059(14) -0.0038(14)
N3 0.070(3) 0.048(2) 0.042(2) -0.0122(19) 0.025(2) -0.012(2)
O5 0.0332(16) 0.0318(16) 0.0464(18) -0.0040(14) 0.0110(14) -0.0029(13)
O1 0.0401(17) 0.0346(16) 0.0389(17) 0.0034(13) 0.0148(14) 0.0061(13)
O2 0.0296(16) 0.0390(17) 0.0358(17) -0.0014(13) 0.0043(13) 0.0022(13)
O4 0.0333(16) 0.0355(17) 0.0372(17) 0.0018(13) -0.0004(13) 0.0006(13)
O3 0.0374(16) 0.0381(17) 0.0399(17) 0.0104(14) 0.0100(14) -0.0026(14)
O6 0.051(2) 0.043(2) 0.054(2) -0.0064(16) 0.0180(17) -0.0064(16)
O1W 0.046(6) 0.038(5) 0.032(5) 0.027(4) 0.003(5) 0.007(5)
O2W 0.066(4) 0.057(4) 0.049(4) 0.015(3) 0.021(3) 0.009(3)
O3W 0.045(6) 0.047(6) 0.042(6) 0.012(5) -0.001(5) -0.002(5)
Cu1 0.0301(3) 0.0345(3) 0.0328(3) 0.0003(2) 0.0020(2) -0.0007(2)

_geom_special_details            
; 
 All esds (except the esd in the dihedral angle between two l.s. planes) 
 are estimated using the full covariance matrix.  The cell esds are taken 
 into account individually in the estimation of esds in distances, angles 
 and torsion angles; correlations between esds in cell parameters are only 
 used when they are defined by crystal symmetry.  An approximate (isotropic) 
 treatment of cell esds is used for estimating esds involving l.s. planes. 
;

loop_
_geom_bond_atom_site_label_1
_geom_bond_atom_site_label_2
_geom_bond_distance
_geom_bond_site_symmetry_2
_geom_bond_publ_flag
C1 C2 1.394(6) . ?
C1 N1 1.397(6) . ?
C1 H1 0.9300 . ?
C2 C3 1.367(6) . ?
C2 H2 0.9300 . ?
C3 C4 1.396(6) . ?
C3 C6 1.514(6) . ?
C4 C5 1.381(6) . ?
C4 H4 0.9300 . ?
C5 N1 1.374(5) . ?
C5 H5 0.9300 . ?
C6 O5 1.232(5) . ?
C6 N2 1.345(5) . ?
C7 C8 1.374(6) . ?
C7 N2 1.408(5) . ?
C7 C12 1.410(6) . ?
C8 C9 1.380(6) . ?
C8 H8 0.9300 . ?
C9 C10 1.402(6) . ?
C9 C13 1.501(6) . ?
C10 C11 1.372(6) . ?
C10 H10 0.9300 . ?
C11 C12 1.417(6) . ?
C11 C14 1.501(6) . ?
C12 H12 0.9300 . ?
C13 O1 1.237(5) . ?
C13 O2 1.256(5) . ?
C14 O3 1.242(5) . ?
C14 O4 1.252(5) . ?
C15 N3 1.477(7) . ?
C15 H15A 0.9600 . ?
C15 H15C 0.9600 . ?
C15 H15B 0.9600 . ?
C16 N3 1.481(7) . ?
C16 H16A 0.9600 . ?
C16 H16B 0.9600 . ?
C16 H16C 0.9600 . ?
C17 O6 1.234(6) . ?
C17 N3 1.434(7) . ?
C17 C18 1.546(7) . ?
C18 H18B 0.9600 . ?
C18 H18C 0.9600 . ?
C18 H18A 0.9600 . ?
N1 Cu1 2.041(3) 3_767 ?
N2 H2A 0.8600 . ?
O1 Cu1 2.062(3) . ?
O2 Cu1 2.038(3) 3_667 ?
O4 Cu1 2.056(3) 2_656 ?
O3 Cu1 2.059(3) 4_575 ?
O1W H1A 0.8564 . ?
O1W H1B 0.8517 . ?
O2W H2C 0.8525 . ?
O2W H2B 0.8467 . ?
O3W H3A 0.8518 . ?
O3W H3B 0.8437 . ?
Cu1 O2 2.038(3) 3_667 ?
Cu1 N1 2.041(3) 3_767 ?
Cu1 O4 2.056(3) 2_646 ?
Cu1 O3 2.059(3) 4_576 ?
Cu1 Cu1 2.9606(11) 3_667 ?

loop_
_geom_angle_atom_site_label_1
_geom_angle_atom_site_label_2
_geom_angle_atom_site_label_3
_geom_angle
_geom_angle_site_symmetry_1
_geom_angle_site_symmetry_3
_geom_angle_publ_flag
C2 C1 N1 119.4(4) . . ?
C2 C1 H1 120.3 . . ?
N1 C1 H1 120.3 . . ?
C3 C2 C1 119.2(4) . . ?
C3 C2 H2 120.4 . . ?
C1 C2 H2 120.4 . . ?
C2 C3 C4 122.1(4) . . ?
C2 C3 C6 115.8(4) . . ?
C4 C3 C6 122.1(4) . . ?
C5 C4 C3 118.1(4) . . ?
C5 C4 H4 121.0 . . ?
C3 C4 H4 121.0 . . ?
N1 C5 C4 121.0(4) . . ?
N1 C5 H5 119.5 . . ?
C4 C5 H5 119.5 . . ?
O5 C6 N2 125.2(4) . . ?
O5 C6 C3 118.8(4) . . ?
N2 C6 C3 115.8(4) . . ?
C8 C7 N2 118.7(4) . . ?
C8 C7 C12 120.5(4) . . ?
N2 C7 C12 120.8(4) . . ?
C7 C8 C9 121.1(4) . . ?
C7 C8 H8 119.5 . . ?
C9 C8 H8 119.5 . . ?
C8 C9 C10 118.9(4) . . ?
C8 C9 C13 118.2(4) . . ?
C10 C9 C13 122.5(4) . . ?
C11 C10 C9 121.3(4) . . ?
C11 C10 H10 119.3 . . ?
C9 C10 H10 119.3 . . ?
C10 C11 C12 119.6(4) . . ?
C10 C11 C14 124.0(4) . . ?
C12 C11 C14 116.2(4) . . ?
C7 C12 C11 118.5(4) . . ?
C7 C12 H12 120.7 . . ?
C11 C12 H12 120.7 . . ?
O1 C13 O2 126.1(4) . . ?
O1 C13 C9 117.1(4) . . ?
O2 C13 C9 116.9(4) . . ?
O3 C14 O4 124.4(4) . . ?
O3 C14 C11 117.9(4) . . ?
O4 C14 C11 117.7(4) . . ?
N3 C15 H15A 109.5 . . ?
N3 C15 H15C 109.5 . . ?
H15A C15 H15C 109.5 . . ?
N3 C15 H15B 109.5 . . ?
H15A C15 H15B 109.5 . . ?
H15C C15 H15B 109.5 . . ?
N3 C16 H16A 109.5 . . ?
N3 C16 H16B 109.5 . . ?
H16A C16 H16B 109.5 . . ?
N3 C16 H16C 109.5 . . ?
H16A C16 H16C 109.5 . . ?
H16B C16 H16C 109.5 . . ?
O6 C17 N3 125.9(5) . . ?
O6 C17 C18 116.7(5) . . ?
N3 C17 C18 117.4(4) . . ?
C17 C18 H18B 109.5 . . ?
C17 C18 H18C 109.5 . . ?
H18B C18 H18C 109.5 . . ?
C17 C18 H18A 109.5 . . ?
H18B C18 H18A 109.5 . . ?
H18C C18 H18A 109.5 . . ?
C5 N1 C1 120.3(4) . . ?
C5 N1 Cu1 122.3(3) . 3_767 ?
C1 N1 Cu1 117.0(3) . 3_767 ?
C6 N2 C7 124.9(4) . . ?
C6 N2 H2A 117.5 . . ?
C7 N2 H2A 117.5 . . ?
C17 N3 C15 118.5(4) . . ?
C17 N3 C16 120.0(4) . . ?
C15 N3 C16 121.4(4) . . ?
C13 O1 Cu1 133.8(3) . . ?
C13 O2 Cu1 119.8(3) . 3_667 ?
C14 O4 Cu1 113.9(3) . 2_656 ?
C14 O3 Cu1 143.0(3) . 4_575 ?
H1A O1W H1B 109.6 . . ?
H2C O2W H2B 109.0 . . ?
H3A O3W H3B 109.3 . . ?
O2 Cu1 N1 103.72(13) 3_667 3_767 ?
O2 Cu1 O4 89.21(13) 3_667 2_646 ?
N1 Cu1 O4 100.28(14) 3_767 2_646 ?
O2 Cu1 O3 91.97(13) 3_667 4_576 ?
N1 Cu1 O3 100.74(14) 3_767 4_576 ?
O4 Cu1 O3 158.03(12) 2_646 4_576 ?
O2 Cu1 O1 158.65(12) 3_667 . ?
N1 Cu1 O1 97.63(13) 3_767 . ?
O4 Cu1 O1 86.85(13) 2_646 . ?
O3 Cu1 O1 84.10(13) 4_576 . ?
O2 Cu1 Cu1 85.27(8) 3_667 3_667 ?
N1 Cu1 Cu1 166.34(11) 3_767 3_667 ?
O4 Cu1 Cu1 89.99(8) 2_646 3_667 ?
O3 Cu1 Cu1 68.27(9) 4_576 3_667 ?
O1 Cu1 Cu1 73.77(8) . 3_667 ?

loop_
_geom_torsion_atom_site_label_1
_geom_torsion_atom_site_label_2
_geom_torsion_atom_site_label_3
_geom_torsion_atom_site_label_4
_geom_torsion
_geom_torsion_site_symmetry_1
_geom_torsion_site_symmetry_2
_geom_torsion_site_symmetry_3
_geom_torsion_site_symmetry_4
_geom_torsion_publ_flag
N1 C1 C2 C3 2.7(7) . . . . ?
C1 C2 C3 C4 -1.3(7) . . . . ?
C1 C2 C3 C6 177.7(4) . . . . ?
C2 C3 C4 C5 -1.0(7) . . . . ?
C6 C3 C4 C5 -179.9(4) . . . . ?
C3 C4 C5 N1 1.9(7) . . . . ?
C2 C3 C6 O5 23.9(6) . . . . ?
C4 C3 C6 O5 -157.1(4) . . . . ?
C2 C3 C6 N2 -151.4(4) . . . . ?
C4 C3 C6 N2 27.6(6) . . . . ?
N2 C7 C8 C9 -177.9(4) . . . . ?
C12 C7 C8 C9 1.6(7) . . . . ?
C7 C8 C9 C10 -1.4(7) . . . . ?
C7 C8 C9 C13 -174.4(4) . . . . ?
C8 C9 C10 C11 0.4(6) . . . . ?
C13 C9 C10 C11 173.0(4) . . . . ?
C9 C10 C11 C12 0.6(6) . . . . ?
C9 C10 C11 C14 -173.4(4) . . . . ?
C8 C7 C12 C11 -0.6(6) . . . . ?
N2 C7 C12 C11 178.9(4) . . . . ?
C10 C11 C12 C7 -0.5(6) . . . . ?
C14 C11 C12 C7 174.0(4) . . . . ?
C8 C9 C13 O1 -8.0(6) . . . . ?
C10 C9 C13 O1 179.2(4) . . . . ?
C8 C9 C13 O2 172.5(4) . . . . ?
C10 C9 C13 O2 -0.2(6) . . . . ?
C10 C11 C14 O3 136.1(4) . . . . ?
C12 C11 C14 O3 -38.0(6) . . . . ?
C10 C11 C14 O4 -43.1(6) . . . . ?
C12 C11 C14 O4 142.7(4) . . . . ?
C4 C5 N1 C1 -0.5(6) . . . . ?
C4 C5 N1 Cu1 172.3(3) . . . 3_767 ?
C2 C1 N1 C5 -1.9(6) . . . . ?
C2 C1 N1 Cu1 -175.0(3) . . . 3_767 ?
O5 C6 N2 C7 -1.1(7) . . . . ?
C3 C6 N2 C7 173.9(4) . . . . ?
C8 C7 N2 C6 -149.1(4) . . . . ?
C12 C7 N2 C6 31.4(6) . . . . ?
O6 C17 N3 C15 176.4(5) . . . . ?
C18 C17 N3 C15 -2.6(6) . . . . ?
O6 C17 N3 C16 -6.4(8) . . . . ?
C18 C17 N3 C16 174.5(4) . . . . ?
O2 C13 O1 Cu1 -16.2(7) . . . . ?
C9 C13 O1 Cu1 164.4(3) . . . . ?
O1 C13 O2 Cu1 7.7(6) . . . 3_667 ?
C9 C13 O2 Cu1 -172.9(3) . . . 3_667 ?
O3 C14 O4 Cu1 -1.6(5) . . . 2_656 ?
C11 C14 O4 Cu1 177.6(3) . . . 2_656 ?
O4 C14 O3 Cu1 8.9(8) . . . 4_575 ?
C11 C14 O3 Cu1 -170.3(3) . . . 4_575 ?
C13 O1 Cu1 O2 22.7(6) . . . 3_667 ?
C13 O1 Cu1 N1 -157.6(4) . . . 3_767 ?
C13 O1 Cu1 O4 102.5(4) . . . 2_646 ?
C13 O1 Cu1 O3 -57.5(4) . . . 4_576 ?
C13 O1 Cu1 Cu1 11.6(4) . . . 3_667 ?

_diffrn_measured_fraction_theta_max 0.996
_diffrn_reflns_theta_full        26.00
_diffrn_measured_fraction_theta_full 0.996
_refine_diff_density_max         0.866
_refine_diff_density_min         -0.531
_refine_diff_density_rms         0.067
