####################################################################### 
# 
# This file contains crystal structure data downloaded from the 
# Cambridge Structural Database (CSD) hosted by the Cambridge 
# Crystallographic Data Centre (CCDC).
# 
# Full information about CCDC data access policies and citation 
# guidelines are available at http://www.ccdc.cam.ac.uk/access/V1 
# 
# Audit and citation data items may have been added by the CCDC. 
# Please retain this information to preserve the provenance of 
# this file and to allow appropriate attribution of the data. 
# 
#######################################################################

data_1Sm
_audit_block_doi                 10.5517/cc11b45p
_database_code_depnum_ccdc_archive 'CCDC 963051'
loop_
_citation_id
_citation_doi
_citation_year
1 10.1002/jccs.201400116 2014
_audit_update_record             
;
2013-09-25 deposited with the CCDC.	2024-07-13 downloaded from the CCDC.
;
#=======================================================================   

_audit_creation_method           SHELXL-97
_chemical_name_systematic        
; 
 ? 
;
_chemical_name_common            ?
_chemical_melting_point          ?
_chemical_formula_moiety         ?
_chemical_formula_sum            'C72 H86 N18 O24 Sm2'
_chemical_absolute_configuration unk
_chemical_formula_weight         1888.29

loop_
_atom_type_symbol
_atom_type_description
_atom_type_scat_dispersion_real
_atom_type_scat_dispersion_imag
_atom_type_scat_source
C C 0.0033 0.0016 'International Tables Vol C Tables 4.2.6.8 and 6.1.1.4'
H H 0.0000 0.0000 'International Tables Vol C Tables 4.2.6.8 and 6.1.1.4'
N N 0.0061 0.0033 'International Tables Vol C Tables 4.2.6.8 and 6.1.1.4'
O O 0.0106 0.0060 'International Tables Vol C Tables 4.2.6.8 and 6.1.1.4'
Sm Sm -0.1638 3.4418 'International Tables Vol C Tables 4.2.6.8 and 6.1.1.4'

_symmetry_cell_setting           cubic
_symmetry_space_group_name_H-M   'P 21 3'
_symmetry_space_group_name_Hall  'P 2ac 2ab 3'

loop_
_symmetry_equiv_pos_as_xyz
'x, y, z'
'-x+1/2, -y, z+1/2'
'-x, y+1/2, -z+1/2'
'x+1/2, -y+1/2, -z'
'z, x, y'
'z+1/2, -x+1/2, -y'
'-z+1/2, -x, y+1/2'
'-z, x+1/2, -y+1/2'
'y, z, x'
'-y, z+1/2, -x+1/2'
'y+1/2, -z+1/2, -x'
'-y+1/2, -z, x+1/2'

_cell_length_a                   20.4926(12)
_cell_length_b                   20.4926(12)
_cell_length_c                   20.4926(12)
_cell_angle_alpha                90.00
_cell_angle_beta                 90.00
_cell_angle_gamma                90.00
_cell_volume                     8605.8(9)
_cell_formula_units_Z            4
_cell_measurement_temperature    173(2)
_cell_measurement_reflns_used    998
_cell_measurement_theta_min      -23.529
_cell_measurement_theta_max      23.529

_exptl_crystal_description       chunky
_exptl_crystal_colour            colorless
_exptl_crystal_size_max          0.06
_exptl_crystal_size_mid          0.06
_exptl_crystal_size_min          0.06
_exptl_crystal_density_meas      ?
_exptl_crystal_density_diffrn    1.457
_exptl_crystal_density_method    'not measured'
_exptl_crystal_F_000             3840
_exptl_absorpt_coefficient_mu    1.432
_exptl_absorpt_correction_type   Empirical
_exptl_absorpt_correction_T_min  0.9164
_exptl_absorpt_correction_T_max  0.9177
_exptl_absorpt_process_details   SADABS

_exptl_special_details           
; 
 ? 
;

_diffrn_ambient_temperature      173(2)
_diffrn_radiation_wavelength     0.71073
_diffrn_radiation_type           MoK\a
_diffrn_radiation_source         'fine-focus sealed tube'
_diffrn_radiation_monochromator  graphite
_diffrn_measurement_device_type  'Bruker Smart Apex'
_diffrn_measurement_method       'phi-omega scan'
_diffrn_detector_area_resol_mean ?
_diffrn_standards_number         ?
_diffrn_standards_interval_count ?
_diffrn_standards_interval_time  ?
_diffrn_standards_decay_%        0
_diffrn_reflns_number            78283
_diffrn_reflns_av_R_equivalents  0.0390
_diffrn_reflns_av_sigmaI/netI    0.0169
_diffrn_reflns_limit_h_min       -24
_diffrn_reflns_limit_h_max       24
_diffrn_reflns_limit_k_min       -24
_diffrn_reflns_limit_k_max       24
_diffrn_reflns_limit_l_min       -24
_diffrn_reflns_limit_l_max       24
_diffrn_reflns_theta_min         1.41
_diffrn_reflns_theta_max         25.49
_reflns_number_total             5359
_reflns_number_gt                5170
_reflns_threshold_expression     >2sigma(I)

_computing_data_collection       'BRUKER SMART'
_computing_cell_refinement       'BRUKER SMART'
_computing_data_reduction        'BRUKER SAINT'
_computing_structure_solution    'SHELXS-97 (Sheldrick, 1990)'
_computing_structure_refinement  'SHELXL-97 (Sheldrick, 1997)'
_computing_molecular_graphics    Ortep-3
_computing_publication_material  'Wingx publication routines (Farrugia, 1999)'

_refine_special_details          
; 
 Refinement of F^2^ against ALL reflections.  The weighted R-factor wR and 
 goodness of fit S are based on F^2^, conventional R-factors R are based 
 on F, with F set to zero for negative F^2^. The threshold expression of 
 F^2^ > 2sigma(F^2^) is used only for calculating R-factors(gt) etc. and is 
 not relevant to the choice of reflections for refinement.  R-factors based 
 on F^2^ are statistically about twice as large as those based on F, and R- 
 factors based on ALL data will be even larger. 
;

_refine_ls_structure_factor_coef Fsqd
_refine_ls_matrix_type           full
_refine_ls_weighting_scheme      calc
_refine_ls_weighting_details     
'calc w=1/[\s^2^(Fo^2^)+(0.0842P)^2^+2.4572P] where P=(Fo^2^+2Fc^2^)/3'
_atom_sites_solution_primary     direct
_atom_sites_solution_secondary   difmap
_atom_sites_solution_hydrogens   geom
_refine_ls_hydrogen_treatment    mixed
_refine_ls_extinction_method     SHELXL
_refine_ls_extinction_coef       0.00178(18)
_refine_ls_extinction_expression Fc^*^=kFc[1+0.001xFc^2^\l^3^/sin(2\q)]^-1/4^
_refine_ls_abs_structure_details 'Flack H D (1983), Acta Cryst. A39, 876-881'
_refine_ls_abs_structure_Flack   0.0(4)
_refine_ls_number_reflns         5359
_refine_ls_number_parameters     360
_refine_ls_number_restraints     24
_refine_ls_R_factor_all          0.0490
_refine_ls_R_factor_gt           0.0434
_refine_ls_wR_factor_ref         0.1251
_refine_ls_wR_factor_gt          0.1148
_refine_ls_goodness_of_fit_ref   1.265
_refine_ls_restrained_S_all      1.271
_refine_ls_shift/su_max          0.001
_refine_ls_shift/su_mean         0.000

loop_
_atom_site_label
_atom_site_type_symbol
_atom_site_fract_x
_atom_site_fract_y
_atom_site_fract_z
_atom_site_U_iso_or_equiv
_atom_site_adp_type
_atom_site_occupancy
_atom_site_symmetry_multiplicity
_atom_site_calc_flag
_atom_site_refinement_flags
_atom_site_disorder_assembly
_atom_site_disorder_group
Sm1 Sm 0.153324(13) 0.846676(13) 0.346676(13) 0.03851(16) Uani 1 3 d S . .
Sm2 Sm 0.333571(11) 0.666429(11) 0.166429(11) 0.02946(15) Uani 1 3 d S . .
O1 O 0.1338(3) 0.8081(3) 0.2438(2) 0.0677(14) Uani 1 1 d . . .
O2 O 0.0612(3) 0.8811(2) 0.2123(3) 0.0643(13) Uani 1 1 d . . .
O3 O 0.2344(2) 0.6171(2) 0.1794(2) 0.0474(10) Uani 1 1 d . . .
O4 O 0.2086(2) 0.5332(2) 0.1162(2) 0.0509(11) Uani 1 1 d . . .
O5 O 0.26322(18) 0.73678(18) 0.23678(18) 0.0420(15) Uani 1 3 d S . .
H5A H 0.2544 0.7143 0.2780 0.063 Uiso 0.33 1 d P . .
H5B H 0.2220 0.7456 0.2143 0.063 Uiso 0.33 1 d P . .
O6 O 0.1676(3) 0.8668(3) 0.4574(2) 0.0613(10) Uani 1 1 d U . .
O7 O 0.3246(2) 0.6339(2) 0.05505(19) 0.0525(11) Uani 1 1 d . . .
O1W O 0.1987(5) 0.6987(5) 0.8013(5) 0.161(7) Uani 1 3 d S . .
O2W O 0.3013(5) 0.8013(5) 0.6987(5) 0.195(10) Uani 1 3 d S . .
O3W O 0.1964(10) 0.7314(15) 0.6458(18) 0.242(16) Uani 0.50 1 d P . .
O4W O 0.2448(11) 0.3677(9) 0.1908(13) 0.168(9) Uani 0.50 1 d P . .
N1 N -0.0021(2) 0.6515(2) 0.0112(2) 0.0420(11) Uani 1 1 d . . .
H1 H -0.0389 0.6649 -0.0062 0.050 Uiso 1 1 calc R . .
N2 N -0.0099(2) 0.5760(2) -0.0687(2) 0.0409(11) Uani 1 1 d . . .
N3 N 0.0073(2) 0.4904(2) 0.3497(2) 0.0394(10) Uani 1 1 d . . .
H3 H -0.0118 0.4536 0.3384 0.047 Uiso 1 1 calc R . .
N4 N 0.0116(2) 0.5710(2) 0.4295(2) 0.0385(10) Uani 1 1 d . . .
N5 N 0.1940(4) 0.9155(4) 0.5482(4) 0.083(2) Uani 1 1 d U . .
N6 N 0.3068(4) 0.5895(4) -0.0416(3) 0.0710(19) Uani 1 1 d . . .
C1 C 0.0873(3) 0.8270(3) 0.2074(3) 0.0441(13) Uani 1 1 d . . .
C2 C 0.0656(3) 0.7799(3) 0.1561(3) 0.0395(12) Uani 1 1 d . . .
C3 C 0.0146(3) 0.7960(3) 0.1145(3) 0.0523(16) Uani 1 1 d . . .
H3A H -0.0057 0.8374 0.1182 0.063 Uiso 1 1 calc R . .
C4 C -0.0067(3) 0.7528(3) 0.0681(3) 0.0536(17) Uani 1 1 d . . .
H4 H -0.0414 0.7648 0.0397 0.064 Uiso 1 1 calc R . .
C5 C 0.0223(3) 0.6905(3) 0.0621(3) 0.0379(12) Uani 1 1 d . . .
C6 C 0.0741(3) 0.6757(3) 0.1046(3) 0.0418(13) Uani 1 1 d . . .
H6 H 0.0958 0.6349 0.1008 0.050 Uiso 1 1 calc R . .
C7 C 0.0933(3) 0.7186(3) 0.1507(3) 0.0407(12) Uani 1 1 d . . .
H7 H 0.1267 0.7063 0.1803 0.049 Uiso 1 1 calc R . .
C8 C 0.0231(3) 0.5962(3) -0.0148(3) 0.0360(11) Uani 1 1 d . . .
C9 C 0.2017(2) 0.5662(3) 0.1665(3) 0.0361(11) Uani 1 1 d . . .
C10 C 0.1519(3) 0.5461(3) 0.2169(2) 0.0360(11) Uani 1 1 d . . .
C11 C 0.1470(3) 0.5785(3) 0.2749(3) 0.0408(12) Uani 1 1 d . . .
H11 H 0.1759 0.6136 0.2837 0.049 Uiso 1 1 calc R . .
C12 C 0.1007(3) 0.5614(3) 0.3211(3) 0.0415(13) Uani 1 1 d . . .
H12 H 0.0984 0.5842 0.3614 0.050 Uiso 1 1 calc R . .
C13 C 0.0576(3) 0.5104(3) 0.3080(3) 0.0353(11) Uani 1 1 d . . .
C14 C 0.0626(3) 0.4777(3) 0.2483(3) 0.0484(15) Uani 1 1 d . . .
H14 H 0.0333 0.4431 0.2386 0.058 Uiso 1 1 calc R . .
C15 C 0.1090(3) 0.4948(3) 0.2040(3) 0.0472(15) Uani 1 1 d . . .
H15 H 0.1123 0.4717 0.1640 0.057 Uiso 1 1 calc R . .
C16 C -0.0167(3) 0.5182(3) 0.4046(2) 0.0334(11) Uani 1 1 d . . .
C17 C 0.2085(4) 0.8775(4) 0.5027(4) 0.0613(10) Uani 1 1 d U . .
C18 C 0.2725(4) 0.8431(5) 0.5061(6) 0.091(3) Uani 1 1 d U . .
H18A H 0.2768 0.8137 0.4686 0.136 Uiso 1 1 calc R . .
H18B H 0.2748 0.8177 0.5465 0.136 Uiso 1 1 calc R . .
H18C H 0.3079 0.8752 0.5053 0.136 Uiso 1 1 calc R . .
C19 C 0.1279(5) 0.9497(5) 0.5430(5) 0.094(3) Uani 1 1 d . . .
H19A H 0.1049 0.9341 0.5041 0.141 Uiso 1 1 calc R . .
H19B H 0.1346 0.9970 0.5396 0.141 Uiso 1 1 calc R . .
H19C H 0.1018 0.9401 0.5819 0.141 Uiso 1 1 calc R . .
C20 C 0.2352(7) 0.9325(6) 0.6063(5) 0.133(6) Uani 1 1 d . . .
H20A H 0.2227 0.9048 0.6433 0.199 Uiso 1 1 calc R . .
H20B H 0.2284 0.9784 0.6178 0.199 Uiso 1 1 calc R . .
H20C H 0.2813 0.9253 0.5959 0.199 Uiso 1 1 calc R . .
C21 C 0.2889(3) 0.6265(3) 0.0085(3) 0.0515(15) Uani 1 1 d . . .
C22 C 0.2238(4) 0.6594(4) 0.0037(5) 0.076(2) Uani 1 1 d . . .
H22A H 0.1894 0.6263 -0.0002 0.114 Uiso 1 1 calc R . .
H22B H 0.2231 0.6877 -0.0347 0.114 Uiso 1 1 calc R . .
H22C H 0.2162 0.6856 0.0430 0.114 Uiso 1 1 calc R . .
C23 C 0.2665(6) 0.5763(5) -0.1002(4) 0.105(4) Uani 1 1 d . . .
H23A H 0.2624 0.5291 -0.1064 0.157 Uiso 1 1 calc R . .
H23B H 0.2873 0.5957 -0.1386 0.157 Uiso 1 1 calc R . .
H23C H 0.2230 0.5954 -0.0943 0.157 Uiso 1 1 calc R . .
C24 C 0.3726(5) 0.5577(6) -0.0377(5) 0.100(4) Uani 1 1 d . . .
H24A H 0.3915 0.5652 0.0056 0.150 Uiso 1 1 calc R . .
H24B H 0.4014 0.5765 -0.0710 0.150 Uiso 1 1 calc R . .
H24C H 0.3681 0.5107 -0.0452 0.150 Uiso 1 1 calc R . .

loop_
_atom_site_aniso_label
_atom_site_aniso_U_11
_atom_site_aniso_U_22
_atom_site_aniso_U_33
_atom_site_aniso_U_23
_atom_site_aniso_U_13
_atom_site_aniso_U_12
Sm1 0.03851(16) 0.03851(16) 0.03851(16) -0.00424(11) 0.00424(11) 0.00424(11)
Sm2 0.02946(15) 0.02946(15) 0.02946(15) -0.00249(10) 0.00249(10) 0.00249(10)
O1 0.070(3) 0.078(3) 0.056(3) -0.013(3) -0.027(2) -0.005(3)
O2 0.086(4) 0.046(3) 0.060(3) -0.017(2) -0.001(3) -0.001(2)
O3 0.042(2) 0.051(2) 0.049(2) -0.007(2) 0.0128(19) -0.0102(19)
O4 0.047(2) 0.074(3) 0.032(2) -0.014(2) 0.0054(18) -0.014(2)
O5 0.0420(15) 0.0420(15) 0.0420(15) -0.0054(16) 0.0054(16) 0.0054(16)
O6 0.064(2) 0.068(2) 0.0520(18) -0.0020(16) 0.0000(17) -0.0120(19)
O7 0.060(3) 0.067(3) 0.0304(19) -0.0091(18) 0.0050(19) -0.015(2)
O1W 0.161(7) 0.161(7) 0.161(7) 0.037(7) 0.037(7) -0.037(7)
O2W 0.195(10) 0.195(10) 0.195(10) 0.062(8) 0.062(8) -0.062(8)
O3W 0.092(14) 0.25(3) 0.38(5) -0.04(3) -0.04(2) -0.011(17)
O4W 0.165(18) 0.112(14) 0.23(2) -0.054(15) -0.054(18) 0.015(13)
N1 0.040(2) 0.040(2) 0.046(2) -0.014(2) -0.015(2) 0.013(2)
N2 0.040(2) 0.041(3) 0.041(2) -0.010(2) -0.008(2) 0.011(2)
N3 0.044(2) 0.041(2) 0.033(2) -0.0085(19) 0.006(2) -0.007(2)
N4 0.036(2) 0.038(2) 0.041(2) -0.007(2) 0.004(2) -0.002(2)
N5 0.093(4) 0.086(4) 0.071(3) -0.004(3) -0.004(3) -0.023(3)
N6 0.085(5) 0.090(5) 0.038(3) -0.019(3) -0.001(3) -0.019(4)
C1 0.050(3) 0.043(3) 0.039(3) 0.000(3) -0.008(2) -0.010(3)
C2 0.042(3) 0.038(3) 0.039(3) -0.004(2) -0.004(2) -0.002(2)
C3 0.061(4) 0.038(3) 0.057(4) -0.013(3) -0.020(3) 0.017(3)
C4 0.055(4) 0.048(3) 0.057(4) -0.014(3) -0.026(3) 0.023(3)
C5 0.034(3) 0.038(3) 0.041(3) -0.005(2) -0.008(2) 0.006(2)
C6 0.047(3) 0.034(3) 0.045(3) -0.007(2) -0.011(2) 0.011(2)
C7 0.030(2) 0.045(3) 0.047(3) 0.000(3) -0.008(2) 0.002(2)
C8 0.034(3) 0.038(3) 0.036(3) -0.004(2) -0.006(2) 0.003(2)
C9 0.030(2) 0.044(3) 0.034(3) 0.000(2) 0.001(2) -0.004(2)
C10 0.032(3) 0.042(3) 0.033(2) -0.003(2) 0.002(2) -0.002(2)
C11 0.039(3) 0.040(3) 0.044(3) -0.006(2) 0.005(2) -0.009(2)
C12 0.047(3) 0.045(3) 0.032(3) -0.011(2) 0.007(2) -0.010(3)
C13 0.037(3) 0.035(3) 0.034(3) 0.003(2) 0.001(2) -0.004(2)
C14 0.050(3) 0.051(3) 0.044(3) -0.021(3) 0.012(3) -0.021(3)
C15 0.049(3) 0.056(4) 0.036(3) -0.018(3) 0.006(3) -0.010(3)
C16 0.036(3) 0.032(2) 0.032(3) 0.001(2) 0.000(2) -0.004(2)
C17 0.064(2) 0.068(2) 0.0520(18) -0.0020(16) 0.0000(17) -0.0120(19)
C18 0.064(4) 0.087(5) 0.122(7) 0.031(5) -0.002(4) -0.001(4)
C19 0.093(7) 0.100(7) 0.089(6) -0.033(6) 0.026(6) -0.005(6)
C20 0.173(12) 0.168(12) 0.057(5) -0.009(7) -0.033(7) -0.100(11)
C21 0.060(4) 0.049(3) 0.045(3) 0.000(3) 0.009(3) -0.013(3)
C22 0.053(4) 0.074(5) 0.100(6) 0.014(5) -0.002(4) 0.012(4)
C23 0.146(10) 0.123(9) 0.046(4) -0.012(5) -0.022(6) -0.039(8)
C24 0.070(5) 0.116(8) 0.114(8) -0.045(7) 0.027(5) 0.008(6)

_geom_special_details            
; 
 All esds (except the esd in the dihedral angle between two l.s. planes) 
 are estimated using the full covariance matrix.  The cell esds are taken 
 into account individually in the estimation of esds in distances, angles 
 and torsion angles; correlations between esds in cell parameters are only 
 used when they are defined by crystal symmetry.  An approximate (isotropic) 
 treatment of cell esds is used for estimating esds involving l.s. planes. 
;

loop_
_geom_bond_atom_site_label_1
_geom_bond_atom_site_label_2
_geom_bond_distance
_geom_bond_site_symmetry_2
_geom_bond_publ_flag
Sm1 O1 2.287(5) 7_564 ?
Sm1 O1 2.287(5) . ?
Sm1 O1 2.287(5) 10_655 ?
Sm1 O6 2.324(5) 10_655 ?
Sm1 O6 2.324(5) 7_564 ?
Sm1 O6 2.324(5) . ?
Sm2 O3 2.285(4) 7_564 ?
Sm2 O3 2.285(4) . ?
Sm2 O3 2.285(4) 10_655 ?
Sm2 O7 2.385(4) . ?
Sm2 O7 2.385(4) 7_564 ?
Sm2 O7 2.385(4) 10_655 ?
Sm2 O5 2.497(6) . ?
O1 C1 1.270(8) . ?
O2 C1 1.235(8) . ?
O3 C9 1.267(6) . ?
O4 C9 1.242(7) . ?
O6 C17 1.271(9) . ?
O7 C21 1.212(8) . ?
N1 C8 1.353(7) . ?
N1 C5 1.406(7) . ?
N2 C8 1.322(7) 8 ?
N2 C8 1.361(7) . ?
N3 C16 1.354(7) . ?
N3 C13 1.400(7) . ?
N4 C16 1.329(7) . ?
N4 C16 1.356(7) 12_565 ?
N5 C17 1.252(11) . ?
N5 C20 1.501(11) . ?
N5 C19 1.528(13) . ?
N6 C21 1.328(9) . ?
N6 C23 1.483(10) . ?
N6 C24 1.500(12) . ?
C1 C2 1.495(8) . ?
C2 C7 1.383(8) . ?
C2 C3 1.389(8) . ?
C3 C4 1.371(9) . ?
C4 C5 1.413(8) . ?
C5 C6 1.406(7) . ?
C6 C7 1.349(8) . ?
C8 N2 1.322(7) 11_455 ?
C9 C10 1.510(7) . ?
C10 C11 1.364(8) . ?
C10 C15 1.395(8) . ?
C11 C12 1.385(8) . ?
C12 C13 1.393(8) . ?
C13 C14 1.400(8) . ?
C14 C15 1.361(9) . ?
C16 N4 1.356(7) 6_456 ?
C17 C18 1.490(12) . ?
C21 C22 1.498(10) . ?

loop_
_geom_angle_atom_site_label_1
_geom_angle_atom_site_label_2
_geom_angle_atom_site_label_3
_geom_angle
_geom_angle_site_symmetry_1
_geom_angle_site_symmetry_3
_geom_angle_publ_flag
O1 Sm1 O1 84.4(2) 7_564 . ?
O1 Sm1 O1 84.4(2) 7_564 10_655 ?
O1 Sm1 O1 84.4(2) . 10_655 ?
O1 Sm1 O6 87.12(19) 7_564 10_655 ?
O1 Sm1 O6 100.98(19) . 10_655 ?
O1 Sm1 O6 169.49(19) 10_655 10_655 ?
O1 Sm1 O6 169.49(19) 7_564 7_564 ?
O1 Sm1 O6 87.12(19) . 7_564 ?
O1 Sm1 O6 100.98(19) 10_655 7_564 ?
O6 Sm1 O6 88.37(19) 10_655 7_564 ?
O1 Sm1 O6 100.98(19) 7_564 . ?
O1 Sm1 O6 169.49(19) . . ?
O1 Sm1 O6 87.12(19) 10_655 . ?
O6 Sm1 O6 88.37(19) 10_655 . ?
O6 Sm1 O6 88.37(19) 7_564 . ?
O3 Sm2 O3 109.97(10) 7_564 . ?
O3 Sm2 O3 109.97(10) 7_564 10_655 ?
O3 Sm2 O3 109.97(10) . 10_655 ?
O3 Sm2 O7 79.44(16) 7_564 . ?
O3 Sm2 O7 85.35(15) . . ?
O3 Sm2 O7 156.56(16) 10_655 . ?
O3 Sm2 O7 85.35(15) 7_564 7_564 ?
O3 Sm2 O7 156.56(16) . 7_564 ?
O3 Sm2 O7 79.44(16) 10_655 7_564 ?
O7 Sm2 O7 80.05(18) . 7_564 ?
O3 Sm2 O7 156.56(16) 7_564 10_655 ?
O3 Sm2 O7 79.44(16) . 10_655 ?
O3 Sm2 O7 85.35(15) 10_655 10_655 ?
O7 Sm2 O7 80.05(18) . 10_655 ?
O7 Sm2 O7 80.05(18) 7_564 10_655 ?
O3 Sm2 O5 71.04(11) 7_564 . ?
O3 Sm2 O5 71.04(11) . . ?
O3 Sm2 O5 71.04(11) 10_655 . ?
O7 Sm2 O5 132.05(12) . . ?
O7 Sm2 O5 132.05(12) 7_564 . ?
O7 Sm2 O5 132.05(12) 10_655 . ?
C1 O1 Sm1 124.5(4) . . ?
C9 O3 Sm2 144.1(4) . . ?
C17 O6 Sm1 145.8(5) . . ?
C21 O7 Sm2 146.5(4) . . ?
C8 N1 C5 129.2(5) . . ?
C8 N2 C8 114.0(5) 8 . ?
C16 N3 C13 130.6(5) . . ?
C16 N4 C16 114.5(5) . 12_565 ?
C17 N5 C20 127.0(10) . . ?
C17 N5 C19 116.4(8) . . ?
C20 N5 C19 116.6(9) . . ?
C21 N6 C23 125.2(8) . . ?
C21 N6 C24 117.1(7) . . ?
C23 N6 C24 117.7(8) . . ?
O2 C1 O1 123.4(6) . . ?
O2 C1 C2 120.6(6) . . ?
O1 C1 C2 116.0(6) . . ?
C7 C2 C3 118.3(5) . . ?
C7 C2 C1 121.5(5) . . ?
C3 C2 C1 120.2(5) . . ?
C4 C3 C2 120.9(6) . . ?
C3 C4 C5 120.6(6) . . ?
N1 C5 C6 127.1(5) . . ?
N1 C5 C4 115.4(5) . . ?
C6 C5 C4 117.4(5) . . ?
C7 C6 C5 120.8(5) . . ?
C6 C7 C2 122.0(5) . . ?
N2 C8 N1 121.2(5) 11_455 . ?
N2 C8 N2 126.0(5) 11_455 . ?
N1 C8 N2 112.7(5) . . ?
O4 C9 O3 124.1(5) . . ?
O4 C9 C10 119.7(5) . . ?
O3 C9 C10 116.1(5) . . ?
C11 C10 C15 119.0(5) . . ?
C11 C10 C9 120.9(5) . . ?
C15 C10 C9 120.1(5) . . ?
C10 C11 C12 121.5(5) . . ?
C11 C12 C13 119.5(5) . . ?
C12 C13 C14 118.8(5) . . ?
C12 C13 N3 124.7(5) . . ?
C14 C13 N3 116.5(5) . . ?
C15 C14 C13 120.7(5) . . ?
C14 C15 C10 120.5(5) . . ?
N4 C16 N3 120.2(5) . . ?
N4 C16 N4 125.5(5) . 6_456 ?
N3 C16 N4 114.4(5) . 6_456 ?
N5 C17 O6 119.6(8) . . ?
N5 C17 C18 118.0(8) . . ?
O6 C17 C18 122.2(8) . . ?
O7 C21 N6 120.8(7) . . ?
O7 C21 C22 122.3(7) . . ?
N6 C21 C22 116.9(7) . . ?

_diffrn_measured_fraction_theta_max 1.000
_diffrn_reflns_theta_full        25.49
_diffrn_measured_fraction_theta_full 1.000
_refine_diff_density_max         2.000
_refine_diff_density_min         -0.770
_refine_diff_density_rms         0.264
