####################################################################### 
# 
# This file contains crystal structure data downloaded from the 
# Cambridge Structural Database (CSD) hosted by the Cambridge 
# Crystallographic Data Centre (CCDC).
# 
# Full information about CCDC data access policies and citation 
# guidelines are available at http://www.ccdc.cam.ac.uk/access/V1 
# 
# Audit and citation data items may have been added by the CCDC. 
# Please retain this information to preserve the provenance of 
# this file and to allow appropriate attribution of the data. 
# 
#######################################################################

data_6Er
_audit_block_doi                 10.5517/cc11b4bv
_database_code_depnum_ccdc_archive 'CCDC 963056'
loop_
_citation_id
_citation_doi
_citation_year
1 10.1002/jccs.201400116 2014
_audit_update_record             
;
2013-09-25 deposited with the CCDC.	2024-07-13 downloaded from the CCDC.
;
#=======================================================================   

_audit_creation_method           SHELXL-97
_chemical_name_systematic        
; 
 ? 
;
_chemical_name_common            ?
_chemical_melting_point          ?
_chemical_formula_moiety         ?
_chemical_formula_sum            'C72 H86 Er2 N18 O24'
_chemical_absolute_configuration unk
_chemical_formula_weight         1922.1

loop_
_atom_type_symbol
_atom_type_description
_atom_type_scat_dispersion_real
_atom_type_scat_dispersion_imag
_atom_type_scat_source
C C 0.0033 0.0016 'International Tables Vol C Tables 4.2.6.8 and 6.1.1.4'
H H 0.0000 0.0000 'International Tables Vol C Tables 4.2.6.8 and 6.1.1.4'
N N 0.0061 0.0033 'International Tables Vol C Tables 4.2.6.8 and 6.1.1.4'
O O 0.0106 0.0060 'International Tables Vol C Tables 4.2.6.8 and 6.1.1.4'
Er Er -0.2586 4.9576 'International Tables Vol C Tables 4.2.6.8 and 6.1.1.4'

_symmetry_cell_setting           cubic
_symmetry_space_group_name_H-M   'P 21 3'
_symmetry_space_group_name_Hall  'P 2ac 2ab 3'

loop_
_symmetry_equiv_pos_as_xyz
'x, y, z'
'-x+1/2, -y, z+1/2'
'-x, y+1/2, -z+1/2'
'x+1/2, -y+1/2, -z'
'z, x, y'
'z+1/2, -x+1/2, -y'
'-z+1/2, -x, y+1/2'
'-z, x+1/2, -y+1/2'
'y, z, x'
'-y, z+1/2, -x+1/2'
'y+1/2, -z+1/2, -x'
'-y+1/2, -z, x+1/2'

_cell_length_a                   20.3864(12)
_cell_length_b                   20.3864(12)
_cell_length_c                   20.3864(12)
_cell_angle_alpha                90.00
_cell_angle_beta                 90.00
_cell_angle_gamma                90.00
_cell_volume                     8472.7(9)
_cell_formula_units_Z            4
_cell_measurement_temperature    173(2)
_cell_measurement_reflns_used    999
_cell_measurement_theta_min      -23.529
_cell_measurement_theta_max      23.529

_exptl_crystal_description       cubic
_exptl_crystal_colour            colorless
_exptl_crystal_size_max          0.063
_exptl_crystal_size_mid          0.062
_exptl_crystal_size_min          0.060
_exptl_crystal_density_meas      ?
_exptl_crystal_density_diffrn    1.507
_exptl_crystal_density_method    'not measured'
_exptl_crystal_F_000             3888
_exptl_absorpt_coefficient_mu    2.050
_exptl_absorpt_correction_type   Empirical
_exptl_absorpt_correction_T_min  0.8817
_exptl_absorpt_correction_T_max  0.8869
_exptl_absorpt_process_details   SADABS

_exptl_special_details           
; 
 ? 
;

_diffrn_ambient_temperature      173(2)
_diffrn_radiation_wavelength     0.71073
_diffrn_radiation_type           MoK\a
_diffrn_radiation_source         'fine-focus sealed tube'
_diffrn_radiation_monochromator  graphite
_diffrn_measurement_device_type  'Bruker Smart Apex'
_diffrn_measurement_method       'phi-omega scan'
_diffrn_detector_area_resol_mean ?
_diffrn_standards_number         ?
_diffrn_standards_interval_count ?
_diffrn_standards_interval_time  ?
_diffrn_standards_decay_%        0
_diffrn_reflns_number            85483
_diffrn_reflns_av_R_equivalents  0.0623
_diffrn_reflns_av_sigmaI/netI    0.0248
_diffrn_reflns_limit_h_min       -24
_diffrn_reflns_limit_h_max       24
_diffrn_reflns_limit_k_min       -24
_diffrn_reflns_limit_k_max       24
_diffrn_reflns_limit_l_min       -24
_diffrn_reflns_limit_l_max       24
_diffrn_reflns_theta_min         1.41
_diffrn_reflns_theta_max         25.48
_reflns_number_total             5263
_reflns_number_gt                4997
_reflns_threshold_expression     >2sigma(I)

_computing_data_collection       'BRUKER SMART'
_computing_cell_refinement       'BRUKER SMART'
_computing_data_reduction        'BRUKER SAINT'
_computing_structure_solution    'SHELXS-97 (Sheldrick, 1990)'
_computing_structure_refinement  'SHELXL-97 (Sheldrick, 1997)'
_computing_molecular_graphics    Ortep-3
_computing_publication_material  'Wingx publication routines (Farrugia, 1999)'

_refine_special_details          
; 
 Refinement of F^2^ against ALL reflections.  The weighted R-factor wR and 
 goodness of fit S are based on F^2^, conventional R-factors R are based 
 on F, with F set to zero for negative F^2^. The threshold expression of 
 F^2^ > 2sigma(F^2^) is used only for calculating R-factors(gt) etc. and is 
 not relevant to the choice of reflections for refinement.  R-factors based 
 on F^2^ are statistically about twice as large as those based on F, and R- 
 factors based on ALL data will be even larger. 
;

_refine_ls_structure_factor_coef Fsqd
_refine_ls_matrix_type           full
_refine_ls_weighting_scheme      calc
_refine_ls_weighting_details     
'calc w=1/[\s^2^(Fo^2^)+(0.0776P)^2^+4.6285P] where P=(Fo^2^+2Fc^2^)/3'
_atom_sites_solution_primary     direct
_atom_sites_solution_secondary   difmap
_atom_sites_solution_hydrogens   geom
_refine_ls_hydrogen_treatment    mixed
_refine_ls_extinction_method     none
_refine_ls_extinction_coef       ?
_refine_ls_abs_structure_details 'Flack H D (1983), Acta Cryst. A39, 876-881'
_refine_ls_abs_structure_Flack   0.0(10)
_refine_ls_number_reflns         5263
_refine_ls_number_parameters     365
_refine_ls_number_restraints     420
_refine_ls_R_factor_all          0.0451
_refine_ls_R_factor_gt           0.0386
_refine_ls_wR_factor_ref         0.1217
_refine_ls_wR_factor_gt          0.1096
_refine_ls_goodness_of_fit_ref   1.242
_refine_ls_restrained_S_all      1.226
_refine_ls_shift/su_max          0.003
_refine_ls_shift/su_mean         0.000

loop_
_atom_site_label
_atom_site_type_symbol
_atom_site_fract_x
_atom_site_fract_y
_atom_site_fract_z
_atom_site_U_iso_or_equiv
_atom_site_adp_type
_atom_site_occupancy
_atom_site_symmetry_multiplicity
_atom_site_calc_flag
_atom_site_refinement_flags
_atom_site_disorder_assembly
_atom_site_disorder_group
Er1 Er 0.154994(12) 0.845006(12) 0.345006(12) 0.02381(13) Uani 1 3 d S . .
Er2 Er 0.333257(13) 0.666743(13) 0.166743(13) 0.02763(14) Uani 1 3 d S . .
O1 O 0.1346(2) 0.8123(2) 0.2432(2) 0.0400(12) Uani 1 1 d U . .
O2 O 0.0585(3) 0.8839(2) 0.2119(2) 0.0437(12) Uani 1 1 d U . .
O3 O 0.2377(2) 0.6190(2) 0.1805(2) 0.0408(12) Uani 1 1 d U . .
O4 O 0.2117(2) 0.5356(3) 0.1153(2) 0.0431(12) Uani 1 1 d U . .
O5 O 0.2640(2) 0.7360(2) 0.2360(2) 0.042(2) Uani 1 3 d SU . .
H5A H 0.2544 0.7143 0.2780 0.063 Uiso 0.33 1 d P . .
H5B H 0.2220 0.7456 0.2143 0.063 Uiso 0.33 1 d P . .
O6 O 0.1682(2) 0.8652(2) 0.4529(2) 0.0382(11) Uani 1 1 d . . .
O7 O 0.3253(3) 0.6332(3) 0.0582(2) 0.0446(12) Uani 1 1 d U . .
O1W O 0.1971(6) 0.6971(6) 0.8029(6) 0.180(6) Uani 1 3 d SU . .
O2W O 0.3020(5) 0.8020(5) 0.6980(5) 0.178(6) Uani 1 3 d SU . .
O3W O 0.1954(14) 0.7367(13) 0.6338(13) 0.181(7) Uani 0.50 1 d PU . .
O4W O 0.2423(11) 0.3648(11) 0.1934(12) 0.141(6) Uani 0.50 1 d PU . .
N1 N -0.0039(3) 0.6509(3) 0.0128(3) 0.0328(12) Uani 1 1 d . . .
H1 H -0.0414 0.6635 -0.0043 0.039 Uiso 1 1 calc R . .
N2 N -0.0117(3) 0.5746(3) -0.0675(3) 0.0301(12) Uani 1 1 d . . .
N3 N 0.0092(2) 0.4900(3) 0.3504(3) 0.0298(11) Uani 1 1 d . . .
H3 H -0.0087 0.4522 0.3398 0.036 Uiso 1 1 calc R . .
N4 N 0.0118(3) 0.5711(3) 0.4307(3) 0.0285(11) Uani 1 1 d . . .
N5 N 0.1946(5) 0.9139(4) 0.5457(4) 0.073(3) Uani 1 1 d . . .
N6 N 0.3063(4) 0.5906(4) -0.0394(3) 0.064(2) Uani 1 1 d . . .
C1 C 0.0868(3) 0.8300(3) 0.2067(3) 0.0308(12) Uani 1 1 d U . .
C2 C 0.0645(3) 0.7818(3) 0.1566(3) 0.0312(12) Uani 1 1 d U . .
C3 C 0.0130(4) 0.7968(3) 0.1150(3) 0.0379(13) Uani 1 1 d U . .
H3A H -0.0083 0.8381 0.1187 0.046 Uiso 1 1 calc R . .
C4 C -0.0076(3) 0.7531(4) 0.0688(4) 0.0387(13) Uani 1 1 d U . .
H4 H -0.0422 0.7650 0.0400 0.046 Uiso 1 1 calc R . .
C5 C 0.0208(3) 0.6917(3) 0.0631(3) 0.0307(12) Uani 1 1 d U . .
C6 C 0.0717(3) 0.6754(3) 0.1053(3) 0.0315(12) Uani 1 1 d U . .
H6 H 0.0920 0.6336 0.1022 0.038 Uiso 1 1 calc R . .
C7 C 0.0926(3) 0.7197(3) 0.1517(3) 0.0316(12) Uani 1 1 d U . .
H7 H 0.1269 0.7078 0.1810 0.038 Uiso 1 1 calc R . .
C8 C 0.0218(3) 0.5949(3) -0.0131(3) 0.0272(12) Uani 1 1 d U . .
C9 C 0.2042(3) 0.5683(3) 0.1666(3) 0.0318(12) Uani 1 1 d U . .
C10 C 0.1546(3) 0.5486(3) 0.2164(3) 0.0308(12) Uani 1 1 d U . .
C11 C 0.1492(3) 0.5803(3) 0.2754(3) 0.0325(12) Uani 1 1 d U . .
H11 H 0.1781 0.6156 0.2851 0.039 Uiso 1 1 calc R . .
C12 C 0.1021(3) 0.5621(3) 0.3216(3) 0.0338(12) Uani 1 1 d U . .
H12 H 0.0995 0.5847 0.3623 0.041 Uiso 1 1 calc R . .
C13 C 0.0586(3) 0.5105(3) 0.3083(3) 0.0299(12) Uani 1 1 d U . .
C14 C 0.0649(3) 0.4789(3) 0.2483(3) 0.0358(13) Uani 1 1 d U . .
H14 H 0.0360 0.4437 0.2384 0.043 Uiso 1 1 calc R . .
C15 C 0.1108(3) 0.4965(3) 0.2030(3) 0.0367(13) Uani 1 1 d U . .
H15 H 0.1134 0.4738 0.1625 0.044 Uiso 1 1 calc R . .
C16 C -0.0161(3) 0.5178(3) 0.4048(3) 0.0273(12) Uani 1 1 d U . .
C17 C 0.2067(5) 0.8746(5) 0.4988(4) 0.059(2) Uani 1 1 d U . .
C18 C 0.2724(4) 0.8388(5) 0.4999(5) 0.067(2) Uani 1 1 d U . .
H18A H 0.2737 0.8066 0.4641 0.100 Uiso 1 1 calc R . .
H18B H 0.2776 0.8162 0.5420 0.100 Uiso 1 1 calc R . .
H18C H 0.3080 0.8705 0.4942 0.100 Uiso 1 1 calc R . .
C19 C 0.1275(5) 0.9497(6) 0.5394(5) 0.077(3) Uani 1 1 d U . .
H19A H 0.1099 0.9430 0.4952 0.116 Uiso 1 1 calc R . .
H19B H 0.1336 0.9967 0.5473 0.116 Uiso 1 1 calc R . .
H19C H 0.0967 0.9319 0.5718 0.116 Uiso 1 1 calc R . .
C20 C 0.2347(6) 0.9288(6) 0.6019(5) 0.088(3) Uani 1 1 d U . .
H20A H 0.2166 0.9070 0.6408 0.132 Uiso 1 1 calc R . .
H20B H 0.2352 0.9764 0.6091 0.132 Uiso 1 1 calc R . .
H20C H 0.2795 0.9133 0.5942 0.132 Uiso 1 1 calc R . .
C21 C 0.2880(4) 0.6275(4) 0.0112(4) 0.0500(19) Uani 1 1 d U . .
C22 C 0.2240(4) 0.6602(5) 0.0074(5) 0.061(2) Uani 1 1 d U . .
H22A H 0.1891 0.6271 0.0077 0.092 Uiso 1 1 calc R . .
H22B H 0.2214 0.6858 -0.0332 0.092 Uiso 1 1 calc R . .
H22C H 0.2187 0.6894 0.0452 0.092 Uiso 1 1 calc R . .
C23 C 0.2662(6) 0.5766(6) -0.0958(5) 0.081(3) Uani 1 1 d U . .
H23A H 0.2605 0.5291 -0.1000 0.122 Uiso 1 1 calc R . .
H23B H 0.2876 0.5937 -0.1353 0.122 Uiso 1 1 calc R . .
H23C H 0.2233 0.5975 -0.0905 0.122 Uiso 1 1 calc R . .
C24 C 0.3728(5) 0.5603(6) -0.0366(5) 0.080(3) Uani 1 1 d U . .
H24A H 0.3883 0.5600 0.0089 0.120 Uiso 1 1 calc R . .
H24B H 0.4031 0.5858 -0.0638 0.120 Uiso 1 1 calc R . .
H24C H 0.3705 0.5152 -0.0531 0.120 Uiso 1 1 calc R . .

loop_
_atom_site_aniso_label
_atom_site_aniso_U_11
_atom_site_aniso_U_22
_atom_site_aniso_U_33
_atom_site_aniso_U_23
_atom_site_aniso_U_13
_atom_site_aniso_U_12
Er1 0.02381(13) 0.02381(13) 0.02381(13) -0.00111(10) 0.00111(10) 0.00111(10)
Er2 0.02763(14) 0.02763(14) 0.02763(14) 0.00078(11) -0.00078(11) -0.00078(11)
O1 0.047(3) 0.040(3) 0.033(2) -0.011(2) -0.018(2) 0.004(2)
O2 0.063(3) 0.030(3) 0.037(3) -0.004(2) -0.014(2) 0.005(2)
O3 0.040(3) 0.045(3) 0.037(3) -0.012(2) 0.015(2) -0.017(2)
O4 0.036(3) 0.064(3) 0.029(2) -0.017(2) 0.006(2) -0.013(2)
O5 0.042(2) 0.042(2) 0.042(2) -0.007(2) 0.007(2) 0.007(2)
O6 0.039(3) 0.053(3) 0.023(2) -0.0040(19) -0.002(2) -0.009(2)
O7 0.050(3) 0.054(3) 0.029(2) -0.005(2) 0.000(2) -0.010(2)
O1W 0.180(6) 0.180(6) 0.180(6) 0.043(6) 0.043(6) -0.043(6)
O2W 0.178(6) 0.178(6) 0.178(6) 0.052(6) 0.052(6) -0.052(6)
O3W 0.177(9) 0.183(9) 0.183(9) 0.055(8) 0.052(8) -0.043(8)
O4W 0.133(13) 0.140(14) 0.151(14) -0.034(12) -0.023(12) -0.014(12)
N1 0.033(3) 0.028(3) 0.038(3) -0.011(2) -0.017(2) 0.018(2)
N2 0.030(3) 0.029(3) 0.032(3) -0.010(2) -0.013(2) 0.006(2)
N3 0.032(3) 0.030(3) 0.027(3) -0.006(2) 0.005(2) -0.011(2)
N4 0.028(3) 0.026(3) 0.032(3) -0.005(2) 0.008(2) -0.003(2)
N5 0.101(7) 0.074(5) 0.045(4) -0.014(4) -0.013(4) -0.029(5)
N6 0.071(5) 0.085(6) 0.037(4) -0.015(4) -0.001(4) -0.012(4)
C1 0.032(3) 0.028(3) 0.032(3) 0.000(2) -0.007(2) -0.002(2)
C2 0.034(3) 0.029(2) 0.031(3) -0.005(2) -0.008(2) 0.000(2)
C3 0.041(3) 0.031(3) 0.042(3) -0.009(2) -0.016(3) 0.012(2)
C4 0.038(3) 0.037(3) 0.042(3) -0.007(2) -0.015(2) 0.010(2)
C5 0.029(3) 0.030(3) 0.033(3) -0.007(2) -0.008(2) 0.005(2)
C6 0.034(2) 0.030(2) 0.031(2) -0.007(2) -0.010(2) 0.009(2)
C7 0.030(2) 0.028(2) 0.037(3) -0.002(2) -0.009(2) 0.005(2)
C8 0.026(3) 0.027(3) 0.029(3) -0.007(2) -0.003(2) 0.006(2)
C9 0.030(3) 0.038(3) 0.027(3) -0.005(2) 0.000(2) -0.001(2)
C10 0.029(3) 0.036(3) 0.027(2) -0.004(2) 0.002(2) -0.005(2)
C11 0.035(3) 0.034(3) 0.029(2) -0.006(2) 0.005(2) -0.006(2)
C12 0.037(3) 0.037(3) 0.027(2) -0.008(2) 0.004(2) -0.004(2)
C13 0.029(3) 0.031(3) 0.029(3) -0.003(2) 0.000(2) -0.001(2)
C14 0.037(3) 0.038(3) 0.033(3) -0.009(2) 0.007(2) -0.014(2)
C15 0.040(3) 0.040(3) 0.031(3) -0.012(2) 0.006(2) -0.008(2)
C16 0.031(3) 0.028(3) 0.023(3) -0.004(2) 0.000(2) -0.003(2)
C17 0.073(5) 0.062(5) 0.042(4) 0.009(4) 0.001(4) -0.029(4)
C18 0.052(5) 0.067(5) 0.080(6) 0.016(5) -0.004(4) 0.001(4)
C19 0.067(6) 0.089(6) 0.076(6) -0.025(5) 0.016(5) -0.006(5)
C20 0.107(7) 0.106(7) 0.050(5) -0.017(5) -0.023(5) -0.032(6)
C21 0.056(5) 0.045(4) 0.049(4) -0.003(4) 0.008(4) -0.018(4)
C22 0.052(4) 0.059(5) 0.072(5) 0.003(4) 0.000(4) 0.003(4)
C23 0.093(7) 0.097(7) 0.053(5) -0.015(5) -0.007(5) -0.022(6)
C24 0.070(6) 0.088(7) 0.082(6) -0.018(6) 0.018(5) 0.006(5)

_geom_special_details            
; 
 All esds (except the esd in the dihedral angle between two l.s. planes) 
 are estimated using the full covariance matrix.  The cell esds are taken 
 into account individually in the estimation of esds in distances, angles 
 and torsion angles; correlations between esds in cell parameters are only 
 used when they are defined by crystal symmetry.  An approximate (isotropic) 
 treatment of cell esds is used for estimating esds involving l.s. planes. 
;

loop_
_geom_bond_atom_site_label_1
_geom_bond_atom_site_label_2
_geom_bond_distance
_geom_bond_site_symmetry_2
_geom_bond_publ_flag
Er1 O1 2.219(4) . ?
Er1 O1 2.219(4) 7_564 ?
Er1 O1 2.219(4) 10_655 ?
Er1 O6 2.253(4) 7_564 ?
Er1 O6 2.253(4) . ?
Er1 O6 2.253(4) 10_655 ?
Er2 O3 2.196(4) 7_564 ?
Er2 O3 2.196(4) 10_655 ?
Er2 O3 2.196(4) . ?
Er2 O7 2.321(5) 7_564 ?
Er2 O7 2.321(5) . ?
Er2 O7 2.321(5) 10_655 ?
Er2 O5 2.445(8) . ?
O1 C1 1.278(8) . ?
O2 C1 1.245(8) . ?
O3 C9 1.272(7) . ?
O4 C9 1.248(8) . ?
O6 C17 1.236(10) . ?
O7 C21 1.229(10) . ?
N1 C8 1.362(8) . ?
N1 C5 1.412(8) . ?
N2 C8 1.314(8) 8 ?
N2 C8 1.367(8) . ?
N3 C16 1.349(8) . ?
N3 C13 1.388(8) . ?
N4 C16 1.335(8) . ?
N4 C16 1.334(8) 12_565 ?
N5 C17 1.273(12) . ?
N5 C20 1.440(11) . ?
N5 C19 1.556(14) . ?
N6 C21 1.331(11) . ?
N6 C23 1.439(11) . ?
N6 C24 1.489(13) . ?
C1 C2 1.489(8) . ?
C2 C7 1.393(8) . ?
C2 C3 1.384(9) . ?
C3 C4 1.363(10) . ?
C4 C5 1.383(9) . ?
C5 C6 1.387(8) . ?
C6 C7 1.377(9) . ?
C8 N2 1.314(8) 11_455 ?
C9 C10 1.489(9) . ?
C10 C11 1.370(8) . ?
C10 C15 1.413(9) . ?
C11 C12 1.395(9) . ?
C12 C13 1.402(9) . ?
C13 C14 1.387(9) . ?
C14 C15 1.364(10) . ?
C16 N4 1.334(8) 6_456 ?
C17 C18 1.525(14) . ?
C21 C22 1.468(12) . ?

loop_
_geom_angle_atom_site_label_1
_geom_angle_atom_site_label_2
_geom_angle_atom_site_label_3
_geom_angle
_geom_angle_site_symmetry_1
_geom_angle_site_symmetry_3
_geom_angle_publ_flag
O1 Er1 O1 87.15(18) . 7_564 ?
O1 Er1 O1 87.15(18) . 10_655 ?
O1 Er1 O1 87.15(18) 7_564 10_655 ?
O1 Er1 O6 87.28(18) . 7_564 ?
O1 Er1 O6 171.88(18) 7_564 7_564 ?
O1 Er1 O6 98.47(17) 10_655 7_564 ?
O1 Er1 O6 171.88(18) . . ?
O1 Er1 O6 98.47(17) 7_564 . ?
O1 Er1 O6 87.28(18) 10_655 . ?
O6 Er1 O6 87.70(18) 7_564 . ?
O1 Er1 O6 98.47(17) . 10_655 ?
O1 Er1 O6 87.28(18) 7_564 10_655 ?
O1 Er1 O6 171.88(18) 10_655 10_655 ?
O6 Er1 O6 87.70(18) 7_564 10_655 ?
O6 Er1 O6 87.70(18) . 10_655 ?
O3 Er2 O3 109.66(12) 7_564 10_655 ?
O3 Er2 O3 109.66(12) 7_564 . ?
O3 Er2 O3 109.66(12) 10_655 . ?
O3 Er2 O7 85.95(17) 7_564 7_564 ?
O3 Er2 O7 80.21(19) 10_655 7_564 ?
O3 Er2 O7 156.11(18) . 7_564 ?
O3 Er2 O7 80.21(19) 7_564 . ?
O3 Er2 O7 156.11(18) 10_655 . ?
O3 Er2 O7 85.95(17) . . ?
O7 Er2 O7 78.9(2) 7_564 . ?
O3 Er2 O7 156.11(18) 7_564 10_655 ?
O3 Er2 O7 85.95(17) 10_655 10_655 ?
O3 Er2 O7 80.21(19) . 10_655 ?
O7 Er2 O7 78.9(2) 7_564 10_655 ?
O7 Er2 O7 78.9(2) . 10_655 ?
O3 Er2 O5 70.71(12) 7_564 . ?
O3 Er2 O5 70.71(12) 10_655 . ?
O3 Er2 O5 70.71(12) . . ?
O7 Er2 O5 132.83(14) 7_564 . ?
O7 Er2 O5 132.83(14) . . ?
O7 Er2 O5 132.83(14) 10_655 . ?
C1 O1 Er1 127.0(4) . . ?
C9 O3 Er2 143.9(4) . . ?
C17 O6 Er1 147.4(6) . . ?
C21 O7 Er2 144.6(5) . . ?
C8 N1 C5 129.7(5) . . ?
C8 N2 C8 113.6(6) 8 . ?
C16 N3 C13 131.4(5) . . ?
C16 N4 C16 115.3(6) . 12_565 ?
C17 N5 C20 128.4(11) . . ?
C17 N5 C19 113.8(8) . . ?
C20 N5 C19 117.8(9) . . ?
C21 N6 C23 124.9(9) . . ?
C21 N6 C24 117.3(8) . . ?
C23 N6 C24 117.8(9) . . ?
O2 C1 O1 123.6(6) . . ?
O2 C1 C2 119.9(6) . . ?
O1 C1 C2 116.5(6) . . ?
C7 C2 C3 118.0(6) . . ?
C7 C2 C1 121.5(6) . . ?
C3 C2 C1 120.4(6) . . ?
C4 C3 C2 120.8(6) . . ?
C3 C4 C5 121.5(6) . . ?
N1 C5 C6 125.1(6) . . ?
N1 C5 C4 116.4(6) . . ?
C6 C5 C4 118.5(6) . . ?
C7 C6 C5 120.1(6) . . ?
C6 C7 C2 121.2(6) . . ?
N2 C8 N1 121.4(6) 11_455 . ?
N2 C8 N2 126.4(6) 11_455 . ?
N1 C8 N2 112.1(5) . . ?
O4 C9 O3 123.8(6) . . ?
O4 C9 C10 120.7(6) . . ?
O3 C9 C10 115.6(5) . . ?
C11 C10 C15 118.2(6) . . ?
C11 C10 C9 121.8(6) . . ?
C15 C10 C9 120.0(6) . . ?
C10 C11 C12 121.5(6) . . ?
C11 C12 C13 120.2(6) . . ?
C12 C13 C14 117.5(6) . . ?
C12 C13 N3 124.3(6) . . ?
C14 C13 N3 118.2(6) . . ?
C15 C14 C13 122.5(6) . . ?
C14 C15 C10 120.1(6) . . ?
N4 C16 N3 120.2(6) . . ?
N4 C16 N4 124.7(6) . 6_456 ?
N3 C16 N4 115.1(5) . 6_456 ?
N5 C17 O6 122.9(10) . . ?
N5 C17 C18 117.4(9) . . ?
O6 C17 C18 119.6(9) . . ?
O7 C21 N6 119.1(8) . . ?
O7 C21 C22 123.2(8) . . ?
N6 C21 C22 117.7(8) . . ?

_diffrn_measured_fraction_theta_max 1.000
_diffrn_reflns_theta_full        25.48
_diffrn_measured_fraction_theta_full 1.000
_refine_diff_density_max         1.929
_refine_diff_density_min         -1.380
_refine_diff_density_rms         0.248
