####################################################################### 
# 
# This file contains crystal structure data downloaded from the 
# Cambridge Structural Database (CSD) hosted by the Cambridge 
# Crystallographic Data Centre (CCDC).
# 
# Full information about CCDC data access policies and citation 
# guidelines are available at http://www.ccdc.cam.ac.uk/access/V1 
# 
# Audit and citation data items may have been added by the CCDC. 
# Please retain this information to preserve the provenance of 
# this file and to allow appropriate attribution of the data. 
# 
#######################################################################

data_[Cu(tcb)]PF6-ace
_audit_block_doi                 10.5517/cc3r4xw
_database_code_depnum_ccdc_archive 'CCDC 111628'
loop_
_citation_id
_citation_doi
_citation_year
1 10.1021/ic980427v 1998
_audit_update_record             
;
1998-11-23 deposited with the CCDC.	2024-07-13 downloaded from the CCDC.
;

_audit_creation_date             'Fri Aug  7 19:13:14 1998'
_audit_creation_method           'from TEXRAY.INF file'
_computing_data_collection       'MSC/AFC Diffractometer Control'
_computing_cell_refinement       'MSC/AFC Diffractometer Control'
_computing_data_reduction        teXsan
_computing_structure_solution    ?
_computing_structure_refinement  teXsan
_computing_publication_material  teXsan
_computing_molecular_graphics    ?
_chemical_compound_source        ?
_chemical_name_common            ?
_chemical_formula_weight         578.80
_chemical_formula_analytical     ?
_chemical_formula_sum            'C21 H2 Cu F6 N6 O2 P '
_chemical_formula_moiety         ?
_chemical_formula_structural     ?
_chemical_melting_point          ?
_cell_length_a                   11.553(4)
_cell_length_b                   16.135(7)
_cell_length_c                   15.046(3)
_cell_angle_alpha                90
_cell_angle_beta                 108.08(2)
_cell_angle_gamma                90
_cell_volume                     2666(1)
_cell_formula_units_Z            4
_cell_measurement_temperature    296.2
_cell_measurement_reflns_used    21
_cell_measurement_theta_min      15.0
_cell_measurement_theta_max      18.9
_symmetry_cell_setting           monoclinic
_symmetry_space_group_name_H-M   'P 21/a       '
_symmetry_Int_Tables_number      14
_symmetry_space_group_name_Hall  ?
loop_
_symmetry_equiv_pos_as_xyz
x,y,z
1/2-x,1/2+y,-z
-x,-y,-z
1/2+x,1/2-y,z
_exptl_crystal_description       brick
_exptl_crystal_colour            yellow
_exptl_crystal_size_max          0.200
_exptl_crystal_size_mid          0.200
_exptl_crystal_size_min          0.200
_exptl_crystal_density_diffrn    1.442
_exptl_crystal_density_method    'not measured'
_exptl_crystal_F_000             1136.00
_exptl_absorpt_coefficient_mu    0.946
_exptl_absorpt_correction_type   none

_diffrn_ambient_temperature      296.2
_diffrn_radiation_wavelength     0.7107
_diffrn_radiation_type           'Mo K\a'
_diffrn_radiation_source         'Rigaku rotating anode'
_diffrn_radiation_monochromator  graphite
_diffrn_radiation_detector       'scintillation counter'
_diffrn_measurement_device_type  'Rigaku AFC5R'
_diffrn_measurement_method       \w-2\q

_diffrn_standards_number         3
_diffrn_standards_interval_count 150
_diffrn_standards_decay_%        -0.44
loop_
_diffrn_standard_refln_index_h
_diffrn_standard_refln_index_k
_diffrn_standard_refln_index_l
-2 4 1
0 4 -1
0 3 2
_diffrn_reflns_number            6423
_reflns_number_total             6122
_reflns_number_gt                2776
_reflns_observed_expression      >2.0sigma(I)
_diffrn_reflns_av_R_equivalents  0.022
_diffrn_reflns_av_sigmaI/netI    0.122
_diffrn_reflns_limit_h_min       0
_diffrn_reflns_limit_h_max       15
_diffrn_reflns_limit_k_min       0
_diffrn_reflns_limit_k_max       20
_diffrn_reflns_limit_l_min       -19
_diffrn_reflns_limit_l_max       18
_diffrn_reflns_theta_min         2.52
_diffrn_reflns_theta_max         27.51
_diffrn_reflns_reduction_process 'Lp corrections applied'
_diffrn_orient_matrix_UB_11      0.04930
_diffrn_orient_matrix_UB_12      0.03782
_diffrn_orient_matrix_UB_13      0.05019
_diffrn_orient_matrix_UB_21      0.03975
_diffrn_orient_matrix_UB_22      0.02379
_diffrn_orient_matrix_UB_23      -0.04461
_diffrn_orient_matrix_UB_31      -0.06543
_diffrn_orient_matrix_UB_32      0.04295
_diffrn_orient_matrix_UB_33      -0.01949

loop_
_atom_site_label
_atom_site_type_symbol
_atom_site_fract_x
_atom_site_fract_y
_atom_site_fract_z
_atom_site_U_iso_or_equiv
#Uani 1.00 d . . .
#Uani 1.00 d . . .
#Uani 1.00 d . . .
#Uani 1.00 d . . .
#Uani 1.00 d . . .
#Uani 1.00 d . . .
#Uani 1.00 d . . .
#Uani 1.00 d . . .
#Uani 1.00 d . . .
#Uani 1.00 d . . .
#Uani 1.00 d . . .
#Uani 1.00 d . . .
#Uani 1.00 d . . .
#Uani 1.00 d . . .
#Uani 1.00 d . . .
#Uani 1.00 d . . .
#Uani 1.00 d . . .
#Uani 1.00 d . . .
#Uani 1.00 d . . .
#Uani 1.00 d . . .
#Uani 1.00 d . . .
#Uani 1.00 d . . .
#Uani 1.00 d . . .
#Uani 1.00 d . . .
#Uani 1.00 d . . .
#Uani 1.00 d . . .
#Uani 1.00 d . . .
#Uani 1.00 d . . .
#Uani 1.00 d . . .
#Uani 1.00 d . . .
#Uani 1.00 d . . .
#Uani 1.00 d . . .
#Uani 1.00 d . . .
#Uani 1.00 d . . .
#Uani 1.00 d . . .
#Uani 1.00 d . . .
#Uani 1.00 d . . .
#Uani 1.00 d . . .
#Uani 1.00 d . . .
#Uani 1.00 d . . .
#Uani 1.00 d . . .
#Uani 1.00 d . . .
#Uani 1.00 d . . .
#Uani 1.00 d . . .
#Uani 1.00 d . . .
#Uani 1.00 d . . .
#Uani 1.00 d . . .
#Uani 1.00 d . . .
#Uani 1.00 d . . .
#Uani 1.00 d . . .
#Uani 1.00 d . . .
#Uani 1.00 d . . .
#Uani 1.00 d . . .
#Uani 1.00 d . . .
#Uani 1.00 d . . .
#Uani 1.00 d . . .
#Uani 1.00 d . . .
#Uani 1.00 d . . .
#Uani 1.00 d . . .
#Uani 1.00 d . . .
#Uani 1.00 d . . .
#Uani 1.00 d . . .
#Uani 1.00 d . . .
#Uani 1.00 d . . .
#Uani 1.00 d . . .
#Uani 1.00 d . . .
#Uani 1.00 d . . .
#Uani 1.00 d . . .
#Uani 1.00 d . . .
#Uani 1.00 d . . .
#Uani 1.00 d . . .
#Uani 1.00 d . . .
#Uani 1.00 d . . .
#Uani 1.00 d . . .
#Uani 1.00 d . . .
#Uani 1.00 d . . .
#Uani 1.00 d . . .
#Uani 1.00 d . . .
#Uani 1.00 d . . .
#Uani 1.00 d . . .
#Uani 1.00 d . . .
#Uani 1.00 d . . .
#Uani 1.00 d . . .
#Uani 1.00 d . . .
#Uani 1.00 d . . .
#Uani 1.00 d . . .
#Uani 1.00 d . . .
#Uani 1.00 d . . .
#Uani 1.00 d . . .
#Uani 1.00 d . . .
#Uani 1.00 d . . .
#Uani 1.00 d . . .
#Uani 1.00 d . . .
#Uani 1.00 d . . .
#Uani 1.00 d . . .
#Uani 1.00 d . . .
#Uani 1.00 d . . .
#Uani 1.00 d . . .
#Uani 1.00 d . . .
#Uani 1.00 d . . .
#Uani 1.00 d . . .
#Uani 1.00 d . . .
#Uani 1.00 d . . .
#Uani 1.00 d . . .
#Uani 1.00 d . . .
#Uani 1.00 d . . .
#Uani 1.00 d . . .
#Uani 1.00 d . . .
#Uani 1.00 d . . .
#Uani 1.00 d . . .
#Uani 1.00 d . . .
#Uani 1.00 d . . .
#Uani 1.00 d . . .
#Uani 1.00 d . . .
#Uani 1.00 d . . .
#Uani 1.00 d . . .
#Uani 1.00 d . . .
#Uani 1.00 d . . .
#Uani 1.00 d . . .
#Uani 1.00 d . . .
#Uani 1.00 d . . .
#Uani 1.00 d . . .
#Uani 1.00 d . . .
#Uani 1.00 d . . .
#Uani 1.00 d . . .
#Uani 1.00 d . . .
#Uani 1.00 d . . .
#Uani 1.00 d . . .
#Uani 1.00 d . . .
#Uani 1.00 d . . .
#Uani 1.00 d . . .
#Uani 1.00 d . . .
#Uani 1.00 d . . .
#Uani 1.00 d . . .
#Uani 1.00 d . . .
#Uani 1.00 d . . .
#Uani 1.00 d . . .
#Uani 1.00 d . . .
#Uani 1.00 d . . .
#Uani 1.00 d . . .
#Uani 1.00 d . . .
#Uani 1.00 d . . .
#Uani 1.00 d . . .
#Uani 1.00 d . . .
#Uani 1.00 d . . .
#Uani 1.00 d . . .
#Uani 1.00 d . . .
#Uani 1.00 d . . .
#Uani 1.00 d . . .
#Uani 1.00 d . . .
#Uani 1.00 d . . .
#Uani 1.00 d . . .
#Uani 1.00 d . . .
#Uani 1.00 d . . .
#Uani 1.00 d . . .
#Uani 1.00 d . . .
#Uani 1.00 d . . .
#Uani 1.00 d . . .
#Uani 1.00 d . . .
#Uani 1.00 d . . .
#Uani 1.00 d . . .
#Uani 1.00 d . . .
#Uani 1.00 d . . .
#Uani 1.00 d . . .
#Uani 1.00 d . . .
#Uani 1.00 d . . .
#Uani 1.00 d . . .
#Uani 1.00 d . . .
#Uani 1.00 d . . .
#Uani 1.00 d . . .
#Uani 1.00 d . . .
#Uani 1.00 d . . .
#Uani 1.00 d . . .
#Uani 1.00 d . . .
#Uani 1.00 d . . .
#Uani 1.00 d . . .
#Uani 1.00 d . . .
#Uani 1.00 d . . .
#Uani 1.00 d . . .
#Uani 1.00 d . . .
#Uani 1.00 d . . .
#Uani 1.00 d . . .
#Uani 1.00 d . . .
#Uani 1.00 d . . .
#Uani 1.00 d . . .
#Uani 1.00 d . . .
#Uani 1.00 d . . .
#Uani 1.00 d . . .
#Uani 1.00 d . . .
#Uani 1.00 d . . .
#Uani 1.00 d . . .
#Uani 1.00 d . . .
#Uani 1.00 d . . .
#Uani 1.00 d . . .
#Uani 1.00 d . . .
#Uani 1.00 d . . .
#Uani 1.00 d . . .
#Uani 1.00 d . . .
#Uani 1.00 d . . .
#Uani 1.00 d . . .
#Uani 1.00 d . . .
#Uani 1.00 d . . .
#Uani 1.00 d . . .
#Uani 1.00 d . . .
#Uani 1.00 d . . .
#Uani 1.00 d . . .
#Uani 1.00 d . . .
#Uani 1.00 d . . .
#Uani 1.00 d . . .
#Uani 1.00 d . . .
#Uani 1.00 d . . .
#Uani 1.00 d . . .
#Uani 1.00 d . . .
#Uani 1.00 d . . .
#Uani 1.00 d . . .
#Uani 1.00 d . . .
#Uani 1.00 d . . .
#Uani 1.00 d . . .
#Uani 1.00 d . . .
#Uani 1.00 d . . .
#Uani 1.00 d . . .
#Uani 1.00 d . . .
#Uani 1.00 d . . .
#Uani 1.00 d . . .
#Uani 1.00 d . . .
#Uani 1.00 d . . .
#Uani 1.00 d . . .
#Uani 1.00 d . . .
#Uani 1.00 d . . .
#Uani 1.00 d . . .
#Uani 1.00 d . . .
#Uani 1.00 d . . .
#Uani 1.00 d . . .
#Uani 1.00 d . . .
#Uani 1.00 d . . .
#Uani 1.00 d . . .
#Uani 1.00 d . . .
#Uani 1.00 d . . .
#Uani 1.00 d . . .
#Uani 1.00 d . . .
#Uani 1.00 d . . .
#Uani 1.00 d . . .
#Uani 1.00 d . . .
#Uani 1.00 d . . .
#Uani 1.00 d . . .
#Uani 1.00 d . . .
#Uani 1.00 d . . .
#Uani 1.00 d . . .
#Uani 1.00 d . . .
#Uani 1.00 d . . .
#Uani 1.00 d . . .
#Uani 1.00 d . . .
#Uani 1.00 d . . .
#Uani 1.00 d . . .
#Uani 1.00 d . . .
#Uani 1.00 d . . .
#Uani 1.00 d . . .
#Uani 1.00 d . . .
#Uani 1.00 d . . .
#Uani 1.00 d . . .
#Uani 1.00 d . . .
#Uani 1.00 d . . .
#Uani 1.00 d . . .
#Uani 1.00 d . . .
#Uani 1.00 d . . .
#Uani 1.00 d . . .
#Uani 1.00 d . . .
#Uani 1.00 d . . .
#Uani 1.00 d . . .
#Uani 1.00 d . . .
#Uani 1.00 d . . .
#Uani 1.00 d . . .
#Uani 1.00 d . . .
#Uani 1.00 d . . .
#Uani 1.00 d . . .
#Uani 1.00 d . . .
#Uani 1.00 d . . .
#Uani 1.00 d . . .
#Uani 1.00 d . . .
#Uani 1.00 d . . .
#Uani 1.00 d . . .
#Uani 1.00 d . . .
#Uani 1.00 d . . .
#Uani 1.00 d . . .
#Uani 1.00 d . . .
#Uani 1.00 d . . .
#Uani 1.00 d . . .
#Uani 1.00 d . . .
#Uani 1.00 d . . .
#Uani 1.00 d . . .
#Uani 1.00 d . . .
#Uani 1.00 d . . .
#Uani 1.00 d . . .
#Uani 1.00 d . . .
#Uani 1.00 d . . .
#Uani 1.00 d . . .
#Uani 1.00 d . . .
#Uani 1.00 d . . .
#Uani 1.00 d . . .
#Uani 1.00 d . . .
#Uani 1.00 d . . .
#Uani 1.00 d . . .
#Uani 1.00 d . . .
#Uani 1.00 d . . .
#Uani 1.00 d . . .
#Uani 1.00 d . . .
#Uani 1.00 d . . .
#Uani 1.00 d . . .
#Uani 1.00 d . . .
#Uani 1.00 d . . .
#Uani 1.00 d . . .
#Uani 1.00 d . . .
#Uani 1.00 d . . .
#Uani 1.00 d . . .
#Uani 1.00 d . . .
#Uani 1.00 d . . .
#Uani 1.00 d . . .
#Uani 1.00 d . . .
#Uani 1.00 d . . .
#Uani 1.00 d . . .
#Uani 1.00 d . . .
#Uani 1.00 d . . .
#Uani 1.00 d . . .
#Uani 1.00 d . . .
#Uani 1.00 d . . .
#Uani 1.00 d . . .
#Uani 1.00 d . . .
#Uani 1.00 d . . .
#Uani 1.00 d . . .
#Uani 1.00 d . . .
#Uani 1.00 d . . .
#Uani 1.00 d . . .
#Uani 1.00 d . . .
#Uani 1.00 d . . .
#Uani 1.00 d . . .
#Uani 1.00 d . . .
#Uani 1.00 d . . .
#Uani 1.00 d . . .
#Uani 1.00 d . . .
#Uani 1.00 d . . .
#Uani 1.00 d . . .
#Uani 1.00 d . . .
#Uani 1.00 d . . .
#Uani 1.00 d . . .
#Uani 1.00 d . . .
#Uani 1.00 d . . .
#Uani 1.00 d . . .
#Uani 1.00 d . . .
#Uani 1.00 d . . .
#Uani 1.00 d . . .
#Uani 1.00 d . . .
#Uani 1.00 d . . .
#Uani 1.00 d . . .
#Uani 1.00 d . . .
#Uani 1.00 d . . .
#Uani 1.00 d . . .
#Uani 1.00 d . . .
#Uani 1.00 d . . .
#Uani 1.00 d . . .
#Uani 1.00 d . . .
#Uani 1.00 d . . .
#Uani 1.00 d . . .
#Uani 1.00 d . . .
#Uani 1.00 d . . .
#Uani 1.00 d . . .
#Uani 1.00 d . . .
#Uani 1.00 d . . .
#Uani 1.00 d . . .
#Uani 1.00 d . . .
#Uani 1.00 d . . .
#Uani 1.00 d . . .
#Uani 1.00 d . . .
#Uani 1.00 d . . .
#Uani 1.00 d . . .
#Uani 1.00 d . . .
#Uani 1.00 d . . .
#Uani 1.00 d . . .
#Uani 1.00 d . . .
#Uani 1.00 d . . .
#Uani 1.00 d . . .
#Uani 1.00 d . . .
#Uani 1.00 d . . .
#Uani 1.00 d . . .
#Uani 1.00 d . . .
#Uani 1.00 d . . .
#Uani 1.00 d . . .
#Uani 1.00 d . . .
#Uani 1.00 d . . .
#Uani 1.00 d . . .
#Uani 1.00 d . . .
#Uani 1.00 d . . .
#Uani 1.00 d . . .
#Uani 1.00 d . . .
#Uani 1.00 d . . .
#Uani 1.00 d . . .
#Uani 1.00 d . . .
#Uani 1.00 d . . .
#Uani 1.00 d . . .
#Uani 1.00 d . . .
#Uani 1.00 d . . .
#Uani 1.00 d . . .
#Uani 1.00 d . . .
#Uani 1.00 d . . .
#Uani 1.00 d . . .
#Uani 1.00 d . . .
#Uani 1.00 d . . .
#Uani 1.00 d . . .
#Uani 1.00 d . . .
#Uani 1.00 d . . .
#Uani 1.00 d . . .
#Uani 1.00 d . . .
#Uani 1.00 d . . .
#Uani 1.00 d . . .
#Uani 1.00 d . . .
#Uani 1.00 d . . .
#Uani 1.00 d . . .
#Uani 1.00 d . . .
#Uani 1.00 d . . .
#Uani 1.00 d . . .
#Uani 1.00 d . . .
#Uani 1.00 d . . .
#Uani 1.00 d . . .
#Uani 1.00 d . . .
#Uani 1.00 d . . .
#Uani 1.00 d . . .
#Uani 1.00 d . . .
#Uani 1.00 d . . .
#Uani 1.00 d . . .
#Uani 1.00 d . . .
#Uani 1.00 d . . .
#Uani 1.00 d . . .
#Uani 1.00 d . . .
#Uani 1.00 d . . .
#Uani 1.00 d . . .
#Uani 1.00 d . . .
#Uani 1.00 d . . .
#Uani 1.00 d . . .
#Uani 1.00 d . . .
#Uani 1.00 d . . .
#Uani 1.00 d . . .
#Uani 1.00 d . . .
#Uani 1.00 d . . .
#Uani 1.00 d . . .
#Uani 1.00 d . . .
#Uani 1.00 d . . .
#Uani 1.00 d . . .
#Uani 1.00 d . . .
#Uani 1.00 d . . .
#Uani 1.00 d . . .
#Uani 1.00 d . . .
#Uani 1.00 d . . .
#Uani 1.00 d . . .
#Uani 1.00 d . . .
#Uani 1.00 d . . .
#Uani 1.00 d . . .
#Uani 1.00 d . . .
#Uani 1.00 d . . .
#Uani 1.00 d . . .
#Uani 1.00 d . . .
#Uani 1.00 d . . .
#Uani 1.00 d . . .
#Uani 1.00 d . . .
#Uani 1.00 d . . .
#Uani 1.00 d . . .
#Uani 1.00 d . . .
#Uani 1.00 d . . .
#Uani 1.00 d . . .
#Uani 1.00 d . . .
#Uani 1.00 d . . .
#Uani 1.00 d . . .
#Uani 1.00 d . . .
#Uani 1.00 d . . .
#Uani 1.00 d . . .
#Uani 1.00 d . . .
#Uani 1.00 d . . .
#Uani 1.00 d . . .
#Uani 1.00 d . . .
#Uani 1.00 d . . .
#Uani 1.00 d . . .
#Uani 1.00 d . . .
#Uani 1.00 d . . .
#Uani 1.00 d . . .
#Uani 1.00 d . . .
#Uani 1.00 d . . .
#Uani 1.00 d . . .
#Uani 1.00 d . . .
#Uani 1.00 d . . .
#Uani 1.00 d . . .
#Uani 1.00 d . . .
#Uani 1.00 d . . .
#Uani 1.00 d . . .
#Uani 1.00 d . . .
#Uani 1.00 d . . .
#Uani 1.00 d . . .
#Uani 1.00 d . . .
#Uani 1.00 d . . .
#Uani 1.00 d . . .
#Uani 1.00 d . . .
#Uani 1.00 d . . .
#Uani 1.00 d . . .
#Uani 1.00 d . . .
#Uani 1.00 d . . .
#Uani 1.00 d . . .
#Uani 1.00 d . . .
#Uani 1.00 d . . .
#Uani 1.00 d . . .
#Uani 1.00 d . . .
#Uani 1.00 d . . .
#Uani 1.00 d . . .
#Uani 1.00 d . . .
#Uani 1.00 d . . .
#Uani 1.00 d . . .
#Uani 1.00 d . . .
#Uani 1.00 d . . .
#Uani 1.00 d . . .
#Uani 1.00 d . . .
#Uani 1.00 d . . .
#Uani 1.00 d . . .
#Uani 1.00 d . . .
#Uani 1.00 d . . .
#Uani 1.00 d . . .
#Uani 1.00 d . . .
#Uani 1.00 d . . .
#Uani 1.00 d . . .
#Uani 1.00 d . . .
#Uani 1.00 d . . .
#Uani 1.00 d . . .
#Uani 1.00 d . . .
#Uani 1.00 d . . .
#Uani 1.00 d . . .
#Uani 1.00 d . . .
#Uani 1.00 d . . .
#Uani 1.00 d . . .
#Uani 1.00 d . . .
#Uani 1.00 d . . .
#Uani 1.00 d . . .
#Uani 1.00 d . . .
#Uani 1.00 d . . .
#Uani 1.00 d . . .
#Uani 1.00 d . . .
#Uani 1.00 d . . .
#Uani 1.00 d . . .
#Uani 1.00 d . . .
#Uani 1.00 d . . .
#Uani 1.00 d . . .
#Uani 1.00 d . . .
#Uani 1.00 d . . .
#Uani 1.00 d . . .
#Uani 1.00 d . . .
#Uani 1.00 d . . .
#Uani 1.00 d . . .
#Uani 1.00 d . . .
#Uani 1.00 d . . .
#Uani 1.00 d . . .
#Uani 1.00 d . . .
#Uani 1.00 d . . .
#Uani 1.00 d . . .
#Uani 1.00 d . . .
#Uani 1.00 d . . .
#Uani 1.00 d . . .
#Uani 1.00 d . . .
#Uani 1.00 d . . .
#Uani 1.00 d . . .
#Uani 1.00 d . . .
#Uani 1.00 d . . .
#Uani 1.00 d . . .
#Uani 1.00 d . . .
#Uani 1.00 d . . .
#Uani 1.00 d . . .
#Uani 1.00 d . . .
#Uani 1.00 d . . .
#Uani 1.00 d . . .
#Uani 1.00 d . . .
#Uani 1.00 d . . .
#Uani 1.00 d . . .
#Uani 1.00 d . . .
#Uani 1.00 d . . .
#Uani 1.00 d . . .
#Uani 1.00 d . . .
#Uani 1.00 d . . .
#Uani 1.00 d . . .
#Uani 1.00 d . . .
#Uani 1.00 d . . .
#Uani 1.00 d . . .
#Uani 1.00 d . . .
#Uani 1.00 d . . .
#Uani 1.00 d . . .
#Uani 1.00 d . . .
#Uani 1.00 d . . .
#Uani 1.00 d . . .
#Uani 1.00 d . . .
#Uani 1.00 d . . .
#Uani 1.00 d . . .
#Uani 1.00 d . . .
#Uani 1.00 d . . .
#Uani 1.00 d . . .
#Uani 1.00 d . . .
#Uani 1.00 d . . .
#Uani 1.00 d . . .
#Uani 1.00 d . . .
#Uani 1.00 d . . .
#Uani 1.00 d . . .
#Uani 1.00 d . . .
#Uani 1.00 d . . .
#Uani 1.00 d . . .
#Uani 1.00 d . . .
#Uani 1.00 d . . .
#Uani 1.00 d . . .
#Uani 1.00 d . . .
#Uani 1.00 d . . .
#Uani 1.00 d . . .
#Uani 1.00 d . . .
#Uani 1.00 d . . .
#Uani 1.00 d . . .
#Uani 1.00 d . . .
#Uani 1.00 d . . .
#Uani 1.00 d . . .
#Uani 1.00 d . . .
#Uani 1.00 d . . .
#Uani 1.00 d . . .
#Uani 1.00 d . . .
#Uani 1.00 d . . .
#Uani 1.00 d . . .
#Uani 1.00 d . . .
#Uani 1.00 d . . .
#Uani 1.00 d . . .
#Uani 1.00 d . . .
#Uani 1.00 d . . .
#Uani 1.00 d . . .
#Uani 1.00 d . . .
#Uani 1.00 d . . .
#Uani 1.00 d . . .
#Uani 1.00 d . . .
#Uani 1.00 d . . .
#Uani 1.00 d . . .
#Uani 1.00 d . . .
#Uani 1.00 d . . .
#Uani 1.00 d . . .
#Uani 1.00 d . . .
#Uani 1.00 d . . .
#Uani 1.00 d . . .
#Uani 1.00 d . . .
#Uani 1.00 d . . .
#Uani 1.00 d . . .
#Uani 1.00 d . . .
#Uani 1.00 d . . .
#Uani 1.00 d . . .
#Uani 1.00 d . . .
#Uani 1.00 d . . .
#Uani 1.00 d . . .
#Uani 1.00 d . . .
#Uani 1.00 d . . .
#Uani 1.00 d . . .
#Uani 1.00 d . . .
#Uani 1.00 d . . .
#Uani 1.00 d . . .
#Uani 1.00 d . . .
#Uani 1.00 d . . .
#Uani 1.00 d . . .
#Uani 1.00 d . . .
#Uani 1.00 d . . .
#Uani 1.00 d . . .
#Uani 1.00 d . . .
#Uani 1.00 d . . .
#Uani 1.00 d . . .
#Uani 1.00 d . . .
#Uani 1.00 d . . .
#Uani 1.00 d . . .
#Uani 1.00 d . . .
#Uani 1.00 d . . .
#Uani 1.00 d . . .
#Uani 1.00 d . . .
#Uani 1.00 d . . .
#Uani 1.00 d . . .
#Uani 1.00 d . . .
#Uani 1.00 d . . .
#Uani 1.00 d . . .
#Uani 1.00 d . . .
#Uani 1.00 d . . .
#Uani 1.00 d . . .
#Uani 1.00 d . . .
#Uani 1.00 d . . .
#Uani 1.00 d . . .
#Uani 1.00 d . . .
#Uani 1.00 d . . .
#Uani 1.00 d . . .
#Uani 1.00 d . . .
#Uani 1.00 d . . .
#Uani 1.00 d . . .
#Uani 1.00 d . . .
#Uani 1.00 d . . .
#Uani 1.00 d . . .
#Uani 1.00 d . . .
#Uani 1.00 d . . .
#Uani 1.00 d . . .
#Uani 1.00 d . . .
#Uani 1.00 d . . .
#Uani 1.00 d . . .
#Uani 1.00 d . . .
#Uani 1.00 d . . .
#Uani 1.00 d . . .
#Uani 1.00 d . . .
#Uani 1.00 d . . .
#Uani 1.00 d . . .
#Uani 1.00 d . . .
#Uani 1.00 d . . .
#Uani 1.00 d . . .
#Uani 1.00 d . . .
#Uani 1.00 d . . .
#Uani 1.00 d . . .
#Uani 1.00 d . . .
#Uani 1.00 d . . .
#Uani 1.00 d . . .
#Uani 1.00 d . . .
#Uani 1.00 d . . .
#Uani 1.00 d . . .
#Uani 1.00 d . . .
#Uani 1.00 d . . .
#Uani 1.00 d . . .
#Uani 1.00 d . . .
#Uani 1.00 d . . .
#Uani 1.00 d . . .
#Uani 1.00 d . . .
#Uani 1.00 d . . .
#Uani 1.00 d . . .
#Uani 1.00 d . . .
#Uani 1.00 d . . .
#Uani 1.00 d . . .
#Uani 1.00 d . . .
#Uani 1.00 d . . .
#Uani 1.00 d . . .
#Uani 1.00 d . . .
#Uani 1.00 d . . .
#Uani 1.00 d . . .
#Uani 1.00 d . . .
#Uani 1.00 d . . .
#Uani 1.00 d . . .
#Uani 1.00 d . . .
#Uani 1.00 d . . .
#Uani 1.00 d . . .
#Uani 1.00 d . . .
#Uani 1.00 d . . .
#Uani 1.00 d . . .
#Uani 1.00 d . . .
#Uani 1.00 d . . .
#Uani 1.00 d . . .
#Uani 1.00 d . . .
#Uani 1.00 d . . .
#Uani 1.00 d . . .
#Uani 1.00 d . . .
#Uani 1.00 d . . .
#Uani 1.00 d . . .
#Uani 1.00 d . . .
#Uani 1.00 d . . .
#Uani 1.00 d . . .
#Uani 1.00 d . . .
#Uani 1.00 d . . .
#Uani 1.00 d . . .
#Uani 1.00 d . . .
#Uani 1.00 d . . .
#Uani 1.00 d . . .
#Uani 1.00 d . . .
#Uani 1.00 d . . .
#Uani 1.00 d . . .
#Uani 1.00 d . . .
#Uani 1.00 d . . .
#Uani 1.00 d . . .
#Uani 1.00 d . . .
#Uani 1.00 d . . .
#Uani 1.00 d . . .
#Uani 1.00 d . . .
#Uani 1.00 d . . .
#Uani 1.00 d . . .
#Uani 1.00 d . . .
#Uani 1.00 d . . .
#Uani 1.00 d . . .
#Uani 1.00 d . . .
#Uani 1.00 d . . .
#Uani 1.00 d . . .
#Uani 1.00 d . . .
#Uani 1.00 d . . .
#Uani 1.00 d . . .
#Uani 1.00 d . . .
#Uani 1.00 d . . .
#Uani 1.00 d . . .
#Uani 1.00 d . . .
#Uani 1.00 d . . .
#Uani 1.00 d . . .
#Uani 1.00 d . . .
#Uani 1.00 d . . .
#Uani 1.00 d . . .
#Uani 1.00 d . . .
#Uani 1.00 d . . .
#Uani 1.00 d . . .
#Uani 1.00 d . . .
#Uani 1.00 d . . .
#Uani 1.00 d . . .
#Uani 1.00 d . . .
#Uani 1.00 d . . .
#Uani 1.00 d . . .
#Uani 1.00 d . . .
#Uani 1.00 d . . .
#Uani 1.00 d . . .
#Uani 1.00 d . . .
#Uani 1.00 d . . .
#Uani 1.00 d . . .
#Uani 1.00 d . . .
#Uani 1.00 d . . .
#Uani 1.00 d . . .
#Uani 1.00 d . . .
#Uani 1.00 d . . .
#Uani 1.00 d . . .
#Uani 1.00 d . . .
#Uani 1.00 d . . .
#Uani 1.00 d . . .
#Uani 1.00 d . . .
#Uani 1.00 d . . .
#Uani 1.00 d . . .
#Uani 1.00 d . . .
#Uani 1.00 d . . .
#Uani 1.00 d . . .
#Uani 1.00 d . . .
#Uani 1.00 d . . .
#Uani 1.00 d . . .
#Uani 1.00 d . . .
#Uani 1.00 d . . .
#Uani 1.00 d . . .
#Uani 1.00 d . . .
#Uani 1.00 d . . .
#Uani 1.00 d . . .
#Uani 1.00 d . . .
#Uani 1.00 d . . .
#Uani 1.00 d . . .
#Uani 1.00 d . . .
#Uani 1.00 d . . .
#Uani 1.00 d . . .
#Uani 1.00 d . . .
#Uani 1.00 d . . .
#Uani 1.00 d . . .
#Uani 1.00 d . . .
#Uani 1.00 d . . .
#Uani 1.00 d . . .
Cu1 Cu -0.34575(8) 0.25221(7) -0.22433(6) 0.0330(2)
N1 N -0.4760(6) 0.3137(5) -0.3220(5) 0.048(2)
N2 N -0.2954(7) 0.1825(5) -0.3157(5) 0.047(2)
N3 N -0.4951(9) 0.0150(8) -0.7585(7) 0.120(5)
N4 N -0.6618(9) 0.4737(6) -0.7716(7) 0.089(4)
N5 N -0.3920(6) 0.1773(4) -0.1384(5) 0.035(2)
N6 N -0.7266(6) 0.1664(4) -0.1556(5) 0.036(2)
C1 C -0.0434(8) 0.1620(5) -0.3868(6) 0.043(3)
C2 C -0.2835(8) 0.1579(5) -0.3807(6) 0.042(3)
C3 C -0.421(1) 0.0417(8) -0.6970(7) 0.073(4)
C4 C -0.1794(9) 0.0468(7) -0.7048(7) 0.063(4)
C5 C -0.3522(8) 0.1007(5) -0.5411(6) 0.045(3)
C6 C -0.2588(7) 0.1286(5) -0.4658(6) 0.035(2)
C7 C -0.1387(8) 0.1297(5) -0.4686(6) 0.037(2)
C8 C -0.1123(7) 0.1041(5) -0.5466(6) 0.042(3)
C9 C -0.2065(8) 0.0759(5) -0.6231(5) 0.040(3)
C10 C -0.3267(8) 0.0736(6) -0.6193(6) 0.050(3)
C11 C -0.4177(7) 0.1275(5) -0.0954(5) 0.030(2)
C12 C -0.6632(7) 0.1176(5) -0.1105(5) 0.032(2)
C13 C -0.4181(7) -0.0568(5) 0.0554(5) 0.024(2)
C14 C -0.4564(7) 0.0628(5) -0.0442(5) 0.027(2)
C15 C -0.3727(7) 0.0064(5) 0.0111(5) 0.029(2)
N6* N -0.2266(6) 0.3336(4) -0.1556(5) 0.036(2)
C1* C -0.5434(8) 0.3380(5) -0.3868(6) 0.043(3)
C4* C -0.6794(9) 0.4532(7) -0.7048(7) 0.063(4)
Cu1* Cu -0.84575(8) 0.24779(7) -0.22433(6) 0.0330(2)
N1* N 0.0240(6) 0.1863(5) -0.3220(5) 0.048(2)
N4* N -0.1618(9) 0.0263(6) -0.7716(7) 0.089(4)
C13' C -0.5819(7) 0.0568(5) -0.0554(5) 0.024(2)
C12' C -0.3368(7) -0.1176(5) 0.1105(5) 0.032(2)
C14' C -0.5436(7) -0.0628(5) 0.0442(5) 0.027(2)
C12* C -0.1632(7) 0.3824(5) -0.1105(5) 0.032(2)
C7* C -0.6387(8) 0.3703(5) -0.4686(6) 0.037(2)
C9* C -0.7065(8) 0.4241(5) -0.6231(5) 0.040(3)
N1* N -0.9760(6) 0.1863(5) -0.3220(5) 0.048(2)
N2* N -0.7954(7) 0.3175(5) -0.3157(5) 0.047(2)
N5* N -0.8920(6) 0.3227(4) -0.1384(5) 0.035(2)
Cu1* Cu 0.15425(8) 0.24779(7) -0.22433(6) 0.0330(2)
C15' C -0.6273(7) -0.0064(5) -0.0111(5) 0.029(2)
N6' N -0.2734(6) -0.1664(4) 0.1556(5) 0.036(2)
C11' C -0.5823(7) -0.1275(5) 0.0954(5) 0.030(2)
C13" C -0.0819(7) 0.4432(5) -0.0554(5) 0.024(2)
C6* C -0.7588(7) 0.3714(5) -0.4658(6) 0.035(2)
C8* C -0.6123(7) 0.3959(5) -0.5466(6) 0.042(3)
C10* C -0.8267(8) 0.4264(6) -0.6193(6) 0.050(3)
C1! C -1.0434(8) 0.1620(5) -0.3868(6) 0.043(3)
C2* C -0.7835(8) 0.3421(5) -0.3807(6) 0.042(3)
C11* C -0.9177(7) 0.3725(5) -0.0954(5) 0.030(2)
N2* N 0.2046(7) 0.3175(5) -0.3157(5) 0.047(2)
N5* N 0.1080(6) 0.3227(4) -0.1384(5) 0.035(2)
N6! N 0.2734(6) 0.1664(4) -0.1556(5) 0.036(2)
Cu1" Cu -0.15425(8) -0.24779(7) 0.22433(6) 0.0330(2)
N5' N -0.6080(6) -0.1773(4) 0.1384(5) 0.035(2)
C14* C 0.0436(7) 0.4372(5) -0.0442(5) 0.027(2)
C15" C -0.1273(7) 0.5064(5) -0.0111(5) 0.029(2)
C5* C -0.8522(8) 0.3993(5) -0.5411(6) 0.045(3)
C3* C -0.921(1) 0.4583(8) -0.6970(7) 0.073(4)
C7! C -1.1387(8) 0.1297(5) -0.4686(6) 0.037(2)
C14* C -0.9564(7) 0.4372(5) -0.0442(5) 0.027(2)
C2* C 0.2165(8) 0.3421(5) -0.3807(6) 0.042(3)
C11* C 0.0823(7) 0.3725(5) -0.0954(5) 0.030(2)
C12! C 0.3368(7) 0.1176(5) -0.1105(5) 0.032(2)
N1" N -0.0240(6) -0.1863(5) 0.3220(5) 0.048(2)
N2" N -0.2046(7) -0.3175(5) 0.3157(5) 0.047(2)
N5" N -0.1080(6) -0.3227(4) 0.1384(5) 0.035(2)
Cu1' Cu -0.65425(8) -0.25221(7) 0.22433(6) 0.0330(2)
C15* C 0.1273(7) 0.4936(5) 0.0111(5) 0.029(2)
C14" C -0.0436(7) 0.5628(5) 0.0442(5) 0.027(2)
N3* N -0.9951(9) 0.4850(8) -0.7585(7) 0.120(5)
C6! C -1.2588(7) 0.1286(5) -0.4658(6) 0.035(2)
C8! C -1.1123(7) 0.1041(5) -0.5466(6) 0.042(3)
C13" C -1.0819(7) 0.4432(5) -0.0554(5) 0.024(2)
C15* C -0.8727(7) 0.4936(5) 0.0111(5) 0.029(2)
C6* C 0.2412(7) 0.3714(5) -0.4658(6) 0.035(2)
C13' C 0.4181(7) 0.0568(5) -0.0554(5) 0.024(2)
C1' C 0.0434(8) -0.1620(5) 0.3868(6) 0.043(3)
C2" C -0.2165(8) -0.3421(5) 0.3807(6) 0.042(3)
C11" C -0.0823(7) -0.3725(5) 0.0954(5) 0.030(2)
N1' N -0.5240(6) -0.3137(5) 0.3220(5) 0.048(2)
N2' N -0.7046(7) -0.1825(5) 0.3157(5) 0.047(2)
N6" N -0.7734(6) -0.3336(4) 0.1556(5) 0.036(2)
C13* C 0.0819(7) 0.5568(5) 0.0554(5) 0.024(2)
C11" C -0.0823(7) 0.6275(5) 0.0954(5) 0.030(2)
C2! C -1.2835(8) 0.1579(5) -0.3807(6) 0.042(3)
C5! C -1.3522(8) 0.1007(5) -0.5411(6) 0.045(3)
C9! C -1.2065(8) 0.0759(5) -0.6231(5) 0.040(3)
C12* C -1.1632(7) 0.3824(5) -0.1105(5) 0.032(2)
C15" C -1.1273(7) 0.5064(5) -0.0111(5) 0.029(2)
C13* C -0.9181(7) 0.5568(5) 0.0554(5) 0.024(2)
C5* C 0.1478(8) 0.3993(5) -0.5411(6) 0.045(3)
C7* C 0.3613(8) 0.3703(5) -0.4686(6) 0.037(2)
C14! C 0.5436(7) 0.0628(5) -0.0442(5) 0.027(2)
C15' C 0.3727(7) -0.0064(5) -0.0111(5) 0.029(2)
C7' C 0.1387(8) -0.1297(5) 0.4686(6) 0.037(2)
C6" C -0.2412(7) -0.3714(5) 0.4658(6) 0.035(2)
C14" C -0.0436(7) -0.4372(5) 0.0442(5) 0.027(2)
C1" C -0.4566(8) -0.3380(5) 0.3868(6) 0.043(3)
C2' C -0.7165(8) -0.1579(5) 0.3807(6) 0.042(3)
C12" C -0.8368(7) -0.3824(5) 0.1105(5) 0.032(2)
C12" C 0.1632(7) 0.6176(5) 0.1105(5) 0.032(2)
N5" N -0.1080(6) 0.6773(4) 0.1384(5) 0.035(2)
N2! N -1.2954(7) 0.1825(5) -0.3157(5) 0.047(2)
C10! C -1.3267(8) 0.0736(6) -0.6193(6) 0.050(3)
C4! C -1.1794(9) 0.0468(7) -0.7048(7) 0.063(4)
N6* N -1.2266(6) 0.3336(4) -0.1556(5) 0.036(2)
C14" C -1.0436(7) 0.5628(5) 0.0442(5) 0.027(2)
C12" C -0.8368(7) 0.6176(5) 0.1105(5) 0.032(2)
C10* C 0.1733(8) 0.4264(6) -0.6193(6) 0.050(3)
C1* C 0.4566(8) 0.3380(5) -0.3868(6) 0.043(3)
C8* C 0.3877(7) 0.3959(5) -0.5466(6) 0.042(3)
C11! C 0.5823(7) 0.1275(5) -0.0954(5) 0.030(2)
C15! C 0.6273(7) 0.0064(5) 0.0111(5) 0.029(2)
C14' C 0.4564(7) -0.0628(5) 0.0442(5) 0.027(2)
C6' C 0.2588(7) -0.1286(5) 0.4658(6) 0.035(2)
C8' C 0.1123(7) -0.1041(5) 0.5466(6) 0.042(3)
C5" C -0.1478(8) -0.3993(5) 0.5411(6) 0.045(3)
C7" C -0.3613(8) -0.3703(5) 0.4686(6) 0.037(2)
C13* C 0.0819(7) -0.4432(5) 0.0554(5) 0.024(2)
C15" C -0.1273(7) -0.4936(5) -0.0111(5) 0.029(2)
C6' C -0.7412(7) -0.1286(5) 0.4658(6) 0.035(2)
C13* C -0.9181(7) -0.4432(5) 0.0554(5) 0.024(2)
N6" N 0.2266(6) 0.6664(4) 0.1556(5) 0.036(2)
Cu1" Cu -0.15425(8) 0.75221(7) 0.22433(6) 0.0330(2)
Cu1! Cu -1.34575(8) 0.25221(7) -0.22433(6) 0.0330(2)
C3! C -1.421(1) 0.0417(8) -0.6970(7) 0.073(4)
N4* N -1.1618(9) 0.0263(6) -0.7716(7) 0.089(4)
C11" C -1.0823(7) 0.6275(5) 0.0954(5) 0.030(2)
N6" N -0.7734(6) 0.6664(4) 0.1556(5) 0.036(2)
C3* C 0.079(1) 0.4583(8) -0.6970(7) 0.073(4)
C9* C 0.2935(8) 0.4241(5) -0.6231(5) 0.040(3)
N1! N 0.5240(6) 0.3137(5) -0.3220(5) 0.048(2)
N5! N 0.6080(6) 0.1773(4) -0.1384(5) 0.035(2)
C13! C 0.5819(7) -0.0568(5) 0.0554(5) 0.024(2)
C11' C 0.4177(7) -0.1275(5) 0.0954(5) 0.030(2)
C2' C 0.2835(8) -0.1579(5) 0.3807(6) 0.042(3)
C5' C 0.3522(8) -0.1007(5) 0.5411(6) 0.045(3)
C9' C 0.2065(8) -0.0759(5) 0.6231(5) 0.040(3)
C10" C -0.1733(8) -0.4264(6) 0.6193(6) 0.050(3)
C8" C -0.3877(7) -0.3959(5) 0.5466(6) 0.042(3)
C12" C 0.1632(7) -0.3824(5) 0.1105(5) 0.032(2)
C15* C 0.1273(7) -0.5064(5) 0.0111(5) 0.029(2)
C13" C -0.0819(7) -0.5568(5) -0.0554(5) 0.024(2)
C5' C -0.6478(8) -0.1007(5) 0.5411(6) 0.045(3)
C7' C -0.8613(8) -0.1297(5) 0.4686(6) 0.037(2)
C14" C -1.0436(7) -0.4372(5) 0.0442(5) 0.027(2)
C15* C -0.8727(7) -0.5064(5) 0.0111(5) 0.029(2)
Cu1' Cu 0.34575(8) 0.74779(7) 0.22433(6) 0.0330(2)
N1" N -0.0240(6) 0.8137(5) 0.3220(5) 0.048(2)
N2" N -0.2046(7) 0.6825(5) 0.3157(5) 0.047(2)
N6' N -0.2734(6) 0.8336(4) 0.1556(5) 0.036(2)
N1! N -1.4760(6) 0.3137(5) -0.3220(5) 0.048(2)
N5! N -1.3920(6) 0.1773(4) -0.1384(5) 0.035(2)
N3! N -1.4951(9) 0.0150(8) -0.7585(7) 0.120(5)
N5" N -1.1080(6) 0.6773(4) 0.1384(5) 0.035(2)
Cu1' Cu -0.65425(8) 0.74779(7) 0.22433(6) 0.0330(2)
N3* N 0.0049(9) 0.4850(8) -0.7585(7) 0.120(5)
C4* C 0.3206(9) 0.4532(7) -0.7048(7) 0.063(4)
Cu1! Cu 0.65425(8) 0.25221(7) -0.22433(6) 0.0330(2)
C12' C 0.6632(7) -0.1176(5) 0.1105(5) 0.032(2)
N5' N 0.3920(6) -0.1773(4) 0.1384(5) 0.035(2)
N2' N 0.2954(7) -0.1825(5) 0.3157(5) 0.047(2)
C10' C 0.3267(8) -0.0736(6) 0.6193(6) 0.050(3)
C4' C 0.1794(9) -0.0468(7) 0.7048(7) 0.063(4)
C3" C -0.079(1) -0.4583(8) 0.6970(7) 0.073(4)
C9" C -0.2935(8) -0.4241(5) 0.6231(5) 0.040(3)
N6" N 0.2266(6) -0.3336(4) 0.1556(5) 0.036(2)
C14* C 0.0436(7) -0.5628(5) -0.0442(5) 0.027(2)
C12* C -0.1632(7) -0.6176(5) -0.1105(5) 0.032(2)
C10' C -0.6733(8) -0.0736(6) 0.6193(6) 0.050(3)
C1' C -0.9566(8) -0.1620(5) 0.3868(6) 0.043(3)
C8' C -0.8877(7) -0.1041(5) 0.5466(6) 0.042(3)
C11" C -1.0823(7) -0.3725(5) 0.0954(5) 0.030(2)
C15" C -1.1273(7) -0.4936(5) -0.0111(5) 0.029(2)
C14* C -0.9564(7) -0.5628(5) -0.0442(5) 0.027(2)
N1' N 0.4760(6) 0.6863(5) 0.3220(5) 0.048(2)
N2' N 0.2954(7) 0.8175(5) 0.3157(5) 0.047(2)
N5' N 0.3920(6) 0.8227(4) 0.1384(5) 0.035(2)
C1' C 0.0434(8) 0.8380(5) 0.3868(6) 0.043(3)
C2" C -0.2165(8) 0.6579(5) 0.3807(6) 0.042(3)
C12' C -0.3368(7) 0.8824(5) 0.1105(5) 0.032(2)
C1* C -1.5434(8) 0.3380(5) -0.3868(6) 0.043(3)
C11! C -1.4177(7) 0.1275(5) -0.0954(5) 0.030(2)
Cu1" Cu -1.15425(8) 0.75221(7) 0.22433(6) 0.0330(2)
N1' N -0.5240(6) 0.6863(5) 0.3220(5) 0.048(2)
N2' N -0.7046(7) 0.8175(5) 0.3157(5) 0.047(2)
N5' N -0.6080(6) 0.8227(4) 0.1384(5) 0.035(2)
N4! N 0.3382(9) 0.4737(6) -0.7716(7) 0.089(4)
N2! N 0.7046(7) 0.1825(5) -0.3157(5) 0.047(2)
N6* N 0.7734(6) 0.3336(4) -0.1556(5) 0.036(2)
N6' N 0.7266(6) -0.1664(4) 0.1556(5) 0.036(2)
Cu1' Cu 0.34575(8) -0.25221(7) 0.22433(6) 0.0330(2)
C3' C 0.421(1) -0.0417(8) 0.6970(7) 0.073(4)
N4" N 0.1618(9) -0.0263(6) 0.7716(7) 0.089(4)
N3" N -0.0049(9) -0.4850(8) 0.7585(7) 0.120(5)
C4" C -0.3206(9) -0.4532(7) 0.7048(7) 0.063(4)
C11* C 0.0823(7) -0.6275(5) -0.0954(5) 0.030(2)
N6* N -0.2266(6) -0.6664(4) -0.1556(5) 0.036(2)
C3' C -0.579(1) -0.0417(8) 0.6970(7) 0.073(4)
C9' C -0.7935(8) -0.0759(5) 0.6231(5) 0.040(3)
N1" N -1.0240(6) -0.1863(5) 0.3220(5) 0.048(2)
N5" N -1.1080(6) -0.3227(4) 0.1384(5) 0.035(2)
C13" C -1.0819(7) -0.5568(5) -0.0554(5) 0.024(2)
C11* C -0.9177(7) -0.6275(5) -0.0954(5) 0.030(2)
C1" C 0.5434(8) 0.6620(5) 0.3868(6) 0.043(3)
C2' C 0.2835(8) 0.8421(5) 0.3807(6) 0.042(3)
C11' C 0.4177(7) 0.8725(5) 0.0954(5) 0.030(2)
C7' C 0.1387(8) 0.8703(5) 0.4686(6) 0.037(2)
C6" C -0.2412(7) 0.6286(5) 0.4658(6) 0.035(2)
C13! C -0.4181(7) 0.9432(5) 0.0554(5) 0.024(2)
C7* C -1.6387(8) 0.3703(5) -0.4686(6) 0.037(2)
C14! C -1.4564(7) 0.0628(5) -0.0442(5) 0.027(2)
N1" N -1.0240(6) 0.8137(5) 0.3220(5) 0.048(2)
N2" N -1.2046(7) 0.6825(5) 0.3157(5) 0.047(2)
N6' N -1.2734(6) 0.8336(4) 0.1556(5) 0.036(2)
C1" C -0.4566(8) 0.6620(5) 0.3868(6) 0.043(3)
C2' C -0.7165(8) 0.8421(5) 0.3807(6) 0.042(3)
C11' C -0.5823(7) 0.8725(5) 0.0954(5) 0.030(2)
C2! C 0.7165(8) 0.1579(5) -0.3807(6) 0.042(3)
C12* C 0.8368(7) 0.3824(5) -0.1105(5) 0.032(2)
Cu1" Cu 0.84575(8) -0.24779(7) 0.22433(6) 0.0330(2)
N1' N 0.4760(6) -0.3137(5) 0.3220(5) 0.048(2)
N3' N 0.4951(9) -0.0150(8) 0.7585(7) 0.120(5)
N4' N -0.3382(9) -0.4737(6) 0.7716(7) 0.089(4)
N5* N 0.1080(6) -0.6773(4) -0.1384(5) 0.035(2)
Cu1! Cu -0.34575(8) -0.74779(7) -0.22433(6) 0.0330(2)
N3' N -0.5049(9) -0.0150(8) 0.7585(7) 0.120(5)
C4' C -0.8206(9) -0.0468(7) 0.7048(7) 0.063(4)
Cu1" Cu -1.15425(8) -0.24779(7) 0.22433(6) 0.0330(2)
C12* C -1.1632(7) -0.6176(5) -0.1105(5) 0.032(2)
N5* N -0.8920(6) -0.6773(4) -0.1384(5) 0.035(2)
C7" C 0.6387(8) 0.6297(5) 0.4686(6) 0.037(2)
C6' C 0.2588(7) 0.8714(5) 0.4658(6) 0.035(2)
C14' C 0.4564(7) 0.9372(5) 0.0442(5) 0.027(2)
C8' C 0.1123(7) 0.8959(5) 0.5466(6) 0.042(3)
C5" C -0.1478(8) 0.6007(5) 0.5411(6) 0.045(3)
C7" C -0.3613(8) 0.6297(5) 0.4686(6) 0.037(2)
C14' C -0.5436(7) 0.9372(5) 0.0442(5) 0.027(2)
C15! C -0.3727(7) 1.0064(5) 0.0111(5) 0.029(2)
C6* C -1.7588(7) 0.3714(5) -0.4658(6) 0.035(2)
C8* C -1.6123(7) 0.3959(5) -0.5466(6) 0.042(3)
C13' C -1.5819(7) 0.0568(5) -0.0554(5) 0.024(2)
C15! C -1.3727(7) 0.0064(5) 0.0111(5) 0.029(2)
C1' C -0.9566(8) 0.8380(5) 0.3868(6) 0.043(3)
C2" C -1.2165(8) 0.6579(5) 0.3807(6) 0.042(3)
C12' C -1.3368(7) 0.8824(5) 0.1105(5) 0.032(2)
C6' C -0.7412(7) 0.8714(5) 0.4658(6) 0.035(2)
C6! C 0.7412(7) 0.1286(5) -0.4658(6) 0.035(2)
C13" C 0.9181(7) 0.4432(5) -0.0554(5) 0.024(2)
N1" N 0.9760(6) -0.1863(5) 0.3220(5) 0.048(2)
N2" N 0.7954(7) -0.3175(5) 0.3157(5) 0.047(2)
N5" N 0.8920(6) -0.3227(4) 0.1384(5) 0.035(2)
C1" C 0.5434(8) -0.3380(5) 0.3868(6) 0.043(3)
Cu1* Cu 0.15425(8) -0.75221(7) -0.22433(6) 0.0330(2)
N1! N -0.4760(6) -0.6863(5) -0.3220(5) 0.048(2)
N2! N -0.2954(7) -0.8175(5) -0.3157(5) 0.047(2)
N4" N -0.8382(9) -0.0263(6) 0.7716(7) 0.089(4)
N2" N -1.2046(7) -0.3175(5) 0.3157(5) 0.047(2)
N6' N -1.2734(6) -0.1664(4) 0.1556(5) 0.036(2)
N6* N -1.2266(6) -0.6664(4) -0.1556(5) 0.036(2)
Cu1* Cu -0.84575(8) -0.75221(7) -0.22433(6) 0.0330(2)
C6" C 0.7588(7) 0.6286(5) 0.4658(6) 0.035(2)
C8" C 0.6123(7) 0.6041(5) 0.5466(6) 0.042(3)
C5' C 0.3522(8) 0.8993(5) 0.5411(6) 0.045(3)
C13! C 0.5819(7) 0.9432(5) 0.0554(5) 0.024(2)
C15' C 0.3727(7) 0.9936(5) -0.0111(5) 0.029(2)
C9' C 0.2065(8) 0.9241(5) 0.6231(5) 0.040(3)
C10" C -0.1733(8) 0.5736(6) 0.6193(6) 0.050(3)
C8" C -0.3877(7) 0.6041(5) 0.5466(6) 0.042(3)
C15' C -0.6273(7) 0.9936(5) -0.0111(5) 0.029(2)
C14! C -0.4564(7) 1.0628(5) -0.0442(5) 0.027(2)
C2* C -1.7835(8) 0.3421(5) -0.3807(6) 0.042(3)
C5* C -1.8522(8) 0.3993(5) -0.5411(6) 0.045(3)
C9* C -1.7065(8) 0.4241(5) -0.6231(5) 0.040(3)
C12! C -1.6632(7) 0.1176(5) -0.1105(5) 0.032(2)
C15' C -1.6273(7) -0.0064(5) -0.0111(5) 0.029(2)
C13! C -1.4181(7) -0.0568(5) 0.0554(5) 0.024(2)
C7' C -0.8613(8) 0.8703(5) 0.4686(6) 0.037(2)
C6" C -1.2412(7) 0.6286(5) 0.4658(6) 0.035(2)
C13! C -1.4181(7) 0.9432(5) 0.0554(5) 0.024(2)
C5' C -0.6478(8) 0.8993(5) 0.5411(6) 0.045(3)
C5! C 0.6478(8) 0.1007(5) -0.5411(6) 0.045(3)
C7! C 0.8613(8) 0.1297(5) -0.4686(6) 0.037(2)
C14* C 1.0436(7) 0.4372(5) -0.0442(5) 0.027(2)
C15" C 0.8727(7) 0.5064(5) -0.0111(5) 0.029(2)
C1' C 1.0434(8) -0.1620(5) 0.3868(6) 0.043(3)
C2" C 0.7835(8) -0.3421(5) 0.3807(6) 0.042(3)
C11" C 0.9177(7) -0.3725(5) 0.0954(5) 0.030(2)
C7" C 0.6387(8) -0.3703(5) 0.4686(6) 0.037(2)
N1* N 0.0240(6) -0.8137(5) -0.3220(5) 0.048(2)
N2* N 0.2046(7) -0.6825(5) -0.3157(5) 0.047(2)
C1* C -0.5434(8) -0.6620(5) -0.3868(6) 0.043(3)
C2! C -0.2835(8) -0.8421(5) -0.3807(6) 0.042(3)
C2" C -1.2165(8) -0.3421(5) 0.3807(6) 0.042(3)
C12' C -1.3368(7) -0.1176(5) 0.1105(5) 0.032(2)
Cu1! Cu -1.34575(8) -0.74779(7) -0.22433(6) 0.0330(2)
N1* N -0.9760(6) -0.8137(5) -0.3220(5) 0.048(2)
N2* N -0.7954(7) -0.6825(5) -0.3157(5) 0.047(2)
C2" C 0.7835(8) 0.6579(5) 0.3807(6) 0.042(3)
C5" C 0.8522(8) 0.6007(5) 0.5411(6) 0.045(3)
C9" C 0.7065(8) 0.5759(5) 0.6231(5) 0.040(3)
C10' C 0.3267(8) 0.9264(6) 0.6193(6) 0.050(3)
C12' C 0.6632(7) 0.8824(5) 0.1105(5) 0.032(2)
C15! C 0.6273(7) 1.0064(5) 0.0111(5) 0.029(2)
C13' C 0.4181(7) 1.0568(5) -0.0554(5) 0.024(2)
C4' C 0.1794(9) 0.9532(7) 0.7048(7) 0.063(4)
C3" C -0.079(1) 0.5417(8) 0.6970(7) 0.073(4)
C9" C -0.2935(8) 0.5759(5) 0.6231(5) 0.040(3)
C13' C -0.5819(7) 1.0568(5) -0.0554(5) 0.024(2)
C11! C -0.4177(7) 1.1275(5) -0.0954(5) 0.030(2)
N2* N -1.7954(7) 0.3175(5) -0.3157(5) 0.047(2)
C10* C -1.8267(8) 0.4264(6) -0.6193(6) 0.050(3)
C4* C -1.6794(9) 0.4532(7) -0.7048(7) 0.063(4)
N6! N -1.7266(6) 0.1664(4) -0.1556(5) 0.036(2)
C14' C -1.5436(7) -0.0628(5) 0.0442(5) 0.027(2)
C8' C -0.8877(7) 0.8959(5) 0.5466(6) 0.042(3)
C5" C -1.1478(8) 0.6007(5) 0.5411(6) 0.045(3)
C7" C -1.3613(8) 0.6297(5) 0.4686(6) 0.037(2)
C14' C -1.5436(7) 0.9372(5) 0.0442(5) 0.027(2)
C15! C -1.3727(7) 1.0064(5) 0.0111(5) 0.029(2)
C10' C -0.6733(8) 0.9264(6) 0.6193(6) 0.050(3)
C10! C 0.6733(8) 0.0736(6) -0.6193(6) 0.050(3)
C1! C 0.9566(8) 0.1620(5) -0.3868(6) 0.043(3)
C8! C 0.8877(7) 0.1041(5) -0.5466(6) 0.042(3)
C11* C 1.0823(7) 0.3725(5) -0.0954(5) 0.030(2)
C15* C 1.1273(7) 0.4936(5) 0.0111(5) 0.029(2)
C14" C 0.9564(7) 0.5628(5) 0.0442(5) 0.027(2)
C7' C 1.1387(8) -0.1297(5) 0.4686(6) 0.037(2)
C6" C 0.7588(7) -0.3714(5) 0.4658(6) 0.035(2)
C14" C 0.9564(7) -0.4372(5) 0.0442(5) 0.027(2)
C8" C 0.6123(7) -0.3959(5) 0.5466(6) 0.042(3)
C1! C -0.0434(8) -0.8380(5) -0.3868(6) 0.043(3)
C2* C 0.2165(8) -0.6579(5) -0.3807(6) 0.042(3)
C7* C -0.6387(8) -0.6297(5) -0.4686(6) 0.037(2)
C6! C -0.2588(7) -0.8714(5) -0.4658(6) 0.035(2)
C6" C -1.2412(7) -0.3714(5) 0.4658(6) 0.035(2)
N1! N -1.4760(6) -0.6863(5) -0.3220(5) 0.048(2)
N2! N -1.2954(7) -0.8175(5) -0.3157(5) 0.047(2)
C1! C -1.0434(8) -0.8380(5) -0.3868(6) 0.043(3)
C2* C -0.7835(8) -0.6579(5) -0.3807(6) 0.042(3)
N2" N 0.7954(7) 0.6825(5) 0.3157(5) 0.047(2)
C10" C 0.8267(8) 0.5736(6) 0.6193(6) 0.050(3)
C4" C 0.6794(9) 0.5468(7) 0.7048(7) 0.063(4)
C3' C 0.421(1) 0.9583(8) 0.6970(7) 0.073(4)
N6' N 0.7266(6) 0.8336(4) 0.1556(5) 0.036(2)
C14! C 0.5436(7) 1.0628(5) -0.0442(5) 0.027(2)
C12! C 0.3368(7) 1.1176(5) -0.1105(5) 0.032(2)
N4" N 0.1618(9) 0.9737(6) 0.7716(7) 0.089(4)
N3" N -0.0049(9) 0.5150(8) 0.7585(7) 0.120(5)
C4" C -0.3206(9) 0.5468(7) 0.7048(7) 0.063(4)
C12! C -0.6632(7) 1.1176(5) -0.1105(5) 0.032(2)
N5! N -0.3920(6) 1.1773(4) -0.1384(5) 0.035(2)
Cu1* Cu -1.84575(8) 0.24779(7) -0.22433(6) 0.0330(2)
C3* C -1.921(1) 0.4583(8) -0.6970(7) 0.073(4)
N4! N -1.6618(9) 0.4737(6) -0.7716(7) 0.089(4)
C11' C -1.5823(7) -0.1275(5) 0.0954(5) 0.030(2)
C9' C -0.7935(8) 0.9241(5) 0.6231(5) 0.040(3)
C10" C -1.1733(8) 0.5736(6) 0.6193(6) 0.050(3)
C1" C -1.4566(8) 0.6620(5) 0.3868(6) 0.043(3)
C8" C -1.3877(7) 0.6041(5) 0.5466(6) 0.042(3)
C11' C -1.5823(7) 0.8725(5) 0.0954(5) 0.030(2)
C15' C -1.6273(7) 0.9936(5) -0.0111(5) 0.029(2)
C14! C -1.4564(7) 1.0628(5) -0.0442(5) 0.027(2)
C3' C -0.579(1) 0.9583(8) 0.6970(7) 0.073(4)
C3! C 0.579(1) 0.0417(8) -0.6970(7) 0.073(4)
C9! C 0.7935(8) 0.0759(5) -0.6231(5) 0.040(3)
N1* N 1.0240(6) 0.1863(5) -0.3220(5) 0.048(2)
N5* N 1.1080(6) 0.3227(4) -0.1384(5) 0.035(2)
C13* C 1.0819(7) 0.5568(5) 0.0554(5) 0.024(2)
C11" C 0.9177(7) 0.6275(5) 0.0954(5) 0.030(2)
C6' C 1.2588(7) -0.1286(5) 0.4658(6) 0.035(2)
C8' C 1.1123(7) -0.1041(5) 0.5466(6) 0.042(3)
C5" C 0.8522(8) -0.3993(5) 0.5411(6) 0.045(3)
C13* C 1.0819(7) -0.4432(5) 0.0554(5) 0.024(2)
C15" C 0.8727(7) -0.4936(5) -0.0111(5) 0.029(2)
C9" C 0.7065(8) -0.4241(5) 0.6231(5) 0.040(3)
C7! C -0.1387(8) -0.8703(5) -0.4686(6) 0.037(2)
C6* C 0.2412(7) -0.6286(5) -0.4658(6) 0.035(2)
C6* C -0.7588(7) -0.6286(5) -0.4658(6) 0.035(2)
C8* C -0.6123(7) -0.6041(5) -0.5466(6) 0.042(3)
C5! C -0.3522(8) -0.8993(5) -0.5411(6) 0.045(3)
C5" C -1.1478(8) -0.3993(5) 0.5411(6) 0.045(3)
C7" C -1.3613(8) -0.3703(5) 0.4686(6) 0.037(2)
C1* C -1.5434(8) -0.6620(5) -0.3868(6) 0.043(3)
C2! C -1.2835(8) -0.8421(5) -0.3807(6) 0.042(3)
C7! C -1.1387(8) -0.8703(5) -0.4686(6) 0.037(2)
Cu1" Cu 0.84575(8) 0.75221(7) 0.22433(6) 0.0330(2)
C3" C 0.921(1) 0.5417(8) 0.6970(7) 0.073(4)
N4' N 0.6618(9) 0.5263(6) 0.7716(7) 0.089(4)
N3' N 0.4951(9) 0.9850(8) 0.7585(7) 0.120(5)
C11! C 0.5823(7) 1.1275(5) -0.0954(5) 0.030(2)
N6! N 0.2734(6) 1.1664(4) -0.1556(5) 0.036(2)
N4' N -0.3382(9) 0.5263(6) 0.7716(7) 0.089(4)
N6! N -0.7266(6) 1.1664(4) -0.1556(5) 0.036(2)
Cu1! Cu -0.34575(8) 1.25221(7) -0.22433(6) 0.0330(2)
N1* N -1.9760(6) 0.1863(5) -0.3220(5) 0.048(2)
N5* N -1.8920(6) 0.3227(4) -0.1384(5) 0.035(2)
N3* N -1.9951(9) 0.4850(8) -0.7585(7) 0.120(5)
N5' N -1.6080(6) -0.1773(4) 0.1384(5) 0.035(2)
C4' C -0.8206(9) 0.9532(7) 0.7048(7) 0.063(4)
C3" C -1.079(1) 0.5417(8) 0.6970(7) 0.073(4)
C9" C -1.2935(8) 0.5759(5) 0.6231(5) 0.040(3)
N1' N -1.5240(6) 0.6863(5) 0.3220(5) 0.048(2)
N5' N -1.6080(6) 0.8227(4) 0.1384(5) 0.035(2)
C1