####################################################################### 
# 
# This file contains crystal structure data downloaded from the 
# Cambridge Structural Database (CSD) hosted by the Cambridge 
# Crystallographic Data Centre (CCDC).
# 
# Full information about CCDC data access policies and citation 
# guidelines are available at http://www.ccdc.cam.ac.uk/access/V1 
# 
# Audit and citation data items may have been added by the CCDC. 
# Please retain this information to preserve the provenance of 
# this file and to allow appropriate attribution of the data. 
# 
#######################################################################

data_[Cu2(tcnb)3](PF6)2
_audit_block_doi                 10.5517/cc3r4yx
_database_code_depnum_ccdc_archive 'CCDC 111629'
loop_
_citation_id
_citation_doi
_citation_year
1 10.1021/ic980427v 1998
_audit_update_record             
;
1998-11-23 deposited with the CCDC.	2024-07-13 downloaded from the CCDC.
;

_audit_creation_date             'Fri Aug  7 19:14:03 1998'
_audit_creation_method           'from TEXRAY.INF file'
_computing_data_collection       'Rigaku/AFC Diffractometer Control'
_computing_cell_refinement       'Rigaku/AFC Diffractometer Control'
_computing_data_reduction        teXsan
_computing_structure_solution    SIR88
_computing_structure_refinement  teXsan
_computing_publication_material  teXsan
_computing_molecular_graphics    ?
_chemical_compound_source        ?
_chemical_name_common            ?
_chemical_formula_weight         237.87
_chemical_formula_analytical     ?
_chemical_formula_sum            'C7.50 H1.50 Cu0.50 F3 N3 P0.50 '
_chemical_formula_moiety         ?
_chemical_formula_structural     ?
_chemical_melting_point          ?
_cell_length_a                   28.282(3)
_cell_length_b                   10.337(3)
_cell_length_c                   16.285(4)
_cell_angle_alpha                89
_cell_angle_beta                 89
_cell_angle_gamma                90
_cell_volume                     4760(3)
_cell_formula_units_Z            16
_cell_measurement_temperature    296.2
_cell_measurement_reflns_used    20
_cell_measurement_theta_min      15.4
_cell_measurement_theta_max      18.5
_symmetry_cell_setting           orthorhombic
_symmetry_space_group_name_H-M   'C m c m      '
_symmetry_Int_Tables_number      63
_symmetry_space_group_name_Hall  ?
loop_
_symmetry_equiv_pos_as_xyz
x,y,z
x,-y,-z
x,y,1/2-z
x,-y,1/2+z
-x,-y,-z
-x,y,z
-x,-y,1/2+z
-x,y,1/2-z
1/2+x,1/2+y,z
1/2+x,1/2-y,-z
1/2+x,1/2+y,1/2-z
1/2+x,1/2-y,1/2+z
1/2-x,1/2-y,-z
1/2-x,1/2+y,z
1/2-x,1/2-y,1/2+z
1/2-x,1/2+y,1/2-z
_exptl_crystal_description       prismatic
_exptl_crystal_colour            yellow
_exptl_crystal_size_max          0.500
_exptl_crystal_size_mid          0.400
_exptl_crystal_size_min          0.200
_exptl_crystal_density_diffrn    1.327
_exptl_crystal_density_method    'not measured'
_exptl_crystal_F_000             1864.00
_exptl_absorpt_coefficient_mu    1.040
_exptl_absorpt_correction_type   none

_diffrn_ambient_temperature      296.2
_diffrn_radiation_wavelength     0.7107
_diffrn_radiation_type           'Mo K\a'
_diffrn_radiation_source         'Rigaku rotating anode'
_diffrn_radiation_monochromator  graphite
_diffrn_radiation_detector       'scintillation counter'
_diffrn_measurement_device_type  'Rigaku AFC7R'
_diffrn_measurement_method       \w-2\q

_diffrn_standards_number         3
_diffrn_standards_interval_count 150
_diffrn_standards_decay_%        -2.05
loop_
_diffrn_standard_refln_index_h
_diffrn_standard_refln_index_k
_diffrn_standard_refln_index_l
-2 0 -1
-3 3 0
-2 0 -2
_diffrn_reflns_number            3055
_reflns_number_total             3055
_reflns_number_gt                1680
_reflns_observed_expression      >2.0sigma(I)
_diffrn_reflns_av_R_equivalents  0.000
_diffrn_reflns_av_sigmaI/netI    0.049
_diffrn_reflns_limit_h_min       0
_diffrn_reflns_limit_h_max       36
_diffrn_reflns_limit_k_min       0
_diffrn_reflns_limit_k_max       13
_diffrn_reflns_limit_l_min       -21
_diffrn_reflns_limit_l_max       0
_diffrn_reflns_theta_min         2.10
_diffrn_reflns_theta_max         27.49
_diffrn_reflns_reduction_process 'Lp corrections applied'
_diffrn_orient_matrix_UB_11      0.01738
_diffrn_orient_matrix_UB_12      -0.00085
_diffrn_orient_matrix_UB_13      0.05348
_diffrn_orient_matrix_UB_21      -0.03079
_diffrn_orient_matrix_UB_22      0.00115
_diffrn_orient_matrix_UB_23      0.03019
_diffrn_orient_matrix_UB_31      -0.00052
_diffrn_orient_matrix_UB_32      -0.09673
_diffrn_orient_matrix_UB_33      -0.00011



loop_
_atom_site_label
_atom_site_type_symbol
_atom_site_fract_x
_atom_site_fract_y
_atom_site_fract_z
_atom_site_U_iso_or_equiv
#Uani 1.00 d S . .
#Uani 1.00 d S . .
#Uani 1.00 d S . .
#Uani 1.00 d S . .
#Uani 1.00 d S . .
#Uani 1.00 d S . .
#Uani 1.00 d . . .
#Uani 1.00 d . . .
#Uani 1.00 d S . .
#Uani 1.00 d S . .
#Uani 1.00 d . . .
#Uani 1.00 d S . .
#Uani 1.00 d S . .
#Uani 1.00 d S . .
#Uani 1.00 d . . .
#Uani 1.00 d . . .
#Uani 1.00 d . . .
#Uani 1.00 d S . .
#Uani 1.00 d S . .
#Uani 1.00 d . . .
#Uani 1.00 d . . .
#Uani 1.00 d . . .
#Uani 1.00 d . . .
#Uani 1.00 d S . .
#Uani 1.00 d S . .
#Uani 1.00 d S . .
#Uani 1.00 d . . .
#Uani 1.00 d . . .
#Uani 1.00 d S . .
#Uani 1.00 d . . .
#Uani 1.00 d S . .
#Uani 1.00 d S . .
#Uani 1.00 d S . .
#Uani 1.00 d S . .
#Uani 1.00 d . . .
#Uani 1.00 d . . .
#Uani 1.00 d S . .
#Uani 1.00 d S . .
#Uani 1.00 d . . .
#Uani 1.00 d S . .
#Uani 1.00 d S . .
#Uani 1.00 d S . .
#Uani 1.00 d . . .
#Uani 1.00 d . . .
#Uani 1.00 d S . .
#Uani 1.00 d S . .
#Uani 1.00 d S . .
#Uani 1.00 d  . . .
#Uani 1.00 d . . .
#Uani 1.00 d S . .
#Uani 1.00 d . . .
#Uani 1.00 d . . .
#Uani 1.00 d S . .
#Uani 1.00 d S . .
#Uani 1.00 d . . .
#Uani 1.00 d S . .
#Uani 1.00 d S . .
#Uani 1.00 d S . .
#Uani 1.00 d . . .
#Uani 1.00 d . . .
#Uani 1.00 d . . .
#Uani 1.00 d S . .
#Uani 1.00 d . . .
#Uani 1.00 d . . .
#Uani 1.00 d S . .
#Uani 1.00 d S . .
#Uani 1.00 d S . .
#Uani 1.00 d S . .
#Uani 1.00 d . . .
#Uani 1.00 d . . .
#Uani 1.00 d . . .
#Uani 1.00 d S . .
#Uani 1.00 d . . .
#Uani 1.00 d . . .
#Uani 1.00 d S . .
#Uani 1.00 d . . .
#Uani 1.00 d S . .
#Uani 1.00 d S . .
#Uani 1.00 d S . .
#Uani 1.00 d S . .
#Uani 1.00 d .  ..
#Uani 1.00 d . . .
#Uani 1.00 d S . .
#Uani 1.00 d . . .
#Uani 1.00 d . . .
#Uani 1.00 d . . .
#Uani 1.00 d . . .
#Uani 1.00 d S . .
#Uani 1.00 d . . .
#Uani 1.00 d S . .
#Uani 1.00 d S . .
#Uani 1.00 d S . .
#Uani 1.00 d . . .
#Uani 1.00 d . . .
#Uani 1.00 d S . .
#Uani 1.00 d . . .
#Uani 1.00 d S . .
#Uani 1.00 d . . .
#Uani 1.00 d . . .
#Uani 1.00 d . . .
#Uani 1.00 d . . .
#Uani 1.00 d . . .
#Uani 1.00 d . . .
#Uani 1.00 d S . .
#Uani 1.00 d . . .
#Uani 1.00 d S . .
#Uani 1.00 d S . .
#Uani 1.00 d S . .
#Uani 1.00 d . . .
#Uani 1.00 d . . .
#Uani 1.00 d S . .
#Uani 1.00 d S . .
#Uani 1.00 d S . .
#Uani 1.00 d . . .
#Uani 1.00 d . . .
#Uani 1.00 d . . .
#Uani 1.00 d . . .
#Uani 1.00 d . . .
#Uani 1.00 d . . .
#Uani 1.00 d S . .
#Uani 1.00 d . . .
#Uani 1.00 d . . .
#Uani 1.00 d S . .
#Uani 1.00 d S . .
#Uani 1.00 d S . .
#Uani 1.00 d S . .
#Uani 1.00 d S . .
#Uani 1.00 d . . .
#Uani 1.00 d . . .
#Uani 1.00 d S . .
#Uani 1.00 d S . .
#Uani 1.00 d . . .
#Uani 1.00 d . . .
#Uani 1.00 d . . .
#Uani 1.00 d . . .
#Uani 1.00 d S . .
#Uani 1.00 d . . .
#Uani 1.00 d . . .
#Uani 1.00 d . . .
#Uani 1.00 d S . .
#Uani 1.00 d S . .
#Uani 1.00 d S . .
#Uani 1.00 d S . .
#Uani 1.00 d S . .
#Uani 1.00 d S . .
#Uani 1.00 d S . .
#Uani 1.00 d . . .
#Uani 1.00 d . . .
#Uani 1.00 d . . .
#Uani 1.00 d . . .
#Uani 1.00 d S . .
#Uani 1.00 d S . .
#Uani 1.00 d . . .
#Uani 1.00 d . . .
#Uani 1.00 d S . .
#Uani 1.00 d . . .
#Uani 1.00 d . . .
#Uani 1.00 d . . .
#Uani 1.00 d S . .
#Uani 1.00 d S . .
#Uani 1.00 d S . .
#Uani 1.00 d S . .
#Uani 1.00 d S . .
#Uani 1.00 d S . .
#Uani 1.00 d S . .
#Uani 1.00 d . . .
#Uani 1.00 d . . .
#Uani 1.00 d . . .
#Uani 1.00 d . . .
#Uani 1.00 d . . .
#Uani 1.00 d . . .
#Uani 1.00 d S . .
#Uani 1.00 d S . .
#Uani 1.00 d S . .
#Uani 1.00 d S . .
#Uani 1.00 d . . .
#Uani 1.00 d . . .
#Uani 1.00 d S . .
#Uani 1.00 d . . .
#Uani 1.00 d . . .
#Uani 1.00 d S . .
#Uani 1.00 d S . .
#Uani 1.00 d S . .
#Uani 1.00 d S . .
#Uani 1.00 d S . .
#Uani 1.00 d S . .
#Uani 1.00 d . . .
#Uani 1.00 d . . .
#Uani 1.00 d . . .
#Uani 1.00 d . . .
#Uani 1.00 d . . .
#Uani 1.00 d . . .
#Uani 1.00 d S . .
#Uani 1.00 d S . .
#Uani 1.00 d . . .
#Uani 1.00 d S . .
#Uani 1.00 d . . .
#Uani 1.00 d . . .
#Uani 1.00 d S . .
#Uani 1.00 d . . .
#Uani 1.00 d S . .
#Uani 1.00 d S . .
#Uani 1.00 d . . .
#Uani 1.00 d . . .
#Uani 1.00 d S . .
#Uani 1.00 d S . .
#Uani 1.00 d . . .
#Uani 1.00 d . . .
#Uani 1.00 d . . .
#Uani 1.00 d . . .
#Uani 1.00 d S . .
#Uani 1.00 d S . .
#Uani 1.00 d . . .
#Uani 1.00 d S . .
#Uani 1.00 d S . .
#Uani 1.00 d . . .
#Uani 1.00 d S . .
#Uani 1.00 d S . .
#Uani 1.00 d S . .
#Uani 1.00 d . . .
#Uani 1.00 d . . .
#Uani 1.00 d . . .
#Uani 1.00 d S . .
#Uani 1.00 d S . .
#Uani 1.00 d . . .
#Uani 1.00 d . . .
#Uani 1.00 d . . .
#Uani 1.00 d S . .
#Uani 1.00 d S . .
#Uani 1.00 d S . .
#Uani 1.00 d . . .
#Uani 1.00 d . . .
#Uani 1.00 d S . .
#Uani 1.00 d . . .
#Uani 1.00 d S . .
#Uani 1.00 d S . .
#Uani 1.00 d S . .
#Uani 1.00 d S . .
#Uani 1.00 d . . .
#Uani 1.00 d . . .
#Uani 1.00 d S . .
#Uani 1.00 d S . .
#Uani 1.00 d . . .
#Uani 1.00 d S . .
#Uani 1.00 d S . .
#Uani 1.00 d S . .
#Uani 1.00 d . . .
#Uani 1.00 d . . .
#Uani 1.00 d S . .
#Uani 1.00 d S . .
#Uani 1.00 d S . .
#Uani 1.00 d . . .
#Uani 1.00 d . . .
#Uani 1.00 d S . .
#Uani 1.00 d . . .
#Uani 1.00 d . . .
#Uani 1.00 d S . .
#Uani 1.00 d S . .
#Uani 1.00 d . . .
#Uani 1.00 d S . .
#Uani 1.00 d S . .
#Uani 1.00 d S . .
#Uani 1.00 d . . .
#Uani 1.00 d . . .
#Uani 1.00 d . . .
#Uani 1.00 d S . .
#Uani 1.00 d . . .
#Uani 1.00 d . . .
#Uani 1.00 d S . .
#Uani 1.00 d S . .
#Uani 1.00 d S . .
#Uani 1.00 d S . .
#Uani 1.00 d . . .
#Uani 1.00 d . . .
#Uani 1.00 d . . .
#Uani 1.00 d S . .
#Uani 1.00 d . . .
#Uani 1.00 d . . .
#Uani 1.00 d S . .
#Uani 1.00 d . . .
#Uani 1.00 d S . .
#Uani 1.00 d S . .
#Uani 1.00 d S . .
#Uani 1.00 d S . .
#Uani 1.00 d . . .
#Uani 1.00 d . . .
#Uani 1.00 d S . .
#Uani 1.00 d . . .
#Uani 1.00 d . . .
#Uani 1.00 d . . .
#Uani 1.00 d . . .
#Uani 1.00 d S . .
#Uani 1.00 d . . .
#Uani 1.00 d S . .
#Uani 1.00 d S . .
#Uani 1.00 d S . .
#Uani 1.00 d . . .
#Uani 1.00 d . . .
#Uani 1.00 d S . .
#Uani 1.00 d . . .
#Uani 1.00 d S . .
#Uani 1.00 d . . .
#Uani 1.00 d . . .
#Uani 1.00 d . . .
#Uani 1.00 d . . .
#Uani 1.00 d . . .
#Uani 1.00 d . . .
#Uani 1.00 d S . .
#Uani 1.00 d . . .
#Uani 1.00 d S . .
#Uani 1.00 d S . .
#Uani 1.00 d S . .
#Uani 1.00 d . . .
#Uani 1.00 d . . .
#Uani 1.00 d S . .
#Uani 1.00 d S . .
#Uani 1.00 d S . .
#Uani 1.00 d . . .
#Uani 1.00 d . . .
#Uani 1.00 d . . .
#Uani 1.00 d . . .
#Uani 1.00 d . . .
#Uani 1.00 d . . .
#Uani 1.00 d S . .
#Uani 1.00 d . . .
#Uani 1.00 d . . .
#Uani 1.00 d S . .
#Uani 1.00 d S . .
#Uani 1.00 d S . .
#Uani 1.00 d S . .
#Uani 1.00 d S . .
#Uani 1.00 d . . .
#Uani 1.00 d . . .
#Uani 1.00 d S . .
#Uani 1.00 d S . .
#Uani 1.00 d S . .
#Uani 1.00 d S . .
#Uani 1.00 d . . .
#Uani 1.00 d . . .
#Uani 1.00 d . . .
#Uani 1.00 d . . .
#Uani 1.00 d S . .
#Uani 1.00 d . . .
#Uani 1.00 d . . .
#Uani 1.00 d . . .
#Uani 1.00 d S . .
#Uani 1.00 d S . .
#Uani 1.00 d S . .
#Uani 1.00 d S . .
#Uani 1.00 d S . .
#Uani 1.00 d S . .
#Uani 1.00 d S . .
#Uani 1.00 d . . .
#Uani 1.00 d . . .
#Uani 1.00 d . . .
#Uani 1.00 d . . .
#Uani 1.00 d S . .
#Uani 1.00 d S . .
#Uani 1.00 d S . .
#Uani 1.00 d S . .
#Uani 1.00 d . . .
#Uani 1.00 d . . .
#Uani 1.00 d S . .
#Uani 1.00 d . . .
#Uani 1.00 d . . .
#Uani 1.00 d . . .
#Uani 1.00 d S . .
#Uani 1.00 d S . .
#Uani 1.00 d S . .
#Uani 1.00 d S . .
#Uani 1.00 d S . .
#Uani 1.00 d S . .
#Uani 1.00 d S . .
#Uani 1.00 d . . .
#Uani 1.00 d . . .
#Uani 1.00 d . . .
#Uani 1.00 d . . .
#Uani 1.00 d . . .
#Uani 1.00 d . . .
#Uani 1.00 d S . .
#Uani 1.00 d S . .
#Uani 1.00 d S . .
#Uani 1.00 d S . .
#Uani 1.00 d S . .
#Uani 1.00 d S . .
#Uani 1.00 d . . .
#Uani 1.00 d . . .
#Uani 1.00 d S . .
#Uani 1.00 d . . .
#Uani 1.00 d . . .
#Uani 1.00 d S . .
#Uani 1.00 d S . .
#Uani 1.00 d S . .
#Uani 1.00 d S . .
#Uani 1.00 d S . .
#Uani 1.00 d S . .
#Uani 1.00 d . . .
#Uani 1.00 d . . .
#Uani 1.00 d . . .
#Uani 1.00 d . . .
#Uani 1.00 d . . .
#Uani 1.00 d . . .
#Uani 1.00 d S . .
#Uani 1.00 d S . .
#Uani 1.00 d S . .
#Uani 1.00 d S . .
#Uani 1.00 d S . .
#Uani 1.00 d S . .
#Uani 1.00 d . . .
#Uani 1.00 d S . .
#Uani 1.00 d S . .
#Uani 1.00 d S . .
#Uani 1.00 d . . .
#Uani 1.00 d . . .
#Uani 1.00 d S . .
#Uani 1.00 d . . .
#Uani 1.00 d S . .
#Uani 1.00 d S . .
#Uani 1.00 d . . .
#Uani 1.00 d . . .
#Uani 1.00 d S . .
#Uani 1.00 d S . .
#Uani 1.00 d . . .
#Uani 1.00 d . . .
#Uani 1.00 d . . .
#Uani 1.00 d . . .
#Uani 1.00 d S . .
#Uani 1.00 d S . .
#Uani 1.00 d S . .
#Uani 1.00 d . . .
#Uani 1.00 d S . .
#Uani 1.00 d . . .
#Uani 1.00 d . . .
#Uani 1.00 d . . .
#Uani 1.00 d . . .
#Uani 1.00 d . . .
#Uani 1.00 d . . .
#Uani 1.00 d . . .
#Uani 1.00 d . . .
#Uani 1.00 d . . .
#Uani 1.00 d . . .
#Uani 1.00 d ...
#Uani 1.00 d S . .
#Uani 1.00 d . . .
#Uani 1.00 d . . .
#Uani 1.00 d S . .
#Uani 1.00 d . . .
#Uani 1.00 d . . .
#Uani 1.00 d . . .
#Uani 1.00 d . . .
#Uani 1.00 d . . .
#Uani 1.00 d . . .
#Uani 1.00 d . . .
#Uani 1.00 d . . .
#Uani 1.00 d . . .
#Uani 1.00 d . . .
#Uani 1.00 d . . .
#Uani 1.00 d S . .
#Uani 1.00 d . . .
#Uani 1.00 d . . .
#Uani 1.00 d . . .
#Uani 1.00 d S . .
#Uani 1.00 d . . .
#Uani 1.00 d S . .
#Uani 1.00 d S . .
#Uani 1.00 d ...
#Uani 1.00 d S . .
#Uani 1.00 d S . .
#Uani 1.00 d S . .
#Uani 1.00 d ...
#Uani 1.00 d ...
#Uani 1.00 d ...
#Uani 1.00 d S . .
#Uani 1.00 d S . .
#Uani 1.00 d ...
#Uani 1.00 d ...
#Uani 1.00 d ...
#Uani 1.00 d S . .
#Uani 1.00 d S . .
#Uani 1.00 d S . .
#Uani 1.00 d ...
#Uani 1.00 d ...
#Uani 1.00 d S . .
#Uani 1.00 d ...
#Uani 1.00 d S . .
#Uani 1.00 d S . .
#Uani 1.00 d S . .
#Uani 1.00 d S . .
#Uani 1.00 d ...
#Uani 1.00 d ...
#Uani 1.00 d S . .
#Uani 1.00 d S . .
#Uani 1.00 d ...
#Uani 1.00 d S . .
#Uani 1.00 d S . .
#Uani 1.00 d S . .
#Uani 1.00 d ...
#Uani 1.00 d ...
#Uani 1.00 d S . .
#Uani 1.00 d S . .
#Uani 1.00 d S . .
#Uani 1.00 d ...
#Uani 1.00 d ...
#Uani 1.00 d S . .
#Uani 1.00 d ...
#Uani 1.00 d ...
#Uani 1.00 d S . .
#Uani 1.00 d S . .
#Uani 1.00 d S . .
#Uani 1.00 d ...
#Uani 1.00 d ...
#Uani 1.00 d ...
#Uani 1.00 d S . .
#Uani 1.00 d ...
#Uani 1.00 d ...
#Uani 1.00 d ...
#Uani 1.00 d ...
#Uani 1.00 d ...
#Uani 1.00 d ...
#Uani 1.00 d ...
#Uani 1.00 d ...
#Uani 1.00 d ...
#Uani 1.00 d ...
#Uani 1.00 d ...
#Uani 1.00 d S . .
#Uani 1.00 d ...
#Uani 1.00 d ...
#Uani 1.00 d ...
#Uani 1.00 d ...
#Uani 1.00 d ...
#Uani 1.00 d S . .
#Uani 1.00 d ...
#Uani 1.00 d S . .
#Uani 1.00 d S . .
#Uani 1.00 d ...
#Uani 1.00 d S . .
#Uani 1.00 d ...
#Uani 1.00 d S . .
#Uani 1.00 d S . .
#Uani 1.00 d ...
#Uani 1.00 d S . .
#Uani 1.00 d S . .
#Uani 1.00 d S . .
#Uani 1.00 d ...
#Uani 1.00 d ...
#Uani 1.00 d ...
#Uani 1.00 d S . .
#Uani 1.00 d S . .
#Uani 1.00 d ...
#Uani 1.00 d ...
#Uani 1.00 d ...
#Uani 1.00 d S . .
#Uani 1.00 d S . .
#Uani 1.00 d S . .
#Uani 1.00 d ...
#Uani 1.00 d ...
#Uani 1.00 d S . .
#Uani 1.00 d ...
#Uani 1.00 d S . .
#Uani 1.00 d S . .
#Uani 1.00 d S . .
#Uani 1.00 d S . .
#Uani 1.00 d ...
#Uani 1.00 d ...
#Uani 1.00 d S . .
#Uani 1.00 d S . .
#Uani 1.00 d ...
#Uani 1.00 d S . .
#Uani 1.00 d S . .
#Uani 1.00 d S . .
#Uani 1.00 d ...
#Uani 1.00 d ...
#Uani 1.00 d S . .
#Uani 1.00 d S . .
#Uani 1.00 d S . .
#Uani 1.00 d ...
#Uani 1.00 d ...
#Uani 1.00 d S . .
#Uani 1.00 d ...
#Uani 1.00 d ...
#Uani 1.00 d S . .
#Uani 1.00 d S . .
#Uani 1.00 d ...
#Uani 1.00 d S . .
#Uani 1.00 d S . .
#Uani 1.00 d S . .
#Uani 1.00 d ...
#Uani 1.00 d ...
#Uani 1.00 d ...
#Uani 1.00 d S . .
#Uani 1.00 d ...
#Uani 1.00 d ...
#Uani 1.00 d S . .
#Uani 1.00 d S . .
#Uani 1.00 d S . .
#Uani 1.00 d S . .
#Uani 1.00 d ...
#Uani 1.00 d ...
#Uani 1.00 d ...
#Uani 1.00 d S . .
#Uani 1.00 d ...
#Uani 1.00 d ...
#Uani 1.00 d S . .
#Uani 1.00 d ...
#Uani 1.00 d S . .
#Uani 1.00 d S . .
#Uani 1.00 d ...
#Uani 1.00 d S . .
#Uani 1.00 d S . .
#Uani 1.00 d ...
#Uani 1.00 d S . .
#Uani 1.00 d S . .
#Uani 1.00 d S . .
#Uani 1.00 d ...
#Uani 1.00 d ...
#Uani 1.00 d ...
#Uani 1.00 d S . .
#Uani 1.00 d S . .
#Uani 1.00 d ...
#Uani 1.00 d ...
#Uani 1.00 d ...
#Uani 1.00 d S . .
#Uani 1.00 d S . .
#Uani 1.00 d S . .
#Uani 1.00 d ...
#Uani 1.00 d ...
#Uani 1.00 d S . .
#Uani 1.00 d ...
#Uani 1.00 d S . .
#Uani 1.00 d S . .
#Uani 1.00 d S . .
#Uani 1.00 d S . .
#Uani 1.00 d ...
#Uani 1.00 d ...
#Uani 1.00 d S . .
#Uani 1.00 d S . .
#Uani 1.00 d ...
#Uani 1.00 d S . .
#Uani 1.00 d S . .
#Uani 1.00 d S . .
#Uani 1.00 d ...
#Uani 1.00 d ...
#Uani 1.00 d S . .
#Uani 1.00 d S . .
#Uani 1.00 d S . .
#Uani 1.00 d ...
#Uani 1.00 d ...
#Uani 1.00 d ...
#Uani 1.00 d ...
#Uani 1.00 d ...
#Uani 1.00 d ...
#Uani 1.00 d ...
#Uani 1.00 d ...
#Uani 1.00 d ...
#Uani 1.00 d ...
#Uani 1.00 d ...
#Uani 1.00 d S . .
#Uani 1.00 d ...
#Uani 1.00 d ...
#Uani 1.00 d ...
#Uani 1.00 d S . .
#Uani 1.00 d ...
#Uani 1.00 d ...
#Uani 1.00 d ...
#Uani 1.00 d ...
#Uani 1.00 d ...
#Uani 1.00 d ...
#Uani 1.00 d ...
#Uani 1.00 d ...
#Uani 1.00 d ...
#Uani 1.00 d ...
#Uani 1.00 d ...
#Uani 1.00 d S . .
#Uani 1.00 d ...
#Uani 1.00 d ...
#Uani 1.00 d ...
#Uani 1.00 d ...
#Uani 1.00 d ...
#Uani 1.00 d S . .
#Uani 1.00 d S . .
#Uani 1.00 d ...
#Uani 1.00 d S . .
#Uani 1.00 d S . .
#Uani 1.00 d ...
#Uani 1.00 d S . .
#Uani 1.00 d S . .
#Uani 1.00 d ...
#Uani 1.00 d S . .
#Uani 1.00 d S . .
#Uani 1.00 d S . .
#Uani 1.00 d ...
#Uani 1.00 d S . .
#Uani 1.00 d S . .
#Uani 1.00 d ...
#Uani 1.00 d S . .
#Uani 1.00 d S . .
#Uani 1.00 d S . .
#Uani 1.00 d ...
#Uani 1.00 d ...
#Uani 1.00 d ...
#Uani 1.00 d S . .
#Uani 1.00 d S . .
#Uani 1.00 d ...
#Uani 1.00 d ...
#Uani 1.00 d S . .
#Uani 1.00 d S . .
#Uani 1.00 d S . .
#Uani 1.00 d ...
#Uani 1.00 d ...
#Uani 1.00 d S . .
#Uani 1.00 d ...
#Uani 1.00 d S . .
#Uani 1.00 d S . .
#Uani 1.00 d S . .
#Uani 1.00 d S . .
#Uani 1.00 d S . .
#Uani 1.00 d S . .
#Uani 1.00 d S . .
#Uani 1.00 d ...
#Uani 1.00 d ...
#Uani 1.00 d S . .
#Uani 1.00 d S . .
#Uani 1.00 d S . .
#Uani 1.00 d S . .
#Uani 1.00 d S . .
#Uani 1.00 d ...
#Uani 1.00 d ...
#Uani 1.00 d S . .
#Uani 1.00 d S . .
#Uani 1.00 d S . .
#Uani 1.00 d S . .
#Uani 1.00 d S . .
#Uani 1.00 d ...
#Uani 1.00 d ...
#Uani 1.00 d S . .
#Uani 1.00 d S . .
#Uani 1.00 d S . .
#Uani 1.00 d S . .
#Uani 1.00 d S . .
#Uani 1.00 d ...
#Uani 1.00 d ...
#Uani 1.00 d S . .
#Uani 1.00 d S . .
#Uani 1.00 d S . .
#Uani 1.00 d S . .
#Uani 1.00 d S . .
#Uani 1.00 d ...
#Uani 1.00 d ...
#Uani 1.00 d S . .
#Uani 1.00 d S . .
#Uani 1.00 d S . .
#Uani 1.00 d S . .
#Uani 1.00 d S . .
#Uani 1.00 d ...
#Uani 1.00 d ...
#Uani 1.00 d S . .
#Uani 1.00 d S . .
#Uani 1.00 d S . .
#Uani 1.00 d S . .
#Uani 1.00 d S . .
#Uani 1.00 d ...
#Uani 1.00 d ...
#Uani 1.00 d S . .
#Uani 1.00 d S . .
#Uani 1.00 d S . .
#Uani 1.00 d S . .
#Uani 1.00 d S . .
#Uani 1.00 d ...
#Uani 1.00 d ...
#Uani 1.00 d S . .
#Uani 1.00 d S . .
#Uani 1.00 d S . .
#Uani 1.00 d S . .
#Uani 1.00 d S . .
#Uani 1.00 d ...
#Uani 1.00 d ...
#Uani 1.00 d S . .
#Uani 1.00 d S . .
#Uani 1.00 d S . .
#Uani 1.00 d S . .
#Uani 1.00 d S . .
#Uani 1.00 d ...
#Uani 1.00 d ...
#Uani 1.00 d S . .
#Uani 1.00 d S . .
#Uani 1.00 d S . .
#Uani 1.00 d S . .
#Uani 1.00 d S . .
#Uani 1.00 d ...
#Uani 1.00 d ...
#Uani 1.00 d S . .
#Uani 1.00 d S . .
#Uani 1.00 d S . .
#Uani 1.00 d S . .
#Uani 1.00 d S . .
#Uani 1.00 d ...
#Uani 1.00 d ...
#Uani 1.00 d S . .
#Uani 1.00 d S . .
#Uani 1.00 d S . .
#Uani 1.00 d S . .
#Uani 1.00 d S . .
#Uani 1.00 d ...
#Uani 1.00 d ...
#Uani 1.00 d S . .
#Uani 1.00 d S . .
#Uani 1.00 d S . .
#Uani 1.00 d S . .
#Uani 1.00 d S . .
#Uani 1.00 d ...
#Uani 1.00 d ...
#Uani 1.00 d S . .
#Uani 1.00 d S . .
#Uani 1.00 d S . .
#Uani 1.00 d S . .
#Uani 1.00 d S . .
#Uani 1.00 d ...
#Uani 1.00 d ...
#Uani 1.00 d S . .
#Uani 1.00 d S . .
#Uani 1.00 d S . .
#Uani 1.00 d S . .
#Uani 1.00 d S . .
#Uani 1.00 d ...
#Uani 1.00 d ...
#Uani 1.00 d S . .
#Uani 1.00 d S . .
#Uani 1.00 d S . .
#Uani 1.00 d S . .
#Uani 1.00 d S . .
#Uani 1.00 d ...
Cu(1) Cu 0.39914(3) 0.18229(7) 0.7500 0.0383(2)
P(1) P 0.19935(7) 0.0405(2) 0.7500 0.0597(6)
F(1) F 0.1908(3) 0.1901(6) 0.7500 0.111(2)
F(2) F 0.2515(4) 0.074(2) 0.7500 0.222(8)
F(3) F 0.2089(3) -0.1096(5) 0.7500 0.086(2)
F(4) F 0.1466(3) 0.013(1) 0.7500 0.258(10)
F(5) F 0.2073(7) 0.0389(6) 0.6562(5) 0.217(5)
N(1) N 0.3562(2) 0.1943(5) 0.6540(3) 0.056(1)
N(2) N 0.4357(2) 0.3443(5) 0.7500 0.048(2)
N(3) N 0.4338(2) 0.0199(5) 0.7500 0.044(1)
N(4) N 0.3734(3) 0.134(1) 0.4111(5) 0.117(3)
C(1) C 0.4748(2) 0.7982(5) 0.7500 0.037(1)
C(2) C 0.4498(2) 0.6830(6) 0.7500 0.041(1)
C(3) C 0.4752(2) 0.5677(5) 0.7500 0.037(1)
C(4) C 0.2876(2) 0.2333(5) 0.5528(3) 0.049(1)
C(5) C 0.2452(2) 0.2778(5) 0.5838(3) 0.054(1)
C(6) C 0.2930(2) 0.2053(5) 0.4686(3) 0.052(1)
C(7) C 0.4511(2) -0.0791(6) 0.7500 0.040(2)
C(8) C 0.4513(2) 0.4458(6) 0.7500 0.042(2)
C(9) C 0.3263(2) 0.2127(5) 0.6085(3) 0.052(1)
C(10) C 0.3375(2) 0.1631(8) 0.4365(4) 0.075(2)
N(1*) N 0.3562(2) 0.1943(5) 0.8460(3) 0.056(1)
F(5*) F 0.2073(7) 0.0389(6) 0.8438(5) 0.217(5)
C(1') C 0.5252(2) 0.7982(5) 0.7500 0.037(1)
C(7") C 0.4511(2) 0.9209(6) 0.7500 0.040(2)
C(3') C 0.5248(2) 0.5677(5) 0.7500 0.037(1)
C(6!) C 0.2070(2) 0.2947(5) 0.5314(3) 0.052(1)
C(5!) C 0.2548(2) 0.2222(5) 0.4162(3) 0.054(1)
C(1") C 0.4748(2) -0.2018(5) 0.7500 0.037(1)
C(9*) C 0.3263(2) 0.2127(5) 0.8915(3) 0.052(1)
C(2') C 0.5502(2) 0.6830(6) 0.7500 0.041(1)
C(7') C 0.5489(2) 0.9209(6) 0.7500 0.040(2)
N(3") N 0.4338(2) 1.0199(5) 0.7500 0.044(1)
C(8') C 0.5487(2) 0.4458(6) 0.7500 0.042(2)
C(4!) C 0.2124(2) 0.2666(5) 0.4472(3) 0.049(1)
C(10!) C 0.1625(2) 0.3369(8) 0.5635(4) 0.075(2)
C(1') C 0.5252(2) -0.2018(5) 0.7500 0.037(1)
C(2") C 0.4498(2) -0.3170(6) 0.7500 0.041(1)
C(4*) C 0.2876(2) 0.2333(5) 0.9472(3) 0.049(1)
N(3') N 0.5662(2) 1.0199(5) 0.7500 0.044(1)
Cu(1") Cu 0.39914(3) 1.18229(7) 0.7500 0.0383(2)
N(2') N 0.5643(2) 0.3443(5) 0.7500 0.048(2)
C(9!) C 0.1737(2) 0.2873(5) 0.3915(3) 0.052(1)
N(4!) N 0.1266(3) 0.366(1) 0.5889(5) 0.117(3)
C(2') C 0.5502(2) -0.3170(6) 0.7500 0.041(1)
C(7') C 0.5489(2) -0.0791(6) 0.7500 0.040(2)
C(3") C 0.4752(2) -0.4323(5) 0.7500 0.037(1)
C(5*) C 0.2452(2) 0.2778(5) 0.9162(3) 0.054(1)
C(6*) C 0.2930(2) 0.2053(5) 1.0314(3) 0.052(1)
Cu(1') Cu 0.60086(3) 1.18229(7) 0.7500 0.0383(2)
N(1") N 0.3562(2) 1.1943(5) 0.6540(3) 0.056(1)
N(1*) N 0.3562(2) 1.1943(5) 0.8460(3) 0.056(1)
N(2") N 0.4357(2) 1.3443(5) 0.7500 0.048(2)
Cu(1') Cu 0.60086(3) 0.18229(7) 0.7500 0.0383(2)
N(1!) N 0.1438(2) 0.3057(5) 0.3460(3) 0.056(1)
C(3') C 0.5248(2) -0.4323(5) 0.7500 0.037(1)
N(3') N 0.5662(2) 0.0199(5) 0.7500 0.044(1)
C(8") C 0.4513(2) -0.5542(6) 0.7500 0.042(2)
C(6$) C 0.2070(2) 0.2947(5) 0.9686(3) 0.052(1)
C(5$) C 0.2548(2) 0.2222(5) 1.0838(3) 0.054(1)
C(10*) C 0.3375(2) 0.1631(8) 1.0635(4) 0.075(2)
N(2') N 0.5643(2) 1.3443(5) 0.7500 0.048(2)
C(9") C 0.3263(2) 1.2127(5) 0.6085(3) 0.052(1)
C(9*) C 0.3263(2) 1.2127(5) 0.8915(3) 0.052(1)
C(8") C 0.4513(2) 1.4458(6) 0.7500 0.042(2)
Cu(1!) Cu 0.10086(3) 0.31771(7) 0.2500 0.0383(2)
C(8') C 0.5487(2) -0.5542(6) 0.7500 0.042(2)
N(2") N 0.4357(2) -0.6557(5) 0.7500 0.048(2)
C(4$) C 0.2124(2) 0.2666(5) 1.0528(3) 0.049(1)
C(10$) C 0.1625(2) 0.3369(8) 0.9365(4) 0.075(2)
N(4*) N 0.3734(3) 0.134(1) 1.0889(5) 0.117(3)
C(8') C 0.5487(2) 1.4458(6) 0.7500 0.042(2)
C(4") C 0.2876(2) 1.2334(5) 0.5528(3) 0.049(1)
C(4*) C 0.2876(2) 1.2334(5) 0.9472(3) 0.049(1)
C(3") C 0.4752(2) 1.5677(5) 0.7500 0.037(1)
N(1$) N 0.1438(2) 0.3057(5) 0.1540(3) 0.056(1)
N(2!) N 0.0643(2) 0.1557(5) 0.2500 0.048(2)
N(3!) N 0.0662(2) 0.4801(5) 0.2500 0.044(1)
N(2') N 0.5643(2) -0.6557(5) 0.7500 0.048(2)
Cu(1") Cu 0.39914(3) -0.81771(7) 0.7500 0.0383(2)
C(9$) C 0.1737(2) 0.2873(5) 1.1085(3) 0.052(1)
N(4$) N 0.1266(3) 0.366(1) 0.9111(5) 0.117(3)
C(3') C 0.5248(2) 1.5677(5) 0.7500 0.037(1)
C(5") C 0.2452(2) 1.2778(5) 0.5838(3) 0.054(1)
C(6") C 0.2930(2) 1.2053(5) 0.4686(3) 0.052(1)
C(5*) C 0.2452(2) 1.2778(5) 0.9162(3) 0.054(1)
C(6*) C 0.2930(2) 1.2053(5) 1.0314(3) 0.052(1)
C(2") C 0.4498(2) 1.6830(6) 0.7500 0.041(1)
C(9$) C 0.1737(2) 0.2873(5) 0.1085(3) 0.052(1)
C(8!) C 0.0487(2) 0.0542(6) 0.2500 0.042(2)
C(7!) C 0.0489(2) 0.5791(6) 0.2500 0.040(2)
Cu(1') Cu 0.60086(3) -0.81771(7) 0.7500 0.0383(2)
N(1") N 0.3562(2) -0.8057(5) 0.6540(3) 0.056(1)
N(1*) N 0.3562(2) -0.8057(5) 0.8460(3) 0.056(1)
N(3") N 0.4338(2) -0.9801(5) 0.7500 0.044(1)
N(1$) N 0.1438(2) 0.3057(5) 1.1540(3) 0.056(1)
C(2') C 0.5502(2) 1.6830(6) 0.7500 0.041(1)
C(6!) C 0.2070(2) 1.2947(5) 0.5314(3) 0.052(1)
C(5!) C 0.2548(2) 1.2222(5) 0.4162(3) 0.054(1)
C(10") C 0.3375(2) 1.1631(8) 0.4365(4) 0.075(2)
C(6$) C 0.2070(2) 1.2947(5) 0.9686(3) 0.052(1)
C(5$) C 0.2548(2) 1.2222(5) 1.0838(3) 0.054(1)
C(10*) C 0.3375(2) 1.1631(8) 1.0635(4) 0.075(2)
C(1") C 0.4748(2) 1.7982(5) 0.7500 0.037(1)
C(4$) C 0.2124(2) 0.2666(5) 0.0528(3) 0.049(1)
C(3!) C 0.0248(2) -0.0677(5) 0.2500 0.037(1)
C(1!) C 0.0252(2) 0.7018(5) 0.2500 0.037(1)
N(3') N 0.5662(2) -0.9801(5) 0.7500 0.044(1)
C(9") C 0.3263(2) -0.7873(5) 0.6085(3) 0.052(1)
C(9*) C 0.3263(2) -0.7873(5) 0.8915(3) 0.052(1)
C(7") C 0.4511(2) -1.0791(6) 0.7500 0.040(2)
Cu(1!) Cu 0.10086(3) 0.31771(7) 1.2500 0.0383(2)
C(1') C 0.5252(2) 1.7982(5) 0.7500 0.037(1)
C(4!) C 0.2124(2) 1.2666(5) 0.4472(3) 0.049(1)
C(10!) C 0.1625(2) 1.3369(8) 0.5635(4) 0.075(2)
N(4") N 0.3734(3) 1.134(1) 0.4111(5) 0.117(3)
C(4$) C 0.2124(2) 1.2666(5) 1.0528(3) 0.049(1)
C(10$) C 0.1625(2) 1.3369(8) 0.9365(4) 0.075(2)
N(4*) N 0.3734(3) 1.134(1) 1.0889(5) 0.117(3)
C(7") C 0.4511(2) 1.9209(6) 0.7500 0.040(2)
C(5$) C 0.2548(2) 0.2222(5) 0.0838(3) 0.054(1)
C(6$) C 0.2070(2) 0.2947(5) -0.0314(3) 0.052(1)
C(2!) C 0.0502(2) -0.1830(6) 0.2500 0.041(1)
C(3**) C -0.0248(2) -0.0677(5) 0.2500 0.037(1)
C(1**) C -0.0252(2) 0.7018(5) 0.2500 0.037(1)
C(2!) C 0.0502(2) 0.8170(6) 0.2500 0.041(1)
C(7') C 0.5489(2) -1.0791(6) 0.7500 0.040(2)
C(4") C 0.2876(2) -0.7667(5) 0.5528(3) 0.049(1)
C(4*) C 0.2876(2) -0.7667(5) 0.9472(3) 0.049(1)
C(1") C 0.4748(2) -1.2018(5) 0.7500 0.037(1)
C(7') C 0.5489(2) 1.9209(6) 0.7500 0.040(2)
C(9!) C 0.1737(2) 1.2873(5) 0.3915(3) 0.052(1)
N(4!) N 0.1266(3) 1.366(1) 0.5889(5) 0.117(3)
C(9$) C 0.1737(2) 1.2873(5) 1.1085(3) 0.052(1)
N(4$) N 0.1266(3) 1.366(1) 0.9111(5) 0.117(3)
N(3") N 0.4338(2) 2.0199(5) 0.7500 0.044(1)
C(6*) C 0.2930(2) 0.2053(5) 0.0314(3) 0.052(1)
C(5*) C 0.2452(2) 0.2778(5) -0.0838(3) 0.054(1)
C(10$) C 0.1625(2) 0.3369(8) -0.0635(4) 0.075(2)
C(1!) C 0.0252(2) -0.2982(5) 0.2500 0.037(1)
C(2**) C -0.0502(2) -0.1830(6) 0.2500 0.041(1)
C(8**) C -0.0487(2) 0.0542(6) 0.2500 0.042(2)
C(2**) C -0.0502(2) 0.8170(6) 0.2500 0.041(1)
C(7**) C -0.0489(2) 0.5791(6) 0.2500 0.040(2)
C(3!) C 0.0248(2) 0.9323(5) 0.2500 0.037(1)
C(1') C 0.5252(2) -1.2018(5) 0.7500 0.037(1)
C(5") C 0.2452(2) -0.7222(5) 0.5838(3) 0.054(1)
C(6") C 0.2930(2) -0.7947(5) 0.4686(3) 0.052(1)
C(5*) C 0.2452(2) -0.7222(5) 0.9162(3) 0.054(1)
C(6*) C 0.2930(2) -0.7947(5) 1.0314(3) 0.052(1)
C(2") C 0.4498(2) -1.3170(6) 0.7500 0.041(1)
N(3') N 0.5662(2) 2.0199(5) 0.7500 0.044(1)
N(1!) N 0.1438(2) 1.3057(5) 0.3460(3) 0.056(1)
N(1$) N 0.1438(2) 1.3057(5) 1.1540(3) 0.056(1)
Cu(1") Cu 0.39914(3) 2.18229(7) 0.7500 0.0383(2)
C(4*) C 0.2876(2) 0.2333(5) -0.0528(3) 0.049(1)
C(10*) C 0.3375(2) 0.1631(8) 0.0635(4) 0.075(2)
N(4$) N 0.1266(3) 0.366(1) -0.0889(5) 0.117(3)
C(1**) C -0.0252(2) -0.2982(5) 0.2500 0.037(1)
C(7!) C 0.0489(2) -0.4209(6) 0.2500 0.040(2)
N(2**) N -0.0643(2) 0.1557(5) 0.2500 0.048(2)
C(3**) C -0.0248(2) 0.9323(5) 0.2500 0.037(1)
N(3**) N -0.0662(2) 0.4801(5) 0.2500 0.044(1)
C(8!) C 0.0487(2) 1.0542(6) 0.2500 0.042(2)
C(2') C 0.5502(2) -1.3170(6) 0.7500 0.041(1)
C(6!) C 0.2070(2) -0.7053(5) 0.5314(3) 0.052(1)
C(5!) C 0.2548(2) -0.7778(5) 0.4162(3) 0.054(1)
C(10") C 0.3375(2) -0.8369(8) 0.4365(4) 0.075(2)
C(6$) C 0.2070(2) -0.7053(5) 0.9686(3) 0.052(1)
C(5$) C 0.2548(2) -0.7778(5) 1.0838(3) 0.054(1)
C(10*) C 0.3375(2) -0.8369(8) 1.0635(4) 0.075(2)
C(3") C 0.4752(2) -1.4323(5) 0.7500 0.037(1)
Cu(1') Cu 0.60086(3) 2.18229(7) 0.7500 0.0383(2)
Cu(1!) Cu 0.10086(3) 1.31771(7) 0.2500 0.0383(2)
Cu(1!) Cu 0.10086(3) 1.31771(7) 1.2500 0.0383(2)
N(1") N 0.3562(2) 2.1943(5) 0.6540(3) 0.056(1)
N(1*) N 0.3562(2) 2.1943(5) 0.8460(3) 0.056(1)
N(2") N 0.4357(2) 2.3443(5) 0.7500 0.048(2)
C(9*) C 0.3263(2) 0.2127(5) -0.1085(3) 0.052(1)
N(4*) N 0.3734(3) 0.134(1) 0.0889(5) 0.117(3)
C(7**) C -0.0489(2) -0.4209(6) 0.2500 0.040(2)
N(3!) N 0.0662(2) -0.5199(5) 0.2500 0.044(1)
Cu(1**) Cu -0.10086(3) 0.31771(7) 0.2500 0.0383(2)
C(8**) C -0.0487(2) 1.0542(6) 0.2500 0.042(2)
N(2!) N 0.0643(2) 1.1557(5) 0.2500 0.048(2)
C(3') C 0.5248(2) -1.4323(5) 0.7500 0.037(1)
C(4!) C 0.2124(2) -0.7333(5) 0.4472(3) 0.049(1)
C(10!) C 0.1625(2) -0.6631(8) 0.5635(4) 0.075(2)
N(4") N 0.3734(3) -0.866(1) 0.4111(5) 0.117(3)
C(4$) C 0.2124(2) -0.7333(5) 1.0528(3) 0.049(1)
C(10$) C 0.1625(2) -0.6631(8) 0.9365(4) 0.075(2)
N(4*) N 0.3734(3) -0.866(1) 1.0889(5) 0.117(3)
C(8") C 0.4513(2) -1.5542(6) 0.7500 0.042(2)
N(2') N 0.5643(2) 2.3443(5) 0.7500 0.048(2)
N(1$) N 0.1438(2) 1.3057(5) 0.1540(3) 0.056(1)
N(3!) N 0.0662(2) 1.4801(5) 0.2500 0.044(1)
C(9") C 0.3263(2) 2.2127(5) 0.6085(3) 0.052(1)
C(9*) C 0.3263(2) 2.2127(5) 0.8915(3) 0.052(1)
C(8") C 0.4513(2) 2.4458(6) 0.7500 0.042(2)
N(1*) N 0.3562(2) 0.1943(5) -0.1540(3) 0.056(1)
N(3**) N -0.0662(2) -0.5199(5) 0.2500 0.044(1)
Cu(1!) Cu 0.10086(3) -0.68229(7) 0.2500 0.0383(2)
N(1**) N -0.1438(2) 0.3057(5) 0.3460(3) 0.056(1)
N(1!!) N -0.1438(2) 0.3057(5) 0.1540(3) 0.056(1)
N(2**) N -0.0643(2) 1.1557(5) 0.2500 0.048(2)
C(8') C 0.5487(2) -1.5542(6) 0.7500 0.042(2)
C(9!) C 0.1737(2) -0.7127(5) 0.3915(3) 0.052(1)
N(4!) N 0.1266(3) -0.634(1) 0.5889(5) 0.117(3)
C(9$) C 0.1737(2) -0.7127(5) 1.1085(3) 0.052(1)
N(4$) N 0.1266(3) -0.634(1) 0.9111(5) 0.117(3)
N(2") N 0.4357(2) -1.6557(5) 0.7500 0.048(2)
Cu(1*) Cu 0.39914(3) -0.18229(7) 0.2500 0.0383(2)
N(1*) N 0.3562(2) -0.1943(5) 0.3460(3) 0.056(1)
N(2*) N 0.4357(2) -0.3443(5) 0.2500 0.048(2)
N(3*) N 0.4338(2) -0.0199(5) 0.2500 0.044(1)
N(4*) N 0.3734(3) -0.134(1) 0.5889(5) 0.117(3)
C(1*) C 0.4748(2) -0.7982(5) 0.2500 0.037(1)
C(2*) C 0.4498(2) -0.6830(6) 0.2500 0.041(1)
C(3*) C 0.4752(2) -0.5677(5) 0.2500 0.037(1)
C(4*) C 0.2876(2) -0.2333(5) 0.4472(3) 0.049(1)
C(5*) C 0.2452(2) -0.2778(5) 0.4162(3) 0.054(1)
C(6*) C 0.2930(2) -0.2053(5) 0.5314(3) 0.052(1)
C(7*) C 0.4511(2) 0.0791(6) 0.2500 0.040(2)
C(8*) C 0.4513(2) -0.4458(6) 0.2500 0.042(2)
C(9*) C 0.3263(2) -0.2127(5) 0.3915(3) 0.052(1)
C(10*) C 0.3375(2) -0.1631(8) 0.5635(4) 0.075(2)
N(1**) N 0.3562(2) -0.1943(5) 0.1540(3) 0.056(1)
C(1'*) C 0.5252(2) -0.7982(5) 0.2500 0.037(1)
C(7"*) C 0.4511(2) -0.9209(6) 0.2500 0.040(2)
C(3'*) C 0.5248(2) -0.5677(5) 0.2500 0.037(1)
C(6!*) C 0.2070(2) -0.2947(5) 0.4686(3) 0.052(1)
C(5!*) C 0.2548(2) -0.2222(5) 0.5838(3) 0.054(1)
C(1"*) C 0.4748(2) 0.2018(5) 0.2500 0.037(1)
C(9**) C 0.3263(2) -0.2127(5) 0.1085(3) 0.052(1)
C(2'*) C 0.5502(2) -0.6830(6) 0.2500 0.041(1)
C(7'*) C 0.5489(2) -0.9209(6) 0.2500 0.040(2)
N(3"*) N 0.4338(2) -1.0199(5) 0.2500 0.044(1)
C(8'*) C 0.5487(2) -0.4458(6) 0.2500 0.042(2)
C(4!*) C 0.2124(2) -0.2666(5) 0.5528(3) 0.049(1)
C(10!*) C 0.1625(2) -0.3369(8) 0.4365(4) 0.075(2)
C(1'*) C 0.5252(2) 0.2018(5) 0.2500 0.037(1)
C(2"*) C 0.4498(2) 0.3170(6) 0.2500 0.041(1)
C(4**) C 0.2876(2) -0.2333(5) 0.0528(3) 0.049(1)
N(3'*) N 0.5662(2) -1.0199(5) 0.2500 0.044(1)
Cu(1"*) Cu 0.39914(3) -1.18229(7) 0.2500 0.0383(2)
N(2'*) N 0.5643(2) -0.3443(5) 0.2500 0.048(2)
C(9!*) C 0.1737(2) -0.2873(5) 0.6085(3) 0.052(1)
N(4!*) N 0.1266(3) -0.366(1) 0.4111(5) 0.117(3)
C(2'*) C 0.5502(2) 0.3170(6) 0.2500 0.041(1)
C(7'*) C 0.5489(2) 0.0791(6) 0.2500 0.040(2)
C(3"*) C 0.4752(2) 0.4323(5) 0.2500 0.037(1)
C(5**) C 0.2452(2) -0.2778(5) 0.0838(3) 0.054(1)
C(6**) C 0.2930(2) -0.2053(5) -0.0314(3) 0.052(1)
Cu(1'*) Cu 0.60086(3) -1.18229(7) 0.2500 0.0383(2)
N(1"*) N 0.3562(2) -1.1943(5) 0.3460(3) 0.056(1)
N(1**) N 0.3562(2) -1.1943(5) 0.1540(3) 0.056(1)
N(2"*) N 0.4357(2) -1.3443(5) 0.2500 0.048(2)
Cu(1'*) Cu 0.60086(3) -0.18229(7) 0.2500 0.0383(2)
N(1!*) N 0.1438(2) -0.3057(5) 0.6540(3) 0.056(1)
C(3'*) C 0.5248(2) 0.4323(5) 0.2500 0.037(1)
N(3'*) N 0.5662(2) -0.0199(5) 0.2500 0.044(1)
C(8"*) C 0.4513(2) 0.5542(6) 0.2500 0.042(2)
C(6$*) C 0.2070(2) -0.2947(5) 0.0314(3) 0.052(1)
C(5$*) C 0.2548(2) -0.2222(5) -0.0838(3) 0.054(1)
C(10**) C 0.3375(2) -0.1631(8) -0.0635(4) 0.075(2)
N(2'*) N 0.5643(2) -1.3443(5) 0.2500 0.048(2)
C(9"*) C 0.3263(2) -1.2127(5) 0.3915(3) 0.052(1)
C(9**) C 0.3263(2) -1.2127(5) 0.1085(3) 0.052(1)
C(8"*) C 0.4513(2) -1.4458(6) 0.2500 0.042(2)
Cu(1!*) Cu 0.10086(3) -0.31771(7) 0.7500 0.0383(2)
C(8'*) C 0.5487(2) 0.5542(6) 0.2500 0.042(2)
N(2"*) N 0.4357(2) 0.6557(5) 0.2500 0.048(2)
C(4$*) C 0.2124(2) -0.2666(5) -0.0528(3) 0.049(1)
C(10$*) C 0.1625(2) -0.3369(8) 0.0635(4) 0.075(2)
N(4**) N 0.3734(3) -0.134(1) -0.0889(5) 0.117(3)
C(8'*) C 0.5487(2) -1.4458(6) 0.2500 0.042(2)
C(4"*) C 0.2876(2) -1.2334(5) 0.4472(3) 0.049(1)
C(4**) C 0.2876(2) -1.2334(5) 0.0528(3) 0.049(1)
C(3"*) C 0.4752(2) -1.5677(5) 0.2500 0.037(1)
N(1$*) N 0.1438(2) -0.3057(5) 0.8460(3) 0.056(1)
N(2!*) N 0.0643(2) -0.1557(5) 0.7500 0.048(2)
N(3!*) N 0.0662(2) -0.4801(5) 0.7500 0.044(1)
N(2'*) N 0.5643(2) 0.6557(5) 0.2500 0.048(2)
Cu(1"*) Cu 0.39914(3) 0.81771(7) 0.2500 0.0383(2)
C(9$*) C 0.1737(2) -0.2873(5) -0.1085(3) 0.052(1)
N(4$*) N 0.1266(3) -0.366(1) 0.0889(5) 0.117(3)
C(3'*) C 0.5248(2) -1.5677(5) 0.2500 0.037(1)
C(5"*) C 0.2452(2) -1.2778(5) 0.4162(3) 0.054(1)
C(6"*) C 0.2930(2) -1.2053(5) 0.5314(3) 0.052(1)
C(5**) C 0.2452(2) -1.2778(5) 0.0838(3) 0.054(1)
C(6**) C 0.2930(2) -1.2053(5) -0.0314(3) 0.052(1)
C(2"*) C 0.4498(2) -1.6830(6) 0.2500 0.041(1)
C(9$*) C 0.1737(2) -0.2873(5) 0.8915(3) 0.052(1)
C(8!*) C 0.0487(2) -0.0542(6) 0.7500 0.042(2)
C(7!*) C 0.0489(2) -0.5791(6) 0.7500 0.040(2)
Cu(1'*) Cu 0.60086(3) 0.81771(7) 0.2500 0.0383(2)
N(1"*) N 0.3562(2) 0.8057(5) 0.3460(3) 0.056(1)
N(1**) N 0.3562(2) 0.8057(5) 0.1540(3) 0.056(1)
N(3"*) N 0.4338(2) 0.9801(5) 0.2500 0.044(1)
N(1$*) N 0.1438(2) -0.3057(5) -0.1540(3) 0.056(1)
C(2'*) C 0.5502(2) -1.6830(6) 0.2500 0.041(1)
C(6!*) C 0.2070(2) -1.2947(5) 0.4686(3) 0.052(1)
C(5!*) C 0.2548(2) -1.2222(5) 0.5838(3) 0.054(1)
C(10"*) C 0.3375(2) -1.1631(8) 0.5635(4) 0.075(2)
C(6$*) C 0.2070(2) -1.2947(5) 0.0314(3) 0.052(1)
C(5$*) C 0.2548(2) -1.2222(5) -0.0838(3) 0.054(1)
C(10**) C 0.3375(2) -1.1631(8) -0.0635(4) 0.075(2)
C(1"*) C 0.4748(2) -1.7982(5) 0.2500 0.037(1)
C(4$*) C 0.2124(2) -0.2666(5) 0.9472(3) 0.049(1)
C(3!*) C 0.0248(2) 0.0677(5) 0.7500 0.037(1)
C(1!*) C 0.0252(2) -0.7018(5) 0.7500 0.037(1)
N(3'*) N 0.5662(2) 0.9801(5) 0.2500 0.044(1)
C(9"*) C 0.3263(2) 0.7873(5) 0.3915(3) 0.052(1)
C(9**) C 0.3263(2) 0.7873(5) 0.1085(3) 0.052(1)
C(7"*) C 0.4511(2) 1.0791(6) 0.2500 0.040(2)
Cu(1!*) Cu 0.10086(3) -0.31771(7) -0.2500 0.0383(2)
C(1'*) C 0.5252(2) -1.7982(5) 0.2500 0.037(1)
C(4!*) C 0.2124(2) -1.2666(5) 0.5528(3) 0.049(1)
C(10!*) C 0.1625(2) -1.3369(8) 0.4365(4) 0.075(2)
N(4"*) N 0.3734(3) -1.134(1) 0.5889(5) 0.117(3)
C(4$*) C 0.2124(2) -1.2666(5) -0.0528(3) 0.049(1)
C(10$*) C 0.1625(2) -1.3369(8) 0.0635(4) 0.075(2)
N(4**) N 0.3734(3) -1.134(1) -0.0889(5) 0.117(3)
C(7"*) C 0.4511(2) -1.9209(6) 0.2500 0.040(2)
C(5$*) C 0.2548(2) -0.2222(5) 0.9162(3) 0.054(1)
C(6$*) C 0.2070(2) -0.2947(5) 1.0314(3) 0.052(1)
C(2!*) C 0.0502(2) 0.1830(6) 0.7500 0.041(1)
C(3***) C -0.0248(2) 0.0677(5) 0.7500 0.037(1)
C(1***) C -0.0252(2) -0.7018(5) 0.7500 0.037(1)
C(2!*) C 0.0502(2) -0.8170(6) 0.7500 0.041(1)
C(7'*) C 0.5489(2) 1.0791(6) 0.2500 0.040(2)
C(4"*) C 0.2876(2) 0.7667(5) 0.4472(3) 0.049(1)
C(4**) C 0.2876(2) 0.7667(5) 0.0528(3) 0.049(1)
C(1"*) C 0.4748(2) 1.2018(5) 0.2500 0.037(1)
N(2!*) N 0.0643(2) -0.1557(5) -0.2500 0.048(2)
N(3!*) N 0.0662(2) -0.4801(5) -0.2500 0.044(1)
C(7'*) C 0.5489(2) -1.9209(6) 0.2500 0.040(2)
C(9!*) C 0.1737(2) -1.2873(5) 0.6085(3) 0.052(1)
N(4!*) N 0.1266(3) -1.366(1) 0.4111(5) 0.117(3)
C(9$*) C 0.1737(2) -1.2873(5) -0.1085(3) 0.052(1)
N(4$*) N 0.1266(3) -1.366(1) 0.0889(5) 0.117(3)
N(3"*) N 0.4338(2) -2.0199(5) 0.2500 0.044(1)
C(6**) C 0.2930(2) -0.2053(5) 0.9686(3) 0.052(1)
C(5**) C 0.2452(2) -0.2778(5) 1.0838(3) 0.054(1)
C(10$*) C 0.1625(2) -0.3369(8) 1.0635(4) 0.075(2)
C(1!*) C 0.0252(2) 0.2982(5) 0.7500 0.037(1)
C(2***) C -0.0502(2) 0.1830(6) 0.7500 0.041(1)
C(8***) C -0.0487(2) -0.0542(6) 0.7500 0.042(2)
C(2***) C -0.0502(2) -0.8170(6) 0.7500 0.041(1)
C(7***) C -0.0489(2) -0.5791(6) 0.7500 0.040(2)
C(3!*) C 0.0248(2) -0.9323(5) 0.7500 0.037(1)
C(1'*) C 0.5252(2) 1.2018(5) 0.2500 0.037(1)
C(5"*) C 0.2452(2) 0.7222(5) 0.4162(3) 0.054(1)
C(6"*) C 0.2930(2) 0.7947(5) 0.5314(3) 0.052(1)
C(5**) C 0.2452(2) 0.7222(5) 0.0838(3) 0.054(1)
C(6**) C 0.2930(2) 0.7947(5) -0.0314(3) 0.052(1)
C(2"*) C 0.4498(2) 1.3170(6) 0.2500 0.041(1)
C(8!*) C 0.0487(2) -0.0542(6) -0.2500 0.042(2)
C(7!*) C 0.0489(2) -0.5791(6) -0.2500 0.040(2)
N(3'*) N 0.5662(2) -2.0199(5) 0.2500 0.044(1)
N(1!*) N 0.1438(2) -1.3057(5) 0.6540(3) 0.056(1)
N(1$*) N 0.1438(2) -1.3057(5) -0.1540(3) 0.056(1)
Cu(1"*) Cu 0.39914(3) -2.18229(7) 0.2500 0.0383(2)
C(4**) C 0.2876(2) -0.2333(5) 1.0528(3) 0.049(1)
C(10**) C 0.3375(2) -0.1631(8) 0.9365(4) 0.075(2)
N(4$*) N 0.1266(3) -0.366(1) 1.0889(5) 0.117(3)
C(1***) C -0.0252(2) 0.2982(5) 0.7500 0.037(1)
C(7!*) C 0.0489(2) 0.4209(6) 0.7500 0.040(2)
N(2***) N -0.0643(2) -0.1557(5) 0.7500 0.048(2)
C(3***) C -0.0248(2) -0.9323(5) 0.7500 0.037(1)
N(3***) N -0.0662(2) -0.4801(5) 0.7500 0.044(1)
C(8!*) C 0.0487(2) -1.0542(6) 0.7500 0.042(2)
C(2'*) C 0.5502(2) 1.3170(6) 0.2500 0.041(1)
C(6!*) C 0.2070(2) 0.7053(5) 0.4686(3) 0.052(1)
C(5!*) C 0.2548(2) 0.7778(5) 0.5838(3) 0.054(1)
C(10"*) C 0.3375(2) 0.8369(8) 0.