####################################################################### 
# 
# This file contains crystal structure data downloaded from the 
# Cambridge Structural Database (CSD) hosted by the Cambridge 
# Crystallographic Data Centre (CCDC).
# 
# Full information about CCDC data access policies and citation 
# guidelines are available at http://www.ccdc.cam.ac.uk/access/V1 
# 
# Audit and citation data items may have been added by the CCDC. 
# Please retain this information to preserve the provenance of 
# this file and to allow appropriate attribution of the data. 
# 
#######################################################################

data_2
_audit_block_doi                 10.5517/ccsmtnv
_database_code_depnum_ccdc_archive 'CCDC 734038'
loop_
_citation_id
_citation_doi
_citation_year
1 10.1002/chem.200902306 2009
_audit_update_record             
;
2009-05-27 deposited with the CCDC.	2024-07-13 downloaded from the CCDC.
;

_audit_creation_method           SHELXL-97
_chemical_name_systematic        
;
?
;
_chemical_name_common            ?
_chemical_melting_point          ?
_chemical_formula_moiety         ?
_chemical_formula_sum            'C20 H14 Cu N4 O4'
_chemical_formula_weight         437.89

loop_
_atom_type_symbol
_atom_type_description
_atom_type_scat_dispersion_real
_atom_type_scat_dispersion_imag
_atom_type_scat_source
C C 0.0033 0.0016 'International Tables Vol C Tables 4.2.6.8 and 6.1.1.4'
H H 0.0000 0.0000 'International Tables Vol C Tables 4.2.6.8 and 6.1.1.4'
N N 0.0061 0.0033 'International Tables Vol C Tables 4.2.6.8 and 6.1.1.4'
O O 0.0106 0.0060 'International Tables Vol C Tables 4.2.6.8 and 6.1.1.4'
Cu Cu 0.3201 1.2651 'International Tables Vol C Tables 4.2.6.8 and 6.1.1.4'

_symmetry_cell_setting           Trigonal
_symmetry_space_group_name_H-M   R-3

loop_
_symmetry_equiv_pos_as_xyz
'x, y, z'
'-y, x-y, z'
'-x+y, -x, z'
'x+2/3, y+1/3, z+1/3'
'-y+2/3, x-y+1/3, z+1/3'
'-x+y+2/3, -x+1/3, z+1/3'
'x+1/3, y+2/3, z+2/3'
'-y+1/3, x-y+2/3, z+2/3'
'-x+y+1/3, -x+2/3, z+2/3'
'-x, -y, -z'
'y, -x+y, -z'
'x-y, x, -z'
'-x+2/3, -y+1/3, -z+1/3'
'y+2/3, -x+y+1/3, -z+1/3'
'x-y+2/3, x+1/3, -z+1/3'
'-x+1/3, -y+2/3, -z+2/3'
'y+1/3, -x+y+2/3, -z+2/3'
'x-y+1/3, x+2/3, -z+2/3'

_cell_length_a                   23.5358(10)
_cell_length_b                   23.5358(10)
_cell_length_c                   10.1078(9)
_cell_angle_alpha                90.00
_cell_angle_beta                 90.00
_cell_angle_gamma                120.00
_cell_volume                     4848.9(5)
_cell_formula_units_Z            9
_cell_measurement_temperature    293(2)
_cell_measurement_reflns_used    2372
_cell_measurement_theta_min      2.25
_cell_measurement_theta_max      23.81

_exptl_crystal_description       Block
_exptl_crystal_colour            'Light Blue'
_exptl_crystal_size_max          0.18
_exptl_crystal_size_mid          0.15
_exptl_crystal_size_min          0.10
_exptl_crystal_density_meas      None
_exptl_crystal_density_diffrn    1.350
_exptl_crystal_density_method    'not measured'
_exptl_crystal_F_000             2007
_exptl_absorpt_coefficient_mu    1.044
_exptl_absorpt_correction_type   Multi-Scan
_exptl_absorpt_correction_T_min  0.828565
_exptl_absorpt_correction_T_max  1.000000
_exptl_absorpt_process_details   SADABS

_exptl_special_details           
;
?
;

_diffrn_ambient_temperature      293(2)
_diffrn_radiation_wavelength     0.71073
_diffrn_radiation_type           MoK\a
_diffrn_radiation_source         'fine-focus sealed tube'
_diffrn_radiation_monochromator  graphite
_diffrn_measurement_device_type  'APEX II CCD area detector'
_diffrn_measurement_method       'phi and omega scans'
_diffrn_detector_area_resol_mean ?
_diffrn_standards_number         ?
_diffrn_standards_interval_count ?
_diffrn_standards_interval_time  ?
_diffrn_standards_decay_%        ?
_diffrn_reflns_number            8740
_diffrn_reflns_av_R_equivalents  0.0454
_diffrn_reflns_av_sigmaI/netI    0.0383
_diffrn_reflns_limit_h_min       -27
_diffrn_reflns_limit_h_max       24
_diffrn_reflns_limit_k_min       -20
_diffrn_reflns_limit_k_max       28
_diffrn_reflns_limit_l_min       -12
_diffrn_reflns_limit_l_max       11
_diffrn_reflns_theta_min         2.25
_diffrn_reflns_theta_max         25.01
_reflns_number_total             1882
_reflns_number_gt                1441
_reflns_threshold_expression     >2sigma(I)

_computing_data_collection       'Bruker APEX II'
_computing_cell_refinement       'Bruker APEX II'
_computing_data_reduction        'Bruker SAINT'
_computing_structure_solution    'SHELXS-97 (Sheldrick, 1990)'
_computing_structure_refinement  'SHELXL-97 (Sheldrick, 1997)'
_computing_molecular_graphics    'Bruker SHELXTL'
_computing_publication_material  'Bruker SHELXTL'

_refine_special_details          
;
Refinement of F^2^ against ALL reflections. The weighted R-factor wR and
goodness of fit S are based on F^2^, conventional R-factors R are based
on F, with F set to zero for negative F^2^. The threshold expression of
F^2^ > 2sigma(F^2^) is used only for calculating R-factors(gt) etc. and is
not relevant to the choice of reflections for refinement. R-factors based
on F^2^ are statistically about twice as large as those based on F, and R-
factors based on ALL data will be even larger.
;

_refine_ls_structure_factor_coef Fsqd
_refine_ls_matrix_type           full
_refine_ls_weighting_scheme      calc
_refine_ls_weighting_details     
'calc w=1/[\s^2^(Fo^2^)+(0.0360P)^2^+17.5445P] where P=(Fo^2^+2Fc^2^)/3'
_atom_sites_solution_primary     direct
_atom_sites_solution_secondary   difmap
_atom_sites_solution_hydrogens   geom
_refine_ls_hydrogen_treatment    constr
_refine_ls_extinction_method     none
_refine_ls_extinction_coef       ?
_refine_ls_number_reflns         1882
_refine_ls_number_parameters     133
_refine_ls_number_restraints     0
_refine_ls_R_factor_all          0.0577
_refine_ls_R_factor_gt           0.0371
_refine_ls_wR_factor_ref         0.1000
_refine_ls_wR_factor_gt          0.0922
_refine_ls_goodness_of_fit_ref   1.071
_refine_ls_restrained_S_all      1.071
_refine_ls_shift/su_max          0.000
_refine_ls_shift/su_mean         0.000

loop_
_atom_site_label
_atom_site_type_symbol
_atom_site_fract_x
_atom_site_fract_y
_atom_site_fract_z
_atom_site_U_iso_or_equiv
_atom_site_adp_type
_atom_site_occupancy
_atom_site_symmetry_multiplicity
_atom_site_calc_flag
_atom_site_refinement_flags
_atom_site_disorder_assembly
_atom_site_disorder_group
Cu1 Cu 0.8333 0.6667 0.1667 0.02848(19) Uani 1 2 d S . .
N1 N 0.74322(13) 0.62099(13) 0.0923(3) 0.0343(7) Uani 1 1 d . . .
N2 N 0.64236(13) 0.54131(13) 0.0544(3) 0.0348(7) Uani 1 1 d . . .
C3 C 0.64774(17) 0.59779(16) 0.0015(4) 0.0383(8) Uani 1 1 d . . .
H3 H 0.6152 0.6018 -0.0424 0.046 Uiso 1 1 calc R . .
C1 C 0.70101(16) 0.55773(16) 0.1081(4) 0.0377(8) Uani 1 1 d . . .
H1 H 0.7106 0.5285 0.1507 0.045 Uiso 1 1 calc R . .
C5 C 0.54778(18) 0.45050(18) -0.0515(4) 0.0438(9) Uani 1 1 d . . .
H5 H 0.5577 0.4744 -0.1297 0.053 Uiso 1 1 calc R . .
C2 C 0.70926(17) 0.64591(16) 0.0260(4) 0.0385(8) Uani 1 1 d . . .
H2 H 0.7264 0.6896 0.0018 0.046 Uiso 1 1 calc R . .
C4 C 0.58566(16) 0.47721(16) 0.0588(3) 0.0362(8) Uani 1 1 d . . .
C9 C 0.5698(2) 0.4432(2) 0.1761(4) 0.0609(13) Uani 1 1 d . . .
H9 H 0.5941 0.4626 0.2522 0.073 Uiso 1 1 calc R . .
O1 O 0.41687(10) 0.24942(11) 0.1792(2) 0.0345(6) Uani 1 1 d . . .
O2 O 0.38141(12) 0.26152(12) -0.0168(2) 0.0456(7) Uani 1 1 d . . .
C7 C 0.47920(15) 0.35105(16) 0.0691(3) 0.0330(8) Uani 1 1 d . . .
C10 C 0.42147(16) 0.28301(16) 0.0750(4) 0.0340(8) Uani 1 1 d . . .
C6 C 0.49447(18) 0.38745(18) -0.0455(4) 0.0421(9) Uani 1 1 d . . .
H6 H 0.4685 0.3694 -0.1202 0.051 Uiso 1 1 calc R . .
C8 C 0.5174(2) 0.37969(19) 0.1797(4) 0.0571(12) Uani 1 1 d . . .
H8 H 0.5077 0.3559 0.2580 0.068 Uiso 1 1 calc R . .

loop_
_atom_site_aniso_label
_atom_site_aniso_U_11
_atom_site_aniso_U_22
_atom_site_aniso_U_33
_atom_site_aniso_U_23
_atom_site_aniso_U_13
_atom_site_aniso_U_12
Cu1 0.0246(3) 0.0175(3) 0.0410(4) -0.0015(2) -0.0013(2) 0.0088(2)
N1 0.0325(15) 0.0227(14) 0.0436(17) -0.0006(12) -0.0024(13) 0.0106(12)
N2 0.0256(15) 0.0266(15) 0.0426(17) -0.0014(12) -0.0025(12) 0.0058(12)
C3 0.0326(19) 0.0330(19) 0.050(2) 0.0010(16) -0.0044(16) 0.0166(16)
C1 0.0305(19) 0.0275(18) 0.048(2) 0.0016(16) -0.0062(16) 0.0094(15)
C5 0.039(2) 0.041(2) 0.032(2) 0.0079(16) -0.0007(16) 0.0065(17)
C2 0.037(2) 0.0230(17) 0.053(2) 0.0025(16) -0.0039(17) 0.0131(16)
C4 0.0289(18) 0.0303(18) 0.037(2) 0.0018(15) 0.0007(15) 0.0057(15)
C9 0.051(3) 0.048(2) 0.040(2) 0.0030(19) -0.0141(19) -0.008(2)
O1 0.0247(12) 0.0303(12) 0.0436(15) 0.0039(11) 0.0021(10) 0.0101(10)
O2 0.0345(14) 0.0419(15) 0.0425(16) -0.0032(12) -0.0057(12) 0.0056(12)
C7 0.0241(17) 0.0306(18) 0.035(2) 0.0003(15) 0.0014(14) 0.0072(14)
C10 0.0246(17) 0.0316(18) 0.041(2) -0.0038(16) 0.0068(16) 0.0108(15)
C6 0.035(2) 0.040(2) 0.034(2) -0.0009(16) -0.0039(16) 0.0052(17)
C8 0.052(2) 0.043(2) 0.039(2) 0.0114(18) -0.0081(19) -0.0049(19)

_geom_special_details            
;
All esds (except the esd in the dihedral angle between two l.s. planes)
are estimated using the full covariance matrix. The cell esds are taken
into account individually in the estimation of esds in distances, angles
and torsion angles; correlations between esds in cell parameters are only
used when they are defined by crystal symmetry. An approximate (isotropic)
treatment of cell esds is used for estimating esds involving l.s. planes.
;

loop_
_geom_bond_atom_site_label_1
_geom_bond_atom_site_label_2
_geom_bond_distance
_geom_bond_site_symmetry_2
_geom_bond_publ_flag
Cu1 O1 1.961(2) 3_665 ?
Cu1 O1 1.961(2) 15 ?
Cu1 N1 1.985(3) 13_665 ?
Cu1 N1 1.985(3) . ?
N1 C1 1.323(4) . ?
N1 C2 1.379(4) . ?
N2 C1 1.347(4) . ?
N2 C3 1.379(4) . ?
N2 C4 1.430(4) . ?
C3 C2 1.342(5) . ?
C3 H3 0.9300 . ?
C1 H1 0.9300 . ?
C5 C4 1.369(5) . ?
C5 C6 1.385(5) . ?
C5 H5 0.9300 . ?
C2 H2 0.9300 . ?
C4 C9 1.374(5) . ?
C9 C8 1.383(5) . ?
C9 H9 0.9300 . ?
O1 C10 1.288(4) . ?
O1 Cu1 1.961(2) 2_655 ?
O2 C10 1.237(4) . ?
C7 C6 1.377(5) . ?
C7 C8 1.381(5) . ?
C7 C10 1.496(5) . ?
C6 H6 0.9300 . ?
C8 H8 0.9300 . ?

loop_
_geom_angle_atom_site_label_1
_geom_angle_atom_site_label_2
_geom_angle_atom_site_label_3
_geom_angle
_geom_angle_site_symmetry_1
_geom_angle_site_symmetry_3
_geom_angle_publ_flag
O1 Cu1 O1 179.998(1) 3_665 15 ?
O1 Cu1 N1 89.45(10) 3_665 13_665 ?
O1 Cu1 N1 90.55(10) 15 13_665 ?
O1 Cu1 N1 90.55(10) 3_665 . ?
O1 Cu1 N1 89.45(10) 15 . ?
N1 Cu1 N1 180.0 13_665 . ?
C1 N1 C2 105.6(3) . . ?
C1 N1 Cu1 124.2(2) . . ?
C2 N1 Cu1 130.1(2) . . ?
C1 N2 C3 107.0(3) . . ?
C1 N2 C4 124.9(3) . . ?
C3 N2 C4 128.1(3) . . ?
C2 C3 N2 106.4(3) . . ?
C2 C3 H3 126.8 . . ?
N2 C3 H3 126.8 . . ?
N1 C1 N2 111.1(3) . . ?
N1 C1 H1 124.5 . . ?
N2 C1 H1 124.5 . . ?
C4 C5 C6 119.3(3) . . ?
C4 C5 H5 120.4 . . ?
C6 C5 H5 120.4 . . ?
C3 C2 N1 109.9(3) . . ?
C3 C2 H2 125.0 . . ?
N1 C2 H2 125.0 . . ?
C5 C4 C9 120.7(3) . . ?
C5 C4 N2 120.6(3) . . ?
C9 C4 N2 118.7(3) . . ?
C4 C9 C8 119.2(4) . . ?
C4 C9 H9 120.4 . . ?
C8 C9 H9 120.4 . . ?
C10 O1 Cu1 107.0(2) . 2_655 ?
C6 C7 C8 118.3(3) . . ?
C6 C7 C10 121.0(3) . . ?
C8 C7 C10 120.7(3) . . ?
O2 C10 O1 123.3(3) . . ?
O2 C10 C7 120.4(3) . . ?
O1 C10 C7 116.2(3) . . ?
C7 C6 C5 121.2(3) . . ?
C7 C6 H6 119.4 . . ?
C5 C6 H6 119.4 . . ?
C7 C8 C9 121.1(4) . . ?
C7 C8 H8 119.4 . . ?
C9 C8 H8 119.4 . . ?

loop_
_geom_torsion_atom_site_label_1
_geom_torsion_atom_site_label_2
_geom_torsion_atom_site_label_3
_geom_torsion_atom_site_label_4
_geom_torsion
_geom_torsion_site_symmetry_1
_geom_torsion_site_symmetry_2
_geom_torsion_site_symmetry_3
_geom_torsion_site_symmetry_4
_geom_torsion_publ_flag
O1 Cu1 N1 C1 22.1(3) 3_665 . . . ?
O1 Cu1 N1 C1 -157.9(3) 15 . . . ?
O1 Cu1 N1 C2 -163.8(3) 3_665 . . . ?
O1 Cu1 N1 C2 16.2(3) 15 . . . ?
C1 N2 C3 C2 -0.3(4) . . . . ?
C4 N2 C3 C2 177.3(3) . . . . ?
C2 N1 C1 N2 0.5(4) . . . . ?
Cu1 N1 C1 N2 175.8(2) . . . . ?
C3 N2 C1 N1 -0.1(4) . . . . ?
C4 N2 C1 N1 -177.8(3) . . . . ?
N2 C3 C2 N1 0.6(4) . . . . ?
C1 N1 C2 C3 -0.6(4) . . . . ?
Cu1 N1 C2 C3 -175.6(2) . . . . ?
C6 C5 C4 C9 -2.6(6) . . . . ?
C6 C5 C4 N2 177.8(3) . . . . ?
C1 N2 C4 C5 -135.9(4) . . . . ?
C3 N2 C4 C5 47.0(5) . . . . ?
C1 N2 C4 C9 44.4(5) . . . . ?
C3 N2 C4 C9 -132.7(4) . . . . ?
C5 C4 C9 C8 4.1(7) . . . . ?
N2 C4 C9 C8 -176.2(4) . . . . ?
Cu1 O1 C10 O2 -5.4(4) 2_655 . . . ?
Cu1 O1 C10 C7 174.9(2) 2_655 . . . ?
C6 C7 C10 O2 -9.8(5) . . . . ?
C8 C7 C10 O2 168.3(4) . . . . ?
C6 C7 C10 O1 169.9(3) . . . . ?
C8 C7 C10 O1 -12.0(5) . . . . ?
C8 C7 C6 C5 1.8(6) . . . . ?
C10 C7 C6 C5 179.9(3) . . . . ?
C4 C5 C6 C7 -0.5(6) . . . . ?
C6 C7 C8 C9 -0.2(7) . . . . ?
C10 C7 C8 C9 -178.3(4) . . . . ?
C4 C9 C8 C7 -2.7(7) . . . . ?

_diffrn_measured_fraction_theta_max 0.988
_diffrn_reflns_theta_full        25.01
_diffrn_measured_fraction_theta_full 0.988
_refine_diff_density_max         0.427
_refine_diff_density_min         -0.298
_refine_diff_density_rms         0.059


#===END
