
#######################################################################
#
#                 Cambridge Crystallographic Data Centre
#                                CCDC
#
#######################################################################
#
# If this CIF has been generated from an entry in the Cambridge
# Structural Database, then it will include bibliographic, chemical,
# crystal, experimental, refinement or atomic coordinate data resulting
# from the CCDC's data processing and validation procedures.
#
#######################################################################

data_CSD_CIF_SUGXAU
_audit_creation_date 2010-08-30
_audit_creation_method CSD-ConQuest-V1
_database_code_CSD SUGXAU
_database_code_depnum_ccdc_archive 'CCDC 724916'
_chemical_formula_sum 'C21 H30 O5'
_chemical_formula_moiety
;
C21 H30 O5
;
_journal_coden_Cambridge 1220
_journal_volume 15
_journal_year 2009
_journal_page_first 13047
_journal_name_full 'Chem.-Eur.J. '
loop_
_publ_author_name
"D.Intelmann"
"G.Kummerlowe"
"G.Haseleu"
"N.Desmer"
"K.Schulze"
"R.Frohlich"
"O.Frank"
"B.Luy"
"T.Hofmann"
_chemical_name_systematic
;
trans-Isoadhumulone
;
_chemical_name_common
;
(4S,5S)-4-Hydroxy-2-(1-hydroxy-2-methylbutylidene)-5-(3-methylbut-2-en-1-yl)-4
-(4-methylpent-3-enoyl)cyclopentane-1,3-dione; Teaching Subset: Fundamental 
Chemistry
;
_cell_volume   2064.604
_exptl_crystal_colour 'colorless'
_exptl_crystal_density_diffrn 1.166
_exptl_special_details
;
Absolute configuration

;
_exptl_crystal_description 'needle'
_diffrn_ambient_temperature 223
_refine_special_details
;
The isobutyl group is disordered over two sites with occupancies 0.674:0.326.

;
#These two values have been output from a single CSD field.
_refine_ls_R_factor_gt 0.0851
_refine_ls_wR_factor_gt 0.0851
_symmetry_cell_setting orthorhombic
_symmetry_space_group_name_H-M 'P 21 21 21'
_symmetry_Int_Tables_number 19
loop_
_symmetry_equiv_pos_site_id
_symmetry_equiv_pos_as_xyz
1 x,y,z
2 1/2-x,-y,1/2+z
3 1/2+x,1/2-y,-z
4 -x,1/2+y,1/2-z
_cell_length_a 7.1820(7)
_cell_length_b 16.6730(15)
_cell_length_c 17.2416(18)
_cell_angle_alpha 90
_cell_angle_beta 90
_cell_angle_gamma 90
_cell_formula_units_Z 4
loop_
_atom_type_symbol
_atom_type_radius_bond
C 0.68
H 0.23
O 0.68
loop_
_atom_site_label
_atom_site_type_symbol
_atom_site_fract_x
_atom_site_fract_y
_atom_site_fract_z
O1 O 1.2908(6) 0.8177(3) 0.6130(3)
C1 C 1.1496(9) 0.8367(4) 0.5791(4)
C2 C 0.9568(9) 0.8284(5) 0.5986(5)
O2 O 0.6741(6) 0.8453(3) 0.5298(3)
C3 C 0.8472(9) 0.8450(4) 0.5321(4)
C4 C 0.9705(9) 0.8615(5) 0.4624(4)
H1 H 0.98320 0.81020 0.43410
O3 O 1.3068(6) 0.8484(3) 0.4527(3)
H2 H 1.39940 0.83990 0.48030
C5 C 1.1598(8) 0.8791(5) 0.4991(4)
O4 O 0.6941(6) 0.8071(4) 0.6752(3)
H3 H 0.64680 0.81300 0.63160
C6 C 0.8782(10) 0.8100(6) 0.6692(5)
C7 C 0.979(3) 0.8037(9) 0.7451(7)
H4 H 1.11270 0.81220 0.73460
C8 C 0.958(3) 0.7223(9) 0.7794(11)
H5 H 1.01670 0.72110 0.83080
H6 H 0.82600 0.70950 0.78560
C9 C 1.048(3) 0.6620(11) 0.7283(11)
H7 H 0.97830 0.65770 0.68030
H8 H 1.04920 0.61030 0.75420
H9 H 1.17460 0.67840 0.71710
C10 C 0.923(3) 0.8613(10) 0.8079(10)
H10 H 0.79410 0.85170 0.82230
H11 H 0.93580 0.91590 0.78920
H12 H 1.00210 0.85360 0.85280
C11 C 0.8854(10) 0.9226(6) 0.4046(5)
H13 H 0.75940 0.90500 0.39080
H14 H 0.87470 0.97480 0.43030
C12 C 0.9965(13) 0.9327(7) 0.3315(6)
H15 H 1.02190 0.88510 0.30440
C13 C 1.0626(15) 0.9973(9) 0.3006(6)
C14 C 1.165(2) 0.9972(8) 0.2231(6)
H16 H 1.29760 1.00320 0.23220
H17 H 1.12080 1.04140 0.19150
H18 H 1.14200 0.94700 0.19650
C15 C 1.0505(19) 1.0804(7) 0.3357(8)
H19 H 1.00540 1.11790 0.29700
H20 H 1.17300 1.09700 0.35320
H21 H 0.96550 1.07960 0.37940
O5 O 1.0593(7) 1.0034(4) 0.5500(4)
C16 C 1.1830(11) 0.9691(5) 0.5166(4)
C17 C 1.361(1) 1.0082(5) 0.4929(5)
H22 H 1.37510 1.00360 0.43660
H23 H 1.46520 0.97970 0.51720
C18 C 1.3690(13) 1.0946(5) 0.5154(5)
H24 H 1.26230 1.12540 0.50500
C19 C 1.5054(13) 1.1313(6) 0.5472(7)
C20 C 1.5023(16) 1.2186(7) 0.5716(8)
H25 H 1.39620 1.24510 0.54810
H26 H 1.61610 1.24460 0.55480
H27 H 1.49240 1.22190 0.62760
C21 C 1.6809(18) 1.0886(8) 0.5781(9)
H28 H 1.68350 1.09210 0.63430
H29 H 1.79110 1.11420 0.55700
H30 H 1.67850 1.03270 0.56260
C22? C 0.992(5) 0.793(2) 0.7396(15)
H31? H 1.00690 0.84300 0.76960
H32? H 1.11630 0.77510 0.72400
C23? C 0.902(4) 0.7310(17) 0.7890(16)
H33? H 0.76460 0.73580 0.78970
C24? C 0.966(7) 0.6518(17) 0.758(2)
H34? H 1.02950 0.65990 0.70870
H35? H 0.85990 0.61690 0.75020
H36? H 1.05170 0.62720 0.79450
C25? C 0.986(5) 0.740(2) 0.8678(14)
H37? H 1.11610 0.75390 0.86290
H38? H 0.97520 0.68910 0.89550
H39? H 0.92060 0.78110 0.89620
#END
