
#######################################################################
#
#                 Cambridge Crystallographic Data Centre
#                                CCDC
#
#######################################################################
#
# If this CIF has been generated from an entry in the Cambridge
# Structural Database, then it will include bibliographic, chemical,
# crystal, experimental, refinement or atomic coordinate data resulting
# from the CCDC's data processing and validation procedures.
#
#######################################################################

data_CSD_CIF_SUKFEJ01
_audit_creation_date 1996-12-03
_audit_creation_method CSD-ConQuest-V1
_database_code_CSD SUKFEJ01
_database_code_depnum_ccdc_archive 'CCDC 1264096'
_chemical_formula_sum 'C12 H30 Br3 Cr1 N6'
_chemical_formula_moiety
;
C12 H30 Cr1 N6 3+,3(Br1 1-)
;
_journal_coden_Cambridge 9
_journal_volume 33
_journal_year 1994
_journal_page_first 5610
_journal_name_full 'Inorg.Chem. '
loop_
_publ_author_name
"S.Chandrasekhar"
"D.G.Fortier"
"A.McAuley"
_chemical_name_systematic
;
(1,4,7,10,13,16-Hexa-azacyclo-octadecane)-chromium(iii) tribromide
;
_chemical_name_common
;
Teaching Subset: Fundamental Chemistry
;
_cell_volume    461.594
_exptl_crystal_colour 'yellow-orange'
_diffrn_ambient_temperature ?
_diffrn_special_details
;
The study was carried out at room temperature,in the range 283-303K

;
#These two values have been output from a single CSD field.
_refine_ls_R_factor_gt 0.067
_refine_ls_wR_factor_gt 0.067
loop_
_citation_database_id_CSD
_citation_special_details
SUKFEJ "is reinterpreted by this entry"
_symmetry_cell_setting rhombohedral
_symmetry_space_group_name_H-M 'R -3 m'
_symmetry_Int_Tables_number 166
loop_
_symmetry_equiv_pos_site_id
_symmetry_equiv_pos_as_xyz
1 x,y,z
2 z,x,y
3 -y,-x,-z
4 y,z,x
5 -z,-y,-x
6 -x,-z,-y
7 -x,-y,-z
8 -z,-x,-y
9 y,x,z
10 -y,-z,-x
11 z,y,x
12 x,z,y
_cell_length_a 8.038(3)
_cell_length_b 8.038(3)
_cell_length_c 8.038(3)
_cell_angle_alpha 72.83(3)
_cell_angle_beta 72.83(3)
_cell_angle_gamma 72.83(3)
_cell_formula_units_Z 1
loop_
_atom_type_symbol
_atom_type_radius_bond
C 0.68
Br 1.21
Cr 1.35
N 0.68
loop_
_atom_site_label
_atom_site_type_symbol
_atom_site_fract_x
_atom_site_fract_y
_atom_site_fract_z
Cr1 Cr 0.00000 0.00000 0.00000
N1 N 0.1691(5) -0.1619(8) 0.1691(5)
C1 C 0.3242(9) -0.2711(11) 0.0686(9)
Br1 Br 0.22055(8) 0.22055(8) 0.22055(8)
Br2 Br 0.50000 0.50000 0.50000
C1B C 0.2711(9) -0.3242(11) -0.0686(9)
N1B N 0.1619(5) -0.1691(8) -0.1691(5)
N1A N 0.1691(5) 0.1691(8) -0.1619(5)
C1A C 0.0686(9) 0.3242(11) -0.2711(9)
C1D C -0.0686(9) 0.2711(11) -0.3242(9)
N1D N -0.1691(5) 0.1619(8) -0.1691(5)
C1F C -0.3242(9) 0.2711(11) -0.0686(9)
C1H C -0.2711(9) 0.3242(11) 0.0686(9)
N1H N -0.1619(5) 0.1691(8) 0.1691(5)
N1E N -0.1691(5) -0.1691(8) 0.1619(5)
C1E C -0.3242(9) -0.0686(11) 0.2711(9)
C1C C -0.2711(9) 0.0686(11) 0.3242(9)
C1G C -0.0686(9) -0.3242(11) 0.2711(9)
C1J C 0.0686(9) -0.2711(11) 0.3242(9)
C1K C 0.3242(9) 0.0686(11) -0.2711(9)
C1I C 0.2711(9) -0.0686(11) -0.3242(9)
#END
