####################################################################### 
# 
# This file contains crystal structure data downloaded from the 
# Cambridge Structural Database (CSD) hosted by the Cambridge 
# Crystallographic Data Centre (CCDC).
# 
# Full information about CCDC data access policies and citation 
# guidelines are available at http://www.ccdc.cam.ac.uk/access/V1 
# 
# Audit and citation data items may have been added by the CCDC. 
# Please retain this information to preserve the provenance of 
# this file and to allow appropriate attribution of the data. 
# 
#######################################################################

data_i7206
_audit_block_doi                 10.5517/ccsqn15
_database_code_depnum_ccdc_archive 'CCDC 736747'
loop_
_citation_id
_citation_doi
_citation_year
1 10.1002/anie.200904501 2009
_audit_update_record             
;
2009-06-19 deposited with the CCDC.	2024-07-13 downloaded from the CCDC.
;

_audit_creation_method           SHELXL-97
_chemical_name_systematic        
;
?
;
_chemical_name_common            ?
_chemical_melting_point          ?
_chemical_formula_moiety         'C78 H67 Cd3 N18 Na O16'
_chemical_formula_sum            'C78 H67 Cd3 N18 Na O16'
_chemical_formula_weight         1872.69

loop_
_atom_type_symbol
_atom_type_description
_atom_type_scat_dispersion_real
_atom_type_scat_dispersion_imag
_atom_type_scat_source
Cd Cd -0.8075 1.2024 'International Tables Vol C Tables 4.2.6.8 and 6.1.1.4'
Na Na 0.0362 0.0249 'International Tables Vol C Tables 4.2.6.8 and 6.1.1.4'
C C 0.0033 0.0016 'International Tables Vol C Tables 4.2.6.8 and 6.1.1.4'
H H 0.0000 0.0000 'International Tables Vol C Tables 4.2.6.8 and 6.1.1.4'
O O 0.0106 0.0060 'International Tables Vol C Tables 4.2.6.8 and 6.1.1.4'
N N 0.0061 0.0033 'International Tables Vol C Tables 4.2.6.8 and 6.1.1.4'

_symmetry_cell_setting           Trigonal
_symmetry_space_group_name_H-M   'P-31c '

loop_
_symmetry_equiv_pos_as_xyz
'x, y, z'
'-y, x-y, z'
'-y, -x, -z+1/2'
'-x+y, -x, z'
'x, x-y, -z+1/2'
'-x+y, y, -z+1/2'
'-x, -y, -z'
'y, -x+y, -z'
'y, x, z-1/2'
'x-y, x, -z'
'-x, -x+y, z-1/2'
'x-y, -y, z-1/2'

_cell_length_a                   20.1432(18)
_cell_length_b                   20.1432(18)
_cell_length_c                   21.962(4)
_cell_angle_alpha                90.00
_cell_angle_beta                 90.00
_cell_angle_gamma                120.00
_cell_volume                     7717.2(18)
_cell_formula_units_Z            2
_cell_measurement_temperature    293(2)
_cell_measurement_reflns_used    5460
_cell_measurement_theta_min      2.51
_cell_measurement_theta_max      18.88

_exptl_crystal_description       hexagonal
_exptl_crystal_colour            orange
_exptl_crystal_size_max          0.26
_exptl_crystal_size_mid          0.22
_exptl_crystal_size_min          0.18
_exptl_crystal_density_meas      ?
_exptl_crystal_density_diffrn    0.806
_exptl_crystal_density_method    'not measured'
_exptl_crystal_F_000             1888
_exptl_absorpt_coefficient_mu    0.453
_exptl_absorpt_correction_type   Multi-Scan
_exptl_absorpt_correction_T_min  0.8914
_exptl_absorpt_correction_T_max  0.9230
_exptl_absorpt_process_details   SADABS

_exptl_special_details           
;
?
;

_diffrn_ambient_temperature      293(2)
_diffrn_radiation_wavelength     0.71073
_diffrn_radiation_type           MoK\a
_diffrn_radiation_source         'fine-focus sealed tube'
_diffrn_radiation_monochromator  graphite
_diffrn_measurement_device_type  'CCD area detector'
_diffrn_measurement_method       'phi and omega scan'
_diffrn_detector_area_resol_mean ?
_diffrn_standards_number         ?
_diffrn_standards_interval_count ?
_diffrn_standards_interval_time  ?
_diffrn_standards_decay_%        ?
_diffrn_reflns_number            4353
_diffrn_reflns_av_R_equivalents  0.0000
_diffrn_reflns_av_sigmaI/netI    0.1718
_diffrn_reflns_limit_h_min       -10
_diffrn_reflns_limit_h_max       10
_diffrn_reflns_limit_k_min       0
_diffrn_reflns_limit_k_max       21
_diffrn_reflns_limit_l_min       0
_diffrn_reflns_limit_l_max       26
_diffrn_reflns_theta_min         1.17
_diffrn_reflns_theta_max         25.02
_reflns_number_total             4353
_reflns_number_gt                1846
_reflns_threshold_expression     >2\s(I)

_computing_data_collection       'Bruker SMART'
_computing_cell_refinement       'Bruker SMART'
_computing_data_reduction        'Bruker SAINT'
_computing_structure_solution    'Bruker SHELXTL'
_computing_structure_refinement  'SHELXL-97 (Sheldrick, 2008)'
_computing_molecular_graphics    'Bruker SHELXTL'
_computing_publication_material  'Bruker SHELXTL'

_refine_special_details          
;
Refinement of F^2^ against ALL reflections. The weighted R-factor wR and
goodness of fit S are based on F^2^, conventional R-factors R are based
on F, with F set to zero for negative F^2^. The threshold expression of
F^2^ > 2\s(F^2^) is used only for calculating R-factors(gt) etc. and is
not relevant to the choice of reflections for refinement. R-factors based
on F^2^ are statistically about twice as large as those based on F, and R-
factors based on ALL data will be even larger.
;

_refine_ls_structure_factor_coef Fsqd
_refine_ls_matrix_type           full
_refine_ls_weighting_scheme      calc
_refine_ls_weighting_details     
'calc w=1/[\s^2^(Fo^2^)+(0.1160P)^2^+0.0000P] where P=(Fo^2^+2Fc^2^)/3'
_atom_sites_solution_primary     direct
_atom_sites_solution_secondary   difmap
_atom_sites_solution_hydrogens   geom
_refine_ls_hydrogen_treatment    mixed
_refine_ls_extinction_method     SHELXL
_refine_ls_extinction_coef       0.0103(9)
_refine_ls_extinction_expression Fc^*^=kFc[1+0.001xFc^2^\l^3^/sin(2\q)]^-1/4^
_refine_ls_number_reflns         4353
_refine_ls_number_parameters     185
_refine_ls_number_restraints     7
_refine_ls_R_factor_all          0.0979
_refine_ls_R_factor_gt           0.0833
_refine_ls_wR_factor_ref         0.2206
_refine_ls_wR_factor_gt          0.2147
_refine_ls_goodness_of_fit_ref   0.971
_refine_ls_restrained_S_all      0.971
_refine_ls_shift/su_max          0.000
_refine_ls_shift/su_mean         0.000

loop_
_atom_site_label
_atom_site_type_symbol
_atom_site_fract_x
_atom_site_fract_y
_atom_site_fract_z
_atom_site_U_iso_or_equiv
_atom_site_adp_type
_atom_site_occupancy
_atom_site_symmetry_multiplicity
_atom_site_calc_flag
_atom_site_refinement_flags
_atom_site_disorder_assembly
_atom_site_disorder_group
Cd1 Cd 0.77560(2) 0.22440(2) 0.7500 0.0527(4) Uani 1 2 d S . .
Na1 Na 0.6667 0.3333 0.7500 0.0466(17) Uani 1 6 d S . .
C1 C 0.8175(5) 0.3293(4) 0.6582(3) 0.049(2) Uani 1 1 d . . .
C2 C 0.8265(4) 0.3731(4) 0.6011(3) 0.050(2) Uani 1 1 d . . .
C3 C 0.8753(4) 0.3775(4) 0.5572(3) 0.055(2) Uani 1 1 d . . .
H3 H 0.9049 0.3547 0.5639 0.066 Uiso 1 1 calc R . .
C4 C 0.8829(4) 0.4148(5) 0.5024(4) 0.064(2) Uani 1 1 d . . .
C5 C 0.8376(6) 0.4527(6) 0.4915(5) 0.107(4) Uani 1 1 d D . .
C6 C 0.7847(6) 0.4478(6) 0.5381(4) 0.113(4) Uani 1 1 d . . .
H6 H 0.7537 0.4693 0.5327 0.135 Uiso 1 1 calc R . .
C7 C 0.7824(5) 0.4090(5) 0.5917(3) 0.077(3) Uani 1 1 d . . .
H7 H 0.7501 0.4068 0.6229 0.093 Uiso 1 1 calc R . .
C8 C 0.9758(7) 0.4019(7) 0.4583(4) 0.126(5) Uani 1 1 d . . .
H8 H 0.9777 0.3799 0.4950 0.151 Uiso 1 1 calc R . .
C9 C 1.0291(5) 0.4064(5) 0.4090(4) 0.086(3) Uani 1 1 d . . .
C10 C 1.0346(5) 0.4487(4) 0.3554(3) 0.062(2) Uani 1 1 d . . .
H10 H 1.0032 0.4698 0.3499 0.074 Uiso 1 1 calc R . .
C11 C 1.0851(4) 0.4570(4) 0.3139(3) 0.052(2) Uani 1 1 d . . .
H11 H 1.0899 0.4858 0.2794 0.063 Uiso 1 1 calc R . .
C12 C 1.1268(6) 0.3846(5) 0.3686(4) 0.101(4) Uani 1 1 d . . .
H12 H 1.1583 0.3634 0.3730 0.121 Uiso 1 1 calc R . .
C13 C 1.0743(7) 0.3750(6) 0.4126(4) 0.132(5) Uani 1 1 d . . .
H13 H 1.0698 0.3454 0.4466 0.158 Uiso 1 1 calc R . .
O1 O 0.7655(3) 0.3228(3) 0.6961(2) 0.0538(14) Uani 1 1 d . . .
O2 O 0.8599(3) 0.3030(3) 0.6672(2) 0.0642(16) Uani 1 1 d . . .
O3 O 0.8460(2) 0.1540(2) 0.7500 0.112(3) Uani 1 2 d SD . .
N1 N 0.9294(4) 0.4250(4) 0.4544(3) 0.075(2) Uani 1 1 d . . .
N2 N 1.1312(4) 0.4253(4) 0.3192(2) 0.068(2) Uani 1 1 d . . .
N3 N 0.8460(7) 0.4907(7) 0.4380(4) 0.168(5) Uani 1 1 d D . .
H3A H 0.880(7) 0.163(7) 0.774(5) 0.252 Uiso 1 1 d D . .
H5A H 0.854(9) 0.475(5) 0.4047(14) 0.252 Uiso 1 1 d D . .
H5B H 0.867(8) 0.5386(15) 0.4341(19) 0.252 Uiso 1 1 d D . .

loop_
_atom_site_aniso_label
_atom_site_aniso_U_11
_atom_site_aniso_U_22
_atom_site_aniso_U_33
_atom_site_aniso_U_23
_atom_site_aniso_U_13
_atom_site_aniso_U_12
Cd1 0.0610(5) 0.0610(5) 0.0283(5) -0.0097(3) -0.0097(3) 0.0246(5)
Na1 0.060(3) 0.060(3) 0.020(3) 0.000 0.000 0.0300(14)
C1 0.048(5) 0.053(5) 0.023(4) -0.006(4) 0.004(4) 0.007(4)
C2 0.050(5) 0.056(5) 0.044(5) -0.001(4) 0.006(4) 0.027(4)
C3 0.048(5) 0.074(6) 0.040(5) 0.000(4) 0.010(4) 0.029(4)
C4 0.068(6) 0.076(6) 0.059(6) 0.020(5) 0.032(5) 0.045(5)
C5 0.127(9) 0.130(9) 0.087(8) 0.047(7) 0.050(7) 0.082(8)
C6 0.142(9) 0.165(10) 0.096(8) 0.079(7) 0.090(7) 0.125(9)
C7 0.101(7) 0.088(7) 0.031(5) 0.015(5) 0.029(5) 0.038(6)
C8 0.180(12) 0.166(11) 0.071(7) 0.066(7) 0.094(8) 0.115(11)
C9 0.099(8) 0.105(7) 0.068(6) 0.041(6) 0.051(6) 0.061(7)
C10 0.085(6) 0.069(6) 0.046(5) 0.011(4) 0.016(5) 0.049(5)
C11 0.064(6) 0.076(6) 0.035(4) 0.007(4) 0.012(4) 0.049(5)
C12 0.142(9) 0.117(8) 0.086(7) 0.055(6) 0.068(7) 0.097(8)
C13 0.222(13) 0.179(11) 0.093(8) 0.096(8) 0.101(8) 0.174(11)
O1 0.052(3) 0.071(4) 0.030(3) 0.000(2) 0.002(2) 0.025(3)
O2 0.054(4) 0.101(5) 0.045(3) -0.001(3) 0.002(3) 0.044(4)
O3 0.142(8) 0.142(8) 0.093(8) -0.046(6) -0.046(6) 0.102(8)
N1 0.090(6) 0.115(6) 0.051(4) 0.017(4) 0.037(4) 0.073(5)
N2 0.091(5) 0.084(5) 0.029(4) 0.023(4) 0.028(3) 0.045(5)
N3 0.207(12) 0.277(13) 0.098(7) 0.142(9) 0.105(8) 0.179(12)

_geom_special_details            
;
All s.u.'s (except the s.u. in the dihedral angle between two l.s. planes)
are estimated using the full covariance matrix. The cell s.u.'s are taken
into account individually in the estimation of s.u.'s in distances, angles
and torsion angles; correlations between s.u.'s in cell parameters are only
used when they are defined by crystal symmetry. An approximate (isotropic)
treatment of cell s.u.'s is used for estimating s.u.'s involving l.s. planes.
;

loop_
_geom_bond_atom_site_label_1
_geom_bond_atom_site_label_2
_geom_bond_distance
_geom_bond_site_symmetry_2
_geom_bond_publ_flag
Cd1 N2 2.273(6) 10_546 ?
Cd1 N2 2.273(6) 11_766 ?
Cd1 O1 2.402(5) . ?
Cd1 O1 2.402(5) 3_666 ?
Cd1 O2 2.451(5) . ?
Cd1 O2 2.451(5) 3_666 ?
Cd1 O3 2.457(8) . ?
Cd1 C1 2.731(7) . ?
Cd1 C1 2.731(7) 3_666 ?
Cd1 Na1 3.8005(9) . ?
Na1 O1 2.415(5) 3_666 ?
Na1 O1 2.415(5) . ?
Na1 O1 2.415(5) 4_665 ?
Na1 O1 2.415(5) 5_556 ?
Na1 O1 2.415(5) 2_655 ?
Na1 O1 2.415(5) 6_656 ?
Na1 Cd1 3.8005(9) 2_655 ?
Na1 Cd1 3.8005(9) 4_665 ?
C1 O2 1.226(8) . ?
C1 O1 1.292(8) . ?
C1 C2 1.491(10) . ?
C2 C3 1.347(9) . ?
C2 C7 1.414(10) . ?
C3 C4 1.386(10) . ?
C4 N1 1.355(9) . ?
C4 C5 1.473(12) . ?
C5 N3 1.366(11) . ?
C5 C6 1.445(11) . ?
C6 C7 1.401(11) . ?
C8 N1 1.238(11) . ?
C8 C9 1.494(11) . ?
C9 C13 1.346(11) . ?
C9 C10 1.425(10) . ?
C10 C11 1.312(9) . ?
C11 N2 1.369(8) . ?
C12 N2 1.336(9) . ?
C12 C13 1.374(11) . ?
N2 Cd1 2.273(6) 8_666 ?

loop_
_geom_angle_atom_site_label_1
_geom_angle_atom_site_label_2
_geom_angle_atom_site_label_3
_geom_angle
_geom_angle_site_symmetry_1
_geom_angle_site_symmetry_3
_geom_angle_publ_flag
N2 Cd1 N2 159.2(3) 10_546 11_766 ?
N2 Cd1 O1 94.6(2) 10_546 . ?
N2 Cd1 O1 101.8(2) 11_766 . ?
N2 Cd1 O1 101.8(2) 10_546 3_666 ?
N2 Cd1 O1 94.6(2) 11_766 3_666 ?
O1 Cd1 O1 76.1(2) . 3_666 ?
N2 Cd1 O2 88.8(2) 10_546 . ?
N2 Cd1 O2 90.3(2) 11_766 . ?
O1 Cd1 O2 54.47(16) . . ?
O1 Cd1 O2 130.18(18) 3_666 . ?
N2 Cd1 O2 90.3(2) 10_546 3_666 ?
N2 Cd1 O2 88.8(2) 11_766 3_666 ?
O1 Cd1 O2 130.18(18) . 3_666 ?
O1 Cd1 O2 54.47(16) 3_666 3_666 ?
O2 Cd1 O2 175.3(3) . 3_666 ?
N2 Cd1 O3 79.61(17) 10_546 . ?
N2 Cd1 O3 79.61(17) 11_766 . ?
O1 Cd1 O3 141.97(11) . . ?
O1 Cd1 O3 141.97(11) 3_666 . ?
O2 Cd1 O3 87.67(13) . . ?
O2 Cd1 O3 87.67(13) 3_666 . ?
N2 Cd1 C1 88.3(2) 10_546 . ?
N2 Cd1 C1 100.1(2) 11_766 . ?
O1 Cd1 C1 28.24(19) . . ?
O1 Cd1 C1 104.3(2) 3_666 . ?
O2 Cd1 C1 26.67(18) . . ?
O2 Cd1 C1 157.9(3) 3_666 . ?
O3 Cd1 C1 113.73(19) . . ?
N2 Cd1 C1 100.1(2) 10_546 3_666 ?
N2 Cd1 C1 88.3(2) 11_766 3_666 ?
O1 Cd1 C1 104.3(2) . 3_666 ?
O1 Cd1 C1 28.24(19) 3_666 3_666 ?
O2 Cd1 C1 157.9(3) . 3_666 ?
O2 Cd1 C1 26.67(18) 3_666 3_666 ?
O3 Cd1 C1 113.73(19) . 3_666 ?
C1 Cd1 C1 132.5(4) . 3_666 ?
N2 Cd1 Na1 100.39(17) 10_546 . ?
N2 Cd1 Na1 100.39(17) 11_766 . ?
O1 Cd1 Na1 38.03(11) . . ?
O1 Cd1 Na1 38.03(11) 3_666 . ?
O2 Cd1 Na1 92.33(13) . . ?
O2 Cd1 Na1 92.33(13) 3_666 . ?
O3 Cd1 Na1 180.000(17) . . ?
C1 Cd1 Na1 66.27(19) . . ?
C1 Cd1 Na1 66.27(19) 3_666 . ?
O1 Na1 O1 75.6(2) 3_666 . ?
O1 Na1 O1 88.9(2) 3_666 4_665 ?
O1 Na1 O1 98.05(13) . 4_665 ?
O1 Na1 O1 98.05(13) 3_666 5_556 ?
O1 Na1 O1 88.9(2) . 5_556 ?
O1 Na1 O1 171.2(2) 4_665 5_556 ?
O1 Na1 O1 171.2(2) 3_666 2_655 ?
O1 Na1 O1 98.05(13) . 2_655 ?
O1 Na1 O1 98.05(13) 4_665 2_655 ?
O1 Na1 O1 75.6(2) 5_556 2_655 ?
O1 Na1 O1 98.05(13) 3_666 6_656 ?
O1 Na1 O1 171.2(2) . 6_656 ?
O1 Na1 O1 75.6(2) 4_665 6_656 ?
O1 Na1 O1 98.05(13) 5_556 6_656 ?
O1 Na1 O1 88.9(2) 2_655 6_656 ?
O1 Na1 Cd1 37.79(11) 3_666 . ?
O1 Na1 Cd1 37.79(11) . . ?
O1 Na1 Cd1 94.38(11) 4_665 . ?
O1 Na1 Cd1 94.38(11) 5_556 . ?
O1 Na1 Cd1 135.55(11) 2_655 . ?
O1 Na1 Cd1 135.55(11) 6_656 . ?
O1 Na1 Cd1 135.55(11) 3_666 2_655 ?
O1 Na1 Cd1 94.38(11) . 2_655 ?
O1 Na1 Cd1 135.55(11) 4_665 2_655 ?
O1 Na1 Cd1 37.79(11) 5_556 2_655 ?
O1 Na1 Cd1 37.79(11) 2_655 2_655 ?
O1 Na1 Cd1 94.38(11) 6_656 2_655 ?
Cd1 Na1 Cd1 120.0 . 2_655 ?
O1 Na1 Cd1 94.38(11) 3_666 4_665 ?
O1 Na1 Cd1 135.55(11) . 4_665 ?
O1 Na1 Cd1 37.79(11) 4_665 4_665 ?
O1 Na1 Cd1 135.55(11) 5_556 4_665 ?
O1 Na1 Cd1 94.38(11) 2_655 4_665 ?
O1 Na1 Cd1 37.79(11) 6_656 4_665 ?
Cd1 Na1 Cd1 120.0 . 4_665 ?
Cd1 Na1 Cd1 120.0 2_655 4_665 ?
O2 C1 O1 123.8(7) . . ?
O2 C1 C2 119.1(7) . . ?
O1 C1 C2 117.1(8) . . ?
O2 C1 Cd1 63.8(4) . . ?
O1 C1 Cd1 61.6(4) . . ?
C2 C1 Cd1 167.9(5) . . ?
C3 C2 C7 119.1(7) . . ?
C3 C2 C1 120.7(8) . . ?
C7 C2 C1 120.2(7) . . ?
C2 C3 C4 122.5(7) . . ?
N1 C4 C3 129.7(8) . . ?
N1 C4 C5 110.8(7) . . ?
C3 C4 C5 119.5(7) . . ?
N3 C5 C6 121.9(9) . . ?
N3 C5 C4 119.7(8) . . ?
C6 C5 C4 118.4(8) . . ?
C7 C6 C5 116.9(8) . . ?
C6 C7 C2 123.6(8) . . ?
N1 C8 C9 125.6(9) . . ?
C13 C9 C10 117.4(8) . . ?
C13 C9 C8 124.3(9) . . ?
C10 C9 C8 118.3(9) . . ?
C11 C10 C9 118.3(7) . . ?
C10 C11 N2 123.0(7) . . ?
N2 C12 C13 118.0(8) . . ?
C9 C13 C12 123.1(8) . . ?
C1 O1 Cd1 90.2(4) . . ?
C1 O1 Na1 165.6(5) . . ?
Cd1 O1 Na1 104.18(17) . . ?
C1 O2 Cd1 89.5(4) . . ?
C8 N1 C4 119.0(8) . . ?
C12 N2 C11 120.1(7) . . ?
C12 N2 Cd1 117.7(6) . 8_666 ?
C11 N2 Cd1 121.9(5) . 8_666 ?

_diffrn_measured_fraction_theta_max 0.955
_diffrn_reflns_theta_full        25.02
_diffrn_measured_fraction_theta_full 0.955
_refine_diff_density_max         1.324
_refine_diff_density_min         -0.751
_refine_diff_density_rms         0.314

# SQUEEZE RESULTS (APPEND TO CIF)
# Note: Data are Listed for all Voids in the P1 Unit Cell
# i.e. Centre of Gravity, Solvent Accessible Volume,
# Recovered number of Electrons in the Void and
# Details about the Squeezed Material
loop_
_platon_squeeze_void_nr
_platon_squeeze_void_average_x
_platon_squeeze_void_average_y
_platon_squeeze_void_average_z
_platon_squeeze_void_volume
_platon_squeeze_void_count_electrons
_platon_squeeze_void_content
1 -0.007 -0.005 -0.003 4504 2517 ' '
_platon_squeeze_details          
;
;
