####################################################################### 
# 
# This file contains crystal structure data downloaded from the 
# Cambridge Structural Database (CSD) hosted by the Cambridge 
# Crystallographic Data Centre (CCDC).
# 
# Full information about CCDC data access policies and citation 
# guidelines are available at http://www.ccdc.cam.ac.uk/access/V1 
# 
# Audit and citation data items may have been added by the CCDC. 
# Please retain this information to preserve the provenance of 
# this file and to allow appropriate attribution of the data. 
# 
#######################################################################

data_i6881
_audit_block_doi                 10.5517/ccsqn04
_database_code_depnum_ccdc_archive 'CCDC 736746'
loop_
_citation_id
_citation_doi
_citation_year
1 10.1002/anie.200904501 2009
_audit_update_record             
;
2009-06-19 deposited with the CCDC.	2024-07-13 downloaded from the CCDC.
;

_audit_creation_method           SHELXL-97
_chemical_name_systematic        
;
?
;
_chemical_name_common            ?
_chemical_melting_point          ?
_chemical_formula_moiety         'C78 H67 Cd3 K N18 O16'
_chemical_formula_sum            'C78 H67 Cd3 K N18 O16'
_chemical_formula_weight         1888.80

loop_
_atom_type_symbol
_atom_type_description
_atom_type_scat_dispersion_real
_atom_type_scat_dispersion_imag
_atom_type_scat_source
C C 0.0033 0.0016 'International Tables Vol C Tables 4.2.6.8 and 6.1.1.4'
H H 0.0000 0.0000 'International Tables Vol C Tables 4.2.6.8 and 6.1.1.4'
N N 0.0061 0.0033 'International Tables Vol C Tables 4.2.6.8 and 6.1.1.4'
O O 0.0106 0.0060 'International Tables Vol C Tables 4.2.6.8 and 6.1.1.4'
K K 0.2009 0.2494 'International Tables Vol C Tables 4.2.6.8 and 6.1.1.4'
Cd Cd -0.8075 1.2024 'International Tables Vol C Tables 4.2.6.8 and 6.1.1.4'

_symmetry_cell_setting           Trigonal
_symmetry_space_group_name_H-M   'P-31c '

loop_
_symmetry_equiv_pos_as_xyz
'x, y, z'
'-y, x-y, z'
'-x+y, -x, z'
'-y, -x, -z+1/2'
'x, x-y, -z+1/2'
'-x+y, y, -z+1/2'
'-x, -y, -z'
'y, -x+y, -z'
'x-y, x, -z'
'y, x, z-1/2'
'-x, -x+y, z-1/2'
'x-y, -y, z-1/2'

_cell_length_a                   21.3676(4)
_cell_length_b                   21.3676(4)
_cell_length_c                   21.0560(10)
_cell_angle_alpha                90.00
_cell_angle_beta                 90.00
_cell_angle_gamma                120.00
_cell_volume                     8325.6(5)
_cell_formula_units_Z            2
_cell_measurement_temperature    293(2)
_cell_measurement_reflns_used    5672
_cell_measurement_theta_min      2.23
_cell_measurement_theta_max      22.61

_exptl_crystal_description       hexagonal
_exptl_crystal_colour            'deep orange'
_exptl_crystal_size_max          0.20
_exptl_crystal_size_mid          0.15
_exptl_crystal_size_min          0.15
_exptl_crystal_density_meas      ?
_exptl_crystal_density_diffrn    0.753
_exptl_crystal_density_method    'not measured'
_exptl_crystal_F_000             1904
_exptl_absorpt_coefficient_mu    0.442
_exptl_absorpt_correction_type   Multi-Scan
_exptl_absorpt_correction_T_min  0.9168
_exptl_absorpt_correction_T_max  0.9367
_exptl_absorpt_process_details   SADABS

_exptl_special_details           
;
?
;

_diffrn_ambient_temperature      293(2)
_diffrn_radiation_wavelength     0.71073
_diffrn_radiation_type           MoK\a
_diffrn_radiation_source         'fine-focus sealed tube'
_diffrn_radiation_monochromator  graphite
_diffrn_measurement_device_type  'CCD area detector'
_diffrn_measurement_method       'phi and omega scans'
_diffrn_detector_area_resol_mean ?
_diffrn_standards_number         ?
_diffrn_standards_interval_count ?
_diffrn_standards_interval_time  ?
_diffrn_standards_decay_%        ?
_diffrn_reflns_number            4926
_diffrn_reflns_av_R_equivalents  0.0000
_diffrn_reflns_av_sigmaI/netI    0.0266
_diffrn_reflns_limit_h_min       -12
_diffrn_reflns_limit_h_max       12
_diffrn_reflns_limit_k_min       0
_diffrn_reflns_limit_k_max       25
_diffrn_reflns_limit_l_min       0
_diffrn_reflns_limit_l_max       25
_diffrn_reflns_theta_min         1.10
_diffrn_reflns_theta_max         25.01
_reflns_number_total             4926
_reflns_number_gt                3667
_reflns_threshold_expression     >2\s(I)

_computing_data_collection       'Bruker SMART'
_computing_cell_refinement       'Bruker SMART'
_computing_data_reduction        'Bruker SAINT'
_computing_structure_solution    'Bruker SHELXTL'
_computing_structure_refinement  'SHELXL-97 (Sheldrick, 2008)'
_computing_molecular_graphics    'Bruker SHELXTL'
_computing_publication_material  'Bruker SHELXTL'

_refine_special_details          
;
Refinement of F^2^ against ALL reflections. The weighted R-factor wR and
goodness of fit S are based on F^2^, conventional R-factors R are based
on F, with F set to zero for negative F^2^. The threshold expression of
F^2^ > 2\s(F^2^) is used only for calculating R-factors(gt) etc. and is
not relevant to the choice of reflections for refinement. R-factors based
on F^2^ are statistically about twice as large as those based on F, and R-
factors based on ALL data will be even larger.
;

_refine_ls_structure_factor_coef Fsqd
_refine_ls_matrix_type           full
_refine_ls_weighting_scheme      calc
_refine_ls_weighting_details     
'calc w=1/[\s^2^(Fo^2^)+(0.0684P)^2^+0.0106P] where P=(Fo^2^+2Fc^2^)/3'
_atom_sites_solution_primary     direct
_atom_sites_solution_secondary   difmap
_atom_sites_solution_hydrogens   geom
_refine_ls_hydrogen_treatment    mixed
_refine_ls_extinction_method     SHELXL
_refine_ls_extinction_coef       0.00004(5)
_refine_ls_extinction_expression Fc^*^=kFc[1+0.001xFc^2^\l^3^/sin(2\q)]^-1/4^
_refine_ls_number_reflns         4926
_refine_ls_number_parameters     185
_refine_ls_number_restraints     5
_refine_ls_R_factor_all          0.0478
_refine_ls_R_factor_gt           0.0366
_refine_ls_wR_factor_ref         0.1112
_refine_ls_wR_factor_gt          0.1074
_refine_ls_goodness_of_fit_ref   1.101
_refine_ls_restrained_S_all      1.101
_refine_ls_shift/su_max          0.000
_refine_ls_shift/su_mean         0.000

loop_
_atom_site_label
_atom_site_type_symbol
_atom_site_fract_x
_atom_site_fract_y
_atom_site_fract_z
_atom_site_U_iso_or_equiv
_atom_site_adp_type
_atom_site_occupancy
_atom_site_symmetry_multiplicity
_atom_site_calc_flag
_atom_site_refinement_flags
_atom_site_disorder_assembly
_atom_site_disorder_group
C1 C 0.51150(14) 0.18847(12) 0.85125(11) 0.0442(6) Uani 1 1 d . . .
C2 C 0.54747(14) 0.17728(13) 0.90623(11) 0.0479(6) Uani 1 1 d . . .
C3 C 0.50581(15) 0.12647(14) 0.95249(11) 0.0528(7) Uani 1 1 d . . .
H3 H 0.4557 0.1018 0.9491 0.063 Uiso 1 1 calc R . .
C4 C 0.53799(16) 0.11207(16) 1.00364(15) 0.0712(9) Uani 1 1 d . . .
C5 C 0.61329(19) 0.1479(2) 1.00779(18) 0.1018(14) Uani 1 1 d . . .
C6 C 0.65441(18) 0.1994(2) 0.96115(16) 0.0974(13) Uani 1 1 d . . .
H6 H 0.7046 0.2237 0.9635 0.117 Uiso 1 1 calc R . .
C7 C 0.62148(15) 0.21394(15) 0.91253(13) 0.0634(8) Uani 1 1 d . . .
H7 H 0.6496 0.2494 0.8830 0.076 Uiso 1 1 calc R . .
C8 C 0.4328(2) 0.0241(3) 1.0487(2) 0.141(2) Uani 1 1 d . . .
H8 H 0.4097 0.0294 1.0134 0.169 Uiso 1 1 calc R . .
C12 C 0.37301(14) -0.09671(14) 1.19056(11) 0.0498(6) Uani 1 1 d . . .
H12 H 0.3936 -0.1073 1.2248 0.060 Uiso 1 1 calc R . .
C13 C 0.41822(15) -0.04427(15) 1.14927(13) 0.0593(7) Uani 1 1 d . . .
H13 H 0.4679 -0.0194 1.1557 0.071 Uiso 1 1 calc R . .
C9 C 0.38804(18) -0.0291(2) 1.09768(18) 0.0972(13) Uani 1 1 d . . .
C10 C 0.31438(19) -0.0654(2) 1.09236(19) 0.1256(18) Uani 1 1 d . . .
H10 H 0.2925 -0.0551 1.0590 0.151 Uiso 1 1 calc R . .
C11 C 0.27274(18) -0.1171(2) 1.13620(17) 0.1012(14) Uani 1 1 d . . .
H11 H 0.2228 -0.1413 1.1317 0.121 Uiso 1 1 calc R . .
N1 N 0.49969(14) 0.06211(14) 1.05222(11) 0.0700(7) Uani 1 1 d . . .
N2 N 0.30117(12) -0.13379(12) 1.18498(10) 0.0551(6) Uani 1 1 d . . .
N3 N 0.64519(19) 0.1357(3) 1.0578(2) 0.162(2) Uani 1 1 d D . .
O1 O 0.54992(9) 0.23367(8) 0.80901(8) 0.0453(4) Uani 1 1 d . . .
O2 O 0.44278(10) 0.15399(9) 0.84625(8) 0.0569(5) Uani 1 1 d . . .
O3 O 0.32241(16) 0.16120(8) 0.7500 0.0877(10) Uani 1 2 d SD . .
K1 K 0.6667 0.3333 0.7500 0.0347(3) Uani 1 6 d S . .
Cd1 Cd 0.452366(13) 0.226183(7) 0.7500 0.04580(13) Uani 1 2 d S . .
H3A H 0.2972(4) 0.1196(6) 0.7629(14) 0.069 Uiso 1 1 d D . .
H5A H 0.6315(14) 0.0943(6) 1.0725(13) 0.069 Uiso 1 1 d D . .
H5B H 0.6904(2) 0.1616(12) 1.0572(14) 0.069 Uiso 1 1 d D . .

loop_
_atom_site_aniso_label
_atom_site_aniso_U_11
_atom_site_aniso_U_22
_atom_site_aniso_U_33
_atom_site_aniso_U_23
_atom_site_aniso_U_13
_atom_site_aniso_U_12
C1 0.0567(17) 0.0338(13) 0.0378(13) -0.0012(11) 0.0108(12) 0.0193(13)
C2 0.0600(18) 0.0433(15) 0.0385(13) 0.0057(11) 0.0089(12) 0.0243(13)
C3 0.0565(16) 0.0440(15) 0.0466(15) 0.0062(12) 0.0113(12) 0.0168(13)
C4 0.0601(19) 0.071(2) 0.0626(19) 0.0345(16) 0.0143(15) 0.0182(17)
C5 0.071(2) 0.116(3) 0.085(2) 0.066(2) 0.0035(18) 0.022(2)
C6 0.0531(19) 0.122(3) 0.081(2) 0.059(2) 0.0092(17) 0.016(2)
C7 0.0530(18) 0.0666(19) 0.0496(16) 0.0275(14) 0.0109(13) 0.0142(15)
C8 0.074(3) 0.186(5) 0.119(3) 0.121(4) 0.015(2) 0.033(3)
C12 0.0536(17) 0.0543(16) 0.0406(13) 0.0127(12) 0.0067(12) 0.0262(14)
C13 0.0523(16) 0.0622(18) 0.0525(16) 0.0216(14) 0.0114(13) 0.0204(14)
C9 0.062(2) 0.114(3) 0.096(3) 0.072(2) 0.0182(19) 0.029(2)
C10 0.063(2) 0.171(4) 0.111(3) 0.105(3) 0.012(2) 0.035(3)
C11 0.0503(19) 0.142(3) 0.091(2) 0.075(2) 0.0117(17) 0.032(2)
N1 0.0621(17) 0.0727(17) 0.0574(15) 0.0300(13) 0.0135(12) 0.0203(14)
N2 0.0535(14) 0.0636(14) 0.0473(12) 0.0240(11) 0.0106(10) 0.0286(12)
N3 0.068(2) 0.203(4) 0.148(3) 0.140(3) 0.002(2) 0.019(3)
O1 0.0530(10) 0.0432(10) 0.0352(9) 0.0058(7) 0.0103(7) 0.0206(8)
O2 0.0556(12) 0.0500(11) 0.0454(10) 0.0053(8) 0.0029(8) 0.0117(9)
O3 0.0636(19) 0.0885(18) 0.103(3) -0.0310(19) 0.000 0.0318(10)
K1 0.0398(4) 0.0398(4) 0.0245(5) 0.000 0.000 0.0199(2)
Cd1 0.04872(19) 0.04949(16) 0.03892(17) -0.01376(9) 0.000 0.02436(9)

_geom_special_details            
;
All s.u.'s (except the s.u. in the dihedral angle between two l.s. planes)
are estimated using the full covariance matrix. The cell s.u.'s are taken
into account individually in the estimation of s.u.'s in distances, angles
and torsion angles; correlations between s.u.'s in cell parameters are only
used when they are defined by crystal symmetry. An approximate (isotropic)
treatment of cell s.u.'s is used for estimating s.u.'s involving l.s. planes.
;

loop_
_geom_bond_atom_site_label_1
_geom_bond_atom_site_label_2
_geom_bond_distance
_geom_bond_site_symmetry_2
_geom_bond_publ_flag
C1 O1 1.267(3) . ?
C1 O2 1.276(3) . ?
C1 C2 1.474(3) . ?
C2 C7 1.376(4) . ?
C2 C3 1.398(3) . ?
C3 C4 1.392(4) . ?
C4 C5 1.397(4) . ?
C4 N1 1.408(3) . ?
C5 N3 1.349(4) . ?
C5 C6 1.407(4) . ?
C6 C7 1.364(4) . ?
C8 N1 1.245(4) . ?
C8 C9 1.477(4) . ?
C12 N2 1.335(3) . ?
C12 C13 1.365(3) . ?
C13 C9 1.382(4) . ?
C9 C10 1.368(5) . ?
C10 C11 1.371(4) . ?
C11 N2 1.330(3) . ?
N2 Cd1 2.275(2) 8_557 ?
O1 Cd1 2.3624(17) . ?
O1 K1 2.6438(15) . ?
O2 Cd1 2.4925(17) . ?
O3 Cd1 2.405(3) . ?
K1 O1 2.6438(15) 2_655 ?
K1 O1 2.6438(15) 6_656 ?
K1 O1 2.6438(15) 4_666 ?
K1 O1 2.6438(15) 3_665 ?
K1 O1 2.6438(15) 5_556 ?
K1 Cd1 3.9656(3) 2_655 ?
K1 Cd1 3.9656(3) . ?
K1 Cd1 3.9656(3) 3_665 ?
Cd1 N2 2.275(2) 12 ?
Cd1 N2 2.275(2) 9_557 ?
Cd1 O1 2.3624(17) 5_556 ?
Cd1 O2 2.4925(17) 5_556 ?

loop_
_geom_angle_atom_site_label_1
_geom_angle_atom_site_label_2
_geom_angle_atom_site_label_3
_geom_angle
_geom_angle_site_symmetry_1
_geom_angle_site_symmetry_3
_geom_angle_publ_flag
O1 C1 O2 120.1(2) . . ?
O1 C1 C2 118.9(2) . . ?
O2 C1 C2 120.9(2) . . ?
C7 C2 C3 118.6(2) . . ?
C7 C2 C1 121.8(2) . . ?
C3 C2 C1 119.5(2) . . ?
C4 C3 C2 121.2(3) . . ?
C3 C4 C5 119.2(3) . . ?
C3 C4 N1 124.4(3) . . ?
C5 C4 N1 116.3(3) . . ?
N3 C5 C4 119.9(3) . . ?
N3 C5 C6 121.2(3) . . ?
C4 C5 C6 118.8(3) . . ?
C7 C6 C5 120.7(3) . . ?
C6 C7 C2 121.3(3) . . ?
N1 C8 C9 123.4(3) . . ?
N2 C12 C13 124.3(2) . . ?
C12 C13 C9 118.1(3) . . ?
C10 C9 C13 118.1(3) . . ?
C10 C9 C8 119.8(3) . . ?
C13 C9 C8 122.1(3) . . ?
C9 C10 C11 120.1(3) . . ?
N2 C11 C10 122.4(3) . . ?
C8 N1 C4 119.6(3) . . ?
C11 N2 C12 116.9(2) . . ?
C11 N2 Cd1 118.67(19) . 8_557 ?
C12 N2 Cd1 124.33(16) . 8_557 ?
C1 O1 Cd1 95.98(15) . . ?
C1 O1 K1 159.20(17) . . ?
Cd1 O1 K1 104.63(6) . . ?
C1 O2 Cd1 89.72(14) . . ?
O1 K1 O1 70.40(7) 2_655 6_656 ?
O1 K1 O1 91.53(7) 2_655 4_666 ?
O1 K1 O1 99.71(4) 6_656 4_666 ?
O1 K1 O1 99.71(4) 2_655 . ?
O1 K1 O1 91.53(7) 6_656 . ?
O1 K1 O1 166.26(7) 4_666 . ?
O1 K1 O1 99.71(4) 2_655 3_665 ?
O1 K1 O1 166.26(7) 6_656 3_665 ?
O1 K1 O1 70.40(7) 4_666 3_665 ?
O1 K1 O1 99.71(4) . 3_665 ?
O1 K1 O1 166.26(7) 2_655 5_556 ?
O1 K1 O1 99.71(4) 6_656 5_556 ?
O1 K1 O1 99.71(4) 4_666 5_556 ?
O1 K1 O1 70.40(7) . 5_556 ?
O1 K1 O1 91.53(7) 3_665 5_556 ?
O1 K1 Cd1 35.20(4) 2_655 2_655 ?
O1 K1 Cd1 35.20(4) 6_656 2_655 ?
O1 K1 Cd1 96.87(4) 4_666 2_655 ?
O1 K1 Cd1 96.87(4) . 2_655 ?
O1 K1 Cd1 134.23(3) 3_665 2_655 ?
O1 K1 Cd1 134.23(3) 5_556 2_655 ?
O1 K1 Cd1 134.23(4) 2_655 . ?
O1 K1 Cd1 96.87(4) 6_656 . ?
O1 K1 Cd1 134.23(3) 4_666 . ?
O1 K1 Cd1 35.20(4) . . ?
O1 K1 Cd1 96.87(4) 3_665 . ?
O1 K1 Cd1 35.20(4) 5_556 . ?
Cd1 K1 Cd1 120.0 2_655 . ?
O1 K1 Cd1 96.87(4) 2_655 3_665 ?
O1 K1 Cd1 134.23(4) 6_656 3_665 ?
O1 K1 Cd1 35.20(4) 4_666 3_665 ?
O1 K1 Cd1 134.23(3) . 3_665 ?
O1 K1 Cd1 35.20(4) 3_665 3_665 ?
O1 K1 Cd1 96.87(4) 5_556 3_665 ?
Cd1 K1 Cd1 120.0 2_655 3_665 ?
Cd1 K1 Cd1 120.0 . 3_665 ?
N2 Cd1 N2 163.72(11) 12 9_557 ?
N2 Cd1 O1 97.54(7) 12 . ?
N2 Cd1 O1 94.89(7) 9_557 . ?
N2 Cd1 O1 94.89(7) 12 5_556 ?
N2 Cd1 O1 97.54(7) 9_557 5_556 ?
O1 Cd1 O1 80.34(7) . 5_556 ?
N2 Cd1 O3 81.86(6) 12 . ?
N2 Cd1 O3 81.86(6) 9_557 . ?
O1 Cd1 O3 139.83(4) . . ?
O1 Cd1 O3 139.83(4) 5_556 . ?
N2 Cd1 O2 91.44(7) 12 . ?
N2 Cd1 O2 87.41(7) 9_557 . ?
O1 Cd1 O2 53.91(6) . . ?
O1 Cd1 O2 134.25(6) 5_556 . ?
O3 Cd1 O2 85.92(4) . . ?
N2 Cd1 O2 87.41(7) 12 5_556 ?
N2 Cd1 O2 91.44(7) 9_557 5_556 ?
O1 Cd1 O2 134.25(6) . 5_556 ?
O1 Cd1 O2 53.91(5) 5_556 5_556 ?
O3 Cd1 O2 85.92(4) . 5_556 ?
O2 Cd1 O2 171.84(9) . 5_556 ?
N2 Cd1 K1 98.14(6) 12 . ?
N2 Cd1 K1 98.14(6) 9_557 . ?
O1 Cd1 K1 40.17(4) . . ?
O1 Cd1 K1 40.17(4) 5_556 . ?
O3 Cd1 K1 180.0 . . ?
O2 Cd1 K1 94.08(4) . . ?
O2 Cd1 K1 94.08(4) 5_556 . ?

_diffrn_measured_fraction_theta_max 1.000
_diffrn_reflns_theta_full        25.01
_diffrn_measured_fraction_theta_full 1.000
_refine_diff_density_max         0.928
_refine_diff_density_min         -0.337
_refine_diff_density_rms         0.049

# SQUEEZE RESULTS (APPEND TO CIF)
# Note: Data are Listed for all Voids in the P1 Unit Cell
# i.e. Centre of Gravity, Solvent Accessible Volume,
# Recovered number of Electrons in the Void and
# Details about the Squeezed Material
loop_
_platon_squeeze_void_nr
_platon_squeeze_void_average_x
_platon_squeeze_void_average_y
_platon_squeeze_void_average_z
_platon_squeeze_void_volume
_platon_squeeze_void_count_electrons
_platon_squeeze_void_content
1 -0.003 -0.002 -0.008 5112 1649 ' '
_platon_squeeze_details          
;
;
