####################################################################### 
# 
# This file contains crystal structure data downloaded from the 
# Cambridge Structural Database (CSD) hosted by the Cambridge 
# Crystallographic Data Centre (CCDC).
# 
# Full information about CCDC data access policies and citation 
# guidelines are available at http://www.ccdc.cam.ac.uk/access/V1 
# 
# Audit and citation data items may have been added by the CCDC. 
# Please retain this information to preserve the provenance of 
# this file and to allow appropriate attribution of the data. 
# 
#######################################################################

data_ic10584(MAS-21)
_audit_block_doi                 10.5517/ccsqn26
_database_code_depnum_ccdc_archive 'CCDC 736748'
loop_
_citation_id
_citation_doi
_citation_year
1 10.1002/anie.200904501 2009
_audit_update_record             
;
2009-06-19 deposited with the CCDC.	2024-07-13 downloaded from the CCDC.
;

_audit_creation_method           SHELXL-97
_chemical_name_systematic        
;
?
;
_chemical_name_common            ?
_chemical_melting_point          ?
_chemical_formula_moiety         'C78 H65 Cd3 Cs N18 O15'
_chemical_formula_sum            'C78 H65 Cd3 Cs N18 O15'
_chemical_formula_weight         1964.59

loop_
_atom_type_symbol
_atom_type_description
_atom_type_scat_dispersion_real
_atom_type_scat_dispersion_imag
_atom_type_scat_source
C C 0.0033 0.0016 'International Tables Vol C Tables 4.2.6.8 and 6.1.1.4'
H H 0.0000 0.0000 'International Tables Vol C Tables 4.2.6.8 and 6.1.1.4'
N N 0.0061 0.0033 'International Tables Vol C Tables 4.2.6.8 and 6.1.1.4'
O O 0.0106 0.0060 'International Tables Vol C Tables 4.2.6.8 and 6.1.1.4'
Cd Cd -0.8075 1.2024 'International Tables Vol C Tables 4.2.6.8 and 6.1.1.4'
Cs Cs -0.3680 2.1192 'International Tables Vol C Tables 4.2.6.8 and 6.1.1.4'

_symmetry_cell_setting           Trigonal
_symmetry_space_group_name_H-M   P-31c

loop_
_symmetry_equiv_pos_as_xyz
'x, y, z'
'-y, x-y, z'
'-x+y, -x, z'
'-y, -x, -z+1/2'
'-x+y, y, -z+1/2'
'x, x-y, -z+1/2'
'-x, -y, -z'
'y, -x+y, -z'
'x-y, x, -z'
'y, x, z-1/2'
'x-y, -y, z-1/2'
'-x, -x+y, z-1/2'

_cell_length_a                   22.5982(8)
_cell_length_b                   22.5982(8)
_cell_length_c                   20.3700(7)
_cell_angle_alpha                90.00
_cell_angle_beta                 90.00
_cell_angle_gamma                120.00
_cell_volume                     9008.8(5)
_cell_formula_units_Z            2
_cell_measurement_temperature    295(2)
_cell_measurement_reflns_used    7717
_cell_measurement_theta_min      2.25
_cell_measurement_theta_max      25.00

_exptl_crystal_description       hexagonal
_exptl_crystal_colour            orange
_exptl_crystal_size_max          0.40
_exptl_crystal_size_mid          0.30
_exptl_crystal_size_min          0.30
_exptl_crystal_density_meas      ?
_exptl_crystal_density_diffrn    0.724
_exptl_crystal_density_method    'not measured'
_exptl_crystal_F_000             1956
_exptl_absorpt_coefficient_mu    0.584
_exptl_absorpt_correction_type   multi-scan
_exptl_absorpt_correction_T_min  0.8000
_exptl_absorpt_correction_T_max  0.8443
_exptl_absorpt_process_details   SADABS

_exptl_special_details           
;
?
;

_diffrn_ambient_temperature      295(2)
_diffrn_radiation_wavelength     0.71073
_diffrn_radiation_type           MoK\a
_diffrn_radiation_source         'fine-focus sealed tube'
_diffrn_radiation_monochromator  graphite
_diffrn_measurement_device_type  'BRUKER SMART ApexCCD area detector'
_diffrn_measurement_method       'omega scans'
_diffrn_detector_area_resol_mean ?
_diffrn_standards_number         ?
_diffrn_standards_interval_count ?
_diffrn_standards_interval_time  ?
_diffrn_standards_decay_%        ?
_diffrn_reflns_number            65023
_diffrn_reflns_av_R_equivalents  0.1307
_diffrn_reflns_av_sigmaI/netI    0.0640
_diffrn_reflns_limit_h_min       -26
_diffrn_reflns_limit_h_max       26
_diffrn_reflns_limit_k_min       -25
_diffrn_reflns_limit_k_max       26
_diffrn_reflns_limit_l_min       -24
_diffrn_reflns_limit_l_max       24
_diffrn_reflns_theta_min         1.04
_diffrn_reflns_theta_max         25.00
_reflns_number_total             5305
_reflns_number_gt                2576
_reflns_threshold_expression     >2sigma(I)

_computing_data_collection       'Bruker SMART'
_computing_cell_refinement       'Bruker SAINT'
_computing_data_reduction        'Bruker SAINT'
_computing_structure_solution    'SHELXS-97 (Sheldrick, 1990)'
_computing_structure_refinement  'SHELXL-97 (Sheldrick, 1997)'
_computing_molecular_graphics    'Bruker SHELXTL'
_computing_publication_material  'Bruker SHELXTL'

_refine_special_details          
;
Refinement of F^2^ against ALL reflections. The weighted R-factor wR and
goodness of fit S are based on F^2^, conventional R-factors R are based
on F, with F set to zero for negative F^2^. The threshold expression of
F^2^ > 2sigma(F^2^) is used only for calculating R-factors(gt) etc. and is
not relevant to the choice of reflections for refinement. R-factors based
on F^2^ are statistically about twice as large as those based on F, and R-
factors based on ALL data will be even larger.
;

_refine_ls_structure_factor_coef Fsqd
_refine_ls_matrix_type           full
_refine_ls_weighting_scheme      calc
_refine_ls_weighting_details     
'calc w=1/[\s^2^(Fo^2^)+(0.1942P)^2^+55.8020P] where P=(Fo^2^+2Fc^2^)/3'
_atom_sites_solution_primary     direct
_atom_sites_solution_secondary   difmap
_atom_sites_solution_hydrogens   geom
_refine_ls_hydrogen_treatment    constr
_refine_ls_extinction_method     SHELXL
_refine_ls_extinction_coef       0.0043(8)
_refine_ls_extinction_expression Fc^*^=kFc[1+0.001xFc^2^\l^3^/sin(2\q)]^-1/4^
_refine_ls_number_reflns         5305
_refine_ls_number_parameters     176
_refine_ls_number_restraints     0
_refine_ls_R_factor_all          0.2040
_refine_ls_R_factor_gt           0.1077
_refine_ls_wR_factor_ref         0.4273
_refine_ls_wR_factor_gt          0.3126
_refine_ls_goodness_of_fit_ref   1.127
_refine_ls_restrained_S_all      1.127
_refine_ls_shift/su_max          0.000
_refine_ls_shift/su_mean         0.000

loop_
_atom_site_label
_atom_site_type_symbol
_atom_site_fract_x
_atom_site_fract_y
_atom_site_fract_z
_atom_site_U_iso_or_equiv
_atom_site_adp_type
_atom_site_occupancy
_atom_site_symmetry_multiplicity
_atom_site_calc_flag
_atom_site_refinement_flags
_atom_site_disorder_assembly
_atom_site_disorder_group
Cs1 Cs 0.3333 0.6667 0.7500 0.0780(8) Uani 1 6 d S . .
Cd1 Cd 0.54382(8) 0.77191(4) 0.7500 0.0780(7) Uani 1 2 d S . .
O1 O 0.4545(6) 0.7658(5) 0.6844(5) 0.092(3) Uani 1 1 d . . .
O2 O 0.5564(6) 0.8442(6) 0.6533(5) 0.099(3) Uani 1 1 d . . .
O3 O 0.6662(10) 0.8331(5) 0.7500 0.166(8) Uani 1 2 d S . .
H3A H 0.7009 0.8793 0.7432 0.249 Uiso 0.83 1 d P . .
N1 N 0.5111(8) 0.9440(7) 0.4451(6) 0.098(4) Uani 1 1 d . . .
N2 N 0.5540(7) 0.6961(7) 0.6803(6) 0.090(3) Uani 1 1 d . . .
N3 N 0.3721(9) 0.8715(11) 0.4326(9) 0.216(13) Uani 1 1 d . . .
H3B H 0.3966 0.9078 0.4081 0.259 Uiso 1 1 calc R . .
H3C H 0.3278 0.8463 0.4262 0.259 Uiso 1 1 calc R . .
C1 C 0.4942(11) 0.8127(8) 0.6448(6) 0.086(4) Uani 1 1 d . . .
C2 C 0.4624(8) 0.8259(7) 0.5884(6) 0.078(4) Uani 1 1 d . . .
C3 C 0.5005(8) 0.8775(7) 0.5446(6) 0.078(4) Uani 1 1 d . . .
H3C' H 0.5485 0.9036 0.5512 0.094 Uiso 1 1 calc R . .
C4 C 0.4738(9) 0.8930(8) 0.4930(8) 0.094(4) Uani 1 1 d . . .
C5 C 0.4034(10) 0.8540(10) 0.4816(9) 0.129(7) Uani 1 1 d . . .
C6 C 0.3633(10) 0.8006(10) 0.5262(9) 0.137(8) Uani 1 1 d . . .
H6A H 0.3154 0.7732 0.5198 0.164 Uiso 1 1 calc R . .
C7 C 0.3934(10) 0.7888(8) 0.5778(7) 0.101(5) Uani 1 1 d . . .
H7A H 0.3657 0.7535 0.6078 0.121 Uiso 1 1 calc R . .
C8 C 0.5728(11) 0.9871(11) 0.4539(9) 0.136(8) Uani 1 1 d . . .
H8A H 0.5941 0.9848 0.4933 0.163 Uiso 1 1 calc R . .
C9 C 0.5960(12) 0.7259(10) 0.6270(9) 0.148(9) Uani 1 1 d . . .
H9A H 0.6177 0.7738 0.6194 0.177 Uiso 1 1 calc R . .
C10 C 0.6052(13) 0.6827(11) 0.5846(10) 0.153(9) Uani 1 1 d . . .
H10A H 0.6351 0.7024 0.5483 0.183 Uiso 1 1 calc R . .
C11 C 0.5730(10) 0.6128(9) 0.5928(8) 0.106(5) Uani 1 1 d . . .
C12 C 0.5330(9) 0.5863(8) 0.6477(7) 0.096(5) Uani 1 1 d . . .
H12A H 0.5117 0.5389 0.6573 0.115 Uiso 1 1 calc R . .
C13 C 0.5245(8) 0.6305(8) 0.6886(7) 0.087(4) Uani 1 1 d . . .
H13A H 0.4950 0.6113 0.7252 0.105 Uiso 1 1 calc R . .

loop_
_atom_site_aniso_label
_atom_site_aniso_U_11
_atom_site_aniso_U_22
_atom_site_aniso_U_33
_atom_site_aniso_U_23
_atom_site_aniso_U_13
_atom_site_aniso_U_12
Cs1 0.0821(10) 0.0821(10) 0.0697(13) 0.000 0.000 0.0410(5)
Cd1 0.0971(12) 0.0766(8) 0.0672(9) -0.0128(6) 0.000 0.0485(6)
O1 0.137(9) 0.091(7) 0.061(5) 0.015(5) 0.018(5) 0.067(7)
O2 0.110(9) 0.094(8) 0.082(7) 0.015(5) -0.002(6) 0.043(7)
O3 0.107(14) 0.195(18) 0.167(19) -0.029(14) 0.000 0.054(7)
N1 0.109(10) 0.083(8) 0.070(7) 0.035(6) 0.013(7) 0.024(8)
N2 0.106(9) 0.093(9) 0.076(7) -0.003(6) 0.015(7) 0.054(8)
N3 0.117(13) 0.24(2) 0.166(16) 0.142(17) -0.041(12) -0.007(13)
C1 0.134(15) 0.086(11) 0.054(8) 0.009(7) 0.020(9) 0.068(11)
C2 0.105(11) 0.061(8) 0.058(7) 0.008(6) 0.004(7) 0.035(8)
C3 0.090(10) 0.079(9) 0.060(7) 0.014(6) 0.010(7) 0.039(8)
C4 0.101(12) 0.074(9) 0.085(10) 0.030(8) 0.019(9) 0.028(9)
C5 0.119(14) 0.117(14) 0.093(12) 0.051(10) -0.010(10) 0.015(12)
C6 0.107(13) 0.111(13) 0.125(15) 0.067(12) -0.003(11) 0.004(11)
C7 0.122(14) 0.088(11) 0.077(10) 0.034(8) 0.009(9) 0.041(11)
C8 0.140(17) 0.139(17) 0.082(11) 0.054(11) -0.002(11) 0.034(15)
C9 0.21(2) 0.110(14) 0.117(14) 0.004(11) 0.088(15) 0.077(15)
C10 0.21(2) 0.123(17) 0.125(15) 0.026(13) 0.095(16) 0.081(17)
C11 0.137(15) 0.092(12) 0.095(11) -0.015(9) 0.025(10) 0.061(11)
C12 0.116(12) 0.093(10) 0.076(9) -0.008(8) 0.026(9) 0.050(10)
C13 0.100(11) 0.082(10) 0.079(9) 0.003(7) 0.028(8) 0.045(9)

_geom_special_details            
;
All esds (except the esd in the dihedral angle between two l.s. planes)
are estimated using the full covariance matrix. The cell esds are taken
into account individually in the estimation of esds in distances, angles
and torsion angles; correlations between esds in cell parameters are only
used when they are defined by crystal symmetry. An approximate (isotropic)
treatment of cell esds is used for estimating esds involving l.s. planes.
;

loop_
_geom_bond_atom_site_label_1
_geom_bond_atom_site_label_2
_geom_bond_distance
_geom_bond_site_symmetry_2
_geom_bond_publ_flag
Cs1 O1 2.858(10) 5_556 ?
Cs1 O1 2.858(10) 2_665 ?
Cs1 O1 2.858(10) . ?
Cs1 O1 2.858(10) 4_666 ?
Cs1 O1 2.858(10) 6_566 ?
Cs1 O1 2.858(10) 3_565 ?
Cs1 Cd1 4.1193(15) 2_665 ?
Cs1 Cd1 4.1193(16) . ?
Cs1 Cd1 4.1193(16) 3_565 ?
Cd1 N2 2.323(11) . ?
Cd1 N2 2.323(11) 6_566 ?
Cd1 O1 2.366(11) 6_566 ?
Cd1 O1 2.366(11) . ?
Cd1 O3 2.40(2) . ?
Cd1 O2 2.483(10) 6_566 ?
Cd1 O2 2.483(10) . ?
O1 C1 1.276(17) . ?
O2 C1 1.228(18) . ?
N1 C8 1.25(2) . ?
N1 C4 1.421(17) . ?
N2 C13 1.297(17) . ?
N2 C9 1.38(2) . ?
N3 C5 1.39(2) . ?
C1 C2 1.46(2) . ?
C2 C7 1.37(2) . ?
C2 C3 1.375(17) . ?
C3 C4 1.34(2) . ?
C4 C5 1.40(2) . ?
C5 C6 1.42(2) . ?
C6 C7 1.35(2) . ?
C8 C11 1.44(2) 8_566 ?
C9 C10 1.39(2) . ?
C10 C11 1.38(2) . ?
C11 C12 1.37(2) . ?
C11 C8 1.44(2) 9_656 ?
C12 C13 1.386(19) . ?

loop_
_geom_angle_atom_site_label_1
_geom_angle_atom_site_label_2
_geom_angle_atom_site_label_3
_geom_angle
_geom_angle_site_symmetry_1
_geom_angle_site_symmetry_3
_geom_angle_publ_flag
O1 Cs1 O1 67.8(4) 5_556 2_665 ?
O1 Cs1 O1 94.5(4) 5_556 . ?
O1 Cs1 O1 99.9(3) 2_665 . ?
O1 Cs1 O1 99.9(3) 5_556 4_666 ?
O1 Cs1 O1 94.5(4) 2_665 4_666 ?
O1 Cs1 O1 162.6(4) . 4_666 ?
O1 Cs1 O1 99.9(3) 5_556 6_566 ?
O1 Cs1 O1 162.6(4) 2_665 6_566 ?
O1 Cs1 O1 67.8(4) . 6_566 ?
O1 Cs1 O1 99.9(3) 4_666 6_566 ?
O1 Cs1 O1 162.6(4) 5_556 3_565 ?
O1 Cs1 O1 99.9(3) 2_665 3_565 ?
O1 Cs1 O1 99.9(3) . 3_565 ?
O1 Cs1 O1 67.8(4) 4_666 3_565 ?
O1 Cs1 O1 94.5(4) 6_566 3_565 ?
O1 Cs1 Cd1 33.9(2) 5_556 2_665 ?
O1 Cs1 Cd1 33.9(2) 2_665 2_665 ?
O1 Cs1 Cd1 98.7(2) . 2_665 ?
O1 Cs1 Cd1 98.7(2) 4_666 2_665 ?
O1 Cs1 Cd1 132.75(19) 6_566 2_665 ?
O1 Cs1 Cd1 132.75(19) 3_565 2_665 ?
O1 Cs1 Cd1 98.7(2) 5_556 . ?
O1 Cs1 Cd1 132.75(19) 2_665 . ?
O1 Cs1 Cd1 33.9(2) . . ?
O1 Cs1 Cd1 132.75(19) 4_666 . ?
O1 Cs1 Cd1 33.9(2) 6_566 . ?
O1 Cs1 Cd1 98.7(2) 3_565 . ?
Cd1 Cs1 Cd1 120.0 2_665 . ?
O1 Cs1 Cd1 132.75(19) 5_556 3_565 ?
O1 Cs1 Cd1 98.7(2) 2_665 3_565 ?
O1 Cs1 Cd1 132.75(19) . 3_565 ?
O1 Cs1 Cd1 33.9(2) 4_666 3_565 ?
O1 Cs1 Cd1 98.7(2) 6_566 3_565 ?
O1 Cs1 Cd1 33.9(2) 3_565 3_565 ?
Cd1 Cs1 Cd1 120.0 2_665 3_565 ?
Cd1 Cs1 Cd1 120.0 . 3_565 ?
N2 Cd1 N2 170.2(6) . 6_566 ?
N2 Cd1 O1 96.8(4) . 6_566 ?
N2 Cd1 O1 90.5(4) 6_566 6_566 ?
N2 Cd1 O1 90.5(4) . . ?
N2 Cd1 O1 96.8(4) 6_566 . ?
O1 Cd1 O1 84.8(5) 6_566 . ?
N2 Cd1 O3 85.1(3) . . ?
N2 Cd1 O3 85.1(3) 6_566 . ?
O1 Cd1 O3 137.6(2) 6_566 . ?
O1 Cd1 O3 137.6(2) . . ?
N2 Cd1 O2 90.2(4) . 6_566 ?
N2 Cd1 O2 88.9(4) 6_566 6_566 ?
O1 Cd1 O2 53.4(4) 6_566 6_566 ?
O1 Cd1 O2 137.9(4) . 6_566 ?
O3 Cd1 O2 84.3(3) . 6_566 ?
N2 Cd1 O2 88.9(4) . . ?
N2 Cd1 O2 90.2(4) 6_566 . ?
O1 Cd1 O2 137.9(4) 6_566 . ?
O1 Cd1 O2 53.4(4) . . ?
O3 Cd1 O2 84.3(3) . . ?
O2 Cd1 O2 168.7(6) 6_566 . ?
N2 Cd1 Cs1 94.9(3) . . ?
N2 Cd1 Cs1 94.9(3) 6_566 . ?
O1 Cd1 Cs1 42.4(2) 6_566 . ?
O1 Cd1 Cs1 42.4(2) . . ?
O3 Cd1 Cs1 180.000(1) . . ?
O2 Cd1 Cs1 95.7(3) 6_566 . ?
O2 Cd1 Cs1 95.7(3) . . ?
C1 O1 Cd1 94.8(10) . . ?
C1 O1 Cs1 161.2(11) . . ?
Cd1 O1 Cs1 103.7(3) . . ?
C1 O2 Cd1 90.5(9) . . ?
C8 N1 C4 120.7(14) . . ?
C13 N2 C9 119.7(13) . . ?
C13 N2 Cd1 125.5(9) . . ?
C9 N2 Cd1 114.8(11) . . ?
O2 C1 O1 121.2(15) . . ?
O2 C1 C2 121.9(14) . . ?
O1 C1 C2 116.9(17) . . ?
C7 C2 C3 117.1(13) . . ?
C7 C2 C1 121.6(13) . . ?
C3 C2 C1 121.3(15) . . ?
C4 C3 C2 123.8(15) . . ?
C3 C4 C5 118.9(13) . . ?
C3 C4 N1 125.9(16) . . ?
C5 C4 N1 115.1(14) . . ?
N3 C5 C4 121.3(15) . . ?
N3 C5 C6 120.2(18) . . ?
C4 C5 C6 118.1(15) . . ?
C7 C6 C5 119.8(17) . . ?
C6 C7 C2 122.3(14) . . ?
N1 C8 C11 122.9(16) . 8_566 ?
N2 C9 C10 116.9(17) . . ?
C11 C10 C9 123.4(17) . . ?
C12 C11 C10 116.9(14) . . ?
C12 C11 C8 124.0(17) . 9_656 ?
C10 C11 C8 118.9(17) . 9_656 ?
C11 C12 C13 118.2(15) . . ?
N2 C13 C12 124.7(13) . . ?

_diffrn_measured_fraction_theta_max 0.998
_diffrn_reflns_theta_full        25.00
_diffrn_measured_fraction_theta_full 0.998
_refine_diff_density_max         2.545
_refine_diff_density_min         -0.895
_refine_diff_density_rms         0.251


