####################################################################### 
# 
# This file contains crystal structure data downloaded from the 
# Cambridge Structural Database (CSD) hosted by the Cambridge 
# Crystallographic Data Centre (CCDC).
# 
# Full information about CCDC data access policies and citation 
# guidelines are available at http://www.ccdc.cam.ac.uk/access/V1 
# 
# Audit and citation data items may have been added by the CCDC. 
# Please retain this information to preserve the provenance of 
# this file and to allow appropriate attribution of the data. 
# 
#######################################################################

data_cpd25_Jace4
_audit_block_doi                 10.5517/cc1jprpn
_database_code_depnum_ccdc_archive 'CCDC 1421092'
loop_
_citation_id
_citation_doi
_citation_year
1 10.1021/acs.inorgchem.5b00792 2015
_audit_update_record             
;
2015-08-28 deposited with the CCDC.	2024-07-13 downloaded from the CCDC.
;

_audit_creation_method           SHELXL-97
_chemical_name_systematic        
;
 ?
;
_chemical_name_common            
;
 tetrakis(5-butoxy-1,3-phenylenebis(acetylacetonato))-
 (mu-4,4'-bipyridine)tetracopper chloroform solvate
;
_chemical_melting_point          ?
_chemical_formula_moiety         'C90 H104 Cu4 N2 O20, 16(C H Cl3)'
_chemical_formula_sum            'C106 H120 Cl48 Cu4 N2 O20'
_chemical_formula_weight         3697.80

loop_
_atom_type_symbol
_atom_type_description
_atom_type_scat_dispersion_real
_atom_type_scat_dispersion_imag
_atom_type_scat_source
C C 0.0181 0.0091 'International Tables Vol C Tables 4.2.6.8 and 6.1.1.4'
H H 0.0000 0.0000 'International Tables Vol C Tables 4.2.6.8 and 6.1.1.4'
N N 0.0311 0.0180 'International Tables Vol C Tables 4.2.6.8 and 6.1.1.4'
O O 0.0492 0.0322 'International Tables Vol C Tables 4.2.6.8 and 6.1.1.4'
Cl Cl 0.3639 0.7018 'International Tables Vol C Tables 4.2.6.8 and 6.1.1.4'
Cu Cu -1.9646 0.5888 'International Tables Vol C Tables 4.2.6.8 and 6.1.1.4'

_symmetry_cell_setting           Triclinic
_symmetry_space_group_name_Hall  ' -P 1'
_symmetry_space_group_name_H-M   'P -1   '

loop_
_symmetry_equiv_pos_as_xyz
'x, y, z'
'-x, -y, -z'

_cell_length_a                   14.2042(6)
_cell_length_b                   16.1861(7)
_cell_length_c                   18.4464(7)
_cell_angle_alpha                70.092(2)
_cell_angle_beta                 72.882(2)
_cell_angle_gamma                81.304(2)
_cell_volume                     3804.8(3)
_cell_formula_units_Z            1
_cell_measurement_temperature    90.0(5)
_cell_measurement_reflns_used    9946
_cell_measurement_theta_min      2.9
_cell_measurement_theta_max      68.6

_exptl_crystal_description       parallelepiped
_exptl_crystal_colour            blue
_exptl_crystal_size_max          0.27
_exptl_crystal_size_mid          0.23
_exptl_crystal_size_min          0.16
_exptl_crystal_density_meas      ?
_exptl_crystal_density_diffrn    1.614
_exptl_crystal_density_method    'not measured'
_exptl_crystal_F_000             1862
_exptl_absorpt_coefficient_mu    8.869
_exptl_absorpt_correction_type   multi-scan
_exptl_absorpt_correction_T_min  0.198
_exptl_absorpt_correction_T_max  0.331
_exptl_absorpt_process_details   'SADABS (Sheldrick, 2004)'

_exptl_special_details           
;
 ?
;

_diffrn_ambient_temperature      90.0(5)
_diffrn_radiation_wavelength     1.54178
_diffrn_radiation_type           CuK\a
_diffrn_radiation_source         'fine-focus sealed tube'
_diffrn_radiation_monochromator  graphite
_diffrn_measurement_device_type  'Bruker Kappa Apex-II CCD area detector'
_diffrn_measurement_method       'phi and omega scans'
_diffrn_detector_area_resol_mean ?
_diffrn_standards_number         ?
_diffrn_standards_interval_count ?
_diffrn_standards_interval_time  ?
_diffrn_standards_decay_%        ?
_diffrn_reflns_number            51073
_diffrn_reflns_av_R_equivalents  0.042
_diffrn_reflns_av_sigmaI/netI    0.0416
_diffrn_reflns_limit_h_min       -17
_diffrn_reflns_limit_h_max       17
_diffrn_reflns_limit_k_min       -19
_diffrn_reflns_limit_k_max       19
_diffrn_reflns_limit_l_min       -19
_diffrn_reflns_limit_l_max       21
_diffrn_reflns_theta_min         2.6
_diffrn_reflns_theta_max         69.4
_reflns_number_total             13640
_reflns_number_gt                11372
_reflns_threshold_expression     I>2\s(I)

_computing_data_collection       'Bruker Apex2'
_computing_cell_refinement       'Bruker Apex2'
_computing_data_reduction        'Bruker Apex2'
_computing_structure_solution    'SHELXS-97 (Sheldrick, 2008)'
_computing_structure_refinement  'SHELXL-97 (Sheldrick, 2008)'
_computing_molecular_graphics    'ORTEP-3 for Windows (Farrugia, 1997)'
_computing_publication_material  'Bruker SHELXTL'

_refine_special_details          
;
 Refinement of F^2^ against ALL reflections.  The weighted R-factor wR and
 goodness of fit S are based on F^2^, conventional R-factors R are based
 on F, with F set to zero for negative F^2^. The threshold expression of
 F^2^ > 2sigma(F^2^) is used only for calculating R-factors(gt) etc. and is
 not relevant to the choice of reflections for refinement.  R-factors based
 on F^2^ are statistically about twice as large as those based on F, and R-
 factors based on ALL data will be even larger.
;

_refine_ls_structure_factor_coef Fsqd
_refine_ls_matrix_type           full
_refine_ls_weighting_scheme      calc
_refine_ls_weighting_details     
'calc w=1/[\s^2^(Fo^2^)+(0.0451P)^2^+6.2077P] where P=(Fo^2^+2Fc^2^)/3'
_atom_sites_solution_primary     direct
_atom_sites_solution_secondary   difmap
_atom_sites_solution_hydrogens   geom
_refine_ls_hydrogen_treatment    constr
_refine_ls_extinction_method     none
_refine_ls_extinction_coef       ?
_refine_ls_number_reflns         13640
_refine_ls_number_parameters     707
_refine_ls_number_restraints     6
_refine_ls_R_factor_all          0.0584
_refine_ls_R_factor_gt           0.0507
_refine_ls_wR_factor_ref         0.1262
_refine_ls_wR_factor_gt          0.1222
_refine_ls_goodness_of_fit_ref   1.080
_refine_ls_restrained_S_all      1.080
_refine_ls_shift/su_max          0.002
_refine_ls_shift/su_mean         0.000

loop_
_atom_site_label
_atom_site_type_symbol
_atom_site_fract_x
_atom_site_fract_y
_atom_site_fract_z
_atom_site_U_iso_or_equiv
_atom_site_adp_type
_atom_site_occupancy
_atom_site_symmetry_multiplicity
_atom_site_calc_flag
_atom_site_refinement_flags
_atom_site_disorder_assembly
_atom_site_disorder_group
Cu1 Cu 0.21982(3) 0.81660(3) 0.45018(2) 0.01758(10) Uani 1 1 d . . .
Cu2 Cu 0.47066(3) 0.44003(3) 0.09480(2) 0.01808(10) Uani 1 1 d . . .
O1 O 0.13358(14) 0.74965(13) 0.43109(11) 0.0199(4) Uani 1 1 d . . .
O2 O 0.28536(15) 0.86032(13) 0.33898(12) 0.0222(4) Uani 1 1 d . . .
O3 O 0.32988(15) 0.45492(12) 0.12037(13) 0.0234(4) Uani 1 1 d . . .
O4 O 0.48480(14) 0.56470(12) 0.04487(12) 0.0201(4) Uani 1 1 d . . .
O5 O 0.60963(15) 0.42523(12) 0.08415(12) 0.0208(4) Uani 1 1 d . . .
O6 O 0.45077(15) 0.31919(13) 0.15439(13) 0.0262(5) Uani 1 1 d . . .
O7 O 0.13217(15) 0.80098(13) 0.55523(12) 0.0226(4) Uani 1 1 d . . .
O8 O 0.30179(15) 0.88900(13) 0.46672(12) 0.0216(4) Uani 1 1 d . . .
O9 O 0.06281(15) 0.85122(13) 0.06120(12) 0.0244(4) Uani 1 1 d . . .
O10 O 0.21610(15) 1.01279(13) 0.80418(12) 0.0220(4) Uani 1 1 d . . .
C1 C 0.0698(3) 0.6738(2) 0.3699(2) 0.0348(8) Uani 1 1 d . . .
H1A H 0.0996 0.6145 0.3892 0.052 Uiso 1 1 calc R . .
H1B H 0.0605 0.6834 0.3170 0.052 Uiso 1 1 calc R . .
H1C H 0.0058 0.6800 0.4071 0.052 Uiso 1 1 calc R . .
C2 C 0.1366(2) 0.74066(18) 0.36434(17) 0.0184(6) Uani 1 1 d . . .
C3 C 0.1970(2) 0.78638(18) 0.28928(17) 0.0190(6) Uani 1 1 d . . .
C4 C 0.2662(2) 0.84432(19) 0.28178(17) 0.0211(6) Uani 1 1 d . . .
C5 C 0.3290(3) 0.8921(2) 0.19998(19) 0.0339(8) Uani 1 1 d . . .
H5A H 0.3665 0.9354 0.2045 0.051 Uiso 1 1 calc R . .
H5B H 0.2863 0.9224 0.1645 0.051 Uiso 1 1 calc R . .
H5C H 0.3747 0.8496 0.1779 0.051 Uiso 1 1 calc R . .
C6 C 0.1926(2) 0.76824(18) 0.21689(17) 0.0192(6) Uani 1 1 d . . .
C7 C 0.1286(2) 0.81593(18) 0.17115(17) 0.0199(6) Uani 1 1 d . . .
H7 H 0.0851 0.8610 0.1869 0.024 Uiso 1 1 calc R . .
C8 C 0.1273(2) 0.79860(19) 0.10242(17) 0.0211(6) Uani 1 1 d . . .
C9 C 0.1893(2) 0.73153(19) 0.07914(18) 0.0217(6) Uani 1 1 d . . .
H9 H 0.1881 0.7191 0.0327 0.026 Uiso 1 1 calc R . .
C10 C 0.2535(2) 0.68274(18) 0.12545(17) 0.0195(6) Uani 1 1 d . . .
C11 C 0.2552(2) 0.70108(19) 0.19266(17) 0.0207(6) Uani 1 1 d . . .
H11 H 0.2994 0.6678 0.2232 0.025 Uiso 1 1 calc R . .
C12 C 0.4498(2) 0.71716(19) 0.02287(19) 0.0273(7) Uani 1 1 d . . .
H12A H 0.4439 0.7428 0.0652 0.041 Uiso 1 1 calc R . .
H12B H 0.4083 0.7524 -0.0121 0.041 Uiso 1 1 calc R . .
H12C H 0.5188 0.7167 -0.0084 0.041 Uiso 1 1 calc R . .
C13 C 0.4170(2) 0.62478(18) 0.05946(16) 0.0197(6) Uani 1 1 d . . .
C14 C 0.3202(2) 0.60861(18) 0.10305(17) 0.0196(6) Uani 1 1 d . . .
C15 C 0.2798(2) 0.52563(19) 0.12806(17) 0.0212(6) Uani 1 1 d . . .
C16 C 0.1716(2) 0.5154(2) 0.1674(2) 0.0299(7) Uani 1 1 d . . .
H16A H 0.1335 0.5573 0.1327 0.045 Uiso 1 1 calc R . .
H16B H 0.1552 0.5270 0.2186 0.045 Uiso 1 1 calc R . .
H16C H 0.1556 0.4553 0.1765 0.045 Uiso 1 1 calc R . .
C17 C 0.7657(2) 0.3636(2) 0.09756(19) 0.0260(6) Uani 1 1 d . . .
H17A H 0.7881 0.4066 0.0446 0.039 Uiso 1 1 calc R . .
H17B H 0.8006 0.3064 0.0981 0.039 Uiso 1 1 calc R . .
H17C H 0.7795 0.3835 0.1378 0.039 Uiso 1 1 calc R . .
C18 C 0.6572(2) 0.35492(18) 0.11609(17) 0.0199(6) Uani 1 1 d . . .
C19 C 0.6149(2) 0.27509(18) 0.16652(17) 0.0214(6) Uani 1 1 d . . .
C20 C 0.5140(2) 0.26225(19) 0.18339(19) 0.0247(6) Uani 1 1 d . . .
C21 C 0.4727(3) 0.1760(2) 0.2390(2) 0.0405(9) Uani 1 1 d . . .
H21A H 0.4019 0.1852 0.2621 0.061 Uiso 1 1 calc R . .
H21B H 0.5064 0.1526 0.2818 0.061 Uiso 1 1 calc R . .
H21C H 0.4829 0.1341 0.2092 0.061 Uiso 1 1 calc R . .
C22 C 0.3228(2) 0.79827(19) 0.79221(17) 0.0212(6) Uani 1 1 d . . .
C23 C 0.2917(2) 0.87186(18) 0.81754(17) 0.0190(6) Uani 1 1 d . . .
H23 H 0.3052 0.8735 0.8645 0.023 Uiso 1 1 calc R . .
C24 C 0.2407(2) 0.94341(18) 0.77454(17) 0.0194(6) Uani 1 1 d . . .
C25 C 0.2192(2) 0.94094(18) 0.70667(16) 0.0192(6) Uani 1 1 d . . .
H25 H 0.1842 0.9895 0.6777 0.023 Uiso 1 1 calc R . .
C26 C 0.2492(2) 0.86689(19) 0.68099(17) 0.0205(6) Uani 1 1 d . . .
C27 C 0.3001(2) 0.79661(18) 0.72449(18) 0.0214(6) Uani 1 1 d . . .
H27 H 0.3200 0.7460 0.7074 0.026 Uiso 1 1 calc R . .
C28 C 0.0689(2) 0.7966(2) 0.6898(2) 0.0335(7) Uani 1 1 d . . .
H28A H 0.0094 0.7832 0.6803 0.050 Uiso 1 1 calc R . .
H28B H 0.0539 0.8465 0.7108 0.050 Uiso 1 1 calc R . .
H28C H 0.0917 0.7451 0.7286 0.050 Uiso 1 1 calc R . .
C29 C 0.1492(2) 0.81984(19) 0.61173(18) 0.0229(6) Uani 1 1 d . . .
C30 C 0.2326(2) 0.86103(18) 0.60652(17) 0.0207(6) Uani 1 1 d . . .
C31 C 0.3006(2) 0.89652(18) 0.53387(17) 0.0215(6) Uani 1 1 d . . .
C32 C 0.3809(3) 0.9514(2) 0.5292(2) 0.0336(8) Uani 1 1 d . . .
H32A H 0.4185 0.9751 0.4734 0.050 Uiso 1 1 calc R . .
H32B H 0.4252 0.9146 0.5609 0.050 Uiso 1 1 calc R . .
H32C H 0.3510 1.0001 0.5502 0.050 Uiso 1 1 calc R . .
C33 C 0.0602(2) 0.8334(2) -0.00890(18) 0.0255(6) Uani 1 1 d . . .
H33A H 0.0392 0.7730 0.0057 0.031 Uiso 1 1 calc R . .
H33B H 0.1269 0.8376 -0.0462 0.031 Uiso 1 1 calc R . .
C34 C -0.0114(3) 0.8993(2) -0.0488(2) 0.0308(7) Uani 1 1 d . . .
H34A H 0.0136 0.9590 -0.0687 0.037 Uiso 1 1 calc R . .
H34B H -0.0761 0.8998 -0.0096 0.037 Uiso 1 1 calc R . .
C35 C -0.0236(3) 0.8749(2) -0.11820(19) 0.0292(7) Uani 1 1 d . . .
H35A H 0.0426 0.8661 -0.1528 0.035 Uiso 1 1 calc R . .
H35B H -0.0558 0.8183 -0.0967 0.035 Uiso 1 1 calc R . .
C36 C -0.0829(3) 0.9423(3) -0.1682(2) 0.0490(11) Uani 1 1 d . . .
H36A H -0.0875 0.9222 -0.2115 0.073 Uiso 1 1 calc R . .
H36B H -0.0508 0.9983 -0.1910 0.073 Uiso 1 1 calc R . .
H36C H -0.1493 0.9504 -0.1350 0.073 Uiso 1 1 calc R . .
C37 C 0.1798(2) 1.09339(18) 0.75605(18) 0.0215(6) Uani 1 1 d . . .
H37A H 0.1152 1.0856 0.7497 0.026 Uiso 1 1 calc R . .
H37B H 0.2265 1.1122 0.7024 0.026 Uiso 1 1 calc R . .
C38 C 0.1690(2) 1.16176(18) 0.79726(18) 0.0236(6) Uani 1 1 d . . .
H38A H 0.2334 1.1665 0.8056 0.028 Uiso 1 1 calc R . .
H38B H 0.1215 1.1423 0.8504 0.028 Uiso 1 1 calc R . .
C39 C 0.1336(3) 1.25170(19) 0.7500(2) 0.0321(7) Uani 1 1 d . . .
H39A H 0.1840 1.2735 0.6989 0.038 Uiso 1 1 calc R . .
H39B H 0.0723 1.2459 0.7374 0.038 Uiso 1 1 calc R . .
C40 C 0.1139(3) 1.3185(2) 0.7943(3) 0.0501(11) Uani 1 1 d . . .
H40A H 0.0902 1.3748 0.7616 0.075 Uiso 1 1 calc R . .
H40B H 0.1750 1.3264 0.8050 0.075 Uiso 1 1 calc R . .
H40C H 0.0637 1.2976 0.8449 0.075 Uiso 1 1 calc R . .
N1 N 0.32957(18) 0.68667(16) 0.47709(15) 0.0231(5) Uani 1 1 d . . .
C41 C 0.3668(4) 0.6558(3) 0.5387(2) 0.0612(14) Uani 1 1 d . . .
H41 H 0.3473 0.6849 0.5781 0.073 Uiso 1 1 calc R . .
C42 C 0.4329(4) 0.5831(3) 0.5501(3) 0.0704(17) Uani 1 1 d . . .
H42 H 0.4568 0.5639 0.5965 0.085 Uiso 1 1 calc R . .
C43 C 0.4640(2) 0.53913(18) 0.49514(17) 0.0203(6) Uani 1 1 d . . .
C44 C 0.4250(3) 0.5717(3) 0.4308(2) 0.0459(10) Uani 1 1 d . . .
H44 H 0.4429 0.5437 0.3906 0.055 Uiso 1 1 calc R . .
C45 C 0.3596(3) 0.6449(2) 0.4235(2) 0.0397(9) Uani 1 1 d . . .
H45 H 0.3352 0.6662 0.3773 0.048 Uiso 1 1 calc R . .
C1S C 0.3546(2) 1.0236(2) 0.9202(2) 0.0297(7) Uani 1 1 d . . .
H1S H 0.3413 1.0373 0.8669 0.036 Uiso 1 1 calc R . .
Cl1 Cl 0.25742(6) 0.96421(6) 0.99276(5) 0.0394(2) Uani 1 1 d . . .
Cl2 Cl 0.36213(9) 1.12341(6) 0.93501(6) 0.0529(3) Uani 1 1 d . . .
Cl3 Cl 0.46626(6) 0.95995(6) 0.91914(6) 0.0446(2) Uani 1 1 d . . .
C2S C 0.5118(3) 0.8472(2) 0.3569(2) 0.0334(7) Uani 1 1 d . . .
H2S H 0.4385 0.8467 0.3787 0.040 Uiso 1 1 calc R . .
Cl4 Cl 0.54542(8) 0.95596(6) 0.30825(6) 0.0522(3) Uani 1 1 d . . .
Cl5 Cl 0.54864(8) 0.78791(9) 0.28850(9) 0.0710(4) Uani 1 1 d . . .
Cl6 Cl 0.56703(11) 0.79878(10) 0.43511(8) 0.0831(5) Uani 1 1 d . . .
C3S C 0.9372(3) 0.8712(3) 0.4768(2) 0.0391(8) Uani 1 1 d . . .
H3S H 0.9839 0.8272 0.5035 0.047 Uiso 1 1 calc R . .
Cl7 Cl 0.86091(12) 0.81732(9) 0.45003(11) 0.0878(5) Uani 1 1 d . . .
Cl8 Cl 0.86844(13) 0.92899(13) 0.54009(9) 0.0997(6) Uani 1 1 d . . .
Cl9 Cl 1.00425(9) 0.94459(8) 0.38730(9) 0.0786(4) Uani 1 1 d . . .
C4S C 0.0882(5) 0.5890(6) 0.5953(4) 0.044(3) Uani 0.716(15) 1 d PD A 1
H4S H 0.1190 0.6447 0.5577 0.053 Uiso 0.716(15) 1 calc PR A 1
Cl10 Cl 0.1437(3) 0.5029(3) 0.5564(3) 0.0773(10) Uani 0.716(15) 1 d PD A 1
Cl11 Cl 0.1063(5) 0.57280(17) 0.6900(2) 0.0611(12) Uani 0.716(15) 1 d PD A 1
Cl12 Cl -0.0380(2) 0.6021(3) 0.6021(2) 0.0810(12) Uani 0.716(15) 1 d PD A 1
C5S C 0.0885(11) 0.6021(11) 0.5972(11) 0.046(8) Uiso 0.284(15) 1 d PD A 2
H5S H 0.1196 0.6513 0.5498 0.055 Uiso 0.284(15) 1 calc PR A 2
Cl13 Cl -0.0357(5) 0.6314(11) 0.6332(11) 0.118(5) Uani 0.284(15) 1 d PD A 2
Cl14 Cl 0.097(2) 0.5078(7) 0.5693(8) 0.116(6) Uani 0.284(15) 1 d PD A 2
Cl15 Cl 0.1556(12) 0.5752(5) 0.6692(7) 0.075(2) Uani 0.284(15) 1 d PD A 2

loop_
_atom_site_aniso_label
_atom_site_aniso_U_11
_atom_site_aniso_U_22
_atom_site_aniso_U_33
_atom_site_aniso_U_23
_atom_site_aniso_U_13
_atom_site_aniso_U_12
Cu1 0.0201(2) 0.0186(2) 0.0142(2) -0.00691(16) -0.00336(16) 0.00030(16)
Cu2 0.0205(2) 0.01355(19) 0.0193(2) -0.00565(16) -0.00609(16) 0.00474(15)
O1 0.0189(10) 0.0233(10) 0.0144(10) -0.0037(8) -0.0026(8) -0.0014(8)
O2 0.0256(11) 0.0243(10) 0.0170(10) -0.0070(8) -0.0040(8) -0.0045(8)
O3 0.0250(11) 0.0140(9) 0.0315(11) -0.0091(8) -0.0077(9) 0.0032(8)
O4 0.0237(10) 0.0154(9) 0.0218(10) -0.0097(8) -0.0065(8) 0.0069(8)
O5 0.0243(10) 0.0150(9) 0.0247(10) -0.0057(8) -0.0111(8) 0.0024(8)
O6 0.0223(11) 0.0152(10) 0.0382(12) -0.0050(9) -0.0097(9) 0.0035(8)
O7 0.0221(10) 0.0271(11) 0.0195(10) -0.0097(8) -0.0036(8) -0.0017(8)
O8 0.0248(10) 0.0246(10) 0.0177(10) -0.0105(8) -0.0037(8) -0.0030(8)
O9 0.0276(11) 0.0259(11) 0.0221(10) -0.0128(9) -0.0107(9) 0.0122(9)
O10 0.0311(11) 0.0185(10) 0.0173(10) -0.0088(8) -0.0093(8) 0.0092(8)
C1 0.042(2) 0.045(2) 0.0215(16) -0.0088(14) -0.0086(14) -0.0203(16)
C2 0.0174(13) 0.0200(13) 0.0180(14) -0.0075(11) -0.0053(11) 0.0035(11)
C3 0.0192(14) 0.0175(13) 0.0178(14) -0.0057(11) -0.0033(11) 0.0038(11)
C4 0.0240(15) 0.0229(14) 0.0173(14) -0.0113(12) -0.0024(11) 0.0016(12)
C5 0.0388(19) 0.044(2) 0.0199(16) -0.0101(14) -0.0012(14) -0.0187(16)
C6 0.0214(14) 0.0192(13) 0.0178(14) -0.0094(11) -0.0037(11) 0.0019(11)
C7 0.0187(14) 0.0174(13) 0.0210(14) -0.0078(11) -0.0013(11) 0.0026(11)
C8 0.0227(14) 0.0191(14) 0.0191(14) -0.0049(11) -0.0050(11) 0.0027(11)
C