
#######################################################################
#
#                 Cambridge Crystallographic Data Centre
#                                CCDC
#
#######################################################################
#
# If this CIF has been generated from an entry in the Cambridge
# Structural Database, then it will include bibliographic, chemical,
# crystal, experimental, refinement or atomic coordinate data resulting
# from the CCDC's data processing and validation procedures.
#
#######################################################################

data_CSD_CIF_SUSJIZ
_audit_creation_date 1997-08-01
_audit_creation_method CSD-ConQuest-V1
_database_code_CSD SUSJIZ
_database_code_depnum_ccdc_archive 'CCDC 1264761'
_chemical_formula_sum 'C6 H12'
_chemical_formula_moiety
;
(C6 H12)n
;
_journal_coden_Cambridge 1219
_journal_volume 16
_journal_year 1967
_journal_page_first 2477
_journal_name_full 'J.Polym.Sci.,Part C '
loop_
_publ_author_name
"P.Corradini"
"G.Natta"
"P.Ganis"
"P.A.Temussi"
_chemical_name_systematic
;
Poly(propylene)
;
_chemical_name_common
;
Teaching Subset: Fundamental Chemistry
;
_cell_volume    600.880
_exptl_crystal_density_diffrn 0.93
_exptl_special_details
;
identity period 7.40 A, obtained from stretched fibres and doubly oreinted 
films
syndiotactic polymer chain conformer
No R-factor given
;
_diffrn_ambient_temperature ?
_diffrn_special_details
;
The study was carried out at room temperature,in the range 283-303K

;
_symmetry_cell_setting orthorhombic
_symmetry_space_group_name_H-M 'C 2 2 21'
_symmetry_Int_Tables_number 20
loop_
_symmetry_equiv_pos_site_id
_symmetry_equiv_pos_as_xyz
1 x,y,z
2 -x,-y,1/2+z
3 x,-y,1/2-z
4 -x,y,-z
5 1/2+x,1/2+y,z
6 1/2-x,1/2-y,1/2+z
7 1/2+x,1/2-y,1/2-z
8 1/2-x,1/2+y,-z
_cell_length_a 14.5
_cell_length_b 5.6
_cell_length_c 7.4
_cell_angle_alpha 90
_cell_angle_beta 90
_cell_angle_gamma 90
_cell_formula_units_Z 4
loop_
_atom_type_symbol
_atom_type_radius_bond
C 0.68
loop_
_atom_site_label
_atom_site_type_symbol
_atom_site_fract_x
_atom_site_fract_y
_atom_site_fract_z
C1 C 0.00000 0.01000 0.00000
C2 C 0.06100 0.16500 0.13500
C3 C 0.12200 0.33100 -0.00900
C4 C 0.12100 0.00000 0.25000
C2B C 0.06100 -0.16500 0.36500
C1B C 0.00000 -0.01000 0.50000
C3B C 0.12200 -0.33100 0.50900
C2C C -0.06100 0.16500 -0.13500
#END
