
#######################################################################
#
#                 Cambridge Crystallographic Data Centre
#                                CCDC
#
#######################################################################
#
# If this CIF has been generated from an entry in the Cambridge
# Structural Database, then it will include bibliographic, chemical,
# crystal, experimental, refinement or atomic coordinate data resulting
# from the CCDC's data processing and validation procedures.
#
#######################################################################

data_CSD_CIF_SUSKOG
_audit_creation_date 1997-08-01
_audit_creation_method CSD-ConQuest-V1
_database_code_CSD SUSKOG
_database_code_depnum_ccdc_archive 'CCDC 1264767'
_chemical_formula_sum 'C8 H8'
_chemical_formula_moiety
;
(C8 H8)n
;
_journal_coden_Cambridge 1211
_journal_volume 15
_journal_year 1960
_journal_page_first 68
_journal_name_full 'Supplemento del Nuovo Cimento '
loop_
_publ_author_name
"G.Natta"
"P.Corradini"
"I.W.Bassi"
_chemical_name_systematic
;
Poly(styrene)
;
_chemical_name_common
;
Teaching Subset: Fundamental Chemistry
;
_chemical_melting_point 513
_cell_volume   2762.107
_exptl_crystal_density_diffrn 1.126
_exptl_special_details
;
oriented fibres obtained by stretching at 100deg.C, followed by 
crystallisation under tension at 150deg.C
isotactic polymer chain conformer
Large esd for a, and c, no R-factor given
;
_diffrn_ambient_temperature ?
_diffrn_special_details
;
The study was carried out at room temperature,in the range 283-303K

;
_symmetry_cell_setting rhombohedral
_symmetry_space_group_name_H-M 'R 3 c'
_symmetry_Int_Tables_number 161
loop_
_symmetry_equiv_pos_site_id
_symmetry_equiv_pos_as_xyz
1 x,y,z
2 -y,x-y,z
3 -y,-x,1/2+z
4 -x+y,-x,z
5 x,x-y,1/2+z
6 -x+y,y,1/2+z
7 1/3+x,2/3+y,2/3+z
8 1/3-y,2/3+x-y,2/3+z
9 1/3-y,2/3-x,1/6+z
10 1/3-x+y,2/3-x,2/3+z
11 1/3+x,2/3+x-y,1/6+z
12 1/3-x+y,2/3+y,1/6+z
13 2/3+x,1/3+y,1/3+z
14 2/3-y,1/3+x-y,1/3+z
15 2/3-y,1/3-x,5/6+z
16 2/3-x+y,1/3-x,1/3+z
17 2/3+x,1/3+x-y,5/6+z
18 2/3-x+y,1/3+y,5/6+z
_cell_length_a 21.9(10)
_cell_length_b 21.9(10)
_cell_length_c 6.65(5)
_cell_angle_alpha 90
_cell_angle_beta 90
_cell_angle_gamma 120
_cell_formula_units_Z 18
loop_
_atom_type_symbol
_atom_type_radius_bond
C 0.68
H 0.23
loop_
_atom_site_label
_atom_site_type_symbol
_atom_site_fract_x
_atom_site_fract_y
_atom_site_fract_z
C1 C 0.30800 0.29000 0.64500
C2 C 0.30800 0.29000 0.41300
C3 C 0.24000 0.22600 0.34700
C4 C 0.24500 0.17300 0.23600
C5 C 0.17600 0.21900 0.39300
C6 C 0.18400 0.11400 0.17300
C7 C 0.11400 0.16000 0.33000
C8 C 0.11800 0.10800 0.22000
H1 H 0.30400 0.24100 0.70000
H2 H 0.26300 0.29400 0.70000
H3 H 0.35400 0.28700 0.35800
H4 H 0.29600 0.17800 0.20000
H5 H 0.17400 0.26100 0.47900
H6 H 0.18700 0.07400 0.08600
H7 H 0.06200 0.15400 0.36700
H8 H 0.07100 0.06300 0.17000
C1I C 0.31533 0.35867 0.31167
H1I H 0.27033 0.36267 0.36667
H2I H 0.36433 0.40367 0.36667
C2M C 0.37667 0.35133 0.74633
H3M H 0.37967 0.40033 0.69133
#END
