####################################################################### 
# 
# This file contains crystal structure data downloaded from the 
# Cambridge Structural Database (CSD) hosted by the Cambridge 
# Crystallographic Data Centre (CCDC).
# 
# Full information about CCDC data access policies and citation 
# guidelines are available at http://www.ccdc.cam.ac.uk/access/V1 
# 
# Audit and citation data items may have been added by the CCDC. 
# Please retain this information to preserve the provenance of 
# this file and to allow appropriate attribution of the data. 
# 
#######################################################################

data_Ni(bpb)
_audit_block_doi                 10.5517/ccsx5vp
_database_code_depnum_ccdc_archive 'CCDC 742073'
loop_
_citation_id
_citation_doi
_citation_year
1 10.1021/cm902899t 2010
_audit_update_record             
;
2009-07-25 deposited with the CCDC.	2024-07-13 downloaded from the CCDC.
;
_iucr_compatibility_tag          ?


# 4.1.1 CRYSTAL DATA

_chemical_name_systematic        
;
1,4-bis(4-pyrazolato)-benzene nickel(ii)
;

_chemical_name_mineral           ?
_chemical_name_common            ?
_chemical_formula_moiety         'C12 H8 N4 Ni'
_chemical_formula_structural     ?
_chemical_formula_analytical     ?
_chemical_formula_sum            'C12 H8 N4 Ni'
_chemical_formula_weight         266.92
_chemical_melting_point          ?
_chemical_compound_source        synthesis

loop_
_atom_type_symbol
_atom_type_description
_atom_type_scat_source


C C 'International Tables for Crystallography (Vol. IV)'
H H 'International Tables for Crystallography (Vol. IV)'
N N 'International Tables for Crystallography (Vol. IV)'
Ni Ni 'International Tables for Crystallography (Vol. IV)'


# 4.1.2 POWDER SPECIMEN AND CRYSTAL DATA

_space_group_crystal_system      orthorhombic
_space_group_name_H-M_alt        Imma
_space_group_name_Hall           ?

_cell_length_a                   6.76552(46)
_cell_length_b                   22.7353(32)
_cell_length_c                   13.4648(14)
_cell_angle_alpha                90
_cell_angle_beta                 90
_cell_angle_gamma                90
_cell_volume                     2071.10(39)

loop_
_symmetry_equiv_pos_as_xyz
'-x, -y, -z'
'-x, -y+1/2, z'
'-x, y, z'
'-x, y+1/2, -z'
'-x+1/2, -y, z+1/2'
'-x+1/2, -y+1/2, -z+1/2'
'-x+1/2, y, -z+1/2'
'-x+1/2, y+1/2, z+1/2'
'x, -y, -z'
'x, -y+1/2, z'
'x, y, z'
'x, y+1/2, -z'
'x+1/2, -y, z+1/2'
'x+1/2, -y+1/2, -z+1/2'
'x+1/2, y, -z+1/2'
'x+1/2, y+1/2, z+1/2'

_cell_formula_units_Z            4
_cell_measurement_temperature    298

_pd_calibration_special_details  
; ?
;
_cell_special_details            
; ?
;

_exptl_crystal_density_diffrn    0.856
_exptl_crystal_density_meas      ?
_exptl_crystal_density_method    ?
_exptl_crystal_F_000             544

# The next three fields give the specimen dimensions in mm.
# The equatorial plane contains the incident and diffracted beam.

_pd_spec_size_axial              15 # perpendicular to
# equatorial plane

_pd_spec_size_equat              20 # parallel to
# scattering vector
# in transmission

_pd_spec_size_thick              0.2 # parallel to
# scattering vector
# in reflection

# The next five fields are character fields that describe the specimen.

_pd_spec_mounting                
;
packed powder pellet
;
_pd_spec_mount_mode              reflection # options are reflection
# or transmission

_pd_spec_shape                   flat_sheet # options are cylinder
# flat_sheet or irregular

_pd_char_particle_morphology     ?

_pd_char_colour                  orange # use ICDD colour descriptions

# The next four fields are normally only needed for transmission experiments.

_exptl_absorpt_coefficient_mu    ?
_exptl_absorpt_correction_type   ?
_exptl_absorpt_correction_T_min  ?
_exptl_absorpt_correction_T_max  ?


# 4.1.3 EXPERIMENTAL DATA

_exptl_special_details           
; ?
;

# This following item is used to identify the equipment used to record the
# powder pattern when the diffractogram was measured at a laboratory
# other than the authors home institution e.g. when neutron or synchrotron
# radiation is used.

_pd_instr_location               
; ?
;

_diffrn_ambient_temperature      298
_diffrn_source_target            Cu
_diffrn_source_type              'sealed X-ray tube'
_diffrn_measurement_device_type  'Bruker AXS D8 Advance'
_diffrn_detector_type            'Linear PSD Bruker AXS Lynxeye'

_pd_meas_scan_method             cont # options are step or cont
# tof or fixed or
# disp (= dispersive)
_pd_meas_special_details         
; ?
;
# The following six items are used for angular dispersive measurements only.

loop_
_diffrn_radiation_type
# _diffrn_radiation_wavelength
'Cu K\a'
;
CuK\a~1~ 1.54056
CuK\a~2~ 1.54439
;

_diffrn_radiation_monochromator  'Ni filter'

# The following four items give details of the measured (not processed)
# powder pattern. Angles are in degrees.

_pd_meas_number_of_points        5001
_pd_meas_2theta_range_min        5
_pd_meas_2theta_range_max        105
_pd_meas_2theta_range_inc        0.02

# The following three items are used for time-of-flight measurements only.

_pd_instr_dist_src/spec          ?
_pd_instr_dist_spec/detc         ?
_pd_meas_2theta_fixed            ?

# The following fields are used to identify the programs used.

_computing_data_collection       ?
_computing_cell_refinement       TOPAS-R
_computing_data_reduction        ?
_computing_structure_solution    TOPAS-R
_computing_structure_refinement  TOPAS-R
_computing_molecular_graphics    Schakal99
_computing_publication_material  TOPAS-R


# 4.1.4 REFINEMENT DATA

# Use the next field to give any special details about the fitting of the
# powder pattern.

_pd_proc_ls_special_details      
;
The use of a rigid body description for the asymmetric unit
does not allow the derivation of statistically meaningful s.u.'s
for its atoms.


Only center of mass (X, Y, Z), and rotational angles (RX, RY, RZ) su's are available

X, Y, Z: 0,5, 0, 0

RX, RY, RZ: 0, 152.0(1), 90


for the rigid body described by:

point_for_site c4 ux = r1/2; uy = r1 Sin(Deg a1); uz = 0;
point_for_site h4 ux = r1/2 + r4 Cos(Deg a1); uy = r1 Sin(Deg a1) + r4 Sin(Deg a1); uz = 0;
point_for_site c3 ux = r1; uy = 0; uz = 0;
point_for_site c2 ux = r1 + r2; uy = 0; uz = 0;
point_for_site c1 ux = r1 + r2 + r3 Cos(Deg a2); uy = r3 Sin(Deg a2); uz = 0;
point_for_site h1 ux = r1 + r2 + r3 Cos(Deg a2) - r4 Cos(Deg a4); uy = r3 Sin(Deg a2) + r4 Sin(Deg a4); uz = 0;
point_for_site n1 ux = r1 + r2 + r3/(2 Sin(Deg 36)) + r3/(2 Tan(Deg 36)); uy = r3 / 2; uz = 0;


prm !r1 1.39
prm !r2 1.45
prm !r3 1.36
prm !r4 0.95
prm !a1 60
prm !a2 54
prm !a3 36
prm !a4 63


# The next three items are given as text

_pd_proc_ls_profile_function 'fundamental parameters approach'
_pd_proc_ls_background_function 'Chebychev polynomial'
_pd_proc_ls_pref_orient_corr 'none'
;

_pd_proc_ls_prof_R_factor        0.034
_pd_proc_ls_prof_wR_factor       0.058
_pd_proc_ls_prof_wR_expected     0.003

_refine_special_details          
; ?
;

_refine_ls_structure_factor_coef Inet
_refine_ls_matrix_type           full
_refine_ls_weighting_scheme      1/[Y~i~]
_refine_ls_hydrogen_treatment    ?
_refine_ls_extinction_method     none
_refine_ls_extinction_coef       ?
_refine_ls_number_parameters     28
_refine_ls_number_restraints     0
_refine_ls_number_constraints    0

# The following item is CHI squared
_refine_ls_goodness_of_fit_all   ?

_refine_ls_restrained_S_all      ?
_refine_ls_restrained_S_obs      ?
_refine_ls_shift/su_max          .01
_refine_ls_shift/su_mean         ?

# The following four items apply to angular dispersive measurements.
# 2theta minimum maximum and increment (in degrees) are for the
# intensities used in the refinement.

_pd_proc_2theta_range_min        5
_pd_proc_2theta_range_max        105
_pd_proc_2theta_range_inc        0.02

loop_
# _pd_proc_wavelength
# CuK\a~1~ 1.54056
# CuK\a~2~ 1.54439
#

_pd_block_diffractogram_id
?
# The id used for the block
# containing the powder
# pattern profile (section 11).

# Give appropriate details in the next two text fields.

_pd_proc_info_excluded_regions   ?
_pd_proc_info_data_reduction     ?


# 4.1.5 ATOMIC COORDINATES AND DISPLACEMENT PARAMETERS

loop_
_atom_site_label
_atom_site_type_symbol
_atom_site_symmetry_multiplicity
_atom_site_fract_x
_atom_site_fract_y
_atom_site_fract_z
_atom_site_occupancy
_atom_site_B_iso_or_equiv
Ni Ni 4 0.25 0.25 0.25 1 3.70(24)
C1 C 16 0.337372 -0.1413553 -0.1268425 1 5.70(24)
C2 C 8 0.5 -0.1103067 -0.0989817 1 5.70(24)
C3 C 8 0.5 -0.05398815 -0.04844527 1 5.70(24)
C4 C 16 0.322072 -0.02699408 -0.02422263 1 5.70(24)
N1 N 16 0.3994904 -0.1915929 -0.1719223 1 5.70(24)
H4 H 16 0.2004666 -0.04544326 -0.04077767 1 5.70(24)
H1 H 16 0.2122587 -0.1246038 -0.1118109 1 5.70(24)
