####################################################################### 
# 
# This file contains crystal structure data downloaded from the 
# Cambridge Structural Database (CSD) hosted by the Cambridge 
# Crystallographic Data Centre (CCDC).
# 
# Full information about CCDC data access policies and citation 
# guidelines are available at http://www.ccdc.cam.ac.uk/access/V1 
# 
# Audit and citation data items may have been added by the CCDC. 
# Please retain this information to preserve the provenance of 
# this file and to allow appropriate attribution of the data. 
# 
#######################################################################

data_complex-b
_audit_block_doi                 10.5517/cc3qzj9
_database_code_depnum_ccdc_archive 'CCDC 111461'
loop_
_citation_id
_citation_doi
_citation_year
1 10.1021/ja981293n 1998
_audit_update_record             
;
1998-11-17 deposited with the CCDC.	2024-07-13 downloaded from the CCDC.
;
#---------------------------------------------------------------------
_audit_creation_date             'Sat Apr 18 11:10:45 1998'
_audit_creation_method           'from TEXRAY.INF file'
#---------------------------------------------------------------------
_computing_data_collection       'MSC/AFC Diffractometer Control'
_computing_cell_refinement       'MSC/AFC Diffractometer Control'
_computing_data_reduction        teXsan
_computing_structure_solution    SHELXS86
_computing_structure_refinement  teXsan
_computing_publication_material  teXsan
_computing_molecular_graphics    ?
#---------------------------------------------------------------------
_chemical_compound_source        ?
_chemical_name_common            trans-complex
_chemical_formula_weight         849.53
_chemical_formula_analytical     ?
_chemical_formula_sum            'C35 H26 F12 N4 Mn O4 '
_chemical_formula_moiety         'C35 H26 F12 N4 Mn O4'
_chemical_formula_structural     ?
_chemical_melting_point          ?
#---------------------------------------------------------------------
_cell_length_a                   13.69(2)
_cell_length_b                   13.669(3)
_cell_length_c                   20.864(5)
_cell_angle_alpha                90
_cell_angle_beta                 96.184(4)
_cell_angle_gamma                90
_cell_volume                     3881(3)
_cell_formula_units_Z            4
_cell_measurement_temperature    193
_cell_measurement_reflns_used    0
_cell_measurement_theta_min      0.0
_cell_measurement_theta_max      0.0
#---------------------------------------------------------------------
_symmetry_cell_setting           monoclinic
_symmetry_space_group_name_H-M   'C 2/c      '
_symmetry_Int_Tables_number      15
_symmetry_space_group_name_Hall  ?
loop_
_symmetry_equiv_pos_as_xyz
+x,
+y,
+z'
-x,
+y,
1/2-z'
-x,
-y,
-z'
+x,
-y,1/2+z'
1/2+x,
1/2+y,
+z'
1/2-x,
1/2+y,
1/2-z'
1/2-x,
1/2-y,-z'
1/2+x,
1/2-y,
+z'
#---------------------------------------------------------------------
_exptl_crystal_description       plate
_exptl_crystal_colour            orange
_exptl_crystal_size_max          0.200
_exptl_crystal_size_mid          0.200
_exptl_crystal_size_min          0.100
_exptl_crystal_density_diffrn    1.454
_exptl_crystal_density_meas      'not measured'
_exptl_crystal_F_000             1716.00
_exptl_absorpt_coefficient_mu    0.439
_exptl_absorpt_correction_type   none
_exptl_special_details           
;
 ?
;
#---------------------------------------------------------------------
_diffrn_special_details          
;
 ?
;
_diffrn_ambient_temperature      288.2
_diffrn_radiation_wavelength     0.7107
_diffrn_radiation_type           'Mo K\a'
_diffrn_radiation_source         'Rigaku rotating anode'
_diffrn_radiation_monochromator  graphite
_diffrn_radiation_detector       'Imaging Plate'
_diffrn_measurement_device       'Rigaku RAXIS-IV'
_diffrn_measurement_method       ?
_diffrn_standards_number         0
_diffrn_standards_interval_count 0
_diffrn_standards_decay_%        0.00
loop_
_diffrn_reflns_number
2798
_reflns_number_total             2798
_reflns_number_observed          1822
_reflns_observed_criterion       >3.0sigma(I)
_diffrn_reflns_av_R_equivalents  0.00
_diffrn_reflns_av_sigmaI/netI    0.055
_diffrn_reflns_limit_h_min       0
_diffrn_reflns_limit_h_max       17
_diffrn_reflns_limit_k_min       0
_diffrn_reflns_limit_k_max       17
_diffrn_reflns_limit_l_min       -26
_diffrn_reflns_limit_l_max       25
_diffrn_reflns_theta_min         0.00
_diffrn_reflns_theta_max         0.00
_diffrn_reflns_reduction_process 'Lp corrections applied'
#---------------------------------------------------------------------
loop_
_atom_type_symbol
_atom_type_oxidation_number
_atom_type_number_in_cell
_atom_type_scat_dispersion_real
_atom_type_scat_dispersion_imag
_atom_type_scat_source
C 0 140 0.003 0.002
;International Tables for Crystallography
(1992, Vol. C, Tables 4.2.6.8 and 6.1.1.1)
;
H 0 104 0.000 0.000
;International Tables for Crystallography
(1992, Vol. C, Table 6.1.1.2)
;
N 0 16 0.006 0.003
;International Tables for Crystallography
(1992, Vol. C, Tables 4.2.6.8 and 6.1.1.1)
;
O 0 16 0.011 0.006
;International Tables for Crystallography
(1992, Vol. C, Tables 4.2.6.8 and 6.1.1.1)
;
F 0 48 0.017 0.010
;International Tables for Crystallography
(1992, Vol. C, Tables 4.2.6.8 and 6.1.1.1)
;
Mn 0 4 0.337 0.728
;International Tables for Crystallography
(1992, Vol. C, Tables 4.2.6.8 and 6.1.1.1)
;
#---------------------------------------------------------------------
loop_
_atom_site_label
_atom_site_fract_x
_atom_site_fract_y
_atom_site_fract_z
_atom_site_U_iso_or_equiv
_atom_site_thermal_displace_type
_atom_site_calc_flag
_atom_site_calc_attached_atom
_atom_site_occupancy
_atom_site_refinement_flags
Mn 0.2500 0.2500 0.5000 0.0399(4) Uani d . 0.50 S
F1 0.5856(4) 0.2808(5) 0.4666(3) 0.124(3) Uani d . 1.00 .
F2 0.5248(4) 0.2954(5) 0.3701(3) 0.127(3) Uani d . 1.00 .
F3 0.5922(4) 0.1640(5) 0.4008(3) 0.135(3) Uani d . 1.00 .
F4 0.333(7) -0.092(3) 0.455(2) 0.31(3) Uani d . 0.50 .
F5 0.273(2) -0.091(2) 0.478(1) 0.100(6) Uani d . 0.50 .
F6 0.213(2) -0.063(2) 0.399(2) 0.14(1) Uani d . 0.50 .
F7 0.387(2) -0.098(2) 0.424(2) 0.114(9) Uani d . 0.50 .
F8 0.342(2) -0.068(2) 0.365(2) 0.18(1) Uani d . 0.50 .
F9 0.249(5) -0.060(2) 0.375(2) 0.26(2) Uani d . 0.50 .
O1 0.3860(3) 0.2688(4) 0.4574(2) 0.051(2) Uani d . 1.00 .
O2 0.2478(4) 0.1065(4) 0.4556(2) 0.050(2) Uani d . 1.00 .
N1 0.3341(4) 0.1858(4) 0.5877(2) 0.043(2) Uani d . 1.00 .
N2 0.5000 -0.0437(8) 0.7500 0.067(3) Uani d . 0.50 S
N3 0.5000 -0.1254(9) 0.7500 0.114(5) Uani d . 0.50 S
C1 0.4102(5) 0.2309(5) 0.6207(3) 0.045(2) Uani d . 1.00 .
C2 0.4648(5) 0.1909(5) 0.6737(3) 0.044(2) Uani d . 1.00 .
C3 0.4407(4) 0.0984(5) 0.6956(3) 0.035(2) Uani d . 1.00 .
C4 0.3617(5) 0.0508(5) 0.6620(3) 0.049(2) Uani d . 1.00 .
C5 0.3111(5) 0.0964(6) 0.6088(3) 0.051(2) Uani d . 1.00 .
C6 0.5000 0.0500(7) 0.7500 0.044(3) Uani d . 0.50 S
C7 0.5359(7) 0.2342(8) 0.4195(4) 0.077(3) Uani d . 1.00 .
C8 0.4353(5) 0.2013(6) 0.4366(3) 0.051(2) Uani d . 1.00 .
C9 0.4115(6) 0.1028(6) 0.4259(4) 0.067(3) Uani d . 1.00 .
C10 0.3195(7) 0.0648(6) 0.4367(3) 0.057(3) Uani d . 1.00 .
C11 0.302(1) -0.0445(10) 0.4203(9) 0.093(5) Uani d . 1.00 .
C12 0.866(2) 0.100(2) 0.366(1) 0.074(7) Uiso d . 0.50 .
C13 0.811(1) 0.170(1) 0.352(1) 0.043(4) Uiso d . 0.50 .
C14 0.775(1) 0.200(1) 0.322(1) 0.058(5) Uiso d . 0.50 .
C15 0.811(2) 0.112(3) 0.242(1) 0.097(8) Uiso d . 0.50 .
C16 0.878(2) 0.043(2) 0.281(2) 0.092(8) Uiso d . 0.50 .
C17 0.911(3) 0.012(3) 0.313(2) 0.14(2) Uiso d . 0.50 .
C18 0.942(1) 0.035(1) 0.4265(8) 0.079(5) Uiso d . 0.50 .
C19 0.722(2) 0.253(2) 0.257(1) 0.147(9) Uiso d . 0.50 .
C20 0.778(1) 0.184(2) 0.288(2) 0.071(6) Uiso d . 0.50 .
C21 0.851(2) 0.071(2) 0.250(1) 0.082(7) Uiso d . 0.50 .
C22 0.893(2) 0.049(2) 0.326(2) 0.101(9) Uiso d . 0.50 .
C23 0.831(2) 0.152(2) 0.3792(9) 0.058(6) Uiso d . 0.50 .
C24 0.897(2) 0.066(2) 0.373(1) 0.071(7) Uiso d . 0.50 .
C25 0.784(1) 0.161(2) 0.253(1) 0.068(6) Uiso d . 0.50 .
H1 0.4262 0.2942 0.6065 0.0528 Uiso calc . 1.00 .
H2 0.5186 0.2252 0.6946 0.0503 Uiso calc . 1.00 .
H3 0.3430 -0.0135 0.6724 0.0521 Uiso calc . 1.00 .
H4 0.2594 0.0621 0.5864 0.0576 Uiso calc . 1.00 .
H5 0.4571 0.0624 0.4104 0.0853 Uiso calc . 1.00 .

loop_
_atom_site_aniso_label
_atom_site_aniso_U_11
_atom_site_aniso_U_22
_atom_site_aniso_U_33
_atom_site_aniso_U_12
_atom_site_aniso_U_13
_atom_site_aniso_U_23
Mn 0.0334(8) 0.0434(10) 0.0416(7) -0.0016(9) -0.0021(6) 0.0004(9)
F(1) 0.063(3) 0.162(7) 0.150(5) -0.043(4) 0.021(4) -0.049(5)
F(2) 0.099(4) 0.153(6) 0.139(5) -0.018(4) 0.055(4) 0.045(5)
F(3) 0.077(4) 0.122(6) 0.217(7) -0.001(4) 0.070(5) -0.040(5)
F(4) 0.7(1) 0.07(2) 0.17(4) -0.02(6) -0.09(6) 0.01(2)
F(5) 0.11(1) 0.035(7) 0.16(2) -0.015(7) 0.06(1) 0.022(9)
F(6) 0.09(1) 0.09(1) 0.25(4) -0.06(1) 0.06(2) -0.09(2)
F(7) 0.12(1) 0.053(10) 0.18(3) 0.020(10) 0.08(2) -0.01(1)
F(8) 0.15(2) 0.13(2) 0.29(4) -0.06(2) 0.13(3) -0.13(2)
F(9) 0.50(7) 0.09(1) 0.14(2) 0.01(3) -0.18(3) -0.04(2)
O(1) 0.041(3) 0.052(4) 0.061(3) -0.004(3) 0.008(2) 0.003(3)
O(2) 0.045(3) 0.048(3) 0.056(3) -0.007(3) -0.001(2) -0.002(3)
N(1) 0.034(3) 0.047(4) 0.046(3) -0.010(3) -0.002(3) 0.004(3)
N(2) 0.101(9) 0.034(6) 0.059(6) 0.0000 -0.025(5) 0.0000
N(3) 0.17(1) 0.060(8) 0.097(8) 0.0000 -0.064(8) 0.0000
C(1) 0.043(4) 0.040(5) 0.049(4) -0.014(4) -0.003(3) 0.011(3)
C(2) 0.033(4) 0.054(5) 0.042(4) -0.007(4) -0.006(3) -0.002(3)
C(3) 0.031(4) 0.041(4) 0.034(3) -0.006(3) 0.002(3) 0.002(3)
C(4) 0.054(5) 0.038(4) 0.050(4) -0.014(4) -0.010(4) 0.007(3)
C(5) 0.043(4) 0.058(5) 0.048(4) -0.027(4) -0.012(3) 0.003(4)
C(6) 0.047(6) 0.037(7) 0.044(5) 0.0000 -0.011(5) 0.0000
C(7) 0.065(6) 0.091(8) 0.078(6) 0.002(6) 0.016(5) -0.013(6)
C(8) 0.039(5) 0.062(6) 0.051(4) -0.005(4) 0.008(3) 0.000(4)
C(9) 0.063(6) 0.060(6) 0.080(6) -0.001(5) 0.022(5) -0.010(5)
C(10) 0.065(6) 0.047(6) 0.059(5) -0.002(5) 0.002(4) -0.007(4)
C(11) 0.11(1) 0.064(9) 0.10(1) 0.003(8) 0.019(9) -0.004(8)
#------------------------------------------------------------------------------
_refine_special_details          
;
 ?
;
_refine_ls_structure_factor_coef F
_refine_ls_matrix_type           full
_refine_ls_weighting_scheme      'w = 1/[\s^2^(Fo) + 0.00022|Fo|^2^]'
_refine_ls_hydrogen_treatment    noref
_refine_ls_extinction_method     'Zachariasen(1967) type 2 Gaussian isotropic'
_refine_ls_extinction_coef       0.00000
_refine_ls_abs_structure_details ?
_refine_ls_abs_structure_Flack   ?
_refine_ls_number_reflns         1822
_refine_ls_number_parameters     277
_refine_ls_number_restraints     0
_refine_ls_number_constraints    0
_refine_ls_R_factor_all          ?
_refine_ls_R_factor_obs          0.0655
_refine_ls_wR_factor_all         ?
_refine_ls_wR_factor_obs         0.0791
_refine_ls_goodness_of_fit_all   ?
_refine_ls_goodness_of_fit_obs   2.749
_refine_ls_shift/esd_max         0.6300
_refine_ls_shift/esd_mean        0.0000
_refine_diff_density_min         -0.33
_refine_diff_density_max         0.46
#------------------------------------------------------------------------------
_geom_special_details            
;
 ?
;
loop_
_geom_bond_atom_site_label_1
_geom_bond_atom_site_label_2
_geom_bond_distance
_geom_bond_site_symmetry_1
_geom_bond_site_symmetry_2
_geom_bond_publ_flag
Mn O(1) 2.168(5) 1_555 1_555 yes
Mn O(1) 2.168(5) 1_555 7_556 yes
Mn O(2) 2.163(5) 1_555 1_555 yes
Mn O(2) 2.163(5) 1_555 7_556 yes
Mn N(1) 2.233(5) 1_555 1_555 yes
Mn N(1) 2.233(5) 1_555 7_556 yes
F(1) F(2) 0.80(8) 1_555 1_555 yes
F(1) C(7) 1.28(2) 1_555 1_555 yes
F(2) F(3) 1.26(6) 1_555 1_555 yes
F(2) C(7) 1.13(3) 1_555 1_555 yes
F(3) F(4) 1.34(4) 1_555 1_555 yes
F(3) C(7) 1.34(3) 1_555 1_555 yes
F(4) F(5) 1.12(8) 1_555 1_555 yes
F(4) C(7) 1.39(3) 1_555 1_555 yes
F(5) F(6) 0.91(8) 1_555 1_555 yes
F(5) C(7) 0.99(4) 1_555 1_555 yes
F(6) C(7) 1.48(3) 1_555 1_555 yes
F(7) C(11) 1.32(1) 1_555 1_555 yes
F(8) C(11) 1.316(10) 1_555 1_555 yes
F(9) C(11) 1.300(10) 1_555 1_555 yes
O(1) C(8) 1.234(9) 1_555 1_555 yes
O(2) C(10) 1.249(8) 1_555 1_555 yes
N(1) C(1) 1.337(8) 1_555 1_555 yes
N(1) C(5) 1.347(8) 1_555 1_555 yes
N(2) N(3) 1.12(1) 1_555 1_555 yes
N(2) C(6) 1.28(1) 1_555 1_555 yes
C(1) C(2) 1.380(8) 1_555 1_555 yes
C(2) C(3) 1.395(9) 1_555 1_555 yes
C(3) C(4) 1.386(9) 1_555 1_555 yes
C(3) C(6) 1.479(7) 1_555 1_555 yes
C(4) C(5) 1.391(9) 1_555 1_555 yes
C(7) C(8) 1.54(1) 1_555 1_555 yes
C(8) C(9) 1.40(1) 1_555 1_555 yes
C(9) C(10) 1.40(1) 1_555 1_555 yes
C(10) C(11) 1.53(1) 1_555 1_555 yes
C(12) C(13) 1.55(4) 1_555 1_555 yes
C(12) C(24) 1.60(4) 1_555 1_555 yes
C(12) C(25) 1.34(3) 1_555 1_555 yes
C(13) C(14) 0.82(3) 1_555 1_555 yes
C(13) C(15) 1.54(3) 1_555 1_555 yes
C(13) C(24) 1.56(3) 1_555 1_555 yes
C(13) C(25) 0.79(2) 1_555 1_555 yes
C(14) C(15) 0.77(3) 1_555 1_555 yes
C(14) C(16) 1.48(4) 1_555 1_555 yes
C(14) C(25) 1.45(4) 1_555 1_555 yes
C(15) C(16) 0.81(3) 1_555 1_555 yes
C(15) C(17) 1.66(5) 1_555 1_555 yes
C(15) C(18) 1.66(4) 1_555 1_555 yes
C(16) C(17) 0.86(4) 1_555 1_555 yes
C(16) C(18) 0.95(4) 1_555 1_555 yes
C(17) C(18) 0.65(5) 1_555 1_555 yes
C(17) C(19) 1.48(5) 1_555 1_555 yes
C(17) C(21) 1.81(5) 1_555 1_555 yes
C(18) C(19) 0.98(4) 1_555 1_555 yes
C(18) C(21) 1.18(4) 1_555 1_555 yes
C(19) C(20) 1.29(2) 1_555 1_555 yes
C(19) C(21) 0.65(3) 1_555 1_555 yes
C(19) C(22) 1.50(3) 1_555 1_555 yes
C(20) C(21) 1.79(3) 1_555 1_555 yes
C(21) C(22) 0.91(3) 1_555 1_555 yes
C(21) C(23) 1.23(3) 1_555 1_555 yes
C(22) C(23) 0.65(2) 1_555 1_555 yes
C(22) C(24) 1.49(3) 1_555 1_555 yes
C(23) C(24) 0.85(2) 1_555 1_555 yes
C(23) C(25) 1.39(3) 1_555 1_555 yes
C(24) C(25) 0.77(2) 1_555 1_555 yes
#------------------------------------------------------------------------------
loop_
_geom_angle_atom_site_label_1
_geom_angle_atom_site_label_2
_geom_angle_atom_site_label_3
_geom_angle
_geom_angle_site_symmetry_1
_geom_angle_site_symmetry_2
_geom_angle_site_symmetry_3
_geom_angle_publ_flag
O(1) Mn O(1) 180.0 1_555 1_555 7_556 yes
O(1) Mn O(2) 84.5(2) 1_555 1_555 1_555 yes
O(1) Mn O(2) 95.5(2) 1_555 1_555 7_556 yes
O(1) Mn N(1) 88.6(2) 1_555 1_555 1_555 yes
O(1) Mn N(1) 91.4(2) 1_555 1_555 7_556 yes
O(1) Mn O(2) 95.5(2) 7_556 1_555 1_555 yes
O(1) Mn O(2) 84.5(2) 7_556 1_555 7_556 yes
O(1) Mn N(1) 91.4(2) 7_556 1_555 1_555 yes
O(1) Mn N(1) 88.6(2) 7_556 1_555 7_556 yes
O(2) Mn O(2) 180.0000(1) 1_555 1_555 7_556 yes
O(2) Mn N(1) 89.6(2) 1_555 1_555 1_555 yes
O(2) Mn N(1) 90.4(2) 1_555 1_555 7_556 yes
O(2) Mn N(1) 90.4(2) 7_556 1_555 1_555 yes
O(2) Mn N(1) 89.6(2) 7_556 1_555 7_556 yes
N(1) Mn N(1) 180.0 1_555 1_555 7_556 yes
F(2) F(1) C(7) 60(3) 1_555 1_555 1_555 yes
F(1) F(2) F(3) 145(4) 1_555 1_555 1_555 yes
F(1) F(2) C(7) 81(3) 1_555 1_555 1_555 yes
F(3) F(2) C(7) 67(2) 1_555 1_555 1_555 yes
F(2) F(3) F(4) 107(4) 1_555 1_555 1_555 yes
F(2) F(3) C(7) 51(1) 1_555 1_555 1_555 yes
F(4) F(3) C(7) 62(2) 1_555 1_555 1_555 yes
F(3) F(4) F(5) 99(4) 1_555 1_555 1_555 yes
F(3) F(4) C(7) 58(1) 1_555 1_555 1_555 yes
F(5) F(4) C(7) 45(2) 1_555 1_555 1_555 yes
F(4) F(5) F(6) 173(4) 1_555 1_555 1_555 yes
F(4) F(5) C(7) 81(3) 1_555 1_555 1_555 yes
F(6) F(5) C(7) 101(9) 1_555 1_555 1_555 yes
F(5) F(6) C(7) 41(3) 1_555 1_555 1_555 yes
Mn O(1) C(8) 125.4(5) 1_555 1_555 1_555 yes
Mn O(2) C(10) 125.2(5) 1_555 1_555 1_555 yes
Mn N(1) C(1) 123.0(4) 1_555 1_555 1_555 yes
Mn N(1) C(5) 120.4(4) 1_555 1_555 1_555 yes
C(1) N(1) C(5) 116.5(5) 1_555 1_555 1_555 yes
N(3) N(2) C(6) 180.0 1_555 1_555 1_555 yes
N(1) C(1) C(2) 123.8(6) 1_555 1_555 1_555 yes
N(1) C(1) H(1) 116.9(6) 1_555 1_555 1_555 no
C(2) C(1) H(1) 119.3(6) 1_555 1_555 1_555 no
C(1) C(2) C(3) 119.6(6) 1_555 1_555 1_555 yes
C(1) C(2) H(2) 120.3(7) 1_555 1_555 1_555 no
C(3) C(2) H(2) 120.2(6) 1_555 1_555 1_555 no
C(2) C(3) C(4) 117.4(6) 1_555 1_555 1_555 yes
C(2) C(3) C(6) 121.7(6) 1_555 1_555 1_555 yes
C(4) C(3) C(6) 120.8(6) 1_555 1_555 1_555 yes
C(3) C(4) C(5) 119.1(6) 1_555 1_555 1_555 yes
C(3) C(4) H(3) 122.4(7) 1_555 1_555 1_555 no
C(5) C(4) H(3) 118.4(7) 1_555 1_555 1_555 no
N(1) C(5) C(4) 123.6(6) 1_555 1_555 1_555 yes
N(1) C(5) H(4) 118.9(7) 1_555 1_555 1_555 no
C(4) C(5) H(4) 117.4(7) 1_555 1_555 1_555 no
N(2) C(6) C(3) 116.6(4) 1_555 1_555 1_555 yes
N(2) C(6) C(3) 116.6(4) 1_555 1_555 2_656 yes
C(3) C(6) C(3) 126.9(9) 1_555 1_555 2_656 yes
F(1) C(7) F(2) 38(4) 1_555 1_555 1_555 yes
F(1) C(7) F(3) 98(2) 1_555 1_555 1_555 yes
F(1) C(7) F(4) 134(1) 1_555 1_555 1_555 yes
F(1) C(7) F(5) 111(4) 1_555 1_555 1_555 yes
F(1) C(7) F(6) 83(1) 1_555 1_555 1_555 yes
F(1) C(7) C(8) 113(1) 1_555 1_555 1_555 yes
F(2) C(7) F(3) 60(3) 1_555 1_555 1_555 yes
F(2) C(7) F(4) 112(2) 1_555 1_555 1_555 yes
F(2) C(7) F(5) 128(3) 1_555 1_555 1_555 yes
F(2) C(7) F(6) 116(3) 1_555 1_555 1_555 yes
F(2) C(7) C(8) 116(1) 1_555 1_555 1_555 yes
F(3) C(7) F(4) 58(1) 1_555 1_555 1_555 yes
F(3) C(7) F(5) 107(3) 1_555 1_555 1_555 yes
F(3) C(7) F(6) 137(2) 1_555 1_555 1_555 yes
F(3) C(7) C(8) 111(1) 1_555 1_555 1_555 yes
F(4) C(7) F(5) 53(4) 1_555 1_555 1_555 yes
F(4) C(7) F(6) 90(2) 1_555 1_555 1_555 yes
F(4) C(7) C(8) 111(1) 1_555 1_555 1_555 yes
F(5) C(7) F(6) 37(5) 1_555 1_555 1_555 yes
F(5) C(7) C(8) 114(2) 1_555 1_555 1_555 yes
F(6) C(7) C(8) 106(1) 1_555 1_555 1_555 yes
O(1) C(8) C(7) 114.0(9) 1_555 1_555 1_555 yes
O(1) C(8) C(9) 129.6(7) 1_555 1_555 1_555 yes
C(7) C(8) C(9) 116.3(9) 1_555 1_555 1_555 yes
C(8) C(9) C(10) 122.0(7) 1_555 1_555 1_555 yes
C(8) C(9) H(5) 119.4(9) 1_555 1_555 1_555 no
C(10) C(9) H(5) 118.6(9) 1_555 1_555 1_555 no
O(2) C(10) C(9) 129.9(7) 1_555 1_555 1_555 yes
O(2) C(10) C(11) 113.5(8) 1_555 1_555 1_555 yes
C(9) C(10) C(11) 116.6(8) 1_555 1_555 1_555 yes
F(7) C(11) F(8) 104.6(7) 1_555 1_555 1_555 yes
F(7) C(11) F(9) 106.5(9) 1_555 1_555 1_555 yes
F(7) C(11) C(10) 109.7(7) 1_555 1_555 1_555 yes
F(8) C(11) F(9) 107.8(8) 1_555 1_555 1_555 yes
F(8) C(11) C(10) 115.3(9) 1_555 1_555 1_555 yes
F(9) C(11) C(10) 112.4(7) 1_555 1_555 1_555 yes
C(13) C(12) C(24) 59(1) 1_555 1_555 1_555 yes
C(13) C(12) C(25) 30(1) 1_555 1_555 1_555 yes
C(24) C(12) C(25) 28(1) 1_555 1_555 1_555 yes
C(12) C(13) C(14) 170(4) 1_555 1_555 1_555 yes
C(12) C(13) C(15) 175(2) 1_555 1_555 1_555 yes
C(12) C(13) C(24) 62(1) 1_555 1_555 1_555 yes
C(12) C(13) C(25) 59(2) 1_555 1_555 1_555 yes
C(14) C(13) C(15) 13(2) 1_555 1_555 1_555 yes
C(14) C(13) C(24) 127(3) 1_555 1_555 1_555 yes
C(14) C(13) C(25) 129(4) 1_555 1_555 1_555 yes
C(15) C(13) C(24) 114(1) 1_555 1_555 1_555 yes
C(15) C(13) C(25) 116(2) 1_555 1_555 1_555 yes
C(24) C(13) C(25) 2(2) 1_555 1_555 1_555 yes
C(13) C(14) C(15) 151(5) 1_555 1_555 1_555 yes
C(13) C(14) C(16) 131(3) 1_555 1_555 1_555 yes
C(13) C(14) C(25) 24(2) 1_555 1_555 1_555 yes
C(15) C(14) C(16) 21(2) 1_555 1_555 1_555 yes
C(15) C(14) C(25) 127(3) 1_555 1_555 1_555 yes
C(16) C(14) C(25) 107(1) 1_555 1_555 1_555 yes
C(13) C(15) C(14) 14(2) 1_555 1_555 1_555 yes
C(13) C(15) C(16) 125(3) 1_555 1_555 1_555 yes
C(13) C(15) C(17) 127(2) 1_555 1_555 1_555 yes
C(13) C(15) C(18) 104(1) 1_555 1_555 1_555 yes
C(14) C(15) C(16) 138(5) 1_555 1_555 1_555 yes
C(14) C(15) C(17) 140(3) 1_555 1_555 1_555 yes
C(14) C(15) C(18) 118(3) 1_555 1_555 1_555 yes
C(16) C(15) C(17) 2(3) 1_555 1_555 1_555 yes
C(16) C(15) C(18) 20(2) 1_555 1_555 1_555 yes
C(17) C(15) C(18) 22(1) 1_555 1_555 1_555 yes
C(14) C(16) C(15) 20(2) 1_555 1_555 1_555 yes
C(14) C(16) C(17) 163(4) 1_555 1_555 1_555 yes
C(14) C(16) C(18) 122(3) 1_555 1_555 1_555 yes
C(15) C(16) C(17) 175(6) 1_555 1_555 1_555 yes
C(15) C(16) C(18) 141(5) 1_555 1_555 1_555 yes
C(17) C(16) C(18) 41(3) 1_555 1_555 1_555 yes
C(15) C(17) C(16) 1(3) 1_555 1_555 1_555 yes
C(15) C(17) C(18) 78(5) 1_555 1_555 1_555 yes
C(15) C(17) C(19) 108(2) 1_555 1_555 1_555 yes
C(15) C(17) C(21) 89(1) 1_555 1_555 1_555 yes
C(16) C(17) C(18) 76(5) 1_555 1_555 1_555 yes
C(16) C(17) C(19) 106(4) 1_555 1_555 1_555 yes
C(16) C(17) C(21) 87(3) 1_555 1_555 1_555 yes
C(18) C(17) C(19) 30(4) 1_555 1_555 1_555 yes
C(18) C(17) C(21) 11(4) 1_555 1_555 1_555 yes
C(19) C(17) C(21) 19(1) 1_555 1_555 1_555 yes
C(15) C(18) C(16) 17(2) 1_555 1_555 1_555 yes
C(15) C(18) C(17) 79(6) 1_555 1_555 1_555 yes
C(15) C(18) C(19) 151(3) 1_555 1_555 1_555 yes
C(15) C(18) C(21) 117(3) 1_555 1_555 1_555 yes
C(16) C(18) C(17) 61(4) 1_555 1_555 1_555 yes
C(16) C(18) C(19) 168(5) 1_555 1_555 1_555 yes
C(16) C(18) C(21) 135(4) 1_555 1_555 1_555 yes
C(17) C(18) C(19) 129(7) 1_555 1_555 1_555 yes
C(17) C(18) C(21) 161(7) 1_555 1_555 1_555 yes
C(19) C(18) C(21) 33(2) 1_555 1_555 1_555 yes
C(17) C(19) C(18) 19(3) 1_555 1_555 1_555 yes
C(17) C(19) C(20) 117(2) 1_555 1_555 1_555 yes
C(17) C(19) C(21) 110(4) 1_555 1_555 1_555 yes
C(17) C(19) C(22) 127(2) 1_555 1_555 1_555 yes
C(18) C(19) C(20) 136(3) 1_555 1_555 1_555 yes
C(18) C(19) C(21) 90(3) 1_555 1_555 1_555 yes
C(18) C(19) C(22) 107(3) 1_555 1_555 1_555 yes
C(20) C(19) C(21) 132(4) 1_555 1_555 1_555 yes
C(20) C(19) C(22) 115(2) 1_555 1_555 1_555 yes
C(21) C(19) C(22) 16(3) 1_555 1_555 1_555 yes
C(19) C(20) C(21) 15(1) 1_555 1_555 1_555 yes
C(17) C(21) C(18) 6(2) 1_555 1_555 1_555 yes
C(17) C(21) C(19) 50(3) 1_555 1_555 1_555 yes
C(17) C(21) C(20) 82(2) 1_555 1_555 1_555 yes
C(17) C(21) C(22) 158(2) 1_555 1_555 1_555 yes
C(17) C(21) C(23) 127(2) 1_555 1_555 1_555 yes
C(18) C(21) C(19) 56(3) 1_555 1_555 1_555 yes
C(18) C(21) C(20) 88(2) 1_555 1_555 1_555 yes
C(18) C(21) C(22) 152(3) 1_555 1_555 1_555 yes
C(18) C(21) C(23) 121(3) 1_555 1_555 1_555 yes
C(19) C(21) C(20) 32(2) 1_555 1_555 1_555 yes
C(19) C(21) C(22) 151(5) 1_555 1_555 1_555 yes
C(19) C(21) C(23) 174(4) 1_555 1_555 1_555 yes
C(20) C(21) C(22) 119(2) 1_555 1_555 1_555 yes
C(20) C(21) C(23) 150(2) 1_555 1_555 1_555 yes
C(22) C(21) C(23) 31(1) 1_555 1_555 1_555 yes
C(19) C(22) C(21) 11(2) 1_555 1_555 1_555 yes
C(19) C(22) C(23) 114(3) 1_555 1_555 1_555 yes
C(19) C(22) C(24) 122(1) 1_555 1_555 1_555 yes
C(21) C(22) C(23) 102(3) 1_555 1_555 1_555 yes
C(21) C(22) C(24) 110(2) 1_555 1_555 1_555 yes
C(23) C(22) C(24) 7(2) 1_555 1_555 1_555 yes
C(21) C(23) C(22) 45(2) 1_555 1_555 1_555 yes
C(21) C(23) C(24) 146(2) 1_555 1_555 1_555 yes
C(21) C(23) C(25) 117(2) 1_555 1_555 1_555 yes
C(22) C(23) C(24) 166(3) 1_555 1_555 1_555 yes
C(22) C(23) C(25) 163(3) 1_555 1_555 1_555 yes
C(24) C(23) C(25) 29(1) 1_555 1_555 1_555 yes
C(12) C(24) C(13) 58(1) 1_555 1_555 1_555 yes
C(12) C(24) C(22) 176(1) 1_555 1_555 1_555 yes
C(12) C(24) C(23) 171(2) 1_555 1_555 1_555 yes
C(12) C(24) C(25) 56(2) 1_555 1_555 1_555 yes
C(13) C(24) C(22) 120(1) 1_555 1_555 1_555 yes
C(13) C(24) C(23) 114(2) 1_555 1_555 1_555 yes
C(13) C(24) C(25) 2(2) 1_555 1_555 1_555 yes
C(22) C(24) C(23) 5(1) 1_555 1_555 1_555 yes
C(22) C(24) C(25) 122(2) 1_555 1_555 1_555 yes
C(23) C(24) C(25) 116(3) 1_555 1_555 1_555 yes
C(12) C(25) C(13) 89(3) 1_555 1_555 1_555 yes
C(12) C(25) C(14) 114(3) 1_555 1_555 1_555 yes
C(12) C(25) C(23) 128(3) 1_555 1_555 1_555 yes
C(12) C(25) C(24) 95(3) 1_555 1_555 1_555 yes
C(13) C(25) C(14) 25(2) 1_555 1_555 1_555 yes
C(13) C(25) C(23) 142(3) 1_555 1_555 1_555 yes
C(13) C(25) C(24) 175(4) 1_555 1_555 1_555 yes
C(14) C(25) C(23) 116(1) 1_555 1_555 1_555 yes
C(14) C(25) C(24) 149(3) 1_555 1_555 1_555 yes
C(23) C(25) C(24) 33(1) 1_555 1_555 1_555 yes
#------------------------------------------------------------------------------
loop_
_geom_contact_atom_site_label_1
_geom_contact_atom_site_label_2
_geom_contact_distance
_geom_contact_site_symmetry_1
_geom_contact_site_symmetry_2
_geom_contact_publ_flag
F(1) F(9) 3.19(2) 1_555 5_445 ?
F(1) F(7) 3.22(2) 1_555 5_445 ?
F(2) C(15) 3.33(3) 1_555 2_655 ?
F(2) C(14) 3.41(4) 1_555 2_655 ?
F(2) C(24) 3.48(4) 1_555 5_445 ?
F(2) C(12) 3.51(4) 1_555 5_445 ?
F(3) C(2) 3.29(3) 1_555 3_656 ?
F(3) C(3) 3.38(2) 1_555 3_656 ?
F(3) C(24) 3.39(3) 1_555 5_445 ?
F(3) C(6) 3.43(3) 1_555 3_656 ?
F(3) C(23) 3.59(4) 1_555 5_445 ?
F(4) C(2) 3.28(2) 1_555 3_656 ?
F(4) F(9) 3.37(3) 1_555 3_656 ?
F(4) C(1) 3.52(2) 1_555 3_656 ?
F(5) F(9) 3.24(5) 1_555 3_656 ?
F(5) F(8) 3.26(4) 1_555 3_656 ?
F(6) F(9) 3.10(2) 1_555 5_445 ?
F(6) F(8) 3.11(3) 1_555 3_656 ?
F(6) F(9) 3.35(3) 1_555 3_656 ?
F(6) C(22) 3.53(3) 1_555 3_656 ?
F(7) N(3) 3.41(1) 1_555 3_656 ?
F(7) C(17) 3.49(4) 1_555 5_455 ?
F(8) C(24) 3.19(2) 1_555 1_555 ?
F(8) C(23) 3.26(2) 1_555 1_555 ?
F(8) N(3) 3.304(8) 1_555 3_656 ?
F(8) C(4) 3.304(10) 1_555 3_656 ?
F(8) C(22) 3.34(2) 1_555 1_555 ?
F(9) C(20) 3.41(2) 1_555 7_656 ?
F(9) C(22) 3.43(2) 1_555 7_656 ?
N(2) C(4) 2.807(8) 1_555 2_656 ?
N(2) C(2) 3.59(1) 1_555 2_656 ?
N(3) C(3) 3.33(1) 1_555 2_656 ?
N(3) C(4) 3.47(1) 1_555 2_656 ?
N(3) C(12) 3.49(3) 1_555 3_656 ?
N(3) C(12) 3.49(3) 1_555 4_555 ?
C(2) C(3) 3.154(9) 1_555 2_656 ?
C(2) C(2) 3.22(1) 1_555 2_656 ?
C(3) C(3) 2.65(1) 1_555 2_656 ?
C(20) C(20) 3.44(4) 1_555 3_756 ?



