
#######################################################################
#
#                 Cambridge Crystallographic Data Centre
#                                CCDC
#
#######################################################################
#
# If this CIF has been generated from an entry in the Cambridge
# Structural Database, then it will include bibliographic, chemical,
# crystal, experimental, refinement or atomic coordinate data resulting
# from the CCDC's data processing and validation procedures.
#
#######################################################################

data_CSD_CIF_SUXXIS
_audit_creation_date 2001-11-29
_audit_creation_method CSD-ConQuest-V1
_database_code_CSD SUXXIS
_database_code_depnum_ccdc_archive 'CCDC 153037'
_chemical_formula_sum 'C72 H54 Eu1 N21 O27'
_chemical_formula_moiety
;
6(C12 H9 N2 1+),3(N1 O3 1-),Eu1 N6 O18 3-
;
_journal_coden_Cambridge 1295
_journal_volume 4
_journal_year 2001
_journal_page_first 368
_journal_name_full 'Inorg.Chem.Commun. '
loop_
_publ_author_name
"Lijuan Zhang"
"Yunshan Zhou"
"Li Xu"
"Zhi Yu"
"I.A.Razak"
"S.Chantrapromma"
"Hoong-Kun Fun"
"Xiaozeng You"
_chemical_name_systematic
;
bis[tris(Phenanthrolinium) nitrate] nitrate 
hexakis(nitrato-O,O')-europium(iii)
;
_chemical_name_common
;
Teaching Subset: Fundamental Chemistry, Symmetry
;
_cell_volume  10765.346
_exptl_crystal_colour 'black'
_exptl_crystal_density_diffrn 1.663
_exptl_crystal_description 'block'
_diffrn_ambient_temperature 293
#These two values have been output from a single CSD field.
_refine_ls_R_factor_gt 0.031
_refine_ls_wR_factor_gt 0.031
_symmetry_cell_setting rhombohedral
_symmetry_space_group_name_H-M 'R -3 c'
_symmetry_Int_Tables_number 167
loop_
_symmetry_equiv_pos_site_id
_symmetry_equiv_pos_as_xyz
1 x,y,z
2 -y,x-y,z
3 -x+y,-x,z
4 y,x,1/2-z
5 2/3+x,1/3+y,1/3+z
6 2/3-y,1/3+x-y,1/3+z
7 2/3-x+y,1/3-x,1/3+z
8 2/3+y,1/3+x,5/6-z
9 1/3+x,2/3+y,2/3+z
10 1/3+y,2/3+x,1/6-z
11 x-y,-y,1/2-z
12 -x,-x+y,1/2-z
13 1/3-y,2/3+x-y,2/3+z
14 1/3-x+y,2/3-x,2/3+z
15 1/3+x-y,2/3-y,1/6-z
16 1/3-x,2/3-x+y,1/6-z
17 2/3+x-y,1/3-y,5/6-z
18 2/3-x,1/3-x+y,5/6-z
19 -x,-y,-z
20 y,-x+y,-z
21 x-y,x,-z
22 -y,-x,-1/2+z
23 -2/3-x,-1/3-y,-1/3-z
24 -2/3+y,-1/3-x+y,-1/3-z
25 -2/3+x-y,-1/3+x,-1/3-z
26 -2/3-y,-1/3-x,-5/6+z
27 -1/3-x,-2/3-y,-2/3-z
28 -1/3-y,-2/3-x,-1/6+z
29 -x+y,y,-1/2+z
30 x,x-y,-1/2+z
31 -1/3+y,-2/3-x+y,-2/3-z
32 -1/3+x-y,-2/3+x,-2/3-z
33 -1/3-x+y,-2/3+y,-1/6+z
34 -1/3+x,-2/3+x-y,-1/6+z
35 -2/3-x+y,-1/3+y,-5/6+z
36 -2/3+x,-1/3+x-y,-5/6+z
_cell_length_a 17.5721(2)
_cell_length_b 17.5721(2)
_cell_length_c 40.2578(6)
_cell_angle_alpha 90
_cell_angle_beta 90
_cell_angle_gamma 120
_cell_formula_units_Z 6
loop_
_atom_type_symbol
_atom_type_radius_bond
C 0.68
H 0.23
Eu 1.91
N 0.68
O 0.68
loop_
_atom_site_label
_atom_site_type_symbol
_atom_site_fract_x
_atom_site_fract_y
_atom_site_fract_z
Eu1 Eu 0.00000 0.00000 0.00000
O1 O -0.12948(10) 0.0211(1) 0.01714(4)
O2 O -0.11308(13) -0.06863(11) 0.04850(5)
O3 O -0.23434(11) -0.06351(12) 0.05073(5)
N1 N -0.16086(13) -0.03774(13) 0.03923(5)
O4 O 0.60893(16) 0.35367(17) 0.00599(10)
N2 N 0.66670 0.33330 0.00355(12)
O5 O 0.6014(2) 0.33330 0.08330
N3 N 0.66670 0.33330 0.08330
N4 N 0.47477(13) 0.14698(14) 0.03716(5)
H1 H 0.53120 0.17350 0.03730
N5 N 0.56474(14) 0.05609(14) 0.04243(6)
C1 C 0.42953(15) 0.05809(16) 0.03998(5)
C2 C 0.43621(19) 0.19485(19) 0.03414(8)
H2 H 0.47020 0.25570 0.03260
C3 C 0.34548(18) 0.15459(18) 0.03325(8)
H3 H 0.31820 0.18790 0.03070
C4 C 0.29664(16) 0.06541(17) 0.03620(6)
H4 H 0.23560 0.03800 0.03580
C5 C 0.33732(15) 0.01457(16) 0.03982(6)
C6 C 0.28966(16) -0.07886(17) 0.04359(7)
H5 H 0.22860 -0.10850 0.04360
C7 C 0.33206(17) -0.12465(18) 0.04712(7)
H6 H 0.29960 -0.18530 0.04980
C8 C 0.42603(17) -0.08168(16) 0.04680(6)
C9 C 0.47297(19) -0.12686(18) 0.05041(7)
H7 H 0.44320 -0.18750 0.05320
C10 C 0.56170(19) -0.0809(2) 0.04978(7)
H8 H 0.59370 -0.10970 0.05210
C11 C 0.60471(19) 0.0095(2) 0.04560(7)
H9 H 0.66580 0.03950 0.04500
C12 C 0.47560(16) 0.01004(16) 0.04313(6)
O1A O -0.0211(1) -0.15058(10) 0.01714(4)
N1A N 0.03774(13) -0.12312(13) 0.03923(5)
O2A O 0.06863(13) -0.04445(11) 0.04850(5)
O1B O 0.15058(10) 0.12948(10) 0.01714(4)
N1B N 0.12312(13) 0.16086(13) 0.03923(5)
O2B O 0.04445(13) 0.11308(11) 0.04850(5)
O1R O 0.12948(10) -0.0211(1) -0.01714(4)
N1R N 0.16086(13) 0.03774(13) -0.03923(5)
O2R O 0.11308(13) 0.06863(11) -0.04850(5)
O1S O 0.0211(1) 0.15058(10) -0.01714(4)
N1S N -0.03774(13) 0.12312(13) -0.03923(5)
O2S O -0.06863(13) 0.04445(11) -0.04850(5)
O1T O -0.15058(10) -0.12948(10) -0.01714(4)
N1T N -0.12312(13) -0.16086(13) -0.03923(5)
O2T O -0.04445(13) -0.11308(11) -0.04850(5)
O3T O -0.17083(11) -0.23434(12) -0.05073(5)
O3S O -0.06351(11) 0.17083(12) -0.05073(5)
O3R O 0.23434(11) 0.06351(12) -0.05073(5)
O3B O 0.17083(11) 0.23434(12) 0.05073(5)
O3A O 0.06351(11) -0.17083(12) 0.05073(5)
O4B O 0.74474(16) 0.39107(17) 0.00599(10)
O4A O 0.64633(16) 0.25526(17) 0.00599(10)
O5B O 0.7319(2) 0.39860 0.08330
O5A O 0.6667(2) 0.26810 0.08330
#END
