####################################################################### 
# 
# This file contains crystal structure data downloaded from the 
# Cambridge Structural Database (CSD) hosted by the Cambridge 
# Crystallographic Data Centre (CCDC).
# 
# Full information about CCDC data access policies and citation 
# guidelines are available at http://www.ccdc.cam.ac.uk/access/V1 
# 
# Audit and citation data items may have been added by the CCDC. 
# Please retain this information to preserve the provenance of 
# this file and to allow appropriate attribution of the data. 
# 
#######################################################################

data_zn130_2a
_audit_block_doi                 10.5517/cc6n050
_database_code_depnum_ccdc_archive 'CCDC 197971'
loop_
_citation_id
_citation_doi
_citation_year
1 10.1002/anie.200250633 2003
_audit_update_record             
;
2002-11-19 deposited with the CCDC.	2024-07-13 downloaded from the CCDC.
;

_audit_creation_method           SHELXL-97
_chemical_name_systematic        
;
?
;
_chemical_name_common            ?
_chemical_melting_point          ?
_chemical_formula_moiety         
;
Zn1 C6 H8 O8
;
_chemical_formula_sum            'C6 H8 O8 Zn'
_chemical_formula_weight         273.49

loop_
_atom_type_symbol
_atom_type_description
_atom_type_scat_dispersion_real
_atom_type_scat_dispersion_imag
_atom_type_scat_source
C C 0.0033 0.0016 'International Tables Vol C Tables 4.2.6.8 and 6.1.1.4'
H H 0.0000 0.0000 'International Tables Vol C Tables 4.2.6.8 and 6.1.1.4'
O O 0.0106 0.0060 'International Tables Vol C Tables 4.2.6.8 and 6.1.1.4'
Zn Zn 0.2839 1.4301 'International Tables Vol C Tables 4.2.6.8 and 6.1.1.4'

_symmetry_cell_setting           Tetragonal
_symmetry_space_group_name_H-M   P4(1)2(1)2

loop_
_symmetry_equiv_pos_as_xyz
'x, y, z'
'-x, -y, z+1/2'
'-y+1/2, x+1/2, z+1/4'
'y+1/2, -x+1/2, z+3/4'
'-x+1/2, y+1/2, -z+1/4'
'x+1/2, -y+1/2, -z+3/4'
'y, x, -z'
'-y, -x, -z+1/2'

_cell_length_a                   19.1245(8)
_cell_length_b                   19.1245(8)
_cell_length_c                   5.7338(5)
_cell_angle_alpha                90.00
_cell_angle_beta                 90.00
_cell_angle_gamma                90.00
_cell_volume                     2097.1(2)
_cell_formula_units_Z            8
_cell_measurement_temperature    293(2)
_cell_measurement_reflns_used    3110
_cell_measurement_theta_min      2.4
_cell_measurement_theta_max      25.5

_exptl_crystal_description       rod
_exptl_crystal_colour            colourless
_exptl_crystal_size_max          0.28
_exptl_crystal_size_mid          0.08
_exptl_crystal_size_min          0.08
_exptl_crystal_density_meas      ?
_exptl_crystal_density_diffrn    1.732
_exptl_crystal_density_method    'not measured'
_exptl_crystal_F_000             1104
_exptl_absorpt_coefficient_mu    2.363
_exptl_absorpt_correction_type   multi-scan
_exptl_absorpt_correction_T_min  0.676
_exptl_absorpt_correction_T_max  1.000
_exptl_absorpt_process_details   
;
Sheldrick, G. M., SADABS
;

_exptl_special_details           
;
The crystal was placed in a Lindeman tube and heated in an oil bath at
130 C under vacuum. The tube was sealed under vacuum and placed on the
diffractometer.
;

_diffrn_ambient_temperature      293(2)
_diffrn_radiation_wavelength     0.71073
_diffrn_radiation_type           MoK\a
_diffrn_radiation_source         'sealed tube'
_diffrn_radiation_monochromator  graphite
_diffrn_measurement_device_type  'CCD area detector'
_diffrn_measurement_method       'phi and omega scans'
_diffrn_detector_area_resol_mean ?
_diffrn_standards_number         ?
_diffrn_standards_interval_count ?
_diffrn_standards_interval_time  ?
_diffrn_standards_decay_%        ?
_diffrn_reflns_number            13289
_diffrn_reflns_av_R_equivalents  0.0607
_diffrn_reflns_av_sigmaI/netI    0.0464
_diffrn_reflns_limit_h_min       -24
_diffrn_reflns_limit_h_max       19
_diffrn_reflns_limit_k_min       -22
_diffrn_reflns_limit_k_max       24
_diffrn_reflns_limit_l_min       -7
_diffrn_reflns_limit_l_max       7
_diffrn_reflns_theta_min         2.13
_diffrn_reflns_theta_max         27.49
_reflns_number_total             2410
_reflns_number_gt                2137
_reflns_threshold_expression     >2sigma(I)

_computing_data_collection       'Bruker SMART'
_computing_cell_refinement       'Bruker SMART'
_computing_data_reduction        'Bruker SAINT'
_computing_structure_solution    'Bruker SHELXTL'
_computing_structure_refinement  'SHELXL-97 (Sheldrick, 1997)'
_computing_molecular_graphics    ?
_computing_publication_material  ?

_refine_special_details          
;
Residual peaks of electron density suggest some degree of disorder of the
saccharate ligand upon removal of water from the smaller channels.
Although a satisfactory model for this disorder was not obtained it is
clear that the coordinates reported correspond to the major orientation
of the ligand. This disorder is likely to be the reason for the elevated
agreement values.
It is important to note that upon exposure to a moist atmosphere the
crystal returns to its former condition. A data collection on the
rehydrated crystal indicated no disorder of the metal-ligand network.
The structural solution was essentially the same as that obtained for the
hydrated non-evacuated crystal.

Refinement of F^2^ against ALL reflections.  The weighted R-factor wR and
goodness of fit S are based on F^2^, conventional R-factors R are based
on F, with F set to zero for negative F^2^. The threshold expression of
F^2^ > 2sigma(F^2^) is used only for calculating R-factors(gt) etc. and is
not relevant to the choice of reflections for refinement.  R-factors based
on F^2^ are statistically about twice as large as those based on F, and R-
factors based on ALL data will be even larger.
;

_refine_ls_structure_factor_coef Fsqd
_refine_ls_matrix_type           full
_refine_ls_weighting_scheme      calc
_refine_ls_weighting_details     
'calc w=1/[\s^2^(Fo^2^)+(0.0000P)^2^+196.1000P] where P=(Fo^2^+2Fc^2^)/3'
_atom_sites_solution_primary     direct
_atom_sites_solution_secondary   difmap
_atom_sites_solution_hydrogens   geom
_refine_ls_hydrogen_treatment    mixed
_refine_ls_extinction_method     none
_refine_ls_extinction_coef       ?
_refine_ls_abs_structure_details 'Flack H D (1983), Acta Cryst. A39, 876-881'
_refine_ls_abs_structure_Flack   0.32(15)
_refine_ls_number_reflns         2410
_refine_ls_number_parameters     92
_refine_ls_number_restraints     0
_refine_ls_R_factor_all          0.1849
_refine_ls_R_factor_gt           0.1738
_refine_ls_wR_factor_ref         0.3835
_refine_ls_wR_factor_gt          0.3762
_refine_ls_goodness_of_fit_ref   1.138
_refine_ls_restrained_S_all      1.138
_refine_ls_shift/su_max          0.000
_refine_ls_shift/su_mean         0.000

loop_
_atom_site_label
_atom_site_type_symbol
_atom_site_fract_x
_atom_site_fract_y
_atom_site_fract_z
_atom_site_U_iso_or_equiv
_atom_site_adp_type
_atom_site_occupancy
_atom_site_symmetry_multiplicity
_atom_site_calc_flag
_atom_site_refinement_flags
_atom_site_disorder_assembly
_atom_site_disorder_group
Zn1 Zn 0.27028(11) 0.72972(11) 0.7500 0.0265(8) Uani 1 2 d S . .
Zn2 Zn 0.72113(10) 0.72113(10) 0.5000 0.0222(7) Uani 1 2 d S . .
O1A O 0.3162(8) 0.7566(8) 1.064(3) 0.031(4) Uiso 1 1 d . . .
O1B O 0.4081(8) 0.7881(8) 1.260(3) 0.033(3) Uiso 1 1 d . . .
O2 O 0.3782(11) 0.7346(14) 0.682(3) 0.056(6) Uani 1 1 d . . .
O3 O 0.4445(10) 0.6266(10) 0.929(4) 0.050(6) Uani 1 1 d . . .
O4 O 0.5726(12) 0.6261(12) 0.728(4) 0.062(6) Uani 1 1 d . . .
O5 O 0.6159(8) 0.7305(8) 0.422(2) 0.023(3) Uiso 1 1 d . . .
O6A O 0.6818(7) 0.7569(7) 0.809(2) 0.023(3) Uiso 1 1 d . . .
O6B O 0.5774(13) 0.7723(14) 1.022(5) 0.070(6) Uiso 1 1 d . . .
C1 C 0.3770(12) 0.7595(12) 1.095(4) 0.030(5) Uiso 1 1 d . . .
C2 C 0.4303(13) 0.7536(14) 0.867(5) 0.034(5) Uiso 1 1 d . . .
H2 H 0.4573 0.7961 0.8349 0.041 Uiso 1 1 calc R . .
C3 C 0.4745(17) 0.6869(16) 0.895(6) 0.049(7) Uiso 1 1 d . . .
H3 H 0.5036 0.6949 1.0327 0.058 Uiso 1 1 calc R . .
C4 C 0.5267(13) 0.6859(14) 0.682(5) 0.036(6) Uani 1 1 d . . .
H4 H 0.4992 0.6743 0.5433 0.043 Uiso 1 1 calc R . .
C5 C 0.5767(12) 0.7488(13) 0.613(4) 0.029(5) Uiso 1 1 d . . .
H5 H 0.5470 0.7884 0.5686 0.035 Uiso 1 1 calc R . .
C6 C 0.6163(12) 0.7695(14) 0.830(3) 0.029(5) Uani 1 1 d . . .

loop_
_atom_site_aniso_label
_atom_site_aniso_U_11
_atom_site_aniso_U_22
_atom_site_aniso_U_33
_atom_site_aniso_U_23
_atom_site_aniso_U_13
_atom_site_aniso_U_12
Zn1 0.0285(11) 0.0285(11) 0.0225(15) 0.0028(12) 0.0028(12) 0.0176(14)
Zn2 0.0265(10) 0.0265(10) 0.0137(13) 0.0000(11) 0.0000(11) -0.0181(13)
O2 0.058(12) 0.100(18) 0.009(7) -0.003(10) -0.003(7) 0.031(13)
O3 0.047(11) 0.046(11) 0.057(14) 0.022(10) -0.019(10) -0.014(9)
O4 0.067(14) 0.061(13) 0.060(14) 0.003(14) 0.003(14) -0.034(10)
C4 0.035(13) 0.036(13) 0.038(14) 0.000(10) 0.011(10) -0.014(11)
C6 0.032(11) 0.044(14) 0.010(8) -0.011(9) 0.003(8) -0.010(11)

_geom_special_details            
;
All esds (except the esd in the dihedral angle between two l.s. planes)
are estimated using the full covariance matrix.  The cell esds are taken
into account individually in the estimation of esds in distances, angles
and torsion angles; correlations between esds in cell parameters are only
used when they are defined by crystal symmetry.  An approximate (isotropic)
treatment of cell esds is used for estimating esds involving l.s. planes.
;

loop_
_geom_bond_atom_site_label_1
_geom_bond_atom_site_label_2
_geom_bond_distance
_geom_bond_site_symmetry_2
_geom_bond_publ_flag
Zn1 O6A 2.031(14) 6_466 ?
Zn1 O6A 2.031(14) 4_464 ?
Zn1 O1A 2.066(16) . ?
Zn1 O1A 2.066(16) 8_666 ?
Zn1 O2 2.10(2) . ?
Zn1 O2 2.10(2) 8_666 ?
Zn2 O6A 2.045(14) . ?
Zn2 O6A 2.045(14) 7_556 ?
Zn2 O5 2.070(15) . ?
Zn2 O5 2.070(15) 7_556 ?
Zn2 O1A 2.152(16) 6_566 ?
Zn2 O1A 2.152(16) 3_654 ?
O1A C1 1.18(3) . ?
O1A Zn2 2.152(16) 4_465 ?
O1B C1 1.24(3) . ?
O2 C2 1.50(3) . ?
O3 C3 1.30(3) . ?
O4 C4 1.46(4) . ?
O5 C5 1.38(3) . ?
O6A C6 1.28(3) . ?
O6A Zn1 2.031(14) 3_655 ?
O6B C6 1.33(3) . ?
C1 C2 1.66(3) . ?
C2 C3 1.54(4) . ?
C3 C4 1.57(4) . ?
C4 C5 1.59(3) . ?
C5 C6 1.51(3) . ?

loop_
_geom_angle_atom_site_label_1
_geom_angle_atom_site_label_2
_geom_angle_atom_site_label_3
_geom_angle
_geom_angle_site_symmetry_1
_geom_angle_site_symmetry_3
_geom_angle_publ_flag
O6A Zn1 O6A 94.6(8) 6_466 4_464 ?
O6A Zn1 O1A 81.7(6) 6_466 . ?
O6A Zn1 O1A 108.3(6) 4_464 . ?
O6A Zn1 O1A 108.3(6) 6_466 8_666 ?
O6A Zn1 O1A 81.7(6) 4_464 8_666 ?
O1A Zn1 O1A 165.7(9) . 8_666 ?
O6A Zn1 O2 155.9(6) 6_466 . ?
O6A Zn1 O2 89.2(8) 4_464 . ?
O1A Zn1 O2 74.5(6) . . ?
O1A Zn1 O2 95.8(7) 8_666 . ?
O6A Zn1 O2 89.2(8) 6_466 8_666 ?
O6A Zn1 O2 155.9(6) 4_464 8_666 ?
O1A Zn1 O2 95.8(7) . 8_666 ?
O1A Zn1 O2 74.5(6) 8_666 8_666 ?
O2 Zn1 O2 97.0(15) . 8_666 ?
O6A Zn2 O6A 177.3(8) . 7_556 ?
O6A Zn2 O5 78.6(6) . . ?
O6A Zn2 O5 99.7(6) 7_556 . ?
O6A Zn2 O5 99.7(6) . 7_556 ?
O6A Zn2 O5 78.6(6) 7_556 7_556 ?
O5 Zn2 O5 102.4(9) . 7_556 ?
O6A Zn2 O1A 79.3(6) . 6_566 ?
O6A Zn2 O1A 102.8(6) 7_556 6_566 ?
O5 Zn2 O1A 155.9(6) . 6_566 ?
O5 Zn2 O1A 90.6(6) 7_556 6_566 ?
O6A Zn2 O1A 102.8(6) . 3_654 ?
O6A Zn2 O1A 79.3(6) 7_556 3_654 ?
O5 Zn2 O1A 90.6(6) . 3_654 ?
O5 Zn2 O1A 155.9(6) 7_556 3_654 ?
O1A Zn2 O1A 85.0(8) 6_566 3_654 ?
C1 O1A Zn1 124.5(16) . . ?
C1 O1A Zn2 138.4(17) . 4_465 ?
Zn1 O1A Zn2 97.0(6) . 4_465 ?
C2 O2 Zn1 122.0(14) . . ?
C5 O5 Zn2 112.2(13) . . ?
C6 O6A Zn1 137.9(13) . 3_655 ?
C6 O6A Zn2 120.2(13) . . ?
Zn1 O6A Zn2 101.6(6) 3_655 . ?
O1A C1 O1B 128(2) . . ?
O1A C1 C2 119(2) . . ?
O1B C1 C2 110(2) . . ?
O2 C2 C3 104(2) . . ?
O2 C2 C1 99.7(17) . . ?
C3 C2 C1 108(2) . . ?
O3 C3 C2 121(3) . . ?
O3 C3 C4 113(3) . . ?
C2 C3 C4 106(3) . . ?
O4 C4 C3 105(2) . . ?
O4 C4 C5 106.0(19) . . ?
C3 C4 C5 124(2) . . ?
O5 C5 C6 116.8(19) . . ?
O5 C5 C4 109(2) . . ?
C6 C5 C4 107(2) . . ?
O6A C6 O6B 129(2) . . ?
O6A C6 C5 111.5(18) . . ?
O6B C6 C5 114(2) . . ?

_diffrn_measured_fraction_theta_max 0.999
_diffrn_reflns_theta_full        27.49
_diffrn_measured_fraction_theta_full 0.999
_refine_diff_density_max         2.420
_refine_diff_density_min         -3.357
_refine_diff_density_rms         0.406

