####################################################################### 
# 
# This file contains crystal structure data downloaded from the 
# Cambridge Structural Database (CSD) hosted by the Cambridge 
# Crystallographic Data Centre (CCDC).
# 
# Full information about CCDC data access policies and citation 
# guidelines are available at http://www.ccdc.cam.ac.uk/access/V1 
# 
# Audit and citation data items may have been added by the CCDC. 
# Please retain this information to preserve the provenance of 
# this file and to allow appropriate attribution of the data. 
# 
#######################################################################

data_Lin2
_audit_block_doi                 10.5517/cctxjcl
_database_code_depnum_ccdc_archive 'CCDC 772190'
loop_
_citation_id
_citation_doi
_citation_year
1 10.1002/anie.201003377 2010
_audit_update_record             
;
2010-04-04 deposited with the CCDC.	2024-07-13 downloaded from the CCDC.
;
#TrackingRef 'Lin2.cif'



_audit_creation_method           SHELXL-97
_chemical_name_systematic        
;
?
;
_chemical_name_common            ?
_chemical_melting_point          ?
_chemical_formula_moiety         ?
_chemical_formula_sum            'C51 H33 N O12 Zn2'
_chemical_formula_weight         982.52

loop_
_atom_type_symbol
_atom_type_description
_atom_type_scat_dispersion_real
_atom_type_scat_dispersion_imag
_atom_type_scat_source
C C 0.0033 0.0016 'International Tables Vol C Tables 4.2.6.8 and 6.1.1.4'
H H 0.0000 0.0000 'International Tables Vol C Tables 4.2.6.8 and 6.1.1.4'
N N 0.0061 0.0033 'International Tables Vol C Tables 4.2.6.8 and 6.1.1.4'
O O 0.0106 0.0060 'International Tables Vol C Tables 4.2.6.8 and 6.1.1.4'
Zn Zn 0.2839 1.4301 'International Tables Vol C Tables 4.2.6.8 and 6.1.1.4'

_symmetry_cell_setting           Orthorhombic
_symmetry_space_group_name_H-M   I212121

loop_
_symmetry_equiv_pos_as_xyz
'x, y, z'
'-x+1/2, -y, z+1/2'
'-x, y+1/2, -z+1/2'
'x+1/2, -y+1/2, -z'
'x+1/2, y+1/2, z+1/2'
'-x+1, -y+1/2, z+1'
'-x+1/2, y+1, -z+1'
'x+1, -y+1, -z+1/2'

_cell_length_a                   12.7526(10)
_cell_length_b                   26.9066(19)
_cell_length_c                   44.199(3)
_cell_angle_alpha                90.00
_cell_angle_beta                 90.00
_cell_angle_gamma                90.00
_cell_volume                     15166(2)
_cell_formula_units_Z            8
_cell_measurement_temperature    100(2)
_cell_measurement_reflns_used    ?
_cell_measurement_theta_min      ?
_cell_measurement_theta_max      ?

_exptl_crystal_description       block
_exptl_crystal_colour            colorless
_exptl_crystal_size_max          0.6
_exptl_crystal_size_mid          0.6
_exptl_crystal_size_min          0.4
_exptl_crystal_density_meas      ?
_exptl_crystal_density_diffrn    0.861
_exptl_crystal_density_method    'not measured'
_exptl_crystal_F_000             4016
_exptl_absorpt_coefficient_mu    0.672
_exptl_absorpt_correction_type   multi-scan
_exptl_absorpt_correction_T_min  0.77
_exptl_absorpt_correction_T_max  0.99
_exptl_absorpt_process_details   SADABS

_exptl_special_details           
;
?
;

_diffrn_ambient_temperature      100(2)
_diffrn_radiation_wavelength     0.71073
_diffrn_radiation_type           MoK\a
_diffrn_radiation_source         'fine-focus sealed tube'
_diffrn_radiation_monochromator  graphite
_diffrn_measurement_device_type  ?
_diffrn_measurement_method       ?
_diffrn_detector_area_resol_mean ?
_diffrn_standards_number         ?
_diffrn_standards_interval_count ?
_diffrn_standards_interval_time  ?
_diffrn_standards_decay_%        ?
_diffrn_reflns_number            18466
_diffrn_reflns_av_R_equivalents  0.0578
_diffrn_reflns_av_sigmaI/netI    0.1041
_diffrn_reflns_limit_h_min       -12
_diffrn_reflns_limit_h_max       14
_diffrn_reflns_limit_k_min       -24
_diffrn_reflns_limit_k_max       25
_diffrn_reflns_limit_l_min       -48
_diffrn_reflns_limit_l_max       19
_diffrn_reflns_theta_min         2.11
_diffrn_reflns_theta_max         23.16
_reflns_number_total             9850
_reflns_number_gt                6695
_reflns_threshold_expression     >2sigma(I)

_computing_data_collection       ?
_computing_cell_refinement       ?
_computing_data_reduction        ?
_computing_structure_solution    'SHELXS-97 (Sheldrick, 1990)'
_computing_structure_refinement  'SHELXL-97 (Sheldrick, 1997)'
_computing_molecular_graphics    ?
_computing_publication_material  ?

_refine_special_details          
;
Refinement of F^2^ against ALL reflections. The weighted R-factor wR and
goodness of fit S are based on F^2^, conventional R-factors R are based
on F, with F set to zero for negative F^2^. The threshold expression of
F^2^ > 2sigma(F^2^) is used only for calculating R-factors(gt) etc. and is
not relevant to the choice of reflections for refinement. R-factors based
on F^2^ are statistically about twice as large as those based on F, and R-
factors based on ALL data will be even larger.
;

_refine_ls_structure_factor_coef Fsqd
_refine_ls_matrix_type           full
_refine_ls_weighting_scheme      calc
_refine_ls_weighting_details     
'calc w=1/[\s^2^(Fo^2^)+(0.0500P)^2^+0.0200P] where P=(Fo^2^+2Fc^2^)/3'
_atom_sites_solution_primary     direct
_atom_sites_solution_secondary   difmap
_atom_sites_solution_hydrogens   geom
_refine_ls_hydrogen_treatment    constr
_refine_ls_extinction_method     none
_refine_ls_extinction_coef       ?
_refine_ls_abs_structure_details 'Flack H D (1983), Acta Cryst. A39, 876-881'
_refine_ls_abs_structure_Flack   0.101(14)
_refine_ls_number_reflns         9850
_refine_ls_number_parameters     565
_refine_ls_number_restraints     0
_refine_ls_R_factor_all          0.0761
_refine_ls_R_factor_gt           0.0492
_refine_ls_wR_factor_ref         0.1088
_refine_ls_wR_factor_gt          0.1011
_refine_ls_goodness_of_fit_ref   0.890
_refine_ls_restrained_S_all      0.890
_refine_ls_shift/su_max          0.000
_refine_ls_shift/su_mean         0.000

loop_
_atom_site_label
_atom_site_type_symbol
_atom_site_fract_x
_atom_site_fract_y
_atom_site_fract_z
_atom_site_U_iso_or_equiv
_atom_site_adp_type
_atom_site_occupancy
_atom_site_symmetry_multiplicity
_atom_site_calc_flag
_atom_site_refinement_flags
_atom_site_disorder_assembly
_atom_site_disorder_group
Zn1 Zn 0.57996(5) 0.54605(3) 0.927513(12) 0.04212(19) Uani 1 1 d . . .
Zn2 Zn 0.40281(5) 0.63291(2) 0.935190(12) 0.04197(19) Uani 1 1 d . . .
O1 O -0.1840(3) 0.35087(15) 0.70980(8) 0.0589(13) Uani 1 1 d . . .
H1A H -0.1438 0.3406 0.6961 0.088 Uiso 1 1 calc R . .
O2 O 0.1010(3) 0.30034(14) 0.74346(6) 0.0517(10) Uani 1 1 d . . .
H2A H 0.1399 0.2755 0.7459 0.077 Uiso 1 1 calc R . .
O3 O 0.3360(3) 0.59702(17) 0.90172(8) 0.0563(12) Uani 1 1 d . . .
O4 O 0.4610(3) 0.54001(19) 0.89839(10) 0.0721(14) Uani 1 1 d . . .
O5 O -0.3828(7) 0.4376(2) 0.90286(15) 0.170(4) Uani 1 1 d . . .
O6 O -0.3114(3) 0.51549(17) 0.90165(9) 0.0588(12) Uani 1 1 d . . .
O7 O 0.3745(3) 0.1120(2) 0.58884(9) 0.0657(14) Uani 1 1 d . . .
O8 O 0.4850(3) 0.17369(15) 0.57986(9) 0.0576(12) Uani 1 1 d . . .
O9 O 0.0492(4) 0.41339(16) 0.46573(8) 0.0668(14) Uani 1 1 d . . .
O10 O -0.1155(4) 0.43315(16) 0.47101(8) 0.0673(14) Uani 1 1 d . . .
O11 O 0.5281(4) 0.47601(17) 0.94625(11) 0.1016(18) Uani 1 1 d . . .
C1 C 0.3783(5) 0.5588(3) 0.88980(12) 0.0502(18) Uani 1 1 d . . .
C2 C 0.3249(4) 0.5347(2) 0.86419(12) 0.0484(17) Uani 1 1 d . . .
C3 C 0.2293(5) 0.5549(2) 0.85329(13) 0.0585(19) Uani 1 1 d . . .
H3A H 0.2011 0.5845 0.8617 0.070 Uiso 1 1 calc R . .
C4 C 0.1775(5) 0.5299(2) 0.82988(13) 0.0591(19) Uani 1 1 d . . .
H4A H 0.1121 0.5427 0.8232 0.071 Uiso 1 1 calc R . .
C5 C 0.2160(5) 0.4879(3) 0.81606(11) 0.0520(18) Uani 1 1 d . . .
C6 C 0.3116(5) 0.4700(3) 0.82709(13) 0.064(2) Uani 1 1 d . . .
H6A H 0.3408 0.4407 0.8184 0.077 Uiso 1 1 calc R . .
C7 C 0.3639(5) 0.4933(3) 0.84989(14) 0.064(2) Uani 1 1 d . . .
H7A H 0.4298 0.4804 0.8562 0.077 Uiso 1 1 calc R . .
C8 C 0.1549(5) 0.4611(2) 0.79321(12) 0.0485(17) Uani 1 1 d . . .
C9 C 0.0489(5) 0.4577(2) 0.79444(12) 0.0531(18) Uani 1 1 d . . .
H9A H 0.0145 0.4740 0.8107 0.064 Uiso 1 1 calc R . .
C10 C -0.0141(5) 0.4320(2) 0.77372(12) 0.0468(17) Uani 1 1 d . . .
C11 C -0.1242(5) 0.4239(3) 0.77644(13) 0.063(2) Uani 1 1 d . . .
C12 C -0.1794(5) 0.3991(2) 0.75485(12) 0.0575(19) Uani 1 1 d . . .
H12A H -0.2535 0.3967 0.7566 0.069 Uiso 1 1 calc R . .
C13 C -0.1287(5) 0.3769(2) 0.73011(11) 0.0472(18) Uani 1 1 d . . .
C14 C -0.0223(5) 0.3804(2) 0.72678(11) 0.0446(17) Uani 1 1 d . . .
C15 C 0.0361(4) 0.4087(2) 0.74837(11) 0.0396(16) Uani 1 1 d . . .
C16 C 0.1456(5) 0.4141(2) 0.74641(13) 0.0464(17) Uani 1 1 d . . .
H16A H 0.1808 0.3995 0.7297 0.056 Uiso 1 1 calc R . .
C17 C 0.2054(5) 0.4399(2) 0.76787(12) 0.0469(17) Uani 1 1 d . . .
H17A H 0.2791 0.4431 0.7654 0.056 Uiso 1 1 calc R . .
C18 C -0.1799(5) 0.4401(4) 0.80481(16) 0.075(2) Uani 1 1 d . . .
C19 C -0.2205(8) 0.3995(4) 0.82354(19) 0.135(4) Uani 1 1 d . . .
H19A H -0.2102 0.3659 0.8176 0.162 Uiso 1 1 calc R . .
C20 C -0.2747(8) 0.4106(4) 0.85031(18) 0.134(4) Uani 1 1 d . . .
H20A H -0.3096 0.3854 0.8615 0.160 Uiso 1 1 calc R . .
C21 C -0.2755(6) 0.4617(3) 0.86019(16) 0.087(3) Uani 1 1 d . . .
C22 C -0.2418(5) 0.4990(3) 0.84277(14) 0.066(2) Uani 1 1 d . . .
H22A H -0.2495 0.5326 0.8491 0.080 Uiso 1 1 calc R . .
C23 C -0.1937(5) 0.4871(3) 0.81419(16) 0.079(2) Uani 1 1 d . . .
H23A H -0.1708 0.5135 0.8015 0.095 Uiso 1 1 calc R . .
C24 C 0.0354(4) 0.3499(2) 0.70401(11) 0.0350(15) Uani 1 1 d . . .
C25 C 0.0916(5) 0.3101(2) 0.71336(11) 0.0423(15) Uani 1 1 d . . .
C26 C 0.1481(4) 0.2798(2) 0.69200(11) 0.0347(14) Uani 1 1 d . . .
H26A H 0.1889 0.2526 0.6990 0.042 Uiso 1 1 calc R . .
C27 C 0.1436(4) 0.2897(2) 0.66224(11) 0.0357(14) Uani 1 1 d . . .
C28 C 0.0814(4) 0.3287(2) 0.65072(10) 0.0333(13) Uani 1 1 d . . .
C29 C 0.0675(4) 0.3386(2) 0.61990(10) 0.0322(14) Uani 1 1 d . . .
H29A H 0.1024 0.3181 0.6056 0.039 Uiso 1 1 calc R . .
C30 C 0.0049(4) 0.3772(2) 0.60926(10) 0.0357(14) Uani 1 1 d . . .
C31 C -0.0467(4) 0.4076(2) 0.63081(11) 0.0408(15) Uani 1 1 d . . .
H31A H -0.0880 0.4349 0.6242 0.049 Uiso 1 1 calc R . .
C32 C -0.3239(8) 0.4743(4) 0.8913(2) 0.108(3) Uiso 1 1 d . . .
C33 C -0.0375(4) 0.3979(2) 0.66095(11) 0.0347(14) Uani 1 1 d . . .
H33A H -0.0758 0.4178 0.6749 0.042 Uiso 1 1 calc R . .
C34 C 0.0266(4) 0.3596(2) 0.67219(11) 0.0377(15) Uani 1 1 d . . .
C35 C 0.2065(4) 0.2560(3) 0.64185(11) 0.0421(16) Uani 1 1 d . . .
C36 C 0.2870(5) 0.2755(2) 0.62274(13) 0.0546(18) Uani 1 1 d . . .
H36A H 0.2974 0.3103 0.6212 0.066 Uiso 1 1 calc R . .
C37 C 0.3498(5) 0.2430(3) 0.60643(12) 0.0580(19) Uani 1 1 d . . .
H37A H 0.4051 0.2558 0.5943 0.070 Uiso 1 1 calc R . .
C38 C 0.3327(5) 0.1913(3) 0.60755(12) 0.0439(16) Uani 1 1 d . . .
C39 C 0.2547(4) 0.1731(2) 0.62654(11) 0.0426(16) Uani 1 1 d . . .
H39A H 0.2445 0.1382 0.6281 0.051 Uiso 1 1 calc R . .
C40 C 0.1921(4) 0.2047(3) 0.64307(11) 0.0427(16) Uani 1 1 d . . .
H40A H 0.1382 0.1913 0.6555 0.051 Uiso 1 1 calc R . .
C41 C 0.4028(6) 0.1573(3) 0.59130(12) 0.0560(18) Uani 1 1 d . . .
C42 C 0.0775(5) 0.3795(2) 0.55766(11) 0.0603(18) Uani 1 1 d . . .
H42A H 0.1410 0.3666 0.5657 0.072 Uiso 1 1 calc R . .
C43 C -0.0070(4) 0.3880(2) 0.57653(11) 0.0396(15) Uani 1 1 d . . .
C44 C 0.0697(5) 0.3900(2) 0.52610(12) 0.0618(19) Uani 1 1 d . . .
H44A H 0.1291 0.3861 0.5133 0.074 Uiso 1 1 calc R . .
C45 C -0.0264(5) 0.4060(2) 0.51404(11) 0.0442(16) Uani 1 1 d . . .
C46 C -0.1102(4) 0.4136(2) 0.53330(11) 0.0461(16) Uani 1 1 d . . .
H46A H -0.1742 0.4263 0.5255 0.055 Uiso 1 1 calc R . .
C47 C -0.1018(4) 0.40264(19) 0.56427(10) 0.0422(14) Uani 1 1 d . . .
H47A H -0.1617 0.4053 0.5769 0.051 Uiso 1 1 calc R . .
C48 C -0.0325(6) 0.4177(3) 0.48242(13) 0.0547(19) Uani 1 1 d . . .
O12 O 0.3012(4) 0.68016(18) 0.95180(11) 0.0838(15) Uiso 1 1 d . . .
N1 N 0.2780(7) 0.7570(4) 0.96334(19) 0.148(3) Uiso 1 1 d . . .
C49 C 0.1525(8) 0.7605(4) 0.9521(2) 0.140(4) Uiso 1 1 d . . .
H49A H 0.1332 0.7299 0.9415 0.210 Uiso 1 1 calc R . .
H49B H 0.1438 0.7890 0.9385 0.210 Uiso 1 1 calc R . .
H49C H 0.1072 0.7648 0.9699 0.210 Uiso 1 1 calc R . .
C50 C 0.2960(10) 0.8047(4) 0.9767(2) 0.180(5) Uiso 1 1 d . . .
H50A H 0.2578 0.8302 0.9653 0.271 Uiso 1 1 calc R . .
H50B H 0.3712 0.8122 0.9764 0.271 Uiso 1 1 calc R . .
H50C H 0.2712 0.8045 0.9977 0.271 Uiso 1 1 calc R . .
C51 C 0.3199(4) 0.7031(2) 0.96948(12) 0.0342(13) Uiso 1 1 d . . .
H51A H 0.3572 0.6931 0.9871 0.041 Uiso 1 1 calc R . .

loop_
_atom_site_aniso_label
_atom_site_aniso_U_11
_atom_site_aniso_U_22
_atom_site_aniso_U_33
_atom_site_aniso_U_23
_atom_site_aniso_U_13
_atom_site_aniso_U_12
Zn1 0.0373(4) 0.0616(5) 0.0275(3) -0.0082(3) 0.0058(3) 0.0011(4)
Zn2 0.0321(3) 0.0591(5) 0.0347(3) -0.0090(3) 0.0041(3) -0.0018(3)
O1 0.037(2) 0.103(4) 0.037(2) -0.019(2) 0.0015(19) 0.001(2)
O2 0.063(3) 0.069(3) 0.0222(19) -0.0030(17) 0.002(2) 0.010(3)
O3 0.042(3) 0.085(4) 0.042(2) -0.025(2) -0.009(2) 0.002(2)
O4 0.055(3) 0.091(4) 0.070(3) -0.046(3) -0.028(2) 0.024(3)
O5 0.257(9) 0.074(5) 0.178(6) -0.027(4) 0.154(6) -0.030(5)
O6 0.058(3) 0.053(3) 0.066(3) -0.024(2) 0.020(2) 0.001(2)
O7 0.057(3) 0.075(4) 0.066(3) 0.002(3) 0.033(2) -0.010(3)
O8 0.043(2) 0.062(3) 0.068(3) -0.026(2) 0.021(2) -0.010(2)
O9 0.091(4) 0.079(4) 0.030(2) 0.005(2) 0.007(2) -0.032(3)
O10 0.081(4) 0.098(4) 0.023(2) 0.011(2) -0.009(2) -0.021(3)
O11 0.126(5) 0.071(4) 0.108(4) -0.012(3) 0.049(3) -0.004(3)
C1 0.035(4) 0.088(6) 0.028(3) -0.005(4) 0.001(3) 0.001(4)
C2 0.039(4) 0.074(5) 0.031(3) -0.007(3) -0.005(3) 0.006(3)
C3 0.056(4) 0.071(5) 0.048(4) -0.033(4) -0.015(3) 0.021(4)
C4 0.055(4) 0.067(6) 0.055(4) -0.016(4) -0.015(3) 0.023(4)
C5 0.055(4) 0.076(5) 0.025(3) -0.017(3) -0.004(3) 0.020(4)
C6 0.057(4) 0.086(6) 0.050(4) -0.040(4) -0.029(3) 0.032(4)
C7 0.057(4) 0.078(6) 0.057(4) -0.026(4) -0.021(3) 0.035(4)
C8 0.041(4) 0.064(5) 0.041(4) -0.018(3) -0.018(3) 0.020(3)
C9 0.074(5) 0.059(5) 0.026(3) -0.026(3) 0.002(3) 0.014(4)
C10 0.043(4) 0.065(5) 0.032(3) 0.003(3) -0.013(3) 0.016(3)
C11 0.056(5) 0.091(6) 0.041(4) -0.022(4) 0.016(3) 0.011(4)
C12 0.047(4) 0.091(6) 0.035(4) -0.018(4) -0.005(3) 0.018(4)
C13 0.054(4) 0.067(5) 0.021(3) -0.020(3) -0.007(3) 0.009(3)
C14 0.044(4) 0.066(5) 0.023(3) -0.006(3) 0.002(3) 0.005(3)
C15 0.038(4) 0.067(5) 0.013(3) -0.008(3) 0.002(3) 0.009(3)
C16 0.046(4) 0.057(5) 0.036(3) -0.007(3) -0.004(3) 0.011(3)
C17 0.049(4) 0.055(5) 0.036(3) -0.006(3) -0.003(3) 0.004(3)
C18 0.048(4) 0.110(8) 0.066(5) -0.032(5) 0.011(4) -0.008(4)
C19 0.160(9) 0.145(9) 0.100(7) -0.050(6) 0.080(7) -0.068(7)
C20 0.205(11) 0.101(8) 0.095(6) -0.040(6) 0.085(7) -0.018(7)
C21 0.113(7) 0.086(7) 0.063(5) -0.006(5) 0.038(5) 0.019(5)
C22 0.063(5) 0.086(6) 0.049(4) -0.001(4) 0.022(4) -0.018(4)
C23 0.065(5) 0.103(8) 0.070(5) -0.022(5) 0.022(4) -0.027(5)
C24 0.037(3) 0.046(5) 0.022(3) -0.006(3) -0.001(2) 0.004(3)
C25 0.037(3) 0.061(5) 0.029(3) -0.005(3) -0.008(3) -0.003(3)
C26 0.033(3) 0.047(5) 0.025(3) 0.002(3) -0.002(2) 0.004(3)
C27 0.031(3) 0.041(4) 0.036(3) -0.011(3) 0.001(3) 0.001(3)
C28 0.017(3) 0.054(4) 0.028(3) 0.003(3) 0.003(3) -0.003(3)
C29 0.019(3) 0.048(4) 0.030(3) -0.011(3) 0.002(2) 0.004(3)
C30 0.029(3) 0.049(5) 0.029(3) 0.005(3) 0.002(2) -0.006(3)
C31 0.036(3) 0.054(5) 0.032(3) -0.002(3) -0.001(3) 0.007(3)
C33 0.024(3) 0.046(4) 0.034(3) -0.004(3) 0.005(2) -0.004(3)
C34 0.025(3) 0.056(5) 0.032(3) -0.010(3) -0.007(2) -0.001(3)
C35 0.039(4) 0.062(5) 0.025(3) 0.001(3) 0.007(3) 0.010(3)
C36 0.053(4) 0.042(5) 0.070(4) -0.005(4) 0.013(4) -0.012(3)
C37 0.055(4) 0.072(6) 0.047(4) -0.007(4) 0.036(3) -0.003(4)
C38 0.047(4) 0.048(5) 0.036(3) 0.001(3) 0.006(3) 0.013(3)
C39 0.025(3) 0.068(5) 0.035(3) -0.003(3) 0.007(3) -0.011(3)
C40 0.024(3) 0.079(6) 0.026(3) 0.008(3) 0.004(2) -0.012(3)
C41 0.046(4) 0.082(6) 0.040(3) 0.002(4) 0.002(4) 0.002(4)
C42 0.042(4) 0.101(6) 0.038(3) 0.022(3) -0.009(3) 0.004(4)
C43 0.033(3) 0.063(5) 0.024(3) -0.002(3) -0.003(3) 0.000(3)
C44 0.058(5) 0.091(6) 0.036(3) 0.005(3) 0.018(3) 0.005(4)
C45 0.059(4) 0.051(5) 0.022(3) -0.007(3) 0.005(3) -0.004(3)
C46 0.022(3) 0.074(5) 0.043(3) 0.005(3) -0.003(3) 0.003(3)
C47 0.045(3) 0.059(4) 0.023(3) 0.005(3) 0.000(3) 0.008(3)
C48 0.056(4) 0.087(6) 0.021(3) 0.002(3) -0.001(3) -0.019(4)

_geom_special_details            
;
All esds (except the esd in the dihedral angle between two l.s. planes)
are estimated using the full covariance matrix. The cell esds are taken
into account individually in the estimation of esds in distances, angles
and torsion angles; correlations between esds in cell parameters are only
used when they are defined by crystal symmetry. An approximate (isotropic)
treatment of cell esds is used for estimating esds involving l.s. planes.
;

loop_
_geom_bond_atom_site_label_1
_geom_bond_atom_site_label_2
_geom_bond_distance
_geom_bond_site_symmetry_2
_geom_bond_publ_flag
Zn1 O6 1.975(4) 1_655 ?
Zn1 O4 1.996(4) . ?
Zn1 O7 2.002(5) 3_656 ?
Zn1 O10 2.053(3) 2_565 ?
Zn1 O11 2.162(5) . ?
Zn2 O8 1.922(4) 3_656 ?
Zn2 O9 1.936(4) 2_565 ?
Zn2 O12 1.958(5) . ?
Zn2 O3 1.961(4) . ?
O1 C13 1.340(6) . ?
O2 C25 1.362(5) . ?
O3 C1 1.276(7) . ?
O4 C1 1.230(7) . ?
O5 C32 1.340(10) . ?
O6 C32 1.210(10) . ?
O6 Zn1 1.975(4) 1_455 ?
O7 C41 1.276(7) . ?
O7 Zn1 2.001(5) 3_646 ?
O8 C41 1.245(8) . ?
O8 Zn2 1.922(4) 3_646 ?
O9 C48 1.281(7) . ?
O9 Zn2 1.936(4) 2_564 ?
O10 C48 1.244(7) . ?
O10 Zn1 2.053(3) 2_564 ?
C1 C2 1.470(8) . ?
C2 C7 1.374(8) . ?
C2 C3 1.419(7) . ?
C3 C4 1.399(7) . ?
C4 C5 1.374(7) . ?
C5 C6 1.399(8) . ?
C5 C8 1.465(7) . ?
C6 C7 1.362(8) . ?
C8 C9 1.