####################################################################### 
# 
# This file contains crystal structure data downloaded from the 
# Cambridge Structural Database (CSD) hosted by the Cambridge 
# Crystallographic Data Centre (CCDC).
# 
# Full information about CCDC data access policies and citation 
# guidelines are available at http://www.ccdc.cam.ac.uk/access/V1 
# 
# Audit and citation data items may have been added by the CCDC. 
# Please retain this information to preserve the provenance of 
# this file and to allow appropriate attribution of the data. 
# 
#######################################################################

data_Lin1
_audit_block_doi                 10.5517/cctxjbk
_database_code_depnum_ccdc_archive 'CCDC 772189'
loop_
_citation_id
_citation_doi
_citation_year
1 10.1002/anie.201003377 2010
_audit_update_record             
;
2010-04-04 deposited with the CCDC.	2024-07-13 downloaded from the CCDC.
;

_audit_creation_method           SHELXL-97
_chemical_name_systematic        
;
?
;
_chemical_name_common            ?
_chemical_melting_point          ?
_chemical_formula_moiety         ?
_chemical_formula_sum            'C55 H43 N O12 Zn2'
_chemical_formula_weight         1040.64

loop_
_atom_type_symbol
_atom_type_description
_atom_type_scat_dispersion_real
_atom_type_scat_dispersion_imag
_atom_type_scat_source
C C 0.0033 0.0016 'International Tables Vol C Tables 4.2.6.8 and 6.1.1.4'
H H 0.0000 0.0000 'International Tables Vol C Tables 4.2.6.8 and 6.1.1.4'
N N 0.0061 0.0033 'International Tables Vol C Tables 4.2.6.8 and 6.1.1.4'
O O 0.0106 0.0060 'International Tables Vol C Tables 4.2.6.8 and 6.1.1.4'
Zn Zn 0.2839 1.4301 'International Tables Vol C Tables 4.2.6.8 and 6.1.1.4'

_symmetry_cell_setting           Orthorhombic
_symmetry_space_group_name_H-M   I212121

loop_
_symmetry_equiv_pos_as_xyz
'x, y, z'
'-x+1/2, -y, z+1/2'
'-x, y+1/2, -z+1/2'
'x+1/2, -y+1/2, -z'
'x+1/2, y+1/2, z+1/2'
'-x+1, -y+1/2, z+1'
'-x+1/2, y+1, -z+1'
'x+1, -y+1, -z+1/2'

_cell_length_a                   13.0884(3)
_cell_length_b                   28.7131(7)
_cell_length_c                   42.8771(11)
_cell_angle_alpha                90.00
_cell_angle_beta                 90.00
_cell_angle_gamma                90.00
_cell_volume                     16113.6(7)
_cell_formula_units_Z            8
_cell_measurement_temperature    173(2)
_cell_measurement_reflns_used    ?
_cell_measurement_theta_min      ?
_cell_measurement_theta_max      ?

_exptl_crystal_description       block
_exptl_crystal_colour            colorless
_exptl_crystal_size_max          0.6
_exptl_crystal_size_mid          0.5
_exptl_crystal_size_min          0.4
_exptl_crystal_density_meas      ?
_exptl_crystal_density_diffrn    0.858
_exptl_crystal_density_method    'not measured'
_exptl_crystal_F_000             4288
_exptl_absorpt_coefficient_mu    0.635
_exptl_absorpt_correction_type   multi-scan
_exptl_absorpt_correction_T_min  0.653
_exptl_absorpt_correction_T_max  0.776
_exptl_absorpt_process_details   SADABS

_exptl_special_details           
;
?
;

_diffrn_ambient_temperature      173(2)
_diffrn_radiation_wavelength     0.71073
_diffrn_radiation_type           MoK\a
_diffrn_radiation_source         'fine-focus sealed tube'
_diffrn_radiation_monochromator  graphite
_diffrn_measurement_device_type  ?
_diffrn_measurement_method       ?
_diffrn_detector_area_resol_mean ?
_diffrn_standards_number         ?
_diffrn_standards_interval_count ?
_diffrn_standards_interval_time  ?
_diffrn_standards_decay_%        ?
_diffrn_reflns_number            46386
_diffrn_reflns_av_R_equivalents  0.1022
_diffrn_reflns_av_sigmaI/netI    0.1052
_diffrn_reflns_limit_h_min       -14
_diffrn_reflns_limit_h_max       14
_diffrn_reflns_limit_k_min       -31
_diffrn_reflns_limit_k_max       31
_diffrn_reflns_limit_l_min       -47
_diffrn_reflns_limit_l_max       47
_diffrn_reflns_theta_min         1.96
_diffrn_reflns_theta_max         23.26
_reflns_number_total             11501
_reflns_number_gt                6631
_reflns_threshold_expression     >2sigma(I)

_computing_data_collection       ?
_computing_cell_refinement       ?
_computing_data_reduction        ?
_computing_structure_solution    'SHELXS-97 (Sheldrick, 1990)'
_computing_structure_refinement  'SHELXL-97 (Sheldrick, 1997)'
_computing_molecular_graphics    ?
_computing_publication_material  ?

_refine_special_details          
;
Refinement of F^2^ against ALL reflections. The weighted R-factor wR and
goodness of fit S are based on F^2^, conventional R-factors R are based
on F, with F set to zero for negative F^2^. The threshold expression of
F^2^ > 2sigma(F^2^) is used only for calculating R-factors(gt) etc. and is
not relevant to the choice of reflections for refinement. R-factors based
on F^2^ are statistically about twice as large as those based on F, and R-
factors based on ALL data will be even larger.
;

_refine_ls_structure_factor_coef Fsqd
_refine_ls_matrix_type           full
_refine_ls_weighting_scheme      calc
_refine_ls_weighting_details     
'calc w=1/[\s^2^(Fo^2^)+(0.0679P)^2^+0.0000P] where P=(Fo^2^+2Fc^2^)/3'
_atom_sites_solution_primary     direct
_atom_sites_solution_secondary   difmap
_atom_sites_solution_hydrogens   geom
_refine_ls_hydrogen_treatment    constr
_refine_ls_extinction_method     none
_refine_ls_extinction_coef       ?
_refine_ls_abs_structure_details 'Flack H D (1983), Acta Cryst. A39, 876-881'
_refine_ls_abs_structure_Flack   0.032(17)
_refine_ls_number_reflns         11501
_refine_ls_number_parameters     574
_refine_ls_number_restraints     0
_refine_ls_R_factor_all          0.1153
_refine_ls_R_factor_gt           0.0713
_refine_ls_wR_factor_ref         0.1637
_refine_ls_wR_factor_gt          0.1513
_refine_ls_goodness_of_fit_ref   1.062
_refine_ls_restrained_S_all      1.062
_refine_ls_shift/su_max          0.001
_refine_ls_shift/su_mean         0.000

loop_
_atom_site_label
_atom_site_type_symbol
_atom_site_fract_x
_atom_site_fract_y
_atom_site_fract_z
_atom_site_U_iso_or_equiv
_atom_site_adp_type
_atom_site_occupancy
_atom_site_symmetry_multiplicity
_atom_site_calc_flag
_atom_site_refinement_flags
_atom_site_disorder_assembly
_atom_site_disorder_group
Zn1 Zn 0.91528(7) 0.43694(3) 0.074096(16) 0.0717(3) Uani 1 1 d . . .
Zn2 Zn 1.08951(7) 0.35547(3) 0.068089(17) 0.0683(3) Uani 1 1 d . . .
O1 O 0.5898(5) 0.19970(18) 0.25273(9) 0.0841(16) Uani 1 1 d . . .
O2 O 0.3326(4) 0.1552(2) 0.22058(12) 0.0869(16) Uani 1 1 d . . .
O3 O 0.9809(4) 0.31983(17) 0.08675(11) 0.0718(14) Uani 1 1 d . . .
O4 O 0.8615(4) 0.3758(2) 0.09081(12) 0.0923(17) Uani 1 1 d . . .
O5 O 0.8475(5) -0.1067(2) 0.39808(12) 0.0881(17) Uani 1 1 d . . .
O6 O 0.9718(5) -0.0550(3) 0.39584(15) 0.121(2) Uani 1 1 d . . .
O7 O 0.3880(6) 0.0791(2) -0.02900(12) 0.106(2) Uani 1 1 d . . .
O8 O 0.5515(5) 0.1038(2) -0.03492(12) 0.116(2) Uani 1 1 d . . .
O9 O 0.1938(5) -0.0305(2) 0.40350(14) 0.108(2) Uani 1 1 d . . .
O10 O 0.1293(13) 0.0408(5) 0.4109(3) 0.288(6) Uiso 1 1 d . . .
O11 O 1.1974(4) 0.3135(2) 0.05375(14) 0.107(2) Uani 1 1 d . . .
O12 O 0.9737(6) 0.5015(3) 0.05329(19) 0.170(3) Uani 1 1 d . . .
H12A H 0.9717 0.4994 0.0338 0.204 Uiso 1 1 calc R . .
H12B H 0.9948 0.5253 0.0654 0.204 Uiso 1 1 d R . .
C1 C 0.7249(6) 0.0064(3) 0.31747(18) 0.075(2) Uani 1 1 d . . .
C2 C 0.8161(7) 0.0204(3) 0.3280(2) 0.095(3) Uani 1 1 d . . .
H2A H 0.8461 0.0476 0.3193 0.114 Uiso 1 1 calc R . .
C3 C 0.8689(7) -0.0038(3) 0.3514(2) 0.099(3) Uani 1 1 d . . .
H3A H 0.9313 0.0083 0.3594 0.118 Uiso 1 1 calc R . .
C4 C 0.8301(6) -0.0449(3) 0.36302(17) 0.072(2) Uani 1 1 d . . .
C5 C 0.7380(6) -0.0612(3) 0.35125(18) 0.081(2) Uani 1 1 d . . .
H5A H 0.7107 -0.0902 0.3579 0.097 Uiso 1 1 calc R . .
C6 C 0.6865(7) -0.0341(3) 0.32939(17) 0.081(2) Uani 1 1 d . . .
H6A H 0.6213 -0.0442 0.3224 0.097 Uiso 1 1 calc R . .
C7 C 0.6647(7) 0.0348(3) 0.29509(18) 0.074(2) Uani 1 1 d . . .
C8 C 0.7074(6) 0.0605(3) 0.27143(16) 0.078(2) Uani 1 1 d . . .
H8A H 0.7795 0.0591 0.2690 0.094 Uiso 1 1 calc R . .
C9 C 0.5638(8) 0.0381(3) 0.29893(16) 0.084(3) Uani 1 1 d . . .
H9A H 0.5322 0.0205 0.3150 0.100 Uiso 1 1 calc R . .
C10 C 0.5014(7) 0.0673(3) 0.27967(19) 0.080(2) Uani 1 1 d . . .
C11 C 0.6528(6) 0.0884(3) 0.25088(16) 0.064(2) Uani 1 1 d . . .
H11A H 0.6861 0.1042 0.2343 0.077 Uiso 1 1 calc R . .
C12 C 0.5463(6) 0.0927(3) 0.25534(15) 0.057(2) Uani 1 1 d . . .
C13 C 0.3881(6) 0.0766(3) 0.28448(17) 0.076(2) Uani 1 1 d . . .
C14 C 0.3371(5) 0.0568(3) 0.31254(14) 0.121(4) Uani 1 1 d G . .
C15 C 0.3230(5) 0.0097(2) 0.31891(15) 0.111(3) Uani 1 1 d G . .
H15A H 0.3468 -0.0131 0.3046 0.133 Uiso 1 1 calc R . .
C16 C 0.2741(5) -0.0039(2) 0.34620(17) 0.086(3) Uani 1 1 d G . .
H16A H 0.2644 -0.0360 0.3506 0.103 Uiso 1 1 calc R . .
C17 C 0.2393(7) 0.0295(3) 0.36712(14) 0.156(5) Uani 1 1 d G . .
C18 C 0.2534(8) 0.0766(3) 0.36075(18) 0.246(8) Uiso 1 1 d G . .
H18A H 0.2296 0.0994 0.3750 0.296 Uiso 1 1 calc R . .
C19 C 0.3023(7) 0.0902(2) 0.3335(2) 0.196(6) Uiso 1 1 d G . .
H19A H 0.3120 0.1223 0.3291 0.235 Uiso 1 1 calc R . .
C20 C 0.3365(7) 0.1030(3) 0.2653(2) 0.089(3) Uani 1 1 d . . .
H20A H 0.2654 0.1073 0.2687 0.106 Uiso 1 1 calc R . .
C21 C 0.3851(6) 0.1260(3) 0.23894(16) 0.075(2) Uani 1 1 d . . .
C22 C 0.4882(5) 0.1220(3) 0.23499(16) 0.0589(19) Uani 1 1 d . . .
C23 C 0.3965(7) 0.0967(2) 0.03567(15) 0.071(2) Uani 1 1 d . . .
H23A H 0.3332 0.0865 0.0273 0.085 Uiso 1 1 calc R . .
C24 C 0.4798(8) 0.1052(2) 0.01634(16) 0.076(3) Uani 1 1 d . . .
C25 C 0.4082(6) 0.1036(2) 0.06787(14) 0.0701(19) Uani 1 1 d . . .
H25A H 0.3523 0.0979 0.0815 0.084 Uiso 1 1 calc R . .
C26 C 0.5003(6) 0.1187(2) 0.08002(14) 0.0565(18) Uani 1 1 d . . .
C27 C 0.5816(7) 0.1273(2) 0.05963(16) 0.078(2) Uani 1 1 d . . .
H27A H 0.6443 0.1382 0.0680 0.094 Uiso 1 1 calc R . .
C28 C 0.5744(7) 0.1206(3) 0.02845(15) 0.078(2) Uani 1 1 d . . .
H28A H 0.6312 0.1261 0.0151 0.094 Uiso 1 1 calc R . .
C29 C 0.5129(5) 0.1285(3) 0.11443(14) 0.0566(19) Uani 1 1 d . . .
C30 C 0.4616(5) 0.1000(2) 0.13630(15) 0.0568(19) Uani 1 1 d . . .
H30A H 0.4186 0.0756 0.1292 0.068 Uiso 1 1 calc R . .
C31 C 0.4729(5) 0.1073(2) 0.16747(14) 0.0529(18) Uani 1 1 d . . .
H31A H 0.4410 0.0866 0.1817 0.063 Uiso 1 1 calc R . .
C32 C 0.5695(5) 0.1644(2) 0.12450(13) 0.0478(17) Uani 1 1 d . . .
H32A H 0.6004 0.1844 0.1096 0.057 Uiso 1 1 calc R . .
C33 C 0.5848(5) 0.1736(2) 0.15729(13) 0.0527(16) Uani 1 1 d . . .
C34 C 0.5297(4) 0.1442(3) 0.17900(14) 0.0484(16) Uani 1 1 d . . .
C35 C 0.5362(5) 0.1537(2) 0.21136(14) 0.0541(19) Uani 1 1 d . . .
C36 C 0.5947(6) 0.1925(3) 0.22097(15) 0.070(2) Uani 1 1 d . . .
C37 C 0.6404(5) 0.2208(3) 0.19918(15) 0.061(2) Uani 1 1 d . . .
H37A H 0.6737 0.2482 0.2062 0.073 Uiso 1 1 calc R . .
C38 C 0.6403(5) 0.2114(2) 0.16819(14) 0.0472(16) Uani 1 1 d . . .
C39 C 0.7007(5) 0.2427(3) 0.14741(14) 0.0460(16) Uani 1 1 d . . .
C40 C 0.7828(6) 0.2272(2) 0.13101(17) 0.067(2) Uani 1 1 d . . .
H40A H 0.7986 0.1949 0.1312 0.080 Uiso 1 1 calc R . .
C41 C 0.6819(5) 0.2908(3) 0.14622(15) 0.0619(19) Uani 1 1 d . . .
H41A H 0.6262 0.3035 0.1576 0.074 Uiso 1 1 calc R . .
C42 C 0.8445(6) 0.2574(3) 0.11394(17) 0.067(2) Uani 1 1 d . . .
H42A H 0.9012 0.2451 0.1028 0.081 Uiso 1 1 calc R . .
C43 C 0.7410(6) 0.3188(3) 0.12934(17) 0.069(2) Uani 1 1 d . . .
H43A H 0.7252 0.3510 0.1284 0.083 Uiso 1 1 calc R . .
C44 C 0.8269(6) 0.3019(3) 0.11277(15) 0.0581(19) Uani 1 1 d . . .
C45 C 0.2213(7) 0.1520(4) 0.2190(3) 0.129(4) Uani 1 1 d . . .
H45A H 0.1935 0.1804 0.2090 0.155 Uiso 1 1 calc R . .
H45B H 0.1930 0.1500 0.2404 0.155 Uiso 1 1 calc R . .
C46 C 0.1895(9) 0.1095(4) 0.2005(3) 0.141(4) Uani 1 1 d . . .
H46A H 0.1148 0.1079 0.1996 0.212 Uiso 1 1 calc R . .
H46B H 0.2162 0.0814 0.2106 0.212 Uiso 1 1 calc R . .
H46C H 0.2169 0.1117 0.1793 0.212 Uiso 1 1 calc R . .
C47 C 0.6416(8) 0.2410(4) 0.26421(19) 0.119(4) Uani 1 1 d . . .
H47A H 0.6307 0.2679 0.2501 0.142 Uiso 1 1 calc R . .
H47B H 0.6177 0.2494 0.2854 0.142 Uiso 1 1 calc R . .
C48 C 0.7412(16) 0.2279(6) 0.2645(4) 0.236(8) Uiso 1 1 d . . .
H48A H 0.7835 0.2540 0.2716 0.354 Uiso 1 1 calc R . .
H48B H 0.7621 0.2187 0.2435 0.354 Uiso 1 1 calc R . .
H48C H 0.7500 0.2015 0.2788 0.354 Uiso 1 1 calc R . .
C49 C 0.8956(7) 0.3357(3) 0.09518(15) 0.063(2) Uani 1 1 d . . .
C50 C 0.4702(9) 0.0946(3) -0.0191(2) 0.080(3) Uani 1 1 d . . .
C51 C 0.8884(7) -0.0713(3) 0.38727(17) 0.078(3) Uani 1 1 d . . .
C52 C 0.1996(15) 0.0089(8) 0.3989(4) 0.208(7) Uiso 1 1 d . . .
N1 N 1.2377(12) 0.2393(5) 0.0375(3) 0.213(5) Uiso 1 1 d . . .
C55 C 1.1591(10) 0.2735(4) 0.0385(3) 0.128(4) Uiso 1 1 d . . .
H55A H 1.0921 0.2701 0.0302 0.154 Uiso 1 1 calc R . .
C57 C 1.1998(11) 0.1916(5) 0.0226(3) 0.202(6) Uiso 1 1 d . . .
H57A H 1.1255 0.1926 0.0198 0.303 Uiso 1 1 calc R . .
H57B H 1.2179 0.1657 0.0364 0.303 Uiso 1 1 calc R . .
H57C H 1.2328 0.1872 0.0022 0.303 Uiso 1 1 calc R . .
C56 C 1.3477(11) 0.2428(5) 0.0488(3) 0.181(5) Uiso 1 1 d . . .
H56A H 1.3573 0.2723 0.0599 0.272 Uiso 1 1 calc R . .
H56B H 1.3940 0.2416 0.0309 0.272 Uiso 1 1 calc R . .
H56C H 1.3626 0.2168 0.0629 0.272 Uiso 1 1 calc R . .

loop_
_atom_site_aniso_label
_atom_site_aniso_U_11
_atom_site_aniso_U_22
_atom_site_aniso_U_33
_atom_site_aniso_U_23
_atom_site_aniso_U_13
_atom_site_aniso_U_12
Zn1 0.0722(6) 0.0969(6) 0.0461(4) -0.0211(4) 0.0097(5) 0.0078(6)
Zn2 0.0564(5) 0.0845(6) 0.0639(5) -0.0113(4) 0.0114(5) -0.0021(5)
O1 0.116(4) 0.108(4) 0.028(2) -0.009(3) -0.009(3) -0.024(4)
O2 0.061(4) 0.133(5) 0.066(3) 0.003(3) 0.000(3) 0.006(3)
O3 0.048(3) 0.084(3) 0.084(3) 0.009(3) 0.016(3) 0.005(3)
O4 0.080(4) 0.120(5) 0.076(4) 0.004(4) 0.015(3) 0.025(4)
O5 0.095(4) 0.097(4) 0.072(4) 0.023(3) -0.009(3) 0.005(4)
O6 0.106(5) 0.150(6) 0.109(5) 0.062(5) -0.037(4) -0.045(5)
O7 0.143(7) 0.122(5) 0.052(3) -0.015(3) -0.017(4) 0.012(5)
O8 0.132(6) 0.170(6) 0.046(3) 0.003(3) 0.014(4) 0.078(5)
O9 0.112(5) 0.110(5) 0.104(5) 0.016(4) 0.046(4) -0.024(4)
O11 0.058(4) 0.132(5) 0.131(5) -0.024(4) 0.024(3) -0.013(3)
O12 0.187(8) 0.146(6) 0.178(7) 0.007(5) 0.075(6) -0.004(5)
C1 0.063(6) 0.091(6) 0.071(5) 0.030(5) -0.013(4) -0.036(5)
C2 0.103(8) 0.086(6) 0.096(7) 0.043(6) -0.013(6) -0.012(6)
C3 0.115(8) 0.094(7) 0.087(6) 0.028(5) -0.046(6) -0.015(6)
C4 0.085(6) 0.072(6) 0.060(5) 0.026(4) -0.009(4) -0.002(5)
C5 0.081(6) 0.080(6) 0.083(5) 0.024(5) -0.022(5) -0.027(5)
C6 0.097(6) 0.084(6) 0.061(5) 0.008(5) -0.021(5) -0.025(5)
C7 0.063(6) 0.090(6) 0.068(5) 0.023(5) -0.022(5) -0.028(5)
C8 0.070(5) 0.111(6) 0.054(5) 0.025(5) 0.008(4) -0.007(5)
C9 0.107(8) 0.096(6) 0.048(4) 0.021(4) -0.019(5) -0.027(6)
C10 0.087(6) 0.081(6) 0.071(5) 0.008(5) -0.019(5) -0.006(5)
C11 0.064(6) 0.084(6) 0.044(4) 0.015(4) -0.001(4) -0.009(5)
C12 0.062(5) 0.084(6) 0.026(4) 0.014(4) 0.008(3) -0.007(4)
C13 0.072(6) 0.101(6) 0.056(4) 0.036(4) 0.022(4) -0.019(5)
C14 0.097(7) 0.174(10) 0.091(7) -0.037(8) 0.033(6) 0.006(8)
C15 0.133(9) 0.075(6) 0.125(9) 0.027(6) 0.043(7) 0.000(6)
C16 0.103(7) 0.079(6) 0.075(6) 0.036(5) 0.024(5) 0.021(5)
C17 0.255(14) 0.141(10) 0.073(6) -0.001(7) 0.074(8) -0.069(10)
C20 0.069(6) 0.116(7) 0.081(6) 0.013(6) 0.005(5) -0.014(6)
C21 0.068(6) 0.112(7) 0.043(4) 0.024(4) -0.015(4) -0.010(5)
C22 0.042(5) 0.083(5) 0.052(4) -0.001(4) 0.002(4) 0.000(4)
C23 0.092(6) 0.080(5) 0.041(4) 0.012(4) -0.006(4) -0.019(5)
C24 0.133(8) 0.059(5) 0.036(4) 0.005(4) 0.011(5) 0.009(5)
C25 0.067(5) 0.100(5) 0.044(4) -0.001(4) -0.017(4) -0.023(5)
C26 0.063(5) 0.065(5) 0.041(4) 0.009(3) -0.002(4) 0.003(4)
C27 0.069(5) 0.103(6) 0.063(5) -0.015(4) 0.020(5) 0.003(5)
C28 0.088(6) 0.107(6) 0.040(4) -0.013(4) 0.007(5) -0.036(6)
C29 0.045(4) 0.080(5) 0.045(4) 0.002(4) -0.008(3) 0.008(4)
C30 0.047(4) 0.071(5) 0.053(5) -0.009(4) 0.001(3) -0.017(4)
C31 0.063(5) 0.060(5) 0.036(4) 0.017(4) 0.009(3) 0.015(4)
C32 0.028(4) 0.077(5) 0.039(4) 0.009(3) 0.005(3) -0.009(4)
C33 0.041(4) 0.075(5) 0.042(4) 0.007(4) 0.008(4) 0.020(4)
C34 0.035(4) 0.068(5) 0.043(4) 0.000(4) -0.010(3) 0.000(4)
C35 0.068(5) 0.061(5) 0.034(4) 0.017(4) 0.003(3) 0.007(4)
C36 0.065(5) 0.094(6) 0.052(4) 0.001(4) -0.020(4) 0.003(5)
C37 0.059(4) 0.083(6) 0.041(4) 0.010(4) 0.001(3) -0.013(4)
C38 0.049(4) 0.058(4) 0.034(4) 0.006(3) -0.001(3) -0.003(4)
C39 0.040(4) 0.051(5) 0.047(4) -0.004(4) 0.001(3) 0.002(4)
C40 0.066(5) 0.049(5) 0.085(6) -0.005(4) -0.010(5) 0.010(4)
C41 0.041(4) 0.092(6) 0.053(4) 0.006(4) 0.017(3) -0.009(5)
C42 0.056(5) 0.060(6) 0.086(6) 0.007(4) 0.026(4) -0.002(4)
C43 0.059(5) 0.077(5) 0.072(5) -0.014(5) -0.005(5) 0.001(5)
C44 0.059(5) 0.072(6) 0.043(4) -0.001(4) 0.003(4) 0.002(4)
C45 0.072(7) 0.173(11) 0.142(9) 0.034(9) -0.003(6) -0.018(7)
C46 0.136(10) 0.117(8) 0.171(11) 0.027(8) -0.033(8) -0.028(8)
C47 0.125(9) 0.184(11) 0.047(5) -0.022(6) 0.006(5) 0.017(8)
C49 0.058(6) 0.077(6) 0.053(4) 0.002(4) 0.015(4) 0.011(5)
C50 0.110(8) 0.076(6) 0.053(6) 0.002(5) 0.001(6) 0.019(6)
C51 0.075(7) 0.094(7) 0.065(5) 0.037(5) -0.001(4) -0.029(6)

_geom_special_details            
;
All esds (except the esd in the dihedral angle between two l.s. planes)
are estimated using the full covariance matrix. The cell esds are taken
into account individually in the estimation of esds in distances, angles
and torsion angles; correlations between esds in cell parameters are only
used when they are defined by crystal symmetry. An approximate (isotropic)
treatment of cell esds is used for estimating esds involving l.s. planes.
;

loop_
_geom_bond_atom_site_label_1
_geom_bond_atom_site_label_2
_