
#######################################################################
#
#                 Cambridge Crystallographic Data Centre
#                                CCDC
#
#######################################################################
#
# If this CIF has been generated from an entry in the Cambridge
# Structural Database, then it will include bibliographic, chemical,
# crystal, experimental, refinement or atomic coordinate data resulting
# from the CCDC's data processing and validation procedures.
#
#######################################################################

data_CSD_CIF_TADZAZ01
_audit_creation_date 2000-11-21
_audit_creation_method CSD-ConQuest-V1
_database_code_CSD TADZAZ01
_database_code_depnum_ccdc_archive 'CCDC 150368'
_chemical_formula_sum 'C13 H23 Cl1 N4 O3 S1'
_chemical_formula_moiety
;
C13 H23 N4 O3 S1 1+,Cl1 1-
;
_journal_coeditor_code "IUCr FG1581"
_journal_coden_Cambridge 591
_journal_volume 56
_journal_year 2000
_journal_page_first 1048
_journal_name_full 'Acta Crystallogr.,Sect.C:Cryst.Struct.Commun. '
loop_
_publ_author_name
"A.Hempel"
"N.Camerman"
"D.Mastropaolo"
"A.Camerman"
_chemical_name_systematic
;
Z-Dimethyl-((5-(2-(1-methylamino-2-nitroethenylamino)ethylthiomethyl)-2-furyl)
methyl)ammonium chloride
;
_chemical_name_common
;
Ranitidine hydrochloride; Alquen; Gastrolav; Gastrosedol; Kuracid; Ptinolin; 
Raniberl; Ranicux; Ranidil; Ranidin; Ranidine; Ranidura; Ranigast; Raniplex; 
Ranisan; Ranitab; Ranitic; Ranitidin; Ranitin; Ranitine; Ranobel; Rantacid; 
Ranuber; Renatac; Sostril; Ulcodin; Zantac; DrugBank: DB00863; Teaching 
Subset: Drug Molecules
;
_cell_volume   1750.756
_exptl_crystal_colour 'colorless'
_exptl_crystal_density_diffrn 1.331
_exptl_special_details
;
polymorph I
agent used in the treatment of peptic ulcers and related g astrointestinal 
disorders
;
_exptl_crystal_description 'prism'
_exptl_crystal_preparation 'methanol/ethyl acetate'
_diffrn_ambient_temperature 100
#These two values have been output from a single CSD field.
_refine_ls_R_factor_gt 0.0416
_refine_ls_wR_factor_gt 0.0416
_symmetry_cell_setting monoclinic
_symmetry_space_group_name_H-M 'P 21/n'
_symmetry_Int_Tables_number 14
loop_
_symmetry_equiv_pos_site_id
_symmetry_equiv_pos_as_xyz
1 x,y,z
2 1/2-x,1/2+y,1/2-z
3 -x,-y,-z
4 -1/2+x,-1/2-y,-1/2+z
_cell_length_a 12.1918(6)
_cell_length_b 6.5318(3)
_cell_length_c 22.0382(8)
_cell_angle_alpha 90
_cell_angle_beta 93.985(3)
_cell_angle_gamma 90
_cell_formula_units_Z 4
loop_
_atom_type_symbol
_atom_type_radius_bond
C 0.68
H 0.23
Cl 0.99
N 0.68
O 0.68
S 1.02
loop_
_atom_site_label
_atom_site_type_symbol
_atom_site_fract_x
_atom_site_fract_y
_atom_site_fract_z
Cl1 Cl 0.40889(4) 0.24606(8) -0.03956(2)
O1 O 0.49639(13) -0.0598(2) 0.20041(6)
C1 C 0.48856(19) -0.0926(3) 0.26160(9)
C2 C 0.3902(2) -0.0294(4) 0.27828(11)
H1 H 0.36510 -0.03480 0.31720
C3 C 0.3312(2) 0.0481(4) 0.22433(11)
H2 H 0.26030 0.10150 0.22150
C4 C 0.39872(19) 0.0284(3) 0.17855(10)
C5 C 0.38943(18) 0.0802(3) 0.11325(10)
H3 H 0.31220 0.08670 0.09940
H4 H 0.42300 -0.02800 0.09080
N1 N 0.44348(15) 0.2813(3) 0.09936(9)
H5 H 0.438(3) 0.281(5) 0.0564(15)
C6 C 0.56184(19) 0.2861(4) 0.12042(11)
H6 H 0.5960(6) 0.409(2) 0.1044(6)
H7 H 0.5983(6) 0.164(2) 0.1058(6)
H8 H 0.5692(2) 0.289(2) 0.1650(6)
C7 C 0.3838(2) 0.4605(4) 0.12235(11)
H9 H 0.3851(10) 0.4542(12) 0.1660(7)
H10 H 0.3089(12) 0.4586(13) 0.1055(6)
H11 H 0.4188(9) 0.5846(19) 0.1104(6)
C8 C 0.58691(19) -0.1792(4) 0.29512(10)
H12 H 0.60650 -0.30580 0.27550
H13 H 0.56860 -0.21270 0.33610
S1 S 0.70691(5) -0.00941(9) 0.29966(3)
C9 C 0.6502(2) 0.2250(3) 0.32782(10)
H14 H 0.70460 0.33270 0.32610
H15 H 0.58690 0.26390 0.30120
C10 C 0.61514(19) 0.2095(3) 0.39289(9)
H16 H 0.56700 0.09240 0.39620
H17 H 0.67950 0.18880 0.42060
N2 N 0.55837(15) 0.3938(3) 0.40989(8)
H18 H 0.48990 0.40210 0.39780
C11 C 0.60016(18) 0.5520(3) 0.44215(9)
N3 N 0.70553(15) 0.5547(3) 0.46272(8)
H19 H 0.74610 0.45220 0.45430
C12 C 0.75598(19) 0.7213(3) 0.49855(10)
H20 H 0.7435(10) 0.8480(19) 0.4773(4)
H21 H 0.8334(11) 0.6976(12) 0.5049(6)
H22 H 0.7242(10) 0.7281(14) 0.5370(6)
C13 C 0.53295(17) 0.7231(3) 0.45492(9)
H23 H 0.56370 0.82590 0.47990
N4 N 0.42754(16) 0.7450(3) 0.43301(8)
O2 O 0.37837(13) 0.6112(3) 0.39817(7)
O3 O 0.37558(14) 0.9062(3) 0.44580(8)
#END
