
#######################################################################
#
#                 Cambridge Crystallographic Data Centre
#                                CCDC
#
#######################################################################
#
# If this CIF has been generated from an entry in the Cambridge
# Structural Database, then it will include bibliographic, chemical,
# crystal, experimental, refinement or atomic coordinate data resulting
# from the CCDC's data processing and validation procedures.
#
#######################################################################

data_CSD_CIF_TADZAZ
_audit_creation_date 1991-06-10
_audit_creation_method CSD-ConQuest-V1
_database_code_CSD TADZAZ
_database_code_depnum_ccdc_archive 'CCDC 1265323'
_chemical_formula_sum 'C13 H23 Cl1 N4 O3 S1'
_chemical_formula_moiety
;
C13 H23 N4 O3 S1 1+,Cl1 1-
;
_journal_coeditor_code "IUCr AS0304"
_journal_coden_Cambridge 591
_journal_volume 46
_journal_year 1990
_journal_page_first 1893
_journal_name_full 'Acta Crystallogr.,Sect.C:Cryst.Struct.Commun. '
loop_
_publ_author_name
"T.Ishida"
"Y.In"
"M.Inoue"
_chemical_name_systematic
;
Z-Dimethyl-((5-(2-(1-methylamino-2-nitroethenylamino)ethylthiomethyl)-2-furyl)
methyl)ammonium chloride
;
_chemical_name_common
;
Ranitidine hydrochloride; Alquen; Gastrolav; Gastrosedol; Kuracid; Ptinolin; 
Raniberl; Ranicux; Ranidil; Ranidin; Ranidine; Ranidura; Ranigast; Raniplex; 
Ranisan; Ranitab; Ranitic; Ranitidin; Ranitin; Ranitine; Ranobel; Rantacid; 
Ranuber; Renatac; Sostril; Ulcodin; Zantac; DrugBank: DB00863; Teaching 
Subset: Drug Molecules
;
_cell_volume   1750.830
_exptl_crystal_density_diffrn 1.331
_exptl_special_details
;
polymorph II
parent compound is therapeutic drug

;
_diffrn_ambient_temperature ?
_diffrn_special_details
;
The study was carried out at room temperature,in the range 283-303K

;
_refine_special_details
;
The N,N'-dimethyl-2-nitro-1,1-ethenediamine moiety is disordered; 2 sets of 
positions are given for N14,N16,C18,O20 and O21.
;
#These two values have been output from a single CSD field.
_refine_ls_R_factor_gt 0.044
_refine_ls_wR_factor_gt 0.044
_symmetry_cell_setting monoclinic
_symmetry_space_group_name_H-M 'P 21/n'
_symmetry_Int_Tables_number 14
loop_
_symmetry_equiv_pos_site_id
_symmetry_equiv_pos_as_xyz
1 x,y,z
2 1/2-x,1/2+y,1/2-z
3 -x,-y,-z
4 -1/2+x,-1/2-y,-1/2+z
_cell_length_a 18.798(3)
_cell_length_b 12.980(3)
_cell_length_c 7.204(1)
_cell_angle_alpha 90
_cell_angle_beta 95.09(1)
_cell_angle_gamma 90
_cell_formula_units_Z 4
loop_
_atom_type_symbol
_atom_type_radius_bond
C 0.68
Cl 0.99
N 0.68
O 0.68
S 1.02
loop_
_atom_site_label
_atom_site_type_symbol
_atom_site_fract_x
_atom_site_fract_y
_atom_site_fract_z
O1 O 0.53063(9) -0.1186(1) 0.6527(2)
C1 C 0.5792(1) -0.0450(2) 0.6221(4)
C2 C 0.6232(2) -0.0799(3) 0.4956(4)
C3 C 0.6004(2) -0.1822(3) 0.4483(4)
C4 C 0.5448(1) -0.2030(2) 0.5475(4)
C5 C 0.5002(2) -0.2936(2) 0.5692(4)
N1 N 0.5172(1) -0.3473(2) 0.7521(3)
C6 C 0.5035(2) -0.2850(3) 0.9160(4)
C7 C 0.5904(2) -0.3892(3) 0.7673(5)
C8 C 0.5776(2) 0.0497(2) 0.7370(4)
S1 S 0.59686(4) 0.02448(7) 0.9820(1)
C9 C 0.6866(2) -0.0236(3) 0.9875(4)
C10 C 0.7434(2) 0.0532(3) 0.9413(4)
N2 N 0.7301(2) 0.1650(3) 0.9415(5)
C11 C 0.7192(1) 0.2171(2) 1.1021(3)
N3 N 0.6940(3) 0.3212(4) 1.0996(6)
C12 C 0.6743(2) 0.3661(3) 0.9164(5)
C13 C 0.7384(3) 0.1736(5) 1.2703(6)
N4 N 0.7179(1) 0.2160(2) 1.4387(3)
O2 O 0.6847(2) 0.2880(3) 1.4625(5)
O3 O 0.7413(3) 0.1548(4) 1.5816(5)
Cl1 Cl 0.91226(4) 0.02006(6) 0.2349(1)
N5? N 0.7473(2) 0.1144(3) 1.1102(5)
N6? N 0.6991(2) 0.2667(3) 0.9249(5)
C14? C 0.7072(3) 0.2650(4) 1.2623(6)
O4? O 0.6961(3) 0.2734(4) 1.5711(5)
O5? O 0.7426(2) 0.1341(3) 1.4682(5)
#END
