####################################################################### 
# 
# This file contains crystal structure data downloaded from the 
# Cambridge Structural Database (CSD) hosted by the Cambridge 
# Crystallographic Data Centre (CCDC).
# 
# Full information about CCDC data access policies and citation 
# guidelines are available at http://www.ccdc.cam.ac.uk/access/V1 
# 
# Audit and citation data items may have been added by the CCDC. 
# Please retain this information to preserve the provenance of 
# this file and to allow appropriate attribution of the data. 
# 
#######################################################################

data_test1
_audit_block_doi                 10.5517/ccq5613
_database_code_depnum_ccdc_archive 'CCDC 660394'
_audit_update_record             
;
2007-09-07 deposited with the CCDC.	2024-07-13 downloaded from the CCDC.
;

_audit_creation_method           SHELXL-97
_chemical_name_systematic        
;
?
;
_chemical_name_common            ?
_chemical_melting_point          ?
_chemical_formula_moiety         ?
_chemical_formula_sum            'C18.40 H15.20 N3.20 Nd0.80 O7.20'
_chemical_formula_weight         511.73

loop_
_atom_type_symbol
_atom_type_description
_atom_type_scat_dispersion_real
_atom_type_scat_dispersion_imag
_atom_type_scat_source
C C 0.0033 0.0016 'International Tables Vol C Tables 4.2.6.8 and 6.1.1.4'
H H 0.0000 0.0000 'International Tables Vol C Tables 4.2.6.8 and 6.1.1.4'
N N 0.0061 0.0033 'International Tables Vol C Tables 4.2.6.8 and 6.1.1.4'
O O 0.0106 0.0060 'International Tables Vol C Tables 4.2.6.8 and 6.1.1.4'
Nd Nd -0.1943 3.0179 'International Tables Vol C Tables 4.2.6.8 and 6.1.1.4'

_symmetry_cell_setting           Monoclinic
_symmetry_space_group_name_H-M   C2/c

loop_
_symmetry_equiv_pos_as_xyz
'x, y, z'
'-x, y, -z+1/2'
'x+1/2, y+1/2, z'
'-x+1/2, y+1/2, -z+1/2'
'-x, -y, -z'
'x, -y, z-1/2'
'-x+1/2, -y+1/2, -z'
'x+1/2, -y+1/2, z-1/2'

_cell_length_a                   33.104(7)
_cell_length_b                   7.4812(15)
_cell_length_c                   19.848(4)
_cell_angle_alpha                90.00
_cell_angle_beta                 104.75(3)
_cell_angle_gamma                90.00
_cell_volume                     4753.6(17)
_cell_formula_units_Z            10
_cell_measurement_temperature    296(2)
_cell_measurement_reflns_used    ?
_cell_measurement_theta_min      ?
_cell_measurement_theta_max      ?

_exptl_crystal_description       ?
_exptl_crystal_colour            ?
_exptl_crystal_size_max          0.50
_exptl_crystal_size_mid          0.30
_exptl_crystal_size_min          0.05
_exptl_crystal_density_meas      ?
_exptl_crystal_density_diffrn    1.788
_exptl_crystal_density_method    'not measured'
_exptl_crystal_F_000             2536
_exptl_absorpt_coefficient_mu    2.246
_exptl_absorpt_correction_type   ?
_exptl_absorpt_correction_T_min  0.3997
_exptl_absorpt_correction_T_max  0.8960
_exptl_absorpt_process_details   ?

_exptl_special_details           
;
?
;

_diffrn_ambient_temperature      296(2)
_diffrn_radiation_wavelength     0.71073
_diffrn_radiation_type           MoK\a
_diffrn_radiation_source         'fine-focus sealed tube'
_diffrn_radiation_monochromator  graphite
_diffrn_measurement_device_type  ?
_diffrn_measurement_method       ?
_diffrn_detector_area_resol_mean ?
_diffrn_standards_number         ?
_diffrn_standards_interval_count ?
_diffrn_standards_interval_time  ?
_diffrn_standards_decay_%        ?
_diffrn_reflns_number            21809
_diffrn_reflns_av_R_equivalents  0.0323
_diffrn_reflns_av_sigmaI/netI    0.0411
_diffrn_reflns_limit_h_min       -46
_diffrn_reflns_limit_h_max       50
_diffrn_reflns_limit_k_min       -8
_diffrn_reflns_limit_k_max       11
_diffrn_reflns_limit_l_min       -30
_diffrn_reflns_limit_l_max       29
_diffrn_reflns_theta_min         2.18
_diffrn_reflns_theta_max         33.47
_reflns_number_total             8830
_reflns_number_gt                7252
_reflns_threshold_expression     >2sigma(I)

_computing_data_collection       ?
_computing_cell_refinement       ?
_computing_data_reduction        ?
_computing_structure_solution    'SHELXS-97 (Sheldrick, 1990)'
_computing_structure_refinement  'SHELXL-97 (Sheldrick, 1997)'
_computing_molecular_graphics    ?
_computing_publication_material  ?

_refine_special_details          
;
Refinement of F^2^ against ALL reflections. The weighted R-factor wR and
goodness of fit S are based on F^2^, conventional R-factors R are based
on F, with F set to zero for negative F^2^. The threshold expression of
F^2^ > 2sigma(F^2^) is used only for calculating R-factors(gt) etc. and is
not relevant to the choice of reflections for refinement. R-factors based
on F^2^ are statistically about twice as large as those based on F, and R-
factors based on ALL data will be even larger.
;

_refine_ls_structure_factor_coef Fsqd
_refine_ls_matrix_type           full
_refine_ls_weighting_scheme      calc
_refine_ls_weighting_details     
'calc w=1/[\s^2^(Fo^2^)+(0.0446P)^2^+0.5941P] where P=(Fo^2^+2Fc^2^)/3'
_atom_sites_solution_primary     direct
_atom_sites_solution_secondary   difmap
_atom_sites_solution_hydrogens   geom
_refine_ls_hydrogen_treatment    mixed
_refine_ls_extinction_method     none
_refine_ls_extinction_coef       ?
_refine_ls_number_reflns         8830
_refine_ls_number_parameters     334
_refine_ls_number_restraints     0
_refine_ls_R_factor_all          0.0394
_refine_ls_R_factor_gt           0.0313
_refine_ls_wR_factor_ref         0.0852
_refine_ls_wR_factor_gt          0.0808
_refine_ls_goodness_of_fit_ref   1.036
_refine_ls_restrained_S_all      1.036
_refine_ls_shift/su_max          0.002
_refine_ls_shift/su_mean         0.000

loop_
_atom_site_label
_atom_site_type_symbol
_atom_site_fract_x
_atom_site_fract_y
_atom_site_fract_z
_atom_site_U_iso_or_equiv
_atom_site_adp_type
_atom_site_occupancy
_atom_site_symmetry_multiplicity
_atom_site_calc_flag
_atom_site_refinement_flags
_atom_site_disorder_assembly
_atom_site_disorder_group
Nd1 Nd 0.021208(3) 0.756877(11) 0.478039(5) 0.01587(4) Uani 1 1 d . . .
O1 O -0.05272(5) 0.77287(18) 0.47401(9) 0.0287(3) Uani 1 1 d . . .
O2 O 0.07801(4) 0.97186(18) 0.49449(7) 0.0266(3) Uani 1 1 d . . .
O3 O -0.01875(4) 0.48157(18) 0.42717(7) 0.0212(3) Uani 1 1 d . . .
O4 O -0.08087(4) 0.38043(18) 0.42992(7) 0.0238(3) Uani 1 1 d . . .
O5 O -0.01518(5) 1.06188(19) 0.42609(7) 0.0233(3) Uani 1 1 d . . .
O6 O 0.00895(5) 0.88691(18) 0.35688(7) 0.0269(3) Uani 1 1 d . . .
O7 O 0.06064(4) 0.5593(2) 0.41849(8) 0.0287(3) Uani 1 1 d . . .
H1O7 H 0.0500 0.4641 0.3982 0.034 Uiso 1 1 d . . .
H2O7 H 0.0863 0.5622 0.4189 0.034 Uiso 1 1 d . . .
O8 O -0.21218(8) 0.4140(4) 0.24538(14) 0.0782(7) Uani 1 1 d . . .
H1O8 H -0.2048 0.4748 0.2828 0.094 Uiso 1 1 d . . .
H2O8 H -0.2134 0.3049 0.2562 0.094 Uiso 1 1 d . . .
O9 O -0.20457(10) 1.0425(4) 0.2759(3) 0.1390(16) Uani 1 1 d . . .
H1O9 H -0.1904 0.9510 0.2714 0.167 Uiso 1 1 d . . .
H2O9 H -0.2211 1.0203 0.2993 0.167 Uiso 1 1 d . . .
N1 N -0.17918(6) 0.6447(3) 0.37015(11) 0.0411(5) Uani 1 1 d . . .
N2 N -0.13429(8) 0.7795(3) 0.27883(12) 0.0384(5) Uani 1 1 d . . .
N3 N -0.04740(7) 1.2398(2) 0.18932(10) 0.0259(4) Uani 1 1 d . . .
N4 N 0.14563(6) 0.5919(3) 0.44134(12) 0.0450(5) Uani 1 1 d . . .
C1 C -0.20561(8) 0.6788(4) 0.40926(16) 0.0484(7) Uani 1 1 d . . .
H1 H -0.2326 0.6339 0.3949 0.058 Uiso 1 1 calc R . .
C2 C -0.19482(9) 0.7775(4) 0.4700(2) 0.0466(7) Uani 1 1 d . . .
H2 H -0.2142 0.8006 0.4955 0.056 Uiso 1 1 calc R . .
C3 C -0.15445(7) 0.8410(3) 0.49186(13) 0.0359(5) Uani 1 1 d . . .
H3 H -0.1465 0.9093 0.5322 0.043 Uiso 1 1 calc R . .
C4 C -0.12564(6) 0.8031(3) 0.45374(11) 0.0252(4) Uani 1 1 d . . .
C5 C -0.13989(6) 0.7056(3) 0.39135(12) 0.0282(4) Uani 1 1 d . . .
C6 C -0.11557(6) 0.6888(3) 0.33738(11) 0.0265(4) Uani 1 1 d . . .
C7 C -0.07794(6) 0.5987(3) 0.34407(9) 0.0233(4) Uani 1 1 d . . .
C8 C -0.05779(8) 0.6149(3) 0.29113(11) 0.0320(5) Uani 1 1 d . . .
H8 H -0.0319 0.5615 0.2955 0.038 Uiso 1 1 calc R . .
C9 C -0.07636(11) 0.7106(3) 0.23183(13) 0.0414(6) Uani 1 1 d . . .
H9 H -0.0632 0.7240 0.1959 0.050 Uiso 1 1 calc R . .
C10 C -0.11492(11) 0.7856(4) 0.22752(14) 0.0449(7) Uani 1 1 d . . .
H10 H -0.1282 0.8438 0.1865 0.054 Uiso 1 1 calc R . .
C11 C -0.08189(6) 0.8739(2) 0.47966(10) 0.0214(3) Uani 1 1 d . . .
C12 C -0.05874(6) 0.4814(2) 0.40466(9) 0.0198(3) Uani 1 1 d . . .
C13 C -0.08813(8) 1.2557(2) 0.18542(13) 0.0294(5) Uani 1 1 d . . .
H13 H -0.1057 1.2962 0.1439 0.035 Uiso 1 1 calc R . .
C14 C -0.10552(7) 1.2149(3) 0.24018(12) 0.0283(4) Uani 1 1 d . . .
H14 H -0.1338 1.2331 0.2362 0.034 Uiso 1 1 calc R . .
C15 C -0.07982(6) 1.1464(3) 0.30073(10) 0.0242(4) Uani 1 1 d . . .
H15 H -0.0906 1.1194 0.3385 0.029 Uiso 1 1 calc R . .
C16 C -0.03794(6) 1.1186(2) 0.30462(9) 0.0195(3) Uani 1 1 d . . .
C17 C -0.02270(6) 1.1726(2) 0.24828(9) 0.0201(3) Uani 1 1 d . . .
C18 C -0.01203(6) 1.0191(2) 0.36569(9) 0.0185(3) Uani 1 1 d . . .
C19 C 0.17351(7) 0.5679(4) 0.40380(15) 0.0468(6) Uani 1 1 d . . .
H19 H 0.1649 0.5088 0.3613 0.056 Uiso 1 1 calc R . .
C20 C 0.21442(8) 0.6259(4) 0.42465(14) 0.0449(6) Uani 1 1 d . . .
H20 H 0.2326 0.6044 0.3968 0.054 Uiso 1 1 calc R . .
C21 C 0.22828(7) 0.7168(3) 0.48759(15) 0.0340(5) Uani 1 1 d . . .
C22 C 0.19944(9) 0.7409(3) 0.52672(18) 0.0390(6) Uani 1 1 d . . .
H22 H 0.2071 0.7990 0.5695 0.047 Uiso 1 1 calc R . .
C23 C 0.15889(8) 0.6767(4) 0.50107(16) 0.0453(6) Uani 1 1 d . . .
H23 H 0.1400 0.6949 0.5279 0.054 Uiso 1 1 calc R . .

loop_
_atom_site_aniso_label
_atom_site_aniso_U_11
_atom_site_aniso_U_22
_atom_site_aniso_U_33
_atom_site_aniso_U_23
_atom_site_aniso_U_13
_atom_site_aniso_U_12
Nd1 0.01742(6) 0.01357(6) 0.01738(6) -0.00009(3) 0.00585(4) 0.00000(3)
O1 0.0211(7) 0.0235(7) 0.0408(9) -0.0076(6) 0.0068(6) -0.0008(5)
O2 0.0245(7) 0.0196(6) 0.0379(8) -0.0052(5) 0.0122(6) -0.0031(5)
O3 0.0191(6) 0.0196(6) 0.0245(6) -0.0020(5) 0.0048(5) -0.0002(5)
O4 0.0223(6) 0.0229(7) 0.0269(7) 0.0032(5) 0.0077(5) -0.0013(5)
O5 0.0309(7) 0.0240(7) 0.0158(6) -0.0012(5) 0.0074(5) 0.0017(6)
O6 0.0377(8) 0.0225(7) 0.0219(6) 0.0006(5) 0.0100(6) 0.0077(6)
O7 0.0219(7) 0.0297(7) 0.0368(8) -0.0092(6) 0.0118(6) -0.0007(6)
O8 0.0727(17) 0.0617(17) 0.0914(18) -0.0085(13) 0.0048(14) -0.0078(13)
O9 0.071(2) 0.0560(19) 0.272(5) 0.027(3) 0.012(3) 0.0088(15)
N1 0.0231(9) 0.0337(11) 0.0607(13) 0.0005(9) -0.0001(8) -0.0067(8)
N2 0.0431(12) 0.0292(9) 0.0322(11) 0.0063(8) -0.0101(9) -0.0026(9)
N3 0.0269(9) 0.0304(10) 0.0192(8) 0.0032(6) 0.0036(7) 0.0020(6)
N4 0.0255(9) 0.0426(12) 0.0642(14) 0.0082(10) 0.0064(9) -0.0033(9)
C1 0.0217(11) 0.0421(15) 0.078(2) 0.0011(14) 0.0072(12) -0.0069(10)
C2 0.0242(12) 0.0420(14) 0.079(2) 0.0012(14) 0.0229(14) -0.0025(10)
C3 0.0264(10) 0.0308(11) 0.0542(14) 0.0001(10) 0.0170(10) -0.0013(9)
C4 0.0180(8) 0.0189(8) 0.0380(11) 0.0029(8) 0.0056(8) -0.0013(7)
C5 0.0206(9) 0.0209(9) 0.0398(12) 0.0034(8) 0.0013(8) -0.0018(7)
C6 0.0283(10) 0.0182(8) 0.0277(10) 0.0016(7) -0.0029(7) -0.0042(8)
C7 0.0283(9) 0.0180(8) 0.0210(8) 0.0010(6) 0.0014(7) -0.0054(7)
C8 0.0455(13) 0.0258(10) 0.0258(10) -0.0032(8) 0.0113(9) -0.0069(9)
C9 0.069(2) 0.0310(11) 0.0235(10) 0.0010(9) 0.0111(11) -0.0115(13)
C10 0.068(2) 0.0320(11) 0.0256(11) 0.0053(9) -0.0053(12) -0.0093(13)
C11 0.0192(8) 0.0193(8) 0.0263(9) 0.0017(7) 0.0069(7) -0.0022(7)
C12 0.0220(8) 0.0175(8) 0.0198(8) -0.0022(6) 0.0051(6) 0.0004(6)
C13 0.0283(11) 0.0308(12) 0.0261(10) 0.0056(7) 0.0014(8) 0.0016(7)
C14 0.0201(9) 0.0294(10) 0.0350(11) 0.0014(8) 0.0064(8) 0.0004(8)
C15 0.0266(9) 0.0224(9) 0.0255(9) -0.0012(7) 0.0100(7) -0.0019(7)
C16 0.0237(8) 0.0185(8) 0.0163(7) 0.0000(6) 0.0051(6) -0.0007(7)
C17 0.0249(8) 0.0194(8) 0.0157(7) -0.0007(6) 0.0045(6) 0.0004(7)
C18 0.0218(8) 0.0184(8) 0.0159(7) 0.0003(6) 0.0060(6) -0.0028(6)
C19 0.0290(12) 0.0519(17) 0.0550(16) -0.0009(12) 0.0020(11) -0.0064(11)
C20 0.0281(11) 0.0559(17) 0.0516(15) -0.0001(12) 0.0118(10) -0.0038(11)
C21 0.0196(10) 0.0360(11) 0.0463(14) 0.0083(10) 0.0081(9) -0.0012(9)
C22 0.0267(12) 0.0386(14) 0.0539(17) -0.0016(9) 0.0140(12) -0.0036(9)
C23 0.0265(11) 0.0436(15) 0.0701(18) 0.0036(14) 0.0202(12) -0.0011(11)

_geom_special_details            
;
All esds (except the esd in the dihedral angle between two l.s. planes)
are estimated using the full covariance matrix. The cell esds are taken
into account individually in the estimation of esds in distances, angles
and torsion angles; correlations between esds in cell parameters are only
used when they are defined by crystal symmetry. An approximate (isotropic)
treatment of cell esds is used for estimating esds involving l.s. planes.
;

loop_
_geom_bond_atom_site_label_1
_geom_bond_atom_site_label_2
_geom_bond_distance
_geom_bond_site_symmetry_2
_geom_bond_publ_flag
Nd1 O5 2.3858(13) 5_576 ?
Nd1 O1 2.4312(17) . ?
Nd1 O2 2.4324(14) . ?
Nd1 O7 2.4641(14) . ?
Nd1 O3 2.5162(14) . ?
Nd1 O6 2.5293(14) . ?
Nd1 O4 2.5409(15) 5_566 ?
Nd1 O3 2.6088(14) 5_566 ?
Nd1 O5 2.6624(15) . ?
Nd1 C12 2.9444(19) 5_566 ?
Nd1 C18 2.9632(18) . ?
Nd1 Nd1 4.0728(7) 5_576 ?
O1 C11 1.254(2) . ?
O2 C11 1.256(2) 5_576 ?
O3 C12 1.285(2) . ?
O3 Nd1 2.6088(14) 5_566 ?
O4 C12 1.243(2) . ?
O4 Nd1 2.5409(15) 5_566 ?
O5 C18 1.271(2) . ?
O5 Nd1 2.3858(13) 5_576 ?
O6 C18 1.246(2) . ?
N1 C1 1.334(3) . ?
N1 C5 1.341(3) . ?
N2 C10 1.335(4) . ?
N2 C6 1.352(3) . ?
N3 C13 1.336(3) . ?
N3 C17 1.343(3) . ?
N4 C23 1.317(4) . ?
N4 C19 1.338(3) . ?
C1 C2 1.381(5) . ?
C2 C3 1.380(4) . ?
C3 C4 1.389(3) . ?
C4 C5 1.411(3) . ?
C4 C11 1.504(3) . ?
C5 C6 1.500(3) . ?
C6 C7 1.393(3) . ?
C7 C8 1.386(3) . ?
C7 C12 1.494(3) . ?
C8 C9 1.381(3) . ?
C9 C10 1.377(5) . ?
C11 O2 1.256(2) 5_576 ?
C12 Nd1 2.9444(19) 5_566 ?
C13 C14 1.388(3) . ?
C14 C15 1.382(3) . ?
C15 C16 1.385(3) . ?
C16 C17 1.398(2) . ?
C16 C18 1.493(2) . ?
C17 C17 1.487(4) 2 ?
C19 C20 1.381(3) . ?
C20 C21 1.393(4) . ?
C21 C22 1.387(4) . ?
C21 C21 1.482(5) 7_566 ?
C22 C23 1.394(4) . ?

loop_
_geom_angle_atom_site_label_1
_geom_angle_atom_site_label_2
_geom_angle_atom_site_label_3
_geom_angle
_geom_angle_site_symmetry_1
_geom_angle_site_symmetry_3
_geom_angle_publ_flag
O5 Nd1 O1 73.17(6) 5_576 . ?
O5 Nd1 O2 74.69(5) 5_576 . ?
O1 Nd1 O2 135.17(5) . . ?
O5 Nd1 O7 152.32(5) 5_576 . ?
O1 Nd1 O7 131.73(5) . . ?
O2 Nd1 O7 88.58(5) . . ?
O5 Nd1 O3 130.02(4) 5_576 . ?
O1 Nd1 O3 66.74(5) . . ?
O2 Nd1 O3 154.77(4) . . ?
O7 Nd1 O3 66.75(5) . . ?
O5 Nd1 O6 120.93(5) 5_576 . ?
O1 Nd1 O6 91.90(6) . . ?
O2 Nd1 O6 78.74(5) . . ?
O7 Nd1 O6 75.58(5) . . ?
O3 Nd1 O6 89.58(5) . . ?
O5 Nd1 O4 82.18(5) 5_576 5_566 ?
O1 Nd1 O4 129.44(5) . 5_566 ?
O2 Nd1 O4 74.81(5) . 5_566 ?
O7 Nd1 O4 72.10(5) . 5_566 ?
O3 Nd1 O4 100.99(5) . 5_566 ?
O6 Nd1 O4 138.27(5) . 5_566 ?
O5 Nd1 O3 77.83(5) 5_576 5_566 ?
O1 Nd1 O3 80.88(5) . 5_566 ?
O2 Nd1 O3 121.35(5) . 5_566 ?
O7 Nd1 O3 93.05(5) . 5_566 ?
O3 Nd1 O3 67.66(5) . 5_566 ?
O6 Nd1 O3 157.18(5) . 5_566 ?
O4 Nd1 O3 50.68(4) 5_566 5_566 ?
O5 Nd1 O5 72.56(5) 5_576 . ?
O1 Nd1 O5 65.96(5) . . ?
O2 Nd1 O5 75.13(5) . . ?
O7 Nd1 O5 124.83(5) . . ?
O3 Nd1 O5 113.97(5) . . ?
O6 Nd1 O5 49.83(4) . . ?
O4 Nd1 O5 144.80(4) 5_566 . ?
O3 Nd1 O5 140.46(4) 5_566 . ?
O5 Nd1 C12 79.49(5) 5_576 5_566 ?
O1 Nd1 C12 105.93(6) . 5_566 ?
O2 Nd1 C12 97.93(5) . 5_566 ?
O7 Nd1 C12 81.23(5) . 5_566 ?
O3 Nd1 C12 83.95(5) . 5_566 ?
O6 Nd1 C12 156.63(5) . 5_566 ?
O4 Nd1 C12 24.83(4) 5_566 5_566 ?
O3 Nd1 C12 25.86(4) 5_566 5_566 ?
O5 Nd1 C12 152.05(4) . 5_566 ?
O5 Nd1 C18 97.68(5) 5_576 . ?
O1 Nd1 C18 76.40(6) . . ?
O2 Nd1 C18 77.85(5) . . ?
O7 Nd1 C18 100.18(5) . . ?
O3 Nd1 C18 100.56(5) . . ?
O6 Nd1 C18 24.63(4) . . ?
O4 Nd1 C18 151.68(5) 5_566 . ?
O3 Nd1 C18 157.15(5) 5_566 . ?
O5 Nd1 C18 25.39(4) . . ?
C12 Nd1 C18 175.48(5) 5_566 . ?
O5 Nd1 Nd1 38.58(3) 5_576 5_576 ?
O1 Nd1 Nd1 64.16(3) . 5_576 ?
O2 Nd1 Nd1 71.19(3) . 5_576 ?
O7 Nd1 Nd1 153.14(4) . 5_576 ?
O3 Nd1 Nd1 129.96(3) . 5_576 ?
O6 Nd1 Nd1 83.07(3) . 5_576 ?
O4 Nd1 Nd1 117.03(3) 5_566 5_576 ?
O3 Nd1 Nd1 112.37(3) 5_566 5_576 ?
O5 Nd1 Nd1 33.98(3) . 5_576 ?
C12 Nd1 Nd1 118.08(4) 5_566 5_576 ?
C18 Nd1 Nd1 59.18(4) . 5_576 ?
C11 O1 Nd1 144.96(13) . . ?
C11 O2 Nd1 131.11(12) 5_576 . ?
C12 O3 Nd1 122.02(11) . . ?
C12 O3 Nd1 91.82(11) . 5_566 ?
Nd1 O3 Nd1 112.34(5) . 5_566 ?
C12 O4 Nd1 96.07(11) . 5_566 ?
C18 O5 Nd1 159.96(12) . 5_576 ?
C18 O5 Nd1 90.66(11) . . ?
Nd1 O5 Nd1 107.44(5) 5_576 . ?
C18 O6 Nd1 97.58(11) . . ?
C1 N1 C5 118.7(2) . . ?
C10 N2 C6 117.9(2) . . ?
C13 N3 C17 117.7(2) . . ?
C23 N4 C19 116.5(2) . . ?
N1 C1 C2 123.2(2) . . ?
C3 C2 C1 118.2(3) . . ?
C2 C3 C4 120.2(3) . . ?
C3 C4 C5 117.45(19) . . ?
C3 C4 C11 118.47(19) . . ?
C5 C4 C11 124.04(18) . . ?
N1 C5 C4 122.1(2) . . ?
N1 C5 C6 113.7(2) . . ?
C4 C5 C6 123.33(18) . . ?
N2 C6 C7 121.9(2) . . ?
N2 C6 C5 111.1(2) . . ?
C7 C6 C5 127.01(18) . . ?
C8 C7 C6 118.48(19) . . ?
C8 C7 C12 118.25(18) . . ?
C6 C7 C12 123.24(17) . . ?
C9 C8 C7 119.7(2) . . ?
C10 C9 C8 117.9(3) . . ?
N2 C10 C9 123.8(2) . . ?
O1 C11 O2 126.10(18) . 5_576 ?
O1 C11 C4 117.00(17) . . ?
O2 C11 C4 116.90(17) 5_576 . ?
O4 C12 O3 121.39(17) . . ?
O4 C12 C7 120.53(17) . . ?
O3 C12 C7 117.98(17) . . ?
O4 C12 Nd1 59.11(10) . 5_566 ?
O3 C12 Nd1 62.32(10) . 5_566 ?
C7 C12 Nd1 178.69(12) . 5_566 ?
N3 C13 C14 123.3(2) . . ?
C15 C14 C13 118.4(2) . . ?
C14 C15 C16 119.36(18) . . ?
C15 C16 C17 118.16(17) . . ?
C15 C16 C18 118.71(16) . . ?
C17 C16 C18 122.92(16) . . ?
N3 C17 C16 122.77(18) . . ?
N3 C17 C17 11