####################################################################### 
# 
# This file contains crystal structure data downloaded from the 
# Cambridge Structural Database (CSD) hosted by the Cambridge 
# Crystallographic Data Centre (CCDC).
# 
# Full information about CCDC data access policies and citation 
# guidelines are available at http://www.ccdc.cam.ac.uk/access/V1 
# 
# Audit and citation data items may have been added by the CCDC. 
# Please retain this information to preserve the provenance of 
# this file and to allow appropriate attribution of the data. 
# 
#######################################################################

data_compound10
_audit_block_doi                 10.5517/cctygnv
_database_code_depnum_ccdc_archive 'CCDC 773098'
loop_
_citation_id
_citation_doi
_citation_year
1 10.1002/ejic.201000484 2010
_audit_update_record             
;
2010-04-14 deposited with the CCDC.	2024-07-13 downloaded from the CCDC.
;

_audit_creation_method           SHELXL-97
_chemical_name_systematic        
;
?
;
_chemical_name_common            ?
_chemical_melting_point          ?
_chemical_formula_moiety         ?
_chemical_formula_sum            'C14 H14 Cu2 N8 O18 S3 V5'
_chemical_formula_weight         1060.29

loop_
_atom_type_symbol
_atom_type_description
_atom_type_scat_dispersion_real
_atom_type_scat_dispersion_imag
_atom_type_scat_source
C C 0.0033 0.0016 'International Tables Vol C Tables 4.2.6.8 and 6.1.1.4'
H H 0.0000 0.0000 'International Tables Vol C Tables 4.2.6.8 and 6.1.1.4'
N N 0.0061 0.0033 'International Tables Vol C Tables 4.2.6.8 and 6.1.1.4'
O O 0.0106 0.0060 'International Tables Vol C Tables 4.2.6.8 and 6.1.1.4'
S S 0.1246 0.1234 'International Tables Vol C Tables 4.2.6.8 and 6.1.1.4'
V V 0.3005 0.5294 'International Tables Vol C Tables 4.2.6.8 and 6.1.1.4'
Cu Cu 0.3201 1.2651 'International Tables Vol C Tables 4.2.6.8 and 6.1.1.4'

_symmetry_cell_setting           ?
_symmetry_space_group_name_H-M   ?

loop_

_symmetry_equiv_pos_as_xyz
'x, y, z'
'-x+1/2, y+1/2, -z+1/2'
'-x, -y, -z'
'x-1/2, -y-1/2, z-1/2'

_cell_length_a                   16.618(5)
_cell_length_b                   9.013(5)
_cell_length_c                   22.215(5)
_cell_angle_alpha                90.029(5)
_cell_angle_beta                 105.201(5)
_cell_angle_gamma                89.990(5)
_cell_volume                     3211(2)
_cell_formula_units_Z            4
_cell_measurement_temperature    293(2)
_cell_measurement_reflns_used    ?
_cell_measurement_theta_min      ?
_cell_measurement_theta_max      ?

_exptl_crystal_description       ?
_exptl_crystal_colour            ?
_exptl_crystal_size_max          ?
_exptl_crystal_size_mid          ?
_exptl_crystal_size_min          ?
_exptl_crystal_density_meas      ?
_exptl_crystal_density_diffrn    2.193
_exptl_crystal_density_method    'not measured'
_exptl_crystal_F_000             2076
_exptl_absorpt_coefficient_mu    2.973
_exptl_absorpt_correction_type   ?
_exptl_absorpt_correction_T_min  ?
_exptl_absorpt_correction_T_max  ?
_exptl_absorpt_process_details   ?

_exptl_special_details           
;
?
;

_diffrn_ambient_temperature      293(2)
_diffrn_radiation_wavelength     0.71069
_diffrn_radiation_type           MoK\a
_diffrn_radiation_source         'fine-focus sealed tube'
_diffrn_radiation_monochromator  graphite
_diffrn_measurement_device_type  ?
_diffrn_measurement_method       ?
_diffrn_detector_area_resol_mean ?
_diffrn_standards_number         ?
_diffrn_standards_interval_count ?
_diffrn_standards_interval_time  ?
_diffrn_standards_decay_%        ?
_diffrn_reflns_number            2416
_diffrn_reflns_av_R_equivalents  0.0000
_diffrn_reflns_av_sigmaI/netI    0.0863
_diffrn_reflns_limit_h_min       -20
_diffrn_reflns_limit_h_max       19
_diffrn_reflns_limit_k_min       0
_diffrn_reflns_limit_k_max       10
_diffrn_reflns_limit_l_min       0
_diffrn_reflns_limit_l_max       27
_diffrn_reflns_theta_min         2.45
_diffrn_reflns_theta_max         25.89
_reflns_number_total             2416
_reflns_number_gt                1431
_reflns_threshold_expression     >2sigma(I)

_computing_data_collection       ?
_computing_cell_refinement       ?
_computing_data_reduction        ?
_computing_structure_solution    ?
_computing_structure_refinement  'SHELXL-97 (Sheldrick, 1997)'
_computing_molecular_graphics    ?
_computing_publication_material  ?

_refine_special_details          
;
Refinement of F^2^ against ALL reflections. The weighted R-factor wR
and
goodness of fit S are based on F^2^, conventional R-factors R are based
on F, with F set to zero for negative F^2^. The threshold expression of
F^2^ > 2sigma(F^2^) is used only for calculating R-factors(gt) etc.
and is
not relevant to the choice of reflections for refinement. R-factors
based
on F^2^ are statistically about twice as large as those based on F,
and R-
factors based on ALL data will be even larger.
;

_refine_ls_structure_factor_coef Fsqd
_refine_ls_matrix_type           full
_refine_ls_weighting_scheme      calc
_refine_ls_weighting_details     
'calc w=1/[\s^2^(Fo^2^)+(0.0294P)^2^+0.0000P] where P=(Fo^2^+2Fc^2^)/3'
_atom_sites_solution_primary     direct
_atom_sites_solution_secondary   difmap
_atom_sites_solution_hydrogens   geom
_refine_ls_hydrogen_treatment    mixed
_refine_ls_extinction_method     SHELXL
_refine_ls_extinction_coef       0.00000(6)
_refine_ls_extinction_expression Fc^*^=kFc[1+0.001xFc^2^\l^3^/sin(2\q)]^-1/4^
_refine_ls_number_reflns         2416
_refine_ls_number_parameters     480
_refine_ls_number_restraints     12
_refine_ls_R_factor_all          0.0695
_refine_ls_R_factor_gt           0.0303
_refine_ls_wR_factor_ref         0.0618
_refine_ls_wR_factor_gt          0.0567
_refine_ls_goodness_of_fit_ref   0.808
_refine_ls_restrained_S_all      0.806
_refine_ls_shift/su_max          0.523
_refine_ls_shift/su_mean         0.001

loop_
_atom_site_label
_atom_site_type_symbol
_atom_site_fract_x
_atom_site_fract_y
_atom_site_fract_z
_atom_site_U_iso_or_equiv
_atom_site_adp_type
_atom_site_occupancy
_atom_site_symmetry_multiplicity
_atom_site_calc_flag
_atom_site_refinement_flags
_atom_site_disorder_assembly
_atom_site_disorder_group
Cu1 Cu 0.83874(7) 0.49965(12) 0.19784(5) 0.0285(3) Uani 1 1 d . . .
S1 S 0.72189(18) 0.3607(3) 0.17652(14) 0.0322(9) Uani 1 1 d . . .
O O 0.9133(3) 0.3317(7) 0.2288(2) 0.0295(16) Uani 1 1 d D . .
N11 N 0.9220(4) 0.6676(8) 0.2093(3) 0.0250(17) Uani 1 1 d . . .
N31 N 0.6785(4) 0.6438(8) 0.1486(3) 0.0268(19) Uani 1 1 d . . .
H31N H 0.6442 0.7155 0.1357 0.043(6) Uiso 1 1 calc R . .
N21 N 0.7632(4) 0.6670(8) 0.1714(3) 0.0242(19) Uani 1 1 d . . .
C11 C 1.0053(6) 0.6633(11) 0.2259(4) 0.034(3) Uani 1 1 d . . .
H11 H 1.0319 0.5717 0.2308 0.043(6) Uiso 1 1 calc R . .
C21 C 1.0530(6) 0.7909(13) 0.2362(4) 0.040(3) Uani 1 1 d . . .
H21 H 1.1109 0.7843 0.2473 0.043(6) Uiso 1 1 calc R . .
C71 C 0.6529(5) 0.5007(10) 0.1477(3) 0.028(2) Uani 1 1 d . . .
C61 C 0.7931(5) 0.7969(9) 0.1784(3) 0.025(2) Uani 1 1 d . . .
H61 H 0.7599 0.8814 0.1697 0.043(6) Uiso 1 1 calc R . .
C51 C 0.8835(6) 0.8035(10) 0.2010(4) 0.030(2) Uani 1 1 d . . .
C31 C 1.0154(6) 0.9261(12) 0.2299(4) 0.045(3) Uani 1 1 d . . .
H31 H 1.0474 1.0121 0.2377 0.043(6) Uiso 1 1 calc R . .
C41 C 0.9266(6) 0.9354(10) 0.2114(4) 0.042(3) Uani 1 1 d . . .
H41 H 0.8992 1.0262 0.2067 0.043(6) Uiso 1 1 calc R . .
Cu2 Cu 0.96699(6) 0.57861(12) 0.05988(5) 0.0251(3) Uani 1 1 d . . .
S2 S 0.86432(13) 0.4175(2) 0.06490(10) 0.0302(6) Uani 1 1 d . . .
C72 C 0.7848(5) 0.5457(9) 0.0357(3) 0.024(2) Uani 1 1 d . . .
N32 N 0.7975(4) 0.6902(7) 0.0359(3) 0.0200(17) Uani 1 1 d . . .
N22 N 0.8793(4) 0.7287(8) 0.0515(3) 0.0209(17) Uani 1 1 d . . .
C62 C 0.9031(5) 0.8638(10) 0.0581(3) 0.025(2) Uani 1 1 d . . .
H62 H 0.8654 0.9415 0.0551 0.043(6) Uiso 1 1 calc R . .
C52 C 0.9930(5) 0.8897(9) 0.0708(3) 0.023(2) Uani 1 1 d . . .
C32 C 1.1151(5) 1.0373(11) 0.0874(4) 0.034(3) Uani 1 1 d . . .
H32 H 1.1416 1.1291 0.0932 0.043(6) Uiso 1 1 calc R . .
C12 C 1.1206(5) 0.7745(10) 0.0801(4) 0.034(2) Uani 1 1 d . . .
H12 H 1.1517 0.6883 0.0813 0.043(6) Uiso 1 1 calc R . .
S S 0.92973(13) 0.5850(2) -0.06976(9) 0.0274(5) Uani 1 1 d . . .
N42 N 0.7077(4) 0.4973(8) 0.0146(3) 0.034(2) Uani 1 1 d . . .
H421 H 0.6676 0.5594 0.0015 0.043(6) Uiso 1 1 calc R . .
H422 H 0.6974 0.4037 0.0139 0.043(6) Uiso 1 1 calc R . .
N41 N 0.5742(5) 0.4703(8) 0.1233(3) 0.040(2) Uani 1 1 d . . .
H411 H 0.5397 0.5403 0.1081 0.043(6) Uiso 1 1 calc R . .
H412 H 0.5569 0.3802 0.1224 0.043(6) Uiso 1 1 calc R . .
N12 N 1.0384(4) 0.7632(8) 0.0719(3) 0.0249(17) Uani 1 1 d . . .
C42 C 1.0290(5) 1.0290(9) 0.0792(3) 0.029(2) Uani 1 1 d . . .
H42 H 0.9972 1.1138 0.0794 0.043(6) Uiso 1 1 calc R . .
C22 C 1.1613(6) 0.9102(12) 0.0869(5) 0.036(3) Uani 1 1 d . . .
H22 H 1.2183 0.9154 0.0910 0.043(6) Uiso 1 1 calc R . .
V1 V 0.43449(8) 0.97927(15) -0.12495(5) 0.0177(4) Uani 1 1 d . . .
V2 V 0.33349(7) 0.94967(14) -0.03039(5) 0.0174(4) Uani 1 1 d . . .
V3 V 0.61307(8) 0.85117(16) -0.09485(6) 0.0214(4) Uani 1 1 d . . .
V4 V 0.51454(8) 0.82054(14) 0.00350(6) 0.0157(3) Uani 1 1 d . . .
V5 V 0.41086(8) 0.81064(16) 0.09994(6) 0.0216(4) Uani 1 1 d . . .
O1 O 0.4767(3) 0.7011(5) 0.0486(2) 0.0170(13) Uani 1 1 d . . .
O2 O 0.4142(4) 0.8369(7) -0.0630(3) 0.0145(18) Uani 1 1 d . . .
O3 O 0.5059(3) 0.8434(6) -0.1435(2) 0.0200(14) Uani 1 1 d . . .
O4 O 0.4550(3) 0.9919(6) 0.0409(2) 0.0122(13) Uani 1 1 d . . .
O5 O 0.3267(3) 0.8082(6) 0.0232(2) 0.0194(14) Uani 1 1 d . . .
O6 O 0.6087(3) 0.8889(5) 0.0699(2) 0.0127(12) Uani 1 1 d . . .
O7 O 0.3030(3) 1.1034(6) 0.0183(2) 0.0186(14) Uani 1 1 d . . .
O8 O 0.5678(3) 0.7172(5) -0.0356(2) 0.0163(13) Uani 1 1 d . . .
O9 O 0.3647(3) 0.9726(6) 0.1268(2) 0.0222(14) Uani 1 1 d . . .
O10 O 0.2501(3) 0.9367(6) -0.0859(2) 0.0218(15) Uani 1 1 d . . .
O11 O 0.6622(4) 0.7275(7) -0.1233(3) 0.0300(17) Uani 1 1 d . . .
O12 O 0.3538(3) 0.9659(5) -0.1827(2) 0.0226(15) Uani 1 1 d . . .
O13 O 0.3841(3) 0.6757(6) 0.1362(2) 0.0329(16) Uani 1 1 d . . .
O14 O 0.5160(3) 0.8591(5) 0.1505(2) 0.0203(14) Uani 1 1 d . . .
O1W O 1.0485(5) 0.2795(8) 0.1941(3) 0.060(2) Uani 1 1 d D . .
O2W O 0.1946(5) 0.3637(10) 0.2733(4) 0.081(3) Uani 1 1 d D . .
O3W O 0.2256(6) 0.0419(17) 0.2937(6) 0.128(5) Uani 1 1 d D . .
HO7 H 0.276(5) 1.172(10) -0.002(4) 0.043(6) Uiso 1 1 d . . .
H1O9 H 0.3537 0.9677 0.1629 0.043 Uiso 1 1 d . . .
H1O H 0.948(3) 0.329(11) 0.207(2) 0.043(6) Uiso 1 1 d D . .
H2O H 0.940(3) 0.321(9) 0.2667(8) 0.043(6) Uiso 1 1 d D . .
H1W1 H 1.054(5) 0.321(8) 0.1611(15) 0.043(6) Uiso 1 1 d D . .
H2W1 H 1.082(4) 0.321(7) 0.2249(17) 0.043(6) Uiso 1 1 d D . .
H1W2 H 0.217(4) 0.297(4) 0.256(3) 0.043(6) Uiso 1 1 d D . .
H2W2 H 0.216(4) 0.447(3) 0.268(4) 0.043(6) Uiso 1 1 d D . .
H1W3 H 0.269(3) 0.089(10) 0.290(4) 0.043(6) Uiso 1 1 d D . .
H2W3 H 0.240(4) -0.010(9) 0.327(3) 0.043(6) Uiso 1 1 d D . .

loop_
_atom_site_aniso_label
_atom_site_aniso_U_11
_atom_site_aniso_U_22
_atom_site_aniso_U_33
_atom_site_aniso_U_23
_atom_site_aniso_U_13
_atom_site_aniso_U_12
Cu1 0.0259(7) 0.0190(7) 0.0347(6) 0.0043(6) -0.0026(5) 0.0013(6)
S1 0.0317(17) 0.0192(16) 0.0371(16) 0.0037(12) -0.0060(13) 0.0049(13)
O 0.031(3) 0.033(4) 0.019(3) 0.002(3) -0.004(3) 0.012(3)
N11 0.026(4) 0.024(5) 0.022(4) -0.004(3) 0.002(3) 0.003(4)
N31 0.020(4) 0.021(5) 0.030(4) 0.002(3) -0.010(3) 0.006(4)
N21 0.031(4) 0.010(5) 0.028(4) 0.002(3) 0.001(3) -0.008(4)
C11 0.036(6) 0.038(6) 0.025(5) 0.001(5) 0.003(4) -0.007(5)
C21 0.030(6) 0.061(9) 0.030(6) 0.007(5) 0.007(5) -0.001(6)
C71 0.032(5) 0.020(6) 0.027(4) 0.001(4) -0.003(4) 0.002(5)
C61 0.034(5) 0.013(5) 0.025(5) 0.004(4) 0.003(4) 0.009(4)
C51 0.053(6) 0.019(6) 0.020(5) -0.008(4) 0.012(5) -0.005(5)
C31 0.050(6) 0.043(7) 0.038(6) -0.005(5) 0.007(5) -0.032(6)
C41 0.059(7) 0.020(6) 0.047(6) 0.007(5) 0.015(5) -0.009(5)
Cu2 0.0213(5) 0.0200(6) 0.0339(6) 0.0015(5) 0.0068(5) 0.0049(5)
S2 0.0277(12) 0.0196(13) 0.0427(13) 0.0087(11) 0.0078(10) 0.0057(11)
C72 0.027(5) 0.021(6) 0.021(4) 0.000(4) 0.003(4) 0.003(4)
N32 0.021(4) 0.012(4) 0.025(4) 0.001(3) 0.002(3) 0.004(3)
N22 0.018(4) 0.021(5) 0.021(4) -0.001(3) 0.002(3) 0.004(3)
C62 0.022(4) 0.027(6) 0.029(5) 0.003(4) 0.011(4) 0.012(4)
C52 0.024(4) 0.023(6) 0.025(4) 0.005(4) 0.013(4) 0.005(4)
C32 0.019(5) 0.036(7) 0.047(6) 0.000(5) 0.006(5) -0.012(5)
C12 0.032(5) 0.029(6) 0.038(5) -0.002(4) 0.004(4) 0.005(5)
S 0.0271(11) 0.0240(14) 0.0329(11) 0.0061(10) 0.0108(10) 0.0128(11)
N42 0.021(4) 0.017(4) 0.057(5) 0.003(4) -0.001(4) 0.002(4)
N41 0.029(4) 0.011(5) 0.068(5) 0.011(4) -0.009(4) 0.004(4)
N12 0.020(4) 0.024(5) 0.028(4) -0.003(3) 0.003(3) -0.005(4)
C42 0.036(5) 0.014(6) 0.036(5) -0.003(4) 0.008(4) -0.002(4)
C22 0.011(5) 0.045(7) 0.050(6) 0.014(5) 0.007(5) -0.001(5)
V1 0.0162(7) 0.0195(9) 0.0145(6) 0.0005(6) -0.0009(6) -0.0001(7)
V2 0.0119(7) 0.0191(9) 0.0193(7) -0.0009(6) 0.0008(6) -0.0016(6)
V3 0.0180(8) 0.0246(9) 0.0212(8) -0.0016(6) 0.0047(6) 0.0041(7)
V4 0.0162(7) 0.0114(8) 0.0168(7) -0.0011(6) -0.0002(6) 0.0010(7)
V5 0.0189(7) 0.0242(9) 0.0207(7) 0.0029(6) 0.0033(6) -0.0032(7)
O1 0.013(3) 0.012(3) 0.025(3) 0.006(2) 0.002(2) 0.001(2)
O2 0.012(3) 0.008(4) 0.020(3) -0.005(3) -0.002(3) 0.002(3)
O3 0.020(3) 0.022(4) 0.015(3) -0.004(3) 0.000(3) -0.002(3)
O4 0.015(3) 0.010(3) 0.011(2) -0.003(2) 0.003(2) -0.002(2)
O5 0.011(3) 0.021(3) 0.023(3) 0.008(2) 0.001(2) -0.006(3)
O6 0.009(3) 0.011(3) 0.017(3) -0.005(2) 0.002(2) -0.002(2)
O7 0.015(3) 0.018(4) 0.021(3) 0.004(2) 0.001(2) 0.006(3)
O8 0.015(3) 0.005(3) 0.026(3) -0.006(2) 0.001(2) 0.003(2)
O9 0.023(3) 0.033(4) 0.014(3) 0.002(3) 0.011(2) -0.003(3)
O10 0.009(3) 0.018(4) 0.034(3) 0.003(3) -0.001(3) -0.007(3)
O11 0.024(3) 0.032(4) 0.033(4) -0.017(3) 0.008(3) 0.010(3)
O12 0.023(3) 0.017(4) 0.023(3) 0.000(2) -0.003(2) 0.004(3)
O13 0.032(4) 0.030(4) 0.036(3) 0.013(3) 0.008(3) -0.012(3)
O14 0.023(3) 0.017(3) 0.017(3) 0.005(2) -0.002(2) 0.000(3)
O1W 0.065(5) 0.072(6) 0.045(4) 0.001(4) 0.016(4) 0.007(4)
O2W 0.084(6) 0.087(7) 0.087(6) -0.027(6) 0.048(5) -0.024(6)
O3W 0.105(10) 0.171(15) 0.113(9) -0.007(9) 0.037(8) -0.005(9)

_geom_special_details            
;
All esds (except the esd in the dihedral angle between two l.s. planes)
are estimated using the full covariance matrix. The cell esds are
taken
into account individually in the estimation of esds in distances,
angles
and torsion angles; correlations between esds in cell parameters are
only
used when they are defined by crystal symmetry. An approximate
(isotropic)
treatment of cell esds is used for estimating esds involving l.s.
planes.
;

loop_
_geom_bond_atom_site_label_1
_geom_bond_atom_site_label_2
_geom_bond_distance
_geom_bond_site_symmetry_2
_geom_bond_publ_flag
Cu1 N21 1.952(7) . ?
Cu1 O 1.963(6) . ?
Cu1 N11 2.021(7) . ?
Cu1 S1 2.254(3) . ?
S1 C71 1.712(8) . ?
N11 C11 1.336(11) . ?
N11 C51 1.371(10) . ?
N31 C71 1.357(10) . ?
N31 N21 1.381(9) . ?
N21 C61 1.265(9) . ?
C11 C21 1.381(12) . ?
C21 C31 1.361(13) . ?
C71 N41 1.306(10) . ?
C61 C51 1.456(12) . ?
C51 C41 1.376(11) . ?
C31 C41 1.426(13) . ?
Cu2 N22 1.961(6) . ?
Cu2 N12 2.020(6) . ?
Cu2 S 2.229(2) 3_765 ?
Cu2 S2 2.266(3) . ?
Cu2 S 2.783(2) . ?
S2 C72 1.747(8) . ?
C72 N42 1.318(9) . ?
C72 N32 1.319(9) . ?
N32 N22 1.358(8) . ?
N22 C62 1.276(10) . ?
C62 C52 1.464(11) . ?
C52 N12 1.364(9) . ?
C52 C42 1.382(10) . ?
C32 C22 1.380(13) . ?
C32 C42 1.397(12) . ?
C12 N12 1.334(10) . ?
C12 C22 1.386(13) . ?
S Cu2 2.229(2) 3_765 ?
V1 O12 1.599(4) . ?
V1 O3 1.826(6) . ?
V1 O14 1.835(5) 3_675 ?
V1 O6 1.970(5) 3_675 ?
V1 O2 1.975(7) . ?
V1 O4 2.264(4) 3_675 ?
V1 V2 3.025(2) . ?
V1 V3 3.090(2) . ?
V2 O10 1.599(4) . ?
V2 O5 1.769(5) . ?
V2 O7 1.906(6) . ?
V2 O2 1.966(7) . ?
V2 O6 2.062(5) 3_675 ?
V2 O4 2.248(4) . ?
V2 V5 3.1077(18) . ?
V3 O11 1.606(6) . ?
V3 O9 1.817(6) 3_675 ?
V3 O3 1.826(5) . ?
V3 O7 1.939(4) 3_675 ?
V3 O8 2.069(5) . ?
V3 O4 2.328(5) 3_675 ?
V3 V4 3.067(2) . ?
V3 V5 3.072(3) 3_675 ?
V4 O8 1.675(5) . ?
V4 O1 1.699(5) . ?
V4 O2 1.922(5) . ?
V4 O6 1.947(4) . ?
V4 O4 2.086(5) 3_675 ?
V4 O4 2.118(5) . ?
V4 V5 3.083(2) . ?
V5 O13 1.586(6) . ?
V5 O9 1.820(6) . ?
V5 O14 1.865(4) . ?
V5 O5 1.900(4) . ?
V5 O1 2.032(6) . ?
V5 O4 2.331(5) . ?
V5 V3 3.072(3) 3_675 ?
O4 V4 2.086(5) 3_675 ?
O4 V1 2.264(4) 3_675 ?
O4 V3 2.328(5) 3_675 ?
O6 V1 1.970(5) 3_675 ?
O6 V2 2.062(5) 3_675 ?
O7 V3 1.939(4) 3_675 ?
O9 V3 1.817(6) 3_675 ?
O14 V1 1.835(5) 3_675 ?

loop_
_geom_angle_atom_site_label_1
_geom_angle_atom_site_label_2
_geom_angle_atom_site_label_3
_geom_angle
_geom_angle_site_symmetry_1
_geom_angle_site_symmetry_3
_geom_angle_publ_flag
N21 Cu1 O 176.9(3) . . ?
N21 Cu1 N11 79.9(3) . . ?
O Cu1 N11 100.6(3) . . ?
N21 Cu1 S1 85.1(2) . . ?
O Cu1 S1 94.32(19) . . ?
N11 Cu1 S1 165.0(2) . . ?
C71 S1 Cu1 97.2(3) . . ?
C11 N11 C51 118.4(8) . . ?
C11 N11 Cu1 129.7(6) . . ?
C51 N11 Cu1 111.9(6) . . ?
C71 N31 N21 115.8(7) . . ?
C61 N21 N31 121.0(7) . . ?
C61 N21 Cu1 118.5(6) . . ?
N31 N21 Cu1 120.4(5) . . ?
N11 C11 C21 122.0(9) . . ?
C31 C21 C11 120.0(10) . . ?
N41 C71 N31 118.8(7) . . ?
N41 C71 S1 120.0(7) . . ?
N31 C71 S1 121.2(6) . . ?
N21 C61 C51 114.6(8) . . ?
N11 C51 C41 123.1(9) . . ?
N11 C51 C61 114.4(8) . . ?
C41 C51 C61 122.6(9) . . ?
C21 C31 C41 119.6(9) . . ?
C51 C41 C31 116.8(9) . . ?
N22 Cu2 N12 80.8(3) . . ?
N22 Cu2 S 177.8(2) . 3_765 ?
N12 Cu2 S 97.0(2) . 3_765 ?
N22 Cu2 S2 84.1(2) . . ?
N12 Cu2 S2 161.0(2) . . ?
S Cu2 S2 98.13(9) 3_765 . ?
N22 Cu2 S 85.95(18) . . ?
N12 Cu2 S 94.75(18) . . ?
S Cu2 S 94.16(7) 3_765 . ?
S2 