
#######################################################################
#
#                 Cambridge Crystallographic Data Centre
#                                CCDC
#
#######################################################################
#
# If this CIF has been generated from an entry in the Cambridge
# Structural Database, then it will include bibliographic, chemical,
# crystal, experimental, refinement or atomic coordinate data resulting
# from the CCDC's data processing and validation procedures.
#
#######################################################################

data_CSD_CIF_TANWAG
_audit_creation_date 1996-12-03
_audit_creation_method CSD-ConQuest-V1
_database_code_CSD TANWAG
_database_code_depnum_ccdc_archive 'CCDC 1266301'
_chemical_formula_sum 'C25 H25 Br2 N5 Sr1'
_chemical_formula_moiety
;
C25 H25 Br2 N5 Sr1
;
_journal_coden_Cambridge 154
_journal_volume 49
_journal_year 1996
_journal_page_first 35
_journal_name_full 'Aust.J.Chem. '
loop_
_publ_author_name
"A.F.Waters"
"A.H.White"
_chemical_name_systematic
;
trans-Dibromo-pentapyridyl-strontium(ii)
;
_chemical_name_common
;
Teaching Subset: Fundamental Chemistry
;
_chemical_melting_point 503.15
_cell_volume   5757.474
_exptl_crystal_density_diffrn 1.48
_exptl_special_details
;
Melts above 503.15K

;
_diffrn_ambient_temperature ?
_diffrn_special_details
;
The study was carried out at room temperature,in the range 283-303K

;
#These two values have been output from a single CSD field.
_refine_ls_R_factor_gt 0.045
_refine_ls_wR_factor_gt 0.045
_symmetry_cell_setting orthorhombic
_symmetry_space_group_name_H-M 'P c a b'
_symmetry_Int_Tables_number 61
loop_
_symmetry_equiv_pos_site_id
_symmetry_equiv_pos_as_xyz
1 x,y,z
2 -x,1/2-y,1/2+z
3 1/2+x,-y,1/2-z
4 1/2-x,1/2+y,-z
5 -x,-y,-z
6 x,-1/2+y,-1/2-z
7 -1/2-x,y,-1/2+z
8 -1/2+x,-1/2-y,z
_cell_length_a 18.611(5)
_cell_length_b 17.768(7)
_cell_length_c 17.411(7)
_cell_angle_alpha 90
_cell_angle_beta 90
_cell_angle_gamma 90
_cell_formula_units_Z 8
loop_
_atom_type_symbol
_atom_type_radius_bond
C 0.68
H 0.23
Br 1.21
N 0.68
Sr 2.12
loop_
_atom_site_label
_atom_site_type_symbol
_atom_site_fract_x
_atom_site_fract_y
_atom_site_fract_z
Sr1 Sr 0.6317(1) 0.3472(1) 0.8611(2)
Br1 Br 0.5019(1) 0.4434(2) 0.8532(2)
Br2 Br 0.7665(1) 0.2519(1) 0.8640(2)
N1 N 0.615(1) 0.318(1) 0.707(1)
C1 C 0.566(2) 0.351(2) 0.666(2)
C2 C 0.563(2) 0.342(2) 0.588(2)
C3 C 0.609(2) 0.294(2) 0.555(2)
C4 C 0.662(2) 0.260(2) 0.593(3)
C5 C 0.663(2) 0.275(2) 0.674(2)
N2 N 0.555(1) 0.215(1) 0.850(1)
C6 C 0.588(1) 0.153(2) 0.834(1)
C7 C 0.553(2) 0.080(2) 0.829(2)
C8 C 0.481(2) 0.083(2) 0.842(2)
C9 C 0.446(1) 0.149(2) 0.855(2)
C10 C 0.486(1) 0.213(1) 0.861(2)
N3 N 0.596(1) 0.304(1) 1.006(1)
C11 C 0.633(2) 0.248(2) 1.033(2)
C12 C 0.631(2) 0.228(2) 1.111(2)
C13 C 0.590(2) 0.270(2) 1.160(2)
C14 C 0.550(2) 0.327(2) 1.133(2)
C15 C 0.554(2) 0.340(2) 1.053(2)
N4 N 0.689(1) 0.446(1) 0.964(1)
C16 C 0.759(2) 0.441(2) 0.973(2)
C17 C 0.796(2) 0.498(3) 1.013(2)
C18 C 0.758(2) 0.557(2) 1.040(2)
C19 C 0.687(2) 0.565(2) 1.030(2)
C20 C 0.652(1) 0.507(2) 0.990(2)
N5 N 0.714(1) 0.450(1) 0.785(1)
C21 C 0.703(1) 0.525(2) 0.796(2)
C22 C 0.753(1) 0.578(2) 0.768(1)
C23 C 0.812(2) 0.556(2) 0.732(2)
C24 C 0.826(1) 0.481(2) 0.721(2)
C25 C 0.775(2) 0.429(2) 0.745(2)
H1 H 0.52900 0.38140 0.68680
H2 H 0.52570 0.35920 0.55270
H3 H 0.60990 0.27940 0.49750
H4 H 0.70330 0.22750 0.57340
H5 H 0.69960 0.25200 0.70630
H6 H 0.64210 0.15020 0.82990
H7 H 0.57920 0.03180 0.82020
H8 H 0.45390 0.03450 0.83650
H9 H 0.39060 0.14550 0.86302
H10 H 0.45570 0.25920 0.87060
H11 H 0.66520 0.21960 0.99910
H12 H 0.65830 0.18380 1.13120
H13 H 0.58810 0.25480 1.21600
H14 H 0.51680 0.35620 1.16740
H15 H 0.52660 0.38150 1.03400
H16 H 0.78610 0.39570 0.95700
H17 H 0.84750 0.49780 1.02190
H18 H 0.78230 0.60010 1.06960
H19 H 0.65600 0.60800 1.05000
H20 H 0.59980 0.50960 0.97940
H21 H 0.66010 0.54310 0.81930
H22 H 0.74450 0.63420 0.77560
H23 H 0.84610 0.59350 0.71280
H24 H 0.86900 0.46430 0.69050
H25 H 0.78650 0.37330 0.74250
#END
