
#######################################################################
#
#                 Cambridge Crystallographic Data Centre
#                                CCDC
#
#######################################################################
#
# If this CIF has been generated from an entry in the Cambridge
# Structural Database, then it will include bibliographic, chemical,
# crystal, experimental, refinement or atomic coordinate data resulting
# from the CCDC's data processing and validation procedures.
#
#######################################################################

data_CSD_CIF_TAQBUI
_audit_creation_date 1996-12-16
_audit_creation_method CSD-ConQuest-V1
_database_code_CSD TAQBUI
_database_code_depnum_ccdc_archive 'CCDC 1266453'
_chemical_formula_sum 'C4 H11 F4 N1 Si1'
_chemical_formula_moiety
;
C4 H11 F4 N1 Si1
;
_journal_coden_Cambridge 579
_journal_volume 15
_journal_year 1996
_journal_page_first 2060
_journal_name_full 'Organometallics '
loop_
_publ_author_name
"R.Tacke"
"J.Becht"
"O.Dannappel"
"R.Ahlrichs"
"U.Schneider"
"W.S.Sheldrick"
"J.Hahn"
"F.Kiesgen"
_chemical_name_systematic
;
((Trimethylammonio)methyl)tetrafluorosilicate
;
_chemical_name_common
;
Teaching Subset: Fundamental Chemistry, Symmetry
;
_chemical_melting_point 489
_cell_volume    794.106
_exptl_crystal_colour 'colorless'
_exptl_crystal_density_diffrn 1.482
_diffrn_ambient_temperature 163.15
#These two values have been output from a single CSD field.
_refine_ls_R_factor_gt 0.0527
_refine_ls_wR_factor_gt 0.0527
_symmetry_cell_setting orthorhombic
_symmetry_space_group_name_H-M 'P n m a'
_symmetry_Int_Tables_number 62
loop_
_symmetry_equiv_pos_site_id
_symmetry_equiv_pos_as_xyz
1 x,y,z
2 1/2-x,-y,1/2+z
3 1/2+x,1/2-y,1/2-z
4 -x,1/2+y,-z
5 -x,-y,-z
6 -1/2+x,y,-1/2-z
7 -1/2-x,-1/2+y,-1/2+z
8 x,-1/2-y,z
_cell_length_a 12.087(3)
_cell_length_b 8.364(3)
_cell_length_c 7.855(3)
_cell_angle_alpha 90
_cell_angle_beta 90
_cell_angle_gamma 90
_cell_formula_units_Z 4
loop_
_atom_type_symbol
_atom_type_radius_bond
C 0.68
H 0.23
F 0.64
N 0.68
Si 1.20
loop_
_atom_site_label
_atom_site_type_symbol
_atom_site_fract_x
_atom_site_fract_y
_atom_site_fract_z
Si1 Si 0.1989(1) 0.25000 0.4360(2)
F1 F 0.0632(3) 0.25000 0.4056(4)
F2 F 0.3368(3) 0.25000 0.4605(4)
F3 F 0.2079(2) 0.0853(3) 0.3316(3)
N1 N 0.0890(3) 0.25000 0.7819(5)
C1 C 0.1940(4) 0.25000 0.6770(7)
C2 C 0.0210(3) 0.3975(5) 0.7487(6)
C3 C 0.1201(5) 0.25000 0.9676(7)
H1 H 0.241(3) 0.160(5) 0.710(6)
H2 H 0.241(3) 0.340(5) 0.710(6)
H3 H 0.068(4) 0.489(4) 0.769(7)
H4 H -0.037(3) 0.386(7) 0.833(5)
H5 H -0.003(4) 0.396(7) 0.631(2)
H6 H 0.068(4) 0.011(4) 0.769(1)
H7 H -0.037(3) 0.114(7) 0.833(5)
H8 H -0.003(4) 0.104(7) 0.631(2)
H9 H 0.047(6) 0.25000 1.036(9)
H10 H 0.174(3) 0.166(4) 0.987(6)
H11 H 0.174(3) 0.334(4) 0.987(6)
F3G F 0.2079(2) 0.4147(3) 0.3316(3)
C2G C 0.0210(3) 0.1025(5) 0.7487(6)
#END
