
#######################################################################
#
#                 Cambridge Crystallographic Data Centre
#                                CCDC
#
#######################################################################
#
# If this CIF has been generated from an entry in the Cambridge
# Structural Database, then it will include bibliographic, chemical,
# crystal, experimental, refinement or atomic coordinate data resulting
# from the CCDC's data processing and validation procedures.
#
#######################################################################

data_CSD_CIF_TAQMUT
_audit_creation_date 1996-12-16
_audit_creation_method CSD-ConQuest-V1
_database_code_CSD TAQMUT
_database_code_depnum_ccdc_archive 'CCDC 1266496'
_chemical_formula_sum 'C8 H32 Br2 Ca1 N8'
_chemical_formula_moiety
;
C8 H32 Ca1 N8 2+,2(Br1 1-)
;
_journal_coden_Cambridge 154
_journal_volume 49
_journal_year 1996
_journal_page_first 61
_journal_name_full 'Aust.J.Chem. '
loop_
_publ_author_name
"A.F.Waters"
"A.H.White"
_chemical_name_systematic
;
tetrakis(Ethylenediamine)-calcium(ii) dibromide
;
_chemical_name_common
;
Teaching Subset: Fundamental Chemistry, Symmetry
;
_chemical_melting_point 386
_cell_volume   4041.521
_exptl_crystal_density_diffrn 1.45
_exptl_special_details
;
Melting point range 386-388K
Isomorphous with the strontium chloride analogue

;
_diffrn_ambient_temperature ?
_diffrn_special_details
;
The study was carried out at room temperature,in the range 283-303K

;
#These two values have been output from a single CSD field.
_refine_ls_R_factor_gt 0.047
_refine_ls_wR_factor_gt 0.047
_symmetry_cell_setting orthorhombic
_symmetry_space_group_name_H-M 'F d d d'
_symmetry_Int_Tables_number 70
loop_
_symmetry_equiv_pos_site_id
_symmetry_equiv_pos_as_xyz
1 x,y,z
2 1/4-x,1/4-y,z
3 x,1/4-y,1/4-z
4 1/4-x,y,1/4-z
5 x,1/2+y,1/2+z
6 1/4-x,3/4-y,1/2+z
7 x,3/4-y,3/4-z
8 1/4-x,1/2+y,3/4-z
9 1/2+x,y,1/2+z
10 3/4-x,1/4-y,1/2+z
11 1/2+x,1/4-y,3/4-z
12 3/4-x,y,3/4-z
13 1/2+x,1/2+y,z
14 3/4-x,3/4-y,z
15 1/2+x,3/4-y,1/4-z
16 3/4-x,1/2+y,1/4-z
17 -x,-y,-z
18 -1/4+x,-1/4+y,-z
19 -x,-1/4+y,-1/4+z
20 -1/4+x,-y,-1/4+z
21 -x,-1/2-y,-1/2-z
22 -1/4+x,-3/4+y,-1/2-z
23 -x,-3/4+y,-3/4+z
24 -1/4+x,-1/2-y,-3/4+z
25 -1/2-x,-y,-1/2-z
26 -3/4+x,-1/4+y,-1/2-z
27 -1/2-x,-1/4+y,-3/4+z
28 -3/4+x,-y,-3/4+z
29 -1/2-x,-1/2-y,-z
30 -3/4+x,-3/4+y,-z
31 -1/2-x,-3/4+y,-1/4+z
32 -3/4+x,-1/2-y,-1/4+z
_cell_length_a 28.54(1)
_cell_length_b 15.863(7)
_cell_length_c 8.927(9)
_cell_angle_alpha 90
_cell_angle_beta 90
_cell_angle_gamma 90
_cell_formula_units_Z 8
loop_
_atom_type_symbol
_atom_type_radius_bond
C 0.68
H 0.23
Br 1.21
Ca 1.53
N 0.68
loop_
_atom_site_label
_atom_site_type_symbol
_atom_site_fract_x
_atom_site_fract_y
_atom_site_fract_z
Ca1 Ca 0.37500 0.37500 0.37500
N1 N 0.3396(2) 0.2390(4) 0.256(1)
C1 C 0.3008(4) 0.2542(7) 0.154(1)
C2 C 0.3062(4) 0.3369(8) 0.077(1)
N2 N 0.3096(3) 0.4049(5) 0.1867(9)
H1 H 0.36390 0.21050 0.20000
H2 H 0.32990 0.20170 0.33460
H3 H 0.29780 0.20870 0.08420
H4 H 0.27180 0.25490 0.21280
H5 H 0.33370 0.33490 0.01600
H6 H 0.27970 0.34520 0.00890
H7 H 0.31430 0.45760 0.13820
H8 H 0.27940 0.40900 0.23990
Br1 Br 0.19219(6) 0.37500 0.37500
N1F N 0.3396(2) 0.5110(4) 0.494(1)
C1F C 0.3008(4) 0.4958(7) 0.596(1)
C2F C 0.3062(4) 0.4131(8) 0.673(1)
N2F N 0.3096(3) 0.3451(5) 0.5633(9)
N1K N 0.4104(2) 0.2390(4) 0.494(1)
C1K C 0.4492(4) 0.2542(7) 0.596(1)
C2K C 0.4438(4) 0.3369(8) 0.673(1)
N2K N 0.4404(3) 0.4049(5) 0.5633(9)
N1M N 0.4104(2) 0.5110(4) 0.256(1)
C1M C 0.4492(4) 0.4958(7) 0.154(1)
C2M C 0.4438(4) 0.4131(8) 0.077(1)
N2M N 0.4404(3) 0.3451(5) 0.1867(9)
H7M H 0.43570 0.29240 0.13820
H8M H 0.47060 0.34100 0.23990
H5M H 0.41630 0.41510 0.01600
H6M H 0.47030 0.40480 0.00890
H3M H 0.45220 0.54130 0.08420
H4M H 0.47820 0.49510 0.21280
H1M H 0.38610 0.53950 0.20000
H2M H 0.42010 0.54830 0.33460
H7K H 0.43570 0.45760 0.61180
H8K H 0.47060 0.40900 0.51010
H5K H 0.41630 0.33490 0.73400
H6K H 0.47030 0.34520 0.74110
H3K H 0.45220 0.20870 0.66580
H4K H 0.47820 0.25490 0.53720
H1K H 0.38610 0.21050 0.55000
H2K H 0.42010 0.20170 0.41540
H7F H 0.31430 0.29240 0.61180
H8F H 0.27940 0.34100 0.51010
H5F H 0.33370 0.41510 0.73400
H6F H 0.27970 0.40480 0.74110
H3F H 0.29780 0.54130 0.66580
H4F H 0.27180 0.49510 0.53720
H1F H 0.36390 0.53950 0.55000
H2F H 0.32990 0.54830 0.41540
#END
