
#######################################################################
#
#                 Cambridge Crystallographic Data Centre
#                                CCDC
#
#######################################################################
#
# If this CIF has been generated from an entry in the Cambridge
# Structural Database, then it will include bibliographic, chemical,
# crystal, experimental, refinement or atomic coordinate data resulting
# from the CCDC's data processing and validation procedures.
#
#######################################################################

data_CSD_CIF_TAQYUG
_audit_creation_date 2005-12-08
_audit_creation_method CSD-ConQuest-V1
_database_code_CSD TAQYUG
_database_code_depnum_ccdc_archive 'CCDC 289723'
_chemical_formula_sum 'C6 H4 Br2'
_chemical_formula_moiety
;
C6 H4 Br2
;
_journal_coeditor_code "IUCr FL6191"
_journal_coden_Cambridge 1370
_journal_volume 61
_journal_year 2005
_journal_page_first o3822
_journal_name_full 'Acta Crystallogr.,Sect.E:Struct.Rep.Online '
loop_
_publ_author_name
"R.Hiremath"
"A.A.Sarjeant"
"J.A.Swift"
_chemical_name_systematic
;
p-Dibromobenzene
;
_chemical_name_common
;
Teaching Subset: Symmetry
;
_chemical_melting_point 363
_cell_volume    352.821
_exptl_crystal_colour 'colorless'
_exptl_crystal_density_diffrn 2.663
_exptl_special_details
;
Melting point range 363-364K
isostructural with the dibromobenzene analogue

;
_exptl_crystal_description 'plate'
_exptl_crystal_preparation 'heptane'
_diffrn_ambient_temperature 110
_refine_special_details
;
The halogen site is mixed occupancy in ratio Br:I 50:50 and has been input as 
Br. The sum formula is C6 H4 Br1 I1.
;
#These two values have been output from a single CSD field.
_refine_ls_R_factor_gt 0.0232
_refine_ls_wR_factor_gt 0.0232
_symmetry_cell_setting monoclinic
_symmetry_space_group_name_H-M 'P 21/c'
_symmetry_Int_Tables_number 14
loop_
_symmetry_equiv_pos_site_id
_symmetry_equiv_pos_as_xyz
1 x,y,z
2 -x,1/2+y,1/2-z
3 -x,-y,-z
4 x,-1/2-y,-1/2+z
_cell_length_a 4.1120(6)
_cell_length_b 5.7936(8)
_cell_length_c 14.931(2)
_cell_angle_alpha 90
_cell_angle_beta 97.301(11)
_cell_angle_gamma 90
_cell_formula_units_Z 2
loop_
_atom_type_symbol
_atom_type_radius_bond
C 0.68
H 0.23
Br 1.21
I 1.40
loop_
_atom_site_label
_atom_site_type_symbol
_atom_site_fract_x
_atom_site_fract_y
_atom_site_fract_z
Br1 Br 0.1468(14) 0.3334(8) 0.3316(4)
C1 C 0.3551(8) 0.1365(5) 0.4306(3)
C2 C 0.5026(9) -0.0694(6) 0.4109(3)
H1 H 0.50160 -0.11640 0.34990
C3 C 0.3483(8) 0.2062(6) 0.5194(3)
H2 H 0.24280 0.34610 0.53230
I1? I 0.1417(9) 0.3363(6) 0.3297(2)
Br1B Br 0.8532(14) -0.3334(8) 0.6684(4)
C1B C 0.6449(8) -0.1365(5) 0.5694(3)
C2B C 0.4974(9) 0.0694(6) 0.5891(3)
H1B H 0.49840 0.11640 0.65010
C3B C 0.6517(8) -0.2062(6) 0.4806(3)
H2B H 0.75720 -0.34610 0.46770
#END
