
#######################################################################
#
#                 Cambridge Crystallographic Data Centre
#                                CCDC
#
#######################################################################
#
# If this CIF has been generated from an entry in the Cambridge
# Structural Database, then it will include bibliographic, chemical,
# crystal, experimental, refinement or atomic coordinate data resulting
# from the CCDC's data processing and validation procedures.
#
#######################################################################

data_CSD_CIF_TARTAM
_audit_creation_date 1971-12-31
_audit_creation_method CSD-ConQuest-V1
_database_code_CSD TARTAM
_database_code_depnum_ccdc_archive 'CCDC 1266628'
_chemical_formula_sum 'C4 H6 O6'
_chemical_formula_moiety
;
C4 H6 O6
;
_journal_coeditor_code "IUCr A05502"
_journal_coden_Cambridge 1
_journal_volume 22
_journal_year 1967
_journal_page_first 522
_journal_name_full 'Acta Crystallogr. '
loop_
_publ_author_name
"G.A.Bootsma"
"J.C.Schoone"
_chemical_name_systematic
;
meso-Tartaric acid
;
_chemical_name_common
;
Teaching Subset: Fundamental Chemistry
;
_cell_volume    294.540
_exptl_special_details
;
triclinic polymorph

;
_diffrn_ambient_temperature ?
_diffrn_special_details
;
The study was carried out at room temperature,in the range 283-303K

;
#These two values have been output from a single CSD field.
_refine_ls_R_factor_gt 0.076
_refine_ls_wR_factor_gt 0.076
loop_
_citation_database_id_CSD
_citation_special_details
TARTAC "is a stereoisomer of this entry"
TARTAL "is a stereoisomer of this entry"
ZZZDUI "is a stereoisomer of this entry"
_symmetry_cell_setting triclinic
_symmetry_space_group_name_H-M 'P -1'
_symmetry_Int_Tables_number 2
loop_
_symmetry_equiv_pos_site_id
_symmetry_equiv_pos_as_xyz
1 x,y,z
2 -x,-y,-z
_cell_length_a 9.459
_cell_length_b 6.464
_cell_length_c 5.396
_cell_angle_alpha 68.99
_cell_angle_beta 76.36
_cell_angle_gamma 75.77
_cell_formula_units_Z 2
loop_
_atom_type_symbol
_atom_type_radius_bond
C 0.68
H 0.20
O 0.68
loop_
_atom_site_label
_atom_site_type_symbol
_atom_site_fract_x
_atom_site_fract_y
_atom_site_fract_z
C1 C 0.37200 -0.14890 0.42950
C2 C 0.26250 -0.26130 0.38050
C3 C 0.14360 -0.31910 0.62720
C4 C 0.19310 -0.52060 0.86050
H1 H 0.31700 -0.40000 0.36700
H2 H 0.06100 -0.35300 0.57200
H3 H 0.47200 -0.21400 0.68900
H4 H 0.29800 -0.70800 0.85000
H5 H 0.16200 -0.16100 0.09700
H6 H -0.03600 -0.06400 0.73100
O1 O 0.40350 0.03030 0.27300
O2 O 0.42680 -0.26430 0.65020
O3 O 0.19670 -0.10540 0.16040
O4 O 0.09210 -0.13000 0.71850
O5 O 0.26010 -0.70330 0.78750
O6 O 0.16760 -0.52370 1.09250
#END
