
#######################################################################
#
#                 Cambridge Crystallographic Data Centre
#                                CCDC
#
#######################################################################
#
# If this CIF has been generated from an entry in the Cambridge
# Structural Database, then it will include bibliographic, chemical,
# crystal, experimental, refinement or atomic coordinate data resulting
# from the CCDC's data processing and validation procedures.
#
#######################################################################

data_CSD_CIF_TARTAC
_audit_creation_date 1971-12-31
_audit_creation_method CSD-ConQuest-V1
_database_code_CSD TARTAC
_database_code_depnum_ccdc_archive 'CCDC 1266619'
_chemical_formula_sum 'C4 H6 O6'
_chemical_formula_moiety
;
C4 H6 O6
;
_journal_coeditor_code "IUCr A05213"
_journal_coden_Cambridge 1
_journal_volume 21
_journal_year 1966
_journal_page_first 237
_journal_name_full 'Acta Crystallogr. '
loop_
_publ_author_name
"Y.Okaya"
"N.R.Stemple"
"M.I.Kay"
_chemical_name_systematic
;
D-Tartaric acid
;
_chemical_name_common
;
Teaching Subset: Fundamental Chemistry
;
_cell_volume    283.734
_diffrn_ambient_temperature ?
_diffrn_special_details
;
The study was carried out at room temperature,in the range 283-303K

;
#These two values have been output from a single CSD field.
_refine_ls_R_factor_gt 0.043
_refine_ls_wR_factor_gt 0.043
loop_
_citation_database_id_CSD
_citation_special_details
TARTAL "is a stereoisomer of this entry"
TARTAM "is a stereoisomer of this entry"
ZZZDUI "is a racemate of this entry"
_symmetry_cell_setting monoclinic
_symmetry_space_group_name_H-M 'P 21'
_symmetry_Int_Tables_number 4
loop_
_symmetry_equiv_pos_site_id
_symmetry_equiv_pos_as_xyz
1 x,y,z
2 -x,1/2+y,-z
_cell_length_a 7.710(3)
_cell_length_b 6.000(3)
_cell_length_c 6.230(3)
_cell_angle_alpha 90
_cell_angle_beta 100.1(1)
_cell_angle_gamma 90
_cell_formula_units_Z 2
loop_
_atom_type_symbol
_atom_type_radius_bond
C 0.68
H 0.20
O 0.68
loop_
_atom_site_label
_atom_site_type_symbol
_atom_site_fract_x
_atom_site_fract_y
_atom_site_fract_z
C1 C 0.29410 0.01590 -0.71680
C2 C 0.46400 -0.00680 -0.80890
C3 C 0.20030 0.22730 -0.81890
C4 C 0.02190 0.25280 -0.75040
H1 H 0.24100 -0.11600 -0.76400
H2 H 0.18200 0.20700 -0.97200
H3 H 0.25300 0.03700 -0.44500
H4 H 0.51500 -0.04600 -1.09000
H5 H 0.34200 0.43800 -0.63300
H6 H -0.18200 0.04900 -0.79700
O1 O 0.33820 0.03430 -0.48980
O2 O 0.42960 -0.03250 -1.02190
O3 O 0.60840 0.00500 -0.69950
O4 O 0.30630 0.41730 -0.76650
O5 O -0.07650 0.07920 -0.82100
O6 O -0.02170 0.40720 -0.65040
#END
