
#######################################################################
#
#                 Cambridge Crystallographic Data Centre
#                                CCDC
#
#######################################################################
#
# If this CIF has been generated from an entry in the Cambridge
# Structural Database, then it will include bibliographic, chemical,
# crystal, experimental, refinement or atomic coordinate data resulting
# from the CCDC's data processing and validation procedures.
#
#######################################################################

data_CSD_CIF_TARTAL04
_audit_creation_date 1978-02-24
_audit_creation_method CSD-ConQuest-V1
_database_code_CSD TARTAL04
_database_code_depnum_ccdc_archive 'CCDC 1266627'
_chemical_formula_sum 'C4 H6 O6'
_chemical_formula_moiety
;
C4 H6 O6
;
_journal_coeditor_code "IUCr A08646"
_journal_coden_Cambridge 108
_journal_volume 28
_journal_year 1972
_journal_page_first 201
_journal_name_full 'Acta Crystallogr.,Sect.A:Cryst.Phys.,Diffr.,Theor.Crystallogr. '
loop_
_publ_author_name
"H.Hope"
"U.de la Camp"
_chemical_name_systematic
;
(+)-(2R,3R)-Tartaric acid
;
_chemical_name_common
;
Teaching Subset: Fundamental Chemistry
;
_cell_volume    283.890
_exptl_crystal_density_diffrn 1.76
_exptl_special_details
;
Absolute configuration

;
_diffrn_ambient_temperature ?
_diffrn_special_details
;
The study was carried out at room temperature,in the range 283-303K

;
#These two values have been output from a single CSD field.
_refine_ls_R_factor_gt 0.0228
_refine_ls_wR_factor_gt 0.0228
loop_
_citation_database_id_CSD
_citation_special_details
TARTAC "is a stereoisomer of this entry"
TARTAM "is a stereoisomer of this entry"
ZZZDUI "is a racemate of this entry"
_symmetry_cell_setting monoclinic
_symmetry_space_group_name_H-M 'P 21'
_symmetry_Int_Tables_number 4
loop_
_symmetry_equiv_pos_site_id
_symmetry_equiv_pos_as_xyz
1 x,y,z
2 -x,1/2+y,-z
_cell_length_a 7.7291(5)
_cell_length_b 6.0069(2)
_cell_length_c 6.2118(3)
_cell_angle_alpha 90
_cell_angle_beta 100.147(2)
_cell_angle_gamma 90
_cell_formula_units_Z 2
loop_
_atom_type_symbol
_atom_type_radius_bond
C 0.68
H 0.23
O 0.68
loop_
_atom_site_label
_atom_site_type_symbol
_atom_site_fract_x
_atom_site_fract_y
_atom_site_fract_z
O1 O 0.33806 -0.03430 -0.48915
O2 O 0.42983 0.03227 -1.02153
O3 O 0.60928 -0.00747 -0.69862
O4 O 0.30636 -0.41881 -0.76597
O5 O -0.07754 -0.08055 -0.82003
O6 O -0.02110 -0.40779 -0.64974
C1 C 0.46350 0.00579 -0.80938
C2 C 0.29375 -0.01613 -0.71762
C3 C 0.20067 -0.22786 -0.81880
C4 C 0.02167 -0.25270 -0.74997
H1 H 0.22510 0.11080 -0.76320
H2 H 0.17280 -0.21510 -0.97510
H3 H 0.23470 -0.00590 -0.44730
H4 H 0.52220 0.03460 -1.08050
H5 H 0.34460 -0.43300 -0.62800
H6 H -0.15890 -0.07840 -0.77210
#END
