####################################################################### 
# 
# This file contains crystal structure data downloaded from the 
# Cambridge Structural Database (CSD) hosted by the Cambridge 
# Crystallographic Data Centre (CCDC).
# 
# Full information about CCDC data access policies and citation 
# guidelines are available at http://www.ccdc.cam.ac.uk/access/V1 
# 
# Audit and citation data items may have been added by the CCDC. 
# Please retain this information to preserve the provenance of 
# this file and to allow appropriate attribution of the data. 
# 
#######################################################################

data_compound1
_audit_block_doi                 10.5517/ccwl0jz
_database_code_depnum_ccdc_archive 'CCDC 821671'
loop_
_citation_id
_citation_doi
_citation_year
1 10.1002/chem.201101183 2012
_audit_update_record             
;
2011-04-13 deposited with the CCDC.	2024-07-13 downloaded from the CCDC.
;
#TrackingRef '5029_web_deposit_cif_file_0_PrakashKanoo_1302689511.cif'


_audit_creation_method           SHELXL-97
_chemical_name_systematic        
;
?
;
_chemical_name_common            ?
_chemical_melting_point          ?
_chemical_formula_moiety         ?
_chemical_formula_sum            'C17 H9 N2 O14 Zn2'
_chemical_formula_weight         596.00

loop_
_atom_type_symbol
_atom_type_description
_atom_type_scat_dispersion_real
_atom_type_scat_dispersion_imag
_atom_type_scat_source
C C 0.0033 0.0016 'International Tables Vol C Tables 4.2.6.8 and 6.1.1.4'
H H 0.0000 0.0000 'International Tables Vol C Tables 4.2.6.8 and 6.1.1.4'
N N 0.0061 0.0033 'International Tables Vol C Tables 4.2.6.8 and 6.1.1.4'
O O 0.0106 0.0060 'International Tables Vol C Tables 4.2.6.8 and 6.1.1.4'
Zn Zn 0.2839 1.4301 'International Tables Vol C Tables 4.2.6.8 and 6.1.1.4'

_symmetry_cell_setting           monoclinic
_symmetry_space_group_name_H-M   C2/c

loop_
_symmetry_equiv_pos_as_xyz
'x, y, z'
'-x, y, -z+1/2'
'x+1/2, y+1/2, z'
'-x+1/2, y+1/2, -z+1/2'
'-x, -y, -z'
'x, -y, z-1/2'
'-x+1/2, -y+1/2, -z'
'x+1/2, -y+1/2, z-1/2'

_cell_length_a                   20.5126(15)
_cell_length_b                   25.971(3)
_cell_length_c                   13.9517(9)
_cell_angle_alpha                90.00
_cell_angle_beta                 123.508(3)
_cell_angle_gamma                90.00
_cell_volume                     6197.3(9)
_cell_formula_units_Z            8
_cell_measurement_temperature    150(2)
_cell_measurement_reflns_used    ?
_cell_measurement_theta_min      ?
_cell_measurement_theta_max      ?

_exptl_crystal_description       block
_exptl_crystal_colour            'light yellow'
_exptl_crystal_size_max          0.3
_exptl_crystal_size_mid          0.2
_exptl_crystal_size_min          0.1
_exptl_crystal_density_meas      ?
_exptl_crystal_density_diffrn    1.278
_exptl_crystal_density_method    'not measured'
_exptl_crystal_F_000             2376
_exptl_absorpt_coefficient_mu    1.603
_exptl_absorpt_correction_type   empirical
_exptl_absorpt_correction_T_min  0.649512
_exptl_absorpt_correction_T_max  0.872341
_exptl_absorpt_process_details   SADABS

_exptl_special_details           
;
?
;

_diffrn_ambient_temperature      150(2)
_diffrn_radiation_wavelength     0.71073
_diffrn_radiation_type           MoK\a
_diffrn_radiation_source         'fine-focus sealed tube'
_diffrn_radiation_monochromator  graphite
_diffrn_measurement_device_type  ?
_diffrn_measurement_method       ?
_diffrn_detector_area_resol_mean ?
_diffrn_standards_number         ?
_diffrn_standards_interval_count ?
_diffrn_standards_interval_time  ?
_diffrn_standards_decay_%        ?
_diffrn_reflns_number            23455
_diffrn_reflns_av_R_equivalents  0.1123
_diffrn_reflns_av_sigmaI/netI    0.0559
_diffrn_reflns_limit_h_min       -18
_diffrn_reflns_limit_h_max       18
_diffrn_reflns_limit_k_min       -23
_diffrn_reflns_limit_k_max       23
_diffrn_reflns_limit_l_min       -12
_diffrn_reflns_limit_l_max       12
_diffrn_reflns_theta_min         1.43
_diffrn_reflns_theta_max         19.14
_reflns_number_total             2525
_reflns_number_gt                1889
_reflns_threshold_expression     >2sigma(I)

_computing_data_collection       'SMART (Bruker,2000)'
_computing_cell_refinement       SMART
_computing_data_reduction        'SAINT (Bruker,2000)'
_computing_structure_solution    'SIR-92 (Altomare et al. 1994)'
_computing_structure_refinement  'SHELXL-97 (Sheldrick, 1997)'
_computing_molecular_graphics    'Mercury 1.4.1'
_computing_publication_material  'PLATON (Spek, 2003)'

_refine_special_details          
;
Refinement of F^2^ against ALL reflections. The weighted R-factor wR and
goodness of fit S are based on F^2^, conventional R-factors R are based
on F, with F set to zero for negative F^2^. The threshold expression of
F^2^ > 2sigma(F^2^) is used only for calculating R-factors(gt) etc. and is
not relevant to the choice of reflections for refinement. R-factors based
on F^2^ are statistically about twice as large as those based on F, and R-
factors based on ALL data will be even larger.
;

_refine_ls_structure_factor_coef Fsqd
_refine_ls_matrix_type           full
_refine_ls_weighting_scheme      calc
_refine_ls_weighting_details     
'calc w=1/[\s^2^(Fo^2^)+(0.1789P)^2^+45.5033P] where P=(Fo^2^+2Fc^2^)/3'
_atom_sites_solution_primary     direct
_atom_sites_solution_secondary   difmap
_atom_sites_solution_hydrogens   geom
_refine_ls_hydrogen_treatment    noref
_refine_ls_extinction_method     SHELXL
_refine_ls_extinction_coef       0.0057(8)
_refine_ls_extinction_expression Fc^*^=kFc[1+0.001xFc^2^\l^3^/sin(2\q)]^-1/4^
_refine_ls_number_reflns         2525
_refine_ls_number_parameters     297
_refine_ls_number_restraints     0
_refine_ls_R_factor_all          0.1134
_refine_ls_R_factor_gt           0.0828
_refine_ls_wR_factor_ref         0.2751
_refine_ls_wR_factor_gt          0.2446
_refine_ls_goodness_of_fit_ref   1.142
_refine_ls_restrained_S_all      1.142
_refine_ls_shift/su_max          0.000
_refine_ls_shift/su_mean         0.000

loop_
_atom_site_label
_atom_site_type_symbol
_atom_site_fract_x
_atom_site_fract_y
_atom_site_fract_z
_atom_site_U_iso_or_equiv
_atom_site_adp_type
_atom_site_occupancy
_atom_site_symmetry_multiplicity
_atom_site_calc_flag
_atom_site_refinement_flags
_atom_site_disorder_assembly
_atom_site_disorder_group
C1 C 0.7271(10) 0.1444(7) 0.5365(17) 0.064(5) Uani 1 1 d . . .
C2 C 0.7387(10) 0.1990(7) 0.5181(16) 0.066(5) Uani 1 1 d . . .
C3 C 0.7140(11) 0.2179(9) 0.4092(15) 0.079(6) Uani 1 1 d . . .
H3 H 0.6890 0.1949 0.3456 0.095 Uiso 1 1 calc R . .
C4 C 0.7239(12) 0.2664(9) 0.3912(15) 0.082(6) Uani 1 1 d . . .
C5 C 0.8342(8) 0.0184(6) 0.6532(15) 0.045(4) Uani 1 1 d . . .
C6 C 0.9200(8) 0.0129(6) 0.6993(14) 0.047(4) Uani 1 1 d . . .
C7 C 0.9730(10) 0.0119(6) 0.8190(13) 0.048(4) Uani 1 1 d . . .
H7 H 0.9532 0.0104 0.8666 0.058 Uiso 1 1 calc R . .
C8 C 1.0511(9) 0.0129(6) 0.8688(12) 0.044(4) Uani 1 1 d . . .
C9 C 0.6255(9) -0.0036(7) 0.7423(13) 0.048(4) Uani 1 1 d . . .
C10 C 0.5617(8) 0.0000(6) 0.6153(12) 0.048(4) Uani 1 1 d . . .
C11 C 0.5751(9) 0.0205(6) 0.5318(13) 0.047(4) Uani 1 1 d . . .
C12 C 0.4884(9) -0.0207(6) 0.5800(12) 0.043(4) Uani 1 1 d . . .
H12 H 0.4824 -0.0356 0.6369 0.052 Uiso 1 1 calc R . .
C13 C 0.7992(10) 0.1010(7) 0.9617(15) 0.075(5) Uani 1 1 d . . .
H13 H 0.7478 0.0968 0.9446 0.089 Uiso 1 1 calc R . .
C14 C 0.8604(12) 0.1093(7) 1.0747(14) 0.071(5) Uani 1 1 d . . .
H14 H 0.8523 0.1105 1.1354 0.085 Uiso 1 1 calc R . .
C15 C 0.9338(11) 0.1158(7) 1.0945(17) 0.082(6) Uani 1 1 d . . .
C16 C 0.9470(10) 0.1163(7) 1.0079(17) 0.072(6) Uani 1 1 d . . .
H16 H 0.9970 0.1222 1.0211 0.087 Uiso 1 1 calc R . .
C17 C 0.8835(13) 0.1077(7) 0.9045(15) 0.078(6) Uani 1 1 d . . .
H17 H 0.8910 0.1081 0.8431 0.094 Uiso 1 1 calc R . .
N1 N 0.8107(7) 0.0986(5) 0.8746(10) 0.050(3) Uani 1 1 d . . .
N2 N 1.0068(10) 0.1181(6) 1.2154(14) 0.096(6) Uani 1 1 d . . .
O7 O 0.7515(7) 0.1297(4) 0.6348(10) 0.076(4) Uani 1 1 d . . .
O4 O 0.6940(7) 0.1159(5) 0.4519(10) 0.080(4) Uani 1 1 d . . .
O10 O 0.6959(10) 0.2805(6) 0.2800(11) 0.139(7) Uani 1 1 d . . .
H10 H 0.7052 0.3119 0.2781 0.209 Uiso 1 1 calc R . .
O8 O 0.8123(5) 0.0242(4) 0.7176(9) 0.059(3) Uani 1 1 d . . .
O3 O 0.7885(6) 0.0184(4) 0.5416(9) 0.062(3) Uani 1 1 d . . .
O9 O 1.0970(5) 0.0125(4) 0.9853(8) 0.064(3) Uani 1 1 d . . .
H9 H 1.1442 0.0133 1.0071 0.097 Uiso 1 1 calc R . .
O1 O 0.6438(5) 0.0390(4) 0.5597(7) 0.050(3) Uani 1 1 d . . .
O5 O 0.6901(6) 0.0174(4) 0.7824(8) 0.054(3) Uani 1 1 d . . .
O2 O 0.6083(5) 0.0293(5) 0.3018(8) 0.062(3) Uani 1 1 d . . .
O6 O 0.6387(7) 0.1246(5) 0.7010(11) 0.097(4) Uani 1 1 d . . .
Zn2 Zn 0.72336(9) 0.07091(7) 0.71225(13) 0.0472(10) Uani 1 1 d . . .
Zn1 Zn 0.68103(9) 0.04035(8) 0.46078(13) 0.0518(10) Uani 1 1 d . . .
O1W O 0.532(3) 0.1659(18) 0.456(4) 0.42(2) Uiso 1 1 d . . .
O2W O 0.821(4) -0.097(3) 0.816(5) 0.55(4) Uiso 1 1 d . . .
O3W O 0.5000 0.273(5) 0.2500 0.75(9) Uiso 1 2 d S . .
O4W O 0.5000 -0.136(2) 0.7500 0.37(3) Uiso 1 2 d S . .
O5W O 0.960(6) 0.248(3) 1.155(6) 0.75(8) Uiso 1 1 d . . .

loop_
_atom_site_aniso_label
_atom_site_aniso_U_11
_atom_site_aniso_U_22
_atom_site_aniso_U_33
_atom_site_aniso_U_23
_atom_site_aniso_U_13
_atom_site_aniso_U_12
C1 0.069(12) 0.075(15) 0.027(12) -0.011(12) 0.013(10) -0.036(11)
C2 0.063(12) 0.083(15) 0.041(13) -0.011(14) 0.021(10) -0.031(11)
C3 0.111(16) 0.082(17) 0.024(13) -0.009(10) 0.025(11) -0.032(12)
C4 0.114(17) 0.087(17) 0.034(14) 0.009(13) 0.034(12) -0.035(13)
C5 0.023(10) 0.058(11) 0.044(13) -0.001(8) 0.013(11) -0.010(7)
C6 0.021(9) 0.065(11) 0.036(12) 0.002(8) 0.003(11) -0.001(8)
C7 0.045(12) 0.065(11) 0.022(12) -0.001(7) 0.011(9) -0.006(8)
C8 0.013(11) 0.083(12) 0.027(10) 0.007(8) 0.005(10) -0.010(8)
C9 0.024(11) 0.080(13) 0.025(11) 0.004(9) 0.004(10) 0.008(9)
C10 0.030(11) 0.084(12) 0.021(10) -0.001(8) 0.009(8) -0.001(8)
C11 0.036(11) 0.072(11) 0.017(10) 0.002(8) 0.006(10) -0.001(8)
C12 0.032(10) 0.075(11) 0.018(11) 0.006(7) 0.010(9) -0.010(8)
C13 0.057(12) 0.109(15) 0.026(12) 0.000(10) 0.004(11) -0.012(11)
C14 0.076(15) 0.096(15) 0.031(13) -0.002(9) 0.023(12) -0.008(11)
C15 0.047(14) 0.078(14) 0.046(14) -0.002(10) -0.021(12) -0.008(10)
C16 0.049(13) 0.122(17) 0.018(11) 0.008(10) 0.001(12) -0.010(10)
C17 0.084(16) 0.098(16) 0.026(13) 0.013(10) 0.013(13) -0.007(12)
N1 0.028(9) 0.082(10) 0.026(8) 0.002(7) 0.006(7) -0.011(7)
N2 0.084(12) 0.121(13) 0.089(18) 0.006(10) 0.052(12) -0.003(11)
O7 0.083(9) 0.084(9) 0.032(8) -0.001(6) 0.013(7) -0.034(7)
O4 0.095(9) 0.087(10) 0.043(8) 0.012(7) 0.028(7) -0.016(8)
O10 0.199(17) 0.124(12) 0.062(11) 0.013(9) 0.051(11) -0.054(12)
O8 0.029(6) 0.118(10) 0.031(7) -0.003(6) 0.017(6) 0.005(6)
O3 0.033(6) 0.118(10) 0.021(7) -0.011(6) 0.007(6) 0.001(6)
O9 0.026(6) 0.136(10) 0.017(7) 0.002(6) 0.003(6) 0.005(6)
O1 0.016(6) 0.103(8) 0.028(6) -0.001(5) 0.010(5) -0.023(5)
O5 0.026(7) 0.097(9) 0.021(6) 0.000(5) 0.001(5) -0.020(6)
O2 0.036(6) 0.127(10) 0.015(6) -0.011(6) 0.009(6) 0.015(6)
O6 0.073(9) 0.125(11) 0.084(9) 0.000(8) 0.036(8) 0.028(8)
Zn2 0.0315(13) 0.0778(17) 0.0221(13) -0.0009(9) 0.0083(10) -0.0093(9)
Zn1 0.0238(13) 0.1005(18) 0.0213(14) -0.0068(9) 0.0061(10) -0.0017(9)

_geom_special_details            
;
All esds (except the esd in the dihedral angle between two l.s. planes)
are estimated using the full covariance matrix. The cell esds are taken
into account individually in the estimation of esds in distances, angles
and torsion angles; correlations between esds in cell parameters are only
used when they are defined by crystal symmetry. An approximate (isotropic)
treatment of cell esds is used for estimating esds involving l.s. planes.
;

loop_
_geom_bond_atom_site_label_1
_geom_bond_atom_site_label_2
_geom_bond_distance
_geom_bond_site_symmetry_2
_geom_bond_publ_flag
C1 O4 1.232(18) . ?
C1 O7 1.233(18) . ?
C1 C2 1.48(2) . ?
C2 C4 1.39(2) 7_656 ?
C2 C3 1.40(2) . ?
C3 C4 1.32(2) . ?
C3 H3 0.9500 . ?
C4 O10 1.374(19) . ?
C4 C2 1.39(2) 7_656 ?
C5 O8 1.216(17) . ?
C5 O3 1.301(18) . ?
C5 C6 1.51(2) . ?
C6 C8 1.37(2) 2_756 ?
C6 C7 1.40(2) . ?
C7 C8 1.35(2) . ?
C7 H7 0.9500 . ?
C8 O9 1.356(16) . ?
C8 C6 1.37(2) 2_756 ?
C9 O5 1.243(17) . ?
C9 O2 1.258(18) 6_556 ?
C9 C10 1.52(2) . ?
C10 C12 1.41(2) . ?
C10 C11 1.44(2) . ?
C11 O1 1.328(17) . ?
C11 C12 1.374(19) 5_656 ?
C12 C11 1.374(19) 5_656 ?
C12 H12 0.9500 . ?
C13 N1 1.36(2) . ?
C13 C14 1.39(2) . ?
C13 H13 0.9500 . ?
C14 C15 1.38(3) . ?
C14 H14 0.9500 . ?
C15 C16 1.38(2) . ?
C15 N2 1.52(2) . ?
C16 C17 1.32(2) . ?
C16 H16 0.9500 . ?
C17 N1 1.33(2) . ?
C17 H17 0.9500 . ?
N1 Zn2 2.092(12) . ?
N2 N2 1.14(3) 2_757 ?
O7 Zn2 2.126(11) . ?
O4 Zn1 1.994(13) . ?
O10 H10 0.8400 . ?
O8 Zn2 2.157(11) . ?
O3 Zn1 1.927(10) . ?
O9 H9 0.8400 . ?
O1 Zn1 1.910(9) . ?
O1 Zn2 2.011(9) . ?
O5 Zn2 2.023(10) . ?
O2 C9 1.258(18) 6 ?
O2 Zn1 1.891(10) . ?
O6 Zn2 2.164(12) . ?

loop_
_geom_angle_atom_site_label_1
_geom_angle_atom_site_label_2
_geom_angle_atom_site_label_3
_geom_angle
_geom_angle_site_symmetry_1
_geom_angle_site_symmetry_3
_geom_angle_publ_flag
O4 C1 O7 123.4(17) . . ?
O4 C1 C2 117.7(17) . . ?
O7 C1 C2 119.0(17) . . ?
C4 C2 C3 116.7(16) 7_656 . ?
C4 C2 C1 121.5(18) 7_656 . ?
C3 C2 C1 121.8(19) . . ?
C4 C3 C2 122.6(16) . . ?
C4 C3 H3 118.7 . . ?
C2 C3 H3 118.7 . . ?
C3 C4 O10 117(2) . . ?
C3 C4 C2 120.7(16) . 7_656 ?
O10 C4 C2 122(2) . 7_656 ?
O8 C5 O3 124.7(13) . . ?
O8 C5 C6 121.1(15) . . ?
O3 C5 C6 114.2(15) . . ?
C8 C6 C7 118.6(13) 2_756 . ?
C8 C6 C5 123.6(15) 2_756 . ?
C7 C6 C5 117.6(17) . . ?
C8 C7 C6 122.1(14) . . ?
C8 C7 H7 118.9 . . ?
C6 C7 H7 118.9 . . ?
C7 C8 O9 117.4(14) . . ?
C7 C8 C6 119.2(13) . 2_756 ?
O9 C8 C6 123.4(13) . 2_756 ?
O5 C9 O2 123.6(13) . 6_556 ?
O5 C9 C10 121.1(16) . . ?
O2 C9 C10 115.3(15) 6_556 . ?
C12 C10 C11 120.3(13) . . ?
C12 C10 C9 116.9(15) . . ?
C11 C10 C9 122.7(15) . . ?
O1 C11 C12 121.2(14) . 5_656 ?
O1 C11 C10 123.0(13) . . ?
C12 C11 C10 115.8(14) 5_656 . ?
C11 C12 C10 123.8(13) 5_656 . ?
C11 C12 H12 118.1 5_656 . ?
C10 C12 H12 118.1 . . ?
N1 C13 C14 121.9(16) . . ?
N1 C13 H13 119.0 . . ?
C14 C13 H13 119.0 . . ?
C15 C14 C13 116.6(16) . . ?
C15 C14 H14 121.7 . . ?
C13 C14 H14 121.7 . . ?
C16 C15 C14 123.0(15) . . ?
C16 C15 N2 115.1(19) . . ?
C14 C15 N2 122(2) . . ?
C17 C16 C15 113.9(17) . . ?
C17 C16 H16 123.1 . . ?
C15 C16 H16 123.1 . . ?
C16 C17 N1 129.0(17) . . ?
C16 C17 H17 115.5 . . ?
N1 C17 H17 115.5 . . ?
C17 N1 C13 115.4(13) . . ?
C17 N1 Zn2 122.8(11) . . ?
C13 N1 Zn2 121.1(11) . . ?
N2 N2 C15 113(2) 2_757 . ?
C1 O7 Zn2 137.0(10) . . ?
C1 O4 Zn1 123.6(11) . . ?
C4 O10 H10 109.5 . . ?
C5 O8 Zn2 134.0(10) . . ?
C5 O3 Zn1 122.4(9) . . ?
C8 O9 H9 109.5 . . ?
C11 O1 Zn1 125.3(9) . . ?
C11 O1 Zn2 124.6(8) . . ?
Zn1 O1 Zn2 110.1(4) . . ?
C9 O5 Zn2 130.1(10) . . ?
C9 O2 Zn1 121.8(9) 6 . ?
O1 Zn2 O5 86.3(4) . . ?
O1 Zn2 N1 175.5(5) . . ?
O5 Zn2 N1 91.6(5) . . ?
O1 Zn2 O7 92.7(4) . . ?
O5 Zn2 O7 176.3(5) . . ?
N1 Zn2 O7 89.6(5) . . ?
O1 Zn2 O8 89.0(4) . . ?
O5 Zn2 O8 95.9(4) . . ?
N1 Zn2 O8 87.3(5) . . ?
O7 Zn2 O8 87.7(5) . . ?
O1 Zn2 O6 92.3(4) . . ?
O5 Zn2 O6 90.4(5) . . ?
N1 Zn2 O6 91.7(5) . . ?
O7 Zn2 O6 86.1(5) . . ?
O8 Zn2 O6 173.7(5) . . ?
O2 Zn1 O1 118.2(4) . . ?
O2 Zn1 O3 123.3(4) . . ?
O1 Zn1 O3 110.9(4) . . ?
O2 Zn1 O4 97.1(5) . . ?
O1 Zn1 O4 100.5(5) . . ?
O3 Zn1 O4 100.3(5) . . ?

_diffrn_measured_fraction_theta_max 0.992
_diffrn_reflns_theta_full        19.14
_diffrn_measured_fraction_theta_full 0.992
_refine_diff_density_max         1.064
_refine_diff_density_min         -0.839
_refine_diff_density_rms         0.290


