####################################################################### 
# 
# This file contains crystal structure data downloaded from the 
# Cambridge Structural Database (CSD) hosted by the Cambridge 
# Crystallographic Data Centre (CCDC).
# 
# Full information about CCDC data access policies and citation 
# guidelines are available at http://www.ccdc.cam.ac.uk/access/V1 
# 
# Audit and citation data items may have been added by the CCDC. 
# Please retain this information to preserve the provenance of 
# this file and to allow appropriate attribution of the data. 
# 
#######################################################################

data_c:\i432
_audit_block_doi                 10.5517/ccwv9ss
_database_code_depnum_ccdc_archive 'CCDC 829646'
loop_
_citation_id
_citation_doi
_citation_year
1 10.1002/chem.201101998 2012
_audit_update_record             
;
2011-06-14 deposited with the CCDC.	2024-07-13 downloaded from the CCDC.
;
#TrackingRef '1.cif'


_audit_creation_method           SHELXL-97
_chemical_name_systematic        
;
?
;
_chemical_name_common            ?
_chemical_melting_point          ?
_chemical_formula_moiety         'Cu5, 6(C22 N6 O2 H16), 10(N O3), 24(O H2)'
_chemical_formula_sum            'C132 H144 Cu5 N46 O66'
_chemical_formula_weight         3748.63

loop_
_atom_type_symbol
_atom_type_description
_atom_type_scat_dispersion_real
_atom_type_scat_dispersion_imag
_atom_type_scat_source
C C 0.0033 0.0016 'International Tables Vol C Tables 4.2.6.8 and 6.1.1.4'
H H 0.0000 0.0000 'International Tables Vol C Tables 4.2.6.8 and 6.1.1.4'
N N 0.0061 0.0033 'International Tables Vol C Tables 4.2.6.8 and 6.1.1.4'
O O 0.0106 0.0060 'International Tables Vol C Tables 4.2.6.8 and 6.1.1.4'
Cu Cu 0.3201 1.2651 'International Tables Vol C Tables 4.2.6.8 and 6.1.1.4'

_symmetry_cell_setting           cubic
_symmetry_space_group_name_H-M   'I 4 3 2'
_symmetry_space_group_name_Hall  'I 4 2 3'

loop_
_symmetry_equiv_pos_as_xyz
'x, y, z'
'-y, x, z'
'-x, -y, z'
'y, -x, z'
'x, -z, y'
'x, -y, -z'
'x, z, -y'
'z, y, -x'
'-x, y, -z'
'-z, y, x'
'z, x, y'
'y, z, x'
'-y, -z, x'
'z, -x, -y'
'-y, z, -x'
'-z, -x, y'
'-z, x, -y'
'y, -z, -x'
'y, x, -z'
'-y, -x, -z'
'-x, z, y'
'-x, -z, -y'
'z, -y, x'
'-z, -y, -x'
'x+1/2, y+1/2, z+1/2'
'-y+1/2, x+1/2, z+1/2'
'-x+1/2, -y+1/2, z+1/2'
'y+1/2, -x+1/2, z+1/2'
'x+1/2, -z+1/2, y+1/2'
'x+1/2, -y+1/2, -z+1/2'
'x+1/2, z+1/2, -y+1/2'
'z+1/2, y+1/2, -x+1/2'
'-x+1/2, y+1/2, -z+1/2'
'-z+1/2, y+1/2, x+1/2'
'z+1/2, x+1/2, y+1/2'
'y+1/2, z+1/2, x+1/2'
'-y+1/2, -z+1/2, x+1/2'
'z+1/2, -x+1/2, -y+1/2'
'-y+1/2, z+1/2, -x+1/2'
'-z+1/2, -x+1/2, y+1/2'
'-z+1/2, x+1/2, -y+1/2'
'y+1/2, -z+1/2, -x+1/2'
'y+1/2, x+1/2, -z+1/2'
'-y+1/2, -x+1/2, -z+1/2'
'-x+1/2, z+1/2, y+1/2'
'-x+1/2, -z+1/2, -y+1/2'
'z+1/2, -y+1/2, x+1/2'
'-z+1/2, -y+1/2, -x+1/2'

_cell_length_a                   32.452(2)
_cell_length_b                   32.452(2)
_cell_length_c                   32.452(2)
_cell_angle_alpha                90.00
_cell_angle_beta                 90.00
_cell_angle_gamma                90.00
_cell_volume                     34176(4)
_cell_formula_units_Z            4
_cell_measurement_temperature    30(2)
_cell_measurement_reflns_used    8110
_cell_measurement_theta_min      2.17
_cell_measurement_theta_max      25.98

_exptl_crystal_description       octahedron
_exptl_crystal_colour            purple
_exptl_crystal_size_max          0.20
_exptl_crystal_size_mid          0.20
_exptl_crystal_size_min          0.20
_exptl_crystal_density_meas      ?
_exptl_crystal_density_diffrn    0.729
_exptl_crystal_density_method    'not measured'
_exptl_crystal_F_000             7724
_exptl_absorpt_coefficient_mu    0.358
_exptl_absorpt_correction_type   multi-scan
_exptl_absorpt_correction_T_min  0.9319
_exptl_absorpt_correction_T_max  0.9319
_exptl_absorpt_process_details   'SADABS (Bruker, 2009)'

_exptl_special_details           
;
?
;

_diffrn_ambient_temperature      30(2)
_diffrn_radiation_wavelength     0.71073
_diffrn_radiation_type           MoK\a
_diffrn_radiation_source         'fine-focus sealed tube'
_diffrn_radiation_monochromator  graphite
_diffrn_measurement_device_type  'Bruker D8 CCD Area Detector'
_diffrn_measurement_method       '\w and \f scans'
_diffrn_detector_area_resol_mean ?
_diffrn_reflns_number            90317
_diffrn_reflns_av_R_equivalents  0.0504
_diffrn_reflns_av_sigmaI/netI    0.0317
_diffrn_reflns_limit_h_min       -39
_diffrn_reflns_limit_h_max       40
_diffrn_reflns_limit_k_min       -40
_diffrn_reflns_limit_k_max       18
_diffrn_reflns_limit_l_min       -38
_diffrn_reflns_limit_l_max       24
_diffrn_reflns_theta_min         0.89
_diffrn_reflns_theta_max         26.38
_reflns_number_total             5860
_reflns_number_gt                4651
_reflns_threshold_expression     >2sigma(I)

_computing_data_collection       'APEX2 (Bruker, 2009)'
_computing_cell_refinement       'SAINT (Bruker, 2009)'
_computing_data_reduction        SAINT
_computing_structure_solution    'SHELXS (Sheldrick, 2008)'
_computing_structure_refinement  'SHELXL (Sheldrick, 2008)'
_computing_molecular_graphics    'X-Seed (Barbour 2001)'
_computing_publication_material  ?

_refine_special_details          
;
Refinement of F^2^ against ALL reflections. The weighted R-factor wR and
goodness of fit S are based on F^2^, conventional R-factors R are based
on F, with F set to zero for negative F^2^. The threshold expression of
F^2^ > 2sigma(F^2^) is used only for calculating R-factors(gt) etc. and is
not relevant to the choice of reflections for refinement. R-factors based
on F^2^ are statistically about twice as large as those based on F, and R-
factors based on ALL data will be even larger.
;

_refine_ls_structure_factor_coef Fsqd
_refine_ls_matrix_type           full
_refine_ls_weighting_scheme      calc
_refine_ls_weighting_details     
'calc w=1/[\s^2^(Fo^2^)+(0.0973P)^2^+0.0000P] where P=(Fo^2^+2Fc^2^)/3'
_atom_sites_solution_primary     direct
_atom_sites_solution_secondary   difmap
_atom_sites_solution_hydrogens   geom
_refine_ls_hydrogen_treatment    constr
_refine_ls_extinction_method     none
_refine_ls_extinction_coef       ?
_refine_ls_abs_structure_details 'Flack H D (1983), Acta Cryst. A39, 876-881'
_refine_ls_abs_structure_Flack   0.070(18)
_refine_ls_number_reflns         5860
_refine_ls_number_parameters     189
_refine_ls_number_restraints     2
_refine_ls_R_factor_all          0.0634
_refine_ls_R_factor_gt           0.0503
_refine_ls_wR_factor_ref         0.1411
_refine_ls_wR_factor_gt          0.1358
_refine_ls_goodness_of_fit_ref   1.019
_refine_ls_restrained_S_all      1.019
_refine_ls_shift/su_max          0.000
_refine_ls_shift/su_mean         0.000

loop_
_atom_site_label
_atom_site_type_symbol
_atom_site_fract_x
_atom_site_fract_y
_atom_site_fract_z
_atom_site_U_iso_or_equiv
_atom_site_adp_type
_atom_site_occupancy
_atom_site_symmetry_multiplicity
_atom_site_calc_flag
_atom_site_refinement_flags
_atom_site_disorder_assembly
_atom_site_disorder_group
Cu1 Cu 0.7500 0.7500 0.7500 0.02657(16) Uani 1 6 d S . .
Cu2 Cu 0.76109(2) 1.0000 1.0000 0.0476(2) Uani 1 4 d S . .
N1 N 0.74887(6) 0.81485(6) 0.74310(6) 0.0363(5) Uani 1 1 d . . .
O3 O 0.83226(12) 1.0000 1.0000 0.0447(8) Uani 1 4 d S . .
N16 N 0.83306(5) 0.83306(5) 0.83306(5) 0.0397(8) Uani 1 3 d SD . .
O17 O 0.82845(5) 0.86210(5) 0.80840(5) 0.0419(5) Uani 1 1 d D . .
O8 O 0.70264(7) 0.93951(7) 0.79810(7) 0.0592(6) Uani 1 1 d . . .
N13 N 0.75833(8) 0.97114(7) 0.94523(6) 0.0420(5) Uani 1 1 d . . .
C15 C 0.78662(10) 0.92334(9) 0.89733(8) 0.0459(7) Uani 1 1 d . . .
H15 H 0.8081 0.9046 0.8906 0.055 Uiso 1 1 calc R . .
N9 N 0.75436(6) 0.90800(6) 0.83345(6) 0.0367(5) Uani 1 1 d . . .
H9 H 0.7732 0.8887 0.8308 0.044 Uiso 1 1 calc R . .
C14 C 0.78759(9) 0.94395(7) 0.93427(8) 0.0403(6) Uani 1 1 d . . .
H14 H 0.8097 0.9388 0.9527 0.048 Uiso 1 1 calc R . .
C4 C 0.73187(10) 0.89613(8) 0.72565(9) 0.0485(7) Uani 1 1 d . . .
H4 H 0.7245 0.9238 0.7198 0.058 Uiso 1 1 calc R . .
C2 C 0.74661(8) 0.82814(8) 0.70349(7) 0.0356(5) Uani 1 1 d . . .
C11 C 0.72391(9) 0.95857(9) 0.88075(9) 0.0475(7) Uani 1 1 d . . .
H11 H 0.7015 0.9643 0.8628 0.057 Uiso 1 1 calc R . .
C10 C 0.75440(9) 0.92962(8) 0.86958(8) 0.0396(6) Uani 1 1 d . . .
C6 C 0.74341(8) 0.84182(8) 0.77327(7) 0.0357(6) Uani 1 1 d . . .
H6 H 0.7450 0.8326 0.8010 0.043 Uiso 1 1 calc R . .
C3 C 0.73896(9) 0.86907(8) 0.69439(8) 0.0449(7) Uani 1 1 d . . .
H3 H 0.7387 0.8782 0.6666 0.054 Uiso 1 1 calc R . .
C12 C 0.72718(10) 0.97806(9) 0.91774(9) 0.0467(7) Uani 1 1 d . . .
H12 H 0.7066 0.9976 0.9249 0.056 Uiso 1 1 calc R . .
C7 C 0.72827(9) 0.91322(9) 0.80122(8) 0.0417(6) Uani 1 1 d . . .
C5 C 0.73547(9) 0.88319(8) 0.76557(8) 0.0429(6) Uani 1 1 d . . .
N18 N 0.9028(2) 0.9028(2) 0.9028(2) 0.182(6) Uani 1 3 d SD . .
O19 O 0.8940(2) 0.93474(13) 0.88382(18) 0.201(3) Uani 1 1 d D . .
O4 O 0.67604(14) 1.0000 1.0000 0.0660(11) Uani 1 4 d S . .
O5 O 0.67372(10) 0.84719(12) 0.83830(12) 0.1244(13) Uani 1 1 d . . .
O7 O 0.8729(2) 1.0036(2) 0.92714(16) 0.0992(18) Uani 0.50 1 d P A -1

loop_
_atom_site_aniso_label
_atom_site_aniso_U_11
_atom_site_aniso_U_22
_atom_site_aniso_U_33
_atom_site_aniso_U_23
_atom_site_aniso_U_13
_atom_site_aniso_U_12
Cu1 0.02657(16) 0.02657(16) 0.02657(16) -0.00492(13) -0.00492(13) -0.00492(13)
Cu2 0.0906(5) 0.0261(2) 0.0261(2) 0.000 0.000 0.000
N1 0.0263(11) 0.0459(11) 0.0367(12) 0.0038(9) -0.0053(8) -0.0049(9)
O3 0.062(2) 0.0361(11) 0.0361(11) 0.000 0.000 0.000
N16 0.0397(8) 0.0397(8) 0.0397(8) -0.0104(8) -0.0104(8) -0.0104(8)
O17 0.0344(9) 0.0446(10) 0.0467(10) 0.0127(8) -0.0072(8) -0.0110(8)
O8 0.0690(15) 0.0569(13) 0.0517(13) -0.0129(10) -0.0184(11) 0.0119(11)
N13 0.0650(16) 0.0281(11) 0.0330(11) -0.0029(9) 0.0024(11) 0.0002(10)
C15 0.0644(19) 0.0368(15) 0.0366(15) -0.0084(11) -0.0142(13) 0.0002(13)
N9 0.0354(12) 0.0361(11) 0.0385(12) -0.0125(9) -0.0022(9) -0.0018(9)
C14 0.0533(16) 0.0281(13) 0.0396(15) -0.0020(11) -0.0114(12) 0.0004(11)
C4 0.070(2) 0.0333(13) 0.0427(17) -0.0056(12) -0.0092(13) -0.0104(13)
C2 0.0307(13) 0.0445(15) 0.0316(13) -0.0040(11) -0.0113(10) -0.0078(11)
C11 0.0444(16) 0.0597(19) 0.0384(15) -0.0045(13) 0.0028(12) 0.0034(14)
C10 0.0546(17) 0.0329(13) 0.0313(13) 0.0021(10) -0.0073(12) -0.0019(12)
C6 0.0322(13) 0.0498(16) 0.0252(12) -0.0054(11) -0.0103(10) 0.0004(11)
C3 0.0683(19) 0.0403(15) 0.0262(13) 0.0021(11) -0.0135(12) -0.0172(13)
C12 0.0561(18) 0.0411(16) 0.0429(16) -0.0111(12) -0.0039(13) 0.0038(13)
C7 0.0467(16) 0.0520(17) 0.0265(13) -0.0046(12) -0.0117(11) -0.0013(14)
C5 0.0515(17) 0.0406(15) 0.0366(15) -0.0024(12) -0.0093(12) -0.0061(13)
N18 0.182(6) 0.182(6) 0.182(6) 0.149(6) 0.149(6) 0.149(6)
O19 0.245(7) 0.161(4) 0.197(6) -0.039(4) -0.086(5) 0.029(5)
O4 0.080(3) 0.0588(15) 0.0588(15) 0.000 0.000 0.000
O5 0.106(2) 0.116(3) 0.151(3) -0.011(2) 0.048(2) -0.056(2)
O7 0.131(5) 0.095(4) 0.072(3) -0.018(4) 0.035(3) 0.012(4)

_geom_special_details            
;
All esds (except the esd in the dihedral angle between two l.s. planes)
are estimated using the full covariance matrix. The cell esds are taken
into account individually in the estimation of esds in distances, angles
and torsion angles; correlations between esds in cell parameters are only
used when they are defined by crystal symmetry. An approximate (isotropic)
treatment of cell esds is used for estimating esds involving l.s. planes.
;

loop_
_geom_bond_atom_site_label_1
_geom_bond_atom_site_label_2
_geom_bond_distance
_geom_bond_site_symmetry_2
_geom_bond_publ_flag
Cu1 N1 2.117(2) 48_666 ?
Cu1 N1 2.117(2) 46_666 ?
Cu1 N1 2.117(2) 44_666 ?
Cu2 N13 2.011(2) 6_577 ?
Cu2 N13 2.011(2) 7_557 ?
Cu2 N13 2.011(2) 5_575 ?
Cu2 O3 2.309(4) . ?
Cu2 O4 2.760(5) . ?
N1 C6 1.325(3) . ?
N1 C2 1.358(3) . ?
N16 O17 1.2453(17) 12 ?
N16 O17 1.2453(17) 11 ?
O8 C7 1.196(3) . ?
N13 C14 1.344(3) . ?
N13 C12 1.367(4) . ?
C15 C14 1.373(4) . ?
C15 C10 1.395(4) . ?
C15 H15 0.9500 . ?
N9 C7 1.356(3) . ?
N9 C10 1.367(3) . ?
N9 H9 0.8800 . ?
C14 H14 0.9500 . ?
C4 C3 1.361(4) . ?
C4 C5 1.367(4) . ?
C4 H4 0.9500 . ?
C2 C3 1.383(4) . ?
C2 C2 1.468(5) 46_666 ?
C11 C12 1.361(4) . ?
C11 C10 1.412(4) . ?
C11 H11 0.9500 . ?
C6 C5 1.390(4) . ?
C6 H6 0.9500 . ?
C3 H3 0.9500 . ?
C12 H12 0.9500 . ?
C7 C5 1.530(4) . ?
N18 O19 1.239(4) 12 ?
N18 O19 1.239(4) 11 ?

loop_
_geom_angle_atom_site_label_1
_geom_angle_atom_site_label_2
_geom_angle_atom_site_label_3
_geom_angle
_geom_angle_site_symmetry_1
_geom_angle_site_symmetry_3
_geom_angle_publ_flag
N1 Cu1 N1 96.92(6) 48_666 46_666 ?
N1 Cu1 N1 88.67(11) 48_666 11 ?
N1 Cu1 N1 172.83(12) 46_666 11 ?
N1 Cu1 N1 77.88(11) 48_666 12 ?
N1 Cu1 N1 88.67(11) 46_666 12 ?
N1 Cu1 N1 96.92(6) 11 12 ?
N1 Cu1 N1 96.92(6) 48_666 44_666 ?
N1 Cu1 N1 96.92(6) 46_666 44_666 ?
N1 Cu1 N1 77.88(11) 11 44_666 ?
N1 Cu1 N1 172.83(12) 12 44_666 ?
N1 Cu1 N1 172.83(12) 48_666 . ?
N1 Cu1 N1 77.88(11) 46_666 . ?
N1 Cu1 N1 96.92(6) 11 . ?
N1 Cu1 N1 96.92(6) 12 . ?
N1 Cu1 N1 88.67(11) 44_666 . ?
N13 Cu2 N13 174.89(15) . 6_577 ?
N13 Cu2 N13 89.887(7) . 7_557 ?
N13 Cu2 N13 89.886(7) 6_577 7_557 ?
N13 Cu2 N13 89.885(7) . 5_575 ?
N13 Cu2 N13 89.886(7) 6_577 5_575 ?
N13 Cu2 N13 174.89(15) 7_557 5_575 ?
N13 Cu2 O3 92.56(8) . . ?
N13 Cu2 O3 92.55(8) 6_577 . ?
N13 Cu2 O3 92.55(8) 7_557 . ?
N13 Cu2 O3 92.55(8) 5_575 . ?
N13 Cu2 O4 87.44(8) . . ?
N13 Cu2 O4 87.45(8) 6_577 . ?
N13 Cu2 O4 87.45(8) 7_557 . ?
N13 Cu2 O4 87.45(8) 5_575 . ?
O3 Cu2 O4 180.000(1) . . ?
C6 N1 C2 118.8(2) . . ?
C6 N1 Cu1 125.52(17) . . ?
C2 N1 Cu1 114.64(16) . . ?
O17 N16 O17 119.999(1) 12 11 ?
O17 N16 O17 120.001(2) 12 . ?
O17 N16 O17 119.997(1) 11 . ?
C14 N13 C12 117.2(2) . . ?
C14 N13 Cu2 120.53(19) . . ?
C12 N13 Cu2 122.23(19) . . ?
C14 C15 C10 120.6(3) . . ?
C14 C15 H15 119.7 . . ?
C10 C15 H15 119.7 . . ?
C7 N9 C10 126.7(2) . . ?
C7 N9 H9 116.6 . . ?
C10 N9 H9 116.6 . . ?
N13 C14 C15 122.3(3) . . ?
N13 C14 H14 118.8 . . ?
C15 C14 H14 118.8 . . ?
C3 C4 C5 119.6(3) . . ?
C3 C4 H4 120.2 . . ?
C5 C4 H4 120.2 . . ?
N1 C2 C3 121.1(2) . . ?
N1 C2 C2 115.57(15) . 46_666 ?
C3 C2 C2 123.29(15) . 46_666 ?
C12 C11 C10 118.8(3) . . ?
C12 C11 H11 120.6 . . ?
C10 C11 H11 120.6 . . ?
N9 C10 C15 118.7(3) . . ?
N9 C10 C11 124.1(2) . . ?
C15 C10 C11 117.2(2) . . ?
N1 C6 C5 122.0(2) . . ?
N1 C6 H6 119.0 . . ?
C5 C6 H6 119.0 . . ?
C4 C3 C2 119.4(2) . . ?
C4 C3 H3 120.3 . . ?
C2 C3 H3 120.3 . . ?
C11 C12 N13 123.8(3) . . ?
C11 C12 H12 118.1 . . ?
N13 C12 H12 118.1 . . ?
O8 C7 N9 126.1(2) . . ?
O8 C7 C5 119.8(2) . . ?
N9 C7 C5 114.1(2) . . ?
C4 C5 C6 118.9(2) . . ?
C4 C5 C7 120.5(2) . . ?
C6 C5 C7 120.5(2) . . ?
O19 N18 O19 119.61(14) 12 11 ?
O19 N18 O19 119.61(14) 12 . ?
O19 N18 O19 119.60(14) 11 . ?

loop_
_geom_torsion_atom_site_label_1
_geom_torsion_atom_site_label_2
_geom_torsion_atom_site_label_3
_geom_torsion_atom_site_label_4
_geom_torsion
_geom_torsion_site_symmetry_1
_geom_torsion_site_symmetry_2
_geom_torsion_site_symmetry_3
_geom_torsion_site_symmetry_4
_geom_torsion_publ_flag
N1 Cu1 N1 C6 172.5(2) 46_666 . . . ?
N1 Cu1 N1 C6 -2.5(2) 11 . . . ?
N1 Cu1 N1 C6 -100.39(16) 12 . . . ?
N1 Cu1 N1 C6 75.1(2) 44_666 . . . ?
N1 Cu1 N1 C2 4.17(13) 46_666 . . . ?
N1 Cu1 N1 C2 -170.82(18) 11 . . . ?
N1 Cu1 N1 C2 91.3(2) 12 . . . ?
N1 Cu1 N1 C2 -93.20(16) 44_666 . . . ?
N13 Cu2 N13 C14 -60.5(2) 7_557 . . . ?
N13 Cu2 N13 C14 124.63(18) 5_575 . . . ?
O3 Cu2 N13 C14 32.1(2) . . . . ?
O4 Cu2 N13 C14 -147.9(2) . . . . ?
N13 Cu2 N13 C12 119.55(19) 7_557 . . . ?
N13 Cu2 N13 C12 -55.3(3) 5_575 . . . ?
O3 Cu2 N13 C12 -147.9(2) . . . . ?
O4 Cu2 N13 C12 32.1(2) . . . . ?
C12 N13 C14 C15 -0.6(4) . . . . ?
Cu2 N13 C14 C15 179.4(2) . . . . ?
C10 C15 C14 N13 -0.8(4) . . . . ?
C6 N1 C2 C3 0.3(4) . . . . ?
Cu1 N1 C2 C3 169.5(2) . . . . ?
C6 N1 C2 C2 179.5(3) . . . 46_666 ?
Cu1 N1 C2 C2 -11.4(3) . . . 46_666 ?
C7 N9 C10 C15 -172.5(3) . . . . ?
C7 N9 C10 C11 6.8(4) . . . . ?
C14 C15 C10 N9 -179.0(3) . . . . ?
C14 C15 C10 C11 1.6(4) . . . . ?
C12 C11 C10 N9 179.7(3) . . . . ?
C12 C11 C10 C15 -1.0(4) . . . . ?
C2 N1 C6 C5 0.0(4) . . . . ?
Cu1 N1 C6 C5 -167.9(2) . . . . ?
C5 C4 C3 C2 4.9(5) . . . . ?
N1 C2 C3 C4 -2.8(4) . . . . ?
C2 C2 C3 C4 178.1(3) 46_666 . . . ?
C10 C11 C12 N13 -0.4(5) . . . . ?
C14 N13 C12 C11 1.3(4) . . . . ?
Cu2 N13 C12 C11 -178.8(2) . . . . ?
C10 N9 C7 O8 5.2(5) . . . . ?
C10 N9 C7 C5 -178.3(2) . . . . ?
C3 C4 C5 C6 -4.6(4) . . . . ?
C3 C4 C5 C7 179.1(3) . . . . ?
N1 C6 C5 C4 2.2(4) . . . . ?
N1 C6 C5 C7 178.5(2) . . . . ?
O8 C7 C5 C4 35.2(4) . . . . ?
N9 C7 C5 C4 -141.5(3) . . . . ?
O8 C7 C5 C6 -141.0(3) . . . . ?
N9 C7 C5 C6 42.3(4) . . . . ?

_diffrn_measured_fraction_theta_max 0.995
_diffrn_reflns_theta_full        26.38
_diffrn_measured_fraction_theta_full 0.995
_refine_diff_density_max         0.708
_refine_diff_density_min         -0.283
_refine_diff_density_rms         0.051

loop_
_platon_squeeze_void_nr
_platon_squeeze_void_average_x
_platon_squeeze_void_average_y
_platon_squeeze_void_average_z
_platon_squeeze_void_volume
_platon_squeeze_void_count_electrons
_platon_squeeze_void_content
1 0.000 0.000 0.000 188 53 ' '
2 0.404 -0.014 -0.006 20555 7098 ' '
3 0.500 0.500 0.500 188 53 ' '
_platon_squeeze_details          
;
;
