####################################################################### 
# 
# This file contains crystal structure data downloaded from the 
# Cambridge Structural Database (CSD) hosted by the Cambridge 
# Crystallographic Data Centre (CCDC).
# 
# Full information about CCDC data access policies and citation 
# guidelines are available at http://www.ccdc.cam.ac.uk/access/V1 
# 
# Audit and citation data items may have been added by the CCDC. 
# Please retain this information to preserve the provenance of 
# this file and to allow appropriate attribution of the data. 
# 
#######################################################################

data_3.cif
_audit_block_doi                 10.5517/ccwv9vv
_database_code_depnum_ccdc_archive 'CCDC 829648'
loop_
_citation_id
_citation_doi
_citation_year
1 10.1002/chem.201101998 2012
_audit_update_record             
;
2011-06-14 deposited with the CCDC.	2024-07-13 downloaded from the CCDC.
;
#TrackingRef '3.cif'


_audit_creation_method           SHELXL-97
_chemical_name_systematic        
;
?
;
_chemical_name_common            ?
_chemical_melting_point          ?
_chemical_formula_moiety         
;
Fe2 Cu3, 6(C22 N6 O2 H16), 10(N O3), 6(O H2)
;
_chemical_formula_sum            'C132 H108 Cu3 Fe2 N46 O48'
_chemical_formula_weight         3396.87

loop_
_atom_type_symbol
_atom_type_description
_atom_type_scat_dispersion_real
_atom_type_scat_dispersion_imag
_atom_type_scat_source
Fe Fe 0.3463 0.8444 'International Tables Vol C Tables 4.2.6.8 and 6.1.1.4'
Cu Cu 0.3201 1.2651 'International Tables Vol C Tables 4.2.6.8 and 6.1.1.4'
C C 0.0033 0.0016 'International Tables Vol C Tables 4.2.6.8 and 6.1.1.4'
N N 0.0061 0.0033 'International Tables Vol C Tables 4.2.6.8 and 6.1.1.4'
O O 0.0106 0.0060 'International Tables Vol C Tables 4.2.6.8 and 6.1.1.4'
H H 0.0000 0.0000 'International Tables Vol C Tables 4.2.6.8 and 6.1.1.4'

_symmetry_cell_setting           cubic
_symmetry_space_group_name_H-M   'I 4 3 2'
_symmetry_space_group_name_Hall  'I 4 2 3'

loop_
_symmetry_equiv_pos_as_xyz
'x, y, z'
'-y, x, z'
'-x, -y, z'
'y, -x, z'
'x, -z, y'
'x, -y, -z'
'x, z, -y'
'z, y, -x'
'-x, y, -z'
'-z, y, x'
'z, x, y'
'y, z, x'
'-y, -z, x'
'z, -x, -y'
'-y, z, -x'
'-z, -x, y'
'-z, x, -y'
'y, -z, -x'
'y, x, -z'
'-y, -x, -z'
'-x, z, y'
'-x, -z, -y'
'z, -y, x'
'-z, -y, -x'
'x+1/2, y+1/2, z+1/2'
'-y+1/2, x+1/2, z+1/2'
'-x+1/2, -y+1/2, z+1/2'
'y+1/2, -x+1/2, z+1/2'
'x+1/2, -z+1/2, y+1/2'
'x+1/2, -y+1/2, -z+1/2'
'x+1/2, z+1/2, -y+1/2'
'z+1/2, y+1/2, -x+1/2'
'-x+1/2, y+1/2, -z+1/2'
'-z+1/2, y+1/2, x+1/2'
'z+1/2, x+1/2, y+1/2'
'y+1/2, z+1/2, x+1/2'
'-y+1/2, -z+1/2, x+1/2'
'z+1/2, -x+1/2, -y+1/2'
'-y+1/2, z+1/2, -x+1/2'
'-z+1/2, -x+1/2, y+1/2'
'-z+1/2, x+1/2, -y+1/2'
'y+1/2, -z+1/2, -x+1/2'
'y+1/2, x+1/2, -z+1/2'
'-y+1/2, -x+1/2, -z+1/2'
'-x+1/2, z+1/2, y+1/2'
'-x+1/2, -z+1/2, -y+1/2'
'z+1/2, -y+1/2, x+1/2'
'-z+1/2, -y+1/2, -x+1/2'

_cell_length_a                   32.637(4)
_cell_length_b                   32.637(4)
_cell_length_c                   32.637(4)
_cell_angle_alpha                90.00
_cell_angle_beta                 90.00
_cell_angle_gamma                90.00
_cell_volume                     34764(6)
_cell_formula_units_Z            4
_cell_measurement_temperature    250(2)
_cell_measurement_reflns_used    8175
_cell_measurement_theta_min      2.66
_cell_measurement_theta_max      23.35

_exptl_crystal_description       hexagon
_exptl_crystal_colour            grey
_exptl_crystal_size_max          0.17
_exptl_crystal_size_mid          0.14
_exptl_crystal_size_min          0.01
_exptl_crystal_density_meas      ?
_exptl_crystal_density_diffrn    0.631
_exptl_crystal_density_method    'not measured'
_exptl_crystal_F_000             6740
_exptl_absorpt_coefficient_mu    0.303
_exptl_absorpt_correction_type   multi-scan
_exptl_absorpt_correction_T_min  0.9502
_exptl_absorpt_correction_T_max  0.9970
_exptl_absorpt_process_details   'SADABS (Bruker, 2009)'

_exptl_special_details           
;
?
;

_diffrn_ambient_temperature      250(2)
_diffrn_radiation_wavelength     0.71073
_diffrn_radiation_type           MoK\a
_diffrn_radiation_source         'fine-focus sealed tube'
_diffrn_radiation_monochromator  graphite
_diffrn_measurement_device_type  'Bruker D8 CCD Area Detector'
_diffrn_measurement_method       '\w and \f scans'
_diffrn_detector_area_resol_mean ?
_diffrn_reflns_number            55401
_diffrn_reflns_av_R_equivalents  0.0370
_diffrn_reflns_av_sigmaI/netI    0.0206
_diffrn_reflns_limit_h_min       -36
_diffrn_reflns_limit_h_max       33
_diffrn_reflns_limit_k_min       -34
_diffrn_reflns_limit_k_max       29
_diffrn_reflns_limit_l_min       -36
_diffrn_reflns_limit_l_max       37
_diffrn_reflns_theta_min         1.25
_diffrn_reflns_theta_max         23.91
_reflns_number_total             4522
_reflns_number_gt                3739
_reflns_threshold_expression     >2sigma(I)

_computing_data_collection       'APEX2 (Bruker, 2009)'
_computing_cell_refinement       'SAINT (Bruker, 2009)'
_computing_data_reduction        SAINT
_computing_structure_solution    'SHELXS (Sheldrick, 2008)'
_computing_structure_refinement  'SHELXL (Sheldrick, 2008)'
_computing_molecular_graphics    'X-Seed (Barbour 2001)'
_computing_publication_material  ?

_refine_special_details          
;
Refinement of F^2^ against ALL reflections. The weighted R-factor wR and
goodness of fit S are based on F^2^, conventional R-factors R are based
on F, with F set to zero for negative F^2^. The threshold expression of
F^2^ > 2sigma(F^2^) is used only for calculating R-factors(gt) etc. and is
not relevant to the choice of reflections for refinement. R-factors based
on F^2^ are statistically about twice as large as those based on F, and R-
factors based on ALL data will be even larger.
;

_refine_ls_structure_factor_coef Fsqd
_refine_ls_matrix_type           full
_refine_ls_weighting_scheme      calc
_refine_ls_weighting_details     
'calc w=1/[\s^2^(Fo^2^)+(0.0802P)^2^+0.0000P] where P=(Fo^2^+2Fc^2^)/3'
_atom_sites_solution_primary     direct
_atom_sites_solution_secondary   difmap
_atom_sites_solution_hydrogens   geom
_refine_ls_hydrogen_treatment    constr
_refine_ls_extinction_method     none
_refine_ls_extinction_coef       ?
_refine_ls_abs_structure_details 'Flack H D (1983), Acta Cryst. A39, 876-881'
_refine_ls_abs_structure_Flack   0.039(19)
_refine_ls_number_reflns         4522
_refine_ls_number_parameters     161
_refine_ls_number_restraints     0
_refine_ls_R_factor_all          0.0474
_refine_ls_R_factor_gt           0.0390
_refine_ls_wR_factor_ref         0.1138
_refine_ls_wR_factor_gt          0.1102
_refine_ls_goodness_of_fit_ref   1.003
_refine_ls_restrained_S_all      1.003
_refine_ls_shift/su_max          0.000
_refine_ls_shift/su_mean         0.000

loop_
_atom_site_label
_atom_site_type_symbol
_atom_site_fract_x
_atom_site_fract_y
_atom_site_fract_z
_atom_site_U_iso_or_equiv
_atom_site_adp_type
_atom_site_occupancy
_atom_site_symmetry_multiplicity
_atom_site_calc_flag
_atom_site_refinement_flags
_atom_site_disorder_assembly
_atom_site_disorder_group
Fe1 Fe 0.2500 0.2500 0.2500 0.03640(16) Uani 1 6 d S . .
Cu2 Cu 0.24272(3) 0.0000 0.0000 0.0892(3) Uani 1 4 d S . .
N1 N 0.25145(5) 0.18558(5) 0.25671(5) 0.0540(4) Uani 1 1 d . . .
O2 O 0.16721(12) 0.0000 0.0000 0.0987(11) Uani 1 4 d S . .
C11 C 0.21590(9) 0.07674(8) 0.10156(8) 0.0842(8) Uani 1 1 d . . .
H11 H 0.1946 0.0948 0.1074 0.101 Uiso 1 1 calc R . .
O8 O 0.29552(9) 0.06090(8) 0.20177(7) 0.1264(9) Uani 1 1 d . . .
C15 C 0.27784(10) 0.04369(8) 0.11819(8) 0.0824(8) Uani 1 1 d . . .
H15 H 0.3004 0.0395 0.1351 0.099 Uiso 1 1 calc R . .
C2 C 0.25235(8) 0.17209(6) 0.29572(7) 0.0641(6) Uani 1 1 d . . .
N9 N 0.24638(7) 0.09272(6) 0.16578(5) 0.0695(5) Uani 1 1 d . . .
H9 H 0.2279 0.1114 0.1676 0.083 Uiso 1 1 calc R . .
C10 C 0.24719(9) 0.07113(6) 0.12961(7) 0.0692(7) Uani 1 1 d . . .
C12 C 0.21616(10) 0.05606(7) 0.06581(8) 0.0814(8) Uani 1 1 d . . .
H12 H 0.1946 0.0606 0.0477 0.098 Uiso 1 1 calc R . .
C4 C 0.26781(12) 0.10301(8) 0.27298(9) 0.1003(10) Uani 1 1 d . . .
H4 H 0.2748 0.0759 0.2783 0.120 Uiso 1 1 calc R . .
C5 C 0.26413(8) 0.11748(7) 0.23294(7) 0.0690(6) Uani 1 1 d . . .
C31 C 0.25607(7) 0.15902(7) 0.22701(6) 0.0625(6) Uani 1 1 d . . .
H31 H 0.2538 0.1685 0.2002 0.075 Uiso 1 1 calc R . .
C7 C 0.27044(9) 0.08840(9) 0.19831(8) 0.0799(7) Uani 1 1 d . . .
C3 C 0.26028(9) 0.13167(7) 0.30596(7) 0.0815(8) Uani 1 1 d . . .
H3 H 0.2608 0.1232 0.3332 0.098 Uiso 1 1 calc R . .
C14 C 0.27460(10) 0.02331(8) 0.08240(8) 0.0826(8) Uani 1 1 d . . .
H14 H 0.2942 0.0035 0.0764 0.099 Uiso 1 1 calc R . .
N13 N 0.24449(8) 0.03006(6) 0.05476(6) 0.0788(6) Uani 1 1 d . . .
N20 N 0.16667(5) 0.16667(5) 0.16667(5) 0.0751(9) Uani 1 3 d S . .
O1 O 0.32620(16) 0.0000 0.0000 0.1218(15) Uani 1 4 d S . .
O21 O 0.17063(5) 0.13891(6) 0.19341(6) 0.0915(6) Uani 1 1 d . . .

loop_
_atom_site_aniso_label
_atom_site_aniso_U_11
_atom_site_aniso_U_22
_atom_site_aniso_U_33
_atom_site_aniso_U_23
_atom_site_aniso_U_13
_atom_site_aniso_U_12
Fe1 0.03640(16) 0.03640(16) 0.03640(16) -0.00581(12) -0.00581(12) -0.00581(12)
Cu2 0.1825(7) 0.0425(2) 0.0425(2) 0.000 0.000 0.000
N1 0.0551(11) 0.0576(9) 0.0491(10) -0.0044(8) -0.0121(7) -0.0017(8)
O2 0.129(3) 0.0836(14) 0.0836(14) 0.000 0.000 0.000
C11 0.116(2) 0.0674(16) 0.0695(16) -0.0079(13) -0.0192(15) 0.0032(14)
O8 0.174(2) 0.1178(18) 0.0870(14) -0.0276(13) -0.0382(15) 0.0496(18)
C15 0.120(2) 0.0712(17) 0.0562(15) -0.0045(13) 0.0037(15) 0.0050(16)
C2 0.0811(16) 0.0558(13) 0.0553(13) -0.0109(10) -0.0100(12) -0.0040(12)
N9 0.0911(15) 0.0641(12) 0.0534(11) -0.0132(9) -0.0106(11) 0.0010(11)
C10 0.110(2) 0.0466(12) 0.0508(13) -0.0080(10) -0.0010(14) -0.0040(13)
C12 0.129(2) 0.0584(15) 0.0573(15) -0.0120(12) -0.0146(15) 0.0120(15)
C4 0.166(3) 0.0646(15) 0.0697(18) -0.0169(14) -0.0280(17) 0.0015(18)
C5 0.0881(17) 0.0619(15) 0.0570(14) -0.0131(11) -0.0150(12) 0.0004(12)
C31 0.0710(15) 0.0706(15) 0.0460(12) -0.0055(10) -0.0132(10) 0.0013(11)
C7 0.100(2) 0.0750(17) 0.0649(16) -0.0058(13) -0.0167(15) 0.0142(16)
C3 0.137(2) 0.0596(15) 0.0481(13) -0.0107(11) -0.0036(14) -0.0124(15)
C14 0.128(2) 0.0644(15) 0.0552(15) -0.0075(12) -0.0011(15) 0.0126(15)
N13 0.138(2) 0.0477(10) 0.0509(11) 0.0026(8) -0.0081(13) 0.0064(12)
N20 0.0751(9) 0.0751(9) 0.0751(9) -0.0104(10) -0.0104(10) -0.0104(10)
O1 0.210(5) 0.0774(14) 0.0774(14) 0.000 0.000 0.000
O21 0.0791(11) 0.0846(12) 0.1109(14) 0.0215(11) -0.0037(10) -0.0153(9)

_geom_special_details            
;
All esds (except the esd in the dihedral angle between two l.s. planes)
are estimated using the full covariance matrix. The cell esds are taken
into account individually in the estimation of esds in distances, angles
and torsion angles; correlations between esds in cell parameters are only
used when they are defined by crystal symmetry. An approximate (isotropic)
treatment of cell esds is used for estimating esds involving l.s. planes.
;

loop_
_geom_bond_atom_site_label_1
_geom_bond_atom_site_label_2
_geom_bond_distance
_geom_bond_site_symmetry_2
_geom_bond_publ_flag
Fe1 N1 2.1143(15) . ?
Fe1 N1 2.1143(15) 48 ?
Fe1 N1 2.1143(15) 11 ?
Fe1 N1 2.1143(15) 12 ?
Fe1 N1 2.1143(15) 44 ?
Fe1 N1 2.1143(15) 46 ?
Cu2 N13 2.040(2) . ?
Cu2 N13 2.040(2) 6 ?
Cu2 N13 2.040(2) 7 ?
Cu2 N13 2.040(2) 5 ?
Cu2 O2 2.465(4) . ?
Cu2 O1 2.724(5) . ?
N1 C31 1.309(3) . ?
N1 C2 1.348(3) . ?
C11 C12 1.348(3) . ?
C11 C10 1.383(4) . ?
C11 H11 0.9300 . ?
O8 C7 1.220(3) . ?
C15 C14 1.348(4) . ?
C15 C10 1.394(4) . ?
C15 H15 0.9300 . ?
C2 C3 1.385(3) . ?
C2 C2 1.493(4) 46 ?
N9 C7 1.328(3) . ?
N9 C10 1.375(3) . ?
N9 H9 0.8600 . ?
C12 N13 1.306(3) . ?
C12 H12 0.9300 . ?
C4 C5 1.395(4) . ?
C4 C3 1.447(4) . ?
C4 H4 0.9300 . ?
C5 C31 1.395(3) . ?
C5 C7 1.490(3) . ?
C31 H31 0.9300 . ?
C3 H3 0.9300 . ?
C14 N13 1.352(4) . ?
C14 H14 0.9300 . ?
N20 O21 1.265(2) . ?
N20 O21 1.265(2) 11 ?
N20 O21 1.265(2) 12 ?

loop_
_geom_angle_atom_site_label_1
_geom_angle_atom_site_label_2
_geom_angle_atom_site_label_3
_geom_angle
_geom_angle_site_symmetry_1
_geom_angle_site_symmetry_3
_geom_angle_publ_flag
N1 Fe1 N1 173.41(10) . 48 ?
N1 Fe1 N1 97.06(5) . 11 ?
N1 Fe1 N1 88.07(9) 48 11 ?
N1 Fe1 N1 97.06(5) . 12 ?
N1 Fe1 N1 78.14(9) 48 12 ?
N1 Fe1 N1 97.06(5) 11 12 ?
N1 Fe1 N1 88.07(9) . 44 ?
N1 Fe1 N1 97.06(5) 48 44 ?
N1 Fe1 N1 78.14(9) 11 44 ?
N1 Fe1 N1 173.41(10) 12 44 ?
N1 Fe1 N1 78.14(9) . 46 ?
N1 Fe1 N1 97.06(5) 48 46 ?
N1 Fe1 N1 173.41(10) 11 46 ?
N1 Fe1 N1 88.07(9) 12 46 ?
N1 Fe1 N1 97.06(5) 44 46 ?
N13 Cu2 N13 176.76(16) . 6 ?
N13 Cu2 N13 89.953(5) . 7 ?
N13 Cu2 N13 89.954(5) 6 7 ?
N13 Cu2 N13 89.956(5) . 5 ?
N13 Cu2 N13 89.954(5) 6 5 ?
N13 Cu2 N13 176.76(16) 7 5 ?
N13 Cu2 O2 91.62(8) . . ?
N13 Cu2 O2 91.62(8) 6 . ?
N13 Cu2 O2 91.62(8) 7 . ?
N13 Cu2 O2 91.62(8) 5 . ?
N13 Cu2 O1 88.38(8) . . ?
N13 Cu2 O1 88.38(8) 6 . ?
N13 Cu2 O1 88.38(8) 7 . ?
N13 Cu2 O1 88.38(8) 5 . ?
O2 Cu2 O1 180.0 . . ?
C31 N1 C2 118.73(18) . . ?
C31 N1 Fe1 125.76(15) . . ?
C2 N1 Fe1 115.04(13) . . ?
C12 C11 C10 120.1(3) . . ?
C12 C11 H11 119.9 . . ?
C10 C11 H11 119.9 . . ?
C14 C15 C10 119.5(3) . . ?
C14 C15 H15 120.3 . . ?
C10 C15 H15 120.3 . . ?
N1 C2 C3 122.9(2) . . ?
N1 C2 C2 115.63(11) . 46 ?
C3 C2 C2 121.29(13) . 46 ?
C7 N9 C10 128.4(2) . . ?
C7 N9 H9 115.8 . . ?
C10 N9 H9 115.8 . . ?
N9 C10 C11 119.1(2) . . ?
N9 C10 C15 124.9(2) . . ?
C11 C10 C15 116.0(2) . . ?
N13 C12 C11 124.7(3) . . ?
N13 C12 H12 117.7 . . ?
C11 C12 H12 117.7 . . ?
C5 C4 C3 117.6(2) . . ?
C5 C4 H4 121.2 . . ?
C3 C4 H4 121.2 . . ?
C4 C5 C31 118.4(2) . . ?
C4 C5 C7 118.9(2) . . ?
C31 C5 C7 122.7(2) . . ?
N1 C31 C5 124.3(2) . . ?
N1 C31 H31 117.9 . . ?
C5 C31 H31 117.9 . . ?
O8 C7 N9 123.3(2) . . ?
O8 C7 C5 119.4(2) . . ?
N9 C7 C5 117.2(2) . . ?
C2 C3 C4 117.9(2) . . ?
C2 C3 H3 121.0 . . ?
C4 C3 H3 121.0 . . ?
C15 C14 N13 123.7(3) . . ?
C15 C14 H14 118.2 . . ?
N13 C14 H14 118.2 . . ?
C12 N13 C14 115.9(2) . . ?
C12 N13 Cu2 122.33(19) . . ?
C14 N13 Cu2 121.79(18) . . ?
O21 N20 O21 119.81(2) . 11 ?
O21 N20 O21 119.81(2) . 12 ?
O21 N20 O21 119.81(2) 11 12 ?

loop_
_geom_torsion_atom_site_label_1
_geom_torsion_atom_site_label_2
_geom_torsion_atom_site_label_3
_geom_torsion_atom_site_label_4
_geom_torsion
_geom_torsion_site_symmetry_1
_geom_torsion_site_symmetry_2
_geom_torsion_site_symmetry_3
_geom_torsion_site_symmetry_4
_geom_torsion_publ_flag
N1 Fe1 N1 C31 1.09(17) 11 . . . ?
N1 Fe1 N1 C31 99.14(14) 12 . . . ?
N1 Fe1 N1 C31 -76.71(17) 44 . . . ?
N1 Fe1 N1 C31 -174.3(2) 46 . . . ?
N1 Fe1 N1 C2 173.07(16) 11 . . . ?
N1 Fe1 N1 C2 -88.88(18) 12 . . . ?
N1 Fe1 N1 C2 95.27(15) 44 . . . ?
N1 Fe1 N1 C2 -2.36(12) 46 . . . ?
C31 N1 C2 C3 3.8(3) . . . . ?
Fe1 N1 C2 C3 -168.8(2) . . . . ?
C31 N1 C2 C2 178.9(3) . . . 46 ?
Fe1 N1 C2 C2 6.3(3) . . . 46 ?
C7 N9 C10 C11 171.5(3) . . . . ?
C7 N9 C10 C15 -9.3(4) . . . . ?
C12 C11 C10 N9 179.7(2) . . . . ?
C12 C11 C10 C15 0.4(4) . . . . ?
C14 C15 C10 N9 177.9(2) . . . . ?
C14 C15 C10 C11 -2.9(4) . . . . ?
C10 C11 C12 N13 0.0(4) . . . . ?
C3 C4 C5 C31 4.0(4) . . . . ?
C3 C4 C5 C7 -178.2(3) . . . . ?
C2 N1 C31 C5 -3.6(3) . . . . ?
Fe1 N1 C31 C5 168.13(18) . . . . ?
C4 C5 C31 N1 -0.4(4) . . . . ?
C7 C5 C31 N1 -178.1(2) . . . . ?
C10 N9 C7 O8 -6.7(5) . . . . ?
C10 N9 C7 C5 177.1(2) . . . . ?
C4 C5 C7 O8 -34.2(4) . . . . ?
C31 C5 C7 O8 143.5(3) . . . . ?
C4 C5 C7 N9 142.2(3) . . . . ?
C31 C5 C7 N9 -40.1(4) . . . . ?
N1 C2 C3 C4 -0.1(4) . . . . ?
C2 C2 C3 C4 -174.9(3) 46 . . . ?
C5 C4 C3 C2 -3.8(4) . . . . ?
C10 C15 C14 N13 5.2(4) . . . . ?
C11 C12 N13 C14 1.9(4) . . . . ?
C11 C12 N13 Cu2 -179.9(2) . . . . ?
C15 C14 N13 C12 -4.6(4) . . . . ?
C15 C14 N13 Cu2 177.2(2) . . . . ?
N13 Cu2 N13 C12 148.9(2) 6 . . . ?
N13 Cu2 N13 C12 60.5(3) 7 . . . ?
N13 Cu2 N13 C12 -122.73(18) 5 . . . ?
O2 Cu2 N13 C12 -31.1(2) . . . . ?
N13 Cu2 N13 C14 -121.46(17) 7 . . . ?
N13 Cu2 N13 C14 55.3(3) 5 . . . ?
O2 Cu2 N13 C14 146.9(2) . . . . ?
O1 Cu2 N13 C14 -33.1(2) . . . . ?

_diffrn_measured_fraction_theta_max 0.995
_diffrn_reflns_theta_full        23.91
_diffrn_measured_fraction_theta_full 0.995
_refine_diff_density_max         0.295
_refine_diff_density_min         -0.223
_refine_diff_density_rms         0.042

loop_
_platon_squeeze_void_nr
_platon_squeeze_void_average_x
_platon_squeeze_void_average_y
_platon_squeeze_void_average_z
_platon_squeeze_void_volume
_platon_squeeze_void_count_electrons
_platon_squeeze_void_content
1 -0.003 -0.010 -0.003 24535 8514 ' '
_platon_squeeze_details          
;
;
