####################################################################### 
# 
# This file contains crystal structure data downloaded from the 
# Cambridge Structural Database (CSD) hosted by the Cambridge 
# Crystallographic Data Centre (CCDC).
# 
# Full information about CCDC data access policies and citation 
# guidelines are available at http://www.ccdc.cam.ac.uk/access/V1 
# 
# Audit and citation data items may have been added by the CCDC. 
# Please retain this information to preserve the provenance of 
# this file and to allow appropriate attribution of the data. 
# 
#######################################################################

data_c:\users\tj\desktop\5_04_2~1\xray\tj121s3\i432
_audit_block_doi                 10.5517/ccwv9tt
_database_code_depnum_ccdc_archive 'CCDC 829647'
loop_
_citation_id
_citation_doi
_citation_year
1 10.1002/chem.201101998 2012
_audit_update_record             
;
2011-06-14 deposited with the CCDC.	2024-07-13 downloaded from the CCDC.
;
#TrackingRef '2.cif'


_audit_creation_method           SHELXL-97
_chemical_name_systematic        
;
?
;
_chemical_name_common            ?
_chemical_melting_point          ?
_chemical_formula_moiety         'Zn5, 6(C22 N6 O2 H16), 10(N O3), 18(O H2)'
_chemical_formula_sum            'C132 H132 N46 O60 Zn5'
_chemical_formula_weight         3649.69

loop_
_atom_type_symbol
_atom_type_description
_atom_type_scat_dispersion_real
_atom_type_scat_dispersion_imag
_atom_type_scat_source
C C 0.0033 0.0016 'International Tables Vol C Tables 4.2.6.8 and 6.1.1.4'
H H 0.0000 0.0000 'International Tables Vol C Tables 4.2.6.8 and 6.1.1.4'
N N 0.0061 0.0033 'International Tables Vol C Tables 4.2.6.8 and 6.1.1.4'
O O 0.0106 0.0060 'International Tables Vol C Tables 4.2.6.8 and 6.1.1.4'
Zn Zn 0.2839 1.4301 'International Tables Vol C Tables 4.2.6.8 and 6.1.1.4'

_symmetry_cell_setting           cubic
_symmetry_space_group_name_H-M   'I 4 3 2'
_symmetry_space_group_name_Hall  'I 4 2 3'

loop_
_symmetry_equiv_pos_as_xyz
'x, y, z'
'-y, x, z'
'-x, -y, z'
'y, -x, z'
'x, -z, y'
'x, -y, -z'
'x, z, -y'
'z, y, -x'
'-x, y, -z'
'-z, y, x'
'z, x, y'
'y, z, x'
'-y, -z, x'
'z, -x, -y'
'-y, z, -x'
'-z, -x, y'
'-z, x, -y'
'y, -z, -x'
'y, x, -z'
'-y, -x, -z'
'-x, z, y'
'-x, -z, -y'
'z, -y, x'
'-z, -y, -x'
'x+1/2, y+1/2, z+1/2'
'-y+1/2, x+1/2, z+1/2'
'-x+1/2, -y+1/2, z+1/2'
'y+1/2, -x+1/2, z+1/2'
'x+1/2, -z+1/2, y+1/2'
'x+1/2, -y+1/2, -z+1/2'
'x+1/2, z+1/2, -y+1/2'
'z+1/2, y+1/2, -x+1/2'
'-x+1/2, y+1/2, -z+1/2'
'-z+1/2, y+1/2, x+1/2'
'z+1/2, x+1/2, y+1/2'
'y+1/2, z+1/2, x+1/2'
'-y+1/2, -z+1/2, x+1/2'
'z+1/2, -x+1/2, -y+1/2'
'-y+1/2, z+1/2, -x+1/2'
'-z+1/2, -x+1/2, y+1/2'
'-z+1/2, x+1/2, -y+1/2'
'y+1/2, -z+1/2, -x+1/2'
'y+1/2, x+1/2, -z+1/2'
'-y+1/2, -x+1/2, -z+1/2'
'-x+1/2, z+1/2, y+1/2'
'-x+1/2, -z+1/2, -y+1/2'
'z+1/2, -y+1/2, x+1/2'
'-z+1/2, -y+1/2, -x+1/2'

_cell_length_a                   33.0880(12)
_cell_length_b                   33.0880(12)
_cell_length_c                   33.0880(12)
_cell_angle_alpha                90.00
_cell_angle_beta                 90.00
_cell_angle_gamma                90.00
_cell_volume                     36225(2)
_cell_formula_units_Z            4
_cell_measurement_temperature    173(2)
_cell_measurement_reflns_used    8104
_cell_measurement_theta_min      2.89
_cell_measurement_theta_max      21.51

_exptl_crystal_description       pyramid
_exptl_crystal_colour            yellow
_exptl_crystal_size_max          0.27
_exptl_crystal_size_mid          0.20
_exptl_crystal_size_min          0.13
_exptl_crystal_density_meas      ?
_exptl_crystal_density_diffrn    0.669
_exptl_crystal_density_method    'not measured'
_exptl_crystal_F_000             7504
_exptl_absorpt_coefficient_mu    0.373
_exptl_absorpt_correction_type   multi-scan
_exptl_absorpt_correction_T_min  0.9061
_exptl_absorpt_correction_T_max  0.9531
_exptl_absorpt_process_details   'SADABS (Bruker, 2009)'

_exptl_special_details           
;
?
;

_diffrn_ambient_temperature      173(2)
_diffrn_radiation_wavelength     0.71073
_diffrn_radiation_type           MoK\a
_diffrn_radiation_source         'fine-focus sealed tube'
_diffrn_radiation_monochromator  graphite
_diffrn_measurement_device_type  'Bruker D8 CCD Area Detector'
_diffrn_measurement_method       '\w and \f scans'
_diffrn_detector_area_resol_mean ?
_diffrn_standards_number         ?
_diffrn_standards_interval_count ?
_diffrn_standards_interval_time  ?
_diffrn_standards_decay_%        ?
_diffrn_reflns_number            91583
_diffrn_reflns_av_R_equivalents  0.0517
_diffrn_reflns_av_sigmaI/netI    0.0248
_diffrn_reflns_limit_h_min       -34
_diffrn_reflns_limit_h_max       34
_diffrn_reflns_limit_k_min       -29
_diffrn_reflns_limit_k_max       23
_diffrn_reflns_limit_l_min       -34
_diffrn_reflns_limit_l_max       34
_diffrn_reflns_theta_min         1.23
_diffrn_reflns_theta_max         21.99
_reflns_number_total             3727
_reflns_number_gt                3068
_reflns_threshold_expression     >2sigma(I)

_computing_data_collection       'APEX2 (Bruker, 2009)'
_computing_cell_refinement       'SAINT (Bruker, 2009)'
_computing_data_reduction        SAINT
_computing_structure_solution    'SHELXS (Sheldrick, 2008)'
_computing_structure_refinement  'SHELXL (Sheldrick, 2008)'
_computing_molecular_graphics    'X-Seed (Barbour 2001)'
_computing_publication_material  ?

_refine_special_details          
;
Refinement of F^2^ against ALL reflections. The weighted R-factor wR and
goodness of fit S are based on F^2^, conventional R-factors R are based
on F, with F set to zero for negative F^2^. The threshold expression of
F^2^ > 2sigma(F^2^) is used only for calculating R-factors(gt) etc. and is
not relevant to the choice of reflections for refinement. R-factors based
on F^2^ are statistically about twice as large as those based on F, and R-
factors based on ALL data will be even larger.
;

_refine_ls_structure_factor_coef Fsqd
_refine_ls_matrix_type           full
_refine_ls_weighting_scheme      calc
_refine_ls_weighting_details     
'calc w=1/[\s^2^(Fo^2^)+(0.1033P)^2^+0.0000P] where P=(Fo^2^+2Fc^2^)/3'
_atom_sites_solution_primary     direct
_atom_sites_solution_secondary   difmap
_atom_sites_solution_hydrogens   geom
_refine_ls_hydrogen_treatment    constr
_refine_ls_extinction_method     SHELXL
_refine_ls_extinction_coef       ?
_refine_ls_extinction_expression Fc^*^=kFc[1+0.001xFc^2^\l^3^/sin(2\q)]^-1/4^
_refine_ls_abs_structure_details 'Flack H D (1983), Acta Cryst. A39, 876-881'
_refine_ls_abs_structure_Flack   0.04(2)
_refine_ls_number_reflns         3727
_refine_ls_number_parameters     198
_refine_ls_number_restraints     5
_refine_ls_R_factor_all          0.0623
_refine_ls_R_factor_gt           0.0525
_refine_ls_wR_factor_ref         0.1481
_refine_ls_wR_factor_gt          0.1435
_refine_ls_goodness_of_fit_ref   1.055
_refine_ls_restrained_S_all      1.067
_refine_ls_shift/su_max          0.000
_refine_ls_shift/su_mean         0.000

loop_
_atom_site_label
_atom_site_type_symbol
_atom_site_fract_x
_atom_site_fract_y
_atom_site_fract_z
_atom_site_U_iso_or_equiv
_atom_site_adp_type
_atom_site_occupancy
_atom_site_symmetry_multiplicity
_atom_site_calc_flag
_atom_site_refinement_flags
_atom_site_disorder_assembly
_atom_site_disorder_group
Zn1 Zn 0.2500 0.2500 0.2500 0.0478(3) Uani 1 6 d S . .
Zn2 Zn 0.0000 0.0000 0.24533(4) 0.0776(4) Uani 1 4 d S . .
N1 N 0.25752(9) 0.18524(8) 0.25061(8) 0.0528(7) Uani 1 1 d . . .
O4 O 0.0000 0.0000 0.31276(19) 0.0909(17) Uani 1 4 d S . .
O3 O 0.0000 0.0000 0.1786(2) 0.0932(19) Uani 1 4 d S . .
N9 N 0.16776(9) 0.09334(9) 0.24518(10) 0.0620(9) Uani 1 1 d . . .
H9 H 0.1697 0.1122 0.2266 0.074 Uiso 1 1 calc R . .
C10 C 0.13095(11) 0.07186(10) 0.24654(14) 0.0644(11) Uani 1 1 d . . .
O8 O 0.20468(10) 0.06127(10) 0.29433(13) 0.1069(13) Uani 1 1 d . . .
C15 C 0.10348(12) 0.07990(12) 0.21772(14) 0.0730(12) Uani 1 1 d . . .
H15 H 0.1087 0.1002 0.1981 0.088 Uiso 1 1 calc R . .
C2 C 0.29576(11) 0.17272(10) 0.25246(12) 0.0569(10) Uani 1 1 d . . .
C11 C 0.12248(13) 0.04251(14) 0.27631(15) 0.0812(13) Uani 1 1 d . . .
H11 H 0.1413 0.0362 0.2971 0.097 Uiso 1 1 calc R . .
C6 C 0.22729(10) 0.15861(11) 0.25499(11) 0.0540(10) Uani 1 1 d . . .
H6 H 0.2001 0.1678 0.2531 0.065 Uiso 1 1 calc R . .
N13 N 0.05818(9) 0.03106(9) 0.24661(14) 0.0739(11) Uani 1 1 d . . .
C3 C 0.30543(12) 0.13185(13) 0.25929(15) 0.0797(13) Uani 1 1 d . . .
H3 H 0.3327 0.1229 0.2592 0.096 Uiso 1 1 calc R . .
C7 C 0.20001(14) 0.08815(14) 0.26906(16) 0.0770(12) Uani 1 1 d . . .
C5 C 0.23468(11) 0.11816(11) 0.26216(12) 0.0619(10) Uani 1 1 d . . .
C4 C 0.27375(14) 0.10498(12) 0.26625(18) 0.0948(16) Uani 1 1 d . . .
H4 H 0.2792 0.0778 0.2737 0.114 Uiso 1 1 calc R . .
C14 C 0.06701(13) 0.05814(13) 0.21676(15) 0.0830(14) Uani 1 1 d . . .
H14 H 0.0484 0.0623 0.1953 0.100 Uiso 1 1 calc R . .
C12 C 0.08545(13) 0.02333(13) 0.27376(15) 0.0764(13) Uani 1 1 d . . .
H12 H 0.0795 0.0031 0.2932 0.092 Uiso 1 1 calc R . .
N16 N 0.16805(8) 0.16805(8) 0.16805(8) 0.0693(14) Uani 1 3 d S . .
O17 O 0.19389(9) 0.14064(9) 0.17052(8) 0.0861(10) Uani 1 1 d . . .
O6 O 0.3196(3) 0.1535(5) 0.1616(2) 0.191(5) Uani 0.50 1 d P . .
O5 O 0.0784(6) 0.0092(7) 0.1261(6) 0.344(12) Uani 0.50 1 d P . .
N19 N 0.1913(2) 0.0000 0.1913(2) 0.148(3) Uani 1 2 d SDU . .
O18 O 0.2188(3) 0.0000 0.2188(3) 0.499(14) Uani 1 2 d SDU . .
O20 O 0.1619(3) -0.0261(3) 0.1960(5) 0.483(10) Uani 1 1 d DU . .

loop_
_atom_site_aniso_label
_atom_site_aniso_U_11
_atom_site_aniso_U_22
_atom_site_aniso_U_33
_atom_site_aniso_U_23
_atom_site_aniso_U_13
_atom_site_aniso_U_12
Zn1 0.0478(3) 0.0478(3) 0.0478(3) -0.0045(2) -0.0045(2) -0.0045(2)
Zn2 0.0408(3) 0.0408(3) 0.1510(10) 0.000 0.000 0.000
N1 0.056(2) 0.0505(16) 0.052(2) -0.0002(13) -0.0074(14) -0.0044(15)
O4 0.0576(19) 0.0576(19) 0.158(6) 0.000 0.000 0.000
O3 0.0535(18) 0.0535(18) 0.173(6) 0.000 0.000 0.000
N9 0.0434(18) 0.0551(19) 0.088(2) 0.0086(17) -0.0152(18) -0.0097(16)
C10 0.048(2) 0.039(2) 0.106(3) 0.000(2) 0.007(2) -0.0072(18)
O8 0.085(2) 0.081(2) 0.154(3) 0.054(2) -0.039(2) -0.0329(18)
C15 0.054(2) 0.060(3) 0.104(3) 0.026(2) -0.017(2) -0.014(2)
C2 0.040(2) 0.050(2) 0.080(3) -0.006(2) -0.002(2) -0.0048(16)
C11 0.057(3) 0.079(3) 0.108(4) 0.022(3) -0.003(2) -0.015(2)
C6 0.042(2) 0.055(2) 0.066(2) 0.0043(18) -0.0032(17) -0.0191(17)
N13 0.0449(19) 0.0416(18) 0.135(3) 0.010(2) -0.006(2) -0.0010(15)
C3 0.046(2) 0.066(3) 0.127(4) 0.002(3) -0.013(2) -0.006(2)
C7 0.062(3) 0.057(3) 0.112(4) 0.005(3) 0.002(3) -0.011(2)
C5 0.049(2) 0.050(2) 0.087(3) -0.002(2) -0.0110(19) -0.0114(18)
C4 0.069(3) 0.043(2) 0.172(5) 0.012(3) -0.028(3) -0.022(2)
C14 0.061(3) 0.063(3) 0.125(4) 0.022(3) -0.019(3) -0.009(2)
C12 0.052(3) 0.064(3) 0.113(4) 0.026(2) -0.005(3) -0.013(2)
N16 0.0693(14) 0.0693(14) 0.0693(14) -0.0108(16) -0.0108(16) -0.0108(16)
O17 0.092(2) 0.089(2) 0.0783(19) -0.0122(15) -0.0033(15) 0.0263(16)
O6 0.130(6) 0.362(17) 0.082(6) -0.016(7) -0.035(5) 0.077(8)
O5 0.35(2) 0.34(2) 0.34(2) -0.145(19) -0.090(17) 0.19(2)
N19 0.170(4) 0.103(5) 0.170(4) -0.019(4) 0.049(6) 0.019(4)
O18 0.461(19) 0.58(3) 0.461(19) -0.243(17) -0.24(2) 0.243(17)
O20 0.333(11) 0.298(11) 0.82(2) -0.296(14) 0.334(13) -0.145(9)

_geom_special_details            
;
All esds (except the esd in the dihedral angle between two l.s. planes)
are estimated using the full covariance matrix. The cell esds are taken
into account individually in the estimation of esds in distances, angles
and torsion angles; correlations between esds in cell parameters are only
used when they are defined by crystal symmetry. An approximate (isotropic)
treatment of cell esds is used for estimating esds involving l.s. planes.
;

loop_
_geom_bond_atom_site_label_1
_geom_bond_atom_site_label_2
_geom_bond_distance
_geom_bond_site_symmetry_2
_geom_bond_publ_flag
Zn1 N1 2.157(3) 44 ?
Zn1 N1 2.157(3) 12 ?
Zn1 N1 2.157(3) . ?
Zn1 N1 2.157(3) 11 ?
Zn1 N1 2.157(3) 48 ?
Zn1 N1 2.157(3) 46 ?
Zn2 N13 2.182(3) 3 ?
Zn2 N13 2.183(3) 4 ?
Zn2 N13 2.183(3) . ?
Zn2 N13 2.183(3) 2 ?
Zn2 O3 2.209(7) . ?
Zn2 O4 2.231(6) . ?
N1 C2 1.333(4) . ?
N1 C6 1.341(4) . ?
N9 C7 1.339(5) . ?
N9 C10 1.411(4) . ?
C10 C15 1.344(5) . ?
C10 C11 1.411(6) . ?
O8 C7 1.230(5) . ?
C15 C14 1.406(6) . ?
C2 C3 1.408(5) . ?
C2 C2 1.484(7) 44 ?
C11 C12 1.382(6) . ?
C6 C5 1.381(5) . ?
N13 C12 1.299(6) . ?
N13 C14 1.365(5) . ?
C3 C4 1.394(6) . ?
C7 C5 1.534(6) . ?
C5 C4 1.371(6) . ?
N16 O17 1.249(3) . ?
N16 O17 1.249(3) 12 ?
N16 O17 1.249(3) 11 ?
N19 O18 1.288(9) . ?
N19 O20 1.309(7) . ?
N19 O20 1.309(7) 23 ?

loop_
_geom_angle_atom_site_label_1
_geom_angle_atom_site_label_2
_geom_angle_atom_site_label_3
_geom_angle
_geom_angle_site_symmetry_1
_geom_angle_site_symmetry_3
_geom_angle_publ_flag
N1 Zn1 N1 171.41(16) 44 12 ?
N1 Zn1 N1 76.76(16) 44 . ?
N1 Zn1 N1 97.06(9) 12 . ?
N1 Zn1 N1 89.69(14) 44 11 ?
N1 Zn1 N1 97.06(9) 12 11 ?
N1 Zn1 N1 97.06(9) . 11 ?
N1 Zn1 N1 97.06(9) 44 48 ?
N1 Zn1 N1 89.69(14) 12 48 ?
N1 Zn1 N1 171.41(16) . 48 ?
N1 Zn1 N1 76.76(16) 11 48 ?
N1 Zn1 N1 97.06(9) 44 46 ?
N1 Zn1 N1 76.75(16) 12 46 ?
N1 Zn1 N1 89.69(14) . 46 ?
N1 Zn1 N1 171.41(16) 11 46 ?
N1 Zn1 N1 97.06(9) 48 46 ?
N13 Zn2 N13 89.975(5) 3 4 ?
N13 Zn2 N13 177.8(2) 3 . ?
N13 Zn2 N13 89.979(5) 4 . ?
N13 Zn2 N13 89.983(5) 3 2 ?
N13 Zn2 N13 177.8(2) 4 2 ?
N13 Zn2 N13 89.977(5) . 2 ?
N13 Zn2 O3 91.11(12) 3 . ?
N13 Zn2 O3 91.11(12) 4 . ?
N13 Zn2 O3 91.11(12) . . ?
N13 Zn2 O3 91.11(12) 2 . ?
N13 Zn2 O4 88.89(12) 3 . ?
N13 Zn2 O4 88.89(12) 4 . ?
N13 Zn2 O4 88.89(12) . . ?
N13 Zn2 O4 88.89(12) 2 . ?
O3 Zn2 O4 180.0 . . ?
C2 N1 C6 119.9(3) . . ?
C2 N1 Zn1 114.7(2) . . ?
C6 N1 Zn1 124.6(3) . . ?
C7 N9 C10 127.2(4) . . ?
C15 C10 N9 117.5(4) . . ?
C15 C10 C11 119.8(3) . . ?
N9 C10 C11 122.7(4) . . ?
C10 C15 C14 119.7(4) . . ?
N1 C2 C3 121.4(3) . . ?
N1 C2 C2 116.3(2) . 44 ?
C3 C2 C2 122.2(2) . 44 ?
C12 C11 C10 116.7(4) . . ?
N1 C6 C5 121.5(3) . . ?
C12 N13 C14 118.7(3) . . ?
C12 N13 Zn2 122.2(3) . . ?
C14 N13 Zn2 118.9(3) . . ?
C4 C3 C2 117.9(4) . . ?
O8 C7 N9 126.4(4) . . ?
O8 C7 C5 118.4(4) . . ?
N9 C7 C5 115.2(4) . . ?
C4 C5 C6 119.5(3) . . ?
C4 C5 C7 119.0(4) . . ?
C6 C5 C7 121.3(4) . . ?
C5 C4 C3 119.3(4) . . ?
N13 C14 C15 120.2(4) . . ?
N13 C12 C11 124.6(4) . . ?
O17 N16 O17 119.983(11) . 12 ?
O17 N16 O17 119.984(11) . 11 ?
O17 N16 O17 119.977(11) 12 11 ?
O18 N19 O20 116.1(10) . . ?
O18 N19 O20 116.1(10) . 23 ?
O20 N19 O20 128(2) . 23 ?

_diffrn_measured_fraction_theta_max 0.998
_diffrn_reflns_theta_full        21.99
_diffrn_measured_fraction_theta_full 0.998
_refine_diff_density_max         0.336
_refine_diff_density_min         -0.328
_refine_diff_density_rms         0.053

loop_
_platon_squeeze_void_nr
_platon_squeeze_void_average_x
_platon_squeeze_void_average_y
_platon_squeeze_void_average_z
_platon_squeeze_void_volume
_platon_squeeze_void_count_electrons
_platon_squeeze_void_content
1 0.000 0.000 0.000 634 540 ' '
2 0.407 -0.020 -0.009 19790 5407 ' '
3 0.500 0.500 0.500 634 540 ' '
_platon_squeeze_details          
;
;
