
#######################################################################
#
#                 Cambridge Crystallographic Data Centre
#                                CCDC
#
#######################################################################
#
# If this CIF has been generated from an entry in the Cambridge
# Structural Database, then it will include bibliographic, chemical,
# crystal, experimental, refinement or atomic coordinate data resulting
# from the CCDC's data processing and validation procedures.
#
#######################################################################

data_CSD_CIF_TBUCBD10
_audit_creation_date 1983-12-16
_audit_creation_method CSD-ConQuest-V1
_database_code_CSD TBUCBD10
_database_code_depnum_ccdc_archive 'CCDC 1267650'
_chemical_formula_sum 'C20 H36'
_chemical_formula_moiety
;
C20 H36
;
_journal_coden_Cambridge 179
_journal_volume 22
_journal_year 1983
_journal_page_first 403
_journal_name_full 'Angew.Chem.,Int.Ed. '
loop_
_publ_author_name
"H.Irngartinger"
"M.Nixdorf"
_chemical_name_systematic
;
Tetra-t-butyl-cyclobutadiene
;
_chemical_name_common
;
Teaching Subset: Fundamental Chemistry, Symmetry
;
_cell_volume   1882.585
_diffrn_ambient_temperature ?
_diffrn_special_details
;
The study was carried out at room temperature,in the range 283-303K

;
_refine_special_details
;
There may be dynamic disorder in the molecule.

;
#These two values have been output from a single CSD field.
_refine_ls_R_factor_gt 0.046
_refine_ls_wR_factor_gt 0.046
_symmetry_cell_setting monoclinic
_symmetry_space_group_name_H-M 'C 2/c'
_symmetry_Int_Tables_number 15
loop_
_symmetry_equiv_pos_site_id
_symmetry_equiv_pos_as_xyz
1 x,y,z
2 1/2+x,1/2+y,z
3 -x,y,1/2-z
4 1/2-x,1/2+y,1/2-z
5 -x,-y,-z
6 -1/2-x,-1/2-y,-z
7 x,-y,-1/2+z
8 -1/2+x,-1/2-y,-1/2+z
_cell_length_a 17.788(3)
_cell_length_b 9.295(1)
_cell_length_c 11.902(2)
_cell_angle_alpha 90
_cell_angle_beta 106.93(1)
_cell_angle_gamma 90
_cell_formula_units_Z 4
loop_
_atom_type_symbol
_atom_type_radius_bond
C 0.68
H 0.23
loop_
_atom_site_label
_atom_site_type_symbol
_atom_site_fract_x
_atom_site_fract_y
_atom_site_fract_z
C1 C 0.04181 0.18941 0.28577
C2 C 0.10624 0.30340 0.31761
C3 C 0.09039 0.42127 0.22256
C4 C 0.11432 0.37247 0.43785
C5 C 0.18572 0.23914 0.31697
C6 C 0.04008 0.03191 0.29215
C7 C 0.09207 -0.08131 0.37086
C8 C 0.13635 -0.01645 0.49105
C9 C 0.15164 -0.14641 0.31407
C10 C 0.04176 -0.20168 0.40012
H1 H 0.08570 0.37540 0.14720
H2 H 0.04430 0.47710 0.22120
H3 H 0.13430 0.49330 0.24270
H4 H 0.06250 0.42170 0.43800
H5 H 0.15450 0.44670 0.45440
H6 H 0.13040 0.29830 0.50380
H7 H 0.22430 0.31620 0.32860
H8 H 0.20570 0.16460 0.37180
H9 H 0.18030 0.19050 0.24140
H10 H 0.09700 0.02150 0.53060
H11 H 0.17890 0.06410 0.48660
H12 H 0.16800 -0.09280 0.53850
H13 H 0.19070 -0.07040 0.30530
H14 H 0.18170 -0.22070 0.36240
H15 H 0.12500 -0.19960 0.23780
H16 H 0.07600 -0.27240 0.45210
H17 H 0.01100 -0.25280 0.32570
H18 H 0.00750 -0.15930 0.43970
C1B C -0.04181 0.18941 0.21423
C6B C -0.04008 0.03191 0.20785
C2B C -0.10624 0.30340 0.18239
C7B C -0.09207 -0.08131 0.12914
C3B C -0.09039 0.42127 0.27744
C4B C -0.11432 0.37247 0.06215
C5B C -0.18572 0.23914 0.18303
C8B C -0.13635 -0.01645 0.00895
C9B C -0.15164 -0.14641 0.18593
C10B C -0.04176 -0.20168 0.09988
H1B H -0.08570 0.37540 0.35280
H2B H -0.04430 0.47710 0.27880
H3B H -0.13430 0.49330 0.25730
H4B H -0.06250 0.42170 0.06200
H5B H -0.15450 0.44670 0.04560
H6B H -0.13040 0.29830 -0.00380
H7B H -0.22430 0.31620 0.17140
H8B H -0.20570 0.16460 0.12820
H9B H -0.18030 0.19050 0.25860
H10B H -0.09700 0.02150 -0.03060
H11B H -0.17890 0.06410 0.01340
H12B H -0.16800 -0.09280 -0.03850
H13B H -0.19070 -0.07040 0.19470
H14B H -0.18170 -0.22070 0.13760
H15B H -0.12500 -0.19960 0.26220
H16B H -0.07600 -0.27240 0.04790
H17B H -0.01100 -0.25280 0.17430
H18B H -0.00750 -0.15930 0.06030
#END
