####################################################################### 
# 
# This file contains crystal structure data downloaded from the 
# Cambridge Structural Database (CSD) hosted by the Cambridge 
# Crystallographic Data Centre (CCDC).
# 
# Full information about CCDC data access policies and citation 
# guidelines are available at http://www.ccdc.cam.ac.uk/access/V1 
# 
# Audit and citation data items may have been added by the CCDC. 
# Please retain this information to preserve the provenance of 
# this file and to allow appropriate attribution of the data. 
# 
#######################################################################

data_www3
_audit_block_doi                 10.5517/cc9l5xy
_database_code_depnum_ccdc_archive 'CCDC 285600'
loop_
_citation_id
_citation_doi
_citation_year
1 10.1002/chem.200501242 2006
_audit_update_record             
;
2005-10-03 deposited with the CCDC.	2024-07-13 downloaded from the CCDC.
;

_audit_creation_method           SHELXL-97
_chemical_name_systematic        
;
?
;
_chemical_name_common            ?
_chemical_melting_point          ?
_chemical_formula_moiety         ?
_chemical_formula_sum            'C18 H15 N3 O5 Zn'
_chemical_formula_weight         418.70

loop_
_atom_type_symbol
_atom_type_description
_atom_type_scat_dispersion_real
_atom_type_scat_dispersion_imag
_atom_type_scat_source
Zn Zn 0.2839 1.4301 'International Tables Vol C Tables 4.2.6.8 and 6.1.1.4'
C C 0.0033 0.0016 'International Tables Vol C Tables 4.2.6.8 and 6.1.1.4'
H H 0.0000 0.0000 'International Tables Vol C Tables 4.2.6.8 and 6.1.1.4'
N N 0.0061 0.0033 'International Tables Vol C Tables 4.2.6.8 and 6.1.1.4'
O O 0.0106 0.0060 'International Tables Vol C Tables 4.2.6.8 and 6.1.1.4'

_symmetry_cell_setting           Monoclinic
_symmetry_space_group_name_Hall  '-C 2yc'
_symmetry_space_group_name_H-M   'C 2/c'
_symmetry_Int_Tables_number      15

loop_
_symmetry_equiv_pos_as_xyz
'x, y, z'
'-x, y, -z+1/2'
'x+1/2, y+1/2, z'
'-x+1/2, y+1/2, -z+1/2'
'-x, -y, -z'
'x, -y, z-1/2'
'-x+1/2, -y+1/2, -z'
'x+1/2, -y+1/2, z-1/2'

_cell_length_a                   14.747(3)
_cell_length_b                   25.414(5)
_cell_length_c                   11.387(2)
_cell_angle_alpha                90.00
_cell_angle_beta                 100.65(3)
_cell_angle_gamma                90.00
_cell_volume                     4194.2(15)
_cell_formula_units_Z            8
_cell_measurement_temperature    293(2)
_cell_measurement_reflns_used    19991
_cell_measurement_theta_min      3.18
_cell_measurement_theta_max      27.48

_exptl_crystal_description       block
_exptl_crystal_colour            colorless
_exptl_crystal_size_max          0.22
_exptl_crystal_size_mid          0.18
_exptl_crystal_size_min          0.17
_exptl_crystal_density_meas      ?
_exptl_crystal_density_diffrn    1.326
_exptl_crystal_density_method    'not measured'
_exptl_crystal_F_000             1712
_exptl_absorpt_coefficient_mu    1.201
_exptl_absorpt_correction_type   multi-scan
_exptl_absorpt_correction_T_min  0.771
_exptl_absorpt_correction_T_max  0.814
_exptl_absorpt_process_details   'ABSCOR by T.Higashi 8 March, 1995'

_exptl_special_details           
;
?
;

_diffrn_ambient_temperature      293(2)
_diffrn_radiation_wavelength     0.71073
_diffrn_radiation_type           MoK\a
_diffrn_radiation_source         'Rotation anode'
_diffrn_radiation_monochromator  graphite
_diffrn_measurement_device_type  'Rigaku RAXIS RAPID IP'
_diffrn_measurement_method       Oscillation
_diffrn_detector_area_resol_mean 0.01
_diffrn_standards_number         ?
_diffrn_standards_interval_count ?
_diffrn_standards_interval_time  ?
_diffrn_standards_decay_%        ?
_diffrn_reflns_number            19991
_diffrn_reflns_av_R_equivalents  0.0597
_diffrn_reflns_av_sigmaI/netI    0.0557
_diffrn_reflns_limit_h_min       -19
_diffrn_reflns_limit_h_max       17
_diffrn_reflns_limit_k_min       -31
_diffrn_reflns_limit_k_max       32
_diffrn_reflns_limit_l_min       -14
_diffrn_reflns_limit_l_max       14
_diffrn_reflns_theta_min         3.18
_diffrn_reflns_theta_max         27.48
_reflns_number_total             4773
_reflns_number_gt                3819
_reflns_threshold_expression     >2sigma(I)

_computing_data_collection       'RAPID AUTO'
_computing_cell_refinement       'RAPID AUTO'
_computing_data_reduction        'RAPID AUTO'
_computing_structure_solution    'SHELXS-97 (Sheldrick, 1990)'
_computing_structure_refinement  'SHELXL-97 (Sheldrick, 1997)'
_computing_molecular_graphics    ?
_computing_publication_material  ?

_refine_special_details          
;
Refinement of F^2^ against ALL reflections. The weighted R-factor wR and
goodness of fit S are based on F^2^, conventional R-factors R are based
on F, with F set to zero for negative F^2^. The threshold expression of
F^2^ > 2sigma(F^2^) is used only for calculating R-factors(gt) etc. and is
not relevant to the choice of reflections for refinement. R-factors based
on F^2^ are statistically about twice as large as those based on F, and R-
factors based on ALL data will be even larger.
;

_refine_ls_structure_factor_coef Fsqd
_refine_ls_matrix_type           full
_refine_ls_weighting_scheme      calc
_refine_ls_weighting_details     
'calc w=1/[\s^2^(Fo^2^)+(0.1010P)^2^+8.0801P] where P=(Fo^2^+2Fc^2^)/3'
_atom_sites_solution_primary     direct
_atom_sites_solution_secondary   difmap
_atom_sites_solution_hydrogens   geom
_refine_ls_hydrogen_treatment    mixed
_refine_ls_extinction_method     none
_refine_ls_extinction_coef       ?
_refine_ls_number_reflns         4773
_refine_ls_number_parameters     244
_refine_ls_number_restraints     0
_refine_ls_R_factor_all          0.0622
_refine_ls_R_factor_gt           0.0495
_refine_ls_wR_factor_ref         0.1701
_refine_ls_wR_factor_gt          0.1603
_refine_ls_goodness_of_fit_ref   1.030
_refine_ls_restrained_S_all      1.030
_refine_ls_shift/su_max          0.001
_refine_ls_shift/su_mean         0.000

loop_
_atom_site_label
_atom_site_type_symbol
_atom_site_fract_x
_atom_site_fract_y
_atom_site_fract_z
_atom_site_U_iso_or_equiv
_atom_site_adp_type
_atom_site_occupancy
_atom_site_symmetry_multiplicity
_atom_site_calc_flag
_atom_site_refinement_flags
_atom_site_disorder_assembly
_atom_site_disorder_group
Zn1 Zn 0.55059(2) 0.715809(14) 0.40423(3) 0.03060(16) Uani 1 1 d . . .
C1 C 0.5771(2) 0.87080(13) 0.3979(3) 0.0349(7) Uani 1 1 d . . .
C2 C 0.4989(2) 0.90112(14) 0.4015(3) 0.0374(8) Uani 1 1 d . . .
H2A H 0.4438 0.8848 0.4088 0.045 Uiso 1 1 calc R . .
C3 C 0.5029(2) 0.95443(14) 0.3943(4) 0.0388(8) Uani 1 1 d . . .
H3A H 0.4507 0.9744 0.3980 0.047 Uiso 1 1 calc R . .
C4 C 0.5843(3) 0.97922(14) 0.3814(4) 0.0403(8) Uani 1 1 d . . .
C5 C 0.6634(3) 0.95026(15) 0.3794(4) 0.0450(9) Uani 1 1 d . . .
H5A H 0.7181 0.9670 0.3722 0.054 Uiso 1 1 calc R . .
C6 C 0.6598(3) 0.89623(15) 0.3881(4) 0.0441(9) Uani 1 1 d . . .
H6A H 0.7128 0.8764 0.3876 0.053 Uiso 1 1 calc R . .
C7 C 0.5740(3) 0.81241(15) 0.4027(3) 0.0398(8) Uani 1 1 d . . .
C8 C 0.7982(2) 1.12631(13) 0.3164(3) 0.0336(7) Uani 1 1 d . . .
C9 C 0.7974(3) 1.10502(15) 0.4284(3) 0.0416(8) Uani 1 1 d . . .
H9A H 0.8453 1.1122 0.4917 0.050 Uiso 1 1 calc R . .
C10 C 0.7248(3) 1.07295(16) 0.4460(4) 0.0486(9) Uani 1 1 d . . .
H10A H 0.7239 1.0586 0.5209 0.058 Uiso 1 1 calc R . .
C11 C 0.6543(3) 1.06251(14) 0.3517(4) 0.0434(9) Uani 1 1 d . . .
C12 C 0.6534(3) 1.08385(17) 0.2402(4) 0.0532(10) Uani 1 1 d . . .
H12A H 0.6047 1.0771 0.1775 0.064 Uiso 1 1 calc R . .
C13 C 0.7262(3) 1.11556(17) 0.2233(4) 0.0479(10) Uani 1 1 d . . .
H13A H 0.7267 1.1298 0.1483 0.057 Uiso 1 1 calc R . .
C14 C 0.8765(2) 1.16105(12) 0.2961(3) 0.0340(7) Uani 1 1 d . . .
C15 C 0.6716(2) 0.71972(14) 0.6472(3) 0.0356(7) Uani 1 1 d . . .
H15A H 0.7038 0.7487 0.6261 0.043 Uiso 1 1 calc R . .
C16 C 0.5800(3) 0.65630(19) 0.6458(4) 0.0588(12) Uani 1 1 d . . .
H16A H 0.5331 0.6322 0.6197 0.071 Uiso 1 1 calc R . .
C17 C 0.7573(3) 0.70996(17) 0.8583(4) 0.0470(9) Uani 1 1 d . . .
H17A H 0.8079 0.7288 0.8339 0.056 Uiso 1 1 calc R . .
H17B H 0.7818 0.6780 0.8989 0.056 Uiso 1 1 calc R . .
C18 C 0.7151(3) 0.74391(16) 0.9439(3) 0.0435(9) Uani 1 1 d . . .
H18A H 0.6627 0.7257 0.9654 0.052 Uiso 1 1 calc R . .
H18B H 0.6931 0.7765 0.9045 0.052 Uiso 1 1 calc R . .
N1 N 0.6019(2) 0.69598(12) 0.5760(3) 0.0380(7) Uani 1 1 d . . .
N2 N 0.6305(3) 0.65496(16) 0.7526(3) 0.0648(12) Uani 1 1 d . . .
H2B H 0.6277 0.6332 0.8096 0.078 Uiso 1 1 calc R . .
N3 N 0.6884(2) 0.69611(13) 0.7518(3) 0.0403(7) Uani 1 1 d . . .
O1 O 0.6465(2) 0.78603(10) 0.4154(4) 0.0587(9) Uani 1 1 d . . .
O2 O 0.4960(2) 0.78932(10) 0.3917(3) 0.0471(7) Uani 1 1 d . . .
O3 O 0.57735(19) 1.03342(11) 0.3678(3) 0.0571(8) Uani 1 1 d . . .
O4 O 0.93896(18) 1.17033(10) 0.3847(2) 0.0451(6) Uani 1 1 d . . .
O5 O 0.8726(2) 1.17877(13) 0.1933(3) 0.0564(8) Uani 1 1 d . . .

loop_
_atom_site_aniso_label
_atom_site_aniso_U_11
_atom_site_aniso_U_22
_atom_site_aniso_U_33
_atom_site_aniso_U_23
_atom_site_aniso_U_13
_atom_site_aniso_U_12
Zn1 0.0315(2) 0.0313(2) 0.0288(2) -0.00586(14) 0.00491(16) -0.00167(14)
C1 0.0378(17) 0.0315(17) 0.0351(18) -0.0005(13) 0.0055(14) -0.0089(13)
C2 0.0322(17) 0.0373(18) 0.043(2) 0.0001(14) 0.0074(15) -0.0097(13)
C3 0.0327(17) 0.0338(18) 0.052(2) 0.0005(15) 0.0134(15) -0.0037(13)
C4 0.0382(18) 0.0333(18) 0.049(2) 0.0042(15) 0.0082(16) -0.0079(14)
C5 0.0319(17) 0.042(2) 0.060(3) 0.0049(17) 0.0077(17) -0.0091(15)
C6 0.0330(18) 0.045(2) 0.053(2) 0.0030(17) 0.0049(16) -0.0026(15)
C7 0.047(2) 0.039(2) 0.0341(19) -0.0009(14) 0.0087(15) -0.0044(15)
C8 0.0378(17) 0.0289(16) 0.0343(18) -0.0009(13) 0.0071(14) -0.0082(13)
C9 0.044(2) 0.042(2) 0.037(2) 0.0037(15) 0.0044(16) -0.0103(15)
C10 0.056(2) 0.046(2) 0.046(2) 0.0137(17) 0.0151(18) -0.0097(17)
C11 0.043(2) 0.0300(17) 0.060(2) 0.0039(16) 0.0163(17) -0.0078(14)
C12 0.049(2) 0.058(2) 0.050(2) -0.0014(19) 0.0004(19) -0.0226(19)
C13 0.051(2) 0.055(2) 0.036(2) 0.0052(17) 0.0038(17) -0.0196(18)
C14 0.0385(17) 0.0270(15) 0.0371(18) 0.0004(13) 0.0087(14) -0.0036(13)
C15 0.0331(17) 0.0428(19) 0.0305(18) -0.0039(13) 0.0044(14) -0.0054(13)
C16 0.064(3) 0.072(3) 0.037(2) 0.0021(19) 0.0000(19) -0.035(2)
C17 0.041(2) 0.066(3) 0.0310(19) -0.0047(17) -0.0010(15) -0.0081(17)
C18 0.043(2) 0.054(2) 0.0302(19) -0.0019(16) -0.0022(15) -0.0087(17)
N1 0.0385(16) 0.0458(17) 0.0287(15) -0.0044(12) 0.0039(12) -0.0101(13)
N2 0.075(3) 0.077(3) 0.038(2) 0.0137(18) -0.0020(18) -0.038(2)
N3 0.0398(16) 0.0501(18) 0.0300(16) -0.0014(13) 0.0039(12) -0.0100(14)
O1 0.0497(17) 0.0395(16) 0.092(3) 0.0117(14) 0.0265(17) 0.0060(12)
O2 0.0444(15) 0.0321(13) 0.0618(19) -0.0023(11) 0.0022(14) -0.0079(11)
O3 0.0432(15) 0.0359(15) 0.097(3) 0.0104(15) 0.0256(16) -0.0082(11)
O4 0.0463(15) 0.0480(15) 0.0386(14) -0.0028(11) 0.0018(12) -0.0206(12)
O5 0.0492(16) 0.077(2) 0.0427(16) 0.0193(14) 0.0077(13) -0.0212(15)

_geom_special_details            
;
All esds (except the esd in the dihedral angle between two l.s. planes)
are estimated using the full covariance matrix. The cell esds are taken
into account individually in the estimation of esds in distances, angles
and torsion angles; correlations between esds in cell parameters are only
used when they are defined by crystal symmetry. An approximate (isotropic)
treatment of cell esds is used for estimating esds involving l.s. planes.
;

loop_
_geom_bond_atom_site_label_1
_geom_bond_atom_site_label_2
_geom_bond_distance
_geom_bond_site_symmetry_2
_geom_bond_publ_flag
Zn1 O5 1.966(3) 4_645 ?
Zn1 O4 1.990(2) 3_445 ?
Zn1 N1 2.026(3) . ?
Zn1 O2 2.029(3) . ?
Zn1 O1 2.266(3) . ?
Zn1 C7 2.480(4) . ?
C1 C2 1.394(5) . ?
C1 C6 1.403(5) . ?
C1 C7 1.486(5) . ?
C2 C3 1.359(5) . ?
C2 H2A 0.9300 . ?
C3 C4 1.387(5) . ?
C3 H3A 0.9300 . ?
C4 C5 1.383(5) . ?
C4 O3 1.388(4) . ?
C5 C6 1.378(5) . ?
C5 H5A 0.9300 . ?
C6 H6A 0.9300 . ?
C7 O1 1.247(5) . ?
C7 O2 1.277(5) . ?
C8 C9 1.388(5) . ?
C8 C13 1.381(5) . ?
C8 C14 1.505(4) . ?
C9 C10 1.388(5) . ?
C9 H9A 0.9300 . ?
C10 C11 1.376(6) . ?
C10 H10A 0.9300 . ?
C11 C12 1.378(6) . ?
C11 O3 1.395(4) . ?
C12 C13 1.384(5) . ?
C12 H12A 0.9300 . ?
C13 H13A 0.9300 . ?
C14 O5 1.246(4) . ?
C14 O4 1.256(4) . ?
C15 N3 1.316(5) . ?
C15 N1 1.331(4) . ?
C15 H15A 0.9300 . ?
C16 N2 1.304(6) . ?
C16 N1 1.360(5) . ?
C16 H16A 0.9300 . ?
C17 N3 1.474(5) . ?
C17 C18 1.517(6) . ?
C17 H17A 0.9700 . ?
C17 H17B 0.9700 . ?
C18 C18 1.517(7) 7_667 ?
C18 H18A 0.9700 . ?
C18 H18B 0.9700 . ?
N2 N3 1.351(4) . ?
N2 H2B 0.8600 . ?
O4 Zn1 1.990(2) 3 ?
O5 Zn1 1.966(3) 4_655 ?

loop_
_geom_angle_atom_site_label_1
_geom_angle_atom_site_label_2
_geom_angle_atom_site_label_3
_geom_angle
_geom_angle_site_symmetry_1
_geom_angle_site_symmetry_3
_geom_angle_publ_flag
O5 Zn1 O4 102.10(13) 4_645 3_445 ?
O5 Zn1 N1 105.97(13) 4_645 . ?
O4 Zn1 N1 96.71(12) 3_445 . ?
O5 Zn1 O2 131.58(14) 4_645 . ?
O4 Zn1 O2 102.57(11) 3_445 . ?
N1 Zn1 O2 111.67(13) . . ?
O5 Zn1 O1 89.44(13) 4_645 . ?
O4 Zn1 O1 163.44(12) 3_445 . ?
N1 Zn1 O1 91.37(13) . . ?
O2 Zn1 O1 60.93(11) . . ?
O5 Zn1 C7 112.00(14) 4_645 . ?
O4 Zn1 C7 133.45(12) 3_445 . ?
N1 Zn1 C7 103.02(12) . . ?
O2 Zn1 C7 30.89(12) . . ?
O1 Zn1 C7 30.04(11) . . ?
C2 C1 C6 118.9(3) . . ?
C2 C1 C7 121.3(3) . . ?
C6 C1 C7 119.7(3) . . ?
C3 C2 C1 120.3(3) . . ?
C3 C2 H2A 119.9 . . ?
C1 C2 H2A 119.9 . . ?
C2 C3 C4 120.5(3) . . ?
C2 C3 H3A 119.8 . . ?
C4 C3 H3A 119.8 . . ?
C5 C4 O3 124.8(3) . . ?
C5 C4 C3 120.6(3) . . ?
O3 C4 C3 114.6(3) . . ?
C6 C5 C4 119.1(3) . . ?
C6 C5 H5A 120.5 . . ?
C4 C5 H5A 120.5 . . ?
C5 C6 C1 120.6(4) . . ?
C5 C6 H6A 119.7 . . ?
C1 C6 H6A 119.7 . . ?
O1 C7 O2 120.1(3) . . ?
O1 C7 C1 120.6(3) . . ?
O2 C7 C1 119.3(3) . . ?
O1 C7 Zn1 65.4(2) . . ?
O2 C7 Zn1 54.65(18) . . ?
C1 C7 Zn1 173.8(3) . . ?
C9 C8 C13 119.5(3) . . ?
C9 C8 C14 120.4(3) . . ?
C13 C8 C14 120.1(3) . . ?
C8 C9 C10 119.9(4) . . ?
C8 C9 H9A 120.0 . . ?
C10 C9 H9A 120.0 . . ?
C11 C10 C9 119.5(4) . . ?
C11 C10 H10A 120.3 . . ?
C9 C10 H10A 120.3 . . ?
C10 C11 C12 121.4(3) . . ?
C10 C11 O3 121.0(4) . . ?
C12 C11 O3 117.4(4) . . ?
C13 C12 C11 118.8(4) . . ?
C13 C12 H12A 120.6 . . ?
C11 C12 H12A 120.6 . . ?
C12 C13 C8 120.9(4) . . ?
C12 C13 H13A 119.5 . . ?
C8 C13 H13A 119.5 . . ?
O5 C14 O4 125.9(3) . . ?
O5 C14 C8 116.9(3) . . ?
O4 C14 C8 117.2(3) . . ?
N3 C15 N1 109.8(3) . . ?
N3 C15 H15A 125.1 . . ?
N1 C15 H15A 125.1 . . ?
N2 C16 N1 114.1(4) . . ?
N2 C16 H16A 123.0 . . ?
N1 C16 H16A 123.0 . . ?
N3 C17 C18 111.2(3) . . ?
N3 C17 H17A 109.4 . . ?
C18 C17 H17A 109.4 . . ?
N3 C17 H17B 109.4 . . ?
C18 C17 H17B 109.4 . . ?
H17A C17 H17B 108.0 . . ?
C17 C18 C18 111.3(4) . 7_667 ?
C17 C18 H18A 109.4 . . ?
C18 C18 H18A 109.4 7_667 . ?
C17 C18 H18B 109.4 . . ?
C18 C18 H18B 109.4 7_667 . ?
H18A C18 H18B 108.0 . . ?
C15 N1 C16 102.7(3) . . ?
C15 N1 Zn1 125.7(3) . . ?
C16 N1 Zn1 131.5(3) . . ?
C16 N2 N3 103.1(3) . . ?
C16 N2 H2B 128.5 . . ?
N3 N2 H2B 128.5 . . ?
C15 N3 N2 110.3(3) . . ?
C15 N3 C17 128.5(3) . . ?
N2 N3 C17 121.3(3) . . ?
C7 O1 Zn1 84.5(2) . . ?
C7 O2 Zn1 94.5(2) . . ?
C4 O3 C11 119.7(3) . . ?
C14 O4 Zn1 131.9(2) . 3 ?
C14 O5 Zn1 140.6(3) . 4_655 ?

_diffrn_measured_fraction_theta_max 0.993
_diffrn_reflns_theta_full        27.48
_diffrn_measured_fraction_theta_full 0.993
_refine_diff_density_max         0.857
_refine_diff_density_min         -0.444
_refine_diff_density_rms         0.120
