####################################################################### 
# 
# This file contains crystal structure data downloaded from the 
# Cambridge Structural Database (CSD) hosted by the Cambridge 
# Crystallographic Data Centre (CCDC).
# 
# Full information about CCDC data access policies and citation 
# guidelines are available at http://www.ccdc.cam.ac.uk/access/V1 
# 
# Audit and citation data items may have been added by the CCDC. 
# Please retain this information to preserve the provenance of 
# this file and to allow appropriate attribution of the data. 
# 
#######################################################################

data_TEFMUM
#This CIF has been generated from an entry in the Cambridge Structural Database
_database_code_depnum_ccdc_archive 'CCDC 1268688'
_database_code_CSD               TEFMUM
loop_
_citation_id
_citation_doi
_citation_year
1 10.1016/0020-1693(94)03971-2 1994
_audit_creation_method           'Created from the CSD'
_audit_update_record             
;
2024-07-13 downloaded from the CCDC.
;
_database_code_NBS               663069
_chemical_formula_moiety         '(C14 H12 N4 O8 Rh2)n,n(C6 H6)'
_chemical_name_systematic        
"catena-(tetrakis(\m~2~-Acetato-O,O')-(\m~2~-tetracyanoethylene-N^1^,N^2^)-di-rhodium benzene solvate)"
_chemical_absolute_configuration unk
_diffrn_ambient_temperature      295
_exptl_crystal_density_diffrn    1.464
#These two values have been output from a single CSD field.
_refine_ls_R_factor_gt           0.115
_refine_ls_wR_factor_gt          0.115
_diffrn_radiation_probe          x-ray
_symmetry_cell_setting           orthorhombic
_symmetry_space_group_name_H-M   'P b c n'
_symmetry_Int_Tables_number      60
_space_group_name_Hall           '-P 2n 2ab'
loop_
_symmetry_equiv_pos_site_id
_symmetry_equiv_pos_as_xyz
1 x,y,z
2 1/2-x,1/2-y,1/2+z
3 1/2+x,1/2-y,-z
4 -x,y,1/2-z
5 -x,-y,-z
6 1/2+x,1/2+y,1/2-z
7 1/2-x,1/2+y,z
8 x,-y,1/2+z
_cell_length_a                   16.710(1)
_cell_length_b                   21.454(2)
_cell_length_c                   16.410(2)
_cell_angle_alpha                90
_cell_angle_beta                 90
_cell_angle_gamma                90
_cell_volume                     5882.92
_exptl_crystal_colour            black
_cell_formula_units_Z            8
loop_
_atom_site_label
_atom_site_type_symbol
_atom_site_fract_x
_atom_site_fract_y
_atom_site_fract_z
Rh1 Rh 0.0125(2) 0.4452(1) 0.0033(1)
Rh2 Rh 0.0172(2) 0.0530(1) 0.0098(1)
O1 O -0.038(2) 0.444(1) 0.114(1)
O2 O 0.122(1) 0.467(1) 0.053(1)
O3 O -0.068(2) 0.547(1) 0.108(1)
O4 O 0.093(1) 0.569(1) 0.047(1)
O5 O 0.066(1) 0.031(1) 0.118(1)
O6 O -0.094(1) 0.064(1) 0.064(1)
O7 O 0.038(1) -0.072(1) 0.101(1)
O8 O -0.121(1) -0.036(1) 0.050(1)
N1 N 0.041(2) 0.344(1) 0.017(1)
N2 N 0.053(2) 0.149(2) 0.034(2)
N3 N 0.228(2) 0.353(2) 0.200(2)
N4 N 0.240(2) 0.163(2) 0.213(2)
C1 C 0.074(3) 0.310(2) 0.051(2)
C2 C 0.079(2) 0.194(2) 0.054(2)
C3 C 0.109(2) 0.251(2) 0.081(2)
C4 C 0.170(2) 0.253(2) 0.139(2)
C5 C 0.199(3) 0.316(2) 0.163(2)
C6 C 0.204(3) 0.196(2) 0.180(2)
C7 C -0.064(2) 0.493(2) 0.141(2)
C8 C 0.139(2) 0.523(2) 0.062(2)
C9 C -0.100(2) 0.494(2) 0.228(2)
C10 C 0.225(2) 0.533(2) 0.097(2)
C11 C 0.066(2) -0.027(2) 0.137(2)
C12 C -0.131(2) 0.017(2) 0.074(2)
C13 C 0.105(3) -0.047(2) 0.219(2)
C14 C -0.213(2) 0.031(2) 0.114(2)
Rh1D Rh -0.0125(2) 0.5548(1) -0.0033(1)
O3D O 0.068(2) 0.453(1) -0.108(1)
O4D O -0.093(1) 0.431(1) -0.047(1)
Rh2D Rh -0.0172(2) -0.0530(1) -0.0098(1)
O7D O -0.038(1) 0.072(1) -0.101(1)
O8D O 0.121(1) 0.036(1) -0.050(1)
C15 C 0.671(4) 0.196(3) 0.504(3)
C16 C 0.671(3) 0.267(3) 0.489(3)
C17 C 0.711(3) 0.309(2) 0.522(3)
C18 C 0.780(3) 0.292(3) 0.580(3)
C19 C 0.781(3) 0.236(3) 0.601(3)
C20 C 0.731(4) 0.184(3) 0.557(3)

#END
