####################################################################### 
# 
# This file contains crystal structure data downloaded from the 
# Cambridge Structural Database (CSD) hosted by the Cambridge 
# Crystallographic Data Centre (CCDC).
# 
# Full information about CCDC data access policies and citation 
# guidelines are available at http://www.ccdc.cam.ac.uk/access/V1 
# 
# Audit and citation data items may have been added by the CCDC. 
# Please retain this information to preserve the provenance of 
# this file and to allow appropriate attribution of the data. 
# 
#######################################################################

data_TEFNAT
#This CIF has been generated from an entry in the Cambridge Structural Database
_database_code_depnum_ccdc_archive 'CCDC 1268689'
_database_code_CSD               TEFNAT
loop_
_citation_id
_citation_doi
_citation_year
1 10.1016/0020-1693(94)03971-2 1994
_audit_creation_method           'Created from the CSD'
_audit_update_record             
;
2024-07-13 downloaded from the CCDC.
;
_database_code_NBS               663070
_chemical_formula_moiety         '(C14 H12 N4 O8 Rh2)n,n(C6 H6),n(C8 H10)'
_chemical_name_systematic        
"catena-(tetrakis(\m~2~-Acetato-O,O')-(trans-\m~2~-tetracyanoethylene-N^1^,N^3^)-di-rhodium benzene 1,3-xylene solvate)"
_chemical_absolute_configuration unk
_diffrn_ambient_temperature      295
_exptl_crystal_density_diffrn    1.585
#These two values have been output from a single CSD field.
_refine_ls_R_factor_gt           0.065
_refine_ls_wR_factor_gt          0.065
_diffrn_radiation_probe          x-ray
_symmetry_cell_setting           monoclinic
_symmetry_space_group_name_H-M   'P 21/c'
_symmetry_Int_Tables_number      14
_space_group_name_Hall           '-P 2ybc'
loop_
_symmetry_equiv_pos_site_id
_symmetry_equiv_pos_as_xyz
1 x,y,z
2 -x,1/2+y,1/2-z
3 -x,-y,-z
4 x,1/2-y,1/2+z
_cell_length_a                   11.406(1)
_cell_length_b                   21.615(4)
_cell_length_c                   12.886(1)
_cell_angle_alpha                90
_cell_angle_beta                 95.521(7)
_cell_angle_gamma                90
_cell_volume                     3162.19
_exptl_crystal_colour            black
_cell_formula_units_Z            4
loop_
_atom_site_label
_atom_site_type_symbol
_atom_site_fract_x
_atom_site_fract_y
_atom_site_fract_z
Rh1 Rh 0.98083(5) 0.05326(3) 0.01275(5)
Rh2 Rh 0.52564(5) 0.44681(3) 0.00497(5)
O1 O 1.0422(5) 0.0427(3) 0.1643(5)
O2 O 0.8195(5) 0.0276(3) 0.0504(5)
O3 O 1.0786(5) -0.0580(2) 0.1407(5)
O4 O 0.8555(5) -0.0724(3) 0.0276(5)
O5 O 0.6868(5) 0.4721(3) -0.0336(4)
O6 O 0.5772(5) 0.4606(3) 0.1595(5)
O7 O 0.6374(5) 0.5721(3) -0.0444(5)
O8 O 0.5284(5) 0.5608(3) 0.1485(5)
N1 N 0.9320(6) 0.1501(3) 0.0314(5)
N2 N 0.5790(6) 0.3499(3) 0.0106(6)
N3 N 0.9277(8) 0.3506(4) 0.0333(7)
N4 N 0.5760(8) 0.1455(4) 0.0120(7)
C1 C 0.8788(7) 0.1932(3) 0.0300(6)
C2 C 0.6258(8) 0.3043(4) 0.0146(6)
C3 C 0.8104(7) 0.2494(3) 0.0259(6)
C4 C 0.6920(8) 0.2482(3) 0.0173(6)
C5 C 0.8748(7) 0.3062(4) 0.0291(7)
C6 C 0.6270(8) 0.1903(4) 0.0141(7)
C7 C 1.1185(9) -0.0166(5) 0.3099(7)
C8 C 1.0760(6) -0.0106(4) 0.1964(7)
C9 C 0.7928(7) -0.0281(4) 0.0529(7)
C10 C 0.6738(9) -0.0436(5) 0.0893(9)
C11 C 0.7094(7) 0.528(4) -0.0528(6)
C12 C 0.5675(6) 0.5136(4) 0.1975(7)
C13 C 0.8283(8) 0.5426(5) -0.0862(9)
C14 C 0.6079(9) 0.5214(6) 0.3112(7)
Rh1B Rh 1.01917(5) -0.05326(3) -0.01275(5)
O3B O 0.9214(5) 0.0580(2) -0.1407(5)
O4B O 1.1445(5) 0.0724(3) -0.0276(5)
Rh2B Rh 0.47436(5) 0.55319(3) -0.00497(5)
O7B O 0.3626(5) 0.4279(3) 0.0444(5)
O8B O 0.4716(5) 0.4392(3) -0.1485(5)
C15 C 0.7545(9) 0.1889(4) 0.2741(6)
C16 C 0.8480(8) 0.2318(5) 0.2803(7)
C17 C 0.8230(8) 0.2949(4) 0.2786(6)
C18 C 0.709(1) 0.3152(4) 0.2675(8)
C19 C 0.6159(9) 0.2750(5) 0.2623(7)
C20 C 0.6383(9) 0.2104(5) 0.2644(7)
C21 C 0.784(1) 0.1196(5) 0.2736(9)
C22 C 0.486(1) 0.2980(7) 0.251(1)
C23 C 0.161(1) 0.2057(6) 0.799(1)
C24 C 0.157(1) 0.2471(7) 0.712(1)
C25 C 0.189(1) 0.3067(7) 0.733(1)
C26 C 0.232(1) 0.3244(6) 0.832(1)
C27 C 0.242(2) 0.2861(7) 0.913(1)
C28 C 0.202(1) 0.2252(6) 0.897(1)

#END
