####################################################################### 
# 
# This file contains crystal structure data downloaded from the 
# Cambridge Structural Database (CSD) hosted by the Cambridge 
# Crystallographic Data Centre (CCDC).
# 
# Full information about CCDC data access policies and citation 
# guidelines are available at http://www.ccdc.cam.ac.uk/access/V1 
# 
# Audit and citation data items may have been added by the CCDC. 
# Please retain this information to preserve the provenance of 
# this file and to allow appropriate attribution of the data. 
# 
#######################################################################

data_me044a1
_audit_block_doi                 10.5517/cc9wm81
_database_code_depnum_ccdc_archive 'CCDC 294663'
loop_
_citation_id
_citation_doi
_citation_year
1 10.1039/b600188m 2006
_audit_update_record             
;
2006-01-09 deposited with the CCDC.	2024-07-13 downloaded from the CCDC.
;

_audit_creation_method           SHELXL-97
_chemical_name_systematic        
;
?
;
_chemical_name_common            ?
_chemical_melting_point          ?
_chemical_formula_moiety         ?
_chemical_formula_sum            'C10 H9.58 In N4 O9.58'
_chemical_formula_weight         453.95

loop_
_atom_type_symbol
_atom_type_description
_atom_type_scat_dispersion_real
_atom_type_scat_dispersion_imag
_atom_type_scat_source
C C 0.0033 0.0016 'International Tables Vol C Tables 4.2.6.8 and 6.1.1.4'
H H 0.0000 0.0000 'International Tables Vol C Tables 4.2.6.8 and 6.1.1.4'
N N 0.0061 0.0033 'International Tables Vol C Tables 4.2.6.8 and 6.1.1.4'
O O 0.0106 0.0060 'International Tables Vol C Tables 4.2.6.8 and 6.1.1.4'
In In -0.7276 1.3100 'International Tables Vol C Tables 4.2.6.8 and 6.1.1.4'

_symmetry_cell_setting           cubic
_symmetry_space_group_name_H-M   Im-3m

loop_
_symmetry_equiv_pos_as_xyz
'x, y, z'
'-x, -y, z'
'-x, y, -z'
'x, -y, -z'
'z, x, y'
'z, -x, -y'
'-z, -x, y'
'-z, x, -y'
'y, z, x'
'-y, z, -x'
'y, -z, -x'
'-y, -z, x'
'y, x, -z'
'-y, -x, -z'
'y, -x, z'
'-y, x, z'
'x, z, -y'
'-x, z, y'
'-x, -z, -y'
'x, -z, y'
'z, y, -x'
'z, -y, x'
'-z, y, x'
'-z, -y, -x'
'x+1/2, y+1/2, z+1/2'
'-x+1/2, -y+1/2, z+1/2'
'-x+1/2, y+1/2, -z+1/2'
'x+1/2, -y+1/2, -z+1/2'
'z+1/2, x+1/2, y+1/2'
'z+1/2, -x+1/2, -y+1/2'
'-z+1/2, -x+1/2, y+1/2'
'-z+1/2, x+1/2, -y+1/2'
'y+1/2, z+1/2, x+1/2'
'-y+1/2, z+1/2, -x+1/2'
'y+1/2, -z+1/2, -x+1/2'
'-y+1/2, -z+1/2, x+1/2'
'y+1/2, x+1/2, -z+1/2'
'-y+1/2, -x+1/2, -z+1/2'
'y+1/2, -x+1/2, z+1/2'
'-y+1/2, x+1/2, z+1/2'
'x+1/2, z+1/2, -y+1/2'
'-x+1/2, z+1/2, y+1/2'
'-x+1/2, -z+1/2, -y+1/2'
'x+1/2, -z+1/2, y+1/2'
'z+1/2, y+1/2, -x+1/2'
'z+1/2, -y+1/2, x+1/2'
'-z+1/2, y+1/2, x+1/2'
'-z+1/2, -y+1/2, -x+1/2'
'-x, -y, -z'
'x, y, -z'
'x, -y, z'
'-x, y, z'
'-z, -x, -y'
'-z, x, y'
'z, x, -y'
'z, -x, y'
'-y, -z, -x'
'y, -z, x'
'-y, z, x'
'y, z, -x'
'-y, -x, z'
'y, x, z'
'-y, x, -z'
'y, -x, -z'
'-x, -z, y'
'x, -z, -y'
'x, z, y'
'-x, z, -y'
'-z, -y, x'
'-z, y, -x'
'z, -y, -x'
'z, y, x'
'-x+1/2, -y+1/2, -z+1/2'
'x+1/2, y+1/2, -z+1/2'
'x+1/2, -y+1/2, z+1/2'
'-x+1/2, y+1/2, z+1/2'
'-z+1/2, -x+1/2, -y+1/2'
'-z+1/2, x+1/2, y+1/2'
'z+1/2, x+1/2, -y+1/2'
'z+1/2, -x+1/2, y+1/2'
'-y+1/2, -z+1/2, -x+1/2'
'y+1/2, -z+1/2, x+1/2'
'-y+1/2, z+1/2, x+1/2'
'y+1/2, z+1/2, -x+1/2'
'-y+1/2, -x+1/2, z+1/2'
'y+1/2, x+1/2, z+1/2'
'-y+1/2, x+1/2, -z+1/2'
'y+1/2, -x+1/2, -z+1/2'
'-x+1/2, -z+1/2, y+1/2'
'x+1/2, -z+1/2, -y+1/2'
'x+1/2, z+1/2, y+1/2'
'-x+1/2, z+1/2, -y+1/2'
'-z+1/2, -y+1/2, x+1/2'
'-z+1/2, y+1/2, -x+1/2'
'z+1/2, -y+1/2, -x+1/2'
'z+1/2, y+1/2, x+1/2'

_cell_length_a                   31.0622(7)
_cell_length_b                   31.0622(7)
_cell_length_c                   31.0622(7)
_cell_angle_alpha                90.00
_cell_angle_beta                 90.00
_cell_angle_gamma                90.00
_cell_volume                     29970.7(12)
_cell_formula_units_Z            48
_cell_measurement_temperature    100(2)
_cell_measurement_reflns_used    6209
_cell_measurement_theta_min      2.27
_cell_measurement_theta_max      22.93

_exptl_crystal_description       cube
_exptl_crystal_colour            colorless
_exptl_crystal_size_max          0.05
_exptl_crystal_size_mid          0.05
_exptl_crystal_size_min          0.05
_exptl_crystal_density_meas      0
_exptl_crystal_density_diffrn    1.207
_exptl_crystal_density_method    'not measured'
_exptl_crystal_F_000             10716
_exptl_absorpt_coefficient_mu    0.983
_exptl_absorpt_correction_type   none
_exptl_absorpt_correction_T_min  ?
_exptl_absorpt_correction_T_max  ?
_exptl_absorpt_process_details   ?

_exptl_special_details           
;
?
;

_diffrn_ambient_temperature      100(2)
_diffrn_radiation_wavelength     0.71073
_diffrn_radiation_type           MoK\a
_diffrn_radiation_source         'fine-focus sealed tube'
_diffrn_radiation_monochromator  graphite
_diffrn_measurement_device_type  'CCD area detector'
_diffrn_measurement_method       'phi and omega scans'
_diffrn_detector_area_resol_mean ?
_diffrn_standards_number         ?
_diffrn_standards_interval_count ?
_diffrn_standards_interval_time  ?
_diffrn_standards_decay_%        ?
_diffrn_reflns_number            58689
_diffrn_reflns_av_R_equivalents  0.1503
_diffrn_reflns_av_sigmaI/netI    0.0620
_diffrn_reflns_limit_h_min       -34
_diffrn_reflns_limit_h_max       26
_diffrn_reflns_limit_k_min       -28
_diffrn_reflns_limit_k_max       34
_diffrn_reflns_limit_l_min       -34
_diffrn_reflns_limit_l_max       33
_diffrn_reflns_theta_min         1.61
_diffrn_reflns_theta_max         23.06
_reflns_number_total             2043
_reflns_number_gt                878
_reflns_threshold_expression     >2sigma(I)

_computing_data_collection       'Bruker SMART'
_computing_cell_refinement       'Bruker SMART'
_computing_data_reduction        'Bruker SAINT'
_computing_structure_solution    'SHELXS-97 (Sheldrick, 1990)'
_computing_structure_refinement  'SHELXL-97 (Sheldrick, 1997)'
_computing_molecular_graphics    'Bruker SHELXTL'
_computing_publication_material  'Bruker SHELXTL'

_refine_special_details          
;
Refinement of F^2^ against ALL reflections. The weighted R-factor wR and
goodness of fit S are based on F^2^, conventional R-factors R are based
on F, with F set to zero for negative F^2^. The threshold expression of
F^2^ > 2sigma(F^2^) is used only for calculating R-factors(gt) etc. and is
not relevant to the choice of reflections for refinement. R-factors based
on F^2^ are statistically about twice as large as those based on F, and R-
factors based on ALL data will be even larger.
;

_refine_ls_structure_factor_coef Fsqd
_refine_ls_matrix_type           full
_refine_ls_weighting_scheme      calc
_refine_ls_weighting_details     
'calc w=1/[\s^2^(Fo^2^)+(0.0751P)^2^+0.0000P] where P=(Fo^2^+2Fc^2^)/3'
_atom_sites_solution_primary     direct
_atom_sites_solution_secondary   difmap
_atom_sites_solution_hydrogens   geom
_refine_ls_hydrogen_treatment    mixed
_refine_ls_extinction_method     none
_refine_ls_extinction_coef       ?
_refine_ls_number_reflns         2043
_refine_ls_number_parameters     160
_refine_ls_number_restraints     13
_refine_ls_R_factor_all          0.1332
_refine_ls_R_factor_gt           0.0590
_refine_ls_wR_factor_ref         0.1677
_refine_ls_wR_factor_gt          0.1512
_refine_ls_goodness_of_fit_ref   1.015
_refine_ls_restrained_S_all      1.027
_refine_ls_shift/su_max          0.000
_refine_ls_shift/su_mean         0.000

loop_
_atom_site_label
_atom_site_type_symbol
_atom_site_fract_x
_atom_site_fract_y
_atom_site_fract_z
_atom_site_U_iso_or_equiv
_atom_site_adp_type
_atom_site_occupancy
_atom_site_symmetry_multiplicity
_atom_site_calc_flag
_atom_site_refinement_flags
_atom_site_disorder_assembly
_atom_site_disorder_group
In1 In 0.10442(2) 0.39558(2) 0.2500 0.1087(4) Uani 1 2 d S . .
O1 O 0.08179(19) 0.3265(2) 0.2148(2) 0.130(3) Uani 1 1 d D . .
O2 O 0.09952(19) 0.2862(2) 0.1573(2) 0.150(2) Uani 1 1 d D . .
H1O2 H 0.1235 0.2842 0.1235 0.225 Uiso 1 2 d SRD . .
N1 N 0.1540(2) 0.3798(2) 0.2052(2) 0.117(3) Uani 1 1 d D . .
C1 C 0.1050(3) 0.3182(3) 0.1861(3) 0.138(4) Uani 1 1 d D . .
C2 C 0.1450(3) 0.3461(3) 0.1784(3) 0.142(4) Uani 1 1 d D . .
C3 C 0.1888(3) 0.3965(4) 0.1888(3) 0.133(5) Uani 1 2 d SD . .
H3 H 0.2022 0.4206 0.2022 0.159 Uiso 1 2 calc SR . .
O3 O 0.0924(2) 0.43085(19) 0.32322(18) 0.110(2) Uani 1 1 d D . .
O4 O 0.0400(2) 0.4479(2) 0.36933(18) 0.124(2) Uani 1 1 d D . .
H1O4 H 0.0000 0.4437 0.3736 0.187 Uiso 1 2 d SR . .
N2 N 0.0364(2) 0.3946(2) 0.2660(2) 0.097(2) Uani 1 1 d D . .
C4 C 0.0552(3) 0.4314(3) 0.3335(3) 0.100(3) Uani 1 1 d D . .
C5 C 0.0214(2) 0.4139(2) 0.3031(3) 0.092(3) Uani 1 1 d D . .
C6 C 0.0000 0.3843(4) 0.2461(4) 0.100(4) Uani 1 2 d SD . .
H6 H 0.0000 0.3702 0.2190 0.120 Uiso 1 2 calc SR . .
O1X O 0.0000 0.5000 0.5000 0.30(4) Uiso 0.75 16 d SP . .
O2X O 0.1606(6) 0.5000 0.3736(6) 0.256(7) Uiso 0.89 2 d SP . .
O3X O 0.0000 0.2934(13) 0.0000 0.38(2) Uiso 1.16 8 d SP . .
O4X O 0.2705(11) 0.3254(15) 0.2705(11) 0.36(3) Uiso 0.45 2 d SP . .
O5X O 0.0000 0.190(4) 0.190(4) 0.38(9) Uiso 0.18 4 d SP . .
O6X O 0.0409(14) 0.2089(9) 0.2089(9) 0.249(17) Uiso 0.38 2 d SP . .
O7X O 0.2425(9) 0.3202(11) 0.2425(9) 0.275(15) Uiso 0.52 2 d SP . .
O8X O 0.205(3) 0.5000 0.418(2) 0.42(4) Uiso 0.33 2 d SP . .
O9X O 0.0000 0.1675(19) 0.2388(17) 0.37(3) Uiso 0.42 2 d SP . .
O10X O 0.0704(14) 0.2060(14) 0.2662(14) 0.161(15) Uiso 0.17 1 d P . .
O11X O 0.347(2) 0.347(2) 0.347(2) 0.43(7) Uiso 0.34 6 d SP . .
O12X O 0.130(2) 0.4326(15) 0.4326(15) 0.29(3) Uiso 0.33 2 d SP . .
O13X O 0.1218(16) 0.5000 0.3970(15) 0.209(17) Uiso 0.31 2 d SP . .
O14X O 0.1000(19) 0.4485(13) 0.4485(13) 0.20(2) Uiso 0.23 2 d SP . .
O15X O 0.0000 0.2381(9) 0.2381(9) 0.398(19) Uiso 0.94 4 d SP . .
O16X O -0.0216(19) 0.534(2) 0.5000 0.39(6) Uiso 0.33 2 d SP . .
O17X O 0.2123(11) 0.2801(18) 0.2123(11) 0.26(2) Uiso 0.31 2 d SP . .
O18X O 0.134(2) 0.458(2) 0.4056(19) 0.35(2) Uiso 0.29 1 d P . .
O19X O -0.055(8) 0.5000 0.5000 0.47(12) Uiso 0.31 8 d SP . .

loop_
_atom_site_aniso_label
_atom_site_aniso_U_11
_atom_site_aniso_U_22
_atom_site_aniso_U_33
_atom_site_aniso_U_23
_atom_site_aniso_U_13
_atom_site_aniso_U_12
In1 0.1014(5) 0.1014(5) 0.1232(8) 0.0069(4) 0.0069(4) -0.0049(6)
O1 0.109(5) 0.168(7) 0.115(5) -0.050(5) 0.013(4) -0.011(4)
O2 0.138(6) 0.139(6) 0.173(6) -0.017(5) 0.008(5) -0.032(5)
N1 0.128(7) 0.087(6) 0.138(7) -0.019(5) -0.030(6) -0.012(5)
C1 0.179(12) 0.090(7) 0.145(11) -0.039(7) -0.060(9) -0.022(8)
C2 0.107(8) 0.141(9) 0.179(10) 0.032(7) -0.018(7) -0.014(6)
C3 0.165(9) 0.068(10) 0.165(9) 0.008(7) -0.013(13) 0.008(7)
O3 0.108(5) 0.121(5) 0.103(5) 0.002(4) -0.008(4) -0.010(4)
O4 0.141(5) 0.144(5) 0.088(4) -0.015(4) -0.002(4) -0.010(4)
N2 0.089(5) 0.106(5) 0.097(5) -0.008(4) -0.007(4) -0.007(4)
C4 0.117(8) 0.089(7) 0.093(8) 0.006(6) 0.001(7) -0.004(7)
C5 0.105(7) 0.088(6) 0.084(6) -0.010(5) 0.004(5) -0.009(4)
C6 0.103(10) 0.103(10) 0.093(9) 0.007(7) 0.000 0.000

_geom_special_details            
;
All esds (except the esd in the dihedral angle between two l.s. planes)
are estimated using the full covariance matrix. The cell esds are taken
into account individually in the estimation of esds in distances, angles
and torsion angles; correlations between esds in cell parameters are only
used when they are defined by crystal symmetry. An approximate (isotropic)
treatment of cell esds is used for estimating esds involving l.s. planes.
;

loop_
_geom_bond_atom_site_label_1
_geom_bond_atom_site_label_2
_geom_bond_distance
_geom_bond_site_symmetry_2
_geom_bond_publ_flag
In1 N1 2.131(7) . ?
In1 N1 2.131(7) 38 ?
In1 N2 2.171(6) 38 ?
In1 N2 2.171(6) . ?
In1 O1 2.510(6) . ?
In1 O1 2.510(6) 38 ?
In1 O3 2.552(6) 38 ?
In1 O3 2.552(6) . ?
O1 C1 1.174(9) . ?
O2 C1 1.348(8) . ?
N1 C3 1.305(7) . ?
N1 C2 1.367(9) . ?
C1 C2 1.533(10) . ?
C2 C2 1.466(17) 72 ?
C3 N1 1.305(7) 72 ?
O3 C4 1.199(8) . ?
O4 C4 1.314(8) . ?
N2 C6 1.328(7) . ?
N2 C5 1.379(8) . ?
C4 C5 1.512(9) . ?
C5 C5 1.327(14) 52 ?
C6 N2 1.328(7) 52 ?
O1X O16X 1.26(7) 17_556 ?
O1X O16X 1.26(7) 67 ?
O1X O16X 1.26(7) 3_556 ?
O1X O16X 1.26(7) . ?
O1X O16X 1.26(7) 51_565 ?
O1X O16X 1.26(7) 65_565 ?
O1X O16X 1.26(7) 19_566 ?
O1X O16X 1.26(7) 49_566 ?
O1X O19X 1.7(2) . ?
O1X O19X 1.7(2) 49_566 ?
O2X O13X 1.41(5) . ?
O4X O7X 1.24(5) . ?
O5X O6X 1.52(10) 52 ?
O5X O6X 1.52(10) . ?
O5X O9X 1.67(8) 18 ?
O5X O9X 1.67(8) . ?
O6X O15X 1.80(4) . ?
O12X O18X 1.16(6) . ?
O12X O18X 1.16(6) 67 ?
O12X O14X 1.17(8) . ?
O13X O18X 1.38(6) 51_565 ?
O13X O18X 1.38(6) . ?
O14X O18X 1.72(7) . ?
O14X O18X 1.72(7) 67 ?
O15X O6X 1.80(4) 52 ?
O16X O16X 1.34(12) 3_556 ?
O16X O19X 1.49(16) . ?
O16X O16X 1.51(9) 17_556 ?
O16X O16X 1.51(9) 67 ?
O19X O16X 1.49(16) 67 ?
O19X O16X 1.49(16) 17_556 ?
O19X O16X 1.49(16) 51_565 ?

loop_
_geom_angle_atom_site_label_1
_geom_angle_atom_site_label_2
_geom_angle_atom_site_label_3
_geom_angle
_geom_angle_site_symmetry_1
_geom_angle_site_symmetry_3
_geom_angle_publ_flag
N1 In1 N1 95.4(4) . 38 ?
N1 In1 N2 93.7(2) . 38 ?
N1 In1 N2 148.1(2) 38 38 ?
N1 In1 N2 148.1(2) . . ?
N1 In1 N2 93.7(2) 38 . ?
N2 In1 N2 94.5(3) 38 . ?
N1 In1 O1 73.8(2) . . ?
N1 In1 O1 74.4(2) 38 . ?
N2 In1 O1 137.4(2) 38 . ?
N2 In1 O1 79.4(2) . . ?
N1 In1 O1 74.4(2) . 38 ?
N1 In1 O1 73.8(2) 38 38 ?
N2 In1 O1 79.4(2) 38 38 ?
N2 In1 O1 137.4(2) . 38 ?
O1 In1 O1 132.0(3) . 38 ?
N1 In1 O3 76.2(2) . 38 ?
N1 In1 O3 141.8(2) 38 38 ?
N2 In1 O3 70.1(2) 38 38 ?
N2 In1 O3 77.8(2) . 38 ?
O1 In1 O3 67.4(2) . 38 ?
O1 In1 O3 135.64(19) 38 38 ?
N1 In1 O3 141.8(2) . . ?
N1 In1 O3 76.2(2) 38 . ?
N2 In1 O3 77.8(2) 38 . ?
N2 In1 O3 70.1(2) . . ?
O1 In1 O3 135.64(19) . . ?
O1 In1 O3 67.4(2) 38 . ?
O3 In1 O3 132.0(3) 38 . ?
C1 O1 In1 110.2(6) . . ?
C3 N1 C2 103.6(9) . . ?
C3 N1 In1 139.7(7) . . ?
C2 N1 In1 115.3(5) . . ?
O1 C1 O2 125.9(9) . . ?
O1 C1 C2 119.5(8) . . ?
O2 C1 C2 114.5(8) . . ?
N1 C2 C2 106.7(5) . 72 ?
N1 C2 C1 120.1(8) . . ?
C2 C2 C1 133.1(5) 72 . ?
N1 C3 N1 119.4(13) . 72 ?
C4 O3 In1 112.5(5) . . ?
C6 N2 C5 101.9(7) . . ?
C6 N2 In1 136.5(6) . . ?
C5 N2 In1 121.0(5) . . ?
O3 C4 O4 125.2(8) . . ?
O3 C4 C5 119.9(8) . . ?
O4 C4 C5 114.8(8) . . ?
C5 C5 N2 109.8(4) 52 . ?
C5 C5 C4 134.0(5) 52 . ?
N2 C5 C4 116.2(7) . . ?
N2 C6 N2 116.7(10) 52 . ?
O16X O1X O16X 116(5) 17_556 67 ?
O16X O1X O16X 106(3) 17_556 3_556 ?
O16X O1X O16X 106(3) 67 3_556 ?
O16X O1X O16X 74(3) 17_556 . ?
O16X O1X O16X 74(3) 67 . ?
O16X O1X O16X 64(5) 3_556 . ?
O16X O1X O16X 74(3) 17_556 51_565 ?
O16X O1X O16X 74(3) 67 51_565 ?
O16X O1X O16X 180.00(2) 3_556 51_565 ?
O16X O1X O16X 116(5) . 51_565 ?
O16X O1X O16X 180.00(3) 17_556 65_565 ?
O16X O1X O16X 64(5) 67 65_565 ?
O16X O1X O16X 74(3) 3_556 65_565 ?
O16X O1X O16X 106(3) . 65_565 ?
O16X O1X O16X 106(3) 51_565 65_565 ?
O16X O1X O16X 64(5) 17_556 19_566 ?
O16X O1X O16X 180.00(3) 67 19_566 ?
O16X O1X O16X 74(3) 3_556 19_566 ?
O16X O1X O16X 106(3) . 19_566 ?
O16X O1X O16X 106(3) 51_565 19_566 ?
O16X O1X O16X 116(5) 65_565 19_566 ?
O16X O1X O16X 106(3) 17_556 49_566 ?
O16X O1X O16X 106(3) 67 49_566 ?
O16X O1X O16X 116(5) 3_556 49_566 ?
O16X O1X O16X 180.00(3) . 49_566 ?
O16X O1X O16X 64(5) 51_565 49_566 ?
O16X O1X O16X 74(3) 65_565 49_566 ?
O16X O1X O16X 74(3) 19_566 49_566 ?
O16X O1X O19X 58(3) 17_556 . ?
O16X O1X O19X 58(3) 67 . ?
O16X O1X O19X 122(3) 3_556 . ?
O16X O1X O19X 58(3) . . ?
O16X O1X O19X 58(3) 51_565 . ?
O16X O1X O19X 122(3) 65_565 . ?
O16X O1X O19X 122(3) 19_566 . ?
O16X O1X O19X 122(3) 49_566 . ?
O16X O1X O19X 122(3) 17_556 49_566 ?
O16X O1X O19X 122(3) 67 49_566 ?
O16X O1X O19X 58(3) 3_556 49_566 ?
O16X O1X O19X 122(3) . 49_566 ?
O16X O1X O19X 122(3) 51_565 49_566 ?
O16X O1X O19X 58(3) 65_565 49_566 ?
O16X O1X O19X 58(3) 19_566 49_566 ?
O16X O1X O19X 58(3) 49_566 49_566 ?
O19X O1X O19X 180.000(13) . 49_566 ?
O6X O5X O6X 114(10) 52 . ?
O6X O5X O9X 79(5) 52 18 ?
O6X O5X O9X 79(5) . 18 ?
O6X O5X O9X 79(5) 52 . ?
O6X O5X O9X 79(5) . . ?
O9X O5X O9X 140(10) 18 . ?
O5X O6X O15X 78(7) . . ?
O18X O12X O18X 169(10) . 67 ?
O18X O12X O14X 95(6) . . ?
O18X O12X O14X 95(6) 67 . ?
O18X O13X O18X 142(7) 51_565 . ?
O18X O13X O2X 83(4) 51_565 . ?
O18X O13X O2X 83(4) . . ?
O12X O14X O18X 42(3) . . ?
O12X O14X O18X 42(3) . 67 ?
O18X O14X O18X 84(6) . 67 ?
O6X O15X O6X 90(3) 52 . ?
O1X O16X O16X 58(3) . 3_556 ?
O1X O16X O19X 77(8) . . ?
O16X O16X O19X 134(8) 3_556 . ?
O1X O16X O16X 53.2(13) . 17_556 ?
O16X O16X O16X 90.000(8) 3_556 17_556 ?
O19X O16X O16X 60(4) . 17_556 ?
O1X O16X O16X 53.2(13) . 67 ?
O16X O16X O16X 90.000(9) 3_556 67 ?
O19X O16X O16X 60(4) . 67 ?
O16X O16X O16X 90.000(17) 17_556 67 ?
O12X O18X O13X 140(9) . . ?
O12X O18X O14X 43(5) . . ?
O13X O18X O14X 99(5) . . ?
O16X O19X O16X 61(9) . 67 ?
O16X O19X O16X 61(9) . 17_556 ?
O16X O19X O16X 91(10) 67 17_556 ?
O16X O19X O16X 91(10) . 51_565 ?
O16X O19X O16X 61(9) 67 51_565 ?
O16X O19X O16X 61(9) 17_556 51_565 ?
O16X O19X O1X 46(8) . . ?
O16X O19X O1X 46(8) 67 . ?
O16X O19X O1X 46(8) 17_556 . ?
O16X O19X O1X 46(8) 51_565 . ?

_diffrn_measured_fraction_theta_max 0.998
_diffrn_reflns_theta_full        23.06
_diffrn_measured_fraction_theta_full 0.998
_refine_diff_density_max         0.405
_refine_diff_density_min         -0.367
_refine_diff_density_rms         0.080
