####################################################################### 
# 
# This file contains crystal structure data downloaded from the 
# Cambridge Structural Database (CSD) hosted by the Cambridge 
# Crystallographic Data Centre (CCDC).
# 
# Full information about CCDC data access policies and citation 
# guidelines are available at http://www.ccdc.cam.ac.uk/access/V1 
# 
# Audit and citation data items may have been added by the CCDC. 
# Please retain this information to preserve the provenance of 
# this file and to allow appropriate attribution of the data. 
# 
#######################################################################

data_1
_audit_block_doi                 10.5517/ccwp3qc
_database_code_depnum_ccdc_archive 'CCDC 824653'
loop_
_citation_id
_citation_doi
_citation_year
1 10.1016/j.inoche.2012.02.004 2012
_audit_update_record             
;
2011-05-08 deposited with the CCDC.	2024-07-13 downloaded from the CCDC.
;
#TrackingRef 'ncu-34.CIF'


_audit_creation_method           SHELXL-97
_chemical_name_systematic        
;
?
;
_chemical_name_common            ?
_chemical_melting_point          'not measured'
_chemical_formula_moiety         'C25 H24 N5 O6 S0 Zn'
_chemical_formula_sum            'C25 H24 N5 O6 S0 Zn'
_chemical_formula_weight         555.86

loop_
_atom_type_symbol
_atom_type_description
_atom_type_scat_dispersion_real
_atom_type_scat_dispersion_imag
_atom_type_scat_source
C C 0.0033 0.0016 'International Tables Vol C Tables 4.2.6.8 and 6.1.1.4'
H H 0.0000 0.0000 'International Tables Vol C Tables 4.2.6.8 and 6.1.1.4'
N N 0.0061 0.0033 'International Tables Vol C Tables 4.2.6.8 and 6.1.1.4'
O O 0.0106 0.0060 'International Tables Vol C Tables 4.2.6.8 and 6.1.1.4'
Zn Zn 0.2839 1.4301 'International Tables Vol C Tables 4.2.6.8 and 6.1.1.4'
S S 0.1246 0.1234 'International Tables Vol C Tables 4.2.6.8 and 6.1.1.4'

_symmetry_cell_setting           triclinic
_symmetry_space_group_name_H-M   P-1

loop_
_symmetry_equiv_pos_as_xyz
'x, y, z'
'-x, -y, -z'

_cell_length_a                   11.115(2)
_cell_length_b                   12.350(3)
_cell_length_c                   13.364(3)
_cell_angle_alpha                88.96(3)
_cell_angle_beta                 75.01(3)
_cell_angle_gamma                69.28(3)
_cell_volume                     1651.9(6)
_cell_formula_units_Z            2
_cell_measurement_temperature    293(2)
_cell_measurement_reflns_used    ?
_cell_measurement_theta_min      ?
_cell_measurement_theta_max      ?

_exptl_crystal_description       block
_exptl_crystal_colour            colorless
_exptl_crystal_size_max          0.25
_exptl_crystal_size_mid          0.25
_exptl_crystal_size_min          0.2
_exptl_crystal_density_meas      ?
_exptl_crystal_density_diffrn    1.118
_exptl_crystal_density_method    'not measured'
_exptl_crystal_F_000             574
_exptl_absorpt_coefficient_mu    0.782
_exptl_absorpt_correction_type   none
_exptl_absorpt_correction_T_min  ?
_exptl_absorpt_correction_T_max  ?
_exptl_absorpt_process_details   ?

_exptl_special_details           
;
?
;

_diffrn_ambient_temperature      293(2)
_diffrn_radiation_wavelength     0.71073
_diffrn_radiation_type           MoK\a
_diffrn_radiation_source         'fine-focus sealed tube'
_diffrn_radiation_monochromator  graphite
_diffrn_measurement_device_type  ?
_diffrn_measurement_method       ?
_diffrn_detector_area_resol_mean ?
_diffrn_standards_number         ?
_diffrn_standards_interval_count ?
_diffrn_standards_interval_time  ?
_diffrn_standards_decay_%        ?
_diffrn_reflns_number            15908
_diffrn_reflns_av_R_equivalents  0.0682
_diffrn_reflns_av_sigmaI/netI    0.1077
_diffrn_reflns_limit_h_min       -13
_diffrn_reflns_limit_h_max       14
_diffrn_reflns_limit_k_min       -15
_diffrn_reflns_limit_k_max       15
_diffrn_reflns_limit_l_min       -17
_diffrn_reflns_limit_l_max       17
_diffrn_reflns_theta_min         3.14
_diffrn_reflns_theta_max         27.48
_reflns_number_total             7455
_reflns_number_gt                3961
_reflns_threshold_expression     >2sigma(I)

_computing_data_collection       Process-auto
_computing_cell_refinement       Process-auto
_computing_data_reduction        Process-auto
_computing_structure_solution    'SHELXS-97 (Sheldrick, 1990)'
_computing_structure_refinement  'SHELXL-97 (Sheldrick, 1997)'
_computing_molecular_graphics    'Siemens SHELXTL'
_computing_publication_material  'Siemens SHELXTL'

_refine_special_details          
;
Refinement of F^2^ against ALL reflections. The weighted R-factor wR and
goodness of fit S are based on F^2^, conventional R-factors R are based
on F, with F set to zero for negative F^2^. The threshold expression of
F^2^ > 2sigma(F^2^) is used only for calculating R-factors(gt) etc. and is
not relevant to the choice of reflections for refinement. R-factors based
on F^2^ are statistically about twice as large as those based on F, and R-
factors based on ALL data will be even larger.
;

_refine_ls_structure_factor_coef Fsqd
_refine_ls_matrix_type           full
_refine_ls_weighting_scheme      calc
_refine_ls_weighting_details     
'calc w=1/[\s^2^(Fo^2^)+(0.1835P)^2^+0.0000P] where P=(Fo^2^+2Fc^2^)/3'
_atom_sites_solution_primary     direct
_atom_sites_solution_secondary   difmap
_atom_sites_solution_hydrogens   geom
_refine_ls_hydrogen_treatment    mixed
_refine_ls_extinction_method     SHELXL
_refine_ls_extinction_coef       0.018(4)
_refine_ls_extinction_expression Fc^*^=kFc[1+0.001xFc^2^\l^3^/sin(2\q)]^-1/4^
_refine_ls_number_reflns         7455
_refine_ls_number_parameters     335
_refine_ls_number_restraints     0
_refine_ls_R_factor_all          0.1377
_refine_ls_R_factor_gt           0.0870
_refine_ls_wR_factor_ref         0.2944
_refine_ls_wR_factor_gt          0.2333
_refine_ls_goodness_of_fit_ref   0.984
_refine_ls_restrained_S_all      0.984
_refine_ls_shift/su_max          0.000
_refine_ls_shift/su_mean         0.000

loop_
_atom_site_label
_atom_site_type_symbol
_atom_site_fract_x
_atom_site_fract_y
_atom_site_fract_z
_atom_site_U_iso_or_equiv
_atom_site_adp_type
_atom_site_occupancy
_atom_site_symmetry_multiplicity
_atom_site_calc_flag
_atom_site_refinement_flags
_atom_site_disorder_assembly
_atom_site_disorder_group
N2A N -0.7583(5) 0.3924(4) 0.4392(4) 0.0483(11) Uani 1 1 d . . .
C7A C -0.7563(8) 0.4546(5) 0.3525(5) 0.066(2) Uani 1 1 d . . .
H7AA H -0.7130 0.4229 0.2844 0.080 Uiso 1 1 calc R . .
C8A C -0.8266(8) 0.5681(6) 0.3812(5) 0.0652(19) Uani 1 1 d . . .
H8AA H -0.8393 0.6285 0.3378 0.078 Uiso 1 1 calc R . .
C9A C -0.8338(6) 0.4716(5) 0.5194(5) 0.0463(13) Uani 1 1 d . . .
H9AA H -0.8540 0.4545 0.5884 0.056 Uiso 1 1 calc R . .
N3A N -0.8756(5) 0.5766(4) 0.4874(4) 0.0477(11) Uani 1 1 d . . .
C10A C -0.9561(6) 0.6849(5) 0.5551(5) 0.0522(15) Uani 1 1 d . . .
H10A H -0.9870 0.6662 0.6257 0.063 Uiso 1 1 calc R . .
H10B H -1.0337 0.7275 0.5310 0.063 Uiso 1 1 calc R . .
O2A O -0.3366(4) 0.8377(4) 1.4305(3) 0.0517(10) Uani 1 1 d . . .
C27A C -0.2264(6) 0.8121(5) 1.3593(5) 0.0497(14) Uani 1 1 d . . .
Zn1A Zn -0.33504(7) 0.77886(6) 0.56398(5) 0.0426(3) Uani 1 1 d . . .
O4A O -0.2876(4) 0.8205(4) 0.6858(3) 0.0530(10) Uani 1 1 d . . .
C4A C -0.2896(5) 0.9225(6) 0.6956(4) 0.0456(13) Uani 1 1 d . . .
N1A N -0.5322(5) 0.8206(4) 0.6229(4) 0.0438(11) Uani 1 1 d . . .
N4A N -0.7495(5) 0.8954(4) 0.6406(4) 0.0434(11) Uani 1 1 d . . .
C3A C -0.6288(6) 0.8828(5) 0.5799(4) 0.0413(12) Uani 1 1 d . . .
H3AA H -0.6136 0.9133 0.5157 0.050 Uiso 1 1 calc R . .
C2A C -0.7329(7) 0.8388(6) 0.7284(5) 0.0520(14) Uani 1 1 d . . .
H2BA H -0.7993 0.8326 0.7845 0.062 Uiso 1 1 calc R . .
O1A O -0.3070(4) 0.9930(4) 0.6270(3) 0.0518(10) Uani 1 1 d . . .
N5A N -0.2561(5) 0.9576(5) 0.9568(4) 0.0487(12) Uani 1 1 d . . .
C12A C -0.2607(6) 1.0666(6) 0.8241(5) 0.0518(15) Uani 1 1 d . . .
C11A C -0.2749(5) 0.9601(5) 0.7954(4) 0.0418(12) Uani 1 1 d . . .
C20A C -0.2483(6) 0.9198(5) 1.0585(4) 0.0455(13) Uani 1 1 d . . .
C14A C -0.2707(6) 0.8940(5) 0.8800(4) 0.0450(13) Uani 1 1 d . . .
C5A C -0.9529(6) 0.8735(5) 0.6206(5) 0.0494(14) Uani 1 1 d . . .
H5AA H -1.0327 0.9129 0.5982 0.059 Uiso 1 1 calc R . .
H5BA H -0.9809 0.8564 0.6922 0.059 Uiso 1 1 calc R . .
O5A O -0.2818(7) 1.1730(5) 0.6740(4) 0.0899(19) Uani 1 1 d . . .
C21A C -0.1260(6) 0.8671(7) 1.0775(5) 0.0582(17) Uani 1 1 d . . .
H21A H -0.0480 0.8547 1.0248 0.070 Uiso 1 1 calc R . .
C13A C -0.2514(7) 1.0624(6) 0.9255(5) 0.0518(15) Uani 1 1 d . . .
O6A O -0.2270(8) 1.2442(6) 0.7966(5) 0.100(2) Uani 1 1 d . . .
C6A C -0.8728(6) 0.7601(5) 0.5538(5) 0.0488(14) Uani 1 1 d . . .
H6AA H -0.7961 0.7177 0.5791 0.059 Uiso 1 1 calc R . .
H6BA H -0.8400 0.7768 0.4829 0.059 Uiso 1 1 calc R . .
C1A C -0.5990(7) 0.7940(6) 0.7158(5) 0.0528(15) Uani 1 1 d . . .
H1AA H -0.5581 0.7511 0.7636 0.063 Uiso 1 1 calc R . .
C22A C -0.3646(6) 0.9401(6) 1.1368(5) 0.0564(16) Uani 1 1 d . . .
H22A H -0.4473 0.9766 1.1238 0.068 Uiso 1 1 calc R . .
C23A C -0.8775(6) 0.9535(5) 0.6163(5) 0.0487(14) Uani 1 1 d . . .
H23A H -0.8613 0.9807 0.5473 0.058 Uiso 1 1 calc R . .
H23B H -0.9311 1.0205 0.6655 0.058 Uiso 1 1 calc R . .
C15A C -0.2541(9) 1.1654(7) 0.7646(5) 0.0666(19) Uani 1 1 d . . .
C18A C -0.2808(8) 0.7785(6) 0.8967(6) 0.070(2) Uani 1 1 d . . .
H18A H -0.2740 0.7585 0.9653 0.104 Uiso 1 1 calc R . .
H18B H -0.2098 0.7215 0.8463 0.104 Uiso 1 1 calc R . .
H18C H -0.3652 0.7804 0.8894 0.104 Uiso 1 1 calc R . .
C19A C -0.2356(8) 1.1458(7) 0.9930(5) 0.070(2) Uani 1 1 d . . .
H19A H -0.2324 1.1155 1.0593 0.104 Uiso 1 1 calc R . .
H19B H -0.3099 1.2180 1.0022 0.104 Uiso 1 1 calc R . .
H19C H -0.1542 1.1586 0.9616 0.104 Uiso 1 1 calc R . .
O3A O -0.1181(5) 0.7578(6) 1.3756(4) 0.0866(18) Uani 1 1 d . . .
C26A C -0.2343(6) 0.8510(5) 1.2542(4) 0.0418(12) Uani 1 1 d . . .
C24A C -0.3567(6) 0.9053(5) 1.2349(5) 0.0479(13) Uani 1 1 d . . .
H24A H -0.4346 0.9188 1.2880 0.058 Uiso 1 1 calc R . .
C25A C -0.1194(6) 0.8326(6) 1.1754(5) 0.0537(15) Uani 1 1 d . . .
H25A H -0.0365 0.7965 1.1883 0.064 Uiso 1 1 calc R . .

loop_
_atom_site_aniso_label
_atom_site_aniso_U_11
_atom_site_aniso_U_22
_atom_site_aniso_U_33
_atom_site_aniso_U_23
_atom_site_aniso_U_13
_atom_site_aniso_U_12
N2A 0.061(3) 0.053(3) 0.036(3) 0.013(2) -0.022(2) -0.020(2)
C7A 0.110(6) 0.043(3) 0.036(3) 0.015(3) -0.024(4) -0.013(4)
C8A 0.110(6) 0.045(3) 0.044(4) 0.019(3) -0.037(4) -0.021(4)
C9A 0.055(3) 0.048(3) 0.035(3) 0.010(2) -0.016(3) -0.014(3)
N3A 0.058(3) 0.043(2) 0.047(3) 0.012(2) -0.023(2) -0.018(2)
C10A 0.051(3) 0.047(3) 0.058(4) 0.001(3) -0.025(3) -0.011(3)
O2A 0.060(3) 0.054(2) 0.036(2) 0.0125(18) -0.022(2) -0.010(2)
C27A 0.053(3) 0.052(3) 0.054(4) 0.008(3) -0.029(3) -0.021(3)
Zn1A 0.0531(4) 0.0472(4) 0.0314(4) 0.0132(3) -0.0215(3) -0.0160(3)
O4A 0.070(3) 0.056(2) 0.037(2) 0.0077(18) -0.029(2) -0.017(2)
C4A 0.037(3) 0.063(4) 0.029(3) 0.003(3) -0.012(2) -0.007(3)
N1A 0.050(3) 0.056(3) 0.031(2) 0.009(2) -0.017(2) -0.022(2)
N4A 0.052(3) 0.043(2) 0.036(2) 0.007(2) -0.020(2) -0.014(2)
C3A 0.054(3) 0.047(3) 0.026(2) 0.008(2) -0.017(2) -0.019(3)
C2A 0.068(4) 0.064(4) 0.029(3) 0.014(3) -0.016(3) -0.029(3)
O1A 0.061(3) 0.070(3) 0.029(2) 0.0190(19) -0.0216(18) -0.025(2)
N5A 0.054(3) 0.067(3) 0.028(2) 0.011(2) -0.017(2) -0.020(3)
C12A 0.055(4) 0.071(4) 0.033(3) 0.012(3) -0.013(3) -0.027(3)
C11A 0.039(3) 0.059(3) 0.030(3) 0.007(2) -0.014(2) -0.016(3)
C20A 0.053(3) 0.061(3) 0.026(3) 0.016(2) -0.021(2) -0.018(3)
C14A 0.049(3) 0.054(3) 0.031(3) 0.006(2) -0.018(2) -0.014(3)
C5A 0.038(3) 0.057(3) 0.053(4) -0.001(3) -0.018(3) -0.012(3)
O5A 0.162(6) 0.091(4) 0.043(3) 0.033(3) -0.045(3) -0.067(4)
C21A 0.047(3) 0.090(5) 0.035(3) 0.009(3) -0.013(3) -0.021(3)
C13A 0.072(4) 0.063(4) 0.028(3) 0.014(3) -0.014(3) -0.033(3)
O6A 0.177(7) 0.112(5) 0.064(4) 0.047(3) -0.058(4) -0.098(5)
C6A 0.041(3) 0.061(4) 0.043(3) 0.003(3) -0.013(3) -0.016(3)
C1A 0.067(4) 0.064(4) 0.036(3) 0.017(3) -0.028(3) -0.024(3)
C22A 0.040(3) 0.089(5) 0.032(3) 0.021(3) -0.014(2) -0.012(3)
C23A 0.056(3) 0.044(3) 0.048(3) 0.008(3) -0.024(3) -0.012(3)
C15A 0.108(6) 0.072(4) 0.035(3) 0.020(3) -0.029(4) -0.045(4)
C18A 0.100(6) 0.072(4) 0.049(4) 0.021(3) -0.039(4) -0.034(4)
C19A 0.104(6) 0.085(5) 0.039(4) 0.020(3) -0.030(4) -0.051(5)
O3A 0.054(3) 0.140(5) 0.067(4) 0.054(3) -0.033(3) -0.028(3)
C26A 0.049(3) 0.050(3) 0.033(3) 0.008(2) -0.019(2) -0.021(3)
C24A 0.046(3) 0.062(4) 0.037(3) 0.016(3) -0.016(2) -0.018(3)
C25A 0.046(3) 0.074(4) 0.040(3) 0.016(3) -0.019(3) -0.015(3)

_geom_special_details            
;
All esds (except the esd in the dihedral angle between two l.s. planes)
are estimated using the full covariance matrix. The cell esds are taken
into account individually in the estimation of esds in distances, angles
and torsion angles; correlations between esds in cell parameters are only
used when they are defined by crystal symmetry. An approximate (isotropic)
treatment of cell esds is used for estimating esds involving l.s. planes.
;

loop_
_geom_bond_atom_site_label_1
_geom_bond_atom_site_label_2
_geom_bond_distance
_geom_bond_site_symmetry_2
_geom_bond_publ_flag
N2A C9A 1.342(7) . ?
N2A C7A 1.378(8) . ?
N2A Zn1A 1.995(5) 2_466 ?
C7A C8A 1.346(9) . ?
C7A H7AA 0.9300 . ?
C8A N3A 1.375(8) . ?
C8A H8AA 0.9300 . ?
C9A N3A 1.318(7) . ?
C9A H9AA 0.9300 . ?
N3A C10A 1.479(7) . ?
C10A C6A 1.523(8) . ?
C10A H10A 0.9700 . ?
C10A H10B 0.9700 . ?
O2A C27A 1.281(8) . ?
O2A Zn1A 1.915(4) 1_556 ?
C27A O3A 1.228(7) . ?
C27A C26A 1.489(8) . ?
Zn1A O2A 1.915(4) 1_554 ?
Zn1A O4A 1.965(4) . ?
Zn1A N2A 1.995(5) 2_466 ?
Zn1A N1A 2.003(5) . ?
O4A C4A 1.261(7) . ?
C4A O1A 1.257(7) . ?
C4A C11A 1.487(7) . ?
N1A C3A 1.339(7) . ?
N1A C1A 1.371(8) . ?
N4A C3A 1.332(7) . ?
N4A C2A 1.375(7) . ?
N4A C23A 1.467(7) . ?
C3A H3AA 0.9300 . ?
C2A C1A 1.356(9) . ?
C2A H2BA 0.9300 . ?
N5A C13A 1.367(8) . ?
N5A C14A 1.379(7) . ?
N5A C20A 1.443(7) . ?
C12A C13A 1.384(8) . ?
C12A C11A 1.449(8) . ?
C12A C15A 1.458(9) . ?
C11A C14A 1.382(8) . ?
C20A C21A 1.372(8) . ?
C20A C22A 1.382(8) . ?
C14A C18A 1.480(9) . ?
C5A C23A 1.496(8) . ?
C5A C6A 1.517(8) . ?
C5A H5AA 0.9700 . ?
C5A H5BA 0.9700 . ?
O5A C15A 1.318(8) . ?
C21A C25A 1.380(9) . ?
C21A H21A 0.9300 . ?
C13A C19A 1.466(9) . ?
O6A C15A 1.228(8) . ?
C6A H6AA 0.9700 . ?
C6A H6BA 0.9700 . ?
C1A H1AA 0.9300 . ?
C22A C24A 1.387(8) . ?
C22A H22A 0.9300 . ?
C23A H23A 0.9700 . ?
C23A H23B 0.9700 . ?
C18A H18A 0.9600 . ?
C18A H18B 0.9600 . ?
C18A H18C 0.9600 . ?
C19A H19A 0.9600 . ?
C19A H19B 0.9600 . ?
C19A H19C 0.9600 . ?
C26A C24A 1.378(8) . ?
C26A C25A 1.378(8) . ?
C24A H24A 0.9300 . ?
C25A H25A 0.9300 . ?

loop_
_geom_angle_atom_site_label_1
_geom_angle_atom_site_label_2
_geom_angle_atom_site_label_3
_geom_angle
_geom_angle_site_symmetry_1
_geom_angle_site_symmetry_3
_geom_angle_publ_flag
C9A N2A C7A 105.0(5) . . ?
C9A N2A Zn1A 130.6(4) . 2_466 ?
C7A N2A Zn1A 124.4(4) . 2_466 ?
C8A C7A N2A 109.7(6) . . ?
C8A C7A H7AA 125.1 . . ?
N2A C7A H7AA 125.1 . . ?
C7A C8A N3A 106.1(6) . . ?
C7A C8A H8AA 126.9 . . ?
N3A C8A H8AA 126.9 . . ?
N3A C9A N2A 111.1(5) . . ?
N3A C9A H9AA 124.5 . . ?
N2A C9A H9AA 124.5 . . ?
C9A N3A C8A 108.1(5) . . ?
C9A N3A C10A 125.6(5) . . ?
C8A N3A C10A 126.3(5) . . ?
N3A C10A C6A 110.2(5) . . ?
N3A C10A H10A 109.6 . . ?
C6A C10A H10A 109.6 . . ?
N3A C10A H10B 109.6 . . ?
C6A C10A H10B 109.6 . . ?
H10A C10A H10B 108.1 . . ?
C27A O2A Zn1A 119.3(4) . 1_556 ?
O3A C27A O2A 122.1(6) . . ?
O3A C27A C26A 120.7(6) . . ?
O2A C27A C26A 117.2(5) . . ?
O2A Zn1A O4A 134.83(19) 1_554 . ?
O2A Zn1A N2A 114.93(19) 1_554 2_466 ?
O4A Zn1A N2A 96.55(19) . 2_466 ?
O2A Zn1A N1A 98.36(19) 1_554 . ?
O4A Zn1A N1A 100.30(19) . . ?
N2A Zn1A N1A 109.9(2) 2_466 . ?
C4A O4A Zn1A 117.1(4) . . ?
O1A C4A O4A 123.2(5) . . ?
O1A C4A C11A 119.6(5) . . ?
O4A C4A C11A 117.2(5) . . ?
C3A N1A C1A 104.5(5) . . ?
C3A N1A Zn1A 127.1(4) . . ?
C1A N1A Zn1A 128.4(4) . . ?
C3A N4A C2A 107.9(5) . . ?
C3A N4A C23A 126.4(5) . . ?
C2A N4A C23A 125.6(5) . . ?
N4A C3A N1A 111.4(5) . . ?
N4A C3A H3AA 124.3 . . ?
N1A C3A H3AA 124.3 . . ?
C1A C2A N4A 105.3(5) . . ?
C1A C2A H2BA 127.3 . . ?
N4A C2A H2BA 127.3 . . ?
C13A N5A C14A 111.7(5) . . ?
C13A N5A C20A 123.6(5) . . ?
C14A N5A C20A 124.6(5) . . ?
C13A C12A C11A 107.7(6) . . ?
C13A C12A C15A 121.6(6) . . ?
C11A C12A C15A 130.7(6) . . ?
C14A C11A C12A 107.0(5) . . ?
C14A C11A C4A 124.0(5) . . ?
C12A C11A C4A 129.0(6) . . ?
C21A C20A C22A 120.6(5) . . ?
C21A C20A N5A 120.0(5) . . ?
C22A C20A N5A 119.4(5) . . ?
N5A C14A C11A 106.9(5) . . ?
N5A C14A C18A 121.5(5) . . ?
C11A C14A C18A 131.6(5) . . ?
C23A C5A C6A 113.7(5) . . ?
C23A C5A H5AA 108.8 . . ?
C6A C5A H5AA 108.8 . . ?
C23A C5A H5BA 108.8 . . ?
C6A C5A H5BA 108.8 . . ?
H5AA C5A H5BA 107.7 . . ?
C20A C21A C25A 119.6(6) . . ?
C20A C21A H21A 120.2 . . ?
C25A C21A H21A 120.2 . . ?
N5A C13A C12A 106.7(5) . . ?
N5A C13A C19A 122.3(5) . . ?
C12A C13A C19A 131.0(6) . . ?
C5A C6A C10A 111.8(5) . . ?
C5A C6A H6AA 109.2 . . ?
C10A C6A H6AA 109.2 . . ?
C5A C6A H6BA 109.2 . . ?
C10A C6A H6BA 109.2 . . ?
H6AA C6A H6BA 107.9 . . ?
C2A C1A N1A 110.8(5) . . ?
C2A C1A H1AA 124.6 . . ?
N1A C1A H1AA 124.6 . . ?
C20A C22A C24A 119.3(5) . . ?
C20A C22A H22A 120.4 . . ?
C24A C22A H22A 120.4 . . ?
N4A C23A C5A 111.5(5) . . ?
N4A C23A H23A 109.3 . . ?
C5A C23A H23A 109.3 . . ?
N4A C23A H23B 109.3 . . ?
C5A C23A H23B 109.3 . . ?
H23A C23A H23B 108.0 . . ?
O6A C15A O5A 118.2(7) . . ?
O6A C15A C12A 122.6(6) . . ?
O5A C15A C12A 119.1(6) . . ?
C14A C18A H18A 109.5 . . ?
C14A C18A H18B 109.5 . . ?
H18A C18A H18B 109.5 . . ?
C14A C18A H18C 109.5 . . ?
H18A C18A H18C 109.5 . . ?
H18B C18A H18C 109.5 . . ?
C13A C19A H19A 109.5 . . ?
C13A C19A H19B 109.5 . . ?
H19A C19A H19B 109.5 . . ?
C13A C19A H19C 109.5 . . ?
H19A C19A H19C 109.5 . . ?
H19B C19A H19C 109.5 . . ?
C24A C26A C25A 119.4(5) . . ?
C24A C26A C27A 120.2(5) . . ?
C25A C26A C27A 120.4(5) . . ?
C26A C24A C22A 120.5(6) . . ?
C26A C24A H24A 119.8 . . ?
C22A C24A H24A 119.8 . . ?
C26A C25A C21A 120.7(6) . . ?
C26A C25A H25A 119.7 . . ?
C21A C25A H25A 119.7 . . ?

_diffrn_measured_fraction_theta_max 0.983
_diffrn_reflns_theta_full        27.48
_diffrn_measured_fraction_theta_full 0.983
_refine_diff_density_max         0.944
_refine_diff_density_min         -1.407
_refine_diff_density_rms         0.137

# SQUEEZE RESULTS (APPEND TO CIF)
# Note: Data are Listed for all Voids in the P1 Unit Cell
# i.e. Centre of Gravity, Solvent Accessible Volume,
# Recovered number of Electrons in the Void and
# Details about the Squeezed Material
loop_
_platon_squeeze_void_nr
_platon_squeeze_void_average_x
_platon_squeeze_void_average_y
_platon_squeeze_void_average_z
_platon_squeeze_void_volume
_platon_squeeze_void_count_electrons
_platon_squeeze_void_content
1 -0.121 0.500 0.058 580 -3 ' '
_platon_squeeze_details          
;
;


