####################################################################### 
# 
# This file contains crystal structure data downloaded from the 
# Cambridge Structural Database (CSD) hosted by the Cambridge 
# Crystallographic Data Centre (CCDC).
# 
# Full information about CCDC data access policies and citation 
# guidelines are available at http://www.ccdc.cam.ac.uk/access/V1 
# 
# Audit and citation data items may have been added by the CCDC. 
# Please retain this information to preserve the provenance of 
# this file and to allow appropriate attribution of the data. 
# 
#######################################################################

data_1
_audit_block_doi                 10.5517/ccy2pzn
_database_code_depnum_ccdc_archive 'CCDC 866542'
loop_
_citation_id
_citation_doi
_citation_year
1 10.1016/j.inoche.2012.03.022 2012
_audit_update_record             
;
2012-02-11 deposited with the CCDC.	2024-07-13 downloaded from the CCDC.
;
#TrackingRef '9521_web_deposit_cif_file_0_Hong-QingHao_1328966466.Hongqing Hao.cif'


_audit_creation_method           SHELXL-97
_chemical_name_systematic        
;
?
;
_chemical_name_common            ?
_chemical_melting_point          ?
_chemical_formula_moiety         ?
_chemical_formula_sum            'C52 H62 Ag2 N4 O9'
_chemical_formula_weight         1102.80

loop_
_atom_type_symbol
_atom_type_description
_atom_type_scat_dispersion_real
_atom_type_scat_dispersion_imag
_atom_type_scat_source
C C 0.0033 0.0016 'International Tables Vol C Tables 4.2.6.8 and 6.1.1.4'
H H 0.0000 0.0000 'International Tables Vol C Tables 4.2.6.8 and 6.1.1.4'
Ag Ag -0.8971 1.1015 'International Tables Vol C Tables 4.2.6.8 and 6.1.1.4'
N N 0.0061 0.0033 'International Tables Vol C Tables 4.2.6.8 and 6.1.1.4'
O O 0.0106 0.0060 'International Tables Vol C Tables 4.2.6.8 and 6.1.1.4'

_symmetry_cell_setting           orthorhombic
_symmetry_space_group_name_H-M   Pccn

loop_
_symmetry_equiv_pos_as_xyz
'x, y, z'
'-x+1/2, -y+1/2, z'
'x+1/2, -y, -z+1/2'
'-x, y+1/2, -z+1/2'
'-x, -y, -z'
'x-1/2, y-1/2, -z'
'-x-1/2, y, z-1/2'
'x, -y-1/2, z-1/2'

_cell_length_a                   25.635(4)
_cell_length_b                   27.369(6)
_cell_length_c                   8.5603(17)
_cell_angle_alpha                90.00
_cell_angle_beta                 90.00
_cell_angle_gamma                90.00
_cell_volume                     6006(2)
_cell_formula_units_Z            4
_cell_measurement_temperature    293(2)
_cell_measurement_reflns_used    20462
_cell_measurement_theta_min      2.62
_cell_measurement_theta_max      24.75

_exptl_crystal_description       Block
_exptl_crystal_colour            colorless
_exptl_crystal_size_max          0.24
_exptl_crystal_size_mid          0.18
_exptl_crystal_size_min          0.15
_exptl_crystal_density_meas      'not measured'
_exptl_crystal_density_diffrn    1.220
_exptl_crystal_density_method    'not measured'
_exptl_crystal_F_000             2272
_exptl_absorpt_coefficient_mu    0.701
_exptl_absorpt_correction_type   empirical
_exptl_absorpt_correction_T_min  0.8498
_exptl_absorpt_correction_T_max  0.9021
_exptl_absorpt_process_details   'SADABS (Sheldrick, 1996)'

_exptl_special_details           
;
?
;

_diffrn_ambient_temperature      293(2)
_diffrn_radiation_wavelength     0.71073
_diffrn_radiation_type           MoK\a
_diffrn_radiation_source         'fine-focus sealed tube'
_diffrn_radiation_monochromator  graphite
_diffrn_measurement_device_type  'Smart Apex'
_diffrn_measurement_method       'phi and omega scan'
_diffrn_detector_area_resol_mean ?
_diffrn_standards_number         0
_diffrn_standards_interval_count ?
_diffrn_standards_interval_time  ?
_diffrn_standards_decay_%        0
_diffrn_reflns_number            20462
_diffrn_reflns_av_R_equivalents  0.1367
_diffrn_reflns_av_sigmaI/netI    0.2167
_diffrn_reflns_limit_h_min       -28
_diffrn_reflns_limit_h_max       30
_diffrn_reflns_limit_k_min       -32
_diffrn_reflns_limit_k_max       25
_diffrn_reflns_limit_l_min       -10
_diffrn_reflns_limit_l_max       10
_diffrn_reflns_theta_min         2.62
_diffrn_reflns_theta_max         25.00
_reflns_number_total             5200
_reflns_number_gt                1914
_reflns_threshold_expression     >2sigma(I)

_computing_data_collection       'SMART (Bruker,2001)'
_computing_cell_refinement       'SAINT (Bruker, 2001)'
_computing_data_reduction        'SAINT (Bruker, 2001)'
_computing_structure_solution    'SHELXS-97 (Sheldrick, 1990)'
_computing_structure_refinement  'SHELXL-97 (Sheldrick, 1997)'
_computing_molecular_graphics    'ORTEPII (Johnson, 1976)'
_computing_publication_material  'SHELXL97 (Sheldrick, 1997)'

_refine_special_details          
;
Refinement of F^2^ against ALL reflections. The weighted R-factor wR and
goodness of fit S are based on F^2^, conventional R-factors R are based
on F, with F set to zero for negative F^2^. The threshold expression of
F^2^ > 2sigma(F^2^) is used only for calculating R-factors(gt) etc. and is
not relevant to the choice of reflections for refinement. R-factors based
on F^2^ are statistically about twice as large as those based on F, and R-
factors based on ALL data will be even larger.
;

_refine_ls_structure_factor_coef Fsqd
_refine_ls_matrix_type           full
_refine_ls_weighting_scheme      calc
_refine_ls_weighting_details     
'calc w=1/[\s^2^(Fo^2^)+(0.0940P)^2^+0.0000P] where P=(Fo^2^+2Fc^2^)/3'
_atom_sites_solution_primary     direct
_atom_sites_solution_secondary   difmap
_atom_sites_solution_hydrogens   geom
_refine_ls_hydrogen_treatment    constr
_refine_ls_extinction_method     none
_refine_ls_extinction_coef       ?
_refine_ls_number_reflns         4881
_refine_ls_number_parameters     296
_refine_ls_number_restraints     0
_refine_ls_R_factor_all          0.1914
_refine_ls_R_factor_gt           0.0776
_refine_ls_wR_factor_ref         0.2235
_refine_ls_wR_factor_gt          0.1918
_refine_ls_goodness_of_fit_ref   0.951
_refine_ls_restrained_S_all      0.951
_refine_ls_shift/su_max          0.000
_refine_ls_shift/su_mean         0.000

loop_
_atom_site_label
_atom_site_type_symbol
_atom_site_fract_x
_atom_site_fract_y
_atom_site_fract_z
_atom_site_U_iso_or_equiv
_atom_site_adp_type
_atom_site_occupancy
_atom_site_symmetry_multiplicity
_atom_site_calc_flag
_atom_site_refinement_flags
_atom_site_disorder_assembly
_atom_site_disorder_group
Ag1 Ag 0.04159(3) 0.03061(4) -0.07265(9) 0.0432(4) Uani 1 1 d . . .
O1 O -0.0461(3) 0.1098(4) 0.0872(12) 0.086(3) Uani 1 1 d . . .
O2 O 0.0376(3) 0.1124(3) 0.0254(9) 0.056(2) Uani 1 1 d . . .
N1 N -0.3811(3) -0.0158(4) -0.5355(10) 0.032(2) Uani 1 1 d . . .
N2 N -0.0175(3) 0.0213(3) -0.2498(9) 0.023(2) Uani 1 1 d . . .
C2 C -0.3621(4) 0.0284(5) -0.5446(10) 0.030(3) Uani 1 1 d . . .
H2A H -0.3825 0.0545 -0.5116 0.037 Uiso 1 1 calc R . .
C3 C -0.0273(4) -0.0200(4) -0.3217(13) 0.032(3) Uani 1 1 d . . .
H3A H -0.0087 -0.0477 -0.2927 0.038 Uiso 1 1 calc R . .
C4 C -0.0650(4) -0.0241(4) -0.4410(12) 0.031(3) Uani 1 1 d . . .
H4A H -0.0716 -0.0545 -0.4855 0.037 Uiso 1 1 calc R . .
C7 C -0.2814(4) -0.0031(5) -0.6524(12) 0.037(3) Uani 1 1 d . . .
C8 C -0.2251(4) 0.0038(5) -0.7050(12) 0.044(4) Uani 1 1 d . . .
H8A H -0.2223 0.0342 -0.7626 0.053 Uiso 1 1 calc R . .
H8B H -0.2156 -0.0226 -0.7750 0.053 Uiso 1 1 calc R . .
C9 C -0.3119(4) 0.0375(5) -0.6027(11) 0.041(3) Uani 1 1 d . . .
H9A H -0.2989 0.0692 -0.6086 0.049 Uiso 1 1 calc R . .
C10 C 0.0431(5) 0.1638(4) 0.3356(12) 0.035(3) Uani 1 1 d . . .
C11 C -0.0809(4) 0.0600(4) -0.4148(13) 0.036(3) Uani 1 1 d . . .
H11A H -0.0989 0.0882 -0.4427 0.044 Uiso 1 1 calc R . .
C12 C -0.3035(4) -0.0470(4) -0.6455(11) 0.026(3) Uani 1 1 d . . .
H12A H -0.2853 -0.0744 -0.6797 0.031 Uiso 1 1 calc R . .
C14 C 0.1305(4) 0.1482(4) 0.4385(15) 0.045(3) Uani 1 1 d . . .
H14A H 0.1659 0.1437 0.4199 0.054 Uiso 1 1 calc R . .
C15 C -0.3535(4) -0.0518(4) -0.5872(11) 0.036(3) Uani 1 1 d . . .
H15A H -0.3682 -0.0829 -0.5852 0.043 Uiso 1 1 calc R . .
C16 C -0.1307(3) 0.0124(4) -0.6225(10) 0.031(3) Uani 1 1 d . . .
H16A H -0.1214 -0.0143 -0.6916 0.038 Uiso 1 1 calc R . .
H16B H -0.1291 0.0424 -0.6825 0.038 Uiso 1 1 calc R . .
C17 C -0.0914(4) 0.0150(5) -0.4912(12) 0.029(3) Uani 1 1 d . . .
C18 C -0.0431(4) 0.0613(4) -0.2969(13) 0.036(3) Uani 1 1 d . . .
H18A H -0.0356 0.0910 -0.2495 0.044 Uiso 1 1 calc R . .
C19 C 0.0236(4) 0.1579(5) 0.4867(14) 0.050(4) Uani 1 1 d . . .
H19A H -0.0122 0.1593 0.5041 0.060 Uiso 1 1 calc R . .
C20 C -0.1865(4) 0.0048(5) -0.5654(12) 0.044(3) Uani 1 1 d . . .
H20A H -0.1959 0.0311 -0.4948 0.053 Uiso 1 1 calc R . .
H20B H -0.1887 -0.0257 -0.5084 0.053 Uiso 1 1 calc R . .
C21 C 0.1099(5) 0.1456(4) 0.5928(14) 0.044(3) Uani 1 1 d . . .
C22 C -0.0032(6) 0.1289(5) 0.0971(13) 0.046(3) Uani 1 1 d . . .
C23 C 0.0958(5) 0.1577(4) 0.3154(13) 0.040(3) Uani 1 1 d . . .
H23A H 0.1092 0.1599 0.2147 0.048 Uiso 1 1 calc R . .
C26 C 0.0574(5) 0.1501(5) 0.6117(13) 0.055(4) Uani 1 1 d . . .
H26A H 0.0436 0.1478 0.7119 0.066 Uiso 1 1 calc R . .
C29 C 0.1748(6) 0.1824(7) 0.7792(16) 0.091(6) Uani 1 1 d . . .
H29A H 0.2018 0.1798 0.6985 0.109 Uiso 1 1 calc R . .
C30 C 0.0046(5) 0.1735(4) 0.2017(13) 0.047(3) Uani 1 1 d . . .
H30A H -0.0292 0.1811 0.2492 0.056 Uiso 1 1 calc R . .
C31 C 0.1463(5) 0.1366(4) 0.7307(14) 0.060(4) Uani 1 1 d . . .
H31A H 0.1261 0.1245 0.8184 0.072 Uiso 1 1 calc R . .
H31B H 0.1715 0.1117 0.7025 0.072 Uiso 1 1 calc R . .
C32 C 0.0208(5) 0.2170(5) 0.1108(15) 0.079(5) Uani 1 1 d . . .
H32A H -0.0043 0.2232 0.0300 0.119 Uiso 1 1 calc R . .
H32B H 0.0544 0.2111 0.0647 0.119 Uiso 1 1 calc R . .
H32C H 0.0228 0.2448 0.1789 0.119 Uiso 1 1 calc R . .
C60 C 0.2129(5) 0.1712(5) 0.9196(15) 0.086(5) Uani 1 1 d . . .
H60A H 0.2200 0.1368 0.9230 0.129 Uiso 1 1 calc R . .
H60B H 0.1968 0.1811 1.0158 0.129 Uiso 1 1 calc R . .
H60C H 0.2449 0.1888 0.9053 0.129 Uiso 1 1 calc R . .
C61 C 0.1651(7) 0.2321(6) 0.754(2) 0.155(10) Uani 1 1 d . . .
H61A H 0.1450 0.2359 0.6597 0.232 Uiso 1 1 calc R . .
H61B H 0.1977 0.2491 0.7430 0.232 Uiso 1 1 calc R . .
H61C H 0.1460 0.2452 0.8404 0.232 Uiso 1 1 calc R . .
O1W O -0.1273(4) 0.1451(4) 0.2477(13) 0.123(4) Uiso 1 1 d . . .
O2W O -0.0941(8) 0.1764(8) -0.164(2) 0.107(7) Uiso 0.50 1 d P . .
O3W O -0.1098(9) 0.1992(9) -0.472(3) 0.134(9) Uiso 0.50 1 d P . .
O4W O -0.1464(11) 0.2753(12) -0.486(3) 0.180(12) Uiso 0.50 1 d P . .

loop_
_atom_site_aniso_label
_atom_site_aniso_U_11
_atom_site_aniso_U_22
_atom_site_aniso_U_33
_atom_site_aniso_U_23
_atom_site_aniso_U_13
_atom_site_aniso_U_12
Ag1 0.0221(5) 0.0776(8) 0.0299(5) 0.0010(6) -0.0033(4) -0.0066(5)
O1 0.057(7) 0.098(8) 0.104(8) -0.050(7) 0.001(6) -0.028(6)
O2 0.052(6) 0.059(6) 0.058(6) -0.013(5) -0.009(5) 0.007(5)
N1 0.027(5) 0.031(7) 0.037(6) 0.000(5) -0.001(4) 0.007(5)
N2 0.026(5) 0.017(6) 0.026(5) -0.002(5) 0.005(4) -0.005(4)
C2 0.040(7) 0.035(8) 0.017(6) -0.014(7) -0.005(5) 0.012(6)
C3 0.020(7) 0.038(9) 0.037(7) 0.008(7) 0.014(5) 0.008(5)
C4 0.034(6) 0.032(8) 0.026(6) -0.009(7) 0.011(5) -0.013(6)
C7 0.018(7) 0.070(10) 0.022(6) 0.002(7) -0.004(5) 0.000(7)
C8 0.017(6) 0.096(11) 0.020(6) 0.002(7) 0.002(5) 0.000(6)
C9 0.023(6) 0.072(10) 0.028(7) 0.008(7) -0.006(5) -0.007(6)
C10 0.051(8) 0.022(7) 0.030(7) -0.006(6) -0.001(7) 0.002(6)
C11 0.029(7) 0.044(9) 0.037(7) 0.008(7) 0.022(6) 0.008(6)
C12 0.029(7) 0.023(8) 0.026(6) 0.001(6) 0.004(5) -0.001(5)
C14 0.031(7) 0.045(9) 0.060(8) -0.006(8) 0.002(7) -0.009(6)
C15 0.032(7) 0.047(8) 0.029(6) 0.010(7) 0.004(6) 0.009(6)
C16 0.018(6) 0.057(9) 0.019(5) 0.000(6) -0.004(4) -0.013(5)
C17 0.009(6) 0.050(9) 0.028(6) -0.001(7) 0.007(5) -0.013(5)
C18 0.022(6) 0.047(8) 0.041(7) -0.013(7) 0.005(6) -0.002(6)
C19 0.039(8) 0.057(10) 0.056(8) -0.024(8) -0.011(7) -0.017(6)
C20 0.030(7) 0.078(10) 0.024(6) -0.003(7) 0.002(6) -0.001(6)
C21 0.043(8) 0.033(8) 0.056(9) -0.007(8) -0.019(7) -0.016(6)
C22 0.072(11) 0.042(9) 0.024(7) -0.009(7) -0.022(7) -0.010(8)
C23 0.044(8) 0.042(8) 0.035(7) 0.000(7) 0.010(6) -0.007(6)
C26 0.077(11) 0.056(10) 0.031(7) -0.002(7) 0.006(7) -0.026(7)
C29 0.074(11) 0.135(18) 0.062(10) 0.006(12) -0.036(9) -0.046(11)
C30 0.065(9) 0.029(8) 0.046(8) 0.013(8) -0.018(7) 0.012(6)
C31 0.089(10) 0.025(8) 0.067(9) -0.007(8) -0.040(8) -0.005(7)
C32 0.126(14) 0.044(10) 0.068(10) 0.005(9) -0.047(9) -0.007(9)
C60 0.102(12) 0.076(12) 0.080(10) 0.005(10) -0.052(9) -0.016(9)
C61 0.24(2) 0.034(12) 0.19(2) -0.020(13) -0.165(18) 0.024(12)

_geom_special_details            
;
All esds (except the esd in the dihedral angle between two l.s. planes)
are estimated using the full covariance matrix. The cell esds are taken
into account individually in the estimation of esds in distances, angles
and torsion angles; correlations between esds in cell parameters are only
used when they are defined by crystal symmetry. An approximate (isotropic)
treatment of cell esds is used for estimating esds involving l.s. planes.
;

loop_
_geom_bond_atom_site_label_1
_geom_bond_atom_site_label_2
_geom_bond_distance
_geom_bond_site_symmetry_2
_geom_bond_publ_flag
Ag1 N2 2.159(8) . ?
Ag1 N1 2.225(8) 3_554 ?
Ag1 O2 2.393(8) . ?
Ag1 Ag1 2.9836(17) 5 ?
O1 C22 1.220(14) . ?
O2 C22 1.293(14) . ?
N1 C15 1.291(12) . ?
N1 C2 1.306(12) . ?
N1 Ag1 2.226(8) 3_454 ?
N2 C3 1.312(12) . ?
N2 C18 1.339(13) . ?
C2 C9 1.403(13) . ?
C2 H2A 0.9300 . ?
C3 C4 1.410(14) . ?
C3 H3A 0.9300 . ?
C4 C17 1.337(14) . ?
C4 H4A 0.9300 . ?
C7 C12 1.329(14) . ?
C7 C9 1.426(15) . ?
C7 C8 1.523(13) . ?
C8 C20 1.552(13) . ?
C8 H8A 0.9700 . ?
C8 H8B 0.9700 . ?
C9 H9A 0.9300 . ?
C10 C23 1.372(13) . ?
C10 C19 1.397(15) . ?
C10 C30 1.535(14) . ?
C11 C18 1.399(14) . ?
C11 C17 1.421(15) . ?
C11 H11A 0.9300 . ?
C12 C15 1.382(13) . ?
C12 H12A 0.9300 . ?
C14 C23 1.404(14) . ?
C14 C21 1.424(15) . ?
C14 H14A 0.9300 . ?
C15 H15A 0.9300 . ?
C16 C17 1.512(13) . ?
C16 C20 1.524(12) . ?
C16 H16A 0.9700 . ?
C16 H16B 0.9700 . ?
C18 H18A 0.9300 . ?
C19 C26 1.395(15) . ?
C19 H19A 0.9300 . ?
C20 H20A 0.9700 . ?
C20 H20B 0.9700 . ?
C21 C26 1.361(14) . ?
C21 C31 1.524(14) . ?
C22 C30 1.528(15) . ?
C23 H23A 0.9300 . ?
C26 H26A 0.9300 . ?
C29 C61 1.40(2) . ?
C29 C31 1.510(18) . ?
C29 C60 1.578(16) . ?
C29 H29A 0.9800 . ?
C30 C32 1.481(16) . ?
C30 H30A 0.9800 . ?
C31 H31A 0.9700 . ?
C31 H31B 0.9700 . ?
C32 H32A 0.9600 . ?
C32 H32B 0.9600 . ?
C32 H32C 0.9600 . ?
C60 H60A 0.9600 . ?
C60 H60B 0.9600 . ?
C60 H60C 0.9600 . ?
C61 H61A 0.9600 . ?
C61 H61B 0.9600 . ?
C61 H61C 0.9600 . ?

loop_
_geom_angle_atom_site_label_1
_geom_angle_atom_site_label_2
_geom_angle_atom_site_label_3
_geom_angle
_geom_angle_site_symmetry_1
_geom_angle_site_symmetry_3
_geom_angle_publ_flag
N2 Ag1 N1 153.7(3) . 3_554 ?
N2 Ag1 O2 109.1(3) . . ?
N1 Ag1 O2 93.6(3) 3_554 . ?
N2 Ag1 Ag1 74.0(2) . 5 ?
N1 Ag1 Ag1 111.2(2) 3_554 5 ?
O2 Ag1 Ag1 110.4(2) . 5 ?
C22 O2 Ag1 121.8(8) . . ?
C15 N1 C2 118.9(10) . . ?
C15 N1 Ag1 119.5(8) . 3_454 ?
C2 N1 Ag1 121.6(7) . 3_454 ?
C3 N2 C18 118.0(9) . . ?
C3 N2 Ag1 124.5(7) . . ?
C18 N2 Ag1 117.4(7) . . ?
N1 C2 C9 121.8(10) . . ?
N1 C2 H2A 119.1 . . ?
C9 C2 H2A 119.1 . . ?
N2 C3 C4 122.7(10) . . ?
N2 C3 H3A 118.6 . . ?
C4 C3 H3A 118.6 . . ?
C17 C4 C3 121.0(11) . . ?
C17 C4 H4A 119.5 . . ?
C3 C4 H4A 119.5 . . ?
C12 C7 C9 117.3(10) . . ?
C12 C7 C8 122.0(12) . . ?
C9 C7 C8 120.7(12) . . ?
C7 C8 C20 112.3(8) . . ?
C7 C8 H8A 109.1 . . ?
C20 C8 H8A 109.1 . . ?
C7 C8 H8B 109.1 . . ?
C20 C8 H8B 109.1 . . ?
H8A C8 H8B 107.9 . . ?
C2 C9 C7 118.1(11) . . ?
C2 C9 H9A 121.0 . . ?
C7 C9 H9A 121.0 . . ?
C23 C10 C19 117.1(10) . . ?
C23 C10 C30 124.0(10) . . ?
C19 C10 C30 118.7(11) . . ?
C18 C11 C17 119.0(10) . . ?
C18 C11 H11A 120.5 . . ?
C17 C11 H11A 120.5 . . ?
C7 C12 C15 119.8(11) . . ?
C7 C12 H12A 120.1 . . ?
C15 C12 H12A 120.1 . . ?
C23 C14 C21 118.1(10) . . ?
C23 C14 H14A 121.0 . . ?
C21 C14 H14A 121.0 . . ?
N1 C15 C12 124.0(11) . . ?
N1 C15 H15A 118.0 . . ?
C12 C15 H15A 118.0 . . ?
C17 C16 C20 113.2(8) . . ?
C17 C16 H16A 108.9 . . ?
C20 C16 H16A 108.9 . . ?
C17 C16 H16B 108.9 . . ?
C20 C16 H16B 108.9 . . ?
H16A C16 H16B 107.8 . . ?
C4 C17 C11 116.8(10) . . ?
C4 C17 C16 122.6(11) . . ?
C11 C17 C16 120.6(11) . . ?
N2 C18 C11 122.4(11) . . ?
N2 C18 H18A 118.8 . . ?
C11 C18 H18A 118.8 . . ?
C26 C19 C10 120.3(11) . . ?
C26 C19 H19A 119.8 . . ?
C10 C19 H19A 119.8 . . ?
C16 C20 C8 110.7(8) . . ?
C16 C20 H20A 109.5 . . ?
C8 C20 H20A 109.5 . . ?
C16 C20 H20B 109.5 . . ?
C8 C20 H20B 109.5 . . ?
H20A C20 H20B 108.1 . . ?
C26 C21 C14 118.2(11) . . ?
C26 C21 C31 121.8(12) . . ?
C14 C21 C31 120.0(11) . . ?
O1 C22 O2 123.2(12) . . ?
O1 C22 C30 120.0(13) . . ?
O2 C22 C30 116.8(11) . . ?
C10 C23 C14 123.5(10) . . ?
C10 C23 H23A 118.2 . . ?
C14 C23 H23A 118.2 . . ?
C21 C26 C19 122.6(11) . . ?
C21 C26 H26A 118.7 . . ?
C19 C26 H26A 118.7 . . ?
C61 C29 C31 132.7(13) . . ?
C61 C29 C60 114.8(13) . . ?
C31 C29 C60 110.3(13) . . ?
C61 C29 H29A 95.0 . . ?
C31 C29 H29A 95.0 . . ?
C60 C29 H29A 95.0 . . ?
C32 C30 C22 111.8(10) . . ?
C32 C30 C10 110.6(10) . . ?
C22 C30 C10 112.5(9) . . ?
C32 C30 H30A 107.2 . . ?
C22 C30 H30A 107.2 . . ?
C10 C30 H30A 107.2 . . ?
C29 C31 C21 112.0(10) . . ?
C29 C31 H31A 109.2 . . ?
C21 C31 H31A 109.2 . . ?
C29 C31 H31B 109.2 . . ?
C21 C31 H31B 109.2 . . ?
H31A C31 H31B 107.9 . . ?
C30 C32 H32A 109.5 . . ?
C30 C32 H32B 109.5 . . ?
H32A C32 H32B 109.5 . . ?
C30 C32 H32C 109.5 . . ?
H32A C32 H32C 109.5 . . ?
H32B C32 H32C 109.5 . . ?
C29 C60 H60A 109.5 . . ?
C29 C60 H60B 109.5 . . ?
H60A C60 H60B 109.5 . . ?
C29 C60 H60C 109.5 . . ?
H60A C60 H60C 109.5 . . ?
H60B C60 H60C 109.5 . . ?
C29 C61 H61A 109.5 . . ?
C29 C61 H61B 109.5 . . ?
H61A C61 H61B 109.5 . . ?
C29 C61 H61C 109.5 . . ?
H61A C61 H61C 109.5 . . ?
H61B C61 H61C 109.5 . . ?

_diffrn_measured_fraction_theta_max 0.951
_diffrn_reflns_theta_full        25.00
_diffrn_measured_fraction_theta_full 0.951
_refine_diff_density_max         1.193
_refine_diff_density_min         -0.466
_refine_diff_density_rms         0.132


