
#######################################################################
#
#                 Cambridge Crystallographic Data Centre
#                                CCDC
#
#######################################################################
#
# If this CIF has been generated from an entry in the Cambridge
# Structural Database, then it will include bibliographic, chemical,
# crystal, experimental, refinement or atomic coordinate data resulting
# from the CCDC's data processing and validation procedures.
#
#######################################################################

data_CSD_CIF_TELXAJ
_audit_creation_date 1996-12-16
_audit_creation_method CSD-ConQuest-V1
_database_code_CSD TELXAJ
_database_code_depnum_ccdc_archive 'CCDC 128127'
_chemical_formula_sum 'C4 H6 O2'
_chemical_formula_moiety
;
C4 H6 O2
;
_journal_coeditor_code "IUCr HA1166"
_journal_coden_Cambridge 591
_journal_volume 52
_journal_year 1996
_journal_page_first 2885
_journal_name_full 'Acta Crystallogr.,Sect.C:Cryst.Struct.Commun. '
loop_
_publ_author_name
"T.Steiner"
_chemical_name_systematic
;
2-Butyne-1,4-diol
;
_chemical_name_common
;
Teaching Subset: Fundamental Chemistry, Symmetry
;
_cell_volume    928.033
_exptl_crystal_colour 'pale yellow'
_exptl_crystal_density_diffrn 1.232
_diffrn_ambient_temperature ?
_diffrn_special_details
;
The study was carried out at room temperature,in the range 283-303K

;
#These two values have been output from a single CSD field.
_refine_ls_R_factor_gt 0.0321
_refine_ls_wR_factor_gt 0.0321
_symmetry_cell_setting orthorhombic
_symmetry_space_group_name_H-M 'F 2 d d'
_symmetry_Int_Tables_number 43
loop_
_symmetry_equiv_pos_site_id
_symmetry_equiv_pos_as_xyz
1 x,y,z
2 1/4+x,3/4+y,3/4-z
3 x,-y,-z
4 1/4+x,3/4-y,3/4+z
5 x,1/2+y,1/2+z
6 1/4+x,1/4+y,1/4-z
7 x,1/2-y,1/2-z
8 1/4+x,1/4-y,1/4+z
9 1/2+x,y,1/2+z
10 3/4+x,3/4+y,1/4-z
11 1/2+x,-y,1/2-z
12 3/4+x,3/4-y,1/4+z
13 1/2+x,1/2+y,z
14 3/4+x,1/4+y,3/4-z
15 1/2+x,1/2-y,-z
16 3/4+x,1/4-y,3/4+z
_cell_length_a 4.3326(12)
_cell_length_b 7.966(3)
_cell_length_c 26.889(17)
_cell_angle_alpha 90
_cell_angle_beta 90
_cell_angle_gamma 90
_cell_formula_units_Z 8
loop_
_atom_type_symbol
_atom_type_radius_bond
C 0.68
H 0.23
O 0.68
loop_
_atom_site_label
_atom_site_type_symbol
_atom_site_fract_x
_atom_site_fract_y
_atom_site_fract_z
O1 O 0.6953(4) 0.1127(2) 0.09839(5)
H1 H 0.5898(73) 0.0145(34) 0.1171(10)
C1 C 0.4905(5) 0.1620(3) 0.05943(7)
H2 H 0.5684(74) 0.2715(35) 0.0493(9)
H3 H 0.268(11) 0.1695(44) 0.0751(11)
C2 C 0.4997(4) 0.0474(2) 0.01733(5)
C2B C 0.4997(4) -0.0474(2) -0.01733(5)
C1B C 0.4905(5) -0.1620(3) -0.05943(7)
O1B O 0.6953(4) -0.1127(2) -0.09839(5)
H1B H 0.5898(73) -0.0145(34) -0.1171(10)
H2B H 0.5684(74) -0.2715(35) -0.0493(9)
H3B H 0.268(11) -0.1695(44) -0.0751(11)
#END
