
#######################################################################
#
#                 Cambridge Crystallographic Data Centre
#                                CCDC
#
#######################################################################
#
# If this CIF has been generated from an entry in the Cambridge
# Structural Database, then it will include bibliographic, chemical,
# crystal, experimental, refinement or atomic coordinate data resulting
# from the CCDC's data processing and validation procedures.
#
#######################################################################

data_CSD_CIF_TENCUS11
_audit_creation_date 2011-01-12
_audit_creation_method CSD-ConQuest-V1
_database_code_CSD TENCUS11
_database_code_depnum_ccdc_archive 'CCDC 804111'
_chemical_formula_sum 'C6 H24 Cu1 N6 O4 S1'
_chemical_formula_moiety
;
C6 H24 Cu1 N6 2+,O4 S1 2-
;
_journal_coeditor_code "IUCr GG3243"
_journal_coden_Cambridge 591
_journal_volume 66
_journal_year 2010
_journal_page_first m330
_journal_name_full 'Acta Crystallogr.,Sect.C:Cryst.Struct.Commun. '
loop_
_publ_author_name
"M.Lutz"
_chemical_name_systematic
;
tris(ethane-1,2-diamine)-copper(ii) sulfate
;
_chemical_name_common
;
Teaching Subset: Fundamental Chemistry
;
_cell_volume   2600.494
_exptl_crystal_colour 'blue'
_exptl_crystal_density_diffrn 1.736
_exptl_special_details
;
triclinic A-1 polymorph

;
_exptl_crystal_description 'needle'
_diffrn_ambient_temperature 110
_diffrn_special_details
;
twin

;
#These two values have been output from a single CSD field.
_refine_ls_R_factor_gt 0.0325
_refine_ls_wR_factor_gt 0.0325
_symmetry_cell_setting triclinic
_symmetry_space_group_name_H-M 'A -1'
_symmetry_Int_Tables_number 2
loop_
_symmetry_equiv_pos_site_id
_symmetry_equiv_pos_as_xyz
1 x,y,z
2 x,1/2+y,1/2+z
3 -x,-y,-z
4 -x,-1/2-y,-1/2-z
_cell_length_a 8.8749(7)
_cell_length_b 17.6358(11)
_cell_length_c 19.1559(11)
_cell_angle_alpha 89.582(3)
_cell_angle_beta 90.296(5)
_cell_angle_gamma 119.845(4)
_cell_formula_units_Z 8
loop_
_atom_type_symbol
_atom_type_radius_bond
C 0.68
H 0.23
Cu 1.32
N 0.68
O 0.68
S 1.02
loop_
_atom_site_label
_atom_site_type_symbol
_atom_site_fract_x
_atom_site_fract_y
_atom_site_fract_z
Cu1 Cu 0.33615(6) 0.33809(4) 0.12285(3)
N1 N 0.5694(4) 0.4426(2) 0.05170(18)
H1 H 0.55370 0.42610 0.00560
H2 H 0.58150 0.49730 0.05530
N2 N 0.5460(4) 0.3584(2) 0.18329(17)
H3 H 0.52340 0.36340 0.22930
H4 H 0.56230 0.31100 0.17960
N3 N 0.3161(5) 0.4319(2) 0.17775(17)
H5 H 0.32830 0.42540 0.22480
H6 H 0.40170 0.48670 0.16420
N4 N 0.1334(4) 0.3322(2) 0.06618(18)
H7 H 0.15640 0.33450 0.01920
H8 H 0.03310 0.28050 0.07550
N5 N 0.3296(5) 0.2359(2) 0.06962(16)
H9 H 0.32130 0.24360 0.02250
H10 H 0.43110 0.23510 0.07760
N6 N 0.1473(5) 0.2203(2) 0.19669(18)
H11 H 0.18010 0.23220 0.24270
H12 H 0.03410 0.20800 0.19200
C1 C 0.7180(5) 0.4399(3) 0.0821(2)
H13 H 0.82720 0.49210 0.06720
H14 H 0.71990 0.38730 0.06570
C2 C 0.7047(5) 0.4378(3) 0.1615(2)
H15 H 0.80750 0.43830 0.18230
H16 H 0.70180 0.49010 0.17790
C3 C 0.1422(5) 0.4212(3) 0.1631(2)
H17 H 0.13890 0.47430 0.17700
H18 H 0.05160 0.37070 0.18940
C4 C 0.1112(6) 0.4065(3) 0.0856(2)
H19 H -0.00780 0.39380 0.07380
H20 H 0.19480 0.45950 0.05960
C5 C 0.1809(5) 0.1519(3) 0.0919(2)
H21 H 0.19520 0.10310 0.07440
H22 H 0.07220 0.14570 0.07200
C6 C 0.1693(6) 0.1477(3) 0.1708(2)
H23 H 0.06940 0.09110 0.18560
H24 H 0.27640 0.15200 0.19070
Cu2 Cu 0.32986(6) 0.33160(4) 0.62178(3)
N7 N 0.1283(5) 0.3483(2) 0.55075(18)
H25 H 0.16480 0.35970 0.50510
H26 H 0.01990 0.29930 0.55250
N8 N 0.2854(4) 0.4119(2) 0.68437(18)
H27 H 0.27170 0.39220 0.72980
H28 H 0.37960 0.46750 0.68270
N9 N 0.1434(4) 0.2236(2) 0.67346(18)
H29 H 0.15930 0.23130 0.72090
H30 H 0.03470 0.21460 0.66250
N10 N 0.3447(5) 0.2414(2) 0.55943(16)
H31 H 0.34600 0.25610 0.51320
H32 H 0.44480 0.23990 0.56900
N11 N 0.5369(5) 0.4353(2) 0.57148(19)
H33 H 0.52320 0.42740 0.52400
H34 H 0.53830 0.48640 0.58210
N12 N 0.5659(5) 0.3477(2) 0.69349(19)
H35 H 0.54130 0.34720 0.74010
H36 H 0.59210 0.30430 0.68490
C7 C 0.1281(6) 0.4229(3) 0.5824(2)
H37 H 0.02390 0.42540 0.56710
H38 H 0.23240 0.47760 0.56740
C8 C 0.1278(5) 0.4140(3) 0.6616(2)
H39 H 0.12530 0.46400 0.68360
H40 H 0.02280 0.35950 0.67660
C9 C 0.1594(5) 0.1473(2) 0.6515(2)
H41 H 0.05120 0.09220 0.66230
H42 H 0.25700 0.14690 0.67640
C10 C 0.1922(5) 0.1558(3) 0.5738(2)
H43 H 0.21320 0.10870 0.55760
H44 H 0.08960 0.15060 0.54880
C11 C 0.7034(5) 0.4422(3) 0.5928(2)
H45 H 0.80110 0.49940 0.57790
H46 H 0.71680 0.39560 0.57010
C12 C 0.7069(5) 0.4330(3) 0.6717(2)
H47 H 0.81970 0.43930 0.68630
H48 H 0.69400 0.47970 0.69430
S1 S 0.34565(13) 0.33906(8) 0.37088(6)
O1 O 0.1843(4) 0.33810(19) 0.38979(15)
O2 O 0.4601(4) 0.3625(2) 0.43202(15)
O3 O 0.4363(4) 0.40648(17) 0.31547(14)
O4 O 0.3076(4) 0.25405(18) 0.34456(16)
S2 S 0.31922(13) 0.32563(7) 0.88148(5)
O5 O 0.4970(4) 0.39721(19) 0.89031(19)
O6 O 0.3007(4) 0.24660(17) 0.91696(14)
O7 O 0.1981(4) 0.3494(2) 0.91273(15)
O8 O 0.2764(5) 0.3063(2) 0.80775(14)
#END
