####################################################################### 
# 
# This file contains crystal structure data downloaded from the 
# Cambridge Structural Database (CSD) hosted by the Cambridge 
# Crystallographic Data Centre (CCDC).
# 
# Full information about CCDC data access policies and citation 
# guidelines are available at http://www.ccdc.cam.ac.uk/access/V1 
# 
# Audit and citation data items may have been added by the CCDC. 
# Please retain this information to preserve the provenance of 
# this file and to allow appropriate attribution of the data. 
# 
#######################################################################

data_TENQOS
#This CIF has been generated from an entry in the Cambridge Structural Database
_database_code_depnum_ccdc_archive 'CCDC 1269029'
_database_code_CSD               TENQOS
loop_
_citation_id
_citation_doi
_citation_year
1 10.1039/dt9960002031 1996
_audit_creation_method           'Created from the CSD'
_audit_update_record             
;
2024-07-13 downloaded from the CCDC.
;
_database_code_NBS               669516
_chemical_formula_moiety         '(C28 H20 Cu5 N8 O4 1+)n,n(Cl1 O4 1-)'
_chemical_name_systematic        
"catena(tetrakis(\m~3~-3-Cyano-6-methylpyridin-2-one-N,N',O)-penta-copper(i) perchlorate)"
_chemical_absolute_configuration unk
_diffrn_ambient_temperature      295
_exptl_crystal_density_diffrn    1.17977
#These two values have been output from a single CSD field.
_refine_ls_R_factor_gt           0.118
_refine_ls_wR_factor_gt          0.118
_diffrn_radiation_probe          x-ray
_symmetry_cell_setting           monoclinic
_symmetry_space_group_name_H-M   'P 21/n'
_symmetry_Int_Tables_number      14
_space_group_name_Hall           '-P 2yn'
loop_
_symmetry_equiv_pos_site_id
_symmetry_equiv_pos_as_xyz
1 x,y,z
2 1/2-x,1/2+y,1/2-z
3 -x,-y,-z
4 1/2+x,1/2-y,1/2+z
_cell_length_a                   13.172(4)
_cell_length_b                   19.849(4)
_cell_length_c                   20.912(5)
_cell_angle_alpha                90
_cell_angle_beta                 102.06(2)
_cell_angle_gamma                90
_cell_volume                     5346.79
_exptl_crystal_colour            yellow
_cell_formula_units_Z            4
loop_
_atom_site_label
_atom_site_type_symbol
_atom_site_fract_x
_atom_site_fract_y
_atom_site_fract_z
Cu1 Cu 0.0683(6) -0.5766(4) 0.6209(4)
Cu2 Cu 0.1191(5) -0.6307(4) 0.7381(4)
Cu3 Cu -0.0006(6) -0.7315(4) 0.6780(4)
Cu4 Cu -0.0966(6) -0.6571(4) 0.5775(4)
Cu5 Cu 0.5747(5) -0.7772(4) 0.8001(4)
O1 O 0.234(3) -0.658(2) 0.707(2)
O2 O -0.028(3) -0.713(2) 0.534(2)
O3 O -0.039(3) -0.520(2) 0.634(2)
O4 O -0.077(3) -0.704(2) 0.738(2)
N1 N 0.465(4) -0.756(3) 0.734(3)
N2 N 0.190(3) -0.620(2) 0.602(2)
N3 N 0.060(4) -0.752(2) 0.393(3)
N4 N 0.067(3) -0.774(2) 0.615(2)
N5 N -0.111(4) -0.371(3) 0.696(2)
N6 N -0.170(3) -0.601(2) 0.619(2)
N7 N -0.305(4) -0.716(3) 0.791(2)
N8 N 0.006(3) -0.603(2) 0.771(2)
C1 C 0.250(5) -0.654(3) 0.647(3)
C2 C 0.337(4) -0.688(3) 0.632(3)
C3 C 0.356(5) -0.692(3) 0.572(3)
C4 C 0.286(5) -0.653(3) 0.528(3)
C5 C 0.206(5) -0.619(3) 0.544(3)
C6 C 0.408(5) -0.728(3) 0.689(3)
C7 C 0.126(5) -0.587(4) 0.488(3)
C8 C 0.042(4) -0.757(3) 0.552(3)
C9 C 0.092(4) -0.791(3) 0.508(3)
C10 C 0.175(4) -0.835(3) 0.538(3)
C11 C 0.194(4) -0.852(3) 0.599(3)
C12 C 0.147(5) -0.817(3) 0.637(3)
C13 C 0.073(4) -0.769(3) 0.443(3)
C14 C 0.178(5) -0.837(4) 0.710(3)
C15 C -0.129(4) -0.542(3) 0.638(3)
C16 C -0.183(4) -0.488(3) 0.669(3)
C17 C -0.291(4) -0.508(3) 0.674(3)
C18 C -0.328(5) -0.575(3) 0.653(3)
C19 C -0.263(5) -0.618(3) 0.628(3)
C20 C -0.144(4) -0.424(3) 0.684(2)
C21 C -0.314(5) -0.682(4) 0.610(3)
C22 C -0.068(4) -0.646(3) 0.768(2)
C23 C -0.151(4) -0.636(3) 0.797(3)
C24 C -0.156(5) -0.578(4) 0.833(3)
C25 C -0.076(6) -0.521(4) 0.832(4)
C26 C 0.006(5) -0.547(3) 0.801(3)
C27 C -0.236(6) -0.682(4) 0.795(3)
C28 C 0.088(6) -0.495(4) 0.800(3)
H1 H 0.2187 -0.8520 0.5108
H2 H 0.2395 -0.8887 0.6145
H3 H 0.4108 -0.7171 0.5607
H4 H 0.2947 -0.6509 0.4846
H5 H -0.3339 -0.4780 0.6917
H6 H -0.3958 -0.5884 0.6551
H7 H -0.2086 -0.5727 0.8578
H8 H -0.0787 -0.4769 0.8491
H9 H 0.1175 -0.5412 0.4979
H10 H 0.1495 -0.5911 0.4485
H11 H 0.0618 -0.6102 0.4845
H12 H 0.1594 -0.8830 0.7146
H13 H 0.2503 -0.8317 0.7251
H14 H 0.1417 -0.8094 0.7349
H15 H -0.3323 -0.7017 0.6466
H16 H -0.3742 -0.6743 0.5766
H17 H -0.2675 -0.7105 0.5931
H18 H 0.1543 -0.5138 0.8185
H19 H 0.0864 -0.4823 0.7561
H20 H 0.0759 -0.4571 0.8246
Cu5 Cu -0.4253(5) -0.7772(4) 0.8001(4)
Cu5 Cu -0.0747(5) -0.2772(4) 0.6999(4)
Cu5 Cu 0.0747(5) -0.7228(4) 0.3001(4)
N3 N 0.560(4) -0.748(2) 0.893(3)
N5 N 0.611(4) -0.871(3) 0.804(2)
N7 N 0.695(4) -0.716(3) 0.791(2)
Cl1 Cl 0.475(3) 0.130(2) 0.520(2)

#END
