
#######################################################################
#
#                 Cambridge Crystallographic Data Centre
#                                CCDC
#
#######################################################################
#
# If this CIF has been generated from an entry in the Cambridge
# Structural Database, then it will include bibliographic, chemical,
# crystal, experimental, refinement or atomic coordinate data resulting
# from the CCDC's data processing and validation procedures.
#
#######################################################################

data_CSD_CIF_TEPHTH
_audit_creation_date 1971-12-31
_audit_creation_method CSD-ConQuest-V1
_database_code_CSD TEPHTH
_database_code_depnum_ccdc_archive 'CCDC 1269122'
_chemical_formula_sum 'C8 H6 O4'
_chemical_formula_moiety
;
C8 H6 O4
;
_journal_coeditor_code "IUCr A05470"
_journal_coden_Cambridge 1
_journal_volume 22
_journal_year 1967
_journal_page_first 387
_journal_name_full 'Acta Crystallogr. '
loop_
_publ_author_name
"M.Bailey"
"C.J.Brown"
_chemical_name_systematic
;
Terephthalic acid
;
_chemical_name_common
;
Benzene-p-dicarboxylic acid; Teaching Subset: Fundamental Chemistry, Symmetry
;
_cell_volume    174.765
_exptl_crystal_density_diffrn 1.577
_exptl_special_details
;
triclinic polymorph I

;
_diffrn_ambient_temperature ?
_diffrn_special_details
;
The study was carried out at room temperature,in the range 283-303K

;
#These two values have been output from a single CSD field.
_refine_ls_R_factor_gt 0.075
_refine_ls_wR_factor_gt 0.075
_symmetry_cell_setting triclinic
_symmetry_space_group_name_H-M 'P -1'
_symmetry_Int_Tables_number 2
loop_
_symmetry_equiv_pos_site_id
_symmetry_equiv_pos_as_xyz
1 x,y,z
2 -x,-y,-z
_cell_length_a 7.73
_cell_length_b 6.443
_cell_length_c 3.749
_cell_angle_alpha 92.75
_cell_angle_beta 109.15
_cell_angle_gamma 95.95
_cell_formula_units_Z 1
loop_
_atom_type_symbol
_atom_type_radius_bond
C 0.68
H 0.20
O 0.68
loop_
_atom_site_label
_atom_site_type_symbol
_atom_site_fract_x
_atom_site_fract_y
_atom_site_fract_z
C1 C 0.14540 0.14600 0.00630
C2 C -0.03610 0.18950 -0.16150
C3 C 0.18010 -0.04420 0.16870
C4 C 0.30120 0.30170 0.00780
H1 H 0.57460 0.37520 0.17750
H2 H -0.06240 0.33620 -0.28420
H3 H 0.32050 -0.07580 0.29940
O1 O 0.46330 0.26140 0.18560
O2 O 0.26810 0.46380 -0.16600
C3A C -0.18010 0.04420 -0.16870
C2A C 0.03610 -0.18950 0.16150
C1A C -0.14540 -0.14600 -0.00630
H3A H -0.32050 0.07580 -0.29940
H2A H 0.06240 -0.33620 0.28420
C4A C -0.30120 -0.30170 -0.00780
O1A O -0.46330 -0.26140 -0.18560
O2A O -0.26810 -0.46380 0.16600
H1A H -0.57460 -0.37520 -0.17750
#END
