####################################################################### 
# 
# This file contains crystal structure data downloaded from the 
# Cambridge Structural Database (CSD) hosted by the Cambridge 
# Crystallographic Data Centre (CCDC).
# 
# Full information about CCDC data access policies and citation 
# guidelines are available at http://www.ccdc.cam.ac.uk/access/V1 
# 
# Audit and citation data items may have been added by the CCDC. 
# Please retain this information to preserve the provenance of 
# this file and to allow appropriate attribution of the data. 
# 
#######################################################################

data_6-Benzene
_audit_block_doi                 10.5517/ccnflzm
_database_code_depnum_ccdc_archive 'CCDC 608901'
loop_
_citation_id
_citation_doi
_citation_year
1 10.1071/CH06176 2006
_audit_update_record             
;
2006-05-24 deposited with the CCDC.	2024-07-13 downloaded from the CCDC.
;

_audit_creation_method           SHELXL-97
_chemical_name_systematic        
;
?
;
_chemical_name_common            ?
_chemical_melting_point          ?
_chemical_formula_moiety         ?
_chemical_formula_sum            'C12 H12 O12 Zn3'
_chemical_formula_weight         544.33

loop_
_atom_type_symbol
_atom_type_description
_atom_type_scat_dispersion_real
_atom_type_scat_dispersion_imag
_atom_type_scat_source
C C 0.0033 0.0016 'International Tables Vol C Tables 4.2.6.8 and 6.1.1.4'
H H 0.0000 0.0000 'International Tables Vol C Tables 4.2.6.8 and 6.1.1.4'
O O 0.0106 0.0060 'International Tables Vol C Tables 4.2.6.8 and 6.1.1.4'
Zn Zn 0.2839 1.4301 'International Tables Vol C Tables 4.2.6.8 and 6.1.1.4'

_symmetry_cell_setting           monoclinic
_symmetry_space_group_name_H-M   'P 2(1)/c'

loop_
_symmetry_equiv_pos_as_xyz
'x, y, z'
'-x, y+1/2, -z+1/2'
'-x, -y, -z'
'x, -y-1/2, z-1/2'

_cell_length_a                   11.3647(2)
_cell_length_b                   9.9781(2)
_cell_length_c                   18.7044(5)
_cell_angle_alpha                90.00
_cell_angle_beta                 126.4130(10)
_cell_angle_gamma                90.00
_cell_volume                     1706.93(6)
_cell_formula_units_Z            4
_cell_measurement_temperature    105
_cell_measurement_reflns_used    18139
_cell_measurement_theta_min      3.395
_cell_measurement_theta_max      27.485

_exptl_crystal_description       plate
_exptl_crystal_colour            colorless
_exptl_crystal_size_max          0.15
_exptl_crystal_size_mid          0.08
_exptl_crystal_size_min          0.06
_exptl_crystal_density_meas      ?
_exptl_crystal_density_diffrn    2.118
_exptl_crystal_density_method    'not measured'
_exptl_crystal_F_000             1080
_exptl_absorpt_coefficient_mu    4.245
_exptl_absorpt_correction_type   multi-scan
_exptl_absorpt_correction_T_min  0.642
_exptl_absorpt_correction_T_max  0.784
_exptl_absorpt_process_details   
;
multi-scan from symmetry-related measurements
Sortav (Blessing 1995, 1997)
;

_exptl_special_details           
;
?
;

_diffrn_ambient_temperature      105
_diffrn_radiation_wavelength     0.71073
_diffrn_radiation_type           MoK\a
_diffrn_radiation_source         'fine-focus sealed tube'
_diffrn_radiation_monochromator  graphite
_diffrn_measurement_device_type  'NONIUS KappaCCD Diffractometer'
_diffrn_measurement_method       CCD
_diffrn_detector_area_resol_mean 0.76
_diffrn_standards_number         ?
_diffrn_standards_interval_count ?
_diffrn_standards_interval_time  ?
_diffrn_standards_decay_%        none
_diffrn_reflns_number            33261
_diffrn_reflns_av_R_equivalents  0.0962
_diffrn_reflns_av_sigmaI/netI    0.0640
_diffrn_reflns_limit_h_min       -14
_diffrn_reflns_limit_h_max       14
_diffrn_reflns_limit_k_min       -12
_diffrn_reflns_limit_k_max       12
_diffrn_reflns_limit_l_min       -24
_diffrn_reflns_limit_l_max       24
_diffrn_reflns_theta_min         3.59
_diffrn_reflns_theta_max         27.46
_reflns_number_total             3892
_reflns_number_gt                2733
_reflns_threshold_expression     >2sigma(I)

_computing_data_collection       'KappaCCD (Nonius B. V., 1998)'
_computing_cell_refinement       'HKL Scalepack (Otwinowski & Minor, 1997)'
_computing_data_reduction        
'HKL Denzo (Otwinowski & Minor, 1997) & maXus (Mackay et al., 1998)'
_computing_structure_solution    'SHELXS-97 (Sheldrick, 1997)'
_computing_structure_refinement  'SHELXL-97 (Sheldrick, 1997)'
_computing_molecular_graphics    'Bruker SHELXTL V5.1 (Sheldrick, 1998)'
_computing_publication_material  'SHELXL-97 (Sheldrick, 1997)'

_refine_special_details          
;
Refinement of F^2^ against ALL reflections. The weighted R-factor wR and
goodness of fit S are based on F^2^, conventional R-factors R are based
on F, with F set to zero for negative F^2^. The threshold expression of
F^2^ > 2sigma(F^2^) is used only for calculating R-factors(gt) etc. and is
not relevant to the choice of reflections for refinement. R-factors based
on F^2^ are statistically about twice as large as those based on F, and R-
factors based on ALL data will be even larger.
;

_refine_ls_structure_factor_coef Fsqd
_refine_ls_matrix_type           full
_refine_ls_weighting_scheme      calc
_refine_ls_weighting_details     
'calc w=1/[\s^2^(Fo^2^)+(0.0279P)^2^+0.0000P] where P=(Fo^2^+2Fc^2^)/3'
_atom_sites_solution_primary     direct
_atom_sites_solution_secondary   difmap
_atom_sites_solution_hydrogens   difmap
_refine_ls_hydrogen_treatment    constraint
_refine_ls_extinction_method     SHELXL
_refine_ls_extinction_coef       0.0020(2)
_refine_ls_extinction_expression Fc^*^=kFc[1+0.001xFc^2^\l^3^/sin(2\q)]^-1/4^
_refine_ls_number_reflns         3892
_refine_ls_number_parameters     248
_refine_ls_number_restraints     0
_refine_ls_R_factor_all          0.0581
_refine_ls_R_factor_gt           0.0296
_refine_ls_wR_factor_ref         0.0604
_refine_ls_wR_factor_gt          0.0558
_refine_ls_goodness_of_fit_ref   0.922
_refine_ls_restrained_S_all      0.922
_refine_ls_shift/su_max          0.001
_refine_ls_shift/su_mean         0.000

loop_
_atom_site_label
_atom_site_type_symbol
_atom_site_fract_x
_atom_site_fract_y
_atom_site_fract_z
_atom_site_U_iso_or_equiv
_atom_site_adp_type
_atom_site_occupancy
_atom_site_symmetry_multiplicity
_atom_site_calc_flag
_atom_site_refinement_flags
_atom_site_disorder_assembly
_atom_site_disorder_group
Zn1 Zn 0.37783(4) 0.06976(3) 0.13241(2) 0.01238(10) Uani 1 1 d . . .
Zn2 Zn 0.56088(4) -0.12463(3) 0.30279(2) 0.01323(10) Uani 1 1 d . . .
Zn3 Zn 0.5000 0.0000 0.0000 0.01369(12) Uani 1 2 d S . .
Zn4 Zn 0.0000 0.0000 0.0000 0.01370(12) Uani 1 2 d S . .
O1 O 0.4417(2) 0.18466(19) 0.24777(13) 0.0136(4) Uani 1 1 d . . .
O2 O 0.5487(2) 0.03952(19) 0.36147(13) 0.0172(5) Uani 1 1 d . . .
O3 O 0.5825(2) -0.02126(19) 0.21346(13) 0.0141(5) Uani 1 1 d . . .
O4 O 0.6712(2) -0.0272(2) 0.13384(14) 0.0180(5) Uani 1 1 d . . .
O5 O 0.4701(2) 0.24571(19) 0.12076(13) 0.0141(4) Uani 1 1 d . . .
O6 O 0.5127(2) 0.20558(19) 0.01965(14) 0.0170(5) Uani 1 1 d . . .
O7 O 0.3406(2) -0.09456(18) 0.18834(13) 0.0148(5) Uani 1 1 d . . .
O8 O 0.0992(2) -0.1320(2) 0.10644(13) 0.0171(5) Uani 1 1 d . . .
O9 O 0.3351(2) -0.01943(19) 0.02046(13) 0.0142(4) Uani 1 1 d . . .
O10 O 0.1059(2) -0.09415(19) -0.04478(14) 0.0169(5) Uani 1 1 d . . .
O11 O 0.1691(2) 0.14559(18) 0.06968(13) 0.0141(5) Uani 1 1 d . . .
O12 O 0.2160(2) 0.36372(19) 0.10792(13) 0.0152(5) Uani 1 1 d . . .
C1 C 0.5019(3) 0.1525(3) 0.3280(2) 0.0150(7) Uani 1 1 d . . .
H1 H 0.5124 0.2214 0.3664 0.018 Uiso 1 1 calc R . .
C2 C 0.6829(3) -0.0392(3) 0.2032(2) 0.0171(7) Uani 1 1 d . . .
H2 H 0.7764 -0.0645 0.2546 0.021 Uiso 1 1 calc R . .
C3 C 0.5086(3) 0.2792(3) 0.0713(2) 0.0171(7) Uani 1 1 d . . .
H3 H 0.5368 0.3699 0.0746 0.020 Uiso 1 1 calc R . .
C4 C 0.2272(3) -0.1563(3) 0.1688(2) 0.0154(7) Uani 1 1 d . . .
H4 H 0.2426 -0.2290 0.2063 0.018 Uiso 1 1 calc R . .
C5 C 0.2201(3) -0.0853(3) -0.0384(2) 0.0162(7) Uani 1 1 d . . .
H5 H 0.2231 -0.1320 -0.0815 0.019 Uiso 1 1 calc R . .
C6 C 0.1321(3) 0.2677(3) 0.0678(2) 0.0152(7) Uani 1 1 d . . .
H6 H 0.0303 0.2865 0.0323 0.018 Uiso 1 1 calc R . .
C7 C 0.1788(4) 0.3969(4) -0.0896(3) 0.0410(11) Uani 1 1 d . . .
H7 H 0.2130 0.3350 -0.0424 0.049 Uiso 1 1 calc R . .
C8 C 0.1262(4) 0.5198(4) -0.0874(2) 0.0408(10) Uani 1 1 d . . .
H8 H 0.1270 0.5440 -0.0380 0.049 Uiso 1 1 calc R . .
C9 C 0.0722(4) 0.6079(3) -0.1572(2) 0.0270(8) Uani 1 1 d . . .
H9 H 0.0342 0.6922 -0.1563 0.032 Uiso 1 1 calc R . .
C10 C 0.0732(4) 0.5741(3) -0.2280(2) 0.0268(8) Uani 1 1 d . . .
H10 H 0.0353 0.6347 -0.2762 0.032 Uiso 1 1 calc R . .
C11 C 0.1301(4) 0.4502(3) -0.2290(2) 0.0289(8) Uani 1 1 d . . .
H11 H 0.1327 0.4269 -0.2773 0.035 Uiso 1 1 calc R . .
C12 C 0.1821(4) 0.3631(3) -0.1598(2) 0.0280(8) Uani 1 1 d . . .
H12 H 0.2207 0.2788 -0.1602 0.034 Uiso 1 1 calc R . .

loop_
_atom_site_aniso_label
_atom_site_aniso_U_11
_atom_site_aniso_U_22
_atom_site_aniso_U_33
_atom_site_aniso_U_23
_atom_site_aniso_U_13
_atom_site_aniso_U_12
Zn1 0.01118(18) 0.01232(19) 0.01340(19) -0.00018(14) 0.00716(16) 0.00038(14)
Zn2 0.01281(19) 0.01234(18) 0.0148(2) 0.00107(15) 0.00833(16) 0.00072(14)
Zn3 0.0126(3) 0.0154(3) 0.0154(3) -0.0010(2) 0.0095(2) -0.0004(2)
Zn4 0.0107(3) 0.0147(3) 0.0154(3) -0.0018(2) 0.0077(2) -0.0010(2)
O1 0.0154(11) 0.0122(10) 0.0126(11) -0.0006(9) 0.0079(10) -0.0009(9)
O2 0.0189(12) 0.0129(11) 0.0185(12) 0.0017(9) 0.0103(10) 0.0026(9)
O3 0.0100(11) 0.0170(11) 0.0164(11) 0.0021(9) 0.0085(10) 0.0018(8)
O4 0.0156(11) 0.0235(12) 0.0175(12) 0.0010(9) 0.0112(10) 0.0012(9)
O5 0.0150(11) 0.0127(10) 0.0170(11) -0.0006(9) 0.0108(10) -0.0005(9)
O6 0.0200(12) 0.0154(11) 0.0220(12) -0.0020(9) 0.0159(11) -0.0003(9)
O7 0.0121(11) 0.0140(11) 0.0182(12) 0.0008(9) 0.0090(10) -0.0016(8)
O8 0.0118(11) 0.0207(11) 0.0155(12) 0.0010(9) 0.0063(10) -0.0020(9)
O9 0.0108(11) 0.0163(11) 0.0148(11) -0.0016(9) 0.0072(9) -0.0010(9)
O10 0.0130(11) 0.0191(12) 0.0216(12) -0.0048(9) 0.0119(10) -0.0026(9)
O11 0.0125(11) 0.0135(11) 0.0170(12) -0.0021(9) 0.0091(10) -0.0004(9)
O12 0.0133(11) 0.0145(11) 0.0150(11) -0.0006(9) 0.0069(10) -0.0006(9)
C1 0.0132(16) 0.0147(16) 0.0189(18) -0.0054(14) 0.0105(15) -0.0035(13)
C2 0.0141(16) 0.0167(16) 0.0191(18) 0.0031(14) 0.0090(15) 0.0029(13)
C3 0.0154(17) 0.0158(17) 0.0202(17) 0.0026(14) 0.0107(15) 0.0016(13)
C4 0.0178(17) 0.0141(16) 0.0151(17) 0.0010(13) 0.0102(15) 0.0011(13)
C5 0.0166(17) 0.0172(17) 0.0148(17) 0.0002(13) 0.0094(14) 0.0020(13)
C6 0.0121(16) 0.0189(17) 0.0151(16) -0.0001(14) 0.0083(14) -0.0001(14)
C7 0.040(2) 0.059(3) 0.034(2) 0.025(2) 0.027(2) 0.030(2)
C8 0.030(2) 0.068(3) 0.023(2) 0.003(2) 0.0147(18) 0.021(2)
C9 0.0182(18) 0.0263(19) 0.036(2) -0.0081(16) 0.0158(17) -0.0011(15)
C10 0.0245(19) 0.0286(19) 0.031(2) 0.0085(16) 0.0186(18) 0.0019(15)
C11 0.030(2) 0.031(2) 0.0229(19) -0.0009(16) 0.0148(17) 0.0022(16)
C12 0.026(2) 0.0265(19) 0.034(2) 0.0036(17) 0.0186(18) 0.0071(16)

_geom_special_details            
;
All esds (except the esd in the dihedral angle between two l.s. planes)
are estimated using the full covariance matrix. The cell esds are taken
into account individually in the estimation of esds in distances, angles
and torsion angles; correlations between esds in cell parameters are only
used when they are defined by crystal symmetry. An approximate (isotropic)
treatment of cell esds is used for estimating esds involving l.s. planes.
;

loop_
_geom_bond_atom_site_label_1
_geom_bond_atom_site_label_2
_geom_bond_distance
_geom_bond_site_symmetry_2
_geom_bond_publ_flag
Zn1 O9 2.051(2) . ?
Zn1 O11 2.0666(18) . ?
Zn1 O3 2.0847(19) . ?
Zn1 O7 2.1180(19) . ?
Zn1 O5 2.1212(19) . ?
Zn1 O1 2.1535(19) . ?
Zn2 O2 2.021(2) . ?
Zn2 O12 2.050(2) 2_645 ?
Zn2 O3 2.0983(19) . ?
Zn2 O5 2.1069(19) 2_645 ?
Zn2 O1 2.1176(19) 2_645 ?
Zn2 O7 2.139(2) . ?
Zn3 O6 2.0739(19) 3_655 ?
Zn3 O6 2.0739(19) . ?
Zn3 O4 2.084(2) . ?
Zn3 O4 2.084(2) 3_655 ?
Zn3 O9 2.1327(19) . ?
Zn3 O9 2.1327(19) 3_655 ?
Zn4 O10 2.0563(19) 3 ?
Zn4 O10 2.0563(19) . ?
Zn4 O8 2.075(2) . ?
Zn4 O8 2.075(2) 3 ?
Zn4 O11 2.1282(18) 3 ?
Zn4 O11 2.1282(18) . ?
O1 C1 1.266(3) . ?
O1 Zn2 2.1176(19) 2_655 ?
O2 C1 1.245(3) . ?
O3 C2 1.277(3) . ?
O4 C2 1.230(3) . ?
O5 C3 1.281(3) . ?
O5 Zn2 2.1069(19) 2_655 ?
O6 C3 1.236(3) . ?
O7 C4 1.272(3) . ?
O8 C4 1.233(3) . ?
O9 C5 1.282(3) . ?
O10 C5 1.234(3) . ?
O11 C6 1.283(3) . ?
O12 C6 1.241(3) . ?
O12 Zn2 2.050(2) 2_655 ?
C1 H1 0.9500 . ?
C2 H2 0.9500 . ?
C3 H3 0.9500 . ?
C4 H4 0.9500 . ?
C5 H5 0.9500 . ?
C6 H6 0.9500 . ?
C7 C8 1.376(5) . ?
C7 C12 1.378(5) . ?
C7 H7 0.9500 . ?
C8 C9 1.380(5) . ?
C8 H8 0.9500 . ?
C9 C10 1.373(5) . ?
C9 H9 0.9500 . ?
C10 C11 1.401(5) . ?
C10 H10 0.9500 . ?
C11 C12 1.368(5) . ?
C11 H11 0.9500 . ?
C12 H12 0.9500 . ?

loop_
_geom_angle_atom_site_label_1
_geom_angle_atom_site_label_2
_geom_angle_atom_site_label_3
_geom_angle
_geom_angle_site_symmetry_1
_geom_angle_site_symmetry_3
_geom_angle_publ_flag
O9 Zn1 O11 94.74(8) . . ?
O9 Zn1 O3 92.25(8) . . ?
O11 Zn1 O3 168.91(8) . . ?
O9 Zn1 O7 99.94(7) . . ?
O11 Zn1 O7 93.76(7) . . ?
O3 Zn1 O7 76.54(7) . . ?
O9 Zn1 O5 94.95(7) . . ?
O11 Zn1 O5 96.27(7) . . ?
O3 Zn1 O5 91.68(7) . . ?
O7 Zn1 O5 161.28(8) . . ?
O9 Zn1 O1 171.43(7) . . ?
O11 Zn1 O1 87.96(7) . . ?
O3 Zn1 O1 86.35(7) . . ?
O7 Zn1 O1 87.97(7) . . ?
O5 Zn1 O1 76.65(7) . . ?
O2 Zn2 O12 93.08(8) . 2_645 ?
O2 Zn2 O3 96.44(8) . . ?
O12 Zn2 O3 90.22(8) 2_645 . ?
O2 Zn2 O5 92.08(8) . 2_645 ?
O12 Zn2 O5 92.08(8) 2_645 2_645 ?
O3 Zn2 O5 171.05(8) . 2_645 ?
O2 Zn2 O1 169.54(8) . 2_645 ?
O12 Zn2 O1 89.73(8) 2_645 2_645 ?
O3 Zn2 O1 93.62(7) . 2_645 ?
O5 Zn2 O1 77.74(7) 2_645 2_645 ?
O2 Zn2 O7 90.76(8) . . ?
O12 Zn2 O7 165.84(8) 2_645 . ?
O3 Zn2 O7 75.80(7) . . ?
O5 Zn2 O7 101.41(7) 2_645 . ?
O1 Zn2 O7 88.94(7) 2_645 . ?
O6 Zn3 O6 180.00(12) 3_655 . ?
O6 Zn3 O4 90.08(8) 3_655 . ?
O6 Zn3 O4 89.92(8) . . ?
O6 Zn3 O4 89.92(8) 3_655 3_655 ?
O6 Zn3 O4 90.08(8) . 3_655 ?
O4 Zn3 O4 180.00(15) . 3_655 ?
O6 Zn3 O9 88.05(7) 3_655 . ?
O6 Zn3 O9 91.95(7) . . ?
O4 Zn3 O9 93.77(7) . . ?
O4 Zn3 O9 86.23(7) 3_655 . ?
O6 Zn3 O9 91.95(7) 3_655 3_655 ?
O6 Zn3 O9 88.05(7) . 3_655 ?
O4 Zn3 O9 86.23(7) . 3_655 ?
O4 Zn3 O9 93.77(7) 3_655 3_655 ?
O9 Zn3 O9 180.00(14) . 3_655 ?
O10 Zn4 O10 180.00(8) 3 . ?
O10 Zn4 O8 90.87(8) 3 . ?
O10 Zn4 O8 89.13(8) . . ?
O10 Zn4 O8 89.13(8) 3 3 ?
O10 Zn4 O8 90.87(8) . 3 ?
O8 Zn4 O8 180.00(14) . 3 ?
O10 Zn4 O11 91.56(7) 3 3 ?
O10 Zn4 O11 88.44(7) . 3 ?
O8 Zn4 O11 86.16(7) . 3 ?
O8 Zn4 O11 93.84(7) 3 3 ?
O10 Zn4 O11 88.44(7) 3 . ?
O10 Zn4 O11 91.56(7) . . ?
O8 Zn4 O11 93.84(7) . . ?
O8 Zn4 O11 86.16(7) 3 . ?
O11 Zn4 O11 180.00(7) 3 . ?
C1 O1 Zn2 127.70(18) . 2_655 ?
C1 O1 Zn1 132.51(18) . . ?
Zn2 O1 Zn1 97.11(8) 2_655 . ?
C1 O2 Zn2 127.3(2) . . ?
C2 O3 Zn1 131.51(19) . . ?
C2 O3 Zn2 126.00(18) . . ?
Zn1 O3 Zn2 100.71(8) . . ?
C2 O4 Zn3 136.0(2) . . ?
C3 O5 Zn2 126.62(18) . 2_655 ?
C3 O5 Zn1 133.76(18) . . ?
Zn2 O5 Zn1 98.44(8) 2_655 . ?
C3 O6 Zn3 134.06(19) . . ?
C4 O7 Zn1 134.36(19) . . ?
C4 O7 Zn2 127.15(19) . . ?
Zn1 O7 Zn2 98.33(8) . . ?
C4 O8 Zn4 134.16(19) . . ?
C5 O9 Zn1 126.99(18) . . ?
C5 O9 Zn3 116.71(18) . . ?
Zn1 O9 Zn3 116.30(9) . . ?
C5 O10 Zn4 139.8(2) . . ?
C6 O11 Zn1 127.64(18) . . ?
C6 O11 Zn4 117.98(18) . . ?
Zn1 O11 Zn4 114.38(8) . . ?
C6 O12 Zn2 132.14(19) . 2_655 ?
O2 C1 O1 126.5(3) . . ?
O2 C1 H1 116.7 . . ?
O1 C1 H1 116.7 . . ?
O4 C2 O3 126.7(3) . . ?
O4 C2 H2 116.6 . . ?
O3 C2 H2 116.6 . . ?
O6 C3 O5 126.7(3) . . ?
O6 C3 H3 116.7 . . ?
O5 C3 H3 116.7 . . ?
O8 C4 O7 127.0(3) . . ?
O8 C4 H4 116.5 . . ?
O7 C4 H4 116.5 . . ?
O10 C5 O9 126.7(3) . . ?
O10 C5 H5 116.6 . . ?
O9 C5 H5 116.6 . . ?
O12 C6 O11 126.5(3) . . ?
O12 C6 H6 116.8 . . ?
O11 C6 H6 116.8 . . ?
C8 C7 C12 120.3(3) . . ?
C8 C7 H7 119.9 . . ?
C12 C7 H7 119.9 . . ?
C7 C8 C9 119.8(3) . . ?
C7 C8 H8 120.1 . . ?
C9 C8 H8 120.1 . . ?
C10 C9 C8 120.2(3) . . ?
C10 C9 H9 119.9 . . ?
C8 C9 H9 119.9 . . ?
C9 C10 C11 119.9(3) . . ?
C9 C10 H10 120.1 . . ?
C11 C10 H10 120.1 . . ?
C12 C11 C10 119.4(3) . . ?
C12 C11 H11 120.3 . . ?
C10 C11 H11 120.3 . . ?
C11 C12 C7 120.4(3) . . ?
C11 C12 H12 119.8 . . ?
C7 C12 H12 119.8 . . ?

loop_
_geom_hbond_atom_site_label_D
_geom_hbond_atom_site_label_H
_geom_hbond_atom_site_label_A
_geom_hbond_distance_DH
_geom_hbond_distance_HA
_geom_hbond_distance_DA
_geom_hbond_angle_DHA
_geom_hbond_site_symmetry_A
C1 H1 O3 0.95 2.84 3.352(3) 114.7 2_655
C1 H1 O6 0.95 2.96 3.789(4) 147.1 4_566
C1 H1 O9 0.95 3.13 3.994(4) 151.6 2_655
C2 H2 O12 0.95 2.62 3.149(4) 115.5 2_645
C3 H3 O2 0.95 2.57 3.119(4) 116.8 2_655
C4 H4 O5 0.95 2.94 3.494(4) 118.4 2_645
C5 H5 O4 0.95 2.51 2.932(4) 106.7 3_655
C5 H5 O6 0.95 2.60 3.087(4) 112.0 3_655
C6 H6 O8 0.95 2.60 3.032(3) 108.4 3
C6 H6 O10 0.95 2.56 3.019(4) 109.8 3

_diffrn_measured_fraction_theta_max 0.996
_diffrn_reflns_theta_full        27.46
_diffrn_measured_fraction_theta_full 0.996
_refine_diff_density_max         0.604
_refine_diff_density_min         -0.725
_refine_diff_density_rms         0.121
