####################################################################### 
# 
# This file contains crystal structure data downloaded from the 
# Cambridge Structural Database (CSD) hosted by the Cambridge 
# Crystallographic Data Centre (CCDC).
# 
# Full information about CCDC data access policies and citation 
# guidelines are available at http://www.ccdc.cam.ac.uk/access/V1 
# 
# Audit and citation data items may have been added by the CCDC. 
# Please retain this information to preserve the provenance of 
# this file and to allow appropriate attribution of the data. 
# 
#######################################################################

data_comp-2
_audit_block_doi                 10.5517/ccxtqjy
_database_code_depnum_ccdc_archive 'CCDC 858871'
loop_
_citation_id
_citation_doi
_citation_year
1 10.1021/cg3017563 2013
_audit_update_record             
;
2011-12-15 deposited with the CCDC.	2024-07-13 downloaded from the CCDC.
;
#TrackingRef 'comp-2.cif'


_audit_creation_method           SHELXL-97
_chemical_name_systematic        
;
?
;
_chemical_name_common            ?
_chemical_melting_point          ?
_chemical_formula_moiety         ?
_chemical_formula_sum            'C60 H36 Cu2 N8 O16'
_chemical_formula_weight         1252.05

loop_
_atom_type_symbol
_atom_type_description
_atom_type_scat_dispersion_real
_atom_type_scat_dispersion_imag
_atom_type_scat_source
C C 0.0181 0.0091 'International Tables Vol C Tables 4.2.6.8 and 6.1.1.4'
H H 0.0000 0.0000 'International Tables Vol C Tables 4.2.6.8 and 6.1.1.4'
N N 0.0311 0.0180 'International Tables Vol C Tables 4.2.6.8 and 6.1.1.4'
O O 0.0492 0.0322 'International Tables Vol C Tables 4.2.6.8 and 6.1.1.4'
Cu Cu -1.9646 0.5888 'International Tables Vol C Tables 4.2.6.8 and 6.1.1.4'

_symmetry_cell_setting           orthorhombic
_symmetry_space_group_name_H-M   Ibca

loop_
_symmetry_equiv_pos_as_xyz
'x, y, z'
'-x+1/2, -y, z+1/2'
'-x, y+1/2, -z+1/2'
'x+1/2, -y+1/2, -z'
'x+1/2, y+1/2, z+1/2'
'-x+1, -y+1/2, z+1'
'-x+1/2, y+1, -z+1'
'x+1, -y+1, -z+1/2'
'-x, -y, -z'
'x-1/2, y, -z-1/2'
'x, -y-1/2, z-1/2'
'-x-1/2, y-1/2, z'
'-x+1/2, -y+1/2, -z+1/2'
'x, y+1/2, -z'
'x+1/2, -y, z'
'-x, y, z+1/2'

_cell_length_a                   14.6232(10)
_cell_length_b                   16.9144(10)
_cell_length_c                   27.9419(18)
_cell_angle_alpha                90.00
_cell_angle_beta                 90.00
_cell_angle_gamma                90.00
_cell_volume                     6911.2(8)
_cell_formula_units_Z            4
_cell_measurement_temperature    150(2)
_cell_measurement_reflns_used    2187
_cell_measurement_theta_min      3.0402
_cell_measurement_theta_max      61.8159

_exptl_crystal_description       rodlike
_exptl_crystal_colour            purple
_exptl_crystal_size_max          0.31
_exptl_crystal_size_mid          0.25
_exptl_crystal_size_min          0.21
_exptl_crystal_density_meas      ?
_exptl_crystal_density_diffrn    1.203
_exptl_crystal_density_method    'not measured'
_exptl_crystal_F_000             2552
_exptl_absorpt_coefficient_mu    1.308
_exptl_absorpt_correction_type   multi-scan
_exptl_absorpt_correction_T_min  0.6872
_exptl_absorpt_correction_T_max  0.7707
_exptl_absorpt_process_details   
;
CrysAlis RED, Oxford Diffraction Ltd.,
Version 1.171.32.24 (release 21-04-2008 CrysAlis171 .NET)
(compiled Apr 21 2008,18:23:10)
Empirical absorption correction using spherical harmonics,
implemented in SCALE3 ABSPACK scaling algorithm.
;

_exptl_special_details           
;
?
;

_diffrn_ambient_temperature      150(2)
_diffrn_radiation_wavelength     1.54178
_diffrn_radiation_type           'Cu K\a'
_diffrn_radiation_source         'Ultra (Cu) X-ray Source'
_diffrn_radiation_monochromator  mirror
_diffrn_detector_area_resol_mean 16.0855
_diffrn_measurement_device_type  'Gemini S Ultra'
_diffrn_measurement_method       '\w and \p scan'
_diffrn_standards_number         ?
_diffrn_standards_interval_count ?
_diffrn_standards_interval_time  ?
_diffrn_standards_decay_%        ?
_diffrn_reflns_number            6928
_diffrn_reflns_av_R_equivalents  0.0620
_diffrn_reflns_av_sigmaI/netI    0.0595
_diffrn_reflns_limit_h_min       -11
_diffrn_reflns_limit_h_max       16
_diffrn_reflns_limit_k_min       -19
_diffrn_reflns_limit_k_max       12
_diffrn_reflns_limit_l_min       -31
_diffrn_reflns_limit_l_max       31
_diffrn_reflns_theta_min         3.16
_diffrn_reflns_theta_max         62.02
_reflns_number_total             2674
_reflns_number_gt                1929
_reflns_threshold_expression     >2sigma(I)

_computing_data_collection       ?
_computing_cell_refinement       ?
_computing_data_reduction        ?
_computing_structure_solution    'SHELXS-97 (Sheldrick, 1990)'
_computing_structure_refinement  'SHELXL-97 (Sheldrick, 1997)'
_computing_molecular_graphics    ?
_computing_publication_material  ?

_refine_special_details          
;
Refinement of F^2^ against ALL reflections. The weighted R-factor wR and
goodness of fit S are based on F^2^, conventional R-factors R are based
on F, with F set to zero for negative F^2^. The threshold expression of
F^2^ > 2sigma(F^2^) is used only for calculating R-factors(gt) etc. and is
not relevant to the choice of reflections for refinement. R-factors based
on F^2^ are statistically about twice as large as those based on F, and R-
factors based on ALL data will be even larger.
;

_refine_ls_structure_factor_coef Fsqd
_refine_ls_matrix_type           full
_refine_ls_weighting_scheme      calc
_refine_ls_weighting_details     
'calc w=1/[\s^2^(Fo^2^)+(0.0910P)^2^+0.0000P] where P=(Fo^2^+2Fc^2^)/3'
_atom_sites_solution_primary     direct
_atom_sites_solution_secondary   difmap
_atom_sites_solution_hydrogens   geom
_refine_ls_hydrogen_treatment    constr
_refine_ls_extinction_method     none
_refine_ls_extinction_coef       ?
_refine_ls_number_reflns         2674
_refine_ls_number_parameters     196
_refine_ls_number_restraints     0
_refine_ls_R_factor_all          0.0778
_refine_ls_R_factor_gt           0.0524
_refine_ls_wR_factor_ref         0.1447
_refine_ls_wR_factor_gt          0.1362
_refine_ls_goodness_of_fit_ref   1.013
_refine_ls_restrained_S_all      1.013
_refine_ls_shift/su_max          0.001
_refine_ls_shift/su_mean         0.000

loop_
_atom_site_label
_atom_site_type_symbol
_atom_site_fract_x
_atom_site_fract_y
_atom_site_fract_z
_atom_site_U_iso_or_equiv
_atom_site_adp_type
_atom_site_occupancy
_atom_site_symmetry_multiplicity
_atom_site_calc_flag
_atom_site_refinement_flags
_atom_site_disorder_assembly
_atom_site_disorder_group
Cu1 Cu 0.2500 0.2500 0.2500 0.0353(2) Uani 1 2 d S . .
O3 O 0.32157(16) 0.23390(12) 0.19232(8) 0.0411(6) Uani 1 1 d . . .
O4 O 0.42974(16) 0.31106(12) 0.22290(8) 0.0426(6) Uani 1 1 d . . .
O2 O 0.5906(2) -0.01583(17) 0.37366(9) 0.0611(7) Uani 1 1 d . . .
C13 C 0.4528(2) 0.25640(16) 0.14538(10) 0.0373(7) Uani 1 1 d . . .
N2 N 0.4399(2) -0.04874(15) 0.38765(9) 0.0400(7) Uani 1 1 d . . .
C12 C 0.3998(2) 0.26869(17) 0.19080(11) 0.0358(7) Uani 1 1 d . . .
O1 O 0.30024(19) -0.06824(16) 0.42459(8) 0.0587(7) Uani 1 1 d . . .
N1 N 0.30160(19) 0.14846(15) 0.27738(9) 0.0401(7) Uani 1 1 d . . .
C7 C 0.3804(3) -0.05056(19) 0.42648(12) 0.0441(8) Uani 1 1 d . . .
C5 C 0.3919(2) 0.13797(19) 0.28034(12) 0.0423(8) Uani 1 1 d . . .
H5 H 0.4313 0.1784 0.2689 0.051 Uiso 1 1 calc R . .
C3 C 0.3744(2) 0.01081(17) 0.31603(10) 0.0355(8) Uani 1 1 d . . .
C14 C 0.4066(3) 0.2616(2) 0.10176(12) 0.0498(9) Uani 1 1 d . . .
H14 H 0.3422 0.2692 0.1014 0.060 Uiso 1 1 calc R . .
C6 C 0.4125(3) -0.06357(17) 0.33857(11) 0.0406(8) Uani 1 1 d . . .
H6A H 0.3655 -0.1057 0.3379 0.049 Uiso 1 1 calc R . .
H6B H 0.4659 -0.0821 0.3199 0.049 Uiso 1 1 calc R . .
C4 C 0.4298(3) 0.07062(19) 0.29937(11) 0.0430(8) Uani 1 1 d . . .
H4 H 0.4944 0.0653 0.3010 0.052 Uiso 1 1 calc R . .
C15 C 0.4537(3) 0.2557(3) 0.05916(12) 0.0647(12) Uani 1 1 d . . .
H15 H 0.4217 0.2594 0.0297 0.078 Uiso 1 1 calc R . .
C10 C 0.5272(3) -0.0241(2) 0.40060(11) 0.0433(8) Uani 1 1 d . . .
C11 C 0.5916(3) 0.0171(2) 0.48361(12) 0.0481(9) Uani 1 1 d . . .
H11 H 0.6519 0.0282 0.4728 0.058 Uiso 1 1 calc R . .
C2 C 0.2816(3) 0.02165(19) 0.31308(13) 0.0455(9) Uani 1 1 d . . .
H2 H 0.2409 -0.0178 0.3246 0.055 Uiso 1 1 calc R . .
C9 C 0.5237(3) -0.00895(19) 0.45354(11) 0.0426(8) Uani 1 1 d . . .
C8 C 0.4351(3) -0.0258(2) 0.46879(11) 0.0435(8) Uani 1 1 d . . .
C1 C 0.2479(2) 0.09089(19) 0.29310(13) 0.0471(9) Uani 1 1 d . . .
H1 H 0.1836 0.0973 0.2906 0.057 Uiso 1 1 calc R . .

loop_
_atom_site_aniso_label
_atom_site_aniso_U_11
_atom_site_aniso_U_22
_atom_site_aniso_U_33
_atom_site_aniso_U_23
_atom_site_aniso_U_13
_atom_site_aniso_U_12
Cu1 0.0329(4) 0.0301(3) 0.0428(4) 0.0026(3) 0.0008(3) 0.0036(3)
O3 0.0383(14) 0.0389(11) 0.0460(12) 0.0021(9) 0.0016(11) 0.0021(10)
O4 0.0415(14) 0.0435(11) 0.0429(12) -0.0065(10) -0.0057(11) 0.0082(10)
O2 0.0474(17) 0.099(2) 0.0366(12) -0.0039(13) 0.0057(13) -0.0050(15)
C13 0.0436(19) 0.0307(14) 0.0377(16) 0.0022(13) 0.0014(15) -0.0014(13)
N2 0.0456(18) 0.0422(14) 0.0321(13) 0.0000(11) -0.0017(13) 0.0042(13)
C12 0.036(2) 0.0301(15) 0.0414(18) 0.0046(13) -0.0033(15) 0.0078(14)
O1 0.0481(18) 0.0845(18) 0.0436(13) -0.0038(13) -0.0036(12) -0.0081(15)
N1 0.0414(19) 0.0343(13) 0.0447(15) 0.0055(12) 0.0017(13) 0.0075(12)
C7 0.047(2) 0.0485(18) 0.0366(17) 0.0021(14) -0.0059(16) 0.0002(17)
C5 0.040(2) 0.0413(16) 0.0454(18) 0.0090(14) 0.0026(16) -0.0008(15)
C3 0.041(2) 0.0370(16) 0.0283(14) -0.0025(12) -0.0002(13) 0.0075(14)
C14 0.049(2) 0.058(2) 0.0424(19) 0.0059(15) -0.0104(17) -0.0010(17)
C6 0.050(2) 0.0355(15) 0.0365(16) -0.0004(13) -0.0070(16) 0.0085(15)
C4 0.041(2) 0.0465(18) 0.0413(17) 0.0054(14) -0.0015(16) 0.0047(16)
C15 0.077(3) 0.082(3) 0.0348(18) 0.0047(18) -0.0067(19) -0.009(2)
C10 0.046(2) 0.0500(18) 0.0334(16) 0.0003(14) 0.0001(17) 0.0028(16)
C11 0.040(2) 0.065(2) 0.0391(17) 0.0031(16) 0.0052(16) -0.0003(17)
C2 0.047(2) 0.0362(17) 0.053(2) 0.0066(15) 0.0058(17) 0.0041(15)
C9 0.043(2) 0.0522(19) 0.0321(17) 0.0008(14) -0.0010(15) 0.0002(16)
C8 0.041(2) 0.0527(18) 0.0368(17) 0.0018(14) 0.0013(16) 0.0029(16)
C1 0.038(2) 0.0376(17) 0.066(2) 0.0077(16) 0.0045(18) 0.0066(15)

_geom_special_details            
;
All esds (except the esd in the dihedral angle between two l.s. planes)
are estimated using the full covariance matrix. The cell esds are taken
into account individually in the estimation of esds in distances, angles
and torsion angles; correlations between esds in cell parameters are only
used when they are defined by crystal symmetry. An approximate (isotropic)
treatment of cell esds is used for estimating esds involving l.s. planes.
;

loop_
_geom_bond_atom_site_label_1
_geom_bond_atom_site_label_2
_geom_bond_distance
_geom_bond_site_symmetry_2
_geom_bond_publ_flag
Cu1 O3 1.941(2) . ?
Cu1 O3 1.941(2) 13 ?
Cu1 N1 2.026(2) 13 ?
Cu1 N1 2.026(2) . ?
O3 C12 1.287(4) . ?
O4 C12 1.229(4) . ?
O2 C10 1.202(4) . ?
C13 C13 1.397(7) 6_554 ?
C13 C14 1.397(5) . ?
C13 C12 1.502(4) . ?
N2 C7 1.391(5) . ?
N2 C10 1.391(5) . ?
N2 C6 1.450(4) . ?
O1 C7 1.211(4) . ?
N1 C1 1.325(4) . ?
N1 C5 1.335(4) . ?
C7 C8 1.488(5) . ?
C5 C4 1.374(5) . ?
C5 H5 0.9500 . ?
C3 C2 1.372(5) . ?
C3 C4 1.377(5) . ?
C3 C6 1.513(4) . ?
C14 C15 1.379(5) . ?
C14 H14 0.9500 . ?
C6 H6A 0.9900 . ?
C6 H6B 0.9900 . ?
C4 H4 0.9500 . ?
C15 C15 1.367(9) 6_554 ?
C15 H15 0.9500 . ?
C10 C9 1.502(4) . ?
C11 C9 1.373(5) . ?
C11 C8 1.394(5) 9_656 ?
C11 H11 0.9500 . ?
C2 C1 1.388(5) . ?
C2 H2 0.9500 . ?
C9 C8 1.393(5) . ?
C8 C11 1.394(5) 9_656 ?
C1 H1 0.9500 . ?

loop_
_geom_angle_atom_site_label_1
_geom_angle_atom_site_label_2
_geom_angle_atom_site_label_3
_geom_angle
_geom_angle_site_symmetry_1
_geom_angle_site_symmetry_3
_geom_angle_publ_flag
O3 Cu1 O3 180.0 . 13 ?
O3 Cu1 N1 90.35(10) . 13 ?
O3 Cu1 N1 89.65(10) 13 13 ?
O3 Cu1 N1 89.65(10) . . ?
O3 Cu1 N1 90.35(10) 13 . ?
N1 Cu1 N1 180.00(14) 13 . ?
C12 O3 Cu1 116.3(2) . . ?
C13 C13 C14 119.2(2) 6_554 . ?
C13 C13 C12 122.12(18) 6_554 . ?
C14 C13 C12 118.6(3) . . ?
C7 N2 C10 112.2(3) . . ?
C7 N2 C6 124.1(3) . . ?
C10 N2 C6 123.4(3) . . ?
O4 C12 O3 124.0(3) . . ?
O4 C12 C13 120.9(3) . . ?
O3 C12 C13 115.1(3) . . ?
C1 N1 C5 117.9(3) . . ?
C1 N1 Cu1 121.8(2) . . ?
C5 N1 Cu1 120.3(2) . . ?
O1 C7 N2 125.2(3) . . ?
O1 C7 C8 128.7(3) . . ?
N2 C7 C8 106.1(3) . . ?
N1 C5 C4 122.2(3) . . ?
N1 C5 H5 118.9 . . ?
C4 C5 H5 118.9 . . ?
C2 C3 C4 117.6(3) . . ?
C2 C3 C6 120.0(3) . . ?
C4 C3 C6 122.3(3) . . ?
C15 C14 C13 120.4(4) . . ?
C15 C14 H14 119.8 . . ?
C13 C14 H14 119.8 . . ?
N2 C6 C3 110.6(2) . . ?
N2 C6 H6A 109.5 . . ?
C3 C6 H6A 109.5 . . ?
N2 C6 H6B 109.5 . . ?
C3 C6 H6B 109.5 . . ?
H6A C6 H6B 108.1 . . ?
C5 C4 C3 120.2(3) . . ?
C5 C4 H4 119.9 . . ?
C3 C4 H4 119.9 . . ?
C15 C15 C14 120.3(2) 6_554 . ?
C15 C15 H15 119.8 6_554 . ?
C14 C15 H15 119.8 . . ?
O2 C10 N2 125.4(3) . . ?
O2 C10 C9 128.5(4) . . ?
N2 C10 C9 106.0(3) . . ?
C9 C11 C8 114.5(3) . 9_656 ?
C9 C11 H11 122.7 . . ?
C8 C11 H11 122.7 9_656 . ?
C3 C2 C1 119.2(3) . . ?
C3 C2 H2 120.4 . . ?
C1 C2 H2 120.4 . . ?
C11 C9 C8 123.4(3) . . ?
C11 C9 C10 129.2(4) . . ?
C8 C9 C10 107.4(3) . . ?
C9 C8 C11 122.0(3) . 9_656 ?
C9 C8 C7 108.3(3) . . ?
C11 C8 C7 129.6(3) 9_656 . ?
N1 C1 C2 122.9(3) . . ?
N1 C1 H1 118.6 . . ?
C2 C1 H1 118.6 . . ?

_diffrn_measured_fraction_theta_max 0.978
_diffrn_reflns_theta_full        62.02
_diffrn_measured_fraction_theta_full 0.978
_refine_diff_density_max         0.491
_refine_diff_density_min         -0.271
_refine_diff_density_rms         0.076
