####################################################################### 
# 
# This file contains crystal structure data downloaded from the 
# Cambridge Structural Database (CSD) hosted by the Cambridge 
# Crystallographic Data Centre (CCDC).
# 
# Full information about CCDC data access policies and citation 
# guidelines are available at http://www.ccdc.cam.ac.uk/access/V1 
# 
# Audit and citation data items may have been added by the CCDC. 
# Please retain this information to preserve the provenance of 
# this file and to allow appropriate attribution of the data. 
# 
#######################################################################

data_yz4-66d
_audit_block_doi                 10.5517/ccxm0s9
_database_code_depnum_ccdc_archive 'CCDC 852431'
loop_
_citation_id
_citation_doi
_citation_year
1 10.1002/asia.201201081 2013
_audit_update_record             
;
2011-11-03 deposited with the CCDC.	2024-07-13 downloaded from the CCDC.
;
#TrackingRef 'DMBPY_yz4-66d.cif'


_audit_creation_method           SHELXL-97
_chemical_name_systematic        
;
?
;
_chemical_name_common            ?
_chemical_melting_point          ?
_chemical_formula_moiety         ?
_chemical_formula_sum            'C66 H65 N6 O16.50 Zn3'
_chemical_formula_weight         1402.35

loop_
_atom_type_symbol
_atom_type_description
_atom_type_scat_dispersion_real
_atom_type_scat_dispersion_imag
_atom_type_scat_source
C C 0.0033 0.0016 'International Tables Vol C Tables 4.2.6.8 and 6.1.1.4'
H H 0.0000 0.0000 'International Tables Vol C Tables 4.2.6.8 and 6.1.1.4'
N N 0.0061 0.0033 'International Tables Vol C Tables 4.2.6.8 and 6.1.1.4'
O O 0.0106 0.0060 'International Tables Vol C Tables 4.2.6.8 and 6.1.1.4'
Zn Zn 0.2839 1.4301 'International Tables Vol C Tables 4.2.6.8 and 6.1.1.4'

_symmetry_cell_setting           Orthorhombic
_symmetry_space_group_name_H-M   'P 21/n'

loop_
_symmetry_equiv_pos_as_xyz
'x, y, z'
'-x+1/2, y+1/2, -z+1/2'
'-x, -y, -z'
'x-1/2, -y-1/2, z-1/2'

_cell_length_a                   14.586(2)
_cell_length_b                   18.068(3)
_cell_length_c                   24.846(3)
_cell_angle_alpha                90.00
_cell_angle_beta                 90.000(5)
_cell_angle_gamma                90.00
_cell_volume                     6548.1(16)
_cell_formula_units_Z            4
_cell_measurement_temperature    100(2)
_cell_measurement_reflns_used    9955
_cell_measurement_theta_min      2.43
_cell_measurement_theta_max      29.14

_exptl_crystal_description       lathe
_exptl_crystal_colour            colourless
_exptl_crystal_size_max          0.24
_exptl_crystal_size_mid          0.16
_exptl_crystal_size_min          0.08
_exptl_crystal_density_meas      ?
_exptl_crystal_density_diffrn    1.422
_exptl_crystal_density_method    'not measured'
_exptl_crystal_F_000             2900
_exptl_absorpt_coefficient_mu    1.163
_exptl_absorpt_correction_type   multi-scan
_exptl_absorpt_correction_T_min  .645
_exptl_absorpt_correction_T_max  .778
_exptl_absorpt_process_details   'Bruker SAINT (SADABS)'

_exptl_special_details           
;
Crystal had pseudo-merohedral twinning.
;

_diffrn_ambient_temperature      100(2)
_diffrn_radiation_wavelength     0.71073
_diffrn_radiation_type           MoK\a
_diffrn_radiation_source         'fine-focus sealed tube'
_diffrn_radiation_monochromator  graphite
_diffrn_measurement_device_type  'Bruker APEX-II CCD'
_diffrn_measurement_method       '\f and \w scans'
_diffrn_detector_area_resol_mean ?
_diffrn_reflns_number            68108
_diffrn_reflns_av_R_equivalents  0.0465
_diffrn_reflns_av_sigmaI/netI    0.0447
_diffrn_reflns_limit_h_min       -19
_diffrn_reflns_limit_h_max       19
_diffrn_reflns_limit_k_min       -24
_diffrn_reflns_limit_k_max       24
_diffrn_reflns_limit_l_min       -33
_diffrn_reflns_limit_l_max       33
_diffrn_reflns_theta_min         1.97
_diffrn_reflns_theta_max         28.70
_reflns_number_total             16880
_reflns_number_gt                13581
_reflns_threshold_expression     >2sigma(I)

_computing_data_collection       'Bruker APEX2'
_computing_cell_refinement       'Bruker SAINT'
_computing_data_reduction        'Bruker SAINT'
_computing_structure_solution    'SHELXS-97 (Sheldrick, 2008)'
_computing_structure_refinement  'SHELXL-97 (Sheldrick, 2008)'
_computing_molecular_graphics    'Bruker SHELXTL'
_computing_publication_material  'Bruker SHELXTL'

_refine_special_details          
;
Refinement of F^2^ against ALL reflections. The weighted R-factor wR and
goodness of fit S are based on F^2^, conventional R-factors R are based
on F, with F set to zero for negative F^2^. The threshold expression of
F^2^ > 2sigma(F^2^) is used only for calculating R-factors(gt) etc. and is
not relevant to the choice of reflections for refinement. R-factors based
on F^2^ are statistically about twice as large as those based on F, and R-
factors based on ALL data will be even larger.

Both ordered and disordered solvates were found.

The SHELXL restraints used were

SIMU .02
DELU .01
ISOR .02
FLAT .005 O13 > C55
FLAT .005 O14 > C58
FLAT .005 O15A > C61A
FLAT .005 O15B > C61B
FLAT .005 O16 > C63
DFIX 1.23 .005 O13 C53 O14 C56 O15A C59A O15B C59B O16 C62
DFIX 1.32 .005 N3 C53 N4 C56 N5A C59A N5B C59B N6 C62
DFIX 1.44 .005 N3 C54 N3 C55 N6 C63 N6 C64
DFIX 1.44 .005 N4 C57 N4 C58 N5A C60A N5A C61A N5B C60B N5B C61B
DFIX 2.40 .005 C53 C54 C56 C57 C59A C60A C59B C60B C62 C63
DFIX 2.46 .005 C54 C55 C57 C58 C60A C61A C60B C61B C63 C64
DFIX 2.76 .005 O13 C54 O14 C57 O15A C60A O15B C60B O16 C63
DFIX 3.56 .005 O13 C55 O14 C58 O15A C61A O15B C61B O16 C64

;

_refine_ls_structure_factor_coef Fsqd
_refine_ls_matrix_type           full
_refine_ls_weighting_scheme      calc
_refine_ls_weighting_details     
'calc w=1/[\s^2^(Fo^2^)+(0.1100P)^2^+17.0000P] where P=(Fo^2^+2Fc^2^)/3'
_atom_sites_solution_primary     direct
_atom_sites_solution_secondary   difmap
_atom_sites_solution_hydrogens   geom
_refine_ls_hydrogen_treatment    constr
_refine_ls_extinction_method     none
_refine_ls_extinction_coef       ?
_refine_ls_number_reflns         16880
_refine_ls_number_parameters     873
_refine_ls_number_restraints     1490
_refine_ls_R_factor_all          0.0873
_refine_ls_R_factor_gt           0.0698
_refine_ls_wR_factor_ref         0.1998
_refine_ls_wR_factor_gt          0.1887
_refine_ls_goodness_of_fit_ref   1.066
_refine_ls_restrained_S_all      1.045
_refine_ls_shift/su_max          0.055
_refine_ls_shift/su_mean         0.002

loop_
_atom_site_label
_atom_site_type_symbol
_atom_site_fract_x
_atom_site_fract_y
_atom_site_fract_z
_atom_site_U_iso_or_equiv
_atom_site_adp_type
_atom_site_occupancy
_atom_site_symmetry_multiplicity
_atom_site_calc_flag
_atom_site_refinement_flags
_atom_site_disorder_assembly
_atom_site_disorder_group
Zn1 Zn 0.46049(4) 0.93962(3) 0.14407(3) 0.01444(12) Uani 1 1 d U . .
Zn2 Zn 0.49629(4) 0.74682(3) 0.14498(2) 0.01177(11) Uani 1 1 d U . .
Zn3 Zn 0.53416(4) 0.55273(3) 0.14361(3) 0.01476(13) Uani 1 1 d U . .
O1 O 0.3304(3) 0.9146(2) 0.1511(2) 0.0340(10) Uani 1 1 d U . .
O2 O 0.3824(3) 0.8083(3) 0.12049(18) 0.0357(10) Uani 1 1 d U . .
O3 O 0.6639(3) 0.5783(2) 0.1424(2) 0.0307(9) Uani 1 1 d U . .
O4 O 0.6144(3) 0.6889(2) 0.16666(19) 0.0334(9) Uani 1 1 d U . .
O5 O 0.5261(3) 0.9251(2) 0.07734(16) 0.0231(8) Uani 1 1 d U . .
O6 O 0.5841(3) 0.8160(2) 0.10216(17) 0.0269(8) Uani 1 1 d U . .
O7 O 0.4796(3) 0.5703(2) 0.21279(17) 0.0263(9) Uani 1 1 d U . .
O8 O 0.4116(3) 0.6752(2) 0.18780(17) 0.0269(8) Uani 1 1 d U . .
O9 O 0.5320(4) 0.9220(2) 0.20932(16) 0.0283(9) Uani 1 1 d U . .
O10 O 0.5056(3) 0.8018(2) 0.21767(17) 0.0341(10) Uani 1 1 d U . .
O11 O 0.4582(3) 0.5682(2) 0.08083(16) 0.0247(9) Uani 1 1 d U . .
O12 O 0.4832(3) 0.6890(2) 0.07465(16) 0.0332(9) Uani 1 1 d U . .
N1 N 0.4670(3) 1.05309(19) 0.1436(2) 0.0218(9) Uani 1 1 d U . .
N2 N 0.5262(3) 0.4392(2) 0.1432(2) 0.0208(8) Uani 1 1 d U . .
C1 C 0.5153(4) 1.0877(3) 0.1054(2) 0.0246(11) Uani 1 1 d U . .
H1 H 0.5418 1.0590 0.0774 0.030 Uiso 1 1 calc R . .
C2 C 0.5284(5) 1.1640(3) 0.1049(3) 0.0288(12) Uani 1 1 d U . .
H2 H 0.5622 1.1873 0.0769 0.035 Uiso 1 1 calc R . .
C3 C 0.4907(4) 1.2047(2) 0.1463(3) 0.0235(10) Uani 1 1 d U . .
C4 C 0.4405(5) 1.1696(3) 0.1861(3) 0.0368(16) Uani 1 1 d U . .
C4M C 0.3931(8) 1.2089(5) 0.2316(4) 0.077(3) Uani 1 1 d U . .
H4M1 H 0.3486 1.2443 0.2169 0.115 Uiso 1 1 calc R . .
H4M2 H 0.4385 1.2354 0.2533 0.115 Uiso 1 1 calc R . .
H4M3 H 0.3611 1.1727 0.2541 0.115 Uiso 1 1 calc R . .
C5 C 0.4321(5) 1.0936(3) 0.1827(3) 0.0343(15) Uani 1 1 d U . .
H5 H 0.3991 1.0689 0.2103 0.041 Uiso 1 1 calc R . .
C6 C 0.4793(4) 0.4045(3) 0.1039(3) 0.0276(12) Uani 1 1 d U . .
H6 H 0.4547 0.4325 0.0750 0.033 Uiso 1 1 calc R . .
C7 C 0.4665(5) 0.3289(3) 0.1051(3) 0.0302(13) Uani 1 1 d U . .
H7 H 0.4314 0.3054 0.0779 0.036 Uiso 1 1 calc R . .
C8 C 0.5057(4) 0.2866(3) 0.1469(3) 0.0261(11) Uani 1 1 d U . .
C9 C 0.5605(5) 0.3230(3) 0.1847(3) 0.0361(15) Uani 1 1 d U . .
C9M C 0.6184(7) 0.2838(4) 0.2255(4) 0.066(3) Uani 1 1 d U . .
H9M1 H 0.6087 0.2303 0.2225 0.099 Uiso 1 1 calc R . .
H9M2 H 0.6014 0.3004 0.2617 0.099 Uiso 1 1 calc R . .
H9M3 H 0.6832 0.2951 0.2189 0.099 Uiso 1 1 calc R . .
C10 C 0.5666(5) 0.3993(3) 0.1815(3) 0.0302(13) Uani 1 1 d U . .
H10 H 0.6014 0.4246 0.2081 0.036 Uiso 1 1 calc R . .
C11 C 0.3192(4) 0.8483(3) 0.1382(3) 0.0281(12) Uani 1 1 d U . .
C12 C 0.2241(4) 0.8189(3) 0.1405(4) 0.0337(13) Uani 1 1 d U . .
C13 C 0.1513(5) 0.8626(3) 0.1593(3) 0.0400(17) Uani 1 1 d U . .
H13 H 0.1629 0.9110 0.1725 0.048 Uiso 1 1 calc R . .
C14 C 0.0602(4) 0.8346(3) 0.1584(3) 0.0394(17) Uani 1 1 d U . .
H14 H 0.0109 0.8638 0.1717 0.047 Uiso 1 1 calc R . .
C15 C 0.0437(4) 0.7635(3) 0.1378(4) 0.0418(17) Uani 1 1 d U . .
C16 C 0.1179(5) 0.7198(4) 0.1203(4) 0.052(2) Uani 1 1 d U . .
H16 H 0.1073 0.6712 0.1072 0.063 Uiso 1 1 calc R . .
C17 C 0.2060(5) 0.7475(4) 0.1222(4) 0.045(2) Uani 1 1 d U . .
H17 H 0.2554 0.7171 0.1107 0.054 Uiso 1 1 calc R . .
C18 C 0.9484(4) 0.7338(3) 0.1397(4) 0.0382(15) Uani 1 1 d U . .
C19 C 0.9336(4) 0.6580(3) 0.1460(4) 0.0427(16) Uani 1 1 d U . .
H19 H 0.9845 0.6253 0.1479 0.051 Uiso 1 1 calc R . .
C20 C 0.8464(4) 0.6302(3) 0.1496(4) 0.0369(15) Uani 1 1 d U . .
H20 H 0.8373 0.5787 0.1550 0.044 Uiso 1 1 calc R . .
C21 C 0.7724(4) 0.6763(3) 0.1454(3) 0.0297(12) Uani 1 1 d U . .
C22 C 0.7851(4) 0.7511(3) 0.1403(4) 0.0410(16) Uani 1 1 d U . .
H22 H 0.7339 0.7836 0.1396 0.049 Uiso 1 1 calc R . .
C23 C 0.8745(4) 0.7792(3) 0.1362(4) 0.0451(18) Uani 1 1 d U . .
H23 H 0.8835 0.8308 0.1309 0.054 Uiso 1 1 calc R . .
C24 C 0.6763(4) 0.6461(3) 0.1511(3) 0.0254(12) Uani 1 1 d U . .
C25 C 0.5753(5) 0.8665(3) 0.0698(3) 0.0270(12) Uani 1 1 d U . .
C26 C 0.6341(5) 0.8668(3) 0.0211(3) 0.0302(14) Uani 1 1 d U . .
C27 C 0.6487(5) 0.9317(3) -0.0084(2) 0.0235(12) Uani 1 1 d U . .
H27 H 0.6209 0.9767 0.0028 0.028 Uiso 1 1 calc R . .
C28 C 0.7033(5) 0.9310(3) -0.0537(2) 0.0241(12) Uani 1 1 d U . .
H28 H 0.7144 0.9759 -0.0725 0.029 Uiso 1 1 calc R . .
C29 C 0.7421(5) 0.8657(3) -0.0724(3) 0.0299(14) Uani 1 1 d U . .
C30 C 0.7254(6) 0.7992(4) -0.0445(3) 0.0438(18) Uani 1 1 d U . .
H30 H 0.7507 0.7539 -0.0570 0.053 Uiso 1 1 calc R . .
C31 C 0.6708(6) 0.8009(4) 0.0023(3) 0.0442(18) Uani 1 1 d U . .
H31 H 0.6589 0.7562 0.0212 0.053 Uiso 1 1 calc R . .
C32 C 0.2967(6) 0.6349(3) 0.3769(3) 0.0357(16) Uani 1 1 d U . .
C33 C 0.3426(6) 0.5718(3) 0.3593(3) 0.0427(16) Uani 1 1 d U . .
H33 H 0.3404 0.5284 0.3809 0.051 Uiso 1 1 calc R . .
C34 C 0.3910(5) 0.5699(3) 0.3117(2) 0.0342(14) Uani 1 1 d U . .
H34 H 0.4246 0.5270 0.3018 0.041 Uiso 1 1 calc R . .
C35 C 0.3897(5) 0.6314(3) 0.2788(3) 0.0318(14) Uani 1 1 d U . .
C36 C 0.3433(6) 0.6944(4) 0.2940(3) 0.0480(19) Uani 1 1 d U . .
H36 H 0.3406 0.7359 0.2706 0.058 Uiso 1 1 calc R . .
C37 C 0.3012(7) 0.6966(4) 0.3431(3) 0.057(2) Uani 1 1 d U . .
H37 H 0.2741 0.7417 0.3547 0.069 Uiso 1 1 calc R . .
C38 C 0.4332(5) 0.6282(3) 0.2229(3) 0.0307(14) Uani 1 1 d U . .
C39 C 0.5438(5) 0.8618(3) 0.2314(2) 0.0300(13) Uani 1 1 d U . .
C40 C 0.6009(5) 0.8623(3) 0.2799(3) 0.0279(13) Uani 1 1 d U . .
C41 C 0.6502(6) 0.9216(4) 0.2941(3) 0.0458(18) Uani 1 1 d U . .
H41 H 0.6478 0.9650 0.2726 0.055 Uiso 1 1 calc R . .
C42 C 0.7059(7) 0.9206(4) 0.3408(3) 0.050(2) Uani 1 1 d U . .
H42 H 0.7437 0.9621 0.3486 0.060 Uiso 1 1 calc R . .
C43 C 0.7063(5) 0.8617(3) 0.3745(3) 0.0279(13) Uani 1 1 d U . .
C44 C 0.6535(5) 0.8004(3) 0.3628(3) 0.0328(13) Uani 1 1 d U . .
H44 H 0.6528 0.7591 0.3865 0.039 Uiso 1 1 calc R . .
C45 C 0.6004(5) 0.7996(3) 0.3151(3) 0.0334(13) Uani 1 1 d U . .
H45 H 0.5643 0.7575 0.3065 0.040 Uiso 1 1 calc R . .
C46 C 0.2636(5) 0.6363(3) -0.0761(3) 0.0298(13) Uani 1 1 d U . .
C47 C 0.2927(4) 0.5689(3) -0.0557(2) 0.0249(12) Uani 1 1 d U . .
H47 H 0.2742 0.5240 -0.0724 0.030 Uiso 1 1 calc R . .
C48 C 0.3494(5) 0.5676(3) -0.0104(2) 0.0233(12) Uani 1 1 d U . .
H48 H 0.3702 0.5213 0.0031 0.028 Uiso 1 1 calc R . .
C49 C 0.3756(5) 0.6311(3) 0.0150(2) 0.0294(13) Uani 1 1 d U . .
C50 C 0.3482(6) 0.6990(4) -0.0063(3) 0.0418(17) Uani 1 1 d U . .
H50 H 0.3683 0.7437 0.0100 0.050 Uiso 1 1 calc R . .
C51 C 0.2921(5) 0.7015(3) -0.0510(3) 0.0342(14) Uani 1 1 d U . .
H51 H 0.2728 0.7480 -0.0649 0.041 Uiso 1 1 calc R . .
C52 C 0.4392(5) 0.6294(3) 0.0624(2) 0.0315(15) Uani 1 1 d U . .
O13 O 0.4011(3) 0.5417(3) 0.6877(2) 0.0632(17) Uani 1 1 d DU . .
C53 C 0.3585(3) 0.4850(3) 0.6986(2) 0.0497(19) Uani 1 1 d DU . .
H53 H 0.3846 0.4521 0.7242 0.060 Uiso 1 1 calc R . .
N3 N 0.2790(3) 0.4670(2) 0.67726(18) 0.0462(15) Uani 1 1 d DU . .
C54 C 0.2353(4) 0.5147(4) 0.6380(3) 0.060(2) Uani 1 1 d DU . .
H54A H 0.1772 0.4925 0.6265 0.090 Uiso 1 1 calc R . .
H54B H 0.2756 0.5206 0.6068 0.090 Uiso 1 1 calc R . .
H54C H 0.2234 0.5632 0.6542 0.090 Uiso 1 1 calc R . .
C55 C 0.2316(5) 0.4001(3) 0.6914(3) 0.067(3) Uani 1 1 d DU . .
H55A H 0.1741 0.3970 0.6711 0.100 Uiso 1 1 calc R . .
H55B H 0.2183 0.4002 0.7300 0.100 Uiso 1 1 calc R . .
H55C H 0.2702 0.3573 0.6826 0.100 Uiso 1 1 calc R . .
O14 O 0.7397(11) 0.6190(8) 0.4608(7) 0.227(7) Uani 1 1 d DU . .
C56 C 0.6730(13) 0.6269(7) 0.4905(5) 0.261(9) Uani 1 1 d DU . .
H56 H 0.6840 0.6370 0.5275 0.314 Uiso 1 1 calc R . .
N4 N 0.5873(12) 0.6221(6) 0.4743(6) 0.261(8) Uani 1 1 d DU . .
C57 C 0.5655(12) 0.6068(14) 0.4188(7) 0.239(9) Uani 1 1 d DU . .
H57A H 0.4988 0.6049 0.4143 0.358 Uiso 1 1 calc R . .
H57B H 0.5922 0.5591 0.4084 0.358 Uiso 1 1 calc R . .
H57C H 0.5907 0.6460 0.3959 0.358 Uiso 1 1 calc R . .
C58 C 0.5118(15) 0.6317(14) 0.5109(9) 0.307(12) Uani 1 1 d DU . .
H58A H 0.4539 0.6277 0.4911 0.460 Uiso 1 1 calc R . .
H58B H 0.5158 0.6807 0.5278 0.460 Uiso 1 1 calc R . .
H58C H 0.5142 0.5934 0.5388 0.460 Uiso 1 1 calc R . .
O15A O 0.4360(9) 1.0348(6) 0.4179(5) 0.091(4) Uani 0.589(11) 1 d PDU A 1
C59A C 0.4022(9) 0.9980(6) 0.4546(5) 0.120(5) Uani 0.589(11) 1 d PDU A 1
H59A H 0.3605 1.0220 0.4782 0.144 Uiso 0.589(11) 1 calc PR A 1
N5A N 0.4203(10) 0.9273(6) 0.4631(5) 0.121(4) Uani 0.589(11) 1 d PDU A 1
C60A C 0.4828(18) 0.8875(8) 0.4289(10) 0.137(7) Uani 0.589(11) 1 d PDU A 1
H60A H 0.4876 0.8362 0.4413 0.205 Uiso 0.589(11) 1 calc PR A 1
H60B H 0.5434 0.9110 0.4304 0.205 Uiso 0.589(11) 1 calc PR A 1
H60C H 0.4601 0.8884 0.3918 0.205 Uiso 0.589(11) 1 calc PR A 1
C61A C 0.3788(17) 0.8868(10) 0.5066(8) 0.133(7) Uani 0.589(11) 1 d PDU A 1
H61A H 0.4009 0.8356 0.5063 0.199 Uiso 0.589(11) 1 calc PR A 1
H61B H 0.3120 0.8872 0.5023 0.199 Uiso 0.589(11) 1 calc PR A 1
H61C H 0.3950 0.9101 0.5410 0.199 Uiso 0.589(11) 1 calc PR A 1
O15B O 0.3346(19) 0.9278(17) 0.5280(11) 0.197(11) Uani 0.411(11) 1 d PDU A 2
C59B C 0.3767(16) 0.9590(12) 0.4916(10) 0.126(6) Uani 0.411(11) 1 d PDU A 2
H59B H 0.3605 1.0086 0.4832 0.151 Uiso 0.411(11) 1 calc PR A 2
N5B N 0.4430(13) 0.9278(9) 0.4633(7) 0.123(5) Uani 0.411(11) 1 d PDU A 2
C60B C 0.471(2) 0.8529(11) 0.4737(13) 0.106(7) Uani 0.411(11) 1 d PDU A 2
H60D H 0.5131 0.8365 0.4453 0.159 Uiso 0.411(11) 1 calc PR A 2
H60E H 0.4170 0.8206 0.4742 0.159 Uiso 0.411(11) 1 calc PR A 2
H60F H 0.5020 0.8504 0.5086 0.159 Uiso 0.411(11) 1 calc PR A 2
C61B C 0.490(2) 0.9672(14) 0.4210(10) 0.104(7) Uani 0.411(11) 1 d PDU A 2
H61D H 0.5296 0.9331 0.4014 0.157 Uiso 0.411(11) 1 calc PR A 2
H61E H 0.5265 1.0071 0.4367 0.157 Uiso 0.411(11) 1 calc PR A 2
H61F H 0.4444 0.9884 0.3962 0.157 Uiso 0.411(11) 1 calc PR A 2
O16 O 0.2555(7) 0.8723(4) 0.3943(3) 0.129(4) Uani 1 1 d DU . .
C62 C 0.2408(5) 0.9357(4) 0.3769(3) 0.086(3) Uani 1 1 d DU . .
H62 H 0.1993 0.9657 0.3966 0.103 Uiso 1 1 calc R . .
N6 N 0.2784(5) 0.9652(3) 0.3329(3) 0.064(2) Uani 1 1 d DU . .
C63 C 0.3415(10) 0.9225(6) 0.3015(4) 0.144(6) Uani 1 1 d DU . .
H63A H 0.3619 0.9517 0.2705 0.216 Uiso 1 1 calc R . .
H63B H 0.3112 0.8773 0.2889 0.216 Uiso 1 1 calc R . .
H63C H 0.3946 0.9093 0.3237 0.216 Uiso 1 1 calc R . .
C64 C 0.2734(10) 1.0433(4) 0.3247(5) 0.118(5) Uani 1 1 d DU . .
H64A H 0.3035 1.0560 0.2907 0.177 Uiso 1 1 calc R . .
H64B H 0.3044 1.0687 0.3544 0.177 Uiso 1 1 calc R . .
H64C H 0.2091 1.0587 0.3234 0.177 Uiso 1 1 calc R . .
O1W O 0.8663(11) 0.6143(9) 0.4977(7) 0.081(4) Uiso 0.50 1 d P . .
H1WA H 0.8372 0.6631 0.5075 0.122 Uiso 0.50 1 d P . .
H1WB H 0.9513 0.6163 0.5115 0.122 Uiso 0.50 1 d P . .

loop_
_atom_site_aniso_label
_atom_site_aniso_U_11
_atom_site_aniso_U_22
_atom_site_aniso_U_33
_atom_site_aniso_U_23
_atom_site_aniso_U_13
_atom_site_aniso_U_12
Zn1 0.0172(3) 0.0077(2) 0.0184(3) -0.0015(2) -0.0007(3) -0.00161(18)
Zn2 0.0155(2) 0.00612(19) 0.0137(2) -0.0013(2) -0.0006(3) -0.00086(1