
#######################################################################
#
#                 Cambridge Crystallographic Data Centre
#                                CCDC
#
#######################################################################
#
# If this CIF has been generated from an entry in the Cambridge
# Structural Database, then it will include bibliographic, chemical,
# crystal, experimental, refinement or atomic coordinate data resulting
# from the CCDC's data processing and validation procedures.
#
#######################################################################

data_CSD_CIF_THALID11
_audit_creation_date 2007-03-22
_audit_creation_method CSD-ConQuest-V1
_database_code_CSD THALID11
_database_code_depnum_ccdc_archive 'CCDC 628395'
_chemical_formula_sum 'C13 H10 N2 O4'
_chemical_formula_moiety
;
C13 H10 N2 O4
;
_journal_coden_Cambridge 1003
_journal_volume 24
_journal_year 1994
_journal_page_first 95
_journal_name_full 'J.Chem.Cryst. '
loop_
_publ_author_name
"M.R.Caira"
"S.A.Botha"
"D.R.Flanagan"
_chemical_name_systematic
;
rac-2-(2,6-Dioxo-3-piperidinyl)-1H-isoindole-1,3(2H)-dione
;
_chemical_name_common
;
Thalidomide; Contergan; Distaval; K-17; Sedalis; Softenon; Talimol; Thaled; 
Thalomid; DrugBank: DB01041; Teaching Subset: Fundamental Chemistry, Drug 
Molecules
;
_chemical_melting_point 551.6
_cell_volume   2296.073
_exptl_crystal_density_diffrn 1.494
_exptl_special_details
;
beta polymorph
teratogenic agent
Referred to as polymorph 1 by authors

;
_exptl_crystal_preparation 'DMF/ethanol'
_diffrn_ambient_temperature ?
_diffrn_special_details
;
The study was carried out at room temperature,in the range 283-303K

;
#These two values have been output from a single CSD field.
_refine_ls_R_factor_gt 0.051
_refine_ls_wR_factor_gt 0.051
loop_
_citation_database_id_CSD
_citation_special_details
DATHAL "is a stereoisomer of this entry"
ZORBEP "is a stereoisomer of this entry"
_symmetry_cell_setting monoclinic
_symmetry_space_group_name_H-M 'C 2/c'
_symmetry_Int_Tables_number 15
loop_
_symmetry_equiv_pos_site_id
_symmetry_equiv_pos_as_xyz
1 x,y,z
2 -x,y,1/2-z
3 1/2+x,1/2+y,z
4 1/2-x,1/2+y,1/2-z
5 -x,-y,-z
6 x,-y,-1/2+z
7 -1/2-x,-1/2-y,-z
8 -1/2+x,-1/2-y,-1/2+z
_cell_length_a 20.679(5)
_cell_length_b 8.042(2)
_cell_length_c 14.162(5)
_cell_angle_alpha 90
_cell_angle_beta 102.86(3)
_cell_angle_gamma 90
_cell_formula_units_Z 8
loop_
_atom_type_symbol
_atom_type_radius_bond
C 0.68
H 0.23
N 0.68
O 0.68
loop_
_atom_site_label
_atom_site_type_symbol
_atom_site_fract_x
_atom_site_fract_y
_atom_site_fract_z
C1 C 0.0078(1) 0.0865(3) 0.3748(2)
C2 C 0.0495(1) -0.0458(3) 0.3695(2)
C3 C 0.0289(1) -0.2080(3) 0.3741(2)
C4 C -0.0358(1) -0.2330(4) 0.3823(2)
C5 C -0.0775(1) -0.1010(4) 0.3861(2)
C6 C -0.0562(1) 0.0619(3) 0.3831(2)
C7 C 0.0461(1) 0.2420(3) 0.3714(2)
C8 C 0.1151(1) 0.0192(3) 0.3621(2)
C9 C 0.1644(1) 0.3012(3) 0.3586(2)
C10 C 0.1863(1) 0.3890(3) 0.4558(2)
C11 C 0.2427(1) 0.5989(3) 0.3755(2)
C12 C 0.2131(1) 0.5274(4) 0.2787(2)
C13 C 0.1518(1) 0.4219(3) 0.2753(2)
N1 N 0.1091(1) 0.1910(3) 0.3616(2)
N2 N 0.2229(1) 0.5305(3) 0.4537(2)
O1 O 0.0291(1) 0.3836(2) 0.3767(2)
O2 O 0.1650(1) -0.0560(2) 0.3571(1)
O3 O 0.1773(1) 0.3331(3) 0.5305(1)
O4 O 0.2834(1) 0.7095(2) 0.3883(1)
H1 H 0.05960 -0.30310 0.37160
H2 H -0.05280 -0.34890 0.38510
H3 H -0.12410 -0.12370 0.39130
H4 H -0.08620 0.15800 0.38680
H5 H 0.20150 0.23030 0.34680
H6 H 0.20160 0.62110 0.23150
H7 H 0.24710 0.45470 0.25930
H8 H 0.13990 0.36020 0.21250
H9 H 0.11430 0.49630 0.28160
H10 H 0.2407(16) 0.5756(38) 0.5149(24)
#END
