
#######################################################################
#
#                 Cambridge Crystallographic Data Centre
#                                CCDC
#
#######################################################################
#
# If this CIF has been generated from an entry in the Cambridge
# Structural Database, then it will include bibliographic, chemical,
# crystal, experimental, refinement or atomic coordinate data resulting
# from the CCDC's data processing and validation procedures.
#
#######################################################################

data_CSD_CIF_THALID10
_audit_creation_date 1971-12-31
_audit_creation_method CSD-ConQuest-V1
_database_code_CSD THALID10
_database_code_depnum_ccdc_archive 'CCDC 1270380'
_chemical_formula_sum 'C13 H10 N2 O4'
_chemical_formula_moiety
;
C13 H10 N2 O4
;
_journal_coden_Cambridge 88
_journal_year 1971
_journal_page_first 1073
_journal_name_full 'J.Chem.Soc.B '
loop_
_publ_author_name
"F.H.Allen"
"J.Trotter"
_chemical_name_systematic
;
rac-2-(2,6-Dioxo-3-piperidinyl)-1H-isoindole-1,3(2H)-dione
;
_chemical_name_common
;
Thalidomide; Contergan; Distaval; K-17; Sedalis; Softenon; Talimol; Thaled; 
Thalomid; DrugBank: DB01041; PDB Chemical Component code: EF2; Teaching 
Subset: Fundamental Chemistry, Drug Molecules
;
_chemical_melting_point 542
_cell_volume   1203.050
_exptl_crystal_density_diffrn 1.426
_exptl_special_details
;
Melting point range 542-544K
alpha polymorph
teratogenic agent

;
_diffrn_ambient_temperature ?
_diffrn_special_details
;
The study was carried out at room temperature,in the range 283-303K

;
#These two values have been output from a single CSD field.
_refine_ls_R_factor_gt 0.053
_refine_ls_wR_factor_gt 0.053
loop_
_citation_database_id_CSD
_citation_special_details
DATHAL "is a stereoisomer of this entry"
ZORBEP "is a stereoisomer of this entry"
_symmetry_cell_setting monoclinic
_symmetry_space_group_name_H-M 'P 21/n'
_symmetry_Int_Tables_number 14
loop_
_symmetry_equiv_pos_site_id
_symmetry_equiv_pos_as_xyz
1 x,y,z
2 1/2-x,1/2+y,1/2-z
3 -x,-y,-z
4 -1/2+x,-1/2-y,-1/2+z
_cell_length_a 8.233(1)
_cell_length_b 10.070(2)
_cell_length_c 14.865(2)
_cell_angle_alpha 90
_cell_angle_beta 102.53(2)
_cell_angle_gamma 90
_cell_formula_units_Z 4
loop_
_atom_type_symbol
_atom_type_radius_bond
C 0.68
H 0.20
N 0.68
O 0.68
loop_
_atom_site_label
_atom_site_type_symbol
_atom_site_fract_x
_atom_site_fract_y
_atom_site_fract_z
C1 C -0.14240 0.18250 0.09440
C2 C 0.21760 0.13110 0.34010
C3 C 0.51830 0.14980 0.40450
C4 C 0.53490 0.25070 0.33270
C5 C 0.39280 0.25160 0.24910
C6 C -0.18690 0.29850 0.13190
C7 C -0.34240 0.35390 0.10200
C8 C -0.45240 0.28710 0.03320
C9 C -0.40730 0.16980 -0.00390
C10 C -0.25120 0.11640 0.02630
C11 C 0.03140 0.15190 0.14240
C12 C -0.04660 0.34290 0.20600
C13 C 0.22980 0.25080 0.27950
H1 H 0.64400 0.23690 0.31760
H2 H 0.53570 0.33400 0.36750
H3 H 0.39400 0.33610 0.21400
H4 H 0.40120 0.15990 0.20650
H5 H 0.35500 0.03960 0.43970
H6 H -0.36930 0.43890 0.12960
H7 H -0.56290 0.32790 0.00940
H8 H -0.49470 0.12930 -0.05260
H9 H -0.21380 0.04720 0.00180
H10 H 0.22900 0.33770 0.31650
N1 N 0.08230 0.25410 0.20510
N2 N 0.36310 0.09600 0.39970
O1 O 0.11610 0.05710 0.13270
O2 O -0.03960 0.43510 0.25890
O3 O 0.08910 0.07410 0.34030
O4 O 0.63420 0.11580 0.46490
#END
