
#######################################################################
#
#                 Cambridge Crystallographic Data Centre
#                                CCDC
#
#######################################################################
#
# If this CIF has been generated from an entry in the Cambridge
# Structural Database, then it will include bibliographic, chemical,
# crystal, experimental, refinement or atomic coordinate data resulting
# from the CCDC's data processing and validation procedures.
#
#######################################################################

data_CSD_CIF_THEBPI01
_audit_creation_date 1980-03-07
_audit_creation_method CSD-ConQuest-V1
_database_code_CSD THEBPI01
_database_code_depnum_ccdc_archive 'CCDC 1270449'
_chemical_formula_sum 'C7 H9 I4 N4 O2'
_chemical_formula_moiety
;
I3 1-,0.5(I2),C7 H9 N4 O2 1+
;
_journal_coden_Cambridge 152
_journal_volume 291
_journal_year 1979
_journal_page_first 199
_journal_name_full 'Philos.Trans.R.Soc.London,Ser.A '
loop_
_publ_author_name
"F.H.Herbstein"
"M.Kapon"
_chemical_name_systematic
;
Theobrominium tri-iodide hemikis(iodine)
;
_chemical_name_common
;
3,7-Dimethyl-purine-2,6-dione tri-iodide hemikis(iodine); Teaching Subset: 
Drug Molecules
;
_chemical_melting_point 441
_cell_volume   1539.554
_exptl_crystal_density_diffrn 2.97
_exptl_special_details
;
The z-coordinate of C8 should be 0.647, not 0.373

;
_diffrn_ambient_temperature ?
_diffrn_special_details
;
The study was carried out at room temperature,in the range 283-303K

;
#These two values have been output from a single CSD field.
_refine_ls_R_factor_gt 0.111
_refine_ls_wR_factor_gt 0.111
_symmetry_cell_setting triclinic
_symmetry_space_group_name_H-M 'P -1'
_symmetry_Int_Tables_number 2
loop_
_symmetry_equiv_pos_site_id
_symmetry_equiv_pos_as_xyz
1 x,y,z
2 -x,-y,-z
_cell_length_a 14.38(1)
_cell_length_b 14.07(1)
_cell_length_c 7.75(1)
_cell_angle_alpha 91.2(1)
_cell_angle_beta 100.8(1)
_cell_angle_gamma 91.0(1)
_cell_formula_units_Z 4
loop_
_atom_type_symbol
_atom_type_radius_bond
C 0.68
I 1.40
N 0.68
O 0.68
loop_
_atom_site_label
_atom_site_type_symbol
_atom_site_fract_x
_atom_site_fract_y
_atom_site_fract_z
I1 I 0.59550 -0.14960 -0.22460
I2 I 0.41380 -0.23650 -0.19970
I3 I 0.22480 -0.31380 -0.18540
I4 I 0.17780 -0.08720 -0.06360
I5 I 0.12050 0.08720 0.04130
I6 I 0.03700 0.29250 0.16570
I7 I 0.22040 0.37750 0.09620
I8 I 0.39440 0.45980 0.04720
N1 N 0.47000 0.38000 0.57800
C1 C 0.38500 0.42400 0.55500
N2 N 0.30800 0.37700 0.59400
C2 C 0.31900 0.28600 0.64500
C3 C 0.40700 0.24200 0.68500
C4 C 0.48900 0.29000 0.65000
N3 N 0.38800 0.15100 0.72500
C5 C 0.29600 0.14000 0.64700
N4 N 0.25300 0.22000 0.68200
C6 C 0.21700 0.42700 0.59200
C7 C 0.45600 0.07900 0.76900
O1 O 0.38200 0.50700 0.51100
O2 O 0.56700 0.25500 0.67000
N5 N -0.02900 0.12100 0.57500
C8 C -0.11600 0.07000 0.55500
N6 N -0.19000 0.12000 0.57800
C9 C -0.18200 0.21300 0.63700
C10 C -0.09600 0.26400 0.65400
C11 C -0.01300 0.21500 0.63600
N7 N -0.11300 0.35100 0.70400
C12 C -0.20300 0.35100 0.70800
N8 N -0.25000 0.27500 0.67000
C13 C -0.28400 0.06700 0.57000
C14 C -0.04500 0.43400 0.73500
O3 O -0.12300 -0.01200 0.49800
O4 O 0.06400 0.25200 0.64900
#END
