
#######################################################################
#
#                 Cambridge Crystallographic Data Centre
#                                CCDC
#
#######################################################################
#
# If this CIF has been generated from an entry in the Cambridge
# Structural Database, then it will include bibliographic, chemical,
# crystal, experimental, refinement or atomic coordinate data resulting
# from the CCDC's data processing and validation procedures.
#
#######################################################################

data_CSD_CIF_THIAMN
_audit_creation_date 1979-02-14
_audit_creation_method CSD-ConQuest-V1
_database_code_CSD THIAMN
_database_code_depnum_ccdc_archive 'CCDC 1270505'
_chemical_formula_sum 'C12 H16 N4 O1 S1'
_chemical_formula_moiety
;
C12 H16 N4 O1 S1
;
_journal_coeditor_code "IUCr A16579"
_journal_coden_Cambridge 107
_journal_volume 34
_journal_year 1978
_journal_page_first 3424
_journal_name_full 'Acta Crystallogr.,Sect.B:Struct.Crystallogr.Cryst.Chem. '
loop_
_publ_author_name
"M.Shiro"
"H.Nakai"
"I.Makino"
"A.Takamizawa"
_chemical_name_systematic
;
2,6a-Dimethyl-6a,8,9,9a,10a,11-hexahydrofuro(2,3-h)thiachromine
;
_chemical_name_common
;
Thiamine; Vitamin B!1$; Teaching Subset: Essential Nutrients
;
_cell_volume   1221.360
_exptl_crystal_density_diffrn 1.44
_diffrn_ambient_temperature ?
_diffrn_special_details
;
The study was carried out at room temperature,in the range 283-303K

;
#These two values have been output from a single CSD field.
_refine_ls_R_factor_gt 0.03
_refine_ls_wR_factor_gt 0.03
_symmetry_cell_setting monoclinic
_symmetry_space_group_name_H-M 'P 21/c'
_symmetry_Int_Tables_number 14
loop_
_symmetry_equiv_pos_site_id
_symmetry_equiv_pos_as_xyz
1 x,y,z
2 -x,1/2+y,1/2-z
3 -x,-y,-z
4 x,-1/2-y,-1/2+z
_cell_length_a 6.789(1)
_cell_length_b 15.682(1)
_cell_length_c 12.857(1)
_cell_angle_alpha 90
_cell_angle_beta 116.84(1)
_cell_angle_gamma 90
_cell_formula_units_Z 4
loop_
_atom_type_symbol
_atom_type_radius_bond
C 0.68
H 0.23
N 0.68
O 0.68
S 1.02
loop_
_atom_site_label
_atom_site_type_symbol
_atom_site_fract_x
_atom_site_fract_y
_atom_site_fract_z
N1 N 0.49920 0.37930 0.50560
C1 C 0.44630 0.30020 0.52250
N2 N 0.50200 0.22810 0.48630
C2 C 0.61210 0.23830 0.42260
C3 C 0.66530 0.31640 0.39370
C4 C 0.60890 0.38740 0.44160
C5 C 0.76940 0.32890 0.31350
N3 N 0.89380 0.41000 0.34020
C6 C 0.77070 0.48120 0.35180
N4 N 0.66830 0.46640 0.42520
C7 C 0.95510 0.43470 0.24850
C8 C 0.75400 0.47590 0.14320
S1 S 0.56170 0.50910 0.19770
O1 O 1.11490 0.50110 0.29600
C9 C 1.04360 0.57720 0.22700
C10 C 0.86310 0.54960 0.11000
C11 C 0.30930 0.29220 0.58700
C12 C 1.05640 0.36130 0.21070
H1 H 0.65100 0.17400 0.39100
H2 H 0.89100 0.27700 0.33200
H3 H 0.65300 0.32800 0.22900
H4 H 1.18900 0.59900 0.22100
H5 H 0.97900 0.61700 0.26900
H6 H 0.93900 0.52600 0.06200
H7 H 0.76800 0.60600 0.07100
H8 H 0.65400 0.43100 0.07900
H9 H 0.89400 0.53100 0.38600
H10 H 0.60300 0.51000 0.45200
H11 H 0.25000 0.23100 0.58800
H12 H 0.40400 0.32000 0.67300
H13 H 0.16400 0.32400 0.54600
H14 H 0.92500 0.31200 0.15500
H15 H 1.19200 0.33300 0.28600
H16 H 1.12300 0.38800 0.16100
#END
