
#######################################################################
#
#                 Cambridge Crystallographic Data Centre
#                                CCDC
#
#######################################################################
#
# If this CIF has been generated from an entry in the Cambridge
# Structural Database, then it will include bibliographic, chemical,
# crystal, experimental, refinement or atomic coordinate data resulting
# from the CCDC's data processing and validation procedures.
#
#######################################################################

data_CSD_CIF_THYDIN02
_audit_creation_date 2002-03-14
_audit_creation_method CSD-ConQuest-V1
_database_code_CSD THYDIN02
_database_code_depnum_ccdc_archive 'CCDC 172667'
_chemical_formula_sum 'C10 H14 N2 O5'
_chemical_formula_moiety
;
C10 H14 N2 O5
;
_journal_coden_Cambridge 1078
_journal_year 2001
_journal_name_full 'CSD Communication(Private Communication) '
loop_
_publ_author_name
"M.Lutz"
"A.L.Spek"
"J.Raap"
_chemical_name_systematic
;
Thymidine
;
_chemical_name_common
;
Teaching Subset: Fundamental Chemistry
;
_cell_volume   1076.734
_exptl_crystal_colour 'colorless'
_exptl_crystal_density_diffrn 1.494
_exptl_special_details
;
contribution from Bijvoet Center for Biomolecular Research, Dept. Crystal and 
Structural Chemistry, Utrecht University, Padualaan 8, 3584 CH Utrecht, The 
Netherlands
;
_exptl_crystal_description 'needle'
_diffrn_ambient_temperature 110
#These two values have been output from a single CSD field.
_refine_ls_R_factor_gt 0.0284
_refine_ls_wR_factor_gt 0.0284
loop_
_citation_database_id_CSD
_citation_special_details
THYMDN "is a stereoisomer of this entry"
_symmetry_cell_setting orthorhombic
_symmetry_space_group_name_H-M 'P 21 21 21'
_symmetry_Int_Tables_number 19
loop_
_symmetry_equiv_pos_site_id
_symmetry_equiv_pos_as_xyz
1 x,y,z
2 1/2-x,-y,1/2+z
3 1/2+x,1/2-y,-z
4 -x,1/2+y,1/2-z
_cell_length_a 4.8165(1)
_cell_length_b 13.7603(2)
_cell_length_c 16.2461(2)
_cell_angle_alpha 90
_cell_angle_beta 90
_cell_angle_gamma 90
_cell_formula_units_Z 4
loop_
_atom_type_symbol
_atom_type_radius_bond
C 0.68
H 0.23
N 0.68
O 0.68
loop_
_atom_site_label
_atom_site_type_symbol
_atom_site_fract_x
_atom_site_fract_y
_atom_site_fract_z
N1 N 0.0286(2) 0.41099(8) 0.27613(6)
H1 H -0.016(5) 0.3890(16) 0.0851(13)
C1 C 0.0954(3) 0.43131(9) 0.19470(7)
N2 N -0.0546(2) 0.37924(8) 0.13782(6)
C2 C -0.2613(3) 0.31176(8) 0.15338(7)
C3 C -0.3180(3) 0.29269(9) 0.23974(7)
C4 C -0.1709(3) 0.34324(9) 0.29603(7)
H2 H -0.20700 0.33140 0.35260
O1 O 0.2731(2) 0.49044(7) 0.17480(6)
O2 O -0.3820(2) 0.27235(6) 0.09516(5)
C5 C -0.5307(3) 0.21795(10) 0.26245(9)
H3 H -0.710(4) 0.2283(13) 0.2310(11)
H4 H -0.460(4) 0.1516(14) 0.2515(13)
H5 H -0.582(4) 0.2251(12) 0.3186(11)
C6 C 0.1817(3) 0.46428(9) 0.34051(7)
H6 H 0.36110 0.48850 0.31730
C7 C 0.0204(3) 0.54969(9) 0.37690(7)
H7 H 0.06610 0.61120 0.34840
H8 H -0.18240 0.53850 0.37390
C8 C 0.1213(3) 0.55096(8) 0.46585(7)
H9 H -0.01330 0.58390 0.50350
C9 C 0.1482(3) 0.44274(8) 0.48426(7)
H10 H 0.29580 0.43280 0.52670
C10 C -0.1185(3) 0.39694(8) 0.51364(8)
H11 H -0.16900 0.42280 0.56850
H12 H -0.27110 0.41190 0.47480
O3 O 0.23795(19) 0.39980(6) 0.40683(5)
O4 O 0.3960(2) 0.59152(6) 0.47185(5)
H13 H 0.409(5) 0.6509(14) 0.4529(12)
O5 O -0.0765(2) 0.29416(7) 0.51819(7)
H14 H -0.229(4) 0.2685(14) 0.5139(13)
#END
