####################################################################### 
# 
# This file contains crystal structure data downloaded from the 
# Cambridge Structural Database (CSD) hosted by the Cambridge 
# Crystallographic Data Centre (CCDC).
# 
# Full information about CCDC data access policies and citation 
# guidelines are available at http://www.ccdc.cam.ac.uk/access/V1 
# 
# Audit and citation data items may have been added by the CCDC. 
# Please retain this information to preserve the provenance of 
# this file and to allow appropriate attribution of the data. 
# 
#######################################################################

data_3
_audit_block_doi                 10.5517/ccxhxny
_database_code_depnum_ccdc_archive 'CCDC 849451'
loop_
_citation_id
_citation_doi
_citation_year
1 10.1039/C2DT12313D 2012
_audit_update_record             
;
2011-10-20 deposited with the CCDC.	2024-07-13 downloaded from the CCDC.
;
#TrackingRef '- 3-R.cif'


_audit_creation_method           SHELXL-97
_chemical_name_systematic        
;
?
;
_chemical_name_common            ?
_chemical_melting_point          ?
_chemical_formula_moiety         ?
_chemical_formula_sum            'C130 H56 Dy4 Fe N18 O58'
_chemical_formula_weight         3503.78

loop_
_atom_type_symbol
_atom_type_description
_atom_type_scat_dispersion_real
_atom_type_scat_dispersion_imag
_atom_type_scat_source
C C 0.0033 0.0016 'International Tables Vol C Tables 4.2.6.8 and 6.1.1.4'
H H 0.0000 0.0000 'International Tables Vol C Tables 4.2.6.8 and 6.1.1.4'
N N 0.0061 0.0033 'International Tables Vol C Tables 4.2.6.8 and 6.1.1.4'
O O 0.0106 0.0060 'International Tables Vol C Tables 4.2.6.8 and 6.1.1.4'
Fe Fe 0.3463 0.8444 'International Tables Vol C Tables 4.2.6.8 and 6.1.1.4'
Dy Dy -0.1892 4.4098 'International Tables Vol C Tables 4.2.6.8 and 6.1.1.4'

_symmetry_cell_setting           Triclinic
_symmetry_space_group_name_H-M   P-1

loop_
_symmetry_equiv_pos_as_xyz
'x, y, z'
'-x, -y, -z'

_cell_length_a                   10.1915(2)
_cell_length_b                   18.7208(3)
_cell_length_c                   20.7128(4)
_cell_angle_alpha                86.2430(10)
_cell_angle_beta                 81.2920(10)
_cell_angle_gamma                86.1710(10)
_cell_volume                     3891.43(12)
_cell_formula_units_Z            1
_cell_measurement_temperature    296(2)
_cell_measurement_reflns_used    9904
_cell_measurement_theta_min      2.24
_cell_measurement_theta_max      25.43

_exptl_crystal_description       Block
_exptl_crystal_colour            Red
_exptl_crystal_size_max          0.20
_exptl_crystal_size_mid          0.15
_exptl_crystal_size_min          0.10
_exptl_crystal_density_meas      ?
_exptl_crystal_density_diffrn    1.495
_exptl_crystal_density_method    'not measured'
_exptl_crystal_F_000             1716
_exptl_absorpt_coefficient_mu    2.078
_exptl_absorpt_correction_type   Multi-scan
_exptl_absorpt_correction_T_min  0.6813
_exptl_absorpt_correction_T_max  0.8191
_exptl_absorpt_process_details   ?

_exptl_special_details           
;
?
;

_diffrn_ambient_temperature      296(2)
_diffrn_radiation_wavelength     0.71073
_diffrn_radiation_type           MoK\a
_diffrn_radiation_source         'fine-focus sealed tube'
_diffrn_radiation_monochromator  graphite
_diffrn_measurement_device_type  'CCD area detector'
_diffrn_measurement_method       'phi and omega scans'
_diffrn_detector_area_resol_mean ?
_diffrn_standards_number         ?
_diffrn_standards_interval_count ?
_diffrn_standards_interval_time  ?
_diffrn_standards_decay_%        ?
_diffrn_reflns_number            56992
_diffrn_reflns_av_R_equivalents  0.0409
_diffrn_reflns_av_sigmaI/netI    0.0421
_diffrn_reflns_limit_h_min       -12
_diffrn_reflns_limit_h_max       12
_diffrn_reflns_limit_k_min       -22
_diffrn_reflns_limit_k_max       22
_diffrn_reflns_limit_l_min       -24
_diffrn_reflns_limit_l_max       24
_diffrn_reflns_theta_min         1.00
_diffrn_reflns_theta_max         25.00
_reflns_number_total             13671
_reflns_number_gt                9645
_reflns_threshold_expression     >2sigma(I)

_computing_data_collection       'Bruker SMART'
_computing_cell_refinement       'Bruker SMART'
_computing_data_reduction        'Bruker SAINT'
_computing_structure_solution    'SHELXS-97 (Sheldrick, 1990)'
_computing_structure_refinement  'SHELXL-97 (Sheldrick, 1997)'
_computing_molecular_graphics    'Bruker SHELXTL'
_computing_publication_material  'Bruker SHELXTL'

_refine_special_details          
;
Refinement of F^2^ against ALL reflections. The weighted R-factor wR and
goodness of fit S are based on F^2^, conventional R-factors R are based
on F, with F set to zero for negative F^2^. The threshold expression of
F^2^ > 2sigma(F^2^) is used only for calculating R-factors(gt) etc. and is
not relevant to the choice of reflections for refinement. R-factors based
on F^2^ are statistically about twice as large as those based on F, and R-
factors based on ALL data will be even larger. For phen ligands the two
pyridine fragments are badly position-distorted, for example, N7, C68 are
shared by two phen ligands. Besides, badly stuctural distortion
is also observed in these phen ligand, resulting in the abnormal
anisotropy parameter and finally high Ueq or low Ueq compared to the
neighbors.Moreover, one carboxylate ligand of L1 and several water molecules
can not be exactly determined, due to badly structural distortion. This
situation is further treated by Platon Squeeze program, and the results are
attached in the end of this file.
;

_refine_ls_structure_factor_coef Fsqd
_refine_ls_matrix_type           full
_refine_ls_weighting_scheme      calc
_refine_ls_weighting_details     
'calc w=1/[\s^2^(Fo^2^)+(0.1394P)^2^+0.0000P] where P=(Fo^2^+2Fc^2^)/3'
_atom_sites_solution_primary     direct
_atom_sites_solution_secondary   difmap
_atom_sites_solution_hydrogens   geom
_refine_ls_hydrogen_treatment    constr
_refine_ls_extinction_method     none
_refine_ls_extinction_coef       ?
_refine_ls_number_reflns         13671
_refine_ls_number_parameters     1025
_refine_ls_number_restraints     121
_refine_ls_R_factor_all          0.0761
_refine_ls_R_factor_gt           0.0591
_refine_ls_wR_factor_ref         0.2022
_refine_ls_wR_factor_gt          0.1883
_refine_ls_goodness_of_fit_ref   1.078
_refine_ls_restrained_S_all      229.663
_refine_ls_shift/su_max          0.006
_refine_ls_shift/su_mean         0.000

loop_
_atom_site_label
_atom_site_type_symbol
_atom_site_fract_x
_atom_site_fract_y
_atom_site_fract_z
_atom_site_U_iso_or_equiv
_atom_site_adp_type
_atom_site_occupancy
_atom_site_symmetry_multiplicity
_atom_site_calc_flag
_atom_site_refinement_flags
_atom_site_disorder_assembly
_atom_site_disorder_group
C1 C 0.590(14) 0.726(7) 0.621(8) 0.06(5) Uani 1 1 d . . .
C2 C 0.553(14) 0.806(7) 0.615(7) 0.05(5) Uani 1 1 d . . .
C3 C 0.638(15) 0.855(7) 0.629(8) 0.06(5) Uani 1 1 d . . .
H3 H 0.7160 0.8400 0.6451 0.076 Uiso 1 1 calc R . .
C4 C 0.607(16) 0.926(8) 0.618(9) 0.07(6) Uani 1 1 d D . .
H4 H 0.6657 0.9593 0.6261 0.090 Uiso 1 1 calc R . .
C5 C 0.494(15) 0.950(7) 0.597(8) 0.06(5) Uani 1 1 d . . .
C6 C 0.405(15) 0.903(7) 0.582(8) 0.06(5) Uani 1 1 d . . .
H6 H 0.3280 0.9191 0.5654 0.077 Uiso 1 1 calc R . .
C7 C 0.436(15) 0.831(7) 0.592(8) 0.06(5) Uani 1 1 d . . .
H7 H 0.3779 0.7980 0.5832 0.073 Uiso 1 1 calc R . .
C8 C 0.029(19) 0.740(9) 0.705(8) 0.08(6) Uani 1 1 d D . .
C9 C 0.116(18) 0.800(8) 0.723(8) 0.07(6) Uani 1 1 d . . .
C10 C 0.22(2) 0.779(11) 0.754(10) 0.10(8) Uani 1 1 d . . .
H10 H 0.2368 0.7316 0.7675 0.121 Uiso 1 1 calc R . .
C11 C 0.31(3) 0.833(12) 0.765(10) 0.14(10) Uani 1 1 d . . .
H11 H 0.3853 0.8220 0.7831 0.164 Uiso 1 1 calc R . .
C12 C 0.16(2) 0.922(10) 0.717(9) 0.11(8) Uani 1 1 d . . .
H12 H 0.1441 0.9698 0.7035 0.126 Uiso 1 1 calc R . .
C13 C 0.09(2) 0.870(9) 0.704(9) 0.09(7) Uani 1 1 d . . .
H13 H 0.0160 0.8815 0.6829 0.108 Uiso 1 1 calc R . .
C14 C 0.112(14) 0.704(7) 0.550(7) 0.05(4) Uani 1 1 d . . .
C15 C 0.086(13) 0.776(6) 0.515(6) 0.04(4) Uani 1 1 d . . .
C16 C 0.188(14) 0.809(7) 0.475(7) 0.06(5) Uani 1 1 d . . .
H16 H 0.2733 0.7870 0.4705 0.071 Uiso 1 1 calc R . .
C17 C 0.165(16) 0.873(8) 0.441(8) 0.07(5) Uani 1 1 d . . .
H17 H 0.2339 0.8948 0.4143 0.080 Uiso 1 1 calc R . .
C18 C 0.039(15) 0.903(7) 0.449(7) 0.06(5) Uani 1 1 d . . .
C19 C -0.067(15) 0.872(7) 0.489(8) 0.06(5) Uani 1 1 d . . .
H19 H -0.1518 0.8944 0.4936 0.077 Uiso 1 1 calc R . .
C20 C -0.041(13) 0.807(6) 0.521(7) 0.05(4) Uani 1 1 d . . .
H20 H -0.1102 0.7839 0.5474 0.062 Uiso 1 1 calc R . .
C21 C 0.038(15) 0.478(7) 0.709(7) 0.06(5) Uani 1 1 d . . .
C22 C -0.030(15) 0.420(7) 0.751(7) 0.06(5) Uani 1 1 d . . .
C23 C -0.167(18) 0.420(9) 0.763(10) 0.09(7) Uani 1 1 d . . .
H23 H -0.2176 0.4572 0.7445 0.108 Uiso 1 1 calc R . .
C24 C -0.230(19) 0.366(9) 0.803(10) 0.10(7) Uani 1 1 d . . .
H24 H -0.3222 0.3682 0.8137 0.123 Uiso 1 1 calc R . .
C25 C -0.154(19) 0.310(9) 0.825(9) 0.09(7) Uani 1 1 d . . .
C26 C -0.02(2) 0.306(9) 0.812(10) 0.10(8) Uani 1 1 d . . .
H26 H 0.0273 0.2668 0.8286 0.120 Uiso 1 1 calc R . .
C27 C 0.044(18) 0.362(8) 0.774(8) 0.08(6) Uani 1 1 d . . .
H27 H 0.1358 0.3596 0.7644 0.093 Uiso 1 1 calc R . .
C28 C 0.616(14) 0.676(7) 0.472(7) 0.05(5) Uani 1 1 d . . .
C29 C 0.718(14) 0.713(7) 0.426(7) 0.05(4) Uani 1 1 d . . .
C30 C 0.682(16) 0.779(7) 0.397(8) 0.07(5) Uani 1 1 d . . .
H30 H 0.5955 0.7982 0.4065 0.079 Uiso 1 1 calc R . .
C31 C 0.776(18) 0.816(8) 0.355(9) 0.08(6) Uani 1 1 d . . .
H31 H 0.7529 0.8601 0.3352 0.101 Uiso 1 1 calc R . .
C32 C 0.901(17) 0.787(8) 0.343(8) 0.07(5) Uani 1 1 d . . .
C33 C 0.941(16) 0.721(8) 0.371(8) 0.07(6) Uani 1 1 d . . .
H33 H 1.0279 0.7022 0.3614 0.085 Uiso 1 1 calc R . .
C34 C 0.849(14) 0.685(8) 0.413(7) 0.06(5) Uani 1 1 d . . .
H34 H 0.8737 0.6419 0.4337 0.070 Uiso 1 1 calc R . .
C35 C 0.440(13) 0.549(6) 0.404(7) 0.05(4) Uani 1 1 d . . .
C36 C 0.457(15) 0.605(7) 0.349(8) 0.06(5) Uani 1 1 d . . .
C37 C 0.39(2) 0.672(8) 0.357(9) 0.09(7) Uani 1 1 d . . .
H37 H 0.3248 0.6804 0.3925 0.111 Uiso 1 1 calc R . .
C38 C 0.42(2) 0.727(12) 0.307(11) 0.12(10) Uani 1 1 d . . .
H38 H 0.3846 0.7727 0.3102 0.141 Uiso 1 1 calc R . .
C39 C 0.512(7) 0.7113(14) 0.255(2) 0.12(10) Uani 1 1 d D . .
C40 C 0.57(3) 0.648(13) 0.246(13) 0.13(11) Uani 1 1 d . . .
H40 H 0.6285 0.6396 0.2074 0.156 Uiso 1 1 calc R . .
C41 C 0.542(18) 0.593(11) 0.293(8) 0.09(7) Uani 1 1 d . . .
H41 H 0.5817 0.5470 0.2871 0.114 Uiso 1 1 calc R . .
C43 C 0.3812(19) 0.0559(6) 0.1173(8) 0.07(12) Uani 0.48(9) 1 d PD A 1
C44 C 0.2913(18) 0.0672(6) 0.1740(8) 0.10(17) Uani 0.48(9) 1 d PD A 1
C45 C 0.1933(14) 0.0179(7) 0.1931(7) 0.2(3) Uani 1 1 d D . .
C46 C 0.221(3) -0.0529(9) 0.1752(14) 0.08(14) Uani 0.48(9) 1 d PD A 1
C47 C 0.316(3) -0.0652(8) 0.1199(10) 0.09(14) Uani 0.48(9) 1 d PD A 1
C58 C 0.6931(16) -0.1169(8) 0.054(2) 0.1(2) Uani 0.48(9) 1 d PD A 1
C59 C 0.8270(16) -0.1340(8) 0.059(2) 0.10(17) Uani 0.48(9) 1 d PD A 1
C60 C 0.9054(11) -0.0788(8) 0.0701(7) 0.19(18) Uani 1 1 d D . .
C61 C 0.8447(13) -0.0100(6) 0.0777(11) 0.1(2) Uani 0.48(9) 1 d PD A 1
C62 C 0.7315(13) 0.0085(6) 0.0485(12) 0.09(16) Uani 0.48(9) 1 d PD A 1
C63 C 0.9216(16) 0.0453(9) 0.0904(16) 0.3(3) Uani 1 1 d D . .
H63 H 1.0123 0.0374 0.0915 0.321 Uiso 1 1 calc R A 1
C64 C 0.8577(16) 0.1128(9) 0.1015(13) 0.2(2) Uani 1 1 d D A .
H64 H 0.8923 0.1449 0.1259 0.284 Uiso 1 1 calc R . .
C65 C 0.6702(12) 0.0769(6) 0.0560(11) 0.2(3) Uani 1 1 d D . .
C66 C 0.7412(12) 0.1310(6) 0.0751(11) 2(6) Uani 1 1 d D A .
C67 C 0.686(2) 0.2015(8) 0.0722(15) 0.3(3) Uani 1 1 d D . .
C68 C 0.6015(19) 0.2192(6) 0.0246(8) 0.17(15) Uani 1 1 d D A .
C69 C 0.5247(18) 0.1653(8) 0.0093(11) 0.3(3) Uani 1 1 d D . .
C70 C 0.294(3) 0.1301(9) 0.2062(9) 0.2(2) Uani 1 1 d D . .
H70 H 0.2578 0.1328 0.2500 0.245 Uiso 1 1 calc R A 1
C71 C 0.353(3) 0.1890(8) 0.1713(10) 0.3(4) Uani 1 1 d D A .
H71 H 0.3296 0.2354 0.1839 0.392 Uiso 1 1 calc R . .
C72 C 0.4413(17) 0.1148(6) 0.0829(7) 0.16(15) Uani 1 1 d D A .
C73 C 0.4498(17) 0.1761(6) 0.1169(7) 0.2(2) Uani 1 1 d D . .
C74 C 0.542(2) 0.2257(9) 0.0896(9) 0.2(2) Uani 1 1 d D A .
C75 C 0.621(3) 0.1504(9) 0.0007(10) 0.2(2) Uani 1 1 d D A .
C76 C 0.27(2) 0.905(9) 0.748(9) 0.11(8) Uani 1 1 d . . .
C43' C 0.3947(18) -0.0436(16) 0.1446(8) 0.08(13) Uani 0.52(9) 1 d PD A 2
C44' C 0.2917(19) -0.0374(13) 0.1972(8) 0.09(15) Uani 0.52(9) 1 d PD A 2
C46' C 0.1606(18) 0.0394(17) 0.1312(8) 0.2(3) Uani 0.52(9) 1 d PD A 2
C47' C 0.2488(17) 0.019(2) 0.0762(8) 0.08(13) Uani 0.52(9) 1 d PD . 2
C58' C 0.8926(16) -0.064(3) 0.0041(8) 0.2(3) Uani 0.52(9) 1 d PD A 2
C59' C 0.7707(16) -0.033(2) -0.0104(8) 0.1(2) Uani 0.52(9) 1 d PD . 2
C61' C 0.7910(16) -0.095(2) 0.1136(8) 0.11(18) Uani 0.52(9) 1 d PD A 2
C62' C 0.6681(16) -0.067(3) 0.0987(8) 0.08(12) Uani 0.52(9) 1 d PD A 2
Dy1 Dy 0.4108(6) 0.6086(3) 0.5607(3) 0.049(2) Uani 1 1 d . . .
Dy2 Dy -0.1304(7) 0.6391(3) 0.6704(4) 0.058(2) Uani 1 1 d . . .
Fe1 Fe 0.5000 0.0000 0.0000 0.062(10) Uani 1 2 d S . .
N1 N 0.560(3) 0.7766(10) 0.2175(11) 0.3(2) Uani 1 1 d D . .
N2 N 0.462(15) 1.028(7) 0.585(8) 0.09(6) Uani 1 1 d . . .
N3 N 1.001(18) 0.827(9) 0.300(9) 0.12(7) Uani 1 1 d . . .
N4 N 0.35(2) 0.956(10) 0.764(10) 0.15(9) Uani 1 1 d . . .
N5 N -0.22(2) 0.250(9) 0.863(9) 0.13(8) Uani 1 1 d . . .
N6 N 0.015(14) 0.973(7) 0.415(7) 0.08(5) Uani 1 1 d . . .
N7 N 0.5477(13) 0.0956(6) 0.0350(9) 0.10(6) Uani 1 1 d D A .
N8 N 0.3773(16) -0.0070(8) 0.0851(6) 0.07(5) Uani 1 1 d D A .
N9 N 0.6562(11) -0.0465(8) 0.0338(7) 0.08(5) Uani 1 1 d D A .
O1 O -0.081(12) 0.762(6) 0.689(6) 0.08(4) Uani 1 1 d . . .
O2 O 0.066(11) 0.677(5) 0.713(5) 0.07(4) Uani 1 1 d . . .
O3 O -0.21(2) 0.650(9) 0.781(8) 0.15(8) Uani 1 1 d . . .
O4 O 0.709(11) 0.710(5) 0.627(7) 0.09(5) Uani 1 1 d . . .
O5 O -0.167(12) 0.570(6) 0.578(7) 0.09(5) Uani 1 1 d . . .
O6 O -0.031(11) 0.532(5) 0.693(6) 0.08(4) Uani 1 1 d . . .
O7 O 0.159(12) 0.469(6) 0.692(6) 0.09(5) Uani 1 1 d . . .
O8 O 0.015(10) 0.671(5) 0.579(5) 0.06(3) Uani 1 1 d . . .
O9 O 0.230(10) 0.681(5) 0.546(6) 0.08(4) Uani 1 1 d . . .
O10 O 0.293(10) 0.601(5) 0.671(5) 0.07(4) Uani 1 1 d . . .
O11 O 0.505(10) 0.684(5) 0.621(5) 0.06(3) Uani 1 1 d . . .
O12 O 0.500(9) 0.704(5) 0.486(5) 0.06(3) Uani 1 1 d . . .
O13 O 0.643(9) 0.613(5) 0.498(5) 0.06(3) Uani 1 1 d . . .
O14 O 0.400(11) 0.565(6) 0.459(5) 0.07(4) Uani 1 1 d . . .
O15 O 1.116(14) 0.804(8) 0.290(8) 0.13(6) Uani 1 1 d . . .
O16 O 0.962(19) 0.884(8) 0.274(10) 0.20(8) Uani 1 1 d . . .
O17 O 0.532(15) 1.069(6) 0.606(10) 0.13(7) Uani 1 1 d . . .
O18 O 0.368(15) 1.046(6) 0.557(8) 0.12(6) Uani 1 1 d . . .
O19 O -0.092(14) 1.007(6) 0.433(8) 0.11(6) Uani 1 1 d . . .
O20 O 0.099(14) 0.997(7) 0.374(7) 0.12(6) Uani 1 1 d . . .
O21 O 0.33(2) 1.021(9) 0.742(12) 0.20(10) Uani 1 1 d . . .
O22 O 0.44(2) 0.941(10) 0.795(10) 0.20(9) Uani 1 1 d . . .
O23 O -0.342(18) 0.252(10) 0.871(11) 0.21(8) Uani 1 1 d . . .
O24 O -0.15(2) 0.202(9) 0.884(12) 0.22(10) Uani 1 1 d . . .
O25 O 0.474(11) 0.486(6) 0.389(5) 0.07(4) Uani 1 1 d . . .
O26 O 0.261(11) 0.512(5) 0.569(5) 0.07(4) Uani 1 1 d . . .
O27 O -0.330(14) 0.570(7) 0.700(7) 0.10(5) Uani 1 1 d . . .
O28 O 0.622(3) 0.7610(18) 0.1624(11) 0.26(18) Uani 1 1 d D . .
O29 O 0.478(3) 0.8299(12) 0.219(2) 0.25(16) Uani 1 1 d D . .

loop_
_atom_site_aniso_label
_atom_site_aniso_U_11
_atom_site_aniso_U_22
_atom_site_aniso_U_33
_atom_site_aniso_U_23
_atom_site_aniso_U_13
_atom_site_aniso_U_12
C1 0.04(7) 0.05(7) 0.09(9) 0.03(7) 0.01(7) 0.01(6)
C2 0.04(7) 0.04(7) 0.07(9) 0.00(7) 0.00(7) 0.01(6)
C3 0.04(8) 0.05(7) 0.09(11) -0.01(8) -0.01(8) 0.00(6)
C4 0.05(9) 0.05(8) 0.12(13) -0.01(9) 0.00(9) -0.01(7)
C5 0.05(8) 0.04(7) 0.09(11) 0.00(8) 0.01(8) 0.01(6)
C6 0.05(8) 0.05(7) 0.09(10) 0.01(8) 0.00(8) 0.01(7)
C7 0.05(8) 0.05(7) 0.09(10) 0.00(7) 0.00(8) 0.00(6)
C8 0.09(12) 0.06(9) 0.08(10) 0.00(8) 0.00(10) -0.01(9)
C9 0.09(12) 0.06(9) 0.07(9) -0.01(8) 0.00(9) 0.00(9)
C10 0.11(15) 0.10(14) 0.10(13) -0.01(12) -0.02(12) -0.01(12)
C11 0.18(19) 0.16(17) 0.08(12) -0.02(12) -0.04(12) -0.08(13)
C12 0.14(18) 0.07(10) 0.09(12) -0.01(10) 0.04(13) -0.02(11)
C13 0.11(14) 0.07(10) 0.09(12) -0.01(9) 0.01(11) -0.02(10)
C14 0.04(7) 0.04(6) 0.06(8) 0.01(6) 0.00(7) 0.00(6)
C15 0.04(7) 0.04(6) 0.05(7) 0.00(6) 0.00(6) 0.00(5)
C16 0.03(7) 0.06(8) 0.08(9) 0.01(7) 0.00(7) 0.00(6)
C17 0.06(9) 0.06(8) 0.08(10) 0.01(8) 0.00(8) -0.01(7)
C18 0.06(9) 0.05(7) 0.07(9) 0.01(7) 0.00(8) 0.00(7)
C19 0.05(8) 0.04(7) 0.10(11) 0.00(8) -0.01(8) 0.01(6)
C20 0.04(7) 0.04(6) 0.08(9) 0.01(7) 0.00(7) 0.00(6)
C21 0.05(8) 0.05(7) 0.07(8) 0.01(6) 0.00(7) 0.00(6)
C22 0.06(9) 0.05(7) 0.06(8) 0.01(7) 0.00(7) -0.01(7)
C23 0.07(11) 0.07(9) 0.12(14) 0.03(9) -0.01(11) 0.00(9)
C24 0.07(11) 0.09(10) 0.14(15) 0.06(10) -0.01(11) -0.02(9)
C25 0.09(12) 0.07(9) 0.10(12) 0.03(9) -0.01(11) -0.03(8)
C26 0.11(15) 0.07(10) 0.11(13) 0.04(9) -0.02(12) 0.00(10)
C27 0.06(10) 0.08(9) 0.08(10) 0.04(8) -0.01(9) 0.00(8)
C28 0.04(8) 0.04(6) 0.07(9) 0.01(7) 0.01(7) 0.00(6)
C29 0.05(8) 0.05(6) 0.06(8) 0.01(6) 0.01(7) -0.01(6)
C30 0.06(9) 0.04(7) 0.09(11) 0.01(7) 0.01(9) 0.00(7)
C31 0.09(12) 0.05(8) 0.10(12) 0.01(8) 0.03(10) 0.00(8)
C32 0.08(10) 0.06(8) 0.07(10) 0.00(7) 0.02(9) -0.03(7)
C33 0.05(9) 0.07(9) 0.09(11) -0.01(8) 0.02(8) -0.01(7)
C34 0.04(8) 0.06(8) 0.07(9) 0.01(7) 0.01(7) 0.00(7)
C35 0.04(7) 0.04(6) 0.08(9) 0.02(6) -0.01(7) 0.00(6)
C36 0.05(8) 0.05(7) 0.08(9) 0.02(7) -0.01(8) -0.01(6)
C37 0.14(15) 0.05(8) 0.10(11) 0.02(8) -0.04(10) 0.02(9)
C38 0.12(18) 0.11(15) 0.12(16) -0.01(14) -0.03(14) -0.01(14)
C39 0.12(17) 0.11(15) 0.12(16) 0.00(14) -0.02(14) -0.02(14)
C40 0.1(2) 0.13(19) 0.13(18) 0.00(16) -0.02(16) -0.01(16)
C41 0.07(11) 0.13(14) 0.07(10) 0.04(9) 0.01(9) 0.00(11)
C43 0.1(2) 0.1(2) 0.05(