
#######################################################################
#
#                 Cambridge Crystallographic Data Centre
#                                CCDC
#
#######################################################################
#
# If this CIF has been generated from an entry in the Cambridge
# Structural Database, then it will include bibliographic, chemical,
# crystal, experimental, refinement or atomic coordinate data resulting
# from the CCDC's data processing and validation procedures.
#
#######################################################################

data_CSD_CIF_TICGUI
_audit_creation_date 2007-05-24
_audit_creation_method CSD-ConQuest-V1
_database_code_CSD TICGUI
_database_code_depnum_ccdc_archive 'CCDC 643044'
_chemical_formula_sum 'C6 H3 I3'
_chemical_formula_moiety
;
C6 H3 I3
;
_journal_coeditor_code "IUCr KP2084"
_journal_coden_Cambridge 1370
_journal_volume 63
_journal_year 2007
_journal_page_first o1542
_journal_name_full 'Acta Crystallogr.,Sect.E:Struct.Rep.Online '
loop_
_publ_author_name
"I.Novak"
_chemical_name_systematic
;
1,2,4-Triiodobenzene
;
_cell_volume    884.955
_exptl_crystal_colour 'colorless'
_exptl_crystal_density_diffrn 3.421
_exptl_crystal_description 'cut needle'
_exptl_crystal_preparation 'sublimation'
_diffrn_ambient_temperature 223
#These two values have been output from a single CSD field.
_refine_ls_R_factor_gt 0.0323
_refine_ls_wR_factor_gt 0.0323
_symmetry_cell_setting orthorhombic
_symmetry_space_group_name_H-M 'P b a 2'
_symmetry_Int_Tables_number 32
loop_
_symmetry_equiv_pos_site_id
_symmetry_equiv_pos_as_xyz
1 x,y,z
2 -x,-y,z
3 1/2+x,1/2-y,z
4 1/2-x,1/2+y,z
_cell_length_a 12.6534(14)
_cell_length_b 16.1729(19)
_cell_length_c 4.3244(5)
_cell_angle_alpha 90
_cell_angle_beta 90
_cell_angle_gamma 90
_cell_formula_units_Z 4
loop_
_atom_type_symbol
_atom_type_radius_bond
C 0.68
H 0.23
I 1.40
loop_
_atom_site_label
_atom_site_type_symbol
_atom_site_fract_x
_atom_site_fract_y
_atom_site_fract_z
I1 I 0.51837(4) 0.34319(3) 0.20178(13)
I2 I 0.43009(4) 0.12842(3) 0.10835(14)
I3 I 0.80843(4) 0.01489(3) 0.80635(13)
C1 C 0.6031(5) 0.2426(5) 0.3755(18)
C2 C 0.5691(5) 0.1620(5) 0.3419(18)
C3 C 0.6283(5) 0.0961(5) 0.4635(17)
H1 H 0.60580 0.04120 0.43700
C4 C 0.7204(5) 0.1137(4) 0.623(2)
C5 C 0.7533(5) 0.1949(5) 0.6620(17)
H2 H 0.81560 0.20640 0.77230
C6 C 0.6954(6) 0.2579(5) 0.5406(18)
H3 H 0.71820 0.31280 0.56860
#END
