####################################################################### 
# 
# This file contains crystal structure data downloaded from the 
# Cambridge Structural Database (CSD) hosted by the Cambridge 
# Crystallographic Data Centre (CCDC).
# 
# Full information about CCDC data access policies and citation 
# guidelines are available at http://www.ccdc.cam.ac.uk/access/V1 
# 
# Audit and citation data items may have been added by the CCDC. 
# Please retain this information to preserve the provenance of 
# this file and to allow appropriate attribution of the data. 
# 
#######################################################################

data_saha4
_audit_block_doi                 10.5517/ccx858l
_database_code_depnum_ccdc_archive 'CCDC 841999'
loop_
_citation_id
_citation_doi
_citation_year
1 10.1039/c2ce06363h 2012
_audit_update_record             
;
2011-08-25 deposited with the CCDC.	2024-07-13 downloaded from the CCDC.
;
#TrackingRef '- saha4.cif.cif'


_audit_creation_method           SHELXL-97
_chemical_name_systematic        
;
?
;
_chemical_name_common            ?
_chemical_melting_point          ?
_chemical_formula_moiety         
'C50 H36 N4 O4 P2 Pd, 2(C2 H3 N), 5(C4 H8 0), 2(C F3 O3 S)'
_chemical_formula_sum            'C76 H82 F6 N6 O15 P2 Pd S2'
_chemical_formula_weight         1665.94

loop_
_atom_type_symbol
_atom_type_description
_atom_type_scat_dispersion_real
_atom_type_scat_dispersion_imag
_atom_type_scat_source
C C 0.0033 0.0016 'International Tables Vol C Tables 4.2.6.8 and 6.1.1.4'
H H 0.0000 0.0000 'International Tables Vol C Tables 4.2.6.8 and 6.1.1.4'
N N 0.0061 0.0033 'International Tables Vol C Tables 4.2.6.8 and 6.1.1.4'
O O 0.0106 0.0060 'International Tables Vol C Tables 4.2.6.8 and 6.1.1.4'
F F 0.0171 0.0103 'International Tables Vol C Tables 4.2.6.8 and 6.1.1.4'
P P 0.1023 0.0942 'International Tables Vol C Tables 4.2.6.8 and 6.1.1.4'
S S 0.1246 0.1234 'International Tables Vol C Tables 4.2.6.8 and 6.1.1.4'
Pd Pd -0.9988 1.0072 'International Tables Vol C Tables 4.2.6.8 and 6.1.1.4'

_symmetry_cell_setting           Monoclinic
_symmetry_space_group_name_H-M   P2(1)/c
_symmetry_space_group_name_Hall  -P2ybc

loop_
_symmetry_equiv_pos_as_xyz
'x, y, z'
'-x, y+1/2, -z+1/2'
'-x, -y, -z'
'x, -y-1/2, z-1/2'

_cell_length_a                   21.140(4)
_cell_length_b                   14.841(3)
_cell_length_c                   25.156(5)
_cell_angle_alpha                90.00
_cell_angle_beta                 96.507(2)
_cell_angle_gamma                90.00
_cell_volume                     7842(2)
_cell_formula_units_Z            4
_cell_measurement_temperature    153(2)
_cell_measurement_reflns_used    6753
_cell_measurement_theta_min      2.38
_cell_measurement_theta_max      19.38

_exptl_crystal_description       rectangular,
_exptl_crystal_colour            colourless
_exptl_crystal_size_max          0.45
_exptl_crystal_size_mid          0.21
_exptl_crystal_size_min          0.05
_exptl_crystal_density_meas      ?
_exptl_crystal_density_diffrn    1.411
_exptl_crystal_density_method    'not measured'
_exptl_crystal_F_000             3448
_exptl_absorpt_coefficient_mu    0.412
_exptl_absorpt_correction_type   empirical
_exptl_absorpt_correction_T_min  0.8362
_exptl_absorpt_correction_T_max  0.9805
_exptl_absorpt_process_details   SADABS

_exptl_special_details           
;
?
;

_diffrn_ambient_temperature      153(2)
_diffrn_radiation_wavelength     0.71073
_diffrn_radiation_type           MoK\a
_diffrn_radiation_source         'fine-focus sealed tube'
_diffrn_radiation_monochromator  graphite
_diffrn_measurement_device_type  'Bruker APEX-II CCD'
_diffrn_measurement_method       '\f and \w scans'
_diffrn_detector_area_resol_mean ?
_diffrn_reflns_number            23941
_diffrn_reflns_av_R_equivalents  0.0659
_diffrn_reflns_av_sigmaI/netI    0.0600
_diffrn_reflns_limit_h_min       -19
_diffrn_reflns_limit_h_max       19
_diffrn_reflns_limit_k_min       -13
_diffrn_reflns_limit_k_max       13
_diffrn_reflns_limit_l_min       -23
_diffrn_reflns_limit_l_max       22
_diffrn_reflns_theta_min         1.82
_diffrn_reflns_theta_max         19.21
_reflns_number_total             6504
_reflns_number_gt                5362
_reflns_threshold_expression     >2sigma(I)

_computing_data_collection       'Bruker APEX2'
_computing_cell_refinement       'Bruker SAINT'
_computing_data_reduction        'Bruker SAINT'
_computing_structure_solution    'SHELXS-97 (Sheldrick, 2008)'
_computing_structure_refinement  'SHELXL-97 (Sheldrick, 2008)'
_computing_molecular_graphics    'Bruker SHELXTL'
_computing_publication_material  'Bruker SHELXTL'

_refine_special_details          
;
Refinement of F^2^ against ALL reflections. The weighted R-factor wR and
goodness of fit S are based on F^2^, conventional R-factors R are based
on F, with F set to zero for negative F^2^. The threshold expression of
F^2^ > 2sigma(F^2^) is used only for calculating R-factors(gt) etc. and is
not relevant to the choice of reflections for refinement. R-factors based
on F^2^ are statistically about twice as large as those based on F, and R-
factors based on ALL data will be even larger.
;

_refine_ls_structure_factor_coef Fsqd
_refine_ls_matrix_type           full
_refine_ls_weighting_scheme      calc
_refine_ls_weighting_details     
'calc w=1/[\s^2^(Fo^2^)+(0.0860P)^2^+135.8017P] where P=(Fo^2^+2Fc^2^)/3'
_atom_sites_solution_primary     direct
_atom_sites_solution_secondary   difmap
_atom_sites_solution_hydrogens   geom
_refine_ls_hydrogen_treatment    constr
_refine_ls_extinction_method     none
_refine_ls_extinction_coef       ?
_refine_ls_number_reflns         6504
_refine_ls_number_parameters     925
_refine_ls_number_restraints     81
_refine_ls_R_factor_all          0.1154
_refine_ls_R_factor_gt           0.0987
_refine_ls_wR_factor_ref         0.2541
_refine_ls_wR_factor_gt          0.2443
_refine_ls_goodness_of_fit_ref   1.161
_refine_ls_restrained_S_all      1.157
_refine_ls_shift/su_max          1.850
_refine_ls_shift/su_mean         0.010

loop_
_atom_site_label
_atom_site_type_symbol
_atom_site_fract_x
_atom_site_fract_y
_atom_site_fract_z
_atom_site_U_iso_or_equiv
_atom_site_adp_type
_atom_site_occupancy
_atom_site_symmetry_multiplicity
_atom_site_calc_flag
_atom_site_refinement_flags
_atom_site_disorder_assembly
_atom_site_disorder_group
Pd1 Pd 0.63315(5) 0.54647(7) 0.19842(4) 0.0289(4) Uani 1 1 d . . .
P1 P 0.65950(19) 0.6564(2) 0.25906(15) 0.0326(11) Uani 1 1 d . . .
P2 P 0.53287(19) 0.5759(2) 0.21578(15) 0.0289(10) Uani 1 1 d . . .
C1 C 0.6993(7) 0.6116(11) 0.3211(6) 0.038(4) Uani 1 1 d . . .
C2 C 0.7113(8) 0.5203(12) 0.3282(7) 0.046(4) Uani 1 1 d . . .
H2 H 0.6999 0.4792 0.2998 0.055 Uiso 1 1 calc R . .
C3 C 0.7396(8) 0.4898(12) 0.3760(8) 0.058(5) Uani 1 1 d . . .
H3 H 0.7465 0.4269 0.3802 0.070 Uiso 1 1 calc R . .
C4 C 0.7583(9) 0.5443(14) 0.4177(8) 0.065(5) Uani 1 1 d . . .
H4 H 0.7784 0.5206 0.4505 0.078 Uiso 1 1 calc R . .
C5 C 0.7471(9) 0.6377(14) 0.4113(7) 0.070(6) Uani 1 1 d . . .
H5 H 0.7597 0.6781 0.4398 0.084 Uiso 1 1 calc R . .
C6 C 0.7184(8) 0.6689(11) 0.3643(7) 0.049(4) Uani 1 1 d . . .
H6 H 0.7109 0.7318 0.3603 0.059 Uiso 1 1 calc R . .
C7 C 0.7126(8) 0.7407(10) 0.2376(6) 0.038(4) Uani 1 1 d . . .
C8 C 0.7775(10) 0.7225(12) 0.2439(8) 0.070(6) Uani 1 1 d . . .
H8 H 0.7929 0.6683 0.2608 0.084 Uiso 1 1 calc R . .
C9 C 0.8201(11) 0.7844(17) 0.2253(11) 0.108(8) Uani 1 1 d . . .
H9 H 0.8644 0.7718 0.2280 0.129 Uiso 1 1 calc R . .
C10 C 0.7956(12) 0.8653(16) 0.2025(9) 0.090(7) Uani 1 1 d . . .
H10 H 0.8240 0.9098 0.1920 0.108 Uiso 1 1 calc R . .
C11 C 0.7336(11) 0.8805(12) 0.1954(8) 0.074(6) Uani 1 1 d . . .
H11 H 0.7184 0.9342 0.1779 0.089 Uiso 1 1 calc R . .
C12 C 0.6898(8) 0.8196(11) 0.2132(6) 0.045(4) Uani 1 1 d . . .
H12 H 0.6455 0.8322 0.2085 0.054 Uiso 1 1 calc R . .
C13 C 0.5860(7) 0.7123(9) 0.2746(5) 0.031(4) Uani 1 1 d . . .
H13A H 0.5744 0.6896 0.3092 0.038 Uiso 1 1 calc R . .
H13B H 0.5935 0.7780 0.2782 0.038 Uiso 1 1 calc R . .
C14 C 0.5326(7) 0.6952(9) 0.2318(5) 0.034(4) Uani 1 1 d . . .
H14A H 0.5383 0.7314 0.1997 0.041 Uiso 1 1 calc R . .
H14B H 0.4916 0.7122 0.2445 0.041 Uiso 1 1 calc R . .
C15 C 0.4739(7) 0.5531(9) 0.1611(6) 0.029(4) Uani 1 1 d . . .
C16 C 0.4540(8) 0.6170(10) 0.1237(6) 0.040(4) Uani 1 1 d . . .
H16 H 0.4682 0.6774 0.1289 0.048 Uiso 1 1 calc R . .
C17 C 0.4144(8) 0.5955(11) 0.0789(7) 0.042(4) Uani 1 1 d . . .
H17 H 0.4014 0.6414 0.0536 0.050 Uiso 1 1 calc R . .
C18 C 0.3925(8) 0.5084(13) 0.0694(6) 0.053(5) Uani 1 1 d . . .
H18 H 0.3644 0.4940 0.0383 0.064 Uiso 1 1 calc R . .
C19 C 0.4130(8) 0.4425(10) 0.1069(7) 0.053(5) Uani 1 1 d . . .
H19 H 0.4003 0.3817 0.1006 0.064 Uiso 1 1 calc R . .
C20 C 0.4511(8) 0.4640(11) 0.1525(7) 0.050(5) Uani 1 1 d . . .
H20 H 0.4625 0.4189 0.1786 0.060 Uiso 1 1 calc R . .
C21 C 0.5084(7) 0.5161(9) 0.2728(5) 0.027(4) Uani 1 1 d . . .
C22 C 0.4509(7) 0.5388(9) 0.2913(6) 0.031(4) Uani 1 1 d . . .
H22 H 0.4246 0.5848 0.2744 0.037 Uiso 1 1 calc R . .
C23 C 0.4331(8) 0.4929(12) 0.3347(6) 0.047(5) Uani 1 1 d . . .
H23 H 0.3951 0.5098 0.3489 0.057 Uiso 1 1 calc R . .
C24 C 0.4694(9) 0.4222(11) 0.3583(6) 0.046(5) Uani 1 1 d . . .
H24 H 0.4561 0.3902 0.3878 0.056 Uiso 1 1 calc R . .
C25 C 0.5237(9) 0.4002(10) 0.3383(6) 0.046(4) Uani 1 1 d . . .
H25 H 0.5487 0.3520 0.3541 0.055 Uiso 1 1 calc R . .
C26 C 0.5441(8) 0.4460(10) 0.2956(6) 0.044(4) Uani 1 1 d . . .
H26 H 0.5826 0.4291 0.2821 0.053 Uiso 1 1 calc R . .
C27 C 0.7379(8) 0.5916(11) 0.1395(7) 0.051(5) Uani 1 1 d . . .
H27 H 0.7094 0.6405 0.1314 0.061 Uiso 1 1 calc R . .
C28 C 0.7925(8) 0.5871(11) 0.1109(6) 0.045(4) Uani 1 1 d . . .
H28 H 0.8002 0.6308 0.0848 0.054 Uiso 1 1 calc R . .
C29 C 0.8334(8) 0.5157(11) 0.1233(7) 0.049(5) Uani 1 1 d . . .
C30 C 0.8206(8) 0.4542(11) 0.1620(7) 0.051(5) Uani 1 1 d . . .
H30 H 0.8490 0.4058 0.1718 0.061 Uiso 1 1 calc R . .
C31 C 0.7657(8) 0.4652(10) 0.1860(6) 0.048(5) Uani 1 1 d . . .
H31 H 0.7566 0.4212 0.2115 0.058 Uiso 1 1 calc R . .
N3 N 0.8865(6) 0.5054(9) 0.0929(5) 0.042(3) Uani 1 1 d . . .
C33 C 0.9284(9) 0.5782(13) 0.0921(7) 0.058(5) Uani 1 1 d . . .
C34 C 0.8904(9) 0.4286(12) 0.0607(7) 0.053(5) Uani 1 1 d . . .
C35 C 0.9408(8) 0.3524(12) -0.0096(7) 0.061(5) Uani 1 1 d . . .
H35 H 0.9136 0.3021 -0.0071 0.074 Uiso 1 1 calc R . .
C36 C 0.9369(8) 0.4270(11) 0.0230(7) 0.053(5) Uani 1 1 d . . .
C37 C 0.9776(7) 0.5010(11) 0.0186(7) 0.049(5) Uani 1 1 d . . .
C38 C 0.9756(8) 0.5766(11) 0.0531(7) 0.044(4) Uani 1 1 d . . .
C39 C 1.0138(8) 0.6471(12) 0.0466(7) 0.063(5) Uani 1 1 d . . .
H39 H 1.0101 0.6991 0.0680 0.076 Uiso 1 1 calc R . .
C40 C 0.5791(7) 0.4420(10) 0.0963(6) 0.034(4) Uani 1 1 d . . .
H40 H 0.5757 0.4995 0.0796 0.041 Uiso 1 1 calc R . .
C41 C 0.6086(7) 0.3538(10) 0.1699(6) 0.040(4) Uani 1 1 d . . .
H41 H 0.6258 0.3487 0.2063 0.048 Uiso 1 1 calc R . .
C42 C 0.5579(7) 0.3686(9) 0.0669(5) 0.027(4) Uani 1 1 d . . .
H42 H 0.5386 0.3739 0.0310 0.032 Uiso 1 1 calc R . .
C43 C 0.5905(8) 0.2796(10) 0.1441(6) 0.043(5) Uani 1 1 d . . .
H43 H 0.5945 0.2229 0.1617 0.052 Uiso 1 1 calc R . .
C44 C 0.5663(7) 0.2850(9) 0.0925(6) 0.034(4) Uani 1 1 d . . .
N4 N 0.5448(5) 0.2039(7) 0.0626(4) 0.024(3) Uani 1 1 d . . .
C46 C 0.4879(8) 0.1653(9) 0.0753(6) 0.034(4) Uani 1 1 d . . .
C47 C 0.5812(8) 0.1746(10) 0.0241(6) 0.035(4) Uani 1 1 d . . .
C48 C 0.4161(7) 0.0339(9) 0.0608(5) 0.032(4) Uani 1 1 d . . .
H48 H 0.3898 0.0598 0.0850 0.038 Uiso 1 1 calc R . .
C49 C 0.4701(7) 0.0779(9) 0.0494(5) 0.026(4) Uani 1 1 d . . .
C50 C 0.5072(7) 0.0429(9) 0.0127(5) 0.033(4) Uani 1 1 d . . .
C51 C 0.5649(7) 0.0862(9) -0.0012(5) 0.028(4) Uani 1 1 d . . .
C52 C 0.6003(8) 0.0496(9) -0.0365(6) 0.038(4) Uani 1 1 d . . .
H52 H 0.6370 0.0805 -0.0453 0.046 Uiso 1 1 calc R . .
N1 N 0.7235(6) 0.5334(8) 0.1764(5) 0.035(3) Uani 1 1 d . . .
N2 N 0.6045(5) 0.4372(7) 0.1477(5) 0.029(3) Uani 1 1 d . . .
O1 O 0.9250(6) 0.6405(8) 0.1235(5) 0.070(4) Uani 1 1 d . . .
O2 O 0.8512(6) 0.3687(9) 0.0637(5) 0.077(4) Uani 1 1 d . . .
O3 O 0.6274(6) 0.2181(7) 0.0125(4) 0.047(3) Uani 1 1 d . . .
O4 O 0.4582(5) 0.2001(6) 0.1077(4) 0.040(3) Uani 1 1 d . . .
S61 S 0.3188(2) 0.7499(3) 0.69850(18) 0.0491(12) Uani 1 1 d . . .
O61 O 0.2795(5) 0.6893(7) 0.7252(4) 0.061(3) Uani 1 1 d . . .
O62 O 0.3238(7) 0.7301(8) 0.6431(5) 0.083(4) Uani 1 1 d . . .
O63 O 0.3773(5) 0.7744(7) 0.7291(4) 0.056(3) Uani 1 1 d . . .
C61 C 0.2719(12) 0.8553(14) 0.6962(12) 0.088(7) Uani 1 1 d . . .
F61 F 0.2640(8) 0.8821(9) 0.7432(7) 0.144(7) Uani 1 1 d . . .
F62 F 0.2189(6) 0.8451(11) 0.6651(7) 0.133(6) Uani 1 1 d . . .
F63 F 0.3057(6) 0.9196(7) 0.6729(6) 0.112(5) Uani 1 1 d . . .
S65 S 0.4100(2) 0.2891(2) 0.93917(16) 0.0416(12) Uani 1 1 d . . .
O65 O 0.3983(9) 0.3717(7) 0.9661(5) 0.110(6) Uani 1 1 d . . .
O66 O 0.3972(5) 0.2930(7) 0.8825(4) 0.043(3) Uani 1 1 d . . .
O67 O 0.4667(5) 0.2423(8) 0.9581(4) 0.057(3) Uani 1 1 d . . .
C65 C 0.3473(10) 0.2167(13) 0.9595(8) 0.064(6) Uani 1 1 d . . .
F65 F 0.2886(5) 0.2435(9) 0.9400(5) 0.117(5) Uani 1 1 d . . .
F66 F 0.3503(5) 0.2109(7) 1.0124(4) 0.087(4) Uani 1 1 d . . .
F67 F 0.3526(5) 0.1331(8) 0.9411(4) 0.087(3) Uani 1 1 d . . .
C71 C 0.7523(13) 0.293(3) 0.9683(11) 0.134(12) Uani 1 1 d . . .
H72A H 0.7725 0.3442 0.9519 0.200 Uiso 1 1 calc R . .
H72B H 0.7427 0.3104 1.0041 0.200 Uiso 1 1 calc R . .
H72C H 0.7128 0.2772 0.9461 0.200 Uiso 1 1 calc R . .
C72 C 0.797(2) 0.214(3) 0.9724(12) 0.136(15) Uani 1 1 d . . .
N71 N 0.833(2) 0.155(2) 0.9715(19) 0.23(2) Uani 1 1 d . . .
C131 C 1.116(3) 0.868(6) 0.166(3) 0.47(8) Uani 1 1 d . . .
H13C H 1.1409 0.8333 0.1431 0.710 Uiso 1 1 calc R . .
H13D H 1.1376 0.9250 0.1761 0.710 Uiso 1 1 calc R . .
H13E H 1.0736 0.8807 0.1474 0.710 Uiso 1 1 calc R . .
C132 C 0.892(2) 0.313(4) 0.282(5) 0.37(8) Uani 1 1 d . . .
N131 N 0.925(5) 0.295(7) 0.278(5) 0.56(8) Uani 1 1 d . . .
O81 O 0.8385(8) 0.6098(18) 0.9869(8) 0.169(9) Uani 1 1 d D . .
C81 C 0.8676(14) 0.637(3) 0.9399(11) 0.28(3) Uani 1 1 d D B .
H81A H 0.8764 0.7024 0.9415 0.334 Uiso 1 1 calc R . .
H81B H 0.9085 0.6049 0.9391 0.334 Uiso 1 1 calc R . .
C82 C 0.8258(15) 0.617(3) 0.8917(10) 0.167(14) Uani 1 1 d D . .
H82A H 0.8453 0.5706 0.8701 0.200 Uiso 1 1 calc R A 1
H82B H 0.8173 0.6714 0.8697 0.200 Uiso 1 1 calc R A 1
C83 C 0.7664(16) 0.582(3) 0.9099(13) 0.211(19) Uani 1 1 d D B 1
H83A H 0.7318 0.6268 0.9029 0.253 Uiso 1 1 calc R B 1
H83B H 0.7532 0.5254 0.8909 0.253 Uiso 1 1 calc R B 1
C84 C 0.7801(15) 0.566(2) 0.9668(12) 0.182(16) Uani 1 1 d D B 1
H84A H 0.7448 0.5890 0.9856 0.219 Uiso 1 1 calc R B 1
H84B H 0.7839 0.5002 0.9735 0.219 Uiso 1 1 calc R B 1
O91 O 0.812(2) 0.085(5) 0.105(5) 1.5(3) Uani 1 1 d D C 1
C91 C 0.8044(12) 0.169(3) 0.1339(16) 0.24(2) Uani 1 1 d D C 1
H91A H 0.8278 0.2188 0.1183 0.284 Uiso 1 1 calc R C 1
H91B H 0.8221 0.1621 0.1718 0.284 Uiso 1 1 calc R C 1
C92 C 0.7363(13) 0.1921(17) 0.1306(10) 0.20(2) Uani 1 1 d D C 1
H92A H 0.7250 0.2383 0.1028 0.236 Uiso 1 1 calc R C 1
H92B H 0.7253 0.2151 0.1654 0.236 Uiso 1 1 calc R C 1
C93 C 0.7023(9) 0.1057(15) 0.1164(8) 0.073(7) Uani 1 1 d D C 1
H93A H 0.6987 0.0676 0.1482 0.087 Uiso 1 1 calc R C 1
H93B H 0.6594 0.1160 0.0970 0.087 Uiso 1 1 calc R C 1
C94 C 0.747(2) 0.0673(16) 0.0813(13) 0.38(5) Uani 1 1 d D C 1
H94A H 0.7398 0.0015 0.0777 0.459 Uiso 1 1 calc R C 1
H94B H 0.7389 0.0946 0.0453 0.459 Uiso 1 1 calc R C 1
O101 O 0.9683(13) 0.515(2) 0.8407(12) 0.230(12) Uani 1 1 d D D 1
C101 C 0.921(2) 0.444(3) 0.8190(18) 0.40(5) Uani 1 1 d D D 1
H10A H 0.9353 0.3835 0.8319 0.480 Uiso 1 1 calc R D 1
H10B H 0.8786 0.4565 0.8296 0.480 Uiso 1 1 calc R D 1
C102 C 0.921(4) 0.451(5) 0.7601(16) 0.55(9) Uani 1 1 d D D 1
H10C H 0.8771 0.4572 0.7426 0.659 Uiso 1 1 calc R D 1
H10D H 0.9404 0.3965 0.7460 0.659 Uiso 1 1 calc R D 1
C103 C 0.959(3) 0.533(5) 0.749(2) 0.80(17) Uani 1 1 d D D 1
H10E H 0.9817 0.5229 0.7171 0.959 Uiso 1 1 calc R D 1
H10F H 0.9313 0.5859 0.7430 0.959 Uiso 1 1 calc R D 1
C104 C 1.006(2) 0.546(5) 0.797(2) 0.78(16) Uani 1 1 d D D 1
H10G H 1.0184 0.6106 0.8021 0.934 Uiso 1 1 calc R D 1
H10H H 1.0450 0.5095 0.7960 0.934 Uiso 1 1 calc R D 1
O111 O 0.9838(18) 0.871(3) 0.0862(19) 0.35(2) Uiso 1 1 d D E 1
C111 C 0.9199(17) 0.866(3) 0.1072(12) 0.189(15) Uiso 1 1 d D E 1
H11A H 0.9113 0.9225 0.1259 0.227 Uiso 1 1 calc R E 1
H11B H 0.9191 0.8152 0.1327 0.227 Uiso 1 1 calc R E 1
C112 C 0.8705(14) 0.852(3) 0.0593(14) 0.189(15) Uiso 1 1 d D E 1
H11C H 0.8641 0.7867 0.0515 0.227 Uiso 1 1 calc R E 1
H11D H 0.8292 0.8790 0.0655 0.227 Uiso 1 1 calc R E 1
C113 C 0.899(2) 0.899(4) 0.0142(14) 0.35(3) Uiso 1 1 d D E 1
H11E H 0.8906 0.8630 -0.0191 0.416 Uiso 1 1 calc R E 1
H11F H 0.8789 0.9588 0.0078 0.416 Uiso 1 1 calc R E 1
C114 C 0.969(2) 0.908(6) 0.030(2) 0.55(7) Uiso 1 1 d D E 1
H11G H 0.9817 0.9723 0.0294 0.657 Uiso 1 1 calc R E 1
H11H H 0.9931 0.8744 0.0051 0.657 Uiso 1 1 calc R E 1
O121 O 0.965(5) 0.628(7) 0.397(3) 0.88(10) Uiso 1 1 d D F 1
C121 C 0.924(4) 0.598(5) 0.348(4) 0.48(5) Uiso 1 1 d D F 1
H12A H 0.9275 0.5315 0.3437 0.575 Uiso 1 1 calc R F 1
H12B H 0.8789 0.6128 0.3503 0.575 Uiso 1 1 calc R F 1
C122 C 0.947(6) 0.644(9) 0.300(3) 0.93(17) Uiso 1 1 d D F 1
H12C H 0.9101 0.6655 0.2755 1.116 Uiso 1 1 calc R F 1
H12D H 0.9726 0.6029 0.2809 1.116 Uiso 1 1 calc R F 1
C123 C 0.986(6) 0.723(7) 0.323(3) 0.99(18) Uiso 1 1 d D F 1
H12E H 1.0229 0.7325 0.3020 1.190 Uiso 1 1 calc R F 1
H12F H 0.9604 0.7787 0.3210 1.190 Uiso 1 1 calc R F 1
C124 C 1.009(3) 0.699(5) 0.380(3) 0.37(4) Uiso 1 1 d D F 1
H12G H 1.0082 0.7532 0.4028 0.441 Uiso 1 1 calc R F 1
H12H H 1.0529 0.6758 0.3825 0.441 Uiso 1 1 calc R F 1

loop_
_atom_site_aniso_label
_atom_site_aniso_U_11
_atom_site_aniso_U_22
_atom_site_aniso_U_33
_atom_site_aniso_U_23
_atom_site_aniso_U_