####################################################################### 
# 
# This file contains crystal structure data downloaded from the 
# Cambridge Structural Database (CSD) hosted by the Cambridge 
# Crystallographic Data Centre (CCDC).
# 
# Full information about CCDC data access policies and citation 
# guidelines are available at http://www.ccdc.cam.ac.uk/access/V1 
# 
# Audit and citation data items may have been added by the CCDC. 
# Please retain this information to preserve the provenance of 
# this file and to allow appropriate attribution of the data. 
# 
#######################################################################

data_c090213l
_audit_block_doi                 10.5517/cc10jry7
_database_code_depnum_ccdc_archive 'CCDC 939639'
loop_
_citation_id
_citation_doi
_citation_year
1 10.1039/C3CE41073K 2013
_audit_update_record             
;
2013-05-16 deposited with the CCDC.	2024-07-13 downloaded from the CCDC.
;

_audit_creation_method           SHELXL-97
_chemical_name_systematic        
; 
 ? 
;
_chemical_name_common            ?
_chemical_melting_point          ?
_chemical_formula_moiety         ?
_chemical_formula_sum            'C83 H53 Cd6 N9 O29.50'
_chemical_formula_weight         2322.74

loop_
_atom_type_symbol
_atom_type_description
_atom_type_scat_dispersion_real
_atom_type_scat_dispersion_imag
_atom_type_scat_source
C C 0.0033 0.0016 'International Tables Vol C Tables 4.2.6.8 and 6.1.1.4'
H H 0.0000 0.0000 'International Tables Vol C Tables 4.2.6.8 and 6.1.1.4'
Cd Cd -0.8075 1.2024 'International Tables Vol C Tables 4.2.6.8 and 6.1.1.4'
N N 0.0061 0.0033 'International Tables Vol C Tables 4.2.6.8 and 6.1.1.4'
O O 0.0106 0.0060 'International Tables Vol C Tables 4.2.6.8 and 6.1.1.4'

_symmetry_cell_setting           ?
_symmetry_space_group_name_H-M   P-1

loop_
_symmetry_equiv_pos_as_xyz
'x, y, z'
'-x, -y, -z'

_cell_length_a                   10.5925(10)
_cell_length_b                   19.4409(18)
_cell_length_c                   23.682(2)
_cell_angle_alpha                73.7440(10)
_cell_angle_beta                 83.661(2)
_cell_angle_gamma                89.712(2)
_cell_volume                     4651.5(7)
_cell_formula_units_Z            2
_cell_measurement_temperature    293(2)
_cell_measurement_reflns_used    ?
_cell_measurement_theta_min      ?
_cell_measurement_theta_max      ?

_exptl_crystal_description       ?
_exptl_crystal_colour            ?
_exptl_crystal_size_max          0.20
_exptl_crystal_size_mid          0.10
_exptl_crystal_size_min          0.10
_exptl_crystal_density_meas      ?
_exptl_crystal_density_diffrn    1.658
_exptl_crystal_density_method    'not measured'
_exptl_crystal_F_000             2276
_exptl_absorpt_coefficient_mu    1.428
_exptl_absorpt_correction_type   ?
_exptl_absorpt_correction_T_min  0.7633
_exptl_absorpt_correction_T_max  0.8704
_exptl_absorpt_process_details   ?

_exptl_special_details           
; 
 ? 
;

_diffrn_ambient_temperature      293(2)
_diffrn_radiation_wavelength     0.71075
_diffrn_radiation_type           MoK\a
_diffrn_radiation_source         'fine-focus sealed tube'
_diffrn_radiation_monochromator  graphite
_diffrn_measurement_device_type  ?
_diffrn_measurement_method       ?
_diffrn_detector_area_resol_mean ?
_diffrn_standards_number         ?
_diffrn_standards_interval_count ?
_diffrn_standards_interval_time  ?
_diffrn_standards_decay_%        ?
_diffrn_reflns_number            28772
_diffrn_reflns_av_R_equivalents  0.0503
_diffrn_reflns_av_sigmaI/netI    0.0797
_diffrn_reflns_limit_h_min       -12
_diffrn_reflns_limit_h_max       10
_diffrn_reflns_limit_k_min       -23
_diffrn_reflns_limit_k_max       23
_diffrn_reflns_limit_l_min       -28
_diffrn_reflns_limit_l_max       28
_diffrn_reflns_theta_min         3.09
_diffrn_reflns_theta_max         25.01
_reflns_number_total             16243
_reflns_number_gt                12788
_reflns_threshold_expression     >2sigma(I)

_computing_data_collection       ?
_computing_cell_refinement       ?
_computing_data_reduction        ?
_computing_structure_solution    'SHELXS-97 (Sheldrick, 1990)'
_computing_structure_refinement  'SHELXL-97 (Sheldrick, 1997)'
_computing_molecular_graphics    ?
_computing_publication_material  ?

_refine_special_details          
; 
 Refinement of F^2^ against ALL reflections.  The weighted R-factor wR and 
 goodness of fit S are based on F^2^, conventional R-factors R are based 
 on F, with F set to zero for negative F^2^. The threshold expression of 
 F^2^ > 2sigma(F^2^) is used only for calculating R-factors(gt) etc. and is 
 not relevant to the choice of reflections for refinement.  R-factors based 
 on F^2^ are statistically about twice as large as those based on F, and R- 
 factors based on ALL data will be even larger. 
;

_refine_ls_structure_factor_coef Fsqd
_refine_ls_matrix_type           full
_refine_ls_weighting_scheme      calc
_refine_ls_weighting_details     
'calc w=1/[\s^2^(Fo^2^)+(0.0936P)^2^+30.3027P] where P=(Fo^2^+2Fc^2^)/3'
_atom_sites_solution_primary     direct
_atom_sites_solution_secondary   difmap
_atom_sites_solution_hydrogens   geom
_refine_ls_hydrogen_treatment    mixed
_refine_ls_extinction_method     none
_refine_ls_extinction_coef       ?
_refine_ls_number_reflns         16243
_refine_ls_number_parameters     1181
_refine_ls_number_restraints     36
_refine_ls_R_factor_all          0.0916
_refine_ls_R_factor_gt           0.0693
_refine_ls_wR_factor_ref         0.1997
_refine_ls_wR_factor_gt          0.1858
_refine_ls_goodness_of_fit_ref   1.094
_refine_ls_restrained_S_all      1.094
_refine_ls_shift/su_max          0.001
_refine_ls_shift/su_mean         0.000

loop_
_atom_site_label
_atom_site_type_symbol
_atom_site_fract_x
_atom_site_fract_y
_atom_site_fract_z
_atom_site_U_iso_or_equiv
_atom_site_adp_type
_atom_site_occupancy
_atom_site_symmetry_multiplicity
_atom_site_calc_flag
_atom_site_refinement_flags
_atom_site_disorder_assembly
_atom_site_disorder_group
Cd1 Cd 0.24644(6) 0.45473(4) 0.22671(3) 0.02463(18) Uani 1 1 d . . .
Cd3 Cd 0.69694(7) 0.15655(4) 0.25871(3) 0.02577(18) Uani 1 1 d . . .
Cd2 Cd 1.08562(7) -0.34242(4) 0.25296(3) 0.02547(18) Uani 1 1 d . . .
Cd4 Cd 0.67852(7) -0.28748(4) 0.26708(3) 0.02701(18) Uani 1 1 d . . .
Cd5 Cd 0.54994(6) -0.04090(4) 0.23950(3) 0.02612(18) Uani 1 1 d . . .
Cd6 Cd 1.10640(7) 0.22381(4) 0.24030(3) 0.02983(19) Uani 1 1 d . . .
C1 C 0.4831(9) 0.8327(5) 0.2093(4) 0.030(2) Uani 1 1 d . . .
C2 C 0.4458(8) 0.7851(5) 0.1732(4) 0.0235(19) Uani 1 1 d . . .
C6 C 0.3824(8) 0.6711(5) 0.1638(4) 0.023(2) Uani 1 1 d . . .
C7 C 0.4027(9) 0.7144(5) 0.1993(4) 0.027(2) Uani 1 1 d . . .
C8 C 0.3331(9) 0.5957(5) 0.1896(4) 0.028(2) Uani 1 1 d . . .
C9 C 0.3813(9) 0.6854(5) 0.2654(4) 0.027(2) Uani 1 1 d . . .
C10 C 0.3383(9) 0.3425(5) 0.1844(4) 0.028(2) Uani 1 1 d . . .
C11 C 0.4000(8) 0.2914(5) 0.1536(4) 0.0234(19) Uani 1 1 d . . .
C15 C 0.4719(9) 0.1750(5) 0.1526(4) 0.024(2) Uani 1 1 d . . .
C16 C 0.4244(9) 0.2222(5) 0.1840(4) 0.026(2) Uani 1 1 d . . .
C17 C 0.4002(9) 0.1966(5) 0.2504(4) 0.026(2) Uani 1 1 d . . .
C18 C 0.4990(9) 0.0987(6) 0.1834(4) 0.033(2) Uani 1 1 d . . .
C19 C 0.8330(10) 0.5649(5) 0.2537(4) 0.031(2) Uani 1 1 d . . .
C20 C 0.7782(9) 0.4971(5) 0.2474(4) 0.030(2) Uani 1 1 d . . .
C21 C 0.6463(11) 0.4910(7) 0.2511(5) 0.047(3) Uani 1 1 d . . .
H21 H 0.5970 0.5291 0.2559 0.056 Uiso 1 1 calc R . .
C22 C 0.5876(10) 0.4293(7) 0.2478(6) 0.052(3) Uani 1 1 d . . .
H22 H 0.4999 0.4268 0.2481 0.063 Uiso 1 1 calc R . .
C23 C 0.6600(10) 0.3716(6) 0.2442(5) 0.041(3) Uani 1 1 d . . .
H23 H 0.6198 0.3291 0.2445 0.050 Uiso 1 1 calc R . .
C24 C 0.7922(9) 0.3752(5) 0.2400(4) 0.028(2) Uani 1 1 d . . .
C25 C 0.8520(9) 0.4405(5) 0.2388(4) 0.024(2) Uani 1 1 d . . .
C26 C 0.9938(9) 0.4460(5) 0.2333(4) 0.027(2) Uani 1 1 d . . .
C27 C 0.8646(10) 0.3091(5) 0.2416(4) 0.030(2) Uani 1 1 d . . .
C28 C 0.9523(11) 0.0649(5) 0.2597(4) 0.033(2) Uani 1 1 d . . .
C29 C 1.0083(10) -0.0056(5) 0.2589(5) 0.035(2) Uani 1 1 d . . .
C30 C 1.1394(12) -0.0114(8) 0.2569(7) 0.068(4) Uani 1 1 d . . .
H30 H 1.1887 0.0287 0.2554 0.082 Uiso 1 1 calc R . .
C31 C 1.1957(13) -0.0718(10) 0.2572(9) 0.092(6) Uani 1 1 d . . .
H31 H 1.2838 -0.0735 0.2553 0.111 Uiso 1 1 calc R . .
C32 C 1.1256(12) -0.1333(7) 0.2604(7) 0.065(4) Uani 1 1 d . . .
H32 H 1.1659 -0.1764 0.2627 0.078 Uiso 1 1 calc R . .
C33 C 0.9940(10) -0.1297(6) 0.2601(5) 0.035(2) Uani 1 1 d . . .
C34 C 0.9357(9) -0.0651(5) 0.2590(4) 0.028(2) Uani 1 1 d . . .
C35 C 0.7960(9) -0.0597(5) 0.2578(4) 0.028(2) Uani 1 1 d . . .
C36 C 0.9215(11) -0.1971(5) 0.2629(4) 0.033(2) Uani 1 1 d . . .
C37 C 0.3432(12) 0.4685(7) 0.3494(5) 0.049(3) Uani 1 1 d . . .
H37 H 0.3621 0.5155 0.3269 0.059 Uiso 1 1 calc R . .
C38 C 0.3569(12) 0.4506(6) 0.4088(5) 0.050(3) Uani 1 1 d . . .
H38 H 0.3853 0.4848 0.4255 0.060 Uiso 1 1 calc R . .
C39 C 0.3279(12) 0.3808(7) 0.4435(5) 0.051(3) Uani 1 1 d . . .
C40 C 0.2908(15) 0.3337(7) 0.4136(5) 0.065(4) Uani 1 1 d . . .
H40 H 0.2725 0.2859 0.4340 0.079 Uiso 1 1 calc R . .
C41 C 0.2811(13) 0.3566(7) 0.3551(5) 0.057(4) Uani 1 1 d . . .
H41 H 0.2559 0.3235 0.3365 0.069 Uiso 1 1 calc R . .
C42 C 0.3341(14) 0.3881(7) 0.6004(5) 0.059(4) Uani 1 1 d . . .
H42 H 0.3406 0.4227 0.6203 0.071 Uiso 1 1 calc R . .
C43 C 0.3324(13) 0.4098(7) 0.5397(5) 0.056(3) Uani 1 1 d . . .
H43 H 0.3330 0.4583 0.5196 0.068 Uiso 1 1 calc R . .
C44 C 0.3300(12) 0.3589(7) 0.5092(5) 0.048(3) Uani 1 1 d . . .
C45 C 0.3270(14) 0.2894(6) 0.5414(5) 0.057(4) Uani 1 1 d . . .
H45 H 0.3269 0.2537 0.5222 0.068 Uiso 1 1 calc R . .
C46 C 0.3243(13) 0.2706(7) 0.6019(5) 0.054(3) Uani 1 1 d . . .
H46 H 0.3206 0.2222 0.6227 0.065 Uiso 1 1 calc R . .
C47 C 0.5688(13) 0.1222(6) 0.6332(5) 0.051(3) Uani 1 1 d . . .
H47 H 0.5578 0.1603 0.6496 0.061 Uiso 1 1 calc R . .
C48 C 0.5956(14) 0.1377(7) 0.5727(5) 0.057(4) Uani 1 1 d . . .
H48 H 0.5997 0.1851 0.5495 0.068 Uiso 1 1 calc R . .
C49 C 0.6163(11) 0.0829(6) 0.5466(4) 0.040(3) Uani 1 1 d . . .
C50 C 0.6090(12) 0.0157(6) 0.5853(5) 0.050(3) Uani 1 1 d . . .
H50 H 0.6243 -0.0236 0.5707 0.060 Uiso 1 1 calc R . .
C51 C 0.5797(11) 0.0049(6) 0.6449(5) 0.042(3) Uani 1 1 d . . .
H51 H 0.5750 -0.0418 0.6695 0.051 Uiso 1 1 calc R . .
C52 C 0.6160(16) 0.1708(8) 0.3860(5) 0.070(4) Uani 1 1 d . . .
H52 H 0.5894 0.2139 0.3624 0.084 Uiso 1 1 calc R . .
C53 C 0.6002(17) 0.1595(7) 0.4460(5) 0.076(5) Uani 1 1 d . . .
H53 H 0.5649 0.1950 0.4618 0.091 Uiso 1 1 calc R . .
C54 C 0.6358(11) 0.0962(6) 0.4835(4) 0.038(3) Uani 1 1 d . . .
C55 C 0.6875(13) 0.0486(7) 0.4558(5) 0.055(3) Uani 1 1 d . . .
H55 H 0.7137 0.0047 0.4784 0.066 Uiso 1 1 calc R . .
C56 C 0.7018(12) 0.0637(6) 0.3952(5) 0.048(3) Uani 1 1 d . . .
H56 H 0.7382 0.0294 0.3784 0.058 Uiso 1 1 calc R . .
C57 C 1.0253(13) -0.3697(6) 0.3918(5) 0.052(3) Uani 1 1 d . . .
H57 H 1.0229 -0.3200 0.3811 0.062 Uiso 1 1 calc R . .
C58 C 1.0100(13) -0.4069(6) 0.4509(5) 0.053(3) Uani 1 1 d . . .
H58 H 0.9997 -0.3818 0.4792 0.064 Uiso 1 1 calc R . .
C59 C 1.0099(10) -0.4796(6) 0.4687(4) 0.035(2) Uani 1 1 d . . .
C60 C 1.0239(13) -0.5127(6) 0.4246(4) 0.048(3) Uani 1 1 d . . .
H60 H 1.0235 -0.5625 0.4340 0.058 Uiso 1 1 calc R . .
C61 C 1.0387(13) -0.4730(6) 0.3669(5) 0.051(3) Uani 1 1 d . . .
H61 H 1.0461 -0.4969 0.3378 0.061 Uiso 1 1 calc R . .
C62 C 0.7797(10) -0.2124(6) 0.1303(5) 0.039(3) Uani 1 1 d . . .
H62 H 0.7970 -0.1753 0.1462 0.047 Uiso 1 1 calc R . .
C63 C 0.8107(10) -0.2018(6) 0.0703(5) 0.039(3) Uani 1 1 d . . .
H63 H 0.8430 -0.1575 0.0466 0.047 Uiso 1 1 calc R . .
C64 C 0.7942(9) -0.2563(7) 0.0457(5) 0.039(3) Uani 1 1 d . . .
C65 C 0.7395(11) -0.3186(6) 0.0836(5) 0.042(3) Uani 1 1 d . . .
H65 H 0.7240 -0.3570 0.0688 0.051 Uiso 1 1 calc R . .
C66 C 0.7078(10) -0.3252(6) 0.1419(4) 0.034(2) Uani 1 1 d . . .
H66 H 0.6714 -0.3683 0.1661 0.041 Uiso 1 1 calc R . .
C67 C 0.8280(10) -0.2466(6) -0.0180(4) 0.038(3) Uani 1 1 d . . .
C68 C 0.8191(11) -0.1830(6) -0.0593(5) 0.045(3) Uani 1 1 d . . .
H68 H 0.7982 -0.1423 -0.0474 0.054 Uiso 1 1 calc R . .
C69 C 0.8407(10) -0.1782(7) -0.1182(5) 0.046(3) Uani 1 1 d . . .
H69 H 0.8300 -0.1340 -0.1452 0.055 Uiso 1 1 calc R . .
C70 C 0.8873(10) -0.2943(6) -0.0993(5) 0.040(3) Uani 1 1 d . . .
H70 H 0.9119 -0.3335 -0.1128 0.048 Uiso 1 1 calc R . .
C71 C 0.8657(10) -0.3049(6) -0.0396(5) 0.041(3) Uani 1 1 d . . .
H71 H 0.8758 -0.3498 -0.0136 0.049 Uiso 1 1 calc R . .
C72 C 0.7587(11) 0.2623(6) 0.1254(4) 0.038(3) Uani 1 1 d . . .
H72 H 0.7306 0.2966 0.1441 0.045 Uiso 1 1 calc R . .
C73 C 0.7921(10) 0.2838(6) 0.0652(5) 0.041(3) Uani 1 1 d . . .
H73 H 0.7880 0.3318 0.0440 0.049 Uiso 1 1 calc R . .
C74 C 0.8326(9) 0.2325(6) 0.0359(4) 0.032(2) Uani 1 1 d . . .
C75 C 0.8392(10) 0.1632(6) 0.0705(4) 0.037(2) Uani 1 1 d . . .
H75 H 0.8686 0.1275 0.0536 0.045 Uiso 1 1 calc R . .
C76 C 0.8025(10) 0.1471(6) 0.1296(4) 0.039(3) Uani 1 1 d . . .
H76 H 0.8037 0.0994 0.1518 0.047 Uiso 1 1 calc R . .
C77 C 0.9196(10) 0.3414(6) -0.1206(5) 0.038(3) Uani 1 1 d . . .
H77 H 0.9430 0.3886 -0.1411 0.045 Uiso 1 1 calc R . .
C78 C 0.8990(9) 0.3238(6) -0.0609(4) 0.034(2) Uani 1 1 d . . .
H78 H 0.9085 0.3585 -0.0414 0.041 Uiso 1 1 calc R . .
C79 C 0.8634(9) 0.2533(6) -0.0284(4) 0.033(2) Uani 1 1 d . . .
C80 C 0.8552(10) 0.2045(6) -0.0601(4) 0.036(2) Uani 1 1 d . . .
H80 H 0.8349 0.1566 -0.0407 0.044 Uiso 1 1 calc R . .
C81 C 0.8777(10) 0.2275(6) -0.1219(4) 0.038(3) Uani 1 1 d . . .
H81 H 0.8710 0.1941 -0.1429 0.045 Uiso 1 1 calc R . .
C87 C 1.0277(18) 0.1624(12) 0.3899(7) 0.113(7) Uani 1 1 d . . .
H87A H 0.9442 0.1424 0.3895 0.135 Uiso 1 1 calc R . .
H87B H 1.0258 0.1787 0.4251 0.135 Uiso 1 1 calc R . .
C88 C 1.122(2) 0.1063(13) 0.3927(9) 0.121(5) Uani 1 1 d U . .
H88A H 1.0994 0.0663 0.4276 0.145 Uiso 1 1 calc R . .
H88B H 1.1236 0.0888 0.3581 0.145 Uiso 1 1 calc R . .
N1 N 0.3051(8) 0.4231(5) 0.3226(3) 0.037(2) Uani 1 1 d . . .
N2 N 0.3266(9) 0.3190(5) 0.6313(4) 0.041(2) Uani 1 1 d . . .
N3 N 0.5580(8) 0.0577(5) 0.6688(3) 0.0322(19) Uani 1 1 d . . .
N4 N 0.6673(9) 0.1236(5) 0.3597(4) 0.042(2) Uani 1 1 d . . .
N5 N 0.7647(8) 0.1958(5) 0.1576(3) 0.033(2) Uani 1 1 d . . .
N6 N 0.9078(8) 0.2944(5) -0.1515(3) 0.034(2) Uani 1 1 d . . .
N7 N 0.7268(8) -0.2723(5) 0.1663(4) 0.036(2) Uani 1 1 d . . .
N8 N 0.8759(9) -0.2326(5) -0.1394(4) 0.040(2) Uani 1 1 d . . .
N9 N 1.0429(8) -0.4022(5) 0.3503(4) 0.0334(19) Uani 1 1 d . . .
O1 O 0.5322(7) 0.8074(4) 0.2552(3) 0.0379(17) Uani 1 1 d . . .
O2 O 0.4636(8) 0.8973(4) 0.1887(3) 0.048(2) Uani 1 1 d . . .
O3 O 0.2730(7) 0.6933(4) 0.2900(3) 0.0375(17) Uani 1 1 d . . .
O4 O 0.4724(7) 0.6549(4) 0.2908(3) 0.0356(17) Uani 1 1 d . . .
O5 O 0.2452(7) 0.5818(4) 0.2321(3) 0.0335(16) Uani 1 1 d . . .
O6 O 0.3758(8) 0.5498(4) 0.1682(4) 0.058(2) Uani 1 1 d . . .
O7 O 0.3696(8) 0.4058(4) 0.1648(3) 0.047(2) Uani 1 1 d . . .
O8 O 0.2554(7) 0.3198(4) 0.2286(3) 0.0386(17) Uani 1 1 d . . .
O9 O 0.2951(7) 0.1695(4) 0.2734(3) 0.0369(17) Uani 1 1 d . . .
O10 O 0.4907(7) 0.2033(4) 0.2781(3) 0.0398(18) Uani 1 1 d . . .
O11 O 0.5532(6) 0.0856(4) 0.2303(3) 0.0318(16) Uani 1 1 d . . .
O12 O 0.4678(10) 0.0507(4) 0.1630(4) 0.061(3) Uani 1 1 d . . .
O13 O 0.8352(7) 0.0683(4) 0.2651(3) 0.0427(18) Uani 1 1 d . . .
O14 O 1.0256(9) 0.1158(5) 0.2554(5) 0.071(3) Uani 1 1 d . . .
O15 O 0.7237(7) -0.0749(4) 0.3038(3) 0.0427(18) Uani 1 1 d . . .
O16 O 0.7572(7) -0.0394(4) 0.2077(3) 0.0382(17) Uani 1 1 d . . .
O17 O 0.8078(8) -0.1926(4) 0.2585(4) 0.053(2) Uani 1 1 d . . .
O18 O 0.9826(10) -0.2521(5) 0.2711(5) 0.072(3) Uani 1 1 d . . .
O19 O 0.9775(7) 0.3159(4) 0.2216(3) 0.0444(19) Uani 1 1 d . . .
O20 O 0.8074(8) 0.2517(4) 0.2643(4) 0.050(2) Uani 1 1 d . . .
O21 O 1.0564(6) 0.4695(4) 0.1849(3) 0.0329(16) Uani 1 1 d . . .
O22 O 1.0457(6) 0.4255(4) 0.2798(3) 0.0314(15) Uani 1 1 d . . .
O23 O 0.9496(7) 0.5757(4) 0.2399(3) 0.0357(17) Uani 1 1 d . . .
O24 O 0.7577(8) 0.6025(4) 0.2753(4) 0.049(2) Uani 1 1 d . . .
O27 O 1.0547(9) 0.2225(6) 0.3385(4) 0.068(3) Uani 1 1 d . . .
O28 O 1.2409(14) 0.1353(9) 0.3951(5) 0.120(5) Uani 1 1 d U . .
H28 H 1.2795 0.1477 0.3617 0.180 Uiso 1 1 calc R . .
O30 O 0.025(3) 0.2252(16) 0.5268(15) 0.048(8) Uani 0.25 1 d P . .
C3 C 0.4070(9) 0.6973(6) 0.1031(4) 0.032(2) Uani 1 1 d . . .
H3 H 0.3967 0.6676 0.0791 0.038 Uiso 1 1 calc R . .
C4 C 0.4646(9) 0.8112(5) 0.1120(4) 0.032(2) Uani 1 1 d . . .
H4 H 0.4894 0.8589 0.0944 0.039 Uiso 1 1 calc R . .
C5 C 0.4284(10) 0.3156(6) 0.0933(4) 0.035(2) Uani 1 1 d . . .
H5 H 0.4178 0.3636 0.0737 0.042 Uiso 1 1 calc R . .
C12 C 0.4933(10) 0.1974(5) 0.0920(4) 0.035(2) Uani 1 1 d . . .
H12 H 0.5213 0.1650 0.0711 0.042 Uiso 1 1 calc R . .
C13 C 0.4731(11) 0.2686(6) 0.0613(4) 0.040(3) Uani 1 1 d . . .
H13 H 0.4893 0.2842 0.0202 0.048 Uiso 1 1 calc R . .
O1A O 0.9359(15) 0.3308(7) 0.3781(5) 0.081(4) Uani 0.75 1 d P A 1
C1A C 0.4470(11) 0.7679(6) 0.0782(4) 0.038(3) Uani 1 1 d . . .
H1A H 0.4621 0.7857 0.0372 0.045 Uiso 1 1 calc R . .
O1B O 0.843(3) 0.8948(11) 0.4121(8) 0.093(7) Uani 0.50 1 d PU . .
O1C O 0.661(2) 0.3260(12) 0.5927(10) 0.085(6) Uani 0.50 1 d PU . .
O1E O 0.783(3) 0.3070(17) 0.4898(13) 0.126(10) Uani 0.50 1 d PU . .
O1F O 0.705(4) 0.4872(18) 0.0714(16) 0.167(13) Uani 0.50 1 d PU . .
O1D O 0.796(3) 0.3391(18) 0.3929(11) 0.041(7) Uani 0.25 1 d PU B 2

loop_
_atom_site_aniso_label
_atom_site_aniso_U_11
_atom_site_aniso_U_22
_atom_site_aniso_U_33
_atom_site_aniso_U_23
_atom_site_aniso_U_13
_atom_site_aniso_U_12
Cd1 0.0248(4) 0.0233(4) 0.0265(3) -0.0085(3) -0.0025(3) 0.0020(3)
Cd3 0.0331(4) 0.0214(4) 0.0228(3) -0.0064(3) -0.0022(3) -0.0007(3)
Cd2 0.0336(4) 0.0201(4) 0.0214(3) -0.0045(3) -0.0014(3) 0.0027(3)
Cd4 0.0339(4) 0.0217(4) 0.0273(4) -0.0095(3) -0.0050(3) 0.0036(3)
Cd5 0.0279(4) 0.0227(4) 0.0289(4) -0.0093(3) -0.0029(3) 0.0008(3)
Cd6 0.0331(4) 0.0232(4) 0.0352(4) -0.0117(3) -0.0035(3) 0.0020(3)
C1 0.025(5) 0.029(6) 0.041(6) -0.016(5) -0.001(4) 0.003(4)
C2 0.025(5) 0.014(5) 0.034(5) -0.012(4) 0.000(4) -0.001(4)
C6 0.019(4) 0.020(5) 0.037(5) -0.016(4) -0.006(4) 0.002(4)
C7 0.023(5) 0.032(6) 0.029(5) -0.014(4) -0.009(4) 0.006(4)
C8 0.030(5) 0.025(5) 0.032(5) -0.013(4) -0.006(4) 0.005(4)