####################################################################### 
# 
# This file contains crystal structure data downloaded from the 
# Cambridge Structural Database (CSD) hosted by the Cambridge 
# Crystallographic Data Centre (CCDC).
# 
# Full information about CCDC data access policies and citation 
# guidelines are available at http://www.ccdc.cam.ac.uk/access/V1 
# 
# Audit and citation data items may have been added by the CCDC. 
# Please retain this information to preserve the provenance of 
# this file and to allow appropriate attribution of the data. 
# 
#######################################################################

data_bl393a2
_audit_block_doi                 10.5517/ccpnzdp
_database_code_depnum_ccdc_archive 'CCDC 645773'
loop_
_citation_id
_citation_doi
_citation_year
1 10.1007/s10870-007-9244-3 2007
_audit_update_record             
;
2007-05-02 deposited with the CCDC.	2024-07-13 downloaded from the CCDC.
;

_audit_creation_method           SHELXL-97
_chemical_name_systematic        
;
?
;
_chemical_name_common            ?
_chemical_melting_point          ?
_chemical_formula_moiety         ?
_chemical_formula_sum            'C34.25 H22 N2 O12.25 Zn3'
_chemical_formula_weight         853.65

loop_
_atom_type_symbol
_atom_type_description
_atom_type_scat_dispersion_real
_atom_type_scat_dispersion_imag
_atom_type_scat_source
C C 0.0033 0.0016 'International Tables Vol C Tables 4.2.6.8 and 6.1.1.4'
H H 0.0000 0.0000 'International Tables Vol C Tables 4.2.6.8 and 6.1.1.4'
N N 0.0061 0.0033 'International Tables Vol C Tables 4.2.6.8 and 6.1.1.4'
O O 0.0106 0.0060 'International Tables Vol C Tables 4.2.6.8 and 6.1.1.4'
Zn Zn 0.2839 1.4301 'International Tables Vol C Tables 4.2.6.8 and 6.1.1.4'

_symmetry_cell_setting           monoclinic
_symmetry_space_group_name_H-M   P2(1)/C

loop_
_symmetry_equiv_pos_as_xyz
'x, y, z'
'-x, y+1/2, -z+1/2'
'-x, -y, -z'
'x, -y-1/2, z-1/2'

_cell_length_a                   17.142(3)
_cell_length_b                   21.544(4)
_cell_length_c                   11.805(2)
_cell_angle_alpha                90.00
_cell_angle_beta                 106.441(3)
_cell_angle_gamma                90.00
_cell_volume                     4181.5(14)
_cell_formula_units_Z            4
_cell_measurement_temperature    90(2)
_cell_measurement_reflns_used    ?
_cell_measurement_theta_min      ?
_cell_measurement_theta_max      ?

_exptl_crystal_description       block
_exptl_crystal_colour            clear
_exptl_crystal_size_max          0.35
_exptl_crystal_size_mid          0.35
_exptl_crystal_size_min          0.30
_exptl_crystal_density_meas      'not measured'
_exptl_crystal_density_diffrn    1.356
_exptl_crystal_density_method    'not measured'
_exptl_crystal_F_000             1718
_exptl_absorpt_coefficient_mu    1.763
_exptl_absorpt_correction_type   none
_exptl_absorpt_correction_T_min  ?
_exptl_absorpt_correction_T_max  ?
_exptl_absorpt_process_details   ?

_exptl_special_details           
;
?
;

_diffrn_ambient_temperature      90(2)
_diffrn_radiation_wavelength     0.71073
_diffrn_radiation_type           MoK\a
_diffrn_radiation_source         'fine-focus sealed tube'
_diffrn_radiation_monochromator  graphite
_diffrn_measurement_device_type  'CCD area detector'
_diffrn_measurement_method       'phi and omega scans'
_diffrn_detector_area_resol_mean ?
_diffrn_standards_number         ?
_diffrn_standards_interval_count ?
_diffrn_standards_interval_time  ?
_diffrn_standards_decay_%        ?
_diffrn_reflns_number            36290
_diffrn_reflns_av_R_equivalents  0.1905
_diffrn_reflns_av_sigmaI/netI    0.1553
_diffrn_reflns_limit_h_min       -22
_diffrn_reflns_limit_h_max       22
_diffrn_reflns_limit_k_min       -28
_diffrn_reflns_limit_k_max       27
_diffrn_reflns_limit_l_min       -15
_diffrn_reflns_limit_l_max       15
_diffrn_reflns_theta_min         1.56
_diffrn_reflns_theta_max         28.26
_reflns_number_total             10050
_reflns_number_gt                5516
_reflns_threshold_expression     >2sigma(I)

_computing_data_collection       'Bruker SMART'
_computing_cell_refinement       'Bruker SMART'
_computing_data_reduction        'Bruker SAINT'
_computing_structure_solution    'SHELXS-97 (Sheldrick, 1990)'
_computing_structure_refinement  'SHELXL-97 (Sheldrick, 1997)'
_computing_molecular_graphics    'Bruker SHELXTL'
_computing_publication_material  'Bruker SHELXTL'

_refine_special_details          
;
Refinement of F^2^ against ALL reflections. The weighted R-factor wR and
goodness of fit S are based on F^2^, conventional R-factors R are based
on F, with F set to zero for negative F^2^. The threshold expression of
F^2^ > 2sigma(F^2^) is used only for calculating R-factors(gt) etc. and is
not relevant to the choice of reflections for refinement. R-factors based
on F^2^ are statistically about twice as large as those based on F, and R-
factors based on ALL data will be even larger.
;

_refine_ls_structure_factor_coef Fsqd
_refine_ls_matrix_type           full
_refine_ls_weighting_scheme      calc
_refine_ls_weighting_details     
'calc w=1/[\s^2^(Fo^2^)+(0.1039P)^2^+0.0000P] where P=(Fo^2^+2Fc^2^)/3'
_atom_sites_solution_primary     direct
_atom_sites_solution_secondary   difmap
_atom_sites_solution_hydrogens   geom
_refine_ls_hydrogen_treatment    constr
_refine_ls_extinction_method     none
_refine_ls_extinction_coef       ?
_refine_ls_number_reflns         10050
_refine_ls_number_parameters     467
_refine_ls_number_restraints     0
_refine_ls_R_factor_all          0.1244
_refine_ls_R_factor_gt           0.0727
_refine_ls_wR_factor_ref         0.2315
_refine_ls_wR_factor_gt          0.2120
_refine_ls_goodness_of_fit_ref   1.017
_refine_ls_restrained_S_all      1.017
_refine_ls_shift/su_max          0.285
_refine_ls_shift/su_mean         0.006

loop_
_atom_site_label
_atom_site_type_symbol
_atom_site_fract_x
_atom_site_fract_y
_atom_site_fract_z
_atom_site_U_iso_or_equiv
_atom_site_adp_type
_atom_site_occupancy
_atom_site_symmetry_multiplicity
_atom_site_calc_flag
_atom_site_refinement_flags
_atom_site_disorder_assembly
_atom_site_disorder_group
Zn1 Zn 0.27275(4) 0.42794(3) 0.17676(6) 0.0301(2) Uani 1 1 d . . .
Zn2 Zn 0.17148(4) 0.37960(4) 0.35976(7) 0.0357(2) Uani 1 1 d . . .
Zn3 Zn 0.36568(4) 0.53252(3) 0.06487(6) 0.0330(2) Uani 1 1 d . . .
O1 O 0.0790(3) 0.3926(2) 0.2171(4) 0.0446(12) Uani 1 1 d . . .
O2 O 0.1551(2) 0.4171(2) 0.0965(4) 0.0424(11) Uani 1 1 d . . .
O3 O -0.2236(3) 0.4287(3) 0.0537(5) 0.0669(17) Uani 1 1 d . . .
O4 O -0.2684(3) 0.4697(2) -0.1251(4) 0.0390(11) Uani 1 1 d . . .
O5 O 0.3933(3) 0.4388(2) 0.2613(4) 0.0444(12) Uani 1 1 d . . .
O6 O 0.4564(3) 0.5194(2) 0.2110(4) 0.0451(12) Uani 1 1 d . . .
O7 O 0.7563(3) 0.5456(2) 0.6625(4) 0.0398(11) Uani 1 1 d . . .
O8 O 0.7267(3) 0.5796(3) 0.4823(5) 0.0699(17) Uani 1 1 d . . .
O9 O 0.3776(3) 0.4671(2) -0.0421(4) 0.0422(11) Uani 1 1 d . . .
O10 O 0.2909(3) 0.4067(2) 0.0165(4) 0.0459(12) Uani 1 1 d . . .
O11 O 0.2274(3) 0.1982(2) -0.1519(5) 0.0509(13) Uani 1 1 d . . .
O12 O 0.2936(3) 0.1632(2) -0.2758(5) 0.0541(13) Uani 1 1 d . . .
O13M O 0.1525(11) 0.5188(8) 0.6260(16) 0.050 Uiso 0.275(9) 1 d P . .
C35M C 0.2152(17) 0.4946(13) 0.717(2) 0.050 Uiso 0.275(9) 1 d P . .
N1 N 0.1070(4) 0.3511(3) 0.4683(5) 0.0556(17) Uani 1 1 d . . .
N2 N 0.4051(3) 0.6100(3) 0.0037(5) 0.0429(14) Uani 1 1 d . . .
C1 C 0.1421(6) 0.3243(8) 0.5688(11) 0.137(6) Uani 1 1 d . . .
H1 H 0.1984 0.3202 0.5909 0.164 Uiso 1 1 calc R . .
C2 C 0.0997(9) 0.3013(9) 0.6457(13) 0.155(7) Uani 1 1 d . . .
H2 H 0.1279 0.2823 0.7162 0.186 Uiso 1 1 calc R . .
C3 C 0.0226(10) 0.3063(11) 0.6191(16) 0.200(11) Uani 1 1 d . . .
H3 H -0.0057 0.2889 0.6677 0.240 Uiso 1 1 calc R . .
C4 C -0.0196(9) 0.3382(11) 0.5160(17) 0.203(10) Uani 1 1 d . . .
H4 H -0.0755 0.3447 0.4963 0.244 Uiso 1 1 calc R . .
C5 C 0.0296(7) 0.3607(10) 0.4419(13) 0.195(10) Uani 1 1 d . . .
H5 H 0.0043 0.3826 0.3734 0.235 Uiso 1 1 calc R . .
C6 C 0.3958(6) 0.6667(4) 0.0427(9) 0.078(3) Uani 1 1 d . . .
H6 H 0.3676 0.6705 0.0990 0.094 Uiso 1 1 calc R . .
C7 C 0.4243(8) 0.7184(4) 0.0067(12) 0.105(4) Uani 1 1 d . . .
H7 H 0.4155 0.7569 0.0366 0.127 Uiso 1 1 calc R . .
C8 C 0.4666(7) 0.7136(5) -0.0751(12) 0.100(4) Uani 1 1 d . . .
H8 H 0.4863 0.7491 -0.1026 0.120 Uiso 1 1 calc R . .
C9 C 0.4801(6) 0.6567(5) -0.1164(9) 0.083(3) Uani 1 1 d . . .
H9 H 0.5105 0.6522 -0.1697 0.099 Uiso 1 1 calc R . .
C10 C 0.4472(5) 0.6067(4) -0.0764(7) 0.056(2) Uani 1 1 d . . .
H10 H 0.4543 0.5678 -0.1064 0.067 Uiso 1 1 calc R . .
C11 C 0.0882(4) 0.4076(3) 0.1178(6) 0.0350(14) Uani 1 1 d . . .
C12 C 0.0135(4) 0.4159(3) 0.0162(6) 0.0351(14) Uani 1 1 d . . .
C13 C 0.0213(4) 0.4208(4) -0.0963(6) 0.0469(18) Uani 1 1 d . . .
H13 H 0.0723 0.4159 -0.1083 0.056 Uiso 1 1 calc R . .
C14 C -0.0443(5) 0.4329(4) -0.1904(7) 0.056(2) Uani 1 1 d . . .
H14 H -0.0379 0.4367 -0.2657 0.067 Uiso 1 1 calc R . .
C15 C -0.1199(4) 0.4394(4) -0.1738(6) 0.0487(19) Uani 1 1 d . . .
H15 H -0.1649 0.4469 -0.2380 0.058 Uiso 1 1 calc R . .
C16 C -0.1293(4) 0.4348(3) -0.0596(6) 0.0365(15) Uani 1 1 d . . .
C17 C -0.0622(4) 0.4220(3) 0.0345(5) 0.0333(14) Uani 1 1 d . . .
H17 H -0.0680 0.4174 0.1100 0.040 Uiso 1 1 calc R . .
C18 C -0.2113(4) 0.4442(3) -0.0397(6) 0.0408(16) Uani 1 1 d . . .
C19 C 0.4527(4) 0.4739(3) 0.2772(5) 0.0348(14) Uani 1 1 d . . .
C20 C 0.5230(4) 0.4612(3) 0.3806(5) 0.0331(14) Uani 1 1 d . . .
C21 C 0.5257(4) 0.4082(3) 0.4485(6) 0.0425(16) Uani 1 1 d . . .
H21 H 0.4845 0.3788 0.4259 0.051 Uiso 1 1 calc R . .
C22 C 0.5895(5) 0.3987(3) 0.5502(7) 0.0505(19) Uani 1 1 d . . .
H22 H 0.5913 0.3627 0.5943 0.061 Uiso 1 1 calc R . .
C23 C 0.6501(4) 0.4426(3) 0.5857(6) 0.0409(16) Uani 1 1 d . . .
H23 H 0.6917 0.4370 0.6552 0.049 Uiso 1 1 calc R . .
C24 C 0.6488(4) 0.4943(3) 0.5186(5) 0.0352(14) Uani 1 1 d . . .
C25 C 0.5862(4) 0.5039(3) 0.4160(5) 0.0352(14) Uani 1 1 d . . .
H25 H 0.5864 0.5391 0.3706 0.042 Uiso 1 1 calc R . .
C26 C 0.7131(4) 0.5434(3) 0.5553(6) 0.0418(16) Uani 1 1 d . . .
C27 C 0.3378(4) 0.4171(3) -0.0435(5) 0.0317(14) Uani 1 1 d . . .
C28 C 0.3483(4) 0.3669(3) -0.1270(6) 0.0341(14) Uani 1 1 d . . .
C29 C 0.3997(4) 0.3779(3) -0.1986(6) 0.0425(16) Uani 1 1 d . . .
H29 H 0.4279 0.4152 -0.1935 0.051 Uiso 1 1 calc R . .
C30 C 0.4075(5) 0.3321(3) -0.2775(7) 0.056(2) Uani 1 1 d . . .
H30 H 0.4391 0.3392 -0.3285 0.067 Uiso 1 1 calc R . .
C31 C 0.3683(5) 0.2759(3) -0.2799(7) 0.052(2) Uani 1 1 d . . .
H31 H 0.3754 0.2450 -0.3311 0.063 Uiso 1 1 calc R . .
C32 C 0.3184(4) 0.2644(3) -0.2072(6) 0.0375(15) Uani 1 1 d . . .
C33 C 0.3088(4) 0.3110(3) -0.1315(5) 0.0339(14) Uani 1 1 d . . .
H33 H 0.2751 0.3044 -0.0831 0.041 Uiso 1 1 calc R . .
C34 C 0.2760(4) 0.2038(3) -0.2135(6) 0.0363(15) Uani 1 1 d . . .

loop_
_atom_site_aniso_label
_atom_site_aniso_U_11
_atom_site_aniso_U_22
_atom_site_aniso_U_33
_atom_site_aniso_U_23
_atom_site_aniso_U_13
_atom_site_aniso_U_12
Zn1 0.0260(4) 0.0335(4) 0.0322(4) 0.0027(3) 0.0106(3) -0.0013(3)
Zn2 0.0314(4) 0.0385(4) 0.0393(4) 0.0064(3) 0.0133(3) 0.0024(3)
Zn3 0.0349(4) 0.0317(4) 0.0345(4) -0.0004(3) 0.0132(3) -0.0036(3)
O1 0.037(3) 0.054(3) 0.040(3) 0.013(2) 0.006(2) 0.006(2)
O2 0.020(2) 0.063(3) 0.042(3) -0.008(2) 0.0065(19) -0.002(2)
O3 0.043(3) 0.109(5) 0.053(3) 0.025(3) 0.019(3) 0.004(3)
O4 0.034(2) 0.042(3) 0.039(3) -0.002(2) 0.007(2) 0.006(2)
O5 0.025(2) 0.048(3) 0.055(3) 0.000(2) 0.003(2) -0.008(2)
O6 0.040(3) 0.055(3) 0.037(3) 0.007(2) 0.004(2) -0.003(2)
O7 0.031(2) 0.047(3) 0.037(3) -0.008(2) 0.004(2) -0.003(2)
O8 0.064(4) 0.090(5) 0.050(3) 0.011(3) 0.007(3) -0.039(3)
O9 0.051(3) 0.034(3) 0.048(3) -0.009(2) 0.023(2) -0.013(2)
O10 0.060(3) 0.044(3) 0.041(3) -0.014(2) 0.026(2) -0.012(2)
O11 0.056(3) 0.037(3) 0.069(3) -0.015(2) 0.034(3) -0.019(2)
O12 0.065(3) 0.029(3) 0.077(4) -0.018(2) 0.034(3) -0.003(2)
N1 0.035(3) 0.089(5) 0.045(4) 0.008(3) 0.015(3) 0.001(3)
N2 0.045(3) 0.036(3) 0.053(4) 0.000(3) 0.023(3) 0.002(3)
C1 0.049(6) 0.254(18) 0.112(9) 0.110(11) 0.030(6) 0.019(8)
C2 0.089(10) 0.25(2) 0.131(12) 0.122(12) 0.047(9) 0.030(11)
C3 0.097(11) 0.34(3) 0.177(17) 0.160(18) 0.064(11) 0.012(14)
C4 0.090(11) 0.34(3) 0.199(19) 0.129(19) 0.067(12) 0.005(13)
C5 0.054(7) 0.41(3) 0.122(12) 0.142(15) 0.027(7) 0.032(12)
C6 0.106(8) 0.036(5) 0.118(8) -0.003(5) 0.074(7) -0.003(5)
C7 0.140(11) 0.035(5) 0.170(12) 0.006(6) 0.090(10) -0.004(6)
C8 0.117(9) 0.045(6) 0.164(12) 0.023(6) 0.083(9) -0.005(6)
C9 0.094(7) 0.074(7) 0.101(8) 0.026(6) 0.061(6) -0.005(6)
C10 0.062(5) 0.055(5) 0.058(5) 0.007(4) 0.029(4) 0.000(4)
C11 0.031(3) 0.036(4) 0.037(4) -0.004(3) 0.007(3) 0.002(3)
C12 0.029(3) 0.037(4) 0.038(4) 0.000(3) 0.006(3) 0.002(3)
C13 0.029(4) 0.068(5) 0.044(4) -0.001(4) 0.012(3) 0.004(3)
C14 0.044(4) 0.088(6) 0.039(4) -0.002(4) 0.017(3) 0.010(4)
C15 0.034(4) 0.070(5) 0.037(4) -0.005(3) 0.002(3) 0.015(3)
C16 0.028(3) 0.039(4) 0.042(4) 0.000(3) 0.010(3) 0.002(3)
C17 0.030(3) 0.037(4) 0.033(3) 0.006(3) 0.009(3) 0.004(3)
C18 0.027(3) 0.044(4) 0.051(4) 0.002(3) 0.010(3) 0.003(3)
C19 0.033(3) 0.040(4) 0.034(4) -0.004(3) 0.013(3) 0.003(3)
C20 0.031(3) 0.044(4) 0.025(3) -0.005(3) 0.009(3) 0.001(3)
C21 0.038(4) 0.041(4) 0.046(4) -0.004(3) 0.006(3) -0.006(3)
C22 0.054(5) 0.033(4) 0.059(5) 0.011(3) 0.008(4) 0.002(3)
C23 0.035(4) 0.042(4) 0.040(4) -0.003(3) 0.002(3) 0.003(3)
C24 0.028(3) 0.048(4) 0.029(3) -0.004(3) 0.008(3) -0.004(3)
C25 0.029(3) 0.047(4) 0.033(3) 0.002(3) 0.013(3) -0.002(3)
C26 0.034(4) 0.051(4) 0.038(4) -0.008(3) 0.008(3) -0.005(3)
C27 0.037(3) 0.034(3) 0.026(3) 0.001(3) 0.013(3) -0.002(3)
C28 0.038(4) 0.032(3) 0.036(3) -0.004(3) 0.017(3) 0.000(3)
C29 0.048(4) 0.039(4) 0.045(4) -0.003(3) 0.020(3) -0.008(3)
C30 0.075(5) 0.044(4) 0.067(5) -0.010(4) 0.051(5) -0.012(4)
C31 0.071(5) 0.046(4) 0.054(5) -0.016(4) 0.038(4) -0.003(4)
C32 0.040(4) 0.035(4) 0.043(4) -0.005(3) 0.020(3) -0.003(3)
C33 0.037(4) 0.035(4) 0.034(3) -0.004(3) 0.018(3) -0.006(3)
C34 0.037(4) 0.029(3) 0.044(4) -0.006(3) 0.014(3) -0.001(3)

_geom_special_details            
;
All esds (except the esd in the dihedral angle between two l.s. planes)
are estimated using the full covariance matrix. The cell esds are taken
into account individually in the estimation of esds in distances, angles
and torsion angles; correlations between esds in cell parameters are only
used when they are defined by crystal symmetry. An approximate (isotropic)
treatment of cell esds is used for estimating esds involving l.s. planes.
;

loop_
_geom_bond_atom_site_label_1
_geom_bond_atom_site_label_2
_geom_bond_distance
_geom_bond_site_symmetry_2
_geom_bond_publ_flag
Zn1 O2 1.985(4) . ?
Zn1 O5 2.038(4) . ?
Zn1 O12 2.045(5) 4_566 ?
Zn1 O10 2.054(4) . ?
Zn1 O7 2.170(4) 3_666 ?
Zn1 O4 2.284(4) 3_565 ?
Zn2 O11 1.955(4) 4_566 ?
Zn2 O1 1.979(4) . ?
Zn2 N1 2.011(6) . ?
Zn2 O7 2.094(5) 3_666 ?
Zn2 O8 2.335(5) 3_666 ?
Zn2 C26 2.560(7) 3_666 ?
Zn3 O9 1.942(4) . ?
Zn3 O6 1.989(4) . ?
Zn3 O4 1.989(4) 3_565 ?
Zn3 N2 2.010(6) . ?
O1 C11 1.268(8) . ?
O2 C11 1.258(7) . ?
O3 C18 1.226(8) . ?
O4 C18 1.311(8) . ?
O4 Zn3 1.989(4) 3_565 ?
O4 Zn1 2.284(4) 3_565 ?
O5 C19 1.240(7) . ?
O6 C19 1.267(8) . ?
O7 C26 1.274(8) . ?
O7 Zn2 2.094(5) 3_666 ?
O7 Zn1 2.170(4) 3_666 ?
O8 C26 1.233(8) . ?
O8 Zn2 2.335(5) 3_666 ?
O9 C27 1.272(7) . ?
O10 C27 1.234(7) . ?
O11 C34 1.257(7) . ?
O11 Zn2 1.954(4) 4_565 ?
O12 C34 1.235(7) . ?
O12 Zn1 2.045(5) 4_565 ?
O13M C35M 1.39(3) . ?
N1 C5 1.292(13) . ?
N1 C1 1.304(11) . ?
N2 C6 1.332(10) . ?
N2 C10 1.344(9) . ?
C1 C2 1.405(14) . ?
C2 C3 1.272(17) . ?
C3 C4 1.408(19) . ?
C4 C5 1.458(17) . ?
C6 C7 1.333(12) . ?
C7 C8 1.367(14) . ?
C8 C9 1.364(14) . ?
C9 C10 1.361(11) . ?
C11 C12 1.498(8) . ?
C12 C13 1.376(9) . ?
C12 C17 1.379(8) . ?
C13 C14 1.364(10) . ?
C14 C15 1.371(10) . ?
C15 C16 1.405(9) . ?
C16 C17 1.383(8) . ?
C16 C18 1.502(9) . ?
C19 C20 1.478(8) . ?
C20 C21 1.388(9) . ?
C20 C25 1.392(9) . ?
C21 C22 1.391(10) . ?
C22 C23 1.380(10) . ?
C23 C24 1.364(9) . ?
C24 C25 1.388(8) . ?
C24 C26 1.499(9) . ?
C26 Zn2 2.560(7) 3_666 ?
C27 C28 1.508(8) . ?
C28 C33 1.376(8) . ?
C28 C29 1.403(9) . ?
C29 C30 1.390(9) . ?
C30 C31 1.381(10) . ?
C31 C32 1.395(9) . ?
C32 C33 1.383(8) . ?
C32 C34 1.485(9) . ?

loop_
_geom_angle_atom_site_label_1
_geom_angle_atom_site_label_2
_geom_angle_atom_site_label_3
_geom_angle
_geom_angle_site_symmetry_1
_geom_angle_site_symmetry_3
_geom_angle_publ_flag
O2 Zn1 O5 179.2(2) . . ?
O2 Zn1 O12 95.3(2) . 4_566 ?
O5 Zn1 O12 84.4(2) . 4_566 ?
O2 Zn1 O10 86.13(19) . . ?
O5 Zn1 O10 94.6(2) . . ?
O12 Zn1 O10 88.7(2) 4_566 . ?
O2 Zn1 O7 89.67(17) . 3_666 ?
O5 Zn1 O7 89.64(18) . 3_666 ?
O12 Zn1 O7 94.53(19) 4_566 3_666 ?
O10 Zn1 O7 174.91(19) . 3_666 ?
O2 Zn1 O4 91.98(18) . 3_565 ?
O5 Zn1 O4 88.36(17) . 3_565 ?
O12 Zn1 O4 171.94(18) 4_566 3_565 ?
O10 Zn1 O4 88.33(17) . 3_565 ?
O7 Zn1 O4 88.93(17) 3_666 3_565 ?
O11 Zn2 O1 110.6(2) 4_566 . ?
O11 Zn2 N1 98.7(3) 4_566 . ?
O1 Zn2 N1 97.7(2) . . ?
O11 Zn2 O7 109.40(19) 4_566 3_666 ?
O1 Zn2 O7 98.28(18) . 3_666 ?
N1 Zn2 O7 140.0(2) . 3_666 ?
O11 Zn2 O8 96.2(2) 4_566 3_666 ?
O1 Zn2 O8 149.8(2) . 3_666 ?
N1 Zn2 O8 91.6(2) . 3_666 ?
O7 Zn2 O8 58.39(18) 3_666 3_666 ?
O11 Zn2 C26 104.1(2) 4_566 3_666 ?
O1 Zn2 C26 125.9(2) . 3_666 ?
N1 Zn2 C26 116.9(3) . 3_666 ?
O7 Zn2 C26 29.68(19) 3_666 3_666 ?
O8 Zn2 C26 28.71(19) 3_666 3_666 ?
O9 Zn3 O6 105.1(2) . . ?
O9 Zn3 O4 117.90(19) . 3_565 ?
O6 Zn3 O4 102.46(19) . 3_565 ?
O9 Zn3 N2 105.1(2) . . ?
O6 Zn3 N2 99.7(2) . . ?
O4 Zn3 N2 123.3(2) 3_565 . ?
C11 O1 Zn2 122.9(4) . . ?
C11 O2 Zn1 141.6(4) . . ?
C18 O4 Zn3 103.6(4) . 3_565 ?
C18 O4 Zn1 124.8(4) . 3_565 ?
Zn3 O4 Zn1 98.70(17) 3_565 