####################################################################### 
# 
# This file contains crystal structure data downloaded from the 
# Cambridge Structural Database (CSD) hosted by the Cambridge 
# Crystallographic Data Centre (CCDC).
# 
# Full information about CCDC data access policies and citation 
# guidelines are available at http://www.ccdc.cam.ac.uk/access/V1 
# 
# Audit and citation data items may have been added by the CCDC. 
# Please retain this information to preserve the provenance of 
# this file and to allow appropriate attribution of the data. 
# 
#######################################################################

data_1
_audit_block_doi                 10.5517/ccp6tzn
_database_code_depnum_ccdc_archive 'CCDC 632182'
loop_
_citation_id
_citation_doi
_citation_year
1 10.1021/cg070640e 2007
_audit_update_record             
;
2006-12-30 deposited with the CCDC.	2024-07-13 downloaded from the CCDC.
;

_audit_creation_method           SHELXL-97
_chemical_name_systematic        
;
?
;
_chemical_name_common            ?
_chemical_melting_point          ?
_chemical_formula_moiety         ?
_chemical_formula_sum            'C108 H132 Fe4 N12 O34'
_chemical_formula_structural     ?
_chemical_formula_weight         2365.66



loop_
_atom_type_symbol
_atom_type_description
_atom_type_scat_dispersion_real
_atom_type_scat_dispersion_imag
_atom_type_scat_source
C C 0.0033 0.0016 'International Tables Vol C Tables 4.2.6.8 and 6.1.1.4'
H H 0.0000 0.0000 'International Tables Vol C Tables 4.2.6.8 and 6.1.1.4'
N N 0.0061 0.0033 'International Tables Vol C Tables 4.2.6.8 and 6.1.1.4'
O O 0.0106 0.0060 'International Tables Vol C Tables 4.2.6.8 and 6.1.1.4'
Fe Fe 0.3463 0.8444 'International Tables Vol C Tables 4.2.6.8 and 6.1.1.4'

_symmetry_cell_setting           rhombohedral
_symmetry_space_group_name_H-M   'R -3'
_symmetry_space_group_name_Hall  '-R 3'


loop_
_symmetry_equiv_pos_as_xyz
'x, y, z'
'-y, x-y, z'
'-x+y, -x, z'
'x+2/3, y+1/3, z+1/3'
'-y+2/3, x-y+1/3, z+1/3'
'-x+y+2/3, -x+1/3, z+1/3'
'x+1/3, y+2/3, z+2/3'
'-y+1/3, x-y+2/3, z+2/3'
'-x+y+1/3, -x+2/3, z+2/3'
'-x, -y, -z'
'y, -x+y, -z'
'x-y, x, -z'
'-x+2/3, -y+1/3, -z+1/3'
'y+2/3, -x+y+1/3, -z+1/3'
'x-y+2/3, x+1/3, -z+1/3'
'-x+1/3, -y+2/3, -z+2/3'
'y+1/3, -x+y+2/3, -z+2/3'
'x-y+1/3, x+2/3, -z+2/3'

_cell_length_a                   38.2457(15)
_cell_length_b                   38.2457(15)
_cell_length_c                   20.8226(15)
_cell_angle_alpha                90.00
_cell_angle_beta                 90.00
_cell_angle_gamma                120.00
_cell_volume                     26377(2)
_cell_formula_units_Z            9
_cell_measurement_temperature    258(2)
_cell_measurement_reflns_used    3827
_cell_measurement_theta_min      2.31
_cell_measurement_theta_max      20.90

_exptl_crystal_description       block
_exptl_crystal_colour            brown
_exptl_crystal_size_max          0.40
_exptl_crystal_size_mid          0.25
_exptl_crystal_size_min          0.20
_exptl_crystal_density_meas      ?
_exptl_crystal_density_diffrn    1.340
_exptl_crystal_density_method    'not measured'
_exptl_crystal_F_000             11160
_exptl_absorpt_coefficient_mu    0.567
_exptl_absorpt_correction_type   empirical
_exptl_absorpt_correction_T_min  0.8049
_exptl_absorpt_correction_T_max  0.8950
_exptl_absorpt_process_details   SADABS

_exptl_special_details           
;
?
;

_diffrn_ambient_temperature      258(2)
_diffrn_radiation_wavelength     0.71073
_diffrn_radiation_type           MoK\a
_diffrn_radiation_source         'fine-focus sealed tube'
_diffrn_radiation_monochromator  graphite
_diffrn_measurement_device_type  'Bruker SMART CCD'
_diffrn_measurement_method       'omega scan'
_diffrn_detector_area_resol_mean ?
_diffrn_standards_number         '50 frames'
_diffrn_standards_interval_count ?
_diffrn_standards_interval_time  ?
_diffrn_standards_decay_%        'slope 0.0465'
_diffrn_reflns_number            57309
_diffrn_reflns_av_R_equivalents  0.1466
_diffrn_reflns_av_sigmaI/netI    0.2706
_diffrn_reflns_limit_h_min       -45
_diffrn_reflns_limit_h_max       49
_diffrn_reflns_limit_k_min       -49
_diffrn_reflns_limit_k_max       45
_diffrn_reflns_limit_l_min       -15
_diffrn_reflns_limit_l_max       27
_diffrn_reflns_theta_min         1.06
_diffrn_reflns_theta_max         28.33
_reflns_number_total             14112
_reflns_number_gt                4889
_reflns_threshold_expression     >2sigma(I)

_computing_data_collection       'Bruker SMART'
_computing_cell_refinement       'Bruker SAINT and SMART'
_computing_data_reduction        'Bruker SAINT'
_computing_structure_solution    'SHELXS-97 (Sheldrick, 1990)'
_computing_structure_refinement  'SHELXL-97 (Sheldrick, 1997)'
_computing_molecular_graphics    'Bruker XP'
_computing_publication_material  'Bruker XCIF'

_refine_special_details          
;
Refinement of F^2^ against ALL reflections. The weighted R-factor wR and
goodness of fit S are based on F^2^, conventional R-factors R are based
on F, with F set to zero for negative F^2^. The threshold expression of
F^2^ > 2sigma(F^2^) is used only for calculating R-factors(gt) etc. and is
not relevant to the choice of reflections for refinement. R-factors based
on F^2^ are statistically about twice as large as those based on F, and R-
factors based on ALL data will be even larger.
;

_refine_ls_structure_factor_coef Fsqd
_refine_ls_matrix_type           full
_refine_ls_weighting_scheme      calc
_refine_ls_weighting_details     
'calc w=1/[\s^2^(Fo^2^)+(0.0759P)^2^+0.0000P] where P=(Fo^2^+2Fc^2^)/3'
_atom_sites_solution_primary     direct
_atom_sites_solution_secondary   difmap
_atom_sites_solution_hydrogens   geom
_refine_ls_hydrogen_treatment    mixed
_refine_ls_extinction_method     SHELXL
_refine_ls_extinction_coef       0.000064(8)
_refine_ls_extinction_expression Fc^*^=kFc[1+0.001xFc^2^\l^3^/sin(2\q)]^-1/4^
_refine_ls_number_reflns         14112
_refine_ls_number_parameters     485
_refine_ls_number_restraints     7
_refine_ls_R_factor_all          0.1619
_refine_ls_R_factor_gt           0.0648
_refine_ls_wR_factor_ref         0.1677
_refine_ls_wR_factor_gt          0.1484
_refine_ls_goodness_of_fit_ref   0.740
_refine_ls_restrained_S_all      0.741
_refine_ls_shift/su_max          0.001
_refine_ls_shift/su_mean         0.000

loop_
_atom_site_label
_atom_site_type_symbol
_atom_site_fract_x
_atom_site_fract_y
_atom_site_fract_z
_atom_site_U_iso_or_equiv
_atom_site_adp_type
_atom_site_occupancy
_atom_site_symmetry_multiplicity
_atom_site_calc_flag
_atom_site_refinement_flags
_atom_site_disorder_assembly
_atom_site_disorder_group
Fe1 Fe 0.413332(17) -0.047274(17) 0.55048(3) 0.02487(16) Uani 1 1 d . . .
Fe2 Fe 0.500554(17) -0.037423(17) 0.50525(3) 0.02248(16) Uani 1 1 d D . .
O1 O 0.41164(8) 0.00301(8) 0.57946(13) 0.0322(7) Uani 1 1 d . . .
O2 O 0.45649(8) 0.05193(8) 0.51509(13) 0.0299(7) Uani 1 1 d . . .
O3 O 0.43084(9) 0.37566(9) 0.51916(16) 0.0410(8) Uani 1 1 d . . .
O4 O 0.46766(13) 0.40449(10) 0.60777(17) 0.0702(12) Uani 1 1 d . . .
O5 O 0.28502(9) 0.17426(9) 1.03606(13) 0.0354(8) Uani 1 1 d . . .
O6 O 0.30014(8) 0.12652(8) 1.06473(13) 0.0285(7) Uani 1 1 d . . .
O7 O 0.46286(8) -0.09751(8) 0.51915(14) 0.0356(8) Uani 1 1 d . . .
O8 O 0.40154(9) -0.10443(8) 0.53045(15) 0.0370(8) Uani 1 1 d . . .
O9 O 0.46174(7) -0.01933(7) 0.50801(12) 0.0230(6) Uani 1 1 d . . .
C1 C 0.38839(14) 0.15030(13) 0.6763(2) 0.0357(12) Uani 1 1 d . . .
C2 C 0.39927(14) 0.18794(13) 0.6476(2) 0.0393(12) Uani 1 1 d . . .
H2A H 0.4119 0.1945 0.6077 0.047 Uiso 1 1 calc R . .
C3 C 0.39091(15) 0.21526(13) 0.6796(2) 0.0393(12) Uani 1 1 d . . .
C4 C 0.37228(15) 0.20511(14) 0.7384(2) 0.0382(12) Uani 1 1 d . . .
H4A H 0.3671 0.2234 0.7596 0.046 Uiso 1 1 calc R . .
C5 C 0.36092(15) 0.16806(14) 0.7672(2) 0.0415(12) Uani 1 1 d . . .
C6 C 0.36960(14) 0.14098(13) 0.7350(2) 0.0378(12) Uani 1 1 d . . .
H6A H 0.3625 0.1163 0.7539 0.045 Uiso 1 1 calc R . .
C7 C 0.39786(14) 0.12156(13) 0.6428(2) 0.0324(11) Uani 1 1 d . . .
C8 C 0.37350(15) 0.08089(13) 0.6494(2) 0.0460(13) Uani 1 1 d . . .
H8A H 0.3497 0.0710 0.6728 0.055 Uiso 1 1 calc R . .
C9 C 0.38359(15) 0.05363(13) 0.6214(2) 0.0434(13) Uani 1 1 d . . .
H9A H 0.3669 0.0260 0.6274 0.052 Uiso 1 1 calc R . .
C10 C 0.41813(13) 0.06769(13) 0.5853(2) 0.0319(11) Uani 1 1 d . . .
C11 C 0.44142(15) 0.10790(14) 0.5771(2) 0.0481(14) Uani 1 1 d . . .
H11A H 0.4642 0.1176 0.5512 0.058 Uiso 1 1 calc R . .
C12 C 0.43251(15) 0.13527(13) 0.6060(2) 0.0493(15) Uani 1 1 d . . .
H12A H 0.4498 0.1628 0.6006 0.059 Uiso 1 1 calc R . .
C13 C 0.42908(13) 0.03858(13) 0.5581(2) 0.0307(11) Uani 1 1 d . . .
C14 C 0.40432(16) 0.25624(13) 0.6516(2) 0.0419(13) Uani 1 1 d . . .
C15 C 0.40284(15) 0.26176(14) 0.5862(2) 0.0420(13) Uani 1 1 d . . .
H15A H 0.3947 0.2401 0.5581 0.050 Uiso 1 1 calc R . .
C16 C 0.41349(15) 0.29970(13) 0.5627(2) 0.0445(13) Uani 1 1 d . . .
H16A H 0.4108 0.3029 0.5190 0.053 Uiso 1 1 calc R . .
C17 C 0.42816(16) 0.33308(14) 0.6032(2) 0.0435(13) Uani 1 1 d . . .
C18 C 0.42968(19) 0.32753(15) 0.6691(2) 0.0616(17) Uani 1 1 d . . .
H18A H 0.4381 0.3493 0.6970 0.074 Uiso 1 1 calc R . .
C19 C 0.4186(2) 0.28946(16) 0.6929(2) 0.0688(19) Uani 1 1 d . . .
H19A H 0.4206 0.2860 0.7367 0.083 Uiso 1 1 calc R . .
C20 C 0.44298(17) 0.37447(15) 0.5755(3) 0.0483(14) Uani 1 1 d . . .
C21 C 0.34187(14) 0.15904(13) 0.8319(2) 0.0344(11) Uani 1 1 d . . .
C22 C 0.31496(15) 0.17315(14) 0.8474(2) 0.0425(13) Uani 1 1 d . . .
H22A H 0.3076 0.1856 0.8161 0.051 Uiso 1 1 calc R . .
C23 C 0.29964(14) 0.16859(14) 0.9086(2) 0.0371(12) Uani 1 1 d . . .
H23A H 0.2817 0.1775 0.9182 0.044 Uiso 1 1 calc R . .
C24 C 0.31097(13) 0.15059(13) 0.9562(2) 0.0290(10) Uani 1 1 d . . .
C25 C 0.33533(15) 0.13511(14) 0.9404(2) 0.0405(12) Uani 1 1 d . . .
H25A H 0.3414 0.1214 0.9713 0.049 Uiso 1 1 calc R . .
C26 C 0.35110(15) 0.13950(14) 0.8787(2) 0.0452(13) Uani 1 1 d . . .
H26A H 0.3680 0.1292 0.8691 0.054 Uiso 1 1 calc R . .
C27 C 0.29801(12) 0.15092(12) 1.0240(2) 0.0274(10) Uani 1 1 d . . .
C28 C 0.37448(17) -0.30978(16) 0.4964(4) 0.103(3) Uani 1 1 d . . .
H28A H 0.4024 -0.2937 0.4945 0.123 Uiso 1 1 calc R . .
C29 C 0.35113(17) -0.29145(16) 0.4977(4) 0.102(3) Uani 1 1 d . . .
C30 C 0.36998(17) -0.24629(16) 0.5005(4) 0.085(2) Uani 1 1 d . . .
C31 C 0.40965(18) -0.22100(17) 0.4890(5) 0.127(3) Uani 1 1 d . . .
H31A H 0.4252 -0.2320 0.4748 0.152 Uiso 1 1 calc R . .
C32 C 0.42791(16) -0.18045(16) 0.4969(4) 0.091(2) Uani 1 1 d . . .
H32A H 0.4555 -0.1644 0.4893 0.110 Uiso 1 1 calc R . .
C33 C 0.40586(14) -0.16296(15) 0.5162(3) 0.0549(15) Uani 1 1 d . . .
C34 C 0.36654(18) -0.18765(17) 0.5321(5) 0.130(4) Uani 1 1 d . . .
H34A H 0.3517 -0.1768 0.5496 0.156 Uiso 1 1 calc R . .
C35 C 0.34826(19) -0.22940(19) 0.5223(6) 0.167(5) Uani 1 1 d . . .
H35A H 0.3209 -0.2458 0.5309 0.200 Uiso 1 1 calc R . .
C36 C 0.42527(14) -0.11814(13) 0.5239(2) 0.0355(11) Uani 1 1 d . . .
O10 O 0.48312(10) -0.05039(11) 0.40885(16) 0.0479(9) Uani 1 1 d D . .
H1W H 0.4580(6) -0.0624(13) 0.3965(15) 0.058 Uiso 1 1 d D . .
H2W H 0.4933(10) -0.0614(13) 0.3837(15) 0.058 Uiso 1 1 d D . .
O1S O 0.36426(11) -0.07698(12) 0.6126(2) 0.0571(12) Uani 1 1 d . . .
C1S C 0.3402(3) -0.0671(2) 0.6283(5) 0.138(4) Uani 1 1 d D . .
H1SA H 0.3378 -0.0482 0.6033 0.166 Uiso 1 1 calc R . .
N1S N 0.3148(3) -0.0832(3) 0.6845(4) 0.175(4) Uani 1 1 d D . .
C2S C 0.2914(3) -0.0641(4) 0.6962(6) 0.233(7) Uani 1 1 d D . .
H2SA H 0.3003 -0.0411 0.6684 0.279 Uiso 1 1 calc R . .
H2SB H 0.2946 -0.0553 0.7401 0.279 Uiso 1 1 calc R . .
H2SC H 0.2634 -0.0829 0.6880 0.279 Uiso 1 1 calc R . .
C3S C 0.3208(4) -0.1191(4) 0.7031(7) 0.286(9) Uani 1 1 d D . .
H3SA H 0.3424 -0.1181 0.6782 0.344 Uiso 1 1 calc R . .
H3SB H 0.2964 -0.1441 0.6947 0.344 Uiso 1 1 calc R . .
H3SC H 0.3272 -0.1175 0.7479 0.344 Uiso 1 1 calc R . .

loop_
_atom_site_aniso_label
_atom_site_aniso_U_11
_atom_site_aniso_U_22
_atom_site_aniso_U_33
_atom_site_aniso_U_23
_atom_site_aniso_U_13
_atom_site_aniso_U_12
Fe1 0.0206(3) 0.0232(3) 0.0300(4) -0.0034(3) 0.0000(3) 0.0103(3)
Fe2 0.0229(3) 0.0205(3) 0.0247(4) -0.0024(3) -0.0008(3) 0.0114(3)
O1 0.0323(18) 0.0261(17) 0.037(2) -0.0008(14) 0.0090(14) 0.0139(15)
O2 0.0312(18) 0.0319(17) 0.0304(18) 0.0038(14) 0.0092(14) 0.0186(15)
O3 0.041(2) 0.0360(19) 0.046(2) 0.0061(16) -0.0023(16) 0.0193(16)
O4 0.108(3) 0.030(2) 0.053(3) 0.0041(18) -0.008(2) 0.020(2)
O5 0.047(2) 0.047(2) 0.0290(19) 0.0038(15) 0.0042(14) 0.0357(17)
O6 0.0353(18) 0.0277(16) 0.0204(17) -0.0005(13) 0.0024(13) 0.0141(14)
O7 0.0235(17) 0.0243(17) 0.054(2) -0.0006(14) 0.0062(15) 0.0085(14)
O8 0.0285(17) 0.0201(16) 0.059(2) -0.0066(14) -0.0003(15) 0.0096(14)
O9 0.0218(15) 0.0229(15) 0.0247(17) -0.0060(12) -0.0061(12) 0.0115(13)
C1 0.051(3) 0.028(3) 0.037(3) 0.000(2) 0.007(2) 0.027(2)
C2 0.062(3) 0.029(3) 0.033(3) 0.006(2) 0.018(2) 0.027(3)
C3 0.061(3) 0.030(3) 0.036(3) 0.005(2) 0.011(3) 0.030(3)
C4 0.063(3) 0.033(3) 0.031(3) 0.006(2) 0.015(2) 0.033(3)
C5 0.061(3) 0.037(3) 0.033(3) 0.008(2) 0.014(2) 0.030(3)
C6 0.062(3) 0.028(3) 0.032(3) 0.002(2) 0.015(2) 0.030(3)
C7 0.043(3) 0.026(2) 0.036(3) 0.002(2) 0.011(2) 0.023(2)
C8 0.048(3) 0.026(3) 0.065(4) 0.004(2) 0.026(3) 0.020(2)
C9 0.050(3) 0.022(3) 0.054(3) 0.002(2) 0.017(3) 0.016(2)
C10 0.031(3) 0.024(2) 0.042(3) 0.006(2) 0.015(2) 0.015(2)
C11 0.043(3) 0.029(3) 0.072(4) -0.003(3) 0.017(3) 0.017(2)
C12 0.064(4) 0.014(2) 0.062(4) 0.002(2) 0.035(3) 0.014(2)
C13 0.028(3) 0.032(3) 0.036(3) 0.000(2) 0.001(2) 0.017(2)
C14 0.070(4) 0.026(3) 0.036(3) 0.003(2) 0.009(3) 0.029(3)
C15 0.068(4) 0.030(3) 0.028(3) 0.002(2) 0.001(2) 0.024(3)
C16 0.072(4) 0.030(3) 0.027(3) 0.002(2) -0.006(3) 0.022(3)
C17 0.066(4) 0.032(3) 0.041(3) 0.003(2) 0.006(3) 0.030(3)
C18 0.121(5) 0.041(3) 0.033(3) 0.006(3) 0.006(3) 0.049(4)
C19 0.152(6) 0.043(3) 0.028(3) 0.004(3) 0.010(3) 0.061(4)
C20 0.072(4) 0.034(3) 0.035(3) 0.004(3) 0.009(3) 0.024(3)
C21 0.055(3) 0.035(3) 0.024(3) -0.001(2) 0.008(2) 0.031(2)
C22 0.064(4) 0.047(3) 0.029(3) 0.013(2) 0.016(2) 0.037(3)
C23 0.046(3) 0.056(3) 0.023(3) 0.006(2) 0.007(2) 0.036(3)
C24 0.038(3) 0.036(3) 0.018(2) 0.003(2) 0.004(2) 0.022(2)
C25 0.058(3) 0.045(3) 0.029(3) 0.011(2) 0.011(2) 0.033(3)
C26 0.071(4) 0.044(3) 0.040(3) 0.012(2) 0.021(3) 0.043(3)
C27 0.029(2) 0.023(2) 0.025(3) 0.000(2) 0.0031(19) 0.009(2)
C28 0.038(4) 0.026(3) 0.249(9) -0.007(4) -0.014(4) 0.019(3)
C29 0.026(3) 0.026(3) 0.249(9) -0.004(4) 0.006(4) 0.009(3)
C30 0.033(3) 0.026(3) 0.194(7) 0.000(4) 0.021(4) 0.015(3)
C31 0.029(4) 0.029(4) 0.315(11) -0.026(5) 0.014(5) 0.009(3)
C32 0.026(3) 0.026(3) 0.214(8) -0.021(4) 0.006(4) 0.006(3)
C33 0.028(3) 0.032(3) 0.107(5) 0.000(3) 0.001(3) 0.017(2)
C34 0.031(4) 0.029(3) 0.327(12) 0.005(5) 0.047(5) 0.012(3)
C35 0.035(4) 0.028(4) 0.435(16) -0.016(6) 0.037(6) 0.014(3)
C36 0.033(3) 0.023(2) 0.046(3) 0.001(2) 0.003(2) 0.011(2)
O10 0.057(2) 0.052(2) 0.038(2) -0.0143(17) -0.0128(18) 0.030(2)
O1S 0.034(2) 0.059(3) 0.082(3) -0.021(2) 0.0129(19) 0.026(2)
C1S 0.166(11) 0.073(6) 0.114(8) 0.010(5) -0.026(8) 0.014(7)
N1S 0.171(8) 0.279(12) 0.143(7) 0.004(7) 0.081(6) 0.162(9)
C2S 0.095(8) 0.275(16) 0.300(16) -0.032(12) 0.065(9) 0.071(10)
C3S 0.132(11) 0.243(17) 0.53(3) -0.060(17) -0.022(14) 0.126(12)

_geom_special_details            
;
All esds (except the esd in the dihedral angle between two l.s. planes)
are estimated using the full covariance matrix. The cell esds are taken
into account individually in the estimation of esds in distances, angles
and torsion angles; correlations between esds in cell parameters are only
used when they are defined by crystal symmetry. An approximate (isotropic)
treatment of cell esds is used for estimating esds involving l.s. planes.
;

loop_
_geom_bond_atom_site_label_1
_geom_bond_atom_site_label_2
_geom_bond_distance
_geom_bond_site_symmetry_2
_geom_bond_publ_flag
Fe1 O9 1.837(3) . ?
Fe1 O3 1.958(3) 11_556 ?
Fe1 O8 2.042(3) . ?
Fe1 O1 2.047(3) . ?
Fe1 O5 2.054(3) 18_546 ?
Fe1 O1S 2.087(4) . ?
Fe2 O9 1.927(3) . ?
Fe2 O9 1.933(3) 10_656 ?
Fe2 O2 2.025(3) 10_656 ?
Fe2 O6 2.025(3) 18_546 ?
Fe2 O7 2.032(3) . ?
Fe2 O10 2.095(3) . ?
Fe2 Fe2 2.8922(11) 10_656 ?
O1 C13 1.259(5) . ?
O2 C13 1.275(5) . ?
O2 Fe2 2.025(3) 10_656 ?
O3 C20 1.271(5) . ?
O3 Fe1 1.958(3) 12_556 ?
O4 C20 1.256(6) . ?
O5 C27 1.245(5) . ?
O5 Fe1 2.053(3) 17_556 ?
O6 C27 1.293(5) . ?
O6 Fe2 2.025(3) 17_556 ?
O7 C36 1.251(5) . ?
O8 C36 1.262(5) . ?
O9 Fe2 1.933(3) 10_656 ?
C1 C6 1.372(6) . ?
C1 C2 1.416(6) . ?
C1 C7 1.491(5) . ?
C2 C3 1.405(6) . ?
C2 H2A 0.9300 . ?
C3 C4 1.371(6) . ?
C3 C14 1.502(6) . ?
C4 C5 1.394(6) . ?
C4 H4A 0.9300 . ?
C5 C6 1.405(6) . ?
C5 C21 1.488(6) . ?
C6 H6A 0.9300 . ?
C7 C8 1.363(6) . ?
C7 C12 1.387(6) . ?
C8 C9 1.406(6) . ?
C8 H8A 0.9300 . ?
C9 C10 1.374(6) . ?
C9 H9A 0.9300 . ?
C10 C11 1.348(6) . ?
C10 C13 1.484(6) . ?
C11 C12 1.389(6) . ?
C11 H11A 0.9300 . ?
C12 H12A 0.9300 . ?
C14 C15 1.385(6) . ?
C14 C19 1.399(6) . ?
C15 C16 1.386(6) . ?
C15 H15A 0.9300 . ?
C16 C17 1.393(6) . ?
C16 H16A 0.9300 . ?
C17 C18 1.393(6) . ?
C17 C20 1.504(6) . ?
C18 C19 1.388(6) . ?
C18 H18A 0.9300 . ?
C19 H19A 0.9300 . ?
C21 C26 1.377(6) . ?
C21 C22 1.418(6) . ?
C22 C23 1.375(6) . ?
C22 H22A 0.9300 . ?
C23 C24 1.394(6) . ?
C23 H23A 0.9300 . ?
C24 C25 1.371(6) . ?
C24 C27 1.499(6) . ?
C25 C26 1.392(6) . ?
C25 H25A 0.9300 . ?
C26 H26A 0.9300 . ?
C28 C29 1.377(7) 3_655 ?
C28 C29 1.384(7) . ?
C28 H28A 0.9300 . ?
C29 C28 1.377(7) 