
#######################################################################
#
#                 Cambridge Crystallographic Data Centre
#                                CCDC
#
#######################################################################
#
# If this CIF has been generated from an entry in the Cambridge
# Structural Database, then it will include bibliographic, chemical,
# crystal, experimental, refinement or atomic coordinate data resulting
# from the CCDC's data processing and validation procedures.
#
#######################################################################

data_CSD_CIF_TIVWOL
_audit_creation_date 2008-07-29
_audit_creation_method CSD-ConQuest-V1
_database_code_CSD TIVWOL
_database_code_depnum_ccdc_archive 'CCDC 678366'
_chemical_formula_sum 'C4 H12 Si1'
_chemical_formula_moiety
;
C4 H12 Si1
;
_journal_coden_Cambridge 1147
_journal_volume 8
_journal_year 2008
_journal_page_first 211
_journal_name_full 'Cryst.Growth Des. '
loop_
_publ_author_name
"R.Gajda"
"A.Katrusiak"
_chemical_name_systematic
;
Tetramethylsilane
;
_chemical_name_common
;
Teaching Subset: Symmetry
;
_chemical_melting_point 174
_cell_volume   1236.343
_exptl_crystal_colour 'colorless'
_exptl_crystal_density_diffrn 0.948
_exptl_crystal_description 'discs'
_diffrn_ambient_temperature 293
_diffrn_ambient_pressure 580000.0
#These two values have been output from a single CSD field.
_refine_ls_R_factor_gt 0.0551
_refine_ls_wR_factor_gt 0.0551
_symmetry_cell_setting cubic
_symmetry_space_group_name_H-M 'P a -3'
_symmetry_Int_Tables_number 205
loop_
_symmetry_equiv_pos_site_id
_symmetry_equiv_pos_as_xyz
1 x,y,z
2 z,x,y
3 y,z,x
4 1/2-x,-y,1/2+z
5 -x,1/2+y,1/2-z
6 1/2+x,1/2-y,-z
7 1/2+z,1/2-x,-y
8 1/2-z,-x,1/2+y
9 -z,1/2+x,1/2-y
10 -y,1/2+z,1/2-x
11 1/2+y,1/2-z,-x
12 1/2-y,-z,1/2+x
13 -x,-y,-z
14 -z,-x,-y
15 -y,-z,-x
16 -1/2+x,y,-1/2-z
17 x,-1/2-y,-1/2+z
18 -1/2-x,-1/2+y,z
19 -1/2-z,-1/2+x,y
20 -1/2+z,x,-1/2-y
21 z,-1/2-x,-1/2+y
22 y,-1/2-z,-1/2+x
23 -1/2-y,-1/2+z,x
24 -1/2+y,z,-1/2-x
_cell_length_a 10.7328(13)
_cell_length_b 10.7328(13)
_cell_length_c 10.7328(13)
_cell_angle_alpha 90
_cell_angle_beta 90
_cell_angle_gamma 90
_cell_formula_units_Z 8
loop_
_atom_type_symbol
_atom_type_radius_bond
C 0.68
H 0.23
Si 1.20
loop_
_atom_site_label
_atom_site_type_symbol
_atom_site_fract_x
_atom_site_fract_y
_atom_site_fract_z
Si1 Si 0.13501(11) 0.13501(11) 0.13501(11)
C1 C 0.2345(6) 0.2345(6) 0.2345(6)
C2 C 0.0395(6) 0.0320(6) 0.2357(6)
H1 H -0.017(6) -0.016(6) 0.183(5)
H2 H 0.090(5) -0.017(5) 0.288(4)
H3 H 0.296(4) 0.269(4) 0.199(4)
H4 H -0.004(5) 0.071(5) 0.293(5)
C2A C 0.2357(6) 0.0395(6) 0.0320(6)
C2B C 0.0320(6) 0.2357(6) 0.0395(6)
H1A H 0.183(6) -0.017(6) -0.016(5)
H1B H -0.016(6) 0.183(6) -0.017(5)
H2A H 0.288(5) 0.090(5) -0.017(4)
H2B H -0.017(5) 0.288(5) 0.090(4)
H3A H 0.199(4) 0.296(4) 0.269(4)
H3B H 0.269(4) 0.199(4) 0.296(4)
H4A H 0.293(5) -0.004(5) 0.071(5)
H4B H 0.071(5) 0.293(5) -0.004(5)
#END
