####################################################################### 
# 
# This file contains crystal structure data downloaded from the 
# Cambridge Structural Database (CSD) hosted by the Cambridge 
# Crystallographic Data Centre (CCDC).
# 
# Full information about CCDC data access policies and citation 
# guidelines are available at http://www.ccdc.cam.ac.uk/access/V1 
# 
# Audit and citation data items may have been added by the CCDC. 
# Please retain this information to preserve the provenance of 
# this file and to allow appropriate attribution of the data. 
# 
#######################################################################

data_a
_audit_block_doi                 10.5517/cc10tkp2
_database_code_depnum_ccdc_archive 'CCDC 948094'
loop_
_citation_id
_citation_doi
_citation_year
1 10.1016/j.ica.2013.12.013 2014
_audit_update_record             
;
2013-07-01 deposited with the CCDC.	2024-07-13 downloaded from the CCDC.
;

_audit_creation_method           SHELXL-97
_chemical_name_systematic        
; 
 ? 
;
_chemical_name_common            ?
_chemical_melting_point          ?
_chemical_formula_moiety         'C50 H42 Mg3 N2 O19, 2(C4 H9 N O)'
_chemical_formula_sum            'C58 H60 Mg3 N4 O21'
_chemical_formula_weight         1222.03

loop_
_atom_type_symbol
_atom_type_description
_atom_type_scat_dispersion_real
_atom_type_scat_dispersion_imag
_atom_type_scat_source
C C 0.0033 0.0016 'International Tables Vol C Tables 4.2.6.8 and 6.1.1.4'
H H 0.0000 0.0000 'International Tables Vol C Tables 4.2.6.8 and 6.1.1.4'
N N 0.0061 0.0033 'International Tables Vol C Tables 4.2.6.8 and 6.1.1.4'
O O 0.0106 0.0060 'International Tables Vol C Tables 4.2.6.8 and 6.1.1.4'
Mg Mg 0.0486 0.0363 'International Tables Vol C Tables 4.2.6.8 and 6.1.1.4'

_symmetry_cell_setting           orthorhombic
_symmetry_space_group_name_H-M   Pccn

loop_
_symmetry_equiv_pos_as_xyz
'x, y, z'
'-x+1/2, -y+1/2, z'
'-x, y+1/2, -z+1/2'
'x+1/2, -y, -z+1/2'
'-x, -y, -z'
'x-1/2, y-1/2, -z'
'x, -y-1/2, z-1/2'
'-x-1/2, y, z-1/2'

_cell_length_a                   23.7111(13)
_cell_length_b                   11.3748(4)
_cell_length_c                   22.0842(10)
_cell_angle_alpha                90.00
_cell_angle_beta                 90.00
_cell_angle_gamma                90.00
_cell_volume                     5956.3(5)
_cell_formula_units_Z            4
_cell_measurement_temperature    293(2)
_cell_measurement_reflns_used    2691
_cell_measurement_theta_min      2.5655
_cell_measurement_theta_max      29.1313

_exptl_crystal_description       block
_exptl_crystal_colour            colourless
_exptl_crystal_size_max          0.20
_exptl_crystal_size_mid          0.20
_exptl_crystal_size_min          0.20
_exptl_crystal_density_meas      ?
_exptl_crystal_density_diffrn    1.363
_exptl_crystal_density_method    'not measured'
_exptl_crystal_F_000             2560
_exptl_absorpt_coefficient_mu    0.132
_exptl_absorpt_correction_type   multi-scan
_exptl_absorpt_correction_T_min  0.9741
_exptl_absorpt_correction_T_max  0.9741
_exptl_absorpt_process_details   ?

_exptl_special_details           
; 
 ? 
;

_diffrn_ambient_temperature      293(2)
_diffrn_radiation_wavelength     0.71073
_diffrn_radiation_type           MoK\a
_diffrn_radiation_source         'fine-focus sealed tube'
_diffrn_radiation_monochromator  graphite
_diffrn_measurement_device_type  Mercury70
_diffrn_measurement_method       CCD_Profile_fitting
_diffrn_detector_area_resol_mean 14.6306
_diffrn_standards_number         ?
_diffrn_standards_interval_count ?
_diffrn_standards_interval_time  ?
_diffrn_standards_decay_%        ?
_diffrn_reflns_number            12958
_diffrn_reflns_av_R_equivalents  0.0463
_diffrn_reflns_av_sigmaI/netI    0.0693
_diffrn_reflns_limit_h_min       -26
_diffrn_reflns_limit_h_max       28
_diffrn_reflns_limit_k_min       -7
_diffrn_reflns_limit_k_max       13
_diffrn_reflns_limit_l_min       -26
_diffrn_reflns_limit_l_max       13
_diffrn_reflns_theta_min         2.57
_diffrn_reflns_theta_max         25.00
_reflns_number_total             5229
_reflns_number_gt                3200
_reflns_threshold_expression     >2sigma(I)

_computing_data_collection       'CrystalClear (Rigaku/MSC Inc., 2005)'
_computing_cell_refinement       'CrystalClear (Rigaku/MSC Inc., 2005)'
_computing_data_reduction        'CrystalClear (Rigaku/MSC Inc., 2005)'
_computing_structure_solution    'SHELXS-97 (Sheldrick, 1990)'
_computing_structure_refinement  'SHELXL-97 (Sheldrick, 1997)'
_computing_molecular_graphics    ?
_computing_publication_material  ?

_refine_special_details          
; 
 Refinement of F^2^ against ALL reflections.  The weighted R-factor wR and 
 goodness of fit S are based on F^2^, conventional R-factors R are based 
 on F, with F set to zero for negative F^2^. The threshold expression of 
 F^2^ > 2sigma(F^2^) is used only for calculating R-factors(gt) etc. and is 
 not relevant to the choice of reflections for refinement.  R-factors based 
 on F^2^ are statistically about twice as large as those based on F, and R- 
 factors based on ALL data will be even larger. 
;

_refine_ls_structure_factor_coef Fsqd
_refine_ls_matrix_type           full
_refine_ls_weighting_scheme      calc
_refine_ls_weighting_details     
'calc w=1/[\s^2^(Fo^2^)+(0.1000P)^2^+0.0000P] where P=(Fo^2^+2Fc^2^)/3'
_atom_sites_solution_primary     direct
_atom_sites_solution_secondary   difmap
_atom_sites_solution_hydrogens   geom
_refine_ls_hydrogen_treatment    constr
_refine_ls_extinction_method     none
_refine_ls_extinction_coef       ?
_refine_ls_number_reflns         5229
_refine_ls_number_parameters     375
_refine_ls_number_restraints     1
_refine_ls_R_factor_all          0.1271
_refine_ls_R_factor_gt           0.0733
_refine_ls_wR_factor_ref         0.2225
_refine_ls_wR_factor_gt          0.1929
_refine_ls_goodness_of_fit_ref   1.234
_refine_ls_restrained_S_all      1.347
_refine_ls_shift/su_max          0.091
_refine_ls_shift/su_mean         0.004

loop_
_atom_site_label
_atom_site_type_symbol
_atom_site_fract_x
_atom_site_fract_y
_atom_site_fract_z
_atom_site_U_iso_or_equiv
_atom_site_adp_type
_atom_site_occupancy
_atom_site_symmetry_multiplicity
_atom_site_calc_flag
_atom_site_refinement_flags
_atom_site_disorder_assembly
_atom_site_disorder_group
Mg1 Mg 0.5000 0.5000 0.0000 0.0218(5) Uani 1 2 d S . .
Mg2 Mg 0.44058(6) 0.21110(12) -0.00243(7) 0.0299(4) Uani 1 1 d . . .
O1 O 0.39669(13) 0.3036(3) 0.06102(16) 0.0452(9) Uani 1 1 d . . .
O1W O 0.47751(15) 0.1017(3) -0.06770(15) 0.0530(10) Uani 1 1 d . . .
O2 O 0.42842(12) 0.4876(3) 0.05175(14) 0.0384(8) Uani 1 1 d . . .
O3 O 0.04413(12) 0.4595(3) 0.42283(13) 0.0362(8) Uani 1 1 d . . .
O4 O 0.09725(13) 0.2979(3) 0.42943(15) 0.0444(9) Uani 1 1 d . . .
O5 O 0.22307(16) 0.5890(3) 0.22397(17) 0.0563(11) Uani 1 1 d . . .
O6 O 0.51786(11) 0.3140(2) 0.01163(13) 0.0294(7) Uani 1 1 d . . .
O7 O 0.50442(12) 0.1463(2) 0.05747(14) 0.0358(8) Uani 1 1 d . . .
O8 O 0.7500 0.2500 0.1558(2) 0.0605(15) Uani 1 2 d S . .
O9 O 0.4767(4) 0.6536(9) 0.2412(6) 0.243(5) Uani 1 1 d . . .
O10 O 0.39157(17) 0.0757(3) 0.0175(2) 0.0712(13) Uani 1 1 d . . .
C1 C 0.2665(2) 0.5362(4) 0.1916(2) 0.0396(12) Uani 1 1 d . . .
C2 C 0.2627(2) 0.4235(4) 0.1684(2) 0.0452(13) Uani 1 1 d . . .
H2A H 0.2322 0.3755 0.1781 0.054 Uiso 1 1 calc R . .
C3 C 0.30509(19) 0.3837(4) 0.1306(2) 0.0403(12) Uani 1 1 d . . .
H3A H 0.3031 0.3077 0.1153 0.048 Uiso 1 1 calc R . .
C4 C 0.35061(17) 0.4546(4) 0.11503(19) 0.0312(10) Uani 1 1 d . . .
C5 C 0.35332(19) 0.5663(4) 0.1398(2) 0.0380(11) Uani 1 1 d . . .
H5A H 0.3836 0.6148 0.1302 0.046 Uiso 1 1 calc R . .
C6 C 0.3119(2) 0.6068(4) 0.1784(2) 0.0420(12) Uani 1 1 d . . .
H6A H 0.3147 0.6814 0.1953 0.050 Uiso 1 1 calc R . .
C7 C 0.1901(2) 0.5298(4) 0.2658(2) 0.0405(12) Uani 1 1 d . . .
C8 C 0.1368(2) 0.5758(4) 0.2740(2) 0.0415(12) Uani 1 1 d . . .
H8A H 0.1241 0.6369 0.2495 0.050 Uiso 1 1 calc R . .
C9 C 0.10228(19) 0.5300(4) 0.3190(2) 0.0359(11) Uani 1 1 d . . .
H9A H 0.0664 0.5611 0.3248 0.043 Uiso 1 1 calc R . .
C10 C 0.12077(18) 0.4386(4) 0.3552(2) 0.0317(10) Uani 1 1 d . . .
C11 C 0.1739(2) 0.3923(4) 0.3452(2) 0.0402(12) Uani 1 1 d . . .
H11A H 0.1862 0.3292 0.3684 0.048 Uiso 1 1 calc R . .
C12 C 0.2089(2) 0.4380(4) 0.3012(2) 0.0481(14) Uani 1 1 d . . .
H12A H 0.2449 0.4073 0.2956 0.058 Uiso 1 1 calc R . .
C13 C 0.39573(18) 0.4123(4) 0.0727(2) 0.0311(10) Uani 1 1 d . . .
C14 C 0.08419(19) 0.3950(4) 0.4066(2) 0.0316(11) Uani 1 1 d . . .
C15 C 0.69938(19) 0.2419(5) 0.1233(2) 0.0424(12) Uani 1 1 d . . .
C16 C 0.6619(2) 0.1562(5) 0.1412(2) 0.0484(13) Uani 1 1 d . . .
H16A H 0.6718 0.1014 0.1706 0.058 Uiso 1 1 calc R . .
C17 C 0.60912(19) 0.1536(4) 0.1146(2) 0.0424(12) Uani 1 1 d . . .
H17A H 0.5833 0.0963 0.1263 0.051 Uiso 1 1 calc R . .
C18 C 0.59408(17) 0.2346(4) 0.07082(19) 0.0307(10) Uani 1 1 d . . .
C19 C 0.63268(18) 0.3184(4) 0.0525(2) 0.0368(11) Uani 1 1 d . . .
H19A H 0.6233 0.3721 0.0224 0.044 Uiso 1 1 calc R . .
C20 C 0.68613(18) 0.3219(4) 0.0797(2) 0.0422(12) Uani 1 1 d . . .
H20A H 0.7123 0.3783 0.0679 0.051 Uiso 1 1 calc R . .
C21 C 0.53608(17) 0.2317(4) 0.04546(19) 0.0278(10) Uani 1 1 d . . .
C22 C 0.5707(4) 0.6837(8) 0.2983(4) 0.131(3) Uiso 1 1 d . . .
H22A H 0.5556 0.6223 0.3233 0.157 Uiso 1 1 calc RD . .
H22B H 0.5790 0.7512 0.3229 0.157 Uiso 1 1 calc R . .
H22C H 0.6047 0.6567 0.2792 0.157 Uiso 1 1 calc R . .
C23 C 0.5290(4) 0.7160(9) 0.2515(4) 0.098(3) Uiso 1 1 d . . .
C24 C 0.5971(4) 0.8582(8) 0.2250(5) 0.144(4) Uani 1 1 d . . .
H24A H 0.6182 0.8182 0.2558 0.215 Uiso 1 1 calc RD . .
H24B H 0.5932 0.9396 0.2356 0.215 Uiso 1 1 calc R . .
H24C H 0.6165 0.8517 0.1870 0.215 Uiso 1 1 calc R . .
C25 C 0.5014(3) 0.8352(7) 0.1826(4) 0.079(2) Uiso 1 1 d . . .
H25A H 0.4691 0.7857 0.1889 0.119 Uiso 1 1 calc R . .
H25B H 0.5145 0.8267 0.1417 0.119 Uiso 1 1 calc R . .
H25C H 0.4911 0.9157 0.1898 0.119 Uiso 1 1 calc R . .
C26 C 0.2965(3) 0.0828(7) -0.0189(4) 0.095(2) Uani 1 1 d . . .
H26A H 0.3105 0.1482 -0.0419 0.143 Uiso 1 1 calc R . .
H26B H 0.2664 0.1086 0.0068 0.143 Uiso 1 1 calc R . .
H26C H 0.2828 0.0233 -0.0460 0.143 Uiso 1 1 calc R . .
C27 C 0.3452(3) 0.0308(5) 0.0207(3) 0.0598(16) Uani 1 1 d . . .
C28 C 0.3812(3) -0.1046(6) 0.0910(3) 0.086(2) Uani 1 1 d . . .
H28A H 0.4129 -0.0523 0.0883 0.130 Uiso 1 1 calc R . .
H28B H 0.3917 -0.1807 0.0760 0.130 Uiso 1 1 calc R . .
H28C H 0.3696 -0.1111 0.1325 0.130 Uiso 1 1 calc R . .
C29 C 0.2810(3) -0.1238(6) 0.0522(4) 0.100(3) Uani 1 1 d . . .
H29A H 0.2545 -0.0819 0.0274 0.150 Uiso 1 1 calc R . .
H29B H 0.2660 -0.1321 0.0924 0.150 Uiso 1 1 calc R . .
H29C H 0.2877 -0.2002 0.0352 0.150 Uiso 1 1 calc R . .
N1 N 0.5412(5) 0.8050(11) 0.2198(6) 0.192(5) Uani 1 1 d . . .
N2 N 0.3345(2) -0.0581(5) 0.0548(3) 0.0725(16) Uani 1 1 d . . .

loop_
_atom_site_aniso_label
_atom_site_aniso_U_11
_atom_site_aniso_U_22
_atom_site_aniso_U_33
_atom_site_aniso_U_23
_atom_site_aniso_U_13
_atom_site_aniso_U_12
Mg1 0.0173(10) 0.0281(10) 0.0200(10) 0.0031(8) -0.0011(7) -0.0023(8)
Mg2 0.0271(8) 0.0284(8) 0.0341(9) 0.0050(7) -0.0044(6) -0.0027(6)
O1 0.042(2) 0.0389(19) 0.055(2) 0.0046(17) 0.0220(16) 0.0017(15)
O1W 0.080(3) 0.0403(19) 0.038(2) -0.0030(17) 0.0005(18) 0.0090(17)
O2 0.0295(18) 0.0431(18) 0.043(2) 0.0062(16) 0.0137(14) -0.0042(14)
O3 0.0316(18) 0.0452(18) 0.0319(19) 0.0039(15) 0.0149(14) 0.0040(15)
O4 0.047(2) 0.0367(18) 0.049(2) 0.0128(17) 0.0190(16) 0.0025(15)
O5 0.071(3) 0.0388(19) 0.059(3) 0.0050(17) 0.045(2) 0.0033(17)
O6 0.0270(16) 0.0299(16) 0.0314(17) 0.0061(14) -0.0052(12) 0.0022(13)
O7 0.0374(18) 0.0315(16) 0.039(2) 0.0064(15) -0.0073(14) -0.0016(15)
O8 0.023(3) 0.121(5) 0.038(3) 0.000 0.000 0.007(3)
O9 0.176(9) 0.257(11) 0.296(13) 0.020(9) 0.037(8) -0.016(7)
O10 0.059(3) 0.051(2) 0.104(4) 0.011(2) 0.009(2) -0.032(2)
C1 0.048(3) 0.040(3) 0.031(3) -0.001(2) 0.021(2) -0.001(2)
C2 0.042(3) 0.042(3) 0.052(3) -0.001(2) 0.025(2) -0.014(2)
C3 0.042(3) 0.033(3) 0.046(3) -0.008(2) 0.017(2) -0.009(2)
C4 0.032(3) 0.038(2) 0.024(2) 0.006(2) 0.0064(19) -0.001(2)
C5 0.033(3) 0.043(3) 0.038(3) 0.004(2) 0.009(2) -0.011(2)
C6 0.054(3) 0.034(3) 0.038(3) -0.004(2) 0.012(2) -0.007(2)
C7 0.049(3) 0.037(3) 0.036(3) -0.002(2) 0.029(2) -0.004(2)
C8 0.055(3) 0.040(3) 0.029(3) 0.003(2) 0.013(2) 0.002(2)
C9 0.032(3) 0.042(3) 0.033(3) -0.002(2) 0.009(2) 0.004(2)
C10 0.034(3) 0.034(2) 0.028(3) -0.005(2) 0.0128(19) 0.000(2)
C11 0.044(3) 0.035(3) 0.042(3) 0.005(2) 0.014(2) 0.005(2)
C12 0.044(3) 0.049(3) 0.051(3) 0.006(3) 0.022(2) 0.010(2)
C13 0.030(3) 0.036(3) 0.028(3) 0.004(2) 0.0033(19) 0.000(2)
C14 0.034(3) 0.037(3) 0.024(2) -0.005(2) 0.0079(19) -0.008(2)
C15 0.025(3) 0.067(3) 0.035(3) -0.006(3) -0.003(2) 0.008(2)
C16 0.040(3) 0.056(3) 0.049(3) 0.014(3) -0.006(2) 0.013(3)
C17 0.033(3) 0.051(3) 0.043(3) 0.008(3) -0.006(2) 0.001(2)
C18 0.027(2) 0.034(2) 0.031(3) 0.002(2) -0.0001(19) 0.0078(19)
C19 0.029(3) 0.046(3) 0.035(3) -0.001(2) 0.002(2) 0.003(2)
C20 0.027(3) 0.057(3) 0.042(3) 0.001(3) 0.003(2) -0.002(2)
C21 0.028(2) 0.033(2) 0.022(2) -0.007(2) 0.0008(18) -0.001(2)
C24 0.156(10) 0.104(7) 0.171(11) -0.041(7) -0.001(8) -0.009(7)
C26 0.084(6) 0.096(6) 0.106(6) -0.004(5) -0.002(4) 0.000(4)
C27 0.076(5) 0.044(3) 0.059(4) -0.018(3) 0.013(3) -0.010(3)
C28 0.096(6) 0.090(5) 0.073(5) 0.012(4) -0.004(4) 0.001(4)
C29 0.101(5) 0.099(5) 0.100(6) -0.029(5) 0.045(4) -0.076(5)
N1 0.194(11) 0.183(10) 0.199(11) -0.153(10) 0.087(9) -0.031(9)
N2 0.083(4) 0.067(3) 0.067(4) -0.009(3) 0.025(3) -0.026(3)

_geom_special_details            
; 
 All esds (except the esd in the dihedral angle between two l.s. planes) 
 are estimated using the full covariance matrix.  The cell esds are taken 
 into account individually in the estimation of esds in distances, angles 
 and torsion angles; correlations between esds in cell parameters are only 
 used when they are defined by crystal symmetry.  An approximate (isotropic) 
 treatment of cell esds is used for estimating esds involving l.s. planes. 
;

loop_
_geom_bond_atom_site_label_1
_geom_bond_atom_site_label_2
_geom_bond_distance
_geom_bond_site_symmetry_2
_geom_bond_publ_flag
Mg1 O2 2.051(3) 5_665 ?
Mg1 O2 2.051(3) . ?
Mg1 O3 2.052(3) 8_655 ?
Mg1 O3 2.052(3) 4_565 ?
Mg1 O6 2.173(3) 5_665 ?
Mg1 O6 2.173(3) . ?
Mg1 Mg2 3.5759(14) 5_665 ?
Mg1 Mg2 3.5759(14) . ?
Mg2 O10 1.979(4) . ?
Mg2 O4 2.011(3) 8_655 ?
Mg2 O1 2.038(3) . ?
Mg2 O1W 2.096(4) . ?
Mg2 O7 2.141(3) . ?
Mg2 O6 2.197(3) . ?
Mg2 C21 2.510(4) . ?
O1 C13 1.264(5) . ?
O2 C13 1.244(5) . ?
O3 C14 1.253(5) . ?
O3 Mg1 2.052(3) 4_465 ?
O4 C14 1.253(5) . ?
O4 Mg2 2.011(3) 8_656 ?
O5 C7 1.385(5) . ?
O5 C1 1.390(5) . ?
O6 C21 1.273(5) . ?
O7 C21 1.256(5) . ?
O8 C15 1.401(5) 2_655 ?
O8 C15 1.401(5) . ?
O9 C23 1.447(11) . ?
O10 C27 1.214(6) . ?
C1 C6 1.375(6) . ?
C1 C2 1.383(6) . ?
C2 C3 1.384(6) . ?
C2 H2A 0.9300 . ?
C3 C4 1.391(6) . ?
C3 H3A 0.9300 . ?
C4 C5 1.384(6) . ?
C4 C13 1.500(6) . ?
C5 C6 1.379(6) . ?
C5 H5A 0.9300 . ?
C6 H6A 0.9300 . ?
C7 C12 1.379(7) . ?
C7 C8 1.380(6) . ?
C8 C9 1.389(6) . ?
C8 H8A 0.9300 . ?
C9 C10 1.384(6) . ?
C9 H9A 0.9300 . ?
C10 C11 1.382(6) . ?
C10 C14 1.511(6) . ?
C11 C12 1.379(6) . ?
C11 H11A 0.9300 . ?
C12 H12A 0.9300 . ?
C15 C20 1.362(7) . ?
C15 C16 1.377(7) . ?
C16 C17 1.383(6) . ?
C16 H16A 0.9300 . ?
C17 C18 1.382(6) . ?
C17 H17A 0.9300 . ?
C18 C19 1.381(6) . ?
C18 C21 1.485(6) . ?
C19 C20 1.402(6) . ?
C19 H19A 0.9300 . ?
C20 H20A 0.9300 . ?
C22 C23 1.478(11) . ?
C22 H22A 0.9600 . ?
C22 H22B 0.9600 . ?
C22 H22C 0.9600 . ?
C23 N1 1.264(13) . ?
C24 N1 1.462(11) . ?
C24 H24A 0.9600 . ?
C24 H24B 0.9600 . ?
C24 H24C 0.9600 . ?
C25 N1 1.296(13) . ?
C25 H25A 0.9600 . ?
C25 H25B 0.9600 . ?
C25 H25C 0.9600 . ?
C26 C27 1.565(9) . ?
C26 H26A 0.9600 . ?
C26 H26B 0.9600 . ?
C26 H26C 0.9600 . ?
C27 N2 1.286(7) . ?
C28 N2 1.464(8) . ?
C28 H28A 0.9600 . ?
C28 H28B 0.9600 . ?
C28 H28C 0.9600 . ?
C29 N2 1.473(7) . ?
C29 H29A 0.9600 . ?
C29 H29B 0.9600 . ?
C29 H29C 0.9600 . ?

loop_
_geom_angle_atom_site_label_1
_geom_angle_atom_site_label_2
_geom_angle_atom_site_label_3
_geom_angle
_geom_angle_site_symmetry_1
_geom_angle_site_symmetry_3
_geom_angle_publ_flag
O2 Mg1 O2 180.00(16) 5_665 . ?
O2 Mg1 O3 88.55(12) 5_665 8_655 ?
O2 Mg1 O3 91.45(12) . 8_655 ?
O2 Mg1 O3 91.45(12) 5_665 4_565 ?
O2 Mg1 O3 88.55(12) . 4_565 ?
O3 Mg1 O3 180.00(16) 8_655 4_565 ?
O2 Mg1 O6 91.62(11) 5_665 5_665 ?
O2 Mg1 O6 88.38(11) . 5_665 ?
O3 Mg1 O6 91.19(11) 8_655 5_665 ?
O3 Mg1 O6 88.81(11) 4_565 5_665 ?
O2 Mg1 O6 88.38(11) 5_665 . ?
O2 Mg1 O6 91.62(11) . . ?
O3 Mg1 O6 88.81(11) 8_655 . ?
O3 Mg1 O6 91.19(11) 4_565 . ?
O6 Mg1 O6 180.0 5_665 . ?
O2 Mg1 Mg2 67.60(9) 5_665 5_665 ?
O2 Mg1 Mg2 112.40(9) . 5_665 ?
O3 Mg1 Mg2 114.81(9) 8_655 5_665 ?
O3 Mg1 Mg2 65.19(9) 4_565 5_665 ?
O6 Mg1 Mg2 35.29(7) 5_665 5_665 ?
O6 Mg1 Mg2 144.71(7) . 5_665 ?
O2 Mg1 Mg2 112.40(9) 5_665 . ?
O2 Mg1 Mg2 67.60(9) . . ?
O3 Mg1 Mg2 65.19(9) 8_655 . ?
O3 Mg1 Mg2 114.81(9) 4_565 . ?
O6 Mg1 Mg2 144.71(7) 5_665 . ?
O6 Mg1 Mg2 35.29(7) . . ?
Mg2 Mg1 Mg2 180.0 5_665 . ?
O10 Mg2 O4 106.68(17) . 8_655 ?
O10 Mg2 O1 87.07(16) . . ?
O4 Mg2 O1 91.91(15) 8_655 . ?
O10 Mg2 O1W 86.35(17) . . ?
O4 Mg2 O1W 87.89(15) 8_655 . ?
O1 Mg2 O1W 173.06(15) . . ?
O10 Mg2 O7 90.54(16) . . ?
O4 Mg2 O7 161.21(14) 8_655 . ?
O1 Mg2 O7 96.54(14) . . ?
O1W Mg2 O7 85.70(14) . . ?
O10 Mg2 O6 150.81(17) . . ?
O4 Mg2 O6 102.49(13) 8_655 . ?
O1 Mg2 O6 93.07(13) . . ?
O1W Mg2 O6 93.74(14) . . ?
O7 Mg2 O6 60.42(11) . . ?
O10 Mg2 C21 120.55(17) . . ?
O4 Mg2 C21 132.21(15) 8_655 . ?
O1 Mg2 C21 97.05(14) . . ?
O1W Mg2 C21 88.18(14) . . ?
O7 Mg2 C21 30.01(12) . . ?
O6 Mg2 C21 30.47(12) . . ?
O10 Mg2 Mg1 160.60(14) . . ?
O4 Mg2 Mg1 74.68(10) 8_655 . ?
O1 Mg2 Mg1 73.53(9) . . ?
O1W Mg2 Mg1 113.04(11) . . ?
O7 Mg2 Mg1 91.64(9) . . ?
O6 Mg2 Mg1 34.86(7) . . ?
C21 Mg2 Mg1 63.