
#######################################################################
#
#                 Cambridge Crystallographic Data Centre
#                                CCDC
#
#######################################################################
#
# If this CIF has been generated from an entry in the Cambridge
# Structural Database, then it will include bibliographic, chemical,
# crystal, experimental, refinement or atomic coordinate data resulting
# from the CCDC's data processing and validation procedures.
#
#######################################################################

data_CSD_CIF_TMAMPT
_audit_creation_date 1971-12-31
_audit_creation_method CSD-ConQuest-V1
_database_code_CSD TMAMPT
_database_code_depnum_ccdc_archive 'CCDC 1272318'
_chemical_formula_sum 'C4 H20 Cl4 N4 Pt2'
_chemical_formula_moiety
;
C4 H20 N4 Pt1 2+,Cl4 Pt1 2-
;
_journal_coeditor_code "IUCr A08079"
_journal_coden_Cambridge 107
_journal_volume 27
_journal_year 1971
_journal_page_first 480
_journal_name_full 'Acta Crystallogr.,Sect.B:Struct.Crystallogr.Cryst.Chem. '
loop_
_publ_author_name
"M.E.Cradwick"
"D.Hall"
"R.K.Phillips"
_chemical_name_systematic
;
tetrakis(Methylamine)-platinum(ii) tetrachloro-platinum(ii)
;
_chemical_name_common
;
Teaching Subset: Symmetry
;
_cell_volume    700.786
_exptl_crystal_density_diffrn 3.11
_diffrn_ambient_temperature ?
_diffrn_special_details
;
The study was carried out at room temperature,in the range 283-303K

;
#These two values have been output from a single CSD field.
_refine_ls_R_factor_gt 0.085
_refine_ls_wR_factor_gt 0.085
_symmetry_cell_setting tetragonal
_symmetry_space_group_name_H-M 'P 4/m n c'
_symmetry_Int_Tables_number 128
loop_
_symmetry_equiv_pos_site_id
_symmetry_equiv_pos_as_xyz
1 x,y,z
2 -y,x,z
3 -x,-y,z
4 y,-x,z
5 1/2+x,1/2-y,1/2-z
6 1/2-y,1/2-x,1/2-z
7 1/2-x,1/2+y,1/2-z
8 1/2+y,1/2+x,1/2-z
9 -x,-y,-z
10 y,-x,-z
11 x,y,-z
12 -y,x,-z
13 -1/2-x,-1/2+y,-1/2+z
14 -1/2+y,-1/2+x,-1/2+z
15 -1/2+x,-1/2-y,-1/2+z
16 -1/2-y,-1/2-x,-1/2+z
_cell_length_a 10.32(2)
_cell_length_b 10.32(2)
_cell_length_c 6.58(2)
_cell_angle_alpha 90
_cell_angle_beta 90
_cell_angle_gamma 90
_cell_formula_units_Z 2
loop_
_atom_type_symbol
_atom_type_radius_bond
C 0.68
Cl 0.99
N 0.68
Pt 1.40
loop_
_atom_site_label
_atom_site_type_symbol
_atom_site_fract_x
_atom_site_fract_y
_atom_site_fract_z
Cl1 Cl 0.10030 0.19810 0.00000
Pt1 Pt 0.00000 0.00000 0.00000
C1 C 0.03200 -0.30500 0.50000
N1 N 0.10200 -0.15600 0.50000
Pt2 Pt 0.00000 0.00000 0.50000
Cl1C Cl 0.19810 -0.10030 0.00000
Cl1B Cl -0.10030 -0.19810 0.00000
Cl1A Cl -0.19810 0.10030 0.00000
N1C N -0.15600 -0.10200 0.50000
C1C C -0.30500 -0.03200 0.50000
N1B N -0.10200 0.15600 0.50000
C1B C -0.03200 0.30500 0.50000
N1A N 0.15600 0.10200 0.50000
C1A C 0.30500 0.03200 0.50000
#END
