
#######################################################################
#
#                 Cambridge Crystallographic Data Centre
#                                CCDC
#
#######################################################################
#
# If this CIF has been generated from an entry in the Cambridge
# Structural Database, then it will include bibliographic, chemical,
# crystal, experimental, refinement or atomic coordinate data resulting
# from the CCDC's data processing and validation procedures.
#
#######################################################################

data_CSD_CIF_TMCOTT
_audit_creation_date 1971-12-31
_audit_creation_method CSD-ConQuest-V1
_database_code_CSD TMCOTT
_database_code_depnum_ccdc_archive 'CCDC 1272395'
_chemical_formula_sum 'C12 H16'
_chemical_formula_moiety
;
C12 H16
;
_journal_coden_Cambridge 37
_journal_volume 73
_journal_year 1969
_journal_page_first 2378
_journal_name_full 'J.Phys.Chem. '
loop_
_publ_author_name
"G.Avitabile"
"P.Ganis"
"V.Petraccone"
_chemical_name_systematic
;
1,3,5,7-Tetramethyl-cyclo-octa-cis,cis,cis,cis-1,3,5,7-tetraene
;
_chemical_name_common
;
Teaching Subset: Fundamental Chemistry, Symmetry
;
_chemical_melting_point 342.15
_cell_volume   1051.235
_exptl_crystal_density_diffrn 1.01
_exptl_special_details
;
Melting point range 342.15-343.15K

;
_diffrn_ambient_temperature ?
_diffrn_special_details
;
The study was carried out at room temperature,in the range 283-303K

;
#These two values have been output from a single CSD field.
_refine_ls_R_factor_gt 0.106
_refine_ls_wR_factor_gt 0.106
_symmetry_cell_setting tetragonal
_symmetry_space_group_name_H-M 'I 41/a'
_symmetry_Int_Tables_number 88
loop_
_symmetry_equiv_pos_site_id
_symmetry_equiv_pos_as_xyz
1 x,y,z
2 1/2+x,1/2+y,1/2+z
3 3/4-y,1/4+x,1/4+z
4 1/4-y,3/4+x,3/4+z
5 1/2-x,-y,1/2+z
6 -x,1/2-y,z
7 3/4+y,3/4-x,3/4+z
8 1/4+y,1/4-x,1/4+z
9 -x,-y,-z
10 -1/2-x,-1/2-y,-1/2-z
11 -3/4+y,-1/4-x,-1/4-z
12 -1/4+y,-3/4-x,-3/4-z
13 -1/2+x,y,-1/2-z
14 x,-1/2+y,-z
15 -3/4-y,-3/4+x,-3/4-z
16 -1/4-y,-1/4+x,-1/4-z
_cell_length_a 7.53(3)
_cell_length_b 7.53(3)
_cell_length_c 18.54(10)
_cell_angle_alpha 90
_cell_angle_beta 90
_cell_angle_gamma 90
_cell_formula_units_Z 4
loop_
_atom_type_symbol
_atom_type_radius_bond
C 0.68
H 0.20
loop_
_atom_site_label
_atom_site_type_symbol
_atom_site_fract_x
_atom_site_fract_y
_atom_site_fract_z
C1 C -0.15160 0.41230 0.14770
C2 C -0.23240 0.56070 0.19210
C3 C -0.00050 0.47010 0.10230
H1 H -0.34300 0.50800 0.22400
H2 H -0.28200 0.66600 0.15600
H3 H -0.13100 0.61600 0.22800
H4 H -0.02500 0.58100 0.06500
C3N C -0.22010 0.24950 0.14770
C1K C 0.16230 0.40160 0.10230
C1N C -0.16230 0.09840 0.10230
H4N H -0.33100 0.22500 0.18500
C2K C 0.31070 0.48240 0.05790
C3K C 0.22010 0.25050 0.14770
C2N C -0.31070 0.01760 0.05790
C3E C 0.00050 0.02990 0.10230
H1K H 0.25800 0.59300 0.02600
H2K H 0.41600 0.53200 0.09400
H3K H 0.36600 0.38100 0.02200
C1E C 0.15160 0.08770 0.14770
H4K H 0.33100 0.27500 0.18500
H1N H -0.25800 -0.09300 0.02600
H2N H -0.41600 -0.03200 0.09400
H3N H -0.36600 0.11900 0.02200
H4E H 0.02500 -0.08100 0.06500
C2E C 0.23240 -0.06070 0.19210
H1E H 0.34300 -0.00800 0.22400
H2E H 0.28200 -0.16600 0.15600
H3E H 0.13100 -0.11600 0.22800
#END
