
#######################################################################
#
#                 Cambridge Crystallographic Data Centre
#                                CCDC
#
#######################################################################
#
# If this CIF has been generated from an entry in the Cambridge
# Structural Database, then it will include bibliographic, chemical,
# crystal, experimental, refinement or atomic coordinate data resulting
# from the CCDC's data processing and validation procedures.
#
#######################################################################

data_CSD_CIF_TMOCKE
_audit_creation_date 1974-09-30
_audit_creation_method CSD-ConQuest-V1
_database_code_CSD TMOCKE
_database_code_depnum_ccdc_archive 'CCDC 1272545'
_chemical_formula_sum 'C24 H44 K2 O6'
_chemical_formula_moiety
;
C12 H16 2-,2(C6 H14 O3),2(K1 1+)
;
_journal_coden_Cambridge 4
_journal_volume 96
_journal_year 1974
_journal_page_first 1348
_journal_name_full 'J.Am.Chem.Soc. '
loop_
_publ_author_name
"S.Z.Goldberg"
"K.N.Raymond"
"C.A.Harmon"
"D.H.Templeton"
_chemical_name_systematic
;
bis(Potassium 2,2'-dimethoxy-diethylether) 
1,3,5,7-tetramethylcyclo-octatetraene
;
_chemical_name_common
;
Teaching Subset: Fundamental Chemistry
;
_cell_volume    715.122
_exptl_crystal_density_diffrn 1.16
_diffrn_ambient_temperature ?
_diffrn_special_details
;
The study was carried out at room temperature,in the range 283-303K

;
#These two values have been output from a single CSD field.
_refine_ls_R_factor_gt 0.0545
_refine_ls_wR_factor_gt 0.0545
_symmetry_cell_setting triclinic
_symmetry_space_group_name_H-M 'P -1'
_symmetry_Int_Tables_number 2
loop_
_symmetry_equiv_pos_site_id
_symmetry_equiv_pos_as_xyz
1 x,y,z
2 -x,-y,-z
_cell_length_a 9.757(3)
_cell_length_b 10.026(4)
_cell_length_c 8.793(3)
_cell_angle_alpha 97.15(1)
_cell_angle_beta 112.35(1)
_cell_angle_gamma 109.95(1)
_cell_formula_units_Z 1
loop_
_atom_type_symbol
_atom_type_radius_bond
C 0.68
K 1.33
O 0.68
loop_
_atom_site_label
_atom_site_type_symbol
_atom_site_fract_x
_atom_site_fract_y
_atom_site_fract_z
C1 C 0.04430 0.12140 -0.13050
C2 C -0.02120 -0.02640 -0.21850
C3 C -0.07500 -0.16130 -0.18380
C4 C 0.08210 0.19600 0.03770
C5 C 0.08280 0.22380 -0.23770
C6 C -0.14380 -0.29330 -0.33440
C7 C -0.27990 0.17860 0.31080
C8 C -0.30720 0.29130 0.30470
C9 C -0.47230 0.40860 0.21730
C10 C -0.77440 -0.35230 0.13240
C11 C -0.49310 -0.18480 0.28880
C12 C -0.37250 -0.05620 0.31710
O1 O -0.65000 -0.21170 0.19510
O2 O -0.40070 0.04640 0.25910
O3 O -0.45250 0.28760 0.22800
K1 K 0.27022 0.01643 0.10410
C4A C -0.08210 -0.19600 -0.03770
C3A C 0.07500 0.16130 0.18380
C1A C -0.04430 -0.12140 0.13050
C2A C 0.02120 0.02640 0.21850
C6A C 0.14380 0.29330 0.33440
C5A C -0.08280 -0.22380 0.23770
#END
