
#######################################################################
#
#                 Cambridge Crystallographic Data Centre
#                                CCDC
#
#######################################################################
#
# If this CIF has been generated from an entry in the Cambridge
# Structural Database, then it will include bibliographic, chemical,
# crystal, experimental, refinement or atomic coordinate data resulting
# from the CCDC's data processing and validation procedures.
#
#######################################################################

data_CSD_CIF_TMTBZS
_audit_creation_date 1976-12-25
_audit_creation_method CSD-ConQuest-V1
_database_code_CSD TMTBZS
_database_code_depnum_ccdc_archive 'CCDC 1272722'
_chemical_formula_sum 'C9 H16 O4 S1 Sn1'
_chemical_formula_moiety
;
C9 H16 O4 S1 Sn1
;
_journal_coden_Cambridge 36
_journal_volume 114
_journal_year 1976
_journal_page_first 47
_journal_name_full 'J.Organomet.Chem. '
loop_
_publ_author_name
"P.G.Harrison"
"R.C.Phillips"
"J.A.Richards"
_chemical_name_systematic
;
Aqua-benzenesulfonato-trimethyl-tin
;
_chemical_name_common
;
Teaching Subset: Fundamental Chemistry
;
_cell_volume   1344.505
_diffrn_ambient_temperature ?
_diffrn_special_details
;
The study was carried out at room temperature,in the range 283-303K

;
#These two values have been output from a single CSD field.
_refine_ls_R_factor_gt 0.111
_refine_ls_wR_factor_gt 0.111
_symmetry_cell_setting monoclinic
_symmetry_space_group_name_H-M 'P 21/c'
_symmetry_Int_Tables_number 14
loop_
_symmetry_equiv_pos_site_id
_symmetry_equiv_pos_as_xyz
1 x,y,z
2 -x,1/2+y,1/2-z
3 -x,-y,-z
4 x,-1/2-y,-1/2+z
_cell_length_a 12.166(7)
_cell_length_b 8.376(8)
_cell_length_c 13.581(7)
_cell_angle_alpha 90
_cell_angle_beta 103.71(4)
_cell_angle_gamma 90
_cell_formula_units_Z 4
loop_
_atom_type_symbol
_atom_type_radius_bond
C 0.68
O 0.68
S 1.02
Sn 1.46
loop_
_atom_site_label
_atom_site_type_symbol
_atom_site_fract_x
_atom_site_fract_y
_atom_site_fract_z
C1 C -0.32500 0.19100 -0.04400
C2 C -0.15800 0.18200 0.22700
C3 C -0.43400 0.37300 0.17300
C4 C -0.19800 0.75500 -0.01800
C5 C -0.21600 0.74700 -0.12100
C6 C -0.14000 0.84700 -0.16100
C7 C -0.05100 0.91800 -0.09500
C8 C -0.03200 0.90100 0.00000
C9 C -0.10500 0.80800 0.04400
O1 O -0.40140 0.01550 0.14380
O2 O -0.32280 0.74460 0.11040
O3 O -0.38270 0.57450 -0.04980
O4 O -0.22870 0.49230 0.08520
Sn1 Sn -0.31115 0.24568 0.11434
S1 S -0.29180 0.63020 0.03610
#END
