
#######################################################################
#
#                 Cambridge Crystallographic Data Centre
#                                CCDC
#
#######################################################################
#
# If this CIF has been generated from an entry in the Cambridge
# Structural Database, then it will include bibliographic, chemical,
# crystal, experimental, refinement or atomic coordinate data resulting
# from the CCDC's data processing and validation procedures.
#
#######################################################################

data_CSD_CIF_TMTPSW01
_audit_creation_date 1982-02-03
_audit_creation_method CSD-ConQuest-V1
_database_code_CSD TMTPSW01
_database_code_depnum_ccdc_archive 'CCDC 1272755'
_chemical_formula_sum 'C28 H32 O8 Si6'
_chemical_formula_moiety
;
C28 H32 O8 Si6
;
_journal_coden_Cambridge 82
_journal_volume 22
_journal_year 1981
_journal_page_first 76-3
_journal_name_full 'Zh.Strukt.Khim.(Russ.)(J.Struct.Chem.) '
loop_
_publ_author_name
"V.E.Shklover"
"I.Yu.Klement'ev"
"Yu.T.Struchkov"
_chemical_name_systematic
;
1,1,7,7-Tetramethyl-3,5,9,11-tetraphenyl-tricyclohexasiloxane
;
_chemical_name_common
;
Teaching Subset: Fundamental Chemistry
;
_chemical_melting_point 495
_cell_volume   3407.655
_exptl_crystal_colour 'colorless'
_exptl_crystal_density_diffrn 1.3
_exptl_special_details
;
dm given in paper as 1.26,dx=dcalc=1.30. a and c have been interchanged

;
_diffrn_ambient_temperature ?
_diffrn_special_details
;
The study was carried out at room temperature,in the range 283-303K

;
#These two values have been output from a single CSD field.
_refine_ls_R_factor_gt 0.087
_refine_ls_wR_factor_gt 0.087
loop_
_citation_database_id_CSD
_citation_special_details
TMTPSY "is a stereoisomer of this entry"
_symmetry_cell_setting monoclinic
_symmetry_space_group_name_H-M 'C 2/c'
_symmetry_Int_Tables_number 15
loop_
_symmetry_equiv_pos_site_id
_symmetry_equiv_pos_as_xyz
1 x,y,z
2 1/2+x,1/2+y,z
3 -x,y,1/2-z
4 1/2-x,1/2+y,1/2-z
5 -x,-y,-z
6 -1/2-x,-1/2-y,-z
7 x,-y,-1/2+z
8 -1/2+x,-1/2-y,-1/2+z
_cell_length_a 19.77(1)
_cell_length_b 8.079(4)
_cell_length_c 22.54(2)
_cell_angle_alpha 90
_cell_angle_beta 108.82(5)
_cell_angle_gamma 90
_cell_formula_units_Z 4
loop_
_atom_type_symbol
_atom_type_radius_bond
C 0.68
O 0.68
Si 1.20
loop_
_atom_site_label
_atom_site_type_symbol
_atom_site_fract_x
_atom_site_fract_y
_atom_site_fract_z
Si1 Si 0.44670 0.05270 0.06560
Si2 Si 0.40170 -0.05880 -0.06770
Si3 Si 0.45290 0.21160 -0.13260
O1 O 0.39150 -0.00560 -0.00130
O2 O 0.39360 0.09990 -0.11320
O3 O 0.47380 -0.10130 0.11450
O4 O 0.51750 0.13030 0.05330
C1 C 0.41830 0.23400 -0.22200
C2 C 0.46890 0.41500 -0.09150
C3 C 0.40310 0.20820 0.10050
C4 C 0.42240 0.23960 0.15970
C5 C 0.39160 0.36330 0.18840
C6 C 0.33480 0.45670 0.14530
C7 C 0.31640 0.42860 0.08830
C8 C 0.34650 0.30430 0.06080
C9 C 0.33480 -0.21300 -0.10660
C10 C 0.30430 -0.31440 -0.07110
C11 C 0.25770 -0.43910 -0.10120
C12 C 0.24500 -0.47360 -0.15660
C13 C 0.27150 -0.37640 -0.19810
C14 C 0.31960 -0.24930 -0.16610
O4D O 0.48250 -0.13030 -0.05330
O3D O 0.52620 0.10130 -0.11450
Si3D Si 0.54710 -0.21160 0.13260
Si2D Si 0.59830 0.05880 0.06770
Si1D Si 0.55330 -0.05270 -0.06560
O2D O 0.60640 -0.09990 0.11320
C1D C 0.58170 -0.23400 0.22200
C2D C 0.53110 -0.41500 0.09150
O1D O 0.60850 0.00560 0.00130
C9D C 0.66520 0.21300 0.10660
C3D C 0.59690 -0.20820 -0.10050
C10D C 0.69570 0.31440 0.07110
C14D C 0.68040 0.24930 0.16610
C4D C 0.57760 -0.23960 -0.15970
C8D C 0.65350 -0.30430 -0.06080
C11D C 0.74230 0.43910 0.10120
C13D C 0.72850 0.37640 0.19810
C5D C 0.60840 -0.36330 -0.18840
C7D C 0.68360 -0.42860 -0.08830
C12D C 0.75500 0.47360 0.15660
C6D C 0.66520 -0.45670 -0.14530
#END
