
#######################################################################
#
#                 Cambridge Crystallographic Data Centre
#                                CCDC
#
#######################################################################
#
# If this CIF has been generated from an entry in the Cambridge
# Structural Database, then it will include bibliographic, chemical,
# crystal, experimental, refinement or atomic coordinate data resulting
# from the CCDC's data processing and validation procedures.
#
#######################################################################

data_CSD_CIF_TMZBCO10
_audit_creation_date 1980-09-26
_audit_creation_method CSD-ConQuest-V1
_database_code_CSD TMZBCO10
_database_code_depnum_ccdc_archive 'CCDC 1272799'
_chemical_formula_sum 'C10 H12 N2 O2'
_chemical_formula_moiety
;
C10 H12 N2 O2
;
_journal_coden_Cambridge 189
_journal_volume 9
_journal_year 1980
_journal_page_first 301
_journal_name_full 'Cryst.Struct.Commun. '
loop_
_publ_author_name
"J.Bernstein"
"E.Goldstein"
"I.Goldberg"
_chemical_name_systematic
;
syn-3,4,6,7-Tetramethyl-1,5-diazabicyclo(3.3.0)octa-3,6-diene-2,8-dione
;
_chemical_name_common
;
syn(Methyl,methyl)-bimane; Teaching Subset: Symmetry
;
_cell_volume    486.232
_exptl_crystal_colour 'yellowish-green'
_exptl_crystal_density_diffrn 1.31
_diffrn_ambient_temperature ?
_diffrn_special_details
;
The study was carried out at room temperature,in the range 283-303K

;
#These two values have been output from a single CSD field.
_refine_ls_R_factor_gt 0.041
_refine_ls_wR_factor_gt 0.041
loop_
_citation_database_id_CSD
_citation_special_details
TMDZCO "is a stereoisomer of this entry"
_symmetry_cell_setting monoclinic
_symmetry_space_group_name_H-M 'P c'
_symmetry_Int_Tables_number 7
loop_
_symmetry_equiv_pos_site_id
_symmetry_equiv_pos_as_xyz
1 x,y,z
2 x,-y,1/2+z
_cell_length_a 6.608(7)
_cell_length_b 6.043(3)
_cell_length_c 13.299(4)
_cell_angle_alpha 90
_cell_angle_beta 113.71(3)
_cell_angle_gamma 90
_cell_formula_units_Z 2
loop_
_atom_type_symbol
_atom_type_radius_bond
C 0.68
H 0.23
N 0.68
O 0.68
loop_
_atom_site_label
_atom_site_type_symbol
_atom_site_fract_x
_atom_site_fract_y
_atom_site_fract_z
O1 O 0.80890 1.00370 0.18480
O2 O 0.80100 0.57780 0.33370
N1 N 0.53690 0.76330 0.18750
N2 N 0.31280 0.74110 0.12730
C1 C 0.61610 0.94630 0.14830
C2 C 0.42220 1.03110 0.05860
C3 C 0.24340 0.90460 0.05060
C4 C 0.23740 0.56650 0.16860
C5 C 0.41300 0.47540 0.25250
C6 C 0.61050 0.59720 0.27030
C7 C 0.42890 1.22170 -0.00960
C8 C 0.00780 0.92290 -0.02900
C9 C 0.00190 0.49820 0.12060
C10 C 0.41420 0.27790 0.32180
H1 H 0.58300 1.25400 0.00700
H2 H 0.30600 1.32300 -0.01800
H3 H 0.41100 1.17900 -0.08800
H4 H 0.00600 1.03400 -0.07500
H5 H -0.10000 0.94000 0.01100
H6 H -0.03300 0.77900 -0.07400
H7 H -0.04400 0.37100 0.15900
H8 H -0.03900 0.48800 0.04600
H9 H -0.11700 0.61000 0.10400
H10 H 0.55000 0.28200 0.39400
H11 H 0.35600 0.14900 0.28200
H12 H 0.29400 0.28800 0.35800
#END
