
#######################################################################
#
#                 Cambridge Crystallographic Data Centre
#                                CCDC
#
#######################################################################
#
# If this CIF has been generated from an entry in the Cambridge
# Structural Database, then it will include bibliographic, chemical,
# crystal, experimental, refinement or atomic coordinate data resulting
# from the CCDC's data processing and validation procedures.
#
#######################################################################

data_CSD_CIF_TMZDAN10
_audit_creation_date 1981-08-11
_audit_creation_method CSD-ConQuest-V1
_database_code_CSD TMZDAN10
_database_code_depnum_ccdc_archive 'CCDC 1272804'
_chemical_formula_sum 'C22 H42 I2 N2'
_chemical_formula_moiety
;
C22 H42 N2 2+,2(I1 1-)
;
_journal_coden_Cambridge 195
_journal_volume 10
_journal_year 1980
_journal_page_first 31
_journal_name_full 'J.Cryst.Mol.Struct. '
loop_
_publ_author_name
"R.A.Palmer"
"M.A.Kalam"
"H.Singh"
"D.Paul"
_chemical_name_systematic
;
4,4,17a,17a-Tetramethyl-4,17a-diaza-D-homo-5\a-androstane dimethiodide
;
_chemical_name_common
;
Teaching Subset: Fundamental Chemistry
;
_cell_volume    661.561
_exptl_crystal_density_diffrn 1.496
_exptl_special_details
;
Absolute configuration

;
_diffrn_ambient_temperature ?
_diffrn_special_details
;
The study was carried out at room temperature,in the range 283-303K

;
#These two values have been output from a single CSD field.
_refine_ls_R_factor_gt 0.096
_refine_ls_wR_factor_gt 0.096
_symmetry_cell_setting triclinic
_symmetry_space_group_name_H-M 'P 1'
_symmetry_Int_Tables_number 1
loop_
_symmetry_equiv_pos_site_id
_symmetry_equiv_pos_as_xyz
1 x,y,z
_cell_length_a 7.819(5)
_cell_length_b 7.730(5)
_cell_length_c 11.457(7)
_cell_angle_alpha 74.91(2)
_cell_angle_beta 98.31(9)
_cell_angle_gamma 92.49(2)
_cell_formula_units_Z 1
loop_
_atom_type_symbol
_atom_type_radius_bond
C 0.68
I 1.40
N 0.68
loop_
_atom_site_label
_atom_site_type_symbol
_atom_site_fract_x
_atom_site_fract_y
_atom_site_fract_z
C1 C -0.05250 -0.51690 -0.55030
C2 C -0.14360 -0.60790 -0.65220
C3 C -0.02200 -0.62940 -0.73360
N1 N 0.13330 -0.74860 -0.66720
C4 C 0.22080 -0.67440 -0.56150
C5 C 0.37590 -0.78700 -0.48920
C6 C 0.48510 -0.68510 -0.40560
C7 C 0.38350 -0.62590 -0.32060
C8 C 0.21880 -0.52300 -0.39750
C9 C 0.10180 -0.63280 -0.47090
C10 C 0.12410 -0.44010 -0.31830
C11 C 0.24750 -0.32190 -0.25330
C12 C 0.39550 -0.43320 -0.16790
C13 C 0.49540 -0.50960 -0.25160
C14 C 0.66000 -0.61040 -0.17780
C15 C 0.77450 -0.48930 -0.11060
C16 C 0.68150 -0.40420 -0.03560
N2 N 0.51960 -0.30310 -0.10930
C17 C 0.33240 -0.57560 -0.06900
C18 C 0.03290 -0.80680 -0.38730
C19 C 0.44980 -0.23620 -0.02020
C20 C 0.55560 -0.15940 -0.18860
C21 C 0.07290 -0.94790 -0.63180
C22 C 0.25840 -0.74080 -0.75960
I1 I 1.00000 0.00000 0.00000
I2 I 0.62230 -0.14990 -0.56160
#END
