
#######################################################################
#
#                 Cambridge Crystallographic Data Centre
#                                CCDC
#
#######################################################################
#
# If this CIF has been generated from an entry in the Cambridge
# Structural Database, then it will include bibliographic, chemical,
# crystal, experimental, refinement or atomic coordinate data resulting
# from the CCDC's data processing and validation procedures.
#
#######################################################################

data_CSD_CIF_TODDUL
_audit_creation_date 1997-04-18
_audit_creation_method CSD-ConQuest-V1
_database_code_CSD TODDUL
_database_code_depnum_ccdc_archive 'CCDC 1273073'
_database_code_depnum_ccdc_journal 182/151
_chemical_formula_sum 'C28 H40 N6 Ni1'
_chemical_formula_moiety
;
C12 N4 Ni1 2-,2(C8 H20 N1 1+)
;
_journal_coden_Cambridge 182
_journal_year 1996
_journal_page_first 1881
_journal_name_full 'Chem.Commun. '
loop_
_publ_author_name
"Yaunlin Zhou"
"A.M.Arif"
"J.S.Miller"
_chemical_name_systematic
;
bis(Tetraethylammonium) tetrakis(cyanoacetylide)-nickel(ii)
;
_chemical_name_common
;
Teaching Subset: Fundamental Chemistry, Symmetry
;
_chemical_melting_point 402
_cell_volume   1527.392
_exptl_crystal_colour 'pale yellow'
_exptl_special_details
;
Melting point range 402-405K
The space group is P21/n, not P21/c

;
_diffrn_ambient_temperature ?
_diffrn_special_details
;
The study was carried out at room temperature,in the range 283-303K

;
#These two values have been output from a single CSD field.
_refine_ls_R_factor_gt 0.0372
_refine_ls_wR_factor_gt 0.0372
_symmetry_cell_setting monoclinic
_symmetry_space_group_name_H-M 'P 21/n'
_symmetry_Int_Tables_number 14
loop_
_symmetry_equiv_pos_site_id
_symmetry_equiv_pos_as_xyz
1 x,y,z
2 1/2-x,1/2+y,1/2-z
3 -x,-y,-z
4 -1/2+x,-1/2-y,-1/2+z
_cell_length_a 7.484(2)
_cell_length_b 11.889(3)
_cell_length_c 17.226(4)
_cell_angle_alpha 90
_cell_angle_beta 94.78(2)
_cell_angle_gamma 90
_cell_formula_units_Z 2
loop_
_atom_type_symbol
_atom_type_radius_bond
C 0.68
H 0.23
N 0.68
Ni 1.50
loop_
_atom_site_label
_atom_site_type_symbol
_atom_site_fract_x
_atom_site_fract_y
_atom_site_fract_z
Ni1 Ni 0.00000 0.50000 0.00000
N1 N 0.4069(7) 0.1259(4) 0.1009(3)
N2 N 0.4866(5) 0.6137(4) -0.2144(2)
C1 C 0.1359(5) 0.3766(4) 0.0343(2)
C2 C 0.2229(6) 0.2962(4) 0.0572(2)
C3 C 0.3235(6) 0.2036(4) 0.0814(2)
C4 C 0.1743(5) 0.5417(3) -0.0652(2)
C5 C 0.2814(5) 0.5681(4) -0.1105(2)
C6 C 0.3945(5) 0.5938(4) -0.1663(2)
N3 N 0.1071(4) 0.2604(3) 0.3412(2)
C7 C 0.0552(6) 0.2779(4) 0.2545(2)
C8 C -0.0612(8) 0.1874(5) 0.2166(3)
C9 C 0.2276(6) 0.3598(4) 0.3673(3)
C10 C 0.2925(7) 0.3585(5) 0.4525(3)
C11 C -0.0570(6) 0.2550(4) 0.3875(3)
C12 C -0.1701(6) 0.3607(5) 0.3833(3)
C13 C 0.2048(7) 0.1495(4) 0.3547(3)
C14 C 0.3705(7) 0.1357(5) 0.3126(3)
H1 H 0.00000 0.36140 0.26560
H2 H 0.16600 0.30670 0.23240
H3 H -0.16800 0.16800 0.25000
H4 H -0.08400 0.19540 0.16600
H5 H 0.00000 0.11140 0.21480
H6 H 0.33200 0.35930 0.33200
H7 H 0.12500 0.41800 0.33200
H8 H 0.37500 0.41600 0.46480
H9 H 0.20700 0.35930 0.48240
H10 H 0.37500 0.27730 0.46480
H11 H 0.00000 0.22270 0.44920
H12 H -0.12500 0.16800 0.36520
H13 H -0.20900 0.38860 0.33200
H14 H -0.25000 0.36140 0.41600
H15 H -0.08400 0.44540 0.38280
H16 H 0.25000 0.13860 0.41600
H17 H 0.08200 0.08400 0.34960
H18 H 0.33200 0.13860 0.25000
H19 H 0.45700 0.19330 0.33200
H20 H 0.45700 0.08200 0.31640
C1B C -0.1359(5) 0.6234(4) -0.0343(2)
C2B C -0.2229(6) 0.7038(4) -0.0572(2)
C3B C -0.3235(6) 0.7964(4) -0.0814(2)
N1B N -0.4069(7) 0.8741(4) -0.1009(3)
C4B C -0.1743(5) 0.4583(3) 0.0652(2)
C5B C -0.2814(5) 0.4319(4) 0.1105(2)
C6B C -0.3945(5) 0.4062(4) 0.1663(2)
N2B N -0.4866(5) 0.3863(4) 0.2144(2)
#END
