####################################################################### 
# 
# This file contains crystal structure data downloaded from the 
# Cambridge Structural Database (CSD) hosted by the Cambridge 
# Crystallographic Data Centre (CCDC).
# 
# Full information about CCDC data access policies and citation 
# guidelines are available at http://www.ccdc.cam.ac.uk/access/V1 
# 
# Audit and citation data items may have been added by the CCDC. 
# Please retain this information to preserve the provenance of 
# this file and to allow appropriate attribution of the data. 
# 
#######################################################################

data_a
_audit_block_doi                 10.5517/cc11vtpd
_database_code_depnum_ccdc_archive 'CCDC 979094'
loop_
_citation_id
_citation_doi
_citation_year
1 10.1002/zaac.201400024 2014
_audit_update_record             
;
2013-12-30 deposited with the CCDC.	2024-07-13 downloaded from the CCDC.
;

_audit_creation_method           SHELXL-97
_chemical_name_systematic        
; 
 ? 
;
_chemical_name_common            ?
_chemical_melting_point          ?
_chemical_formula_moiety         'C16 H19 Cd N3 O6'
_chemical_formula_sum            'C16 H19 Cd N3 O6'
_chemical_formula_weight         461.75

loop_
_atom_type_symbol
_atom_type_description
_atom_type_scat_dispersion_real
_atom_type_scat_dispersion_imag
_atom_type_scat_source
C C 0.0033 0.0016 'International Tables Vol C Tables 4.2.6.8 and 6.1.1.4'
H H 0.0000 0.0000 'International Tables Vol C Tables 4.2.6.8 and 6.1.1.4'
N N 0.0061 0.0033 'International Tables Vol C Tables 4.2.6.8 and 6.1.1.4'
O O 0.0106 0.0060 'International Tables Vol C Tables 4.2.6.8 and 6.1.1.4'
Cd Cd -0.8075 1.2024 'International Tables Vol C Tables 4.2.6.8 and 6.1.1.4'

_symmetry_cell_setting           Orthorhombic
_symmetry_space_group_name_H-M   Pna2(1)
_symmetry_space_group_name_Hall  'P 2c -2n'

loop_
_symmetry_equiv_pos_as_xyz
'x, y, z'
'-x, -y, z+1/2'
'x+1/2, -y+1/2, z'
'-x+1/2, y+1/2, z+1/2'

_cell_length_a                   25.3660(15)
_cell_length_b                   6.0392(3)
_cell_length_c                   12.3195(8)
_cell_angle_alpha                90.00
_cell_angle_beta                 90.00
_cell_angle_gamma                90.00
_cell_volume                     1887.23(19)
_cell_formula_units_Z            4
_cell_measurement_temperature    293(2)
_cell_measurement_reflns_used    2718
_cell_measurement_theta_min      2.9160
_cell_measurement_theta_max      29.0949

_exptl_crystal_description       block
_exptl_crystal_colour            colorless
_exptl_crystal_size_max          0.20
_exptl_crystal_size_mid          0.17
_exptl_crystal_size_min          0.15
_exptl_crystal_density_meas      ?
_exptl_crystal_density_diffrn    1.625
_exptl_crystal_density_method    'not measured'
_exptl_crystal_F_000             928
_exptl_absorpt_coefficient_mu    1.193
_exptl_absorpt_correction_type   multi-scan
_exptl_absorpt_correction_T_min  0.86125
_exptl_absorpt_correction_T_max  1.00000
_exptl_absorpt_process_details   crystalclear

_exptl_special_details           
; 
 ? 
;

_diffrn_ambient_temperature      293(2)
_diffrn_radiation_wavelength     0.71073
_diffrn_radiation_type           MoK\a
_diffrn_radiation_source         'fine-focus sealed tube'
_diffrn_radiation_monochromator  graphite
_diffrn_measurement_device_type  'multiwire proportional'
_diffrn_measurement_method       'phi and omega scans'
_diffrn_detector_area_resol_mean ?
_diffrn_standards_number         none
_diffrn_standards_interval_count 0
_diffrn_standards_interval_time  none
_diffrn_standards_decay_%        none
_diffrn_reflns_number            4813
_diffrn_reflns_av_R_equivalents  0.0177
_diffrn_reflns_av_sigmaI/netI    0.0290
_diffrn_reflns_limit_h_min       -30
_diffrn_reflns_limit_h_max       18
_diffrn_reflns_limit_k_min       -7
_diffrn_reflns_limit_k_max       6
_diffrn_reflns_limit_l_min       -14
_diffrn_reflns_limit_l_max       14
_diffrn_reflns_theta_min         3.21
_diffrn_reflns_theta_max         24.98
_reflns_number_total             2659
_reflns_number_gt                2468
_reflns_threshold_expression     >2sigma(I)

_computing_data_collection       'Bruker FRAMBO'
_computing_cell_refinement       'Bruker FRAMBO'
_computing_data_reduction        'Bruker SAINT'
_computing_structure_solution    'SHELXS-97 (Sheldrick, 1990)'
_computing_structure_refinement  'SHELXL-97 (Sheldrick, 1997)'
_computing_molecular_graphics    'Bruker SHELXTL'
_computing_publication_material  'Bruker SHELXTL'

_refine_special_details          
; 
 Refinement of F^2^ against ALL reflections.  The weighted R-factor wR and 
 goodness of fit S are based on F^2^, conventional R-factors R are based 
 on F, with F set to zero for negative F^2^. The threshold expression of 
 F^2^ > 2sigma(F^2^) is used only for calculating R-factors(gt) etc. and is 
 not relevant to the choice of reflections for refinement.  R-factors based 
 on F^2^ are statistically about twice as large as those based on F, and R- 
 factors based on ALL data will be even larger. 
;

_refine_ls_structure_factor_coef Fsqd
_refine_ls_matrix_type           full
_refine_ls_weighting_scheme      calc
_refine_ls_weighting_details     
'calc w=1/[\s^2^(Fo^2^)+(0.0505P)^2^+0.3355P] where P=(Fo^2^+2Fc^2^)/3'
_atom_sites_solution_primary     direct
_atom_sites_solution_secondary   difmap
_atom_sites_solution_hydrogens   geom
_refine_ls_hydrogen_treatment    mixed
_refine_ls_extinction_method     none
_refine_ls_extinction_coef       ?
_refine_ls_abs_structure_details 'Flack H D (1983), Acta Cryst. A39, 876-881'
_refine_ls_abs_structure_Flack   0.00
_refine_ls_number_reflns         2659
_refine_ls_number_parameters     220
_refine_ls_number_restraints     1
_refine_ls_R_factor_all          0.0365
_refine_ls_R_factor_gt           0.0325
_refine_ls_wR_factor_ref         0.0850
_refine_ls_wR_factor_gt          0.0826
_refine_ls_goodness_of_fit_ref   1.101
_refine_ls_restrained_S_all      1.100
_refine_ls_shift/su_max          0.002
_refine_ls_shift/su_mean         0.000

loop_
_atom_site_label
_atom_site_type_symbol
_atom_site_fract_x
_atom_site_fract_y
_atom_site_fract_z
_atom_site_U_iso_or_equiv
_atom_site_adp_type
_atom_site_occupancy
_atom_site_symmetry_multiplicity
_atom_site_calc_flag
_atom_site_refinement_flags
_atom_site_disorder_assembly
_atom_site_disorder_group
Cd1 Cd 0.371371(11) 0.69971(5) 0.86492(9) 0.02640(13) Uani 1 1 d . . .
C1 C 0.4603(3) 0.7775(11) 1.0502(8) 0.059(2) Uani 1 1 d . . .
H1A H 0.4604 0.9170 1.0182 0.071 Uiso 1 1 calc R . .
C2 C 0.4997(3) 0.7271(11) 1.1221(8) 0.061(2) Uani 1 1 d . . .
H2A H 0.5259 0.8304 1.1371 0.073 Uiso 1 1 calc R . .
C3 C 0.5006(2) 0.5238(9) 1.1722(5) 0.0326(13) Uani 1 1 d . . .
C4 C 0.4590(3) 0.3840(10) 1.1510(5) 0.0428(15) Uani 1 1 d . . .
H4A H 0.4568 0.2475 1.1856 0.051 Uiso 1 1 calc R . .
C5 C 0.4203(2) 0.4489(10) 1.0773(5) 0.0411(15) Uani 1 1 d . . .
H5A H 0.3920 0.3539 1.0656 0.049 Uiso 1 1 calc R . .
C6 C 0.5447(2) 0.4517(10) 1.2442(5) 0.0349(14) Uani 1 1 d . . .
C7 C 0.3331(2) 0.9830(12) 0.6562(6) 0.0492(17) Uani 1 1 d . . .
H7A H 0.3621 1.0678 0.6763 0.059 Uiso 1 1 calc R . .
C8 C 0.3003(2) 1.0639(10) 0.5771(6) 0.0460(16) Uani 1 1 d . . .
H8A H 0.3077 1.1992 0.5443 0.055 Uiso 1 1 calc R . .
C9 C 0.2572(2) 0.9463(9) 0.5466(5) 0.0314(12) Uani 1 1 d . . .
C10 C 0.2499(3) 0.7416(11) 0.5948(7) 0.054(2) Uani 1 1 d . . .
H10A H 0.2218 0.6516 0.5748 0.065 Uiso 1 1 calc R . .
C11 C 0.2853(3) 0.6734(10) 0.6735(6) 0.053(2) Uani 1 1 d . . .
H11A H 0.2800 0.5356 0.7054 0.064 Uiso 1 1 calc R . .
C12 C 0.2173(2) 1.0411(9) 0.4691(4) 0.0318(12) Uani 1 1 d . . .
C13 C 0.4396(7) 0.890(3) 1.4099(14) 0.210(10) Uani 1 1 d . . .
H13A H 0.4373 1.0251 1.3688 0.316 Uiso 1 1 calc R . .
H13B H 0.4720 0.8160 1.3929 0.316 Uiso 1 1 calc R . .
H13C H 0.4387 0.9240 1.4860 0.316 Uiso 1 1 calc R . .
C14 C 0.3902(6) 0.521(3) 1.4299(12) 0.169(7) Uani 1 1 d . . .
H14A H 0.3593 0.4471 1.4038 0.253 Uiso 1 1 calc R . .
H14B H 0.3883 0.5351 1.5075 0.253 Uiso 1 1 calc R . .
H14C H 0.4209 0.4373 1.4106 0.253 Uiso 1 1 calc R . .
C15 C 0.3197(7) 0.668(2) 1.2805(18) 0.184(8) Uiso 1 1 d . . .
H15A H 0.3230 0.5262 1.3151 0.276 Uiso 1 1 calc R . .
H15B H 0.3185 0.6485 1.2032 0.276 Uiso 1 1 calc R . .
H15C H 0.2878 0.7385 1.3044 0.276 Uiso 1 1 calc R . .
C16 C 0.3656(7) 0.809(3) 1.310(2) 0.146(7) Uiso 1 1 d . . .
O1 O 0.54797(18) 0.2549(8) 1.2707(5) 0.0506(13) Uani 1 1 d . . .
O1W O 0.38144(15) 1.0700(6) 0.8974(3) 0.0399(11) Uani 1 1 d . . .
H1WA H 0.3998 1.1148 0.9559 0.048 Uiso 1 1 d R . .
H1WB H 0.3672 1.1706 0.8521 0.048 Uiso 1 1 d R . .
O2 O 0.57914(16) 0.5932(7) 1.2713(4) 0.0468(12) Uani 1 1 d . . .
O3 O 0.18659(15) 0.9120(6) 0.4187(4) 0.0421(10) Uani 1 1 d . . .
O4 O 0.21284(19) 1.2457(7) 0.4638(5) 0.0530(13) Uani 1 1 d . . .
O5 O 0.3710(4) 1.012(3) 1.2720(11) 0.179(5) Uiso 1 1 d . . .
N1 N 0.42145(19) 0.6360(7) 1.0234(4) 0.0360(12) Uani 1 1 d . . .
N2 N 0.3256(2) 0.7896(8) 0.7057(5) 0.0398(12) Uani 1 1 d . . .
N3 N 0.3935(7) 0.741(2) 1.3812(17) 0.152(6) Uani 1 1 d . . .

loop_
_atom_site_aniso_label
_atom_site_aniso_U_11
_atom_site_aniso_U_22
_atom_site_aniso_U_33
_atom_site_aniso_U_23
_atom_site_aniso_U_13
_atom_site_aniso_U_12
Cd1 0.02371(19) 0.02653(19) 0.02895(19) 0.0044(4) 0.0004(3) 0.00334(13)
C1 0.058(5) 0.037(4) 0.082(6) 0.023(4) -0.032(5) -0.015(3)
C2 0.045(4) 0.035(3) 0.102(7) 0.014(4) -0.032(4) -0.014(3)
C3 0.024(3) 0.032(3) 0.042(3) -0.007(3) -0.006(3) 0.001(2)
C4 0.049(4) 0.035(3) 0.045(4) 0.009(3) -0.014(3) -0.005(3)
C5 0.032(3) 0.041(3) 0.050(4) 0.006(3) -0.016(3) -0.013(3)
C6 0.027(3) 0.037(3) 0.041(3) -0.004(3) -0.005(3) 0.007(3)
C7 0.038(4) 0.062(4) 0.048(4) 0.021(3) -0.014(3) -0.016(3)
C8 0.044(4) 0.041(3) 0.054(4) 0.024(3) -0.010(3) -0.011(3)
C9 0.028(3) 0.031(3) 0.036(3) -0.002(2) -0.003(3) 0.005(2)
C10 0.067(5) 0.032(3) 0.064(5) 0.011(3) -0.034(4) -0.013(3)
C11 0.076(5) 0.027(3) 0.058(5) 0.010(3) -0.026(4) -0.002(3)
C12 0.026(3) 0.038(3) 0.031(3) 0.004(3) -0.003(3) -0.004(2)
C13 0.210(16) 0.256(19) 0.165(18) -0.103(16) 0.017(14) -0.142(15)
C14 0.259(18) 0.116(11) 0.131(12) 0.055(10) 0.040(13) 0.026(12)
O1 0.040(3) 0.038(2) 0.074(4) 0.010(2) -0.019(3) 0.003(2)
O1W 0.045(2) 0.0264(18) 0.049(3) 0.0025(17) 0.0016(19) 0.0051(16)
O2 0.038(2) 0.037(2) 0.065(3) -0.003(2) -0.027(2) 0.0008(19)
O3 0.036(2) 0.038(2) 0.052(2) 0.006(2) -0.017(2) -0.0058(17)
O4 0.065(3) 0.029(2) 0.065(3) 0.012(2) -0.028(3) 0.001(2)
N1 0.032(3) 0.030(2) 0.045(3) 0.005(2) -0.011(3) -0.001(2)
N2 0.036(3) 0.039(3) 0.045(3) 0.006(3) 0.000(3) 0.002(2)
N3 0.214(12) 0.167(10) 0.074(13) -0.012(8) 0.028(13) 0.066(10)

_geom_special_details            
; 
 All esds (except the esd in the dihedral angle between two l.s. planes) 
 are estimated using the full covariance matrix.  The cell esds are taken 
 into account individually in the estimation of esds in distances, angles 
 and torsion angles; correlations between esds in cell parameters are only 
 used when they are defined by crystal symmetry.  An approximate (isotropic) 
 treatment of cell esds is used for estimating esds involving l.s. planes. 
;

loop_
_geom_bond_atom_site_label_1
_geom_bond_atom_site_label_2
_geom_bond_distance
_geom_bond_site_symmetry_2
_geom_bond_publ_flag
Cd1 O1W 2.286(4) . ?
Cd1 N2 2.343(6) . ?
Cd1 N1 2.361(5) . ?
Cd1 O1 2.368(5) 2_664 ?
Cd1 O3 2.370(4) 4_545 ?
Cd1 O2 2.457(4) 2_664 ?
Cd1 O4 2.475(5) 4_545 ?
Cd1 C6 2.753(6) 2_664 ?
C1 N1 1.345(8) . ?
C1 C2 1.371(10) . ?
C1 H1A 0.9300 . ?
C2 C3 1.374(9) . ?
C2 H2A 0.9300 . ?
C3 C4 1.375(8) . ?
C3 C6 1.494(8) . ?
C4 C5 1.394(8) . ?
C4 H4A 0.9300 . ?
C5 N1 1.311(7) . ?
C5 H5A 0.9300 . ?
C6 O1 1.235(7) . ?
C6 O2 1.267(7) . ?
C6 Cd1 2.753(6) 2_665 ?
C7 N2 1.332(8) . ?
C7 C8 1.370(8) . ?
C7 H7A 0.9300 . ?
C8 C9 1.357(8) . ?
C8 H8A 0.9300 . ?
C9 C10 1.384(9) . ?
C9 C12 1.505(7) . ?
C10 C11 1.385(10) . ?
C10 H10A 0.9300 . ?
C11 N2 1.300(9) . ?
C11 H11A 0.9300 . ?
C12 O4 1.242(7) . ?
C12 O3 1.264(7) . ?
C13 N3 1.518(18) . ?
C13 H13A 0.9600 . ?
C13 H13B 0.9600 . ?
C13 H13C 0.9600 . ?
C14 N3 1.461(19) . ?
C14 H14A 0.9600 . ?
C14 H14B 0.9600 . ?
C14 H14C 0.9600 . ?
C15 C16 1.49(2) . ?
C15 H15A 0.9600 . ?
C15 H15B 0.9600 . ?
C15 H15C 0.9600 . ?
C16 N3 1.20(3) . ?
C16 O5 1.32(2) . ?
O1 Cd1 2.368(5) 2_665 ?
O1W H1WA 0.9001 . ?
O1W H1WB 0.9000 . ?
O2 Cd1 2.457(4) 2_665 ?
O3 Cd1 2.370(4) 4_554 ?
O4 Cd1 2.475(5) 4_554 ?

loop_
_geom_angle_atom_site_label_1
_geom_angle_atom_site_label_2
_geom_angle_atom_site_label_3
_geom_angle
_geom_angle_site_symmetry_1
_geom_angle_site_symmetry_3
_geom_angle_publ_flag
O1W Cd1 N2 88.58(16) . . ?
O1W Cd1 N1 87.40(15) . . ?
N2 Cd1 N1 175.35(17) . . ?
O1W Cd1 O1 82.88(15) . 2_664 ?
N2 Cd1 O1 89.5(2) . 2_664 ?
N1 Cd1 O1 87.7(2) . 2_664 ?
O1W Cd1 O3 137.51(14) . 4_545 ?
N2 Cd1 O3 95.51(17) . 4_545 ?
N1 Cd1 O3 89.03(16) . 4_545 ?
O1 Cd1 O3 139.25(14) 2_664 4_545 ?
O1W Cd1 O2 136.84(14) . 2_664 ?
N2 Cd1 O2 91.57(18) . 2_664 ?
N1 Cd1 O2 89.77(17) . 2_664 ?
O1 Cd1 O2 53.97(14) 2_664 2_664 ?
O3 Cd1 O2 85.43(13) 4_545 2_664 ?
O1W Cd1 O4 84.29(15) . 4_545 ?
N2 Cd1 O4 87.59(19) . 4_545 ?
N1 Cd1 O4 94.34(19) . 4_545 ?
O1 Cd1 O4 166.91(16) 2_664 4_545 ?
O3 Cd1 O4 53.80(13) 4_545 4_545 ?
O2 Cd1 O4 138.85(14) 2_664 4_545 ?
O1W Cd1 C6 109.45(16) . 2_664 ?
N2 Cd1 C6 90.47(19) . 2_664 ?
N1 Cd1 C6 88.66(19) . 2_664 ?
O1 Cd1 C6 26.57(16) 2_664 2_664 ?
O3 Cd1 C6 112.77(15) 4_545 2_664 ?
O2 Cd1 C6 27.40(15) 2_664 2_664 ?
O4 Cd1 C6 166.08(17) 4_545 2_664 ?
N1 C1 C2 123.5(6) . . ?
N1 C1 H1A 118.3 . . ?
C2 C1 H1A 118.3 . . ?
C1 C2 C3 120.0(6) . . ?
C1 C2 H2A 120.0 . . ?
C3 C2 H2A 120.0 . . ?
C2 C3 C4 116.8(6) . . ?
C2 C3 C6 122.6(6) . . ?
C4 C3 C6 120.5(5) . . ?
C3 C4 C5 119.4(6) . . ?
C3 C4 H4A 120.3 . . ?
C5 C4 H4A 120.3 . . ?
N1 C5 C4 123.8(5) . . ?
N1 C5 H5A 118.1 . . ?
C4 C5 H5A 118.1 . . ?
O1 C6 O2 122.3(5) . . ?
O1 C6 C3 119.2(5) . . ?
O2 C6 C3 118.5(5) . . ?
O1 C6 Cd1 59.1(3) . 2_665 ?
O2 C6 Cd1 63.2(3) . 2_665 ?
C3 C6 Cd1 175.9(4) . 2_665 ?
N2 C7 C8 123.5(6) . . ?
N2 C7 H7A 118.2 . . ?
C8 C7 H7A 118.2 . . ?
C9 C8 C7 119.9(6) . . ?
C9 C8 H8A 120.1 . . ?
C7 C8 H8A 120.1 . . ?
C8 C9 C10 117.2(6) . . ?
C8 C9 C12 121.3(5) . . ?
C10 C9 C12 121.5(5) . . ?
C9 C10 C11 118.6(6) . . ?
C9 C10 H10A 120.7 . . ?
C11 C10 H10A 120.7 . . ?
N2 C11 C10 124.2(6) . . ?
N2 C11 H11A 117.9 . . ?
C10 C11 H11A 117.9 . . ?
O4 C12 O3 122.1(5) . . ?
O4 C12 C9 118.2(5) . . ?
O3 C12 C9 119.4(5) . . ?
N3 C13 H13A 109.5 . . ?
N3 C13 H13B 109.5 . . ?
H13A C13 H13B 109.5 . . ?
N3 C13 H13C 109.5 . . ?
H13A C13 H13C 109.5 . . ?
H13B C13 H13C 109.5 . . ?
N3 C14 H14A 109.5 . . ?
N3 C14 H14B 109.5 . . ?
H14A C14 H14B 109.5 . . ?
N3 C14 H14C 109.5 . . ?
H14A C14 H14C 109.5 . . ?
H14B C14 H14C 109.5 . . ?
C16 C15 H15A 109.5 . . ?
C16 C15 H15B 109.5 . . ?
H15A C15 H15B 109.5 . . ?
C16 C15 H15C 109.5 . . ?
H15A C15 H15C 109.5 . . ?
H15B C15 H15C 109.5 . . ?
N3 C16 O5 121(2) . . ?
N3 C16 C15 116(2) . . ?
O5 C16 C15 121.9(19) . . ?
C6 O1 Cd1 94.3(4) . 2_665 ?
Cd1 O1W H1WA 119.5 . . ?
Cd1 O1W H1WB 120.5 . . ?
H1WA O1W H1WB 120.0 . . ?
C6 O2 Cd1 89.4(3) . 2_665 ?
C12 O3 Cd1 93.8(3) . 4_554 ?
C12 O4 Cd1 89.6(4) . 4_554 ?
C5 N1 C1 116.1(6) . . ?
C5 N1 Cd1 123.2(4) . . ?
C1 N1 Cd1 119.5(4) . . ?
C11 N2 C7 116.4(6) . . ?
C11 N2 Cd1 121.3(4) . . ?
C7 N2 Cd1 121.1(4) . . ?
C16 N3 C14 125.2(18) . . ?
C16 N3 C13 115.1(18) . . ?
C14 N3 C13 119.1(16) . . ?

_diffrn_measured_fraction_theta_max 0.999
_diffrn_reflns_theta_full        24.98
_diffrn_measured_fraction_theta_full 0.999
_refine_diff_density_max         0.612
_refine_diff_density_min         -0.658
_refine_diff_density_rms         0.078
