####################################################################### 
# 
# This file contains crystal structure data downloaded from the 
# Cambridge Structural Database (CSD) hosted by the Cambridge 
# Crystallographic Data Centre (CCDC).
# 
# Full information about CCDC data access policies and citation 
# guidelines are available at http://www.ccdc.cam.ac.uk/access/V1 
# 
# Audit and citation data items may have been added by the CCDC. 
# Please retain this information to preserve the provenance of 
# this file and to allow appropriate attribution of the data. 
# 
#######################################################################

data_5HWS
_audit_block_doi                 10.5517/cc10hhvv
_database_code_depnum_ccdc_archive 'CCDC 938427'
loop_
_citation_id
_citation_doi
_citation_year
1 10.1002/zaac.201300619 2014
_audit_update_record             
;
2013-05-09 deposited with the CCDC.	2024-07-13 downloaded from the CCDC.
;
#=======================================================================   

_audit_creation_method           SHELXL-97
_chemical_name_systematic        
; 
 ? 
;
_chemical_name_common            ?
_chemical_melting_point          ?
_chemical_formula_moiety         'C78 H50 N12 O13 Tb2'
_chemical_formula_sum            'C78 H50 N12 O13 Tb2'
_chemical_formula_weight         1681.14

loop_
_atom_type_symbol
_atom_type_description
_atom_type_scat_dispersion_real
_atom_type_scat_dispersion_imag
_atom_type_scat_source
C C 0.0033 0.0016 'International Tables Vol C Tables 4.2.6.8 and 6.1.1.4'
H H 0.0000 0.0000 'International Tables Vol C Tables 4.2.6.8 and 6.1.1.4'
N N 0.0061 0.0033 'International Tables Vol C Tables 4.2.6.8 and 6.1.1.4'
O O 0.0106 0.0060 'International Tables Vol C Tables 4.2.6.8 and 6.1.1.4'
Tb Tb -0.1723 4.1537 'International Tables Vol C Tables 4.2.6.8 and 6.1.1.4'

_symmetry_cell_setting           triclinic
_symmetry_space_group_name_H-M   'P -1'
_symmetry_space_group_name_Hall  '-P 1'

loop_
_symmetry_equiv_pos_as_xyz
'x, y, z'
'-x, -y, -z'

_cell_length_a                   14.0070(14)
_cell_length_b                   16.5418(16)
_cell_length_c                   21.155(2)
_cell_angle_alpha                76.007(2)
_cell_angle_beta                 76.418(2)
_cell_angle_gamma                80.918(2)
_cell_volume                     4596.5(8)
_cell_formula_units_Z            2
_cell_measurement_temperature    294(2)
_cell_measurement_reflns_used    926
_cell_measurement_theta_min      -23.529
_cell_measurement_theta_max      23.529

_exptl_crystal_description       chunky
_exptl_crystal_colour            yellow
_exptl_crystal_size_max          0.06
_exptl_crystal_size_mid          0.05
_exptl_crystal_size_min          0.05
_exptl_crystal_density_meas      ?
_exptl_crystal_density_diffrn    1.215
_exptl_crystal_density_method    'not measured'
_exptl_crystal_F_000             1672
_exptl_absorpt_coefficient_mu    1.583
_exptl_absorpt_correction_type   Empirical
_exptl_absorpt_correction_T_min  0.9138
_exptl_absorpt_correction_T_max  0.9322
_exptl_absorpt_process_details   SADABS

_exptl_special_details           
; 
During the structure refinement, the ions and solvent molecules
inside cavities were seriously disordered and could not be modelled 
satisfactorily. The SQUEEZE routine in PLATON (Spek, 1999) was used to 
modify the HKL file.   
;

_diffrn_ambient_temperature      293(2)
_diffrn_radiation_wavelength     0.71073
_diffrn_radiation_type           MoK\a
_diffrn_radiation_source         'fine-focus sealed tube'
_diffrn_radiation_monochromator  graphite
_diffrn_measurement_device_type  'Bruker Smart Apex'
_diffrn_measurement_method       'phi-omega scan'
_diffrn_detector_area_resol_mean ?
_diffrn_standards_number         ?
_diffrn_standards_interval_count ?
_diffrn_standards_interval_time  ?
_diffrn_standards_decay_%        0
_diffrn_reflns_number            46527
_diffrn_reflns_av_R_equivalents  0.0557
_diffrn_reflns_av_sigmaI/netI    0.0746
_diffrn_reflns_limit_h_min       -16
_diffrn_reflns_limit_h_max       16
_diffrn_reflns_limit_k_min       -20
_diffrn_reflns_limit_k_max       20
_diffrn_reflns_limit_l_min       -25
_diffrn_reflns_limit_l_max       25
_diffrn_reflns_theta_min         1.28
_diffrn_reflns_theta_max         25.50
_reflns_number_total             17044
_reflns_number_gt                12655
_reflns_threshold_expression     >2sigma(I)

_computing_data_collection       'BRUKER SMART'
_computing_cell_refinement       'BRUKER SMART'
_computing_data_reduction        'BRUKER SAINT'
_computing_structure_solution    'SHELXS-97 (Sheldrick, 1990)'
_computing_structure_refinement  'SHELXL-97 (Sheldrick, 1997)'
_computing_molecular_graphics    Ortep-3
_computing_publication_material  'wingx publication routines (Farrugia, 1999)'

_refine_special_details          
; 
 Refinement of F^2^ against ALL reflections.  The weighted R-factor wR and 
 goodness of fit S are based on F^2^, conventional R-factors R are based 
 on F, with F set to zero for negative F^2^. The threshold expression of 
 F^2^ > 2sigma(F^2^) is used only for calculating R-factors(gt) etc. and is 
 not relevant to the choice of reflections for refinement.  R-factors based 
 on F^2^ are statistically about twice as large as those based on F, and R- 
 factors based on ALL data will be even larger. 
;

_refine_ls_structure_factor_coef Fsqd
_refine_ls_matrix_type           full
_refine_ls_weighting_scheme      calc
_refine_ls_weighting_details     
'calc w=1/[\s^2^(Fo^2^)+(0.0427P)^2^+0.0000P] where P=(Fo^2^+2Fc^2^)/3'
_atom_sites_solution_primary     direct
_atom_sites_solution_secondary   difmap
_atom_sites_solution_hydrogens   geom
_refine_ls_hydrogen_treatment    mixed
_refine_ls_extinction_method     SHELXL
_refine_ls_extinction_coef       0.00022(3)
_refine_ls_extinction_expression Fc^*^=kFc[1+0.001xFc^2^\l^3^/sin(2\q)]^-1/4^
_refine_ls_number_reflns         17044
_refine_ls_number_parameters     953
_refine_ls_number_restraints     452
_refine_ls_R_factor_all          0.0609
_refine_ls_R_factor_gt           0.0441
_refine_ls_wR_factor_ref         0.1017
_refine_ls_wR_factor_gt          0.0978
_refine_ls_goodness_of_fit_ref   0.995
_refine_ls_restrained_S_all      1.003
_refine_ls_shift/su_max          0.001
_refine_ls_shift/su_mean         0.000

loop_
_atom_site_label
_atom_site_type_symbol
_atom_site_fract_x
_atom_site_fract_y
_atom_site_fract_z
_atom_site_U_iso_or_equiv
_atom_site_adp_type
_atom_site_occupancy
_atom_site_symmetry_multiplicity
_atom_site_calc_flag
_atom_site_refinement_flags
_atom_site_disorder_assembly
_atom_site_disorder_group
Tb1 Tb 0.313694(17) 0.418016(15) 0.040817(12) 0.02544(8) Uani 1 1 d . . .
Tb2 Tb 0.322767(17) 1.075535(15) 0.467425(12) 0.02326(8) Uani 1 1 d . . .
O1 O 0.3341(3) 0.4945(2) -0.06610(17) 0.0372(9) Uani 1 1 d . . .
O2 O 0.4567(3) 0.5566(3) -0.13752(19) 0.0594(13) Uani 1 1 d . . .
O3 O 0.2487(3) 0.1780(2) -0.46327(18) 0.0393(9) Uani 1 1 d . . .
O4 O 0.4083(2) 0.1682(2) -0.49692(18) 0.0383(9) Uani 1 1 d . . .
O5 O 0.2930(3) 0.4600(2) 0.14627(17) 0.0341(9) Uani 1 1 d . . .
O6 O 0.3486(2) 0.5543(2) 0.05947(17) 0.0346(9) Uani 1 1 d . . .
O7 O 0.3097(3) 0.9292(2) 0.46104(18) 0.0386(9) Uani 1 1 d . . .
O8 O 0.2811(2) 1.0285(2) 0.37551(17) 0.0327(8) Uani 1 1 d . . .
O9 O 0.3611(2) 0.9975(2) 0.56606(16) 0.0283(8) Uani 1 1 d . . .
O10 O 0.5161(2) 0.9586(2) 0.58045(16) 0.0331(9) Uani 1 1 d . . .
O11 O 0.2391(3) 1.3262(2) 0.99380(18) 0.0395(9) Uani 1 1 d . . .
O12 O 0.4007(3) 1.3162(2) 0.97718(18) 0.0444(10) Uani 1 1 d . . .
O13 O 0.4831(2) 0.4032(2) 0.04244(19) 0.0353(9) Uani 1 1 d D . .
H13A H 0.535(3) 0.408(3) 0.0073(18) 0.042 Uiso 1 1 d D . .
H13B H 0.523(3) 0.412(3) 0.067(2) 0.042 Uiso 1 1 d D . .
N1 N 0.3264(3) 0.2773(3) 0.1258(2) 0.0363(11) Uani 1 1 d . . .
N2 N 0.1526(3) 0.3650(3) 0.1166(2) 0.0323(10) Uani 1 1 d . . .
N3 N 0.0689(3) 0.2505(3) 0.1795(2) 0.0458(13) Uani 1 1 d . . .
N4 N -0.0210(3) 0.3752(3) 0.1335(2) 0.0484(13) Uani 1 1 d . . .
N5 N -0.1045(4) 0.1777(4) 0.2240(3) 0.098(3) Uani 1 1 d . . .
N6 N 0.1536(3) 0.5198(3) 0.0404(2) 0.0348(11) Uani 1 1 d . . .
N7 N 0.1492(3) 1.0365(3) 0.5313(2) 0.0307(10) Uani 1 1 d . . .
N8 N 0.1727(3) 1.1653(2) 0.42722(19) 0.0258(9) Uani 1 1 d . . .
N9 N 0.0004(3) 1.1942(3) 0.4373(2) 0.0371(11) Uani 1 1 d . . .
N10 N 0.1071(3) 1.2725(3) 0.3479(2) 0.0351(11) Uani 1 1 d . . .
N11 N -0.0541(3) 1.3684(3) 0.3072(2) 0.0476(13) Uani 1 1 d . . .
N12 N 0.3557(3) 1.2025(3) 0.3693(2) 0.0302(10) Uani 1 1 d . . .
C1 C 0.3917(4) 0.5104(3) -0.1231(3) 0.0316(11) Uani 1 1 d U . .
C2 C 0.3766(4) 0.4704(3) -0.1758(2) 0.0315(9) Uani 1 1 d U . .
C3 C 0.2922(4) 0.4332(3) -0.1705(3) 0.0332(10) Uani 1 1 d U . .
H3 H 0.2413 0.4350 -0.1335 0.040 Uiso 1 1 calc R . .
C4 C 0.2812(4) 0.3939(3) -0.2182(2) 0.0337(10) Uani 1 1 d U . .
H4 H 0.2231 0.3704 -0.2134 0.040 Uiso 1 1 calc R . .
C5 C 0.3567(4) 0.3891(3) -0.2737(3) 0.0342(9) Uani 1 1 d U . .
C6 C 0.4401(4) 0.4272(3) -0.2795(3) 0.0382(10) Uani 1 1 d U . .
H6 H 0.4909 0.4256 -0.3166 0.046 Uiso 1 1 calc R . .
C7 C 0.4506(4) 0.4677(3) -0.2320(3) 0.0356(10) Uani 1 1 d U . .
H7 H 0.5075 0.4933 -0.2378 0.043 Uiso 1 1 calc R . .
C8 C 0.3484(4) 0.3427(3) -0.3235(3) 0.0364(9) Uani 1 1 d U . .
C9 C 0.2612(4) 0.3457(3) -0.3443(3) 0.0410(10) Uani 1 1 d U . .
H9 H 0.2056 0.3790 -0.3275 0.049 Uiso 1 1 calc R . .
C10 C 0.2557(4) 0.3001(3) -0.3896(3) 0.0411(10) Uani 1 1 d U . .
H10 H 0.1961 0.3021 -0.4024 0.049 Uiso 1 1 calc R . .
C11 C 0.3379(4) 0.2512(3) -0.4164(3) 0.0384(9) Uani 1 1 d U . .
C12 C 0.4247(4) 0.2490(3) -0.3963(3) 0.0400(10) Uani 1 1 d U . .
H12 H 0.4808 0.2168 -0.4137 0.048 Uiso 1 1 calc R . .
C13 C 0.4294(4) 0.2942(3) -0.3506(3) 0.0398(10) Uani 1 1 d U . .
H13 H 0.4889 0.2919 -0.3376 0.048 Uiso 1 1 calc R . .
C14 C 0.3312(4) 0.1971(3) -0.4625(3) 0.0366(11) Uani 1 1 d U . .
C15 C 0.4140(4) 0.2367(4) 0.1342(3) 0.0493(13) Uani 1 1 d U . .
H15 H 0.4707 0.2590 0.1077 0.059 Uiso 1 1 calc R . .
C16 C 0.4240(5) 0.1634(4) 0.1804(3) 0.0529(12) Uani 1 1 d U . .
H16 H 0.4868 0.1379 0.1851 0.064 Uiso 1 1 calc R . .
C17 C 0.3436(4) 0.1279(4) 0.2192(3) 0.0531(12) Uani 1 1 d U . .
H17 H 0.3499 0.0791 0.2515 0.064 Uiso 1 1 calc R . .
C18 C 0.2506(4) 0.1673(4) 0.2090(3) 0.0484(11) Uani 1 1 d U . .
H18 H 0.1933 0.1435 0.2326 0.058 Uiso 1 1 calc R . .
C19 C 0.2461(4) 0.2416(3) 0.1634(3) 0.0392(11) Uani 1 1 d U . .
C20 C 0.1500(4) 0.2881(3) 0.1528(3) 0.0359(11) Uani 1 1 d U . .
C21 C -0.0145(4) 0.2965(4) 0.1657(3) 0.0535(14) Uani 1 1 d U . .
C22 C 0.0658(4) 0.4075(4) 0.1091(3) 0.0415(12) Uani 1 1 d U . .
C23 C -0.1087(5) 0.2570(5) 0.1883(3) 0.0598(13) Uani 1 1 d U . .
C24 C -0.1881(6) 0.1409(6) 0.2416(4) 0.0949(19) Uani 1 1 d U . .
H24 H -0.1871 0.0865 0.2671 0.114 Uiso 1 1 calc R . .
C25 C -0.2764(6) 0.1798(5) 0.2237(4) 0.0890(16) Uani 1 1 d U . .
H25 H -0.3329 0.1519 0.2371 0.107 Uiso 1 1 calc R . .
C26 C -0.2791(5) 0.2590(5) 0.1864(4) 0.0774(15) Uani 1 1 d U . .
H26 H -0.3368 0.2860 0.1730 0.093 Uiso 1 1 calc R . .
C27 C -0.1945(4) 0.2987(5) 0.1687(3) 0.0660(14) Uani 1 1 d U . .
H27 H -0.1948 0.3533 0.1437 0.079 Uiso 1 1 calc R . .
C28 C 0.0659(4) 0.4957(4) 0.0713(3) 0.0437(11) Uani 1 1 d U . .
C29 C -0.0210(5) 0.5481(4) 0.0707(3) 0.0544(12) Uani 1 1 d U . .
H29 H -0.0812 0.5284 0.0928 0.065 Uiso 1 1 calc R . .
C30 C -0.0168(5) 0.6291(4) 0.0373(3) 0.0577(13) Uani 1 1 d U . .
H30 H -0.0746 0.6654 0.0362 0.069 Uiso 1 1 calc R . .
C31 C 0.0739(5) 0.6577(4) 0.0047(3) 0.0553(13) Uani 1 1 d U . .
H31 H 0.0791 0.7131 -0.0177 0.066 Uiso 1 1 calc R . .
C32 C 0.1551(4) 0.5997(4) 0.0075(3) 0.0498(14) Uani 1 1 d U . .
H32 H 0.2162 0.6173 -0.0152 0.060 Uiso 1 1 calc R . .
C33 C 0.3186(4) 0.5326(3) 0.1216(3) 0.0332(11) Uani 1 1 d U . .
C34 C 0.3114(4) 0.5926(3) 0.1650(3) 0.0355(9) Uani 1 1 d U . .
C35 C 0.2841(4) 0.5689(3) 0.2328(3) 0.0377(10) Uani 1 1 d U . .
H35 H 0.2701 0.5142 0.2522 0.045 Uiso 1 1 calc R . .
C36 C 0.2769(4) 0.6250(3) 0.2729(3) 0.0389(10) Uani 1 1 d U . .
H36 H 0.2587 0.6073 0.3188 0.047 Uiso 1 1 calc R . .
C37 C 0.2961(4) 0.7075(3) 0.2461(3) 0.0378(9) Uani 1 1 d U . .
C38 C 0.3233(4) 0.7312(4) 0.1777(3) 0.0445(11) Uani 1 1 d U . .
H38 H 0.3361 0.7861 0.1581 0.053 Uiso 1 1 calc R . .
C39 C 0.3317(4) 0.6742(3) 0.1376(3) 0.0431(11) Uani 1 1 d U . .
H39 H 0.3512 0.6912 0.0917 0.052 Uiso 1 1 calc R . .
C40 C 0.2894(4) 0.7695(3) 0.2887(3) 0.0355(9) Uani 1 1 d U . .
C41 C 0.3060(4) 0.7444(4) 0.3526(3) 0.0379(10) Uani 1 1 d U . .
H41 H 0.3176 0.6875 0.3706 0.045 Uiso 1 1 calc R . .
C42 C 0.3059(4) 0.8022(3) 0.3905(3) 0.0359(10) Uani 1 1 d U . .
H42 H 0.3181 0.7841 0.4333 0.043 Uiso 1 1 calc R . .
C43 C 0.2872(4) 0.8881(3) 0.3639(3) 0.0328(9) Uani 1 1 d U . .
C44 C 0.2660(4) 0.9121(3) 0.3013(3) 0.0375(10) Uani 1 1 d U . .
H44 H 0.2503 0.9687 0.2839 0.045 Uiso 1 1 calc R . .
C45 C 0.2675(4) 0.8547(3) 0.2637(3) 0.0375(10) Uani 1 1 d U . .
H45 H 0.2538 0.8729 0.2213 0.045 Uiso 1 1 calc R . .
C46 C 0.2917(4) 0.9518(3) 0.4029(3) 0.0308(10) Uani 1 1 d U . .
C47 C 0.1411(4) 0.9732(3) 0.5840(3) 0.0392(12) Uani 1 1 d U . .
H47 H 0.1981 0.9403 0.5939 0.047 Uiso 1 1 calc R . .
C48 C 0.0512(4) 0.9543(4) 0.6248(3) 0.0423(11) Uani 1 1 d U . .
H48 H 0.0480 0.9091 0.6610 0.051 Uiso 1 1 calc R . .
C49 C -0.0332(4) 1.0031(4) 0.6110(3) 0.0463(11) Uani 1 1 d U . .
H49 H -0.0943 0.9923 0.6383 0.056 Uiso 1 1 calc R . .
C50 C -0.0259(4) 1.0686(4) 0.5559(3) 0.0421(11) Uani 1 1 d U . .
H50 H -0.0821 1.1018 0.5448 0.051 Uiso 1 1 calc R . .
C51 C 0.0680(4) 1.0838(3) 0.5172(3) 0.0352(10) Uani 1 1 d U . .
C52 C 0.0805(4) 1.1507(3) 0.4582(3) 0.0296(10) Uani 1 1 d U . .
C53 C 0.0171(4) 1.2527(3) 0.3820(3) 0.0368(11) Uani 1 1 d U . .
C54 C 0.1816(4) 1.2281(3) 0.3730(3) 0.0303(11) Uani 1 1 d U . .
C55 C -0.0705(4) 1.3006(4) 0.3553(3) 0.0410(11) Uani 1 1 d U . .
C56 C -0.1322(4) 1.4118(4) 0.2854(3) 0.0593(15) Uani 1 1 d U . .
H56 H -0.1225 1.4598 0.2521 0.071 Uiso 1 1 calc R . .
C57 C -0.2278(5) 1.3898(4) 0.3097(3) 0.0571(13) Uani 1 1 d U . .
H57 H -0.2805 1.4221 0.2927 0.069 Uiso 1 1 calc R . .
C58 C -0.2428(4) 1.3199(4) 0.3587(3) 0.0535(12) Uani 1 1 d U . .
H58 H -0.3059 1.3033 0.3755 0.064 Uiso 1 1 calc R . .
C59 C -0.1630(4) 1.2738(4) 0.3832(3) 0.0478(12) Uani 1 1 d U . .
H59 H -0.1711 1.2264 0.4173 0.057 Uiso 1 1 calc R . .
C60 C 0.2834(4) 1.2499(3) 0.3418(3) 0.0309(10) Uani 1 1 d U . .
C61 C 0.3003(4) 1.3162(3) 0.2883(3) 0.0371(10) Uani 1 1 d U . .
H61 H 0.2482 1.3463 0.2695 0.045 Uiso 1 1 calc R . .
C62 C 0.3945(4) 1.3374(4) 0.2630(3) 0.0424(11) Uani 1 1 d U . .
H62 H 0.4080 1.3819 0.2270 0.051 Uiso 1 1 calc R . .
C63 C 0.4684(4) 1.2908(3) 0.2927(3) 0.0427(11) Uani 1 1 d U . .
H63 H 0.5331 1.3039 0.2772 0.051 Uiso 1 1 calc R . .
C64 C 0.4468(4) 1.2255(3) 0.3447(3) 0.0405(12) Uani 1 1 d U . .
H64 H 0.4981 1.1950 0.3642 0.049 Uiso 1 1 calc R . .
C65 C 0.4280(4) 0.9894(3) 0.5980(2) 0.0261(10) Uani 1 1 d U . .
C66 C 0.4026(3) 1.0207(3) 0.6611(2) 0.0269(8) Uani 1 1 d U . .
C67 C 0.3102(4) 1.0605(3) 0.6839(2) 0.0310(9) Uani 1 1 d U . .
H67 H 0.2590 1.0618 0.6624 0.037 Uiso 1 1 calc R . .
C68 C 0.2929(4) 1.0978(3) 0.7372(3) 0.0345(10) Uani 1 1 d U . .
H68 H 0.2306 1.1247 0.7508 0.041 Uiso 1 1 calc R . .
C69 C 0.3675(4) 1.0959(3) 0.7715(3) 0.0347(9) Uani 1 1 d U . .
C70 C 0.4572(4) 1.0516(3) 0.7512(3) 0.0371(10) Uani 1 1 d U . .
H70 H 0.5069 1.0464 0.7748 0.045 Uiso 1 1 calc R . .
C71 C 0.4750(4) 1.0153(3) 0.6976(3) 0.0335(10) Uani 1 1 d U . .
H71 H 0.5366 0.9864 0.6852 0.040 Uiso 1 1 calc R . .
C72 C 0.3551(4) 1.1424(4) 0.8245(3) 0.0391(9) Uani 1 1 d U . .
C73 C 0.2644(4) 1.1563(4) 0.8669(3) 0.0433(10) Uani 1 1 d U . .
H73 H 0.2098 1.1334 0.8636 0.052 Uiso 1 1 calc R . .
C74 C 0.2552(4) 1.2037(4) 0.9136(3) 0.0440(11) Uani 1 1 d U . .
H74 H 0.1944 1.2115 0.9419 0.053 Uiso 1 1 calc R . .
C75 C 0.3340(4) 1.2397(3) 0.9192(3) 0.0385(9) Uani 1 1 d U . .
C76 C 0.4225(4) 1.2262(4) 0.8782(3) 0.0430(10) Uani 1 1 d U . .
H76 H 0.4769 1.2486 0.8826 0.052 Uiso 1 1 calc R . .
C77 C 0.4335(4) 1.1803(4) 0.8308(3) 0.0431(10) Uani 1 1 d U . .
H77 H 0.4944 1.1742 0.8021 0.052 Uiso 1 1 calc R . .
C78 C 0.3242(4) 1.2964(3) 0.9667(3) 0.0360(11) Uani 1 1 d U . .

loop_
_atom_site_aniso_label
_atom_site_aniso_U_11
_atom_site_aniso_U_22
_atom_site_aniso_U_33
_atom_site_aniso_U_23
_atom_site_aniso_U_13
_atom_site_aniso_U_12
Tb1 0.02672(14) 0.02952(15) 0.02408(15) -0.01407(11) -0.00294(11) -0.00525(11)
Tb2 0.02270(14) 0.02592(14) 0.02558(15) -0.01367(11) -0.00670(10) -0.00025(10)
O1 0.046(2) 0.045(2) 0.025(2) -0.0151(18) -0.0026(18) -0.0152(18)
O2 0.069(3) 0.091(3) 0.033(2) -0.031(2) 0.006(2) -0.050(3)
O3 0.034(2) 0.048(2) 0.047(2) -0.030(2) -0.0102(18) -0.0031(18)
O4 0.031(2) 0.049(2) 0.042(2) -0.0268(19) 0.0000(18) -0.0060(18)
O5 0.045(2) 0.030(2) 0.032(2) -0.0151(17) -0.0057(17) -0.0085(17)
O6 0.038(2) 0.044(2) 0.029(2) -0.0168(18) -0.0069(17) -0.0077(18)
O7 0.056(3) 0.034(2) 0.035(2) -0.0165(18) -0.0210(19) 0.0005(18)
O8 0.042(2) 0.027(2) 0.034(2) -0.0148(17) -0.0079(17) -0.0049(17)
O9 0.0210(18) 0.038(2) 0.030(2) -0.0140(16) -0.0068(15) -0.0010(15)
O10 0.0263(19) 0.045(2) 0.032(2) -0.0231(18) -0.0060(16) 0.0054(17)
O11 0.034(2) 0.047(2) 0.045(2) -0.030(2) -0.0029(18) -0.0034(18)
O12 0.031(2) 0.065(3) 0.049(3) -0.037(2) -0.0064(18) -0.0044(19)
O13 0.024(2) 0.051(2) 0.038(2) -0.021(2) -0.0052(16) -0.0098(18)
N1 0.030(3) 0.039(3) 0.044(3) -0.014(2) -0.009(2) -0.004(2)
N2 0.027(2) 0.036(3) 0.038(3) -0.015(2) -0.005(2) -0.003(2)
N3 0.040(3) 0.054(3) 0.041(3) -0.001(2) -0.005(2) -0.017(3)
N4 0.034(3) 0.051(3) 0.057(3) -0.009(3) -0.004(2) -0.009(2)
N5 0.056(4) 0.111(6) 0.112(6) 0.044(5) -0.033(4) -0.049(4)
N6 0.038(3) 0.040(3) 0.026(2) -0.009(2) -0.005(2) -0.004(2)
N7 0.026(2) 0.030(3) 0.037(3) -0.007(2) -0.011(2) -0.0029(19)
N8 0.026(2) 0.029(2) 0.028(2) -0.014(2) -0.0092(19) -0.0007(18)
N