####################################################################### 
# 
# This file contains crystal structure data downloaded from the 
# Cambridge Structural Database (CSD) hosted by the Cambridge 
# Crystallographic Data Centre (CCDC).
# 
# Full information about CCDC data access policies and citation 
# guidelines are available at http://www.ccdc.cam.ac.uk/access/V1 
# 
# Audit and citation data items may have been added by the CCDC. 
# Please retain this information to preserve the provenance of 
# this file and to allow appropriate attribution of the data. 
# 
#######################################################################

data_4HWS
_audit_block_doi                 10.5517/cc10hhtt
_database_code_depnum_ccdc_archive 'CCDC 938426'
loop_
_citation_id
_citation_doi
_citation_year
1 10.1002/zaac.201300619 2014
_audit_update_record             
;
2013-05-09 deposited with the CCDC.	2024-07-13 downloaded from the CCDC.
;
#=======================================================================   

_audit_creation_method           SHELXL-97
_chemical_name_systematic        
; 
 ? 
;
_chemical_name_common            ?
_chemical_melting_point          ?
_chemical_formula_moiety         'C78 H50 Gd2 N12 O13'
_chemical_formula_sum            'C78 H50 Gd2 N12 O13'
_chemical_formula_weight         1677.80

loop_
_atom_type_symbol
_atom_type_description
_atom_type_scat_dispersion_real
_atom_type_scat_dispersion_imag
_atom_type_scat_source
C C 0.0033 0.0016 'International Tables Vol C Tables 4.2.6.8 and 6.1.1.4'
H H 0.0000 0.0000 'International Tables Vol C Tables 4.2.6.8 and 6.1.1.4'
N N 0.0061 0.0033 'International Tables Vol C Tables 4.2.6.8 and 6.1.1.4'
O O 0.0106 0.0060 'International Tables Vol C Tables 4.2.6.8 and 6.1.1.4'
Gd Gd -0.1653 3.9035 'International Tables Vol C Tables 4.2.6.8 and 6.1.1.4'

_symmetry_cell_setting           triclinic
_symmetry_space_group_name_H-M   'P -1'
_symmetry_space_group_name_Hall  '-P 1'

loop_
_symmetry_equiv_pos_as_xyz
'x, y, z'
'-x, -y, -z'

_cell_length_a                   14.018(2)
_cell_length_b                   16.567(2)
_cell_length_c                   21.174(3)
_cell_angle_alpha                75.785(3)
_cell_angle_beta                 76.417(3)
_cell_angle_gamma                80.836(3)
_cell_volume                     4606.5(11)
_cell_formula_units_Z            2
_cell_measurement_temperature    294(2)
_cell_measurement_reflns_used    927
_cell_measurement_theta_min      -23.529
_cell_measurement_theta_max      23.529

_exptl_crystal_description       chunky
_exptl_crystal_colour            yellow
_exptl_crystal_size_max          0.06
_exptl_crystal_size_mid          0.04
_exptl_crystal_size_min          0.04
_exptl_crystal_density_meas      ?
_exptl_crystal_density_diffrn    1.210
_exptl_crystal_density_method    'not measured'
_exptl_crystal_F_000             1668
_exptl_absorpt_coefficient_mu    1.484
_exptl_absorpt_correction_type   Empirical
_exptl_absorpt_correction_T_min  0.9110
_exptl_absorpt_correction_T_max  0.9444
_exptl_absorpt_process_details   SADABS

_exptl_special_details           
; 
During the structure refinement, the ions and solvent molecules
inside cavities were seriously disordered and could not be modelled 
satisfactorily. The SQUEEZE routine in PLATON (Spek, 1999) was used to 
modify the HKL file.    
;

_diffrn_ambient_temperature      293(2)
_diffrn_radiation_wavelength     0.71073
_diffrn_radiation_type           MoK\a
_diffrn_radiation_source         'fine-focus sealed tube'
_diffrn_radiation_monochromator  graphite
_diffrn_measurement_device_type  'Bruker Smart Apex'
_diffrn_measurement_method       'phi-omega scan'
_diffrn_detector_area_resol_mean ?
_diffrn_standards_number         ?
_diffrn_standards_interval_count ?
_diffrn_standards_interval_time  ?
_diffrn_standards_decay_%        0
_diffrn_reflns_number            46351
_diffrn_reflns_av_R_equivalents  0.0476
_diffrn_reflns_av_sigmaI/netI    0.0641
_diffrn_reflns_limit_h_min       -16
_diffrn_reflns_limit_h_max       16
_diffrn_reflns_limit_k_min       -20
_diffrn_reflns_limit_k_max       20
_diffrn_reflns_limit_l_min       -25
_diffrn_reflns_limit_l_max       25
_diffrn_reflns_theta_min         1.28
_diffrn_reflns_theta_max         25.50
_reflns_number_total             17059
_reflns_number_gt                12927
_reflns_threshold_expression     >2sigma(I)

_computing_data_collection       'BRUKER SMART'
_computing_cell_refinement       'BRUKER SMART'
_computing_data_reduction        'BRUKER SAINT'
_computing_structure_solution    'SHELXS-97 (Sheldrick, 1990)'
_computing_structure_refinement  'SHELXL-97 (Sheldrick, 1997)'
_computing_molecular_graphics    Ortep-3
_computing_publication_material  'wingx publication routines (Farrugia, 1999)'

_refine_special_details          
; 
 Refinement of F^2^ against ALL reflections.  The weighted R-factor wR and 
 goodness of fit S are based on F^2^, conventional R-factors R are based 
 on F, with F set to zero for negative F^2^. The threshold expression of 
 F^2^ > 2sigma(F^2^) is used only for calculating R-factors(gt) etc. and is 
 not relevant to the choice of reflections for refinement.  R-factors based 
 on F^2^ are statistically about twice as large as those based on F, and R- 
 factors based on ALL data will be even larger. 
;

_refine_ls_structure_factor_coef Fsqd
_refine_ls_matrix_type           full
_refine_ls_weighting_scheme      calc
_refine_ls_weighting_details     
'calc w=1/[\s^2^(Fo^2^)+(0.0621P)^2^+0.0000P] where P=(Fo^2^+2Fc^2^)/3'
_atom_sites_solution_primary     direct
_atom_sites_solution_secondary   difmap
_atom_sites_solution_hydrogens   geom
_refine_ls_hydrogen_treatment    mixed
_refine_ls_extinction_method     none
_refine_ls_extinction_coef       ?
_refine_ls_number_reflns         17059
_refine_ls_number_parameters     952
_refine_ls_number_restraints     488
_refine_ls_R_factor_all          0.0577
_refine_ls_R_factor_gt           0.0454
_refine_ls_wR_factor_ref         0.1156
_refine_ls_wR_factor_gt          0.1121
_refine_ls_goodness_of_fit_ref   0.989
_refine_ls_restrained_S_all      1.001
_refine_ls_shift/su_max          0.001
_refine_ls_shift/su_mean         0.000

loop_
_atom_site_label
_atom_site_type_symbol
_atom_site_fract_x
_atom_site_fract_y
_atom_site_fract_z
_atom_site_U_iso_or_equiv
_atom_site_adp_type
_atom_site_occupancy
_atom_site_symmetry_multiplicity
_atom_site_calc_flag
_atom_site_refinement_flags
_atom_site_disorder_assembly
_atom_site_disorder_group
Gd1 Gd 0.313855(17) 0.418711(14) 0.040543(11) 0.02640(8) Uani 1 1 d . . .
Gd2 Gd 0.322463(16) 1.075044(14) 0.468015(11) 0.02453(8) Uani 1 1 d . . .
O1 O 0.3335(3) 0.4961(2) -0.06723(16) 0.0407(9) Uani 1 1 d . . .
O2 O 0.4571(3) 0.5567(3) -0.13856(19) 0.0621(13) Uani 1 1 d . . .
O3 O 0.2488(3) 0.1791(2) -0.46281(19) 0.0447(10) Uani 1 1 d . . .
O4 O 0.4085(3) 0.1679(2) -0.49611(18) 0.0410(9) Uani 1 1 d . . .
O5 O 0.2924(3) 0.4612(2) 0.14632(17) 0.0375(9) Uani 1 1 d . . .
O6 O 0.3485(3) 0.5561(2) 0.05901(17) 0.0383(9) Uani 1 1 d . . .
O7 O 0.3094(3) 0.9281(2) 0.46084(18) 0.0416(9) Uani 1 1 d . . .
O8 O 0.2807(2) 1.0283(2) 0.37551(17) 0.0342(8) Uani 1 1 d . . .
O9 O 0.3603(2) 0.9965(2) 0.56731(16) 0.0329(8) Uani 1 1 d . . .
O10 O 0.5153(2) 0.9589(2) 0.58071(16) 0.0350(8) Uani 1 1 d . . .
O11 O 0.2393(3) 1.3256(2) 0.99339(18) 0.0398(9) Uani 1 1 d . . .
O12 O 0.4014(3) 1.3161(2) 0.97698(18) 0.0430(9) Uani 1 1 d . . .
O13 O 0.4840(3) 0.4032(2) 0.04294(18) 0.0367(8) Uani 1 1 d D . .
H13A H 0.533(3) 0.403(3) 0.0065(17) 0.044 Uiso 1 1 d D . .
H13B H 0.516(3) 0.421(3) 0.068(2) 0.044 Uiso 1 1 d D . .
N1 N 0.3250(3) 0.2775(3) 0.1264(2) 0.0368(10) Uani 1 1 d . . .
N2 N 0.1518(3) 0.3656(3) 0.1161(2) 0.0342(10) Uani 1 1 d . . .
N3 N 0.0684(3) 0.2516(3) 0.1792(2) 0.0499(13) Uani 1 1 d . . .
N4 N -0.0216(3) 0.3752(3) 0.1332(2) 0.0488(12) Uani 1 1 d . . .
N5 N -0.1041(5) 0.1782(4) 0.2226(3) 0.090(2) Uani 1 1 d U . .
N6 N 0.1526(3) 0.5209(3) 0.0402(2) 0.0361(10) Uani 1 1 d . . .
N7 N 0.1480(3) 1.0365(3) 0.5320(2) 0.0327(10) Uani 1 1 d . . .
N8 N 0.1721(3) 1.1663(2) 0.4274(2) 0.0297(9) Uani 1 1 d . . .
N9 N 0.0004(3) 1.1946(3) 0.4370(2) 0.0381(11) Uani 1 1 d . . .
N10 N 0.1064(3) 1.2733(3) 0.3479(2) 0.0399(11) Uani 1 1 d . . .
N11 N -0.0548(3) 1.3695(3) 0.3073(2) 0.0489(12) Uani 1 1 d . . .
N12 N 0.3553(3) 1.2034(3) 0.3694(2) 0.0342(10) Uani 1 1 d . . .
C1 C 0.3902(4) 0.5113(3) -0.1231(2) 0.0357(11) Uani 1 1 d U . .
C2 C 0.3774(4) 0.4709(3) -0.1767(2) 0.0304(9) Uani 1 1 d U . .
C3 C 0.2923(4) 0.4334(3) -0.1698(3) 0.0357(11) Uani 1 1 d U . .
H3 H 0.2421 0.4351 -0.1325 0.043 Uiso 1 1 calc R . .
C4 C 0.2814(4) 0.3938(3) -0.2177(3) 0.0358(11) Uani 1 1 d U . .
H4 H 0.2234 0.3702 -0.2128 0.043 Uiso 1 1 calc R . .
C5 C 0.3564(4) 0.3890(3) -0.2730(2) 0.0339(10) Uani 1 1 d U . .
C6 C 0.4405(4) 0.4268(3) -0.2792(3) 0.0413(11) Uani 1 1 d U . .
H6 H 0.4914 0.4244 -0.3161 0.050 Uiso 1 1 calc R . .
C7 C 0.4507(4) 0.4676(3) -0.2324(2) 0.0394(11) Uani 1 1 d U . .
H7 H 0.5076 0.4932 -0.2383 0.047 Uiso 1 1 calc R . .
C8 C 0.3489(4) 0.3425(3) -0.3231(3) 0.0403(11) Uani 1 1 d U . .
C9 C 0.2613(4) 0.3457(4) -0.3443(3) 0.0472(12) Uani 1 1 d U . .
H9 H 0.2058 0.3794 -0.3281 0.057 Uiso 1 1 calc R . .
C10 C 0.2560(4) 0.2999(4) -0.3885(3) 0.0468(12) Uani 1 1 d U . .
H10 H 0.1960 0.3014 -0.4007 0.056 Uiso 1 1 calc R . .
C11 C 0.3373(4) 0.2514(3) -0.4158(3) 0.0372(10) Uani 1 1 d U . .
C12 C 0.4243(4) 0.2474(3) -0.3951(3) 0.0428(12) Uani 1 1 d U . .
H12 H 0.4796 0.2140 -0.4119 0.051 Uiso 1 1 calc R . .
C13 C 0.4301(4) 0.2927(4) -0.3492(3) 0.0438(12) Uani 1 1 d U . .
H13 H 0.4895 0.2895 -0.3359 0.053 Uiso 1 1 calc R . .
C14 C 0.3311(4) 0.1966(4) -0.4613(3) 0.0409(12) Uani 1 1 d U . .
C15 C 0.4130(4) 0.2361(4) 0.1352(3) 0.0522(14) Uani 1 1 d U . .
H15 H 0.4698 0.2577 0.1082 0.063 Uiso 1 1 calc R . .
C16 C 0.4231(5) 0.1641(4) 0.1816(3) 0.0592(14) Uani 1 1 d U . .
H16 H 0.4856 0.1393 0.1876 0.071 Uiso 1 1 calc R . .
C17 C 0.3425(5) 0.1290(4) 0.2188(3) 0.0602(14) Uani 1 1 d U . .
H17 H 0.3484 0.0795 0.2506 0.072 Uiso 1 1 calc R . .
C18 C 0.2502(4) 0.1677(4) 0.2091(3) 0.0519(13) Uani 1 1 d U . .
H18 H 0.1931 0.1438 0.2329 0.062 Uiso 1 1 calc R . .
C19 C 0.2460(4) 0.2418(3) 0.1638(3) 0.0384(11) Uani 1 1 d U . .
C20 C 0.1486(4) 0.2882(3) 0.1529(3) 0.0347(11) Uani 1 1 d U . .
C21 C -0.0171(4) 0.2986(4) 0.1664(3) 0.0516(14) Uani 1 1 d U . .
C22 C 0.0654(4) 0.4079(4) 0.1092(3) 0.0407(12) Uani 1 1 d U . .
C23 C -0.1100(5) 0.2584(4) 0.1873(3) 0.0597(14) Uani 1 1 d U . .
C24 C -0.1858(7) 0.1396(6) 0.2391(4) 0.099(2) Uani 1 1 d U . .
H24 H -0.1833 0.0840 0.2622 0.119 Uiso 1 1 calc R . .
C25 C -0.2754(6) 0.1800(5) 0.2228(4) 0.0928(19) Uani 1 1 d U . .
H25 H -0.3316 0.1519 0.2369 0.111 Uiso 1 1 calc R . .
C26 C -0.2806(6) 0.2609(5) 0.1860(4) 0.0784(17) Uani 1 1 d U . .
H26 H -0.3386 0.2884 0.1733 0.094 Uiso 1 1 calc R . .
C27 C -0.1948(5) 0.2987(5) 0.1693(3) 0.0642(15) Uani 1 1 d U . .
H27 H -0.1950 0.3536 0.1449 0.077 Uiso 1 1 calc R . .
C28 C 0.0652(4) 0.4970(4) 0.0712(3) 0.0461(12) Uani 1 1 d U . .
C29 C -0.0221(5) 0.5495(4) 0.0709(3) 0.0607(15) Uani 1 1 d U . .
H29 H -0.0820 0.5289 0.0925 0.073 Uiso 1 1 calc R . .
C30 C -0.0200(5) 0.6303(4) 0.0394(4) 0.0653(15) Uani 1 1 d U . .
H30 H -0.0776 0.6670 0.0401 0.078 Uiso 1 1 calc R . .
C31 C 0.0727(5) 0.6583(4) 0.0051(3) 0.0603(15) Uani 1 1 d U . .
H31 H 0.0773 0.7134 -0.0185 0.072 Uiso 1 1 calc R . .
C32 C 0.1559(4) 0.6015(4) 0.0076(3) 0.0512(14) Uani 1 1 d U . .
H32 H 0.2170 0.6197 -0.0142 0.061 Uiso 1 1 calc R . .
C33 C 0.3179(3) 0.5316(3) 0.1208(2) 0.0297(10) Uani 1 1 d U . .
C34 C 0.3113(4) 0.5923(3) 0.1651(3) 0.0355(10) Uani 1 1 d U . .
C35 C 0.2836(4) 0.5699(3) 0.2331(3) 0.0406(11) Uani 1 1 d U . .
H35 H 0.2692 0.5154 0.2528 0.049 Uiso 1 1 calc R . .
C36 C 0.2767(4) 0.6259(3) 0.2728(3) 0.0443(12) Uani 1 1 d U . .
H36 H 0.2587 0.6081 0.3188 0.053 Uiso 1 1 calc R . .
C37 C 0.2958(4) 0.7081(3) 0.2461(3) 0.0388(10) Uani 1 1 d U . .
C38 C 0.3231(4) 0.7314(4) 0.1780(3) 0.0462(12) Uani 1 1 d U . .
H38 H 0.3363 0.7863 0.1585 0.055 Uiso 1 1 calc R . .
C39 C 0.3315(4) 0.6747(3) 0.1374(3) 0.0462(12) Uani 1 1 d U . .
H39 H 0.3508 0.6921 0.0915 0.055 Uiso 1 1 calc R . .
C40 C 0.2880(4) 0.7700(3) 0.2878(3) 0.0369(10) Uani 1 1 d U . .
C41 C 0.3062(4) 0.7432(3) 0.3534(3) 0.0396(11) Uani 1 1 d U . .
H41 H 0.3187 0.6864 0.3714 0.048 Uiso 1 1 calc R . .
C42 C 0.3054(4) 0.8019(3) 0.3907(3) 0.0366(11) Uani 1 1 d U . .
H42 H 0.3170 0.7839 0.4337 0.044 Uiso 1 1 calc R . .
C43 C 0.2875(4) 0.8872(3) 0.3643(3) 0.0328(10) Uani 1 1 d U . .
C44 C 0.2663(4) 0.9123(3) 0.3012(3) 0.0386(11) Uani 1 1 d U . .
H44 H 0.2515 0.9689 0.2836 0.046 Uiso 1 1 calc R . .
C45 C 0.2670(4) 0.8541(3) 0.2642(3) 0.0406(11) Uani 1 1 d U . .
H45 H 0.2527 0.8726 0.2219 0.049 Uiso 1 1 calc R . .
C46 C 0.2918(4) 0.9509(3) 0.4026(3) 0.0321(11) Uani 1 1 d U . .
C47 C 0.1394(4) 0.9728(3) 0.5845(3) 0.0416(12) Uani 1 1 d U . .
H47 H 0.1965 0.9398 0.5942 0.050 Uiso 1 1 calc R . .
C48 C 0.0505(4) 0.9531(4) 0.6254(3) 0.0451(12) Uani 1 1 d U . .
H48 H 0.0482 0.9075 0.6613 0.054 Uiso 1 1 calc R . .
C49 C -0.0354(4) 1.0017(4) 0.6124(3) 0.0442(12) Uani 1 1 d U . .
H49 H -0.0965 0.9909 0.6397 0.053 Uiso 1 1 calc R . .
C50 C -0.0265(4) 1.0689(4) 0.5557(3) 0.0442(12) Uani 1 1 d U . .
H50 H -0.0822 1.1026 0.5442 0.053 Uiso 1 1 calc R . .
C51 C 0.0660(4) 1.0834(3) 0.5180(3) 0.0346(11) Uani 1 1 d U . .
C52 C 0.0786(4) 1.1522(3) 0.4579(2) 0.0326(11) Uani 1 1 d U . .
C53 C 0.0167(4) 1.2534(3) 0.3818(3) 0.0382(12) Uani 1 1 d U . .
C54 C 0.1799(4) 1.2287(3) 0.3740(2) 0.0305(11) Uani 1 1 d U . .
C55 C -0.0712(4) 1.3014(3) 0.3555(3) 0.0445(12) Uani 1 1 d U . .
C56 C -0.1322(4) 1.4126(4) 0.2848(3) 0.0611(16) Uani 1 1 d U . .
H56 H -0.1221 1.4599 0.2507 0.073 Uiso 1 1 calc R . .
C57 C -0.2270(5) 1.3912(4) 0.3092(3) 0.0630(15) Uani 1 1 d U . .
H57 H -0.2793 1.4242 0.2923 0.076 Uiso 1 1 calc R . .
C58 C -0.2437(5) 1.3207(4) 0.3590(3) 0.0621(15) Uani 1 1 d U . .
H58 H -0.3068 1.3045 0.3763 0.074 Uiso 1 1 calc R . .
C59 C -0.1619(4) 1.2747(4) 0.3822(3) 0.0550(14) Uani 1 1 d U . .
H59 H -0.1693 1.2263 0.4155 0.066 Uiso 1 1 calc R . .
C60 C 0.2823(4) 1.2507(3) 0.3423(3) 0.0332(10) Uani 1 1 d U . .
C61 C 0.2995(4) 1.3171(3) 0.2880(3) 0.0379(11) Uani 1 1 d U . .
H61 H 0.2474 1.3470 0.2690 0.045 Uiso 1 1 calc R . .
C62 C 0.3930(4) 1.3385(4) 0.2627(3) 0.0468(12) Uani 1 1 d U . .
H62 H 0.4060 1.3833 0.2267 0.056 Uiso 1 1 calc R . .
C63 C 0.4674(4) 1.2919(4) 0.2920(3) 0.0461(12) Uani 1 1 d U . .
H63 H 0.5320 1.3050 0.2764 0.055 Uiso 1 1 calc R . .
C64 C 0.4456(4) 1.2257(3) 0.3444(3) 0.0403(12) Uani 1 1 d U . .
H64 H 0.4971 1.1947 0.3634 0.048 Uiso 1 1 calc R . .
C65 C 0.4278(3) 0.9888(3) 0.5989(2) 0.0258(10) Uani 1 1 d U . .
C66 C 0.4027(3) 1.0203(3) 0.6627(2) 0.0292(9) Uani 1 1 d U . .
C67 C 0.3106(3) 1.0598(3) 0.6847(2) 0.0321(10) Uani 1 1 d U . .
H67 H 0.2593 1.0615 0.6633 0.039 Uiso 1 1 calc R . .
C68 C 0.2949(4) 1.0966(3) 0.7387(3) 0.0371(11) Uani 1 1 d U . .
H68 H 0.2324 1.1227 0.7530 0.044 Uiso 1 1 calc R . .
C69 C 0.3685(4) 1.0959(3) 0.7719(3) 0.0383(10) Uani 1 1 d U . .
C70 C 0.4591(4) 1.0522(3) 0.7509(3) 0.0401(11) Uani 1 1 d U . .
H70 H 0.5100 1.0481 0.7733 0.048 Uiso 1 1 calc R . .
C71 C 0.4743(4) 1.0149(3) 0.6975(2) 0.0377(11) Uani 1 1 d U . .
H71 H 0.5351 0.9852 0.6849 0.045 Uiso 1 1 calc R . .
C72 C 0.3557(4) 1.1427(4) 0.8248(3) 0.0416(11) Uani 1 1 d U . .
C73 C 0.2649(4) 1.1560(4) 0.8674(3) 0.0470(12) Uani 1 1 d U . .
H73 H 0.2104 1.1333 0.8637 0.056 Uiso 1 1 calc R . .
C74 C 0.2549(4) 1.2027(4) 0.9151(3) 0.0467(12) Uani 1 1 d U . .
H74 H 0.1946 1.2092 0.9442 0.056 Uiso 1 1 calc R . .
C75 C 0.3347(4) 1.2398(3) 0.9199(3) 0.0398(11) Uani 1 1 d U . .
C76 C 0.4227(4) 1.2267(4) 0.8780(3) 0.0499(12) Uani 1 1 d U . .
H76 H 0.4768 1.2502 0.8813 0.060 Uiso 1 1 calc R . .
C77 C 0.4339(4) 1.1797(4) 0.8312(3) 0.0492(12) Uani 1 1 d U . .
H77 H 0.4951 1.1725 0.8032 0.059 Uiso 1 1 calc R . .
C78 C 0.3248(4) 1.2959(3) 0.9663(3) 0.0334(11) Uani 1 1 d U . .

loop_
_atom_site_aniso_label
_atom_site_aniso_U_11
_atom_site_aniso_U_22
_atom_site_aniso_U_33
_atom_site_aniso_U_23
_atom_site_aniso_U_13
_atom_site_aniso_U_12
Gd1 0.02756(14) 0.03086(14) 0.02532(14) -0.01505(11) -0.00323(10) -0.00563(10)
Gd2 0.02421(13) 0.02778(14) 0.02662(14) -0.01485(10) -0.00688(10) -0.00092(10)
O1 0.047(2) 0.052(2) 0.0260(19) -0.0135(17) 0.0003(17) -0.0158(18)
O2 0.071(3) 0.091(3) 0.035(2) -0.024(2) 0.007(2) -0.052(3)
O3 0.036(2) 0.057(2) 0.054(2) -0.034(2) -0.0129(18) -0.0032(18)
O4 0.037(2) 0.052(2) 0.044(2) -0.0309(19) -0.0031(17) -0.0090(18)
O5 0.050(2) 0.034(2) 0.035(2) -0.0169(17) -0.0082(17) -0.0099(17)
O6 0.050(2) 0.037(2) 0.029(2) -0.0140(16) -0.0024(17) -0.0079(17)
O7 0.059(3) 0.036(2) 0.038(2) -0.0169(17) -0.0229(19) 0.0022(18)
O8 0.041(2) 0.0291(19) 0.038(2) -0.0160(16) -0.0133(17) 0.0005(16)
O9 0.0310(19) 0.043(2) 0.0297(19) -0.0145(16) -0.0095(15) -0.0039(16)
O10 0.0283(19) 0.047(2) 0.0320(19) -0.0206(17) -0.0025(15) 0.0025(16)
O11 0.036(2) 0.049(2) 0.043(2) -0.0309(18) -0.0018(17) -0.0053(17)
O12 0.033(2) 0.054(2) 0.055(2) -0.038(2) -0.0057(18) -0.0069(17)
O13 0.030(2) 0.053(2) 0.037(2) -0.0235(18) -0.0089(16) -0.0082(17)
N1 0.037(3) 0.036(2) 0.040(3) -0.011(2) -0.009(2) -0.004(2)
N2 0.033(2) 0.036(2) 0.035(2) -0.015(2) -0.0040(19) -0.0009(19)
N3 0.042(3) 0.057(3) 0.050(3) -0.006(2) -0.009(2) -0.013(2)
N4 0.029(3) 0.059(3) 0.056(3) -0.007(3) -0.006(2) -0.009(2)
N5 0.080(3) 0.091(3) 0.098(3) 0.000(2) -0.024(2) -0.026(2)
N6 0.029(2) 0.045(3) 0.034(2) -0.007(2) -0.0045(19) -0.008(2)
N7 0.035(2) 0.032(2) 0.035(2) -0.0076(19) -0.0113(19) -0.0068(19)
N8 0.027(2) 0.030(2) 0.037(2) -0.0144(19) -0.0090(18) -0.0019(18)
N9 0.027(2) 0.043(3) 0.048(3) -0.007(2) -0.013(2) -0.006(2)
N10 0.037(3) 0.03