####################################################################### 
# 
# This file contains crystal structure data downloaded from the 
# Cambridge Structural Database (CSD) hosted by the Cambridge 
# Crystallographic Data Centre (CCDC).
# 
# Full information about CCDC data access policies and citation 
# guidelines are available at http://www.ccdc.cam.ac.uk/access/V1 
# 
# Audit and citation data items may have been added by the CCDC. 
# Please retain this information to preserve the provenance of 
# this file and to allow appropriate attribution of the data. 
# 
#######################################################################

data_2
_audit_block_doi                 10.5517/cc12bclc
_database_code_depnum_ccdc_archive 'CCDC 993072'
loop_
_citation_id
_citation_doi
_citation_year
1 10.1016/j.inoche.2014.06.015 2014
_audit_update_record             
;
2014-03-22 deposited with the CCDC.	2024-07-13 downloaded from the CCDC.
;

_audit_creation_method           SHELXL-97
_chemical_name_systematic        
; 
 ? 
;
_chemical_name_common            ?
_chemical_melting_point          ?
_chemical_formula_moiety         
'C108 H38 O75 Pb16, 6(C3 H7 N O), 8(C2 H8 N), 1.2(H2 O), 2(H0.80 O0.40)'
_chemical_formula_sum            'C142 H148 N14 O83 Pb16'
_chemical_formula_weight         6693.78

loop_
_atom_type_symbol
_atom_type_description
_atom_type_scat_dispersion_real
_atom_type_scat_dispersion_imag
_atom_type_scat_source
C C 0.0033 0.0016 'International Tables Vol C Tables 4.2.6.8 and 6.1.1.4'
H H 0.0000 0.0000 'International Tables Vol C Tables 4.2.6.8 and 6.1.1.4'
N N 0.0061 0.0033 'International Tables Vol C Tables 4.2.6.8 and 6.1.1.4'
O O 0.0106 0.0060 'International Tables Vol C Tables 4.2.6.8 and 6.1.1.4'
Pb Pb -3.3944 10.1111 'International Tables Vol C Tables 4.2.6.8 and 6.1.1.4'

_symmetry_cell_setting           Triclinic
_symmetry_space_group_name_H-M   'P-1   '
_symmetry_space_group_name_Hall  '-P 1'

loop_
_symmetry_equiv_pos_as_xyz
'x, y, z'
'-x, -y, -z'

_cell_length_a                   12.850(4)
_cell_length_b                   13.752(4)
_cell_length_c                   29.081(10)
_cell_angle_alpha                99.731(5)
_cell_angle_beta                 92.479(5)
_cell_angle_gamma                114.719(3)
_cell_volume                     4563(2)
_cell_formula_units_Z            1
_cell_measurement_temperature    153(2)
_cell_measurement_reflns_used    8034
_cell_measurement_theta_min      2.15
_cell_measurement_theta_max      27.26

_exptl_crystal_description       Block
_exptl_crystal_colour            colourless
_exptl_crystal_size_max          0.10
_exptl_crystal_size_mid          0.09
_exptl_crystal_size_min          0.09
_exptl_crystal_density_meas      ?
_exptl_crystal_density_diffrn    2.436
_exptl_crystal_density_method    'not measured'
_exptl_crystal_F_000             3074
_exptl_absorpt_coefficient_mu    14.794
_exptl_absorpt_correction_type   MULTI-SCAN
_exptl_absorpt_correction_T_min  0.3193
_exptl_absorpt_correction_T_max  0.3494
_exptl_absorpt_process_details   'sadabs; Bruker, 2000'

_exptl_special_details           
; 
 ? 
;

_diffrn_ambient_temperature      153(2)
_diffrn_radiation_wavelength     0.71073
_diffrn_radiation_type           MoK\a
_diffrn_radiation_source         'fine-focus sealed tube'
_diffrn_radiation_monochromator  graphite
_diffrn_measurement_device_type  'Bruker D8 Quest CMOS'
_diffrn_measurement_method       'phi and omega scans'
_diffrn_detector_area_resol_mean ?
_diffrn_reflns_number            32373
_diffrn_reflns_av_R_equivalents  0.0321
_diffrn_reflns_av_sigmaI/netI    0.0534
_diffrn_reflns_limit_h_min       -14
_diffrn_reflns_limit_h_max       15
_diffrn_reflns_limit_k_min       -16
_diffrn_reflns_limit_k_max       16
_diffrn_reflns_limit_l_min       -34
_diffrn_reflns_limit_l_max       34
_diffrn_reflns_theta_min         1.43
_diffrn_reflns_theta_max         25.00
_reflns_number_total             15853
_reflns_number_gt                12540
_reflns_threshold_expression     >2sigma(I)

_computing_data_collection       'SMART (Bruker, 2000)'
_computing_cell_refinement       SMART
_computing_data_reduction        'SAINT (Bruker, 2000)'
_computing_structure_solution    'SHELXTL (Bruker, 2000)'
_computing_structure_refinement  SHELXTL
_computing_molecular_graphics    SHELXTL
_computing_publication_material  SHELXTL

_refine_special_details          
; 
 Refinement of F^2^ against ALL reflections.  The weighted R-factor wR and 
 goodness of fit S are based on F^2^, conventional R-factors R are based 
 on F, with F set to zero for negative F^2^. The threshold expression of 
 F^2^ > 2sigma(F^2^) is used only for calculating R-factors(gt) etc. and is 
 not relevant to the choice of reflections for refinement.  R-factors based 
 on F^2^ are statistically about twice as large as those based on F, and R- 
 factors based on ALL data will be even larger. 
;

_refine_ls_structure_factor_coef Fsqd
_refine_ls_matrix_type           fullcycle
_refine_ls_weighting_scheme      calc
_refine_ls_weighting_details     
'calc w=1/[\s^2^(Fo^2^)+(0.0643P)^2^+5.9900P] where P=(Fo^2^+2Fc^2^)/3'
_atom_sites_solution_primary     direct
_atom_sites_solution_secondary   difmap
_atom_sites_solution_hydrogens   geom
_refine_ls_hydrogen_treatment    mixed
_refine_ls_extinction_method     none
_refine_ls_extinction_coef       ?
_refine_ls_number_reflns         15853
_refine_ls_number_parameters     1173
_refine_ls_number_restraints     0
_refine_ls_R_factor_all          0.0644
_refine_ls_R_factor_gt           0.0501
_refine_ls_wR_factor_ref         0.1137
_refine_ls_wR_factor_gt          0.1101
_refine_ls_goodness_of_fit_ref   1.065
_refine_ls_restrained_S_all      1.065
_refine_ls_shift/su_max          0.001
_refine_ls_shift/su_mean         0.000

loop_
_atom_site_label
_atom_site_type_symbol
_atom_site_fract_x
_atom_site_fract_y
_atom_site_fract_z
_atom_site_U_iso_or_equiv
_atom_site_adp_type
_atom_site_occupancy
_atom_site_symmetry_multiplicity
_atom_site_calc_flag
_atom_site_refinement_flags
_atom_site_disorder_assembly
_atom_site_disorder_group
C1 C 0.8801(9) 0.8589(8) 0.4072(3) 0.027 Uani 1 1 d . . .
C2 C 0.8343(9) 0.7492(9) 0.3899(4) 0.031 Uani 1 1 d . . .
C3 C 0.8853(9) 0.6870(9) 0.4068(4) 0.027 Uani 1 1 d . . .
C4 C 0.9789(10) 0.7373(9) 0.4412(3) 0.029 Uani 1 1 d . . .
H4 H 1.0135 0.6952 0.4523 0.035 Uiso 1 1 calc R . .
C5 C 1.0238(9) 0.8495(8) 0.4601(4) 0.030 Uani 1 1 d . . .
H5 H 1.0870 0.8834 0.4845 0.036 Uiso 1 1 calc R . .
C6 C 0.9742(9) 0.9109(9) 0.4425(4) 0.032 Uani 1 1 d . . .
H6 H 1.0042 0.9874 0.4545 0.039 Uiso 1 1 calc R . .
C7 C 0.8386(10) 0.9335(9) 0.3869(4) 0.036 Uani 1 1 d . . .
C8 C 0.7333(9) 0.6946(8) 0.3506(4) 0.028 Uani 1 1 d . . .
C9 C 0.8410(11) 0.5670(9) 0.3904(4) 0.035 Uani 1 1 d . . .
C10 C 0.7780(10) 0.9220(9) 0.1801(4) 0.033 Uani 1 1 d . . .
C11 C 0.6924(11) 0.8190(9) 0.1589(4) 0.034 Uani 1 1 d . . .
C12 C 0.6843(9) 0.7813(10) 0.1108(4) 0.036 Uani 1 1 d . . .
C13 C 0.7588(9) 0.8496(8) 0.0832(4) 0.029 Uani 1 1 d . . .
H13 H 0.7534 0.8245 0.0503 0.035 Uiso 1 1 calc R . .
C14 C 0.8393(10) 0.9531(10) 0.1050(4) 0.035 Uani 1 1 d . . .
H14 H 0.8889 1.0005 0.0870 0.042 Uiso 1 1 calc R . .
C15 C 0.8480(11) 0.9885(11) 0.1537(4) 0.042 Uani 1 1 d . . .
H15 H 0.9035 1.0600 0.1684 0.051 Uiso 1 1 calc R . .
C16 C 0.7809(9) 0.9655(9) 0.2328(3) 0.028 Uani 1 1 d . . .
C17 C 0.6201(11) 0.7380(10) 0.1869(4) 0.037 Uani 1 1 d . . .
C18 C 0.6006(10) 0.6656(9) 0.0851(4) 0.035 Uani 1 1 d . . .
C19 C 0.3805(11) 0.9519(10) 0.3418(4) 0.036 Uani 1 1 d . . .
C20 C 0.3084(10) 0.8283(11) 0.3333(4) 0.039 Uani 1 1 d . . .
C21 C 0.1902(11) 0.7993(11) 0.3297(5) 0.050 Uani 1 1 d . . .
C22 C 0.1386(11) 0.8661(9) 0.3410(5) 0.042 Uani 1 1 d . . .
H22 H 0.0581 0.8365 0.3434 0.050 Uiso 1 1 calc R . .
C23 C 0.2030(9) 0.9767(10) 0.3489(4) 0.036 Uani 1 1 d . . .
H23 H 0.1684 1.0258 0.3547 0.043 Uiso 1 1 calc R . .
C24 C 0.3210(10) 1.0145(10) 0.3480(4) 0.038 Uani 1 1 d . . .
H24 H 0.3649 1.0913 0.3521 0.046 Uiso 1 1 calc R . .
C25 C 0.5092(10) 0.9918(10) 0.3446(4) 0.037 Uani 1 1 d . . .
C26 C 0.3641(9) 0.7587(10) 0.3221(4) 0.037 Uani 1 1 d . . .
C27 C 0.1053(12) 0.6774(10) 0.3199(4) 0.039 Uani 1 1 d . . .
C28 C 0.6421(11) 0.2144(10) 0.2111(4) 0.036 Uani 1 1 d . . .
C29 C 0.5989(8) 0.2647(8) 0.1848(4) 0.027 Uani 1 1 d . . .
C30 C 0.5693(9) 0.2248(9) 0.1346(4) 0.030 Uani 1 1 d . . .
C31 C 0.5851(11) 0.1307(10) 0.1142(4) 0.039 Uani 1 1 d . . .
H31 H 0.5729 0.1064 0.0810 0.046 Uiso 1 1 calc R . .
C32 C 0.6162(10) 0.0785(10) 0.1410(4) 0.038 Uani 1 1 d . . .
H32 H 0.6104 0.0083 0.1274 0.046 Uiso 1 1 calc R . .
C33 C 0.6570(10) 0.1197(9) 0.1881(4) 0.036 Uani 1 1 d . . .
H33 H 0.6939 0.0870 0.2050 0.043 Uiso 1 1 calc R . .
C34 C 0.6891(10) 0.2508(10) 0.2622(4) 0.033 Uani 1 1 d . . .
C35 C 0.5770(9) 0.3580(9) 0.2079(4) 0.030 Uani 1 1 d . . .
C36 C 0.5299(9) 0.2827(11) 0.1034(4) 0.035 Uani 1 1 d . . .
C37 C 0.1114(9) 0.3275(10) 0.0972(4) 0.035 Uani 1 1 d . . .
C38 C 0.1023(10) 0.3696(10) 0.1434(4) 0.041 Uani 1 1 d . . .
C39 C -0.0018(11) 0.3496(9) 0.1569(4) 0.042 Uani 1 1 d . . .
C40 C -0.0988(10) 0.2961(10) 0.1224(4) 0.034 Uani 1 1 d . . .
H40 H -0.1707 0.2939 0.1302 0.041 Uiso 1 1 calc R . .
C41 C -0.0938(9) 0.2506(10) 0.0812(4) 0.039 Uani 1 1 d . . .
H41 H -0.1638 0.2047 0.0611 0.047 Uiso 1 1 calc R . .
C42 C 0.0099(10) 0.2657(10) 0.0646(4) 0.037 Uani 1 1 d . . .
H42 H 0.0131 0.2362 0.0330 0.045 Uiso 1 1 calc R . .
C43 C 0.2235(11) 0.3451(11) 0.0806(4) 0.046 Uani 1 1 d . . .
C44 C 0.2117(9) 0.4277(8) 0.1776(3) 0.027 Uani 1 1 d . . .
C45 C -0.0131(9) 0.3945(10) 0.2061(4) 0.035 Uani 1 1 d . . .
C46 C 0.3402(9) 0.2768(9) 0.4072(4) 0.029 Uani 1 1 d . . .
C47 C 0.2709(9) 0.3043(8) 0.3780(4) 0.028 Uani 1 1 d . . .
C48 C 0.1570(10) 0.2768(9) 0.3860(4) 0.035 Uani 1 1 d . . .
C49 C 0.1133(11) 0.2212(9) 0.4221(4) 0.037 Uani 1 1 d . . .
H49 H 0.0353 0.2021 0.4272 0.044 Uiso 1 1 calc R . .
C50 C 0.1812(9) 0.1937(9) 0.4501(4) 0.033 Uani 1 1 d . . .
H50 H 0.1506 0.1559 0.4745 0.040 Uiso 1 1 calc R . .
C51 C 0.2963(10) 0.2225(10) 0.4423(4) 0.040 Uani 1 1 d . . .
H51 H 0.3442 0.2041 0.4615 0.048 Uiso 1 1 calc R . .
C52 C 0.4619(8) 0.3029(8) 0.4016(4) 0.027 Uani 1 1 d . . .
C53 C 0.3233(9) 0.3690(8) 0.3412(4) 0.028 Uani 1 1 d . . .
C54 C 0.0806(8) 0.3094(8) 0.3582(3) 0.025 Uani 1 1 d . . .
C55 C 0.5389(10) 0.5873(9) 0.4558(4) 0.031 Uani 1 1 d . . .
H55A H 0.4849 0.5097 0.4504 0.047 Uiso 1 1 calc R . .
H55B H 0.5623 0.6165 0.4896 0.047 Uiso 1 1 calc R . .
H55C H 0.6072 0.5954 0.4401 0.047 Uiso 1 1 calc R . .
C56 C 0.3554(9) 0.6192(9) 0.4434(3) 0.033 Uani 1 1 d . . .
H56A H 0.3417 0.5907 0.4723 0.050 Uiso 1 1 calc R . .
H56B H 0.3045 0.5627 0.4167 0.050 Uiso 1 1 calc R . .
H56C H 0.3392 0.6834 0.4463 0.050 Uiso 1 1 calc R . .
C57 C 0.1914(8) 0.7390(8) 0.1928(3) 0.024 Uani 1 1 d . . .
H57A H 0.1685 0.7843 0.1760 0.036 Uiso 1 1 calc R . .
H57B H 0.1889 0.7597 0.2266 0.036 Uiso 1 1 calc R . .
H57C H 0.1382 0.6618 0.1813 0.036 Uiso 1 1 calc R . .
C58 C 0.3894(10) 0.8732(9) 0.1942(4) 0.037 Uani 1 1 d . . .
H58A H 0.4166 0.8988 0.2279 0.055 Uiso 1 1 calc R . .
H58B H 0.3463 0.9122 0.1845 0.055 Uiso 1 1 calc R . .
H58C H 0.4559 0.8872 0.1766 0.055 Uiso 1 1 calc R . .
C59 C 0.2400(10) 0.1179(9) 0.1643(4) 0.036 Uani 1 1 d . . .
H59A H 0.1615 0.1011 0.1510 0.055 Uiso 1 1 calc R . .
H59B H 0.2482 0.0497 0.1626 0.055 Uiso 1 1 calc R . .
H59C H 0.2959 0.1645 0.1463 0.055 Uiso 1 1 calc R . .
C60 C 0.2906(10) 0.1040(9) 0.2411(4) 0.033 Uani 1 1 d . . .
H60A H 0.3503 0.0852 0.2279 0.050 Uiso 1 1 calc R . .
H60B H 0.2214 0.0367 0.2414 0.050 Uiso 1 1 calc R . .
H60C H 0.3194 0.1463 0.2734 0.050 Uiso 1 1 calc R . .
C61 C 0.8730(9) 0.6208(9) 0.1821(3) 0.027 Uani 1 1 d . . .
H61A H 0.9183 0.6812 0.1670 0.040 Uiso 1 1 calc R . .
H61B H 0.7943 0.5817 0.1654 0.040 Uiso 1 1 calc R . .
H61C H 0.9091 0.5703 0.1809 0.040 Uiso 1 1 calc R . .
C62 C 0.9336(9) 0.7920(10) 0.2442(3) 0.030 Uani 1 1 d . . .
H62A H 0.9060 0.8235 0.2213 0.045 Uiso 1 1 calc R . .
H62B H 1.0168 0.8154 0.2443 0.045 Uiso 1 1 calc R . .
H62C H 0.9181 0.8173 0.2756 0.045 Uiso 1 1 calc R . .
C63 C 0.6939(8) 0.1502(9) 0.4688(4) 0.031 Uani 1 1 d . . .
H63A H 0.7770 0.1934 0.4787 0.046 Uiso 1 1 calc R . .
H63B H 0.6529 0.1941 0.4800 0.046 Uiso 1 1 calc R . .
H63C H 0.6794 0.1291 0.4344 0.046 Uiso 1 1 calc R . .
C64 C 0.6201(10) -0.0498(9) 0.4581(4) 0.033 Uani 1 1 d . . .
H64A H 0.6263 -0.0541 0.4254 0.040 Uiso 1 1 calc R . .
C65 C 0.6531(10) 0.0677(9) 0.5442(3) 0.031 Uani 1 1 d . . .
H65A H 0.5744 0.0325 0.5522 0.046 Uiso 1 1 calc R . .
H65B H 0.6856 0.1467 0.5567 0.046 Uiso 1 1 calc R . .
H65C H 0.7011 0.0376 0.5580 0.046 Uiso 1 1 calc R . .
C66 C 0.6821(12) 0.0089(11) 0.9955(4) 0.045 Uani 1 1 d . . .
H66A H 0.7074 -0.0280 1.0165 0.068 Uiso 1 1 calc R . .
H66C H 0.6034 -0.0396 0.9803 0.068 Uiso 1 1 calc R . .
H66B H 0.6833 0.0762 1.0138 0.068 Uiso 1 1 calc R . .
C67 C 0.8533(12) 0.0043(12) 0.9594(5) 0.045 Uani 1 1 d . . .
H67A H 0.8256 -0.0712 0.9419 0.068 Uiso 1 1 calc R . .
H67B H 0.8839 0.0099 0.9917 0.068 Uiso 1 1 calc R . .
H68C H 0.9144 0.0532 0.9440 0.068 Uiso 1 1 calc R . .
C68 C 0.7566(10) 0.1024(9) 0.9280(4) 0.032 Uani 1 1 d . . .
H68A H 0.7146 0.1445 0.9355 0.038 Uiso 1 1 calc R . .
C69 C 0.0211(11) 0.3292(11) 0.9354(4) 0.039 Uani 1 1 d . . .
H69A H -0.0457 0.3453 0.9314 0.058 Uiso 1 1 calc R . .
H69B H 0.0021 0.2693 0.9524 0.058 Uiso 1 1 calc R . .
H69C H 0.0414 0.3076 0.9045 0.058 Uiso 1 1 calc R . .
C70 C 0.0967(10) 0.5222(10) 0.9716(5) 0.042 Uani 1 1 d . . .
H70A H 0.0445 0.5356 0.9524 0.050 Uiso 1 1 calc R . .
C71 C 0.2333(10) 0.4397(8) 0.9827(3) 0.029 Uani 1 1 d . . .
H71A H 0.2809 0.5164 0.9977 0.044 Uiso 1 1 calc R . .
H71B H 0.2721 0.4169 0.9577 0.044 Uiso 1 1 calc R . .
H71C H 0.2221 0.3940 1.0062 0.044 Uiso 1 1 calc R . .
N1 N 0.4792(7) 0.6512(8) 0.4354(3) 0.030 Uani 1 1 d . . .
H1A H 0.5210 0.7245 0.4483 0.036 Uiso 1 1 calc R . .
H1B H 0.4826 0.6423 0.4035 0.036 Uiso 1 1 calc R . .
N2 N 0.3150(8) 0.7569(8) 0.1845(3) 0.034 Uani 1 1 d . . .
H2A H 0.3414 0.7234 0.2039 0.041 Uiso 1 1 calc R . .
H2B H 0.3154 0.7265 0.1538 0.041 Uiso 1 1 calc R . .
N3 N 0.2604(9) 0.1724(8) 0.2110(3) 0.034 Uani 1 1 d . . .
H3A H 0.1957 0.1798 0.2198 0.041 Uiso 1 1 calc R . .
H3B H 0.3205 0.2410 0.2150 0.041 Uiso 1 1 calc R . .
N4 N 0.8691(9) 0.6639(8) 0.2305(3) 0.034 Uani 1 1 d . . .
H4A H 0.9019 0.6349 0.2497 0.041 Uiso 1 1 calc R . .
H4B H 0.7931 0.6419 0.2356 0.041 Uiso 1 1 calc R . .
N5 N 0.6503(8) 0.0461(8) 0.4900(3) 0.034 Uani 1 1 d . . .
N6 N 0.7585(8) 0.0354(8) 0.9602(3) 0.035 Uani 1 1 d . . .
N7 N 0.1195(10) 0.4271(9) 0.9623(4) 0.044 Uani 1 1 d . . .
O1 O 0.8432(7) 1.0165(6) 0.4118(3) 0.037 Uani 1 1 d . . .
O2 O 0.7917(6) 0.9051(6) 0.3428(3) 0.031 Uani 1 1 d . . .
O3 O 0.6324(6) 0.6803(7) 0.3611(3) 0.035 Uani 1 1 d . . .
O4 O 0.7500(6) 0.6550(7) 0.3094(3) 0.036 Uani 1 1 d . . .
O5 O 0.7283(6) 0.5082(6) 0.3790(3) 0.030 Uani 1 1 d . . .
O6 O 0.9068(6) 0.5210(6) 0.3909(2) 0.030 Uani 1 1 d . . .
O7 O 0.8804(6) 1.0366(6) 0.2549(3) 0.031 Uani 1 1 d . . .
O8 O 0.6924(7) 0.9328(6) 0.2505(3) 0.033 Uani 1 1 d . . .
O9 O 0.6702(7) 0.7054(6) 0.2145(2) 0.035 Uani 1 1 d . . .
O10 O 0.5166(7) 0.7167(7) 0.1827(3) 0.039 Uani 1 1 d . . .
O11 O 0.5880(7) 0.5920(6) 0.1066(3) 0.034 Uani 1 1 d . . .
O12 O 0.5480(7) 0.6481(6) 0.0498(3) 0.035 Uani 1 1 d . . .
O13 O 0.5619(7) 1.1003(6) 0.3538(3) 0.035 Uani 1 1 d . . .
O14 O 0.5596(7) 0.9354(7) 0.3260(3) 0.043 Uani 1 1 d . . .
O15 O 0.4146(6) 0.7312(6) 0.3534(3) 0.034 Uani 1 1 d . . .
O16 O 0.3600(6) 0.7189(6) 0.2774(3) 0.032 Uani 1 1 d . . .
O17 O 0.1469(6) 0.6010(7) 0.3261(2) 0.033 Uani 1 1 d . . .
O18 O 0.0097(6) 0.6471(6) 0.3005(3) 0.033 Uani 1 1 d . . .
O19 O 0.7510(6) 0.2188(6) 0.2809(2) 0.029 Uani 1 1 d . . .
O20 O 0.6508(7) 0.3165(6) 0.2863(3) 0.033 Uani 1 1 d . . .
O21 O 0.6602(6) 0.4570(6) 0.2144(3) 0.030 Uani 1 1 d . . .
O22 O 0.4768(6) 0.3381(6) 0.2190(2) 0.026 Uani 1 1 d . . .
O23 O 0.5043(7) 0.3578(5) 0.1187(3) 0.030 Uani 1 1 d . . .
O24 O 0.5260(6) 0.2553(6) 0.0603(2) 0.031 Uani 1 1 d . . .
O25 O 0.2395(7) 0.2768(6) 0.0494(3) 0.033 Uani 1 1 d . . .
O26 O 0.3109(6) 0.4366(5) 0.0974(2) 0.027 Uani 1 1 d . . .
O27 O 0.2668(6) 0.3731(6) 0.1905(3) 0.032 Uani 1 1 d . . .
O28 O 0.2491(6) 0.5283(6) 0.1932(2) 0.029 Uani 1 1 d . . .
O29 O 0.0524(7) 0.3846(7) 0.2394(3) 0.034 Uani 1 1 d . . .
O30 O -0.0885(7) 0.4291(6) 0.2172(2) 0.034 Uani 1 1 d . . .
O31 O -0.0282(7) 0.2601(6) 0.3599(3) 0.034 Uani 1 1 d . . .
O32 O 0.1278(6) 0.3992(6) 0.3436(3) 0.029 Uani 1 1 d . . .
O33 O 0.2977(6) 0.3228(6) 0.2972(3) 0.034 Uani 1 1 d . . .
O34 O 0.3952(6) 0.4678(7) 0.3544(3) 0.035 Uani 1 1 d . . .
O35 O 0.4961(6) 0.3060(6) 0.3580(2) 0.027 Uani 1 1 d . . .
O36 O 0.5344(7) 0.3113(7) 0.4321(3) 0.036 Uani 1 1 d . . .
O37 O 0.4724(6) 0.5596(6) 0.2648(2) 0.028 Uani 1 1 d . . .
O38 O 0.5818(6) -0.1342(6) 0.4778(2) 0.028 Uani 1 1 d . . .
O39 O 0.8022(7) 0.1126(6) 0.8919(3) 0.035 Uani 1 1 d . . .
O40 O 0.1541(9) 0.5818(8) 1.0075(3) 0.055 Uani 1 1 d . . .
Pb1 Pb 0.57821(3) 0.74355(3) 0.290653(14) 0.030 Uani 1 1 d . . .
Pb2 Pb 0.55481(4) 0.46974(4) 0.303003(14) 0.032 Uani 1 1 d . . .
Pb3 Pb 0.47121(4) 0.50746(3) 0.185842(14) 0.031 Uani 1 1 d . . .
Pb4 Pb 0.28810(3) 0.51077(3) 0.281369(14) 0.030 Uani 1 1 d . . .
Pb5 Pb 0.76803(4) 1.06115(3) 0.326860(15) 0.032 Uani 1 1 d . . .
Pb6 Pb 0.68364(4) 0.31603(3) 0.370894(15) 0.032 Uani 1 1 d . . .
Pb7 Pb 0.46080(4) 0.41829(4) 0.049351(15) 0.034 Uani 1 1 d . . .
Pb8 Pb -0.02753(3) 0.43431(3) 0.310736(14) 0.030 Uani 1 1 d . . .
O2W O 0.903(2) 0.313(2) 0.4125(9) 0.082 Uani 0.50 1 d P . .
H2WB H 0.9041 0.3713 0.4065 0.124 Uiso 0.50 1 d PR . .
H2WA H 0.9676 0.3112 0.4084 0.124 Uiso 0.50 1 d PR . .
O3W O 0.0000 0.5000 0.5000 0.033 Uani 0.80 2 d SP . .
H3WA H 0.0284 0.5239 0.4761 0.050 Uiso 0.40 1 d PR . .
H3WB H 0.0169 0.4482 0.5040 0.050 Uiso 0.40 1 d PR . .
O1W O 0.5681(18) 0.196(2) 0.9631(8) 0.105 Uani 0.60 1 d P . .
H1WA H 0.5828 0.2594 0.9585 0.158 Uiso 0.60 1 d PR . .
H1WB H 0.5673 0.1960 0.9923 0.158 Uiso 0.60 1 d PR . .

loop_
_atom_site_aniso_label
_atom_site_aniso_U_11
_atom_site_aniso_U_22
_atom_site_aniso_U_33
_atom_site_aniso_U_2