
#######################################################################
#
#                 Cambridge Crystallographic Data Centre
#                                CCDC
#
#######################################################################
#
# If this CIF has been generated from an entry in the Cambridge
# Structural Database, then it will include bibliographic, chemical,
# crystal, experimental, refinement or atomic coordinate data resulting
# from the CCDC's data processing and validation procedures.
#
#######################################################################

data_CSD_CIF_TOLSCV
_audit_creation_date 1978-10-27
_audit_creation_method CSD-ConQuest-V1
_database_code_CSD TOLSCV
_database_code_depnum_ccdc_archive 'CCDC 1273735'
_chemical_formula_sum 'C14 H26 Cu1 O12 S2'
_chemical_formula_moiety
;
2(C7 H7 O3 S1 1-),H12 Cu1 O6 2+
;
_journal_coeditor_code "IUCr A16058"
_journal_coden_Cambridge 107
_journal_volume 34
_journal_year 1978
_journal_page_first 1491
_journal_name_full 'Acta Crystallogr.,Sect.B:Struct.Crystallogr.Cryst.Chem. '
loop_
_publ_author_name
"C.Couldwell"
"K.Prout"
"D.Robey"
"R.Taylor"
"F.J.C.Rossotti"
_chemical_name_systematic
;
Hexa-aqua-copper(ii) toluene-4-sulfonate
;
_chemical_name_common
;
Teaching Subset: Fundamental Chemistry, Symmetry
;
_cell_volume   1065.774
_exptl_crystal_density_diffrn 1.6
_diffrn_ambient_temperature ?
_diffrn_special_details
;
The study was carried out at room temperature,in the range 283-303K

;
#These two values have been output from a single CSD field.
_refine_ls_R_factor_gt 0.048
_refine_ls_wR_factor_gt 0.048
_symmetry_cell_setting monoclinic
_symmetry_space_group_name_H-M 'P 21/c'
_symmetry_Int_Tables_number 14
loop_
_symmetry_equiv_pos_site_id
_symmetry_equiv_pos_as_xyz
1 x,y,z
2 -x,1/2+y,1/2-z
3 -x,-y,-z
4 x,-1/2-y,-1/2+z
_cell_length_a 5.85(1)
_cell_length_b 25.71(2)
_cell_length_c 7.35(1)
_cell_angle_alpha 90
_cell_angle_beta 105.4(2)
_cell_angle_gamma 90
_cell_formula_units_Z 2
loop_
_atom_type_symbol
_atom_type_radius_bond
C 0.68
H 0.23
Cu 1.52
O 0.68
S 1.02
loop_
_atom_site_label
_atom_site_type_symbol
_atom_site_fract_x
_atom_site_fract_y
_atom_site_fract_z
Cu1 Cu 0.00000 0.00000 0.00000
O1 O 0.35670 0.05250 0.08370
O2 O -0.15880 0.03680 0.16440
O3 O -0.15650 0.04450 -0.21200
H1 H 0.35600 0.07400 -0.00100
H2 H 0.37200 0.07000 0.18000
H3 H -0.10300 0.04600 0.26100
H4 H -0.30900 0.03500 0.15100
H5 H -0.11200 0.05400 -0.29200
H6 H -0.27100 0.06300 -0.22500
S1 S 0.26790 0.39440 0.06150
O4 O 0.05780 0.42800 0.01610
O5 O 0.40220 0.39740 -0.07850
O6 O 0.41700 0.40360 0.25260
C1 C 0.16440 0.32980 0.05740
C2 C -0.07440 0.31800 -0.00900
C3 C -0.14400 0.26620 -0.02090
C4 C 0.01950 0.22610 0.03160
C5 C 0.25640 0.23890 0.10120
C6 C 0.32920 0.29040 0.11530
C7 C -0.05930 0.16990 0.01210
H7 H -0.19200 0.34500 -0.04600
H8 H -0.32300 0.25700 -0.05800
H9 H 0.38600 0.20900 0.13900
H10 H 0.49300 0.30000 0.16700
H11 H -0.25000 0.16400 0.04000
H12 H -0.06000 0.15600 -0.12100
H13 H 0.02000 0.15000 0.12800
O1B O -0.35670 -0.05250 -0.08370
O2B O 0.15880 -0.03680 -0.16440
O3B O 0.15650 -0.04450 0.21200
H1B H -0.35600 -0.07400 0.00100
H2B H -0.37200 -0.07000 -0.18000
H3B H 0.10300 -0.04600 -0.26100
H4B H 0.30900 -0.03500 -0.15100
H5B H 0.11200 -0.05400 0.29200
H6B H 0.27100 -0.06300 0.22500
#END
