
#######################################################################
#
#                 Cambridge Crystallographic Data Centre
#                                CCDC
#
#######################################################################
#
# If this CIF has been generated from an entry in the Cambridge
# Structural Database, then it will include bibliographic, chemical,
# crystal, experimental, refinement or atomic coordinate data resulting
# from the CCDC's data processing and validation procedures.
#
#######################################################################

data_CSD_CIF_TOLTIX
_audit_creation_date 1997-04-29
_audit_creation_method CSD-ConQuest-V1
_database_code_CSD TOLTIX
_database_code_depnum_ccdc_archive 'CCDC 1273747'
_database_code_depnum_ccdc_journal 186/176
_chemical_formula_sum 'C36 H44 B1 Br2 Ir1 Se4'
_chemical_formula_moiety
;
C12 H24 Br2 Ir1 Se4 1+,C24 H20 B1 1-
;
_journal_coden_Cambridge 186
_journal_year 1996
_journal_page_first 3713
_journal_name_full 'J.Chem.Soc.,Dalton Trans. '
loop_
_publ_author_name
"W.Levason"
"J.J.Quirk"
"G.Reid"
_chemical_name_systematic
;
trans-Dibromo-(1,5,9,13-tetraselenacyclohexadecane)-iridium tetraphenylborate
;
_chemical_name_common
;
Teaching Subset: Fundamental Chemistry, Symmetry
;
_cell_volume   3642.712
_exptl_crystal_colour 'yellow'
_exptl_crystal_density_diffrn 2.107
_diffrn_ambient_temperature 150
#These two values have been output from a single CSD field.
_refine_ls_R_factor_gt 0.052
_refine_ls_wR_factor_gt 0.052
_symmetry_cell_setting monoclinic
_symmetry_space_group_name_H-M 'P 21/c'
_symmetry_Int_Tables_number 14
loop_
_symmetry_equiv_pos_site_id
_symmetry_equiv_pos_as_xyz
1 x,y,z
2 -x,1/2+y,1/2-z
3 -x,-y,-z
4 x,-1/2-y,-1/2+z
_cell_length_a 13.396(5)
_cell_length_b 10.594(8)
_cell_length_c 26.256(4)
_cell_angle_alpha 90
_cell_angle_beta 102.15(2)
_cell_angle_gamma 90
_cell_formula_units_Z 4
loop_
_atom_type_symbol
_atom_type_radius_bond
C 0.68
H 0.23
B 0.83
Br 1.21
Ir 1.32
Se 1.22
loop_
_atom_site_label
_atom_site_type_symbol
_atom_site_fract_x
_atom_site_fract_y
_atom_site_fract_z
Ir1 Ir 0.2114(1) 0.2205(1) -0.00126(5)
Br1 Br 0.1793(3) 0.4501(3) -0.0036(1)
Br2 Br 0.2466(3) -0.0097(3) 0.0001(1)
Se1 Se 0.2450(2) 0.2436(3) -0.0897(1)
Se2 Se 0.0313(2) 0.1673(3) -0.0383(1)
Se3 Se 0.1749(2) 0.1933(3) 0.0861(1)
Se4 Se 0.3902(2) 0.2766(3) 0.0361(1)
C1 C 0.143(2) 0.126(2) -0.130(1)
C2 C 0.039(2) 0.184(3) -0.145(1)
C3 C 0.004(2) 0.259(2) -0.1057(9)
C4 C -0.050(2) 0.273(3) -0.004(1)
C5 C -0.039(2) 0.254(2) 0.0542(9)
C6 C 0.054(2) 0.295(3) 0.0885(10)
C7 C 0.274(2) 0.304(3) 0.129(1)
C8 C 0.379(2) 0.246(2) 0.1447(10)
C9 C 0.420(2) 0.183(3) 0.101(1)
C10 C 0.476(3) 0.177(3) 0.002(1)
C11 C 0.461(2) 0.194(3) -0.057(1)
C12 C 0.362(2) 0.137(3) -0.090(1)
H1 H 0.16520 0.10070 -0.16160
H2 H 0.13780 0.05210 -0.11050
H3 H 0.03850 0.23730 -0.17580
H4 H -0.00990 0.11800 -0.15670
H5 H -0.06790 0.27740 -0.11630
H6 H 0.03910 0.33950 -0.10150
H7 H -0.03180 0.36180 -0.01010
H8 H -0.12070 0.26510 -0.02180
H9 H -0.09600 0.29480 0.06520
H10 H -0.04500 0.16530 0.06000
H11 H 0.04380 0.29800 0.12390
H12 H 0.06650 0.38190 0.07920
H13 H 0.27920 0.38100 0.10890
H14 H 0.24860 0.32970 0.15880
H15 H 0.42730 0.31100 0.15990
H16 H 0.37700 0.18590 0.17230
H17 H 0.38840 0.09860 0.09500
H18 H 0.49200 0.16820 0.11160
H19 H 0.54830 0.19370 0.01730
H20 H 0.46680 0.08750 0.00790
H21 H 0.46160 0.28320 -0.06390
H22 H 0.51960 0.15860 -0.06900
H23 H 0.35170 0.05590 -0.07560
H24 H 0.37000 0.12440 -0.12500
C13 C 0.711(2) 0.225(3) 0.1900(9)
C14 C 0.731(2) 0.196(3) 0.142(1)
C15 C 0.699(2) 0.279(3) 0.0974(10)
C16 C 0.648(2) 0.391(3) 0.103(1)
C17 C 0.629(2) 0.410(3) 0.150(1)
C18 C 0.659(2) 0.331(3) 0.194(1)
C19 C 0.731(2) 0.185(3) 0.2959(10)
C20 C 0.768(2) 0.300(3) 0.314(1)
C21 C 0.755(2) 0.342(3) 0.364(1)
C22 C 0.709(3) 0.266(3) 0.391(1)
C23 C 0.671(2) 0.160(3) 0.376(1)
C24 C 0.679(2) 0.112(3) 0.326(1)
C25 C 0.880(2) 0.099(2) 0.2492(10)
C26 C 0.922(2) 0.025(2) 0.2923(9)
C27 C 1.027(2) -0.002(2) 0.3039(10)
C28 C 1.089(2) 0.041(3) 0.272(1)
C29 C 1.045(2) 0.112(3) 0.229(1)
C30 C 0.945(2) 0.139(3) 0.219(1)
C31 C 0.690(2) -0.008(2) 0.2266(10)
C32 C 0.730(2) -0.133(2) 0.2335(9)
C33 C 0.670(2) -0.237(3) 0.2244(10)
C34 C 0.567(2) -0.225(3) 0.211(1)
C35 C 0.521(2) -0.116(3) 0.203(1)
C36 C 0.580(2) -0.011(3) 0.212(1)
B1 B 0.754(2) 0.126(3) 0.239(1)
H25 H 0.76580 0.11650 0.13750
H26 H 0.71280 0.25650 0.06300
H27 H 0.62990 0.45330 0.07370
H28 H 0.58750 0.48710 0.15520
H29 H 0.64000 0.35230 0.22750
H30 H 0.80200 0.35550 0.29190
H31 H 0.77980 0.42340 0.37710
H32 H 0.70220 0.29300 0.42610
H33 H 0.63690 0.11030 0.39780
H34 H 0.64690 0.03030 0.31270
H35 H 0.87770 -0.00730 0.31520
H36 H 1.05830 -0.05320 0.33500
H37 H 1.16350 0.02610 0.28000
H38 H 1.08820 0.14630 0.20480
H39 H 0.91640 0.18580 0.18690
H40 H 0.80360 -0.14420 0.24610
H41 H 0.70220 -0.32140 0.22730
H42 H 0.52470 -0.30490 0.20820
H43 H 0.44830 -0.11510 0.19090
H44 H 0.54430 0.07150 0.20780
#END
