####################################################################### 
# 
# This file contains crystal structure data downloaded from the 
# Cambridge Structural Database (CSD) hosted by the Cambridge 
# Crystallographic Data Centre (CCDC).
# 
# Full information about CCDC data access policies and citation 
# guidelines are available at http://www.ccdc.cam.ac.uk/access/V1 
# 
# Audit and citation data items may have been added by the CCDC. 
# Please retain this information to preserve the provenance of 
# this file and to allow appropriate attribution of the data. 
# 
#######################################################################

data_3
_audit_block_doi                 10.5517/ccrjxkq
_database_code_depnum_ccdc_archive 'CCDC 701454'
loop_
_citation_id
_citation_doi
_citation_year
1 10.1039/b919675g 2010
2 10.1039/b814180k 2008
_audit_update_record             
;
2008-09-05 deposited with the CCDC.	2024-07-13 downloaded from the CCDC.
;
#==============================================================================
_audit_creation_date             08-08-19
_audit_creation_method           CRYSTALS_ver_12.86

loop_
_platon_squeeze_void_nr
_platon_squeeze_void_average_x
_platon_squeeze_void_average_y
_platon_squeeze_void_average_z
_platon_squeeze_void_volume
_platon_squeeze_void_count_electrons
_platon_squeeze_void_content
1 0.276 -0.119 0.776 1238 203 ' '
_platon_squeeze_details          
;
The discrete Fourier transform of the void region were treated as
contributions to the A and B parts of the calculated structure factors.
;

_oxford_structure_analysis_title 5801
_chemical_name_systematic        .
_chemical_melting_point          'not measured'

_cell_length_a                   17.8669(6)
_cell_length_b                   14.1157(6)
_cell_length_c                   19.8394(7)
_cell_angle_alpha                90
_cell_angle_beta                 91.256(3)
_cell_angle_gamma                90
_cell_volume                     5002.4(3)

_symmetry_cell_setting           Monoclinic
_symmetry_space_group_name_H-M   'P 1 21/n 1 '
_symmetry_space_group_name_Hall  '-P 2yn'
loop_
_symmetry_equiv_pos_as_xyz
x,y,z
-x,-y,-z
-x+1/2,y+1/2,-z+1/2
x+1/2,-y+1/2,z+1/2

loop_
_atom_type_symbol
_atom_type_scat_dispersion_real
_atom_type_scat_dispersion_imag
_atom_type_scat_Cromer_Mann_a1
_atom_type_scat_Cromer_Mann_b1
_atom_type_scat_Cromer_Mann_a2
_atom_type_scat_Cromer_Mann_b2
_atom_type_scat_Cromer_Mann_a3
_atom_type_scat_Cromer_Mann_b3
_atom_type_scat_Cromer_Mann_a4
_atom_type_scat_Cromer_Mann_b4
_atom_type_scat_Cromer_Mann_c
_atom_type_scat_source
C 0.0033 0.0016 2.3100 20.8439 1.0200 10.2075 1.5886 0.5687 0.8650 51.6512
0.2156 'International Tables Vol C 4.2.6.8 and 6.1.1.4'
H 0.0000 0.0000 0.4930 10.5109 0.3229 26.1257 0.1402 3.1424 0.0408 57.7998
0.0030 'International Tables Vol C 4.2.6.8 and 6.1.1.4'
Ni 0.3393 1.1124 12.8376 3.8785 7.2920 0.2565 4.4438 12.1763 2.3800 66.3421
1.0341 'International Tables Vol C 4.2.6.8 and 6.1.1.4'
O 0.0106 0.0060 3.0485 13.2771 2.2868 5.7011 1.5463 0.3239 0.8670 32.9089
0.2508 'International Tables Vol C 4.2.6.8 and 6.1.1.4'
N 0.0061 0.0033 12.2126 0.0057 3.1322 9.8933 2.0125 28.9975 1.1663 0.5826
-11.5290 'International Tables Vol C 4.2.6.8 and 6.1.1.4'
Cl 0.1484 0.1585 11.4604 0.0104 7.1964 1.1662 6.2556 18.5194 1.6455 47.7784
-9.5574 'International Tables Vol C 4.2.6.8 and 6.1.1.4'


_cell_formula_units_Z            4

# Given Formula = C36 H24 Cl2 N2 Ni2 O24
# Dc = 1.40 Fooo = 2088.00 Mu = 9.39 M = 1056.91
# Found Formula = C37 H35 N3 Ni3 O20
# Dc = 1.35 FOOO = 2088.00 Mu = 11.89 M = 1017.82

_chemical_formula_sum            'C37 H35 N3 Ni3 O20'
_chemical_formula_moiety         'C30 H16 N Ni3 O19, C4 H12 N, C3 H7 N O'
_chemical_compound_source        .
_chemical_formula_weight         1017.82


_cell_measurement_reflns_used    9351
_cell_measurement_theta_min      5
_cell_measurement_theta_max      26
_cell_measurement_temperature    150

_exptl_crystal_description       plate
_exptl_crystal_colour            clear_green
_exptl_crystal_size_min          0.03
_exptl_crystal_size_mid          0.05
_exptl_crystal_size_max          0.18

_exptl_crystal_density_diffrn    1.351
_exptl_crystal_density_meas      'not measured'
_exptl_crystal_density_method    'not measured'
# Non-dispersive F(000):
_exptl_crystal_F_000             2088
_exptl_absorpt_coefficient_mu    1.189

# Sheldrick geometric approximatio 0.94 0.96
_exptl_absorpt_correction_type   multi-scan
_exptl_absorpt_process_details   'DENZO/SCALEPACK (Otwinowski & Minor, 1997)'
_exptl_absorpt_correction_T_min  0.93
_exptl_absorpt_correction_T_max  0.96
# For a Kappa CCD, set Tmin to 1.0 and
# Tmax to the ratio of max:min frame scales in scale_all.log
_diffrn_measurement_device       'Nonius KappaCCD'
_diffrn_measurement_device_type  Area
_diffrn_radiation_monochromator  graphite
_diffrn_radiation_type           'Mo K\a'
_diffrn_radiation_wavelength     0.71073
_diffrn_measurement_method       \w

# If a reference occurs more than once, delete the author
# and date from subsequent references.
_computing_data_collection       'COLLECT (Nonius, 1997-2001).'
_computing_cell_refinement       'DENZO/SCALEPACK (Otwinowski & Minor, 1997)'
_computing_data_reduction        'DENZO/SCALEPACK (Otwinowski & Minor, 1997)'
_computing_structure_solution    'SIR92 (Altomare et al., 1994)'
_computing_structure_refinement  'CRYSTALS (Betteridge et al., 2003)'
_computing_publication_material  'CRYSTALS (Betteridge et al., 2003)'
_computing_molecular_graphics    'CAMERON (Watkin et al., 1996)'

_diffrn_standards_interval_time  .
_diffrn_standards_interval_count .
_diffrn_standards_number         0
_diffrn_standards_decay_%        .

_diffrn_ambient_temperature      150
_diffrn_reflns_number            16260
_reflns_number_total             9586
_diffrn_reflns_av_R_equivalents  0.150
# Number of reflections with Friedels Law is 9586
# Number of reflections without Friedels Law is 9586
# Theoretical number of reflections is about 9809


_diffrn_reflns_theta_min         5.133
_diffrn_reflns_theta_max         25.977
_diffrn_measured_fraction_theta_max 0.977

_diffrn_reflns_theta_full        25.198
_diffrn_measured_fraction_theta_full 0.987


_diffrn_reflns_limit_h_min       -21
_diffrn_reflns_limit_h_max       22
_diffrn_reflns_limit_k_min       0
_diffrn_reflns_limit_k_max       17
_diffrn_reflns_limit_l_min       0
_diffrn_reflns_limit_l_max       24
_reflns_limit_h_min              -21
_reflns_limit_h_max              22
_reflns_limit_k_min              0
_reflns_limit_k_max              17
_reflns_limit_l_min              0
_reflns_limit_l_max              24

_oxford_diffrn_Wilson_B_factor   1.45
_oxford_diffrn_Wilson_scale      167.96

_atom_sites_solution_primary     direct #heavy,direct,difmap,geom
# _atom_sites_solution_secondary difmap
_atom_sites_solution_hydrogens   geom

_refine_diff_density_min         -1.16
_refine_diff_density_max         1.11


# The current dictionary definitions do not cover the
# situation where the reflections used for refinement were
# selected by a user-defined sigma threshold


# The values actually used during refinement
_oxford_reflns_threshold_expression_ref I>-3.0\s(I)
_refine_ls_number_reflns         7206
_refine_ls_number_restraints     0
_refine_ls_number_parameters     568
_oxford_refine_ls_R_factor_ref   0.1077
_refine_ls_wR_factor_ref         0.1733
_refine_ls_goodness_of_fit_ref   0.9774
_refine_ls_shift/su_max          0.000376


# The values computed from all data
_oxford_reflns_number_all        7206
_refine_ls_R_factor_all          0.1077
_refine_ls_wR_factor_all         0.1733

# The values computed with a 2 sigma cutoff - a la SHELX
_reflns_threshold_expression     I>2.0\s(I)
_reflns_number_gt                4709
_refine_ls_R_factor_gt           0.0651
_refine_ls_wR_factor_gt          0.1521

# choose from: rm (reference molecule of known chirality),
# ad (anomolous dispersion - Flack), rmad (rm and ad),
# syn (from synthesis), unk (unknown) or . (not applicable).
_chemical_absolute_configuration .


_refine_ls_structure_factor_coef Fsqd
_refine_ls_matrix_type           full
_refine_ls_hydrogen_treatment    constr # none, undef, noref, refall,
# refxyz, refU, constr or mixed
_refine_ls_weighting_scheme      calc
_refine_ls_weighting_details     
;
Method= Modified Sheldrick
w=1/[\s^2^(F^2^) + ( 0.08P)^2^ +20.61P]
,where P=(max(Fo^2^,0) + 2Fc^2^)/3
;

# Uequiv = arithmetic mean of Ui i.e. Ueqiv = (U1+U2+U3)/3

# Replace last . with number of unfound hydrogen atomsattached to an atom.

# ..._refinement_flags_...
# . no refinement constraints S special position constraint on site
# G rigid group refinement of site R riding atom
# D distance or angle restraint on site T thermal displacement constraints
# U Uiso or Uij restraint (rigid bond) P partial occupancy constraint


loop_
_atom_site_label
_atom_site_type_symbol
_atom_site_fract_x
_atom_site_fract_y
_atom_site_fract_z
_atom_site_U_iso_or_equiv
_atom_site_occupancy
_atom_site_adp_type
_atom_site_refinement_flags_posn
_atom_site_refinement_flags_adp
_atom_site_refinement_flags_occupancy
_atom_site_disorder_assembly
_atom_site_disorder_group
_oxford_atom_site_special_shape
_atom_site_attached_hydrogens
Ni1 Ni 0.24806(5) 0.05190(6) 0.42907(4) 0.0206 1.0000 Uani . . . . . . .
O2 O 0.2384(3) 0.5102(3) 0.1681(2) 0.0266 1.0000 Uani . . . . . . .
C3 C 0.2419(4) 0.4333(5) 0.1974(4) 0.0241 1.0000 Uani . . . . . . .
O4 O 0.2570(3) 0.3516(3) 0.1731(2) 0.0266 1.0000 Uani . . . . . . .
Ni5 Ni 0.20257(5) -0.18403(6) 0.41592(4) 0.0203 1.0000 Uani . . . . . . .
O6 O 0.2633(3) -0.0854(3) 0.4666(2) 0.0225 1.0000 Uani . . . . . . .
C7 C 0.3184(4) -0.1425(5) 0.4806(3) 0.0220 1.0000 Uani . . . . . . .
O8 O 0.3154(3) -0.2255(3) 0.4569(2) 0.0284 1.0000 Uani . . . . . . .
C9 C 0.3820(4) -0.1084(5) 0.5233(3) 0.0216 1.0000 Uani . . . . . . .
C10 C 0.3676(4) -0.0333(5) 0.5685(4) 0.0317 1.0000 Uani . . . . . . .
C11 C 0.4248(4) 0.0078(6) 0.6067(4) 0.0302 1.0000 Uani . . . . . . .
C12 C 0.4977(4) -0.0259(6) 0.5984(4) 0.0313 1.0000 Uani . . . . . . .
C13 C 0.5119(4) -0.0990(5) 0.5534(4) 0.0276 1.0000 Uani . . . . . . .
C14 C 0.4539(4) -0.1410(5) 0.5159(4) 0.0260 1.0000 Uani . . . . . . .
C15 C 0.5935(4) -0.1228(5) 0.5380(4) 0.0279 1.0000 Uani . . . . . . .
O16 O 0.6419(3) -0.0734(3) 0.5676(2) 0.0262 1.0000 Uani . . . . . . .
O17 O 0.6040(3) -0.1882(4) 0.4955(2) 0.0314 1.0000 Uani . . . . . . .
Ni18 Ni 0.30263(5) 0.20592(7) 0.55638(5) 0.0268 1.0000 Uani . . . . . . .
O19 O 0.2369(3) 0.0938(3) 0.5305(2) 0.0241 1.0000 Uani . . . . . . .
C20 C 0.1841(4) 0.1142(5) 0.5705(4) 0.0265 1.0000 Uani . . . . . . .
O21 O 0.1883(3) 0.1873(3) 0.6057(3) 0.0328 1.0000 Uani . . . . . . .
C22 C 0.1216(4) 0.0440(5) 0.5760(3) 0.0228 1.0000 Uani . . . . . . .
C23 C 0.0483(4) 0.0735(5) 0.5897(3) 0.0260 1.0000 Uani . . . . . . .
C24 C -0.0095(4) 0.0061(5) 0.5869(3) 0.0213 1.0000 Uani . . . . . . .
C25 C 0.0072(4) -0.0893(5) 0.5739(3) 0.0204 1.0000 Uani . . . . . . .
C26 C 0.0799(4) -0.1176(5) 0.5635(3) 0.0216 1.0000 Uani . . . . . . .
C27 C 0.1376(4) -0.0508(5) 0.5640(4) 0.0261 1.0000 Uani . . . . . . .
C28 C 0.0951(4) -0.2198(5) 0.5456(4) 0.0298 1.0000 Uani . . . . . . .
O29 O 0.1596(3) -0.2348(3) 0.5159(2) 0.0273 1.0000 Uani . . . . . . .
O30 O 0.0506(3) -0.2814(4) 0.5578(3) 0.0540 1.0000 Uani . . . . . . .
C31 C -0.0911(4) 0.0352(5) 0.5893(3) 0.0209 1.0000 Uani . . . . . . .
O32 O -0.1032(3) 0.1229(3) 0.5993(2) 0.0257 1.0000 Uani . . . . . . .
O33 O -0.1374(3) -0.0291(3) 0.5815(2) 0.0257 1.0000 Uani . . . . . . .
O34 O 0.2488(3) 0.2799(3) 0.4839(2) 0.0307 1.0000 Uani . . . . . . .
C35 C 0.2349(4) 0.2636(5) 0.4215(4) 0.0252 1.0000 Uani . . . . . . .
O36 O 0.2306(3) 0.1855(3) 0.3920(2) 0.0273 1.0000 Uani . . . . . . .
C37 C 0.2232(4) 0.3526(5) 0.3784(3) 0.0228 1.0000 Uani . . . . . . .
C38 C 0.2072(4) 0.4377(5) 0.4113(4) 0.0265 1.0000 Uani . . . . . . .
C39 C 0.2000(4) 0.5196(5) 0.3733(4) 0.0264 1.0000 Uani . . . . . . .
C40 C 0.2093(4) 0.5183(5) 0.3048(4) 0.0256 1.0000 Uani . . . . . . .
C41 C 0.2262(4) 0.4336(5) 0.2727(3) 0.0229 1.0000 Uani . . . . . . .
C42 C 0.2328(4) 0.3510(5) 0.3109(4) 0.0246 1.0000 Uani . . . . . . .
C43 C 0.1844(4) 0.6111(5) 0.4103(4) 0.0260 1.0000 Uani . . . . . . .
O44 O 0.1788(3) 0.6864(3) 0.3773(2) 0.0216 1.0000 Uani . . . . . . .
O45 O 0.1797(3) 0.6049(3) 0.4748(2) 0.0340 1.0000 Uani . . . . . . .
O46 O 0.3489(3) 0.1396(4) 0.6397(2) 0.0381 1.0000 Uani . . . . . . .
C47 C 0.4085(5) 0.0909(6) 0.6521(4) 0.0412 1.0000 Uani . . . . . . .
O48 O 0.4538(4) 0.1088(6) 0.6983(4) 0.0792 1.0000 Uani . . . . . . .
O49 O 0.3381(3) 0.3355(4) 0.5926(3) 0.0391 1.0000 Uani . . . . . . .
C50 C 0.3629(5) 0.3914(6) 0.5503(5) 0.0455 1.0000 Uani . . . . . . .
N51 N 0.3666(5) 0.4838(5) 0.5561(4) 0.0555 1.0000 Uani . . . . . . .
C52 C 0.3960(6) 0.5446(8) 0.5047(5) 0.0688 1.0000 Uani . . . . . . .
C53 C 0.3364(8) 0.5299(9) 0.6151(7) 0.0958 1.0000 Uani . . . . . . .
N54 N 0.0626(4) 0.1714(6) 0.2247(4) 0.0513 1.0000 Uani . . . . . . .
C55 C 0.1026(9) 0.2208(10) 0.1737(6) 0.0992 1.0000 Uani . . . . . . .
C56 C -0.0106(7) 0.1331(10) 0.2001(9) 0.1121 1.0000 Uani . . . . . . .
C57 C 0.1092(8) 0.0932(10) 0.2527(6) 0.0981 1.0000 Uani . . . . . . .
C58 C 0.0481(8) 0.2407(12) 0.2824(7) 0.1157 1.0000 Uani . . . . . . .
C59 C 0.0964(5) 0.7046(7) 0.2135(5) 0.0494 1.0000 Uani . . . . . . .
N60 N 0.0588(5) 0.7914(6) 0.1983(4) 0.0545 1.0000 Uani . . . . . . .
C61 C 0.0696(7) 0.8372(9) 0.1412(6) 0.0688 1.0000 Uani . . . . . . .
O62 O 0.0404(5) 0.9149(6) 0.1252(4) 0.0936 1.0000 Uani . . . . . . .
C63 C 0.0072(8) 0.8278(10) 0.2484(6) 0.0952 1.0000 Uani . . . . . . .
H101 H 0.3181 -0.0101 0.5725 0.0363 1.0000 Uiso R . . . . . .
H121 H 0.5384 0.0017 0.6236 0.0382 1.0000 Uiso R . . . . . .
H141 H 0.4634 -0.1920 0.4851 0.0339 1.0000 Uiso R . . . . . .
H231 H 0.0379 0.1371 0.6006 0.0302 1.0000 Uiso R . . . . . .
H251 H -0.0319 -0.1351 0.5728 0.0280 1.0000 Uiso R . . . . . .
H271 H 0.1873 -0.0710 0.5563 0.0311 1.0000 Uiso R . . . . . .
H381 H 0.2030 0.4397 0.4588 0.0289 1.0000 Uiso R . . . . . .
H401 H 0.2040 0.5745 0.2793 0.0312 1.0000 Uiso R . . . . . .
H421 H 0.2452 0.2938 0.2892 0.0311 1.0000 Uiso R . . . . . .
H522 H 0.3639 0.6008 0.4988 0.1042 1.0000 Uiso R . . . . . .
H523 H 0.4471 0.5665 0.5180 0.1042 1.0000 Uiso R . . . . . .
H521 H 0.3989 0.5105 0.4613 0.1041 1.0000 Uiso R . . . . . .
H533 H 0.3603 0.5907 0.6237 0.1400 1.0000 Uiso R . . . . . .
H531 H 0.3440 0.4903 0.6549 0.1401 1.0000 Uiso R . . . . . .
H532 H 0.2828 0.5415 0.6096 0.1401 1.0000 Uiso R . . . . . .
H551 H 0.1535 0.2332 0.1894 0.1450 1.0000 Uiso R . . . . . .
H552 H 0.0776 0.2797 0.1636 0.1452 1.0000 Uiso R . . . . . .
H553 H 0.1038 0.1813 0.1338 0.1452 1.0000 Uiso R . . . . . .
H562 H -0.0406 0.1102 0.2369 0.1591 1.0000 Uiso R . . . . . .
H563 H -0.0368 0.1813 0.1756 0.1591 1.0000 Uiso R . . . . . .
H561 H -0.0015 0.0793 0.1696 0.1591 1.0000 Uiso R . . . . . .
H573 H 0.0789 0.0543 0.2815 0.1551 1.0000 Uiso R . . . . . .
H571 H 0.1507 0.1196 0.2803 0.1551 1.0000 Uiso R . . . . . .
H572 H 0.1288 0.0574 0.2167 0.1550 1.0000 Uiso R . . . . . .
H581 H 0.0214 0.2108 0.3179 0.1480 1.0000 Uiso R . . . . . .
H583 H 0.0949 0.2659 0.2995 0.1481 1.0000 Uiso R . . . . . .
H582 H 0.0179 0.2937 0.2647 0.1480 1.0000 Uiso R . . . . . .
H592 H 0.1203 0.7078 0.2613 0.0742 1.0000 Uiso R . . . . . .
H591 H 0.1374 0.6936 0.1784 0.0743 1.0000 Uiso R . . . . . .
H593 H 0.0584 0.6491 0.2112 0.0743 1.0000 Uiso R . . . . . .
H611 H 0.1030 0.8100 0.1082 0.0863 1.0000 Uiso R . . . . . .
H632 H -0.0124 0.8904 0.2355 0.1460 1.0000 Uiso R . . . . . .
H631 H 0.0316 0.8337 0.2917 0.1460 1.0000 Uiso R . . . . . .
H633 H -0.0361 0.7857 0.2529 0.1461 1.0000 Uiso R . . . . . .
H501 H 0.3800 0.3653 0.5093 0.0575 1.0000 Uiso R . . . . . .
loop_
_atom_site_aniso_label
_atom_site_aniso_U_11
_atom_site_aniso_U_22
_atom_site_aniso_U_33
_atom_site_aniso_U_23
_atom_site_aniso_U_13
_atom_site_aniso_U_12
Ni1 0.0226(5) 0.0114(5) 0.0277(5) -0.0011(4) 0.0006(4) 0.0004(4)
O2 0.031(3) 0.016(3) 0.033(3) 0.000(2) 0.001(2) -0.003(2)
C3 0.015(4) 0.026(5) 0.031(4) 0.004(3) 0.004(3) 0.000(3)
O4 0.036(3) 0.012(3) 0.032(3) 0.002(2) 0.009(2) 0.001(2)
Ni5 0.0221(5) 0.0107(5) 0.0282(5) 0.0002(4) 0.0006(4) 0.0006(4)
O6 0.025(3) 0.015(3) 0.028(3) 0.002(2) 0.002(2) 0.000(2)
C7 0.027(4) 0.012(4) 0.027(4) 0.003(3) 0.005(3) 0.004(3)
O8 0.027(3) 0.021(3) 0.038(3) 0.001(2) 0.003(2) 0.004(2)
C9 0.028(4) 0.014(4) 0.023(4) -0.005(3) -0.001(3) -0.004(3)
C10 0.028(5) 0.027(5) 0.041(5) -0.003(4) -0.002(4) 0.005(4)
C11 0.028(5) 0.028(4) 0.035(4) 0.001(4) -0.007(4) 0.006(4)
C12 0.026(5) 0.039(5) 0.028(4) -0.003(4) -0.003(3) 0.000(4)
C13 0.030(5) 0.022(4) 0.032(4) 0.003(3) 0.004(4) 0.007(4)
C14 0.025(4) 0.020(4) 0.032(4) -0.001(3) -0.002(3) 0.000(3)
C15 0.028(5) 0.021(4) 0.034(4) 0.012(4) 0.006(4) -0.004(4)
O16 0.023(3) 0.021(3) 0.035(3) -0.001(2) 0.003(2) -0.004(2)
O17 0.030(3) 0.028(3) 0.037(3) -0.009(3) 0.003(2) 0.004(2)
Ni18 0.0298(6) 0.0194(5) 0.0313(5) -0.0024(4) 0.0003(4) 0.0000(4)
O19 0.023(3) 0.021(3) 0.028(3) -0.003(2) 0.002(2) 0.004(2)
C20 0.022(4) 0.015(4) 0.042(5) -0.001(3) 0.001(4) -0.004(3)
O21 0.035(3) 0.018(3) 0.046(3) -0.008(3) 0.004(3) 0.000(2)
C22 0.024(4) 0.017(4) 0.028(4) 0.002(3) 0.001(3) 0.002(3)
C23 0.034(5) 0.016(4) 0.028(4) -0.006(3) -0.002(3) 0.002(3)
C24 0.018(4) 0.019(4) 0.027(4) 0.003(3) -0.001(3) 0.006(3)
C25 0.026(4) 0.014(4) 0.021(4) 0.000(3) 0.001(3) 0.001(3)
C26 0.030(4) 0.013(4) 0.022(4) 0.002(3) 0.007(3) 0.003(3)
C27 0.018(4) 0.027(4) 0.033(4) -0.002(3) -0.001(3) 0.005(4)
C28 0.033(5) 0.018(4) 0.039(5) -0.003(3) 0.001(4) 0.006(4)
O29 0.032(3) 0.018(3) 0.032(3) -0.001(2) 0.007(2) 0.005(2)
O30 0.051(4) 0.016(3) 0.097(5) -0.007(3) 0.034(4) -0.006(3)
C31 0.016(4) 0.024(5) 0.023(4) 0.003(3) -0.001(3) 0.003(4)
O32 0.027(3) 0.020(3) 0.031(3) 0.000(2) 0.001(2) 0.00