####################################################################### 
# 
# This file contains crystal structure data downloaded from the 
# Cambridge Structural Database (CSD) hosted by the Cambridge 
# Crystallographic Data Centre (CCDC).
# 
# Full information about CCDC data access policies and citation 
# guidelines are available at http://www.ccdc.cam.ac.uk/access/V1 
# 
# Audit and citation data items may have been added by the CCDC. 
# Please retain this information to preserve the provenance of 
# this file and to allow appropriate attribution of the data. 
# 
#######################################################################

data_Compound-1
_audit_block_doi                 10.5517/cc127y5f
_database_code_depnum_ccdc_archive 'CCDC 990734'
loop_
_citation_id
_citation_doi
_citation_year
1 10.1039/C4CE01032A 2014
_audit_update_record             
;
2014-03-08 deposited with the CCDC.	2024-07-13 downloaded from the CCDC.
;

_audit_creation_method           SHELXL-97
_chemical_name_systematic        
; 
 ? 
;
_chemical_name_common            ?
_chemical_melting_point          ?
_chemical_formula_moiety         'C32 H15 Cd3 O19, 2(C4 H9 N O), C2 H8 N'
_chemical_formula_sum            'C42 H41 Cd3 N3 O21'
_chemical_formula_weight         1260.98

loop_
_atom_type_symbol
_atom_type_description
_atom_type_scat_dispersion_real
_atom_type_scat_dispersion_imag
_atom_type_scat_source
C C 0.0033 0.0016 'International Tables Vol C Tables 4.2.6.8 and 6.1.1.4'
H H 0.0000 0.0000 'International Tables Vol C Tables 4.2.6.8 and 6.1.1.4'
N N 0.0061 0.0033 'International Tables Vol C Tables 4.2.6.8 and 6.1.1.4'
O O 0.0106 0.0060 'International Tables Vol C Tables 4.2.6.8 and 6.1.1.4'
Cd Cd -0.8075 1.2024 'International Tables Vol C Tables 4.2.6.8 and 6.1.1.4'

_symmetry_cell_setting           Orthorhombic
_symmetry_space_group_name_H-M   Pbca

loop_
_symmetry_equiv_pos_as_xyz
'x, y, z'
'-x+1/2, -y, z+1/2'
'-x, y+1/2, -z+1/2'
'x+1/2, -y+1/2, -z'
'-x, -y, -z'
'x-1/2, y, -z-1/2'
'x, -y-1/2, z-1/2'
'-x-1/2, y-1/2, z'

_cell_length_a                   21.9035(6)
_cell_length_b                   14.5496(4)
_cell_length_c                   27.9653(6)
_cell_angle_alpha                90.00
_cell_angle_beta                 90.00
_cell_angle_gamma                90.00
_cell_volume                     8912.2(4)
_cell_formula_units_Z            8
_cell_measurement_temperature    293(2)
_cell_measurement_reflns_used    5975
_cell_measurement_theta_min      3.0360
_cell_measurement_theta_max      29.1400

_exptl_crystal_description       rod
_exptl_crystal_colour            colorless
_exptl_crystal_size_max          0.23
_exptl_crystal_size_mid          0.13
_exptl_crystal_size_min          0.06
_exptl_crystal_density_meas      ?
_exptl_crystal_density_diffrn    1.880
_exptl_crystal_density_method    'not measured'
_exptl_crystal_F_000             5008
_exptl_absorpt_coefficient_mu    1.507
_exptl_absorpt_correction_type   multi-scan
_exptl_absorpt_correction_T_min  0.72667
_exptl_absorpt_correction_T_max  1.00000
_exptl_absorpt_process_details   
;
CrysAlisPro, Agilent Technologies,
Version 1.171.36.28 (release 01-02-2013 CrysAlis171 .NET)
(compiled Feb  1 2013,16:14:44)
Empirical absorption correction using spherical harmonics,
 implemented in SCALE3 ABSPACK scaling algorithm.
;

_exptl_special_details           
; 
 ? 
;

_diffrn_ambient_temperature      293(2)
_diffrn_radiation_wavelength     0.71073
_diffrn_radiation_type           MoK\a
_diffrn_radiation_source         'fine-focus sealed tube'
_diffrn_radiation_monochromator  graphite
_diffrn_measurement_device_type  'multiwire proportional'
_diffrn_measurement_method       'phi and omega scans'
_diffrn_detector_area_resol_mean ?
_diffrn_standards_number         none
_diffrn_standards_interval_count none
_diffrn_standards_interval_time  0
_diffrn_standards_decay_%        none
_diffrn_reflns_number            22819
_diffrn_reflns_av_R_equivalents  0.0585
_diffrn_reflns_av_sigmaI/netI    0.0669
_diffrn_reflns_limit_h_min       -26
_diffrn_reflns_limit_h_max       17
_diffrn_reflns_limit_k_min       -17
_diffrn_reflns_limit_k_max       14
_diffrn_reflns_limit_l_min       -33
_diffrn_reflns_limit_l_max       31
_diffrn_reflns_theta_min         2.36
_diffrn_reflns_theta_max         25.00
_reflns_number_total             7837
_reflns_number_gt                5904
_reflns_threshold_expression     >2sigma(I)

_computing_data_collection       'Bruker FRAMBO'
_computing_cell_refinement       'Bruker FRAMBO'
_computing_data_reduction        'Bruker SAINT'
_computing_structure_solution    'SHELXS-97 (Sheldrick, 1990)'
_computing_structure_refinement  'SHELXL-97 (Sheldrick, 1997)'
_computing_molecular_graphics    'Bruker SHELXTL'
_computing_publication_material  'Bruker SHELXTL'

_refine_special_details          
; 
 Refinement of F^2^ against ALL reflections.  The weighted R-factor wR and 
 goodness of fit S are based on F^2^, conventional R-factors R are based 
 on F, with F set to zero for negative F^2^. The threshold expression of 
 F^2^ > 2sigma(F^2^) is used only for calculating R-factors(gt) etc. and is 
 not relevant to the choice of reflections for refinement.  R-factors based 
 on F^2^ are statistically about twice as large as those based on F, and R- 
 factors based on ALL data will be even larger. 
;

_refine_ls_structure_factor_coef Fsqd
_refine_ls_matrix_type           full
_refine_ls_weighting_scheme      calc
_refine_ls_weighting_details     
'calc w=1/[\s^2^(Fo^2^)+(0.1000P)^2^+0.0000P] where P=(Fo^2^+2Fc^2^)/3'
_atom_sites_solution_primary     direct
_atom_sites_solution_secondary   difmap
_atom_sites_solution_hydrogens   geom
_refine_ls_hydrogen_treatment    mixed
_refine_ls_extinction_method     none
_refine_ls_extinction_coef       ?
_refine_ls_number_reflns         7837
_refine_ls_number_parameters     631
_refine_ls_number_restraints     2
_refine_ls_R_factor_all          0.0709
_refine_ls_R_factor_gt           0.0492
_refine_ls_wR_factor_ref         0.1608
_refine_ls_wR_factor_gt          0.1372
_refine_ls_goodness_of_fit_ref   0.999
_refine_ls_restrained_S_all      0.999
_refine_ls_shift/su_max          0.002
_refine_ls_shift/su_mean         0.000

loop_
_atom_site_label
_atom_site_type_symbol
_atom_site_fract_x
_atom_site_fract_y
_atom_site_fract_z
_atom_site_U_iso_or_equiv
_atom_site_adp_type
_atom_site_occupancy
_atom_site_symmetry_multiplicity
_atom_site_calc_flag
_atom_site_refinement_flags
_atom_site_disorder_assembly
_atom_site_disorder_group
Cd1 Cd 1.05904(2) 0.33788(3) -0.025598(15) 0.02561(16) Uani 1 1 d . . .
Cd2 Cd 0.93467(2) 0.22070(4) -0.219657(14) 0.02530(16) Uani 1 1 d . . .
Cd3 Cd 1.00214(2) 0.18173(3) -0.111209(15) 0.02530(16) Uani 1 1 d . . .
C1 C 1.1599(3) 0.2860(4) -0.1533(2) 0.0227(13) Uani 1 1 d . . .
C2 C 1.1282(3) 0.2661(4) -0.1955(2) 0.0230(13) Uani 1 1 d . . .
C3 C 1.1608(3) 0.2571(4) -0.2374(2) 0.0251(14) Uani 1 1 d . . .
C4 C 1.2235(3) 0.2683(5) -0.2393(2) 0.0342(17) Uani 1 1 d . . .
H4A H 1.2445 0.2620 -0.2680 0.041 Uiso 1 1 calc R . .
C5 C 1.2542(3) 0.2895(6) -0.1969(2) 0.0414(19) Uani 1 1 d . . .
H5A H 1.2962 0.2993 -0.1974 0.050 Uiso 1 1 calc R . .
C6 C 1.2228(3) 0.2961(5) -0.1542(2) 0.0378(18) Uani 1 1 d . . .
H6A H 1.2439 0.3073 -0.1260 0.045 Uiso 1 1 calc R . .
C7 C 1.1279(3) 0.2981(4) -0.1065(2) 0.0269(15) Uani 1 1 d . . .
C8 C 1.0605(3) 0.2557(5) -0.1996(2) 0.0270(15) Uani 1 1 d . . .
C9 C 1.1142(3) 0.2859(4) -0.31388(18) 0.0214(14) Uani 1 1 d . . .
C10 C 1.1034(3) 0.2460(5) -0.35791(19) 0.0259(14) Uani 1 1 d . . .
H10A H 1.1078 0.1830 -0.3622 0.031 Uiso 1 1 calc R . .
C11 C 1.0856(3) 0.3021(5) -0.3956(2) 0.0232(14) Uani 1 1 d . . .
C12 C 1.0778(3) 0.3936(5) -0.3884(2) 0.0253(14) Uani 1 1 d . . .
H12A H 1.0656 0.4307 -0.4138 0.030 Uiso 1 1 calc R . .
C13 C 1.0876(3) 0.4327(4) -0.34376(19) 0.0220(13) Uani 1 1 d . . .
C14 C 1.1064(3) 0.3776(4) -0.30615(19) 0.0247(14) Uani 1 1 d . . .
H14A H 1.1136 0.4028 -0.2761 0.030 Uiso 1 1 calc R . .
C15 C 1.0759(3) 0.2586(5) -0.4436(2) 0.0249(14) Uani 1 1 d . . .
C16 C 1.0785(3) 0.5348(4) -0.3371(2) 0.0239(14) Uani 1 1 d . . .
C17 C 0.8670(3) 0.2941(4) -0.0499(2) 0.0211(13) Uani 1 1 d . . .
C18 C 0.8375(3) 0.2820(4) -0.0942(2) 0.0239(14) Uani 1 1 d . . .
C19 C 0.7748(3) 0.2730(6) -0.0952(2) 0.0399(19) Uani 1 1 d . . .
H19A H 0.7548 0.2685 -0.1244 0.048 Uiso 1 1 calc R . .
C20 C 0.7412(3) 0.2708(6) -0.0535(3) 0.0420(19) Uani 1 1 d . . .
H20A H 0.6990 0.2641 -0.0547 0.050 Uiso 1 1 calc R . .
C21 C 0.7702(3) 0.2784(5) -0.0098(2) 0.0329(16) Uani 1 1 d . . .
H21A H 0.7478 0.2752 0.0185 0.039 Uiso 1 1 calc R . .
C22 C 0.8309(3) 0.2904(4) -0.0084(2) 0.0267(14) Uani 1 1 d . . .
C23 C 0.9351(3) 0.3090(5) -0.0422(2) 0.0213(14) Uani 1 1 d . . .
C24 C 0.8728(3) 0.2769(4) -0.1400(2) 0.0278(15) Uani 1 1 d . . .
C25 C 0.8800(3) 0.2350(4) 0.0619(2) 0.0233(14) Uani 1 1 d . . .
C26 C 0.8926(3) 0.2547(5) 0.1091(2) 0.0280(15) Uani 1 1 d . . .
H26A H 0.8888 0.3146 0.1205 0.034 Uiso 1 1 calc R . .
C27 C 0.9110(3) 0.1848(5) 0.1397(2) 0.0279(15) Uani 1 1 d . . .
C28 C 0.9176(3) 0.0963(5) 0.1225(2) 0.0288(15) Uani 1 1 d . . .
H28A H 0.9288 0.0491 0.1431 0.035 Uiso 1 1 calc R . .
C29 C 0.9076(3) 0.0780(5) 0.0744(2) 0.0284(15) Uani 1 1 d . . .
C30 C 0.8873(3) 0.1473(4) 0.04376(19) 0.0247(14) Uani 1 1 d . . .
H30A H 0.8789 0.1348 0.0118 0.030 Uiso 1 1 calc R . .
C31 C 0.9193(3) 0.2080(5) 0.1919(2) 0.0282(15) Uani 1 1 d . . .
C32 C 0.9162(3) -0.0175(5) 0.0565(2) 0.0329(16) Uani 1 1 d . . .
C33 C 0.7970(4) 0.5173(7) -0.1336(3) 0.061(2) Uani 1 1 d . . .
C34 C 0.7550(7) 0.5138(12) -0.1762(4) 0.135(6) Uani 1 1 d . . .
H34A H 0.7787 0.5045 -0.2048 0.202 Uiso 1 1 calc R . .
H34B H 0.7330 0.5706 -0.1786 0.202 Uiso 1 1 calc R . .
H34C H 0.7267 0.4639 -0.1725 0.202 Uiso 1 1 calc R . .
C35 C 0.7089(4) 0.5304(8) -0.0811(4) 0.087(3) Uani 1 1 d . . .
H35A H 0.6861 0.5278 -0.1104 0.130 Uiso 1 1 calc R . .
H35B H 0.6989 0.5859 -0.0643 0.130 Uiso 1 1 calc R . .
H35C H 0.6987 0.4783 -0.0616 0.130 Uiso 1 1 calc R . .
C36 C 0.8141(4) 0.5322(7) -0.0503(3) 0.065(3) Uani 1 1 d . . .
H36A H 0.8560 0.5316 -0.0605 0.097 Uiso 1 1 calc R . .
H36B H 0.8064 0.4798 -0.0304 0.097 Uiso 1 1 calc R . .
H36C H 0.8063 0.5874 -0.0325 0.097 Uiso 1 1 calc R . .
C37 C 1.2047(5) 0.5263(6) -0.1205(3) 0.053(2) Uani 1 1 d . . .
C38 C 1.2493(5) 0.5218(8) -0.0797(3) 0.079(3) Uani 1 1 d . . .
H38A H 1.2274 0.5150 -0.0501 0.118 Uiso 1 1 calc R . .
H38B H 1.2730 0.5773 -0.0788 0.118 Uiso 1 1 calc R . .
H38C H 1.2760 0.4701 -0.0840 0.118 Uiso 1 1 calc R . .
C39 C 1.1817(4) 0.5334(7) -0.2032(3) 0.067(3) Uani 1 1 d . . .
H39A H 1.1410 0.5346 -0.1906 0.100 Uiso 1 1 calc R . .
H39B H 1.1874 0.4786 -0.2217 0.100 Uiso 1 1 calc R . .
H39C H 1.1881 0.5863 -0.2232 0.100 Uiso 1 1 calc R . .
C40 C 1.2916(4) 0.5350(7) -0.1755(3) 0.065(3) Uani 1 1 d . . .
H40A H 1.3159 0.5365 -0.1469 0.097 Uiso 1 1 calc R . .
H40B H 1.3005 0.5881 -0.1946 0.097 Uiso 1 1 calc R . .
H40C H 1.3010 0.4804 -0.1934 0.097 Uiso 1 1 calc R . .
C41 C 1.0011(4) 0.5116(9) -0.1415(4) 0.085(4) Uani 1 1 d . . .
H41A H 0.9978 0.4721 -0.1141 0.127 Uiso 1 1 calc R . .
H41B H 0.9878 0.5724 -0.1331 0.127 Uiso 1 1 calc R . .
H41C H 1.0428 0.5137 -0.1519 0.127 Uiso 1 1 calc R . .
C42 C 0.9674(5) 0.5344(7) -0.2232(3) 0.078(3) Uani 1 1 d . . .
H42A H 0.9421 0.5092 -0.2481 0.116 Uiso 1 1 calc R . .
H42B H 1.0090 0.5362 -0.2339 0.116 Uiso 1 1 calc R . .
H42C H 0.9540 0.5955 -0.2158 0.116 Uiso 1 1 calc R . .
O1 O 1.1563(2) 0.3068(4) -0.06884(15) 0.0415(13) Uani 1 1 d . . .
O1W O 1.0872(3) 0.4831(4) -0.03270(19) 0.0501(14) Uani 1 1 d D . .
H1WB H 1.079(4) 0.538(3) -0.024(3) 0.075 Uiso 1 1 d D . .
H1WA H 1.107(4) 0.492(6) -0.0584(18) 0.075 Uiso 1 1 d D . .
O2 O 1.0687(2) 0.3005(3) -0.10639(14) 0.0255(10) Uani 1 1 d . . .
O3 O 1.0294(2) 0.3179(4) -0.21725(17) 0.0457(14) Uani 1 1 d . . .
O4 O 1.0369(2) 0.1783(4) -0.18791(16) 0.0387(12) Uani 1 1 d . . .
O5 O 1.1303(2) 0.2245(3) -0.27778(13) 0.0280(10) Uani 1 1 d . . .
O6 O 1.0650(2) 0.1750(3) -0.44570(15) 0.0389(13) Uani 1 1 d . . .
O7 O 1.0798(2) 0.3066(3) -0.48117(15) 0.0371(12) Uani 1 1 d . . .
O8 O 1.0663(2) 0.5789(3) -0.37458(17) 0.0408(13) Uani 1 1 d . . .
O9 O 1.0845(2) 0.5690(3) -0.29639(15) 0.0344(11) Uani 1 1 d . . .
O10 O 0.93020(19) 0.2909(3) -0.13956(15) 0.0275(10) Uani 1 1 d . . .
O11 O 0.8452(2) 0.2542(4) -0.17683(14) 0.0413(13) Uani 1 1 d . . .
O12 O 0.9686(2) 0.2387(3) -0.04221(13) 0.0285(10) Uani 1 1 d . . .
O13 O 0.9543(2) 0.3853(4) -0.03359(17) 0.0387(12) Uani 1 1 d . . .
O14 O 0.8604(2) 0.3088(3) 0.03465(14) 0.0297(11) Uani 1 1 d . . .
O15 O 0.9077(3) -0.0265(4) 0.01062(17) 0.0590(18) Uani 1 1 d . . .
H15 H 0.911(5) -0.088(7) 0.003(3) 0.088 Uiso 1 1 d . . .
O16 O 0.9278(2) -0.0812(4) 0.08272(17) 0.0457(14) Uani 1 1 d . . .
O17 O 0.9134(2) 0.1484(4) 0.22258(15) 0.0448(13) Uani 1 1 d . . .
O18 O 0.9309(3) 0.2909(4) 0.20176(18) 0.0492(15) Uani 1 1 d . . .
O19 O 0.8529(3) 0.5104(5) -0.1393(2) 0.078(2) Uani 1 1 d . . .
O20 O 1.1483(2) 0.5190(4) -0.11396(17) 0.0488(14) Uani 1 1 d . . .
N1 N 0.7744(3) 0.5291(5) -0.0918(3) 0.0573(19) Uani 1 1 d . . .
N2 N 1.2266(3) 0.5348(5) -0.1628(3) 0.059(2) Uani 1 1 d . . .
N3 N 0.9629(3) 0.4760(5) -0.1801(3) 0.061(2) Uani 1 1 d . . .
H3B H 0.9238 0.4740 -0.1702 0.073 Uiso 1 1 calc R . .
H3A H 0.9746 0.4184 -0.1873 0.073 Uiso 1 1 calc R . .

loop_
_atom_site_aniso_label
_atom_site_aniso_U_11
_atom_site_aniso_U_22
_atom_site_aniso_U_33
_atom_site_aniso_U_23
_atom_site_aniso_U_13
_atom_site_aniso_U_12
Cd1 0.0307(3) 0.0354(3) 0.0108(2) 0.00019(19) -0.00242(18) -0.0015(2)
Cd2 0.0317(3) 0.0331(3) 0.0111(2) 0.00180(19) -0.00316(18) -0.0023(2)
Cd3 0.0316(3) 0.0267(3) 0.0175(3) -0.00063(18) -0.00325(19) -0.0007(2)
C1 0.028(3) 0.020(3) 0.019(3) 0.002(2) -0.002(3) 0.001(3)
C2 0.030(3) 0.021(3) 0.017(3) 0.002(3) -0.004(3) 0.005(3)
C3 0.033(4) 0.029(4) 0.013(3) 0.005(3) 0.002(3) 0.003(3)
C4 0.033(4) 0.047(5) 0.023(3) 0.002(3) 0.010(3) 0.002(3)
C5 0.020(3) 0.072(6) 0.033(4) -0.003(4) 0.001(3) 0.001(4)
C6 0.035(4) 0.054(5) 0.024(3) -0.001(3) -0.006(3) 0.000(4)
C7 0.035(4) 0.026(4) 0.019(3) 0.000(3) -0.005(3) -0.003(3)
C8 0.031(4) 0.041(4) 0.010(3) 0.003(3) 0.002(3) -0.001(3)
C9 0.034(4) 0.024(3) 0.006(2) 0.005(2) 0.004(2) 0.000(3)
C10 0.035(4) 0.027(4) 0.015(3) -0.005(3) 0.003(3) 0.000(3)
C11 0.018(3) 0.036(4) 0.016(3) -0.010(3) 0.002(2) -0.003(3)
C12 0.028(3) 0.035(4) 0.013(3) 0.005(3) -0.005(2) 0.007(3)
C13 0.023(3) 0.025(3) 0.018(3) -0.004(2) -0.004(3) 0.000(3)
C14 0.028(3) 0.033(4) 0.014(3) -0.001(3) 0.002(2) -0.001(3)
C15 0.026(3) 0.031(4) 0.018(3) -0.001(3) -0.001(3) -0.001(3)
C16 0.031(3) 0.023(3) 0.018(3) 0.001(3) 0.003(3) 0.005(3)
C17 0.023(3) 0.021(3) 0.019(3) 0.004(2) 0.003(3) 0.000(3)
C18 0.028(3) 0.027(4) 0.016(3) 0.001(3) 0.005(3) -0.002(3)
C19 0.034(4) 0.066(6) 0.020(3) 0.002(3) -0.003(3) -0.002(4)
C20 0.023(4) 0.061(5) 0.042(4) 0.000(4) 0.010(3) -0.008(4)
C21 0.034(4) 0.043(4) 0.021(3) 0.004(3) 0.013(3) 0.004(3)
C22 0.036(4) 0.027(4) 0.017(3) -0.005(3) -0.003(3) 0.004(3)
C23 0.017(3) 0.031(4) 0.016(3) 0.004(3) 0.001(2) 0.006(3)
C24 0.037(4) 0.026(4) 0.021(3) 0.006(3) 0.000(3) -0.002(3)
C25 0.024(3) 0.030(4) 0.016(3) 0.000(3) 0.001(3) 0.002(3)
C26 0.029(4) 0.035(4) 0.020(3) -0.003(3) 0.001(3) 0.004(3)
C27 0.022(3) 0.045(4) 0.017(3) -0.009(3) 0.002(3) 0.004(3)
C28 0.032(4) 0.033(4) 0.022(3) 0.007(3) -0.005(3) 0.007(3)
C29 0.030(3) 0.034(4) 0.021(3) -0.001(3) -0.003(3) 0.007(3)
C30 0.032(3) 0.032(4) 0.011(3) -0.008(3) 0.002(3) 0.001(3)
C31 0.030(4) 0.043(4) 0.012(3) -0.002(3) -0.001(3) 0.005(3)
C32 0.032(4) 0.045(5) 0.022(3) -0.004(3) 0.001(3) 0.007(3)
C33 0.053(6) 0.063(6) 0.068(6) 0.004(5) -0.008(5) -0.008(5)
C34 0.131(12) 0.198(17) 0.076(8) 0.003(9) -0.061(9) -0.026(12)
C35 0.047(6) 0.090(8) 0.123(10) -0.022(7) 0.009(6) -0.002(6)
C36 0.063(6) 0.065(6) 0.066(6) 0.014(5) -0.012(5) 0.003(5)
C37 0.076(7) 0.038(5) 0.044(5) -0.006(4) 0.003(5) 0.001(5)
C38 0.068(6) 0.124(10) 0.044(5) -0.017(6) -0.015(5) 0.010(7)
C39 0.062(6) 0.106(8) 0.033(4) 0.010(5) -0.005(4) 0.002(6)
C40 0.045(5) 0.074(7) 0.075(6) 0.012(5) 0.014(5) 0.002(5)
C41 0.070(7) 0.115(10) 0.069(7) 0.023(7) -0.014(6) 0.020(7)
C42 0.099(8) 0.073(7) 0.061(6) -0.006(5) 0.013(6) -0.012(7)
O1 0.041(3) 0.069(4) 0.015(2) -0.003(2) -0.009(2) 0.000(3)
O1W 0.070(4) 0.037(3) 0.043(3) -0.003(3) 0.020(3) -0.012(3)
O2 0.030(2) 0.030(3) 0.016(2) -0.0035(19) 0.0018(18) 0.001(2)
O3 0.032(3) 0.075(4) 0.030(3) 0.018(3) 0.005(2) 0.020(3)
O4 0.037(3) 0.051(3) 0.028(2) -0.016(2) 0.003(2) -0.012(3)
O5 0.046(3) 0.027(3) 0.0108(19) 0.0026(17) -0.0037(19) 0.004(2)
O6 0.071(4) 0.033(3) 0.013(2) -0.004(2) -0.009(2) -0.005(3)
O7 0.055(3) 0.040(3) 0.016(2) 0.000(2) -0.003(2) -0.013(3)
O8 0.060(3) 0.035(3) 0.028(3) 0.004(2) 0.003(2) 0.020(2)
O9 0.045(3) 0.033(3) 0.026(2) -0.006(2) 0.001(2) 0.002(2)
O10 0.027(2) 0.033(3) 0.022(2) 0.005(2) 0.0036(19) 0.000(2)
O11 0.045(3) 0.068(4) 0.012(2) -0.006(2) -0.005(2) 0.001(3)
O12 0.030(2) 0.044(3) 0.0119(19) -0.0005(19) -0.0018(19) 0.005(2)
O13 0.032(3) 0.044(3) 0.040(3) -0.013(2) -0.003(2) 0.001(2)
O14 0.049(3) 0.027(2) 0.013(2) -0.0047(18) -0.005(2) 0.004(2)
O15 0.120(6) 0.035(3) 0.022(2) -0.008(2) -0.013(3) 0.022(3)
O16 0.068(4) 0.039(3) 0.030(3) 0.009(2) -0.013(2) 0.015(3)
O17 0.061(4) 0.056(4) 0.017(2) -0.005(2) -0.007(2) -0.012(3)
O18 0.086(4) 0.039(3) 0.023(3) -0.007(2) -0.012(3) 0.002(3)
O19 0.070(5) 0.092(5) 0.071(4) -0.003(4) 0.016(4) -0.012(4)
O20 0.048(3) 0.059(4) 0.040(3) 0.010(3) 0.014(2) 0.000(3)
N1 0.043(4) 0.066(5) 0.063(5) 0.002(4) -0.004(4) -0.001(4)
N2 0.059(5) 0.058(5) 0.060(5) 0.000(4) 0.007(4) -0.001(4)
N3 0.053(4) 0.053(5) 0.076(5) 0.016(4) 0.023(4) 0.002(4)

_geom_special_details            
; 
 All esds (except the esd in the dihedral angle between two l.s. planes) 
 are 