####################################################################### 
# 
# This file contains crystal structure data downloaded from the 
# Cambridge Structural Database (CSD) hosted by the Cambridge 
# Crystallographic Data Centre (CCDC).
# 
# Full information about CCDC data access policies and citation 
# guidelines are available at http://www.ccdc.cam.ac.uk/access/V1 
# 
# Audit and citation data items may have been added by the CCDC. 
# Please retain this information to preserve the provenance of 
# this file and to allow appropriate attribution of the data. 
# 
#######################################################################

data_jb21ap-1
_audit_block_doi                 10.5517/ccr81yz
_database_code_depnum_ccdc_archive 'CCDC 692941'
loop_
_citation_id
_citation_doi
_citation_year
1 10.1039/b810906k 2008
_audit_update_record             
;
2008-06-26 deposited with the CCDC.	2024-07-13 downloaded from the CCDC.
;

_audit_creation_method           SHELXL-97
_chemical_name_systematic        
;
?
;
_chemical_name_common            '[{Ru(tpyNHNCHpy)2}2Fe(NCS)2]An(NCS)2'
_chemical_melting_point          ?
_chemical_formula_moiety         
'Fe (N C S)2 Ru2 C84 H64 N24,Fe2 O4 C8 H22 (N C S)6,(NCS)2,C8 H26 O5'
_chemical_formula_sum            'C116 H132 Fe3 N34 O13 Ru2 S10'
_chemical_formula_weight         2900.85

loop_
_atom_type_symbol
_atom_type_description
_atom_type_scat_dispersion_real
_atom_type_scat_dispersion_imag
_atom_type_scat_source
C C 0.0033 0.0016 'International Tables Vol C Tables 4.2.6.8 and 6.1.1.4'
H H 0.0000 0.0000 'International Tables Vol C Tables 4.2.6.8 and 6.1.1.4'
N N 0.0061 0.0033 'International Tables Vol C Tables 4.2.6.8 and 6.1.1.4'
O O 0.0106 0.0060 'International Tables Vol C Tables 4.2.6.8 and 6.1.1.4'
S S 0.1246 0.1234 'International Tables Vol C Tables 4.2.6.8 and 6.1.1.4'
Fe Fe 0.3463 0.8444 'International Tables Vol C Tables 4.2.6.8 and 6.1.1.4'
Ru Ru -1.2594 0.8363 'International Tables Vol C Tables 4.2.6.8 and 6.1.1.4'

_symmetry_cell_setting           Triclinic
_symmetry_space_group_name_H-M   P-1

loop_
_symmetry_equiv_pos_as_xyz
'x, y, z'
'-x, -y, -z'

_cell_length_a                   13.812(8)
_cell_length_b                   15.073(8)
_cell_length_c                   18.604(10)
_cell_angle_alpha                67.221(8)
_cell_angle_beta                 70.821(8)
_cell_angle_gamma                73.834(8)
_cell_volume                     3322(3)
_cell_formula_units_Z            1
_cell_measurement_temperature    173(2)
_cell_measurement_reflns_used    986
_cell_measurement_theta_min      2.567
_cell_measurement_theta_max      20.1165

_exptl_crystal_description       plate
_exptl_crystal_colour            'dark red'
_exptl_crystal_size_max          0.13
_exptl_crystal_size_mid          0.13
_exptl_crystal_size_min          0.03
_exptl_crystal_density_meas      ?
_exptl_crystal_density_diffrn    1.450
_exptl_crystal_density_method    'not measured'
_exptl_crystal_F_000             1496
_exptl_absorpt_coefficient_mu    0.770
_exptl_absorpt_correction_type   multi-scan
_exptl_absorpt_correction_T_min  0.905
_exptl_absorpt_correction_T_max  0.977
_exptl_absorpt_process_details   'SADABS, Bruker 1995'

_exptl_special_details           
;
In a thin film of perfluoropolyether oil on a mohair fibre
;

_diffrn_ambient_temperature      173(2)
_diffrn_radiation_wavelength     0.71073
_diffrn_radiation_type           MoK\a
_diffrn_radiation_source         'fine-focus sealed tube'
_diffrn_radiation_monochromator  graphite
_diffrn_measurement_device_type  'Bruker SMART 1000 CCD'
_diffrn_measurement_method       \w
_diffrn_detector_area_resol_mean ?
_diffrn_standards_number         48
_diffrn_standards_interval_count ?
_diffrn_standards_interval_time  ?
_diffrn_standards_decay_%        0.00
_diffrn_reflns_number            28554
_diffrn_reflns_av_R_equivalents  0.0376
_diffrn_reflns_av_sigmaI/netI    0.2446
_diffrn_reflns_limit_h_min       -17
_diffrn_reflns_limit_h_max       17
_diffrn_reflns_limit_k_min       -18
_diffrn_reflns_limit_k_max       18
_diffrn_reflns_limit_l_min       -23
_diffrn_reflns_limit_l_max       22
_diffrn_reflns_theta_min         1.23
_diffrn_reflns_theta_max         26.37
_reflns_number_total             13366
_reflns_number_gt                5422
_reflns_threshold_expression     >2sigma(I)

_computing_data_collection       'SMART (BrukerAXS, 1997)'
_computing_cell_refinement       'SMART (BrukerAXS, 1997)'
_computing_data_reduction        'SAINT+ (BrukerAXS, 1997)'
_computing_structure_solution    'SHELXS-97 (Sheldrick, 1990)'
_computing_structure_refinement  'SHELXL-97 (Sheldrick, 1997)'
_computing_molecular_graphics    'Bruker SHELXTL'
_computing_publication_material  'Bruker SHELXTL'

_refine_special_details          
;
Refinement of F^2^ against ALL reflections. The weighted R-factor wR and
goodness of fit S are based on F^2^, conventional R-factors R are based
on F, with F set to zero for negative F^2^. The threshold expression of
F^2^ > 2sigma(F^2^) is used only for calculating R-factors(gt) etc. and is
not relevant to the choice of reflections for refinement. R-factors based
on F^2^ are statistically about twice as large as those based on F, and R-
factors based on ALL data will be even larger.
;

_refine_ls_structure_factor_coef Fsqd
_refine_ls_matrix_type           full
_refine_ls_weighting_scheme      calc
_refine_ls_weighting_details     
'calc w=1/[\s^2^(Fo^2^)+(0.1109P)^2^+0.0000P] where P=(Fo^2^+2Fc^2^)/3'
_atom_sites_solution_primary     direct
_atom_sites_solution_secondary   difmap
_atom_sites_solution_hydrogens   geom
_refine_ls_hydrogen_treatment    constr
_refine_ls_extinction_method     none
_refine_ls_extinction_coef       ?
_refine_ls_number_reflns         13366
_refine_ls_number_parameters     750
_refine_ls_number_restraints     9
_refine_ls_R_factor_all          0.2173
_refine_ls_R_factor_gt           0.0822
_refine_ls_wR_factor_ref         0.2416
_refine_ls_wR_factor_gt          0.1821
_refine_ls_goodness_of_fit_ref   0.926
_refine_ls_restrained_S_all      0.937
_refine_ls_shift/su_max          0.000
_refine_ls_shift/su_mean         0.000

loop_
_atom_site_label
_atom_site_type_symbol
_atom_site_fract_x
_atom_site_fract_y
_atom_site_fract_z
_atom_site_U_iso_or_equiv
_atom_site_adp_type
_atom_site_occupancy
_atom_site_symmetry_multiplicity
_atom_site_calc_flag
_atom_site_refinement_flags
_atom_site_disorder_assembly
_atom_site_disorder_group
Ru1 Ru 0.34446(6) 0.23985(5) 1.13850(4) 0.0288(2) Uani 1 1 d . . .
Fe1 Fe 0.0000 0.5000 0.5000 0.0280(4) Uani 1 2 d S . .
Fe2 Fe 0.04463(13) -0.03744(13) 1.07580(10) 0.0631(5) Uani 1 1 d . . .
S1 S 0.3207(3) 0.6156(4) 0.4475(3) 0.1300(18) Uani 1 1 d . . .
S2 S 0.3816(2) 0.0412(2) 0.9531(2) 0.0726(10) Uani 1 1 d . . .
S3 S 0.0218(3) 0.0886(3) 1.2797(3) 0.1176(17) Uani 1 1 d . . .
S4 S 0.2134(3) -0.2910(2) 1.25693(19) 0.0686(9) Uani 1 1 d . . .
S5 S -0.2541(2) 0.4530(2) 1.22207(17) 0.0604(8) Uani 1 1 d . . .
O1 O 0.0415(5) -0.0752(5) 0.9857(4) 0.059(2) Uani 1 1 d . . .
O2 O -0.1016(6) -0.0901(6) 1.1360(5) 0.084(3) Uani 1 1 d . . .
O70 O 0.8041(10) 0.2215(10) 1.4772(8) 0.155(5) Uiso 1 1 d . . .
H70 H 0.8429 0.2196 1.4321 0.186 Uiso 1 1 calc R . .
O76 O 0.508(2) 0.351(2) 0.4244(17) 0.357(10) Uiso 1 1 d D . .
H76 H 0.5537 0.3025 0.4180 0.429 Uiso 1 1 calc . . .
O77 O 0.4519(13) 0.2375(13) 0.5951(10) 0.213(7) Uiso 1 1 d D . .
H77 H 0.5006 0.2527 0.5538 0.256 Uiso 1 1 calc R . .
O80 O 0.669(3) -0.043(3) 1.556(3) 0.293(15) Uiso 0.50 1 d PD . .
O730 O 0.788(3) 0.2198(17) 1.317(2) 0.085(11) Uiso 0.40(4) 1 d P . .
O731 O 0.7340(16) 0.2322(10) 1.3518(11) 0.061(6) Uiso 0.60(4) 1 d P . .
N1 N 0.3427(5) 0.0921(5) 1.1798(4) 0.0332(18) Uani 1 1 d . . .
N2 N 0.4582(5) 0.1886(5) 1.1935(4) 0.0303(17) Uani 1 1 d . . .
N3 N 0.3931(5) 0.3657(5) 1.1177(4) 0.0250(16) Uani 1 1 d . . .
N4 N 0.6929(6) 0.0832(5) 1.3092(4) 0.043(2) Uani 1 1 d . . .
H4 H 0.7245 0.1249 1.3114 0.052 Uiso 1 1 calc R . .
N5 N 0.7232(6) -0.0139(5) 1.3419(4) 0.0365(18) Uani 1 1 d . . .
N6 N 0.9297(6) -0.3409(5) 1.4607(4) 0.0312(17) Uani 1 1 d . . .
N7 N 0.4191(5) 0.2409(5) 1.0229(4) 0.0281(16) Uani 1 1 d . . .
N8 N 0.2285(5) 0.2920(5) 1.0867(4) 0.0270(16) Uani 1 1 d . . .
N9 N 0.2223(5) 0.2575(5) 1.2342(4) 0.0281(17) Uani 1 1 d . . .
N10 N -0.0171(5) 0.3966(5) 0.9807(4) 0.0326(18) Uani 1 1 d . . .
H10 H -0.0807 0.4095 1.0098 0.039 Uiso 1 1 calc R . .
N11 N -0.0001(6) 0.4110(5) 0.9025(4) 0.0318(17) Uani 1 1 d . . .
N12 N -0.0273(5) 0.4948(5) 0.6232(4) 0.0297(17) Uani 1 1 d . . .
N13 N 0.1485(6) 0.5355(5) 0.4740(4) 0.0338(18) Uani 1 1 d . . .
N14 N 0.1798(8) 0.0138(8) 1.0153(6) 0.072(3) Uani 1 1 d . . .
N15 N 0.0190(8) 0.0185(8) 1.1647(7) 0.075(3) Uani 1 1 d . . .
N16 N 0.1165(8) -0.1675(8) 1.1365(7) 0.076(3) Uani 1 1 d . . .
N17 N -0.2288(6) 0.4367(6) 1.0727(5) 0.052(2) Uani 1 1 d . . .
C1 C 0.2804(7) 0.0467(7) 1.1703(5) 0.041(2) Uani 1 1 d . . .
H1 H 0.2338 0.0841 1.1370 0.049 Uiso 1 1 calc R . .
C2 C 0.2803(8) -0.0498(7) 1.2056(6) 0.045(3) Uani 1 1 d . . .
H2 H 0.2332 -0.0787 1.1978 0.053 Uiso 1 1 calc R . .
C3 C 0.3473(8) -0.1065(7) 1.2525(6) 0.050(3) Uani 1 1 d . . .
H3 H 0.3473 -0.1746 1.2785 0.059 Uiso 1 1 calc R . .
C4 C 0.4146(7) -0.0610(6) 1.2605(5) 0.035(2) Uani 1 1 d . . .
H4A H 0.4638 -0.0984 1.2915 0.042 Uiso 1 1 calc R . .
C5 C 0.4120(7) 0.0362(6) 1.2250(5) 0.030(2) Uani 1 1 d . . .
C6 C 0.4797(6) 0.0921(6) 1.2309(5) 0.028(2) Uani 1 1 d . . .
C7 C 0.5587(7) 0.0523(6) 1.2701(5) 0.036(2) Uani 1 1 d . . .
H7 H 0.5756 -0.0163 1.2947 0.043 Uiso 1 1 calc R . .
C8 C 0.6127(7) 0.1160(7) 1.2726(5) 0.034(2) Uani 1 1 d . . .
C9 C 0.8070(7) -0.0406(7) 1.3662(5) 0.042(2) Uani 1 1 d . . .
H9 H 0.8429 0.0074 1.3616 0.050 Uiso 1 1 calc R . .
C10 C 0.8474(7) -0.1435(6) 1.4005(5) 0.031(2) Uani 1 1 d . . .
C11 C 0.7849(7) -0.2145(7) 1.4305(5) 0.038(2) Uani 1 1 d . . .
H11A H 0.7135 -0.1970 1.4297 0.046 Uiso 1 1 calc R . .
C12 C 0.8288(7) -0.3105(7) 1.4612(5) 0.038(2) Uani 1 1 d . . .
H12 H 0.7849 -0.3582 1.4843 0.046 Uiso 1 1 calc R . .
C13 C 0.9868(8) -0.2721(7) 1.4320(5) 0.040(2) Uani 1 1 d . . .
H13 H 1.0585 -0.2916 1.4315 0.048 Uiso 1 1 calc R . .
C14 C 0.9497(7) -0.1745(7) 1.4029(6) 0.043(3) Uani 1 1 d . . .
H14 H 0.9947 -0.1283 1.3844 0.051 Uiso 1 1 calc R . .
C15 C 0.5879(6) 0.2169(6) 1.2358(5) 0.032(2) Uani 1 1 d . . .
H15 H 0.6241 0.2608 1.2375 0.039 Uiso 1 1 calc R . .
C16 C 0.5092(6) 0.2503(6) 1.1969(5) 0.0252(19) Uani 1 1 d . . .
C17 C 0.4701(6) 0.3517(6) 1.1550(5) 0.028(2) Uani 1 1 d . . .
C18 C 0.5051(7) 0.4315(6) 1.1506(5) 0.036(2) Uani 1 1 d . . .
H18 H 0.5564 0.4215 1.1780 0.043 Uiso 1 1 calc R . .
C19 C 0.4677(7) 0.5239(6) 1.1081(6) 0.040(2) Uani 1 1 d . . .
H19 H 0.4922 0.5784 1.1054 0.048 Uiso 1 1 calc R . .
C20 C 0.3924(7) 0.5367(7) 1.0686(5) 0.039(2) Uani 1 1 d . . .
H20 H 0.3649 0.6002 1.0380 0.046 Uiso 1 1 calc R . .
C21 C 0.3587(6) 0.4564(6) 1.0746(5) 0.031(2) Uani 1 1 d . . .
H21 H 0.3082 0.4657 1.0467 0.037 Uiso 1 1 calc R . .
C22 C 0.5200(7) 0.2112(6) 0.9943(5) 0.035(2) Uani 1 1 d . . .
H22 H 0.5638 0.1828 1.0305 0.042 Uiso 1 1 calc R . .
C23 C 0.5635(8) 0.2203(7) 0.9139(6) 0.042(2) Uani 1 1 d . . .
H23 H 0.6356 0.1976 0.8954 0.050 Uiso 1 1 calc R . .
C24 C 0.5010(7) 0.2625(7) 0.8616(6) 0.040(2) Uani 1 1 d . . .
H24 H 0.5294 0.2716 0.8058 0.048 Uiso 1 1 calc R . .
C25 C 0.3970(7) 0.2915(6) 0.8904(5) 0.031(2) Uani 1 1 d . . .
H25 H 0.3528 0.3204 0.8546 0.037 Uiso 1 1 calc R . .
C26 C 0.3561(6) 0.2788(6) 0.9713(5) 0.0260(19) Uani 1 1 d . . .
C27 C 0.2466(7) 0.3058(6) 1.0078(5) 0.028(2) Uani 1 1 d . . .
C28 C 0.1665(7) 0.3386(6) 0.9716(5) 0.031(2) Uani 1 1 d . . .
H28 H 0.1796 0.3459 0.9164 0.038 Uiso 1 1 calc R . .
C29 C 0.0656(6) 0.3614(6) 1.0154(5) 0.0263(19) Uani 1 1 d . . .
C30 C -0.0764(7) 0.4400(6) 0.8719(5) 0.034(2) Uani 1 1 d . . .
H30 H -0.1450 0.4484 0.9050 0.041 Uiso 1 1 calc R . .
C31 C -0.0611(7) 0.4608(6) 0.7865(5) 0.031(2) Uani 1 1 d . . .
C32 C 0.0389(7) 0.4502(7) 0.7379(5) 0.037(2) Uani 1 1 d . . .
H32 H 0.0975 0.4311 0.7599 0.044 Uiso 1 1 calc R . .
C33 C 0.0521(7) 0.4674(7) 0.6579(5) 0.036(2) Uani 1 1 d . . .
H33 H 0.1210 0.4595 0.6252 0.044 Uiso 1 1 calc R . .
C34 C -0.1226(7) 0.5071(6) 0.6706(5) 0.031(2) Uani 1 1 d . . .
H34 H -0.1800 0.5289 0.6470 0.037 Uiso 1 1 calc R . .
C35 C -0.1427(7) 0.4902(6) 0.7514(5) 0.033(2) Uani 1 1 d . . .
H35 H -0.2124 0.4986 0.7827 0.039 Uiso 1 1 calc R . .
C36 C 0.0478(6) 0.3486(6) 1.0965(5) 0.029(2) Uani 1 1 d . . .
H36 H -0.0205 0.3644 1.1274 0.035 Uiso 1 1 calc R . .
C37 C 0.1308(6) 0.3126(6) 1.1315(5) 0.0262(19) Uani 1 1 d . . .
C38 C 0.1289(6) 0.2927(6) 1.2162(5) 0.0252(19) Uani 1 1 d . . .
C39 C 0.0379(7) 0.3065(7) 1.2745(5) 0.034(2) Uani 1 1 d . . .
H39 H -0.0271 0.3324 1.2607 0.041 Uiso 1 1 calc R . .
C40 C 0.0432(8) 0.2823(7) 1.3518(5) 0.039(2) Uani 1 1 d . . .
H40 H -0.0180 0.2908 1.3926 0.047 Uiso 1 1 calc R . .
C41 C 0.1373(8) 0.2458(6) 1.3696(5) 0.038(2) Uani 1 1 d . . .
H41 H 0.1419 0.2281 1.4234 0.045 Uiso 1 1 calc R . .
C42 C 0.2244(7) 0.2346(6) 1.3112(5) 0.035(2) Uani 1 1 d . . .
H42 H 0.2894 0.2096 1.3249 0.042 Uiso 1 1 calc R . .
C50 C 0.2185(9) 0.5681(8) 0.4639(7) 0.055(3) Uani 1 1 d . . .
C60 C 0.2637(9) 0.0249(7) 0.9899(6) 0.048(3) Uani 1 1 d . . .
C61 C 0.0158(10) 0.0514(10) 1.2110(8) 0.078(4) Uani 1 1 d . . .
C62 C 0.1560(9) -0.2201(9) 1.1880(7) 0.057(3) Uani 1 1 d . . .
C63 C 0.0799(10) -0.1696(9) 0.9776(8) 0.078(4) Uani 1 1 d . . .
H63A H 0.0356 -0.1828 0.9518 0.094 Uiso 1 1 calc R . .
H63B H 0.0762 -0.2194 1.0316 0.094 Uiso 1 1 calc R . .
C64 C 0.1919(11) -0.1777(11) 0.9272(9) 0.108(5) Uani 1 1 d . . .
H64A H 0.2164 -0.2436 0.9231 0.162 Uiso 1 1 calc R . .
H64B H 0.2361 -0.1651 0.9528 0.162 Uiso 1 1 calc R . .
H64C H 0.1955 -0.1296 0.8732 0.162 Uiso 1 1 calc R . .
C65 C -0.1256(12) -0.1703(14) 1.1938(9) 0.124(5) Uani 1 1 d . . .
H65A H -0.1086 -0.1699 1.2413 0.149 Uiso 1 1 calc R . .
H65B H -0.0761 -0.2248 1.1773 0.149 Uiso 1 1 calc R . .
C66 C -0.2238(12) -0.1972(13) 1.2216(9) 0.124(5) Uani 1 1 d . . .
H66A H -0.2218 -0.2610 1.2640 0.186 Uiso 1 1 calc R . .
H66B H -0.2435 -0.2011 1.1770 0.186 Uiso 1 1 calc R . .
H66C H -0.2751 -0.1482 1.2433 0.186 Uiso 1 1 calc R . .
C71 C 0.8215(19) 0.1211(18) 1.5409(13) 0.155(8) Uiso 1 1 d . . .
C74 C 0.384(3) 0.297(3) 0.380(2) 0.357(10) Uiso 1 1 d D . .
H74A H 0.3371 0.3231 0.3440 0.536 Uiso 1 1 calc R . .
H74B H 0.3450 0.2704 0.4354 0.536 Uiso 1 1 calc R . .
H74C H 0.4381 0.2448 0.3640 0.536 Uiso 1 1 calc R . .
C75 C 0.434(3) 0.375(2) 0.373(2) 0.357(10) Uiso 1 1 d D . .
H75A H 0.3778 0.4285 0.3854 0.429 Uiso 1 1 calc R . .
H75B H 0.4718 0.4014 0.3159 0.429 Uiso 1 1 calc R . .
C78 C 0.431(2) 0.3031(19) 0.6398(15) 0.230(12) Uiso 1 1 d D . .
H78A H 0.3802 0.2766 0.6911 0.276 Uiso 1 1 calc R . .
H78B H 0.4963 0.2958 0.6541 0.276 Uiso 1 1 calc R . .
C79 C 0.395(3) 0.403(2) 0.612(2) 0.313(18) Uiso 1 1 d D . .
H79A H 0.3791 0.4297 0.6560 0.469 Uiso 1 1 calc R . .
H79B H 0.3311 0.4143 0.5951 0.469 Uiso 1 1 calc R . .
H79C H 0.4478 0.4345 0.5670 0.469 Uiso 1 1 calc R . .
C81 C 0.580(3) -0.071(3) 1.544(4) 0.293(15) Uiso 0.50 1 d PD . .
H81A H 0.5399 -0.1051 1.5986 0.352 Uiso 0.50 1 calc PR . .
H81B H 0.6113 -0.1212 1.5168 0.352 Uiso 0.50 1 calc PR . .
C82 C 0.5000 0.0000 1.5000 0.293(15) Uiso 1 2 d SD . .
H82A H 0.4525 -0.0358 1.4975 0.440 Uiso 0.50 1 calc PR . .
H82B H 0.5356 0.0354 1.4452 0.440 Uiso 0.50 1 calc PR . .
H82C H 0.4604 0.0465 1.5287 0.440 Uiso 0.50 1 calc PR . .
C90 C -0.2408(6) 0.4430(7) 1.1352(7) 0.044(3) Uani 1 1 d . . .
C720 C 0.773(3) 0.053(2) 1.5380(19) 0.153(17) Uiso 0.60(3) 1 d P . .
H72A H 0.6977 0.0699 1.5569 0.229 Uiso 0.60(3) 1 calc PR . .
H72B H 0.7976 -0.0125 1.5726 0.229 Uiso 0.60(3) 1 calc PR . .
H72C H 0.7909 0.0527 1.4825 0.229 Uiso 0.60(3) 1 calc PR . .
C721 C 0.891(4) 0.054(3) 1.514(2) 0.118(19) Uiso 0.40(3) 1 d P . .
H72D H 0.9604 0.0690 1.5014 0.177 Uiso 0.40(3) 1 calc PR . .
H72E H 0.8774 0.0538 1.4660 0.177 Uiso 0.40(3) 1 calc PR . .
H72F H 0.8858 -0.0098 1.5560 0.177 Uiso 0.40(3) 1 calc PR . .

loop_
_atom_site_aniso_label
_atom_site_aniso_U_11
_atom_site_aniso_U_22
_atom_site_aniso_U_33
_atom_site_aniso_U_23
_atom_site_aniso_U_13
_atom_site_aniso_U_12
Ru1 0.0335(5) 0.0286(4) 0.0307(4) -0.0141(3) -0.0120(3) -0.0039(3)
Fe1 0.0310(10) 0.0336(11) 0.0264(10) -0.0158(8) -0.0129(8) -0.0004(8)
Fe2 0.0579(11) 0.0692(12) 0.0751(12) -0.0340(10) -0.0087(9) -0.0251(9)
S1 0.089(3) 0.128(4) 0.210(5) -0.049(4) -0.071(3) -0.044(3)
S2 0.0520(19) 0.0516(19) 0.112(3) -0.0283(19) -0.0149(19) -0.0105(15)
S3 0.130(4) 0.118(3) 0.128(3) -0.089(3) 0.049(3) -0.081(3)
S4 0.087(2) 0.058(2) 0.063(2) -0.0176(16) -0.0056(18) -0.0356(18)
S5 0.077(2) 0.0612(19) 0.0478(18) -0.0194(15) -0.0191(15) -0.0134(16)
O1 0.060(5) 0.052(5) 0.075(5) -0.031(4) 0.000(4) -0.030(4)
O2 0.080(6) 0.081(6) 0.088(6) 0.000(5) -0.025(5) -0.043(5)
N1 0.036(4) 0.035(4) 0.037(4) -0.020(4) -0.007(4) -0.012(4)
N2 0.034(4) 0.031(4) 0.024(4) -0.008(3) -0.011(3) 0.001(3)
N3 0.022(4) 0.028(4) 0.027(4) -0.012(3) -0.009(3) 0.001(3)
N4 0.047(5) 0.035(5) 0.054(5) -0.011(4) -0.024(4) -0.007(4)
N5 0.038(5) 0.023(4) 0.044(5) -0.005(4) -0.020(4) 0.005(4)
N6 0.035(5) 0.038(5) 0.026(4) -0.017(3) -0.009(3) -0.003(4)
N7 0.023(4) 0.029(4) 0.031(4) -0.013(3) -0.004(3) -0.001(3)
N8 0.037(5) 0.022(4) 0.024(4) -0.010(3) -0.005(3) -0.008(3)
N9 0.034(4) 0.032(4) 0.025(4) -0.011(3) -0.013(3) -0.007(3)
N10 0.024(4) 0.055(5) 0.023(4) -0.024(4) -0.001(3) -0.003(4)
N11 0.043(5) 0.032(4) 0.029(4) -0.018(3) -0.012(4) -0.002(4)
N12 0.033(4) 0.032(4) 0.029(4) -0.015(3) -0.013(4) 0.000(3)
N13 0.035(5) 0.039(5) 0.039(5) -0.022(4) -0.021(