####################################################################### 
# 
# This file contains crystal structure data downloaded from the 
# Cambridge Structural Database (CSD) hosted by the Cambridge 
# Crystallographic Data Centre (CCDC).
# 
# Full information about CCDC data access policies and citation 
# guidelines are available at http://www.ccdc.cam.ac.uk/access/V1 
# 
# Audit and citation data items may have been added by the CCDC. 
# Please retain this information to preserve the provenance of 
# this file and to allow appropriate attribution of the data. 
# 
#######################################################################

data_TOSQOH
#This CIF has been generated from an entry in the Cambridge Structural Database
_database_code_depnum_ccdc_archive 'CCDC 1274395'
_database_code_CSD               TOSQOH
_audit_creation_method           'Created from the CSD'
_audit_update_record             
;
2024-07-13 downloaded from the CCDC.
;
_database_code_NBS               673579
_chemical_formula_moiety         
'(C30 H16 Cu3 N6 O20 Tm2)n,10n(C3 H7 N1 O1),4n(H2 O1)'
_chemical_name_systematic        
'catena-(tris((Phenylene-bis(oxamato))-copper(ii))-di-thulium(iii) dimethylformamide solvate tetrahydrate)'
_chemical_absolute_configuration unk
_diffrn_ambient_temperature      295
_exptl_crystal_density_diffrn    1.744
#These two values have been output from a single CSD field.
_refine_ls_R_factor_gt           0.134
_refine_ls_wR_factor_gt          0.134
_diffrn_radiation_probe          x-ray
_symmetry_cell_setting           orthorhombic
_symmetry_space_group_name_H-M   'P 21 21 21'
_symmetry_Int_Tables_number      19
_space_group_name_Hall           'P 2ac 2ab'
loop_
_symmetry_equiv_pos_site_id
_symmetry_equiv_pos_as_xyz
1 x,y,z
2 1/2-x,-y,1/2+z
3 1/2+x,1/2-y,-z
4 -x,1/2+y,1/2-z
_cell_length_a                   9.864(2)
_cell_length_b                   20.855(2)
_cell_length_c                   39.101(9)
_cell_angle_alpha                90
_cell_angle_beta                 90
_cell_angle_gamma                90
_cell_volume                     8043.61
_cell_formula_units_Z            4
loop_
_atom_site_label
_atom_site_type_symbol
_atom_site_fract_x
_atom_site_fract_y
_atom_site_fract_z
O1 O 0.627(9) 0.224(5) 0.261(2)
Tm1 Tm 0.2702(4) 0.2746(3) 0.3929(1)
Tm2 Tm 0.3572(5) 0.2755(3) 0.1083(1)
Cu1 Cu 0.408(2) 0.2765(8) 0.2524(4)
Cu2 Cu 0.507(2) 0.5140(7) 0.4026(3)
Cu3 Cu 0.591(1) 0.5176(6) 0.0809(3)
O2 O 0.16(1) 0.285(5) 0.458(2)
O3 O 0.311(9) 0.266(5) 0.045(2)
O4 O 0.42(1) 0.307(5) 0.356(2)
O5 O 0.240(8) 0.224(4) 0.344(2)
C1 C 0.31(1) 0.238(6) 0.318(3)
C2 C 0.398(9) 0.302(4) 0.319(2)
N1 N 0.293(8) 0.222(5) 0.282(2)
O6 O 0.458(8) 0.333(4) 0.295(2)
N2 N 0.313(9) 0.222(6) 0.220(2)
O7 O 0.463(9) 0.323(4) 0.210(2)
C3 C 0.35(1) 0.241(5) 0.190(3)
C4 C 0.42(1) 0.304(5) 0.181(3)
O8 O 0.306(6) 0.216(4) 0.156(2)
O9 O 0.444(8) 0.325(4) 0.156(2)
C5 C 0.22(1) 0.177(4) 0.267(2)
C6 C 0.13(2) 0.130(6) 0.282(2)
C7 C 0.08(1) 0.079(5) 0.262(3)
C8 C 0.10(1) 0.081(4) 0.227(2)
C9 C 0.18(1) 0.128(4) 0.212(2)
C10 C 0.23(1) 0.178(4) 0.232(2)
O10 O 0.227(8) 0.382(3) 0.395(2)
O11 O 0.439(6) 0.337(3) 0.421(1)
C11 C 0.50(2) 0.401(8) 0.405(4)
C12 C 0.336(8) 0.417(4) 0.404(2)
N3 N 0.338(6) 0.486(3) 0.399(1)
O12 O 0.656(6) 0.567(3) 0.414(1)
N4 N 0.413(8) 0.595(4) 0.394(2)
O13 O 0.559(8) 0.437(4) 0.416(2)
C13 C 0.50(1) 0.633(5) 0.395(3)
C14 C 0.656(9) 0.625(4) 0.401(2)
O14 O 0.453(7) 0.700(3) 0.390(2)
O15 O 0.717(6) 0.677(3) 0.407(1)
C15 C 0.220(9) 0.525(3) 0.389(4)
C16 C 0.085(9) 0.514(3) 0.378(3)
C17 C 0.004(7) 0.566(4) 0.369(3)
C18 C 0.052(7) 0.628(3) 0.375(3)
C19 C 0.191(7) 0.638(3) 0.378(2)
C20 C 0.275(6) 0.587(3) 0.388(2)
O16 O 0.562(4) 0.713(2) 0.104(1)
O17 O 0.788(8) 0.669(4) 0.091(2)
C21 C 0.576(8) 0.655(4) 0.093(2)
C22 C 0.72(2) 0.616(9) 0.092(5)
N5 N 0.43(1) 0.492(6) 0.084(3)
O18 O 0.649(9) 0.422(4) 0.081(2)
N6 N 0.503(8) 0.600(3) 0.092(2)
O19 O 0.78(1) 0.567(5) 0.084(2)
C23 C 0.529(9) 0.394(4) 0.090(2)
C24 C 0.395(8) 0.421(4) 0.092(2)
O20 O 0.311(7) 0.387(3) 0.103(2)
O21 O 0.548(6) 0.324(3) 0.089(1)
C25 C 0.313(5) 0.522(2) 0.095(2)
C26 C 0.175(6) 0.511(2) 0.097(2)
C27 C 0.084(6) 0.561(3) 0.094(4)
C28 C 0.131(6) 0.624(3) 0.098(2)
C29 C 0.270(6) 0.636(2) 0.095(2)
C30 C 0.360(5) 0.585(3) 0.091(2)
O14C O 0.547(7) 0.200(3) 0.110(2)
O15C O 0.283(6) 0.177(3) 0.093(1)
Tm2C Tm 0.6428(5) 0.7755(3) 0.3917(1)
O16C O 0.438(4) 0.213(2) 0.396(1)
Tm1C Tm 0.7298(4) 0.7746(3) 0.1071(1)
O17C O 0.212(8) 0.169(4) 0.409(2)

#END
