####################################################################### 
# 
# This file contains crystal structure data downloaded from the 
# Cambridge Structural Database (CSD) hosted by the Cambridge 
# Crystallographic Data Centre (CCDC).
# 
# Full information about CCDC data access policies and citation 
# guidelines are available at http://www.ccdc.cam.ac.uk/access/V1 
# 
# Audit and citation data items may have been added by the CCDC. 
# Please retain this information to preserve the provenance of 
# this file and to allow appropriate attribution of the data. 
# 
#######################################################################

data_1
_audit_block_doi                 10.5517/cc11rf4c
_database_code_depnum_ccdc_archive 'CCDC 975822'
loop_
_citation_id
_citation_doi
_citation_year
1 10.1021/ja5123528 2015
2 10.1038/ncomms6723 2014
_audit_update_record             
;
2013-12-07 deposited with the CCDC.	2024-07-13 downloaded from the CCDC.
;

_audit_creation_method           SHELXL-97
_chemical_name_systematic        
; 
 ? 
;
_chemical_name_common            ?
_chemical_melting_point          ?
_chemical_formula_moiety         'Fe3 O4 (C27 H15 O7)2'
_chemical_formula_sum            'C54 H30 Fe3 O18'
_chemical_formula_weight         1134.33

loop_
_atom_type_symbol
_atom_type_description
_atom_type_scat_dispersion_real
_atom_type_scat_dispersion_imag
_atom_type_scat_source
C C 0.0033 0.0016 'International Tables Vol C Tables 4.2.6.8 and 6.1.1.4'
H H 0.0000 0.0000 'International Tables Vol C Tables 4.2.6.8 and 6.1.1.4'
O O 0.0106 0.0060 'International Tables Vol C Tables 4.2.6.8 and 6.1.1.4'
Fe Fe 0.3463 0.8444 'International Tables Vol C Tables 4.2.6.8 and 6.1.1.4'

_symmetry_cell_setting           Monoclinic
_symmetry_space_group_name_H-M   P2(1)/c

loop_
_symmetry_equiv_pos_as_xyz
'x, y, z'
'-x, y+1/2, -z+1/2'
'-x, -y, -z'
'x, -y-1/2, z-1/2'

_cell_length_a                   24.688(4)
_cell_length_b                   18.375(3)
_cell_length_c                   35.257(6)
_cell_angle_alpha                90.00
_cell_angle_beta                 90.345(2)
_cell_angle_gamma                90.00
_cell_volume                     15994(4)
_cell_formula_units_Z            4
_cell_measurement_temperature    110(2)
_cell_measurement_reflns_used    9922
_cell_measurement_theta_min      2.2124
_cell_measurement_theta_max      23.0752

_exptl_crystal_description       Bulk
_exptl_crystal_colour            Orange
_exptl_crystal_size_max          0.50
_exptl_crystal_size_mid          0.40
_exptl_crystal_size_min          0.40
_exptl_crystal_density_meas      'not measured'
_exptl_crystal_density_diffrn    0.471
_exptl_crystal_density_method    'not measured'
_exptl_crystal_F_000             2304
_exptl_absorpt_coefficient_mu    0.292
_exptl_absorpt_correction_type   multi-scan
_exptl_absorpt_correction_T_min  0.8675
_exptl_absorpt_correction_T_max  0.8920
_exptl_absorpt_process_details   'SADABS (Sheldrick, 2008)'

_exptl_special_details           
; 
 ? 
;

_diffrn_ambient_temperature      110(2)
_diffrn_radiation_wavelength     0.71073
_diffrn_radiation_type           MoK\a
_diffrn_radiation_source         'fine-focus sealed tube'
_diffrn_radiation_monochromator  graphite
_diffrn_measurement_device_type  'Bruker SMART APEX II CCD area detector'
_diffrn_measurement_method       'phi and omega scans'
_diffrn_detector_area_resol_mean ?
_diffrn_reflns_number            143677
_diffrn_reflns_av_R_equivalents  0.0697
_diffrn_reflns_av_sigmaI/netI    0.0727
_diffrn_reflns_limit_h_min       -28
_diffrn_reflns_limit_h_max       28
_diffrn_reflns_limit_k_min       -21
_diffrn_reflns_limit_k_max       21
_diffrn_reflns_limit_l_min       -41
_diffrn_reflns_limit_l_max       40
_diffrn_reflns_theta_min         1.80
_diffrn_reflns_theta_max         24.52
_reflns_number_total             26567
_reflns_number_gt                14010
_reflns_threshold_expression     >2sigma(I)

_computing_data_collection       'APEX2  (Bruker, 2008)'
_computing_cell_refinement       'SAINT+ ver. (Bruker, 2001)'
_computing_data_reduction        'SAINT+ ver. (Bruker, 2001)'
_computing_structure_solution    'SHELXS-97 (Sheldrick, 2008)'
_computing_structure_refinement  'SHELXL-97 (Sheldrick, 2008)'
_computing_molecular_graphics    'SHELXTL (Sheldrick, 2008)'
_computing_publication_material  'SHELXTL (Sheldrick, 2008)'

_refine_special_details          
; 
 Refinement of F^2^ against ALL reflections.  The weighted R-factor wR and 
 goodness of fit S are based on F^2^, conventional R-factors R are based 
 on F, with F set to zero for negative F^2^. The threshold expression of 
 F^2^ > 2sigma(F^2^) is used only for calculating R-factors(gt) etc. and is 
 not relevant to the choice of reflections for refinement.  R-factors based 
 on F^2^ are statistically about twice as large as those based on F, and R- 
 factors based on ALL data will be even larger. 
;

_refine_ls_structure_factor_coef Fsqd
_refine_ls_matrix_type           full
_refine_ls_weighting_scheme      calc
_refine_ls_weighting_details     
'calc w=1/[\s^2^(Fo^2^)+(0.0300P)^2^+10.8000P] where P=(Fo^2^+2Fc^2^)/3'
_atom_sites_solution_primary     direct
_atom_sites_solution_secondary   difmap
_atom_sites_solution_hydrogens   geom
_refine_ls_hydrogen_treatment    constr
_refine_ls_extinction_method     none
_refine_ls_extinction_coef       ?
_refine_ls_number_reflns         26567
_refine_ls_number_parameters     438
_refine_ls_number_restraints     144
_refine_ls_R_factor_all          0.1117
_refine_ls_R_factor_gt           0.0632
_refine_ls_wR_factor_ref         0.1399
_refine_ls_wR_factor_gt          0.1321
_refine_ls_goodness_of_fit_ref   1.000
_refine_ls_restrained_S_all      1.004
_refine_ls_shift/su_max          0.001
_refine_ls_shift/su_mean         0.000

loop_
_atom_site_label
_atom_site_type_symbol
_atom_site_fract_x
_atom_site_fract_y
_atom_site_fract_z
_atom_site_U_iso_or_equiv
_atom_site_adp_type
_atom_site_occupancy
_atom_site_symmetry_multiplicity
_atom_site_calc_flag
_atom_site_refinement_flags
_atom_site_disorder_assembly
_atom_site_disorder_group
Fe1 Fe 0.17181(2) 0.65951(2) 0.108720(14) 0.06341(17) Uani 1 1 d . . .
Fe2 Fe 0.29304(2) 0.73408(2) 0.121374(14) 0.06373(17) Uani 1 1 d . . .
Fe3 Fe 0.25434(2) 0.59545(2) 0.174614(15) 0.06748(17) Uani 1 1 d . . .
O1 O 0.16389(10) 0.76830(11) 0.10398(6) 0.0689(7) Uani 1 1 d . . .
O2 O 0.24175(11) 0.81835(10) 0.12217(7) 0.0797(9) Uani 1 1 d . . .
O3 O -0.17847(10) 1.09803(11) 0.30484(7) 0.0702(7) Uani 1 1 d . . .
O4 O -0.12819(8) 1.16880(11) 0.34205(6) 0.0605(6) Uani 1 1 d . . .
O5 O 0.16149(10) 1.54916(11) 0.11210(6) 0.0693(7) Uani 1 1 d . . .
O6 O 0.23457(11) 1.50943(11) 0.14293(8) 0.0767(8) Uani 1 1 d . . .
O7 O 0.02642(15) 1.28932(14) 0.19393(11) 0.1396(14) Uani 1 1 d . . .
H7 H -0.0046 1.2841 0.2032 0.167 Uiso 1 1 calc R . .
O8 O 0.20848(10) 0.64478(10) 0.05783(6) 0.0658(7) Uani 1 1 d . . .
O9 O 0.28094(10) 0.71668(12) 0.06651(7) 0.0710(7) Uani 1 1 d . . .
O10 O 0.27493(10) 0.82753(13) -0.28831(7) 0.0767(7) Uani 1 1 d . . .
O11 O 0.31252(10) 0.74143(13) -0.32542(7) 0.0869(8) Uani 1 1 d . . .
O12 O 0.66796(9) 0.42070(12) -0.16131(7) 0.0737(7) Uani 1 1 d . . .
O13 O 0.64471(9) 0.33684(12) -0.11850(7) 0.0754(7) Uani 1 1 d . . .
O14 O 0.42032(19) 0.5079(4) -0.06187(14) 0.225(2) Uani 1 1 d . . .
H14 H 0.4503 0.5268 -0.0562 0.270 Uiso 1 1 calc R . .
O15 O 0.10034(10) 0.65706(12) 0.07909(7) 0.0839(8) Uani 1 1 d . . .
O16 O 0.34901(10) 0.81058(12) 0.10559(7) 0.0862(8) Uani 1 1 d . . .
O17 O 0.26862(10) 0.52231(13) 0.21752(8) 0.0973(9) Uani 1 1 d . . .
O18 O 0.23818(8) 0.66408(9) 0.13471(6) 0.0572(6) Uani 1 1 d . . .
C1 C 0.19136(18) 0.82100(16) 0.11517(11) 0.0704(13) Uani 1 1 d . . .
C2 C -0.13812(15) 1.13674(16) 0.31135(10) 0.0581(10) Uani 1 1 d . . .
C3 C 0.1894(2) 1.50072(18) 0.12859(12) 0.0738(13) Uani 1 1 d . . .
C4 C 0.25330(17) 0.66972(19) 0.04818(10) 0.0634(10) Uani 1 1 d . . .
C5 C 0.29927(13) 0.7665(2) -0.29333(11) 0.0660(10) Uani 1 1 d . . .
C6 C 0.63581(14) 0.39198(19) -0.13742(11) 0.0735(11) Uani 1 1 d . . .
C1A C 0.16422(13) 0.89114(14) 0.12403(9) 0.0783(5) Uani 1 1 d D . .
C2A C 0.10814(13) 0.89500(14) 0.12495(8) 0.0783(5) Uani 1 1 d D . .
H2A H 0.0869 0.8533 0.1192 0.094 Uiso 1 1 calc R . .
C3A C 0.08307(13) 0.96065(14) 0.13435(8) 0.0783(5) Uani 1 1 d D . .
H3A H 0.0447 0.9632 0.1353 0.094 Uiso 1 1 calc R . .
C4A C 0.11369(14) 1.02214(14) 0.14237(10) 0.0783(5) Uani 1 1 d D . .
C5A C 0.17031(13) 1.01691(14) 0.14148(9) 0.0783(5) Uani 1 1 d D . .
H5A H 0.1917 1.0586 0.1470 0.094 Uiso 1 1 calc R . .
C6A C 0.19580(13) 0.95126(14) 0.13255(9) 0.0783(5) Uani 1 1 d D . .
H6A H 0.2342 0.9480 0.1323 0.094 Uiso 1 1 calc R . .
C1B C 0.08876(12) 1.09168(14) 0.15555(9) 0.0749(5) Uani 1 1 d D . .
C2B C 0.04499(11) 1.09128(14) 0.18067(8) 0.0749(5) Uani 1 1 d D . .
H2B H 0.0299 1.0464 0.1888 0.090 Uiso 1 1 calc R . .
C3B C 0.02345(12) 1.15717(15) 0.19381(8) 0.0749(5) Uani 1 1 d D . .
C4B C 0.04575(13) 1.22245(14) 0.18191(9) 0.0749(5) Uani 1 1 d D . .
C5B C 0.08919(13) 1.22329(14) 0.15677(9) 0.0749(5) Uani 1 1 d D . .
C6B C 0.11050(12) 1.15810(14) 0.14390(9) 0.0749(5) Uani 1 1 d D . .
H6B H 0.1403 1.1586 0.1269 0.090 Uiso 1 1 calc R . .
C1C C -0.01981(12) 1.15439(14) 0.22346(9) 0.0722(5) Uani 1 1 d D . .
C2C C -0.06655(12) 1.11335(13) 0.21780(9) 0.0722(5) Uani 1 1 d D . .
H2C H -0.0722 1.0886 0.1945 0.087 Uiso 1 1 calc R . .
C3C C -0.10498(12) 1.10874(14) 0.24654(9) 0.0722(5) Uani 1 1 d D . .
H3C H -0.1370 1.0810 0.2427 0.087 Uiso 1 1 calc R . .
C4C C -0.09667(13) 1.14450(15) 0.28084(9) 0.0722(5) Uani 1 1 d D . .
C5C C -0.05063(13) 1.18543(15) 0.28625(9) 0.0722(5) Uani 1 1 d D . .
H5C H -0.0451 1.2104 0.3095 0.087 Uiso 1 1 calc R . .
C6C C -0.01174(13) 1.19028(15) 0.25730(9) 0.0722(5) Uani 1 1 d D . .
H6C H 0.0201 1.2184 0.2611 0.087 Uiso 1 1 calc R . .
C1D C 0.11450(14) 1.29310(15) 0.14454(9) 0.0828(6) Uani 1 1 d D . .
C2D C 0.08453(13) 1.35029(15) 0.12977(8) 0.0828(6) Uani 1 1 d D . .
H2D H 0.0470 1.3440 0.1245 0.099 Uiso 1 1 calc R . .
C3D C 0.10939(14) 1.41721(15) 0.12257(9) 0.0828(6) Uani 1 1 d D . .
H3D H 0.0888 1.4563 0.1123 0.099 Uiso 1 1 calc R . .
C4D C 0.16324(14) 1.42646(15) 0.13035(10) 0.0828(6) Uani 1 1 d D . .
C5D C 0.19424(13) 1.36928(15) 0.14513(10) 0.0828(6) Uani 1 1 d D . .
H5D H 0.2317 1.3759 0.1505 0.099 Uiso 1 1 calc R . .
C6D C 0.16956(14) 1.30276(15) 0.15180(10) 0.0828(6) Uani 1 1 d D . .
H6D H 0.1904 1.2633 0.1614 0.099 Uiso 1 1 calc R . .
C1E C 0.27831(15) 0.64261(18) 0.01245(10) 0.0877(6) Uani 1 1 d D . .
C2E C 0.33348(14) 0.65401(16) 0.00656(9) 0.0877(6) Uani 1 1 d D . .
H2E H 0.3550 0.6769 0.0255 0.105 Uiso 1 1 calc R . .
C3E C 0.35665(14) 0.63151(18) -0.02731(10) 0.0877(6) Uani 1 1 d D . .
H3E H 0.3942 0.6393 -0.0314 0.105 Uiso 1 1 calc R . .
C4E C 0.32603(15) 0.5982(2) -0.05499(10) 0.0877(6) Uani 1 1 d D . .
C5E C 0.27089(14) 0.58678(19) -0.04891(9) 0.0877(6) Uani 1 1 d D . .
H5E H 0.2493 0.5637 -0.0678 0.105 Uiso 1 1 calc R . .
C6E C 0.24777(14) 0.60920(19) -0.01524(10) 0.0877(6) Uani 1 1 d D . .
H6E H 0.2102 0.6014 -0.0112 0.105 Uiso 1 1 calc R . .
C1F C 0.35208(14) 0.58252(19) -0.09275(9) 0.0913(6) Uani 1 1 d D . .
C2F C 0.33159(13) 0.61357(18) -0.12540(9) 0.0913(6) Uani 1 1 d D . .
H2F H 0.2990 0.6410 -0.1244 0.110 Uiso 1 1 calc R . .
C3F C 0.35819(14) 0.60515(19) -0.16002(9) 0.0913(6) Uani 1 1 d D . .
C4F C 0.40612(14) 0.5648(2) -0.16045(9) 0.0913(6) Uani 1 1 d D . .
H4F H 0.4248 0.5592 -0.1837 0.110 Uiso 1 1 calc R . .
C5F C 0.42708(14) 0.5331(2) -0.12830(10) 0.0913(6) Uani 1 1 d D . .
C6F C 0.39900(15) 0.5422(2) -0.09429(10) 0.0913(6) Uani 1 1 d D . .
C1G C 0.33923(14) 0.6435(2) -0.19413(10) 0.0938(6) Uani 1 1 d D . .
C2G C 0.32011(12) 0.71492(19) -0.19143(10) 0.0938(6) Uani 1 1 d D . .
H2G H 0.3163 0.7365 -0.1671 0.113 Uiso 1 1 calc R . .
C3G C 0.30655(13) 0.75519(19) -0.22356(10) 0.0938(6) Uani 1 1 d D . .
H3G H 0.2934 0.8036 -0.2212 0.113 Uiso 1 1 calc R . .
C4G C 0.31242(15) 0.7238(2) -0.25927(10) 0.0938(6) Uani 1 1 d D . .
C5G C 0.33131(15) 0.6532(2) -0.26206(10) 0.0938(6) Uani 1 1 d D . .
H5G H 0.3356 0.6317 -0.2864 0.113 Uiso 1 1 calc R . .
C6G C 0.34391(15) 0.61372(19) -0.23017(10) 0.0938(6) Uani 1 1 d D . .
H6G H 0.3561 0.5650 -0.2328 0.113 Uiso 1 1 calc R . .
C1H C 0.48088(13) 0.49549(19) -0.12920(9) 0.0871(5) Uani 1 1 d D . .
C2H C 0.52116(13) 0.52701(18) -0.15096(8) 0.0871(5) Uani 1 1 d D . .
H2H H 0.5147 0.5718 -0.1637 0.105 Uiso 1 1 calc R . .
C3H C 0.57121(13) 0.49264(18) -0.15408(9) 0.0871(5) Uani 1 1 d D . .
H3H H 0.5988 0.5142 -0.1690 0.105 Uiso 1 1 calc R . .
C4H C 0.58129(13) 0.42723(19) -0.13560(10) 0.0871(5) Uani 1 1 d D . .
C5H C 0.54050(14) 0.39667(19) -0.11391(10) 0.0871(5) Uani 1 1 d D . .
H5H H 0.5468 0.3522 -0.1009 0.105 Uiso 1 1 calc R . .
C6H C 0.49052(14) 0.43066(19) -0.11109(10) 0.0871(5) Uani 1 1 d D . .
H6H H 0.4627 0.4088 -0.0965 0.105 Uiso 1 1 calc R . .

loop_
_atom_site_aniso_label
_atom_site_aniso_U_11
_atom_site_aniso_U_22
_atom_site_aniso_U_33
_atom_site_aniso_U_23
_atom_site_aniso_U_13
_atom_site_aniso_U_12
Fe1 0.0850(4) 0.0282(2) 0.0776(4) 0.0002(2) 0.0442(3) 0.0011(2)
Fe2 0.0790(4) 0.0348(2) 0.0778(4) -0.0014(2) 0.0436(3) -0.0003(2)
Fe3 0.0777(4) 0.0383(3) 0.0870(4) 0.0071(3) 0.0432(3) 0.0056(2)
O1 0.0926(18) 0.0341(12) 0.0805(17) -0.0071(12) 0.0407(14) 0.0057(13)
O2 0.091(2) 0.0220(11) 0.127(2) -0.0032(12) 0.0587(18) -0.0004(12)
O3 0.0792(17) 0.0368(12) 0.0952(18) -0.0105(12) 0.0474(14) -0.0057(12)
O4 0.0699(15) 0.0431(12) 0.0687(16) -0.0059(12) 0.0307(13) -0.0104(11)
O5 0.1004(19) 0.0316(12) 0.0763(17) 0.0045(12) 0.0344(14) -0.0071(12)
O6 0.0710(18) 0.0357(13) 0.124(2) 0.0019(13) 0.0409(17) 0.0012(13)
O7 0.162(3) 0.0638(18) 0.194(3) 0.0071(19) 0.112(3) 0.0103(18)
O8 0.0836(17) 0.0422(12) 0.0720(16) 0.0000(11) 0.0383(14) 0.0086(12)
O9 0.0907(18) 0.0492(14) 0.0735(17) 0.0013(13) 0.0381(14) -0.0094(13)
O10 0.0934(19) 0.0629(16) 0.0742(17) 0.0020(13) 0.0244(14) 0.0051(14)
O11 0.102(2) 0.0822(18) 0.0771(18) 0.0025(14) 0.0462(16) 0.0205(15)
O12 0.0657(16) 0.0604(14) 0.0955(18) 0.0202(13) 0.0332(14) 0.0178(12)
O13 0.0772(17) 0.0499(14) 0.0995(19) 0.0203(14) 0.0440(14) 0.0131(12)
O14 0.189(5) 0.324(7) 0.163(4) 0.009(4) 0.048(3) 0.107(5)
O15 0.0982(19) 0.0523(14) 0.1017(19) 0.0083(13) 0.0295(16) -0.0080(13)
O16 0.0980(19) 0.0573(14) 0.104(2) 0.0023(14) 0.0444(16) -0.0143(13)
O17 0.095(2) 0.0792(17) 0.118(2) 0.0331(16) 0.0443(17) 0.0161(15)
O18 0.0792(16) 0.0211(9) 0.0719(15) 0.0046(10) 0.0437(12) 0.0053(10)
C1 0.101(3) 0.0234(17) 0.088(3) -0.0001(17) 0.063(3) 0.0032(19)
C2 0.079(3) 0.0285(17) 0.067(3) -0.0049(17) 0.031(2) 0.0011(17)
C3 0.102(3) 0.0279(19) 0.092(3) 0.002(2) 0.062(3) -0.001(2)
C4 0.089(3) 0.047(2) 0.054(2) 0.0071(18) 0.030(2) 0.020(2)
C5 0.050(2) 0.073(2) 0.075(3) 0.019(2) 0.010(2) 0.0054(19)
C6 0.066(2) 0.055(2) 0.100(3) 0.003(2) 0.046(2) 0.0137(19)
C1A 0.0915(11) 0.0288(6) 0.1152(12) -0.0045(8) 0.0572(10) -0.0007(7)
C2A 0.0915(11) 0.0288(6) 0.1152(12) -0.0045(8) 0.0572(10) -0.0007(7)
C3A 0.0915(11) 0.0288(6) 0.1152(12) -0.0045(8) 0.0572(10) -0.0007(7)
C4A 0.0915(11) 0.0288(6) 0.1152(12) -0.0045(8) 0.0572(10) -0.0007(7)
C5A 0.0915(11) 0.0288(6) 0.1152(12) -0.0045(8) 0.0572(10) -0.0007(7)
C6A 0.0915(11) 0.0288(6) 0.1152(12) -0.0045(8) 0.0572(10) -0.0007(7)
C1B 0.0897(11) 0.0294(6) 0.1062(11) -0.0017(8) 0.0599(9) 0.0001(7)
C2B 0.0897(11) 0.0294(6) 0.1062(11) -0.0017(8) 0.0599(9) 0.0001(7)
C3B 0.0897(11) 0.0294(6) 0.1062(11) -0.0017(8) 0.0599(9) 0.0001(7)
C4B 0.0897(11) 0.0294(6) 0.1062(11) -0.0017(8) 0.0599(9) 0.0001(7)
C5B 0.0897(11) 0.0294(6) 0.1062(11) -0.0017(8) 0.0599(9) 0.0001(7)
C6B 0.0897(11) 0.0294(6) 0.1062(11) -0.0017(8) 0.0599(9) 0.0001(7)
C1C 0.0840(11) 0.0397(8) 0.0936(12) -0.0077(7) 0.0469(9) -0.0067(7)
C2C 0.0840(11) 0.0397(8) 0.0936(12) -0.0077(7) 0.0469(9) -0.0067(7)
C3C 0.0840(11) 0.0397(8) 0.0936(12) -0.0077(7) 0.0469(9) -0.0067(7)
C4C 0.0840(11) 0.0397(8) 0.0936(12) -0.0077(7) 0.0469(9) -0.0067(7)
C5C 0.0840(11) 0.0397(8) 0.0936(12) -0.0077(7) 0.0469(9) -0.0067(7)
C6C 0.0840(11) 0.0397(8) 0.0936(12) -0.0077(7) 0.0469(9) -0.0067(7)
C1D 0.0950(12) 0.0309(7) 0.1231(13) 0.0018(8) 0.0558(12) 0.0022(8)
C2D 0.0950(12) 0.0309(7) 0.1231(13) 0.0018(8) 0.0558(12) 0.0022(8)
C3D 0.0950(12) 0.0309(7) 0.1231(13) 0.0018(8) 0.0558(12) 0.0022(8)
C4D 0.0950(12) 0.0309(7) 0.1231(13) 0.0018(8) 0.0558(12) 0.0022(8)
C5D 0.0950(12) 0.0309(7) 0.1231(13) 0.0018(8) 0.0558(12) 0.0022(8)
C6D 0.0950(12) 0.0309(7) 0.1231(13) 0.0018(8) 0.0558(12) 0.0022(8)
C1E 0.0826(13) 0.1058(13) 0.0749(12) 0.0012(10) 0.0287(10) 0.0233(11)
C2E 0.0826(13) 0.1058(13) 0.0749(12) 0.0012(10) 0.0287(10) 0.0233(11)
C3E 0.0826(13) 0.1058(13) 0.0749(12) 0.0012(10) 0.0287(10) 0.0233(11)
C4E 0.0826(13) 0.1058(13) 0.0749(12) 0.0012(10) 0.0287(10) 0.0233(11)
C5E 0.0826(13) 0.1058(13) 0.0749(12) 0.0012(10) 0.0287(10) 0.0233(11)
C6E 0.0826(13) 0.1058(13) 0.0749(12) 0.0012(10) 0.0287(10) 0.0233(11)
C1F 0.0859(12) 0.1261(15) 0.0623(11) 0.0093(10) 0.0226(10) 0.0397(10)
C2F 0.0859(12) 0.1261(15) 0.0623(11) 0.0093(10) 0.0226(10) 0.0397(10)
C3F 0.0859(12) 0.1261(15) 0.0623(11) 0.0093(10) 0.0226(10) 0.0397(10)
C4F 0.0859(12) 0.1261(15) 0.0623(11) 0.0093(10) 0.0226(10) 0.0397(10)
C5F 0.0859(12) 0.1261(15) 0.0623(11) 0.0093(10) 0.0226(10) 0.0397(10)
C6F 0.0859(12) 0.1261(15) 0.0623(11) 0.0093(10) 0.0226(10) 0.0397(10)
C1G 0.1166(14) 0.0967(13) 0.0684(11) 0.0031(10) 0.0232(11) 0.0338(11)
C2G 0.1166(14) 0.0967(13) 0.0684(11) 0.0031(10) 0.0232(11) 0.0338(11)
C3G 0.1166(14) 0.0967(13) 0.0684(11) 0.0031(10) 0.0232(11) 0.0338(11)
C4G 0.1166(14) 0.0967(13) 0.0684(11) 0.0031(10) 0.0232(11) 0.0338(11)
C5G 0.1166(14) 0.0967(13) 0.0684(11) 0.0031(10) 0.0232(11) 0.0338(11)
C6G 0.1166(14) 0.0967(13) 0.0684(11) 0.0031(10) 0.0232(11) 0.0338(11)
C1H 0.0800(12) 0.0912(12) 0.0905(13) 0.0181(9) 0.0373(10) 0.0225(9)
C2H 0.0800(12) 0.0912(12) 0.0905(13) 0.0181(9) 0.0373(10) 0.0225(9)
C3H 0.0800(12) 0.0912(12) 0.0905(13) 0.0181(9) 0.0373(10) 0.0225(9)
C4H 0.0800(12) 0.0912(12) 0.0905(13) 0.0181(9) 0.0373(10) 0.0225(9)
C5H 0.0800(12) 0.0912(12) 0.0905(13) 0.0181(9) 0.0373(10) 0.0225(9)
C6H 0.0800(12) 0.0912(12) 0.0905(13) 0.0181(9) 0.0373(10) 0.0225(9)

_geom_special_details            
; 
 All esds (except the esd in the dihedral angle between two l.s. planes) 
 are estimated using the full covariance matrix.  The cell esds are taken 
 into account individually in the estimation of esds in distances, angles 
 and torsion angles; correlations between esds in cell parameters are only 
 used when they are defined by crystal symmetry.  An approximate (isotropic) 
 treatment of cell esds is used for estimating esds involving l.s. planes. 
;

loop_
_geom_bond_atom_site_label_1
_geom_bond_atom_site_label_2
_geom_bond_distance
_geom_bond_site_symmetry_2
_geom_bond_publ_flag
Fe1 O18 1.874(2) . ?
Fe1 O1 2.015(2) . ?
Fe1 O8 2.033(2) . ?
Fe1 O15 2.045(3) . ?
Fe1 O5 2.047(2) 1_545 ?
Fe1 O4 2.055(2) 2_545 ?
Fe2 O18 1.9281(18) . ?
Fe2 O9 1.981(3) . ?
Fe2 O11 1.985(3) 4_576 ?
Fe2 O2 2.001(2) . ?
Fe2 O13 2.018(2) 3_665 ?
Fe2 O16 2.051(2) . ?
Fe3 O18 1.929(2) . ?
Fe3 O10 1.991(2) 4_576 ?
Fe3 O6 1.994(3) 1_545 ?
Fe3 O12 2.000(2) 3_665 ?
Fe3 O3 2.013(2) 2_545 ?
Fe3 O17 2.052(3) . ?
O1 C1 1.245(4) . ?
O2 C1 1.268(4) . ?
O3 C2 1.244(4) . ?
O3 Fe3 2.013(2) 2 ?
O4 C2 1.255(4) . ?
O4 Fe1 2.055(2) 2 ?
O5 C3 1.265(5) . ?
O5 Fe1 2.047(2) 1_565 ?
O6 C3 1.231(5) . ?
O6 Fe3 