####################################################################### 
# 
# This file contains crystal structure data downloaded from the 
# Cambridge Structural Database (CSD) hosted by the Cambridge 
# Crystallographic Data Centre (CCDC).
# 
# Full information about CCDC data access policies and citation 
# guidelines are available at http://www.ccdc.cam.ac.uk/access/V1 
# 
# Audit and citation data items may have been added by the CCDC. 
# Please retain this information to preserve the provenance of 
# this file and to allow appropriate attribution of the data. 
# 
#######################################################################

data_p21c_sq
_audit_block_doi                 10.5517/cc11rf5d
_database_code_depnum_ccdc_archive 'CCDC 975823'
loop_
_citation_id
_citation_doi
_citation_year
1 10.1038/ncomms6723 2014
_audit_update_record             
;
2013-12-07 deposited with the CCDC.	2024-07-13 downloaded from the CCDC.
;

_audit_creation_method           SHELXL-97
_chemical_name_systematic        
; 
 ? 
;
_chemical_name_common            ?
_chemical_melting_point          ?
_chemical_formula_moiety         '(Fe3 O4) (C33 H27 O7)2'
_chemical_formula_sum            'C66 H54 Fe3 O18'
_chemical_formula_weight         1302.64

loop_
_atom_type_symbol
_atom_type_description
_atom_type_scat_dispersion_real
_atom_type_scat_dispersion_imag
_atom_type_scat_source
C C 0.0033 0.0016 'International Tables Vol C Tables 4.2.6.8 and 6.1.1.4'
H H 0.0000 0.0000 'International Tables Vol C Tables 4.2.6.8 and 6.1.1.4'
Fe Fe 0.3463 0.8444 'International Tables Vol C Tables 4.2.6.8 and 6.1.1.4'
O O 0.0106 0.0060 'International Tables Vol C Tables 4.2.6.8 and 6.1.1.4'

_symmetry_cell_setting           Monoclinic
_symmetry_space_group_name_H-M   P2(1)/c

loop_
_symmetry_equiv_pos_as_xyz
'x, y, z'
'-x, y+1/2, -z+1/2'
'-x, -y, -z'
'x, -y-1/2, z-1/2'

_cell_length_a                   25.085(3)
_cell_length_b                   18.549(3)
_cell_length_c                   35.494(5)
_cell_angle_alpha                90.00
_cell_angle_beta                 91.607(2)
_cell_angle_gamma                90.00
_cell_volume                     16509(4)
_cell_formula_units_Z            4
_cell_measurement_temperature    110(2)
_cell_measurement_reflns_used    7352
_cell_measurement_theta_min      2.1799
_cell_measurement_theta_max      20.3207

_exptl_crystal_description       Bulk
_exptl_crystal_colour            Orange
_exptl_crystal_size_max          0.50
_exptl_crystal_size_mid          0.30
_exptl_crystal_size_min          0.20
_exptl_crystal_density_meas      'not measured'
_exptl_crystal_density_diffrn    0.524
_exptl_crystal_density_method    'not measured'
_exptl_crystal_F_000             2688
_exptl_absorpt_coefficient_mu    0.287
_exptl_absorpt_correction_type   multi-scan
_exptl_absorpt_correction_T_min  0.8698
_exptl_absorpt_correction_T_max  0.9448
_exptl_absorpt_process_details   'SADABS (Sheldrick, 2008)'

_exptl_special_details           
; 
 ? 
;

_diffrn_ambient_temperature      110(2)
_diffrn_radiation_wavelength     0.71073
_diffrn_radiation_type           MoK\a
_diffrn_radiation_source         'fine-focus sealed tube'
_diffrn_radiation_monochromator  graphite
_diffrn_measurement_device_type  'Bruker SMART APEX II CCD area detector'
_diffrn_measurement_method       'phi and omega scans'
_diffrn_detector_area_resol_mean ?
_diffrn_reflns_number            130129
_diffrn_reflns_av_R_equivalents  0.1060
_diffrn_reflns_av_sigmaI/netI    0.2442
_diffrn_reflns_limit_h_min       -30
_diffrn_reflns_limit_h_max       30
_diffrn_reflns_limit_k_min       -22
_diffrn_reflns_limit_k_max       22
_diffrn_reflns_limit_l_min       -43
_diffrn_reflns_limit_l_max       43
_diffrn_reflns_theta_min         1.59
_diffrn_reflns_theta_max         26.00
_reflns_number_total             32434
_reflns_number_gt                8479
_reflns_threshold_expression     >2sigma(I)

_computing_data_collection       'APEX2  (Bruker, 2008)'
_computing_cell_refinement       'SAINT+ ver. (Bruker, 2001)'
_computing_data_reduction        'SAINT+ ver. (Bruker, 2001)'
_computing_structure_solution    'SHELXS-97 (Sheldrick, 2008)'
_computing_structure_refinement  'SHELXL-97 (Sheldrick, 2008)'
_computing_molecular_graphics    'SHELXTL (Sheldrick, 2008)'
_computing_publication_material  'SHELXTL (Sheldrick, 2008)'

_refine_special_details          
; 
 Refinement of F^2^ against ALL reflections.  The weighted R-factor wR and 
 goodness of fit S are based on F^2^, conventional R-factors R are based 
 on F, with F set to zero for negative F^2^. The threshold expression of 
 F^2^ > 2sigma(F^2^) is used only for calculating R-factors(gt) etc. and is 
 not relevant to the choice of reflections for refinement.  R-factors based 
 on F^2^ are statistically about twice as large as those based on F, and R- 
 factors based on ALL data will be even larger. 
;

_refine_ls_structure_factor_coef Fsqd
_refine_ls_matrix_type           full
_refine_ls_weighting_scheme      calc
_refine_ls_weighting_details     
'calc w=1/[\s^2^(Fo^2^)+(0.0135P)^2^+2.2000P] where P=(Fo^2^+2Fc^2^)/3'
_atom_sites_solution_primary     direct
_atom_sites_solution_secondary   difmap
_atom_sites_solution_hydrogens   geom
_refine_ls_hydrogen_treatment    constr
_refine_ls_extinction_method     none
_refine_ls_extinction_coef       ?
_refine_ls_number_reflns         32434
_refine_ls_number_parameters     628
_refine_ls_number_restraints     19
_refine_ls_R_factor_all          0.1546
_refine_ls_R_factor_gt           0.0575
_refine_ls_wR_factor_ref         0.1253
_refine_ls_wR_factor_gt          0.1214
_refine_ls_goodness_of_fit_ref   0.996
_refine_ls_restrained_S_all      1.002
_refine_ls_shift/su_max          5.262
_refine_ls_shift/su_mean         0.008

loop_
_atom_site_label
_atom_site_type_symbol
_atom_site_fract_x
_atom_site_fract_y
_atom_site_fract_z
_atom_site_U_iso_or_equiv
_atom_site_adp_type
_atom_site_occupancy
_atom_site_symmetry_multiplicity
_atom_site_calc_flag
_atom_site_refinement_flags
_atom_site_disorder_assembly
_atom_site_disorder_group
Fe1 Fe 0.29576(3) 0.27735(3) 0.373486(18) 0.0642(2) Uani 1 1 d . . .
Fe2 Fe 0.17759(3) 0.35149(3) 0.384853(18) 0.0643(2) Uani 1 1 d . . .
Fe3 Fe 0.25669(3) 0.41146(3) 0.319368(18) 0.0676(2) Uani 1 1 d . . .
O1 O 0.16812(12) 0.24389(14) 0.39106(8) 0.0714(10) Uani 1 1 d . . .
O2 O 0.24665(13) 0.19458(16) 0.37419(10) 0.0864(13) Uani 1 1 d . . .
O3 O -0.18161(12) -0.09309(15) 0.20343(8) 0.0753(10) Uani 1 1 d . . .
O4 O -0.13303(11) -0.15750(15) 0.16398(9) 0.0684(10) Uani 1 1 d . . .
O5 O 0.16743(12) -0.54017(15) 0.38120(9) 0.0738(10) Uani 1 1 d . . .
O6 O 0.23787(13) -0.50043(16) 0.34835(10) 0.0773(12) Uani 1 1 d . . .
O7 O 0.16095(14) -0.15050(17) 0.38714(16) 0.219(3) Uani 1 1 d . . .
O8 O 0.21534(12) 0.36421(14) 0.43610(8) 0.0706(10) Uani 1 1 d . . .
O9 O 0.28774(13) 0.29656(16) 0.42836(8) 0.0778(11) Uani 1 1 d . . .
O10 O 0.64131(11) 0.65399(17) 0.62512(9) 0.0826(11) Uani 1 1 d . . .
O11 O 0.66666(12) 0.56905(14) 0.66565(8) 0.0732(10) Uani 1 1 d . . .
O12 O 0.31344(13) 0.25126(16) 0.82132(9) 0.0908(12) Uani 1 1 d . . .
O13 O 0.27826(12) 0.16617(16) 0.78277(8) 0.0787(10) Uani 1 1 d . . .
O14 O 0.2742(2) 0.3587(3) 0.62284(12) 0.253(3) Uani 1 1 d D . .
C1 C 0.1982(2) 0.1922(3) 0.38074(14) 0.0722(19) Uani 1 1 d . . .
C2 C 0.16875(14) 0.12002(13) 0.37502(8) 0.0641(15) Uani 1 1 d G . .
C3 C 0.11394(14) 0.11211(15) 0.37809(8) 0.0876(18) Uani 1 1 d G . .
H3A H 0.0929 0.1518 0.3857 0.105 Uiso 1 1 calc R . .
C4 C 0.08996(10) 0.0461(2) 0.36999(8) 0.0863(17) Uani 1 1 d G . .
H4A H 0.0525 0.0407 0.3721 0.104 Uiso 1 1 calc R . .
C5 C 0.12079(15) -0.01191(13) 0.35882(8) 0.0723(16) Uani 1 1 d G . .
C6 C 0.17560(15) -0.00400(15) 0.35575(8) 0.0841(17) Uani 1 1 d G . .
H6A H 0.1967 -0.0437 0.3481 0.101 Uiso 1 1 calc R . .
C7 C 0.19958(10) 0.0620(2) 0.36385(8) 0.0874(17) Uani 1 1 d G . .
H7A H 0.2370 0.0674 0.3617 0.105 Uiso 1 1 calc R . .
C8 C 0.09620(13) -0.08200(13) 0.34592(9) 0.0752(15) Uani 1 1 d G . .
C9 C 0.05156(13) -0.08022(13) 0.32184(8) 0.0874(17) Uani 1 1 d G . .
H9A H 0.0365 -0.0353 0.3143 0.105 Uiso 1 1 calc R . .
C10 C 0.02893(10) -0.14420(19) 0.30873(8) 0.0753(15) Uani 1 1 d G . .
C11 C 0.05095(13) -0.20995(14) 0.31969(9) 0.0882(17) Uani 1 1 d G . .
H11A H 0.0355 -0.2537 0.3107 0.106 Uiso 1 1 calc R . .
C12 C 0.09560(13) -0.21173(13) 0.34377(9) 0.0792(16) Uani 1 1 d G . .
C13 C 0.11823(10) -0.14776(18) 0.35688(8) 0.0792(16) Uani 1 1 d G . .
C14 C 0.1942(2) -0.4918(3) 0.36434(15) 0.0706(19) Uani 1 1 d . . .
C15 C 0.16805(16) -0.41716(14) 0.36371(9) 0.0689(15) Uani 1 1 d G . .
C16 C 0.19784(10) -0.3603(2) 0.34987(9) 0.105(2) Uani 1 1 d G . .
H16A H 0.2341 -0.3676 0.3438 0.126 Uiso 1 1 calc R . .
C17 C 0.17458(16) -0.29284(16) 0.34491(8) 0.1032(19) Uani 1 1 d G . .
H17A H 0.1949 -0.2540 0.3354 0.124 Uiso 1 1 calc R . .
C18 C 0.12154(16) -0.28221(14) 0.35379(9) 0.0718(15) Uani 1 1 d G . .
C19 C 0.09176(11) -0.3391(2) 0.36763(9) 0.0941(17) Uani 1 1 d G . .
H19A H 0.0555 -0.3318 0.3737 0.113 Uiso 1 1 calc R . .
C20 C 0.11501(15) -0.40653(17) 0.37259(8) 0.108(2) Uani 1 1 d G . .
H20A H 0.0947 -0.4454 0.3820 0.130 Uiso 1 1 calc R . .
C21 C -0.1401(2) -0.1286(3) 0.19479(16) 0.0711(18) Uani 1 1 d . . .
C22 C -0.09700(12) -0.13372(18) 0.22460(9) 0.0637(14) Uani 1 1 d G . .
C23 C -0.05353(16) -0.17878(15) 0.21943(8) 0.0772(16) Uani 1 1 d G . .
H23A H -0.0515 -0.2069 0.1972 0.093 Uiso 1 1 calc R . .
C24 C -0.01298(11) -0.18265(14) 0.24685(11) 0.0877(17) Uani 1 1 d G . .
H24A H 0.0167 -0.2134 0.2433 0.105 Uiso 1 1 calc R . .
C25 C -0.01588(12) -0.14146(18) 0.27945(9) 0.0764(16) Uani 1 1 d G . .
C26 C -0.05934(16) -0.09640(15) 0.28462(8) 0.0941(18) Uani 1 1 d G . .
H26A H -0.0613 -0.0683 0.3069 0.113 Uiso 1 1 calc R . .
C27 C -0.09990(11) -0.09253(15) 0.25720(11) 0.0856(16) Uani 1 1 d G . .
H27A H -0.1296 -0.0617 0.2607 0.103 Uiso 1 1 calc R . .
C31 C 0.2612(2) 0.3392(3) 0.44689(15) 0.0729(17) Uani 1 1 d . . .
C32 C 0.28251(19) 0.36325(17) 0.48348(8) 0.0640(14) Uani 1 1 d G . .
C33 C 0.25120(11) 0.39575(17) 0.51036(13) 0.0892(17) Uani 1 1 d G . .
H33A H 0.2146 0.4051 0.5049 0.107 Uiso 1 1 calc R . .
C34 C 0.27351(17) 0.41462(16) 0.54527(10) 0.0962(18) Uani 1 1 d G . .
H34A H 0.2521 0.4368 0.5636 0.115 Uiso 1 1 calc R . .
C35 C 0.32712(18) 0.40100(18) 0.55330(9) 0.0771(16) Uani 1 1 d G . .
C36 C 0.35842(11) 0.36850(19) 0.52643(14) 0.108(2) Uani 1 1 d G . .
H36A H 0.3951 0.3592 0.5319 0.130 Uiso 1 1 calc R . .
C37 C 0.33612(18) 0.34963(16) 0.49152(11) 0.1014(18) Uani 1 1 d G . .
H37A H 0.3575 0.3274 0.4731 0.122 Uiso 1 1 calc R . .
C38 C 0.40060(17) 0.45399(18) 0.59423(10) 0.111(2) Uani 1 1 d G . .
H38A H 0.4154 0.4751 0.5725 0.133 Uiso 1 1 calc R . .
C39 C 0.35269(16) 0.4165(2) 0.59116(9) 0.0877(17) Uani 1 1 d G . .
C40 C 0.33098(12) 0.38564(18) 0.62295(13) 0.0867(17) Uani 1 1 d G . .
C41 C 0.35718(17) 0.39225(18) 0.65781(10) 0.0835(17) Uani 1 1 d G . .
C42 C 0.40508(17) 0.4297(2) 0.66088(9) 0.0936(18) Uani 1 1 d G . .
H42A H 0.4230 0.4343 0.6847 0.112 Uiso 1 1 calc R . .
C43 C 0.42680(12) 0.46060(17) 0.62909(13) 0.0880(17) Uani 1 1 d G . .
C44 C 0.30130(19) 0.2266(3) 0.78857(15) 0.0743(16) Uani 1 1 d . . .
C45 C 0.31252(12) 0.2700(2) 0.75498(11) 0.0790(16) Uani 1 1 d G . .
C46 C 0.30866(12) 0.23913(15) 0.71932(15) 0.0932(18) Uani 1 1 d G . .
H46A H 0.2970 0.1906 0.7165 0.112 Uiso 1 1 calc R . .
C47 C 0.32178(13) 0.2792(3) 0.68783(10) 0.0943(18) Uani 1 1 d G . .
H47A H 0.3191 0.2582 0.6635 0.113 Uiso 1 1 calc R . .
C48 C 0.33877(13) 0.3502(3) 0.69199(11) 0.0913(17) Uani 1 1 d G . .
C49 C 0.34264(12) 0.38104(15) 0.72765(15) 0.108(2) Uani 1 1 d G . .
H49A H 0.3542 0.4295 0.7305 0.130 Uiso 1 1 calc R . .
C50 C 0.32951(13) 0.3409(2) 0.75915(9) 0.114(2) Uani 1 1 d G . .
H50A H 0.3322 0.3620 0.7835 0.137 Uiso 1 1 calc R . .
C51 C 0.6324(2) 0.5974(3) 0.64277(15) 0.0759(16) Uani 1 1 d . . .
C52 C 0.57978(12) 0.5626(2) 0.63903(10) 0.0717(15) Uani 1 1 d G . .
C53 C 0.56921(15) 0.5003(2) 0.65921(8) 0.110(2) Uani 1 1 d G . .
H53A H 0.5961 0.4797 0.6753 0.132 Uiso 1 1 calc R . .
C54 C 0.51932(18) 0.46790(15) 0.65589(9) 0.108(2) Uani 1 1 d G . .
H54A H 0.5121 0.4253 0.6697 0.130 Uiso 1 1 calc R . .
C55 C 0.48000(12) 0.4979(2) 0.63240(11) 0.0810(16) Uani 1 1 d G . .
C56 C 0.49057(15) 0.5603(2) 0.61222(8) 0.0984(19) Uani 1 1 d G . .
H56A H 0.4637 0.5808 0.5962 0.118 Uiso 1 1 calc R . .
C57 C 0.54046(18) 0.59263(15) 0.61553(9) 0.0974(18) Uani 1 1 d G . .
H57A H 0.5477 0.6353 0.6017 0.117 Uiso 1 1 calc R . .
C101 C 0.1269(7) -0.1522(18) 0.4285(4) 1.347(12) Uani 1 1 d D . .
H10A H 0.1200 -0.1040 0.4393 1.617 Uiso 1 1 calc R . .
H10B H 0.0940 -0.1818 0.4274 1.617 Uiso 1 1 calc R . .
C102 C 0.1749(9) -0.1905(8) 0.4460(4) 1.347(12) Uani 1 1 d D . .
H10C H 0.1682 -0.2016 0.4727 1.617 Uiso 1 1 calc R . .
H10D H 0.1807 -0.2365 0.4326 1.617 Uiso 1 1 calc R . .
C103 C 0.2237(7) -0.1445(13) 0.4437(4) 1.347(12) Uani 1 1 d D . .
H10E H 0.2197 -0.1100 0.4225 1.617 Uiso 1 1 calc R . .
H10F H 0.2553 -0.1751 0.4393 1.617 Uiso 1 1 calc R . .
C104 C 0.2310(9) -0.1040(9) 0.4807(4) 1.347(12) Uani 1 1 d D . .
H10G H 0.1970 -0.0800 0.4868 1.617 Uiso 1 1 calc R . .
H10H H 0.2583 -0.0661 0.4778 1.617 Uiso 1 1 calc R . .
C105 C 0.2482(10) -0.1542(12) 0.5139(4) 1.347(12) Uani 1 1 d D . .
H10I H 0.2350 -0.2036 0.5085 1.617 Uiso 1 1 calc R . .
H10J H 0.2876 -0.1562 0.5156 1.617 Uiso 1 1 calc R . .
C106 C 0.2274(9) -0.1299(14) 0.5517(3) 1.347(12) Uani 1 1 d D . .
H10K H 0.2377 -0.1651 0.5712 2.021 Uiso 1 1 calc R . .
H10L H 0.1884 -0.1262 0.5500 2.021 Uiso 1 1 calc R . .
H10M H 0.2427 -0.0828 0.5583 2.021 Uiso 1 1 calc R . .
C111 C 0.2300(5) 0.3873(10) 0.6438(5) 1.140(12) Uani 1 1 d D . .
H11B H 0.2363 0.4392 0.6486 1.367 Uiso 1 1 calc R . .
H11C H 0.2293 0.3628 0.6686 1.367 Uiso 1 1 calc R . .
C112 C 0.1775(5) 0.3789(7) 0.6248(5) 1.140(12) Uani 1 1 d D . .
H11D H 0.1769 0.4071 0.6011 1.367 Uiso 1 1 calc R . .
H11E H 0.1498 0.3988 0.6412 1.367 Uiso 1 1 calc R . .
C113 C 0.1643(5) 0.3026(9) 0.6159(5) 1.140(12) Uani 1 1 d D . .
H11F H 0.1957 0.2724 0.6225 1.367 Uiso 1 1 calc R . .
H11G H 0.1577 0.2984 0.5883 1.367 Uiso 1 1 calc R . .
C114 C 0.1163(6) 0.2724(9) 0.6357(4) 1.140(12) Uani 1 1 d D . .
H11H H 0.1259 0.2234 0.6447 1.367 Uiso 1 1 calc R . .
H11I H 0.1109 0.3023 0.6584 1.367 Uiso 1 1 calc R . .
C115 C 0.0635(5) 0.2668(9) 0.6150(5) 1.140(12) Uani 1 1 d D . .
H11M H 0.0679 0.2875 0.5895 1.367 Uiso 1 1 calc R . .
H11N H 0.0380 0.2981 0.6281 1.367 Uiso 1 1 calc R . .
C116 C 0.0382(5) 0.1945(10) 0.6102(6) 1.140(12) Uani 1 1 d D . .
H11J H 0.0036 0.1997 0.5969 1.709 Uiso 1 1 calc R . .
H11K H 0.0330 0.1728 0.6350 1.709 Uiso 1 1 calc R . .
H11L H 0.0614 0.1633 0.5955 1.709 Uiso 1 1 calc R . .
O1S O 0.24357(9) 0.34563(12) 0.35901(7) 0.0544(8) Uani 1 1 d . . .
O2S O 0.10531(11) 0.35527(14) 0.41356(7) 0.0835(9) Uani 1 1 d . . .
O3S O 0.27131(11) 0.48284(15) 0.27436(8) 0.0958(11) Uani 1 1 d . . .
O4S O 0.35314(10) 0.20047(13) 0.39068(7) 0.0800(9) Uani 1 1 d . . .

loop_
_atom_site_aniso_label
_atom_site_aniso_U_11
_atom_site_aniso_U_22
_atom_site_aniso_U_33
_atom_site_aniso_U_23
_atom_site_aniso_U_13
_atom_site_aniso_U_12
Fe1 0.0771(5) 0.0441(4) 0.0701(5) -0.0021(4) -0.0228(4) -0.0005(4)
Fe2 0.0830(6) 0.0351(4) 0.0733(5) 0.0001(4) -0.0243(4) -0.0007(4)
Fe3 0.0736(5) 0.0487(4) 0.0789(5) 0.0024(4) -0.0258(4) -0.0002(4)
O1 0.086(3) 0.0346(19) 0.092(3) -0.0023(18) -0.025(2) -0.0075(17)
O2 0.066(3) 0.049(2) 0.143(3) -0.0057(19) -0.024(3) -0.011(2)
O3 0.073(3) 0.057(2) 0.094(3) -0.0094(19) -0.041(2) -0.0013(18)
O4 0.071(2) 0.058(2) 0.075(2) -0.0058(19) -0.030(2) 0.0069(17)
O5 0.091(3) 0.0370(19) 0.092(3) 0.0043(19) -0.014(2) 0.0141(18)
O6 0.075(3) 0.042(2) 0.114(3) -0.002(2) -0.019(2) 0.007(2)
O7 0.131(4) 0.050(2) 0.467(8) 0.006(4) -0.150(4) 0.006(2)
O8 0.093(3) 0.054(2) 0.063(2) -0.0058(17) -0.021(2) 0.0015(19)
O9 0.113(3) 0.066(2) 0.053(2) -0.0013(19) -0.016(2) 0.015(2)
O10 0.064(2) 0.071(2) 0.111(3) 0.023(2) -0.033(2) -0.013(2)
O11 0.071(3) 0.055(2) 0.092(3) 0.0162(18) -0.020(2) -0.0081(17)
O12 0.116(3) 0.092(3) 0.063(2) 0.007(2) -0.029(2) -0.033(2)
O13 0.100(3) 0.062(2) 0.073(2) 0.012(2) -0.011(2) -0.009(2)
O14 0.333(7) 0.258(5) 0.160(4) 0.109(4) -0.130(4) -0.199(5)
C1 0.111(5) 0.032(3) 0.072(4) 0.006(3) -0.045(4) -0.010(4)
C2 0.075(4) 0.033(3) 0.083(4) 0.000(3) -0.028(3) 0.027(3)
C3 0.058(4) 0.038(3) 0.166(5) -0.007(3) -0.023(4) 0.004(3)
C4 0.087(4) 0.037(3) 0.133(5) -0.011(3) -0.021(3) 0.008(3)
C5 0.072(4) 0.053(4) 0.089(4) 0.012(3) -0.034(3) 0.005(3)
C6 0.103(5) 0.023(3) 0.124(5) -0.010(3) -0.031(4) 0.016(3)
C7 0.076(4) 0.060(4) 0.125(5) -0.019(3) -0.023(3) 0.011(3)
C8 0.101(4) 0.036(3) 0.086(4) 0.002(3) -0.041(3) -0.006(3)
C9 0.112(5) 0.048(3) 0.099(4) -0.001(3) -0.048(3) 0.005(3)
C10 0.086(4) 0.040(3) 0.097(4) -0.004(3) -0.056(3) -0.001(3)
C11 0.096(4) 0.045(3) 0.120(4) -0.013(3) -0.059(3) 0.009(3)
C12 0.092(4) 0.043(3) 0.100(4) -0.009(3) -0.044(3) -0.008(3)
C13 0.078(4) 0.038(3) 0.119(4) -0.008(3) -0.046(3) 0.005(3)
C14 0.099(5) 0.042(4) 0.068(5) 0.000(3) -0.043(4) 0.004(4)
C15 0.080(4) 0.035(3) 0.090(4) 0.016(3) -0.040(3) -0.003(3)
C16 0.095(4) 0.037(3) 0.181(6) 0.017(4) -0.043(4) 0.003(3)
C17 0.116(5) 0.042(4) 0.150(5) 0.014(3) -0.026(4) -0.012(3)
C18 0.059(4) 0.046(3) 0.109(4) -0.005(3) -0.026(3) -0.003(3)
C19 0.089(4) 0.051(3) 0.142(5) 0.000(4) -0.005(4) 0.004(4)
C20 0.099(5) 0.050(4) 0.175(6) 0.010(4) -0.008(4) 0.021(3)
C21 0.072(5) 0.050(4) 0.088(5) -0.004(3) -0.037(4) -0.003(3)
C22 0.079(4) 0.052(3) 0.059(4) -0.008(3) -0.014(3) -0.007(