####################################################################### 
# 
# This file contains crystal structure data downloaded from the 
# Cambridge Structural Database (CSD) hosted by the Cambridge 
# Crystallographic Data Centre (CCDC).
# 
# Full information about CCDC data access policies and citation 
# guidelines are available at http://www.ccdc.cam.ac.uk/access/V1 
# 
# Audit and citation data items may have been added by the CCDC. 
# Please retain this information to preserve the provenance of 
# this file and to allow appropriate attribution of the data. 
# 
#######################################################################

data_1
_audit_block_doi                 10.5517/cc11rf8h
_database_code_depnum_ccdc_archive 'CCDC 975826'
loop_
_citation_id
_citation_doi
_citation_year
1 10.1038/ncomms6723 2014
_audit_update_record             
;
2013-12-07 deposited with the CCDC.	2024-07-13 downloaded from the CCDC.
;

_audit_creation_method           SHELXL-97
_chemical_name_systematic        
; 
 ? 
;
_chemical_name_common            ?
_chemical_melting_point          ?
_chemical_formula_moiety         '(Fe3 O4) (C62 H44 O8)2'
_chemical_formula_sum            'C124 H88 Fe3 O20'
_chemical_formula_weight         2065.49

loop_
_atom_type_symbol
_atom_type_description
_atom_type_scat_dispersion_real
_atom_type_scat_dispersion_imag
_atom_type_scat_source
C C 0.0033 0.0016 'International Tables Vol C Tables 4.2.6.8 and 6.1.1.4'
H H 0.0000 0.0000 'International Tables Vol C Tables 4.2.6.8 and 6.1.1.4'
Fe Fe 0.3463 0.8444 'International Tables Vol C Tables 4.2.6.8 and 6.1.1.4'
O O 0.0106 0.0060 'International Tables Vol C Tables 4.2.6.8 and 6.1.1.4'

_symmetry_cell_setting           Orthorhombic
_symmetry_space_group_name_H-M   Pbcm

loop_
_symmetry_equiv_pos_as_xyz
'x, y, z'
'-x, -y, z+1/2'
'x, -y+1/2, -z'
'-x, y+1/2, -z+1/2'
'-x, -y, -z'
'x, y, -z-1/2'
'-x, y-1/2, z'
'x, -y-1/2, z-1/2'

_cell_length_a                   14.9208(14)
_cell_length_b                   41.280(4)
_cell_length_c                   38.398(3)
_cell_angle_alpha                90.00
_cell_angle_beta                 90.00
_cell_angle_gamma                90.00
_cell_volume                     23651(4)
_cell_formula_units_Z            4
_cell_measurement_temperature    296(2)
_cell_measurement_reflns_used    9992
_cell_measurement_theta_min      2.1537
_cell_measurement_theta_max      20.3961

_exptl_crystal_description       'Leaf-like Bulk'
_exptl_crystal_colour            Red
_exptl_crystal_size_max          0.50
_exptl_crystal_size_mid          0.50
_exptl_crystal_size_min          0.40
_exptl_crystal_density_meas      'not measured'
_exptl_crystal_density_diffrn    0.580
_exptl_crystal_density_method    'not measured'
_exptl_crystal_F_000             4280
_exptl_absorpt_coefficient_mu    0.213
_exptl_absorpt_correction_type   multi-scan
_exptl_absorpt_correction_T_min  0.9009
_exptl_absorpt_correction_T_max  0.9196
_exptl_absorpt_process_details   'SADABS (Sheldrick, 2008)'

_exptl_special_details           
; 
 ? 
;

_diffrn_ambient_temperature      296(2)
_diffrn_radiation_wavelength     0.71073
_diffrn_radiation_type           MoK\a
_diffrn_radiation_source         'fine-focus sealed tube'
_diffrn_radiation_monochromator  graphite
_diffrn_measurement_device_type  'Bruker SMART APEX II CCD area detector'
_diffrn_measurement_method       'phi and omega scans'
_diffrn_detector_area_resol_mean ?
_diffrn_reflns_number            207656
_diffrn_reflns_av_R_equivalents  0.0772
_diffrn_reflns_av_sigmaI/netI    0.0494
_diffrn_reflns_limit_h_min       -17
_diffrn_reflns_limit_h_max       17
_diffrn_reflns_limit_k_min       -47
_diffrn_reflns_limit_k_max       47
_diffrn_reflns_limit_l_min       -44
_diffrn_reflns_limit_l_max       44
_diffrn_reflns_theta_min         1.68
_diffrn_reflns_theta_max         24.21
_reflns_number_total             19245
_reflns_number_gt                10494
_reflns_threshold_expression     >2sigma(I)

_computing_data_collection       'APEX2  (Bruker, 2008)'
_computing_cell_refinement       'SAINT+ ver. (Bruker, 2001)'
_computing_data_reduction        'SAINT+ ver. (Bruker, 2001)'
_computing_structure_solution    'SHELXS-97 (Sheldrick, 2008)'
_computing_structure_refinement  'SHELXL-97 (Sheldrick, 2008)'
_computing_molecular_graphics    'SHELXTL (Sheldrick, 2008)'
_computing_publication_material  'SHELXTL (Sheldrick, 2008)'

_refine_special_details          
; 
 Refinement of F^2^ against ALL reflections.  The weighted R-factor wR and 
 goodness of fit S are based on F^2^, conventional R-factors R are based 
 on F, with F set to zero for negative F^2^. The threshold expression of 
 F^2^ > 2sigma(F^2^) is used only for calculating R-factors(gt) etc. and is 
 not relevant to the choice of reflections for refinement.  R-factors based 
 on F^2^ are statistically about twice as large as those based on F, and R- 
 factors based on ALL data will be even larger. 
;

_refine_ls_structure_factor_coef Fsqd
_refine_ls_matrix_type           full
_refine_ls_weighting_scheme      calc
_refine_ls_weighting_details     
'calc w=1/[\s^2^(Fo^2^)+(0.0500P)^2^+37.0000P] where P=(Fo^2^+2Fc^2^)/3'
_atom_sites_solution_primary     direct
_atom_sites_solution_secondary   difmap
_atom_sites_solution_hydrogens   geom
_refine_ls_hydrogen_treatment    constr
_refine_ls_extinction_method     none
_refine_ls_extinction_coef       ?
_refine_ls_number_reflns         19245
_refine_ls_number_parameters     565
_refine_ls_number_restraints     1
_refine_ls_R_factor_all          0.1562
_refine_ls_R_factor_gt           0.0949
_refine_ls_wR_factor_ref         0.2255
_refine_ls_wR_factor_gt          0.2025
_refine_ls_goodness_of_fit_ref   1.002
_refine_ls_restrained_S_all      1.002
_refine_ls_shift/su_max          0.000
_refine_ls_shift/su_mean         0.000

loop_
_atom_site_label
_atom_site_type_symbol
_atom_site_fract_x
_atom_site_fract_y
_atom_site_fract_z
_atom_site_U_iso_or_equiv
_atom_site_adp_type
_atom_site_occupancy
_atom_site_symmetry_multiplicity
_atom_site_calc_flag
_atom_site_refinement_flags
_atom_site_disorder_assembly
_atom_site_disorder_group
Fe1 Fe -0.04004(6) 0.18737(2) 0.2500 0.0723(3) Uani 1 2 d S . .
Fe2 Fe -0.07220(6) 0.10808(2) 0.2500 0.0745(3) Uani 1 2 d S . .
Fe3 Fe -0.24727(7) 0.15692(2) 0.2500 0.0753(3) Uani 1 2 d S . .
O1 O 0.0428(2) 0.16952(8) 0.21227(8) 0.0898(10) Uani 1 1 d . . .
O2 O 0.0173(3) 0.11660(9) 0.21290(10) 0.1044(12) Uani 1 1 d . . .
O3 O 0.1558(3) -0.09120(8) -0.21320(10) 0.1056(12) Uani 1 1 d . . .
O4 O 0.2722(2) -0.12349(8) -0.21330(9) 0.0981(11) Uani 1 1 d . . .
O5 O 0.7540(3) 0.30876(9) -0.21222(10) 0.1006(11) Uani 1 1 d . . .
O6 O 0.8914(3) 0.28840(8) -0.21284(9) 0.0954(11) Uani 1 1 d . . .
O7 O 1.2431(5) -0.0060(2) 0.1501(2) 0.2665(18) Uani 1 1 d . . .
O8 O 1.2565(5) -0.0471(2) 0.1120(2) 0.2665(18) Uani 1 1 d . . .
O9 O 0.0451(3) 0.22702(12) 0.2500 0.1069(16) Uani 1 2 d S . .
O10 O -0.0184(3) 0.06089(12) 0.2500 0.1074(16) Uani 1 2 d S . .
O11 O -0.3859(3) 0.16352(12) 0.2500 0.1112(17) Uani 1 2 d S . .
O12 O -0.1205(3) 0.15085(9) 0.2500 0.0641(10) Uani 1 2 d S . .
C1 C 0.0567(3) 0.14129(15) 0.20189(12) 0.0804(14) Uani 1 1 d . . .
C2 C 0.1242(4) 0.13636(14) 0.17422(14) 0.0890(15) Uani 1 1 d . . .
C3 C 0.1374(5) 0.10566(15) 0.16022(17) 0.133(2) Uani 1 1 d . . .
H3 H 0.1030 0.0884 0.1681 0.160 Uiso 1 1 calc R . .
C4 C 0.2005(5) 0.10059(16) 0.13494(18) 0.144(3) Uani 1 1 d . . .
H4 H 0.2065 0.0800 0.1255 0.173 Uiso 1 1 calc R . .
C5 C 0.2556(4) 0.12522(15) 0.12294(14) 0.0986(17) Uani 1 1 d . . .
C6 C 0.2401(4) 0.15561(14) 0.13632(16) 0.116(2) Uani 1 1 d . . .
H6 H 0.2737 0.1730 0.1281 0.139 Uiso 1 1 calc R . .
C7 C 0.1764(4) 0.16112(14) 0.16141(15) 0.1102(19) Uani 1 1 d . . .
H7 H 0.1685 0.1820 0.1699 0.132 Uiso 1 1 calc R . .
C8 C 0.3257(4) 0.11859(14) 0.09629(14) 0.0957(17) Uani 1 1 d . . .
C9 C 0.3618(5) 0.08844(17) 0.09295(17) 0.140(3) Uani 1 1 d . . .
H9 H 0.3445 0.0723 0.1084 0.168 Uiso 1 1 calc R . .
C10 C 0.4234(5) 0.08123(16) 0.06733(17) 0.141(3) Uani 1 1 d . . .
H10 H 0.4456 0.0602 0.0661 0.169 Uiso 1 1 calc R . .
C11 C 0.4537(3) 0.10387(12) 0.04330(12) 0.0797(14) Uani 1 1 d . . .
C12 C 0.4138(5) 0.13238(16) 0.04655(17) 0.134(2) Uani 1 1 d . . .
H12 H 0.4296 0.1485 0.0308 0.160 Uiso 1 1 calc R . .
C13 C 0.3503(5) 0.14004(15) 0.07167(18) 0.137(3) Uani 1 1 d . . .
H13 H 0.3241 0.1605 0.0715 0.165 Uiso 1 1 calc R . .
C14 C 0.5178(3) 0.09423(11) 0.01500(11) 0.0738(13) Uani 1 1 d . . .
C15 C 0.4728(3) 0.06910(10) -0.00879(11) 0.0734(13) Uani 1 1 d . . .
H15A H 0.4534 0.0508 0.0051 0.088 Uiso 1 1 calc R . .
H15B H 0.4201 0.0787 -0.0194 0.088 Uiso 1 1 calc R . .
C16 C 0.5355(3) 0.05716(11) -0.03726(12) 0.0757(13) Uani 1 1 d . . .
C17 C 0.5644(3) 0.08695(11) -0.05918(12) 0.0823(14) Uani 1 1 d . . .
H17A H 0.6041 0.0799 -0.0777 0.099 Uiso 1 1 calc R . .
H17B H 0.5119 0.0966 -0.0698 0.099 Uiso 1 1 calc R . .
C18 C 0.6122(3) 0.11229(11) -0.03692(12) 0.0796(14) Uani 1 1 d . . .
C19 C 0.5466(3) 0.12315(11) -0.00771(12) 0.0852(14) Uani 1 1 d . . .
H19A H 0.5755 0.1393 0.0068 0.102 Uiso 1 1 calc R . .
H19B H 0.4940 0.1330 -0.0181 0.102 Uiso 1 1 calc R . .
C20 C 0.6023(3) 0.07904(12) 0.03122(12) 0.0856(14) Uani 1 1 d . . .
H20A H 0.5849 0.0610 0.0459 0.103 Uiso 1 1 calc R . .
H20B H 0.6318 0.0950 0.0458 0.103 Uiso 1 1 calc R . .
C21 C 0.6194(3) 0.04257(11) -0.02018(12) 0.0830(14) Uani 1 1 d . . .
H21A H 0.6021 0.0239 -0.0064 0.100 Uiso 1 1 calc R . .
H21B H 0.6600 0.0352 -0.0382 0.100 Uiso 1 1 calc R . .
C22 C 0.6943(4) 0.09662(12) -0.01989(13) 0.0912(15) Uani 1 1 d . . .
H22A H 0.7250 0.1126 -0.0057 0.109 Uiso 1 1 calc R . .
H22B H 0.7354 0.0895 -0.0379 0.109 Uiso 1 1 calc R . .
C23 C 0.6684(3) 0.06708(12) 0.00338(13) 0.0838(14) Uani 1 1 d . . .
C24 C 0.4898(4) 0.03248(11) -0.06139(12) 0.0786(13) Uani 1 1 d . . .
C25 C 0.3994(4) 0.02549(16) -0.05951(16) 0.122(2) Uani 1 1 d . . .
H25 H 0.3645 0.0358 -0.0428 0.147 Uiso 1 1 calc R . .
C26 C 0.3597(4) 0.00374(16) -0.08168(18) 0.130(2) Uani 1 1 d . . .
H26 H 0.2990 -0.0007 -0.0790 0.156 Uiso 1 1 calc R . .
C27 C 0.4064(4) -0.01190(12) -0.10784(13) 0.0817(14) Uani 1 1 d . . .
C28 C 0.4948(4) -0.00648(15) -0.10787(17) 0.119(2) Uani 1 1 d . . .
H28 H 0.5301 -0.0177 -0.1238 0.143 Uiso 1 1 calc R . .
C29 C 0.5372(4) 0.01539(15) -0.08491(17) 0.124(2) Uani 1 1 d . . .
H29 H 0.5990 0.0180 -0.0861 0.148 Uiso 1 1 calc R . .
C30 C 0.3622(4) -0.03461(13) -0.13135(13) 0.0861(14) Uani 1 1 d . . .
C31 C 0.2741(5) -0.03130(16) -0.14041(18) 0.133(2) Uani 1 1 d . . .
H31 H 0.2411 -0.0145 -0.1306 0.159 Uiso 1 1 calc R . .
C32 C 0.2321(4) -0.05194(16) -0.16354(17) 0.127(2) Uani 1 1 d . . .
H32 H 0.1726 -0.0482 -0.1695 0.153 Uiso 1 1 calc R . .
C33 C 0.2748(4) -0.07707(12) -0.17748(13) 0.0806(14) Uani 1 1 d . . .
C34 C 0.3612(5) -0.08123(14) -0.16880(17) 0.127(2) Uani 1 1 d . . .
H34 H 0.3929 -0.0985 -0.1784 0.152 Uiso 1 1 calc R . .
C35 C 0.4048(4) -0.06030(15) -0.14576(17) 0.126(2) Uani 1 1 d . . .
H35 H 0.4645 -0.0641 -0.1402 0.151 Uiso 1 1 calc R . .
C36 C 0.2305(4) -0.09942(13) -0.20308(13) 0.0779(13) Uani 1 1 d . . .
C37 C 0.6402(5) 0.14066(17) -0.0598(2) 0.1579(13) Uani 1 1 d . . .
C38 C 0.7005(5) 0.13610(16) -0.08609(19) 0.1579(13) Uani 1 1 d . . .
H38 H 0.7236 0.1154 -0.0895 0.189 Uiso 1 1 calc R . .
C39 C 0.7292(5) 0.16119(16) -0.10832(19) 0.1579(13) Uani 1 1 d . . .
H39 H 0.7700 0.1567 -0.1260 0.189 Uiso 1 1 calc R . .
C40 C 0.6983(5) 0.19156(17) -0.1043(2) 0.1579(13) Uani 1 1 d . . .
C41 C 0.6358(5) 0.19426(16) -0.08228(19) 0.1579(13) Uani 1 1 d . . .
H41 H 0.6059 0.2140 -0.0808 0.189 Uiso 1 1 calc R . .
C42 C 0.6085(5) 0.16882(16) -0.05957(19) 0.1579(13) Uani 1 1 d . . .
H42 H 0.5639 0.1734 -0.0434 0.189 Uiso 1 1 calc R . .
C43 C 0.7299(5) 0.21746(14) -0.12845(15) 0.1057(18) Uani 1 1 d . . .
C44 C 0.8138(4) 0.21820(16) -0.14196(19) 0.143(3) Uani 1 1 d . . .
H44 H 0.8546 0.2023 -0.1355 0.172 Uiso 1 1 calc R . .
C45 C 0.8403(4) 0.24168(15) -0.16484(17) 0.128(2) Uani 1 1 d . . .
H45 H 0.8989 0.2415 -0.1730 0.153 Uiso 1 1 calc R . .
C46 C 0.7840(4) 0.26499(12) -0.17586(14) 0.0873(15) Uani 1 1 d . . .
C47 C 0.6987(4) 0.26433(14) -0.16321(17) 0.132(2) Uani 1 1 d . . .
H47 H 0.6579 0.2801 -0.1703 0.158 Uiso 1 1 calc R . .
C48 C 0.6718(5) 0.24068(16) -0.14014(18) 0.140(3) Uani 1 1 d . . .
H48 H 0.6129 0.2405 -0.1323 0.168 Uiso 1 1 calc R . .
C49 C 0.8139(4) 0.28929(12) -0.20243(13) 0.0821(14) Uani 1 1 d . . .
C50 C 0.7505(5) 0.0533(2) 0.0196(2) 0.1467(11) Uani 1 1 d . . .
C51 C 0.7825(5) 0.02373(18) 0.01289(19) 0.1467(11) Uani 1 1 d . . .
H51 H 0.7557 0.0115 -0.0046 0.176 Uiso 1 1 calc R . .
C52 C 0.8569(5) 0.01000(19) 0.03172(19) 0.1467(11) Uani 1 1 d . . .
H52 H 0.8725 -0.0116 0.0281 0.176 Uiso 1 1 calc R . .
C53 C 0.9054(5) 0.0284(2) 0.0551(2) 0.1467(11) Uani 1 1 d . . .
C54 C 0.8708(5) 0.05799(18) 0.06215(19) 0.1467(11) Uani 1 1 d . . .
H54 H 0.8970 0.0706 0.0795 0.176 Uiso 1 1 calc R . .
C55 C 0.7973(5) 0.07001(19) 0.04416(19) 0.1467(11) Uani 1 1 d . . .
H55 H 0.7787 0.0910 0.0493 0.176 Uiso 1 1 calc R . .
C56 C 0.9877(8) 0.0165(4) 0.0727(4) 0.2665(18) Uani 1 1 d . . .
C57 C 1.0322(8) -0.0085(3) 0.0595(3) 0.2665(18) Uani 1 1 d . . .
H57 H 1.0118 -0.0180 0.0390 0.320 Uiso 1 1 calc R . .
C58 C 1.1112(8) -0.0212(3) 0.0760(3) 0.2665(18) Uani 1 1 d . . .
H58 H 1.1411 -0.0391 0.0670 0.320 Uiso 1 1 calc R . .
C59 C 1.1400(8) -0.0062(4) 0.1048(4) 0.2665(18) Uani 1 1 d D . .
C60 C 1.0878(8) 0.0156(3) 0.1234(3) 0.2665(18) Uani 1 1 d . . .
H60 H 1.1043 0.0232 0.1453 0.320 Uiso 1 1 calc R . .
C61 C 1.0040(8) 0.0261(3) 0.1060(3) 0.2665(18) Uani 1 1 d . . .
H61 H 0.9629 0.0390 0.1178 0.320 Uiso 1 1 calc R . .
C62 C 1.2190(8) -0.0241(4) 0.1199(4) 0.2665(18) Uani 1 1 d D . .

loop_
_atom_site_aniso_label
_atom_site_aniso_U_11
_atom_site_aniso_U_22
_atom_site_aniso_U_33
_atom_site_aniso_U_23
_atom_site_aniso_U_13
_atom_site_aniso_U_12
Fe1 0.0791(6) 0.0740(6) 0.0639(6) 0.000 0.000 0.0199(5)
Fe2 0.0766(6) 0.0745(6) 0.0723(6) 0.000 0.000 0.0170(5)
Fe3 0.0780(6) 0.0717(6) 0.0762(6) 0.000 0.000 0.0169(5)
O1 0.097(2) 0.095(2) 0.077(2) -0.0118(19) 0.0228(19) 0.011(2)
O2 0.112(3) 0.087(3) 0.114(3) 0.005(2) 0.046(2) 0.020(2)
O3 0.107(3) 0.097(3) 0.113(3) -0.032(2) -0.029(2) 0.025(2)
O4 0.098(3) 0.090(2) 0.107(3) -0.025(2) -0.019(2) 0.020(2)
O5 0.094(3) 0.097(3) 0.110(3) 0.034(2) 0.012(2) -0.015(2)
O6 0.088(3) 0.099(3) 0.098(3) 0.036(2) 0.022(2) -0.007(2)
O7 0.210(3) 0.348(5) 0.242(4) 0.010(4) -0.034(3) 0.100(3)
O8 0.210(3) 0.348(5) 0.242(4) 0.010(4) -0.034(3) 0.100(3)
O9 0.115(4) 0.094(3) 0.111(4) 0.000 0.000 0.004(3)
O10 0.098(4) 0.095(3) 0.130(4) 0.000 0.000 0.019(3)
O11 0.092(4) 0.099(4) 0.143(5) 0.000 0.000 0.022(3)
O12 0.074(3) 0.058(2) 0.060(2) 0.000 0.000 0.008(2)
C1 0.077(4) 0.100(4) 0.064(3) -0.006(3) 0.018(3) 0.028(3)
C2 0.088(4) 0.090(4) 0.089(4) -0.004(3) 0.015(3) 0.011(3)
C3 0.159(6) 0.094(4) 0.146(6) -0.002(4) 0.075(5) -0.005(4)
C4 0.176(7) 0.102(5) 0.156(6) -0.027(4) 0.095(6) -0.001(5)
C5 0.109(4) 0.099(4) 0.088(4) -0.004(3) 0.032(3) -0.004(4)
C6 0.128(5) 0.096(4) 0.124(5) -0.013(4) 0.048(4) -0.015(4)
C7 0.132(5) 0.094(4) 0.104(4) -0.019(3) 0.048(4) 0.003(4)
C8 0.119(5) 0.089(4) 0.078(4) -0.004(3) 0.036(3) 0.009(3)
C9 0.173(7) 0.128(6) 0.120(5) 0.017(4) 0.079(5) 0.025(5)
C10 0.181(7) 0.112(5) 0.129(5) 0.022(4) 0.064(5) 0.033(5)
C11 0.098(4) 0.068(3) 0.074(3) 0.008(3) 0.019(3) 0.002(3)
C12 0.176(7) 0.101(5) 0.124(5) 0.011(4) 0.070(5) 0.004(5)
C13 0.172(7) 0.092(4) 0.148(6) -0.002(4) 0.077(5) 0.014(4)
C14 0.087(3) 0.071(3) 0.063(3) 0.001(2) 0.021(3) -0.007(3)
C15 0.086(3) 0.069(3) 0.066(3) 0.010(2) 0.011(3) -0.005(3)
C16 0.089(3) 0.074(3) 0.064(3) 0.002(2) 0.013(3) -0.008(3)
C17 0.102(4) 0.079(3) 0.066(3) 0.005(3) 0.016(3) 0.001(3)
C18 0.094(4) 0.072(3) 0.073(3) 0.006(3) 0.025(3) -0.007(3)
C19 0.108(4) 0.074(3) 0.074(3) 0.004(3) 0.015(3) -0.001(3)
C20 0.096(4) 0.086(3) 0.075(3) 0.009(3) 0.012(3) -0.009(3)
C21 0.097(4) 0.072(3) 0.080(3) 0.007(3) 0.023(3) 0.003(3)
C22 0.102(4) 0.081(3) 0.091(4) 0.002(3) 0.028(3) -0.013(3)
C23 0.091(4) 0.084(3) 0.076(3) 0.003(3) 0.024(3) -0.011(3)
C24 0.090(4) 0.072(3) 0.074(3) -0.001(3) 0.019(3) -0.008(3)
C25 0.107(5) 0.148(6) 0.113(5) -0.051(4) 0.010(4) -0.006(4)
C26 0.099(5) 0.150(6) 0.141(6) -0.047(5) 0.005(4) -0.007(4)
C27 0.085(4) 0.084(3) 0.076(3) -0.008(3) 0.007(3) 0.005(3)
C28 0.106(5) 0.115(5) 0.136(5) -0.055(4) 0.026(4) 0.004(4)
C29 0.093(4) 0.126(5) 0.152(6) -0.055(5) 0.029(4) -0.007(4)
C30 0.097(4) 0.086(4) 0.075(3) -0.009(3) -0.002(3) 0.003(3)
C31 0.122(6) 0.127(5) 0.149(6) -0.068(5) -0.010(5) 0.024(4)
C32 0.104(5) 0.134(5) 0.144(6) -0.059(5) -0.029(4) 0.026(4)
C33 0.084(4) 0.084(4) 0.074(3) -0.002(3) -0.012(3) 0.007(3)
C34 0.133(6) 0.099(4) 0.149(6) -0.049(4) -0.033(5) 0.022(4)
C35 0.116(5) 0.109(4) 0.152(6) -0.046(4) -0.040(4) 0.028(4)
C36 0.076(4) 0.085(4) 0.073(3) 0.010(3) -0.004(3) 0.001(3)
C37 0.191(3) 0.111(2) 0.171(3) 0.047(2) 0.094(2) 0.010(2)
C38 0.191(3) 0.111(2) 0.171(3) 0.047(2) 0.094(2) 0.010(2)
C39 0.191(3) 0.111(2) 0.171(3) 0.047(2) 0.094(2) 0.010(2)
C40 0.191(3) 0.111(2) 0.171(3) 0.047(2) 0.094(2) 0.010(2)
C41 0.191(3) 0.111(2) 0.171(3) 0.047(2) 0.094(2) 0.010(2)
C42 0.191(3) 0.111(2) 0.171(3) 0.047(2) 0.094(2) 0.010(2)
C43 0.133(5) 0.084(4) 0.101(4) 0.025(3) 0.024(4) -0.004(4)
C44 0.101(5) 0.145(6) 0.183(7) 0.088(5) 0.041(5) 0.010(4)
C45 0.095(4) 0.134(5) 0.154(6) 0.070(5) 0.035(4) 0.004(4)
C46 0.098(4) 0.075(3) 0.088(4) 0.014(3) 0.017(3) -0.011(3)
C47 0.124(5) 0.106(4) 0.165(6) 0.070(4) 0.055(5) 0.017(4)
C48 0.138(6) 0.120(5) 0.161(6) 0.050(5) 0.067(5) 0.006(5)
C49 0.103(4) 0.068(3) 0.075(3) 0.008(3) 0.006(3) -0.015(3)
C50 0.129(3) 0.160(3) 0.150(3) -0.008(2) -0.016(2) 0.031(2)
C51 0.129(3) 0.160(3) 0.150(3) -0.008(2) -0.016(2) 0.031(2)
C52 0.129(3) 0.160(3) 0.150(3) -0.008(2) -0.016(2) 0.031(2)
C53 0.129(3) 0.160(3) 0.150(3) -0.008(2) -0.016(2) 0.031(2)
C54 0.129(3) 0.160(3) 0.150(3) -0.008(2) -0.016(2) 0.031(2)
C55 0.129(3) 0.160(3) 0.150(3) -0.008(2) -0.016(2) 0.031(2)
C56 0.210(3) 0.348(5) 0.242(4) 0.010(4) -0.034(3) 0.100(3)
C57 0.210(3) 0.348(5) 0.242(4) 0.010(4) -0.034(3) 0.100(3)
C58 0.210(3) 0.348(5) 0.242(4) 0.010(4) -0.034(3) 0.100(3)
C59 0.210(3) 0.348(5) 0.242(4) 0.010(4) -0.034(3) 0.100(3)
C60 0.210(3) 0.348(5) 0.242(4) 0.010(4) -0.034(3) 0.100(3)
C61 0.210(3) 0.348(5) 0.242(4) 0.010(4) -0.034(3) 0.100(3)
C62 0.210(3) 0.348(5) 0.242(4) 0.010(4) -0.034(3) 0.100(3)

_geom_special_details            
; 
 All esds (except the esd in the dihedral angle between two l.s. planes) 
 are estimated using the full covaria