####################################################################### 
# 
# This file contains crystal structure data downloaded from the 
# Cambridge Structural Database (CSD) hosted by the Cambridge 
# Crystallographic Data Centre (CCDC).
# 
# Full information about CCDC data access policies and citation 
# guidelines are available at http://www.ccdc.cam.ac.uk/access/V1 
# 
# Audit and citation data items may have been added by the CCDC. 
# Please retain this information to preserve the provenance of 
# this file and to allow appropriate attribution of the data. 
# 
#######################################################################

data_r3_sq
_audit_block_doi                 10.5517/cc11rfbk
_database_code_depnum_ccdc_archive 'CCDC 975828'
loop_
_citation_id
_citation_doi
_citation_year
1 10.1038/ncomms6723 2014
_audit_update_record             
;
2013-12-07 deposited with the CCDC.	2024-07-13 downloaded from the CCDC.
;

_audit_creation_method           SHELXL-97
_chemical_name_systematic        
; 
 ? 
;
_chemical_name_common            ?
_chemical_melting_point          ?
_chemical_formula_moiety         '(Fe3 O4)3 (C27 H15 O6)4 (C14 H8 O4 N2)3'
_chemical_formula_sum            'C150 H84 Fe9 N6 O48'
_chemical_formula_weight         3240.88

loop_
_atom_type_symbol
_atom_type_description
_atom_type_scat_dispersion_real
_atom_type_scat_dispersion_imag
_atom_type_scat_source
C C 0.0033 0.0016 'International Tables Vol C Tables 4.2.6.8 and 6.1.1.4'
H H 0.0000 0.0000 'International Tables Vol C Tables 4.2.6.8 and 6.1.1.4'
N N 0.0061 0.0033 'International Tables Vol C Tables 4.2.6.8 and 6.1.1.4'
O O 0.0106 0.0060 'International Tables Vol C Tables 4.2.6.8 and 6.1.1.4'
Fe Fe 0.3463 0.8444 'International Tables Vol C Tables 4.2.6.8 and 6.1.1.4'

_symmetry_cell_setting           Hexagonal
_symmetry_space_group_name_H-M   R3

loop_
_symmetry_equiv_pos_as_xyz
'x, y, z'
'-y, x-y, z'
'-x+y, -x, z'
'x+2/3, y+1/3, z+1/3'
'-y+2/3, x-y+1/3, z+1/3'
'-x+y+2/3, -x+1/3, z+1/3'
'x+1/3, y+2/3, z+2/3'
'-y+1/3, x-y+2/3, z+2/3'
'-x+y+1/3, -x+2/3, z+2/3'

_cell_length_a                   34.663(15)
_cell_length_b                   34.663(15)
_cell_length_c                   44.712(19)
_cell_angle_alpha                90.00
_cell_angle_beta                 90.00
_cell_angle_gamma                120.00
_cell_volume                     46526(34)
_cell_formula_units_Z            3
_cell_measurement_temperature    110(2)
_cell_measurement_reflns_used    9890
_cell_measurement_theta_min      2.2717
_cell_measurement_theta_max      20.4331

_exptl_crystal_description       'Truncated Triangle'
_exptl_crystal_colour            Red
_exptl_crystal_size_max          0.30
_exptl_crystal_size_mid          0.30
_exptl_crystal_size_min          0.30
_exptl_crystal_density_meas      'not measured'
_exptl_crystal_density_diffrn    0.347
_exptl_crystal_density_method    'not measured'
_exptl_crystal_F_000             4932
_exptl_absorpt_coefficient_mu    0.225
_exptl_absorpt_correction_type   multi-scan
_exptl_absorpt_correction_T_min  0.9356
_exptl_absorpt_correction_T_max  0.9356
_exptl_absorpt_process_details   'SADABS (Sheldrick, 2008)'

_exptl_special_details           
; 
 ? 
;

_diffrn_ambient_temperature      110(2)
_diffrn_radiation_wavelength     0.71073
_diffrn_radiation_type           MoK\a
_diffrn_radiation_source         'fine-focus sealed tube'
_diffrn_radiation_monochromator  graphite
_diffrn_measurement_device_type  'Bruker SMART APEX II CCD area detector'
_diffrn_measurement_method       'phi and omega scans'
_diffrn_detector_area_resol_mean ?
_diffrn_reflns_number            132298
_diffrn_reflns_av_R_equivalents  0.1806
_diffrn_reflns_av_sigmaI/netI    0.3632
_diffrn_reflns_limit_h_min       -39
_diffrn_reflns_limit_h_max       39
_diffrn_reflns_limit_k_min       -40
_diffrn_reflns_limit_k_max       39
_diffrn_reflns_limit_l_min       -51
_diffrn_reflns_limit_l_max       51
_diffrn_reflns_theta_min         1.80
_diffrn_reflns_theta_max         24.34
_reflns_number_total             32920
_reflns_number_gt                9697
_reflns_threshold_expression     >2sigma(I)

_computing_data_collection       'APEX2  (Bruker, 2008)'
_computing_cell_refinement       'SAINT+ ver. (Bruker, 2001)'
_computing_data_reduction        'SAINT+ ver. (Bruker, 2001)'
_computing_structure_solution    'SHELXS-97 (Sheldrick, 2008)'
_computing_structure_refinement  'SHELXL-97 (Sheldrick, 2008)'
_computing_molecular_graphics    'SHELXTL (Sheldrick, 2008)'
_computing_publication_material  'SHELXTL (Sheldrick, 2008)'

_refine_special_details          
; 
 Refinement of F^2^ against ALL reflections.  The weighted R-factor wR and 
 goodness of fit S are based on F^2^, conventional R-factors R are based 
 on F, with F set to zero for negative F^2^. The threshold expression of 
 F^2^ > 2sigma(F^2^) is used only for calculating R-factors(gt) etc. and is 
 not relevant to the choice of reflections for refinement.  R-factors based 
 on F^2^ are statistically about twice as large as those based on F, and R- 
 factors based on ALL data will be even larger. 
;

_refine_ls_structure_factor_coef Fsqd
_refine_ls_matrix_type           full
_refine_ls_weighting_scheme      calc
_refine_ls_weighting_details     
; calc 
 [1.00000+0.00000exp(0.00(sin\q/\l)^2^)]/ 
   [\s^2^(Fo^2^)+0.0000+0.0000*P+(0.0031P)^2^+0.0000sin\q/\l] 
 where P = 0.00003Fo^2^ + 0.99997Fc^2^ 
;
_atom_sites_solution_primary     direct
_atom_sites_solution_secondary   difmap
_atom_sites_solution_hydrogens   geom
_refine_ls_hydrogen_treatment    constr
_refine_ls_extinction_method     none
_refine_ls_extinction_coef       ?
_refine_ls_abs_structure_details 'Flack H D (1983), Acta Cryst. A39, 876-881'
_refine_ls_abs_structure_Flack   0.267(16)
_refine_ls_number_reflns         32920
_refine_ls_number_parameters     329
_refine_ls_number_restraints     133
_refine_ls_R_factor_all          0.1719
_refine_ls_R_factor_gt           0.0733
_refine_ls_wR_factor_ref         0.1813
_refine_ls_wR_factor_gt          0.1472
_refine_ls_goodness_of_fit_ref   0.661
_refine_ls_restrained_S_all      0.684
_refine_ls_shift/su_max          0.001
_refine_ls_shift/su_mean         0.000

loop_
_atom_site_label
_atom_site_type_symbol
_atom_site_fract_x
_atom_site_fract_y
_atom_site_fract_z
_atom_site_U_iso_or_equiv
_atom_site_adp_type
_atom_site_occupancy
_atom_site_symmetry_multiplicity
_atom_site_calc_flag
_atom_site_refinement_flags
_atom_site_disorder_assembly
_atom_site_disorder_group
Fe1 Fe 0.22379(3) 0.35259(3) 0.02994(7) 0.0924(3) Uani 1 1 d . . .
Fe2 Fe 0.16085(3) 0.32179(3) -0.03087(7) 0.0985(3) Uani 1 1 d . . .
Fe3 Fe 0.12898(3) 0.35265(3) 0.02976(7) 0.0950(3) Uani 1 1 d . . .
O1S O 0.17155(12) 0.34311(11) 0.00769(9) 0.0812(10) Uani 1 1 d . . .
O1 O 0.0737(2) 0.2975(2) 0.01527(15) 0.2011(10) Uani 1 1 d D . .
O2S O 0.27954(16) 0.36078(19) 0.05191(12) 0.1328(16) Uani 1 1 d . . .
O2 O 0.0975(2) 0.2727(2) -0.02119(15) 0.2011(10) Uani 1 1 d D . .
O3S O 0.08242(15) 0.36101(17) 0.05109(11) 0.1173(14) Uani 1 1 d . . .
O3 O -0.2728(2) -0.0982(2) -0.02212(15) 0.2011(10) Uani 1 1 d D . .
O4 O -0.2955(2) -0.0743(2) 0.01522(15) 0.2011(10) Uani 1 1 d D . .
O4S O 0.14834(18) 0.29860(15) -0.07268(12) 0.1385(18) Uani 1 1 d . . .
O5 O 0.26231(17) 0.3840(2) -0.00333(14) 0.171(3) Uani 1 1 d . . .
O6 O 0.2224(2) 0.36712(15) -0.04636(12) 0.173(3) Uani 1 1 d . . .
O7 O 0.4688(3) 0.4802(3) -0.26279(17) 0.204(4) Uani 1 1 d . . .
O8 O 0.52631(17) 0.53846(17) -0.26451(12) 0.1245(16) Uani 1 1 d . . .
O9 O 0.63355(15) 0.77627(19) -0.04701(11) 0.149(2) Uani 1 1 d D . .
O10 O 0.6146(2) 0.73619(16) -0.00313(14) 0.184(3) Uani 1 1 d D . .
O11 O 0.17413(18) 0.40951(16) 0.05011(16) 0.1488(8) Uani 1 1 d . . .
O12 O 0.23553(16) 0.41058(16) 0.05036(16) 0.1488(8) Uani 1 1 d . . .
N1 N -0.10065(15) 0.12218(18) -0.00215(17) 0.2011(10) Uani 1 1 d D . .
N2 N -0.10463(14) 0.08577(16) -0.00298(16) 0.2011(10) Uani 1 1 d D . .
C1 C 0.0711(3) 0.2683(3) -0.0040(3) 0.2011(10) Uani 1 1 d D . .
C2 C 0.03032(15) 0.22660(17) -0.00451(15) 0.2011(10) Uani 1 1 d D . .
C3 C -0.0014(2) 0.22605(17) 0.01437(14) 0.2011(10) Uani 1 1 d D . .
H3A H 0.0063 0.2503 0.0276 0.241 Uiso 1 1 calc R . .
C4 C -0.04429(18) 0.19032(19) 0.01411(14) 0.2011(10) Uani 1 1 d D . .
H4A H -0.0662 0.1901 0.0270 0.241 Uiso 1 1 calc R . .
C5 C -0.05539(14) 0.15495(16) -0.00491(15) 0.2011(10) Uani 1 1 d D . .
C6 C -0.0237(2) 0.15565(17) -0.02393(15) 0.2011(10) Uani 1 1 d D . .
H6A H -0.0315 0.1316 -0.0373 0.241 Uiso 1 1 calc R . .
C7 C 0.01920(18) 0.1913(2) -0.02356(16) 0.2011(10) Uani 1 1 d D . .
H7A H 0.0411 0.1915 -0.0364 0.241 Uiso 1 1 calc R . .
C8 C -0.2692(3) -0.0683(3) -0.0040(3) 0.2011(10) Uani 1 1 d D . .
C9 C -0.22869(15) -0.02657(17) -0.00661(15) 0.2011(10) Uani 1 1 d D . .
C10 C -0.1976(2) -0.01939(16) -0.02835(14) 0.2011(10) Uani 1 1 d D . .
H10A H -0.2047 -0.0403 -0.0441 0.241 Uiso 1 1 calc R . .
C11 C -0.15583(17) 0.01842(16) -0.02708(13) 0.2011(10) Uani 1 1 d D . .
H11A H -0.1341 0.0237 -0.0419 0.241 Uiso 1 1 calc R . .
C12 C -0.14635(12) 0.04806(13) -0.00419(11) 0.2011(10) Uani 1 1 d D . .
C13 C -0.17686(16) 0.04138(17) 0.01757(12) 0.2011(10) Uani 1 1 d D . .
H13A H -0.1695 0.0624 0.0333 0.241 Uiso 1 1 calc R . .
C14 C -0.21860(16) 0.0036(2) 0.01636(14) 0.2011(10) Uani 1 1 d D . .
H14A H -0.2402 -0.0016 0.0313 0.241 Uiso 1 1 calc R . .
C21 C 0.2589(3) 0.3915(3) -0.02883(19) 0.1588(14) Uani 1 1 d D . .
C22 C 0.29314(14) 0.42481(15) -0.04810(12) 0.1588(14) Uani 1 1 d D . .
C23 C 0.33385(17) 0.45072(19) -0.03389(10) 0.1588(14) Uani 1 1 d D . .
H23A H 0.3369 0.4464 -0.0132 0.191 Uiso 1 1 calc R . .
C24 C 0.37003(13) 0.48288(16) -0.04996(12) 0.1588(14) Uani 1 1 d D . .
H24A H 0.3979 0.5005 -0.0403 0.191 Uiso 1 1 calc R . .
C25 C 0.36545(14) 0.48931(16) -0.08014(12) 0.1588(14) Uani 1 1 d D . .
C26 C 0.32477(17) 0.4634(2) -0.09435(10) 0.1588(14) Uani 1 1 d D . .
H26A H 0.3216 0.4677 -0.1150 0.191 Uiso 1 1 calc R . .
C27 C 0.28868(14) 0.43096(19) -0.07834(13) 0.1588(14) Uani 1 1 d D . .
H27A H 0.2609 0.4130 -0.0881 0.191 Uiso 1 1 calc R . .
C28 C 0.40595(15) 0.52428(14) -0.09422(11) 0.214(3) Uani 1 1 d D . .
C29 C 0.43628(15) 0.56318(14) -0.07962(10) 0.214(3) Uani 1 1 d D . .
H29A H 0.4315 0.5678 -0.0593 0.257 Uiso 1 1 calc R . .
C30 C 0.47361(13) 0.59540(12) -0.09472(9) 0.214(3) Uani 1 1 d D . .
C31 C 0.48050(15) 0.58882(14) -0.12447(10) 0.214(3) Uani 1 1 d D . .
H31A H 0.5058 0.6111 -0.1349 0.257 Uiso 1 1 calc R . .
C32 C 0.45041(14) 0.54970(13) -0.13898(10) 0.214(3) Uani 1 1 d D . .
C33 C 0.41281(16) 0.51774(15) -0.12397(11) 0.214(3) Uani 1 1 d D . .
H33A H 0.3918 0.4914 -0.1341 0.257 Uiso 1 1 calc R . .
C34 C 0.4580(2) 0.54239(19) -0.17104(14) 0.1918(19) Uani 1 1 d D . .
C35 C 0.4287(2) 0.5028(2) -0.18534(15) 0.1918(19) Uani 1 1 d D . .
H35A H 0.4007 0.4831 -0.1765 0.230 Uiso 1 1 calc R . .
C36 C 0.4402(2) 0.4921(2) -0.21262(15) 0.1918(19) Uani 1 1 d D . .
H36A H 0.4213 0.4638 -0.2215 0.230 Uiso 1 1 calc R . .
C37 C 0.4793(2) 0.5228(2) -0.22690(14) 0.1918(19) Uani 1 1 d D . .
C38 C 0.50988(19) 0.5611(2) -0.21179(15) 0.1918(19) Uani 1 1 d D . .
H38A H 0.5385 0.5800 -0.2202 0.230 Uiso 1 1 calc R . .
C39 C 0.4985(2) 0.5717(2) -0.18441(15) 0.1918(19) Uani 1 1 d D . .
H39A H 0.5184 0.5990 -0.1748 0.230 Uiso 1 1 calc R . .
C40 C 0.4998(3) 0.5155(4) -0.2530(2) 0.1918(19) Uani 1 1 d D . .
C41 C 0.50606(15) 0.63681(16) -0.07907(11) 0.1555(13) Uani 1 1 d D . .
C42 C 0.5166(2) 0.63031(15) -0.05020(13) 0.1555(13) Uani 1 1 d D . .
H42A H 0.5006 0.6017 -0.0412 0.187 Uiso 1 1 calc R . .
C43 C 0.5505(2) 0.66567(19) -0.03454(11) 0.1555(13) Uani 1 1 d D . .
H43A H 0.5545 0.6628 -0.0138 0.187 Uiso 1 1 calc R . .
C44 C 0.5786(2) 0.70528(17) -0.04941(13) 0.1555(13) Uani 1 1 d D . .
C45 C 0.5719(2) 0.70942(16) -0.07963(13) 0.1555(13) Uani 1 1 d D . .
H45A H 0.5918 0.7359 -0.0901 0.187 Uiso 1 1 calc R . .
C46 C 0.5362(2) 0.67486(19) -0.09455(11) 0.1555(13) Uani 1 1 d D . .
H46A H 0.5323 0.6772 -0.1154 0.187 Uiso 1 1 calc R . .
C47 C 0.6097(3) 0.7406(2) -0.02972(16) 0.1555(13) Uani 1 1 d D . .
C51 C 0.2134(3) 0.42921(11) 0.0535(2) 0.1488(8) Uani 1 1 d D . .
C52 C 0.23922(15) 0.47925(11) 0.05630(10) 0.1488(8) Uani 1 1 d D . .
C53 C 0.21898(13) 0.50413(15) 0.04962(6) 0.1488(8) Uani 1 1 d D . .
H53A H 0.1898 0.4899 0.0414 0.179 Uiso 1 1 calc R . .
C54 C 0.24138(15) 0.54975(14) 0.05493(10) 0.1488(8) Uani 1 1 d D . .
H54A H 0.2275 0.5667 0.0503 0.179 Uiso 1 1 calc R . .
C55 C 0.28409(15) 0.57054(11) 0.06694(14) 0.1488(8) Uani 1 1 d D . .
C56 C 0.30435(13) 0.54565(15) 0.07363(15) 0.1488(8) Uani 1 1 d D . .
H56A H 0.3335 0.5598 0.0818 0.179 Uiso 1 1 calc R . .
C57 C 0.28191(16) 0.50003(14) 0.06831(13) 0.1488(8) Uani 1 1 d D . .
H57A H 0.2958 0.4830 0.0729 0.179 Uiso 1 1 calc R . .
C58 C 0.31065(18) 0.620366(19) 0.0645(2) 0.1488(8) Uani 1 1 d D . .
C59 C 0.287032(19) 0.64304(18) 0.0654(2) 0.1488(8) Uani 1 1 d D . .
H59A H 0.2554 0.6269 0.0666 0.179 Uiso 1 1 calc R . .

loop_
_atom_site_aniso_label
_atom_site_aniso_U_11
_atom_site_aniso_U_22
_atom_site_aniso_U_33
_atom_site_aniso_U_23
_atom_site_aniso_U_13
_atom_site_aniso_U_12
Fe1 0.1052(7) 0.0768(6) 0.0999(6) 0.0237(5) 0.0197(5) 0.0491(5)
Fe2 0.1196(8) 0.0621(6) 0.0948(7) 0.0166(5) 0.0062(6) 0.0311(5)
Fe3 0.0862(6) 0.0830(6) 0.1013(7) 0.0239(5) 0.0048(5) 0.0315(5)
O1S 0.101(3) 0.065(2) 0.052(2) 0.0350(17) 0.0186(19) 0.022(2)
O1 0.1534(16) 0.1371(15) 0.1755(17) -0.0118(13) 0.0061(12) -0.0302(13)
O2S 0.128(4) 0.200(5) 0.096(3) 0.022(3) -0.005(3) 0.101(4)
O2 0.1534(16) 0.1371(15) 0.1755(17) -0.0118(13) 0.0061(12) -0.0302(13)
O3S 0.112(3) 0.179(4) 0.080(3) 0.007(3) 0.016(2) 0.087(3)
O3 0.1534(16) 0.1371(15) 0.1755(17) -0.0118(13) 0.0061(12) -0.0302(13)
O4 0.1534(16) 0.1371(15) 0.1755(17) -0.0118(13) 0.0061(12) -0.0302(13)
O4S 0.171(5) 0.100(3) 0.110(3) -0.044(3) -0.006(3) 0.042(3)
O5 0.132(4) 0.253(7) 0.145(4) 0.132(5) 0.066(4) 0.109(5)
O6 0.196(5) 0.084(3) 0.112(4) -0.021(3) 0.109(4) -0.025(3)
O7 0.224(7) 0.300(8) 0.207(6) 0.181(6) 0.168(6) 0.220(7)
O8 0.112(4) 0.125(4) 0.101(3) -0.006(3) 0.036(3) 0.032(3)
O9 0.089(3) 0.173(5) 0.092(3) -0.067(3) 0.016(2) -0.005(3)
O10 0.284(7) 0.114(4) 0.132(4) -0.044(3) -0.148(5) 0.083(4)
O11 0.1099(17) 0.0961(15) 0.238(2) -0.0289(16) -0.0144(17) 0.0502(13)
O12 0.1099(17) 0.0961(15) 0.238(2) -0.0289(16) -0.0144(17) 0.0502(13)
N1 0.1534(16) 0.1371(15) 0.1755(17) -0.0118(13) 0.0061(12) -0.0302(13)
N2 0.1534(16) 0.1371(15) 0.1755(17) -0.0118(13) 0.0061(12) -0.0302(13)
C1 0.1534(16) 0.1371(15) 0.1755(17) -0.0118(13) 0.0061(12) -0.0302(13)
C2 0.1534(16) 0.1371(15) 0.1755(17) -0.0118(13) 0.0061(12) -0.0302(13)
C3 0.1534(16) 0.1371(15) 0.1755(17) -0.0118(13) 0.0061(12) -0.0302(13)
C4 0.1534(16) 0.1371(15) 0.1755(17) -0.0118(13) 0.0061(12) -0.0302(13)
C5 0.1534(16) 0.1371(15) 0.1755(17) -0.0118(13) 0.0061(12) -0.0302(13)
C6 0.1534(16) 0.1371(15) 0.1755(17) -0.0118(13) 0.0061(12) -0.0302(13)
C7 0.1534(16) 0.1371(15) 0.1755(17) -0.0118(13) 0.0061(12) -0.0302(13)
C8 0.1534(16) 0.1371(15) 0.1755(17) -0.0118(13) 0.0061(12) -0.0302(13)
C9 0.1534(16) 0.1371(15) 0.1755(17) -0.0118(13) 0.0061(12) -0.0302(13)
C10 0.1534(16) 0.1371(15) 0.1755(17) -0.0118(13) 0.0061(12) -0.0302(13)
C11 0.1534(16) 0.1371(15) 0.1755(17) -0.0118(13) 0.0061(12) -0.0302(13)
C12 0.1534(16) 0.1371(15) 0.1755(17) -0.0118(13) 0.0061(12) -0.0302(13)
C13 0.1534(16) 0.1371(15) 0.1755(17) -0.0118(13) 0.0061(12) -0.0302(13)
C14 0.1534(16) 0.1371(15) 0.1755(17) -0.0118(13) 0.0061(12) -0.0302(13)
C21 0.115(2) 0.156(3) 0.132(3) -0.023(2) 0.045(2) 0.012(2)
C22 0.115(2) 0.156(3) 0.132(3) -0.023(2) 0.045(2) 0.012(2)
C23 0.115(2) 0.156(3) 0.132(3) -0.023(2) 0.045(2) 0.012(2)
C24 0.115(2) 0.156(3) 0.132(3) -0.023(2) 0.045(2) 0.012(2)
C25 0.115(2) 0.156(3) 0.132(3) -0.023(2) 0.045(2) 0.012(2)
C26 0.115(2) 0.156(3) 0.132(3) -0.023(2) 0.045(2) 0.012(2)
C27 0.115(2) 0.156(3) 0.132(3) -0.023(2) 0.045(2) 0.012(2)
C28 0.179(4) 0.188(4) 0.085(2) -0.054(2) 0.050(2) -0.050(3)
C29 0.179(4) 0.188(4) 0.085(2) -0.054(2) 0.050(2) -0.050(3)
C30 0.179(4) 0.188(4) 0.085(2) -0.054(2) 0.050(2) -0.050(3)
C31 0.179(4) 0.188(4) 0.085(2) -0.054(2) 0.050(2) -0.050(3)
C32 0.179(4) 0.188(4) 0.085(2) -0.054(2) 0.050(2) -0.050(3)
C33 0.179(4) 0.188(4) 0.085(2) -0.054(2) 0.050(2) -0.050(3)
C34 0.151(3) 0.176(3) 0.116(3) -0.029(2) 0.028(2) -0.018(2)
C35 0.151(3) 0.176(3) 0.116(3) -0.029(2) 0.028(2) -0.018(2)
C36 0.151(3) 0.176(3) 0.116(3) -0.029(2) 0.028(2) -0.018(2)
C37 0.151(3) 0.176(3) 0.116(3) -0.029(2) 0.028(2) -0.018(2)
C38 0.151(3) 0.176(3) 0.116(3) -0.029(2) 0.028(2) -0.018(2)
C39 0.151(3) 0.176(3) 0.116(3) -0.029(2) 0.028(2) -0.018(2)
C40 0.151(3) 0.176(3) 0.116(3) -0.029(2) 0.028(2) -0.018(2)
C41 0.132(3) 0.128(3) 0.134(3) -0.046(2) 0.000(2) 0.0110(19)
C42 0.132(3) 0.128(3) 0.134(3) -0.046(2) 0.000(2) 0.0110(19)
C43 0.132(3) 0.128(3) 0.134(3) -0.046(2) 0.000(2) 0.0110(19)
C44 0.132(3) 0.128(3) 0.134(3) -0.046(2) 0.000(2) 0.0110(19)
C45 0.132(3) 0.128(3) 0.134(3) -0.046(2) 0.000(2) 0.0110(19)
C46 0.132(3) 0.128(3) 0.134(3) -0.046(2) 0.000(2) 0.0110(19)
C47 0.132(3) 0.128(3) 0.134(3) -0.046(2) 0.000(2) 0.0110(19)
C51 0.1099(17) 0.0961(15) 0.238(2) -0.0289(16) -0.0144(17) 0.0502(13)
C52 0.1099(17) 0.0961(15) 0.238(2) -0.0289(16) -0.0144(17) 0.0502(13)
C53 0.1099(17) 0.0961(15) 0.238(2) -0.0289(16) -0.0144(17) 0.0502(13)
C54 0.1099(17) 0.0961(15) 0.238(2) -0.0289(16) -0.0144(17) 0.0502(13)
C55 0.1099(17) 0.0961(15) 0.238(2) -0.0289(16) -0.0144(17) 0.0502(13)
C56 0.1099(17) 0.0961(15) 0.238(2) -0.0289(16) -0.0144(17) 0.0502(13)
C57 0.1099(17) 0.0961(15) 0.238(2) -0.0289(16) -0.0144(17) 0.0502(13)
C58 0.1099(17) 0.0961(15) 0.238(2) -0.0289(16) -0.0144(17) 0.0502(13)
C59 0.1099(17) 0.0961(15) 0.238(2) -0.0289(16) -0.0144(17) 0.0502(13)

_geom_special_details            
; 
 All esds (except the esd in the dihedral angle between two l.s. planes) 
 are estimated using the full covariance matrix.  The cell esds are taken 
 into account individually in the estimation of esds in distances, angles 
 and torsion angles; correlations between esds in cell parameters are only 
 used when they are defined by crystal symmetry.  An approximate (isotropic) 
 treatment of cell esds is used for estimating esds involving l.s. planes. 
;

loop_
_geom_bond_atom_site_label_1
_geom_bond_atom_site_label_2
_geom_bond_distance
_geom_bond_site_symmetry_2
_geom_bond_publ_flag
Fe1 O5 1.931(4) . ?
Fe1 O1S 1.945(4) . ?
Fe1 O4 2.045(6) 3 ?
Fe1 O12 2.055(5) . ?
Fe1 O2S 2.057(5) . ?
Fe1 O7 2.174(9) 5 ?
Fe2 O1S 1.839(3) . ?
Fe2 O4S 1.995(4) . ?
Fe2 O3 2.019(6) 3 ?
Fe2 O6 2.036(5) . ?
Fe2 O2 2.041(6) . ?
Fe2 O9 2.070(5) 3_565 ?
Fe3 O1S 1.936(4) . ?
Fe3 O10 1.951(4) 3_565 ?
Fe3 O3S 2.016(4) . ?
Fe3 O11 2.019(5) . ?
Fe3 O1 2.020(6) . ?
Fe3 O8 2.052(5) 5 ?
O1 C1 1.299(12) . ?
O2 C1 1.146(12) . ?
O3 C8 1.272(12) . ?
O3 Fe2 2.019(6) 2 ?
O4 C8 1.192(11) . ?
O4 Fe1 2.045(6) 2 ?
O5 C21 1.189(9) . ?
O6 C21 1.365(10) . ?
O7 C40 1.236(11) . ?
O7 Fe1 2.174(9) 9_554 ?
O8 C40 1.006(9) . ?
O8 Fe3 2.052(5) 9_554 ?
O9 C47 1.336(7) . ?
O9 Fe2 2.070(5) 2_665 ?
O10 C47 1.222(6) . ?
O10 Fe3 1.951(4) 2_665 ?
O11 C51 1.190(8) . ?
O12 C51 1.232(8) . ?
N1 N2 1.200(2) . ?
N1 C5 1.409(3) . ?
N2 C12 1.3828(11) . ?
C1 C2 1.4299(12) . ?
C2 C7 1.3792(10) . ?
C2 C3 1.3794(10) . ?
C3 C4 1.3792(11) . ?
C3 H3A 0.9500 . ?
C4 C5 1.3794(10) . ?
C4 H4A 0.9500 . ?
C5 C6 1.3791(10) . ?
C6 C7 1.3788(11) . ?
C6 H6A 0.9500 . ?
C7 H7A 0.9500 . ?
C8 C9 1.4299(12) . ?
C9 C10 1.3791(10) . ?
C9 C14 1.3794(10) . ?
C10 C11 1.3848(11) . ?
C10 H10A 0.9500 . ?
C11 C12 1.3689(10) . ?
C11 H11A 0.9500 . ?
C12 C13 1.3689(10) . ?
C13 C14 1.3852(11) . ?
C13 H13A 0.9500 . ?
C14 H14A 0.9500 . ?
C21 C22 1.453(2) . ?
C22 C27 1.3896(10) . ?
C22 C23 1.3907(10) . ?
C23 C24 1.3905(10) . ?
C23 H23A 0.9500 . ?
C24 C25 1.3897(10) . ?
C24 H24A 0.9500 . ?
C25 C26 1.3904(10) . ?
C25 C28 1.461(4) . ?
C26 C27 1.3905(10) . ?
C26 H26A 0.9500 . ?
C27 H27A 0.9500 . ?
C28 C33 1.3896(11) . ?
C28 C29 1.3902(11) . ?
C29 C30 1.3902(10) . ?
C29 H29A 0.9500 . ?
C30 C31 1.3899(10) . ?
C30 C41 1.484(5) . ?
C31 C32 1.3904(10) . ?
C31 H31A 0.9500 . ?
C32 C33 1.3900(10) . ?
C32 C34 1.502(5) . ?
C33 H33A 0.9500 . ?
C34 C39 1.3895(11) . ?
C34 C35 1.3897(11) . ?
C35 C36 1.3903(10) . ?
C35 H3