####################################################################### 
# 
# This file contains crystal structure data downloaded from the 
# Cambridge Structural Database (CSD) hosted by the Cambridge 
# Crystallographic Data Centre (CCDC).
# 
# Full information about CCDC data access policies and citation 
# guidelines are available at http://www.ccdc.cam.ac.uk/access/V1 
# 
# Audit and citation data items may have been added by the CCDC. 
# Please retain this information to preserve the provenance of 
# this file and to allow appropriate attribution of the data. 
# 
#######################################################################

data_r3m
_audit_block_doi                 10.5517/cc11rf9j
_database_code_depnum_ccdc_archive 'CCDC 975827'
loop_
_citation_id
_citation_doi
_citation_year
1 10.1038/ncomms6723 2014
_audit_update_record             
;
2013-12-07 deposited with the CCDC.	2024-07-13 downloaded from the CCDC.
;

_audit_creation_method           SHELXL-97
_chemical_name_systematic        
; 
 ? 
;
_chemical_name_common            ?
_chemical_melting_point          ?
_chemical_formula_moiety         '(Fe3 O4)3 (C27 H15 O6)4 (C14 H8 O4)3'
_chemical_formula_sum            'C150 H84 Fe9 O48'
_chemical_formula_weight         3156.82

loop_
_atom_type_symbol
_atom_type_description
_atom_type_scat_dispersion_real
_atom_type_scat_dispersion_imag
_atom_type_scat_source
C C 0.0033 0.0016 'International Tables Vol C Tables 4.2.6.8 and 6.1.1.4'
H H 0.0000 0.0000 'International Tables Vol C Tables 4.2.6.8 and 6.1.1.4'
N N 0.0061 0.0033 'International Tables Vol C Tables 4.2.6.8 and 6.1.1.4'
O O 0.0106 0.0060 'International Tables Vol C Tables 4.2.6.8 and 6.1.1.4'
Fe Fe 0.3463 0.8444 'International Tables Vol C Tables 4.2.6.8 and 6.1.1.4'

_symmetry_cell_setting           Hexagonal
_symmetry_space_group_name_H-M   R3m

loop_
_symmetry_equiv_pos_as_xyz
'x, y, z'
'-y, x-y, z'
'-x+y, -x, z'
'-x+y, y, z'
'x, x-y, z'
'-y, -x, z'
'x+2/3, y+1/3, z+1/3'
'-y+2/3, x-y+1/3, z+1/3'
'-x+y+2/3, -x+1/3, z+1/3'
'-x+y+2/3, y+1/3, z+1/3'
'x+2/3, x-y+1/3, z+1/3'
'-y+2/3, -x+1/3, z+1/3'
'x+1/3, y+2/3, z+2/3'
'-y+1/3, x-y+2/3, z+2/3'
'-x+y+1/3, -x+2/3, z+2/3'
'-x+y+1/3, y+2/3, z+2/3'
'x+1/3, x-y+2/3, z+2/3'
'-y+1/3, -x+2/3, z+2/3'

_cell_length_a                   33.020(16)
_cell_length_b                   33.020(16)
_cell_length_c                   22.796(11)
_cell_angle_alpha                90.00
_cell_angle_beta                 90.00
_cell_angle_gamma                120.00
_cell_volume                     21525(18)
_cell_formula_units_Z            3
_cell_measurement_temperature    110(2)
_cell_measurement_reflns_used    9062
_cell_measurement_theta_min      2.2851
_cell_measurement_theta_max      19.9682

_exptl_crystal_description       'Truncated Triangle'
_exptl_crystal_colour            Red
_exptl_crystal_size_max          0.30
_exptl_crystal_size_mid          0.30
_exptl_crystal_size_min          0.20
_exptl_crystal_density_meas      'not measured'
_exptl_crystal_density_diffrn    0.731
_exptl_crystal_density_method    'not measured'
_exptl_crystal_F_000             4806
_exptl_absorpt_coefficient_mu    0.484
_exptl_absorpt_correction_type   multi-scan
_exptl_absorpt_correction_T_min  0.8683
_exptl_absorpt_correction_T_max  0.9094
_exptl_absorpt_process_details   'SADABS (Sheldrick, 2008)'

_exptl_special_details           
; 
 ? 
;

_diffrn_ambient_temperature      110(2)
_diffrn_radiation_wavelength     0.71073
_diffrn_radiation_type           MoK\a
_diffrn_radiation_source         'fine-focus sealed tube'
_diffrn_radiation_monochromator  graphite
_diffrn_measurement_device_type  'Bruker SMART APEX II CCD area detector'
_diffrn_measurement_method       'phi and omega scans'
_diffrn_detector_area_resol_mean ?
_diffrn_reflns_number            46734
_diffrn_reflns_av_R_equivalents  0.1077
_diffrn_reflns_av_sigmaI/netI    0.1060
_diffrn_reflns_limit_h_min       -38
_diffrn_reflns_limit_h_max       37
_diffrn_reflns_limit_k_min       -37
_diffrn_reflns_limit_k_max       38
_diffrn_reflns_limit_l_min       -26
_diffrn_reflns_limit_l_max       26
_diffrn_reflns_theta_min         1.68
_diffrn_reflns_theta_max         24.49
_reflns_number_total             8359
_reflns_number_gt                4784
_reflns_threshold_expression     >2sigma(I)

_computing_data_collection       'APEX2  (Bruker, 2008)'
_computing_cell_refinement       'SAINT+ ver. (Bruker, 2001)'
_computing_data_reduction        'SAINT+ ver. (Bruker, 2001)'
_computing_structure_solution    'SHELXS-97 (Sheldrick, 2008)'
_computing_structure_refinement  'SHELXL-97 (Sheldrick, 2008)'
_computing_molecular_graphics    'SHELXTL (Sheldrick, 2008)'
_computing_publication_material  'SHELXTL (Sheldrick, 2008)'

_refine_special_details          
; 
 Refinement of F^2^ against ALL reflections.  The weighted R-factor wR and 
 goodness of fit S are based on F^2^, conventional R-factors R are based 
 on F, with F set to zero for negative F^2^. The threshold expression of 
 F^2^ > 2sigma(F^2^) is used only for calculating R-factors(gt) etc. and is 
 not relevant to the choice of reflections for refinement.  R-factors based 
 on F^2^ are statistically about twice as large as those based on F, and R- 
 factors based on ALL data will be even larger. 
;

_refine_ls_structure_factor_coef Fsqd
_refine_ls_matrix_type           full
_refine_ls_weighting_scheme      calc
_refine_ls_weighting_details     
'calc w=1/[\s^2^(Fo^2^)+(0.0300P)^2^+1.5000P] where P=(Fo^2^+2Fc^2^)/3'
_atom_sites_solution_primary     direct
_atom_sites_solution_secondary   difmap
_atom_sites_solution_hydrogens   geom
_refine_ls_hydrogen_treatment    constr
_refine_ls_extinction_method     none
_refine_ls_extinction_coef       ?
_refine_ls_abs_structure_details 'Flack H D (1983), Acta Cryst. A39, 876-881'
_refine_ls_abs_structure_Flack   0.11(2)
_refine_ls_number_reflns         8359
_refine_ls_number_parameters     214
_refine_ls_number_restraints     107
_refine_ls_R_factor_all          0.0856
_refine_ls_R_factor_gt           0.0552
_refine_ls_wR_factor_ref         0.1414
_refine_ls_wR_factor_gt          0.1327
_refine_ls_goodness_of_fit_ref   1.000
_refine_ls_restrained_S_all      1.001
_refine_ls_shift/su_max          0.001
_refine_ls_shift/su_mean         0.000

loop_
_atom_site_label
_atom_site_type_symbol
_atom_site_fract_x
_atom_site_fract_y
_atom_site_fract_z
_atom_site_U_iso_or_equiv
_atom_site_adp_type
_atom_site_occupancy
_atom_site_symmetry_multiplicity
_atom_site_calc_flag
_atom_site_refinement_flags
_atom_site_disorder_assembly
_atom_site_disorder_group
Fe1 Fe 0.151118(13) 0.30224(3) 0.47767(8) 0.0762(3) Uani 1 2 d S . .
Fe2 Fe 0.21658(2) 0.33416(2) 0.35831(8) 0.0786(2) Uani 1 1 d . . .
O1 O 0.16881(18) 0.25309(13) 0.4634(2) 0.1334(16) Uani 1 1 d . . .
O2 O 0.21232(14) 0.27450(13) 0.3837(2) 0.1120(13) Uani 1 1 d . . .
O3 O 0.13362(17) 0.34892(13) 0.50533(18) 0.1160(14) Uani 1 1 d . . .
O4 O 0.11009(13) 0.36913(13) 0.4269(2) 0.1111(12) Uani 1 1 d . . .
O5 O 0.0313(2) 0.48179(19) 0.9520(2) 0.1713(15) Uani 1 1 d . . .
O6 O 0.23206(12) 0.39621(12) 0.3270(2) 0.1147(13) Uani 1 1 d . . .
O7 O 0.16229(6) 0.32458(12) 0.3985(2) 0.0685(10) Uani 1 2 d S . .
O8 O 0.13970(9) 0.27940(18) 0.5637(2) 0.1226(18) Uani 1 2 d S . .
O9 O 0.27771(14) 0.34711(16) 0.31568(18) 0.1258(14) Uani 1 1 d . . .
C1 C 0.1895(3) 0.2455(2) 0.4260(4) 0.120(2) Uani 1 1 d . . .
C2 C 0.1939(4) 0.2038(2) 0.4291(4) 0.242(3) Uani 1 1 d D . .
C3 C 0.2180(3) 0.1946(2) 0.3860(3) 0.242(3) Uani 1 1 d D . .
H3 H 0.2364 0.2182 0.3582 0.290 Uiso 1 1 calc R . .
C4 C 0.2154(4) 0.1518(2) 0.3831(3) 0.242(3) Uani 1 1 d D . .
H4 H 0.2320 0.1459 0.3535 0.290 Uiso 1 1 calc R . .
C5 C 0.1883(4) 0.1170(2) 0.4239(4) 0.242(3) Uani 1 1 d D . .
C6 C 0.1645(3) 0.1259(2) 0.4672(4) 0.242(3) Uani 1 1 d D . .
H6 H 0.1465 0.1026 0.4954 0.290 Uiso 1 1 calc R . .
C7 C 0.1669(3) 0.1692(2) 0.4695(3) 0.242(3) Uani 1 1 d D . .
H7 H 0.1500 0.1750 0.4988 0.290 Uiso 1 1 calc R . .
C8 C 0.1212(2) 0.3739(2) 0.4787(3) 0.0928(16) Uani 1 1 d . . .
C9 C 0.1220(3) 0.41245(19) 0.5091(2) 0.1641(14) Uani 1 1 d D . .
C10 C 0.1405(2) 0.4234(2) 0.5653(2) 0.1641(14) Uani 1 1 d D . .
H10 H 0.1522 0.4055 0.5835 0.197 Uiso 1 1 calc R . .
C11 C 0.1417(2) 0.46097(19) 0.5952(2) 0.1641(14) Uani 1 1 d D . .
H11 H 0.1544 0.4685 0.6337 0.197 Uiso 1 1 calc R . .
C12 C 0.1246(3) 0.4875(2) 0.5692(2) 0.1641(14) Uani 1 1 d D . .
C13 C 0.1063(3) 0.4760(2) 0.5124(2) 0.1641(14) Uani 1 1 d D . .
H13 H 0.0946 0.4940 0.4941 0.197 Uiso 1 1 calc R . .
C14 C 0.1048(2) 0.4391(2) 0.4826(2) 0.1641(14) Uani 1 1 d D . .
H14 H 0.0920 0.4316 0.4442 0.197 Uiso 1 1 calc R . .
C15 C 0.1176(4) 0.5221(2) 0.6019(3) 0.254(4) Uani 1 1 d D . .
C16 C 0.1191(5) 0.5596(3) 0.5713(3) 0.254(4) Uani 1 2 d SD . .
H16 H 0.1212 0.5606 0.5297 0.304 Uiso 1 2 calc SR . .
C17 C 0.1146(4) 0.5209(2) 0.6627(3) 0.254(4) Uani 1 1 d D . .
H17 H 0.1135 0.4955 0.6836 0.304 Uiso 1 1 calc R . .
C18 C 0.1133(5) 0.5566(2) 0.6931(3) 0.254(4) Uani 1 2 d SD . .
C19 C 0.0927(3) 0.54636(17) 0.7543(3) 0.1713(15) Uani 1 2 d SD . .
C20 C 0.0839(3) 0.50541(16) 0.7829(2) 0.1713(15) Uani 1 1 d D . .
H20 H 0.0898 0.4834 0.7635 0.206 Uiso 1 1 calc R . .
C21 C 0.0665(3) 0.49687(17) 0.8394(2) 0.1713(15) Uani 1 1 d D . .
H21 H 0.0604 0.4689 0.8587 0.206 Uiso 1 1 calc R . .
C22 C 0.0578(4) 0.52888(19) 0.8684(3) 0.1713(15) Uani 1 2 d SD . .
C23 C 0.0374(5) 0.5187(3) 0.9294(5) 0.1713(15) Uani 1 2 d S . .
C24 C 0.20831(14) 0.4166(3) 0.3215(4) 0.112(3) Uani 1 2 d S . .
C25 C 0.23371(9) 0.46741(18) 0.3109(5) 0.1434(16) Uani 1 2 d SD . .
C26 C 0.28187(12) 0.49126(14) 0.3031(3) 0.1434(16) Uani 1 1 d D . .
H26 H 0.2983 0.4744 0.3017 0.172 Uiso 1 1 calc R . .
C27 C 0.30628(11) 0.53983(14) 0.2973(3) 0.1434(16) Uani 1 1 d D . .
H27 H 0.3392 0.5561 0.2922 0.172 Uiso 1 1 calc R . .
C28 C 0.28222(9) 0.56444(18) 0.2990(5) 0.1434(16) Uani 1 2 d SD . .
C29 C 0.30899(5) 0.61798(9) 0.29905(19) 0.0944(15) Uani 1 2 d SD . .
C30 C 0.28469(9) 0.64235(5) 0.29906(19) 0.0944(15) Uani 1 2 d SD . .
H30 H 0.2515 0.6257 0.2991 0.113 Uiso 1 2 calc SR . .

loop_
_atom_site_aniso_label
_atom_site_aniso_U_11
_atom_site_aniso_U_22
_atom_site_aniso_U_33
_atom_site_aniso_U_23
_atom_site_aniso_U_13
_atom_site_aniso_U_12
Fe1 0.0701(5) 0.0414(5) 0.1076(7) -0.0016(5) -0.0008(2) 0.0207(2)
Fe2 0.0668(4) 0.0555(3) 0.1123(5) -0.0008(3) 0.0001(4) 0.0297(3)
O1 0.185(4) 0.075(2) 0.168(4) 0.023(2) 0.056(3) 0.086(3)
O2 0.110(3) 0.066(2) 0.164(4) 0.014(2) 0.040(3) 0.047(2)
O3 0.182(4) 0.096(3) 0.105(3) 0.025(2) 0.034(3) 0.096(3)
O4 0.116(3) 0.092(2) 0.160(4) -0.036(2) -0.022(3) 0.078(2)
O5 0.300(5) 0.161(3) 0.107(2) 0.033(2) 0.056(2) 0.156(3)
O6 0.093(3) 0.071(2) 0.193(4) 0.048(2) 0.048(3) 0.050(2)
O7 0.0526(16) 0.048(2) 0.103(3) -0.008(2) -0.0042(10) 0.0241(10)
O8 0.157(4) 0.081(3) 0.104(4) 0.011(3) 0.0057(14) 0.0407(17)
O9 0.126(3) 0.185(4) 0.121(3) 0.007(3) 0.007(2) 0.119(3)
C1 0.147(5) 0.062(4) 0.171(6) -0.007(4) 0.016(5) 0.067(4)
C2 0.427(7) 0.149(3) 0.244(4) 0.091(3) 0.181(4) 0.215(4)
C3 0.427(7) 0.149(3) 0.244(4) 0.091(3) 0.181(4) 0.215(4)
C4 0.427(7) 0.149(3) 0.244(4) 0.091(3) 0.181(4) 0.215(4)
C5 0.427(7) 0.149(3) 0.244(4) 0.091(3) 0.181(4) 0.215(4)
C6 0.427(7) 0.149(3) 0.244(4) 0.091(3) 0.181(4) 0.215(4)
C7 0.427(7) 0.149(3) 0.244(4) 0.091(3) 0.181(4) 0.215(4)
C8 0.087(4) 0.096(4) 0.089(4) -0.014(4) 0.009(3) 0.041(3)
C9 0.319(5) 0.149(2) 0.1015(19) 0.0111(18) 0.022(3) 0.175(3)
C10 0.319(5) 0.149(2) 0.1015(19) 0.0111(18) 0.022(3) 0.175(3)
C11 0.319(5) 0.149(2) 0.1015(19) 0.0111(18) 0.022(3) 0.175(3)
C12 0.319(5) 0.149(2) 0.1015(19) 0.0111(18) 0.022(3) 0.175(3)
C13 0.319(5) 0.149(2) 0.1015(19) 0.0111(18) 0.022(3) 0.175(3)
C14 0.319(5) 0.149(2) 0.1015(19) 0.0111(18) 0.022(3) 0.175(3)
C15 0.573(12) 0.218(6) 0.112(3) 0.066(4) 0.102(5) 0.304(8)
C16 0.573(12) 0.218(6) 0.112(3) 0.066(4) 0.102(5) 0.304(8)
C17 0.573(12) 0.218(6) 0.112(3) 0.066(4) 0.102(5) 0.304(8)
C18 0.573(12) 0.218(6) 0.112(3) 0.066(4) 0.102(5) 0.304(8)
C19 0.300(5) 0.161(3) 0.107(2) 0.033(2) 0.056(2) 0.156(3)
C20 0.300(5) 0.161(3) 0.107(2) 0.033(2) 0.056(2) 0.156(3)
C21 0.300(5) 0.161(3) 0.107(2) 0.033(2) 0.056(2) 0.156(3)
C22 0.300(5) 0.161(3) 0.107(2) 0.033(2) 0.056(2) 0.156(3)
C23 0.300(5) 0.161(3) 0.107(2) 0.033(2) 0.056(2) 0.156(3)
C24 0.075(4) 0.100(6) 0.171(8) 0.037(5) 0.019(3) 0.050(3)
C25 0.0594(11) 0.0654(17) 0.307(5) 0.034(3) 0.0169(13) 0.0327(9)
C26 0.0594(11) 0.0654(17) 0.307(5) 0.034(3) 0.0169(13) 0.0327(9)
C27 0.0594(11) 0.0654(17) 0.307(5) 0.034(3) 0.0169(13) 0.0327(9)
C28 0.0594(11) 0.0654(17) 0.307(5) 0.034(3) 0.0169(13) 0.0327(9)
C29 0.057(2) 0.060(3) 0.167(5) -0.001(3) -0.0004(17) 0.0302(16)
C30 0.057(2) 0.060(3) 0.167(5) -0.001(3) -0.0004(17) 0.0302(16)

_geom_special_details            
; 
 All esds (except the esd in the dihedral angle between two l.s. planes) 
 are estimated using the full covariance matrix.  The cell esds are taken 
 into account individually in the estimation of esds in distances, angles 
 and torsion angles; correlations between esds in cell parameters are only 
 used when they are defined by crystal symmetry.  An approximate (isotropic) 
 treatment of cell esds is used for estimating esds involving l.s. planes. 
;

loop_
_geom_bond_atom_site_label_1
_geom_bond_atom_site_label_2
_geom_bond_distance
_geom_bond_site_symmetry_2
_geom_bond_publ_flag
Fe1 O7 1.914(5) . ?
Fe1 O3 2.000(4) . ?
Fe1 O3 2.000(4) 4 ?
Fe1 O1 2.007(4) 4 ?
Fe1 O1 2.007(4) . ?
Fe1 O8 2.067(5) . ?
Fe2 O7 1.894(2) . ?
Fe2 O5 1.969(5) 12_554 ?
Fe2 O6 1.981(3) . ?
Fe2 O2 1.990(4) . ?
Fe2 O4 2.031(4) 4 ?
Fe2 O9 2.083(4) . ?
O1 C1 1.194(7) . ?
O2 C1 1.303(8) . ?
O3 C8 1.247(7) . ?
O4 C8 1.222(6) . ?
O4 Fe2 2.031(4) 4 ?
O5 C23 1.244(6) . ?
O5 Fe2 1.969(5) 18 ?
O6 C24 1.270(5) . ?
O7 Fe2 1.894(2) 4 ?
C1 C2 1.457(7) . ?
C2 C3 1.388(6) . ?
C2 C7 1.391(6) . ?
C3 C4 1.375(6) . ?
C3 H3 0.9500 . ?
C4 C5 1.398(6) . ?
C4 H4 0.9500 . ?
C5 C6 1.384(6) . ?
C5 C5 1.509(9) 5 ?
C6 C7 1.390(6) . ?
C6 H6 0.9500 . ?
C7 H7 0.9500 . ?
C8 C9 1.439(7) . ?
C9 C10 1.387(6) . ?
C9 C14 1.401(6) . ?
C10 C11 1.396(6) . ?
C10 H10 0.9500 . ?
C11 C12 1.390(6) . ?
C11 H11 0.9500 . ?
C12 C13 1.399(6) . ?
C12 C15 1.476(6) . ?
C13 C14 1.374(6) . ?
C13 H13 0.9500 . ?
C14 H14 0.9500 . ?
C15 C17 1.389(5) . ?
C15 C16 1.399(4) . ?
C16 C15 1.399(4) 5_565 ?
C16 H16 0.9500 . ?
C17 C18 1.388(4) . ?
C17 H17 0.9500 . ?
C18 C17 1.388(4) 5_565 ?
C18 C19 1.514(9) . ?
C19 C20 1.394(4) 5_565 ?
C19 C20 1.394(4) . ?
C20 C21 1.382(5) . ?
C20 H20 0.9500 . ?
C21 C22 1.393(4) . ?
C21 H21 0.9500 . ?
C22 C21 1.393(4) 5_565 ?
C22 C23 1.508(12) . ?
C23 O5 1.244(6) 5_565 ?
C24 O6 1.270(5) 4 ?
C24 C25 1.473(9) . ?
C25 C26 1.389(4) . ?
C25 C26 1.389(4) 4 ?
C26 C27 1.395(4) . ?
C26 H26 0.9500 . ?
C27 C28 1.392(4) . ?
C27 H27 0.9500 . ?
C28 C27 1.392(4) 4 ?
C28 C29 1.531(6) . ?
C29 C30 1.3916(17) . ?
C29 C30 1.3916(17) 2_665 ?
C30 C29 1.3916(17) 3_565 ?
C30 H30 0.9500 . ?

loop_
_geom_angle_atom_site_label_1
_geom_angle_atom_site_label_2
_geom_angle_atom_site_label_3
_geom_angle
_geom_angle_site_symmetry_1
_geom_angle_site_symmetry_3
_geom_angle_publ_flag
O7 Fe1 O3 94.26(14) . . ?
O7 Fe1 O3 94.26(14) . 4 ?
O3 Fe1 O3 84.8(3) . 4 ?
O7 Fe1 O1 94.65(16) . 4 ?
O3 Fe1 O1 92.8(2) . 4 ?
O3 Fe1 O1 170.93(19) 4 4 ?
O7 Fe1 O1 94.65(16) . . ?
O3 Fe1 O1 170.93(19) . . ?
O3 Fe1 O1 92.8(2) 4 . ?
O1 Fe1 O1 88.1(3) 4 . ?
O7 Fe1 O8 178.9(2) . . ?
O3 Fe1 O8 84.94(16) . . ?
O3 Fe1 O8 84.94(16) 4 . ?
O1 Fe1 O8 86.13(18) 4 . ?
O1 Fe1 O8 86.13(18) . . ?
O7 Fe2 O5 96.62(19) . 12_554 ?
O7 Fe2 O6 94.63(15) . . ?
O5 Fe2 O6 92.6(2) 12_554 . ?
O7 Fe2 O2 95.83(15) . . ?
O5 Fe2 O2 87.5(2) 12_554 . ?
O6 Fe2 O2 169.47(15) . . ?
O7 Fe2 O4 92.80(17) . 4 ?
O5 Fe2 O4 170.6(2) 12_554 4 ?
O6 Fe2 O4 86.67(19) . 4 ?
O2 Fe2 O4 91.49(18) . 4 ?
O7 Fe2 O9 177.84(18) . . ?
O5 Fe2 O9 85.2(2) 12_554 . ?
O6 Fe2 O9 84.09(15) . . ?
O2 Fe2 O9 85.43(16) . . ?
O4 Fe2 O9 85.40(17) 4 . ?
C1 O1 Fe1 135.5(4) . . ?
C1 O2 Fe2 132.2(4) . . ?
C8 O3 Fe1 132.3(4) . . ?
C8 O4 Fe2 134.6(4) . 4 ?
C23 O5 Fe2 130.6(6) . 18 ?
C24 O6 Fe2 132.5(4) . . ?
Fe2 O7 Fe2 119.3(2) . 4 ?
Fe2 O7 Fe1 120.31(11) . . ?
Fe2 O7 Fe1 120.31(11) 4 . ?
O1 C1 O2 123.7(5) . . ?
O1 C1 C2 120.2(7) . . ?
O2 C1 C2 115.8(7) . . ?
C3 C2 C7 119.4(4) . . ?
C3 C2 C1 120.7(6) . . ?
C7 C2 C1 118.8(6) . . ?
C4 C3 C2 120.6(4) . . ?
C4 C3 H3 119.7 . . ?
C2 C3 H3 119.7 . . ?
C3 C4 C5 119.9(4) . . ?
C3 C4 H4 120.0 . . ?
C5 C4 H4 120.0 . . ?
C6 C5 C4 119.8(4) . . ?
C6 C5 C5 119.8(3) . 5 ?
C4 C5 C5 120.1(3) . 5 ?
C5 C6 C7 119.9(4) . . ?
C5 C6 H6 120.0 . . ?
C7 C6 H6 120.0 . . ?
C6 C7 C2 120.2(4) . . ?
C6 C7 H7 119.9 . . ?
C2 C7 H7 119.9 . . ?
O4 C8 O3 124.2(5) . . ?
O4 C8 C9 116.8(6) . . ?
O3 C8 C9 118.9(6) . . ?
C10 C9 C14 119.8(4) . . ?
C10 C9 C8 119.3(5) . . ?
C14 C9 C8 120.9(5) . . ?
C9 C10 C11 119.8(4) . . ?
C9 C10 H10 120.1 . . ?
C11 C10 H10 120.1 . . ?
C12 C11 C10 120.7(4) . . ?
C12 C11 H11 119.7 . . ?
C10 C11 H11 119.7 . . ?
C11 C12 C13 118.7(4) . . ?
C11 C12 C15 122.8(5) . . ?
C13 C12 C15 117.6(5) . . ?
C14 C13 C12 121.1(4) . . ?
C14 C13 H13 119.5 . . ?
C12 C13 H13 119.5 . . ?
C13 C14 C9 119.9(4) . . ?
C13 C14 H14 120.1 . . ?
C9 C14 H14 120.1 . . ?
C17 C15 C16 119.5(3) . . ?
C17 C15 C12 121.3(4) . . ?
C16 C15 C12 118.9(4) . . ?
C15 C16 C15 120.1(5) 5_565 . ?
C15 C16 H16 119.9 5_565 . ?
C15 C16 H16 119.9 . . ?
C18 C17 C15 120.5(3) . . ?
C18 C17 H17 119.8 . . ?
C15 C17 H17 119.8 . . ?
C17 C18 C17 119.9(5) . 5_565 ?
C17 C18 C19 118.1(3) . . ?
C17 C18 C19 118.1(3) 5_565 . ?
C20 C19 C20 119.9(5) 5_565 . ?
C20 C19 C18 120.0(2) 5_565 . ?
C20 C19 C18 120.0(2) . . ?
C21 C20 C19 119.8(4) . . ?
C21 C20 H20 120.1 . . ?
C19 C20 H20 120.1 . . ?
C20 C21 C22 120.7(4) . . ?
C20 C21 H21 119.6 . . ?
C22 C21 H21 119.7 . . ?
C21 C22 C21 119.1(5) . 5_565 ?
C21 C22 C23 120.5(2) . . ?
C21 C22 C23 120.5(2) 5_565 . ?
O5 C23 O5 128.2(10) 5_565 . ?
O5 C23 C22 115.8(5) 5_565 . ?
O5 C23 C22 115.8(5) . . ?
O6 C24 O6 124.0(7) 4 . ?
O6 C24 C25 118.0(4) 4 . ?
O6 C24 C25 118.0(4) . . ?
C26 C25 C26 119.0(4) . 4 ?
C26 C25 C24 120.4(2) . . ?
C26 C25 C24 120.4(2) 4 . ?
C25 C26 C27 120.2(3) . . ?
C25 C26 H26 119.9 . . ?
C27 C26 H26 119.9 . . ?
C28 C27 C26 119.9(3) . . ?
C28 C27 H27 120.1 . . ?
C26 C27 H27 120.1 . . ?
C27 C28 C27 119.2(4) 4 . ?
C27 C28 C29 120.4(2) 4 . ?
C27 C28 C29 120.4(2) . . ?
C30 C29 C30 119.9(3) . 2_665 ?
C30 C29 C28 120.04(15) . . ?
C30 C29 C28 120.04(15) 2_665 . ?
C29 C30 C29 120.1(3) . 3_565 ?
C29 C30 H30 120.0 . . ?
C29 C30 H30 120.0 3_565 . ?

loop_
_geom_torsion_atom_site_label_1
_geom_torsion_atom_site_label_2
_geom_torsion_atom_site_label_3
_geom_torsion_atom_site_label_4
_geom_torsion
_geom_torsion_site_symmetry_1
_geom_torsion_site_symmetry_2
_geom_torsion_site_symmetry_3
_geom_torsion_site_symmetry_4
_geom_torsion_publ_flag
O7 Fe1 O1 C1 16.5(7) . . . . ?
O3 Fe1 O1 C1 -152.8(11) . . . . ?
O3 Fe1 O1 C1 -78.1(7) 4 . . . ?
O1 Fe1 O1 C1 111.0(7) 4 . . . ?
O8 Fe1 O1 C1 -162.8(7) . . . . ?
O7 Fe2 O2 C1 -17.7(6) . . . . ?
O