####################################################################### 
# 
# This file contains crystal structure data downloaded from the 
# Cambridge Structural Database (CSD) hosted by the Cambridge 
# Crystallographic Data Centre (CCDC).
# 
# Full information about CCDC data access policies and citation 
# guidelines are available at http://www.ccdc.cam.ac.uk/access/V1 
# 
# Audit and citation data items may have been added by the CCDC. 
# Please retain this information to preserve the provenance of 
# this file and to allow appropriate attribution of the data. 
# 
#######################################################################

data_aaa_sq
_audit_block_doi                 10.5517/cc11rcsy
_database_code_depnum_ccdc_archive 'CCDC 975780'
loop_
_citation_id
_citation_doi
_citation_year
1 10.1038/ncomms6723 2014
_audit_update_record             
;
2013-12-07 deposited with the CCDC.	2024-07-13 downloaded from the CCDC.
;

_audit_creation_method           SHELXL-97
_chemical_name_systematic        
; 
 ? 
;
_chemical_name_common            ?
_chemical_melting_point          ?
_chemical_formula_moiety         '(Fe3 O4) (C14 H8 O4)3'
_chemical_formula_sum            'C42 H24 Fe3 O16'
_chemical_formula_weight         952.16

loop_
_atom_type_symbol
_atom_type_description
_atom_type_scat_dispersion_real
_atom_type_scat_dispersion_imag
_atom_type_scat_source
C C 0.0033 0.0016 'International Tables Vol C Tables 4.2.6.8 and 6.1.1.4'
H H 0.0000 0.0000 'International Tables Vol C Tables 4.2.6.8 and 6.1.1.4'
O O 0.0106 0.0060 'International Tables Vol C Tables 4.2.6.8 and 6.1.1.4'
Fe Fe 0.3463 0.8444 'International Tables Vol C Tables 4.2.6.8 and 6.1.1.4'

_symmetry_cell_setting           Tetragonal
_symmetry_space_group_name_H-M   P4(3)2(1)2

loop_
_symmetry_equiv_pos_as_xyz
'x, y, z'
'-y+1/2, x+1/2, z+3/4'
'-x, -y, z+1/2'
'y+1/2, -x+1/2, z+1/4'
'x+1/2, -y+1/2, -z+1/4'
'-x+1/2, y+1/2, -z+3/4'
'y, x, -z'
'-y, -x, -z+1/2'

_cell_length_a                   21.757(11)
_cell_length_b                   21.757(11)
_cell_length_c                   35.299(18)
_cell_angle_alpha                90.00
_cell_angle_beta                 90.00
_cell_angle_gamma                90.00
_cell_volume                     16709(14)
_cell_formula_units_Z            8
_cell_measurement_temperature    110(2)
_cell_measurement_reflns_used    2101
_cell_measurement_theta_min      2.1712
_cell_measurement_theta_max      20.3919

_exptl_crystal_description       'Square Bulk'
_exptl_crystal_colour            Orange
_exptl_crystal_size_max          0.20
_exptl_crystal_size_mid          0.20
_exptl_crystal_size_min          0.10
_exptl_crystal_density_meas      'not measured'
_exptl_crystal_density_diffrn    0.757
_exptl_crystal_density_method    'not measured'
_exptl_crystal_F_000             3856
_exptl_absorpt_coefficient_mu    0.550
_exptl_absorpt_correction_type   multi-scan
_exptl_absorpt_correction_T_min  0.8980
_exptl_absorpt_correction_T_max  0.9470
_exptl_absorpt_process_details   'SADABS (Sheldrick, 2008)'

_exptl_special_details           
; 
 ? 
;

_diffrn_ambient_temperature      110(2)
_diffrn_radiation_wavelength     0.71073
_diffrn_radiation_type           MoK\a
_diffrn_radiation_source         'fine-focus sealed tube'
_diffrn_radiation_monochromator  graphite
_diffrn_measurement_device_type  'Bruker SMART APEX II CCD area detector'
_diffrn_measurement_method       'phi and omega scans'
_diffrn_detector_area_resol_mean ?
_diffrn_reflns_number            60402
_diffrn_reflns_av_R_equivalents  0.1889
_diffrn_reflns_av_sigmaI/netI    0.1418
_diffrn_reflns_limit_h_min       -21
_diffrn_reflns_limit_h_max       22
_diffrn_reflns_limit_k_min       -21
_diffrn_reflns_limit_k_max       22
_diffrn_reflns_limit_l_min       -36
_diffrn_reflns_limit_l_max       24
_diffrn_reflns_theta_min         1.76
_diffrn_reflns_theta_max         21.77
_reflns_number_total             9857
_reflns_number_gt                6368
_reflns_threshold_expression     >2sigma(I)

_computing_data_collection       'APEX2  (Bruker, 2008)'
_computing_cell_refinement       'SAINT+ ver. (Bruker, 2001)'
_computing_data_reduction        'SAINT+ ver. (Bruker, 2001)'
_computing_structure_solution    'SHELXS-97 (Sheldrick, 2008)'
_computing_structure_refinement  'SHELXL-97 (Sheldrick, 2008)'
_computing_molecular_graphics    'SHELXTL (Sheldrick, 2008)'
_computing_publication_material  'SHELXTL (Sheldrick, 2008)'

_refine_special_details          
; 
 Refinement of F^2^ against ALL reflections.  The weighted R-factor wR and 
 goodness of fit S are based on F^2^, conventional R-factors R are based 
 on F, with F set to zero for negative F^2^. The threshold expression of 
 F^2^ > 2sigma(F^2^) is used only for calculating R-factors(gt) etc. and is 
 not relevant to the choice of reflections for refinement.  R-factors based 
 on F^2^ are statistically about twice as large as those based on F, and R- 
 factors based on ALL data will be even larger. 
;

_refine_ls_structure_factor_coef Fsqd
_refine_ls_matrix_type           full
_refine_ls_weighting_scheme      calc
_refine_ls_weighting_details     
'calc w=1/[\s^2^(Fo^2^)+(0.0300P)^2^+8.5000P] where P=(Fo^2^+2Fc^2^)/3'
_atom_sites_solution_primary     direct
_atom_sites_solution_secondary   difmap
_atom_sites_solution_hydrogens   geom
_refine_ls_hydrogen_treatment    constr
_refine_ls_extinction_method     SHELXL
_refine_ls_extinction_coef       0.00007(2)
_refine_ls_extinction_expression Fc^*^=kFc[1+0.001xFc^2^\l^3^/sin(2\q)]^-1/4^
_refine_ls_abs_structure_details 'Flack H D (1983), Acta Cryst. A39, 876-881'
_refine_ls_abs_structure_Flack   0.04(3)
_refine_ls_number_reflns         9857
_refine_ls_number_parameters     245
_refine_ls_number_restraints     0
_refine_ls_R_factor_all          0.0961
_refine_ls_R_factor_gt           0.0639
_refine_ls_wR_factor_ref         0.1423
_refine_ls_wR_factor_gt          0.1337
_refine_ls_goodness_of_fit_ref   1.000
_refine_ls_restrained_S_all      1.000
_refine_ls_shift/su_max          0.001
_refine_ls_shift/su_mean         0.000

loop_
_atom_site_label
_atom_site_type_symbol
_atom_site_fract_x
_atom_site_fract_y
_atom_site_fract_z
_atom_site_U_iso_or_equiv
_atom_site_adp_type
_atom_site_occupancy
_atom_site_symmetry_multiplicity
_atom_site_calc_flag
_atom_site_refinement_flags
_atom_site_disorder_assembly
_atom_site_disorder_group
Fe1 Fe 0.78344(5) 0.50024(6) 0.10032(3) 0.0289(3) Uani 1 1 d . . .
Fe2 Fe 0.84314(4) 0.49761(6) 0.01390(3) 0.0278(3) Uani 1 1 d . . .
Fe3 Fe 0.69377(4) 0.50546(5) 0.02412(3) 0.0269(3) Uani 1 1 d . . .
O1S O 0.77350(18) 0.5025(2) 0.04680(11) 0.0211(11) Uani 1 1 d . . .
O1 O 0.7127(2) 0.4381(2) 0.10768(14) 0.0372(15) Uani 1 1 d . . .
O2 O 0.6696(2) 0.4272(2) 0.04915(14) 0.0351(15) Uani 1 1 d . . .
O2S O 0.7948(2) 0.4984(3) 0.15857(13) 0.0557(15) Uani 1 1 d . . .
O3 O 0.3423(3) 0.0724(2) 0.15092(15) 0.0381(15) Uani 1 1 d . . .
O3S O 0.6072(2) 0.5105(2) -0.00094(13) 0.0378(15) Uani 1 1 d . . .
O10 O 0.8123(2) 0.4247(2) -0.01445(13) 0.0314(14) Uani 1 1 d . . .
O4S O 0.9189(2) 0.4917(3) -0.02393(14) 0.0491(16) Uani 1 1 d . . .
O8 O 0.3550(2) 0.9408(2) 0.15061(14) 0.0331(14) Uani 1 1 d . . .
O7 O 0.3831(2) 0.9303(2) 0.21255(14) 0.0380(16) Uani 1 1 d . . .
O9 O 0.7132(2) 0.4535(2) -0.02152(12) 0.0279(13) Uani 1 1 d . . .
O11 O 0.6915(2) 0.0567(2) -0.22495(12) 0.0271(13) Uani 1 1 d . . .
O4 O 0.3930(2) 0.0597(2) 0.20346(15) 0.0352(15) Uani 1 1 d . . .
O6 O 0.6560(2) 0.5521(2) 0.06572(13) 0.0322(14) Uani 1 1 d . . .
O12 O 0.7856(2) 0.0839(2) -0.24629(13) 0.0282(13) Uani 1 1 d . . .
O5 O 0.7251(2) 0.5695(2) 0.11195(13) 0.0275(13) Uani 1 1 d . . .
C1 C 0.6753(5) 0.4131(5) 0.0834(3) 0.0861(11) Uani 1 1 d . . .
C2 C 0.6398(3) 0.3601(3) 0.09907(17) 0.0861(11) Uani 1 1 d G . .
C3 C 0.6033(3) 0.3287(3) 0.07315(12) 0.0861(11) Uani 1 1 d G . .
H3A H 0.6056 0.3386 0.0470 0.103 Uiso 1 1 calc R . .
C4 C 0.5635(3) 0.2830(3) 0.08555(15) 0.0861(11) Uani 1 1 d G . .
H4A H 0.5386 0.2615 0.0678 0.103 Uiso 1 1 calc R . .
C5 C 0.5602(3) 0.2686(3) 0.12386(17) 0.0861(11) Uani 1 1 d G . .
C6 C 0.5967(3) 0.3000(3) 0.14978(13) 0.0861(11) Uani 1 1 d G . .
H6A H 0.5944 0.2901 0.1760 0.103 Uiso 1 1 calc R . .
C7 C 0.6364(3) 0.3457(3) 0.13738(15) 0.0861(11) Uani 1 1 d G . .
H7A H 0.6613 0.3672 0.1551 0.103 Uiso 1 1 calc R . .
C8 C 0.5125(3) 0.2226(3) 0.13705(17) 0.0861(11) Uani 1 1 d G . .
C9 C 0.4610(3) 0.2100(3) 0.11512(14) 0.0861(11) Uani 1 1 d G . .
H9A H 0.4543 0.2317 0.0921 0.103 Uiso 1 1 calc R . .
C10 C 0.4191(3) 0.1656(3) 0.12682(16) 0.0861(11) Uani 1 1 d G . .
H10A H 0.3839 0.1570 0.1118 0.103 Uiso 1 1 calc R . .
C11 C 0.4288(3) 0.1338(3) 0.16044(17) 0.0861(11) Uani 1 1 d G . .
C12 C 0.4804(3) 0.1463(3) 0.18236(14) 0.0861(11) Uani 1 1 d G . .
H12A H 0.4870 0.1246 0.2053 0.103 Uiso 1 1 calc R . .
C13 C 0.5222(3) 0.1907(3) 0.17067(16) 0.0861(11) Uani 1 1 d G . .
H13A H 0.5575 0.1993 0.1856 0.103 Uiso 1 1 calc R . .
C14 C 0.3860(6) 0.0858(5) 0.1731(3) 0.0861(11) Uani 1 1 d . . .
C21 C 0.6729(4) 0.5806(4) 0.0953(2) 0.0366(6) Uani 1 1 d . . .
C22 C 0.6289(2) 0.6249(2) 0.11267(14) 0.0366(6) Uani 1 1 d G . .
C23 C 0.5779(2) 0.6410(2) 0.09118(11) 0.0366(6) Uani 1 1 d G . .
H23A H 0.5698 0.6204 0.0680 0.044 Uiso 1 1 calc R . .
C24 C 0.53863(19) 0.6872(2) 0.10364(12) 0.0366(6) Uani 1 1 d G . .
H24A H 0.5037 0.6982 0.0890 0.044 Uiso 1 1 calc R . .
C25 C 0.5505(2) 0.71732(19) 0.13759(13) 0.0366(6) Uani 1 1 d G . .
C26 C 0.6015(2) 0.7012(2) 0.15908(11) 0.0366(6) Uani 1 1 d G . .
H26A H 0.6096 0.7218 0.1823 0.044 Uiso 1 1 calc R . .
C27 C 0.64076(19) 0.6550(2) 0.14662(13) 0.0366(6) Uani 1 1 d G . .
H27A H 0.6757 0.6440 0.1613 0.044 Uiso 1 1 calc R . .
C28 C 0.5118(2) 0.77212(19) 0.14824(13) 0.0366(6) Uani 1 1 d G . .
C29 C 0.4940(2) 0.7806(2) 0.18569(11) 0.0366(6) Uani 1 1 d G . .
H29A H 0.5098 0.7544 0.2049 0.044 Uiso 1 1 calc R . .
C30 C 0.4531(2) 0.8273(2) 0.19500(10) 0.0366(6) Uani 1 1 d G . .
H30A H 0.4409 0.8330 0.2206 0.044 Uiso 1 1 calc R . .
C31 C 0.4301(2) 0.8655(2) 0.16685(14) 0.0366(6) Uani 1 1 d G . .
C32 C 0.4479(2) 0.8571(2) 0.12940(12) 0.0366(6) Uani 1 1 d G . .
H32A H 0.4321 0.8833 0.1102 0.044 Uiso 1 1 calc R . .
C33 C 0.4888(2) 0.8104(2) 0.12009(10) 0.0366(6) Uani 1 1 d G . .
H33A H 0.5010 0.8046 0.0945 0.044 Uiso 1 1 calc R . .
C34 C 0.3855(4) 0.9148(4) 0.1768(3) 0.0366(6) Uani 1 1 d . . .
C41 C 0.7612(4) 0.4193(4) -0.0289(2) 0.0397(6) Uani 1 1 d . . .
C42 C 0.7506(2) 0.3748(2) -0.06067(12) 0.0397(6) Uani 1 1 d G . .
C43 C 0.69381(19) 0.3664(2) -0.07793(14) 0.0397(6) Uani 1 1 d G . .
H43A H 0.6590 0.3886 -0.0692 0.048 Uiso 1 1 calc R . .
C44 C 0.68797(18) 0.3256(2) -0.10800(14) 0.0397(6) Uani 1 1 d G . .
H44A H 0.6491 0.3199 -0.1198 0.048 Uiso 1 1 calc R . .
C45 C 0.7389(2) 0.2932(2) -0.12081(12) 0.0397(6) Uani 1 1 d G . .
C46 C 0.79574(19) 0.3015(2) -0.10355(14) 0.0397(6) Uani 1 1 d G . .
H46A H 0.8306 0.2794 -0.1123 0.048 Uiso 1 1 calc R . .
C47 C 0.80158(18) 0.3424(2) -0.07348(13) 0.0397(6) Uani 1 1 d G . .
H47A H 0.8404 0.3481 -0.0617 0.048 Uiso 1 1 calc R . .
C48 C 0.7337(2) 0.2468(2) -0.15347(13) 0.0397(6) Uani 1 1 d G . .
C49 C 0.78396(19) 0.2368(2) -0.17697(14) 0.0397(6) Uani 1 1 d G . .
H49A H 0.8184 0.2636 -0.1758 0.048 Uiso 1 1 calc R . .
C50 C 0.78382(19) 0.1878(2) -0.20219(13) 0.0397(6) Uani 1 1 d G . .
H50A H 0.8182 0.1810 -0.2182 0.048 Uiso 1 1 calc R . .
C51 C 0.7334(2) 0.1487(2) -0.20391(13) 0.0397(6) Uani 1 1 d G . .
C52 C 0.68308(19) 0.1586(2) -0.18042(14) 0.0397(6) Uani 1 1 d G . .
H52A H 0.6486 0.1319 -0.1816 0.048 Uiso 1 1 calc R . .
C53 C 0.68323(19) 0.2077(2) -0.15520(13) 0.0397(6) Uani 1 1 d G . .
H53A H 0.6489 0.2145 -0.1391 0.048 Uiso 1 1 calc R . .
C54 C 0.7360(4) 0.0936(4) -0.2263(2) 0.0397(6) Uani 1 1 d . . .

loop_
_atom_site_aniso_label
_atom_site_aniso_U_11
_atom_site_aniso_U_22
_atom_site_aniso_U_33
_atom_site_aniso_U_23
_atom_site_aniso_U_13
_atom_site_aniso_U_12
Fe1 0.0318(7) 0.0298(7) 0.0252(6) 0.0026(6) -0.0023(5) 0.0013(7)
Fe2 0.0316(7) 0.0269(7) 0.0247(6) 0.0011(6) 0.0006(5) 0.0012(6)
Fe3 0.0300(7) 0.0248(7) 0.0260(6) -0.0002(6) 0.0013(5) -0.0009(6)
O1S 0.024(3) 0.022(3) 0.017(3) 0.002(3) 0.002(2) -0.003(3)
O1 0.041(4) 0.039(4) 0.032(3) 0.018(3) 0.005(3) 0.003(3)
O2 0.046(4) 0.028(3) 0.032(4) 0.010(3) 0.006(3) -0.012(3)
O2S 0.055(4) 0.070(4) 0.043(3) 0.007(4) -0.015(3) 0.002(4)
O3 0.042(4) 0.029(3) 0.043(4) 0.006(3) 0.009(3) -0.008(3)
O3S 0.025(3) 0.053(4) 0.035(3) -0.002(3) 0.002(2) 0.013(3)
O10 0.037(4) 0.028(3) 0.029(3) -0.006(3) -0.012(3) 0.003(3)
O4S 0.046(3) 0.067(4) 0.035(3) -0.001(3) -0.018(3) 0.004(3)
O8 0.041(4) 0.026(3) 0.032(3) -0.006(3) -0.001(3) 0.010(3)
O7 0.037(4) 0.043(4) 0.033(4) -0.003(3) 0.002(3) 0.026(3)
O9 0.036(3) 0.027(3) 0.021(3) -0.003(2) 0.012(2) -0.004(3)
O11 0.029(3) 0.036(3) 0.016(3) -0.004(3) -0.006(2) 0.003(3)
O4 0.019(3) 0.039(4) 0.048(4) -0.004(3) 0.013(3) -0.016(3)
O6 0.032(3) 0.041(4) 0.023(3) -0.012(3) 0.003(3) 0.004(3)
O12 0.040(4) 0.012(3) 0.033(3) 0.005(2) -0.005(3) -0.004(3)
O5 0.033(3) 0.021(3) 0.028(3) 0.001(2) 0.003(3) 0.014(3)
C1 0.097(3) 0.097(3) 0.065(2) 0.0477(18) -0.0292(18) -0.0660(19)
C2 0.097(3) 0.097(3) 0.065(2) 0.0477(18) -0.0292(18) -0.0660(19)
C3 0.097(3) 0.097(3) 0.065(2) 0.0477(18) -0.0292(18) -0.0660(19)
C4 0.097(3) 0.097(3) 0.065(2) 0.0477(18) -0.0292(18) -0.0660(19)
C5 0.097(3) 0.097(3) 0.065(2) 0.0477(18) -0.0292(18) -0.0660(19)
C6 0.097(3) 0.097(3) 0.065(2) 0.0477(18) -0.0292(18) -0.0660(19)
C7 0.097(3) 0.097(3) 0.065(2) 0.0477(18) -0.0292(18) -0.0660(19)
C8 0.097(3) 0.097(3) 0.065(2) 0.0477(18) -0.0292(18) -0.0660(19)
C9 0.097(3) 0.097(3) 0.065(2) 0.0477(18) -0.0292(18) -0.0660(19)
C10 0.097(3) 0.097(3) 0.065(2) 0.0477(18) -0.0292(18) -0.0660(19)
C11 0.097(3) 0.097(3) 0.065(2) 0.0477(18) -0.0292(18) -0.0660(19)
C12 0.097(3) 0.097(3) 0.065(2) 0.0477(18) -0.0292(18) -0.0660(19)
C13 0.097(3) 0.097(3) 0.065(2) 0.0477(18) -0.0292(18) -0.0660(19)
C14 0.097(3) 0.097(3) 0.065(2) 0.0477(18) -0.0292(18) -0.0660(19)
C21 0.0394(16) 0.0366(15) 0.0337(15) -0.0034(12) 0.0046(12) 0.0026(12)
C22 0.0394(16) 0.0366(15) 0.0337(15) -0.0034(12) 0.0046(12) 0.0026(12)
C23 0.0394(16) 0.0366(15) 0.0337(15) -0.0034(12) 0.0046(12) 0.0026(12)
C24 0.0394(16) 0.0366(15) 0.0337(15) -0.0034(12) 0.0046(12) 0.0026(12)
C25 0.0394(16) 0.0366(15) 0.0337(15) -0.0034(12) 0.0046(12) 0.0026(12)
C26 0.0394(16) 0.0366(15) 0.0337(15) -0.0034(12) 0.0046(12) 0.0026(12)
C27 0.0394(16) 0.0366(15) 0.0337(15) -0.0034(12) 0.0046(12) 0.0026(12)
C28 0.0394(16) 0.0366(15) 0.0337(15) -0.0034(12) 0.0046(12) 0.0026(12)
C29 0.0394(16) 0.0366(15) 0.0337(15) -0.0034(12) 0.0046(12) 0.0026(12)
C30 0.0394(16) 0.0366(15) 0.0337(15) -0.0034(12) 0.0046(12) 0.0026(12)
C31 0.0394(16) 0.0366(15) 0.0337(15) -0.0034(12) 0.0046(12) 0.0026(12)
C32 0.0394(16) 0.0366(15) 0.0337(15) -0.0034(12) 0.0046(12) 0.0026(12)
C33 0.0394(16) 0.0366(15) 0.0337(15) -0.0034(12) 0.0046(12) 0.0026(12)
C34 0.0394(16) 0.0366(15) 0.0337(15) -0.0034(12) 0.0046(12) 0.0026(12)
C41 0.0344(14) 0.0457(16) 0.0391(15) -0.0128(11) 0.0003(12) 0.0000(13)
C42 0.0344(14) 0.0457(16) 0.0391(15) -0.0128(11) 0.0003(12) 0.0000(13)
C43 0.0344(14) 0.0457(16) 0.0391(15) -0.0128(11) 0.0003(12) 0.0000(13)
C44 0.0344(14) 0.0457(16) 0.0391(15) -0.0128(11) 0.0003(12) 0.0000(13)
C45 0.0344(14) 0.0457(16) 0.0391(15) -0.0128(11) 0.0003(12) 0.0000(13)
C46 0.0344(14) 0.0457(16) 0.0391(15) -0.0128(11) 0.0003(12) 0.0000(13)
C47 0.0344(14) 0.0457(16) 0.0391(15) -0.0128(11) 0.0003(12) 0.0000(13)
C48 0.0344(14) 0.0457(16) 0.0391(15) -0.0128(11) 0.0003(12) 0.0000(13)
C49 0.0344(14) 0.0457(16) 0.0391(15) -0.0128(11) 0.0003(12) 0.0000(13)
C50 0.0344(14) 0.0457(16) 0.0391(15) -0.0128(11) 0.0003(12) 0.0000(13)
C51 0.0344(14) 0.0457(16) 0.0391(15) -0.0128(11) 0.0003(12) 0.0000(13)
C52 0.0344(14) 0.0457(16) 0.0391(15) -0.0128(11) 0.0003(12) 0.0000(13)
C53 0.0344(14) 0.0457(16) 0.0391(15) -0.0128(11) 0.0003(12) 0.0000(13)
C54 0.0344(14) 0.0457(16) 0.0391(15) -0.0128(11) 0.0003(12) 0.0000(13)

_geom_special_details            
; 
 All esds (except the esd in the dihedral angle between two l.s. planes) 
 are estimated using the full covariance matrix.  The cell esds are taken 
 into account individually in the estimation of esds in distances, angles 
 and torsion angles; correlations between esds in cell parameters are only 
 used when they are defined by crystal symmetry.  An approximate (isotropic) 
 treatment of cell esds is used for estimating esds involving l.s. planes. 
;

loop_
_geom_bond_atom_site_label_1
_geom_bond_atom_site_label_2
_geom_bond_distance
_geom_bond_site_symmetry_2
_geom_bond_publ_flag
Fe1 O1S 1.902(4) . ?
Fe1 O8 2.017(5) 5_565 ?
Fe1 O5 2.012(5) . ?
Fe1 O3 2.035(5) 5 ?
Fe1 O2S 2.071(5) . ?
Fe1 O1 2.065(5) . ?
Fe2 O1S 1.912(4) . ?
Fe2 O7 1.977(5) 5_565 ?
Fe2 O10 1.991(5) . ?
Fe2 O4 2.015(5) 5 ?
Fe2 O11 2.028(5) 6_654 ?
Fe2 O4S 2.124(5) . ?
Fe3 O1S 1.912(4) . ?
Fe3 O6 1.965(5) . ?
Fe3 O2 1.989(5) . ?
Fe3 O9 2.013(5) . ?
Fe3 O12 2.020(5) 6_654 ?
Fe3 O3S 2.084(5) . ?
O1 C1 1.300(10) . ?
O2 C1 1.255(10) . ?
O3 C14 1.264(11) . ?
O3 Fe1 2.035(5) 5_455 ?
O10 C41 1.230(9) . ?
O8 C34 1.271(9) . ?
O8 Fe1 2.017(5) 5_465 ?
O7 C34 1.308(9) . ?
O7 Fe2 1.977(5) 5_465 ?
O9 C41 1.309(9) . ?
O11 C54 1.260(9) . ?
O11 Fe2 2.028(5) 6_644 ?
O4 C14 1.223(10) . ?
O4 Fe2 2.015(5) 5_455 ?
O6 C21 1.267(9) . ?
O12 C54 1.306(9) . ?
O12 Fe3 2.020(5) 6_644 ?
O5 C21 1.302(9) . ?
C1 C2 1.494(10) . ?
C2 C3 1.3900 . ?
C2 C7 1.3900 . ?
C3 C4 1.3900 . ?
C3 H3A 0.9500 . ?
C4 C5 1.3900 . ?
C4 H4A 0.9500 . ?
C5 C6 1.3900 . ?
C5 C8 1.515(5) . ?
C6 C7 1.3900 . ?
C6 H6A 0.9500 . ?
C7 H7A 0.9500 . ?
C8 C9 1.3900 . ?
C8 C13 1.3900 . ?
C9 C10 1.3900 . ?
C9 H9A 0.9500 . ?
C10 C11 1.3900 . ?
C10 H10A 0.9500 . ?
C11 C12 1.3900 . ?
C11 C14 1.469(10) . ?
C12 C13 1.3900 . ?
C12 H12A 0.9500 . ?
C13 H13A 0.9500 . ?
C21 C22 1.492(9) . ?
C22 C23 1.3900 . ?
C22 C27 1.3900 . ?
C23 C24 1.3900 . ?
C23 H23A 0.9500 . ?
C24 C25 1.3900 . ?
C24 H24A 0.9500 . ?
C25 C26 1.3900 . ?
C25 C28 1.506(5) . ?
C26 C27 1.3900 . ?
C26 H26A 0.9500 . ?
C27 H27A 0.9500 . ?
C28 C29 1.3900 . ?
C28 C33 1.3900 . ?
C29 C30 1.3900 . ?
C29 H29A 0.9500 . ?
C30 C31 1.3900 . ?
C30 H30A 0.9500 . ?
C31 C32 1.3900 . ?
C31 C34 1.487(9) . ?
C32 C33 1.3900 . ?
C32 H32A 0.9500 . ?
C33 H33A 0.9500 . ?
C41 C42 1.500(9) . ?
C42 C43 1.3900 . ?
C42 C47 1.3900 . ?
C43 C44 1.3900 . ?
C43 H43A 0.9500 . ?
C44 C45 1.3900 . ?
C44 H44A 0.9500 . ?
C45 C46 1.3900 . ?
C45 C48 1.536(5) . ?
C46 C47 1.3900 . ?
C46 H46A 0.9500 . ?
C47 H47A 0.9500 . ?
C48 C49 1.3900 . ?
C48 C53 1.3900 . ?
C49 C50 1.3900 . ?
C49 H49A 0.9500 . ?
C50 C51 1.3900 . ?
C50 H50A 0.9500 . ?
C51 C52 1.3900 . ?
C51 C54 1.436(8) . ?
C52 C53 1.3900 . ?
C52 H52A 0.9500 . ?
C53 H53A 0.9500 . ?

loop_
_geom_angle_atom_site_label_1
_geom_angle_atom_site_label_2
_geom_angle_atom_site_label_3
_geom_angle
_geom_angle_site_symmetry_1
_geom_angle_site_symmetry_3
_geom_angle_publ_flag
O1S Fe1 O8 93.2(2) . 5_565 ?
O1S Fe1 O5 96.41(19) . . ?
O8 Fe1 O5 90.8(2) 5_565 . ?
O1S Fe1 O3 94.0(2) . 5 ?
O8 Fe1 O3 90.4(2) 5_565 5 ?
O5 Fe1 O3 169.4(2) . 5 ?
O1S Fe1 O2S 179.5(2) . . ?
O8 Fe1 O2S 86.4(2) 5_565 . ?
O5 Fe1 O2S 83.5(2) . . ?
O3 Fe1 O2S 86.1(2) 5 . ?
O1S Fe1 O1 93.27(19) . . ?
O8 Fe1 O1 173.5(2) 5_565 . ?
O5 Fe1 O1 89.66(19) . . ?
O3 Fe1 O1 87.9(2) 5 . ?
O2S Fe1 O1 87.2(2) . . ?
O1S Fe2 O7 92.8(2) . 5_565 ?
O1S Fe2 O10 94.7(2) . . ?
O7 Fe2 O10 172.4(2) 5_565 . ?
O1S Fe2 O4 96.5(2) . 5 ?
O7 Fe2 O4 90.8(2) 5_565 5 ?
O10 Fe2 O4 88.6(2) . 5 ?
O1S Fe2 O11 94.73(19) . 6_654 ?
O7 Fe2 O11 86.9(2) 5_565 6_654 ?
O10 Fe2 O11 92.2(2) . 6_654 ?
O4 Fe2 O11 168.6(2) 5 6_654 ?
O1S Fe2 O4S 178.41(18) . . ?
O7 Fe2 O4S 88.3(2) 5_565 . ?
O10 Fe2 O4S 84.1(2) . . ?
O4 Fe2 O4S 84.5(2) 5 . ?
O11 Fe2 O4S 84.3(2) 6_654 . ?
O1S Fe3 O6 94.81(19) . . ?
O1S Fe3 O2 91.5(2) . . ?
O6 Fe3 O2 90.0(2) . . ?
O1S Fe3 O9 97.25(19) . . ?
O6 Fe3 O9 167.4(2) . . ?
O2 Fe3 O9 86.0(2) . . ?
O1S Fe3 O12 91.78(19) . 6_654 ?
O6 Fe3 O12 91.1(2) . 6_654 ?
O2 Fe3 O12 176.5(2) . 6_654 ?
O9 Fe3 O12 92.23(19) . 6_654 ?
O1S Fe3 O3S 178.9(2) . . ?
O6 Fe3 O3S 84.95(19) . . ?
O2 Fe3 O3S 89.7(2) . . ?
O9 Fe3 O3S 83.06(19) . . ?
O12 Fe3 O3S 87.1(2) 6_654 . ?
Fe1 O1