####################################################################### 
# 
# This file contains crystal structure data downloaded from the 
# Cambridge Structural Database (CSD) hosted by the Cambridge 
# Crystallographic Data Centre (CCDC).
# 
# Full information about CCDC data access policies and citation 
# guidelines are available at http://www.ccdc.cam.ac.uk/access/V1 
# 
# Audit and citation data items may have been added by the CCDC. 
# Please retain this information to preserve the provenance of 
# this file and to allow appropriate attribution of the data. 
# 
#######################################################################

data_ZnL-Zn
_audit_block_doi                 10.5517/cc13632h
_database_code_depnum_ccdc_archive 'CCDC 1018755'
loop_
_citation_id
_citation_doi
_citation_year
1 10.1002/chem.201406098 2015
_audit_update_record             
;
2014-08-09 deposited with the CCDC.	2024-07-13 downloaded from the CCDC.
;

_audit_creation_method           SHELXL-2014
_chemical_name_systematic        ZnL-Zn
_chemical_name_common            ?
_chemical_melting_point          ?
_chemical_formula_moiety         ?
_chemical_formula_sum            'C33 H27 O9.50 Zn1.50'
_chemical_formula_weight         673.60

loop_
_atom_type_symbol
_atom_type_description
_atom_type_scat_dispersion_real
_atom_type_scat_dispersion_imag
_atom_type_scat_source
C C 0.0181 0.0091 'International Tables Vol C Tables 4.2.6.8 and 6.1.1.4'
O O 0.0492 0.0322 'International Tables Vol C Tables 4.2.6.8 and 6.1.1.4'
Zn Zn -1.5491 0.6778 'International Tables Vol C Tables 4.2.6.8 and 6.1.1.4'
H H 0.0000 0.0000 'International Tables Vol C Tables 4.2.6.8 and 6.1.1.4'

_space_group_crystal_system      tetragonal
_space_group_IT_number           82
_space_group_name_H-M_alt        'I -4'
_space_group_name_Hall           'I -4'

_shelx_space_group_comment       
;
The symmetry employed for this shelxl refinement is uniquely defined
by the following loop, which should always be used as a source of
symmetry information in preference to the above space-group names.
They are only intended as comments.
;

loop_
_space_group_symop_operation_xyz
'x, y, z'
'-x, -y, z'
'y, -x, -z'
'-y, x, -z'
'x+1/2, y+1/2, z+1/2'
'-x+1/2, -y+1/2, z+1/2'
'y+1/2, -x+1/2, -z+1/2'
'-y+1/2, x+1/2, -z+1/2'

_cell_length_a                   32.7722(5)
_cell_length_b                   32.7722(5)
_cell_length_c                   8.1576(3)
_cell_angle_alpha                90
_cell_angle_beta                 90
_cell_angle_gamma                90
_cell_volume                     8761.4(4)
_cell_formula_units_Z            8
_cell_measurement_temperature    293(2)
_cell_measurement_reflns_used    0
_cell_measurement_theta_min      0
_cell_measurement_theta_max      0

_exptl_crystal_description       ?
_exptl_crystal_colour            colorless
_exptl_crystal_density_meas      ?
_exptl_crystal_density_method    'not measured'
_exptl_crystal_density_diffrn    1.021
_exptl_crystal_F_000             2768
_exptl_transmission_factor_min   ?
_exptl_transmission_factor_max   ?
_exptl_crystal_size_max          0
_exptl_crystal_size_mid          0
_exptl_crystal_size_min          0
_exptl_absorpt_coefficient_mu    1.398
_shelx_estimated_absorpt_T_min   ?
_shelx_estimated_absorpt_T_max   ?
_exptl_absorpt_correction_type   none
_exptl_absorpt_correction_T_min  ?
_exptl_absorpt_correction_T_max  ?
_exptl_absorpt_process_details   ?

_exptl_special_details           
;
 
;

_diffrn_ambient_temperature      293(2)
_diffrn_radiation_wavelength     1.54178
_diffrn_radiation_type           CuK\a
_diffrn_source                   ?
_diffrn_measurement_device_type  ?
_diffrn_measurement_method       ?
_diffrn_detector_area_resol_mean ?
_diffrn_reflns_number            8623
_diffrn_reflns_av_unetI/netI     0.0374
_diffrn_reflns_av_R_equivalents  0.0225
_diffrn_reflns_limit_h_min       -38
_diffrn_reflns_limit_h_max       26
_diffrn_reflns_limit_k_min       -40
_diffrn_reflns_limit_k_max       28
_diffrn_reflns_limit_l_min       -5
_diffrn_reflns_limit_l_max       9
_diffrn_reflns_theta_min         3.815
_diffrn_reflns_theta_max         72.061
_diffrn_reflns_theta_full        67.679
_diffrn_measured_fraction_theta_max 0.976
_diffrn_measured_fraction_theta_full 0.999
_diffrn_reflns_Laue_measured_fraction_max 0.976
_diffrn_reflns_Laue_measured_fraction_full 0.999
_diffrn_reflns_point_group_measured_fraction_max 0.975
_diffrn_reflns_point_group_measured_fraction_full 0.999
_reflns_number_total             6318
_reflns_number_gt                5578
_reflns_threshold_expression     'I > 2\s(I)'
_reflns_Friedel_coverage         0.860
_reflns_Friedel_fraction_max     0.974
_reflns_Friedel_fraction_full    0.999

_reflns_special_details          
;
 Reflections were merged by SHELXL according to the crystal
 class for the calculation of statistics and refinement.
 
 _reflns_Friedel_fraction is defined as the number of unique
 Friedel pairs measured divided by the number that would be
 possible theoretically, ignoring centric projections and
 systematic absences.
;

_computing_data_collection       ?
_computing_cell_refinement       ?
_computing_data_reduction        ?
_computing_structure_solution    ?
_computing_structure_refinement  'SHELXL-2014 (Sheldrick, 2014)'
_computing_molecular_graphics    'Ortep for Windows (Farrugia, 2012)'
_computing_publication_material  'WinGX publication routines (Farrugia, 2012)'

_refine_special_details          SQUEEZE
_refine_ls_structure_factor_coef Fsqd
_refine_ls_matrix_type           full
_refine_ls_weighting_scheme      calc
_refine_ls_weighting_details     
'w=1/[\s^2^(Fo^2^)+(0.1519P)^2^] where P=(Fo^2^+2Fc^2^)/3'
_atom_sites_solution_primary     ?
_atom_sites_solution_secondary   ?
_atom_sites_solution_hydrogens   geom
_refine_ls_hydrogen_treatment    constr
_refine_ls_extinction_method     SHELXL
_refine_ls_extinction_coef       0.00003(3)
_refine_ls_extinction_expression Fc^*^=kFc[1+0.001xFc^2^\l^3^/sin(2\q)]^-1/4^
_refine_ls_abs_structure_details 
;
 Refined as an inversion twin.
;
_refine_ls_abs_structure_Flack   0.69(6)
_chemical_absolute_configuration unk
_refine_ls_number_reflns         6318
_refine_ls_number_parameters     343
_refine_ls_number_restraints     0
_refine_ls_R_factor_all          0.0764
_refine_ls_R_factor_gt           0.0708
_refine_ls_wR_factor_ref         0.2096
_refine_ls_wR_factor_gt          0.1998
_refine_ls_goodness_of_fit_ref   1.088
_refine_ls_restrained_S_all      1.088
_refine_ls_shift/su_max          1.204
_refine_ls_shift/su_mean         0.044

loop_
_atom_site_label
_atom_site_type_symbol
_atom_site_fract_x
_atom_site_fract_y
_atom_site_fract_z
_atom_site_U_iso_or_equiv
_atom_site_adp_type
_atom_site_occupancy
_atom_site_site_symmetry_order
_atom_site_calc_flag
_atom_site_refinement_flags_posn
_atom_site_refinement_flags_adp
_atom_site_refinement_flags_occupancy
_atom_site_disorder_assembly
_atom_site_disorder_group
C1 C 0.0578(2) 0.0719(2) 0.5201(9) 0.0573(17) Uani 1 1 d . . . . .
C2 C 0.0884(3) 0.0973(2) 0.4334(14) 0.084(3) Uani 1 1 d . . . . .
H2A H 0.1147 0.0837 0.4346 0.101 Uiso 1 1 calc R U . . .
H2B H 0.0803 0.1011 0.3201 0.101 Uiso 1 1 calc R U . . .
C3 C 0.1153(2) 0.1652(2) 0.4359(9) 0.0577(16) Uani 1 1 d . . . . .
C4 C 0.1094(2) 0.2049(2) 0.4948(11) 0.0656(19) Uani 1 1 d . . . . .
H4 H 0.0917 0.2098 0.5815 0.079 Uiso 1 1 calc R U . . .
C5 C 0.1305(2) 0.2366(3) 0.4218(11) 0.069(2) Uani 1 1 d . . . . .
H5 H 0.1265 0.2631 0.4598 0.083 Uiso 1 1 calc R U . . .
C6 C 0.1570(2) 0.2301(2) 0.2950(11) 0.0631(17) Uani 1 1 d . . . . .
C7 C 0.1632(2) 0.1911(2) 0.2386(9) 0.0570(17) Uani 1 1 d . . . . .
H7 H 0.1811 0.1867 0.1519 0.068 Uiso 1 1 calc R U . . .
C8 C 0.1427(2) 0.1576(2) 0.3106(10) 0.0602(17) Uani 1 1 d . . . . .
H8 H 0.1475 0.1311 0.2745 0.072 Uiso 1 1 calc R U . . .
C9 C 0.1777(2) 0.2655(2) 0.2103(11) 0.0589(16) Uani 1 1 d . . . . .
C10 C 0.2123(2) 0.2837(3) 0.2822(11) 0.0655(18) Uani 1 1 d . . . . .
C11 C 0.2284(2) 0.3190(2) 0.2077(12) 0.0629(18) Uani 1 1 d . . . . .
C12 C 0.2118(3) 0.3367(2) 0.0704(11) 0.069(2) Uani 1 1 d . . . . .
C13 C 0.1756(2) 0.3190(2) 0.0045(13) 0.068(2) Uani 1 1 d . . . . .
C14 C 0.1602(2) 0.2827(3) 0.0706(11) 0.068(2) Uani 1 1 d . . . . .
C15 C 0.2630(2) 0.3414(2) 0.2914(11) 0.0621(17) Uani 1 1 d . . . . .
C16 C 0.2553(2) 0.3680(2) 0.4202(12) 0.068(2) Uani 1 1 d . . . . .
H16 H 0.2289 0.3702 0.4614 0.081 Uiso 1 1 calc R U . . .
C17 C 0.2861(2) 0.3912(3) 0.4881(11) 0.068(2) Uani 1 1 d . . . . .
H17 H 0.2804 0.4095 0.5722 0.081 Uiso 1 1 calc R U . . .
C18 C 0.3261(2) 0.3871(2) 0.4295(9) 0.0556(16) Uani 1 1 d . . . . .
C19 C 0.3344(2) 0.3594(2) 0.3058(11) 0.0631(18) Uani 1 1 d . . . . .
H19 H 0.3610 0.3559 0.2684 0.076 Uiso 1 1 calc R U . . .
C20 C 0.3028(2) 0.3371(2) 0.2383(10) 0.066(2) Uani 1 1 d . . . . .
H20 H 0.3084 0.3186 0.1549 0.080 Uiso 1 1 calc R U . . .
C21 C 0.3947(2) 0.4115(3) 0.4387(9) 0.0622(19) Uani 1 1 d . . . . .
H21A H 0.3943 0.4155 0.3209 0.075 Uiso 1 1 calc R U . . .
H21B H 0.4077 0.3856 0.4620 0.075 Uiso 1 1 calc R U . . .
C22 C 0.4174(2) 0.4455(2) 0.5201(8) 0.0556(17) Uani 1 1 d . . . . .
C23 C 0.1578(7) 0.3372(7) -0.152(4) 0.195(3) Uani 1 1 d G . . . .
C24 C 0.1611(7) 0.3305(10) -0.296(4) 0.195(3) Uani 1 1 d G . . . .
H24 H 0.1787 0.3089 -0.3176 0.234 Uiso 1 1 calc R U . . .
C25 C 0.1458(6) 0.3465(6) -0.432(4) 0.195(3) Uani 1 1 d . . . . .
H25 H 0.1550 0.3394 -0.5361 0.234 Uiso 1 1 calc R U . . .
C26 C 0.1145(7) 0.3751(7) -0.405(4) 0.195(3) Uani 1 1 d . . . . .
C27 C 0.1068(6) 0.3845(6) -0.230(4) 0.195(3) Uani 1 1 d . . . . .
H27 H 0.0877 0.4046 -0.2067 0.234 Uiso 1 1 calc R U . . .
C28 C 0.1257(6) 0.3658(6) -0.099(4) 0.195(3) Uani 1 1 d . . . . .
H28 H 0.1189 0.3706 0.0096 0.234 Uiso 1 1 calc R U . . .
C29 C 0.1226(2) 0.2626(3) -0.0034(14) 0.080(3) Uani 1 1 d . . . . .
H29A H 0.1028 0.2831 -0.0299 0.120 Uiso 1 1 calc R U . . .
H29B H 0.1111 0.2438 0.0742 0.120 Uiso 1 1 calc R U . . .
H29C H 0.1301 0.2482 -0.1012 0.120 Uiso 1 1 calc R U . . .
C30 C 0.2334(2) 0.2641(3) 0.4227(12) 0.073(2) Uani 1 1 d . . . . .
H30A H 0.2404 0.2365 0.3942 0.109 Uiso 1 1 calc R U . . .
H30B H 0.2156 0.2639 0.5162 0.109 Uiso 1 1 calc R U . . .
H30C H 0.2577 0.2790 0.4485 0.109 Uiso 1 1 calc R U . . .
C31 C 0.2285(3) 0.3745(3) -0.0050(13) 0.079(2) Uani 1 1 d . . . . .
H31A H 0.2516 0.3677 -0.0720 0.118 Uiso 1 1 calc R U . . .
H31B H 0.2368 0.3930 0.0798 0.118 Uiso 1 1 calc R U . . .
H31C H 0.2078 0.3871 -0.0714 0.118 Uiso 1 1 calc R U . . .
C32 C 0.0750(6) 0.4430(5) -0.488(3) 0.195(3) Uani 1 1 d . . . . .
H32A H 0.0625 0.4425 -0.3801 0.234 Uiso 1 1 calc R U . . .
H32B H 0.0959 0.4640 -0.4889 0.234 Uiso 1 1 calc R U . . .
C33 C 0.0434(6) 0.4520(7) -0.616(4) 0.195(3) Uani 1 1 d . . . . .
O1 O 0.04201(15) 0.08557(15) 0.6476(6) 0.0573(12) Uani 1 1 d . . . . .
O2 O 0.0505(2) 0.03793(13) 0.4566(9) 0.085(2) Uani 1 1 d . . . . .
O3 O 0.40121(15) 0.46701(16) 0.6282(6) 0.0580(12) Uani 1 1 d . . . . .
O4 O 0.45431(16) 0.44962(18) 0.4890(8) 0.0745(16) Uani 1 1 d . . . . .
O5 O 0.0606(4) 0.4270(4) -0.786(3) 0.195(3) Uani 1 1 d . . . . .
O6 O 0.0273(4) 0.4704(4) -0.643(2) 0.195(3) Uani 1 1 d . . . . .
O7 O 0.35367(16) 0.41186(15) 0.5028(7) 0.0640(13) Uani 1 1 d . . . . .
O8 O 0.09178(15) 0.13623(14) 0.5121(6) 0.0568(11) Uani 1 1 d . . . . .
O9 O 0.0950(4) 0.3990(4) -0.530(3) 0.195(3) Uani 1 1 d . . . . .
O10 O 0.0000 0.0000 0.7460(7) 0.170(7) Uani 1 2 d S T P . .
Zn1 Zn 0.00550(3) 0.05597(2) 0.80093(10) 0.0464(3) Uani 1 1 d . . . . .
Zn2 Zn 0.0000 0.0000 0.5000 0.0531(5) Uani 1 4 d S T P . .
Zn3 Zn 0.0000 0.5000 -0.7500 0.335(9) Uani 1 4 d S T P . .

loop_
_atom_site_aniso_label
_atom_site_aniso_U_11
_atom_site_aniso_U_22
_atom_site_aniso_U_33
_atom_site_aniso_U_23
_atom_site_aniso_U_13
_atom_site_aniso_U_12
C1 0.049(3) 0.073(4) 0.050(4) 0.014(3) 0.023(3) 0.006(3)
C2 0.105(7) 0.052(4) 0.095(7) 0.015(4) 0.034(6) -0.022(4)
C3 0.060(4) 0.065(4) 0.048(3) 0.002(3) 0.009(3) -0.026(3)
C4 0.067(4) 0.069(4) 0.061(4) -0.001(4) 0.015(4) -0.033(4)
C5 0.061(4) 0.070(4) 0.076(5) 0.005(4) 0.003(4) -0.028(4)
C6 0.054(3) 0.070(4) 0.065(4) -0.010(4) -0.007(4) -0.020(3)
C7 0.053(3) 0.062(4) 0.056(4) -0.001(3) 0.008(3) -0.020(3)
C8 0.060(4) 0.061(4) 0.060(4) 0.002(4) 0.005(4) -0.025(3)
C9 0.052(3) 0.056(3) 0.069(4) 0.003(4) 0.002(4) -0.024(3)
C10 0.051(3) 0.081(5) 0.065(4) -0.009(4) 0.004(3) -0.020(3)
C11 0.052(3) 0.053(3) 0.085(5) 0.000(4) -0.001(4) -0.015(3)
C12 0.077(5) 0.057(4) 0.075(5) 0.010(4) 0.002(4) -0.024(4)
C13 0.056(4) 0.058(4) 0.089(5) 0.006(4) -0.012(4) -0.018(3)
C14 0.060(4) 0.071(4) 0.072(5) 0.007(4) -0.006(4) -0.021(4)
C15 0.060(4) 0.063(4) 0.063(4) -0.001(4) 0.003(4) -0.025(3)
C16 0.058(4) 0.058(4) 0.087(6) -0.001(4) 0.005(4) -0.018(3)
C17 0.066(4) 0.076(5) 0.061(4) -0.021(4) 0.006(4) -0.030(4)
C18 0.059(4) 0.058(4) 0.049(3) 0.003(3) 0.008(3) -0.015(3)
C19 0.056(3) 0.070(4) 0.063(4) -0.014(4) 0.012(4) -0.028(3)
C20 0.069(4) 0.069(4) 0.061(4) -0.006(3) 0.004(4) -0.035(4)
C21 0.054(4) 0.090(5) 0.043(3) -0.011(4) 0.006(3) -0.033(4)
C22 0.063(4) 0.073(4) 0.030(3) -0.001(3) -0.004(3) -0.031(3)
C23 0.148(4) 0.151(4) 0.287(9) 0.084(5) -0.076(5) -0.018(3)
C24 0.148(4) 0.151(4) 0.287(9) 0.084(5) -0.076(5) -0.018(3)
C25 0.148(4) 0.151(4) 0.287(9) 0.084(5) -0.076(5) -0.018(3)
C26 0.148(4) 0.151(4) 0.287(9) 0.084(5) -0.076(5) -0.018(3)
C27 0.148(4) 0.151(4) 0.287(9) 0.084(5) -0.076(5) -0.018(3)
C28 0.148(4) 0.151(4) 0.287(9) 0.084(5) -0.076(5) -0.018(3)
C29 0.058(4) 0.086(5) 0.096(6) 0.028(5) -0.021(5) -0.038(4)
C30 0.062(4) 0.074(5) 0.083(6) 0.006(4) 0.001(4) -0.028(4)
C31 0.087(6) 0.072(5) 0.076(5) 0.008(5) -0.008(5) -0.033(4)
C32 0.148(4) 0.151(4) 0.287(9) 0.084(5) -0.076(5) -0.018(3)
C33 0.148(4) 0.151(4) 0.287(9) 0.084(5) -0.076(5) -0.018(3)
O1 0.062(3) 0.058(3) 0.052(3) 0.015(2) 0.004(2) -0.021(2)
O2 0.109(4) 0.032(2) 0.115(5) 0.011(3) 0.075(4) 0.006(3)
O3 0.061(3) 0.076(3) 0.037(2) 0.000(2) -0.015(2) -0.032(2)
O4 0.057(3) 0.097(4) 0.070(3) -0.002(3) -0.026(3) -0.038(3)
O5 0.148(4) 0.151(4) 0.287(9) 0.084(5) -0.076(5) -0.018(3)
O6 0.148(4) 0.151(4) 0.287(9) 0.084(5) -0.076(5) -0.018(3)
O7 0.072(3) 0.067(3) 0.053(2) -0.014(2) 0.016(3) -0.034(2)
O8 0.066(3) 0.057(2) 0.047(2) -0.001(2) 0.005(2) -0.024(2)
O9 0.148(4) 0.151(4) 0.287(9) 0.084(5) -0.076(5) -0.018(3)
O10 0.45(2) 0.049(4) 0.010(3) 0.000 0.000 -0.111(8)
Zn1 0.0563(5) 0.0361(4) 0.0468(4) -0.0015(3) 0.0189(4) -0.0030(3)
Zn2 0.0674(7) 0.0674(7) 0.0243(7) 0.000 0.000 0.000
Zn3 0.184(4) 0.184(4) 0.64(3) 0.000 0.000 0.000

_geom_special_details            
;
 All esds (except the esd in the dihedral angle between two l.s. planes)
 are estimated using the full covariance matrix.  The cell esds are taken
 into account individually in the estimation of esds in distances, angles
 and torsion angles; correlations between esds in cell parameters are only
 used when they are defined by crystal symmetry.  An approximate (isotropic)
 treatment of cell esds is used for estimating esds involving l.s. planes.
;

loop_
_geom_bond_atom_site_label_1
_geom_bond_atom_site_label_2
_geom_bond_distance
_geom_bond_site_symmetry_2
_geom_bond_publ_flag
C1 O1 1.245(9) . ?
C1 O2 1.250(10) . ?
C1 C2 1.486(10) . ?
C2 O8 1.431(10) . ?
C2 H2A 0.9700 . ?
C2 H2B 0.9700 . ?
C3 O8 1.373(8) . ?
C3 C8 1.383(11) . ?
C3 C4 1.400(11) . ?
C4 C5 1.382(10) . ?
C4 H4 0.9300 . ?
C5 C6 1.368(12) . ?
C5 H5 0.9300 . ?
C6 C7 1.373(10) . ?
C6 C9 1.512(10) . ?
C7 C8 1.416(9) . ?
C7 H7 0.9300 . ?
C8 H8 0.9300 . ?
C9 C14 1.394(12) . ?
C9 C10 1.410(10) . ?
C10 C11 1.407(11) . ?
C10 C30 1.486(13) . ?
C11 C12 1.374(13) . ?
C11 C15 1.514(10) . ?
C12 C13 1.423(11) . ?
C12 C31 1.487(10) . ?
C13 C14 1.403(11) . ?
C13 C23 1.53(3) . ?
C14 C29 1.523(10) . ?
C15 C20 1.379(11) . ?
C15 C16 1.388(12) . ?
C16 C17 1.381(10) . ?
C16 H16 0.9300 . ?
C17 C18 1.400(10) . ?
C17 H17 0.9300 . ?
C18 O7 1.355(8) . ?
C18 C19 1.384(10) . ?
C19 C20 1.383(9) . ?
C19 H19 0.9300 . ?
C20 H20 0.9300 . ?
C21 O7 1.443(8) . ?
C21 C22 1.494(9) . ?
C21 H21A 0.9700 . ?
C21 H21B 0.9700 . ?
C22 O4 1.242(9) . ?
C22 O3 1.249(9) . ?
C23 C24 1.20(4) . ?
C23 C28 1.47(3) . ?
C24 C25 1.32(4) . ?
C24 H24 0.9291 . ?
C25 C26 1.41(3) . ?
C25 H25 0.9300 . ?
C26 O9 1.43(3) . ?
C26 C27 1.48(4) . ?
C27 C28 1.38(3) . ?
C27 H27 0.9300 . ?
C28 H28 0.9300 . ?
C29 H29A 0.9600 . ?
C29 H29B 0.9600 . ?
C29 H29C 0.9600 . ?
C30 H30A 0.9600 . ?
C30 H30B 0.9600 . ?
C30 H30C 0.9600 . ?
C31 H31A 0.9600 . ?
C31 H31B 0.9600 . ?
C31 H31C 0.9600 . ?
C32 C33 1.50(3) . ?
C32 O9 1.62(2) . ?
C32 H32A 0.9700 . ?
C32 H32B 0.9700 . ?
C33 O6 0.832(18) . ?
C33 O5 1.71(3) . ?
C33 Zn3 2.39(2) . ?
O1 Zn1 1.984(4) . ?
O2 Zn2 2.101(6) . ?
O3 Zn1 1.973(4) 8_556 ?
O4 Zn1 2.030(7) 6_554 ?
O6 Zn3 1.580(13) . ?
O10 Zn1 1.8969(15) . ?
O10 Zn1 1.8969(15) 2 ?
O10 Zn2 2.007(5) . ?
Zn1 O3 1.973(4) 7_456 ?
Zn1 O4 2.030(7) 6 ?
Zn1 Zn2 3.0699(8) . ?
Zn2 O10 2.007(5) 3_556 ?
Zn2 O2 2.101(6) 2 ?
Zn2 O2 2.101(6) 4_556 ?
Zn2 O2 2.101(6) 3_556 ?
Zn2 Zn1 3.0699(8) 4_556 ?
Zn2 Zn1 3.0699(8) 3_556 ?
Zn2 Zn1 3.0699(8) 2 ?
Zn3 O6 1.581(13) 7_453 ?
Zn3 O6 1.581(13) 8_553 ?
Zn3 O6 1.581(13) 2_565 