####################################################################### 
# 
# This file contains crystal structure data downloaded from the 
# Cambridge Structural Database (CSD) hosted by the Cambridge 
# Crystallographic Data Centre (CCDC).
# 
# Full information about CCDC data access policies and citation 
# guidelines are available at http://www.ccdc.cam.ac.uk/access/V1 
# 
# Audit and citation data items may have been added by the CCDC. 
# Please retain this information to preserve the provenance of 
# this file and to allow appropriate attribution of the data. 
# 
#######################################################################

data_ZnL-Ru
_audit_block_doi                 10.5517/cc13631g
_database_code_depnum_ccdc_archive 'CCDC 1018754'
loop_
_citation_id
_citation_doi
_citation_year
1 10.1002/chem.201406098 2015
_audit_update_record             
;
2014-08-09 deposited with the CCDC.	2024-07-13 downloaded from the CCDC.
;

_audit_creation_method           SHELXL-2014
_chemical_name_systematic        ZnL-Ru
_chemical_name_common            ?
_chemical_melting_point          ?
_chemical_formula_moiety         ?
_chemical_formula_sum            'C66 H54 O19 Ru0.50 Zn2.50'
_chemical_formula_weight         1365.05

loop_
_atom_type_symbol
_atom_type_description
_atom_type_scat_dispersion_real
_atom_type_scat_dispersion_imag
_atom_type_scat_source
C C 0.0033 0.0016 'International Tables Vol C Tables 4.2.6.8 and 6.1.1.4'
O O 0.0106 0.0060 'International Tables Vol C Tables 4.2.6.8 and 6.1.1.4'
Ru Ru -1.2594 0.8363 'International Tables Vol C Tables 4.2.6.8 and 6.1.1.4'
Zn Zn 0.2839 1.4301 'International Tables Vol C Tables 4.2.6.8 and 6.1.1.4'
H H 0.0000 0.0000 'International Tables Vol C Tables 4.2.6.8 and 6.1.1.4'

_space_group_crystal_system      tetragonal
_space_group_IT_number           82
_space_group_name_H-M_alt        'I -4'
_space_group_name_Hall           'I -4'

_shelx_space_group_comment       
;
The symmetry employed for this shelxl refinement is uniquely defined
by the following loop, which should always be used as a source of
symmetry information in preference to the above space-group names.
They are only intended as comments.
;

loop_
_space_group_symop_operation_xyz
'x, y, z'
'-x, -y, z'
'y, -x, -z'
'-y, x, -z'
'x+1/2, y+1/2, z+1/2'
'-x+1/2, -y+1/2, z+1/2'
'y+1/2, -x+1/2, -z+1/2'
'-y+1/2, x+1/2, -z+1/2'

_cell_length_a                   32.610(4)
_cell_length_b                   32.610(4)
_cell_length_c                   8.1447(14)
_cell_angle_alpha                90
_cell_angle_beta                 90
_cell_angle_gamma                90
_cell_volume                     8661(3)
_cell_formula_units_Z            4
_cell_measurement_temperature    293(2)
_cell_measurement_reflns_used    0
_cell_measurement_theta_min      0
_cell_measurement_theta_max      0

_exptl_crystal_description       ?
_exptl_crystal_colour            brown
_exptl_crystal_density_meas      ?
_exptl_crystal_density_method    'not measured'
_exptl_crystal_density_diffrn    1.047
_exptl_crystal_F_000             2796
_exptl_transmission_factor_min   ?
_exptl_transmission_factor_max   ?
_exptl_crystal_size_max          0
_exptl_crystal_size_mid          0
_exptl_crystal_size_min          0
_exptl_absorpt_coefficient_mu    0.826
_shelx_estimated_absorpt_T_min   ?
_shelx_estimated_absorpt_T_max   ?
_exptl_absorpt_correction_type   none
_exptl_absorpt_correction_T_min  ?
_exptl_absorpt_correction_T_max  ?
_exptl_absorpt_process_details   ?

_exptl_special_details           
;
 
;

_diffrn_ambient_temperature      293(2)
_diffrn_radiation_wavelength     0.71073
_diffrn_radiation_type           MoK\a
_diffrn_source                   ?
_diffrn_measurement_device_type  ?
_diffrn_measurement_method       ?
_diffrn_detector_area_resol_mean ?
_diffrn_reflns_number            9511
_diffrn_reflns_av_unetI/netI     0.0469
_diffrn_reflns_av_R_equivalents  0.0739
_diffrn_reflns_limit_h_min       -23
_diffrn_reflns_limit_h_max       25
_diffrn_reflns_limit_k_min       -25
_diffrn_reflns_limit_k_max       25
_diffrn_reflns_limit_l_min       -6
_diffrn_reflns_limit_l_max       6
_diffrn_reflns_theta_min         2.498
_diffrn_reflns_theta_max         16.221
_diffrn_reflns_theta_full        25.242
_diffrn_measured_fraction_theta_max 0.990
_diffrn_measured_fraction_theta_full 0.291
_diffrn_reflns_Laue_measured_fraction_max 0.990
_diffrn_reflns_Laue_measured_fraction_full 0.291
_diffrn_reflns_point_group_measured_fraction_max 0.991
_diffrn_reflns_point_group_measured_fraction_full 0.281
_reflns_number_total             2201
_reflns_number_gt                2145
_reflns_threshold_expression     'I > 2\s(I)'
_reflns_Friedel_coverage         0.791
_reflns_Friedel_fraction_max     0.993
_reflns_Friedel_fraction_full    0.269

_reflns_special_details          
;
 Reflections were merged by SHELXL according to the crystal
 class for the calculation of statistics and refinement.
 
 _reflns_Friedel_fraction is defined as the number of unique
 Friedel pairs measured divided by the number that would be
 possible theoretically, ignoring centric projections and
 systematic absences.
;

_computing_data_collection       ?
_computing_cell_refinement       ?
_computing_data_reduction        ?
_computing_structure_solution    ?
_computing_structure_refinement  'SHELXL-2014 (Sheldrick, 2014)'
_computing_molecular_graphics    'Ortep for Windows (Farrugia, 2012)'
_computing_publication_material  'WinGX publication routines (Farrugia, 2012)'

_refine_special_details          SQUEEZE
_refine_ls_structure_factor_coef Fsqd
_refine_ls_matrix_type           full
_refine_ls_weighting_scheme      calc
_refine_ls_weighting_details     
'w=1/[\s^2^(Fo^2^)+(0.1021P)^2^+234.9280P] where P=(Fo^2^+2Fc^2^)/3'
_atom_sites_solution_primary     ?
_atom_sites_solution_secondary   ?
_atom_sites_solution_hydrogens   geom
_refine_ls_hydrogen_treatment    constr
_refine_ls_extinction_method     none
_refine_ls_extinction_coef       .
_refine_ls_abs_structure_details 
;
 Refined as an inversion twin.
;
_refine_ls_abs_structure_Flack   0.18(9)
_chemical_absolute_configuration unk
_refine_ls_number_reflns         2201
_refine_ls_number_parameters     64
_refine_ls_number_restraints     0
_refine_ls_R_factor_all          0.0959
_refine_ls_R_factor_gt           0.0946
_refine_ls_wR_factor_ref         0.2437
_refine_ls_wR_factor_gt          0.2428
_refine_ls_goodness_of_fit_ref   1.093
_refine_ls_restrained_S_all      1.093
_refine_ls_shift/su_max          0.001
_refine_ls_shift/su_mean         0.000

loop_
_atom_site_label
_atom_site_type_symbol
_atom_site_fract_x
_atom_site_fract_y
_atom_site_fract_z
_atom_site_U_iso_or_equiv
_atom_site_adp_type
_atom_site_occupancy
_atom_site_site_symmetry_order
_atom_site_calc_flag
_atom_site_refinement_flags_posn
_atom_site_refinement_flags_adp
_atom_site_refinement_flags_occupancy
_atom_site_disorder_assembly
_atom_site_disorder_group
C3 C -0.1174(3) -0.1685(4) -0.4350(15) 0.071(3) Uani 1 1 d G . . . .
C4 C -0.1430(4) -0.1608(4) -0.3121(17) 0.071(3) Uani 1 1 d G . . . .
H4 H -0.1473 -0.1340 -0.2775 0.085 Uiso 1 1 calc R U . . .
C5 C -0.1624(4) -0.1915(5) -0.2387(15) 0.071(3) Uani 1 1 d G . . . .
H5 H -0.1804 -0.1862 -0.1526 0.085 Uiso 1 1 calc R U . . .
C6 C -0.1563(4) -0.2298(4) -0.2882(16) 0.071(3) Uani 1 1 d G . . . .
C7 C -0.1308(3) -0.2374(4) -0.411(2) 0.071(3) Uani 1 1 d G . . . .
H7 H -0.1265 -0.2642 -0.4457 0.085 Uiso 1 1 calc R U . . .
C8 C -0.1113(3) -0.2067(4) -0.484(2) 0.071(3) Uani 1 1 d G . . . .
H8 H -0.0934 -0.2120 -0.5706 0.085 Uiso 1 1 calc R U . . .
C1 C -0.0563(5) -0.0720(6) -0.543(2) 0.071(3) Uani 1 1 d G . . . .
C2 C -0.0843(4) -0.0998(4) -0.435(2) 0.071(3) Uani 1 1 d G . . . .
H2A H -0.0715 -0.1040 -0.3291 0.085 Uiso 1 1 calc R U . . .
H2B H -0.1104 -0.0861 -0.4175 0.085 Uiso 1 1 calc R U . . .
C21 C -0.3934(6) -0.4081(6) -0.441(3) 0.070(3) Uani 1 1 d G . . . .
H21A H -0.4069 -0.3832 -0.4771 0.084 Uiso 1 1 calc R U . . .
H21B H -0.3921 -0.4085 -0.3218 0.084 Uiso 1 1 calc R U . . .
C22 C -0.4149(7) -0.4477(7) -0.511(3) 0.070(3) Uani 1 1 d G . . . .
C9 C -0.1765(4) -0.2668(4) -0.2048(19) 0.075(4) Uani 1 1 d G . . . .
C10 C -0.2119(4) -0.2842(3) -0.2754(16) 0.075(4) Uani 1 1 d G . . . .
C11 C -0.2293(3) -0.3198(3) -0.2063(13) 0.075(4) Uani 1 1 d G . . . .
C12 C -0.2114(3) -0.3379(3) -0.0667(14) 0.075(4) Uani 1 1 d G . . . .
C13 C -0.1760(3) -0.3205(3) 0.0039(17) 0.075(4) Uani 1 1 d G . . . .
C14 C -0.1586(4) -0.2849(4) -0.0652(19) 0.075(4) Uani 1 1 d G . . . .
C15 C -0.2626(3) -0.3413(3) -0.2853(13) 0.070(3) Uani 1 1 d G . . . .
C16 C -0.3032(3) -0.3361(4) -0.2313(16) 0.070(3) Uani 1 1 d G . . . .
H16 H -0.3090 -0.3177 -0.1473 0.084 Uiso 1 1 calc R U . . .
C17 C -0.3351(4) -0.3588(5) -0.3043(19) 0.070(3) Uani 1 1 d G . . . .
H17 H -0.3620 -0.3553 -0.2686 0.084 Uiso 1 1 calc R U . . .
C18 C -0.3263(5) -0.3867(4) -0.431(2) 0.070(3) Uani 1 1 d G . . . .
C19 C -0.2857(5) -0.3919(4) -0.4855(18) 0.070(3) Uani 1 1 d G . . . .
H19 H -0.2799 -0.4104 -0.5694 0.084 Uiso 1 1 calc R U . . .
C20 C -0.2538(4) -0.3692(3) -0.4124(15) 0.070(3) Uani 1 1 d G . . . .
H20 H -0.2269 -0.3727 -0.4482 0.084 Uiso 1 1 calc R U . . .
C31 C -0.2307(3) -0.3756(4) 0.0089(16) 0.075(4) Uani 1 1 d G . . . .
H31A H -0.2277 -0.3984 -0.0646 0.112 Uiso 1 1 calc R U . . .
H31B H -0.2593 -0.3706 0.0285 0.112 Uiso 1 1 calc R U . . .
H31C H -0.2173 -0.3817 0.1110 0.112 Uiso 1 1 calc R U . . .
C32 C -0.0946(9) -0.4024(9) 0.664(4) 0.205(9) Uani 1 1 d G . . . .
H32A H -0.1192 -0.4173 0.6945 0.246 Uiso 1 1 calc R U . . .
H32B H -0.0941 -0.3763 0.7207 0.246 Uiso 1 1 calc R U . . .
C33 C -0.0565(10) -0.4272(9) 0.699(4) 0.205(9) Uani 1 1 d G . . . .
C23 C -0.1151(3) -0.3766(3) 0.4071(13) 0.205(9) Uani 1 1 d G . . . .
C24 C -0.1053(3) -0.3862(3) 0.2437(14) 0.205(9) Uani 1 1 d G . . . .
H24 H -0.0850 -0.4054 0.2212 0.246 Uiso 1 1 calc R U . . .
C25 C -0.1261(3) -0.3668(3) 0.1143(12) 0.205(9) Uani 1 1 d G . . . .
H25 H -0.1196 -0.3732 0.0061 0.246 Uiso 1 1 calc R U . . .
C26 C -0.1568(3) -0.3378(3) 0.1482(10) 0.205(9) Uani 1 1 d G . . . .
C27 C -0.1666(3) -0.3282(3) 0.3116(10) 0.205(9) Uani 1 1 d G . . . .
H27 H -0.1869 -0.3089 0.3341 0.246 Uiso 1 1 calc R U . . .
C28 C -0.1458(3) -0.3475(3) 0.4410(12) 0.205(9) Uani 1 1 d G . . . .
H28 H -0.1523 -0.3412 0.5492 0.246 Uiso 1 1 calc R U . . .
C29 C -0.1233(2) -0.2639(2) 0.0185(8) 0.075(4) Uani 1 1 d G . . . .
H29A H -0.1118 -0.2436 -0.0536 0.112 Uiso 1 1 calc R U . . .
H29B H -0.1026 -0.2838 0.0455 0.112 Uiso 1 1 calc R U . . .
H29C H -0.1328 -0.2509 0.1172 0.112 Uiso 1 1 calc R U . . .
C30 C -0.23414(17) -0.26907(17) -0.4199(8) 0.075(4) Uani 1 1 d G . . . .
H30A H -0.2512 -0.2905 -0.4630 0.112 Uiso 1 1 calc R U . . .
H30B H -0.2149 -0.2606 -0.5023 0.112 Uiso 1 1 calc R U . . .
H30C H -0.2509 -0.2462 -0.3889 0.112 Uiso 1 1 calc R U . . .
O1 O -0.04081(9) -0.08855(8) -0.6533(4) 0.071(3) Uani 1 1 d G . . . .
O2 O -0.04997(14) -0.03566(12) -0.4599(5) 0.071(3) Uani 1 1 d G . . . .
O3 O -0.4042(3) -0.4633(3) -0.6270(13) 0.070(3) Uani 1 1 d G . . . .
O4 O -0.4515(3) -0.4466(3) -0.4864(14) 0.070(3) Uani 1 1 d G . . . .
O5 O -0.0379(4) -0.4610(4) 0.584(2) 0.205(9) Uani 1 1 d G . . . .
O6 O -0.0712(4) -0.4369(5) 0.8328(18) 0.205(9) Uani 1 1 d G . . . .
O7 O -0.3538(3) -0.4126(3) -0.5129(11) 0.070(3) Uani 1 1 d G . . . .
O8 O -0.09107(11) -0.13686(10) -0.5082(4) 0.071(3) Uani 1 1 d G . . . .
O9 O -0.0924(4) -0.3985(4) 0.5302(15) 0.205(9) Uani 1 1 d G . . . .
O10 O 0.00000(11) 0.00000(10) -0.7519(5) 0.069(9) Uani 1 2 d G T P . .
Ru1 Ru 0.0000(4) -0.5000(5) 0.750(2) 0.51(2) Uani 1 4 d G T P . .
Zn1 Zn -0.00460(10) -0.05579(9) -0.8005(4) 0.0480(14) Uani 1 1 d G . . . .
Zn2 Zn 0.00000(15) 0.00000(13) -0.5000(5) 0.037(2) Uani 1 4 d G T P . .

loop_
_atom_site_aniso_label
_atom_site_aniso_U_11
_atom_site_aniso_U_22
_atom_site_aniso_U_33
_atom_site_aniso_U_23
_atom_site_aniso_U_13
_atom_site_aniso_U_12
C3 0.055(6) 0.061(7) 0.097(9) 0.007(6) 0.010(5) -0.022(5)
C4 0.055(6) 0.061(7) 0.097(9) 0.007(6) 0.010(5) -0.022(5)
C5 0.055(6) 0.061(7) 0.097(9) 0.007(6) 0.010(5) -0.022(5)
C6 0.055(6) 0.061(7) 0.097(9) 0.007(6) 0.010(5) -0.022(5)
C7 0.055(6) 0.061(7) 0.097(9) 0.007(6) 0.010(5) -0.022(5)
C8 0.055(6) 0.061(7) 0.097(9) 0.007(6) 0.010(5) -0.022(5)
C1 0.055(6) 0.061(7) 0.097(9) 0.007(6) 0.010(5) -0.022(5)
C2 0.055(6) 0.061(7) 0.097(9) 0.007(6) 0.010(5) -0.022(5)
C21 0.059(7) 0.066(6) 0.085(7) 0.007(6) -0.002(6) -0.030(6)
C22 0.059(7) 0.066(6) 0.085(7) 0.007(6) -0.002(6) -0.030(6)
C9 0.043(8) 0.069(9) 0.113(11) -0.008(8) -0.002(8) -0.028(6)
C10 0.043(8) 0.069(9) 0.113(11) -0.008(8) -0.002(8) -0.028(6)
C11 0.043(8) 0.069(9) 0.113(11) -0.008(8) -0.002(8) -0.028(6)
C12 0.043(8) 0.069(9) 0.113(11) -0.008(8) -0.002(8) -0.028(6)
C13 0.043(8) 0.069(9) 0.113(11) -0.008(8) -0.002(8) -0.028(6)
C14 0.043(8) 0.069(9) 0.113(11) -0.008(8) -0.002(8) -0.028(6)
C15 0.059(7) 0.066(6) 0.085(7) 0.007(6) -0.002(6) -0.030(6)
C16 0.059(7) 0.066(6) 0.085(7) 0.007(6) -0.002(6) -0.030(6)
C17 0.059(7) 0.066(6) 0.085(7) 0.007(6) -0.002(6) -0.030(6)
C18 0.059(7) 0.066(6) 0.085(7) 0.007(6) -0.002(6) -0.030(6)
C19 0.059(7) 0.066(6) 0.085(7) 0.007(6) -0.002(6) -0.030(6)
C20 0.059(7) 0.066(6) 0.085(7) 0.007(6) -0.002(6) -0.030(6)
C31 0.043(8) 0.069(9) 0.113(11) -0.008(8) -0.002(8) -0.028(6)
C32 0.182(15) 0.157(13) 0.28(3) 0.103(15) -0.012(15) -0.012(9)
C33 0.182(15) 0.157(13) 0.28(3) 0.103(15) -0.012(15) -0.012(9)
C23 0.182(15) 0.157(13) 0.28(3) 0.103(15) -0.012(15) -0.012(9)
C24 0.182(15) 0.157(13) 0.28(3) 0.103(15) -0.012(15) -0.012(9)
C25 0.182(15) 0.157(13) 0.28(3) 0.103(15) -0.012(15) -0.012(9)
C26 0.182(15) 0.157(13) 0.28(3) 0.103(15) -0.012(15) -0.012(9)
C27 0.182(15) 0.157(13) 0.28(3) 0.103(15) -0.012(15) -0.012(9)
C28 0.182(15) 0.157(13) 0.28(3) 0.103(15) -0.012(15) -0.012(9)
C29 0.043(8) 0.069(9) 0.113(11) -0.008(8) -0.002(8) -0.028(6)
C30 0.043(8) 0.069(9) 0.113(11) -0.008(8) -0.002(8) -0.028(6)
O1 0.055(6) 0.061(7) 0.097(9) 0.007(6) 0.010(5) -0.022(5)
O2 0.055(6) 0.061(7) 0.097(9) 0.007(6) 0.010(5) -0.022(5)
O3 0.059(7) 0.066(6) 0.085(7) 0.007(6) -0.002(6) -0.030(6)
O4 0.059(7) 0.066(6) 0.085(7) 0.007(6) -0.002(6) -0.030(6)
O5 0.182(15) 0.157(13) 0.28(3) 0.103(15) -0.012(15) -0.012(9)
O6 0.182(15) 0.157(13) 0.28(3) 0.103(15) -0.012(15) -0.012(9)
O7 0.059(7) 0.066(6) 0.085(7) 0.007(6) -0.002(6) -0.030(6)
O8 0.055(6) 0.061(7) 0.097(9) 0.007(6) 0.010(5) -0.022(5)
O9 0.182(15) 0.157(13) 0.28(3) 0.103(15) -0.012(15) -0.012(9)
O10 0.11(3) 0.06(2) 0.034(18) 0.000 0.000 -0.026(19)
Ru1 0.337(16) 0.337(16) 0.85(7) 0.000 0.000 0.000
Zn1 0.057(3) 0.030(3) 0.058(2) -0.005(2) 0.014(2) -0.0068(19)
Zn2 0.040(3) 0.040(3) 0.030(4) 0.000 0.000 0.000

_geom_special_details            
;
 All esds (except the esd in the dihedral angle between two l.s. planes)
 are estimated using the full covariance matrix.  The cell esds are taken
 into account individually in the estimation of esds in distances, angles
 and torsion angles; correlations between esds in cell parameters are only
 used when they are defined by crystal symmetry.  An approximate (isotropic)
 treatment of cell esds is used for estimating esds involving l.s. planes.
;

loop_
_geom_bond_atom_site_label_1
_geom_bond_atom_site_label_2
_geom_bond_distance
_geom_bond_site_symmetry_2
_geom_bond_publ_flag
C3 C8 1.326(2) . ?
C3 C4 1.326(2) . ?
C3 O8 1.469(12) . ?
C4 C5 1.326(2) . ?
C4 H4 0.9300 . ?
C5 C6 1.326(2) . ?
C5 H5 0.9300 . ?
C6 C7 1.326(2) . ?
C6 C9 1.534(16) . ?
C7 C8 1.326(2) . ?
C7 H7 0.9300 . ?
C8 H8 0.9300 . ?
C1 O1 1.17(2) . ?
C1 O2 1.379(19) . ?
C1 C2 1.556(3) . ?
C2 O8 1.365(16) . ?
C2 H2A 0.9700 . ?
C2 H2B 0.9700 . ?
C21 O7 1.42(2) . ?
C21 C22 1.576(3) . ?
C21 H21A 0.9700 . ?
C21 H21B 0.9700 . ?
C22 O3 1.13(3) . ?
C22 O4 1.21(2) . ?
C22 Zn1 2.59(3) 8_443 ?
C9 C10 1.409(4) . ?
C9 C14 1.409(4) . ?
C10 C11 1.409(4) . ?
C10 C30 1.469(13) . ?
C11 C12 1.409(4) . ?
C11 C15 1.443(4) . ?
C12 C13 1.408(4) . ?
C12 C31 1.511(4) . ?
C13 C14 1.410(4) . ?
C13 C26 1.447(14) . ?
C14 C29 1.503(14) . ?
C15 C16 1.408(4) . ?
C15 C20 1.409(4) . ?
C16 C17 1.408(4) . ?
C16 H16 0.9300 . ?
C17 C18 1.408(4) . ?
C17 H17 0.9300 . ?
C18 O7 1.398(15) . ?
C18 C19 1.408(4) . ?
C19 C20 1.409(4) . ?
C19 H19 0.9300 . ?
C20 H20 0.9300 . ?
C31 H31A 0.9600 . ?
C31 H31B 0.9600 . ?
C31 H31C 0.9600 . ?
C32 O9 1.10(3) . ?
C32 C33 1.508(4) . ?
C32 H32A 0.9700 . ?
C32 H32B 0.9700 . ?
C33 O6 1.23(4) . ?
C33 O5 1.57(4) . ?
C23 C28 1.4045 . ?
C23 C24 1.4045 . ?
C23 O9 1.4377 . ?
C24 C25 1.4047 . ?
C24 H24 0.9300 . ?
C25 C26 1.4044 . ?
C25 H25 0.9300 . ?
C26 C27 1.4045 . ?
C27 C28 1.4044 . ?
C27 H27 0.9300 . ?
C28 H28 0.9300 . ?
C29 H29A 0.9600 . ?
C29 H29B 0.9600 . ?
C29 H29C 0.9600 . ?
C30 H30A 0.9600 . ?
C30 H30B 0.9600 . ?
C30 H30C 0.9600 . ?
O1 Zn1 1.9934 . ?
O2 Zn2 2.0284(10) . ?
O3 Zn1 1.965(17) 8_443 ?
O4 Zn1 2.086(14) 6_445 ?
O5 Ru1 2.2304(12) . ?
O10 Zn1 1.8678 . ?
O10 Zn1 1.868(7) 2 ?
O10 Zn2 2.0515(11) . ?
Ru1 O5 2.230(16) 8_446 ?
Ru1 O5 2.230(18) 7_546 ?
Ru1 O5 2.23(2) 2_545 ?
Zn1 O3 1.965(5) 7_543 ?
Zn1 O4 2.086(6) 6_444 ?
Zn1 C22 2.59(2) 7_543 ?
Zn1 Zn2 3.0531(16) . ?
Zn2 O2 2.028(8) 2 ?
Zn2 O2 2.028(6) 3_554 ?
Zn2 O2 2.028(6) 4_554 ?
Zn2 O10 2.052(8) 3_554 ?
Zn2 Zn1 3.053(4) 2 ?
Zn2 Zn1 3.053(7) 4_554 ?
Zn2 Zn1 3.053(6) 3_554 ?

loop_
_geom_angle_atom_site_label_1
_geom_angle_atom_site_label_2
_geom_angle_atom_site_label_3
_geom_angle
_geom_angle_site_symmetry_1
_geom_angle_site_symmetry_3
_geom_angle_publ_flag
C8 C3 C4 120.0 . . ?
C8 C3 O8 116.7(6) . . ?
C4 C3 O8 122.9(6) . . ?
C3 C4 C5 120.0 . . ?
C3 C4 H4 120.0 . . ?
C5 C4 H4 120.0 . . ?
C4 C5 C6 120.0 . . ?
C4 C5 H5 120.0 . . ?
C6 C5 H5 120.0 . . ?
C7 C6 C5 120.0 . . ?
C7 C6 C9 117.2(11) . . ?
C5 C6 C9 122.8(11) . . ?
C6 C7 C8 120.0 . . ?
C6 C7 H7 120.0 . . ?
C8 C7 H7 120.0 . . ?
C3 C8 C7 120.0 . . ?
C3 C8 H8 120.0 . . ?
C7 C8 H8 120.0 . . ?
O1 C1 O2 135.3(13) . . ?
O1 C1 C2 114.8(8) . . ?
O2 C1 C2 108.3(9) . . ?
O8 C2 C1 111.5(6) . . ?
O8 C2 H2A 109.3 . . ?
C1 C2 H2A 109.3 . . ?
O8 C2 H2B 109.3 . . ?
C1 C2 H2B 109.3 . . ?
H2A C2 H2B 108.0 . . ?
O7 C21 C22 99.9(8) . . ?
O7 C21 H21A 111.8 . . ?
C22 C21 H21A 111.8 . . ?
O7 C21 H21B 111.8 . . ?
C22 C21 H21B 111.8 . . ?
H21A C21 H21B 109.5 . . ?
O3 C22 O4 117.2(19) . . ?
O3 C22 C21 122.3(11) . . ?
O4 C22 C21 110.9(12) . . ?
O3 C22 Zn1 45.1(10) . 8_443 ?
O4 C22 Zn1 75.9(11) . 8_443 ?
C21 C22 Zn1 164.8(7) . 8_443 ?
C10 C9 C14 120.0 . . ?
C10 C9 C6 119.3(7) . . ?
C14 C9 C6 120.6(7) . . ?
C9 C10 C11 120.0 . . ?
C9 C10 C30 126.5(5) . . ?
C11 C10 C30 113.4(5) . . ?
C12 C11 C10 120.0 . . ?
C12 C11 C15 117.9 . . ?
C10 C11 C15 121.7 . . ?
C13 C12 C11 120.0 . . ?
C13 C12 C31 120.2 . . ?
C11 C12 C31 119.8 . . ?
C12 C13 C14 120.0 . . ?
C12 C13 C26 121.9(6) . . ?
C14 C13 C26 118.0(6) . . ?
C9 C14 C13 120.0 . . ?
C9 C14 C29 119.6(7) . . ?
C13 C14 C29 120.2(7) . . ?
C16 C15 C20 120.0 . . ?
C16 C15 C11 120.7 . . ?
C20 C15 C11 119.3 . . ?
C17 C