####################################################################### 
# 
# This file contains crystal structure data downloaded from the 
# Cambridge Structural Database (CSD) hosted by the Cambridge 
# Crystallographic Data Centre (CCDC).
# 
# Full information about CCDC data access policies and citation 
# guidelines are available at http://www.ccdc.cam.ac.uk/access/V1 
# 
# Audit and citation data items may have been added by the CCDC. 
# Please retain this information to preserve the provenance of 
# this file and to allow appropriate attribution of the data. 
# 
#######################################################################

data_ZnL-Fe
_audit_block_doi                 10.5517/cc13630f
_database_code_depnum_ccdc_archive 'CCDC 1018753'
loop_
_citation_id
_citation_doi
_citation_year
1 10.1002/chem.201406098 2015
_audit_update_record             
;
2014-08-09 deposited with the CCDC.	2024-07-13 downloaded from the CCDC.
;

_audit_creation_method           SHELXL-2014
_chemical_name_systematic        ZnL-Fe
_chemical_name_common            ?
_chemical_melting_point          ?
_chemical_formula_moiety         ?
_chemical_formula_sum            'C34 H29 Cl2 Fe0.25 O9.50 Zn1.25'
_chemical_formula_weight         756.15

loop_
_atom_type_symbol
_atom_type_description
_atom_type_scat_dispersion_real
_atom_type_scat_dispersion_imag
_atom_type_scat_source
C C 0.0033 0.0016 'International Tables Vol C Tables 4.2.6.8 and 6.1.1.4'
O O 0.0106 0.0060 'International Tables Vol C Tables 4.2.6.8 and 6.1.1.4'
Cl Cl 0.1484 0.1585 'International Tables Vol C Tables 4.2.6.8 and 6.1.1.4'
Fe Fe 0.3463 0.8444 'International Tables Vol C Tables 4.2.6.8 and 6.1.1.4'
Zn Zn 0.2839 1.4301 'International Tables Vol C Tables 4.2.6.8 and 6.1.1.4'
H H 0.0000 0.0000 'International Tables Vol C Tables 4.2.6.8 and 6.1.1.4'

_space_group_crystal_system      tetragonal
_space_group_IT_number           82
_space_group_name_H-M_alt        'I -4'
_space_group_name_Hall           'I -4'

_shelx_space_group_comment       
;
The symmetry employed for this shelxl refinement is uniquely defined
by the following loop, which should always be used as a source of
symmetry information in preference to the above space-group names.
They are only intended as comments.
;

loop_
_space_group_symop_operation_xyz
'x, y, z'
'-x, -y, z'
'y, -x, -z'
'-y, x, -z'
'x+1/2, y+1/2, z+1/2'
'-x+1/2, -y+1/2, z+1/2'
'y+1/2, -x+1/2, -z+1/2'
'-y+1/2, x+1/2, -z+1/2'

_cell_length_a                   32.633(3)
_cell_length_b                   32.633(3)
_cell_length_c                   8.0355(11)
_cell_angle_alpha                90
_cell_angle_beta                 90
_cell_angle_gamma                90
_cell_volume                     8557(2)
_cell_formula_units_Z            8
_cell_measurement_temperature    293(2)
_cell_measurement_reflns_used    0
_cell_measurement_theta_min      0
_cell_measurement_theta_max      0

_exptl_crystal_description       ?
_exptl_crystal_colour            yellow
_exptl_crystal_density_meas      ?
_exptl_crystal_density_method    'not measured'
_exptl_crystal_density_diffrn    1.174
_exptl_crystal_F_000             3096
_exptl_transmission_factor_min   ?
_exptl_transmission_factor_max   ?
_exptl_crystal_size_max          0
_exptl_crystal_size_mid          0
_exptl_crystal_size_min          0
_exptl_absorpt_coefficient_mu    0.960
_shelx_estimated_absorpt_T_min   ?
_shelx_estimated_absorpt_T_max   ?
_exptl_absorpt_correction_type   none
_exptl_absorpt_correction_T_min  ?
_exptl_absorpt_correction_T_max  ?
_exptl_absorpt_process_details   ?

_exptl_special_details           
;
 
;

_diffrn_ambient_temperature      293(2)
_diffrn_radiation_wavelength     0.71073
_diffrn_radiation_type           MoK\a
_diffrn_source                   ?
_diffrn_measurement_device_type  ?
_diffrn_measurement_method       ?
_diffrn_detector_area_resol_mean ?
_diffrn_reflns_number            52706
_diffrn_reflns_av_unetI/netI     0.1364
_diffrn_reflns_av_R_equivalents  0.1239
_diffrn_reflns_limit_h_min       -40
_diffrn_reflns_limit_h_max       40
_diffrn_reflns_limit_k_min       -40
_diffrn_reflns_limit_k_max       40
_diffrn_reflns_limit_l_min       -10
_diffrn_reflns_limit_l_max       9
_diffrn_reflns_theta_min         2.497
_diffrn_reflns_theta_max         26.316
_diffrn_reflns_theta_full        25.242
_diffrn_measured_fraction_theta_max 0.999
_diffrn_measured_fraction_theta_full 0.999
_diffrn_reflns_Laue_measured_fraction_max 0.999
_diffrn_reflns_Laue_measured_fraction_full 0.999
_diffrn_reflns_point_group_measured_fraction_max 0.999
_diffrn_reflns_point_group_measured_fraction_full 0.999
_reflns_number_total             8673
_reflns_number_gt                5321
_reflns_threshold_expression     'I > 2\s(I)'
_reflns_Friedel_coverage         0.861
_reflns_Friedel_fraction_max     1.000
_reflns_Friedel_fraction_full    1.000

_reflns_special_details          
;
 Reflections were merged by SHELXL according to the crystal
 class for the calculation of statistics and refinement.
 
 _reflns_Friedel_fraction is defined as the number of unique
 Friedel pairs measured divided by the number that would be
 possible theoretically, ignoring centric projections and
 systematic absences.
;

_computing_data_collection       ?
_computing_cell_refinement       ?
_computing_data_reduction        ?
_computing_structure_solution    ?
_computing_structure_refinement  'SHELXL-2014 (Sheldrick, 2014)'
_computing_molecular_graphics    'Ortep for Windows (Farrugia, 2012)'
_computing_publication_material  'WinGX publication routines (Farrugia, 2012)'

_refine_special_details          SQUEEZE
_refine_ls_structure_factor_coef Fsqd
_refine_ls_matrix_type           full
_refine_ls_weighting_scheme      calc
_refine_ls_weighting_details     
'w=1/[\s^2^(Fo^2^)+(0.1634P)^2^] where P=(Fo^2^+2Fc^2^)/3'
_atom_sites_solution_primary     ?
_atom_sites_solution_secondary   ?
_atom_sites_solution_hydrogens   geom
_refine_ls_hydrogen_treatment    constr
_refine_ls_extinction_method     none
_refine_ls_extinction_coef       .
_refine_ls_abs_structure_details 
;
 Refined as an inversion twin.
;
_refine_ls_abs_structure_Flack   0.12(4)
_chemical_absolute_configuration unk
_refine_ls_number_reflns         8673
_refine_ls_number_parameters     354
_refine_ls_number_restraints     0
_refine_ls_R_factor_all          0.1504
_refine_ls_R_factor_gt           0.0957
_refine_ls_wR_factor_ref         0.2608
_refine_ls_wR_factor_gt          0.2355
_refine_ls_goodness_of_fit_ref   1.000
_refine_ls_restrained_S_all      1.000
_refine_ls_shift/su_max          0.498
_refine_ls_shift/su_mean         0.006

loop_
_atom_site_label
_atom_site_type_symbol
_atom_site_fract_x
_atom_site_fract_y
_atom_site_fract_z
_atom_site_U_iso_or_equiv
_atom_site_adp_type
_atom_site_occupancy
_atom_site_site_symmetry_order
_atom_site_calc_flag
_atom_site_refinement_flags_posn
_atom_site_refinement_flags_adp
_atom_site_refinement_flags_occupancy
_atom_site_disorder_assembly
_atom_site_disorder_group
C1 C 0.0572(3) 0.0720(4) 0.5221(15) 0.034(3) Uani 1 1 d . . . . .
C1S C 0.3328(8) 0.4944(8) 0.355(4) 0.134(8) Uiso 1 1 d . . . . .
H1S1 H 0.3124 0.4740 0.3267 0.160 Uiso 1 1 calc R U . . .
H1S2 H 0.3436 0.4875 0.4640 0.160 Uiso 1 1 calc R U . . .
C2 C 0.0892(4) 0.0994(4) 0.4383(18) 0.050(4) Uani 1 1 d . . . . .
H2A H 0.1158 0.0861 0.4427 0.059 Uiso 1 1 calc R U . . .
H2B H 0.0820 0.1031 0.3221 0.059 Uiso 1 1 calc R U . . .
C3 C 0.1155(4) 0.1665(4) 0.4377(15) 0.046(3) Uani 1 1 d . . . . .
C4 C 0.1083(5) 0.2062(4) 0.4843(18) 0.064(4) Uani 1 1 d . . . . .
H4 H 0.0891 0.2112 0.5675 0.077 Uiso 1 1 calc R U . . .
C5 C 0.1278(4) 0.2387(4) 0.4152(16) 0.047(3) Uani 1 1 d . . . . .
H5 H 0.1224 0.2651 0.4526 0.056 Uiso 1 1 calc R U . . .
C6 C 0.1554(4) 0.2325(4) 0.2913(17) 0.046(3) Uani 1 1 d . . . . .
C7 C 0.1633(4) 0.1911(4) 0.2400(14) 0.045(3) Uani 1 1 d . . . . .
H7 H 0.1823 0.1862 0.1562 0.054 Uiso 1 1 calc R U . . .
C8 C 0.1433(3) 0.1587(4) 0.3126(16) 0.039(3) Uani 1 1 d . . . . .
H8 H 0.1484 0.1320 0.2779 0.047 Uiso 1 1 calc R U . . .
C9 C 0.1760(4) 0.2667(3) 0.1971(19) 0.047(3) Uani 1 1 d . . . . .
C10 C 0.2114(4) 0.2846(4) 0.2701(15) 0.043(3) Uani 1 1 d . . . . .
C11 C 0.2267(4) 0.3218(4) 0.2040(19) 0.052(3) Uani 1 1 d . . . . .
C12 C 0.2077(4) 0.3387(5) 0.067(2) 0.069(5) Uani 1 1 d . . . . .
C13 C 0.1732(4) 0.3207(4) -0.006(2) 0.059(4) Uani 1 1 d . . . . .
C14 C 0.1574(4) 0.2846(4) 0.0648(17) 0.054(4) Uani 1 1 d . . . . .
C15 C 0.2625(5) 0.3419(4) 0.287(2) 0.061(4) Uani 1 1 d . . . . .
C16 C 0.2535(5) 0.3702(4) 0.401(2) 0.060(4) Uani 1 1 d . . . . .
H16 H 0.2265 0.3752 0.4318 0.072 Uiso 1 1 calc R U . . .
C17 C 0.2863(4) 0.3926(4) 0.4730(17) 0.050(3) Uani 1 1 d . . . . .
H17 H 0.2810 0.4122 0.5544 0.061 Uiso 1 1 calc R U . . .
C18 C 0.3254(3) 0.3853(4) 0.4227(16) 0.042(3) Uani 1 1 d . . . . .
C19 C 0.3329(4) 0.3561(4) 0.3100(16) 0.050(3) Uani 1 1 d . . . . .
H19 H 0.3598 0.3499 0.2816 0.060 Uiso 1 1 calc R U . . .
C20 C 0.3027(4) 0.3358(5) 0.2387(19) 0.060(4) Uani 1 1 d . . . . .
H20 H 0.3085 0.3171 0.1547 0.072 Uiso 1 1 calc R U . . .
C21 C 0.3952(4) 0.4043(5) 0.4538(17) 0.054(4) Uani 1 1 d . . . . .
H21A H 0.3965 0.4047 0.3332 0.065 Uiso 1 1 calc R U . . .
H21B H 0.4064 0.3785 0.4932 0.065 Uiso 1 1 calc R U . . .
C22 C 0.4195(4) 0.4412(3) 0.5286(14) 0.034(3) Uani 1 1 d . . . . .
C23 C 0.1537(9) 0.3408(9) -0.151(4) 0.145(3) Uani 1 1 d G . . . .
C24 C 0.1602(9) 0.3335(9) -0.309(4) 0.145(3) Uani 1 1 d G . . . .
H24 H 0.1794 0.3137 -0.3382 0.174 Uiso 1 1 calc R U . . .
C25 C 0.1391(9) 0.3547(8) -0.436(4) 0.145(3) Uani 1 1 d . . . . .
H25 H 0.1452 0.3508 -0.5478 0.174 Uiso 1 1 calc R U . . .
C26 C 0.1073(9) 0.3826(9) -0.382(4) 0.145(3) Uani 1 1 d . . . . .
C27 C 0.0972(9) 0.3891(9) -0.227(4) 0.145(3) Uani 1 1 d . . . . .
H27 H 0.0740 0.4034 -0.1935 0.174 Uiso 1 1 calc R U . . .
C28 C 0.1273(9) 0.3707(8) -0.114(4) 0.145(3) Uani 1 1 d . . . . .
H28 H 0.1282 0.3810 -0.0061 0.174 Uiso 1 1 calc R U . . .
C29 C 0.1193(5) 0.2646(5) -0.012(2) 0.077(5) Uani 1 1 d . . . . .
H29A H 0.1112 0.2796 -0.1096 0.116 Uiso 1 1 calc R U . . .
H29B H 0.0973 0.2650 0.0674 0.116 Uiso 1 1 calc R U . . .
H29C H 0.1254 0.2368 -0.0419 0.116 Uiso 1 1 calc R U . . .
C30 C 0.2331(4) 0.2652(5) 0.410(2) 0.062(4) Uani 1 1 d . . . . .
H30A H 0.2280 0.2362 0.4089 0.093 Uiso 1 1 calc R U . . .
H30B H 0.2234 0.2766 0.5128 0.093 Uiso 1 1 calc R U . . .
H30C H 0.2620 0.2701 0.3995 0.093 Uiso 1 1 calc R U . . .
C31 C 0.2245(4) 0.3767(4) -0.021(3) 0.072(5) Uani 1 1 d . . . . .
H31A H 0.2529 0.3726 -0.0470 0.108 Uiso 1 1 calc R U . . .
H31B H 0.2219 0.4001 0.0513 0.108 Uiso 1 1 calc R U . . .
H31C H 0.2094 0.3814 -0.1213 0.108 Uiso 1 1 calc R U . . .
C32 C 0.0912(9) 0.4033(9) -0.664(4) 0.145(3) Uani 1 1 d . . . . .
H32A H 0.0819 0.3759 -0.6921 0.174 Uiso 1 1 calc R U . . .
H32B H 0.1192 0.4068 -0.7013 0.174 Uiso 1 1 calc R U . . .
C33 C 0.0611(10) 0.4382(9) -0.745(4) 0.145(3) Uani 1 1 d . . . . .
O1 O 0.0412(2) 0.0870(2) 0.6499(9) 0.0315(17) Uani 1 1 d . . . . .
O2 O 0.0494(3) 0.0388(2) 0.4557(12) 0.045(2) Uani 1 1 d . . . . .
O3 O 0.4024(2) 0.4642(2) 0.6253(10) 0.0388(19) Uani 1 1 d . . . . .
O4 O 0.4579(3) 0.4429(3) 0.4959(10) 0.052(2) Uani 1 1 d . . . . .
O5 O 0.0354(6) 0.4559(6) -0.651(2) 0.145(3) Uani 1 1 d . . . . .
O6 O 0.0586(6) 0.4308(5) -0.903(3) 0.145(3) Uani 1 1 d . . . . .
O7 O 0.3540(3) 0.4093(2) 0.5093(12) 0.052(2) Uani 1 1 d . . . . .
O8 O 0.0919(2) 0.1375(2) 0.5149(10) 0.041(2) Uani 1 1 d . . . . .
O9 O 0.0878(6) 0.4106(6) -0.490(2) 0.145(3) Uani 1 1 d . . . . .
O10 O 0.0000 0.0000 0.7553(12) 0.061(4) Uani 1 2 d S T P . .
Cl1 Cl 0.3102(4) 0.5390(4) 0.3677(18) 0.246(5) Uiso 1 1 d . . . . .
Cl2 Cl 0.37077(17) 0.49191(17) 0.2167(8) 0.1090(17) Uiso 1 1 d . . . . .
Fe1 Fe 0.0000 0.5000 -0.7500 0.0784(15) Uani 1 4 d S T P . .
Zn1 Zn 0.00437(4) 0.05791(4) 0.80094(16) 0.0380(4) Uani 1 1 d . . . . .
Zn2 Zn 0.0000 0.0000 0.5000 0.0361(7) Uani 1 4 d S T P . .

loop_
_atom_site_aniso_label
_atom_site_aniso_U_11
_atom_site_aniso_U_22
_atom_site_aniso_U_33
_atom_site_aniso_U_23
_atom_site_aniso_U_13
_atom_site_aniso_U_12
C1 0.027(6) 0.037(7) 0.037(7) 0.025(6) 0.005(5) 0.009(5)
C2 0.054(8) 0.030(6) 0.064(9) 0.008(6) 0.023(7) -0.027(6)
C3 0.057(8) 0.048(8) 0.033(7) 0.001(6) 0.003(6) -0.029(6)
C4 0.089(11) 0.060(9) 0.044(8) -0.014(8) 0.023(8) -0.025(8)
C5 0.052(8) 0.043(7) 0.046(8) -0.005(6) 0.003(7) -0.026(6)
C6 0.049(7) 0.055(7) 0.035(7) -0.015(7) -0.008(6) -0.028(6)
C7 0.036(7) 0.070(9) 0.029(7) -0.007(6) 0.009(5) -0.014(6)
C8 0.034(6) 0.046(7) 0.037(7) -0.003(6) 0.005(6) -0.008(5)
C9 0.055(7) 0.029(6) 0.057(8) -0.012(7) 0.008(7) -0.023(5)
C10 0.045(7) 0.046(7) 0.037(7) -0.004(6) 0.011(6) -0.013(6)
C11 0.055(8) 0.044(7) 0.057(8) -0.005(7) 0.008(8) -0.036(6)
C12 0.052(9) 0.068(10) 0.088(12) 0.031(9) -0.038(8) -0.040(7)
C13 0.040(7) 0.063(9) 0.074(10) -0.004(9) -0.008(8) -0.017(6)
C14 0.051(8) 0.065(9) 0.044(8) -0.004(7) 0.000(7) -0.040(7)
C15 0.079(10) 0.049(8) 0.056(8) 0.004(8) -0.010(8) -0.045(7)
C16 0.066(9) 0.049(8) 0.066(10) 0.007(8) 0.014(8) -0.011(7)
C17 0.051(8) 0.056(8) 0.044(8) -0.018(6) -0.001(6) -0.031(6)
C18 0.033(7) 0.038(7) 0.056(8) 0.019(6) 0.007(6) -0.012(5)
C19 0.057(8) 0.052(7) 0.041(7) -0.022(7) -0.004(7) -0.025(6)
C20 0.058(9) 0.063(9) 0.059(10) -0.002(7) 0.010(7) -0.026(7)
C21 0.038(7) 0.084(10) 0.040(8) 0.000(7) 0.011(6) -0.014(7)
C22 0.060(8) 0.018(5) 0.024(6) 0.012(5) -0.023(6) -0.021(5)
C23 0.159(6) 0.145(6) 0.130(6) 0.035(5) -0.009(6) 0.037(4)
C24 0.159(6) 0.145(6) 0.130(6) 0.035(5) -0.009(6) 0.037(4)
C25 0.159(6) 0.145(6) 0.130(6) 0.035(5) -0.009(6) 0.037(4)
C26 0.159(6) 0.145(6) 0.130(6) 0.035(5) -0.009(6) 0.037(4)
C27 0.159(6) 0.145(6) 0.130(6) 0.035(5) -0.009(6) 0.037(4)
C28 0.159(6) 0.145(6) 0.130(6) 0.035(5) -0.009(6) 0.037(4)
C29 0.080(11) 0.072(10) 0.080(11) 0.004(10) -0.028(10) -0.036(9)
C30 0.050(8) 0.070(10) 0.067(10) 0.013(8) -0.010(7) -0.041(7)
C31 0.038(7) 0.045(8) 0.132(15) 0.007(9) 0.002(9) -0.025(6)
C32 0.159(6) 0.145(6) 0.130(6) 0.035(5) -0.009(6) 0.037(4)
C33 0.159(6) 0.145(6) 0.130(6) 0.035(5) -0.009(6) 0.037(4)
O1 0.035(4) 0.035(4) 0.024(4) 0.006(3) 0.004(3) 0.001(3)
O2 0.049(5) 0.019(4) 0.068(6) 0.006(4) 0.026(4) -0.003(4)
O3 0.048(5) 0.036(4) 0.032(4) -0.011(4) -0.010(4) -0.018(4)
O4 0.061(6) 0.071(6) 0.023(4) 0.010(5) -0.001(4) -0.040(5)
O5 0.159(6) 0.145(6) 0.130(6) 0.035(5) -0.009(6) 0.037(4)
O6 0.159(6) 0.145(6) 0.130(6) 0.035(5) -0.009(6) 0.037(4)
O7 0.064(6) 0.044(5) 0.048(5) -0.013(4) 0.012(5) -0.031(4)
O8 0.043(5) 0.045(5) 0.035(4) -0.006(4) 0.010(4) -0.023(4)
O9 0.159(6) 0.145(6) 0.130(6) 0.035(5) -0.009(6) 0.037(4)
O10 0.154(13) 0.013(5) 0.015(6) 0.000 0.000 -0.034(7)
Fe1 0.080(2) 0.080(2) 0.075(4) 0.000 0.000 0.000
Zn1 0.0562(9) 0.0219(7) 0.0359(7) -0.0016(6) 0.0236(7) -0.0015(6)
Zn2 0.0464(10) 0.0464(10) 0.0153(13) 0.000 0.000 0.000

_geom_special_details            
;
 All esds (except the esd in the dihedral angle between two l.s. planes)
 are estimated using the full covariance matrix.  The cell esds are taken
 into account individually in the estimation of esds in distances, angles
 and torsion angles; correlations between esds in cell parameters are only
 used when they are defined by crystal symmetry.  An approximate (isotropic)
 treatment of cell esds is used for estimating esds involving l.s. planes.
;

loop_
_geom_bond_atom_site_label_1
_geom_bond_atom_site_label_2
_geom_bond_distance
_geom_bond_site_symmetry_2
_geom_bond_publ_flag
C1 O2 1.234(15) . ?
C1 O1 1.252(14) . ?
C1 C2 1.531(15) . ?
C1S Cl1 1.63(2) . ?
C1S Cl2 1.67(3) . ?
C2 O8 1.390(15) . ?
C3 O8 1.369(13) . ?
C3 C4 1.370(19) . ?
C3 C8 1.377(17) . ?
C4 C5 1.354(18) . ?
C5 C6 1.355(18) . ?
C6 C7 1.437(18) . ?
C6 C9 1.507(18) . ?
C7 C8 1.372(16) . ?
C9 C14 1.36(2) . ?
C9 C10 1.422(17) . ?
C10 C11 1.416(17) . ?
C10 C30 1.47(2) . ?
C11 C12 1.38(2) . ?
C11 C15 1.497(18) . ?
C12 C13 1.398(18) . ?
C12 C31 1.53(2) . ?
C13 C14 1.406(19) . ?
C13 C23 1.48(3) . ?
C14 C29 1.534(18) . ?
C15 C16 1.33(2) . ?
C15 C20 1.38(2) . ?
C16 C17 1.420(18) . ?
C17 C18 1.361(17) . ?
C18 C19 1.338(18) . ?
C18 O7 1.403(15) . ?
C19 C20 1.317(17) . ?
C21 O7 1.425(15) . ?
C21 C22 1.561(17) . ?
C22 O3 1.216(15) . ?
C22 O4 1.283(15) . ?
C22 Zn1 2.583(11) 8_556 ?
C23 C24 1.31(4) . ?
C23 C28 1.34(3) . ?
C24 C25 1.41(4) . ?
C25 C26 1.45(4) . ?
C26 C27 1.30(4) . ?
C26 O9 1.41(3) . ?
C27 C28 1.47(3) . ?
C32 O9 1.42(3) . ?
C32 C33 1.64(3) . ?
C33 O5 1.27(3) . ?
C33 O6 1.29(3) . ?
O1 Zn1 1.953(7) . ?
O2 Zn2 2.081(8) . ?
O3 Zn1 1.934(7) 8_556 ?
O4 Zn1 1.992(9) 6_554 ?
O5 Fe1 2.010(16) . ?
O10 Zn1 1.930(2) . ?
O10 Zn1 1.930(2) 2 ?
O10 Zn2 2.051(10) . ?
Fe1 O5 2.010(16) 7_453 ?
Fe1 O5 2.010(16) 8_553 ?
Fe1 O5 2.010(16) 2_565 ?
Zn1 O3 1.934(7) 7_456 ?
Zn1 O4 1.992(9) 6 ?
Zn1 C22 2.583(11) 7_456 ?
Zn1 Zn2 3.0724(13) . ?
Zn2 O10 2.051(10) 3_556 ?
Zn2 O2 2.081(8) 2 ?
Zn2 O2 2.081(8) 4_556 ?
Zn2 O2 2.081(8) 3_556 ?
Zn2 