####################################################################### 
# 
# This file contains crystal structure data downloaded from the 
# Cambridge Structural Database (CSD) hosted by the Cambridge 
# Crystallographic Data Centre (CCDC).
# 
# Full information about CCDC data access policies and citation 
# guidelines are available at http://www.ccdc.cam.ac.uk/access/V1 
# 
# Audit and citation data items may have been added by the CCDC. 
# Please retain this information to preserve the provenance of 
# this file and to allow appropriate attribution of the data. 
# 
#######################################################################

data_ZnL-DMF
_audit_block_doi                 10.5517/cc1362zc
_database_code_depnum_ccdc_archive 'CCDC 1018752'
loop_
_citation_id
_citation_doi
_citation_year
1 10.1002/chem.201406098 2015
_audit_update_record             
;
2014-08-09 deposited with the CCDC.	2024-07-13 downloaded from the CCDC.
;

_audit_creation_method           SHELXL-2013
_chemical_name_systematic        ZnL-DMF
_chemical_name_common            ?
_chemical_melting_point          ?
_chemical_formula_moiety         ?
_chemical_formula_sum            'C36 H34 N O10 Zn'
_chemical_formula_weight         706.01

loop_
_atom_type_symbol
_atom_type_description
_atom_type_scat_dispersion_real
_atom_type_scat_dispersion_imag
_atom_type_scat_source
C C 0.0033 0.0016 'International Tables Vol C Tables 4.2.6.8 and 6.1.1.4'
H H 0.0000 0.0000 'International Tables Vol C Tables 4.2.6.8 and 6.1.1.4'
N N 0.0061 0.0033 'International Tables Vol C Tables 4.2.6.8 and 6.1.1.4'
O O 0.0106 0.0060 'International Tables Vol C Tables 4.2.6.8 and 6.1.1.4'
Zn Zn 0.2839 1.4301 'International Tables Vol C Tables 4.2.6.8 and 6.1.1.4'

_space_group_crystal_system      monoclinic
_space_group_IT_number           9
_space_group_name_H-M_alt        'C c'
_space_group_name_Hall           'C -2yc'

_shelx_space_group_comment       
;
The symmetry employed for this shelxl refinement is uniquely defined
by the following loop, which should always be used as a source of
symmetry information in preference to the above space-group names.
They are only intended as comments.
;

loop_
_space_group_symop_operation_xyz
'x, y, z'
'x, -y, z+1/2'
'x+1/2, y+1/2, z'
'x+1/2, -y+1/2, z+1/2'

_cell_length_a                   21.4721(11)
_cell_length_b                   23.1401(11)
_cell_length_c                   7.5883(4)
_cell_angle_alpha                90
_cell_angle_beta                 104.011(5)
_cell_angle_gamma                90
_cell_volume                     3658.2(3)
_cell_formula_units_Z            4
_cell_measurement_temperature    293(2)
_cell_measurement_reflns_used    2278
_cell_measurement_theta_min      2.9705
_cell_measurement_theta_max      29.1755

_exptl_crystal_description       ?
_exptl_crystal_colour            colorless
_exptl_crystal_density_meas      ?
_exptl_crystal_density_method    ?
_exptl_crystal_density_diffrn    1.282
_exptl_crystal_F_000             1468
_exptl_transmission_factor_min   ?
_exptl_transmission_factor_max   ?
_exptl_crystal_size_max          ?
_exptl_crystal_size_mid          ?
_exptl_crystal_size_min          ?
_exptl_absorpt_coefficient_mu    0.726
_shelx_estimated_absorpt_T_min   ?
_shelx_estimated_absorpt_T_max   ?
_exptl_absorpt_correction_type   multi-scan
_exptl_absorpt_correction_T_min  0.44397
_exptl_absorpt_correction_T_max  1.00000
_exptl_absorpt_process_details   
;
'Thu Apr 19 14:00:31 2012'
;

_exptl_special_details           
;
 ?
;

_diffrn_ambient_temperature      293(2)
_diffrn_radiation_wavelength     0.71073
_diffrn_radiation_type           MoK\a
_diffrn_source                   ?
_diffrn_measurement_device_type  'SuperNova, Dual, Cu at zero, Eos'
_diffrn_measurement_method       '\w scans'
_diffrn_detector_area_resol_mean 16.1640
_diffrn_reflns_number            8302
_diffrn_reflns_av_unetI/netI     0.0923
_diffrn_reflns_av_R_equivalents  0.0371
_diffrn_reflns_limit_h_min       -26
_diffrn_reflns_limit_h_max       27
_diffrn_reflns_limit_k_min       -27
_diffrn_reflns_limit_k_max       31
_diffrn_reflns_limit_l_min       -10
_diffrn_reflns_limit_l_max       9
_diffrn_reflns_theta_min         3.063
_diffrn_reflns_theta_max         29.241
_diffrn_reflns_theta_full        25.242
_diffrn_measured_fraction_theta_max 0.838
_diffrn_measured_fraction_theta_full 0.998
_diffrn_reflns_Laue_measured_fraction_max 0.838
_diffrn_reflns_Laue_measured_fraction_full 0.998
_diffrn_reflns_point_group_measured_fraction_max 0.598
_diffrn_reflns_point_group_measured_fraction_full 0.743
_reflns_number_total             5962
_reflns_number_gt                4588
_reflns_threshold_expression     'I > 2\s(I)'
_reflns_Friedel_coverage         0.426
_reflns_Friedel_fraction_max     0.358
_reflns_Friedel_fraction_full    0.486

_reflns_special_details          
;
 Reflections were merged by SHELXL according to the crystal
 class for the calculation of statistics and refinement.
 
 _reflns_Friedel_fraction is defined as the number of unique
 Friedel pairs measured divided by the number that would be
 possible theoretically, ignoring centric projections and
 systematic absences.
;

_computing_data_collection       
;
'Thu Apr 19 14:00:31 2012'
;
_computing_cell_refinement       
;
'Thu Apr 19 14:00:31 2012'
;
_computing_data_reduction        
;
'Thu Apr 19 14:00:31 2012'
;
_computing_structure_solution    ?
_computing_structure_refinement  'SHELXL-2013 (Sheldrick, 2013)'
_computing_molecular_graphics    ?
_computing_publication_material  ?

_refine_special_details          SQUEEZE
_refine_ls_structure_factor_coef Fsqd
_refine_ls_matrix_type           full
_refine_ls_weighting_scheme      calc
_refine_ls_weighting_details     
'w=1/[\s^2^(Fo^2^)+(0.0979P)^2^] where P=(Fo^2^+2Fc^2^)/3'
_atom_sites_solution_primary     ?
_atom_sites_solution_secondary   ?
_atom_sites_solution_hydrogens   geom
_refine_ls_hydrogen_treatment    constr
_refine_ls_extinction_method     none
_refine_ls_extinction_coef       .
_refine_ls_abs_structure_details 
;
 Flack x determined using 1141 quotients [(I+)-(I-)]/[(I+)+(I-)]
 (Parsons and Flack (2004), Acta Cryst. A60, s61).
;
_refine_ls_abs_structure_Flack   0.045(19)
_chemical_absolute_configuration ?
_refine_ls_number_reflns         5962
_refine_ls_number_parameters     414
_refine_ls_number_restraints     2
_refine_ls_R_factor_all          0.0825
_refine_ls_R_factor_gt           0.0623
_refine_ls_wR_factor_ref         0.1833
_refine_ls_wR_factor_gt          0.1648
_refine_ls_goodness_of_fit_ref   1.009
_refine_ls_restrained_S_all      1.009
_refine_ls_shift/su_max          0.001
_refine_ls_shift/su_mean         0.000

loop_
_atom_site_label
_atom_site_type_symbol
_atom_site_fract_x
_atom_site_fract_y
_atom_site_fract_z
_atom_site_U_iso_or_equiv
_atom_site_adp_type
_atom_site_occupancy
_atom_site_site_symmetry_order
_atom_site_calc_flag
_atom_site_refinement_flags_posn
_atom_site_refinement_flags_adp
_atom_site_refinement_flags_occupancy
_atom_site_disorder_assembly
_atom_site_disorder_group
Zn01 Zn 0.43495(4) 0.94190(3) 0.79842(8) 0.0333(2) Uani 1 1 d . . . . .
O1 O 0.4123(2) 1.0089(3) 0.6397(9) 0.0491(16) Uani 1 1 d . . . . .
C1 C 0.3648(4) 1.0362(4) 0.5554(10) 0.0343(17) Uani 1 1 d . . . . .
O2 O 0.3656(2) 1.0690(3) 0.4244(7) 0.0396(13) Uani 1 1 d . . . . .
C2 C 0.3026(3) 1.0300(4) 0.6135(10) 0.0346(17) Uani 1 1 d . . . . .
H2A H 0.2888 0.9899 0.6030 0.042 Uiso 1 1 calc R U . . .
H2B H 0.3088 1.0416 0.7393 0.042 Uiso 1 1 calc R U . . .
O3 O 0.2555(2) 1.0650(3) 0.5015(8) 0.0399(14) Uani 1 1 d . . . . .
C3 C 0.1957(4) 1.0662(4) 0.5376(11) 0.0353(17) Uani 1 1 d . . . . .
C4 C 0.1759(4) 1.0341(4) 0.6665(12) 0.043(2) Uani 1 1 d . . . . .
H4 H 0.2038 1.0077 0.7371 0.052 Uiso 1 1 calc R U . . .
O4 O -0.0692(3) 1.3755(3) 1.6293(8) 0.0462(14) Uani 1 1 d . . . . .
O6 O -0.0707(3) 1.2990(3) 1.3671(9) 0.065(2) Uani 1 1 d . . . . .
C6 C 0.0725(3) 1.0795(3) 0.5933(10) 0.0318(16) Uani 1 1 d . . . . .
C5 C 0.1146(4) 1.0411(4) 0.6916(12) 0.0418(19) Uani 1 1 d . . . . .
H5 H 0.1020 1.0187 0.7786 0.050 Uiso 1 1 calc R U . . .
O5 O -0.1696(4) 1.4012(4) 1.5023(10) 0.073(2) Uani 1 1 d . . . . .
C8 C 0.1532(4) 1.1049(5) 0.4342(14) 0.050(2) Uani 1 1 d . . . . .
H8 H 0.1658 1.1273 0.3470 0.060 Uiso 1 1 calc R U . . .
O8 O -0.4754(4) 1.0287(4) -0.0390(13) 0.077(2) Uani 1 1 d . . . . .
C7 C 0.0925(4) 1.1105(4) 0.4599(11) 0.045(2) Uani 1 1 d . . . . .
H7 H 0.0638 1.1357 0.3861 0.054 Uiso 1 1 calc R U . . .
O7 O -0.4760(3) 0.9339(3) -0.0653(10) 0.0580(18) Uani 1 1 d . . . . .
C11 C -0.1071(3) 1.0867(3) 0.5426(10) 0.0315(16) Uani 1 1 d . . . . .
C10 C -0.0480(3) 1.0691(3) 0.5168(10) 0.0300(15) Uani 1 1 d . . . . .
O10 O 0.2169(7) 1.2781(6) 0.503(3) 0.171(3) Uani 1 1 d . . . . .
C21 C -0.0691(4) 1.2629(4) 1.2230(12) 0.044(2) Uani 1 1 d . . . . .
C13 C -0.0545(3) 1.1465(3) 0.7968(12) 0.0309(16) Uani 1 1 d . . . . .
C12 C -0.1107(4) 1.1242(3) 0.6822(10) 0.0336(16) Uani 1 1 d . . . . .
C20 C -0.0612(5) 1.2045(4) 1.2589(12) 0.051(2) Uani 1 1 d . . . . .
H20 H -0.0589 1.1900 1.3746 0.061 Uiso 1 1 calc R U . . .
C15 C 0.0658(4) 1.1544(5) 0.8929(14) 0.059(3) Uani 1 1 d . . . . .
H15A H 0.0945 1.1678 0.8224 0.089 Uiso 1 1 calc R U . . .
H15B H 0.0864 1.1245 0.9743 0.089 Uiso 1 1 calc R U . . .
H15C H 0.0547 1.1859 0.9616 0.089 Uiso 1 1 calc R U . . .
C14 C 0.0054(3) 1.1305(3) 0.7670(11) 0.0338(16) Uani 1 1 d . . . . .
C17 C -0.1755(4) 1.1405(5) 0.7194(14) 0.055(3) Uani 1 1 d . . . . .
H17A H -0.1702 1.1471 0.8471 0.083 Uiso 1 1 calc R U . . .
H17B H -0.2056 1.1096 0.6809 0.083 Uiso 1 1 calc R U . . .
H17C H -0.1914 1.1750 0.6536 0.083 Uiso 1 1 calc R U . . .
C16 C -0.0439(4) 1.0260(4) 0.3732(11) 0.0412(19) Uani 1 1 d . . . . .
H16A H -0.0032 1.0297 0.3430 0.062 Uiso 1 1 calc R U . . .
H16B H -0.0778 1.0330 0.2670 0.062 Uiso 1 1 calc R U . . .
H16C H -0.0480 0.9877 0.4175 0.062 Uiso 1 1 calc R U . . .
C19 C -0.0569(4) 1.1686(4) 1.1181(11) 0.0437(19) Uani 1 1 d . . . . .
H19 H -0.0524 1.1292 1.1413 0.052 Uiso 1 1 calc R U . . .
C18 C -0.0587(4) 1.1875(4) 0.9451(10) 0.0362(17) Uani 1 1 d . . . . .
C26 C -0.1692(3) 1.0675(3) 0.4171(10) 0.0332(17) Uani 1 1 d . . . . .
C25 C -0.1214(5) 1.3733(5) 1.5059(12) 0.056(3) Uani 1 1 d . . . . .
C24 C -0.1227(7) 1.3334(8) 1.3473(17) 0.116(7) Uani 1 1 d . . . . .
H24A H -0.1607 1.3092 1.3290 0.139 Uiso 1 1 calc R U . . .
H24B H -0.1266 1.3566 1.2388 0.139 Uiso 1 1 calc R U . . .
C23 C -0.0664(5) 1.2458(4) 0.9146(12) 0.059(3) Uani 1 1 d . . . . .
H23 H -0.0682 1.2600 0.7988 0.071 Uiso 1 1 calc R U . . .
C22 C -0.0715(6) 1.2845(4) 1.0512(13) 0.065(3) Uani 1 1 d . . . . .
H22 H -0.0764 1.3239 1.0275 0.078 Uiso 1 1 calc R U . . .
C31 C -0.1957(3) 1.0136(4) 0.4273(10) 0.0350(17) Uani 1 1 d . . . . .
H31 H -0.1724 0.9864 0.5069 0.042 Uiso 1 1 calc R U . . .
C32 C -0.3797(4) 0.9752(5) 0.0964(12) 0.049(2) Uani 1 1 d . . . . .
H32A H -0.3781 0.9613 0.2180 0.059 Uiso 1 1 calc R U . . .
H32B H -0.3564 0.9484 0.0378 0.059 Uiso 1 1 calc R U . . .
N1 N 0.2288(11) 1.2316(9) 0.260(4) 0.171(3) Uani 1 1 d . . . . .
C35 C 0.2388(12) 1.2391(11) 0.431(5) 0.171(3) Uani 1 1 d . . . . .
H35 H 0.2649 1.2126 0.5067 0.205 Uiso 1 1 calc R U . . .
C33 C -0.4509(4) 0.9813(5) -0.0159(14) 0.051(2) Uani 1 1 d . . . . .
C36 C 0.2653(10) 1.1883(10) 0.186(4) 0.171(3) Uani 1 1 d . . . . .
H36A H 0.2370 1.1578 0.1296 0.256 Uiso 1 1 calc R U . . .
H36B H 0.2984 1.1726 0.2825 0.256 Uiso 1 1 calc R U . . .
H36C H 0.2844 1.2060 0.0974 0.256 Uiso 1 1 calc R U . . .
C37 C 0.1837(11) 1.2719(10) 0.152(4) 0.171(3) Uani 1 1 d . . . . .
H37A H 0.1840 1.2679 0.0262 0.256 Uiso 1 1 calc R U . . .
H37B H 0.1957 1.3107 0.1913 0.256 Uiso 1 1 calc R U . . .
H37C H 0.1414 1.2640 0.1669 0.256 Uiso 1 1 calc R U . . .
C30 C -0.2553(4) 0.9989(4) 0.3237(11) 0.0413(19) Uani 1 1 d . . . . .
H30 H -0.2720 0.9622 0.3325 0.050 Uiso 1 1 calc R U . . .
C29 C -0.2902(3) 1.0392(4) 0.2064(10) 0.0397(19) Uani 1 1 d . . . . .
C28 C -0.2644(4) 1.0923(4) 0.1873(13) 0.047(2) Uani 1 1 d . . . . .
H28 H -0.2873 1.1191 0.1057 0.056 Uiso 1 1 calc R U . . .
C27 C -0.2040(4) 1.1052(4) 0.2910(12) 0.045(2) Uani 1 1 d . . . . .
H27 H -0.1861 1.1408 0.2751 0.055 Uiso 1 1 calc R U . . .
C9 C 0.0087(4) 1.0929(3) 0.6293(10) 0.0338(16) Uani 1 1 d . . . . .
O9 O -0.3524(3) 1.0322(3) 0.1029(8) 0.0564(18) Uani 1 1 d . . . . .

loop_
_atom_site_aniso_label
_atom_site_aniso_U_11
_atom_site_aniso_U_22
_atom_site_aniso_U_33
_atom_site_aniso_U_23
_atom_site_aniso_U_13
_atom_site_aniso_U_12
Zn01 0.0289(4) 0.0362(4) 0.0353(4) -0.0019(5) 0.0084(3) 0.0042(5)
O1 0.025(3) 0.058(4) 0.065(4) 0.024(3) 0.010(2) 0.004(3)
C1 0.034(4) 0.039(4) 0.031(4) -0.001(3) 0.010(3) 0.000(4)
O2 0.030(3) 0.051(3) 0.041(3) 0.009(3) 0.014(2) 0.007(3)
C2 0.025(4) 0.043(5) 0.036(4) 0.009(3) 0.007(3) -0.001(3)
O3 0.020(3) 0.054(4) 0.047(3) 0.015(3) 0.013(2) 0.007(2)
C3 0.024(4) 0.043(4) 0.042(4) -0.005(4) 0.013(3) 0.000(3)
C4 0.032(4) 0.049(5) 0.051(5) 0.018(4) 0.013(3) 0.014(4)
O4 0.043(3) 0.049(4) 0.047(3) -0.006(3) 0.010(3) 0.007(3)
O6 0.073(5) 0.066(5) 0.051(4) -0.027(4) 0.006(3) 0.021(4)
C6 0.028(4) 0.034(4) 0.031(4) -0.005(3) 0.005(3) -0.004(3)
C5 0.036(4) 0.047(5) 0.045(4) 0.006(4) 0.016(3) -0.006(4)
O5 0.061(4) 0.091(6) 0.064(4) -0.014(4) 0.007(3) 0.037(4)
C8 0.035(5) 0.060(6) 0.059(6) 0.020(5) 0.018(4) 0.011(5)
O8 0.049(4) 0.063(5) 0.108(6) -0.005(5) -0.001(4) -0.005(4)
C7 0.028(4) 0.054(5) 0.053(5) 0.022(4) 0.011(3) 0.012(4)
O7 0.035(3) 0.072(5) 0.066(4) -0.017(4) 0.009(3) -0.012(3)
C11 0.023(4) 0.034(4) 0.034(4) 0.001(3) 0.000(3) 0.000(3)
C10 0.026(4) 0.033(4) 0.031(3) -0.002(3) 0.006(3) 0.006(3)
O10 0.159(8) 0.115(7) 0.247(10) -0.058(8) 0.066(7) -0.026(5)
C21 0.049(5) 0.038(4) 0.045(4) -0.009(4) 0.011(4) 0.001(4)
C13 0.026(4) 0.031(3) 0.039(3) -0.003(4) 0.012(3) 0.005(3)
C12 0.031(4) 0.031(4) 0.040(4) -0.005(3) 0.010(3) 0.004(3)
C20 0.056(5) 0.037(4) 0.054(6) -0.003(4) 0.006(5) -0.005(5)
C15 0.043(5) 0.065(7) 0.067(6) -0.032(6) 0.007(4) -0.013(5)
C14 0.026(4) 0.030(4) 0.043(4) -0.005(3) 0.005(3) -0.006(3)
C17 0.033(5) 0.062(6) 0.069(6) -0.026(5) 0.008(4) 0.005(4)
C16 0.038(4) 0.039(5) 0.046(4) -0.011(4) 0.010(3) 0.004(4)
C19 0.056(5) 0.032(4) 0.042(4) -0.004(4) 0.010(4) 0.007(4)
C18 0.032(4) 0.037(4) 0.037(4) -0.008(4) 0.004(3) 0.001(3)
C26 0.020(4) 0.040(4) 0.039(4) -0.002(3) 0.007(3) 0.007(3)
C25 0.062(6) 0.070(7) 0.035(4) -0.010(5) 0.012(4) 0.016(6)
C24 0.096(10) 0.141(14) 0.084(9) -0.061(10) -0.028(8) 0.073(10)
C23 0.093(8) 0.047(5) 0.038(4) -0.002(4) 0.016(5) 0.012(5)
C22 0.119(9) 0.030(5) 0.050(5) 0.001(4) 0.028(6) 0.012(5)
C31 0.030(4) 0.038(4) 0.034(4) 0.000(3) 0.002(3) -0.004(3)
C32 0.036(4) 0.064(6) 0.046(5) -0.013(5) 0.007(4) -0.006(4)
N1 0.159(8) 0.115(7) 0.247(10) -0.058(8) 0.066(7) -0.026(5)
C35 0.159(8) 0.115(7) 0.247(10) -0.058(8) 0.066(7) -0.026(5)
C33 0.041(5) 0.054(6) 0.065(6) -0.009(5) 0.025(4) -0.010(5)
C36 0.159(8) 0.115(7) 0.247(10) -0.058(8) 0.066(7) -0.026(5)
C37 0.159(8) 0.115(7) 0.247(10) -0.058(8) 0.066(7) -0.026(5)
C30 0.032(4) 0.047(5) 0.042(4) -0.001(4) 0.003(3) -0.011(4)
C29 0.017(3) 0.065(6) 0.035(4) -0.002(4) 0.003(3) 0.001(4)
C28 0.030(4) 0.057(6) 0.048(5) 0.004(5) -0.001(4) 0.006(4)
C27 0.038(4) 0.047(5) 0.048(5) 0.000(4) 0.004(4) 0.003(4)
C9 0.032(4) 0.033(4) 0.037(4) 0.002(3) 0.009(3) 0.003(3)
O9 0.029(3) 0.081(5) 0.050(4) 0.003(4) -0.008(3) -0.014(3)

_geom_special_details            
;
 All esds (except the esd in the dihedral angle between two l.s. planes)
 are estimated using the full covariance matrix.  The cell esds are taken
 into account individually in the estimation of esds in distances, angles
 and torsion angles; correlations between esds in cell parameters are only
 used when they are defined by crystal symmetry.  An approximate (isotropic)
 treatment of cell esds is used for estimating esds involving l.s. planes.
;

loop_
_geom_bond_atom_site_label_1
_geom_bond_atom_site_label_2
_geom_bond_distance
_geom_bond_site_symmetry_2
_geom_bond_publ_flag
Zn01 O7 1.951(6) 1_656 ?
Zn01 O1 1.952(6) . ?
Zn01 O2 1.972(5) 2_575 ?
Zn01 O4 1.990(6) 3_544 ?
O1 C1 1.239(9) . ?
C1 O2 1.254(10) . ?
C1 C2 1.510(10) . ?
O2 Zn01 1.972(5) 2_574 ?
C2 O3 1.410(9) . ?
O3 C3 1.377(9) . ?
C3 C4 1.375(11) . ?
C3 C8 1.380(12) . ?
C4 C5 1.384(11) . ?
O4 C25 1.277(11) . ?
O4 Zn01 1.990(6) 3_456 ?
O6 C24 1.350(13) . ?
O6 C21 1.382(9) . ?
C6 C5 1.356(12) . ?
C6 C7 1.391(11) . ?
C6 C9 1.492(10) . ?
O5 C25 1.214(11) . ?
C8 C7 1.370(11) . ?
O8 C33 1.211(12) . ?
O7 C33 1.238(11) . ?
O7 Zn01 1.950(6) 1_454 ?
C11 C10 1.391(10) . ?
C11 C12 1.386(10) . ?
C11 C26 1.505(10) . ?
C10 C9 1.419(10) . ?
C10 C16 1.494(10) . ?
O10 C35 1.21(2) . ?
C21 C20 1.381(12) . ?
C21 C22 1.385(13) . ?
C13 C12 1.405(11) . ?
C13 C14 1.408(10) . ?
C13 C18 