####################################################################### 
# 
# This file contains crystal structure data downloaded from the 
# Cambridge Structural Database (CSD) hosted by the Cambridge 
# Crystallographic Data Centre (CCDC).
# 
# Full information about CCDC data access policies and citation 
# guidelines are available at http://www.ccdc.cam.ac.uk/access/V1 
# 
# Audit and citation data items may have been added by the CCDC. 
# Please retain this information to preserve the provenance of 
# this file and to allow appropriate attribution of the data. 
# 
#######################################################################

data_wyh_1
_audit_block_doi                 10.5517/cc11wcbm
_database_code_depnum_ccdc_archive 'CCDC 979610'
loop_
_citation_id
_citation_doi
_citation_year
1 10.1080/00958972.2014.983094 2015
_audit_update_record             
;
2014-01-06 deposited with the CCDC.	2024-07-13 downloaded from the CCDC.
;

_audit_creation_method           SHELXL-97
_chemical_name_systematic        
; 
 ? 
;
_chemical_name_common            ?
_chemical_melting_point          ?
_chemical_formula_moiety         ?
_chemical_formula_sum            'C28 H26 Co N4 O5'
_chemical_formula_weight         557.46

loop_
_atom_type_symbol
_atom_type_description
_atom_type_scat_dispersion_real
_atom_type_scat_dispersion_imag
_atom_type_scat_source
C C 0.0033 0.0016 'International Tables Vol C Tables 4.2.6.8 and 6.1.1.4'
H H 0.0000 0.0000 'International Tables Vol C Tables 4.2.6.8 and 6.1.1.4'
N N 0.0061 0.0033 'International Tables Vol C Tables 4.2.6.8 and 6.1.1.4'
O O 0.0106 0.0060 'International Tables Vol C Tables 4.2.6.8 and 6.1.1.4'
Co Co 0.3494 0.9721 'International Tables Vol C Tables 4.2.6.8 and 6.1.1.4'

_symmetry_cell_setting           monoclinic
_symmetry_space_group_name_H-M   I/2c

loop_
_symmetry_equiv_pos_as_xyz
'x, y, z'
'-x, y, -z+1/2'
'x+1/2, y+1/2, z+1/2'
'-x+1/2, y+1/2, -z+1'
'-x, -y, -z'
'x, -y, z-1/2'
'-x+1/2, -y+1/2, -z+1/2'
'x+1/2, -y+1/2, z'

_cell_length_a                   18.2916(6)
_cell_length_b                   20.5722(10)
_cell_length_c                   17.4711(7)
_cell_angle_alpha                90.00
_cell_angle_beta                 92.174(3)
_cell_angle_gamma                90.00
_cell_volume                     6569.6(5)
_cell_formula_units_Z            8
_cell_measurement_temperature    293(2)
_cell_measurement_reflns_used    3353
_cell_measurement_theta_min      3.8260
_cell_measurement_theta_max      22.7360

_exptl_crystal_description       block
_exptl_crystal_colour            'clear dark purple'
_exptl_crystal_size_max          0.4300
_exptl_crystal_size_mid          0.3200
_exptl_crystal_size_min          0.2800
_exptl_crystal_density_meas      ?
_exptl_crystal_density_diffrn    1.127
_exptl_crystal_density_method    'not measured'
_exptl_crystal_F_000             2312
_exptl_absorpt_coefficient_mu    0.559
_exptl_absorpt_correction_T_min  0.45156
_exptl_absorpt_correction_T_max  1.00000
_exptl_absorpt_correction_type   multi-scan
_exptl_absorpt_process_details   ?

_exptl_special_details           
; 
 ? 
;

_diffrn_ambient_temperature      293(2)
_diffrn_radiation_wavelength     0.71073
_diffrn_radiation_type           MoK\a
_diffrn_radiation_source         'fine-focus sealed tube'
_diffrn_radiation_monochromator  graphite
_diffrn_measurement_device_type  'multiwire proportional'
_diffrn_measurement_method       'phi and omega scans'
_diffrn_detector_area_resol_mean 16.0733
_diffrn_standards_number         ?
_diffrn_standards_interval_count ?
_diffrn_standards_interval_time  ?
_diffrn_standards_decay_%        ?
_diffrn_reflns_number            16447
_diffrn_reflns_av_R_equivalents  0.0490
_diffrn_reflns_av_sigmaI/netI    0.0669
_diffrn_reflns_limit_h_min       -22
_diffrn_reflns_limit_h_max       22
_diffrn_reflns_limit_k_min       -25
_diffrn_reflns_limit_k_max       25
_diffrn_reflns_limit_l_min       -21
_diffrn_reflns_limit_l_max       21
_diffrn_reflns_theta_min         2.98
_diffrn_reflns_theta_max         26.02
_reflns_number_total             6463
_reflns_number_gt                3598
_reflns_threshold_expression     >2sigma(I)

_computing_data_collection       'Bruker FRAMBO'
_computing_cell_refinement       'Bruker FRAMBO'
_computing_data_reduction        'Bruker SAINT'
_computing_structure_solution    'Bruker SHELXTL'
_computing_structure_refinement  'Bruker SHELXTL'
_computing_molecular_graphics    'Bruker SHELXTL'
_computing_publication_material  'Bruker SHELXTL'

_refine_special_details          
; 
 Refinement of F^2^ against ALL reflections.  The weighted R-factor wR and 
 goodness of fit S are based on F^2^, conventional R-factors R are based 
 on F, with F set to zero for negative F^2^. The threshold expression of 
 F^2^ > 2sigma(F^2^) is used only for calculating R-factors(gt) etc. and is 
 not relevant to the choice of reflections for refinement.  R-factors based 
 on F^2^ are statistically about twice as large as those based on F, and R- 
 factors based on ALL data will be even larger. 
;

_refine_ls_structure_factor_coef Fsqd
_refine_ls_matrix_type           full
_refine_ls_weighting_scheme      calc
_refine_ls_weighting_details     
'calc w=1/[\s^2^(Fo^2^)+(0.1100P)^2^+0.2300P] where P=(Fo^2^+2Fc^2^)/3'
_atom_sites_solution_primary     direct
_atom_sites_solution_secondary   difmap
_atom_sites_solution_hydrogens   geom
_refine_ls_hydrogen_treatment    mixed
_refine_ls_extinction_method     none
_refine_ls_extinction_coef       ?
_refine_ls_number_reflns         6463
_refine_ls_number_parameters     346
_refine_ls_number_restraints     7
_refine_ls_R_factor_all          0.1173
_refine_ls_R_factor_gt           0.0746
_refine_ls_wR_factor_ref         0.2438
_refine_ls_wR_factor_gt          0.2140
_refine_ls_goodness_of_fit_ref   1.121
_refine_ls_restrained_S_all      1.143
_refine_ls_shift/su_max          0.001
_refine_ls_shift/su_mean         0.000

loop_
_atom_site_label
_atom_site_type_symbol
_atom_site_fract_x
_atom_site_fract_y
_atom_site_fract_z
_atom_site_U_iso_or_equiv
_atom_site_adp_type
_atom_site_occupancy
_atom_site_symmetry_multiplicity
_atom_site_calc_flag
_atom_site_refinement_flags
_atom_site_disorder_assembly
_atom_site_disorder_group
Co1 Co 0.62349(3) 0.70807(3) 0.50528(4) 0.0652(3) Uani 1 1 d U . .
O1 O 0.6811(2) 0.7708(3) 0.4364(2) 0.1282(17) Uani 1 1 d U . .
O2 O 0.7480(3) 0.6973(2) 0.4885(4) 0.136(2) Uani 1 1 d . . .
O3 O 1.02297(16) 0.76063(18) 0.4736(2) 0.0777(9) Uani 1 1 d . . .
O4 O 1.05363(16) 0.82368(18) 0.37802(19) 0.0806(10) Uani 1 1 d . . .
O5 O 0.82429(18) 0.8391(2) 0.20934(19) 0.0942(12) Uani 1 1 d . . .
H5 H 0.8593 0.8353 0.1817 0.141 Uiso 1 1 calc R . .
N1 N 0.59738(18) 0.61381(18) 0.5322(2) 0.0641(10) Uani 1 1 d . . .
N2 N 0.5461(2) 0.5306(2) 0.5895(2) 0.0739(11) Uani 1 1 d . . .
N3 N 0.62402(19) 0.8187(2) 0.7067(2) 0.0683(10) Uani 1 1 d . . .
N4 N 0.63690(18) 0.74823(18) 0.6124(2) 0.0641(10) Uani 1 1 d . . .
C1 C 0.8030(2) 0.7682(2) 0.3970(3) 0.0702(13) Uani 1 1 d . . .
C2 C 0.8747(2) 0.7648(2) 0.4248(3) 0.0647(12) Uani 1 1 d . . .
H2 H 0.8856 0.7467 0.4727 0.078 Uiso 1 1 calc R . .
C3 C 0.9301(2) 0.7884(2) 0.3806(3) 0.0616(12) Uani 1 1 d . . .
C4 C 0.9133(2) 0.8119(2) 0.3082(3) 0.0661(12) Uani 1 1 d . . .
H4 H 0.9508 0.8256 0.2775 0.079 Uiso 1 1 calc R . .
C5 C 0.8427(2) 0.8155(3) 0.2809(3) 0.0701(12) Uani 1 1 d . . .
C6 C 0.7861(2) 0.7949(3) 0.3258(3) 0.0757(15) Uani 1 1 d . . .
H6 H 0.7377 0.7990 0.3083 0.091 Uiso 1 1 calc R . .
C7 C 0.7410(3) 0.7417(4) 0.4442(3) 0.094(2) Uani 1 1 d . . .
C8 C 1.0079(2) 0.7906(2) 0.4112(3) 0.0676(13) Uani 1 1 d . . .
C9 C 0.4906(3) 0.6403(3) 0.6108(3) 0.0902(16) Uani 1 1 d . . .
H9A H 0.4421 0.6292 0.5925 0.135 Uiso 1 1 calc R . .
H9B H 0.5016 0.6840 0.5959 0.135 Uiso 1 1 calc R . .
H9C H 0.4936 0.6370 0.6657 0.135 Uiso 1 1 calc R . .
C10 C 0.5446(2) 0.5945(3) 0.5771(3) 0.0696(12) Uani 1 1 d . . .
C11 C 0.6349(2) 0.5582(2) 0.5143(2) 0.0608(11) Uani 1 1 d . . .
C12 C 0.6936(3) 0.5478(2) 0.4678(3) 0.0732(13) Uani 1 1 d . . .
H12 H 0.7137 0.5820 0.4409 0.088 Uiso 1 1 calc R . .
C13 C 0.7219(4) 0.4856(3) 0.4623(3) 0.0954(17) Uani 1 1 d . . .
H13 H 0.7620 0.4786 0.4323 0.114 Uiso 1 1 calc R . .
C14 C 0.6920(4) 0.4337(3) 0.5001(4) 0.1009(19) Uani 1 1 d . . .
H14 H 0.7121 0.3925 0.4945 0.121 Uiso 1 1 calc R . .
C15 C 0.6336(4) 0.4417(3) 0.5456(3) 0.0937(18) Uani 1 1 d . . .
H15 H 0.6140 0.4069 0.5718 0.112 Uiso 1 1 calc R . .
C16 C 0.6039(3) 0.5052(2) 0.5512(2) 0.0699(13) Uani 1 1 d . . .
C17 C 0.4972(3) 0.4928(3) 0.6386(3) 0.0945(17) Uani 1 1 d . . .
H17A H 0.4929 0.4487 0.6196 0.113 Uiso 1 1 calc R . .
H17B H 0.4488 0.5122 0.6368 0.113 Uiso 1 1 calc R . .
C18 C 0.5281(4) 0.4920(4) 0.7225(3) 0.108(2) Uani 1 1 d . . .
H18A H 0.5583 0.4536 0.7302 0.130 Uiso 1 1 calc R . .
H18B H 0.5590 0.5298 0.7310 0.130 Uiso 1 1 calc R . .
C19 C 0.5304(3) 0.8773(3) 0.7818(3) 0.0903(16) Uani 1 1 d . . .
H19A H 0.5247 0.9150 0.8144 0.108 Uiso 1 1 calc R . .
H19B H 0.5260 0.8387 0.8131 0.108 Uiso 1 1 calc R . .
C20 C 0.6056(3) 0.8788(3) 0.7476(3) 0.0894(16) Uani 1 1 d . . .
H20A H 0.6077 0.9151 0.7124 0.107 Uiso 1 1 calc R . .
H20B H 0.6421 0.8861 0.7884 0.107 Uiso 1 1 calc R . .
C21 C 0.6468(2) 0.7624(3) 0.7417(3) 0.0676(13) Uani 1 1 d . . .
C22 C 0.6618(3) 0.7460(4) 0.8166(3) 0.0878(17) Uani 1 1 d . . .
H22 H 0.6564 0.7758 0.8560 0.105 Uiso 1 1 calc R . .
C23 C 0.6850(3) 0.6843(4) 0.8310(4) 0.0954(19) Uani 1 1 d . . .
H23 H 0.6951 0.6720 0.8816 0.114 Uiso 1 1 calc R . .
C24 C 0.6941(3) 0.6398(4) 0.7745(4) 0.100(2) Uani 1 1 d . . .
H24 H 0.7105 0.5983 0.7874 0.121 Uiso 1 1 calc R . .
C25 C 0.6792(2) 0.6550(3) 0.6975(3) 0.0800(14) Uani 1 1 d . . .
H25 H 0.6853 0.6247 0.6588 0.096 Uiso 1 1 calc R . .
C26 C 0.6551(2) 0.7176(2) 0.6820(3) 0.0617(12) Uani 1 1 d . . .
C27 C 0.6191(2) 0.8096(2) 0.6295(3) 0.0656(12) Uani 1 1 d . . .
C28 C 0.5988(3) 0.8591(3) 0.5730(3) 0.0867(16) Uani 1 1 d . . .
H28A H 0.6191 0.8482 0.5248 0.130 Uiso 1 1 calc R . .
H28B H 0.6174 0.9005 0.5900 0.130 Uiso 1 1 calc R . .
H28C H 0.5464 0.8612 0.5671 0.130 Uiso 1 1 calc R . .

loop_
_atom_site_aniso_label
_atom_site_aniso_U_11
_atom_site_aniso_U_22
_atom_site_aniso_U_33
_atom_site_aniso_U_23
_atom_site_aniso_U_13
_atom_site_aniso_U_12
Co1 0.0448(4) 0.0778(5) 0.0738(5) 0.0031(3) 0.0127(3) -0.0005(3)
O1 0.059(2) 0.231(5) 0.096(3) 0.053(3) 0.0206(19) -0.034(3)
O2 0.151(5) 0.082(3) 0.184(5) -0.006(3) 0.114(4) -0.023(3)
O3 0.0520(18) 0.103(3) 0.078(2) -0.002(2) 0.0048(15) 0.0005(18)
O4 0.0472(17) 0.115(3) 0.081(2) -0.013(2) 0.0167(15) -0.0159(18)
O5 0.0579(19) 0.158(4) 0.067(2) 0.005(2) 0.0081(15) 0.010(2)
N1 0.0465(19) 0.077(2) 0.069(2) -0.001(2) 0.0095(17) -0.0098(18)
N2 0.078(3) 0.086(3) 0.058(2) 0.001(2) 0.0058(19) -0.032(2)
N3 0.051(2) 0.074(3) 0.080(3) -0.012(2) 0.0048(18) -0.010(2)
N4 0.049(2) 0.071(2) 0.073(2) 0.010(2) 0.0048(17) 0.0002(18)
C1 0.051(3) 0.086(3) 0.075(3) -0.015(3) 0.018(2) -0.017(2)
C2 0.050(2) 0.079(3) 0.066(3) -0.010(2) 0.014(2) -0.006(2)
C3 0.042(2) 0.071(3) 0.072(3) -0.010(2) 0.014(2) -0.006(2)
C4 0.042(2) 0.094(3) 0.064(3) -0.007(3) 0.0143(19) -0.003(2)
C5 0.049(2) 0.102(3) 0.061(3) -0.008(3) 0.012(2) -0.004(3)
C6 0.042(2) 0.119(4) 0.067(3) -0.018(3) 0.005(2) -0.011(2)
C7 0.048(3) 0.147(6) 0.088(4) -0.048(4) 0.026(3) -0.032(3)
C8 0.046(2) 0.094(3) 0.064(3) -0.008(3) 0.012(2) -0.003(2)
C9 0.061(3) 0.122(4) 0.089(4) 0.000(3) 0.026(3) -0.009(3)
C10 0.053(3) 0.095(4) 0.061(3) 0.001(3) 0.002(2) -0.013(3)
C11 0.062(3) 0.065(3) 0.055(2) -0.002(2) -0.002(2) -0.015(2)
C12 0.070(3) 0.072(3) 0.079(3) 0.002(3) 0.012(2) -0.005(3)
C13 0.105(5) 0.084(4) 0.098(4) -0.009(3) 0.022(3) 0.007(3)
C14 0.138(6) 0.064(3) 0.101(4) -0.012(3) 0.018(4) 0.004(3)
C15 0.135(5) 0.062(3) 0.083(4) -0.001(3) 0.005(3) -0.028(3)
C16 0.074(3) 0.082(3) 0.053(3) 0.001(3) -0.002(2) -0.016(3)
C17 0.097(4) 0.124(4) 0.062(3) 0.013(3) 0.009(3) -0.040(4)
C18 0.103(5) 0.156(6) 0.067(3) 0.022(4) 0.009(3) -0.008(4)
C19 0.059(3) 0.108(4) 0.104(4) -0.019(3) 0.005(3) -0.001(3)
C20 0.058(3) 0.110(4) 0.101(4) -0.025(3) 0.011(3) -0.019(3)
C21 0.036(2) 0.093(4) 0.073(3) 0.011(3) -0.003(2) -0.018(2)
C22 0.052(3) 0.132(5) 0.079(4) 0.005(4) -0.005(2) -0.022(3)
C23 0.059(3) 0.149(6) 0.078(4) 0.025(4) -0.006(3) -0.022(4)
C24 0.050(3) 0.122(5) 0.128(6) 0.053(5) -0.012(3) -0.019(3)
C25 0.052(3) 0.089(4) 0.099(4) 0.016(3) -0.011(2) -0.006(3)
C26 0.039(2) 0.073(3) 0.073(3) 0.008(3) 0.0013(19) -0.010(2)
C27 0.045(2) 0.075(3) 0.077(3) 0.004(3) 0.008(2) -0.007(2)
C28 0.075(3) 0.079(3) 0.108(4) 0.027(3) 0.016(3) 0.006(3)

_geom_special_details            
; 
 All esds (except the esd in the dihedral angle between two l.s. planes) 
 are estimated using the full covariance matrix.  The cell esds are taken 
 into account individually in the estimation of esds in distances, angles 
 and torsion angles; correlations between esds in cell parameters are only 
 used when they are defined by crystal symmetry.  An approximate (isotropic) 
 treatment of cell esds is used for estimating esds involving l.s. planes. 
;

loop_
_geom_bond_atom_site_label_1
_geom_bond_atom_site_label_2
_geom_bond_distance
_geom_bond_site_symmetry_2
_geom_bond_publ_flag
Co1 O3 2.006(3) 8_465 ?
Co1 N4 2.052(4) . ?
Co1 N1 2.056(4) . ?
Co1 O1 2.078(4) . ?
Co1 O2 2.317(5) . ?
O1 C7 1.252(7) . ?
O2 C7 1.201(8) . ?
O3 C8 1.274(6) . ?
O3 Co1 2.006(3) 8_565 ?
O4 C8 1.239(5) . ?
O5 C5 1.371(6) . ?
N1 C10 1.328(5) . ?
N1 C11 1.377(6) . ?
N2 C10 1.334(6) . ?
N2 C16 1.376(6) . ?
N2 C17 1.483(6) . ?
N3 C27 1.360(6) . ?
N3 C21 1.368(6) . ?
N3 C20 1.473(6) . ?
N4 C27 1.340(6) . ?
N4 C26 1.399(6) . ?
C1 C2 1.382(6) . ?
C1 C6 1.385(7) . ?
C1 C7 1.527(7) . ?
C2 C3 1.385(6) . ?
C3 C4 1.378(6) . ?
C3 C8 1.503(6) . ?
C4 C5 1.362(6) . ?
C5 C6 1.387(6) . ?
C9 C10 1.500(7) . ?
C11 C12 1.387(6) . ?
C11 C16 1.397(6) . ?
C12 C13 1.385(7) . ?
C13 C14 1.379(7) . ?
C14 C15 1.366(8) . ?
C15 C16 1.419(7) . ?
C17 C18 1.550(7) . ?
C18 C18 1.435(10) 2_656 ?
C19 C20 1.521(6) . ?
C19 C19 1.541(11) 2_656 ?
C21 C22 1.370(7) . ?
C21 C26 1.405(7) . ?
C22 C23 1.358(9) . ?
C23 C24 1.362(9) . ?
C24 C25 1.397(8) . ?
C25 C26 1.384(7) . ?
C27 C28 1.457(7) . ?

loop_
_geom_angle_atom_site_label_1
_geom_angle_atom_site_label_2
_geom_angle_atom_site_label_3
_geom_angle
_geom_angle_site_symmetry_1
_geom_angle_site_symmetry_3
_geom_angle_publ_flag
O3 Co1 N4 101.47(14) 8_465 . ?
O3 Co1 N1 98.48(14) 8_465 . ?
N4 Co1 N1 101.05(15) . . ?
O3 Co1 O1 96.92(16) 8_465 . ?
N4 Co1 O1 103.47(17) . . ?
N1 Co1 O1 147.70(19) . . ?
O3 Co1 O2 152.95(18) 8_465 . ?
N4 Co1 O2 93.99(18) . . ?
N1 Co1 O2 100.18(15) . . ?
O1 Co1 O2 57.59(18) . . ?
C7 O1 Co1 95.8(4) . . ?
C7 O2 Co1 85.9(4) . . ?
C8 O3 Co1 104.3(3) . 8_565 ?
C10 N1 C11 105.5(4) . . ?
C10 N1 Co1 126.7(3) . . ?
C11 N1 Co1 127.6(3) . . ?
C10 N2 C16 108.0(4) . . ?
C10 N2 C17 126.9(5) . . ?
C16 N2 C17 125.1(5) . . ?
C27 N3 C21 109.5(4) . . ?
C27 N3 C20 126.1(5) . . ?
C21 N3 C20 124.4(5) . . ?
C27 N4 C26 106.4(4) . . ?
C27 N4 Co1 124.1(3) . . ?
C26 N4 Co1 128.9(3) . . ?
C2 C1 C6 120.8(4) . . ?
C2 C1 C7 120.4(5) . . ?
C6 C1 C7 118.8(5) . . ?
C1 C2 C3 119.4(5) . . ?
C4 C3 C2 119.5(4) . . ?
C4 C3 C8 119.4(4) . . ?
C2 C3 C8 121.0(4) . . ?
C5 C4 C3 121.1(4) . . ?
C4 C5 O5 122.4(4) . . ?
C4 C5 C6 120.2(5) . . ?
O5 C5 C6 117.5(4) . . ?
C1 C6 C5 118.9(4) . . ?
O2 C7 O1 120.3(5) . . ?
O2 C7 C1 123.9(6) . . ?
O1 C7 C1 115.8(7) . . ?
O4 C8 O3 122.6(4) . . ?
O4 C8 C3 119.8(5) . . ?
O3 C8 C3 117.5(4) . . ?
N1 C10 N2 112.2(4) . . ?
N1 C10 C9 123.3(5) . . ?
N2 C10 C9 124.5(4) . . ?
N1 C11 C12 131.7(4) . . ?
N1 C11 C16 109.2(4) . . ?
C12 C11 C16 119.1(4) . . ?
C13 C12 C11 118.8(5) . . ?
C14 C13 C12 121.8(5) . . ?
C15 C14 C13 121.2(5) . . ?
C14 C15 C16 117.5(5) . . ?
N2 C16 C11 105.1(4) . . ?
N2 C16 C15 133.3(5) . . ?
C11 C16 C15 121.6(5) . . ?
N2 C17 C18 110.3(4) . . ?
C18 C18 C17 112.9(7) 2_656 . ?
C20 C19 C19 110.9(6) . 2_656 ?
N3 C20 C19 113.6(4) . . ?
N3 C21 C22 133.1(6) . . ?
N3 C21 C26 105.3(4) . . ?
C22 C21 C26 121.6(5) . . ?
C23 C22 C21 117.3(6) . . ?
C22 C23 C24 122.6(6) . . ?
C23 C24 C25 121.6(6) . . ?
C26 C25 C24 116.5(6) . . ?
C25 C26 N4 130.7(5) . . ?
C25 C26 C21 120.5(5) . . ?
N4 C26 C21 108.7(4) . . ?
N4 C27 N3 110.2(4) . . ?
N4 C27 C28 124.4(5) . . ?
N3 C27 C28 125.4(5) . . ?

_diffrn_measured_fraction_theta_max 0.998
_diffrn_reflns_theta_full        26.02
_diffrn_measured_fraction_theta_full 0.998
_refine_diff_density_max         0.540
_refine_diff_density_min         -0.362
_refine_diff_density_rms         0.075
