####################################################################### 
# 
# This file contains crystal structure data downloaded from the 
# Cambridge Structural Database (CSD) hosted by the Cambridge 
# Crystallographic Data Centre (CCDC).
# 
# Full information about CCDC data access policies and citation 
# guidelines are available at http://www.ccdc.cam.ac.uk/access/V1 
# 
# Audit and citation data items may have been added by the CCDC. 
# Please retain this information to preserve the provenance of 
# this file and to allow appropriate attribution of the data. 
# 
#######################################################################

data_RuCo-2
_audit_block_doi                 10.5517/cc13jrq3
_database_code_depnum_ccdc_archive 'CCDC 1029005'
loop_
_citation_id
_citation_doi
_citation_year
1 10.1039/C4CE02064B 2015
_audit_update_record             
;
2014-10-13 deposited with the CCDC.	2024-07-13 downloaded from the CCDC.
;

_audit_creation_method           SHELXL-2014
_chemical_name_systematic        
;
 ?
;
_chemical_name_common            ?
_chemical_melting_point          ?
_chemical_formula_moiety         ?
_chemical_formula_sum            'C180 H196 Co3 N18 O124 Ru24'
_chemical_formula_weight         7198.01

loop_
_atom_type_symbol
_atom_type_description
_atom_type_scat_dispersion_real
_atom_type_scat_dispersion_imag
_atom_type_scat_source
C C 0.0002 0.0006 'International Tables Vol C Tables 4.2.6.8 and 6.1.1.4'
H H 0.0000 0.0000 'International Tables Vol C Tables 4.2.6.8 and 6.1.1.4'
Co Co 0.2392 0.4095 'International Tables Vol C Tables 4.2.6.8 and 6.1.1.4'
N N 0.0010 0.0012 'International Tables Vol C Tables 4.2.6.8 and 6.1.1.4'
O O 0.0025 0.0022 'International Tables Vol C Tables 4.2.6.8 and 6.1.1.4'
Ru Ru -0.4226 2.4940 'International Tables Vol C Tables 4.2.6.8 and 6.1.1.4'

_space_group_crystal_system      monoclinic
_space_group_IT_number           12
_space_group_name_H-M_alt        'C 2/m'
_space_group_name_Hall           '-C 2y'

_shelx_space_group_comment       
;
The symmetry employed for this shelxl refinement is uniquely defined
by the following loop, which should always be used as a source of
symmetry information in preference to the above space-group names.
They are only intended as comments.
;

loop_
_space_group_symop_operation_xyz
'x, y, z'
'-x, y, -z'
'x+1/2, y+1/2, z'
'-x+1/2, y+1/2, -z'
'-x, -y, -z'
'x, -y, z'
'-x+1/2, -y+1/2, -z'
'x+1/2, -y+1/2, z'

_cell_length_a                   55.289(13)
_cell_length_b                   28.916(5)
_cell_length_c                   17.468(3)
_cell_angle_alpha                90
_cell_angle_beta                 95.920(5)
_cell_angle_gamma                90
_cell_volume                     27778(9)
_cell_formula_units_Z            2
_cell_measurement_temperature    100(2)
_cell_measurement_reflns_used    ?
_cell_measurement_theta_min      ?
_cell_measurement_theta_max      ?

_exptl_crystal_description       octahedral
_exptl_crystal_colour            'dark green'
_exptl_crystal_density_meas      'not measured'
_exptl_crystal_density_method    'not measured'
_exptl_crystal_density_diffrn    0.861
_exptl_crystal_F_000             7062
_exptl_transmission_factor_min   ?
_exptl_transmission_factor_max   ?
_exptl_crystal_size_max          0.060
_exptl_crystal_size_mid          0.050
_exptl_crystal_size_min          0.040
_exptl_absorpt_coefficient_mu    1.128
_shelx_estimated_absorpt_T_min   0.935
_shelx_estimated_absorpt_T_max   0.956
_exptl_absorpt_correction_type   multi-scan
_exptl_absorpt_correction_T_min  0.5970
_exptl_absorpt_correction_T_max  0.7436
_exptl_absorpt_process_details   sadabs

_exptl_special_details           
;
 ?
;

_diffrn_ambient_temperature      100(2)
_diffrn_radiation_wavelength     0.44487
_diffrn_radiation_type           ?
_diffrn_source                   ?
_diffrn_measurement_device_type  ?
_diffrn_measurement_method       ?
_diffrn_detector_area_resol_mean ?
_diffrn_reflns_number            83400
_diffrn_reflns_av_unetI/netI     0.0735
_diffrn_reflns_av_R_equivalents  0.1075
_diffrn_reflns_limit_h_min       -50
_diffrn_reflns_limit_h_max       50
_diffrn_reflns_limit_k_min       -25
_diffrn_reflns_limit_k_max       26
_diffrn_reflns_limit_l_min       -14
_diffrn_reflns_limit_l_max       15
_diffrn_reflns_theta_min         0.867
_diffrn_reflns_theta_max         11.688
_diffrn_reflns_theta_full        15.481
_diffrn_measured_fraction_theta_max 0.979
_diffrn_measured_fraction_theta_full 0.431
_diffrn_reflns_Laue_measured_fraction_max 0.979
_diffrn_reflns_Laue_measured_fraction_full 0.431
_diffrn_reflns_point_group_measured_fraction_max 0.979
_diffrn_reflns_point_group_measured_fraction_full 0.431
_reflns_number_total             11069
_reflns_number_gt                6545
_reflns_threshold_expression     'I > 2\s(I)'
_reflns_Friedel_coverage         0.000
_reflns_Friedel_fraction_max     .
_reflns_Friedel_fraction_full    .

_reflns_special_details          
;
 Reflections were merged by SHELXL according to the crystal
 class for the calculation of statistics and refinement.
 
 _reflns_Friedel_fraction is defined as the number of unique
 Friedel pairs measured divided by the number that would be
 possible theoretically, ignoring centric projections and
 systematic absences.
;

_computing_data_collection       ?
_computing_cell_refinement       ?
_computing_data_reduction        ?
_computing_structure_solution    ?
_computing_structure_refinement  'SHELXL-2014 (Sheldrick, 2014)'
_computing_molecular_graphics    ?
_computing_publication_material  ?

_refine_special_details          SQUEEZE
_refine_ls_structure_factor_coef Fsqd
_refine_ls_matrix_type           full
_refine_ls_weighting_scheme      calc
_refine_ls_weighting_details     
'w=1/[\s^2^(Fo^2^)+(0.2000P)^2^] where P=(Fo^2^+2Fc^2^)/3'
_atom_sites_solution_primary     ?
_atom_sites_solution_secondary   ?
_atom_sites_solution_hydrogens   difmap
_refine_ls_hydrogen_treatment    constr
_refine_ls_extinction_method     SHELXL
_refine_ls_extinction_coef       0.00098(17)
_refine_ls_extinction_expression Fc^*^=kFc[1+0.001xFc^2^\l^3^/sin(2\q)]^-1/4^
_refine_ls_number_reflns         11069
_refine_ls_number_parameters     551
_refine_ls_number_restraints     127
_refine_ls_R_factor_all          0.1627
_refine_ls_R_factor_gt           0.1287
_refine_ls_wR_factor_ref         0.3774
_refine_ls_wR_factor_gt          0.3530
_refine_ls_goodness_of_fit_ref   1.343
_refine_ls_restrained_S_all      2.028
_refine_ls_shift/su_max          0.000
_refine_ls_shift/su_mean         0.000

loop_
_platon_squeeze_void_nr
_platon_squeeze_void_average_x
_platon_squeeze_void_average_y
_platon_squeeze_void_average_z
_platon_squeeze_void_volume
_platon_squeeze_void_count_electrons
_platon_squeeze_void_content
1 -0.003 -0.015 -0.001 18324 9823 ' '
_platon_squeeze_details          ?

loop_
_atom_site_label
_atom_site_type_symbol
_atom_site_fract_x
_atom_site_fract_y
_atom_site_fract_z
_atom_site_U_iso_or_equiv
_atom_site_adp_type
_atom_site_occupancy
_atom_site_site_symmetry_order
_atom_site_calc_flag
_atom_site_refinement_flags_posn
_atom_site_refinement_flags_adp
_atom_site_refinement_flags_occupancy
_atom_site_disorder_assembly
_atom_site_disorder_group
Ru1 Ru 0.36211(4) 0.18957(6) 0.54234(11) 0.1155(9) Uani 1 1 d D . . . .
Ru2 Ru 0.39095(3) 0.26634(6) 0.44528(10) 0.1054(8) Uani 1 1 d . . . . .
Ru3 Ru 0.35929(4) 0.18358(6) 0.35080(11) 0.1176(9) Uani 1 1 d . . . . .
Ru4 Ru 0.33753(7) 0.0000 0.9347(2) 0.1673(15) Uani 1 2 d S T P . .
Ru5 Ru 0.28242(5) 0.06119(9) 0.91474(13) 0.1652(11) Uani 1 1 d . . . . .
Ru6 Ru 0.18696(4) 0.0000 0.47540(13) 0.0920(9) Uani 1 2 d S T P . .
Ru7 Ru 0.18535(4) 0.0000 0.28518(14) 0.0997(9) Uani 1 2 d S T P . .
Ru8 Ru 0.13415(4) 0.0000 0.36743(12) 0.0865(8) Uani 1 2 d S T P . .
Co1 Co 0.0000 0.0000 0.5000 0.0790(16) Uani 1 4 d S T P . .
Co2 Co -0.02515(8) 0.0000 0.2989(3) 0.1176(15) Uani 1 2 d S T P . .
O1 O 0.4739(2) 0.4489(4) 0.4793(9) 0.125(5) Uani 1 1 d D . . . .
O2 O 0.4651(3) 0.4453(7) 0.3470(13) 0.208(8) Uani 1 1 d D U . . .
O3 O 0.3053(3) 0.0891(4) 0.8443(7) 0.105(4) Uani 1 1 d D . . . .
O4 O 0.3387(3) 0.0512(5) 0.8493(7) 0.121(5) Uani 1 1 d D . . . .
O5 O 0.3031(2) 0.0860(5) 1.0087(7) 0.110(4) Uani 1 1 d D . . . .
O6 O 0.3384(3) 0.0481(6) 1.0210(8) 0.148(6) Uani 1 1 d D . . . .
O7 O 0.0074(3) 0.0000 0.3851(10) 0.136(8) Uani 1 2 d DS T P . .
O8 O 0.0103(4) 0.0000 0.2603(12) 0.215(16) Uani 1 2 d DS T P . .
O9 O 0.2575(3) 0.0395(5) 0.9851(8) 0.136(5) Uani 1 1 d D . . . .
O10 O 0.2593(2) 0.0375(4) 0.8238(7) 0.107(4) Uani 1 1 d . . . . .
O11 O 0.3487(3) 0.2546(5) 0.5768(10) 0.157(7) Uani 1 1 d D . . . .
O12 O 0.3740(3) 0.3001(4) 0.5285(8) 0.134(6) Uani 1 1 d D . . . .
O13 O 0.3936(3) 0.1995(6) 0.6018(11) 0.170(8) Uani 1 1 d . . . . .
O14 O 0.4166(3) 0.2393(5) 0.5258(11) 0.142(6) Uani 1 1 d . . . . .
O15 O 0.4114(3) 0.2426(5) 0.3659(10) 0.143(6) Uani 1 1 d D . . . .
O16 O 0.3935(4) 0.1788(6) 0.3207(11) 0.189(8) Uani 1 1 d D . . . .
O17 O 0.3673(3) 0.2981(5) 0.3644(9) 0.126(5) Uani 1 1 d D . . . .
O18 O 0.3512(4) 0.2428(6) 0.2933(9) 0.170(7) Uani 1 1 d D . . . .
O19 O 0.3280(4) 0.1758(7) 0.5026(10) 0.176(8) Uani 1 1 d D . . . .
O20 O 0.3218(4) 0.1824(6) 0.3832(14) 0.233(12) Uani 1 1 d D . . . .
O21 O 0.3750(4) 0.1242(5) 0.5173(10) 0.215(10) Uani 1 1 d D . . . .
O22 O 0.3668(4) 0.1196(7) 0.3891(12) 0.249(13) Uani 1 1 d D . . . .
O23 O 0.2105(3) 0.0515(6) 0.4444(12) 0.176(7) Uani 1 1 d . . . . .
O24 O 0.2076(3) 0.0501(6) 0.3187(10) 0.160(7) Uani 1 1 d . . . . .
O25 O 0.1660(3) -0.0504(5) 0.5184(6) 0.111(4) Uani 1 1 d D . . . .
O26 O 0.1313(2) -0.0516(4) 0.4479(9) 0.114(5) Uani 1 1 d D . . . .
O27 O 0.1310(2) -0.0505(6) 0.2857(8) 0.138(6) Uani 1 1 d D . . . .
O28 O 0.1643(3) -0.0507(5) 0.2310(8) 0.134(5) Uani 1 1 d D . . . .
O29 O 0.3702(3) 0.2137(4) 0.4511(8) 0.125(5) Uani 1 1 d . . . . .
O30 O 0.1707(3) 0.0000 0.3826(10) 0.101(6) Uani 1 2 d S T P . .
O31 O 0.30057(19) 0.0000 0.9203(7) 0.038(3) Uani 1 2 d S T P . .
O32 O -0.0501(5) 0.0000 0.2058(17) 0.201(11) Uani 1 2 d S TU P . .
O33 O 0.3772(4) 0.0000 0.9608(16) 0.165(9) Uani 1 2 d S T P . .
O34 O 0.2641(3) 0.1248(4) 0.9081(10) 0.146(6) Uani 1 1 d . . . . .
N1 N 0.4128(2) 0.3258(4) 0.4423(9) 0.110(6) Uani 1 1 d D . . . .
N2 N 0.3510(4) 0.1611(5) 0.6478(8) 0.131(7) Uani 1 1 d D . . . .
N3 N 0.3477(4) 0.1498(6) 1.2453(9) 0.170(9) Uani 1 1 d D . . . .
N4 N 0.0951(3) 0.0000 0.3555(14) 0.128(9) Uani 1 2 d DS T P . .
N5 N 0.2054(4) 0.0000 1.1869(12) 0.141(11) Uani 1 2 d DS T P . .
N6 N 0.2061(3) 0.0000 0.5794(9) 0.122(8) Uani 1 2 d DS T P . .
C1 C 0.4167(3) 0.3424(5) 0.3702(9) 0.1422(16) Uani 1 1 d D . . . .
H1 H 0.4079 0.3300 0.3252 0.171 Uiso 1 1 d R U . . .
C2 C 0.4335(3) 0.3780(5) 0.3644(9) 0.1422(16) Uani 1 1 d D . . . .
H2 H 0.4363 0.3899 0.3155 0.171 Uiso 1 1 d R U . . .
C3 C 0.4459(2) 0.3961(4) 0.4309(11) 0.1422(16) Uani 1 1 d D . . . .
C4 C 0.4418(3) 0.3794(5) 0.5021(9) 0.1422(16) Uani 1 1 d D . . . .
H4 H 0.4508 0.3914 0.5471 0.171 Uiso 1 1 d R U . . .
C5 C 0.4249(3) 0.3439(6) 0.5089(9) 0.1422(16) Uani 1 1 d D . . . .
H5 H 0.4216 0.3324 0.5578 0.171 Uiso 1 1 d R U . . .
C6 C 0.4632(4) 0.4342(7) 0.4165(13) 0.1422(16) Uani 1 1 d D . . . .
C7 C 0.3657(4) 0.1272(7) 0.6805(11) 0.1422(16) Uani 1 1 d D . . . .
H7 H 0.3808 0.1209 0.6619 0.171 Uiso 1 1 d R U . . .
C8 C 0.3579(4) 0.1014(7) 0.7423(11) 0.1422(16) Uani 1 1 d D . . . .
H8 H 0.3674 0.0773 0.7671 0.171 Uiso 1 1 d R U . . .
C9 C 0.3360(4) 0.1118(7) 0.7668(13) 0.1422(16) Uani 1 1 d D . . . .
C10 C 0.3217(4) 0.1476(7) 0.7285(12) 0.1422(16) Uani 1 1 d D . . . .
H10 H 0.3063 0.1534 0.7461 0.171 Uiso 1 1 d R U . . .
C11 C 0.3286(4) 0.1743(8) 0.6680(12) 0.1422(16) Uani 1 1 d D . . . .
H11 H 0.3192 0.1986 0.6429 0.171 Uiso 1 1 d R U . . .
C12 C 0.3258(4) 0.0832(9) 0.8262(16) 0.1422(16) Uani 1 1 d D . . . .
C13 C 0.3264(4) 0.1618(6) 1.2055(11) 0.1422(16) Uani 1 1 d D . . . .
H13 H 0.3170 0.1867 1.2223 0.171 Uiso 1 1 d R U . . .
C14 C 0.3180(3) 0.1386(7) 1.1395(11) 0.1422(16) Uani 1 1 d D . . . .
H14 H 0.3034 0.1470 1.1094 0.171 Uiso 1 1 d R U . . .
C15 C 0.3318(4) 0.1023(7) 1.1142(9) 0.1422(16) Uani 1 1 d D . . . .
C16 C 0.3539(4) 0.0904(6) 1.1556(11) 0.1422(16) Uani 1 1 d D . . . .
H16 H 0.3636 0.0659 1.1391 0.171 Uiso 1 1 d R U . . .
C17 C 0.3617(3) 0.1142(7) 1.2214(11) 0.1422(16) Uani 1 1 d D . . . .
H17 H 0.3763 0.1063 1.2520 0.171 Uiso 1 1 d R U . . .
C18 C 0.3228(4) 0.0751(8) 1.0414(13) 0.1422(16) Uani 1 1 d D . . . .
C19 C 0.0830(5) 0.0000 0.2818(13) 0.1422(16) Uani 1 2 d DS T P . .
H19 H 0.0916 0.0000 0.2374 0.171 Uiso 1 2 d R U P . .
C20 C 0.0575(5) 0.0000 0.2756(13) 0.1422(16) Uani 1 2 d DS T P . .
H20 H 0.0484 0.0000 0.2265 0.171 Uiso 1 2 d R U P . .
C21 C 0.0457(4) 0.0000 0.3416(16) 0.1422(16) Uani 1 2 d DS T P . .
C22 C 0.0577(5) 0.0000 0.4137(14) 0.1422(16) Uani 1 2 d DS T P . .
H22 H 0.0491 0.0000 0.4579 0.171 Uiso 1 2 d R U P . .
C23 C 0.0833(5) 0.0000 0.4210(13) 0.1422(16) Uani 1 2 d DS T P . .
H23 H 0.0923 0.0000 0.4703 0.171 Uiso 1 2 d R U P . .
C24 C 0.0179(4) 0.0000 0.3278(14) 0.1422(16) Uani 1 2 d DS T P . .
C25 C 0.2116(4) 0.0415(3) 1.1555(12) 0.1422(16) Uani 1 1 d D . . . .
H25 H 0.2067 0.0699 1.1769 0.171 Uiso 1 1 d R U . . .
C26 C 0.2265(4) 0.0421(4) 1.0950(11) 0.1422(16) Uani 1 1 d D . . . .
H26 H 0.2318 0.0705 1.0754 0.171 Uiso 1 1 d R U . . .
C27 C 0.2325(6) 0.0000 1.0623(15) 0.1422(16) Uani 1 2 d DS T P . .
C28 C 0.2531(6) 0.0000 1.0078(19) 0.1422(16) Uani 1 2 d DS T P . .
C29 C 0.2135(3) 0.0415(3) 0.6137(10) 0.1422(16) Uani 1 1 d D . . . .
H29 H 0.2082 0.0698 0.5901 0.171 Uiso 1 1 d R U . . .
C30 C 0.2285(3) 0.0416(3) 0.6832(10) 0.1422(16) Uani 1 1 d D . . . .
H30 H 0.2336 0.0702 0.7064 0.171 Uiso 1 1 d R U . . .
C31 C 0.2362(4) 0.0000 0.7184(11) 0.1422(16) Uani 1 2 d DS T P . .
C32 C 0.2514(7) 0.0000 0.7997(16) 0.1422(16) Uani 1 2 d DS T P . .
C33 C 0.3588(4) 0.2911(8) 0.5692(15) 0.1422(16) Uani 1 1 d D . . . .
C34 C 0.3487(4) 0.3303(8) 0.6137(13) 0.1422(16) Uani 1 1 d D . . . .
H34A H 0.3489 0.3211 0.6677 0.213 Uiso 1 1 d R U . . .
H34B H 0.3319 0.3362 0.5921 0.213 Uiso 1 1 d R U . . .
H34C H 0.3583 0.3585 0.6102 0.213 Uiso 1 1 d R U . . .
C35 C 0.4122(6) 0.2152(11) 0.5844(17) 0.1422(16) Uani 1 1 d . . . . .
C36 C 0.4363(4) 0.2155(8) 0.6391(13) 0.1422(16) Uani 1 1 d . . . . .
H36A H 0.4499 0.2300 0.6165 0.213 Uiso 1 1 d R U . . .
H36B H 0.4400 0.1828 0.6498 0.213 Uiso 1 1 d R U . . .
H36C H 0.4336 0.2313 0.6871 0.213 Uiso 1 1 d R U . . .
C37 C 0.4112(4) 0.2056(8) 0.3326(14) 0.1422(16) Uani 1 1 d D . . . .
C38 C 0.4316(4) 0.2013(8) 0.2789(13) 0.1422(16) Uani 1 1 d D . . . .
H38A H 0.4257 0.2088 0.2256 0.213 Uiso 1 1 d R U . . .
H38B H 0.4376 0.1694 0.2817 0.213 Uiso 1 1 d R U . . .
H38C H 0.4448 0.2224 0.2969 0.213 Uiso 1 1 d R U . . .
C39 C 0.3547(5) 0.2843(8) 0.3061(13) 0.1422(16) Uani 1 1 d D . . . .
C40 C 0.3453(4) 0.3173(8) 0.2400(12) 0.1422(16) Uani 1 1 d D . . . .
H40A H 0.3388 0.2972 0.1975 0.213 Uiso 1 1 d R U . . .
H40B H 0.3579 0.3374 0.2227 0.213 Uiso 1 1 d R U . . .
H40C H 0.3321 0.3363 0.2565 0.213 Uiso 1 1 d R U . . .
C41 C 0.3137(5) 0.1818(11) 0.4465(15) 0.1422(16) Uani 1 1 d D . . . .
C42 C 0.2866(4) 0.1716(8) 0.4345(13) 0.1422(16) Uani 1 1 d . . . . .
H42A H 0.2770 0.1978 0.4123 0.213 Uiso 1 1 d R U . . .
H42B H 0.2815 0.1643 0.4852 0.213 Uiso 1 1 d R U . . .
H42C H 0.2838 0.1446 0.4007 0.213 Uiso 1 1 d R U . . .
C43 C 0.3735(3) 0.1074(8) 0.4527(13) 0.1422(16) Uani 1 1 d D . . . .
C44 C 0.3829(4) 0.0575(8) 0.4575(13) 0.1422(16) Uani 1 1 d D . . . .
H44A H 0.3736 0.0384 0.4903 0.213 Uiso 1 1 d R U . . .
H44B H 0.4000 0.0582 0.4792 0.213 Uiso 1 1 d R U . . .
H44C H 0.3818 0.0443 0.4056 0.213 Uiso 1 1 d R U . . .
C45 C 0.2157(5) 0.0728(10) 0.3802(19) 0.1422(16) Uani 1 1 d . . . . .
C46 C 0.2330(4) 0.1091(8) 0.3951(13) 0.1422(16) Uani 1 1 d . . . . .
H46A H 0.2482 0.0986 0.3766 0.213 Uiso 1 1 d R U . . .
H46B H 0.2357 0.1157 0.4504 0.213 Uiso 1 1 d R U . . .
H46C H 0.2273 0.1372 0.3674 0.213 Uiso 1 1 d R U . . .
C47 C 0.1444(4) -0.0663(8) 0.2427(14) 0.1422(16) Uani 1 1 d D . . . .
C48 C 0.1350(4) -0.1084(7) 0.1943(12) 0.1422(16) Uani 1 1 d D . . . .
H48A H 0.1492 -0.1277 0.1869 0.213 Uiso 1 1 d R U . . .
H48B H 0.1269 -0.0992 0.1440 0.213 Uiso 1 1 d R U . . .
H48C H 0.1236 -0.1259 0.2225 0.213 Uiso 1 1 d R U . . .
C49 C 0.1444(4) -0.0607(10) 0.5046(13) 0.1422(16) Uani 1 1 d D . . . .
C50 C 0.1342(4) -0.0939(8) 0.5624(12) 0.1422(16) Uani 1 1 d D . . . .
H50A H 0.1167 -0.0885 0.5617 0.213 Uiso 1 1 d R U . . .
H50B H 0.1422 -0.0879 0.6141 0.213 Uiso 1 1 d R U . . .
H50C H 0.1370 -0.1261 0.5482 0.213 Uiso 1 1 d R U . . .

loop_
_atom_site_aniso_label
_atom_site_aniso_U_11
_atom_site_aniso_U_22
_atom_site_aniso_U_33
_atom_site_aniso_U_23
_atom_site_aniso_U_13
_atom_site_aniso_U_12
Ru1 0.160(2) 0.0856(13) 0.1064(15) 0.0027(11) 0.0408(13) -0.0398(11)
Ru2 0.1438(17) 0.0807(13) 0.0964(14) -0.0115(10) 0.0344(12) -0.0417(11)
Ru3 0.1508(18) 0.1000(15) 0.1050(15) -0.0358(11) 0.0275(12) -0.0443(12)
Ru4 0.230(4) 0.141(3) 0.139(3) 0.000 0.058(3) 0.000
Ru5 0.215(3) 0.150(2) 0.139(2) -0.0034(16) 0.0608(18) -0.0036(17)
Ru6 0.0882(17) 0.1013(18) 0.0895(18) 0.000 0.0231(13) 0.000
Ru7 0.1019(18) 0.112(2) 0.0933(18) 0.000 0.0492(14) 0.000
Ru8 0.0853(16) 0.0965(17) 0.0844(16) 0.000 0.0417(12) 0.000
Co1 0.066(3) 0.053(3) 0.122(4) 0.000 0.030(3) 0.000
Co2 0.113(3) 0.115(3) 0.128(4) 0.000 0.029(3) 0.000
O1 0.159(12) 0.067(9) 0.164(13) -0.040(9) 0.085(10) -0.042(8)
O2 0.211(9) 0.205(9) 0.206(9) -0.002(5) 0.014(5) -0.010(5)
O3 0.147(11) 0.100(9) 0.078(9) 0.013(7) 0.056(8) -0.016(9)
O4 0.154(12) 0.121(11) 0.100(10) 0.026(9) 0.073(9) -0.009(9)
O5 0.119(10) 0.114(10) 0.098(10) -0.044(8) 0.011(8) 0.004(9)
O6 0.161(14) 0.175(15) 0.099(11) -0.076(11) -0.021(10) -0.016(11)
O7 0.104(14) 0.25(3) 0.061(12) 0.000 0.021(10) 0.000
O8 0.092(16) 0.46(5) 0.088(16) 0.000 -0.008(13) 0.000
O9 0.159(13) 0.121(11) 0.143(13) -0.032(10) 0.095(10) -0.016(10)
O10 0.106(10) 0.102(10) 0.110(10) 0.007(8) -0.010(8) 0.019(8)
O11 0.248(18) 0.075(10) 0.170(15) -0.051(10) 0.129(14) -0.018(11)
O12 0.235(16) 0.072(9) 0.111(11) -0.024(8) 0.094(11) -0.053(10)
O13 0.145(14) 0.131(14) 0.24(2) 0.100(14) 0.047(14) -0.005(11)
O14 0.141(13) 0.097(11) 0.189(16) 0.018(11) 0.021(12) -0.056(9)
O15 0.175(14) 0.084(10) 0.176(15) -0.052(10) 0.039(12) -0.064(9)
O16 0.24(2) 0.158(16) 0.186(18) -0.077(14) 0.089(15) -0.042(14)
O17 0.166(13) 0.097(10) 0.119(12) -0.039(9) 0.041(10) -0.003(9)
O18 0.25(2) 0.142(15) 0.113(13) 0.004(11) -0.027(12) -0.047(14)
O19 0.222(19) 0.202(19) 0.100(12) 0.067(12) -0.006(12) -0.070(15)
O20 0.21(2) 0.124(14) 0.34(3) -0.108(19) -0.09(2) -0.060(14)
O21 0.40(3) 0.148(16) 0.127(14) 0.064(13) 0.145(17) 0.012(17)
O22 0.36(3) 0.19(2) 0.167(18) -0.059(16) -0.12(2) 0.08(2)
O23 0.159(15) 0.161(16) 0.199(19) 0.007(1