
#######################################################################
#
#                 Cambridge Crystallographic Data Centre
#                                CCDC
#
#######################################################################
#
# If this CIF has been generated from an entry in the Cambridge
# Structural Database, then it will include bibliographic, chemical,
# crystal, experimental, refinement or atomic coordinate data resulting
# from the CCDC's data processing and validation procedures.
#
#######################################################################

data_CSD_CIF_TPASTB
_audit_creation_date 1976-07-14
_audit_creation_method CSD-ConQuest-V1
_database_code_CSD TPASTB
_database_code_depnum_ccdc_archive 'CCDC 1275085'
_chemical_formula_sum 'C24 H20 As1 Br3'
_chemical_formula_moiety
;
C24 H20 As1 1+,Br3 1-
;
_journal_coden_Cambridge 189
_journal_volume 5
_journal_year 1976
_journal_page_first 39
_journal_name_full 'Cryst.Struct.Commun. '
loop_
_publ_author_name
"J.Ollis"
"V.J.James"
"D.Ollis"
"M.P.Bogaard"
_chemical_name_systematic
;
Tetraphenylarsonium tribromide
;
_chemical_name_common
;
Teaching Subset: Fundamental Chemistry
;
_cell_volume   2359.811
_exptl_crystal_density_diffrn 1.75
_exptl_special_details
;
P21/c polymorph

;
_diffrn_ambient_temperature ?
_diffrn_special_details
;
The study was carried out at room temperature,in the range 283-303K

;
#These two values have been output from a single CSD field.
_refine_ls_R_factor_gt 0.037
_refine_ls_wR_factor_gt 0.037
_symmetry_cell_setting monoclinic
_symmetry_space_group_name_H-M 'P 21/c'
_symmetry_Int_Tables_number 14
loop_
_symmetry_equiv_pos_site_id
_symmetry_equiv_pos_as_xyz
1 x,y,z
2 -x,1/2+y,1/2-z
3 -x,-y,-z
4 x,-1/2-y,-1/2+z
_cell_length_a 10.580(3)
_cell_length_b 8.095(3)
_cell_length_c 27.558(9)
_cell_angle_alpha 90
_cell_angle_beta 91.05(5)
_cell_angle_gamma 90
_cell_formula_units_Z 4
loop_
_atom_type_symbol
_atom_type_radius_bond
C 0.68
H 0.23
As 1.21
Br 1.21
loop_
_atom_site_label
_atom_site_type_symbol
_atom_site_fract_x
_atom_site_fract_y
_atom_site_fract_z
As1 As -0.24015 0.44322 0.11989
C1 C -0.27110 0.30300 0.17400
C2 C -0.56300 0.81970 0.09000
C3 C -0.52570 0.78700 0.13670
C4 C -0.43260 0.66930 0.14630
C5 C -0.20950 0.30210 0.06540
C6 C -0.13680 0.35700 0.02740
C7 C -0.11150 0.24940 -0.01030
C8 C -0.15780 0.09200 -0.01000
C9 C -0.23080 0.03970 0.02710
C10 C -0.25560 0.14370 0.06560
C11 C -0.09410 0.57870 0.13000
C12 C -0.39610 0.26090 0.18420
C13 C 0.02580 0.51070 0.12720
C14 C 0.13030 0.61020 0.13490
C15 C 0.11690 0.77460 0.14570
C16 C -0.00190 0.84150 0.14900
C17 C -0.10930 0.74530 0.14090
C18 C -0.41710 0.14610 0.22080
C19 C -0.31810 0.07540 0.24580
C20 C -0.19510 0.11800 0.23520
C21 C -0.17060 0.23420 0.19920
C22 C -0.38000 0.58650 0.10770
C23 C -0.41930 0.61570 0.06040
C24 C -0.51090 0.73580 0.05240
H1 H -0.46200 0.31700 0.15600
H2 H -0.38700 0.65000 0.18100
H3 H -0.11200 0.48300 0.02500
H4 H -0.03700 0.28300 -0.03800
H5 H -0.13700 0.04200 -0.04400
H6 H -0.26200 -0.06600 0.02500
H7 H -0.33700 0.08300 0.08100
H8 H 0.03800 0.38300 0.11900
H9 H 0.21300 0.55000 0.13100
H10 H 0.18800 0.85000 0.15600
H11 H -0.01200 0.98300 0.15000
H12 H -0.50000 0.10000 0.22800
H13 H -0.20000 0.78300 0.15000
H14 H -0.35000 -0.01700 0.27500
H15 H -0.10600 0.05800 0.25600
H16 H -0.07500 0.28300 0.19700
H17 H -0.36200 0.53300 0.03800
H18 H -0.53700 0.75000 0.02200
H19 H -0.63700 0.90000 0.08400
H20 H -0.55600 0.85000 0.16900
Br1 Br 0.19358 0.12790 0.23587
Br2 Br 0.26368 0.20068 0.15164
Br3 Br 0.33360 0.28407 0.06724
#END
