
#######################################################################
#
#                 Cambridge Crystallographic Data Centre
#                                CCDC
#
#######################################################################
#
# If this CIF has been generated from an entry in the Cambridge
# Structural Database, then it will include bibliographic, chemical,
# crystal, experimental, refinement or atomic coordinate data resulting
# from the CCDC's data processing and validation procedures.
#
#######################################################################

data_CSD_CIF_TPCPCQ
_audit_creation_date 1979-11-16
_audit_creation_method CSD-ConQuest-V1
_database_code_CSD TPCPCQ
_database_code_depnum_ccdc_archive 'CCDC 1275166'
_chemical_formula_sum 'C24 H15 Co1 O3'
_chemical_formula_moiety
;
C24 H15 Co1 O3
;
_journal_coden_Cambridge 9
_journal_volume 18
_journal_year 1979
_journal_page_first 1687
_journal_name_full 'Inorg.Chem. '
loop_
_publ_author_name
"T.Chiang"
"R.C.Kerber"
"S.D.Kimball"
"J.W.Lauher"
_chemical_name_systematic
;
(\h^3^-Triphenyl-cyclopropenyl)-tricarbonyl-cobalt
;
_chemical_name_common
;
Teaching Subset: Fundamental Chemistry
;
_cell_volume   1944.770
_exptl_crystal_colour 'yellow'
_exptl_crystal_density_diffrn 1.385
_exptl_special_details
;
Some bond length discrepancies involving Co1

;
_diffrn_ambient_temperature ?
_diffrn_special_details
;
The study was carried out at room temperature,in the range 283-303K

;
#These two values have been output from a single CSD field.
_refine_ls_R_factor_gt 0.045
_refine_ls_wR_factor_gt 0.045
_symmetry_cell_setting monoclinic
_symmetry_space_group_name_H-M 'P 21/c'
_symmetry_Int_Tables_number 14
loop_
_symmetry_equiv_pos_site_id
_symmetry_equiv_pos_as_xyz
1 x,y,z
2 -x,1/2+y,1/2-z
3 -x,-y,-z
4 x,-1/2-y,-1/2+z
_cell_length_a 13.343(3)
_cell_length_b 10.284(2)
_cell_length_c 14.975(3)
_cell_angle_alpha 90
_cell_angle_beta 108.84(2)
_cell_angle_gamma 90
_cell_formula_units_Z 4
loop_
_atom_type_symbol
_atom_type_radius_bond
C 0.68
H 0.23
Co 1.33
O 0.68
loop_
_atom_site_label
_atom_site_type_symbol
_atom_site_fract_x
_atom_site_fract_y
_atom_site_fract_z
Co1 Co 0.11796 0.07761 0.26561
O1 O 0.02660 0.25080 0.10780
O2 O 0.12790 -0.18070 0.18710
O3 O -0.03830 0.05030 0.36760
C1 C 0.05980 0.18110 0.16790
C2 C 0.12090 -0.08110 0.21630
C3 C 0.01990 0.06270 0.32600
C4 C 0.22150 0.20350 0.34440
C5 C 0.24900 0.07210 0.37180
C6 C 0.27090 0.12590 0.29200
C7 C 0.21360 0.33410 0.37990
C8 C 0.25260 0.44000 0.34680
C9 C 0.24640 0.56280 0.38200
C10 C 0.20190 0.57930 0.45120
C11 C 0.16200 0.47670 0.48510
C12 C 0.16770 0.35360 0.44930
C13 C 0.28840 -0.00900 0.45480
C14 C 0.23720 -0.01610 0.52340
C15 C 0.27780 -0.08800 0.60240
C16 C 0.36930 -0.15550 0.61510
C17 C 0.41990 -0.15220 0.54820
C18 C 0.37960 -0.08050 0.46810
C19 C 0.34010 0.12130 0.23270
C20 C 0.35120 0.22990 0.18120
C21 C 0.41440 0.22650 0.12370
C22 C 0.46740 0.11530 0.11690
C23 C 0.45750 0.00670 0.16570
C24 C 0.39380 0.00970 0.22300
H1 H 0.28500 0.42500 0.29700
H2 H 0.27200 0.63200 0.35300
H3 H 0.19800 0.66100 0.47300
H4 H 0.12200 0.48300 0.53300
H5 H 0.13900 0.28500 0.47500
H6 H 0.17700 0.03600 0.51800
H7 H 0.24100 -0.09300 0.64800
H8 H 0.39300 -0.19800 0.67000
H9 H 0.48100 -0.19600 0.55600
H10 H 0.41500 -0.08000 0.42400
H11 H 0.31800 0.30800 0.18800
H12 H 0.42500 0.30000 0.08500
H13 H 0.50200 0.11100 0.08000
H14 H 0.49700 -0.08000 0.14700
H15 H 0.38700 -0.06200 0.24600
#END
