
#######################################################################
#
#                 Cambridge Crystallographic Data Centre
#                                CCDC
#
#######################################################################
#
# If this CIF has been generated from an entry in the Cambridge
# Structural Database, then it will include bibliographic, chemical,
# crystal, experimental, refinement or atomic coordinate data resulting
# from the CCDC's data processing and validation procedures.
#
#######################################################################

data_CSD_CIF_TPORCP11
_audit_creation_date 1982-03-29
_audit_creation_method CSD-ConQuest-V1
_database_code_CSD TPORCP11
_database_code_depnum_ccdc_archive 'CCDC 1275416'
_chemical_formula_sum 'C44 H28 Co1 N4'
_chemical_formula_moiety
;
C44 H28 Co1 N4
;
_journal_coden_Cambridge 4
_journal_volume 103
_journal_year 1981
_journal_page_first 5087
_journal_name_full 'J.Am.Chem.Soc. '
loop_
_publ_author_name
"E.D.Stevens"
_chemical_name_systematic
;
(meso-Tetraphenylporphinato)-cobalt(ii)
;
_chemical_name_common
;
Teaching Subset: Fundamental Chemistry
;
_cell_volume   3075.183
_exptl_crystal_density_diffrn 1.451
_exptl_special_details
;
Two other refinements are also reported in the paper

;
_diffrn_ambient_temperature 100
_refine_special_details
;
aspherical valence density refinement

;
#These two values have been output from a single CSD field.
_refine_ls_R_factor_gt 0.034
_refine_ls_wR_factor_gt 0.034
_symmetry_cell_setting tetragonal
_symmetry_space_group_name_H-M 'I -4 2 d'
_symmetry_Int_Tables_number 122
loop_
_symmetry_equiv_pos_site_id
_symmetry_equiv_pos_as_xyz
1 x,y,z
2 1/2+x,1/2+y,1/2+z
3 -y,x,-z
4 1/2-y,1/2+x,1/2-z
5 -x,-y,z
6 1/2-x,1/2-y,1/2+z
7 y,-x,-z
8 1/2+y,1/2-x,1/2-z
9 y,1/2+x,1/4+z
10 1/2+y,x,3/4+z
11 x,1/2-y,1/4-z
12 1/2+x,-y,3/4-z
13 -y,1/2-x,1/4+z
14 1/2-y,-x,3/4+z
15 -x,1/2+y,1/4-z
16 1/2-x,y,3/4-z
_cell_length_a 14.980(4)
_cell_length_b 14.980(4)
_cell_length_c 13.704(4)
_cell_angle_alpha 90
_cell_angle_beta 90
_cell_angle_gamma 90
_cell_formula_units_Z 4
loop_
_atom_type_symbol
_atom_type_radius_bond
C 0.68
H 0.23
Co 1.33
N 0.68
loop_
_atom_site_label
_atom_site_type_symbol
_atom_site_fract_x
_atom_site_fract_y
_atom_site_fract_z
Co1 Co 0.00000 0.00000 0.00000
N1 N 0.11245 0.06534 -0.00198
C1 C 0.19643 0.03263 0.01812
C2 C 0.26150 0.10352 0.01719
C3 C 0.21699 0.17952 -0.00734
C4 C 0.12439 0.15543 -0.01744
C5 C 0.21785 -0.05679 0.03146
C6 C 0.31108 -0.08213 0.05680
C7 C 0.48497 -0.13274 0.10609
C8 C 0.33252 -0.10485 0.15256
C9 C 0.41896 -0.13007 0.17726
C10 C 0.37786 -0.08455 -0.01393
C11 C 0.46441 -0.11003 0.01057
H1 H 0.33120 0.08716 0.02921
H2 H 0.24729 0.24539 -0.00918
H3 H 0.55238 -0.15346 0.12495
H4 H 0.27589 -0.10204 0.20242
H5 H 0.44214 -0.14139 0.25147
H6 H 0.36242 -0.06335 -0.08783
H7 H 0.51918 -0.11149 -0.04185
N1B N -0.06534 0.11245 0.00198
N1D N -0.11245 -0.06534 -0.00198
N1F N 0.06534 -0.11245 0.00198
C5B C 0.05679 0.21785 -0.03146
C4F C 0.15543 -0.12439 0.01744
C1B C -0.03263 0.19643 -0.01812
C4B C -0.15543 0.12439 0.01744
C1D C -0.19643 -0.03263 0.01812
C4D C -0.12439 -0.15543 -0.01744
C1F C 0.03263 -0.19643 -0.01812
C6B C 0.08213 0.31108 -0.05680
C3F C 0.17952 -0.21699 0.00734
C2B C -0.10352 0.26150 -0.01719
C3B C -0.17952 0.21699 0.00734
C5D C -0.21785 0.05679 0.03146
C2D C -0.26150 -0.10352 0.01719
C3D C -0.21699 -0.17952 -0.00734
C5F C -0.05679 -0.21785 -0.03146
C2F C 0.10352 -0.26150 -0.01719
C8B C 0.10485 0.33252 -0.15256
C10B C 0.08455 0.37786 0.01393
H2F H 0.24539 -0.24729 0.00918
H1B H -0.08716 0.33120 -0.02921
H2B H -0.24539 0.24729 0.00918
C6D C -0.31108 0.08213 0.05680
H1D H -0.33120 -0.08716 0.02921
H2D H -0.24729 -0.24539 -0.00918
C6F C -0.08213 -0.31108 -0.05680
H1F H 0.08716 -0.33120 -0.02921
C9B C 0.13007 0.41896 -0.17726
H4B H 0.10204 0.27589 -0.20242
C11B C 0.11003 0.46441 -0.01057
H6B H 0.06335 0.36242 0.08783
C8D C -0.33252 0.10485 0.15256
C10D C -0.37786 0.08455 -0.01393
C8F C -0.10485 -0.33252 -0.15256
C10F C -0.08455 -0.37786 0.01393
C7B C 0.13274 0.48497 -0.10609
H5B H 0.14139 0.44214 -0.25147
H7B H 0.11149 0.51918 0.04185
C9D C -0.41896 0.13007 0.17726
H4D H -0.27589 0.10204 0.20242
C11D C -0.46441 0.11003 0.01057
H6D H -0.36242 0.06335 -0.08783
C9F C -0.13007 -0.41896 -0.17726
H4F H -0.10204 -0.27589 -0.20242
C11F C -0.11003 -0.46441 -0.01057
H6F H -0.06335 -0.36242 0.08783
H3B H 0.15346 0.55238 -0.12495
C7D C -0.48497 0.13274 0.10609
H5D H -0.44214 0.14139 0.25147
H7D H -0.51918 0.11149 -0.04185
C7F C -0.13274 -0.48497 -0.10609
H5F H -0.14139 -0.44214 -0.25147
H7F H -0.11149 -0.51918 0.04185
H3D H -0.55238 0.15346 0.12495
H3F H -0.15346 -0.55238 -0.12495
#END
