
#######################################################################
#
#                 Cambridge Crystallographic Data Centre
#                                CCDC
#
#######################################################################
#
# If this CIF has been generated from an entry in the Cambridge
# Structural Database, then it will include bibliographic, chemical,
# crystal, experimental, refinement or atomic coordinate data resulting
# from the CCDC's data processing and validation procedures.
#
#######################################################################

data_CSD_CIF_TRETAL03
_audit_creation_date 2000-05-08
_audit_creation_method CSD-ConQuest-V1
_database_code_CSD TRETAL03
_database_code_depnum_ccdc_archive 'CCDC 1275673'
_chemical_formula_sum 'C20 H28 O1'
_chemical_formula_moiety
;
C20 H28 O1
;
_journal_coden_Cambridge 77
_journal_volume 37
_journal_year 1998
_journal_page_first 4609
_journal_name_full 'Jpn.J.Appl.Phys. '
loop_
_publ_author_name
"H.Hashimoto"
"K.Hattori"
"Y.Okada"
"T.Yoda"
"R.Matsushima"
_chemical_name_systematic
;
trans-Retinal
;
_chemical_name_common
;
Vitamin A aldehyde; PDB Chemical Component code: RET; Teaching Subset: 
Essential Nutrients
;
_cell_volume   1829.095
_exptl_crystal_colour 'yellow'
_exptl_crystal_density_diffrn 1.033
_exptl_crystal_preparation 'n-hexane'
_diffrn_ambient_temperature ?
_diffrn_special_details
;
The study was carried out at room temperature,in the range 283-303K

;
#These two values have been output from a single CSD field.
_refine_ls_R_factor_gt 0.06
_refine_ls_wR_factor_gt 0.06
loop_
_citation_database_id_CSD
_citation_special_details
CRETAL "is a stereoisomer of this entry"
FAHNEH "is a stereoisomer of this entry"
RETNLA "is a stereoisomer of this entry"
_symmetry_cell_setting monoclinic
_symmetry_space_group_name_H-M 'P 21/n'
_symmetry_Int_Tables_number 14
loop_
_symmetry_equiv_pos_site_id
_symmetry_equiv_pos_as_xyz
1 x,y,z
2 1/2-x,1/2+y,1/2-z
3 -x,-y,-z
4 -1/2+x,-1/2-y,-1/2+z
_cell_length_a 14.956(2)
_cell_length_b 8.277(2)
_cell_length_c 15.291(2)
_cell_angle_alpha 90
_cell_angle_beta 104.917(9)
_cell_angle_gamma 90
_cell_formula_units_Z 4
loop_
_atom_type_symbol
_atom_type_radius_bond
C 0.68
O 0.68
loop_
_atom_site_label
_atom_site_type_symbol
_atom_site_fract_x
_atom_site_fract_y
_atom_site_fract_z
O1 O 0.7852(2) 0.4654(5) 0.6185(3)
C1 C -0.0431(2) -0.0893(4) 0.2739(2)
C2 C 0.0311(5) -0.1590(9) 0.2331(5)
C3 C -0.0836(5) -0.2213(6) 0.3222(4)
C4 C -0.1148(4) -0.0238(8) 0.1889(4)
C5 C -0.1782(4) 0.0923(7) 0.2080(4)
C6 C -0.1336(3) 0.2300(5) 0.2645(3)
C7 C -0.0456(2) 0.1908(4) 0.3353(2)
C8 C -0.0125(4) 0.3252(6) 0.4013(4)
C9 C -0.0047(2) 0.0480(4) 0.3384(2)
C10 C 0.0831(2) 0.0111(4) 0.4072(2)
C11 C 0.1611(2) 0.0913(5) 0.4179(2)
C12 C 0.2495(2) 0.0596(4) 0.4840(2)
C13 C 0.2522(4) -0.0728(7) 0.5508(3)
C14 C 0.3225(3) 0.1491(5) 0.4811(2)
C15 C 0.4150(3) 0.1380(5) 0.5401(2)
C16 C 0.4846(3) 0.2334(5) 0.5342(2)
C17 C 0.5772(2) 0.2370(5) 0.5953(2)
C18 C 0.5975(4) 0.1211(8) 0.6727(3)
C19 C 0.6382(3) 0.3444(5) 0.5796(3)
C20 C 0.7325(3) 0.3668(7) 0.6359(4)
#END
