
#######################################################################
#
#                 Cambridge Crystallographic Data Centre
#                                CCDC
#
#######################################################################
#
# If this CIF has been generated from an entry in the Cambridge
# Structural Database, then it will include bibliographic, chemical,
# crystal, experimental, refinement or atomic coordinate data resulting
# from the CCDC's data processing and validation procedures.
#
#######################################################################

data_CSD_CIF_TRMEIN03
_audit_creation_date 2006-01-24
_audit_creation_method CSD-ConQuest-V1
_database_code_CSD TRMEIN03
_database_code_depnum_ccdc_archive 'CCDC 287085'
_chemical_formula_sum 'C3 H9 In1'
_chemical_formula_moiety
;
C3 H9 In1
;
_journal_coden_Cambridge 579
_journal_volume 24
_journal_year 2005
_journal_page_first 4832
_journal_name_full 'Organometallics '
loop_
_publ_author_name
"J.Lewinski"
"J.Zachara"
"K.B.Starowieyski"
"I.Justyniak"
"J.Lipkowski"
"W.Bury"
"P.Kruk"
"R.Wozniak"
_chemical_name_systematic
;
Trimethyl-indium
;
_chemical_name_common
;
Teaching Subset: Fundamental Chemistry
;
_cell_volume   1068.371
_exptl_crystal_colour 'colorless'
_exptl_crystal_density_diffrn 1.988
_exptl_special_details
;
tetragonal polymorph

;
_exptl_crystal_description 'prism'
_exptl_crystal_preparation 'sublimation'
_diffrn_ambient_temperature 100
#These two values have been output from a single CSD field.
_refine_ls_R_factor_gt 0.0299
_refine_ls_wR_factor_gt 0.0299
_symmetry_cell_setting tetragonal
_symmetry_space_group_name_H-M 'P 42/n'
_symmetry_Int_Tables_number 86
loop_
_symmetry_equiv_pos_site_id
_symmetry_equiv_pos_as_xyz
1 x,y,z
2 -y,1/2+x,1/2+z
3 1/2+y,-x,1/2+z
4 1/2-x,1/2-y,z
5 -x,-y,-z
6 y,-1/2-x,-1/2-z
7 -1/2-y,x,-1/2-z
8 -1/2+x,-1/2+y,-z
_cell_length_a 13.0454(2)
_cell_length_b 13.0454(2)
_cell_length_c 6.2778(1)
_cell_angle_alpha 90
_cell_angle_beta 90
_cell_angle_gamma 90
_cell_formula_units_Z 8
loop_
_atom_type_symbol
_atom_type_radius_bond
C 0.68
H 0.23
In 1.63
loop_
_atom_site_label
_atom_site_type_symbol
_atom_site_fract_x
_atom_site_fract_y
_atom_site_fract_z
In1 In 0.21334(2) -0.00530(2) 0.41553(5)
C1 C 0.1469(3) -0.1328(3) 0.2412(8)
H1 H 0.19960 -0.16470 0.15180
H2 H 0.09100 -0.10780 0.15090
H3 H 0.12020 -0.18350 0.34210
C2 C 0.3447(3) 0.0687(3) 0.2690(7)
H4 H 0.32170 0.12880 0.18830
H5 H 0.37880 0.02040 0.17270
H6 H 0.39290 0.09040 0.38000
C3 C 0.1611(3) 0.0451(4) 0.7228(7)
H7 H 0.17890 0.11740 0.74270
H8 H 0.19390 0.00380 0.83410
H9 H 0.08650 0.03690 0.73180
#END
