
#######################################################################
#
#                 Cambridge Crystallographic Data Centre
#                                CCDC
#
#######################################################################
#
# If this CIF has been generated from an entry in the Cambridge
# Structural Database, then it will include bibliographic, chemical,
# crystal, experimental, refinement or atomic coordinate data resulting
# from the CCDC's data processing and validation procedures.
#
#######################################################################

data_CSD_CIF_TTAMOX01
_audit_creation_date 1980-07-01
_audit_creation_method CSD-ConQuest-V1
_database_code_CSD TTAMOX01
_database_code_depnum_ccdc_archive 'CCDC 1275916'
_chemical_formula_sum 'C26 H29 N1 O1'
_chemical_formula_moiety
;
C26 H29 N1 O1
;
_journal_coeditor_code "IUCr A18051"
_journal_coden_Cambridge 107
_journal_volume 35
_journal_year 1979
_journal_page_first 3070
_journal_name_full 'Acta Crystallogr.,Sect.B:Struct.Crystallogr.Cryst.Chem. '
loop_
_publ_author_name
"G.Precigoux"
"C.Courseille"
"S.Geoffre"
"M.Hospital"
_chemical_name_systematic
;
1-(p-(2-Dimethylaminoethoxy)phenyl)-1,2-trans-diphenylbutene
;
_chemical_name_common
;
trans-Tamoxifene; Nolvadex; Istubal; Valodex; Genox; DrugBank: DB00675; PDB 
Chemical Component code: CTX; Teaching Subset: Drug Molecules, 'Bound' Drugs
;
_cell_volume   4427.473
_exptl_crystal_density_diffrn 1.11
_exptl_special_details
;
antioestrogen activity

;
_diffrn_ambient_temperature ?
_diffrn_special_details
;
The study was carried out at room temperature,in the range 283-303K

;
_refine_special_details
;
The dimethylamino group is disordered over 2 orientations (about the C31-C41 
bond). The positions with occupancies 0.6 are retained.
;
#These two values have been output from a single CSD field.
_refine_ls_R_factor_gt 0.057
_refine_ls_wR_factor_gt 0.057
_symmetry_cell_setting monoclinic
_symmetry_space_group_name_H-M 'C 2/c'
_symmetry_Int_Tables_number 15
loop_
_symmetry_equiv_pos_site_id
_symmetry_equiv_pos_as_xyz
1 x,y,z
2 1/2+x,1/2+y,z
3 -x,y,1/2-z
4 1/2-x,1/2+y,1/2-z
5 -x,-y,-z
6 -1/2-x,-1/2-y,-z
7 x,-y,-1/2+z
8 -1/2+x,-1/2-y,-1/2+z
_cell_length_a 41.630(9)
_cell_length_b 5.747(3)
_cell_length_c 30.679(9)
_cell_angle_alpha 90
_cell_angle_beta 142.9(1)
_cell_angle_gamma 90
_cell_formula_units_Z 8
loop_
_atom_type_symbol
_atom_type_radius_bond
C 0.68
N 0.68
O 0.68
loop_
_atom_site_label
_atom_site_type_symbol
_atom_site_fract_x
_atom_site_fract_y
_atom_site_fract_z
C1 C 0.92370 0.30460 0.90960
C2 C 0.92750 0.10800 0.88800
C3 C 0.89630 0.08910 0.81710
C4 C 0.86080 0.26420 0.76660
C5 C 0.85860 0.46180 0.79000
C6 C 0.89000 0.48360 0.86130
C7 C 0.82750 0.24190 0.69030
C8 C 0.77500 0.28980 0.63220
C9 C 0.74370 0.29620 0.55610
C10 C 0.70210 0.10480 0.50800
O1 O 0.95530 0.30710 0.98050
C11 C 0.95250 0.50930 1.00510
C12 C 0.98520 0.46260 1.08080
C13 C 0.85850 0.17130 0.68410
C14 C 0.84820 -0.03380 0.65080
C15 C 0.87840 -0.09250 0.64640
C16 C 0.91820 0.05290 0.67570
C17 C 0.92910 0.25260 0.70920
C18 C 0.89960 0.31360 0.71420
C19 C 0.74350 0.33910 0.63830
C20 C 0.74280 0.18250 0.67170
C21 C 0.71280 0.22670 0.67650
C22 C 0.68360 0.42790 0.64800
C23 C 0.68350 0.58310 0.61430
C24 C 0.71300 0.53920 0.60900
C25 C 0.91900 0.42280 1.06500
N1 N 0.95190 0.30950 1.07370
C26 C 0.96210 0.09550 1.08450
#END
