
#######################################################################
#
#                 Cambridge Crystallographic Data Centre
#                                CCDC
#
#######################################################################
#
# If this CIF has been generated from an entry in the Cambridge
# Structural Database, then it will include bibliographic, chemical,
# crystal, experimental, refinement or atomic coordinate data resulting
# from the CCDC's data processing and validation procedures.
#
#######################################################################

data_CSD_CIF_TTFTCQ
_audit_creation_date 1975-04-17
_audit_creation_method CSD-ConQuest-V1
_database_code_CSD TTFTCQ
_database_code_depnum_ccdc_archive 'CCDC 1275955'
_chemical_formula_sum 'C18 H8 N4 S4'
_chemical_formula_moiety
;
C6 H4 S4 1+,C12 H4 N4 1-
;
_journal_coden_Cambridge 335
_journal_volume 15
_journal_year 1974
_journal_page_first 215
_journal_name_full 'Solid State Commun. '
loop_
_publ_author_name
"R.H.Blessing"
"P.Coppens"
_chemical_name_systematic
;
\D^2,2'^-Bi-1,3-dithiole 7,7,8,8-tetracyanoquinodimethanide
;
_chemical_name_common
;
Teaching Subset: Symmetry
;
_cell_volume    817.089
_exptl_crystal_density_diffrn 1.66
_diffrn_ambient_temperature 100
#These two values have been output from a single CSD field.
_refine_ls_R_factor_gt 0.041
_refine_ls_wR_factor_gt 0.041
_symmetry_cell_setting monoclinic
_symmetry_space_group_name_H-M 'P 21/c'
_symmetry_Int_Tables_number 14
loop_
_symmetry_equiv_pos_site_id
_symmetry_equiv_pos_as_xyz
1 x,y,z
2 -x,1/2+y,1/2-z
3 -x,-y,-z
4 x,-1/2-y,-1/2+z
_cell_length_a 12.228(6)
_cell_length_b 3.754(1)
_cell_length_c 18.379(10)
_cell_angle_alpha 90
_cell_angle_beta 104.42(4)
_cell_angle_gamma 90
_cell_formula_units_Z 2
loop_
_atom_type_symbol
_atom_type_radius_bond
C 0.68
H 0.20
N 0.68
S 0.99
loop_
_atom_site_label
_atom_site_type_symbol
_atom_site_fract_x
_atom_site_fract_y
_atom_site_fract_z
C1 C -0.00140 -0.34030 0.16080
C2 C 0.10850 -0.34000 0.16340
C3 C 0.01190 -0.07740 0.03470
H1 H -0.03800 -0.42400 0.19900
H2 H 0.16500 -0.41500 0.20500
S1 S -0.09396 -0.18420 0.07960
S2 S 0.14817 -0.18060 0.08527
C4 C 0.45820 -0.48030 0.16610
C5 C 0.65900 -0.46640 0.16630
C6 C 0.54670 -0.58520 0.13210
C7 C 0.52360 -0.79280 0.06710
C8 C 0.41120 -0.90570 0.03130
C9 C 0.61120 -0.89480 0.03190
H3 H 0.35500 -0.84100 0.05300
H4 H 0.68200 -0.83000 0.05400
N1 N 0.38430 -0.39790 0.19070
N2 N 0.74990 -0.37030 0.19020
C3B C -0.01190 0.07740 -0.03470
S1B S 0.09396 0.18420 -0.07960
S2B S -0.14817 0.18060 -0.08527
C1B C 0.00140 0.34030 -0.16080
C2B C -0.10850 0.34000 -0.16340
H1B H 0.03800 0.42400 -0.19900
H2B H -0.16500 0.41500 -0.20500
C9B C 0.38880 -1.10520 -0.03190
C8B C 0.58880 -1.09430 -0.03130
C7B C 0.47640 -1.20720 -0.06710
H4B H 0.31800 -1.17000 -0.05400
H3B H 0.64500 -1.15900 -0.05300
C6B C 0.45330 -1.41480 -0.13210
C4B C 0.54180 -1.51970 -0.16610
C5B C 0.34100 -1.53360 -0.16630
N1B N 0.61570 -1.60210 -0.19070
N2B N 0.25010 -1.62970 -0.19020
#END
