####################################################################### 
# 
# This file contains crystal structure data downloaded from the 
# Cambridge Structural Database (CSD) hosted by the Cambridge 
# Crystallographic Data Centre (CCDC).
# 
# Full information about CCDC data access policies and citation 
# guidelines are available at http://www.ccdc.cam.ac.uk/access/V1 
# 
# Audit and citation data items may have been added by the CCDC. 
# Please retain this information to preserve the provenance of 
# this file and to allow appropriate attribution of the data. 
# 
#######################################################################

data_pna21
_audit_block_doi                 10.5517/cc135vns
_database_code_depnum_ccdc_archive 'CCDC 1018525'
loop_
_citation_id
_citation_doi
_citation_year
1 10.1016/j.ica.2014.12.001 2015
_audit_update_record             
;
2014-11-27 deposited with the CCDC.	2024-07-13 downloaded from the CCDC.
;
_audit_creation_date             2014-08-07
_audit_creation_method           
;
Olex2 1.2
(compiled 2013.11.15 svn.r2834 for OlexSys, GUI svn.r4715)
;
_chemical_name_common            ?
_chemical_name_systematic        
;
 ? 
;
_chemical_formula_moiety         'C20 H17 Cu N3 O6, 3(H2 O)'
_chemical_formula_sum            'C20 H23 Cu N3 O9'
_chemical_formula_weight         512.96
_chemical_absolute_configuration ad
_chemical_melting_point          ?
loop_
_atom_type_symbol
_atom_type_description
_atom_type_scat_dispersion_real
_atom_type_scat_dispersion_imag
_atom_type_scat_source
C C 0.0033 0.0016 'International Tables Vol C Tables 4.2.6.8 and 6.1.1.4'
H H 0.0000 0.0000 'International Tables Vol C Tables 4.2.6.8 and 6.1.1.4'
Cu Cu 0.3201 1.2651 'International Tables Vol C Tables 4.2.6.8 and 6.1.1.4'
N N 0.0061 0.0033 'International Tables Vol C Tables 4.2.6.8 and 6.1.1.4'
O O 0.0106 0.0060 'International Tables Vol C Tables 4.2.6.8 and 6.1.1.4'

_space_group_crystal_system      orthorhombic
_space_group_IT_number           33
_space_group_name_H-M_alt        'P n a 21'
_space_group_name_Hall           'P 2c -2n'
loop_
_space_group_symop_id
_space_group_symop_operation_xyz
1 'x, y, z'
2 '-x, -y, z+1/2'
3 'x+1/2, -y+1/2, z'
4 '-x+1/2, y+1/2, z+1/2'

_cell_length_a                   15.987(6)
_cell_length_b                   16.920(6)
_cell_length_c                   8.838(3)
_cell_angle_alpha                90.00
_cell_angle_beta                 90.00
_cell_angle_gamma                90.00
_cell_volume                     2390.7(15)
_cell_formula_units_Z            4
_cell_measurement_reflns_used    2202
_cell_measurement_temperature    173(2)
_cell_measurement_theta_max      20.215
_cell_measurement_theta_min      2.408
_exptl_absorpt_coefficient_mu    0.966
_exptl_absorpt_correction_T_max  1
_exptl_absorpt_correction_T_min  0.7525
_exptl_absorpt_correction_type   multi-scan
_exptl_absorpt_process_details   
;
 TWINABS-2012/1 (Bruker,2012) was used for absorption correction.
 
For component 1:
 wR2(int) was 0.1229 before and 0.0708 after correction.
 The Ratio of minimum to maximum transmission is 0.73.
 The \l/2 correction factor is Not present

Final HKLF 4 output contains 33813 reflections, Rint = 0.2267
 (3461 with I > 3sig(I), Rint = 0.0620)
;
_exptl_crystal_colour            blue
_exptl_crystal_colour_primary    blue
_exptl_crystal_density_diffrn    1.422
_exptl_crystal_density_meas      .
_exptl_crystal_density_method    'not measured'
_exptl_crystal_description       block
_exptl_crystal_F_000             1056
_exptl_crystal_size_max          0.312
_exptl_crystal_size_mid          0.153
_exptl_crystal_size_min          0.106
_exptl_special_details           
;
 ? 
;
_diffrn_reflns_av_R_equivalents  0.0961
_diffrn_reflns_av_unetI/netI     0.1251
_diffrn_reflns_limit_h_max       19
_diffrn_reflns_limit_h_min       -19
_diffrn_reflns_limit_k_max       0
_diffrn_reflns_limit_k_min       -20
_diffrn_reflns_limit_l_max       0
_diffrn_reflns_limit_l_min       -10
_diffrn_reflns_number            4510
_diffrn_reflns_theta_full        25.39
_diffrn_reflns_theta_max         25.39
_diffrn_reflns_theta_min         1.75
_diffrn_ambient_temperature      173.15
_diffrn_detector_area_resol_mean ?
_diffrn_measured_fraction_theta_full 0.999
_diffrn_measured_fraction_theta_max 0.999
_diffrn_measurement_device_type  'Bruker APEX-II CCD'
_diffrn_measurement_method       '\f and \w scans'
_diffrn_radiation_monochromator  graphite
_diffrn_radiation_type           MoK\a
_diffrn_radiation_wavelength     0.71073
_diffrn_source                   'fine-focus sealed tube'
_diffrn_standards_number         0
_reflns_number_gt                1348
_reflns_number_total             2350
_reflns_threshold_expression     >2sigma(I)
_computing_cell_refinement       ?
_computing_data_collection       ?
_computing_data_reduction        'SAINT v8.27A (Bruker, 2012)'
_computing_molecular_graphics    'Olex2 (Dolomanov et al., 2009)'
_computing_publication_material  'Olex2 (Dolomanov et al., 2009)'
_computing_structure_refinement  'XL (Sheldrick, 2008)'
_computing_structure_solution    'XS (Sheldrick, 2008)'
_refine_diff_density_max         1.024
_refine_diff_density_min         -0.469
_refine_diff_density_rms         0.135
_refine_ls_abs_structure_details 'Flack H D (1983), Acta Cryst. A39, 876-881'
_refine_ls_abs_structure_Flack   0.00(16)
_refine_ls_extinction_coef       ?
_refine_ls_extinction_method     none
_refine_ls_goodness_of_fit_ref   1.013
_refine_ls_hydrogen_treatment    mixed
_refine_ls_matrix_type           full
_refine_ls_number_parameters     309
_refine_ls_number_reflns         2350
_refine_ls_number_restraints     1
_refine_ls_R_factor_all          0.1323
_refine_ls_R_factor_gt           0.0806
_refine_ls_restrained_S_all      1.013
_refine_ls_shift/su_max          0.000
_refine_ls_shift/su_mean         0.000
_refine_ls_structure_factor_coef Fsqd
_refine_ls_weighting_details     
'calc w=1/[\s^2^(Fo^2^)+(0.1196P)^2^+0.0000P] where P=(Fo^2^+2Fc^2^)/3'
_refine_ls_weighting_scheme      calc
_refine_ls_wR_factor_gt          0.1976
_refine_ls_wR_factor_ref         0.2214
_refine_special_details          
;
 Refinement of F^2^ against ALL reflections.  The weighted R-factor wR and 
 goodness of fit S are based on F^2^, conventional R-factors R are based 
 on F, with F set to zero for negative F^2^. The threshold expression of 
 F^2^ > 2sigma(F^2^) is used only for calculating R-factors(gt) etc. and is 
 not relevant to the choice of reflections for refinement.  R-factors based 
 on F^2^ are statistically about twice as large as those based on F, and R- 
 factors based on ALL data will be even larger. 
;
_olex2_refinement_description    
;
1. Fixed Uiso
 At 1.2 times of:
  All C(H) groups, All N(H) groups
 At 1.5 times of:
  All O(H,H) groups
2. Others
 Fixed Sof: O3W(0.5) H3WA(0.5) H3WB(0.5) O1W(0.5) H1WA(0.5) H1WB(0.5)
3.a Riding coordinates:
 O3W(H3WA,H3WB), O4W(H4WA,H4WB), O1W(H1WA,H1WB), O2W(H2WA,H2WB)
3.b Rotating group:
 O6(H6A,H6B)
3.c Aromatic/amide H refined with riding coordinates:
 N2(H2), C1(H1), C2(H2A), C3(H3), C5(H5), C7(H7), C8(H8), C9(H9), C10(H10),
 C12(H12), C16(H16), C18(H18), C19(H19), C20(H20)
;
_atom_sites_solution_hydrogens   geom
_atom_sites_solution_primary     direct
_atom_sites_solution_secondary   difmap
loop_
_atom_site_label
_atom_site_type_symbol
_atom_site_fract_x
_atom_site_fract_y
_atom_site_fract_z
_atom_site_U_iso_or_equiv
_atom_site_adp_type
_atom_site_occupancy
_atom_site_symmetry_multiplicity
_atom_site_calc_flag
_atom_site_disorder_assembly
_atom_site_disorder_group
_atom_site_refinement_flags_posn
Cu1 Cu 0.80611(11) 0.21839(8) 0.9296(4) 0.0418(5) Uani 1 1 d . . .
O1 O 0.8581(6) 0.1243(5) 1.0104(11) 0.044(2) Uani 1 1 d . . .
O2 O 0.7467(6) 0.0462(6) 0.9810(10) 0.042(2) Uani 1 1 d . . .
O3 O 0.7381(9) -0.1795(6) 1.3526(13) 0.058(3) Uani 1 1 d . . .
O4 O 0.8511(10) -0.2563(7) 1.3435(15) 0.079(4) Uani 1 1 d . . .
O5 O 0.9784(7) 0.2409(8) 0.2617(13) 0.082(4) Uani 1 1 d . . .
O6 O 0.9309(9) 0.2810(6) 0.9766(11) 0.082(4) Uani 1 1 d . . .
H6A H 0.9317 0.3066 1.0706 0.123 Uiso 1 1 d . . GR
H6B H 0.9427 0.3197 0.9041 0.123 Uiso 1 1 d . . GR
N1 N 0.8326(7) 0.1876(6) 0.7121(13) 0.031(2) Uani 1 1 d . . .
N2 N 1.0252(10) 0.3024(7) 0.4731(16) 0.070(5) Uani 1 1 d . . .
H2 H 1.0190 0.3107 0.5707 0.084 Uiso 1 1 calc . . R
N3 N 1.2565(9) 0.2569(8) 0.1359(14) 0.055(3) Uani 1 1 d . . .
C1 C 0.8002(10) 0.1249(10) 0.6509(16) 0.056(4) Uani 1 1 d . . .
H1 H 0.7656 0.0929 0.7131 0.068 Uiso 1 1 calc . . R
C2 C 0.8116(10) 0.1010(11) 0.5048(19) 0.059(5) Uani 1 1 d . . .
H2A H 0.7819 0.0577 0.4627 0.071 Uiso 1 1 calc . . R
C3 C 0.8674(10) 0.1428(9) 0.425(2) 0.056(4) Uani 1 1 d . . .
H3 H 0.8791 0.1274 0.3235 0.068 Uiso 1 1 calc . . R
C4 C 0.9087(11) 0.2079(11) 0.4853(16) 0.060(5) Uani 1 1 d . . .
C5 C 0.8879(9) 0.2291(8) 0.6388(16) 0.041(4) Uani 1 1 d . . .
H5 H 0.9143 0.2729 0.6859 0.049 Uiso 1 1 calc . . R
C6 C 0.9742(12) 0.2571(12) 0.3989(18) 0.066(5) Uani 1 1 d . . .
C7 C 1.0953(13) 0.3400(9) 0.3856(19) 0.080(6) Uani 1 1 d . . .
H7 H 1.0995 0.3955 0.3719 0.096 Uiso 1 1 calc . . R
C8 C 1.2834(12) 0.1897(9) 0.2071(18) 0.058(5) Uani 1 1 d . . .
H8 H 1.3271 0.1584 0.1659 0.069 Uiso 1 1 calc . . R
C9 C 1.2450(12) 0.1694(11) 0.340(2) 0.067(5) Uani 1 1 d . . .
H9 H 1.2616 0.1222 0.3896 0.080 Uiso 1 1 calc . . R
C10 C 1.1795(14) 0.2179(11) 0.407(3) 0.089(7) Uani 1 1 d . . .
H10 H 1.1543 0.2043 0.5004 0.107 Uiso 1 1 calc . . R
C11 C 1.1548(12) 0.2863(10) 0.3250(17) 0.058(4) Uani 1 1 d . . .
C12 C 1.1961(11) 0.3016(9) 0.1924(16) 0.052(4) Uani 1 1 d . . .
H12 H 1.1803 0.3475 0.1372 0.063 Uiso 1 1 calc . . R
C13 C 0.8173(11) 0.0581(8) 1.0261(14) 0.039(4) Uani 1 1 d . . .
C14 C 0.8126(14) -0.1909(8) 1.3275(15) 0.050(5) Uani 1 1 d . . .
C15 C 0.8669(8) -0.0017(7) 1.1215(15) 0.032(3) Uani 1 1 d . . .
C16 C 0.8228(9) -0.0656(7) 1.1757(14) 0.036(3) Uani 1 1 d . . .
H16 H 0.7648 -0.0715 1.1546 0.043 Uiso 1 1 calc . . R
C17 C 0.8646(9) -0.1199(8) 1.2603(18) 0.048(4) Uani 1 1 d . . .
C18 C 0.9515(10) -0.1118(10) 1.2867(17) 0.057(5) Uani 1 1 d . . .
H18 H 0.9814 -0.1506 1.3423 0.068 Uiso 1 1 calc . . R
C19 C 0.9901(10) -0.0489(9) 1.2321(17) 0.051(4) Uani 1 1 d . . .
H19 H 1.0483 -0.0430 1.2507 0.061 Uiso 1 1 calc . . R
C20 C 0.9513(9) 0.0060(8) 1.1528(17) 0.043(4) Uani 1 1 d . . .
H20 H 0.9813 0.0508 1.1173 0.052 Uiso 1 1 calc . . R
O3W O 0.8941(13) 0.4842(15) 0.612(4) 0.117(13) Uani 0.50 1 d . . .
H3WA H 0.9229 0.5172 0.5578 0.176 Uiso 0.50 1 d . . R
H3WB H 0.8507 0.4684 0.5613 0.176 Uiso 0.50 1 d . . R
O4W O 0.8430(9) 0.4631(6) 0.921(2) 0.108(5) Uani 1 1 d . . .
H4WA H 0.8187 0.4179 0.9049 0.161 Uiso 1 1 d . . R
H4WB H 0.8821 0.4704 0.8537 0.161 Uiso 1 1 d . . R
O1W O 0.9584(15) 0.456(2) 1.132(3) 0.125(12) Uani 0.50 1 d . . .
H1WA H 0.9325 0.4509 1.2175 0.187 Uiso 0.50 1 d . . R
H1WB H 0.9230 0.4502 1.0576 0.187 Uiso 0.50 1 d . . R
O2W O 1.0307(9) 0.3469(8) 0.7770(17) 0.099(4) Uani 1 1 d . . .
H2WA H 1.0743 0.3164 0.7687 0.148 Uiso 1 1 d . . R
H2WB H 1.0431 0.3876 0.8326 0.148 Uiso 1 1 d . . R

loop_
_atom_site_aniso_label
_atom_site_aniso_U_11
_atom_site_aniso_U_22
_atom_site_aniso_U_33
_atom_site_aniso_U_23
_atom_site_aniso_U_13
_atom_site_aniso_U_12
Cu1 0.0674(11) 0.0309(8) 0.0273(7) 0.0031(9) 0.0088(10) 0.0106(8)
O1 0.057(6) 0.037(6) 0.038(5) 0.012(4) 0.014(5) 0.015(5)
O2 0.042(6) 0.057(6) 0.028(5) 0.010(4) -0.013(4) 0.005(5)
O3 0.089(8) 0.045(6) 0.040(6) 0.008(5) -0.001(6) -0.031(7)
O4 0.139(11) 0.036(6) 0.063(7) 0.002(6) -0.035(8) -0.003(7)
O5 0.064(7) 0.156(12) 0.026(6) 0.012(7) 0.010(6) -0.003(8)
O6 0.156(12) 0.061(7) 0.028(6) -0.010(5) 0.002(7) -0.018(8)
N1 0.039(6) 0.033(6) 0.021(5) -0.010(5) 0.002(5) 0.016(5)
N2 0.105(12) 0.046(8) 0.058(10) -0.002(7) 0.042(9) -0.015(8)
N3 0.064(9) 0.068(9) 0.032(6) -0.018(7) -0.004(7) -0.020(8)
C1 0.082(12) 0.067(11) 0.020(7) 0.012(7) -0.003(8) 0.015(10)
C2 0.046(9) 0.080(11) 0.050(10) -0.031(9) -0.009(9) 0.002(9)
C3 0.080(11) 0.074(10) 0.016(6) -0.015(10) -0.003(10) 0.008(9)
C4 0.057(10) 0.101(14) 0.021(7) 0.007(8) 0.005(7) 0.037(10)
C5 0.042(9) 0.046(9) 0.034(8) 0.001(7) 0.007(7) 0.013(7)
C6 0.072(12) 0.088(13) 0.037(12) 0.007(9) 0.026(9) 0.028(11)
C7 0.135(16) 0.040(9) 0.064(13) 0.008(8) 0.057(12) -0.003(10)
C8 0.100(13) 0.035(8) 0.039(9) 0.012(7) 0.008(9) -0.025(8)
C9 0.085(13) 0.068(12) 0.048(10) 0.019(9) 0.016(10) 0.002(11)
C10 0.142(19) 0.080(12) 0.046(15) 0.016(11) 0.016(13) -0.035(13)
C11 0.086(12) 0.060(10) 0.027(7) -0.003(8) 0.016(9) -0.022(10)
C12 0.089(12) 0.042(8) 0.026(7) -0.007(6) 0.018(8) -0.016(9)
C13 0.064(11) 0.035(8) 0.018(6) 0.011(6) 0.021(7) 0.016(8)
C14 0.114(16) 0.020(7) 0.017(6) 0.007(5) -0.016(9) -0.023(10)
C15 0.040(8) 0.017(7) 0.040(8) -0.005(6) 0.007(7) 0.004(6)
C16 0.064(10) 0.023(6) 0.021(6) -0.002(5) -0.020(6) 0.002(7)
C17 0.057(10) 0.038(8) 0.048(9) -0.009(7) -0.009(8) 0.009(7)
C18 0.073(12) 0.062(11) 0.034(9) -0.019(8) -0.014(8) 0.036(10)
C19 0.062(11) 0.051(9) 0.040(8) -0.001(8) -0.004(8) 0.005(9)
C20 0.056(10) 0.035(8) 0.039(8) -0.015(6) -0.009(7) 0.008(8)
O3W 0.026(12) 0.10(2) 0.22(4) 0.08(2) 0.019(19) 0.015(14)
O4W 0.121(10) 0.056(7) 0.146(14) 0.007(11) -0.046(13) 0.002(7)
O1W 0.066(18) 0.23(4) 0.07(2) 0.03(2) -0.022(15) 0.03(2)
O2W 0.115(11) 0.097(9) 0.084(10) 0.003(8) 0.001(9) 0.019(9)

_geom_special_details            
;
 All esds (except the esd in the dihedral angle between two l.s. planes) 
 are estimated using the full covariance matrix.  The cell esds are taken 
 into account individually in the estimation of esds in distances, angles 
 and torsion angles; correlations between esds in cell parameters are only 
 used when they are defined by crystal symmetry.  An approximate (isotropic) 
 treatment of cell esds is used for estimating esds involving l.s. planes. 
;
loop_
_geom_bond_atom_site_label_1
_geom_bond_atom_site_label_2
_geom_bond_distance
_geom_bond_site_symmetry_2
_geom_bond_publ_flag
Cu1 O1 1.934(9) . ?
Cu1 O3 1.987(10) 4_654 ?
Cu1 O6 2.296(14) . ?
Cu1 N1 2.036(12) . ?
Cu1 N3 2.032(14) 3_456 ?
O1 C13 1.303(16) . ?
O2 C13 1.214(17) . ?
O3 Cu1 1.987(10) 4_645 ?
O3 C14 1.23(2) . ?
O4 C14 1.28(2) . ?
O5 C6 1.24(2) . ?
N1 C1 1.299(19) . ?
N1 C5 1.301(17) . ?
N2 C6 1.30(2) . ?
N2 C7 1.503(19) . ?
N3 Cu1 2.032(14) 3_554 ?
N3 C8 1.37(2) . ?
N3 C12 1.33(2) . ?
C1 C2 1.36(2) . ?
C2 C3 1.34(2) . ?
C3 C4 1.39(2) . ?
C4 C5 1.44(2) . ?
C4 C6 1.54(2) . ?
C7 C11 1.42(2) . ?
C8 C9 1.37(2) . ?
C9 C10 1.46(3) . ?
C10 C11 1.42(2) . ?
C11 C12 1.37(2) . ?
C13 C15 1.537(18) . ?
C14 C17 1.58(2) . ?
C15 C16 1.377(17) . ?
C15 C20 1.384(18) . ?
C16 C17 1.361(17) . ?
C17 C18 1.42(2) . ?
C18 C19 1.32(2) . ?
C19 C20 1.319(19) . ?

loop_
_geom_angle_atom_site_label_1
_geom_angle_atom_site_label_2
_geom_angle_atom_site_label_3
_geom_angle
_geom_angle_site_symmetry_1
_geom_angle_site_symmetry_3
_geom_angle_publ_flag
O1 Cu1 O3 174.7(6) . 4_654 ?
O1 Cu1 O6 86.5(4) . . ?
O1 Cu1 N1 92.8(4) . . ?
O1 Cu1 N3 90.3(5) . 3_456 ?
O3 Cu1 O6 88.3(5) 4_654 . ?
O3 Cu1 N1 88.5(5) 4_654 . ?
O3 Cu1 N3 89.4(5) 4_654 3_456 ?
N1 Cu1 O6 96.2(4) . . ?
N3 Cu1 O6 94.7(5) 3_456 . ?
N3 Cu1 N1 168.8(5) 3_456 . ?
C13 O1 Cu1 122.1(9) . . ?
C14 O3 Cu1 105.7(10) . 4_645 ?
C1 N1 Cu1 121.3(10) . . ?
C1 N1 C5 120.2(13) . . ?
C5 N1 Cu1 118.3(9) . . ?
C6 N2 C7 117.3(14) . . ?
C8 N3 Cu1 117.5(11) . 3_554 ?
C12 N3 Cu1 120.3(11) . 3_554 ?
C12 N3 C8 122.1(13) . . ?
N1 C1 C2 125.6(17) . . ?
C3 C2 C1 115.6(17) . . ?
C2 C3 C4 122.0(15) . . ?
C3 C4 C5 116.6(15) . . ?
C3 C4 C6 124.0(14) . . ?
C5 C4 C6 119