####################################################################### 
# 
# This file contains crystal structure data downloaded from the 
# Cambridge Structural Database (CSD) hosted by the Cambridge 
# Crystallographic Data Centre (CCDC).
# 
# Full information about CCDC data access policies and citation 
# guidelines are available at http://www.ccdc.cam.ac.uk/access/V1 
# 
# Audit and citation data items may have been added by the CCDC. 
# Please retain this information to preserve the provenance of 
# this file and to allow appropriate attribution of the data. 
# 
#######################################################################

data_130410em
_audit_block_doi                 10.5517/cc12s4kk
_database_code_depnum_ccdc_archive 'CCDC 1006308'
loop_
_citation_id
_citation_doi
_citation_year
1 10.1016/j.molstruc.2014.12.014 2015
_audit_update_record             
;
2014-06-04 deposited with the CCDC.	2024-07-13 downloaded from the CCDC.
;

_audit_creation_method           SHELXL-97
_chemical_name_systematic        
; 
 ? 
;
_chemical_name_common            ?
_chemical_melting_point          ?
_chemical_formula_moiety         ?
_chemical_formula_sum            'C37 H37 Cd N3 O8'
_chemical_formula_weight         764.11

loop_
_atom_type_symbol
_atom_type_description
_atom_type_scat_dispersion_real
_atom_type_scat_dispersion_imag
_atom_type_scat_source
C C 0.0033 0.0016 'International Tables Vol C Tables 4.2.6.8 and 6.1.1.4'
H H 0.0000 0.0000 'International Tables Vol C Tables 4.2.6.8 and 6.1.1.4'
Cd Cd -0.8075 1.2024 'International Tables Vol C Tables 4.2.6.8 and 6.1.1.4'
N N 0.0061 0.0033 'International Tables Vol C Tables 4.2.6.8 and 6.1.1.4'
O O 0.0106 0.0060 'International Tables Vol C Tables 4.2.6.8 and 6.1.1.4'

_symmetry_cell_setting           Triclinic
_symmetry_space_group_name_H-M   P-1

loop_
_symmetry_equiv_pos_as_xyz
'x, y, z'
'-x, -y, -z'

_cell_length_a                   10.128(6)
_cell_length_b                   12.648(7)
_cell_length_c                   15.467(9)
_cell_angle_alpha                106.916(8)
_cell_angle_beta                 104.122(9)
_cell_angle_gamma                104.247(8)
_cell_volume                     1727.6(17)
_cell_formula_units_Z            2
_cell_measurement_temperature    293(2)
_cell_measurement_reflns_used    1024
_cell_measurement_theta_min      2.189
_cell_measurement_theta_max      21.722

_exptl_crystal_description       block
_exptl_crystal_colour            colourless
_exptl_crystal_size_max          0.15
_exptl_crystal_size_mid          0.11
_exptl_crystal_size_min          0.09
_exptl_crystal_density_meas      ?
_exptl_crystal_density_diffrn    1.469
_exptl_crystal_density_method    'not measured'
_exptl_crystal_F_000             784
_exptl_absorpt_coefficient_mu    0.689
_exptl_absorpt_correction_type   multi-scan
_exptl_absorpt_correction_T_min  0.913
_exptl_absorpt_correction_T_max  0.940
_exptl_absorpt_process_details   sadabs

_exptl_special_details           
; 
 ? 
;

_diffrn_ambient_temperature      293(2)
_diffrn_radiation_wavelength     0.71073
_diffrn_radiation_type           MoK\a
_diffrn_radiation_source         'fine-focus sealed tube'
_diffrn_radiation_monochromator  graphite
_diffrn_measurement_device_type  'CCD area detector'
_diffrn_measurement_method       'phi and omega scans'
_diffrn_detector_area_resol_mean ?
_diffrn_standards_number         ?
_diffrn_standards_interval_count ?
_diffrn_standards_interval_time  ?
_diffrn_standards_decay_%        ?
_diffrn_reflns_number            9082
_diffrn_reflns_av_R_equivalents  0.0614
_diffrn_reflns_av_sigmaI/netI    0.1362
_diffrn_reflns_limit_h_min       -10
_diffrn_reflns_limit_h_max       12
_diffrn_reflns_limit_k_min       -14
_diffrn_reflns_limit_k_max       15
_diffrn_reflns_limit_l_min       -18
_diffrn_reflns_limit_l_max       18
_diffrn_reflns_theta_min         1.46
_diffrn_reflns_theta_max         25.50
_reflns_number_total             6303
_reflns_number_gt                4094
_reflns_threshold_expression     >2sigma(I)

_computing_data_collection       'Bruker SMART'
_computing_cell_refinement       'Bruker SMART'
_computing_data_reduction        'Bruker SAINT'
_computing_structure_solution    'SHELXS-97 (Sheldrick, 1990)'
_computing_structure_refinement  'SHELXL-97 (Sheldrick, 1997)'
_computing_molecular_graphics    'Bruker SHELXTL'
_computing_publication_material  'Bruker SHELXTL'

_refine_special_details          
; 
 Refinement of F^2^ against ALL reflections.  The weighted R-factor wR and 
 goodness of fit S are based on F^2^, conventional R-factors R are based 
 on F, with F set to zero for negative F^2^. The threshold expression of 
 F^2^ > 2sigma(F^2^) is used only for calculating R-factors(gt) etc. and is 
 not relevant to the choice of reflections for refinement.  R-factors based 
 on F^2^ are statistically about twice as large as those based on F, and R- 
 factors based on ALL data will be even larger. 
;

_refine_ls_structure_factor_coef Fsqd
_refine_ls_matrix_type           full
_refine_ls_weighting_scheme      calc
_refine_ls_weighting_details     
'calc w=1/[\s^2^(Fo^2^)+(0.0721P)^2^+0.0000P] where P=(Fo^2^+2Fc^2^)/3'
_atom_sites_solution_primary     direct
_atom_sites_solution_secondary   difmap
_atom_sites_solution_hydrogens   geom
_refine_ls_hydrogen_treatment    constr
_refine_ls_extinction_method     none
_refine_ls_extinction_coef       ?
_refine_ls_number_reflns         6303
_refine_ls_number_parameters     446
_refine_ls_number_restraints     4
_refine_ls_R_factor_all          0.1119
_refine_ls_R_factor_gt           0.0695
_refine_ls_wR_factor_ref         0.1647
_refine_ls_wR_factor_gt          0.1420
_refine_ls_goodness_of_fit_ref   0.960
_refine_ls_restrained_S_all      0.963
_refine_ls_shift/su_max          0.033
_refine_ls_shift/su_mean         0.001

loop_
_atom_site_label
_atom_site_type_symbol
_atom_site_fract_x
_atom_site_fract_y
_atom_site_fract_z
_atom_site_U_iso_or_equiv
_atom_site_adp_type
_atom_site_occupancy
_atom_site_symmetry_multiplicity
_atom_site_calc_flag
_atom_site_refinement_flags
_atom_site_disorder_assembly
_atom_site_disorder_group
O3 O 0.2676(5) -0.0208(5) -0.1183(4) 0.0481(14) Uani 1 1 d . . .
Cd1 Cd 0.53107(6) 0.03352(5) 0.14654(4) 0.03042(19) Uani 1 1 d . . .
O1 O 0.6001(6) 0.0046(4) 0.2886(3) 0.0428(13) Uani 1 1 d . . .
O2 O 0.4063(6) 0.0588(4) 0.2755(4) 0.0421(13) Uani 1 1 d . . .
O4 O 0.3900(5) 0.0827(4) 0.0372(4) 0.0405(13) Uani 1 1 d . . .
O9 O -0.3994(5) -0.3343(5) 0.1415(4) 0.0493(14) Uani 1 1 d . . .
O10 O 1.4129(5) 0.5914(4) 0.2465(4) 0.0438(13) Uani 1 1 d . . .
N1 N 0.3539(6) -0.1505(5) 0.0731(4) 0.0315(14) Uani 1 1 d . . .
N2 N 0.6462(6) 0.2361(5) 0.2167(4) 0.0371(15) Uani 1 1 d . . .
C11 C -0.0192(8) -0.2148(6) 0.1614(5) 0.0371(18) Uani 1 1 d . . .
H11 H 0.0689 -0.1605 0.2059 0.045 Uiso 1 1 calc R . .
C37 C 0.1314(7) 0.0166(6) -0.0164(5) 0.0301(16) Uani 1 1 d . . .
C29 C 0.2741(8) 0.0290(7) -0.0330(6) 0.0350(18) Uani 1 1 d . . .
C20 C 0.8549(8) 0.4089(7) 0.2629(6) 0.0382(18) Uani 1 1 d . . .
C28 C 0.6205(8) 0.0041(7) 0.4728(6) 0.045(2) Uani 1 1 d . . .
H28 H 0.7021 0.0065 0.4549 0.055 Uiso 1 1 calc R . .
C31 C 0.0028(8) -0.0591(7) -0.0884(5) 0.0396(19) Uani 1 1 d . . .
H31 H 0.0042 -0.1003 -0.1485 0.048 Uiso 1 1 calc R . .
C9 C -0.2722(8) -0.3098(7) 0.1227(6) 0.0413(19) Uani 1 1 d . . .
C26 C 0.5016(9) 0.0140(6) 0.4139(5) 0.0387(19) Uani 1 1 d . . .
C25 C 0.5003(9) 0.0261(6) 0.3195(5) 0.0399(19) Uani 1 1 d . . .
C1 C 0.3713(8) -0.2428(7) 0.0157(5) 0.0393(19) Uani 1 1 d . . .
H1A H 0.4595 -0.2341 0.0055 0.047 Uiso 1 1 calc R . .
C17 C 1.0053(8) 0.4609(6) 0.2645(6) 0.0398(19) Uani 1 1 d . . .
C4 C 0.1115(8) -0.2693(6) 0.0473(5) 0.0344(17) Uani 1 1 d . . .
C21 C 0.7828(7) 0.2876(6) 0.2243(5) 0.0357(18) Uani 1 1 d . . .
H21 H 0.8333 0.2393 0.2025 0.043 Uiso 1 1 calc R . .
C6 C -0.0234(8) -0.2787(7) 0.0714(6) 0.0377(18) Uani 1 1 d . . .
C10 C -0.1410(8) -0.2282(6) 0.1883(6) 0.0382(18) Uani 1 1 d . . .
H10 H -0.1349 -0.1831 0.2495 0.046 Uiso 1 1 calc R . .
C16 C 1.1020(8) 0.4003(7) 0.2666(6) 0.043(2) Uani 1 1 d . . .
H16 H 1.0752 0.3270 0.2714 0.052 Uiso 1 1 calc R . .
C27 C 0.3803(9) 0.0093(7) 0.4412(6) 0.047(2) Uani 1 1 d . . .
H27 H 0.2991 0.0152 0.4018 0.056 Uiso 1 1 calc R . .
C5 C 0.2271(8) -0.1639(6) 0.0889(5) 0.0364(18) Uani 1 1 d . . .
H5 H 0.2162 -0.0990 0.1300 0.044 Uiso 1 1 calc R . .
C30 C 0.1272(8) 0.0744(7) 0.0725(5) 0.0404(19) Uani 1 1 d . . .
H30 H 0.2128 0.1243 0.1223 0.048 Uiso 1 1 calc R . .
C2 C 0.2622(9) -0.3525(7) -0.0298(5) 0.043(2) Uani 1 1 d . . .
H2 H 0.2758 -0.4159 -0.0707 0.052 Uiso 1 1 calc R . .
C22 C 0.5739(8) 0.3055(7) 0.2466(6) 0.053(2) Uani 1 1 d . . .
H22 H 0.4782 0.2713 0.2409 0.064 Uiso 1 1 calc R . .
C8 C -0.2812(8) -0.3720(7) 0.0297(6) 0.049(2) Uani 1 1 d . . .
H8 H -0.3701 -0.4231 -0.0159 0.059 Uiso 1 1 calc R . .
C24 C 0.7781(9) 0.4785(8) 0.2951(7) 0.057(2) Uani 1 1 d . . .
H24 H 0.8222 0.5599 0.3227 0.068 Uiso 1 1 calc R . .
C7 C -0.1570(9) -0.3574(7) 0.0056(6) 0.050(2) Uani 1 1 d . . .
H7 H -0.1629 -0.4012 -0.0559 0.060 Uiso 1 1 calc R . .
C18 C 1.0486(8) 0.5691(7) 0.2568(6) 0.050(2) Uani 1 1 d . . .
H18 H 0.9852 0.6112 0.2543 0.060 Uiso 1 1 calc R . .
C3 C 0.1326(8) -0.3643(7) -0.0122(6) 0.043(2) Uani 1 1 d . . .
H3 H 0.0588 -0.4371 -0.0408 0.052 Uiso 1 1 calc R . .
C13 C 1.4586(8) 0.7051(6) 0.2416(6) 0.043(2) Uani 1 1 d . . .
H13A H 1.4577 0.7637 0.2980 0.051 Uiso 1 1 calc R . .
H13B H 1.3921 0.7065 0.1853 0.051 Uiso 1 1 calc R . .
C23 C 0.6364(9) 0.4278(8) 0.2863(8) 0.067(3) Uani 1 1 d . . .
H23 H 0.5831 0.4743 0.3065 0.080 Uiso 1 1 calc R . .
O5 O 1.0546(16) 0.2053(14) 0.5918(10) 0.179(5) Uani 1 1 d D . .
N3 N 0.9623(11) 0.1740(11) 0.4476(10) 0.116(5) Uani 1 1 d D . .
C32 C 0.9589(16) 0.1008(14) 0.3523(10) 0.129(5) Uani 1 1 d . . .
H32A H 1.0266 0.1466 0.3319 0.193 Uiso 1 1 calc R . .
H32B H 0.8631 0.0745 0.3065 0.193 Uiso 1 1 calc R . .
H32C H 0.9847 0.0340 0.3568 0.193 Uiso 1 1 calc R . .
C33 C 0.8979(16) 0.2680(13) 0.4589(9) 0.129(6) Uani 1 1 d . . .
H33A H 0.8790 0.2860 0.5184 0.193 Uiso 1 1 calc R . .
H33B H 0.8088 0.2420 0.4064 0.193 Uiso 1 1 calc R . .
H33C H 0.9641 0.3371 0.4591 0.193 Uiso 1 1 calc R . .
O6 O 0.2903(9) 0.2305(7) 0.3408(5) 0.080(2) Uani 1 1 d D . .
H6 H 0.3194 0.1746 0.3310 0.120 Uiso 1 1 calc R . .
C14 C 1.2788(8) 0.5548(6) 0.2539(5) 0.0373(18) Uani 1 1 d . . .
C12 C -0.3929(8) -0.2667(7) 0.2364(6) 0.048(2) Uani 1 1 d . . .
H12A H -0.3522 -0.1834 0.2498 0.058 Uiso 1 1 calc R . .
H12B H -0.3312 -0.2854 0.2841 0.058 Uiso 1 1 calc R . .
C15 C 1.2363(8) 0.4458(6) 0.2616(6) 0.043(2) Uani 1 1 d . . .
H15 H 1.2993 0.4034 0.2633 0.051 Uiso 1 1 calc R . .
C19 C 1.1842(9) 0.6160(7) 0.2526(6) 0.047(2) Uani 1 1 d . . .
H19 H 1.2116 0.6899 0.2488 0.056 Uiso 1 1 calc R . .
C35 C 0.3465(18) 0.3002(13) 0.4401(8) 0.145(7) Uani 1 1 d D . .
H35A H 0.3021 0.2555 0.4733 0.174 Uiso 1 1 calc R . .
H35B H 0.3171 0.3690 0.4495 0.174 Uiso 1 1 calc R . .
C36 C 0.4988(18) 0.3388(15) 0.4844(13) 0.206(11) Uani 1 1 d D . .
H36A H 0.5342 0.2774 0.4583 0.309 Uiso 1 1 calc R . .
H36B H 0.5224 0.3582 0.5524 0.309 Uiso 1 1 calc R . .
H36C H 0.5430 0.4071 0.4726 0.309 Uiso 1 1 calc R . .
C34 C 1.0494(18) 0.1411(14) 0.5157(11) 0.219(13) Uani 1 1 d D . .
H34 H 1.0920 0.0835 0.5039 0.263 Uiso 1 1 calc R . .

loop_
_atom_site_aniso_label
_atom_site_aniso_U_11
_atom_site_aniso_U_22
_atom_site_aniso_U_33
_atom_site_aniso_U_23
_atom_site_aniso_U_13
_atom_site_aniso_U_12
O3 0.033(3) 0.057(4) 0.061(4) 0.021(3) 0.029(3) 0.015(3)
Cd1 0.0232(3) 0.0379(3) 0.0366(3) 0.0200(3) 0.0166(2) 0.0074(2)
O1 0.046(3) 0.054(4) 0.044(3) 0.027(3) 0.029(3) 0.021(3)
O2 0.042(3) 0.053(4) 0.044(3) 0.028(3) 0.022(3) 0.018(3)
O4 0.024(3) 0.050(3) 0.052(3) 0.031(3) 0.012(3) 0.007(3)
O9 0.031(3) 0.048(3) 0.074(4) 0.024(3) 0.030(3) 0.010(3)
O10 0.028(3) 0.042(3) 0.075(4) 0.032(3) 0.027(3) 0.013(2)
N1 0.026(3) 0.033(4) 0.041(4) 0.020(3) 0.017(3) 0.007(3)
N2 0.029(3) 0.037(4) 0.049(4) 0.020(3) 0.020(3) 0.006(3)
C11 0.026(4) 0.032(4) 0.047(5) 0.012(4) 0.013(4) 0.001(3)
C37 0.025(4) 0.041(4) 0.030(4) 0.016(4) 0.012(3) 0.015(4)
C29 0.034(4) 0.041(5) 0.053(5) 0.033(4) 0.028(4) 0.020(4)
C20 0.024(4) 0.043(5) 0.054(5) 0.024(4) 0.019(4) 0.010(4)
C28 0.040(4) 0.058(6) 0.053(5) 0.035(5) 0.027(4) 0.015(4)
C31 0.033(4) 0.052(5) 0.038(4) 0.010(4) 0.023(4) 0.016(4)
C9 0.034(4) 0.034(5) 0.063(6) 0.025(4) 0.023(4) 0.008(4)
C26 0.053(5) 0.040(5) 0.037(4) 0.020(4) 0.026(4) 0.022(4)
C25 0.047(5) 0.031(4) 0.036(4) 0.013(4) 0.013(4) 0.003(4)
C1 0.037(4) 0.049(5) 0.048(5) 0.029(4) 0.025(4) 0.017(4)
C17 0.031(4) 0.039(5) 0.056(5) 0.021(4) 0.021(4) 0.012(4)
C4 0.034(4) 0.037(5) 0.041(4) 0.021(4) 0.019(4) 0.012(4)
C21 0.028(4) 0.039(5) 0.050(5) 0.024(4) 0.019(4) 0.014(4)
C6 0.030(4) 0.036(5) 0.052(5) 0.025(4) 0.018(4) 0.004(4)
C10 0.033(4) 0.033(4) 0.046(5) 0.016(4) 0.015(4) 0.004(4)
C16 0.033(4) 0.034(5) 0.073(6) 0.026(4) 0.025(4) 0.013(4)
C27 0.047(5) 0.060(6) 0.056(5) 0.037(5) 0.029(4) 0.026(5)
C5 0.033(4) 0.036(5) 0.050(5) 0.023(4) 0.019(4) 0.016(4)
C30 0.024(4) 0.051(5) 0.045(5) 0.017(4) 0.014(4) 0.009(4)
C2 0.058(5) 0.036(5) 0.047(5) 0.018(4) 0.032(4) 0.017(4)
C22 0.028(4) 0.052(6) 0.091(7) 0.030(5) 0.034(5) 0.015(4)
C8 0.029(4) 0.045(5) 0.064(6) 0.018(5) 0.015(4) 0.002(4)
C24 0.043(5) 0.040(5) 0.090(7) 0.021(5) 0.035(5) 0.011(4)
C7 0.045(5) 0.055(6) 0.052(5) 0.021(5) 0.023(5) 0.015(5)
C18 0.040(5) 0.037(5) 0.086(7) 0.032(5) 0.032(5) 0.015(4)
C3 0.040(4) 0.036(5) 0.058(5) 0.025(4) 0.026(4) 0.002(4)
C13 0.036(4) 0.035(5) 0.072(6) 0.030(4) 0.027(4) 0.016(4)
C23 0.044(5) 0.041(6) 0.119(9) 0.021(6) 0.038(6) 0.020(5)
O5 0.198(14) 0.224(15) 0.167(12) 0.108(12) 0.097(11) 0.080(13)
N3 0.057(6) 0.115(10) 0.135(11) 0.076(9) -0.026(7) -0.015(7)
C32 0.105(11) 0.152(14) 0.088(10) 0.028(10) 0.028(9) 0.001(10)
C33 0.120(12) 0.143(13) 0.096(10) 0.064(10) 0.002(9) 0.009(11)
O6 0.088(5) 0.078(6) 0.077(5) 0.026(4) 0.023(4) 0.043(5)
C14 0.029(4) 0.037(5) 0.049(5) 0.018(4) 0.021(4) 0.007(4)
C12 0.036(4) 0.046(5) 0.074(6) 0.030(5) 0.028(5) 0.016(4)
C15 0.030(4) 0.034(5) 0.075(6) 0.028(4) 0.024(4) 0.014(4)
C19 0.048(5) 0.037(5) 0.076(6) 0.030(5) 0.038(5) 0.018(4)
C35 0.142(15) 0.088(12) 0.145(16) 0.017(11) -0.002(13) 0.023(11)
C36 0.26(3) 0.107(14) 0.152(17) 0.010(13) -0.020(19) 0.032(17)
C34 0.085(12) 0.17(2) 0.23(3) -0.087(19) 0.031(16) -0.019(13)

_geom_special_details            
; 
 All esds (except the esd in the dihedral angle between two l.s. planes) 
 are estimated using the full covariance matrix.  The cell esds are taken 
 into account individually in the estimation of esds in distances, angles 
 and torsion angles; correlations between esds in cell parameters are only 
 used when they are defined by crystal symmetry.  An approximate (isotropic) 
 treatment of cell esds is used for estimating esds involving l.s. planes. 
;

loop_
_geom_bond_atom_site_label_1
_geom_bond_atom_site_label_2
_geom_bond_distance
_geom_bond_site_symmetry_2
_geom_bond_publ_flag
O3 C29 1.264(9) . ?
O3 Cd1 2.220(5) 2_655 ?
Cd1 O3 2.220(5) 2_655 ?
Cd1 O4 2.271(5) . ?
Cd1 O1 2.301(5) . ?
Cd1 N1 2.311(6) . ?
Cd1 N2 2.323(6) . ?
Cd1 O2 2.594(5) . ?
Cd1 C25 2.793(8) . ?
O1 C25 1.273(9) . ?
O2 C25 1.258(9) . ?
O4 C29 1.255(9) . ?
O9 C9 1.371(9) . ?
O9 C12 1.444(9) . ?
O10 C14 1.368(8) . ?
O10 C13 1.429(8) . ?
N1 C1 1.326(9) . ?
N1 C5 1.345(9) . ?
N2 C22 1.329(9) . ?
N2 C21 1.335(9) . ?
C11 C6 1.375(10) . ?
C11 C10 1.382(10) . ?
C11 H11 0.9300 . ?
C37 C30 1.373(10) . ?
C37 C31 1.382(10) . ?
C37 C29 1.507(9) . ?
C20 C24 1.378(10) . ?
C20 C21 1.396(10) . ?
C20 C17 1.494(10) . ?
C28 C26 1.379(10) . ?
C28 C27 1.391(10) 2_656 ?
C28 H28 0.9300 . ?
C31 C30 1.375(9) 2 ?
C31 H31 0.9300 . ?
C9 C10 1.385(10) . ?
C9 C8 1.392(11) . ?
C26 C27 1.387(10) . ?
C26 C25 1.508(10) . ?
C1 C2 1.393(10) . ?
C1 H1A 0.9300 . ?
C17 C18 1.380(10) . ?
C17 C16 1.384(10) . ?
C4 C3 1.384(10) . ?
C4 C5 1.388(10) . ?
C4 C6 1.489(10) . ?
C21 H21 0.9300 . ?
C6 C7 1.391(11) . ?
C10 H10 0.9300 . ?
C16 C15 1.371(10) . ?
C16 H16 0.9300 . ?
C27 C28 1.391(10) 2_656 ?
C27 H27 0.9300 . ?
C5 H5 0.9300 . ?
C30 C31 1.375(9) 2 ?
C30 H30 0.9300 . ?
C2 C3 1.385(10) . ?
C2 H2 0.9300 . ?
C22 C23 1.395(11) . ?
C22 H22 0.9300 . ?
C8 C7 1.382(11) . ?
C8 H8 0.9300 . ?
C24 C23 1.376(11) . ?
C24 H24 0.9300 . ?
C7 H7 0.9300 . ?
C18 C19 1.381(10) . ?
C18 H18 0.9300 . ?
C3 H3 0.9300 . ?
C13 C12 1.486(10) 1_765 ?
C13 H13A 0.9700 . ?
C13 H13B 0.9700 . ?
C23 H23 0.9300 . ?
O5 C34 1.199(9) . ?
N3 C34 1.430(10) . ?
N3 C32 1.481(17) . ?
N3 C33 1.479(17) . ?
C32 H32A 0.9600 . ?
C32 H32B 0.9600 . ?
C32 H32C 0.9600 . ?
C33 H33A 0.9600 . ?
C33 H33B 0.9600 . ?
C33 H33C 0.9600 . ?
O6 C35 1.414(9) . ?
O6 H6 0.8200 . ?
C14 C19 1.373(10) . ?
C14 C15 1.389(10) . ?
C12 C13 1.486(10) 1_345 ?
C12 H12A 0.9700 . ?
C12 H12B 0.9700 . ?
C15 H15 0.9300 . ?
C19 H19 0.9300 . ?
C35 C36 1.416(9) . ?
C35 H35A 0.9700 . ?
C35 H35B 0.9700 . ?
C36 H36A 0.9600 . ?
C36 H36B 0.9600 . ?
C36 H36C 0.9600 . ?
C34 H34 0.9300 . ?

loop_
_geom_angle_atom_site_label_1
_geom_angle_atom_site_label_2
_geom_angle_atom_site_label_3
_geom_angle
_geom_angle_site_symmetry_1
_geom_angle_site_symmetry_3
_geom_angle_publ_flag
C29 O3 Cd1 119.2(5) . 2_655 ?
O3 Cd1 O4 112.78(19) 2_655 . ?
O3 Cd1 O1 92.54(19) 2_655 . ?
O4 Cd1 O1 154.12(18) . . ?
O3 Cd1 N1 109.0(2) 2_655 . ?
O4 Cd1 N1 85.44(19) . . ?
O1 Cd1 N1 91.47(19) . . ?
O3 Cd1 N2 87.6(2) 2_655 . ?
O4 Cd1 N2 82.0(2) . . ?
O1 Cd1 N2 94.4(2) . . ?
N1 Cd1 N2 162.2(2) . . ?
O3 Cd1 O2 144.72(19) 2_655 . ?
O4 Cd1 O2 100.68(18) . . ?
O1 Cd1 O2 53.44(17) . . ?
N1 Cd1 O2 83.73(18) . . ?
N2 C