####################################################################### 
# 
# This file contains crystal structure data downloaded from the 
# Cambridge Structural Database (CSD) hosted by the Cambridge 
# Crystallographic Data Centre (CCDC).
# 
# Full information about CCDC data access policies and citation 
# guidelines are available at http://www.ccdc.cam.ac.uk/access/V1 
# 
# Audit and citation data items may have been added by the CCDC. 
# Please retain this information to preserve the provenance of 
# this file and to allow appropriate attribution of the data. 
# 
#######################################################################

data_x
_audit_block_doi                 10.5517/cc13yt51
_database_code_depnum_ccdc_archive 'CCDC 1041543'
_audit_update_record             
;
2014-12-30 deposited with the CCDC.	2024-07-13 downloaded from the CCDC.
;

_audit_creation_method           SHELXL-97
_chemical_name_systematic        
; 
 ? 
;
_chemical_name_common            ?
_chemical_melting_point          ?
_chemical_formula_moiety         'C30 H21 Co N6 O2'
_chemical_formula_sum            'C30 H21 Co N6 O2'
_chemical_formula_weight         561.50

loop_
_atom_type_symbol
_atom_type_description
_atom_type_scat_dispersion_real
_atom_type_scat_dispersion_imag
_atom_type_scat_source
C C 0.0033 0.0016 'International Tables Vol C Tables 4.2.6.8 and 6.1.1.4'
H H 0.0000 0.0000 'International Tables Vol C Tables 4.2.6.8 and 6.1.1.4'
Co Co 0.3494 0.9721 'International Tables Vol C Tables 4.2.6.8 and 6.1.1.4'
N N 0.0061 0.0033 'International Tables Vol C Tables 4.2.6.8 and 6.1.1.4'
O O 0.0106 0.0060 'International Tables Vol C Tables 4.2.6.8 and 6.1.1.4'

_symmetry_cell_setting           monoclinic
_symmetry_space_group_name_H-M   C2/c
_symmetry_space_group_name_Hall  '-C 2yc'

loop_
_symmetry_equiv_pos_as_xyz
'x, y, z'
'-x, y, -z+1/2'
'x+1/2, y+1/2, z'
'-x+1/2, y+1/2, -z+1/2'
'-x, -y, -z'
'x, -y, z-1/2'
'-x+1/2, -y+1/2, -z'
'x+1/2, -y+1/2, z-1/2'

_cell_length_a                   18.057(4)
_cell_length_b                   11.487(2)
_cell_length_c                   24.590(5)
_cell_angle_alpha                90.00
_cell_angle_beta                 93.60(3)
_cell_angle_gamma                90.00
_cell_volume                     5090.4(18)
_cell_formula_units_Z            4
_cell_measurement_temperature    296(2)
_cell_measurement_reflns_used    4308
_cell_measurement_theta_min      3.4
_cell_measurement_theta_max      27.6

_exptl_crystal_description       block
_exptl_crystal_colour            red
_exptl_crystal_size_max          0.20
_exptl_crystal_size_mid          0.18
_exptl_crystal_size_min          0.10
_exptl_crystal_density_meas      ?
_exptl_crystal_density_diffrn    0.733
_exptl_crystal_density_method    'not measured'
_exptl_crystal_F_000             1144
_exptl_absorpt_coefficient_mu    0.358
_exptl_absorpt_correction_type   multi-scan
_exptl_absorpt_correction_T_min  0.9319
_exptl_absorpt_correction_T_max  0.9651
_exptl_absorpt_process_details   '(SADABS; Sheldrick, 1996)'

_exptl_special_details           
; 
 ? 
;

_diffrn_ambient_temperature      296(2)
_diffrn_radiation_wavelength     0.71073
_diffrn_radiation_type           MoK\a
_diffrn_radiation_source         'fine-focus sealed tube'
_diffrn_radiation_monochromator  graphite
_diffrn_measurement_device_type  'Bruker CCD area-detector diffractometer'
_diffrn_measurement_method       '\f and \w scans'
_diffrn_detector_area_resol_mean ?
_diffrn_standards_number         0
_diffrn_standards_interval_count .
_diffrn_standards_interval_time  .
_diffrn_standards_decay_%        ?
_diffrn_reflns_number            21169
_diffrn_reflns_av_R_equivalents  0.1838
_diffrn_reflns_av_sigmaI/netI    0.1967
_diffrn_reflns_limit_h_min       -22
_diffrn_reflns_limit_h_max       22
_diffrn_reflns_limit_k_min       -14
_diffrn_reflns_limit_k_max       13
_diffrn_reflns_limit_l_min       -30
_diffrn_reflns_limit_l_max       30
_diffrn_reflns_theta_min         3.20
_diffrn_reflns_theta_max         26.00
_reflns_number_total             4987
_reflns_number_gt                2194

_reflns_threshold_expression     >2\s(I)

_computing_data_collection       'SMART (Bruker, 2007)'
_computing_cell_refinement       SMART
_computing_data_reduction        'SAINT (Bruker, 2007)'
_computing_structure_solution    'SHELXS-97 (Sheldrick, 2008)'
_computing_structure_refinement  'SHELXL-97 (Sheldrick, 2008)'
_computing_molecular_graphics    'SHELXTL (Sheldrick, 2008)'
_computing_publication_material  SHELXTL

_refine_special_details          
; 
 Refinement of F^2^ against ALL reflections.  The weighted R-factor wR and 
 goodness of fit S are based on F^2^, conventional R-factors R are based 
 on F, with F set to zero for negative F^2^. The threshold expression of 
 F^2^ > 2sigma(F^2^) is used only for calculating R-factors(gt) etc. and is 
 not relevant to the choice of reflections for refinement.  R-factors based 
 on F^2^ are statistically about twice as large as those based on F, and R- 
 factors based on ALL data will be even larger. 
;

_refine_ls_structure_factor_coef Fsqd
_refine_ls_matrix_type           full
_refine_ls_weighting_scheme      calc
_refine_ls_weighting_details     
'calc w=1/[\s^2^(Fo^2^)+(0.0500P)^2^+2.0000P] where P=(Fo^2^+2Fc^2^)/3'
_atom_sites_solution_primary     direct
_atom_sites_solution_secondary   difmap
_atom_sites_solution_hydrogens   geom
_refine_ls_hydrogen_treatment    mixed
_refine_ls_extinction_method     none
_refine_ls_extinction_coef       ?
_refine_ls_number_reflns         4987
_refine_ls_number_parameters     179
_refine_ls_number_restraints     0
_refine_ls_R_factor_all          0.1952
_refine_ls_R_factor_gt           0.0930
_refine_ls_wR_factor_ref         0.2158
_refine_ls_wR_factor_gt          0.1922
_refine_ls_goodness_of_fit_ref   1.126
_refine_ls_restrained_S_all      1.126
_refine_ls_shift/su_max          0.000
_refine_ls_shift/su_mean         0.000

loop_
_atom_site_label
_atom_site_type_symbol
_atom_site_fract_x
_atom_site_fract_y
_atom_site_fract_z
_atom_site_U_iso_or_equiv
_atom_site_adp_type
_atom_site_occupancy
_atom_site_symmetry_multiplicity
_atom_site_calc_flag
_atom_site_refinement_flags
_atom_site_disorder_assembly
_atom_site_disorder_group
Co1 Co 0.0000 0.59932(8) 0.2500 0.0407(4) Uani 1 2 d S . .
O1 O 0.1059(2) 0.5949(3) 0.28872(13) 0.0596(11) Uani 1 1 d . . .
H1A H 0.0962 0.5899 0.3220 0.089 Uiso 1 1 d R . .
N1 N 0.0454(3) 0.6010(4) 0.16938(16) 0.0480(12) Uani 1 1 d . . .
N2 N 0.1170(3) 0.5222(5) -0.1102(2) 0.0709(17) Uani 1 1 d . . .
N3 N 0.0000 0.7867(5) 0.2500 0.0508(19) Uani 1 2 d S . .
N4 N 0.0000 1.4034(6) 0.2500 0.0543(18) Uani 1 2 d S . .
C14 C 0.0000 1.1542(6) 0.2500 0.046(2) Uani 1 2 d S . .
C12 C 0.0610(3) 0.9657(5) 0.2355(2) 0.0527(17) Uani 1 1 d . . .
H12 H 0.1030 1.0051 0.2255 0.063 Uiso 1 1 calc R . .
C13 C 0.0000 1.0247(7) 0.2500 0.053(2) Uani 1 2 d S . .
C16 C -0.0622(3) 1.3404(5) 0.2410(2) 0.0474(16) Uani 1 1 d . . .
H16 H -0.1068 1.3804 0.2353 0.057 Uiso 1 1 calc R . .
C11 C 0.0589(3) 0.8473(5) 0.2362(2) 0.0562(18) Uani 1 1 d . . .
H11 H 0.1006 0.8067 0.2266 0.067 Uiso 1 1 calc R . .
C5 C 0.0806(3) 0.5826(5) 0.0600(2) 0.0475(15) Uani 1 1 d . . .
C4 C 0.0282(3) 0.6628(5) 0.0761(2) 0.0490(16) Uani 1 1 d . . .
H4 H 0.0042 0.7119 0.0506 0.059 Uiso 1 1 calc R . .
C6 C 0.0945(3) 0.5630(5) 0.0008(2) 0.0496(16) Uani 1 1 d . . .
C1 C 0.0979(3) 0.5303(5) 0.1545(2) 0.0531(16) Uani 1 1 d . . .
H1 H 0.1238 0.4873 0.1816 0.064 Uiso 1 1 calc R . .
C2 C 0.1172(3) 0.5159(5) 0.1012(2) 0.0610(18) Uani 1 1 d . . .
H2 H 0.1538 0.4629 0.0930 0.073 Uiso 1 1 calc R . .
C15 C -0.0645(4) 1.2241(5) 0.2399(2) 0.0503(16) Uani 1 1 d . . .
H15 H -0.1098 1.1875 0.2321 0.060 Uiso 1 1 calc R . .
C10 C 0.1426(4) 0.4770(6) -0.0146(2) 0.077(2) Uani 1 1 d . . .
H10 H 0.1683 0.4299 0.0109 0.092 Uiso 1 1 calc R . .
C7 C 0.0608(4) 0.6279(6) -0.0397(2) 0.070(2) Uani 1 1 d . . .
H7 H 0.0292 0.6884 -0.0316 0.084 Uiso 1 1 calc R . .
C8 C 0.0741(4) 0.6028(6) -0.0937(2) 0.071(2) Uani 1 1 d . . .
H8 H 0.0497 0.6486 -0.1204 0.085 Uiso 1 1 calc R . .
C9 C 0.1505(4) 0.4645(8) -0.0699(3) 0.102(3) Uani 1 1 d . . .
H9 H 0.1840 0.4078 -0.0797 0.122 Uiso 1 1 calc R . .
C3 C 0.0124(3) 0.6686(5) 0.1298(3) 0.0513(16) Uani 1 1 d . . .
H3 H -0.0230 0.7221 0.1396 0.062 Uiso 1 1 calc R . .

loop_
_atom_site_aniso_label
_atom_site_aniso_U_11
_atom_site_aniso_U_22
_atom_site_aniso_U_33
_atom_site_aniso_U_23
_atom_site_aniso_U_13
_atom_site_aniso_U_12
Co1 0.0647(9) 0.0240(6) 0.0333(6) 0.000 0.0020(5) 0.000
O1 0.084(3) 0.050(2) 0.044(2) -0.011(2) 0.005(2) -0.012(2)
N1 0.066(4) 0.044(3) 0.034(3) 0.001(3) 0.002(2) -0.002(3)
N2 0.090(5) 0.092(5) 0.032(3) -0.005(3) 0.007(3) -0.028(4)
N3 0.082(6) 0.024(4) 0.047(4) 0.000 0.010(4) 0.000
N4 0.075(6) 0.046(4) 0.041(4) 0.000 -0.002(4) 0.000
C14 0.078(7) 0.008(4) 0.051(5) 0.000 0.002(5) 0.000
C12 0.059(5) 0.038(4) 0.064(4) -0.005(3) 0.024(4) 0.002(3)
C13 0.086(8) 0.046(6) 0.028(5) 0.000 0.011(5) 0.000
C16 0.053(5) 0.039(4) 0.051(4) -0.001(3) 0.007(3) 0.003(3)
C11 0.057(5) 0.042(4) 0.072(5) -0.021(3) 0.018(4) 0.010(3)
C5 0.059(4) 0.047(4) 0.036(3) 0.003(3) 0.005(3) -0.004(3)
C4 0.059(5) 0.053(4) 0.036(3) 0.011(3) 0.003(3) -0.006(3)
C6 0.060(4) 0.055(4) 0.035(3) 0.006(3) 0.008(3) -0.017(3)
C1 0.058(5) 0.060(4) 0.041(4) 0.009(3) 0.000(3) 0.008(4)
C2 0.067(5) 0.072(5) 0.045(4) -0.013(3) 0.011(3) 0.006(4)
C15 0.070(5) 0.039(4) 0.043(4) -0.012(3) 0.010(3) -0.025(3)
C10 0.099(6) 0.094(5) 0.036(4) -0.011(4) -0.005(4) 0.026(5)
C7 0.098(6) 0.074(5) 0.037(4) 0.000(3) 0.010(4) 0.002(4)
C8 0.097(6) 0.073(5) 0.043(4) 0.001(4) 0.013(4) -0.005(5)
C9 0.079(6) 0.183(9) 0.044(5) -0.042(5) 0.006(4) 0.003(6)
C3 0.055(4) 0.039(3) 0.060(4) 0.002(3) 0.010(3) 0.005(3)

_geom_special_details            
; 
 All esds (except the esd in the dihedral angle between two l.s. planes) 
 are estimated using the full covariance matrix.  The cell esds are taken 
 into account individually in the estimation of esds in distances, angles 
 and torsion angles; correlations between esds in cell parameters are only 
 used when they are defined by crystal symmetry.  An approximate (isotropic) 
 treatment of cell esds is used for estimating esds involving l.s. planes. 
;

loop_
_geom_bond_atom_site_label_1
_geom_bond_atom_site_label_2
_geom_bond_distance
_geom_bond_site_symmetry_2
_geom_bond_publ_flag
Co1 O1 2.082(4) 2 ?
Co1 O1 2.082(4) . ?
Co1 N3 2.153(6) . ?
Co1 N1 2.192(4) . ?
Co1 N1 2.192(4) 2 ?
Co1 N4 2.251(7) 1_545 ?
O1 H1A 0.8499 . ?
N1 C1 1.318(6) . ?
N1 C3 1.354(6) . ?
N2 C8 1.289(7) . ?
N2 C9 1.309(8) . ?
N3 C11 1.332(6) . ?
N3 C11 1.332(6) 2 ?
N4 C16 1.343(6) . ?
N4 C16 1.343(6) 2 ?
N4 Co1 2.251(7) 1_565 ?
C14 C15 1.423(7) . ?
C14 C15 1.423(7) 2 ?
C14 C13 1.487(10) . ?
C12 C13 1.359(6) . ?
C12 C11 1.361(7) . ?
C12 H12 0.9300 . ?
C13 C12 1.359(6) 2 ?
C16 C15 1.337(7) . ?
C16 H16 0.9300 . ?
C11 H11 0.9300 . ?
C5 C4 1.397(7) . ?
C5 C2 1.403(7) . ?
C5 C6 1.508(7) . ?
C4 C3 1.369(7) . ?
C4 H4 0.9300 . ?
C6 C7 1.358(7) . ?
C6 C10 1.384(8) . ?
C1 C2 1.387(7) . ?
C1 H1 0.9300 . ?
C2 H2 0.9300 . ?
C15 H15 0.9300 . ?
C10 C9 1.384(8) . ?
C10 H10 0.9300 . ?
C7 C8 1.393(8) . ?
C7 H7 0.9300 . ?
C8 H8 0.9300 . ?
C9 H9 0.9300 . ?
C3 H3 0.9300 . ?

loop_
_geom_angle_atom_site_label_1
_geom_angle_atom_site_label_2
_geom_angle_atom_site_label_3
_geom_angle
_geom_angle_site_symmetry_1
_geom_angle_site_symmetry_3
_geom_angle_publ_flag
O1 Co1 O1 177.23(19) 2 . ?
O1 Co1 N3 91.39(10) 2 . ?
O1 Co1 N3 91.39(10) . . ?
O1 Co1 N1 88.35(15) 2 . ?
O1 Co1 N1 91.67(16) . . ?
N3 Co1 N1 89.51(13) . . ?
O1 Co1 N1 91.67(16) 2 2 ?
O1 Co1 N1 88.35(15) . 2 ?
N3 Co1 N1 89.51(13) . 2 ?
N1 Co1 N1 179.0(3) . 2 ?
O1 Co1 N4 88.61(10) 2 1_545 ?
O1 Co1 N4 88.61(10) . 1_545 ?
N3 Co1 N4 180.000(1) . 1_545 ?
N1 Co1 N4 90.49(13) . 1_545 ?
N1 Co1 N4 90.49(13) 2 1_545 ?
Co1 O1 H1A 101.8 . . ?
C1 N1 C3 116.5(5) . . ?
C1 N1 Co1 124.2(4) . . ?
C3 N1 Co1 118.9(4) . . ?
C8 N2 C9 112.6(6) . . ?
C11 N3 C11 117.0(7) . 2 ?
C11 N3 Co1 121.5(3) . . ?
C11 N3 Co1 121.5(3) 2 . ?
C16 N4 C16 114.8(7) . 2 ?
C16 N4 Co1 122.6(4) . 1_565 ?
C16 N4 Co1 122.6(4) 2 1_565 ?
C15 C14 C15 111.3(7) . 2 ?
C15 C14 C13 124.3(3) . . ?
C15 C14 C13 124.3(3) 2 . ?
C13 C12 C11 118.1(6) . . ?
C13 C12 H12 120.9 . . ?
C11 C12 H12 120.9 . . ?
C12 C13 C12 120.2(8) 2 . ?
C12 C13 C14 119.9(4) 2 . ?
C12 C13 C14 119.9(4) . . ?
C15 C16 N4 124.4(6) . . ?
C15 C16 H16 117.8 . . ?
N4 C16 H16 117.8 . . ?
N3 C11 C12 123.3(6) . . ?
N3 C11 H11 118.4 . . ?
C12 C11 H11 118.4 . . ?
C4 C5 C2 116.9(5) . . ?
C4 C5 C6 121.9(5) . . ?
C2 C5 C6 121.1(5) . . ?
C3 C4 C5 119.4(5) . . ?
C3 C4 H4 120.3 . . ?
C5 C4 H4 120.3 . . ?
C7 C6 C10 116.7(6) . . ?
C7 C6 C5 122.2(6) . . ?
C10 C6 C5 121.1(6) . . ?
N1 C1 C2 124.3(5) . . ?
N1 C1 H1 117.9 . . ?
C2 C1 H1 117.9 . . ?
C1 C2 C5 118.9(6) . . ?
C1 C2 H2 120.6 . . ?
C5 C2 H2 120.6 . . ?
C16 C15 C14 122.5(6) . . ?
C16 C15 H15 118.8 . . ?
C14 C15 H15 118.8 . . ?
C9 C10 C6 116.7(6) . . ?
C9 C10 H10 121.7 . . ?
C6 C10 H10 121.7 . . ?
C6 C7 C8 119.4(6) . . ?
C6 C7 H7 120.3 . . ?
C8 C7 H7 120.3 . . ?
N2 C8 C7 126.2(7) . . ?
N2 C8 H8 116.9 . . ?
C7 C8 H8 116.9 . . ?
N2 C9 C10 128.3(7) . . ?
N2 C9 H9 115.8 . . ?
C10 C9 H9 115.8 . . ?
N1 C3 C4 123.9(5) . . ?
N1 C3 H3 118.1 . . ?
C4 C3 H3 118.1 . . ?

loop_
_geom_torsion_atom_site_label_1
_geom_torsion_atom_site_label_2
_geom_torsion_atom_site_label_3
_geom_torsion_atom_site_label_4
_geom_torsion
_geom_torsion_site_symmetry_1
_geom_torsion_site_symmetry_2
_geom_torsion_site_symmetry_3
_geom_torsion_site_symmetry_4
_geom_torsion_publ_flag
O1 Co1 N1 C1 -130.0(4) 2 . . . ?
O1 Co1 N1 C1 47.3(5) . . . . ?
N3 Co1 N1 C1 138.6(4) . . . . ?
N1 Co1 N1 C1 138.6(4) 2 . . . ?
N4 Co1 N1 C1 -41.4(4) 1_545 . . . ?
O1 Co1 N1 C3 42.0(4) 2 . . . ?
O1 Co1 N1 C3 -140.8(4) . . . . ?
N3 Co1 N1 C3 -49.4(4) . . . . ?
N1 Co1 N1 C3 -49.4(4) 2 . . . ?
N4 Co1 N1 C3 130.6(4) 1_545 . . . ?
O1 Co1 N3 C11 -135.5(3) 2 . . . ?
O1 Co1 N3 C11 44.5(3) . . . . ?
N1 Co1 N3 C11 -47.2(3) . . . . ?
N1 Co1 N3 C11 132.8(3) 2 . . . ?
N4 Co1 N3 C11 110(100) 1_545 . . . ?
O1 Co1 N3 C11 44.5(3) 2 . . 2 ?
O1 Co1 N3 C11 -135.5(3) . . . 2 ?
N1 Co1 N3 C11 132.8(3) . . . 2 ?
N1 Co1 N3 C11 -47.2(3) 2 . . 2 ?
N4 Co1 N3 C11 -70(100) 1_545 . . 2 ?
C11 C12 C13 C12 -0.2(4) . . . 2 ?
C11 C12 C13 C14 179.8(4) . . . . ?
C15 C14 C13 C12 -29.8(4) . . . 2 ?
C15 C14 C13 C12 150.2(4) 2 . . 2 ?
C15 C14 C13 C12 150.2(4) . . . . ?
C15 C14 C13 C12 -29.8(4) 2 . . . ?
C16 N4 C16 C15 -1.1(4) 2 . . . ?
Co1 N4 C16 C15 178.9(4) 1_565 . . . ?
C11 N3 C11 C12 -0.2(4) 2 . . . ?
Co1 N3 C11 C12 179.8(4) . . . . ?
C13 C12 C11 N3 0.4(9) . . . . ?
C2 C5 C4 C3 -3.2(8) . . . . ?
C6 C5 C4 C3 173.4(5) . . . . ?
C4 C5 C6 C7 4.8(9) . . . . ?
C2 C5 C6 C7 -178.7(6) . . . . ?
C4 C5 C6 C10 -175.1(6) . . . . ?
C2 C5 C6 C10 1.4(9) . . . . ?
C3 N1 C1 C2 -4.7(8) . . . . ?
Co1 N1 C1 C2 167.5(4) . . . . ?
N1 C1 C2 C5 2.0(9) . . . . ?
C4 C5 C2 C1 2.1(8) . . . . ?
C6 C5 C2 C1 -174.6(5) . . . . ?
N4 C16 C15 C14 2.2(8) . . . . ?
C15 C14 C15 C16 -1.0(4) 2 . . . ?
C13 C14 C15 C16 179.0(4) . . . . ?
C7 C6 C10 C9 -1.0(9) . . . . ?
C5 C6 C10 C9 178.8(6) . . . . ?
C10 C6 C7 C8 2.0(9) . . . . ?
C5 C6 C7 C8 -177.8(5) . . . . ?
C9 N2 C8 C7 -1.8(10) . . . . ?
C6 C7 C8 N2 -0.6(11) . . . . ?
C8 N2 C9 C10 3.0(11) . . . . ?
C6 C10 C9 N2 -1.7(12) . . . . ?
C1 N1 C3 C4 3.3(8) . . . . ?
Co1 N1 C3 C4 -169.2(4) . . . . ?
C5 C4 C3 N1 0.6(9) . . . . ?

loop_
_geom_hbond_atom_site_label_D
_geom_hbond_atom_site_label_H
_geom_hbond_atom_site_label_A
_geom_hbond_distance_DH
_geom_hbond_distance_HA
_geom_hbond_distance_DA
_geom_hbond_angle_DHA
_geom_hbond_site_symmetry_A
O1 H1A N2 0.85 2.12 2.822(6) 139.6 6_566

_diffrn_measured_fraction_theta_max 0.997
_diffrn_reflns_theta_full        26.00
_diffrn_measured_fraction_theta_full 0.997
_refine_diff_density_max         0.565
_refine_diff_density_min         -0.258
_refine_diff_density_rms         0.077
