####################################################################### 
# 
# This file contains crystal structure data downloaded from the 
# Cambridge Structural Database (CSD) hosted by the Cambridge 
# Crystallographic Data Centre (CCDC).
# 
# Full information about CCDC data access policies and citation 
# guidelines are available at http://www.ccdc.cam.ac.uk/access/V1 
# 
# Audit and citation data items may have been added by the CCDC. 
# Please retain this information to preserve the provenance of 
# this file and to allow appropriate attribution of the data. 
# 
#######################################################################

data_compound_1
_audit_block_doi                 10.5517/ccs7rj8
_database_code_depnum_ccdc_archive 'CCDC 722440'
loop_
_citation_id
_citation_doi
_citation_year
1 10.1039/b907839h 2009
_audit_update_record             
;
2009-03-03 deposited with the CCDC.	2024-07-13 downloaded from the CCDC.
;

_audit_creation_method           SHELXL-97
_chemical_name_systematic        
;
?
;
_chemical_name_common            ?
_chemical_melting_point          ?
_chemical_formula_moiety         ?
_chemical_formula_sum            'C480 H400 Cd24 N80 O160'
_chemical_formula_weight         12546.66

loop_
_atom_type_symbol
_atom_type_description
_atom_type_scat_dispersion_real
_atom_type_scat_dispersion_imag
_atom_type_scat_source
C C 0.0033 0.0016 'International Tables Vol C Tables 4.2.6.8 and 6.1.1.4'
H H 0.0000 0.0000 'International Tables Vol C Tables 4.2.6.8 and 6.1.1.4'
N N 0.0061 0.0033 'International Tables Vol C Tables 4.2.6.8 and 6.1.1.4'
O O 0.0106 0.0060 'International Tables Vol C Tables 4.2.6.8 and 6.1.1.4'
Cd Cd -0.8075 1.2024 'International Tables Vol C Tables 4.2.6.8 and 6.1.1.4'

_symmetry_cell_setting           Orthorhombic
_symmetry_space_group_name_H-M   Pbca

loop_
_symmetry_equiv_pos_as_xyz
'x, y, z'
'-x+1/2, -y, z+1/2'
'-x, y+1/2, -z+1/2'
'x+1/2, -y+1/2, -z'
'-x, -y, -z'
'x-1/2, y, -z-1/2'
'x, -y-1/2, z-1/2'
'-x-1/2, y-1/2, z'

_cell_length_a                   17.0131(6)
_cell_length_b                   13.5953(5)
_cell_length_c                   51.887(2)
_cell_angle_alpha                90.00
_cell_angle_beta                 90.00
_cell_angle_gamma                90.00
_cell_volume                     12001.4(8)
_cell_formula_units_Z            1
_cell_measurement_temperature    186(2)
_cell_measurement_reflns_used    838
_cell_measurement_theta_min      0.78
_cell_measurement_theta_max      26.03

_exptl_crystal_description       block
_exptl_crystal_colour            yellow
_exptl_crystal_size_max          0.24
_exptl_crystal_size_mid          0.15
_exptl_crystal_size_min          0.13
_exptl_crystal_density_meas      ?
_exptl_crystal_density_diffrn    1.736
_exptl_crystal_density_method    'not measured'
_exptl_crystal_F_000             6272
_exptl_absorpt_coefficient_mu    1.140
_exptl_absorpt_correction_type   multi-scan
_exptl_absorpt_correction_T_min  0.814
_exptl_absorpt_correction_T_max  0.862
_exptl_absorpt_process_details   'ABSCOR by T.Higashi 8 March, 1995'

_exptl_special_details           
;
?
;

_diffrn_ambient_temperature      186(2)
_diffrn_radiation_wavelength     0.71073
_diffrn_radiation_type           MoK\a
_diffrn_radiation_source         'fine-focus sealed tube'
_diffrn_radiation_monochromator  graphite
_diffrn_measurement_device_type  'Rigaku RAXIS RAPID IP'
_diffrn_measurement_method       Oscillation
_diffrn_detector_area_resol_mean ?
_diffrn_reflns_number            76538
_diffrn_reflns_av_R_equivalents  0.0600
_diffrn_reflns_av_sigmaI/netI    0.0372
_diffrn_reflns_limit_h_min       -21
_diffrn_reflns_limit_h_max       18
_diffrn_reflns_limit_k_min       -16
_diffrn_reflns_limit_k_max       16
_diffrn_reflns_limit_l_min       -64
_diffrn_reflns_limit_l_max       64
_diffrn_reflns_theta_min         0.78
_diffrn_reflns_theta_max         26.03
_reflns_number_total             11820
_reflns_number_gt                9570
_reflns_threshold_expression     >2sigma(I)

_computing_data_collection       'RAPID AUTO'
_computing_cell_refinement       'RAPID AUTO'
_computing_data_reduction        'RAPID AUTO'
_computing_structure_solution    'SHELXS-97 (Sheldrick, 2008)'
_computing_structure_refinement  'SHELXL-97 (Sheldrick, 2008)'
_computing_molecular_graphics    ?
_computing_publication_material  ?

_refine_special_details          
;
Refinement of F^2^ against ALL reflections. The weighted R-factor wR and
goodness of fit S are based on F^2^, conventional R-factors R are based
on F, with F set to zero for negative F^2^. The threshold expression of
F^2^ > 2sigma(F^2^) is used only for calculating R-factors(gt) etc. and is
not relevant to the choice of reflections for refinement. R-factors based
on F^2^ are statistically about twice as large as those based on F, and R-
factors based on ALL data will be even larger.
;

_refine_ls_structure_factor_coef Fsqd
_refine_ls_matrix_type           full
_refine_ls_weighting_scheme      calc
_refine_ls_weighting_details     
'calc w=1/[\s^2^(Fo^2^)+(0.0481P)^2^+10.1130P] where P=(Fo^2^+2Fc^2^)/3'
_atom_sites_solution_primary     direct
_atom_sites_solution_secondary   difmap
_atom_sites_solution_hydrogens   geom
_refine_ls_hydrogen_treatment    constr
_refine_ls_extinction_method     none
_refine_ls_extinction_coef       ?
_refine_ls_number_reflns         11820
_refine_ls_number_parameters     838
_refine_ls_number_restraints     0
_refine_ls_R_factor_all          0.0544
_refine_ls_R_factor_gt           0.0389
_refine_ls_wR_factor_ref         0.1065
_refine_ls_wR_factor_gt          0.0928
_refine_ls_goodness_of_fit_ref   1.172
_refine_ls_restrained_S_all      1.172
_refine_ls_shift/su_max          0.003
_refine_ls_shift/su_mean         0.000

loop_
_atom_site_label
_atom_site_type_symbol
_atom_site_fract_x
_atom_site_fract_y
_atom_site_fract_z
_atom_site_U_iso_or_equiv
_atom_site_adp_type
_atom_site_occupancy
_atom_site_symmetry_multiplicity
_atom_site_calc_flag
_atom_site_refinement_flags
_atom_site_disorder_assembly
_atom_site_disorder_group
Cd1 Cd 1.519718(17) -0.67863(2) -0.171446(5) 0.01842(8) Uani 1 1 d . . .
Cd2 Cd 1.475974(17) -0.40476(2) -0.166773(5) 0.01898(8) Uani 1 1 d . . .
Cd3 Cd 1.997150(17) -0.36024(2) -0.008715(5) 0.01861(8) Uani 1 1 d . . .
N1 N 1.6089(2) -0.3919(3) -0.17627(6) 0.0209(8) Uani 1 1 d . . .
N2 N 1.54122(19) -0.4103(3) -0.12846(6) 0.0198(7) Uani 1 1 d . . .
N3 N 1.6568(2) -0.6564(3) -0.17485(6) 0.0205(8) Uani 1 1 d . . .
N4 N 1.57231(19) -0.6699(2) -0.13044(6) 0.0186(7) Uani 1 1 d . . .
N5 N 1.8068(2) -0.4228(3) -0.09241(6) 0.0217(8) Uani 1 1 d . . .
N6 N 1.86388(19) -0.4155(3) -0.13134(6) 0.0200(8) Uani 1 1 d . . .
H6A H 1.9009 -0.4139 -0.1432 0.024 Uiso 1 1 calc R . .
N7 N 1.8235(2) -0.6766(3) -0.08344(6) 0.0215(8) Uani 1 1 d . . .
N8 N 1.89434(19) -0.6690(3) -0.11987(6) 0.0190(7) Uani 1 1 d . . .
H8B H 1.9356 -0.6664 -0.1301 0.023 Uiso 1 1 calc R . .
N9 N 2.0158(2) -0.4018(3) -0.05144(7) 0.0226(8) Uani 1 1 d . . .
N10 N 2.0202(2) -0.6620(3) -0.03516(7) 0.0225(8) Uani 1 1 d . . .
O1 O 1.48256(16) -0.1966(2) -0.15610(6) 0.0263(7) Uani 1 1 d . . .
O2 O 1.38257(17) -0.3012(2) -0.15521(7) 0.0321(8) Uani 1 1 d . . .
O3 O 1.41813(17) -0.5454(2) -0.15181(6) 0.0289(7) Uani 1 1 d . . .
O4 O 1.38778(18) -0.6899(3) -0.16805(7) 0.0380(9) Uani 1 1 d . . .
O5 O 1.44297(19) -0.4164(3) -0.20825(6) 0.0346(8) Uani 1 1 d . . .
O6 O 1.50936(18) -0.5535(2) -0.20068(6) 0.0322(8) Uani 1 1 d . . .
O7 O 1.4795(2) -0.2827(2) -0.29546(6) 0.0345(8) Uani 1 1 d . . .
O8 O 1.47276(18) -0.3795(3) -0.32951(5) 0.0346(8) Uani 1 1 d . . .
O9 O 2.39216(16) -0.2360(2) 0.01581(6) 0.0252(7) Uani 1 1 d . . .
O10 O 2.49406(17) -0.3357(3) 0.01756(7) 0.0333(8) Uani 1 1 d . . .
O11 O 2.12987(17) -0.3532(2) -0.00287(6) 0.0249(7) Uani 1 1 d . . .
O12 O 2.09381(16) -0.5049(2) 0.00583(6) 0.0267(7) Uani 1 1 d . . .
C1 C 1.6403(3) -0.3847(3) -0.19973(8) 0.0255(10) Uani 1 1 d . . .
H1A H 1.6062 -0.3757 -0.2140 0.031 Uiso 1 1 calc R . .
C2 C 1.7207(3) -0.3897(3) -0.20418(8) 0.0270(10) Uani 1 1 d . . .
H2A H 1.7408 -0.3856 -0.2212 0.032 Uiso 1 1 calc R . .
C3 C 1.7705(2) -0.4007(3) -0.18361(8) 0.0233(9) Uani 1 1 d . . .
H3A H 1.8256 -0.4050 -0.1863 0.028 Uiso 1 1 calc R . .
C4 C 1.7394(2) -0.4057(3) -0.15853(7) 0.0184(9) Uani 1 1 d . . .
C5 C 1.7839(2) -0.4144(3) -0.13531(8) 0.0184(9) Uani 1 1 d . . .
C6 C 1.8740(2) -0.4197(3) -0.10515(7) 0.0200(9) Uani 1 1 d . . .
C7 C 1.9504(2) -0.4157(3) -0.09231(8) 0.0210(9) Uani 1 1 d . . .
C8 C 2.0218(3) -0.4084(4) -0.10503(9) 0.0304(11) Uani 1 1 d . . .
H8A H 2.0239 -0.4093 -0.1233 0.036 Uiso 1 1 calc R . .
C9 C 2.0899(3) -0.3999(4) -0.09061(9) 0.0355(12) Uani 1 1 d . . .
H9A H 2.1397 -0.3963 -0.0988 0.043 Uiso 1 1 calc R . .
C10 C 2.0844(3) -0.3966(4) -0.06416(8) 0.0305(11) Uani 1 1 d . . .
H10A H 2.1314 -0.3903 -0.0544 0.037 Uiso 1 1 calc R . .
C11 C 1.9507(2) -0.4127(3) -0.06546(8) 0.0226(9) Uani 1 1 d . . .
H11A H 1.9019 -0.4187 -0.0567 0.027 Uiso 1 1 calc R . .
C12 C 1.7503(2) -0.4191(3) -0.11122(8) 0.0207(9) Uani 1 1 d . . .
C13 C 1.6670(2) -0.4170(3) -0.10779(7) 0.0200(9) Uani 1 1 d . . .
C14 C 1.6297(3) -0.4217(3) -0.08368(8) 0.0255(10) Uani 1 1 d . . .
H14A H 1.6599 -0.4257 -0.0683 0.031 Uiso 1 1 calc R . .
C15 C 1.5492(3) -0.4203(3) -0.08251(8) 0.0289(10) Uani 1 1 d . . .
H15A H 1.5229 -0.4227 -0.0664 0.035 Uiso 1 1 calc R . .
C16 C 1.5066(3) -0.4153(4) -0.10546(8) 0.0264(10) Uani 1 1 d . . .
H16A H 1.4508 -0.4154 -0.1047 0.032 Uiso 1 1 calc R . .
C17 C 1.6202(2) -0.4103(3) -0.13007(7) 0.0182(9) Uani 1 1 d . . .
C18 C 1.6568(2) -0.4033(3) -0.15570(7) 0.0181(8) Uani 1 1 d . . .
C19 C 1.6962(3) -0.6475(3) -0.19687(8) 0.0258(10) Uani 1 1 d . . .
H19A H 1.6675 -0.6419 -0.2125 0.031 Uiso 1 1 calc R . .
C20 C 1.7782(3) -0.6459(4) -0.19785(8) 0.0266(10) Uani 1 1 d . . .
H20A H 1.8045 -0.6385 -0.2139 0.032 Uiso 1 1 calc R . .
C21 C 1.8203(2) -0.6550(3) -0.17555(8) 0.0214(9) Uani 1 1 d . . .
H21A H 1.8762 -0.6558 -0.1760 0.026 Uiso 1 1 calc R . .
C22 C 1.7803(2) -0.6634(3) -0.15198(8) 0.0179(9) Uani 1 1 d . . .
C23 C 1.8164(2) -0.6696(3) -0.12713(8) 0.0189(9) Uani 1 1 d . . .
C24 C 1.8946(2) -0.6730(3) -0.09350(7) 0.0202(9) Uani 1 1 d . . .
C25 C 1.9666(2) -0.6700(3) -0.07779(8) 0.0203(9) Uani 1 1 d . . .
C26 C 2.0423(3) -0.6649(4) -0.08802(9) 0.0321(11) Uani 1 1 d . . .
H26A H 2.0503 -0.6648 -0.1061 0.039 Uiso 1 1 calc R . .
C27 C 2.1053(3) -0.6600(4) -0.07140(9) 0.0357(12) Uani 1 1 d . . .
H27A H 2.1574 -0.6573 -0.0780 0.043 Uiso 1 1 calc R . .
C28 C 2.0923(3) -0.6590(4) -0.04515(9) 0.0288(11) Uani 1 1 d . . .
H28A H 2.1361 -0.6560 -0.0338 0.035 Uiso 1 1 calc R . .
C29 C 1.9587(2) -0.6690(3) -0.05118(8) 0.0222(9) Uani 1 1 d . . .
H29A H 1.9074 -0.6735 -0.0440 0.027 Uiso 1 1 calc R . .
C30 C 1.7738(2) -0.6745(3) -0.10438(7) 0.0191(9) Uani 1 1 d . . .
C31 C 1.6898(2) -0.6751(3) -0.10462(7) 0.0183(9) Uani 1 1 d . . .
C32 C 1.6432(3) -0.6795(3) -0.08227(8) 0.0252(10) Uani 1 1 d . . .
H32A H 1.6671 -0.6850 -0.0658 0.030 Uiso 1 1 calc R . .
C33 C 1.5631(3) -0.6759(3) -0.08447(8) 0.0248(10) Uani 1 1 d . . .
H33A H 1.5308 -0.6767 -0.0695 0.030 Uiso 1 1 calc R . .
C34 C 1.5297(3) -0.6712(3) -0.10894(8) 0.0234(9) Uani 1 1 d . . .
H34A H 1.4741 -0.6687 -0.1103 0.028 Uiso 1 1 calc R . .
C35 C 1.6514(2) -0.6701(3) -0.12869(7) 0.0169(8) Uani 1 1 d . . .
C36 C 1.6973(2) -0.6635(3) -0.15241(8) 0.0176(9) Uani 1 1 d . . .
C37 C 1.3518(2) -0.1323(3) -0.15632(8) 0.0212(9) Uani 1 1 d . . .
C38 C 1.3755(3) -0.0349(3) -0.15524(9) 0.0309(11) Uani 1 1 d . . .
H38A H 1.4298 -0.0196 -0.1536 0.037 Uiso 1 1 calc R . .
C39 C 1.3209(3) 0.0402(4) -0.15649(11) 0.0390(13) Uani 1 1 d . . .
H39A H 1.3375 0.1069 -0.1564 0.047 Uiso 1 1 calc R . .
C40 C 1.2420(3) 0.0174(4) -0.15788(10) 0.0345(11) Uani 1 1 d . . .
H40A H 1.2042 0.0689 -0.1581 0.041 Uiso 1 1 calc R . .
C41 C 1.2169(2) -0.0802(3) -0.15889(8) 0.0236(10) Uani 1 1 d . . .
C42 C 1.2728(2) -0.1548(3) -0.15844(8) 0.0227(10) Uani 1 1 d . . .
H42A H 1.2566 -0.2215 -0.1596 0.027 Uiso 1 1 calc R . .
C43 C 1.4103(2) -0.2143(3) -0.15588(7) 0.0217(9) Uani 1 1 d . . .
C44 C 1.1319(3) -0.1066(3) -0.15977(8) 0.0241(10) Uani 1 1 d . . .
C45 C 1.4781(2) -0.5155(3) -0.24411(8) 0.0244(10) Uani 1 1 d . . .
C46 C 1.4727(3) -0.4376(3) -0.26122(8) 0.0240(9) Uani 1 1 d . . .
H46A H 1.4650 -0.3727 -0.2549 0.029 Uiso 1 1 calc R . .
C47 C 1.4785(2) -0.4537(3) -0.28744(8) 0.0221(9) Uani 1 1 d . . .
C48 C 1.4872(3) -0.5484(4) -0.29638(9) 0.0297(11) Uani 1 1 d . . .
H48A H 1.4899 -0.5602 -0.3144 0.036 Uiso 1 1 calc R . .
C49 C 1.4921(3) -0.6268(4) -0.27942(10) 0.0355(12) Uani 1 1 d . . .
H49A H 1.4975 -0.6919 -0.2858 0.043 Uiso 1 1 calc R . .
C50 C 1.4891(3) -0.6105(4) -0.25315(9) 0.0323(11) Uani 1 1 d . . .
H50A H 1.4945 -0.6638 -0.2414 0.039 Uiso 1 1 calc R . .
C51 C 1.4758(3) -0.4950(4) -0.21575(8) 0.0255(10) Uani 1 1 d . . .
C52 C 1.4770(2) -0.3664(4) -0.30560(8) 0.0236(10) Uani 1 1 d . . .
C53 C 2.3649(2) -0.4065(3) 0.01493(7) 0.0190(9) Uani 1 1 d . . .
C54 C 2.3900(2) -0.5037(3) 0.01598(7) 0.0202(9) Uani 1 1 d . . .
H54A H 2.4443 -0.5179 0.0179 0.024 Uiso 1 1 calc R . .
C55 C 2.3365(3) -0.5797(3) 0.01420(8) 0.0257(10) Uani 1 1 d . . .
H55A H 2.3543 -0.6459 0.0151 0.031 Uiso 1 1 calc R . .
C56 C 2.2569(2) -0.5605(3) 0.01108(8) 0.0208(9) Uani 1 1 d . . .
H56A H 2.2204 -0.6133 0.0101 0.025 Uiso 1 1 calc R . .
C57 C 2.2306(2) -0.4641(3) 0.00937(7) 0.0193(9) Uani 1 1 d . . .
C58 C 2.2850(2) -0.3877(3) 0.01169(7) 0.0193(9) Uani 1 1 d . . .
H58A H 2.2672 -0.3215 0.0111 0.023 Uiso 1 1 calc R . .
C59 C 2.4216(2) -0.3208(3) 0.01637(7) 0.0208(9) Uani 1 1 d . . .
C60 C 2.1466(2) -0.4403(3) 0.00393(7) 0.0202(9) Uani 1 1 d . . .
O1W O 2.2271(2) -0.2440(3) -0.03676(7) 0.0473(10) Uani 1 1 d . . .
O2W O 2.6155(2) -0.4092(3) 0.05186(7) 0.0588(11) Uani 1 1 d . . .
O3W O 1.2843(3) -0.3980(4) -0.23204(9) 0.0756(14) Uani 1 1 d . . .
O4W O 1.1904(3) -0.2374(5) -0.22041(12) 0.108(2) Uani 1 1 d . . .
O5W O 1.2852(4) -0.0783(5) -0.23619(12) 0.130(3) Uani 1 1 d . . .
O6W O 2.1737(4) 0.0998(4) -0.05824(10) 0.106(2) Uani 1 1 d . . .
O7W O 2.1877(3) -0.1502(5) -0.09880(9) 0.101(2) Uani 1 1 d . . .
O8W O 2.2839(3) -0.3219(4) -0.10732(8) 0.0740(14) Uani 1 1 d . . .
H1WB H 2.1948 -0.2058 -0.0442 0.089 Uiso 1 1 d R . .
H4WB H 1.1626 -0.2712 -0.2307 0.089 Uiso 1 1 d R . .
H4WA H 1.2157 -0.1912 -0.2277 0.089 Uiso 1 1 d R . .
H1WA H 2.1975 -0.2704 -0.0255 0.089 Uiso 1 1 d R . .
H3WB H 1.2490 -0.3667 -0.2238 0.089 Uiso 1 1 d R . .
H3WA H 1.3221 -0.3724 -0.2237 0.089 Uiso 1 1 d R . .
H5WB H 1.2932 -0.0843 -0.2201 0.089 Uiso 1 1 d R . .
H2WB H 2.5924 -0.4547 0.0436 0.089 Uiso 1 1 d R . .
H5WA H 1.2680 -0.0207 -0.2332 0.089 Uiso 1 1 d R . .
H2WA H 2.5933 -0.3582 0.0457 0.089 Uiso 1 1 d R . .
H6WA H 2.1304 0.1178 -0.0516 0.089 Uiso 1 1 d R . .
H6WB H 2.1827 0.1222 -0.0732 0.089 Uiso 1 1 d R . .
H8WA H 2.3050 -0.3206 -0.1222 0.089 Uiso 1 1 d R . .
H7WA H 2.1906 -0.2112 -0.0953 0.089 Uiso 1 1 d R . .
H7WB H 2.1545 -0.1397 -0.0869 0.089 Uiso 1 1 d R . .
H8WB H 2.2997 -0.3809 -0.1055 0.089 Uiso 1 1 d R . .

loop_
_atom_site_aniso_label
_atom_site_aniso_U_11
_atom_site_aniso_U_22
_atom_site_aniso_U_33
_atom_site_aniso_U_23
_atom_site_aniso_U_13
_atom_site_aniso_U_12
Cd1 0.01520(16) 0.01995(17) 0.02011(15) -0.00032(12) -0.00252(11) 0.00117(12)
Cd2 0.01520(16) 0.02082(17) 0.02091(15) -0.00115(12) -0.00171(11) 0.00178(12)
Cd3 0.01244(15) 0.02375(18) 0.01964(15) -0.00119(12) -0.00273(11) 0.00165(12)
N1 0.0197(19) 0.021(2) 0.0218(17) 0.0011(15) -0.0040(14) -0.0014(15)
N2 0.0160(18) 0.0172(19) 0.0261(18) -0.0014(15) 0.0000(14) 0.0001(14)
N3 0.0197(19) 0.020(2) 0.0222(17) 0.0006(14) -0.0048(14) 0.0003(15)
N4 0.0156(18) 0.0169(19) 0.0234(17) -0.0014(14) -0.0021(14) 0.0021(14)
N5 0.0199(19) 0.023(2) 0.0220(17) 0.0026(15) -0.0038(14) -0.0005(15)
N6 0.0171(18) 0.023(2) 0.0199(16) -0.0032(15) -0.0011(13) -0.0014(15)
N7 0.0183(19) 0.024(2) 0.0218(17) -0.0024(15) -0.0052(14) 0.0027(15)
N8 0.0149(18) 0.023(2) 0.0189(16) 0.0006(14) -0.0006(13) -0.0008(14)
N9 0.021(2) 0.026(2) 0.0210(17) -0.0027(15) -0.0052(14) 0.0032(15)
N10 0.0179(19) 0.029(2) 0.0206(17) -0.0037(15) -0.0017(14) 0.0022(15)
O1 0.0119(16) 0.0273(18) 0.0397(18) 0.0058(14) -0.0005(12) 0.0014(12)
O2 0.0188(17) 0.0230(19) 0.054(2) -0.0058(16) 0.0007(15) 0.0017(14)
O3 0.0173(16) 0.0307(19) 0.0386(17) 0.0038(15) -0.0070(13) -0.0072(14)
O4 0.0172(17) 0.035(2) 0.061(2) -0.0090(18) 0.0033(15) 0.0008(15)
O5 0.039(2) 0.042(2) 0.0229(16) -0.0033(15) -0.0073(14) 0.0097(17)
O6 0.037(2) 0.031(2) 0.0287(17) 0.0069(14) -0.0117(14) -0.0020(15)
O7 0.051(2) 0.025(2) 0.0267(17) 0.0030(14) -0.0029(15) 0.0001(16)
O8 0.0241(18) 0.061(3) 0.0186(16) 0.0066(15) -0.0003(12) 0.0013(16)
O9 0.0186(16) 0.0212(17) 0.0360(17) 0.0010(14) 0.0009(12) -0.0046(13)
O10 0.0125(16) 0.040(2) 0.047(2) -0.0063(16) 0.0000(13) -0.0027(14)
O11 0.0147(15) 0.0271(19) 0.0330(16) 0.0031(14) -0.0044(12) 0.0037(13)
O12 0.0164(16) 0.0269(18) 0.0369(17) -0.0044(14) 0.0003(13) -0.0060(13)
C1 0.023(2) 0.031(3) 0.023(2) 0.0002(19) -0.0039(17) 0.0000(19)
C2 0.026(2) 0.034(3) 0.021(2) 0.0031(19) 0.0013(18) -0.002(2)
C3 0.018(2) 0.026(2) 0.026(2) -0.0032(19) 0.0033(17) -0.0013(18)
C4 0.019(2) 0.016(2) 0.021(2) -0.0014(17) -0.0017(16) 0.0000(17)
C5 0.015(2) 0.014(2) 0.026(2) -0.0026(17) -0.0009(16) -0.0004(16)
C6 0.022(2) 0.020(2) 0.0185(19) -0.0032(17) -0.0035(16) 0.0012(18)
C7 0.019(2) 0.020(2) 0.024(2) -0.0014(17) -0.0028(17) -0.0007(18)
C8 0.026(3) 0.041(3) 0.024(2) -0.004(2) 0.0007(18) 0.005(2)
C9 0.017(2) 0.058(4) 0.031(2) -0.003(2) 0.0021(19) 0.003(2)
C10 0.016(2) 0.048(3) 0.028(2) -0.006(2) -0.0014(18) -0.001(2)
C11 0.018(2) 0.026(3) 0.025(2) -0.0012(18) -0.0016(17) -0.0009(18)
C12 0.022(2) 0.017(2) 0.023(2) 0.0013(17) -0.0029(17) -0.0021(18)
C13 0.020(2) 0.018(2) 0.021(2) -0.0001(17) -0.0026(16) -0.0007(17)
C14 0.024(2) 0.028(3) 0.024(2) 0.0012(19) -0.0036(17) -0.0044(19)
C15 0.027(3) 0.033(3) 0.026(2) 0.001(2) 0.0040(18) -0.005(2)
C16 0.018(2) 0.033(3) 0.028(2) -0.001(2) 0.0010(17) -0.0068(19)
C17 0.016(2) 0.015(2) 0.023(2) -0.0020(17) 0.0008(16) -0.0005(16)
C18 0.020(2) 0.015(2) 0.0185(19) -0.0018(17) -0.0004(16) -0.0028(17)
C19 0.028(2) 0.031(3) 0.019(2) 0.0025(18) -0.0046(17) -0.00