####################################################################### 
# 
# This file contains crystal structure data downloaded from the 
# Cambridge Structural Database (CSD) hosted by the Cambridge 
# Crystallographic Data Centre (CCDC).
# 
# Full information about CCDC data access policies and citation 
# guidelines are available at http://www.ccdc.cam.ac.uk/access/V1 
# 
# Audit and citation data items may have been added by the CCDC. 
# Please retain this information to preserve the provenance of 
# this file and to allow appropriate attribution of the data. 
# 
#######################################################################

data_f1
_audit_block_doi                 10.5517/cc14fgmn
_database_code_depnum_ccdc_archive 'CCDC 1055631'
loop_
_citation_id
_citation_doi
_citation_year
1 10.1021/acs.cgd.5b00423 2015
_audit_update_record             
;
2015-04-17 deposited with the CCDC.	2024-07-13 downloaded from the CCDC.
;

_audit_creation_method           SHELXL-97
_chemical_name_systematic        
; 
 ? 
;
_chemical_name_common            ?
_chemical_melting_point          ?
_chemical_formula_moiety         ?
_chemical_formula_sum            'C16 H18 N O7 P Zn'
_chemical_formula_weight         432.65

loop_
_atom_type_symbol
_atom_type_description
_atom_type_scat_dispersion_real
_atom_type_scat_dispersion_imag
_atom_type_scat_source
C C 0.0033 0.0016 'International Tables Vol C Tables 4.2.6.8 and 6.1.1.4'
H H 0.0000 0.0000 'International Tables Vol C Tables 4.2.6.8 and 6.1.1.4'
N N 0.0061 0.0033 'International Tables Vol C Tables 4.2.6.8 and 6.1.1.4'
O O 0.0106 0.0060 'International Tables Vol C Tables 4.2.6.8 and 6.1.1.4'
P P 0.1023 0.0942 'International Tables Vol C Tables 4.2.6.8 and 6.1.1.4'
Zn Zn 0.2839 1.4301 'International Tables Vol C Tables 4.2.6.8 and 6.1.1.4'

_symmetry_cell_setting           monoclinic
_symmetry_space_group_name_H-M   C2/c

loop_
_symmetry_equiv_pos_as_xyz
'x, y, z'
'-x, y, -z+1/2'
'x+1/2, y+1/2, z'
'-x+1/2, y+1/2, -z+1/2'
'-x, -y, -z'
'x, -y, z-1/2'
'-x+1/2, -y+1/2, -z'
'x+1/2, -y+1/2, z-1/2'

_cell_length_a                   36.374(8)
_cell_length_b                   10.049(2)
_cell_length_c                   9.784(3)
_cell_angle_alpha                90.00
_cell_angle_beta                 99.023(14)
_cell_angle_gamma                90.00
_cell_volume                     3531.9(14)
_cell_formula_units_Z            8
_cell_measurement_temperature    293(2)
_cell_measurement_reflns_used    3329
_cell_measurement_theta_min      2.6471
_cell_measurement_theta_max      27.4895

_exptl_crystal_description       prism
_exptl_crystal_colour            colorless
_exptl_crystal_size_max          0.6000
_exptl_crystal_size_mid          0.4000
_exptl_crystal_size_min          0.2000
_exptl_crystal_density_meas      ?
_exptl_crystal_density_diffrn    1.627
_exptl_crystal_density_method    'not measured'
_exptl_crystal_F_000             1776
_exptl_absorpt_coefficient_mu    1.520
_exptl_absorpt_correction_type   Multi-scan
_exptl_absorpt_correction_T_min  0.6230
_exptl_absorpt_correction_T_max  1.0000
_exptl_absorpt_process_details   'CrystalClear (Rigaku Inc., 2008)'

_exptl_special_details           
; 
 ? 
;

_diffrn_ambient_temperature      293(2)
_diffrn_radiation_wavelength     0.71073
_diffrn_radiation_type           MoK\a
_diffrn_radiation_source         'fine-focus sealed tube'
_diffrn_radiation_monochromator  graphite
_diffrn_measurement_device_type  'Mercury70 (2x2 bin mode)'
_diffrn_measurement_method       '\w scans'
_diffrn_detector_area_resol_mean ?
_diffrn_standards_number         ?
_diffrn_standards_interval_count ?
_diffrn_standards_interval_time  ?
_diffrn_standards_decay_%        ?
_diffrn_reflns_number            10674
_diffrn_reflns_av_R_equivalents  0.0550
_diffrn_reflns_av_sigmaI/netI    0.0583
_diffrn_reflns_limit_h_min       -46
_diffrn_reflns_limit_h_max       41
_diffrn_reflns_limit_k_min       -13
_diffrn_reflns_limit_k_max       13
_diffrn_reflns_limit_l_min       -12
_diffrn_reflns_limit_l_max       12
_diffrn_reflns_theta_min         2.65
_diffrn_reflns_theta_max         27.47
_reflns_number_total             3832
_reflns_number_gt                2799
_reflns_threshold_expression     >2sigma(I)

_computing_data_collection       'CrystalClear (Rigaku Inc., 2008)'
_computing_cell_refinement       'CrystalClear (Rigaku Inc., 2008)'
_computing_data_reduction        'CrystalClear (Rigaku Inc., 2008)'
_computing_structure_solution    'SHELXS-97 (Sheldrick, 1990)'
_computing_structure_refinement  'SHELXL-97 (Sheldrick, 1997)'
_computing_molecular_graphics    'Bruker SHELXTL'
_computing_publication_material  'Bruker SHELXTL'

_refine_special_details          
; 
 Refinement of F^2^ against ALL reflections.  The weighted R-factor wR and 
 goodness of fit S are based on F^2^, conventional R-factors R are based 
 on F, with F set to zero for negative F^2^. The threshold expression of 
 F^2^ > 2sigma(F^2^) is used only for calculating R-factors(gt) etc. and is 
 not relevant to the choice of reflections for refinement.  R-factors based 
 on F^2^ are statistically about twice as large as those based on F, and R- 
 factors based on ALL data will be even larger. 
;

_refine_ls_structure_factor_coef Fsqd
_refine_ls_matrix_type           full
_refine_ls_weighting_scheme      calc
_refine_ls_weighting_details     
'calc w=1/[\s^2^(Fo^2^)+(0.1925P)^2^+0.0000P] where P=(Fo^2^+2Fc^2^)/3'
_atom_sites_solution_primary     direct
_atom_sites_solution_secondary   difmap
_atom_sites_solution_hydrogens   geom
_refine_ls_hydrogen_treatment    mixed
_refine_ls_extinction_method     none
_refine_ls_extinction_coef       ?
_refine_ls_number_reflns         3832
_refine_ls_number_parameters     223
_refine_ls_number_restraints     3
_refine_ls_R_factor_all          0.0973
_refine_ls_R_factor_gt           0.0845
_refine_ls_wR_factor_ref         0.2601
_refine_ls_wR_factor_gt          0.2397
_refine_ls_goodness_of_fit_ref   1.014
_refine_ls_restrained_S_all      1.028
_refine_ls_shift/su_max          0.000
_refine_ls_shift/su_mean         0.000

loop_
_atom_site_label
_atom_site_type_symbol
_atom_site_fract_x
_atom_site_fract_y
_atom_site_fract_z
_atom_site_U_iso_or_equiv
_atom_site_adp_type
_atom_site_occupancy
_atom_site_symmetry_multiplicity
_atom_site_calc_flag
_atom_site_refinement_flags
_atom_site_disorder_assembly
_atom_site_disorder_group
Zn1 Zn 0.239263(16) 0.44262(4) 0.56473(5) 0.0349(3) Uani 1 1 d . . .
P1 P 0.26946(4) 0.34207(9) 0.29862(10) 0.0343(4) Uani 1 1 d . . .
O1 O 0.26596(13) 0.4404(3) 0.4102(4) 0.0458(10) Uani 1 1 d . . .
O2 O 0.25216(10) 0.2090(3) 0.3196(3) 0.0389(8) Uani 1 1 d . . .
O3 O 0.25587(10) 0.3932(3) 0.1548(3) 0.0401(8) Uani 1 1 d . . .
O4 O 0.31472(12) -0.0347(4) -0.0223(4) 0.0511(10) Uani 1 1 d . . .
O5 O 0.36598(15) 0.0779(6) 0.0489(7) 0.0864(18) Uani 1 1 d . . .
O6 O 0.39525(19) 0.1658(9) 0.3619(8) 0.122(3) Uani 1 1 d . . .
O7 O 0.4289(3) 0.0090(14) 0.4763(14) 0.189(5) Uani 1 1 d . . .
H2 H 0.4088 -0.0150 0.4954 0.284 Uiso 1 1 calc R . .
N1 N 0.33309(13) 0.2609(4) 0.1875(4) 0.0416(9) Uani 1 1 d . . .
H1 H 0.3568 0.2323 0.2157 0.050 Uiso 1 1 calc R . .
C1 C 0.31959(15) 0.3175(4) 0.3118(4) 0.0405(11) Uani 1 1 d . . .
H6 H 0.3317 0.4027 0.3328 0.049 Uiso 1 1 calc R . .
H7 H 0.3276 0.2591 0.3897 0.049 Uiso 1 1 calc R . .
C2 C 0.33296(18) 0.0561(5) 0.0456(7) 0.0519(14) Uani 1 1 d . . .
C3 C 0.31137(16) 0.1439(5) 0.1301(6) 0.0495(13) Uani 1 1 d . . .
H8 H 0.2888 0.1739 0.0722 0.059 Uiso 1 1 calc R . .
H9 H 0.3042 0.0922 0.2054 0.059 Uiso 1 1 calc R . .
C4 C 0.33486(17) 0.3659(6) 0.0747(5) 0.0545(14) Uani 1 1 d . . .
H10 H 0.3457 0.3254 0.0004 0.065 Uiso 1 1 calc R . .
H11 H 0.3097 0.3923 0.0369 0.065 Uiso 1 1 calc R . .
C5 C 0.3572(3) 0.4905(13) 0.1236(9) 0.158(7) Uani 1 1 d D . .
C6 C 0.3414(2) 0.6135(7) 0.1761(6) 0.0610(16) Uani 1 1 d D . .
H12 H 0.3161 0.6091 0.1806 0.073 Uiso 1 1 calc R . .
C7 C 0.3574(4) 0.7283(11) 0.2177(9) 0.148(6) Uani 1 1 d D . .
H13 H 0.3439 0.7993 0.2455 0.178 Uiso 1 1 calc R . .
C8 C 0.3988(4) 0.7363(17) 0.2170(11) 0.219(13) Uani 1 1 d D . .
H14 H 0.4132 0.8105 0.2461 0.262 Uiso 1 1 calc R . .
C9 C 0.4140(2) 0.6112(7) 0.1643(8) 0.100(3) Uani 1 1 d GD . .
C10 C 0.4520(2) 0.6141(10) 0.1596(12) 0.177(6) Uani 1 1 d G . .
H15 H 0.4659 0.6893 0.1893 0.213 Uiso 1 1 calc R . .
C11 C 0.46925(16) 0.5045(12) 0.1105(14) 0.247(13) Uani 1 1 d G . .
H16 H 0.4947 0.5064 0.1073 0.296 Uiso 1 1 calc R . .
C12 C 0.4485(2) 0.3920(10) 0.0661(12) 0.205(9) Uani 1 1 d G . .
H17 H 0.4601 0.3187 0.0332 0.245 Uiso 1 1 calc R . .
C13 C 0.4105(2) 0.3892(7) 0.0708(8) 0.100(3) Uani 1 1 d G . .
H18 H 0.3967 0.3139 0.0411 0.120 Uiso 1 1 calc R . .
C14 C 0.39328(16) 0.4988(7) 0.1199(7) 0.244(14) Uani 1 1 d G . .
C15 C 0.4611(4) 0.157(2) 0.3474(18) 0.225(11) Uani 1 1 d . . .
H5 H 0.4577 0.2344 0.2887 0.337 Uiso 1 1 calc R . .
H4 H 0.4689 0.0837 0.2966 0.337 Uiso 1 1 calc R . .
H3 H 0.4797 0.1757 0.4260 0.337 Uiso 1 1 calc R . .
C16 C 0.4241(3) 0.1230(17) 0.3970(12) 0.126(5) Uani 1 1 d . . .

loop_
_atom_site_aniso_label
_atom_site_aniso_U_11
_atom_site_aniso_U_22
_atom_site_aniso_U_33
_atom_site_aniso_U_23
_atom_site_aniso_U_13
_atom_site_aniso_U_12
Zn1 0.0713(5) 0.0171(4) 0.0190(4) 0.00061(14) 0.0155(3) -0.00148(18)
P1 0.0728(9) 0.0160(5) 0.0174(5) 0.0009(4) 0.0175(5) -0.0010(4)
O1 0.093(3) 0.0260(17) 0.0241(16) -0.0059(11) 0.0264(17) -0.0045(14)
O2 0.070(2) 0.0188(13) 0.0294(16) 0.0052(12) 0.0123(14) -0.0023(13)
O3 0.083(2) 0.0209(13) 0.0182(15) 0.0041(11) 0.0150(14) 0.0026(14)
O4 0.066(2) 0.0427(18) 0.046(2) -0.0203(16) 0.0145(18) 0.0060(16)
O5 0.065(3) 0.100(4) 0.101(4) -0.054(3) 0.032(3) -0.010(3)
O6 0.088(4) 0.177(8) 0.096(5) -0.020(5) -0.003(3) 0.030(4)
O7 0.118(7) 0.262(12) 0.189(12) 0.133(11) 0.024(6) -0.002(8)
N1 0.060(3) 0.040(2) 0.0271(19) -0.0081(16) 0.0149(17) -0.0063(18)
C1 0.074(3) 0.029(2) 0.021(2) -0.0023(16) 0.0138(19) -0.011(2)
C2 0.060(4) 0.054(3) 0.047(3) -0.021(2) 0.023(3) 0.000(2)
C3 0.066(3) 0.044(3) 0.043(3) -0.022(2) 0.024(2) -0.010(2)
C4 0.076(4) 0.061(3) 0.030(2) -0.006(2) 0.019(2) -0.030(3)
C5 0.204(13) 0.205(13) 0.051(5) 0.037(7) -0.024(7) -0.163(12)
C6 0.088(5) 0.057(4) 0.039(3) 0.007(3) 0.014(3) 0.004(3)
C7 0.271(15) 0.107(7) 0.049(5) 0.026(5) -0.030(6) -0.100(9)
C8 0.208(16) 0.37(3) 0.058(7) 0.079(12) -0.030(8) -0.17(2)
C9 0.118(8) 0.104(7) 0.074(6) 0.004(5) 0.001(5) -0.060(6)
C10 0.170(16) 0.21(2) 0.148(14) 0.023(16) 0.026(11) -0.019(15)
C11 0.122(14) 0.29(2) 0.34(4) -0.13(3) 0.097(18) -0.081(16)
C12 0.084(8) 0.31(2) 0.213(18) 0.109(18) 0.011(9) -0.083(12)
C13 0.102(7) 0.096(7) 0.114(8) -0.034(6) 0.053(6) -0.016(6)
C14 0.29(2) 0.30(2) 0.101(9) 0.127(13) -0.104(12) -0.248(19)
C15 0.099(9) 0.36(3) 0.225(19) 0.14(2) 0.042(10) -0.055(13)
C16 0.091(7) 0.195(14) 0.091(7) 0.049(9) 0.011(5) -0.024(8)

_geom_special_details            
; 
 All esds (except the esd in the dihedral angle between two l.s. planes) 
 are estimated using the full covariance matrix.  The cell esds are taken 
 into account individually in the estimation of esds in distances, angles 
 and torsion angles; correlations between esds in cell parameters are only 
 used when they are defined by crystal symmetry.  An approximate (isotropic) 
 treatment of cell esds is used for estimating esds involving l.s. planes. 
;

loop_
_geom_bond_atom_site_label_1
_geom_bond_atom_site_label_2
_geom_bond_distance
_geom_bond_site_symmetry_2
_geom_bond_publ_flag
Zn1 O2 1.894(3) 7_556 ?
Zn1 O1 1.921(4) . ?
Zn1 O3 1.922(3) 6_566 ?
Zn1 O4 1.956(4) 4 ?
P1 O1 1.493(3) . ?
P1 O2 1.505(3) . ?
P1 O3 1.507(3) . ?
P1 C1 1.824(6) . ?
O2 Zn1 1.894(3) 7_556 ?
O3 Zn1 1.922(3) 6_565 ?
O4 C2 1.255(6) . ?
O4 Zn1 1.956(4) 4_545 ?
O5 C2 1.216(8) . ?
O6 C16 1.135(13) . ?
O7 C16 1.379(17) . ?
N1 C3 1.478(6) . ?
N1 C1 1.494(6) . ?
N1 C4 1.536(7) . ?
C2 C3 1.511(7) . ?
C4 C5 1.528(10) . ?
C5 C14 1.321(13) . ?
C5 C6 1.488(15) . ?
C6 C7 1.326(11) . ?
C7 C8 1.510(14) . ?
C8 C9 1.498(16) . ?
C9 C10 1.3900 . ?
C9 C14 1.3900 . ?
C10 C11 1.3900 . ?
C11 C12 1.3900 . ?
C12 C13 1.3900 . ?
C13 C14 1.3900 . ?
C15 C16 1.541(15) . ?

loop_
_geom_angle_atom_site_label_1
_geom_angle_atom_site_label_2
_geom_angle_atom_site_label_3
_geom_angle
_geom_angle_site_symmetry_1
_geom_angle_site_symmetry_3
_geom_angle_publ_flag
O2 Zn1 O1 113.86(14) 7_556 . ?
O2 Zn1 O3 113.95(14) 7_556 6_566 ?
O1 Zn1 O3 102.09(13) . 6_566 ?
O2 Zn1 O4 106.64(15) 7_556 4 ?
O1 Zn1 O4 116.68(18) . 4 ?
O3 Zn1 O4 103.31(16) 6_566 4 ?
O1 P1 O2 113.7(2) . . ?
O1 P1 O3 113.83(19) . . ?
O2 P1 O3 110.34(19) . . ?
O1 P1 C1 103.7(2) . . ?
O2 P1 C1 107.7(2) . . ?
O3 P1 C1 106.9(2) . . ?
P1 O1 Zn1 134.0(2) . . ?
P1 O2 Zn1 139.7(2) . 7_556 ?
P1 O3 Zn1 138.98(19) . 6_565 ?
C2 O4 Zn1 128.8(4) . 4_545 ?
C3 N1 C1 112.9(4) . . ?
C3 N1 C4 110.7(4) . . ?
C1 N1 C4 112.3(4) . . ?
N1 C1 P1 116.5(3) . . ?
O5 C2 O4 125.7(5) . . ?
O5 C2 C3 118.4(5) . . ?
O4 C2 C3 115.9(5) . . ?
N1 C3 C2 112.3(5) . . ?
C5 C4 N1 114.7(5) . . ?
C14 C5 C6 113.3(7) . . ?
C14 C5 C4 121.7(12) . . ?
C6 C5 C4 125.1(10) . . ?
C7 C6 C5 131.0(10) . . ?
C6 C7 C8 115.7(13) . . ?
C9 C8 C7 112.3(12) . . ?
C10 C9 C14 120.0 . . ?
C10 C9 C8 114.7(8) . . ?
C14 C9 C8 125.3(8) . . ?
C9 C10 C11 120.0 . . ?
C12 C11 C10 120.0 . . ?
C11 C12 C13 120.0 . . ?
C12 C13 C14 120.0 . . ?
C5 C14 C13 117.6(7) . . ?
C5 C14 C9 122.4(7) . . ?
C13 C14 C9 120.0 . . ?
O6 C16 O7 121.1(11) . . ?
O6 C16 C15 129.1(13) . . ?
O7 C16 C15 108.9(12) . . ?

loop_
_geom_hbond_atom_site_label_D
_geom_hbond_atom_site_label_H
_geom_hbond_atom_site_label_A
_geom_hbond_distance_DH
_geom_hbond_distance_HA
_geom_hbond_distance_DA
_geom_hbond_angle_DHA
_geom_hbond_site_symmetry_A
O7 H2 O5 0.82 1.83 2.649(11) 175.3 6_556
N1 H1 O6 0.91 1.95 2.780(8) 149.9 .

_diffrn_measured_fraction_theta_max 0.945
_diffrn_reflns_theta_full        27.47
_diffrn_measured_fraction_theta_full 0.945
_refine_diff_density_max         2.078
_refine_diff_density_min         -1.229
_refine_diff_density_rms         0.159
