####################################################################### 
# 
# This file contains crystal structure data downloaded from the 
# Cambridge Structural Database (CSD) hosted by the Cambridge 
# Crystallographic Data Centre (CCDC).
# 
# Full information about CCDC data access policies and citation 
# guidelines are available at http://www.ccdc.cam.ac.uk/access/V1 
# 
# Audit and citation data items may have been added by the CCDC. 
# Please retain this information to preserve the provenance of 
# this file and to allow appropriate attribution of the data. 
# 
#######################################################################

data_xb5756_0m-sr
_audit_block_doi                 10.5517/cc13cj66
_database_code_depnum_ccdc_archive 'CCDC 1023967'
loop_
_citation_id
_citation_doi
_citation_year
1 10.1016/j.ica.2015.04.027 2015
_audit_update_record             
;
2015-04-13 deposited with the CCDC.	2024-07-13 downloaded from the CCDC.
;

_audit_creation_method           SHELXL-97
_chemical_name_systematic        
; 
 ? 
;
_chemical_name_common            ?
_chemical_melting_point          ?
_chemical_formula_moiety         ?
_chemical_formula_sum            'C42 H22 Cd3 O23'
_chemical_formula_weight         1231.80

loop_
_atom_type_symbol
_atom_type_description
_atom_type_scat_dispersion_real
_atom_type_scat_dispersion_imag
_atom_type_scat_source
C C 0.0033 0.0016 'International Tables Vol C Tables 4.2.6.8 and 6.1.1.4'
H H 0.0000 0.0000 'International Tables Vol C Tables 4.2.6.8 and 6.1.1.4'
O O 0.0106 0.0060 'International Tables Vol C Tables 4.2.6.8 and 6.1.1.4'
Cd Cd -0.8075 1.2024 'International Tables Vol C Tables 4.2.6.8 and 6.1.1.4'

_symmetry_cell_setting           Monoclinic
_symmetry_space_group_name_H-M   'C2/c  '

loop_
_symmetry_equiv_pos_as_xyz
'x, y, z'
'-x, y, -z+1/2'
'x+1/2, y+1/2, z'
'-x+1/2, y+1/2, -z+1/2'
'-x, -y, -z'
'x, -y, z-1/2'
'-x+1/2, -y+1/2, -z'
'x+1/2, -y+1/2, z-1/2'

_cell_length_a                   46.561(7)
_cell_length_b                   5.9263(9)
_cell_length_c                   33.495(6)
_cell_angle_alpha                90.00
_cell_angle_beta                 128.794(2)
_cell_angle_gamma                90.00
_cell_volume                     7203(2)
_cell_formula_units_Z            4
_cell_measurement_temperature    296(2)
_cell_measurement_reflns_used    1939
_cell_measurement_theta_min      2.81
_cell_measurement_theta_max      24.77

_exptl_crystal_description       block
_exptl_crystal_colour            colourless
_exptl_crystal_size_max          0.25
_exptl_crystal_size_mid          0.24
_exptl_crystal_size_min          0.22
_exptl_crystal_density_meas      ?
_exptl_crystal_density_diffrn    1.136
_exptl_crystal_density_method    'not measured'
_exptl_crystal_F_000             2408
_exptl_absorpt_coefficient_mu    0.932
_exptl_absorpt_correction_type   multi-scan
_exptl_absorpt_correction_T_min  0.8004
_exptl_absorpt_correction_T_max  0.8212
_exptl_absorpt_process_details   SADABS

_exptl_special_details           
; 
 ? 
;

_diffrn_ambient_temperature      296(2)
_diffrn_radiation_wavelength     0.71073
_diffrn_radiation_type           MoK\a
_diffrn_radiation_source         'fine-focus sealed tube'
_diffrn_radiation_monochromator  graphite
_diffrn_measurement_device_type  'Bruker APEX-II CCD'
_diffrn_measurement_method       '\f and \w scans'
_diffrn_detector_area_resol_mean ?
_diffrn_reflns_number            18142
_diffrn_reflns_av_R_equivalents  0.0592
_diffrn_reflns_av_sigmaI/netI    0.0859
_diffrn_reflns_limit_h_min       -37
_diffrn_reflns_limit_h_max       56
_diffrn_reflns_limit_k_min       -7
_diffrn_reflns_limit_k_max       7
_diffrn_reflns_limit_l_min       -40
_diffrn_reflns_limit_l_max       37
_diffrn_reflns_theta_min         1.56
_diffrn_reflns_theta_max         25.80
_reflns_number_total             6910
_reflns_number_gt                4071
_reflns_threshold_expression     >2sigma(I)

_computing_data_collection       'Bruker APEX2'
_computing_cell_refinement       'Bruker SAINT'
_computing_data_reduction        'Bruker SAINT'
_computing_structure_solution    'SHELXS-97 (Sheldrick, 2008)'
_computing_structure_refinement  'SHELXL-97 (Sheldrick, 2008)'
_computing_molecular_graphics    'Bruker SHELXTL'
_computing_publication_material  'Bruker SHELXTL'

_refine_special_details          
; 
 Refinement of F^2^ against ALL reflections.  The weighted R-factor wR and 
 goodness of fit S are based on F^2^, conventional R-factors R are based 
 on F, with F set to zero for negative F^2^. The threshold expression of 
 F^2^ > 2sigma(F^2^) is used only for calculating R-factors(gt) etc. and is 
 not relevant to the choice of reflections for refinement.  R-factors based 
 on F^2^ are statistically about twice as large as those based on F, and R- 
 factors based on ALL data will be even larger. 
;

_refine_ls_structure_factor_coef Fsqd
_refine_ls_matrix_type           full
_refine_ls_weighting_scheme      calc
_refine_ls_weighting_details     
'calc w=1/[\s^2^(Fo^2^)+(0.0700P)^2^+0.2400P] where P=(Fo^2^+2Fc^2^)/3'
_atom_sites_solution_primary     direct
_atom_sites_solution_secondary   difmap
_atom_sites_solution_hydrogens   geom
_refine_ls_hydrogen_treatment    constr
_refine_ls_extinction_method     SHELXL
_refine_ls_extinction_coef       0.00051(7)
_refine_ls_extinction_expression Fc^*^=kFc[1+0.001xFc^2^\l^3^/sin(2\q)]^-1/4^
_refine_ls_number_reflns         6910
_refine_ls_number_parameters     309
_refine_ls_number_restraints     0
_refine_ls_R_factor_all          0.0881
_refine_ls_R_factor_gt           0.0602
_refine_ls_wR_factor_ref         0.1591
_refine_ls_wR_factor_gt          0.1518
_refine_ls_goodness_of_fit_ref   1.013
_refine_ls_restrained_S_all      1.013
_refine_ls_shift/su_max          0.078
_refine_ls_shift/su_mean         0.005

loop_
_atom_site_label
_atom_site_type_symbol
_atom_site_fract_x
_atom_site_fract_y
_atom_site_fract_z
_atom_site_U_iso_or_equiv
_atom_site_adp_type
_atom_site_occupancy
_atom_site_symmetry_multiplicity
_atom_site_calc_flag
_atom_site_refinement_flags
_atom_site_disorder_assembly
_atom_site_disorder_group
O7 O 0.28876(10) 0.7019(6) -0.15082(15) 0.0512(11) Uani 1 1 d . . .
O8 O 0.30763(11) 1.0354(6) -0.15585(17) 0.0609(13) Uani 1 1 d . . .
C21 C 0.31456(15) 0.8359(10) -0.1376(2) 0.0406(14) Uani 1 1 d . . .
C18 C 0.35384(14) 0.7666(9) -0.0986(2) 0.0392(14) Uani 1 1 d . . .
C20 C 0.36296(15) 0.5575(9) -0.0755(2) 0.0411(14) Uani 1 1 d . . .
H20 H 0.3444 0.4585 -0.0839 0.049 Uiso 1 1 calc R . .
C17 C 0.38177(15) 0.9151(9) -0.0859(2) 0.0399(14) Uani 1 1 d . . .
H17 H 0.3759 1.0564 -0.1013 0.048 Uiso 1 1 calc R . .
C16 C 0.41795(14) 0.8504(8) -0.05068(19) 0.0351(13) Uani 1 1 d . . .
H16 H 0.4366 0.9486 -0.0421 0.042 Uiso 1 1 calc R . .
C19 C 0.39967(15) 0.4938(9) -0.0399(2) 0.0450(15) Uani 1 1 d . . .
H19 H 0.4058 0.3526 -0.0244 0.054 Uiso 1 1 calc R . .
C15 C 0.42679(14) 0.6408(8) -0.02781(19) 0.0320(12) Uani 1 1 d . . .
O6 O 0.46374(10) 0.5836(6) 0.00290(13) 0.0396(9) Uani 1 1 d . . .
C6 C 0.47705(13) 0.4324(9) 0.04272(18) 0.0324(12) Uani 1 1 d . . .
C7 C 0.49444(13) 0.2379(8) 0.04390(18) 0.0323(12) Uani 1 1 d . . .
H7 H 0.4953 0.2043 0.0175 0.039 Uiso 1 1 calc R . .
C5 C 0.47642(15) 0.4861(8) 0.0824(2) 0.0403(13) Uani 1 1 d . . .
H5 H 0.4656 0.6197 0.0817 0.048 Uiso 1 1 calc R . .
O2 O 0.50118(15) 0.2569(9) 0.19963(19) 0.0886(17) Uani 1 1 d . . .
Cd2 Cd 0.745530(11) -0.50061(6) 0.292677(17) 0.04462(18) Uani 1 1 d . . .
Cd1 Cd 0.5000 0.54621(13) 0.2500 0.0859(4) Uani 1 2 d S . .
O3 O 0.52592(10) -0.1015(6) 0.08430(14) 0.0436(10) Uani 1 1 d . . .
O4 O 0.68513(11) -0.5327(6) 0.22507(18) 0.0579(13) Uani 1 1 d . . .
O1W O 0.74776(9) -0.8874(6) 0.27257(13) 0.0418(10) Uani 1 1 d . . .
C13 C 0.63666(14) -0.2662(8) 0.1918(2) 0.0361(13) Uani 1 1 d . . .
C14 C 0.67589(15) -0.3396(11) 0.2276(2) 0.0460(15) Uani 1 1 d . . .
C8 C 0.56297(14) -0.1463(8) 0.12281(19) 0.0330(12) Uani 1 1 d . . .
C10 C 0.61062(15) -0.4191(9) 0.1544(2) 0.0369(13) Uani 1 1 d . . .
H10 H 0.6179 -0.5627 0.1528 0.044 Uiso 1 1 calc R . .
O5 O 0.69975(10) -0.1992(6) 0.26215(15) 0.0516(11) Uani 1 1 d . . .
C12 C 0.62489(16) -0.0569(9) 0.1934(2) 0.0438(15) Uani 1 1 d . . .
H12 H 0.6422 0.0455 0.2181 0.053 Uiso 1 1 calc R . .
C9 C 0.57356(14) -0.3551(8) 0.1195(2) 0.0379(14) Uani 1 1 d . . .
H9 H 0.5562 -0.4548 0.0940 0.045 Uiso 1 1 calc R . .
C4 C 0.51039(14) 0.0974(9) 0.0857(2) 0.0331(12) Uani 1 1 d . . .
C2 C 0.49233(15) 0.3360(9) 0.1237(2) 0.0402(14) Uani 1 1 d . . .
C11 C 0.58849(14) 0.0076(8) 0.1600(2) 0.0377(13) Uani 1 1 d . . .
H11 H 0.5811 0.1500 0.1621 0.045 Uiso 1 1 calc R . .
C3 C 0.50886(15) 0.1401(10) 0.1252(2) 0.0429(14) Uani 1 1 d . . .
H3 H 0.5188 0.0383 0.1520 0.051 Uiso 1 1 calc R . .
O1 O 0.48590(18) 0.5990(9) 0.17006(19) 0.0944(19) Uani 1 1 d . . .
O2W O 0.73973(16) -0.6124(10) 0.3535(2) 0.0947(17) Uani 1 1 d . . .
C1 C 0.49238(19) 0.4020(13) 0.1660(2) 0.0604(18) Uani 1 1 d . . .
O4W O 0.5000 0.9169(15) 0.2500 0.289(11) Uani 1 2 d S . .
O3W O 0.5670(3) 0.5131(13) 0.2942(3) 0.176(4) Uani 1 1 d . . .

loop_
_atom_site_aniso_label
_atom_site_aniso_U_11
_atom_site_aniso_U_22
_atom_site_aniso_U_33
_atom_site_aniso_U_23
_atom_site_aniso_U_13
_atom_site_aniso_U_12
O7 0.023(2) 0.052(2) 0.052(3) -0.004(2) 0.011(2) -0.0045(19)
O8 0.028(2) 0.050(3) 0.066(3) 0.020(2) 0.010(2) 0.0049(19)
C21 0.025(3) 0.047(3) 0.034(3) 0.003(3) 0.011(3) 0.006(3)
C18 0.022(3) 0.034(3) 0.043(3) 0.001(2) 0.012(3) -0.002(2)
C20 0.021(3) 0.041(3) 0.045(3) 0.008(3) 0.013(3) -0.002(2)
C17 0.038(4) 0.031(3) 0.044(3) 0.003(3) 0.022(3) 0.001(3)
C16 0.028(3) 0.035(3) 0.034(3) 0.004(2) 0.015(3) -0.003(2)
C19 0.039(3) 0.038(3) 0.050(3) 0.016(3) 0.024(3) 0.008(3)
C15 0.023(3) 0.036(3) 0.032(3) 0.005(2) 0.015(3) 0.003(2)
O6 0.029(2) 0.053(2) 0.036(2) 0.0166(18) 0.0204(19) 0.0077(18)
C6 0.021(3) 0.048(3) 0.023(3) 0.008(2) 0.011(2) 0.001(2)
C7 0.025(3) 0.043(3) 0.025(3) -0.005(2) 0.013(2) -0.003(2)
C5 0.045(4) 0.035(3) 0.040(3) 0.008(3) 0.026(3) 0.007(3)
O2 0.144(5) 0.094(4) 0.079(3) 0.016(3) 0.094(4) 0.021(4)
Cd2 0.0265(3) 0.0334(2) 0.0523(3) -0.00180(19) 0.0142(2) -0.00059(19)
Cd1 0.1690(10) 0.0558(5) 0.0773(6) 0.000 0.0986(7) 0.000
O3 0.030(2) 0.043(2) 0.042(2) -0.0087(18) 0.015(2) 0.0057(18)
O4 0.028(2) 0.039(2) 0.074(3) -0.003(2) 0.016(2) 0.0043(18)
O1W 0.028(2) 0.0280(19) 0.047(2) -0.0033(17) 0.0125(19) -0.0024(16)
C13 0.027(3) 0.031(3) 0.037(3) -0.001(2) 0.013(3) 0.002(2)
C14 0.023(3) 0.053(4) 0.053(4) 0.009(3) 0.020(3) 0.004(3)
C8 0.024(3) 0.034(3) 0.031(3) 0.005(2) 0.012(3) 0.004(2)
C10 0.033(3) 0.027(3) 0.051(3) 0.007(2) 0.027(3) 0.008(2)
O5 0.024(2) 0.044(2) 0.060(3) -0.005(2) 0.013(2) -0.0086(18)
C12 0.031(3) 0.035(3) 0.039(3) -0.004(2) 0.010(3) -0.005(2)
C9 0.022(3) 0.031(3) 0.045(3) -0.013(2) 0.014(3) -0.008(2)
C4 0.025(3) 0.034(3) 0.040(3) 0.008(2) 0.020(3) 0.008(2)
C2 0.044(4) 0.044(3) 0.037(3) 0.008(3) 0.028(3) 0.003(3)
C11 0.027(3) 0.031(3) 0.051(3) 0.000(3) 0.022(3) 0.001(3)
C3 0.042(4) 0.052(4) 0.033(3) 0.010(3) 0.022(3) 0.010(3)
O1 0.166(6) 0.075(3) 0.067(3) 0.005(3) 0.085(4) 0.032(4)
O2W 0.119(5) 0.098(4) 0.085(4) -0.004(3) 0.072(4) -0.012(4)
C1 0.068(5) 0.083(5) 0.032(3) 0.006(4) 0.032(4) 0.006(4)
O4W 0.74(3) 0.049(5) 0.244(13) 0.000 0.39(2) 0.000
O3W 0.200(9) 0.194(9) 0.076(5) -0.027(4) 0.058(6) -0.051(6)

_geom_special_details            
; 
 All esds (except the esd in the dihedral angle between two l.s. planes) 
 are estimated using the full covariance matrix.  The cell esds are taken 
 into account individually in the estimation of esds in distances, angles 
 and torsion angles; correlations between esds in cell parameters are only 
 used when they are defined by crystal symmetry.  An approximate (isotropic) 
 treatment of cell esds is used for estimating esds involving l.s. planes. 
;

loop_
_geom_bond_atom_site_label_1
_geom_bond_atom_site_label_2
_geom_bond_distance
_geom_bond_site_symmetry_2
_geom_bond_publ_flag
O7 C21 1.266(6) . ?
O7 Cd2 2.448(4) 8_455 ?
O8 C21 1.277(6) . ?
O8 Cd2 2.265(4) 8_455 ?
C21 C18 1.492(7) . ?
C21 Cd2 2.708(5) 8_455 ?
C18 C20 1.379(7) . ?
C18 C17 1.398(7) . ?
C20 C19 1.390(7) . ?
C20 H20 0.9300 . ?
C17 C16 1.373(7) . ?
C17 H17 0.9300 . ?
C16 C15 1.380(7) . ?
C16 H16 0.9300 . ?
C19 C15 1.370(7) . ?
C19 H19 0.9300 . ?
C15 O6 1.384(6) . ?
O6 C6 1.389(6) . ?
C6 C5 1.385(7) . ?
C6 C7 1.395(7) . ?
C7 C4 1.379(7) . ?
C7 H7 0.9300 . ?
C5 C2 1.404(7) . ?
C5 H5 0.9300 . ?
O2 C1 1.264(7) . ?
O2 Cd1 2.430(5) . ?
Cd2 O4 2.257(4) . ?
Cd2 O8 2.265(4) 8_556 ?
Cd2 O2W 2.313(5) . ?
Cd2 O1W 2.409(3) . ?
Cd2 O7 2.448(4) 8_556 ?
Cd2 O5 2.459(4) . ?
Cd2 O1W 2.486(4) 4_655 ?
Cd2 C14 2.706(6) . ?
Cd2 C21 2.708(5) 8_556 ?
Cd1 O4W 2.197(9) . ?
Cd1 O1 2.344(5) . ?
Cd1 O1 2.344(5) 2_655 ?
Cd1 O2 2.430(5) 2_655 ?
Cd1 O3W 2.485(11) . ?
Cd1 O3W 2.485(11) 2_655 ?
Cd1 C1 2.743(6) 2_655 ?
Cd1 C1 2.743(6) . ?
O3 C8 1.386(6) . ?
O3 C4 1.398(6) . ?
O4 C14 1.244(7) . ?
O1W Cd2 2.486(4) 4_645 ?
C13 C12 1.371(7) . ?
C13 C10 1.399(7) . ?
C13 C14 1.489(7) . ?
C14 O5 1.287(7) . ?
C8 C9 1.362(7) . ?
C8 C11 1.393(7) . ?
C10 C9 1.400(7) . ?
C10 H10 0.9300 . ?
C12 C11 1.377(7) . ?
C12 H12 0.9300 . ?
C9 H9 0.9300 . ?
C4 C3 1.392(7) . ?
C2 C3 1.377(7) . ?
C2 C1 1.467(8) . ?
C11 H11 0.9300 . ?
C3 H3 0.9300 . ?
O1 C1 1.234(9) . ?

loop_
_geom_angle_atom_site_label_1
_geom_angle_atom_site_label_2
_geom_angle_atom_site_label_3
_geom_angle
_geom_angle_site_symmetry_1
_geom_angle_site_symmetry_3
_geom_angle_publ_flag
C21 O7 Cd2 87.6(3) . 8_455 ?
C21 O8 Cd2 95.7(3) . 8_455 ?
O7 C21 O8 120.9(5) . . ?
O7 C21 C18 120.5(5) . . ?
O8 C21 C18 118.5(5) . . ?
O7 C21 Cd2 64.6(3) . 8_455 ?
O8 C21 Cd2 56.3(3) . 8_455 ?
C18 C21 Cd2 174.8(4) . 8_455 ?
C20 C18 C17 119.6(5) . . ?
C20 C18 C21 121.1(5) . . ?
C17 C18 C21 119.3(5) . . ?
C18 C20 C19 120.4(5) . . ?
C18 C20 H20 119.8 . . ?
C19 C20 H20 119.8 . . ?
C16 C17 C18 119.4(5) . . ?
C16 C17 H17 120.3 . . ?
C18 C17 H17 120.3 . . ?
C17 C16 C15 120.5(5) . . ?
C17 C16 H16 119.8 . . ?
C15 C16 H16 119.8 . . ?
C15 C19 C20 119.4(5) . . ?
C15 C19 H19 120.3 . . ?
C20 C19 H19 120.3 . . ?
C19 C15 C16 120.6(5) . . ?
C19 C15 O6 123.4(5) . . ?
C16 C15 O6 115.6(5) . . ?
C15 O6 C6 118.1(4) . . ?
C5 C6 O6 120.5(5) . . ?
C5 C6 C7 121.6(5) . . ?
O6 C6 C7 117.5(5) . . ?
C4 C7 C6 117.5(5) . . ?
C4 C7 H7 121.3 . . ?
C6 C7 H7 121.3 . . ?
C6 C5 C2 119.0(5) . . ?
C6 C5 H5 120.5 . . ?
C2 C5 H5 120.5 . . ?
C1 O2 Cd1 90.2(4) . . ?
O4 Cd2 O8 161.84(16) . 8_556 ?
O4 Cd2 O2W 95.74(19) . . ?
O8 Cd2 O2W 95.8(2) 8_556 . ?
O4 Cd2 O1W 83.35(12) . . ?
O8 Cd2 O1W 82.42(12) 8_556 . ?
O2W Cd2 O1W 91.31(17) . . ?
O4 Cd2 O7 137.79(13) . 8_556 ?
O8 Cd2 O7 55.83(13) 8_556 8_556 ?
O2W Cd2 O7 91.11(17) . 8_556 ?
O1W Cd2 O7 138.20(12) . 8_556 ?
O4 Cd2 O5 55.49(13) . . ?
O8 Cd2 O5 138.02(13) 8_556 . ?
O2W Cd2 O5 91.45(18) . . ?
O1W Cd2 O5 138.81(12) . . ?
O7 Cd2 O5 82.81(12) 8_556 . ?
O4 Cd2 O1W 84.52(15) . 4_655 ?
O8 Cd2 O1W 83.69(15) 8_556 4_655 ?
O2W Cd2 O1W 178.94(17) . 4_655 ?
O1W Cd2 O1W 87.70(8) . 4_655 ?
O7 Cd2 O1W 89.38(13) 8_556 4_655 ?
O5 Cd2 O1W 89.54(13) . 4_655 ?
O4 Cd2 C14 27.14(15) . . ?
O8 Cd2 C14 163.64(17) 8_556 . ?
O2W Cd2 C14 93.9(2) . . ?
O1W Cd2 C14 110.48(16) . . ?
O7 Cd2 C14 110.96(16) 8_556 . ?
O5 Cd2 C14 28.34(15) . . ?
O1W Cd2 C14 86.75(15) 4_655 . ?
O4 Cd2 C21 162.82(16) . 8_556 ?
O8 Cd2 C21 27.98(15) 8_556 8_556 ?
O2W Cd2 C21 94.24(19) . 8_556 ?
O1W Cd2 C21 110.39(15) . 8_556 ?
O7 Cd2 C21 27.85(14) 8_556 8_556 ?
O5 Cd2 C21 110.36(15) . 8_556 ?
O1W Cd2 C21 85.76(14) 4_655 8_556 ?
C14 Cd2 C21 138.04(19) . 8_556 ?
O4W Cd1 O1 82.34(13) . . ?
O4W Cd1 O1 82.34(13) . 2_655 ?
O1 Cd1 O1 164.7(3) . 2_655 ?
O4W Cd1 O2 134.88(12) . . ?
O1 Cd1 O2 54.07(16) . . ?
O1 Cd1 O2 140.8(2) 2_655 . ?
O4W Cd1 O2 134.88(12) . 2_655 ?
O1 Cd1 O2 140.8(2) . 2_655 ?
O1 Cd1 O2 54.06(16) 2_655 2_655 ?
O2 Cd1 O2 90.2(2) . 2_655 ?
O4W Cd1 O3W 94.53(18) . . ?
O1 Cd1 O3W 92.3(3) . . ?
O1 Cd1 O3W 88.9(3) 2_655 . ?
O2 Cd1 O3W 78.0(2) . . ?
O2 Cd1 O3W 95.5(2) 2_655 . ?
O4W Cd1 O3W 94.53(17) . 2_655 ?
O1 Cd1 O3W 88.9(3) . 2_655 ?
O1 Cd1 O3W 92.3(3) 2_655 2_655 ?
O2 Cd1 O3W 95.5(2) . 2_655 ?
O2 Cd1 O3W 78.0(2) 2_655 2_655 ?
O3W Cd1 O3W 170.9(4) . 2_655 ?
O4W Cd1 C1 108.16(16) . 2_655 ?
O1 Cd1 C1 167.7(2) . 2_655 ?
O1 Cd1 C1 26.64(19) 2_655 2_655 ?
O2 Cd1 C1 116.6(2) . 2_655 ?
O2 Cd1 C1 27.45(18) 2_655 2_655 ?
O3W Cd1 C1 93.2(2) . 2_655 ?
O3W Cd1 C1 83.9(2) 2_655 2_655 ?
O4W Cd1 C1 108.16(16) . . ?
O1 Cd1 C1 26.64(19) . . ?
O1 Cd1 C1 167.7(2) 2_655 . ?
O2 Cd1 C1 27.45(18) . . ?
O2 Cd1 C1 116.6(2) 2_655 . ?
O3W Cd1 C1 83.9(2) . . ?
O3W Cd1 C1 93.3(2) 2_655 . ?
C1 Cd1 C1 143.7(3) 2_655 . ?
C8 O3 C4 119.9(4) . . ?
C14 O4 Cd2 97.0(3) . . ?
Cd2 O1W Cd2 123.62(15) . 4_645 ?
C12 C13 C10 118.5(5) . . ?
C12 C13 C14 123.5(5) . . ?
C10 C13 C14 118.0(5) . . ?
O4 C14 O5 121.0(5) . . ?
O4 C14 C13 121.1(5) . . ?
O5 C14 C13 117.8(5) . . ?
O4 C14 Cd2 55.9(3) . . ?
O5 C14 Cd2 65.1(3) . . ?
C13 C14 Cd2 176.1(4) . . ?
C9 C8 O3 113.7(4) . . ?
C9 C8 C11 121.2(5) . . ?
O3 C8 C11 125.0(4) . . ?
C13 C10 C9 119.7(5) . . ?
C13 C10 H10 120.1 . . ?
C9 C10 H10 120.1 . . ?
C14 O5 Cd2 86.5(3) . . ?
C13 C12 C11 122.5(5) . . ?
C13 C12 H12 118.7 . . ?
C11 C12 H12 118.7 . . ?
C8 C9 C10 119.8(5) . . ?
C8 C9 H9 120.1 . . ?
C10 C9 H9 120.1 . . ?
C7 C4 C3 122.6(5) . . ?
C7 C4 O3 115.8(5) . . ?
C3 C4 O3 121.4(5) . . ?
C3 C2 C5 120.4(5) . . ?
C3 C2 C1 121.9(5) . . ?
C5 C2 C1 117.6(5) . . ?
C12 C11 C8 118.1(5) . . ?
C12 C11 H11 120.9 . . ?
C8 C11 H11 120.9 . . ?
C2 C3 C4 118.7(5) . . ?
C2 C3 H3 120.6 . . ?
C4 C3 H3 120.6 . . ?
C1 O1 Cd1 95.0(4) . . ?
O1 C1 O2 120.7(6) . . ?
O1 C1 C2 120.4(6) . . ?
O2 C1 C2 118.8(6) . . ?
O1 C1 Cd1 58.4(3) . . ?
O2 C1 Cd1 62.4(3) . . ?
C2 C1 Cd1 173.6(5) . . ?

loop_
_geom_torsion_atom_site_label_1
_geom_torsion_atom_site_label_2
_geom_torsion_atom_site_label_3
_geom_torsion_atom_site_label_4
_