####################################################################### 
# 
# This file contains crystal structure data downloaded from the 
# Cambridge Structural Database (CSD) hosted by the Cambridge 
# Crystallographic Data Centre (CCDC).
# 
# Full information about CCDC data access policies and citation 
# guidelines are available at http://www.ccdc.cam.ac.uk/access/V1 
# 
# Audit and citation data items may have been added by the CCDC. 
# Please retain this information to preserve the provenance of 
# this file and to allow appropriate attribution of the data. 
# 
#######################################################################

data_22
_audit_block_doi                 10.5517/cc13rd4d
_database_code_depnum_ccdc_archive 'CCDC 1035373'
loop_
_citation_id
_citation_doi
_citation_year
1 10.1016/j.jorganchem.2015.04.036 2015
_audit_update_record             
;
2014-11-20 deposited with the CCDC.	2024-07-13 downloaded from the CCDC.
;

_audit_creation_method           SHELXL-97
_chemical_name_systematic        
;
 ?
;
_chemical_name_common            ?
_chemical_melting_point          ?
_chemical_formula_moiety         ?
_chemical_formula_sum            'C27 H34 O6 Pb S4'
_chemical_formula_weight         789.97

loop_
_atom_type_symbol
_atom_type_description
_atom_type_scat_dispersion_real
_atom_type_scat_dispersion_imag
_atom_type_scat_source
C C 0.0033 0.0016 'International Tables Vol C Tables 4.2.6.8 and 6.1.1.4'
H H 0.0000 0.0000 'International Tables Vol C Tables 4.2.6.8 and 6.1.1.4'
O O 0.0106 0.0060 'International Tables Vol C Tables 4.2.6.8 and 6.1.1.4'
S S 0.1246 0.1234 'International Tables Vol C Tables 4.2.6.8 and 6.1.1.4'
Pb Pb -3.3944 10.1111 'International Tables Vol C Tables 4.2.6.8 and 6.1.1.4'

_symmetry_cell_setting           triclinic
_symmetry_space_group_name_H-M   P-1

loop_
_symmetry_equiv_pos_as_xyz
'x, y, z'
'-x, -y, -z'

_cell_length_a                   6.435(5)
_cell_length_b                   15.164(5)
_cell_length_c                   16.001(5)
_cell_angle_alpha                93.073(5)
_cell_angle_beta                 96.179(5)
_cell_angle_gamma                97.677(5)
_cell_volume                     1534.7(14)
_cell_formula_units_Z            2
_cell_measurement_temperature    100.0(1)
_cell_measurement_reflns_used    1841
_cell_measurement_theta_min      2.7175
_cell_measurement_theta_max      25.175

_exptl_crystal_description       plate
_exptl_crystal_colour            colourless
_exptl_crystal_size_max          0.54
_exptl_crystal_size_mid          0.08
_exptl_crystal_size_min          0.01
_exptl_crystal_density_meas      ?
_exptl_crystal_density_diffrn    1.709
_exptl_crystal_density_method    'not measured'
_exptl_crystal_F_000             780
_exptl_absorpt_coefficient_mu    5.806
_exptl_absorpt_correction_type   multi-scan
_exptl_absorpt_correction_T_min  0.673132
_exptl_absorpt_correction_T_max  1
_exptl_absorpt_process_details   '(Sadabs, Sheldrick, 1996)'

_exptl_special_details           
;
 ?
;

_diffrn_ambient_temperature      100.0(1)
_diffrn_radiation_wavelength     0.71073
_diffrn_radiation_type           MoK\a
_diffrn_radiation_source         'fine-focus sealed tube'
_diffrn_radiation_monochromator  graphite
_diffrn_measurement_device_type  'Bruker X8 KappaAPEXII'
_diffrn_measurement_method       'omega and phi scans'
_diffrn_detector_area_resol_mean ?
_diffrn_standards_number         ?
_diffrn_standards_interval_count ?
_diffrn_standards_interval_time  ?
_diffrn_standards_decay_%        ?
_diffrn_reflns_number            5979
_diffrn_reflns_av_R_equivalents  0.0738
_diffrn_reflns_av_sigmaI/netI    0.0577
_diffrn_reflns_limit_h_min       -7
_diffrn_reflns_limit_h_max       7
_diffrn_reflns_limit_k_min       -18
_diffrn_reflns_limit_k_max       18
_diffrn_reflns_limit_l_min       0
_diffrn_reflns_limit_l_max       19
_diffrn_reflns_theta_min         1.28
_diffrn_reflns_theta_max         26.02
_reflns_number_total             5979
_reflns_number_gt                5098
_reflns_threshold_expression     >2sigma(I)

_computing_data_collection       'BRUKER APEX2'
_computing_cell_refinement       'BRUKER APEX2'
_computing_data_reduction        'Bruker SAINT'
_computing_structure_solution    'SHELXS-97 (Sheldrick, 1997)'
_computing_structure_refinement  'SHELXL-97 (Sheldrick, 1997)'
_computing_molecular_graphics    'Ortep-3 for Windows (Farrugia, 1997)'
_computing_publication_material  'WinGX publication routines (Farrugia, 1999)'

_refine_special_details          
;
 Refinement of F^2^ against ALL reflections.  The weighted R-factor wR and
 goodness of fit S are based on F^2^, conventional R-factors R are based
 on F, with F set to zero for negative F^2^. The threshold expression of
 F^2^ > 2sigma(F^2^) is used only for calculating R-factors(gt) etc. and is
 not relevant to the choice of reflections for refinement.  R-factors based
 on F^2^ are statistically about twice as large as those based on F, and R-
 factors based on ALL data will be even larger.
;

_refine_ls_structure_factor_coef Fsqd
_refine_ls_matrix_type           full
_refine_ls_weighting_scheme      calc
_refine_ls_weighting_details     
'calc w=1/[\s^2^(Fo^2^)+(0.0429P)^2^+6.7922P] where P=(Fo^2^+2Fc^2^)/3'
_atom_sites_solution_primary     direct
_atom_sites_solution_secondary   difmap
_atom_sites_solution_hydrogens   geom
_refine_ls_hydrogen_treatment    mixed
_refine_ls_extinction_method     none
_refine_ls_extinction_coef       ?
_refine_ls_number_reflns         5979
_refine_ls_number_parameters     347
_refine_ls_number_restraints     12
_refine_ls_R_factor_all          0.0549
_refine_ls_R_factor_gt           0.0418
_refine_ls_wR_factor_ref         0.0962
_refine_ls_wR_factor_gt          0.0898
_refine_ls_goodness_of_fit_ref   1.063
_refine_ls_restrained_S_all      1.064
_refine_ls_shift/su_max          0.001
_refine_ls_shift/su_mean         0.000

loop_
_atom_site_label
_atom_site_type_symbol
_atom_site_fract_x
_atom_site_fract_y
_atom_site_fract_z
_atom_site_U_iso_or_equiv
_atom_site_adp_type
_atom_site_occupancy
_atom_site_symmetry_multiplicity
_atom_site_calc_flag
_atom_site_refinement_flags
_atom_site_disorder_assembly
_atom_site_disorder_group
C1 C 0.6261(10) 0.4937(4) 0.2585(4) 0.0144(13) Uani 1 1 d U . .
C2 C 0.5459(10) 0.5827(4) 0.2465(4) 0.0129(13) Uani 1 1 d U . .
C3 C 0.6784(10) 0.6489(4) 0.2212(4) 0.0164(14) Uani 1 1 d . . .
H3 H 0.8116 0.6340 0.2145 0.020 Uiso 1 1 calc R . .
C4 C 0.6533(13) 0.7395(4) 0.2022(4) 0.0261(17) Uani 1 1 d . . .
C5 C 0.8376(11) 0.7979(4) 0.1891(4) 0.0187(14) Uani 1 1 d . . .
H5 H 0.9662 0.7759 0.1921 0.022 Uiso 1 1 calc R . .
C6 C 0.8323(11) 0.8862(4) 0.1722(4) 0.0216(15) Uani 1 1 d . . .
H6 H 0.9563 0.9226 0.1647 0.026 Uiso 1 1 calc R . .
C7 C 0.6417(11) 0.9207(4) 0.1663(4) 0.0190(14) Uani 1 1 d . . .
C8 C 0.4592(11) 0.8647(5) 0.1786(4) 0.0216(15) Uani 1 1 d . . .
H8 H 0.3302 0.8864 0.1744 0.026 Uiso 1 1 calc R . .
C9 C 0.4683(10) 0.7773(4) 0.1971(4) 0.0191(14) Uani 1 1 d . . .
H9 H 0.3443 0.7422 0.2066 0.023 Uiso 1 1 calc R . .
C10 C 0.0641(11) 0.3968(4) 0.1271(4) 0.0187(14) Uani 1 1 d . . .
C11 C 0.2254(11) 0.4108(4) 0.0771(4) 0.0192(14) Uani 1 1 d . . .
H11 H 0.3647 0.4258 0.1012 0.023 Uiso 1 1 calc R . .
C12 C 0.1758(12) 0.4018(5) -0.0105(4) 0.0226(15) Uani 1 1 d . . .
H12 H 0.2820 0.4108 -0.0456 0.027 Uiso 1 1 calc R . .
C13 C -0.0324(12) 0.3796(5) -0.0445(4) 0.0261(17) Uani 1 1 d . . .
H13 H -0.0659 0.3748 -0.1027 0.031 Uiso 1 1 calc R . .
C14 C -0.1921(11) 0.3644(5) 0.0066(4) 0.0220(15) Uani 1 1 d . . .
H14 H -0.3312 0.3482 -0.0173 0.026 Uiso 1 1 calc R . .
C15 C -0.1434(11) 0.3735(4) 0.0939(4) 0.0200(14) Uani 1 1 d . . .
H15 H -0.2492 0.3640 0.1290 0.024 Uiso 1 1 calc R . .
C20 C 0.1080(10) 0.4001(4) 0.3941(4) 0.0156(13) Uani 1 1 d . . .
C21 C 0.2932(11) 0.4054(4) 0.4501(4) 0.0179(14) Uani 1 1 d . . .
H21 H 0.4256 0.4183 0.4319 0.022 Uiso 1 1 calc R . .
C22 C 0.2714(11) 0.3907(4) 0.5342(4) 0.0203(15) Uani 1 1 d . . .
H22 H 0.3915 0.3929 0.5727 0.024 Uiso 1 1 calc R . .
C23 C 0.0761(11) 0.3732(4) 0.5610(4) 0.0227(16) Uani 1 1 d . . .
H23 H 0.0645 0.3641 0.6175 0.027 Uiso 1 1 calc R . .
C24 C -0.1070(11) 0.3690(4) 0.5038(4) 0.0196(14) Uani 1 1 d . . .
H24 H -0.2397 0.3574 0.5221 0.024 Uiso 1 1 calc R . .
C25 C -0.0880(11) 0.3822(4) 0.4197(4) 0.0190(14) Uani 1 1 d . . .
H25 H -0.2080 0.3789 0.3810 0.023 Uiso 1 1 calc R . .
C41 C 0.4540(13) 0.1604(5) 0.3145(5) 0.0356(19) Uani 1 1 d . . .
H41A H 0.5655 0.2095 0.3279 0.053 Uiso 1 1 calc R . .
H41B H 0.4547 0.1376 0.2574 0.053 Uiso 1 1 calc R . .
H41C H 0.4751 0.1142 0.3519 0.053 Uiso 1 1 calc R . .
C42 C 0.0424(12) 0.0935(5) 0.2977(5) 0.0312(18) Uani 1 1 d . . .
H42A H -0.1025 0.1012 0.3003 0.047 Uiso 1 1 calc R . .
H42B H 0.0808 0.0503 0.3361 0.047 Uiso 1 1 calc R . .
H42C H 0.0605 0.0732 0.2414 0.047 Uiso 1 1 calc R . .
C51 C -0.0186(11) 0.1477(5) 0.0579(5) 0.0246(16) Uani 1 1 d . . .
H51A H -0.1431 0.1052 0.0586 0.037 Uiso 1 1 calc R . .
H51B H -0.0422 0.1873 0.0140 0.037 Uiso 1 1 calc R . .
H51C H 0.0128 0.1815 0.1113 0.037 Uiso 1 1 calc R . .
C52 C 0.3937(12) 0.1858(5) 0.0410(5) 0.0328(19) Uani 1 1 d . . .
H52A H 0.5261 0.1667 0.0316 0.049 Uiso 1 1 calc R . .
H52B H 0.4079 0.2183 0.0950 0.049 Uiso 1 1 calc R . .
H52C H 0.3528 0.2236 -0.0023 0.049 Uiso 1 1 calc R . .
C61 C 0.5358(15) 0.1620(6) 0.5642(6) 0.046(2) Uani 1 1 d . . .
H61A H 0.6656 0.1413 0.5534 0.069 Uiso 1 1 calc R . .
H61B H 0.5536 0.1927 0.6191 0.069 Uiso 1 1 calc R . .
H61C H 0.4978 0.2021 0.5225 0.069 Uiso 1 1 calc R . .
C62 C 0.1242(14) 0.1301(6) 0.5822(5) 0.040(2) Uani 1 1 d . . .
H62A H -0.0039 0.0897 0.5827 0.061 Uiso 1 1 calc R . .
H62B H 0.1041 0.1716 0.5398 0.061 Uiso 1 1 calc R . .
H62C H 0.1607 0.1621 0.6364 0.061 Uiso 1 1 calc R . .
O1 O 0.4988(7) 0.4247(3) 0.2690(3) 0.0164(10) Uani 1 1 d . . .
O2 O -0.1818(7) 0.4930(3) 0.2572(3) 0.0195(10) Uani 1 1 d . . .
O3 O 0.6391(8) 1.0063(3) 0.1477(3) 0.0253(11) Uani 1 1 d . . .
O4 O 0.1673(9) 0.2548(3) 0.2523(3) 0.0290(12) Uani 1 1 d . . .
O5 O 0.2512(8) 0.0446(3) 0.1186(3) 0.0254(11) Uani 1 1 d . . .
O6 O 0.2830(9) 0.0362(3) 0.4683(3) 0.0329(13) Uani 1 1 d . . .
S1 S 0.2887(2) 0.59188(10) 0.27100(10) 0.0153(3) Uani 1 1 d . . .
S4 S 0.2069(3) 0.19748(12) 0.32600(11) 0.0252(4) Uani 1 1 d . . .
S5 S 0.1969(3) 0.09063(11) 0.03880(11) 0.0214(4) Uani 1 1 d . . .
S6 S 0.3313(3) 0.06884(13) 0.55975(12) 0.0313(4) Uani 1 1 d . . .
Pb Pb 0.14231(4) 0.424697(16) 0.263270(14) 0.01410(9) Uani 1 1 d . . .
H3O H 0.511(13) 1.016(5) 0.131(5) 0.03(2) Uiso 1 1 d . . .

loop_
_atom_site_aniso_label
_atom_site_aniso_U_11
_atom_site_aniso_U_22
_atom_site_aniso_U_33
_atom_site_aniso_U_23
_atom_site_aniso_U_13
_atom_site_aniso_U_12
C1 0.015(2) 0.018(2) 0.009(2) 0.0035(17) -0.0030(18) 0.0037(18)
C2 0.012(2) 0.017(2) 0.009(2) 0.0032(17) -0.0030(18) 0.0015(18)
C3 0.017(3) 0.019(3) 0.012(3) 0.001(2) -0.005(3) 0.005(3)
C4 0.044(5) 0.018(4) 0.018(4) -0.005(3) -0.002(3) 0.018(3)
C5 0.020(4) 0.025(4) 0.013(3) 0.006(3) 0.000(3) 0.007(3)
C6 0.017(4) 0.026(4) 0.020(4) 0.008(3) -0.003(3) -0.004(3)
C7 0.021(4) 0.019(3) 0.017(3) 0.006(3) -0.003(3) 0.005(3)
C8 0.015(3) 0.029(4) 0.023(4) 0.006(3) -0.001(3) 0.010(3)
C9 0.014(3) 0.020(3) 0.024(4) 0.016(3) 0.001(3) 0.004(3)
C10 0.030(4) 0.017(3) 0.008(3) 0.000(2) -0.002(3) 0.004(3)
C11 0.016(3) 0.028(4) 0.012(3) 0.002(3) -0.003(3) 0.002(3)
C12 0.031(4) 0.028(4) 0.011(3) 0.002(3) 0.009(3) 0.006(3)
C13 0.045(5) 0.024(4) 0.007(3) -0.002(3) -0.012(3) 0.008(3)
C14 0.019(4) 0.029(4) 0.016(3) 0.002(3) -0.007(3) 0.004(3)
C15 0.018(4) 0.026(4) 0.015(3) 0.001(3) -0.002(3) 0.002(3)
C20 0.022(4) 0.019(3) 0.007(3) 0.005(2) 0.002(3) 0.003(3)
C21 0.015(3) 0.025(4) 0.014(3) 0.006(3) 0.005(3) -0.001(3)
C22 0.019(4) 0.031(4) 0.009(3) 0.002(3) -0.004(3) 0.002(3)
C23 0.030(4) 0.025(4) 0.012(3) 0.008(3) -0.002(3) 0.003(3)
C24 0.016(3) 0.028(4) 0.016(3) 0.007(3) 0.002(3) 0.003(3)
C25 0.018(4) 0.025(4) 0.013(3) 0.007(3) -0.001(3) -0.001(3)
C41 0.034(5) 0.037(5) 0.033(4) 0.009(4) -0.009(4) 0.006(4)
C42 0.032(4) 0.033(4) 0.026(4) 0.008(3) -0.002(4) -0.004(3)
C51 0.018(4) 0.029(4) 0.030(4) 0.014(3) 0.003(3) 0.009(3)
C52 0.028(4) 0.034(4) 0.036(5) 0.016(3) -0.002(4) 0.001(3)
C61 0.047(6) 0.052(6) 0.034(5) -0.007(4) -0.004(4) 0.001(4)
C62 0.044(5) 0.041(5) 0.037(5) -0.001(4) 0.008(4) 0.009(4)
O1 0.017(2) 0.018(2) 0.014(2) 0.0053(18) -0.0014(19) 0.0013(18)
O2 0.017(2) 0.024(3) 0.018(2) 0.0074(19) -0.002(2) 0.0051(19)
O3 0.017(3) 0.024(3) 0.035(3) 0.011(2) 0.002(2) 0.001(2)
O4 0.052(4) 0.021(3) 0.014(2) 0.006(2) -0.007(2) 0.011(2)
O5 0.026(3) 0.028(3) 0.025(3) 0.015(2) 0.004(2) 0.008(2)
O6 0.044(3) 0.037(3) 0.016(3) 0.000(2) -0.002(2) 0.007(2)
S1 0.0131(8) 0.0199(8) 0.0125(8) 0.0038(6) -0.0014(6) 0.0026(6)
S4 0.0374(11) 0.0243(9) 0.0133(8) 0.0038(7) -0.0037(8) 0.0062(8)
S5 0.0233(9) 0.0231(9) 0.0184(8) 0.0065(7) 0.0004(7) 0.0053(7)
S6 0.0413(12) 0.0333(11) 0.0178(9) 0.0040(8) -0.0039(8) 0.0049(9)
Pb 0.01520(14) 0.02060(14) 0.00617(12) 0.00454(8) -0.00335(9) 0.00358(9)

_geom_special_details            
;
 All esds (except the esd in the dihedral angle between two l.s. planes)
 are estimated using the full covariance matrix.  The cell esds are taken
 into account individually in the estimation of esds in distances, angles
 and torsion angles; correlations between esds in cell parameters are only
 used when they are defined by crystal symmetry.  An approximate (isotropic)
 treatment of cell esds is used for estimating esds involving l.s. planes.
;

loop_
_geom_bond_atom_site_label_1
_geom_bond_atom_site_label_2
_geom_bond_distance
_geom_bond_site_symmetry_2
_geom_bond_publ_flag
C1 O2 1.240(8) 1_655 ?
C1 O1 1.271(8) . ?
C1 C2 1.521(8) . ?
C2 C3 1.339(9) . ?
C2 S1 1.763(7) . ?
C3 C4 1.449(9) . ?
C4 C9 1.386(10) . ?
C4 C5 1.424(10) . ?
C5 C6 1.385(9) . ?
C6 C7 1.393(10) . ?
C7 O3 1.349(8) . ?
C7 C8 1.393(10) . ?
C8 C9 1.381(9) . ?
C10 C15 1.375(9) . ?
C10 C11 1.379(10) . ?
C10 Pb 2.188(6) . ?
C11 C12 1.399(9) . ?
C12 C13 1.381(10) . ?
C13 C14 1.383(11) . ?
C14 C15 1.394(9) . ?
C20 C25 1.365(9) . ?
C20 C21 1.403(9) . ?
C20 Pb 2.175(6) . ?
C21 C22 1.394(9) . ?
C22 C23 1.369(10) . ?
C23 C24 1.404(9) . ?
C24 C25 1.387(9) . ?
C41 S4 1.780(8) . ?
C42 S4 1.785(7) . ?
C51 S5 1.774(7) . ?
C52 S5 1.784(8) . ?
C61 S6 1.790(9) . ?
C62 S6 1.780(8) . ?
O1 Pb 2.286(5) . ?
O2 C1 1.240(8) 1_455 ?
O2 Pb 2.445(5) . ?
O4 S4 1.522(5) . ?
O4 Pb 2.601(5) . ?
O5 S5 1.519(5) . ?
O6 S6 1.505(5) . ?
S1 Pb 2.5754(18) . ?

loop_
_geom_angle_atom_site_label_1
_geom_angle_atom_site_label_2
_geom_angle_atom_site_label_3
_geom_angle
_geom_angle_site_symmetry_1
_geom_angle_site_symmetry_3
_geom_angle_publ_flag
O2 C1 O1 123.0(6) 1_655 . ?
O2 C1 C2 116.6(5) 1_655 . ?
O1 C1 C2 120.3(6) . . ?
C3 C2 C1 117.6(6) . . ?
C3 C2 S1 124.9(5) . . ?
C1 C2 S1 117.5(4) . . ?
C2 C3 C4 132.0(7) . . ?
C9 C4 C5 115.3(6) . . ?
C9 C4 C3 127.1(7) . . ?
C5 C4 C3 117.6(6) . . ?
C6 C5 C4 122.4(6) . . ?
C5 C6 C7 120.1(6) . . ?
O3 C7 C6 119.2(6) . . ?
O3 C7 C8 122.3(6) . . ?
C6 C7 C8 118.5(6) . . ?
C9 C8 C7 120.5(6) . . ?
C8 C9 C4 123.1(7) . . ?
C15 C10 C11 122.3(6) . . ?
C15 C10 Pb 119.6(5) . . ?
C11 C10 Pb 117.9(5) . . ?
C10 C11 C12 118.8(6) . . ?
C13 C12 C11 119.3(7) . . ?
C12 C13 C14 121.2(6) . . ?
C13 C14 C15 119.7(6) . . ?
C10 C15 C14 118.7(7) . . ?
C25 C20 C21 122.2(6) . . ?
C25 C20 Pb 120.3(5) . . ?
C21 C20 Pb 117.5(5) . . ?
C22 C21 C20 117.6(6) . . ?
C23 C22 C21 121.0(6) . . ?
C22 C23 C24 120.4(6) . . ?
C25 C24 C23 119.3(7) . . ?
C20 C25 C24 119.6(6) . . ?
C1 O1 Pb 122.8(4) . . ?
C1 O2 Pb 155.2(4) 1_455 . ?
S4 O4 Pb 125.9(3) . . ?
C2 S1 Pb 98.7(2) . . ?
O4 S4 C41 105.2(4) . . ?
O4 S4 C42 105.4(3) . . ?
C41 S4 C42 97.8(4) . . ?
O5 S5 C51 105.9(3) . . ?
O5 S5 C52 105.9(3) . . ?
C51 S5 C52 97.9(4) . . ?
O6 S6 C62 106.0(4) . . ?
O6 S6 C61 106.0(4) . . ?
C62 S6 C61 97.2(4) . . ?
C20 Pb C10 153.6(3) . . ?
C20 Pb O1 98.3(2) . . ?
C10 Pb O1 97.8(2) . . ?
C20 Pb O2 88.4(2) . . ?
C10 Pb O2 85.7(2) . . ?
O1 Pb O2 155.13(15) . . ?
C20 Pb S1 103.04(17) . . ?
C10 Pb S1 100.89(17) . . ?
O1 Pb S1 76.81(11) . . ?
O2 Pb S1 78.36(12) . . ?
C20 Pb O4 82.54(19) . . ?
C10 Pb O4 80.39(19) . . ?
O1 Pb O4 78.39(16) . . ?
O2 Pb O4 126.37(16) . . ?
S1 Pb O4 155.11(13) . . ?

loop_
_geom_hbond_atom_site_label_D
_geom_hbond_atom_site_label_H
_geom_hbond_atom_site_label_A
_geom_hbond_distance_DH
_geom_hbond_distance_HA
_geom_hbond_distance_DA
_geom_hbond_angle_DHA
_geom_hbond_site_symmetry_A
C9 H9 S1 0.93 2.55 3.229(6) 130.2 .
C51 H51C O4 0.96 2.50 3.447(9) 167.6 .
C42 H42B O6 0.96 2.40 3.211(9) 142.3 .
C42 H42C O5 0.96 2.47 3.381(10) 157.4 .
O3 H3O O5 0.87(8) 1.78(8) 2.636(7) 168(8) 1_565
C51 H51A O3 0.96 2.52 3.356(9) 145.8 1_445
C62 H62A O6 0.96 2.48 3.383(11) 157.1 2_556

_diffrn_measured_fraction_theta_max 0.991
_diffrn_reflns_theta_full        26.02
_diffrn_measured_fraction_theta_full 0.991
_refine_diff_density_max         2.149
_refine_diff_density_min         -2.776
_refine_diff_density_rms         0.208
#====END




