####################################################################### 
# 
# This file contains crystal structure data downloaded from the 
# Cambridge Structural Database (CSD) hosted by the Cambridge 
# Crystallographic Data Centre (CCDC).
# 
# Full information about CCDC data access policies and citation 
# guidelines are available at http://www.ccdc.cam.ac.uk/access/V1 
# 
# Audit and citation data items may have been added by the CCDC. 
# Please retain this information to preserve the provenance of 
# this file and to allow appropriate attribution of the data. 
# 
#######################################################################

data_zxw-469
_audit_block_doi                 10.5517/cc12wdhv
_database_code_depnum_ccdc_archive 'CCDC 1009437'
loop_
_citation_id
_citation_doi
_citation_year
1 10.1016/j.jssc.2015.05.008 2015
_audit_update_record             
;
2014-06-20 deposited with the CCDC.	2024-07-13 downloaded from the CCDC.
;
_audit_creation_date             2014-06-20
_audit_creation_method           
;
Olex2 1.2
(compiled 2014.06.18 svn.r2945 for OlexSys, GUI svn.r4846)
;
_chemical_name_common            ?
_chemical_name_systematic        
;
 ? 
;
_chemical_formula_moiety         'C22 H14 Br4 Co N4 O4'
_chemical_formula_sum            'C22 H14 Br4 Co N4 O4'
_chemical_formula_weight         776.94
_chemical_melting_point          ?
_chemical_oxdiff_formula         'C H O N Br Co'
loop_
_atom_type_symbol
_atom_type_description
_atom_type_scat_dispersion_real
_atom_type_scat_dispersion_imag
_atom_type_scat_source
C C 0.0181 0.0091 'International Tables Vol C Tables 4.2.6.8 and 6.1.1.4'
H H 0.0000 0.0000 'International Tables Vol C Tables 4.2.6.8 and 6.1.1.4'
Br Br -0.6763 1.2805 'International Tables Vol C Tables 4.2.6.8 and 6.1.1.4'
Co Co -2.3653 3.6143 'International Tables Vol C Tables 4.2.6.8 and 6.1.1.4'
N N 0.0311 0.0180 'International Tables Vol C Tables 4.2.6.8 and 6.1.1.4'
O O 0.0492 0.0322 'International Tables Vol C Tables 4.2.6.8 and 6.1.1.4'

_space_group_crystal_system      monoclinic
_space_group_IT_number           14
_space_group_name_H-M_alt        'P 1 21/c 1'
_space_group_name_Hall           '-P 2ybc'
loop_
_space_group_symop_id
_space_group_symop_operation_xyz
1 'x, y, z'
2 '-x, y+1/2, -z+1/2'
3 '-x, -y, -z'
4 'x, -y-1/2, z-1/2'

_cell_length_a                   9.7594(6)
_cell_length_b                   20.6475(6)
_cell_length_c                   16.4938(7)
_cell_angle_alpha                90.00
_cell_angle_beta                 98.508(5)
_cell_angle_gamma                90.00
_cell_volume                     3287.1(3)
_cell_formula_units_Z            4
_cell_measurement_reflns_used    3545
_cell_measurement_temperature    296.73(11)
_cell_measurement_theta_max      69.1960
_cell_measurement_theta_min      4.2760
_exptl_absorpt_coefficient_mu    10.039
_exptl_absorpt_correction_T_max  1.00000
_exptl_absorpt_correction_T_min  0.14827
_exptl_absorpt_correction_type   multi-scan
_exptl_absorpt_process_details   
;
CrysAlisPro, Agilent Technologies,
Version 1.171.36.32 (release 02-08-2013 CrysAlis171 .NET)
(compiled Aug  2 2013,16:46:58)
Empirical absorption correction using spherical harmonics,
 implemented in SCALE3 ABSPACK scaling algorithm.
;
_exptl_crystal_density_diffrn    1.570
_exptl_crystal_density_meas      ?
_exptl_crystal_density_method    'not measured'
_exptl_crystal_F_000             1492
_exptl_crystal_size_max          ?
_exptl_crystal_size_mid          ?
_exptl_crystal_size_min          ?
_exptl_special_details           
;
 ? 
;
_diffrn_reflns_av_R_equivalents  0.0550
_diffrn_reflns_av_unetI/netI     0.0760
_diffrn_reflns_limit_h_max       11
_diffrn_reflns_limit_h_min       -8
_diffrn_reflns_limit_k_max       18
_diffrn_reflns_limit_k_min       -24
_diffrn_reflns_limit_l_max       18
_diffrn_reflns_limit_l_min       -19
_diffrn_reflns_number            12030
_diffrn_reflns_theta_full        67.08
_diffrn_reflns_theta_max         67.08
_diffrn_reflns_theta_min         3.45
_diffrn_ambient_temperature      296.73(11)
_diffrn_detector_area_resol_mean 16.0450
_diffrn_measured_fraction_theta_full 1.000
_diffrn_measured_fraction_theta_max 1.000
_diffrn_measurement_details      
;
#__ type_ start__ end____ width___ exp.time_
  1 omega  -28.00   17.00   1.0000    1.5400
omega____ theta____ kappa____ phi______ frames
    -        0.0000   77.0000  150.0000 45

#__ type_ start__ end____ width___ exp.time_
  2 omega  -17.00   10.00   1.0000    1.5400
omega____ theta____ kappa____ phi______ frames
    -        0.0000   57.0000  -60.0000 27

#__ type_ start__ end____ width___ exp.time_
  3 omega   26.00   68.00   1.0000    1.5400
omega____ theta____ kappa____ phi______ frames
    -        0.0000   77.0000  150.0000 42

#__ type_ start__ end____ width___ exp.time_
  4 omega   43.00   86.00   1.0000    5.0000
omega____ theta____ kappa____ phi______ frames
    -       54.0000  -77.0000  -60.0000 43

#__ type_ start__ end____ width___ exp.time_
  5 omega   23.00  111.00   1.0000    5.0000
omega____ theta____ kappa____ phi______ frames
    -       54.0000   77.0000   90.0000 88

#__ type_ start__ end____ width___ exp.time_
  6 omega   73.00  122.00   1.0000    5.0000
omega____ theta____ kappa____ phi______ frames
    -       54.0000   57.0000   60.0000 49

#__ type_ start__ end____ width___ exp.time_
  7 omega  -18.00   81.00   1.0000    5.0000
omega____ theta____ kappa____ phi______ frames
    -       54.0000  -38.0000  120.0000 99

#__ type_ start__ end____ width___ exp.time_
  8 omega   45.00   71.00   1.0000    5.0000
omega____ theta____ kappa____ phi______ frames
    -       54.0000   57.0000   60.0000 26

#__ type_ start__ end____ width___ exp.time_
  9 omega   44.00   89.00   1.0000    5.0000
omega____ theta____ kappa____ phi______ frames
    -      108.0000  -25.0000 -150.0000 45

#__ type_ start__ end____ width___ exp.time_
 10 omega   35.00   86.00   1.0000    5.0000
omega____ theta____ kappa____ phi______ frames
    -      108.0000  -38.0000  -60.0000 51

#__ type_ start__ end____ width___ exp.time_
 11 omega   55.00   80.00   1.0000    5.0000
omega____ theta____ kappa____ phi______ frames
    -      108.0000  -25.0000    0.0000 25

#__ type_ start__ end____ width___ exp.time_
 12 omega   38.00   64.00   1.0000    5.0000
omega____ theta____ kappa____ phi______ frames
    -      108.0000  -50.0000   60.0000 26

#__ type_ start__ end____ width___ exp.time_
 13 omega   53.00   93.00   1.0000    5.0000
omega____ theta____ kappa____ phi______ frames
    -      108.0000  -38.0000  -30.0000 40

#__ type_ start__ end____ width___ exp.time_
 14 omega   67.00   93.00   1.0000    5.0000
omega____ theta____ kappa____ phi______ frames
    -      108.0000  -38.0000 -120.0000 26

#__ type_ start__ end____ width___ exp.time_
 15 omega   55.00   98.00   1.0000    5.0000
omega____ theta____ kappa____ phi______ frames
    -      108.0000 -111.0000   90.0000 43

#__ type_ start__ end____ width___ exp.time_
 16 omega   41.00  113.00   1.0000    5.0000
omega____ theta____ kappa____ phi______ frames
    -      108.0000 -111.0000  150.0000 72

#__ type_ start__ end____ width___ exp.time_
 17 omega   36.00  178.00   1.0000    5.0000
omega____ theta____ kappa____ phi______ frames
    -      108.0000    0.0000 -120.0000 142

#__ type_ start__ end____ width___ exp.time_
 18 omega  -71.00   28.00   1.0000    1.5400
omega____ theta____ kappa____ phi______ frames
    -        0.0000  -77.0000   60.0000 99
;
_diffrn_measurement_device_type  'SuperNova, Dual, Cu at zero, Eos'
_diffrn_measurement_method       '\w scans'
_diffrn_orient_matrix_UB_11      0.1283308000
_diffrn_orient_matrix_UB_12      -0.0129327000
_diffrn_orient_matrix_UB_13      -0.0418772000
_diffrn_orient_matrix_UB_21      0.0864720000
_diffrn_orient_matrix_UB_22      -0.0135183000
_diffrn_orient_matrix_UB_23      0.0842402000
_diffrn_orient_matrix_UB_31      -0.0392434000
_diffrn_orient_matrix_UB_32      -0.0722180000
_diffrn_orient_matrix_UB_33      -0.0082908000
_diffrn_radiation_monochromator  mirror
_diffrn_radiation_type           CuK\a
_diffrn_radiation_wavelength     1.54184
_diffrn_source                   'SuperNova (Cu) X-ray Source'
_diffrn_standards_decay_%        ?
_diffrn_standards_interval_count ?
_diffrn_standards_interval_time  ?
_diffrn_standards_number         ?
_reflns_number_gt                3857
_reflns_number_total             5878
_reflns_odcompleteness_completeness 99.93
_reflns_odcompleteness_iscentric 1
_reflns_odcompleteness_theta     66.97
_reflns_threshold_expression     >2sigma(I)
_computing_cell_refinement       
;
CrysAlisPro, Agilent Technologies,
Version 1.171.36.32 (release 02-08-2013 CrysAlis171 .NET)
(compiled Aug  2 2013,16:46:58)
;
_computing_data_collection       
;
CrysAlisPro, Agilent Technologies,
Version 1.171.36.32 (release 02-08-2013 CrysAlis171 .NET)
(compiled Aug  2 2013,16:46:58)
;
_computing_data_reduction        
;
CrysAlisPro, Agilent Technologies,
Version 1.171.36.32 (release 02-08-2013 CrysAlis171 .NET)
(compiled Aug  2 2013,16:46:58)
;
_computing_molecular_graphics    'Olex2 (Dolomanov et al., 2009)'
_computing_publication_material  'Olex2 (Dolomanov et al., 2009)'
_computing_structure_refinement  'XL (Sheldrick, 2008)'
_computing_structure_solution    
;
Superflip (Palatinus & Chapuis, 2007;Palatinus & van der Lee, 2008;
Palatinus et al., 2012)
;
_refine_diff_density_max         2.543
_refine_diff_density_min         -0.969
_refine_diff_density_rms         0.269
_refine_ls_extinction_coef       ?
_refine_ls_extinction_method     none
_refine_ls_goodness_of_fit_ref   1.097
_refine_ls_hydrogen_treatment    constr
_refine_ls_matrix_type           full
_refine_ls_number_parameters     316
_refine_ls_number_reflns         5878
_refine_ls_number_restraints     0
_refine_ls_R_factor_all          0.1293
_refine_ls_R_factor_gt           0.0907
_refine_ls_restrained_S_all      1.097
_refine_ls_shift/su_max          0.000
_refine_ls_shift/su_mean         0.000
_refine_ls_structure_factor_coef Fsqd
_refine_ls_weighting_details     
'calc w=1/[\s^2^(Fo^2^)+(0.1584P)^2^+16.3501P] where P=(Fo^2^+2Fc^2^)/3'
_refine_ls_weighting_scheme      calc
_refine_ls_wR_factor_gt          0.2675
_refine_ls_wR_factor_ref         0.3020
_refine_special_details          
;
 Refinement of F^2^ against ALL reflections.  The weighted R-factor wR and 
 goodness of fit S are based on F^2^, conventional R-factors R are based 
 on F, with F set to zero for negative F^2^. The threshold expression of 
 F^2^ > 2sigma(F^2^) is used only for calculating R-factors(gt) etc. and is 
 not relevant to the choice of reflections for refinement.  R-factors based 
 on F^2^ are statistically about twice as large as those based on F, and R- 
 factors based on ALL data will be even larger. 
;
_olex2_refinement_description    
;
1. Fixed Uiso
 At 1.2 times of:
  All C(H) groups, All C(H,H) groups
2.a Secondary CH2 refined with riding coordinates:
 C16(H16A,H16B), C1(H1A,H1B)
2.b Aromatic/amide H refined with riding coordinates:
 C2(H2), C3(H3), C6(H6), C10(H10), C11(H11), C17(H17), C15(H15), C13(H13),
 C14(H14), C25(H25)
;
_atom_sites_solution_hydrogens   geom
_atom_sites_solution_primary     iterative
_atom_sites_solution_secondary   difmap
loop_
_atom_site_label
_atom_site_type_symbol
_atom_site_fract_x
_atom_site_fract_y
_atom_site_fract_z
_atom_site_U_iso_or_equiv
_atom_site_adp_type
_atom_site_occupancy
_atom_site_calc_flag
_atom_site_disorder_assembly
_atom_site_disorder_group
_atom_site_refinement_flags_posn
Br4 Br -0.13764(17) 0.42798(6) 0.33147(8) 0.0624(5) Uani 1 d . . .
Br1 Br 0.12623(18) 0.05950(6) 0.34276(9) 0.0657(5) Uani 1 d . . .
Br3 Br -0.25849(19) 0.57020(6) 0.38448(10) 0.0730(5) Uani 1 d . . .
Br2 Br 0.1588(2) -0.09698(6) 0.38765(9) 0.0741(6) Uani 1 d . . .
Co5 Co 0.13562(19) 0.24996(7) 0.43298(10) 0.0356(5) Uani 1 d . . .
C20 C 0.0672(12) -0.0412(5) 0.4529(6) 0.040(3) Uani 1 d . . .
O2 O 0.0500(9) 0.3248(3) 0.4818(5) 0.052(2) Uani 1 d . . .
C24 C -0.1055(12) 0.5308(5) 0.4493(6) 0.041(3) Uani 1 d . . .
O4 O 0.0901(9) 0.1694(3) 0.4868(5) 0.051(2) Uani 1 d . . .
C19 C 0.0548(12) 0.0251(5) 0.4354(7) 0.041(3) Uani 1 d . . .
N8 N 0.0800(11) 0.2417(4) 0.3118(5) 0.041(2) Uani 1 d . . .
C23 C -0.0607(13) 0.4700(5) 0.4288(7) 0.042(3) Uani 1 d . . .
O8 O -0.1270(10) 0.1609(4) 0.4245(6) 0.063(2) Uani 1 d . . .
O9 O 0.1890(10) 0.3745(4) 0.4069(6) 0.059(2) Uani 1 d . . .
N6 N 0.3433(11) 0.2431(4) 0.4569(7) 0.054(3) Uani 1 d . . .
N7 N 0.9663(14) 0.2673(5) 0.6874(6) 0.061(3) Uani 1 d . . .
N1 N 0.5650(10) 0.2655(5) 0.4632(6) 0.050(3) Uani 1 d . . .
C22 C 0.0497(12) 0.4397(4) 0.4794(7) 0.040(3) Uani 1 d . . .
C21 C 0.1038(15) 0.3758(5) 0.4531(7) 0.048(3) Uani 1 d . . .
C18 C -0.0129(12) 0.0656(4) 0.4827(7) 0.039(3) Uani 1 d . . .
C16 C 0.8487(17) 0.2710(6) 0.6198(8) 0.068(4) Uani 1 d . . .
H16A H 0.7730 0.2447 0.6337 0.082 Uiso 1 calc . . R
H16B H 0.8770 0.2530 0.5705 0.082 Uiso 1 calc . . R
C1 C 0.6931(13) 0.3048(6) 0.4603(7) 0.049(3) Uani 1 d . . .
H1A H 0.7722 0.2760 0.4637 0.059 Uiso 1 calc . . R
H1B H 0.6847 0.3274 0.4082 0.059 Uiso 1 calc . . R
C2 C 0.6868(16) 0.4623(6) 0.5729(10) 0.067(4) Uani 1 d . . .
H2 H 0.6452 0.5027 0.5641 0.080 Uiso 1 calc . . R
C3 C 0.9591(13) 0.2561(5) 0.7686(8) 0.048(3) Uani 1 d . . .
H3 H 0.8775 0.2479 0.7897 0.057 Uiso 1 calc . . R
C5 C 0.7175(12) 0.3525(5) 0.5274(7) 0.046(3) Uani 1 d . . .
C6 C 0.7723(17) 0.4489(7) 0.6459(11) 0.078(5) Uani 1 d . . .
H6 H 0.7935 0.4812 0.6850 0.094 Uiso 1 calc . . R
C7 C -0.0182(14) 0.1387(5) 0.4625(7) 0.044(3) Uani 1 d . . .
C10 C 0.6642(14) 0.4150(6) 0.5136(9) 0.057(3) Uani 1 d . . .
H10 H 0.6123 0.4249 0.4631 0.068 Uiso 1 calc . . R
C11 C 0.4327(12) 0.2880(6) 0.4511(8) 0.050(3) Uani 1 d . . .
H11 H 0.4094 0.3311 0.4398 0.060 Uiso 1 calc . . R
C12 C 0.7982(14) 0.3390(5) 0.6027(8) 0.052(3) Uani 1 d . . .
C17 C 1.1040(19) 0.2786(9) 0.6791(9) 0.083(5) Uani 1 d . . .
H17 H 1.1438 0.2879 0.6326 0.099 Uiso 1 calc . . R
C15 C 0.8263(19) 0.3868(7) 0.6604(10) 0.084(5) Uani 1 d . . .
H15 H 0.8821 0.3777 0.7099 0.101 Uiso 1 calc . . R
C13 C 0.5585(15) 0.2019(7) 0.4747(12) 0.086(6) Uani 1 d . . .
H13 H 0.6324 0.1731 0.4835 0.103 Uiso 1 calc . . R
C14 C 0.4228(17) 0.1877(6) 0.4709(14) 0.106(8) Uani 1 d . . .
H14 H 0.3877 0.1464 0.4768 0.128 Uiso 1 calc . . R
C25 C 0.1643(17) 0.2279(9) 0.2594(9) 0.079(5) Uani 1 d . . .
H25 H 0.2591 0.2229 0.2755 0.095 Uiso 1 calc . . R

loop_
_atom_site_aniso_label
_atom_site_aniso_U_11
_atom_site_aniso_U_22
_atom_site_aniso_U_33
_atom_site_aniso_U_23
_atom_site_aniso_U_13
_atom_site_aniso_U_12
Br4 0.0914(11) 0.0389(7) 0.0496(7) -0.0139(5) -0.0138(7) 0.0052(6)
Br1 0.1081(13) 0.0335(7) 0.0621(9) 0.0098(5) 0.0344(8) 0.0042(7)
Br3 0.0892(12) 0.0428(8) 0.0746(10) -0.0054(6) -0.0290(8) 0.0227(7)
Br2 0.1287(15) 0.0325(7) 0.0682(9) 0.0061(6) 0.0382(9) 0.0213(8)
Co5 0.0490(11) 0.0167(8) 0.0388(9) -0.0025(6) -0.0011(8) -0.0012(7)
C20 0.053(7) 0.024(5) 0.041(6) 0.004(4) -0.002(5) 0.006(5)
O2 0.082(6) 0.021(4) 0.054(5) -0.002(3) 0.015(4) -0.003(4)
C24 0.053(7) 0.029(5) 0.040(6) -0.003(4) 0.002(5) 0.006(5)
O4 0.075(6) 0.018(3) 0.058(5) 0.002(3) -0.004(4) -0.009(4)
C19 0.055(7) 0.023(5) 0.042(6) 0.004(4) 0.003(5) -0.005(5)
N8 0.056(6) 0.036(5) 0.032(5) -0.003(4) 0.005(5) -0.005(4)
C23 0.063(8) 0.017(4) 0.045(6) -0.006(4) 0.006(5) -0.001(5)
O8 0.066(6) 0.037(4) 0.085(6) 0.023(4) 0.008(5) 0.009(4)
O9 0.073(6) 0.040(5) 0.067(6) 0.002(4) 0.025(5) 0.016(4)
N6 0.062(7) 0.028(5) 0.066(7) 0.003(4) -0.006(6) -0.007(4)
N7 0.089(9) 0.039(5) 0.046(6) -0.003(4) -0.019(6) 0.007(6)
N1 0.047(6) 0.038(5) 0.058(6) 0.004(4) -0.016(5) -0.003(4)
C22 0.055(7) 0.014(4) 0.047(6) -0.002(4) -0.003(5) 0.001(4)
C21 0.079(9) 0.016(5) 0.046(6) -0.005(4) -0.001(6) 0.010(5)
C18 0.049(7) 0.015(4) 0.049(6) 0.002(4) -0.006(5) 0.002(4)
C16 0.100(11) 0.040(7) 0.052(8) -0.012(6) -0.028(8) 0.004(7)
C1 0.047(7) 0.054(7) 0.042(6) -0.001(5) -0.009(5) -0.005(6)
C2 0.076(10) 0.032(6) 0.089(10) 0.004(6) 0.003(9) 0.005(6)
C3 0.045(7) 0.043(6) 0.051(7) 0.005(5) -0.004(6) -0.001(5)
C5 0.044(7) 0.033(5) 0.057(7) 0.005(5) -0.005(6) -0.007(5)
C6 0.084(11) 0.045(8) 0.104(12) -0.034(8) 0.006(10) -0.002(8)
C7 0.065(8) 0.020(5) 0.046(6) 0.005(4) 0.012(6) 0.005(5)
C10 0.052(8) 0.040(6) 0.074(9) 0.007(6) -0.003(7) 0.008(6)
C11 0.041(7) 0.041(6) 0.066(8) 0.004(6) 0.004(6) -0.002(5)
C12 0.069(9) 0.030(6) 0.054(7) 0.001(5) -0.004(6) -0.008(5)
C17 0.086(13) 0.111(14) 0.055(9) 0.024(9) 0.023(8) 0.016(10)
C15 0.113(13) 0.042(7) 0.082(11) -0.013(7) -0.037(10) 0.010(8)
C13 0.052(9) 0.042(8) 0.154(17) 0.017(9) -0.022(10) 0.001(6)
C14 0.068(11) 0.028(7) 0.20(2) 0.024(10) -0.045(12) -0.012(7)
C25 0.059(10) 0.118(14) 0.055(9) 0.013(9) -0.008(8) -0.012(9)

_geom_special_details            
;
 All esds (except the esd in the dihedral angle between two l.s. planes) 
 are estimated using the full covariance matrix.  The cell esds are taken 
 into account individually in the estimation of esds in distances, angles 
 and torsion angles; correlations between esds in cell parameters are only 
 used when they are defined by crystal symmetry.  An approximate (isotropic) 
 treatment of cell esds is used for estimating esds involving l.s. planes. 
;
loop_
_geom_bond_atom_site_label_1
_geom_bond_atom_site_label_2
_geom_bond_distance
_geom_bond_site_symmetry_2
_geom_bond_publ_flag
Br4 C23 1.881(11) . ?
Br1 C19 1.908(11) . ?
Br3 C24 1.887(11) . ?
Br2 C20 1.890(11) . ?
Co5 O2 1.983(8) . ?
Co5 O4 1.967(7) . ?
Co5 N8 1.999(9) . ?
Co5 N6 2.012(11) . ?
C20 C19 1.400(14) . ?
C20 C18 1.353(16) 3_556 ?
O2 C21 1.297(14) . ?
C24 C23 1.387(14) . ?
C24 C22 1.365(14) 3_566 ?
O4 C7 1.246(14) . ?
C19 C18 1.379(15) . ?
N8 C3 1.286(15) 4_465 ?
N8 C25 1.310(19) . ?
C23 C22 1.407(15) . ?
O8 C7 1.238(14) . ?
O9 C21 1.208(15) . ?
N6 C11 1.288(15) . ?
N6 C14 1.381(17) . ?
N7 C16 1.480(16) . ?
N7 C3 1.371(17) . ?
N7 C17 1.39(2) . ?
N1 C1 1.497(16) . ?
N1 C11 1.359(15) . ?
N1 C13 1.330(16) . ?
C22 C24 1.365(14) 3_566 ?
C22 C21 1.510(14) . ?
C18 C20 1.353(16) 3_556 ?
C18 C7 1.545(13) . ?
C16 C12 1.501(17) . ?
C1 C5 1.473(16) . ?
C2 C6 1.39(2) . ?
C2 C10 1.376(19) . ?
C3 N8 1.286(15) 4_666 ?
C5 C10 1.398(16) . ?
C5 C12 1.397(16) . ?
C6 C15 1.39(2) . ?
C12 C15 1.371(18) . ?
C17 C25 1.37(2) 4_666 ?
C13 C14 1.35(2) . ?
C25 C17 1.37(2) 4_465 ?

loop_
_geom_angle_atom_site_label_1
_geom_angle_atom_site_label_2
_geom_angle_atom_site_label_3
_geom_angle
_geom_angle_site_symmetry_1
_geom_angle_site_symmetry_3
_geom_angle_publ_flag
O2 Co5 N8 113.8(4) . . ?
O2 Co5 N6 116.6(4) . . ?
O4 Co5 O2 109.8(4) . . ?
O4 Co5 N8 109.4(3) . . ?
O4 Co5 N6 98.0(4) . . ?
N8 Co5 N6 107.8(4) . . ?
C19 C20 Br2 120.8(9) . . ?
C18 C20 Br2 119.5(7) 3_556 . ?
C18 C20 C19 119.7(10) 3_556 . ?
C21 O2 Co5 105.5(7) . . ?
C23 C24 Br3 120.3(8) . . ?
C22 C24 Br3 118.5(8) 3_566 . ?
C22 C24 C23 120.9(10) 3_566 . ?
C7 O4 Co5 121.5(7) . . ?
C20 C19 Br1 119.9(9) . . ?
C18 C19 Br1 119.3(7) . . ?
C18 C19 C20 120.7(10) . . ?
C3 N8 Co5 129.9(9) 4_465 . ?
C3 N8 C25 104.9(11) 4_465 . ?
C25 N8 Co5 125.1(9) . . ?
C24 C23 