####################################################################### 
# 
# This file contains crystal structure data downloaded from the 
# Cambridge Structural Database (CSD) hosted by the Cambridge 
# Crystallographic Data Centre (CCDC).
# 
# Full information about CCDC data access policies and citation 
# guidelines are available at http://www.ccdc.cam.ac.uk/access/V1 
# 
# Audit and citation data items may have been added by the CCDC. 
# Please retain this information to preserve the provenance of 
# this file and to allow appropriate attribution of the data. 
# 
#######################################################################

data_zxw-467
_audit_block_doi                 10.5517/cc12wdgt
_database_code_depnum_ccdc_archive 'CCDC 1009436'
loop_
_citation_id
_citation_doi
_citation_year
1 10.1016/j.jssc.2015.05.008 2015
_audit_update_record             
;
2014-06-20 deposited with the CCDC.	2024-07-13 downloaded from the CCDC.
;
_audit_creation_date             2014-06-20
_audit_creation_method           
;
Olex2 1.2
(compiled 2014.06.18 svn.r2945 for OlexSys, GUI svn.r4846)
;
_chemical_name_common            ?
_chemical_name_systematic        
;
 ? 
;
_chemical_formula_moiety         'C44 H28 Br8 Co2 N8 O8, C4 H7 O2'
_chemical_formula_sum            'C48 H35 Br8 Co2 N8 O10'
_chemical_formula_weight         1640.98
_chemical_melting_point          ?
_chemical_oxdiff_formula         'C H O N Br Co'
loop_
_atom_type_symbol
_atom_type_description
_atom_type_scat_dispersion_real
_atom_type_scat_dispersion_imag
_atom_type_scat_source
C C 0.0033 0.0016 'International Tables Vol C Tables 4.2.6.8 and 6.1.1.4'
H H 0.0000 0.0000 'International Tables Vol C Tables 4.2.6.8 and 6.1.1.4'
Br Br -0.2901 2.4595 'International Tables Vol C Tables 4.2.6.8 and 6.1.1.4'
Co Co 0.3494 0.9721 'International Tables Vol C Tables 4.2.6.8 and 6.1.1.4'
N N 0.0061 0.0033 'International Tables Vol C Tables 4.2.6.8 and 6.1.1.4'
O O 0.0106 0.0060 'International Tables Vol C Tables 4.2.6.8 and 6.1.1.4'

_space_group_crystal_system      monoclinic
_space_group_IT_number           15
_space_group_name_H-M_alt        'I 1 2/c 1'
_space_group_name_Hall           '-I 2yc'
loop_
_space_group_symop_id
_space_group_symop_operation_xyz
1 'x, y, z'
2 '-x, y, -z+1/2'
3 'x+1/2, y+1/2, z+1/2'
4 '-x+1/2, y+1/2, -z+1'
5 '-x, -y, -z'
6 'x, -y, z-1/2'
7 '-x+1/2, -y+1/2, -z+1/2'
8 'x+1/2, -y+1/2, z'

_cell_length_a                   20.4029(5)
_cell_length_b                   17.3310(5)
_cell_length_c                   38.6793(15)
_cell_angle_alpha                90.00
_cell_angle_beta                 91.038(3)
_cell_angle_gamma                90.00
_cell_volume                     13674.8(7)
_cell_formula_units_Z            8
_cell_measurement_reflns_used    6824
_cell_measurement_temperature    292.82(10)
_cell_measurement_theta_max      27.6170
_cell_measurement_theta_min      3.2530
_exptl_absorpt_coefficient_mu    5.211
_exptl_absorpt_correction_T_max  1.00000
_exptl_absorpt_correction_T_min  0.57043
_exptl_absorpt_correction_type   multi-scan
_exptl_absorpt_process_details   
;
CrysAlisPro, Agilent Technologies,
Version 1.171.36.32 (release 02-08-2013 CrysAlis171 .NET)
(compiled Aug  2 2013,16:46:58)
Empirical absorption correction using spherical harmonics,
 implemented in SCALE3 ABSPACK scaling algorithm.
;
_exptl_crystal_density_diffrn    1.594
_exptl_crystal_density_meas      ?
_exptl_crystal_density_method    'not measured'
_exptl_crystal_F_000             6344
_exptl_crystal_size_max          ?
_exptl_crystal_size_mid          ?
_exptl_crystal_size_min          ?
_exptl_special_details           
;
 ? 
;
_diffrn_reflns_av_R_equivalents  0.0615
_diffrn_reflns_av_unetI/netI     0.0789
_diffrn_reflns_limit_h_max       23
_diffrn_reflns_limit_h_min       -24
_diffrn_reflns_limit_k_max       19
_diffrn_reflns_limit_k_min       -20
_diffrn_reflns_limit_l_max       45
_diffrn_reflns_limit_l_min       -45
_diffrn_reflns_number            36631
_diffrn_reflns_theta_full        25.00
_diffrn_reflns_theta_max         25.00
_diffrn_reflns_theta_min         3.08
_diffrn_ambient_temperature      292.82(10)
_diffrn_detector_area_resol_mean 16.0450
_diffrn_measured_fraction_theta_full 0.998
_diffrn_measured_fraction_theta_max 0.998
_diffrn_measurement_details      
;
#__ type_ start__ end____ width___ exp.time_
  1 omega   39.00   89.00   1.0000   20.0000
omega____ theta____ kappa____ phi______ frames
    -       18.8251   71.0000 -131.0000 50

#__ type_ start__ end____ width___ exp.time_
  2 omega  -26.00   -1.00   1.0000   20.0000
omega____ theta____ kappa____ phi______ frames
    -       18.8251  -71.0000   98.0000 25

#__ type_ start__ end____ width___ exp.time_
  3 omega  -45.00  -18.00   1.0000   20.0000
omega____ theta____ kappa____ phi______ frames
    -      -18.9813   71.0000 -131.0000 27

#__ type_ start__ end____ width___ exp.time_
  4 omega   35.00   69.00   1.0000   20.0000
omega____ theta____ kappa____ phi______ frames
    -       18.8251  178.0000  120.0000 34

#__ type_ start__ end____ width___ exp.time_
  5 omega  -13.00   89.00   1.0000   20.0000
omega____ theta____ kappa____ phi______ frames
    -       18.8251   77.0000  120.0000 102

#__ type_ start__ end____ width___ exp.time_
  6 omega  -86.00  -61.00   1.0000   20.0000
omega____ theta____ kappa____ phi______ frames
    -      -18.9813  -57.0000  150.0000 25

#__ type_ start__ end____ width___ exp.time_
  7 omega  -75.00    2.00   1.0000   20.0000
omega____ theta____ kappa____ phi______ frames
    -      -18.9813  -57.0000  -30.0000 77
;
_diffrn_measurement_device_type  'SuperNova, Dual, Cu at zero, Eos'
_diffrn_measurement_method       '\w scans'
_diffrn_orient_matrix_UB_11      -0.0183959000
_diffrn_orient_matrix_UB_12      -0.0141119000
_diffrn_orient_matrix_UB_13      0.0140471000
_diffrn_orient_matrix_UB_21      0.0091545000
_diffrn_orient_matrix_UB_22      -0.0382850000
_diffrn_orient_matrix_UB_23      -0.0042375000
_diffrn_orient_matrix_UB_31      0.0280477000
_diffrn_orient_matrix_UB_32      0.0032331000
_diffrn_orient_matrix_UB_33      0.0110025000
_diffrn_radiation_monochromator  mirror
_diffrn_radiation_type           MoK\a
_diffrn_radiation_wavelength     0.71073
_diffrn_source                   'SuperNova (Mo) X-ray Source'
_diffrn_standards_decay_%        ?
_diffrn_standards_interval_count ?
_diffrn_standards_interval_time  ?
_diffrn_standards_number         ?
_reflns_number_gt                7219
_reflns_number_total             12030
_reflns_odcompleteness_completeness 99.76
_reflns_odcompleteness_iscentric 1
_reflns_odcompleteness_theta     26.32
_reflns_threshold_expression     >2sigma(I)
_computing_cell_refinement       
;
CrysAlisPro, Agilent Technologies,
Version 1.171.36.32 (release 02-08-2013 CrysAlis171 .NET)
(compiled Aug  2 2013,16:46:58)
;
_computing_data_collection       
;
CrysAlisPro, Agilent Technologies,
Version 1.171.36.32 (release 02-08-2013 CrysAlis171 .NET)
(compiled Aug  2 2013,16:46:58)
;
_computing_data_reduction        
;
CrysAlisPro, Agilent Technologies,
Version 1.171.36.32 (release 02-08-2013 CrysAlis171 .NET)
(compiled Aug  2 2013,16:46:58)
;
_computing_molecular_graphics    'Olex2 (Dolomanov et al., 2009)'
_computing_publication_material  'Olex2 (Dolomanov et al., 2009)'
_computing_structure_refinement  'XL (Sheldrick, 2008)'
_computing_structure_solution    
;
Superflip (Palatinus & Chapuis, 2007;Palatinus & van der Lee, 2008;
Palatinus et al., 2012)
;
_refine_diff_density_max         1.890
_refine_diff_density_min         -1.196
_refine_diff_density_rms         0.189
_refine_ls_extinction_coef       ?
_refine_ls_extinction_method     none
_refine_ls_goodness_of_fit_ref   1.049
_refine_ls_hydrogen_treatment    constr
_refine_ls_matrix_type           full
_refine_ls_number_parameters     685
_refine_ls_number_reflns         12030
_refine_ls_number_restraints     0
_refine_ls_R_factor_all          0.1280
_refine_ls_R_factor_gt           0.0742
_refine_ls_restrained_S_all      1.049
_refine_ls_shift/su_max          0.001
_refine_ls_shift/su_mean         0.000
_refine_ls_structure_factor_coef Fsqd
_refine_ls_weighting_details     
'calc w=1/[\s^2^(Fo^2^)+(0.1295P)^2^+186.2215P] where P=(Fo^2^+2Fc^2^)/3'
_refine_ls_weighting_scheme      calc
_refine_ls_wR_factor_gt          0.2287
_refine_ls_wR_factor_ref         0.2698
_refine_special_details          
;
 Refinement of F^2^ against ALL reflections.  The weighted R-factor wR and 
 goodness of fit S are based on F^2^, conventional R-factors R are based 
 on F, with F set to zero for negative F^2^. The threshold expression of 
 F^2^ > 2sigma(F^2^) is used only for calculating R-factors(gt) etc. and is 
 not relevant to the choice of reflections for refinement.  R-factors based 
 on F^2^ are statistically about twice as large as those based on F, and R- 
 factors based on ALL data will be even larger. 
;
_olex2_refinement_description    
;
1. Fixed Uiso
 At 1.2 times of:
  All C(H) groups, All C(H,H) groups
2.a Secondary CH2 refined with riding coordinates:
 C17(H17A,H17B), C32(H32A,H32B), C54(H54A,H54B), C27(H27A,H27B), C44(H44A,
 H44B), C45(H45A,H45B), C47(H47A,H47B)
2.b Aromatic/amide H refined with riding coordinates:
 C20(H20), C18(H18), C21(H21), C37(H37), C35(H35), C22(H22), C24(H24),
 C43(H43), C16(H16), C53(H53), C49(H49), C26(H26), C28(H28), C36(H36), C30(H30),
  C38(H38), C29(H29), C41(H41), C42(H42), C48(H48), C50(H50)
;
_atom_sites_solution_hydrogens   geom
_atom_sites_solution_primary     iterative
_atom_sites_solution_secondary   difmap
loop_
_atom_site_label
_atom_site_type_symbol
_atom_site_fract_x
_atom_site_fract_y
_atom_site_fract_z
_atom_site_U_iso_or_equiv
_atom_site_adp_type
_atom_site_occupancy
_atom_site_calc_flag
_atom_site_disorder_assembly
_atom_site_disorder_group
_atom_site_refinement_flags_posn
Br1 Br 0.57316(6) 0.34690(7) 0.60709(3) 0.0505(3) Uani 1 d . . .
Br2 Br 0.43298(6) 0.67064(7) 0.64985(4) 0.0553(4) Uani 1 d . . .
Br3 Br 0.58235(6) 0.62621(8) 0.68045(4) 0.0592(4) Uani 1 d . . .
Br4 Br -0.04704(6) 0.31562(8) 0.62378(5) 0.0855(6) Uani 1 d . . .
Br5 Br 0.05093(7) 0.67333(8) 0.62129(6) 0.0903(6) Uani 1 d . . .
Br6 Br 0.11161(6) 0.35849(8) 0.62752(6) 0.0942(7) Uani 1 d . . .
Br7 Br -0.10859(6) 0.63080(8) 0.62441(6) 0.0871(6) Uani 1 d . . .
Br8 Br 0.42580(6) 0.39326(9) 0.57555(4) 0.0705(5) Uani 1 d . . .
Co2 Co 0.25287(6) 0.57651(8) 0.58626(3) 0.0302(3) Uani 1 d . . .
Co3 Co 0.75027(6) 0.43134(8) 0.67051(3) 0.0309(3) Uani 1 d . . .
N1 N 0.2469(4) 0.6890(5) 0.5991(2) 0.037(2) Uani 1 d . . .
N9 N 0.7444(5) 0.3153(5) 0.6750(2) 0.047(2) Uani 1 d . . .
O3 O 0.6326(3) 0.4294(4) 0.68208(18) 0.0403(17) Uani 1 d . . .
N6 N 0.2675(4) 0.5467(5) 0.4797(2) 0.040(2) Uani 1 d . . .
O5 O 0.1654(3) 0.5316(4) 0.59431(18) 0.0435(18) Uani 1 d . . .
O6 O 0.6852(3) 0.4870(4) 0.64023(18) 0.0432(18) Uani 1 d . . .
O7 O 0.3255(3) 0.5263(4) 0.61206(18) 0.0423(18) Uani 1 d . . .
O8 O 0.8309(4) 0.4474(5) 0.5998(2) 0.058(2) Uani 1 d . . .
O9 O 0.3761(3) 0.5970(5) 0.57356(19) 0.0458(19) Uani 1 d . . .
C1 C -0.0445(5) 0.5527(6) 0.6237(3) 0.039(3) Uani 1 d . . .
C20 C 0.1136(6) 0.8475(8) 0.5643(4) 0.061(3) Uani 1 d . . .
H20 H 0.1242 0.7987 0.5727 0.073 Uiso 1 calc . . R
C4 C 0.0477(5) 0.4370(6) 0.6255(3) 0.042(3) Uani 1 d . . .
N8 N 0.7354(4) 0.5113(5) 0.7713(2) 0.0341(19) Uani 1 d . . .
O14 O 0.1698(4) 0.5473(5) 0.6514(2) 0.056(2) Uani 1 d . . .
C2 C 0.0220(5) 0.5698(6) 0.6235(3) 0.042(3) Uani 1 d . . .
C9 C 0.3769(5) 0.5539(6) 0.5978(3) 0.036(2) Uani 1 d . . .
N2 N 0.2443(4) 0.5591(5) 0.5348(2) 0.040(2) Uani 1 d . . .
O18 O 0.8403(3) 0.4549(5) 0.65697(18) 0.046(2) Uani 1 d . . .
C5 C -0.0188(5) 0.4195(6) 0.6252(3) 0.042(3) Uani 1 d . . .
C18 C 0.2502(5) 0.7472(6) 0.5774(3) 0.041(3) Uani 1 d . . .
H18 H 0.2590 0.7420 0.5540 0.049 Uiso 1 calc . . R
O21 O 0.2953(7) 0.2886(8) 0.5741(3) 0.096(4) Uani 1 d . . .
C17 C 0.2320(5) 0.8904(6) 0.5764(3) 0.047(3) Uani 1 d . . .
H17A H 0.2612 0.8934 0.5569 0.056 Uiso 1 calc . . R
H17B H 0.2446 0.9304 0.5928 0.056 Uiso 1 calc . . R
C6 C -0.0654(4) 0.4773(6) 0.6252(2) 0.028(2) Uani 1 d . . .
C21 C 0.0521(7) 0.8621(9) 0.5529(4) 0.073(4) Uani 1 d . . .
H21 H 0.0205 0.8235 0.5537 0.088 Uiso 1 calc . . R
C11 C 0.5382(5) 0.5611(6) 0.6490(3) 0.035(2) Uani 1 d . . .
C10 C 0.4756(5) 0.5789(5) 0.6360(3) 0.032(2) Uani 1 d . . .
C8 C 0.4729(5) 0.4611(6) 0.6051(3) 0.036(2) Uani 1 d . . .
C14 C 0.6325(5) 0.4673(6) 0.6554(3) 0.036(2) Uani 1 d . . .
N4 N 0.2391(4) 0.8149(5) 0.5930(2) 0.040(2) Uani 1 d . . .
C33 C 0.6398(5) 0.4755(6) 0.8060(2) 0.033(2) Uani 1 d . . .
N10 N 0.7639(5) 0.1906(5) 0.6703(2) 0.045(2) Uani 1 d . . .
C12 C 0.5680(4) 0.4920(5) 0.6399(2) 0.029(2) Uani 1 d . . .
C37 C 0.5268(6) 0.4443(9) 0.7928(3) 0.059(4) Uani 1 d . . .
H37 H 0.4865 0.4570 0.7827 0.071 Uiso 1 calc . . R
N7 N 0.7598(4) 0.4746(5) 0.7190(2) 0.038(2) Uani 1 d . . .
C35 C 0.5940(6) 0.3556(8) 0.8238(3) 0.061(4) Uani 1 d . . .
H35 H 0.5990 0.3077 0.8343 0.074 Uiso 1 calc . . R
C3 C 0.0687(4) 0.5121(6) 0.6244(2) 0.028(2) Uani 1 d . . .
C22 C 0.0355(6) 0.9348(9) 0.5401(3) 0.062(4) Uani 1 d . . .
H22 H -0.0069 0.9446 0.5319 0.075 Uiso 1 calc . . R
C7 C 0.4423(5) 0.5307(6) 0.6140(3) 0.034(2) Uani 1 d . . .
C23 C 0.1443(5) 0.9786(6) 0.5516(2) 0.037(2) Uani 1 d . . .
C24 C 0.2912(5) 0.5610(6) 0.5113(3) 0.041(3) Uani 1 d . . .
H24 H 0.3350 0.5711 0.5164 0.049 Uiso 1 calc . . R
C19 C 0.1620(5) 0.9050(7) 0.5637(3) 0.042(3) Uani 1 d . . .
C32 C 0.6954(5) 0.5323(6) 0.8015(3) 0.040(3) Uani 1 d . . .
H32A H 0.6775 0.5838 0.7982 0.049 Uiso 1 calc . . R
H32B H 0.7229 0.5328 0.8222 0.049 Uiso 1 calc . . R
C39 C 0.1414(5) 0.5312(6) 0.6239(3) 0.035(2) Uani 1 d . . .
C13 C 0.5344(5) 0.4437(6) 0.6180(3) 0.035(2) Uani 1 d . . .
C43 C 0.8010(6) 0.5185(9) 0.7685(3) 0.062(4) Uani 1 d . . .
H43 H 0.8304 0.5360 0.7854 0.074 Uiso 1 calc . . R
C16 C 0.2271(6) 0.7983(7) 0.6264(3) 0.049(3) Uani 1 d . . .
H16 H 0.2171 0.8337 0.6436 0.059 Uiso 1 calc . . R
C53 C 0.7718(6) 0.2603(7) 0.6571(3) 0.049(3) Uani 1 d . . .
H53 H 0.7948 0.2694 0.6370 0.058 Uiso 1 calc . . R
C49 C 0.1885(5) 0.5418(7) 0.5166(3) 0.048(3) Uani 1 d . . .
H49 H 0.1473 0.5354 0.5260 0.057 Uiso 1 calc . . R
C54 C 0.7895(6) 0.1165(7) 0.6585(3) 0.056(3) Uani 1 d . . .
H54A H 0.7979 0.1195 0.6340 0.067 Uiso 1 calc . . R
H54B H 0.7566 0.0769 0.6619 0.067 Uiso 1 calc . . R
C27 C 0.1933(5) 1.0447(6) 0.5516(3) 0.039(3) Uani 1 d . . .
H27A H 0.1699 1.0931 0.5537 0.046 Uiso 1 calc . . R
H27B H 0.2224 1.0398 0.5716 0.046 Uiso 1 calc . . R
C26 C 0.0820(6) 0.9918(8) 0.5396(3) 0.052(3) Uani 1 d . . .
H26 H 0.0709 1.0403 0.5310 0.063 Uiso 1 calc . . R
C28 C 0.2322(6) 0.7223(7) 0.6303(3) 0.047(3) Uani 1 d . . .
H28 H 0.2266 0.6958 0.6509 0.056 Uiso 1 calc . . R
C34 C 0.6475(5) 0.4069(6) 0.8223(3) 0.043(3) Uani 1 d . . .
C36 C 0.5785(6) 0.4929(8) 0.7911(3) 0.051(3) Uani 1 d . . .
H36 H 0.5731 0.5396 0.7796 0.062 Uiso 1 calc . . R
C30 C 0.7121(5) 0.4851(6) 0.7414(3) 0.040(3) Uani 1 d . . .
H30 H 0.6681 0.4752 0.7367 0.048 Uiso 1 calc . . R
C38 C 0.5355(7) 0.3763(10) 0.8098(4) 0.074(4) Uani 1 d . . .
H38 H 0.5001 0.3430 0.8118 0.089 Uiso 1 calc . . R
C29 C 0.8156(5) 0.4947(9) 0.7356(3) 0.064(4) Uani 1 d . . .
H29 H 0.8573 0.4928 0.7263 0.076 Uiso 1 calc . . R
C40 C 0.8611(5) 0.4576(6) 0.6266(3) 0.036(2) Uani 1 d . . .
C41 C 0.7175(8) 0.2776(8) 0.7028(4) 0.079(5) Uani 1 d . . .
H41 H 0.6952 0.3017 0.7205 0.094 Uiso 1 calc . . R
O52 O 0.2652(7) 0.2878(8) 0.5033(3) 0.101(4) Uani 1 d . . .
C42 C 0.7280(8) 0.2003(8) 0.7006(4) 0.077(4) Uani 1 d . . .
H42 H 0.7144 0.1622 0.7158 0.093 Uiso 1 calc . . R
C44 C 0.3075(12) 0.2229(11) 0.5542(5) 0.132(9) Uani 1 d . . .
H44A H 0.2705 0.1880 0.5553 0.158 Uiso 1 calc . . R
H44B H 0.3458 0.1963 0.5634 0.158 Uiso 1 calc . . R
C48 C 0.2483(12) 0.3339(17) 0.5602(5) 0.147(10) Uani 1 d . . .
H48 H 0.2122 0.3505 0.5725 0.176 Uiso 1 calc . . R
C45 C 0.3187(12) 0.2440(12) 0.5178(5) 0.135(9) Uani 1 d . . .
H45A H 0.3586 0.2741 0.5165 0.162 Uiso 1 calc . . R
H45B H 0.3245 0.1974 0.5043 0.162 Uiso 1 calc . . R
C47 C 0.2589(14) 0.3555(12) 0.5232(5) 0.143(10) Uani 1 d . . .
H47A H 0.2222 0.3858 0.5146 0.171 Uiso 1 calc . . R
H47B H 0.2983 0.3865 0.5215 0.171 Uiso 1 calc . . R
C50 C 0.2025(5) 0.5352(7) 0.4823(3) 0.048(3) Uani 1 d . . .
H50 H 0.1729 0.5249 0.4644 0.057 Uiso 1 calc . . R

loop_
_atom_site_aniso_label
_atom_site_aniso_U_11
_atom_site_aniso_U_22
_atom_site_aniso_U_33
_atom_site_aniso_U_23
_atom_site_aniso_U_13
_atom_site_aniso_U_12
Br1 0.0383(7) 0.0408(7) 0.0723(9) -0.0088(6) 0.0013(6) 0.0070(5)
Br2 0.0427(7) 0.0398(7) 0.0833(9) -0.0082(6) -0.0025(6) 0.0095(5)
Br3 0.0410(7) 0.0588(8) 0.0772(9) -0.0238(7) -0.0139(6) -0.0034(6)
Br4 0.0365(7) 0.0394(8) 0.1810(18) 0.0131(9) 0.0101(9) -0.0049(6)
Br5 0.0385(8) 0.0381(8) 0.194(2) 0.0005(9) 0.0023(9) -0.0048(6)
Br6 0.0284(7) 0.0456(8) 0.209(2) 0.0195(10) 0.0041(9) 0.0078(6)
Br7 0.0297(7) 0.0436(8) 0.1879(19) -0.0118(9) -0.0034(9) 0.0087(6)
Br8 0.0446(8) 0.0709(9) 0.0949(11) -0.0354(8) -0.0267(7) 0.0034(6)
Co2 0.0210(7) 0.0368(8) 0.0327(7) 0.0023(6) 0.0006(5) 0.0013(5)
Co3 0.0195(7) 0.0421(8) 0.0311(7) -0.0008(6) 0.0022(5) 0.0021(6)
N1 0.037(5) 0.038(5) 0.035(5) 0.002(4) 0.005(4) -0.005(4)
N9 0.048(6) 0.038(5) 0.055(6) 0.000(5) 0.010(5) 0.003(4)
O3 0.034(4) 0.051(5) 0.036(4) 0.009(4) -0.006(3) 0.002(3)
N6 0.037(5) 0.048(6) 0.035(5) -0.007(4) 0.003(4) 0.001(4)
O5 0.027(4) 0.063(5) 0.041(4) -0.002(4) 0.014(3) -0.007(3)
O6 0.023(4) 0.062(5) 0.045(4) 0.007(4) 0.002(3) 0.007(3)
O7 0.023(4) 0.056(5) 0.048(4) 0.003(4) -0.002(3) 0.007(3)
O8 0.034(4) 0.097(7) 0.042(5) -0.010(4) -0.011(4) -0.004(4)
O9 0.031(4) 0.058(5) 0.048(5) 0.017(4) -0.008(3) 0.007(3)
C1 0.018(5) 0.045(6) 0.054(7) -0.005(5) 0.005(5) 0.003(4)
C20 0.050(8) 0.052(8) 0.080(10) -0.005(7) -0.010(7) -0.004(6)
C4 0.029(6) 0.036(6) 0.061(7) 0.011(5) 0.004(5) -0.002(5)
N8 0.030(5) 0.038(5) 0.033(5) -0.004(4) 0.003(4) 0.000(4)
O14 0.032(4) 0.087(6) 0.049(5) 0.004(4) -0.008(4) -0.011(4)
C2 0.023(5) 0.039(6) 0.062(7) -0.003(5) 0.002(5) -0.003(5)
C9 0.028(6) 0.0