####################################################################### 
# 
# This file contains crystal structure data downloaded from the 
# Cambridge Structural Database (CSD) hosted by the Cambridge 
# Crystallographic Data Centre (CCDC).
# 
# Full information about CCDC data access policies and citation 
# guidelines are available at http://www.ccdc.cam.ac.uk/access/V1 
# 
# Audit and citation data items may have been added by the CCDC. 
# Please retain this information to preserve the provenance of 
# this file and to allow appropriate attribution of the data. 
# 
#######################################################################

data_TUQDIS
#This CIF has been generated from an entry in the Cambridge Structural Database
_database_code_depnum_ccdc_archive 'CCDC 1277111'
_database_code_CSD               TUQDIS
loop_
_citation_id
_citation_doi
_citation_year
1 10.1139/v96-171 1996
_audit_creation_method           'Created from the CSD'
_audit_update_record             
;
2024-07-13 downloaded from the CCDC.
;
_database_code_NBS               675382
_chemical_formula_moiety         '(C26 H24 I3 In1 P2)n,n(C26 H24 P2)'
_chemical_name_systematic        
"catena-(Tri-iodo-(\m~2~-bis(1,2-diphenylphosphino)ethane-P,P')-indium(iii)) 1,2-bis(diphenylphosphino)ethane"
_chemical_absolute_configuration unk
_diffrn_ambient_temperature      295
_exptl_crystal_density_diffrn    1.607
#These two values have been output from a single CSD field.
_refine_ls_R_factor_gt           0.06
_refine_ls_wR_factor_gt          0.06
_diffrn_radiation_probe          x-ray
_symmetry_cell_setting           monoclinic
_symmetry_space_group_name_H-M   'C 2/c'
_symmetry_Int_Tables_number      15
_space_group_name_Hall           '-C 2yc'
loop_
_symmetry_equiv_pos_site_id
_symmetry_equiv_pos_as_xyz
1 x,y,z
2 -x,y,1/2-z
3 1/2+x,1/2+y,z
4 1/2-x,1/2+y,1/2-z
5 -x,-y,-z
6 x,-y,1/2+z
7 1/2-x,1/2-y,-z
8 1/2+x,1/2-y,1/2+z
_cell_length_a                   41.445(14)
_cell_length_b                   15.944(8)
_cell_length_c                   16.533(11)
_cell_angle_alpha                90
_cell_angle_beta                 102.02(4)
_cell_angle_gamma                90
_cell_volume                     10685.5
_cell_formula_units_Z            8
loop_
_atom_site_label
_atom_site_type_symbol
_atom_site_fract_x
_atom_site_fract_y
_atom_site_fract_z
I1 I 0.09986(6) 0.2821(1) 0.7034(1)
I2 I 0.05413(5) 0.0080(1) 0.6535(1)
I3 I 0.16547(5) 0.0223(1) 0.7242(1)
In1 In 0.10715(5) 0.1123(1) 0.6969(1)
P1 P 0.1096(2) 0.1259(4) 0.5314(4)
P2 P 0.1098(2) 0.1026(4) 0.8647(4)
C1 C 0.1128(5) 0.020(1) 0.492(1)
C2 C 0.0744(6) 0.171(2) 0.467(1)
C3 C 0.0705(7) 0.257(2) 0.459(2)
C4 C 0.0425(8) 0.297(2) 0.410(2)
C5 C 0.0179(7) 0.247(2) 0.370(2)
C6 C 0.0204(7) 0.163(2) 0.377(2)
C7 C 0.0466(7) 0.123(2) 0.428(2)
C8 C 0.1436(6) 0.188(1) 0.508(1)
C9 C 0.1669(6) 0.222(1) 0.571(1)
C10 C 0.1918(7) 0.272(2) 0.555(2)
C11 C 0.1945(7) 0.289(2) 0.476(2)
C12 C 0.1690(7) 0.260(2) 0.413(2)
C13 C 0.1445(6) 0.210(1) 0.427(1)
C14 C 0.1132(6) 0.007(1) 0.401(1)
C15 C 0.0740(6) -0.146(1) 0.398(1)
C16 C 0.0418(8) -0.151(2) 0.344(2)
C17 C 0.0158(8) -0.186(2) 0.366(2)
C18 C 0.0188(7) -0.206(2) 0.448(2)
C19 C 0.0472(6) -0.200(1) 0.503(1)
C20 C 0.0769(6) -0.171(1) 0.480(1)
C21 C 0.1435(6) -0.159(2) 0.424(1)
C22 C 0.1745(7) -0.119(2) 0.459(2)
C23 C 0.2016(8) -0.162(2) 0.500(2)
C24 C 0.1970(8) -0.248(2) 0.509(2)
C25 C 0.1694(6) -0.290(1) 0.477(1)
C26 C 0.1415(7) -0.244(2) 0.432(2)
H1 H 0.0462 0.0644 0.4344
H2 H 0.0025 0.1317 0.3466
H3 H -0.0019 0.2688 0.3342
H4 H 0.0403 0.3561 0.4031
H5 H 0.0876 0.2916 0.4854
H6 H 0.1664 0.2103 0.6266
H7 H 0.2081 0.2948 0.5978
H8 H 0.2124 0.3210 0.4624
H9 H 0.1689 0.2759 0.3565
H10 H 0.1284 0.1911 0.3835
H11 H 0.0396 -0.1340 0.2860
H12 H -0.0033 -0.1933 0.3289
H13 H 0.0002 -0.2253 0.4657
H14 H 0.0478 -0.2140 0.5592
H15 H 0.0975 -0.1675 0.5182
H16 H 0.1763 -0.0601 0.4500
H17 H 0.2221 -0.1345 0.5230
H18 H 0.2157 -0.2793 0.5384
H19 H 0.1682 -0.3477 0.4854
H20 H 0.1212 -0.2730 0.4079
H45 H 0.1331 -0.0051 0.5236
H46 H 0.0950 -0.0130 0.5035
H47 H 0.0957 0.0395 0.3694
H48 H 0.1338 0.0304 0.3912
P2E P 0.1098(2) -0.1026(4) 0.3647(4)
In1E In 0.10715(5) -0.1123(1) 0.1969(1)
P3 P 0.6173(2) 0.0217(5) 0.6591(4)
P4 P 0.7235(2) -0.0048(5) 0.7861(4)
C27 C 0.6069(6) 0.023(2) 0.544(1)
C28 C 0.5881(7) 0.085(2) 0.503(2)
C29 C 0.5803(7) 0.080(2) 0.416(2)
C30 C 0.5922(8) 0.024(2) 0.374(2)
C31 C 0.6111(8) -0.033(2) 0.413(2)
C32 C 0.6215(7) -0.032(2) 0.500(2)
C33 C 0.6172(6) 0.134(1) 0.680(2)
C34 C 0.5891(7) 0.163(2) 0.714(2)
C35 C 0.5880(7) 0.254(2) 0.727(2)
C36 C 0.6132(7) 0.303(2) 0.709(2)
C37 C 0.6393(7) 0.276(2) 0.674(1)
C38 C 0.6408(6) 0.194(2) 0.662(1)
C39 C 0.6598(7) -0.001(2) 0.679(2)
C40 C 0.6803(7) 0.012(2) 0.771(2)
C41 C 0.7271(6) -0.119(1) 0.783(1)
C42 C 0.7040(6) -0.174(1) 0.793(1)
C43 C 0.7095(7) -0.259(2) 0.793(2)
C44 C 0.7381(7) -0.292(2) 0.783(2)
C45 C 0.7613(7) -0.235(2) 0.767(2)
C46 C 0.7575(7) -0.148(2) 0.769(2)
C47 C 0.7369(6) 0.011(2) 0.898(1)
C48 C 0.7194(8) -0.025(2) 0.957(2)
C49 C 0.7308(8) -0.011(2) 1.042(2)
C50 C 0.7594(8) 0.036(2) 1.065(2)
C51 C 0.7755(9) 0.074(2) 1.010(2)
C52 C 0.7631(8) 0.062(2) 0.927(2)
H21 H 0.5803 0.1283 0.5330
H22 H 0.5653 0.1216 0.3864
H23 H 0.5876 0.0265 0.3157
H24 H 0.6162 -0.0794 0.3815
H25 H 0.6390 -0.0694 0.5271
H26 H 0.5738 0.1261 0.7266
H27 H 0.5710 0.2793 0.7504
H28 H 0.6115 0.3606 0.7182
H29 H 0.6557 0.3120 0.6637
H30 H 0.6576 0.1714 0.6378
H31 H 0.6619 -0.0573 0.6654
H32 H 0.6690 0.0346 0.6439
H33 H 0.6765 0.0702 0.7867
H34 H 0.6710 -0.0231 0.8068
H35 H 0.6836 -0.1554 0.8003
H36 H 0.6919 -0.2960 0.7980
H37 H 0.7410 -0.3501 0.7868
H38 H 0.7802 -0.2587 0.7524
H39 H 0.7741 -0.1126 0.7636
H40 H 0.7001 -0.0540 0.9355
H41 H 0.7195 -0.0333 1.0809
H42 H 0.7686 0.0462 1.1218
H43 H 0.7944 0.1076 1.0270
H44 H 0.7716 0.0925 0.8880

#END
