
#######################################################################
#
#                 Cambridge Crystallographic Data Centre
#                                CCDC
#
#######################################################################
#
# If this CIF has been generated from an entry in the Cambridge
# Structural Database, then it will include bibliographic, chemical,
# crystal, experimental, refinement or atomic coordinate data resulting
# from the CCDC's data processing and validation procedures.
#
#######################################################################

data_CSD_CIF_TURKIB
_audit_creation_date 2010-10-20
_audit_creation_method CSD-ConQuest-V1
_database_code_CSD TURKIB
_database_code_depnum_ccdc_archive 'CCDC 758952'
_chemical_formula_sum 'C48 H40 N4 P2 Ru1 S2'
_chemical_formula_moiety
;
C48 H40 N4 P2 Ru1 S2
;
_journal_coden_Cambridge 580
_journal_volume 29
_journal_year 2010
_journal_page_first 1973
_journal_name_full 'Polyhedron '
loop_
_publ_author_name
"J.G.Malecki"
_chemical_name_systematic
;
bis(Isothiocyanato)-bis(pyridine)-bis(triphenylphosphine)-ruthenium(ii)
;
_chemical_name_common
;
Teaching Subset: Fundamental Chemistry
;
_cell_volume   4280.758
_exptl_crystal_colour 'yellow'
_exptl_crystal_density_diffrn 1.396
_diffrn_ambient_temperature 295
#These two values have been output from a single CSD field.
_refine_ls_R_factor_gt 0.0287
_refine_ls_wR_factor_gt 0.0287
_symmetry_cell_setting monoclinic
_symmetry_space_group_name_H-M 'P 21/c'
_symmetry_Int_Tables_number 14
loop_
_symmetry_equiv_pos_site_id
_symmetry_equiv_pos_as_xyz
1 x,y,z
2 -x,1/2+y,1/2-z
3 -x,-y,-z
4 x,-1/2-y,-1/2+z
_cell_length_a 19.8773(4)
_cell_length_b 10.92370(17)
_cell_length_c 21.6045(5)
_cell_angle_alpha 90
_cell_angle_beta 114.142(3)
_cell_angle_gamma 90
_cell_formula_units_Z 4
loop_
_atom_type_symbol
_atom_type_radius_bond
C 0.68
H 0.23
N 0.68
P 1.05
Ru 1.46
S 1.02
loop_
_atom_site_label
_atom_site_type_symbol
_atom_site_fract_x
_atom_site_fract_y
_atom_site_fract_z
Ru1 Ru 0.244584(9) 0.630242(16) 0.318428(8)
S1 S 0.37155(5) 0.96208(8) 0.46772(4)
S2 S 0.11968(6) 0.29054(9) 0.17572(5)
P1 P 0.34136(3) 0.57973(6) 0.28507(3)
P2 P 0.18572(3) 0.78454(5) 0.23836(3)
N1 N 0.29772(10) 0.76785(18) 0.38466(9)
N2 N 0.18837(10) 0.48948(18) 0.25717(9)
N3 N 0.28744(10) 0.50163(17) 0.40132(9)
N4 N 0.15826(10) 0.64210(18) 0.35412(9)
C1 C 0.32696(13) 0.8490(2) 0.41967(12)
C2 C 0.15870(13) 0.4070(2) 0.22375(12)
C3 C 0.24426(15) 0.4110(2) 0.40605(12)
H1 H 0.19640 0.40550 0.37290
C4 C 0.26721(18) 0.3259(3) 0.45734(14)
H2 H 0.23510 0.26560 0.45920
C5 C 0.3381(2) 0.3311(3) 0.50568(15)
H3 H 0.35550 0.27310 0.54010
C6 C 0.38263(18) 0.4236(3) 0.50200(14)
H4 H 0.43100 0.42930 0.53430
C7 C 0.35570(14) 0.5082(2) 0.45037(12)
H5 H 0.38610 0.57240 0.44950
C8 C 0.17227(14) 0.6845(3) 0.41625(12)
H6 H 0.21910 0.71500 0.44230
C9 C 0.12049(15) 0.6852(3) 0.44360(13)
H7 H 0.13270 0.71490 0.48720
C10 C 0.05082(15) 0.6419(3) 0.40594(14)
H8 H 0.01510 0.64170 0.42340
C11 C 0.03529(14) 0.5988(2) 0.34183(14)
H9 H -0.01160 0.56980 0.31480
C12 C 0.08979(13) 0.5990(2) 0.31795(12)
H10 H 0.07880 0.56800 0.27480
C13 C 0.42192(13) 0.6806(2) 0.30486(12)
C14 C 0.44593(13) 0.7504(2) 0.36353(13)
H11 H 0.42180 0.74390 0.39230
C15 C 0.50499(14) 0.8294(3) 0.38018(16)
H12 H 0.51910 0.87760 0.41900
C16 C 0.54269(15) 0.8369(3) 0.33972(18)
H13 H 0.58180 0.89140 0.35040
C17 C 0.52259(15) 0.7635(3) 0.28309(17)
H14 H 0.54960 0.76630 0.25670
C18 C 0.46249(14) 0.6856(3) 0.26508(14)
H15 H 0.44920 0.63670 0.22660
C19 C 0.30961(13) 0.5500(3) 0.19345(12)
C20 C 0.28219(14) 0.4358(3) 0.16634(13)
H16 H 0.28440 0.37100 0.19500
C21 C 0.25154(16) 0.4185(4) 0.09668(16)
H17 H 0.23230 0.34240 0.07890
C22 C 0.24932(18) 0.5118(4) 0.05381(16)
H18 H 0.22860 0.49920 0.00720
C23 C 0.27783(19) 0.6242(4) 0.07987(16)
H19 H 0.27780 0.68690 0.05080
C24 C 0.30682(15) 0.6450(3) 0.14972(13)
H20 H 0.32420 0.72220 0.16690
C25 C 0.38810(13) 0.4354(2) 0.32425(11)
C26 C 0.34758(15) 0.3318(2) 0.32560(13)
H21 H 0.29640 0.33430 0.30410
C27 C 0.38166(18) 0.2261(3) 0.35810(15)
H22 H 0.35350 0.15790 0.35770
C28 C 0.45730(19) 0.2209(3) 0.39113(16)
H23 H 0.48030 0.15060 0.41450
C29 C 0.49810(17) 0.3203(3) 0.38917(15)
H24 H 0.54930 0.31630 0.41040
C30 C 0.46470(14) 0.4268(3) 0.35606(13)
H25 H 0.49360 0.49310 0.35510
C31 C 0.10749(13) 0.7432(2) 0.15852(12)
C32 C 0.04547(16) 0.8163(3) 0.12959(14)
H26 H 0.03990 0.88380 0.15330
C33 C -0.00841(17) 0.7903(3) 0.06581(16)
H27 H -0.04980 0.84020 0.04720
C34 C -0.00101(16) 0.6925(3) 0.03044(14)
H28 H -0.03730 0.67500 -0.01230
C35 C 0.06019(17) 0.6195(3) 0.05799(13)
H29 H 0.06560 0.55300 0.03350
C36 C 0.11414(14) 0.6441(2) 0.12206(12)
H30 H 0.15510 0.59330 0.14050
C37 C 0.14621(14) 0.9005(2) 0.27624(12)
C38 C 0.18112(18) 1.0093(3) 0.29992(17)
H31 H 0.22320 1.02890 0.29320
C39 C 0.1547(3) 1.0911(4) 0.3340(2)
H32 H 0.17880 1.16520 0.34910
C40 C 0.0941(3) 1.0643(5) 0.34540(19)
H33 H 0.07780 1.11820 0.36970
C41 C 0.0576(2) 0.9581(4) 0.32109(18)
H34 H 0.01570 0.93950 0.32840
C42 C 0.08207(17) 0.8767(3) 0.28544(15)
H35 H 0.05540 0.80560 0.26750
C43 C 0.23979(14) 0.8812(2) 0.20550(12)
C44 C 0.21282(17) 0.9192(3) 0.13823(14)
H36 H 0.16560 0.89690 0.10820
C45 C 0.2563(2) 0.9902(4) 0.11591(17)
H37 H 0.23840 1.01420 0.07070
C46 C 0.3261(2) 1.0256(3) 0.16059(17)
H38 H 0.35500 1.07400 0.14550
C47 C 0.35270(17) 0.9895(3) 0.22682(16)
H39 H 0.39960 1.01340 0.25690
C48 C 0.31000(14) 0.9174(2) 0.24924(13)
H40 H 0.32870 0.89290 0.29440
#END
