
#######################################################################
#
#                 Cambridge Crystallographic Data Centre
#                                CCDC
#
#######################################################################
#
# If this CIF has been generated from an entry in the Cambridge
# Structural Database, then it will include bibliographic, chemical,
# crystal, experimental, refinement or atomic coordinate data resulting
# from the CCDC's data processing and validation procedures.
#
#######################################################################

data_CSD_CIF_TUSBIS
_audit_creation_date 2003-06-05
_audit_creation_method CSD-ConQuest-V1
_database_code_CSD TUSBIS
_database_code_depnum_ccdc_archive 'CCDC 193343'
_chemical_formula_sum 'C3 H9 As1 F6 O1'
_chemical_formula_moiety
;
C3 H9 O1 1+,As1 F6 1-
;
_journal_coden_Cambridge 971
_journal_volume 4
_journal_year 2002
_journal_page_first 1403
_journal_name_full 'Solid State Sciences '
loop_
_publ_author_name
"E.Lork"
"B.Gortler"
"C.Knapp"
"R.Mews"
_chemical_name_systematic
;
Trimethyloxonium hexafluoro-arsenic
;
_chemical_name_common
;
Teaching Subset: Fundamental Chemistry, Symmetry
;
_chemical_melting_point 443
_cell_volume   1179.873
_exptl_crystal_colour 'colorless'
_exptl_crystal_density_diffrn 2.111
_exptl_crystal_description 'blocks'
_diffrn_ambient_temperature 173
#These two values have been output from a single CSD field.
_refine_ls_R_factor_gt 0.0247
_refine_ls_wR_factor_gt 0.0247
_symmetry_cell_setting rhombohedral
_symmetry_space_group_name_H-M 'R -3 m'
_symmetry_Int_Tables_number 166
loop_
_symmetry_equiv_pos_site_id
_symmetry_equiv_pos_as_xyz
1 x,y,z
2 -y,x-y,z
3 -x+y,-x,z
4 y,x,-z
5 2/3+x,1/3+y,1/3+z
6 2/3-y,1/3+x-y,1/3+z
7 2/3-x+y,1/3-x,1/3+z
8 2/3+y,1/3+x,1/3-z
9 1/3+x,2/3+y,2/3+z
10 1/3+y,2/3+x,2/3-z
11 x-y,-y,-z
12 -x,-x+y,-z
13 1/3-y,2/3+x-y,2/3+z
14 1/3-x+y,2/3-x,2/3+z
15 1/3+x-y,2/3-y,2/3-z
16 1/3-x,2/3-x+y,2/3-z
17 2/3+x-y,1/3-y,1/3-z
18 2/3-x,1/3-x+y,1/3-z
19 -x,-y,-z
20 y,-x+y,-z
21 x-y,x,-z
22 -y,-x,z
23 -2/3-x,-1/3-y,-1/3-z
24 -2/3+y,-1/3-x+y,-1/3-z
25 -2/3+x-y,-1/3+x,-1/3-z
26 -2/3-y,-1/3-x,-1/3+z
27 -1/3-x,-2/3-y,-2/3-z
28 -1/3-y,-2/3-x,-2/3+z
29 -x+y,y,z
30 x,x-y,z
31 -1/3+y,-2/3-x+y,-2/3-z
32 -1/3+x-y,-2/3+x,-2/3-z
33 -1/3-x+y,-2/3+y,-2/3+z
34 -1/3+x,-2/3+x-y,-2/3+z
35 -2/3-x+y,-1/3+y,-1/3+z
36 -2/3+x,-1/3+x-y,-1/3+z
_cell_length_a 8.981(1)
_cell_length_b 8.981(1)
_cell_length_c 16.891(3)
_cell_angle_alpha 90
_cell_angle_beta 90
_cell_angle_gamma 120
_cell_formula_units_Z 6
loop_
_atom_type_symbol
_atom_type_radius_bond
C 0.68
H 0.23
As 1.21
F 0.64
O 0.68
loop_
_atom_site_label
_atom_site_type_symbol
_atom_site_fract_x
_atom_site_fract_y
_atom_site_fract_z
As1 As 0.00000 0.00000 0.00000
F1 F 0.08981(14) 0.1796(3) 0.05861(13)
As2 As 0.33330 0.66670 0.16670
F2 F 0.42283(14) 0.57717(14) 0.10787(13)
C1 C 0.7578(2) 0.2422(2) 0.0791(2)
H1 H 0.696(2) 0.1264(19) 0.1011(13)
H2 H 0.760(3) 0.240(3) 0.0222(10)
O1 O 0.66670 0.33330 0.1025(3)
F1A F -0.17960(14) -0.08979(30) 0.05861(13)
F1B F 0.08979(14) -0.08981(30) 0.05861(13)
F1C F 0.17960(14) 0.08981(30) -0.05861(13)
F1R F -0.08981(14) -0.1796(3) -0.05861(13)
F1T F -0.08979(14) 0.08981(30) -0.05861(13)
F2A F 0.42283(14) 0.84566(14) 0.10787(13)
F2B F 0.15434(14) 0.57717(14) 0.10787(13)
F2G F 0.243837(140) 0.756163(140) 0.225463(130)
F2DA F 0.243837(140) 0.487673(140) 0.225463(130)
F2EA F 0.512327(140) 0.756163(140) 0.225463(130)
H1U H 0.8736(20) 0.3040(19) 0.1011(13)
C1B C 0.4844(2) 0.2422(2) 0.0791(2)
H1B H 0.4304(20) 0.3040(19) 0.1011(13)
H1BA H 0.4304(20) 0.1264(19) 0.1011(13)
H2B H 0.480(3) 0.240(3) 0.0222(10)
C1A C 0.7578(2) 0.5156(2) 0.0791(2)
H1A H 0.8736(20) 0.5696(19) 0.1011(13)
H1CA H 0.696(2) 0.5696(19) 0.1011(13)
H2A H 0.760(3) 0.520(3) 0.0222(10)
#END
