####################################################################### 
# 
# This file contains crystal structure data downloaded from the 
# Cambridge Structural Database (CSD) hosted by the Cambridge 
# Crystallographic Data Centre (CCDC).
# 
# Full information about CCDC data access policies and citation 
# guidelines are available at http://www.ccdc.cam.ac.uk/access/V1 
# 
# Audit and citation data items may have been added by the CCDC. 
# Please retain this information to preserve the provenance of 
# this file and to allow appropriate attribution of the data. 
# 
#######################################################################

data_3
_audit_block_doi                 10.5517/cc6jw7t
_database_code_depnum_ccdc_archive 'CCDC 194966'
loop_
_citation_id
_citation_doi
_citation_year
1 10.1002/anie.200390106 2003
_audit_update_record             
;
2002-10-07 deposited with the CCDC.	2024-07-13 downloaded from the CCDC.
;

_diffrn_measurement_domega       0.30
_diffrn_measurement_rtime        10

_chemical_formula_sum            'C280 H172 Ag8 N63 O26 Zn7'
_chemical_formula_weight         6155.36

loop_
_atom_type_symbol
_atom_type_description
_atom_type_scat_dispersion_real
_atom_type_scat_dispersion_imag
_atom_type_scat_source
C C 0.0033 0.0016 'International Tables Vol C Tables 4.2.6.8 and 6.1.1.4'
H H 0.0000 0.0000 'International Tables Vol C Tables 4.2.6.8 and 6.1.1.4'
N N 0.0061 0.0033 'International Tables Vol C Tables 4.2.6.8 and 6.1.1.4'
O O 0.0106 0.0060 'International Tables Vol C Tables 4.2.6.8 and 6.1.1.4'
Zn Zn 0.2839 1.4301 'International Tables Vol C Tables 4.2.6.8 and 6.1.1.4'
Ag Ag -0.8971 1.1015 'International Tables Vol C Tables 4.2.6.8 and 6.1.1.4'

_symmetry_cell_setting           Tetragonal
_symmetry_space_group_name_H-M   I4/mcm

loop_
_symmetry_equiv_pos_as_xyz
'x, y, z'
'-x, -y, z'
'x, -y, -z+1/2'
'-x, y, -z+1/2'
'-y, -x, -z+1/2'
'y, x, -z+1/2'
'y, -x, z'
'-y, x, z'
'x+1/2, y+1/2, z+1/2'
'-x+1/2, -y+1/2, z+1/2'
'x+1/2, -y+1/2, -z+1'
'-x+1/2, y+1/2, -z+1'
'-y+1/2, -x+1/2, -z+1'
'y+1/2, x+1/2, -z+1'
'y+1/2, -x+1/2, z+1/2'
'-y+1/2, x+1/2, z+1/2'
'-x, -y, -z'
'x, y, -z'
'-x, y, z-1/2'
'x, -y, z-1/2'
'y, x, z-1/2'
'-y, -x, z-1/2'
'-y, x, -z'
'y, -x, -z'
'-x+1/2, -y+1/2, -z+1/2'
'x+1/2, y+1/2, -z+1/2'
'-x+1/2, y+1/2, z'
'x+1/2, -y+1/2, z'
'y+1/2, x+1/2, z'
'-y+1/2, -x+1/2, z'
'-y+1/2, x+1/2, -z+1/2'
'y+1/2, -x+1/2, -z+1/2'

_cell_length_a                   39.1689(19)
_cell_length_b                   39.1689(19)
_cell_length_c                   28.991(2)
_cell_angle_alpha                90.00
_cell_angle_beta                 90.00
_cell_angle_gamma                90.00
_cell_volume                     44478(4)
_cell_formula_units_Z            4
_cell_measurement_temperature    293(2)
_cell_measurement_reflns_used    1008
_cell_measurement_theta_min      3
_cell_measurement_theta_max      16

_exptl_crystal_description       colum
_exptl_crystal_colour            violet-blue
_exptl_crystal_size_max          0.30
_exptl_crystal_size_mid          0.20
_exptl_crystal_size_min          0.16
_exptl_crystal_density_diffrn    0.919
_exptl_crystal_density_method    'not measured'
_exptl_crystal_F_000             12348
_exptl_absorpt_coefficient_mu    0.760
_exptl_absorpt_correction_type   sadabs
_exptl_absorpt_correction_T_min  0.85
_exptl_absorpt_correction_T_max  1.00

_diffrn_ambient_temperature      293(2)
_diffrn_radiation_wavelength     0.71073
_diffrn_radiation_type           MoK\a
_diffrn_radiation_source         'fine-focus sealed tube'
_diffrn_radiation_monochromator  graphite
_diffrn_measurement_device       SMART
_diffrn_detector_type            CCD_plate
_diffrn_measurement_method       omega-scan
_diffrn_standards_decay_%        12
_diffrn_reflns_number            8130
_diffrn_reflns_av_R_equivalents  0.0000
_diffrn_reflns_av_sigmaI/netI    0.0978
_diffrn_reflns_limit_h_min       0
_diffrn_reflns_limit_h_max       30
_diffrn_reflns_limit_k_min       0
_diffrn_reflns_limit_k_max       43
_diffrn_reflns_limit_l_min       0
_diffrn_reflns_limit_l_max       31
_diffrn_reflns_theta_min         0.74
_diffrn_reflns_theta_max         23.00
_reflns_number_total             8130
_reflns_number_observed          3021
_reflns_observed_criterion       >2sigma(I)

_computing_structure_solution    SIR92
_computing_structure_refinement  'SHELXL-97 (Sheldrick, 1997)'
_computing_molecular_graphics    SCHAKAL

_refine_special_details          
;
Refinement of F^2^ against ALL reflections.  The weighted R-factor wR and
goodness of fit S are based on F^2^, conventional R-factors R are based
on F, with F set to zero for negative F^2^. The threshold expression of
F^2^ > 2sigma(F^2^) is used only for calculating R-factors(gt) etc. and is
not relevant to the choice of reflections for refinement.  R-factors based
on F^2^ are statistically about twice as large as those based on F, and R-
factors based on ALL data will be even larger.
;

_refine_ls_structure_factor_coef Fsqd
_refine_ls_matrix_type           full
_refine_ls_weighting_scheme      calc
_refine_ls_weighting_details     
'calc w=1/[\s^2^(Fo^2^)+(0.1313P)^2^+0.0000P] where P=(Fo^2^+2Fc^2^)/3'
_atom_sites_solution_primary     direct
_atom_sites_solution_secondary   difmap
_atom_sites_solution_hydrogens   geom
_refine_ls_hydrogen_treatment    mixed
_refine_ls_extinction_method     SHELXL
_refine_ls_extinction_coef       0.000034(7)
_refine_ls_extinction_expression Fc^*^=kFc[1+0.001xFc^2^\l^3^/sin(2\q)]^-1/4^
_refine_ls_number_reflns         8130
_refine_ls_number_parameters     444
_refine_ls_number_restraints     3
_refine_ls_R_factor_all          0.1728
_refine_ls_R_factor_obs          0.0774
_refine_ls_wR_factor_all         0.2431
_refine_ls_wR_factor_obs         0.2113
_refine_ls_goodness_of_fit_all   0.946
_refine_ls_restrained_S_all      0.946
_refine_ls_shift/su_max          0.181
_refine_ls_shift/su_mean         0.024

loop_
_atom_site_label
_atom_site_type_symbol
_atom_site_fract_x
_atom_site_fract_y
_atom_site_fract_z
_atom_site_U_iso_or_equiv
_atom_site_adp_type
_atom_site_occupancy
_atom_site_symmetry_multiplicity
_atom_site_calc_flag
_atom_site_refinement_flags
_atom_site_disorder_assembly
_atom_site_disorder_group
Zn1 Zn 0.0000 0.0000 0.0000 0.157(2) Uani 1 8 d S . .
Zn2 Zn 0.18785(3) 0.16877(3) 0.0000 0.0548(4) Uani 1 2 d S . .
Zn3 Zn -0.07459(4) 0.42541(4) 0.0000 0.0809(7) Uani 1 4 d S . .
Ag Ag 0.06042(3) 0.30806(3) 0.23925(3) 0.1716(7) Uani 1 1 d . . .
C11 C 0.1203(2) 0.2546(2) 0.0225(2) 0.088(3) Uani 1 1 d . . .
H11 H 0.1081 0.2691 0.0417 0.105 Uiso 1 1 calc R . .
C12 C 0.1430(2) 0.2275(2) 0.0367(3) 0.077(2) Uani 1 1 d . . .
C13 C 0.1516(2) 0.2186(2) 0.0835(3) 0.069(2) Uani 1 1 d . . .
C14 C 0.1749(2) 0.1953(2) 0.0973(3) 0.067(2) Uani 1 1 d . . .
C15 C 0.1829(2) 0.1874(2) 0.1449(3) 0.092(3) Uani 1 1 d . . .
H15 H 0.1732 0.1977 0.1707 0.110 Uiso 1 1 calc R . .
C16 C 0.2064(2) 0.1627(2) 0.1453(3) 0.085(3) Uani 1 1 d . . .
H16 H 0.2159 0.1522 0.1711 0.102 Uiso 1 1 calc R . .
C17 C 0.2138(2) 0.1558(2) 0.0988(3) 0.061(2) Uani 1 1 d . . .
C18 C 0.23745(19) 0.13143(19) 0.0832(3) 0.060(2) Uani 1 1 d . . .
C19 C 0.2464(2) 0.12350(18) 0.0378(3) 0.059(2) Uani 1 1 d . . .
C110 C 0.2721(2) 0.0997(2) 0.0230(2) 0.080(3) Uani 1 1 d . . .
H110 H 0.2861 0.0867 0.0419 0.096 Uiso 1 1 calc R . .
C21 C -0.0014(2) 0.3448(2) 0.0223(2) 0.102(3) Uani 1 1 d . . .
H21 H 0.0132 0.3324 0.0413 0.123 Uiso 1 1 calc R . .
C22 C -0.0289(2) 0.3683(2) 0.0377(3) 0.080(3) Uani 1 1 d . . .
C23 C -0.0379(2) 0.3747(2) 0.0837(3) 0.071(2) Uani 1 1 d . . .
C24 C -0.0621(2) 0.3968(2) 0.0975(2) 0.075(3) Uani 1 1 d . . .
C25 C -0.0746(2) 0.4009(2) 0.1455(3) 0.089(3) Uani 1 1 d . . .
H25 H -0.0669 0.3888 0.1711 0.107 Uiso 1 1 calc R . .
C31 C 0.0315(3) 0.0725(3) 0.0000 0.083(4) Uani 1 2 d S . .
C32 C 0.0679(3) 0.0575(3) 0.0000 0.084(4) Uani 1 2 d S . .
C33 C -0.0222(4) 0.0742(3) 0.0000 0.099(5) Uani 1 2 d S . .
C34 C -0.0110(4) 0.1085(3) 0.0000 0.126(6) Uani 1 2 d S . .
H34 H -0.0247 0.1279 0.0000 0.151 Uiso 1 2 calc SR . .
C35 C 0.0239(4) 0.1078(3) 0.0000 0.117(5) Uani 1 2 d S . .
H35 H 0.0390 0.1261 0.0000 0.140 Uiso 1 2 calc SR . .
N111 N 0.0936(3) 0.2737(3) 0.1880(4) 0.138(4) Uani 1 1 d . . .
C112 C 0.1259(4) 0.2804(3) 0.1804(4) 0.145(5) Uani 1 1 d . . .
H112 H 0.1363 0.2969 0.1986 0.174 Uiso 1 1 calc R . .
C113 C 0.1459(3) 0.2640(3) 0.1462(4) 0.128(4) Uani 1 1 d . . .
H113 H 0.1684 0.2704 0.1408 0.154 Uiso 1 1 calc R . .
C114 C 0.1303(3) 0.2380(3) 0.1209(3) 0.095(3) Uani 1 1 d . . .
C115 C 0.0964(3) 0.2306(3) 0.1278(4) 0.141(5) Uani 1 1 d . . .
H115 H 0.0851 0.2144 0.1101 0.170 Uiso 1 1 calc R . .
C116 C 0.0796(3) 0.2489(4) 0.1634(5) 0.165(6) Uani 1 1 d . . .
H116 H 0.0571 0.2430 0.1700 0.198 Uiso 1 1 calc R . .
N121 N 0.2885(3) 0.0798(3) 0.1961(3) 0.112(3) Uani 1 1 d . . .
C122 C 0.3025(4) 0.1062(4) 0.1746(4) 0.156(5) Uani 1 1 d . . .
H122 H 0.3235 0.1137 0.1855 0.187 Uiso 1 1 calc R . .
C123 C 0.2886(3) 0.1239(3) 0.1369(4) 0.131(5) Uani 1 1 d . . .
H123 H 0.3001 0.1419 0.1228 0.157 Uiso 1 1 calc R . .
C124 C 0.2577(3) 0.1132(2) 0.1223(3) 0.081(3) Uani 1 1 d . . .
C125 C 0.2421(3) 0.0864(3) 0.1434(4) 0.124(4) Uani 1 1 d . . .
H125 H 0.2210 0.0786 0.1333 0.149 Uiso 1 1 calc R . .
C126 C 0.2588(4) 0.0710(4) 0.1806(5) 0.177(7) Uani 1 1 d . . .
H126 H 0.2476 0.0531 0.1954 0.212 Uiso 1 1 calc R . .
C212 C 0.0045(3) 0.3115(3) 0.1648(5) 0.121(4) Uani 1 1 d . . .
H212 H 0.0053 0.2880 0.1692 0.146 Uiso 1 1 calc R . .
C213 C -0.0175(2) 0.3248(3) 0.1289(3) 0.102(3) Uani 1 1 d . . .
H213 H -0.0318 0.3105 0.1121 0.122 Uiso 1 1 calc R . .
C214 C -0.0165(2) 0.3580(3) 0.1210(3) 0.076(3) Uani 1 1 d . . .
C215 C 0.0017(3) 0.3768(3) 0.1493(5) 0.111(3) Uani 1 1 d . . .
H215 H 0.0015 0.4004 0.1459 0.133 Uiso 1 1 calc R . .
C216 C 0.0211(3) 0.3629(4) 0.1838(4) 0.130(4) Uani 1 1 d . . .
H216 H 0.0333 0.3777 0.2027 0.156 Uiso 1 1 calc R . .
C312 C 0.1358(3) 0.1190(3) -0.0372(4) 0.185(7) Uani 1 1 d . . .
H312 H 0.1450 0.1263 -0.0651 0.222 Uiso 1 1 calc R . .
C313 C 0.1083(3) 0.0951(3) -0.0388(4) 0.189(7) Uani 1 1 d . . .
H313 H 0.0995 0.0884 -0.0672 0.227 Uiso 1 1 calc R . .
C314 C 0.0950(3) 0.0820(3) 0.0000 0.086(4) Uani 1 2 d S . .
N11 N 0.1563(2) 0.2122(2) 0.0000 0.059(2) Uani 1 2 d S . .
N12 N 0.19403(15) 0.17508(15) 0.07056(19) 0.0536(15) Uani 1 1 d . . .
N13 N 0.23127(19) 0.13697(19) 0.0000 0.050(2) Uani 1 2 d S . .
N21 N -0.0442(2) 0.3821(2) 0.0000 0.078(3) Uani 1 2 d S . .
N22 N -0.08077(18) 0.41923(18) 0.0689(3) 0.077(3) Uani 1 2 d S . .
N31 N 0.0030(3) 0.0509(2) 0.0000 0.084(3) Uani 1 2 d S . .
N211 N 0.0235(2) 0.3313(3) 0.1918(3) 0.098(3) Uani 1 1 d . . .
N311 N 0.1486(2) 0.1310(2) 0.0000 0.067(3) Uani 1 2 d S . .
N100 N 0.3795(3) 0.1205(3) 0.2594(6) 0.149(7) Uani 1 2 d SD . .
O11 O 0.4099(3) 0.1284(3) 0.2560(4) 0.234(6) Uani 1 1 d D . .
O12 O 0.3574(3) 0.1426(3) 0.2546(9) 0.295(13) Uani 1 2 d SD . .
O1W O -0.0367(3) 0.4633(3) 0.0000 0.188(7) Uani 1 4 d S . .

loop_
_atom_site_aniso_label
_atom_site_aniso_U_11
_atom_site_aniso_U_22
_atom_site_aniso_U_33
_atom_site_aniso_U_23
_atom_site_aniso_U_13
_atom_site_aniso_U_12
Zn1 0.0476(12) 0.0476(12) 0.375(7) 0.000 0.000 0.000
Zn2 0.0569(8) 0.0589(8) 0.0486(8) 0.000 0.000 0.0006(6)
Zn3 0.1013(11) 0.1013(11) 0.0400(11) 0.000 0.000 0.0409(13)
Ag 0.1998(11) 0.2627(13) 0.0522(5) -0.0085(6) -0.0250(5) 0.1600(10)
C11 0.110(7) 0.078(6) 0.074(6) -0.006(4) -0.001(4) 0.058(5)
C12 0.080(6) 0.080(7) 0.069(6) -0.018(5) 0.000(5) 0.010(5)
C13 0.068(6) 0.077(6) 0.062(6) -0.016(5) 0.009(5) 0.014(5)
C14 0.072(6) 0.077(6) 0.053(5) 0.004(5) 0.000(5) 0.020(5)
C15 0.107(8) 0.120(8) 0.048(6) -0.021(5) -0.005(5) 0.034(6)
C16 0.104(7) 0.111(8) 0.041(5) -0.002(5) 0.001(5) 0.045(6)
C17 0.069(6) 0.073(6) 0.042(5) -0.002(4) 0.003(4) 0.003(5)
C18 0.059(5) 0.073(6) 0.049(5) 0.006(4) 0.003(4) 0.006(4)
C19 0.077(6) 0.052(5) 0.050(5) 0.008(4) -0.010(4) 0.004(4)
C110 0.094(6) 0.088(6) 0.056(5) 0.009(4) 0.009(4) 0.029(5)
C21 0.115(7) 0.134(8) 0.058(6) 0.006(5) 0.001(5) 0.074(6)
C22 0.082(6) 0.104(7) 0.055(6) 0.000(5) -0.005(5) 0.050(5)
C23 0.076(6) 0.089(6) 0.049(5) 0.005(5) 0.009(4) 0.042(5)
C24 0.080(6) 0.106(7) 0.039(5) 0.014(5) -0.002(4) 0.048(5)
C25 0.121(7) 0.103(7) 0.044(5) 0.014(4) 0.000(5) 0.052(5)
C31 0.039(8) 0.076(10) 0.134(11) 0.000 0.000 0.007(7)
C32 0.064(9) 0.063(9) 0.125(11) 0.000 0.000 -0.013(8)
C33 0.066(10) 0.053(9) 0.177(15) 0.000 0.000 -0.018(8)
C34 0.087(11) 0.046(10) 0.24(2) 0.000 0.000 0.025(7)
C35 0.089(12) 0.044(9) 0.217(17) 0.000 0.000 -0.016(8)
N111 0.087(8) 0.202(12) 0.125(8) -0.024(7) -0.013(7) 0.070(8)
C112 0.163(13) 0.160(11) 0.112(10) -0.070(8) -0.028(10) 0.060(11)
C113 0.107(8) 0.161(11) 0.116(9) -0.064(9) 0.014(7) 0.020(8)
C114 0.121(9) 0.106(8) 0.058(6) -0.027(6) -0.006(6) 0.023(7)
C115 0.075(8) 0.217(13) 0.132(10) -0.066(9) 0.047(7) 0.004(8)
C116 0.112(11) 0.227(16) 0.155(13) -0.060(11) 0.053(10) -0.023(11)
N121 0.161(10) 0.111(8) 0.063(6) 0.017(5) 0.010(6) 0.061(8)
C122 0.181(14) 0.180(14) 0.108(11) -0.010(9) -0.060(10) 0.072(12)
C123 0.142(10) 0.143(10) 0.108(9) 0.047(7) -0.081(8) -0.012(8)
C124 0.118(9) 0.085(7) 0.040(5) 0.024(5) 0.024(6) 0.046(6)
C125 0.103(9) 0.131(10) 0.139(11) 0.042(9) 0.001(8) 0.016(8)
C126 0.153(13) 0.202(15) 0.176(14) 0.137(12) -0.009(11) -0.010(12)
C212 0.137(11) 0.111(10) 0.116(10) 0.039(9) 0.032(8) 0.031(8)
C213 0.102(8) 0.125(10) 0.078(7) 0.045(7) -0.023(6) 0.022(7)
C214 0.093(7) 0.104(9) 0.032(5) 0.011(6) -0.007(5) 0.022(6)
C215 0.117(9) 0.108(9) 0.107(9) 0.005(8) -0.018(7) 0.046(7)
C216 0.165(11) 0.129(11) 0.097(9) -0.008(8) -0.023(8) 0.053(10)
C312 0.228(14) 0.254(15) 0.072(8) -0.017(8) 0.028(8) -0.182(13)
C313 0.200(13) 0.240(15) 0.128(11) -0.016(10) -0.018(9) -0.166(12)
C314 0.085(10) 0.080(9) 0.093(11) 0.000 0.000 -0.045(8)
N11 0.073(6) 0.052(6) 0.051(6) 0.000 0.000 0.004(5)
N12 0.066(4) 0.058(4) 0.037(3) -0.008(3) -0.007(3) 0.009(3)
N13 0.057(6) 0.052(5) 0.042(5) 0.000 0.000 0.006(4)
N21 0.082(7) 0.118(8) 0.034(6) 0.000 0.000 0.032(6)
N22 0.096(4) 0.096(4) 0.037(5) 0.003(4) 0.003(4) 0.043(6)
N31 0.047(6) 0.057(7) 0.147(10) 0.000 0.000 0.003(6)
N211 0.129(8) 0.118(9) 0.047(5) -0.004(5) 0.008(5) 0.036(7)
N311 0.054(6) 0.083(7) 0.064(7) 0.000 0.000 -0.021(5)
N100 0.164(11) 0.164(11) 0.119(12) 0.022(11) -0.022(11) -0.045(17)
O11 0.212(11) 0.255(14) 0.235(12) -0.067(9) -0.061(10) -0.017(9)
O12 0.267(15) 0.267(15) 0.35(3) -0.067(14) 0.067(14) 0.041(18)
O1W 0.214(12) 0.214(12) 0.137(14) 0.000 0.000 -0.076(15)

_geom_special_details            
;
All esds (except the esd in the dihedral angle between two l.s. planes)
are estimated using the full covariance matrix.  The cell esds are taken
into account individually in the estimation of esds in distances, angles
and torsion angles; correlations between esds in cell parameters are only
used when they are defined by crystal symmetry.  An approximate (isotropic)
treatment of cell esds is used for estimating esds involving l.s. planes.
;

loop_
_geom_bond_atom_site_label_1
_geom_bond_atom_site_label_2
_geom_bond_distance
_geom_bond_site_symmetry_2
_geom_bond_publ_flag
Zn1 N31 1.997(9) 7 ?
Zn1 N31 1.997(9) . ?
Zn1 N31 1.997(9) 23 ?
Zn1 N31 1.997(9) 17 ?
Zn2 N12 2.075(5) . ?
Zn2 N12 2.075(5) 18 ?
Zn2 N11 2.102(8) . ?
Zn2 N13 2.108(8) . ?
Zn2 N311 2.134(8) . ?
Zn3 N22 2.028(8) 18 ?
Zn3 N22 2.028(8) . ?
Zn3 O1W 2.098(16) . ?
Zn3 N21 2.073(9) 29_455 ?
Zn3 N21 2.073(9) . ?
Ag N121 2.161(9) 6 ?
Ag N211 2.195(9) . ?
Ag N111 2.389(10) . ?
Ag O11 2.751(11) 25 ?
C11 C11 1.306(14) 18 ?
C11 C12 1.445(10) . ?
C12 N11 1.325(9) . ?
C12 C13 1.440(10) . ?
C13 C14 1.354(10) . ?
C13 C114 1.563(11) . ?
C14 N12 1.338(9) . ?
C14 C15 1.447(10) . ?
C15 C16 1.336(10) . ?
C16 C17 1.405(9) . ?
C17 N12 1.357(8) . ?
C17 C18 1.406(9) . ?
C18 C19 1.397(9) . ?
C18 C124 1.556(10) . ?
C19 N13 1.353(8) . ?
C19 C110 1.437(10) . ?
C110 C110 1.331(13) 18 ?
C21 C21 1.295(14) 18 ?
C21 C22 1.482(10) . ?
C22 N21 1.360(8) . ?
C22 C23 1.402(10) . ?
C23 C24 1.346(9) . ?
C23 C214 1.513(11) . ?
C24 N22 1.412(8) . ?
C24 C25 1.483(9) . ?
C25 C25 1.361(13) 29_455 ?
C31 N31 1.402(13) . ?
C31 C35 1.414(15) . ?
C31 C32 1.542(15) . ?
C32 C33 1.403(15) 7 ?
C32 C314 1.430(15) . ?
C33 N31 1.344(14) . ?
C33 C32 1.403(15) 23 ?
C33 C34 1.416(16) . ?
C34 C35 1.366(16) . ?
N111 C116 1.323(13) . ?
N111 C112 1.312(14) . ?
C112 C113 1.417(13) . ?
C113 C114 1.397(12) . ?
C114 C115 1.374(11) . ?
C115 C116 1.419(14) . ?
N121 C122 1.325(15) . ?
N121 C126 1.297(14) . ?
N121 Ag 2.161(9) 6 ?
C122 C123 1.402(14) . ?
C122 Ag 3.082(15) 6 ?
C123 C124 1.351(12) . ?
C124 C125 1.359(11) . ?
C125 C126 1.399(14) . ?
C126 Ag 3.049(16) 6 ?
C212 N211 1.328(13) . ?
C212 C213 1.447(13) . ?
C213 C214 1.321(12) . ?
C214 C215 1.314(13) . ?
C215 C216 1.368(14) . ?
C216 N211 1.261(12) . ?
C312 N311 1.279(10) . ?
C312 C313 1.429(13) . ?
C313 C314 1.341(12) . ?
C314 C313 1.341(12) 18 ?
N11 C12 1.325(9) 18 ?
N13 C19 1.353(8) 18 ?
N21 C22 1.360(8) 18 ?
N22 C24 1.412(8) 29_455 ?
N311 C312 1.279(10) 18 ?
N100 O12 1.229(9) . ?
N100 O11 1.234(7) . ?
N100 O11 1.235(7) 30 ?
O11 Ag 2.751(11) 25 ?

loop_
_geom_angle_atom_site_label_1
_geom_angle_atom_site_label_2
_geom_angle_atom_site_label_3
_geom_angle
_geom_angle_site_symmetry_1
_geom_angle_site_symmetry_3
_geom_angle_publ_flag
N31 Zn1 N31 90.0 7 . ?
N31 Zn1 N31 180.0 7 23 ?
N31 Zn1 N31 90.0 . 23 ?
N31 Zn1 N31 90.0 7 17 ?
N31 Zn1 N31 180.00(3) . 17 ?
N31 Zn1 N31 90.0 23 17 ?
N12 Zn2 N12 160.8(3) . 18 ?
N12 Zn2 N11 88.41(18) . . ?
N12 Zn2 N11 88.41(18) 18 