####################################################################### 
# 
# This file contains crystal structure data downloaded from the 
# Cambridge Structural Database (CSD) hosted by the Cambridge 
# Crystallographic Data Centre (CCDC).
# 
# Full information about CCDC data access policies and citation 
# guidelines are available at http://www.ccdc.cam.ac.uk/access/V1 
# 
# Audit and citation data items may have been added by the CCDC. 
# Please retain this information to preserve the provenance of 
# this file and to allow appropriate attribution of the data. 
# 
#######################################################################

data_2
_audit_block_doi                 10.5517/cc6jw6s
_database_code_depnum_ccdc_archive 'CCDC 194965'
loop_
_citation_id
_citation_doi
_citation_year
1 10.1002/anie.200390106 2003
_audit_update_record             
;
2002-10-07 deposited with the CCDC.	2024-07-13 downloaded from the CCDC.
;

_diffrn_measurement_domega       0.30
_diffrn_measurement_rtime        43

_chemical_formula_sum            'C40 H26 Ag2 N10 O6'
_chemical_formula_weight         958.45

loop_
_atom_type_symbol
_atom_type_description
_atom_type_scat_dispersion_real
_atom_type_scat_dispersion_imag
_atom_type_scat_source
C C 0.0033 0.0016 'International Tables Vol C Tables 4.2.6.8 and 6.1.1.4'
H H 0.0000 0.0000 'International Tables Vol C Tables 4.2.6.8 and 6.1.1.4'
N N 0.0061 0.0033 'International Tables Vol C Tables 4.2.6.8 and 6.1.1.4'
O O 0.0106 0.0060 'International Tables Vol C Tables 4.2.6.8 and 6.1.1.4'
Ag Ag -0.8971 1.1015 'International Tables Vol C Tables 4.2.6.8 and 6.1.1.4'

_symmetry_cell_setting           Orthorhombic
_symmetry_space_group_name_H-M   Pbcm

loop_
_symmetry_equiv_pos_as_xyz
'x, y, z'
'-x, -y, z+1/2'
'x, -y+1/2, -z'
'-x, y+1/2, -z+1/2'
'-x, -y, -z'
'x, y, -z-1/2'
'-x, y-1/2, z'
'x, -y-1/2, z-1/2'

_cell_length_a                   19.861(7)
_cell_length_b                   8.077(3)
_cell_length_c                   38.220(13)
_cell_angle_alpha                90.00
_cell_angle_beta                 90.00
_cell_angle_gamma                90.00
_cell_volume                     6131(4)
_cell_formula_units_Z            8
_cell_measurement_temperature    293(2)
_cell_measurement_reflns_used    969
_cell_measurement_theta_min      3
_cell_measurement_theta_max      17

_exptl_crystal_description       plate
_exptl_crystal_colour            brown
_exptl_crystal_size_max          0.30
_exptl_crystal_size_mid          0.20
_exptl_crystal_size_min          0.02
_exptl_crystal_density_diffrn    1.038
_exptl_crystal_density_method    'not measured'
_exptl_crystal_F_000             1912
_exptl_absorpt_coefficient_mu    0.678
_exptl_absorpt_correction_type   sadabs
_exptl_absorpt_correction_T_min  0.67
_exptl_absorpt_correction_T_max  1.00

_diffrn_ambient_temperature      293(2)
_diffrn_radiation_wavelength     0.71073
_diffrn_radiation_type           MoK\a
_diffrn_radiation_source         'fine-focus sealed tube'
_diffrn_radiation_monochromator  graphite
_diffrn_measurement_device       SMART
_diffrn_detector_type            CCD_plate
_diffrn_measurement_method       omega-scan
_diffrn_standards_decay_%        2
_diffrn_reflns_number            3712
_diffrn_reflns_av_R_equivalents  0.0000
_diffrn_reflns_av_sigmaI/netI    0.1958
_diffrn_reflns_limit_h_min       0
_diffrn_reflns_limit_h_max       20
_diffrn_reflns_limit_k_min       0
_diffrn_reflns_limit_k_max       8
_diffrn_reflns_limit_l_min       0
_diffrn_reflns_limit_l_max       39
_diffrn_reflns_theta_min         1.03
_diffrn_reflns_theta_max         22.04
_reflns_number_total             3712
_reflns_number_observed          1426
_reflns_observed_criterion       >2sigma(I)

_computing_structure_solution    SIR92
_computing_structure_refinement  'SHELXL-97 (Sheldrick, 1997)'
_computing_molecular_graphics    SCHAKAL

_refine_special_details          
;
Refinement of F^2^ against ALL reflections.  The weighted R-factor wR and
goodness of fit S are based on F^2^, conventional R-factors R are based
on F, with F set to zero for negative F^2^. The threshold expression of
F^2^ > 2sigma(F^2^) is used only for calculating R-factors(gt) etc. and is
not relevant to the choice of reflections for refinement.  R-factors based
on F^2^ are statistically about twice as large as those based on F, and R-
factors based on ALL data will be even larger.
;

_refine_ls_structure_factor_coef Fsqd
_refine_ls_matrix_type           full
_refine_ls_weighting_scheme      calc
_refine_ls_weighting_details     
'calc w=1/[\s^2^(Fo^2^)+(0.1260P)^2^+0.0000P] where P=(Fo^2^+2Fc^2^)/3'
_atom_sites_solution_primary     direct
_atom_sites_solution_secondary   difmap
_atom_sites_solution_hydrogens   geom
_refine_ls_hydrogen_treatment    mixed
_refine_ls_extinction_method     SHELXL
_refine_ls_extinction_coef       0.00120(18)
_refine_ls_extinction_expression Fc^*^=kFc[1+0.001xFc^2^\l^3^/sin(2\q)]^-1/4^
_refine_ls_number_reflns         3712
_refine_ls_number_parameters     118
_refine_ls_number_restraints     6
_refine_ls_R_factor_all          0.1632
_refine_ls_R_factor_obs          0.0870
_refine_ls_wR_factor_all         0.2341
_refine_ls_wR_factor_obs         0.2164
_refine_ls_goodness_of_fit_all   0.817
_refine_ls_restrained_S_all      0.817
_refine_ls_shift/su_max          0.004
_refine_ls_shift/su_mean         0.000

loop_
_atom_site_label
_atom_site_type_symbol
_atom_site_fract_x
_atom_site_fract_y
_atom_site_fract_z
_atom_site_U_iso_or_equiv
_atom_site_adp_type
_atom_site_occupancy
_atom_site_symmetry_multiplicity
_atom_site_calc_flag
_atom_site_refinement_flags
_atom_site_disorder_assembly
_atom_site_disorder_group
Ag1 Ag 0.91952(6) 0.2500 0.5000 0.0832(7) Uani 1 2 d S . .
Ag2 Ag 1.42761(8) 0.5728(2) 0.7500 0.0889(7) Uani 1 2 d S . .
N1S N 1.4127(8) 0.962(2) 0.7500 0.287(7) Uiso 1 2 d SD . .
O11 O 1.4624(9) 0.868(3) 0.7500 0.287(7) Uiso 1 2 d SD . .
O12 O 1.4205(11) 1.113(2) 0.7500 0.287(7) Uiso 1 2 d SD . .
O13 O 1.3555(9) 0.899(3) 0.7500 0.287(7) Uiso 1 2 d SD . .
C22 C 1.7779(6) 0.3091(14) 0.4736(3) 0.065(4) Uiso 1 1 d . . .
H22 H 1.8016 0.3514 0.4547 0.078 Uiso 1 1 calc R . .
C23 C 1.7059(5) 0.3127(14) 0.4721(3) 0.062(4) Uiso 1 1 d . . .
H23 H 1.6849 0.3570 0.4525 0.075 Uiso 1 1 calc R . .
C24 C 1.6660(7) 0.2500 0.5000 0.043(4) Uiso 1 2 d S . .
C25 C 1.5958(6) 0.2500 0.5000 0.030(3) Uiso 1 2 d S . .
C26 C 1.5627(5) 0.3114(13) 0.5286(3) 0.043(3) Uiso 1 1 d . . .
C27 C 1.5930(6) 0.3950(15) 0.5589(3) 0.067(4) Uiso 1 1 d . . .
H27 H 1.6382 0.4234 0.5612 0.081 Uiso 1 1 calc R . .
C28 C 1.5442(5) 0.4238(14) 0.5828(3) 0.055(3) Uiso 1 1 d . . .
H28 H 1.5498 0.4733 0.6046 0.066 Uiso 1 1 calc R . .
C29 C 1.4810(5) 0.3622(12) 0.5680(3) 0.041(3) Uiso 1 1 d . . .
C31 C 1.3947(5) 0.6062(15) 0.6698(3) 0.064(3) Uiso 1 1 d . . .
H31 H 1.3764 0.7081 0.6760 0.077 Uiso 1 1 calc R . .
C32 C 1.3965(6) 0.5605(16) 0.6350(3) 0.073(4) Uiso 1 1 d . . .
H32 H 1.3781 0.6347 0.6190 0.088 Uiso 1 1 calc R . .
C33 C 1.4216(5) 0.4227(14) 0.6222(3) 0.053(3) Uiso 1 1 d . . .
C34 C 1.4501(6) 0.3216(17) 0.6485(4) 0.081(4) Uiso 1 1 d . . .
H34 H 1.4716 0.2238 0.6422 0.097 Uiso 1 1 calc R . .
C35 C 1.4467(6) 0.3630(18) 0.6817(4) 0.091(4) Uiso 1 1 d . . .
H35 H 1.4647 0.2897 0.6980 0.109 Uiso 1 1 calc R . .
C36 C 1.4208(5) 0.3710(13) 0.5857(3) 0.046(3) Uiso 1 1 d . . .
C37 C 1.3582(5) 0.3300(13) 0.5718(3) 0.043(3) Uiso 1 1 d . . .
C38 C 1.2952(5) 0.3341(14) 0.5879(3) 0.055(3) Uiso 1 1 d . . .
H38 H 1.2883 0.3546 0.6116 0.066 Uiso 1 1 calc R . .
C39 C 1.2455(6) 0.3045(13) 0.5648(3) 0.055(3) Uiso 1 1 d . . .
H39 H 1.1996 0.3011 0.5694 0.066 Uiso 1 1 calc R . .
C40 C 1.2775(5) 0.2793(12) 0.5318(2) 0.038(3) Uiso 1 1 d . . .
C41 C 1.2426(7) 0.2500 0.5000 0.049(4) Uiso 1 2 d S . .
C42 C 1.1334(5) 0.3568(14) 0.4796(3) 0.056(3) Uiso 1 1 d . . .
H42 H 1.1555 0.4363 0.4663 0.068 Uiso 1 1 calc R . .
C43 C 1.0610(5) 0.3491(15) 0.4784(3) 0.067(4) Uiso 1 1 d . . .
H43 H 1.0379 0.4141 0.4623 0.080 Uiso 1 1 calc R . .
C44 C 1.1716(6) 0.2500 0.5000 0.034(4) Uiso 1 2 d S . .
N3 N 1.4924(4) 0.3012(10) 0.5356(2) 0.046(2) Uiso 1 1 d . . .
N6 N 1.3448(4) 0.2912(9) 0.5365(2) 0.037(2) Uiso 1 1 d . . .
N11 N 1.0264(6) 0.2500 0.5000 0.058(4) Uiso 1 2 d S . .
N21 N 1.8126(6) 0.2500 0.5000 0.059(4) Uiso 1 2 d S . .
N30 N 1.4181(4) 0.5089(12) 0.6942(2) 0.066(3) Uiso 1 1 d . . .

loop_
_atom_site_aniso_label
_atom_site_aniso_U_11
_atom_site_aniso_U_22
_atom_site_aniso_U_33
_atom_site_aniso_U_23
_atom_site_aniso_U_13
_atom_site_aniso_U_12
Ag1 0.0293(8) 0.0832(11) 0.1370(15) -0.0150(10) 0.000 0.000
Ag2 0.1090(13) 0.1070(14) 0.0505(10) 0.000 0.000 0.0024(11)

_geom_special_details            
;
All esds (except the esd in the dihedral angle between two l.s. planes)
are estimated using the full covariance matrix.  The cell esds are taken
into account individually in the estimation of esds in distances, angles
and torsion angles; correlations between esds in cell parameters are only
used when they are defined by crystal symmetry.  An approximate (isotropic)
treatment of cell esds is used for estimating esds involving l.s. planes.
;

loop_
_geom_bond_atom_site_label_1
_geom_bond_atom_site_label_2
_geom_bond_distance
_geom_bond_site_symmetry_2
_geom_bond_publ_flag
Ag1 N21 2.123(12) 1_455 ?
Ag1 N11 2.123(12) . ?
Ag2 N30 2.201(9) . ?
Ag2 N30 2.201(9) 6_557 ?
Ag2 O11 2.48(2) . ?
Ag2 O11 2.74(2) 7_855 ?
N1S O12 1.231(9) . ?
N1S O13 1.242(9) . ?
N1S O11 1.244(9) . ?
O11 Ag2 2.74(2) 7_865 ?
O12 Ag2 3.03(2) 7_865 ?
C22 N21 1.311(12) . ?
C22 C23 1.430(14) . ?
C23 C24 1.422(12) . ?
C24 C25 1.394(16) . ?
C24 C23 1.422(12) 3_556 ?
C25 C26 1.368(11) 3_556 ?
C25 C26 1.368(11) . ?
C26 N3 1.424(11) . ?
C26 C27 1.471(14) . ?
C27 C28 1.352(13) . ?
C28 C29 1.465(13) . ?
C29 N3 1.351(11) . ?
C29 C36 1.377(12) . ?
C31 N30 1.305(12) . ?
C31 C32 1.383(14) . ?
C32 C33 1.314(14) . ?
C33 C34 1.413(15) . ?
C33 C36 1.456(13) . ?
C34 C35 1.315(15) . ?
C35 N30 1.393(15) . ?
C36 C37 1.391(12) . ?
C37 C38 1.397(13) . ?
C37 N6 1.410(11) . ?
C38 C39 1.346(13) . ?
C39 C40 1.426(13) . ?
C40 N6 1.353(11) . ?
C40 C41 1.419(11) . ?
C41 C44 1.410(17) . ?
C41 C40 1.419(11) 3_556 ?
C42 C44 1.387(12) . ?
C42 C43 1.441(14) . ?
C43 N11 1.341(12) . ?
C44 C42 1.387(12) 3_556 ?
N11 C43 1.341(12) 3_556 ?
N21 C22 1.311(12) 3_556 ?
N21 Ag1 2.123(12) 1_655 ?

loop_
_geom_angle_atom_site_label_1
_geom_angle_atom_site_label_2
_geom_angle_atom_site_label_3
_geom_angle
_geom_angle_site_symmetry_1
_geom_angle_site_symmetry_3
_geom_angle_publ_flag
N21 Ag1 N11 180.000(2) 1_455 . ?
N30 Ag2 N30 151.1(5) . 6_557 ?
N30 Ag2 O11 104.4(3) . . ?
N30 Ag2 O11 104.4(3) 6_557 . ?
N30 Ag2 O11 85.8(3) . 7_855 ?
N30 Ag2 O11 85.8(3) 6_557 7_855 ?
O11 Ag2 O11 111.0(4) . 7_855 ?
O12 N1S O13 121.0(10) . . ?
O12 N1S O11 120.3(10) . . ?
O13 N1S O11 118.6(10) . . ?
O12 N1S Ag2 167.5(11) . . ?
O13 N1S Ag2 71.5(10) . . ?
O11 N1S Ag2 47.1(10) . . ?
N1S O11 Ag2 111.4(12) . . ?
N1S O11 Ag2 105.3(11) . 7_865 ?
Ag2 O11 Ag2 143.3(7) . 7_865 ?
N1S O12 Ag2 91.1(10) . 7_865 ?
N1S O13 Ag2 85.4(10) . . ?
N21 C22 C23 124.4(12) . . ?
C24 C23 C22 121.3(11) . . ?
C25 C24 C23 123.9(7) . . ?
C25 C24 C23 123.9(7) . 3_556 ?
C23 C24 C23 112.2(13) . 3_556 ?
C26 C25 C26 122.5(12) 3_556 . ?
C26 C25 C24 118.8(6) 3_556 . ?
C26 C25 C24 118.8(6) . . ?
C25 C26 N3 127.0(9) . . ?
C25 C26 C27 126.8(9) . . ?
N3 C26 C27 106.2(8) . . ?
C28 C27 C26 108.6(10) . . ?
C27 C28 C29 107.0(10) . . ?
N3 C29 C36 127.9(9) . . ?
N3 C29 C28 109.6(9) . . ?
C36 C29 C28 122.4(10) . . ?
N30 C31 C32 121.2(12) . . ?
N30 C31 Ag2 34.7(6) . . ?
C32 C31 Ag2 155.5(9) . . ?
C33 C32 C31 126.5(12) . . ?
C32 C33 C34 112.1(11) . . ?
C32 C33 C36 126.5(11) . . ?
C34 C33 C36 121.4(11) . . ?
C35 C34 C33 121.3(13) . . ?
C34 C35 N30 124.5(14) . . ?
C34 C35 Ag2 161.4(11) . . ?
N30 C35 Ag2 37.6(6) . . ?
C29 C36 C37 125.2(9) . . ?
C29 C36 C33 118.4(9) . . ?
C37 C36 C33 116.4(9) . . ?
C36 C37 C38 128.8(10) . . ?
C36 C37 N6 125.9(9) . . ?
C38 C37 N6 105.0(9) . . ?
C39 C38 C37 111.2(11) . . ?
C38 C39 C40 106.3(10) . . ?
N6 C40 C41 127.5(9) . . ?
N6 C40 C39 108.1(8) . . ?
C41 C40 C39 124.3(10) . . ?
C44 C41 C40 119.2(6) . 3_556 ?
C44 C41 C40 119.2(6) . . ?
C40 C41 C40 121.5(13) 3_556 . ?
C44 C42 C43 122.5(11) . . ?
N11 C43 C42 121.1(11) . . ?
C42 C44 C42 113.8(13) . 3_556 ?
C42 C44 C41 123.1(7) . . ?
C42 C44 C41 123.1(7) 3_556 . ?
C29 N3 C26 108.4(8) . . ?
C40 N6 C37 109.3(7) . . ?
C43 N11 C43 118.4(14) . 3_556 ?
C43 N11 Ag1 120.8(7) . . ?
C43 N11 Ag1 120.8(7) 3_556 . ?
C22 N21 C22 116.5(15) . 3_556 ?
C22 N21 Ag1 121.8(7) . 1_655 ?
C22 N21 Ag1 121.8(7) 3_556 1_655 ?
C31 N30 C35 114.2(11) . . ?
C31 N30 Ag2 125.5(8) . . ?
C35 N30 Ag2 119.7(9) . . ?

_diffrn_measured_fraction_theta_max 0.961
_diffrn_reflns_theta_full        22.04
_diffrn_measured_fraction_theta_full 0.961
_refine_diff_density_max         0.868
_refine_diff_density_min         -0.736
_refine_diff_density_rms         0.139
