####################################################################### 
# 
# This file contains crystal structure data downloaded from the 
# Cambridge Structural Database (CSD) hosted by the Cambridge 
# Crystallographic Data Centre (CCDC).
# 
# Full information about CCDC data access policies and citation 
# guidelines are available at http://www.ccdc.cam.ac.uk/access/V1 
# 
# Audit and citation data items may have been added by the CCDC. 
# Please retain this information to preserve the provenance of 
# this file and to allow appropriate attribution of the data. 
# 
#######################################################################

data_1
_audit_block_doi                 10.5517/cc6jw5r
_database_code_depnum_ccdc_archive 'CCDC 194964'
loop_
_citation_id
_citation_doi
_citation_year
1 10.1002/anie.200390106 2003
_audit_update_record             
;
2002-10-07 deposited with the CCDC.	2024-07-13 downloaded from the CCDC.
;

_diffrn_measurement_domega       0.30
_diffrn_measurement_rtime        30

_chemical_formula_sum            'C120 H78 Ag4 N28 O12'
_chemical_formula_weight         2535.58

loop_
_atom_type_symbol
_atom_type_description
_atom_type_scat_dispersion_real
_atom_type_scat_dispersion_imag
_atom_type_scat_source
C C 0.0033 0.0016 'International Tables Vol C Tables 4.2.6.8 and 6.1.1.4'
H H 0.0000 0.0000 'International Tables Vol C Tables 4.2.6.8 and 6.1.1.4'
N N 0.0061 0.0033 'International Tables Vol C Tables 4.2.6.8 and 6.1.1.4'
O O 0.0106 0.0060 'International Tables Vol C Tables 4.2.6.8 and 6.1.1.4'
Ag Ag -0.8971 1.1015 'International Tables Vol C Tables 4.2.6.8 and 6.1.1.4'

_symmetry_cell_setting           Orthorhombic
_symmetry_space_group_name_H-M   Fmmm

loop_
_symmetry_equiv_pos_as_xyz
'x, y, z'
'-x, -y, z'
'x, -y, -z'
'-x, y, -z'
'x, y+1/2, z+1/2'
'-x, -y+1/2, z+1/2'
'x, -y+1/2, -z+1/2'
'-x, y+1/2, -z+1/2'
'x+1/2, y, z+1/2'
'-x+1/2, -y, z+1/2'
'x+1/2, -y, -z+1/2'
'-x+1/2, y, -z+1/2'
'x+1/2, y+1/2, z'
'-x+1/2, -y+1/2, z'
'x+1/2, -y+1/2, -z'
'-x+1/2, y+1/2, -z'
'-x, -y, -z'
'x, y, -z'
'-x, y, z'
'x, -y, z'
'-x, -y+1/2, -z+1/2'
'x, y+1/2, -z+1/2'
'-x, y+1/2, z+1/2'
'x, -y+1/2, z+1/2'
'-x+1/2, -y, -z+1/2'
'x+1/2, y, -z+1/2'
'-x+1/2, y, z+1/2'
'x+1/2, -y, z+1/2'
'-x+1/2, -y+1/2, -z'
'x+1/2, y+1/2, -z'
'-x+1/2, y+1/2, z'
'x+1/2, -y+1/2, z'

_cell_length_a                   28.770(13)
_cell_length_b                   29.035(13)
_cell_length_c                   56.46(3)
_cell_angle_alpha                90.00
_cell_angle_beta                 90.00
_cell_angle_gamma                90.00
_cell_volume                     47160(37)
_cell_formula_units_Z            8
_cell_measurement_temperature    293(2)
_cell_measurement_reflns_used    512
_cell_measurement_theta_min      3
_cell_measurement_theta_max      15

_exptl_crystal_description       plate
_exptl_crystal_colour            brown
_exptl_crystal_size_max          0.26
_exptl_crystal_size_mid          0.20
_exptl_crystal_size_min          0.04
_exptl_crystal_density_diffrn    0.714
_exptl_crystal_density_method    'not measured'
_exptl_crystal_F_000             10224
_exptl_absorpt_coefficient_mu    0.363
_exptl_absorpt_correction_type   sadabs
_exptl_absorpt_correction_T_min  0.70
_exptl_absorpt_correction_T_max  1.00

_diffrn_ambient_temperature      293(2)
_diffrn_radiation_wavelength     0.71073
_diffrn_radiation_type           MoK\a
_diffrn_radiation_source         'fine-focus sealed tube'
_diffrn_radiation_monochromator  graphite
_diffrn_measurement_device       SMART
_diffrn_detector_type            CCD_plate
_diffrn_measurement_method       omega-scan
_diffrn_standards_decay_%        10
_diffrn_reflns_number            8673
_diffrn_reflns_av_R_equivalents  0.0000
_diffrn_reflns_av_sigmaI/netI    0.0388
_diffrn_reflns_limit_h_min       0
_diffrn_reflns_limit_h_max       31
_diffrn_reflns_limit_k_min       0
_diffrn_reflns_limit_k_max       31
_diffrn_reflns_limit_l_min       0
_diffrn_reflns_limit_l_max       62
_diffrn_reflns_theta_min         0.72
_diffrn_reflns_theta_max         23.01
_reflns_number_total             8673
_reflns_number_observed          3972
_reflns_observed_criterion       >2sigma(I)

_computing_structure_solution    SIR92
_computing_structure_refinement  'SHELXL-97 (Sheldrick, 1997)'
_computing_molecular_graphics    SCHAKAL

_refine_special_details          
;
Refinement of F^2^ against ALL reflections.  The weighted R-factor wR and
goodness of fit S are based on F^2^, conventional R-factors R are based
on F, with F set to zero for negative F^2^. The threshold expression of
F^2^ > 2sigma(F^2^) is used only for calculating R-factors(gt) etc. and is
not relevant to the choice of reflections for refinement.  R-factors based
on F^2^ are statistically about twice as large as those based on F, and R-
factors based on ALL data will be even larger.
;

_refine_ls_structure_factor_coef Fsqd
_refine_ls_matrix_type           full
_refine_ls_weighting_scheme      calc
_refine_ls_weighting_details     
'calc w=1/[\s^2^(Fo^2^)+(0.1079P)^2^+0.0000P] where P=(Fo^2^+2Fc^2^)/3'
_atom_sites_solution_primary     direct
_atom_sites_solution_secondary   difmap
_atom_sites_solution_hydrogens   geom
_refine_ls_hydrogen_treatment    mixed
_refine_ls_extinction_method     none
_refine_ls_number_reflns         8673
_refine_ls_number_parameters     340
_refine_ls_number_restraints     0
_refine_ls_R_factor_all          0.0896
_refine_ls_R_factor_obs          0.0548
_refine_ls_wR_factor_all         0.1767
_refine_ls_wR_factor_obs         0.1628
_refine_ls_goodness_of_fit_all   0.902
_refine_ls_restrained_S_all      0.902
_refine_ls_shift/su_max          1.031
_refine_ls_shift/su_mean         0.078

loop_
_atom_site_label
_atom_site_type_symbol
_atom_site_fract_x
_atom_site_fract_y
_atom_site_fract_z
_atom_site_U_iso_or_equiv
_atom_site_adp_type
_atom_site_occupancy
_atom_site_symmetry_multiplicity
_atom_site_calc_flag
_atom_site_refinement_flags
_atom_site_disorder_assembly
_atom_site_disorder_group
Ag Ag 0.374091(16) 0.238742(11) 0.127364(6) 0.1012(2) Uani 1 1 d . . .
C9 C 0.37231(17) 0.08401(13) 0.04290(7) 0.0812(13) Uani 1 1 d . . .
C10 C 0.37363(19) 0.12092(12) 0.06160(6) 0.0758(13) Uani 1 1 d . . .
C11 C 0.37497(14) 0.09844(11) 0.23932(7) 0.0644(11) Uani 1 1 d . . .
C12 C 0.37599(15) 0.08359(12) 0.21611(7) 0.0636(10) Uani 1 1 d . . .
C15 C 0.37375(16) 0.03799(12) 0.05105(6) 0.0750(12) Uani 1 1 d . . .
C16 C 0.37543(15) 0.40134(11) 0.22096(6) 0.0622(10) Uani 1 1 d . . .
C18 C 0.37755(15) 0.41626(12) 0.19751(7) 0.0668(11) Uani 1 1 d . . .
C19 C 0.37133(16) 0.35442(13) 0.22910(8) 0.0853(13) Uani 1 1 d . . .
H19 H 0.3690 0.3284 0.2195 0.102 Uiso 1 1 calc R . .
C20 C 0.36732(16) 0.14618(13) 0.01213(7) 0.0910(15) Uani 1 1 d . . .
H20 H 0.3657 0.1718 0.0220 0.109 Uiso 1 1 calc R . .
C21 C 0.41119(17) 0.15016(15) 0.06472(7) 0.0829(13) Uani 1 1 d . . .
H21 H 0.4376 0.1471 0.0554 0.100 Uiso 1 1 calc R . .
C22 C 0.37791(15) 0.46192(12) 0.18970(7) 0.0681(11) Uani 1 1 d . . .
C23 C 0.37752(15) 0.03783(12) 0.20812(6) 0.0652(11) Uani 1 1 d . . .
C24 C 0.37034(17) 0.09835(12) 0.01937(7) 0.0795(13) Uani 1 1 d . . .
C25 C 0.38104(15) 0.47732(12) 0.16548(7) 0.0865(14) Uani 1 1 d . . .
H25 H 0.3828 0.4585 0.1522 0.104 Uiso 1 1 calc R . .
C26 C 0.37659(16) 0.02277(13) 0.07461(7) 0.0925(15) Uani 1 1 d . . .
H26 H 0.3782 0.0415 0.0879 0.111 Uiso 1 1 calc R . .
C27 C 0.37703(19) 0.37881(12) 0.17874(7) 0.0712(12) Uani 1 1 d . . .
C28 C 0.38178(15) 0.02300(13) 0.18414(7) 0.0802(13) Uani 1 1 d . . .
H28 H 0.3841 0.0419 0.1709 0.096 Uiso 1 1 calc R . .
C29 C 0.37444(17) 0.11891(13) 0.19683(7) 0.0697(11) Uani 1 1 d . . .
C30 C 0.33420(19) 0.12765(15) 0.07642(8) 0.0973(16) Uani 1 1 d . . .
H30 H 0.3081 0.1090 0.0747 0.117 Uiso 1 1 calc R . .
C31 C 0.3402(2) 0.37008(16) 0.16488(9) 0.1078(18) Uani 1 1 d . . .
H31 H 0.3139 0.3886 0.1661 0.129 Uiso 1 1 calc R . .
C32 C 0.37147(17) 0.14517(12) 0.24696(7) 0.0839(15) Uani 1 1 d . . .
H32 H 0.3696 0.1709 0.2372 0.101 Uiso 1 1 calc R . .
C34 C 0.41179(17) 0.14959(15) 0.19359(8) 0.0881(14) Uani 1 1 d . . .
H34 H 0.4370 0.1485 0.2039 0.106 Uiso 1 1 calc R . .
C37 C 0.4116(2) 0.18145(15) 0.17529(8) 0.0943(16) Uani 1 1 d . . .
H37 H 0.4368 0.2012 0.1734 0.113 Uiso 1 1 calc R . .
C38 C 0.33774(17) 0.12299(14) 0.18135(8) 0.0818(13) Uani 1 1 d . . .
H38 H 0.3120 0.1038 0.1830 0.098 Uiso 1 1 calc R . .
C40 C 0.3348(2) 0.16277(17) 0.09375(8) 0.1018(17) Uani 1 1 d . . .
H40 H 0.3095 0.1667 0.1038 0.122 Uiso 1 1 calc R . .
C43 C 0.4088(2) 0.18365(16) 0.08177(8) 0.0942(16) Uani 1 1 d . . .
H43 H 0.4345 0.2027 0.0837 0.113 Uiso 1 1 calc R . .
C44 C 0.33892(19) 0.15535(16) 0.16347(8) 0.0927(15) Uani 1 1 d . . .
H44 H 0.3135 0.1573 0.1533 0.111 Uiso 1 1 calc R . .
C46 C 0.41425(19) 0.35033(18) 0.17635(9) 0.1015(16) Uani 1 1 d . . .
H46 H 0.4405 0.3542 0.1858 0.122 Uiso 1 1 calc R . .
C49 C 0.3407(2) 0.33472(19) 0.14916(10) 0.119(2) Uani 1 1 d . . .
H49 H 0.3144 0.3297 0.1399 0.143 Uiso 1 1 calc R . .
C53 C 0.4123(2) 0.31501(16) 0.15943(10) 0.117(2) Uani 1 1 d . . .
H53 H 0.4385 0.2965 0.1577 0.140 Uiso 1 1 calc R . .
N1 N 0.37268(16) 0.19086(11) 0.09575(6) 0.0810(11) Uani 1 1 d . . .
N2 N 0.37464(17) 0.18419(12) 0.15993(6) 0.0871(12) Uani 1 1 d . . .
N3 N 0.37769(18) 0.30638(12) 0.14638(7) 0.0954(13) Uani 1 1 d . . .
N4 N 0.37762(11) 0.07098(9) 0.25929(5) 0.0640(9) Uani 1 1 d . . .
N5 N 0.37232(19) 0.07019(13) 0.0000 0.0787(15) Uani 1 2 d S . .
N6 N 0.37829(15) 0.5000 0.20444(8) 0.0637(12) Uani 1 2 d S . .
N7 N 0.37545(16) 0.0000 0.22304(7) 0.0662(12) Uani 1 2 d S . .
N8 N 0.37125(17) 0.0000 0.03671(7) 0.0723(14) Uani 1 2 d S . .

loop_
_atom_site_aniso_label
_atom_site_aniso_U_11
_atom_site_aniso_U_22
_atom_site_aniso_U_33
_atom_site_aniso_U_23
_atom_site_aniso_U_13
_atom_site_aniso_U_12
Ag 0.1959(5) 0.0539(3) 0.0537(2) -0.01366(15) -0.0030(3) 0.0004(2)
C9 0.158(4) 0.042(2) 0.044(2) -0.0078(17) 0.005(3) -0.009(3)
C10 0.154(4) 0.038(2) 0.035(2) -0.0036(16) 0.014(3) 0.008(3)
C11 0.101(3) 0.040(2) 0.052(2) 0.0047(18) 0.012(3) 0.006(2)
C12 0.093(3) 0.048(2) 0.050(2) 0.0040(17) 0.007(3) 0.000(2)
C15 0.142(4) 0.046(2) 0.037(2) -0.0026(17) -0.001(3) 0.015(2)
C16 0.098(3) 0.0397(19) 0.050(2) -0.0019(17) -0.003(2) 0.002(2)
C18 0.100(3) 0.043(2) 0.058(3) -0.0076(18) -0.001(3) 0.000(2)
C19 0.140(4) 0.038(2) 0.078(3) -0.0059(19) -0.019(3) -0.003(2)
C20 0.177(5) 0.042(2) 0.054(2) -0.0003(17) -0.013(3) 0.006(3)
C21 0.120(4) 0.064(3) 0.064(3) -0.021(2) 0.009(3) -0.010(3)
C22 0.113(3) 0.042(2) 0.049(2) -0.0055(17) 0.000(3) -0.004(2)
C23 0.097(3) 0.050(2) 0.048(2) 0.0026(17) 0.016(2) 0.003(2)
C24 0.156(4) 0.042(2) 0.040(2) -0.0036(17) 0.007(3) 0.004(2)
C25 0.160(4) 0.054(2) 0.046(3) -0.0044(17) -0.004(3) -0.003(2)
C26 0.188(5) 0.054(2) 0.035(2) 0.0006(17) 0.003(3) -0.002(3)
C27 0.125(4) 0.041(2) 0.047(2) -0.0073(17) -0.009(3) 0.002(3)
C28 0.137(4) 0.055(2) 0.049(3) 0.0003(18) 0.006(3) -0.006(2)
C29 0.111(4) 0.051(2) 0.047(2) 0.0055(18) 0.008(3) 0.005(3)
C30 0.149(5) 0.065(3) 0.078(3) -0.022(3) -0.006(3) -0.020(3)
C31 0.151(5) 0.071(3) 0.101(4) -0.038(3) -0.041(4) 0.020(3)
C32 0.158(5) 0.037(2) 0.057(3) 0.0037(18) 0.014(3) 0.002(3)
C34 0.123(4) 0.064(3) 0.077(3) 0.009(2) -0.006(3) -0.001(3)
C37 0.156(5) 0.069(3) 0.058(3) 0.007(2) 0.005(3) -0.026(3)
C38 0.114(4) 0.061(3) 0.071(3) 0.010(2) -0.008(3) -0.008(3)
C40 0.173(6) 0.076(3) 0.056(3) -0.014(2) 0.008(3) -0.002(4)
C43 0.156(5) 0.071(3) 0.055(3) -0.012(2) 0.004(3) -0.012(3)
C44 0.144(5) 0.066(3) 0.068(3) 0.007(2) -0.003(3) 0.004(3)
C46 0.120(4) 0.088(4) 0.097(4) -0.038(3) -0.013(3) 0.001(3)
C49 0.166(6) 0.085(4) 0.107(5) -0.037(3) -0.040(4) 0.011(4)
C53 0.169(6) 0.066(3) 0.116(5) -0.036(3) -0.024(4) 0.023(3)
N1 0.146(4) 0.049(2) 0.048(2) -0.0037(16) -0.007(3) -0.003(2)
N2 0.148(4) 0.055(2) 0.059(2) 0.0132(17) 0.014(3) 0.002(3)
N3 0.166(4) 0.049(2) 0.071(3) -0.0033(18) -0.014(3) -0.004(3)
N4 0.104(3) 0.0414(16) 0.0464(18) 0.0012(14) 0.000(2) -0.0064(17)
N5 0.164(5) 0.032(2) 0.040(3) 0.000 0.000 0.011(3)
N6 0.089(3) 0.044(2) 0.058(3) 0.000 0.002(3) 0.000
N7 0.105(4) 0.039(2) 0.054(3) 0.000 0.003(3) 0.000
N8 0.140(4) 0.029(2) 0.048(3) 0.000 -0.002(3) 0.000

_geom_special_details            
;
All esds (except the esd in the dihedral angle between two l.s. planes)
are estimated using the full covariance matrix.  The cell esds are taken
into account individually in the estimation of esds in distances, angles
and torsion angles; correlations between esds in cell parameters are only
used when they are defined by crystal symmetry.  An approximate (isotropic)
treatment of cell esds is used for estimating esds involving l.s. planes.
;

loop_
_geom_bond_atom_site_label_1
_geom_bond_atom_site_label_2
_geom_bond_distance
_geom_bond_site_symmetry_2
_geom_bond_publ_flag
Ag N3 2.241(4) . ?
Ag N1 2.263(3) . ?
Ag N2 2.427(3) . ?
C9 C24 1.393(5) . ?
C9 C15 1.414(5) . ?
C9 C10 1.505(5) . ?
C10 C21 1.385(6) . ?
C10 C30 1.423(6) . ?
C11 C12 1.380(5) . ?
C11 N4 1.383(5) . ?
C11 C32 1.427(5) . ?
C12 C23 1.404(5) . ?
C12 C29 1.496(5) . ?
C15 N8 1.370(4) . ?
C15 C26 1.404(5) . ?
C16 N4 1.376(4) 7 ?
C16 C18 1.394(5) . ?
C16 C19 1.442(5) . ?
C18 C22 1.397(5) . ?
C18 C27 1.519(5) . ?
C19 C32 1.352(5) 7 ?
C20 C20 1.369(8) 18 ?
C20 C24 1.450(5) . ?
C21 C43 1.370(6) . ?
C22 N6 1.384(4) . ?
C22 C25 1.441(5) . ?
C23 N7 1.385(4) . ?
C23 C28 1.426(5) . ?
C24 N5 1.367(4) . ?
C25 C25 1.317(7) 20_565 ?
C26 C26 1.323(8) 20 ?
C27 C31 1.342(6) . ?
C27 C46 1.359(6) . ?
C28 C28 1.336(7) 20 ?
C29 C38 1.375(6) . ?
C29 C34 1.408(6) . ?
C30 C40 1.413(6) . ?
C31 C49 1.357(6) . ?
C32 C19 1.352(5) 7 ?
C34 C37 1.387(6) . ?
C37 N2 1.375(6) . ?
C38 C44 1.380(6) . ?
C40 N1 1.365(6) . ?
C43 N1 1.322(6) . ?
C44 N2 1.341(6) . ?
C46 C53 1.402(6) . ?
C49 N3 1.356(6) . ?
C53 N3 1.265(6) . ?
N4 C16 1.376(4) 7 ?
N5 C24 1.367(4) 18 ?
N6 C22 1.384(4) 20_565 ?
N7 C23 1.385(4) 20 ?
N8 C15 1.370(4) 20 ?

loop_
_geom_angle_atom_site_label_1
_geom_angle_atom_site_label_2
_geom_angle_atom_site_label_3
_geom_angle
_geom_angle_site_symmetry_1
_geom_angle_site_symmetry_3
_geom_angle_publ_flag
N3 Ag N1 156.54(13) . . ?
N3 Ag N2 102.05(13) . . ?
N1 Ag N2 101.34(13) . . ?
C24 C9 C15 126.4(3) . . ?
C24 C9 C10 117.2(3) . . ?
C15 C9 C10 116.4(3) . . ?
C21 C10 C30 117.6(3) . . ?
C21 C10 C9 123.0(4) . . ?
C30 C10 C9 119.4(4) . . ?
C12 C11 N4 126.4(3) . . ?
C12 C11 C32 125.8(3) . . ?
N4 C11 C32 107.8(3) . . ?
C11 C12 C23 127.0(3) . . ?
C11 C12 C29 118.4(3) . . ?
C23 C12 C29 114.6(3) . . ?
N8 C15 C26 108.0(3) . . ?
N8 C15 C9 124.6(3) . . ?
C26 C15 C9 127.4(3) . . ?
N4 C16 C18 125.9(3) 7 . ?
N4 C16 C19 107.3(3) 7 . ?
C18 C16 C19 126.8(3) . . ?
C16 C18 C22 126.5(3) . . ?
C16 C18 C27 116.1(3) . . ?
C22 C18 C27 117.3(3) . . ?
C32 C19 C16 108.1(3) 7 . ?
C20 C20 C24 106.4(2) 18 . ?
C43 C21 C10 119.0(4) . . ?
N6 C22 C18 124.6(4) . . ?
N6 C22 C25 108.8(3) . . ?
C18 C22 C25 126.5(3) . . ?
N7 C23 C12 123.6(3) . . ?
N7 C23 C28 110.0(3) . . ?
C12 C23 C28 126.4(3) . . ?
N5 C24 C9 125.6(3) . . ?
N5 C24 C20 110.5(3) . . ?
C9 C24 C20 123.9(3) . . ?
C25 C25 C22 108.1(2) 20_565 . ?
C26 C26 C15 108.3(2) 20 . ?
C31 C27 C46 116.7(4) . . ?
C31 C27 C18 123.4(5) . . ?
C46 C27 C18 119.8(4) . . ?
C28 C28 C23 107.6(2) 20 . ?
C38 C29 C34 116.7(4) . . ?
C38 C29 C12 122.9(4) . . ?
C34 C29 C12 120.4(4) . . ?
C40 C30 C10 119.7(5) . . ?
C27 C31 C49 121.1(5) . . ?
C19 C32 C11 108.1(3) 7 . ?
C37 C34 C29 121.1(5) . . ?
N2 C37 C34 120.8(5) . . ?
C29 C38 C44 120.3(4) . . ?
N1 C40 C30 119.9(5) . . ?
N1 C43 C21 124.8(5) . . ?
N2 C44 C38 123.6(5) . . ?
C27 C46 C53 118.8(5) . . ?
N3 C49 C31 122.9(5) . . ?
N3 C53 C46 124.9(5) . . ?
C43 N1 C40 118.9(4) . . ?
C43 N1 Ag 123.6(3) . . ?
C40 N1 Ag 116.5(3) . . ?
C44 N2 C37 117.6(4) . . ?
C44 N2 Ag 121.0(4) . . ?
C37 N2 Ag 121.4(3) . . ?
C53 N3 C49 115.6(4) . . ?
C53 N3 Ag 119.3(4) . . ?
C49 N3 Ag 123.4(4) . . ?
C16 N4 C11 108.7(3) 7 . ?
C24 N5 C24 106.3(4) . 18 ?
C22 N6 C22 106.1(4) . 20_565 ?
C23 N7 C23 104.9(4) . 20 ?
C15 N8 C15 107.2(4) . 20 ?

_diffrn_measured_fraction_theta_max 0.996
_diffrn_reflns_theta_full        23.01
_diffrn_measured_fraction_theta_full 0.996
_refine_diff_density_max         0.930
_refine_diff_density_min         -0.365
_refine_diff_density_rms         0.062
