####################################################################### 
# 
# This file contains crystal structure data downloaded from the 
# Cambridge Structural Database (CSD) hosted by the Cambridge 
# Crystallographic Data Centre (CCDC).
# 
# Full information about CCDC data access policies and citation 
# guidelines are available at http://www.ccdc.cam.ac.uk/access/V1 
# 
# Audit and citation data items may have been added by the CCDC. 
# Please retain this information to preserve the provenance of 
# this file and to allow appropriate attribution of the data. 
# 
#######################################################################

data_1D_Ag[H2tpyp](NO3)
_audit_block_doi                 10.5517/cc6jw8v
_database_code_depnum_ccdc_archive 'CCDC 194967'
loop_
_citation_id
_citation_doi
_citation_year
1 10.1002/anie.200390106 2003
_audit_update_record             
;
2002-10-07 deposited with the CCDC.	2024-07-13 downloaded from the CCDC.
;

_diffrn_measurement_domega       0.30
_diffrn_measurement_rtime        20

_chemical_formula_sum            'C40 H26 Ag N9 O3'
_chemical_formula_weight         788.57

loop_
_atom_type_symbol
_atom_type_description
_atom_type_scat_dispersion_real
_atom_type_scat_dispersion_imag
_atom_type_scat_source
C C 0.0033 0.0016 'International Tables Vol C Tables 4.2.6.8 and 6.1.1.4'
H H 0.0000 0.0000 'International Tables Vol C Tables 4.2.6.8 and 6.1.1.4'
N N 0.0061 0.0033 'International Tables Vol C Tables 4.2.6.8 and 6.1.1.4'
O O 0.0106 0.0060 'International Tables Vol C Tables 4.2.6.8 and 6.1.1.4'
Ag Ag -0.8971 1.1015 'International Tables Vol C Tables 4.2.6.8 and 6.1.1.4'

_symmetry_cell_setting           Triclinic
_symmetry_space_group_name_H-M   P-1

loop_
_symmetry_equiv_pos_as_xyz
'x, y, z'
'-x, -y, -z'

_cell_length_a                   6.5177(12)
_cell_length_b                   10.445(2)
_cell_length_c                   17.908(3)
_cell_angle_alpha                83.753(7)
_cell_angle_beta                 83.487(9)
_cell_angle_gamma                77.243(8)
_cell_volume                     1177.0(4)
_cell_formula_units_Z            1
_cell_measurement_temperature    293(2)
_cell_measurement_reflns_used    1013
_cell_measurement_theta_min      3
_cell_measurement_theta_max      20

_exptl_crystal_description       column
_exptl_crystal_colour            brown
_exptl_crystal_size_max          0.26
_exptl_crystal_size_mid          0.10
_exptl_crystal_size_min          0.08
_exptl_crystal_density_diffrn    1.113
_exptl_crystal_density_method    'not measured'
_exptl_crystal_F_000             400
_exptl_absorpt_coefficient_mu    0.468
_exptl_absorpt_correction_type   sadabs
_exptl_absorpt_correction_T_min  0.91
_exptl_absorpt_correction_T_max  1.00

_diffrn_ambient_temperature      293(2)
_diffrn_radiation_wavelength     0.71073
_diffrn_radiation_type           MoK\a
_diffrn_radiation_source         'fine-focus sealed tube'
_diffrn_radiation_monochromator  graphite
_diffrn_measurement_device       SMART
_diffrn_detector_type            CCD_plate
_diffrn_measurement_method       omega-scan
_diffrn_standards_decay_%        12
_diffrn_reflns_number            4168
_diffrn_reflns_av_R_equivalents  0.0000
_diffrn_reflns_av_sigmaI/netI    0.0669
_diffrn_reflns_limit_h_min       0
_diffrn_reflns_limit_h_max       7
_diffrn_reflns_limit_k_min       -11
_diffrn_reflns_limit_k_max       12
_diffrn_reflns_limit_l_min       -20
_diffrn_reflns_limit_l_max       21
_diffrn_reflns_theta_min         2.01
_diffrn_reflns_theta_max         25.15
_reflns_number_total             4168
_reflns_number_observed          2559
_reflns_observed_criterion       >2sigma(I)

_computing_structure_solution    SIR92
_computing_structure_refinement  'SHELXL-97 (Sheldrick, 1997)'
_computing_molecular_graphics    SCHAKAL

_refine_special_details          
;
Refinement of F^2^ against ALL reflections.  The weighted R-factor wR and
goodness of fit S are based on F^2^, conventional R-factors R are based
on F, with F set to zero for negative F^2^. The threshold expression of
F^2^ > 2sigma(F^2^) is used only for calculating R-factors(gt) etc. and is
not relevant to the choice of reflections for refinement.  R-factors based
on F^2^ are statistically about twice as large as those based on F, and R-
factors based on ALL data will be even larger.
;

_refine_ls_structure_factor_coef Fsqd
_refine_ls_matrix_type           full
_refine_ls_weighting_scheme      calc
_refine_ls_weighting_details     
'calc w=1/[\s^2^(Fo^2^)+(0.1421P)^2^+0.0000P] where P=(Fo^2^+2Fc^2^)/3'
_atom_sites_solution_primary     direct
_atom_sites_solution_secondary   difmap
_atom_sites_solution_hydrogens   geom
_refine_ls_hydrogen_treatment    mixed
_refine_ls_extinction_method     none
_refine_ls_number_reflns         4168
_refine_ls_number_parameters     223
_refine_ls_number_restraints     0
_refine_ls_R_factor_all          0.1074
_refine_ls_R_factor_obs          0.0748
_refine_ls_wR_factor_all         0.2221
_refine_ls_wR_factor_obs         0.2059
_refine_ls_goodness_of_fit_all   1.009
_refine_ls_restrained_S_all      1.009
_refine_ls_shift/su_max          0.012
_refine_ls_shift/su_mean         0.002

loop_
_atom_site_label
_atom_site_type_symbol
_atom_site_fract_x
_atom_site_fract_y
_atom_site_fract_z
_atom_site_U_iso_or_equiv
_atom_site_adp_type
_atom_site_occupancy
_atom_site_symmetry_multiplicity
_atom_site_calc_flag
_atom_site_refinement_flags
_atom_site_disorder_assembly
_atom_site_disorder_group
Ag Ag 0.5000 0.0000 0.0000 0.0997(4) Uani 1 2 d S . .
C1 C 0.0886(6) -0.2989(4) 0.4724(2) 0.0311(9) Uani 1 1 d . . .
C2 C -0.0051(6) -0.2017(4) 0.4155(3) 0.0384(11) Uani 1 1 d . . .
H2 H -0.1392 -0.1476 0.4200 0.046 Uiso 1 1 calc R . .
C3 C 0.1355(6) -0.2035(4) 0.3554(3) 0.0386(10) Uani 1 1 d . . .
H3 H 0.1179 -0.1513 0.3101 0.046 Uiso 1 1 calc R . .
C4 C 0.3208(6) -0.3019(4) 0.3737(2) 0.0322(9) Uani 1 1 d . . .
C5 C 0.5076(6) -0.3266(4) 0.3264(2) 0.0329(10) Uani 1 1 d . . .
C6 C 0.6939(6) -0.4166(4) 0.3431(2) 0.0309(9) Uani 1 1 d . . .
C7 C 0.8774(7) -0.4506(5) 0.2916(3) 0.0440(11) Uani 1 1 d . . .
H7 H 0.8982 -0.4124 0.2427 0.053 Uiso 1 1 calc R . .
C8 C 1.0145(7) -0.5475(4) 0.3265(3) 0.0394(10) Uani 1 1 d . . .
H8 H 1.1456 -0.5899 0.3054 0.047 Uiso 1 1 calc R . .
C9 C 0.9248(6) -0.5744(4) 0.4015(2) 0.0294(9) Uani 1 1 d . . .
C10 C 1.0083(6) -0.6735(4) 0.4553(2) 0.0306(9) Uani 1 1 d . . .
C11 C 0.5083(7) -0.2532(4) 0.2493(3) 0.0418(11) Uani 1 1 d . . .
C12 C 0.6307(8) -0.1603(5) 0.2300(3) 0.0590(14) Uani 1 1 d . . .
H12 H 0.7140 -0.1423 0.2647 0.071 Uiso 1 1 calc R . .
C13 C 0.6289(9) -0.0952(7) 0.1598(3) 0.0778(19) Uani 1 1 d . . .
H13 H 0.7158 -0.0349 0.1473 0.093 Uiso 1 1 calc R . .
C15 C 0.3892(10) -0.1992(7) 0.1277(3) 0.0770(18) Uani 1 1 d . . .
H15 H 0.3011 -0.2116 0.0930 0.092 Uiso 1 1 calc R . .
C16 C 0.3862(9) -0.2725(6) 0.1969(3) 0.0644(15) Uani 1 1 d . . .
H16 H 0.3014 -0.3342 0.2074 0.077 Uiso 1 1 calc R . .
C21 C 1.2150(6) -0.7613(4) 0.4326(2) 0.0313(9) Uani 1 1 d . . .
C22 C 1.2285(7) -0.8953(4) 0.4286(3) 0.0448(11) Uani 1 1 d . . .
H22 H 1.1093 -0.9314 0.4401 0.054 Uiso 1 1 calc R . .
C23 C 1.4200(7) -0.9730(5) 0.4073(3) 0.0558(14) Uani 1 1 d . . .
H23 H 1.4264 -1.0628 0.4067 0.067 Uiso 1 1 calc R . .
C25 C 1.5820(7) -0.8021(5) 0.3916(3) 0.0529(13) Uani 1 1 d . . .
H25 H 1.7042 -0.7694 0.3790 0.063 Uiso 1 1 calc R . .
C26 C 1.3964(6) -0.7135(5) 0.4134(3) 0.0470(12) Uani 1 1 d . . .
H26 H 1.3953 -0.6247 0.4150 0.056 Uiso 1 1 calc R . .
N1 N 0.2881(4) -0.3588(3) 0.44540(18) 0.0281(7) Uani 1 1 d . . .
N2 N 0.7289(5) -0.4924(3) 0.40930(18) 0.0279(7) Uani 1 1 d . . .
N14 N 0.5089(8) -0.1136(5) 0.1085(3) 0.0753(15) Uani 1 1 d . . .
N24 N 1.5956(6) -0.9305(4) 0.3878(3) 0.0559(12) Uani 1 1 d . . .

loop_
_atom_site_aniso_label
_atom_site_aniso_U_11
_atom_site_aniso_U_22
_atom_site_aniso_U_33
_atom_site_aniso_U_23
_atom_site_aniso_U_13
_atom_site_aniso_U_12
Ag 0.1167(7) 0.1149(7) 0.0521(5) 0.0464(4) -0.0075(4) -0.0176(5)
C1 0.024(2) 0.024(2) 0.045(2) 0.0039(17) -0.0115(18) -0.0032(17)
C2 0.026(2) 0.032(2) 0.050(3) 0.0039(19) -0.010(2) 0.0080(19)
C3 0.032(2) 0.031(2) 0.047(3) 0.0108(19) -0.015(2) 0.0046(19)
C4 0.028(2) 0.025(2) 0.039(2) 0.0093(17) -0.0080(18) 0.0007(18)
C5 0.030(2) 0.033(2) 0.033(2) 0.0069(17) -0.0054(17) -0.0040(19)
C6 0.024(2) 0.028(2) 0.035(2) 0.0047(17) -0.0009(17) 0.0012(18)
C7 0.032(2) 0.053(3) 0.038(2) 0.005(2) 0.0087(19) 0.001(2)
C8 0.024(2) 0.039(2) 0.049(3) -0.003(2) 0.0055(18) 0.0015(19)
C9 0.0193(19) 0.023(2) 0.042(2) -0.0023(17) -0.0004(16) 0.0017(17)
C10 0.022(2) 0.019(2) 0.048(3) -0.0068(17) -0.0029(18) 0.0028(17)
C11 0.032(2) 0.043(3) 0.043(3) 0.014(2) -0.004(2) -0.001(2)
C12 0.053(3) 0.069(4) 0.054(3) 0.025(3) -0.017(2) -0.019(3)
C13 0.063(4) 0.094(5) 0.069(4) 0.047(3) -0.011(3) -0.025(3)
C15 0.082(4) 0.096(5) 0.053(3) 0.019(3) -0.020(3) -0.023(4)
C16 0.063(3) 0.079(4) 0.052(3) 0.025(3) -0.020(3) -0.023(3)
C21 0.0180(19) 0.027(2) 0.045(2) -0.0060(17) -0.0063(17) 0.0054(17)
C22 0.036(2) 0.026(2) 0.072(3) -0.006(2) 0.003(2) -0.007(2)
C23 0.037(3) 0.034(3) 0.092(4) -0.004(3) -0.005(3) 0.001(2)
C25 0.017(2) 0.056(3) 0.083(4) -0.019(3) 0.002(2) 0.002(2)
C26 0.025(2) 0.037(3) 0.079(4) -0.012(2) -0.007(2) -0.002(2)
N1 0.0173(16) 0.0266(17) 0.0356(18) 0.0006(14) -0.0009(13) 0.0029(14)
N2 0.0175(16) 0.0246(17) 0.0365(18) 0.0043(14) -0.0016(13) 0.0025(14)
N14 0.071(3) 0.090(4) 0.057(3) 0.037(3) -0.013(3) -0.019(3)
N24 0.029(2) 0.047(3) 0.085(3) -0.018(2) -0.005(2) 0.011(2)

_geom_special_details            
;
All esds (except the esd in the dihedral angle between two l.s. planes)
are estimated using the full covariance matrix.  The cell esds are taken
into account individually in the estimation of esds in distances, angles
and torsion angles; correlations between esds in cell parameters are only
used when they are defined by crystal symmetry.  An approximate (isotropic)
treatment of cell esds is used for estimating esds involving l.s. planes.
;

loop_
_geom_bond_atom_site_label_1
_geom_bond_atom_site_label_2
_geom_bond_distance
_geom_bond_site_symmetry_2
_geom_bond_publ_flag
Ag N14 2.163(4) 2_655 ?
Ag N14 2.163(4) . ?
C1 N1 1.371(5) . ?
C1 C10 1.404(6) 2_646 ?
C1 C2 1.444(5) . ?
C2 C3 1.331(6) . ?
C3 C4 1.446(5) . ?
C4 N1 1.368(5) . ?
C4 C5 1.393(6) . ?
C5 C6 1.402(5) . ?
C5 C11 1.506(5) . ?
C6 N2 1.365(5) . ?
C6 C7 1.428(6) . ?
C7 C8 1.343(6) . ?
C8 C9 1.428(6) . ?
C9 N2 1.373(5) . ?
C9 C10 1.396(5) . ?
C10 C1 1.404(6) 2_646 ?
C10 C21 1.494(5) . ?
C11 C16 1.354(7) . ?
C11 C12 1.379(7) . ?
C12 C13 1.361(7) . ?
C13 N14 1.328(8) . ?
C15 N14 1.306(8) . ?
C15 C16 1.385(8) . ?
C21 C26 1.377(6) . ?
C21 C22 1.392(6) . ?
C22 C23 1.369(6) . ?
C23 N24 1.315(6) . ?
C25 N24 1.334(7) . ?
C25 C26 1.396(6) . ?

loop_
_geom_angle_atom_site_label_1
_geom_angle_atom_site_label_2
_geom_angle_atom_site_label_3
_geom_angle
_geom_angle_site_symmetry_1
_geom_angle_site_symmetry_3
_geom_angle_publ_flag
N14 Ag N14 180.0(3) 2_655 . ?
N1 C1 C10 125.2(3) . 2_646 ?
N1 C1 C2 109.6(4) . . ?
C10 C1 C2 125.3(4) 2_646 . ?
C3 C2 C1 107.5(3) . . ?
C2 C3 C4 107.1(4) . . ?
N1 C4 C5 126.1(3) . . ?
N1 C4 C3 109.8(3) . . ?
C5 C4 C3 124.0(4) . . ?
C4 C5 C6 126.0(4) . . ?
C4 C5 C11 117.3(3) . . ?
C6 C5 C11 116.6(3) . . ?
N2 C6 C5 126.5(3) . . ?
N2 C6 C7 107.8(3) . . ?
C5 C6 C7 125.5(4) . . ?
C8 C7 C6 107.7(4) . . ?
C7 C8 C9 108.4(4) . . ?
N2 C9 C10 125.3(4) . . ?
N2 C9 C8 107.2(3) . . ?
C10 C9 C8 127.2(4) . . ?
C9 C10 C1 125.8(3) . 2_646 ?
C9 C10 C21 116.9(4) . . ?
C1 C10 C21 117.2(3) 2_646 . ?
C16 C11 C12 117.3(4) . . ?
C16 C11 C5 121.9(4) . . ?
C12 C11 C5 120.7(4) . . ?
C13 C12 C11 119.7(5) . . ?
N14 C13 C12 123.1(5) . . ?
N14 C15 C16 123.6(6) . . ?
C11 C16 C15 119.2(5) . . ?
C26 C21 C22 117.7(4) . . ?
C26 C21 C10 122.0(4) . . ?
C22 C21 C10 120.3(4) . . ?
C23 C22 C21 118.9(4) . . ?
N24 C23 C22 125.0(5) . . ?
N24 C25 C26 124.3(4) . . ?
C21 C26 C25 118.2(4) . . ?
C4 N1 C1 106.1(3) . . ?
C6 N2 C9 108.9(3) . . ?
C15 N14 C13 116.9(5) . . ?
C15 N14 Ag 121.5(4) . . ?
C13 N14 Ag 121.6(4) . . ?
C23 N24 C25 115.9(4) . . ?

_diffrn_measured_fraction_theta_max 0.990
_diffrn_reflns_theta_full        25.15
_diffrn_measured_fraction_theta_full 0.990
_refine_diff_density_max         1.567
_refine_diff_density_min         -0.330
_refine_diff_density_rms         0.109

# * END



