####################################################################### 
# 
# This file contains crystal structure data downloaded from the 
# Cambridge Structural Database (CSD) hosted by the Cambridge 
# Crystallographic Data Centre (CCDC).
# 
# Full information about CCDC data access policies and citation 
# guidelines are available at http://www.ccdc.cam.ac.uk/access/V1 
# 
# Audit and citation data items may have been added by the CCDC. 
# Please retain this information to preserve the provenance of 
# this file and to allow appropriate attribution of the data. 
# 
#######################################################################

data_p
_audit_block_doi                 10.5517/cc14hjx2
_database_code_depnum_ccdc_archive 'CCDC 1057624'
loop_
_citation_id
_citation_doi
_citation_year
1 10.1016/j.ica.2015.09.014 2015
_audit_update_record             
;
2015-04-02 deposited with the CCDC.	2024-07-13 downloaded from the CCDC.
;

_audit_creation_method           SHELXL-97
_chemical_name_systematic        
; 
 ? 
;
_chemical_name_common            ?
_chemical_melting_point          ?
_chemical_formula_moiety         ?
_chemical_formula_sum            'C19 H12 Cd2 Cl N5 O10 S0'
_chemical_formula_weight         730.59

loop_
_platon_squeeze_void_nr
_platon_squeeze_void_average_x
_platon_squeeze_void_average_y
_platon_squeeze_void_average_z
_platon_squeeze_void_volume
_platon_squeeze_void_count_electrons
_platon_squeeze_void_content
1 -0.001 0.471 0.004 1821 560 ' '
_platon_squeeze_details          
;
;


loop_
_atom_type_symbol
_atom_type_description
_atom_type_scat_dispersion_real
_atom_type_scat_dispersion_imag
_atom_type_scat_source
C C 0.0033 0.0016 'International Tables Vol C Tables 4.2.6.8 and 6.1.1.4'
H H 0.0000 0.0000 'International Tables Vol C Tables 4.2.6.8 and 6.1.1.4'
N N 0.0061 0.0033 'International Tables Vol C Tables 4.2.6.8 and 6.1.1.4'
O O 0.0106 0.0060 'International Tables Vol C Tables 4.2.6.8 and 6.1.1.4'
S S 0.1246 0.1234 'International Tables Vol C Tables 4.2.6.8 and 6.1.1.4'
Cl Cl 0.1484 0.1585 'International Tables Vol C Tables 4.2.6.8 and 6.1.1.4'
Cd Cd -0.8075 1.2024 'International Tables Vol C Tables 4.2.6.8 and 6.1.1.4'

_symmetry_cell_setting           Monoclinic
_symmetry_space_group_name_H-M   'P2(1)/n  '

loop_
_symmetry_equiv_pos_as_xyz
'x, y, z'
'-x+1/2, y+1/2, -z+1/2'
'-x, -y, -z'
'x-1/2, -y-1/2, z-1/2'

_cell_length_a                   13.615(5)
_cell_length_b                   20.102(8)
_cell_length_c                   13.843(5)
_cell_angle_alpha                90.00
_cell_angle_beta                 100.520(6)
_cell_angle_gamma                90.00
_cell_volume                     3725(2)
_cell_formula_units_Z            4
_cell_measurement_temperature    296(2)
_cell_measurement_reflns_used    4219
_cell_measurement_theta_min      2.1795
_cell_measurement_theta_max      25.0335

_exptl_crystal_description       block
_exptl_crystal_colour            colorless
_exptl_crystal_size_max          0.4
_exptl_crystal_size_mid          0.3
_exptl_crystal_size_min          0.2
_exptl_crystal_density_meas      ?
_exptl_crystal_density_diffrn    1.303
_exptl_crystal_density_method    'not measured'
_exptl_crystal_F_000             1416
_exptl_absorpt_coefficient_mu    1.255
_exptl_absorpt_correction_type   'multi scan'
_exptl_absorpt_correction_T_min  0.5677
_exptl_absorpt_correction_T_max  0.7456
_exptl_absorpt_process_details   'SADABS (Sheldrick, 1996)'

_exptl_special_details           
; 
 ? 
;

_diffrn_ambient_temperature      296(2)
_diffrn_radiation_wavelength     0.71073
_diffrn_radiation_type           MoK\a
_diffrn_radiation_source         'fine-focus sealed tube'
_diffrn_radiation_monochromator  graphite
_diffrn_measurement_device_type  'CCD area detector'
_diffrn_measurement_method       'phi and omega scans'
_diffrn_detector_area_resol_mean ?
_diffrn_standards_number         ?
_diffrn_standards_interval_count ?
_diffrn_standards_interval_time  ?
_diffrn_standards_decay_%        ?
_diffrn_reflns_number            19420
_diffrn_reflns_av_R_equivalents  0.0657
_diffrn_reflns_av_sigmaI/netI    0.0833
_diffrn_reflns_limit_h_min       -16
_diffrn_reflns_limit_h_max       14
_diffrn_reflns_limit_k_min       -23
_diffrn_reflns_limit_k_max       20
_diffrn_reflns_limit_l_min       -16
_diffrn_reflns_limit_l_max       11
_diffrn_reflns_theta_min         1.81
_diffrn_reflns_theta_max         25.00
_reflns_number_total             6544
_reflns_number_gt                3928
_reflns_threshold_expression     >2sigma(I)

_computing_data_collection       'Bruker SMART'
_computing_cell_refinement       'Bruker SMART'
_computing_data_reduction        'Bruker SAINT'
_computing_structure_solution    'SHELXS-97 (Sheldrick, 1990)'
_computing_structure_refinement  'SHELXL-97 (Sheldrick, 1997)'
_computing_molecular_graphics    'Bruker SHELXTL'
_computing_publication_material  'Bruker SHELXTL'


_refine_special_details          
; 
 Refinement of F^2^ against ALL reflections.  The weighted R-factor wR and 
 goodness of fit S are based on F^2^, conventional R-factors R are based 
 on F, with F set to zero for negative F^2^. The threshold expression of 
 F^2^ > 2sigma(F^2^) is used only for calculating R-factors(gt) etc. and is 
 not relevant to the choice of reflections for refinement.  R-factors based 
 on F^2^ are statistically about twice as large as those based on F, and R- 
 factors based on ALL data will be even larger. 
;

_refine_ls_structure_factor_coef Fsqd
_refine_ls_matrix_type           full
_refine_ls_weighting_scheme      calc
_refine_ls_weighting_details     
'calc w=1/[\s^2^(Fo^2^)+(0.1897P)^2^+0.0000P] where P=(Fo^2^+2Fc^2^)/3'
_atom_sites_solution_primary     direct
_atom_sites_solution_secondary   difmap
_atom_sites_solution_hydrogens   geom
_refine_ls_hydrogen_treatment    constr
_refine_ls_extinction_method     none
_refine_ls_extinction_coef       ?
_refine_ls_number_reflns         6544
_refine_ls_number_parameters     334
_refine_ls_number_restraints     0
_refine_ls_R_factor_all          0.1230
_refine_ls_R_factor_gt           0.0969
_refine_ls_wR_factor_ref         0.2935
_refine_ls_wR_factor_gt          0.2729
_refine_ls_goodness_of_fit_ref   1.031
_refine_ls_restrained_S_all      1.031
_refine_ls_shift/su_max          0.000
_refine_ls_shift/su_mean         0.000

loop_
_atom_site_label
_atom_site_type_symbol
_atom_site_fract_x
_atom_site_fract_y
_atom_site_fract_z
_atom_site_U_iso_or_equiv
_atom_site_adp_type
_atom_site_occupancy
_atom_site_symmetry_multiplicity
_atom_site_calc_flag
_atom_site_refinement_flags
_atom_site_disorder_assembly
_atom_site_disorder_group
Cd1 Cd 0.64457(6) 0.15017(4) 0.17595(6) 0.0547(3) Uani 1 1 d . . .
Cd2 Cd 0.70395(7) 0.12330(4) 0.42726(7) 0.0653(4) Uani 1 1 d . . .
Cl Cl 0.3782(4) 0.6327(2) 0.4013(5) 0.139(2) Uani 1 1 d . . .
O1 O 0.6977(6) 0.2429(4) 0.4328(6) 0.067(2) Uani 1 1 d . . .
O2 O 0.7571(6) 0.1981(3) 0.3105(7) 0.070(2) Uani 1 1 d . . .
O3 O 0.8072(7) 0.5121(4) 0.1140(8) 0.086(3) Uani 1 1 d . . .
O4 O 0.7613(6) 0.5613(3) 0.2389(7) 0.073(3) Uani 1 1 d . . .
O5 O 0.5527(6) 0.1351(4) 0.3209(7) 0.064(2) Uani 1 1 d . . .
O6 O 0.5309(6) 0.2242(4) 0.2228(7) 0.077(3) Uani 1 1 d . . .
O7 O 0.2428(7) 0.3719(4) 0.5544(7) 0.085(3) Uani 1 1 d . . .
O8 O 0.1949(8) 0.2699(5) 0.5740(8) 0.094(3) Uani 1 1 d . . .
O9 O 0.5299(7) 0.0795(6) 0.0981(8) 0.102(3) Uani 1 1 d . . .
O10 O 0.8808(17) 0.1183(10) 0.5014(11) 0.227(11) Uani 1 1 d . . .
N1 N 0.3728(8) 0.5041(5) 0.4133(10) 0.083(4) Uani 1 1 d . . .
N2 N 0.5092(8) 0.5526(5) 0.3527(10) 0.091(4) Uani 1 1 d . . .
N3 N 0.4963(7) 0.4342(4) 0.3636(8) 0.062(3) Uani 1 1 d . . .
N4 N 0.6375(7) 0.4858(4) 0.3216(9) 0.080(4) Uani 1 1 d . . .
H4A H 0.6650 0.5239 0.3171 0.096 Uiso 1 1 calc R . .
N5 N 0.3601(7) 0.3927(5) 0.4207(8) 0.071(3) Uani 1 1 d . . .
H5A H 0.3091 0.4047 0.4450 0.085 Uiso 1 1 calc R . .
C1 C 0.4266(10) 0.5546(6) 0.3890(11) 0.080(4) Uani 1 1 d . . .
C2 C 0.5467(9) 0.4890(5) 0.3495(10) 0.068(4) Uani 1 1 d . . .
C3 C 0.4110(8) 0.4428(5) 0.3949(9) 0.063(3) Uani 1 1 d . . .
C4 C 0.6932(7) 0.4325(5) 0.2993(9) 0.055(3) Uani 1 1 d . . .
C5 C 0.7612(9) 0.4424(5) 0.2342(9) 0.060(3) Uani 1 1 d . . .
C6 C 0.8144(8) 0.3881(6) 0.2106(9) 0.062(3) Uani 1 1 d . . .
H6A H 0.8592 0.3944 0.1681 0.075 Uiso 1 1 calc R . .
C7 C 0.8047(8) 0.3259(5) 0.2463(10) 0.063(3) Uani 1 1 d . . .
H7A H 0.8401 0.2903 0.2268 0.076 Uiso 1 1 calc R . .
C8 C 0.7419(8) 0.3171(5) 0.3115(8) 0.054(3) Uani 1 1 d . . .
C9 C 0.6858(8) 0.3689(5) 0.3392(10) 0.060(3) Uani 1 1 d . . .
H9A H 0.6436 0.3615 0.3839 0.072 Uiso 1 1 calc R . .
C10 C 0.7817(9) 0.5102(5) 0.1950(9) 0.062(3) Uani 1 1 d . . .
C11 C 0.7312(8) 0.2486(5) 0.3568(10) 0.063(3) Uani 1 1 d . . .
C12 C 0.3714(8) 0.3229(5) 0.4169(8) 0.056(3) Uani 1 1 d . . .
C13 C 0.4343(7) 0.2921(6) 0.3594(9) 0.058(3) Uani 1 1 d . . .
H13A H 0.4698 0.3185 0.3226 0.070 Uiso 1 1 calc R . .
C14 C 0.4442(7) 0.2247(5) 0.3565(9) 0.053(3) Uani 1 1 d . . .
C15 C 0.3923(10) 0.1858(6) 0.4130(10) 0.077(4) Uani 1 1 d . . .
H15A H 0.4003 0.1398 0.4139 0.093 Uiso 1 1 calc R . .
C16 C 0.3310(9) 0.2141(6) 0.4661(10) 0.073(4) Uani 1 1 d . . .
H16A H 0.2964 0.1864 0.5021 0.087 Uiso 1 1 calc R . .
C17 C 0.3153(8) 0.2831(6) 0.4709(8) 0.058(3) Uani 1 1 d . . .
C18 C 0.5145(7) 0.1938(6) 0.2953(8) 0.053(3) Uani 1 1 d . . .
C19 C 0.2474(9) 0.3109(6) 0.5342(9) 0.065(3) Uani 1 1 d . . .

loop_
_atom_site_aniso_label
_atom_site_aniso_U_11
_atom_site_aniso_U_22
_atom_site_aniso_U_33
_atom_site_aniso_U_23
_atom_site_aniso_U_13
_atom_site_aniso_U_12
Cd1 0.0627(5) 0.0385(5) 0.0771(6) -0.0022(4) 0.0504(4) -0.0003(3)
Cd2 0.0834(7) 0.0386(5) 0.0815(7) 0.0008(4) 0.0352(5) -0.0049(4)
Cl 0.142(4) 0.050(2) 0.253(7) 0.002(3) 0.109(4) 0.031(2)
O1 0.076(5) 0.044(4) 0.092(6) -0.003(4) 0.042(5) -0.009(4)
O2 0.075(5) 0.028(4) 0.117(7) -0.007(4) 0.040(5) -0.003(3)
O3 0.120(7) 0.043(5) 0.109(7) 0.015(5) 0.058(6) -0.003(5)
O4 0.087(5) 0.024(4) 0.127(7) -0.010(4) 0.068(5) -0.011(3)
O5 0.060(5) 0.040(4) 0.105(6) -0.015(4) 0.045(4) 0.006(3)
O6 0.082(6) 0.057(5) 0.111(7) -0.006(5) 0.069(5) 0.002(4)
O7 0.099(6) 0.066(6) 0.113(7) -0.021(5) 0.082(6) 0.001(5)
O8 0.119(7) 0.070(6) 0.117(8) 0.014(5) 0.087(6) 0.006(5)
O9 0.078(6) 0.116(8) 0.127(9) -0.041(7) 0.057(6) -0.023(6)
O10 0.33(3) 0.24(2) 0.085(9) 0.019(11) -0.032(13) 0.157(19)
N1 0.081(7) 0.045(6) 0.145(10) -0.001(6) 0.079(7) 0.013(5)
N2 0.094(8) 0.037(5) 0.166(12) 0.004(6) 0.087(8) 0.002(5)
N3 0.061(5) 0.036(5) 0.104(8) -0.006(5) 0.053(5) -0.004(4)
N4 0.064(6) 0.023(4) 0.169(11) 0.010(5) 0.066(7) -0.007(4)
N5 0.065(6) 0.047(5) 0.117(9) -0.005(5) 0.057(6) 0.002(4)
C1 0.088(9) 0.044(7) 0.121(12) -0.004(7) 0.053(8) 0.024(6)
C2 0.076(7) 0.028(5) 0.119(10) 0.011(6) 0.069(7) 0.005(5)
C3 0.072(7) 0.035(5) 0.099(9) -0.008(6) 0.061(7) 0.004(5)
C4 0.043(5) 0.043(6) 0.087(8) 0.003(5) 0.035(6) 0.005(4)
C5 0.075(7) 0.028(5) 0.088(8) 0.002(5) 0.040(6) -0.008(5)
C6 0.060(6) 0.049(6) 0.090(9) -0.018(6) 0.045(6) -0.005(5)
C7 0.068(7) 0.029(5) 0.102(9) -0.017(6) 0.040(7) 0.000(5)
C8 0.068(7) 0.027(5) 0.078(7) -0.002(5) 0.042(6) 0.002(5)
C9 0.059(6) 0.034(5) 0.096(9) 0.000(5) 0.037(6) 0.000(5)
C10 0.081(8) 0.038(6) 0.080(8) 0.009(5) 0.051(7) -0.008(5)
C11 0.058(7) 0.039(6) 0.101(9) -0.002(6) 0.040(7) -0.004(5)
C12 0.063(6) 0.037(5) 0.075(7) -0.005(5) 0.033(6) 0.013(5)
C13 0.049(6) 0.061(7) 0.073(7) -0.009(6) 0.036(5) -0.012(5)
C14 0.045(5) 0.043(6) 0.081(7) -0.008(5) 0.039(5) 0.001(4)
C15 0.108(10) 0.051(7) 0.094(9) 0.000(6) 0.076(8) -0.002(7)
C16 0.083(8) 0.055(7) 0.097(9) 0.015(7) 0.058(7) -0.004(6)
C17 0.056(6) 0.062(7) 0.064(7) -0.003(6) 0.033(5) 0.005(5)
C18 0.046(6) 0.056(7) 0.064(7) -0.015(5) 0.024(5) -0.015(5)
C19 0.076(8) 0.046(7) 0.078(8) 0.016(6) 0.029(7) 0.010(6)

_geom_special_details            
; 
 All esds (except the esd in the dihedral angle between two l.s. planes) 
 are estimated using the full covariance matrix.  The cell esds are taken 
 into account individually in the estimation of esds in distances, angles 
 and torsion angles; correlations between esds in cell parameters are only 
 used when they are defined by crystal symmetry.  An approximate (isotropic) 
 treatment of cell esds is used for estimating esds involving l.s. planes. 
;

loop_
_geom_bond_atom_site_label_1
_geom_bond_atom_site_label_2
_geom_bond_distance
_geom_bond_site_symmetry_2
_geom_bond_publ_flag
Cd1 O9 2.238(10) . ?
Cd1 O8 2.322(9) 4_665 ?
Cd1 O6 2.323(7) . ?
Cd1 O7 2.374(8) 4_665 ?
Cd1 O4 2.381(8) 2_645 ?
Cd1 O2 2.388(9) . ?
Cd1 O5 2.569(8) . ?
Cd1 C19 2.725(12) 4_665 ?
Cd1 Cd2 3.4670(18) . ?
Cd2 O3 2.305(8) 2_645 ?
Cd2 O5 2.315(8) . ?
Cd2 O1 2.407(8) . ?
Cd2 O2 2.414(8) . ?
Cd2 O10 2.44(2) . ?
Cd2 C11 2.751(11) . ?
Cl C1 1.724(11) . ?
O1 C11 1.226(14) . ?
O2 C11 1.284(13) . ?
O3 C10 1.234(14) . ?
O3 Cd2 2.305(8) 2_655 ?
O4 C10 1.250(13) . ?
O4 Cd1 2.381(8) 2_655 ?
O5 C18 1.311(14) . ?
O6 C18 1.231(13) . ?
O7 C19 1.261(14) . ?
O7 Cd1 2.374(8) 4_566 ?
O8 C19 1.280(14) . ?
O8 Cd1 2.322(9) 4_566 ?
N1 C1 1.329(16) . ?
N1 C3 1.380(13) . ?
N2 C1 1.314(15) . ?
N2 C2 1.381(14) . ?
N3 C3 1.323(12) . ?
N3 C2 1.331(13) . ?
N4 C2 1.362(13) . ?
N4 C4 1.380(13) . ?
N4 H4A 0.8600 . ?
N5 C3 1.309(14) . ?
N5 C12 1.413(14) . ?
N5 H5A 0.8600 . ?
C4 C9 1.404(15) . ?
C4 C5 1.420(14) . ?
C5 C6 1.382(15) . ?
C5 C10 1.511(14) . ?
C6 C7 1.360(16) . ?
C6 H6A 0.9300 . ?
C7 C8 1.363(15) . ?
C7 H7A 0.9300 . ?
C8 C9 1.386(14) . ?
C8 C11 1.530(15) . ?
C9 H9A 0.9300 . ?
C12 C17 1.412(15) . ?
C12 C13 1.414(14) . ?
C13 C14 1.362(15) . ?
C13 H13A 0.9300 . ?
C14 C15 1.387(15) . ?
C14 C18 1.523(13) . ?
C15 C16 1.336(16) . ?
C15 H15A 0.9300 . ?
C16 C17 1.408(17) . ?
C16 H16A 0.9300 . ?
C17 C19 1.493(15) . ?
C19 Cd1 2.725(12) 4_566 ?

loop_
_geom_angle_atom_site_label_1
_geom_angle_atom_site_label_2
_geom_angle_atom_site_label_3
_geom_angle
_geom_angle_site_symmetry_1
_geom_angle_site_symmetry_3
_geom_angle_publ_flag
O9 Cd1 O8 113.8(4) . 4_665 ?
O9 Cd1 O6 95.7(3) . . ?
O8 Cd1 O6 90.7(3) 4_665 . ?
O9 Cd1 O7 88.5(4) . 4_665 ?
O8 Cd1 O7 55.4(3) 4_665 4_665 ?
O6 Cd1 O7 143.9(3) . 4_665 ?
O9 Cd1 O4 91.5(4) . 2_645 ?
O8 Cd1 O4 128.9(3) 4_665 2_645 ?
O6 Cd1 O4 131.9(3) . 2_645 ?
O7 Cd1 O4 83.6(3) 4_665 2_645 ?
O9 Cd1 O2 157.5(4) . . ?
O8 Cd1 O2 88.6(3) 4_665 . ?
O6 Cd1 O2 83.6(3) . . ?
O7 Cd1 O2 105.3(3) 4_665 . ?
O4 Cd1 O2 72.9(3) 2_645 . ?
O9 Cd1 O5 84.5(3) . . ?
O8 Cd1 O5 142.8(3) 4_665 . ?
O6 Cd1 O5 54.1(3) . . ?
O7 Cd1 O5 161.6(3) 4_665 . ?
O4 Cd1 O5 79.6(3) 2_645 . ?
O2 Cd1 O5 76.9(3) . . ?
O9 Cd1 C19 103.9(4) . 4_665 ?
O8 Cd1 C19 27.9(3) 4_665 4_665 ?
O6 Cd1 C19 118.3(3) . 4_665 ?
O7 Cd1 C19 27.5(3) 4_665 4_665 ?
O4 Cd1 C19 105.7(3) 2_645 4_665 ?
O2 Cd1 C19 96.0(3) . 4_665 ?
O5 Cd1 C19 169.7(3) . 4_665 ?
O9 Cd1 Cd2 113.5(3) . . ?
O8 Cd1 Cd2 132.6(3) 4_665 . ?
O6 Cd1 Cd2 82.2(2) . . ?
O7 Cd1 Cd2 128.6(3) 4_665 . ?
O4 Cd1 Cd2 51.7(2) 2_645 . ?
O2 Cd1 Cd2 44.1(2) . . ?
O5 Cd1 Cd2 41.89(19) . . ?
C19 Cd1 Cd2 135.3(3) 4_665 . ?
O3 Cd2 O5 86.0(3) 2_645 . ?
O3 Cd2 O1 167.2(3) 2_645 . ?
O5 Cd2 O1 83.5(3) . . ?
O3 Cd2 O2 116.9(3) 2_645 . ?
O5 Cd2 O2 81.4(3) . . ?
O1 Cd2 O2 54.2(3) . . ?
O3 Cd2 O10 94.6(5) 2_645 . ?
O5 Cd2 O10 165.1(5) . . ?
O1 Cd2 O10 93.8(5) . . ?
O2 Cd2 O10 85.1(5) . . ?
O3 Cd2 C11 143.8(4) 2_645 . ?
O5 Cd2 C11 81.0(3) . . ?
O1 Cd2 C11 26.4(3) . . ?
O2 Cd2 C11 27.8(3) . . ?
O10 Cd2 C11 90.0(6) . . ?
O3 Cd2 Cd1 84.8(3) 2_645 . ?
O5 Cd2 Cd1 47.8(2) . . ?
O1 Cd2 Cd1 82.7(2) . . ?
O2 Cd2 Cd1 43.5(2) . . ?
O10 Cd2 Cd1 117.4(5) . . ?
C11 Cd2 Cd1 61.5(3) . . ?
C11 O1 Cd2 92.6(7) . . ?
C11 O2 Cd1 120.9(8) . . ?
C11 O2 Cd2 90.9(7) . . ?
Cd1 O2 Cd2 92.4(3) . . ?
C10 O3 Cd2 103.8(7) . 2_655 ?
C10 O4 Cd1 135.2(8) . 2_655 ?
C18 O5 Cd2 121.7(7) . . ?
C18 O5 Cd1 84.7(6) . . ?
Cd2 O5 Cd1 90.3(2) . . ?
C18 O6 Cd1 97.9(7) . . ?
C19 O7 Cd1 91.9(7) . 4_566 ?
C19 O8 Cd1 93.8(8) . 4_566 ?
C1 N1 C3 113.1(9) . . ?
C1 N2 C2 112.8(10) . . ?
C3 N3 C2 116.6(9) . . ?
C2 N4 C4 131.6(9) . . ?
C2 N4 H4A 114.2 . . ?
C4 N4 H4A 114.2 . . ?
C3 N5 C12 133.5(9) . . ?
C3 N5 H5A 113.3 . . ?
C12 N5 H5A 113.3 . . ?
N2 C1 N1 128.6(11) . . ?
N2 C1 Cl 115.7(10) . . ?
N1 C1 Cl 115.6(9) . . ?
N3 C2 N4 121.4(9) . . ?
N3 C2 N2 124.0(10) . . ?
N4 C2 N2 114.3(9) . . ?
N5 C3 N3 121.9(9) . . ?
N5 C3 N1 113.7(9) . . ?
N3 C3 N1 124.0(10) . . ?
N4 C4 C9 122.6(9) . . ?
N4 C4 C5 118.8(9) . . ?
C9 C4 C5 118.6(9) . . ?
C6 C5 C4 118.0(10) . . ?
C6 C5 C10 119.3(10) . . ?
C4 C5 C10 122.6(10) . . ?
C7 C6 C5 123.4(10) . . ?
C7 C6 H6A 118.3 . . ?
C5 C6 H6A 118.3 . . ?
C6 C7 C8 118.3(10) . . ?
C6 C7 H7A 120.8 . . ?
C8 C7 H7A 120.8 . . ?
C7 C8 C9 122.0(10) . . ?
C7 C8 C11 120.4(9) . . ?
C9 C8 C11 117.6(9) . . ?
C8 C9 C4 119.5(10) . . ?
C8 C9 H9A 120.2 . . ?
C4 C9 H9A 120.2 . . ?
O3 C10 O4 122.7(10) . . ?
O3 C10 C5 117.0(10) . . ?
O4 C10 C5 119.7(10) . . ?
O1 C11 O2 122.2(10) . . ?
O1 C11 C8 121.0(10) . . ?
O2 C11 C8 116.8(10) . . ?
O1 C11 Cd2 60.9(6) . . ?
O2 C11 Cd2 61.3(6) . . ?
C8 C11 Cd2 176.3(9) . . ?
C17 C12 N5 118.0(9) . . ?
C17 C12 C13 119.5(10) . . ?
N5 C12 C13 122.5(10) . . ?
C14 C13 C12 121.7(10) . . ?
C14 C13 H13A 119.1 . . ?
C12 C13 H13A 119.1 . . ?
C13 C14 C15 118.8(10) . . ?
C13 C14 C18 119.9(9) . . ?
C15 C14 C18 121.3(9) . . ?
C16 C15 C14 120.2(11) . . ?
C16 C15 H15A 119.9 . . ?
C14 C15 H15A 119.9 . . ?
C15 C16 C17 124.1(11) . . ?
C15 C16 H16A 117.9 . . ?
C17 C16 H16A 117.9 . . ?
C16 C17 C12 115.6(9) . . ?
C16 C17 C19 120.9(10) . . ?
C12 C17 C19 123.5(10) . . ?
O6 C18 O5 123.1(10) . . ?
O6 C18 C14 118.5(10) . . ?
O5 C18 C14 118.4(10) . . ?
O7 C19 O8 118.4(11) . . ?
O7 C19 C17 123.8(10) . . ?
O8 C19 C17 117.7(10) . . ?
O7 C19 Cd1 60.5(6) . 4_566 ?
O8 C19 Cd1 58.3(6) . 4_566 ?
C17 C19 Cd1 169.9(8) . 4_566 ?

_diffrn_measured_fraction_theta_max 0.999
_diffrn_reflns_theta_full        25.00
_diffrn_measured_fraction_theta_full 0.999
_refine_diff_density_max         5.100
_refine_diff_density_min         -1.607
_refine_diff_density_rms         0.193
