####################################################################### 
# 
# This file contains crystal structure data downloaded from the 
# Cambridge Structural Database (CSD) hosted by the Cambridge 
# Crystallographic Data Centre (CCDC).
# 
# Full information about CCDC data access policies and citation 
# guidelines are available at http://www.ccdc.cam.ac.uk/access/V1 
# 
# Audit and citation data items may have been added by the CCDC. 
# Please retain this information to preserve the provenance of 
# this file and to allow appropriate attribution of the data. 
# 
#######################################################################

data_compound2.cif
_audit_block_doi                 10.5517/cctfmlf
_database_code_depnum_ccdc_archive 'CCDC 757875'
loop_
_citation_id
_citation_doi
_citation_year
1 10.1002/chem.200903425 2010
_audit_update_record             
;
2009-12-11 deposited with the CCDC.	2024-07-13 downloaded from the CCDC.
;
#TrackingRef 'compound2.cif'

_audit_creation_date             09-04-17
_audit_creation_method           CRYSTALS_ver_12.51

_oxford_structure_analysis_title 'ORth in Pbcm'
_chemical_name_systematic        ?
_chemical_melting_point          ?

_cell_length_a                   16.9354(8)
_cell_length_b                   18.6642(9)
_cell_length_c                   19.1575(11)
_cell_angle_alpha                90
_cell_angle_beta                 90
_cell_angle_gamma                90
_cell_volume                     6055.4(5)

_symmetry_cell_setting           Orthorhombic
_symmetry_space_group_name_H-M   'P b c m '
_symmetry_space_group_name_Hall  ?
loop_
_symmetry_equiv_pos_as_xyz
x,y,z
-x,-y,-z
-x,y+1/2,z
x,-y+1/2,-z
x,-y+1/2,z+1/2
-x,y+1/2,-z+1/2
-x,-y,z+1/2
x,y,-z+1/2

loop_
_atom_type_symbol
_atom_type_scat_dispersion_real
_atom_type_scat_dispersion_imag
_atom_type_scat_Cromer_Mann_a1
_atom_type_scat_Cromer_Mann_b1
_atom_type_scat_Cromer_Mann_a2
_atom_type_scat_Cromer_Mann_b2
_atom_type_scat_Cromer_Mann_a3
_atom_type_scat_Cromer_Mann_b3
_atom_type_scat_Cromer_Mann_a4
_atom_type_scat_Cromer_Mann_b4
_atom_type_scat_Cromer_Mann_c
_atom_type_scat_source
C 0.0033 0.0016 2.3100 20.8439 1.0200 10.2075 1.5886 0.5687 0.8650 51.6512
0.2156 'International Tables Vol C 4.2.6.8 and 6.1.1.4'
H 0.0000 0.0000 0.4930 10.5109 0.3229 26.1257 0.1402 3.1424 0.0408 57.7998
0.0030 'International Tables Vol C 4.2.6.8 and 6.1.1.4'
N 0.0061 0.0033 12.2126 0.0057 3.1322 9.8933 2.0125 28.9975 1.1663 0.5826
-11.5290 'International Tables Vol C 4.2.6.8 and 6.1.1.4'
P 0.1023 0.0942 6.4345 1.9067 4.1791 27.1570 1.7800 0.5260 1.4908 68.1645
1.1149 'International Tables Vol C 4.2.6.8 and 6.1.1.4'
S 0.1246 0.1234 6.9053 1.4679 5.2034 22.2151 1.4379 0.2536 1.5863 56.1720
0.8669 'International Tables Vol C 4.2.6.8 and 6.1.1.4'
Ga 0.2307 1.6083 15.2354 3.0669 6.7006 0.2412 4.3591 10.7805 2.9623 61.4135
1.7189 'International Tables Vol C 4.2.6.8 and 6.1.1.4'
O 0.0106 0.0060 3.0485 13.2771 2.2868 5.7011 1.5463 0.3239 0.8670 32.9089
0.2508 'International Tables Vol C 4.2.6.8 and 6.1.1.4'


_cell_formula_units_Z            4

# Given Formula = C10.25 H10.25 Ga10.25 N10.25 O10.25 P10.25 S10.25
# Dc = 1.98 Fooo = 2896.00 Mu = 51.50 M = 900.90
# Found Formula = C18 H21 Ga10 N3 O1 S16
# Dc = 1.65 FOOO = 2896.00 Mu = 49.43 M = 752.82

_chemical_formula_sum            'C18 H21 Ga10 N3 O1 S16'
_chemical_formula_moiety         'C18 H21 Ga10 N3 O1 S16'
_chemical_compound_source        ?
_chemical_formula_weight         1505.64


_cell_measurement_reflns_used    0
_cell_measurement_theta_min      0
_cell_measurement_theta_max      0
_cell_measurement_temperature    100

_exptl_crystal_description       plate
_exptl_crystal_colour            white
_exptl_crystal_size_min          0.10
_exptl_crystal_size_mid          0.15
_exptl_crystal_size_max          0.23

_exptl_crystal_density_diffrn    1.651
_exptl_crystal_density_meas      ?
# Non-dispersive F(000):
_exptl_crystal_F_000             2896
_exptl_absorpt_coefficient_mu    4.943

# Sheldrick geometric approximatio 0.86 0.91
_exptl_absorpt_correction_type   multi-scan
_exptl_absorpt_correction_T_min  0.3304
_exptl_absorpt_correction_T_max  0.6101
_exptl_absorpt_process_details   'Bruker SADABS'
_diffrn_measurement_device       'Bruker X8 Apex 2'
_diffrn_measurement_device_type  'Bruker X8 Apex 2'
_diffrn_radiation_monochromator  graphite
_diffrn_radiation_type           'Mo K\a'
_diffrn_radiation_wavelength     0.71073
_diffrn_measurement_method       \w/2\q

_computing_data_collection       'Bruker X8 Apex 2'
_computing_cell_refinement       'Bruker X8 Apex 2'
_computing_data_reduction        'Bruker X8 Apex 2'
_computing_structure_solution    'SIR92 (Altomare et al., 1994)'
_computing_structure_refinement  'CRYSTALS (Betteridge et al., 2003)'
_computing_publication_material  'CRYSTALS (Betteridge et al., 2003)'
_computing_molecular_graphics    'ATOMS (Shape Software, 2002)'

_diffrn_standards_interval_time  ?
_diffrn_standards_interval_count ?
_diffrn_standards_number         0
_diffrn_standards_decay_%        ?

_diffrn_ambient_temperature      100
_diffrn_reflns_number            6379
_reflns_number_total             6379
_diffrn_reflns_av_R_equivalents  0.039
# Number of reflections with Friedels Law is 6379
# Number of reflections without Friedels Law is 0
# Theoretical number of reflections is about 6224


_diffrn_reflns_theta_min         1.202
_diffrn_reflns_theta_max         26.492
_diffrn_measured_fraction_theta_max 0.985

_diffrn_reflns_theta_full        25.962
_diffrn_measured_fraction_theta_full 0.997


_diffrn_reflns_limit_h_min       0
_diffrn_reflns_limit_h_max       21
_diffrn_reflns_limit_k_min       0
_diffrn_reflns_limit_k_max       23
_diffrn_reflns_limit_l_min       0
_diffrn_reflns_limit_l_max       23
_reflns_limit_h_min              0
_reflns_limit_h_max              21
_reflns_limit_k_min              0
_reflns_limit_k_max              23
_reflns_limit_l_min              0
_reflns_limit_l_max              23

_oxford_diffrn_Wilson_B_factor   2.32
_oxford_diffrn_Wilson_scale      126.18

_atom_sites_solution_primary     direct #heavy,direct,difmap,geom
# _atom_sites_solution_secondary difmap
_atom_sites_solution_hydrogens   geom

_refine_diff_density_min         -0.91
_refine_diff_density_max         1.21


_refine_ls_number_reflns         2615
_refine_ls_number_restraints     26
_refine_ls_number_parameters     189

#_refine_ls_R_factor_ref 0.0588
_refine_ls_wR_factor_ref         0.0667
_refine_ls_goodness_of_fit_ref   1.1097

#_reflns_number_all 6353
_refine_ls_R_factor_all          0.1420
_refine_ls_wR_factor_all         0.1177

# The I/u(I) cutoff below was used for refinement as
# well as the _gt R-factors:
_reflns_threshold_expression     I>2.00u(I)
_reflns_number_gt                2615
_refine_ls_R_factor_gt           0.0588
_refine_ls_wR_factor_gt          0.0667

_refine_ls_shift/su_max          0.009629

# choose from: rm (reference molecule of known chirality),
# ad (anomolous dispersion - Flack), rmad (rm and ad),
# syn (from synthesis), unk (unknown) or . (not applicable).
_chemical_absolute_configuration .


_refine_ls_structure_factor_coef F
_refine_ls_matrix_type           full
_refine_ls_hydrogen_treatment    noref # none, undef, noref, refall,
# refxyz, refU, constr or mixed
_refine_ls_weighting_scheme      calc
_refine_ls_weighting_details     
;
Method, part 1, Chebychev polynomial, (Watkin, 1994, Prince, 1982)
[weight] = 1.0/[A~0~*T~0~(x)+A~1~*T~1~(x) ... +A~n-1~]*T~n-1~(x)]
where A~i~ are the Chebychev coefficients listed below and x= Fcalc/Fmax
Method = Robust Weighting (Prince, 1982)
W = [weight] * [1-(deltaF/6*sigmaF)^2^]^2^
A~i~ are:
2.27 -0.400E-01 1.58
;

# Uequiv = arithmetic mean of Ui i.e. Ueqiv = (U1+U2+U3)/3

# Replace last . with number of unfound hydrogen atoms attached to an atom.

# ..._refinement_flags_...
# . no refinement constraints S special position constraint on site
# G rigid group refinement of site R riding atom
# D distance or angle restraint on site T thermal displacement constraints
# U Uiso or Uij restraint (rigid bond) P partial occupancy constraint


loop_
_atom_site_label
_atom_site_type_symbol
_atom_site_fract_x
_atom_site_fract_y
_atom_site_fract_z
_atom_site_U_iso_or_equiv
_atom_site_occupancy
_atom_site_adp_type
_atom_site_refinement_flags_posn
_atom_site_refinement_flags_adp
_atom_site_refinement_flags_occupancy
_atom_site_disorder_assembly
_atom_site_disorder_group
_atom_site_attached_hydrogens
Ga1 Ga 0.82472(9) 0.59381(9) 0.07030(10) 0.0503 1.0000 Uani . . . . . .
Ga2 Ga 0.84095(11) 0.59755(10) 0.2500 0.0339 1.0000 Uani S T . . . .
Ga3 Ga 0.65178(8) 0.63961(7) 0.15236(9) 0.0328 1.0000 Uani . . . . . .
Ga4 Ga 0.73406(8) 0.45154(6) 0.15149(9) 0.0339 1.0000 Uani . . . . . .
Ga5 Ga 0.48113(11) 0.67019(10) 0.2500 0.0360 1.0000 Uani S T . . . .
Ga6 Ga 0.54849(10) 0.49254(9) 0.2500 0.0320 1.0000 Uani S T . . . .
Ga7 Ga 0.63543(11) 0.32144(10) 0.2500 0.0390 1.0000 Uani S T . . . .
S8 S 0.91196(19) 0.62035(18) 0.1543(3) 0.0492 1.0000 Uani . . . . . .
S9 S 0.7219(2) 0.6687(2) 0.0572(2) 0.0497 1.0000 Uani . . . . . .
S10 S 0.7998(2) 0.4774(2) 0.0538(2) 0.0535 1.0000 Uani . . . . . .
S11 S 0.8088(2) 0.4772(2) 0.2500 0.0306 1.0000 Uani S T . . . .
S12 S 0.61971(17) 0.51906(14) 0.1503(2) 0.0312 1.0000 Uani . . . . . .
S13 S 0.7274(2) 0.6669(2) 0.2500 0.0297 1.0000 Uani S T . . . .
S14 S 0.54205(19) 0.70497(16) 0.1514(2) 0.0394 1.0000 Uani . . . . . .
S15 S 0.4373(3) 0.5561(2) 0.2500 0.0436 1.0000 Uani S T . . . .
S16 S 0.5166(3) 0.3763(2) 0.2500 0.0485 1.0000 Uani S T . . . .
S17 S 0.7057(2) 0.33530(16) 0.1518(2) 0.0447 1.0000 Uani . . . . . .
O18 O 0.3850(7) 0.7225(6) 0.2500 0.0431 1.0000 Uani S T . . . .
N19 N 0.8867(7) 0.6138(6) -0.0190(6) 0.055(3) 1.0000 Uiso D . . . . .
C20 C 0.8753(10) 0.6759(7) -0.0573(7) 0.085(6) 1.0000 Uiso D . . . . .
C21 C 0.9492(9) 0.5684(11) -0.0358(11) 0.137(11) 1.0000 Uiso D . . . . .
C22 C 0.9919(9) 0.6503(9) -0.1252(8) 0.083(6) 1.0000 Uiso D . . . . .
C23 C 0.9283(9) 0.6954(10) -0.1098(8) 0.108(8) 1.0000 Uiso D . . . . .
C24 C 1.0024(13) 0.5861(10) -0.0890(9) 0.119(9) 1.0000 Uiso D . . . . .
C25 C 1.0478(12) 0.6695(13) -0.1836(10) 0.102(8) 1.0000 Uiso D . . . . .
C26 C 1.006(2) 0.646(2) -0.2500 0.134(15) 1.0000 Uiso DS . . . . .
C27 C 0.8163(15) 0.1719(10) 0.2500 0.093(10) 1.0000 Uiso DS . . . . .
C28 C 0.8912(15) 0.1404(10) 0.2500 0.114(12) 1.0000 Uiso DS . . . . .
N29 N 0.7485(12) 0.1467(11) 0.2832(7) 0.063(8) 0.5000 Uiso D . . . . .
C30 C 0.750(2) 0.0838(11) 0.3230(9) 0.078(11) 0.5000 Uiso D . . . . .
C31 C 0.823(2) 0.048(3) 0.3268(18) 0.21(4) 0.5000 Uiso D . . . . .
C32 C 0.887(3) 0.0781(10) 0.2909(9) 0.13(2) 0.5000 Uiso D . . . . .
H16 H 0.3470 0.6945 0.2269 0.0500 0.5000 Uiso . . . . . .
H201 H 0.8285 0.7068 -0.0474 0.1017 1.0000 Uiso . . . . . .
H211 H 0.9567 0.5229 -0.0090 0.1651 1.0000 Uiso . . . . . .
H231 H 0.9204 0.7409 -0.1367 0.1299 1.0000 Uiso . . . . . .
H241 H 1.0474 0.5537 -0.1007 0.1438 1.0000 Uiso . . . . . .
H251 H 1.0599 0.7224 -0.1824 0.1223 1.0000 Uiso . . . . . .
H252 H 1.0991 0.6426 -0.1778 0.1223 1.0000 Uiso . . . . . .
H261 H 0.9538 0.6723 -0.2500 0.1623 1.0000 Uiso . . . . . .
H262 H 1.0003 0.5957 -0.2500 0.1623 1.0000 Uiso . . . . . .
H301 H 0.7026 0.0660 0.3487 0.0948 0.5000 Uiso . . . . . .
H311 H 0.8295 0.0040 0.3557 0.2557 0.5000 Uiso . . . . . .
H321 H 0.9397 0.0649 0.3120 0.1608 0.5000 Uiso . . . . . .
H281 H 0.9390 0.1587 0.2249 0.1359 0.5000 Uiso . . . . . .
H271 H 0.8104 0.2169 0.2228 0.1122 0.5000 Uiso . . . . . .
H291 H 0.6977 0.1737 0.2784 0.0751 0.5000 Uiso . . . . . .
loop_
_atom_site_aniso_label
_atom_site_aniso_U_11
_atom_site_aniso_U_22
_atom_site_aniso_U_33
_atom_site_aniso_U_23
_atom_site_aniso_U_13
_atom_site_aniso_U_12
Ga1 0.0417(9) 0.0422(9) 0.0672(12) 0.0130(9) 0.0149(9) 0.0029(7)
Ga2 0.0199(9) 0.0165(9) 0.0652(15) 0.0000 0.0000 -0.0023(8)
Ga3 0.0283(7) 0.0187(6) 0.0514(9) 0.0044(7) 0.0004(7) 0.0013(5)
Ga4 0.0266(7) 0.0202(6) 0.0550(10) -0.0047(7) 0.0031(7) 0.0018(5)
Ga5 0.0223(10) 0.0135(8) 0.0722(17) 0.0000 0.0000 0.0013(7)
Ga6 0.0183(9) 0.0113(8) 0.0664(16) 0.0000 0.0000 -0.0018(7)
Ga7 0.0217(10) 0.0150(9) 0.0804(18) 0.0000 0.0000 -0.0001(8)
S8 0.0282(17) 0.0327(16) 0.087(3) 0.012(2) 0.014(2) -0.0070(14)
S9 0.044(2) 0.044(2) 0.061(3) 0.0192(19) 0.006(2) 0.0063(17)
S10 0.052(2) 0.047(2) 0.062(3) -0.008(2) 0.016(2) 0.0076(19)
S11 0.017(2) 0.0135(18) 0.061(3) 0.0000 0.0000 0.0001(16)
S12 0.0253(14) 0.0159(12) 0.052(2) -0.0012(15) -0.0051(16) -0.0009(11)
S13 0.0164(19) 0.0137(18) 0.059(3) 0.0000 0.0000 -0.0033(15)
S14 0.0327(16) 0.0253(14) 0.060(2) 0.0047(17) -0.0055(19) 0.0064(12)
S15 0.019(2) 0.017(2) 0.095(5) 0.0000 0.0000 -0.0021(17)
S16 0.018(2) 0.016(2) 0.111(5) 0.0000 0.0000 -0.0007(17)
S17 0.0379(18) 0.0223(15) 0.074(3) -0.0135(19) 0.000(2) 0.0006(13)
O18 0.018(6) 0.021(6) 0.090(11) 0.0000 0.0000 -0.009(5)

_refine_ls_extinction_method     None
_oxford_refine_ls_scale          0.1393(4)
loop_
_geom_bond_atom_site_label_1
_geom_bond_site_symmetry_1
_geom_bond_atom_site_label_2
_geom_bond_site_symmetry_2
_geom_bond_distance
_geom_bond_publ_flag
Ga1 . S8 . 2.241(5) yes
Ga1 . S9 . 2.246(4) yes
Ga1 . S10 . 2.236(5) yes
Ga1 . N19 . 2.041(13) yes
Ga2 . S8 8_555 2.233(4) yes
Ga2 . S8 . 2.233(4) yes
Ga2 . S11 . 2.311(4) yes
Ga2 . S13 . 2.319(5) yes
Ga3 . S9 . 2.243(4) yes
Ga3 . S12 . 2.315(3) yes
Ga3 . S13 . 2.323(3) yes
Ga3 . S14 . 2.223(3) yes
Ga4 . S10 . 2.231(4) yes
Ga4 . S11 . 2.322(3) yes
Ga4 . S12 . 2.311(3) yes
Ga4 . S17 . 2.222(3) yes
Ga5 . S14 8_555 2.249(4) yes
Ga5 . S14 . 2.249(4) yes
Ga5 . S15 . 2.256(5) yes
Ga5 . O18 . 1.899(12) yes
Ga6 . S12 8_555 2.313(4) yes
Ga6 . S12 . 2.313(4) yes
Ga6 . S15 . 2.226(5) yes
Ga6 . S16 . 2.236(5) yes
Ga7 . S17 8_555 2.241(4) yes
Ga7 . O18 3_645 1.879(12) yes
Ga7 . S16 . 2.258(5) yes
Ga7 . S17 . 2.241(4) yes
O18 . H16 8_555 0.940 no
O18 . H16 . 0.940 no
N19 . C20 . 1.384(9) yes
N19 . C21 . 1.394(9) yes
C20 . C23 . 1.397(9) yes
C20 . H201 . 0.998 no
C21 . C24 . 1.401(10) yes
C21 . H211 . 1.000 no
C22 . C23 . 1.398(9) yes
C22 . C24 . 1.395(9) yes
C22 . C25 . 1.508(9) yes
C23 . H231 . 1.002 no
C24 . H241 . 0.999 no
C25 . C26 . 1.517(10) yes
C25 . H251 . 1.007 no
C25 . H252 . 1.010 no
C26 . H261 . 1.013 no
C26 . H262 . 0.950 no
C27 . H271 8_555 0.993 no
C27 . N29 8_555 1.394(10) yes
C27 . C28 . 1.399(10) yes
C27 . N29 . 1.394(10) yes
C27 . H271 . 0.993 no
C28 . H281 8_555 1.001 no
C28 . C32 8_555 1.403(10) yes
C28 . C32 . 1.403(10) yes
C28 . H281 . 1.001 no
N29 . C30 . 1.399(10) yes
N29 . H291 . 1.002 no
C30 . C31 . 1.402(10) yes
C30 . H301 . 1.005 no
C31 . C32 . 1.402(10) yes
C31 . H311 . 0.998 no
C32 . H321 . 1.005 no
loop_
_geom_angle_atom_site_label_1
_geom_angle_site_symmetry_1
_geom_angle_atom_site_label_2
_geom_angle_site_symmetry_2
_geom_angle_atom_site_label_3
_geom_angle_site_symmetry_3
_geom_angle
_geom_angle_publ_flag
S8 . Ga1 . S9 . 117.01(17) yes
S8 . Ga1 . S10 . 116.16(16) yes
S9 . Ga1 . S10 . 116.25(17) yes
S8 . Ga1 . N19 . 102.9(3) yes
S9 . Ga1 . N19 . 101.0(4) yes
S10 . Ga1 . N19 . 99.0(3) yes
S8 8_555 Ga2 . S8 . 110.3(2) yes
S8 8_555 Ga2 . S11 . 108.19(12) yes
S8 . Ga2 . S11 . 108.19(12) yes
S8 8_555 Ga2 . S13 . 109.89(12) yes
S8 . Ga2 . S13 . 109.89(12) yes
S11 . Ga2 . S13 . 110.32(16) yes
S9 . Ga3 . S12 . 110.20(16) yes
S9 . Ga3 . S13 . 108.04(14) yes
S12 . Ga3 . S13 . 110.89(14) yes
S9 . Ga3 . S14 . 107.64(15) yes
S12 . Ga3 . S14 . 109.70(12) yes
S13 . Ga3 . S14 . 110.30(16) yes
S10 . Ga4 . S11 . 111.42(15) yes
S10 . Ga4 . S12 . 106.98(15) yes
S11 . Ga4 . S12 . 110.63(14) yes
S10 . Ga4 . S17 . 108.75(17) yes
S11 . Ga4 . S17 . 108.48(16) yes
S12 . Ga4 . S17 . 110.57(13) yes
S14 8_555 Ga5 . S14 . 114.4(2) yes
S14 8_555 Ga5 . S15 . 115.07(11) yes
S14 . Ga5 . S15 . 115.07(11) yes
S14 8_555 Ga5 . O18 . 104.18(19) yes
S14 . Ga5 . O18 . 104.18(19) yes
S15 . Ga5 . O18 . 101.7(4) yes
S12 8_555 Ga6 . S12 . 111.37(17) yes
S12 8_555 Ga6 . S15 . 109.11(10) yes
S12 . Ga6 . S15 . 109.11(10) yes
S12 8_555 Ga6 . S16 . 109.49(10) yes
S12 . Ga6 . S16 . 109.49(10) yes
S15 . Ga6 . S16 . 108.21(17) yes
S17 8_555 Ga7 . O18 3_645 102.2(2) yes
S17 8_555 Ga7 . S16 . 114.90(11) yes
O18 3_645 Ga7 . S16 . 106.3(4) yes
S17 8_555 Ga7 . S17 . 114.2(2) yes
O18 3_645 Ga7 . S17 . 102.2(2) yes
S16 . Ga7 . S17 . 114.90(11) yes
Ga1 . S8 . Ga2 . 101.10(14) yes
Ga1 . S9 . Ga3 . 99.72(16) yes
Ga1 . S10 . Ga4 . 100.69(17) yes
Ga4 8_555 S11 . Ga4 . 108.72(17) yes
Ga4 8_555 S11 . Ga2 . 109.20(12) yes
Ga4 . S11 . Ga2 . 109.20(12) yes
Ga3 . S12 . Ga6 . 108.44(15) yes
Ga3 . S12 . Ga4 . 109.47(13) yes
Ga6 . S12 . Ga4 . 108.19(15) yes
Ga3 8_555 S13 . Ga3 . 107.24(17) yes
Ga3 8_555 S13 . Ga2 . 109.53(12) yes
Ga3 . S13 . Ga2 . 109.53(12) yes
Ga5 . S14 . Ga3 . 102.58(15) yes
Ga5 . S15 . Ga6 . 102.96(18) yes
Ga7 . S16 . Ga6 . 102.97(19) yes
Ga7 . S17 . Ga4 . 103.29(16) yes
H16 8_555 O18 . Ga5 . 107.545 no
H16 8_555 O18 . Ga7 3_655 114.856 no
Ga5 . O18 . Ga7 3_655 131.6(6) yes
H16 8_555 O18 . H16 . 56.223 no
Ga5 . O18 . H16 . 107.545 no
Ga7 3_655 O18 . H16 . 114.856 no
Ga1 . N19 . C20 . 121.7(12) yes
Ga1 . N19 . C21 . 118.2(13) yes
C20 . N19 . C21 . 119.4(18) yes
N19 . C20 . C23 . 120.7(18) yes
N19 . C20 . H201 . 119.606 no
C23 . C20 . H201 . 119.643 no
N19 . C21 . C24 . 121(2) yes
N19 . C21 . H211 . 119.580 no
C24 . C21 . H211 . 119.502 no
C23 . C22 . C24 . 120.7(20) yes
C23 . C22 . C25 . 119.8(18) yes
C24 . C22 . C25 . 119.5(19) yes
C22 . C23 . C20 . 119.3(20) yes
C22 . C23 . H231 . 120.351 no
C20 . C23 . H231 . 120.343 no
C21 . C24 . C22 . 119(2) yes
C21 . C24 . H241 . 120.636 no
C22 . C24 . H241 . 120.549 no
C22 . C25 . C26 . 105.2(12) yes
C22 . C25 . H251 . 110.091 no
C26 . C25 . H251 . 113.161 no
C22 . C25 . H252 . 109.915 no
C26 . C25 . H252 . 110.323 no
H251 . C25 . H252 . 108.120 no
C25 8_554 C26 . C25 . 