####################################################################### 
# 
# This file contains crystal structure data downloaded from the 
# Cambridge Structural Database (CSD) hosted by the Cambridge 
# Crystallographic Data Centre (CCDC).
# 
# Full information about CCDC data access policies and citation 
# guidelines are available at http://www.ccdc.cam.ac.uk/access/V1 
# 
# Audit and citation data items may have been added by the CCDC. 
# Please retain this information to preserve the provenance of 
# this file and to allow appropriate attribution of the data. 
# 
#######################################################################

data_UBERUO
#This CIF has been generated from an entry in the Cambridge Structural Database
_database_code_depnum_ccdc_archive 'CCDC 1277666'
_database_code_CSD               UBERUO
_audit_creation_method           'Created from the CSD'
_audit_update_record             
;
2024-07-13 downloaded from the CCDC.
;
_database_code_NBS               767729
_chemical_formula_moiety         '(C16 H18 Co1 O9)n,1.2n(H2 O1)'
_chemical_name_systematic        
"catena-((\m~2~-Aqua)-(\m~2~-2,2'-(1,4-ethylenedioxy)dibenzoato)-diaqua-cobalt(ii) hydrate)"
_chemical_absolute_configuration unk
_diffrn_ambient_temperature      298
_exptl_crystal_density_diffrn    1.497
#These two values have been output from a single CSD field.
_refine_ls_R_factor_gt           0.0478
_refine_ls_wR_factor_gt          0.0478
_diffrn_radiation_probe          x-ray
_symmetry_cell_setting           monoclinic
_symmetry_space_group_name_H-M   'C 2/c'
_symmetry_Int_Tables_number      15
_space_group_name_Hall           '-C 2yc'
loop_
_symmetry_equiv_pos_site_id
_symmetry_equiv_pos_as_xyz
1 x,y,z
2 -x,y,1/2-z
3 1/2+x,1/2+y,z
4 1/2-x,1/2+y,1/2-z
5 -x,-y,-z
6 x,-y,1/2+z
7 1/2-x,1/2-y,-z
8 1/2+x,1/2-y,1/2+z
_cell_length_a                   45.29(4)
_cell_length_b                   10.631(6)
_cell_length_c                   8.015(6)
_cell_angle_alpha                90
_cell_angle_beta                 90.65(8)
_cell_angle_gamma                90
_cell_volume                     3858.8
_exptl_crystal_colour            pink
_exptl_crystal_description       sheet
_cell_formula_units_Z            8
loop_
_atom_site_label
_atom_site_type_symbol
_atom_site_fract_x
_atom_site_fract_y
_atom_site_fract_z
Co1 Co 0.1366(1) -0.0029(1) -0.8199(1)
O1 O 0.1004(1) -0.1039(4) -0.7406(4)
O2 O 0.1663(1) 0.1316(4) -0.9052(4)
O3 O 0.1365(1) -0.0792(3) -1.0721(4)
O5 O 0.1040(1) 0.1197(4) -0.9016(4)
O6 O 0.0897(1) 0.2077(4) -0.6652(4)
O7 O 0.1700(1) 0.1214(3) -1.2404(4)
O8 O 0.1814(1) 0.2093(4) -1.4827(4)
O9 O 0.1141(1) 0.4034(4) -0.9524(5)
O10 O 0.1710(1) 0.3810(3) -1.0959(5)
C1 C 0.0893(1) 0.1983(5) -0.8191(7)
C2 C 0.0707(1) 0.2896(5) -0.9194(6)
C3 C 0.0844(1) 0.3933(5) -0.9872(6)
C4 C 0.0681(2) 0.4794(6) -1.0800(8)
C5 C 0.0385(2) 0.4592(7) -1.1086(8)
C6 C 0.0247(2) 0.3559(7) -1.0443(8)
C7 C 0.0411(1) 0.2719(6) -0.9468(8)
C8 C 0.1302(1) 0.5058(6) -1.0255(8)
C9 C 0.1848(1) 0.1984(5) -1.3288(7)
C10 C 0.2081(1) 0.2757(5) -1.2432(6)
C11 C 0.2009(1) 0.3679(5) -1.1236(6)
C12 C 0.2230(1) 0.4367(6) -1.0502(8)
C13 C 0.2522(1) 0.4181(6) -1.0917(8)
C14 C 0.2594(1) 0.3307(6) -1.2119(8)
C15 C 0.2371(1) 0.2611(6) -1.2855(7)
C16 C 0.1620(1) 0.4857(5) -0.9969(8)
O3E O 0.1365(1) 0.0792(3) -0.5721(4)
Co1E Co 0.1366(1) 0.0029(1) -1.3199(1)
O7E O 0.1700(1) -0.1214(3) -0.7404(4)
O4 O 0.0533(2) -0.2099(10) 0.1064(8)
O11 O 0.0000 0.0371(37) 0.7500

#END
