####################################################################### 
# 
# This file contains crystal structure data downloaded from the 
# Cambridge Structural Database (CSD) hosted by the Cambridge 
# Crystallographic Data Centre (CCDC).
# 
# Full information about CCDC data access policies and citation 
# guidelines are available at http://www.ccdc.cam.ac.uk/access/V1 
# 
# Audit and citation data items may have been added by the CCDC. 
# Please retain this information to preserve the provenance of 
# this file and to allow appropriate attribution of the data. 
# 
#######################################################################

data_New1
_audit_block_doi                 10.5517/ccw4dhw
_database_code_depnum_ccdc_archive 'CCDC 808588'
loop_
_citation_id
_citation_doi
_citation_year
1 10.1002/chem.201101321 2011
_audit_update_record             
;
2011-01-18 deposited with the CCDC.	2024-07-13 downloaded from the CCDC.
;
#TrackingRef 'New1.cif'


_audit_creation_method           SHELXL-97
_chemical_name_systematic        
;
?
;
_chemical_name_common            ?
_chemical_melting_point          ?
_chemical_formula_moiety         ?
_chemical_formula_sum            'C30 H28 Mn2 N2 O13'
_chemical_formula_weight         734.42

loop_
_atom_type_symbol
_atom_type_description
_atom_type_scat_dispersion_real
_atom_type_scat_dispersion_imag
_atom_type_scat_source
C C 0.0033 0.0016 'International Tables Vol C Tables 4.2.6.8 and 6.1.1.4'
H H 0.0000 0.0000 'International Tables Vol C Tables 4.2.6.8 and 6.1.1.4'
Mn Mn 0.3368 0.7283 'International Tables Vol C Tables 4.2.6.8 and 6.1.1.4'
N N 0.0061 0.0033 'International Tables Vol C Tables 4.2.6.8 and 6.1.1.4'
O O 0.0106 0.0060 'International Tables Vol C Tables 4.2.6.8 and 6.1.1.4'

_symmetry_cell_setting           triclinic
_symmetry_space_group_name_H-M   P-1

loop_
_symmetry_equiv_pos_as_xyz
'x, y, z'
'-x, -y, -z'

_cell_length_a                   7.7506(7)
_cell_length_b                   9.7954(7)
_cell_length_c                   13.0338(12)
_cell_angle_alpha                69.561(8)
_cell_angle_beta                 86.021(8)
_cell_angle_gamma                70.154(8)
_cell_volume                     870.81(13)
_cell_formula_units_Z            1
_cell_measurement_temperature    293(2)
_cell_measurement_reflns_used    6313
_cell_measurement_theta_min      3.33
_cell_measurement_theta_max      26.36

_exptl_crystal_description       bloc
_exptl_crystal_colour            brown
_exptl_crystal_size_max          0.39
_exptl_crystal_size_mid          0.21
_exptl_crystal_size_min          0.09
_exptl_crystal_density_meas      ?
_exptl_crystal_density_diffrn    1.400
_exptl_crystal_density_method    'not measured'
_exptl_crystal_F_000             376
_exptl_absorpt_coefficient_mu    0.788
_exptl_absorpt_correction_type   empirical
_exptl_absorpt_correction_T_min  0.820
_exptl_absorpt_correction_T_max  0.932
_exptl_absorpt_process_details   ?

_exptl_special_details           
;
?
;

_diffrn_ambient_temperature      293(2)
_diffrn_radiation_wavelength     0.71073
_diffrn_radiation_type           MoK\a
_diffrn_radiation_source         'fine-focus sealed tube'
_diffrn_radiation_monochromator  graphite
_diffrn_measurement_device_type  ?
_diffrn_measurement_method       ?
_diffrn_detector_area_resol_mean ?
_diffrn_standards_number         ?
_diffrn_standards_interval_count ?
_diffrn_standards_interval_time  ?
_diffrn_standards_decay_%        ?
_diffrn_reflns_number            6313
_diffrn_reflns_av_R_equivalents  0.0319
_diffrn_reflns_av_sigmaI/netI    0.0817
_diffrn_reflns_limit_h_min       -9
_diffrn_reflns_limit_h_max       9
_diffrn_reflns_limit_k_min       -11
_diffrn_reflns_limit_k_max       12
_diffrn_reflns_limit_l_min       -16
_diffrn_reflns_limit_l_max       12
_diffrn_reflns_theta_min         3.33
_diffrn_reflns_theta_max         26.36
_reflns_number_total             3553
_reflns_number_gt                2271
_reflns_threshold_expression     >2sigma(I)

_computing_data_collection       ?
_computing_cell_refinement       ?
_computing_data_reduction        ?
_computing_structure_solution    'SHELXS-97 (Sheldrick, 1990)'
_computing_structure_refinement  'SHELXL-97 (Sheldrick, 1997)'
_computing_molecular_graphics    ?
_computing_publication_material  ?

_refine_special_details          
;
Refinement of F^2^ against ALL reflections. The weighted R-factor wR and
goodness of fit S are based on F^2^, conventional R-factors R are based
on F, with F set to zero for negative F^2^. The threshold expression of
F^2^ > 2sigma(F^2^) is used only for calculating R-factors(gt) etc. and is
not relevant to the choice of reflections for refinement. R-factors based
on F^2^ are statistically about twice as large as those based on F, and R-
factors based on ALL data will be even larger.
;

_refine_ls_structure_factor_coef Fsqd
_refine_ls_matrix_type           full
_refine_ls_weighting_scheme      calc
_refine_ls_weighting_details     
'calc w=1/[\s^2^(Fo^2^)+(0.0302P)^2^+6.5941P] where P=(Fo^2^+2Fc^2^)/3'
_atom_sites_solution_primary     direct
_atom_sites_solution_secondary   difmap
_atom_sites_solution_hydrogens   geom
_refine_ls_hydrogen_treatment    constr
_refine_ls_extinction_method     none
_refine_ls_extinction_coef       ?
_refine_ls_number_reflns         3553
_refine_ls_number_parameters     211
_refine_ls_number_restraints     0
_refine_ls_R_factor_all          0.1089
_refine_ls_R_factor_gt           0.0773
_refine_ls_wR_factor_ref         0.2073
_refine_ls_wR_factor_gt          0.2001
_refine_ls_goodness_of_fit_ref   1.055
_refine_ls_restrained_S_all      1.055
_refine_ls_shift/su_max          0.000
_refine_ls_shift/su_mean         0.000

loop_
_atom_site_label
_atom_site_type_symbol
_atom_site_fract_x
_atom_site_fract_y
_atom_site_fract_z
_atom_site_U_iso_or_equiv
_atom_site_adp_type
_atom_site_occupancy
_atom_site_symmetry_multiplicity
_atom_site_calc_flag
_atom_site_refinement_flags
_atom_site_disorder_assembly
_atom_site_disorder_group
Mn1 Mn 1.01682(15) -0.23760(12) 0.04591(8) 0.0348(3) Uani 1 1 d . . .
O1 O 0.8627(7) -0.1166(6) 0.1486(4) 0.0490(13) Uani 1 1 d . . .
O2 O 0.7992(6) 0.1036(6) 0.0047(4) 0.0430(12) Uani 1 1 d . . .
O3 O 0.2197(6) 0.5272(5) 0.0370(4) 0.0418(12) Uani 1 1 d . . .
O4 O 0.2205(7) 0.5860(5) 0.1837(4) 0.0500(14) Uani 1 1 d . . .
O5 O 0.8091(8) -0.3474(7) 0.0807(5) 0.0622(16) Uani 1 1 d . . .
H5A H 0.7150 -0.3201 0.1257 0.075 Uiso 1 1 calc R . .
H5B H 0.8139 -0.4218 0.0507 0.075 Uiso 1 1 calc R . .
O101 O 0.4697(13) 0.3326(11) 0.7773(8) 0.126(3) Uiso 1 1 d . . .
O102 O 0.071(5) 0.413(4) 0.593(3) 0.109(11) Uiso 0.25 1 d P . .
O103 O 0.083(6) 0.548(5) 0.469(4) 0.147(15) Uiso 0.25 1 d P . .
N1 N 0.9272(8) -0.1676(7) 0.8673(4) 0.0410(14) Uani 1 1 d . . .
C1 C 0.7832(9) 0.0284(8) 0.1036(6) 0.0358(15) Uani 1 1 d . . .
C2 C 0.6675(9) 0.1133(7) 0.1731(5) 0.0323(14) Uani 1 1 d . . .
C3 C 0.5330(9) 0.2551(7) 0.1231(5) 0.0345(15) Uani 1 1 d . . .
H3A H 0.5108 0.2928 0.0474 0.041 Uiso 1 1 calc R . .
C4 C 0.4301(9) 0.3420(7) 0.1859(5) 0.0338(15) Uani 1 1 d . . .
C5 C 0.2820(9) 0.4941(8) 0.1324(5) 0.0366(16) Uani 1 1 d . . .
C6 C 0.4719(9) 0.2873(7) 0.2978(5) 0.0366(16) Uani 1 1 d . . .
H6A H 0.4085 0.3466 0.3395 0.044 Uiso 1 1 calc R . .
C7 C 0.6092(9) 0.1431(7) 0.3497(5) 0.0356(15) Uani 1 1 d . . .
C8 C 0.7028(9) 0.0573(7) 0.2859(5) 0.0358(15) Uani 1 1 d . . .
H8A H 0.7908 -0.0393 0.3191 0.043 Uiso 1 1 calc R . .
C9 C 0.6522(10) 0.0945(8) 0.4682(5) 0.0436(18) Uani 1 1 d . . .
H9A H 0.5793 0.1587 0.5044 0.052 Uiso 1 1 calc R . .
C10 C 0.7820(10) -0.0292(8) 0.5279(5) 0.0432(18) Uani 1 1 d . . .
H10A H 0.8529 -0.0949 0.4922 0.052 Uiso 1 1 calc R . .
C11 C 0.7907(11) -0.0386(9) 0.8172(6) 0.053(2) Uani 1 1 d . . .
H11A H 0.7276 0.0224 0.8579 0.064 Uiso 1 1 calc R . .
C12 C 0.7374(11) 0.0101(9) 0.7084(6) 0.054(2) Uani 1 1 d . . .
H12A H 0.6398 0.1014 0.6776 0.065 Uiso 1 1 calc R . .
C13 C 0.8274(10) -0.0751(8) 0.6452(5) 0.0411(17) Uani 1 1 d . . .
C14 C 0.9654(11) -0.2141(8) 0.6989(6) 0.0468(19) Uani 1 1 d . . .
H14A H 1.0263 -0.2800 0.6611 0.056 Uiso 1 1 calc R . .
C15 C 1.0112(10) -0.2535(9) 0.8076(6) 0.0451(18) Uani 1 1 d . . .
H15A H 1.1064 -0.3454 0.8412 0.054 Uiso 1 1 calc R . .

loop_
_atom_site_aniso_label
_atom_site_aniso_U_11
_atom_site_aniso_U_22
_atom_site_aniso_U_33
_atom_site_aniso_U_23
_atom_site_aniso_U_13
_atom_site_aniso_U_12
Mn1 0.0372(6) 0.0293(5) 0.0281(5) -0.0107(4) -0.0051(4) 0.0031(4)
O1 0.053(3) 0.038(3) 0.049(3) -0.022(2) 0.008(2) -0.002(2)
O2 0.038(3) 0.053(3) 0.037(3) -0.024(2) 0.003(2) -0.007(2)
O3 0.043(3) 0.036(3) 0.033(3) -0.011(2) -0.010(2) 0.003(2)
O4 0.059(3) 0.036(3) 0.041(3) -0.020(2) -0.006(2) 0.010(2)
O5 0.062(4) 0.080(4) 0.064(4) -0.050(3) 0.016(3) -0.025(3)
N1 0.051(4) 0.038(3) 0.026(3) -0.009(2) -0.007(3) -0.006(3)
C1 0.030(4) 0.036(4) 0.041(4) -0.022(3) 0.000(3) -0.002(3)
C2 0.032(3) 0.028(3) 0.033(3) -0.013(3) -0.001(3) -0.002(3)
C3 0.036(4) 0.032(3) 0.028(3) -0.011(3) -0.004(3) -0.001(3)
C4 0.034(4) 0.031(3) 0.030(3) -0.010(3) -0.003(3) -0.002(3)
C5 0.041(4) 0.031(4) 0.030(3) -0.009(3) -0.002(3) -0.003(3)
C6 0.042(4) 0.031(3) 0.028(3) -0.010(3) -0.002(3) -0.001(3)
C7 0.040(4) 0.034(4) 0.025(3) -0.008(3) -0.002(3) -0.005(3)
C8 0.035(4) 0.030(3) 0.032(3) -0.010(3) -0.003(3) 0.002(3)
C9 0.050(4) 0.044(4) 0.027(3) -0.011(3) -0.002(3) -0.005(3)
C10 0.048(4) 0.043(4) 0.030(3) -0.011(3) -0.007(3) -0.005(3)
C11 0.061(5) 0.052(5) 0.034(4) -0.017(3) -0.008(4) 0.000(4)
C12 0.063(5) 0.044(4) 0.032(4) -0.008(3) -0.016(4) 0.009(4)
C13 0.048(4) 0.038(4) 0.027(3) -0.004(3) -0.008(3) -0.007(3)
C14 0.057(5) 0.038(4) 0.036(4) -0.013(3) -0.004(3) -0.004(4)
C15 0.044(4) 0.045(4) 0.035(4) -0.007(3) -0.011(3) -0.007(3)

_geom_special_details            
;
All esds (except the esd in the dihedral angle between two l.s. planes)
are estimated using the full covariance matrix. The cell esds are taken
into account individually in the estimation of esds in distances, angles
and torsion angles; correlations between esds in cell parameters are only
used when they are defined by crystal symmetry. An approximate (isotropic)
treatment of cell esds is used for estimating esds involving l.s. planes.
;

loop_
_geom_bond_atom_site_label_1
_geom_bond_atom_site_label_2
_geom_bond_distance
_geom_bond_site_symmetry_2
_geom_bond_publ_flag
Mn1 O1 2.132(5) . ?
Mn1 O5 2.166(6) . ?
Mn1 O2 2.174(5) 2_755 ?
Mn1 O4 2.253(5) 1_645 ?
Mn1 N1 2.271(5) 1_554 ?
Mn1 O3 2.344(5) 1_645 ?
O1 C1 1.271(8) . ?
O2 C1 1.264(8) . ?
O2 Mn1 2.174(5) 2_755 ?
O3 C5 1.256(7) . ?
O3 Mn1 2.344(5) 1_465 ?
O4 C5 1.253(8) . ?
O4 Mn1 2.253(5) 1_465 ?
O5 H5A 0.9300 . ?
O5 H5B 0.9300 . ?
O102 O103 1.35(5) 2_566 ?
O102 O103 1.72(5) . ?
O103 O102 1.35(5) 2_566 ?
O103 O103 1.83(8) 2_566 ?
N1 C15 1.324(9) . ?
N1 C11 1.325(9) . ?
N1 Mn1 2.271(5) 1_556 ?
C1 C2 1.491(8) . ?
C2 C3 1.385(8) . ?
C2 C8 1.389(9) . ?
C3 C4 1.401(9) . ?
C3 H3A 0.9300 . ?
C4 C6 1.386(8) . ?
C4 C5 1.499(9) . ?
C6 C7 1.413(9) . ?
C6 H6A 0.9300 . ?
C7 C8 1.383(9) . ?
C7 C9 1.475(9) . ?
C8 H8A 0.9300 . ?
C9 C10 1.306(9) . ?
C9 H9A 0.9300 . ?
C10 C13 1.466(9) . ?
C10 H10A 0.9300 . ?
C11 C12 1.373(9) . ?
C11 H11A 0.9300 . ?
C12 C13 1.367(10) . ?
C12 H12A 0.9300 . ?
C13 C14 1.392(9) . ?
C14 C15 1.371(9) . ?
C14 H14A 0.9300 . ?
C15 H15A 0.9300 . ?

loop_
_geom_angle_atom_site_label_1
_geom_angle_atom_site_label_2
_geom_angle_atom_site_label_3
_geom_angle
_geom_angle_site_symmetry_1
_geom_angle_site_symmetry_3
_geom_angle_publ_flag
O1 Mn1 O5 83.3(2) . . ?
O1 Mn1 O2 95.71(19) . 2_755 ?
O5 Mn1 O2 172.8(2) . 2_755 ?
O1 Mn1 O4 93.10(18) . 1_645 ?
O5 Mn1 O4 97.1(2) . 1_645 ?
O2 Mn1 O4 90.1(2) 2_755 1_645 ?
O1 Mn1 N1 121.7(2) . 1_554 ?
O5 Mn1 N1 85.1(2) . 1_554 ?
O2 Mn1 N1 89.5(2) 2_755 1_554 ?
O4 Mn1 N1 145.05(19) 1_645 1_554 ?
O1 Mn1 O3 146.46(18) . 1_645 ?
O5 Mn1 O3 86.4(2) . 1_645 ?
O2 Mn1 O3 98.17(18) 2_755 1_645 ?
O4 Mn1 O3 56.63(16) 1_645 1_645 ?
N1 Mn1 O3 88.88(18) 1_554 1_645 ?
C1 O1 Mn1 116.9(4) . . ?
C1 O2 Mn1 123.4(4) . 2_755 ?
C5 O3 Mn1 89.1(4) . 1_465 ?
C5 O4 Mn1 93.4(4) . 1_465 ?
Mn1 O5 H5A 120.0 . . ?
Mn1 O5 H5B 120.0 . . ?
H5A O5 H5B 120.0 . . ?
O103 O102 O103 72(3) 2_566 . ?
O102 O103 O102 108(3) 2_566 . ?
O102 O103 O103 63(3) 2_566 2_566 ?
O102 O103 O103 45(2) . 2_566 ?
C15 N1 C11 116.7(6) . . ?
C15 N1 Mn1 121.3(4) . 1_556 ?
C11 N1 Mn1 122.0(5) . 1_556 ?
O2 C1 O1 123.7(6) . . ?
O2 C1 C2 118.8(6) . . ?
O1 C1 C2 117.5(6) . . ?
C3 C2 C8 120.0(6) . . ?
C3 C2 C1 119.2(6) . . ?
C8 C2 C1 120.6(6) . . ?
C2 C3 C4 120.4(6) . . ?
C2 C3 H3A 119.8 . . ?
C4 C3 H3A 119.8 . . ?
C6 C4 C3 118.8(6) . . ?
C6 C4 C5 120.6(6) . . ?
C3 C4 C5 120.6(6) . . ?
O4 C5 O3 120.8(6) . . ?
O4 C5 C4 119.6(6) . . ?
O3 C5 C4 119.6(6) . . ?
C4 C6 C7 121.3(6) . . ?
C4 C6 H6A 119.4 . . ?
C7 C6 H6A 119.4 . . ?
C8 C7 C6 118.4(6) . . ?
C8 C7 C9 123.0(6) . . ?
C6 C7 C9 118.5(6) . . ?
C7 C8 C2 121.0(6) . . ?
C7 C8 H8A 119.5 . . ?
C2 C8 H8A 119.5 . . ?
C10 C9 C7 126.9(7) . . ?
C10 C9 H9A 116.6 . . ?
C7 C9 H9A 116.6 . . ?
C9 C10 C13 126.7(7) . . ?
C9 C10 H10A 116.6 . . ?
C13 C10 H10A 116.6 . . ?
N1 C11 C12 123.6(7) . . ?
N1 C11 H11A 118.2 . . ?
C12 C11 H11A 118.2 . . ?
C13 C12 C11 120.2(7) . . ?
C13 C12 H12A 119.9 . . ?
C11 C12 H12A 119.9 . . ?
C12 C13 C14 116.2(6) . . ?
C12 C13 C10 123.5(6) . . ?
C14 C13 C10 120.2(7) . . ?
C15 C14 C13 119.8(7) . . ?
C15 C14 H14A 120.1 . . ?
C13 C14 H14A 120.1 . . ?
N1 C15 C14 123.5(7) . . ?
N1 C15 H15A 118.3 . . ?
C14 C15 H15A 118.3 . . ?

loop_
_geom_hbond_atom_site_label_D
_geom_hbond_atom_site_label_H
_geom_hbond_atom_site_label_A
_geom_hbond_distance_DH
_geom_hbond_distance_HA
_geom_hbond_distance_DA
_geom_hbond_angle_DHA
_geom_hbond_site_symmetry_A
O5 H5A O101 0.93 1.85 2.745(11) 160.7 2_656
O5 H5B O3 0.93 1.87 2.777(7) 165.0 2_655

_diffrn_measured_fraction_theta_max 0.995
_diffrn_reflns_theta_full        26.36
_diffrn_measured_fraction_theta_full 0.995
_refine_diff_density_max         0.929
_refine_diff_density_min         -0.532
_refine_diff_density_rms         0.122
