####################################################################### 
# 
# This file contains crystal structure data downloaded from the 
# Cambridge Structural Database (CSD) hosted by the Cambridge 
# Crystallographic Data Centre (CCDC).
# 
# Full information about CCDC data access policies and citation 
# guidelines are available at http://www.ccdc.cam.ac.uk/access/V1 
# 
# Audit and citation data items may have been added by the CCDC. 
# Please retain this information to preserve the provenance of 
# this file and to allow appropriate attribution of the data. 
# 
#######################################################################

data_New2
_audit_block_doi                 10.5517/ccw4djx
_database_code_depnum_ccdc_archive 'CCDC 808589'
loop_
_citation_id
_citation_doi
_citation_year
1 10.1002/chem.201101321 2011
_audit_update_record             
;
2011-01-18 deposited with the CCDC.	2024-07-13 downloaded from the CCDC.
;
#TrackingRef 'New2.cif'


_audit_creation_method           SHELXL-97
_chemical_name_systematic        
;
?
;
_chemical_name_common            ?
_chemical_melting_point          ?
_chemical_formula_moiety         ?
_chemical_formula_sum            'C30 H28 Mn2 N2 O13'
_chemical_formula_weight         734.42

loop_
_atom_type_symbol
_atom_type_description
_atom_type_scat_dispersion_real
_atom_type_scat_dispersion_imag
_atom_type_scat_source
C C 0.0033 0.0016 'International Tables Vol C Tables 4.2.6.8 and 6.1.1.4'
H H 0.0000 0.0000 'International Tables Vol C Tables 4.2.6.8 and 6.1.1.4'
Mn Mn 0.3368 0.7283 'International Tables Vol C Tables 4.2.6.8 and 6.1.1.4'
N N 0.0061 0.0033 'International Tables Vol C Tables 4.2.6.8 and 6.1.1.4'
O O 0.0106 0.0060 'International Tables Vol C Tables 4.2.6.8 and 6.1.1.4'

_symmetry_cell_setting           triclinic
_symmetry_space_group_name_H-M   P-1

loop_
_symmetry_equiv_pos_as_xyz
'x, y, z'
'-x, -y, -z'

_cell_length_a                   7.8494(4)
_cell_length_b                   9.9876(6)
_cell_length_c                   12.6067(9)
_cell_angle_alpha                104.131(6)
_cell_angle_beta                 91.094(5)
_cell_angle_gamma                111.882(6)
_cell_volume                     882.69(9)
_cell_formula_units_Z            1
_cell_measurement_temperature    293(2)
_cell_measurement_reflns_used    6071
_cell_measurement_theta_min      3.36
_cell_measurement_theta_max      26.36

_exptl_crystal_description       bloc
_exptl_crystal_colour            yellow
_exptl_crystal_size_max          0.26
_exptl_crystal_size_mid          0.10
_exptl_crystal_size_min          0.07
_exptl_crystal_density_meas      ?
_exptl_crystal_density_diffrn    1.382
_exptl_crystal_density_method    'not measured'
_exptl_crystal_F_000             376
_exptl_absorpt_coefficient_mu    0.778
_exptl_absorpt_correction_type   empirical
_exptl_absorpt_correction_T_min  0.911
_exptl_absorpt_correction_T_max  0.947
_exptl_absorpt_process_details   ?

_exptl_special_details           
;
?
;

_diffrn_ambient_temperature      293(2)
_diffrn_radiation_wavelength     0.71073
_diffrn_radiation_type           MoK\a
_diffrn_radiation_source         'fine-focus sealed tube'
_diffrn_radiation_monochromator  graphite
_diffrn_measurement_device_type  ?
_diffrn_measurement_method       ?
_diffrn_detector_area_resol_mean ?
_diffrn_standards_number         ?
_diffrn_standards_interval_count ?
_diffrn_standards_interval_time  ?
_diffrn_standards_decay_%        ?
_diffrn_reflns_number            6071
_diffrn_reflns_av_R_equivalents  0.0485
_diffrn_reflns_av_sigmaI/netI    0.1751
_diffrn_reflns_limit_h_min       -9
_diffrn_reflns_limit_h_max       7
_diffrn_reflns_limit_k_min       -11
_diffrn_reflns_limit_k_max       12
_diffrn_reflns_limit_l_min       -15
_diffrn_reflns_limit_l_max       14
_diffrn_reflns_theta_min         3.36
_diffrn_reflns_theta_max         26.36
_reflns_number_total             3596
_reflns_number_gt                1615
_reflns_threshold_expression     >2sigma(I)

_computing_data_collection       ?
_computing_cell_refinement       ?
_computing_data_reduction        ?
_computing_structure_solution    'SHELXS-97 (Sheldrick, 1990)'
_computing_structure_refinement  'SHELXL-97 (Sheldrick, 1997)'
_computing_molecular_graphics    ?
_computing_publication_material  ?

_refine_special_details          
;
Refinement of F^2^ against ALL reflections. The weighted R-factor wR and
goodness of fit S are based on F^2^, conventional R-factors R are based
on F, with F set to zero for negative F^2^. The threshold expression of
F^2^ > 2sigma(F^2^) is used only for calculating R-factors(gt) etc. and is
not relevant to the choice of reflections for refinement. R-factors based
on F^2^ are statistically about twice as large as those based on F, and R-
factors based on ALL data will be even larger.
;

_refine_ls_structure_factor_coef Fsqd
_refine_ls_matrix_type           full
_refine_ls_weighting_scheme      calc
_refine_ls_weighting_details     
'calc w=1/[\s^2^(Fo^2^)+(0.0645P)^2^+0.0000P] where P=(Fo^2^+2Fc^2^)/3'
_atom_sites_solution_primary     direct
_atom_sites_solution_secondary   difmap
_atom_sites_solution_hydrogens   geom
_refine_ls_hydrogen_treatment    constr
_refine_ls_extinction_method     none
_refine_ls_extinction_coef       ?
_refine_ls_number_reflns         3596
_refine_ls_number_parameters     211
_refine_ls_number_restraints     0
_refine_ls_R_factor_all          0.1561
_refine_ls_R_factor_gt           0.0811
_refine_ls_wR_factor_ref         0.2171
_refine_ls_wR_factor_gt          0.2057
_refine_ls_goodness_of_fit_ref   1.235
_refine_ls_restrained_S_all      1.235
_refine_ls_shift/su_max          0.000
_refine_ls_shift/su_mean         0.000

loop_
_atom_site_label
_atom_site_type_symbol
_atom_site_fract_x
_atom_site_fract_y
_atom_site_fract_z
_atom_site_U_iso_or_equiv
_atom_site_adp_type
_atom_site_occupancy
_atom_site_symmetry_multiplicity
_atom_site_calc_flag
_atom_site_refinement_flags
_atom_site_disorder_assembly
_atom_site_disorder_group
Mn1 Mn 0.01807(17) 0.72108(13) 0.53563(10) 0.0364(4) Uani 1 1 d . . .
O1 O -0.1287(8) 0.5997(6) -0.3522(4) 0.0518(15) Uani 1 1 d . . .
O2 O -0.1967(7) 0.3999(6) -0.4929(4) 0.0410(13) Uani 1 1 d . . .
O3 O -0.7781(7) -0.0431(5) -0.4753(4) 0.0422(14) Uani 1 1 d . . .
O4 O -0.7630(8) -0.1144(6) -0.3267(4) 0.0495(15) Uani 1 1 d . . .
O5 O -0.1764(9) 0.8327(7) 0.5704(5) 0.0596(17) Uani 1 1 d . . .
H5A H -0.1894 0.9164 0.5476 0.072 Uiso 1 1 d . . .
H5B H -0.2397 0.8097 0.6347 0.072 Uiso 1 1 d . . .
O101 O 0.4291(13) 0.1706(10) 0.2792(7) 0.118(3) Uiso 1 1 d . . .
O102 O 0.046(3) 0.831(3) 0.864(2) 0.067(7) Uiso 0.25 1 d P . .
O103 O 0.279(5) 1.031(4) 1.047(3) 0.112(11) Uiso 0.25 1 d P . .
N1 N -0.0817(9) 0.6587(8) 0.3550(5) 0.0423(16) Uani 1 1 d . . .
C1 C -0.2114(11) 0.4616(9) -0.3954(7) 0.0389(19) Uani 1 1 d . . .
C2 C -0.3328(10) 0.3684(8) -0.3299(6) 0.0346(18) Uani 1 1 d . . .
C3 C -0.4558(10) 0.2282(8) -0.3819(6) 0.0342(18) Uani 1 1 d . . .
H3A H -0.4653 0.1936 -0.4582 0.041 Uiso 1 1 calc R . .
C4 C -0.5695(10) 0.1340(8) -0.3220(6) 0.0361(18) Uani 1 1 d . . .
C5 C -0.7120(11) -0.0171(9) -0.3797(7) 0.0388(19) Uani 1 1 d . . .
C6 C -0.5578(11) 0.1908(8) -0.2090(6) 0.0388(19) Uani 1 1 d . . .
H6A H -0.6282 0.1294 -0.1679 0.047 Uiso 1 1 calc R . .
C7 C -0.4428(10) 0.3376(8) -0.1562(5) 0.0358(18) Uani 1 1 d . . .
C8 C -0.3299(11) 0.4252(9) -0.2171(6) 0.0389(19) Uani 1 1 d . . .
H8A H -0.2509 0.5234 -0.1822 0.047 Uiso 1 1 calc R . .
C9 C -0.4746(11) 0.3993(9) -0.0371(6) 0.0406(19) Uani 1 1 d . . .
H9A H -0.4799 0.3291 0.0064 0.049 Uiso 1 1 calc R . .
C10 C -0.3505(11) 0.5609(9) 0.0282(6) 0.0405(19) Uani 1 1 d . . .
H10A H -0.2682 0.6134 -0.0189 0.049 Uiso 1 1 calc R . .
C11 C -0.0117(12) 0.7435(9) 0.2897(6) 0.047(2) Uani 1 1 d . . .
H11A H 0.0933 0.8306 0.3176 0.057 Uiso 1 1 calc R . .
C12 C -0.0860(11) 0.7107(9) 0.1801(6) 0.046(2) Uani 1 1 d . . .
H12A H -0.0297 0.7736 0.1364 0.055 Uiso 1 1 calc R . .
C13 C -0.2439(11) 0.5837(9) 0.1380(6) 0.041(2) Uani 1 1 d . . .
C14 C -0.3125(12) 0.4917(9) 0.2043(6) 0.048(2) Uani 1 1 d . . .
H14A H -0.4142 0.4017 0.1779 0.058 Uiso 1 1 calc R . .
C15 C -0.2292(12) 0.5339(9) 0.3113(7) 0.049(2) Uani 1 1 d . . .
H15A H -0.2798 0.4706 0.3557 0.059 Uiso 1 1 calc R . .

loop_
_atom_site_aniso_label
_atom_site_aniso_U_11
_atom_site_aniso_U_22
_atom_site_aniso_U_33
_atom_site_aniso_U_23
_atom_site_aniso_U_13
_atom_site_aniso_U_12
Mn1 0.0363(7) 0.0337(7) 0.0310(6) 0.0050(5) -0.0002(5) 0.0071(5)
O1 0.059(4) 0.046(4) 0.051(3) 0.017(3) 0.016(3) 0.018(3)
O2 0.039(3) 0.055(4) 0.030(3) 0.015(3) 0.009(2) 0.016(3)
O3 0.044(3) 0.034(3) 0.036(3) 0.000(3) -0.008(3) 0.008(3)
O4 0.059(4) 0.037(3) 0.040(3) 0.009(3) -0.001(3) 0.006(3)
O5 0.068(4) 0.067(4) 0.067(4) 0.034(3) 0.022(3) 0.041(4)
N1 0.045(4) 0.050(4) 0.032(4) 0.012(3) -0.002(3) 0.019(4)
C1 0.033(5) 0.033(5) 0.048(5) 0.009(4) 0.003(4) 0.012(4)
C2 0.041(5) 0.034(4) 0.030(4) 0.008(3) 0.010(3) 0.014(4)
C3 0.040(5) 0.030(4) 0.025(4) -0.002(3) 0.004(3) 0.011(4)
C4 0.033(5) 0.034(4) 0.029(4) 0.000(3) 0.001(3) 0.005(4)
C5 0.039(5) 0.036(4) 0.037(5) 0.007(4) 0.008(4) 0.012(4)
C6 0.042(5) 0.033(4) 0.036(4) 0.012(4) 0.006(4) 0.006(4)
C7 0.041(5) 0.040(4) 0.023(4) 0.002(3) 0.002(3) 0.015(4)
C8 0.042(5) 0.034(4) 0.041(5) 0.012(4) 0.003(4) 0.014(4)
C9 0.038(5) 0.044(5) 0.032(4) 0.009(4) -0.001(3) 0.008(4)
C10 0.039(5) 0.046(5) 0.027(4) 0.008(4) 0.004(3) 0.009(4)
C11 0.046(5) 0.046(5) 0.042(5) 0.007(4) -0.011(4) 0.014(4)
C12 0.041(5) 0.040(5) 0.040(5) 0.008(4) -0.004(4) 0.000(4)
C13 0.048(5) 0.047(5) 0.030(4) 0.006(4) 0.006(4) 0.023(4)
C14 0.049(6) 0.041(5) 0.042(5) 0.017(4) -0.009(4) 0.000(4)
C15 0.045(6) 0.049(5) 0.047(5) 0.017(4) -0.002(4) 0.008(4)

_geom_special_details            
;
All esds (except the esd in the dihedral angle between two l.s. planes)
are estimated using the full covariance matrix. The cell esds are taken
into account individually in the estimation of esds in distances, angles
and torsion angles; correlations between esds in cell parameters are only
used when they are defined by crystal symmetry. An approximate (isotropic)
treatment of cell esds is used for estimating esds involving l.s. planes.
;

loop_
_geom_bond_atom_site_label_1
_geom_bond_atom_site_label_2
_geom_bond_distance
_geom_bond_site_symmetry_2
_geom_bond_publ_flag
Mn1 O1 2.158(5) 1_556 ?
Mn1 O2 2.165(5) 2_565 ?
Mn1 O5 2.196(6) . ?
Mn1 O4 2.248(5) 1_666 ?
Mn1 N1 2.250(6) . ?
Mn1 O3 2.342(5) 1_666 ?
O1 C1 1.255(9) . ?
O1 Mn1 2.158(5) 1_554 ?
O2 C1 1.261(8) . ?
O2 Mn1 2.165(5) 2_565 ?
O3 C5 1.230(9) . ?
O3 Mn1 2.342(5) 1_444 ?
O4 C5 1.259(9) . ?
O4 Mn1 2.248(5) 1_444 ?
O5 H5A 0.9854 . ?
O5 H5B 0.9889 . ?
N1 C11 1.307(10) . ?
N1 C15 1.328(10) . ?
C1 C2 1.484(10) . ?
C2 C3 1.357(10) . ?
C2 C8 1.393(10) . ?
C3 C4 1.414(10) . ?
C3 H3A 0.9300 . ?
C4 C6 1.386(10) . ?
C4 C5 1.494(10) . ?
C6 C7 1.386(10) . ?
C6 H6A 0.9300 . ?
C7 C8 1.384(10) . ?
C7 C9 1.541(10) . ?
C8 H8A 0.9300 . ?
C9 C10 1.543(10) . ?
C9 C10 1.564(11) 2_465 ?
C9 H9A 0.9800 . ?
C10 C13 1.525(10) . ?
C10 C9 1.564(11) 2_465 ?
C10 H10A 0.9800 . ?
C11 C12 1.401(10) . ?
C11 H11A 0.9300 . ?
C12 C13 1.379(11) . ?
C12 H12A 0.9300 . ?
C13 C14 1.363(10) . ?
C14 C15 1.381(11) . ?
C14 H14A 0.9300 . ?
C15 H15A 0.9300 . ?

loop_
_geom_angle_atom_site_label_1
_geom_angle_atom_site_label_2
_geom_angle_atom_site_label_3
_geom_angle
_geom_angle_site_symmetry_1
_geom_angle_site_symmetry_3
_geom_angle_publ_flag
O1 Mn1 O2 97.3(2) 1_556 2_565 ?
O1 Mn1 O5 82.6(2) 1_556 . ?
O2 Mn1 O5 176.3(2) 2_565 . ?
O1 Mn1 O4 91.2(2) 1_556 1_666 ?
O2 Mn1 O4 88.8(2) 2_565 1_666 ?
O5 Mn1 O4 94.9(2) . 1_666 ?
O1 Mn1 N1 123.4(2) 1_556 . ?
O2 Mn1 N1 88.2(2) 2_565 . ?
O5 Mn1 N1 88.8(2) . . ?
O4 Mn1 N1 145.4(2) 1_666 . ?
O1 Mn1 O3 143.4(2) 1_556 1_666 ?
O2 Mn1 O3 98.49(19) 2_565 1_666 ?
O5 Mn1 O3 83.7(2) . 1_666 ?
O4 Mn1 O3 56.54(19) 1_666 1_666 ?
N1 Mn1 O3 89.9(2) . 1_666 ?
C1 O1 Mn1 113.6(5) . 1_554 ?
C1 O2 Mn1 124.2(5) . 2_565 ?
C5 O3 Mn1 88.9(5) . 1_444 ?
C5 O4 Mn1 92.5(5) . 1_444 ?
Mn1 O5 H5A 132.4 . . ?
Mn1 O5 H5B 110.6 . . ?
H5A O5 H5B 115.0 . . ?
C11 N1 C15 116.2(7) . . ?
C11 N1 Mn1 124.1(6) . . ?
C15 N1 Mn1 119.5(5) . . ?
O1 C1 O2 122.3(7) . . ?
O1 C1 C2 118.6(7) . . ?
O2 C1 C2 119.1(7) . . ?
C3 C2 C8 119.5(7) . . ?
C3 C2 C1 119.3(7) . . ?
C8 C2 C1 121.1(7) . . ?
C2 C3 C4 121.0(6) . . ?
C2 C3 H3A 119.5 . . ?
C4 C3 H3A 119.5 . . ?
C6 C4 C3 118.2(7) . . ?
C6 C4 C5 120.4(6) . . ?
C3 C4 C5 121.1(6) . . ?
O3 C5 O4 121.8(7) . . ?
O3 C5 C4 120.2(7) . . ?
O4 C5 C4 118.0(7) . . ?
C7 C6 C4 121.2(7) . . ?
C7 C6 H6A 119.4 . . ?
C4 C6 H6A 119.4 . . ?
C8 C7 C6 118.9(6) . . ?
C8 C7 C9 124.0(7) . . ?
C6 C7 C9 116.3(6) . . ?
C7 C8 C2 120.9(7) . . ?
C7 C8 H8A 119.5 . . ?
C2 C8 H8A 119.5 . . ?
C7 C9 C10 119.6(6) . . ?
C7 C9 C10 114.1(6) . 2_465 ?
C10 C9 C10 90.6(6) . 2_465 ?
C7 C9 H9A 110.3 . . ?
C10 C9 H9A 110.3 . . ?
C10 C9 H9A 110.3 2_465 . ?
C13 C10 C9 118.1(6) . . ?
C13 C10 C9 115.2(6) . 2_465 ?
C9 C10 C9 89.4(6) . 2_465 ?
C13 C10 H10A 110.8 . . ?
C9 C10 H10A 110.8 . . ?
C9 C10 H10A 110.8 2_465 . ?
N1 C11 C12 123.7(8) . . ?
N1 C11 H11A 118.2 . . ?
C12 C11 H11A 118.2 . . ?
C13 C12 C11 119.0(7) . . ?
C13 C12 H12A 120.5 . . ?
C11 C12 H12A 120.5 . . ?
C14 C13 C12 117.3(7) . . ?
C14 C13 C10 121.7(7) . . ?
C12 C13 C10 120.3(7) . . ?
C13 C14 C15 119.2(8) . . ?
C13 C14 H14A 120.4 . . ?
C15 C14 H14A 120.4 . . ?
N1 C15 C14 124.4(7) . . ?
N1 C15 H15A 117.8 . . ?
C14 C15 H15A 117.8 . . ?

loop_
_geom_hbond_atom_site_label_D
_geom_hbond_atom_site_label_H
_geom_hbond_atom_site_label_A
_geom_hbond_distance_DH
_geom_hbond_distance_HA
_geom_hbond_distance_DA
_geom_hbond_angle_DHA
_geom_hbond_site_symmetry_A
O5 H5A O3 0.99 1.81 2.784(8) 167.4 2_465
O5 H5B O101 0.99 1.90 2.766(10) 145.0 2_566

_diffrn_measured_fraction_theta_max 0.994
_diffrn_reflns_theta_full        26.36
_diffrn_measured_fraction_theta_full 0.994
_refine_diff_density_max         0.987
_refine_diff_density_min         -0.445
_refine_diff_density_rms         0.124



