####################################################################### 
# 
# This file contains crystal structure data downloaded from the 
# Cambridge Structural Database (CSD) hosted by the Cambridge 
# Crystallographic Data Centre (CCDC).
# 
# Full information about CCDC data access policies and citation 
# guidelines are available at http://www.ccdc.cam.ac.uk/access/V1 
# 
# Audit and citation data items may have been added by the CCDC. 
# Please retain this information to preserve the provenance of 
# this file and to allow appropriate attribution of the data. 
# 
#######################################################################

data_pbca
_audit_block_doi                 10.5517/ccx4x86
_database_code_depnum_ccdc_archive 'CCDC 838868'
loop_
_citation_id
_citation_doi
_citation_year
1 10.1039/c1cc15053g 2011
_audit_update_record             
;
2011-08-11 deposited with the CCDC.	2024-07-13 downloaded from the CCDC.
;

_audit_creation_method           SHELXL-97
_chemical_name_systematic        
;
?
;
_chemical_name_common            ?
_chemical_melting_point          ?
_chemical_formula_moiety         'C36 H24 I6 N12 Zn3, C20 H14'
_chemical_formula_sum            'C56 H38 I6 N12 O0 Zn3'
_chemical_formula_weight         1836.56

loop_
_atom_type_symbol
_atom_type_description
_atom_type_scat_dispersion_real
_atom_type_scat_dispersion_imag
_atom_type_scat_source
C C 0.0033 0.0016 'International Tables Vol C Tables 4.2.6.8 and 6.1.1.4'
H H 0.0000 0.0000 'International Tables Vol C Tables 4.2.6.8 and 6.1.1.4'
N N 0.0061 0.0033 'International Tables Vol C Tables 4.2.6.8 and 6.1.1.4'
O O 0.0106 0.0060 'International Tables Vol C Tables 4.2.6.8 and 6.1.1.4'
Zn Zn 0.2839 1.4301 'International Tables Vol C Tables 4.2.6.8 and 6.1.1.4'
I I -0.4742 1.8119 'International Tables Vol C Tables 4.2.6.8 and 6.1.1.4'

_symmetry_cell_setting           Orthorhombic
_symmetry_space_group_name_H-M   Pbca
_symmetry_space_group_name_Hall  '-P 2ac 2ab '

loop_
_symmetry_equiv_pos_as_xyz
'x, y, z'
'-x+1/2, -y, z+1/2'
'-x, y+1/2, -z+1/2'
'x+1/2, -y+1/2, -z'
'-x, -y, -z'
'x-1/2, y, -z-1/2'
'x, -y-1/2, z-1/2'
'-x-1/2, y-1/2, z'

_cell_length_a                   27.574(3)
_cell_length_b                   13.8942(17)
_cell_length_c                   44.874(6)
_cell_angle_alpha                90.00
_cell_angle_beta                 90.00
_cell_angle_gamma                90.00
_cell_volume                     17192(4)
_cell_formula_units_Z            8
_cell_measurement_temperature    90(2)
_cell_measurement_reflns_used    ?
_cell_measurement_theta_min      ?
_cell_measurement_theta_max      ?

_exptl_crystal_description       prism
_exptl_crystal_colour            yellow
_exptl_crystal_size_max          0.20
_exptl_crystal_size_mid          0.14
_exptl_crystal_size_min          0.12
_exptl_crystal_density_meas      ?
_exptl_crystal_density_diffrn    1.419
_exptl_crystal_density_method    'not measured'
_exptl_crystal_F_000             7952
_exptl_absorpt_coefficient_mu    3.018
_exptl_absorpt_correction_type   empirical
_exptl_absorpt_correction_T_min  0.5822
_exptl_absorpt_correction_T_max  0.7123
_exptl_absorpt_process_details   SADABS

_exptl_special_details           
;
?
;

_diffrn_ambient_temperature      90(2)
_diffrn_radiation_wavelength     0.71073
_diffrn_radiation_type           MoK\a
_diffrn_radiation_source         'fine-focus sealed tube'
_diffrn_radiation_monochromator  graphite
_diffrn_measurement_device_type  'Bruker SMART CCD area detector system'
_diffrn_measurement_method       omega_scan
_diffrn_detector_area_resol_mean ?
_diffrn_standards_number         ?
_diffrn_standards_interval_count ?
_diffrn_standards_interval_time  ?
_diffrn_standards_decay_%        ?
_diffrn_reflns_number            171751
_diffrn_reflns_av_R_equivalents  0.0509
_diffrn_reflns_av_sigmaI/netI    0.0304
_diffrn_reflns_limit_h_min       -34
_diffrn_reflns_limit_h_max       34
_diffrn_reflns_limit_k_min       -17
_diffrn_reflns_limit_k_max       17
_diffrn_reflns_limit_l_min       -56
_diffrn_reflns_limit_l_max       56
_diffrn_reflns_theta_min         1.48
_diffrn_reflns_theta_max         26.37
_reflns_number_total             17586
_reflns_number_gt                14315
_reflns_threshold_expression     >2sigma(I)

_computing_data_collection       ?
_computing_cell_refinement       ?
_computing_data_reduction        ?
_computing_structure_solution    'SHELXS-97 (Sheldrick, 1990)'
_computing_structure_refinement  'SHELXL-97 (Sheldrick, 1997)'
_computing_molecular_graphics    ?
_computing_publication_material  ?

_refine_special_details          
;
Refinement of F^2^ against ALL reflections. The weighted R-factor wR and
goodness of fit S are based on F^2^, conventional R-factors R are based
on F, with F set to zero for negative F^2^. The threshold expression of
F^2^ > 2sigma(F^2^) is used only for calculating R-factors(gt) etc. and is
not relevant to the choice of reflections for refinement. R-factors based
on F^2^ are statistically about twice as large as those based on F, and R-
factors based on ALL data will be even larger.
;

_refine_ls_structure_factor_coef Fsqd
_refine_ls_matrix_type           full
_refine_ls_weighting_scheme      calc
_refine_ls_weighting_details     
'calc w=1/[\s^2^(Fo^2^)+(0.1247P)^2^+895.4056P] where P=(Fo^2^+2Fc^2^)/3'
_atom_sites_solution_primary     direct
_atom_sites_solution_secondary   difmap
_atom_sites_solution_hydrogens   geom
_refine_ls_hydrogen_treatment    constr
_refine_ls_extinction_method     none
_refine_ls_extinction_coef       ?
_refine_ls_number_reflns         17586
_refine_ls_number_parameters     877
_refine_ls_number_restraints     306
_refine_ls_R_factor_all          0.0939
_refine_ls_R_factor_gt           0.0804
_refine_ls_wR_factor_ref         0.2084
_refine_ls_wR_factor_gt          0.1978
_refine_ls_goodness_of_fit_ref   0.616
_refine_ls_restrained_S_all      0.614
_refine_ls_shift/su_max          0.002
_refine_ls_shift/su_mean         0.000

loop_
_atom_site_label
_atom_site_type_symbol
_atom_site_fract_x
_atom_site_fract_y
_atom_site_fract_z
_atom_site_U_iso_or_equiv
_atom_site_adp_type
_atom_site_occupancy
_atom_site_symmetry_multiplicity
_atom_site_calc_flag
_atom_site_refinement_flags
_atom_site_disorder_assembly
_atom_site_disorder_group
C1X C 0.8249(9) 0.7425(16) 0.8094(4) 0.050(5) Uani 0.514(13) 1 d PDU A 1
C2X C 0.8640(9) 0.754(2) 0.7873(5) 0.068(7) Uani 0.514(13) 1 d PDU A 1
H2X H 0.8961 0.7360 0.7924 0.081 Uiso 0.514(13) 1 calc PR A 1
C3X C 0.8548(9) 0.791(2) 0.7592(6) 0.069(8) Uani 0.514(13) 1 d PDU A 1
H3X H 0.8808 0.8078 0.7464 0.083 Uiso 0.514(13) 1 calc PR A 1
C4X C 0.8083(10) 0.803(3) 0.7504(6) 0.067(9) Uani 0.514(13) 1 d PDU A 1
H4X H 0.8019 0.8219 0.7304 0.080 Uiso 0.514(13) 1 calc PR A 1
C5X C 0.7704(9) 0.789(2) 0.7692(5) 0.052(7) Uani 0.514(13) 1 d PDU A 1
H5X H 0.7383 0.8001 0.7622 0.063 Uiso 0.514(13) 1 calc PR A 1
C6X C 0.7773(8) 0.7585(19) 0.7995(4) 0.048(6) Uani 0.514(13) 1 d PDU A 1
C7X C 0.7393(8) 0.7383(19) 0.8210(5) 0.063(7) Uani 0.514(13) 1 d PDU A 1
C8X C 0.6921(9) 0.7459(16) 0.8111(4) 0.045(5) Uani 0.514(13) 1 d PDU A 1
H8X H 0.6861 0.7625 0.7909 0.054 Uiso 0.514(13) 1 calc PR A 1
C9X C 0.6524(7) 0.7296(16) 0.8304(5) 0.058(6) Uani 0.514(13) 1 d PDU A 1
C10X C 0.6650(8) 0.6964(16) 0.8588(4) 0.041(5) Uani 0.514(13) 1 d PDU A 1
H10X H 0.6396 0.6761 0.8716 0.049 Uiso 0.514(13) 1 calc PR A 1
C11X C 0.7133(8) 0.6910(19) 0.8698(5) 0.069(7) Uani 0.514(13) 1 d PDU A 1
H11X H 0.7200 0.6748 0.8900 0.083 Uiso 0.514(13) 1 calc PR A 1
C12X C 0.7515(7) 0.7113(19) 0.8488(5) 0.058(6) Uani 0.514(13) 1 d PDU A 1
C13X C 0.8000(8) 0.7034(17) 0.8596(5) 0.060(6) Uani 0.514(13) 1 d PDU A 1
C14X C 0.8126(8) 0.6838(19) 0.8881(5) 0.062(7) Uani 0.514(13) 1 d PDU A 1
H14X H 0.7867 0.6798 0.9020 0.075 Uiso 0.514(13) 1 calc PR A 1
C15X C 0.8585(8) 0.6688(18) 0.8994(5) 0.064(7) Uani 0.514(13) 1 d PDU A 1
H15X H 0.8642 0.6520 0.9196 0.077 Uiso 0.514(13) 1 calc PR A 1
C16X C 0.8970(8) 0.6808(16) 0.8781(5) 0.063(6) Uani 0.514(13) 1 d PDU A 1
H16X H 0.9297 0.6700 0.8838 0.076 Uiso 0.514(13) 1 calc PR A 1
C17X C 0.8862(7) 0.7076(14) 0.8496(4) 0.054(5) Uani 0.514(13) 1 d PDU A 1
H17X H 0.9124 0.7217 0.8366 0.064 Uiso 0.514(13) 1 calc PR A 1
C18X C 0.8382(7) 0.7158(16) 0.8382(4) 0.055(6) Uani 0.514(13) 1 d PDU A 1
C19X C 0.6041(10) 0.741(3) 0.8175(8) 0.090(10) Uani 0.514(13) 1 d PDU A 1
H19X H 0.6014 0.7672 0.7980 0.107 Uiso 0.514(13) 1 calc PR A 1
C20X C 0.563(2) 0.717(6) 0.8323(16) 0.25(3) Uani 0.514(13) 1 d PDU A 1
H20A H 0.5651 0.6908 0.8519 0.300 Uiso 0.514(13) 1 calc PR A 1
H20B H 0.5324 0.7254 0.8231 0.300 Uiso 0.514(13) 1 calc PR A 1
C1Y C 0.8002(9) 0.7400(15) 0.8121(4) 0.042(5) Uani 0.486(13) 1 d PDU A 2
C2Y C 0.8434(9) 0.752(2) 0.7961(5) 0.060(7) Uani 0.486(13) 1 d PDU A 2
H2Y H 0.8744 0.7418 0.8048 0.072 Uiso 0.486(13) 1 calc PR A 2
C3Y C 0.8376(11) 0.779(2) 0.7662(5) 0.063(7) Uani 0.486(13) 1 d PDU A 2
H3Y H 0.8669 0.7855 0.7553 0.075 Uiso 0.486(13) 1 calc PR A 2
C4Y C 0.7954(9) 0.798(3) 0.7500(7) 0.060(9) Uani 0.486(13) 1 d PDU A 2
H4Y H 0.7953 0.8204 0.7299 0.071 Uiso 0.486(13) 1 calc PR A 2
C5Y C 0.7534(11) 0.781(3) 0.7666(5) 0.060(8) Uani 0.486(13) 1 d PDU A 2
H5Y H 0.7226 0.7879 0.7574 0.072 Uiso 0.486(13) 1 calc PR A 2
C6Y C 0.7563(8) 0.7544(16) 0.7966(4) 0.039(5) Uani 0.486(13) 1 d PDU A 2
C7Y C 0.7168(8) 0.7419(18) 0.8158(5) 0.048(6) Uani 0.486(13) 1 d PDU A 2
C8Y C 0.6702(9) 0.749(2) 0.8034(6) 0.069(8) Uani 0.486(13) 1 d PDU A 2
H8Y H 0.6669 0.7697 0.7833 0.083 Uiso 0.486(13) 1 calc PR A 2
C9Y C 0.6283(10) 0.728(2) 0.8198(6) 0.073(8) Uani 0.486(13) 1 d PDU A 2
H9Y H 0.5972 0.7307 0.8108 0.087 Uiso 0.486(13) 1 calc PR A 2
C10Y C 0.6337(11) 0.701(3) 0.8498(7) 0.110(13) Uani 0.486(13) 1 d PDU A 2
H10Y H 0.6054 0.6926 0.8616 0.132 Uiso 0.486(13) 1 calc PR A 2
C11Y C 0.6792(10) 0.688(4) 0.8631(8) 0.100(16) Uani 0.486(13) 1 d PDU A 2
H11Y H 0.6816 0.6628 0.8828 0.120 Uiso 0.486(13) 1 calc PR A 2
C12Y C 0.7211(8) 0.7107(14) 0.8470(5) 0.050(5) Uani 0.486(13) 1 d PDU A 2
C13Y C 0.7671(8) 0.702(2) 0.8603(5) 0.060(7) Uani 0.486(13) 1 d PDU A 2
C14Y C 0.7682(9) 0.680(2) 0.8907(5) 0.075(8) Uani 0.486(13) 1 d PDU A 2
H14Y H 0.7398 0.6713 0.9024 0.090 Uiso 0.486(13) 1 calc PR A 2
C15Y C 0.8153(8) 0.673(2) 0.9021(6) 0.064(7) Uani 0.486(13) 1 d PDU A 2
H15Y H 0.8192 0.6606 0.9227 0.077 Uiso 0.486(13) 1 calc PR A 2
C16Y C 0.8572(9) 0.683(2) 0.8846(5) 0.070(8) Uani 0.486(13) 1 d PDU A 2
C17Y C 0.8504(8) 0.7043(16) 0.8544(5) 0.051(6) Uani 0.486(13) 1 d PDU A 2
H17Y H 0.8779 0.7133 0.8420 0.062 Uiso 0.486(13) 1 calc PR A 2
C18Y C 0.8040(8) 0.7128(18) 0.8421(5) 0.059(6) Uani 0.486(13) 1 d PDU A 2
C19Y C 0.8980(9) 0.674(2) 0.9021(7) 0.086(9) Uani 0.486(13) 1 d PDU A 2
H19Y H 0.8961 0.6733 0.9233 0.103 Uiso 0.486(13) 1 calc PR A 2
C20Y C 0.9431(11) 0.665(2) 0.8870(8) 0.089(10) Uani 0.486(13) 1 d PDU A 2
H20C H 0.9440 0.6657 0.8659 0.107 Uiso 0.486(13) 1 calc PR A 2
H20D H 0.9723 0.6586 0.8981 0.107 Uiso 0.486(13) 1 calc PR A 2
C1 C 0.8222(3) -0.0377(5) 0.84945(19) 0.0294(17) Uani 1 1 d . . .
C2 C 0.8702(3) -0.0513(6) 0.86466(17) 0.0275(16) Uani 1 1 d . . .
C3 C 0.9133(3) -0.0496(8) 0.8482(2) 0.042(2) Uani 1 1 d . . .
H3 H 0.9133 -0.0384 0.8274 0.050 Uiso 1 1 calc R . .
C4 C 0.9554(3) -0.0650(7) 0.8637(2) 0.0372(19) Uani 1 1 d . . .
H4 H 0.9851 -0.0613 0.8530 0.045 Uiso 1 1 calc R . .
C5 C 0.9167(3) -0.0859(6) 0.9077(2) 0.0352(19) Uani 1 1 d . . .
H5 H 0.9173 -0.0974 0.9285 0.042 Uiso 1 1 calc R . .
C6 C 0.8723(3) -0.0708(6) 0.8943(2) 0.0355(19) Uani 1 1 d . . .
H6 H 0.8433 -0.0741 0.9057 0.043 Uiso 1 1 calc R . .
C7 C 0.7407(3) -0.0389(5) 0.85146(17) 0.0248(15) Uani 1 1 d . . .
C8 C 0.6948(3) -0.0580(6) 0.86770(18) 0.0285(16) Uani 1 1 d . . .
C9 C 0.6504(3) -0.0435(6) 0.8537(2) 0.039(2) Uani 1 1 d . . .
H9 H 0.6487 -0.0195 0.8339 0.046 Uiso 1 1 calc R . .
C10 C 0.6085(3) -0.0655(7) 0.8696(2) 0.040(2) Uani 1 1 d . . .
H10 H 0.5781 -0.0558 0.8601 0.048 Uiso 1 1 calc R . .
C11 C 0.6519(3) -0.1103(6) 0.91045(19) 0.0347(18) Uani 1 1 d . . .
H11 H 0.6523 -0.1328 0.9304 0.042 Uiso 1 1 calc R . .
C12 C 0.6962(3) -0.0913(6) 0.89679(19) 0.0313(17) Uani 1 1 d . . .
H12 H 0.7261 -0.1007 0.9070 0.038 Uiso 1 1 calc R . .
C13 C 0.7780(3) -0.0005(5) 0.80833(19) 0.0311(17) Uani 1 1 d . . .
C14 C 0.7753(3) 0.0281(5) 0.77653(17) 0.0293(17) Uani 1 1 d . . .
C15 C 0.8145(3) 0.0562(6) 0.7604(2) 0.0352(18) Uani 1 1 d . . .
H15 H 0.8458 0.0517 0.7691 0.042 Uiso 1 1 calc R . .
C16 C 0.8101(3) 0.0906(7) 0.7322(2) 0.039(2) Uani 1 1 d . . .
H16 H 0.8383 0.1102 0.7218 0.047 Uiso 1 1 calc R . .
C17 C 0.7280(3) 0.0655(6) 0.7328(2) 0.0355(19) Uani 1 1 d . . .
H17 H 0.6977 0.0647 0.7228 0.043 Uiso 1 1 calc R . .
C18 C 0.7298(3) 0.0321(5) 0.76197(19) 0.0297(17) Uani 1 1 d . . .
H18 H 0.7011 0.0124 0.7719 0.036 Uiso 1 1 calc R . .
C19 C 1.1014(4) 0.3016(6) 0.9381(2) 0.036(2) Uani 1 1 d . . .
C20 C 1.0877(3) 0.1998(6) 0.93235(18) 0.0296(17) Uani 1 1 d . . .
C21 C 1.0910(4) 0.1568(6) 0.9060(2) 0.039(2) Uani 1 1 d . . .
H21 H 1.1045 0.1909 0.8896 0.047 Uiso 1 1 calc R . .
C22 C 1.0752(3) 0.0648(7) 0.9020(2) 0.039(2) Uani 1 1 d . . .
H22 H 1.0803 0.0353 0.8831 0.047 Uiso 1 1 calc R . .
C23 C 1.0479(4) 0.0580(6) 0.94916(18) 0.044(2) Uani 1 1 d . . .
H23 H 1.0320 0.0236 0.9646 0.052 Uiso 1 1 calc R . .
C24 C 1.0639(4) 0.1474(6) 0.9548(2) 0.047(3) Uani 1 1 d . . .
H24 H 1.0591 0.1752 0.9739 0.056 Uiso 1 1 calc R . .
C25 C 1.0947(3) 0.4391(6) 0.96420(19) 0.0340(18) Uani 1 1 d . . .
C26 C 1.0784(3) 0.4911(6) 0.99121(17) 0.0290(17) Uani 1 1 d . . .
C27 C 1.0573(4) 0.4423(6) 1.0147(2) 0.038(2) Uani 1 1 d . . .
H27 H 1.0512 0.3752 1.0133 0.046 Uiso 1 1 calc R . .
C28 C 1.0450(4) 0.4921(7) 1.0406(2) 0.047(2) Uani 1 1 d . . .
H28 H 1.0314 0.4578 1.0569 0.056 Uiso 1 1 calc R . .
C29 C 1.0694(4) 0.6354(7) 1.0191(2) 0.042(2) Uani 1 1 d . . .
H29 H 1.0719 0.7035 1.0202 0.050 Uiso 1 1 calc R . .
C30 C 1.0837(4) 0.5897(7) 0.9931(2) 0.045(2) Uani 1 1 d . . .
H30 H 1.0968 0.6254 0.9769 0.054 Uiso 1 1 calc R . .
C31 C 1.1357(3) 0.4378(6) 0.9203(2) 0.038(2) Uani 1 1 d . . .
C32 C 1.1602(3) 0.4923(6) 0.89674(17) 0.0322(18) Uani 1 1 d . . .
C33 C 1.1594(4) 0.5918(6) 0.8962(2) 0.052(3) Uani 1 1 d . . .
H33 H 1.1431 0.6264 0.9115 0.062 Uiso 1 1 calc R . .
C34 C 1.1822(4) 0.6405(7) 0.8735(2) 0.047(2) Uani 1 1 d . . .
H34 H 1.1812 0.7088 0.8735 0.056 Uiso 1 1 calc R . .
C35 C 1.2048(4) 0.5011(7) 0.8512(2) 0.049(2) Uani 1 1 d . . .
H35 H 1.2189 0.4688 0.8346 0.059 Uiso 1 1 calc R . .
C36 C 1.1843(5) 0.4441(7) 0.8740(2) 0.055(3) Uani 1 1 d . . .
H36 H 1.1868 0.3759 0.8737 0.066 Uiso 1 1 calc R . .
I1 I 1.06187(3) 0.83002(5) 1.07709(2) 0.0702(3) Uani 1 1 d . . .
I2 I 0.97823(3) 0.57865(11) 1.11487(3) 0.1060(5) Uani 1 1 d . . .
I3 I 1.07515(3) -0.19941(6) 0.87601(2) 0.0675(2) Uani 1 1 d . . .
I4 I 1.00417(3) -0.19371(4) 0.964785(15) 0.04604(17) Uani 1 1 d . . .
I5 I 0.80588(3) 0.33247(5) 0.687779(17) 0.04905(18) Uani 1 1 d . . .
I6 I 0.66896(3) 0.18598(6) 0.666677(19) 0.0623(2) Uani 1 1 d . . .
N1 N 1.2058(3) 0.5959(5) 0.85112(16) 0.0394(18) Uani 1 1 d . . .
N2 N 1.0521(3) 0.5877(5) 1.04310(17) 0.0356(16) Uani 1 1 d . . .
N3 N 1.0534(3) 0.0154(5) 0.92270(15) 0.0325(15) Uani 1 1 d . . .
N4 N 1.1191(3) 0.4898(5) 0.94372(16) 0.0366(17) Uani 1 1 d . . .
N5 N 1.1298(3) 0.3437(5) 0.91701(17) 0.0394(17) Uani 1 1 d . . .
N6 N 1.0842(3) 0.3464(6) 0.96187(15) 0.0393(18) Uani 1 1 d . . .
N7 N 0.9576(3) -0.0852(5) 0.89350(17) 0.0356(16) Uani 1 1 d . . .
N8 N 0.6086(2) -0.0990(5) 0.89724(16) 0.0326(15) Uani 1 1 d . . .
N9 N 0.7657(3) 0.0978(5) 0.71855(15) 0.0310(15) Uani 1 1 d . . .
N10 N 0.7829(2) -0.0504(4) 0.86568(15) 0.0259(13) Uani 1 1 d . . .
N11 N 0.8225(2) -0.0138(5) 0.81963(14) 0.0277(14) Uani 1 1 d . . .
N12 N 0.7366(3) -0.0146(5) 0.82213(14) 0.0303(15) Uani 1 1 d . . .
Zn1 Zn 1.04587(4) 0.65183(8) 1.08412(3) 0.0406(3) Uani 1 1 d . . .
Zn2 Zn 1.02245(4) -0.11702(7) 0.91404(2) 0.0311(2) Uani 1 1 d . . .
Zn3 Zn 0.75854(4) 0.17576(7) 0.68001(2) 0.0351(2) Uani 1 1 d . . .

loop_
_atom_site_aniso_label
_atom_site_aniso_U_11
_atom_site_aniso_U_22
_atom_site_aniso_U_33
_atom_site_aniso_U_23
_atom_site_aniso_U_13
_atom_site_aniso_U_12
C1X 0.055(9) 0.038(8) 0.057(9) -0.021(7) 0.014(8) -0.003(8)
C2X 0.072(10) 0.059(10) 0.073(10) -0.011(8) -0.003(8) -0.006(8)
C3X 0.069(11) 0.057(10) 0.081(11) -0.014(8) 0.014(9) 0.003(8)
C4X 0.075(12) 0.056(12) 0.069(12) -0.012(8) 0.004(9) 0.004(9)
C5X 0.056(10) 0.041(9) 0.060(10) -0.004(7) -0.006(8) 0.002(8)
C6X 0.045(9) 0.046(9) 0.053(9) -0.007(7) -0.004(8) 0.000(8)
C7X 0.066(10) 0.049(9) 0.074(10) -0.010(8) -0.007(8) 0.001(8)
C8X 0.048(9) 0.037(8) 0.051(8) -0.012(7) -0.016(7) 0.008(8)
C9X 0.067(9) 0.040(8) 0.067(9) -0.014(7) -0.011(8) 0.014(7)
C10X 0.043(8) 0.035(8) 0.043(8) -0.021(6) -0.004(7) 0.005(7)
C11X 0.069(10) 0.063(10) 0.075(10) -0.006(8) -0.004(8) 0.011(8)
C12X 0.064(10) 0.048(9) 0.062(9) -0.006(8) -0.014(8) 0.002(8)
C13X 0.064(10) 0.046(9) 0.069(10) -0.015(8) -0.003(8) 0.003(8)
C14X 0.072(10) 0.046(9) 0.069(10) -0.011(8) -0.006(8) 0.002(8)
C15X 0.078(10) 0.045(9) 0.068(10) -0.009(8) -0.003(8) 0.006(8)
C16X 0.071(10) 0.046(9) 0.073(10) -0.011(8) -0.007(8) 0.002(8)
C17X 0.065(9) 0.029(7) 0.067(9) -0.016(7) 0.003(8) 0.004(7)
C18X 0.061(9) 0.046(8) 0.059(9) -0.014(8) 0.000(8) -0.007(7)
C19X 0.092(13) 0.085(12) 0.091(12) -0.011(9) -0.003(9) -0.006(9)
C20X 0.25(3) 0.25(3) 0.25(3) 0.0000(10) 0.0000(10) 0.0000(10)
C1Y 0.050(9) 0.026(7) 0.052(9) -0.018(7) 0.001(8) 0.007(7)
C2Y 0.061(10) 0.051(9) 0.067(10) -0.002(8) 0.009(8) -0.002(8)
C3Y 0.070(11) 0.048(10) 0.070(11) -0.005(8) 0.000(9) 0.001(8)
C4Y 0.064(11) 0.044(11) 0.071(12) -0.010(8) 0.004(9) -0.001(9)
C5Y 0.063(11) 0.055(11) 0.063(11) -0.009(8) -0.001(8) 0.008(9)
C6Y 0.039(9) 0.028(7) 0.050(9) -0.015(7) 0.001(7) 0.003(7)
C7Y 0.047(10) 0.040(8) 0.055(9) -0.019(7) -0.002(8) 0.007(8)
C8Y 0.070(11) 0.061(10) 0.075(11) -0.011(8) 0.000(9) -0.004(9)
C9Y 0.072(11) 0.065(11) 0.081(11) -0.015(9) -0.002(9) 0.007(9)
C10Y 0.116(15) 0.105(15) 0.108(15) -0.001(9) -0.002(10) 0.003(10)
C11Y 0.101(18) 0.095(18) 0.105(18) -0.0