####################################################################### 
# 
# This file contains crystal structure data downloaded from the 
# Cambridge Structural Database (CSD) hosted by the Cambridge 
# Crystallographic Data Centre (CCDC).
# 
# Full information about CCDC data access policies and citation 
# guidelines are available at http://www.ccdc.cam.ac.uk/access/V1 
# 
# Audit and citation data items may have been added by the CCDC. 
# Please retain this information to preserve the provenance of 
# this file and to allow appropriate attribution of the data. 
# 
#######################################################################

data_bght76a
_audit_block_doi                 10.5517/ccx17y3
_database_code_depnum_ccdc_archive 'CCDC 835355'
loop_
_citation_id
_citation_doi
_citation_year
1 10.1039/c1cc15594f 2011
_audit_update_record             
;
2011-07-19 deposited with the CCDC.	2024-07-13 downloaded from the CCDC.
;
#TrackingRef '- CIFinal.cif'


_audit_creation_method           SHELXL-97
_chemical_name_systematic        
;
?
;
_chemical_name_common            ?
_chemical_melting_point          ?
_chemical_formula_moiety         
'C34 H14 O16 Zn4, 3(C4 H9 N O), 3(C2 H6 O), 6(O)'
_chemical_formula_sum            'C52 H59 N3 O28 Zn4'
_chemical_formula_weight         1435.58

loop_
_atom_type_symbol
_atom_type_description
_atom_type_scat_dispersion_real
_atom_type_scat_dispersion_imag
_atom_type_scat_source
C C 0.0033 0.0016 'International Tables Vol C Tables 4.2.6.8 and 6.1.1.4'
H H 0.0000 0.0000 'International Tables Vol C Tables 4.2.6.8 and 6.1.1.4'
N N 0.0061 0.0033 'International Tables Vol C Tables 4.2.6.8 and 6.1.1.4'
O O 0.0106 0.0060 'International Tables Vol C Tables 4.2.6.8 and 6.1.1.4'
Zn Zn 0.2839 1.4301 'International Tables Vol C Tables 4.2.6.8 and 6.1.1.4'

_symmetry_cell_setting           Orthorhombic
_symmetry_space_group_name_H-M   'P n a 21'
_symmetry_space_group_name_Hall  'P 2c -2n'

loop_
_symmetry_equiv_pos_as_xyz
'x, y, z'
'-x, -y, z+1/2'
'x+1/2, -y+1/2, z'
'-x+1/2, y+1/2, z+1/2'

_cell_length_a                   21.312(3)
_cell_length_b                   11.2949(15)
_cell_length_c                   29.097(4)
_cell_angle_alpha                90.00
_cell_angle_beta                 90.00
_cell_angle_gamma                90.00
_cell_volume                     7004.1(17)
_cell_formula_units_Z            4
_cell_measurement_temperature    90(2)
_cell_measurement_reflns_used    ?
_cell_measurement_theta_min      ?
_cell_measurement_theta_max      ?

_exptl_crystal_description       block
_exptl_crystal_colour            colourless
_exptl_crystal_size_max          0.18
_exptl_crystal_size_mid          0.15
_exptl_crystal_size_min          0.09
_exptl_crystal_density_meas      ?
_exptl_crystal_density_diffrn    1.361
_exptl_crystal_density_method    'not measured'
_exptl_crystal_F_000             2944.0
_exptl_absorpt_coefficient_mu    1.430
_exptl_absorpt_correction_type   empirical
_exptl_absorpt_correction_T_min  0.773
_exptl_absorpt_correction_T_max  0.879
_exptl_absorpt_process_details   
'SADABS: Blessing, R. (1995), Acta Cryst., A51, 33'

_exptl_special_details           
;
?
;

_diffrn_ambient_temperature      90(2)
_diffrn_radiation_wavelength     0.71073
_diffrn_radiation_type           MoK\a
_diffrn_radiation_source         'fine-focus sealed tube'
_diffrn_radiation_monochromator  graphite
_diffrn_measurement_device_type  'CCD area detector'
_diffrn_measurement_method       'phi and omega scans'
_diffrn_detector_area_resol_mean ?
_diffrn_standards_number         ?
_diffrn_standards_interval_count ?
_diffrn_standards_interval_time  ?
_diffrn_standards_decay_%        ?
_diffrn_reflns_number            7027
_diffrn_reflns_av_R_equivalents  0.0373
_diffrn_reflns_av_sigmaI/netI    0.0027
_diffrn_reflns_limit_h_min       0
_diffrn_reflns_limit_h_max       26
_diffrn_reflns_limit_k_min       -3
_diffrn_reflns_limit_k_max       13
_diffrn_reflns_limit_l_min       0
_diffrn_reflns_limit_l_max       35
_diffrn_reflns_theta_min         1.40
_diffrn_reflns_theta_max         26.00
_reflns_number_total             7028
_reflns_number_gt                7023
_reflns_threshold_expression     >2\s(I)

_computing_data_collection       'Bruker SMART'
_computing_cell_refinement       'Bruker SMART'
_computing_data_reduction        'SHELXS97 (Sheldrick, 2008)'
_computing_structure_solution    'SHELXL97 (Sheldrick, 2008)'
_computing_structure_refinement  'SHELXL-97 (Sheldrick, 2008)'
_computing_molecular_graphics    'ORTEP-3 for Windows (Farrugia, 1999)'
_computing_publication_material  WinGX

_refine_special_details          
;
Refinement of F^2^ against ALL reflections. The weighted R-factor wR and
goodness of fit S are based on F^2^, conventional R-factors R are based
on F, with F set to zero for negative F^2^. The threshold expression of
F^2^ > 2\s(F^2^) is used only for calculating R-factors(gt) etc. and is
not relevant to the choice of reflections for refinement. R-factors based
on F^2^ are statistically about twice as large as those based on F, and R-
factors based on ALL data will be even larger.
;

_refine_ls_structure_factor_coef Fsqd
_refine_ls_matrix_type           fullcycle
_refine_ls_weighting_scheme      calc
_refine_ls_weighting_details     
'calc w=1/[\s^2^(Fo^2^)+(0.0604P)^2^+0.4896P] where P=(Fo^2^+2Fc^2^)/3'
_atom_sites_solution_primary     direct
_atom_sites_solution_secondary   difmap
_atom_sites_solution_hydrogens   geom
_refine_ls_hydrogen_treatment    mixed
_refine_ls_extinction_method     none
_refine_ls_extinction_coef       ?
_refine_ls_abs_structure_details 'Flack H D (1983), Acta Cryst. A39, 876-881'
_refine_ls_abs_structure_Flack   -0.001(8)
_refine_ls_number_reflns         7024
_refine_ls_number_parameters     796
_refine_ls_number_restraints     23
_refine_ls_R_factor_all          0.0215
_refine_ls_R_factor_gt           0.0215
_refine_ls_wR_factor_ref         0.0723
_refine_ls_wR_factor_gt          0.0723
_refine_ls_goodness_of_fit_ref   1.122
_refine_ls_restrained_S_all      1.220
_refine_ls_shift/su_max          7.071
_refine_ls_shift/su_mean         0.872

loop_
_atom_site_label
_atom_site_type_symbol
_atom_site_fract_x
_atom_site_fract_y
_atom_site_fract_z
_atom_site_U_iso_or_equiv
_atom_site_adp_type
_atom_site_occupancy
_atom_site_symmetry_multiplicity
_atom_site_calc_flag
_atom_site_refinement_flags
_atom_site_disorder_assembly
_atom_site_disorder_group
Zn1 Zn 0.16450(3) 0.38376(4) 0.32562(14) 0.02681(15) Uani 1 1 d . . .
Zn2 Zn 0.09925(2) 0.24182(4) 0.24062(13) 0.02688(14) Uani 1 1 d . . .
Zn3 Zn 0.10486(2) 0.51473(4) 0.23911(14) 0.02964(15) Uani 1 1 d . . .
Zn4 Zn 0.01585(3) 0.34597(6) 0.31439(14) 0.04057(16) Uani 1 1 d . . .
O1 O 0.09147(15) 0.3779(2) 0.28064(19) 0.0257(6) Uani 1 1 d . . .
O2 O 0.1036(2) 0.3668(4) 0.3855(2) 0.0522(11) Uani 1 1 d . . .
O3 O 0.0254(3) 0.2476(5) 0.3694(2) 0.0679(14) Uani 1 1 d . . .
O4 O -0.01632(14) -0.1898(3) 0.71856(19) 0.0349(7) Uani 1 1 d . . .
O5 O 0.04327(18) -0.2466(4) 0.77767(18) 0.0476(10) Uani 1 1 d . . .
O6 O 0.2326(2) 0.3749(4) 0.2777(2) 0.0456(10) Uani 1 1 d . . .
O7 O 0.19975(15) 0.5037(3) 0.22339(18) 0.0334(7) Uani 1 1 d . . .
O8 O 0.14349(18) 0.2643(4) 0.18156(19) 0.0443(9) Uani 1 1 d . . .
O9 O 0.09676(19) 0.4465(4) 0.17256(18) 0.0473(9) Uani 1 1 d . . .
O10 O 0.16321(18) 0.5637(3) 0.33482(19) 0.0381(8) Uani 1 1 d . . .
O11 O 0.12062(18) 0.6621(3) 0.27549(19) 0.0374(8) Uani 1 1 d . . .
O12 O 0.1679(2) 0.1950(3) 0.3318(2) 0.0481(10) Uani 1 1 d . . .
O13 O 0.13007(17) 0.0967(3) 0.26998(17) 0.0300(7) Uani 1 1 d . . .
O14 O 0.2354(3) 0.3855(4) 0.3762(3) 0.0644(15) Uani 1 1 d . . .
O15 O 0.0158(2) 0.5836(4) 0.2281(2) 0.0560(11) Uani 1 1 d . . .
O16 O -0.0342(3) 0.4805(6) 0.3378(3) 0.0798(16) Uani 1 1 d . . .
C1 C 0.0707(3) 0.2823(6) 0.3947(2) 0.0536(15) Uani 1 1 d . . .
C2 C 0.0850(3) 0.2183(5) 0.4394(3) 0.0475(12) Uani 1 1 d . . .
C3 C 0.0393(4) 0.1354(10) 0.4564(3) 0.088(3) Uani 1 1 d . . .
H3 H 0.0025 0.1206 0.4402 0.106 Uiso 1 1 calc R . .
C4 C 0.0520(4) 0.0770(9) 0.4985(3) 0.084(3) Uani 1 1 d . . .
H4 H 0.0223 0.0253 0.5106 0.101 Uiso 1 1 calc R . .
C5 C 0.1089(4) 0.0957(8) 0.5225(3) 0.0601(17) Uani 1 1 d . . .
C6 C 0.1497(4) 0.1727(10) 0.5029(3) 0.077(3) Uani 1 1 d . . .
H6 H 0.1883 0.1834 0.5172 0.092 Uiso 1 1 calc R . .
C7 C 0.1377(3) 0.2395(7) 0.4614(3) 0.0608(17) Uani 1 1 d . . .
H7 H 0.1662 0.2954 0.4507 0.073 Uiso 1 1 calc R . .
C8 C 0.1152(4) 0.0498(6) 0.5682(3) 0.065(2) Uani 1 1 d . . .
C9 C 0.1249(4) 0.0109(6) 0.6035(3) 0.0563(15) Uani 1 1 d . . .
C10 C 0.1340(3) -0.0449(6) 0.6494(2) 0.0500(14) Uani 1 1 d . . .
C11 C 0.0855(2) -0.0911(6) 0.6714(2) 0.0479(13) Uani 1 1 d . . .
H11 H 0.0463 -0.0895 0.6574 0.057 Uiso 1 1 calc R . .
C12 C 0.0912(2) -0.1428(5) 0.7155(2) 0.0374(10) Uani 1 1 d . . .
C13 C 0.1488(2) -0.1364(5) 0.7397(3) 0.0381(10) Uani 1 1 d . . .
H13 H 0.1540 -0.1718 0.7683 0.046 Uiso 1 1 calc R . .
C14 C 0.1983(2) -0.0733(4) 0.7180(2) 0.0328(9) Uani 1 1 d . . .
C15 C 0.1906(3) -0.0240(6) 0.6726(2) 0.0491(13) Uani 1 1 d . . .
H15 H 0.2223 0.0205 0.6591 0.059 Uiso 1 1 calc R . .
C16 C 0.0341(2) -0.1953(4) 0.7379(2) 0.0349(9) Uani 1 1 d . . .
C17 C 0.24031(19) 0.4344(4) 0.2418(2) 0.0326(9) Uani 1 1 d . . .
C18 C 0.1326(3) 0.3624(5) 0.1593(2) 0.0397(11) Uani 1 1 d . . .
C19 C 0.1589(2) 0.3672(5) 0.1131(2) 0.0340(10) Uani 1 1 d . . .
C20 C 0.1864(5) 0.2744(7) 0.0930(3) 0.073(2) Uani 1 1 d . . .
H20 H 0.1881 0.2032 0.1090 0.088 Uiso 1 1 calc R . .
C21 C 0.2120(3) 0.2791(6) 0.0504(2) 0.0528(14) Uani 1 1 d . . .
H21 H 0.2227 0.2087 0.0358 0.063 Uiso 1 1 calc R . .
C22 C 0.2221(5) 0.3789(5) 0.0292(3) 0.065(2) Uani 1 1 d . . .
C23 C 0.1909(6) 0.4811(6) 0.0479(3) 0.092(4) Uani 1 1 d . . .
H23 H 0.1880 0.5507 0.0309 0.110 Uiso 1 1 calc R . .
C24 C 0.1654(3) 0.4745(6) 0.0915(3) 0.0475(13) Uani 1 1 d . . .
H24 H 0.1525 0.5433 0.1063 0.057 Uiso 1 1 calc R . .
C25 C 0.2511(4) 0.3878(6) -0.0148(3) 0.064(2) Uani 1 1 d . . .
C26 C 0.2689(4) 0.3865(5) -0.0537(3) 0.0586(19) Uani 1 1 d . . .
C27 C 0.2043(4) 0.8820(5) 0.4001(3) 0.0559(18) Uani 1 1 d . . .
C28 C 0.1899(3) 0.7784(4) 0.3789(2) 0.0398(12) Uani 1 1 d . . .
H28 H 0.1970 0.7073 0.3941 0.048 Uiso 1 1 calc R . .
C29 C 0.1654(2) 0.7766(4) 0.3359(2) 0.0325(10) Uani 1 1 d . . .
C30 C 0.1527(3) 0.8834(4) 0.3132(3) 0.0370(12) Uani 1 1 d . . .
H30 H 0.1349 0.8811 0.2841 0.044 Uiso 1 1 calc R . .
C31 C 0.1659(2) -0.0076(4) 0.3329(2) 0.0341(10) Uani 1 1 d . . .
C32 C 0.1913(3) 0.9889(4) 0.3774(2) 0.0358(11) Uani 1 1 d . . .
H32 H 0.1998 1.0599 0.3924 0.043 Uiso 1 1 calc R . .
C33 C 0.1479(2) 0.6578(4) 0.3134(2) 0.0339(10) Uani 1 1 d . . .
C34 C 0.1565(2) 0.0984(5) 0.3105(3) 0.0345(11) Uani 1 1 d . . .
O1A O -0.0240(5) 0.6964(5) 0.3045(3) 0.111(3) Uani 1 1 d . . .
N1A N -0.0109(18) 0.910(3) 0.3135(12) 0.266(17) Uani 1 1 d D . .
C1A C -0.0031(11) 0.807(3) 0.3394(9) 0.27(2) Uani 1 1 d D . .
C2A C -0.0132(9) 0.915(2) 0.2673(11) 0.192(10) Uani 1 1 d D . .
H2A1 H -0.0188 0.9963 0.2580 0.287 Uiso 1 1 calc R . .
H2A2 H -0.0476 0.8687 0.2563 0.287 Uiso 1 1 calc R . .
H2A3 H 0.0253 0.8856 0.2547 0.287 Uiso 1 1 calc R . .
C3A C 0.0128(16) 0.780(3) 0.3860(7) 0.218(14) Uani 1 1 d D . .
H3A1 H 0.0135 0.6958 0.3902 0.327 Uiso 1 1 calc R . .
H3A2 H -0.0179 0.8144 0.4062 0.327 Uiso 1 1 calc R . .
H3A3 H 0.0534 0.8121 0.3930 0.327 Uiso 1 1 calc R . .
C4A C -0.001(2) 1.013(3) 0.3415(15) 0.38(4) Uani 1 1 d D . .
H4A1 H -0.0005 0.9907 0.3734 0.571 Uiso 1 1 calc R . .
H4A2 H -0.0334 1.0694 0.3361 0.571 Uiso 1 1 calc R . .
H4A3 H 0.0392 1.0477 0.3338 0.571 Uiso 1 1 calc R . .
C7A C 0.353(4) 0.524(4) 0.364(3) 0.27(3) Uani 1 1 d D . .
H7A1 H 0.3670 0.4882 0.3923 0.404 Uiso 1 1 calc R . .
H7A2 H 0.3843 0.5144 0.3409 0.404 Uiso 1 1 calc R . .
H7A3 H 0.3147 0.4863 0.3544 0.404 Uiso 1 1 calc R . .
N6A N 0.1114(17) 0.854(4) 0.1536(12) 0.232(13) Uani 1 1 d D . .
C21A C 0.0651(14) 0.913(5) 0.1808(19) 0.44(4) Uani 1 1 d . . .
H21A H 0.0392 0.9615 0.1613 0.661 Uiso 1 1 calc R . .
H21B H 0.0855 0.9627 0.2032 0.661 Uiso 1 1 calc R . .
H21C H 0.0395 0.8558 0.1963 0.661 Uiso 1 1 calc R . .
C22A C 0.1569(19) 0.773(2) 0.1621(16) 0.263(18) Uani 1 1 d . . .
H22A H 0.1440 0.7227 0.1868 0.394 Uiso 1 1 calc R . .
H22B H 0.1949 0.8134 0.1704 0.394 Uiso 1 1 calc R . .
H22C H 0.1640 0.7268 0.1350 0.394 Uiso 1 1 calc R . .
C3S C -0.0460(13) 0.671(5) 0.5236(14) 0.39(6) Uani 1 1 d D . .
H3S1 H -0.0845 0.6481 0.5389 0.468 Uiso 1 1 calc R . .
H3S2 H -0.0568 0.7266 0.4993 0.468 Uiso 1 1 calc R . .
C1S C -0.114(2) 0.353(2) 0.4116(19) 0.48(6) Uani 1 1 d D . .
H1S1 H -0.0837 0.3045 0.3951 0.570 Uiso 1 1 calc R . .
H1S2 H -0.1491 0.3651 0.3911 0.570 Uiso 1 1 calc R . .
O5A O 0.2453(15) 0.5251(18) 0.4508(7) 0.293(16) Uani 1 1 d D . .
O3A O 0.9152(13) 0.433(3) 0.1804(19) 0.42(4) Uani 1 1 d D . .
O21W O 0.1317(4) 0.6611(8) 0.5065(3) 0.097(2) Uani 1 1 d . . .
O22W O 0.0638(4) 0.3200(8) 0.6105(3) 0.101(2) Uani 1 1 d . . .
O23W O 0.1278(4) 0.4382(8) 0.5529(3) 0.101(2) Uani 1 1 d . . .
C2S C -0.0865(15) 0.461(3) 0.4184(13) 0.221(11) Uani 1 1 d D . .
H2S1 H -0.0575 0.4767 0.3939 0.331 Uiso 1 1 calc R . .
H2S2 H -0.0645 0.4609 0.4472 0.331 Uiso 1 1 calc R . .
H2S3 H -0.1183 0.5211 0.4188 0.331 Uiso 1 1 calc R . .
O7W O 0.250(2) 0.459(3) 0.5371(16) 0.39(3) Uani 1 1 d D . .
O8W O 0.211(3) 0.316(3) 0.6215(9) 0.42(4) Uani 1 1 d . . .
O1S O -0.137(2) 0.282(3) 0.450(2) 0.50(4) Uani 1 1 d D . .
C23A C 0.121(2) 0.931(4) 0.1171(18) 0.28(2) Uani 1 1 d D . .
C4S C -0.019(3) 0.577(5) 0.505(3) 0.61(7) Uani 1 1 d D . .
H4S1 H -0.0473 0.5400 0.4841 0.922 Uiso 1 1 calc R . .
H4S2 H -0.0087 0.5215 0.5294 0.922 Uiso 1 1 calc R . .
H4S3 H 0.0187 0.5998 0.4897 0.922 Uiso 1 1 calc R . .
C8A C 0.372(4) 0.676(9) 0.413(3) 0.35(5) Uani 1 1 d D . .
H8A1 H 0.3813 0.6058 0.4301 0.525 Uiso 1 1 calc R . .
H8A2 H 0.3459 0.7275 0.4305 0.525 Uiso 1 1 calc R . .
H8A3 H 0.4110 0.7163 0.4057 0.525 Uiso 1 1 calc R . .
C10A C 0.8181(11) 0.4142(13) 0.2084(8) 0.167(8) Uani 1 1 d . . .
H10A H 0.7755 0.3900 0.2032 0.251 Uiso 1 1 calc R . .
H10B H 0.8187 0.4950 0.2187 0.251 Uiso 1 1 calc R . .
H10C H 0.8366 0.3645 0.2315 0.251 Uiso 1 1 calc R . .
O6A O 0.092(2) 0.866(4) 0.0712(14) 0.40(3) Uani 1 1 d . . .
O2A O 0.344(2) 0.819(6) 0.3554(18) 0.35(3) Uani 1 1 d D . .
C24A C 0.085(5) 1.036(8) 0.120(3) 0.62(12) Uani 1 1 d D . .
H24A H 0.0949 1.0866 0.0948 0.937 Uiso 1 1 calc R . .
H24B H 0.0952 1.0757 0.1486 0.937 Uiso 1 1 calc R . .
H24C H 0.0414 1.0164 0.1199 0.937 Uiso 1 1 calc R . .
O4S O -0.007(2) 0.726(4) 0.5543(16) 0.43(5) Uani 1 1 d D . .
C9A C 0.859(2) 0.402(3) 0.160(2) 0.44(5) Uani 1 1 d D . .
H9A1 H 0.8592 0.3222 0.1475 0.531 Uiso 1 1 calc R . .
H9A2 H 0.8456 0.4579 0.1363 0.531 Uiso 1 1 calc R . .
C6A C 0.303(6) 0.689(15) 0.287(3) 0.69(11) Uani 1 1 d D . .
H6A1 H 0.2936 0.7619 0.2712 1.040 Uiso 1 1 calc R . .
H6A2 H 0.2658 0.6397 0.2867 1.040 Uiso 1 1 calc R . .
H6A3 H 0.3363 0.6488 0.2716 1.040 Uiso 1 1 calc R . .
N2A N 0.342(3) 0.645(5) 0.372(3) 0.47(8) Uani 1 1 d D . .
H3S H 0.927(5) 0.483(10) 0.208(3) 0.02(2) Uiso 1 1 d . . .
H2S H 0.013(3) 0.686(7) 0.585(2) 0.06(2) Uiso 1 1 d D . .
H1S H -0.111(3) 0.321(8) 0.4726(17) 0.057(19) Uiso 1 1 d D . .
C5A C 0.321(11) 0.714(6) 0.335(4) 1.18(19) Uani 1 1 d D . .

loop_
_atom_site_aniso_label
_atom_site_aniso_U_11
_atom_site_aniso_U_22
_atom_site_aniso_U_33
_atom_site_aniso_U_23
_atom_site_aniso_U_13
_atom_site_aniso_U_12
Zn1 0.0363(3) 0.0164(3) 0.0278(3) 0.00126(17) -0.0063(2) -0.00454(15)
Zn2 0.0385(3) 0.0216(2) 0.0206(2) 0.00000(19) 0.0015(2) -0.00281(16)
Zn3 0.0325(2) 0.0241(2) 0.0323(3) -0.0043(2) -0.0087(2) 0.00127(16)
Zn4 0.0473(3) 0.0409(3) 0.0335(3) -0.0046(3) 0.0007(2) -0.0061(2)
O1 0.0249(14) 0.0193(14) 0.0330(17) 0.0027(10) -0.0052(13) 0.0053(10)
O2 0.061(3) 0.064(3) 0.032(2) 0.0082(18) -0.0044(18) -0.0070(19)
O3 0.087(3) 0.081(3) 0.036(2) 0.015(2) -0.001(2) -0.011(3)
O4 0.0278(14) 0.0388(17) 0.0383(19) 0.0000(15) -0.0073(13) -0.0057(12)
O5 0.0401(18) 0.077(3) 0.0256(16) 0.0193(18) 0.0041(14) -0.0148(17)
O6 0.045(2) 0.054(2) 0.037(2) 0.0155(16) -0.0012(18) 0.0161(16)
O7 0.0279(14) 0.0360(17) 0.0363(16) 0.0049(13) 0.0061(13) -0.0051(12)
O8 0.0402(18) 0.064(2) 0.0286(17) 0.0113(16) 0.0138(15) 0.0032(17)
O9 0.053(2) 0.065(2) 0.0247(16) 0.0020(17) 0.0022(14) 0.0248(19)
O10 0.064(2) 0.0167(15) 0.0338(18) -0.0034(13) -0.0239(15) -0.0035(13)
O11 0.0443(18) 0.0197(15) 0.048(2) -0.0025(14) -0.0101(16) -0.0008(13)
O12 0.077(2) 0.0066(13) 0.061(3) 0.0041(16) -0.023(2) -0.0074(13)
O13 0.0520(19) 0.0201(12) 0.0179(14) -0.0046(11) -0.0106(13) -0.0003(13)
O14 0.061(3) 0.061(3) 0.071(4) 0.012(2) -0.033(3) 0.003(2)
O15 0.056(2) 0.050(2) 0.062(3) -0.013(2) -0.009(2) 0.0263(19)
O16 0.081(3) 0.081(4) 0.078(4) 0.001(3) 0.027(3) 0.012(3)
C1 0.047(3) 0.072(4) 0.041(3) -0.014(3) -0.011(2) -0.012(3)
C2 0.051(3) 0.040(2) 0.052(3) 0.006(2) -0.002(3) -0.002(2)
C3 0.070(5) 0.153(8) 0.041(4) 0.043(4) -0.028(3) -0.067(5)
C4 0.070(4) 0.106(7) 0.077(5) 0.062(5) 0.031(4) 0.001(4)
C5 0.068(4) 0.073(4) 0.039(3) 0.029(3) 0.006(3) -0.005(3)
C6 0.059(4) 0.136(8) 0.035(3) 0.019(4) -0.005(3) 0.010(5)
C7 0.053(3) 0.078(5) 0.052(4) 0.013(3) 0.007(3) -0.006(3)
C8 0.121(6) 0.038(3) 0.038(3) -0.003(3) 0.030(4) -0.004(3)
C9 0.068(4) 0.057(3) 0.044(4) 0.016(3) -0.010(3) 0.006(3)
C10 0.043(3) 0.076(4) 0.031(2) 0.030(3) 0.012(2) 0.001(3)
C11 0.027(2) 0.072(3) 0.044(3) 0.023(3) -0.015(2) -0.015(2)
C12 0.039(2) 0.034(2) 0.039(3) 0.009(2) -0.004(2) -0.008(2)
C13 0.0222(18) 0.044(2) 0.048(3) 0.005(2) -0.00