####################################################################### 
# 
# This file contains crystal structure data downloaded from the 
# Cambridge Structural Database (CSD) hosted by the Cambridge 
# Crystallographic Data Centre (CCDC).
# 
# Full information about CCDC data access policies and citation 
# guidelines are available at http://www.ccdc.cam.ac.uk/access/V1 
# 
# Audit and citation data items may have been added by the CCDC. 
# Please retain this information to preserve the provenance of 
# this file and to allow appropriate attribution of the data. 
# 
#######################################################################

data_1
_audit_block_doi                 10.5517/ccw428b
_database_code_depnum_ccdc_archive 'CCDC 808271'
_audit_update_record             
;
2011-01-15 deposited with the CCDC.	2024-07-13 downloaded from the CCDC.
;
_publ_requested_joiurnal         'to be submitted'

#============================================================

_audit_creation_method           SHELXL-97
_chemical_name_systematic        
;
?
;
_chemical_name_common            ?
_chemical_melting_point          ?
_chemical_formula_moiety         'C16 H14 Cd N4 O3'
_chemical_formula_sum            'C16 H14 Cd N4 O3'
_chemical_formula_weight         422.71

loop_
_atom_type_symbol
_atom_type_description
_atom_type_scat_dispersion_real
_atom_type_scat_dispersion_imag
_atom_type_scat_source
C C 0.0033 0.0016 'International Tables Vol C Tables 4.2.6.8 and 6.1.1.4'
H H 0.0000 0.0000 'International Tables Vol C Tables 4.2.6.8 and 6.1.1.4'
Cd Cd -0.8075 1.2024 'International Tables Vol C Tables 4.2.6.8 and 6.1.1.4'
N N 0.0061 0.0033 'International Tables Vol C Tables 4.2.6.8 and 6.1.1.4'
O O 0.0106 0.0060 'International Tables Vol C Tables 4.2.6.8 and 6.1.1.4'

_symmetry_cell_setting           Monoclinic
_symmetry_space_group_name_H-M   'P 21/c'
_symmetry_space_group_name_Hall  '-P 2ybc '

loop_
_symmetry_equiv_pos_as_xyz
'x, y, z'
'-x, y+1/2, -z+1/2'
'-x, -y, -z'
'x, -y-1/2, z-1/2'

_cell_length_a                   11.601(2)
_cell_length_b                   19.881(4)
_cell_length_c                   8.6741(17)
_cell_angle_alpha                90.00
_cell_angle_beta                 92.10(3)
_cell_angle_gamma                90.00
_cell_volume                     1999.2(7)
_cell_formula_units_Z            4
_cell_measurement_temperature    293(2)
_cell_measurement_reflns_used    5300
_cell_measurement_theta_min      1.26
_cell_measurement_theta_max      28.00

_exptl_crystal_description       block
_exptl_crystal_colour            colorless
_exptl_crystal_size_max          0.32
_exptl_crystal_size_mid          0.28
_exptl_crystal_size_min          0.21
_exptl_crystal_density_meas      ?
_exptl_crystal_density_diffrn    1.404
_exptl_crystal_density_method    'not measured'
_exptl_crystal_F_000             840
_exptl_absorpt_coefficient_mu    1.110
_exptl_absorpt_correction_type   multi-scan
_exptl_absorpt_correction_T_min  0.720
_exptl_absorpt_correction_T_max  0.804
_exptl_absorpt_process_details   '(Jacobson, 1998)'

_exptl_special_details           
;
?
;

_diffrn_ambient_temperature      293(2)
_diffrn_radiation_wavelength     0.71073
_diffrn_radiation_type           MoK\a
_diffrn_radiation_source         'fine-focus sealed tube'
_diffrn_radiation_monochromator  graphite
_diffrn_measurement_device_type  'Rigaku/MSC Mercury CCD'
_diffrn_measurement_method       \w
_diffrn_detector_area_resol_mean ?
_diffrn_standards_number         0
_diffrn_standards_interval_count ?
_diffrn_standards_interval_time  ?
_diffrn_standards_decay_%        ?
_diffrn_reflns_number            15652
_diffrn_reflns_av_R_equivalents  0.1180
_diffrn_reflns_av_sigmaI/netI    0.1085
_diffrn_reflns_limit_h_min       -12
_diffrn_reflns_limit_h_max       13
_diffrn_reflns_limit_k_min       -23
_diffrn_reflns_limit_k_max       23
_diffrn_reflns_limit_l_min       -10
_diffrn_reflns_limit_l_max       10
_diffrn_reflns_theta_min         3.06
_diffrn_reflns_theta_max         25.20
_reflns_number_total             3598
_reflns_number_gt                2133
_reflns_threshold_expression     >2sigma(I)

_computing_data_collection       'RAPID-AUTO (Rigaku, 1998)'
_computing_cell_refinement       RAPID-AUTO
_computing_data_reduction        'CrystalStructure (Rigaku/MSC, 2002)'
_computing_structure_solution    'SHELXS-97 (Sheldrick, 2008)'
_computing_structure_refinement  'SHELXL-97 (Sheldrick, 2008)'
_computing_molecular_graphics    'ORTEPII (Johnson, 1976)'
_computing_publication_material  SHELXL97

_refine_special_details          
;
Refinement of F^2^ against ALL reflections. The weighted R-factor wR and
goodness of fit S are based on F^2^, conventional R-factors R are based
on F, with F set to zero for negative F^2^. The threshold expression of
F^2^ > 2sigma(F^2^) is used only for calculating R-factors(gt) etc. and is
not relevant to the choice of reflections for refinement. R-factors based
on F^2^ are statistically about twice as large as those based on F, and R-
factors based on ALL data will be even larger.
;

_refine_ls_structure_factor_coef Fsqd
_refine_ls_matrix_type           full
_refine_ls_weighting_scheme      calc
_refine_ls_weighting_details     
'calc w=1/[\s^2^(Fo^2^)+(0.0831P)^2^+1.6463P] where P=(Fo^2^+2Fc^2^)/3'
_atom_sites_solution_primary     direct
_atom_sites_solution_secondary   difmap
_atom_sites_solution_hydrogens   geom
_refine_ls_hydrogen_treatment    constr
_refine_ls_extinction_method     none
_refine_ls_extinction_coef       ?
_refine_ls_number_reflns         3598
_refine_ls_number_parameters     219
_refine_ls_number_restraints     12
_refine_ls_R_factor_all          0.1179
_refine_ls_R_factor_gt           0.0781
_refine_ls_wR_factor_ref         0.1983
_refine_ls_wR_factor_gt          0.1775
_refine_ls_goodness_of_fit_ref   1.087
_refine_ls_restrained_S_all      1.088
_refine_ls_shift/su_max          0.004
_refine_ls_shift/su_mean         0.000

loop_
_atom_site_label
_atom_site_type_symbol
_atom_site_fract_x
_atom_site_fract_y
_atom_site_fract_z
_atom_site_U_iso_or_equiv
_atom_site_adp_type
_atom_site_occupancy
_atom_site_symmetry_multiplicity
_atom_site_calc_flag
_atom_site_refinement_flags
_atom_site_disorder_assembly
_atom_site_disorder_group
Cd1 Cd 0.29621(6) 0.19928(3) 0.76929(8) 0.0430(3) Uani 1 1 d . . .
O1 O 0.3016(6) 0.2211(3) 1.0359(7) 0.0469(16) Uani 1 1 d . . .
O2 O 0.3057(6) 0.1814(3) 1.2725(8) 0.0509(17) Uani 1 1 d . . .
N1 N 0.4945(6) 0.2032(4) 0.7670(9) 0.046(2) Uani 1 1 d . . .
N2 N 0.0999(8) 0.2047(4) 0.7691(12) 0.063(3) Uani 1 1 d . . .
N3 N 0.3140(7) 0.0962(4) 0.9143(9) 0.049(2) Uani 1 1 d U . .
N4 N 0.3458(13) -0.0124(5) 1.1085(14) 0.105(4) Uani 1 1 d U . .
C1 C 0.5566(9) 0.1538(6) 0.7026(14) 0.064(3) Uani 1 1 d . . .
H1 H 0.5170 0.1180 0.6565 0.077 Uiso 1 1 calc R . .
C2 C 0.6732(8) 0.1537(6) 0.7015(12) 0.057(3) Uani 1 1 d . . .
H2 H 0.7112 0.1183 0.6551 0.068 Uiso 1 1 calc R . .
C3 C 0.7360(9) 0.2052(6) 0.7684(12) 0.053(3) Uani 1 1 d . . .
C4 C 0.6725(9) 0.2557(6) 0.8314(13) 0.057(3) Uani 1 1 d . . .
H4 H 0.7105 0.2925 0.8761 0.068 Uiso 1 1 calc R . .
C5 C 0.5554(8) 0.2535(5) 0.8303(13) 0.053(3) Uani 1 1 d . . .
H5 H 0.5161 0.2886 0.8758 0.063 Uiso 1 1 calc R . .
C6 C 0.8611(8) 0.2066(6) 0.7693(14) 0.056(3) Uani 1 1 d . . .
C7 C 0.9209(10) 0.1484(7) 0.7775(17) 0.087(4) Uani 1 1 d . . .
H7 H 0.8829 0.1074 0.7845 0.104 Uiso 1 1 calc R . .
C8 C 0.0432(9) 0.1511(7) 0.7750(18) 0.091(5) Uani 1 1 d . . .
H8A H 0.0837 0.1107 0.7779 0.110 Uiso 1 1 calc R . .
C9 C 0.0421(9) 0.2596(7) 0.7668(18) 0.084(4) Uani 1 1 d . . .
H9 H 0.0831 0.2998 0.7649 0.101 Uiso 1 1 calc R . .
C10 C 0.9243(9) 0.2634(6) 0.7670(18) 0.082(4) Uani 1 1 d . . .
H8 H 0.8880 0.3051 0.7656 0.098 Uiso 1 1 calc R . .
C11 C 0.3182(9) 0.1032(5) 1.0664(11) 0.052(2) Uani 1 1 d . . .
C12 C 0.3339(14) 0.0503(6) 1.1624(14) 0.090(5) Uani 1 1 d . . .
H12 H 0.3366 0.0575 1.2684 0.108 Uiso 1 1 calc R . .
C13 C 0.3394(12) -0.0200(5) 0.9578(16) 0.077(4) Uani 1 1 d . . .
C14 C 0.3272(10) 0.0344(5) 0.8622(13) 0.059(3) Uani 1 1 d . . .
H14 H 0.3282 0.0276 0.7562 0.071 Uiso 1 1 calc R . .
C15 C 0.3520(14) -0.0895(7) 0.8930(17) 0.109(5) Uani 1 1 d . . .
H15A H 0.3926 -0.0873 0.7987 0.164 Uiso 1 1 calc R . .
H15B H 0.2770 -0.1087 0.8728 0.164 Uiso 1 1 calc R . .
H15C H 0.3944 -0.1171 0.9661 0.164 Uiso 1 1 calc R . .
C16 C 0.3072(8) 0.1726(5) 1.1315(13) 0.049(2) Uani 1 1 d . . .
O3 O 0.2899(7) 0.1268(4) 0.5600(7) 0.064(2) Uani 1 1 d . . .
H3 H 0.2703 0.1476 0.4818 0.096 Uiso 1 1 calc R . .

loop_
_atom_site_aniso_label
_atom_site_aniso_U_11
_atom_site_aniso_U_22
_atom_site_aniso_U_33
_atom_site_aniso_U_23
_atom_site_aniso_U_13
_atom_site_aniso_U_12
Cd1 0.0387(4) 0.0480(4) 0.0421(4) 0.0017(4) -0.0003(3) -0.0012(4)
O1 0.056(4) 0.042(4) 0.043(4) -0.001(3) 0.001(3) 0.006(3)
O2 0.069(5) 0.056(4) 0.028(4) -0.002(3) 0.006(3) -0.006(3)
N1 0.017(3) 0.068(6) 0.051(5) 0.004(4) -0.005(3) -0.001(4)
N2 0.064(6) 0.026(5) 0.099(8) 0.016(5) -0.007(5) -0.001(4)
N3 0.056(5) 0.049(5) 0.041(5) -0.005(4) -0.006(4) 0.008(4)
N4 0.183(12) 0.055(7) 0.078(8) 0.017(6) 0.013(8) 0.013(7)
C1 0.051(6) 0.057(7) 0.085(9) -0.008(6) 0.006(6) 0.002(5)
C2 0.045(6) 0.066(7) 0.060(7) -0.009(5) -0.003(5) 0.009(5)
C3 0.048(6) 0.059(7) 0.052(7) 0.001(5) 0.001(5) -0.001(5)
C4 0.043(6) 0.064(7) 0.062(7) -0.011(6) -0.004(5) -0.003(5)
C5 0.035(5) 0.059(7) 0.065(7) 0.002(5) 0.004(5) 0.005(5)
C6 0.024(5) 0.065(7) 0.079(8) 0.004(6) 0.001(5) 0.003(5)
C7 0.053(7) 0.073(9) 0.136(14) 0.013(8) 0.015(8) -0.002(6)
C8 0.034(6) 0.085(10) 0.156(15) -0.003(9) 0.009(7) 0.027(6)
C9 0.039(6) 0.062(8) 0.150(15) 0.004(8) 0.001(7) -0.011(6)
C10 0.042(6) 0.052(7) 0.153(14) -0.017(8) 0.016(7) -0.006(6)
C11 0.068(6) 0.049(6) 0.040(6) 0.001(5) -0.006(5) -0.006(5)
C12 0.181(15) 0.047(7) 0.041(7) 0.009(5) -0.009(8) 0.021(8)
C13 0.117(11) 0.036(6) 0.077(9) 0.005(6) 0.004(8) 0.015(6)
C14 0.086(8) 0.039(6) 0.054(7) -0.004(5) 0.010(6) -0.004(5)
C15 0.170(15) 0.063(9) 0.093(11) -0.017(8) -0.017(10) 0.036(10)
C16 0.042(5) 0.039(5) 0.066(8) 0.003(5) 0.007(5) 0.008(4)
O3 0.092(6) 0.076(5) 0.023(4) 0.005(3) -0.018(4) -0.008(4)

_geom_special_details            
;
All esds (except the esd in the dihedral angle between two l.s. planes)
are estimated using the full covariance matrix. The cell esds are taken
into account individually in the estimation of esds in distances, angles
and torsion angles; correlations between esds in cell parameters are only
used when they are defined by crystal symmetry. An approximate (isotropic)
treatment of cell esds is used for estimating esds involving l.s. planes.
;

loop_
_geom_bond_atom_site_label_1
_geom_bond_atom_site_label_2
_geom_bond_distance
_geom_bond_site_symmetry_2
_geom_bond_publ_flag
Cd1 N2 2.280(9) . ?
Cd1 O3 2.317(7) . ?
Cd1 N1 2.303(7) . ?
Cd1 O1 2.351(6) . ?
Cd1 O2 2.376(7) 4_565 ?
Cd1 N3 2.410(8) . ?
Cd1 O1 2.573(6) 4_565 ?
O1 C16 1.272(12) . ?
O1 Cd1 2.573(6) 4_566 ?
O2 C16 1.236(12) . ?
O2 Cd1 2.376(7) 4_566 ?
N1 C1 1.350(13) . ?
N1 C5 1.331(12) . ?
N2 C8 1.255(15) . ?
N2 C9 1.281(14) . ?
N3 C14 1.319(12) . ?
N3 C11 1.326(12) . ?
N4 C13 1.316(16) . ?
N4 C12 1.340(15) . ?
C1 C2 1.353(14) . ?
C1 H1 0.9300 . ?
C2 C3 1.374(15) . ?
C2 H2 0.9300 . ?
C3 C4 1.371(14) . ?
C3 C6 1.451(13) . ?
C4 C5 1.358(13) . ?
C4 H4 0.9300 . ?
C5 H5 0.9300 . ?
C6 C10 1.347(15) . ?
C6 C7 1.351(15) . ?
C7 C8 1.421(15) 1_655 ?
C7 H7 0.9300 . ?
C8 C7 1.421(15) 1_455 ?
C8 H8A 0.9300 . ?
C9 C10 1.368(15) 1_455 ?
C9 H9 0.9300 . ?
C10 C9 1.368(15) 1_655 ?
C10 H8 0.9300 . ?
C11 C12 1.350(14) . ?
C11 C16 1.497(14) . ?
C12 H12 0.9300 . ?
C13 C14 1.367(15) . ?
C13 C15 1.501(16) . ?
C14 H14 0.9300 . ?
C15 H15A 0.9600 . ?
C15 H15B 0.9600 . ?
C15 H15C 0.9600 . ?
O3 H3 0.8200 . ?

loop_
_geom_angle_atom_site_label_1
_geom_angle_atom_site_label_2
_geom_angle_atom_site_label_3
_geom_angle
_geom_angle_site_symmetry_1
_geom_angle_site_symmetry_3
_geom_angle_publ_flag
N2 Cd1 O3 91.5(3) . . ?
N2 Cd1 N1 175.3(3) . . ?
O3 Cd1 N1 91.0(3) . . ?
N2 Cd1 O1 89.0(3) . . ?
O3 Cd1 O1 152.2(2) . . ?
N1 Cd1 O1 90.7(3) . . ?
N2 Cd1 O2 89.9(3) . 4_565 ?
O3 Cd1 O2 129.1(2) . 4_565 ?
N1 Cd1 O2 85.4(3) . 4_565 ?
O1 Cd1 O2 78.7(2) . 4_565 ?
N2 Cd1 N3 96.2(3) . . ?
O3 Cd1 N3 83.1(3) . . ?
N1 Cd1 N3 88.1(3) . . ?
O1 Cd1 N3 69.2(2) . . ?
O2 Cd1 N3 147.2(2) 4_565 . ?
N2 Cd1 O1 91.3(3) . 4_565 ?
O3 Cd1 O1 76.5(2) . 4_565 ?
N1 Cd1 O1 85.4(3) . 4_565 ?
O1 Cd1 O1 131.30(8) . 4_565 ?
O2 Cd1 O1 52.6(2) 4_565 4_565 ?
N3 Cd1 O1 158.4(2) . 4_565 ?
C16 O1 Cd1 120.0(6) . . ?
C16 O1 Cd1 87.5(6) . 4_566 ?
Cd1 O1 Cd1 152.5(3) . 4_566 ?
C16 O2 Cd1 97.6(6) . 4_566 ?
C1 N1 C5 115.7(8) . . ?
C1 N1 Cd1 121.8(7) . . ?
C5 N1 Cd1 122.5(6) . . ?
C8 N2 C9 116.7(10) . . ?
C8 N2 Cd1 119.0(7) . . ?
C9 N2 Cd1 124.3(7) . . ?
C14 N3 C11 116.0(9) . . ?
C14 N3 Cd1 128.4(7) . . ?
C11 N3 Cd1 115.4(7) . . ?
C13 N4 C12 116.8(10) . . ?
N1 C1 C2 123.6(11) . . ?
N1 C1 H1 118.2 . . ?
C2 C1 H1 118.2 . . ?
C1 C2 C3 120.7(10) . . ?
C1 C2 H2 119.7 . . ?
C3 C2 H2 119.7 . . ?
C2 C3 C4 115.5(10) . . ?
C2 C3 C6 122.1(10) . . ?
C4 C3 C6 122.4(10) . . ?
C3 C4 C5 121.6(10) . . ?
C3 C4 H4 119.2 . . ?
C5 C4 H4 119.2 . . ?
N1 C5 C4 122.9(10) . . ?
N1 C5 H5 118.5 . . ?
C4 C5 H5 118.5 . . ?
C10 C6 C7 116.1(10) . . ?
C10 C6 C3 124.2(10) . . ?
C7 C6 C3 119.7(11) . . ?
C6 C7 C8 118.5(12) . 1_655 ?
C6 C7 H7 120.7 . . ?
C8 C7 H7 120.7 1_655 . ?
N2 C8 C7 124.0(12) . 1_455 ?
N2 C8 H8A 118.0 . . ?
C7 C8 H8A 118.0 1_455 . ?
N2 C9 C10 124.7(11) . 1_455 ?
N2 C9 H9 117.7 . . ?
C10 C9 H9 117.7 1_455 . ?
C6 C10 C9 119.9(11) . 1_655 ?
C6 C10 H8 120.0 . . ?
C9 C10 H8 120.0 1_655 . ?
N3 C11 C12 122.0(10) . . ?
N3 C11 C16 118.1(9) . . ?
C12 C11 C16 119.8(10) . . ?
N4 C12 C11 121.5(12) . . ?
N4 C12 H12 119.2 . . ?
C11 C12 H12 119.2 . . ?
N4 C13 C14 120.8(11) . . ?
N4 C13 C15 118.4(11) . . ?
C14 C13 C15 120.7(13) . . ?
N3 C14 C13 122.7(11) . . ?
N3 C14 H14 118.7 . . ?
C13 C14 H14 118.7 . . ?
C13 C15 H15A 109.5 . . ?
C13 C15 H15B 109.5 . . ?
H15A C15 H15B 109.5 . . ?
C13 C15 H15C 109.5 . . ?
H15A C15 H15C 109.5 . . ?
H15B C15 H15C 109.5 . . ?
O2 C16 O1 122.4(9) . . ?
O2 C16 C11 120.5(9) . . ?
O1 C16 C11 117.1(10) . . ?
Cd1 O3 H3 109.5 . . ?

_diffrn_measured_fraction_theta_max 0.998
_diffrn_reflns_theta_full        25.20
_diffrn_measured_fraction_theta_full 0.998
_refine_diff_density_max         1.338
_refine_diff_density_min         -1.458
_refine_diff_density_rms         0.146


