####################################################################### 
# 
# This file contains crystal structure data downloaded from the 
# Cambridge Structural Database (CSD) hosted by the Cambridge 
# Crystallographic Data Centre (CCDC).
# 
# Full information about CCDC data access policies and citation 
# guidelines are available at http://www.ccdc.cam.ac.uk/access/V1 
# 
# Audit and citation data items may have been added by the CCDC. 
# Please retain this information to preserve the provenance of 
# this file and to allow appropriate attribution of the data. 
# 
#######################################################################

data_CuMn(R-binaba)2
_audit_block_doi                 10.5517/ccwpplt
_database_code_depnum_ccdc_archive 'CCDC 825207'
loop_
_citation_id
_citation_doi
_citation_year
1 10.1002/chem.201101459 2011
_audit_update_record             
;
2011-05-11 deposited with the CCDC.	2024-07-13 downloaded from the CCDC.
;
#TrackingRef '5372_web_deposit_cif_file_0_JorgePasan_1305118173.cif'


_audit_creation_method           SHELXL-97
_chemical_name_systematic        
;
?
;
_chemical_name_common            ?
_chemical_melting_point          ?
_chemical_formula_moiety         
'Cu, Mn, (C24 H12 N2 O6), 3.5(C2 H6 S O), 3(H2 O)'
_chemical_formula_sum            'C31 H39 Cu Mn N2 O12.5 S3.5'
_chemical_formula_weight         870.40

loop_
_atom_type_symbol
_atom_type_description
_atom_type_scat_dispersion_real
_atom_type_scat_dispersion_imag
_atom_type_scat_source
C C 0.0033 0.0016 'International Tables Vol C Tables 4.2.6.8 and 6.1.1.4'
H H 0.0000 0.0000 'International Tables Vol C Tables 4.2.6.8 and 6.1.1.4'
Cu Cu 0.3201 1.2651 'International Tables Vol C Tables 4.2.6.8 and 6.1.1.4'
Mn Mn 0.3368 0.7283 'International Tables Vol C Tables 4.2.6.8 and 6.1.1.4'
N N 0.0061 0.0033 'International Tables Vol C Tables 4.2.6.8 and 6.1.1.4'
O O 0.0106 0.0060 'International Tables Vol C Tables 4.2.6.8 and 6.1.1.4'
S S 0.1246 0.1234 'International Tables Vol C Tables 4.2.6.8 and 6.1.1.4'

_symmetry_cell_setting           orthorhombic
_symmetry_space_group_name_H-M   P212121

loop_
_symmetry_equiv_pos_as_xyz
'x, y, z'
'-x+1/2, -y, z+1/2'
'x+1/2, -y+1/2, -z'
'-x, y+1/2, -z+1/2'

_cell_length_a                   8.8660(18)
_cell_length_b                   18.597(4)
_cell_length_c                   28.241(6)
_cell_angle_alpha                90.00
_cell_angle_beta                 90.00
_cell_angle_gamma                90.00
_cell_volume                     4656.4(16)
_cell_formula_units_Z            4
_cell_measurement_temperature    293(2)
_cell_measurement_reflns_used    ?
_cell_measurement_theta_min      ?
_cell_measurement_theta_max      ?

_exptl_crystal_description       prism
_exptl_crystal_colour            blue
_exptl_crystal_size_max          0.21
_exptl_crystal_size_mid          0.12
_exptl_crystal_size_min          0.08
_exptl_crystal_density_meas      ?
_exptl_crystal_density_diffrn    1.277
_exptl_crystal_density_method    'not measured'
_exptl_crystal_F_000             1848
_exptl_absorpt_coefficient_mu    0.959
_exptl_absorpt_correction_type   none
_exptl_absorpt_correction_T_min  ?
_exptl_absorpt_correction_T_max  ?
_exptl_absorpt_process_details   ?

_exptl_special_details           
;
?
;

_diffrn_ambient_temperature      293(2)
_diffrn_radiation_wavelength     0.72095
_diffrn_source                   synchrotron
_diffrn_source_type              'ESRF-CRG BM16'
_diffrn_radiation_monochromator  'Si 111'
_diffrn_detector                 'CCD plate'
_diffrn_detector_area_resol_mean 9.6
_diffrn_radiation_detector       'ADSC Q210r CCD (binned mode)'
_diffrn_measurement_device_type  'Single-axis HUBER diffractometer'
_diffrn_measurement_method       'CCD rotation images, thick slices'
_diffrn_standards_number         ?
_diffrn_standards_interval_count ?
_diffrn_standards_interval_time  ?
_diffrn_standards_decay_%        ?
_diffrn_reflns_number            53634
_diffrn_reflns_av_R_equivalents  0.0651
_diffrn_reflns_av_sigmaI/netI    0.0390
_diffrn_reflns_limit_h_min       -10
_diffrn_reflns_limit_h_max       10
_diffrn_reflns_limit_k_min       -21
_diffrn_reflns_limit_k_max       21
_diffrn_reflns_limit_l_min       -32
_diffrn_reflns_limit_l_max       32
_diffrn_reflns_theta_min         1.33
_diffrn_reflns_theta_max         24.49
_reflns_number_total             7408
_reflns_number_gt                6787
_reflns_threshold_expression     >2sigma(I)

_computing_data_collection       'MxCube (ESRF, 2006)'
_computing_cell_refinement       'HKL2000 (Otwinowski & Minor, 1997)'
_computing_data_reduction        'HKL2000 (Otwinowski & Minor, 1997)'
_computing_structure_solution    'SHELXS-97 (Sheldrick, 1997)'
_computing_structure_refinement  'SHELXL-97 (Sheldrick, 1997)'
_computing_molecular_graphics    'Ortep-3 for Windows (Farrugia, 1997)'
_computing_publication_material  'WinGX publication routines (Farrugia, 1999)'

_refine_special_details          
;
Refinement of F^2^ against ALL reflections. The weighted R-factor wR and
goodness of fit S are based on F^2^, conventional R-factors R are based
on F, with F set to zero for negative F^2^. The threshold expression of
F^2^ > 2sigma(F^2^) is used only for calculating R-factors(gt) etc. and is
not relevant to the choice of reflections for refinement. R-factors based
on F^2^ are statistically about twice as large as those based on F, and R-
factors based on ALL data will be even larger.
;

_refine_ls_structure_factor_coef Fsqd
_refine_ls_matrix_type           full
_refine_ls_weighting_scheme      calc
_refine_ls_weighting_details     
'calc w=1/[\s^2^(Fo^2^)+(0.2000P)^2^+0.0000P] where P=(Fo^2^+2Fc^2^)/3'
_atom_sites_solution_primary     direct
_atom_sites_solution_secondary   difmap
_atom_sites_solution_hydrogens   geom
_refine_ls_hydrogen_treatment    constr
_refine_ls_extinction_method     SHELXL
_refine_ls_extinction_coef       0.042(4)
_refine_ls_extinction_expression Fc^*^=kFc[1+0.001xFc^2^\l^3^/sin(2\q)]^-1/4^
_refine_ls_abs_structure_details 'Flack H D (1983), Acta Cryst. A39, 876-881'
_refine_ls_abs_structure_Flack   0.01(3)
_refine_ls_number_reflns         7408
_refine_ls_number_parameters     476
_refine_ls_number_restraints     10
_refine_ls_R_factor_all          0.1033
_refine_ls_R_factor_gt           0.0980
_refine_ls_wR_factor_ref         0.2910
_refine_ls_wR_factor_gt          0.2815
_refine_ls_goodness_of_fit_ref   1.341
_refine_ls_restrained_S_all      1.346
_refine_ls_shift/su_max          0.001
_refine_ls_shift/su_mean         0.000

loop_
_atom_site_label
_atom_site_type_symbol
_atom_site_fract_x
_atom_site_fract_y
_atom_site_fract_z
_atom_site_U_iso_or_equiv
_atom_site_adp_type
_atom_site_occupancy
_atom_site_symmetry_multiplicity
_atom_site_calc_flag
_atom_site_refinement_flags
_atom_site_disorder_assembly
_atom_site_disorder_group
C1 C 0.5855(7) 0.1125(4) 0.6954(3) 0.0355(17) Uani 1 1 d . . .
C2 C 0.7098(9) 0.1158(4) 0.7334(3) 0.0393(17) Uani 1 1 d . . .
C3 C 0.4374(8) 0.3727(4) 0.7520(3) 0.0419(18) Uani 1 1 d . . .
C4 C 0.4732(9) 0.3501(4) 0.8036(3) 0.0440(19) Uani 1 1 d . . .
C5 C 0.3572(8) 0.1743(4) 0.6726(3) 0.0363(16) Uani 1 1 d . . .
C6 C 0.2593(8) 0.1147(4) 0.6796(3) 0.0414(17) Uani 1 1 d . . .
H6 H 0.2958 0.0724 0.6929 0.050 Uiso 1 1 calc R . .
C7 C 0.1142(10) 0.1199(5) 0.6668(3) 0.0475(19) Uani 1 1 d . . .
H7 H 0.0514 0.0805 0.6717 0.057 Uiso 1 1 calc R . .
C8 C 0.0525(9) 0.1821(5) 0.6464(3) 0.0440(18) Uani 1 1 d . . .
C9 C -0.1020(9) 0.1884(5) 0.6356(3) 0.0434(19) Uani 1 1 d . . .
H9 H -0.1666 0.1500 0.6415 0.052 Uiso 1 1 calc R . .
C10 C -0.1564(10) 0.2489(6) 0.6170(4) 0.060(3) Uani 1 1 d . . .
H10 H -0.2582 0.2515 0.6092 0.071 Uiso 1 1 calc R . .
C11 C -0.0617(9) 0.3101(5) 0.6086(3) 0.0468(19) Uani 1 1 d . . .
H11 H -0.1020 0.3525 0.5964 0.056 Uiso 1 1 calc R . .
C12 C 0.0917(10) 0.3052(5) 0.6189(3) 0.049(2) Uani 1 1 d . . .
H12 H 0.1545 0.3441 0.6127 0.059 Uiso 1 1 calc R . .
C13 C 0.1527(9) 0.2419(4) 0.6386(3) 0.0378(16) Uani 1 1 d . . .
C14 C 0.3084(8) 0.2336(4) 0.6511(3) 0.0337(15) Uani 1 1 d . . .
C15 C 0.4778(9) 0.3390(4) 0.6709(3) 0.0408(18) Uani 1 1 d . . .
C16 C 0.5722(9) 0.3966(4) 0.6568(3) 0.0440(19) Uani 1 1 d . . .
H16 H 0.6141 0.4259 0.6800 0.053 Uiso 1 1 calc R . .
C17 C 0.6031(10) 0.4102(5) 0.6115(3) 0.050(2) Uani 1 1 d . . .
H17 H 0.6662 0.4481 0.6031 0.060 Uiso 1 1 calc R . .
C18 C 0.5369(10) 0.3650(5) 0.5758(3) 0.049(2) Uani 1 1 d . . .
C19 C 0.5721(13) 0.3738(8) 0.5250(4) 0.074(3) Uani 1 1 d . . .
H19 H 0.6355 0.4110 0.5155 0.089 Uiso 1 1 calc R . .
C20 C 0.5149(16) 0.3295(10) 0.4926(4) 0.094(4) Uani 1 1 d . . .
H20 H 0.5384 0.3361 0.4608 0.113 Uiso 1 1 calc R . .
C21 C 0.4179(12) 0.2722(6) 0.5063(3) 0.062(3) Uani 1 1 d . . .
H21 H 0.3765 0.2412 0.4839 0.075 Uiso 1 1 calc R . .
C22 C 0.3879(11) 0.2643(6) 0.5529(3) 0.054(2) Uani 1 1 d . . .
H22 H 0.3251 0.2265 0.5616 0.065 Uiso 1 1 calc R . .
C23 C 0.4424(8) 0.3074(4) 0.5886(3) 0.0417(18) Uani 1 1 d . . .
C24 C 0.4136(8) 0.2945(4) 0.6382(3) 0.0416(19) Uani 1 1 d . . .
C25 C 0.0747(15) 0.1403(8) 0.7992(6) 0.101(5) Uani 1 1 d . . .
H25A H 0.0588 0.1235 0.7675 0.152 Uiso 1 1 calc R . .
H25B H -0.0182 0.1588 0.8117 0.152 Uiso 1 1 calc R . .
H25C H 0.1090 0.1012 0.8187 0.152 Uiso 1 1 calc R . .
C26 C 0.219(2) 0.2223(13) 0.8592(6) 0.138(8) Uani 1 1 d . . .
H26A H 0.2904 0.2597 0.8662 0.207 Uiso 1 1 calc R . .
H26B H 0.2505 0.1786 0.8744 0.207 Uiso 1 1 calc R . .
H26C H 0.1214 0.2359 0.8706 0.207 Uiso 1 1 calc R . .
C27 C 1.1090(14) -0.1740(7) 0.7584(4) 0.076(3) Uani 1 1 d . . .
H27A H 1.0888 -0.2186 0.7426 0.114 Uiso 1 1 calc R . .
H27B H 1.1441 -0.1835 0.7900 0.114 Uiso 1 1 calc R . .
H27C H 1.1848 -0.1478 0.7413 0.114 Uiso 1 1 calc R . .
C28 C 1.025(3) -0.0493(7) 0.7912(6) 0.123(7) Uani 1 1 d . . .
H28A H 0.9494 -0.0132 0.7966 0.185 Uiso 1 1 calc R . .
H28B H 1.1045 -0.0295 0.7723 0.185 Uiso 1 1 calc R . .
H28C H 1.0647 -0.0654 0.8209 0.185 Uiso 1 1 calc R . .
C29 C 1.131(2) -0.0643(12) 0.6151(14) 0.32(2) Uani 1 1 d D . .
H29A H 1.1461 -0.0877 0.6450 0.473 Uiso 1 1 calc R . .
H29B H 1.1580 -0.0144 0.6178 0.473 Uiso 1 1 calc R . .
H29C H 1.1936 -0.0867 0.5916 0.473 Uiso 1 1 calc R . .
C30 C 0.976(3) -0.0130(13) 0.5472(7) 0.32(2) Uani 1 1 d D . .
H30A H 0.8866 -0.0078 0.5282 0.473 Uiso 1 1 calc R . .
H30B H 1.0547 -0.0339 0.5285 0.473 Uiso 1 1 calc R . .
H30C H 1.0071 0.0333 0.5585 0.473 Uiso 1 1 calc R . .
C31 C 0.524(4) 0.082(2) 0.4657(5) 0.39(6) Uani 0.50 1 d PD . .
H31A H 0.5646 0.1293 0.4618 0.588 Uiso 0.50 1 calc PR . .
H31B H 0.4384 0.0758 0.4453 0.588 Uiso 0.50 1 calc PR . .
H31C H 0.5999 0.0470 0.4575 0.588 Uiso 0.50 1 calc PR . .
C32 C 0.500(5) -0.0258(9) 0.5233(12) 0.39(6) Uani 0.50 1 d PD . .
H32A H 0.4911 -0.0458 0.5545 0.588 Uiso 0.50 1 calc PR . .
H32B H 0.6000 -0.0349 0.5114 0.588 Uiso 0.50 1 calc PR . .
H32C H 0.4275 -0.0477 0.5027 0.588 Uiso 0.50 1 calc PR . .
Cu1 Cu 0.54200(10) 0.23360(5) 0.74857(4) 0.0410(4) Uani 1 1 d . . .
Mn1 Mn 0.72846(14) -0.02753(6) 0.68897(5) 0.0431(4) Uani 1 1 d . . .
N1 N 0.5044(7) 0.1712(3) 0.6952(3) 0.0397(15) Uani 1 1 d . . .
N2 N 0.4718(7) 0.3227(3) 0.7206(2) 0.0362(14) Uani 1 1 d . . .
O1 O 0.7111(6) 0.1659(3) 0.76190(19) 0.0423(12) Uani 1 1 d . . .
O2 O 0.8038(6) 0.0649(3) 0.7320(2) 0.0434(13) Uani 1 1 d . . .
O1W O 0.8089(17) -0.0554(8) 0.3992(7) 0.201(10) Uani 1 1 d . . .
O3 O 0.5734(6) 0.0573(3) 0.6704(2) 0.0450(13) Uani 1 1 d . . .
O2W O 0.4105(17) 0.2705(12) 0.9731(4) 0.090(6) Uani 0.50 1 d P . .
O4 O 0.5491(8) 0.2909(3) 0.8086(2) 0.0525(14) Uani 1 1 d . . .
O3W O 0.8213(13) 0.2478(7) 0.8645(4) 0.118(4) Uani 1 1 d . . .
O5 O 0.4227(8) 0.3861(3) 0.8355(2) 0.0517(15) Uani 1 1 d . . .
O4W O 0.351(2) 0.0212(9) 0.7708(7) 0.086(5) Uani 0.50 1 d P . .
O6 O 0.3858(6) 0.4344(3) 0.7461(2) 0.0429(12) Uani 1 1 d . . .
O7 O 0.3566(8) 0.1714(4) 0.7866(3) 0.0616(17) Uani 1 1 d . . .
O8 O 0.9125(7) -0.0965(3) 0.7117(3) 0.0567(16) Uani 1 1 d . . .
O9 O 0.8460(8) -0.0164(4) 0.6245(3) 0.0655(18) Uani 1 1 d D . .
O10 O 0.6141(14) 0.0929(9) 0.5510(4) 0.073(5) Uani 0.50 1 d PD . .
S1 S 0.2115(3) 0.20893(15) 0.79893(13) 0.0739(8) Uani 1 1 d . . .
S2 S 0.9429(3) -0.12268(14) 0.76109(10) 0.0604(7) Uani 1 1 d . . .
S3 S 0.9346(8) -0.0718(5) 0.5978(2) 0.165(3) Uani 1 1 d D . .
S4 S 0.4681(7) 0.0690(3) 0.5257(3) 0.0775(16) Uani 0.50 1 d PD . .

loop_
_atom_site_aniso_label
_atom_site_aniso_U_11
_atom_site_aniso_U_22
_atom_site_aniso_U_33
_atom_site_aniso_U_23
_atom_site_aniso_U_13
_atom_site_aniso_U_12
C1 0.019(3) 0.029(4) 0.058(4) 0.014(3) 0.004(3) -0.002(3)
C2 0.028(4) 0.035(4) 0.055(4) 0.014(3) 0.001(3) -0.003(3)
C3 0.031(4) 0.028(4) 0.066(5) -0.003(4) 0.008(4) -0.003(3)
C4 0.030(4) 0.033(4) 0.069(5) 0.002(4) 0.005(4) -0.004(3)
C5 0.018(3) 0.044(4) 0.047(4) -0.002(3) -0.003(3) 0.006(3)
C6 0.027(4) 0.037(4) 0.060(5) -0.002(3) -0.001(3) 0.000(3)
C7 0.035(4) 0.049(5) 0.059(5) -0.001(4) 0.004(4) -0.004(4)
C8 0.029(4) 0.058(5) 0.045(4) -0.004(4) -0.004(3) -0.005(4)
C9 0.024(3) 0.063(5) 0.043(4) -0.008(4) 0.001(3) -0.001(4)
C10 0.029(4) 0.090(8) 0.060(5) 0.004(5) -0.006(4) -0.001(4)
C11 0.027(4) 0.045(4) 0.068(5) 0.000(4) -0.005(4) 0.005(3)
C12 0.035(4) 0.052(5) 0.061(5) 0.011(4) 0.008(4) 0.004(4)
C13 0.029(4) 0.036(4) 0.049(4) 0.003(3) 0.001(3) 0.007(3)
C14 0.026(3) 0.032(3) 0.043(4) 0.002(3) 0.002(3) -0.003(3)
C15 0.033(4) 0.033(4) 0.056(5) -0.004(3) 0.004(3) -0.006(3)
C16 0.028(4) 0.031(4) 0.073(6) 0.005(4) 0.002(4) 0.000(3)
C17 0.033(4) 0.055(5) 0.063(5) 0.030(4) 0.004(4) -0.003(4)
C18 0.036(4) 0.054(5) 0.057(5) 0.016(4) 0.015(4) 0.003(4)
C19 0.056(6) 0.102(9) 0.066(7) 0.033(7) 0.011(5) 0.004(6)
C20 0.082(9) 0.149(13) 0.053(6) 0.017(8) 0.013(6) 0.017(9)
C21 0.059(6) 0.081(7) 0.047(5) -0.001(5) -0.001(4) -0.002(5)
C22 0.044(5) 0.059(5) 0.059(5) 0.006(4) 0.006(4) 0.004(4)
C23 0.027(3) 0.047(4) 0.051(4) 0.005(3) 0.001(3) 0.014(3)
C24 0.020(3) 0.043(4) 0.062(5) 0.022(4) 0.006(3) 0.004(3)
C25 0.064(8) 0.085(9) 0.155(14) -0.029(9) 0.028(8) -0.019(7)
C26 0.105(11) 0.185(18) 0.124(13) -0.082(14) 0.054(10) -0.071(13)
C27 0.069(7) 0.076(7) 0.084(8) 0.009(6) -0.001(6) 0.030(6)
C28 0.177(18) 0.057(7) 0.136(13) -0.010(8) -0.083(13) 0.027(9)
C29 0.17(2) 0.096(13) 0.68(8) -0.04(2) -0.04(3) 0.066(15)
C30 0.17(2) 0.096(13) 0.68(8) -0.04(2) -0.04(3) 0.066(15)
C31 0.28(5) 0.74(14) 0.15(3) -0.29(6) -0.14(4) 0.34(8)
C32 0.28(5) 0.74(14) 0.15(3) -0.29(6) -0.14(4) 0.34(8)
Cu1 0.0325(6) 0.0337(6) 0.0569(6) -0.0002(4) -0.0040(4) 0.0038(3)
Mn1 0.0353(7) 0.0318(6) 0.0622(8) 0.0039(5) 0.0026(5) 0.0049(5)
N1 0.025(3) 0.029(3) 0.065(4) 0.009(3) -0.005(3) 0.003(2)
N2 0.029(3) 0.025(3) 0.055(4) 0.003(3) 0.002(3) 0.003(3)
O1 0.034(3) 0.040(3) 0.053(3) 0.003(2) -0.002(2) 0.003(2)
O2 0.026(3) 0.035(3) 0.069(3) 0.012(2) -0.003(2) 0.000(2)
O1W 0.151(12) 0.132(10) 0.32(2) -0.089(13) 0.169(15) -0.024(9)
O3 0.036(3) 0.039(3) 0.060(3) 0.002(3) 0.001(2) 0.004(2)
O2W 0.059(8) 0.177(18) 0.035(6) 0.053(9) 0.003(6) 0.039(10)
O4 0.060(4) 0.032(3) 0.066(4) -0.003(3) -0.010(3) 0.007(3)
O3W 0.092(7) 0.150(11) 0.110(8) 0.023(7) 0.001(6) 0.003(8)
O5 0.059(4) 0.039(3) 0.057(3) -0.012(3) -0.001(3) -0.004(3)
O4W 0.072(10) 0.071(9) 0.116(13) 0.000(10) 0.024(9) -0.023(9)
O6 0.034(3) 0.032(3) 0.063(3) -0.001(3) 0.000(3) 0.002(2)
O7 0.051(4) 0.063(4) 0.071(4) 0.002(3) 0.016(3) -0.013(3)
O8 0.041(3) 0.054(4) 0.075(4) 0.005(3) -0.001(3) 0.013(3)
O9 0.057(4) 0.058(4) 0.081(5) 0.001(3) 0.018(3) 0.005(3)
O10 0.053(7) 0.116(13) 0.051(7) 0.003(8) -0.019(6) 0.033(8)
S1 0.0536(14) 0.0578(14) 0.110(2) 0.0044(14) 0.0168(14) -0.0018(12)
S2 0.0460(12) 0.0529(13) 0.0823(17) 0.0002(11) -0.0017(11) 0.0132(11)
S3 0.143(5) 0.209(7) 0.144(4) -0.046(5) 0.048(4) 0.061(5)
S4 0.059(3) 0.066(3) 0.107(4) -0.010(3) -0.028(3) 0.006(3)

_geom_special_details            
;
All esds (except the esd in the dihedral angle between two l.s. planes)
are estimated using the full covariance matrix. The cell esds are taken
into account individually in the estimation of esds in distances, angles
and torsion angles; correlations between esds in cell parameters are only
used when they are defined by crystal symmetry. An approximate (isotropic)
treatment of cell esds is used for estimating esds involving l.s. planes.
;

loop_
_geom_bond_atom_site_label_1
_geom_bond_atom_site_label_2
_geom_bond_distance
_geom_bond_site_symmetry_2
_geom_bond_publ_flag
C1 O3 1.250(10) . ?
C1 N1 1.307(10) . ?
C1 C2 1.540(11) . ?
C2 O1 1.231(10) . ?
C2 O2 1.262(9) . ?
C3 O6 1.246(10) . ?
C3 N2 1.321(10) . ?
C3 C4 1.549(13) . ?
C4 O5 1.209(10) . ?
C4 O4 1.298(10) . ?
C5 C14 1.331(11) . ?
C5 C6 1.421(11) . ?
C5 N1 1.453(9) . ?
C6 C7 1.340(12) . ?
C7 C8 1.403(13) . ?
C8 C9 1.409(11) . ?
C8 C13 1.441(12) . ?
C9 C10 1.333(14) . ?
C10 C11 1.434(14) . ?
C11 C12 1.393(12) . ?
C12 C13 1.410(12) . ?
C13 C14 1.433(11) . ?
C14 C24 1.512(10) . ?
C15 C24 1.365(12) . ?
C15 C16 1.416(11) . ?
C15 N2 1.436(11) . ?
C16 C17 1.334(13) . ?
C17 C18 1.437(14) . ?
C18 C23 1.407(12) . ?
C18 C19 1.477(14) . ?
C19 C20 1.33(2) . ?
C20 C21 1.42(2) . ?
C21 C22 1.351(14) . ?
C22 C23 1.376(13) . ?
C23 C24 1.443(12) . ?
C25 S1 1.761(13) . ?
C26 S1 1.721(17) . ?
C27 S2 1.756(11) . ?
C28 S2 1.763(14) . ?
C29 S3 1.815(18) . ?
C