####################################################################### 
# 
# This file contains crystal structure data downloaded from the 
# Cambridge Structural Database (CSD) hosted by the Cambridge 
# Crystallographic Data Centre (CCDC).
# 
# Full information about CCDC data access policies and citation 
# guidelines are available at http://www.ccdc.cam.ac.uk/access/V1 
# 
# Audit and citation data items may have been added by the CCDC. 
# Please retain this information to preserve the provenance of 
# this file and to allow appropriate attribution of the data. 
# 
#######################################################################

data_CuMn(S-binaba)2
_audit_block_doi                 10.5517/ccwppmv
_database_code_depnum_ccdc_archive 'CCDC 825208'
loop_
_citation_id
_citation_doi
_citation_year
1 10.1002/chem.201101459 2011
_audit_update_record             
;
2011-05-11 deposited with the CCDC.	2024-07-13 downloaded from the CCDC.
;
#TrackingRef '5373_web_deposit_cif_file_1_JorgePasan_1305118173.cif'


_audit_creation_method           SHELXL-97
_chemical_name_systematic        
;
?
;
_chemical_name_common            ?
_chemical_melting_point          ?
_chemical_formula_moiety         
'Cu, Mn, (C24 H12 N2 O6), 3.5(C2 H6 S O), 3(H2 O)'
_chemical_formula_sum            'C31 H39 Cu Mn N2 O12.5 S3.5'
_chemical_formula_weight         870.40

loop_
_atom_type_symbol
_atom_type_description
_atom_type_scat_dispersion_real
_atom_type_scat_dispersion_imag
_atom_type_scat_source
C C 0.0033 0.0016 'International Tables Vol C Tables 4.2.6.8 and 6.1.1.4'
H H 0.0000 0.0000 'International Tables Vol C Tables 4.2.6.8 and 6.1.1.4'
Cu Cu 0.3201 1.2651 'International Tables Vol C Tables 4.2.6.8 and 6.1.1.4'
Mn Mn 0.3368 0.7283 'International Tables Vol C Tables 4.2.6.8 and 6.1.1.4'
N N 0.0061 0.0033 'International Tables Vol C Tables 4.2.6.8 and 6.1.1.4'
O O 0.0106 0.0060 'International Tables Vol C Tables 4.2.6.8 and 6.1.1.4'
S S 0.1246 0.1234 'International Tables Vol C Tables 4.2.6.8 and 6.1.1.4'

_symmetry_cell_setting           orthorhombic
_symmetry_space_group_name_H-M   P212121

loop_
_symmetry_equiv_pos_as_xyz
'x, y, z'
'-x+1/2, -y, z+1/2'
'x+1/2, -y+1/2, -z'
'-x, y+1/2, -z+1/2'

_cell_length_a                   8.8568(2)
_cell_length_b                   18.7469(5)
_cell_length_c                   28.2809(7)
_cell_angle_alpha                90.00
_cell_angle_beta                 90.00
_cell_angle_gamma                90.00
_cell_volume                     4695.7(2)
_cell_formula_units_Z            4
_cell_measurement_temperature    293(2)
_cell_measurement_reflns_used    ?
_cell_measurement_theta_min      ?
_cell_measurement_theta_max      ?

_exptl_crystal_description       primsm
_exptl_crystal_colour            blue
_exptl_crystal_size_max          0.28
_exptl_crystal_size_mid          0.24
_exptl_crystal_size_min          0.16
_exptl_crystal_density_meas      ?
_exptl_crystal_density_diffrn    1.228
_exptl_crystal_density_method    'not measured'
_exptl_crystal_F_000             1792
_exptl_absorpt_coefficient_mu    0.928
_exptl_absorpt_correction_type   none
_exptl_absorpt_correction_T_min  ?
_exptl_absorpt_correction_T_max  ?
_exptl_absorpt_process_details   ?

_exptl_special_details           
;
?
;

_diffrn_ambient_temperature      293(2)
_diffrn_radiation_wavelength     0.71073
_diffrn_radiation_type           Mok\a
_diffrn_radiation_source         'fine-focus sealed tube'
_diffrn_radiation_monochromator  'horizonally mounted graphite crystal'
_diffrn_radiation_probe          x-ray
_diffrn_source                   'Enraf Nonius FR590'
_diffrn_detector                 'CCD plate'
_diffrn_detector_area_resol_mean 9
_diffrn_measurement_device       '95mm CCD camera on \k-goniostat'
_diffrn_measurement_device_type  KappaCCD
_diffrn_measurement_method       'CCD rotation images, thick slices'
_diffrn_standards_number         ?
_diffrn_standards_interval_count ?
_diffrn_standards_interval_time  ?
_diffrn_standards_decay_%        ?
_diffrn_reflns_number            16882
_diffrn_reflns_av_R_equivalents  0.0357
_diffrn_reflns_av_sigmaI/netI    0.0674
_diffrn_reflns_limit_h_min       -11
_diffrn_reflns_limit_h_max       8
_diffrn_reflns_limit_k_min       -24
_diffrn_reflns_limit_k_max       15
_diffrn_reflns_limit_l_min       -34
_diffrn_reflns_limit_l_max       33
_diffrn_reflns_theta_min         1.44
_diffrn_reflns_theta_max         27.08
_reflns_number_total             9626
_reflns_number_gt                7903
_reflns_threshold_expression     >2sigma(I)

_computing_data_collection       'Collect (Nonius BV, 1997-2000)'
_computing_cell_refinement       'HKL2000 (Otwinowski & Minor, 1997)'
_computing_data_reduction        'HKL2000 (Otwinowski & Minor, 1997)'
_computing_structure_solution    'SHELXS-97 (Sheldrick, 1997)'
_computing_structure_refinement  'SHELXL-97 (Sheldrick, 1997)'
_computing_publication_material  'WinGX publication routines (Farrugia, 1999)'

_refine_special_details          
;
Refinement of F^2^ against ALL reflections. The weighted R-factor wR and
goodness of fit S are based on F^2^, conventional R-factors R are based
on F, with F set to zero for negative F^2^. The threshold expression of
F^2^ > 2sigma(F^2^) is used only for calculating R-factors(gt) etc. and is
not relevant to the choice of reflections for refinement. R-factors based
on F^2^ are statistically about twice as large as those based on F, and R-
factors based on ALL data will be even larger.
;

_refine_ls_structure_factor_coef Fsqd
_refine_ls_matrix_type           full
_refine_ls_weighting_scheme      calc
_refine_ls_weighting_details     
'calc w=1/[\s^2^(Fo^2^)+(0.1666P)^2^+13.8366P] where P=(Fo^2^+2Fc^2^)/3'
_atom_sites_solution_primary     direct
_atom_sites_solution_secondary   difmap
_atom_sites_solution_hydrogens   geom
_refine_ls_hydrogen_treatment    constr
_refine_ls_extinction_method     SHELXL
_refine_ls_extinction_coef       0.020(2)
_refine_ls_extinction_expression Fc^*^=kFc[1+0.001xFc^2^\l^3^/sin(2\q)]^-1/4^
_refine_ls_abs_structure_details 'Flack H D (1983), Acta Cryst. A39, 876-881'
_refine_ls_abs_structure_Flack   0.09(4)
_refine_ls_number_reflns         9626
_refine_ls_number_parameters     477
_refine_ls_number_restraints     10
_refine_ls_R_factor_all          0.1270
_refine_ls_R_factor_gt           0.1068
_refine_ls_wR_factor_ref         0.3107
_refine_ls_wR_factor_gt          0.2933
_refine_ls_goodness_of_fit_ref   1.144
_refine_ls_restrained_S_all      1.144
_refine_ls_shift/su_max          0.001
_refine_ls_shift/su_mean         0.000

loop_
_atom_site_label
_atom_site_type_symbol
_atom_site_fract_x
_atom_site_fract_y
_atom_site_fract_z
_atom_site_U_iso_or_equiv
_atom_site_adp_type
_atom_site_occupancy
_atom_site_symmetry_multiplicity
_atom_site_calc_flag
_atom_site_refinement_flags
_atom_site_disorder_assembly
_atom_site_disorder_group
C1 C 0.4164(9) 0.8839(4) 0.3039(3) 0.0362(18) Uani 1 1 d . . .
C2 C 0.2955(9) 0.8800(5) 0.2664(3) 0.041(2) Uani 1 1 d . . .
C3 C 0.5648(9) 0.6226(4) 0.2487(4) 0.0415(19) Uani 1 1 d . . .
C4 C 0.5296(11) 0.6469(5) 0.1989(3) 0.043(2) Uani 1 1 d . . .
C5 C 0.6499(9) 0.8230(5) 0.3268(3) 0.0376(18) Uani 1 1 d . . .
C6 C 0.7460(9) 0.8812(5) 0.3198(3) 0.0402(19) Uani 1 1 d . . .
H6 H 0.7087 0.9227 0.3060 0.048 Uiso 1 1 calc R . .
C7 C 0.8936(11) 0.8778(5) 0.3329(4) 0.046(2) Uani 1 1 d . . .
H7 H 0.9551 0.9175 0.3289 0.055 Uiso 1 1 calc R . .
C8 C 0.9557(11) 0.8140(5) 0.3526(3) 0.0425(19) Uani 1 1 d . . .
C9 C 1.1082(10) 0.8092(5) 0.3643(3) 0.044(2) Uani 1 1 d . . .
H9 H 1.1711 0.8484 0.3598 0.053 Uiso 1 1 calc R . .
C10 C 1.1659(10) 0.7479(6) 0.3824(4) 0.050(2) Uani 1 1 d . . .
H10 H 1.2680 0.7448 0.3898 0.060 Uiso 1 1 calc R . .
C11 C 1.0705(11) 0.6895(5) 0.3899(4) 0.048(2) Uani 1 1 d . . .
H11 H 1.1101 0.6474 0.4022 0.058 Uiso 1 1 calc R . .
C12 C 0.9181(12) 0.6933(6) 0.3794(4) 0.051(2) Uani 1 1 d . . .
H12 H 0.8564 0.6541 0.3850 0.061 Uiso 1 1 calc R . .
C13 C 0.8562(10) 0.7553(5) 0.3604(3) 0.0361(18) Uani 1 1 d . . .
C14 C 0.6979(9) 0.7616(4) 0.3485(3) 0.0337(16) Uani 1 1 d . . .
C15 C 0.5270(10) 0.6582(4) 0.3298(3) 0.0344(17) Uani 1 1 d . . .
C16 C 0.4342(10) 0.5999(5) 0.3451(4) 0.046(2) Uani 1 1 d . . .
H16 H 0.3919 0.5696 0.3226 0.056 Uiso 1 1 calc R . .
C17 C 0.4068(12) 0.5879(5) 0.3916(4) 0.055(3) Uani 1 1 d . . .
H17 H 0.3453 0.5502 0.4009 0.066 Uiso 1 1 calc R . .
C18 C 0.4741(12) 0.6342(6) 0.4262(4) 0.054(3) Uani 1 1 d . . .
C19 C 0.4403(15) 0.6228(9) 0.4753(5) 0.076(4) Uani 1 1 d . . .
H19 H 0.3804 0.5847 0.4849 0.092 Uiso 1 1 calc R . .
C20 C 0.5020(19) 0.6722(10) 0.5095(5) 0.095(5) Uani 1 1 d . . .
H20 H 0.4804 0.6675 0.5416 0.113 Uiso 1 1 calc R . .
C21 C 0.5905(15) 0.7244(7) 0.4940(4) 0.067(3) Uani 1 1 d . . .
H21 H 0.6339 0.7541 0.5165 0.081 Uiso 1 1 calc R . .
C22 C 0.6231(11) 0.7380(6) 0.4478(4) 0.052(2) Uani 1 1 d . . .
H22 H 0.6814 0.7773 0.4395 0.062 Uiso 1 1 calc R . .
C23 C 0.5655(10) 0.6904(5) 0.4116(3) 0.043(2) Uani 1 1 d . . .
C24 C 0.5942(9) 0.7029(4) 0.3628(3) 0.0373(19) Uani 1 1 d . . .
C25 C 0.9348(18) 0.8486(10) 0.1991(8) 0.106(6) Uani 1 1 d . . .
H25A H 0.9491 0.8647 0.2310 0.159 Uiso 1 1 calc R . .
H25B H 0.9084 0.8885 0.1794 0.159 Uiso 1 1 calc R . .
H25C H 1.0266 0.8275 0.1877 0.159 Uiso 1 1 calc R . .
C26 C 0.775(2) 0.7766(11) 0.1359(8) 0.133(9) Uani 1 1 d . . .
H26A H 0.7047 0.7394 0.1281 0.199 Uiso 1 1 calc R . .
H26B H 0.8724 0.7651 0.1231 0.199 Uiso 1 1 calc R . .
H26C H 0.7406 0.8209 0.1227 0.199 Uiso 1 1 calc R . .
C27 C -0.121(2) 1.1654(9) 0.2423(6) 0.099(5) Uani 1 1 d . . .
H27A H -0.1036 1.2100 0.2580 0.148 Uiso 1 1 calc R . .
H27B H -0.1930 1.1379 0.2600 0.148 Uiso 1 1 calc R . .
H27C H -0.1597 1.1741 0.2111 0.148 Uiso 1 1 calc R . .
C28 C -0.007(2) 1.0446(7) 0.2048(7) 0.108(6) Uani 1 1 d . . .
H28A H 0.0737 1.0112 0.2009 0.162 Uiso 1 1 calc R . .
H28B H -0.0404 1.0611 0.1744 0.162 Uiso 1 1 calc R . .
H28C H -0.0900 1.0217 0.2208 0.162 Uiso 1 1 calc R . .
C29 C -0.112(5) 1.098(4) 0.3947(16) 0.62(7) Uani 1 1 d D . .
H29A H -0.1138 1.1223 0.3648 0.928 Uiso 1 1 calc R . .
H29B H -0.1328 1.1314 0.4196 0.928 Uiso 1 1 calc R . .
H29C H -0.1866 1.0610 0.3948 0.928 Uiso 1 1 calc R . .
C30 C 0.000(6) 1.005(3) 0.4510(14) 0.62(7) Uani 1 1 d D . .
H30A H 0.0801 0.9959 0.4732 0.928 Uiso 1 1 calc R . .
H30B H -0.0364 0.9610 0.4385 0.928 Uiso 1 1 calc R . .
H30C H -0.0804 1.0298 0.4668 0.928 Uiso 1 1 calc R . .
C31 C 0.472(5) 0.946(2) 0.5344(6) 0.25(3) Uani 0.50 1 d PD . .
H31A H 0.4265 0.9026 0.5456 0.379 Uiso 0.50 1 calc PR . .
H31B H 0.3978 0.9834 0.5345 0.379 Uiso 0.50 1 calc PR . .
H31C H 0.5542 0.9589 0.5547 0.379 Uiso 0.50 1 calc PR . .
C32 C 0.530(6) 1.0297(11) 0.4653(16) 0.25(3) Uani 0.50 1 d PD . .
H32A H 0.5418 1.0401 0.4323 0.379 Uiso 0.50 1 calc PR . .
H32B H 0.6079 1.0530 0.4830 0.379 Uiso 0.50 1 calc PR . .
H32C H 0.4329 1.0467 0.4758 0.379 Uiso 0.50 1 calc PR . .
Cu1 Cu 0.46234(11) 0.76184(5) 0.25225(4) 0.0389(3) Uani 1 1 d . . .
Mn1 Mn 0.27279(16) 1.02228(7) 0.30948(5) 0.0425(4) Uani 1 1 d . . .
N1 N 0.5017(7) 0.8249(3) 0.3052(3) 0.0380(16) Uani 1 1 d . . .
N2 N 0.5337(8) 0.6733(3) 0.2809(3) 0.0355(15) Uani 1 1 d . . .
O1 O 0.2931(7) 0.8290(3) 0.2389(2) 0.0416(14) Uani 1 1 d . . .
O2 O 0.2029(7) 0.9308(3) 0.2662(2) 0.0459(15) Uani 1 1 d . . .
O1W O 0.217(3) 1.0636(10) 0.6048(9) 0.253(15) Uani 1 1 d . . .
O3 O 0.4307(7) 0.9381(3) 0.3287(2) 0.0406(14) Uani 1 1 d . . .
O2W O 0.589(4) 0.729(2) 0.0245(8) 0.171(16) Uani 0.50 1 d P . .
O4 O 0.4536(9) 0.7031(3) 0.1933(2) 0.0500(16) Uani 1 1 d . . .
O3W O 0.183(2) 0.7380(12) 0.1351(6) 0.167(7) Uani 1 1 d . . .
O5 O 0.5774(9) 0.6076(4) 0.1659(3) 0.0526(17) Uani 1 1 d . . .
O4W O 0.6477(14) 0.9731(8) 0.2258(6) 0.059(4) Uani 0.50 1 d P . .
O6 O 0.6157(7) 0.5617(3) 0.2556(2) 0.0398(13) Uani 1 1 d . . .
O7 O 0.6477(9) 0.8242(4) 0.2133(3) 0.064(2) Uani 1 1 d . . .
O8 O 0.0853(9) 1.0905(4) 0.2876(3) 0.061(2) Uani 1 1 d . . .
O9 O 0.1579(10) 1.0116(5) 0.3756(3) 0.072(2) Uani 1 1 d D . .
O10 O 0.3976(14) 0.9109(7) 0.4502(4) 0.047(3) Uani 0.50 1 d PD . .
S1 S 0.7878(4) 0.78454(18) 0.19748(17) 0.0831(11) Uani 1 1 d . . .
S2 S 0.0545(3) 1.11653(15) 0.23814(12) 0.0612(8) Uani 1 1 d . . .
S3 S 0.0711(10) 1.0596(6) 0.4037(4) 0.217(5) Uani 1 1 d D . .
S4 S 0.5412(9) 0.9329(5) 0.4746(3) 0.093(2) Uani 0.50 1 d PD . .

loop_
_atom_site_aniso_label
_atom_site_aniso_U_11
_atom_site_aniso_U_22
_atom_site_aniso_U_33
_atom_site_aniso_U_23
_atom_site_aniso_U_13
_atom_site_aniso_U_12
C1 0.032(4) 0.021(3) 0.056(5) 0.008(3) 0.009(4) 0.001(3)
C2 0.023(4) 0.037(4) 0.062(5) 0.021(4) 0.005(4) 0.007(3)
C3 0.031(4) 0.027(4) 0.067(5) 0.003(4) 0.009(4) -0.009(3)
C4 0.029(4) 0.037(4) 0.063(6) -0.009(4) -0.004(4) -0.009(4)
C5 0.022(4) 0.042(5) 0.049(5) 0.004(4) 0.000(3) -0.003(3)
C6 0.027(4) 0.036(4) 0.058(5) 0.006(4) -0.003(4) 0.002(3)
C7 0.033(4) 0.046(5) 0.058(5) -0.009(4) 0.008(4) -0.012(4)
C8 0.029(4) 0.045(5) 0.053(5) -0.003(4) 0.003(4) -0.001(4)
C9 0.024(4) 0.052(5) 0.057(5) 0.000(4) -0.005(4) -0.006(4)
C10 0.015(4) 0.069(7) 0.067(6) 0.002(5) 0.004(4) 0.002(4)
C11 0.035(5) 0.039(5) 0.071(6) 0.015(4) -0.001(4) 0.010(4)
C12 0.041(5) 0.044(5) 0.067(6) 0.008(5) -0.005(5) 0.002(4)
C13 0.031(4) 0.035(4) 0.043(4) 0.000(3) 0.008(3) -0.001(3)
C14 0.032(4) 0.024(3) 0.045(4) 0.005(3) 0.001(3) -0.005(3)
C15 0.025(4) 0.024(4) 0.054(5) 0.002(3) 0.004(4) 0.001(3)
C16 0.028(5) 0.043(5) 0.068(6) 0.009(4) 0.000(4) -0.006(4)
C17 0.040(5) 0.043(5) 0.081(7) 0.032(5) 0.016(5) 0.003(4)
C18 0.041(5) 0.062(6) 0.058(6) 0.027(5) 0.005(5) 0.005(5)
C19 0.057(7) 0.103(10) 0.070(8) 0.034(8) 0.019(6) 0.008(7)
C20 0.098(12) 0.131(14) 0.055(7) 0.023(8) 0.030(8) 0.008(11)
C21 0.071(8) 0.079(8) 0.052(6) 0.004(6) -0.012(5) 0.004(7)
C22 0.039(5) 0.051(5) 0.065(6) -0.005(5) 0.005(4) 0.006(5)
C23 0.030(4) 0.040(5) 0.058(5) 0.014(4) -0.004(4) 0.012(4)
C24 0.017(3) 0.035(4) 0.060(5) 0.015(4) 0.003(3) 0.003(3)
C25 0.058(9) 0.096(11) 0.165(17) -0.014(12) 0.012(10) -0.019(8)
C26 0.101(14) 0.114(14) 0.18(2) -0.050(14) 0.063(14) -0.048(13)
C27 0.103(12) 0.093(10) 0.100(11) 0.002(9) 0.000(9) 0.066(10)
C28 0.119(15) 0.049(7) 0.155(15) -0.016(8) -0.038(12) 0.005(8)
C29 0.42(7) 1.3(2) 0.17(2) 0.12(6) 0.13(3) 0.44(11)
C30 0.42(7) 1.3(2) 0.17(2) 0.12(6) 0.13(3) 0.44(11)
C31 0.36(8) 0.10(3) 0.30(6) 0.06(3) -0.15(7) -0.03(4)
C32 0.36(8) 0.10(3) 0.30(6) 0.06(3) -0.15(7) -0.03(4)
Cu1 0.0317(5) 0.0290(5) 0.0561(6) 0.0031(4) -0.0037(5) 0.0036(4)
Mn1 0.0334(7) 0.0286(6) 0.0654(9) 0.0041(6) 0.0051(6) 0.0047(5)
N1 0.025(3) 0.023(3) 0.066(5) 0.007(3) 0.001(3) -0.002(3)
N2 0.033(3) 0.014(3) 0.060(4) 0.003(3) 0.004(3) -0.003(3)
O1 0.030(3) 0.029(3) 0.065(4) -0.002(3) -0.003(3) 0.007(2)
O2 0.027(3) 0.035(3) 0.075(4) 0.007(3) -0.005(3) 0.001(2)
O1W 0.29(3) 0.140(14) 0.33(3) 0.059(17) 0.24(3) 0.053(17)
O3 0.032(3) 0.029(3) 0.061(4) 0.003(3) 0.001(3) 0.004(2)
O2W 0.21(3) 0.24(4) 0.065(13) 0.068(19) 0.004(17) 0.08(3)
O4 0.055(4) 0.035(3) 0.060(4) -0.006(3) -0.010(4) 0.008(3)
O3W 0.138(14) 0.21(2) 0.148(13) 0.025(14) -0.017(11) 0.024(15)
O5 0.054(4) 0.041(4) 0.062(4) -0.006(3) -0.005(3) -0.001(3)
O4W 0.027(6) 0.047(7) 0.105(11) 0.031(8) 0.003(7) 0.002(6)
O6 0.034(3) 0.023(2) 0.063(4) 0.003(3) 0.003(3) 0.002(2)
O7 0.047(4) 0.056(4) 0.089(5) 0.010(4) 0.016(4) -0.007(4)
O8 0.044(4) 0.057(4) 0.083(5) -0.002(4) -0.003(4) 0.022(3)
O9 0.062(5) 0.073(5) 0.080(5) -0.003(4) 0.024(4) -0.009(4)
O10 0.042(7) 0.063(8) 0.035(6) 0.001(6) -0.023(5) 0.009(6)
S1 0.0536(17) 0.0578(17) 0.138(3) -0.0040(19) 0.030(2) -0.0069(14)
S2 0.0414(13) 0.0506(14) 0.092(2) -0.0037(13) -0.0051(13) 0.0126(11)
S3 0.133(6) 0.272(11) 0.247(9) -0.143(9) 0.071(6) 0.006(7)
S4 0.060(4) 0.095(5) 0.125(6) -0.036(5) -0.028(4) 0.006(4)

_geom_special_details            
;
All esds (except the esd in the dihedral angle between two l.s. planes)
are estimated using the full covariance matrix. The cell esds are taken
into account individually in the estimation of esds in distances, angles
and torsion angles; correlations between esds in cell parameters are only
used when they are defined by crystal symmetry. An approximate (isotropic)
treatment of cell esds is used for estimating esds involving l.s. planes.
;

loop_
_geom_bond_atom_site_label_1
_geom_bond_atom_site_label_2
_geom_bond_distance
_geom_bond_site_symmetry_2
_geom_bond_publ_flag
C1 O3 1.241(10) . ?
C1 N1 1.340(10) . ?
C1 C2 1.509(13) . ?
C2 O1 1.234(11) . ?
C2 O2 1.257(10) . ?
C3 O6 1.243(10) . ?
C3 N2 1.344(12) . ?
C3 C4 1.514(14) . ?
C4 O4 1.260(11) . ?
C4 O5 1.262(12) . ?
C5 C14 1.371(12) . ?
C5 C6 1.398(12) . ?
C5 N1 1.449(11) . ?
C6 C7 1.361(13) . ?
C7 C8 1.429(14) . ?
C8 C9 1.394(13) . ?
C8 C13 1.427(13) . ?
C9 C10 1.358(15) . ?
C10 C11 1.399(14) . ?
C11 C12 1.384(15) . ?
C12 C13 1.392(13) . ?
C13 C14 1.448(12) . ?
C14 C24 1.490(11) . ?
C15 C24 1.387(13) . ?
C15 N2 1.414(11) . ?
C15 C16 1.435(12) . ?
C16 C17 1.356(15) . ?
C17 C18 1.438(17) . ?
C18 C23 1.391(14) . ?
C18 C19 1.438(16) . ?
C19 C20 1.45(2) . ?
C20 C21 1.33(2) . ?
C21 C22 1.362(16) . ?
C22 C23 1.450(15) . ?
C23 C24 1.423(13) . ?
C25 S1 1.772(15) . ?
C