####################################################################### 
# 
# This file contains crystal structure data downloaded from the 
# Cambridge Structural Database (CSD) hosted by the Cambridge 
# Crystallographic Data Centre (CCDC).
# 
# Full information about CCDC data access policies and citation 
# guidelines are available at http://www.ccdc.cam.ac.uk/access/V1 
# 
# Audit and citation data items may have been added by the CCDC. 
# Please retain this information to preserve the provenance of 
# this file and to allow appropriate attribution of the data. 
# 
#######################################################################

data_compound3
_audit_block_doi                 10.5517/ccx58x7
_database_code_depnum_ccdc_archive 'CCDC 839229'
loop_
_citation_id
_citation_doi
_citation_year
1 10.1021/ja2079064 2011
_audit_update_record             
;
2011-08-15 deposited with the CCDC.	2024-07-13 downloaded from the CCDC.
;
#TrackingRef 'compound3.cif'

_audit_creation_method           SHELXL-97
_chemical_name_systematic        
;
?
;
_chemical_name_common            ?
_chemical_melting_point          ?
_chemical_formula_moiety         ?
_chemical_formula_sum            'C81 H81 I6 N13 O2 Zn3'
_chemical_formula_weight         2226.10

loop_
_atom_type_symbol
_atom_type_description
_atom_type_scat_dispersion_real
_atom_type_scat_dispersion_imag
_atom_type_scat_source
C C 0.0033 0.0016 'International Tables Vol C Tables 4.2.6.8 and 6.1.1.4'
H H 0.0000 0.0000 'International Tables Vol C Tables 4.2.6.8 and 6.1.1.4'
N N 0.0061 0.0033 'International Tables Vol C Tables 4.2.6.8 and 6.1.1.4'
O O 0.0106 0.0060 'International Tables Vol C Tables 4.2.6.8 and 6.1.1.4'
Zn Zn 0.2839 1.4301 'International Tables Vol C Tables 4.2.6.8 and 6.1.1.4'
I I -0.4742 1.8119 'International Tables Vol C Tables 4.2.6.8 and 6.1.1.4'

_symmetry_cell_setting           Orthorhombic
_symmetry_space_group_name_H-M   Pbca

loop_
_symmetry_equiv_pos_as_xyz
'x, y, z'
'-x+1/2, -y, z+1/2'
'-x, y+1/2, -z+1/2'
'x+1/2, -y+1/2, -z'
'-x, -y, -z'
'x-1/2, y, -z-1/2'
'x, -y-1/2, z-1/2'
'-x-1/2, y-1/2, z'

_cell_length_a                   27.110(5)
_cell_length_b                   13.785(3)
_cell_length_c                   45.814(9)
_cell_angle_alpha                90.00
_cell_angle_beta                 90.00
_cell_angle_gamma                90.00
_cell_volume                     17121(6)
_cell_formula_units_Z            8
_cell_measurement_temperature    90(2)
_cell_measurement_reflns_used    8830
_cell_measurement_theta_min      2.33
_cell_measurement_theta_max      21.51

_exptl_crystal_description       prism
_exptl_crystal_colour            yellow
_exptl_crystal_size_max          0.12
_exptl_crystal_size_mid          0.07
_exptl_crystal_size_min          0.06
_exptl_crystal_density_meas      ?
_exptl_crystal_density_diffrn    1.727
_exptl_crystal_density_method    'not measured'
_exptl_crystal_F_000             8656
_exptl_absorpt_coefficient_mu    3.049
_exptl_absorpt_correction_type   empirical
_exptl_absorpt_correction_T_min  0.7111
_exptl_absorpt_correction_T_max  0.8382
_exptl_absorpt_process_details   SADABS

_exptl_special_details           
;
?
;

_diffrn_ambient_temperature      90(2)
_diffrn_radiation_wavelength     0.71073
_diffrn_radiation_type           MoK\a
_diffrn_radiation_source         'fine-focus sealed tube'
_diffrn_radiation_monochromator  graphite
_diffrn_measurement_device_type  'CCD area detector'
_diffrn_measurement_method       'phi and omega scans'
_diffrn_detector_area_resol_mean ?
_diffrn_standards_number         ?
_diffrn_standards_interval_count ?
_diffrn_standards_interval_time  ?
_diffrn_standards_decay_%        ?
_diffrn_reflns_number            152007
_diffrn_reflns_av_R_equivalents  0.0641
_diffrn_reflns_av_sigmaI/netI    0.0315
_diffrn_reflns_limit_h_min       -31
_diffrn_reflns_limit_h_max       31
_diffrn_reflns_limit_k_min       -16
_diffrn_reflns_limit_k_max       16
_diffrn_reflns_limit_l_min       -53
_diffrn_reflns_limit_l_max       53
_diffrn_reflns_theta_min         1.50
_diffrn_reflns_theta_max         24.71
_reflns_number_total             14597
_reflns_number_gt                11063
_reflns_threshold_expression     >2sigma(I)

_computing_data_collection       'Bruker SMART'
_computing_cell_refinement       'Bruker SMART'
_computing_data_reduction        'Bruker SAINT'
_computing_structure_solution    'SHELXS-97 (Sheldrick, 1990)'
_computing_structure_refinement  'SHELXL-97 (Sheldrick, 1997)'
_computing_molecular_graphics    'Bruker SHELXTL'
_computing_publication_material  'Bruker SHELXTL'

_refine_special_details          
;
Refinement of F^2^ against ALL reflections. The weighted R-factor wR and
goodness of fit S are based on F^2^, conventional R-factors R are based
on F, with F set to zero for negative F^2^. The threshold expression of
F^2^ > 2sigma(F^2^) is used only for calculating R-factors(gt) etc. and is
not relevant to the choice of reflections for refinement. R-factors based
on F^2^ are statistically about twice as large as those based on F, and R-
factors based on ALL data will be even larger.
;

_refine_ls_structure_factor_coef Fsqd
_refine_ls_matrix_type           full
_refine_ls_weighting_scheme      calc
_refine_ls_weighting_details     
'calc w=1/[\s^2^(Fo^2^)+(0.2000P)^2^+0.0000P] where P=(Fo^2^+2Fc^2^)/3'
_atom_sites_solution_primary     direct
_atom_sites_solution_secondary   difmap
_atom_sites_solution_hydrogens   geom
_refine_ls_hydrogen_treatment    constr
_refine_ls_extinction_method     none
_refine_ls_extinction_coef       ?
_refine_ls_number_reflns         14597
_refine_ls_number_parameters     946
_refine_ls_number_restraints     508
_refine_ls_R_factor_all          0.1244
_refine_ls_R_factor_gt           0.0997
_refine_ls_wR_factor_ref         0.3681
_refine_ls_wR_factor_gt          0.3464
_refine_ls_goodness_of_fit_ref   1.516
_refine_ls_restrained_S_all      1.512
_refine_ls_shift/su_max          0.002
_refine_ls_shift/su_mean         0.000

loop_
_atom_site_label
_atom_site_type_symbol
_atom_site_fract_x
_atom_site_fract_y
_atom_site_fract_z
_atom_site_U_iso_or_equiv
_atom_site_adp_type
_atom_site_occupancy
_atom_site_symmetry_multiplicity
_atom_site_calc_flag
_atom_site_refinement_flags
_atom_site_disorder_assembly
_atom_site_disorder_group
C1A C 0.2932(14) 0.956(2) 1.0290(5) 0.209(14) Uani 1 1 d DU . .
H1AA H 0.2915 0.9529 1.0505 0.251 Uiso 1 1 calc R . .
H1AB H 0.2904 1.0258 1.0236 0.251 Uiso 1 1 calc R . .
C2A C 0.3452(12) 0.922(2) 1.0196(7) 0.199(13) Uani 1 1 d DU . .
H2AA H 0.3506 0.9345 0.9986 0.238 Uiso 1 1 calc R . .
H2AB H 0.3709 0.9562 1.0309 0.238 Uiso 1 1 calc R . .
C3A C 0.3476(11) 0.823(2) 1.0251(7) 0.205(14) Uani 1 1 d DU . .
H3AA H 0.3482 0.8129 1.0465 0.246 Uiso 1 1 calc R . .
H3AB H 0.3790 0.7978 1.0171 0.246 Uiso 1 1 calc R . .
C4A C 0.3022(11) 0.762(2) 1.0113(7) 0.190(13) Uani 1 1 d DU . .
H4AA H 0.3051 0.6922 1.0162 0.228 Uiso 1 1 calc R . .
H4AB H 0.3011 0.7691 0.9898 0.228 Uiso 1 1 calc R . .
C5A C 0.2526(11) 0.811(2) 1.0268(7) 0.204(14) Uani 1 1 d DU . .
H5AA H 0.2229 0.7727 1.0216 0.245 Uiso 1 1 calc R . .
H5AB H 0.2562 0.8099 1.0483 0.245 Uiso 1 1 calc R . .
C6A C 0.2480(12) 0.905(3) 1.0170(8) 0.220(15) Uani 1 1 d DU . .
H6AA H 0.2173 0.9347 1.0244 0.264 Uiso 1 1 calc R . .
H6AB H 0.2476 0.9067 0.9954 0.264 Uiso 1 1 calc R . .
C1B C 0.0594(10) 0.6466(18) 0.1866(5) 0.123(8) Uani 1 1 d DU . .
H1BA H 0.0951 0.6311 0.1871 0.147 Uiso 1 1 calc R . .
H1BB H 0.0412 0.5860 0.1910 0.147 Uiso 1 1 calc R . .
C2B C 0.0482(9) 0.7213(18) 0.2112(5) 0.121(8) Uani 1 1 d DU . .
H2BA H 0.0552 0.6923 0.2305 0.146 Uiso 1 1 calc R . .
H2BB H 0.0694 0.7793 0.2088 0.146 Uiso 1 1 calc R . .
C3B C -0.0005(10) 0.7473(19) 0.2095(5) 0.135(9) Uani 1 1 d DU . .
H3BA H -0.0066 0.8005 0.2236 0.162 Uiso 1 1 calc R . .
H3BB H -0.0209 0.6912 0.2156 0.162 Uiso 1 1 calc R . .
C4B C -0.0188(11) 0.7818(19) 0.1781(6) 0.143(9) Uani 1 1 d DU . .
H4BA H -0.0011 0.8408 0.1717 0.172 Uiso 1 1 calc R . .
H4BB H -0.0547 0.7949 0.1781 0.172 Uiso 1 1 calc R . .
C5B C -0.0050(9) 0.686(2) 0.1565(6) 0.140(9) Uani 1 1 d DU . .
H5BA H -0.0195 0.6261 0.1646 0.168 Uiso 1 1 calc R . .
H5BB H -0.0184 0.6966 0.1366 0.168 Uiso 1 1 calc R . .
C6B C 0.0460(8) 0.6793(16) 0.1555(4) 0.099(6) Uani 1 1 d DU . .
H6BA H 0.0612 0.7427 0.1509 0.119 Uiso 1 1 calc R . .
H6BB H 0.0567 0.6309 0.1409 0.119 Uiso 1 1 calc R . .
C1D C 0.2286(17) 0.722(3) 0.9397(12) 0.36(2) Uani 1 1 d DU . .
H1DA H 0.2341 0.7877 0.9317 0.433 Uiso 1 1 calc R . .
H1DB H 0.2592 0.7026 0.9500 0.433 Uiso 1 1 calc R . .
C2D C 0.1868(18) 0.729(3) 0.9626(11) 0.35(2) Uani 1 1 d DU . .
H2DA H 0.1962 0.7743 0.9783 0.416 Uiso 1 1 calc R . .
H2DB H 0.1562 0.7529 0.9534 0.416 Uiso 1 1 calc R . .
C3D C 0.1790(15) 0.638(3) 0.9740(8) 0.30(2) Uani 1 1 d DU . .
H3DA H 0.1458 0.6376 0.9831 0.361 Uiso 1 1 calc R . .
H3DB H 0.2033 0.6278 0.9898 0.361 Uiso 1 1 calc R . .
C4D C 0.1824(15) 0.549(3) 0.9519(9) 0.301(19) Uani 1 1 d DU . .
H4DA H 0.1502 0.5413 0.9421 0.361 Uiso 1 1 calc R . .
H4DB H 0.1892 0.4894 0.9631 0.361 Uiso 1 1 calc R . .
C5D C 0.2254(14) 0.563(3) 0.9273(10) 0.286(19) Uani 1 1 d DU . .
H5DA H 0.2582 0.5577 0.9365 0.343 Uiso 1 1 calc R . .
H5DB H 0.2224 0.5116 0.9124 0.343 Uiso 1 1 calc R . .
C6D C 0.2212(15) 0.652(3) 0.9140(8) 0.31(2) Uani 1 1 d DU . .
H6DA H 0.1883 0.6610 0.9050 0.375 Uiso 1 1 calc R . .
H6DB H 0.2470 0.6616 0.8989 0.375 Uiso 1 1 calc R . .
C1X C 0.3323(5) 0.6955(10) 0.1640(3) 0.062(4) Uani 1 1 d DU . .
C2X C 0.3807(5) 0.6910(10) 0.1763(3) 0.069(4) Uani 1 1 d DU . .
H2XA H 0.3855 0.7032 0.1965 0.083 Uiso 1 1 calc R . .
C3X C 0.4205(6) 0.6686(11) 0.1585(4) 0.076(5) Uani 1 1 d DU . .
C4X C 0.4149(6) 0.6556(11) 0.1286(3) 0.066(4) Uani 1 1 d DU . .
H4XA H 0.4429 0.6422 0.1168 0.080 Uiso 1 1 calc R . .
C5X C 0.3692(5) 0.6622(11) 0.1163(3) 0.069(4) Uani 1 1 d DU . .
H5XA H 0.3654 0.6573 0.0958 0.082 Uiso 1 1 calc R . .
C6X C 0.3263(5) 0.6769(10) 0.1348(3) 0.064(4) Uani 1 1 d DU . .
C7X C 0.2769(6) 0.6694(10) 0.1225(4) 0.080(5) Uani 1 1 d DU . .
C8X C 0.2669(6) 0.6517(12) 0.0928(4) 0.096(6) Uani 1 1 d DU . .
H8XA H 0.2941 0.6491 0.0798 0.116 Uiso 1 1 calc R . .
C9X C 0.2211(9) 0.6379(18) 0.0816(5) 0.138(8) Uani 1 1 d DU . .
H9XA H 0.2163 0.6223 0.0616 0.165 Uiso 1 1 calc R . .
C10X C 0.1815(8) 0.6477(15) 0.1005(5) 0.117(7) Uani 1 1 d DU . .
H10B H 0.1493 0.6372 0.0930 0.140 Uiso 1 1 calc R . .
C11X C 0.1860(7) 0.6701(12) 0.1274(4) 0.099(6) Uani 1 1 d DU . .
H11B H 0.1577 0.6766 0.1395 0.119 Uiso 1 1 calc R . .
C12X C 0.2364(6) 0.6857(10) 0.1395(4) 0.081(5) Uani 1 1 d DU . .
C13X C 0.2411(6) 0.7137(12) 0.1689(4) 0.090(5) Uani 1 1 d DU . .
C14X C 0.1989(7) 0.7347(14) 0.1880(4) 0.112(7) Uani 1 1 d DU . .
H14B H 0.1664 0.7253 0.1808 0.134 Uiso 1 1 calc R . .
C15X C 0.2055(9) 0.7672(17) 0.2155(5) 0.119(7) Uani 1 1 d DU . .
H15B H 0.1779 0.7869 0.2268 0.143 Uiso 1 1 calc R . .
C16X C 0.2511(8) 0.7718(11) 0.2268(4) 0.106(6) Uani 1 1 d DU . .
H16A H 0.2548 0.7922 0.2465 0.127 Uiso 1 1 calc R . .
C17X C 0.2936(7) 0.7476(11) 0.2109(4) 0.102(6) Uani 1 1 d DU . .
H17A H 0.3250 0.7505 0.2200 0.123 Uiso 1 1 calc R . .
C18X C 0.2899(6) 0.7184(10) 0.1807(3) 0.072(4) Uani 1 1 d DU . .
C19X C 0.4698(7) 0.6598(13) 0.1742(6) 0.099(6) Uani 1 1 d U . .
H19B H 0.4944 0.6710 0.1582 0.119 Uiso 1 1 calc R . .
C20X C 0.4837(9) 0.7291(14) 0.1959(5) 0.109(7) Uani 1 1 d U . .
H20B H 0.4611 0.7790 0.2009 0.131 Uiso 1 1 calc R . .
C21X C 0.5272(9) 0.7260(18) 0.2092(7) 0.132(9) Uani 1 1 d U . .
H21A H 0.5380 0.7708 0.2237 0.159 Uiso 1 1 calc R . .
C22X C 0.5572(11) 0.641(2) 0.1982(8) 0.154(10) Uani 1 1 d U . .
H22B H 0.5688 0.6556 0.1782 0.184 Uiso 1 1 calc R . .
H22C H 0.5867 0.6332 0.2107 0.184 Uiso 1 1 calc R . .
C23X C 0.4807(8) 0.5531(15) 0.1840(6) 0.102(6) Uani 1 1 d U . .
H23B H 0.4805 0.5098 0.1665 0.122 Uiso 1 1 calc R . .
C24X C 0.5312(11) 0.552(2) 0.1976(7) 0.137(8) Uani 1 1 d U . .
H24B H 0.5518 0.5018 0.1876 0.164 Uiso 1 1 calc R . .
C25X C 0.4455(7) 0.5151(10) 0.2059(4) 0.076(5) Uani 1 1 d U . .
C26X C 0.5208(8) 0.5191(13) 0.2285(6) 0.108(7) Uani 1 1 d U . .
C27X C 0.4390(11) 0.4713(18) 0.2600(5) 0.135(11) Uani 1 1 d U . .
H27B H 0.4609 0.4659 0.2769 0.202 Uiso 1 1 calc R . .
H27C H 0.4236 0.4082 0.2561 0.202 Uiso 1 1 calc R . .
H27D H 0.4133 0.5194 0.2640 0.202 Uiso 1 1 calc R . .
N1X N 0.4703(7) 0.5044(10) 0.2320(4) 0.102(6) Uani 1 1 d U . .
O1X O 0.4008(4) 0.4970(8) 0.2035(3) 0.082(4) Uani 1 1 d U . .
O2X O 0.5498(7) 0.5086(12) 0.2479(5) 0.154(8) Uani 1 1 d U . .
Zn1 Zn 0.24344(8) 0.65442(11) 0.31134(4) 0.0599(5) Uani 1 1 d . . .
Zn2 Zn -0.03271(6) 0.35688(11) 0.08311(5) 0.0607(5) Uani 1 1 d . . .
Zn3 Zn 0.44897(5) 0.35381(11) 0.07401(3) 0.0442(4) Uani 1 1 d . . .
I1 I 0.33636(6) 0.67180(11) 0.32062(3) 0.0907(5) Uani 1 1 d . . .
I2 I 0.19083(6) 0.80873(7) 0.30503(3) 0.0836(4) Uani 1 1 d . . .
I3 I -0.08519(5) 0.26389(10) 0.11872(5) 0.1171(7) Uani 1 1 d . . .
I4 I -0.00860(4) 0.28958(9) 0.03317(3) 0.0873(5) Uani 1 1 d . . .
I5 I 0.51659(3) 0.44655(8) 0.10070(2) 0.0607(3) Uani 1 1 d . . .
I6 I 0.44458(5) 0.17235(8) 0.06485(3) 0.0781(4) Uani 1 1 d . . .
C1 C 0.2726(5) 0.5489(9) 0.2583(3) 0.047(3) Uani 1 1 d . . .
H1A H 0.3046 0.5562 0.2666 0.057 Uiso 1 1 calc R . .
C2 C 0.2688(5) 0.5143(8) 0.2295(3) 0.039(3) Uani 1 1 d . . .
H2A H 0.2972 0.4995 0.2181 0.046 Uiso 1 1 calc R . .
C3 C 0.2213(4) 0.5026(7) 0.2183(3) 0.037(3) Uani 1 1 d . . .
C4 C 0.1812(5) 0.5229(9) 0.2353(3) 0.052(3) Uani 1 1 d . . .
H4A H 0.1489 0.5105 0.2282 0.062 Uiso 1 1 calc R . .
C5 C 0.1881(6) 0.5604(10) 0.2619(3) 0.054(3) Uani 1 1 d . . .
H5A H 0.1600 0.5803 0.2727 0.065 Uiso 1 1 calc R . .
C6 C 0.0334(4) 0.3999(9) 0.1337(4) 0.052(3) Uani 1 1 d . . .
H6A H 0.0035 0.3939 0.1444 0.062 Uiso 1 1 calc R . .
C7 C 0.0780(5) 0.4172(9) 0.1489(3) 0.048(3) Uani 1 1 d . . .
H7A H 0.0781 0.4239 0.1695 0.058 Uiso 1 1 calc R . .
C8 C 0.1209(4) 0.4240(7) 0.1333(3) 0.039(3) Uani 1 1 d . . .
C9 C 0.1177(5) 0.4163(10) 0.1037(3) 0.052(3) Uani 1 1 d . . .
H9A H 0.1469 0.4226 0.0924 0.062 Uiso 1 1 calc R . .
C10 C 0.0739(5) 0.3998(10) 0.0897(3) 0.054(3) Uani 1 1 d . . .
H10A H 0.0732 0.3940 0.0690 0.065 Uiso 1 1 calc R . .
C11 C 0.3407(5) 0.3844(9) 0.0837(2) 0.041(3) Uani 1 1 d . . .
H11A H 0.3399 0.3698 0.0634 0.049 Uiso 1 1 calc R . .
C12 C 0.2975(4) 0.3980(8) 0.0971(2) 0.036(3) Uani 1 1 d . . .
H12A H 0.2671 0.3915 0.0870 0.043 Uiso 1 1 calc R . .
C13 C 0.2993(4) 0.4230(7) 0.1273(2) 0.030(2) Uani 1 1 d . . .
C14 C 0.3449(4) 0.4315(7) 0.1411(2) 0.032(2) Uani 1 1 d . . .
H14A H 0.3478 0.4496 0.1610 0.038 Uiso 1 1 calc R . .
C15 C 0.3851(4) 0.4121(7) 0.1241(2) 0.032(2) Uani 1 1 d . . .
H15A H 0.4163 0.4155 0.1335 0.039 Uiso 1 1 calc R . .
C16 C 0.2158(4) 0.4725(7) 0.1869(2) 0.031(2) Uani 1 1 d . . .
C17 C 0.1703(4) 0.4382(7) 0.1480(3) 0.037(3) Uani 1 1 d . . .
C18 C 0.2533(4) 0.4388(7) 0.1440(2) 0.027(2) Uani 1 1 d . . .
C19 C 0.4403(6) 0.5194(11) 0.0328(3) 0.062(4) Uani 1 1 d . . .
H19A H 0.4538 0.5530 0.0490 0.075 Uiso 1 1 calc R . .
C20 C 0.4282(6) 0.5734(10) 0.0085(3) 0.057(4) Uani 1 1 d . . .
H20A H 0.4354 0.6407 0.0075 0.068 Uiso 1 1 calc R . .
C21 C 0.4049(4) 0.5255(9) -0.0147(2) 0.040(3) Uani 1 1 d . . .
C22 C 0.3992(6) 0.4254(10) -0.0129(3) 0.055(4) Uani 1 1 d . . .
H22A H 0.3856 0.3895 -0.0286 0.066 Uiso 1 1 calc R . .
C23 C 0.4141(5) 0.3789(10) 0.0128(2) 0.046(3) Uani 1 1 d . . .
H23A H 0.4092 0.3108 0.0142 0.056 Uiso 1 1 calc R . .
C24 C 0.3015(6) 0.3804(10) -0.1322(3) 0.059(4) Uani 1 1 d . . .
H24A H 0.2962 0.3125 -0.1307 0.071 Uiso 1 1 calc R . .
C25 C 0.3224(7) 0.4310(10) -0.1083(3) 0.068(5) Uani 1 1 d . . .
H25A H 0.3306 0.3978 -0.0908 0.082 Uiso 1 1 calc R . .
C26 C 0.3305(5) 0.5277(9) -0.1108(3) 0.049(3) Uani 1 1 d . . .
C27 C 0.3149(8) 0.5742(11) -0.1345(3) 0.079(6) Uani 1 1 d . . .
H27A H 0.3178 0.6428 -0.1355 0.095 Uiso 1 1 calc R . .
C28 C 0.2946(7) 0.5239(10) -0.1573(4) 0.077(5) Uani 1 1 d . . .
H28A H 0.2840 0.5581 -0.1742 0.092 Uiso 1 1 calc R . .
C29 C 0.4142(6) 0.9630(10) -0.0989(3) 0.059(4) Uani 1 1 d . . .
H29A H 0.4107 0.9951 -0.1171 0.071 Uiso 1 1 calc R . .
C30 C 0.3961(6) 0.8699(10) -0.0960(3) 0.062(4) Uani 1 1 d . . .
H30A H 0.3803 0.8398 -0.1121 0.074 Uiso 1 1 calc R . .
C31 C 0.4007(4) 0.8203(9) -0.0704(3) 0.040(3) Uani 1 1 d . . .
C32 C 0.4240(5) 0.8657(10) -0.0469(3) 0.050(3) Uani 1 1 d . . .
H32A H 0.4289 0.8319 -0.0290 0.060 Uiso 1 1 calc R . .
C33 C 0.4403(5) 0.9628(11) -0.0500(4) 0.063(4) Uani 1 1 d . . .
H33A H 0.4541 0.9968 -0.0339 0.075 Uiso 1 1 calc R . .
C34 C 0.3878(5) 0.5801(9) -0.0413(3) 0.046(3) Uani 1 1 d . . .
C35 C 0.3535(4) 0.5800(9) -0.0849(2) 0.041(3) Uani 1 1 d . . .
C36 C 0.3864(5) 0.7164(9) -0.0668(3) 0.047(3) Uani 1 1 d . . .
N1 N 0.2339(4) 0.5717(7) 0.2744(2) 0.044(2) Uani 1 1 d . . .
N2 N 0.0320(4) 0.3919(7) 0.1051(3) 0.051(3) Uani 1 1 d . . .
N3 N 0.3855(3) 0.3896(7) 0.09661(18) 0.033(2) Uani 1 1 d . . .
N4 N 0.1704(3) 0.4609(6) 0.1761(2) 0.038(2) Uani 1 1 d . . .
N5 N 0.2093(3) 0.4235(7) 0.1308(2) 0.039(2) Uani 1 1 d . . .
N6 N 0.2579(3) 0.4633(6) 0.1725(2) 0.0313(19) Uani 1 1 d . . .
N7 N 0.4346(4) 0.4239(8) 0.0352(2) 0.049(3) Uani 1 1 d . . .
N8 N 0.2892(6) 0.4252(8) -0.1562(3) 0.071(4) Uani 1 1 d . . .
N9 N 0.4357(3) 1.0081(8) -0.0776(3) 0.049(3) Uani 1 1 d . . .
N10 N 0.3643(4) 0.5291(7) -0.0614(2) 0.040(2) Uani 1 1 d . . .
N11 N 0.3633(4) 0.6744(7) -0.0891(2) 0.047(3) Uani 1 1 d . . .
N12 N 0.3989(4) 0.6715(7) -0.0421(2) 0.042(2) Uani 1 1 d . . .

loop_
_atom_site_aniso_label
_atom_site_aniso_U_11
_atom_site_aniso_U_22
_atom_site_aniso_U_33
_atom_site_aniso_U_23
_atom_site_aniso_U_13
_atom_site_aniso_U_12
C1A 0.31(3) 0.27(3) 0.055(14) 0.006(18) 0.030(19) 0.09(3)
C2A 0.26(3) 0.23(3) 0.100(18) 0.00(2) -0.04(2) 0.08(3)
C3A 0.23(3) 0.26(3) 0.12(2) -0.10(2) -0.04(2) 0.07(3)
C4A 0.17(2) 0.25(3) 0.15(2) -0.10(2) -0.068(18) 0.07(2)
C5A 0.19(3) 0.25(3) 0.17(2) -0.04(2) -0.03(2) 0.09(3)
C6A 0.26(3) 0.26(3) 0.14(2) -0.03(2) -0.01(2) 0.09(3)
C1B 0.146(18) 0.116(17) 0.105(15) 0.023(14) 0.004(14) 0.027(14)
C2B 0.147(19) 0.097(15) 0.120(17) 0.003(13) 0.026(16) 0.006(14)
C3B 0.16(2) 0.109(