####################################################################### 
# 
# This file contains crystal structure data downloaded from the 
# Cambridge Structural Database (CSD) hosted by the Cambridge 
# Crystallographic Data Centre (CCDC).
# 
# Full information about CCDC data access policies and citation 
# guidelines are available at http://www.ccdc.cam.ac.uk/access/V1 
# 
# Audit and citation data items may have been added by the CCDC. 
# Please retain this information to preserve the provenance of 
# this file and to allow appropriate attribution of the data. 
# 
#######################################################################

data_EDTA
_audit_block_doi                 10.5517/cc573m3
_database_code_depnum_ccdc_archive 'CCDC 155794'
loop_
_citation_id
_citation_doi
_citation_year
1 10.1021/ic015518y 2001
_audit_update_record             
;
2001-01-09 deposited with the CCDC.	2024-07-13 downloaded from the CCDC.
;

_audit_creation_method           SHELXL-97
_chemical_name_systematic        
; 
? 
;
_chemical_name_common            ?
_chemical_melting_point          ?
_chemical_formula_moiety         ?
_chemical_formula_sum            'C45 H48 Cu3 N9 O13'
_chemical_formula_weight         1113.54

loop_
_atom_type_symbol
_atom_type_description
_atom_type_scat_dispersion_real
_atom_type_scat_dispersion_imag
_atom_type_scat_source
C C 0.0033 0.0016 'International Tables Vol C Tables 4.2.6.8 and 6.1.1.4'
H H 0.0000 0.0000 'International Tables Vol C Tables 4.2.6.8 and 6.1.1.4'
N N 0.0061 0.0033 'International Tables Vol C Tables 4.2.6.8 and 6.1.1.4'
O O 0.0106 0.0060 'International Tables Vol C Tables 4.2.6.8 and 6.1.1.4'
Cu Cu 0.3201 1.2651 'International Tables Vol C Tables 4.2.6.8 and 6.1.1.4'

_symmetry_cell_setting           monoclinic
_symmetry_space_group_name_H-M   C2/c

loop_
_symmetry_equiv_pos_as_xyz
'x, y, z'
'-x, y, -z+1/2'
'x+1/2, y+1/2, z'
'-x+1/2, y+1/2, -z+1/2'
'-x, -y, -z'
'x, -y, z-1/2'
'-x+1/2, -y+1/2, -z'
'x+1/2, -y+1/2, z-1/2'

_cell_length_a                   40.889(7)
_cell_length_b                   19.545(4)
_cell_length_c                   16.642(4)
_cell_angle_alpha                90.00
_cell_angle_beta                 90.717(6)
_cell_angle_gamma                90.00
_cell_volume                     13299(5)
_cell_formula_units_Z            8
_cell_measurement_temperature    293(2)
_cell_measurement_reflns_used    ?
_cell_measurement_theta_min      ?
_cell_measurement_theta_max      ?

_exptl_crystal_description       ?
_exptl_crystal_colour            blue
_exptl_crystal_size_max          0.60
_exptl_crystal_size_mid          0.40
_exptl_crystal_size_min          0.40
_exptl_crystal_density_meas      ?
_exptl_crystal_density_diffrn    1.112
_exptl_crystal_density_method    'not measured'
_exptl_crystal_F_000             4576
_exptl_absorpt_coefficient_mu    1.004
_exptl_absorpt_correction_type   empirical
_exptl_absorpt_correction_T_min  0.5842
_exptl_absorpt_correction_T_max  0.6896
_exptl_absorpt_process_details   ?

_exptl_special_details           
; 
? 
;

_diffrn_ambient_temperature      293(2)
_diffrn_radiation_wavelength     0.71073
_diffrn_radiation_type           MoK\a
_diffrn_radiation_source         'fine-focus sealed tube'
_diffrn_radiation_monochromator  graphite
_diffrn_measurement_device_type  ?
_diffrn_measurement_method       ?
_diffrn_detector_area_resol_mean ?
_diffrn_standards_number         ?
_diffrn_standards_interval_count ?
_diffrn_standards_interval_time  ?
_diffrn_standards_decay_%        ?
_diffrn_reflns_number            12345
_diffrn_reflns_av_R_equivalents  0.0799
_diffrn_reflns_av_sigmaI/netI    0.1515
_diffrn_reflns_limit_h_min       -42
_diffrn_reflns_limit_h_max       42
_diffrn_reflns_limit_k_min       -21
_diffrn_reflns_limit_k_max       12
_diffrn_reflns_limit_l_min       -18
_diffrn_reflns_limit_l_max       15
_diffrn_reflns_theta_min         12.83
_diffrn_reflns_theta_max         23.26
_reflns_number_total             7055
_reflns_number_gt                4111
_reflns_threshold_expression     >2sigma(I)

_computing_data_collection       'Bruker SMART'
_computing_cell_refinement       'Bruker SMART'
_computing_data_reduction        'Bruker SAINT'
_computing_structure_solution    'SHELXS-97 (Sheldrick, 1990)'
_computing_structure_refinement  'SHELXL-97 (Sheldrick, 1997)'
_computing_molecular_graphics    SHELXP-97
_computing_publication_material  SHELXTL

_refine_special_details          
; 
Refinement of F^2^ against ALL reflections.  The weighted R-factor wR and 
goodness of fit S are based on F^2^, conventional R-factors R are based 
on F, with F set to zero for negative F^2^. The threshold expression of 
F^2^ > 2sigma(F^2^) is used only for calculating R-factors(gt) etc. and is 
not relevant to the choice of reflections for refinement.  R-factors based 
on F^2^ are statistically about twice as large as those based on F, and R- 
factors based on ALL data will be even larger. 
;

_refine_ls_structure_factor_coef Fsqd
_refine_ls_matrix_type           full
_refine_ls_weighting_scheme      calc
_refine_ls_weighting_details     
'calc w=1/[\s^2^(Fo^2^)+(0.0541P)^2^+0.0000P] where P=(Fo^2^+2Fc^2^)/3'
_atom_sites_solution_primary     direct
_atom_sites_solution_secondary   difmap
_atom_sites_solution_hydrogens   geom
_refine_ls_hydrogen_treatment    mixed
_refine_ls_extinction_method     none
_refine_ls_extinction_coef       ?
_refine_ls_number_reflns         7055
_refine_ls_number_parameters     631
_refine_ls_number_restraints     0
_refine_ls_R_factor_all          0.1174
_refine_ls_R_factor_gt           0.0572
_refine_ls_wR_factor_ref         0.1395
_refine_ls_wR_factor_gt          0.1189
_refine_ls_goodness_of_fit_ref   0.930
_refine_ls_restrained_S_all      0.930
_refine_ls_shift/su_max          0.001
_refine_ls_shift/su_mean         0.000

loop_
_atom_site_label
_atom_site_type_symbol
_atom_site_fract_x
_atom_site_fract_y
_atom_site_fract_z
_atom_site_U_iso_or_equiv
_atom_site_adp_type
_atom_site_occupancy
_atom_site_symmetry_multiplicity
_atom_site_calc_flag
_atom_site_refinement_flags
_atom_site_disorder_assembly
_atom_site_disorder_group
Cu1 Cu 0.112637(18) 0.21081(4) 0.85764(5) 0.0328(3) Uani 1 1 d . . .
Cu2 Cu 0.135020(19) -0.22512(4) 0.87981(5) 0.0318(3) Uani 1 1 d . . .
Cu3 Cu 0.129228(19) 0.03405(4) 0.59742(4) 0.0305(3) Uani 1 1 d . . .
O1 O 0.13329(12) 0.1103(3) 0.5185(3) 0.0403(11) Uani 1 1 d . . .
O2 O 0.16154(11) 0.2056(2) 0.4970(3) 0.0407(11) Uani 1 1 d . . .
O3 O 0.14911(13) -0.0451(3) 0.5160(3) 0.0505(13) Uani 1 1 d . . .
O4 O 0.1900(3) -0.0434(7) 0.4312(8) 0.156(7) Uani 1 1 d . . .
O5 O 0.13287(11) -0.1377(2) 0.8183(3) 0.0353(11) Uani 1 1 d . . .
O6 O 0.11406(17) -0.2112(3) 0.7295(3) 0.0605(15) Uani 1 1 d . . .
O7 O 0.11744(12) 0.1095(2) 0.7006(3) 0.0384(11) Uani 1 1 d . . .
O8 O 0.11220(11) 0.1112(2) 0.8343(3) 0.0349(11) Uani 1 1 d . . .
O9 O 0.13624(12) 0.1803(3) 0.9808(3) 0.0445(12) Uani 1 1 d . . .
O10 O 0.08824(14) 0.2340(3) 0.7213(3) 0.0537(13) Uani 1 1 d . . .
O11 O 0.2215(2) 0.2789(6) 0.5210(7) 0.112(3) Uani 1 1 d . . .
O12 O 0.2367(6) 0.0240(11) 0.3616(11) 0.178(6) Uani 1 1 d . . .
O13 O 0.1064(4) 0.3545(6) 0.6403(6) 0.127(4) Uani 1 1 d . . .
N1 N 0.18077(14) -0.2395(3) 0.8340(3) 0.0384(14) Uani 1 1 d . . .
N2 N 0.34130(14) -0.2777(3) 0.6888(3) 0.0347(13) Uani 1 1 d . . .
N3 N 0.12789(13) -0.3284(3) 0.8914(4) 0.0336(14) Uani 1 1 d . . .
N4 N 0.11229(15) -0.6870(3) 0.8822(4) 0.0402(15) Uani 1 1 d . . .
N5 N 0.08998(14) -0.2098(3) 0.9271(3) 0.0335(13) Uani 1 1 d . . .
N6 N 0.08244(14) 0.0176(3) 0.5660(3) 0.0344(13) Uani 1 1 d . . .
N7 N 0.06714(18) 0.2008(3) 0.9042(4) 0.0426(18) Uani 1 1 d . . .
N8 N 0.17743(14) 0.0556(3) 0.6133(3) 0.0327(13) Uani 1 1 d . . .
N9 N 0.13374(13) -0.0291(3) 0.7026(3) 0.0316(13) Uani 1 1 d . . .
C1 C 0.1909(2) -0.2978(4) 0.8015(6) 0.053(2) Uani 1 1 d . . .
H1 H 0.1764 -0.3344 0.7984 0.080 Uiso 1 1 calc . . .
C2 C 0.2219(2) -0.3062(4) 0.7723(6) 0.055(2) Uani 1 1 d . . .
H2 H 0.2280 -0.3479 0.7502 0.080 Uiso 1 1 calc . . .
C3 C 0.24399(17) -0.2532(4) 0.7757(4) 0.0374(16) Uani 1 1 d . . .
C4 C 0.23366(17) -0.1922(4) 0.8098(5) 0.0422(17) Uani 1 1 d . . .
H4 H 0.2477 -0.1549 0.8139 0.080 Uiso 1 1 calc . . .
C5 C 0.20170(18) -0.1882(4) 0.8375(5) 0.0409(17) Uani 1 1 d . . .
H5 H 0.1947 -0.1471 0.8597 0.080 Uiso 1 1 calc . . .
C6 C 0.31749(19) -0.3179(4) 0.6640(4) 0.0406(18) Uani 1 1 d . . .
H6 H 0.3223 -0.3524 0.6274 0.080 Uiso 1 1 calc . . .
C7 C 0.28576(18) -0.3116(4) 0.6895(4) 0.0415(17) Uani 1 1 d . . .
H7 H 0.2696 -0.3413 0.6705 0.080 Uiso 1 1 calc . . .
C8 C 0.27800(17) -0.2599(4) 0.7444(4) 0.0362(16) Uani 1 1 d . . .
C9 C 0.30360(19) -0.2187(4) 0.7717(4) 0.0425(18) Uani 1 1 d . . .
H9 H 0.2999 -0.1848 0.8098 0.080 Uiso 1 1 calc . . .
C10 C 0.33417(17) -0.2286(4) 0.7419(4) 0.0407(17) Uani 1 1 d . . .
H10 H 0.3509 -0.1997 0.7593 0.080 Uiso 1 1 calc . . .
C11 C 0.1114(2) -0.3597(4) 0.8344(5) 0.050(2) Uani 1 1 d . . .
H11 H 0.1024 -0.3333 0.7933 0.080 Uiso 1 1 calc . . .
C12 C 0.1066(2) -0.4295(4) 0.8317(5) 0.058(2) Uani 1 1 d . . .
H12 H 0.0947 -0.4494 0.7899 0.080 Uiso 1 1 calc . . .
C13 C 0.11999(17) -0.4697(4) 0.8927(4) 0.0403(17) Uani 1 1 d . . .
C14 C 0.1373(2) -0.4361(4) 0.9535(5) 0.052(2) Uani 1 1 d . . .
H14 H 0.1464 -0.4611 0.9958 0.080 Uiso 1 1 calc . . .
C15 C 0.1411(2) -0.3669(4) 0.9515(5) 0.0458(18) Uani 1 1 d . . .
H15 H 0.1530 -0.3454 0.9923 0.080 Uiso 1 1 calc . . .
C16 C 0.0880(2) -0.6475(4) 0.8504(5) 0.049(2) Uani 1 1 d . . .
H16 H 0.0698 -0.6678 0.8263 0.080 Uiso 1 1 calc . . .
C17 C 0.0904(2) -0.5763(4) 0.8542(6) 0.051(2) Uani 1 1 d . . .
H17 H 0.0739 -0.5499 0.8312 0.080 Uiso 1 1 calc . . .
C18 C 0.11636(19) -0.5444(3) 0.8908(4) 0.0380(17) Uani 1 1 d . . .
C19 C 0.1407(2) -0.5874(4) 0.9258(5) 0.051(2) Uani 1 1 d . . .
H19 H 0.1587 -0.5685 0.9523 0.080 Uiso 1 1 calc . . .
C20 C 0.1375(2) -0.6563(4) 0.9200(5) 0.0445(19) Uani 1 1 d . . .
H20 H 0.1536 -0.6838 0.9435 0.080 Uiso 1 1 calc . . .
C21 C 0.08425(18) -0.2372(4) 0.9978(5) 0.0457(18) Uani 1 1 d . . .
H21 H 0.1010 -0.2602 1.0247 0.080 Uiso 1 1 calc . . .
C22 C 0.0530(2) -0.2324(5) 1.0341(5) 0.054(2) Uani 1 1 d . . .
H22 H 0.0495 -0.2525 1.0839 0.080 Uiso 1 1 calc . . .
C23 C 0.02850(18) -0.1987(4) 0.9960(4) 0.0380(17) Uani 1 1 d . . .
C24 C 0.0350(2) -0.1689(4) 0.9206(5) 0.053(2) Uani 1 1 d . . .
H24 H 0.0189 -0.1454 0.8920 0.080 Uiso 1 1 calc . . .
C25 C 0.0663(2) -0.1758(4) 0.8906(5) 0.049(2) Uani 1 1 d . . .
H25 H 0.0708 -0.1552 0.8416 0.080 Uiso 1 1 calc . . .
C26 C 0.0751(2) -0.0076(5) 0.4946(5) 0.056(2) Uani 1 1 d . . .
H26 H 0.0921 -0.0218 0.4620 0.080 Uiso 1 1 calc . . .
C27 C 0.0435(2) -0.0141(5) 0.4657(5) 0.057(2) Uani 1 1 d . . .
H27 H 0.0397 -0.0306 0.4139 0.080 Uiso 1 1 calc . . .
C28 C 0.0174(2) 0.0037(4) 0.5135(5) 0.0387(16) Uani 1 1 d . . .
C29 C 0.0256(2) 0.0273(5) 0.5888(5) 0.051(2) Uani 1 1 d . . .
H29 H 0.0092 0.0389 0.6246 0.080 Uiso 1 1 calc . . .
C30 C 0.0571(2) 0.0336(5) 0.6111(5) 0.056(2) Uani 1 1 d . . .
H30 H 0.0615 0.0507 0.6623 0.080 Uiso 1 1 calc . . .
C31 C 0.0404(2) 0.1978(5) 0.8574(5) 0.052(2) Uani 1 1 d . . .
H31 H 0.0430 0.1971 0.8020 0.080 Uiso 1 1 calc . . .
C32 C 0.0093(2) 0.1956(5) 0.8881(5) 0.057(2) Uani 1 1 d . . .
H32 H -0.0086 0.1935 0.8531 0.080 Uiso 1 1 calc . . .
C33 C 0.0043(2) 0.1966(4) 0.9691(5) 0.042(2) Uani 1 1 d . . .
C34 C 0.0325(2) 0.1989(6) 1.0176(5) 0.064(3) Uani 1 1 d . . .
H34 H 0.0309 0.1984 1.0733 0.080 Uiso 1 1 calc . . .
C35 C 0.0623(2) 0.2018(6) 0.9826(5) 0.063(2) Uani 1 1 d . . .
H35 H 0.0806 0.2047 1.0162 0.080 Uiso 1 1 calc . . .
C36 C 0.17018(18) -0.0359(4) 0.7109(4) 0.0388(16) Uani 1 1 d . . .
H36A H 0.1758 -0.0510 0.7648 0.080 Uiso 1 1 calc . . .
H36B H 0.1780 -0.0700 0.6733 0.080 Uiso 1 1 calc . . .
C37 C 0.18641(17) 0.0313(4) 0.6946(4) 0.0401(16) Uani 1 1 d . . .
H37A H 0.1797 0.0647 0.7342 0.080 Uiso 1 1 calc . . .
H37B H 0.2100 0.0261 0.6989 0.080 Uiso 1 1 calc . . .
C38 C 0.17978(18) 0.1301(4) 0.6023(4) 0.0379(17) Uani 1 1 d . . .
H38A H 0.2021 0.1428 0.5896 0.080 Uiso 1 1 calc . . .
H38B H 0.1736 0.1535 0.6512 0.080 Uiso 1 1 calc . . .
C39 C 0.15681(17) 0.1503(3) 0.5337(4) 0.0322(16) Uani 1 1 d . . .
C40 C 0.19690(18) 0.0203(4) 0.5482(5) 0.0435(18) Uani 1 1 d . . .
H40A H 0.2068 0.0550 0.5146 0.080 Uiso 1 1 calc . . .
H40B H 0.2145 -0.0055 0.5735 0.080 Uiso 1 1 calc . . .
C41 C 0.1772(2) -0.0272(5) 0.4956(6) 0.060(2) Uani 1 1 d . . .
C42 C 0.11897(17) -0.0964(3) 0.6865(4) 0.0357(16) Uani 1 1 d . . .
H42A H 0.1280 -0.1133 0.6367 0.080 Uiso 1 1 calc . . .
H42B H 0.0958 -0.0893 0.6770 0.080 Uiso 1 1 calc . . .
C43 C 0.12247(16) -0.1531(4) 0.7485(4) 0.0330(16) Uani 1 1 d . . .
C44 C 0.1195(2) 0.0041(4) 0.7749(4) 0.0432(18) Uani 1 1 d . . .
H44A H 0.1330 -0.0069 0.8214 0.080 Uiso 1 1 calc . . .
H44B H 0.0979 -0.0150 0.7839 0.080 Uiso 1 1 calc . . .
C45 C 0.11654(16) 0.0816(3) 0.7683(4) 0.0316(15) Uani 1 1 d . . .

loop_
_atom_site_aniso_label
_atom_site_aniso_U_11
_atom_site_aniso_U_22
_atom_site_aniso_U_33
_atom_site_aniso_U_23
_atom_site_aniso_U_13
_atom_site_aniso_U_12
Cu1 0.0294(5) 0.0247(4) 0.0446(5) -0.0022(3) 0.0146(3) -0.0016(3)
Cu2 0.0301(5) 0.0246(4) 0.0410(5) 0.0009(3) 0.0127(3) 0.0006(3)
Cu3 0.0292(5) 0.0277(4) 0.0346(4) 0.0017(3) 0.0035(3) -0.0028(3)
O1 0.039(3) 0.040(3) 0.042(3) 0.007(2) -0.006(2) -0.006(2)
O2 0.038(3) 0.038(3) 0.046(3) 0.012(2) 0.004(2) -0.004(2)
O3 0.040(3) 0.045(3) 0.066(3) -0.019(2) 0.014(2) -0.011(2)
O4 0.113(7) 0.182(11) 0.174(10) -0.138(10) 0.096(7) -0.091(8)
O5 0.031(3) 0.028(2) 0.047(3) 0.002(2) 0.009(2) 0.0010(19)
O6 0.098(4) 0.025(3) 0.059(3) -0.002(2) 0.005(3) -0.018(3)
O7 0.044(3) 0.030(2) 0.041(3) -0.002(2) 0.003(2) 0.004(2)
O8 0.043(3) 0.022(2) 0.040(3) -0.0037(19) 0.013(2) 0.0001(19)
O9 0.046(3) 0.044(3) 0.044(3) 0.003(2) 0.003(2) 0.009(2)
O10 0.064(3) 0.046(3) 0.052(3) 0.001(2) 0.014(3) 0.005(2)
O11 0.088(6) 0.124(8) 0.125(7) -0.001(6) -0.002(5) -0.030(5)
O12 0.212(15) 0.180(15) 0.144(10) 0.007(10) 0.035(10) -0.046(13)
O13 0.200(11) 0.092(6) 0.090(6) 0.012(5) 0.005(6) -0.016(7)
N1 0.035(3) 0.035(3) 0.046(3) -0.002(2) 0.015(3) -0.001(3)
N2 0.029(3) 0.034(3) 0.041(3) -0.002(3) 0.008(3) -0.002(3)
N3 0.025(3) 0.032(3) 0.044(3) 0.003(3) 0.007(3) 0.000(2)
N4 0.036(4) 0.032(3) 0.053(3) -0.002(3) 0.012(3) 0.001(3)
N5 0.033(3) 0.028(3) 0.040(3) 0.002(2) 0.008(3) -0.001(3)
N6 0.027(3) 0.038(3) 0.038(3) 0.001(2) -0.001(3) -0.001(2)
N7 0.046(5) 0.033(3) 0.049(4) -0.009(3) 0.022(4) -0.005(3)
N8 0.036(3) 0.026(3) 0.036(3) -0.002(2) 0.005(2) 0.000(2)
N9 0.035(4) 0.019(3) 0.041(3) -0.003(2) 0.008(2) -0.005(2)
C1 0.038(4) 0.039(4) 0.084(5) -0.012(4) 0.024(4) -0.007(3)
C2 0.042(5) 0.044(4) 0.080(5) -0.018(4) 0.026(4) -0.001(4)
C3 0.028(4) 0.038(4) 0.046(4) -0.001(3) 0.004(3) 0.001(3)
C4 0.030(4) 0.037(4) 0.060(4) -0.005(3) 0.013(3) -0.002(3)
C5 0.035(4) 0.034(4) 0.054(4) -0.003(3) 0.011(3) 0.007(3)
C6 0.040(5) 0.042(4) 0.040(4) -0.005(3) 0.010(3) 0.002(4)
C7 0.033(4) 0.046(4) 0.046(4) -0.010(3) 0.010(3) 0.001(3)
C8 0.025(4) 0.038(4) 0.046(4) 0.001(3) 0.011(3) 0.003(3)
C9 0.040(4) 0.039(4) 0.049(4) -0.009(3) 0.014(3) -0.001(3)
C10 0.027(4) 0.041(4) 0.054(4) -0.007(3) 0.011(3) 0.003(3)
C11 0.066(5) 0.028(4) 0.055(5) 0.003(3) -0.001(4) -0.009(4)
C12 0.081(6) 0.030(4) 0.062(5) -0.001(4) 0.000(4) -0.002(4)
C13 0.045(4) 0.030(4) 0.047(4) 0.004(3) 0.006(3) 0.004(3)
C14 0.079(6) 0.032(4) 0.046(4) -0.003(3) -0.017(4) -0.003(4)
C15 0.059(5) 0.027(4) 0.052(4) -0.002(3) -0.003(4) -0.010(3)
C16 0.049(5) 0.030(4) 0.068(5) -0.005(3) 0.010(4) 0.002(4)
C17 0.052(5) 0.029(4) 0.073(5) 0.000(4) -0.002(4) 0.007(4)
C18 0.051(5) 0.024(3) 0.039(3) -0.002(3) 0.004(3) -0.005(3)
C19 0.048(5) 0.037(4) 0.069(5) -0.008(4) -0.015(4) -0.003(4)
C20 0.045(5) 0.028(4) 0.060(5) 0.000(3) -0.009(4) -0.004(3)
C21 0.031(4) 0.061(5) 0.046(4) 0.011(4) 0.006(3) 0.005(3)
C22 0.048(5) 0.070(5) 0.045(4) 0.018(4) 0.019(4) 0.005(4)
C23 0.032(4) 0.039(4) 0.043(4) 0.001(3) 0.010(3) 0.004(3)
C24 0.037(5) 0.059(5) 0.062(5) 0.022(4) 0.013(4) 0.014(4)
C25 0.041(5) 0.056(5) 0.051(4) 0.016(4) 0.019(4) 0.002(4)
C26 0.037(7) 0.078(6) 0.052(5) -0.010(4) 0.008(4) -0.004(4)
C27 0.031(6) 0.093(7) 0.046(4) -0.021(4) -0.008(4) -0.007(4)
C28 0.028(3) 0.039(4) 0.049(4) 0.005(3) 0.001(3) -0.001(3)
C29 0.023(6) 0.085(6) 0.046(4) -0.007(4) 0.002(4) 0.000(4)
C30 0.044(7) 0.077(6) 0.046(4) -0.012(4) 0.003(4) -0.001(4)
C31 0.042(6) 0.069(6) 0.046(4) -0.012(4) 0.006(5) -0.011(4)
C32 0.038(5) 0.086(6) 0.049(4) -0.007(4) 0.019(4) -0.008(4)
C33 0.036(5) 0.037(4) 0.054(5) -0.008(3) 0.012(5) -0.003(3)
C34 0.043(6) 0.105(7) 0.044(4) -0.001(4) 0.016(5) -0.004(5)
C35 0.038(5) 0.101(7) 0.050(5) -0.003(5) 0.010(4) -0.001(4)
C36 0.035(4) 0.035(4) 0.047(4) 0.006(3) 0.002(3) 0.003(3)
C37 0.038(4) 0.039(4) 0.042(4) 0.006(3) -0.005(3) -0.001(3)
C38 0.042(4) 0.032(4) 0.040(4) -0.002(3) 0.004(3) -0.009(3)
C39 0.033(4) 0.035(4) 0.029(3) -0.001(3) 0.008(3) -0.001(3)
C40 0.034(4) 0.044(4) 0.053(4) -0.005(3) 0.013(3) 0.003(3)
C41 0.052(5) 0.052(5) 0.075(6) -0.032(4) 0.022(5) -0.012(4)
C42 0.046(4) 0.024(3) 0.038(3) -0.003(3) 0.005(3) -0.001(3)
C43 0.033(4) 0.031(4) 0.035(4) 0.000(3) 0.006(3) -0.004(3)
C44 0.069(5) 0.025(3) 0.036(4) 0.000(3) 0.014(4) 0.001(3)
C45 0.031(4) 0.028(3) 0.036(4) 0.004(3) 0.010(3) -0.001(3)

_geom_special_details            
; 
All esds (except the esd in the dihedral angle between two l.s. planes) 
are estimated using the full covariance matrix.  The cell esds are taken 
into account individually in the estimation of esds in distances, angles 
and torsion angles; correlations between esds in cell parameters are only 
used when they are defined by crystal symmetry.  An approximate (isotropic) 
treatment of cell esds is used for estimating esds involving l.s. planes. 
;

loop_
_geom_bond_atom_site_label_1
_geom_bond_atom_site_label_2
_geom_bond_distance
_geom_bond_site_symmetry_2
_geom_bond_publ_flag
Cu1 O8 1.985(4) . ?
Cu1 N7 2.034(6) . ?
Cu1 N4 2.039(6) 1_565 ?
Cu1 N2 2.057(5) 4_556 ?
Cu1 O9 2.333(5) . ?
Cu2 O5 1.993(4) . ?
Cu2 N5 2.034(5) . ?
Cu2 N1 2.048(5) . ?
Cu2 N3 2.048(6) . ?
Cu2 O2 2.252(5) 6_556 ?
Cu3 O1 1.995(5) . ?
Cu3 N6 2.003(6) . ?
Cu3 N8 2.030(6) . ?
Cu3 N9 2.147(5) . ?
Cu3 O3 2.218(5) . ?
Cu3 O7 2.319(4) . ?
O1 C39 