####################################################################### 
# 
# This file contains crystal structure data downloaded from the 
# Cambridge Structural Database (CSD) hosted by the Cambridge 
# Crystallographic Data Centre (CCDC).
# 
# Full information about CCDC data access policies and citation 
# guidelines are available at http://www.ccdc.cam.ac.uk/access/V1 
# 
# Audit and citation data items may have been added by the CCDC. 
# Please retain this information to preserve the provenance of 
# this file and to allow appropriate attribution of the data. 
# 
#######################################################################

data_CyDTA
_audit_block_doi                 10.5517/cc573l2
_database_code_depnum_ccdc_archive 'CCDC 155793'
loop_
_citation_id
_citation_doi
_citation_year
1 10.1021/ic015518y 2001
_audit_update_record             
;
2001-01-09 deposited with the CCDC.	2024-07-13 downloaded from the CCDC.
;

_audit_creation_method           SHELXL-97
_chemical_name_systematic        
; 
? 
;
_chemical_name_common            ?
_chemical_melting_point          ?
_chemical_formula_moiety         ?
_chemical_formula_sum            'C34 H58 Cu2 N6 O20'
_chemical_formula_weight         997.94

loop_
_atom_type_symbol
_atom_type_description
_atom_type_scat_dispersion_real
_atom_type_scat_dispersion_imag
_atom_type_scat_source
C C 0.0033 0.0016 'International Tables Vol C Tables 4.2.6.8 and 6.1.1.4'
H H 0.0000 0.0000 'International Tables Vol C Tables 4.2.6.8 and 6.1.1.4'
N N 0.0061 0.0033 'International Tables Vol C Tables 4.2.6.8 and 6.1.1.4'
O O 0.0106 0.0060 'International Tables Vol C Tables 4.2.6.8 and 6.1.1.4'
Cu Cu 0.3201 1.2651 'International Tables Vol C Tables 4.2.6.8 and 6.1.1.4'

_symmetry_cell_setting           triclinic
_symmetry_space_group_name_H-M   P-1

loop_
_symmetry_equiv_pos_as_xyz
'x, y, z'
'-x, -y, -z'

_cell_length_a                   11.1593(8)
_cell_length_b                   11.5796(9)
_cell_length_c                   19.8628(15)
_cell_angle_alpha                90.487(2)
_cell_angle_beta                 98.530(2)
_cell_angle_gamma                101.598(2)
_cell_volume                     2484.5(3)
_cell_formula_units_Z            2
_cell_measurement_temperature    293(2)
_cell_measurement_reflns_used    ?
_cell_measurement_theta_min      ?
_cell_measurement_theta_max      ?

_exptl_crystal_description       block
_exptl_crystal_colour            blue
_exptl_crystal_size_max          0.600
_exptl_crystal_size_mid          0.550
_exptl_crystal_size_min          0.550
_exptl_crystal_density_meas      ?
_exptl_crystal_density_diffrn    1.334
_exptl_crystal_density_method    'not measured'
_exptl_crystal_F_000             1044
_exptl_absorpt_coefficient_mu    0.930
_exptl_absorpt_correction_type   ?
_exptl_absorpt_correction_T_min  ?
_exptl_absorpt_correction_T_max  ?
_exptl_absorpt_process_details   ?

_exptl_special_details           
; 
? 
;

_diffrn_ambient_temperature      293(2)
_diffrn_radiation_wavelength     0.71073
_diffrn_radiation_type           MoK\a
_diffrn_radiation_source         'fine-focus sealed tube'
_diffrn_radiation_monochromator  graphite
_diffrn_measurement_device_type  ?
_diffrn_measurement_method       ?
_diffrn_detector_area_resol_mean ?
_diffrn_standards_number         ?
_diffrn_standards_interval_count ?
_diffrn_standards_interval_time  ?
_diffrn_standards_decay_%        ?
_diffrn_reflns_number            12263
_diffrn_reflns_av_R_equivalents  0.0772
_diffrn_reflns_av_sigmaI/netI    0.0658
_diffrn_reflns_limit_h_min       -9
_diffrn_reflns_limit_h_max       12
_diffrn_reflns_limit_k_min       -12
_diffrn_reflns_limit_k_max       11
_diffrn_reflns_limit_l_min       -22
_diffrn_reflns_limit_l_max       21
_diffrn_reflns_theta_min         1.80
_diffrn_reflns_theta_max         23.38
_reflns_number_total             7127
_reflns_number_gt                5626
_reflns_threshold_expression     >2sigma(I)

_computing_data_collection       'Bruker SMART'
_computing_cell_refinement       'Bruker SMART'
_computing_data_reduction        'Bruker SAINT'
_computing_structure_solution    'SHELXS-97 (Sheldrick, 1990)'
_computing_structure_refinement  'SHELXL-97 (Sheldrick, 1997)'
_computing_molecular_graphics    SHELXP-97
_computing_publication_material  SHELXTL

_refine_special_details          
; 
Refinement of F^2^ against ALL reflections.  The weighted R-factor wR and 
goodness of fit S are based on F^2^, conventional R-factors R are based 
on F, with F set to zero for negative F^2^. The threshold expression of 
F^2^ > 2sigma(F^2^) is used only for calculating R-factors(gt) etc. and is 
not relevant to the choice of reflections for refinement.  R-factors based 
on F^2^ are statistically about twice as large as those based on F, and R- 
factors based on ALL data will be even larger. 
;

_refine_ls_structure_factor_coef Fsqd
_refine_ls_matrix_type           full
_refine_ls_weighting_scheme      calc
_refine_ls_weighting_details     
'calc w=1/[\s^2^(Fo^2^)+(0.1322P)^2^+0.5966P] where P=(Fo^2^+2Fc^2^)/3'
_atom_sites_solution_primary     direct
_atom_sites_solution_secondary   difmap
_atom_sites_solution_hydrogens   geom
_refine_ls_hydrogen_treatment    mixed
_refine_ls_extinction_method     none
_refine_ls_extinction_coef       ?
_refine_ls_number_reflns         7127
_refine_ls_number_parameters     679
_refine_ls_number_restraints     0
_refine_ls_R_factor_all          0.0737
_refine_ls_R_factor_gt           0.0588
_refine_ls_wR_factor_ref         0.1920
_refine_ls_wR_factor_gt          0.1780
_refine_ls_goodness_of_fit_ref   1.069
_refine_ls_restrained_S_all      1.069
_refine_ls_shift/su_max          0.000
_refine_ls_shift/su_mean         0.000

loop_
_atom_site_label
_atom_site_type_symbol
_atom_site_fract_x
_atom_site_fract_y
_atom_site_fract_z
_atom_site_U_iso_or_equiv
_atom_site_adp_type
_atom_site_occupancy
_atom_site_symmetry_multiplicity
_atom_site_calc_flag
_atom_site_refinement_flags
_atom_site_disorder_assembly
_atom_site_disorder_group
Cu1 Cu 0.12571(5) 0.33248(5) 0.25937(3) 0.0310(2) Uani 1 1 d . . .
Cu2 Cu 0.14623(5) 0.82715(5) 0.30117(3) 0.0366(2) Uani 1 1 d . . .
O1 O 0.1145(3) 1.1976(3) 0.33060(18) 0.0431(8) Uani 1 1 d . . .
O2 O 0.0584(4) 1.0214(3) 0.27692(18) 0.0489(9) Uani 1 1 d . . .
O3 O 0.0011(3) 0.7128(3) 0.31850(18) 0.0423(8) Uani 1 1 d . . .
O4 O -0.1723(4) 0.6869(4) 0.3641(3) 0.0752(14) Uani 1 1 d . . .
O5 O 0.2986(3) 0.9362(3) 0.28610(17) 0.0424(8) Uani 1 1 d . . .
O6 O 0.4950(4) 0.9427(4) 0.2757(2) 0.0600(11) Uani 1 1 d . . .
O7 O 0.1796(3) 0.4492(3) 0.33742(16) 0.0348(7) Uani 1 1 d . . .
O8 O 0.1946(3) 0.5984(3) 0.26687(17) 0.0399(8) Uani 1 1 d . . .
N1 N 0.0846(4) 0.2930(3) 0.1583(2) 0.0373(9) Uani 1 1 d . . .
N2 N -0.0885(4) 0.1959(3) -0.1981(2) 0.0370(9) Uani 1 1 d . . .
N3 N 0.3064(3) 0.3306(4) 0.2534(2) 0.0359(9) Uani 1 1 d . . .
N4 N 0.9438(3) 0.3343(3) 0.2603(2) 0.0333(9) Uani 1 1 d . . .
N5 N 0.2879(3) 0.7636(3) 0.37483(19) 0.0319(9) Uani 1 1 d . . .
N6 N 0.1113(3) 0.9070(3) 0.39624(19) 0.0318(9) Uani 1 1 d . . .
C1 C 0.0910(7) 0.3815(5) 0.1159(3) 0.0588(16) Uani 1 1 d . . .
H1 H 0.1156 0.4583 0.1342 0.071 Uiso 1 1 calc . . .
C2 C 0.0633(7) 0.3650(5) 0.0470(3) 0.0642(18) Uani 1 1 d . . .
H2 H 0.0727 0.4294 0.0192 0.077 Uiso 1 1 calc . . .
C3 C 0.0208(5) 0.2513(4) 0.0182(2) 0.0445(13) Uani 1 1 d . . .
C4 C 0.0139(6) 0.1609(5) 0.0620(3) 0.0544(15) Uani 1 1 d . . .
C5 C 0.0478(6) 0.1834(5) 0.1308(3) 0.0513(14) Uani 1 1 d . . .
H5 H 0.0451 0.1202 0.1595 0.062 Uiso 1 1 calc . . .
C6 C -0.0029(6) 0.2872(5) -0.1706(3) 0.0517(15) Uani 1 1 d . . .
C7 C 0.0358(6) 0.3079(5) -0.1023(3) 0.0573(16) Uani 1 1 d . . .
H7 H 0.0971 0.3733 -0.0864 0.069 Uiso 1 1 calc . . .
C8 C -0.0163(5) 0.2314(5) -0.0572(3) 0.0436(12) Uani 1 1 d . . .
C9 C -0.1053(6) 0.1357(5) -0.0849(3) 0.0546(15) Uani 1 1 d . . .
H9 H -0.1428 0.0812 -0.0564 0.065 Uiso 1 1 calc . . .
C10 C -0.1386(6) 0.1203(5) -0.1536(3) 0.0517(14) Uani 1 1 d . . .
C11 C 0.3870(5) 0.4276(5) 0.2448(3) 0.0520(14) Uani 1 1 d . . .
C12 C 0.5108(6) 0.4309(6) 0.2449(4) 0.0560(17) Uani 1 1 d . . .
C13 C 0.5579(4) 0.3310(4) 0.2540(2) 0.0355(11) Uani 1 1 d . . .
C14 C 0.4716(5) 0.2282(5) 0.2612(3) 0.0411(12) Uani 1 1 d . . .
C15 C 0.3500(4) 0.2317(4) 0.2601(3) 0.0408(12) Uani 1 1 d . . .
H15 H 0.2947 0.1614 0.2642 0.080 Uiso 1 1 calc . . .
C16 C 0.9033(5) 0.4316(5) 0.2719(3) 0.0425(13) Uani 1 1 d . . .
C17 C 0.7805(5) 0.4343(5) 0.2701(3) 0.0465(13) Uani 1 1 d . . .
C18 C 0.6906(4) 0.3314(4) 0.2557(3) 0.0373(11) Uani 1 1 d . . .
C19 C 0.7332(5) 0.2294(5) 0.2451(3) 0.0439(13) Uani 1 1 d . . .
C20 C 0.8591(4) 0.2353(4) 0.2481(3) 0.0437(13) Uani 1 1 d . . .
H20 H 0.8858 0.1656 0.2411 0.080 Uiso 1 1 calc . . .
C21 C 0.1808(5) 0.8552(4) 0.4551(2) 0.0342(11) Uani 1 1 d . . .
C22 C 0.3048(5) 0.8415(4) 0.4377(2) 0.0362(11) Uani 1 1 d . . .
C23 C 0.3841(5) 0.7989(5) 0.4992(3) 0.0504(14) Uani 1 1 d . . .
H23A H 0.3460 0.7189 0.5086 0.080 Uiso 1 1 calc . . .
H23B H 0.4656 0.7979 0.4880 0.080 Uiso 1 1 calc . . .
C24 C 0.3973(6) 0.8786(6) 0.5629(3) 0.0631(17) Uani 1 1 d . . .
H24A H 0.4481 0.8502 0.6005 0.080 Uiso 1 1 calc . . .
H24B H 0.4373 0.9584 0.5543 0.080 Uiso 1 1 calc . . .
C25 C 0.2695(7) 0.8781(6) 0.5811(3) 0.0615(17) Uani 1 1 d . . .
C26 C 0.1931(7) 0.9247(5) 0.5230(3) 0.0495(14) Uani 1 1 d . . .
C27 C 0.1444(5) 1.0361(4) 0.3955(3) 0.0360(11) Uani 1 1 d . . .
C28 C 0.1005(4) 1.0872(4) 0.3281(3) 0.0353(11) Uani 1 1 d . . .
C29 C -0.0246(5) 0.8653(4) 0.3936(3) 0.0383(11) Uani 1 1 d . . .
C30 C -0.0681(5) 0.7457(4) 0.3569(3) 0.0453(13) Uani 1 1 d . . .
C31 C 0.3977(5) 0.7924(5) 0.3412(3) 0.0398(12) Uani 1 1 d . . .
C32 C 0.3971(5) 0.8972(4) 0.2980(3) 0.0409(12) Uani 1 1 d . . .
C33 C 0.2554(5) 0.6371(4) 0.3878(3) 0.0367(11) Uani 1 1 d . . .
C34 C 0.2056(4) 0.5587(4) 0.3242(2) 0.0328(10) Uani 1 1 d . . .
O1W O 0.3527(6) 0.3084(7) 0.4287(3) 0.117(2) Uani 1 1 d . . .
O2W O 0.8372(5) 0.9382(6) 0.1898(3) 0.1077(19) Uani 1 1 d . . .
O3W O 0.8358(7) 0.4778(6) 0.4475(4) 0.125(2) Uani 1 1 d . . .
O4W O 0.6638(7) 0.7440(8) 0.4409(4) 0.138(3) Uani 1 1 d . . .
O5W O 0.0285(7) 0.3413(7) 0.4490(3) 0.124(2) Uani 1 1 d . . .
O6W O 0.5671(9) 0.4787(8) 0.4230(5) 0.176(4) Uani 1 1 d . . .
O7W O 0.4657(10) 0.0072(10) 0.1380(4) 0.179(4) Uani 1 1 d . . .
O8W O 0.6682(7) 0.8082(10) 0.2690(6) 0.201(5) Uani 1 1 d . . .
O9W O 0.3081(16) 0.6586(14) 0.1431(10) 0.158(7) Uani 0.50 1 d P . .
O10W O 0.7659(16) 0.9475(14) 0.0513(8) 0.152(7) Uani 0.50 1 d P . .
O11W O 0.3365(19) 0.1786(19) 0.0743(10) 0.184(8) Uani 0.50 1 d P . .
O12W O 0.380(2) 0.423(3) 0.0539(14) 0.264(15) Uani 0.50 1 d P . .
O13W O 0.546(3) 1.173(2) -0.0611(12) 0.243(13) Uani 0.50 1 d P . .
O14W O 0.597(3) 0.674(2) 0.1453(14) 0.294(18) Uani 0.50 1 d P . .
O15W O 0.677(2) 1.138(2) 0.0650(14) 0.227(10) Uiso 0.50 1 d P . .
O16W O 0.654(3) 0.517(2) 0.0773(14) 0.234(11) Uiso 0.50 1 d P . .
H4 H -0.001(6) 0.080(6) 0.041(3) 0.066(18) Uiso 1 1 d . . .
H6 H 0.024(4) 0.331(4) -0.196(3) 0.029(14) Uiso 1 1 d . . .
H10 H -0.208(7) 0.048(7) -0.177(4) 0.10(2) Uiso 1 1 d . . .
H11 H 0.344(5) 0.491(5) 0.234(3) 0.041(14) Uiso 1 1 d . . .
H12 H 0.559(6) 0.483(6) 0.241(3) 0.06(2) Uiso 1 1 d . . .
H14 H 0.487(4) 0.170(4) 0.265(2) 0.021(13) Uiso 1 1 d . . .
H16 H 0.963(5) 0.493(4) 0.286(2) 0.032(12) Uiso 1 1 d . . .
H17 H 0.750(5) 0.510(5) 0.273(3) 0.054(15) Uiso 1 1 d . . .
H19 H 0.678(5) 0.150(5) 0.234(3) 0.056(16) Uiso 1 1 d . . .
H21 H 0.139(4) 0.776(4) 0.458(2) 0.018(10) Uiso 1 1 d . . .
H22 H 0.344(4) 0.920(4) 0.428(2) 0.033(12) Uiso 1 1 d . . .
H25A H 0.257(7) 0.935(6) 0.614(4) 0.08(2) Uiso 1 1 d . . .
H25B H 0.221(5) 0.799(6) 0.587(3) 0.055(16) Uiso 1 1 d . . .
H26A H 0.121(6) 0.917(5) 0.534(3) 0.048(17) Uiso 1 1 d . . .
H26B H 0.246(5) 1.002(5) 0.529(3) 0.050(15) Uiso 1 1 d . . .
H27A H 0.120(6) 1.062(6) 0.433(4) 0.08(2) Uiso 1 1 d . . .
H27B H 0.238(4) 1.062(4) 0.401(2) 0.021(10) Uiso 1 1 d . . .
H29A H -0.049(4) 0.855(4) 0.444(2) 0.031(12) Uiso 1 1 d . . .
H29B H -0.070(6) 0.924(5) 0.357(3) 0.065(18) Uiso 1 1 d . . .
H31A H 0.464(5) 0.805(4) 0.365(2) 0.025(13) Uiso 1 1 d . . .
H31B H 0.393(4) 0.732(4) 0.313(2) 0.022(11) Uiso 1 1 d . . .
H33A H 0.197(5) 0.626(4) 0.420(3) 0.031(12) Uiso 1 1 d . . .
H33B H 0.309(5) 0.612(5) 0.410(3) 0.038(15) Uiso 1 1 d . . .

loop_
_atom_site_aniso_label
_atom_site_aniso_U_11
_atom_site_aniso_U_22
_atom_site_aniso_U_33
_atom_site_aniso_U_23
_atom_site_aniso_U_13
_atom_site_aniso_U_12
Cu1 0.0207(3) 0.0424(4) 0.0304(3) 0.0020(2) 0.0030(2) 0.0085(2)
Cu2 0.0382(4) 0.0398(4) 0.0282(4) 0.0050(2) 0.0038(2) 0.0003(3)
O1 0.047(2) 0.0307(18) 0.054(2) 0.0128(15) 0.0104(16) 0.0119(15)
O2 0.064(2) 0.046(2) 0.039(2) 0.0066(17) 0.0053(18) 0.0170(18)
O3 0.043(2) 0.0389(18) 0.043(2) -0.0038(15) 0.0123(16) -0.0004(15)
O4 0.066(3) 0.061(3) 0.093(4) -0.018(2) 0.043(3) -0.023(2)
O5 0.036(2) 0.0441(19) 0.042(2) 0.0110(16) -0.0009(15) 0.0024(16)
O6 0.046(2) 0.060(2) 0.073(3) 0.018(2) 0.019(2) 0.0003(19)
O7 0.0341(18) 0.0289(17) 0.0405(19) 0.0019(14) 0.0038(14) 0.0057(13)
O8 0.045(2) 0.0420(18) 0.0330(19) 0.0046(15) 0.0010(15) 0.0129(15)
N1 0.038(2) 0.045(2) 0.030(2) 0.0005(18) 0.0028(17) 0.0126(18)
N2 0.042(2) 0.037(2) 0.032(2) 0.0088(17) 0.0049(18) 0.0097(19)
N3 0.023(2) 0.049(2) 0.037(2) 0.0041(18) 0.0067(16) 0.0086(18)
N4 0.023(2) 0.040(2) 0.037(2) 0.0026(17) 0.0053(16) 0.0061(17)
N5 0.034(2) 0.0303(19) 0.032(2) 0.0012(16) 0.0055(16) 0.0089(16)
N6 0.034(2) 0.0273(19) 0.034(2) 0.0049(16) 0.0066(16) 0.0069(16)
C1 0.093(5) 0.040(3) 0.040(3) 0.000(2) -0.002(3) 0.011(3)
C2 0.102(5) 0.051(3) 0.037(3) 0.007(3) -0.004(3) 0.019(3)
C3 0.048(3) 0.053(3) 0.033(3) 0.004(2) 0.001(2) 0.016(3)
C4 0.082(4) 0.041(3) 0.036(3) 0.000(2) 0.003(3) 0.007(3)
C5 0.071(4) 0.045(3) 0.036(3) 0.008(2) 0.003(3) 0.012(3)
C6 0.065(4) 0.046(3) 0.037(3) 0.011(3) 0.004(3) -0.006(3)
C7 0.071(4) 0.053(3) 0.036(3) 0.006(3) -0.005(3) -0.006(3)
C8 0.054(3) 0.045(3) 0.031(3) 0.002(2) 0.002(2) 0.012(2)
C9 0.066(4) 0.053(3) 0.036(3) 0.011(3) 0.002(3) -0.004(3)
C10 0.066(4) 0.048(3) 0.035(3) 0.007(2) 0.003(3) -0.001(3)
C11 0.037(3) 0.052(3) 0.076(4) 0.016(3) 0.018(3) 0.022(3)
C12 0.036(3) 0.046(3) 0.089(5) 0.016(3) 0.021(3) 0.006(3)
C13 0.026(2) 0.046(3) 0.037(3) 0.002(2) 0.0039(19) 0.013(2)
C14 0.031(3) 0.038(3) 0.058(3) 0.004(2) 0.007(2) 0.015(2)
C15 0.027(3) 0.046(3) 0.050(3) 0.001(2) 0.011(2) 0.005(2)
C16 0.023(3) 0.039(3) 0.063(4) 0.001(3) 0.002(2) 0.004(2)
C17 0.034(3) 0.039(3) 0.067(4) 0.002(2) 0.003(2) 0.010(2)
C18 0.027(3) 0.044(3) 0.040(3) 0.004(2) 0.005(2) 0.007(2)
C19 0.027(3) 0.037(3) 0.067(4) -0.003(2) 0.007(2) 0.006(2)
C20 0.027(3) 0.042(3) 0.064(4) 0.001(2) 0.004(2) 0.014(2)
C21 0.042(3) 0.029(2) 0.031(3) 0.0026(19) 0.003(2) 0.007(2)
C22 0.043(3) 0.029(2) 0.033(3) 0.003(2) -0.003(2) 0.007(2)
C23 0.052(3) 0.054(3) 0.044(3) 0.004(3) -0.012(3) 0.020(3)
C24 0.076(4) 0.066(4) 0.041(3) 0.001(3) -0.010(3) 0.015(3)
C25 0.099(5) 0.058(4) 0.028(3) 0.005(3) 0.005(3) 0.022(4)
C26 0.063(4) 0.051(3) 0.037(3) 0.000(2) 0.011(3) 0.016(3)
C27 0.044(3) 0.028(2) 0.037(3) 0.003(2) 0.005(2) 0.009(2)
C28 0.027(2) 0.040(3) 0.043(3) 0.009(2) 0.010(2) 0.013(2)
C29 0.036(3) 0.032(2) 0.049(3) 0.004(2) 0.013(2) 0.007(2)
C30 0.049(3) 0.041(3) 0.043(3) 0.007(2) 0.012(2) 0.000(2)
C31 0.032(3) 0.041(3) 0.043(3) -0.001(2) 0.000(2) 0.003(2)
C32 0.043(3) 0.039(3) 0.036(3) 0.000(2) 0.005(2) -0.002(2)
C33 0.041(3) 0.035(3) 0.033(3) 0.006(2) -0.001(2) 0.012(2)
C34 0.023(2) 0.036(3) 0.040(3) 0.001(2) 0.0051(19) 0.0091(19)
O1W 0.083(4) 0.191(7) 0.080(4) 0.032(4) -0.002(3) 0.041(4)
O2W 0.077(4) 0.121(5) 0.117(5) 0.002(4) 0.000(3) 0.013(3)
O3W 0.141(6) 0.112(5) 0.117(5) 0.020(4) 0.039(4) 0.001(4)
O4W 0.105(5) 0.229(8) 0.110(5) 0.052(5) 0.032(4) 0.093(5)
O5W 0.121(5) 0.170(6) 0.079(4) 0.017(4) 0.046(4) 0.008(5)
O6W 0.160(8) 0.140(6) 0.192(9) 0.050(6) -0.027(6) -0.017(6)
O7W 0.204(10) 0.225(10) 0.108(6) 0.021(6) 0.046(6) 0.026(8)
O8W 0.104(6) 0.297(12) 0.257(11) 0.178(10) 0.096(6) 0.118(7)
O9W 0.163(14) 0.153(13) 0.206(18) 0.104(12) 0.100(13) 0.088(11)
O10W 0.140(13) 0.150(13) 0.133(13) 0.044(10) -0.022(10) -0.023(10)
O11W 0.171(18) 0.22(2) 0.158(16) 0.036(15) -0.019(13) 0.067(15)
O12W 0.128(17) 0.41(4) 0.25(3) 0.10(3) 0.047(17) 0.02(2)
O13W 0.37(4) 0.20(2) 0.150(19) 0.002(16) -0.03(2) 0.08(2)
O14W 0.44(5) 0.18(2) 0.22(3) 0.10(2) 0.02(3) -0.03(2)

_geom_special_details            
; 
All esds (except the esd in the dihedral angle between two l.s. planes) 
are estimated using the full covariance matrix.  The cell esds are taken 
into account individually in the estimation of esds in distances, angles 
and torsion angles; correlations between esds in cell parameters are only 
used when they are defined by crystal symmetry.  An approximate (isotropic) 
treatment of cell esds is used for estimating esds involving l.s. planes. 
;

loop_
_geom_bond_atom_site_label_1
_geom_bond_atom_site_label_2
_geom_bond_distance
_geom_bond_site_symmetry_2
_geom_bond_publ_flag
Cu1 O7 1.988(3) . ?
Cu1 N1 2.019(4) . ?
Cu1 N4 2.037(4) 1_455 ?
Cu1 N3 2.041(4) . ?
Cu1 O1 2.114(3) 1_545 ?
Cu2 O3 1.951(3) . ?
Cu2 O5 1.967(3) . ?
Cu2 N2 2.052(4) 2_565 ?
Cu2 N6 2.215(4) . ?
Cu2 N5 2.232(4) . ?
O1 C28 1.256(6) . ?
O1 Cu1 2.114(3) 1_565 ?
O2 C28 1.240(6) . ?
O3 C30 1.269(6) . ?
O4 C30 1.252(7) . ?
O5 C32 1.261(6) . ?
O6 C32 1.258(7) . ?
O7 C34 1.281(5) . ?
O8 C34 1.231(6) . ?
N1 C1 1.330(7) . ?
N1 C5 1.337(7) . ?
N2 C6 1.326(7) . ?
N2 C10 1.350(7) . ?
N2 Cu2 2.052(4) 2_565 ?
N3 C11 1.320(7) . ?
N3 C15 1.332(6) . ?
N4 C20 1.326(6) . ?
N4 C16 1.326(6) . ?
N4 Cu1 2.037(4) 1_655 ?
N5 C31 1.463(7) . ?
N5 C33 1.471(6) . ?
N5 C22 1.501(6) . ?
N6 C27 1.467(6) 