
#######################################################################
#
#                 Cambridge Crystallographic Data Centre
#                                CCDC
#
#######################################################################
#
# If this CIF has been generated from an entry in the Cambridge
# Structural Database, then it will include bibliographic, chemical,
# crystal, experimental, refinement or atomic coordinate data resulting
# from the CCDC's data processing and validation procedures.
#
#######################################################################

data_CSD_CIF_UDAVIF
_audit_creation_date 2007-09-06
_audit_creation_method CSD-ConQuest-V1
_database_code_CSD UDAVIF
_database_code_depnum_ccdc_archive 'CCDC 633383'
_chemical_formula_sum 'C17 H19 N3 O3 S1'
_chemical_formula_moiety
;
C17 H19 N3 O3 S1
;
_journal_coden_Cambridge 182
_journal_year 2007
_journal_page_first 2057
_journal_name_full 'Chem.Commun. '
loop_
_publ_author_name
"P.M.Bhatt"
"G.R.Desiraju"
_chemical_name_systematic
;
6-Methoxy-2-((4-methoxy-3,5-dimethyl-2-pyridinyl)methylsulfinyl)-1H-benzimidaz
ole
;
_chemical_name_common
;
Omeprazole; Antra; Audazol; Belmazol; Ceprandal; Danlox; Desec; Elgam; 
Emeproton; Gasec; Gastrimut; Gastroloc; Indurgan; Inhibitron; Logastric; 
Losec; Mepral; Mopral; Olexin; Omapren; Omepral; Omeprazon; Omeprol; Omezol; 
Omisec; Omizac; Ortanol; Prilosec; Zegerid; DrugBank: DB00338; Teaching 
Subset: Fundamental Chemistry, Drug Molecules
;
_cell_volume    839.561
_exptl_crystal_colour 'colorless'
_exptl_crystal_density_diffrn 1.366
_exptl_special_details
;
antiulcer drug

;
_exptl_crystal_description 'block'
_diffrn_ambient_temperature 100
_refine_special_details
;
Omeprazole exists as solid solutions of the two tautomers. The structure is 
mixed 5-methoxy/6-methoxy with occupancies 0.078:0.922.
;
#These two values have been output from a single CSD field.
_refine_ls_R_factor_gt 0.0532
_refine_ls_wR_factor_gt 0.0532
_symmetry_cell_setting triclinic
_symmetry_space_group_name_H-M 'P -1'
_symmetry_Int_Tables_number 2
loop_
_symmetry_equiv_pos_site_id
_symmetry_equiv_pos_as_xyz
1 x,y,z
2 -x,-y,-z
_cell_length_a 9.667(7)
_cell_length_b 10.337(8)
_cell_length_c 10.292(8)
_cell_angle_alpha 90.044(12)
_cell_angle_beta 111.552(12)
_cell_angle_gamma 116.451(11)
_cell_formula_units_Z 2
loop_
_atom_type_symbol
_atom_type_radius_bond
C 0.68
H 0.23
N 0.68
O 0.68
S 1.02
loop_
_atom_site_label
_atom_site_type_symbol
_atom_site_fract_x
_atom_site_fract_y
_atom_site_fract_z
N1 N 0.7327(3) 0.2421(3) 0.5663(3)
C1 C 0.6279(3) 0.2830(3) 0.5909(3)
N2 N 0.7033(3) 0.4202(3) 0.6602(3)
C2 C 0.8705(4) 0.4738(3) 0.6796(3)
C3 C 1.0089(4) 0.6160(4) 0.7407(3)
H1 H 0.99720 0.69050 0.77830
C4 C 1.1614(4) 0.6416(4) 0.7430(3)
C5 C 1.1800(4) 0.5281(4) 0.6867(3)
C6 C 1.0462(4) 0.3859(3) 0.6248(3)
H2 H 1.05850 0.31150 0.58780
C7 C 0.8919(4) 0.3640(3) 0.6228(3)
C8 C 0.3467(3) 0.1233(3) 0.3535(3)
H3 H 0.38000 0.21290 0.31550
H4 H 0.40380 0.07230 0.33660
C9 C 0.1559(4) 0.0255(3) 0.2792(3)
C10 C 0.0835(4) -0.0835(3) 0.1590(3)
C11 C -0.0934(4) -0.1578(3) 0.0927(3)
C12 C -0.1904(4) -0.1262(4) 0.1452(3)
C13 C -0.1020(4) -0.0188(4) 0.2697(4)
H5 H -0.16450 0.00160 0.30890
C14 C 0.1866(4) -0.1202(4) 0.1004(3)
H6 H 0.20960 -0.19390 0.14580
H7 H 0.29150 -0.03310 0.11870
H8 H 0.12410 -0.15720 -0.00040
C15 C -0.3827(4) -0.1996(4) 0.0722(4)
H9 H -0.42990 -0.29990 0.08480
H10 H -0.41720 -0.19800 -0.02770
H11 H -0.42240 -0.14740 0.11320
C16 C -0.2187(5) -0.4078(4) -0.0120(4)
H12 H -0.29950 -0.43790 0.02970
H13 H -0.11970 -0.41250 0.05050
H14 H -0.26800 -0.47240 -0.10200
C17 C 1.3687(4) 0.4592(4) 0.6506(4)
H15 H 1.29860 0.42080 0.55070
H16 H 1.34070 0.38120 0.70260
H17 H 1.48570 0.50000 0.66660
O1 O 1.3408(2) 0.5714(2) 0.6981(2)
O2 O 0.3868(2) 0.0278(2) 0.5965(2)
O3 O -0.1723(3) -0.2596(2) -0.0333(2)
N3 N 0.0673(3) 0.0567(3) 0.3359(3)
S1 S 0.40772(9) 0.16883(9) 0.54314(8)
H18 H 0.706(4) 0.166(3) 0.523(3)
H19 H 1.263(5) 0.738(5) 0.781(4)
C18? C 1.339(5) 0.839(5) 0.839(4)
H20? H 1.30630 0.80600 0.91510
H21? H 1.25760 0.86240 0.77230
H22? H 1.44860 0.92480 0.87630
O4? O 1.345(4) 0.731(3) 0.771(3)
#END
