####################################################################### 
# 
# This file contains crystal structure data downloaded from the 
# Cambridge Structural Database (CSD) hosted by the Cambridge 
# Crystallographic Data Centre (CCDC).
# 
# Full information about CCDC data access policies and citation 
# guidelines are available at http://www.ccdc.cam.ac.uk/access/V1 
# 
# Audit and citation data items may have been added by the CCDC. 
# Please retain this information to preserve the provenance of 
# this file and to allow appropriate attribution of the data. 
# 
#######################################################################

data_shelxl1
_audit_block_doi                 10.5517/cc8rh0h
_database_code_depnum_ccdc_archive 'CCDC 260896'
loop_
_citation_id
_citation_doi
_citation_year
1 10.1002/cjoc.200690171 2006
_audit_update_record             
;
2005-01-16 deposited with the CCDC.	2024-07-13 downloaded from the CCDC.
;

_audit_creation_method           SHELXL-97
_chemical_name_systematic        
;
?
;
_chemical_name_common            ?
_chemical_melting_point          ?
_chemical_formula_moiety         'C30 H32 F2 N8 O6 Zn,C2 H6 O'
_chemical_formula_sum            'C32 H38 F2 N8 O7 Zn'
_chemical_formula_weight         750.07

loop_
_atom_type_symbol
_atom_type_description
_atom_type_scat_dispersion_real
_atom_type_scat_dispersion_imag
_atom_type_scat_source
C C 0.0033 0.0016 'International Tables Vol C Tables 4.2.6.8 and 6.1.1.4'
H H 0.0000 0.0000 'International Tables Vol C Tables 4.2.6.8 and 6.1.1.4'
F F 0.0171 0.0103 'International Tables Vol C Tables 4.2.6.8 and 6.1.1.4'
N N 0.0061 0.0033 'International Tables Vol C Tables 4.2.6.8 and 6.1.1.4'
O O 0.0106 0.0060 'International Tables Vol C Tables 4.2.6.8 and 6.1.1.4'
Zn Zn 0.2839 1.4301 'International Tables Vol C Tables 4.2.6.8 and 6.1.1.4'

_symmetry_cell_setting           monoclinic
_symmetry_space_group_name_H-M   'p 21/c'
_symmetry_space_group_name_Hall  '-p 2ybc'
_symmetry_Int_Tables_number      14

loop_
_symmetry_equiv_pos_as_xyz
'x, y, z'
'-x, y+1/2, -z+1/2'
'-x, -y, -z'
'x, -y-1/2, z-1/2'

_cell_length_a                   5.9774(13)
_cell_length_b                   21.475(5)
_cell_length_c                   12.971(3)
_cell_angle_alpha                90.00
_cell_angle_beta                 100.065(4)
_cell_angle_gamma                90.00
_cell_volume                     1639.4(6)
_cell_formula_units_Z            2
_cell_measurement_temperature    193(2)
_cell_measurement_reflns_used    6517
_cell_measurement_theta_min      3.2
_cell_measurement_theta_max      27.5

_exptl_crystal_description       chip
_exptl_crystal_colour            colorless
_exptl_crystal_size_max          0.50
_exptl_crystal_size_mid          0.30
_exptl_crystal_size_min          0.15
_exptl_crystal_density_meas      ?
_exptl_crystal_density_diffrn    1.519
_exptl_crystal_density_method    'not measured'
_exptl_crystal_F_000             780
_exptl_absorpt_coefficient_mu    0.822
_exptl_absorpt_correction_type   multi-scan
_exptl_absorpt_correction_T_min  0.6840
_exptl_absorpt_correction_T_max  0.8866
_exptl_absorpt_process_details   'Jacobson, R. (1998) Private communication'
_exptl_special_details           
;
?
;

_diffrn_ambient_temperature      193(2)
_diffrn_radiation_wavelength     0.71070
_diffrn_radiation_type           MoK\a
_diffrn_radiation_source         'fine-focus sealed tube'
_diffrn_radiation_monochromator  graphite
_diffrn_measurement_device_type  'Rigaku Mercury'
_diffrn_measurement_method       \w
_diffrn_detector_area_resol_mean 7.31
_diffrn_standards_number         ?
_diffrn_standards_interval_count ?
_diffrn_standards_interval_time  ?
_diffrn_standards_decay_%        ?
_diffrn_reflns_number            18238
_diffrn_reflns_av_R_equivalents  0.0385
_diffrn_reflns_av_sigmaI/netI    0.0285
_diffrn_reflns_limit_h_min       -7
_diffrn_reflns_limit_h_max       7
_diffrn_reflns_limit_k_min       -27
_diffrn_reflns_limit_k_max       27
_diffrn_reflns_limit_l_min       -14
_diffrn_reflns_limit_l_max       16
_diffrn_reflns_theta_min         3.26
_diffrn_reflns_theta_max         27.48
_reflns_number_total             3746
_reflns_number_gt                3514
_reflns_threshold_expression     >2sigma(I)

_computing_data_collection       CrystalClear
_computing_cell_refinement       CrystalClear
_computing_data_reduction        CrystalStructure
_computing_structure_solution    'SHELXS-97 (Sheldrick, 1990)'
_computing_structure_refinement  'SHELXL-97 (Sheldrick, 1997)'
_computing_molecular_graphics    ?
_computing_publication_material  ?

_refine_special_details          
;
Refinement of F^2^ against ALL reflections.  The weighted R-factor wR and
goodness of fit S are based on F^2^, conventional R-factors R are based
on F, with F set to zero for negative F^2^. The threshold expression of
F^2^ > 2sigma(F^2^) is used only for calculating R-factors(gt) etc. and is
not relevant to the choice of reflections for refinement.  R-factors based
on F^2^ are statistically about twice as large as those based on F, and R-
factors based on ALL data will be even larger.
;

_refine_ls_structure_factor_coef Fsqd
_refine_ls_matrix_type           full
_refine_ls_weighting_scheme      calc
_refine_ls_weighting_details     
'calc w=1/[\s^2^(Fo^2^)+(0.0608P)^2^+3.5198P] where P=(Fo^2^+2Fc^2^)/3'
_atom_sites_solution_primary     direct
_atom_sites_solution_secondary   difmap
_atom_sites_solution_hydrogens   geom
_refine_ls_hydrogen_treatment    mixed
_refine_ls_extinction_method     none
_refine_ls_extinction_coef       ?
_refine_ls_number_reflns         3746
_refine_ls_number_parameters     228
_refine_ls_number_restraints     2
_refine_ls_R_factor_all          0.0704
_refine_ls_R_factor_gt           0.0638
_refine_ls_wR_factor_ref         0.1511
_refine_ls_wR_factor_gt          0.1479
_refine_ls_goodness_of_fit_ref   1.200
_refine_ls_restrained_S_all      1.208
_refine_ls_shift/su_max          0.000
_refine_ls_shift/su_mean         0.000

loop_
_atom_site_label
_atom_site_type_symbol
_atom_site_fract_x
_atom_site_fract_y
_atom_site_fract_z
_atom_site_U_iso_or_equiv
_atom_site_adp_type
_atom_site_occupancy
_atom_site_symmetry_multiplicity
_atom_site_calc_flag
_atom_site_refinement_flags
_atom_site_disorder_assembly
_atom_site_disorder_group
Zn1 Zn 0.0000 0.5000 0.5000 0.01403(16) Uani 1 2 d S . .
F1 F 0.7076(4) 0.75105(10) 0.6516(2) 0.0354(6) Uani 1 1 d . . .
O1 O -0.2142(4) 0.49824(10) 0.60795(17) 0.0174(4) Uani 1 1 d . . .
O2 O -0.3625(5) 0.51723(14) 0.7486(2) 0.0372(7) Uani 1 1 d . . .
O3 O 0.1517(4) 0.57797(10) 0.57774(17) 0.0179(5) Uani 1 1 d . . .
O4 O 0.446(2) 0.5637(6) 0.9195(10) 0.114(4) Uiso 0.50 1 d PD . .
N1 N 0.0052(5) 0.67293(13) 0.8330(2) 0.0197(6) Uani 1 1 d . . .
N2 N 0.2756(5) 0.74807(12) 0.8145(2) 0.0184(5) Uani 1 1 d . . .
N3 N 0.5374(5) 0.82610(12) 0.8034(2) 0.0189(6) Uani 1 1 d . . .
N4 N 0.7433(4) 0.94161(12) 0.8932(2) 0.0156(5) Uani 1 1 d . . .
H4 H 0.6321 0.9691 0.8615 0.019 Uiso 1 1 calc R . .
C1 C -0.2265(5) 0.52935(15) 0.6893(2) 0.0185(6) Uani 1 1 d . . .
C2 C -0.0719(5) 0.58496(14) 0.7155(2) 0.0177(6) Uani 1 1 d . . .
C3 C 0.1031(5) 0.60358(14) 0.6583(2) 0.0158(6) Uani 1 1 d . . .
C4 C 0.2285(5) 0.65887(14) 0.6987(2) 0.0163(6) Uani 1 1 d . . .
C5 C 0.1764(5) 0.69423(14) 0.7819(2) 0.0167(6) Uani 1 1 d . . .
C6 C -0.1074(6) 0.62020(15) 0.7993(3) 0.0205(6) Uani 1 1 d . . .
H6 H -0.2209 0.6063 0.8368 0.025 Uiso 1 1 calc R . .
C7 C 0.4153(5) 0.68027(15) 0.6557(3) 0.0191(6) Uani 1 1 d . . .
H7 H 0.4667 0.6571 0.6019 0.023 Uiso 1 1 calc R . .
C8 C 0.5204(5) 0.73328(15) 0.6907(3) 0.0195(6) Uani 1 1 d . . .
C9 C 0.4434(5) 0.77067(15) 0.7688(2) 0.0175(6) Uani 1 1 d . . .
C10 C -0.0447(6) 0.70476(17) 0.9272(3) 0.0275(8) Uani 1 1 d . . .
H10A H -0.2062 0.6981 0.9323 0.033 Uiso 1 1 calc R . .
H10B H -0.0204 0.7501 0.9205 0.033 Uiso 1 1 calc R . .
C11 C 0.1017(8) 0.6816(3) 1.0246(3) 0.0511(13) Uani 1 1 d . . .
H11A H 0.0698 0.6374 1.0344 0.077 Uiso 1 1 calc R . .
H11B H 0.0697 0.7054 1.0848 0.077 Uiso 1 1 calc R . .
H11C H 0.2620 0.6867 1.0188 0.077 Uiso 1 1 calc R . .
C12 C 0.4429(6) 0.85961(16) 0.8846(3) 0.0242(7) Uani 1 1 d . . .
H12A H 0.3777 0.8295 0.9289 0.029 Uiso 1 1 calc R . .
H12B H 0.3196 0.8876 0.8513 0.029 Uiso 1 1 calc R . .
C13 C 0.6272(6) 0.89745(15) 0.9519(2) 0.0206(7) Uani 1 1 d . . .
H13A H 0.5586 0.9208 1.0044 0.025 Uiso 1 1 calc R . .
H13B H 0.7412 0.8685 0.9904 0.025 Uiso 1 1 calc R . .
C14 C 0.6390(7) 0.87038(16) 0.7382(3) 0.0258(7) Uani 1 1 d . . .
H14A H 0.5202 0.8986 0.7016 0.031 Uiso 1 1 calc R . .
H14B H 0.7058 0.8474 0.6847 0.031 Uiso 1 1 calc R . .
C15 C 0.8231(6) 0.90826(16) 0.8071(3) 0.0240(7) Uani 1 1 d . . .
H15A H 0.9482 0.8799 0.8373 0.029 Uiso 1 1 calc R . .
H15B H 0.8856 0.9390 0.7628 0.029 Uiso 1 1 calc R . .
C16 C 0.638(3) 0.5232(9) 0.9544(16) 0.110(6) Uiso 0.50 1 d PD . .
C17 C 0.855(3) 0.4848(8) 0.9625(15) 0.102(5) Uiso 0.50 1 d PD . .

loop_
_atom_site_aniso_label
_atom_site_aniso_U_11
_atom_site_aniso_U_22
_atom_site_aniso_U_33
_atom_site_aniso_U_23
_atom_site_aniso_U_13
_atom_site_aniso_U_12
Zn1 0.0169(3) 0.0090(2) 0.0158(3) -0.00222(18) 0.00172(18) 0.00001(19)
F1 0.0302(11) 0.0302(12) 0.0527(14) -0.0169(10) 0.0264(11) -0.0149(9)
O1 0.0198(10) 0.0125(10) 0.0195(11) -0.0034(8) 0.0022(8) -0.0031(9)
O2 0.0458(17) 0.0356(15) 0.0363(15) -0.0176(12) 0.0246(13) -0.0262(13)
O3 0.0207(11) 0.0127(10) 0.0206(11) -0.0052(8) 0.0047(9) -0.0036(8)
N1 0.0225(13) 0.0184(13) 0.0199(13) -0.0073(10) 0.0083(11) -0.0066(11)
N2 0.0198(13) 0.0153(12) 0.0206(13) -0.0054(10) 0.0053(10) -0.0040(10)
N3 0.0220(13) 0.0158(13) 0.0200(13) -0.0060(10) 0.0070(11) -0.0067(11)
N4 0.0161(12) 0.0108(11) 0.0193(12) -0.0004(10) 0.0016(10) -0.0015(10)
C1 0.0182(14) 0.0165(15) 0.0203(15) -0.0024(12) 0.0016(12) -0.0031(12)
C2 0.0191(15) 0.0139(14) 0.0198(15) -0.0030(11) 0.0027(12) -0.0028(12)
C3 0.0168(14) 0.0127(14) 0.0173(14) -0.0018(11) 0.0009(11) 0.0015(11)
C4 0.0180(14) 0.0129(14) 0.0179(14) -0.0035(11) 0.0027(11) 0.0003(12)
C5 0.0189(14) 0.0146(14) 0.0164(14) -0.0034(11) 0.0026(12) -0.0026(12)
C6 0.0219(15) 0.0200(16) 0.0202(15) -0.0025(12) 0.0051(12) -0.0052(13)
C7 0.0199(15) 0.0187(15) 0.0197(15) -0.0045(12) 0.0065(12) -0.0010(12)
C8 0.0178(15) 0.0175(15) 0.0251(16) -0.0046(12) 0.0091(12) -0.0061(12)
C9 0.0176(14) 0.0151(14) 0.0189(14) -0.0035(11) 0.0006(12) -0.0018(12)
C10 0.0336(19) 0.0262(18) 0.0275(18) -0.0149(14) 0.0183(15) -0.0109(15)
C11 0.046(3) 0.084(4) 0.024(2) -0.016(2) 0.0069(18) -0.001(3)
C12 0.0240(16) 0.0212(16) 0.0298(18) -0.0117(14) 0.0112(14) -0.0079(13)
C13 0.0283(17) 0.0160(15) 0.0183(15) -0.0043(12) 0.0060(13) -0.0086(13)
C14 0.038(2) 0.0180(16) 0.0223(17) -0.0045(13) 0.0067(15) -0.0102(14)
C15 0.0258(17) 0.0209(16) 0.0276(17) -0.0064(13) 0.0108(14) -0.0100(13)

_geom_special_details            
;
All esds (except the esd in the dihedral angle between two l.s. planes)
are estimated using the full covariance matrix.  The cell esds are taken
into account individually in the estimation of esds in distances, angles
and torsion angles; correlations between esds in cell parameters are only
used when they are defined by crystal symmetry.  An approximate (isotropic)
treatment of cell esds is used for estimating esds involving l.s. planes.
;

loop_
_geom_bond_atom_site_label_1
_geom_bond_atom_site_label_2
_geom_bond_distance
_geom_bond_site_symmetry_2
_geom_bond_publ_flag
Zn1 O1 2.056(2) . ?
Zn1 O1 2.056(2) 3_566 ?
Zn1 O3 2.079(2) . ?
Zn1 O3 2.079(2) 3_566 ?
Zn1 N4 2.259(3) 4_475 ?
Zn1 N4 2.259(3) 2_646 ?
F1 C8 1.362(4) . ?
O1 C1 1.262(4) . ?
O2 C1 1.241(4) . ?
O3 C3 1.259(4) . ?
O4 C16 1.445(14) . ?
N1 C6 1.350(4) . ?
N1 C5 1.390(4) . ?
N1 C10 1.475(4) . ?
N2 C5 1.334(4) . ?
N2 C9 1.342(4) . ?
N3 C9 1.358(4) . ?
N3 C12 1.467(4) . ?
N3 C14 1.473(4) . ?
N4 C13 1.465(4) . ?
N4 C15 1.474(4) . ?
N4 Zn1 2.259(3) 2_656 ?
N4 H4 0.9300 . ?
C1 C2 1.512(4) . ?
C2 C6 1.371(4) . ?
C2 C3 1.441(4) . ?
C3 C4 1.452(4) . ?
C4 C5 1.399(4) . ?
C4 C7 1.410(4) . ?
C6 H6 0.9500 . ?
C7 C8 1.341(4) . ?
C7 H7 0.9500 . ?
C8 C9 1.430(4) . ?
C10 C11 1.492(6) . ?
C10 H10A 0.9900 . ?
C10 H10B 0.9900 . ?
C11 H11A 0.9800 . ?
C11 H11B 0.9800 . ?
C11 H11C 0.9800 . ?
C12 C13 1.517(4) . ?
C12 H12A 0.9900 . ?
C12 H12B 0.9900 . ?
C13 H13A 0.9900 . ?
C13 H13B 0.9900 . ?
C14 C15 1.526(5) . ?
C14 H14A 0.9900 . ?
C14 H14B 0.9900 . ?
C15 H15A 0.9900 . ?
C15 H15B 0.9900 . ?
C16 C17 1.526(16) . ?
C17 C17 1.95(4) 3_767 ?

loop_
_geom_angle_atom_site_label_1
_geom_angle_atom_site_label_2
_geom_angle_atom_site_label_3
_geom_angle
_geom_angle_site_symmetry_1
_geom_angle_site_symmetry_3
_geom_angle_publ_flag
O1 Zn1 O1 180.000(1) . 3_566 ?
O1 Zn1 O3 87.44(8) . . ?
O1 Zn1 O3 92.56(9) 3_566 . ?
O1 Zn1 O3 92.56(9) . 3_566 ?
O1 Zn1 O3 87.44(8) 3_566 3_566 ?
O3 Zn1 O3 180.0 . 3_566 ?
O1 Zn1 N4 89.48(9) . 4_475 ?
O1 Zn1 N4 90.52(9) 3_566 4_475 ?
O3 Zn1 N4 92.42(9) . 4_475 ?
O3 Zn1 N4 87.58(9) 3_566 4_475 ?
O1 Zn1 N4 90.52(9) . 2_646 ?
O1 Zn1 N4 89.48(9) 3_566 2_646 ?
O3 Zn1 N4 87.58(9) . 2_646 ?
O3 Zn1 N4 92.42(9) 3_566 2_646 ?
N4 Zn1 N4 180.00(11) 4_475 2_646 ?
C1 O1 Zn1 133.9(2) . . ?
C3 O3 Zn1 127.6(2) . . ?
C6 N1 C5 119.2(3) . . ?
C6 N1 C10 119.7(3) . . ?
C5 N1 C10 120.9(3) . . ?
C5 N2 C9 119.9(3) . . ?
C9 N3 C12 118.6(3) . . ?
C9 N3 C14 124.3(3) . . ?
C12 N3 C14 110.2(3) . . ?
C13 N4 C15 109.0(2) . . ?
C13 N4 Zn1 111.90(19) . 2_656 ?
C15 N4 Zn1 117.4(2) . 2_656 ?
C13 N4 H4 105.9 . . ?
C15 N4 H4 105.9 . . ?
Zn1 N4 H4 105.9 2_656 . ?
O2 C1 O1 123.2(3) . . ?
O2 C1 C2 117.9(3) . . ?
O1 C1 C2 118.9(3) . . ?
C6 C2 C3 118.8(3) . . ?
C6 C2 C1 116.2(3) . . ?
C3 C2 C1 125.0(3) . . ?
O3 C3 C2 126.8(3) . . ?
O3 C3 C4 118.5(3) . . ?
C2 C3 C4 114.6(3) . . ?
C5 C4 C7 115.3(3) . . ?
C5 C4 C3 123.5(3) . . ?
C7 C4 C3 121.2(3) . . ?
N2 C5 N1 117.3(3) . . ?
N2 C5 C4 124.6(3) . . ?
N1 C5 C4 118.1(3) . . ?
N1 C6 C2 125.6(3) . . ?
N1 C6 H6 117.2 . . ?
C2 C6 H6 117.2 . . ?
C8 C7 C4 119.9(3) . . ?
C8 C7 H7 120.0 . . ?
C4 C7 H7 120.0 . . ?
C7 C8 F1 118.6(3) . . ?
C7 C8 C9 121.8(3) . . ?
F1 C8 C9 119.6(3) . . ?
N2 C9 N3 117.9(3) . . ?
N2 C9 C8 117.9(3) . . ?
N3 C9 C8 124.1(3) . . ?
N1 C10 C11 112.0(3) . . ?
N1 C10 H10A 109.2 . . ?
C11 C10 H10A 109.2 . . ?
N1 C10 H10B 109.2 . . ?
C11 C10 H10B 109.2 . . ?
H10A C10 H10B 107.9 . . ?
C10 C11 H11A 109.5 . . ?
C10 C11 H11B 109.5 . . ?
H11A C11 H11B 109.5 . . ?
C10 C11 H11C 109.5 . . ?
H11A C11 H11C 109.5 . . ?
H11B C11 H11C 109.5 . . ?
N3 C12 C13 110.2(3) . . ?
N3 C12 H12A 109.6 . . ?
C13 C12 H12A 109.6 . . ?
N3 C12 H12B 109.6 . . ?
C13 C12 H12B 109.6 . . ?
H12A C12 H12B 108.1 . . ?
N4 C13 C12 114.2(3) . . ?
N4 C13 H13A 108.7 . . ?
C12 C13 H13A 108.7 . . ?
N4 C13 H13B 108.7 . . ?
C12 C13 H13B 108.7 . . ?
H13A C13 H13B 107.6 . . ?
N3 C14 C15 109.6(3) . . ?
N3 C14 H14A 109.8 . . ?
C15 C14 H14A 109.8 . . ?
N3 C14 H14B 109.8 . . ?
C15 C14 H14B 109.8 . . ?
H14A C14 H14B 108.2 . . ?
N4 C15 C14 114.0(3) . . ?
N4 C15 H15A 108.7 . . ?
C14 C15 H15A 108.7 . . ?
N4 C15 H15B 108.7 . . ?
C14 C15 H15B 108.7 . . ?
H15A C15 H15B 107.6 . . ?
O4 C16 C17 164.7(18) . . ?
C16 C17 C17 121.7(17) . 3_767 ?

loop_
_geom_torsion_atom_site_label_1
_geom_torsion_atom_site_label_2
_geom_torsion_atom_site_label_3
_geom_torsion_atom_site_label_4
_geom_torsion
_geom_torsion_site_symmetry_1
_geom_torsion_site_symmetry_2
_geom_torsion_site_symmetry_3
_geom_torsion_site_symmetry_4
_geom_torsion_publ_flag
O1 Zn1 O1 C1 135(56) 3_566 . . . ?
O3 Zn1 O1 C1 -5.0(3) . . . . ?
O3 Zn1 O1 C1 175.0(3) 3_566 . . . ?
N4 Zn1 O1 C1 -97.4(3) 4_475 . . . ?
N4 Zn1 O1 C1 82.6(3) 2_646 . . . ?
O1 Zn1 O3 C3 1.4(3) . . . . ?
O1 Zn1 O3 C3 -178.6(3) 3_566 . . . ?
O3 Zn1 O3 C3 -69(20) 3_566 . . . ?
N4 Zn1 O3 C3 90.8(3) 4_475 . . . ?
N4 Zn1 O3 C3 -89.2(3) 2_646 . . . ?
Zn1 O1 C1 O2 -174.4(3) . . . . ?
Zn1 O1 C1 C2 6.8(5) . . . . ?
O2 C1 C2 C6 -4.6(5) . . . . ?
O1 C1 C2 C6 174.2(3) . . . . ?
O2 C1 C2 C3 176.6(3) . . . . ?
O1 C1 C2 C3 -4.6(5) . . . . ?
Zn1 O3 C3 C2 -0.6(5) . . . . ?
Zn1 O3 C3 C4 -178.7(2) . . . . ?
C6 C2 C3 O3 -177.1(3) . . . . ?
C1 C2 C3 O3 1.6(5) . . . . ?
C6 C2 C3 C4 1.0(4) . . . . ?
C1 C2 C3 C4 179.8(3) . . . . ?
O3 C3 C4 C5 174.3(3) . . . . ?
C2 C3 C4 C5 -4.1(4) . . . . ?
O3 C3 C4 C7 -6.2(5) . . . . ?
C2 C3 C4 C7 175.5(3) . . . . ?
C9 N2 C5 N1 179.4(3) . . . . ?
C9 N2 C5 C4 -2.4(5) . . . . ?
C6 N1 C5 N2 176.8(3) . . . . ?
C10 N1 C5 N2 -7.2(5) . . . . ?
C6 N1 C5 C4 -1.5(5) . . . . ?
C10 N1 C5 C4 174.5(3) . . . . ?
C7 C4 C5 N2 6.6(5) . . . . ?
C3 C4 C5 N2 -173.8(3) . . . . ?
C7 C4 C5 N1 -175.2(3) . . . . ?
C3 C4 C5 N1 4.4(5) . . . . ?
C5 N1 C6 C2 -1.5(5) . . . . ?
C10 N1 C6 C2 -177.5(3) . . . . ?
C3 C2 C6 N1 1.7(5) . . . . ?
C1 C2 C6 N1 -177.2(3) . . . . ?
C5 C4 C7 C8 -4.0(5) . . . . ?
C3 C4 C7 C8 176.4(3) . . . . ?
C4 C7 C8 F1 176.6(3) . . . . ?
C4 C7 C8 C9 -2.3(5) . . . . ?
C5 N2 C9 N3 179.0(3) . . . . ?
C5 N2 C9 C8 -4.3(5) . . . . ?
C12 N3 C9 N2 -3.1(4) . . . . ?
C14 N3 C9 N2 -151.0(3) . . . . ?
C12 N3 C9 C8 -179.6(3) . . . . ?
C14 N3 C9 C8 32.5(5) . . . . ?
C7 C8 C9 N2 6.7(5) . . . . ?
F1 C8 C9 N2 -172.2(3) . . . . ?
C7 C8 C9 N3 -176.9(3) . . . . ?
F1 C8 C9 N3 4.3(5) . . . . ?
C6 N1 C10 C11 89.6(4) . . . . ?
C5 N1 C10 C11 -86.4(4) . . . . ?
C9 N3 C12 C13 149.7(3) . . . . ?
C14 N3 C12 C13 -58.2(4) . . . . ?
C15 N4 C13 C12 -52.0(4) . . . . ?
Zn1 N4 C13 C12 176.6(2) 2_656 . . . ?
N3 C12 C13 N4 56.4(4) . . . . ?
C9 N3 C14 C15 -151.8(3) . . . . ?
C12 N3 C14 C15 58.0(4) . . . . ?
C13 N4 C15 C14 52.0(4) . . . . ?
Zn1 N4 C15 C14 -179.5(2) 2_656 . . . ?
N3 C14 C15 N4 -56.2(4) . . . . ?
O4 C16 C17 C17 99(7) . . . 3_767 ?

loop_
_geom_hbond_atom_site_label_D
_geom_hbond_atom_site_label_H
_geom_hbond_atom_site_label_A
_geom_hbond_distance_DH
_geom_hbond_distance_HA
_geom_hbond_distance_DA
_geom_hbond_angle_DHA
_geom_hbond_site_symmetry_A
N4 H4 O2 0.93 2.21 3.121(4) 164.9 2_556

_diffrn_measured_fraction_theta_max 0.996
_diffrn_reflns_theta_full        27.48
_diffrn_measured_fraction_theta_full 0.996
_refine_diff_density_max         1.182
_refine_diff_density_min         -0.447
_refine_diff_density_rms         0.088
