####################################################################### 
# 
# This file contains crystal structure data downloaded from the 
# Cambridge Structural Database (CSD) hosted by the Cambridge 
# Crystallographic Data Centre (CCDC).
# 
# Full information about CCDC data access policies and citation 
# guidelines are available at http://www.ccdc.cam.ac.uk/access/V1 
# 
# Audit and citation data items may have been added by the CCDC. 
# Please retain this information to preserve the provenance of 
# this file and to allow appropriate attribution of the data. 
# 
#######################################################################

data_Er
_audit_block_doi                 10.5517/cc10f7l8
_database_code_depnum_ccdc_archive 'CCDC 936249'
loop_
_citation_id
_citation_doi
_citation_year
1 10.1039/C3CC43277G 2013
_audit_update_record             
;
2013-06-22 deposited with the CCDC.	2024-07-13 downloaded from the CCDC.
;

_audit_creation_method           SHELXL-97
_chemical_name_systematic        
; 
 ? 
;
_chemical_name_common            ?
_chemical_melting_point          ?
_chemical_formula_moiety         ?
_chemical_formula_sum            'C190 H298 Er5 N44 O156 Ru4 Si2 W24'
_chemical_formula_weight         11403.88

loop_
_atom_type_symbol
_atom_type_description
_atom_type_scat_dispersion_real
_atom_type_scat_dispersion_imag
_atom_type_scat_source
C C 0.0033 0.0016 'International Tables Vol C Tables 4.2.6.8 and 6.1.1.4'
H H 0.0000 0.0000 'International Tables Vol C Tables 4.2.6.8 and 6.1.1.4'
N N 0.0061 0.0033 'International Tables Vol C Tables 4.2.6.8 and 6.1.1.4'
O O 0.0106 0.0060 'International Tables Vol C Tables 4.2.6.8 and 6.1.1.4'
Si Si 0.0817 0.0704 'International Tables Vol C Tables 4.2.6.8 and 6.1.1.4'
Ru Ru -1.2594 0.8363 'International Tables Vol C Tables 4.2.6.8 and 6.1.1.4'
Er Er -0.2586 4.9576 'International Tables Vol C Tables 4.2.6.8 and 6.1.1.4'
W W -0.8490 6.8722 'International Tables Vol C Tables 4.2.6.8 and 6.1.1.4'

_symmetry_cell_setting           Orthorhombic
_symmetry_space_group_name_H-M   Cmcm

loop_
_symmetry_equiv_pos_as_xyz
'x, y, z'
'-x, -y, z+1/2'
'-x, y, -z+1/2'
'x, -y, -z'
'x+1/2, y+1/2, z'
'-x+1/2, -y+1/2, z+1/2'
'-x+1/2, y+1/2, -z+1/2'
'x+1/2, -y+1/2, -z'
'-x, -y, -z'
'x, y, -z-1/2'
'x, -y, z-1/2'
'-x, y, z'
'-x+1/2, -y+1/2, -z'
'x+1/2, y+1/2, -z-1/2'
'x+1/2, -y+1/2, z-1/2'
'-x+1/2, y+1/2, z'

_cell_length_a                   44.598(4)
_cell_length_b                   27.606(3)
_cell_length_c                   27.251(3)
_cell_angle_alpha                90.00
_cell_angle_beta                 90.00
_cell_angle_gamma                90.00
_cell_volume                     33551(6)
_cell_formula_units_Z            4
_cell_measurement_temperature    175(2)
_cell_measurement_reflns_used    ?
_cell_measurement_theta_min      0.87
_cell_measurement_theta_max      26.07

_exptl_crystal_description       Block
_exptl_crystal_colour            Red
_exptl_crystal_size_max          0.33
_exptl_crystal_size_mid          0.29
_exptl_crystal_size_min          0.22
_exptl_crystal_density_meas      ?
_exptl_crystal_density_diffrn    2.258
_exptl_crystal_density_method    'not measured'
_exptl_crystal_F_000             21256
_exptl_absorpt_coefficient_mu    9.697
_exptl_absorpt_correction_type   multi-scan
_exptl_absorpt_correction_T_min  0.3347
_exptl_absorpt_correction_T_max  0.7453
_exptl_absorpt_process_details   'SADABS; Bruker, 2000'

_exptl_special_details           
; 
Refinement of F^2^ against ALL reflections. The weighted R-factor wR and
goodness of fit S are based on F^2^, conventional R-factors R are based
on F, with F set to zero for negative F^2^. The threshold expression of
F^2^ > 2sigma(F^2^) is used only for calculating R-factors(gt) etc. and is
not relevant to the choice of reflections for refinement. R-factors based
on F^2^ are statistically about twice as large as those based on F, and R-
factors based on ALL data will be even larger. 
;

_diffrn_ambient_temperature      175(2)
_diffrn_radiation_wavelength     0.71073
_diffrn_radiation_type           MoK\a
_diffrn_radiation_source         'fine-focus sealed tube'
_diffrn_radiation_monochromator  graphite
_diffrn_measurement_device_type  ?
_diffrn_measurement_method       ?
_diffrn_detector_area_resol_mean ?
_diffrn_standards_number         ?
_diffrn_standards_interval_count ?
_diffrn_standards_interval_time  ?
_diffrn_standards_decay_%        ?
_diffrn_reflns_number            92389
_diffrn_reflns_av_R_equivalents  0.0796
_diffrn_reflns_av_sigmaI/netI    0.0755
_diffrn_reflns_limit_h_min       -55
_diffrn_reflns_limit_h_max       43
_diffrn_reflns_limit_k_min       -32
_diffrn_reflns_limit_k_max       34
_diffrn_reflns_limit_l_min       -30
_diffrn_reflns_limit_l_max       33
_diffrn_reflns_theta_min         0.87
_diffrn_reflns_theta_max         26.07
_reflns_number_total             17169
_reflns_number_gt                9783
_reflns_threshold_expression     >2sigma(I)

_computing_data_collection       ?
_computing_cell_refinement       ?
_computing_data_reduction        ?
_computing_structure_solution    'SHELXS-97 (Sheldrick, 1990)'
_computing_structure_refinement  'SHELXL-97 (Sheldrick, 1997)'
_computing_molecular_graphics    ?
_computing_publication_material  ?

_refine_special_details          
; 
 Refinement of F^2^ against ALL reflections.  The weighted R-factor wR and 
 goodness of fit S are based on F^2^, conventional R-factors R are based 
 on F, with F set to zero for negative F^2^. The threshold expression of 
 F^2^ > 2sigma(F^2^) is used only for calculating R-factors(gt) etc. and is 
 not relevant to the choice of reflections for refinement.  R-factors based 
 on F^2^ are statistically about twice as large as those based on F, and R- 
 factors based on ALL data will be even larger. 
;

_refine_ls_structure_factor_coef Fsqd
_refine_ls_matrix_type           full
_refine_ls_weighting_scheme      calc
_refine_ls_weighting_details     
'calc w=1/[\s^2^(Fo^2^)+(0.0362P)^2^+0.0000P] where P=(Fo^2^+2Fc^2^)/3'
_atom_sites_solution_primary     direct
_atom_sites_solution_secondary   difmap
_atom_sites_solution_hydrogens   geom
_refine_ls_hydrogen_treatment    constr
_refine_ls_extinction_method     none
_refine_ls_extinction_coef       ?
_refine_ls_number_reflns         17169
_refine_ls_number_parameters     710
_refine_ls_number_restraints     0
_refine_ls_R_factor_all          0.0822
_refine_ls_R_factor_gt           0.0460
_refine_ls_wR_factor_ref         0.1057
_refine_ls_wR_factor_gt          0.0992
_refine_ls_goodness_of_fit_ref   1.015
_refine_ls_restrained_S_all      1.015
_refine_ls_shift/su_max          0.001
_refine_ls_shift/su_mean         0.000

loop_
_atom_site_label
_atom_site_type_symbol
_atom_site_fract_x
_atom_site_fract_y
_atom_site_fract_z
_atom_site_U_iso_or_equiv
_atom_site_adp_type
_atom_site_occupancy
_atom_site_symmetry_multiplicity
_atom_site_calc_flag
_atom_site_refinement_flags
_atom_site_disorder_assembly
_atom_site_disorder_group
W1 W 0.210113(10) 0.226497(16) 0.317565(14) 0.05744(13) Uani 1 1 d . . .
W2 W 0.267683(9) 0.148136(17) 0.317621(14) 0.05760(13) Uani 1 1 d . . .
W3 W 0.204603(10) 0.121534(17) 0.379239(14) 0.05983(13) Uani 1 1 d . . .
W4 W 0.197608(10) 0.006637(16) 0.311499(15) 0.06087(13) Uani 1 1 d . . .
W5 W 0.140722(13) 0.19842(2) 0.2500 0.06272(18) Uani 1 2 d S . .
W6 W 0.260780(13) 0.03299(2) 0.2500 0.06098(17) Uani 1 2 d S . .
W7 W 0.134937(10) 0.093779(18) 0.311658(16) 0.06583(14) Uani 1 1 d . . .
Er1 Er 0.5000 0.12112(3) 0.31812(2) 0.05787(19) Uani 1 2 d S . .
Er2 Er 0.541178(13) 0.22116(3) 0.2500 0.05813(19) Uani 1 2 d S . .
Er3 Er 0.5000 0.0000 0.5000 0.1298(6) Uani 1 4 d S . .
Si1 Si 0.20273(6) 0.11886(11) 0.2500 0.0269(7) Uani 1 2 d S . .
Ru1 Ru 0.669161(15) 0.13723(3) 0.50250(3) 0.04429(19) Uani 1 1 d . . .
O1 O 0.1176(2) 0.2459(4) 0.2500 0.078(3) Uani 1 2 d S . .
O2 O 0.10783(15) 0.0757(3) 0.3515(3) 0.087(2) Uani 1 1 d . . .
O3 O 0.2939(2) 0.0036(3) 0.2500 0.079(3) Uani 1 2 d S . .
O4 O 0.19041(15) -0.0407(2) 0.3506(2) 0.076(2) Uani 1 1 d . . .
O5 O 0.30273(14) 0.1563(3) 0.3401(2) 0.073(2) Uani 1 1 d . . .
O6 O 0.15995(14) 0.0382(2) 0.3083(2) 0.0642(19) Uani 1 1 d . . .
O7 O 0.12230(14) 0.1587(2) 0.2993(2) 0.0665(19) Uani 1 1 d . . .
O8 O 0.21648(12) 0.1439(2) 0.2980(2) 0.0525(16) Uani 1 1 d . . .
O9 O 0.16471(14) 0.1191(2) 0.3554(2) 0.0658(19) Uani 1 1 d . . .
O10 O 0.16994(13) 0.2172(2) 0.2982(2) 0.0603(18) Uani 1 1 d . . .
O11 O 0.11790(18) 0.0761(4) 0.2500 0.070(3) Uani 1 2 d S . .
O12 O 0.21913(17) 0.2364(3) 0.2500 0.051(2) Uani 1 2 d S . .
O13 O 0.20945(15) 0.2836(2) 0.3400(2) 0.075(2) Uani 1 1 d . . .
O14 O 0.24737(13) 0.1290(2) 0.3769(2) 0.0601(18) Uani 1 1 d . . .
O15 O 0.27324(18) 0.1619(3) 0.2500 0.056(2) Uani 1 2 d S . .
O16 O 0.26814(14) 0.0824(2) 0.2978(2) 0.0601(18) Uani 1 1 d . . .
O17 O 0.20030(15) 0.1143(2) 0.4404(2) 0.072(2) Uani 1 1 d . . .
O18 O 0.20263(14) 0.1908(2) 0.3760(2) 0.0654(19) Uani 1 1 d . . .
O19 O 0.25158(14) 0.2116(2) 0.3269(2) 0.0608(18) Uani 1 1 d . . .
O20 O 0.18941(19) -0.0252(3) 0.2500 0.065(3) Uani 1 2 d S . .
O21 O 0.16685(18) 0.1242(3) 0.2500 0.049(2) Uani 1 2 d S . .
O22 O 0.23954(15) -0.0041(2) 0.2987(2) 0.0660(19) Uani 1 1 d . . .
O23 O 0.20875(13) 0.0574(2) 0.3561(2) 0.0615(18) Uani 1 1 d . . .
O24 O 0.21137(18) 0.0627(3) 0.2500 0.053(2) Uani 1 2 d S . .
O25 O 0.56825(16) 0.1954(3) 0.3153(3) 0.095(3) Uani 1 1 d . . .
O26 O 0.53970(16) 0.1500(3) 0.3634(3) 0.095(3) Uani 1 1 d . . .
O27 O 0.5369(2) 0.0124(4) 0.5522(4) 0.132(4) Uani 1 1 d . . .
O28 O 0.5665(2) -0.0224(4) 0.6085(4) 0.132(4) Uani 1 1 d . . .
O29 O 0.53040(15) 0.1368(3) 0.2500 0.049(2) Uani 1 2 d S . .
O30 O 0.5000 0.2054(3) 0.3001(3) 0.050(2) Uani 1 2 d S . .
O31 O 0.5000 0.0780(6) 0.4795(5) 0.149(6) Uani 1 2 d S . .
O32 O 0.5000 0.0795(6) 0.3963(5) 0.143(6) Uani 1 2 d S . .
N1 N 0.68995(16) 0.0888(3) 0.4572(3) 0.0474(19) Uani 1 1 d . . .
N2 N 0.70474(15) 0.1165(3) 0.5448(3) 0.050(2) Uani 1 1 d . . .
N3 N 0.69394(15) 0.1970(3) 0.4847(2) 0.0455(19) Uani 1 1 d . . .
N4 N 0.65250(16) 0.1887(3) 0.5504(2) 0.0452(18) Uani 1 1 d . . .
N5 N 0.63528(15) 0.1535(3) 0.4545(2) 0.0470(19) Uani 1 1 d . . .
N6 N 0.63772(16) 0.0869(3) 0.5219(3) 0.052(2) Uani 1 1 d . . .
C1 C 0.6793(2) 0.0722(4) 0.4147(3) 0.060(3) Uani 1 1 d . . .
H1A H 0.6606 0.0838 0.4029 0.072 Uiso 1 1 calc R . .
C2 C 0.6951(3) 0.0384(4) 0.3871(4) 0.072(3) Uani 1 1 d . . .
H2A H 0.6868 0.0265 0.3573 0.086 Uiso 1 1 calc R . .
C3 C 0.7227(3) 0.0219(4) 0.4031(5) 0.079(4) Uani 1 1 d . . .
H3A H 0.7336 -0.0013 0.3845 0.095 Uiso 1 1 calc R . .
C4 C 0.7341(2) 0.0398(4) 0.4466(4) 0.068(3) Uani 1 1 d . . .
H4A H 0.7531 0.0294 0.4582 0.082 Uiso 1 1 calc R . .
C5 C 0.7177(2) 0.0726(3) 0.4726(4) 0.051(2) Uani 1 1 d . . .
C6 C 0.7259(2) 0.0907(4) 0.5211(4) 0.056(3) Uani 1 1 d . . .
C7 C 0.7540(2) 0.0809(4) 0.5426(5) 0.074(3) Uani 1 1 d . . .
H7A H 0.7690 0.0638 0.5250 0.088 Uiso 1 1 calc R . .
C8 C 0.7593(3) 0.0971(4) 0.5913(4) 0.080(4) Uani 1 1 d . . .
H8A H 0.7778 0.0903 0.6073 0.096 Uiso 1 1 calc R . .
C9 C 0.7377(3) 0.1221(4) 0.6142(4) 0.076(3) Uani 1 1 d . . .
H9A H 0.7409 0.1337 0.6466 0.091 Uiso 1 1 calc R . .
C10 C 0.7106(2) 0.1313(4) 0.5906(3) 0.057(3) Uani 1 1 d . . .
H10A H 0.6956 0.1488 0.6078 0.069 Uiso 1 1 calc R . .
C11 C 0.71697(19) 0.1998(4) 0.4522(3) 0.052(2) Uani 1 1 d . . .
H11A H 0.7234 0.1705 0.4372 0.062 Uiso 1 1 calc R . .
C12 C 0.7313(2) 0.2409(4) 0.4397(4) 0.069(3) Uani 1 1 d . . .
H12A H 0.7468 0.2412 0.4159 0.083 Uiso 1 1 calc R . .
C13 C 0.7224(3) 0.2823(5) 0.4632(4) 0.080(4) Uani 1 1 d . . .
H13A H 0.7323 0.3119 0.4563 0.095 Uiso 1 1 calc R . .
C14 C 0.6996(2) 0.2817(4) 0.4961(4) 0.068(3) Uani 1 1 d . . .
H14A H 0.6935 0.3110 0.5114 0.082 Uiso 1 1 calc R . .
C15 C 0.68530(19) 0.2387(4) 0.5074(3) 0.046(2) Uani 1 1 d . . .
C16 C 0.66135(19) 0.2339(4) 0.5437(3) 0.047(2) Uani 1 1 d . . .
C17 C 0.6500(2) 0.2725(4) 0.5691(4) 0.067(3) Uani 1 1 d . . .
H17A H 0.6566 0.3043 0.5615 0.080 Uiso 1 1 calc R . .
C18 C 0.6290(3) 0.2656(5) 0.6057(5) 0.085(4) Uani 1 1 d . . .
H18A H 0.6212 0.2921 0.6241 0.102 Uiso 1 1 calc R . .
C19 C 0.6200(2) 0.2199(6) 0.6142(4) 0.089(4) Uani 1 1 d . . .
H19A H 0.6059 0.2139 0.6395 0.107 Uiso 1 1 calc R . .
C20 C 0.6313(2) 0.1799(4) 0.5858(4) 0.079(3) Uani 1 1 d . . .
H20A H 0.6243 0.1480 0.5916 0.095 Uiso 1 1 calc R . .
C21 C 0.6371(2) 0.1842(4) 0.4165(3) 0.060(3) Uani 1 1 d . . .
H21A H 0.6552 0.2016 0.4114 0.071 Uiso 1 1 calc R . .
C22 C 0.6135(2) 0.1913(4) 0.3845(3) 0.071(3) Uani 1 1 d . . .
H22A H 0.6152 0.2152 0.3596 0.085 Uiso 1 1 calc R . .
C23 C 0.5881(2) 0.1647(4) 0.3883(3) 0.062(3) Uani 1 1 d . . .
C24 C 0.58633(18) 0.1351(4) 0.4282(4) 0.062(3) Uani 1 1 d . . .
H24A H 0.5680 0.1186 0.4343 0.075 Uiso 1 1 calc R . .
C25 C 0.60965(19) 0.1280(4) 0.4598(3) 0.049(2) Uani 1 1 d . . .
C26 C 0.61017(19) 0.0931(3) 0.4996(3) 0.049(2) Uani 1 1 d . . .
C27 C 0.5857(2) 0.0685(4) 0.5159(4) 0.060(3) Uani 1 1 d . . .
H27A H 0.5666 0.0741 0.5018 0.072 Uiso 1 1 calc R . .
C28 C 0.5892(2) 0.0336(4) 0.5551(4) 0.067(3) Uani 1 1 d . . .
C29 C 0.6174(2) 0.0269(4) 0.5755(3) 0.064(3) Uani 1 1 d . . .
H29A H 0.6202 0.0042 0.6013 0.077 Uiso 1 1 calc R . .
C30 C 0.6414(2) 0.0539(4) 0.5577(3) 0.059(3) Uani 1 1 d . . .
H30A H 0.6608 0.0488 0.5711 0.071 Uiso 1 1 calc R . .
C31 C 0.5640(2) 0.1724(5) 0.3518(4) 0.071(3) Uani 1 1 d . . .
C32 C 0.5618(3) 0.0062(5) 0.5734(6) 0.095(4) Uani 1 1 d . . .
C33 C 0.5000 0.1073(11) 0.4452(10) 0.153(9) Uiso 1 2 d S . .
H33A H 0.5000 0.1416 0.4485 0.183 Uiso 1 2 calc SR . .
O1W O 0.5330(3) 0.2876(5) 0.3037(5) 0.242(7) Uani 1 1 d . . .
O2W O 0.5356(2) 0.0582(4) 0.3149(3) 0.138(4) Uani 1 1 d . . .
O3W O 0.5873(2) 0.2642(5) 0.2500 0.113(4) Uani 1 2 d S . .

loop_
_atom_site_aniso_label
_atom_site_aniso_U_11
_atom_site_aniso_U_22
_atom_site_aniso_U_33
_atom_site_aniso_U_23
_atom_site_aniso_U_13
_atom_site_aniso_U_12
W1 0.0761(3) 0.0456(3) 0.0506(2) -0.0056(2) -0.0012(2) 0.0111(2)
W2 0.0655(3) 0.0554(3) 0.0519(2) 0.0002(2) -0.0070(2) 0.0081(2)
W3 0.0791(3) 0.0561(3) 0.0443(2) 0.0005(2) 0.0018(2) 0.0080(2)
W4 0.0796(3) 0.0464(3) 0.0566(3) 0.0070(2) -0.0010(2) 0.0054(2)
W5 0.0667(4) 0.0603(5) 0.0611(4) 0.000 0.000 0.0182(3)
W6 0.0687(4) 0.0476(4) 0.0666(4) 0.000 0.000 0.0156(3)
W7 0.0656(3) 0.0672(4) 0.0646(3) 0.0041(2) 0.0076(2) 0.0045(2)
Er1 0.0326(3) 0.0812(6) 0.0597(4) 0.0158(4) 0.000 0.000
Er2 0.0448(3) 0.0760(5) 0.0536(4) 0.000 0.000 -0.0107(3)
Er3 0.0452(6) 0.1090(12) 0.2352(17) 0.0801(12) 0.000 0.000
Si1 0.0379(17) 0.0204(18) 0.0225(15) 0.000 0.000 0.0050(14)
Ru1 0.0445(4) 0.0430(5) 0.0453(4) 0.0010(4) -0.0047(3) -0.0050(4)
O1 0.080(7) 0.077(8) 0.078(7) 0.000 0.000 0.024(6)
O2 0.078(5) 0.095(7) 0.088(5) 0.013(4) 0.018(4) 0.008(4)
O3 0.104(8) 0.037(7) 0.096(8) 0.000 0.000 0.016(6)
O4 0.098(5) 0.046(5) 0.084(5) 0.006(4) -0.003(4) 0.002(4)
O5 0.080(5) 0.074(6) 0.065(4) -0.007(4) -0.001(4) 0.009(4)
O6 0.079(5) 0.060(5) 0.054(4) -0.008(3) -0.003(3) 0.005(4)
O7 0.074(5) 0.063(5) 0.062(4) -0.003(4) 0.008(3) 0.019(4)
O8 0.057(4) 0.055(5) 0.046(3) -0.003(3) 0.006(3) 0.007(3)
O9 0.074(4) 0.061(5) 0.063(4) 0.001(3) 0.005(3) 0.012(4)
O10 0.075(4) 0.061(5) 0.045(4) 0.000(3) 0.015(3) 0.010(4)
O11 0.055(6) 0.089(9) 0.066(6) 0.000 0.000 -0.010(5)
O12 0.067(5) 0.026(5) 0.059(5) 0.000 0.000 0.015(4)
O13 0.111(6) 0.049(5) 0.066(4) -0.020(4) -0.001(4) 0.012(4)
O14 0.071(4) 0.066(5) 0.044(4) 0.005(3) -0.008(3) 0.011(4)
O15 0.077(6) 0.039(6) 0.051(5) 0.000 0.000 0.007(5)
O16 0.083(5) 0.044(5) 0.053(4) 0.010(3) -0.010(3) 0.010(4)
O17 0.105(5) 0.052(5) 0.061(4) 0.001(3) 0.001(4) 0.005(4)
O18 0.084(5) 0.068(5) 0.045(4) -0.003(3) -0.003(3) 0.010(4)
O19 0.080(4) 0.062(5) 0.040(3) 0.007(3) 0.007(3) 0.006(4)
O20 0.075(6) 0.057(7) 0.062(6) 0.000 0.000 -0.001(5)
O21 0.075(6) 0.031(5) 0.043(5) 0.000 0.000 0.009(4)
O22 0.091(5) 0.043(5) 0.065(4) 0.005(3) -0.005(4) 0.009(4)
O23 0.074(4) 0.061(5) 0.049(4) 0.005(3) -0.001(3) 0.017(4)
O24 0.069(6) 0.041(6) 0.047(5) 0.000 0.000 0.014(5)
O25 0.079(5) 0.137(9) 0.067(5) 0.022(5) -0.034(4) -0.025(5)
O26 0.067(5) 0.139(8) 0.079(5) 0.022(5) -0.032(4) -0.006(5)
O27 0.066(6) 0.142(10) 0.187(10) 0.025(7) 0.036(6) -0.027(6)
O28 0.112(7) 0.131(10) 0.154(9) 0.035(7) 0.034(7) -0.034(7)
O29 0.031(4) 0.075(7) 0.042(5) 0.000 0.000 -0.004(4)
O30 0.020(4) 0.063(7) 0.066(5) -0.002(5) 0.000 0.000
O31 0.190(14) 0.165(16) 0.090(9) 0.058(10) 0.000 0.000
O32 0.036(6) 0.228(18) 0.165(13) 0.110(12) 0.000 0.000
N1 0.054(5) 0.042(5) 0.046(5) -0.001(4) -0.003(4) -0.016(4)
N2 0.039(4) 0.059(6) 0.052(5) -0.004(4) -0.003(4) -0.003(4)
N3 0.045(4) 0.042(5) 0.050(5) -0.005(4) -0.013(4) -0.006(4)
N4 0.056(5) 0.044(6) 0.036(4) -0.005(4) -0.003(3) -0.004(4)
N5 0.044(4) 0.053(6) 0.043(4) 0.004(4) -0.010(3) -0.007(4)
N6 0.065(5) 0.045(6) 0.045(4) -0.005(4) 0.008(4) -0.008(4)
C1 0.083(7) 0.049(7) 0.048(6) 0.014(5) 0.004(5) -0.009(6)
C2 0.106(9) 0.056(8) 0.054(7) -0.009(6) 0.014(6) -0.018(7)
C3 0.092(9) 0.041(8) 0.105(10) 0.016(7) 0.034(8) 0.015(7)
C4 0.096(8) 0.047(8) 0.062(7) -0.002(6) 0.002(6) 0.002(6)
C5 0.055(6) 0.025(6) 0.072(7) 0.005(5) 0.003(5) -0.010(5)
C6 0.041(5) 0.054(7) 0.073(7) 0.014(6) -0.005(5) -0.004(5)
C7 0.040(6) 0.060(8) 0.121(10) 0.027(7) -0.004(6) -0.003(5)
C8 0.109(10) 0.043(8) 0.087(9) 0.014(6) -0.049(8) -0.006(7)
C9 0.088(8) 0.051(8) 0.089(9) 0.003(6) -0.031(7) -0.011(7)
C10 0.061(6) 0.056(7) 0.056(6) 0.008(5) -0.020(5) -0.010(5)
C11 0.049(6) 0.046(7) 0.059(6) -0.007(5) -0.007(5) -0.008(5)
C12 0.078(8) 0.066(9) 0.062(7) -0.010(6) 0.003(6) -0.025(7)
C13 0.100(9) 0.072(10) 0.067(8) 0.016(7) -0.005(7) -0.041(7)
C14 0.079(8) 0.059(9) 0.066(7) -0.009(6) -0.007(6) -0.006(6)
C15 0.052(6) 0.043(7) 0.044(5) -0.003(5) -0.017(4) -0.006(5)
C16 0.050(6) 0.036(7) 0.056(6) -0.007(5) -0.013(5) -0.001(5)
C17 0.064(7) 0.056(8) 0.080(8) -0.010(6) -0.014(6) -0.008(6)
C18 0.093(9) 0.065(10) 0.098(10) -0.037(8) -0.006(8) -0.001(8)
C19 0.079(8) 0.122(13) 0.067(8) -0.044(8) 0.019(6) 0.014(8)
C20 0.073(7) 0.066(9) 0.097(9) 0.010(7) 0.005(7) -0.002(6)
C21 0.055(6) 0.064(8) 0.060(6) 0.015(5) -0.013(5) -0.025(5)
C22 0.087(8) 0.069(9) 0.056(6) 0.008(6) -0.037(6) -0.008(6)
C23 0.063(7) 0.072(8) 0.050(6) 0.017(6) -0.019(5) -0.018(6)
C24 0.031(5) 0.059(8) 0.097(8) 0.000(6) -0.011(5) -0.016(5)
C25 0.046(5) 0.058(