####################################################################### 
# 
# This file contains crystal structure data downloaded from the 
# Cambridge Structural Database (CSD) hosted by the Cambridge 
# Crystallographic Data Centre (CCDC).
# 
# Full information about CCDC data access policies and citation 
# guidelines are available at http://www.ccdc.cam.ac.uk/access/V1 
# 
# Audit and citation data items may have been added by the CCDC. 
# Please retain this information to preserve the provenance of 
# this file and to allow appropriate attribution of the data. 
# 
#######################################################################

data_Gd
_audit_block_doi                 10.5517/cc10f7k7
_database_code_depnum_ccdc_archive 'CCDC 936248'
loop_
_citation_id
_citation_doi
_citation_year
1 10.1039/C3CC43277G 2013
_audit_update_record             
;
2013-06-22 deposited with the CCDC.	2024-07-13 downloaded from the CCDC.
;

_audit_creation_method           SHELXL-97
_chemical_name_systematic        
; 
 ? 
;
_chemical_name_common            ?
_chemical_melting_point          ?
_chemical_formula_moiety         ?
_chemical_formula_sum            'C173 H247 Gd5 N38 O145 Ru4 Si2 W24'
_chemical_formula_weight         10838.20

loop_
_atom_type_symbol
_atom_type_description
_atom_type_scat_dispersion_real
_atom_type_scat_dispersion_imag
_atom_type_scat_source
C C 0.0033 0.0016 'International Tables Vol C Tables 4.2.6.8 and 6.1.1.4'
H H 0.0000 0.0000 'International Tables Vol C Tables 4.2.6.8 and 6.1.1.4'
N N 0.0061 0.0033 'International Tables Vol C Tables 4.2.6.8 and 6.1.1.4'
O O 0.0106 0.0060 'International Tables Vol C Tables 4.2.6.8 and 6.1.1.4'
Si Si 0.0817 0.0704 'International Tables Vol C Tables 4.2.6.8 and 6.1.1.4'
Ru Ru -1.2594 0.8363 'International Tables Vol C Tables 4.2.6.8 and 6.1.1.4'
Gd Gd -0.1653 3.9035 'International Tables Vol C Tables 4.2.6.8 and 6.1.1.4'
W W -0.8490 6.8722 'International Tables Vol C Tables 4.2.6.8 and 6.1.1.4'

_symmetry_cell_setting           Orthorhombic
_symmetry_space_group_name_H-M   Cmc21

loop_
_symmetry_equiv_pos_as_xyz
'x, y, z'
'-x, -y, z+1/2'
'x, -y, z+1/2'
'-x, y, z'
'x+1/2, y+1/2, z'
'-x+1/2, -y+1/2, z+1/2'
'x+1/2, -y+1/2, z+1/2'
'-x+1/2, y+1/2, z'

_cell_length_a                   44.9393(17)
_cell_length_b                   27.0903(10)
_cell_length_c                   28.1541(10)
_cell_angle_alpha                90.00
_cell_angle_beta                 90.00
_cell_angle_gamma                90.00
_cell_volume                     34275(2)
_cell_formula_units_Z            4
_cell_measurement_temperature    273(2)
_cell_measurement_reflns_used    ?
_cell_measurement_theta_min      0.88
_cell_measurement_theta_max      2.056

_exptl_crystal_description       Block
_exptl_crystal_colour            Red
_exptl_crystal_size_max          0.32
_exptl_crystal_size_mid          0.30
_exptl_crystal_size_min          0.25
_exptl_crystal_density_meas      ?
_exptl_crystal_density_diffrn    2.100
_exptl_crystal_density_method    'not measured'
_exptl_crystal_F_000             20044
_exptl_absorpt_coefficient_mu    9.227
_exptl_absorpt_correction_type   multi-scan
_exptl_absorpt_correction_T_min  0.3486
_exptl_absorpt_correction_T_max  0.7453
_exptl_absorpt_process_details   'SADABS; Bruker, 2000'

_exptl_special_details           
; 
 Refinement of F^2^ against ALL reflections.  The weighted R-factor wR and 
 goodness of fit S are based on F^2^, conventional R-factors R are based 
 on F, with F set to zero for negative F^2^. The threshold expression of 
 F^2^ > 2sigma(F^2^) is used only for calculating R-factors(gt) etc. and is 
 not relevant to the choice of reflections for refinement.  R-factors based 
 on F^2^ are statistically about twice as large as those based on F, and R- 
 factors based on ALL data will be even larger. 
 isor 0.001 0.002 C3 C5 C15 C17 C20 C22 C25 C36 C41 C46 C47 C49 C53 C59 N5 N9
 dfix  1.32  0.01  C41  C42 
;

_diffrn_ambient_temperature      273(2)
_diffrn_radiation_wavelength     0.71073
_diffrn_radiation_type           MoK\a
_diffrn_radiation_source         'fine-focus sealed tube'
_diffrn_radiation_monochromator  graphite
_diffrn_measurement_device_type  ?
_diffrn_measurement_method       ?
_diffrn_detector_area_resol_mean ?
_diffrn_standards_number         ?
_diffrn_standards_interval_count ?
_diffrn_standards_interval_time  ?
_diffrn_standards_decay_%        ?
_diffrn_reflns_number            94531
_diffrn_reflns_av_R_equivalents  0.0593
_diffrn_reflns_av_sigmaI/netI    0.0794
_diffrn_reflns_limit_h_min       -54
_diffrn_reflns_limit_h_max       55
_diffrn_reflns_limit_k_min       -33
_diffrn_reflns_limit_k_max       22
_diffrn_reflns_limit_l_min       -34
_diffrn_reflns_limit_l_max       34
_diffrn_reflns_theta_min         0.88
_diffrn_reflns_theta_max         26.05
_reflns_number_total             33505
_reflns_number_gt                22564
_reflns_threshold_expression     >2sigma(I)

_computing_data_collection       ?
_computing_cell_refinement       ?
_computing_data_reduction        ?
_computing_structure_solution    'SHELXS-97 (Sheldrick, 1990)'
_computing_structure_refinement  'SHELXL-97 (Sheldrick, 1997)'
_computing_molecular_graphics    ?
_computing_publication_material  ?

_refine_special_details          
; 
 Refinement of F^2^ against ALL reflections.  The weighted R-factor wR and 
 goodness of fit S are based on F^2^, conventional R-factors R are based 
 on F, with F set to zero for negative F^2^. The threshold expression of 
 F^2^ > 2sigma(F^2^) is used only for calculating R-factors(gt) etc. and is 
 not relevant to the choice of reflections for refinement.  R-factors based 
 on F^2^ are statistically about twice as large as those based on F, and R- 
 factors based on ALL data will be even larger. 
;

_refine_ls_structure_factor_coef Fsqd
_refine_ls_matrix_type           full
_refine_ls_weighting_scheme      calc
_refine_ls_weighting_details     
'calc w=1/[\s^2^(Fo^2^)+(0.0323P)^2^+0.0000P] where P=(Fo^2^+2Fc^2^)/3'
_atom_sites_solution_primary     direct
_atom_sites_solution_secondary   difmap
_atom_sites_solution_hydrogens   geom
_refine_ls_hydrogen_treatment    mixed
_refine_ls_extinction_method     none
_refine_ls_extinction_coef       ?
_refine_ls_abs_structure_details 'Flack H D (1983), Acta Cryst. A39, 876-881'
_refine_ls_abs_structure_Flack   0.00
_refine_ls_number_reflns         33505
_refine_ls_number_parameters     1399
_refine_ls_number_restraints     98
_refine_ls_R_factor_all          0.0685
_refine_ls_R_factor_gt           0.0435
_refine_ls_wR_factor_ref         0.0981
_refine_ls_wR_factor_gt          0.0924
_refine_ls_goodness_of_fit_ref   1.018
_refine_ls_restrained_S_all      1.017
_refine_ls_shift/su_max          0.002
_refine_ls_shift/su_mean         0.000

loop_
_atom_site_label
_atom_site_type_symbol
_atom_site_fract_x
_atom_site_fract_y
_atom_site_fract_z
_atom_site_U_iso_or_equiv
_atom_site_adp_type
_atom_site_occupancy
_atom_site_symmetry_multiplicity
_atom_site_calc_flag
_atom_site_refinement_flags
_atom_site_disorder_assembly
_atom_site_disorder_group
W1 W 0.273324(18) 0.15223(3) 0.38070(2) 0.0425(2) Uani 1 1 d . . .
W2 W 0.215283(19) 0.23035(3) 0.38223(2) 0.0437(2) Uani 1 1 d . . .
W3 W 0.211074(18) 0.12413(3) 0.32082(2) 0.0419(2) Uani 1 1 d . . .
W4 W 0.142018(18) 0.09369(3) 0.38569(3) 0.0459(2) Uani 1 1 d . . .
W5 W 0.204751(17) 0.00552(3) 0.38435(2) 0.03849(19) Uani 1 1 d . . .
W6 W 0.211132(18) 0.11926(3) 0.57093(2) 0.0409(2) Uani 1 1 d . . .
W7 W 0.267559(10) 0.032676(17) 0.44279(3) 0.04234(13) Uani 1 1 d . . .
W8 W 0.142347(18) 0.09019(3) 0.50485(3) 0.0448(2) Uani 1 1 d . . .
W9 W 0.273536(18) 0.14834(3) 0.51158(2) 0.04181(19) Uani 1 1 d . . .
W10 W 0.147105(12) 0.198778(18) 0.44817(3) 0.04589(14) Uani 1 1 d . . .
W11 W 0.216056(19) 0.22751(3) 0.51327(2) 0.0433(2) Uani 1 1 d . . .
W12 W 0.205423(18) 0.00303(3) 0.50321(2) 0.0402(2) Uani 1 1 d . . .
Gd1 Gd 0.042388(13) 0.72254(2) 0.43849(3) 0.04194(17) Uani 1 1 d . . .
Gd2 Gd 0.0000 0.61647(5) 0.50609(4) 0.0401(3) Uani 1 2 d S . .
Gd3 Gd 0.0000 0.61651(5) 0.37457(4) 0.0383(3) Uani 1 2 d S . .
Gd4 Gd 0.0000 0.48458(5) 0.66969(4) 0.0564(3) Uani 1 2 d S . .
Ru1 Ru 0.16505(3) 0.63758(5) 0.69255(4) 0.0320(3) Uani 1 1 d . . .
Ru2 Ru 0.16983(3) 0.64284(5) 0.19364(4) 0.0303(3) Uani 1 1 d . . .
Si1 Si 0.20905(5) 0.11871(9) 0.44578(19) 0.0177(5) Uani 1 1 d . . .
O1 O 0.0326(2) 0.5095(5) 0.7299(4) 0.070(4) Uani 1 1 d . . .
O2 O 0.0589(2) 0.4740(5) 0.7859(4) 0.069(3) Uani 1 1 d . . .
O3 O 0.0377(3) 0.6511(5) 0.5529(4) 0.062(4) Uani 1 1 d . . .
O4 O 0.0696(3) 0.6940(5) 0.5074(4) 0.072(4) Uani 1 1 d . . .
O5 O 0.0639(2) 0.6958(5) 0.3654(5) 0.072(4) Uani 1 1 d . . .
O6 O 0.0371(3) 0.6454(6) 0.3225(4) 0.070(4) Uani 1 1 d . . .
O7 O 0.0447(3) 0.5080(6) 0.1301(5) 0.083(5) Uani 1 1 d . . .
O8 O 0.0752(2) 0.4741(4) 0.0799(4) 0.065(3) Uani 1 1 d . . .
O9 O 0.0000 0.5730(8) 0.5819(7) 0.072(6) Uani 1 2 d S . .
O10 O 0.0000 0.5701(7) 0.6598(5) 0.087(6) Uani 1 2 d S . .
O12 O -0.0244(2) 0.4089(4) 0.6997(4) 0.061(3) Uani 1 1 d . . .
O13 O 0.0000 0.7038(6) 0.3890(5) 0.038(4) Uani 1 2 d S . .
O14 O 0.03144(13) 0.6368(2) 0.4402(4) 0.0316(18) Uani 1 1 d . . .
O15 O 0.0000 0.7079(5) 0.4874(4) 0.032(4) Uani 1 2 d S . .
O16 O 0.0000 0.5485(8) 0.4414(13) 0.152(9) Uani 1 2 d S . .
O17 O 0.2479(3) -0.0056(4) 0.4903(4) 0.059(4) Uani 1 1 d . . .
O18 O 0.21814(14) 0.0613(2) 0.4432(4) 0.0326(17) Uani 1 1 d . . .
O19 O 0.1297(2) 0.1588(4) 0.3990(4) 0.041(3) Uani 1 1 d . . .
O20 O 0.1710(2) 0.1202(4) 0.3424(4) 0.040(3) Uani 1 1 d . . .
O21 O 0.2534(3) 0.1322(4) 0.3233(4) 0.042(3) Uani 1 1 d . . .
O22 O 0.1761(3) 0.2176(4) 0.4927(4) 0.047(3) Uani 1 1 d . . .
O23 O 0.12475(15) 0.0730(2) 0.4457(5) 0.0458(19) Uani 1 1 d . . .
O24 O 0.17310(13) 0.1223(2) 0.4468(5) 0.0360(18) Uani 1 1 d . . .
O25 O 0.1716(3) 0.1146(4) 0.5462(3) 0.047(3) Uani 1 1 d . . .
O26 O 0.2144(2) 0.0586(4) 0.3429(4) 0.041(3) Uani 1 1 d . . .
O27 O 0.1270(3) 0.1563(5) 0.4941(4) 0.055(4) Uani 1 1 d . . .
O28 O 0.2224(2) 0.1443(4) 0.4925(3) 0.030(3) Uani 1 1 d . . .
O29 O 0.1754(3) 0.2192(4) 0.4006(4) 0.049(3) Uani 1 1 d . . .
O30 O 0.2089(3) 0.1901(5) 0.5697(3) 0.046(3) Uani 1 1 d . . .
O31 O 0.2224(3) 0.1447(4) 0.3980(4) 0.045(3) Uani 1 1 d . . .
O32 O 0.2535(3) 0.1248(5) 0.5686(4) 0.050(3) Uani 1 1 d . . .
O33 O 0.1144(3) 0.0685(5) 0.5407(4) 0.056(4) Uani 1 1 d . . .
O34 O 0.1666(3) 0.0339(4) 0.5007(4) 0.042(3) Uani 1 1 d . . .
O35 O 0.1678(2) 0.0374(4) 0.3875(4) 0.044(3) Uani 1 1 d . . .
O36 O 0.2579(3) 0.2134(4) 0.5227(4) 0.055(4) Uani 1 1 d . . .
O37 O 0.2067(3) 0.1078(5) 0.6294(4) 0.050(3) Uani 1 1 d . . .
O38 O 0.2568(2) 0.2160(4) 0.3728(4) 0.041(3) Uani 1 1 d . . .
O39 O 0.22394(16) 0.2404(2) 0.4461(5) 0.049(2) Uani 1 1 d . . .
O40 O 0.2159(3) 0.0518(5) 0.5482(4) 0.049(3) Uani 1 1 d . . .
O41 O 0.30042(15) 0.0023(3) 0.4401(5) 0.053(2) Uani 1 1 d . . .
O42 O 0.3076(3) 0.1615(4) 0.3583(4) 0.043(3) Uani 1 1 d . . .
O43 O 0.1988(3) -0.0455(5) 0.5405(4) 0.054(4) Uani 1 1 d . . .
O44 O 0.2058(3) 0.1172(4) 0.2620(5) 0.057(4) Uani 1 1 d . . .
O45 O 0.2739(3) 0.0821(4) 0.4893(3) 0.038(3) Uani 1 1 d . . .
O46 O 0.19690(15) -0.0274(2) 0.4418(5) 0.0403(19) Uani 1 1 d . . .
O47 O 0.1974(3) -0.0414(4) 0.3457(4) 0.049(3) Uani 1 1 d . . .
O48 O 0.2073(3) 0.1926(4) 0.3244(4) 0.053(3) Uani 1 1 d . . .
O49 O 0.1236(2) 0.2479(3) 0.4502(5) 0.070(3) Uani 1 1 d . . .
O50 O 0.2464(2) -0.0043(4) 0.3959(3) 0.036(3) Uani 1 1 d . . .
O51 O 0.2146(3) 0.2868(4) 0.5353(4) 0.061(4) Uani 1 1 d . . .
O52 O 0.1151(3) 0.0772(5) 0.3454(4) 0.057(4) Uani 1 1 d . . .
O53 O 0.27845(14) 0.1643(2) 0.4454(5) 0.0410(18) Uani 1 1 d . . .
O54 O 0.3086(3) 0.1537(5) 0.5335(4) 0.062(4) Uani 1 1 d . . .
O55 O 0.2746(2) 0.0838(4) 0.3967(4) 0.042(3) Uani 1 1 d . . .
O56 O 0.2127(3) 0.2893(5) 0.3610(4) 0.065(4) Uani 1 1 d . . .
N1 N 0.1998(3) 0.6131(5) 0.7365(4) 0.035(3) Uani 1 1 d . . .
N2 N 0.1854(3) 0.5866(5) 0.6475(4) 0.035(3) Uani 1 1 d . . .
N3 N 0.1483(3) 0.6872(5) 0.7398(5) 0.042(4) Uani 1 1 d . . .
N4 N 0.1918(3) 0.6971(5) 0.6756(4) 0.032(3) Uani 1 1 d . . .
N5 N 0.1321(3) 0.6535(5) 0.6465(4) 0.035(3) Uani 1 1 d U . .
N6 N 0.1333(4) 0.5873(5) 0.7100(5) 0.052(4) Uani 1 1 d . . .
N7 N 0.1341(3) 0.6588(4) 0.2375(4) 0.028(3) Uani 1 1 d . . .
N8 N 0.1390(3) 0.5900(5) 0.1718(4) 0.033(3) Uani 1 1 d . . .
N9 N 0.1882(3) 0.5934(4) 0.2399(4) 0.023(3) Uani 1 1 d U . .
N10 N 0.2064(3) 0.6197(5) 0.1570(5) 0.039(4) Uani 1 1 d . . .
N11 N 0.1939(3) 0.7035(5) 0.2116(5) 0.036(3) Uani 1 1 d . . .
N12 N 0.1548(3) 0.6950(4) 0.1454(4) 0.025(3) Uani 1 1 d . . .
C1 C 0.0543(3) 0.5023(6) 0.7503(5) 0.035(4) Uani 1 1 d . . .
C2 C 0.0826(3) 0.5314(6) 0.7372(5) 0.046(4) Uani 1 1 d . . .
C3 C 0.1094(4) 0.5231(6) 0.7580(6) 0.050(4) Uani 1 1 d U . .
H3A H 0.1105 0.4985 0.7809 0.060 Uiso 1 1 calc R . .
C4 C 0.1356(4) 0.5494(6) 0.7469(6) 0.049(5) Uani 1 1 d . . .
H4A H 0.1535 0.5430 0.7623 0.059 Uiso 1 1 calc R . .
C5 C 0.1052(3) 0.5928(5) 0.6870(5) 0.032(4) Uani 1 1 d U . .
C6 C 0.1071(4) 0.6281(6) 0.6497(5) 0.039(4) Uani 1 1 d . . .
C7 C 0.1362(3) 0.6859(5) 0.6085(5) 0.035(4) Uani 1 1 d . . .
H7A H 0.1538 0.7036 0.6049 0.042 Uiso 1 1 calc R . .
C8 C 0.1127(4) 0.6906(8) 0.5757(6) 0.061(6) Uani 1 1 d . . .
H8A H 0.1149 0.7116 0.5498 0.074 Uiso 1 1 calc R . .
C9 C 0.0860(4) 0.6644(7) 0.5814(5) 0.046(5) Uani 1 1 d . . .
C10 C 0.0617(4) 0.6707(7) 0.5445(6) 0.052(5) Uani 1 1 d . . .
C11 C 0.0829(3) 0.6337(7) 0.6146(5) 0.045(4) Uani 1 1 d . . .
H11A H 0.0657 0.6148 0.6171 0.054 Uiso 1 1 calc R . .
C12 C 0.0816(4) 0.5655(7) 0.7027(6) 0.063(5) Uani 1 1 d . . .
H12A H 0.0633 0.5710 0.6882 0.076 Uiso 1 1 calc R . .
C13 C 0.2045(3) 0.6279(6) 0.7817(5) 0.038(4) Uani 1 1 d . . .
H13A H 0.1900 0.6462 0.7974 0.046 Uiso 1 1 calc R . .
C14 C 0.2296(4) 0.6166(6) 0.8038(6) 0.060(5) Uani 1 1 d . . .
H14A H 0.2320 0.6252 0.8355 0.071 Uiso 1 1 calc R . .
C15 C 0.2521(4) 0.5921(6) 0.7806(6) 0.041(4) Uani 1 1 d U . .
H15A H 0.2703 0.5867 0.7955 0.050 Uiso 1 1 calc R . .
C16 C 0.2475(4) 0.5758(6) 0.7350(7) 0.053(5) Uani 1 1 d . . .
H16A H 0.2623 0.5582 0.7195 0.064 Uiso 1 1 calc R . .
C17 C 0.2211(4) 0.5853(6) 0.7120(6) 0.035(4) Uani 1 1 d U . .
C18 C 0.2130(4) 0.5688(6) 0.6655(6) 0.040(4) Uani 1 1 d . . .
C19 C 0.2292(4) 0.5376(7) 0.6396(6) 0.049(5) Uani 1 1 d . . .
H19A H 0.2478 0.5273 0.6502 0.059 Uiso 1 1 calc R . .
C20 C 0.2182(4) 0.5210(7) 0.5970(6) 0.053(5) Uani 1 1 d U . .
H20A H 0.2295 0.4993 0.5788 0.064 Uiso 1 1 calc R . .
C21 C 0.1912(5) 0.5359(7) 0.5812(6) 0.058(6) Uani 1 1 d . . .
H21A H 0.1828 0.5228 0.5537 0.070 Uiso 1 1 calc R . .
C22 C 0.1763(4) 0.5724(7) 0.6083(6) 0.041(4) Uani 1 1 d U . .
H22A H 0.1589 0.5862 0.5961 0.050 Uiso 1 1 calc R . .
C23 C 0.1276(5) 0.6820(8) 0.7686(7) 0.067(6) Uani 1 1 d . . .
H23A H 0.1172 0.6523 0.7682 0.080 Uiso 1 1 calc R . .
C24 C 0.1184(5) 0.7190(10) 0.8029(7) 0.087(8) Uani 1 1 d . . .
H24A H 0.1032 0.7120 0.8242 0.105 Uiso 1 1 calc R . .
C25 C 0.1318(4) 0.7632(7) 0.8041(6) 0.041(4) Uani 1 1 d U . .
H25A H 0.1270 0.7863 0.8273 0.050 Uiso 1 1 calc R . .
C26 C 0.1537(5) 0.7738(8) 0.7689(8) 0.075(7) Uani 1 1 d . . .
H26A H 0.1621 0.8050 0.7657 0.090 Uiso 1 1 calc R . .
C27 C 0.1618(5) 0.7335(10) 0.7389(6) 0.070(7) Uani 1 1 d . . .
C28 C 0.1866(4) 0.7380(5) 0.7025(5) 0.038(4) Uani 1 1 d . . .
C29 C 0.2044(4) 0.7819(6) 0.6985(6) 0.046(5) Uani 1 1 d . . .
H29A H 0.2017 0.8087 0.7187 0.056 Uiso 1 1 calc R . .
C30 C 0.2258(4) 0.7825(6) 0.6628(6) 0.038(4) Uani 1 1 d . . .
H30A H 0.2365 0.8111 0.6562 0.045 Uiso 1 1 calc R . .
C31 C 0.2309(4) 0.7395(7) 0.6373(6) 0.041(4) Uani 1 1 d . . .
H31A H 0.2462 0.7387 0.6150 0.050 Uiso 1 1 calc R . .
C32 C 0.2143(3) 0.6996(5) 0.6442(5) 0.024(3) Uani 1 1 d . . .
H32A H 0.2185 0.6716 0.6262 0.028 Uiso 1 1 calc R . .
C33 C 0.0616(5) 0.6706(8) 0.3307(6) 0.064(6) Uani 1 1 d . . .
C34 C 0.0860(4) 0.6685(6) 0.2975(5) 0.037(4) Uani 1 1 d . . .
C35 C 0.1096(3) 0.6979(6) 0.3021(5) 0.033(4) Uani 1 1 d . . .
H35A H 0.1106 0.7217 0.3259 0.040 Uiso 1 1 calc R . .
C36 C 0.1317(4) 0.6916(6) 0.2714(5) 0.033(4) Uani 1 1 d U . .
H36A H 0.1476 0.7134 0.2743 0.039 Uiso 1 1 calc R . .
C37 C 0.1086(3) 0.6297(7) 0.2299(4) 0.033(4) Uani 1 1 d . . .
C38 C 0.1115(3) 0.5953(5) 0.1904(5) 0.027(3) Uani 1 1 d . . .
C39 C 0.1462(4) 0.5572(5) 0.1368(6) 0.042(4) Uani 1 1 d . . .
H39A H 0.1655 0.5538 0.1254 0.051 Uiso 1 1 calc R . .
C40 C 0.1219(3) 0.5285(5) 0.1187(5) 0.039(4) Uani 1 1 d . . .
H40A H 0.1261 0.5048 0.0958 0.047 Uiso 1 1 calc R . .
C41 C 0.0924(3) 0.5334(5) 0.1332(5) 0.036(4) Uani 1 1 d DU . .
C42 C 0.0703(4) 0.5044(7) 0.1157(7) 0.065(5) Uani 1 1 d D . .
C43 C 0.0881(3) 0.5668(5) 0.1723(5) 0.036(4) Uani 1 1 d . . .
H43A H 0.0694 0.5696 0.1858 0.043 Uiso 1 1 calc R . .
C44 C 0.0850(3) 0.6345(5) 0.2567(5) 0.031(4) Uani 1 1 d . . .
H44A H 0.0678 0.6167 0.2500 0.037 Uiso 1 1 calc R . .
C45 C 0.1744(4) 0.5737(6) 0.2826(5) 0.035(4) Uani 1 1 d . . .
H45A H 0.1552 0.5827 0.2910 0.042 Uiso 1 1 calc R . .
C46 C 0.1897(4) 0.5431(6) 0.3092(6) 0.041(4) Uani 1 1 d U . .
H46A H 0.1814 0.5346 0.3383 0.049 Uiso 1 1 calc R . .
C47 C 0.2161(4) 0.5228(7) 0.2986(6) 0.044(4) Uani 1 1 d U . .
H47A H 0.2247 0.4987 0.3178 0.053 Uiso 1 1 calc R . .
C48 C 0.2306(4) 0.5404(7) 0.2558(7) 0.055(5) Uani 1 1 d . . .
H48A H 0.2493 0.5292 0.2466 0.066 Uiso 1 1 calc R . .
C49 C 0.2142(4) 0.5766(6) 0.2281(5) 0.033(4) Uani 1 1 d U . .
C50 C 0.2257(4) 0.5926(5) 0.1815(6) 0.039(4) Uani 1 1 d . . .
C51 C 0.2542(4) 0.5794(6) 0.1646(6) 0.046(5) Uani 1 1 d . . .
H51A H 0.2676 0.5629 0.1841 0.055 Uiso 1 1 calc R . .
C52 C 0.2618(4) 0.5915(6) 0.1188(6) 0.056(5) Uani 1 1 d . . .
H52A H 0.2799 0.5820 0.1056 0.067 Uiso 1 1 calc R . .
C53 C 0.2407(3) 0.6194(6) 0.0923(6) 0.044(4) Uani 1 1 d U . .
H53A H 0.2442 0.6276 0.0607 0.053 Uiso 1 1 calc R . .
C54 C 0.2143(3) 0.6342(7) 0.1153(6) 0.044(4) Uani 1 1 d . . .
H54A H 0.2018 0.6559 0.0993 0.053 Uiso 1 1 calc R . .
C55 C 0.2153(4) 0.7054(8) 0.2471(6) 0.059(6) Uani 1 1 d . . .
H55A H 0.2201 0.6766 0.2633 0.071 Uiso 1 1 calc R . .
C56 C 0.2297(4) 0.7489(7) 0.2591(7) 0.055(6) Uani 1 1 d . . .
H56A H 0.2437 0.7492 0.2834 0.066 Uiso 1 1 calc R . .
C57 C 0.2231(5) 0.7920(8) 0.2346(7) 0.070(6) Uani 1 1 d . . .
H57A H 0.2333 0.8212 0.2406 0.084 Uiso 1 1 calc R . .
C58 C 0.2018(4) 0.7898(7) 0.2024(6) 0.047(5) Uani 1 1 d . . .
H58A H 0.1965 0.8189 0.1873 0.056 Uiso 1 1 calc R . .
C59 C 0.1869(4) 0.7468(6) 0.1896(5) 0.035(4) Uani 1 1 d U . .
C60 C 0.1646(3) 0.7397(5) 0.1530(5) 0.031(4) Uani 1 1 d . . .
C61 C 0.1546(4) 0.7789(8) 0.1261(6) 0.047(5) Uani 1 1 d . . .
H61A H 0.1616 0.8102 0.1335 0.056 Uiso 1 1 calc R . .
C62 C 0.1365(4) 0.7746(7) 0.0923(7) 0.064(6) Uani 1 1 d . . .
H62A H 0.1302 0.8019 0.0749 0.077 Uiso 1 1 calc R . .
C63 C 0.1254(4) 0.7228(9) 0.0813(6) 0.065(6) Uani 1 1 d . . .
H63A H 0.1126 0.7169 0.0559 0.078 Uiso 1 1 calc R . .
C64 C 0.1351(4) 0.6843(7) 0.1104(5) 0.059(6) Uani 1 1 d . . .
H64A H 0.1282 0.6523 0.1059 0.071 Uiso 1 1 calc R . .
C65 C 0.0000 0.5926(10) 0.6233(11) 0.075(8) Uiso 1 2 d S . .
H65A H 0.0000 0.6269 0.6250 0.089 Uiso 1 2 calc SR . .
C66 C 0.0000 0.3891(10) 0.7073(8) 0.054(6) Uani 1 2 d S . .
C67 C 0.0000 0.3447(14) 0.7269(13) 0.155(18) Uani 1 2 d S . .
H67A H 0.0000 0.3418 0.7609 0.233 Uiso 1 2 d SR . .
H67B H -0.0174 0.3291 0.7142 0.233 Uiso 1 1 d R . .
O1W O 0.0000 0.5609(8) 0.3059(6) 0.072(6) Uani 1 2 d S . .
O2W O 0.0413(3) 0.5546(6) 0.5099(5) 0.091(5) Uani 1 1 d . . .
O3W O 0.09202(18) 0.7614(4) 0.4373(5) 0.088(4) Uani 1 1 d . . .
O4W O 0.0300(5) 0.8018(7) 0.3914(8) 0.206(11) Uani 1 1 d . . .
O5W O 0.0434(5) 0.5595(7) 0.3710(6) 0.166(10) Uani 1 1 d . . .
O6W O 0.0368(4) 0.7937(6) 0.4933(7) 0.115(6) Uani 1 1 d . . .
O7W O 0.0000 0.4274(7) 0.5949(12) 0.201(16) Uani 1 2 d S . .

loop_
_atom_site_aniso_label
_atom_site_aniso_U_11
_atom_site_aniso_U_22
_atom_site_aniso_U_33
_atom_site_aniso_U_23
_atom_site_aniso_U_13
_atom_site_aniso_U_12
W1 0.0523(5) 0.0364(4) 0.0386(4) 0.0014(3) 0.0077(4) 0.0008(4)
W2 0.0650(5) 0.0274(4) 0.0386(4) 0.0043(3) 0.0034(4) 0.0054(4)
W3 0.0595(6) 0.0345(4) 0.0316(4) 0.0020(3) -0.0009(3) 0.0074(4)
W4 0.0450(5) 0.0468(5) 0.0459(4) -0.0046(4) -0.0051(4) 0.0047(4)
W5 0.0493(5) 0.0278(4) 0.0384(4) -0.0039(3) 0.0021(4) 0.0018(3)
W6 0.0523(5) 0.0380(5) 0.0323(4) 0.0001(3) 0.0014(3) 0.0012(4)
W7 0.0451(3) 0.0318(2) 0.0501(3) 0.0038(4) 0.0025(5) 0.0082(2)
W8 0.0442(5) 0.0444(5) 0.0459(4) 0.0014(4) 0.0055(4) 0.0035(4)
W9 0.0456(5) 0.0418(5) 0.0381(4) 0.0002(3) -0.0037(3) -0.0025(4)
W10 0.0539(3) 0.0391(3) 0.0446(3) -0.0024(4) 0.0005(4) 0.0152(2)
W11 0.0616(5) 0.0307(4) 0.0375(4) -0.0054(3) 0.0013(4) 0.0039(4)
W12 0.0511(5) 0.0303(4) 0.0392(4) 0.0048(3) -0.0008(4) 0.0022(4)
Gd1 0.0329(3) 0.0586(4) 0.0343(4) -0.0010(4) -0.0006(4) -0.0085(3)
Gd2 0.0222(6) 0.0600(9) 0.0382(7) 0.0026(6) 0.000 0.000
Gd3 0.0246(7) 0.0559(8) 0.0344(6) -0.0053(5) 0.000 0.000
Gd4 0.0301(6) 0.0851(9) 0.0539(7) 0.0171(6) 0.000 0.000
Ru1 0.0330(7) 0.0316(7) 0.0315(6) -0.0007(6) -0.0052(6) -0.0002(6)
Ru2 0.0325(7) 0.0296(7) 0.0288(6) -0.0001(6) 0.0049(6) -0.0061(6)
Si1 0.0239(13) 0.0104(12) 0.0187(13) -0.004(2) 0.006(2) 0.0042(11)
O1 0.037(7) 0.095(9) 0.078(8) 0.034(7) 0.001(6) -0.015(7)
O2 0.048(7) 0.096(10) 0.063(8) 0.015(7) 0.001(6) 0.007(7)
O3 0.040(7) 0.094(10) 0.053(7) 0.027(7) -0.028(6) -0.037(7)
O4 0.059(8) 0.109(11) 0.048(7) 0.040(7) -0.012(6) -0.028(8)
O5 0.029(7) 0.100(11) 0.087(10) 0.004(8) 0.018(7) -0.024(7)
O6 0.054(8) 0.099(10) 0.057(8) -0.035(7) 0.021(6) -0.019(8)
O7 0.065(10) 0.105(12) 0.079(10) 0.001(8) -0.036(8) -0.044(9)
O8 0.047(7) 0.076(8) 0.071(8) -0.033(7) 0.009(6) -0.017(6)
O9 0.037(11) 0.096(15) 0.083(14) 0.055(12) 0.000 0.000
O10 0.117(15) 0.109(14) 0.034(9) 0.021(10) 0.000 0.000
O12 0.036(6) 0.081(8) 0.067(7) 0.009(6) 0.000(5) -0.001(6)
O13 0.023(8) 0.055(10) 0.038(8) 0.005(7) 0.000 0.000
O14 0.017(3) 0.050(4) 0.028(5) 0.005(5) 0.001(5) 0.009(3)
O15 0.026(8) 0.039(8) 0.032(8) 0.000(6) 0.000 0.000
O16 0.063(10) 0.21(2) 0.18(2) 0.07(3) 0.000 0.000
O17 0.082(10) 0.028(7) 0.067(8) 0.010(6) -0.014(7) 0.017(7)
O18 0.049(4) 0.025(4) 0.024(4) -0.009(6) -0.016(6) 0.001(3)
O19 0.040(7) 0.030(6) 0.053(7) 0.007(5) -0.029(5) -0.001(6)
O20 0.027(6) 0.027(6) 0.067(8) -0.009(5) -0.004(5) 0.008(5)
O21 0.057(8) 0.014(5) 0.055(7) -0.005(5) 0.009(6) 0.009(5)
O22 0.054(8) 0.041(8) 0.045(7) -0.003(6) 0.007(6) -0.002(7)
O23 0.047(4) 0.033(4) 0.058(5) -0.015(8) 0.000(8) 0.006(4)
O24 0.030(4) 0.037(4) 0.041(4) 0.009(7) 0.008(7) 0.020(3)
O25 0.074(9) 0.044(7) 0.024(6) -0.004(5) 0.013(6) 0.008(7)
O26 0.038(7) 0.023(6) 0.061(8) -0.009(5) 0.006(6) 0.004(5)
O27 0.068(9) 0.057(9) 0.041(7) 0.002(6) 0.001(6) 0.012(7)
O28 0.035(6) 0.022(6) 0.034(6) 0.009(5) -0.007(5) 0.002(5)
O29 0.069(9) 0.033(7) 0.046(7) 0.008(6) 0.011(6) 0.018(7)
O30 0.045(7) 0.074(9) 0.019(5) -0.016(6) -0.009(5) 0.013(7)
O31 0.055(8) 0.033(7) 0.047(7) 0.010(6) -0.010(6) -0.003(7)
O32 0.056(8) 0.057(8) 0.038(7) -0.008(6) -0.005(6) 0.015(7)
O33 0.055(8) 0.055(8) 0.059(8) -0.005(6) 0.003(6) -0.008(7)
O34 0.064(8) 0.038(7) 0.025(6) 0.001(5) 0.011(5) -0.001(6)
O35 0.031(7) 0.048(7) 0.051(7) 0.000(6) 0.018(5) 0.011(6)
O36 0.097(10) 0.037(7) 0.030(6) -0.007(5) -0.008(6) -0.009(7)
O37 0.053(8) 0.064(8) 0.031(6) 0.010(6) -0.011(5) -0.002(6)
O38 0.048(7) 0.039(7) 0.037(6) 0.008(5) 0.005(5) -0.012(6)
O39 0.073(5) 0.027(4) 0.047(5) -0.014(7) 0.002(8) -0.001(4)
O40 0.048(8) 0.057(8) 0.041(7) 0.005(6) -0.006(6) 0.007(6)
O41 0.038(4) 0.045(5) 0.077(7) 0.021(7) 0.006(7) 0.008(4)
O42 0.042(7) 0.035(6) 0.053(7) 0.008(5) 0.018(6) 0.003(5)
O43 0.065(9) 0.049(8) 0.048(7) 0.006(6) 0.006(6) 0.004(7)
O44 0.074(10) 0.021(6) 0.077(9) 0.009(5) 0.005(7) 0.002(6)
O45 0.053(8) 0.034(7) 0.028(6) 0.008(5) -0.001(5) 0.012(6)
O46 0.053(4) 0.026(4) 0.042(5) 0.002(6) -0.006(7) 0.008(3)
O47 0.064(9) 0.032(7) 0.053(7) -0.005(6) 0.016(6) 0.011(6)
O48 0.074(9) 0.033(7) 0.052(7) 0.000(6) -0.011(6) 0.013(7)
O49 0.091(6) 0.058(5) 0.062(7) 0.016(8) -0.007(8) 0.031(5)
O50 0.031(6) 0.042(7) 0.035(6) -0.001(5) -0.007(5) 0.004(5)
O51 0.085(10) 0.030(7) 0.067(8) -0.004(6) -0.008(7) -0.002(7)
O52 0.039(8) 0.065(8) 0.066(8) -0.019(7) -0.011(6) 0.004(7)
O53 0.047(4) 0.037(4) 0.038(4) -0.008(7) -0.012(7) 0.006(4)
O54 0.077(10) 0.055(8) 0.054(8) -0.002(6) 0.002(7) -0.002(7)
O55 0.040(7) 0.036(7) 0.051(7) -0.009(6) 0.025(6) -0.006(6)
O56 0.082(10) 0.049(8) 0.065(8) 0.016(7) -0.004(7) 0.004(8)
N1 0.044(8) 0.034(8) 0.028(7) 0.007(6) -0.005(6) -0.008(6)
N2 0.043(8) 0.029(7) 0.033(7) 0.005(5) 0.010(6) -0.004(6)
N3 0.042(9) 0.043(8) 0.042(8) -0.004(6) 0.005(7) -0.016(7)
N4 0.034(8) 0.032(7) 0.031(7) -0.001(6) -0.011(6) 0.002(6)
N5 0.035(3) 0.035(3) 0.035(3) 0.0005(10) -0.0001(10) 0.0000(10)
N6 0.083(12) 0.041(9) 0.032(7) 0.011(6) 0.003(8) 0.008(8)
N7 0.028(6) 0.027(6) 0.030(6) 0.005(5) 0.006(5) -0.019(5)
N8 0.027(7) 0.031(7) 0.043(7) 0.012(6) -0.008(6) 0.003(6)
N9 0.023(3) 0.022(3) 0.023(3) -0.0001(10) -0.0001(10) 0.0000(10)
N10 0.052(9) 0.033(8) 0.033(8) -0.017(6) 0.015(7) -0.020(7)
N11 0.032(8) 0.038(8) 0.038(7) 0.006(6) 0.012(6) -0.015(7)
N12 0.029(7) 0.032(7) 0.015(6) 0.001(5) 0.000(5) -0.004(6)
C1 0.019(8) 0.057(10) 0.030(8) 0.028(7) 0.000(7) 0.008(8)
C2 0.058(11) 0.047(10) 0.033(8) 0.006(7) -0.008(8) 0.016(8)
C3 0.050(4) 0.049(4) 0.050(4) 0.0003(10) 0.0003(10) -0.0006(10)
C4 0.046(11) 0.055(12) 0.045(9) -0.012(8) 0.006(8) 0.027(9)
C5 0.032(4) 0.032(4) 0.032(4) 0.0000(10) -0.0005(10) -0.0005(10)
C6 0.043(10) 0.030(9) 0.043(9) 0.014(7) -0.027(8) 0.008(8)
C7 0.038(9) 0.028(8) 0.038(8) 0.016(7) -0.002(7) -0.002(7)
C8 0.059(13) 0.092(16) 0.032(9) 0.012(9) -0.013(9) 0.003(11)
C9 0.035(11) 0.068(13) 0.036(9) 0.003(9) -0.024(8) -0.026(9)
C10 0.057(13) 0.039(10) 0.059(12) 0.011(9) -0.042(10) 0.001(10)
C11 0.021(8) 0.063(11) 0.050(10) 0.015(9) -0.018(7) -0.016(8)
C12 0.037(10) 0.080(14) 0.072(13) 0.007(11) -0.003(9) 0.006(10)
C13 0.030(9) 0.057(11) 0.027(8) 0.008(7) -0.001(7) 0.002(8)
C14 0.089(15) 0.053(11) 0.037(9) 0.010(8) -0.015(10) -0.007(11)
C15 0.041(4) 0.041(4) 0.041(4) 0.0003(10) -0.0005(10) 0.0002(10)
C16 0.051(11) 0.019(8) 0.091(14) 0.008(9) 0.003(10) 0.014(8)
C17 0.035(4) 0.035(4) 0.035(4) 0.0000(10) -0.0002(10) 0.0002(10)
C18 0.057(10) 0.025(8) 0.037(8) 0.007(6) -0.006(7) 0.002(7)
C19 0.046(11) 0.040(11) 0.061(12) -0.020(9) 0.008(9) -0.003(10)
C20 0.054(5) 0.053(5) 0.054(5) -0.0001(10) 0.0003(10) 0.0001(10)
C21 0.088(14) 0.058(12) 0.029(8) -0.025(8) 0.014(8) -0.012(10)
C22 0.041(4) 0.041(4) 0.041(4) -0.0003(10) -0.0002(10) -0.0004(10)
C23 0.078(15) 0.060(14) 0.063(13) 0.001(11) 0.003(11) 0.011(11)
C24 0.085(16) 0.104(19) 0.073(14) -0.002(13) 0.015(12) -0.034(15)
C25 0.041(4) 0.042(4) 0.041(4) -0.0004(10) 0.0002(10) 0.0001(10)
C26 0.077(16) 0.047(13) 0.101(17) -0.032(12) 0.029(13) -0.028(12)
C27 0.051(13) 0.12(2) 0.039(11) 0.011(12) 0.003(9) 0.025(14)
C28 0.061(10) 0.018(8) 0.037(8) -0.008(6) -0.027(7) 0.003(7)
C29 0.041(10) 0.043(10) 0.056(11) -0.001(8) -0.035(9) -0.017(8)
C30 0.033(9) 0.030(9) 0.050(10) 0.000(8) -0.002(8) -0.010(7)
C31 0.037(10) 0.045(11) 0.043(9) 0.004(8) -0.010(8) -0.009(8)
C32 0.027(9) 0.012(7) 0.032(8) 0.006(6) -0.009(7) -0.005(7)
C33 0.087(16) 0.076(15) 0.031(10) 0.001(9) 0.009(10) -0.024(13)
C34 0.037(10) 0.029(9) 0.045(9) 0.003(7) 0.005(8) -0.002(8)
C35 0.030(9) 0.032(8) 0.037(8) -0.004(7) 0.013(7) 0.004(7)
C36 0.032(4) 0.033(4) 0.033(4) 0.0006(10) 0.0005(10) -0.0005(10)
C37 0.028(9) 0.058(11) 0.013(7) 0.010(7) -0.007(6) -0.003(8)
C38 0.017(7) 0.037(8) 0.027(7) -0.005(6) 0.000(6) -0.006(6)
C39 0.045(10) 0.023(8) 0.058(10) -0.016(7) 0.004(8) -0.017(7)
C40 0.042(9) 0.034(8) 0.041(8) -0.011(7) 0.003(7) -0.005(7)
C41 0.036(4) 0.035(4) 0.036(4) -0.0004(10) -0.0003(10) -0.0004(10)
C42 0.032(10) 0.102(16) 0.059(12) 0.020(11) -0.033(9) 0.004(11)
C43 0.044(10) 0.032(8) 0.032(8) 0.006(7) -0.005(7) -0.017(7)
C44 0.033(9) 0.027(8) 0.032(8) -0.002(6) 0.007(7) -0.019(7)
C45 0.032(8) 0.045(9) 0.029(8) 0.001(6) -0.001(6) -0.010(7)
C46 0.041(4) 0.041(4) 0.041(4) 0.0003(10) 0.0000(10) -0.0002(10)
C47 0.044(5) 0.044(5) 0.044(4) 0.0005(10) -0.0004(10) -0.0001(10)
C48 0.053(13) 0.029(10) 0.083(14) -0.021(10) -0.020(11) 0.003(10)
C49 0.033(4) 0.032(4) 0.033(4) -0.0002(10) 0.0000(10) -0.0004(10)
C50 0.050(10) 0.016(7) 0.051(10) -0.005(7) -0.004(8) -0.020(7)
C51 0.030(9) 0.047(11) 0.062(11) -0.006(9) 0.030(8) 0.000(8)
C52 0.065(12) 0.055(11) 0.047(10) 0.014(8) 0.027(9) 0.008(10)
C53 0.044(4) 0.044(4) 0.044(4) -0.0004(10) 0.0003(10) -0.0001(10)
C54 0.037(10) 0.048(10) 0.047(10) -0.017(8) -0.005(8) -0.012(8)
C55 0.041(12) 0.092(16) 0.044(11) 0.033(11) -0.023(9) -0.002(11)
C56 0.054(12) 0.056(12) 0.055(11) -0.020(10) 0.003(9) -0.037(10)
C57 0.099(17) 0.042(12) 0.068(14) -0.004(10) -0.015(12) -0.026(12)
C58 0.056(11) 0.048(11) 0.037(10) 0.000(8) 0.018(8) 0.015(9)
C59 0.035(4) 0.035(4) 0.035(4) 0.0004(10) 0.0003(10) -0.0002(10)
C60 0.025(9) 0.022(8) 0.046(9) 0.017(7) 0.020(7) -0.001(7)
C61 0.038(11) 0.067(14) 0.036(9) 0.013(9) -0.006(8) -0.005(10)
C62 0.058(12) 0.055(12) 0.079(14) 0.000(10) 0.011(10) -0.019(10)
C63 0.042(10) 0.107(18) 0.046(10) 0.020(11) 0.008(8) 0.017(11)
C64 0.091(14) 0.048(11) 0.039(10) 0.028(8) -0.035(10) -0.024(10)
C66 0.026(13) 0.084(19) 0.052(15) 0.014(13) 0.000 0.000
C67 0.049(18) 0.20(4) 0.21(4) 0.11(4) 0.000 0.000
O1W 0.046(12) 0.105(16) 0.066(12) -0.032(11) 0.000 0.000
O2W 0.083(10) 0.123(13) 0.066(9) 0.014(9) 0.000(8) 0.034(10)
O3W 0.050(5) 0.122(9) 0.092(10) 0.002(10) -0.008(8) -0.043(6)
O4W 0.27(2) 0.120(16) 0.23(2) 0.048(16) -0.14(2) -0.097(17)
O5W 0.22(2) 0.140(16) 0.135(15) -0.079(13) -0.105(15) 0.116(16)
O6W 0.115(12) 0.059(9) 0.172(14) -0.051(10) 0.065(11) -0.021(9)
O7W 0.034(11) 0.076(15) 0.49(5) -0.04(2) 0.000 0.000

_geom_special_details            
; 
 All esds (except the esd in the dihedral angle between two l.s. planes) 
 are estimated using the full covariance matrix.  The cell esds are taken 
 into account individually in the estimation of esds in distances, angles 
 and torsion angles; correlations between esds in cell parameters are only 
 used when they are defined by crystal symmetry.  An approximate (isotropic) 
 treatment of cell esds is used for estimating esds involving l.s. planes. 
;

loop_
_geom_bond_atom_site_label_1
_geom_bond_atom_site_label_2
_geom_bond_distance
_geom_bond_site_symmetry_2
_geom_bond_publ_flag
W1 O42 1.683(11) . ?
W1 O53 1.866(13) . ?
W1 O38 1.893(11) . ?
W1 O55 1.907(11) . ?
W1 O21 1.927(12) . ?
W1 O31 2.347(12) . ?
W2 O56 1.709(13) . ?
W2 O39 1.859(14) . ?
W2 O29 1.888(12) . ?
W2 O38 1.923(11) . ?
W2 O48 1.955(11) . ?
W2 O31 2.384(11) . ?
W3 O44 1.683(14) . ?
W3 O48 1.865(11) . ?
W3 O26 1.886(11) . ?
W3 O20 1.902(11) . ?
W3 O21 1.914(12) . ?
W3 O31 2.300(11) . ?
W4 O52 1.716(11) . ?
W4 O19 1.885(11) . ?
W4 O35 1.915(10) . ?
W4 O20 1.924(11) . ?
W4 O23 1.943(13) . ?
W4 O24 2.348(11) . ?
W5 O47 1.707(11) . ?
W5 O35 1.875(10) . ?
W5 O46 1.881(12) . ?
W5 O26 1.902(11) . ?
W5 O50 1.918(10) . ?
W5 O18 2.321(9) . ?
W6 O37 1.688(11) . ?
W6 O32 1.910(13) . ?
W6 O25 1.913(13) . ?
W6 O30 1.922(13) . ?
W6 O40 1.947(12) . ?
W6 O28 2.365(10) . ?
W7 O41 1.692(7) . ?
W7 O45 1.895(11) . ?
W7 O17 1.909(13) . ?
W7 O50 1.911(10) . ?
W7 O55 1.926(11) . ?
W7 O18 2.352(6) . ?
W8 O33 1.715(12) . ?
W8 O25 1.876(12) . ?
W8 O34 1.879(11) . ?
W8 O23 1.900(12) . ?
W8 O27 1.943(12) . ?
W8 O24 2.310(10) . ?
W9 O54 1.699(14) . ?
W9 O45 1.900(11) . ?
W9 O36 1.922(12) . ?
W9 O53 1.925(13) . ?
W9 O32 1.949(12) . ?
W9 O28 2.363(10) . ?
W10 O49 1.701(8) . ?
W10 O22 1.877(12) . ?
W10 O19 1.925(10) . ?
W10 O29 1.929(11) . ?
W10 O27 1.953(12) . ?
W10 O24 2.378(6) . ?
W11 O51 1.722(12) . ?
W11 O22 1.908(12) . ?
W11 O30 1.911(12) . ?
W11 O36 1.939(14) . ?
W11 O39 1.956(14) . ?
W11 O28 2.347(10) . ?
W12 O43 1.709(12) . ?
W12 O40 1.892(12) . ?
W12 O34 1.935(11) . ?
W12 O46 1.954(12) . ?
W12 O17 1.955(14) . ?
W12 O18 2.383(10) . ?
Gd1 O14 2.376(7) . ?
Gd1 O15 2.384(8) . ?
Gd1 O5 2.385(14) . ?
Gd1 O13 2.414(9) . ?
Gd1 O4 2.421(11) . ?
Gd1 O3W 2.467(8) . ?
Gd1 O6W 2.484(15) . ?
Gd1 O4W 2.58(2) . ?
Gd1 Gd1 3.8098(12) 4 ?
Gd1 Gd3 3.8880(13) . ?
Gd1 Gd2 3.9381(13) . ?
Gd2 O3 2.343(11) . ?
Gd2 O3 2.343(11) 4 ?
Gd2 O14 2.396(9) 4 ?
Gd2 O14 2.396(9) . ?
Gd2 O9 2.437(17) . ?
Gd2 O2W 2.504(14) . ?
Gd2 O2W 2.504(14) 4 ?
Gd2 O15 2.533(15) . ?
Gd2 O16 2.59(3) . ?
Gd2 Gd3 3.7027(12) . ?
Gd2 Gd1 3.9381(13) 4 ?
Gd3 O6 2.355(13) . ?
Gd3 O6 2.355(13) 4 ?
Gd3 O14 2.390(9) . ?
Gd3 O14 2.390(9) 4 ?
Gd3 O13 2.400(15) . ?
Gd3 O1W 2.453(17) . ?
Gd3 O5W 2.488(17) 4 ?
Gd3 O5W 2.488(17) . ?
Gd3 O16 2.63(3) . ?
Gd3 Gd1 3.8880(13) 4 ?
Gd4 O7 2.305(16) 3_565 ?
Gd4 O7 2.305(16) 2_565 ?
Gd4 O10 2.334(19) . ?
Gd4 O1 2.340(11) . ?
Gd4 O1 2.340(11) 4 ?
Gd4 O12 2.474(10) . ?
Gd4 O12 2.474(10) 4 ?
Gd4 O7W 2.61(3) . ?
Gd4 C66 2.80(3) . ?
Ru1 N5 2.013(13) . ?
Ru1 N6 2.033(15) . ?
Ru1 N3 2.035(14) . ?
Ru1 N4 2.068(13) . ?
Ru1 N2 2.087(13) . ?
Ru1 N1 2.098(13) . ?
Ru2 N11 2.031(13) . ?
Ru2 N10 2.038(13) . ?
Ru2 N9 2.042(12) . ?
Ru2 N7 2.072(12) . ?
Ru2 N12 2.073(11) . ?
Ru2 N8 2.086(13) . ?
Si1 O28 1.603(11) . ?
Si1 O18 1.609(6) . ?
Si1 O24 1.619(6) . ?
Si1 O31 1.633(12) . ?
O1 C1 1.147(16) . ?
O2 C1 1.280(17) . ?
O3 C10 1.22(2) . ?
O4 C10 1.27(2) . ?
O5 C33 1.20(2) . ?
O6 C33 1.31(2) . ?
O7 C42 1.224(19) . ?
O7 Gd4 2.305(16) 2_564 ?
O8 C42 1.32(2) . ?
O9 C65 1.28(3) . ?
O10 C65 1.20(3) . ?
O12 C66 1.240(14) . ?
O13 Gd1 2.414(9) 4 ?
O15 Gd1 2.384(8) 4 ?
N1 C13 1.351(18) . ?
N1 C17 1.399(19) . ?
N2 C22 1.238(19) . ?
N2 C18 1.426(19) . ?
N3 C23 1.24(2) . ?
N3 C27 1.40(3) . ?
N4 C32 1.345(18) . ?
N4 C28 1.362(18) . ?
N5 C6 1.319(19) . ?
N5 C7 1.397(17) . ?
N6 C5 1.427(19) . ?
N6 C4 1.46(2) . ?
N7 C36 1.309(18) . ?
N7 C37 1.405(18) . ?
N8 C38 1.349(17) . ?
N8 C39 1.366(18) . ?
N9 C49 1.298(18) . ?
N9 C45 1.453(18) . ?
N10 C54 1.29(2) . ?
N10 C50 1.329(19) . ?
N11 C59 1.365(19) . ?
N11 C55 1.386(19) . ?
N12 C60 1.306(18) . ?
N12 C64 1.358(18) . ?
C1 C2 1.54(2) . ?
C2 C12 1.34(2) . ?
C2 C3 1.36(2) . ?
C3 C4 1.41(2) . ?
C5 C12 1.37(2) . ?
C5 C6 1.42(2) . ?
C6 C11 1.476(19) . ?
C7 C8 1.41(2) . ?
C8 C9 1.40(2) . ?
C9 C11 1.26(2) . ?
C9 C10 1.52(2) . ?
C13 C14 1.32(2) . ?
C14 C15 1.38(2) . ?
C15 C16 1.37(2) . ?
C16 C17 1.38(2) . ?
C17 C18 1.43(2) . ?
C18 C19 1.33(2) . ?
C19 C20 1.37(2) . ?
C20 C21 1.36(2) . ?
C21 C22 1.42(2) . ?
C23 C24 1.45(3) . ?
C24 C25 1.34(3) . ?
C25 C26 1.43(2) . ?
C26 C27 1.43(3) . ?
C27 C28 1.52(2) . ?
C28 C29 1.44(2) . ?
C29 C30 1.39(2) . ?
C30 C31 1.39(2) . ?
C31 C32 1.33(2) . ?
C33 C34 1.44(2) . ?
C34 C35 1.34(2) . ?
C34 C44 1.47(2) . ?
C35 C36 1.328(19) . ?
C37 C44 1.309(19) . ?
C37 C38 1.455(19) . ?
C38 C43 1.399(17) . ?
C39 C40 1.436(18) . ?
C40 C41 1.393(18) . ?
C41 C42 1.358(9) . ?
C41 C43 1.436(19) . ?
C45 C46 1.31(2) . ?
C46 C47 1.34(2) . ?
C47 C48 1.45(3) . ?
C48 C49 1.45(2) . ?
C49 C50 1.47(2) . ?
C50 C51 1.41(2) . ?
C51 C52 1.37(2) . ?
C52 C53 1.42(2) . ?
C53 C54 1.41(2) . ?
C55 C56 1.39(2) . ?
C56 C57 1.39(3) . ?
C57 C58 1.32(2) . ?
C58 C59 1.39(2) . ?
C59 C60 1.45(2) . ?
C60 C61 1.38(2) . ?
C61 C62 1.26(2) . ?
C62 C63 1.52(3) . ?
C63 C64 1.39(2) . ?
C66 O12 1.240(14) 4 ?
C66 C67 1.32(3) . ?

loop_
_geom_angle_atom_site_label_1
_geom_angle_atom_site_label_2
_geom_angle_atom_site_label_3
_geom_angle
_geom_angle_site_symmetry_1
_geom_angle_site_symmetry_3
_geom_angle_publ_flag
O42 W1 O53 103.1(4) . . ?
O42 W1 O38 100.3(5) . . ?
O53 W1 O38 90.1(4) . . ?
O42 W1 O55 101.9(5) . . ?
O53 W1 O55 86.4(4) . . ?
O38 W1 O55 157.7(5) . . ?
O42 W1 O21 98.9(5) . . ?
O53 W1 O21 157.9(4) . . ?
O38 W1 O21 88.6(5) . . ?
O55 W1 O21 86.5(5) . . ?
O42 W1 O31 169.2(5) . . ?
O53 W1 O31 86.2(3) . . ?
O38 W1 O31 73.8(4) . . ?
O55 W1 O31 84.1(4) . . ?
O21 W1 O31 72.3(4) . . ?
O56 W2 O39 102.4(5) . . ?
O56 W2 O29 100.4(6) . . ?
O39 W2 O29 87.5(4) . . ?
O56 W2 O38 102.0(6) . . ?
O39 W2 O38 87.7(4) . . ?
O29 W2 O38 157.6(5) . . ?
O56 W2 O48 100.7(5) . . ?
O39 W2 O48 156.9(4) . . ?
O29 W2 O48 88.3(5) . . ?
O38 W2 O48 87.6(5) . . ?
O56 W2 O31 169.7(5) . . ?
O39 W2 O31 86.3(3) . . ?
O29 W2 O31 85.4(4) . . ?
O38 W2 O31 72.4(4) . . ?
O48 W2 O31 70.8(4) . . ?
O44 W3 O48 98.7(5) . . ?
O44 W3 O26 103.4(5) . . ?
O48 W3 O26 157.6(5) . . ?
O44 W3 O20 100.2(6) . . ?
O48 W3 O20 87.2(5) . . ?
O26 W3 O20 85.2(5) . . ?
O44 W3 O21 100.8(6) . . ?
O48 W3 O21 88.6(5) . . ?
O26 W3 O21 91.1(5) . . ?
O20 W3 O21 159.0(5) . . ?
O44 W3 O31 170.8(5) . . ?
O48 W3 O31 74.2(4) . . ?
O26 W3 O31 84.2(4) . . ?
O20 W3 O31 85.5(4) . . ?
O21 W3 O31 73.6(5) . . ?
O52 W4 O19 99.6(5) . . ?
O52 W4 O35 103.7(5) . . ?
O19 W4 O35 156.5(5) . . ?
O52 W4 O20 99.0(5) . . ?
O19 W4 O20 88.6(5) . . ?
O35 W4 O20 84.5(4) . . ?
O52 W4 O23 102.7(5) . . ?
O19 W4 O23 88.8(4) . . ?
O35 W4 O23 89.3(4) . . ?
O20 W4 O23 158.4(4) . . ?
O52 W4 O24 171.5(4) . . ?
O19 W4 O24 73.8(3) . . ?
O35 W4 O24 83.4(4) . . ?
O20 W4 O24 86.4(4) . . ?
O23 W4 O24 72.2(4) . . ?
O47 W5 O35 101.6(5) . . ?
O47 W5 O46 99.1(5) . . ?
O35 W5 O46 90.6(4) . . ?
O47 W5 O26 102.5(5) . . ?
O35 W5 O26 83.2(5) . . ?
O46 W5 O26 158.3(4) . . ?
O47 W5 O50 101.2(5) . . ?
O35 W5 O50 157.0(5) . . ?
O46 W5 O50 88.4(4) . . ?
O26 W5 O50 89.3(5) . . ?
O47 W5 O18 172.2(4) . . ?
O35 W5 O18 84.1(4) . . ?
O46 W5 O18 75.2(4) . . ?
O26 W5 O18 83.5(4) . . ?
O50 W5 O18 73.5(3) . . ?
O37 W6 O32 99.4(5) . . ?
O37 W6 O25 103.5(5) . . ?
O32 W6 O25 156.8(4) . . ?
O37 W6 O30 101.3(5) . . ?
O32 W6 O30 88.4(5) . . ?
O25 W6 O30 90.7(5) . . ?
O37 W6 O40 99.2(5) . . ?
O32 W6 O40 87.3(5) . . ?
O25 W6 O40 85.5(5) . . ?
O30 W6 O40 159.4(4) . . ?
O37 W6 O28 171.6(5) . . ?
O32 W6 O28 74.5(4) . . ?
O25 W6 O28 83.0(4) . . ?
O30 W6 O28 73.0(4) . . ?
O40 W6 O28 86.5(4) . . ?
O41 W7 O45 104.1(5) . . ?
O41 W7 O17 99.9(5) . . ?
O45 W7 O17 88.2(5) . . ?
O41 W7 O50 98.6(5) . . ?
O45 W7 O50 157.3(5) . . ?
O17 W7 O50 88.2(3) . . ?
O41 W7 O55 100.2(5) . . ?
O45 W7 O55 86.2(3) . . ?
O17 W7 O55 159.9(5) . . ?
O50 W7 O55 89.6(5) . . ?
O41 W7 O18 169.9(3) . . ?
O45 W7 O18 84.6(4) . . ?
O17 W7 O18 74.8(4) . . ?
O50 W7 O18 72.9(4) . . ?
O55 W7 O18 85.5(4) . . ?
O33 W8 O25 105.5(5) . . ?
O33 W8 O34 100.6(5) . . ?
O25 W8 O34 85.3(5) . . ?
O33 W8 O23 97.3(5) . . ?
O25 W8 O23 157.2(4) . . ?
O34 W8 O23 89.3(4) . . ?
O33 W8 O27 98.5(6) . . ?
O25 W8 O27 91.2(5) . . ?
O34 W8 O27 160.9(5) . . ?
O23 W8 O27 86.7(4) . . ?
O33 W8 O24 169.5(5) . . ?
O25 W8 O24 83.6(4) . . ?
O34 W8 O24 85.1(3) . . ?
O23 W8 O24 73.9(4) . . ?
O27 W8 O24 75.8(4) . . ?
O54 W9 O45 101.1(5) . . ?
O54 W9 O36 101.6(6) . . ?
O45 W9 O36 157.2(5) . . ?
O54 W9 O53 103.1(5) . . ?
O45 W9 O53 83.9(4) . . ?
O36 W9 O53 89.6(4) . . ?
O54 W9 O32 99.0(5) . . ?
O45 W9 O32 88.1(5) . . ?
O36 W9 O32 89.8(5) . . ?
O53 W9 O32 157.5(4) . . ?
O54 W9 O28 171.5(5) . . ?
O45 W9 O28 83.6(4) . . ?
O36 W9 O28 74.0(5) . . ?
O53 W9 O28 84.4(3) . . ?
O32 W9 O28 73.9(4) . . ?
O49 W10 O22 101.3(5) . . ?
O49 W10 O19 102.3(5) . . ?
O22 W10 O19 156.2(5) . . ?
O49 W10 O29 102.1(5) . . ?
O22 W10 O29 85.9(3) . . ?
O19 W10 O29 86.0(5) . . ?
O49 W10 O27 98.7(5) . . ?
O22 W10 O27 92.2(5) . . ?
O19 W10 O27 87.5(3) . . ?
O29 W10 O27 159.1(5) . . ?
O49 W10 O24 171.0(4) . . ?
O22 W10 O24 84.6(4) . . ?
O19 W10 O24 72.4(4) . . ?
O29 W10 O24 85.1(4) . . ?
O27 W10 O24 74.0(4) . . ?
O51 W11 O22 101.8(6) . . ?
O51 W11 O30 100.9(5) . . ?
O22 W11 O30 91.1(5) . . ?
O51 W11 O36 99.9(6) . . ?
O22 W11 O36 158.1(5) . . ?
O30 W11 O36 86.8(5) . . ?
O51 W11 O39 100.9(5) . . ?
O22 W11 O39 84.4(4) . . ?
O30 W11 O39 158.2(4) . . ?
O36 W11 O39 89.5(4) . . ?
O51 W11 O28 171.9(5) . . ?
O22 W11 O28 84.4(4) . . ?
O30 W11 O28 73.6(4) . . ?
O36 W11 O28 74.1(4) . . ?
O39 W11 O28 84.8(3) . . ?
O43 W12 O40 99.8(5) . . ?
O43 W12 O34 101.5(5) . . ?
O40 W12 O34 87.0(5) . . ?
O43 W12 O46 100.6(5) . . ?
O40 W12 O46 159.6(4) . . ?
O34 W12 O46 88.5(4) . . ?
O43 W12 O17 101.1(5) . . ?
O40 W12 O17 88.0(5) . . ?
O34 W12 O17 157.5(5) . . ?
O46 W12 O17 88.6(4) . . ?
O43 W12 O18 171.0(5) . . ?
O40 W12 O18 87.3(4) . . ?
O34 W12 O18 84.5(3) . . ?
O46 W12 O18 72.5(3) . . ?
O17 W12 O18 73.3(4) . . ?
O14 Gd1 O15 70.2(4) . . ?
O14 Gd1 O5 78.7(4) . . ?
O15 Gd1 O5 140.5(4) . . ?
O14 Gd1 O13 69.1(4) . . ?
O15 Gd1 O13 70.6(3) . . ?
O5 Gd1 O13 76.0(4) . . ?
O14 Gd1 O4 77.1(4) . . ?
O15 Gd1 O4 83.5(4) . . ?
O5 Gd1 O4 112.9(4) . . ?
O13 Gd1 O4 142.6(5) . . ?
O14 Gd1 O3W 127.2(3) . . ?
O15 Gd1 O3W 143.2(5) . . ?
O5 Gd1 O3W 75.6(4) . . ?
O13 Gd1 O3W 142.7(5) . . ?
O4 Gd1 O3W 72.0(4) . . ?
O14 Gd1 O6W 136.5(5) . . ?
O15 Gd1 O6W 71.8(5) . . ?
O5 Gd1 O6W 144.4(5) . . ?
O13 Gd1 O6W 116.2(5) . . ?
O4 Gd1 O6W 78.5(6) . . ?
O3W Gd1 O6W 76.7(5) . . ?
O14 Gd1 O4W 141.1(5) . . ?
O15 Gd1 O4W 105.2(7) . . ?
O5 Gd1 O4W 84.1(7) . . ?
O13 Gd1 O4W 73.0(6) . . ?
O4 Gd1 O4W 141.8(5) . . ?
O3W Gd1 O4W 80.4(6) . . ?
O6W Gd1 O4W 69.6(5) . . ?
O14 Gd1 Gd1 78.04(14) . 4 ?
O15 Gd1 Gd1 37.0(2) . 4 ?
O5 Gd1 Gd1 113.9(3) . 4 ?
O13 Gd1 Gd1 37.9(3) . 4 ?
O4 Gd1 Gd1 120.4(3) . 4 ?
O3W Gd1 Gd1 154.7(3) . 4 ?
O6W Gd1 Gd1 84.2(4) . 4 ?
O4W Gd1 Gd1 77.5(5) . 4 ?
O14 Gd1 Gd3 35.4(2) . . ?
O15 Gd1 Gd3 75.7(3) . . ?
O5 Gd1 Gd3 64.9(3) . . ?
O13 Gd1 Gd3 36.0(4) . . ?
O4 Gd1 Gd3 112.5(3) . . ?
O3W Gd1 Gd3 138.8(3) . . ?
O6W Gd1 Gd3 144.2(4) . . ?
O4W Gd1 Gd3 105.7(4) . . ?
Gd1 Gd1 Gd3 60.663(13) 4 . ?
O14 Gd1 Gd2 34.5(2) . . ?
O15 Gd1 Gd2 38.1(3) . . ?
O5 Gd1 Gd2 113.0(3) . . ?
O13 Gd1 Gd2 75.2(3) . . ?
O4 Gd1 Gd2 67.9(3) . . ?
O3W Gd1 Gd2 139.1(3) . . ?
O6W Gd1 Gd2 102.5(4) . . ?
O4W Gd1 Gd2 138.6(5) . . ?
Gd1 Gd1 Gd2 61.072(13) 4 . ?
Gd3 Gd1 Gd2 56.47(2) . . ?
O3 Gd2 O3 92.6(7) . 4 ?
O3 Gd2 O14 140.4(3) . 4 ?
O3 Gd2 O14 85.2(4) 4 4 ?
O3 Gd2 O14 85.2(4) . . ?
O3 Gd2 O14 140.4(3) 4 . ?
O14 Gd2 O14 72.3(4) 4 . ?
O3 Gd2 O9 72.6(5) . . ?
O3 Gd2 O9 72.6(5) 4 . ?
O14 Gd2 O9 142.1(2) 4 . ?
O14 Gd2 O9 142.1(2) . . ?
O3 Gd2 O2W 73.0(5) . . ?
O3 Gd2 O2W 141.3(4) 4 . ?
O14 Gd2 O2W 128.6(4) 4 . ?
O14 Gd2 O2W 75.5(4) . . ?
O9 Gd2 O2W 68.9(5) . . ?
O3 Gd2 O2W 141.3(4) . 4 ?
O3 Gd2 O2W 73.0(5) 4 4 ?
O14 Gd2 O2W 75.5(4) 4 4 ?
O14 Gd2 O2W 128.6(4) . 4 ?
O9 Gd2 O2W 68.9(5) . 4 ?
O2W Gd2 O2W 95.7(8) . 4 ?
O3 Gd2 O15 74.0(4) . . ?
O3 Gd2 O15 74.0(4) 4 . ?
O14 Gd2 O15 67.3(3) 4 . ?
O14 Gd2 O15 67.3(3) . . ?
O9 Gd2 O15 130.9(6) . . ?
O2W Gd2 O15 131.6(4) . . ?
O2W Gd2 O15 131.6(4) 4 . ?
O3 Gd2 O16 132.9(4) . . ?
O3 Gd2 O16 132.9(4) 4 . ?
O14 Gd2 O16 67.6(5) 4 . ?
O14 Gd2 O16 67.6(5) . . ?
O9 Gd2 O16 105.8(8) . . ?
O2W Gd2 O16 63.5(5) . . ?
O2W Gd2 O16 63.5(5) 4 . ?
O15 Gd2 O16 123.4(7) . . ?
O3 Gd2 Gd3 124.2(3) . . ?
O3 Gd2 Gd3 124.2(3) 4 . ?
O14 Gd2 Gd3 39.3(2) 4 . ?
O14 Gd2 Gd3 39.3(2) . . ?
O9 Gd2 Gd3 151.1(6) . . ?
O2W Gd2 Gd3 92.4(3) . . ?
O2W Gd2 Gd3 92.4(3) 4 . ?
O15 Gd2 Gd3 78.0(3) . . ?
O16 Gd2 Gd3 45.3(6) . . ?
O3 Gd2 Gd1 68.3(3) . . ?
O3 Gd2 Gd1 109.2(3) 4 . ?
O14 Gd2 Gd1 75.14(16) 4 . ?
O14 Gd2 Gd1 34.21(1