####################################################################### 
# 
# This file contains crystal structure data downloaded from the 
# Cambridge Structural Database (CSD) hosted by the Cambridge 
# Crystallographic Data Centre (CCDC).
# 
# Full information about CCDC data access policies and citation 
# guidelines are available at http://www.ccdc.cam.ac.uk/access/V1 
# 
# Audit and citation data items may have been added by the CCDC. 
# Please retain this information to preserve the provenance of 
# this file and to allow appropriate attribution of the data. 
# 
#######################################################################

data_s1008
_audit_block_doi                 10.5517/cc10kzvd
_database_code_depnum_ccdc_archive 'CCDC 940814'
_audit_update_record             
;
2013-05-23 deposited with the CCDC.	2024-07-13 downloaded from the CCDC.
;

_audit_creation_method           SHELXL-97
_chemical_name_systematic        
; 
catena-(bis(\m~2~-bis(2-aminophenyl)amine)-dibromo-manganese(II) 
bis-tetrahydrofuran solvate 
;
_chemical_name_common            ?
_chemical_melting_point          ?
_chemical_formula_moiety         'C24 H26 Br2 Mn N6, 2(C4 H8 O)'
_chemical_formula_sum            'C32 H42 Br2 Mn N6 O2'
_chemical_formula_weight         757.46

loop_
_atom_type_symbol
_atom_type_description
_atom_type_scat_dispersion_real
_atom_type_scat_dispersion_imag
_atom_type_scat_source
C C 0.0033 0.0016 'International Tables Vol C Tables 4.2.6.8 and 6.1.1.4'
H H 0.0000 0.0000 'International Tables Vol C Tables 4.2.6.8 and 6.1.1.4'
N N 0.0061 0.0033 'International Tables Vol C Tables 4.2.6.8 and 6.1.1.4'
Mn Mn 0.3368 0.7283 'International Tables Vol C Tables 4.2.6.8 and 6.1.1.4'
Br Br -0.2901 2.4595 'International Tables Vol C Tables 4.2.6.8 and 6.1.1.4'
O O 0.0106 0.0060 'International Tables Vol C Tables 4.2.6.8 and 6.1.1.4'

_symmetry_cell_setting           monoclinic
_symmetry_space_group_name_H-M   'P 2(1)/n'

loop_
_symmetry_equiv_pos_as_xyz
'x, y, z'
'-x+1/2, y+1/2, -z+1/2'
'-x, -y, -z'
'x-1/2, -y-1/2, z-1/2'

_cell_length_a                   14.9711(18)
_cell_length_b                   7.2964(9)
_cell_length_c                   15.0080(18)
_cell_angle_alpha                90.00
_cell_angle_beta                 96.940(2)
_cell_angle_gamma                90.00
_cell_volume                     1627.4(3)
_cell_formula_units_Z            2
_cell_measurement_temperature    150(2)
_cell_measurement_reflns_used    5251
_cell_measurement_theta_min      2.73
_cell_measurement_theta_max      27.45

_exptl_crystal_description       prism
_exptl_crystal_colour            colorless
_exptl_crystal_size_max          0.40
_exptl_crystal_size_mid          0.18
_exptl_crystal_size_min          0.16
_exptl_crystal_density_meas      ?
_exptl_crystal_density_diffrn    1.546
_exptl_crystal_density_method    'not measured'
_exptl_crystal_F_000             774
_exptl_absorpt_coefficient_mu    2.900
_exptl_absorpt_correction_type   multi-scan
_exptl_absorpt_process_details   '(SADABS; Sheldrick, 2004)'
_exptl_absorpt_correction_T_min  0.3900
_exptl_absorpt_correction_T_max  0.6540

_exptl_special_details           
; 
 ? 
;

_diffrn_ambient_temperature      150(2)
_diffrn_radiation_wavelength     0.71073
_diffrn_radiation_type           MoK\a
_diffrn_radiation_source         'sealed tube'
_diffrn_radiation_monochromator  graphite
_diffrn_measurement_device_type  'Bruker AXS SMART APEX'
_diffrn_measurement_method       '\f and \w scans'
_diffrn_standards_number         ?
_diffrn_standards_interval_count ?
_diffrn_standards_interval_time  ?
_diffrn_standards_decay_%        ?
_diffrn_reflns_number            17406
_diffrn_reflns_av_R_equivalents  0.0929
_diffrn_reflns_av_sigmaI/netI    0.0571
_diffrn_reflns_limit_h_min       -19
_diffrn_reflns_limit_h_max       19
_diffrn_reflns_limit_k_min       -9
_diffrn_reflns_limit_k_max       9
_diffrn_reflns_limit_l_min       -19
_diffrn_reflns_limit_l_max       19
_diffrn_reflns_theta_min         1.81
_diffrn_reflns_theta_max         27.09
_reflns_number_total             3588
_reflns_number_gt                3058
_reflns_threshold_expression     >2sigma(I)

_computing_data_collection       'SMART (Bruker, 2002)'
_computing_cell_refinement       'SAINT (Bruker, 2002)'
_computing_data_reduction        SAINT
_computing_structure_solution    'SHELXTL (Sheldrick, 2008)'
_computing_structure_refinement  SHELXTL
_computing_molecular_graphics    SHELXTL
_computing_publication_material  'SHELXTL and local programs'

_refine_special_details          
; 
 Refinement of F^2^ against ALL reflections.  The weighted R-factor wR and 
 goodness of fit S are based on F^2^, conventional R-factors R are based 
 on F, with F set to zero for negative F^2^. The threshold expression of 
 F^2^ > 2sigma(F^2^) is used only for calculating R-factors(gt) etc. and is 
 not relevant to the choice of reflections for refinement.  R-factors based 
 on F^2^ are statistically about twice as large as those based on F, and R- 
 factors based on ALL data will be even larger. 
;

_refine_ls_structure_factor_coef Fsqd
_refine_ls_matrix_type           full
_refine_ls_weighting_scheme      calc
_refine_ls_weighting_details     
'calc w=1/[\s^2^(Fo^2^)+(0.0328P)^2^+1.3594P] where P=(Fo^2^+2Fc^2^)/3'
_atom_sites_solution_primary     direct
_atom_sites_solution_secondary   difmap
_atom_sites_solution_hydrogens   difmap
_refine_ls_hydrogen_treatment    mixed
_refine_ls_extinction_method     none
_refine_ls_extinction_coef       ?
_refine_ls_number_reflns         3588
_refine_ls_number_parameters     200
_refine_ls_number_restraints     0
_refine_ls_R_factor_all          0.0444
_refine_ls_R_factor_gt           0.0368
_refine_ls_wR_factor_ref         0.0950
_refine_ls_wR_factor_gt          0.0905
_refine_ls_goodness_of_fit_ref   1.067
_refine_ls_restrained_S_all      1.067
_refine_ls_shift/su_max          0.001
_refine_ls_shift/su_mean         0.000

loop_
_atom_site_label
_atom_site_type_symbol
_atom_site_fract_x
_atom_site_fract_y
_atom_site_fract_z
_atom_site_U_iso_or_equiv
_atom_site_adp_type
_atom_site_occupancy
_atom_site_symmetry_multiplicity
_atom_site_calc_flag
_atom_site_refinement_flags
_atom_site_disorder_assembly
_atom_site_disorder_group
Mn1 Mn 0.5000 0.0000 0.5000 0.02145(14) Uani 1 2 d S . .
Br1 Br 0.530722(18) 0.17181(4) 0.351724(17) 0.02726(10) Uani 1 1 d . . .
N1 N 0.35592(15) 0.1293(3) 0.46543(15) 0.0245(5) Uani 1 1 d . . .
H1A H 0.3618 0.2265 0.4276 0.029 Uiso 1 1 calc R . .
H1B H 0.3209 0.0433 0.4328 0.029 Uiso 1 1 calc R . .
N2 N 0.36349(15) 0.5012(3) 0.51553(15) 0.0220(5) Uani 1 1 d . . .
H2 H 0.389(2) 0.573(5) 0.549(2) 0.033(9) Uiso 1 1 d . . .
N3 N 0.53715(14) 0.2636(3) 0.58534(14) 0.0222(4) Uani 1 1 d . . .
H3B H 0.5145 0.3638 0.5529 0.027 Uiso 1 1 calc R . .
H3C H 0.5089 0.2579 0.6364 0.027 Uiso 1 1 calc R . .
C1 C 0.30556(17) 0.1934(4) 0.53424(18) 0.0223(5) Uani 1 1 d . . .
C2 C 0.25402(18) 0.0704(4) 0.5778(2) 0.0294(6) Uani 1 1 d . . .
H2A H 0.2500 -0.0542 0.5595 0.035 Uiso 1 1 calc R . .
C3 C 0.20872(19) 0.1296(5) 0.6477(2) 0.0343(7) Uani 1 1 d . . .
H3A H 0.1727 0.0460 0.6762 0.041 Uiso 1 1 calc R . .
C4 C 0.2156(2) 0.3099(5) 0.6761(2) 0.0353(7) Uani 1 1 d . . .
H4A H 0.1856 0.3494 0.7250 0.042 Uiso 1 1 calc R . .
C5 C 0.26653(19) 0.4330(4) 0.63286(19) 0.0293(6) Uani 1 1 d . . .
H5A H 0.2708 0.5572 0.6519 0.035 Uiso 1 1 calc R . .
C6 C 0.31139(17) 0.3753(4) 0.56175(17) 0.0215(5) Uani 1 1 d . . .
C7 C 0.31819(17) 0.5966(3) 0.44006(17) 0.0209(5) Uani 1 1 d . . .
C8 C 0.22604(18) 0.5805(4) 0.41428(19) 0.0267(6) Uani 1 1 d . . .
H8A H 0.1911 0.5054 0.4485 0.032 Uiso 1 1 calc R . .
C9 C 0.18398(19) 0.6724(4) 0.3392(2) 0.0304(6) Uani 1 1 d . . .
H9A H 0.1210 0.6600 0.3226 0.037 Uiso 1 1 calc R . .
C10 C 0.2344(2) 0.7819(4) 0.28880(18) 0.0300(6) Uani 1 1 d . . .
H10 H 0.2064 0.8449 0.2375 0.036 Uiso 1 1 calc R . .
C11 C 0.63127(17) 0.2922(4) 0.61141(17) 0.0220(5) Uani 1 1 d . . .
C12 C 0.67350(19) 0.2013(4) 0.68597(18) 0.0257(6) Uani 1 1 d . . .
H12 H 0.6389 0.1261 0.7205 0.031 Uiso 1 1 calc R . .
C101 C 0.4943(6) 0.2308(14) 0.9195(5) 0.141(3) Uani 1 1 d . . .
H10A H 0.5193 0.1176 0.9491 0.169 Uiso 1 1 calc R . .
H10B H 0.4558 0.2931 0.9594 0.169 Uiso 1 1 calc R . .
C102 C 0.5685(5) 0.3563(10) 0.8955(4) 0.108(2) Uani 1 1 d . . .
H10C H 0.5862 0.4453 0.9443 0.129 Uiso 1 1 calc R . .
H10D H 0.6221 0.2852 0.8836 0.129 Uiso 1 1 calc R . .
C103 C 0.4424(4) 0.1895(6) 0.8288(4) 0.0825(18) Uani 1 1 d . . .
H10E H 0.4535 0.0619 0.8105 0.099 Uiso 1 1 calc R . .
H10F H 0.3771 0.2060 0.8307 0.099 Uiso 1 1 calc R . .
C104 C 0.5291(3) 0.4456(6) 0.8175(3) 0.0572(10) Uani 1 1 d . . .
H10G H 0.5762 0.4906 0.7820 0.069 Uiso 1 1 calc R . .
H10H H 0.4927 0.5513 0.8333 0.069 Uiso 1 1 calc R . .
O105 O 0.4744(2) 0.3152(4) 0.76839(19) 0.0654(9) Uani 1 1 d . . .

loop_
_atom_site_aniso_label
_atom_site_aniso_U_11
_atom_site_aniso_U_22
_atom_site_aniso_U_33
_atom_site_aniso_U_23
_atom_site_aniso_U_13
_atom_site_aniso_U_12
Mn1 0.0239(3) 0.0161(3) 0.0243(3) 0.0000(2) 0.0027(2) -0.0018(2)
Br1 0.03513(17) 0.02323(16) 0.02372(15) 0.00021(10) 0.00478(11) -0.00592(11)
N1 0.0276(11) 0.0174(11) 0.0283(11) -0.0048(9) 0.0028(9) -0.0009(9)
N2 0.0236(11) 0.0174(11) 0.0246(11) -0.0001(10) 0.0013(9) -0.0025(9)
N3 0.0243(11) 0.0185(11) 0.0241(11) 0.0008(9) 0.0038(9) -0.0010(9)
C1 0.0206(12) 0.0201(13) 0.0254(13) 0.0011(10) -0.0001(10) 0.0019(10)
C2 0.0284(14) 0.0211(14) 0.0381(15) 0.0059(12) 0.0012(12) -0.0036(11)
C3 0.0271(14) 0.0385(17) 0.0379(16) 0.0177(14) 0.0060(12) -0.0021(13)
C4 0.0316(15) 0.0457(19) 0.0299(15) 0.0040(14) 0.0098(12) 0.0037(13)
C5 0.0362(15) 0.0242(14) 0.0280(14) -0.0005(11) 0.0062(12) 0.0055(12)
C6 0.0222(12) 0.0189(12) 0.0230(12) 0.0030(10) 0.0013(10) 0.0011(10)
C7 0.0269(13) 0.0129(12) 0.0227(12) -0.0027(10) 0.0022(10) 0.0025(10)
C8 0.0281(13) 0.0208(14) 0.0310(14) -0.0018(11) 0.0027(11) -0.0011(11)
C9 0.0263(13) 0.0272(15) 0.0355(15) -0.0031(12) -0.0055(11) 0.0042(11)
C10 0.0404(16) 0.0220(14) 0.0249(13) 0.0000(11) -0.0064(12) 0.0036(12)
C11 0.0265(13) 0.0149(12) 0.0244(12) -0.0027(10) 0.0025(10) 0.0016(10)
C12 0.0352(14) 0.0174(13) 0.0243(13) 0.0009(10) 0.0030(11) 0.0014(11)
C101 0.159(7) 0.174(8) 0.098(5) 0.088(6) 0.048(5) 0.052(6)
C102 0.119(5) 0.102(5) 0.092(4) -0.006(4) -0.032(4) 0.030(4)
C103 0.118(4) 0.041(2) 0.104(4) -0.017(2) 0.077(4) -0.024(3)
C104 0.053(2) 0.053(2) 0.066(2) -0.019(2) 0.0121(19) -0.0157(19)
O105 0.0782(19) 0.069(2) 0.0521(16) -0.0134(14) 0.0188(14) -0.0413(16)

_geom_special_details            
; 
 All esds (except the esd in the dihedral angle between two l.s. planes) 
 are estimated using the full covariance matrix.  The cell esds are taken 
 into account individually in the estimation of esds in distances, angles 
 and torsion angles; correlations between esds in cell parameters are only 
 used when they are defined by crystal symmetry.  An approximate (isotropic) 
 treatment of cell esds is used for estimating esds involving l.s. planes. 
;

loop_
_geom_bond_atom_site_label_1
_geom_bond_atom_site_label_2
_geom_bond_distance
_geom_bond_site_symmetry_2
_geom_bond_publ_flag
Mn1 N3 2.340(2) . ?
Mn1 N3 2.340(2) 3_656 ?
Mn1 N1 2.354(2) 3_656 ?
Mn1 N1 2.354(2) . ?
Mn1 Br1 2.6424(3) 3_656 ?
Mn1 Br1 2.6424(3) . ?
N1 C1 1.429(3) . ?
N1 H1A 0.9200 . ?
N1 H1B 0.9200 . ?
N2 C7 1.429(3) . ?
N2 C6 1.436(3) . ?
N2 H2 0.79(4) . ?
N3 C11 1.431(3) . ?
N3 H3B 0.9200 . ?
N3 H3C 0.9200 . ?
C1 C6 1.390(4) . ?
C1 C2 1.396(4) . ?
C2 C3 1.385(4) . ?
C2 H2A 0.9500 . ?
C3 C4 1.383(5) . ?
C3 H3A 0.9500 . ?
C4 C5 1.389(4) . ?
C4 H4A 0.9500 . ?
C5 C6 1.393(4) . ?
C5 H5A 0.9500 . ?
C7 C8 1.392(4) . ?
C7 C11 1.403(4) 3_666 ?
C8 C9 1.395(4) . ?
C8 H8A 0.9500 . ?
C9 C10 1.385(4) . ?
C9 H9A 0.9500 . ?
C10 C12 1.390(4) 3_666 ?
C10 H10 0.9500 . ?
C11 C12 1.386(4) . ?
C11 C7 1.403(4) 3_666 ?
C12 C10 1.390(4) 3_666 ?
C12 H12 0.9500 . ?
C101 C103 1.514(10) . ?
C101 C102 1.515(10) . ?
C101 H10A 0.9900 . ?
C101 H10B 0.9900 . ?
C102 C104 1.405(7) . ?
C102 H10C 0.9900 . ?
C102 H10D 0.9900 . ?
C103 O105 1.413(5) . ?
C103 H10E 0.9900 . ?
C103 H10F 0.9900 . ?
C104 O105 1.406(4) . ?
C104 H10G 0.9900 . ?
C104 H10H 0.9900 . ?

loop_
_geom_angle_atom_site_label_1
_geom_angle_atom_site_label_2
_geom_angle_atom_site_label_3
_geom_angle
_geom_angle_site_symmetry_1
_geom_angle_site_symmetry_3
_geom_angle_publ_flag
N3 Mn1 N3 180.0 . 3_656 ?
N3 Mn1 N1 93.31(8) . 3_656 ?
N3 Mn1 N1 86.69(8) 3_656 3_656 ?
N3 Mn1 N1 86.69(8) . . ?
N3 Mn1 N1 93.31(8) 3_656 . ?
N1 Mn1 N1 180.0 3_656 . ?
N3 Mn1 Br1 89.03(5) . 3_656 ?
N3 Mn1 Br1 90.98(5) 3_656 3_656 ?
N1 Mn1 Br1 82.67(6) 3_656 3_656 ?
N1 Mn1 Br1 97.33(6) . 3_656 ?
N3 Mn1 Br1 90.98(5) . . ?
N3 Mn1 Br1 89.02(5) 3_656 . ?
N1 Mn1 Br1 97.33(6) 3_656 . ?
N1 Mn1 Br1 82.67(6) . . ?
Br1 Mn1 Br1 180.0 3_656 . ?
C1 N1 Mn1 121.43(16) . . ?
C1 N1 H1A 107.0 . . ?
Mn1 N1 H1A 107.0 . . ?
C1 N1 H1B 107.0 . . ?
Mn1 N1 H1B 107.0 . . ?
H1A N1 H1B 106.7 . . ?
C7 N2 C6 117.4(2) . . ?
C7 N2 H2 109(3) . . ?
C6 N2 H2 111(2) . . ?
C11 N3 Mn1 115.49(16) . . ?
C11 N3 H3B 108.4 . . ?
Mn1 N3 H3B 108.4 . . ?
C11 N3 H3C 108.4 . . ?
Mn1 N3 H3C 108.4 . . ?
H3B N3 H3C 107.5 . . ?
C6 C1 C2 119.5(2) . . ?
C6 C1 N1 120.5(2) . . ?
C2 C1 N1 119.8(2) . . ?
C3 C2 C1 120.2(3) . . ?
C3 C2 H2A 119.9 . . ?
C1 C2 H2A 119.9 . . ?
C4 C3 C2 120.4(3) . . ?
C4 C3 H3A 119.8 . . ?
C2 C3 H3A 119.8 . . ?
C3 C4 C5 119.7(3) . . ?
C3 C4 H4A 120.1 . . ?
C5 C4 H4A 120.1 . . ?
C4 C5 C6 120.3(3) . . ?
C4 C5 H5A 119.8 . . ?
C6 C5 H5A 119.8 . . ?
C1 C6 C5 119.8(2) . . ?
C1 C6 N2 119.0(2) . . ?
C5 C6 N2 121.1(3) . . ?
C8 C7 C11 118.6(2) . 3_666 ?
C8 C7 N2 122.6(2) . . ?
C11 C7 N2 118.8(2) 3_666 . ?
C7 C8 C9 121.3(3) . . ?
C7 C8 H8A 119.4 . . ?
C9 C8 H8A 119.4 . . ?
C10 C9 C8 119.7(3) . . ?
C10 C9 H9A 120.1 . . ?
C8 C9 H9A 120.1 . . ?
C9 C10 C12 119.4(3) . 3_666 ?
C9 C10 H10 120.3 . . ?
C12 C10 H10 120.3 3_666 . ?
C12 C11 C7 119.8(2) . 3_666 ?
C12 C11 N3 119.3(2) . . ?
C7 C11 N3 120.8(2) 3_666 . ?
C11 C12 C10 121.2(3) . 3_666 ?
C11 C12 H12 119.4 . . ?
C10 C12 H12 119.4 3_666 . ?
C103 C101 C102 102.6(4) . . ?
C103 C101 H10A 111.3 . . ?
C102 C101 H10A 111.3 . . ?
C103 C101 H10B 111.3 . . ?
C102 C101 H10B 111.3 . . ?
H10A C101 H10B 109.2 . . ?
C104 C102 C101 103.5(5) . . ?
C104 C102 H10C 111.1 . . ?
C101 C102 H10C 111.1 . . ?
C104 C102 H10D 111.1 . . ?
C101 C102 H10D 111.1 . . ?
H10C C102 H10D 109.0 . . ?
O105 C103 C101 105.7(5) . . ?
O105 C103 H10E 110.6 . . ?
C101 C103 H10E 110.6 . . ?
O105 C103 H10F 110.6 . . ?
C101 C103 H10F 110.6 . . ?
H10E C103 H10F 108.7 . . ?
C102 C104 O105 106.4(4) . . ?
C102 C104 H10G 110.5 . . ?
O105 C104 H10G 110.5 . . ?
C102 C104 H10H 110.5 . . ?
O105 C104 H10H 110.5 . . ?
H10G C104 H10H 108.6 . . ?
C104 O105 C103 108.9(3) . . ?

loop_
_geom_torsion_atom_site_label_1
_geom_torsion_atom_site_label_2
_geom_torsion_atom_site_label_3
_geom_torsion_atom_site_label_4
_geom_torsion
_geom_torsion_site_symmetry_1
_geom_torsion_site_symmetry_2
_geom_torsion_site_symmetry_3
_geom_torsion_site_symmetry_4
_geom_torsion_publ_flag
N3 Mn1 N1 C1 -52.1(2) . . . . ?
N3 Mn1 N1 C1 127.9(2) 3_656 . . . ?
N1 Mn1 N1 C1 -165(7) 3_656 . . . ?
Br1 Mn1 N1 C1 36.49(19) 3_656 . . . ?
Br1 Mn1 N1 C1 -143.52(19) . . . . ?
N3 Mn1 N3 C11 -90(12) 3_656 . . . ?
N1 Mn1 N3 C11 14.53(18) 3_656 . . . ?
N1 Mn1 N3 C11 -165.47(18) . . . . ?
Br1 Mn1 N3 C11 97.14(17) 3_656 . . . ?
Br1 Mn1 N3 C11 -82.87(17) . . . . ?
Mn1 N1 C1 C6 92.3(3) . . . . ?
Mn1 N1 C1 C2 -84.1(3) . . . . ?
C6 C1 C2 C3 0.3(4) . . . . ?
N1 C1 C2 C3 176.7(2) . . . . ?
C1 C2 C3 C4 -1.3(4) . . . . ?
C2 C3 C4 C5 1.5(5) . . . . ?
C3 C4 C5 C6 -0.7(5) . . . . ?
C2 C1 C6 C5 0.6(4) . . . . ?
N1 C1 C6 C5 -175.8(2) . . . . ?
C2 C1 C6 N2 -179.1(2) . . . . ?
N1 C1 C6 N2 4.6(4) . . . . ?
C4 C5 C6 C1 -0.4(4) . . . . ?
C4 C5 C6 N2 179.2(3) . . . . ?
C7 N2 C6 C1 90.0(3) . . . . ?
C7 N2 C6 C5 -89.7(3) . . . . ?
C6 N2 C7 C8 4.2(4) . . . . ?
C6 N2 C7 C11 -174.3(2) . . . 3_666 ?
C11 C7 C8 C9 -0.1(4) 3_666 . . . ?
N2 C7 C8 C9 -178.7(2) . . . . ?
C7 C8 C9 C10 0.1(4) . . . . ?
C8 C9 C10 C12 -0.1(4) . . . 3_666 ?
Mn1 N3 C11 C12 -82.2(3) . . . . ?
Mn1 N3 C11 C7 94.6(2) . . . 3_666 ?
C7 C11 C12 C10 0.1(4) 3_666 . . 3_666 ?
N3 C11 C12 C10 176.9(2) . . . 3_666 ?
C103 C101 C102 C104 29.6(7) . . . . ?
C102 C101 C103 O105 -12.3(7) . . . . ?
C101 C102 C104 O105 -36.7(6) . . . . ?
C102 C104 O105 C103 29.9(5) . . . . ?
C101 C103 O105 C104 -9.6(6) . . . . ?

_diffrn_measured_fraction_theta_max 0.999
_diffrn_reflns_theta_full        27.09
_diffrn_measured_fraction_theta_full 0.999
_refine_diff_density_max         0.986
_refine_diff_density_min         -0.459
_refine_diff_density_rms         0.096
