####################################################################### 
# 
# This file contains crystal structure data downloaded from the 
# Cambridge Structural Database (CSD) hosted by the Cambridge 
# Crystallographic Data Centre (CCDC).
# 
# Full information about CCDC data access policies and citation 
# guidelines are available at http://www.ccdc.cam.ac.uk/access/V1 
# 
# Audit and citation data items may have been added by the CCDC. 
# Please retain this information to preserve the provenance of 
# this file and to allow appropriate attribution of the data. 
# 
#######################################################################

data_shelxl2
_audit_block_doi                 10.5517/cc8rh1j
_database_code_depnum_ccdc_archive 'CCDC 260897'
loop_
_citation_id
_citation_doi
_citation_year
1 10.1002/cjoc.200690171 2006
_audit_update_record             
;
2005-01-16 deposited with the CCDC.	2024-07-13 downloaded from the CCDC.
;

_audit_creation_method           SHELXL-97
_chemical_name_systematic        
;
?
;
_chemical_name_common            ?
_chemical_melting_point          ?
_chemical_formula_moiety         'C30 H32 Co F2 N8 O6,C2 H6 O'
_chemical_formula_sum            'C32 H38 Co F2 N8 O7'
_chemical_formula_weight         743.63

loop_
_atom_type_symbol
_atom_type_description
_atom_type_scat_dispersion_real
_atom_type_scat_dispersion_imag
_atom_type_scat_source
C C 0.0033 0.0016 'International Tables Vol C Tables 4.2.6.8 and 6.1.1.4'
H H 0.0000 0.0000 'International Tables Vol C Tables 4.2.6.8 and 6.1.1.4'
Co Co 0.3494 0.9721 'International Tables Vol C Tables 4.2.6.8 and 6.1.1.4'
F F 0.0171 0.0103 'International Tables Vol C Tables 4.2.6.8 and 6.1.1.4'
N N 0.0061 0.0033 'International Tables Vol C Tables 4.2.6.8 and 6.1.1.4'
O O 0.0106 0.0060 'International Tables Vol C Tables 4.2.6.8 and 6.1.1.4'

_symmetry_cell_setting           monoclinic
_symmetry_space_group_name_H-M   'p 21/c'
_symmetry_space_group_name_Hall  '-p 2ybc'
_symmetry_Int_Tables_number      14

loop_
_symmetry_equiv_pos_as_xyz
'x, y, z'
'-x, y+1/2, -z+1/2'
'-x, -y, -z'
'x, -y-1/2, z-1/2'

_cell_length_a                   5.9929(19)
_cell_length_b                   21.444(7)
_cell_length_c                   12.941(4)
_cell_angle_alpha                90.00
_cell_angle_beta                 100.000(6)
_cell_angle_gamma                90.00
_cell_volume                     1637.9(9)
_cell_formula_units_Z            2
_cell_measurement_temperature    193(2)
_cell_measurement_reflns_used    6332
_cell_measurement_theta_min      3.2
_cell_measurement_theta_max      27.5

_exptl_crystal_description       chip
_exptl_crystal_colour            orange
_exptl_crystal_size_max          0.42
_exptl_crystal_size_mid          0.30
_exptl_crystal_size_min          0.13
_exptl_crystal_density_meas      ?
_exptl_crystal_density_diffrn    1.508
_exptl_crystal_density_method    'not measured'
_exptl_crystal_F_000             774
_exptl_absorpt_coefficient_mu    0.597
_exptl_absorpt_correction_type   multi-scan
_exptl_absorpt_correction_T_min  0.7876
_exptl_absorpt_correction_T_max  0.9264
_exptl_absorpt_process_details   'Jacobson, R. (1998) Private communication'
_exptl_special_details           
;
?
;

_diffrn_ambient_temperature      193(2)
_diffrn_radiation_wavelength     0.71070
_diffrn_radiation_type           MoK\a
_diffrn_radiation_source         'fine-focus sealed tube'
_diffrn_radiation_monochromator  graphite
_diffrn_measurement_device_type  'Rigaku Mercury'
_diffrn_measurement_method       \w
_diffrn_detector_area_resol_mean 7.31
_diffrn_standards_number         ?
_diffrn_standards_interval_count ?
_diffrn_standards_interval_time  ?
_diffrn_standards_decay_%        ?
_diffrn_reflns_number            18221
_diffrn_reflns_av_R_equivalents  0.0415
_diffrn_reflns_av_sigmaI/netI    0.0312
_diffrn_reflns_limit_h_min       -7
_diffrn_reflns_limit_h_max       7
_diffrn_reflns_limit_k_min       -27
_diffrn_reflns_limit_k_max       27
_diffrn_reflns_limit_l_min       -13
_diffrn_reflns_limit_l_max       16
_diffrn_reflns_theta_min         3.20
_diffrn_reflns_theta_max         27.48
_reflns_number_total             3742
_reflns_number_gt                3455
_reflns_threshold_expression     >2sigma(I)

_computing_data_collection       CrystalClear
_computing_cell_refinement       CrystalClear
_computing_data_reduction        CrystalStructure
_computing_structure_solution    'SHELXS-97 (Sheldrick, 1990)'
_computing_structure_refinement  'SHELXL-97 (Sheldrick, 1997)'
_computing_molecular_graphics    ?
_computing_publication_material  ?

_refine_special_details          
;
Refinement of F^2^ against ALL reflections.  The weighted R-factor wR and
goodness of fit S are based on F^2^, conventional R-factors R are based
on F, with F set to zero for negative F^2^. The threshold expression of
F^2^ > 2sigma(F^2^) is used only for calculating R-factors(gt) etc. and is
not relevant to the choice of reflections for refinement.  R-factors based
on F^2^ are statistically about twice as large as those based on F, and R-
factors based on ALL data will be even larger.
;

_refine_ls_structure_factor_coef Fsqd
_refine_ls_matrix_type           full
_refine_ls_weighting_scheme      calc
_refine_ls_weighting_details     
'calc w=1/[\s^2^(Fo^2^)+(0.0627P)^2^+3.8001P] where P=(Fo^2^+2Fc^2^)/3'
_atom_sites_solution_primary     direct
_atom_sites_solution_secondary   difmap
_atom_sites_solution_hydrogens   geom
_refine_ls_hydrogen_treatment    mixed
_refine_ls_extinction_method     none
_refine_ls_extinction_coef       ?
_refine_ls_number_reflns         3742
_refine_ls_number_parameters     228
_refine_ls_number_restraints     2
_refine_ls_R_factor_all          0.0786
_refine_ls_R_factor_gt           0.0699
_refine_ls_wR_factor_ref         0.1685
_refine_ls_wR_factor_gt          0.1644
_refine_ls_goodness_of_fit_ref   1.239
_refine_ls_restrained_S_all      1.269
_refine_ls_shift/su_max          0.000
_refine_ls_shift/su_mean         0.000

loop_
_atom_site_label
_atom_site_type_symbol
_atom_site_fract_x
_atom_site_fract_y
_atom_site_fract_z
_atom_site_U_iso_or_equiv
_atom_site_adp_type
_atom_site_occupancy
_atom_site_symmetry_multiplicity
_atom_site_calc_flag
_atom_site_refinement_flags
_atom_site_disorder_assembly
_atom_site_disorder_group
Co1 Co 0.0000 0.5000 0.5000 0.01246(19) Uani 1 2 d S . .
F1 F 0.7082(4) 0.75015(11) 0.6509(2) 0.0343(6) Uani 1 1 d . . .
O1 O -0.2117(4) 0.49855(11) 0.60796(18) 0.0167(5) Uani 1 1 d . . .
O2 O -0.3630(5) 0.51763(14) 0.7489(2) 0.0353(7) Uani 1 1 d . . .
O3 O 0.1497(4) 0.57748(11) 0.57773(18) 0.0171(5) Uani 1 1 d . . .
O4 O 0.444(3) 0.5623(8) 0.9211(12) 0.270(7) Uiso 1 1 d D . .
N1 N 0.0061(5) 0.67336(14) 0.8333(2) 0.0192(6) Uani 1 1 d . . .
N2 N 0.2771(5) 0.74823(13) 0.8144(2) 0.0184(6) Uani 1 1 d . . .
N3 N 0.5385(5) 0.82611(13) 0.8024(2) 0.0185(6) Uani 1 1 d . . .
N4 N 0.7445(5) 0.94221(13) 0.8923(2) 0.0153(6) Uani 1 1 d . . .
H4 H 0.6350 0.9699 0.8596 0.018 Uiso 1 1 calc R . .
C1 C -0.2258(6) 0.52957(16) 0.6897(3) 0.0176(7) Uani 1 1 d . . .
C2 C -0.0717(6) 0.58516(15) 0.7163(3) 0.0169(6) Uani 1 1 d . . .
C3 C 0.1028(5) 0.60363(15) 0.6586(2) 0.0150(6) Uani 1 1 d . . .
C4 C 0.2291(6) 0.65877(15) 0.6987(3) 0.0161(6) Uani 1 1 d . . .
C5 C 0.1775(6) 0.69436(15) 0.7821(3) 0.0161(6) Uani 1 1 d . . .
C6 C -0.1066(6) 0.62088(16) 0.8003(3) 0.0204(7) Uani 1 1 d . . .
H6 H -0.2200 0.6073 0.8382 0.025 Uiso 1 1 calc R . .
C7 C 0.4150(6) 0.67974(16) 0.6554(3) 0.0190(7) Uani 1 1 d . . .
H7 H 0.4659 0.6563 0.6016 0.023 Uiso 1 1 calc R . .
C8 C 0.5207(6) 0.73289(16) 0.6899(3) 0.0200(7) Uani 1 1 d . . .
C9 C 0.4447(6) 0.77050(16) 0.7682(3) 0.0175(7) Uani 1 1 d . . .
C10 C -0.0428(7) 0.70562(18) 0.9280(3) 0.0268(8) Uani 1 1 d . . .
H10A H -0.2044 0.6997 0.9330 0.032 Uiso 1 1 calc R . .
H10B H -0.0157 0.7509 0.9217 0.032 Uiso 1 1 calc R . .
C11 C 0.1017(9) 0.6815(3) 1.0257(4) 0.0525(14) Uani 1 1 d . . .
H11A H 0.0652 0.6376 1.0356 0.079 Uiso 1 1 calc R . .
H11B H 0.0729 0.7058 1.0861 0.079 Uiso 1 1 calc R . .
H11C H 0.2618 0.6852 1.0195 0.079 Uiso 1 1 calc R . .
C12 C 0.4430(6) 0.86036(17) 0.8834(3) 0.0234(8) Uani 1 1 d . . .
H12A H 0.3759 0.8305 0.9276 0.028 Uiso 1 1 calc R . .
H12B H 0.3213 0.8886 0.8493 0.028 Uiso 1 1 calc R . .
C13 C 0.6263(6) 0.89811(16) 0.9515(3) 0.0200(7) Uani 1 1 d . . .
H13A H 0.5570 0.9217 1.0036 0.024 Uiso 1 1 calc R . .
H13B H 0.7389 0.8691 0.9905 0.024 Uiso 1 1 calc R . .
C14 C 0.6436(7) 0.87004(17) 0.7375(3) 0.0262(8) Uani 1 1 d . . .
H14A H 0.5268 0.8985 0.6999 0.031 Uiso 1 1 calc R . .
H14B H 0.7115 0.8467 0.6847 0.031 Uiso 1 1 calc R . .
C15 C 0.8267(6) 0.90781(18) 0.8076(3) 0.0240(8) Uani 1 1 d . . .
H15A H 0.9492 0.8792 0.8393 0.029 Uiso 1 1 calc R . .
H15B H 0.8928 0.9380 0.7634 0.029 Uiso 1 1 calc R . .
C16 C 0.642(4) 0.5217(11) 0.9551(19) 0.258(10) Uiso 1 1 d D . .
C17 C 0.863(3) 0.4826(8) 0.9615(13) 0.179(6) Uiso 1 1 d D . .

loop_
_atom_site_aniso_label
_atom_site_aniso_U_11
_atom_site_aniso_U_22
_atom_site_aniso_U_33
_atom_site_aniso_U_23
_atom_site_aniso_U_13
_atom_site_aniso_U_12
Co1 0.0152(3) 0.0076(3) 0.0140(3) -0.0018(2) 0.0007(2) 0.0001(2)
F1 0.0292(12) 0.0279(12) 0.0526(15) -0.0163(11) 0.0261(11) -0.0151(10)
O1 0.0199(11) 0.0112(10) 0.0189(11) -0.0030(9) 0.0029(9) -0.0031(10)
O2 0.0414(17) 0.0339(16) 0.0365(16) -0.0174(13) 0.0232(14) -0.0244(13)
O3 0.0209(12) 0.0131(11) 0.0177(11) -0.0055(9) 0.0048(9) -0.0040(9)
N1 0.0231(14) 0.0175(14) 0.0187(14) -0.0070(11) 0.0084(12) -0.0070(12)
N2 0.0206(14) 0.0164(14) 0.0187(14) -0.0057(11) 0.0044(11) -0.0051(12)
N3 0.0224(14) 0.0138(13) 0.0203(14) -0.0046(11) 0.0065(12) -0.0065(11)
N4 0.0164(13) 0.0102(12) 0.0182(13) 0.0011(10) 0.0002(11) -0.0009(10)
C1 0.0186(15) 0.0141(15) 0.0201(16) -0.0013(12) 0.0027(13) -0.0023(13)
C2 0.0193(16) 0.0128(15) 0.0181(15) -0.0023(12) 0.0015(13) -0.0038(13)
C3 0.0160(15) 0.0128(15) 0.0153(15) -0.0012(12) -0.0003(12) 0.0012(12)
C4 0.0183(16) 0.0120(14) 0.0177(15) -0.0027(12) 0.0022(12) -0.0017(13)
C5 0.0175(15) 0.0143(15) 0.0164(15) -0.0029(12) 0.0027(12) -0.0020(12)
C6 0.0232(17) 0.0190(17) 0.0198(16) -0.0036(13) 0.0059(14) -0.0053(14)
C7 0.0215(16) 0.0171(16) 0.0194(16) -0.0039(13) 0.0065(13) -0.0014(13)
C8 0.0177(16) 0.0185(17) 0.0259(17) -0.0045(14) 0.0096(14) -0.0044(13)
C9 0.0181(16) 0.0160(16) 0.0172(15) -0.0026(12) -0.0003(12) -0.0019(13)
C10 0.031(2) 0.0266(19) 0.0271(19) -0.0143(15) 0.0182(16) -0.0118(16)
C11 0.047(3) 0.088(4) 0.023(2) -0.018(2) 0.007(2) -0.002(3)
C12 0.0234(18) 0.0209(17) 0.0278(18) -0.0127(15) 0.0096(15) -0.0085(14)
C13 0.0268(18) 0.0153(16) 0.0190(16) -0.0036(13) 0.0072(14) -0.0075(14)
C14 0.038(2) 0.0192(18) 0.0225(18) -0.0047(14) 0.0085(16) -0.0117(16)
C15 0.0251(18) 0.0234(18) 0.0257(18) -0.0063(14) 0.0100(15) -0.0098(15)

_geom_special_details            
;
All esds (except the esd in the dihedral angle between two l.s. planes)
are estimated using the full covariance matrix.  The cell esds are taken
into account individually in the estimation of esds in distances, angles
and torsion angles; correlations between esds in cell parameters are only
used when they are defined by crystal symmetry.  An approximate (isotropic)
treatment of cell esds is used for estimating esds involving l.s. planes.
;

loop_
_geom_bond_atom_site_label_1
_geom_bond_atom_site_label_2
_geom_bond_distance
_geom_bond_site_symmetry_2
_geom_bond_publ_flag
Co1 O1 2.044(2) 3_566 ?
Co1 O1 2.044(2) . ?
Co1 O3 2.065(2) . ?
Co1 O3 2.065(2) 3_566 ?
Co1 N4 2.254(3) 4_475 ?
Co1 N4 2.254(3) 2_646 ?
F1 C8 1.361(4) . ?
O1 C1 1.264(4) . ?
O2 C1 1.244(4) . ?
O3 C3 1.262(4) . ?
O4 C16 1.474(16) . ?
N1 C6 1.343(4) . ?
N1 C5 1.390(4) . ?
N1 C10 1.481(4) . ?
N2 C5 1.333(4) . ?
N2 C9 1.342(4) . ?
N3 C9 1.359(4) . ?
N3 C12 1.474(4) . ?
N3 C14 1.475(4) . ?
N4 C13 1.473(4) . ?
N4 C15 1.476(4) . ?
N4 Co1 2.254(3) 2_656 ?
N4 H4 0.9300 . ?
C1 C2 1.511(4) . ?
C2 C6 1.375(5) . ?
C2 C3 1.442(5) . ?
C3 C4 1.451(4) . ?
C4 C5 1.399(4) . ?
C4 C7 1.406(5) . ?
C6 H6 0.9500 . ?
C7 C8 1.342(5) . ?
C7 H7 0.9500 . ?
C8 C9 1.430(5) . ?
C10 C11 1.496(7) . ?
C10 H10A 0.9900 . ?
C10 H10B 0.9900 . ?
C11 H11A 0.9800 . ?
C11 H11B 0.9800 . ?
C11 H11C 0.9800 . ?
C12 C13 1.517(5) . ?
C12 H12A 0.9900 . ?
C12 H12B 0.9900 . ?
C13 H13A 0.9900 . ?
C13 H13B 0.9900 . ?
C14 C15 1.529(5) . ?
C14 H14A 0.9900 . ?
C14 H14B 0.9900 . ?
C15 H15A 0.9900 . ?
C15 H15B 0.9900 . ?
C16 C17 1.555(16) . ?
C17 C17 1.92(3) 3_767 ?

loop_
_geom_angle_atom_site_label_1
_geom_angle_atom_site_label_2
_geom_angle_atom_site_label_3
_geom_angle
_geom_angle_site_symmetry_1
_geom_angle_site_symmetry_3
_geom_angle_publ_flag
O1 Co1 O1 180.000(1) 3_566 . ?
O1 Co1 O3 92.97(9) 3_566 . ?
O1 Co1 O3 87.03(9) . . ?
O1 Co1 O3 87.03(9) 3_566 3_566 ?
O1 Co1 O3 92.97(9) . 3_566 ?
O3 Co1 O3 180.0 . 3_566 ?
O1 Co1 N4 90.28(10) 3_566 4_475 ?
O1 Co1 N4 89.72(10) . 4_475 ?
O3 Co1 N4 92.86(10) . 4_475 ?
O3 Co1 N4 87.14(10) 3_566 4_475 ?
O1 Co1 N4 89.72(10) 3_566 2_646 ?
O1 Co1 N4 90.28(10) . 2_646 ?
O3 Co1 N4 87.14(10) . 2_646 ?
O3 Co1 N4 92.86(10) 3_566 2_646 ?
N4 Co1 N4 180.00(11) 4_475 2_646 ?
C1 O1 Co1 134.7(2) . . ?
C3 O3 Co1 128.4(2) . . ?
C6 N1 C5 119.5(3) . . ?
C6 N1 C10 119.6(3) . . ?
C5 N1 C10 120.8(3) . . ?
C5 N2 C9 119.9(3) . . ?
C9 N3 C12 118.6(3) . . ?
C9 N3 C14 124.6(3) . . ?
C12 N3 C14 110.1(3) . . ?
C13 N4 C15 108.5(3) . . ?
C13 N4 Co1 111.6(2) . 2_656 ?
C15 N4 Co1 117.1(2) . 2_656 ?
C13 N4 H4 106.3 . . ?
C15 N4 H4 106.3 . . ?
Co1 N4 H4 106.3 2_656 . ?
O2 C1 O1 123.6(3) . . ?
O2 C1 C2 117.7(3) . . ?
O1 C1 C2 118.6(3) . . ?
C6 C2 C3 118.7(3) . . ?
C6 C2 C1 116.7(3) . . ?
C3 C2 C1 124.6(3) . . ?
O3 C3 C2 126.4(3) . . ?
O3 C3 C4 118.8(3) . . ?
C2 C3 C4 114.8(3) . . ?
C5 C4 C7 115.5(3) . . ?
C5 C4 C3 123.3(3) . . ?
C7 C4 C3 121.2(3) . . ?
N2 C5 N1 117.3(3) . . ?
N2 C5 C4 124.5(3) . . ?
N1 C5 C4 118.1(3) . . ?
N1 C6 C2 125.5(3) . . ?
N1 C6 H6 117.3 . . ?
C2 C6 H6 117.3 . . ?
C8 C7 C4 120.0(3) . . ?
C8 C7 H7 120.0 . . ?
C4 C7 H7 120.0 . . ?
C7 C8 F1 118.7(3) . . ?
C7 C8 C9 121.7(3) . . ?
F1 C8 C9 119.7(3) . . ?
N2 C9 N3 117.8(3) . . ?
N2 C9 C8 118.0(3) . . ?
N3 C9 C8 124.1(3) . . ?
N1 C10 C11 111.7(4) . . ?
N1 C10 H10A 109.3 . . ?
C11 C10 H10A 109.3 . . ?
N1 C10 H10B 109.3 . . ?
C11 C10 H10B 109.3 . . ?
H10A C10 H10B 107.9 . . ?
C10 C11 H11A 109.5 . . ?
C10 C11 H11B 109.5 . . ?
H11A C11 H11B 109.5 . . ?
C10 C11 H11C 109.5 . . ?
H11A C11 H11C 109.5 . . ?
H11B C11 H11C 109.5 . . ?
N3 C12 C13 110.3(3) . . ?
N3 C12 H12A 109.6 . . ?
C13 C12 H12A 109.6 . . ?
N3 C12 H12B 109.6 . . ?
C13 C12 H12B 109.6 . . ?
H12A C12 H12B 108.1 . . ?
N4 C13 C12 113.9(3) . . ?
N4 C13 H13A 108.8 . . ?
C12 C13 H13A 108.8 . . ?
N4 C13 H13B 108.8 . . ?
C12 C13 H13B 108.8 . . ?
H13A C13 H13B 107.7 . . ?
N3 C14 C15 109.5(3) . . ?
N3 C14 H14A 109.8 . . ?
C15 C14 H14A 109.8 . . ?
N3 C14 H14B 109.8 . . ?
C15 C14 H14B 109.8 . . ?
H14A C14 H14B 108.2 . . ?
N4 C15 C14 114.1(3) . . ?
N4 C15 H15A 108.7 . . ?
C14 C15 H15A 108.7 . . ?
N4 C15 H15B 108.7 . . ?
C14 C15 H15B 108.7 . . ?
H15A C15 H15B 107.6 . . ?
O4 C16 C17 165(2) . . ?
C16 C17 C17 117.6(18) . 3_767 ?

loop_
_geom_torsion_atom_site_label_1
_geom_torsion_atom_site_label_2
_geom_torsion_atom_site_label_3
_geom_torsion_atom_site_label_4
_geom_torsion
_geom_torsion_site_symmetry_1
_geom_torsion_site_symmetry_2
_geom_torsion_site_symmetry_3
_geom_torsion_site_symmetry_4
_geom_torsion_publ_flag
O1 Co1 O1 C1 144(39) 3_566 . . . ?
O3 Co1 O1 C1 -4.7(3) . . . . ?
O3 Co1 O1 C1 175.3(3) 3_566 . . . ?
N4 Co1 O1 C1 -97.6(3) 4_475 . . . ?
N4 Co1 O1 C1 82.4(3) 2_646 . . . ?
O1 Co1 O3 C3 -178.7(3) 3_566 . . . ?
O1 Co1 O3 C3 1.3(3) . . . . ?
O3 Co1 O3 C3 -75(48) 3_566 . . . ?
N4 Co1 O3 C3 90.9(3) 4_475 . . . ?
N4 Co1 O3 C3 -89.1(3) 2_646 . . . ?
Co1 O1 C1 O2 -174.9(3) . . . . ?
Co1 O1 C1 C2 6.5(5) . . . . ?
O2 C1 C2 C6 -4.4(5) . . . . ?
O1 C1 C2 C6 174.3(3) . . . . ?
O2 C1 C2 C3 177.1(3) . . . . ?
O1 C1 C2 C3 -4.2(5) . . . . ?
Co1 O3 C3 C2 -0.5(5) . . . . ?
Co1 O3 C3 C4 -178.9(2) . . . . ?
C6 C2 C3 O3 -177.0(3) . . . . ?
C1 C2 C3 O3 1.4(5) . . . . ?
C6 C2 C3 C4 1.4(5) . . . . ?
C1 C2 C3 C4 179.8(3) . . . . ?
O3 C3 C4 C5 174.2(3) . . . . ?
C2 C3 C4 C5 -4.3(5) . . . . ?
O3 C3 C4 C7 -6.1(5) . . . . ?
C2 C3 C4 C7 175.4(3) . . . . ?
C9 N2 C5 N1 179.5(3) . . . . ?
C9 N2 C5 C4 -2.5(5) . . . . ?
C6 N1 C5 N2 176.8(3) . . . . ?
C10 N1 C5 N2 -7.5(5) . . . . ?
C6 N1 C5 C4 -1.3(5) . . . . ?
C10 N1 C5 C4 174.4(3) . . . . ?
C7 C4 C5 N2 6.7(5) . . . . ?
C3 C4 C5 N2 -173.6(3) . . . . ?
C7 C4 C5 N1 -175.3(3) . . . . ?
C3 C4 C5 N1 4.4(5) . . . . ?
C5 N1 C6 C2 -1.6(6) . . . . ?
C10 N1 C6 C2 -177.4(4) . . . . ?
C3 C2 C6 N1 1.5(6) . . . . ?
C1 C2 C6 N1 -177.1(3) . . . . ?
C5 C4 C7 C8 -4.1(5) . . . . ?
C3 C4 C7 C8 176.2(3) . . . . ?
C4 C7 C8 F1 176.2(3) . . . . ?
C4 C7 C8 C9 -2.1(6) . . . . ?
C5 N2 C9 N3 178.9(3) . . . . ?
C5 N2 C9 C8 -4.1(5) . . . . ?
C12 N3 C9 N2 -3.5(5) . . . . ?
C14 N3 C9 N2 -152.0(3) . . . . ?
C12 N3 C9 C8 179.7(3) . . . . ?
C14 N3 C9 C8 31.2(5) . . . . ?
C7 C8 C9 N2 6.5(5) . . . . ?
F1 C8 C9 N2 -171.8(3) . . . . ?
C7 C8 C9 N3 -176.7(3) . . . . ?
F1 C8 C9 N3 5.0(6) . . . . ?
C6 N1 C10 C11 88.7(4) . . . . ?
C5 N1 C10 C11 -87.0(4) . . . . ?
C9 N3 C12 C13 149.3(3) . . . . ?
C14 N3 C12 C13 -58.0(4) . . . . ?
C15 N4 C13 C12 -52.6(4) . . . . ?
Co1 N4 C13 C12 176.9(2) 2_656 . . . ?
N3 C12 C13 N4 56.6(4) . . . . ?
C9 N3 C14 C15 -151.5(3) . . . . ?
C12 N3 C14 C15 57.7(4) . . . . ?
C13 N4 C15 C14 52.9(4) . . . . ?
Co1 N4 C15 C14 -179.6(2) 2_656 . . . ?
N3 C14 C15 N4 -56.8(4) . . . . ?
O4 C16 C17 C17 103(8) . . . 3_767 ?

loop_
_geom_hbond_atom_site_label_D
_geom_hbond_atom_site_label_H
_geom_hbond_atom_site_label_A
_geom_hbond_distance_DH
_geom_hbond_distance_HA
_geom_hbond_distance_DA
_geom_hbond_angle_DHA
_geom_hbond_site_symmetry_A
N4 H4 O2 0.93 2.21 3.119(4) 165.7 2_556

_diffrn_measured_fraction_theta_max 0.995
_diffrn_reflns_theta_full        27.48
_diffrn_measured_fraction_theta_full 0.995
_refine_diff_density_max         0.861
_refine_diff_density_min         -0.754
_refine_diff_density_rms         0.092
#============================================================================
# END OF CIF
