####################################################################### 
# 
# This file contains crystal structure data downloaded from the 
# Cambridge Structural Database (CSD) hosted by the Cambridge 
# Crystallographic Data Centre (CCDC).
# 
# Full information about CCDC data access policies and citation 
# guidelines are available at http://www.ccdc.cam.ac.uk/access/V1 
# 
# Audit and citation data items may have been added by the CCDC. 
# Please retain this information to preserve the provenance of 
# this file and to allow appropriate attribution of the data. 
# 
#######################################################################

data_I
_audit_block_doi                 10.5517/ccz936k
_database_code_depnum_ccdc_archive 'CCDC 902478'
loop_
_citation_id
_citation_doi
_citation_year
1 10.1002/ejic.201201461 2013
_audit_update_record             
;
2012-09-21 deposited with the CCDC.	2024-07-13 downloaded from the CCDC.
;
#TrackingRef '14124_web_deposit_cif_file_0_JosefinaPerles_1348214184.2b_and_3.cif'

_chemical_name_systematic        ?
_chemical_name_common            ?
_chemical_formula_moiety         ?
_chemical_formula_sum            'C12 H8 N2 Ni O4'
_chemical_formula_iupac          ?
_chemical_formula_weight         302.91
_chemical_absolute_configuration ?

_chemical_melting_point          ?

_space_group_crystal_system      orthorhombic
_space_group_name_H-M_alt        'P n n 2'
_space_group_name_Hall           'P 2 -2n'
loop_
_space_group_symop_operation_xyz
'x, y, z'
'-x, -y, z'
'x+1/2, -y+1/2, z+1/2'
'-x+1/2, y+1/2, z+1/2'

_cell_length_a                   12.4966(14)
_cell_length_b                   6.3559(7)
_cell_length_c                   10.3785(12)
_cell_angle_alpha                90
_cell_angle_beta                 90
_cell_angle_gamma                90
_cell_volume                     824.33(16)
_cell_formula_units_Z            2
_cell_measurement_reflns_used    ?
_cell_measurement_theta_min      ?
_cell_measurement_theta_max      ?
_cell_measurement_temperature    296.(2)

_exptl_crystal_description       ?
_exptl_crystal_colour            ?
_exptl_crystal_size_max          0.120
_exptl_crystal_size_mid          0.100
_exptl_crystal_size_min          0.080
_exptl_crystal_density_diffrn    1.220
_exptl_crystal_density_meas      ?
_exptl_crystal_density_method    'not measured'
_exptl_crystal_F_000             308

_exptl_absorpt_coefficient_mu    1.185
_exptl_absorpt_correction_type   multi-scan
_exptl_absorpt_process_details   sadabs
_exptl_absorpt_correction_T_min  0.87
_exptl_absorpt_correction_T_max  0.91

_exptl_special_details           
;
;

_diffrn_ambient_temperature      296.(2)

_diffrn_source                   ?
_diffrn_source_type              ?

_diffrn_radiation_type           ?
_diffrn_radiation_wavelength     0.71073
_diffrn_radiation_monochromator  ?

_diffrn_measurement_device_type  ?
_diffrn_measurement_method       ?

_diffrn_detector_area_resol_mean ?

_diffrn_reflns_number            7362
_diffrn_reflns_av_R_equivalents  0.0753
_diffrn_reflns_av_sigmaI/netI    0.0752
_diffrn_reflns_theta_min         2.55
_diffrn_reflns_theta_max         29.01
_diffrn_reflns_theta_full        29.01
_diffrn_measured_fraction_theta_max 0.946
_diffrn_measured_fraction_theta_full 0.946
_diffrn_reflns_limit_h_min       -16
_diffrn_reflns_limit_h_max       13
_diffrn_reflns_limit_k_min       -8
_diffrn_reflns_limit_k_max       8
_diffrn_reflns_limit_l_min       -10
_diffrn_reflns_limit_l_max       14

_refine_special_details          
;
Refinement of F^2^ against ALL reflections. The weighted R-factor wR and
goodness of fit S are based on F^2^, conventional R-factors R are based
on F, with F set to zero for negative F^2^. The threshold expression of
F^2^ > 2sigma(F^2^) is used only for calculating R-factors(gt) etc. and is
not relevant to the choice of reflections for refinement. R-factors based
on F^2^ are statistically about twice as large as those based on F, and R-
factors based on ALL data will be even larger.
;

_reflns_number_total             1702
_reflns_number_gt                1124
_reflns_threshold_expression     >2sigma(I)

_refine_ls_structure_factor_coef Fsqd
_refine_ls_matrix_type           full
_refine_ls_R_factor_all          0.1040
_refine_ls_R_factor_gt           0.0718
_refine_ls_wR_factor_gt          0.2070
_refine_ls_wR_factor_ref         0.2234
_refine_ls_goodness_of_fit_ref   1.040
_refine_ls_restrained_S_all      1.040
_refine_ls_number_reflns         1702
_refine_ls_number_parameters     87
_refine_ls_number_restraints     1
_refine_ls_hydrogen_treatment    refxyz
_refine_ls_weighting_scheme      calc
_refine_ls_weighting_details     
'calc w=1/[\s^2^(Fo^2^)+(0.1419P)^2^+0.0000P] where P=(Fo^2^+2Fc^2^)/3'

_atom_sites_solution_hydrogens   geom
_atom_sites_solution_primary     direct
_atom_sites_solution_secondary   difmap

_refine_ls_shift/su_max          0.000
_refine_ls_shift/su_mean         0.000
_refine_diff_density_max         1.269
_refine_diff_density_min         -0.620
_refine_ls_extinction_method     none
_refine_ls_extinction_coef       ?
_refine_ls_abs_structure_details 'Flack H D (1983), Acta Cryst. A39, 876-881'
_refine_ls_abs_structure_Flack   0.01(7)

loop_
_atom_type_symbol
_atom_type_description
_atom_type_scat_dispersion_real
_atom_type_scat_dispersion_imag
_atom_type_scat_source
C C 0.0033 0.0016 'International Tables Vol C Tables 4.2.6.8 and 6.1.1.4'
H H 0.0000 0.0000 'International Tables Vol C Tables 4.2.6.8 and 6.1.1.4'
N N 0.0061 0.0033 'International Tables Vol C Tables 4.2.6.8 and 6.1.1.4'
O O 0.0106 0.0060 'International Tables Vol C Tables 4.2.6.8 and 6.1.1.4'
Ni Ni 0.3393 1.1124 'International Tables Vol C Tables 4.2.6.8 and 6.1.1.4'

_computing_data_collection       ?
_computing_cell_refinement       ?
_computing_data_reduction        ?
_computing_structure_solution    'SHELXS-97 (Sheldrick, 2008)'
_computing_structure_refinement  'SHELXL-97 (Sheldrick, 2008)'
_computing_molecular_graphics    ?
_computing_publication_material  ?

loop_
_atom_site_type_symbol
_atom_site_label
_atom_site_fract_x
_atom_site_fract_y
_atom_site_fract_z
_atom_site_U_iso_or_equiv
_atom_site_adp_type
_atom_site_calc_flag
_atom_site_refinement_flags
_atom_site_occupancy
_atom_site_disorder_assembly
_atom_site_disorder_group
Ni Ni1 0.5 1.0 -0.0479(3) 0.0273(4) Uani d S 1 . .
N N1 0.6033(6) 0.8726(10) 0.0877(7) 0.0334(16) Uani d . 1 . .
O O1 0.3945(4) 0.7564(8) -0.0893(5) 0.0402(15) Uani d . 1 . .
O O2 0.6161(6) 0.9424(10) -0.1931(6) 0.0449(18) Uani d . 1 . .
C C1 0.3485(6) 0.8714(12) -0.1744(9) 0.037(2) Uani d . 1 . .
C C2 0.7623(6) 0.7159(12) 0.2423(8) 0.0315(17) Uani d . 1 . .
C C3 0.7233(7) 0.9172(13) 0.2592(9) 0.041(2) Uani d . 1 . .
H H3 0.7501 1.0029 0.3243 0.049 Uiso calc R 1 . .
C C4 0.6458(7) 0.9878(11) 0.1798(11) 0.040(2) Uani d . 1 . .
H H4 0.6211 1.1247 0.1907 0.048 Uiso calc R 1 . .
C C5 0.6386(7) 0.6720(12) 0.0696(8) 0.039(2) Uani d . 1 . .
H H5 0.609 0.5901 0.0045 0.047 Uiso calc R 1 . .
C C6 0.7179(6) 0.5892(13) 0.1473(9) 0.037(2) Uani d . 1 . .
H H6 0.7411 0.4514 0.1361 0.044 Uiso calc R 1 . .

loop_
_atom_site_aniso_label
_atom_site_aniso_U_11
_atom_site_aniso_U_22
_atom_site_aniso_U_33
_atom_site_aniso_U_12
_atom_site_aniso_U_13
_atom_site_aniso_U_23
Ni1 0.0208(6) 0.0322(5) 0.0289(6) -0.0011(5) 0 0
N1 0.032(4) 0.034(3) 0.033(4) 0.007(3) 0.001(4) 0.000(3)
O1 0.037(3) 0.041(3) 0.043(4) -0.009(2) -0.009(3) 0.009(2)
O2 0.052(4) 0.036(3) 0.046(4) -0.006(3) 0.008(4) -0.008(3)
C1 0.031(4) 0.040(4) 0.040(5) -0.004(4) -0.002(4) 0.005(4)
C2 0.023(4) 0.038(4) 0.034(4) 0.003(3) -0.003(3) -0.002(3)
C3 0.037(5) 0.034(4) 0.051(6) 0.004(4) -0.018(5) -0.014(4)
C4 0.041(5) 0.031(4) 0.048(6) 0.006(4) -0.010(5) -0.008(4)
C5 0.045(5) 0.033(4) 0.039(5) 0.002(4) -0.014(4) -0.008(3)
C6 0.029(5) 0.033(4) 0.047(6) 0.009(4) -0.008(4) -0.006(4)

_geom_special_details            
;
All esds (except the esd in the dihedral angle between two l.s. planes)
are estimated using the full covariance matrix. The cell esds are taken
into account individually in the estimation of esds in distances, angles
and torsion angles; correlations between esds in cell parameters are only
used when they are defined by crystal symmetry. An approximate (isotropic)
treatment of cell esds is used for estimating esds involving l.s. planes.
;

loop_
_geom_bond_atom_site_label_1
_geom_bond_atom_site_label_2
_geom_bond_site_symmetry_2
_geom_bond_distance
_geom_bond_publ_flag
Ni1 N1 2_675 2.074(7) ?
Ni1 N1 . 2.074(7) ?
Ni1 O1 2_675 2.079(5) ?
Ni1 O1 . 2.079(5) ?
Ni1 O2 2_675 2.124(7) ?
Ni1 O2 . 2.124(7) ?
Ni1 C1 2_675 2.444(8) ?
Ni1 C1 . 2.444(8) ?
N1 C4 . 1.316(12) ?
N1 C5 . 1.362(9) ?
O1 C1 . 1.282(9) ?
O2 C1 2_675 1.278(10) ?
C1 O2 2_675 1.278(10) ?
C1 C2 3_464 1.489(10) ?
C2 C3 . 1.380(10) ?
C2 C6 . 1.389(11) ?
C2 C1 3_565 1.489(10) ?
C3 C4 . 1.349(12) ?
C5 C6 . 1.382(11) ?

loop_
_geom_angle_atom_site_label_1
_geom_angle_atom_site_label_2
_geom_angle_atom_site_label_3
_geom_angle_site_symmetry_1
_geom_angle_site_symmetry_3
_geom_angle
_geom_angle_publ_flag
N1 Ni1 N1 2_675 . 94.5(4) ?
N1 Ni1 O1 2_675 2_675 104.1(2) ?
N1 Ni1 O1 . 2_675 92.1(2) ?
N1 Ni1 O1 2_675 . 92.1(2) ?
N1 Ni1 O1 . . 104.1(2) ?
O1 Ni1 O1 2_675 . 156.2(4) ?
N1 Ni1 O2 2_675 2_675 89.4(2) ?
N1 Ni1 O2 . 2_675 166.9(2) ?
O1 Ni1 O2 2_675 2_675 99.1(2) ?
O1 Ni1 O2 . 2_675 63.1(2) ?
N1 Ni1 O2 2_675 . 166.9(2) ?
N1 Ni1 O2 . . 89.4(2) ?
O1 Ni1 O2 2_675 . 63.1(2) ?
O1 Ni1 O2 . . 99.1(2) ?
O2 Ni1 O2 2_675 . 89.6(4) ?
N1 Ni1 C1 2_675 2_675 135.7(2) ?
N1 Ni1 C1 . 2_675 90.7(3) ?
O1 Ni1 C1 2_675 2_675 31.6(2) ?
O1 Ni1 C1 . 2_675 129.0(3) ?
O2 Ni1 C1 2_675 2_675 95.2(3) ?
O2 Ni1 C1 . 2_675 31.5(3) ?
N1 Ni1 C1 2_675 . 90.7(3) ?
N1 Ni1 C1 . . 135.7(2) ?
O1 Ni1 C1 2_675 . 129.0(3) ?
O1 Ni1 C1 . . 31.6(2) ?
O2 Ni1 C1 2_675 . 31.5(3) ?
O2 Ni1 C1 . . 95.2(3) ?
C1 Ni1 C1 2_675 . 115.0(4) ?
C4 N1 C5 . . 119.4(8) ?
C4 N1 Ni1 . . 121.8(6) ?
C5 N1 Ni1 . . 118.3(6) ?
C1 O1 Ni1 . . 90.1(4) ?
C1 O2 Ni1 2_675 . 88.2(5) ?
O2 C1 O1 2_675 . 118.5(8) ?
O2 C1 C2 2_675 3_464 120.5(7) ?
O1 C1 C2 . 3_464 120.8(7) ?
O2 C1 Ni1 2_675 . 60.3(4) ?
O1 C1 Ni1 . . 58.3(4) ?
C2 C1 Ni1 3_464 . 175.6(6) ?
C3 C2 C6 . . 119.1(7) ?
C3 C2 C1 . 3_565 121.8(7) ?
C6 C2 C1 . 3_565 119.0(7) ?
C4 C3 C2 . . 119.0(8) ?
N1 C4 C3 . . 123.3(8) ?
N1 C5 C6 . . 120.6(8) ?
C5 C6 C2 . . 118.7(7) ?
