####################################################################### 
# 
# This file contains crystal structure data downloaded from the 
# Cambridge Structural Database (CSD) hosted by the Cambridge 
# Crystallographic Data Centre (CCDC).
# 
# Full information about CCDC data access policies and citation 
# guidelines are available at http://www.ccdc.cam.ac.uk/access/V1 
# 
# Audit and citation data items may have been added by the CCDC. 
# Please retain this information to preserve the provenance of 
# this file and to allow appropriate attribution of the data. 
# 
#######################################################################

data_ac47
_audit_block_doi                 10.5517/ccpz4qh
_database_code_depnum_ccdc_archive 'CCDC 654587'
loop_
_citation_id
_citation_doi
_citation_year
1 10.1021/cg7009836 2008
_audit_update_record             
;
2007-07-18 deposited with the CCDC.	2024-07-13 downloaded from the CCDC.
;

_audit_creation_method           SHELXL-97
_chemical_name_systematic        
;
?
;
_chemical_name_common            ?
_chemical_melting_point          ?
_chemical_formula_moiety         ?
_chemical_formula_sum            'C15 H20 Cu N2 O8 S2'
_chemical_formula_weight         483.99

loop_
_atom_type_symbol
_atom_type_description
_atom_type_scat_dispersion_real
_atom_type_scat_dispersion_imag
_atom_type_scat_source
C C 0.0033 0.0016 'International Tables Vol C Tables 4.2.6.8 and 6.1.1.4'
H H 0.0000 0.0000 'International Tables Vol C Tables 4.2.6.8 and 6.1.1.4'
N N 0.0061 0.0033 'International Tables Vol C Tables 4.2.6.8 and 6.1.1.4'
O O 0.0106 0.0060 'International Tables Vol C Tables 4.2.6.8 and 6.1.1.4'
S S 0.1246 0.1234 'International Tables Vol C Tables 4.2.6.8 and 6.1.1.4'
Cu Cu 0.3201 1.2651 'International Tables Vol C Tables 4.2.6.8 and 6.1.1.4'

_symmetry_cell_setting           Monoclinic
_symmetry_space_group_name_H-M   P2(1)/n

loop_
_symmetry_equiv_pos_as_xyz
'x, y, z'
'-x+1/2, y+1/2, -z+1/2'
'-x, -y, -z'
'x-1/2, -y-1/2, z-1/2'

_cell_length_a                   4.8474(6)
_cell_length_b                   25.814(3)
_cell_length_c                   15.3589(18)
_cell_angle_alpha                90.00
_cell_angle_beta                 92.348(2)
_cell_angle_gamma                90.00
_cell_volume                     1920.3(4)
_cell_formula_units_Z            4
_cell_measurement_temperature    293(2)
_cell_measurement_reflns_used    ?
_cell_measurement_theta_min      ?
_cell_measurement_theta_max      ?

_exptl_crystal_description       PRISM
_exptl_crystal_colour            BLUE
_exptl_crystal_size_max          0.20
_exptl_crystal_size_mid          0.18
_exptl_crystal_size_min          0.17
_exptl_crystal_density_meas      ?
_exptl_crystal_density_diffrn    1.674
_exptl_crystal_density_method    'not measured'
_exptl_crystal_F_000             996
_exptl_absorpt_coefficient_mu    1.401
_exptl_absorpt_correction_type   multi-scan
_exptl_absorpt_correction_T_min  0.7611
_exptl_absorpt_correction_T_max  1.0000
_exptl_absorpt_process_details   ?

_exptl_special_details           
;
?
;

_diffrn_ambient_temperature      293(2)
_diffrn_radiation_wavelength     0.71073
_diffrn_radiation_type           MoK\a
_diffrn_radiation_source         'fine-focus sealed tube'
_diffrn_radiation_monochromator  graphite
_diffrn_measurement_device_type  'CCD area detector'
_diffrn_measurement_method       'phi and omega scans'
_diffrn_detector_area_resol_mean ?
_diffrn_standards_number         ?
_diffrn_standards_interval_count ?
_diffrn_standards_interval_time  ?
_diffrn_standards_decay_%        ?
_diffrn_reflns_number            12617
_diffrn_reflns_av_R_equivalents  0.1070
_diffrn_reflns_av_sigmaI/netI    0.1838
_diffrn_reflns_limit_h_min       -5
_diffrn_reflns_limit_h_max       6
_diffrn_reflns_limit_k_min       -20
_diffrn_reflns_limit_k_max       34
_diffrn_reflns_limit_l_min       -19
_diffrn_reflns_limit_l_max       20
_diffrn_reflns_theta_min         1.54
_diffrn_reflns_theta_max         28.08
_reflns_number_total             4621
_reflns_number_gt                1982
_reflns_threshold_expression     >2sigma(I)

_computing_data_collection       'Bruker SMART'
_computing_cell_refinement       'Bruker SMART'
_computing_data_reduction        'Bruker SHELXTL'
_computing_structure_solution    'SHELXS-97 (Sheldrick, 1990)'
_computing_structure_refinement  'SHELXL-97 (Sheldrick, 1997)'
_computing_molecular_graphics    'Bruker SHELXTL'
_computing_publication_material  'Bruker SHELXTL'

_refine_special_details          
;
Refinement of F^2^ against ALL reflections. The weighted R-factor wR and
goodness of fit S are based on F^2^, conventional R-factors R are based
on F, with F set to zero for negative F^2^. The threshold expression of
F^2^ > 2sigma(F^2^) is used only for calculating R-factors(gt) etc. and is
not relevant to the choice of reflections for refinement. R-factors based
on F^2^ are statistically about twice as large as those based on F, and R-
factors based on ALL data will be even larger.
;

_refine_ls_structure_factor_coef Fsqd
_refine_ls_matrix_type           full
_refine_ls_weighting_scheme      calc
_refine_ls_weighting_details     
'calc w=1/[\s^2^(Fo^2^)+(0.0224P)^2^+0.0000P] where P=(Fo^2^+2Fc^2^)/3'
_atom_sites_solution_primary     direct
_atom_sites_solution_secondary   difmap
_atom_sites_solution_hydrogens   geom
_refine_ls_hydrogen_treatment    mixed
_refine_ls_extinction_method     none
_refine_ls_extinction_coef       ?
_refine_ls_number_reflns         4621
_refine_ls_number_parameters     261
_refine_ls_number_restraints     0
_refine_ls_R_factor_all          0.1404
_refine_ls_R_factor_gt           0.0518
_refine_ls_wR_factor_ref         0.0933
_refine_ls_wR_factor_gt          0.0775
_refine_ls_goodness_of_fit_ref   0.759
_refine_ls_restrained_S_all      0.759
_refine_ls_shift/su_max          0.008
_refine_ls_shift/su_mean         0.001

loop_
_atom_site_label
_atom_site_type_symbol
_atom_site_fract_x
_atom_site_fract_y
_atom_site_fract_z
_atom_site_U_iso_or_equiv
_atom_site_adp_type
_atom_site_occupancy
_atom_site_symmetry_multiplicity
_atom_site_calc_flag
_atom_site_refinement_flags
_atom_site_disorder_assembly
_atom_site_disorder_group
Cu Cu 0.27298(11) 0.17409(2) 0.32731(3) 0.03268(16) Uani 1 1 d . . .
S1 S 0.7348(3) 0.41365(4) 0.32523(8) 0.0453(3) Uani 1 1 d . . .
S2 S 0.7007(3) 0.43783(5) 0.13238(8) 0.0478(4) Uani 1 1 d . . .
N1 N 0.3914(7) 0.24939(13) 0.3182(2) 0.0328(9) Uani 1 1 d . . .
N2 N 0.3517(7) 0.59993(13) 0.1671(2) 0.0325(9) Uani 1 1 d . . .
C1 C 0.2985(9) 0.28745(18) 0.3691(3) 0.0379(12) Uani 1 1 d . . .
H1 H 0.1606 0.2793 0.4072 0.046 Uiso 1 1 calc R . .
C2 C 0.3935(9) 0.33742(17) 0.3686(3) 0.0378(12) Uani 1 1 d . . .
H2 H 0.3199 0.3623 0.4049 0.045 Uiso 1 1 calc R . .
C3 C 0.6010(9) 0.35030(16) 0.3132(3) 0.0309(11) Uani 1 1 d . . .
C4 C 0.6955(9) 0.31225(16) 0.2592(3) 0.0350(11) Uani 1 1 d . . .
H4 H 0.8303 0.3198 0.2197 0.042 Uiso 1 1 calc R . .
C5 C 0.5904(9) 0.26317(17) 0.2638(3) 0.0350(11) Uani 1 1 d . . .
H5 H 0.6600 0.2379 0.2275 0.042 Uiso 1 1 calc R . .
C6 C 0.9158(9) 0.42436(17) 0.2273(3) 0.0402(12) Uani 1 1 d . . .
H6C H 1.0419 0.4532 0.2369 0.048 Uiso 1 1 calc R . .
H6B H 1.0259 0.3939 0.2159 0.048 Uiso 1 1 calc R . .
C7 C 0.2508(9) 0.56618(18) 0.1081(3) 0.0370(12) Uani 1 1 d . . .
H7 H 0.1037 0.5767 0.0714 0.044 Uiso 1 1 calc R . .
C8 C 0.3509(10) 0.51720(17) 0.0983(3) 0.0410(12) Uani 1 1 d . . .
H8 H 0.2747 0.4955 0.0553 0.049 Uiso 1 1 calc R . .
C9 C 0.5662(10) 0.49988(16) 0.1527(3) 0.0353(11) Uani 1 1 d . . .
C10 C 0.6657(9) 0.53387(17) 0.2162(3) 0.0397(12) Uani 1 1 d . . .
H10 H 0.8065 0.5238 0.2555 0.048 Uiso 1 1 calc R . .
C11 C -0.0550(10) 0.08249(17) 0.2794(3) 0.0386(12) Uani 1 1 d . . .
H11 H -0.1258 0.1048 0.2365 0.046 Uiso 1 1 calc R . .
O21 O 0.4120(6) 0.15926(11) 0.21196(18) 0.0367(8) Uani 1 1 d . . .
O22 O 0.0122(7) 0.18779(13) 0.1542(2) 0.0613(10) Uani 1 1 d . . .
O23 O 0.6161(9) 0.1392(2) 0.0552(3) 0.0892(16) Uani 1 1 d . . .
C22 C 0.2475(10) 0.16961(18) 0.1486(3) 0.0402(12) Uani 1 1 d . . .
C23 C 0.3464(11) 0.1569(2) 0.0587(3) 0.0574(15) Uani 1 1 d . . .
H13A H 0.2247 0.1308 0.0329 0.069 Uiso 1 1 calc R . .
H13B H 0.3280 0.1878 0.0229 0.069 Uiso 1 1 calc R . .
O11 O 0.6878(6) 0.16023(11) 0.39935(19) 0.0437(8) Uani 1 1 d . . .
O12 O 1.1066(6) 0.18780(10) 0.44035(17) 0.0367(8) Uani 1 1 d . . .
O13 O 0.5218(8) 0.16301(16) 0.5683(2) 0.0567(11) Uani 1 1 d . . .
C12 C 0.8580(9) 0.17639(16) 0.4552(3) 0.0285(10) Uani 1 1 d . . .
C13 C 0.7772(9) 0.18365(18) 0.5477(3) 0.0437(12) Uani 1 1 d . . .
H15A H 0.9184 0.1680 0.5858 0.052 Uiso 1 1 calc R . .
H15B H 0.7756 0.2205 0.5602 0.052 Uiso 1 1 calc R . .
H6A H 0.408(11) 0.176(2) 0.540(3) 0.07(2) Uiso 1 1 d . . .
H3A H 0.709(13) 0.158(2) 0.093(4) 0.12(3) Uiso 1 1 d . . .
O1W O 0.3137(14) 0.0112(2) 0.1064(4) 0.192(3) Uani 1 1 d . . .
O2W O 0.7624(14) 0.0437(3) 0.0490(4) 0.200(3) Uani 1 1 d . . .

loop_
_atom_site_aniso_label
_atom_site_aniso_U_11
_atom_site_aniso_U_22
_atom_site_aniso_U_33
_atom_site_aniso_U_23
_atom_site_aniso_U_13
_atom_site_aniso_U_12
Cu 0.0311(3) 0.0382(4) 0.0293(3) -0.0025(3) 0.0072(2) -0.0062(3)
S1 0.0644(10) 0.0306(8) 0.0416(7) 0.0003(6) 0.0099(6) -0.0058(6)
S2 0.0689(10) 0.0348(8) 0.0400(8) 0.0004(6) 0.0055(7) 0.0079(6)
N1 0.030(2) 0.036(2) 0.033(2) -0.0015(17) 0.0069(17) 0.0003(17)
N2 0.030(2) 0.035(2) 0.033(2) 0.0029(18) 0.0068(18) 0.0027(17)
C1 0.035(3) 0.047(3) 0.033(3) -0.007(2) 0.010(2) -0.003(2)
C2 0.041(3) 0.038(3) 0.035(3) -0.003(2) 0.007(2) 0.007(2)
C3 0.033(3) 0.036(3) 0.023(2) 0.002(2) 0.000(2) 0.003(2)
C4 0.037(3) 0.037(3) 0.032(3) 0.001(2) 0.012(2) -0.004(2)
C5 0.036(3) 0.036(3) 0.033(3) -0.007(2) 0.009(2) 0.000(2)
C6 0.038(3) 0.031(3) 0.053(3) 0.006(2) 0.011(2) -0.001(2)
C7 0.031(3) 0.043(3) 0.037(3) 0.001(2) 0.002(2) 0.006(2)
C8 0.050(3) 0.038(3) 0.035(3) -0.005(2) 0.004(2) 0.003(2)
C9 0.045(3) 0.032(3) 0.030(3) 0.001(2) 0.009(2) -0.004(2)
C10 0.043(3) 0.037(3) 0.039(3) 0.003(2) 0.002(2) 0.011(2)
C11 0.048(3) 0.035(3) 0.033(3) 0.001(2) 0.002(2) -0.003(2)
O21 0.037(2) 0.048(2) 0.0259(18) -0.0032(14) 0.0058(15) -0.0050(15)
O22 0.037(2) 0.086(3) 0.060(2) -0.0042(19) 0.0072(18) 0.006(2)
O23 0.045(3) 0.178(5) 0.046(3) -0.037(3) 0.015(2) -0.003(3)
C22 0.040(3) 0.045(3) 0.037(3) -0.008(2) 0.013(2) -0.015(3)
C23 0.044(4) 0.091(4) 0.037(3) -0.006(3) 0.005(3) -0.003(3)
O11 0.0288(19) 0.068(2) 0.0346(19) -0.0092(16) -0.0008(15) 0.0042(16)
O12 0.0251(18) 0.047(2) 0.0395(18) -0.0028(14) 0.0131(14) -0.0108(14)
O13 0.034(2) 0.092(3) 0.045(2) 0.020(2) 0.0150(19) -0.002(2)
C12 0.033(3) 0.025(3) 0.027(2) 0.004(2) 0.003(2) 0.008(2)
C13 0.039(3) 0.053(3) 0.040(3) -0.004(2) 0.007(2) -0.004(2)
O1W 0.193(7) 0.189(6) 0.193(6) 0.012(5) 0.005(5) 0.053(5)
O2W 0.186(7) 0.211(7) 0.199(7) 0.011(5) -0.027(5) 0.026(5)

_geom_special_details            
;
All esds (except the esd in the dihedral angle between two l.s. planes)
are estimated using the full covariance matrix. The cell esds are taken
into account individually in the estimation of esds in distances, angles
and torsion angles; correlations between esds in cell parameters are only
used when they are defined by crystal symmetry. An approximate (isotropic)
treatment of cell esds is used for estimating esds involving l.s. planes.
;

loop_
_geom_bond_atom_site_label_1
_geom_bond_atom_site_label_2
_geom_bond_distance
_geom_bond_site_symmetry_2
_geom_bond_publ_flag
Cu O21 1.959(3) . ?
Cu O12 1.976(3) 1_455 ?
Cu N2 2.010(3) 2_545 ?
Cu N1 2.033(3) . ?
Cu O11 2.283(3) . ?
Cu Cu 4.8474(6) 1_455 ?
Cu Cu 13.1241(14) 2_545 ?
S1 C3 1.766(4) . ?
S1 C6 1.793(4) . ?
S2 C9 1.762(4) . ?
S2 C6 1.791(4) . ?
N1 C1 1.345(5) . ?
N1 C5 1.349(5) . ?
N2 C7 1.335(5) . ?
N2 C11 1.335(5) 2 ?
N2 Cu 2.010(3) 2 ?
C1 C2 1.370(5) . ?
C2 C3 1.385(5) . ?
C3 C4 1.376(5) . ?
C4 C5 1.368(5) . ?
C7 C8 1.365(5) . ?
C8 C9 1.384(6) . ?
C9 C10 1.383(5) . ?
C10 C11 1.368(5) 2 ?
C11 N2 1.335(5) 2_545 ?
C11 C10 1.368(5) 2_545 ?
O21 C22 1.261(5) . ?
O22 C22 1.239(5) . ?
O23 C23 1.388(6) . ?
O23 O2W 2.569(8) . ?
C22 C23 1.516(6) . ?
O11 C12 1.237(4) . ?
O12 C12 1.270(4) . ?
O12 Cu 1.976(3) 1_655 ?
O13 C13 1.396(5) . ?
C12 C13 1.501(5) . ?
O1W O2W 2.524(9) . ?
O1W O2W 2.787(9) 3_655 ?
O2W O1W 2.903(8) 1_655 ?

loop_
_geom_angle_atom_site_label_1
_geom_angle_atom_site_label_2
_geom_angle_atom_site_label_3
_geom_angle
_geom_angle_site_symmetry_1
_geom_angle_site_symmetry_3
_geom_angle_publ_flag
O21 Cu O12 175.99(12) . 1_455 ?
O21 Cu N2 88.17(13) . 2_545 ?
O12 Cu N2 89.92(12) 1_455 2_545 ?
O21 Cu N1 90.91(13) . . ?
O12 Cu N1 90.90(13) 1_455 . ?
N2 Cu N1 178.21(15) 2_545 . ?
O21 Cu O11 94.52(11) . . ?
O12 Cu O11 89.17(11) 1_455 . ?
N2 Cu O11 95.18(13) 2_545 . ?
N1 Cu O11 86.42(12) . . ?
O21 Cu Cu 112.41(9) . 1_455 ?
O12 Cu Cu 63.63(8) 1_455 1_455 ?
N2 Cu Cu 72.40(10) 2_545 1_455 ?
N1 Cu Cu 106.57(10) . 1_455 ?
O11 Cu Cu 149.41(7) . 1_455 ?
O21 Cu Cu 69.40(8) . 2_545 ?
O12 Cu Cu 109.31(8) 1_455 2_545 ?
N2 Cu Cu 21.31(9) 2_545 2_545 ?
N1 Cu Cu 158.51(10) . 2_545 ?
O11 Cu Cu 86.66(7) . 2_545 ?
Cu Cu Cu 89.452(5) 1_455 2_545 ?
C3 S1 C6 104.2(2) . . ?
C9 S2 C6 103.9(2) . . ?
C1 N1 C5 115.6(4) . . ?
C1 N1 Cu 123.8(3) . . ?
C5 N1 Cu 120.4(3) . . ?
C7 N2 C11 116.0(4) . 2 ?
C7 N2 Cu 123.2(3) . 2 ?
C11 N2 Cu 120.7(3) 2 2 ?
N1 C1 C2 124.3(4) . . ?
C1 C2 C3 118.8(4) . . ?
C4 C3 C2 117.8(4) . . ?
C4 C3 S1 126.5(3) . . ?
C2 C3 S1 115.5(3) . . ?
C5 C4 C3 119.7(4) . . ?
N1 C5 C4 123.6(4) . . ?
S2 C6 S1 115.1(2) . . ?
N2 C7 C8 123.8(4) . . ?
C7 C8 C9 119.7(4) . . ?
C10 C9 C8 116.9(4) . . ?
C10 C9 S2 125.5(4) . . ?
C8 C9 S2 117.5(3) . . ?
C11 C10 C9 119.4(4) 2 . ?
N2 C11 C10 124.1(4) 2_545 2_545 ?
C22 O21 Cu 115.2(3) . . ?
C23 O23 O2W 125.4(4) . . ?
O22 C22 O21 125.6(4) . . ?
O22 C22 C23 118.1(5) . . ?
O21 C22 C23 116.3(4) . . ?
O23 C23 C22 116.1(4) . . ?
C12 O11 Cu 146.3(3) . . ?
C12 O12 Cu 122.7(3) . 1_655 ?
O11 C12 O12 124.4(4) . . ?
O11 C12 C13 120.4(4) . . ?
O12 C12 C13 115.3(4) . . ?
O13 C13 C12 115.8(4) . . ?
O2W O1W O2W 87.5(3) . 3_655 ?
O1W O2W O23 93.6(3) . . ?
O1W O2W O1W 126.4(3) . 1_655 ?
O23 O2W O1W 121.2(3) . 1_655 ?

loop_
_geom_torsion_atom_site_label_1
_geom_torsion_atom_site_label_2
_geom_torsion_atom_site_label_3
_geom_torsion_atom_site_label_4
_geom_torsion
_geom_torsion_site_symmetry_1
_geom_torsion_site_symmetry_2
_geom_torsion_site_symmetry_3
_geom_torsion_site_symmetry_4
_geom_torsion_publ_flag
C3 S1 C6 S2 76.3(3) . . . . ?
S1 C6 S2 C9 69.5(3) . . . . ?

loop_
_geom_hbond_atom_site_label_D
_geom_hbond_atom_site_label_H
_geom_hbond_atom_site_label_A
_geom_hbond_distance_DH
_geom_hbond_distance_HA
_geom_hbond_distance_DA
_geom_hbond_angle_DHA
_geom_hbond_site_symmetry_A
O13 H6A O12 0.76(5) 2.10(5) 2.828(5) 161(6) 1_455
O23 H3A O22 0.86(6) 1.88(6) 2.707(6) 160(6) 1_655

_diffrn_measured_fraction_theta_max 0.984
_diffrn_reflns_theta_full        28.08
_diffrn_measured_fraction_theta_full 0.984
_refine_diff_density_max         0.453
_refine_diff_density_min         -0.467
_refine_diff_density_rms         0.086
