####################################################################### 
# 
# This file contains crystal structure data downloaded from the 
# Cambridge Structural Database (CSD) hosted by the Cambridge 
# Crystallographic Data Centre (CCDC).
# 
# Full information about CCDC data access policies and citation 
# guidelines are available at http://www.ccdc.cam.ac.uk/access/V1 
# 
# Audit and citation data items may have been added by the CCDC. 
# Please retain this information to preserve the provenance of 
# this file and to allow appropriate attribution of the data. 
# 
#######################################################################

data_1
_audit_block_doi                 10.5517/ccz2dt7
_database_code_depnum_ccdc_archive 'CCDC 896049'
loop_
_citation_id
_citation_doi
_citation_year
1 10.1039/C3TA11840A 2013
_audit_update_record             
;
2012-08-14 deposited with the CCDC.	2024-07-13 downloaded from the CCDC.
;
#TrackingRef 'Pb.cif'


_audit_creation_method           SHELXL-97
_chemical_name_systematic        
;
?
;
_chemical_name_common            ?
_chemical_melting_point          ?
_chemical_formula_moiety         'C69 H42 O14 Pb3'
_chemical_formula_sum            'C69 H42 O14 Pb3'
_chemical_formula_weight         1716.60

loop_
_atom_type_symbol
_atom_type_description
_atom_type_scat_dispersion_real
_atom_type_scat_dispersion_imag
_atom_type_scat_source
C C 0.0033 0.0016 'International Tables Vol C Tables 4.2.6.8 and 6.1.1.4'
H H 0.0000 0.0000 'International Tables Vol C Tables 4.2.6.8 and 6.1.1.4'
O O 0.0106 0.0060 'International Tables Vol C Tables 4.2.6.8 and 6.1.1.4'
Pb Pb -3.3944 10.1111 'International Tables Vol C Tables 4.2.6.8 and 6.1.1.4'

_symmetry_cell_setting           Monoclinic
_symmetry_space_group_name_H-M   C2/c

loop_
_symmetry_equiv_pos_as_xyz
'x, y, z'
'-x, y, -z+1/2'
'x+1/2, y+1/2, z'
'-x+1/2, y+1/2, -z+1/2'
'-x, -y, -z'
'x, -y, z-1/2'
'-x+1/2, -y+1/2, -z'
'x+1/2, -y+1/2, z-1/2'

_cell_length_a                   26.4685(12)
_cell_length_b                   22.6646(11)
_cell_length_c                   40.1626(18)
_cell_angle_alpha                90.00
_cell_angle_beta                 100.1710(10)
_cell_angle_gamma                90.00
_cell_volume                     23714.8(19)
_cell_formula_units_Z            8
_cell_measurement_temperature    293(2)
_cell_measurement_reflns_used    7673
_cell_measurement_theta_min      2.38
_cell_measurement_theta_max      20.21

_exptl_crystal_description       colourless
_exptl_crystal_colour            block
_exptl_crystal_size_max          0.40
_exptl_crystal_size_mid          0.40
_exptl_crystal_size_min          0.40
_exptl_crystal_density_meas      ?
_exptl_crystal_density_diffrn    0.962
_exptl_crystal_density_method    'not measured'
_exptl_crystal_F_000             6512
_exptl_absorpt_coefficient_mu    4.283
_exptl_absorpt_correction_type   none
_exptl_absorpt_correction_T_min  0.2791
_exptl_absorpt_correction_T_max  0.2791
_exptl_absorpt_process_details   ?

_exptl_special_details           
;
?
;

_diffrn_ambient_temperature      293(2)
_diffrn_radiation_wavelength     0.71073
_diffrn_radiation_type           MoK\a
_diffrn_radiation_source         'fine-focus sealed tube'
_diffrn_radiation_monochromator  graphite
_diffrn_measurement_device_type  'CCD area detector'
_diffrn_measurement_method       'phi and omega scans'
_diffrn_detector_area_resol_mean ?
_diffrn_standards_number         ?
_diffrn_standards_interval_count ?
_diffrn_standards_interval_time  ?
_diffrn_standards_decay_%        ?
_diffrn_reflns_number            60662
_diffrn_reflns_av_R_equivalents  0.0589
_diffrn_reflns_av_sigmaI/netI    0.0933
_diffrn_reflns_limit_h_min       -31
_diffrn_reflns_limit_h_max       31
_diffrn_reflns_limit_k_min       -19
_diffrn_reflns_limit_k_max       27
_diffrn_reflns_limit_l_min       -48
_diffrn_reflns_limit_l_max       42
_diffrn_reflns_theta_min         1.19
_diffrn_reflns_theta_max         25.25
_reflns_number_total             21458
_reflns_number_gt                11144
_reflns_threshold_expression     >2sigma(I)

_computing_data_collection       'Bruker SMART'
_computing_cell_refinement       'Bruker SMART'
_computing_data_reduction        'Bruker SAINT'
_computing_structure_solution    'SHELXS-97 (Sheldrick, 1990)'
_computing_structure_refinement  'SHELXL-97 (Sheldrick, 1997)'
_computing_molecular_graphics    'Bruker SHELXTL'
_computing_publication_material  'Bruker SHELXTL'

_refine_special_details          
;
Refinement of F^2^ against ALL reflections. The weighted R-factor wR and
goodness of fit S are based on F^2^, conventional R-factors R are based
on F, with F set to zero for negative F^2^. The threshold expression of
F^2^ > 2sigma(F^2^) is used only for calculating R-factors(gt) etc. and is
not relevant to the choice of reflections for refinement. R-factors based
on F^2^ are statistically about twice as large as those based on F, and R-
factors based on ALL data will be even larger.
;

_refine_ls_structure_factor_coef Fsqd
_refine_ls_matrix_type           full
_refine_ls_weighting_scheme      calc
_refine_ls_weighting_details     
'calc w=1/[\s^2^(Fo^2^)+(0.1345P)^2^+0.0000P] where P=(Fo^2^+2Fc^2^)/3'
_atom_sites_solution_primary     direct
_atom_sites_solution_secondary   difmap
_atom_sites_solution_hydrogens   geom
_refine_ls_hydrogen_treatment    constr
_refine_ls_extinction_method     none
_refine_ls_extinction_coef       ?
_refine_ls_number_reflns         21458
_refine_ls_number_parameters     775
_refine_ls_number_restraints     53
_refine_ls_R_factor_all          0.1188
_refine_ls_R_factor_gt           0.0723
_refine_ls_wR_factor_ref         0.2316
_refine_ls_wR_factor_gt          0.2130
_refine_ls_goodness_of_fit_ref   0.961
_refine_ls_restrained_S_all      0.975
_refine_ls_shift/su_max          0.001
_refine_ls_shift/su_mean         0.000

loop_
_atom_site_label
_atom_site_type_symbol
_atom_site_fract_x
_atom_site_fract_y
_atom_site_fract_z
_atom_site_U_iso_or_equiv
_atom_site_adp_type
_atom_site_occupancy
_atom_site_symmetry_multiplicity
_atom_site_calc_flag
_atom_site_refinement_flags
_atom_site_disorder_assembly
_atom_site_disorder_group
C3 C 0.4421(3) 0.4019(4) 0.0570(3) 0.041(2) Uani 1 1 d . . .
C4 C 0.4308(4) 0.4024(4) 0.0179(2) 0.047(2) Uani 1 1 d . . .
C8 C 0.3951(4) 0.3179(5) 0.1272(3) 0.051(3) Uani 1 1 d . . .
C9 C 0.4154(4) 0.3615(4) 0.0731(3) 0.050(3) Uani 1 1 d . . .
C10 C 0.3942(4) 0.4365(4) 0.0008(3) 0.049(3) Uani 1 1 d . . .
H10A H 0.3750 0.4603 0.0128 0.059 Uiso 1 1 calc R . .
C12 C 0.4244(4) 0.3601(4) 0.1100(3) 0.044(2) Uani 1 1 d . . .
C13 C 0.5227(3) 0.4811(4) 0.1305(3) 0.049(3) Uani 1 1 d . . .
C14 C 0.3499(4) 0.3323(5) 0.1376(3) 0.062(3) Uani 1 1 d . . .
H14A H 0.3357 0.3694 0.1323 0.075 Uiso 1 1 calc R . .
C15 C 0.4609(4) 0.3671(5) 0.0008(3) 0.060(3) Uani 1 1 d . . .
H15A H 0.4869 0.3444 0.0132 0.072 Uiso 1 1 calc R . .
C16 C 0.5572(4) 0.6719(4) 0.1843(3) 0.070(4) Uani 1 1 d . . .
H16A H 0.5917 0.6665 0.1830 0.084 Uiso 1 1 calc R . .
C17 C 0.5386(4) 0.5707(4) 0.1616(3) 0.054(3) Uani 1 1 d . . .
C18 C 0.4133(4) 0.4028(5) -0.0507(3) 0.059(3) Uani 1 1 d . . .
H18A H 0.4070 0.4039 -0.0742 0.070 Uiso 1 1 calc R . .
C19 C 0.7647(4) 0.4550(5) 0.1955(3) 0.068(3) Uani 1 1 d . . .
C20 C 0.5227(4) 0.6288(5) 0.1747(3) 0.055(3) Uani 1 1 d . . .
C21 C 0.4828(4) 0.3269(6) -0.0526(3) 0.077(4) Uani 1 1 d . . .
C22 C 0.5065(4) 0.5329(4) 0.1419(3) 0.053(3) Uani 1 1 d U . .
H22A H 0.4721 0.5429 0.1359 0.063 Uiso 1 1 calc R . .
C23 C 0.5738(4) 0.4650(5) 0.1391(3) 0.061(3) Uani 1 1 d . . .
H23A H 0.5852 0.4300 0.1309 0.073 Uiso 1 1 calc R . .
C24 C 0.4132(4) 0.2599(5) 0.1327(3) 0.061(3) Uani 1 1 d . . .
H24A H 0.4428 0.2482 0.1251 0.074 Uiso 1 1 calc R . .
C25 C 0.4527(4) 0.3652(5) -0.0344(3) 0.059(3) Uani 1 1 d . . .
C26 C 0.3759(4) 0.3196(5) 0.0537(3) 0.078(4) Uani 1 1 d . . .
H26A H 0.3739 0.3258 0.0298 0.118 Uiso 1 1 calc R . .
H26B H 0.3430 0.3271 0.0597 0.118 Uiso 1 1 calc R . .
H26C H 0.3859 0.2796 0.0592 0.118 Uiso 1 1 calc R . .
C27 C 0.3837(3) 0.4378(5) -0.0337(3) 0.051(3) Uani 1 1 d . . .
C28 C 0.5907(4) 0.5546(5) 0.1711(3) 0.063(3) Uani 1 1 d . . .
H28A H 0.6136 0.5793 0.1848 0.076 Uiso 1 1 calc R . .
C29 C 0.4716(4) 0.6399(5) 0.1750(4) 0.087(5) Uani 1 1 d . . .
H29A H 0.4472 0.6117 0.1664 0.104 Uiso 1 1 calc R . .
C30 C 0.5399(4) 0.7265(5) 0.1968(3) 0.070(4) Uani 1 1 d . . .
H30A H 0.5642 0.7552 0.2046 0.084 Uiso 1 1 calc R . .
C31 C 0.8212(4) 0.4392(6) 0.2105(3) 0.068(3) Uani 1 1 d . . .
C32 C 0.3865(4) 0.2193(5) 0.1500(3) 0.071(4) Uani 1 1 d . . .
C33 C 0.3435(4) 0.4774(5) -0.0525(3) 0.059(3) Uani 1 1 d . . .
C34 C 0.7496(4) 0.5115(6) 0.1947(5) 0.118(7) Uani 1 1 d . . .
H34A H 0.7734 0.5400 0.2038 0.142 Uiso 1 1 calc R . .
C35 C 0.4042(6) 0.1558(6) 0.1548(4) 0.101(5) Uani 1 1 d . . .
C36 C 0.7319(4) 0.4132(5) 0.1803(3) 0.078(4) Uani 1 1 d . . .
H36A H 0.7434 0.3749 0.1779 0.094 Uiso 1 1 calc R . .
C37 C 0.3243(4) 0.2926(6) 0.1561(3) 0.072(4) Uani 1 1 d . . .
C38 C 0.6075(4) 0.5005(5) 0.1596(3) 0.066(3) Uani 1 1 d . . .
C39 C 0.4554(4) 0.6936(5) 0.1883(4) 0.081(4) Uani 1 1 d . . .
H39A H 0.4212 0.6982 0.1905 0.097 Uiso 1 1 calc R . .
C40 C 0.2610(5) 0.5460(7) -0.0856(3) 0.087(4) Uani 1 1 d . . .
C41 C 0.2202(7) 0.5821(10) -0.1035(4) 0.112(6) Uani 1 1 d . . .
C43 C 0.3737(6) 0.1113(7) 0.1575(4) 0.106(5) Uani 1 1 d . . .
H43A H 0.3390 0.1192 0.1563 0.127 Uiso 1 1 calc R . .
C44 C 0.3434(5) 0.2383(5) 0.1628(3) 0.081(4) Uani 1 1 d . . .
H44A H 0.3279 0.2129 0.1762 0.097 Uiso 1 1 calc R . .
C45 C 0.1886(5) 0.3479(6) 0.1918(4) 0.081(4) Uani 1 1 d . . .
C46 C 0.2789(4) 0.3134(6) 0.1694(3) 0.068(3) Uani 1 1 d . . .
C48 C 0.6637(4) 0.4841(5) 0.1720(3) 0.073(4) Uani 1 1 d . . .
C49 C 0.1410(5) 0.3628(7) 0.2054(4) 0.077(4) Uani 1 1 d . . .
C50 C 0.5406(5) 0.2532(7) -0.0871(3) 0.094(5) Uani 1 1 d . . .
C51 C 0.2427(6) 0.3543(8) 0.1513(4) 0.111(6) Uani 1 1 d . . .
H51A H 0.2489 0.3713 0.1313 0.133 Uiso 1 1 calc R . .
C52 C 0.4570(5) 0.1463(7) 0.1575(5) 0.120(6) Uani 1 1 d . . .
H52A H 0.4793 0.1774 0.1559 0.144 Uiso 1 1 calc R . .
C53 C 0.5735(7) 0.2096(8) -0.1027(3) 0.114(7) Uani 1 1 d . . .
C54 C 0.2708(5) 0.2955(7) 0.1998(4) 0.103(5) Uani 1 1 d . . .
H54A H 0.2949 0.2715 0.2130 0.124 Uiso 1 1 calc R . .
C56 C 0.6794(5) 0.4284(5) 0.1681(4) 0.090(5) Uani 1 1 d . . .
H56A H 0.6565 0.4002 0.1575 0.109 Uiso 1 1 calc R . .
C57 C 0.4755(6) 0.0879(8) 0.1627(5) 0.131(7) Uani 1 1 d . . .
H57A H 0.5105 0.0807 0.1652 0.157 Uiso 1 1 calc R . .
C59 C 0.2248(5) 0.3129(8) 0.2128(5) 0.124(7) Uani 1 1 d . . .
H59 H 0.2196 0.3012 0.2342 0.149 Uiso 1 1 calc R . .
C60 C 0.4964(6) 0.2731(9) -0.1008(3) 0.133(8) Uani 1 1 d . . .
H60A H 0.4831 0.2608 -0.1227 0.159 Uiso 1 1 calc R . .
C61 C 0.4677(6) 0.3107(8) -0.0859(3) 0.132(8) Uani 1 1 d . . .
H61A H 0.4374 0.3258 -0.0982 0.158 Uiso 1 1 calc R . .
C62 C 0.1998(4) 0.3681(6) 0.1633(4) 0.083(4) Uani 1 1 d . . .
H62A H 0.1766 0.3937 0.1506 0.100 Uiso 1 1 calc R . .
C63 C 0.3895(6) 0.0535(7) 0.1619(5) 0.113(6) Uani 1 1 d . . .
H63A H 0.3657 0.0238 0.1634 0.136 Uiso 1 1 calc R . .
C64 C 0.2982(5) 0.5697(8) -0.0600(4) 0.101(5) Uani 1 1 d . . .
H64A H 0.2965 0.6091 -0.0536 0.121 Uiso 1 1 calc R . .
C65 C 0.7004(5) 0.5296(7) 0.1810(4) 0.117(6) Uani 1 1 d . . .
H65A H 0.6918 0.5693 0.1779 0.141 Uiso 1 1 calc R . .
C66 C 0.5647(8) 0.2757(9) -0.0556(5) 0.145(7) Uani 1 1 d U . .
H66 H 0.5978 0.2653 -0.0455 0.174 Uiso 1 1 calc R . .
C67 C 0.4690(7) -0.0214(8) 0.1658(5) 0.175(7) Uani 1 1 d DU . .
C68 C 0.3405(5) 0.5309(7) -0.0431(4) 0.095(5) Uani 1 1 d . . .
H68A H 0.3648 0.5457 -0.0255 0.114 Uiso 1 1 calc R . .
C69 C 0.3084(6) 0.4560(8) -0.0796(5) 0.126(6) Uani 1 1 d . . .
H69A H 0.3124 0.4178 -0.0872 0.151 Uiso 1 1 calc R . .
C70 C 0.2678(7) 0.4893(8) -0.0956(4) 0.119(6) Uani 1 1 d . . .
H70A H 0.2448 0.4732 -0.1135 0.143 Uiso 1 1 calc R . .
C71 C 0.4409(7) 0.0398(6) 0.1643(4) 0.112(5) Uani 1 1 d DU . .
C72 C 0.5332(7) 0.3168(9) -0.0402(5) 0.136(6) Uani 1 1 d U . .
H72A H 0.5484 0.3372 -0.0209 0.164 Uiso 1 1 calc R . .
C75 C 0.5066(4) 0.4819(5) 0.0567(3) 0.060(3) Uani 1 1 d . . .
H75A H 0.4966 0.4774 0.0327 0.091 Uiso 1 1 calc R . .
H75B H 0.5427 0.4742 0.0630 0.091 Uiso 1 1 calc R . .
H75C H 0.4995 0.5215 0.0630 0.091 Uiso 1 1 calc R . .
C76 C 0.4767(3) 0.4387(4) 0.0746(2) 0.040(2) Uani 1 1 d . . .
C79 C 0.4726(3) 0.7942(4) 0.2077(2) 0.043(2) Uani 1 1 d . . .
C82 C 0.4856(4) 0.4380(4) 0.1091(3) 0.059(3) Uani 1 1 d . . .
C83 C 0.4588(4) 0.3992(5) 0.1269(3) 0.050(3) Uani 1 1 d . . .
C85 C 0.4891(3) 0.7382(4) 0.1977(2) 0.043(2) Uani 1 1 d . . .
C86 C 0.4689(5) 0.3945(6) 0.1666(3) 0.087(4) Uani 1 1 d . . .
H86A H 0.4466 0.3653 0.1735 0.130 Uiso 1 1 calc R . .
H86B H 0.4623 0.4320 0.1761 0.130 Uiso 1 1 calc R . .
H86C H 0.5040 0.3835 0.1745 0.130 Uiso 1 1 calc R . .
O1 O 0.1800(4) 0.5569(6) -0.1187(4) 0.173(7) Uani 1 1 d . . .
O2 O 0.2258(5) 0.6387(7) -0.1037(3) 0.158(6) Uani 1 1 d . . .
O3 O 0.1117(3) 0.4009(4) 0.1914(3) 0.097(3) Uani 1 1 d . . .
O4 O 0.1336(3) 0.3396(4) 0.2329(3) 0.090(3) Uani 1 1 d . . .
O5 O 0.4318(4) -0.0617(5) 0.1723(3) 0.120(4) Uani 1 1 d DU . .
O6 O 0.5111(4) -0.0569(8) 0.1636(3) 0.181(6) Uani 1 1 d DU . .
O7 O 0.5703(7) 0.9134(11) 0.1056(4) 0.259(7) Uani 1 1 d DU . .
O8 O 0.4269(2) 0.8016(3) 0.21257(18) 0.0545(18) Uani 1 1 d . . .
O9 O 0.5040(3) 0.8399(3) 0.21037(18) 0.0544(17) Uani 1 1 d U . .
O10 O 0.5510(4) 0.1848(5) -0.1291(3) 0.115(4) Uani 1 1 d . . .
O11 O 0.6181(5) 0.2043(7) -0.0922(3) 0.162(6) Uani 1 1 d . . .
O12 O 0.8092(4) 0.2612(5) 0.1669(5) 0.205(7) Uani 1 1 d DU . .
O13 O 0.8467(3) 0.4719(4) 0.2295(3) 0.089(3) Uani 1 1 d . . .
O14 O 0.8384(3) 0.3899(3) 0.2015(2) 0.068(2) Uani 1 1 d . . .
Pb1 Pb 0.921314(14) 0.395874(18) 0.239222(11) 0.04877(15) Uani 1 1 d . . .
Pb3 Pb 0.85873(2) 0.34940(3) 0.143269(15) 0.0992(3) Uani 1 1 d DU . .
Pb2 Pb 0.52705(3) 0.87917(4) 0.154553(17) 0.1048(3) Uani 1 1 d DU . .

loop_
_atom_site_aniso_label
_atom_site_aniso_U_11
_atom_site_aniso_U_22
_atom_site_aniso_U_33
_atom_site_aniso_U_23
_atom_site_aniso_U_13
_atom_site_aniso_U_12
C3 0.036(5) 0.023(5) 0.072(7) 0.008(5) 0.028(5) 0.004(4)
C4 0.049(6) 0.047(6) 0.046(6) -0.003(5) 0.008(5) -0.002(5)
C8 0.048(6) 0.054(7) 0.057(7) 0.001(6) 0.026(5) -0.005(5)
C9 0.049(6) 0.039(6) 0.063(7) -0.012(5) 0.011(5) 0.016(5)
C10 0.050(6) 0.045(6) 0.051(7) -0.008(5) 0.005(5) 0.006(5)
C12 0.046(6) 0.034(6) 0.060(7) 0.007(5) 0.029(5) 0.013(5)
C13 0.036(5) 0.048(6) 0.059(7) -0.016(5) -0.001(5) 0.011(5)
C14 0.036(6) 0.066(8) 0.088(8) -0.004(7) 0.021(6) 0.001(5)
C15 0.068(7) 0.055(7) 0.059(7) 0.002(6) 0.019(6) 0.015(6)
C16 0.040(6) 0.041(6) 0.127(11) -0.033(7) 0.012(6) 0.007(5)
C17 0.044(6) 0.033(6) 0.082(8) -0.021(6) 0.005(5) 0.023(5)
C18 0.060(7) 0.060(7) 0.053(7) -0.001(6) 0.004(5) 0.004(6)
C19 0.041(6) 0.046(7) 0.115(10) -0.013(7) 0.008(6) 0.017(5)
C20 0.039(6) 0.045(6) 0.076(8) -0.024(6) -0.001(5) 0.023(5)
C21 0.051(7) 0.105(10) 0.073(8) -0.021(8) 0.008(6) 0.050(7)
C22 0.036(5) 0.032(5) 0.084(6) -0.013(5) -0.004(5) 0.022(4)
C23 0.048(6) 0.045(6) 0.089(8) -0.038(6) 0.011(6) 0.020(5)
C24 0.053(6) 0.051(7) 0.093(9) 0.018(6) 0.049(6) 0.010(5)
C25 0.066(7) 0.058(7) 0.056(7) -0.007(6) 0.022(6) 0.005(6)
C26 0.068(8) 0.058(8) 0.110(10) -0.024(7) 0.016(7) -0.030(6)
C27 0.033(5) 0.054(7) 0.067(8) -0.017(6) 0.009(5) 0.003(5)
C28 0.031(5) 0.052(7) 0.099(9) -0.028(6) -0.010(5) 0.016(5)
C29 0.038(6) 0.036(6) 0.186(15) -0.045(8) 0.016(7) 0.000(5)
C30 0.027(5) 0.053(7) 0.124(10) -0.020(7) -0.003(6) 0.001(5)
C31 0.035(6) 0.075(9) 0.090(9) -0.015(7) -0.002(6) 0.032(6)
C32 0.070(8) 0.055(7) 0.100(9) 0.015(7) 0.047(7) 0.014(6)
C33 0.038(6) 0.060(8) 0.078(8) -0.007(7) 0.009(6) 0.006(5)
C34 0.041(7) 0.069(9) 0.226(18) -0.057(11) -0.028(9) 0.029(7)
C35 0.098(10) 0.052(8) 0.173(15) 0.051(9) 0.085(11) 0.035(8)
C36 0.046(7) 0.055(7) 0.129(12) -0.022(8) 0.001(7) 0.021(6)
C37 0.055(7) 0.075(9) 0.099(9) 0.023(8) 0.046(7) 0.015(6)
C38 0.039(6) 0.049(7) 0.104(9) -0.023(7) 0.001(6) 0.020(5)
C39 0.035(6) 0.053(7) 0.149(12) -0.027(8) 0.006(7) 0.010(5)
C40 0.076(9) 0.095(11) 0.081(10) -0.013(9) -0.008(7) 0.035(8)
C41 0.114(14) 0.132(16) 0.086(11) -0.003(11) 0.005(10) 0.076(13)
C43 0.083(10) 0.080(11) 0.162(15) 0.040(11) 0.040(10) 0.017(9)
C44 0.092(9) 0.045(7) 0.117(11) 0.019(7) 0.052(8) 0.022(7)
C45 0.051(7) 0.089(10) 0.112(11) -0.002(9) 0.036(8) 0.009(7)
C46 0.061(7) 0.081(9) 0.074(8) 0.017(7) 0.041(7) 0.007(6)
C48 0.041(6) 0.063(8) 0.112(10) -0.036(8) 0.003(6) 0.017(6)
C49 0.066(9) 0.076(10) 0.095(11) -0.002(9) 0.029(8) -0.010(7)
C50 0.088(10) 0.121(13) 0.067(9) -0.028(9) -0.005(7) 0.043(9)
C51 0.089(11) 0.153(16) 0.096(11) 0.028(11) 0.034(9) 0.025(11)
C52 0.073(9) 0.097(12) 0.202(18) 0.069(12) 0.057(11) 0.046(9)
C53 0.133(14) 0.154(16) 0.045(8) -0.038(9) -0.010(9) 0.078(13)
C54 0.062(8) 0.139(14) 0.121(12) 0.062(11) 0.049(8) 0.051(9)
C56 0.073(8) 0.047(7) 0.140(12) -0.030(8) -0.010(8) 0.041(6)
C57 0.103(12) 0.101(13) 0.21(2) 0.040(13) 0.081(13) 0.024(10)
C59 0.064(9) 0.170(17) 0.158(15) 0.061(14) 0.071(10) 0.025(10)
C60 0.116(12) 0.22(2) 0.050(8) -0.035(10) -0.014(8) 0.111(14)
C61 0.153(15) 0.169(17) 0.068(10) -0.039(10) 0.003(10) 0.114(14)
C62 0.052(7) 0.105(11) 0.103(10) 0.027(9) 0.042(7) 0.041(7)
C63 0.072(10) 0.084(11) 0.190(17) 0.056(11) 0.042(10) 0.032(8)
C64 0.075(10) 0.117(13) 0.109(12) -0.028(10) 0.011(9) -0.001(9)
C65 0.062(8) 0.084(10) 0.188(16) -0.075(11) -0.029(9) 0.038(8)
C66 0.143(10) 0.161(11) 0.134(10) -0.038(8) 0.028(8) 0.025(8)
C67 0.168(14) 0.226(17) 0.138(12) 0.078(13) 0.049(12) 0.072(11)
C68 0.056(8) 0.105(12) 0.112(11) -0.007(10) -0.015(7) 0.0