
#######################################################################
#
#                 Cambridge Crystallographic Data Centre
#                                CCDC
#
#######################################################################
#
# If this CIF has been generated from an entry in the Cambridge
# Structural Database, then it will include bibliographic, chemical,
# crystal, experimental, refinement or atomic coordinate data resulting
# from the CCDC's data processing and validation procedures.
#
#######################################################################

data_CSD_CIF_UFUQER
_audit_creation_date 2002-09-02
_audit_creation_method CSD-ConQuest-V1
_database_code_CSD UFUQER
_database_code_depnum_ccdc_archive 'CCDC 182461'
_chemical_formula_sum 'C108 H56 Kr0.09 N4 Ni1'
_chemical_formula_moiety
;
C36 H44 N4 Ni1,C60,0.09(Kr1),2(C6 H6)
;
_journal_coden_Cambridge 182
_journal_year 2002
_journal_page_first 1352
_journal_name_full 'Chem.Commun. '
loop_
_publ_author_name
"Hon Man Lee"
"M.M.Olmstead"
"T.Suetsuna"
"H.Shimotani"
"N.Dragoe"
"R.J.Cross"
"K.Kitazawa"
"A.L.Balch"
_chemical_name_systematic
;
C60fullerene krypton clathrate (octaethylporphyrinato)-nickel(ii) benzene 
solvate
;
_chemical_name_common
;
Teaching Subset: Fundamental Chemistry, Symmetry
;
_cell_volume   3279.654
_exptl_crystal_colour 'black'
_exptl_crystal_density_diffrn 1.494
_exptl_special_details
;
Approximately 0.09 per cent of C60-fullerene molecules contain a krypton atom 
centred inside the cage
;
_exptl_crystal_description 'prism'
_diffrn_ambient_temperature 90
#These two values have been output from a single CSD field.
_refine_ls_R_factor_gt 0.0466
_refine_ls_wR_factor_gt 0.0466
_symmetry_cell_setting triclinic
_symmetry_space_group_name_H-M 'P -1'
_symmetry_Int_Tables_number 2
loop_
_symmetry_equiv_pos_site_id
_symmetry_equiv_pos_as_xyz
1 x,y,z
2 -x,-y,-z
_cell_length_a 14.120(2)
_cell_length_b 14.373(2)
_cell_length_c 17.212(3)
_cell_angle_alpha 87.608(4)
_cell_angle_beta 75.795(7)
_cell_angle_gamma 75.628(7)
_cell_formula_units_Z 2
loop_
_atom_type_symbol
_atom_type_radius_bond
C 0.68
H 0.23
Kr 1.45
N 0.68
Ni 1.50
loop_
_atom_site_label
_atom_site_type_symbol
_atom_site_fract_x
_atom_site_fract_y
_atom_site_fract_z
Ni1 Ni 1.03433(2) 0.413742(19) 0.112563(15)
N1 N 0.98425(13) 0.35125(13) 0.03776(10)
N2 N 0.91622(13) 0.52161(13) 0.12609(10)
N3 N 1.08352(13) 0.47502(13) 0.18845(10)
N4 N 1.15163(13) 0.30504(13) 0.1003(1)
C1 C 1.02161(16) 0.25938(15) 0.00531(12)
C2 C 0.96254(16) 0.23998(16) -0.04672(12)
C3 C 0.88798(16) 0.32102(16) -0.04677(12)
C4 C 0.90234(16) 0.38936(15) 0.00610(12)
C5 C 0.83784(16) 0.47908(16) 0.02548(12)
H1 H 0.78740 0.50060 -0.00340
C6 C 0.84210(16) 0.53928(15) 0.08412(12)
C7 C 0.76473(16) 0.62510(15) 0.11330(12)
C8 C 0.79146(16) 0.66062(16) 0.17433(12)
C9 C 0.88534(16) 0.59659(15) 0.18127(12)
C10 C 0.93896(17) 0.61020(16) 0.23554(12)
H2 H 0.90900 0.66120 0.27400
C11 C 1.03315(17) 0.55427(16) 0.23714(12)
C12 C 1.09432(17) 0.57680(16) 0.28641(12)
C13 C 1.18556(18) 0.51219(16) 0.26502(12)
C14 C 1.17704(16) 0.44788(16) 0.20562(12)
C15 C 1.25032(17) 0.36636(16) 0.17534(12)
H3 H 1.31410 0.35700 0.18740
C16 C 1.23657(16) 0.29767(15) 0.12863(12)
C17 C 1.30743(17) 0.20587(16) 0.10731(12)
C18 C 1.26296(17) 0.15447(16) 0.06817(12)
C19 C 1.16809(16) 0.21771(15) 0.06290(12)
C20 C 1.10570(16) 0.19574(16) 0.01931(12)
H4 H 1.12220 0.13240 -0.00240
C21 C 0.97907(17) 0.14660(16) -0.09041(12)
H5 H 1.04950 0.10950 -0.09530
H6 H 0.96980 0.16060 -0.14530
C22 C 0.9087(2) 0.08533(19) -0.04946(16)
H7 H 0.91740 0.07090 0.00490
H8 H 0.92430 0.02520 -0.08010
H9 H 0.83880 0.12020 -0.04670
C23 C 0.80348(17) 0.33883(16) -0.08816(12)
H10 H 0.82250 0.29290 -0.13390
H11 H 0.79420 0.40440 -0.11000
C24 C 0.70307(18) 0.32883(19) -0.03335(14)
H12 H 0.71120 0.26370 -0.01220
H13 H 0.65140 0.34080 -0.06410
H14 H 0.68250 0.37550 0.01120
C25 C 0.67176(17) 0.66156(16) 0.08204(13)
H15 H 0.69090 0.65610 0.02280
H16 H 0.64340 0.73040 0.09690
C26 C 0.59079(18) 0.60673(17) 0.11460(14)
H17 H 0.61740 0.53900 0.09800
H18 H 0.53160 0.63420 0.09340
H19 H 0.57140 0.61190 0.17330
C27 C 0.73560(18) 0.74799(16) 0.22633(13)
H20 H 0.70310 0.79820 0.19340
H21 H 0.78450 0.77340 0.24630
C28 C 0.6553(2) 0.72809(19) 0.29767(14)
H22 H 0.60380 0.70770 0.27840
H23 H 0.62410 0.78670 0.33080
H24 H 0.68650 0.67720 0.32970
C29 C 1.06071(18) 0.65651(17) 0.34814(13)
H25 H 1.09700 0.63750 0.39100
H26 H 0.98790 0.66480 0.37270
C30 C 1.0781(2) 0.75215(18) 0.31569(15)
H27 H 1.14980 0.74460 0.29030
H28 H 1.05720 0.79960 0.35980
H29 H 1.03860 0.77410 0.27600
C31 C 1.27757(18) 0.50521(18) 0.29617(14)
H30 H 1.30930 0.43670 0.30270
H31 H 1.25690 0.53710 0.34970
C32 C 1.3550(2) 0.5510(2) 0.24116(17)
H32 H 1.37780 0.51820 0.18870
H33 H 1.41270 0.54520 0.26470
H34 H 1.32430 0.61900 0.23480
C33 C 1.41043(17) 0.17735(17) 0.12290(13)
H35 H 1.43370 0.10640 0.12080
H36 H 1.40660 0.19940 0.17760
C34 C 1.48736(18) 0.21912(19) 0.06260(15)
H37 H 1.49060 0.19860 0.00820
H38 H 1.55380 0.19610 0.07410
H39 H 1.46700 0.28940 0.06680
C35 C 1.30417(17) 0.05360(16) 0.03409(14)
H40 H 1.24800 0.02210 0.04020
H41 H 1.35120 0.01680 0.06500
C36 C 1.3593(2) 0.05067(18) -0.05437(14)
H42 H 1.31300 0.08660 -0.08540
H43 H 1.38380 -0.01620 -0.07380
H44 H 1.41660 0.07970 -0.06060
Kr1 Kr 0.7361(2) 0.20227(18) 0.36132(14)
C37 C 0.95069(18) 0.20952(19) 0.20539(13)
C38 C 0.92782(18) 0.29997(18) 0.23956(13)
C39 C 0.8368(2) 0.37029(17) 0.23175(14)
C40 C 0.7735(2) 0.34668(18) 0.18992(14)
C41 C 0.79792(19) 0.25161(18) 0.15422(12)
C42 C 0.88474(18) 0.18423(19) 0.16196(12)
C43 C 0.88166(19) 0.08503(18) 0.17864(13)
C44 C 0.94623(18) 0.04854(18) 0.23226(14)
C45 C 0.98872(17) 0.12604(18) 0.24892(14)
C46 C 1.00228(18) 0.13599(19) 0.32539(15)
C47 C 0.97780(19) 0.23118(19) 0.36116(15)
C48 C 0.94206(18) 0.31102(18) 0.31905(14)
C49 C 0.8594(2) 0.38905(18) 0.36050(15)
C50 C 0.7953(2) 0.42520(17) 0.30649(15)
C51 C 0.6915(2) 0.45416(17) 0.33606(16)
C52 C 0.6253(2) 0.42942(18) 0.29224(16)
C53 C 0.6658(2) 0.37647(18) 0.22066(15)
C54 C 0.6232(2) 0.29918(19) 0.20392(15)
C55 C 0.70525(19) 0.22228(19) 0.16305(13)
C56 C 0.70221(19) 0.12745(18) 0.17849(13)
C57 C 0.7920(2) 0.05731(18) 0.18643(13)
C58 C 0.7632(2) -0.00818(17) 0.24960(14)
C59 C 0.8256(2) -0.04301(17) 0.30083(15)
C60 C 0.9185(2) -0.01338(18) 0.29224(16)
C61 C 0.9328(2) -0.00269(18) 0.37198(16)
C62 C 0.97347(19) 0.07051(19) 0.38822(16)
C63 C 0.9309(2) 0.1258(2) 0.46309(15)
C64 C 0.9339(2) 0.2247(2) 0.44641(15)
C65 C 0.8551(2) 0.2989(2) 0.48547(14)
C66 C 0.8176(2) 0.38250(18) 0.44199(15)
C67 C 0.7089(2) 0.41305(19) 0.47250(15)
C68 C 0.6479(2) 0.44752(18) 0.42065(16)
C69 C 0.5534(2) 0.41819(19) 0.42918(17)
C70 C 0.5406(2) 0.40705(19) 0.35016(17)
C71 C 0.49943(19) 0.3335(2) 0.33359(17)
C72 C 0.54160(19) 0.2782(2) 0.25911(16)
C73 C 0.53925(19) 0.1794(2) 0.27593(15)
C74 C 0.6167(2) 0.10569(19) 0.23692(14)
C75 C 0.6554(2) 0.02157(18) 0.28045(14)
C76 C 0.7812(2) -0.04942(17) 0.38607(15)
C77 C 0.8477(2) -0.02475(18) 0.42990(16)
C78 C 0.8073(2) 0.0275(2) 0.50150(15)
C79 C 0.8497(2) 0.1048(2) 0.51844(15)
C80 C 0.7668(2) 0.1824(2) 0.55978(13)
C81 C 0.7694(2) 0.2772(2) 0.54382(13)
C82 C 0.6801(2) 0.3477(2) 0.53566(14)
C83 C 0.5899(2) 0.3200(2) 0.54408(15)
C84 C 0.5259(2) 0.3563(2) 0.48976(17)
C85 C 0.48339(19) 0.2792(2) 0.47272(16)
C86 C 0.47117(18) 0.2682(2) 0.39616(17)
C87 C 0.49469(18) 0.1733(2) 0.36132(16)
C88 C 0.53062(19) 0.0929(2) 0.40320(15)
C89 C 0.6124(2) 0.01608(18) 0.36200(15)
C90 C 0.6773(2) -0.02098(18) 0.41577(15)
C91 C 0.6352(2) 0.0345(2) 0.49070(14)
C92 C 0.6983(2) 0.0584(2) 0.53249(14)
C93 C 0.6738(2) 0.1536(2) 0.56828(13)
C94 C 0.5875(2) 0.2205(2) 0.56061(14)
C95 C 0.5219(2) 0.1955(2) 0.51674(15)
C96 C 0.5439(2) 0.1049(2) 0.48295(14)
C97 C 1.4108(2) -0.1513(2) 0.20445(17)
H45 H 1.46080 -0.20740 0.18250
C98 C 1.4375(2) -0.0792(2) 0.23759(16)
H46 H 1.50580 -0.08530 0.23830
C99 C 1.3651(2) 0.0017(2) 0.26972(14)
H47 H 1.38350 0.05130 0.29300
C100 C 1.2658(2) 0.01112(19) 0.26834(16)
H48 H 1.21600 0.06740 0.29010
C101 C 1.2391(2) -0.0615(2) 0.23518(17)
H49 H 1.17080 -0.05570 0.23450
C102 C 1.3125(2) -0.1429(2) 0.20289(16)
H50 H 1.29470 -0.19290 0.17970
C103 C 1.1329(2) 0.4154(2) 0.48124(17)
H51 H 1.09840 0.48120 0.49060
C104 C 1.1875(2) 0.36791(19) 0.53379(16)
H52 H 1.19120 0.40100 0.57920
C105 C 1.23702(19) 0.27182(19) 0.52009(15)
H53 H 1.27320 0.23860 0.55690
C106 C 1.2338(2) 0.2241(2) 0.45289(17)
H54 H 1.26820 0.15830 0.44340
C107 C 1.1805(2) 0.2724(2) 0.39956(16)
H55 H 1.18000 0.24040 0.35260
C108 C 1.1285(2) 0.3667(2) 0.41486(17)
H56 H 1.08920 0.39880 0.37970
#END
