####################################################################### 
# 
# This file contains crystal structure data downloaded from the 
# Cambridge Structural Database (CSD) hosted by the Cambridge 
# Crystallographic Data Centre (CCDC).
# 
# Full information about CCDC data access policies and citation 
# guidelines are available at http://www.ccdc.cam.ac.uk/access/V1 
# 
# Audit and citation data items may have been added by the CCDC. 
# Please retain this information to preserve the provenance of 
# this file and to allow appropriate attribution of the data. 
# 
#######################################################################

data_p41212
_audit_block_doi                 10.5517/cc5jjy4
_database_code_depnum_ccdc_archive 'CCDC 164856'
loop_
_citation_id
_citation_doi
_citation_year
1 10.1016/S0020-1693(02)00705-3 2002
_audit_update_record             
;
2001-06-05 deposited with the CCDC.	2024-07-13 downloaded from the CCDC.
;

_audit_creation_method           SHELXL-97
_chemical_name_systematic        
; 
? 
;
_chemical_name_common            ?
_chemical_melting_point          ?
_chemical_formula_moiety         ?
_chemical_formula_sum            'C20 H22 Mo1 N4 Ni1 O7'
_chemical_formula_weight         585.06

loop_
_atom_type_symbol
_atom_type_description
_atom_type_scat_dispersion_real
_atom_type_scat_dispersion_imag
_atom_type_scat_source
C C 0.0033 0.0016 'International Tables Vol C Tables 4.2.6.8 and 6.1.1.4'
H H 0.0000 0.0000 'International Tables Vol C Tables 4.2.6.8 and 6.1.1.4'
N N 0.0061 0.0033 'International Tables Vol C Tables 4.2.6.8 and 6.1.1.4'
O O 0.0106 0.0060 'International Tables Vol C Tables 4.2.6.8 and 6.1.1.4'
Ni Ni 0.3393 1.1124 'International Tables Vol C Tables 4.2.6.8 and 6.1.1.4'
Mo Mo -1.6832 0.6857 'International Tables Vol C Tables 4.2.6.8 and 6.1.1.4'

_symmetry_cell_setting           Tetragonal
_symmetry_space_group_name_H-M   P41212

loop_
_symmetry_equiv_pos_as_xyz
'x, y, z'
'-x, -y, z+1/2'
'-y+1/2, x+1/2, z+1/4'
'y+1/2, -x+1/2, z+3/4'
'-x+1/2, y+1/2, -z+1/4'
'x+1/2, -y+1/2, -z+3/4'
'y, x, -z'
'-y, -x, -z+1/2'

_cell_length_a                   13.1866(5)
_cell_length_b                   13.1866(5)
_cell_length_c                   29.4577(15)
_cell_angle_alpha                90.00
_cell_angle_beta                 90.00
_cell_angle_gamma                90.00
_cell_volume                     5122.3(4)
_cell_formula_units_Z            14
_cell_measurement_temperature    90(2)
_cell_measurement_reflns_used    ?
_cell_measurement_theta_min      1.69
_cell_measurement_theta_max      26.00

_exptl_crystal_description       block
_exptl_crystal_colour            green
_exptl_crystal_size_max          .23
_exptl_crystal_size_mid          .21
_exptl_crystal_size_min          .12
_exptl_crystal_density_meas      ?
_exptl_crystal_density_diffrn    1.517
_exptl_crystal_density_method    'not measured'
_exptl_crystal_F_000             2368
_exptl_absorpt_coefficient_mu    2.219
_exptl_absorpt_correction_type   SADABS
_exptl_absorpt_correction_T_min  ?
_exptl_absorpt_correction_T_max  ?
_exptl_absorpt_process_details   ?

_exptl_special_details           
; 
? 
;

_diffrn_ambient_temperature      95(2)
_diffrn_radiation_wavelength     0.71073
_diffrn_radiation_type           MoK\a
_diffrn_radiation_source         'fine-focus sealed tube'
_diffrn_radiation_monochromator  graphite
_diffrn_measurement_device_type  ?
_diffrn_measurement_method       ?
_diffrn_detector_area_resol_mean ?
_diffrn_standards_number         ?
_diffrn_standards_interval_count ?
_diffrn_standards_interval_time  ?
_diffrn_standards_decay_%        ?
_diffrn_reflns_number            23775
_diffrn_reflns_av_R_equivalents  0.0792
_diffrn_reflns_av_sigmaI/netI    0.0726
_diffrn_reflns_limit_h_min       -14
_diffrn_reflns_limit_h_max       13
_diffrn_reflns_limit_k_min       -12
_diffrn_reflns_limit_k_max       14
_diffrn_reflns_limit_l_min       -32
_diffrn_reflns_limit_l_max       20
_diffrn_reflns_theta_min         1.69
_diffrn_reflns_theta_max         26.00
_reflns_number_total             3593
_reflns_number_gt                2960
_reflns_threshold_expression     >2sigma(I)

_computing_data_collection       ?
_computing_cell_refinement       ?
_computing_data_reduction        ?
_computing_structure_solution    'SHELXS-97 (Sheldrick, 1990)'
_computing_structure_refinement  'SHELXL-97 (Sheldrick, 1997)'
_computing_molecular_graphics    ?
_computing_publication_material  ?

_refine_special_details          
; 
Refinement of F^2^ against ALL reflections.  The weighted R-factor wR and 
goodness of fit S are based on F^2^, conventional R-factors R are based 
on F, with F set to zero for negative F^2^. The threshold expression of 
F^2^ > 2sigma(F^2^) is used only for calculating R-factors(gt) etc. and is 
not relevant to the choice of reflections for refinement.  R-factors based 
on F^2^ are statistically about twice as large as those based on F, and R- 
factors based on ALL data will be even larger. 
;

_refine_ls_structure_factor_coef Fsqd
_refine_ls_matrix_type           full
_refine_ls_weighting_scheme      calc
_refine_ls_weighting_details     
'calc w=1/[\s^2^(Fo^2^)+(0.0987P)^2^+4.1188P] where P=(Fo^2^+2Fc^2^)/3'
_atom_sites_solution_primary     direct
_atom_sites_solution_secondary   difmap
_atom_sites_solution_hydrogens   geom
_refine_ls_hydrogen_treatment    mixed
_refine_ls_extinction_method     SHELXL
_refine_ls_extinction_coef       0.0119(9)
_refine_ls_extinction_expression Fc^*^=kFc[1+0.001xFc^2^\l^3^/sin(2\q)]^-1/4^
_refine_ls_abs_structure_details 'Flack H D (1983), Acta Cryst. A39, 876-881'
_refine_ls_abs_structure_Flack   -0.01(5)
_refine_ls_number_reflns         3593
_refine_ls_number_parameters     327
_refine_ls_number_restraints     0
_refine_ls_R_factor_all          0.0763
_refine_ls_R_factor_gt           0.0575
_refine_ls_wR_factor_ref         0.1655
_refine_ls_wR_factor_gt          0.1509
_refine_ls_goodness_of_fit_ref   1.138
_refine_ls_restrained_S_all      1.138
_refine_ls_shift/su_max          0.003
_refine_ls_shift/su_mean         0.000

loop_
_atom_site_label
_atom_site_type_symbol
_atom_site_fract_x
_atom_site_fract_y
_atom_site_fract_z
_atom_site_U_iso_or_equiv
_atom_site_adp_type
_atom_site_occupancy
_atom_site_symmetry_multiplicity
_atom_site_calc_flag
_atom_site_refinement_flags
_atom_site_disorder_assembly
_atom_site_disorder_group
Mo1 Mo 0.38097(7) 0.53629(7) 0.61997(3) 0.0160(3) Uani 1 1 d . . .
Ni1 Ni 0.23851(10) 0.78031(10) 0.61708(5) 0.0148(4) Uani 1 1 d . . .
O1 O 0.4167(6) 0.5293(6) 0.5635(2) 0.0259(19) Uani 1 1 d . . .
O2 O 0.3186(5) 0.4223(5) 0.6369(2) 0.0190(18) Uani 1 1 d . . .
O3 O 0.4872(6) 0.5546(7) 0.6553(3) 0.039(2) Uani 1 1 d . . .
O4 O 0.2940(5) 0.6375(5) 0.6247(2) 0.0229(17) Uani 1 1 d . . .
O5 O 0.4351(7) 0.5649(7) 0.7500 0.055(4) Uani 1 2 d S . .
O6 O 0.6426(9) 0.3971(10) 0.6577(5) 0.067(4) Uani 0.84 1 d P . .
O7 O 0.6514(9) 0.6976(12) 0.6433(4) 0.086(5) Uani 0.85 1 d P . .
O8 O 0.5628(10) 0.5628(10) 0.5000 0.062(8) Uani 0.64 2 d SP . .
O9 O 0.6879(13) 0.9320(16) 0.6345(6) 0.091(6) Uani 0.66 1 d P . .
O10 O 0.5823(15) 0.7275(16) 0.4342(7) 0.069(6) Uani 0.54 1 d P . .
O11 O 0.736(2) 0.823(2) 0.4666(9) 0.110(11) Uani 0.50 1 d P . .
N1 N 0.3302(7) 0.8321(7) 0.6699(3) 0.017(2) Uani 1 1 d . . .
N2 N 0.1168(7) 0.7396(6) 0.6587(3) 0.019(2) Uani 1 1 d . . .
N3 N 0.1592(7) 0.7395(7) 0.5570(3) 0.015(2) Uani 1 1 d . . .
N4 N 0.3584(6) 0.8211(7) 0.5731(3) 0.016(2) Uani 1 1 d . . .
C1 C 0.3784(8) 0.9195(8) 0.6666(3) 0.015(2) Uani 1 1 d . . .
H1 H 0.3577 0.9639 0.6438 0.018 Uiso 1 1 calc R . .
C2 C 0.4584(9) 0.9504(8) 0.6947(3) 0.020(2) Uani 1 1 d . . .
H2 H 0.4915 1.0116 0.6895 0.024 Uiso 1 1 calc R . .
C3 C 0.4875(8) 0.8878(8) 0.7306(3) 0.015(2) Uani 1 1 d . . .
C4 C 0.4325(9) 0.7944(9) 0.7352(4) 0.023(3) Uani 1 1 d . . .
H4 H 0.4471 0.7501 0.7589 0.027 Uiso 1 1 calc R . .
C5 C 0.3584(8) 0.7715(9) 0.7044(3) 0.022(3) Uani 1 1 d . . .
H5 H 0.3252 0.7097 0.7075 0.027 Uiso 1 1 calc R . .
C6 C 0.0836(9) 0.7972(10) 0.5432(4) 0.030(3) Uani 1 1 d . . .
H6 H 0.0609 0.8489 0.5621 0.036 Uiso 1 1 calc R . .
C7 C 0.0357(10) 0.7832(10) 0.5006(4) 0.039(4) Uani 1 1 d . . .
H7 H -0.0182 0.8245 0.4920 0.046 Uiso 1 1 calc R . .
C8 C 0.0701(11) 0.7073(10) 0.4717(4) 0.040(4) Uani 1 1 d . . .
H8 H 0.0422 0.6994 0.4429 0.048 Uiso 1 1 calc R . .
C9 C 0.1478(8) 0.6428(8) 0.4867(3) 0.016(3) Uani 1 1 d . . .
C10 C 0.1909(8) 0.6647(8) 0.5296(3) 0.018(3) Uani 1 1 d . . .
H10 H 0.2446 0.6247 0.5395 0.021 Uiso 1 1 calc R . .
C11 C 0.0881(9) 0.7874(9) 0.6964(3) 0.024(3) Uani 1 1 d . . .
H11 H 0.1271 0.8422 0.7059 0.029 Uiso 1 1 calc R . .
C12 C 0.0068(9) 0.7624(9) 0.7221(4) 0.024(3) Uani 1 1 d . . .
H12 H -0.0083 0.8000 0.7479 0.028 Uiso 1 1 calc R . .
C13 C -0.0543(9) 0.6807(9) 0.7099(3) 0.024(3) Uani 1 1 d . . .
C14 C -0.0243(9) 0.6289(9) 0.6711(4) 0.026(3) Uani 1 1 d . . .
H14 H -0.0613 0.5729 0.6614 0.031 Uiso 1 1 calc R . .
C15 C 0.0577(9) 0.6586(9) 0.6474(4) 0.027(3) Uani 1 1 d . . .
H15 H 0.0752 0.6216 0.6217 0.033 Uiso 1 1 calc R . .
C16 C 0.4541(9) 0.7887(9) 0.5775(3) 0.021(3) Uani 1 1 d . . .
H16 H 0.4692 0.7423 0.6003 0.025 Uiso 1 1 calc R . .
C17 C 0.5325(9) 0.8220(9) 0.5490(4) 0.028(3) Uani 1 1 d . . .
H17 H 0.5974 0.7954 0.5522 0.034 Uiso 1 1 calc R . .
C18 C 0.5139(8) 0.8925(9) 0.5170(4) 0.022(3) Uani 1 1 d . . .
H18 H 0.5656 0.9149 0.4980 0.027 Uiso 1 1 calc R . .
C19 C 0.4141(9) 0.9321(8) 0.5127(4) 0.020(3) Uani 1 1 d . . .
C20 C 0.3411(8) 0.8873(9) 0.5416(3) 0.016(2) Uani 1 1 d . . .
H20 H 0.2741 0.9074 0.5376 0.019 Uiso 1 1 calc R . .

loop_
_atom_site_aniso_label
_atom_site_aniso_U_11
_atom_site_aniso_U_22
_atom_site_aniso_U_33
_atom_site_aniso_U_23
_atom_site_aniso_U_13
_atom_site_aniso_U_12
Mo1 0.0172(6) 0.0161(6) 0.0147(5) 0.0002(4) -0.0010(4) -0.0014(4)
Ni1 0.0194(8) 0.0129(8) 0.0122(8) 0.0009(6) 0.0011(6) -0.0021(6)
O1 0.031(5) 0.027(5) 0.019(4) 0.006(3) 0.005(3) -0.004(4)
O2 0.026(5) 0.013(4) 0.018(4) 0.001(3) -0.001(3) 0.008(3)
O3 0.030(5) 0.049(6) 0.038(5) -0.008(4) -0.016(4) -0.012(4)
O4 0.023(4) 0.024(4) 0.022(4) 0.007(4) 0.002(4) 0.005(3)
O5 0.054(6) 0.054(6) 0.058(9) 0.015(5) 0.015(5) 0.016(7)
O6 0.045(8) 0.053(9) 0.103(10) -0.004(7) -0.003(7) 0.010(7)
O7 0.044(8) 0.154(15) 0.060(9) 0.061(9) -0.007(6) -0.013(9)
O8 0.067(11) 0.067(11) 0.052(14) -0.044(10) 0.044(10) -0.050(13)
O9 0.064(12) 0.099(19) 0.068(12) 0.025(12) -0.009(10) -0.042(12)
O10 0.054(14) 0.070(15) 0.081(15) -0.013(12) 0.038(11) 0.004(11)
O11 0.10(2) 0.09(2) 0.14(2) -0.048(17) 0.081(18) -0.068(17)
N1 0.021(6) 0.022(6) 0.007(5) 0.002(4) 0.009(4) 0.000(4)
N2 0.028(6) 0.015(5) 0.013(5) 0.001(4) -0.002(4) 0.000(5)
N3 0.018(5) 0.013(5) 0.015(5) 0.001(4) 0.000(4) -0.001(4)
N4 0.010(5) 0.024(6) 0.012(5) 0.009(4) -0.006(4) -0.001(4)
C1 0.013(6) 0.018(6) 0.015(6) 0.001(5) -0.002(5) 0.001(5)
C2 0.028(7) 0.021(6) 0.010(5) 0.004(5) 0.000(5) -0.004(6)
C3 0.016(6) 0.014(6) 0.016(6) 0.002(5) 0.005(5) 0.002(5)
C4 0.023(7) 0.030(7) 0.015(6) 0.001(5) -0.005(5) -0.004(5)
C5 0.023(7) 0.024(7) 0.020(6) 0.004(5) 0.000(5) -0.011(5)
C6 0.024(7) 0.029(8) 0.036(7) -0.011(6) -0.001(6) -0.001(6)
C7 0.030(8) 0.040(8) 0.046(8) -0.020(7) -0.030(7) 0.018(7)
C8 0.058(10) 0.027(8) 0.035(8) -0.017(6) -0.022(7) 0.006(7)
C9 0.007(6) 0.018(6) 0.023(7) -0.008(5) 0.000(4) 0.006(5)
C10 0.017(6) 0.018(6) 0.018(6) -0.001(5) 0.003(5) 0.006(5)
C11 0.032(8) 0.024(7) 0.016(6) -0.007(5) 0.005(5) -0.003(6)
C12 0.032(7) 0.022(7) 0.017(6) -0.010(5) 0.011(5) -0.008(5)
C13 0.034(8) 0.030(7) 0.007(6) 0.001(5) -0.009(5) 0.002(6)
C14 0.033(8) 0.023(7) 0.021(6) -0.009(6) -0.010(6) -0.009(6)
C15 0.029(8) 0.025(7) 0.028(7) -0.007(5) 0.019(6) 0.006(5)
C16 0.026(7) 0.022(6) 0.014(6) 0.010(5) 0.000(5) -0.005(5)
C17 0.014(6) 0.032(7) 0.038(8) 0.006(6) 0.003(6) 0.009(6)
C18 0.020(7) 0.028(7) 0.018(6) 0.004(5) 0.009(5) -0.003(6)
C19 0.028(7) 0.015(6) 0.015(6) -0.012(5) -0.011(5) -0.003(5)
C20 0.013(6) 0.026(7) 0.009(5) -0.004(5) 0.000(4) -0.001(5)

_geom_special_details            
; 
All esds (except the esd in the dihedral angle between two l.s. planes) 
are estimated using the full covariance matrix.  The cell esds are taken 
into account individually in the estimation of esds in distances, angles 
and torsion angles; correlations between esds in cell parameters are only 
used when they are defined by crystal symmetry.  An approximate (isotropic) 
treatment of cell esds is used for estimating esds involving l.s. planes. 
;

loop_
_geom_bond_atom_site_label_1
_geom_bond_atom_site_label_2
_geom_bond_distance
_geom_bond_site_symmetry_2
_geom_bond_publ_flag
Mo1 O1 1.732(7) . ?
Mo1 O3 1.761(7) . ?
Mo1 O4 1.766(7) . ?
Mo1 O2 1.784(7) . ?
Ni1 O2 2.022(7) 5_556 ?
Ni1 O4 2.032(7) . ?
Ni1 N1 2.086(9) . ?
Ni1 N2 2.090(9) . ?
Ni1 N4 2.114(8) . ?
Ni1 N3 2.126(8) . ?
O2 Ni1 2.022(7) 5_546 ?
N1 C1 1.319(13) . ?
N1 C5 1.345(14) . ?
N2 C11 1.332(13) . ?
N2 C15 1.364(14) . ?
N3 C6 1.318(14) . ?
N3 C10 1.340(13) . ?
N4 C20 1.294(13) . ?
N4 C16 1.339(14) . ?
C1 C2 1.401(15) . ?
C2 C3 1.397(15) . ?
C3 C4 1.435(16) . ?
C3 C19 1.462(15) 3_655 ?
C4 C5 1.368(15) . ?
C6 C7 1.416(16) . ?
C7 C8 1.390(17) . ?
C8 C9 1.403(16) . ?
C9 C10 1.416(14) . ?
C9 C13 1.474(15) 4_454 ?
C11 C12 1.352(15) . ?
C12 C13 1.392(16) . ?
C13 C14 1.390(16) . ?
C13 C9 1.474(15) 3 ?
C14 C15 1.346(16) . ?
C16 C17 1.402(16) . ?
C17 C18 1.345(16) . ?
C18 C19 1.421(15) . ?
C19 C20 1.414(15) . ?
C19 C3 1.462(15) 4_464 ?

loop_
_geom_angle_atom_site_label_1
_geom_angle_atom_site_label_2
_geom_angle_atom_site_label_3
_geom_angle
_geom_angle_site_symmetry_1
_geom_angle_site_symmetry_3
_geom_angle_publ_flag
O1 Mo1 O3 111.0(4) . . ?
O1 Mo1 O4 107.0(3) . . ?
O3 Mo1 O4 111.5(4) . . ?
O1 Mo1 O2 110.4(3) . . ?
O3 Mo1 O2 108.5(4) . . ?
O4 Mo1 O2 108.4(3) . . ?
O2 Ni1 O4 176.9(3) 5_556 . ?
O2 Ni1 N1 87.4(3) 5_556 . ?
O4 Ni1 N1 90.7(3) . . ?
O2 Ni1 N2 89.2(3) 5_556 . ?
O4 Ni1 N2 88.5(3) . . ?
N1 Ni1 N2 95.2(3) . . ?
O2 Ni1 N4 90.4(3) 5_556 . ?
O4 Ni1 N4 92.0(3) . . ?
N1 Ni1 N4 86.6(3) . . ?
N2 Ni1 N4 178.1(3) . . ?
O2 Ni1 N3 90.2(3) 5_556 . ?
O4 Ni1 N3 92.0(3) . . ?
N1 Ni1 N3 171.7(3) . . ?
N2 Ni1 N3 92.6(3) . . ?
N4 Ni1 N3 85.5(3) . . ?
Mo1 O2 Ni1 159.4(4) . 5_546 ?
Mo1 O4 Ni1 157.7(4) . . ?
C1 N1 C5 116.2(10) . . ?
C1 N1 Ni1 120.6(7) . . ?
C5 N1 Ni1 122.0(8) . . ?
C11 N2 C15 114.3(10) . . ?
C11 N2 Ni1 125.9(8) . . ?
C15 N2 Ni1 119.8(7) . . ?
C6 N3 C10 118.3(10) . . ?
C6 N3 Ni1 118.9(7) . . ?
C10 N3 Ni1 122.2(7) . . ?
C20 N4 C16 116.8(9) . . ?
C20 N4 Ni1 118.7(7) . . ?
C16 N4 Ni1 124.3(7) . . ?
N1 C1 C2 124.9(10) . . ?
C3 C2 C1 118.9(10) . . ?
C2 C3 C4 116.1(10) . . ?
C2 C3 C19 123.3(10) . 3_655 ?
C4 C3 C19 120.6(10) . 3_655 ?
C5 C4 C3 119.2(11) . . ?
N1 C5 C4 124.6(11) . . ?
N3 C6 C7 122.4(11) . . ?
C8 C7 C6 119.4(12) . . ?
C7 C8 C9 118.8(11) . . ?
C8 C9 C10 116.7(10) . . ?
C8 C9 C13 121.7(10) . 4_454 ?
C10 C9 C13 121.5(9) . 4_454 ?
N3 C10 C9 124.2(10) . . ?
N2 C11 C12 125.2(11) . . ?
C11 C12 C13 120.3(11) . . ?
C14 C13 C12 115.3(11) . . ?
C14 C13 C9 121.4(11) . 3 ?
C12 C13 C9 123.3(10) . 3 ?
C15 C14 C13 120.9(11) . . ?
C14 C15 N2 124.1(10) . . ?
N4 C16 C17 122.5(10) . . ?
C18 C17 C16 120.1(11) . . ?
C17 C18 C19 119.0(10) . . ?
C20 C19 C18 115.0(10) . . ?
C20 C19 C3 122.0(10) . 4_464 ?
C18 C19 C3 123.0(10) . 4_464 ?
N4 C20 C19 126.4(10) . . ?

_diffrn_measured_fraction_theta_max 1.000
_diffrn_reflns_theta_full        23.00
_diffrn_measured_fraction_theta_full 1.000
_refine_diff_density_max         0.637
_refine_diff_density_min         -0.819
_refine_diff_density_rms         0.276

