
#######################################################################
#
#                 Cambridge Crystallographic Data Centre
#                                CCDC
#
#######################################################################
#
# If this CIF has been generated from an entry in the Cambridge
# Structural Database, then it will include bibliographic, chemical,
# crystal, experimental, refinement or atomic coordinate data resulting
# from the CCDC's data processing and validation procedures.
#
#######################################################################

data_CSD_CIF_UGIDAP
_audit_creation_date 2003-01-21
_audit_creation_method CSD-ConQuest-V1
_database_code_CSD UGIDAP
_database_code_depnum_ccdc_archive 'CCDC 1278156'
_chemical_formula_sum 'C20 H30 Cl4'
_chemical_formula_moiety
;
C20 H28 Cl1 1+,Cl1 1-,2(H1 Cl1)
;
_journal_coden_Cambridge 35
_journal_volume 67
_journal_year 2002
_journal_page_first 5106
_journal_name_full 'J.Org.Chem. '
loop_
_publ_author_name
"R.Rathore"
"S.V.Lindeman"
"C.-J.Zhu"
"T.Mori"
"P.v.R.Schleyer"
"J.K.Kochi"
_chemical_name_systematic
;
2,2'-Chloro-2,2'-biadamantylium chloride bis(hydrochloride)
;
_chemical_name_common
;
Teaching Subset: Fundamental Chemistry, Symmetry
;
_cell_volume   1996.650
_exptl_crystal_colour 'colorless'
_exptl_crystal_density_diffrn 1.371
_diffrn_ambient_temperature 123
#These two values have been output from a single CSD field.
_refine_ls_R_factor_gt 0.0608
_refine_ls_wR_factor_gt 0.0608
_symmetry_cell_setting tetragonal
_symmetry_space_group_name_H-M 'P 43 21 2'
_symmetry_Int_Tables_number 96
loop_
_symmetry_equiv_pos_site_id
_symmetry_equiv_pos_as_xyz
1 x,y,z
2 1/2-y,1/2+x,3/4+z
3 1/2+x,1/2-y,1/4-z
4 -x,-y,1/2+z
5 y,x,-z
6 1/2+y,1/2-x,1/4+z
7 1/2-x,1/2+y,3/4-z
8 -y,-x,1/2-z
_cell_length_a 7.1472(1)
_cell_length_b 7.1472(1)
_cell_length_c 39.0868(3)
_cell_angle_alpha 90
_cell_angle_beta 90
_cell_angle_gamma 90
_cell_formula_units_Z 4
loop_
_atom_type_symbol
_atom_type_radius_bond
C 0.68
H 0.23
Cl 0.99
loop_
_atom_site_label
_atom_site_type_symbol
_atom_site_fract_x
_atom_site_fract_y
_atom_site_fract_z
Cl1 Cl 0.1817(1) 0.1817(1) 0.00000
C1 C 0.0201(6) -0.0228(6) 0.0185(1)
C2 C -0.1038(6) 0.0506(6) 0.0471(1)
C3 C 0.0150(7) 0.1021(6) 0.0785(1)
C4 C 0.1314(6) -0.0660(6) 0.0901(1)
C5 C 0.2571(6) -0.1292(7) 0.0607(1)
C6 C 0.1405(6) -0.1857(6) 0.0295(1)
C7 C -0.2349(7) -0.1140(7) 0.0568(1)
C8 C -0.0001(7) -0.2274(7) 0.1002(1)
C9 C 0.0072(7) -0.3451(6) 0.0393(1)
C10 C -0.1183(7) -0.2810(7) 0.0689(1)
H1 H -0.1776(78) 0.1595(75) 0.0405(11)
H2 H -0.0686(69) 0.1268(72) 0.0974(12)
H3 H 0.1082(69) 0.1997(72) 0.0736(12)
H4 H 0.1821(75) -0.0410(68) 0.1113(12)
H5 H 0.3366(72) -0.2421(69) 0.0693(12)
H6 H 0.3508(73) -0.0268(76) 0.0547(12)
H7 H 0.2062(75) -0.2323(73) 0.0147(12)
H8 H -0.3070(78) -0.1401(77) 0.0385(12)
H9 H -0.3087(74) -0.0696(67) 0.0774(12)
H10 H -0.0762(72) -0.1909(72) 0.1187(12)
H11 H 0.0819(72) -0.3306(78) 0.1073(12)
H12 H 0.0992(71) -0.4585(73) 0.0457(12)
H13 H -0.0630(72) -0.3737(75) 0.0199(13)
H14 H -0.1882(76) -0.3773(74) 0.0738(12)
Cl2 Cl 0.5154(2) 0.5154(2) 0.00000
Cl3 Cl 0.4893(2) 0.3436(2) 0.0777(1)
H15 H 0.4897(72) 0.3795(66) 0.0489(12)
C1D C -0.0228(6) 0.0201(6) -0.0185(1)
C2D C 0.0506(6) -0.1038(6) -0.0471(1)
C3D C 0.1021(7) 0.0150(6) -0.0785(1)
C4D C -0.0660(6) 0.1314(6) -0.0901(1)
C5D C -0.1292(6) 0.2571(7) -0.0607(1)
C6D C -0.1857(6) 0.1405(6) -0.0295(1)
C9D C -0.3451(7) 0.0072(6) -0.0393(1)
C10D C -0.2810(7) -0.1183(7) -0.0689(1)
C7D C -0.1140(7) -0.2349(7) -0.0568(1)
H1D H 0.1595(78) -0.1776(75) -0.0405(11)
H8D H -0.1401(78) -0.3070(77) -0.0385(12)
H9D H -0.0696(74) -0.3087(67) -0.0774(12)
C8D C -0.2274(7) -0.0001(7) -0.1002(1)
H4D H -0.0410(75) 0.1821(68) -0.1113(12)
H10D H -0.1909(72) -0.0762(72) -0.1187(12)
H11D H -0.3306(72) 0.0819(78) -0.1073(12)
H14D H -0.3773(76) -0.1882(74) -0.0738(12)
H12D H -0.4585(71) 0.0992(73) -0.0457(12)
H13D H -0.3737(72) -0.0630(75) -0.0199(13)
H7D H -0.2323(75) 0.2062(73) -0.0147(12)
H5D H -0.2421(72) 0.3366(69) -0.0693(12)
H6D H -0.0268(73) 0.3508(76) -0.0547(12)
H2D H 0.1268(69) -0.0686(72) -0.0974(12)
H3D H 0.1997(69) 0.1082(72) -0.0736(12)
#END
