####################################################################### 
# 
# This file contains crystal structure data downloaded from the 
# Cambridge Structural Database (CSD) hosted by the Cambridge 
# Crystallographic Data Centre (CCDC).
# 
# Full information about CCDC data access policies and citation 
# guidelines are available at http://www.ccdc.cam.ac.uk/access/V1 
# 
# Audit and citation data items may have been added by the CCDC. 
# Please retain this information to preserve the provenance of 
# this file and to allow appropriate attribution of the data. 
# 
#######################################################################

data_a
_audit_block_doi                 10.5517/cc13db72
_database_code_depnum_ccdc_archive 'CCDC 1024743'
loop_
_citation_id
_citation_doi
_citation_year
1 10.1016/j.inoche.2015.03.015 2015
_audit_update_record             
;
2015-04-20 deposited with the CCDC.	2024-07-13 downloaded from the CCDC.
;

_audit_creation_method           SHELXL-97
_chemical_name_systematic        
; 
 ? 
;
_chemical_name_common            ?
_chemical_melting_point          ?
_chemical_formula_moiety         ?
_chemical_formula_sum            'C48 H24 Co3 N6 O20'
_chemical_formula_weight         1181.52

loop_
_atom_type_symbol
_atom_type_description
_atom_type_scat_dispersion_real
_atom_type_scat_dispersion_imag
_atom_type_scat_source
C C 0.0033 0.0016 'International Tables Vol C Tables 4.2.6.8 and 6.1.1.4'
H H 0.0000 0.0000 'International Tables Vol C Tables 4.2.6.8 and 6.1.1.4'
N N 0.0061 0.0033 'International Tables Vol C Tables 4.2.6.8 and 6.1.1.4'
O O 0.0106 0.0060 'International Tables Vol C Tables 4.2.6.8 and 6.1.1.4'
Co Co 0.3494 0.9721 'International Tables Vol C Tables 4.2.6.8 and 6.1.1.4'

_symmetry_cell_setting           Trigonal
_symmetry_space_group_name_H-M   'P-31c '

loop_
_symmetry_equiv_pos_as_xyz
'x, y, z'
'-y, x-y, z'
'-x+y, -x, z'
'-y, -x, -z+1/2'
'-x+y, y, -z+1/2'
'x, x-y, -z+1/2'
'-x, -y, -z'
'y, -x+y, -z'
'x-y, x, -z'
'y, x, z-1/2'
'x-y, -y, z-1/2'
'-x, -x+y, z-1/2'

_cell_length_a                   16.483(4)
_cell_length_b                   16.483
_cell_length_c                   14.203(3)
_cell_angle_alpha                90.00
_cell_angle_beta                 90.00
_cell_angle_gamma                120.00
_cell_volume                     3341.7(11)
_cell_formula_units_Z            2
_cell_measurement_temperature    296(2)
_cell_measurement_reflns_used    1740
_cell_measurement_theta_min      2.47
_cell_measurement_theta_max      19.08

_exptl_crystal_description       'needle '
_exptl_crystal_colour            red
_exptl_crystal_size_max          0.17
_exptl_crystal_size_mid          0.06
_exptl_crystal_size_min          0.06
_exptl_crystal_density_meas      ?
_exptl_crystal_density_diffrn    1.174
_exptl_crystal_density_method    'not measured'
_exptl_crystal_F_000             1190
_exptl_absorpt_coefficient_mu    0.800
_exptl_absorpt_correction_type   multi-scan
_exptl_absorpt_correction_T_min  0.8760
_exptl_absorpt_correction_T_max  0.9536
_exptl_absorpt_process_details   '(SADABS; Bruker, 2001)'

_exptl_special_details           
; 
 ? 
;

_diffrn_ambient_temperature      296(2)
_diffrn_radiation_wavelength     0.71073
_diffrn_radiation_type           MoK\a
_diffrn_radiation_source         'fine-focus sealed tube'
_diffrn_radiation_monochromator  graphite
_diffrn_measurement_device_type  'Bruker APEX2 CCD area-detector diffractometer'
_diffrn_measurement_method       '\f and \w scans'
_diffrn_detector_area_resol_mean ?
_diffrn_standards_number         ?
_diffrn_standards_interval_count ?
_diffrn_standards_interval_time  ?
_diffrn_standards_decay_%        ?
_diffrn_reflns_number            18904
_diffrn_reflns_av_R_equivalents  0.0835
_diffrn_reflns_av_sigmaI/netI    0.0472
_diffrn_reflns_limit_h_min       -19
_diffrn_reflns_limit_h_max       19
_diffrn_reflns_limit_k_min       -19
_diffrn_reflns_limit_k_max       18
_diffrn_reflns_limit_l_min       -16
_diffrn_reflns_limit_l_max       16
_diffrn_reflns_theta_min         1.43
_diffrn_reflns_theta_max         25.14
_reflns_number_total             1999
_reflns_number_gt                1212
_reflns_threshold_expression     >2sigma(I)

_computing_data_collection       'Bruker APEX2'
_computing_cell_refinement       'Bruker SMART'
_computing_data_reduction        'Bruker SAINT'
_computing_structure_solution    'SHELXS-97 (Sheldrick, 1990)'
_computing_structure_refinement  'SHELXL-97 (Sheldrick, 1997)'
_computing_molecular_graphics    'SHELXTL (Bruker, 1997)'
_computing_publication_material  'WINGX (Farrugia,1999)'

_refine_special_details          
; 
 Refinement of F^2^ against ALL reflections.  The weighted R-factor wR and 
 goodness of fit S are based on F^2^, conventional R-factors R are based 
 on F, with F set to zero for negative F^2^. The threshold expression of 
 F^2^ > 2sigma(F^2^) is used only for calculating R-factors(gt) etc. and is 
 not relevant to the choice of reflections for refinement.  R-factors based 
 on F^2^ are statistically about twice as large as those based on F, and R- 
 factors based on ALL data will be even larger. 
;

_refine_ls_structure_factor_coef Fsqd
_refine_ls_matrix_type           full
_refine_ls_weighting_scheme      calc
_refine_ls_weighting_details     
'calc w=1/[\s^2^(Fo^2^)+(0.1863P)^2^+0.0000P] where P=(Fo^2^+2Fc^2^)/3'
_atom_sites_solution_primary     direct
_atom_sites_solution_secondary   difmap
_atom_sites_solution_hydrogens   geom
_refine_ls_hydrogen_treatment    mixed
_refine_ls_extinction_method     none
_refine_ls_extinction_coef       ?
_refine_ls_number_reflns         1999
_refine_ls_number_parameters     117
_refine_ls_number_restraints     7
_refine_ls_R_factor_all          0.1211
_refine_ls_R_factor_gt           0.0856
_refine_ls_wR_factor_ref         0.2745
_refine_ls_wR_factor_gt          0.2520
_refine_ls_goodness_of_fit_ref   1.002
_refine_ls_restrained_S_all      1.040
_refine_ls_shift/su_max          0.003
_refine_ls_shift/su_mean         0.000

loop_
_atom_site_label
_atom_site_type_symbol
_atom_site_fract_x
_atom_site_fract_y
_atom_site_fract_z
_atom_site_U_iso_or_equiv
_atom_site_adp_type
_atom_site_occupancy
_atom_site_symmetry_multiplicity
_atom_site_calc_flag
_atom_site_refinement_flags
_atom_site_disorder_assembly
_atom_site_disorder_group
Co1 Co 0.6667 0.3333 0.2500 0.0447(6) Uani 1 6 d S . .
Co2 Co 0.6667 0.3333 0.50303(12) 0.0700(6) Uani 1 3 d SU . .
O1 O 0.5592(4) 0.2266(4) 0.3242(5) 0.108(2) Uani 1 1 d . . .
O2 O 0.5395(4) 0.2385(4) 0.4796(6) 0.1029(19) Uani 1 1 d . . .
C4 C 0.2207(4) 0.0118(4) 0.3724(5) 0.0614(16) Uani 1 1 d . . .
C2 C 0.3694(5) 0.0953(5) 0.3023(6) 0.081(2) Uani 1 1 d . . .
H2 H 0.4081 0.1100 0.2499 0.097 Uiso 1 1 calc R . .
C5 C 0.2556(5) 0.0471(5) 0.4594(5) 0.083(2) Uani 1 1 d . . .
H5 H 0.2168 0.0296 0.5119 0.099 Uiso 1 1 calc R . .
C3 C 0.2750(5) 0.0347(6) 0.2932(5) 0.082(2) Uani 1 1 d . . .
H3 H 0.2486 0.0099 0.2349 0.098 Uiso 1 1 calc R . .
C6 C 0.3508(4) 0.1099(5) 0.4671(5) 0.079(2) Uani 1 1 d . . .
H6 H 0.3764 0.1354 0.5255 0.095 Uiso 1 1 calc R . .
C1 C 0.4077(4) 0.1347(4) 0.3890(6) 0.0701(19) Uani 1 1 d . . .
O3 O 0.1243(3) -0.0537(3) 0.3646(3) 0.0670(12) Uani 1 1 d . . .
C7 C 0.0638(4) -0.0239(4) 0.3676(4) 0.0565(14) Uani 1 1 d . . .
N1 N -0.0266(3) -0.0947(3) 0.3676(4) 0.0561(12) Uani 1 1 d . . .
C8 C 0.5100(5) 0.2048(5) 0.3984(8) 0.091(3) Uani 1 1 d . . .
O1W O 0.6667 0.3333 0.6382(7) 0.1008(10) Uani 1 3 d SU . .

loop_
_atom_site_aniso_label
_atom_site_aniso_U_11
_atom_site_aniso_U_22
_atom_site_aniso_U_33
_atom_site_aniso_U_23
_atom_site_aniso_U_13
_atom_site_aniso_U_12
Co1 0.0370(7) 0.0370(7) 0.0600(12) 0.000 0.000 0.0185(3)
Co2 0.0628(7) 0.0628(7) 0.0844(11) 0.000 0.000 0.0314(4)
O1 0.077(3) 0.079(4) 0.160(6) 0.047(3) 0.053(4) 0.033(3)
O2 0.060(3) 0.076(4) 0.162(6) 0.017(4) 0.016(4) 0.026(3)
C4 0.046(3) 0.060(4) 0.081(5) 0.004(3) 0.007(3) 0.029(3)
C2 0.073(5) 0.084(5) 0.096(6) 0.032(4) 0.037(4) 0.047(4)
C5 0.051(4) 0.095(5) 0.089(5) -0.001(4) 0.020(4) 0.027(4)
C3 0.082(5) 0.102(5) 0.082(5) 0.014(4) 0.017(4) 0.061(4)
C6 0.054(4) 0.078(5) 0.088(5) 0.007(4) 0.007(3) 0.020(3)
C1 0.048(3) 0.059(4) 0.106(6) 0.023(4) 0.021(4) 0.029(3)
O3 0.052(2) 0.054(2) 0.098(3) -0.004(2) 0.003(2) 0.029(2)
C7 0.050(3) 0.052(3) 0.065(4) -0.003(3) 0.001(3) 0.023(3)
N1 0.049(3) 0.048(3) 0.069(3) -0.003(2) 0.002(2) 0.023(2)
C8 0.058(4) 0.062(5) 0.160(9) 0.040(5) 0.036(5) 0.036(4)
O1W 0.1042(11) 0.1042(11) 0.0941(12) 0.000 0.000 0.0521(5)

_geom_special_details            
; 
 All esds (except the esd in the dihedral angle between two l.s. planes) 
 are estimated using the full covariance matrix.  The cell esds are taken 
 into account individually in the estimation of esds in distances, angles 
 and torsion angles; correlations between esds in cell parameters are only 
 used when they are defined by crystal symmetry.  An approximate (isotropic) 
 treatment of cell esds is used for estimating esds involving l.s. planes. 
;

loop_
_geom_bond_atom_site_label_1
_geom_bond_atom_site_label_2
_geom_bond_distance
_geom_bond_site_symmetry_2
_geom_bond_publ_flag
Co1 O1 2.056(5) 5_655 ?
Co1 O1 2.056(5) 2_655 ?
Co1 O1 2.056(5) . ?
Co1 O1 2.056(5) 4_665 ?
Co1 O1 2.056(5) 6 ?
Co1 O1 2.056(5) 3_665 ?
Co2 O2 1.915(6) 2_655 ?
Co2 O2 1.915(6) . ?
Co2 O2 1.915(6) 3_665 ?
Co2 O1W 1.920(10) . ?
O1 C8 1.267(10) . ?
O2 C8 1.269(11) . ?
C4 C5 1.365(9) . ?
C4 C3 1.367(9) . ?
C4 O3 1.410(7) . ?
C2 C3 1.372(11) . ?
C2 C1 1.388(10) . ?
C5 C6 1.386(9) . ?
C6 C1 1.376(9) . ?
C1 C8 1.499(10) . ?
O3 C7 1.314(7) . ?
C7 N1 1.337(7) 2 ?
C7 N1 1.357(7) . ?
N1 C7 1.337(7) 3 ?

loop_
_geom_angle_atom_site_label_1
_geom_angle_atom_site_label_2
_geom_angle_atom_site_label_3
_geom_angle
_geom_angle_site_symmetry_1
_geom_angle_site_symmetry_3
_geom_angle_publ_flag
O1 Co1 O1 83.4(3) 5_655 2_655 ?
O1 Co1 O1 84.4(3) 5_655 . ?
O1 Co1 O1 96.1(3) 2_655 . ?
O1 Co1 O1 96.1(3) 5_655 4_665 ?
O1 Co1 O1 84.4(3) 2_655 4_665 ?
O1 Co1 O1 179.4(3) . 4_665 ?
O1 Co1 O1 96.1(3) 5_655 6 ?
O1 Co1 O1 179.4(3) 2_655 6 ?
O1 Co1 O1 83.4(3) . 6 ?
O1 Co1 O1 96.1(3) 4_665 6 ?
O1 Co1 O1 179.4(3) 5_655 3_665 ?
O1 Co1 O1 96.1(3) 2_655 3_665 ?
O1 Co1 O1 96.1(3) . 3_665 ?
O1 Co1 O1 83.4(3) 4_665 3_665 ?
O1 Co1 O1 84.4(3) 6 3_665 ?
O2 Co2 O2 117.06(14) 2_655 . ?
O2 Co2 O2 117.06(14) 2_655 3_665 ?
O2 Co2 O2 117.06(14) . 3_665 ?
O2 Co2 O1W 100.0(2) 2_655 . ?
O2 Co2 O1W 100.0(2) . . ?
O2 Co2 O1W 100.0(2) 3_665 . ?
C8 O1 Co1 145.5(6) . . ?
C8 O2 Co2 122.6(6) . . ?
C5 C4 C3 123.2(7) . . ?
C5 C4 O3 118.1(6) . . ?
C3 C4 O3 118.6(6) . . ?
C3 C2 C1 120.6(6) . . ?
C4 C5 C6 118.0(6) . . ?
C4 C3 C2 118.1(7) . . ?
C1 C6 C5 120.5(7) . . ?
C6 C1 C2 119.6(6) . . ?
C6 C1 C8 119.6(8) . . ?
C2 C1 C8 120.8(7) . . ?
C7 O3 C4 119.1(4) . . ?
O3 C7 N1 119.6(5) . 2 ?
O3 C7 N1 112.9(5) . . ?
N1 C7 N1 127.4(5) 2 . ?
C7 N1 C7 112.6(5) 3 . ?
O1 C8 O2 125.5(8) . . ?
O1 C8 C1 117.3(10) . . ?
O2 C8 C1 117.1(8) . . ?

_diffrn_measured_fraction_theta_max 0.998
_diffrn_reflns_theta_full        25.14
_diffrn_measured_fraction_theta_full 0.998
_refine_diff_density_max         0.887
_refine_diff_density_min         -3.046
_refine_diff_density_rms         0.092
# SQUEEZE RESULTS (APPEND TO CIF)
loop_
_platon_squeeze_void_nr
_platon_squeeze_void_average_x
_platon_squeeze_void_average_y
_platon_squeeze_void_average_z
_platon_squeeze_void_volume
_platon_squeeze_void_count_electrons
1 -0.023 0.473 -0.013 1397.8 263.8
_platon_squeeze_details          
;
;
