
#######################################################################
#
#                 Cambridge Crystallographic Data Centre
#                                CCDC
#
#######################################################################
#
# If this CIF has been generated from an entry in the Cambridge
# Structural Database, then it will include bibliographic, chemical,
# crystal, experimental, refinement or atomic coordinate data resulting
# from the CCDC's data processing and validation procedures.
#
#######################################################################

data_CSD_CIF_UGOQAL
_audit_creation_date 2020-02-19
_audit_creation_method CSD-ConQuest-V1
_database_code_CSD UGOQAL
_database_code_depnum_ccdc_archive 'CCDC 1956622'
_chemical_formula_sum 'C10 H10 F2 N2 Pt1'
_chemical_formula_moiety
;
C10 H10 F2 N2 Pt1
;
_journal_coden_Cambridge 9
_journal_volume 59
_journal_year 2020
_journal_page_first 2765
_journal_name_full 'Inorg.Chem. '
loop_
_publ_author_name
"M.Albayer"
"L.Sharp-Bucknall"
"N.Withanage"
"G.Armendariz-Vidales"
"C.F.Hogan"
"J.L.Dutton"
_chemical_name_systematic
;
difluoro-bis(pyridine)-platinum(ii)
;
_chemical_name_common
;
Teaching Subset: Fundamental Chemistry, Symmetry
;
_cell_volume    753.308
_exptl_crystal_colour 'yellow'
_exptl_crystal_density_diffrn 2.588
_exptl_crystal_description 'plate'
_diffrn_ambient_temperature 150
#These two values have been output from a single CSD field.
_refine_ls_R_factor_gt 0.0168
_refine_ls_wR_factor_gt 0.0168
_symmetry_cell_setting hexagonal
_symmetry_space_group_name_H-M 'P 64'
_symmetry_Int_Tables_number 172
loop_
_symmetry_equiv_pos_site_id
_symmetry_equiv_pos_as_xyz
1 x,y,z
2 -y,x-y,1/3+z
3 -x+y,-x,2/3+z
4 -x,-y,z
5 y,-x+y,1/3+z
6 x-y,x,2/3+z
_cell_length_a 8.8287(1)
_cell_length_b 8.8287(1)
_cell_length_c 11.1596(1)
_cell_angle_alpha 90
_cell_angle_beta 90
_cell_angle_gamma 120
_cell_formula_units_Z 3
loop_
_atom_type_symbol
_atom_type_radius_bond
C 0.68
H 0.23
F 0.64
N 0.68
Pt 1.36
loop_
_atom_site_label
_atom_site_type_symbol
_atom_site_fract_x
_atom_site_fract_y
_atom_site_fract_z
Pt1 Pt 0.50000 1.00000 0.58828(17)
N1 N 0.3093(8) 0.8889(8) 0.4667(6)
F1 F 0.6824(6) 1.0938(5) 0.7149(4)
C1 C 0.3281(9) 0.8106(9) 0.3681(7)
H1 H 0.43596 0.81381 0.35496
C2 C 0.0186(9) 0.8021(9) 0.4049(7)
H2 H -0.08762 0.80188 0.41907
C3 C 0.1550(9) 0.8838(9) 0.4836(7)
H3 H 0.14088 0.93871 0.55251
C4 C 0.1948(9) 0.7264(9) 0.2863(7)
H4 H 0.21115 0.67266 0.21755
C5 C 0.0358(9) 0.7203(9) 0.3049(7)
H5 H -0.05824 0.66130 0.25013
N1C N 0.6907(8) 1.1111(8) 0.4667(6)
F1C F 0.3176(6) 0.9062(5) 0.7149(4)
C1C C 0.6719(9) 1.1894(9) 0.3681(7)
H1C H 0.56404 1.18619 0.35496
C2C C 0.9814(9) 1.1979(9) 0.4049(7)
H2C H 1.08762 1.19813 0.41907
C3C C 0.8450(9) 1.1162(9) 0.4836(7)
H3C H 0.85912 1.06129 0.55251
C4C C 0.8052(9) 1.2736(9) 0.2863(7)
H4C H 0.78885 1.32734 0.21755
C5C C 0.9642(9) 1.2797(9) 0.3049(7)
H5C H 1.05824 1.33870 0.25013
#END
