####################################################################### 
# 
# This file contains crystal structure data downloaded from the 
# Cambridge Structural Database (CSD) hosted by the Cambridge 
# Crystallographic Data Centre (CCDC).
# 
# Full information about CCDC data access policies and citation 
# guidelines are available at http://www.ccdc.cam.ac.uk/access/V1 
# 
# Audit and citation data items may have been added by the CCDC. 
# Please retain this information to preserve the provenance of 
# this file and to allow appropriate attribution of the data. 
# 
#######################################################################

data_thegd2ax
_audit_block_doi                 10.5517/cc5zq1w
_database_code_depnum_ccdc_archive 'CCDC 178468'
loop_
_citation_id
_citation_doi
_citation_year
1 10.1016/S0162-0134(02)00562-7 2002
_audit_update_record             
;
2002-01-29 deposited with the CCDC.	2024-07-13 downloaded from the CCDC.
;

_audit_creation_method           SHELXL-97
_chemical_name_systematic        
; 
? 
;
_chemical_name_common            ?
_chemical_melting_point          ?
_chemical_formula_moiety         ?
_chemical_formula_sum            'C30 H33 Cl6 Gd N2 O13'
_chemical_formula_weight         999.53

loop_
_atom_type_symbol
_atom_type_description
_atom_type_scat_dispersion_real
_atom_type_scat_dispersion_imag
_atom_type_scat_source
C C 0.0033 0.0016 'International Tables Vol C Tables 4.2.6.8 and 6.1.1.4'
H H 0.0000 0.0000 'International Tables Vol C Tables 4.2.6.8 and 6.1.1.4'
N N 0.0061 0.0033 'International Tables Vol C Tables 4.2.6.8 and 6.1.1.4'
O O 0.0106 0.0060 'International Tables Vol C Tables 4.2.6.8 and 6.1.1.4'
Cl Cl 0.1484 0.1585 'International Tables Vol C Tables 4.2.6.8 and 6.1.1.4'
Gd Gd -0.1653 3.9035 'International Tables Vol C Tables 4.2.6.8 and 6.1.1.4'

_symmetry_cell_setting           ?
_symmetry_space_group_name_H-M   ?

loop_
_symmetry_equiv_pos_as_xyz
'x, y, z'
'-x+1/2, y+1/2, -z+1/2'
'-x, -y, -z'
'x-1/2, -y-1/2, z-1/2'

_cell_length_a                   8.8360(12)
_cell_length_b                   32.693(5)
_cell_length_c                   13.8669(19)
_cell_angle_alpha                90.00
_cell_angle_beta                 93.250(2)
_cell_angle_gamma                90.00
_cell_volume                     3999.4(10)
_cell_formula_units_Z            4
_cell_measurement_temperature    293(2)
_cell_measurement_reflns_used    ?
_cell_measurement_theta_min      ?
_cell_measurement_theta_max      ?

_exptl_crystal_description       ?
_exptl_crystal_colour            ?
_exptl_crystal_size_max          ?
_exptl_crystal_size_mid          ?
_exptl_crystal_size_min          ?
_exptl_crystal_density_meas      ?
_exptl_crystal_density_diffrn    1.660
_exptl_crystal_density_method    'not measured'
_exptl_crystal_F_000             1988
_exptl_absorpt_coefficient_mu    2.120
_exptl_absorpt_correction_type   ?
_exptl_absorpt_correction_T_min  ?
_exptl_absorpt_correction_T_max  ?
_exptl_absorpt_process_details   ?

_exptl_special_details           
; 
? 
;

_diffrn_ambient_temperature      293(2)
_diffrn_radiation_wavelength     0.71073
_diffrn_radiation_type           MoK\a
_diffrn_radiation_source         'fine-focus sealed tube'
_diffrn_radiation_monochromator  graphite
_diffrn_measurement_device_type  ?
_diffrn_measurement_method       ?
_diffrn_detector_area_resol_mean ?
_diffrn_standards_number         ?
_diffrn_standards_interval_count ?
_diffrn_standards_interval_time  ?
_diffrn_standards_decay_%        ?
_diffrn_reflns_number            35235
_diffrn_reflns_av_R_equivalents  0.0503
_diffrn_reflns_av_sigmaI/netI    0.0395
_diffrn_reflns_limit_h_min       -11
_diffrn_reflns_limit_h_max       11
_diffrn_reflns_limit_k_min       -41
_diffrn_reflns_limit_k_max       43
_diffrn_reflns_limit_l_min       -18
_diffrn_reflns_limit_l_max       17
_diffrn_reflns_theta_min         1.25
_diffrn_reflns_theta_max         28.67
_reflns_number_total             9315
_reflns_number_gt                6968
_reflns_threshold_expression     >2sigma(I)

_computing_data_collection       ?
_computing_cell_refinement       ?
_computing_data_reduction        ?
_computing_structure_solution    'SHELXS-97 (Sheldrick, 1990)'
_computing_structure_refinement  'SHELXL-97 (Sheldrick, 1997)'
_computing_molecular_graphics    ?
_computing_publication_material  ?

_refine_special_details          
; 
Refinement of F^2^ against ALL reflections.  The weighted R-factor wR and 
goodness of fit S are based on F^2^, conventional R-factors R are based 
on F, with F set to zero for negative F^2^. The threshold expression of 
F^2^ > 2sigma(F^2^) is used only for calculating R-factors(gt) etc. and is 
not relevant to the choice of reflections for refinement.  R-factors based 
on F^2^ are statistically about twice as large as those based on F, and R- 
factors based on ALL data will be even larger. 
;

_refine_ls_structure_factor_coef Fsqd
_refine_ls_matrix_type           full
_refine_ls_weighting_scheme      calc
_refine_ls_weighting_details     
'calc w=1/[\s^2^(Fo^2^)+(0.0439P)^2^+17.9000P] where P=(Fo^2^+2Fc^2^)/3'
_atom_sites_solution_primary     direct
_atom_sites_solution_secondary   difmap
_atom_sites_solution_hydrogens   geom
_refine_ls_hydrogen_treatment    mixed
_refine_ls_extinction_method     none
_refine_ls_extinction_coef       ?
_refine_ls_number_reflns         9315
_refine_ls_number_parameters     428
_refine_ls_number_restraints     0
_refine_ls_R_factor_all          0.0881
_refine_ls_R_factor_gt           0.0648
_refine_ls_wR_factor_ref         0.1557
_refine_ls_wR_factor_gt          0.1456
_refine_ls_goodness_of_fit_ref   1.173
_refine_ls_restrained_S_all      1.173
_refine_ls_shift/su_max          2.066
_refine_ls_shift/su_mean         0.035

loop_
_atom_site_label
_atom_site_type_symbol
_atom_site_fract_x
_atom_site_fract_y
_atom_site_fract_z
_atom_site_U_iso_or_equiv
_atom_site_adp_type
_atom_site_occupancy
_atom_site_symmetry_multiplicity
_atom_site_calc_flag
_atom_site_refinement_flags
_atom_site_disorder_assembly
_atom_site_disorder_group
Gd Gd 0.23975(3) -0.001068(9) -0.00763(2) 0.03675(11) Uani 1 1 d . . .
Cl1 Cl 0.7127(3) -0.20700(7) -0.1794(2) 0.0948(8) Uani 1 1 d . . .
Cl2 Cl 0.1556(6) -0.15354(14) -0.3849(2) 0.162(2) Uani 1 1 d . . .
Cl3 Cl 0.7137(7) -0.12136(19) -0.5054(3) 0.198(3) Uani 1 1 d . . .
Cl4 Cl 0.3028(5) -0.24427(10) -0.0738(3) 0.1286(12) Uani 1 1 d . . .
Cl5 Cl 0.0886(5) 0.25583(8) -0.0590(2) 0.1340(15) Uani 1 1 d . . .
Cl6 Cl -0.0498(4) 0.16623(10) -0.3721(2) 0.1093(10) Uani 1 1 d . . .
O1 O 0.6231(5) 0.45232(13) 0.3657(3) 0.0444(11) Uani 1 1 d . . .
O2 O -0.0351(5) -0.02446(12) -0.0767(3) 0.0397(10) Uani 1 1 d . . .
O3 O 0.1405(7) 0.10475(17) -0.2806(4) 0.0660(15) Uani 1 1 d . . .
O4 O 0.1661(5) -0.04737(14) -0.1449(3) 0.0452(11) Uani 1 1 d . . .
O5 O 0.0000(7) -0.10212(18) -0.2575(4) 0.0664(15) Uani 1 1 d . . .
O6 O 0.4531(5) -0.04142(14) -0.0176(3) 0.0478(11) Uani 1 1 d . . .
O7 O 0.3239(5) 0.06966(13) 0.0312(3) 0.0400(10) Uani 1 1 d . . .
O8 O 0.5434(6) -0.14042(14) -0.1081(4) 0.0542(12) Uani 1 1 d . . .
O9 O 0.3524(5) 0.02498(15) -0.1571(3) 0.0490(11) Uani 1 1 d . . .
O10 O 0.3504(5) -0.00214(15) 0.1589(3) 0.0532(12) Uani 1 1 d . . .
H10A H 0.2861 -0.0096 0.1955 0.080 Uiso 1 1 calc R . .
H10B H 0.4512 -0.0088 0.1636 0.080 Uiso 1 1 d R . .
O11 O 0.3447(5) 0.43583(13) 0.4302(4) 0.0523(12) Uani 1 1 d . . .
H11A H 0.2965 0.4163 0.4495 0.078 Uiso 1 1 calc R . .
H11B H 0.4271 0.4382 0.4139 0.078 Uiso 1 1 d R . .
C1 C 0.0263(7) -0.04707(19) -0.1373(5) 0.0391(14) Uani 1 1 d . . .
C2 C -0.0786(9) -0.0732(3) -0.2018(6) 0.063(2) Uani 1 1 d . . .
H2A H -0.1477 -0.0877 -0.1620 0.076 Uiso 1 1 calc R . .
H2B H -0.1387 -0.0555 -0.2451 0.076 Uiso 1 1 calc R . .
C3 C 0.0633(9) -0.1346(3) -0.2078(6) 0.060(2) Uani 1 1 d . . .
C4 C 0.1448(11) -0.1616(3) -0.2617(7) 0.076(3) Uani 1 1 d . . .
C5 C 0.2155(13) -0.1965(3) -0.2189(9) 0.093(3) Uani 1 1 d . . .
H5 H 0.2657 -0.2150 -0.2569 0.112 Uiso 1 1 calc R . .
C6 C 0.2105(12) -0.2028(3) -0.1258(9) 0.081(3) Uani 1 1 d . . .
C7 C 0.1307(11) -0.1761(3) -0.0695(7) 0.078(3) Uani 1 1 d . . .
H7 H 0.1267 -0.1808 -0.0036 0.094 Uiso 1 1 calc R . .
C8 C 0.0570(10) -0.1426(2) -0.1114(6) 0.064(2) Uani 1 1 d . . .
H8 H 0.0023 -0.1253 -0.0732 0.077 Uiso 1 1 calc R . .
C9 C 0.2416(7) 0.04817(19) -0.1796(4) 0.0395(14) Uani 1 1 d . . .
C10 C 0.2626(10) 0.0774(2) -0.2611(5) 0.060(2) Uani 1 1 d . . .
H10C H 0.3538 0.0933 -0.2462 0.072 Uiso 1 1 calc R . .
H10D H 0.2784 0.0618 -0.3191 0.072 Uiso 1 1 calc R . .
C11 C 0.1325(9) 0.1391(2) -0.2247(5) 0.0505(17) Uani 1 1 d . . .
C12 C 0.0443(10) 0.1710(3) -0.2619(6) 0.063(2) Uani 1 1 d . . .
C13 C 0.0308(12) 0.2072(3) -0.2096(7) 0.081(3) Uani 1 1 d . . .
H13 H -0.0294 0.2285 -0.2342 0.097 Uiso 1 1 calc R . .
C14 C 0.1067(13) 0.2105(3) -0.1228(7) 0.080(3) Uani 1 1 d . . .
C15 C 0.1962(12) 0.1798(3) -0.0847(7) 0.077(3) Uani 1 1 d . . .
H15 H 0.2484 0.1830 -0.0250 0.092 Uiso 1 1 calc R . .
C16 C 0.2083(10) 0.1436(2) -0.1364(6) 0.065(2) Uani 1 1 d . . .
H16 H 0.2681 0.1224 -0.1110 0.078 Uiso 1 1 calc R . .
C17 C 0.5344(6) -0.07132(17) -0.0370(4) 0.0323(12) Uani 1 1 d . . .
C18 C 0.4536(8) -0.11065(19) -0.0628(6) 0.0487(17) Uani 1 1 d . . .
H18A H 0.4169 -0.1224 -0.0044 0.058 Uiso 1 1 calc R . .
H18B H 0.3660 -0.1044 -0.1057 0.058 Uiso 1 1 calc R . .
C19 C 0.5747(9) -0.1339(2) -0.2008(5) 0.0513(17) Uani 1 1 d . . .
C20 C 0.6578(9) -0.1641(3) -0.2445(6) 0.063(2) Uani 1 1 d . . .
C21 C 0.6994(13) -0.1610(4) -0.3373(9) 0.103(4) Uani 1 1 d . . .
H21 H 0.7560 -0.1815 -0.3646 0.123 Uiso 1 1 calc R . .
C22 C 0.6571(17) -0.1278(5) -0.3882(8) 0.110(4) Uani 1 1 d . . .
C23 C 0.5736(15) -0.0968(4) -0.3499(8) 0.103(4) Uani 1 1 d . . .
H23 H 0.5465 -0.0740 -0.3869 0.124 Uiso 1 1 calc R . .
C24 C 0.5297(11) -0.1001(3) -0.2541(6) 0.070(2) Uani 1 1 d . . .
H24 H 0.4715 -0.0798 -0.2275 0.084 Uiso 1 1 calc R . .
O12 O -0.6825(11) -0.1278(3) 0.1544(7) 0.124(3) Uiso 1 1 d . . .
N1 N -0.5826(12) -0.1774(4) 0.2446(11) 0.129(5) Uani 1 1 d . . .
C25 C -0.6397(14) -0.1397(6) 0.2281(10) 0.134(6) Uani 1 1 d . . .
H25 H -0.6445 -0.1222 0.2806 0.161 Uiso 1 1 calc R . .
C26 C -0.579(2) -0.2085(6) 0.1721(18) 0.206(10) Uani 1 1 d . . .
H26A H -0.6443 -0.2306 0.1881 0.309 Uiso 1 1 calc R . .
H26B H -0.4769 -0.2186 0.1691 0.309 Uiso 1 1 calc R . .
H26C H -0.6120 -0.1973 0.1106 0.309 Uiso 1 1 calc R . .
C27 C -0.5197(19) -0.1874(7) 0.3301(13) 0.277(16) Uani 1 1 d . . .
H27A H -0.5535 -0.2141 0.3478 0.415 Uiso 1 1 calc R . .
H27B H -0.5486 -0.1678 0.3773 0.415 Uiso 1 1 calc R . .
H27C H -0.4114 -0.1874 0.3273 0.415 Uiso 1 1 calc R . .
O13 O 0.2596(18) -0.0102(5) 0.3431(11) 0.397(15) Uiso 1 1 d R . .
N2 N 0.1525(18) -0.0448(6) -0.5287(11) 0.385(16) Uiso 1 1 d R . .
C28 C 0.1775(18) -0.0428(5) 0.3709(11) 0.45(3) Uiso 1 1 d R . .
H28 H 0.1403 -0.0626 0.3274 0.545 Uiso 1 1 calc R . .
C29 C 0.2136 0.9849 0.5436 0.510 Uiso 1 1 d . . .
H29A H 0.2870 1.0021 0.5150 0.765 Uiso 1 1 calc R . .
H29B H 0.2610 0.9705 0.5976 0.765 Uiso 1 1 calc R . .
H29C H 0.1326 1.0015 0.5653 0.765 Uiso 1 1 calc R . .
C30 C 0.0554 0.9224 0.5205 0.510 Uiso 1 1 d . . .
H30A H 0.1173 0.9082 0.5687 0.765 Uiso 1 1 calc R . .
H30B H 0.0163 0.9033 0.4728 0.765 Uiso 1 1 calc R . .
H30C H -0.0273 0.9355 0.5503 0.765 Uiso 1 1 calc R . .

loop_
_atom_site_aniso_label
_atom_site_aniso_U_11
_atom_site_aniso_U_22
_atom_site_aniso_U_33
_atom_site_aniso_U_23
_atom_site_aniso_U_13
_atom_site_aniso_U_12
Gd 0.03019(16) 0.03630(16) 0.04440(18) 0.00085(15) 0.00773(11) 0.00912(12)
Cl1 0.109(2) 0.0624(13) 0.112(2) -0.0369(14) 0.0005(16) 0.0158(13)
Cl2 0.217(4) 0.204(4) 0.0646(17) -0.043(2) 0.008(2) 0.112(4)
Cl3 0.265(6) 0.266(6) 0.069(2) -0.010(3) 0.050(3) -0.065(5)
Cl4 0.147(3) 0.090(2) 0.150(3) 0.001(2) 0.018(3) 0.022(2)
Cl5 0.239(5) 0.0551(14) 0.115(2) -0.0022(14) 0.079(3) 0.004(2)
Cl6 0.129(3) 0.109(2) 0.0857(19) 0.0306(16) -0.0328(17) 0.0189(18)
O1 0.031(2) 0.049(3) 0.055(3) -0.008(2) 0.015(2) -0.0024(19)
O2 0.034(2) 0.037(2) 0.049(3) -0.0047(19) 0.0117(19) 0.0043(17)
O3 0.090(4) 0.061(3) 0.046(3) 0.011(3) -0.004(3) 0.005(3)
O4 0.027(2) 0.056(3) 0.054(3) -0.008(2) 0.014(2) 0.0028(19)
O5 0.068(4) 0.074(4) 0.058(3) -0.029(3) 0.001(3) 0.004(3)
O6 0.043(2) 0.046(3) 0.054(3) -0.008(2) 0.006(2) 0.015(2)
O7 0.029(2) 0.040(2) 0.052(3) -0.0026(19) 0.0104(19) 0.0004(17)
O8 0.071(3) 0.037(2) 0.055(3) -0.010(2) 0.010(3) 0.005(2)
O9 0.038(2) 0.058(3) 0.052(3) 0.004(2) 0.012(2) 0.004(2)
O10 0.041(2) 0.064(3) 0.055(3) 0.008(3) 0.013(2) 0.010(3)
O11 0.040(3) 0.043(2) 0.076(3) -0.012(2) 0.017(2) -0.008(2)
C1 0.034(3) 0.041(3) 0.043(3) -0.002(3) 0.006(3) 0.005(3)
C2 0.045(4) 0.080(5) 0.064(5) -0.030(4) 0.002(4) 0.002(4)
C3 0.049(4) 0.070(5) 0.061(5) -0.037(4) 0.016(4) -0.004(4)
C4 0.071(6) 0.092(7) 0.065(6) -0.032(5) 0.007(5) 0.012(5)
C5 0.097(8) 0.079(7) 0.104(9) -0.039(6) 0.012(7) 0.017(6)
C6 0.079(7) 0.060(5) 0.106(8) -0.012(5) 0.009(6) -0.006(5)
C7 0.084(7) 0.071(6) 0.082(6) -0.005(5) 0.031(5) -0.025(5)
C8 0.071(5) 0.047(4) 0.077(6) -0.023(4) 0.031(4) -0.012(4)
C9 0.041(4) 0.042(3) 0.036(3) -0.004(3) 0.005(3) 0.000(3)
C10 0.076(5) 0.058(4) 0.046(4) 0.006(3) 0.017(4) 0.006(4)
C11 0.067(5) 0.049(4) 0.037(4) 0.019(3) 0.015(3) -0.002(3)
C12 0.067(5) 0.064(5) 0.058(5) 0.024(4) 0.007(4) 0.007(4)
C13 0.098(7) 0.070(6) 0.077(7) 0.021(5) 0.031(6) 0.018(5)
C14 0.121(9) 0.048(5) 0.076(6) 0.011(4) 0.045(6) 0.000(5)
C15 0.116(8) 0.057(5) 0.058(5) 0.000(4) 0.013(5) -0.011(5)
C16 0.087(6) 0.051(4) 0.056(5) 0.016(4) -0.003(4) -0.002(4)
C17 0.030(3) 0.036(3) 0.032(3) 0.000(2) 0.006(2) 0.002(2)
C18 0.042(4) 0.041(3) 0.065(5) -0.009(3) 0.016(3) -0.006(3)
C19 0.059(4) 0.053(4) 0.043(4) -0.017(3) 0.009(3) -0.011(3)
C20 0.058(5) 0.073(5) 0.059(5) -0.028(4) 0.008(4) -0.016(4)
C21 0.086(8) 0.124(10) 0.100(9) -0.058(8) 0.025(7) -0.023(7)
C22 0.123(11) 0.151(13) 0.057(7) -0.020(7) 0.011(7) -0.037(10)
C23 0.121(10) 0.114(9) 0.073(7) 0.024(7) -0.019(7) -0.026(8)
C24 0.096(7) 0.064(5) 0.049(5) 0.002(4) -0.006(4) -0.011(5)
N1 0.087(7) 0.119(9) 0.178(12) 0.102(9) -0.017(8) -0.016(6)
C25 0.085(8) 0.216(17) 0.103(9) 0.080(11) 0.015(7) -0.039(10)
C26 0.18(2) 0.159(19) 0.29(3) -0.009(19) 0.06(2) -0.002(16)
C27 0.24(3) 0.33(3) 0.25(3) 0.16(3) -0.12(2) -0.04(2)

_geom_special_details            
; 
All esds (except the esd in the dihedral angle between two l.s. planes) 
are estimated using the full covariance matrix.  The cell esds are taken 
into account individually in the estimation of esds in distances, angles 
and torsion angles; correlations between esds in cell parameters are only 
used when they are defined by crystal symmetry.  An approximate (isotropic) 
treatment of cell esds is used for estimating esds involving l.s. planes. 
;

loop_
_geom_bond_atom_site_label_1
_geom_bond_atom_site_label_2
_geom_bond_distance
_geom_bond_site_symmetry_2
_geom_bond_publ_flag
Gd O6 2.311(4) . ?
Gd O2 2.361(4) 3 ?
Gd O10 2.456(5) . ?
Gd O11 2.461(4) 2_545 ?
Gd O7 2.479(4) . ?
Gd O4 2.490(5) . ?
Gd O9 2.499(5) . ?
Gd O1 2.546(4) 4_565 ?
Gd O2 2.671(4) . ?
Gd C9 2.878(6) . ?
Gd C1 2.944(6) . ?
Cl1 C20 1.722(10) . ?
Cl2 C4 1.737(10) . ?
Cl3 C22 1.740(12) . ?
Cl4 C6 1.719(11) . ?
Cl5 C14 1.737(9) . ?
Cl6 C12 1.706(9) . ?
O1 C9 1.251(7) 4_666 ?
O1 Gd 2.546(4) 4_666 ?
O2 C1 1.264(7) . ?
O2 Gd 2.361(4) 3 ?
O3 C11 1.368(9) . ?
O3 C10 1.415(9) . ?
O4 C1 1.246(7) . ?
O5 C3 1.369(10) . ?
O5 C2 1.427(9) . ?
O6 C17 1.252(7) . ?
O7 C17 1.252(7) 3_655 ?
O8 C19 1.347(8) . ?
O8 C18 1.424(8) . ?
O9 C9 1.264(8) . ?
O10 H10A 0.8200 . ?
O10 H10B 0.9154 . ?
O11 Gd 2.461(4) 2 ?
O11 H11A 0.8200 . ?
O11 H11B 0.7787 . ?
C1 C2 1.514(9) . ?
C2 H2A 0.9700 . ?
C2 H2B 0.9700 . ?
C3 C8 1.367(12) . ?
C3 C4 1.386(11) . ?
C4 C5 1.414(14) . ?
C5 C6 1.312(15) . ?
C5 H5 0.9300 . ?
C6 C7 1.389(13) . ?
C7 C8 1.384(13) . ?
C7 H7 0.9300 . ?
C8 H8 0.9300 . ?
C9 O1 1.251(7) 4_565 ?
C9 C10 1.500(9) . ?
C10 H10C 0.9700 . ?
C10 H10D 0.9700 . ?
C11 C16 1.370(11) . ?
C11 C12 1.384(10) . ?
C12 C13 1.395(13) . ?
C13 C14 1.349(14) . ?
C13 H13 0.9300 . ?
C14 C15 1.367(13) . ?
C15 C16 1.391(11) . ?
C15 H15 0.9300 . ?
C16 H16 0.9300 . ?
C17 O7 1.252(7) 3_655 ?
C17 C18 1.504(8) . ?
C18 H18A 0.9700 . ?
C18 H18B 0.9700 . ?
C19 C24 1.376(11) . ?
C19 C20 1.390(11) . ?
C20 C21 1.361(14) . ?
C21 C22 1.337(18) . ?
C21 H21 0.9300 . ?
C22 C23 1.377(18) . ?
C23 C24 1.408(14) . ?
C23 H23 0.9300 . ?
C24 H24 0.9300 . ?
O12 C25 1.138(13) . ?
N1 C27 1.321(17) . ?
N1 C25 1.346(19) . ?
N1 C26 1.43(2) . ?
C25 H25 0.9300 . ?
C26 H26A 0.9600 . ?
C26 H26B 0.9600 . ?
C26 H26C 0.9600 . ?
C27 H27A 0.9600 . ?
C27 H27B 0.9600 . ?
C27 H27C 0.9600 . ?
O13 C28 1.3581 . ?
N2 C28 1.4238 1_554 ?
N2 C29 1.476(17) 1_544 ?
N2 C30 1.56(2) 1_544 ?
C28 N2 1.4238 1_556 ?
C28 H28 0.9321 . ?
C29 N2 1.48(2) 1_566 ?
C29 H29A 1.0615 . ?
C29 H29B 1.0615 . ?
C29 H29C 1.0615 . ?
C30 N2 1.56(3) 1_566 ?
C30 H30A 1.0559 . ?
C30 H30B 1.0559 . ?
C30 H30C 1.0559 . ?

loop_
_geom_angle_atom_site_label_1
_geom_angle_atom_site_label_2
_geom_angle_atom_site_label_3
_geom_angle
_geom_angle_site_symmetry_1
_geom_angle_site_symmetry_3
_geom_angle_publ_flag
O6 Gd O2 151.82(16) . 3 ?
O6 Gd O10 76.44(16) . 