####################################################################### 
# 
# This file contains crystal structure data downloaded from the 
# Cambridge Structural Database (CSD) hosted by the Cambridge 
# Crystallographic Data Centre (CCDC).
# 
# Full information about CCDC data access policies and citation 
# guidelines are available at http://www.ccdc.cam.ac.uk/access/V1 
# 
# Audit and citation data items may have been added by the CCDC. 
# Please retain this information to preserve the provenance of 
# this file and to allow appropriate attribution of the data. 
# 
#######################################################################

data_e935a
_audit_block_doi                 10.5517/ccs6pwj
_database_code_depnum_ccdc_archive 'CCDC 721428'
loop_
_citation_id
_citation_doi
_citation_year
1 10.1039/b903674a 2009
_audit_update_record             
;
2009-02-23 deposited with the CCDC.	2024-07-13 downloaded from the CCDC.
;

_audit_creation_method           SHELXL-97
_chemical_name_systematic        
;
?
;
_chemical_name_common            ?
_chemical_melting_point          ?
_chemical_formula_moiety         'C56 H64 Br4 Cu2 N8'
_chemical_formula_sum            'C56 H64 Br4 Cu2 N8'
_chemical_formula_weight         1295.87

loop_
_atom_type_symbol
_atom_type_description
_atom_type_scat_dispersion_real
_atom_type_scat_dispersion_imag
_atom_type_scat_source
C C 0.0033 0.0016 'International Tables Vol C Tables 4.2.6.8 and 6.1.1.4'
H H 0.0000 0.0000 'International Tables Vol C Tables 4.2.6.8 and 6.1.1.4'
N N 0.0061 0.0033 'International Tables Vol C Tables 4.2.6.8 and 6.1.1.4'
Cu Cu 0.3201 1.2651 'International Tables Vol C Tables 4.2.6.8 and 6.1.1.4'
Br Br -0.2901 2.4595 'International Tables Vol C Tables 4.2.6.8 and 6.1.1.4'

_symmetry_cell_setting           Monoclinic
_symmetry_space_group_name_H-M   P2(1)/c
_symmetry_space_group_name_Hall  '-P 2ybc'

loop_
_symmetry_equiv_pos_as_xyz
'x, y, z'
'-x, y+1/2, -z+1/2'
'-x, -y, -z'
'x, -y-1/2, z-1/2'

_cell_length_a                   21.815(2)
_cell_length_b                   14.8140(17)
_cell_length_c                   22.496(3)
_cell_angle_alpha                90.00
_cell_angle_beta                 97.717(7)
_cell_angle_gamma                90.00
_cell_volume                     7204.1(14)
_cell_formula_units_Z            4
_cell_measurement_temperature    173(2)
_cell_measurement_reflns_used    3917
_cell_measurement_theta_min      2.38
_cell_measurement_theta_max      27.71

_exptl_crystal_description       needdle
_exptl_crystal_colour            red
_exptl_crystal_size_max          0.19
_exptl_crystal_size_mid          0.05
_exptl_crystal_size_min          0.03
_exptl_crystal_density_meas      none
_exptl_crystal_density_diffrn    1.195
_exptl_crystal_density_method    'not measured'
_exptl_crystal_F_000             2616
_exptl_absorpt_coefficient_mu    2.843
_exptl_absorpt_correction_type   multi-scan
_exptl_absorpt_correction_T_min  0.6142
_exptl_absorpt_correction_T_max  0.9196
_exptl_absorpt_process_details   sadabs

loop_
_platon_squeeze_void_nr
_platon_squeeze_void_average_x
_platon_squeeze_void_average_y
_platon_squeeze_void_average_z
_platon_squeeze_void_volume
_platon_squeeze_void_count_electrons
1 0.067 0.000 0.500 1336.3 250.8
2 0.495 0.500 1.000 1336.6 252.7
_platon_squeeze_details          
;
;
_exptl_special_details           
;
Owing to large disorder of the solvent present in the cavities
of this structure, the SQUEEZE command has been applied.

;

_diffrn_ambient_temperature      173(2)
_diffrn_radiation_wavelength     0.71073
_diffrn_radiation_type           MoK\a
_diffrn_radiation_source         'fine-focus sealed tube'
_diffrn_radiation_monochromator  graphite
_diffrn_measurement_device_type  'CCD area detector'
_diffrn_measurement_method       'phi and omega scans'
_diffrn_detector_area_resol_mean ?
_diffrn_standards_number         ?
_diffrn_standards_interval_count ?
_diffrn_standards_interval_time  ?
_diffrn_standards_decay_%        ?
_diffrn_reflns_number            51944
_diffrn_reflns_av_R_equivalents  0.0900
_diffrn_reflns_av_sigmaI/netI    0.1770
_diffrn_reflns_limit_h_min       -28
_diffrn_reflns_limit_h_max       27
_diffrn_reflns_limit_k_min       0
_diffrn_reflns_limit_k_max       19
_diffrn_reflns_limit_l_min       0
_diffrn_reflns_limit_l_max       29
_diffrn_reflns_theta_min         1.67
_diffrn_reflns_theta_max         27.75
_reflns_number_total             15895
_reflns_number_gt                4732
_reflns_threshold_expression     >2sigma(I)

_computing_data_collection       'Bruker SMART'
_computing_cell_refinement       'Bruker SMART'
_computing_data_reduction        'Bruker SAINT'
_computing_structure_solution    'SHELXS-97 (Sheldrick, 1990)'
_computing_structure_refinement  'SHELXL-97 (Sheldrick, 1997)'
_computing_molecular_graphics    'Bruker SHELXTL'
_computing_publication_material  'Bruker SHELXTL'

_refine_special_details          
;
Refinement of F^2^ against ALL reflections. The weighted R-factor wR and
goodness of fit S are based on F^2^, conventional R-factors R are based
on F, with F set to zero for negative F^2^. The threshold expression of
F^2^ > 2sigma(F^2^) is used only for calculating R-factors(gt) etc. and is
not relevant to the choice of reflections for refinement. R-factors based
on F^2^ are statistically about twice as large as those based on F, and R-
factors based on ALL data will be even larger.
;

_refine_ls_structure_factor_coef Fsqd
_refine_ls_matrix_type           full
_refine_ls_weighting_scheme      calc
_refine_ls_weighting_details     
'calc w=1/[\s^2^(Fo^2^)+(0.1267P)^2^+260.6856P] where P=(Fo^2^+2Fc^2^)/3'
_atom_sites_solution_primary     direct
_atom_sites_solution_secondary   difmap
_atom_sites_solution_hydrogens   geom
_refine_ls_hydrogen_treatment    constr
_refine_ls_extinction_method     SHELXL
_refine_ls_extinction_coef       0.00035(4)
_refine_ls_extinction_expression Fc^*^=kFc[1+0.001xFc^2^\l^3^/sin(2\q)]^-1/4^
_refine_ls_number_reflns         15895
_refine_ls_number_parameters     494
_refine_ls_number_restraints     0
_refine_ls_R_factor_all          0.2414
_refine_ls_R_factor_gt           0.1509
_refine_ls_wR_factor_ref         0.4162
_refine_ls_wR_factor_gt          0.3734
_refine_ls_goodness_of_fit_ref   1.057
_refine_ls_restrained_S_all      1.057
_refine_ls_shift/su_max          0.041
_refine_ls_shift/su_mean         0.010

loop_
_atom_site_label
_atom_site_type_symbol
_atom_site_fract_x
_atom_site_fract_y
_atom_site_fract_z
_atom_site_U_iso_or_equiv
_atom_site_adp_type
_atom_site_occupancy
_atom_site_symmetry_multiplicity
_atom_site_calc_flag
_atom_site_refinement_flags
_atom_site_disorder_assembly
_atom_site_disorder_group
Cu1 Cu -0.03629(12) 0.6719(2) 0.52872(13) 0.0602(9) Uani 1 1 d . . .
Br1 Br 0.04250(10) 0.68189(19) 0.46564(12) 0.0607(7) Uani 1 1 d . . .
Br2 Br -0.09667(11) 0.7766(2) 0.57518(12) 0.0664(8) Uani 1 1 d . . .
Cu2 Cu 0.61520(14) 0.9403(2) 0.88048(15) 0.0709(10) Uani 1 1 d . . .
Br3 Br 0.6685(2) 1.0654(2) 0.85086(16) 0.1209(16) Uani 1 1 d . . .
Br4 Br 0.58043(14) 0.8051(2) 0.91725(13) 0.0773(9) Uani 1 1 d . . .
C1 C 0.3580(5) 1.0323(7) 0.6865(6) 0.046(2) Uani 1 1 d G . .
C2 C 0.4159(5) 1.0262(7) 0.7207(6) 0.046(2) Uani 1 1 d G . .
C3 C 0.4356(4) 0.9447(9) 0.7474(6) 0.046(2) Uani 1 1 d G . .
C4 C 0.3973(5) 0.8694(7) 0.7400(6) 0.046(2) Uani 1 1 d G . .
C5 C 0.3394(5) 0.8755(7) 0.7059(6) 0.046(2) Uani 1 1 d G . .
C6 C 0.3198(4) 0.9570(9) 0.6791(6) 0.046(2) Uani 1 1 d G . .
C7 C 0.4622(10) 1.1047(16) 0.7234(11) 0.061(7) Uani 1 1 d . . .
H7A H 0.4584 1.1421 0.7587 0.092 Uiso 1 1 calc R . .
H7B H 0.4534 1.1415 0.6870 0.092 Uiso 1 1 calc R . .
H7C H 0.5044 1.0807 0.7262 0.092 Uiso 1 1 calc R . .
C8 C 0.4952(8) 0.9395(16) 0.7906(8) 0.044(5) Uani 1 1 d . . .
H8A H 0.5055 1.0001 0.8074 0.052 Uiso 1 1 calc R . .
H8B H 0.4893 0.8986 0.8241 0.052 Uiso 1 1 calc R . .
N1 N 0.5455(7) 0.9071(12) 0.7616(8) 0.047(5) Uani 1 1 d . . .
N2 N 0.6028(9) 0.8939(15) 0.7973(10) 0.069(6) Uani 1 1 d . . .
C9 C 0.5496(10) 0.8839(19) 0.7046(11) 0.066(8) Uani 1 1 d . . .
H9 H 0.5178 0.8910 0.6717 0.080 Uiso 1 1 calc R . .
C10 C 0.6075(11) 0.8482(14) 0.7016(11) 0.055 Uani 1 1 d . . .
H10 H 0.6227 0.8217 0.6681 0.066 Uiso 1 1 calc R . .
C11 C 0.6388(11) 0.8604(19) 0.7602(15) 0.085(9) Uani 1 1 d . . .
H11 H 0.6812 0.8461 0.7716 0.102 Uiso 1 1 calc R . .
C12 C 0.4234(11) 0.7796(14) 0.7672(10) 0.055 Uani 1 1 d . . .
H12A H 0.4100 0.7300 0.7397 0.083 Uiso 1 1 calc R . .
H12B H 0.4083 0.7694 0.8057 0.083 Uiso 1 1 calc R . .
H12C H 0.4687 0.7824 0.7734 0.083 Uiso 1 1 calc R . .
C13 C 0.2601(8) 0.9608(14) 0.6377(9) 0.043(5) Uani 1 1 d . . .
H13A H 0.2537 0.9037 0.6158 0.064 Uiso 1 1 calc R . .
H13B H 0.2616 1.0105 0.6091 0.064 Uiso 1 1 calc R . .
H13C H 0.2259 0.9709 0.6610 0.064 Uiso 1 1 calc R . .
C14 C 0.2995(8) 0.7905(15) 0.6959(10) 0.044(5) Uani 1 1 d . . .
H14A H 0.3204 0.7417 0.7209 0.053 Uiso 1 1 calc R . .
H14B H 0.2984 0.7721 0.6535 0.053 Uiso 1 1 calc R . .
C15 C 0.2325(5) 0.7965(10) 0.7095(6) 0.055 Uani 1 1 d G . .
C16 C 0.1826(7) 0.7732(10) 0.6672(4) 0.055 Uani 1 1 d G . .
C17 C 0.1227(5) 0.7787(10) 0.6816(5) 0.051(6) Uani 1 1 d G . .
C18 C 0.1127(4) 0.8075(10) 0.7383(6) 0.041(5) Uani 1 1 d G . .
C19 C 0.1626(5) 0.8307(10) 0.7806(4) 0.040(5) Uani 1 1 d G . .
C20 C 0.2225(4) 0.8252(10) 0.7662(5) 0.039(5) Uani 1 1 d G . .
C21 C 0.1933(11) 0.7334(17) 0.6061(11) 0.065(7) Uani 1 1 d . . .
H21A H 0.2028 0.7823 0.5794 0.097 Uiso 1 1 calc R . .
H21B H 0.1560 0.7018 0.5881 0.097 Uiso 1 1 calc R . .
H21C H 0.2281 0.6909 0.6119 0.097 Uiso 1 1 calc R . .
C22 C 0.0684(10) 0.7554(15) 0.6366(9) 0.049 Uani 1 1 d . . .
H22A H 0.0327 0.7937 0.6433 0.058 Uiso 1 1 calc R . .
H22B H 0.0784 0.7678 0.5957 0.058 Uiso 1 1 calc R . .
N3 N 0.0520(8) 0.6622(13) 0.6412(8) 0.051(5) Uani 1 1 d . . .
N4 N 0.0103(7) 0.6175(15) 0.6003(8) 0.058(6) Uani 1 1 d . . .
C23 C 0.0708(11) 0.6032(18) 0.6860(12) 0.061(7) Uani 1 1 d . . .
H23 H 0.1003 0.6155 0.7201 0.073 Uiso 1 1 calc R . .
C24 C 0.0404(12) 0.5228(19) 0.6740(12) 0.068(7) Uani 1 1 d . . .
H24 H 0.0441 0.4690 0.6972 0.081 Uiso 1 1 calc R . .
C25 C 0.0044(12) 0.5382(17) 0.6221(12) 0.062(7) Uani 1 1 d . . .
H25 H -0.0233 0.4943 0.6029 0.075 Uiso 1 1 calc R . .
C26 C 0.0462(8) 0.8081(17) 0.7538(12) 0.062(7) Uani 1 1 d . . .
H26A H 0.0304 0.8701 0.7519 0.093 Uiso 1 1 calc R . .
H26B H 0.0459 0.7842 0.7943 0.093 Uiso 1 1 calc R . .
H26C H 0.0199 0.7705 0.7250 0.093 Uiso 1 1 calc R . .
C27 C 0.2771(8) 0.8413(16) 0.8145(9) 0.046(6) Uani 1 1 d . . .
H27A H 0.3134 0.8089 0.8041 0.068 Uiso 1 1 calc R . .
H27B H 0.2670 0.8193 0.8531 0.068 Uiso 1 1 calc R . .
H27C H 0.2862 0.9061 0.8174 0.068 Uiso 1 1 calc R . .
C28 C 0.1518(9) 0.8658(17) 0.8445(10) 0.056(7) Uani 1 1 d . . .
H28A H 0.1065 0.8714 0.8444 0.067 Uiso 1 1 calc R . .
H28B H 0.1662 0.8179 0.8737 0.067 Uiso 1 1 calc R . .
C29 C 0.1806(6) 0.9532(7) 0.8686(6) 0.039(5) Uani 1 1 d G . .
C30 C 0.2182(6) 0.9569(8) 0.9235(5) 0.054(7) Uani 1 1 d G . .
C31 C 0.2479(5) 1.0370(10) 0.9423(5) 0.048(6) Uani 1 1 d G . .
C32 C 0.2399(5) 1.1133(8) 0.9062(6) 0.040(5) Uani 1 1 d G . .
C33 C 0.2023(6) 1.1097(7) 0.8513(6) 0.049 Uani 1 1 d G . .
C34 C 0.1726(6) 1.0296(9) 0.8325(4) 0.049 Uani 1 1 d G . .
C35 C 0.2245(11) 0.8737(19) 0.9626(10) 0.067(7) Uani 1 1 d . . .
H35A H 0.1858 0.8636 0.9793 0.100 Uiso 1 1 calc R . .
H35B H 0.2584 0.8823 0.9954 0.100 Uiso 1 1 calc R . .
H35C H 0.2333 0.8213 0.9386 0.100 Uiso 1 1 calc R . .
C36 C 0.7130(9) 0.9597(16) 0.9989(9) 0.048(6) Uani 1 1 d . . .
H36A H 0.7086 0.8965 0.9847 0.058 Uiso 1 1 calc R . .
H36B H 0.7323 0.9952 0.9691 0.058 Uiso 1 1 calc R . .
N5 N 0.6508(8) 0.9980(15) 1.0059(9) 0.062(6) Uani 1 1 d . . .
N6 N 0.6085(10) 0.9999(16) 0.9582(10) 0.077(7) Uani 1 1 d . . .
C37 C 0.6307(15) 1.038(3) 1.0538(15) 0.108(12) Uani 1 1 d . . .
H37 H 0.6537 1.0395 1.0928 0.130 Uiso 1 1 calc R . .
C38 C 0.5780(17) 1.074(3) 1.0408(19) 0.16(2) Uani 1 1 d . . .
H38 H 0.5544 1.1084 1.0652 0.189 Uiso 1 1 calc R . .
C39 C 0.5629(14) 1.046(3) 0.9769(19) 0.121(14) Uani 1 1 d . . .
H39 H 0.5252 1.0607 0.9525 0.145 Uiso 1 1 calc R . .
C40 C 0.2740(11) 1.1994(17) 0.9298(10) 0.064(7) Uani 1 1 d . . .
H40A H 0.3112 1.1830 0.9570 0.097 Uiso 1 1 calc R . .
H40B H 0.2467 1.2359 0.9515 0.097 Uiso 1 1 calc R . .
H40C H 0.2857 1.2341 0.8960 0.097 Uiso 1 1 calc R . .
C41 C 0.1272(13) 1.0260(10) 0.7737(12) 0.064(7) Uani 1 1 d . . .
H41A H 0.1493 1.0066 0.7408 0.097 Uiso 1 1 calc R . .
H41B H 0.1095 1.0861 0.7649 0.097 Uiso 1 1 calc R . .
H41C H 0.0939 0.9832 0.7782 0.097 Uiso 1 1 calc R . .
C42 C 0.1911(9) 1.1966(16) 0.8126(9) 0.052(6) Uani 1 1 d . . .
H42A H 0.1473 1.2147 0.8118 0.062 Uiso 1 1 calc R . .
H42B H 0.2169 1.2455 0.8328 0.062 Uiso 1 1 calc R . .
C43 C 0.2046(6) 1.1903(10) 0.7493(4) 0.049 Uani 1 1 d G . .
C44 C 0.1589(5) 1.2182(10) 0.7039(6) 0.049 Uani 1 1 d G . .
C45 C 0.1698(5) 1.2157(10) 0.6444(5) 0.049 Uani 1 1 d G . .
C46 C 0.2263(6) 1.1852(10) 0.6303(4) 0.049 Uani 1 1 d G . .
C47 C 0.2720(4) 1.1573(10) 0.6757(5) 0.035(5) Uani 1 1 d G . .
C48 C 0.2611(5) 1.1599(10) 0.7351(4) 0.041(5) Uani 1 1 d G . .
C49 C 0.0985(10) 1.2611(18) 0.7147(11) 0.066(7) Uani 1 1 d . . .
H49A H 0.1046 1.2950 0.7525 0.098 Uiso 1 1 calc R . .
H49B H 0.0674 1.2139 0.7172 0.098 Uiso 1 1 calc R . .
H49C H 0.0842 1.3022 0.6816 0.098 Uiso 1 1 calc R . .
C50 C 0.1215(10) 1.2449(15) 0.5930(10) 0.049 Uani 1 1 d . . .
H50A H 0.1252 1.2081 0.5569 0.058 Uiso 1 1 calc R . .
H50B H 0.0794 1.2366 0.6040 0.058 Uiso 1 1 calc R . .
N7 N 0.1327(8) 1.3424(14) 0.5806(8) 0.055(5) Uani 1 1 d . . .
N8 N 0.0997(9) 1.3813(15) 0.5322(10) 0.067(6) Uani 1 1 d . . .
C51 C 0.1193(11) 1.468(2) 0.5312(12) 0.071(8) Uani 1 1 d . . .
H51 H 0.1053 1.5113 0.5016 0.086 Uiso 1 1 calc R . .
C52 C 0.1627(11) 1.4812(19) 0.5800(13) 0.072(8) Uani 1 1 d . . .
H52 H 0.1842 1.5362 0.5896 0.086 Uiso 1 1 calc R . .
C53 C 0.1701(11) 1.406(2) 0.6118(12) 0.064(7) Uani 1 1 d . . .
H53 H 0.1960 1.3982 0.6488 0.077 Uiso 1 1 calc R . .
C54 C 0.2391(10) 1.1889(19) 0.5652(10) 0.067(8) Uani 1 1 d . . .
H54A H 0.2402 1.1274 0.5493 0.101 Uiso 1 1 calc R . .
H54B H 0.2790 1.2184 0.5633 0.101 Uiso 1 1 calc R . .
H54C H 0.2062 1.2232 0.5411 0.101 Uiso 1 1 calc R . .
C55 C 0.3112(8) 1.1350(16) 0.7838(9) 0.046(6) Uani 1 1 d . . .
H55A H 0.3038 1.1642 0.8213 0.069 Uiso 1 1 calc R . .
H55B H 0.3511 1.1549 0.7731 0.069 Uiso 1 1 calc R . .
H55C H 0.3118 1.0693 0.7892 0.069 Uiso 1 1 calc R . .
C56 C 0.3344(8) 1.1226(16) 0.6607(10) 0.050(6) Uani 1 1 d . . .
H56A H 0.3316 1.1186 0.6165 0.061 Uiso 1 1 calc R . .
H56B H 0.3660 1.1688 0.6741 0.061 Uiso 1 1 calc R . .

loop_
_atom_site_aniso_label
_atom_site_aniso_U_11
_atom_site_aniso_U_22
_atom_site_aniso_U_33
_atom_site_aniso_U_23
_atom_site_aniso_U_13
_atom_site_aniso_U_12
Cu1 0.0418(15) 0.083(2) 0.0520(18) 0.0018(17) -0.0070(13) 0.0028(15)
Br1 0.0450(12) 0.0753(18) 0.0616(16) -0.0016(14) 0.0059(11) -0.0052(12)
Br2 0.0469(13) 0.091(2) 0.0592(16) 0.0037(15) -0.0001(12) 0.0064(13)
Cu2 0.0559(18) 0.078(2) 0.069(2) 0.0009(18) -0.0284(16) -0.0001(17)
Br3 0.199(4) 0.079(2) 0.074(2) 0.0156(19) -0.021(2) -0.045(3)
Br4 0.0858(19) 0.080(2) 0.0636(18) -0.0056(15) -0.0008(15) 0.0012(16)
C1 0.030(4) 0.059(6) 0.047(5) 0.002(5) -0.010(4) 0.007(4)
C2 0.030(4) 0.059(6) 0.047(5) 0.002(5) -0.010(4) 0.007(4)
C3 0.030(4) 0.059(6) 0.047(5) 0.002(5) -0.010(4) 0.007(4)
C4 0.030(4) 0.059(6) 0.047(5) 0.002(5) -0.010(4) 0.007(4)
C5 0.030(4) 0.059(6) 0.047(5) 0.002(5) -0.010(4) 0.007(4)
C6 0.030(4) 0.059(6) 0.047(5) 0.002(5) -0.010(4) 0.007(4)
C7 0.049(13) 0.058(16) 0.070(17) 0.009(13) -0.018(12) -0.011(12)
C8 0.022(9) 0.072(16) 0.032(11) -0.004(11) -0.019(8) 0.002(10)
N1 0.017(8) 0.062(13) 0.056(12) 0.011(10) -0.018(8) 0.007(8)
N2 0.043(11) 0.080(16) 0.083(16) -0.013(13) -0.001(11) -0.009(11)
C9 0.043(13) 0.11(2) 0.046(15) -0.011(15) 0.013(11) 0.015(14)
C10 0.082 0.032 0.049 0.006 0.000 0.008
C11 0.036(13) 0.09(2) 0.13(3) -0.02(2) 0.008(16) 0.012(13)
C12 0.082 0.032 0.049 0.006 0.000 0.008
C13 0.036(10) 0.043(13) 0.041(12) -0.004(10) -0.025(9) -0.010(9)
C14 0.022(9) 0.062(15) 0.047(13) -0.004(11) -0.004(9) 0.001(9)
C15 0.082 0.032 0.049 0.006 0.000 0.008
C16 0.082 0.032 0.049 0.006 0.000 0.008
C17 0.036(11) 0.045(14) 0.063(16) -0.001(12) -0.024(11) -0.004(10)
C18 0.033(10) 0.065(15) 0.023(10) -0.007(10) 0.000(8) -0.005(10)
C19 0.031(10) 0.053(14) 0.031(11) -0.010(10) -0.007(8) -0.015(9)
C20 0.029(9) 0.046(13) 0.041(12) -0.003(10) 0.002(9) -0.017(9)
C21 0.057(14) 0.057(17) 0.075(18) -0.024(14) -0.010(13) -0.010(12)
C22 0.054 0.051 0.042 0.025 0.009 0.005
N3 0.047(10) 0.054(13) 0.048(11) 0.013(10) -0.005(9) -0.002(9)
N4 0.028(9) 0.086(17) 0.055(13) -0.019(12) -0.010(9) -0.009(10)
C23 0.052(14) 0.059(17) 0.068(18) 0.000(14) -0.007(13) -0.009(13)
C24 0.079(18) 0.068(19) 0.055(17) 0.031(14) 0.005(14) 0.004(15)
C25 0.084(18) 0.040(15) 0.065(18) 0.014(13) 0.017(15) -0.021(13)
C26 0.014(9) 0.069(17) 0.10(2) -0.005(15) -0.005(11) -0.007(10)
C27 0.029(10) 0.069(16) 0.037(12) 0.000(11) 0.002(9) -0.003(10)
C28 0.028(10) 0.086(19) 0.053(15) -0.022(13) 0.003(10) -0.015(11)
C29 0.047(11) 0.046(13) 0.023(10) 0.016(10) 0.003(9) -0.001(10)
C30 0.054(13) 0.10(2) 0.008(10) 0.008(12) 0.011(9) 0.009(13)
C31 0.024(10) 0.070(17) 0.048(14) -0.021(13) -0.004(9) 0.002(10)
C32 0.020(9) 0.071(16) 0.027(11) 0.009(11) -0.002(8) 0.012(9)
C33 0.054 0.051 0.042 0.025 0.009 0.005
C34 0.054 0.051 0.042 0.025 0.009 0.005
C35 0.053(14) 0.11(2) 0.038(14) 0.010(14) 0.000(11) 0.004(14)
C36 0.048(12) 0.068(16) 0.026(11) -0.013(11) -0.004(10) 0.002(11)
N5 0.045(11) 0.085(16) 0.051(13) -0.006(12) -0.010(10) 0.001(11)
N6 0.061(13) 0.099(18) 0.063(14) -0.027(13) -0.021(12) 0.014(13)
C37 0.08(2) 0.16(4) 0.08(2) -0.05(2) 0.005(19) 0.02(2)
C38 0.10(3) 0.26(6) 0.12(3) -0.01(4) 0.02(3) 0.10(3)
C39 0.061(19) 0.16(4) 0.14(4) -0.01(3) 0.03(