####################################################################### 
# 
# This file contains crystal structure data downloaded from the 
# Cambridge Structural Database (CSD) hosted by the Cambridge 
# Crystallographic Data Centre (CCDC).
# 
# Full information about CCDC data access policies and citation 
# guidelines are available at http://www.ccdc.cam.ac.uk/access/V1 
# 
# Audit and citation data items may have been added by the CCDC. 
# Please retain this information to preserve the provenance of 
# this file and to allow appropriate attribution of the data. 
# 
#######################################################################

data_compound1
_audit_block_doi                 10.5517/cc7521h
_database_code_depnum_ccdc_archive 'CCDC 213405'
loop_
_citation_id
_citation_doi
_citation_year
1 10.1021/ja029926s 2003
_audit_update_record             
;
2003-06-23 deposited with the CCDC.	2024-07-13 downloaded from the CCDC.
;

_audit_creation_method           SHELXL-97
_chemical_name_systematic        
;
?
;
_chemical_name_common            ?
_chemical_melting_point          ?
_chemical_formula_moiety         ?
_chemical_formula_sum            'C54 H67 N5 Ni O12'
_chemical_formula_weight         1036.84

loop_
_atom_type_symbol
_atom_type_description
_atom_type_scat_dispersion_real
_atom_type_scat_dispersion_imag
_atom_type_scat_source
C C 0.0033 0.0016 'International Tables Vol C Tables 4.2.6.8 and 6.1.1.4'
H H 0.0000 0.0000 'International Tables Vol C Tables 4.2.6.8 and 6.1.1.4'
N N 0.0061 0.0033 'International Tables Vol C Tables 4.2.6.8 and 6.1.1.4'
O O 0.0106 0.0060 'International Tables Vol C Tables 4.2.6.8 and 6.1.1.4'
Ni Ni 0.3393 1.1124 'International Tables Vol C Tables 4.2.6.8 and 6.1.1.4'

_symmetry_cell_setting           ?
_symmetry_space_group_name_H-M   ?

loop_
_symmetry_equiv_pos_as_xyz
'x, y, z'
'-x, -y, z+1/2'
'-y+1/2, x+1/2, z+1/4'
'y+1/2, -x+1/2, z+3/4'
'-x+1/2, y+1/2, -z+1/4'
'x+1/2, -y+1/2, -z+3/4'
'y, x, -z'
'-y, -x, -z+1/2'

_cell_length_a                   38.098(5)
_cell_length_b                   38.098(5)
_cell_length_c                   9.4700(19)
_cell_angle_alpha                90.00
_cell_angle_beta                 90.00
_cell_angle_gamma                90.00
_cell_volume                     13745(4)
_cell_formula_units_Z            8
_cell_measurement_temperature    293(2)
_cell_measurement_reflns_used    ?
_cell_measurement_theta_min      ?
_cell_measurement_theta_max      ?

_exptl_crystal_description       ?
_exptl_crystal_colour            ?
_exptl_crystal_size_max          ?
_exptl_crystal_size_mid          ?
_exptl_crystal_size_min          ?
_exptl_crystal_density_meas      ?
_exptl_crystal_density_diffrn    1.002
_exptl_crystal_density_method    'not measured'
_exptl_crystal_F_000             4400
_exptl_absorpt_coefficient_mu    0.333
_exptl_absorpt_correction_type   ?
_exptl_absorpt_correction_T_min  ?
_exptl_absorpt_correction_T_max  ?
_exptl_absorpt_process_details   ?

_exptl_special_details           
;
?
;

_diffrn_ambient_temperature      293(2)
_diffrn_radiation_wavelength     0.71073
_diffrn_radiation_type           MoK\a
_diffrn_radiation_source         'fine-focus sealed tube'
_diffrn_radiation_monochromator  graphite
_diffrn_measurement_device_type  ?
_diffrn_measurement_method       ?
_diffrn_detector_area_resol_mean ?
_diffrn_standards_number         ?
_diffrn_standards_interval_count ?
_diffrn_standards_interval_time  ?
_diffrn_standards_decay_%        ?
_diffrn_reflns_number            78226
_diffrn_reflns_av_R_equivalents  0.1350
_diffrn_reflns_av_sigmaI/netI    0.0721
_diffrn_reflns_limit_h_min       -41
_diffrn_reflns_limit_h_max       40
_diffrn_reflns_limit_k_min       -41
_diffrn_reflns_limit_k_max       40
_diffrn_reflns_limit_l_min       -10
_diffrn_reflns_limit_l_max       10
_diffrn_reflns_theta_min         0.76
_diffrn_reflns_theta_max         22.52
_reflns_number_total             9005
_reflns_number_gt                5188
_reflns_threshold_expression     >2sigma(I)

_computing_data_collection       ?
_computing_cell_refinement       ?
_computing_data_reduction        ?
_computing_structure_solution    'SHELXS-97 (Sheldrick, 1990)'
_computing_structure_refinement  'SHELXL-97 (Sheldrick, 1997)'
_computing_molecular_graphics    ?
_computing_publication_material  ?

_refine_special_details          
;
Refinement of F^2^ against ALL reflections.  The weighted R-factor wR and
goodness of fit S are based on F^2^, conventional R-factors R are based
on F, with F set to zero for negative F^2^. The threshold expression of
F^2^ > 2sigma(F^2^) is used only for calculating R-factors(gt) etc. and is
not relevant to the choice of reflections for refinement.  R-factors based
on F^2^ are statistically about twice as large as those based on F, and R-
factors based on ALL data will be even larger.
;

_refine_ls_structure_factor_coef Fsqd
_refine_ls_matrix_type           full
_refine_ls_weighting_scheme      calc
_refine_ls_weighting_details     
'calc w=1/[\s^2^(Fo^2^)+(0.2000P)^2^+0.0000P] where P=(Fo^2^+2Fc^2^)/3'
_atom_sites_solution_primary     direct
_atom_sites_solution_secondary   difmap
_atom_sites_solution_hydrogens   geom
_refine_ls_hydrogen_treatment    mixed
_refine_ls_extinction_method     none
_refine_ls_extinction_coef       ?
_refine_ls_abs_structure_details 'Flack H D (1983), Acta Cryst. A39, 876-881'
_refine_ls_abs_structure_Flack   0.01(3)
_refine_ls_number_reflns         9005
_refine_ls_number_parameters     586
_refine_ls_number_restraints     8
_refine_ls_R_factor_all          0.1736
_refine_ls_R_factor_gt           0.1077
_refine_ls_wR_factor_ref         0.3109
_refine_ls_wR_factor_gt          0.2691
_refine_ls_goodness_of_fit_ref   1.045
_refine_ls_restrained_S_all      1.047
_refine_ls_shift/su_max          0.002
_refine_ls_shift/su_mean         0.000

loop_
_atom_site_label
_atom_site_type_symbol
_atom_site_fract_x
_atom_site_fract_y
_atom_site_fract_z
_atom_site_U_iso_or_equiv
_atom_site_adp_type
_atom_site_occupancy
_atom_site_symmetry_multiplicity
_atom_site_calc_flag
_atom_site_refinement_flags
_atom_site_disorder_assembly
_atom_site_disorder_group
Ni1 Ni -0.43969(3) -0.30484(4) -0.07008(12) 0.0936(5) Uani 1 1 d . . .
O1 O -0.4203(2) -0.2916(3) -0.2613(9) 0.119(3) Uani 1 1 d . . .
O2 O -0.42928(17) -0.3560(2) -0.1091(8) 0.110(2) Uani 1 1 d . . .
O3 O -0.45867(16) -0.3197(2) 0.1220(8) 0.104(2) Uani 1 1 d . . .
O4 O -0.4495(2) -0.2538(2) -0.0225(10) 0.122(2) Uani 1 1 d . . .
O5 O -0.1046(2) -0.2839(2) 0.7742(12) 0.162(4) Uani 1 1 d . . .
O6 O -0.0891(2) -0.2705(2) 0.4249(11) 0.147(3) Uani 1 1 d . . .
O7 O -0.3497(12) -0.1673(13) -1.151(6) 0.60(3) Uiso 1 1 d . . .
O8 O -0.3703(18) -0.1128(17) -1.071(7) 0.45(3) Uiso 0.50 1 d P . .
O9 O -0.4201(15) -0.1157(16) -0.735(8) 0.43(3) Uiso 0.50 1 d P . .
O10 O -0.066(2) -0.085(2) 0.153(8) 0.53(4) Uiso 0.50 1 d P . .
O11 O -0.0775(14) 0.0009(15) -0.214(6) 0.39(2) Uiso 0.50 1 d P . .
O12 O -0.529(2) -0.1068(19) -1.286(10) 0.49(4) Uiso 0.50 1 d P . .
O13 O -0.485(3) -0.100(2) -1.221(11) 0.54(5) Uiso 0.50 1 d P . .
O14 O -0.379(2) -0.130(3) -1.329(11) 0.60(6) Uiso 0.50 1 d P . .
O15 O -0.5158(18) -0.0641(18) -1.778(9) 0.47(3) Uiso 0.50 1 d P . .
O16 O -0.422(2) -0.079(2) -1.152(9) 0.50(4) Uiso 0.50 1 d P . .
O17 O -0.504(3) -0.108(3) -1.631(14) 0.41(6) Uiso 0.25 1 d P . .
O18 O -0.0106(19) 0.0106(19) -0.2500 0.50(5) Uiso 0.50 2 d SP . .
N1 N -0.38866(19) -0.2966(2) 0.0178(8) 0.085(2) Uani 1 1 d . . .
N2 N -0.1886(3) 0.0091(2) 1.0959(8) 0.103(2) Uani 1 1 d . . .
N3 N 0.0151(8) -0.2753(7) -0.883(3) 0.327(12) Uiso 1 1 d D . .
C49 C 0.0387(8) -0.2979(11) -0.839(5) 0.39(2) Uiso 1 1 d D . .
C50 C 0.0790(6) -0.2978(6) -0.785(3) 0.238(9) Uiso 1 1 d D . .
N5 N -0.0956(9) -0.0307(9) 0.188(3) 0.410(18) Uiso 1 1 d D . .
C53 C -0.1090(7) -0.0131(7) 0.287(3) 0.263(11) Uiso 1 1 d D . .
C54 C -0.0938(6) -0.0177(6) 0.437(2) 0.240(9) Uiso 1 1 d D . .
N6 N 0.2452(6) -0.3050(6) -1.242(3) 0.265(8) Uiso 1 1 d D . .
C55 C 0.2268(9) -0.3312(8) -1.205(4) 0.311(15) Uiso 1 1 d D . .
C56 C 0.2328(7) -0.3667(8) -1.139(3) 0.284(12) Uiso 1 1 d D . .
C1 C -0.1458(3) -0.2672(2) 0.6030(11) 0.086(3) Uani 1 1 d . . .
C2 C -0.1353(3) -0.2903(3) 0.7018(16) 0.127(4) Uani 1 1 d . . .
C3 C -0.1553(4) -0.3207(4) 0.7334(16) 0.142(5) Uani 1 1 d . . .
H3A H -0.1481 -0.3358 0.8048 0.171 Uiso 1 1 calc R . .
C4 C -0.1852(4) -0.3278(3) 0.6591(15) 0.133(4) Uani 1 1 d . . .
H4A H -0.1976 -0.3483 0.6771 0.159 Uiso 1 1 calc R . .
C5 C -0.2277(3) -0.3100(3) 0.4797(12) 0.095(3) Uani 1 1 d . . .
H5A H -0.2408 -0.3300 0.5001 0.114 Uiso 1 1 calc R . .
C6 C -0.2389(2) -0.2873(3) 0.3757(12) 0.090(3) Uani 1 1 d . . .
C7 C -0.2199(3) -0.2578(3) 0.3501(12) 0.106(3) Uani 1 1 d . . .
H7A H -0.2277 -0.2420 0.2821 0.127 Uiso 1 1 calc R . .
C8 C -0.1894(2) -0.2508(3) 0.4222(10) 0.090(3) Uani 1 1 d . . .
H8A H -0.1768 -0.2305 0.4021 0.108 Uiso 1 1 calc R . .
C9 C -0.1772(3) -0.2739(2) 0.5254(11) 0.081(2) Uani 1 1 d . . .
C10 C -0.1974(2) -0.3036(3) 0.5530(10) 0.090(3) Uani 1 1 d . . .
C11 C -0.2725(3) -0.2949(3) 0.3019(10) 0.095(3) Uani 1 1 d . . .
H11A H -0.2826 -0.3166 0.3216 0.114 Uiso 1 1 calc R . .
C12 C -0.2894(3) -0.2751(3) 0.2130(11) 0.096(3) Uani 1 1 d . . .
H12A H -0.2789 -0.2540 0.1877 0.115 Uiso 1 1 calc R . .
C13 C -0.3246(2) -0.2835(3) 0.1472(10) 0.083(2) Uani 1 1 d . . .
C14 C -0.3418(2) -0.3135(3) 0.1718(10) 0.086(2) Uani 1 1 d . . .
H14A H -0.3325 -0.3306 0.2308 0.103 Uiso 1 1 calc R . .
C15 C -0.3744(2) -0.3183(3) 0.1058(11) 0.089(3) Uani 1 1 d . . .
H15A H -0.3868 -0.3387 0.1269 0.106 Uiso 1 1 calc R . .
C16 C -0.3705(3) -0.2687(3) -0.0071(12) 0.101(3) Uani 1 1 d . . .
H16A H -0.3798 -0.2531 -0.0727 0.121 Uiso 1 1 calc R . .
C17 C -0.3385(2) -0.2592(3) 0.0532(11) 0.096(3) Uani 1 1 d . . .
H17A H -0.3272 -0.2382 0.0319 0.116 Uiso 1 1 calc R . .
C18 C -0.0840(5) -0.3115(5) 0.818(3) 0.226(10) Uani 1 1 d . . .
H18A H -0.0781 -0.3264 0.7384 0.271 Uiso 1 1 calc R . .
H18B H -0.0965 -0.3255 0.8873 0.271 Uiso 1 1 calc R . .
C19 C -0.0501(7) -0.2958(8) 0.884(5) 0.43(3) Uani 1 1 d . . .
H19A H -0.0351 -0.3146 0.9150 0.644 Uiso 1 1 calc R . .
H19B H -0.0562 -0.2813 0.9632 0.644 Uiso 1 1 calc R . .
H19C H -0.0381 -0.2820 0.8146 0.644 Uiso 1 1 calc R . .
C20 C -0.1237(3) -0.2362(2) 0.5738(11) 0.082(2) Uani 1 1 d . . .
C21 C -0.0961(3) -0.2382(3) 0.4885(14) 0.110(3) Uani 1 1 d . . .
C22 C -0.0733(3) -0.2108(4) 0.4570(15) 0.130(4) Uani 1 1 d . . .
H22A H -0.0538 -0.2141 0.3991 0.156 Uiso 1 1 calc R . .
C23 C -0.0805(3) -0.1789(4) 0.5144(13) 0.118(4) Uani 1 1 d . . .
H23A H -0.0668 -0.1596 0.4899 0.141 Uiso 1 1 calc R . .
C24 C -0.1167(3) -0.1413(3) 0.6774(11) 0.097(3) Uani 1 1 d . . .
H24A H -0.1026 -0.1220 0.6588 0.116 Uiso 1 1 calc R . .
C25 C -0.1446(3) -0.1380(3) 0.7662(12) 0.094(3) Uani 1 1 d . . .
C26 C -0.1656(2) -0.1669(3) 0.7950(11) 0.087(3) Uani 1 1 d . . .
H26A H -0.1843 -0.1646 0.8572 0.104 Uiso 1 1 calc R . .
C27 C -0.1591(3) -0.1980(3) 0.7347(11) 0.095(3) Uani 1 1 d . . .
H27A H -0.1739 -0.2167 0.7550 0.113 Uiso 1 1 calc R . .
C28 C -0.1300(2) -0.2034(3) 0.6386(10) 0.083(2) Uani 1 1 d . . .
C29 C -0.1087(3) -0.1747(3) 0.6116(11) 0.092(3) Uani 1 1 d . . .
C30 C -0.1509(3) -0.1028(3) 0.8327(14) 0.110(3) Uani 1 1 d . . .
H30A H -0.1372 -0.0846 0.7974 0.132 Uiso 1 1 calc R . .
C31 C -0.1727(3) -0.0939(3) 0.9321(13) 0.108(3) Uani 1 1 d . . .
H31A H -0.1854 -0.1120 0.9742 0.129 Uiso 1 1 calc R . .
C32 C -0.1789(3) -0.0591(3) 0.9832(12) 0.100(3) Uani 1 1 d . . .
C33 C -0.2004(3) -0.0528(2) 1.1012(12) 0.112(3) Uani 1 1 d . . .
H33A H -0.2118 -0.0717 1.1436 0.135 Uiso 1 1 calc R . .
C34 C -0.2050(3) -0.0208(3) 1.1544(11) 0.109(3) Uani 1 1 d . . .
H34A H -0.2194 -0.0181 1.2328 0.130 Uiso 1 1 calc R . .
C35 C -0.1691(3) 0.0032(3) 0.9848(12) 0.108(3) Uani 1 1 d . . .
H35A H -0.1580 0.0224 0.9438 0.129 Uiso 1 1 calc R . .
C36 C -0.1638(3) -0.0294(3) 0.9231(12) 0.110(3) Uani 1 1 d . . .
H36A H -0.1501 -0.0314 0.8421 0.132 Uiso 1 1 calc R . .
C37 C -0.0554(5) -0.2757(5) 0.362(3) 0.253(13) Uani 1 1 d D . .
H37A H -0.0385 -0.2591 0.3384 0.304 Uiso 1 1 calc R . .
C38 C -0.0544(6) -0.3144(6) 0.344(4) 0.38(2) Uani 1 1 d D . .
H38A H -0.0323 -0.3210 0.3024 0.576 Uiso 1 1 calc R . .
H38B H -0.0732 -0.3216 0.2829 0.576 Uiso 1 1 calc R . .
H38C H -0.0569 -0.3255 0.4340 0.576 Uiso 1 1 calc R . .
C39 C -0.3921(3) -0.2952(5) -0.4843(13) 0.185(8) Uani 1 1 d . . .
H39A H -0.3958 -0.2703 -0.4842 0.278 Uiso 1 1 calc R . .
H39B H -0.4042 -0.3055 -0.5631 0.278 Uiso 1 1 calc R . .
H39C H -0.3675 -0.3000 -0.4917 0.278 Uiso 1 1 calc R . .
C40 C -0.4063(4) -0.3109(6) -0.3465(16) 0.123(5) Uani 1 1 d . . .
C41 C -0.4029(3) -0.3451(8) -0.3329(18) 0.158(7) Uani 1 1 d . . .
H41A H -0.3914 -0.3565 -0.4066 0.189 Uiso 1 1 calc R . .
C42 C -0.4147(3) -0.3675(4) -0.219(2) 0.126(4) Uani 1 1 d . . .
C43 C -0.4090(4) -0.4085(4) -0.2191(18) 0.168(5) Uiso 1 1 d . . .
H43A H -0.4189 -0.4184 -0.1348 0.252 Uiso 1 1 calc R . .
H43B H -0.3843 -0.4135 -0.2222 0.252 Uiso 1 1 calc R . .
H43C H -0.4203 -0.4185 -0.3003 0.252 Uiso 1 1 calc R . .
C44 C -0.4750(3) -0.3182(3) 0.3503(15) 0.138(4) Uiso 1 1 d . . .
H44A H -0.4749 -0.3431 0.3342 0.207 Uiso 1 1 calc R . .
H44B H -0.4983 -0.3108 0.3763 0.207 Uiso 1 1 calc R . .
H44C H -0.4590 -0.3126 0.4251 0.207 Uiso 1 1 calc R . .
C45 C -0.4646(3) -0.3005(4) 0.2246(12) 0.101(3) Uani 1 1 d . . .
C46 C -0.4624(3) -0.2671(6) 0.2222(13) 0.133(5) Uani 1 1 d . . .
H46A H -0.4657 -0.2558 0.3082 0.160 Uiso 1 1 calc R . .
C47 C -0.4555(4) -0.2447(4) 0.102(2) 0.150(6) Uani 1 1 d . . .
C48 C -0.4554(5) -0.2038(4) 0.127(3) 0.247(11) Uani 1 1 d . . .
H48A H -0.4506 -0.1920 0.0398 0.370 Uiso 1 1 calc R . .
H48B H -0.4377 -0.1979 0.1952 0.370 Uiso 1 1 calc R . .
H48C H -0.4780 -0.1966 0.1618 0.370 Uiso 1 1 calc R . .

loop_
_atom_site_aniso_label
_atom_site_aniso_U_11
_atom_site_aniso_U_22
_atom_site_aniso_U_33
_atom_site_aniso_U_23
_atom_site_aniso_U_13
_atom_site_aniso_U_12
Ni1 0.0784(8) 0.1286(11) 0.0737(7) -0.0040(7) 0.0022(6) -0.0036(7)
O1 0.087(5) 0.184(8) 0.085(5) -0.003(5) -0.002(4) -0.017(5)
O2 0.099(5) 0.125(5) 0.107(5) -0.029(5) 0.003(4) 0.008(4)
O3 0.077(4) 0.157(6) 0.078(4) 0.000(5) 0.004(3) -0.013(4)
O4 0.116(6) 0.140(6) 0.111(6) -0.005(5) -0.014(5) -0.004(5)
O5 0.127(6) 0.133(7) 0.225(10) 0.039(7) -0.092(7) -0.008(6)
O6 0.124(6) 0.131(7) 0.187(9) -0.048(6) 0.032(6) 0.001(5)
N1 0.073(5) 0.109(6) 0.073(5) 0.015(5) 0.005(4) -0.013(5)
N2 0.155(8) 0.093(6) 0.060(5) 0.000(4) -0.001(5) -0.002(5)
C1 0.087(7) 0.073(6) 0.098(7) -0.009(6) -0.011(6) 0.007(6)
C2 0.117(9) 0.084(7) 0.179(12) 0.006(8) -0.049(9) -0.038(7)
C3 0.132(10) 0.140(11) 0.156(12) 0.025(9) -0.051(9) 0.023(9)
C4 0.150(11) 0.089(7) 0.160(11) 0.019(8) -0.051(10) -0.019(7)
C5 0.096(7) 0.080(6) 0.109(7) -0.016(6) -0.004(6) -0.003(6)
C6 0.078(6) 0.074(6) 0.117(8) -0.010(6) -0.007(6) -0.023(5)
C7 0.107(8) 0.113(8) 0.098(7) 0.005(6) -0.022(6) -0.008(7)
C8 0.082(6) 0.094(6) 0.095(7) -0.007(6) -0.010(6) -0.011(5)
C9 0.094(7) 0.060(5) 0.090(7) -0.010(5) -0.002(5) -0.006(5)
C10 0.084(6) 0.085(6) 0.101(7) -0.029(6) -0.020(6) -0.001(6)
C11 0.105(7) 0.092(7) 0.088(7) -0.003(6) -0.022(6) -0.017(6)
C12 0.096(7) 0.095(7) 0.097(7) -0.005(6) 0.001(6) -0.008(6)
C13 0.081(6) 0.087(6) 0.081(6) -0.020(5) -0.003(5) -0.006(6)
C14 0.086(6) 0.095(7) 0.077(6) 0.000(5) -0.014(5) -0.018(5)
C15 0.079(7) 0.088(7) 0.099(7) -0.017(6) 0.016(6) -0.025(5)
C16 0.095(8) 0.108(8) 0.100(7) 0.016(6) 0.006(6) 0.008(7)
C17 0.071(6) 0.112(8) 0.106(8) -0.004(7) -0.009(6) -0.013(6)
C18 0.180(16) 0.180(17) 0.32(3) 0.019(18) -0.110(18) -0.020(13)
C19 0.21(2) 0.38(4) 0.70(8) 0.11(5) -0.23(4) -0.03(2)
C20 0.069(6) 0.079(7) 0.100(7) -0.006(5) -0.002(5) 0.005(5)
C21 0.111(9) 0.082(8) 0.136(9) -0.019(7) -0.008(8) -0.009(7)
C22 0.121(10) 0.119(10) 0.149(11) -0.024(9) 0.001(8) 0.005(8)
C23 0.105(9) 0.134(11) 0.113(8) 0.013(8) -0.010(7) -0.038(8)
C24 0.112(8) 0.076(7) 0.103(7) -0.003(6) -0.031(7) -0.022(6)
C25 0.099(7) 0.076(7) 0.107(8) 0.002(6) -0.019(6) -0.002(6)
C26 0.077(6) 0.081(7) 0.103(7) -0.012(6) -0.010(5) -0.005(5)
C27 0.095(7) 0.083(7) 0.106(7) -0.010(6) -0.009(6) -0.013(5)
C28 0.064(5) 0.087(7) 0.098(7) 0.002(6) -0.008(5) -0.001(5)
C29 0.080(6) 0.101(8) 0.095(7) -0.004(6) -0.019(6) -0.011(6)
C30 0.149(10) 0.073(7) 0.109(8) 0.000(7) -0.030(8) -0.010(6)
C31 0.158(10) 0.070(7) 0.095(8) -0.003(6) -0.004(8) 0.008(6)
C32 0.133(8) 0.075(7) 0.092(7) 0.011(6) -0.015(6) -0.006(6)
C33 0.176(11) 0.061(6) 0.101(8) -0.003(5) 0.004(8) -0.010(6)
C34 0.144(9) 0.100(8) 0.082(7) 0.011(6) 0.017(6) 0.004(7)
C35 0.176(11) 0.070(7) 0.077(7) -0.007(5) 0.010(7) -0.013(6)
C36 0.154(9) 0.086(8) 0.089(7) 0.010(6) 0.006(7) 0.017(6)
C37 0.183(17) 0.163(16) 0.41(4) -0.133(19) 0.10(2) 0.006(13)
C38 0.26(3) 0.32(3) 0.58(6) -0.16(4) 0.12(3) 0.13(3)
C39 0.108(9) 0.35(2) 0.095(8) -0.002(12) 0.026(7) -0.074(12)
C40 0.074(8) 0.198(15) 0.098(11) 0.005(12) -0.011(7) -0.019(10)
C41 0.076(8) 0.30(3) 0.094(11) -0.042(16) -0.006(7) 0.025(13)
C42 0.085(8) 0.151(11) 0.142(13) -0.058(11) -0.025(8) 0.008(7)
C45 0.096(7) 0.136(10) 0.071(8) 0.009(8) 0.011(5) 0.003(8)
C46 0.116(9) 0.223(18) 0.060(7) -0.008(10) 0.000(6) 0.009(11)
C47 0.122(10) 0.136(12) 0.194(19) -0.059(13) -0.053(12) 0.018(8)
C48 0.25(2) 0.145(13) 0.35(3) -0.088(17) -0.05(2) 0.003(13)

_geom_special_details            
;
All esds (except the esd in the dihedral angle between two l.s. planes)
are estimated using the full covariance matrix.  The cell esds are taken
into account individually in the estimation of esds in distances, angles
and torsion angles; correlations between esds in cell parameters are only