####################################################################### 
# 
# This file contains crystal structure data downloaded from the 
# Cambridge Structural Database (CSD) hosted by the Cambridge 
# Crystallographic Data Centre (CCDC).
# 
# Full information about CCDC data access policies and citation 
# guidelines are available at http://www.ccdc.cam.ac.uk/access/V1 
# 
# Audit and citation data items may have been added by the CCDC. 
# Please retain this information to preserve the provenance of 
# this file and to allow appropriate attribution of the data. 
# 
#######################################################################

data_platon3
_audit_block_doi                 10.5517/ccsfzbh
_database_code_depnum_ccdc_archive 'CCDC 728417'
loop_
_citation_id
_citation_doi
_citation_year
1 10.1126/science.1175441 2009
_audit_update_record             
;
2009-04-19 deposited with the CCDC.	2024-07-13 downloaded from the CCDC.
;

_audit_creation_method           SHELXL-97
_chemical_name_systematic        
;
?
;
_chemical_name_common            BORG-1a
_chemical_melting_point          ?
_chemical_formula_moiety         'C25.5 H8 O5.58 Zn1.33'
_chemical_formula_sum            'C25.5 H8 O5.58 Zn1.33'
_chemical_formula_weight         490.15

loop_
_atom_type_symbol
_atom_type_description
_atom_type_scat_dispersion_real
_atom_type_scat_dispersion_imag
_atom_type_scat_source
C C 0.0181 0.0091 'International Tables Vol C Tables 4.2.6.8 and 6.1.1.4'
H H 0.0000 0.0000 'International Tables Vol C Tables 4.2.6.8 and 6.1.1.4'
O O 0.0492 0.0322 'International Tables Vol C Tables 4.2.6.8 and 6.1.1.4'
Zn Zn -1.5491 0.6778 'International Tables Vol C Tables 4.2.6.8 and 6.1.1.4'

_symmetry_cell_setting           Trigonal
_symmetry_space_group_name_H-M   P-3

loop_
_symmetry_equiv_pos_as_xyz
'x, y, z'
'-y, x-y, z'
'-x+y, -x, z'
'-x, -y, -z'
'y, -x+y, -z'
'x-y, x, -z'

_cell_length_a                   21.5541(3)
_cell_length_b                   21.5541(3)
_cell_length_c                   30.6820(10)
_cell_angle_alpha                90.00
_cell_angle_beta                 90.00
_cell_angle_gamma                120.00
_cell_volume                     12344.5(5)
_cell_formula_units_Z            6
_cell_measurement_temperature    258(2)
_cell_measurement_reflns_used    9979
_cell_measurement_theta_min      2.367
_cell_measurement_theta_max      42.593

_exptl_crystal_description       'hexagonal plate'
_exptl_crystal_colour            'light yellow'
_exptl_crystal_size_max          0.30
_exptl_crystal_size_mid          0.30
_exptl_crystal_size_min          0.10
_exptl_crystal_density_meas      ?
_exptl_crystal_density_diffrn    0.396
_exptl_crystal_density_method    'not measured'
_exptl_crystal_F_000             1472
_exptl_absorpt_coefficient_mu    0.598
_exptl_absorpt_correction_type   none
_exptl_absorpt_correction_T_min  ?
_exptl_absorpt_correction_T_max  ?
_exptl_absorpt_process_details   ?

_exptl_special_details           
;
Due to the small size of the crystal, diffraction
was limit to a theta max of 42.62.
;

_diffrn_ambient_temperature      258(2)
_diffrn_radiation_wavelength     1.54178
_diffrn_radiation_type           CuK\a
_diffrn_radiation_source         'fine-focus sealed tube'
_diffrn_radiation_monochromator  graphite
_diffrn_measurement_device_type  'CCD area detector'
_diffrn_measurement_method       'phi and omega scans'
_diffrn_detector_area_resol_mean ?
_diffrn_standards_number         ?
_diffrn_standards_interval_count ?
_diffrn_standards_interval_time  ?
_diffrn_standards_decay_%        ?
_diffrn_reflns_number            35903
_diffrn_reflns_av_R_equivalents  0.0446
_diffrn_reflns_av_sigmaI/netI    0.0302
_diffrn_reflns_limit_h_min       -18
_diffrn_reflns_limit_h_max       18
_diffrn_reflns_limit_k_min       -18
_diffrn_reflns_limit_k_max       17
_diffrn_reflns_limit_l_min       -26
_diffrn_reflns_limit_l_max       26
_diffrn_reflns_theta_min         1.44
_diffrn_reflns_theta_max         42.62
_reflns_number_total             5845
_reflns_number_gt                4195
_reflns_threshold_expression     >2sigma(I)

_computing_data_collection       'Bruker SMART'
_computing_cell_refinement       'Bruker SMART'
_computing_data_reduction        'Bruker SAINT'
_computing_structure_solution    'SHELXS-97 (Sheldrick, 1990)'
_computing_structure_refinement  'SHELXL-97 (Sheldrick, 1997)'
_computing_molecular_graphics    'Bruker SHELXTL'
_computing_publication_material  'Bruker SHELXTL'

_refine_special_details          
;
Refinement of F^2^ against ALL reflections. The weighted R-factor wR and
goodness of fit S are based on F^2^, conventional R-factors R are based
on F, with F set to zero for negative F^2^. The threshold expression of
F^2^ > 2sigma(F^2^) is used only for calculating R-factors(gt) etc. and is
not relevant to the choice of reflections for refinement. R-factors based
on F^2^ are statistically about twice as large as those based on F, and R-
factors based on ALL data will be even larger.


All non-hydrogen atoms on backbones of the framework are
refined anistropically with hydrogen atoms generated as
spheres riding the coordinates of their parent atoms.
Due to the highly porosity of BORG-1a structure, crown
ethers are surrounded by all the guest entities.
Even though crown ether was chemically
bonded to backbone of the link, the
macrocycle with 34 atoms shows extremely
flexibility in an uncomplexed form. We were
able to locate several disordered
atoms from macrocycles (O11, C12, C13, O13,
C14, O60, C61, C62, O62, C63 and O64),
and stable isotropical refinement was achieved.
Attempts to determine the positions
of phenylene group and other ethylene glycol
segments in crown ethers did not lead
to positive identification due to the
highly disordered crown ether with limited
periodicity. The attempts made to model
solvent molecules did not lead to
identification of guest entities in all
structures either. Since the solvent
is not bonded to the framework, this can
be expected for the MOF structures.
Very high displacement parameters, high
esd s and partial occupancy due to
the disorder make it impossible to determine
accurate positions for solvent
molecules.

The structure is reported to display the
backbone framework and partial
crown ether segments for BORG-1a as isolated
in the crystalline form. BORG-1a
contains three links per Zn4O secondary
building unit. The structure is a 3-fold
interpenetrated cubic framework with centers
of their SBUs aligned along a body
diagonal.

The empirical formula from crystal structure
refinement is C26H8O5.17Zn1.33,
with density of 0.396 g cm-3. The model only
shows parts of crown ether segments.
If all the atoms in the framework are considered,
the calculated empirical formula
is C46H46O14.33Zn1.33, with density of 0.739 g cm-3.
;

_refine_ls_structure_factor_coef Fsqd
_refine_ls_matrix_type           full
_refine_ls_weighting_scheme      calc
_refine_ls_weighting_details     
'calc w=1/[\s^2^(Fo^2^)+(0.1716P)^2^+0.0000P] where P=(Fo^2^+2Fc^2^)/3'
_atom_sites_solution_primary     direct
_atom_sites_solution_secondary   difmap
_atom_sites_solution_hydrogens   geom
_refine_ls_hydrogen_treatment    constr
_refine_ls_extinction_method     SHELXL
_refine_ls_extinction_coef       0.00002(3)
_refine_ls_extinction_expression Fc^*^=kFc[1+0.001xFc^2^\l^3^/sin(2\q)]^-1/4^
_refine_ls_number_reflns         5845
_refine_ls_number_parameters     308
_refine_ls_number_restraints     78
_refine_ls_R_factor_all          0.0890
_refine_ls_R_factor_gt           0.0780
_refine_ls_wR_factor_ref         0.2271
_refine_ls_wR_factor_gt          0.2159
_refine_ls_goodness_of_fit_ref   1.036
_refine_ls_restrained_S_all      1.036
_refine_ls_shift/su_max          0.000
_refine_ls_shift/su_mean         0.000

loop_
_atom_site_label
_atom_site_type_symbol
_atom_site_fract_x
_atom_site_fract_y
_atom_site_fract_z
_atom_site_U_iso_or_equiv
_atom_site_adp_type
_atom_site_occupancy
_atom_site_symmetry_multiplicity
_atom_site_calc_flag
_atom_site_refinement_flags
_atom_site_disorder_assembly
_atom_site_disorder_group
Zn1 Zn 1.0000 1.0000 0.18703(3) 0.0846(5) Uani 1 3 d S . .
Zn2 Zn 0.91497(3) 0.99997(3) 0.270907(17) 0.0895(5) Uani 1 1 d . . .
O5 O 1.0000 1.0000 0.24995(13) 0.0626(13) Uani 1 3 d S . .
O1 O 1.0002(3) 0.9180(3) 0.16374(14) 0.1494(17) Uani 1 1 d . . .
O2 O 0.8571(2) 0.9166(3) 0.30516(15) 0.1528(16) Uani 1 1 d . . .
O3 O 0.9405(3) 1.0839(3) 0.30528(15) 0.1512(16) Uani 1 1 d . . .
O4 O 0.8585(2) 1.0003(3) 0.22298(18) 0.1586(18) Uani 1 1 d . . .
C1 C 0.9997(4) 0.8664(4) 0.1823(3) 0.138(3) Uani 1 1 d . . .
C2 C 0.9996(5) 0.8107(4) 0.1531(2) 0.170(3) Uani 1 1 d D . .
C3 C 0.9989(7) 0.8144(5) 0.1078(3) 0.283(7) Uani 1 1 d D . .
H3 H 0.9958 0.8512 0.0941 0.340 Uiso 1 1 calc R . .
C4 C 1.0029(8) 0.7626(6) 0.0834(2) 0.306(7) Uani 1 1 d D . .
H4 H 1.0071 0.7672 0.0533 0.367 Uiso 1 1 calc R . .
C5 C 1.0008(9) 0.7036(5) 0.1034(3) 0.295(7) Uani 1 1 d D . .
C6 C 1.0017(6) 0.7008(5) 0.1487(3) 0.267(5) Uiso 1 1 d D . .
H6 H 1.0021 0.6626 0.1625 0.320 Uiso 1 1 calc R . .
C7 C 1.0020(7) 0.7551(5) 0.1733(2) 0.296(7) Uani 1 1 d D . .
H7 H 1.0039 0.7538 0.2036 0.356 Uiso 1 1 calc R . .
C8 C 1.0029(9) 0.6542(6) 0.0729(3) 0.357(10) Uani 1 1 d . . .
C9 C 1.0009(10) 0.6106(7) 0.0533(3) 0.377(11) Uani 1 1 d . . .
C10 C 1.0015(11) 0.5478(7) 0.0301(3) 0.388(12) Uani 1 1 d D . .
C11 C 1.0057(12) 0.4890(7) 0.0445(2) 0.55(3) Uani 1 1 d D . .
O11 O 0.9698(14) 0.4739(15) 0.0879(6) 0.255(12) Uiso 0.25 1 d PD . .
C12 C 0.9902(17) 0.4255(13) 0.1115(6) 0.247(16) Uiso 0.25 1 d PD . .
C13 C 0.9807(19) 0.437(2) 0.1595(5) 0.32(2) Uiso 0.25 1 d PD . .
O13 O 1.056(2) 0.483(2) 0.1760(11) 0.40(2) Uiso 0.25 1 d PD . .
C14 C 1.1025(18) 0.471(3) 0.144(2) 0.43(4) Uiso 0.25 1 d PD . .
C15 C 1.0021(10) 0.5622(6) -0.0138(3) 0.365(10) Uani 1 1 d D . .
C50 C 0.8653(4) 0.8652(4) 0.3165(2) 0.140(3) Uani 1 1 d . . .
C51 C 0.8090(4) 0.8090(4) 0.3448(2) 0.164(3) Uani 1 1 d D . .
C52 C 0.8137(5) 0.7499(6) 0.3577(4) 0.250(5) Uani 1 1 d D . .
H52 H 0.8514 0.7444 0.3480 0.300 Uiso 1 1 calc R . .
C53 C 0.7626(6) 0.6992(5) 0.3851(4) 0.275(6) Uani 1 1 d D . .
H53 H 0.7675 0.6612 0.3952 0.330 Uiso 1 1 calc R . .
C54 C 0.7038(6) 0.7052(6) 0.3976(4) 0.245(5) Uani 1 1 d D . .
C55 C 0.6976(5) 0.7623(7) 0.3828(4) 0.281(6) Uani 1 1 d D . .
H55 H 0.6571 0.7652 0.3897 0.338 Uiso 1 1 calc R . .
C56 C 0.7512(6) 0.8152(5) 0.3578(4) 0.249(5) Uani 1 1 d D . .
H56 H 0.7483 0.8553 0.3497 0.299 Uiso 1 1 calc R . .
C57 C 0.6523(6) 0.6524(6) 0.4249(4) 0.300(7) Uani 1 1 d . . .
C58 C 0.6079(6) 0.6073(6) 0.4468(5) 0.326(8) Uani 1 1 d . . .
C59 C 0.5591(6) 0.5545(6) 0.4790(6) 0.303(7) Uani 1 1 d D . .
C60 C 0.4992(9) 0.5613(6) 0.4866(6) 0.397(12) Uani 1 1 d D . .
O60 O 0.475(2) 0.6015(17) 0.4572(9) 0.36(2) Uiso 0.25 1 d PD . .
C61 C 0.436(3) 0.553(2) 0.4201(12) 0.48(5) Uiso 0.25 1 d PD . .
C62 C 0.441(4) 0.599(3) 0.3823(9) 0.53(5) Uiso 0.25 1 d PD . .
O62 O 0.478(3) 0.582(5) 0.3465(16) 0.61(4) Uiso 0.25 1 d PD . .
C63 C 0.435(4) 0.572(4) 0.3059(12) 0.40(3) Uiso 0.25 1 d PD . .
C64 C 0.5607(5) 0.4945(8) 0.4931(5) 0.377(11) Uani 1 1 d D . .
O64 O 0.6005(15) 0.4712(15) 0.4643(9) 0.320(16) Uiso 0.25 1 d PD . .

loop_
_atom_site_aniso_label
_atom_site_aniso_U_11
_atom_site_aniso_U_22
_atom_site_aniso_U_33
_atom_site_aniso_U_23
_atom_site_aniso_U_13
_atom_site_aniso_U_12
Zn1 0.0895(6) 0.0895(6) 0.0747(8) 0.000 0.000 0.0447(3)
Zn2 0.0842(6) 0.0977(6) 0.0909(7) -0.0004(3) 0.0063(3) 0.0487(4)
O5 0.0648(18) 0.0648(18) 0.058(3) 0.000 0.000 0.0324(9)
O1 0.209(4) 0.134(4) 0.127(4) -0.036(3) -0.003(3) 0.102(3)
O2 0.126(3) 0.149(4) 0.170(4) 0.046(3) 0.048(3) 0.059(3)
O3 0.158(4) 0.148(4) 0.166(4) -0.049(3) -0.008(3) 0.090(4)
O4 0.139(4) 0.229(5) 0.141(4) -0.002(4) -0.026(3) 0.117(3)
C1 0.196(7) 0.107(6) 0.134(7) -0.033(6) 0.005(5) 0.094(5)
C2 0.290(9) 0.132(6) 0.148(7) -0.028(6) -0.006(6) 0.149(6)
C3 0.56(2) 0.233(10) 0.134(8) -0.066(7) 0.003(9) 0.257(13)
C4 0.55(2) 0.314(14) 0.139(8) -0.102(10) -0.016(10) 0.281(15)
C5 0.56(2) 0.195(9) 0.246(13) -0.008(9) -0.023(11) 0.280(13)
C7 0.56(2) 0.199(9) 0.229(10) -0.098(8) 0.011(10) 0.261(12)
C8 0.79(3) 0.274(11) 0.185(8) -0.101(8) -0.007(12) 0.400(18)
C9 0.87(3) 0.332(14) 0.141(8) -0.098(8) -0.034(11) 0.46(2)
C10 0.63(3) 0.57(4) 0.102(7) -0.113(12) -0.046(11) 0.41(2)
C11 0.58(3) 0.278(19) 0.95(7) 0.22(3) 0.28(4) 0.34(2)
C15 0.62(3) 0.293(15) 0.338(19) -0.140(14) -0.030(18) 0.344(18)
C50 0.130(6) 0.124(6) 0.160(7) 0.055(5) 0.067(5) 0.058(6)
C51 0.149(7) 0.145(7) 0.175(7) 0.063(6) 0.070(6) 0.056(6)
C52 0.221(10) 0.180(8) 0.323(12) 0.154(9) 0.150(9) 0.080(8)
C53 0.236(11) 0.187(9) 0.388(16) 0.163(10) 0.129(11) 0.094(9)
C54 0.181(9) 0.213(11) 0.345(13) 0.137(10) 0.143(10) 0.101(9)
C55 0.214(11) 0.260(13) 0.387(16) 0.137(12) 0.161(11) 0.132(10)
C56 0.187(8) 0.226(10) 0.304(12) 0.157(9) 0.157(9) 0.080(8)
C57 0.231(10) 0.224(10) 0.381(15) 0.184(11) 0.210(12) 0.066(8)
C58 0.217(10) 0.266(11) 0.471(19) 0.227(14) 0.240(13) 0.102(9)
C59 0.227(12) 0.272(14) 0.438(19) 0.158(14) 0.182(13) 0.146(11)
C60 0.31(2) 0.324(18) 0.41(2) 0.224(17) 0.182(17) 0.046(15)
C64 0.43(3) 0.295(17) 0.46(2) 0.151(17) 0.17(2) 0.23(2)

_geom_special_details            
;
All esds (except the esd in the dihedral angle between two l.s. planes)
are estimated using the full covariance matrix. The cell esds are taken
into account individually in the estimation of esds in distances, angles
and torsion angles; correlations between esds in cell parameters are only
used when they are defined by crystal symmetry. An approximate (isotropic)
treatment of cell esds is used for estimating esds involving l.s. planes.
;

loop_
_geom_bond_atom_site_label_1
_geom_bond_atom_site_label_2
_geom_bond_distance
_geom_bond_site_symmetry_2
_geom_bond_publ_flag
Zn1 O1 1.909(5) 2_765 ?
Zn1 O1 1.909(5) . ?
Zn1 O1 1.909(5) 3_675 ?
Zn1 O5 1.931(4) . ?
Zn1 Zn2 3.1592(10) 3_675 ?
Zn1 Zn2 3.1592(10) . ?
Zn1 Zn2 3.1592(10) 2_765 ?
Zn2 O2 1.909(5) . ?
Zn2 O4 1.912(5) . ?
Zn2 O3 1.921(5) . ?
Zn2 O5 1.9419(15) . ?
O5 Zn2 1.9419(15) 3_675 ?
O5 Zn2 1.9419(15) 2_765 ?
O1 C1 1.244(7) . ?
O2 C50 1.258(8) . ?
O3 C50 1.248(8) 3_675 ?
O4 C1 1.260(8) 3_675 ?
C1 O4 1.260(8) 2_765 ?
C1 C2 1.496(8) . ?
C2 C7 1.373(6) . ?
C2 C3 1.393(6) . ?
C3 C4 1.381(6) . ?
C4 C5 1.392(7) . ?
C5 C6 1.390(7) . ?
C5 C8 1.437(10) . ?
C6 C7 1.390(7) . ?
C8 C9 1.097(9) . ?
C9 C10 1.537(11) . ?
C10 C15 1.380(6) . ?
C10 C11 1.387(6) . ?
C11 C15 1.396(6) 4_765 ?
C11 O11 1.494(10) . ?
O11 C12 1.504(10) . ?
C12 C13 1.522(10) . ?
C13 O13 1.508(10) . ?
O13 C14 1.508(10) . ?
C15 C11 1.396(6) 4_765 ?
C50 O3 1.248(8) 2_765 ?
C50 C51 1.489(9) . ?
C51 C56 1.377(6) . ?
C51 C52 1.385(6) . ?
C52 C53 1.382(7) . ?
C53 C54 1.389(7) . ?
C54 C55 1.381(7) . ?
C54 C57 1.402(10) . ?
C55 C56 1.381(7) . ?
C57 C58 1.177(11) . ?
C58 C59 1.476(11) . ?
C59 C64 1.381(5) . ?
C59 C60 1.390(5) . ?
C60 C64 1.396(5) 4_666 ?
C60 O60 1.511(10) . ?
O60 C61 1.493(10) . ?
C61 C62 1.503(10) . ?
C62 O62 1.506(10) . ?
O62 C63 1.497(10) . ?
C64 C60 1.396(5) 4_666 ?
C64 O64 1.484(9) . ?

loop_
_geom_angle_atom_site_label_1
_geom_angle_atom_site_label_2
_geom_angle_atom_site_label_3
_geom_angle
_geom_angle_site_symmetry_1
_geom_angle_site_symmetry_3
_geom_angle_publ_flag
O1 Zn1 O1 106.85(17) 2_765 . ?
O1 Zn1 O1 106.85(17) 2_765 3_675 ?
O1 Zn1 O1 106.85(17) . 3_675 ?
O1 Zn1 O5 111.98(16) 2_765 . ?
O1 Zn1 O5 111.98(16) . . ?
O1 Zn1 O5 111.98(16) 3_675 . ?
O1 Zn1 Zn2 76.53(15) 2_765 3_675 ?
O1 Zn1 Zn2 124.95(15) . 3_675 ?
O1 Zn1 Zn2 125.08(15) 3_675 3_675 ?
O5 Zn1 Zn2 35.451(15) . 3_675 ?
O1 Zn1 Zn2 124.95(15) 2_765 . ?
O1 Zn1 Zn2 125.08(15) . . ?
O1 Zn1 Zn2 76.53(15) 3_675 . ?
O5 Zn1 Zn2 35.451(16) . . ?
Zn2 Zn1 Zn2 60.30(3) 3_675 . ?
O1 Zn1 Zn2 125.08(15) 2_765 2_765 ?
O1 Zn1 Zn2 76.53(15) . 2_765 ?
O1 Zn1 Zn2 124.95(15) 3_675 2_765 ?
O5 Zn1 Zn2 35.451(15) . 2_765 ?
Zn2 Zn1 Zn2 60.30(3) 3_675 2_765 ?
Zn2 Zn1 Zn2 60.30(3) . 2_765 ?
O2 Zn2 O4 108.0(2) . . ?
O2 Zn2 O3 109.2(2) . . ?
O4 Zn2 O3 107.5(2) . . ?
O2 Zn2 O5 110.83(17) . . ?
O4 Zn2 O5 110.4(2) . . ?
O3 Zn2 O5 110.83(17) . . ?
O2 Zn2 Zn1 123.70(16) . . ?
O4 Zn2 Zn1 75.16(16) . . ?
O3 Zn2 Zn1 123.65(16) . . ?
O5 Zn2 Zn1 35.21(11) . . ?
Zn1 O5 Zn2 109.33(11) . 3_675 ?
Zn1 O5 Zn2 109.33(11) . . ?
Zn2 O5 Zn2 109.61(11) 3_675 . ?
Zn1 O5 Zn2 109.33(11) . 2_765 ?
Zn2 O5 Zn2 109.61(11) 3_675 2_765 ?
Zn2 O5 Zn2 109.61(11) . 2_765 ?
C1 O1 Zn1 130.8(5) . . ?
C50 O2 Zn2 132.0(5) . . ?
C50 O3 Zn2 131.6(5) 3_675 . ?
C1 O4 Zn2 132.2(5) 3_675 . ?
O1 C1 O4 125.3(6) . 2_765 ?
O1 C1 C2 116.0(8) . . ?
O4 C1 C2 118.7(8) 2_765 . ?
C7 C2 C3 120.4(4) . . ?
C7 C2 C1 116.4(7) . . ?
C3 C2 C1 123.2(7) . . ?
C4 C3 C2 119.2(5) . . ?
C3 C4 C5 120.8(5) . . ?
C6 C5 C4 119.