####################################################################### 
# 
# This file contains crystal structure data downloaded from the 
# Cambridge Structural Database (CSD) hosted by the Cambridge 
# Crystallographic Data Centre (CCDC).
# 
# Full information about CCDC data access policies and citation 
# guidelines are available at http://www.ccdc.cam.ac.uk/access/V1 
# 
# Audit and citation data items may have been added by the CCDC. 
# Please retain this information to preserve the provenance of 
# this file and to allow appropriate attribution of the data. 
# 
#######################################################################

data_new
_audit_block_doi                 10.5517/ccw5mpb
_database_code_depnum_ccdc_archive 'CCDC 809772'
loop_
_citation_id
_citation_doi
_citation_year
1 10.1021/ic101127z 2010
_audit_update_record             
;
2011-01-27 deposited with the CCDC.	2024-07-13 downloaded from the CCDC.
;

_audit_creation_method           SHELXL-97
_chemical_name_systematic        
;
?
;
_chemical_name_common            ?
_chemical_melting_point          ?
_chemical_formula_moiety         'C90 H120 N18 Ni3 O12'
_chemical_formula_sum            'C90 H120 N18 Ni3 O12'
_chemical_formula_weight         1822.17

loop_
_atom_type_symbol
_atom_type_description
_atom_type_scat_dispersion_real
_atom_type_scat_dispersion_imag
_atom_type_scat_source
C C 0.0033 0.0016 'International Tables Vol C Tables 4.2.6.8 and 6.1.1.4'
H H 0.0000 0.0000 'International Tables Vol C Tables 4.2.6.8 and 6.1.1.4'
N N 0.0061 0.0033 'International Tables Vol C Tables 4.2.6.8 and 6.1.1.4'
O O 0.0106 0.0060 'International Tables Vol C Tables 4.2.6.8 and 6.1.1.4'
Ni Ni 0.3393 1.1124 'International Tables Vol C Tables 4.2.6.8 and 6.1.1.4'

_symmetry_cell_setting           monoclinic
_symmetry_space_group_name_H-M   'P 21'
_symmetry_space_group_name_Hall  'P 2yb'

loop_
_symmetry_equiv_pos_as_xyz
'x, y, z'
'-x, y+1/2, -z'

_cell_length_a                   16.5120(10)
_cell_length_b                   21.4370(10)
_cell_length_c                   19.5470(10)
_cell_angle_alpha                90.00
_cell_angle_beta                 103.945(2)
_cell_angle_gamma                90.00
_cell_volume                     6715.1(6)
_cell_formula_units_Z            2
_cell_measurement_temperature    294(2)
_cell_measurement_reflns_used    ?
_cell_measurement_theta_min      ?
_cell_measurement_theta_max      ?

_exptl_crystal_description       block
_exptl_crystal_colour            pink
_exptl_crystal_size_max          0.50
_exptl_crystal_size_mid          0.20
_exptl_crystal_size_min          0.13
_exptl_crystal_density_meas      ?
_exptl_crystal_density_diffrn    0.901
_exptl_crystal_density_method    'not measured'
_exptl_crystal_F_000             1932
_exptl_absorpt_coefficient_mu    0.464
_exptl_absorpt_correction_type   none
_exptl_absorpt_correction_T_min  ?
_exptl_absorpt_correction_T_max  ?
_exptl_absorpt_process_details   ?

_exptl_special_details           
;
?
;

_diffrn_ambient_temperature      294(2)
_diffrn_radiation_wavelength     0.90000
_diffrn_radiation_type           ?
_diffrn_radiation_source         'fine-focus sealed tube'
_diffrn_radiation_monochromator  graphite
_diffrn_measurement_device_type  ?
_diffrn_measurement_method       ?
_diffrn_detector_area_resol_mean ?
_diffrn_standards_number         ?
_diffrn_standards_interval_count ?
_diffrn_standards_interval_time  ?
_diffrn_standards_decay_%        ?
_diffrn_reflns_number            8835
_diffrn_reflns_av_R_equivalents  0.0000
_diffrn_reflns_av_sigmaI/netI    0.0336
_diffrn_reflns_limit_h_min       0
_diffrn_reflns_limit_h_max       18
_diffrn_reflns_limit_k_min       0
_diffrn_reflns_limit_k_max       22
_diffrn_reflns_limit_l_min       -21
_diffrn_reflns_limit_l_max       21
_diffrn_reflns_theta_min         1.82
_diffrn_reflns_theta_max         30.38
_reflns_number_total             8835
_reflns_number_gt                7113
_reflns_threshold_expression     >2sigma(I)

_computing_data_collection       ?
_computing_cell_refinement       ?
_computing_data_reduction        ?
_computing_structure_solution    ?
_computing_structure_refinement  'SHELXL-97 (Sheldrick, 1997)'
_computing_molecular_graphics    ?
_computing_publication_material  ?

_refine_special_details          
;
Refinement of F^2^ against ALL reflections. The weighted R-factor wR and
goodness of fit S are based on F^2^, conventional R-factors R are based
on F, with F set to zero for negative F^2^. The threshold expression of
F^2^ > 2sigma(F^2^) is used only for calculating R-factors(gt) etc. and is
not relevant to the choice of reflections for refinement. R-factors based
on F^2^ are statistically about twice as large as those based on F, and R-
factors based on ALL data will be even larger.

Due to the large void space in the structure, solvent molecules are
highly disordered. Complete assignment of all residual electron density was
therefore impossible. The disordered solvent region was treated with SQUEEZE
subroutine in PLATON software package: Spek, A.L. (1990), Acta Crystallogr.A46, C-34.
;

_refine_ls_structure_factor_coef Fsqd
_refine_ls_matrix_type           full
_refine_ls_weighting_scheme      calc
_refine_ls_weighting_details     
'calc w=1/[\s^2^(Fo^2^)+(0.2000P)^2^+0.0000P] where P=(Fo^2^+2Fc^2^)/3'
_atom_sites_solution_primary     direct
_atom_sites_solution_secondary   difmap
_atom_sites_solution_hydrogens   geom
_refine_ls_hydrogen_treatment    constr
_refine_ls_extinction_method     none
_refine_ls_extinction_coef       ?
_chemical_absolute_configuration rm
_refine_ls_abs_structure_details 'Flack H D (1983), Acta Cryst. A39, 876-881'
_refine_ls_abs_structure_Flack   0.02(4)
_refine_ls_number_reflns         8835
_refine_ls_number_parameters     939
_refine_ls_number_restraints     2
_refine_ls_R_factor_all          0.1372
_refine_ls_R_factor_gt           0.1098
_refine_ls_wR_factor_ref         0.3479
_refine_ls_wR_factor_gt          0.3038
_refine_ls_goodness_of_fit_ref   1.564
_refine_ls_restrained_S_all      1.563
_refine_ls_shift/su_max          1.750
_refine_ls_shift/su_mean         0.141

loop_
_atom_site_label
_atom_site_type_symbol
_atom_site_fract_x
_atom_site_fract_y
_atom_site_fract_z
_atom_site_U_iso_or_equiv
_atom_site_adp_type
_atom_site_occupancy
_atom_site_symmetry_multiplicity
_atom_site_calc_flag
_atom_site_refinement_flags
_atom_site_disorder_assembly
_atom_site_disorder_group
Ni1A Ni 0.63487(8) 0.20155(11) 1.23681(6) 0.0791(7) Uani 1 1 d . . .
N1A N 0.5836(9) 0.3298(8) 1.3150(7) 0.107(4) Uani 1 1 d . . .
N2A N 0.6756(8) 0.2923(7) 1.2416(6) 0.095(4) Uani 1 1 d . . .
H2A H 0.6450 0.3121 1.2027 0.114 Uiso 1 1 calc R . .
N3A N 0.7347(6) 0.1835(8) 1.1956(5) 0.094(4) Uani 1 1 d . . .
H3A H 0.7754 0.1674 1.2311 0.113 Uiso 1 1 calc R . .
N4A N 0.6844(8) 0.0751(8) 1.1576(6) 0.097(4) Uani 1 1 d . . .
N5A N 0.5946(7) 0.1133(7) 1.2334(6) 0.092(4) Uani 1 1 d . . .
H5A H 0.6272 0.0929 1.2709 0.110 Uiso 1 1 calc R . .
N6A N 0.5359(6) 0.2229(7) 1.2785(5) 0.085(3) Uani 1 1 d . . .
H6A H 0.4944 0.2378 1.2428 0.102 Uiso 1 1 calc R . .
C1A C 0.5533(10) 0.2718(12) 1.3360(7) 0.113(7) Uani 1 1 d . . .
H1A1 H 0.5023 0.2797 1.3509 0.136 Uiso 1 1 calc R . .
H1A2 H 0.5941 0.2554 1.3762 0.136 Uiso 1 1 calc R . .
C2A C 0.6684(11) 0.3305(11) 1.3049(10) 0.120(6) Uani 1 1 d . . .
H2A1 H 0.7065 0.3140 1.3467 0.144 Uiso 1 1 calc R . .
H2A2 H 0.6846 0.3732 1.2986 0.144 Uiso 1 1 calc R . .
C3A C 0.7629(10) 0.2871(10) 1.2325(9) 0.108(5) Uani 1 1 d . . .
H3A1 H 0.7817 0.3274 1.2200 0.129 Uiso 1 1 calc R . .
H3A2 H 0.8001 0.2737 1.2764 0.129 Uiso 1 1 calc R . .
C4A C 0.7649(10) 0.2418(11) 1.1769(9) 0.117(6) Uani 1 1 d . . .
H4A1 H 0.7303 0.2562 1.1323 0.141 Uiso 1 1 calc R . .
H4A2 H 0.8216 0.2370 1.1717 0.141 Uiso 1 1 calc R . .
C5A C 0.7144(10) 0.1345(12) 1.1389(7) 0.119(7) Uani 1 1 d . . .
H5A1 H 0.6725 0.1515 1.0997 0.142 Uiso 1 1 calc R . .
H5A2 H 0.7642 0.1270 1.1221 0.142 Uiso 1 1 calc R . .
C6A C 0.6006(10) 0.0781(9) 1.1674(8) 0.104(5) Uani 1 1 d . . .
H6A1 H 0.5648 0.0983 1.1268 0.125 Uiso 1 1 calc R . .
H6A2 H 0.5800 0.0360 1.1700 0.125 Uiso 1 1 calc R . .
C7A C 0.5081(10) 0.1159(11) 1.2446(11) 0.121(6) Uani 1 1 d . . .
H7A1 H 0.4923 0.0756 1.2598 0.145 Uiso 1 1 calc R . .
H7A2 H 0.4685 0.1272 1.2011 0.145 Uiso 1 1 calc R . .
C8A C 0.5083(10) 0.1643(12) 1.3001(9) 0.121(7) Uani 1 1 d . . .
H8A1 H 0.4525 0.1687 1.3074 0.145 Uiso 1 1 calc R . .
H8A2 H 0.5452 0.1513 1.3443 0.145 Uiso 1 1 calc R . .
C9A C 0.5210(14) 0.3627(13) 1.2604(12) 0.144(3) Uani 1 1 d . . .
H9A H 0.5086 0.3393 1.2160 0.173 Uiso 1 1 calc R . .
C10A C 0.439(2) 0.3751(16) 1.2863(14) 0.167(5) Uani 1 1 d . . .
C11A C 0.3694(19) 0.3606(16) 1.2450(14) 0.167(5) Uani 1 1 d . . .
H11A H 0.3614 0.3417 1.2011 0.200 Uiso 1 1 calc R . .
C12A C 0.3094(19) 0.3778(15) 1.2777(14) 0.167(5) Uani 1 1 d . . .
H12A H 0.2551 0.3740 1.2504 0.200 Uiso 1 1 calc R . .
C13A C 0.315(2) 0.3952(16) 1.3302(15) 0.167(5) Uani 1 1 d . . .
H13A H 0.2643 0.4028 1.3420 0.200 Uiso 1 1 calc R . .
C14A C 0.3703(19) 0.4052(16) 1.3716(14) 0.167(5) Uani 1 1 d . . .
H14A H 0.3702 0.4202 1.4162 0.200 Uiso 1 1 calc R . .
C15A C 0.4393(18) 0.3928(15) 1.3488(13) 0.167(5) Uani 1 1 d . . .
H15A H 0.4907 0.3974 1.3808 0.200 Uiso 1 1 calc R . .
C16A C 0.562(2) 0.4338(16) 1.2503(18) 0.190(5) Uani 1 1 d . . .
H16A H 0.5803 0.4536 1.2954 0.285 Uiso 1 1 calc R . .
H16B H 0.5208 0.4592 1.2199 0.285 Uiso 1 1 calc R . .
H16C H 0.6092 0.4287 1.2297 0.285 Uiso 1 1 calc R . .
C17A C 0.7419(15) 0.0371(15) 1.2094(12) 0.144(3) Uani 1 1 d . . .
H17A H 0.7481 0.0554 1.2563 0.173 Uiso 1 1 calc R . .
C18A C 0.7069(13) -0.0301(11) 1.2092(9) 0.119(6) Uani 1 1 d . . .
C19A C 0.6893(14) -0.0513(18) 1.2672(12) 0.163(10) Uani 1 1 d . . .
H19A H 0.6958 -0.0258 1.3066 0.196 Uiso 1 1 calc R . .
C20A C 0.658(2) -0.1183(18) 1.269(2) 0.172(11) Uani 1 1 d . . .
H20A H 0.6573 -0.1370 1.3118 0.207 Uiso 1 1 calc R . .
C21A C 0.633(2) -0.1479(18) 1.212(3) 0.197(13) Uani 1 1 d . . .
H21A H 0.5995 -0.1831 1.2080 0.237 Uiso 1 1 calc R . .
C22A C 0.6612(18) -0.123(3) 1.151(2) 0.201(17) Uani 1 1 d . . .
H22A H 0.6555 -0.1479 1.1113 0.241 Uiso 1 1 calc R . .
C23A C 0.6958(17) -0.0641(14) 1.1504(18) 0.156(9) Uani 1 1 d . . .
H23A H 0.7107 -0.0489 1.1105 0.187 Uiso 1 1 calc R . .
C24A C 0.826(2) 0.0323(17) 1.1933(19) 0.190(5) Uani 1 1 d . . .
H24A H 0.8648 0.0127 1.2321 0.285 Uiso 1 1 calc R . .
H24B H 0.8462 0.0733 1.1861 0.285 Uiso 1 1 calc R . .
H24C H 0.8222 0.0079 1.1515 0.285 Uiso 1 1 calc R . .
Ni1B Ni 0.13729(8) 0.18495(13) 0.73561(7) 0.0953(8) Uani 1 1 d . . .
N1B N 0.0572(15) 0.3135(14) 0.781(2) 0.224(16) Uani 1 1 d . . .
N2B N 0.0701(7) 0.2000(13) 0.8096(6) 0.139(8) Uani 1 1 d . . .
H2B H 0.1079 0.2077 0.8510 0.167 Uiso 1 1 calc R . .
N3B N 0.1221(8) 0.0920(10) 0.7500(8) 0.125(6) Uani 1 1 d . . .
H3B H 0.0818 0.0766 0.7136 0.150 Uiso 1 1 calc R . .
N4B N 0.2273(11) 0.0604(11) 0.6913(9) 0.133(6) Uani 1 1 d . . .
N5B N 0.2032(6) 0.1745(9) 0.6623(5) 0.108(5) Uani 1 1 d . . .
H5B H 0.1656 0.1658 0.6211 0.129 Uiso 1 1 calc R . .
N6B N 0.1515(9) 0.2800(11) 0.7156(8) 0.130(6) Uani 1 1 d . . .
H6B H 0.1941 0.2949 0.7504 0.156 Uiso 1 1 calc R . .
C1B C 0.0808(14) 0.3138(15) 0.7178(16) 0.164(10) Uani 1 1 d . . .
H1B1 H 0.0896 0.3568 0.7058 0.197 Uiso 1 1 calc R . .
H1B2 H 0.0347 0.2977 0.6815 0.197 Uiso 1 1 calc R . .
C2B C 0.0136(11) 0.2566(16) 0.7947(9) 0.157(11) Uani 1 1 d . . .
H2B1 H -0.0103 0.2638 0.8347 0.189 Uiso 1 1 calc R . .
H2B2 H -0.0318 0.2480 0.7541 0.189 Uiso 1 1 calc R . .
C3B C 0.0285(11) 0.1363(18) 0.8185(9) 0.181(14) Uani 1 1 d . . .
H3B1 H 0.0113 0.1352 0.8625 0.217 Uiso 1 1 calc R . .
H3B2 H -0.0200 0.1293 0.7799 0.217 Uiso 1 1 calc R . .
C4B C 0.0915(16) 0.0897(18) 0.8182(12) 0.174(13) Uani 1 1 d . . .
H4B1 H 0.0688 0.0487 0.8231 0.209 Uiso 1 1 calc R . .
H4B2 H 0.1384 0.0965 0.8582 0.209 Uiso 1 1 calc R . .
C5B C 0.1974(17) 0.0589(16) 0.7551(13) 0.159(10) Uani 1 1 d . . .
H5B1 H 0.2399 0.0763 0.7935 0.190 Uiso 1 1 calc R . .
H5B2 H 0.1890 0.0157 0.7668 0.190 Uiso 1 1 calc R . .
C6B C 0.2636(9) 0.1179(12) 0.6779(9) 0.115(6) Uani 1 1 d . . .
H6B1 H 0.2881 0.1122 0.6380 0.138 Uiso 1 1 calc R . .
H6B2 H 0.3085 0.1280 0.7184 0.138 Uiso 1 1 calc R . .
C7B C 0.2420(9) 0.2309(11) 0.6515(8) 0.109(6) Uani 1 1 d . . .
H7B1 H 0.2614 0.2286 0.6085 0.131 Uiso 1 1 calc R . .
H7B2 H 0.2896 0.2388 0.6905 0.131 Uiso 1 1 calc R . .
C8B C 0.1814(13) 0.2801(14) 0.6462(11) 0.138(8) Uani 1 1 d . . .
H8B1 H 0.1346 0.2730 0.6062 0.166 Uiso 1 1 calc R . .
H8B2 H 0.2064 0.3200 0.6400 0.166 Uiso 1 1 calc R . .
C9B C 0.0741(15) 0.3571(14) 0.8275(12) 0.144(3) Uani 1 1 d D . .
H9B H 0.1160 0.3816 0.8113 0.173 Uiso 1 1 calc R . .
C10B C -0.009(4) 0.406(4) 0.811(5) 0.52(5) Uani 1 1 d GD . .
C11B C -0.032(3) 0.399(3) 0.868(5) 0.52(5) Uani 1 1 d G . .
H11B H -0.0441 0.3593 0.8822 0.623 Uiso 1 1 calc R . .
C12B C -0.039(3) 0.446(6) 0.905(4) 0.52(5) Uani 1 1 d G . .
H12B H -0.0556 0.4411 0.9469 0.623 Uiso 1 1 calc R . .
C13B C -0.022(4) 0.500(4) 0.886(5) 0.52(5) Uani 1 1 d G . .
H13B H -0.0272 0.5345 0.9129 0.623 Uiso 1 1 calc R . .
C14B C 0.001(4) 0.507(3) 0.829(6) 0.52(5) Uani 1 1 d G . .
H14B H 0.0127 0.5462 0.8143 0.623 Uiso 1 1 calc R . .
C15B C 0.007(3) 0.459(5) 0.791(4) 0.52(5) Uani 1 1 d G . .
H15B H 0.0243 0.4644 0.7497 0.623 Uiso 1 1 calc R . .
C16B C 0.115(3) 0.340(4) 0.890(2) 0.38(4) Uani 1 1 d . . .
H16D H 0.0828 0.3498 0.9232 0.572 Uiso 1 1 calc R . .
H16E H 0.1674 0.3608 0.9020 0.572 Uiso 1 1 calc R . .
H16F H 0.1238 0.2954 0.8897 0.572 Uiso 1 1 calc R . .
C17B C 0.1647(15) 0.0345(14) 0.6189(11) 0.144(3) Uani 1 1 d . . .
H17B H 0.1182 0.0634 0.6020 0.173 Uiso 1 1 calc R . .
C18B C 0.2164(10) 0.0299(11) 0.5691(11) 0.150(9) Uani 1 1 d G . .
C19B C 0.2894(14) -0.0079(13) 0.5831(14) 0.235(19) Uani 1 1 d G . .
H19B H 0.3072 -0.0277 0.6265 0.282 Uiso 1 1 calc R . .
C20B C 0.3354(16) -0.0155(14) 0.5307(17) 0.24(2) Uani 1 1 d G . .
H20B H 0.3831 -0.0401 0.5398 0.293 Uiso 1 1 calc R . .
C21B C 0.3082(18) 0.0148(16) 0.4643(16) 0.44(5) Uani 1 1 d G . .
H21B H 0.3382 0.0098 0.4300 0.523 Uiso 1 1 calc R . .
C22B C 0.2352(17) 0.0526(17) 0.4503(12) 0.35(4) Uani 1 1 d G . .
H22B H 0.2175 0.0723 0.4069 0.415 Uiso 1 1 calc R . .
C23B C 0.1893(12) 0.0601(13) 0.5027(11) 0.176(11) Uani 1 1 d G . .
H23B H 0.1416 0.0848 0.4936 0.212 Uiso 1 1 calc R . .
C24B C 0.131(2) -0.0350(17) 0.6298(18) 0.190(5) Uani 1 1 d . . .
H24D H 0.1074 -0.0535 0.5846 0.285 Uiso 1 1 calc R . .
H24E H 0.0887 -0.0324 0.6561 0.285 Uiso 1 1 calc R . .
H24F H 0.1763 -0.0602 0.6551 0.285 Uiso 1 1 calc R . .
Ni1C Ni 0.63865(7) 0.18490(9) 0.73932(7) 0.0786(7) Uani 1 1 d . . .
N1C N 0.5000(10) 0.2895(9) 0.6521(8) 0.118(5) Uani 1 1 d . . .
N2C N 0.6456(7) 0.2799(7) 0.7191(7) 0.092(4) Uani 1 1 d . . .
H2C H 0.6631 0.2842 0.6786 0.110 Uiso 1 1 calc R . .
N3C N 0.7475(6) 0.1986(9) 0.8131(5) 0.102(5) Uani 1 1 d . . .
H3C H 0.7341 0.2023 0.8555 0.122 Uiso 1 1 calc R . .
N4C N 0.7675(10) 0.0844(11) 0.8333(7) 0.129(6) Uani 1 1 d . . .
N5C N 0.6299(7) 0.0932(7) 0.7546(6) 0.087(3) Uani 1 1 d . . .
H5C H 0.6062 0.0891 0.7918 0.104 Uiso 1 1 calc R . .
N6C N 0.5280(6) 0.1756(7) 0.6630(5) 0.086(4) Uani 1 1 d . . .
H6C H 0.5406 0.1748 0.6202 0.103 Uiso 1 1 calc R . .
C1C C 0.4678(7) 0.2281(9) 0.6626(7) 0.095(5) Uani 1 1 d . . .
H1C1 H 0.4515 0.2280 0.7071 0.114 Uiso 1 1 calc R . .
H1C2 H 0.4180 0.2206 0.6255 0.114 Uiso 1 1 calc R . .
C2C C 0.5654(12) 0.3086(11) 0.7086(11) 0.118(6) Uani 1 1 d . . .
H2C1 H 0.5467 0.3029 0.7516 0.142 Uiso 1 1 calc R . .
H2C2 H 0.5731 0.3530 0.7034 0.142 Uiso 1 1 calc R . .
C3C C 0.7138(12) 0.3024(10) 0.7788(10) 0.117(6) Uani 1 1 d . . .
H3C1 H 0.6907 0.3118 0.8188 0.140 Uiso 1 1 calc R . .
H3C2 H 0.7368 0.3407 0.7649 0.140 Uiso 1 1 calc R . .
C4C C 0.7822(10) 0.2553(13) 0.8003(10) 0.131(8) Uani 1 1 d . . .
H4C1 H 0.8114 0.2504 0.7631 0.157 Uiso 1 1 calc R . .
H4C2 H 0.8220 0.2693 0.8425 0.157 Uiso 1 1 calc R . .
C5C C 0.8032(10) 0.1423(13) 0.8179(9) 0.123(7) Uani 1 1 d . . .
H5C1 H 0.8191 0.1378 0.7735 0.147 Uiso 1 1 calc R . .
H5C2 H 0.8538 0.1498 0.8542 0.147 Uiso 1 1 calc R . .
C6C C 0.7140(12) 0.0584(9) 0.7754(9) 0.107(5) Uani 1 1 d . . .
H6C1 H 0.7039 0.0151 0.7855 0.128 Uiso 1 1 calc R . .
H6C2 H 0.7401 0.0590 0.7360 0.128 Uiso 1 1 calc R . .
C7C C 0.5685(10) 0.0680(9) 0.6929(8) 0.096(4) Uani 1 1 d . . .
H7C1 H 0.5490 0.0274 0.7038 0.115 Uiso 1 1 calc R . .
H7C2 H 0.5937 0.0636 0.6531 0.115 Uiso 1 1 calc R . .
C8C C 0.4957(9) 0.1145(9) 0.6752(8) 0.094(5) Uani 1 1 d . . .
H8C1 H 0.4549 0.1009 0.6335 0.113 Uiso 1 1 calc R . .
H8C2 H 0.4685 0.1168 0.7140 0.113 Uiso 1 1 calc R . .
C9C C 0.5067(14) 0.3015(14) 0.5794(11) 0.144(3) Uani 1 1 d . . .
H9C H 0.5516 0.2746 0.5715 0.173 Uiso 1 1 calc R . .
C10C C 0.4348(14) 0.284(2) 0.5304(13) 0.203(8) Uani 1 1 d . . .
C11C C 0.4312(15) 0.233(2) 0.4830(13) 0.203(8) Uani 1 1 d . . .
H11C H 0.4837 0.2164 0.4840 0.243 Uiso 1 1 calc R . .
C12C C 0.3632(13) 0.199(2) 0.4323(12) 0.203(8) Uani 1 1 d . . .
H12C H 0.3661 0.1618 0.4091 0.243 Uiso 1 1 calc R . .
C13C C 0.2860(15) 0.243(2) 0.4274(14) 0.203(8) Uani 1 1 d . . .
H13C H 0.2382 0.2342 0.3923 0.243 Uiso 1 1 calc R . .
C14C C 0.2840(15) 0.293(2) 0.4720(13) 0.203(8) Uani 1 1 d . . .
H14C H 0.2348 0.3154 0.4664 0.243 Uiso 1 1 calc R . .
C15C C 0.3595(14) 0.312(2) 0.5300(13) 0.203(8) Uani 1 1 d . . .
H15C H 0.3549 0.3409 0.5639 0.243 Uiso 1 1 calc R . .
C16C C 0.537(2) 0.3712(16) 0.5751(18) 0.190(5) Uani 1 1 d . . .
H16G H 0.5462 0.3788 0.5292 0.285 Uiso 1 1 calc R . .
H16H H 0.5880 0.3777 0.6102 0.285 Uiso 1 1 calc R . .
H16I H 0.4951 0.3993 0.5833 0.285 Uiso 1 1 calc R . .
C17C C 0.7469(15) 0.0755(15) 0.9017(11) 0.144(3) Uani 1 1 d . . .
H17C H 0.6996 0.1042 0.8968 0.173 Uiso 1 1 calc R . .
C18C C 0.708(3) 0.0151(17) 0.9194(12) 0.25(2) Uani 1 1 d G . .
C19C C 0.626(3) 0.0