
#######################################################################
#
#                 Cambridge Crystallographic Data Centre
#                                CCDC
#
#######################################################################
#
# If this CIF has been generated from an entry in the Cambridge
# Structural Database, then it will include bibliographic, chemical,
# crystal, experimental, refinement or atomic coordinate data resulting
# from the CCDC's data processing and validation procedures.
#
#######################################################################

data_CSD_CIF_UKIGUQ
_audit_creation_date 2003-12-08
_audit_creation_method CSD-ConQuest-V1
_database_code_CSD UKIGUQ
_database_code_depnum_ccdc_archive 'CCDC 219105'
_chemical_formula_sum 'C20 H15 N1'
_chemical_formula_moiety
;
C20 H15 N1
;
_journal_coden_Cambridge 35
_journal_volume 68
_journal_year 2003
_journal_page_first 6071
_journal_name_full 'J.Org.Chem. '
loop_
_publ_author_name
"J.E.Field"
"T.J.Hill"
"D.Venkataraman"
_chemical_name_systematic
;
Dinaphthylamine
;
_chemical_name_common
;
Teaching Subset: Fundamental Chemistry
;
_cell_volume   1431.906
_exptl_crystal_colour 'colorless'
_exptl_crystal_density_diffrn 1.25
_exptl_special_details
;
The cell beta parameter is given as 12.E1 and 120 in the supporting info. cif 
and pdf files, respectively. We calculate a value of 121.173
;
_exptl_crystal_description 'cube'
_diffrn_ambient_temperature 298
#These two values have been output from a single CSD field.
_refine_ls_R_factor_gt 0.064
_refine_ls_wR_factor_gt 0.064
_symmetry_cell_setting monoclinic
_symmetry_space_group_name_H-M 'P 21/c'
_symmetry_Int_Tables_number 14
loop_
_symmetry_equiv_pos_site_id
_symmetry_equiv_pos_as_xyz
1 x,y,z
2 -x,1/2+y,1/2-z
3 -x,-y,-z
4 x,-1/2-y,-1/2+z
_cell_length_a 10.4907(7)
_cell_length_b 10.9269(7)
_cell_length_c 14.5995(12)
_cell_angle_alpha 90
_cell_angle_beta 121.173(18)
_cell_angle_gamma 90
_cell_formula_units_Z 4
loop_
_atom_type_symbol
_atom_type_radius_bond
C 0.68
H 0.23
N 0.68
loop_
_atom_site_label
_atom_site_type_symbol
_atom_site_fract_x
_atom_site_fract_y
_atom_site_fract_z
N1 N 0.4717(2) 0.2161(2) 0.89826(18)
C1 C 0.6273(3) 0.2170(2) 0.95281(19)
C2 C 0.7074(3) 0.2929(2) 1.04531(18)
C3 C 0.6367(4) 0.3723(3) 1.0816(2)
C4 C 0.7198(5) 0.4430(3) 1.1710(3)
C5 C 0.8761(5) 0.4355(4) 1.2273(2)
C6 C 0.9463(4) 0.3606(3) 1.1949(2)
C7 C 0.8657(3) 0.2873(3) 1.10333(19)
C8 C 0.9384(3) 0.2108(3) 1.0666(2)
C9 C 0.8591(3) 0.1450(3) 0.9764(3)
C10 C 0.7038(3) 0.1474(3) 0.9192(2)
C11 C 0.3853(3) 0.1295(3) 0.8134(2)
C12 C 0.3391(3) 0.1625(2) 0.7080(2)
C13 C 0.3719(3) 0.2798(3) 0.6784(2)
C14 C 0.3156(4) 0.3066(3) 0.5745(3)
C15 C 0.2291(4) 0.2255(3) 0.4934(3)
C16 C 0.1999(3) 0.1139(3) 0.5171(2)
C17 C 0.2520(3) 0.0788(2) 0.62415(19)
C18 C 0.2162(3) -0.0367(2) 0.6486(2)
C19 C 0.2620(4) -0.0660(3) 0.7526(3)
C20 C 0.3472(3) 0.0204(3) 0.8343(2)
H1 H 0.42630 0.26820 0.91560
H2 H 0.53320 0.37680 1.04470
H3 H 0.67280 0.49580 1.19430
H4 H 0.93180 0.48330 1.28810
H5 H 1.04980 0.35710 1.23370
H6 H 1.04180 0.20590 1.10500
H7 H 0.90870 0.09710 0.95190
H8 H 0.65140 0.10100 0.85710
H9 H 0.43150 0.33630 0.73110
H10 H 0.33580 0.38290 0.55670
H11 H 0.19090 0.24780 0.42240
H12 H 0.14440 0.05870 0.46200
H13 H 0.16150 -0.09280 0.59410
H14 H 0.23770 -0.14130 0.76910
H15 H 0.37770 0.00080 0.90470
#END
