####################################################################### 
# 
# This file contains crystal structure data downloaded from the 
# Cambridge Structural Database (CSD) hosted by the Cambridge 
# Crystallographic Data Centre (CCDC).
# 
# Full information about CCDC data access policies and citation 
# guidelines are available at http://www.ccdc.cam.ac.uk/access/V1 
# 
# Audit and citation data items may have been added by the CCDC. 
# Please retain this information to preserve the provenance of 
# this file and to allow appropriate attribution of the data. 
# 
#######################################################################

data_shz_bcen35_070101
_audit_block_doi                 10.5517/ccrkkrl
_database_code_depnum_ccdc_archive 'CCDC 702080'
loop_
_citation_id
_citation_doi
_citation_year
1 10.1007/s11426-010-4113-x 2010
_audit_update_record             
;
2008-09-12 deposited with the CCDC.	2024-07-13 downloaded from the CCDC.
;

_audit_creation_method           SHELXL-97
_chemical_name_systematic        
;
?
;
_chemical_name_common            ?
_chemical_melting_point          ?
_chemical_formula_moiety         ?
_chemical_formula_sum            'C6 H10 Bi O10'
_chemical_formula_weight         451.12

loop_
_atom_type_symbol
_atom_type_description
_atom_type_scat_dispersion_real
_atom_type_scat_dispersion_imag
_atom_type_scat_source
C C 0.0181 0.0091 'International Tables Vol C Tables 4.2.6.8 and 6.1.1.4'
H H 0.0000 0.0000 'International Tables Vol C Tables 4.2.6.8 and 6.1.1.4'
O O 0.0492 0.0322 'International Tables Vol C Tables 4.2.6.8 and 6.1.1.4'
Bi Bi -4.0111 8.9310 'International Tables Vol C Tables 4.2.6.8 and 6.1.1.4'

_symmetry_cell_setting           Monoclinic
_symmetry_space_group_name_H-M   C2/c

loop_
_symmetry_equiv_pos_as_xyz
'x, y, z'
'-x, y, -z+1/2'
'x+1/2, y+1/2, z'
'-x+1/2, y+1/2, -z+1/2'
'-x, -y, -z'
'x, -y, z-1/2'
'-x+1/2, -y+1/2, -z'
'x+1/2, -y+1/2, z-1/2'

_cell_length_a                   16.4044(5)
_cell_length_b                   13.6668(4)
_cell_length_c                   10.2570(3)
_cell_angle_alpha                90.00
_cell_angle_beta                 91.56(3)
_cell_angle_gamma                90.00
_cell_volume                     2298.73(12)
_cell_formula_units_Z            8
_cell_measurement_temperature    293(2)
_cell_measurement_reflns_used    ?
_cell_measurement_theta_min      ?
_cell_measurement_theta_max      ?

_exptl_crystal_description       ?
_exptl_crystal_colour            ?
_exptl_crystal_size_max          0.08
_exptl_crystal_size_mid          0.05
_exptl_crystal_size_min          0.03
_exptl_crystal_density_meas      ?
_exptl_crystal_density_diffrn    2.607
_exptl_crystal_density_method    'not measured'
_exptl_crystal_F_000             1672
_exptl_absorpt_coefficient_mu    30.586
_exptl_absorpt_correction_type   none
_exptl_absorpt_correction_T_min  0.1934
_exptl_absorpt_correction_T_max  0.4606
_exptl_absorpt_process_details   ?

_exptl_special_details           
;
?
;

_diffrn_ambient_temperature      293(2)
_diffrn_radiation_wavelength     1.54178
_diffrn_radiation_type           CuK\a
_diffrn_radiation_source         'fine-focus sealed tube'
_diffrn_radiation_monochromator  graphite
_diffrn_measurement_device_type  'multiwire proportional'
_diffrn_measurement_method       'phi and omega scans'
_diffrn_detector_area_resol_mean ?
_diffrn_standards_number         ?
_diffrn_standards_interval_count ?
_diffrn_standards_interval_time  ?
_diffrn_standards_decay_%        ?
_diffrn_reflns_number            4742
_diffrn_reflns_av_R_equivalents  0.0363
_diffrn_reflns_av_sigmaI/netI    0.0233
_diffrn_reflns_limit_h_min       -17
_diffrn_reflns_limit_h_max       17
_diffrn_reflns_limit_k_min       -14
_diffrn_reflns_limit_k_max       14
_diffrn_reflns_limit_l_min       -11
_diffrn_reflns_limit_l_max       9
_diffrn_reflns_theta_min         4.21
_diffrn_reflns_theta_max         56.90
_reflns_number_total             1535
_reflns_number_gt                1352
_reflns_threshold_expression     >2sigma(I)

_computing_data_collection       
;
CrysAlis CCD, Oxford Diffraction Ltd.,
Version 1.171.31.8 (release 12-01-2007 CrysAlis171 .NET)
;
_computing_cell_refinement       
;
CrysAlis CCD, Oxford Diffraction Ltd.,
Version 1.171.31.8 (release 12-01-2007 CrysAlis171 .NET)
;
_computing_data_reduction        
;
CrysAlis CCD, Oxford Diffraction Ltd.,
Version 1.171.31.8 (release 12-01-2007 CrysAlis171 .NET)
;

_computing_structure_solution    'SHELXS-97 (Sheldrick, 1990)'
_computing_structure_refinement  'SHELXL-97 (Sheldrick, 1997)'

_refine_special_details          
;
Refinement of F^2^ against ALL reflections. The weighted R-factor wR and
goodness of fit S are based on F^2^, conventional R-factors R are based
on F, with F set to zero for negative F^2^. The threshold expression of
F^2^ > 2sigma(F^2^) is used only for calculating R-factors(gt) etc. and is
not relevant to the choice of reflections for refinement. R-factors based
on F^2^ are statistically about twice as large as those based on F, and R-
factors based on ALL data will be even larger.
;

_refine_ls_structure_factor_coef Fsqd
_refine_ls_matrix_type           full
_refine_ls_weighting_scheme      calc
_refine_ls_weighting_details     
'calc w=1/[\s^2^(Fo^2^)+(0.0915P)^2^+61.6694P] where P=(Fo^2^+2Fc^2^)/3'
_atom_sites_solution_primary     direct
_atom_sites_solution_secondary   difmap
_atom_sites_solution_hydrogens   geom
_refine_ls_hydrogen_treatment    mixed
_refine_ls_extinction_method     none
_refine_ls_extinction_coef       ?
_refine_ls_number_reflns         1535
_refine_ls_number_parameters     155
_refine_ls_number_restraints     0
_refine_ls_R_factor_all          0.0493
_refine_ls_R_factor_gt           0.0444
_refine_ls_wR_factor_ref         0.1512
_refine_ls_wR_factor_gt          0.1357
_refine_ls_goodness_of_fit_ref   1.201
_refine_ls_restrained_S_all      1.201
_refine_ls_shift/su_max          0.007
_refine_ls_shift/su_mean         0.000

loop_
_atom_site_label
_atom_site_type_symbol
_atom_site_fract_x
_atom_site_fract_y
_atom_site_fract_z
_atom_site_U_iso_or_equiv
_atom_site_adp_type
_atom_site_occupancy
_atom_site_symmetry_multiplicity
_atom_site_calc_flag
_atom_site_refinement_flags
_atom_site_disorder_assembly
_atom_site_disorder_group
Bi1 Bi 0.39786(3) 0.12219(4) 0.99455(5) 0.0298(3) Uani 1 1 d . . .
O1 O 0.3662(6) 0.0078(7) 0.8378(10) 0.036(2) Uani 1 1 d . . .
O2 O 0.2948(6) -0.0079(8) 0.6525(11) 0.043(3) Uani 1 1 d . . .
O3 O 0.4657(6) 0.0765(6) 0.5803(9) 0.032(2) Uani 1 1 d . . .
O4 O 0.4838(6) 0.2278(7) 0.5157(10) 0.040(2) Uani 1 1 d . . .
O5 O 0.2466(6) 0.1390(7) 0.9645(10) 0.034(2) Uani 1 1 d . . .
O6 O 0.1359(5) 0.2215(7) 0.8930(9) 0.033(2) Uani 1 1 d . . .
O7 O 0.3804(6) 0.2009(7) 0.8127(9) 0.034(2) Uani 1 1 d . . .
C1 C 0.3277(8) 0.0416(11) 0.7353(16) 0.035(4) Uani 1 1 d . . .
C2 C 0.3262(9) 0.1546(12) 0.7185(17) 0.039(4) Uani 1 1 d . . .
C3 C 0.3510(8) 0.1830(10) 0.5831(12) 0.030(3) Uani 1 1 d . . .
H3A H 0.3412 0.2524 0.5699 0.036 Uiso 1 1 calc R . .
H3B H 0.3179 0.1473 0.5192 0.036 Uiso 1 1 calc R . .
C4 C 0.4399(9) 0.1611(12) 0.5631(16) 0.038(4) Uani 1 1 d . . .
C5 C 0.2372(8) 0.1922(10) 0.7409(13) 0.030(3) Uani 1 1 d . . .
H5A H 0.2348 0.2606 0.7159 0.036 Uiso 1 1 calc R . .
H5B H 0.2006 0.1568 0.6819 0.036 Uiso 1 1 calc R . .
C6 C 0.2051(9) 0.1836(10) 0.8746(16) 0.039(4) Uani 1 1 d . . .
OW1 O 0.5000 -0.1082(10) 0.7500 0.044(4) Uani 1 2 d S . .
OW2 O 0.3630(11) 0.3926(10) 0.8175(17) 0.081(5) Uani 1 1 d . . .
H2A H 0.3808 0.3277 0.8038 0.097 Uiso 1 1 d R . .
H2B H 0.3405 0.4192 0.8969 0.097 Uiso 1 1 d R . .
OW3 O 0.0000 0.156(2) 0.7500 0.111(9) Uani 1 2 d S . .
OW4 O 0.1772(13) -0.0640(12) 0.934(2) 0.134(9) Uani 1 1 d . . .

loop_
_atom_site_aniso_label
_atom_site_aniso_U_11
_atom_site_aniso_U_22
_atom_site_aniso_U_33
_atom_site_aniso_U_23
_atom_site_aniso_U_13
_atom_site_aniso_U_12
Bi1 0.0218(5) 0.0346(5) 0.0332(5) -0.0028(2) 0.0067(3) 0.00068(18)
O1 0.033(5) 0.033(5) 0.042(6) 0.001(4) 0.001(5) 0.004(4)
O2 0.035(6) 0.043(6) 0.051(7) -0.013(5) -0.004(5) -0.006(5)
O3 0.028(5) 0.026(5) 0.042(6) 0.002(4) 0.003(4) 0.000(4)
O4 0.029(5) 0.040(6) 0.050(6) -0.001(5) 0.004(5) 0.007(5)
O5 0.030(5) 0.037(5) 0.036(6) 0.008(4) 0.006(5) 0.009(4)
O6 0.021(5) 0.042(5) 0.036(5) -0.006(4) 0.004(4) 0.010(4)
O7 0.029(5) 0.034(5) 0.038(5) -0.004(4) -0.006(4) 0.002(4)
C1 0.015(6) 0.039(8) 0.052(10) -0.008(8) 0.014(7) -0.002(6)
C2 0.023(8) 0.041(8) 0.052(10) -0.004(8) 0.004(7) 0.005(7)
C3 0.030(7) 0.039(8) 0.021(7) 0.002(6) 0.003(5) 0.010(6)
C4 0.024(7) 0.047(10) 0.044(9) -0.003(7) 0.005(6) -0.015(7)
C5 0.026(7) 0.035(7) 0.030(7) -0.002(6) 0.007(6) 0.007(6)
C6 0.029(8) 0.031(7) 0.058(10) 0.001(7) 0.010(7) -0.012(6)
OW1 0.045(10) 0.034(8) 0.054(10) 0.000 0.020(8) 0.000
OW2 0.094(12) 0.066(9) 0.085(11) -0.012(7) 0.050(9) 0.011(8)
OW3 0.073(16) 0.111(19) 0.15(3) 0.000 -0.025(16) 0.000
OW4 0.144(18) 0.067(11) 0.19(2) -0.004(12) -0.079(16) -0.021(11)

_geom_special_details            
;
All esds (except the esd in the dihedral angle between two l.s. planes)
are estimated using the full covariance matrix. The cell esds are taken
into account individually in the estimation of esds in distances, angles
and torsion angles; correlations between esds in cell parameters are only
used when they are defined by crystal symmetry. An approximate (isotropic)
treatment of cell esds is used for estimating esds involving l.s. planes.
;

loop_
_geom_bond_atom_site_label_1
_geom_bond_atom_site_label_2
_geom_bond_distance
_geom_bond_site_symmetry_2
_geom_bond_publ_flag
Bi1 O7 2.165(9) . ?
Bi1 O1 2.292(10) . ?
Bi1 O4 2.424(9) 2_656 ?
Bi1 O3 2.467(9) 2_656 ?
Bi1 O6 2.498(9) 7_557 ?
Bi1 O5 2.502(10) . ?
Bi1 C4 2.794(15) 2_656 ?
O1 C1 1.297(19) . ?
O2 C1 1.202(18) . ?
O3 C4 1.24(2) . ?
O3 Bi1 2.467(9) 2_656 ?
O4 C4 1.267(18) . ?
O4 Bi1 2.424(9) 2_656 ?
O5 C6 1.284(19) . ?
O6 C6 1.268(17) . ?
O6 Bi1 2.498(9) 7_557 ?
O7 C2 1.442(19) . ?
C1 C2 1.55(2) . ?
C2 C3 1.51(2) . ?
C2 C5 1.570(19) . ?
C3 C4 1.51(2) . ?
C3 H3A 0.9700 . ?
C3 H3B 0.9700 . ?
C4 Bi1 2.794(15) 2_656 ?
C5 C6 1.49(2) . ?
C5 H5A 0.9700 . ?
C5 H5B 0.9700 . ?
OW2 H2A 0.9450 . ?
OW2 H2B 0.9735 . ?

loop_
_geom_angle_atom_site_label_1
_geom_angle_atom_site_label_2
_geom_angle_atom_site_label_3
_geom_angle
_geom_angle_site_symmetry_1
_geom_angle_site_symmetry_3
_geom_angle_publ_flag
O7 Bi1 O1 73.3(3) . . ?
O7 Bi1 O4 75.8(3) . 2_656 ?
O1 Bi1 O4 122.8(3) . 2_656 ?
O7 Bi1 O3 87.6(3) . 2_656 ?
O1 Bi1 O3 78.4(3) . 2_656 ?
O4 Bi1 O3 53.3(3) 2_656 2_656 ?
O7 Bi1 O6 87.0(3) . 7_557 ?
O1 Bi1 O6 149.2(3) . 7_557 ?
O4 Bi1 O6 72.4(3) 2_656 7_557 ?
O3 Bi1 O6 125.1(3) 2_656 7_557 ?
O7 Bi1 O5 75.0(3) . . ?
O1 Bi1 O5 76.8(3) . . ?
O4 Bi1 O5 137.1(3) 2_656 . ?
O3 Bi1 O5 152.9(3) 2_656 . ?
O6 Bi1 O5 75.3(3) 7_557 . ?
O7 Bi1 C4 80.1(4) . 2_656 ?
O1 Bi1 C4 100.4(4) . 2_656 ?
O4 Bi1 C4 26.9(4) 2_656 2_656 ?
O3 Bi1 C4 26.4(4) 2_656 2_656 ?
O6 Bi1 C4 99.2(4) 7_557 2_656 ?
O5 Bi1 C4 154.6(4) . 2_656 ?
C1 O1 Bi1 115.0(9) . . ?
C4 O3 Bi1 91.7(8) . 2_656 ?
C4 O4 Bi1 93.0(9) . 2_656 ?
C6 O5 Bi1 129.5(9) . . ?
C6 O6 Bi1 129.0(9) . 7_557 ?
C2 O7 Bi1 115.1(9) . . ?
O2 C1 O1 124.9(14) . . ?
O2 C1 C2 118.4(15) . . ?
O1 C1 C2 116.7(13) . . ?
O7 C2 C3 109.1(12) . . ?
O7 C2 C1 110.8(12) . . ?
C3 C2 C1 110.8(13) . . ?
O7 C2 C5 108.5(12) . . ?
C3 C2 C5 109.0(12) . . ?
C1 C2 C5 108.7(11) . . ?
C2 C3 C4 111.1(12) . . ?
C2 C3 H3A 109.4 . . ?
C4 C3 H3A 109.4 . . ?
C2 C3 H3B 109.4 . . ?
C4 C3 H3B 109.4 . . ?
H3A C3 H3B 108.0 . . ?
O3 C4 O4 121.9(13) . . ?
O3 C4 C3 119.5(12) . . ?
O4 C4 C3 118.1(14) . . ?
O3 C4 Bi1 62.0(7) . 2_656 ?
O4 C4 Bi1 60.1(7) . 2_656 ?
C3 C4 Bi1 175.6(10) . 2_656 ?
C6 C5 C2 117.6(12) . . ?
C6 C5 H5A 107.9 . . ?
C2 C5 H5A 107.9 . . ?
C6 C5 H5B 107.9 . . ?
C2 C5 H5B 107.9 . . ?
H5A C5 H5B 107.2 . . ?
O6 C6 O5 123.2(14) . . ?
O6 C6 C5 116.5(13) . . ?
O5 C6 C5 120.4(13) . . ?
H2A OW2 H2B 127.0 . . ?

loop_
_geom_torsion_atom_site_label_1
_geom_torsion_atom_site_label_2
_geom_torsion_atom_site_label_3
_geom_torsion_atom_site_label_4
_geom_torsion
_geom_torsion_site_symmetry_1
_geom_torsion_site_symmetry_2
_geom_torsion_site_symmetry_3
_geom_torsion_site_symmetry_4
_geom_torsion_publ_flag
O7 Bi1 O1 C1 -22.2(8) . . . . ?
O4 Bi1 O1 C1 -82.3(9) 2_656 . . . ?
O3 Bi1 O1 C1 -113.1(9) 2_656 . . . ?
O6 Bi1 O1 C1 30.1(12) 7_557 . . . ?
O5 Bi1 O1 C1 55.8(9) . . . . ?
C4 Bi1 O1 C1 -98.4(9) 2_656 . . . ?
O7 Bi1 O5 C6 -3.3(12) . . . . ?
O1 Bi1 O5 C6 -79.2(12) . . . . ?
O4 Bi1 O5 C6 45.2(14) 2_656 . . . ?
O3 Bi1 O5 C6 -54.9(14) 2_656 . . . ?
O6 Bi1 O5 C6 87.5(12) 7_557 . . . ?
C4 Bi1 O5 C6 7.1(17) 2_656 . . . ?
O1 Bi1 O7 C2 27.2(8) . . . . ?
O4 Bi1 O7 C2 158.5(9) 2_656 . . . ?
O3 Bi1 O7 C2 105.8(9) 2_656 . . . ?
O6 Bi1 O7 C2 -128.9(9) 7_557 . . . ?
O5 Bi1 O7 C2 -53.3(9) . . . . ?
C4 Bi1 O7 C2 131.2(9) 2_656 . . . ?
Bi1 O1 C1 O2 -167.7(11) . . . . ?
Bi1 O1 C1 C2 13.6(14) . . . . ?
Bi1 O7 C2 C3 -151.1(9) . . . . ?
Bi1 O7 C2 C1 -29.0(13) . . . . ?
Bi1 O7 C2 C5 90.3(11) . . . . ?
O2 C1 C2 O7 -169.6(12) . . . . ?
O1 C1 C2 O7 9.2(17) . . . . ?
O2 C1 C2 C3 -48.4(16) . . . . ?
O1 C1 C2 C3 130.4(13) . . . . ?
O2 C1 C2 C5 71.4(16) . . . . ?
O1 C1 C2 C5 -109.9(13) . . . . ?
O7 C2 C3 C4 53.9(15) . . . . ?
C1 C2 C3 C4 -68.3(15) . . . . ?
C5 C2 C3 C4 172.1(12) . . . . ?
Bi1 O3 C4 O4 3.0(15) 2_656 . . . ?
Bi1 O3 C4 C3 175.2(12) 2_656 . . . ?
Bi1 O4 C4 O3 -3.0(15) 2_656 . . . ?
Bi1 O4 C4 C3 -175.4(11) 2_656 . . . ?
C2 C3 C4 O3 56.5(18) . . . . ?
C2 C3 C4 O4 -131.0(15) . . . . ?
C2 C3 C4 Bi1 165(13) . . . 2_656 ?
O7 C2 C5 C6 -53.2(17) . . . . ?
C3 C2 C5 C6 -171.9(12) . . . . ?
C1 C2 C5 C6 67.3(16) . . . . ?
Bi1 O6 C6 O5 76.7(16) 7_557 . . . ?
Bi1 O6 C6 C5 -103.8(13) 7_557 . . . ?
Bi1 O5 C6 O6 -150.3(10) . . . . ?
Bi1 O5 C6 C5 30.2(19) . . . . ?
C2 C5 C6 O6 174.5(12) . . . . ?
C2 C5 C6 O5 -6(2) . . . . ?

_diffrn_measured_fraction_theta_max 0.992
_diffrn_reflns_theta_full        56.90
_diffrn_measured_fraction_theta_full 0.992
_refine_diff_density_max         2.435
_refine_diff_density_min         -1.957
_refine_diff_density_rms         0.317


