####################################################################### 
# 
# This file contains crystal structure data downloaded from the 
# Cambridge Structural Database (CSD) hosted by the Cambridge 
# Crystallographic Data Centre (CCDC).
# 
# Full information about CCDC data access policies and citation 
# guidelines are available at http://www.ccdc.cam.ac.uk/access/V1 
# 
# Audit and citation data items may have been added by the CCDC. 
# Please retain this information to preserve the provenance of 
# this file and to allow appropriate attribution of the data. 
# 
#######################################################################

data_compound_5_bath326
_audit_block_doi                 10.5517/ccr79nx
_database_code_depnum_ccdc_archive 'CCDC 692219'
loop_
_citation_id
_citation_doi
_citation_year
1 10.1016/j.ica.2010.11.025 2011
_audit_update_record             
;
2008-06-18 deposited with the CCDC.	2024-07-13 downloaded from the CCDC.
;

_audit_creation_method           SHELXL-97
_chemical_name_systematic        
;
?
;
_chemical_name_common            ?
_chemical_melting_point          ?
_chemical_formula_moiety         ?
_chemical_formula_sum            'C118.5 H136.5 N15.5 O65.5 Cd12'
_chemical_formula_weight         4174.73

loop_
_atom_type_symbol
_atom_type_description
_atom_type_scat_dispersion_real
_atom_type_scat_dispersion_imag
_atom_type_scat_source
C C 0.0033 0.0016 'International Tables Vol C Tables 4.2.6.8 and 6.1.1.4'
H H 0.0000 0.0000 'International Tables Vol C Tables 4.2.6.8 and 6.1.1.4'
N N 0.0061 0.0033 'International Tables Vol C Tables 4.2.6.8 and 6.1.1.4'
O O 0.0106 0.0060 'International Tables Vol C Tables 4.2.6.8 and 6.1.1.4'
Cd Cd -0.8075 1.2024 'International Tables Vol C Tables 4.2.6.8 and 6.1.1.4'

_symmetry_cell_setting           Triclinic
_symmetry_space_group_name_H-M   P-1

loop_
_symmetry_equiv_pos_as_xyz
'x, y, z'
'-x, -y, -z'

_cell_length_a                   10.2409(7)
_cell_length_b                   19.6102(14)
_cell_length_c                   37.787(3)
_cell_angle_alpha                89.0250(10)
_cell_angle_beta                 89.2630(10)
_cell_angle_gamma                76.4710(10)
_cell_volume                     7376.7(9)
_cell_formula_units_Z            2
_cell_measurement_temperature    150(2)
_cell_measurement_reflns_used    7267
_cell_measurement_theta_min      2.257
_cell_measurement_theta_max      25.59

_exptl_crystal_description       Block
_exptl_crystal_colour            ?
_exptl_crystal_size_max          0.02
_exptl_crystal_size_mid          0.02
_exptl_crystal_size_min          0.03
_exptl_crystal_density_meas      ?
_exptl_crystal_density_diffrn    1.88
_exptl_crystal_density_method    'not measured'
_exptl_crystal_F_000             4112
_exptl_absorpt_coefficient_mu    1.790
_exptl_absorpt_correction_type   Multi-Scan
_exptl_absorpt_correction_T_min  0.84
_exptl_absorpt_correction_T_max  0.87
_exptl_absorpt_process_details   
;
?
;

_exptl_special_details           
;
?
;

_diffrn_ambient_temperature      150(2)
_diffrn_radiation_wavelength     0.69070
_diffrn_radiation_type           Synchrotron
_diffrn_radiation_source         'Daresbury SRS station 16.2 SMX'
_diffrn_radiation_monochromator  'Silicon 111'
_diffrn_measurement_device_type  'Bruker APEXII diffractometer'
_diffrn_measurement_method       '\w rotation with narrow frames'
_diffrn_detector_area_resol_mean ?
_diffrn_standards_number         ?
_diffrn_standards_interval_count ?
_diffrn_standards_interval_time  ?
_diffrn_standards_decay_%        ?
_diffrn_reflns_number            57031
_diffrn_reflns_av_R_equivalents  0.1009
_diffrn_reflns_av_sigmaI/netI    0.1542
_diffrn_reflns_limit_h_min       -12
_diffrn_reflns_limit_h_max       12
_diffrn_reflns_limit_k_min       -23
_diffrn_reflns_limit_k_max       23
_diffrn_reflns_limit_l_min       -44
_diffrn_reflns_limit_l_max       44
_diffrn_reflns_theta_min         3.43
_diffrn_reflns_theta_max         24.28
_reflns_number_total             25905
_reflns_number_gt                16240
_reflns_threshold_expression     >2sigma(I)

_computing_data_collection       'Bruker SMART'
_computing_cell_refinement       'local programs'
_computing_data_reduction        'Bruker SAINT'
_computing_structure_solution    'Bruker SHELXTL'
_computing_structure_refinement  'Bruker SHELXTL'
_computing_molecular_graphics    'ORTEX (P.McArdle, 1995)'
_computing_publication_material  'SHELXL-97/2 (Sheldrick,1997)'

_refine_special_details          
;
Refinement of F^2^ against ALL reflections. The weighted R-factor wR and
goodness of fit S are based on F^2^, conventional R-factors R are based
on F, with F set to zero for negative F^2^. The threshold expression of
F^2^ > 2sigma(F^2^) is used only for calculating R-factors(gt) etc. and is
not relevant to the choice of reflections for refinement. R-factors based
on F^2^ are statistically about twice as large as those based on F, and R-
factors based on ALL data will be even larger.
;

_refine_ls_structure_factor_coef Fsqd
_refine_ls_matrix_type           fullcycle
_refine_ls_weighting_scheme      calc
_refine_ls_weighting_details     
'calc w=1/[\s^2^(Fo^2^)+(0.0447P)^2^+87.9030P] where P=(Fo^2^+2Fc^2^)/3'
_atom_sites_solution_primary     direct
_atom_sites_solution_secondary   difmap
_atom_sites_solution_hydrogens   geom
_refine_ls_hydrogen_treatment    constr
_refine_ls_extinction_method     none
_refine_ls_extinction_coef       ?
_refine_ls_number_reflns         25905
_refine_ls_number_parameters     1829
_refine_ls_number_restraints     291
_refine_ls_R_factor_all          0.1340
_refine_ls_R_factor_gt           0.0855
_refine_ls_wR_factor_ref         0.2120
_refine_ls_wR_factor_gt          0.1900
_refine_ls_goodness_of_fit_ref   1.043
_refine_ls_restrained_S_all      1.041
_refine_ls_shift/su_max          0.002
_refine_ls_shift/su_mean         0.000

loop_
_atom_site_label
_atom_site_type_symbol
_atom_site_fract_x
_atom_site_fract_y
_atom_site_fract_z
_atom_site_U_iso_or_equiv
_atom_site_adp_type
_atom_site_occupancy
_atom_site_symmetry_multiplicity
_atom_site_calc_flag
_atom_site_refinement_flags
_atom_site_disorder_assembly
_atom_site_disorder_group
Cd1 Cd 0.85826(11) -0.31061(6) 0.60924(3) 0.0317(3) Uani 1 1 d D . .
Cd2 Cd 1.18560(9) -0.30463(5) 0.61133(3) 0.0243(2) Uani 1 1 d . . .
Cd3 Cd 0.35713(12) 0.16910(6) 0.89654(3) 0.0351(3) Uani 1 1 d . . .
Cd4 Cd 0.68971(10) 0.17787(6) 0.89286(3) 0.0324(3) Uani 1 1 d . . .
Cd5 Cd 0.20180(9) -0.23015(5) 0.84117(3) 0.0230(2) Uani 1 1 d . . .
Cd6 Cd 0.51058(9) -0.36676(5) 0.81921(3) 0.0220(2) Uani 1 1 d . . .
Cd7 Cd 0.78302(9) -0.40970(5) 0.88956(3) 0.0255(2) Uani 1 1 d . . .
Cd8 Cd 1.00094(9) -0.28976(6) 0.91118(3) 0.0265(2) Uani 1 1 d . . .
Cd9 Cd 0.55603(8) 0.16154(5) 0.58978(3) 0.0213(2) Uani 1 1 d . . .
Cd10 Cd 0.72134(9) 0.29192(5) 0.62796(3) 0.0271(2) Uani 1 1 d . . .
Cd11 Cd 1.01294(9) 0.23097(5) 0.68483(3) 0.0264(2) Uani 1 1 d . . .
Cd12 Cd 1.32963(9) 0.10111(5) 0.65567(3) 0.0214(2) Uani 1 1 d . . .
O1A O 0.8609(9) -0.3313(6) 0.6673(2) 0.032(2) Uani 1 1 d . A .
O2A O 1.0774(10) -0.3294(6) 0.6615(2) 0.039(3) Uani 1 1 d . . .
O3A O 1.3749(9) -0.3653(6) 0.7664(2) 0.032(2) Uani 1 1 d . . .
O4A O 1.2782(8) -0.3394(5) 0.8188(2) 0.024(2) Uani 1 1 d . . .
O5A O 0.8102(10) -0.3795(7) 0.8328(3) 0.047(3) Uani 1 1 d . A .
O6A O 0.6825(9) -0.3632(6) 0.7851(3) 0.038(3) Uani 1 1 d . A .
C1A C 0.9952(12) -0.3423(6) 0.7192(3) 0.019(3) Uani 1 1 d . . .
C2A C 1.1202(13) -0.3454(8) 0.7340(4) 0.028(3) Uani 1 1 d . A .
H2A H 1.1944 -0.3429 0.7191 0.033 Uiso 1 1 calc R . .
C3A C 1.1370(12) -0.3520(7) 0.7703(4) 0.023(3) Uani 1 1 d . . .
C4A C 1.0295(12) -0.3575(7) 0.7925(4) 0.024(3) Uani 1 1 d . A .
H4A H 1.0407 -0.3607 0.8174 0.029 Uiso 1 1 calc R . .
C5A C 0.9063(12) -0.3581(7) 0.7778(3) 0.019(3) Uani 1 1 d . . .
C6A C 0.8896(12) -0.3495(7) 0.7415(4) 0.026(3) Uani 1 1 d . A .
H6A H 0.8043 -0.3484 0.7317 0.032 Uiso 1 1 calc R . .
C7A C 0.9783(14) -0.3334(8) 0.6800(4) 0.031(3) Uani 1 1 d . A .
C8A C 1.2732(13) -0.3532(7) 0.7855(4) 0.026(3) Uani 1 1 d . . .
C9A C 0.7915(13) -0.3675(7) 0.8007(4) 0.028(3) Uani 1 1 d . A .
O1B O 0.8805(10) -0.2025(5) 0.6195(3) 0.038(3) Uani 1 1 d . A .
O2B O 1.0929(9) -0.1913(5) 0.6203(3) 0.032(2) Uani 1 1 d . . .
O3B O 1.1933(8) 0.0314(5) 0.6482(3) 0.034(2) Uani 1 1 d . . .
O4B O 1.0324(10) 0.1219(5) 0.6644(3) 0.042(3) Uani 1 1 d . . .
O5B O 0.5516(8) 0.1050(4) 0.6427(2) 0.0170(18) Uani 1 1 d . . .
O6B O 0.5153(9) -0.0004(5) 0.6499(3) 0.037(3) Uani 1 1 d . . .
C1B C 0.9213(12) -0.0931(6) 0.6320(3) 0.019(3) Uani 1 1 d . . .
C2B C 1.0101(13) -0.0499(7) 0.6371(3) 0.026(3) Uani 1 1 d . A .
H2B H 1.1035 -0.0697 0.6342 0.031 Uiso 1 1 calc R . .
C3B C 0.9706(12) 0.0190(7) 0.6457(3) 0.020(3) Uani 1 1 d . . .
C4B C 0.8320(12) 0.0495(7) 0.6481(3) 0.024(3) Uani 1 1 d . A .
H4B H 0.8008 0.0979 0.6530 0.029 Uiso 1 1 calc R . .
C5B C 0.7433(11) 0.0087(6) 0.6431(3) 0.019(3) Uani 1 1 d . . .
C6B C 0.7853(13) -0.0615(7) 0.6357(4) 0.028(3) Uani 1 1 d . A .
H6B H 0.7207 -0.0887 0.6330 0.034 Uiso 1 1 calc R . .
C7B C 0.9681(12) -0.1695(7) 0.6239(3) 0.021(3) Uani 1 1 d . A .
C8B C 1.0718(12) 0.0628(8) 0.6535(4) 0.027(3) Uani 1 1 d . A .
C9B C 0.5933(12) 0.0388(8) 0.6453(3) 0.024(3) Uani 1 1 d . . .
O1C O 0.4307(11) 0.1792(7) 0.8398(3) 0.047(3) Uani 1 1 d . D .
O2C O 0.6528(10) 0.1793(6) 0.8362(3) 0.038(3) Uani 1 1 d . . .
O3C O 0.8505(9) 0.2239(6) 0.7240(3) 0.039(3) Uani 1 1 d . . .
O4C O 0.7414(10) 0.2208(5) 0.6732(2) 0.032(2) Uani 1 1 d . . .
O5C O 0.2529(8) 0.2066(5) 0.6805(2) 0.021(2) Uani 1 1 d . . .
O6C O 0.1542(9) 0.2260(7) 0.7330(3) 0.047(3) Uani 1 1 d . . .
C1C C 0.5241(13) 0.1948(8) 0.7844(4) 0.028(3) Uani 1 1 d . . .
C2C C 0.6356(13) 0.2007(8) 0.7636(4) 0.028(3) Uani 1 1 d . D .
H2C H 0.7197 0.1972 0.7747 0.034 Uiso 1 1 calc R . .
C3C C 0.6261(12) 0.2116(7) 0.7275(4) 0.025(3) Uani 1 1 d . . .
C4C C 0.5041(13) 0.2144(7) 0.7107(3) 0.025(3) Uani 1 1 d . D .
H4C H 0.4973 0.2193 0.6857 0.030 Uiso 1 1 calc R . .
C5C C 0.3922(11) 0.2098(7) 0.7314(3) 0.023(3) Uani 1 1 d . . .
C6C C 0.4043(13) 0.1996(7) 0.7672(4) 0.028(3) Uani 1 1 d . D .
H6C H 0.3274 0.1958 0.7807 0.034 Uiso 1 1 calc R . .
C7C C 0.5346(14) 0.1827(8) 0.8236(4) 0.031(3) Uani 1 1 d . D .
C8C C 0.7450(12) 0.2206(7) 0.7064(4) 0.026(3) Uani 1 1 d . D .
C9C C 0.2600(13) 0.2137(7) 0.7138(4) 0.028(3) Uani 1 1 d . . .
O1D O 0.4344(10) 0.0559(6) 0.8901(3) 0.040(3) Uani 1 1 d . D .
O2D O 0.6446(10) 0.0669(5) 0.8933(3) 0.040(3) Uani 1 1 d . . .
O3D O 1.0188(9) -0.1275(5) 0.8529(3) 0.039(3) Uani 1 1 d . . .
O4D O 0.9835(8) -0.2348(5) 0.8564(3) 0.029(2) Uani 1 1 d . . .
O5D O 0.5101(9) -0.2552(5) 0.8349(3) 0.035(2) Uani 1 1 d . D .
O6D O 0.3438(9) -0.1630(5) 0.8479(3) 0.037(3) Uani 1 1 d . D .
C1D C 0.6051(12) -0.0417(7) 0.8747(4) 0.0245(17) Uani 1 1 d U . .
C2D C 0.7446(12) -0.0694(7) 0.8707(4) 0.0239(16) Uani 1 1 d U D .
H2D H 0.8060 -0.0412 0.8755 0.029 Uiso 1 1 calc R . .
C3D C 0.7906(12) -0.1364(7) 0.8599(4) 0.0219(16) Uani 1 1 d U . .
C4D C 0.7008(12) -0.1792(7) 0.8508(3) 0.0218(16) Uani 1 1 d U D .
H4D H 0.7338 -0.2259 0.8431 0.026 Uiso 1 1 calc R . .
C5D C 0.5651(12) -0.1504(7) 0.8537(4) 0.0236(16) Uani 1 1 d U . .
C6D C 0.5187(13) -0.0823(7) 0.8661(4) 0.0245(16) Uani 1 1 d U D .
H6D H 0.4247 -0.0637 0.8686 0.029 Uiso 1 1 calc R . .
C7D C 0.5589(13) 0.0336(8) 0.8869(4) 0.034(4) Uani 1 1 d . D .
C8D C 0.9404(12) -0.1676(7) 0.8556(4) 0.026(3) Uani 1 1 d . . .
C9D C 0.4665(14) -0.1946(8) 0.8445(4) 0.033(4) Uani 1 1 d . D .
O1E O 0.7694(9) -0.2981(5) 0.9058(3) 0.035(2) Uani 1 1 d . I .
O2E O 0.8206(9) -0.2262(6) 0.9443(3) 0.041(3) Uani 1 1 d . I .
O3E O 0.5365(10) -0.1694(6) 1.0498(3) 0.041(3) Uani 1 1 d . . .
O4E O 0.3180(9) -0.1771(6) 1.0490(3) 0.040(3) Uani 1 1 d . . .
O6E O 0.1299(9) -0.2274(6) 0.9374(3) 0.040(3) Uani 1 1 d . . .
O7E O 0.2636(9) -0.2813(5) 0.8951(2) 0.031(2) Uani 1 1 d . G .
C1E C 0.5986(12) -0.2402(7) 0.9464(4) 0.0245(17) Uani 1 1 d U . .
C2E C 0.5788(13) -0.2141(7) 0.9814(4) 0.0260(17) Uani 1 1 d U I .
H2E H 0.6530 -0.2061 0.9941 0.031 Uiso 1 1 calc R . .
C3E C 0.4519(12) -0.2002(7) 0.9973(4) 0.0258(17) Uani 1 1 d U . .
C4E C 0.3443(13) -0.2110(7) 0.9775(4) 0.0254(17) Uani 1 1 d U I .
H4E H 0.2568 -0.2013 0.9878 0.030 Uiso 1 1 calc R . .
C5E C 0.3633(12) -0.2362(7) 0.9426(4) 0.0247(17) Uani 1 1 d U . .
C6E C 0.4906(12) -0.2526(7) 0.9279(4) 0.0246(17) Uani 1 1 d U I .
H6E H 0.5044 -0.2724 0.9050 0.030 Uiso 1 1 calc R . .
C7E C 0.7380(13) -0.2564(7) 0.9309(3) 0.024(3) Uani 1 1 d . I .
C8E C 0.4344(15) -0.1812(8) 1.0349(4) 0.035(4) Uani 1 1 d . I .
C9E C 0.2428(13) -0.2498(7) 0.9240(4) 0.025(3) Uani 1 1 d . G .
O1F O 0.9844(9) -0.4829(6) 0.8943(3) 0.045(3) Uani 1 1 d . I .
O2F O 1.0588(10) -0.3873(5) 0.8825(3) 0.032(2) Uani 1 1 d . I .
O3F O 1.5542(8) -0.4068(5) 0.8756(2) 0.024(2) Uani 1 1 d . . .
O4F O 1.6865(8) -0.5091(5) 0.8925(3) 0.036(3) Uani 1 1 d . . .
O5F O 1.5186(10) -0.7222(5) 0.8950(3) 0.045(3) Uani 1 1 d . . .
O6F O 1.2960(10) -0.7151(6) 0.8973(3) 0.041(3) Uani 1 1 d . . .
C1F C 1.2181(13) -0.4956(8) 0.8884(4) 0.0278(17) Uani 1 1 d U I .
C2F C 1.3265(12) -0.4637(8) 0.8866(4) 0.0275(17) Uani 1 1 d U . .
H2F H 1.3118 -0.4140 0.8855 0.033 Uiso 1 1 calc R . .
C3F C 1.4558(12) -0.5057(8) 0.8863(4) 0.0272(17) Uani 1 1 d U . .
C4F C 1.4796(13) -0.5775(8) 0.8901(4) 0.0277(17) Uani 1 1 d U . .
H4F H 1.5687 -0.6054 0.8918 0.033 Uiso 1 1 calc R . .
C5F C 1.3676(13) -0.6092(8) 0.8914(4) 0.0273(17) Uani 1 1 d U . .
C6F C 1.2382(13) -0.5701(7) 0.8917(4) 0.0281(17) Uani 1 1 d U . .
H6F H 1.1644 -0.5916 0.8940 0.034 Uiso 1 1 calc R . .
C7F C 1.0747(12) -0.4508(8) 0.8885(3) 0.025(3) Uani 1 1 d . . .
C8F C 1.5731(14) -0.4706(8) 0.8847(4) 0.029(3) Uani 1 1 d . . .
C9F C 1.3961(13) -0.6881(7) 0.8950(4) 0.028(3) Uani 1 1 d . . .
O1G O 0.7657(8) 0.1915(5) 0.5938(2) 0.025(2) Uani 1 1 d . . .
O2G O 0.6823(9) 0.1934(6) 0.5402(3) 0.036(3) Uani 1 1 d . . .
O3G O 0.9253(10) 0.2857(5) 0.4428(3) 0.034(2) Uani 1 1 d . . .
O4G O 1.1446(9) 0.2820(5) 0.4480(3) 0.033(2) Uani 1 1 d . . .
O5G O 1.3753(8) 0.1868(5) 0.5564(2) 0.031(2) Uani 1 1 d . . .
O6G O 1.2689(9) 0.1465(5) 0.6007(2) 0.030(2) Uani 1 1 d . . .
C1G C 0.9039(12) 0.2089(8) 0.5455(4) 0.027(3) Uani 1 1 d . . .
C2G C 0.9076(13) 0.2359(7) 0.5117(3) 0.025(3) Uani 1 1 d . . .
H2G H 0.8275 0.2481 0.4983 0.030 Uiso 1 1 calc R . .
C3G C 1.0289(12) 0.2456(7) 0.4968(3) 0.021(3) Uani 1 1 d . . .
C4G C 1.1453(11) 0.2269(7) 0.5174(3) 0.019(3) Uani 1 1 d . . .
H4G H 1.2272 0.2348 0.5081 0.023 Uiso 1 1 calc R . .
C5G C 1.1445(11) 0.1977(7) 0.5503(4) 0.024(3) Uani 1 1 d . . .
C6G C 1.0223(12) 0.1889(7) 0.5652(3) 0.022(3) Uani 1 1 d . . .
H6G H 1.0203 0.1695 0.5884 0.026 Uiso 1 1 calc R . .
C7G C 0.7753(13) 0.1974(8) 0.5606(4) 0.028(3) Uani 1 1 d . . .
C8G C 1.0312(13) 0.2735(7) 0.4596(4) 0.024(3) Uani 1 1 d . . .
C9G C 1.2714(13) 0.1743(8) 0.5709(4) 0.028(3) Uani 1 1 d . . .
O1H O 0.9647(9) 0.2772(5) 0.6307(3) 0.0334(19) Uani 1 1 d U . .
O2H O 0.8373(9) 0.3713(5) 0.6064(3) 0.0390(19) Uani 1 1 d U . .
O3H O 1.0020(9) 0.5859(5) 0.5991(3) 0.035(2) Uani 1 1 d . . .
O4H O 1.2217(9) 0.5804(5) 0.6008(3) 0.035(2) Uani 1 1 d . . .
O5H O 1.5397(9) 0.3493(5) 0.5995(3) 0.036(3) Uani 1 1 d . . .
O6H O 1.4682(9) 0.2606(5) 0.6218(3) 0.032(2) Uani 1 1 d . . .
C1H C 1.0668(12) 0.3710(7) 0.6116(4) 0.028(3) Uani 1 1 d . . .
C2H C 1.0423(13) 0.4428(8) 0.6068(4) 0.032(3) Uani 1 1 d . . .
H2H H 0.9524 0.4699 0.6064 0.039 Uiso 1 1 calc R . .
C3H C 1.1477(12) 0.4758(7) 0.6027(4) 0.029(3) Uani 1 1 d . . .
C4H C 1.2795(12) 0.4336(7) 0.6027(4) 0.027(3) Uani 1 1 d . . .
H4H H 1.3527 0.4551 0.5990 0.033 Uiso 1 1 calc R . .
C5H C 1.3050(12) 0.3631(7) 0.6078(4) 0.025(3) Uani 1 1 d . . .
C6H C 1.1992(14) 0.3307(7) 0.6129(4) 0.028(3) Uani 1 1 d . . .
H6H H 1.2165 0.2815 0.6173 0.034 Uiso 1 1 calc R . .
C7H C 0.9516(13) 0.3382(8) 0.6162(4) 0.0350(19) Uani 1 1 d U . .
C8H C 1.1214(13) 0.5544(8) 0.6000(4) 0.031(3) Uani 1 1 d . . .
C9H C 1.4470(13) 0.3210(8) 0.6097(4) 0.030(3) Uani 1 1 d . . .
O11 O 0.7054(15) -0.3906(7) 0.5908(4) 0.025(4) Uiso 0.50 1 d PD A 1
N11 N 0.7203(19) -0.4738(10) 0.5552(5) 0.106(15) Uiso 0.50 1 d PD A 1
C11 C 0.7775(19) -0.4229(10) 0.5661(5) 0.089(15) Uiso 0.50 1 d PD A 1
H11 H 0.8579 -0.4129 0.5569 0.107 Uiso 0.50 1 calc PR A 1
C21 C 0.5970(17) -0.4987(8) 0.5644(5) 0.020(5) Uiso 0.50 1 d PD A 1
H21A H 0.5932 -0.5389 0.5497 0.030 Uiso 0.50 1 calc PR A 1
H21B H 0.5174 -0.4607 0.5600 0.030 Uiso 0.50 1 calc PR A 1
H21C H 0.5993 -0.5128 0.5894 0.030 Uiso 0.50 1 calc PR A 1
C31 C 0.7890(17) -0.5190(8) 0.5260(5) 0.14(2) Uiso 0.50 1 d PRD A 1
H31G H 0.7397 -0.5549 0.5209 0.203 Uiso 0.50 1 calc PR A 1
H31H H 0.8809 -0.5417 0.5330 0.203 Uiso 0.50 1 calc PR A 1
H31I H 0.7917 -0.4900 0.5047 0.203 Uiso 0.50 1 calc PR A 1
O11A O 0.615(2) -0.2534(13) 0.6119(6) 0.148(8) Uiso 1 1 d . A 2
O11C O 0.681(2) -0.3483(11) 0.6081(6) 0.042(5) Uiso 0.50 1 d P A 3
O12 O 1.3682(11) -0.2986(6) 0.5759(3) 0.048(3) Uani 1 1 d . B 3
N12 N 1.4579(14) -0.3237(10) 0.5206(4) 0.063(4) Uani 1 1 d U B 3
C12 C 1.3803(15) -0.3316(10) 0.5472(5) 0.045(4) Uani 1 1 d . B 3
H12 H 1.3278 -0.3652 0.5447 0.054 Uiso 1 1 calc R B 3
C22 C 1.4663(19) -0.3609(12) 0.4896(5) 0.071(4) Uani 1 1 d U B 3
H22A H 1.5304 -0.3463 0.4734 0.106 Uiso 1 1 calc R B 3
H22B H 1.3778 -0.3516 0.4785 0.106 Uiso 1 1 calc R B 3
H22C H 1.4968 -0.4112 0.4949 0.106 Uiso 1 1 calc R B 3
C32 C 1.5414(17) -0.2738(12) 0.5234(5) 0.065(4) Uani 1 1 d U B 3
H32A H 1.5936 -0.2736 0.5015 0.097 Uiso 1 1 calc R B 3
H32B H 1.6026 -0.2872 0.5434 0.097 Uiso 1 1 calc R B 3
H32C H 1.4844 -0.2268 0.5