####################################################################### 
# 
# This file contains crystal structure data downloaded from the 
# Cambridge Structural Database (CSD) hosted by the Cambridge 
# Crystallographic Data Centre (CCDC).
# 
# Full information about CCDC data access policies and citation 
# guidelines are available at http://www.ccdc.cam.ac.uk/access/V1 
# 
# Audit and citation data items may have been added by the CCDC. 
# Please retain this information to preserve the provenance of 
# this file and to allow appropriate attribution of the data. 
# 
#######################################################################

data_jg1130
_audit_block_doi                 10.5517/cc75b0q
_database_code_depnum_ccdc_archive 'CCDC 213652'
loop_
_citation_id
_citation_doi
_citation_year
1 10.1016/S0022-4596(03)00306-2 2003
_audit_update_record             
;
2003-06-26 deposited with the CCDC.	2024-07-13 downloaded from the CCDC.
;

_audit_creation_method           SHELXL-97
_chemical_name_systematic        
;
?
;
_chemical_name_common            ?
_chemical_melting_point          ?
_chemical_formula_moiety         ?
_chemical_formula_sum            'C14 H18 Co N2 O9'
_chemical_formula_weight         417.23

loop_
_atom_type_symbol
_atom_type_description
_atom_type_scat_dispersion_real
_atom_type_scat_dispersion_imag
_atom_type_scat_source
C C 0.0033 0.0016 'International Tables Vol C Tables 4.2.6.8 and 6.1.1.4'
H H 0.0000 0.0000 'International Tables Vol C Tables 4.2.6.8 and 6.1.1.4'
N N 0.0061 0.0033 'International Tables Vol C Tables 4.2.6.8 and 6.1.1.4'
O O 0.0106 0.0060 'International Tables Vol C Tables 4.2.6.8 and 6.1.1.4'
Co Co 0.3494 0.9721 'International Tables Vol C Tables 4.2.6.8 and 6.1.1.4'

_symmetry_cell_setting           ?
_symmetry_space_group_name_H-M   ?

loop_
_symmetry_equiv_pos_as_xyz
'x, y, z'
'-x, y+1/2, -z+1/2'
'-x, -y, -z'
'x, -y-1/2, z-1/2'

_cell_length_a                   18.9370(12)
_cell_length_b                   11.3416(8)
_cell_length_c                   8.0545(5)
_cell_angle_alpha                90.00
_cell_angle_beta                 94.167(7)
_cell_angle_gamma                90.00
_cell_volume                     1725.3(2)
_cell_formula_units_Z            4
_cell_measurement_temperature    170(2)
_cell_measurement_reflns_used    ?
_cell_measurement_theta_min      ?
_cell_measurement_theta_max      ?

_exptl_crystal_description       ?
_exptl_crystal_colour            ?
_exptl_crystal_size_max          ?
_exptl_crystal_size_mid          ?
_exptl_crystal_size_min          ?
_exptl_crystal_density_meas      ?
_exptl_crystal_density_diffrn    1.606
_exptl_crystal_density_method    'not measured'
_exptl_crystal_F_000             860
_exptl_absorpt_coefficient_mu    1.047
_exptl_absorpt_correction_type   ?
_exptl_absorpt_correction_T_min  ?
_exptl_absorpt_correction_T_max  ?
_exptl_absorpt_process_details   ?

_exptl_special_details           
;
?
;

_diffrn_ambient_temperature      170(2)
_diffrn_radiation_wavelength     0.71073
_diffrn_radiation_type           MoK\a
_diffrn_radiation_source         'fine-focus sealed tube'
_diffrn_radiation_monochromator  graphite
_diffrn_measurement_device_type  ?
_diffrn_measurement_method       ?
_diffrn_detector_area_resol_mean ?
_diffrn_standards_number         ?
_diffrn_standards_interval_count ?
_diffrn_standards_interval_time  ?
_diffrn_standards_decay_%        ?
_diffrn_reflns_number            16243
_diffrn_reflns_av_R_equivalents  0.0532
_diffrn_reflns_av_sigmaI/netI    0.0318
_diffrn_reflns_limit_h_min       -24
_diffrn_reflns_limit_h_max       25
_diffrn_reflns_limit_k_min       -14
_diffrn_reflns_limit_k_max       14
_diffrn_reflns_limit_l_min       -10
_diffrn_reflns_limit_l_max       10
_diffrn_reflns_theta_min         2.81
_diffrn_reflns_theta_max         28.02
_reflns_number_total             4034
_reflns_number_gt                3030
_reflns_threshold_expression     >2sigma(I)

_computing_data_collection       ?
_computing_cell_refinement       ?
_computing_data_reduction        ?
_computing_structure_solution    'SHELXS-97 (Sheldrick, 1990)'
_computing_structure_refinement  'SHELXL-97 (Sheldrick, 1997)'
_computing_molecular_graphics    ?
_computing_publication_material  ?

_refine_special_details          
;
Refinement of F^2^ against ALL reflections.  The weighted R-factor wR and
goodness of fit S are based on F^2^, conventional R-factors R are based
on F, with F set to zero for negative F^2^. The threshold expression of
F^2^ > 2sigma(F^2^) is used only for calculating R-factors(gt) etc. and is
not relevant to the choice of reflections for refinement.  R-factors based
on F^2^ are statistically about twice as large as those based on F, and R-
factors based on ALL data will be even larger.
;

_refine_ls_structure_factor_coef Fsqd
_refine_ls_matrix_type           full
_refine_ls_weighting_scheme      calc
_refine_ls_weighting_details     
'calc w=1/[\s^2^(Fo^2^)+(0.0498P)^2^+2.6755P] where P=(Fo^2^+2Fc^2^)/3'
_atom_sites_solution_primary     direct
_atom_sites_solution_secondary   difmap
_atom_sites_solution_hydrogens   geom
_refine_ls_hydrogen_treatment    mixed
_refine_ls_extinction_method     SHELXL
_refine_ls_extinction_coef       0.012(2)
_refine_ls_extinction_expression Fc^*^=kFc[1+0.001xFc^2^\l^3^/sin(2\q)]^-1/4^
_refine_ls_number_reflns         4034
_refine_ls_number_parameters     239
_refine_ls_number_restraints     0
_refine_ls_R_factor_all          0.0595
_refine_ls_R_factor_gt           0.0444
_refine_ls_wR_factor_ref         0.1273
_refine_ls_wR_factor_gt          0.1186
_refine_ls_goodness_of_fit_ref   1.094
_refine_ls_restrained_S_all      1.094
_refine_ls_shift/su_max          0.001
_refine_ls_shift/su_mean         0.000

loop_
_atom_site_label
_atom_site_type_symbol
_atom_site_fract_x
_atom_site_fract_y
_atom_site_fract_z
_atom_site_U_iso_or_equiv
_atom_site_adp_type
_atom_site_occupancy
_atom_site_symmetry_multiplicity
_atom_site_calc_flag
_atom_site_refinement_flags
_atom_site_disorder_assembly
_atom_site_disorder_group
Co1 Co 0.5000 1.0000 0.5000 0.01301(16) Uani 1 2 d S . .
O1 O 0.45569(9) 0.96411(16) 0.7311(2) 0.0178(4) Uani 1 1 d . . .
C1 C 0.48079(13) 0.9845(2) 0.8775(3) 0.0145(5) Uani 1 1 d . . .
C2 C 0.53374(13) 1.0649(2) 0.9598(3) 0.0154(5) Uani 1 1 d . . .
O2 O 0.57332(10) 1.14481(16) 0.9121(2) 0.0192(4) Uani 1 1 d . . .
O5 O 0.54454(10) 1.15644(15) 0.5865(2) 0.0199(4) Uani 1 1 d . . .
H1 H 0.5588 1.1604 0.6850 0.030 Uiso 1 1 d R . .
H2 H 0.5577 1.2153 0.5384 0.030 Uiso 1 1 d R . .
Co2 Co 1.0000 0.5000 1.0000 0.01307(16) Uani 1 2 d S . .
O3 O 1.03576(10) 0.54975(16) 0.7689(2) 0.0193(4) Uani 1 1 d . . .
C3 C 1.01516(13) 0.5214(2) 0.6228(3) 0.0164(5) Uani 1 1 d . . .
C4 C 1.03178(13) 0.5673(2) 0.4592(3) 0.0157(5) Uani 1 1 d . . .
O4 O 1.06993(10) 0.64970(16) 0.4134(2) 0.0203(4) Uani 1 1 d . . .
O6 O 1.04535(10) 0.65338(15) 1.0894(2) 0.0184(4) Uani 1 1 d . . .
H3 H 1.0571 0.7111 1.0366 0.028 Uiso 1 1 d R . .
H4 H 1.0553 0.6665 1.1885 0.028 Uiso 1 1 d R . .
N1 N 0.59389(11) 0.91005(19) 0.6054(3) 0.0171(4) Uani 1 1 d . . .
C11 C 0.71471(13) 0.7868(2) 0.7348(3) 0.0191(5) Uani 1 1 d . . .
C12 C 0.64777(14) 0.7353(2) 0.7293(3) 0.0218(5) Uani 1 1 d . . .
H12 H 0.6420 0.6571 0.7684 0.026 Uiso 1 1 calc R . .
C13 C 0.58950(13) 0.7999(2) 0.6656(3) 0.0205(5) Uani 1 1 d . . .
H13 H 0.5441 0.7642 0.6647 0.025 Uiso 1 1 calc R . .
C14 C 0.65837(14) 0.9596(2) 0.6122(3) 0.0214(5) Uani 1 1 d . . .
H14 H 0.6625 1.0377 0.5717 0.026 Uiso 1 1 calc R . .
C15 C 0.71953(13) 0.9022(2) 0.6757(4) 0.0226(5) Uani 1 1 d . . .
H15 H 0.7640 0.9410 0.6789 0.027 Uiso 1 1 calc R . .
N2 N 0.90008(11) 0.59499(19) 0.9224(3) 0.0186(4) Uani 1 1 d . . .
C21 C 0.77879(13) 0.7212(2) 0.7996(3) 0.0194(5) Uani 1 1 d . . .
C22 C 0.83677(14) 0.7783(2) 0.8823(4) 0.0259(6) Uani 1 1 d . . .
H22 H 0.8363 0.8614 0.8978 0.031 Uiso 1 1 calc R . .
C23 C 0.89499(14) 0.7121(2) 0.9412(4) 0.0253(6) Uani 1 1 d . . .
H23 H 0.9335 0.7522 0.9984 0.030 Uiso 1 1 calc R . .
C24 C 0.84424(14) 0.5408(2) 0.8438(4) 0.0237(6) Uani 1 1 d . . .
H24 H 0.8463 0.4578 0.8297 0.028 Uiso 1 1 calc R . .
C25 C 0.78335(14) 0.5997(3) 0.7818(4) 0.0241(6) Uani 1 1 d . . .
H25 H 0.7452 0.5570 0.7276 0.029 Uiso 1 1 calc R . .
O7 O 0.68233(12) 0.3642(2) 0.7515(3) 0.0380(5) Uani 1 1 d . . .
H5 H 0.6956 0.3378 0.6642 0.057 Uiso 1 1 d R . .
H6 H 0.6407 0.3820 0.7595 0.057 Uiso 1 1 d R . .
O8 O 0.75291(12) 0.2769(3) 0.4881(3) 0.0395(6) Uani 1 1 d . . .
H7 H 0.7877 0.2217 0.5416 0.059 Uiso 1 1 d R . .
H8 H 0.7265 0.2353 0.4278 0.059 Uiso 1 1 d R . .
O9 O 0.82221(11) 0.1320(2) 0.7225(3) 0.0357(5) Uani 1 1 d . . .
H9 H 0.8058 0.1519 0.8097 0.053 Uiso 1 1 d R . .
H10 H 0.8647 0.1189 0.7205 0.053 Uiso 1 1 d R . .

loop_
_atom_site_aniso_label
_atom_site_aniso_U_11
_atom_site_aniso_U_22
_atom_site_aniso_U_33
_atom_site_aniso_U_23
_atom_site_aniso_U_13
_atom_site_aniso_U_12
Co1 0.0143(2) 0.0139(3) 0.0106(2) 0.00097(15) -0.00055(17) 0.00114(15)
O1 0.0192(8) 0.0231(9) 0.0112(8) 0.0003(7) 0.0012(6) -0.0038(7)
C1 0.0153(11) 0.0155(11) 0.0126(11) -0.0009(8) -0.0007(9) 0.0023(8)
C2 0.0173(11) 0.0167(11) 0.0123(11) -0.0011(8) 0.0016(8) 0.0014(9)
O2 0.0245(9) 0.0194(9) 0.0139(8) -0.0003(6) 0.0025(7) -0.0059(7)
O5 0.0302(10) 0.0153(8) 0.0134(8) 0.0012(6) -0.0042(7) -0.0044(7)
Co2 0.0146(2) 0.0144(3) 0.0101(2) 0.00070(15) -0.00003(17) 0.00053(15)
O3 0.0234(9) 0.0246(9) 0.0100(8) -0.0006(6) 0.0017(7) -0.0057(7)
C3 0.0199(12) 0.0154(11) 0.0140(11) 0.0001(8) 0.0017(9) -0.0002(9)
C4 0.0202(11) 0.0156(11) 0.0113(10) -0.0001(8) 0.0020(9) 0.0009(9)
O4 0.0283(9) 0.0195(9) 0.0135(8) -0.0008(6) 0.0029(7) -0.0072(7)
O6 0.0271(9) 0.0147(8) 0.0128(8) 0.0008(6) -0.0032(7) -0.0035(7)
N1 0.0166(10) 0.0183(10) 0.0164(10) 0.0023(8) 0.0008(8) 0.0039(8)
C11 0.0167(11) 0.0207(12) 0.0199(12) 0.0016(9) 0.0005(9) 0.0019(9)
C12 0.0192(12) 0.0175(12) 0.0285(14) 0.0062(10) -0.0003(10) -0.0008(10)
C13 0.0164(11) 0.0196(12) 0.0253(13) 0.0043(10) -0.0014(10) -0.0007(9)
C14 0.0199(12) 0.0194(12) 0.0247(13) 0.0049(10) 0.0011(10) 0.0004(10)
C15 0.0156(11) 0.0211(12) 0.0307(14) 0.0067(10) -0.0007(10) -0.0009(9)
N2 0.0168(10) 0.0188(10) 0.0202(11) 0.0027(8) 0.0005(8) 0.0037(8)
C21 0.0163(11) 0.0224(12) 0.0193(12) 0.0034(9) 0.0006(9) 0.0025(9)
C22 0.0203(12) 0.0188(12) 0.0380(16) 0.0008(11) -0.0028(11) 0.0024(10)
C23 0.0203(12) 0.0198(12) 0.0348(15) -0.0011(11) -0.0053(11) 0.0019(10)
C24 0.0200(12) 0.0192(12) 0.0310(15) 0.0015(10) -0.0030(11) 0.0018(10)
C25 0.0173(12) 0.0242(13) 0.0300(14) -0.0001(10) -0.0041(10) 0.0009(10)
O7 0.0290(11) 0.0489(14) 0.0356(12) -0.0061(10) -0.0013(9) 0.0089(10)
O8 0.0284(11) 0.0594(16) 0.0302(12) -0.0006(11) -0.0006(9) 0.0003(11)
O9 0.0245(10) 0.0472(13) 0.0354(12) -0.0010(10) 0.0025(9) 0.0025(9)

_geom_special_details            
;
All esds (except the esd in the dihedral angle between two l.s. planes)
are estimated using the full covariance matrix.  The cell esds are taken
into account individually in the estimation of esds in distances, angles
and torsion angles; correlations between esds in cell parameters are only
used when they are defined by crystal symmetry.  An approximate (isotropic)
treatment of cell esds is used for estimating esds involving l.s. planes.
;

loop_
_geom_bond_atom_site_label_1
_geom_bond_atom_site_label_2
_geom_bond_distance
_geom_bond_site_symmetry_2
_geom_bond_publ_flag
Co1 O5 2.0639(17) . ?
Co1 O5 2.0639(17) 3_676 ?
Co1 O1 2.1360(17) . ?
Co1 O1 2.1360(17) 3_676 ?
Co1 N1 2.169(2) 3_676 ?
Co1 N1 2.169(2) . ?
O1 C1 1.260(3) . ?
C1 C2 1.469(3) 3_677 ?
C1 C2 1.476(3) . ?
C2 O2 1.254(3) . ?
C2 C1 1.469(3) 3_677 ?
Co2 O6 2.0476(17) 3_767 ?
Co2 O6 2.0476(17) . ?
Co2 O3 2.1032(17) 3_767 ?
Co2 O3 2.1032(18) . ?
Co2 N2 2.227(2) . ?
Co2 N2 2.227(2) 3_767 ?
O3 C3 1.255(3) . ?
C3 C4 1.467(3) 3_766 ?
C3 C4 1.472(3) . ?
C4 O4 1.253(3) . ?
C4 C3 1.467(3) 3_766 ?
N1 C14 1.342(3) . ?
N1 C13 1.345(3) . ?
C11 C12 1.394(4) . ?
C11 C15 1.397(4) . ?
C11 C21 1.486(3) . ?
C12 C13 1.391(4) . ?
C14 C15 1.393(4) . ?
N2 C24 1.341(3) . ?
N2 C23 1.341(3) . ?
C21 C25 1.388(4) . ?
C21 C22 1.401(4) . ?
C22 C23 1.389(4) . ?
C24 C25 1.393(4) . ?

loop_
_geom_angle_atom_site_label_1
_geom_angle_atom_site_label_2
_geom_angle_atom_site_label_3
_geom_angle
_geom_angle_site_symmetry_1
_geom_angle_site_symmetry_3
_geom_angle_publ_flag
O5 Co1 O5 180.0 . 3_676 ?
O5 Co1 O1 92.65(7) . . ?
O5 Co1 O1 87.35(7) 3_676 . ?
O5 Co1 O1 87.35(7) . 3_676 ?
O5 Co1 O1 92.65(7) 3_676 3_676 ?
O1 Co1 O1 180.000(1) . 3_676 ?
O5 Co1 N1 91.78(8) . 3_676 ?
O5 Co1 N1 88.22(8) 3_676 3_676 ?
O1 Co1 N1 93.90(8) . 3_676 ?
O1 Co1 N1 86.10(7) 3_676 3_676 ?
O5 Co1 N1 88.22(8) . . ?
O5 Co1 N1 91.78(8) 3_676 . ?
O1 Co1 N1 86.10(7) . . ?
O1 Co1 N1 93.90(8) 3_676 . ?
N1 Co1 N1 180.0 3_676 . ?
C1 O1 Co1 129.43(16) . . ?
O1 C1 C2 133.0(2) . 3_677 ?
O1 C1 C2 137.0(2) . . ?
C2 C1 C2 90.00(19) 3_677 . ?
O2 C2 C1 134.7(2) . 3_677 ?
O2 C2 C1 135.3(2) . . ?
C1 C2 C1 90.00(19) 3_677 . ?
O6 Co2 O6 180.000(1) 3_767 . ?
O6 Co2 O3 85.96(7) 3_767 3_767 ?
O6 Co2 O3 94.04(7) . 3_767 ?
O6 Co2 O3 94.04(7) 3_767 . ?
O6 Co2 O3 85.96(7) . . ?
O3 Co2 O3 180.000(1) 3_767 . ?
O6 Co2 N2 89.21(8) 3_767 . ?
O6 Co2 N2 90.79(8) . . ?
O3 Co2 N2 93.25(8) 3_767 . ?
O3 Co2 N2 86.75(8) . . ?
O6 Co2 N2 90.79(8) 3_767 3_767 ?
O6 Co2 N2 89.21(8) . 3_767 ?
O3 Co2 N2 86.75(8) 3_767 3_767 ?
O3 Co2 N2 93.25(8) . 3_767 ?
N2 Co2 N2 180.0 . 3_767 ?
C3 O3 Co2 131.54(17) . . ?
O3 C3 C4 137.3(2) . 3_766 ?
O3 C3 C4 132.6(2) . . ?
C4 C3 C4 90.08(19) 3_766 . ?
O4 C4 C3 136.2(2) . 3_766 ?
O4 C4 C3 133.9(2) . . ?
C3 C4 C3 89.92(19) 3_766 . ?
C14 N1 C13 117.0(2) . . ?
C14 N1 Co1 122.48(17) . . ?
C13 N1 Co1 120.52(17) . . ?
C12 C11 C15 117.6(2) . . ?
C12 C11 C21 121.2(2) . . ?
C15 C11 C21 121.1(2) . . ?
C13 C12 C11 119.1(2) . . ?
N1 C13 C12 123.6(2) . . ?
N1 C14 C15 123.3(2) . . ?
C14 C15 C11 119.3(2) . . ?
C24 N2 C23 116.5(2) . . ?
C24 N2 Co2 122.38(18) . . ?
C23 N2 Co2 120.92(18) . . ?
C25 C21 C22 117.1(2) . . ?
C25 C21 C11 121.1(2) . . ?
C22 C21 C11 121.8(2) . . ?
C23 C22 C21 119.2(3) . . ?
N2 C23 C22 124.0(3) . . ?
N2 C24 C25 123.6(3) . . ?
C21 C25 C24 119.7(2) . . ?

_diffrn_measured_fraction_theta_max 0.967
_diffrn_reflns_theta_full        28.02
_diffrn_measured_fraction_theta_full 0.967
_refine_diff_density_max         0.418
_refine_diff_density_min         -0.498
_refine_diff_density_rms         0.080
