####################################################################### 
# 
# This file contains crystal structure data downloaded from the 
# Cambridge Structural Database (CSD) hosted by the Cambridge 
# Crystallographic Data Centre (CCDC).
# 
# Full information about CCDC data access policies and citation 
# guidelines are available at http://www.ccdc.cam.ac.uk/access/V1 
# 
# Audit and citation data items may have been added by the CCDC. 
# Please retain this information to preserve the provenance of 
# this file and to allow appropriate attribution of the data. 
# 
#######################################################################

data_jg1204
_audit_block_doi                 10.5517/cc759ym
_database_code_depnum_ccdc_archive 'CCDC 213650'
loop_
_citation_id
_citation_doi
_citation_year
1 10.1016/S0022-4596(03)00306-2 2003
_audit_update_record             
;
2003-06-26 deposited with the CCDC.	2024-07-13 downloaded from the CCDC.
;

_audit_creation_method           SHELXL-97
_chemical_name_systematic        
;
?
;
_chemical_name_common            ?
_chemical_melting_point          ?
_chemical_formula_moiety         ?
_chemical_formula_sum            'C14 H15.47 N2 Ni O7.74'
_chemical_formula_weight         394.22

loop_
_atom_type_symbol
_atom_type_description
_atom_type_scat_dispersion_real
_atom_type_scat_dispersion_imag
_atom_type_scat_source
C C 0.0033 0.0016 'International Tables Vol C Tables 4.2.6.8 and 6.1.1.4'
H H 0.0000 0.0000 'International Tables Vol C Tables 4.2.6.8 and 6.1.1.4'
N N 0.0061 0.0033 'International Tables Vol C Tables 4.2.6.8 and 6.1.1.4'
O O 0.0106 0.0060 'International Tables Vol C Tables 4.2.6.8 and 6.1.1.4'
Ni Ni 0.3393 1.1124 'International Tables Vol C Tables 4.2.6.8 and 6.1.1.4'

_symmetry_cell_setting           ?
_symmetry_space_group_name_H-M   ?

loop_
_symmetry_equiv_pos_as_xyz
'x, y, z'
'-x, y+1/2, -z+1/2'
'-x, -y, -z'
'x, -y-1/2, z-1/2'

_cell_length_a                   18.2706(10)
_cell_length_b                   11.3400(9)
_cell_length_c                   7.8946(4)
_cell_angle_alpha                90.00
_cell_angle_beta                 93.201(6)
_cell_angle_gamma                90.00
_cell_volume                     1633.12(18)
_cell_formula_units_Z            4
_cell_measurement_temperature    170(2)
_cell_measurement_reflns_used    ?
_cell_measurement_theta_min      ?
_cell_measurement_theta_max      ?

_exptl_crystal_description       ?
_exptl_crystal_colour            ?
_exptl_crystal_size_max          ?
_exptl_crystal_size_mid          ?
_exptl_crystal_size_min          ?
_exptl_crystal_density_meas      ?
_exptl_crystal_density_diffrn    1.603
_exptl_crystal_density_method    'not measured'
_exptl_crystal_F_000             813
_exptl_absorpt_coefficient_mu    1.232
_exptl_absorpt_correction_type   ?
_exptl_absorpt_correction_T_min  ?
_exptl_absorpt_correction_T_max  ?
_exptl_absorpt_process_details   ?

_exptl_special_details           
;
?
;

_diffrn_ambient_temperature      170(2)
_diffrn_radiation_wavelength     0.71073
_diffrn_radiation_type           MoK\a
_diffrn_radiation_source         'fine-focus sealed tube'
_diffrn_radiation_monochromator  graphite
_diffrn_measurement_device_type  ?
_diffrn_measurement_method       ?
_diffrn_detector_area_resol_mean ?
_diffrn_standards_number         ?
_diffrn_standards_interval_count ?
_diffrn_standards_interval_time  ?
_diffrn_standards_decay_%        ?
_diffrn_reflns_number            14256
_diffrn_reflns_av_R_equivalents  0.0248
_diffrn_reflns_av_sigmaI/netI    0.0166
_diffrn_reflns_limit_h_min       -24
_diffrn_reflns_limit_h_max       23
_diffrn_reflns_limit_k_min       -14
_diffrn_reflns_limit_k_max       14
_diffrn_reflns_limit_l_min       -9
_diffrn_reflns_limit_l_max       9
_diffrn_reflns_theta_min         2.87
_diffrn_reflns_theta_max         27.94
_reflns_number_total             3620
_reflns_number_gt                3230
_reflns_threshold_expression     >2sigma(I)

_computing_data_collection       ?
_computing_cell_refinement       ?
_computing_data_reduction        ?
_computing_structure_solution    'SHELXS-97 (Sheldrick, 1990)'
_computing_structure_refinement  'SHELXL-97 (Sheldrick, 1997)'
_computing_molecular_graphics    ?
_computing_publication_material  ?

_refine_special_details          
;
Refinement of F^2^ against ALL reflections.  The weighted R-factor wR and
goodness of fit S are based on F^2^, conventional R-factors R are based
on F, with F set to zero for negative F^2^. The threshold expression of
F^2^ > 2sigma(F^2^) is used only for calculating R-factors(gt) etc. and is
not relevant to the choice of reflections for refinement.  R-factors based
on F^2^ are statistically about twice as large as those based on F, and R-
factors based on ALL data will be even larger.
;

_refine_ls_structure_factor_coef Fsqd
_refine_ls_matrix_type           full
_refine_ls_weighting_scheme      calc
_refine_ls_weighting_details     
'calc w=1/[\s^2^(Fo^2^)+(0.0404P)^2^+1.6180P] where P=(Fo^2^+2Fc^2^)/3'
_atom_sites_solution_primary     direct
_atom_sites_solution_secondary   difmap
_atom_sites_solution_hydrogens   geom
_refine_ls_hydrogen_treatment    mixed
_refine_ls_extinction_method     SHELXL
_refine_ls_extinction_coef       0.0085(16)
_refine_ls_extinction_expression Fc^*^=kFc[1+0.001xFc^2^\l^3^/sin(2\q)]^-1/4^
_refine_ls_number_reflns         3620
_refine_ls_number_parameters     242
_refine_ls_number_restraints     0
_refine_ls_R_factor_all          0.0369
_refine_ls_R_factor_gt           0.0319
_refine_ls_wR_factor_ref         0.0858
_refine_ls_wR_factor_gt          0.0833
_refine_ls_goodness_of_fit_ref   1.106
_refine_ls_restrained_S_all      1.106
_refine_ls_shift/su_max          0.001
_refine_ls_shift/su_mean         0.000

loop_
_atom_site_label
_atom_site_type_symbol
_atom_site_fract_x
_atom_site_fract_y
_atom_site_fract_z
_atom_site_U_iso_or_equiv
_atom_site_adp_type
_atom_site_occupancy
_atom_site_symmetry_multiplicity
_atom_site_calc_flag
_atom_site_refinement_flags
_atom_site_disorder_assembly
_atom_site_disorder_group
Ni1 Ni 0.5000 1.0000 0.5000 0.00595(10) Uani 1 2 d S . .
O1 O 0.45236(6) 0.96875(11) 0.72822(16) 0.0101(3) Uani 1 1 d . . .
C1 C 0.47934(9) 0.98691(14) 0.8754(2) 0.0080(3) Uani 1 1 d . . .
C2 C 0.53712(9) 1.06122(14) 0.9588(2) 0.0085(3) Uani 1 1 d . . .
O2 O 0.58133(7) 1.13752(11) 0.91081(17) 0.0136(3) Uani 1 1 d . . .
O5 O 0.54428(7) 1.15845(10) 0.58567(17) 0.0133(3) Uani 1 1 d . . .
H1 H 0.5635 1.1592 0.6820 0.020 Uiso 1 1 d R . .
H2 H 0.5615 1.2118 0.5302 0.020 Uiso 1 1 d R . .
Ni2 Ni 1.0000 0.5000 1.0000 0.00920(11) Uani 1 2 d S . .
O3 O 1.00168(7) 0.41753(11) 0.76565(17) 0.0147(3) Uani 1 1 d . . .
C3 C 1.00114(10) 0.46383(16) 0.6217(2) 0.0125(4) Uani 1 1 d . . .
C4 C 1.02918(11) 0.57170(16) 0.5462(3) 0.0180(4) Uani 1 1 d . . .
O4 O 1.06475(13) 0.65861(15) 0.6033(2) 0.0465(6) Uani 1 1 d . . .
O6 O 1.06978(7) 0.63437(11) 0.93636(17) 0.0141(3) Uani 1 1 d . . .
H3 H 1.0663 0.6951 0.9918 0.021 Uiso 1 1 d R . .
H4 H 1.0678 0.6520 0.8354 0.021 Uiso 1 1 d R . .
N1 N 0.59400(8) 0.91162(12) 0.59696(19) 0.0095(3) Uani 1 1 d . . .
C11 C 0.71812(9) 0.78566(15) 0.7179(2) 0.0117(3) Uani 1 1 d . . .
C12 C 0.64837(10) 0.73625(16) 0.7191(2) 0.0149(4) Uani 1 1 d . . .
H12 H 0.6420 0.6583 0.7599 0.018 Uiso 1 1 calc R . .
C13 C 0.58819(9) 0.80220(15) 0.6602(2) 0.0136(4) Uani 1 1 d . . .
H13 H 0.5408 0.7684 0.6648 0.016 Uiso 1 1 calc R . .
C14 C 0.66105(9) 0.95918(15) 0.5956(2) 0.0128(3) Uani 1 1 d . . .
H14 H 0.6658 1.0365 0.5514 0.015 Uiso 1 1 calc R . .
C15 C 0.72406(9) 0.90028(16) 0.6562(3) 0.0136(4) Uani 1 1 d . . .
H15 H 0.7706 0.9377 0.6554 0.016 Uiso 1 1 calc R . .
N2 N 0.90679(8) 0.59251(13) 0.9085(2) 0.0119(3) Uani 1 1 d . . .
C21 C 0.78382(9) 0.71881(15) 0.7824(2) 0.0121(3) Uani 1 1 d . . .
C22 C 0.84039(9) 0.77434(15) 0.8768(2) 0.0128(3) Uani 1 1 d . . .
H22 H 0.8383 0.8567 0.8981 0.015 Uiso 1 1 calc R . .
C23 C 0.90004(10) 0.70810(15) 0.9396(2) 0.0135(4) Uani 1 1 d . . .
H23 H 0.9375 0.7464 1.0073 0.016 Uiso 1 1 calc R . .
C24 C 0.85270(10) 0.53905(16) 0.8153(2) 0.0149(4) Uani 1 1 d . . .
H24 H 0.8573 0.4573 0.7918 0.018 Uiso 1 1 calc R . .
C25 C 0.79034(10) 0.59803(16) 0.7519(2) 0.0148(4) Uani 1 1 d . . .
H25 H 0.7527 0.5568 0.6886 0.018 Uiso 1 1 calc R . .
O7 O 0.6943(2) 0.3333(4) 0.7633(6) 0.0383(15) Uani 0.408(6) 1 d P . .
H5 H 0.7109 0.3300 0.6690 0.058 Uiso 0.408(6) 1 d PR . .
H6 H 0.6516 0.3546 0.7470 0.058 Uiso 0.408(6) 1 d PR . .
O8 O 0.74711(16) 0.3676(3) 0.4617(4) 0.0609(11) Uani 0.864(8) 1 d P . .
H7 H 0.7555 0.3413 0.3680 0.091 Uiso 0.864(8) 1 d PR . .
H8 H 0.7024 0.3718 0.4651 0.091 Uiso 0.864(8) 1 d PR . .
O9 O 0.77866(19) 0.1683(4) 0.6389(6) 0.0378(14) Uani 0.462(6) 1 d P . .
H9 H 0.7681 0.2290 0.5867 0.057 Uiso 0.462(6) 1 d PR . .
H10 H 0.8176 0.1472 0.6018 0.057 Uiso 0.462(6) 1 d PR . .

loop_
_atom_site_aniso_label
_atom_site_aniso_U_11
_atom_site_aniso_U_22
_atom_site_aniso_U_33
_atom_site_aniso_U_23
_atom_site_aniso_U_13
_atom_site_aniso_U_12
Ni1 0.00823(16) 0.00678(16) 0.00281(19) 0.00109(9) -0.00016(10) 0.00308(9)
O1 0.0122(6) 0.0149(6) 0.0031(7) -0.0004(4) 0.0004(4) -0.0007(5)
C1 0.0093(7) 0.0073(7) 0.0075(10) -0.0002(6) 0.0017(6) 0.0025(5)
C2 0.0116(7) 0.0087(7) 0.0054(9) -0.0001(6) 0.0010(6) 0.0020(6)
O2 0.0165(6) 0.0156(6) 0.0090(7) 0.0010(5) 0.0018(5) -0.0075(5)
O5 0.0233(7) 0.0095(6) 0.0066(7) 0.0021(4) -0.0030(5) -0.0024(5)
Ni2 0.01541(17) 0.00984(17) 0.0022(2) 0.00131(10) -0.00065(11) 0.00881(11)
O3 0.0285(7) 0.0127(6) 0.0028(7) 0.0019(4) 0.0006(5) 0.0100(5)
C3 0.0206(9) 0.0107(8) 0.0063(10) 0.0006(6) 0.0007(6) 0.0107(7)
C4 0.0345(11) 0.0135(8) 0.0059(10) 0.0015(6) 0.0000(7) 0.0048(7)
O4 0.1014(17) 0.0294(9) 0.0069(10) 0.0064(6) -0.0140(9) -0.0286(10)
O6 0.0243(7) 0.0142(6) 0.0039(7) 0.0010(4) 0.0014(5) 0.0048(5)
N1 0.0096(6) 0.0112(7) 0.0075(8) 0.0023(5) -0.0002(5) 0.0049(5)
C11 0.0128(8) 0.0146(8) 0.0077(10) 0.0037(6) 0.0011(6) 0.0064(6)
C12 0.0162(8) 0.0127(8) 0.0157(11) 0.0080(7) -0.0008(6) 0.0036(6)
C13 0.0119(8) 0.0139(8) 0.0149(10) 0.0054(7) 0.0005(6) 0.0013(6)
C14 0.0126(8) 0.0112(8) 0.0148(10) 0.0052(6) 0.0024(6) 0.0039(6)
C15 0.0097(8) 0.0145(8) 0.0167(10) 0.0044(6) 0.0019(6) 0.0036(6)
N2 0.0149(7) 0.0131(7) 0.0075(8) 0.0019(5) -0.0006(5) 0.0091(5)
C21 0.0126(8) 0.0142(8) 0.0097(10) 0.0053(6) 0.0025(6) 0.0061(6)
C22 0.0153(8) 0.0117(7) 0.0116(10) 0.0020(6) 0.0015(6) 0.0062(6)
C23 0.0165(8) 0.0122(8) 0.0117(10) 0.0011(6) -0.0009(6) 0.0065(6)
C24 0.0203(9) 0.0122(8) 0.0119(10) 0.0012(6) -0.0026(7) 0.0078(7)
C25 0.0171(8) 0.0140(8) 0.0129(10) 0.0019(6) -0.0031(6) 0.0047(6)
O7 0.029(2) 0.046(3) 0.039(3) 0.005(2) -0.0041(18) 0.0059(19)
O8 0.073(2) 0.0605(19) 0.0471(19) 0.0045(13) -0.0174(13) -0.0235(13)
O9 0.0194(18) 0.041(2) 0.054(3) 0.0162(18) 0.0099(16) 0.0015(15)

_geom_special_details            
;
All esds (except the esd in the dihedral angle between two l.s. planes)
are estimated using the full covariance matrix.  The cell esds are taken
into account individually in the estimation of esds in distances, angles
and torsion angles; correlations between esds in cell parameters are only
used when they are defined by crystal symmetry.  An approximate (isotropic)
treatment of cell esds is used for estimating esds involving l.s. planes.
;

loop_
_geom_bond_atom_site_label_1
_geom_bond_atom_site_label_2
_geom_bond_distance
_geom_bond_site_symmetry_2
_geom_bond_publ_flag
Ni1 O5 2.0686(12) . ?
Ni1 O5 2.0686(12) 3_676 ?
Ni1 O1 2.0747(12) 3_676 ?
Ni1 O1 2.0747(12) . ?
Ni1 N1 2.0959(14) . ?
Ni1 N1 2.0959(14) 3_676 ?
O1 C1 1.253(2) . ?
C1 C2 1.465(2) 3_677 ?
C1 C2 1.477(2) . ?
C2 O2 1.256(2) . ?
C2 C1 1.465(2) 3_677 ?
Ni2 O6 2.0668(13) . ?
Ni2 O6 2.0668(13) 3_767 ?
Ni2 O3 2.0748(13) 3_767 ?
Ni2 O3 2.0748(13) . ?
Ni2 N2 2.0942(14) 3_767 ?
Ni2 N2 2.0942(14) . ?
O3 C3 1.252(2) . ?
C3 C4 1.464(3) 3_766 ?
C3 C4 1.465(3) . ?
C4 O4 1.250(3) . ?
C4 C3 1.464(3) 3_766 ?
N1 C14 1.339(2) . ?
N1 C13 1.344(2) . ?
C11 C12 1.393(2) . ?
C11 C15 1.395(2) . ?
C11 C21 1.486(2) . ?
C12 C13 1.388(2) . ?
C14 C15 1.392(2) . ?
N2 C23 1.341(2) . ?
N2 C24 1.343(2) . ?
C21 C22 1.391(3) . ?
C21 C25 1.397(2) . ?
C22 C23 1.392(2) . ?
C24 C25 1.390(2) . ?

loop_
_geom_angle_atom_site_label_1
_geom_angle_atom_site_label_2
_geom_angle_atom_site_label_3
_geom_angle
_geom_angle_site_symmetry_1
_geom_angle_site_symmetry_3
_geom_angle_publ_flag
O5 Ni1 O5 180.0 . 3_676 ?
O5 Ni1 O1 87.72(5) . 3_676 ?
O5 Ni1 O1 92.28(5) 3_676 3_676 ?
O5 Ni1 O1 92.28(5) . . ?
O5 Ni1 O1 87.72(5) 3_676 . ?
O1 Ni1 O1 180.00(7) 3_676 . ?
O5 Ni1 N1 89.91(5) . . ?
O5 Ni1 N1 90.09(5) 3_676 . ?
O1 Ni1 N1 91.37(5) 3_676 . ?
O1 Ni1 N1 88.63(5) . . ?
O5 Ni1 N1 90.09(5) . 3_676 ?
O5 Ni1 N1 89.91(5) 3_676 3_676 ?
O1 Ni1 N1 88.63(5) 3_676 3_676 ?
O1 Ni1 N1 91.37(5) . 3_676 ?
N1 Ni1 N1 180.0 . 3_676 ?
C1 O1 Ni1 127.91(11) . . ?
O1 C1 C2 132.64(16) . 3_677 ?
O1 C1 C2 137.85(16) . . ?
C2 C1 C2 89.51(14) 3_677 . ?
O2 C2 C1 133.89(16) . 3_677 ?
O2 C2 C1 135.59(17) . . ?
C1 C2 C1 90.49(14) 3_677 . ?
O6 Ni2 O6 180.00(6) . 3_767 ?
O6 Ni2 O3 85.67(5) . 3_767 ?
O6 Ni2 O3 94.33(5) 3_767 3_767 ?
O6 Ni2 O3 94.33(5) . . ?
O6 Ni2 O3 85.67(5) 3_767 . ?
O3 Ni2 O3 180.0 3_767 . ?
O6 Ni2 N2 87.27(6) . 3_767 ?
O6 Ni2 N2 92.73(6) 3_767 3_767 ?
O3 Ni2 N2 88.30(5) 3_767 3_767 ?
O3 Ni2 N2 91.70(5) . 3_767 ?
O6 Ni2 N2 92.73(6) . . ?
O6 Ni2 N2 87.27(6) 3_767 . ?
O3 Ni2 N2 91.70(5) 3_767 . ?
O3 Ni2 N2 88.30(5) . . ?
N2 Ni2 N2 180.0 3_767 . ?
C3 O3 Ni2 128.38(11) . . ?
O3 C3 C4 133.63(18) . 3_766 ?
O3 C3 C4 137.24(18) . . ?
C4 C3 C4 89.14(15) 3_766 . ?
O4 C4 C3 134.88(19) . 3_766 ?
O4 C4 C3 134.3(2) . . ?
C3 C4 C3 90.86(15) 3_766 . ?
C14 N1 C13 117.77(14) . . ?
C14 N1 Ni1 122.40(11) . . ?
C13 N1 Ni1 119.81(11) . . ?
C12 C11 C15 117.81(15) . . ?
C12 C11 C21 120.96(16) . . ?
C15 C11 C21 121.22(16) . . ?
C13 C12 C11 119.26(16) . . ?
N1 C13 C12 122.98(16) . . ?
N1 C14 C15 122.91(16) . . ?
C14 C15 C11 119.22(16) . . ?
C23 N2 C24 117.99(15) . . ?
C23 N2 Ni2 120.52(12) . . ?
C24 N2 Ni2 121.48(12) . . ?
C22 C21 C25 117.94(15) . . ?
C22 C21 C11 120.99(16) . . ?
C25 C21 C11 121.07(17) . . ?
C21 C22 C23 119.35(16) . . ?
N2 C23 C22 122.72(17) . . ?
N2 C24 C25 122.91(17) . . ?
C24 C25 C21 119.04(17) . . ?

_diffrn_measured_fraction_theta_max 0.921
_diffrn_reflns_theta_full        27.94
_diffrn_measured_fraction_theta_full 0.921
_refine_diff_density_max         0.427
_refine_diff_density_min         -0.492
_refine_diff_density_rms         0.065
