####################################################################### 
# 
# This file contains crystal structure data downloaded from the 
# Cambridge Structural Database (CSD) hosted by the Cambridge 
# Crystallographic Data Centre (CCDC).
# 
# Full information about CCDC data access policies and citation 
# guidelines are available at http://www.ccdc.cam.ac.uk/access/V1 
# 
# Audit and citation data items may have been added by the CCDC. 
# Please retain this information to preserve the provenance of 
# this file and to allow appropriate attribution of the data. 
# 
#######################################################################

data_a_JGHX_4141
_audit_block_doi                 10.5517/ccsv5d5
_database_code_depnum_ccdc_archive 'CCDC 740137'
_audit_update_record             
;
2009-07-13 deposited with the CCDC.	2024-07-13 downloaded from the CCDC.
;
#TrackingRef '4141.cif'

_audit_creation_method           SHELXL-97

_chemical_name_systematic        
;
?
;
_chemical_name_common            ?
_chemical_melting_point          ?
_chemical_formula_moiety         C20H16CuIN4,I3Pb,2(O)
_chemical_formula_sum            'C20 H16 Cu I4 N4 O2 Pb'
_chemical_formula_weight         1122.72

loop_
_atom_type_symbol
_atom_type_description
_atom_type_scat_dispersion_real
_atom_type_scat_dispersion_imag
_atom_type_scat_source
C C 0.0033 0.0016 'International Tables Vol C Tables 4.2.6.8 and 6.1.1.4'
H H 0.0000 0.0000 'International Tables Vol C Tables 4.2.6.8 and 6.1.1.4'
Cu Cu 0.3201 1.2651 'International Tables Vol C Tables 4.2.6.8 and 6.1.1.4'
I I -0.4742 1.8119 'International Tables Vol C Tables 4.2.6.8 and 6.1.1.4'
N N 0.0061 0.0033 'International Tables Vol C Tables 4.2.6.8 and 6.1.1.4'
O O 0.0106 0.0060 'International Tables Vol C Tables 4.2.6.8 and 6.1.1.4'
Pb Pb -3.3944 10.1111 'International Tables Vol C Tables 4.2.6.8 and 6.1.1.4'

_symmetry_cell_setting           triclinic
_symmetry_space_group_name_H-M   P-1

loop_
_symmetry_equiv_pos_as_xyz
'x, y, z'
'-x, -y, -z'

_cell_length_a                   7.979(4)
_cell_length_b                   14.538(11)
_cell_length_c                   15.853(8)
_cell_angle_alpha                110.77(2)
_cell_angle_beta                 97.955(18)
_cell_angle_gamma                104.88(2)
_cell_volume                     1607.3(17)
_cell_formula_units_Z            2
_cell_measurement_temperature    293(2)
_cell_measurement_reflns_used    25
_cell_measurement_theta_min      12
_cell_measurement_theta_max      18

_exptl_crystal_description       block
_exptl_crystal_colour            blue
_exptl_crystal_size_max          0.30
_exptl_crystal_size_mid          0.15
_exptl_crystal_size_min          0.15
_exptl_crystal_density_meas      ?
_exptl_crystal_density_diffrn    2.320
_exptl_crystal_density_method    'not measured'
_exptl_crystal_F_000             1006
_exptl_absorpt_coefficient_mu    9.753
_exptl_absorpt_correction_type   none
_exptl_absorpt_correction_T_min  ?
_exptl_absorpt_correction_T_max  ?
_exptl_absorpt_process_details   ?

_exptl_special_details           
;
?
;

_diffrn_ambient_temperature      293(2)
_diffrn_radiation_wavelength     0.71073
_diffrn_radiation_type           MoK\a
_diffrn_radiation_source         'fine-focus sealed tube'
_diffrn_radiation_monochromator  graphite
_diffrn_measurement_device_type  'Rigaku Weissenberg IP'
_diffrn_measurement_method       'scintillation counter'
_diffrn_detector_area_resol_mean 0
_diffrn_standards_number         0
_diffrn_standards_interval_count 'not measured'
_diffrn_standards_interval_time  'not measured'
_diffrn_standards_decay_%        'not measured'
_diffrn_reflns_number            15293
_diffrn_reflns_av_R_equivalents  0.0527
_diffrn_reflns_av_sigmaI/netI    0.0738
_diffrn_reflns_limit_h_min       -10
_diffrn_reflns_limit_h_max       8
_diffrn_reflns_limit_k_min       -18
_diffrn_reflns_limit_k_max       18
_diffrn_reflns_limit_l_min       -20
_diffrn_reflns_limit_l_max       20
_diffrn_reflns_theta_min         3.00
_diffrn_reflns_theta_max         27.48
_reflns_number_total             7161
_reflns_number_gt                4846
_reflns_threshold_expression     >2sigma(I)

_computing_data_collection       
'TEXRAY software (Molecular Structure Corporation, 1999)'
_computing_cell_refinement       'TEXRAY software'
_computing_data_reduction        
'TEXSAN (Molecular Structure Corporation, 1999)'
_computing_structure_solution    'SHELXS-97 (Sheldrick, 1997)'
_computing_structure_refinement  'SHELXL-97 (Sheldrick, 1997)'
_computing_molecular_graphics    'ORTEX (P.McArdle, 1995)'
_computing_publication_material  "SHELXL-97/2 (Sheldrick,1997)')"

_refine_special_details          
;
Refinement of F^2^ against ALL reflections. The weighted R-factor wR and
goodness of fit S are based on F^2^, conventional R-factors R are based
on F, with F set to zero for negative F^2^. The threshold expression of
F^2^ > 2sigma(F^2^) is used only for calculating R-factors(gt) etc. and is
not relevant to the choice of reflections for refinement. R-factors based
on F^2^ are statistically about twice as large as those based on F, and R-
factors based on ALL data will be even larger.
;

_refine_ls_structure_factor_coef Fsqd
_refine_ls_matrix_type           full
_refine_ls_weighting_scheme      calc
_refine_ls_weighting_details     
'calc w=1/[\s^2^(Fo^2^)+(0.0981P)^2^+4.7812P] where P=(Fo^2^+2Fc^2^)/3'
_atom_sites_solution_primary     direct
_atom_sites_solution_secondary   difmap
_atom_sites_solution_hydrogens   geom
_refine_ls_hydrogen_treatment    constr
_refine_ls_extinction_method     SHELXL
_refine_ls_extinction_coef       0.0032(4)
_refine_ls_extinction_expression Fc^*^=kFc[1+0.001xFc^2^\l^3^/sin(2\q)]^-1/4^
_refine_ls_number_reflns         7161
_refine_ls_number_parameters     277
_refine_ls_number_restraints     0
_refine_ls_R_factor_all          0.0940
_refine_ls_R_factor_gt           0.0627
_refine_ls_wR_factor_ref         0.1944
_refine_ls_wR_factor_gt          0.1741
_refine_ls_goodness_of_fit_ref   1.083
_refine_ls_restrained_S_all      1.083
_refine_ls_shift/su_max          0.000
_refine_ls_shift/su_mean         0.000

loop_
_atom_site_label
_atom_site_type_symbol
_atom_site_fract_x
_atom_site_fract_y
_atom_site_fract_z
_atom_site_U_iso_or_equiv
_atom_site_adp_type
_atom_site_occupancy
_atom_site_symmetry_multiplicity
_atom_site_calc_flag
_atom_site_refinement_flags
_atom_site_disorder_assembly
_atom_site_disorder_group
Pb1 Pb 0.0000 0.0000 0.5000 0.0447(2) Uani 1 2 d S . .
Pb2 Pb 0.5000 0.0000 0.5000 0.0450(2) Uani 1 2 d S . .
I1 I 0.20551(12) -0.00009(8) 0.33743(6) 0.0533(3) Uani 1 1 d . . .
I2 I 0.36806(13) 0.17479(8) 0.63623(6) 0.0594(3) Uani 1 1 d . . .
I3 I 0.17092(13) -0.17424(8) 0.51139(7) 0.0599(3) Uani 1 1 d . . .
I4 I 1.04885(18) 0.23281(10) 0.04773(10) 0.0824(4) Uani 1 1 d . . .
Cu1 Cu 0.7428(2) 0.27087(12) 0.02207(10) 0.0459(4) Uani 1 1 d . . .
N1 N 0.5015(14) 0.1481(8) -0.0571(7) 0.047(3) Uani 1 1 d . . .
N2 N 0.6711(14) 0.2268(9) 0.1183(8) 0.050(3) Uani 1 1 d . . .
N3 N 0.7096(14) 0.4153(9) 0.0767(8) 0.052(3) Uani 1 1 d . . .
N4 N 0.7921(14) 0.3199(8) -0.0774(6) 0.044(2) Uani 1 1 d . . .
C1 C 0.418(2) 0.1146(12) -0.1470(10) 0.061(4) Uani 1 1 d . . .
H1 H 0.4697 0.1461 -0.1831 0.073 Uiso 1 1 calc R . .
C2 C 0.256(2) 0.0340(14) -0.1873(12) 0.073(4) Uani 1 1 d . . .
H2 H 0.2042 0.0077 -0.2509 0.087 Uiso 1 1 calc R . .
C3 C 0.176(2) -0.0048(13) -0.1343(13) 0.071(4) Uani 1 1 d . . .
H3 H 0.0630 -0.0557 -0.1607 0.085 Uiso 1 1 calc R . .
C4 C 0.2515(18) 0.0267(12) -0.0438(12) 0.060(4) Uani 1 1 d . . .
H4 H 0.1943 -0.0020 -0.0073 0.072 Uiso 1 1 calc R . .
C5 C 0.4192(15) 0.1042(10) -0.0059(9) 0.044(3) Uani 1 1 d . . .
C6 C 0.5155(18) 0.1493(10) 0.0955(9) 0.047(3) Uani 1 1 d . . .
C7 C 0.453(2) 0.1152(12) 0.1589(11) 0.061(4) Uani 1 1 d . . .
H7 H 0.3429 0.0635 0.1415 0.074 Uiso 1 1 calc R . .
C8 C 0.556(2) 0.1583(16) 0.2473(13) 0.080(5) Uani 1 1 d . . .
H8 H 0.5194 0.1336 0.2906 0.096 Uiso 1 1 calc R . .
C9 C 0.720(3) 0.2411(15) 0.2743(12) 0.080(5) Uani 1 1 d . . .
H9 H 0.7883 0.2743 0.3358 0.096 Uiso 1 1 calc R . .
C10 C 0.774(2) 0.2704(11) 0.2074(9) 0.060(4) Uani 1 1 d . . .
H10 H 0.8847 0.3216 0.2229 0.071 Uiso 1 1 calc R . .
C11 C 0.668(2) 0.4634(12) 0.1593(9) 0.059(4) Uani 1 1 d . . .
H11 H 0.6466 0.4268 0.1966 0.071 Uiso 1 1 calc R . .
C12 C 0.655(2) 0.5595(13) 0.1893(11) 0.066(4) Uani 1 1 d . . .
H12 H 0.6229 0.5878 0.2446 0.079 Uiso 1 1 calc R . .
C13 C 0.692(2) 0.6141(12) 0.1364(12) 0.067(4) Uani 1 1 d . . .
H13 H 0.6914 0.6824 0.1571 0.080 Uiso 1 1 calc R . .
C14 C 0.729(2) 0.5686(11) 0.0517(11) 0.057(4) Uani 1 1 d . . .
H14 H 0.7507 0.6051 0.0144 0.068 Uiso 1 1 calc R . .
C15 C 0.7347(16) 0.4695(10) 0.0237(9) 0.044(3) Uani 1 1 d . . .
C16 C 0.7815(16) 0.4137(11) -0.0629(9) 0.050(3) Uani 1 1 d . . .
C17 C 0.8104(18) 0.4545(11) -0.1312(10) 0.053(3) Uani 1 1 d . . .
H17 H 0.8049 0.5205 -0.1216 0.063 Uiso 1 1 calc R . .
C18 C 0.845(2) 0.3978(14) -0.2083(10) 0.066(5) Uani 1 1 d . . .
H18 H 0.8617 0.4241 -0.2533 0.080 Uiso 1 1 calc R . .
C19 C 0.8573(19) 0.3017(12) -0.2233(9) 0.060(4) Uani 1 1 d . . .
H19 H 0.8820 0.2619 -0.2775 0.072 Uiso 1 1 calc R . .
C20 C 0.8316(15) 0.2662(8) -0.1551(7) 0.052(3) Uani 1 1 d . . .
H20 H 0.8422 0.2015 -0.1634 0.062 Uiso 1 1 calc R . .
O1 O 0.4131(15) 0.3566(8) 0.4029(7) 0.185(9) Uiso 1 1 d R . .
O2 O 0.9934(15) 0.4866(8) -0.3721(7) 0.185(9) Uiso 1 1 d R . .

loop_
_atom_site_aniso_label
_atom_site_aniso_U_11
_atom_site_aniso_U_22
_atom_site_aniso_U_33
_atom_site_aniso_U_23
_atom_site_aniso_U_13
_atom_site_aniso_U_12
Pb1 0.0362(4) 0.0568(4) 0.0425(4) 0.0191(3) 0.0122(3) 0.0182(3)
Pb2 0.0365(4) 0.0561(4) 0.0437(4) 0.0187(3) 0.0128(3) 0.0182(3)
I1 0.0514(5) 0.0687(6) 0.0433(4) 0.0244(4) 0.0153(4) 0.0214(4)
I2 0.0527(5) 0.0611(6) 0.0460(5) 0.0038(4) 0.0071(4) 0.0180(4)
I3 0.0604(6) 0.0652(6) 0.0673(6) 0.0400(5) 0.0189(5) 0.0219(5)
I4 0.0867(8) 0.0803(8) 0.1103(10) 0.0579(7) 0.0440(7) 0.0389(7)
Cu1 0.0546(9) 0.0406(8) 0.0409(8) 0.0173(6) 0.0156(7) 0.0101(7)
N1 0.046(6) 0.047(6) 0.051(6) 0.027(5) 0.009(5) 0.011(5)
N2 0.041(6) 0.056(7) 0.054(6) 0.022(5) 0.018(5) 0.015(5)
N3 0.040(6) 0.048(6) 0.063(7) 0.016(5) 0.025(5) 0.010(5)
N4 0.054(6) 0.043(6) 0.033(5) 0.016(4) 0.006(5) 0.012(5)
C1 0.061(9) 0.060(9) 0.050(8) 0.023(7) 0.002(7) 0.010(7)
C2 0.059(10) 0.078(12) 0.066(10) 0.023(9) -0.006(8) 0.020(9)
C3 0.046(9) 0.065(10) 0.099(13) 0.031(10) 0.012(9) 0.021(7)
C4 0.039(7) 0.062(9) 0.075(10) 0.031(8) 0.001(7) 0.013(7)
C5 0.031(6) 0.050(7) 0.057(7) 0.031(6) -0.002(6) 0.016(5)
C6 0.051(7) 0.047(7) 0.058(8) 0.027(6) 0.027(7) 0.024(6)
C7 0.055(9) 0.063(9) 0.064(9) 0.031(8) 0.013(8) 0.010(7)
C8 0.066(10) 0.127(16) 0.096(13) 0.082(13) 0.049(10) 0.042(11)
C9 0.102(14) 0.087(13) 0.056(9) 0.031(9) 0.023(10) 0.034(11)
C10 0.080(10) 0.045(8) 0.048(7) 0.019(6) 0.023(7) 0.008(7)
C11 0.075(10) 0.064(9) 0.043(7) 0.020(7) 0.026(7) 0.027(8)
C12 0.079(11) 0.066(10) 0.055(8) 0.017(8) 0.022(8) 0.036(9)
C13 0.080(11) 0.050(9) 0.074(10) 0.025(8) 0.012(9) 0.031(8)
C14 0.057(8) 0.045(8) 0.077(10) 0.034(7) 0.015(8) 0.019(7)
C15 0.030(6) 0.056(8) 0.043(6) 0.018(6) 0.006(5) 0.012(5)
C16 0.030(6) 0.062(9) 0.054(7) 0.028(7) 0.002(6) 0.010(6)
C17 0.044(7) 0.055(8) 0.058(8) 0.027(7) 0.011(6) 0.009(6)
C18 0.061(9) 0.081(12) 0.050(8) 0.040(8) 0.009(7) -0.005(8)
C19 0.050(8) 0.068(10) 0.042(7) 0.013(7) 0.012(6) 0.000(7)
C20 0.058(8) 0.049(8) 0.044(7) 0.014(6) 0.020(6) 0.013(6)

_geom_special_details            
;
All esds (except the esd in the dihedral angle between two l.s. planes)
are estimated using the full covariance matrix. The cell esds are taken
into account individually in the estimation of esds in distances, angles
and torsion angles; correlations between esds in cell parameters are only
used when they are defined by crystal symmetry. An approximate (isotropic)
treatment of cell esds is used for estimating esds involving l.s. planes.
;

loop_
_geom_bond_atom_site_label_1
_geom_bond_atom_site_label_2
_geom_bond_distance
_geom_bond_site_symmetry_2
_geom_bond_publ_flag
Pb1 I2 3.2040(19) . ?
Pb1 I2 3.2040(19) 2_556 ?
Pb1 I3 3.216(2) 2_556 ?
Pb1 I3 3.216(2) . ?
Pb1 I1 3.2403(15) . ?
Pb1 I1 3.2403(15) 2_556 ?
Pb1 Pb2 3.990(2) . ?
Pb1 Pb2 3.990(2) 1_455 ?
Pb2 I2 3.2157(18) . ?
Pb2 I2 3.2157(18) 2_656 ?
Pb2 I3 3.2223(18) 2_656 ?
Pb2 I3 3.2223(18) . ?
Pb2 I1 3.2378(16) . ?
Pb2 I1 3.2378(16) 2_656 ?
Pb2 Pb1 3.990(2) 1_655 ?
I4 Cu1 2.648(2) . ?
Cu1 N2 1.953(10) . ?
Cu1 N4 1.994(9) . ?
Cu1 N3 2.071(12) . ?
Cu1 N1 2.108(11) . ?
N1 C1 1.338(17) . ?
N1 C5 1.340(15) . ?
N2 C6 1.345(16) . ?
N2 C10 1.359(18) . ?
N3 C15 1.344(17) . ?
N3 C11 1.381(16) . ?
N4 C16 1.326(17) . ?
N4 C20 1.333(14) . ?
C1 C2 1.38(2) . ?
C1 H1 0.9300 . ?
C2 C3 1.32(2) . ?
C2 H2 0.9300 . ?
C3 C4 1.34(2) . ?
C3 H3 0.9300 . ?
C4 C5 1.394(18) . ?
C4 H4 0.9300 . ?
C5 C6 1.502(18) . ?
C6 C7 1.366(18) . ?
C7 C8 1.35(2) . ?
C7 H7 0.9300 . ?
C8 C9 1.42(3) . ?
C8 H8 0.9300 . ?
C9 C10 1.36(2) . ?
C9 H9 0.9300 . ?
C10 H10 0.9300 . ?
C11 C12 1.34(2) . ?
C11 H11 0.9300 . ?
C12 C13 1.36(2) . ?
C12 H12 0.9300 . ?
C13 C14 1.38(2) . ?
C13 H13 0.9300 . ?
C14 C15 1.363(19) . ?
C14 H14 0.9300 . ?
C15 C16 1.480(19) . ?
C16 C17 1.426(18) . ?
C17 C18 1.32(2) . ?
C17 H17 0.9300 . ?
C18 C19 1.36(2) . ?
C18 H18 0.9300 . ?
C19 C20 1.371(17) . ?
C19 H19 0.9300 . ?
C20 H20 0.9300 . ?

loop_
_geom_angle_atom_site_label_1
_geom_angle_atom_site_label_2
_geom_angle_atom_site_label_3
_geom_angle
_geom_angle_site_symmetry_1
_geom_angle_site_symmetry_3
_geom_angle_publ_flag
I2 Pb1 I2 180.00(3) . 2_556 ?
I2 Pb1 I3 91.53(6) . 2_556 ?
I2 Pb1 I3 88.47(6) 2_556 2_556 ?
I2 Pb1 I3 88.47(6) . . ?
I2 Pb1 I3 91.53(6) 2_556 . ?
I3 Pb1 I3 180.0 2_556 . ?
I2 Pb1 I1 84.15(4) . . ?
I2 Pb1 I1 95.85(4) 2_556 . ?
I3 Pb1 I1 95.35(3) 2_556 . ?
I3 Pb1 I1 84.65(3) . . ?
I2 Pb1 I1 95.85(4) . 2_556 ?
I2 Pb1 I1 84.15(4) 2_556 2_556 ?
I3 Pb1 I1 84.65(3) 2_556 2_556 ?
I3 Pb1 I1 95.35(3) . 2_556 ?
I1 Pb1 I1 180.0 . 2_556 ?
I2 Pb1 Pb2 51.71(4) . . ?
I2 Pb1 Pb2 128.29(4) 2_556 . ?
I3 Pb1 Pb2 128.22(3) 2_556 . ?
I3 Pb1 Pb2 51.78(3) . . ?
I1 Pb1 Pb2 51.96(3) . . ?
I1 Pb1 Pb2 128.04(3) 2_556 . ?
I2 Pb1 Pb2 128.29(4) . 1_455 ?
I2 Pb1 Pb2 51.71(4) 2_556 1_455 ?
I3 Pb1 Pb2 51.78(3) 2_556 1_455 ?
I3 Pb1 Pb2 128.22(3) . 1_455 ?
I1 Pb1 Pb2 128.04(3) . 1_455 ?
I1 Pb1 Pb2 51.96(3) 2_556 1_455 ?
Pb2 Pb1 Pb2 180.0 . 1_455 ?
I2 Pb2 I2 180.0 . 2_656 ?
I2 Pb2 I3 91.85(6) . 2_656 ?
I2 Pb2 I3 88.15(6) 2_656 2_656 ?
I2 Pb2 I3 88.15(6) . . ?
I2 Pb2 I3 91.85(6) 2_656 . ?
I3 Pb2 I3 180.00(4) 2_656 . ?
I2 Pb2 I1 84.00(5) . . ?
I2 Pb2 I1 96.00(5) 2_656 . ?
I3 Pb2 I1 95.42(4) 2_656 . ?
I3 Pb2 I1 84.58(4) . . ?
I2 Pb2 I1 96.00(5) . 2_656 ?
I2 Pb2 I1 84.00(5) 2_656 2_656 ?
I3 Pb2 I1 84.58(4) 2_656 2_656 ?
I3 Pb2 I1 95.42(4) . 2_656 ?
I1 Pb2 I1 180.0 . 2_656 ?
I2 Pb2 Pb1 51.45(3) . . ?
I2 Pb2 Pb1 128.55(3) 2_656 . ?
I3 Pb2 Pb1 128.37(4) 2_656 . ?
I3 Pb2 Pb1 51.63(4) . . ?
I1 Pb2 Pb1 52.01(3) . . ?
I1 Pb2 Pb1 127.99(3) 2_656 . ?
I2 Pb2 Pb1 128.55(3) . 1_655 ?
I2 Pb2 Pb1 51.45(3) 2_656 1_655 ?
I3 Pb2 Pb1 51.63(4) 2_656 1_655 ?
I3 Pb2 Pb1 128.37(4) . 1_655 ?
I1 Pb2 Pb1 127.99(3) . 1_655 ?
I1 Pb2 Pb1 52.01(3) 2_656 1_655 ?
Pb1 Pb2 Pb1 180.0 . 1_655 ?
Pb2 I1 Pb1 76.03(4) . . ?
Pb1 I2 Pb2 76.84(5) . . ?
Pb1 I3 Pb2 76.59(5) . . ?
N2 Cu1 N4 173.9(5) . . ?
N2 Cu1 N3 96.0(5) . . ?
N4 Cu1 N3 80.1(4) . . ?
N2 Cu1 N1 79.6(4) . . ?
N4 Cu1 N1 97.6(4) . . ?
N3 Cu1 N1 113.5(4) . . ?
N2 Cu1 I4 92.1(3) . . ?
N4 Cu1 I4 94.0(3) . . ?
N3 Cu1 I4 126.0(3) . . ?
N1 Cu1 I4 120.5(3) . . ?
C1 N1 C5 117.7(11) . . ?
C1 N1 Cu1 129.2(9) . . ?
C5 N1 Cu1 112.9(8) . . ?
C6 N2 C10 118.7(11) . . ?
C6 N2 Cu1 118.9(9) . . ?
C10 N2 Cu1 122.4(9) . . ?
C15 N3 C11 116.1(12) . . ?
C15 N3 Cu1 114.4(8) . . ?
C11 N3 Cu1 129.5(10) . . ?
C16 N4 C20 119.3(10) . . ?
C16 N4 Cu1 115.2(8) . . ?
C20 N4 Cu1 125.5(8) . . ?
N1 C1 C2 121.4(14) . . ?
N1 C1 H1 119.3 . . ?
C2 C1 H1 119.3 . . ?
C3 C2 C1 119.1(16) . . ?
C3 C2 H2 120.4 . . ?
C1 C2 H2 120.4 . . ?
C2 C3 C4 121.9(16) . . ?
C2 C3 H3 119.1 . . ?
C4 C3 H3 119.1 . . ?
C3 C4 C5 117.8(14) . . ?
C3 C4 H4 121.1 . . ?
C5 C4 H4 121.1 . . ?
N1 C5 C4 121.8(12) . . ?
N1 C5 C6 115.0(10) . . ?
C4 C5 C6 123.1(12) . . ?
N2 C6 C7 122.7(13) . . ?
N2 C6 C5 113.4(10) . . ?
C7 C6 C5 123.9(12) . . ?
C8 C7 C6 118.6(14) . . ?
C8 C7 H7 120.7 . . ?
C6 C7 H7 120.7 . . ?
C7 C8 C9 120.3(14) . . ?
C7 C8 H8 119.9 . . ?
C9 C8 H8 119.9 . . ?
C10 C9 C8 117.9(16) . . ?
C10 C9 H9 121.1 . . ?
C8 C9 H9 121.1 . . ?
C9 C10 N2 121.7(14) . . ?
C9 C10 H10 119.1 . . ?
N2 C10 H10 119.1 . . ?
C12 C11 N3 124.3(14) . . ?
C12 C11 H11 117.8 . . ?
N3 C11 H11 117.8 . . ?
C11 C12 C13 117.8(14) . . ?
C11 C12 H12 121.1 . . ?
C13 C12 H12 121.1 . . ?
C12 C13 C14 120.3(14) . . ?
C12 C13 H13 119.8 . . ?
C14 C13 H13 119.8 . . ?
C15 C14 C13 119.1(13) . . ?
C15 C14 H14 120.4 . . ?
C13 C14 H14 120.4 . . ?
N3 C15 C14 122.2(12) . . ?
N3 C15 C16 113.1(12) . . ?
C14 C15 C16 124.6(12) . . ?
N4 C16 C17 119.4(13) . . ?
N4 C16 C15 117.3(11) . . ?
C17 C16 C15 123.3(13) . . ?
C18 C17 C16 119.4(14) . . ?
C18 C17 H17 120.3 . . ?
C16 C17 H17 120.3 . . ?
C17 C18 C19 121.5(13) . . ?
C17 C18 H18 119.3 . . ?
C19 C18 H18 119.3 . . ?
C18 C19 C20 117.1(13) . . ?
C18 C19 H19 121.4 . . ?
C20 C19 H19 121.4 . . ?
N4 C20 C19 123.3(12) . . ?
N4 C20 H20 118.4 . . ?
C19 C20 H20 118.4 . . ?

loop_
_geom_torsion_atom_site_label_1
_geom_torsion_atom_site_label_2
_geom_torsion_atom_site_label_3
_geom_torsion_atom_site_label_4
_geom_torsion
_geom_torsion_site_symmetry_1
_geom_torsion_site_symmetry_2
_geom_torsion_site_symmetry_3
_geom_torsion_site_symmetry_4
_geom_torsion_publ_flag
I2 Pb1 Pb2 I2 180.0 2_556 . . . ?
I3 Pb1 Pb2 I2 54.66(5) 2_556 . . . ?
I3 Pb1 Pb2 I2 -125.34(5) . . . . ?
I1 Pb1 Pb2 I2 116.93(5) . . . . ?
I1 Pb1 Pb2 I2 -63.07(5) 2_556 . . . ?
Pb2 Pb1 Pb2 I2 0.0 1_455 . . . ?
I2 Pb1 Pb2 I2 180.0 . . . 2_656 ?
I2 Pb1 Pb2 I2 0.0 2_556 . . 2_656 ?
I3 Pb1 Pb2 I2 -125.34(5) 2_556 . . 2_656 ?
I3 Pb1 Pb2 I2 54.66(5) . . . 2_656 ?
I1 Pb1 Pb2 I2 -63.07(5) . . . 2_656 ?
I1 Pb1 Pb2 I2 116.93(5) 2_556 . . 2_656 ?
Pb2 Pb1 Pb2 I2 0.0 1_455 . . 2_656 ?
I2 Pb1 Pb2 I3 -54.66(5) . . . 2_656 ?
I2 Pb1 Pb2 I3 125.34(5) 2_556 . . 2_656 ?
I3 Pb1 Pb2 I3 0.0 2_556 . . 2_656 ?
I3 Pb1 Pb2 I3 180.0 . . . 2_656 ?
I1 Pb1 Pb2 I3 62.27(4) . . . 2_656 ?
I1 Pb1 Pb2 I3 -117.73(4) 2_556 . . 2_656 ?
Pb2 Pb1 Pb2 I3 0.0 1_455 . . 2_656 ?
I2 Pb1 Pb2 I3 125.34(5) . . . . ?
I2 Pb1 Pb2 I3 -54.66(5) 2_556 . . . ?
I3 Pb1 Pb2 I3 180.0 2_556 . . . ?
I1 Pb1 Pb2 I3 -117.73(4) . . . . ?
I1 Pb1 Pb2 I3 62.27(4) 2_556 . . . ?
Pb2 Pb1 Pb2 I3 0.0 1_455 . . . ?
I2 Pb1 Pb2 I1 -116.93(5) . . . . ?
I2 Pb1 Pb2 I1 63.07(5) 2_556 . . . ?
I3 Pb1 Pb2 I1 -62.27(4) 2_556 . . . ?
I3 Pb1 Pb2 I1 