
#######################################################################
#
#                 Cambridge Crystallographic Data Centre
#                                CCDC
#
#######################################################################
#
# If this CIF has been generated from an entry in the Cambridge
# Structural Database, then it will include bibliographic, chemical,
# crystal, experimental, refinement or atomic coordinate data resulting
# from the CCDC's data processing and validation procedures.
#
#######################################################################

data_CSD_CIF_UNIDUR
_audit_creation_date 2011-04-26
_audit_creation_method CSD-ConQuest-V1
_database_code_CSD UNIDUR
_database_code_depnum_ccdc_archive 'CCDC 806187'
_chemical_formula_sum 'C54.5 H50 F6 N1 O2 P1 Pd1 Sb1'
_chemical_formula_moiety
;
C51 H43 N1 O2 P1 Pd1 1+,F6 Sb1 1-,0.5(C7 H14)
;
_journal_coden_Cambridge 182
_journal_volume 47
_journal_year 2011
_journal_page_first 3739
_journal_name_full 'Chem.Commun. '
loop_
_publ_author_name
"X.Urbaneja"
"A.Mercier"
"C.Besnard"
"E.P.Kundig"
_chemical_name_systematic
;
(R~Pd~)-(\h^3^-Allyl)-(\h^2^-(R,S,S)-2,6-diphenyl-N,N-bis(1-phenylethyl)dinaph
tho[2,1-d:1',2'-f][1,3,2]dioxaphosphepin-4-amine-P)-palladium 
hexafluoro-antimony cycloheptane solvate
;
_chemical_name_common
;
Teaching Subset: Fundamental Chemistry
;
_chemical_melting_point 481
_cell_volume   9376.100
_exptl_crystal_colour 'yellow'
_exptl_crystal_density_diffrn 1.588
_exptl_special_details
;
Melting point range 481-483K
Absolute configuration

;
_exptl_crystal_description 'cube'
_exptl_crystal_preparation 'cyclohexane/dichloromethane'
_diffrn_ambient_temperature 170
#These two values have been output from a single CSD field.
_refine_ls_R_factor_gt 0.0435
_refine_ls_wR_factor_gt 0.0435
_symmetry_cell_setting tetragonal
_symmetry_space_group_name_H-M 'P 43 21 2'
_symmetry_Int_Tables_number 96
loop_
_symmetry_equiv_pos_site_id
_symmetry_equiv_pos_as_xyz
1 x,y,z
2 1/2-y,1/2+x,3/4+z
3 -x,-y,1/2+z
4 1/2+y,1/2-x,1/4+z
5 1/2-x,1/2+y,3/4-z
6 y,x,-z
7 1/2+x,1/2-y,1/4-z
8 -y,-x,1/2-z
_cell_length_a 12.593(1)
_cell_length_b 12.593(1)
_cell_length_c 59.124(6)
_cell_angle_alpha 90
_cell_angle_beta 90
_cell_angle_gamma 90
_cell_formula_units_Z 8
loop_
_atom_type_symbol
_atom_type_radius_bond
C 0.68
H 0.23
F 0.64
N 0.68
O 0.68
P 1.05
Pd 1.39
Sb 1.39
loop_
_atom_site_label
_atom_site_type_symbol
_atom_site_fract_x
_atom_site_fract_y
_atom_site_fract_z
Sb1 Sb 0.06925(3) 0.47737(3) 0.450943(7)
F1 F -0.0656(3) 0.4818(4) 0.46354(8)
F2 F 0.0133(3) 0.5249(3) 0.42359(7)
F3 F 0.0486(4) 0.3363(3) 0.44259(7)
F4 F 0.2047(3) 0.4701(4) 0.43766(9)
F5 F 0.1256(3) 0.4323(3) 0.47870(7)
F6 F 0.0963(4) 0.6166(3) 0.45944(10)
Pd1 Pd 0.23267(3) 0.56317(3) 0.538641(7)
P1 P 0.1056(1) 0.47753(10) 0.55810(2)
O1 O 0.0765(3) 0.5260(3) 0.58278(6)
C1 C 0.0247(4) 0.6244(4) 0.58172(8)
C2 C -0.0825(4) 0.6249(4) 0.57723(9)
C3 C -0.1341(4) 0.7252(4) 0.57327(9)
C4 C -0.0728(5) 0.8187(4) 0.57453(9)
C5 C -0.1219(5) 0.9190(5) 0.56984(10)
C6 C -0.2267(5) 0.9233(5) 0.56470(11)
C7 C -0.2881(5) 0.8311(5) 0.56374(11)
C8 C -0.2442(4) 0.7325(5) 0.56797(11)
H1 H -0.28600 0.67200 0.56740
H2 H -0.36040 0.83470 0.56070
H3 H -0.25780 0.98990 0.56170
H4 H -0.08050 0.98080 0.56980
C9 C 0.0360(4) 0.8134(4) 0.58032(9)
C10 C 0.0867(4) 0.7189(4) 0.58459(9)
C11 C 0.1989(4) 0.7192(4) 0.59255(9)
C12 C 0.2301(5) 0.6512(5) 0.61002(10)
C13 C 0.3320(5) 0.6581(5) 0.61893(11)
C14 C 0.4042(5) 0.7315(6) 0.61060(12)
C15 C 0.3728(5) 0.7993(5) 0.59321(12)
C16 C 0.2715(5) 0.7908(5) 0.58413(11)
H5 H 0.25190 0.83320 0.57200
H6 H 0.41960 0.84990 0.58770
H7 H 0.47360 0.73410 0.61630
H8 H 0.35090 0.61700 0.63140
H9 H 0.18420 0.59830 0.61490
H10 H 0.07540 0.87590 0.58150
C17 C -0.1394(4) 0.5224(4) 0.57389(9)
C18 C -0.1055(4) 0.4514(4) 0.55771(8)
O2 O -0.0097(3) 0.4740(3) 0.54608(6)
C19 C -0.1622(4) 0.3593(4) 0.55101(9)
C20 C -0.1262(4) 0.2876(4) 0.53297(9)
C21 C -0.0819(4) 0.3221(4) 0.51260(9)
C22 C -0.0520(5) 0.2494(5) 0.49596(10)
C23 C -0.0636(5) 0.1416(5) 0.49944(10)
C24 C -0.1084(5) 0.1054(4) 0.51959(10)
C25 C -0.1380(5) 0.1765(4) 0.53573(10)
H11 H -0.16700 0.14990 0.54920
H12 H -0.11940 0.03320 0.52190
H13 H -0.04060 0.09320 0.48850
H14 H -0.02380 0.27290 0.48220
H15 H -0.07410 0.39480 0.50990
C26 C -0.2556(4) 0.3398(4) 0.56248(9)
C27 C -0.2908(4) 0.4039(4) 0.58065(9)
C28 C -0.2317(4) 0.4967(4) 0.58689(9)
C29 C -0.2665(5) 0.5584(5) 0.60541(9)
C30 C -0.3575(5) 0.5291(5) 0.61699(10)
C31 C -0.4175(5) 0.4405(5) 0.61072(10)
C32 C -0.3844(5) 0.3787(5) 0.59256(10)
H16 H -0.42490 0.32090 0.58800
H17 H -0.47570 0.42040 0.61950
H18 H -0.38100 0.57100 0.62900
H19 H -0.22960 0.61970 0.60980
H20 H -0.29700 0.28150 0.55810
N1 N 0.1527(3) 0.3609(3) 0.56517(7)
C33 C 0.1117(4) 0.2930(4) 0.58415(9)
C34 C 0.1871(4) 0.2977(4) 0.60413(9)
C35 C 0.1625(6) 0.3684(5) 0.62161(11)
C36 C 0.2311(7) 0.3764(6) 0.64019(12)
C37 C 0.3193(7) 0.3169(7) 0.64152(12)
C38 C 0.3439(6) 0.2479(8) 0.62456(12)
C39 C 0.2755(5) 0.2356(6) 0.60561(11)
H21 H 0.28950 0.18600 0.59440
H22 H 0.40510 0.20670 0.62560
H23 H 0.36480 0.32800 0.65370
H24 H 0.21220 0.42070 0.65210
H25 H 0.10280 0.41110 0.62070
C40 C 0.0873(5) 0.1799(4) 0.57657(10)
H26 H 0.09570 0.13300 0.58930
H27 H 0.13530 0.15910 0.56480
H28 H 0.01550 0.17500 0.57110
H29 H 0.04420 0.32410 0.58900
C41 C 0.2413(4) 0.3210(4) 0.55126(8)
C42 C 0.3288(4) 0.4015(4) 0.54819(9)
C43 C 0.3514(4) 0.4797(5) 0.56468(10)
C44 C 0.4432(5) 0.5417(6) 0.56322(11)
C45 C 0.5143(5) 0.5258(6) 0.54609(12)
C46 C 0.4954(5) 0.4503(6) 0.53012(13)
C47 C 0.4047(5) 0.3905(5) 0.53097(11)
H30 H 0.39190 0.34140 0.51970
H31 H 0.54320 0.44040 0.51820
H32 H 0.57770 0.56370 0.54570
H33 H 0.45400 0.59590 0.57370
H34 H 0.32450 0.46670 0.58000
C48 C 0.2011(5) 0.2744(5) 0.52875(9)
H35 H 0.24830 0.21930 0.52360
H36 H 0.13140 0.24550 0.53090
H37 H 0.19810 0.33040 0.51770
H38 H 0.27290 0.26150 0.55960
C49 C 0.3294(6) 0.6826(6) 0.51991(14)
C50 C 0.2379(6) 0.6611(6) 0.50837(12)
C51 C 0.1378(6) 0.6727(5) 0.52038(12)
H39 H 0.24020 0.62870 0.49330
H40 H 0.39190 0.72200 0.51990
C52 C 0.8513(8) 0.7892(7) 0.50869(14)
C53 C 0.8498(11) 0.6722(9) 0.5054(2)
C54 C 0.7577(8) 0.6081(10) 0.5103(2)
C55 C 0.6661(11) 0.6661(11) 0.50000(1)
H41 H 0.61610 0.65460 0.51180
H42 H 0.74780 0.61020 0.52620
H43 H 0.76920 0.53680 0.50560
H44 H 0.90490 0.64090 0.51470
H45 H 0.86720 0.66250 0.48960
H46 H 0.82030 0.80000 0.52360
H47 H 0.92390 0.81540 0.50860
C52E C 0.7892(8) 0.8513(7) 0.49131(14)
C53E C 0.6722(11) 0.8498(9) 0.4946(2)
C54E C 0.6081(8) 0.7577(10) 0.4897(2)
H41E H 0.65460 0.61610 0.48820
H42E H 0.61020 0.74780 0.47380
H43E H 0.53680 0.76920 0.49440
H44E H 0.64090 0.90490 0.48530
H45E H 0.66250 0.86720 0.51040
H46E H 0.80000 0.82030 0.47640
H47E H 0.81540 0.92390 0.49140
#END
