####################################################################### 
# 
# This file contains crystal structure data downloaded from the 
# Cambridge Structural Database (CSD) hosted by the Cambridge 
# Crystallographic Data Centre (CCDC).
# 
# Full information about CCDC data access policies and citation 
# guidelines are available at http://www.ccdc.cam.ac.uk/access/V1 
# 
# Audit and citation data items may have been added by the CCDC. 
# Please retain this information to preserve the provenance of 
# this file and to allow appropriate attribution of the data. 
# 
#######################################################################

data_b
_audit_block_doi                 10.5517/cct3s1q
_database_code_depnum_ccdc_archive 'CCDC 748403'
_audit_update_record             
;
2009-09-20 deposited with the CCDC.	2024-07-13 downloaded from the CCDC.
;

_audit_creation_method           SHELXL-97
_chemical_name_systematic        
;
?
;
_chemical_name_common            ?
_chemical_melting_point          ?
_chemical_formula_moiety         ?
_chemical_formula_sum            'C27 H24 N9 Zn'
_chemical_formula_weight         539.92

loop_
_atom_type_symbol
_atom_type_description
_atom_type_scat_dispersion_real
_atom_type_scat_dispersion_imag
_atom_type_scat_source
C C 0.0033 0.0016 'International Tables Vol C Tables 4.2.6.8 and 6.1.1.4'
H H 0.0000 0.0000 'International Tables Vol C Tables 4.2.6.8 and 6.1.1.4'
N N 0.0061 0.0033 'International Tables Vol C Tables 4.2.6.8 and 6.1.1.4'
Zn Zn 0.2839 1.4301 'International Tables Vol C Tables 4.2.6.8 and 6.1.1.4'

_symmetry_cell_setting           Monoclinic
_symmetry_space_group_name_H-M   C2/c

loop_
_symmetry_equiv_pos_as_xyz
'x, y, z'
'-x, y, -z+1/2'
'x+1/2, y+1/2, z'
'-x+1/2, y+1/2, -z+1/2'
'-x, -y, -z'
'x, -y, z-1/2'
'-x+1/2, -y+1/2, -z'
'x+1/2, -y+1/2, z-1/2'

_cell_length_a                   18.587(3)
_cell_length_b                   20.070(3)
_cell_length_c                   8.7957(13)
_cell_angle_alpha                90.00
_cell_angle_beta                 100.611(2)
_cell_angle_gamma                90.00
_cell_volume                     3225.0(8)
_cell_formula_units_Z            4
_cell_measurement_temperature    296(2)
_cell_measurement_reflns_used    3462
_cell_measurement_theta_min      2.36
_cell_measurement_theta_max      22.88

_exptl_crystal_description       block
_exptl_crystal_colour            colourless
_exptl_crystal_size_max          0.42
_exptl_crystal_size_mid          0.28
_exptl_crystal_size_min          0.24
_exptl_crystal_density_meas      ?
_exptl_crystal_density_diffrn    1.112
_exptl_crystal_density_method    'not measured'
_exptl_crystal_F_000             1116
_exptl_absorpt_coefficient_mu    0.789
_exptl_absorpt_correction_type   multi-scan
_exptl_absorpt_correction_T_min  0.7349
_exptl_absorpt_correction_T_max  0.8314
_exptl_absorpt_process_details   sadabs

_exptl_special_details           
;
?
;

_diffrn_ambient_temperature      296(2)
_diffrn_radiation_wavelength     0.71073
_diffrn_radiation_type           MoK\a
_diffrn_radiation_source         'fine-focus sealed tube'
_diffrn_radiation_monochromator  graphite
_diffrn_measurement_device_type  'CCD area detector'
_diffrn_measurement_method       'phi and omega scans'
_diffrn_detector_area_resol_mean ?
_diffrn_standards_number         ?
_diffrn_standards_interval_count ?
_diffrn_standards_interval_time  ?
_diffrn_standards_decay_%        ?
_diffrn_reflns_number            3013
_diffrn_reflns_av_R_equivalents  0.0000
_diffrn_reflns_av_sigmaI/netI    0.0368
_diffrn_reflns_limit_h_min       -22
_diffrn_reflns_limit_h_max       22
_diffrn_reflns_limit_k_min       0
_diffrn_reflns_limit_k_max       24
_diffrn_reflns_limit_l_min       0
_diffrn_reflns_limit_l_max       10
_diffrn_reflns_theta_min         2.62
_diffrn_reflns_theta_max         25.50
_reflns_number_total             3013
_reflns_number_gt                2507
_reflns_threshold_expression     >2sigma(I)

_computing_data_collection       'Bruker SMART'
_computing_cell_refinement       'Bruker SMART'
_computing_data_reduction        'Bruker SAINT'
_computing_structure_solution    'SHELXS-97 (Sheldrick, 1990)'
_computing_structure_refinement  'SHELXL-97 (Sheldrick, 1997)'
_computing_molecular_graphics    'Bruker SHELXTL'
_computing_publication_material  'Bruker SHELXTL'

_refine_special_details          
;
Refinement of F^2^ against ALL reflections. The weighted R-factor wR and
goodness of fit S are based on F^2^, conventional R-factors R are based
on F, with F set to zero for negative F^2^. The threshold expression of
F^2^ > 2sigma(F^2^) is used only for calculating R-factors(gt) etc. and is
not relevant to the choice of reflections for refinement. R-factors based
on F^2^ are statistically about twice as large as those based on F, and R-
factors based on ALL data will be even larger.
;

_refine_ls_structure_factor_coef Fsqd
_refine_ls_matrix_type           full
_refine_ls_weighting_scheme      calc
_refine_ls_weighting_details     
'calc w=1/[\s^2^(Fo^2^)+(0.1217P)^2^+2.8563P] where P=(Fo^2^+2Fc^2^)/3'
_atom_sites_solution_primary     direct
_atom_sites_solution_secondary   difmap
_atom_sites_solution_hydrogens   geom
_refine_ls_hydrogen_treatment    constr
_refine_ls_extinction_method     none
_refine_ls_extinction_coef       ?
_refine_ls_number_reflns         3013
_refine_ls_number_parameters     182
_refine_ls_number_restraints     36
_refine_ls_R_factor_all          0.0703
_refine_ls_R_factor_gt           0.0582
_refine_ls_wR_factor_ref         0.1830
_refine_ls_wR_factor_gt          0.1762
_refine_ls_goodness_of_fit_ref   1.084
_refine_ls_restrained_S_all      1.103
_refine_ls_shift/su_max          0.000
_refine_ls_shift/su_mean         0.000

loop_
_atom_site_label
_atom_site_type_symbol
_atom_site_fract_x
_atom_site_fract_y
_atom_site_fract_z
_atom_site_U_iso_or_equiv
_atom_site_adp_type
_atom_site_occupancy
_atom_site_symmetry_multiplicity
_atom_site_calc_flag
_atom_site_refinement_flags
_atom_site_disorder_assembly
_atom_site_disorder_group
Zn1 Zn 0.5000 -0.17594(3) 0.7500 0.0306(2) Uani 1 2 d S . .
N1 N 0.5019(2) -0.16813(17) 0.9961(4) 0.0455(8) Uani 1 1 d . . .
N2 N 0.5000 -0.1238(3) 1.2500 0.136(5) Uani 1 2 d S . .
N3 N 0.58844(18) -0.10049(16) 0.7844(4) 0.0397(7) Uani 1 1 d . . .
N4 N 0.91905(17) 0.24550(15) 0.7266(4) 0.0365(7) Uani 1 1 d . . .
C1 C 0.5015(3) -0.1527(2) 1.1181(5) 0.0564(12) Uani 1 1 d . . .
C2 C 0.5825(3) -0.0423(2) 0.8539(6) 0.0573(12) Uani 1 1 d . . .
H2 H 0.5405 -0.0347 0.8949 0.069 Uiso 1 1 calc R . .
C3 C 0.6345(3) 0.0076(3) 0.8690(7) 0.0704(15) Uani 1 1 d . . .
H3 H 0.6263 0.0480 0.9150 0.084 Uiso 1 1 calc R . .
C4 C 0.6975(3) -0.0027(3) 0.8163(6) 0.0712(16) Uani 1 1 d . . .
C5 C 0.7056(3) -0.0643(3) 0.7475(6) 0.0685(15) Uani 1 1 d . . .
H5 H 0.7486 -0.0743 0.7125 0.082 Uiso 1 1 calc R . .
C6 C 0.6500(2) -0.1097(2) 0.7319(5) 0.0517(11) Uani 1 1 d . . .
H6 H 0.6558 -0.1495 0.6814 0.062 Uiso 1 1 calc R . .
C7 C 0.7568(4) 0.0510(4) 0.8342(8) 0.104(3) Uani 1 1 d . . .
H7A H 0.7496 0.0812 0.9161 0.125 Uiso 1 1 calc R . .
H7B H 0.8041 0.0298 0.8659 0.125 Uiso 1 1 calc R . .
C8 C 0.7582(4) 0.0891(3) 0.6966(7) 0.096(2) Uani 1 1 d . . .
H8A H 0.7105 0.1096 0.6651 0.115 Uiso 1 1 calc R . .
H8B H 0.7651 0.0585 0.6152 0.115 Uiso 1 1 calc R . .
C9 C 0.9188(3) 0.2039(2) 0.8425(5) 0.0548(12) Uani 1 1 d . . .
H9 H 0.9539 0.2096 0.9315 0.066 Uiso 1 1 calc R . .
C10 C 0.8693(3) 0.1525(3) 0.8390(6) 0.0692(15) Uani 1 1 d . . .
H10 H 0.8716 0.1242 0.9237 0.083 Uiso 1 1 calc R . .
C11 C 0.8158(3) 0.1432(3) 0.7073(6) 0.0616(13) Uani 1 1 d . . .
C12 C 0.8172(3) 0.1847(2) 0.5859(6) 0.0571(12) Uani 1 1 d . . .
H12 H 0.7834 0.1792 0.4945 0.069 Uiso 1 1 calc R . .
C13 C 0.8688(2) 0.2351(2) 0.5981(5) 0.0463(10) Uani 1 1 d . . .
H13 H 0.8687 0.2629 0.5136 0.056 Uiso 1 1 calc R . .
C14 C 0.7947(11) 0.2426(10) 0.112(2) 0.137(5) Uani 0.50 1 d PDU . .
N5 N 0.7366(10) 0.2192(9) 0.019(2) 0.153(5) Uani 0.50 1 d PDU . .
N6 N 0.8434(11) 0.2280(10) 0.198(2) 0.165(6) Uani 0.50 1 d PDU . .

loop_
_atom_site_aniso_label
_atom_site_aniso_U_11
_atom_site_aniso_U_22
_atom_site_aniso_U_33
_atom_site_aniso_U_23
_atom_site_aniso_U_13
_atom_site_aniso_U_12
Zn1 0.0329(4) 0.0263(3) 0.0341(4) 0.000 0.0100(2) 0.000
N1 0.056(2) 0.047(2) 0.0341(19) -0.0003(14) 0.0114(15) -0.0030(16)
N2 0.314(15) 0.055(4) 0.051(4) 0.000 0.066(6) 0.000
N3 0.0437(19) 0.0340(16) 0.0415(17) 0.0021(13) 0.0078(14) -0.0073(14)
N4 0.0353(16) 0.0331(16) 0.0421(17) 0.0001(13) 0.0095(13) -0.0024(13)
C1 0.091(4) 0.040(2) 0.039(3) 0.0034(19) 0.016(2) -0.004(2)
C2 0.056(3) 0.044(2) 0.067(3) -0.010(2) 0.000(2) -0.009(2)
C3 0.076(4) 0.045(3) 0.081(4) 0.001(2) -0.009(3) -0.021(3)
C4 0.082(4) 0.060(3) 0.064(3) 0.011(2) -0.005(3) -0.041(3)
C5 0.062(3) 0.078(4) 0.068(3) 0.016(3) 0.019(2) -0.026(3)
C6 0.053(3) 0.047(2) 0.058(3) 0.003(2) 0.019(2) -0.011(2)
C7 0.115(5) 0.099(5) 0.090(4) 0.016(4) -0.002(4) -0.075(5)
C8 0.109(5) 0.089(4) 0.077(4) 0.020(3) -0.015(3) -0.068(4)
C9 0.058(3) 0.052(3) 0.050(2) 0.009(2) -0.001(2) -0.024(2)
C10 0.084(4) 0.063(3) 0.057(3) 0.015(2) 0.002(3) -0.036(3)
C11 0.068(3) 0.057(3) 0.057(3) 0.003(2) 0.004(2) -0.032(2)
C12 0.057(3) 0.056(3) 0.053(3) 0.004(2) -0.002(2) -0.023(2)
C13 0.050(2) 0.044(2) 0.044(2) 0.0051(17) 0.0033(18) -0.0106(19)
C14 0.142(8) 0.160(8) 0.128(8) -0.017(6) 0.072(6) 0.015(7)
N5 0.154(8) 0.165(9) 0.157(8) -0.007(7) 0.071(6) 0.001(7)
N6 0.181(9) 0.197(10) 0.127(8) -0.022(7) 0.057(6) -0.004(8)

_geom_special_details            
;
All esds (except the esd in the dihedral angle between two l.s. planes)
are estimated using the full covariance matrix. The cell esds are taken
into account individually in the estimation of esds in distances, angles
and torsion angles; correlations between esds in cell parameters are only
used when they are defined by crystal symmetry. An approximate (isotropic)
treatment of cell esds is used for estimating esds involving l.s. planes.
;

loop_
_geom_bond_atom_site_label_1
_geom_bond_atom_site_label_2
_geom_bond_distance
_geom_bond_site_symmetry_2
_geom_bond_publ_flag
Zn1 N4 2.163(3) 3_445 ?
Zn1 N4 2.163(3) 4_646 ?
Zn1 N1 2.164(4) 2_656 ?
Zn1 N1 2.164(4) . ?
Zn1 N3 2.214(3) . ?
Zn1 N3 2.214(3) 2_656 ?
N1 C1 1.118(6) . ?
N2 C1 1.302(5) . ?
N2 C1 1.302(5) 2_657 ?
N3 C6 1.324(6) . ?
N3 C2 1.333(6) . ?
N4 C9 1.318(5) . ?
N4 C13 1.343(5) . ?
N4 Zn1 2.163(3) 3 ?
C2 C3 1.382(7) . ?
C2 H2 0.9300 . ?
C3 C4 1.351(9) . ?
C3 H3 0.9300 . ?
C4 C5 1.397(8) . ?
C4 C7 1.529(7) . ?
C5 C6 1.366(6) . ?
C5 H5 0.9300 . ?
C6 H6 0.9300 . ?
C7 C8 1.436(9) . ?
C7 H7A 0.9700 . ?
C7 H7B 0.9700 . ?
C8 C11 1.517(7) . ?
C8 H8A 0.9700 . ?
C8 H8B 0.9700 . ?
C9 C10 1.380(6) . ?
C9 H9 0.9300 . ?
C10 C11 1.393(7) . ?
C10 H10 0.9300 . ?
C11 C12 1.358(7) . ?
C12 C13 1.385(6) . ?
C12 H12 0.9300 . ?
C13 H13 0.9300 . ?
C14 N6 1.109(9) . ?
C14 N5 1.313(9) . ?
C14 N5 1.42(3) 7_655 ?
N5 N5 1.40(3) 7_655 ?
N5 C14 1.42(3) 7_655 ?

loop_
_geom_angle_atom_site_label_1
_geom_angle_atom_site_label_2
_geom_angle_atom_site_label_3
_geom_angle
_geom_angle_site_symmetry_1
_geom_angle_site_symmetry_3
_geom_angle_publ_flag
N4 Zn1 N4 86.40(16) 3_445 4_646 ?
N4 Zn1 N1 94.27(13) 3_445 2_656 ?
N4 Zn1 N1 91.78(13) 4_646 2_656 ?
N4 Zn1 N1 91.78(13) 3_445 . ?
N4 Zn1 N1 94.27(13) 4_646 . ?
N1 Zn1 N1 171.70(18) 2_656 . ?
N4 Zn1 N3 175.86(11) 3_445 . ?
N4 Zn1 N3 89.98(13) 4_646 . ?
N1 Zn1 N3 87.84(13) 2_656 . ?
N1 Zn1 N3 86.48(13) . . ?
N4 Zn1 N3 89.98(13) 3_445 2_656 ?
N4 Zn1 N3 175.86(11) 4_646 2_656 ?
N1 Zn1 N3 86.48(13) 2_656 2_656 ?
N1 Zn1 N3 87.84(13) . 2_656 ?
N3 Zn1 N3 93.71(17) . 2_656 ?
C1 N1 Zn1 168.0(4) . . ?
C1 N2 C1 127.0(7) . 2_657 ?
C6 N3 C2 115.7(4) . . ?
C6 N3 Zn1 121.6(3) . . ?
C2 N3 Zn1 122.7(3) . . ?
C9 N4 C13 116.8(3) . . ?
C9 N4 Zn1 119.3(3) . 3 ?
C13 N4 Zn1 123.9(3) . 3 ?
N1 C1 N2 169.5(6) . . ?
N3 C2 C3 124.3(5) . . ?
N3 C2 H2 117.8 . . ?
C3 C2 H2 117.8 . . ?
C4 C3 C2 119.4(5) . . ?
C4 C3 H3 120.3 . . ?
C2 C3 H3 120.3 . . ?
C3 C4 C5 117.0(4) . . ?
C3 C4 C7 120.7(6) . . ?
C5 C4 C7 122.3(6) . . ?
C6 C5 C4 119.6(5) . . ?
C6 C5 H5 120.2 . . ?
C4 C5 H5 120.2 . . ?
N3 C6 C5 123.9(5) . . ?
N3 C6 H6 118.1 . . ?
C5 C6 H6 118.1 . . ?
C8 C7 C4 114.4(5) . . ?
C8 C7 H7A 108.7 . . ?
C4 C7 H7A 108.7 . . ?
C8 C7 H7B 108.7 . . ?
C4 C7 H7B 108.7 . . ?
H7A C7 H7B 107.6 . . ?
C7 C8 C11 116.8(5) . . ?
C7 C8 H8A 108.1 . . ?
C11 C8 H8A 108.1 . . ?
C7 C8 H8B 108.1 . . ?
C11 C8 H8B 108.1 . . ?
H8A C8 H8B 107.3 . . ?
N4 C9 C10 123.7(4) . . ?
N4 C9 H9 118.2 . . ?
C10 C9 H9 118.2 . . ?
C9 C10 C11 119.2(4) . . ?
C9 C10 H10 120.4 . . ?
C11 C10 H10 120.4 . . ?
C12 C11 C10 117.3(4) . . ?
C12 C11 C8 120.4(4) . . ?
C10 C11 C8 122.3(4) . . ?
C11 C12 C13 120.0(4) . . ?
C11 C12 H12 120.0 . . ?
C13 C12 H12 120.0 . . ?
N4 C13 C12 122.9(4) . . ?
N4 C13 H13 118.5 . . ?
C12 C13 H13 118.5 . . ?
N6 C14 N5 144(2) . . ?
N6 C14 N5 149(3) . 7_655 ?
N5 C14 N5 61.5(18) . 7_655 ?
C14 N5 N5 63.0(17) . 7_655 ?
C14 N5 C14 118.5(18) . 7_655 ?
N5 N5 C14 55.5(10) 7_655 7_655 ?

loop_
_geom_torsion_atom_site_label_1
_geom_torsion_atom_site_label_2
_geom_torsion_atom_site_label_3
_geom_torsion_atom_site_label_4
_geom_torsion
_geom_torsion_site_symmetry_1
_geom_torsion_site_symmetry_2
_geom_torsion_site_symmetry_3
_geom_torsion_site_symmetry_4
_geom_torsion_publ_flag
N4 Zn1 N1 C1 -131(2) 3_445 . . . ?
N4 Zn1 N1 C1 143(2) 4_646 . . . ?
N1 Zn1 N1 C1 6(2) 2_656 . . . ?
N3 Zn1 N1 C1 53(2) . . . . ?
N3 Zn1 N1 C1 -41(2) 2_656 . . . ?
N4 Zn1 N3 C6 63.7(17) 3_445 . . . ?
N4 Zn1 N3 C6 34.8(3) 4_646 . . . ?
N1 Zn1 N3 C6 -57.0(3) 2_656 . . . ?
N1 Zn1 N3 C6 129.0(3) . . . . ?
N3 Zn1 N3 C6 -143.4(4) 2_656 . . . ?
N4 Zn1 N3 C2 -118.7(16) 3_445 . . . ?
N4 Zn1 N3 C2 -147.6(3) 4_646 . . . ?
N1 Zn1 N3 C2 120.6(3) 2_656 . . . ?
N1 Zn1 N3 C2 -53.3(3) . . . . ?
N3 Zn1 N3 C2 34.3(3) 2_656 . . . ?
Zn1 N1 C1 N2 -2(5) . . . . ?
C1 N2 C1 N1 175(3) 2_657 . . . ?
C6 N3 C2 C3 1.9(7) . . . . ?
Zn1 N3 C2 C3 -175.8(4) . . . . ?
N3 C2 C3 C4 -2.7(8) . . . . ?
C2 C3 C4 C5 0.5(8) . . . . ?
C2 C3 C4 C7 -178.8(5) . . . . ?
C3 C4 C5 C6 2.1(8) . . . . ?
C7 C4 C5 C6 -178.6(5) . . . . ?
C2 N3 C6 C5 0.9(6) . . . . ?
Zn1 N3 C6 C5 178.7(4) . . . . ?
C4 C5 C6 N3 -3.0(7) . . . . ?
C3 C4 C7 C8 -100.8(9) . . . . ?
C5 C4 C7 C8 79.9(9) . . . . ?
C4 C7 C8 C11 179.8(6) . . . . ?
C13 N4 C9 C10 -1.6(8) . . . . ?
Zn1 N4 C9 C10 179.7(5) 3 . . . ?
N4 C9 C10 C11 -0.5(9) . . . . ?
C9 C10 C11 C12 2.4(9) . . . . ?
C9 C10 C11 C8 -178.2(6) . . . . ?
C7 C8 C11 C12 -175.1(8) . . . . ?
C7 C8 C11 C10 5.5(12) . . . . ?
C10 C11 C12 C13 -2.2(9) . . . . ?
C8 C11 C12 C13 178.3(6) . . . . ?
C9 N4 C13 C12 1.8(7) . . . . ?
Zn1 N4 C13 C12 -179.6(4) 3 . . . ?
C11 C12 C13 N4 0.1(8) . . . . ?
N6 C14 N5 N5 -156(4) . . . 7_655 ?
N6 C14 N5 C14 -156(4) . . . 7_655 ?
N5 C14 N5 C14 0.000(3) 7_655 . . 7_655 ?

_diffrn_measured_fraction_theta_max 0.996
_diffrn_reflns_theta_full        25.50
_diffrn_measured_fraction_theta_full 0.996
_refine_diff_density_max         0.868
_refine_diff_density_min         -0.432
_refine_diff_density_rms         0.103
loop_
_platon_squeeze_void_nr
_platon_squeeze_void_average_x
_platon_squeeze_void_average_y
_platon_squeeze_void_average_z
_platon_squeeze_void_volume
_platon_squeeze_void_count_electrons
_platon_squeeze_void_content
1 0.000 0.000 -0.014 322 50 ' '
2 0.500 0.500 0.002 322 50 ' '
_platon_squeeze_details          
;
;
