####################################################################### 
# 
# This file contains crystal structure data downloaded from the 
# Cambridge Structural Database (CSD) hosted by the Cambridge 
# Crystallographic Data Centre (CCDC).
# 
# Full information about CCDC data access policies and citation 
# guidelines are available at http://www.ccdc.cam.ac.uk/access/V1 
# 
# Audit and citation data items may have been added by the CCDC. 
# Please retain this information to preserve the provenance of 
# this file and to allow appropriate attribution of the data. 
# 
#######################################################################

data_020518c
_audit_block_doi                 10.5517/cc6mt5s
_database_code_depnum_ccdc_archive 'CCDC 197785'
_audit_update_record             
;
2002-11-18 deposited with the CCDC.	2024-07-13 downloaded from the CCDC.
;

_audit_creation_method           SHELXL-97
_chemical_name_systematic        
; 
? 
;
_chemical_name_common            ?
_chemical_melting_point          ?
_chemical_formula_moiety         ?
_chemical_formula_sum            'C14 H8 Cu N8 O0'
_chemical_formula_weight         351.82

loop_
_atom_type_symbol
_atom_type_description
_atom_type_scat_dispersion_real
_atom_type_scat_dispersion_imag
_atom_type_scat_source
C C 0.0033 0.0016 'International Tables Vol C Tables 4.2.6.8 and 6.1.1.4'
H H 0.0000 0.0000 'International Tables Vol C Tables 4.2.6.8 and 6.1.1.4'
N N 0.0061 0.0033 'International Tables Vol C Tables 4.2.6.8 and 6.1.1.4'
O O 0.0106 0.0060 'International Tables Vol C Tables 4.2.6.8 and 6.1.1.4'
Cu Cu 0.3201 1.2651 'International Tables Vol C Tables 4.2.6.8 and 6.1.1.4'

_symmetry_cell_setting           Orthorhombic
_symmetry_space_group_name_H-M   Pna2(1)

loop_
_symmetry_equiv_pos_as_xyz
'x, y, z'
'-x, -y, z+1/2'
'x+1/2, -y+1/2, z'
'-x+1/2, y+1/2, z+1/2'

_cell_length_a                   7.490(2)
_cell_length_b                   12.207(4)
_cell_length_c                   18.707(6)
_cell_angle_alpha                90.00
_cell_angle_beta                 90.00
_cell_angle_gamma                90.00
_cell_volume                     1710.4(9)
_cell_formula_units_Z            4
_cell_measurement_temperature    293(2)
_cell_measurement_reflns_used    ?
_cell_measurement_theta_min      ?
_cell_measurement_theta_max      ?

_exptl_crystal_description       ?
_exptl_crystal_colour            ?
_exptl_crystal_size_max          0.30
_exptl_crystal_size_mid          0.25
_exptl_crystal_size_min          0.20
_exptl_crystal_density_meas      ?
_exptl_crystal_density_diffrn    1.366
_exptl_crystal_density_method    'not measured'
_exptl_crystal_F_000             708
_exptl_absorpt_coefficient_mu    1.287
_exptl_absorpt_correction_type   MULTI-SCAN
_exptl_absorpt_correction_T_min  0.6988
_exptl_absorpt_correction_T_max  0.7829
_exptl_absorpt_process_details   SADABS

_exptl_special_details           
; 
? 
;

_diffrn_ambient_temperature      293(2)
_diffrn_radiation_wavelength     0.71073
_diffrn_radiation_type           MoK\a
_diffrn_radiation_source         'fine-focus sealed tube'
_diffrn_radiation_monochromator  graphite
_diffrn_measurement_device_type  'Bruker P4'
_diffrn_measurement_method       '\w scans'
_diffrn_detector_area_resol_mean ?
_diffrn_standards_number         ?
_diffrn_standards_interval_count ?
_diffrn_standards_interval_time  ?
_diffrn_standards_decay_%        ?
_diffrn_reflns_number            6575
_diffrn_reflns_av_R_equivalents  0.0300
_diffrn_reflns_av_sigmaI/netI    0.0379
_diffrn_reflns_limit_h_min       -8
_diffrn_reflns_limit_h_max       8
_diffrn_reflns_limit_k_min       -14
_diffrn_reflns_limit_k_max       9
_diffrn_reflns_limit_l_min       -22
_diffrn_reflns_limit_l_max       22
_diffrn_reflns_theta_min         1.99
_diffrn_reflns_theta_max         25.03
_reflns_number_total             2868
_reflns_number_gt                2337
_reflns_threshold_expression     >2sigma(I)

_computing_data_collection       'Bruker XSCANS'
_computing_cell_refinement       'Bruker XSCANS'
_computing_data_reduction        'Bruker SHELXTL'
_computing_structure_solution    'SHELXS-97 (Sheldrick, 1990)'
_computing_structure_refinement  'SHELXL-97 (Sheldrick, 1997)'
_computing_molecular_graphics    'Bruker SHELXTL'
_computing_publication_material  'Bruker SHELXTL'

_refine_special_details          
; 
Refinement of F^2^ against ALL reflections.  The weighted R-factor wR and 
goodness of fit S are based on F^2^, conventional R-factors R are based 
on F, with F set to zero for negative F^2^. The threshold expression of 
F^2^ > 2sigma(F^2^) is used only for calculating R-factors(gt) etc. and is 
not relevant to the choice of reflections for refinement.  R-factors based 
on F^2^ are statistically about twice as large as those based on F, and R- 
factors based on ALL data will be even larger. 
;

_refine_ls_structure_factor_coef Fsqd
_refine_ls_matrix_type           full
_refine_ls_weighting_scheme      calc
_refine_ls_weighting_details     
'calc w=1/[\s^2^(Fo^2^)+(0.0880P)^2^+0.0000P] where P=(Fo^2^+2Fc^2^)/3'
_atom_sites_solution_primary     direct
_atom_sites_solution_secondary   difmap
_atom_sites_solution_hydrogens   geom
_refine_ls_hydrogen_treatment    mixed
_refine_ls_extinction_method     none
_refine_ls_extinction_coef       ?
_refine_ls_abs_structure_details 'Flack H D (1983), Acta Cryst. A39, 876-881'
_refine_ls_abs_structure_Flack   0.00(12)
_refine_ls_number_reflns         2868
_refine_ls_number_parameters     209
_refine_ls_number_restraints     1
_refine_ls_R_factor_all          0.0630
_refine_ls_R_factor_gt           0.0486
_refine_ls_wR_factor_ref         0.1437
_refine_ls_wR_factor_gt          0.1356
_refine_ls_goodness_of_fit_ref   1.142
_refine_ls_restrained_S_all      1.142
_refine_ls_shift/su_max          0.010
_refine_ls_shift/su_mean         0.001

loop_
_atom_site_label
_atom_site_type_symbol
_atom_site_fract_x
_atom_site_fract_y
_atom_site_fract_z
_atom_site_U_iso_or_equiv
_atom_site_adp_type
_atom_site_occupancy
_atom_site_symmetry_multiplicity
_atom_site_calc_flag
_atom_site_refinement_flags
_atom_site_disorder_assembly
_atom_site_disorder_group
Cu1 Cu 0.26446(7) 0.45749(5) 1.07690(6) 0.0339(2) Uani 1 1 d . . .
N1 N 0.2809(6) 0.5466(4) 0.9848(3) 0.0376(12) Uani 1 1 d . . .
N2 N 0.2720(6) 0.8655(4) 0.6677(3) 0.0358(11) Uani 1 1 d . . .
N3 N 0.5001(8) 0.5403(4) 1.1239(3) 0.0519(14) Uani 1 1 d . . .
N4 N 0.7802(9) 0.6410(6) 1.1231(7) 0.109(4) Uani 1 1 d . . .
N5 N 1.0737(7) 0.5575(4) 1.1113(3) 0.0437(12) Uani 1 1 d . . .
N6 N 0.3814(8) 0.3305(4) 1.0297(3) 0.0515(14) Uani 1 1 d . . .
N7 N 0.4508(11) 0.1411(5) 1.0067(4) 0.089(2) Uani 1 1 d . . .
N8 N 0.2675(11) -0.0025(9) 0.9485(6) 0.104(3) Uani 1 1 d . . .
C1 C 0.2649(9) 0.5032(6) 0.9215(4) 0.0567(19) Uani 1 1 d . . .
H1A H 0.2512 0.4277 0.9181 0.068 Uiso 1 1 calc R . .
C2 C 0.2675(9) 0.5638(6) 0.8594(4) 0.057(2) Uani 1 1 d . . .
H2A H 0.2530 0.5288 0.8156 0.068 Uiso 1 1 calc R . .
C3 C 0.2907(7) 0.6738(5) 0.8613(3) 0.0381(13) Uani 1 1 d . . .
C4 C 0.3054(9) 0.7205(5) 0.9288(3) 0.0447(14) Uani 1 1 d . . .
H4A H 0.3193 0.7959 0.9334 0.054 Uiso 1 1 calc R . .
C5 C 0.2995(8) 0.6560(5) 0.9882(4) 0.0416(14) Uani 1 1 d . . .
H5A H 0.3088 0.6890 1.0329 0.050 Uiso 1 1 calc R . .
C6 C 0.2898(7) 0.7419(4) 0.7940(3) 0.0322(12) Uani 1 1 d . . .
C7 C 0.3163(8) 0.6924(5) 0.7272(3) 0.0415(14) Uani 1 1 d . . .
H7A H 0.3386 0.6176 0.7238 0.050 Uiso 1 1 calc R . .
C8 C 0.3087(9) 0.7567(5) 0.6668(3) 0.0410(14) Uani 1 1 d . . .
H8A H 0.3299 0.7236 0.6228 0.049 Uiso 1 1 calc R . .
C9 C 0.2544(7) 0.9116(5) 0.7311(4) 0.0418(15) Uani 1 1 d . . .
H9A H 0.2378 0.9870 0.7329 0.050 Uiso 1 1 calc R . .
C10 C 0.2590(7) 0.8552(5) 0.7953(4) 0.0447(16) Uani 1 1 d . . .
H10A H 0.2420 0.8917 0.8384 0.054 Uiso 1 1 calc R . .
C11 C 0.6318(10) 0.5800(5) 1.1222(4) 0.0491(16) Uani 1 1 d . . .
C12 C 0.9337(10) 0.5895(5) 1.1173(4) 0.0486(16) Uani 1 1 d . . .
C13 C 0.4043(9) 0.2421(6) 1.0152(4) 0.0499(16) Uani 1 1 d . . .
C14 C 0.3465(12) 0.0723(7) 0.9744(5) 0.073(2) Uani 1 1 d . . .

loop_
_atom_site_aniso_label
_atom_site_aniso_U_11
_atom_site_aniso_U_22
_atom_site_aniso_U_33
_atom_site_aniso_U_23
_atom_site_aniso_U_13
_atom_site_aniso_U_12
Cu1 0.0510(4) 0.0272(3) 0.0236(3) 0.0080(3) 0.0027(5) 0.0028(2)
N1 0.050(3) 0.036(3) 0.027(3) 0.005(2) 0.001(2) 0.000(2)
N2 0.053(3) 0.031(3) 0.023(2) 0.008(2) 0.006(2) 0.001(2)
N3 0.045(3) 0.068(4) 0.042(3) 0.003(3) 0.000(2) -0.005(3)
N4 0.051(4) 0.057(4) 0.218(11) -0.003(6) 0.012(5) -0.001(3)
N5 0.048(3) 0.045(3) 0.038(3) 0.007(2) 0.005(2) 0.004(2)
N6 0.078(4) 0.035(3) 0.042(3) 0.010(2) 0.011(3) 0.012(3)
N7 0.116(6) 0.048(4) 0.104(6) -0.033(4) -0.027(5) 0.021(4)
N8 0.132(8) 0.083(6) 0.097(8) -0.039(6) -0.012(5) 0.001(5)
C1 0.102(6) 0.034(4) 0.035(4) -0.001(3) 0.003(3) -0.011(3)
C2 0.112(6) 0.032(3) 0.026(4) 0.005(3) 0.002(3) -0.013(3)
C3 0.047(3) 0.041(3) 0.027(3) 0.007(3) -0.002(3) 0.006(3)
C4 0.074(4) 0.025(3) 0.035(3) 0.008(3) -0.001(3) -0.001(3)
C5 0.064(4) 0.026(3) 0.034(3) -0.001(2) -0.001(3) 0.001(3)
C6 0.043(3) 0.026(3) 0.027(3) 0.005(2) -0.001(2) 0.002(2)
C7 0.061(4) 0.037(3) 0.027(3) 0.003(3) 0.003(3) 0.015(3)
C8 0.062(4) 0.036(3) 0.024(3) 0.006(3) 0.003(3) 0.013(3)
C9 0.065(4) 0.025(3) 0.036(3) 0.012(3) -0.006(3) 0.002(2)
C10 0.063(4) 0.047(4) 0.025(3) 0.007(3) -0.004(3) -0.001(3)
C11 0.043(4) 0.046(4) 0.058(4) 0.001(3) 0.001(3) 0.006(3)
C12 0.052(4) 0.038(3) 0.056(4) -0.003(3) 0.004(3) 0.001(3)
C13 0.062(4) 0.045(4) 0.043(4) 0.002(3) -0.002(3) 0.009(3)
C14 0.094(6) 0.053(4) 0.071(5) -0.014(4) 0.002(5) 0.017(5)

_geom_special_details            
; 
All esds (except the esd in the dihedral angle between two l.s. planes) 
are estimated using the full covariance matrix.  The cell esds are taken 
into account individually in the estimation of esds in distances, angles 
and torsion angles; correlations between esds in cell parameters are only 
used when they are defined by crystal symmetry.  An approximate (isotropic) 
treatment of cell esds is used for estimating esds involving l.s. planes. 
;

loop_
_geom_bond_atom_site_label_1
_geom_bond_atom_site_label_2
_geom_bond_distance
_geom_bond_site_symmetry_2
_geom_bond_publ_flag
Cu1 N5 1.987(5) 1_455 ?
Cu1 N6 1.988(6) . ?
Cu1 N1 2.041(5) . ?
Cu1 N2 2.055(5) 4_545 ?
Cu1 N3 2.216(6) . ?
N1 C1 1.302(10) . ?
N1 C5 1.345(8) . ?
N2 C9 1.320(9) . ?
N2 C8 1.357(8) . ?
N2 Cu1 2.055(5) 4_554 ?
N3 C11 1.099(9) . ?
N4 C12 1.315(10) . ?
N4 C11 1.338(10) . ?
N5 C12 1.124(8) . ?
N5 Cu1 1.987(5) 1_655 ?
N6 C13 1.126(8) . ?
N7 C13 1.291(9) . ?
N7 C14 1.296(11) . ?
N8 C14 1.191(13) . ?
C1 C2 1.378(12) . ?
C1 H1A 0.9300 . ?
C2 C3 1.354(9) . ?
C2 H2A 0.9300 . ?
C3 C4 1.389(9) . ?
C3 C6 1.508(7) . ?
C4 C5 1.363(9) . ?
C4 H4A 0.9300 . ?
C5 H5A 0.9300 . ?
C6 C10 1.402(8) . ?
C6 C7 1.403(8) . ?
C7 C8 1.377(8) . ?
C7 H7A 0.9300 . ?
C8 H8A 0.9300 . ?
C9 C10 1.384(9) . ?
C9 H9A 0.9300 . ?
C10 H10A 0.9300 . ?

loop_
_geom_angle_atom_site_label_1
_geom_angle_atom_site_label_2
_geom_angle_atom_site_label_3
_geom_angle
_geom_angle_site_symmetry_1
_geom_angle_site_symmetry_3
_geom_angle_publ_flag
N5 Cu1 N6 160.1(2) 1_455 . ?
N5 Cu1 N1 89.4(2) 1_455 . ?
N6 Cu1 N1 90.8(2) . . ?
N5 Cu1 N2 88.4(2) 1_455 4_545 ?
N6 Cu1 N2 90.0(2) . 4_545 ?
N1 Cu1 N2 175.64(19) . 4_545 ?
N5 Cu1 N3 99.4(2) 1_455 . ?
N6 Cu1 N3 100.4(2) . . ?
N1 Cu1 N3 92.5(2) . . ?
N2 Cu1 N3 91.6(2) 4_545 . ?
C1 N1 C5 117.2(6) . . ?
C1 N1 Cu1 123.0(5) . . ?
C5 N1 Cu1 119.7(4) . . ?
C9 N2 C8 116.7(5) . . ?
C9 N2 Cu1 119.8(4) . 4_554 ?
C8 N2 Cu1 123.5(4) . 4_554 ?
C11 N3 Cu1 154.8(6) . . ?
C12 N4 C11 117.3(7) . . ?
C12 N5 Cu1 156.4(5) . 1_655 ?
C13 N6 Cu1 157.2(6) . . ?
C13 N7 C14 120.9(8) . . ?
N1 C1 C2 123.2(6) . . ?
N1 C1 H1A 118.4 . . ?
C2 C1 H1A 118.4 . . ?
C3 C2 C1 120.8(7) . . ?
C3 C2 H2A 119.6 . . ?
C1 C2 H2A 119.6 . . ?
C2 C3 C4 116.2(6) . . ?
C2 C3 C6 121.6(6) . . ?
C4 C3 C6 122.2(5) . . ?
C5 C4 C3 120.1(5) . . ?
C5 C4 H4A 120.0 . . ?
C3 C4 H4A 120.0 . . ?
N1 C5 C4 122.6(6) . . ?
N1 C5 H5A 118.7 . . ?
C4 C5 H5A 118.7 . . ?
C10 C6 C7 117.6(5) . . ?
C10 C6 C3 122.0(5) . . ?
C7 C6 C3 120.4(5) . . ?
C8 C7 C6 118.7(5) . . ?
C8 C7 H7A 120.7 . . ?
C6 C7 H7A 120.7 . . ?
N2 C8 C7 123.8(6) . . ?
N2 C8 H8A 118.1 . . ?
C7 C8 H8A 118.1 . . ?
N2 C9 C10 124.4(6) . . ?
N2 C9 H9A 117.8 . . ?
C10 C9 H9A 117.8 . . ?
C9 C10 C6 118.7(6) . . ?
C9 C10 H10A 120.7 . . ?
C6 C10 H10A 120.7 . . ?
N3 C11 N4 172.0(8) . . ?
N5 C12 N4 171.7(8) . . ?
N6 C13 N7 170.4(8) . . ?
N8 C14 N7 170.3(10) . . ?

loop_
_geom_torsion_atom_site_label_1
_geom_torsion_atom_site_label_2
_geom_torsion_atom_site_label_3
_geom_torsion_atom_site_label_4
_geom_torsion
_geom_torsion_site_symmetry_1
_geom_torsion_site_symmetry_2
_geom_torsion_site_symmetry_3
_geom_torsion_site_symmetry_4
_geom_torsion_publ_flag
N5 Cu1 N1 C1 -125.3(5) 1_455 . . . ?
N6 Cu1 N1 C1 34.8(5) . . . . ?
N2 Cu1 N1 C1 -66(3) 4_545 . . . ?
N3 Cu1 N1 C1 135.3(5) . . . . ?
N5 Cu1 N1 C5 51.1(5) 1_455 . . . ?
N6 Cu1 N1 C5 -148.8(5) . . . . ?
N2 Cu1 N1 C5 111(3) 4_545 . . . ?
N3 Cu1 N1 C5 -48.4(5) . . . . ?
N5 Cu1 N3 C11 -124.1(13) 1_455 . . . ?
N6 Cu1 N3 C11 57.0(13) . . . . ?
N1 Cu1 N3 C11 -34.3(13) . . . . ?
N2 Cu1 N3 C11 147.3(13) 4_545 . . . ?
N5 Cu1 N6 C13 -46.9(18) 1_455 . . . ?
N1 Cu1 N6 C13 -137.3(14) . . . . ?
N2 Cu1 N6 C13 38.4(14) 4_545 . . . ?
N3 Cu1 N6 C13 130.0(14) . . . . ?
C5 N1 C1 C2 0.4(9) . . . . ?
Cu1 N1 C1 C2 176.8(5) . . . . ?
N1 C1 C2 C3 1.3(11) . . . . ?
C1 C2 C3 C4 -2.1(10) . . . . ?
C1 C2 C3 C6 -178.6(6) . . . . ?
C2 C3 C4 C5 1.2(9) . . . . ?
C6 C3 C4 C5 177.8(6) . . . . ?
C1 N1 C5 C4 -1.2(9) . . . . ?
Cu1 N1 C5 C4 -177.8(5) . . . . ?
C3 C4 C5 N1 0.4(10) . . . . ?
C2 C3 C6 C10 160.1(6) . . . . ?
C4 C3 C6 C10 -16.2(9) . . . . ?
C2 C3 C6 C7 -18.5(8) . . . . ?
C4 C3 C6 C7 165.2(6) . . . . ?
C10 C6 C7 C8 -0.8(8) . . . . ?
C3 C6 C7 C8 177.9(6) . . . . ?
C9 N2 C8 C7 4.4(9) . . . . ?
Cu1 N2 C8 C7 -173.5(5) 4_554 . . . ?
C6 C7 C8 N2 -1.9(10) . . . . ?
C8 N2 C9 C10 -4.5(9) . . . . ?
Cu1 N2 C9 C10 173.5(4) 4_554 . . . ?
N2 C9 C10 C6 2.1(9) . . . . ?
C7 C6 C10 C9 0.7(8) . . . . ?
C3 C6 C10 C9 -177.9(5) . . . . ?
Cu1 N3 C11 N4 115(7) . . . . ?
C12 N4 C11 N3 169(6) . . . . ?
Cu1 N5 C12 N4 -138(6) 1_655 . . . ?
C11 N4 C12 N5 170(6) . . . . ?
Cu1 N6 C13 N7 -99(5) . . . . ?
C14 N7 C13 N6 162(5) . . . . ?
C13 N7 C14 N8 -168(6) . . . . ?

_diffrn_measured_fraction_theta_max 1.000
_diffrn_reflns_theta_full        25.03
_diffrn_measured_fraction_theta_full 1.000
_refine_diff_density_max         0.844
_refine_diff_density_min         -0.367
_refine_diff_density_rms         0.154
