
#######################################################################
#
#                 Cambridge Crystallographic Data Centre
#                                CCDC
#
#######################################################################
#
# If this CIF has been generated from an entry in the Cambridge
# Structural Database, then it will include bibliographic, chemical,
# crystal, experimental, refinement or atomic coordinate data resulting
# from the CCDC's data processing and validation procedures.
#
#######################################################################

data_CSD_CIF_UROGUE
_audit_creation_date 2011-07-22
_audit_creation_method CSD-ConQuest-V1
_database_code_CSD UROGUE
_database_code_depnum_ccdc_archive 'CCDC 745328'
_chemical_formula_sum 'C78 H168 I8 Mo6 N12'
_chemical_formula_moiety
;
6(C12 H28 N1 1+),C6 I8 Mo6 N6 6-
;
_journal_coden_Cambridge 29
_journal_volume 636
_journal_year 2010
_journal_page_first 483
_journal_name_full 'Z.Anorg.Allg.Chem. '
loop_
_publ_author_name
"S.B.Artemkina"
"N.G.Naumov"
"K.N.Kondrakov"
"A.V.Virovets"
"S.G.Kozlova"
"V.E.Fedorov"
_chemical_name_systematic
;
hexakis(Tetrapropylammonium) octakis(\m~3~-iodo)-hexacyano-hexa-molybdenum
;
_chemical_name_common
;
Teaching Subset: Symmetry
;
_cell_volume   3353.782
_exptl_crystal_colour 'red'
_exptl_crystal_density_diffrn 2.837
_exptl_special_details
;
The niobium atom does not appear to have been modelled

;
_exptl_crystal_description 'block'
_diffrn_ambient_temperature 90
_refine_special_details
;
The cation is equally disordered over two sites by symmetry.

;
#These two values have been output from a single CSD field.
_refine_ls_R_factor_gt 0.0465
_refine_ls_wR_factor_gt 0.0465
_symmetry_cell_setting cubic
_symmetry_space_group_name_H-M 'I m -3 m'
_symmetry_Int_Tables_number 229
loop_
_symmetry_equiv_pos_site_id
_symmetry_equiv_pos_as_xyz
1 x,y,z
2 -y,x,z
3 x,-y,-z
4 z,x,y
5 -x,-y,z
6 y,x,-z
7 -x,z,y
8 y,-x,z
9 -x,y,-z
10 -z,-x,y
11 -y,-x,-z
12 x,-z,y
13 z,-x,-y
14 -x,-z,-y
15 -z,x,-y
16 x,z,-y
17 y,z,x
18 z,-y,x
19 -z,y,x
20 z,y,-x
21 y,-z,-x
22 -z,-y,-x
23 -y,z,-x
24 -y,-z,x
25 1/2+x,1/2+y,1/2+z
26 1/2-y,1/2+x,1/2+z
27 1/2+x,1/2-y,1/2-z
28 1/2+z,1/2+x,1/2+y
29 1/2-x,1/2-y,1/2+z
30 1/2+y,1/2+x,1/2-z
31 1/2-x,1/2+z,1/2+y
32 1/2+y,1/2-x,1/2+z
33 1/2-x,1/2+y,1/2-z
34 1/2-z,1/2-x,1/2+y
35 1/2-y,1/2-x,1/2-z
36 1/2+x,1/2-z,1/2+y
37 1/2+z,1/2-x,1/2-y
38 1/2-x,1/2-z,1/2-y
39 1/2-z,1/2+x,1/2-y
40 1/2+x,1/2+z,1/2-y
41 1/2+y,1/2+z,1/2+x
42 1/2+z,1/2-y,1/2+x
43 1/2-z,1/2+y,1/2+x
44 1/2+z,1/2+y,1/2-x
45 1/2+y,1/2-z,1/2-x
46 1/2-z,1/2-y,1/2-x
47 1/2-y,1/2+z,1/2-x
48 1/2-y,1/2-z,1/2+x
49 -x,-y,-z
50 y,-x,-z
51 -x,y,z
52 -z,-x,-y
53 x,y,-z
54 -y,-x,z
55 x,-z,-y
56 -y,x,-z
57 x,-y,z
58 z,x,-y
59 y,x,z
60 -x,z,-y
61 -z,x,y
62 x,z,y
63 z,-x,y
64 -x,-z,y
65 -y,-z,-x
66 -z,y,-x
67 z,-y,-x
68 -z,-y,x
69 -y,z,x
70 z,y,x
71 y,-z,x
72 y,z,-x
73 -1/2-x,-1/2-y,-1/2-z
74 -1/2+y,-1/2-x,-1/2-z
75 -1/2-x,-1/2+y,-1/2+z
76 -1/2-z,-1/2-x,-1/2-y
77 -1/2+x,-1/2+y,-1/2-z
78 -1/2-y,-1/2-x,-1/2+z
79 -1/2+x,-1/2-z,-1/2-y
80 -1/2-y,-1/2+x,-1/2-z
81 -1/2+x,-1/2-y,-1/2+z
82 -1/2+z,-1/2+x,-1/2-y
83 -1/2+y,-1/2+x,-1/2+z
84 -1/2-x,-1/2+z,-1/2-y
85 -1/2-z,-1/2+x,-1/2+y
86 -1/2+x,-1/2+z,-1/2+y
87 -1/2+z,-1/2-x,-1/2+y
88 -1/2-x,-1/2-z,-1/2+y
89 -1/2-y,-1/2-z,-1/2-x
90 -1/2-z,-1/2+y,-1/2-x
91 -1/2+z,-1/2-y,-1/2-x
92 -1/2-z,-1/2-y,-1/2+x
93 -1/2-y,-1/2+z,-1/2+x
94 -1/2+z,-1/2+y,-1/2+x
95 -1/2+y,-1/2-z,-1/2+x
96 -1/2+y,-1/2+z,-1/2-x
_cell_length_a 14.9685(1)
_cell_length_b 14.9685(1)
_cell_length_c 14.9685(1)
_cell_angle_alpha 90
_cell_angle_beta 90
_cell_angle_gamma 90
_cell_formula_units_Z 2
loop_
_atom_type_symbol
_atom_type_radius_bond
C 0.58
H 0.23
I 1.75
Mo 1.24
N 0.68
loop_
_atom_site_label
_atom_site_type_symbol
_atom_site_fract_x
_atom_site_fract_y
_atom_site_fract_z
N1 N 0.75000 0.00000 0.50000
C1 C 0.6917(11) 0.0325(10) 0.5752(10)
Mo1 Mo 0.50000 0.62760(5) 0.50000
I1 I 0.63191(2) 0.63191(2) 0.36809(2)
C2 C 0.50000 0.7731(7) 0.50000
N2 N 0.50000 0.8517(8) 0.50000
H1? H 0.64330 -0.01550 0.57380
H2? H 0.66520 0.08280 0.55510
C3? C 0.7177(18) 0.0365(17) 0.657(2)
H3? H 0.77000 0.07780 0.68090
H4? H 0.73330 -0.01620 0.70260
C4? C 0.6584(15) 0.0826(15) 0.7257(13)
H5? H 0.68180 0.08110 0.79160
H6? H 0.64230 0.13550 0.71120
H7? H 0.60500 0.04010 0.73330
C1DB C 0.6917(11) -0.0325(10) 0.5752(10)
C1B C 0.6917(11) -0.0325(10) 0.4248(10)
C1ZA C 0.6917(11) 0.0325(10) 0.4248(10)
C1DA C 0.8083(11) 0.0752(10) 0.5325(10)
C1EC C 0.8083(11) 0.0752(10) 0.4675(10)
C1KA C 0.8083(11) -0.0752(10) 0.4675(10)
C1IC C 0.8083(11) -0.0752(10) 0.5325(10)
Mo1A Mo 0.37240 0.50000(5) 0.50000
Mo1B Mo 0.50000 0.37240(5) 0.50000
Mo1E Mo 0.62760 0.50000(5) 0.50000
Mo1C Mo 0.50000 0.50000(5) 0.62760
Mo1L Mo 0.50000 0.50000(5) 0.37240
I1G I 0.63191(2) 0.36809(2) 0.36809(2)
I1D I 0.36809(2) 0.36809(2) 0.36809(2)
I1A I 0.36809(2) 0.63191(2) 0.36809(2)
I1C I 0.36809(2) 0.63191(2) 0.63191(2)
I1F I 0.36809(2) 0.36809(2) 0.63191(2)
I1B I 0.63191(2) 0.36809(2) 0.63191(2)
I1E I 0.63191(2) 0.63191(2) 0.63191(2)
C2E C 0.77310 0.5000(7) 0.50000
C2C C 0.50000 0.5000(7) 0.77310
C2B C 0.50000 0.2269(7) 0.50000
C2A C 0.22690 0.5000(7) 0.50000
C2L C 0.50000 0.5000(7) 0.22690
N2E N 0.85170 0.5000(8) 0.50000
N2C N 0.50000 0.5000(8) 0.85170
N2B N 0.50000 0.1483(8) 0.50000
N2A N 0.14830 0.5000(8) 0.50000
N2L N 0.50000 0.5000(8) 0.14830
#END
