####################################################################### 
# 
# This file contains crystal structure data downloaded from the 
# Cambridge Structural Database (CSD) hosted by the Cambridge 
# Crystallographic Data Centre (CCDC).
# 
# Full information about CCDC data access policies and citation 
# guidelines are available at http://www.ccdc.cam.ac.uk/access/V1 
# 
# Audit and citation data items may have been added by the CCDC. 
# Please retain this information to preserve the provenance of 
# this file and to allow appropriate attribution of the data. 
# 
#######################################################################

data_2
_audit_block_doi                 10.5517/ccvjjlg
_database_code_depnum_ccdc_archive 'CCDC 790456'
loop_
_citation_id
_citation_doi
_citation_year
1 10.1039/c1dt10245a 2011
_audit_update_record             
;
2010-08-25 deposited with the CCDC.	2024-07-13 downloaded from the CCDC.
;
#TrackingRef '- 2.cif'


_audit_creation_method           SHELXL-97
_chemical_name_systematic        
;
?
;
_chemical_name_common            ?
_chemical_melting_point          ?
_chemical_formula_moiety         ?
_chemical_formula_sum            'C110 H169 Ag2.50 Ir4 N10.50 O47.50'
_chemical_formula_weight         3437.03

loop_
_atom_type_symbol
_atom_type_description
_atom_type_scat_dispersion_real
_atom_type_scat_dispersion_imag
_atom_type_scat_source
C C 0.0033 0.0016 'International Tables Vol C Tables 4.2.6.8 and 6.1.1.4'
H H 0.0000 0.0000 'International Tables Vol C Tables 4.2.6.8 and 6.1.1.4'
N N 0.0061 0.0033 'International Tables Vol C Tables 4.2.6.8 and 6.1.1.4'
O O 0.0106 0.0060 'International Tables Vol C Tables 4.2.6.8 and 6.1.1.4'
Ag Ag -0.8971 1.1015 'International Tables Vol C Tables 4.2.6.8 and 6.1.1.4'
Ir Ir -1.4442 7.9887 'International Tables Vol C Tables 4.2.6.8 and 6.1.1.4'

_symmetry_cell_setting           Monoclinic
_symmetry_space_group_name_H-M   C2/c

loop_
_symmetry_equiv_pos_as_xyz
'x, y, z'
'-x, y, -z+1/2'
'x+1/2, y+1/2, z'
'-x+1/2, y+1/2, -z+1/2'
'-x, -y, -z'
'x, -y, z-1/2'
'-x+1/2, -y+1/2, -z'
'x+1/2, -y+1/2, z-1/2'

_cell_length_a                   36.876(5)
_cell_length_b                   36.814(5)
_cell_length_c                   22.468(3)
_cell_angle_alpha                90.00
_cell_angle_beta                 92.009(2)
_cell_angle_gamma                90.00
_cell_volume                     30484(7)
_cell_formula_units_Z            8
_cell_measurement_temperature    173(2)
_cell_measurement_reflns_used    9899
_cell_measurement_theta_min      2.37
_cell_measurement_theta_max      25.78

_exptl_crystal_description       block
_exptl_crystal_colour            colourless
_exptl_crystal_size_max          0.25
_exptl_crystal_size_mid          0.20
_exptl_crystal_size_min          0.18
_exptl_crystal_density_meas      ?
_exptl_crystal_density_diffrn    1.498
_exptl_crystal_density_method    'not measured'
_exptl_crystal_F_000             13664
_exptl_absorpt_coefficient_mu    3.869
_exptl_absorpt_correction_type   multi-scan
_exptl_absorpt_correction_T_min  0.4447
_exptl_absorpt_correction_T_max  0.5427
_exptl_absorpt_process_details   sadabs

_exptl_special_details           
;
?
;

_diffrn_ambient_temperature      173(2)
_diffrn_radiation_wavelength     0.71073
_diffrn_radiation_type           MoK\a
_diffrn_radiation_source         'fine-focus sealed tube'
_diffrn_radiation_monochromator  graphite
_diffrn_measurement_device_type  'Bruker APEX-II CCD'
_diffrn_measurement_method       '\f and \w scans'
_diffrn_detector_area_resol_mean ?
_diffrn_standards_number         ?
_diffrn_standards_interval_count ?
_diffrn_standards_interval_time  ?
_diffrn_standards_decay_%        7.82
_diffrn_reflns_number            81397
_diffrn_reflns_av_R_equivalents  0.0897
_diffrn_reflns_av_sigmaI/netI    0.1128
_diffrn_reflns_limit_h_min       -43
_diffrn_reflns_limit_h_max       43
_diffrn_reflns_limit_k_min       -35
_diffrn_reflns_limit_k_max       43
_diffrn_reflns_limit_l_min       -25
_diffrn_reflns_limit_l_max       26
_diffrn_reflns_theta_min         0.78
_diffrn_reflns_theta_max         25.01
_reflns_number_total             26660
_reflns_number_gt                15735
_reflns_threshold_expression     >2sigma(I)

_computing_data_collection       'Bruker APEX2'
_computing_cell_refinement       'Bruker SAINT'
_computing_data_reduction        'Bruker SAINT'
_computing_structure_solution    'SHELXS-97 (Sheldrick, 1990)'
_computing_structure_refinement  'SHELXL-97 (Sheldrick, 1997)'
_computing_molecular_graphics    'Bruker SHELXTL'
_computing_publication_material  'Bruker SHELXTL'

_refine_special_details          
;
Refinement of F^2^ against ALL reflections. The weighted R-factor wR and
goodness of fit S are based on F^2^, conventional R-factors R are based
on F, with F set to zero for negative F^2^. The threshold expression of
F^2^ > 2sigma(F^2^) is used only for calculating R-factors(gt) etc. and is
not relevant to the choice of reflections for refinement. R-factors based
on F^2^ are statistically about twice as large as those based on F, and R-
factors based on ALL data will be even larger. There were disordered
solvent molecules which could not be refined properly so that the SQUEEZE
algorithm was used to omit them. The hydrogen atoms in the solvents MeOH
and water could not be found. The largest differential peak of the data is
5.610.
;

_refine_ls_structure_factor_coef Fsqd
_refine_ls_matrix_type           full
_refine_ls_weighting_scheme      calc
_refine_ls_weighting_details     
'calc w=1/[\s^2^(Fo^2^)+(0.2000P)^2^+0.0000P] where P=(Fo^2^+2Fc^2^)/3'
_atom_sites_solution_primary     direct
_atom_sites_solution_secondary   difmap
_atom_sites_solution_hydrogens   geom
_refine_ls_hydrogen_treatment    constr
_refine_ls_extinction_method     none
_refine_ls_extinction_coef       ?
_refine_ls_number_reflns         26660
_refine_ls_number_parameters     1532
_refine_ls_number_restraints     30
_refine_ls_R_factor_all          0.1539
_refine_ls_R_factor_gt           0.1102
_refine_ls_wR_factor_ref         0.3193
_refine_ls_wR_factor_gt          0.2885
_refine_ls_goodness_of_fit_ref   1.066
_refine_ls_restrained_S_all      1.066
_refine_ls_shift/su_max          0.007
_refine_ls_shift/su_mean         0.000

loop_
_atom_site_label
_atom_site_type_symbol
_atom_site_fract_x
_atom_site_fract_y
_atom_site_fract_z
_atom_site_U_iso_or_equiv
_atom_site_adp_type
_atom_site_occupancy
_atom_site_symmetry_multiplicity
_atom_site_calc_flag
_atom_site_refinement_flags
_atom_site_disorder_assembly
_atom_site_disorder_group
Ir1 Ir 0.650304(17) 0.320442(17) 0.68082(3) 0.03218(19) Uani 1 1 d . . .
Ir2 Ir 0.895291(19) 0.37374(2) 0.72118(3) 0.0416(2) Uani 1 1 d . . .
Ir3 Ir 0.81669(2) 0.60139(2) 0.59431(3) 0.0480(2) Uani 1 1 d . . .
Ir4 Ir 0.618391(18) 0.553536(19) 0.82229(3) 0.0371(2) Uani 1 1 d . . .
Ag1 Ag 0.79450(11) 0.54396(9) 0.92869(16) 0.1470(12) Uani 1 1 d . . .
Ag2 Ag 0.83797(6) 0.21308(6) 0.73050(10) 0.0837(6) Uani 1 1 d . . .
Ag3 Ag 0.5000 0.62508(11) 0.2500 0.1292(14) Uani 1 2 d S . .
N1 N 0.8501(4) 0.3388(3) 0.7197(6) 0.036(3) Uani 1 1 d . . .
N2 N 0.8572(4) 0.5608(4) 0.6060(6) 0.037(3) Uani 1 1 d . . .
N3 N 0.6550(3) 0.5873(3) 0.7830(5) 0.028(3) Uani 1 1 d . . .
N4 N 0.6210(3) 0.3646(3) 0.7114(6) 0.028(3) Uani 1 1 d U . .
N5 N 0.7604(9) 0.4818(10) 0.8544(13) 0.110(9) Uani 1 1 d . . .
N6 N 0.7622(5) 0.2132(4) 0.7662(9) 0.051(4) Uani 1 1 d . . .
N7 N 0.8671(10) 0.2083(7) 0.6120(14) 0.120(12) Uani 1 1 d . . .
N8 N 0.8917(17) 0.2164(18) 0.817(3) 0.25(2) Uiso 1 1 d . . .
N9 N 0.5000 0.5456(6) 0.2500 0.053(6) Uani 1 2 d S . .
N10 N 0.513(2) 0.668(3) 0.368(2) 0.44(6) Uiso 1 1 d D . .
N11 N 0.2909(7) 0.8735(9) 0.5644(14) 0.153(15) Uani 1 1 d D . .
O1 O 0.6912(2) 0.3595(2) 0.6872(5) 0.025(2) Uani 1 1 d U . .
O2 O 0.6639(3) 0.3126(3) 0.7689(5) 0.036(3) Uani 1 1 d . . .
O3 O 0.7257(4) 0.3399(3) 0.9153(5) 0.052(4) Uani 1 1 d . . .
H3 H 0.7357 0.3564 0.8959 0.079 Uiso 1 1 calc R . .
O4 O 0.8115(4) 0.3428(4) 0.8983(6) 0.059(4) Uani 1 1 d . . .
O5 O 0.8550(3) 0.4130(3) 0.7100(5) 0.034(3) Uani 1 1 d . . .
O6 O 0.8908(3) 0.3708(3) 0.6309(6) 0.042(3) Uani 1 1 d . . .
O7 O 0.8498(4) 0.4091(4) 0.4732(6) 0.061(4) Uani 1 1 d . . .
H7 H 0.8390 0.4278 0.4603 0.092 Uiso 1 1 calc R . .
O8 O 0.8532(6) 0.4888(5) 0.4414(8) 0.100(6) Uani 1 1 d . . .
O9 O 0.7853(3) 0.5628(3) 0.6364(4) 0.035(3) Uani 1 1 d . . .
O10 O 0.8332(3) 0.6156(3) 0.6792(5) 0.042(3) Uani 1 1 d . . .
O11 O 0.8262(4) 0.5940(3) 0.8551(6) 0.051(3) Uani 1 1 d . . .
H11 H 0.8397 0.5974 0.8854 0.076 Uiso 1 1 calc R . .
O12 O 0.7517(4) 0.5936(4) 0.9127(6) 0.071(4) Uani 1 1 d . . .
O13 O 0.6517(3) 0.5141(3) 0.7892(4) 0.028(2) Uani 1 1 d . . .
O14 O 0.5939(3) 0.5528(3) 0.7385(6) 0.045(3) Uani 1 1 d . . .
O15 O 0.5987(3) 0.5162(3) 0.5717(6) 0.050(3) Uani 1 1 d . . .
H15A H 0.5958 0.5370 0.5572 0.075 Uiso 1 1 calc R . .
O16 O 0.6027(4) 0.4332(4) 0.5480(5) 0.051(3) Uani 1 1 d . . .
O17 O 0.7840(9) 0.5063(9) 0.8436(12) 0.180(15) Uani 1 1 d . . .
O18 O 0.7418(7) 0.4805(8) 0.8927(16) 0.146(10) Uani 1 1 d . . .
O19 O 0.7561(7) 0.4553(6) 0.8211(10) 0.118(8) Uani 1 1 d . . .
O20 O 0.7715(3) 0.2070(3) 0.7114(7) 0.053(4) Uani 1 1 d . . .
O21 O 0.7862(4) 0.2164(4) 0.8079(7) 0.070(5) Uani 1 1 d . . .
O22 O 0.7304(5) 0.2133(4) 0.7780(7) 0.077(5) Uani 1 1 d . . .
O23 O 0.8471(9) 0.1874(9) 0.6386(18) 0.198(19) Uani 1 1 d . . .
O24 O 0.8768(10) 0.2345(7) 0.6380(14) 0.182(13) Uani 1 1 d . . .
O25 O 0.8804(7) 0.2010(5) 0.5649(11) 0.139(9) Uani 1 1 d D . .
O26 O 0.8782(9) 0.2417(9) 0.8064(15) 0.166(11) Uiso 1 1 d . . .
O27 O 0.8979(9) 0.1880(9) 0.7789(17) 0.179(12) Uiso 1 1 d . . .
O28 O 0.9299(16) 0.2261(15) 0.835(3) 0.31(2) Uiso 1 1 d . . .
O29 O 0.5017(4) 0.5633(4) 0.2978(6) 0.063(4) Uani 1 1 d . . .
O30 O 0.5000 0.5103(9) 0.2500 0.103(9) Uani 1 2 d S . .
O31 O 0.4881(10) 0.6458(11) 0.3506(18) 0.207(14) Uiso 1 1 d D . .
O32 O 0.5233(12) 0.6771(12) 0.316(2) 0.26(2) Uiso 1 1 d D . .
O33 O 0.5173(15) 0.6795(15) 0.421(2) 0.31(2) Uiso 1 1 d D . .
O34 O 0.3159(6) 0.8615(6) 0.5320(11) 0.123(7) Uiso 1 1 d D . .
O35 O 0.2668(11) 0.8508(12) 0.580(2) 0.31(3) Uiso 1 1 d D . .
O36 O 0.293(2) 0.9048(14) 0.586(5) 0.66(9) Uiso 1 1 d D . .
O37 O 0.7732(7) 0.5174(12) 1.0115(18) 0.25(2) Uani 1 1 d . . .
C1 C 0.7445(4) 0.3892(4) 0.7145(7) 0.029(3) Uani 1 1 d . . .
H1A H 0.7668 0.3799 0.6976 0.043 Uiso 1 1 calc R . .
H1B H 0.7502 0.4008 0.7529 0.043 Uiso 1 1 calc R . .
H1C H 0.7333 0.4071 0.6872 0.043 Uiso 1 1 calc R . .
C2 C 0.7194(4) 0.3594(4) 0.7228(6) 0.029(4) Uani 1 1 d . . .
C3 C 0.7260(4) 0.3349(4) 0.7709(6) 0.026(3) Uani 1 1 d . . .
C4 C 0.6959(4) 0.3149(4) 0.7930(8) 0.037(4) Uani 1 1 d . . .
C5 C 0.7003(4) 0.2938(4) 0.8506(7) 0.032(4) Uani 1 1 d . . .
H5A H 0.7028 0.2677 0.8411 0.038 Uiso 1 1 calc R . .
H5B H 0.6780 0.2969 0.8734 0.038 Uiso 1 1 calc R . .
C6 C 0.7344(5) 0.3060(5) 0.8914(7) 0.038(4) Uani 1 1 d . . .
C7 C 0.7647(4) 0.3054(4) 0.8523(6) 0.027(3) Uani 1 1 d . . .
H7A H 0.7663 0.2805 0.8345 0.032 Uiso 1 1 calc R . .
C8 C 0.7621(5) 0.3336(5) 0.8005(8) 0.042(5) Uani 1 1 d . . .
H8 H 0.7669 0.3581 0.8183 0.051 Uiso 1 1 calc R . .
C9 C 0.8233(4) 0.3457(4) 0.7556(6) 0.028(3) Uani 1 1 d . . .
H9 H 0.8261 0.3660 0.7816 0.033 Uiso 1 1 calc R . .
C10 C 0.7916(4) 0.3260(4) 0.7587(6) 0.031(4) Uani 1 1 d . . .
C11 C 0.7891(6) 0.2954(5) 0.7176(9) 0.051(5) Uani 1 1 d . . .
H11A H 0.7684 0.2801 0.7168 0.062 Uiso 1 1 calc R . .
C12 C 0.8159(5) 0.2890(5) 0.6814(7) 0.040(4) Uani 1 1 d . . .
H12 H 0.8139 0.2695 0.6538 0.048 Uiso 1 1 calc R . .
C13 C 0.8466(4) 0.3101(4) 0.6833(7) 0.031(4) Uani 1 1 d . . .
H13 H 0.8659 0.3043 0.6581 0.037 Uiso 1 1 calc R . .
C14 C 0.7343(5) 0.2779(4) 0.9427(7) 0.039(4) Uani 1 1 d . . .
H14A H 0.7491 0.2870 0.9766 0.059 Uiso 1 1 calc R . .
H14B H 0.7444 0.2549 0.9290 0.059 Uiso 1 1 calc R . .
H14C H 0.7094 0.2740 0.9550 0.059 Uiso 1 1 calc R . .
C15 C 0.8009(5) 0.3132(6) 0.8876(8) 0.047(5) Uani 1 1 d . . .
C16 C 0.8218(8) 0.2796(7) 0.9071(12) 0.100(11) Uani 1 1 d . . .
H16A H 0.8288 0.2659 0.8719 0.150 Uiso 1 1 calc R . .
H16B H 0.8065 0.2644 0.9317 0.150 Uiso 1 1 calc R . .
H16C H 0.8436 0.2868 0.9303 0.150 Uiso 1 1 calc R . .
C17 C 0.8188(5) 0.4593(5) 0.6704(9) 0.050(5) Uani 1 1 d . . .
H17A H 0.8046 0.4530 0.7050 0.075 Uiso 1 1 calc R . .
H17B H 0.8031 0.4583 0.6343 0.075 Uiso 1 1 calc R . .
H17C H 0.8286 0.4839 0.6754 0.075 Uiso 1 1 calc R . .
C18 C 0.8495(4) 0.4327(5) 0.6652(8) 0.040(4) Uani 1 1 d . . .
C19 C 0.8693(4) 0.4306(4) 0.6109(7) 0.033(4) Uani 1 1 d . . .
C20 C 0.8861(5) 0.3988(5) 0.5947(8) 0.043(5) Uani 1 1 d . . .
C21 C 0.9014(6) 0.3915(5) 0.5360(8) 0.049(5) Uani 1 1 d . . .
H21A H 0.8953 0.3663 0.5240 0.058 Uiso 1 1 calc R . .
H21B H 0.9282 0.3932 0.5398 0.058 Uiso 1 1 calc R . .
C22 C 0.8876(6) 0.4177(6) 0.4864(8) 0.053(5) Uani 1 1 d . . .
C23 C 0.8902(5) 0.4567(5) 0.5127(9) 0.050(5) Uani 1 1 d . . .
H23 H 0.9157 0.4602 0.5282 0.060 Uiso 1 1 calc R . .
C24 C 0.8658(5) 0.4617(5) 0.5643(7) 0.037(4) Uani 1 1 d . . .
H24 H 0.8402 0.4618 0.5481 0.044 Uiso 1 1 calc R . .
C25 C 0.8496(5) 0.5267(5) 0.5847(7) 0.042(4) Uani 1 1 d . . .
H25 H 0.8271 0.5226 0.5640 0.050 Uiso 1 1 calc R . .
C26 C 0.8732(4) 0.4985(5) 0.5921(7) 0.035(4) Uani 1 1 d . . .
C27 C 0.9076(5) 0.5045(5) 0.6207(7) 0.042(4) Uani 1 1 d . . .
H27 H 0.9254 0.4860 0.6253 0.050 Uiso 1 1 calc R . .
C28 C 0.9133(5) 0.5412(6) 0.6422(8) 0.053(5) Uani 1 1 d . . .
H28 H 0.9353 0.5466 0.6636 0.063 Uiso 1 1 calc R . .
C29 C 0.8895(5) 0.5671(5) 0.6334(8) 0.039(4) Uani 1 1 d . . .
H29 H 0.8952 0.5910 0.6467 0.047 Uiso 1 1 calc R . .
C30 C 0.9121(7) 0.4124(5) 0.4312(9) 0.064(6) Uani 1 1 d . . .
H30A H 0.9085 0.3879 0.4150 0.096 Uiso 1 1 calc R . .
H30B H 0.9376 0.4157 0.4436 0.096 Uiso 1 1 calc R . .
H30C H 0.9054 0.4303 0.4005 0.096 Uiso 1 1 calc R . .
C31 C 0.8836(7) 0.4836(6) 0.4649(9) 0.060(6) Uani 1 1 d . . .
C32 C 0.9120(9) 0.5063(8) 0.4456(16) 0.124(14) Uani 1 1 d . . .
H32A H 0.9094 0.5099 0.4024 0.185 Uiso 1 1 calc R . .
H32B H 0.9354 0.4948 0.4553 0.185 Uiso 1 1 calc R . .
H32C H 0.9108 0.5299 0.4657 0.185 Uiso 1 1 calc R . .
C33 C 0.7493(5) 0.5333(4) 0.7060(7) 0.039(4) Uani 1 1 d . . .
H33A H 0.7349 0.5408 0.7397 0.058 Uiso 1 1 calc R . .
H33B H 0.7647 0.5126 0.7177 0.058 Uiso 1 1 calc R . .
H33C H 0.7330 0.5262 0.6726 0.058 Uiso 1 1 calc R . .
C34 C 0.7732(4) 0.5649(4) 0.6870(8) 0.034(4) Uani 1 1 d . . .
C35 C 0.7823(4) 0.5939(4) 0.7310(7) 0.026(3) Uani 1 1 d . . .
C36 C 0.8130(4) 0.6149(5) 0.7253(8) 0.038(4) Uani 1 1 d . . .
C37 C 0.8268(5) 0.6377(4) 0.7747(7) 0.034(4) Uani 1 1 d . . .
H37A H 0.8206 0.6634 0.7658 0.040 Uiso 1 1 calc R . .
H37B H 0.8536 0.6358 0.7772 0.040 Uiso 1 1 calc R . .
C38 C 0.8118(5) 0.6276(4) 0.8350(8) 0.040(4) Uani 1 1 d . . .
C39 C 0.7708(4) 0.6267(4) 0.8288(7) 0.031(4) Uani 1 1 d . . .
H39 H 0.7624 0.6501 0.8103 0.037 Uiso 1 1 calc R . .
C40 C 0.7586(4) 0.5952(4) 0.7867(6) 0.031(4) Uani 1 1 d . . .
H40 H 0.7611 0.5717 0.8087 0.037 Uiso 1 1 calc R . .
C41 C 0.6921(4) 0.5817(4) 0.7945(7) 0.028(3) Uani 1 1 d . . .
H41 H 0.6991 0.5628 0.8215 0.034 Uiso 1 1 calc R . .
C42 C 0.7191(5) 0.6014(4) 0.7698(7) 0.033(4) Uani 1 1 d . . .
C43 C 0.7092(5) 0.6273(4) 0.7272(8) 0.040(4) Uani 1 1 d . . .
H43 H 0.7273 0.6388 0.7049 0.048 Uiso 1 1 calc R . .
C44 C 0.6738(4) 0.6361(4) 0.7175(7) 0.034(4) Uani 1 1 d . . .
H44 H 0.6668 0.6565 0.6938 0.041 Uiso 1 1 calc R . .
C45 C 0.6472(5) 0.6135(4) 0.7442(7) 0.036(4) Uani 1 1 d . . .
H45 H 0.6224 0.6176 0.7334 0.043 Uiso 1 1 calc R . .
C46 C 0.8230(6) 0.6581(5) 0.8806(9) 0.058(6) Uani 1 1 d . . .
H46C H 0.8098 0.6548 0.9173 0.087 Uiso 1 1 calc R . .
H46D H 0.8170 0.6820 0.8634 0.087 Uiso 1 1 calc R . .
H46E H 0.8491 0.6568 0.8896 0.087 Uiso 1 1 calc R . .
C47 C 0.7541(5) 0.6232(4) 0.8861(7) 0.030(4) Uani 1 1 d . . .
C48 C 0.7347(6) 0.6551(5) 0.9122(10) 0.056(5) Uani 1 1 d . . .
H48C H 0.7105 0.6575 0.8929 0.085 Uiso 1 1 calc R . .
H48D H 0.7486 0.6773 0.9058 0.085 Uiso 1 1 calc R . .
H48E H 0.7321 0.6513 0.9551 0.085 Uiso 1 1 calc R . .
C49 C 0.6748(4) 0.4681(5) 0.7333(8) 0.040(4) Uani 1 1 d . . .
H49A H 0.6945 0.4720 0.7630 0.060 Uiso 1 1 calc R . .
H49B H 0.6838 0.4723 0.6934 0.060 Uiso 1 1 calc R . .
H49C H 0.6659 0.4431 0.7363 0.060 Uiso 1 1 calc R . .
C50 C 0.6455(4) 0.4932(4) 0.7440(6) 0.028(3) Uani 1 1 d . . .
C51 C 0.6148(5) 0.4955(5) 0.7057(8) 0.044(4) Uani 1 1 d . . .
C52 C 0.5910(4) 0.5244(5) 0.7044(8) 0.036(4) Uani 1 1 d . . .
C53 C 0.5623(4) 0.5287(5) 0.6568(8) 0.039(4) Uani 1 1 d . . .
H53A H 0.5606 0.5547 0.6457 0.047 Uiso 1 1 calc R . .
H53B H 0.5387 0.5216 0.6731 0.047 Uiso 1 1 calc R . .
C54 C 0.5685(5) 0.5063(4) 0.6007(8) 0.039(4) Uani 1 1 d . . .
C55 C 0.5723(5) 0.4657(4) 0.6212(6) 0.032(4) Uani 1 1 d U . .
H55 H 0.5507 0.4594 0.6448 0.039 Uiso 1 1 calc R . .
C56 C 0.6076(4) 0.4632(4) 0.6641(6) 0.022(3) Uani 1 1 d . . .
H56 H 0.6290 0.4607 0.6383 0.027 Uiso 1 1 calc R . .
C57 C 0.6219(4) 0.3956(4) 0.6813(6) 0.023(3) Uani 1 1 d . . .
H57 H 0.6354 0.3964 0.6461 0.028 Uiso 1 1 calc R . .
C58 C 0.6039(4) 0.4271(4) 0.6989(7) 0.027(3) Uani 1 1 d . . .
C59 C 0.5834(4) 0.4242(5) 0.7493(7) 0.032(4) Uani 1 1 d . . .
H59 H 0.5704 0.4445 0.7632 0.038 Uiso 1 1 calc R . .
C60 C 0.5822(5) 0.3924(5) 0.7781(8) 0.048(5) Uani 1 1 d . . .
H60 H 0.5685 0.3908 0.8131 0.058 Uiso 1 1 calc R . .
C61 C 0.5992(5) 0.3633(5) 0.7594(7) 0.038(4) Uani 1 1 d . . .
H61 H 0.5963 0.3410 0.7798 0.045 Uiso 1 1 calc R . .
C62 C 0.5326(4) 0.5078(5) 0.5595(8) 0.045(4) Uani 1 1 d . . .
H62A H 0.5276 0.5330 0.5478 0.067 Uiso 1 1 calc R . .
H62B H 0.5122 0.4983 0.5815 0.067 Uiso 1 1 calc R . .
H62C H 0.5359 0.4930 0.5238 0.067 Uiso 1 1 calc R . .
C63 C 0.5747(5) 0.4390(4) 0.5711(7) 0.03