####################################################################### 
# 
# This file contains crystal structure data downloaded from the 
# Cambridge Structural Database (CSD) hosted by the Cambridge 
# Crystallographic Data Centre (CCDC).
# 
# Full information about CCDC data access policies and citation 
# guidelines are available at http://www.ccdc.cam.ac.uk/access/V1 
# 
# Audit and citation data items may have been added by the CCDC. 
# Please retain this information to preserve the provenance of 
# this file and to allow appropriate attribution of the data. 
# 
#######################################################################

data_mm
_audit_block_doi                 10.5517/ccvkh84
_database_code_depnum_ccdc_archive 'CCDC 791376'
_audit_update_record             
;
2010-08-31 deposited with the CCDC.	2024-07-13 downloaded from the CCDC.
;
#TrackingRef 'mm.cif'


_audit_creation_method           SHELXL-97
_chemical_name_systematic        
;
?
;
_chemical_name_common            ?
_chemical_melting_point          ?
_chemical_formula_moiety         'C6 H13 N11 O Zn'
_chemical_formula_sum            'C6 H13 N11 O Zn'
_chemical_formula_weight         320.64

loop_
_atom_type_symbol
_atom_type_description
_atom_type_scat_dispersion_real
_atom_type_scat_dispersion_imag
_atom_type_scat_source
C C 0.0033 0.0016 'International Tables Vol C Tables 4.2.6.8 and 6.1.1.4'
H H 0.0000 0.0000 'International Tables Vol C Tables 4.2.6.8 and 6.1.1.4'
N N 0.0061 0.0033 'International Tables Vol C Tables 4.2.6.8 and 6.1.1.4'
O O 0.0106 0.0060 'International Tables Vol C Tables 4.2.6.8 and 6.1.1.4'
Zn Zn 0.2839 1.4301 'International Tables Vol C Tables 4.2.6.8 and 6.1.1.4'

_symmetry_cell_setting           monoclinic
_symmetry_space_group_name_H-M   Cc
_symmetry_space_group_name_Hall  C-2yc

loop_
_symmetry_equiv_pos_as_xyz
'x, y, z'
'x, -y, z+1/2'
'x+1/2, y+1/2, z'
'x+1/2, -y+1/2, z+1/2'

_cell_length_a                   13.459(2)
_cell_length_b                   15.118(2)
_cell_length_c                   8.959(2)
_cell_angle_alpha                90.000(2)
_cell_angle_beta                 131.571(2)
_cell_angle_gamma                90.000(2)
_cell_volume                     1363.8(4)
_cell_formula_units_Z            4
_cell_measurement_temperature    293(2)
_cell_measurement_reflns_used    ?
_cell_measurement_theta_min      ?
_cell_measurement_theta_max      ?

_exptl_crystal_description       block
_exptl_crystal_colour            colourless
_exptl_crystal_size_max          0.22
_exptl_crystal_size_mid          0.18
_exptl_crystal_size_min          0.15
_exptl_crystal_density_meas      ?
_exptl_crystal_density_diffrn    1.562
_exptl_crystal_density_method    'not measured'
_exptl_crystal_F_000             656
_exptl_absorpt_coefficient_mu    1.814
_exptl_absorpt_correction_type   multi-scan
_exptl_absorpt_correction_T_min  0.4801
_exptl_absorpt_correction_T_max  0.7124
_exptl_absorpt_process_details   'SADABS(Sheldrick, 1996)'

_exptl_special_details           
;
?
;

_diffrn_ambient_temperature      293(2)
_diffrn_radiation_wavelength     0.71069
_diffrn_radiation_type           MoK\a
_diffrn_radiation_source         'fine-focus sealed tube'
_diffrn_radiation_monochromator  graphite
_diffrn_measurement_device_type  'Bruker APEX CCD area-detector'
_diffrn_measurement_method       '\w scans'
_diffrn_detector_area_resol_mean ?
_diffrn_standards_number         ?
_diffrn_standards_interval_count ?
_diffrn_standards_interval_time  ?
_diffrn_standards_decay_%        ?
_diffrn_reflns_number            3323
_diffrn_reflns_av_R_equivalents  0.0224
_diffrn_reflns_av_sigmaI/netI    0.0392
_diffrn_reflns_limit_h_min       -16
_diffrn_reflns_limit_h_max       15
_diffrn_reflns_limit_k_min       -17
_diffrn_reflns_limit_k_max       15
_diffrn_reflns_limit_l_min       -10
_diffrn_reflns_limit_l_max       10
_diffrn_reflns_theta_min         2.43
_diffrn_reflns_theta_max         25.00
_reflns_number_total             2096
_reflns_number_gt                2044
_reflns_threshold_expression     >2sigma(I)

_computing_data_collection       'SMART (Bruker, 1997)'
_computing_cell_refinement       'SMART (Bruker, 1997)'
_computing_data_reduction        SAINT
_computing_structure_solution    'SHELXS-97(Sheldrick, 1997)'
_computing_structure_refinement  'SHELXL-97 (Sheldrick, 1997)'
_computing_molecular_graphics    'SHELXTL-PLUS (Sheldrick, 1990)'
_computing_publication_material  SHELXL-97

_refine_special_details          
;
Refinement of F^2^ against ALL reflections. The weighted R-factor wR and
goodness of fit S are based on F^2^, conventional R-factors R are based
on F, with F set to zero for negative F^2^. The threshold expression of
F^2^ > 2sigma(F^2^) is used only for calculating R-factors(gt) etc. and is
not relevant to the choice of reflections for refinement. R-factors based
on F^2^ are statistically about twice as large as those based on F, and R-
factors based on ALL data will be even larger.
;

_refine_ls_structure_factor_coef Fsqd
_refine_ls_matrix_type           full
_refine_ls_weighting_scheme      calc
_refine_ls_weighting_details     
'calc w=1/[\s^2^(Fo^2^)+(0.0939P)^2^+4.7508P] where P=(Fo^2^+2Fc^2^)/3'
_atom_sites_solution_primary     direct
_atom_sites_solution_secondary   difmap
_atom_sites_solution_hydrogens   geom
_refine_ls_hydrogen_treatment    constr
_refine_ls_extinction_method     none
_refine_ls_extinction_coef       ?
_refine_ls_abs_structure_details 'Flack H D (1983), Acta Cryst. A39, 876-881'
_refine_ls_abs_structure_Flack   0.90(4)
_refine_ls_number_reflns         2096
_refine_ls_number_parameters     143
_refine_ls_number_restraints     2
_refine_ls_R_factor_all          0.0496
_refine_ls_R_factor_gt           0.0486
_refine_ls_wR_factor_ref         0.1399
_refine_ls_wR_factor_gt          0.1389
_refine_ls_goodness_of_fit_ref   1.064
_refine_ls_restrained_S_all      1.064
_refine_ls_shift/su_max          0.000
_refine_ls_shift/su_mean         0.000

loop_
_atom_site_label
_atom_site_type_symbol
_atom_site_fract_x
_atom_site_fract_y
_atom_site_fract_z
_atom_site_U_iso_or_equiv
_atom_site_adp_type
_atom_site_occupancy
_atom_site_symmetry_multiplicity
_atom_site_calc_flag
_atom_site_refinement_flags
_atom_site_disorder_assembly
_atom_site_disorder_group
C1 C 0.9257(8) 0.2723(5) 0.8566(14) 0.052(2) Uani 1 1 d . . .
C2 C 0.7503(7) 0.0003(4) 0.9676(11) 0.0330(15) Uani 1 1 d . . .
C3 C 0.666(2) 0.2086(13) 0.205(3) 0.130(6) Uiso 1 1 d . . .
H3A H 0.7006 0.1630 0.1752 0.195 Uiso 1 1 calc R . .
H3B H 0.5712 0.2046 0.1138 0.195 Uiso 1 1 calc R . .
H3C H 0.7019 0.2014 0.3391 0.195 Uiso 1 1 calc R . .
O1 O 0.5993(16) 0.3560(8) 0.260(2) 0.129(5) Uiso 1 1 d . . .
N11 N 0.706(2) 0.2980(7) 0.184(3) 0.103(3) Uiso 1 1 d . . .
C5 C 0.716(2) 0.4517(9) 0.219(3) 0.109(5) Uiso 1 1 d . . .
H5A H 0.6755 0.4921 0.2486 0.163 Uiso 1 1 calc R . .
H5B H 0.6869 0.4656 0.0913 0.163 Uiso 1 1 calc R . .
H5C H 0.8106 0.4568 0.3198 0.163 Uiso 1 1 calc R . .
N1 N 0.8593(10) 0.3375(7) 0.7170(18) 0.081(3) Uani 1 1 d . . .
H1A H 0.7791 0.3288 0.6075 0.097 Uiso 1 1 calc R . .
H1B H 0.8975 0.3874 0.7382 0.097 Uiso 1 1 calc R . .
N2 N 0.5560(6) 0.2259(4) 0.5210(10) 0.0327(14) Uani 1 1 d . . .
N3 N 0.5847(7) 0.3086(5) 0.5977(15) 0.071(3) Uani 1 1 d . . .
N4 N 0.9789(11) 0.1458(5) 0.995(2) 0.090(4) Uani 1 1 d . . .
N5 N 0.8756(6) 0.1939(4) 0.8375(11) 0.0324(14) Uani 1 1 d . . .
N6 N 0.8800(8) -0.0100(7) 1.0766(18) 0.089(4) Uani 1 1 d . . .
H6A H 0.9218 -0.0513 1.1647 0.107 Uiso 1 1 calc R . .
H6B H 0.9222 0.0246 1.0590 0.107 Uiso 1 1 calc R . .
N7 N 0.6782(6) 0.0610(5) 0.8263(12) 0.0401(17) Uani 1 1 d . . .
N8 N 0.5505(9) 0.0533(6) 0.7571(16) 0.074(3) Uani 1 1 d . . .
N9 N 0.5495(8) -0.0126(6) 0.8445(15) 0.073(3) Uani 1 1 d . . .
N10 N 0.6734(7) 0.0482(5) 0.4793(11) 0.0414(16) Uani 1 1 d . . .
C6 C 0.679(2) 0.3678(12) 0.217(3) 0.119(6) Uiso 1 1 d . . .
C4 C 0.794(2) 0.2921(17) 0.146(4) 0.161(8) Uiso 1 1 d . . .
H4A H 0.8031 0.2314 0.1256 0.242 Uiso 1 1 calc R . .
H4B H 0.8794 0.3154 0.2577 0.242 Uiso 1 1 calc R . .
H4C H 0.7581 0.3257 0.0284 0.242 Uiso 1 1 calc R . .
Zn1 Zn 0.69885(6) 0.13717(3) 0.66665(7) 0.0281(2) Uani 1 1 d . . .

loop_
_atom_site_aniso_label
_atom_site_aniso_U_11
_atom_site_aniso_U_22
_atom_site_aniso_U_33
_atom_site_aniso_U_23
_atom_site_aniso_U_13
_atom_site_aniso_U_12
C1 0.029(4) 0.038(4) 0.057(6) 0.010(3) 0.015(4) 0.003(3)
C2 0.024(3) 0.031(3) 0.040(4) 0.012(3) 0.019(3) 0.004(3)
N1 0.042(5) 0.060(5) 0.088(7) 0.025(5) 0.021(5) -0.012(4)
N2 0.022(3) 0.026(3) 0.041(4) 0.001(3) 0.017(3) -0.002(2)
N3 0.032(4) 0.036(4) 0.093(7) -0.014(4) 0.020(5) 0.005(3)
N4 0.043(6) 0.029(4) 0.124(10) 0.017(5) 0.025(6) -0.004(3)
N5 0.016(3) 0.028(3) 0.035(3) -0.001(3) 0.010(3) -0.001(2)
N6 0.034(4) 0.084(7) 0.108(8) 0.075(6) 0.030(5) 0.009(4)
N7 0.016(3) 0.047(4) 0.047(4) 0.013(3) 0.016(3) 0.006(3)
N8 0.049(5) 0.076(5) 0.090(6) 0.042(5) 0.043(5) 0.003(4)
N9 0.048(5) 0.069(5) 0.083(7) 0.043(5) 0.035(5) 0.004(4)
N10 0.019(3) 0.050(4) 0.040(4) -0.012(3) 0.013(3) -0.004(3)
Zn1 0.0192(4) 0.0247(3) 0.0322(4) 0.0008(4) 0.0137(3) 0.0005(4)

_geom_special_details            
;
All esds (except the esd in the dihedral angle between two l.s. planes)
are estimated using the full covariance matrix. The cell esds are taken
into account individually in the estimation of esds in distances, angles
and torsion angles; correlations between esds in cell parameters are only
used when they are defined by crystal symmetry. An approximate (isotropic)
treatment of cell esds is used for estimating esds involving l.s. planes.
;

loop_
_geom_bond_atom_site_label_1
_geom_bond_atom_site_label_2
_geom_bond_distance
_geom_bond_site_symmetry_2
_geom_bond_publ_flag
C1 N5 1.319(11) . ?
C1 N2 1.348(11) 4 ?
C1 N1 1.360(12) . ?
C2 N10 1.328(10) 2 ?
C2 N7 1.325(10) . ?
C2 N6 1.328(11) . ?
C3 N11 1.51(2) . ?
C3 H3A 0.9600 . ?
C3 H3B 0.9600 . ?
C3 H3C 0.9600 . ?
O1 C6 1.37(2) . ?
N11 C6 1.22(2) . ?
N11 C4 1.44(3) . ?
C5 C6 1.36(2) . ?
C5 H5A 0.9600 . ?
C5 H5B 0.9600 . ?
C5 H5C 0.9600 . ?
N1 H1A 0.8600 . ?
N1 H1B 0.8600 . ?
N2 C1 1.348(11) 4_454 ?
N2 N3 1.353(10) . ?
N2 Zn1 1.968(6) . ?
N3 N4 1.270(12) 4_454 ?
N4 N3 1.270(12) 4 ?
N4 N5 1.361(13) . ?
N5 Zn1 1.976(6) . ?
N6 H6A 0.8600 . ?
N6 H6B 0.8600 . ?
N7 N8 1.393(11) . ?
N7 Zn1 1.994(7) . ?
N8 N9 1.272(11) . ?
N9 N10 1.362(10) 2 ?
N10 C2 1.328(10) 2_554 ?
N10 N9 1.362(10) 2_554 ?
N10 Zn1 1.996(8) . ?
C4 H4A 0.9600 . ?
C4 H4B 0.9600 . ?
C4 H4C 0.9600 . ?

loop_
_geom_angle_atom_site_label_1
_geom_angle_atom_site_label_2
_geom_angle_atom_site_label_3
_geom_angle
_geom_angle_site_symmetry_1
_geom_angle_site_symmetry_3
_geom_angle_publ_flag
N5 C1 N2 110.0(7) . 4 ?
N5 C1 N1 124.4(9) . . ?
N2 C1 N1 125.1(8) 4 . ?
N10 C2 N7 110.1(6) 2 . ?
N10 C2 N6 126.2(7) 2 . ?
N7 C2 N6 123.8(7) . . ?
N11 C3 H3A 109.5 . . ?
N11 C3 H3B 109.5 . . ?
H3A C3 H3B 109.5 . . ?
N11 C3 H3C 109.5 . . ?
H3A C3 H3C 109.5 . . ?
H3B C3 H3C 109.5 . . ?
C6 N11 C4 122.7(19) . . ?
C6 N11 C3 124(2) . . ?
C4 N11 C3 112.9(16) . . ?
C6 C5 H5A 109.5 . . ?
C6 C5 H5B 109.5 . . ?
H5A C5 H5B 109.5 . . ?
C6 C5 H5C 109.5 . . ?
H5A C5 H5C 109.5 . . ?
H5B C5 H5C 109.5 . . ?
C1 N1 H1A 120.0 . . ?
C1 N1 H1B 120.0 . . ?
H1A N1 H1B 120.0 . . ?
C1 N2 N3 105.3(7) 4_454 . ?
C1 N2 Zn1 136.7(6) 4_454 . ?
N3 N2 Zn1 118.0(5) . . ?
N4 N3 N2 109.2(8) 4_454 . ?
N3 N4 N5 110.1(7) 4 . ?
C1 N5 N4 105.3(7) . . ?
C1 N5 Zn1 137.7(6) . . ?
N4 N5 Zn1 116.6(5) . . ?
C2 N6 H6A 120.0 . . ?
C2 N6 H6B 120.0 . . ?
H6A N6 H6B 120.0 . . ?
C2 N7 N8 105.8(7) . . ?
C2 N7 Zn1 136.3(5) . . ?
N8 N7 Zn1 116.6(6) . . ?
N9 N8 N7 107.8(8) . . ?
N8 N9 N10 110.4(8) . 2 ?
C2 N10 N9 105.8(7) 2_554 2_554 ?
C2 N10 Zn1 137.0(6) 2_554 . ?
N9 N10 Zn1 116.0(5) 2_554 . ?
N11 C6 C5 131(2) . . ?
N11 C6 O1 111.9(18) . . ?
C5 C6 O1 117.6(17) . . ?
N11 C4 H4A 109.5 . . ?
N11 C4 H4B 109.5 . . ?
H4A C4 H4B 109.5 . . ?
N11 C4 H4C 109.5 . . ?
H4A C4 H4C 109.5 . . ?
H4B C4 H4C 109.5 . . ?
N2 Zn1 N5 111.3(3) . . ?
N2 Zn1 N7 109.2(3) . . ?
N5 Zn1 N7 111.3(3) . . ?
N2 Zn1 N10 110.8(3) . . ?
N5 Zn1 N10 113.0(3) . . ?
N7 Zn1 N10 100.7(3) . . ?

loop_
_geom_torsion_atom_site_label_1
_geom_torsion_atom_site_label_2
_geom_torsion_atom_site_label_3
_geom_torsion_atom_site_label_4
_geom_torsion
_geom_torsion_site_symmetry_1
_geom_torsion_site_symmetry_2
_geom_torsion_site_symmetry_3
_geom_torsion_site_symmetry_4
_geom_torsion_publ_flag
C1 N2 N3 N4 3.9(14) 4_454 . . 4_454 ?
Zn1 N2 N3 N4 -174.1(10) . . . 4_454 ?
N2 C1 N5 N4 -0.3(12) 4 . . . ?
N1 C1 N5 N4 172.0(13) . . . . ?
N2 C1 N5 Zn1 172.4(6) 4 . . . ?
N1 C1 N5 Zn1 -15.4(17) . . . . ?
N3 N4 N5 C1 -2.2(15) 4 . . . ?
N3 N4 N5 Zn1 -176.7(9) 4 . . . ?
N10 C2 N7 N8 4.6(11) 2 . . . ?
N6 C2 N7 N8 -176.6(11) . . . . ?
N10 C2 N7 Zn1 -161.2(6) 2 . . . ?
N6 C2 N7 Zn1 17.6(15) . . . . ?
C2 N7 N8 N9 -4.7(13) . . . . ?
Zn1 N7 N8 N9 164.3(8) . . . . ?
N7 N8 N9 N10 3.1(13) . . . 2 ?
C4 N11 C6 C5 3(4) . . . . ?
C3 N11 C6 C5 175(2) . . . . ?
C4 N11 C6 O1 -176.7(19) . . . . ?
C3 N11 C6 O1 -5(3) . . . . ?
C1 N2 Zn1 N5 159.5(8) 4_454 . . . ?
N3 N2 Zn1 N5 -23.4(8) . . . . ?
C1 N2 Zn1 N7 -77.2(10) 4_454 . . . ?
N3 N2 Zn1 N7 99.9(7) . . . . ?
C1 N2 Zn1 N10 32.9(10) 4_454 . . . ?
N3 N2 Zn1 N10 -150.0(7) . . . . ?
C1 N5 Zn1 N2 -15.2(11) . . . . ?
N4 N5 Zn1 N2 156.9(9) . . . . ?
C1 N5 Zn1 N7 -137.3(10) . . . . ?
N4 N5 Zn1 N7 34.8(9) . . . . ?
C1 N5 Zn1 N10 110.2(10) . . . . ?
N4 N5 Zn1 N10 -77.7(9) . . . . ?
C2 N7 Zn1 N2 -169.5(8) . . . . ?
N8 N7 Zn1 N2 25.8(8) . . . . ?
C2 N7 Zn1 N5 -46.3(9) . . . . ?
N8 N7 Zn1 N5 149.1(7) . . . . ?
C2 N7 Zn1 N10 73.8(9) . . . . ?
N8 N7 Zn1 N10 -90.9(7) . . . . ?
C2 N10 Zn1 N2 146.9(9) 2_554 . . . ?
N9 N10 Zn1 N2 -48.5(8) 2_554 . . . ?
C2 N10 Zn1 N5 21.3(10) 2_554 . . . ?
N9 N10 Zn1 N5 -174.1(7) 2_554 . . . ?
C2 N10 Zn1 N7 -97.6(9) 2_554 . . . ?
N9 N10 Zn1 N7 67.0(8) 2_554 . . . ?

_diffrn_measured_fraction_theta_max 0.997
_diffrn_reflns_theta_full        25.00
_diffrn_measured_fraction_theta_full 0.997
_refine_diff_density_max         0.709
_refine_diff_density_min         -0.600
_refine_diff_density_rms         0.108


