####################################################################### 
# 
# This file contains crystal structure data downloaded from the 
# Cambridge Structural Database (CSD) hosted by the Cambridge 
# Crystallographic Data Centre (CCDC).
# 
# Full information about CCDC data access policies and citation 
# guidelines are available at http://www.ccdc.cam.ac.uk/access/V1 
# 
# Audit and citation data items may have been added by the CCDC. 
# Please retain this information to preserve the provenance of 
# this file and to allow appropriate attribution of the data. 
# 
#######################################################################

data_Compound2
_audit_block_doi                 10.5517/ccw0nfy
_database_code_depnum_ccdc_archive 'CCDC 804990'
loop_
_citation_id
_citation_doi
_citation_year
1 10.1039/c1sc00136a 2011
_audit_update_record             
;
2010-12-16 deposited with the CCDC.	2024-07-13 downloaded from the CCDC.
;

_chemical_name_systematic        
;
?
;
_chemical_name_common            ?
_chemical_formula_moiety         ?
_chemical_formula_structural     'Cu3 (C15 H9 N6)2 (C1 H4 O)8 (H2 O)10'
_chemical_formula_analytical     ?
_chemical_formula_iupac          ?
_chemical_formula_sum            'C38 H70 Cu3 N12 O18'
_chemical_formula_weight         1173.7
_chemical_melting_point          ?
_chemical_compound_source        synthesis

loop_
_atom_type_symbol
_atom_type_description
# _atom_type_scat_dispersion_real
# _atom_type_scat_dispersion_imag
_atom_type_scat_source

C C 'International Tables for Crystallography (Vol. IV)'
H H 'International Tables for Crystallography (Vol. IV)'
Cu Cu 'International Tables for Crystallography (Vol. IV)'
N N 'International Tables for Crystallography (Vol. IV)'
O O 'International Tables for Crystallography (Vol. IV)'

#==============================================================================

# 1.5. POWDER SPECIMEN AND CRYSTAL DATA

_space_group_crystal_system      cubic
_space_group_name_H-M_alt        Pm-3m
_space_group_name_Hall           ?

loop_
_symmetry_equiv_pos_as_xyz
'-x, -y, -z'
'-x, -y, z'
'-x, -z, -y'
'-x, -z, y'
'-x, z, -y'
'-x, z, y'
'-x, y, -z'
'-x, y, z'
'-y, -x, -z'
'-y, -x, z'
'-y, -z, -x'
'-y, -z, x'
'-y, z, -x'
'-y, z, x'
'-y, x, -z'
'-y, x, z'
'-z, -x, -y'
'-z, -x, y'
'-z, -y, -x'
'-z, -y, x'
'-z, y, -x'
'-z, y, x'
'-z, x, -y'
'-z, x, y'
'z, -x, -y'
'z, -x, y'
'z, -y, -x'
'z, -y, x'
'z, y, -x'
'z, y, x'
'z, x, -y'
'z, x, y'
'y, -x, -z'
'y, -x, z'
'y, -z, -x'
'y, -z, x'
'y, z, -x'
'y, z, x'
'y, x, -z'
'y, x, z'
'x, -y, -z'
'x, -y, z'
'x, -z, -y'
'x, -z, y'
'x, z, -y'
'x, z, y'
'x, y, -z'
'x, y, z'

_cell_length_a                   18.80701(76)
_cell_length_b                   18.80701(76)
_cell_length_c                   18.80701(76)
_cell_angle_alpha                90
_cell_angle_beta                 90
_cell_angle_gamma                90
_cell_volume                     6652.11(81)
_cell_formula_units_Z            4
_cell_measurement_temperature    298(2)

_pd_calibration_special_details  
; ?
;
_cell_special_details            
; ?
;

_exptl_crystal_density_diffrn    1.13
_exptl_crystal_density_meas      ?
_exptl_crystal_density_method    'not measured'
_exptl_crystal_F_000             2452

# The next three fields give the specimen dimensions in mm. The equatorial
# plane contains the incident and diffracted beam.
_pd_spec_size_axial              15 # perpendicular to
# equatorial plane

_pd_spec_size_equat              18 # parallel to
# scattering vector
# in transmission

_pd_spec_size_thick              0.1 # parallel to
# scattering vector
# in reflection

# The next five fields are character fields that describe the specimen.

_pd_spec_mounting                
;
packed powder pellet
;
_pd_spec_mount_mode              reflection # options are 'reflection'
# or 'transmission'

_pd_spec_shape                   flat_sheet # options are 'cylinder',
# 'flat_sheet' or 'irregular'

_pd_char_particle_morphology     ?
_pd_char_colour                  brown # use ICDD colour descriptions



# The next four fields are normally only needed for transmission experiments.
_exptl_absorpt_coefficient_mu    ?
_exptl_absorpt_correction_type   ?
_exptl_absorpt_correction_T_min  ?
_exptl_absorpt_correction_T_max  ?

#==============================================================================

# 1.6. EXPERIMENTAL DATA

_exptl_special_details           
; ?
;

# This following item is used to identify the equipment used to record the
# powder pattern when the diffractogram was measured at a laboratory
# other than the authors' home institution, e.g. when neutron or synchrotron
# radiation is used.

_pd_instr_location               
; ?
;

_diffrn_ambient_temperature      298(2)
_diffrn_source_target            Cu
_diffrn_source_type              'sealed X-ray tube'
_diffrn_measurement_device_type  'Bruker AXS D8 Advance'
_diffrn_detector_type            'Bruker Lynxeye position linear PSD'
_pd_meas_scan_method             step # options are 'step', 'cont',
# 'tof', 'fixed' or
# 'disp' (= dispersive)
_pd_meas_special_details         
; ?
;

# The following six items are used for angular dispersive measurements only.

loop_
_diffrn_radiation_type
_diffrn_radiation_wavelength
CuK\a~1~ 1.54056
CuK\a~2~ 1.54439
_diffrn_radiation_monochromator  'Nickel filter'

# The following four items give details of the measured (not processed)
# powder pattern. Angles are in degrees.

_pd_meas_number_of_points        5001
_pd_meas_2theta_range_min        5
_pd_meas_2theta_range_max        105
_pd_meas_2theta_range_inc        0.02

# The following three items are used for time-of-flight measurements only.

_pd_instr_dist_src/spec          ?
_pd_instr_dist_spec/detc         ?
_pd_meas_2theta_fixed            ?

# The following fields are used to identify the programs used.

_computing_data_collection       'Bruker D8 Command'
_computing_cell_refinement       'Bruker TOPAS-R'
_computing_data_reduction        ?
_computing_structure_solution    'Bruker TOPAS-R'
_computing_structure_refinement  'Bruker TOPAS-R'
_computing_molecular_graphics    ?
_computing_publication_material  ?

#==============================================================================

# 1.7. REFINEMENT DATA

# Use the next field to give any special details about the fitting of the
# powder pattern.

_pd_proc_ls_special_details      
;

1) The use of a rigid body description for the organic ligand
does not allow the derivation of statistically meaningful s.u.'s
for its atoms.

S.u.'s are available only for the center of mass (X, Y, Z)

X, Y, Z 0.2756(2), 0.2756(2), 0.2756(2)
RY, RY, RZ 45, 45, 0

for the rigid body described by:

z_matrix H
z_matrix C1 H =r1;
z_matrix C2 C1 =r1; H 60
z_matrix H2 C2 =r2; C1 120 H 180
z_matrix C3 C1 =r3; C2 120 H 180
z_matrix C4 C3 =r4; C1 126 C2 0
z_matrix H4 C4 =r2; C3 126 C2 0
z_matrix N1 C4 =r4; C3 108 C1 180

r1 = 1.39
r2 = 0.95
r3 = 1.45
r4 = 1.36
H = Dummy atom representing the centre of mass
RY, RY, RZ = rotation angles of the rigid body

2) The difference Fourier map calculated with the Fcs of the framework alone
revealed that the solvent is highly disordered, either as guest molecules
within the octahedral cavities or one-dimensional channels, or covalently
bound to the metal ions. Thus, its electronic density was modeled by
allocating:(i) two dummy atoms at the centre of the cavities
(site [1/2, 1/2, 1/2]) and of the channels (site [1/2, 0, 0]) and
(ii) one dummy atom occupying, at a restrained distance,
the apical position of the square pyramidal stereochemistry of the
metal ions. The presence of disorder was taken into account by assigning
to the three dummy atoms a high isotropic thermal parameter.
Their site occupancy factors were allowed to refine up to the total
electron density of the solvent, as estimated from the elemental analysis.
The fractional coordinates of the dummy atoms are not provided.

;

# The next three items are given as text
_pd_proc_ls_profile_function     'fundamental parameters approach'
_pd_proc_ls_background_function  'Chebychev polynomial'
_pd_proc_ls_pref_orient_corr     ?
_pd_proc_ls_prof_R_factor        0.065
_pd_proc_ls_prof_wR_factor       0.103
_pd_proc_ls_prof_wR_expected     0.009

_refine_special_details          
; ?
;

_refine_ls_structure_factor_coef Inet
_refine_ls_matrix_type           fullcycle
#_refine_ls_weighting_scheme '1/[Y~i~]'
_refine_ls_hydrogen_treatment    ?
_refine_ls_extinction_method     none
_refine_ls_extinction_coef       ?
_refine_ls_number_parameters     13
_refine_ls_number_restraints     ?
_refine_ls_number_constraints    ?
# The following item is 'CHI squared'
_refine_ls_goodness_of_fit_all   ?

_refine_ls_restrained_S_all      ?
_refine_ls_restrained_S_obs      ?
_refine_ls_shift/su_max          .01
_refine_ls_shift/su_mean         ?


# The following four items apply to angular dispersive measurements.
# 2theta minimum, maximum and increment (in degrees) are for the
# intensities used in the refinement.
_pd_proc_2theta_range_min        5
_pd_proc_2theta_range_max        105
_pd_proc_2theta_range_inc        0.02

loop_
_pd_proc_wavelength
1.540562
1.544390

_pd_block_diffractogram_id       ? # The id used for the block
# containing the powder
# pattern profile (section 11).

# Give appropriate details in the next two text fields.
_pd_proc_info_excluded_regions   ?
_pd_proc_info_data_reduction     ?

#==============================================================================

# 1.8. ATOMIC COORDINATES AND DISPLACEMENT PARAMETERS

loop_
_atom_site_label
_atom_site_type_symbol
_atom_site_symmetry_multiplicity
_atom_site_fract_x
_atom_site_fract_y
_atom_site_fract_z
_atom_site_occupancy
_atom_site_B_iso_or_equiv
Cu Cu 12 0 0.38671(25) 0.5 1 2.35(21)
O1 O 12 0 0.5 0.74 1 4.34891
C1 C 24 0.3125443 0.2233287 0.3125443 1 4.34891
C2 C 48 0.3393267 0.2494594 0.2488076 0.5 4.34891
H2 H 48 0.3828878 0.2316003 0.230503 0.5 4.34891
C3 C 24 0.3510938 0.1688116 0.3510938 1 4.34891
C4 C 48 0.4137139 0.1387561 0.3309784 1 4.34891
H4 H 48 0.4398792 0.1497936 0.2892037 1 4.34891
N1 N 48 0.4322999 0.09012544 0.3811666 1 4.34891
