####################################################################### 
# 
# This file contains crystal structure data downloaded from the 
# Cambridge Structural Database (CSD) hosted by the Cambridge 
# Crystallographic Data Centre (CCDC).
# 
# Full information about CCDC data access policies and citation 
# guidelines are available at http://www.ccdc.cam.ac.uk/access/V1 
# 
# Audit and citation data items may have been added by the CCDC. 
# Please retain this information to preserve the provenance of 
# this file and to allow appropriate attribution of the data. 
# 
#######################################################################

data_p-1(2)
_audit_block_doi                 10.5517/ccw43vy
_database_code_depnum_ccdc_archive 'CCDC 808320'
loop_
_citation_id
_citation_doi
_citation_year
1 10.1002/ejic.201100227 2011
_audit_update_record             
;
2011-01-15 deposited with the CCDC.	2024-07-13 downloaded from the CCDC.
;

_audit_creation_method           SHELXL-97
_chemical_name_systematic        
;
?
;
_chemical_name_common            Zn2
_chemical_melting_point          'not measured'
_chemical_formula_moiety         'C64.50 H52.50 N10.50 O13.50 Zn3'
_chemical_formula_sum            'C64.50 H52.50 N10.50 O13.50 Zn3'
_chemical_formula_weight         1386.78

loop_
_atom_type_symbol
_atom_type_description
_atom_type_scat_dispersion_real
_atom_type_scat_dispersion_imag
_atom_type_scat_source
C C 0.0033 0.0016 'International Tables Vol C Tables 4.2.6.8 and 6.1.1.4'
H H 0.0000 0.0000 'International Tables Vol C Tables 4.2.6.8 and 6.1.1.4'
N N 0.0061 0.0033 'International Tables Vol C Tables 4.2.6.8 and 6.1.1.4'
O O 0.0106 0.0060 'International Tables Vol C Tables 4.2.6.8 and 6.1.1.4'
Zn Zn 0.2839 1.4301 'International Tables Vol C Tables 4.2.6.8 and 6.1.1.4'

_symmetry_cell_setting           Triclinic
_symmetry_space_group_name_H-M   'P-1 '

loop_
_symmetry_equiv_pos_as_xyz
'x, y, z'
'-x, -y, -z'

_cell_length_a                   15.224(3)
_cell_length_b                   15.259(3)
_cell_length_c                   18.059(4)
_cell_angle_alpha                91.84(3)
_cell_angle_beta                 96.69(3)
_cell_angle_gamma                98.28(3)
_cell_volume                     4117.8(14)
_cell_formula_units_Z            2
_cell_measurement_temperature    293(2)
_cell_measurement_reflns_used    20348
_cell_measurement_theta_min      1.14
_cell_measurement_theta_max      28.33


_exptl_crystal_description       block
_exptl_crystal_colour            red
_exptl_crystal_size_max          0.35
_exptl_crystal_size_mid          0.31
_exptl_crystal_size_min          0.27
_exptl_crystal_density_meas      'not measured'
_exptl_crystal_density_diffrn    1.118
_exptl_crystal_density_method    'not measured'
_exptl_crystal_F_000             1422
_exptl_absorpt_coefficient_mu    0.923
_exptl_absorpt_correction_type   empirical
_exptl_absorpt_correction_T_min  0.9241
_exptl_absorpt_correction_T_max  1.0000
_exptl_absorpt_process_details   Process-auto

_exptl_special_details           
;
?
;

_diffrn_ambient_temperature      293(2)
_diffrn_radiation_wavelength     0.71073
_diffrn_radiation_type           MoK\a
_diffrn_radiation_source         'fine-focus sealed tube'
_diffrn_radiation_monochromator  graphite
_diffrn_measurement_device_type  'CCD area detector'
_diffrn_measurement_method       'phi and omega scans'
_diffrn_detector_area_resol_mean 9.00cm
_diffrn_standards_number         none
_diffrn_standards_interval_count none
_diffrn_standards_interval_time  none
_diffrn_standards_decay_%        none
_diffrn_reflns_number            30409
_diffrn_reflns_av_R_equivalents  0.0674
_diffrn_reflns_av_sigmaI/netI    0.2539
_diffrn_reflns_limit_h_min       -19
_diffrn_reflns_limit_h_max       20
_diffrn_reflns_limit_k_min       -19
_diffrn_reflns_limit_k_max       20
_diffrn_reflns_limit_l_min       -22
_diffrn_reflns_limit_l_max       24
_diffrn_reflns_theta_min         1.14
_diffrn_reflns_theta_max         28.33
_reflns_number_total             20348
_reflns_number_gt                6239
_reflns_threshold_expression     >2sigma(I)

_computing_data_collection       'Bruker SMART'
_computing_cell_refinement       'Bruker SMART'
_computing_data_reduction        'Bruker SAINT'
_computing_structure_solution    'SHELXS-97 (Sheldrick, 1990)'
_computing_structure_refinement  'SHELXL-97 (Sheldrick, 1997)'
_computing_molecular_graphics    SHELXP-97
_computing_publication_material  SHELXTL

_refine_special_details          
;
Refinement of F^2^ against ALL reflections. The weighted R-factor wR and
goodness of fit S are based on F^2^, conventional R-factors R are based
on F, with F set to zero for negative F^2^. The threshold expression of
F^2^ > 2sigma(F^2^) is used only for calculating R-factors(gt) etc. and is
not relevant to the choice of reflections for refinement. R-factors based
on F^2^ are statistically about twice as large as those based on F, and R-
factors based on ALL data will be even larger.
;

_refine_ls_structure_factor_coef Fsqd
_refine_ls_matrix_type           full
_refine_ls_weighting_scheme      calc
_refine_ls_weighting_details     
'calc w=1/[\s^2^(Fo^2^)+(0.0365P)^2^+0.0000P] where P=(Fo^2^+2Fc^2^)/3'
_atom_sites_solution_primary     direct
_atom_sites_solution_secondary   difmap
_atom_sites_solution_hydrogens   geom
_refine_ls_hydrogen_treatment    constr
_refine_ls_extinction_method     none
_refine_ls_extinction_coef       ?
_refine_ls_number_reflns         20348
_refine_ls_number_parameters     649
_refine_ls_number_restraints     6
_refine_ls_R_factor_all          0.1460
_refine_ls_R_factor_gt           0.0580
_refine_ls_wR_factor_ref         0.1346
_refine_ls_wR_factor_gt          0.1225
_refine_ls_goodness_of_fit_ref   0.713
_refine_ls_restrained_S_all      0.715
_refine_ls_shift/su_max          0.058
_refine_ls_shift/su_mean         0.001

loop_
_atom_site_label
_atom_site_type_symbol
_atom_site_fract_x
_atom_site_fract_y
_atom_site_fract_z
_atom_site_U_iso_or_equiv
_atom_site_adp_type
_atom_site_occupancy
_atom_site_symmetry_multiplicity
_atom_site_calc_flag
_atom_site_refinement_flags
_atom_site_disorder_assembly
_atom_site_disorder_group
Zn1 Zn -0.01109(4) 0.99447(4) -0.08225(3) 0.02143(15) Uani 1 1 d . . .
Zn2 Zn 0.22686(4) 2.32725(4) 0.24373(3) 0.02304(16) Uani 1 1 d . . .
Zn3 Zn 0.24921(4) 2.33743(4) 0.40814(3) 0.02324(16) Uani 1 1 d . . .
O1 O -0.0106(3) 0.8649(2) -0.06160(19) 0.0391(11) Uani 1 1 d . . .
O2 O 0.0101(3) 0.8731(2) 0.06334(19) 0.0414(11) Uani 1 1 d . . .
O3 O -0.1462(2) 0.9787(3) -0.0755(2) 0.0436(12) Uani 1 1 d . . .
O4 O -0.1250(2) 0.9858(3) 0.0490(2) 0.0430(11) Uani 1 1 d . . .
O5 O 0.3620(3) 2.3491(3) 0.2749(2) 0.0520(12) Uani 1 1 d . . .
O6 O 0.3810(2) 2.3457(3) 0.3990(2) 0.0519(13) Uani 1 1 d . . .
O7 O 1.0923(2) 2.3117(3) 0.2538(2) 0.0440(11) Uani 1 1 d . . .
O8 O 1.1147(3) 2.3275(3) 0.3778(2) 0.0475(12) Uani 1 1 d . . .
O9 O 0.2270(3) 2.4600(2) 0.26783(18) 0.0429(10) Uani 1 1 d . . .
O10 O 0.2574(3) 2.4695(2) 0.39139(19) 0.0420(10) Uani 1 1 d . . .
O11 O 0.2294(2) 3.1984(2) 0.26446(18) 0.0393(10) Uani 1 1 d . . .
O12 O 0.2381(3) 3.2043(2) 0.38846(19) 0.0438(11) Uani 1 1 d . . .
N1 N -0.0038(3) 0.9924(3) -0.1941(2) 0.0272(12) Uani 1 1 d . . .
N2 N -0.0151(4) 0.9198(3) -0.4689(3) 0.076(2) Uani 1 1 d . . .
N3 N -0.0148(5) 0.9232(4) -0.5419(3) 0.079(2) Uani 1 1 d . . .
N4 N 0.2299(3) 2.3262(3) 0.1315(2) 0.0289(11) Uani 1 1 d . . .
N5 N 0.2371(5) 2.4108(4) -0.1356(3) 0.0855(11) Uani 1 1 d . . .
N6 N 0.2403(4) 2.4115(4) -0.2077(3) 0.0855(11) Uani 1 1 d . . .
N7 N 0.2174(5) 2.2556(4) -0.2159(3) 0.0855(11) Uani 1 1 d . . .
N8 N 0.2153(4) 2.2527(4) -0.1433(3) 0.0855(11) Uani 1 1 d . . .
N9 N 0.2443(3) 2.3375(3) -0.4795(2) 0.0307(11) Uani 1 1 d . . .
C1 C 0.0018(4) 0.7333(3) 0.0018(3) 0.0342(15) Uani 1 1 d . . .
C2 C -0.0071(4) 0.6837(4) -0.0646(3) 0.0483(18) Uani 1 1 d . . .
H2 H -0.0125 0.7118 -0.1095 0.080 Uiso 1 1 calc . . .
C3 C -0.0080(4) 0.5932(4) -0.0657(3) 0.0475(18) Uani 1 1 d . . .
H3 H -0.0142 0.5614 -0.1112 0.080 Uiso 1 1 calc . . .
C4 C 0.0000(4) 0.5482(3) 0.0006(3) 0.0369(15) Uani 1 1 d . . .
C5 C 0.0085(5) 0.6002(4) 0.0678(3) 0.064(2) Uani 1 1 d . . .
H5 H 0.0141 0.5728 0.1130 0.080 Uiso 1 1 calc . . .
C6 C 0.0086(5) 0.6897(4) 0.0683(3) 0.053(2) Uani 1 1 d . . .
H6 H 0.0132 0.7218 0.1136 0.080 Uiso 1 1 calc . . .
C7 C 0.0008(3) 0.8316(4) 0.0010(3) 0.0291(13) Uani 1 1 d . . .
C8 C -0.2726(4) 0.9819(5) -0.0099(3) 0.0750(11) Uani 1 1 d . . .
C9 C -0.3303(4) 0.9857(5) -0.0723(3) 0.0750(11) Uani 1 1 d . . .
H9 H -0.3105 0.9820 -0.1189 0.080 Uiso 1 1 calc . . .
C10 C -0.4162(4) 0.9949(5) -0.0674(3) 0.0750(11) Uani 1 1 d . . .
H10 H -0.4532 1.0010 -0.1111 0.080 Uiso 1 1 calc . . .
C11 C -0.4513(4) 0.9956(6) -0.0008(4) 0.0750(11) Uani 1 1 d . . .
C12 C -0.3962(4) 0.9815(5) 0.0591(3) 0.0750(11) Uani 1 1 d . . .
H12 H -0.4178 0.9758 0.1051 0.080 Uiso 1 1 calc . . .
C13 C -0.3094(4) 0.9753(5) 0.0539(3) 0.0750(11) Uani 1 1 d . . .
H13 H -0.2731 0.9659 0.0972 0.080 Uiso 1 1 calc . . .
C14 C -0.1738(4) 0.9817(3) -0.0133(3) 0.0317(14) Uani 1 1 d . . .
C15 C -0.0173(4) 0.9173(3) -0.2371(3) 0.0312(14) Uani 1 1 d . . .
H15 H -0.0289 0.8635 -0.2148 0.080 Uiso 1 1 calc . . .
C16 C -0.0146(4) 0.9169(4) -0.3133(3) 0.0443(17) Uani 1 1 d . . .
H16 H -0.0227 0.8633 -0.3411 0.080 Uiso 1 1 calc . . .
C17 C 0.0000(4) 0.9951(4) -0.3483(3) 0.0399(16) Uani 1 1 d . . .
C18 C 0.0146(5) 1.0736(4) -0.3045(3) 0.058(2) Uani 1 1 d . . .
H18 H 0.0259 1.1282 -0.3258 0.080 Uiso 1 1 calc . . .
C19 C 0.0121(4) 1.0684(4) -0.2286(3) 0.0413(16) Uani 1 1 d . . .
H19 H 0.0220 1.1211 -0.1995 0.080 Uiso 1 1 calc . . .
C20 C -0.0003(5) 0.9981(5) -0.4297(3) 0.0502(18) Uani 1 1 d . . .
C21 C 0.5073(4) 2.3485(5) 0.3345(3) 0.0689(10) Uani 1 1 d . . .
C22 C 0.5635(4) 2.3413(5) 0.3947(3) 0.0689(10) Uani 1 1 d . . .
H22 H 0.5414 2.3380 0.4406 0.080 Uiso 1 1 calc . . .
C23 C 0.6532(4) 2.3384(5) 0.3930(3) 0.0689(10) Uani 1 1 d . . .
H23 H 0.6904 2.3362 0.4373 0.080 Uiso 1 1 calc . . .
C24 C 0.6874(4) 2.3388(5) 0.3272(3) 0.0689(10) Uani 1 1 d . . .
C25 C 0.6309(4) 2.3474(5) 0.2644(3) 0.0689(10) Uani 1 1 d . . .
H25 H 0.6519 2.3465 0.2181 0.080 Uiso 1 1 calc . . .
C26 C 0.5458(4) 2.3571(5) 0.2684(3) 0.0689(10) Uani 1 1 d . . .
H26 H 0.5110 2.3700 0.2255 0.080 Uiso 1 1 calc . . .
C27 C 0.4097(4) 2.3481(4) 0.3370(4) 0.0409(16) Uani 1 1 d . . .
C28 C 0.9687(4) 2.3212(5) 0.3172(3) 0.0595(9) Uani 1 1 d . . .
C29 C 0.9121(4) 2.3396(5) 0.2551(3) 0.0595(9) Uani 1 1 d . . .
H29 H 0.9341 2.3471 0.2094 0.080 Uiso 1 1 calc . . .
C30 C 0.8244(4) 2.3467(5) 0.2606(3) 0.0595(9) Uani 1 1 d . . .
H30 H 0.7898 2.3612 0.2181 0.080 Uiso 1 1 calc . . .
C31 C 0.7842(4) 2.3343(5) 0.3238(3) 0.0595(9) Uani 1 1 d . . .
C32 C 0.8398(4) 2.3115(5) 0.3838(3) 0.0595(9) Uani 1 1 d . . .
H32 H 0.8161 2.2991 0.4281 0.080 Uiso 1 1 calc . . .
C33 C 0.9299(4) 2.3064(5) 0.3806(3) 0.0595(9) Uani 1 1 d . . .
H33 H 0.9646 2.2924 0.4232 0.080 Uiso 1 1 calc . . .
C34 C 1.0655(4) 2.3198(3) 0.3171(3) 0.0346(14) Uani 1 1 d . . .
C35 C 0.2422(4) 2.5999(3) 0.3283(3) 0.0330(14) Uani 1 1 d . . .
C36 C 0.2088(5) 2.6393(4) 0.2662(3) 0.0585(19) Uani 1 1 d . . .
H36 H 0.1870 2.6048 0.2227 0.080 Uiso 1 1 calc . . .
C37 C 0.2070(5) 2.7299(4) 0.2672(3) 0.062(2) Uani 1 1 d . . .
H37 H 0.1831 2.7547 0.2244 0.080 Uiso 1 1 calc . . .
C38 C 0.2393(4) 2.7836(3) 0.3288(3) 0.0403(15) Uani 1 1 d . . .
C39 C 0.2764(5) 2.7447(4) 0.3895(3) 0.059(2) Uani 1 1 d . . .
H39 H 0.3023 2.7797 0.4317 0.080 Uiso 1 1 calc . . .
C40 C 0.2761(5) 2.6546(4) 0.3890(3) 0.059(2) Uani 1 1 d . . .
H40 H 0.2999 2.6300 0.4319 0.080 Uiso 1 1 calc . . .
C41 C 0.2431(4) 2.5022(3) 0.3303(3) 0.0339(14) Uani 1 1 d . . .
C42 C 0.2343(4) 3.0654(3) 0.3272(3) 0.0357(15) Uani 1 1 d . . .
C43 C 0.2388(4) 3.0220(4) 0.3933(3) 0.0528(19) Uani 1 1 d . . .
H43 H 0.2418 3.0541 0.4384 0.080 Uiso 1 1 calc . . .
C44 C 0.2390(5) 2.9317(4) 0.3933(3) 0.057(2) Uani 1 1 d . . .
H44 H 0.2408 2.9040 0.4385 0.080 Uiso 1 1 calc . . .
C45 C 0.2367(4) 2.8809(4) 0.3279(3) 0.0433(16) Uani 1 1 d . . .
C46 C 0.2298(4) 2.9251(4) 0.2617(3) 0.0484(18) Uani 1 1 d . . .
H46 H 0.2253 2.8928 0.2166 0.080 Uiso 1 1 calc . . .
C47 C 0.2296(4) 3.0150(4) 0.2611(3) 0.0400(16) Uani 1 1 d . . .
H47 H 0.2262 3.0425 0.2158 0.080 Uiso 1 1 calc . . .
C48 C 0.2339(4) 3.1631(4) 0.3261(3) 0.0347(14) Uani 1 1 d . . .
C49 C 0.2401(4) 2.4019(4) 0.0979(3) 0.0532(19) Uani 1 1 d . . .
H49 H 0.2479 2.4545 0.1268 0.080 Uiso 1 1 calc . . .
C50 C 0.2398(5) 2.4063(4) 0.0223(3) 0.066(2) Uani 1 1 d . . .
H50 H 0.2476 2.4611 0.0009 0.080 Uiso 1 1 calc . . .
C51 C 0.2279(4) 2.3290(4) -0.0220(3) 0.0482(17) Uani 1 1 d . . .
C52 C 0.2165(4) 2.2484(4) 0.0128(3) 0.0463(17) Uani 1 1 d . . .
H52 H 0.2079 2.1947 -0.0149 0.080 Uiso 1 1 calc . . .
C53 C 0.2183(4) 2.2506(4) 0.0896(3) 0.0363(14) Uani 1 1 d . . .
H53 H 0.2112 2.1972 0.1131 0.080 Uiso 1 1 calc . . .
C54 C 0.2285(5) 2.3310(4) -0.1051(3) 0.060(2) Uani 1 1 d . . .
C55 C 0.2313(4) 2.3336(4) -0.2461(3) 0.0525(18) Uani 1 1 d . . .
C56 C 0.2208(5) 2.2633(4) -0.4475(3) 0.065(2) Uani 1 1 d . . .
H56 H 0.2066 2.2113 -0.4775 0.080 Uiso 1 1 calc . . .
C57 C 0.2160(5) 2.2580(4) -0.3722(3) 0.076(2) Uani 1 1 d . . .
H57 H 0.1997 2.2038 -0.3517 0.080 Uiso 1 1 calc . . .
C58 C 0.2361(4) 2.3356(4) -0.3273(3) 0.0462(17) Uani 1 1 d . . .
C59 C 0.2555(5) 2.4123(4) -0.3612(3) 0.074(2) Uani 1 1 d U . .
H59 H 0.2660 2.4659 -0.3334 0.080 Uiso 1 1 calc . . .
C60 C 0.2598(5) 2.4114(4) -0.4376(3) 0.071(2) Uani 1 1 d . . .
H60 H 0.2742 2.4649 -0.4598 0.080 Uiso 1 1 calc . . .

loop_
_atom_site_aniso_label
_atom_site_aniso_U_11
_atom_site_aniso_U_22
_atom_site_aniso_U_33
_atom_site_aniso_U_23
_atom_site_aniso_U_13
_atom_site_aniso_U_12
Zn1 0.0298(4) 0.0201(3) 0.0155(3) 0.0008(2) 0.0040(3) 0.0064(3)
Zn2 0.0306(4) 0.0233(4) 0.0165(3) 0.0002(3) 0.0042(3) 0.0073(3)
Zn3 0.0296(4) 0.0232(4) 0.0181(3) 0.0009(3) 0.0046(3) 0.0064(3)
O1 0.069(3) 0.023(2) 0.029(2) 0.0074(18) 0.009(2) 0.017(2)
O2 0.071(3) 0.021(2) 0.030(2) -0.0041(18) 0.001(2) 0.007(2)
O3 0.030(3) 0.068(3) 0.036(2) -0.004(2) 0.007(2) 0.016(2)
O4 0.030(3) 0.062(3) 0.036(3) -0.002(2) 0.003(2) 0.006(2)
O5 0.029(3) 0.070(3) 0.060(3) 0.002(2) 0.003(2) 0.016(2)
O6 0.036(3) 0.075(3) 0.050(3) 0.007(2) 0.013(2) 0.020(2)
O7 0.034(3) 0.059(3) 0.041(3) -0.002(2) 0.010(2) 0.012(2)
O8 0.033(3) 0.077(3) 0.031(2) -0.002(2) -0.003(2) 0.011(2)
O9 0.074(3) 0.023(2) 0.033(2) -0.0004(18) 0.005(2) 0.015(2)
O10 0.076(3) 0.020(2) 0.032(2) 0.0087(17) 0.003(2) 0.013(2)
O11 0.068(3) 0.022(2) 0.030(2) 0.0067(17) 0.003(2) 0.014(2)
O12 0.077(3) 0.021(2) 0.033(2) -0.0031(18) 0.004(2) 0.010(2)
N1 0.039(3) 0.030(3) 0.014(2) 0.001(2) 0.003(2) 0.010(2)
N2 0.171(6) 0.033(3) 0.022(3) 0.002(3) 0.019(3) -0.003(4)
N3 0.180(6) 0.039(4) 0.016(3) 0.002(3) 0.022(3) -0.003(4)
N4 0.042(3) 0.026(3) 0.020(2) 0.002(2) 0.010(2) 0.003(2)
N5 0.181(3) 0.050(2) 0.0246(15) -0.0017(16) 0.024(2) 0.006(2)
N6 0.181(3) 0.050(2) 0.0246(15) -0.0017(16) 0.024(2) 0.006(2)
N7 0.181(3) 0.050(2) 0.0246(15) -0.0017(16) 0.024(2) 0.006(2)
N8 0.181(3) 0.050(2) 0.0246(15) -0.0017(16) 0.024(2) 0.006(2)
N9 0.046(3) 0.027(3) 0.018(2) -0.002(2) 0.003(2) 0.001(2)
C1 0.064(4) 0.016(3) 0.022(3) -0.003(3) 0.003(3) 0.008(3)
C2 0.094(6) 0.017(3) 0.035(4) 0.005(3) 0.008(3) 0.013(4)
C3 0.091(5) 0.020(4) 0.032(4) -0.004(3) 0.015(3) 0.005(3)
C4 0.057(4) 0.024(4) 0.029(3) 0.000(3) -0.002(3) 0.011(3)
C5 0.138(7) 0.018(4) 0.033(4) 0.000(3) -0.009(4) 0.020(4)
C6 0.114(6) 0.018(4) 0.026(3) -0.006(3) -0.004(4) 0.014(4)
C7 0.030(3) 0.024(4) 0.034(3) 0.006(3) 0.005(3) 0.004(3)
C8 0.033(2) 0.159(3) 0.0394(16) 0.004(2) 0.0057(15) 0.035(2)
C9 0.033(2) 0.159(3) 0.0394(16) 0.004(2) 0.0057(15) 0.035(2)
C10 0.033(2) 0.159(3) 0.0394(16) 0.004(2) 0.0057(15) 0.035(2)
C11 0.033(2) 0.159(3) 0.0394(16) 0.004(2) 0.0057(15) 0.035(2)
C12 0.033(2) 0.159(3) 0.0394(16) 0.004(2) 0.0057(15) 0.035(2)
C13 0.033(2) 0.159(3) 0.0394(16) 0.004(2) 0.0057(15) 0.035(2)
C14 0.044(4) 0.024(3) 0.026(3) -0.002(3) -0.001(3) 0.008(3)
C15 0.059(4) 0.012(3) 0.024(3) 0.007(2) 0.007(3) 0.008(3)
C16 0.080(5) 0.032(4) 0.021(3) -0.001(3) 0.017(3) 0.000(4)
C17 0.066(5) 0.038(4) 0.017(3) -0.001(3) 0.016(3) 0.000(3)
C18 0.118(6) 0.033(4) 0.022(3) 0.006(3) 0.019(4) 0.002(4)
C19 0.083(5) 0.012(3) 0.029(3) 0.000(3) 0.013(3) 0.002(3)
C20 0.090(5) 0.045(4) 0.014(3) 0.003(3) 0.014(3) 0.000(4)
C21 0.041(2) 0.136(3) 0.0368(17) 0.0068(18) 0.0112(15) 0.030(2)
C22 0.041(2) 0.136(3) 0.0368(17) 0.0068(18) 0.0112(15) 0.030(2)
C23 0.041(2) 0.136(3) 0.0368(17) 0.0068(18) 0.0112(15) 0.030(2)
C24 0.041(2) 0.136(3) 0.0368(17) 0.0068(18) 0.0112(15) 0.030(2)
C25 0.041(2) 0.136(3) 0.0368(17) 0.0068(18) 0.0112(15) 0.030(2)
C26 0.041(2) 0.136(3) 0.0368(17) 0.0068(18) 0.0112(15) 0.030(2)
C27 0.034(4) 0.042(4) 0.051(4) 0.005(3) 0.014(3) 0.012(3)
C28 0.0377(18) 0.112(2) 0.0349(18) 0.0157(17) 0.0073(14) 0.0264(18)
C29 0.0377(18) 0.112(2) 0.0349(18) 0.0157(17) 0.0073(14) 0.0264(18)
C30 0.0377(18) 0.112(2) 0.0349(18) 0.0157(17) 0.0073(14) 0.0264(18)
C31 0.0377(18) 0.112(2) 0.0349(18) 0.0157(17) 0.0073(14) 0.0264(18)
C32 0.0377(18) 0.112(2) 0.0349(18) 0.0157(17) 0.0073(14) 0.0264(18)
C33 0.0377(18) 0.112(2) 0.0349(18) 0.0157(17) 0.0073(14) 0.0264(18)
C34 0.037(4) 0.019(3) 0.050(4) 0.000(3) 0.020(3) 0.003(3)
C35 0.051(4) 0.024(3) 0.026(3) 0.005(2) 0.004(3) 0.011(3)
C36 0.114(6) 0.022(4) 0.037(4) -0.006(3) -0.004(4) 0.016(4)
C37 0.131(6) 0.028(4) 0.028(3) 0.013(3) -0.006(4) 0.023(4)
C38 0.074(5) 0.018(3) 0.031(3) 0.001(3) 0.005(3) 0.013(3)
C39 0.128(6) 0.025(4) 0.025(3) -0.003(3) -0.011(3) 0.027(4)
C40 0.111(6) 0.023(3) 0.040(4) 0.001(3) -0.022(4) 0.023(4)
C41 0.049(4) 0.019(3) 0.036(3) -0.006(3) 0.008(3) 0.011(3)
C42 0.062(4) 0.022(3) 0.028(3) 0.006(3) 0.009(3) 0.019(3)
C43 0.102(6) 0.033(4) 0.026(3) -0.005(3) 0.006(3) 0.020(4)
C44 0.123(6) 0.028(4) 0.024(3) 0.004(3) 0.011(4) 0.021(4)
C45 0.078(5) 0.022(3) 0.032(3) 0.003(3) 0.008(3) 0.016(3)
C46 0.098(5) 0.025(4) 0.028(3) -0.002(3) 0.010(3) 0.027(4)
C47 0.072(5) 0.025(3) 0.027(3) 0.008(3) 0.008(3) 0.020(3)
C48 0.043(4) 0.027(3) 0.035(3) -0.001(3) 0.003(3) 0.010(3)
C49 0.103(6) 0.035(4) 0.024(3) -0.004(3) 0.015(3) 0.014(4)
C50 0.132(7) 0.030(4) 0.034(4) -0.001(3) 0.015(4) 0.005(4)
C51 0.081(5) 0.041(4) 0.023(3) -0.001(3) 0.011(3) 0.004(4)
C52 0.084(5) 0.031(4) 0.026(3) 0.000(3) 0.016(3) 0.007(3)
C53 0.059(4) 0.027(3) 0.023(3) 0.005(3) 0.008(3) 0.007(3)
C54 0.110(6) 0.053(5) 0.020(3) 0.000(3) 0.015(3) 0.014(4)
C55 0.097(6) 0.040(4) 0.019(3) -0.001(3) 0.011(3) 0.004(4)
C56 0.134(7) 0.041(4) 0.024(3) -0.002(3) 0.030(4) 0.009(4)
C57 0.149(8) 0.050(5) 0.033(4) 0.018(3) 0.035(4) 0.003(5)
C58 0.075(5) 0.045(4) 0.017(3) -0.002(3) 0.009(3) 0.000(4)
C59 0.147(6) 0.040(4) 0.029(3) -0.006(3) 0.016(4) -0.009(4)
C60 0.144(7) 0.037(4) 0.029(4) 0.007(3) 0.025(4) -0.008(4)

_geom_special_details            
;
All esds (except the esd in the dihedral angle between two l.s. planes)
are estimated using the full covariance matrix. The cell esds are taken
into account individually in the estimation of esds in distances, angles
and torsion angles; correlations between esds in cell parameters are only
used 