####################################################################### 
# 
# This file contains crystal structure data downloaded from the 
# Cambridge Structural Database (CSD) hosted by the Cambridge 
# Crystallographic Data Centre (CCDC).
# 
# Full information about CCDC data access policies and citation 
# guidelines are available at http://www.ccdc.cam.ac.uk/access/V1 
# 
# Audit and citation data items may have been added by the CCDC. 
# Please retain this information to preserve the provenance of 
# this file and to allow appropriate attribution of the data. 
# 
#######################################################################

data_c2c
_audit_block_doi                 10.5517/ccw43wz
_database_code_depnum_ccdc_archive 'CCDC 808321'
loop_
_citation_id
_citation_doi
_citation_year
1 10.1002/ejic.201100227 2011
_audit_update_record             
;
2011-01-15 deposited with the CCDC.	2024-07-13 downloaded from the CCDC.
;

_audit_creation_method           SHELXL-97
_chemical_name_systematic        
;
?
;
_chemical_name_common            Zn3
_chemical_melting_point          'not measured'
_chemical_formula_moiety         'C46 H38 N8 O12 Zn2'
_chemical_formula_sum            'C46 H38 N8 O12 Zn2'
_chemical_formula_weight         1025.58

loop_
_atom_type_symbol
_atom_type_description
_atom_type_scat_dispersion_real
_atom_type_scat_dispersion_imag
_atom_type_scat_source
C C 0.0033 0.0016 'International Tables Vol C Tables 4.2.6.8 and 6.1.1.4'
H H 0.0000 0.0000 'International Tables Vol C Tables 4.2.6.8 and 6.1.1.4'
N N 0.0061 0.0033 'International Tables Vol C Tables 4.2.6.8 and 6.1.1.4'
O O 0.0106 0.0060 'International Tables Vol C Tables 4.2.6.8 and 6.1.1.4'
Zn Zn 0.2839 1.4301 'International Tables Vol C Tables 4.2.6.8 and 6.1.1.4'

_symmetry_cell_setting           Monoclinic
_symmetry_space_group_name_H-M   'C2/c '

loop_
_symmetry_equiv_pos_as_xyz
'x, y, z'
'-x, y, -z+1/2'
'x+1/2, y+1/2, z'
'-x+1/2, y+1/2, -z+1/2'
'-x, -y, -z'
'x, -y, z-1/2'
'-x+1/2, -y+1/2, -z'
'x+1/2, -y+1/2, z-1/2'

_cell_length_a                   27.932(6)
_cell_length_b                   7.5323(15)
_cell_length_c                   23.999(5)
_cell_angle_alpha                90.00
_cell_angle_beta                 103.99(3)
_cell_angle_gamma                90.00
_cell_volume                     4899.3(17)
_cell_formula_units_Z            4
_cell_measurement_temperature    293(2)
_cell_measurement_reflns_used    5536
_cell_measurement_theta_min      2.99
_cell_measurement_theta_max      27.47

_exptl_crystal_description       block
_exptl_crystal_colour            red
_exptl_crystal_size_max          0.33
_exptl_crystal_size_mid          0.29
_exptl_crystal_size_min          0.27
_exptl_crystal_density_meas      'not measured'
_exptl_crystal_density_diffrn    1.390
_exptl_crystal_density_method    'not measured'
_exptl_crystal_F_000             2104
_exptl_absorpt_coefficient_mu    1.047
_exptl_absorpt_correction_type   empirical
_exptl_absorpt_correction_T_min  0.618
_exptl_absorpt_correction_T_max  0.835
_exptl_absorpt_process_details   Process-auto

_exptl_special_details           
;
?
;

_diffrn_ambient_temperature      293(2)
_diffrn_radiation_wavelength     0.71073
_diffrn_radiation_type           MoK\a
_diffrn_radiation_source         'fine-focus sealed tube'
_diffrn_radiation_monochromator  graphite
_diffrn_measurement_device_type  'Rigaku RAXIS-RAPID'
_diffrn_measurement_method       omega-scan
_diffrn_detector_area_resol_mean 10.0
_diffrn_standards_number         0
_diffrn_standards_interval_count 0
_diffrn_standards_interval_time  0
_diffrn_standards_decay_%        0
_diffrn_reflns_number            22642
_diffrn_reflns_av_R_equivalents  0.0520
_diffrn_reflns_av_sigmaI/netI    0.0452
_diffrn_reflns_limit_h_min       -36
_diffrn_reflns_limit_h_max       36
_diffrn_reflns_limit_k_min       -9
_diffrn_reflns_limit_k_max       9
_diffrn_reflns_limit_l_min       -30
_diffrn_reflns_limit_l_max       30
_diffrn_reflns_theta_min         2.99
_diffrn_reflns_theta_max         27.47
_reflns_number_total             5536
_reflns_number_gt                4385
_reflns_threshold_expression     >2sigma(I)

_computing_data_collection       Process-auto
_computing_cell_refinement       Process-auto
_computing_data_reduction        Process-auto
_computing_structure_solution    'SHELXS-97 (Sheldrick, 1990)'
_computing_structure_refinement  'SHELXL-97 (Sheldrick, 1997)'
_computing_molecular_graphics    ?
_computing_publication_material  ?

_refine_special_details          
;
Refinement of F^2^ against ALL reflections. The weighted R-factor wR and
goodness of fit S are based on F^2^, conventional R-factors R are based
on F, with F set to zero for negative F^2^. The threshold expression of
F^2^ > 2sigma(F^2^) is used only for calculating R-factors(gt) etc. and is
not relevant to the choice of reflections for refinement. R-factors based
on F^2^ are statistically about twice as large as those based on F, and R-
factors based on ALL data will be even larger.
;

_refine_ls_structure_factor_coef Fsqd
_refine_ls_matrix_type           full
_refine_ls_weighting_scheme      calc
_refine_ls_weighting_details     
'calc w=1/[\s^2^(Fo^2^)+(0.0530P)^2^+0.0000P] where P=(Fo^2^+2Fc^2^)/3'
_atom_sites_solution_primary     direct
_atom_sites_solution_secondary   difmap
_atom_sites_solution_hydrogens   geom
_refine_ls_hydrogen_treatment    constr
_refine_ls_extinction_method     none
_refine_ls_extinction_coef       ?
_refine_ls_number_reflns         5536
_refine_ls_number_parameters     262
_refine_ls_number_restraints     0
_refine_ls_R_factor_all          0.0508
_refine_ls_R_factor_gt           0.0370
_refine_ls_wR_factor_ref         0.0953
_refine_ls_wR_factor_gt          0.0913
_refine_ls_goodness_of_fit_ref   1.035
_refine_ls_restrained_S_all      1.035
_refine_ls_shift/su_max          0.002
_refine_ls_shift/su_mean         0.000

loop_
_atom_site_label
_atom_site_type_symbol
_atom_site_fract_x
_atom_site_fract_y
_atom_site_fract_z
_atom_site_U_iso_or_equiv
_atom_site_adp_type
_atom_site_occupancy
_atom_site_symmetry_multiplicity
_atom_site_calc_flag
_atom_site_refinement_flags
_atom_site_disorder_assembly
_atom_site_disorder_group
Zn1 Zn 0.963955(8) 1.14503(3) 0.991454(9) 0.02406(9) Uani 1 1 d . . .
O1 O 0.98671(6) 0.7661(2) 0.93594(6) 0.0392(4) Uani 1 1 d . . .
O2 O 0.93356(6) 0.9912(2) 0.92168(7) 0.0454(4) Uani 1 1 d . . .
O3 O 0.94196(6) 0.0427(2) 0.54280(7) 0.0436(4) Uani 1 1 d . . .
O4 O 0.99487(6) 0.2681(2) 0.55606(6) 0.0405(4) Uani 1 1 d . . .
O5 O 0.84470(6) 0.5430(3) 0.69757(7) 0.0621(6) Uani 1 1 d . . .
N1 N 0.90452(6) 1.3063(2) 0.98662(7) 0.0271(4) Uani 1 1 d . . .
N2 N 0.78575(8) 1.8119(3) 0.97535(11) 0.0545(6) Uani 1 1 d . . .
N3 N 0.74926(8) 1.9194(3) 0.98035(11) 0.0559(6) Uani 1 1 d . . .
C1 C 0.92124(8) 0.7623(3) 0.85267(9) 0.0335(5) Uani 1 1 d . . .
C2 C 0.88503(10) 0.8564(3) 0.81498(11) 0.0527(7) Uani 1 1 d . . .
H2 H 0.8772 0.9705 0.8247 0.080 Uiso 1 1 calc . . .
C3 C 0.86000(11) 0.7842(4) 0.76279(11) 0.0578(8) Uani 1 1 d . . .
H3 H 0.8358 0.8491 0.7375 0.080 Uiso 1 1 calc . . .
C4 C 0.87167(9) 0.6153(4) 0.74940(10) 0.0454(6) Uani 1 1 d . . .
C5 C 0.90680(10) 0.5179(4) 0.78633(11) 0.0544(7) Uani 1 1 d . . .
H5 H 0.9140 0.4030 0.7766 0.080 Uiso 1 1 calc . . .
C6 C 0.93166(9) 0.5907(3) 0.83821(10) 0.0450(6) Uani 1 1 d . . .
H6 H 0.9555 0.5243 0.8635 0.080 Uiso 1 1 calc . . .
C7 C 0.94946(8) 0.8461(3) 0.90771(9) 0.0319(5) Uani 1 1 d . . .
C8 C 0.87291(9) 0.4563(3) 0.66484(9) 0.0436(6) Uani 1 1 d . . .
C9 C 0.86082(9) 0.2856(4) 0.64713(10) 0.0484(6) Uani 1 1 d . . .
H9 H 0.8347 0.2281 0.6574 0.080 Uiso 1 1 calc . . .
C10 C 0.88774(9) 0.1997(3) 0.61392(10) 0.0415(6) Uani 1 1 d . . .
H10 H 0.8795 0.0842 0.6016 0.080 Uiso 1 1 calc . . .
C11 C 0.92699(8) 0.2837(3) 0.59880(8) 0.0318(5) Uani 1 1 d . . .
C12 C 0.93725(9) 0.4597(3) 0.61584(10) 0.0404(5) Uani 1 1 d . . .
H12 H 0.9626 0.5196 0.6048 0.080 Uiso 1 1 calc . . .
C13 C 0.91042(10) 0.5455(3) 0.64864(11) 0.0478(6) Uani 1 1 d . . .
H13 H 0.9175 0.6627 0.6598 0.080 Uiso 1 1 calc . . .
C14 C 0.95705(8) 0.1924(3) 0.56341(9) 0.0299(5) Uani 1 1 d . . .
C15 C 0.90496(8) 1.4777(3) 0.97174(9) 0.0310(5) Uani 1 1 d . . .
H15 H 0.9323 1.5216 0.9605 0.080 Uiso 1 1 calc . . .
C16 C 0.86636(8) 1.5915(3) 0.97242(10) 0.0348(5) Uani 1 1 d . . .
H16 H 0.8675 1.7093 0.9612 0.080 Uiso 1 1 calc . . .
C17 C 0.82608(8) 1.5277(3) 0.99013(9) 0.0328(5) Uani 1 1 d . . .
C18 C 0.82516(9) 1.3496(3) 1.00455(12) 0.0428(6) Uani 1 1 d . . .
H18 H 0.7982 1.3023 1.0158 0.080 Uiso 1 1 calc . . .
C19 C 0.86473(8) 1.2438(3) 1.00202(10) 0.0388(5) Uani 1 1 d . . .
H19 H 0.8638 1.1242 1.0114 0.080 Uiso 1 1 calc . . .
C20 C 0.78521(8) 1.6478(3) 0.99517(11) 0.0368(5) Uani 1 1 d . . .

loop_
_atom_site_aniso_label
_atom_site_aniso_U_11
_atom_site_aniso_U_22
_atom_site_aniso_U_33
_atom_site_aniso_U_23
_atom_site_aniso_U_13
_atom_site_aniso_U_12
Zn1 0.02220(13) 0.02323(14) 0.02845(14) 0.00067(9) 0.00942(9) 0.00930(9)
O1 0.0383(9) 0.0404(9) 0.0353(8) -0.0059(7) 0.0021(7) 0.0059(7)
O2 0.0491(10) 0.0397(9) 0.0439(9) -0.0163(8) 0.0044(8) 0.0115(8)
O3 0.0439(10) 0.0379(9) 0.0551(10) -0.0191(8) 0.0240(8) -0.0083(7)
O4 0.0381(9) 0.0436(9) 0.0469(9) -0.0120(8) 0.0242(7) -0.0094(7)
O5 0.0354(10) 0.1011(16) 0.0495(10) -0.0419(11) 0.0094(8) 0.0041(10)
N1 0.0244(9) 0.0253(8) 0.0329(9) 0.0011(7) 0.0095(7) 0.0072(7)
N2 0.0424(12) 0.0347(10) 0.0978(18) 0.0160(11) 0.0394(12) 0.0213(9)
N3 0.0412(12) 0.0385(11) 0.1004(19) 0.0168(12) 0.0413(13) 0.0208(10)
C1 0.0326(12) 0.0391(12) 0.0303(11) -0.0065(10) 0.0110(9) 0.0054(10)
C2 0.0507(16) 0.0557(16) 0.0460(14) -0.0196(12) 0.0009(12) 0.0173(13)
C3 0.0524(17) 0.0709(19) 0.0424(14) -0.0169(14) -0.0034(12) 0.0224(14)
C4 0.0334(13) 0.0669(17) 0.0367(13) -0.0217(12) 0.0099(10) 0.0028(12)
C5 0.0494(16) 0.0551(16) 0.0565(16) -0.0254(13) 0.0082(13) 0.0094(13)
C6 0.0422(14) 0.0465(13) 0.0450(14) -0.0125(12) 0.0079(11) 0.0083(11)
C7 0.0316(12) 0.0360(12) 0.0293(11) -0.0027(9) 0.0097(9) -0.0011(9)
C8 0.0350(13) 0.0627(16) 0.0340(12) -0.0218(12) 0.0103(10) -0.0003(12)
C9 0.0376(14) 0.0692(17) 0.0438(14) -0.0163(13) 0.0204(11) -0.0136(13)
C10 0.0433(14) 0.0425(13) 0.0431(13) -0.0133(11) 0.0193(11) -0.0121(11)
C11 0.0331(12) 0.0358(11) 0.0284(10) -0.0058(10) 0.0111(9) -0.0035(9)
C12 0.0384(13) 0.0401(13) 0.0440(13) -0.0151(11) 0.0125(11) -0.0104(10)
C13 0.0450(15) 0.0473(14) 0.0522(15) -0.0232(12) 0.0138(12) -0.0066(12)
C14 0.0288(11) 0.0327(11) 0.0285(10) -0.0023(9) 0.0071(9) -0.0009(9)
C15 0.0266(11) 0.0251(10) 0.0442(12) 0.0021(9) 0.0141(9) 0.0051(8)
C16 0.0329(12) 0.0229(10) 0.0508(14) 0.0039(10) 0.0144(10) 0.0079(9)
C17 0.0242(11) 0.0300(11) 0.0451(13) -0.0004(10) 0.0102(9) 0.0104(9)
C18 0.0280(12) 0.0356(12) 0.0701(17) 0.0095(11) 0.0221(12) 0.0092(9)
C19 0.0284(12) 0.0280(11) 0.0642(15) 0.0054(11) 0.0193(11) 0.0078(9)
C20 0.0264(11) 0.0314(12) 0.0543(14) 0.0011(10) 0.0129(10) 0.0112(9)

_geom_special_details            
;
All esds (except the esd in the dihedral angle between two l.s. planes)
are estimated using the full covariance matrix. The cell esds are taken
into account individually in the estimation of esds in distances, angles
and torsion angles; correlations between esds in cell parameters are only
used when they are defined by crystal symmetry. An approximate (isotropic)
treatment of cell esds is used for estimating esds involving l.s. planes.
;

loop_
_geom_bond_atom_site_label_1
_geom_bond_atom_site_label_2
_geom_bond_distance
_geom_bond_site_symmetry_2
_geom_bond_publ_flag
Zn1 O4 2.0287(16) 2_766 ?
Zn1 N1 2.0375(16) . ?
Zn1 O2 2.0443(16) . ?
Zn1 O1 2.0547(16) 5_777 ?
Zn1 O3 2.0644(15) 6_566 ?
Zn1 Zn1 2.9320(6) 5_777 ?
O1 C7 1.251(3) . ?
O1 Zn1 2.0547(16) 5_777 ?
O2 C7 1.256(2) . ?
O3 C14 1.262(2) . ?
O3 Zn1 2.0644(15) 6_565 ?
O4 C14 1.250(2) . ?
O4 Zn1 2.0287(16) 2_746 ?
O5 C4 1.399(3) . ?
O5 C8 1.401(3) . ?
N1 C19 1.339(3) . ?
N1 C15 1.340(2) . ?
N2 C20 1.326(3) . ?
N2 N3 1.330(3) . ?
N3 C20 1.343(3) 7_687 ?
C1 C2 1.379(3) . ?
C1 C6 1.388(3) . ?
C1 C7 1.504(3) . ?
C2 C3 1.389(3) . ?
C2 H2 0.9300 . ?
C3 C4 1.371(4) . ?
C3 H3 0.9300 . ?
C4 C5 1.366(4) . ?
C5 C6 1.384(3) . ?
C5 H5 0.9300 . ?
C6 H6 0.9300 . ?
C8 C9 1.370(4) . ?
C8 C13 1.377(3) . ?
C9 C10 1.382(3) . ?
C9 H9 0.9300 . ?
C10 C11 1.388(3) . ?
C10 H10 0.9300 . ?
C11 C12 1.397(3) . ?
C11 C14 1.498(3) . ?
C12 C13 1.373(3) . ?
C12 H12 0.9300 . ?
C13 H13 0.9300 . ?
C15 C16 1.381(3) . ?
C15 H15 0.9300 . ?
C16 C17 1.382(3) . ?
C16 H16 0.9300 . ?
C17 C18 1.387(3) . ?
C17 C20 1.484(3) . ?
C18 C19 1.376(3) . ?
C18 H18 0.9300 . ?
C19 H19 0.9300 . ?
C20 N3 1.343(3) 7_687 ?

loop_
_geom_angle_atom_site_label_1
_geom_angle_atom_site_label_2
_geom_angle_atom_site_label_3
_geom_angle
_geom_angle_site_symmetry_1
_geom_angle_site_symmetry_3
_geom_angle_publ_flag
O4 Zn1 N1 105.10(7) 2_766 . ?
O4 Zn1 O2 88.75(7) 2_766 . ?
N1 Zn1 O2 96.89(7) . . ?
O4 Zn1 O1 88.43(7) 2_766 5_777 ?
N1 Zn1 O1 102.95(7) . 5_777 ?
O2 Zn1 O1 160.01(6) . 5_777 ?
O4 Zn1 O3 159.95(6) 2_766 6_566 ?
N1 Zn1 O3 94.96(7) . 6_566 ?
O2 Zn1 O3 88.63(7) . 6_566 ?
O1 Zn1 O3 87.27(7) 5_777 6_566 ?
O4 Zn1 Zn1 87.46(5) 2_766 5_777 ?
N1 Zn1 Zn1 167.08(5) . 5_777 ?
O2 Zn1 Zn1 80.06(5) . 5_777 ?
O1 Zn1 Zn1 80.04(5) 5_777 5_777 ?
O3 Zn1 Zn1 72.51(5) 6_566 5_777 ?
C7 O1 Zn1 127.01(14) . 5_777 ?
C7 O2 Zn1 127.48(15) . . ?
C14 O3 Zn1 136.61(15) . 6_565 ?
C14 O4 Zn1 118.97(14) . 2_746 ?
C4 O5 C8 115.14(18) . . ?
C19 N1 C15 118.29(17) . . ?
C19 N1 Zn1 119.60(14) . . ?
C15 N1 Zn1 121.98(14) . . ?
C20 N2 N3 117.4(2) . . ?
N2 N3 C20 117.1(2) . 7_687 ?
C2 C1 C6 118.7(2) . . ?
C2 C1 C7 120.4(2) . . ?
C6 C1 C7 120.89(19) . . ?
C1 C2 C3 121.3(2) . . ?
C1 C2 H2 119.3 . . ?
C3 C2 H2 119.3 . . ?
C4 C3 C2 118.6(2) . . ?
C4 C3 H3 120.7 . . ?
C2 C3 H3 120.7 . . ?
C5 C4 C3 121.4(2) . . ?
C5 C4 O5 121.0(2) . . ?
C3 C4 O5 117.5(2) . . ?
C4 C5 C6 119.8(2) . . ?
C4 C5 H5 120.1 . . ?
C6 C5 H5 120.1 . . ?
C5 C6 C1 120.3(2) . . ?
C5 C6 H6 119.9 . . ?
C1 C6 H6 119.9 . . ?
O1 C7 O2 125.2(2) . . ?
O1 C7 C1 117.68(19) . . ?
O2 C7 C1 117.11(19) . . ?
C9 C8 C13 121.1(2) . . ?
C9 C8 O5 118.8(2) . . ?
C13 C8 O5 120.0(2) . . ?
C8 C9 C10 119.4(2) . . ?
C8 C9 H9 120.3 . . ?
C10 C9 H9 120.3 . . ?
C9 C10 C11 120.8(2) . . ?
C9 C10 H10 119.6 . . ?
C11 C10 H10 119.6 . . ?
C10 C11 C12 118.4(2) . . ?
C10 C11 C14 121.72(19) . . ?
C12 C11 C14 119.89(19) . . ?
C13 C12 C11 120.9(2) . . ?
C13 C12 H12 119.6 . . ?
C11 C12 H12 119.6 . . ?
C12 C13 C8 119.4(2) . . ?
C12 C13 H13 120.3 . . ?
C8 C13 H13 120.3 . . ?
O4 C14 O3 124.4(2) . . ?
O4 C14 C11 118.66(18) . . ?
O3 C14 C11 116.90(19) . . ?
N1 C15 C16 122.52(19) . . ?
N1 C15 H15 118.7 . . ?
C16 C15 H15 118.7 . . ?
C15 C16 C17 118.93(19) . . ?
C15 C16 H16 120.5 . . ?
C17 C16 H16 120.5 . . ?
C16 C17 C18 118.61(19) . . ?
C16 C17 C20 120.82(19) . . ?
C18 C17 C20 120.6(2) . . ?
C19 C18 C17 119.1(2) . . ?
C19 C18 H18 120.5 . . ?
C17 C18 H18 120.5 . . ?
N1 C19 C18 122.5(2) . . ?
N1 C19 H19 118.7 . . ?
C18 C19 H19 118.7 . . ?
N2 C20 N3 125.5(2) . 7_687 ?
N2 C20 C17 117.6(2) . . ?
N3 C20 C17 116.91(19) 7_687 . ?

_diffrn_measured_fraction_theta_max 0.985
_diffrn_reflns_theta_full        27.47
_diffrn_measured_fraction_theta_full 0.985
_refine_diff_density_max         0.346
_refine_diff_density_min         -0.296
_refine_diff_density_rms         0.063
