####################################################################### 
# 
# This file contains crystal structure data downloaded from the 
# Cambridge Structural Database (CSD) hosted by the Cambridge 
# Crystallographic Data Centre (CCDC).
# 
# Full information about CCDC data access policies and citation 
# guidelines are available at http://www.ccdc.cam.ac.uk/access/V1 
# 
# Audit and citation data items may have been added by the CCDC. 
# Please retain this information to preserve the provenance of 
# this file and to allow appropriate attribution of the data. 
# 
#######################################################################

data_SNU-77
_audit_block_doi                 10.5517/ccschn8
_database_code_depnum_ccdc_archive 'CCDC 726040'
loop_
_citation_id
_citation_doi
_citation_year
1 10.1002/chem.201003376 2011
_audit_update_record             
;
2009-04-02 deposited with the CCDC.	2024-07-13 downloaded from the CCDC.
;
#TrackingRef 'SNU-77.cif'

#==============================================================================

_audit_creation_date             2009-12-24T19:53:09-00:00
_audit_creation_method           'WinGX routine CIF_UPDATE'

#----------------------------------------------------------------------------#
# CHEMICAL INFORMATION #
#----------------------------------------------------------------------------#

_chemical_name_systematic        
;
?
;
_chemical_formula_moiety         'C78 H48 N2 O13 Zn4'
_chemical_formula_sum            'C78 H48 N2 O13 Zn4'
_chemical_formula_weight         1482.8
_chemical_compound_source        'synthesis as described'

#----------------------------------------------------------------------------#
# UNIT CELL INFORMATION #
#----------------------------------------------------------------------------#

_symmetry_cell_setting           cubic
_symmetry_space_group_name_H-M   'P a -3'
_symmetry_space_group_name_Hall  '-P 2ac 2ab 3'
_symmetry_Int_Tables_number      205
loop_
_symmetry_equiv_pos_as_xyz
'x, y, z'
'-x+1/2, -y, z+1/2'
'x+1/2, -y+1/2, -z'
'-x, y+1/2, -z+1/2'
'y, z, x'
'-y+1/2, -z, x+1/2'
'y+1/2, -z+1/2, -x'
'-y, z+1/2, -x+1/2'
'z, x, y'
'-z, x+1/2, -y+1/2'
'-z+1/2, -x, y+1/2'
'z+1/2, -x+1/2, -y'
'-x, -y, -z'
'x-1/2, y, -z-1/2'
'-x-1/2, y-1/2, z'
'x, -y-1/2, z-1/2'
'-y, -z, -x'
'y-1/2, z, -x-1/2'
'-y-1/2, z-1/2, x'
'y, -z-1/2, x-1/2'
'-z, -x, -y'
'z, -x-1/2, y-1/2'
'z-1/2, x, -y-1/2'
'-z-1/2, x-1/2, y'

_cell_length_a                   32.6570(9)
_cell_length_b                   32.6570(9)
_cell_length_c                   32.6570(9)
_cell_angle_alpha                90
_cell_angle_beta                 90
_cell_angle_gamma                90
_cell_volume                     34828.0(17)
_cell_formula_units_Z            8
_cell_measurement_temperature    293(2)
_cell_measurement_reflns_used    30724
_cell_measurement_theta_min      0.998
_cell_measurement_theta_max      27.485
_cell_measurement_wavelength     0.71073

#----------------------------------------------------------------------------#
# CRYSTAL INFORMATION #
#----------------------------------------------------------------------------#

_exptl_crystal_description       prism
_exptl_crystal_colour            yellow
_exptl_crystal_size_max          0.4
_exptl_crystal_size_mid          0.3
_exptl_crystal_size_min          0.2
_exptl_crystal_density_diffrn    0.566
_exptl_crystal_density_method    'not measured'
_exptl_crystal_F_000             6031
_exptl_special_details           
;
?
;

#----------------------------------------------------------------------------#
# ABSORPTION CORRECTION #
#----------------------------------------------------------------------------#

_exptl_absorpt_coefficient_mu    0.57
_exptl_absorpt_correction_type   none

#----------------------------------------------------------------------------#
# DATA COLLECTION #
#----------------------------------------------------------------------------#

_diffrn_ambient_temperature      293(2)
_diffrn_radiation_wavelength     0.71073
_diffrn_radiation_type           MoK\a
_diffrn_radiation_monochromator  graphite
_diffrn_radiation_probe          x-ray
_diffrn_reflns_av_R_equivalents  0.1196
_diffrn_reflns_av_unetI/netI     0.2952
_diffrn_reflns_number            20633
_diffrn_reflns_limit_h_min       -39
_diffrn_reflns_limit_h_max       39
_diffrn_reflns_limit_k_min       -28
_diffrn_reflns_limit_k_max       28
_diffrn_reflns_limit_l_min       -27
_diffrn_reflns_limit_l_max       27
_diffrn_reflns_theta_min         1.08
_diffrn_reflns_theta_max         26.44
_diffrn_reflns_theta_full        25
_diffrn_measured_fraction_theta_full 0.997
_diffrn_measured_fraction_theta_max 0.911
_reflns_number_total             10916
_reflns_number_gt                2611
_reflns_threshold_expression     >2sigma(I)

#----------------------------------------------------------------------------#
# COMPUTER PROGRAMS USED #
#----------------------------------------------------------------------------#

_computing_data_collection       'Collect (Nonius BV, 1997-2000)'
_computing_cell_refinement       'HKL Scalepack (Otwinowski & Minor 1997)'
_computing_data_reduction        
'HKL Denzo and Scalepack (Otwinowski & Minor 1997)'
_computing_structure_solution    'SHELXS-86 (Sheldrick, 1986)'
_computing_structure_refinement  'SHELXL-97 (Sheldrick, 1997)'
_computing_molecular_graphics    'Ortep-3 for Windows (Farrugia, 1997)'
_computing_publication_material  'WinGX publication routines (Farrugia, 1999)'

#----------------------------------------------------------------------------#
# REFINEMENT INFORMATION #
#----------------------------------------------------------------------------#

_refine_special_details          
;
Refinement of F^2^ against ALL reflections. The weighted R-factor wR and
goodness of fit S are based on F^2^, conventional R-factors R are based
on F, with F set to zero for negative F^2^. The threshold expression of
F^2^ > 2sigma(F^2^) is used only for calculating R-factors(gt) etc. and is
not relevant to the choice of reflections for refinement. R-factors based
on F^2^ are statistically about twice as large as those based on F, and R-
factors based on ALL data will be even larger.
;
_refine_ls_structure_factor_coef Fsqd
_refine_ls_matrix_type           full
_refine_ls_weighting_scheme      calc
_refine_ls_weighting_details     
'calc w=1/[\s^2^(Fo^2^)+(0.1160P)^2^+0.0000P] where P=(Fo^2^+2Fc^2^)/3'
_atom_sites_solution_primary     direct
_atom_sites_solution_secondary   difmap
_atom_sites_solution_hydrogens   geom
_refine_ls_hydrogen_treatment    constr
_refine_ls_extinction_method     SHELXL
_refine_ls_number_reflns         10916
_refine_ls_number_parameters     292
_refine_ls_number_restraints     0
_refine_ls_R_factor_all          0.2182
_refine_ls_R_factor_gt           0.089
_refine_ls_wR_factor_ref         0.2327
_refine_ls_wR_factor_gt          0.2052
_refine_ls_goodness_of_fit_ref   0.703
_refine_ls_restrained_S_all      0.703
_refine_ls_shift/su_max          0.001
_refine_ls_shift/su_mean         0
_refine_diff_density_max         0.541
_refine_diff_density_min         -1.202
_refine_diff_density_rms         0.26

#----------------------------------------------------------------------------#
# ATOMIC TYPES, COORDINATES AND THERMAL PARAMETERS #
#----------------------------------------------------------------------------#

loop_
_atom_type_symbol
_atom_type_description
_atom_type_scat_dispersion_real
_atom_type_scat_dispersion_imag
_atom_type_scat_source
C C 0.003 0.002 'International Tables Vol C Tables 4.2.6.8 and 6.1.1.4'
H H 0 0 'International Tables Vol C Tables 4.2.6.8 and 6.1.1.4'
N N 0.006 0.003 'International Tables Vol C Tables 4.2.6.8 and 6.1.1.4'
O O 0.011 0.006 'International Tables Vol C Tables 4.2.6.8 and 6.1.1.4'
Zn Zn 0.284 1.43 'International Tables Vol C Tables 4.2.6.8 and 6.1.1.4'

loop_
_atom_site_label
_atom_site_type_symbol
_atom_site_fract_x
_atom_site_fract_y
_atom_site_fract_z
_atom_site_U_iso_or_equiv
_atom_site_adp_type
_atom_site_occupancy
_atom_site_symmetry_multiplicity
_atom_site_calc_flag
_atom_site_refinement_flags
_atom_site_disorder_assembly
_atom_site_disorder_group
Zn2 Zn 0.72240(2) 0.80082(2) 0.76728(2) 0.0790(3) Uani 1 1 d . . .
C1 C 0.6519(2) 0.7726(3) 0.7142(3) 0.094(2) Uani 1 1 d . . .
C3 C 0.5879(2) 0.76784(19) 0.6764(2) 0.091(2) Uani 1 1 d . . .
H3 H 0.5984 0.7432 0.6665 0.11 Uiso 1 1 calc R . .
O3 O 0.66919(14) 0.79763(15) 0.74146(19) 0.1274(19) Uani 1 1 d . . .
O1 O 0.75073(9) 0.75073(9) 0.75073(9) 0.0551(16) Uani 1 3 d S . .
O2 O 0.66448(13) 0.74091(16) 0.70192(14) 0.0889(15) Uani 1 1 d . . .
N1 N 0.3762(2) 0.8762(2) 0.6238(2) 0.107(4) Uani 1 3 d S . .
O5 O 0.71931(18) 0.80418(18) 0.82631(16) 0.137(2) Uani 1 1 d . . .
O4 O 0.7456(2) 0.7457(2) 0.85151(16) 0.137(2) Uani 1 1 d . . .
C16 C 0.6958(3) 0.8299(3) 0.9035(3) 0.127(3) Uani 1 1 d . . .
H16 H 0.6928 0.8479 0.8817 0.152 Uiso 1 1 calc R . .
C15 C 0.7139(2) 0.7913(3) 0.8975(2) 0.093(2) Uani 1 1 d . . .
C2 C 0.6104(2) 0.7899(2) 0.7025(2) 0.098(2) Uani 1 1 d . . .
C20 C 0.7201(3) 0.7664(2) 0.9290(3) 0.117(3) Uani 1 1 d . . .
H20 H 0.7326 0.7411 0.9251 0.14 Uiso 1 1 calc R . .
C14 C 0.7282(3) 0.7785(3) 0.8569(3) 0.117(3) Uani 1 1 d . . .
C7 C 0.5950(3) 0.8272(3) 0.7176(3) 0.180(5) Uani 1 1 d . . .
H7 H 0.6106 0.8433 0.7351 0.215 Uiso 1 1 calc R . .
Zn1 Zn 0.71640(2) 0.71640(2) 0.71640(2) 0.0598(4) Uani 1 3 d S . .
N2 N 0.63459(17) 0.86541(17) 1.13459(17) 0.081(3) Uani 1 3 d S . .
C11 C 0.4150(2) 0.8614(3) 0.6368(2) 0.107(3) Uani 1 1 d . . .
C5 C 0.5334(2) 0.8174(2) 0.6762(2) 0.109(3) Uani 1 1 d . . .
C10 C 0.4214(3) 0.8202(3) 0.6411(2) 0.115(3) Uani 1 1 d . . .
H10 H 0.4006 0.8015 0.6356 0.138 Uiso 1 1 calc R . .
C23 C 0.6590(2) 0.8821(2) 1.0662(2) 0.090(2) Uani 1 1 d . . .
H23 H 0.6576 0.91 1.0718 0.109 Uiso 1 1 calc R . .
C8 C 0.4927(2) 0.8329(2) 0.6636(2) 0.102(3) Uani 1 1 d . . .
C25 C 0.6518(2) 0.8139(2) 1.0857(2) 0.094(2) Uani 1 1 d . . .
H25 H 0.6449 0.7943 1.1051 0.113 Uiso 1 1 calc R . .
C26 C 0.6657(2) 0.8006(2) 1.0467(3) 0.101(2) Uani 1 1 d . . .
H26 H 0.6682 0.7728 1.0412 0.121 Uiso 1 1 calc R . .
C19 C 0.7076(3) 0.7784(3) 0.9683(3) 0.118(3) Uani 1 1 d . . .
H19 H 0.7124 0.761 0.9903 0.141 Uiso 1 1 calc R . .
C4 C 0.5490(2) 0.7807(2) 0.6635(2) 0.094(2) Uani 1 1 d . . .
H4 H 0.5337 0.7641 0.6462 0.113 Uiso 1 1 calc R . .
C9 C 0.4598(3) 0.8068(2) 0.6538(2) 0.111(3) Uani 1 1 d . . .
H9 H 0.464 0.7787 0.656 0.134 Uiso 1 1 calc R . .
C17 C 0.6826(3) 0.8407(3) 0.9419(3) 0.131(3) Uani 1 1 d . . .
H17 H 0.6695 0.8657 0.9455 0.157 Uiso 1 1 calc R . .
C12 C 0.4449(3) 0.8877(2) 0.6464(3) 0.133(3) Uani 1 1 d . . .
H12 H 0.44 0.9156 0.6442 0.159 Uiso 1 1 calc R . .
C21 C 0.6753(2) 0.8289(3) 1.0170(2) 0.089(2) Uani 1 1 d . . .
C22 C 0.6721(2) 0.8691(3) 1.0278(3) 0.102(2) Uani 1 1 d . . .
H22 H 0.6792 0.8888 1.0086 0.122 Uiso 1 1 calc R . .
C24 C 0.64828(18) 0.8545(2) 1.0957(2) 0.080(2) Uani 1 1 d . . .
C13 C 0.4846(2) 0.8737(3) 0.6604(3) 0.128(3) Uani 1 1 d . . .
H13 H 0.5048 0.8927 0.6671 0.153 Uiso 1 1 calc R . .
C18 C 0.6883(2) 0.8155(3) 0.9750(2) 0.086(2) Uani 1 1 d . . .
C6 C 0.5559(3) 0.8394(3) 0.7057(3) 0.168(4) Uani 1 1 d . . .
H6 H 0.5444 0.8626 0.7175 0.201 Uiso 1 1 calc R . .

loop_
_atom_site_aniso_label
_atom_site_aniso_U_11
_atom_site_aniso_U_22
_atom_site_aniso_U_33
_atom_site_aniso_U_23
_atom_site_aniso_U_13
_atom_site_aniso_U_12
Zn2 0.0846(6) 0.0700(5) 0.0824(6) -0.0013(4) -0.0012(4) -0.0006(4)
C1 0.056(5) 0.109(7) 0.117(7) 0.011(6) -0.041(5) -0.011(5)
C3 0.086(5) 0.066(5) 0.122(6) -0.020(4) -0.018(5) 0.040(4)
O3 0.068(3) 0.100(4) 0.214(6) -0.005(4) -0.043(4) 0.038(3)
O1 0.0551(16) 0.0551(16) 0.0551(16) -0.0064(17) -0.0064(17) -0.0064(17)
O2 0.066(3) 0.087(4) 0.113(4) 0.002(3) -0.003(3) 0.033(3)
N1 0.107(4) 0.107(4) 0.107(4) -0.062(5) -0.062(5) 0.062(5)
O5 0.210(6) 0.135(5) 0.068(4) -0.035(3) 0.048(4) 0.011(4)
O4 0.179(6) 0.139(5) 0.093(4) -0.046(4) 0.044(4) 0.007(5)
C16 0.168(8) 0.135(8) 0.078(7) -0.017(6) 0.021(6) 0.016(7)
C15 0.119(6) 0.117(7) 0.043(5) -0.025(5) 0.026(4) -0.009(5)
C2 0.079(5) 0.074(5) 0.142(7) -0.035(5) -0.061(5) 0.019(4)
C20 0.189(9) 0.087(6) 0.074(6) -0.005(5) 0.042(6) -0.002(5)
C14 0.158(9) 0.124(8) 0.068(7) 0.013(6) 0.024(6) -0.028(7)
C7 0.105(7) 0.129(8) 0.305(13) -0.094(8) -0.126(8) 0.055(6)
Zn1 0.0598(4) 0.0598(4) 0.0598(4) 0.0085(4) 0.0085(4) 0.0085(4)
N2 0.081(3) 0.081(3) 0.081(3) -0.038(4) 0.038(4) -0.038(4)
C11 0.129(7) 0.105(7) 0.087(5) -0.055(5) -0.073(5) 0.020(6)
C5 0.096(6) 0.080(5) 0.150(7) -0.034(5) -0.072(5) 0.026(5)
C10 0.119(7) 0.076(6) 0.150(8) -0.002(5) -0.042(6) 0.030(5)
C23 0.125(6) 0.079(5) 0.068(5) -0.022(4) 0.016(4) 0.005(5)
C8 0.108(7) 0.068(5) 0.128(7) -0.026(5) -0.063(5) 0.039(5)
C25 0.103(6) 0.090(6) 0.090(6) -0.002(4) 0.043(4) -0.028(4)
C26 0.106(6) 0.087(6) 0.111(7) -0.049(5) 0.025(5) -0.028(4)
C19 0.163(8) 0.108(7) 0.082(6) 0.020(5) 0.013(5) -0.003(6)
C4 0.103(6) 0.060(5) 0.120(6) -0.029(4) -0.034(5) 0.026(4)
C9 0.102(6) 0.090(6) 0.142(7) -0.037(5) -0.039(5) 0.041(5)
C17 0.193(9) 0.116(7) 0.083(7) -0.023(6) 0.018(6) 0.047(6)
C12 0.155(8) 0.068(5) 0.175(8) -0.037(5) -0.080(7) 0.065(6)
C21 0.099(6) 0.092(6) 0.077(6) -0.010(5) 0.032(4) -0.022(5)
C22 0.118(6) 0.087(6) 0.101(7) 0.017(5) 0.011(5) -0.021(5)
C24 0.083(5) 0.054(5) 0.104(6) -0.014(4) 0.033(4) -0.028(4)
C13 0.111(7) 0.083(6) 0.190(9) -0.027(6) -0.070(6) 0.002(5)
C18 0.092(6) 0.083(6) 0.082(6) -0.001(5) 0.010(4) -0.009(4)
C6 0.122(8) 0.115(7) 0.266(12) -0.094(7) -0.086(8) 0.063(6)


#----------------------------------------------------------------------------#
# MOLECULAR GEOMETRY #
#----------------------------------------------------------------------------#

_geom_special_details            
;
All esds (except the esd in the dihedral angle between two l.s. planes)
are estimated using the full covariance matrix. The cell esds are taken
into account individually in the estimation of esds in distances, angles
and torsion angles; correlations between esds in cell parameters are only
used when they are defined by crystal symmetry. An approximate (isotropic)
treatment of cell esds is used for estimating esds involving l.s. planes.
;
loop_
_geom_bond_atom_site_label_1
_geom_bond_atom_site_label_2
_geom_bond_distance
_geom_bond_site_symmetry_2
_geom_bond_publ_flag
Zn2 O5 1.933(5) . ?
Zn2 O3 1.934(5) . ?
Zn2 O4 1.955(5) 5 ?
Zn2 O1 1.956(2) . ?
Zn2 Zn2 3.1478(13) 9 ?
Zn2 Zn2 3.1478(13) 5 ?
C1 O2 1.183(8) . ?
C1 O3 1.333(8) . ?
C1 C2 1.517(9) . ?
C3 C2 1.334(8) . ?
C3 C4 1.404(8) . ?
O1 Zn1 1.942(5) . ?
O1 Zn2 1.956(2) 9 ?
O1 Zn2 1.956(2) 5 ?
O2 Zn1 1.934(4) . ?
N1 C11 1.419(8) 10_656 ?
N1 C11 1.419(8) . ?
N1 C11 1.419(8) 7_466 ?
O5 C14 1.337(9) . ?
O4 C14 1.224(9) . ?
O4 Zn2 1.955(5) 9 ?
C16 C17 1.372(9) . ?
C16 C15 1.405(10) . ?
C15 C20 1.327(9) . ?
C15 C14 1.467(10) . ?
C2 C7 1.408(9) . ?
C20 C19 1.400(9) . ?
C7 C6 1.394(9) . ?
Zn1 O2 1.934(4) 5 ?
Zn1 O2 1.934(4) 9 ?
N2 C24 1.392(7) 6_675 ?
N2 C24 1.392(7) . ?
N2 C24 1.392(7) 12_467 ?
C11 C12 1.337(10) . ?
C11 C10 1.370(9) . ?
C5 C4 1.365(8) . ?
C5 C6 1.410(9) . ?
C5 C8 1.482(9) . ?
C10 C9 1.391(9) . ?
C23 C24 1.365(8) . ?
C23 C22 1.391(8) . ?
C8 C13 1.360(8) . ?
C8 C9 1.409(9) . ?
C25 C24 1.371(8) . ?
C25 C26 1.419(8) . ?
C26 C21 1.376(9) . ?
C19 C18 1.385(9) . ?
C17 C18 1.370(9) . ?
C12 C13 1.451(9) . ?
C21 C22 1.362(9) . ?
C21 C18 1.501(9) . ?

loop_
_geom_angle_atom_site_label_1
_geom_angle_atom_site_label_2
_geom_angle_atom_site_label_3
_geom_angle
_geom_angle_site_symmetry_1
_geom_angle_site_symmetry_3
_geom_angle_publ_flag
O5 Zn2 O3 113.0(3) . . ?
O5 Zn2 O4 109.5(3) . 5 ?
O3 Zn2 O4 103.7(2) . 5 ?
O5 Zn2 O1 110.3(2) . . ?
O3 Zn2 O1 105.0(2) . . ?
O4 Zn2 O1 115.1(2) 5 . ?
O5 Zn2 Zn2 73.94(18) . 9 ?
O3 Zn2 Zn2 121.75(15) . 9 ?
O4 Zn2 Zn2 129.3(2) 5 9 ?
O1 Zn2 Zn2 36.41(8) . 9 ?
O5 Zn2 Zn2 121.76(19) . 5 ?
O3 Zn2 Zn2 120.61(18) . 5 ?
O4 Zn2 Zn2 79.0(2) 5 5 ?
O1 Zn2 Zn2 36.41(8) . 5 ?
Zn2 Zn2 Zn2 60 9 5 ?
O2 C1 O3 128.1(7) . . ?
O2 C1 C2 123.2(7) . . ?
O3 C1 C2 108.6(7) . . ?
C2 C3 C4 121.9(6) . . ?
C1 O3 Zn2 134.7(5) . . ?
Zn1 O1 Zn2 111.68(14) . 9 ?
Zn1 O1 Zn2 111.68(14) . 5 ?
Zn2 O1 Zn2 107.17(15) 9 5 ?
Zn1 O1 Zn2 111.68(14) . . ?
Zn2 O1 Zn2 107.17(15) 9 . ?
Zn2 O1 Zn2 107.17(15) 5 . ?
C1 O2 Zn1 125.6(5) . . ?
C11 N1 C11 117.9(3) 10_656 . ?
C11 N1 C11 117.9(3) 10_656 7_466 ?
C11 N1 C11 117.9(3) . 7_466 ?
C14 O5 Zn2 134.3(6) . . ?
C14 O4 Zn2 129.1(7) . 9 ?
C17 C16 C15 119.4(8) . . ?
C20 C15 C16 120.4(6) . . ?
C20 C15 C14 118.5(9) . . ?
C16 C15 C14 121.1(9) . . ?
C3 C2 C7 119.5(6) . . ?
C3 C2 C1 116.9(7) . . ?
C7 C2 C1 123.5(7) . . ?
C15 C20 C19 119.6(7) . . ?
O4 C14 O5 122.8(8) . . ?
O4 C14 C15 121.8(9) . . ?
O5 C14 C15 115.3(9) . . ?
C6 C7 C2 118.6(7) . . ?
O2 Zn1 O2 104.46(18) . 5 ?
O2 Zn1 O2 104.46(19) . 9 ?
O2 Zn1 O2 104.46(18) 5 9 ?
O2 Zn1 O1 114.11(16) . . ?
O2 Zn1 O1 114.11(16) 5 . ?
O2 Zn1 O1 114.11(16) 9 . ?
C24 N2 C24 116.3(3) 6_675 . ?
C24 N2 C24 116.3(3) 6_675 12_467 ?
C24 N2 C24 116.3(3) . 12_467 ?
C12 C11 C10 119.5(7) . . ?
C12 C11 N1 120.3(8) . . ?
C10 C11 N1 120.2(8) . . ?
C4 C5 C6 117.6(6) . . ?
C4 C5 C8 123.4(7) . . ?
C6 C5 C8 118.8(7) . . ?
C11 C10 C9 118.6(8) . . ?
C24 C23 C22 120.9(7) . . ?
C13 C8 C9 115.2(7) . . ?
C13 C8 C5 122.1(8) . . ?
C9 C8 C5 122.6(7) . . ?
C24 C25 C26 122.6(7) . . ?
C21 C26 C25 120.0(7) . . ?
C18 C19 C20 121.5(7) . . ?
C5 C4 C3 120.6(6) . . ?
C10 C9 C8 124.4(7) . . ?
C18 C17 C16 121.6(8) . . ?
C11 C12 C13 121.7(7) . . ?
C22 C21 C26 116.5(7) . . ?
C22 C21 C18 122.6(8) . . ?
C26 C21 C18 120.9(8) . . ?
C21 C22 C23 123.5(7) . . ?
C23 C24 C25 116.5(6) . . ?
C23 C24 N2 123.9(7) . . ?
C25 C24 N2 119.5(7) . . ?
C8 C13 C12 120.4(7) . . ?
C17 C18 C19 117.5(7) . . ?
C17 C18 C21 120.5(8) . . ?
C19 C18 C21 121.9(8) . . ?
C7 C6 C5 121.3(7) . . ?
