####################################################################### 
# 
# This file contains crystal structure data downloaded from the 
# Cambridge Structural Database (CSD) hosted by the Cambridge 
# Crystallographic Data Centre (CCDC).
# 
# Full information about CCDC data access policies and citation 
# guidelines are available at http://www.ccdc.cam.ac.uk/access/V1 
# 
# Audit and citation data items may have been added by the CCDC. 
# Please retain this information to preserve the provenance of 
# this file and to allow appropriate attribution of the data. 
# 
#######################################################################

data_SNU-77R-100K
_audit_block_doi                 10.5517/ccv95x6
_database_code_depnum_ccdc_archive 'CCDC 783398'
loop_
_citation_id
_citation_doi
_citation_year
1 10.1002/chem.201003376 2011
_audit_update_record             
;
2010-07-05 deposited with the CCDC.	2024-07-13 downloaded from the CCDC.
;
#TrackingRef 'SNU-77R-100K.cif'

#==============================================================================

_audit_creation_date             2010-05-09T20:05:38-00:00
_audit_creation_method           'WinGX routine CIF_UPDATE'

#----------------------------------------------------------------------------#
# CHEMICAL INFORMATION #
#----------------------------------------------------------------------------#

_chemical_name_systematic        
;
?
;
_chemical_formula_moiety         'C78 H48 N2 O13 Zn4'
_chemical_formula_sum            'C78 H48 N2 O13 Zn4'
_chemical_formula_weight         1482.66
_chemical_compound_source        'synthesis as described'

#----------------------------------------------------------------------------#
# UNIT CELL INFORMATION #
#----------------------------------------------------------------------------#

_symmetry_cell_setting           cubic
_symmetry_space_group_name_H-M   'P a -3'
_symmetry_space_group_name_Hall  '-P 2ac 2ab 3'
_symmetry_Int_Tables_number      205
loop_
_symmetry_equiv_pos_as_xyz
'x, y, z'
'-x+1/2, -y, z+1/2'
'x+1/2, -y+1/2, -z'
'-x, y+1/2, -z+1/2'
'y, z, x'
'-y+1/2, -z, x+1/2'
'y+1/2, -z+1/2, -x'
'-y, z+1/2, -x+1/2'
'z, x, y'
'-z, x+1/2, -y+1/2'
'-z+1/2, -x, y+1/2'
'z+1/2, -x+1/2, -y'
'-x, -y, -z'
'x-1/2, y, -z-1/2'
'-x-1/2, y-1/2, z'
'x, -y-1/2, z-1/2'
'-y, -z, -x'
'y-1/2, z, -x-1/2'
'-y-1/2, z-1/2, x'
'y, -z-1/2, x-1/2'
'-z, -x, -y'
'z, -x-1/2, y-1/2'
'z-1/2, x, -y-1/2'
'-z-1/2, x-1/2, y'

_cell_length_a                   32.443(4)
_cell_length_b                   32.443(4)
_cell_length_c                   32.443(4)
_cell_angle_alpha                90
_cell_angle_beta                 90
_cell_angle_gamma                90
_cell_volume                     34148(7)
_cell_formula_units_Z            8
_cell_measurement_temperature    100(2)
_cell_measurement_reflns_used    0
_cell_measurement_theta_min      0
_cell_measurement_theta_max      0
_cell_measurement_wavelength     0.77

#----------------------------------------------------------------------------#
# CRYSTAL INFORMATION #
#----------------------------------------------------------------------------#

_exptl_crystal_description       prism
_exptl_crystal_colour            Brown
_exptl_crystal_size_max          0.1
_exptl_crystal_size_mid          0.1
_exptl_crystal_size_min          0.1
_exptl_crystal_density_diffrn    0.577
_exptl_crystal_density_method    'not measured'
_exptl_crystal_F_000             6032
_exptl_special_details           
;
?
;

#----------------------------------------------------------------------------#
# ABSORPTION CORRECTION #
#----------------------------------------------------------------------------#

_exptl_absorpt_coefficient_mu    0.582
_exptl_absorpt_correction_type   none

#----------------------------------------------------------------------------#
# DATA COLLECTION #
#----------------------------------------------------------------------------#

_diffrn_ambient_temperature      100(2)
_diffrn_radiation_wavelength     0.77
_diffrn_radiation_type           synchrotron
_diffrn_radiation_monochromator  'Si(111) double crystal monochromator'
_diffrn_radiation_source         'bending magnet 6C1 MX beamline'
_diffrn_radiation_probe          x-ray
_diffrn_measurement_device_type  'CCD area detector'
_diffrn_measurement_method       'omega scan'
_diffrn_reflns_av_R_equivalents  0.0136
_diffrn_reflns_av_unetI/netI     0.0218
_diffrn_reflns_number            25393
_diffrn_reflns_limit_h_min       -29
_diffrn_reflns_limit_h_max       29
_diffrn_reflns_limit_k_min       -42
_diffrn_reflns_limit_k_max       42
_diffrn_reflns_limit_l_min       -29
_diffrn_reflns_limit_l_max       29
_diffrn_reflns_theta_min         1.18
_diffrn_reflns_theta_max         29.97
_diffrn_reflns_theta_full        29.97
_diffrn_measured_fraction_theta_full 1
_diffrn_measured_fraction_theta_max 1
_reflns_number_total             13037
_reflns_number_gt                9712
_reflns_threshold_expression     >2sigma(I)

#----------------------------------------------------------------------------#
# COMPUTER PROGRAMS USED #
#----------------------------------------------------------------------------#

_computing_structure_solution    'SHELXS-86 (Sheldrick, 1986)'
_computing_structure_refinement  'SHELXL-97 (Sheldrick, 1997)'
_computing_molecular_graphics    'Ortep-3 for Windows (Farrugia, 1997)'
_computing_publication_material  'WinGX publication routines (Farrugia, 1999)'

#----------------------------------------------------------------------------#
# REFINEMENT INFORMATION #
#----------------------------------------------------------------------------#

_refine_special_details          
;
Refinement of F^2^ against ALL reflections. The weighted R-factor wR and
goodness of fit S are based on F^2^, conventional R-factors R are based
on F, with F set to zero for negative F^2^. The threshold expression of
F^2^ > 2sigma(F^2^) is used only for calculating R-factors(gt) etc. and is
not relevant to the choice of reflections for refinement. R-factors based
on F^2^ are statistically about twice as large as those based on F, and R-
factors based on ALL data will be even larger.
;
_refine_ls_structure_factor_coef Fsqd
_refine_ls_matrix_type           full
_refine_ls_weighting_scheme      calc
_refine_ls_weighting_details     
'calc w=1/[\s^2^(Fo^2^)+(0.1577P)^2^+0.0000P] where P=(Fo^2^+2Fc^2^)/3'
_atom_sites_solution_primary     direct
_atom_sites_solution_secondary   difmap
_atom_sites_solution_hydrogens   geom
_refine_ls_hydrogen_treatment    constr
_refine_ls_extinction_method     none
_refine_ls_number_reflns         13037
_refine_ls_number_parameters     292
_refine_ls_number_restraints     0
_refine_ls_R_factor_all          0.0831
_refine_ls_R_factor_gt           0.074
_refine_ls_wR_factor_ref         0.2218
_refine_ls_wR_factor_gt          0.2153
_refine_ls_goodness_of_fit_ref   1.104
_refine_ls_restrained_S_all      1.104
_refine_ls_shift/su_max          0.014
_refine_ls_shift/su_mean         0.003
_refine_diff_density_max         3.409
_refine_diff_density_min         -1.257
_refine_diff_density_rms         0.092

#----------------------------------------------------------------------------#
# ATOMIC TYPES, COORDINATES AND THERMAL PARAMETERS #
#----------------------------------------------------------------------------#

loop_
_atom_type_symbol
_atom_type_description
_atom_type_scat_dispersion_real
_atom_type_scat_dispersion_imag
_atom_type_scat_source
C C 0.0033 0.0016 'International Tables Vol C Tables 4.2.6.8 and 6.1.1.4'
H H 0 0 'International Tables Vol C Tables 4.2.6.8 and 6.1.1.4'
N N 0.0061 0.0033 'International Tables Vol C Tables 4.2.6.8 and 6.1.1.4'
O O 0.0106 0.006 'International Tables Vol C Tables 4.2.6.8 and 6.1.1.4'
Zn Zn 0.2839 1.4301 'International Tables Vol C Tables 4.2.6.8 and 6.1.1.4'

loop_
_atom_site_label
_atom_site_type_symbol
_atom_site_fract_x
_atom_site_fract_y
_atom_site_fract_z
_atom_site_U_iso_or_equiv
_atom_site_adp_type
_atom_site_occupancy
_atom_site_symmetry_multiplicity
_atom_site_calc_flag
_atom_site_refinement_flags
_atom_site_disorder_assembly
_atom_site_disorder_group
O2 O 0.82961(5) 0.24951(5) 0.20626(5) 0.0377(4) Uani 1 1 d . . .
O5 O 0.77840(5) 0.19636(5) 0.33512(5) 0.0402(4) Uani 1 1 d . . .
O1 O 0.74434(4) 0.24434(4) 0.25566(4) 0.0300(5) Uani 1 3 d S . .
O4 O 0.74292(5) 0.25182(5) 0.35546(5) 0.0411(4) Uani 1 1 d . . .
C1 C 0.84628(7) 0.21924(7) 0.22383(7) 0.0327(5) Uani 1 1 d . . .
O3 O 0.83097(5) 0.19967(5) 0.25391(5) 0.0427(4) Uani 1 1 d . . .
Zn1 Zn 0.778993(8) 0.278993(8) 0.221007(8) 0.03019(14) Uani 1 3 d S . .
Zn2 Zn 0.775034(8) 0.196726(8) 0.275248(8) 0.03133(12) Uani 1 1 d . . .
N2 N 0.84902(6) 0.15098(6) 0.65098(6) 0.0340(7) Uani 1 3 d S . .
C14 C 0.76535(8) 0.22048(7) 0.36179(7) 0.0350(5) Uani 1 1 d . . .
C21 C 0.80981(7) 0.18207(7) 0.53028(7) 0.0373(5) Uani 1 1 d . . .
C15 C 0.77610(7) 0.21125(8) 0.40563(7) 0.0361(5) Uani 1 1 d . . .
C24 C 0.83451(7) 0.16070(7) 0.61033(7) 0.0344(5) Uani 1 1 d . . .
C17 C 0.81207(9) 0.16848(9) 0.45447(8) 0.0479(6) Uani 1 1 d . . .
H17 H 0.8289 0.1459 0.4598 0.057 Uiso 1 1 calc R . .
C25 C 0.82858(7) 0.20194(7) 0.59960(7) 0.0367(5) Uani 1 1 d . . .
H25 H 0.8325 0.2225 0.6192 0.044 Uiso 1 1 calc R . .
C4 C 0.94319(8) 0.20862(8) 0.16061(8) 0.0427(6) Uani 1 1 d . . .
H4 H 0.955 0.2209 0.1376 0.051 Uiso 1 1 calc R . .
C23 C 0.82699(7) 0.13020(7) 0.58092(7) 0.0381(5) Uani 1 1 d . . .
H23 H 0.8302 0.1026 0.5879 0.046 Uiso 1 1 calc R . .
C26 C 0.81692(8) 0.21219(7) 0.55997(7) 0.0371(5) Uani 1 1 d . . .
H26 H 0.8138 0.2398 0.553 0.045 Uiso 1 1 calc R . .
C22 C 0.81503(8) 0.14067(8) 0.54199(8) 0.0400(5) Uani 1 1 d . . .
H22 H 0.8102 0.12 0.5228 0.048 Uiso 1 1 calc R . .
C19 C 0.77289(8) 0.22614(8) 0.47855(8) 0.0430(6) Uani 1 1 d . . .
H19 H 0.7631 0.2425 0.5 0.052 Uiso 1 1 calc R . .
C16 C 0.80137(8) 0.17734(8) 0.41446(8) 0.0458(6) Uani 1 1 d . . .
H16 H 0.8109 0.1608 0.3931 0.055 Uiso 1 1 calc R . .
N1 N 1.11546(8) 0.11546(8) 0.11546(8) 0.0520(10) Uani 1 3 d S . .
C18 C 0.79818(7) 0.19265(7) 0.48720(7) 0.0376(5) Uani 1 1 d . . .
C2 C 0.88730(7) 0.20519(7) 0.20886(7) 0.0364(5) Uani 1 1 d . . .
C20 C 0.76206(8) 0.23532(8) 0.43802(8) 0.0424(6) Uani 1 1 d . . .
H20 H 0.7452 0.2579 0.4326 0.051 Uiso 1 1 calc R . .
C5 C 0.96365(8) 0.17667(8) 0.18019(8) 0.0446(6) Uani 1 1 d . . .
C3 C 0.90577(8) 0.22241(7) 0.17465(8) 0.0403(5) Uani 1 1 d . . .
H3 H 0.8926 0.2438 0.1608 0.048 Uiso 1 1 calc R . .
C8 C 1.00369(8) 0.16117(8) 0.16451(8) 0.0464(6) Uani 1 1 d . . .
C9 C 1.03316(9) 0.18698(8) 0.14986(9) 0.0496(6) Uani 1 1 d . . .
H9 H 1.0284 0.2153 0.1502 0.059 Uiso 1 1 calc R . .
C11 C 1.07809(8) 0.13074(8) 0.13268(8) 0.0472(6) Uani 1 1 d . . .
C7 C 0.90744(9) 0.17316(9) 0.22906(9) 0.0526(7) Uani 1 1 d . . .
H7 H 0.8956 0.1612 0.2523 0.063 Uiso 1 1 calc R . .
C13 C 1.01127(9) 0.11834(9) 0.16231(9) 0.0545(7) Uani 1 1 d . . .
H13 H 0.9913 0.1 0.1717 0.065 Uiso 1 1 calc R . .
C10 C 1.07046(9) 0.17205(9) 0.13426(9) 0.0514(7) Uani 1 1 d . . .
H10 H 1.0903 0.1905 0.1249 0.062 Uiso 1 1 calc R . .
C12 C 1.04771(9) 0.10312(9) 0.14650(9) 0.0544(7) Uani 1 1 d . . .
H12 H 1.0521 0.0748 0.145 0.065 Uiso 1 1 calc R . .
C6 C 0.94481(9) 0.15907(10) 0.21487(10) 0.0583(8) Uani 1 1 d . . .
H6 H 0.9578 0.1375 0.2285 0.07 Uiso 1 1 calc R . .

loop_
_atom_site_aniso_label
_atom_site_aniso_U_11
_atom_site_aniso_U_22
_atom_site_aniso_U_33
_atom_site_aniso_U_23
_atom_site_aniso_U_13
_atom_site_aniso_U_12
O2 0.0353(8) 0.0372(9) 0.0407(9) 0.0010(7) 0.0040(7) 0.0052(7)
O5 0.0461(10) 0.0405(9) 0.0340(9) 0.0011(7) -0.0021(7) 0.0050(7)
O1 0.0300(5) 0.0300(5) 0.0300(5) 0.0002(6) 0.0002(6) -0.0002(6)
O4 0.0445(10) 0.0437(9) 0.0350(9) 0.0004(7) -0.0015(7) 0.0042(8)
C1 0.0303(11) 0.0329(11) 0.0347(12) 0.0013(9) 0.0017(9) 0.0015(9)
O3 0.0384(9) 0.0459(10) 0.0436(10) 0.0028(8) 0.0034(7) 0.0065(7)
Zn1 0.03019(14) 0.03019(14) 0.03019(14) -0.00108(10) -0.00108(10) 0.00108(10)
Zn2 0.03192(17) 0.03105(17) 0.03103(17) -0.00056(10) -0.00063(9) 0.00080(10)
N2 0.0340(7) 0.0340(7) 0.0340(7) 0.0042(8) -0.0042(8) -0.0042(8)
C14 0.0356(12) 0.0373(12) 0.0322(12) 0.0016(9) -0.0024(9) 0.0003(9)
C21 0.0372(12) 0.0383(12) 0.0363(12) 0.0015(10) -0.0043(10) -0.0028(9)
C15 0.0348(12) 0.0394(12) 0.0341(12) 0.0019(10) -0.0031(9) 0.0010(9)
C24 0.0334(11) 0.0345(11) 0.0353(11) 0.0040(9) -0.0048(9) -0.0043(9)
C17 0.0532(15) 0.0485(15) 0.0419(14) 0.0016(11) -0.0039(12) 0.0112(12)
C25 0.0404(12) 0.0352(12) 0.0346(11) 0.0023(9) -0.0070(10) -0.0053(10)
C4 0.0438(14) 0.0398(13) 0.0445(14) 0.0059(11) 0.0098(11) 0.0065(11)
C23 0.0400(12) 0.0335(11) 0.0406(12) 0.0027(10) -0.0049(10) -0.0032(9)
C26 0.0421(13) 0.0348(12) 0.0345(12) 0.0035(9) -0.0054(10) -0.0015(10)
C22 0.0442(13) 0.0389(13) 0.0368(12) -0.0018(10) -0.0032(10) -0.0010(10)
C19 0.0509(15) 0.0450(14) 0.0330(13) -0.0014(10) -0.0028(11) 0.0067(11)
C16 0.0513(15) 0.0479(14) 0.0381(13) -0.0005(11) -0.0009(11) 0.0085(12)
N1 0.0520(10) 0.0520(10) 0.0520(10) 0.0203(12) 0.0203(12) 0.0203(12)
C18 0.0394(12) 0.0380(12) 0.0355(12) 0.0017(9) -0.0054(10) -0.0018(10)
C2 0.0349(12) 0.0370(12) 0.0372(12) 0.0023(10) 0.0031(9) 0.0032(9)
C20 0.0478(14) 0.0440(13) 0.0355(13) 0.0011(11) -0.0063(11) 0.0065(12)
C5 0.0441(14) 0.0441(13) 0.0456(14) 0.0057(11) 0.0102(11) 0.0098(11)
C3 0.0413(13) 0.0360(12) 0.0437(13) 0.0036(10) 0.0042(11) 0.0074(10)
C8 0.0442(14) 0.0485(14) 0.0466(14) 0.0120(11) 0.0125(11) 0.0161(11)
C9 0.0512(15) 0.0428(14) 0.0548(16) 0.0087(12) 0.0101(13) 0.0113(12)
C11 0.0467(14) 0.0490(14) 0.0461(14) 0.0145(12) 0.0155(11) 0.0146(12)
C7 0.0483(15) 0.0570(17) 0.0525(16) 0.0172(13) 0.0142(12) 0.0183(13)
C13 0.0511(15) 0.0478(15) 0.0647(18) 0.0140(13) 0.0171(13) 0.0088(12)
C10 0.0463(15) 0.0487(15) 0.0592(17) 0.0136(13) 0.0151(13) 0.0084(12)
C12 0.0519(16) 0.0466(15) 0.0648(18) 0.0097(13) 0.0137(14) 0.0109(12)
C6 0.0516(16) 0.0633(19) 0.0601(17) 0.0212(15) 0.0184(14) 0.0198(14)


#----------------------------------------------------------------------------#
# MOLECULAR GEOMETRY #
#----------------------------------------------------------------------------#

_geom_special_details            
;
All esds (except the esd in the dihedral angle between two l.s. planes)
are estimated using the full covariance matrix. The cell esds are taken
into account individually in the estimation of esds in distances, angles
and torsion angles; correlations between esds in cell parameters are only
used when they are defined by crystal symmetry. An approximate (isotropic)
treatment of cell esds is used for estimating esds involving l.s. planes.
;
loop_
_geom_bond_atom_site_label_1
_geom_bond_atom_site_label_2
_geom_bond_distance
_geom_bond_site_symmetry_2
_geom_bond_publ_flag
O2 C1 1.258(3) . ?
O2 Zn1 1.9596(16) . ?
O5 C14 1.241(3) . ?
O5 Zn2 1.9454(18) . ?
O1 Zn2 1.9446(10) 7_556 ?
O1 Zn2 1.9446(10) 10_645 ?
O1 Zn2 1.9446(10) . ?
O1 Zn1 1.947(3) . ?
O4 C14 1.267(3) . ?
O4 Zn2 1.9444(17) 10_645 ?
C1 O3 1.266(3) . ?
C1 C2 1.488(3) . ?
O3 Zn2 1.9446(17) . ?
Zn1 O2 1.9596(16) 7_556 ?
Zn1 O2 1.9596(16) 10_645 ?
Zn2 O4 1.9444(17) 7_556 ?
Zn2 Zn2 3.1531(6) 7_556 ?
Zn2 Zn2 3.1531(6) 10_645 ?
N2 C24 1.436(2) 8_646 ?
N2 C24 1.436(2) . ?
N2 C24 1.436(2) 11_665 ?
C14 C15 1.495(3) . ?
C21 C26 1.391(3) . ?
C21 C22 1.406(3) . ?
C21 C18 1.488(3) . ?
C15 C20 1.386(4) . ?
C15 C16 1.402(3) . ?
C24 C23 1.396(3) . ?
C24 C25 1.395(3) . ?
C17 C16 1.374(4) . ?
C17 C18 1.395(4) . ?
C25 C26 1.381(3) . ?
C4 C3 1.372(3) . ?
C4 C5 1.385(3) . ?
C23 C22 1.364(3) . ?
C19 C18 1.390(3) . ?
C19 C20 1.393(3) . ?
N1 C11 1.424(2) . ?
N1 C11 1.424(2) 9_645 ?
N1 C11 1.424(2) 5_654 ?
C2 C3 1.380(3) . ?
C2 C7 1.391(3) . ?
C5 C6 1.402(4) . ?
C5 C8 1.483(3) . ?
C8 C9 1.357(4) . ?
C8 C13 1.413(4) . ?
C9 C10 1.398(4) . ?
C11 C10 1.364(4) . ?
C11 C12 1.406(4) . ?
C7 C6 1.375(4) . ?
C13 C12 1.380(4) . ?

loop_
_geom_angle_atom_site_label_1
_geom_angle_atom_site_label_2
_geom_angle_atom_site_label_3
_geom_angle
_geom_angle_site_symmetry_1
_geom_angle_site_symmetry_3
_geom_angle_publ_flag
C1 O2 Zn1 129.12(15) . . ?
C14 O5 Zn2 132.30(16) . . ?
Zn2 O1 Zn2 108.34(7) 7_556 10_645 ?
Zn2 O1 Zn2 108.34(7) 7_556 . ?
Zn2 O1 Zn2 108.34(7) 10_645 . ?
Zn2 O1 Zn1 110.58(7) 7_556 . ?
Zn2 O1 Zn1 110.58(7) 10_645 . ?
Zn2 O1 Zn1 110.58(7) . . ?
C14 O4 Zn2 128.76(16) . 10_645 ?
O2 C1 O3 124.9(2) . . ?
O2 C1 C2 118.4(2) . . ?
O3 C1 C2 116.7(2) . . ?
C1 O3 Zn2 131.71(16) . . ?
O1 Zn1 O2 110.05(5) . 7_556 ?
O1 Zn1 O2 110.05(5) . 10_645 ?
O2 Zn1 O2 108.88(5) 7_556 10_645 ?
O1 Zn1 O2 110.05(5) . . ?
O2 Zn1 O2 108.88(5) 7_556 . ?
O2 Zn1 O2 108.88(5) 10_645 . ?
O3 Zn2 O5 107.66(7) . . ?
O3 Zn2 O1 108.82(9) . . ?
O5 Zn2 O1 111.09(6) . . ?
O3 Zn2 O4 107.24(7) . 7_556 ?
O5 Zn2 O4 108.61(7) . 7_556 ?
O1 Zn2 O4 113.22(6) . 7_556 ?
O3 Zn2 Zn2 123.61(5) . 7_556 ?
O5 Zn2 Zn2 124.30(5) . 7_556 ?
O1 Zn2 Zn2 35.83(4) . 7_556 ?
O4 Zn2 Zn2 77.42(5) 7_556 7_556 ?
O3 Zn2 Zn2 123.08(5) . 10_645 ?
O5 Zn2 Zn2 75.29(5) . 10_645 ?
O1 Zn2 Zn2 35.83(4) . 10_645 ?
O4 Zn2 Zn2 126.06(5) 7_556 10_645 ?
Zn2 Zn2 Zn2 60 7_556 10_645 ?
C24 N2 C24 115.54(11) 8_646 . ?
C24 N2 C24 115.54(11) 8_646 11_665 ?
C24 N2 C24 115.54(11) . 11_665 ?
O5 C14 O4 126.1(2) . . ?
O5 C14 C15 117.2(2) . . ?
O4 C14 C15 116.7(2) . . ?
C26 C21 C22 117.6(2) . . ?
C26 C21 C18 122.0(2) . . ?
C22 C21 C18 120.3(2) . . ?
C20 C15 C16 118.7(2) . . ?
C20 C15 C14 122.1(2) . . ?
C16 C15 C14 119.2(2) . . ?
C23 C24 C25 119.0(2) . . ?
C23 C24 N2 122.0(2) . . ?
C25 C24 N2 119.0(2) . . ?
C16 C17 C18 121.3(2) . . ?
C26 C25 C24 120.1(2) . . ?
C3 C4 C5 121.1(2) . . ?
C22 C23 C24 120.4(2) . . ?
C25 C26 C21 121.4(2) . . ?
C23 C22 C21 121.5(2) . . ?
C18 C19 C20 120.4(2) . . ?
C17 C16 C15 120.3(2) . . ?
C11 N1 C11 119.59(5) . 9_645 ?
C11 N1 C11 119.59(5) . 5_654 ?
C11 N1 C11 119.59(5) 9_645 5_654 ?
C19 C18 C17 118.5(2) . . ?
C19 C18 C21 121.3(2) . . ?
C17 C18 C21 120.2(2) . . ?
C3 C2 C7 118.5(2) . . ?
C3 C2 C1 121.8(2) . . ?
C7 C2 C1 119.7(2) . . ?
C15 C20 C19 120.8(2) . . ?
C4 C5 C6 117.7(2) . . ?
C4 C5 C8 121.1(2) . . ?
C6 C5 C8 121.3(2) . . ?
C2 C3 C4 121.3(2) . . ?
C9 C8 C13 117.8(2) . . ?
C9 C8 C5 121.9(2) . . ?
C13 C8 C5 120.2(2) . . ?
C8 C9 C10 121.5(3) . . ?
C10 C11 C12 119.2(2) . . ?
C10 C11 N1 120.8(3) . . ?
C12 C11 N1 120.0(3) . . ?
C6 C7 C2 120.3(3) . . ?
C12 C13 C8 121.3(3) . . ?
C11 C10 C9 120.7(3) . . ?
C13 C12 C11 119.4(3) . . ?
C7 C6 C5 121.2(3) . . ?
