####################################################################### 
# 
# This file contains crystal structure data downloaded from the 
# Cambridge Structural Database (CSD) hosted by the Cambridge 
# Crystallographic Data Centre (CCDC).
# 
# Full information about CCDC data access policies and citation 
# guidelines are available at http://www.ccdc.cam.ac.uk/access/V1 
# 
# Audit and citation data items may have been added by the CCDC. 
# Please retain this information to preserve the provenance of 
# this file and to allow appropriate attribution of the data. 
# 
#######################################################################

data_SNU-77R-293K
_audit_block_doi                 10.5517/ccv95y7
_database_code_depnum_ccdc_archive 'CCDC 783399'
loop_
_citation_id
_citation_doi
_citation_year
1 10.1002/chem.201003376 2011
_audit_update_record             
;
2010-07-05 deposited with the CCDC.	2024-07-13 downloaded from the CCDC.
;
#TrackingRef 'SNU-77R-293K.cif'

#==============================================================================



_audit_creation_date             2010-06-07T19:39:56-00:00
_audit_creation_method           'WinGX routine CIF_UPDATE'

#----------------------------------------------------------------------------#
# CHEMICAL INFORMATION #
#----------------------------------------------------------------------------#

_chemical_name_systematic        
;
?
;
_chemical_formula_moiety         'C78 H48 N2 O13 Zn4'
_chemical_formula_sum            'C78 H48 N2 O13 Zn4'
_chemical_formula_weight         1482.66
_chemical_compound_source        'synthesis as described'

#----------------------------------------------------------------------------#
# UNIT CELL INFORMATION #
#----------------------------------------------------------------------------#

_symmetry_cell_setting           cubic
_symmetry_space_group_name_H-M   'P a -3'
_symmetry_space_group_name_Hall  '-P 2ac 2ab 3'
_symmetry_Int_Tables_number      205
loop_
_symmetry_equiv_pos_as_xyz
'x, y, z'
'-x+1/2, -y, z+1/2'
'x+1/2, -y+1/2, -z'
'-x, y+1/2, -z+1/2'
'y, z, x'
'-y+1/2, -z, x+1/2'
'y+1/2, -z+1/2, -x'
'-y, z+1/2, -x+1/2'
'z, x, y'
'-z, x+1/2, -y+1/2'
'-z+1/2, -x, y+1/2'
'z+1/2, -x+1/2, -y'
'-x, -y, -z'
'x-1/2, y, -z-1/2'
'-x-1/2, y-1/2, z'
'x, -y-1/2, z-1/2'
'-y, -z, -x'
'y-1/2, z, -x-1/2'
'-y-1/2, z-1/2, x'
'y, -z-1/2, x-1/2'
'-z, -x, -y'
'z, -x-1/2, y-1/2'
'z-1/2, x, -y-1/2'
'-z-1/2, x-1/2, y'

_cell_length_a                   32.387(5)
_cell_length_b                   32.387(5)
_cell_length_c                   32.387(5)
_cell_angle_alpha                90.000(5)
_cell_angle_beta                 90.000(5)
_cell_angle_gamma                90.000(5)
_cell_volume                     33971(9)
_cell_formula_units_Z            8
_cell_measurement_temperature    293(2)
_cell_measurement_reflns_used    0
_cell_measurement_theta_min      0
_cell_measurement_theta_max      0
_cell_measurement_wavelength     0.77000

#----------------------------------------------------------------------------#
# CRYSTAL INFORMATION #
#----------------------------------------------------------------------------#

_exptl_crystal_description       prism
_exptl_crystal_colour            brown
_exptl_crystal_size_max          0.2
_exptl_crystal_size_mid          0.2
_exptl_crystal_size_min          0.2
_exptl_crystal_density_diffrn    0.58
_exptl_crystal_density_method    'not measured'
_exptl_crystal_F_000             6032
_exptl_special_details           
;
?
;

#----------------------------------------------------------------------------#
# ABSORPTION CORRECTION #
#----------------------------------------------------------------------------#

_exptl_absorpt_coefficient_mu    0.585
_exptl_absorpt_correction_type   none

#----------------------------------------------------------------------------#
# DATA COLLECTION #
#----------------------------------------------------------------------------#

_diffrn_ambient_temperature      293(2)
_diffrn_radiation_wavelength     0.77
_diffrn_radiation_type           synchrotron
_diffrn_radiation_monochromator  'Si(111) double crystal monochromator'
_diffrn_radiation_source         'bending magnet 6C1 MX beamline'
_diffrn_radiation_probe          x-ray
_diffrn_measurement_device_type  'CCD area detector'
_diffrn_measurement_method       'omega scan'
_diffrn_reflns_av_R_equivalents  0.0097
_diffrn_reflns_av_unetI/netI     0.0194
_diffrn_reflns_number            23742
_diffrn_reflns_limit_h_min       -30
_diffrn_reflns_limit_h_max       29
_diffrn_reflns_limit_k_min       -43
_diffrn_reflns_limit_k_max       44
_diffrn_reflns_limit_l_min       -29
_diffrn_reflns_limit_l_max       29
_diffrn_reflns_theta_min         1.18
_diffrn_reflns_theta_max         33.71
_diffrn_reflns_theta_full        29
_diffrn_measured_fraction_theta_full 0.984
_diffrn_measured_fraction_theta_max 0.703
_reflns_number_total             12506
_reflns_number_gt                8626
_reflns_threshold_expression     >2sigma(I)

#----------------------------------------------------------------------------#
# COMPUTER PROGRAMS USED #
#----------------------------------------------------------------------------#

_computing_structure_solution    'SHELXS-97 (Sheldrick, 1997)'
_computing_structure_refinement  'SHELXL-97 (Sheldrick, 1997)'
_computing_molecular_graphics    'Ortep-3 for Windows (Farrugia, 1997)'
_computing_publication_material  'WinGX publication routines (Farrugia, 1999)'

#----------------------------------------------------------------------------#
# REFINEMENT INFORMATION #
#----------------------------------------------------------------------------#

_refine_special_details          
;
Refinement of F^2^ against ALL reflections. The weighted R-factor wR and
goodness of fit S are based on F^2^, conventional R-factors R are based
on F, with F set to zero for negative F^2^. The threshold expression of
F^2^ > 2sigma(F^2^) is used only for calculating R-factors(gt) etc. and is
not relevant to the choice of reflections for refinement. R-factors based
on F^2^ are statistically about twice as large as those based on F, and R-
factors based on ALL data will be even larger.
;
_refine_ls_structure_factor_coef Fsqd
_refine_ls_matrix_type           full
_refine_ls_weighting_scheme      calc
_refine_ls_weighting_details     
'calc w=1/[\s^2^(Fo^2^)+(0.1521P)^2^+10.4704P] where P=(Fo^2^+2Fc^2^)/3'
_atom_sites_solution_primary     direct
_atom_sites_solution_secondary   difmap
_atom_sites_solution_hydrogens   geom
_refine_ls_hydrogen_treatment    constr
_refine_ls_extinction_method     none
_refine_ls_number_reflns         12506
_refine_ls_number_parameters     292
_refine_ls_number_restraints     2
_refine_ls_R_factor_all          0.0993
_refine_ls_R_factor_gt           0.0725
_refine_ls_wR_factor_ref         0.2568
_refine_ls_wR_factor_gt          0.233
_refine_ls_goodness_of_fit_ref   1.103
_refine_ls_restrained_S_all      1.259
_refine_ls_shift/su_max          0.008
_refine_ls_shift/su_mean         0
_refine_diff_density_max         1.721
_refine_diff_density_min         -0.65
_refine_diff_density_rms         0.07

#----------------------------------------------------------------------------#
# ATOMIC TYPES, COORDINATES AND THERMAL PARAMETERS #
#----------------------------------------------------------------------------#

loop_
_atom_type_symbol
_atom_type_description
_atom_type_scat_dispersion_real
_atom_type_scat_dispersion_imag
_atom_type_scat_source
C C 0.0033 0.0016 'International Tables Vol C Tables 4.2.6.8 and 6.1.1.4'
H H 0 0 'International Tables Vol C Tables 4.2.6.8 and 6.1.1.4'
N N 0.0061 0.0033 'International Tables Vol C Tables 4.2.6.8 and 6.1.1.4'
O O 0.0106 0.006 'International Tables Vol C Tables 4.2.6.8 and 6.1.1.4'
Zn Zn 0.2839 1.4301 'International Tables Vol C Tables 4.2.6.8 and 6.1.1.4'

loop_
_atom_site_label
_atom_site_type_symbol
_atom_site_fract_x
_atom_site_fract_y
_atom_site_fract_z
_atom_site_U_iso_or_equiv
_atom_site_adp_type
_atom_site_occupancy
_atom_site_symmetry_multiplicity
_atom_site_calc_flag
_atom_site_refinement_flags
_atom_site_disorder_assembly
_atom_site_disorder_group
C9 C 0.3181(3) 0.1385(3) -0.0336(2) 0.214(6) Uani 1 1 d D . .
H9 H 0.2998 0.1206 -0.0206 0.257 Uiso 1 1 calc R . .
C10 C 0.3306(3) 0.1267(3) -0.0700(2) 0.199(5) Uani 1 1 d D . .
H10 H 0.3198 0.102 -0.08 0.238 Uiso 1 1 calc R . .
C12 C 0.3423(3) 0.1907(3) -0.0884(3) 0.215(5) Uani 1 1 d . . .
H12 H 0.3427 0.2086 -0.1109 0.258 Uiso 1 1 calc R . .
C13 C 0.3301(3) 0.2036(3) -0.0483(3) 0.189(4) Uani 1 1 d . . .
H13 H 0.3239 0.2311 -0.043 0.227 Uiso 1 1 calc R . .
C20 C 0.26464(16) 0.43274(14) 0.22795(17) 0.0939(14) Uani 1 1 d . . .
H20 H 0.2408 0.4284 0.2434 0.113 Uiso 1 1 calc R . .
O1 O 0.25159(7) 0.25159(7) 0.25159(7) 0.0582(9) Uani 1 3 d S . .
O2 O 0.24598(9) 0.20290(9) 0.16565(8) 0.0741(7) Uani 1 1 d . . .
O3 O 0.29647(10) 0.24973(11) 0.16527(9) 0.0897(9) Uani 1 1 d . . .
O4 O 0.30297(11) 0.32915(10) 0.21980(11) 0.0921(9) Uani 1 1 d . . .
O5 O 0.24550(11) 0.35130(9) 0.24893(11) 0.0916(9) Uani 1 1 d . . .
C1 C 0.27585(12) 0.22104(12) 0.14884(13) 0.0687(10) Uani 1 1 d . . .
C2 C 0.28814(14) 0.20795(14) 0.10691(14) 0.0788(11) Uani 1 1 d . . .
C3 C 0.27126(13) 0.17436(14) 0.08805(14) 0.0813(12) Uani 1 1 d . . .
H3 H 0.2506 0.1596 0.1014 0.098 Uiso 1 1 calc R . .
C4 C 0.28423(14) 0.16183(15) 0.04955(16) 0.0914(14) Uani 1 1 d . . .
H4 H 0.2731 0.138 0.0381 0.11 Uiso 1 1 calc R . .
C5 C 0.31323(16) 0.18386(17) 0.02776(16) 0.1050(18) Uani 1 1 d . . .
C6 C 0.3297(2) 0.2184(2) 0.0462(2) 0.149(3) Uani 1 1 d . . .
H6 H 0.349 0.2342 0.032 0.179 Uiso 1 1 calc R . .
C7 C 0.3178(2) 0.22992(18) 0.08541(18) 0.128(3) Uani 1 1 d . . .
H7 H 0.3299 0.2529 0.0976 0.154 Uiso 1 1 calc R . .
C8 C 0.32731(19) 0.17067(18) -0.01332(18) 0.120(2) Uani 1 1 d D . .
C11 C 0.3548(2) 0.14450(19) -0.0919(2) 0.160(4) Uani 1 1 d D . .
C14 C 0.27839(14) 0.35666(13) 0.22966(14) 0.0753(11) Uani 1 1 d . . .
C15 C 0.28924(15) 0.39969(13) 0.21768(14) 0.0792(11) Uani 1 1 d . . .
C16 C 0.32471(19) 0.40729(15) 0.1950(2) 0.1143(19) Uani 1 1 d . . .
H16 H 0.3419 0.3856 0.1874 0.137 Uiso 1 1 calc R . .
C17 C 0.3342(2) 0.44685(17) 0.1838(2) 0.119(2) Uani 1 1 d . . .
H17 H 0.3584 0.4514 0.169 0.143 Uiso 1 1 calc R . .
C18 C 0.30990(15) 0.48003(13) 0.19326(15) 0.0819(11) Uani 1 1 d . . .
C19 C 0.27492(17) 0.47245(15) 0.21553(18) 0.0993(16) Uani 1 1 d . . .
H19 H 0.2576 0.4943 0.2225 0.119 Uiso 1 1 calc R . .
C21 C 0.32240(14) 0.52212(13) 0.18072(14) 0.0804(11) Uani 1 1 d . . .
C22 C 0.36385(14) 0.53314(14) 0.17667(15) 0.0877(12) Uani 1 1 d . . .
H22 H 0.384 0.5134 0.1823 0.105 Uiso 1 1 calc R . .
C23 C 0.37614(14) 0.57180(14) 0.16476(14) 0.0842(12) Uani 1 1 d . . .
H23 H 0.4041 0.5779 0.1621 0.101 Uiso 1 1 calc R . .
C24 C 0.34658(13) 0.60199(13) 0.15658(13) 0.0747(10) Uani 1 1 d . . .
C25 C 0.30511(13) 0.59244(13) 0.16150(14) 0.0820(12) Uani 1 1 d . . .
H25 H 0.2851 0.6125 0.1569 0.098 Uiso 1 1 calc R . .
C26 C 0.29362(14) 0.55312(14) 0.17324(15) 0.0863(13) Uani 1 1 d . . .
H26 H 0.2657 0.5471 0.1763 0.104 Uiso 1 1 calc R . .
N1 N 0.3698(3) 0.1302(3) -0.1302(3) 0.200(7) Uani 1 3 d S . .
N2 N 0.35805(12) 0.64195(12) 0.14195(12) 0.0763(16) Uani 1 3 d S . .
Zn1 Zn 0.300313(13) 0.269399(13) 0.221584(13) 0.06040(18) Uani 1 1 d . . .
Zn2 Zn 0.216810(13) 0.216810(13) 0.216810(13) 0.0556(2) Uani 1 3 d S . .

loop_
_atom_site_aniso_label
_atom_site_aniso_U_11
_atom_site_aniso_U_22
_atom_site_aniso_U_33
_atom_site_aniso_U_23
_atom_site_aniso_U_13
_atom_site_aniso_U_12
C9 0.226(8) 0.294(11) 0.122(5) -0.106(6) 0.104(6) -0.186(8)
C10 0.217(8) 0.250(9) 0.129(5) -0.115(6) 0.098(5) -0.166(7)
C12 0.254(11) 0.211(9) 0.179(8) -0.087(7) 0.122(8) -0.092(8)
C13 0.211(10) 0.184(8) 0.174(8) -0.071(7) 0.085(7) -0.033(7)
C20 0.095(3) 0.061(2) 0.126(4) 0.017(2) 0.019(3) -0.006(2)
O1 0.0582(9) 0.0582(9) 0.0582(9) 0.0023(10) 0.0023(10) 0.0023(10)
O2 0.0750(16) 0.0809(17) 0.0663(15) -0.0101(13) 0.0157(13) -0.0022(13)
O3 0.101(2) 0.097(2) 0.0707(17) -0.0138(16) 0.0204(16) -0.0230(18)
O4 0.094(2) 0.0668(18) 0.116(3) 0.0068(16) 0.0161(18) -0.0072(16)
O5 0.099(2) 0.0606(16) 0.115(2) 0.0132(16) 0.019(2) -0.0035(15)
C1 0.069(2) 0.072(2) 0.065(2) -0.0056(18) 0.0137(17) 0.0011(18)
C2 0.077(2) 0.084(3) 0.076(3) -0.015(2) 0.021(2) -0.007(2)
C3 0.078(2) 0.087(3) 0.079(3) -0.016(2) 0.026(2) -0.019(2)
C4 0.089(3) 0.088(3) 0.097(3) -0.031(3) 0.038(2) -0.026(2)
C5 0.106(3) 0.107(3) 0.102(3) -0.046(3) 0.056(3) -0.034(3)
C6 0.182(7) 0.136(5) 0.130(5) -0.066(4) 0.094(5) -0.086(5)
C7 0.159(5) 0.116(4) 0.110(4) -0.052(3) 0.073(4) -0.066(4)
C8 0.137(4) 0.108(4) 0.114(4) -0.051(3) 0.079(4) -0.056(3)
C11 0.179(6) 0.128(4) 0.172(6) -0.103(4) 0.128(5) -0.102(4)
C14 0.085(3) 0.058(2) 0.083(3) 0.0035(19) 0.001(2) -0.0038(19)
C15 0.091(3) 0.063(2) 0.084(3) 0.0084(19) 0.005(2) -0.010(2)
C16 0.123(4) 0.066(3) 0.154(5) 0.012(3) 0.048(4) -0.003(3)
C17 0.122(4) 0.087(3) 0.149(5) 0.011(3) 0.054(4) -0.014(3)
C18 0.089(3) 0.065(2) 0.092(3) 0.009(2) 0.004(2) -0.009(2)
C19 0.097(3) 0.067(3) 0.134(4) 0.023(3) 0.017(3) -0.001(2)
C21 0.083(3) 0.070(2) 0.088(3) 0.016(2) -0.006(2) -0.016(2)
C22 0.081(3) 0.078(3) 0.103(3) 0.023(2) -0.006(2) -0.004(2)
C23 0.072(2) 0.080(3) 0.100(3) 0.023(2) -0.006(2) -0.013(2)
C24 0.075(2) 0.073(2) 0.076(2) 0.0217(19) -0.0185(19) -0.0201(19)
C25 0.072(2) 0.076(2) 0.098(3) 0.031(2) -0.020(2) -0.016(2)
C26 0.074(2) 0.079(3) 0.106(3) 0.025(2) -0.018(2) -0.019(2)
N1 0.200(7) 0.200(7) 0.200(7) -0.159(7) 0.159(7) -0.159(7)
N2 0.0763(16) 0.0763(16) 0.0763(16) 0.0255(19) -0.0255(19) -0.0255(19)
Zn1 0.0577(3) 0.0602(3) 0.0633(3) 0.00235(17) 0.00190(17) 0.00049(17)
Zn2 0.0556(2) 0.0556(2) 0.0556(2) 0.00367(17) 0.00367(17) 0.00367(17)


#----------------------------------------------------------------------------#
# MOLECULAR GEOMETRY #
#----------------------------------------------------------------------------#

_geom_special_details            
;
All esds (except the esd in the dihedral angle between two l.s. planes)
are estimated using the full covariance matrix. The cell esds are taken
into account individually in the estimation of esds in distances, angles
and torsion angles; correlations between esds in cell parameters are only
used when they are defined by crystal symmetry. An approximate (isotropic)
treatment of cell esds is used for estimating esds involving l.s. planes.
;
loop_
_geom_bond_atom_site_label_1
_geom_bond_atom_site_label_2
_geom_bond_distance
_geom_bond_site_symmetry_2
_geom_bond_publ_flag
C9 C8 1.269(7) . ?
C9 C10 1.302(8) . ?
C10 C11 1.205(7) . ?
C12 C13 1.420(11) . ?
C12 C11 1.555(13) . ?
C13 C8 1.558(12) . ?
C20 C15 1.375(7) . ?
C20 C19 1.388(6) . ?
O1 Zn1 1.9410(15) 9 ?
O1 Zn1 1.9410(15) . ?
O1 Zn1 1.9410(15) 5 ?
O1 Zn2 1.951(4) . ?
O2 C1 1.256(5) . ?
O2 Zn2 1.960(3) . ?
O3 C1 1.262(5) . ?
O3 Zn1 1.936(3) . ?
O4 C14 1.237(5) . ?
O4 Zn1 1.938(3) . ?
O5 C14 1.247(5) . ?
O5 Zn1 1.941(3) 9 ?
C1 C2 1.477(6) . ?
C2 C3 1.362(6) . ?
C2 C7 1.382(6) . ?
C3 C4 1.377(6) . ?
C4 C5 1.375(6) . ?
C5 C6 1.376(7) . ?
C5 C8 1.470(6) . ?
C6 C7 1.380(7) . ?
C11 N1 1.409(5) . ?
C14 C15 1.489(6) . ?
C15 C16 1.386(7) . ?
C16 C17 1.367(7) . ?
C17 C18 1.368(7) . ?
C18 C19 1.365(7) . ?
C18 C21 1.479(6) . ?
C21 C26 1.391(6) . ?
C21 C22 1.395(6) . ?
C22 C23 1.369(6) . ?
C23 C24 1.394(6) . ?
C24 C25 1.388(6) . ?
C24 N2 1.427(4) . ?
C25 C26 1.380(6) . ?
N1 C11 1.409(5) 12 ?
N1 C11 1.409(5) 6_554 ?
N2 C24 1.427(4) 8_655 ?
N2 C24 1.427(4) 11_564 ?
Zn1 O5 1.941(3) 5 ?
Zn1 Zn1 3.1467(9) 5 ?
Zn1 Zn1 3.1467(9) 9 ?
Zn2 O2 1.960(3) 9 ?
Zn2 O2 1.960(3) 5 ?

loop_
_geom_angle_atom_site_label_1
_geom_angle_atom_site_label_2
_geom_angle_atom_site_label_3
_geom_angle
_geom_angle_site_symmetry_1
_geom_angle_site_symmetry_3
_geom_angle_publ_flag
C8 C9 C10 129.6(6) . . ?
C11 C10 C9 126.5(6) . . ?
C13 C12 C11 114.9(10) . . ?
C12 C13 C8 118.8(8) . . ?
C15 C20 C19 120.8(5) . . ?
Zn1 O1 Zn1 108.31(12) 9 . ?
Zn1 O1 Zn1 108.31(12) 9 5 ?
Zn1 O1 Zn1 108.31(12) . 5 ?
Zn1 O1 Zn2 110.61(12) 9 . ?
Zn1 O1 Zn2 110.61(12) . . ?
Zn1 O1 Zn2 110.61(12) 5 . ?
C1 O2 Zn2 129.1(3) . . ?
C1 O3 Zn1 132.3(3) . . ?
C14 O4 Zn1 133.1(3) . . ?
C14 O5 Zn1 129.1(3) . 9 ?
O2 C1 O3 124.7(4) . . ?
O2 C1 C2 118.1(4) . . ?
O3 C1 C2 117.1(4) . . ?
C3 C2 C7 117.6(4) . . ?
C3 C2 C1 122.2(4) . . ?
C7 C2 C1 120.1(4) . . ?
C2 C3 C4 121.3(4) . . ?
C5 C4 C3 121.4(4) . . ?
C4 C5 C6 117.7(4) . . ?
C4 C5 C8 121.7(4) . . ?
C6 C5 C8 120.6(4) . . ?
C5 C6 C7 120.7(5) . . ?
C6 C7 C2 121.3(5) . . ?
C9 C8 C5 129.5(5) . . ?
C9 C8 C13 101.5(7) . . ?
C5 C8 C13 118.5(5) . . ?
C10 C11 N1 125.8(5) . . ?
C10 C11 C12 104.4(7) . . ?
N1 C11 C12 118.0(8) . . ?
O4 C14 O5 125.4(4) . . ?
O4 C14 C15 117.1(4) . . ?
O5 C14 C15 117.5(4) . . ?
C20 C15 C16 118.1(4) . . ?
C20 C15 C14 121.9(4) . . ?
C16 C15 C14 120.0(4) . . ?
C17 C16 C15 119.6(5) . . ?
C16 C17 C18 123.1(5) . . ?
C19 C18 C17 117.1(4) . . ?
C19 C18 C21 122.5(4) . . ?
C17 C18 C21 120.3(4) . . ?
C18 C19 C20 121.2(5) . . ?
C26 C21 C22 116.3(4) . . ?
C26 C21 C18 122.0(4) . . ?
C22 C21 C18 121.7(4) . . ?
C23 C22 C21 122.7(4) . . ?
C22 C23 C24 119.7(4) . . ?
C25 C24 C23 119.1(4) . . ?
C25 C24 N2 119.5(4) . . ?
C23 C24 N2 121.4(4) . . ?
C26 C25 C24 119.9(4) . . ?
C25 C26 C21 122.2(4) . . ?
C11 N1 C11 118.6(3) 12 6_554 ?
C11 N1 C11 118.6(3) 12 . ?
C11 N1 C11 118.6(3) 6_554 . ?
C24 N2 C24 116.8(2) 8_655 11_564 ?
C24 N2 C24 116.8(2) 8_655 . ?
C24 N2 C24 116.8(2) 11_564 . ?
O3 Zn1 O4 107.66(15) . . ?
O3 Zn1 O5 108.56(15) . 5 ?
O4 Zn1 O5 108.37(15) . 5 ?
O3 Zn1 O1 108.76(15) . . ?
O4 Zn1 O1 110.35(12) . . ?
O5 Zn1 O1 112.99(11) 5 . ?
O3 Zn1 Zn1 125.52(10) . 5 ?
O4 Zn1 Zn1 121.99(10) . 5 ?
O5 Zn1 Zn1 77.25(10) 5 5 ?
O1 Zn1 Zn1 35.85(6) . 5 ?
O3 Zn1 Zn1 121.08(10) . 9 ?
O4 Zn1 Zn1 74.51(10) . 9 ?
O5 Zn1 Zn1 126.99(10) 5 9 ?
O1 Zn1 Zn1 35.85(6) . 9 ?
Zn1 Zn1 Zn1 60 5 9 ?
O1 Zn2 O2 110.04(8) . 9 ?
O1 Zn2 O2 110.04(8) . 5 ?
O2 Zn2 O2 108.90(9) 9 5 ?
O1 Zn2 O2 110.04(8) . . ?
O2 Zn2 O2 108.90(9) 9 . ?
O2 Zn2 O2 108.90(9) 5 . ?
