####################################################################### 
# 
# This file contains crystal structure data downloaded from the 
# Cambridge Structural Database (CSD) hosted by the Cambridge 
# Crystallographic Data Centre (CCDC).
# 
# Full information about CCDC data access policies and citation 
# guidelines are available at http://www.ccdc.cam.ac.uk/access/V1 
# 
# Audit and citation data items may have been added by the CCDC. 
# Please retain this information to preserve the provenance of 
# this file and to allow appropriate attribution of the data. 
# 
#######################################################################

data_SNU-77R
_audit_block_doi                 10.5517/cctwjfm
_database_code_depnum_ccdc_archive 'CCDC 771231'
loop_
_citation_id
_citation_doi
_citation_year
1 10.1002/chem.201003376 2011
_audit_update_record             
;
2010-03-25 deposited with the CCDC.	2024-07-13 downloaded from the CCDC.
;
#TrackingRef 'SNU-77R.cif'

#==============================================================================
#\#CIF_1.1

_audit_creation_date             2009-12-24T20:06:19-00:00
_audit_creation_method           'WinGX routine CIF_UPDATE'

#----------------------------------------------------------------------------#
# CHEMICAL INFORMATION #
#----------------------------------------------------------------------------#

_chemical_name_systematic        
;
?
;
_chemical_formula_moiety         'C78 H48 N2 O13 Zn4'
_chemical_formula_sum            'C78 H48 N2 O13 Zn4'
_chemical_formula_weight         1482.66
_chemical_compound_source        'synthesis as described'

#----------------------------------------------------------------------------#
# UNIT CELL INFORMATION #
#----------------------------------------------------------------------------#

_symmetry_cell_setting           cubic
_symmetry_space_group_name_H-M   'P a -3'
_symmetry_space_group_name_Hall  '-P 2ac 2ab 3'
_symmetry_Int_Tables_number      205
loop_
_symmetry_equiv_pos_as_xyz
'x, y, z'
'-x+1/2, -y, z+1/2'
'x+1/2, -y+1/2, -z'
'-x, y+1/2, -z+1/2'
'z, x, y'
'y, z, x'
'-z+1/2, -x, y+1/2'
'-y, z+1/2, -x+1/2'
'z+1/2, -x+1/2, -y'
'-y+1/2, -z, x+1/2'
'-z, x+1/2, -y+1/2'
'y+1/2, -z+1/2, -x'
'-x, -y, -z'
'x-1/2, y, -z-1/2'
'-x-1/2, y-1/2, z'
'x, -y-1/2, z-1/2'
'-z, -x, -y'
'-y, -z, -x'
'z-1/2, x, -y-1/2'
'y, -z-1/2, x-1/2'
'-z-1/2, x-1/2, y'
'y-1/2, z, -x-1/2'
'z, -x-1/2, y-1/2'
'-y-1/2, z-1/2, x'

_cell_length_a                   32.407(5)
_cell_length_b                   32.407(5)
_cell_length_c                   32.407(5)
_cell_angle_alpha                90.000(5)
_cell_angle_beta                 90.000(5)
_cell_angle_gamma                90.000(5)
_cell_volume                     34034(9)
_cell_formula_units_Z            8
_cell_measurement_temperature    293(2)
_cell_measurement_reflns_used    6600
_cell_measurement_theta_min      0.998
_cell_measurement_theta_max      27.103
_cell_measurement_wavelength     0.71073

#----------------------------------------------------------------------------#
# CRYSTAL INFORMATION #
#----------------------------------------------------------------------------#

_exptl_crystal_description       prism
_exptl_crystal_colour            brown
_exptl_crystal_size_max          0.4
_exptl_crystal_size_mid          0.3
_exptl_crystal_size_min          0.2
_exptl_crystal_density_diffrn    0.579
_exptl_crystal_density_method    'not measured'
_exptl_crystal_F_000             6032
_exptl_special_details           
;
?
;

#----------------------------------------------------------------------------#
# ABSORPTION CORRECTION #
#----------------------------------------------------------------------------#

_exptl_absorpt_coefficient_mu    0.584
_exptl_absorpt_correction_type   none

#----------------------------------------------------------------------------#
# DATA COLLECTION #
#----------------------------------------------------------------------------#

_diffrn_ambient_temperature      293(2)
_diffrn_radiation_wavelength     0.71073
_diffrn_radiation_type           MoK\a
_diffrn_radiation_monochromator  graphite
_diffrn_radiation_probe          x-ray
_diffrn_reflns_av_R_equivalents  0.043
_diffrn_reflns_av_unetI/netI     0.0944
_diffrn_reflns_number            15292
_diffrn_reflns_limit_h_min       -41
_diffrn_reflns_limit_h_max       41
_diffrn_reflns_limit_k_min       -29
_diffrn_reflns_limit_k_max       29
_diffrn_reflns_limit_l_min       -28
_diffrn_reflns_limit_l_max       28
_diffrn_reflns_theta_min         1.09
_diffrn_reflns_theta_max         27.09
_diffrn_reflns_theta_full        25
_diffrn_measured_fraction_theta_full 0.827
_diffrn_measured_fraction_theta_max 0.813
_reflns_number_total             10187
_reflns_number_gt                4844
_reflns_threshold_expression     >2sigma(I)

#----------------------------------------------------------------------------#
# COMPUTER PROGRAMS USED #
#----------------------------------------------------------------------------#

_computing_data_collection       'Collect (Nonius BV, 1997-2000)'
_computing_cell_refinement       'HKL Scalepack (Otwinowski & Minor 1997)'
_computing_data_reduction        'HKL Denzo and Scalepack (Otwinowski & Minor 1'
_computing_structure_solution    'SHELXS-86 (Sheldrick, 1986)'
_computing_structure_refinement  'SHELXL-97 (Sheldrick, 1997)'
_computing_molecular_graphics    'Ortep-3 for Windows (Farrugia, 1997)'
_computing_publication_material  'WinGX publication routines (Farrugia, 1999)'

#----------------------------------------------------------------------------#
# REFINEMENT INFORMATION #
#----------------------------------------------------------------------------#

_refine_special_details          
;
Refinement of F^2^ against ALL reflections. The weighted R-factor wR and
goodness of fit S are based on F^2^, conventional R-factors R are based
on F, with F set to zero for negative F^2^. The threshold expression of
F^2^ > 2sigma(F^2^) is used only for calculating R-factors(gt) etc. and is
not relevant to the choice of reflections for refinement. R-factors based
on F^2^ are statistically about twice as large as those based on F, and R-
factors based on ALL data will be even larger.
;
_refine_ls_structure_factor_coef Fsqd
_refine_ls_matrix_type           full
_refine_ls_weighting_scheme      calc
_refine_ls_weighting_details     
'calc w=1/[\s^2^(Fo^2^)+(0.1672P)^2^+26.3632P] where P=(Fo^2^+2Fc^2^)/3'
_atom_sites_solution_primary     direct
_atom_sites_solution_secondary   difmap
_atom_sites_solution_hydrogens   geom
_refine_ls_hydrogen_treatment    constr
_refine_ls_extinction_method     SHELXL
_refine_ls_number_reflns         10187
_refine_ls_number_parameters     292
_refine_ls_number_restraints     9
_refine_ls_R_factor_all          0.2025
_refine_ls_R_factor_gt           0.0925
_refine_ls_wR_factor_ref         0.3318
_refine_ls_wR_factor_gt          0.2503
_refine_ls_goodness_of_fit_ref   1.069
_refine_ls_restrained_S_all      1.138
_refine_ls_shift/su_max          0.09
_refine_ls_shift/su_mean         0.008
_refine_diff_density_max         1.131
_refine_diff_density_min         -1.138
_refine_diff_density_rms         0.318

#----------------------------------------------------------------------------#
# ATOMIC TYPES, COORDINATES AND THERMAL PARAMETERS #
#----------------------------------------------------------------------------#

loop_
_atom_type_symbol
_atom_type_description
_atom_type_scat_dispersion_real
_atom_type_scat_dispersion_imag
_atom_type_scat_source
C C 0.0033 0.0016 'International Tables Vol C Tables 4.2.6.8 and 6.1.1.4'
H H 0 0 'International Tables Vol C Tables 4.2.6.8 and 6.1.1.4'
N N 0.0061 0.0033 'International Tables Vol C Tables 4.2.6.8 and 6.1.1.4'
O O 0.0106 0.006 'International Tables Vol C Tables 4.2.6.8 and 6.1.1.4'
Zn Zn 0.2839 1.4301 'International Tables Vol C Tables 4.2.6.8 and 6.1.1.4'

loop_
_atom_site_label
_atom_site_type_symbol
_atom_site_fract_x
_atom_site_fract_y
_atom_site_fract_z
_atom_site_U_iso_or_equiv
_atom_site_adp_type
_atom_site_occupancy
_atom_site_symmetry_multiplicity
_atom_site_calc_flag
_atom_site_refinement_flags
_atom_site_disorder_assembly
_atom_site_disorder_group
Zn2 Zn 0.30032(2) 0.26947(2) 0.22159(2) 0.0540(3) Uani 1 1 d . . .
Zn1 Zn 0.21686(2) 0.21686(2) 0.21686(2) 0.0488(4) Uani 1 3 d S . .
N2 N 0.3580(2) 0.6420(2) 0.1420(2) 0.070(3) Uani 1 3 d S . .
O4 O 0.24587(18) 0.35153(15) 0.24935(18) 0.0810(16) Uani 1 1 d . . .
O3 O 0.29660(16) 0.24990(18) 0.16567(16) 0.0816(16) Uani 1 1 d . . .
O2 O 0.24601(15) 0.20287(15) 0.16573(14) 0.0669(13) Uani 1 1 d . . .
O5 O 0.30324(18) 0.32921(17) 0.22007(18) 0.0851(17) Uani 1 1 d . . .
C24 C 0.3465(2) 0.6021(2) 0.1566(2) 0.066(2) Uani 1 1 d . . .
C25 C 0.3053(2) 0.5919(2) 0.1613(2) 0.073(2) Uani 1 1 d . . .
H25 H 0.2852 0.6117 0.1565 0.087 Uiso 1 1 calc R . .
C2 C 0.2880(2) 0.2077(2) 0.1067(2) 0.074(2) Uani 1 1 d . . .
C21 C 0.3220(3) 0.5226(2) 0.1806(2) 0.072(2) Uani 1 1 d . . .
C4 C 0.2843(2) 0.1622(3) 0.0498(3) 0.083(3) Uani 1 1 d . . .
H4 H 0.273 0.1386 0.038 0.1 Uiso 1 1 calc R . .
C14 C 0.2780(3) 0.3568(2) 0.2299(3) 0.070(2) Uani 1 1 d . . .
C22 C 0.3634(3) 0.5334(2) 0.1765(3) 0.084(2) Uani 1 1 d . . .
H22 H 0.3833 0.5135 0.182 0.1 Uiso 1 1 calc R . .
C3 C 0.2715(2) 0.1738(2) 0.0880(3) 0.074(2) Uani 1 1 d . . .
H3 H 0.2513 0.1586 0.1015 0.089 Uiso 1 1 calc R . .
C19 C 0.2748(3) 0.4729(3) 0.2167(3) 0.089(3) Uani 1 1 d . . .
H19 H 0.2579 0.4948 0.2244 0.107 Uiso 1 1 calc R . .
C18 C 0.3101(3) 0.4799(3) 0.1937(3) 0.076(2) Uani 1 1 d . . .
C5 C 0.3132(3) 0.1838(3) 0.0281(3) 0.090(3) Uani 1 1 d . . .
C15 C 0.2895(3) 0.3997(2) 0.2175(2) 0.074(2) Uani 1 1 d . . .
C16 C 0.3238(3) 0.4074(3) 0.1954(3) 0.110(4) Uani 1 1 d . . .
H16 H 0.3409 0.3855 0.1881 0.132 Uiso 1 1 calc R . .
C26 C 0.2940(3) 0.5533(3) 0.1731(3) 0.081(3) Uani 1 1 d . . .
H26 H 0.2661 0.5475 0.1761 0.098 Uiso 1 1 calc R . .
C20 C 0.2646(3) 0.4327(3) 0.2281(3) 0.088(3) Uani 1 1 d . . .
H20 H 0.2407 0.428 0.2432 0.106 Uiso 1 1 calc R . .
C1 C 0.2750(2) 0.2213(2) 0.1485(2) 0.0599(19) Uani 1 1 d . . .
C17 C 0.3340(3) 0.4461(3) 0.1835(3) 0.116(4) Uani 1 1 d . . .
H17 H 0.3578 0.4501 0.168 0.139 Uiso 1 1 calc R . .
C6 C 0.3291(4) 0.2182(3) 0.0458(3) 0.144(5) Uani 1 1 d . . .
H6 H 0.348 0.2342 0.0314 0.173 Uiso 1 1 calc R . .
C23 C 0.3763(2) 0.5720(2) 0.1645(2) 0.075(2) Uani 1 1 d . . .
H23 H 0.4042 0.5779 0.1618 0.09 Uiso 1 1 calc R . .
C7 C 0.3174(4) 0.2297(3) 0.0853(3) 0.127(4) Uani 1 1 d . . .
H7 H 0.3296 0.2526 0.0975 0.153 Uiso 1 1 calc R . .
O1 O 0.25145(13) 0.25145(13) 0.25145(13) 0.0496(18) Uani 1 3 d S . .
N1 N 0.3684(4) 0.1316(4) -0.1316(4) 0.186(10) Uani 1 3 d S . .
C8 C 0.3257(3) 0.1716(3) -0.0145(3) 0.120(4) Uani 1 1 d D . .
C11 C 0.3496(3) 0.1481(3) -0.0965(3) 0.161(6) Uani 1 1 d D . .
C10 C 0.3331(4) 0.1235(4) -0.0678(3) 0.201(8) Uani 1 1 d D . .
H10 H 0.331 0.0957 -0.0745 0.241 Uiso 1 1 calc R . .
C9 C 0.3192(4) 0.1345(4) -0.0305(3) 0.211(9) Uani 1 1 d D . .
H9 H 0.3043 0.1154 -0.0152 0.254 Uiso 1 1 calc R . .
C12 C 0.3489(7) 0.1882(7) -0.0851(5) 0.74(5) Uani 1 1 d D . .
H12 H 0.3558 0.2084 -0.1042 0.894 Uiso 1 1 calc R . .
C13 C 0.3381(7) 0.1996(7) -0.0453(6) 0.78(5) Uani 1 1 d D . .
H13 H 0.3391 0.2275 -0.0385 0.937 Uiso 1 1 calc R . .

loop_
_atom_site_aniso_label
_atom_site_aniso_U_11
_atom_site_aniso_U_22
_atom_site_aniso_U_33
_atom_site_aniso_U_23
_atom_site_aniso_U_13
_atom_site_aniso_U_12
Zn2 0.0510(5) 0.0534(5) 0.0576(6) 0.0021(4) 0.0019(4) 0.0007(4)
Zn1 0.0488(4) 0.0488(4) 0.0488(4) 0.0038(4) 0.0038(4) 0.0038(4)
N2 0.070(3) 0.070(3) 0.070(3) 0.024(4) -0.024(4) -0.024(4)
O4 0.089(4) 0.055(3) 0.099(4) 0.007(3) 0.018(3) -0.002(3)
O3 0.089(4) 0.087(4) 0.068(4) -0.015(3) 0.022(3) -0.028(3)
O2 0.065(3) 0.078(4) 0.058(3) -0.013(2) 0.017(3) -0.004(3)
O5 0.084(4) 0.054(4) 0.117(5) 0.006(3) 0.023(3) -0.010(3)
C24 0.067(5) 0.067(5) 0.064(5) 0.021(4) -0.020(4) -0.013(4)
C25 0.053(5) 0.074(6) 0.091(6) 0.026(4) -0.019(4) -0.014(4)
C2 0.075(5) 0.078(6) 0.067(5) -0.015(4) 0.031(4) -0.007(4)
C21 0.072(6) 0.063(5) 0.081(6) 0.019(4) -0.005(4) -0.018(4)
C4 0.076(6) 0.079(6) 0.095(6) -0.037(5) 0.034(5) -0.027(4)
C14 0.082(6) 0.053(5) 0.076(6) 0.008(4) 0.003(5) -0.009(4)
C22 0.081(6) 0.068(6) 0.102(7) 0.024(5) -0.013(5) -0.003(4)
C3 0.062(5) 0.077(6) 0.083(6) -0.020(4) 0.023(4) -0.019(4)
C19 0.089(7) 0.058(5) 0.120(8) 0.020(5) 0.009(5) -0.006(4)
C18 0.084(6) 0.061(5) 0.083(6) 0.009(4) 0.003(5) -0.014(5)
C5 0.093(6) 0.095(6) 0.083(6) -0.041(5) 0.046(5) -0.024(5)
C15 0.092(6) 0.060(5) 0.069(5) 0.001(4) 0.005(4) -0.014(4)
C16 0.104(8) 0.055(6) 0.171(10) 0.020(6) 0.052(7) 0.003(5)
C26 0.064(5) 0.068(6) 0.112(7) 0.030(5) -0.010(4) -0.024(4)
C20 0.085(6) 0.060(6) 0.120(8) 0.017(5) 0.024(5) -0.010(5)
C1 0.054(5) 0.058(5) 0.067(5) 0.000(4) 0.017(4) 0.002(4)
C17 0.127(9) 0.071(7) 0.151(10) 0.022(6) 0.057(7) -0.007(6)
C6 0.182(12) 0.125(9) 0.126(9) -0.064(7) 0.098(9) -0.083(8)
C23 0.071(5) 0.067(5) 0.088(6) 0.021(4) -0.005(4) -0.014(4)
C7 0.154(10) 0.120(8) 0.108(8) -0.060(6) 0.078(7) -0.070(7)
O1 0.0496(18) 0.0496(18) 0.0496(18) 0.004(2) 0.004(2) 0.004(2)
N1 0.186(10) 0.186(10) 0.186(10) -0.146(12) 0.146(12) -0.146(12)
C8 0.111(8) 0.096(7) 0.153(9) -0.041(7) 0.094(7) -0.037(6)
C11 0.190(11) 0.134(9) 0.158(10) -0.108(8) 0.125(9) -0.119(9)
C10 0.218(14) 0.244(15) 0.141(11) -0.139(11) 0.093(10) -0.153(13)
C9 0.246(15) 0.284(18) 0.105(9) -0.126(11) 0.110(10) -0.194(14)
C12 0.88(7) 0.80(6) 0.55(4) -0.61(5) 0.66(5) -0.76(6)
C13 0.94(7) 0.81(6) 0.59(4) -0.64(5) 0.69(5) -0.80(6)


#----------------------------------------------------------------------------#
# MOLECULAR GEOMETRY #
#----------------------------------------------------------------------------#

_geom_special_details            
;
All esds (except the esd in the dihedral angle between two l.s. planes)
are estimated using the full covariance matrix. The cell esds are taken
into account individually in the estimation of esds in distances, angles
and torsion angles; correlations between esds in cell parameters are only
used when they are defined by crystal symmetry. An approximate (isotropic)
treatment of cell esds is used for estimating esds involving l.s. planes.
;
loop_
_geom_bond_atom_site_label_1
_geom_bond_atom_site_label_2
_geom_bond_distance
_geom_bond_site_symmetry_2
_geom_bond_publ_flag
Zn2 O3 1.924(5) . ?
Zn2 O5 1.939(6) . ?
Zn2 O1 1.946(3) . ?
Zn2 O4 1.949(5) 6 ?
Zn2 Zn2 3.1490(14) 5 ?
Zn2 Zn2 3.1490(14) 6 ?
Zn1 O1 1.941(7) . ?
Zn1 O2 1.960(4) 5 ?
Zn1 O2 1.960(4) . ?
Zn1 O2 1.960(4) 6 ?
N2 C24 1.427(7) 8_655 ?
N2 C24 1.427(7) . ?
N2 C24 1.427(7) 7_564 ?
O4 C14 1.230(9) . ?
O4 Zn2 1.949(5) 5 ?
O3 C1 1.287(8) . ?
O2 C1 1.247(8) . ?
O5 C14 1.252(9) . ?
C24 C25 1.382(9) . ?
C24 C23 1.396(10) . ?
C25 C26 1.357(10) . ?
C2 C3 1.364(10) . ?
C2 C7 1.377(11) . ?
C2 C1 1.483(10) . ?
C21 C26 1.368(10) . ?
C21 C22 1.394(10) . ?
C21 C18 1.497(10) . ?
C4 C3 1.360(10) . ?
C4 C5 1.364(10) . ?
C14 C15 1.495(11) . ?
C22 C23 1.375(10) . ?
C19 C18 1.383(11) . ?
C19 C20 1.391(11) . ?
C18 C17 1.383(12) . ?
C5 C6 1.356(11) . ?
C5 C8 1.494(12) . ?
C15 C16 1.346(11) . ?
C15 C20 1.383(11) . ?
C16 C17 1.353(11) . ?
C6 C7 1.383(12) . ?
O1 Zn2 1.946(3) 5 ?
O1 Zn2 1.946(3) 6 ?
N1 C11 1.398(9) 10_554 ?
N1 C11 1.398(9) . ?
N1 C11 1.397(9) 9 ?
C8 C9 1.324(11) . ?
C8 C13 1.41(2) . ?
C11 C10 1.337(12) . ?
C11 C12 1.349(19) . ?
C10 C9 1.336(11) . ?
C12 C13 1.388(14) . ?

loop_
_geom_angle_atom_site_label_1
_geom_angle_atom_site_label_2
_geom_angle_atom_site_label_3
_geom_angle
_geom_angle_site_symmetry_1
_geom_angle_site_symmetry_3
_geom_angle_publ_flag
O3 Zn2 O5 108.0(2) . . ?
O3 Zn2 O1 108.6(3) . . ?
O5 Zn2 O1 110.6(2) . . ?
O3 Zn2 O4 108.9(2) . 6 ?
O5 Zn2 O4 107.6(2) . 6 ?
O1 Zn2 O4 113.1(2) . 6 ?
O3 Zn2 Zn2 121.20(17) . 5 ?
O5 Zn2 Zn2 74.64(17) . 5 ?
O1 Zn2 Zn2 35.98(10) . 5 ?
O4 Zn2 Zn2 126.67(17) 6 5 ?
O3 Zn2 Zn2 125.51(16) . 6 ?
O5 Zn2 Zn2 121.87(17) . 6 ?
O1 Zn2 Zn2 35.98(10) . 6 ?
O4 Zn2 Zn2 77.20(17) 6 6 ?
Zn2 Zn2 Zn2 60 5 6 ?
O1 Zn1 O2 110.08(15) . 5 ?
O1 Zn1 O2 110.08(15) . . ?
O2 Zn1 O2 108.86(15) 5 . ?
O1 Zn1 O2 110.08(15) . 6 ?
O2 Zn1 O2 108.86(15) 5 6 ?
O2 Zn1 O2 108.86(15) . 6 ?
C24 N2 C24 116.8(3) 8_655 . ?
C24 N2 C24 116.8(3) 8_655 7_564 ?
C24 N2 C24 116.8(3) . 7_564 ?
C14 O4 Zn2 129.2(5) . 5 ?
C1 O3 Zn2 132.8(5) . . ?
C1 O2 Zn1 129.2(5) . . ?
C14 O5 Zn2 132.4(5) . . ?
C25 C24 C23 118.7(7) . . ?
C25 C24 N2 120.3(7) . . ?
C23 C24 N2 120.9(7) . . ?
C26 C25 C24 120.7(7) . . ?
C3 C2 C7 117.5(7) . . ?
C3 C2 C1 122.3(7) . . ?
C7 C2 C1 120.2(7) . . ?
C26 C21 C22 115.9(7) . . ?
C26 C21 C18 123.6(7) . . ?
C22 C21 C18 120.5(8) . . ?
C3 C4 C5 122.3(7) . . ?
O4 C14 O5 125.7(7) . . ?
O4 C14 C15 118.5(8) . . ?
O5 C14 C15 115.7(8) . . ?
C23 C22 C21 123.3(8) . . ?
C4 C3 C2 120.7(7) . . ?
C18 C19 C20 119.5(8) . . ?
C19 C18 C17 117.5(8) . . ?
C19 C18 C21 121.2(8) . . ?
C17 C18 C21 121.3(8) . . ?
C6 C5 C4 117.8(7) . . ?
C6 C5 C8 120.4(8) . . ?
C4 C5 C8 121.7(8) . . ?
C16 C15 C20 118.1(8) . . ?
C16 C15 C14 121.3(8) . . ?
C20 C15 C14 120.6(8) . . ?
C15 C16 C17 121.6(9) . . ?
C25 C26 C21 122.9(7) . . ?
C15 C20 C19 121.3(8) . . ?
O2 C1 O3 124.0(7) . . ?
O2 C1 C2 118.7(7) . . ?
O3 C1 C2 117.0(6) . . ?
C16 C17 C18 122.0(9) . . ?
C5 C6 C7 120.5(9) . . ?
C22 C23 C24 118.5(7) . . ?
C2 C7 C6 121.2(8) . . ?
Zn1 O1 Zn2 110.9(2) . 5 ?
Zn1 O1 Zn2 110.9(2) . . ?
Zn2 O1 Zn2 108.0(2) 5 . ?
Zn1 O1 Zn2 110.9(2) . 6 ?
Zn2 O1 Zn2 108.0(2) 5 6 ?
Zn2 O1 Zn2 108.0(2) . 6 ?
C11 N1 C11 119.990(7) 10_554 . ?
C11 N1 C11 120.004(7) 10_554 9 ?
C11 N1 C11 120.004(7) . 9 ?
C9 C8 C13 110.6(10) . . ?
C9 C8 C5 124.1(9) . . ?
C13 C8 C5 124.1(9) . . ?
C10 C11 C12 112.1(10) . . ?
C10 C11 N1 120.8(11) . . ?
C12 C11 N1 126.8(11) . . ?
C9 C10 C11 127.1(11) . . ?
C8 C9 C10 122.9(11) . . ?
C11 C12 C13 121.1(18) . . ?
C12 C13 C8 123.9(17) . . ?
