####################################################################### 
# 
# This file contains crystal structure data downloaded from the 
# Cambridge Structural Database (CSD) hosted by the Cambridge 
# Crystallographic Data Centre (CCDC).
# 
# Full information about CCDC data access policies and citation 
# guidelines are available at http://www.ccdc.cam.ac.uk/access/V1 
# 
# Audit and citation data items may have been added by the CCDC. 
# Please retain this information to preserve the provenance of 
# this file and to allow appropriate attribution of the data. 
# 
#######################################################################

data_1
_audit_block_doi                 10.5517/ccw5br3
_database_code_depnum_ccdc_archive 'CCDC 809495'
loop_
_citation_id
_citation_doi
_citation_year
1 10.1002/zaac.201100082 2011
_audit_update_record             
;
2011-01-24 deposited with the CCDC.	2024-07-13 downloaded from the CCDC.
;
#TrackingRef '1.cif'


_audit_creation_method           SHELXL-97
_chemical_name_systematic        
;
?
;
_chemical_name_common            ?
_chemical_melting_point          ?
_chemical_formula_moiety         
'C14 H8 N2 O5 Zn, C4 H9 N O, H0.80 O0.40, 0.6(H2 O)'
_chemical_formula_sum            'C18 H19 N3 O7 Zn'
_chemical_formula_weight         454.73

loop_
_atom_type_symbol
_atom_type_description
_atom_type_scat_dispersion_real
_atom_type_scat_dispersion_imag
_atom_type_scat_source
C C 0.0033 0.0016 'International Tables Vol C Tables 4.2.6.8 and 6.1.1.4'
H H 0.0000 0.0000 'International Tables Vol C Tables 4.2.6.8 and 6.1.1.4'
N N 0.0061 0.0033 'International Tables Vol C Tables 4.2.6.8 and 6.1.1.4'
O O 0.0106 0.0060 'International Tables Vol C Tables 4.2.6.8 and 6.1.1.4'
Zn Zn 0.2839 1.4301 'International Tables Vol C Tables 4.2.6.8 and 6.1.1.4'

_symmetry_cell_setting           Monoclinic
_symmetry_space_group_name_H-M   P2(1)/c
_symmetry_space_group_name_Hall  '-P 2ybc'

loop_
_symmetry_equiv_pos_as_xyz
'x, y, z'
'-x, y+1/2, -z+1/2'
'-x, -y, -z'
'x, -y-1/2, z-1/2'

_cell_length_a                   13.9830(15)
_cell_length_b                   13.265(2)
_cell_length_c                   14.1890(12)
_cell_angle_alpha                90.00
_cell_angle_beta                 112.066(3)
_cell_angle_gamma                90.00
_cell_volume                     2439.1(5)
_cell_formula_units_Z            4
_cell_measurement_temperature    291(2)
_cell_measurement_reflns_used    3739
_cell_measurement_theta_min      2.11
_cell_measurement_theta_max      25.17

_exptl_crystal_description       ?
_exptl_crystal_colour            ?
_exptl_crystal_size_max          0.28
_exptl_crystal_size_mid          0.24
_exptl_crystal_size_min          0.22
_exptl_crystal_density_meas      ?
_exptl_crystal_density_diffrn    1.238
_exptl_crystal_density_method    'not measured'
_exptl_crystal_F_000             936
_exptl_absorpt_coefficient_mu    1.044
_exptl_absorpt_correction_type   multi-scan
_exptl_absorpt_correction_T_min  0.7587
_exptl_absorpt_correction_T_max  0.8029
_exptl_absorpt_process_details   'SADABS; Bruker, 2000'

_exptl_special_details           
;
?
;

_diffrn_ambient_temperature      291(2)
_diffrn_radiation_wavelength     0.71069
_diffrn_radiation_type           MoK\a
_diffrn_radiation_source         'sealed tube'
_diffrn_radiation_monochromator  graphite
_diffrn_measurement_device_type  'Bruker Smart Aepex CCD'
_diffrn_measurement_method       'phi and omega scans'
_diffrn_detector_area_resol_mean ?
_diffrn_standards_number         ?
_diffrn_standards_interval_count ?
_diffrn_standards_interval_time  ?
_diffrn_standards_decay_%        ?
_diffrn_reflns_number            12904
_diffrn_reflns_av_R_equivalents  0.0384
_diffrn_reflns_av_sigmaI/netI    0.0635
_diffrn_reflns_limit_h_min       -16
_diffrn_reflns_limit_h_max       17
_diffrn_reflns_limit_k_min       -16
_diffrn_reflns_limit_k_max       16
_diffrn_reflns_limit_l_min       -10
_diffrn_reflns_limit_l_max       17
_diffrn_reflns_theta_min         2.18
_diffrn_reflns_theta_max         25.99
_reflns_number_total             4773
_reflns_number_gt                3523
_reflns_threshold_expression     >2sigma(I)

_computing_data_collection       'SMART (Bruker, 2000)'
_computing_cell_refinement       SMART
_computing_data_reduction        'SAINT (Bruker, 2000)'
_computing_structure_solution    'SHELXTL (Bruker, 2000)'
_computing_structure_refinement  SHELXTL
_computing_molecular_graphics    SHELXTL
_computing_publication_material  SHELXTL

_refine_special_details          
;
Refinement of F^2^ against ALL reflections. The weighted R-factor wR and
goodness of fit S are based on F^2^, conventional R-factors R are based
on F, with F set to zero for negative F^2^. The threshold expression of
F^2^ > 2sigma(F^2^) is used only for calculating R-factors(gt) etc. and is
not relevant to the choice of reflections for refinement. R-factors based
on F^2^ are statistically about twice as large as those based on F, and R-
factors based on ALL data will be even larger.
;

_refine_ls_structure_factor_coef Fsqd
_refine_ls_matrix_type           full
_refine_ls_weighting_scheme      calc
_refine_ls_weighting_details     
'calc w=1/[\s^2^(Fo^2^)+(0.04P)^2^+0.88P] where P=(Fo^2^+2Fc^2^)/3'
_atom_sites_solution_primary     direct
_atom_sites_solution_secondary   difmap
_atom_sites_solution_hydrogens   geom
_refine_ls_hydrogen_treatment    constr
_refine_ls_extinction_method     none
_refine_ls_extinction_coef       ?
_refine_ls_number_reflns         4773
_refine_ls_number_parameters     280
_refine_ls_number_restraints     0
_refine_ls_R_factor_all          0.0867
_refine_ls_R_factor_gt           0.0533
_refine_ls_wR_factor_ref         0.1010
_refine_ls_wR_factor_gt          0.0933
_refine_ls_goodness_of_fit_ref   1.056
_refine_ls_restrained_S_all      1.056
_refine_ls_shift/su_max          0.000
_refine_ls_shift/su_mean         0.000

loop_
_atom_site_label
_atom_site_type_symbol
_atom_site_fract_x
_atom_site_fract_y
_atom_site_fract_z
_atom_site_U_iso_or_equiv
_atom_site_adp_type
_atom_site_occupancy
_atom_site_symmetry_multiplicity
_atom_site_calc_flag
_atom_site_refinement_flags
_atom_site_disorder_assembly
_atom_site_disorder_group
C1 C 1.2249(2) 0.6953(2) 0.8848(2) 0.0371(7) Uani 1 1 d . . .
H1 H 1.2775 0.7423 0.9122 0.045 Uiso 1 1 calc R . .
C2 C 1.1214(2) 0.7261(2) 0.8468(2) 0.0387(8) Uani 1 1 d . . .
H2 H 1.1051 0.7941 0.8462 0.046 Uiso 1 1 calc R . .
C3 C 1.0447(2) 0.6560(2) 0.8106(2) 0.0365(7) Uani 1 1 d . . .
C4 C 1.0666(2) 0.5542(3) 0.8086(2) 0.0410(8) Uani 1 1 d . . .
H4 H 1.0140 0.5068 0.7849 0.049 Uiso 1 1 calc R . .
C5 C 1.1695(2) 0.5252(2) 0.8431(2) 0.0353(7) Uani 1 1 d . . .
H5 H 1.1857 0.4575 0.8405 0.042 Uiso 1 1 calc R . .
C6 C 0.9344(2) 0.6953(2) 0.7746(2) 0.0328(7) Uani 1 1 d . . .
C7 C 0.7582(2) 0.6555(2) 0.7617(2) 0.0364(7) Uani 1 1 d . . .
C8 C 0.7075(2) 0.6067(2) 0.8147(2) 0.0363(7) Uani 1 1 d . . .
H8 H 0.7432 0.5601 0.8645 0.044 Uiso 1 1 calc R . .
C9 C 0.6041(2) 0.6252(2) 0.7955(2) 0.0361(7) Uani 1 1 d . . .
C10 C 0.5513(2) 0.6969(2) 0.7222(2) 0.0279(6) Uani 1 1 d . . .
H10 H 0.4822 0.7101 0.7092 0.034 Uiso 1 1 calc R . .
C11 C 0.6004(2) 0.7481(2) 0.6692(3) 0.0388(8) Uani 1 1 d . . .
C12 C 0.7061(2) 0.7279(2) 0.6880(2) 0.0296(6) Uani 1 1 d . . .
H12 H 0.7399 0.7618 0.6521 0.036 Uiso 1 1 calc R . .
C13 C 0.5562(2) 0.5763(2) 0.8627(2) 0.0340(7) Uani 1 1 d . . .
C14 C 0.5519(2) 0.8330(2) 0.5979(2) 0.0282(6) Uani 1 1 d . . .
C15 C 0.8572(3) 0.1772(3) 0.9050(3) 0.0529(10) Uani 1 1 d . . .
H15A H 0.9141 0.1587 0.8863 0.079 Uiso 1 1 calc R . .
H15C H 0.8003 0.1324 0.8727 0.079 Uiso 1 1 calc R . .
H15B H 0.8778 0.1726 0.9774 0.079 Uiso 1 1 calc R . .
C16 C 0.7149(3) 0.3092(3) 0.8225(3) 0.0512(10) Uani 1 1 d . . .
H16A H 0.6873 0.3231 0.8738 0.077 Uiso 1 1 calc R . .
H16B H 0.6773 0.2546 0.7805 0.077 Uiso 1 1 calc R . .
H16C H 0.7086 0.3682 0.7814 0.077 Uiso 1 1 calc R . .
C17 C 0.9049(3) 0.3560(3) 0.8936(3) 0.0479(9) Uani 1 1 d . . .
C18 C 1.0182(3) 0.3234(3) 0.9543(3) 0.0486(9) Uani 1 1 d . . .
H18B H 1.0322 0.2616 0.9267 0.073 Uiso 1 1 calc R . .
H18C H 1.0282 0.3135 1.0244 0.073 Uiso 1 1 calc R . .
H18A H 1.0643 0.3750 0.9493 0.073 Uiso 1 1 calc R . .
N1 N 1.24812(19) 0.5941(2) 0.88117(19) 0.0370(6) Uani 1 1 d . . .
N2 N 0.86287(17) 0.63124(18) 0.78208(17) 0.0298(6) Uani 1 1 d . . .
H2A H 0.8823 0.5705 0.8008 0.036 Uiso 1 1 calc R . .
N3 N 0.8257(3) 0.2810(2) 0.8722(2) 0.0521(8) Uani 1 1 d . . .
O1 O 0.91800(16) 0.78328(15) 0.74752(17) 0.0383(5) Uani 1 1 d . . .
O2 O 0.60933(16) 0.51328(16) 0.92391(16) 0.0379(5) Uani 1 1 d . . .
O3 O 0.46560(16) 0.60276(16) 0.85080(16) 0.0371(5) Uani 1 1 d . . .
O4 O 0.45932(16) 0.82347(16) 0.53849(16) 0.0393(5) Uani 1 1 d . . .
O5 O 0.60593(17) 0.90826(16) 0.60232(17) 0.0398(5) Uani 1 1 d . . .
O6 O 0.89120(18) 0.44444(19) 0.86703(19) 0.0500(6) Uani 1 1 d . . .
O1W O 0.3163(5) -0.0212(5) 0.9444(5) 0.0420(19) Uani 0.30 1 d P . .
H1X H 0.3129 0.0428 0.9449 0.050 Uiso 0.30 1 d PR . .
H1Y H 0.3125 -0.0445 0.9987 0.050 Uiso 0.30 1 d PR . .
O2W O 0.0000 1.0000 0.0000 0.0576(12) Uani 0.80 2 d SP . .
H2X H -0.0356 0.9467 -0.0063 0.069 Uiso 0.40 1 d PR . .
H2Y H 0.0419 0.9922 -0.0300 0.069 Uiso 0.40 1 d PR . .
O3W O 0.3688(6) 0.1155(6) 0.0807(6) 0.050(2) Uani 0.30 1 d P . .
H3X H 0.3364 0.1467 0.0256 0.060 Uiso 0.30 1 d PR . .
H3Y H 0.4334 0.1198 0.0946 0.060 Uiso 0.30 1 d PR . .
Zn1 Zn 0.59967(3) 0.44686(3) 1.05103(3) 0.03530(12) Uani 1 1 d . . .

loop_
_atom_site_aniso_label
_atom_site_aniso_U_11
_atom_site_aniso_U_22
_atom_site_aniso_U_33
_atom_site_aniso_U_23
_atom_site_aniso_U_13
_atom_site_aniso_U_12
C1 0.0280(15) 0.0377(18) 0.0400(18) 0.0068(14) 0.0063(14) -0.0076(13)
C2 0.0296(16) 0.0376(18) 0.0385(18) 0.0050(14) 0.0010(14) 0.0026(13)
C3 0.0281(16) 0.0382(18) 0.0419(19) 0.0133(14) 0.0119(14) 0.0013(13)
C4 0.0300(15) 0.0410(17) 0.0403(18) 0.0066(16) -0.0002(14) 0.0084(15)
C5 0.0387(17) 0.0295(17) 0.0404(18) 0.0005(13) 0.0179(15) 0.0015(13)
C6 0.0300(16) 0.0299(16) 0.0328(16) 0.0015(13) 0.0052(13) 0.0050(13)
C7 0.0301(16) 0.0434(19) 0.0304(17) 0.0059(14) 0.0055(14) 0.0049(14)
C8 0.0333(17) 0.0352(18) 0.0340(18) 0.0112(14) 0.0054(14) -0.0003(13)
C9 0.0270(16) 0.0420(18) 0.0312(17) 0.0039(14) 0.0016(13) -0.0001(13)
C10 0.0251(14) 0.0295(15) 0.0240(14) -0.0052(12) 0.0032(12) -0.0019(12)
C11 0.0318(16) 0.0387(18) 0.0423(19) 0.0088(15) 0.0097(14) 0.0025(14)
C12 0.0317(15) 0.0198(14) 0.0354(17) 0.0027(12) 0.0103(13) -0.0101(12)
C13 0.0389(18) 0.0289(17) 0.0313(17) -0.0009(13) 0.0098(15) -0.0006(13)
C14 0.0324(16) 0.0309(16) 0.0172(14) -0.0042(12) 0.0046(13) -0.0031(13)
C15 0.063(2) 0.045(2) 0.048(2) -0.0169(17) 0.0178(19) -0.0189(18)
C16 0.061(2) 0.049(2) 0.052(2) -0.0156(18) 0.030(2) -0.0171(18)
C17 0.049(2) 0.047(2) 0.050(2) 0.0017(18) 0.0208(18) 0.0072(17)
C18 0.056(2) 0.055(2) 0.041(2) 0.0165(17) 0.0253(18) 0.0111(17)
N1 0.0241(13) 0.0422(15) 0.0325(15) 0.0081(12) -0.0034(12) -0.0045(11)
N2 0.0308(13) 0.0260(13) 0.0281(13) -0.0122(10) 0.0059(11) -0.0038(10)
N3 0.070(2) 0.0481(18) 0.0418(17) -0.0122(14) 0.0247(16) -0.0116(16)
O1 0.0332(11) 0.0318(12) 0.0464(13) -0.0040(10) 0.0110(10) -0.0029(9)
O2 0.0401(12) 0.0346(12) 0.0389(13) 0.0034(10) 0.0148(10) 0.0060(10)
O3 0.0296(12) 0.0390(12) 0.0358(12) -0.0014(10) 0.0043(10) 0.0022(9)
O4 0.0333(12) 0.0355(12) 0.0372(12) 0.0018(10) -0.0004(10) 0.0006(9)
O5 0.0374(12) 0.0381(13) 0.0399(13) 0.0104(10) 0.0100(10) -0.0026(10)
O6 0.0514(14) 0.0435(14) 0.0537(15) -0.0063(12) 0.0180(12) -0.0064(12)
O1W 0.046(4) 0.038(4) 0.032(4) 0.027(3) 0.003(3) 0.007(3)
O2W 0.066(3) 0.057(3) 0.049(3) 0.015(2) 0.021(2) 0.009(2)
O3W 0.045(5) 0.047(5) 0.042(5) 0.012(4) -0.001(4) -0.002(4)
Zn1 0.03008(19) 0.0345(2) 0.0328(2) 0.00028(17) 0.00199(15) -0.00068(16)

_geom_special_details            
;
All esds (except the esd in the dihedral angle between two l.s. planes)
are estimated using the full covariance matrix. The cell esds are taken
into account individually in the estimation of esds in distances, angles
and torsion angles; correlations between esds in cell parameters are only
used when they are defined by crystal symmetry. An approximate (isotropic)
treatment of cell esds is used for estimating esds involving l.s. planes.
;

loop_
_geom_bond_atom_site_label_1
_geom_bond_atom_site_label_2
_geom_bond_distance
_geom_bond_site_symmetry_2
_geom_bond_publ_flag
C1 N1 1.387(4) . ?
C1 C2 1.402(4) . ?
C1 H1 0.9300 . ?
C2 C3 1.367(4) . ?
C2 H2 0.9300 . ?
C3 C4 1.387(5) . ?
C3 C6 1.523(4) . ?
C4 C5 1.389(4) . ?
C4 H4 0.9300 . ?
C5 N1 1.374(4) . ?
C5 H5 0.9300 . ?
C6 O1 1.224(3) . ?
C6 N2 1.347(4) . ?
C7 C8 1.374(4) . ?
C7 C12 1.405(4) . ?
C7 N2 1.418(4) . ?
C8 C9 1.389(4) . ?
C8 H8 0.9300 . ?
C9 C10 1.398(4) . ?
C9 C13 1.502(4) . ?
C10 C11 1.372(4) . ?
C10 H10 0.9300 . ?
C11 C12 1.427(4) . ?
C11 C14 1.495(4) . ?
C12 H12 0.9300 . ?
C13 O2 1.233(3) . ?
C13 O3 1.264(4) . ?
C14 O5 1.239(3) . ?
C14 O4 1.258(3) . ?
C15 N3 1.467(5) . ?
C15 H15A 0.9600 . ?
C15 H15C 0.9600 . ?
C15 H15B 0.9600 . ?
C16 N3 1.489(5) . ?
C16 H16A 0.9600 . ?
C16 H16B 0.9600 . ?
C16 H16C 0.9600 . ?
C17 O6 1.225(4) . ?
C17 N3 1.435(5) . ?
C17 C18 1.554(5) . ?
C18 H18B 0.9600 . ?
C18 H18C 0.9600 . ?
C18 H18A 0.9600 . ?
N1 Zn1 2.052(2) 3_767 ?
N2 H2A 0.8600 . ?
O2 Zn1 2.057(2) . ?
O3 Zn1 2.040(2) 3_667 ?
O4 Zn1 2.046(2) 2_656 ?
O5 Zn1 2.045(2) 4_575 ?
O1W H1X 0.8501 . ?
O1W H1Y 0.8500 . ?
O2W H2X 0.8500 . ?
O2W H2Y 0.8499 . ?
O3W H3X 0.8500 . ?
O3W H3Y 0.8500 . ?
Zn1 O3 2.040(2) 3_667 ?
Zn1 O5 2.045(2) 4_576 ?
Zn1 O4 2.046(2) 2_646 ?
Zn1 N1 2.052(2) 3_767 ?
Zn1 Zn1 2.9700(7) 3_667 ?

loop_
_geom_angle_atom_site_label_1
_geom_angle_atom_site_label_2
_geom_angle_atom_site_label_3
_geom_angle
_geom_angle_site_symmetry_1
_geom_angle_site_symmetry_3
_geom_angle_publ_flag
N1 C1 C2 119.3(3) . . ?
N1 C1 H1 120.3 . . ?
C2 C1 H1 120.3 . . ?
C3 C2 C1 119.8(3) . . ?
C3 C2 H2 120.1 . . ?
C1 C2 H2 120.1 . . ?
C2 C3 C4 121.5(3) . . ?
C2 C3 C6 116.5(3) . . ?
C4 C3 C6 122.0(3) . . ?
C3 C4 C5 118.1(3) . . ?
C3 C4 H4 121.0 . . ?
C5 C4 H4 121.0 . . ?
N1 C5 C4 121.6(3) . . ?
N1 C5 H5 119.2 . . ?
C4 C5 H5 119.2 . . ?
O1 C6 N2 124.7(3) . . ?
O1 C6 C3 118.6(3) . . ?
N2 C6 C3 116.5(3) . . ?
C8 C7 C12 120.0(3) . . ?
C8 C7 N2 119.1(3) . . ?
C12 C7 N2 120.9(3) . . ?
C7 C8 C9 121.5(3) . . ?
C7 C8 H8 119.2 . . ?
C9 C8 H8 119.2 . . ?
C8 C9 C10 119.0(3) . . ?
C8 C9 C13 118.6(3) . . ?
C10 C9 C13 122.0(3) . . ?
C11 C10 C9 120.8(3) . . ?
C11 C10 H10 119.6 . . ?
C9 C10 H10 119.6 . . ?
C10 C11 C12 120.1(3) . . ?
C10 C11 C14 123.5(3) . . ?
C12 C11 C14 116.2(3) . . ?
C7 C12 C11 118.6(3) . . ?
C7 C12 H12 120.7 . . ?
C11 C12 H12 120.7 . . ?
O2 C13 O3 126.2(3) . . ?
O2 C13 C9 116.5(3) . . ?
O3 C13 C9 117.3(3) . . ?
O5 C14 O4 124.7(3) . . ?
O5 C14 C11 117.4(3) . . ?
O4 C14 C11 117.9(3) . . ?
N3 C15 H15A 109.5 . . ?
N3 C15 H15C 109.5 . . ?
H15A C15 H15C 109.5 . . ?
N3 C15 H15B 109.5 . . ?
H15A C15 H15B 109.5 . . ?
H15C C15 H15B 109.5 . . ?
N3 C16 H16A 109.5 . . ?
N3 C16 H16B 109.5 . . ?
H16A C16 H16B 109.5 . . ?
N3 C16 H16C 109.5 . . ?
H16A C16 H16C 109.5 . . ?
H16B C16 H16C 109.5 . . ?
O6 C17 N3 125.4(3) . . ?
O6 C17 C18 116.5(3) . . ?
N3 C17 C18 118.0(3) . . ?
C17 C18 H18B 109.5 . . ?
C17 C18 H18C 109.5 . . ?
H18B C18 H18C 109.5 . . ?
C17 C18 H18A 109.5 . . ?
H18B C18 H18A 109.5 . . ?
H18C C18 H18A 109.5 . . ?
C5 N1 C1 119.7(3) . . ?
C5 N1 Zn1 122.9(2) . 3_767 ?
C1 N1 Zn1 117.03(19) . 3_767 ?
C6 N2 C7 125.5(3) . . ?
C6 N2 H2A 117.2 . . ?
C7 N2 H2A 117.2 . . ?
C17 N3 C15 117.9(3) . . ?
C17 N3 C16 120.6(3) . . ?
C15 N3 C16 121.4(3) . . ?
C13 O2 Zn1 133.5(2) . . ?
C13 O3 Zn1 120.2(2) . 3_667 ?
C14 O4 Zn1 114.14(19) . 2_656 ?
C14 O5 Zn1 142.7(2) . 4_575 ?
H1X O1W H1Y 109.5 . . ?
H2X O2W H2Y 109.5 . . ?
H3X O3W H3Y 109.5 . . ?
O3 Zn1 O5 91.75(9) 3_667 4_576 ?
O3 Zn1 O4 89.21(9) 3_667 2_646 ?
O5 Zn1 O4 157.83(9) 4_576 2_646 ?
O3 Zn1 N1 104.22(10) 3_667 3_767 ?
O5 Zn1 N1 100.57(10) 4_576 3_767 ?
O4 Zn1 N1 100.64(10) 2_646 3_767 ?
O3 Zn1 O2 158.52(8) 3_667 . ?
O5 Zn1 O2 84.34(9) 4_576 . ?
O4 Zn1 O2 86.69(9) 2_646 . ?
N1 Zn1 O2 97.25(10) 3_767 . ?
O3 Zn1 Zn1 84.69(6) 3_667 3_667 ?
O5 Zn1 Zn1 68.55(6) 4_576 3_667 ?
O4 Zn1 Zn1 89.51(6) 2_646 3_667 ?
N1 Zn1 Zn1 166.46(8) 3_767 3_667 ?
O2 Zn1 Zn1 74.21(6) . 3_667 ?

loop_
_geom_torsion_atom_site_label_1
_geom_torsion_atom_site_label_2
_geom_torsion_atom_site_label_3
_geom_torsion_atom_site_label_4
_geom_torsion
_geom_torsion_site_symmetry_1
_geom_torsion_site_symmetry_2
_geom_torsion_site_symmetry_3
_geom_torsion_site_symmetry_4
_geom_torsion_publ_flag
N1 C1 C2 C3 2.7(5) . . . . ?
C1 C2 C3 C4 -1.3(5) . . . . ?
C1 C2 C3 C6 177.7(3) . . . . ?
C2 C3 C4 C5 -1.0(5) . . . . ?
C6 C3 C4 C5 -179.9(3) . . . . ?
C3 C4 C5 N1 1.9(5) . . . . ?
C2 C3 C6 O1 24.0(5) . . . . ?
C4 C3 C6 O1 -157.0(3) . . . . ?
C2 C3 C6 N2 -151.3(3) . . . . ?
C4 C3 C6 N2 27.7(5) . . . . ?
C12 C7 C8 C9 1.5(5) . . . . ?
N2 C7 C8 C9 -178.0(3) . . . . ?
C7 C8 C9 C10 -1.4(5) . . . . ?
C7 C8 C9 C13 -174.4(3) . . . . ?
C8 C9 C10 C11 0.4(5) . . . . ?
C13 C9 C10 C11 173.1(3) . . . . ?
C9 C10 C11 C12 0.6(5) . . . . ?
C9 C10 C11 C14 -173.5(3) . . . . ?
C8 C7 C12 C11 -0.6(5) . . . . ?
N2 C7 C12 C11 178.9(3) . . . . ?
C10 C11 C12 C7 -0.5(5) . . . . ?
C14 C11 C12 C7 174.0(3) . . . . ?
C8 C9 C13 O2 -8.0(4) . . . . ?
C10 C9 C13 O2 179.2(3) . . . . ?
C8 C9 C13 O3 172.6(3) . . . . ?
C10 C9 C13 O3 -0.2(4) . . . . ?
C10 C11 C14 O5 136.5(3) . . . . ?
C12 C11 C14 O5 -37.7(4) . . . . ?
C10 C11 C14 O4 -42.7(4) . . . . ?
C12 C11 C14 O4 143.0(3) . . . . ?
C4 C5 N1 C1 -0.5(5) . . . . ?
C4 C5 N1 Zn1 172.3(2) . . . 3_767 ?
C2 C1 N1 C5 -1.9(5) . . . . ?
C2 C1 N1 Zn1 -175.0(2) . . . 3_767 ?
O1 C6 N2 C7 -1.1(5) . . . . ?
C3 C6 N2 C7 173.9(3) . . . . ?
C8 C7 N2 C6 -149.0(3) . . . . ?
C12 C7 N2 C6 31.5(5) . . . . ?
O6 C17 N3 C15 176.4(3) . . . . ?
C18 C17 N3 C15 -2.6(5) . . . . ?
O6 C17 N3 C16 -6.4(5) . . . . ?
C18 C17 N3 C16 174.5(3) . . . . ?
O3 C13 O2 Zn1 -16.0(5) . . . . ?
C9 C13 O2 Zn1 164.6(2) . . . . ?
O2 C13 O3 Zn1 7.7(4) . . . 3_667 ?
C9 C13 O3 Zn1 -172.89(19) . . . 3_667 ?
O5 C14 O4 Zn1 -1.6(4) . . . 2_656 ?
C11 C14 O4 Zn1 177.6(2) . . . 2_656 ?
O4 C14 O5 Zn1 8.9(6) . . . 4_575 ?
C11 C14 O5 Zn1 -170.3(3) . . . 4_575 ?
C13 O2 Zn1 O3 22.5(4) . . . 3_667 ?
C13 O2 Zn1 O5 -57.8(3) . . . 4_576 ?
C13 O2 Zn1 O4 101.9(3) . . . 2_646 ?
C13 O2 Zn1 N1 -157.8(3) . . . 3_767 ?
C13 O2 Zn1 Zn1 11.5(3) . . . 3_667 ?

_diffrn_measured_fraction_theta_max 0.995
_diffrn_reflns_theta_full        25.99
_diffrn_measured_fraction_theta_full 0.995
_refine_diff_density_max         0.557
_refine_diff_density_min         -0.322
_refine_diff_density_rms         0.059


