####################################################################### 
# 
# This file contains crystal structure data downloaded from the 
# Cambridge Structural Database (CSD) hosted by the Cambridge 
# Crystallographic Data Centre (CCDC).
# 
# Full information about CCDC data access policies and citation 
# guidelines are available at http://www.ccdc.cam.ac.uk/access/V1 
# 
# Audit and citation data items may have been added by the CCDC. 
# Please retain this information to preserve the provenance of 
# this file and to allow appropriate attribution of the data. 
# 
#######################################################################

data_ta97_0m
_audit_block_doi                 10.5517/ccvh7k3
_database_code_depnum_ccdc_archive 'CCDC 789215'
loop_
_citation_id
_citation_doi
_citation_year
1 10.1021/ic200268c 2011
_audit_update_record             
;
2010-08-13 deposited with the CCDC.	2024-07-13 downloaded from the CCDC.
;
#TrackingRef 'compound_4.cif'


_audit_creation_method           SHELXL-97
_chemical_name_systematic        
;
?
;
_chemical_name_common            ?
_chemical_melting_point          ?
_chemical_formula_moiety         'C55 H52 B2 Cl10 Cu2 F8 N4 P3'
_chemical_formula_sum            'C55 H52 B2 Cl10 Cu2 F8 N4 P3'
_chemical_formula_weight         1517.12

loop_
_atom_type_symbol
_atom_type_description
_atom_type_scat_dispersion_real
_atom_type_scat_dispersion_imag
_atom_type_scat_source
C C 0.0033 0.0016 'International Tables Vol C Tables 4.2.6.8 and 6.1.1.4'
H H 0.0000 0.0000 'International Tables Vol C Tables 4.2.6.8 and 6.1.1.4'
B B 0.0013 0.0007 'International Tables Vol C Tables 4.2.6.8 and 6.1.1.4'
N N 0.0061 0.0033 'International Tables Vol C Tables 4.2.6.8 and 6.1.1.4'
F F 0.0171 0.0103 'International Tables Vol C Tables 4.2.6.8 and 6.1.1.4'
P P 0.1023 0.0942 'International Tables Vol C Tables 4.2.6.8 and 6.1.1.4'
Cl Cl 0.1484 0.1585 'International Tables Vol C Tables 4.2.6.8 and 6.1.1.4'
Cu Cu 0.3201 1.2651 'International Tables Vol C Tables 4.2.6.8 and 6.1.1.4'

_symmetry_cell_setting           triclinic
_symmetry_space_group_name_H-M   p-1

loop_
_symmetry_equiv_pos_as_xyz
'x, y, z'
'-x, -y, -z'

_cell_length_a                   12.849(2)
_cell_length_b                   12.981(2)
_cell_length_c                   20.113(3)
_cell_angle_alpha                73.033(5)
_cell_angle_beta                 90.042(5)
_cell_angle_gamma                86.256(5)
_cell_volume                     3201.2(9)
_cell_formula_units_Z            2
_cell_measurement_temperature    100(2)
_cell_measurement_reflns_used    0
_cell_measurement_theta_min      1.06
_cell_measurement_theta_max      26.48

_exptl_crystal_description       block
_exptl_crystal_colour            yellow
_exptl_crystal_size_max          0.1
_exptl_crystal_size_mid          0.08
_exptl_crystal_size_min          0.07
_exptl_crystal_density_meas      ?
_exptl_crystal_density_diffrn    1.574
_exptl_crystal_density_method    'not measured'
_exptl_crystal_F_000             1530
_exptl_absorpt_coefficient_mu    1.221
_exptl_absorpt_correction_type   none
_exptl_absorpt_correction_T_min  ?
_exptl_absorpt_correction_T_max  ?
_exptl_absorpt_process_details   ?

_exptl_special_details           
;
?
;

_diffrn_ambient_temperature      100(2)
_diffrn_radiation_wavelength     0.71069
_diffrn_radiation_type           MoK\a
_diffrn_radiation_source         'fine-focus sealed tube'
_diffrn_radiation_monochromator  graphite
_diffrn_measurement_device_type  ccd
_diffrn_measurement_method       none
_diffrn_detector_area_resol_mean ?
_diffrn_standards_number         ?
_diffrn_standards_interval_count ?
_diffrn_standards_interval_time  ?
_diffrn_standards_decay_%        none
_diffrn_reflns_number            48036
_diffrn_reflns_av_R_equivalents  0.0369
_diffrn_reflns_av_sigmaI/netI    0.0327
_diffrn_reflns_limit_h_min       -16
_diffrn_reflns_limit_h_max       16
_diffrn_reflns_limit_k_min       -16
_diffrn_reflns_limit_k_max       16
_diffrn_reflns_limit_l_min       -25
_diffrn_reflns_limit_l_max       25
_diffrn_reflns_theta_min         1.06
_diffrn_reflns_theta_max         26.48
_reflns_number_total             13137
_reflns_number_gt                11247
_reflns_threshold_expression     >2sigma(I)

_computing_data_collection       ?
_computing_cell_refinement       ?
_computing_data_reduction        ?
_computing_structure_solution    'SHELXS-97 (Sheldrick, 1990)'
_computing_structure_refinement  'SHELXL-97 (Sheldrick, 1997)'
_computing_molecular_graphics    'Ortep-3 for Windows (Farrugia, 1997)'
_computing_publication_material  'WinGX publication routines (Farrugia, 1999)'

_refine_special_details          
;
Refinement of F^2^ against ALL reflections. The weighted R-factor wR and
goodness of fit S are based on F^2^, conventional R-factors R are based
on F, with F set to zero for negative F^2^. The threshold expression of
F^2^ > 2sigma(F^2^) is used only for calculating R-factors(gt) etc. and is
not relevant to the choice of reflections for refinement. R-factors based
on F^2^ are statistically about twice as large as those based on F, and R-
factors based on ALL data will be even larger.
;

_refine_ls_structure_factor_coef Fsqd
_refine_ls_matrix_type           full
_refine_ls_weighting_scheme      calc
_refine_ls_weighting_details     
'calc w=1/[\s^2^(Fo^2^)+(0.0940P)^2^+7.6088P] where P=(Fo^2^+2Fc^2^)/3'
_atom_sites_solution_primary     direct
_atom_sites_solution_secondary   difmap
_atom_sites_solution_hydrogens   geom
_refine_ls_hydrogen_treatment    constr
_refine_ls_extinction_method     SHELXL
_refine_ls_extinction_coef       0.0067(6)
_refine_ls_extinction_expression Fc^*^=kFc[1+0.001xFc^2^\l^3^/sin(2\q)]^-1/4^
_refine_ls_number_reflns         13137
_refine_ls_number_parameters     776
_refine_ls_number_restraints     0
_refine_ls_R_factor_all          0.0650
_refine_ls_R_factor_gt           0.0534
_refine_ls_wR_factor_ref         0.1702
_refine_ls_wR_factor_gt          0.1537
_refine_ls_goodness_of_fit_ref   1.125
_refine_ls_restrained_S_all      1.125
_refine_ls_shift/su_max          0.000
_refine_ls_shift/su_mean         0.000

loop_
_atom_site_label
_atom_site_type_symbol
_atom_site_fract_x
_atom_site_fract_y
_atom_site_fract_z
_atom_site_U_iso_or_equiv
_atom_site_adp_type
_atom_site_occupancy
_atom_site_symmetry_multiplicity
_atom_site_calc_flag
_atom_site_refinement_flags
_atom_site_disorder_assembly
_atom_site_disorder_group
Cu1 Cu 0.20444(3) 0.74843(3) 0.34228(2) 0.01297(13) Uani 1 1 d . . .
Cu2 Cu 0.22482(3) 0.56574(3) 0.30916(2) 0.01287(13) Uani 1 1 d . . .
P1 P 0.06706(6) 0.63187(7) 0.34641(4) 0.01102(19) Uani 1 1 d . . .
P2 P 0.29175(7) 0.84301(7) 0.24874(5) 0.01309(19) Uani 1 1 d . . .
P3 P 0.32000(7) 0.63505(7) 0.21433(5) 0.01360(19) Uani 1 1 d . . .
N1 N 0.0938(2) 0.8440(2) 0.37308(15) 0.0154(6) Uani 1 1 d . . .
N2 N 0.1403(2) 0.4438(3) 0.29822(16) 0.0172(6) Uani 1 1 d . . .
N200 N 0.3365(2) 0.4823(3) 0.38072(16) 0.0180(6) Uani 1 1 d . . .
N100 N 0.3138(2) 0.7129(3) 0.41945(16) 0.0169(6) Uani 1 1 d . . .
C1 C -0.0220(3) 0.7524(3) 0.32131(18) 0.0145(7) Uani 1 1 d . . .
C2 C -0.0882(3) 0.7485(3) 0.26918(18) 0.0168(7) Uani 1 1 d . . .
C3 C -0.1595(3) 0.8413(3) 0.2267(2) 0.0228(8) Uani 1 1 d . . .
H3A H -0.1308 0.9091 0.2253 0.027 Uiso 1 1 calc R . .
H3B H -0.2273 0.8395 0.2481 0.027 Uiso 1 1 calc R . .
C4 C -0.1714(4) 0.8329(4) 0.1525(2) 0.0310(10) Uani 1 1 d . . .
H4A H -0.2174 0.8925 0.1252 0.037 Uiso 1 1 calc R . .
H4B H -0.1039 0.8373 0.1306 0.037 Uiso 1 1 calc R . .
C5 C -0.2158(3) 0.7270(4) 0.1546(2) 0.0326(10) Uani 1 1 d . . .
H5A H -0.2287 0.7253 0.1074 0.039 Uiso 1 1 calc R . .
H5B H -0.2821 0.7222 0.1780 0.039 Uiso 1 1 calc R . .
C6 C -0.1425(3) 0.6295(4) 0.1923(2) 0.0247(8) Uani 1 1 d . . .
H6A H -0.1837 0.5679 0.2106 0.030 Uiso 1 1 calc R . .
H6B H -0.0954 0.6125 0.1587 0.030 Uiso 1 1 calc R . .
C7 C -0.0782(3) 0.6457(3) 0.25141(18) 0.0167(7) Uani 1 1 d . . .
C8 C -0.0021(3) 0.5736(3) 0.28863(18) 0.0153(7) Uani 1 1 d . . .
C9 C 0.0359(3) 0.4673(3) 0.28461(18) 0.0168(7) Uani 1 1 d . . .
C10 C -0.0262(3) 0.3897(3) 0.2713(2) 0.0231(8) Uani 1 1 d . . .
H10 H -0.0973 0.4053 0.2622 0.028 Uiso 1 1 calc R . .
C11 C 0.0199(4) 0.2900(4) 0.2719(2) 0.0301(9) Uani 1 1 d . . .
H11 H -0.0203 0.2379 0.2635 0.036 Uiso 1 1 calc R . .
C12 C 0.1261(4) 0.2679(3) 0.2852(2) 0.0274(9) Uani 1 1 d . . .
H12 H 0.1584 0.2016 0.2853 0.033 Uiso 1 1 calc R . .
C13 C 0.1825(3) 0.3468(3) 0.2981(2) 0.0214(8) Uani 1 1 d . . .
H13 H 0.2537 0.3319 0.3074 0.026 Uiso 1 1 calc R . .
C14 C -0.0066(3) 0.8397(3) 0.35156(18) 0.0158(7) Uani 1 1 d . . .
C15 C -0.0862(3) 0.9138(3) 0.3600(2) 0.0229(8) Uani 1 1 d . . .
H15 H -0.1544 0.9098 0.3458 0.028 Uiso 1 1 calc R . .
C16 C -0.0619(4) 0.9930(3) 0.3899(2) 0.0286(9) Uani 1 1 d . . .
H16 H -0.1136 1.0433 0.3954 0.034 Uiso 1 1 calc R . .
C17 C 0.0400(4) 0.9970(3) 0.4117(2) 0.0285(9) Uani 1 1 d . . .
H17 H 0.0574 1.0495 0.4320 0.034 Uiso 1 1 calc R . .
C18 C 0.1154(3) 0.9211(3) 0.4025(2) 0.0221(8) Uani 1 1 d . . .
H18 H 0.1835 0.9236 0.4173 0.027 Uiso 1 1 calc R . .
C19 C 0.0295(3) 0.5565(3) 0.43344(17) 0.0114(6) Uani 1 1 d . . .
C20 C -0.0737(3) 0.5268(3) 0.44522(18) 0.0134(7) Uani 1 1 d . . .
H20 H -0.1223 0.5447 0.4087 0.016 Uiso 1 1 calc R . .
C21 C 0.1026(3) 0.5294(3) 0.48834(18) 0.0126(6) Uani 1 1 d . . .
H21 H 0.1707 0.5492 0.4803 0.015 Uiso 1 1 calc R . .
C30 C 0.3872(3) 0.7519(3) 0.22170(18) 0.0145(7) Uani 1 1 d . . .
H30A H 0.4161 0.7891 0.1773 0.017 Uiso 1 1 calc R . .
H30B H 0.4438 0.7283 0.2558 0.017 Uiso 1 1 calc R . .
C31 C 0.2182(3) 0.9199(3) 0.17071(19) 0.0161(7) Uani 1 1 d . . .
C32 C 0.1120(3) 0.9493(3) 0.1764(2) 0.0210(8) Uani 1 1 d . . .
H32 H 0.0806 0.9288 0.2195 0.025 Uiso 1 1 calc R . .
C33 C 0.0535(3) 1.0091(3) 0.1176(2) 0.0261(9) Uani 1 1 d . . .
H33 H -0.0165 1.0290 0.1216 0.031 Uiso 1 1 calc R . .
C34 C 0.0997(3) 1.0385(3) 0.0537(2) 0.0272(9) Uani 1 1 d . . .
H34 H 0.0604 1.0771 0.0145 0.033 Uiso 1 1 calc R . .
C35 C 0.2049(3) 1.0107(4) 0.0474(2) 0.0272(9) Uani 1 1 d . . .
H35 H 0.2355 1.0314 0.0040 0.033 Uiso 1 1 calc R . .
C36 C 0.2640(3) 0.9525(3) 0.1052(2) 0.0208(8) Uani 1 1 d . . .
H36 H 0.3344 0.9348 0.1006 0.025 Uiso 1 1 calc R . .
C37 C 0.3705(3) 0.9440(3) 0.2677(2) 0.0186(7) Uani 1 1 d . . .
C38 C 0.3330(3) 1.0520(3) 0.2483(2) 0.0281(9) Uani 1 1 d . . .
H38 H 0.2699 1.0732 0.2239 0.034 Uiso 1 1 calc R . .
C39 C 0.3905(4) 1.1278(4) 0.2656(3) 0.0415(12) Uani 1 1 d . . .
H39 H 0.3656 1.1999 0.2525 0.050 Uiso 1 1 calc R . .
C40 C 0.4842(4) 1.0976(4) 0.3021(3) 0.0438(13) Uani 1 1 d . . .
H40 H 0.5225 1.1492 0.3129 0.053 Uiso 1 1 calc R . .
C41 C 0.5209(4) 0.9903(4) 0.3223(3) 0.0372(11) Uani 1 1 d . . .
H41 H 0.5836 0.9696 0.3473 0.045 Uiso 1 1 calc R . .
C42 C 0.4642(3) 0.9132(3) 0.3054(2) 0.0252(8) Uani 1 1 d . . .
H42 H 0.4890 0.8411 0.3194 0.030 Uiso 1 1 calc R . .
C43 C 0.2547(3) 0.6830(3) 0.12927(19) 0.0190(7) Uani 1 1 d . . .
C100 C 0.3869(3) 0.6995(3) 0.45412(18) 0.0173(7) Uani 1 1 d . . .
C44 C 0.1460(3) 0.6974(3) 0.1250(2) 0.0232(8) Uani 1 1 d . . .
H44 H 0.1072 0.6805 0.1653 0.028 Uiso 1 1 calc R . .
C45 C 0.0954(3) 0.7373(4) 0.0601(2) 0.0293(9) Uani 1 1 d . . .
H45 H 0.0230 0.7468 0.0572 0.035 Uiso 1 1 calc R . .
C46 C 0.1535(4) 0.7628(4) 0.0001(2) 0.0318(10) Uani 1 1 d . . .
H46 H 0.1197 0.7893 -0.0431 0.038 Uiso 1 1 calc R . .
C47 C 0.2620(4) 0.7489(4) 0.0039(2) 0.0323(10) Uani 1 1 d . . .
H47 H 0.3005 0.7662 -0.0365 0.039 Uiso 1 1 calc R . .
C48 C 0.3124(3) 0.7092(3) 0.0682(2) 0.0248(8) Uani 1 1 d . . .
H48 H 0.3848 0.6999 0.0708 0.030 Uiso 1 1 calc R . .
C49 C 0.4215(3) 0.5381(3) 0.2027(2) 0.0205(8) Uani 1 1 d . . .
C50 C 0.3929(4) 0.4618(4) 0.1699(2) 0.0304(9) Uani 1 1 d . . .
H50 H 0.3256 0.4663 0.1516 0.036 Uiso 1 1 calc R . .
C51 C 0.4637(4) 0.3809(4) 0.1646(3) 0.0418(12) Uani 1 1 d . . .
H51 H 0.4443 0.3316 0.1422 0.050 Uiso 1 1 calc R . .
C52 C 0.5633(4) 0.3718(4) 0.1921(3) 0.0429(12) Uani 1 1 d . . .
H52 H 0.6106 0.3166 0.1882 0.052 Uiso 1 1 calc R . .
C200 C 0.4120(3) 0.4468(3) 0.41090(19) 0.0186(7) Uani 1 1 d . . .
C53 C 0.5933(4) 0.4458(4) 0.2257(3) 0.0354(10) Uani 1 1 d . . .
H53 H 0.6604 0.4394 0.2446 0.042 Uiso 1 1 calc R . .
C54 C 0.5223(3) 0.5294(3) 0.2311(2) 0.0258(8) Uani 1 1 d . . .
H54 H 0.5421 0.5788 0.2534 0.031 Uiso 1 1 calc R . .
C201 C 0.5089(3) 0.4113(3) 0.4495(2) 0.0207(8) Uani 1 1 d . . .
H201 H 0.5669 0.4509 0.4355 0.025 Uiso 1 1 calc R . .
C101 C 0.4817(3) 0.6763(3) 0.4955(2) 0.0195(7) Uani 1 1 d . . .
H101 H 0.5359 0.7220 0.4840 0.023 Uiso 1 1 calc R . .
C900 C 0.0763(5) 0.3420(5) 0.0867(3) 0.0511(14) Uani 1 1 d . . .
H90A H 0.0271 0.3021 0.1192 0.061 Uiso 1 1 calc R . .
H90B H 0.0502 0.3508 0.0399 0.061 Uiso 1 1 calc R . .
C901 C 0.6919(4) 0.2279(5) 0.3825(3) 0.0425(12) Uani 1 1 d . . .
H90C H 0.7203 0.2016 0.3453 0.051 Uiso 1 1 calc R . .
H90D H 0.6298 0.2743 0.3644 0.051 Uiso 1 1 calc R . .
C902 C 0.8147(3) 0.7290(3) 0.5120(2) 0.0276(9) Uani 1 1 d . . .
H90E H 0.7945 0.6569 0.5354 0.033 Uiso 1 1 calc R . .
H90F H 0.8117 0.7388 0.4623 0.033 Uiso 1 1 calc R . .
C903 C 0.5527(5) 0.0416(5) 0.1260(3) 0.0478(13) Uani 1 1 d . . .
H90G H 0.5198 0.0175 0.1707 0.057 Uiso 1 1 calc R . .
H90H H 0.6220 0.0620 0.1337 0.057 Uiso 1 1 calc R . .
C905 C 0.3211(6) 0.5092(7) 0.9682(4) 0.0687(19) Uani 1 1 d . . .
H90I H 0.3548 0.5754 0.9471 0.082 Uiso 1 1 calc R . .
H90J H 0.3082 0.5053 1.0163 0.082 Uiso 1 1 calc R . .
B1 B 0.6574(3) 0.6481(4) 0.3741(2) 0.0205(9) Uani 1 1 d . . .
B2 B 0.7951(4) 0.1563(4) 0.2161(3) 0.0323(11) Uani 1 1 d . . .
F16 F 0.54879(16) 0.64630(19) 0.36096(11) 0.0223(5) Uani 1 1 d . . .
F17 F 0.68070(17) 0.5774(2) 0.44090(12) 0.0250(5) Uani 1 1 d . . .
F18 F 0.6791(2) 0.7520(2) 0.37291(14) 0.0353(6) Uani 1 1 d . . .
F19 F 0.71320(19) 0.6146(2) 0.32519(13) 0.0348(6) Uani 1 1 d . . .
F20 F 0.8968(2) 0.1197(3) 0.2084(2) 0.0562(9) Uani 1 1 d . . .
F21 F 0.7495(3) 0.0865(3) 0.27137(18) 0.0576(9) Uani 1 1 d . . .
F22 F 0.7949(6) 0.2579(6) 0.2344(3) 0.0206(12) Uani 0.50 1 d P . .
F23 F 0.7284(9) 0.1784(8) 0.1582(6) 0.035(2) Uani 0.50 1 d P . .
F32 F 0.7981(13) 0.2459(15) 0.2230(14) 0.179(11) Uani 0.50 1 d P . .
F33 F 0.7468(15) 0.1528(19) 0.1581(8) 0.160(10) Uani 0.50 1 d P . .
Cl1 Cl 0.08641(11) 0.47080(11) 0.09925(7) 0.0462(3) Uani 1 1 d . . .
Cl2 Cl 0.19867(16) 0.26863(13) 0.09927(11) 0.0706(5) Uani 1 1 d . . .
Cl3 Cl 0.47934(11) 0.15490(11) 0.07271(8) 0.0497(3) Uani 1 1 d . . .
Cl4 Cl 0.56310(9) -0.06615(10) 0.08788(8) 0.0438(3) Uani 1 1 d . . .
Cl5 Cl 0.65771(14) 0.11775(11) 0.45154(8) 0.0571(4) Uani 1 1 d . . .
Cl6 Cl 0.78403(12) 0.30305(16) 0.40871(8) 0.0627(5) Uani 1 1 d . . .
Cl7 Cl 0.94435(8) 0.74113(8) 0.53720(5) 0.0248(2) Uani 1 1 d . . .
Cl8 Cl 0.72484(10) 0.82470(10) 0.53216(8) 0.0448(3) Uani 1 1 d . . .
Cl9 Cl 0.40436(16) 0.39957(16) 0.96514(10) 0.0727(5) Uani 1 1 d . . .
Cl10 Cl 0.20013(15) 0.51378(15) 0.92444(9) 0.0672(5) Uani 1 1 d . . .

loop_
_atom_site_aniso_label
_atom_site_aniso_U_11
_atom_site_aniso_U_22
_atom_site_aniso_U_33
_atom_site_aniso_U_23
_atom_site_aniso_U_13
_atom_site_aniso_U_12
Cu1 0.0095(2) 0.0162(2) 0.0119(2) -0.00189(17) -0.00091(15) -0.00147(16)
Cu2 0.0104(2) 0.0149(2) 0.0122(2) -0.00188(16) -0.00079(15) -0.00264(16)
P1 0.0086(4) 0.0141(4) 0.0091(4) -0.0011(3) -0.0011(3) -0.0020(3)
P2 0.0099(4) 0.0148(4) 0.0130(4) -0.0013(3) -0.0006(3) -0.0023(3)
P3 0.0113(4) 0.0167(4) 0.0123(4) -0.0030(3) -0.0002(3) -0.0026(3)
N1 0.0167(15) 0.0146(14) 0.0136(14) -0.0022(12) -0.0008(11) -0.0013(12)
N2 0.0182(15) 0.0197(15) 0.0134(14) -0.0035(12) 0.0009(12) -0.0050(12)
N200 0.0159(15) 0.0204(16) 0.0161(15) -0.0026(12) -0.0012(12) -0.0015(12)
N100 0.0141(15) 0.0195(15) 0.0161(15) -0.0037(12) -0.0012(12) -0.0001(12)
C1 0.0112(15) 0.0156(17) 0.0130(16) 0.0013(13) 0.0006(12) 0.0002(13)
C2 0.0093(15) 0.0236(19) 0.0137(16) 0.0010(14) 0.0014(13) -0.0039(14)
C3 0.0154(18) 0.027(2) 0.0190(19) 0.0027(16) -0.0058(14) 0.0026(15)
C4 0.026(2) 0.039(2) 0.021(2) 0.0013(18) -0.0089(16) 0.0012(18)
C5 0.025(2) 0.045(3) 0.026(2) -0.0064(19) -0.0129(17) -0.0026(19)
C6 0.0166(18) 0.038(2) 0.0182(18) -0.0060(17) -0.0067(15) -0.0056(17)
C7 0.0100(15) 0.029(2) 0.0090(15) -0.0013(14) 0.0017(12) -0.0070(14)
C8 0.0120(16) 0.0222(18) 0.0122(16) -0.0042(14) 0.0012(13) -0.0081(14)
C9 0.0168(17) 0.0216(18) 0.0112(16) -0.0028(14) -0.0004(13) -0.0057(14)
C10 0.0217(19) 0.029(2) 0.0203(19) -0.0086(16) -0.0015(15) -0.0108(16)
C11 0.038(2) 0.028(2) 0.028(2) -0.0116(18) 0.0004(18) -0.0166(19)
C12 0.036(2) 0.021(2) 0.028(2) -0.0113(17) 0.0041(18) -0.0048(17)
C13 0.0244(19) 0.0180(18) 0.0222(19) -0.0060(15) 0.0048(15) -0.0041(15)
C14 0.0134(16) 0.0179(17) 0.0121(16) 0.0016(14) -0.0001(13) 0.0002(13)
C15 0.0204(19) 0.0222(19) 0.0212(19) -0.0001(16) 0.0008(15) 0.0055(15)
C16 0.033(2) 0.021(2) 0.028(2) -0.0044(17) 0.0030(18) 0.0103(17)
C17 0.040(2) 0.0192(19) 0.028(2) -0.0095(17) 0.0044(18) -0.0020(17)
C18 0.0238(19) 0.0223(19) 0.0209(19) -0.0069(16) 0.0021(15) -0.0046(15)
C19 0.0100(15) 0.0120(15) 0.0114(15) -0.0022(12) 0.0001(12) -0.0001(12)
C20 0.0105(15) 0.0153(16) 0.0134(16) -0.0027(13) -0.0025(12) -0.0008(13)
C21 0.0075(14) 0.0154(16) 0.0140(16) -0.0025(13) -0.0007(12) -0.0022(12)
C30 0.0111(16) 0.0175(17) 0.0140(16) -0.0031(13) 0.0002(12) -0.0028(13)
C31 0.0138(16) 0.0160(17) 0.0166(17) -0.0019(14) -0.0017(13) -0.0003(13)
C32 0.0155(18) 0.0240(19) 0.0193(18) -0.0002(15) 0.0013(14) 0.0005(15)
C33 0.0176(19) 0.030(2) 0.025(2) 0.0002(17) -0.0027(15) 0.0035(16)
C34 0.023(2) 0.029(2) 0.022(2) 0.0035(17) -0.0066(16) 0.0021(17)
C35 0.026(2) 0.034(2) 0.0160(19) 0.0002(17) 0.0016(16) -0.0002(17)
C36 0.0143(17) 0.0246(19) 0.0197(19) -0.0006(15) -0.0001(14) -0.0013(15)
C37 0.0179(18) 0.0182(18) 0.0199(18) -0.0047(15) 0.0027(14) -0.0065(14)
C38 0.022(2) 0.024(2) 0.039(2) -0.0112(18) -0.0037(17) 0.0008(16)
C39 0.035(3) 0.022(2) 0.073(4) -0.023(2) -0.00