####################################################################### 
# 
# This file contains crystal structure data downloaded from the 
# Cambridge Structural Database (CSD) hosted by the Cambridge 
# Crystallographic Data Centre (CCDC).
# 
# Full information about CCDC data access policies and citation 
# guidelines are available at http://www.ccdc.cam.ac.uk/access/V1 
# 
# Audit and citation data items may have been added by the CCDC. 
# Please retain this information to preserve the provenance of 
# this file and to allow appropriate attribution of the data. 
# 
#######################################################################

data_sq
_audit_block_doi                 10.5517/ccvh7l4
_database_code_depnum_ccdc_archive 'CCDC 789216'
loop_
_citation_id
_citation_doi
_citation_year
1 10.1021/ic200268c 2011
_audit_update_record             
;
2010-08-13 deposited with the CCDC.	2024-07-13 downloaded from the CCDC.
;
#TrackingRef 'compound_6.cif'


_audit_creation_method           SHELXL-97
_chemical_name_systematic        
;
?
;
_chemical_name_common            ?
_chemical_melting_point          ?
_chemical_formula_moiety         'C124 H100 B0 Cl0 Cu4 F0 N8 P6'
_chemical_formula_sum            'C124 H100 B0 Cl0 Cu4 F0 N8 P6'
_chemical_formula_weight         2142.10

loop_
_atom_type_symbol
_atom_type_description
_atom_type_scat_dispersion_real
_atom_type_scat_dispersion_imag
_atom_type_scat_source
C C 0.0033 0.0016 'International Tables Vol C Tables 4.2.6.8 and 6.1.1.4'
H H 0.0000 0.0000 'International Tables Vol C Tables 4.2.6.8 and 6.1.1.4'
N N 0.0061 0.0033 'International Tables Vol C Tables 4.2.6.8 and 6.1.1.4'
F F 0.0171 0.0103 'International Tables Vol C Tables 4.2.6.8 and 6.1.1.4'
P P 0.1023 0.0942 'International Tables Vol C Tables 4.2.6.8 and 6.1.1.4'
Cu Cu 0.3201 1.2651 'International Tables Vol C Tables 4.2.6.8 and 6.1.1.4'
Cl Cl 0.1484 0.1585 'International Tables Vol C Tables 4.2.6.8 and 6.1.1.4'
B B 0.0013 0.0007 'International Tables Vol C Tables 4.2.6.8 and 6.1.1.4'

_symmetry_cell_setting           triclinic
_symmetry_space_group_name_H-M   P-1

loop_
_symmetry_equiv_pos_as_xyz
'x, y, z'
'-x, -y, -z'

_cell_length_a                   15.367(4)
_cell_length_b                   18.717(4)
_cell_length_c                   27.879(7)
_cell_angle_alpha                97.301(2)
_cell_angle_beta                 98.417(2)
_cell_angle_gamma                105.936(2)
_cell_volume                     7509(3)
_cell_formula_units_Z            2
_cell_measurement_temperature    100(2)
_cell_measurement_reflns_used    ?
_cell_measurement_theta_min      1.53
_cell_measurement_theta_max      26.40

_exptl_crystal_description       plate
_exptl_crystal_colour            yellow
_exptl_crystal_size_max          0.1
_exptl_crystal_size_mid          0.08
_exptl_crystal_size_min          0.02
_exptl_crystal_density_meas      ?
_exptl_crystal_density_diffrn    0.947
_exptl_crystal_density_method    'not measured'
_exptl_crystal_F_000             2212
_exptl_absorpt_coefficient_mu    0.661
_exptl_absorpt_correction_type   none
_exptl_absorpt_correction_T_min  ?
_exptl_absorpt_correction_T_max  ?
_exptl_absorpt_process_details   ?

_exptl_special_details           
;
?
;

_diffrn_ambient_temperature      100(2)
_diffrn_radiation_wavelength     0.71069
_diffrn_radiation_type           MoK\a
_diffrn_radiation_source         'fine-focus sealed tube'
_diffrn_radiation_monochromator  graphite
_diffrn_measurement_device_type  none
_diffrn_measurement_method       CCD
_diffrn_detector_area_resol_mean ?
_diffrn_standards_number         ?
_diffrn_standards_interval_count ?
_diffrn_standards_interval_time  ?
_diffrn_standards_decay_%        none
_diffrn_reflns_number            73746
_diffrn_reflns_av_R_equivalents  0.1732
_diffrn_reflns_av_sigmaI/netI    0.5118
_diffrn_reflns_limit_h_min       -19
_diffrn_reflns_limit_h_max       19
_diffrn_reflns_limit_k_min       -23
_diffrn_reflns_limit_k_max       23
_diffrn_reflns_limit_l_min       -34
_diffrn_reflns_limit_l_max       34
_diffrn_reflns_theta_min         1.53
_diffrn_reflns_theta_max         26.40
_reflns_number_total             30290
_reflns_number_gt                7146
_reflns_threshold_expression     >2sigma(I)

_computing_data_collection       ?
_computing_cell_refinement       ?
_computing_data_reduction        ?
_computing_structure_solution    ?
_computing_structure_refinement  'SHELXL-97 (Sheldrick, 1997)'
_computing_molecular_graphics    ?
_computing_publication_material  ?

_refine_special_details          
;
Refinement of F^2^ against ALL reflections. The weighted R-factor wR and
goodness of fit S are based on F^2^, conventional R-factors R are based
on F, with F set to zero for negative F^2^. The threshold expression of
F^2^ > 2sigma(F^2^) is used only for calculating R-factors(gt) etc. and is
not relevant to the choice of reflections for refinement. R-factors based
on F^2^ are statistically about twice as large as those based on F, and R-
factors based on ALL data will be even larger.
;

_refine_ls_structure_factor_coef Fsqd
_refine_ls_matrix_type           full
_refine_ls_weighting_scheme      calc
_refine_ls_weighting_details     
'calc w=1/[\s^2^(Fo^2^)+(0.1488P)^2^+0.0000P] where P=(Fo^2^+2Fc^2^)/3'
_atom_sites_solution_primary     direct
_atom_sites_solution_secondary   difmap
_atom_sites_solution_hydrogens   geom
_refine_ls_hydrogen_treatment    constr
_refine_ls_extinction_method     none
_refine_ls_extinction_coef       ?
_refine_ls_number_reflns         30290
_refine_ls_number_parameters     944
_refine_ls_number_restraints     0
_refine_ls_R_factor_all          0.2622
_refine_ls_R_factor_gt           0.1327
_refine_ls_wR_factor_ref         0.3571
_refine_ls_wR_factor_gt          0.3239
_refine_ls_goodness_of_fit_ref   0.828
_refine_ls_restrained_S_all      0.828
_refine_ls_shift/su_max          0.000
_refine_ls_shift/su_mean         0.000

loop_
_atom_site_label
_atom_site_type_symbol
_atom_site_fract_x
_atom_site_fract_y
_atom_site_fract_z
_atom_site_U_iso_or_equiv
_atom_site_adp_type
_atom_site_occupancy
_atom_site_symmetry_multiplicity
_atom_site_calc_flag
_atom_site_refinement_flags
_atom_site_disorder_assembly
_atom_site_disorder_group
C1 C 0.3280(8) 0.4411(6) 0.3976(5) 0.042(3) Uiso 1 1 d . . .
C2 C 0.3958(9) 0.4173(6) 0.4266(5) 0.043(3) Uani 1 1 d . . .
C3 C 0.3890(9) 0.3919(7) 0.4751(5) 0.050(3) Uani 1 1 d . . .
H3A H 0.3249 0.3669 0.4755 0.060 Uiso 1 1 calc R . .
H3B H 0.4103 0.4358 0.5011 0.060 Uiso 1 1 calc R . .
C4 C 0.4454(10) 0.3382(8) 0.4854(5) 0.069(4) Uani 1 1 d . . .
H4A H 0.4430 0.3264 0.5182 0.083 Uiso 1 1 calc R . .
H4B H 0.4204 0.2915 0.4618 0.083 Uiso 1 1 calc R . .
C5 C 0.5437(10) 0.3757(7) 0.4815(5) 0.064(4) Uani 1 1 d . . .
H5A H 0.5806 0.3437 0.4917 0.077 Uiso 1 1 calc R . .
H5B H 0.5662 0.4229 0.5047 0.077 Uiso 1 1 calc R . .
C6 C 0.5601(9) 0.3923(7) 0.4306(4) 0.051(4) Uani 1 1 d . . .
H6A H 0.5674 0.3479 0.4116 0.061 Uiso 1 1 calc R . .
H6B H 0.6171 0.4330 0.4345 0.061 Uiso 1 1 calc R . .
C7 C 0.4784(9) 0.4154(6) 0.4009(5) 0.049(4) Uani 1 1 d . . .
C8 C 0.4707(9) 0.4329(6) 0.3564(5) 0.040(3) Uani 1 1 d . . .
C9 C 0.5281(5) 0.4327(4) 0.3198(3) 0.051(4) Uani 1 1 d G . .
C10 C 0.6232(5) 0.4470(5) 0.3289(3) 0.045(3) Uani 1 1 d G . .
H10 H 0.6555 0.4557 0.3610 0.054 Uiso 1 1 calc R . .
C11 C 0.6701(4) 0.4483(5) 0.2898(4) 0.083(5) Uani 1 1 d G . .
H11 H 0.7338 0.4579 0.2959 0.100 Uiso 1 1 calc R . .
C12 C 0.6219(6) 0.4354(5) 0.2418(3) 0.083(5) Uani 1 1 d G . .
H12 H 0.6533 0.4363 0.2156 0.100 Uiso 1 1 calc R . .
C13 C 0.5268(6) 0.4211(5) 0.2327(2) 0.056(4) Uani 1 1 d G . .
H13 H 0.4946 0.4124 0.2006 0.067 Uiso 1 1 calc R . .
N2 N 0.4799(4) 0.4197(4) 0.2718(3) 0.050(3) Uani 1 1 d G . .
C14 C 0.2456(5) 0.4459(5) 0.4083(4) 0.044(3) Uani 1 1 d G . .
C15 C 0.2269(7) 0.4710(6) 0.4537(3) 0.084(5) Uani 1 1 d G . .
H15 H 0.2720 0.4821 0.4819 0.101 Uiso 1 1 calc R . .
C16 C 0.1407(8) 0.4793(6) 0.4568(3) 0.113(6) Uiso 1 1 d G . .
H16 H 0.1281 0.4961 0.4871 0.135 Uiso 1 1 calc R . .
C17 C 0.0731(6) 0.4627(7) 0.4145(4) 0.136(8) Uiso 1 1 d G . .
H17 H 0.0155 0.4683 0.4166 0.163 Uiso 1 1 calc R . .
C18 C 0.0918(6) 0.4377(7) 0.3692(4) 0.120(7) Uani 1 1 d G . .
H18 H 0.0467 0.4265 0.3409 0.143 Uiso 1 1 calc R . .
N1 N 0.1781(7) 0.4293(5) 0.3660(3) 0.069(4) Uani 1 1 d G . .
C19 C 0.3756(6) 0.5685(3) 0.2875(2) 0.054(4) Uani 1 1 d G . .
H19 H 0.3631 0.5317 0.2595 0.065 Uiso 1 1 calc R . .
C20 C 0.3784(5) 0.5482(3) 0.3338(3) 0.039(3) Uani 1 1 d G . .
C21 C 0.3972(6) 0.6032(4) 0.3755(2) 0.049(4) Uani 1 1 d G . .
H21 H 0.3990 0.5896 0.4065 0.059 Uiso 1 1 calc R . .
C22 C 0.4132(6) 0.6786(3) 0.3709(2) 0.039(3) Uani 1 1 d G . .
H22 H 0.4258 0.7154 0.3989 0.047 Uiso 1 1 calc R . .
C23 C 0.4104(6) 0.6989(3) 0.3246(3) 0.044(3) Uani 1 1 d G . .
C24 C 0.3917(6) 0.6439(4) 0.2829(2) 0.055(4) Uiso 1 1 d G . .
H24 H 0.3898 0.6575 0.2519 0.066 Uiso 1 1 calc R . .
C31 C 0.3107(10) 0.8064(6) 0.3283(5) 0.048(4) Uani 1 1 d . . .
C32 C 0.3199(11) 0.8516(7) 0.3725(5) 0.055(4) Uani 1 1 d . . .
C33 C 0.2311(14) 0.8689(9) 0.3878(7) 0.112(8) Uani 1 1 d . . .
H33A H 0.1931 0.8782 0.3597 0.135 Uiso 1 1 calc R . .
H33B H 0.1947 0.8267 0.4002 0.135 Uiso 1 1 calc R . .
C34 C 0.266(3) 0.9384(17) 0.4275(9) 0.206(19) Uani 1 1 d . . .
H34A H 0.2976 0.9815 0.4138 0.248 Uiso 1 1 calc R . .
H34B H 0.2154 0.9494 0.4404 0.248 Uiso 1 1 calc R . .
C35 C 0.3208(17) 0.9269(10) 0.4608(8) 0.124(9) Uani 1 1 d . . .
H35A H 0.2921 0.8780 0.4688 0.148 Uiso 1 1 calc R . .
H35B H 0.3283 0.9644 0.4898 0.148 Uiso 1 1 calc R . .
C36 C 0.4312(11) 0.9286(7) 0.4502(5) 0.071(5) Uani 1 1 d . . .
H36A H 0.4675 0.9797 0.4495 0.085 Uiso 1 1 calc R . .
H36B H 0.4631 0.9094 0.4758 0.085 Uiso 1 1 calc R . .
C37 C 0.4162(12) 0.8787(8) 0.4007(6) 0.068(4) Uani 1 1 d . . .
C38 C 0.4747(8) 0.8530(6) 0.3797(4) 0.031(3) Uiso 1 1 d . . .
C39 C 0.5743(7) 0.8661(5) 0.3981(4) 0.070(5) Uani 1 1 d G . .
C40 C 0.6216(12) 0.8799(6) 0.4464(3) 0.096(7) Uani 1 1 d G . .
H40 H 0.5899 0.8819 0.4723 0.115 Uiso 1 1 calc R . .
C41 C 0.7161(12) 0.8909(7) 0.4560(4) 0.136(10) Uani 1 1 d G . .
H41 H 0.7477 0.9001 0.4884 0.163 Uiso 1 1 calc R . .
C42 C 0.7634(7) 0.8880(7) 0.4173(6) 0.26(2) Uani 1 1 d G . .
H42 H 0.8266 0.8953 0.4238 0.306 Uiso 1 1 calc R . .
C43 C 0.7162(8) 0.8741(6) 0.3690(5) 0.098(6) Uani 1 1 d G . .
H43 H 0.7478 0.8722 0.3431 0.118 Uiso 1 1 calc R . .
N4 N 0.6216(8) 0.8632(5) 0.3593(3) 0.078(4) Uani 1 1 d G . .
C44 C 0.2283(8) 0.7679(5) 0.2888(3) 0.078(6) Uani 1 1 d G . .
C45 C 0.1365(9) 0.7410(7) 0.2932(5) 0.102(7) Uani 1 1 d G . .
H45 H 0.1203 0.7459 0.3240 0.123 Uiso 1 1 calc R . .
C46 C 0.0690(6) 0.7067(7) 0.2514(6) 0.150(11) Uani 1 1 d G . .
H46 H 0.0076 0.6887 0.2544 0.180 Uiso 1 1 calc R . .
C47 C 0.0932(6) 0.6994(5) 0.2054(5) 0.102(7) Uani 1 1 d G . .
H47 H 0.0481 0.6765 0.1774 0.123 Uiso 1 1 calc R . .
C48 C 0.1850(8) 0.7263(5) 0.2010(3) 0.106(7) Uani 1 1 d G . .
H48 H 0.2012 0.7214 0.1701 0.127 Uiso 1 1 calc R . .
N3 N 0.2525(5) 0.7606(4) 0.2427(4) 0.070(4) Uani 1 1 d G . .
C51 C 0.2680(8) 0.2155(6) 0.3036(4) 0.037(3) Uiso 1 1 d . . .
H51A H 0.2482 0.1607 0.2982 0.045 Uiso 1 1 calc R . .
H51B H 0.3156 0.2337 0.3330 0.045 Uiso 1 1 calc R . .
C52 C 0.1512(7) 0.2334(5) 0.3744(3) 0.051(4) Uani 1 1 d G . .
C53 C 0.0759(6) 0.2527(6) 0.3879(5) 0.130(9) Uani 1 1 d G . .
H53 H 0.0341 0.2638 0.3645 0.157 Uiso 1 1 calc R . .
C54 C 0.0631(7) 0.2555(6) 0.4364(5) 0.099(6) Uani 1 1 d G . .
H54 H 0.0128 0.2684 0.4454 0.118 Uiso 1 1 calc R . .
C55 C 0.1255(10) 0.2389(7) 0.4713(4) 0.090(6) Uani 1 1 d G . .
H55 H 0.1170 0.2407 0.5038 0.108 Uiso 1 1 calc R . .
C56 C 0.2008(8) 0.2196(6) 0.4578(4) 0.090(6) Uani 1 1 d G . .
H56 H 0.2426 0.2085 0.4812 0.108 Uiso 1 1 calc R . .
C57 C 0.2136(6) 0.2168(5) 0.4094(5) 0.087(6) Uani 1 1 d G . .
H57 H 0.2639 0.2039 0.4003 0.105 Uiso 1 1 calc R . .
C59 C 0.0679(6) 0.1792(6) 0.2686(4) 0.083(5) Uani 1 1 d G . .
C60 C 0.0243(9) 0.1100(6) 0.2805(4) 0.086(6) Uani 1 1 d G . .
H60 H 0.0460 0.0972 0.3101 0.103 Uiso 1 1 calc R . .
C61 C -0.0517(9) 0.0600(5) 0.2481(6) 0.37(4) Uani 1 1 d G . .
H61 H -0.0809 0.0138 0.2561 0.444 Uiso 1 1 calc R . .
C62 C -0.0841(6) 0.0792(7) 0.2038(5) 0.33(3) Uani 1 1 d G . .
H62 H -0.1349 0.0458 0.1821 0.392 Uiso 1 1 calc R . .
C63 C -0.0405(8) 0.1484(8) 0.1919(4) 0.104(8) Uani 1 1 d G . .
H63 H -0.0621 0.1612 0.1623 0.125 Uiso 1 1 calc R . .
C64 C 0.0355(8) 0.1984(5) 0.2243(4) 0.073(5) Uani 1 1 d G . .
H64 H 0.0647 0.2446 0.2164 0.088 Uiso 1 1 calc R . .
C65 C 0.4240(4) 0.2270(4) 0.2516(3) 0.035(3) Uani 1 1 d G . .
C66 C 0.4640(6) 0.2323(5) 0.2101(3) 0.055(4) Uani 1 1 d G . .
H66 H 0.4318 0.2407 0.1814 0.066 Uiso 1 1 calc R . .
C67 C 0.5519(6) 0.2252(5) 0.2113(4) 0.111(8) Uani 1 1 d G . .
H67 H 0.5786 0.2287 0.1835 0.134 Uiso 1 1 calc R . .
C68 C 0.5999(4) 0.2126(5) 0.2541(5) 0.064(5) Uani 1 1 d G . .
H68 H 0.6587 0.2078 0.2549 0.077 Uiso 1 1 calc R . .
C69 C 0.5600(6) 0.2072(5) 0.2957(4) 0.118(9) Uani 1 1 d G . .
H69 H 0.5921 0.1988 0.3243 0.142 Uiso 1 1 calc R . .
C70 C 0.4720(6) 0.2144(5) 0.2944(3) 0.054(4) Uani 1 1 d G . .
H70 H 0.4453 0.2108 0.3222 0.064 Uiso 1 1 calc R . .
C71 C 0.2355(5) 0.1848(4) 0.1944(3) 0.042(3) Uani 1 1 d G . .
C72 C 0.1962(6) 0.1082(4) 0.1934(3) 0.063(4) Uani 1 1 d G . .
H72 H 0.2094 0.0870 0.2210 0.076 Uiso 1 1 calc R . .
C73 C 0.1372(6) 0.0632(4) 0.1512(4) 0.086(6) Uani 1 1 d G . .
H73 H 0.1109 0.0120 0.1505 0.103 Uiso 1 1 calc R . .
C74 C 0.1176(7) 0.0949(6) 0.1100(3) 0.078(5) Uani 1 1 d G . .
H74 H 0.0781 0.0648 0.0818 0.093 Uiso 1 1 calc R . .
C75 C 0.1569(8) 0.1715(6) 0.1110(3) 0.129(9) Uani 1 1 d G . .
H75 H 0.1437 0.1927 0.0834 0.154 Uiso 1 1 calc R . .
C76 C 0.2159(7) 0.2165(4) 0.1532(3) 0.098(7) Uani 1 1 d G . .
H76 H 0.2422 0.2678 0.1539 0.118 Uiso 1 1 calc R . .
C81 C 0.4838(7) 1.0033(5) 0.2685(5) 0.051(4) Uani 1 1 d . . .
H81A H 0.4952 1.0522 0.2584 0.061 Uiso 1 1 calc R . .
H81B H 0.4709 1.0084 0.3016 0.061 Uiso 1 1 calc R . .
C82 C 0.2808(6) 0.9525(5) 0.2479(3) 0.044(3) Uani 1 1 d G . .
C83 C 0.2874(5) 0.9952(5) 0.2936(3) 0.042(3) Uiso 1 1 d G . .
H83 H 0.3449 1.0204 0.3131 0.050 Uiso 1 1 calc R . .
C84 C 0.2079(7) 1.0003(6) 0.3102(3) 0.083(5) Uani 1 1 d G . .
H84 H 0.2123 1.0288 0.3408 0.100 Uiso 1 1 calc R . .
C85 C 0.1219(6) 0.9627(6) 0.2811(5) 0.095(6) Uani 1 1 d G . .
H85 H 0.0687 0.9660 0.2922 0.114 Uiso 1 1 calc R . .
C86 C 0.1153(6) 0.9200(6) 0.2354(5) 0.26(2) Uani 1 1 d G . .
H86 H 0.0577 0.8948 0.2159 0.312 Uiso 1 1 calc R . .
C87 C 0.1948(8) 0.9149(5) 0.2188(3) 0.092(6) Uani 1 1 d G . .
H87 H 0.1904 0.8864 0.1882 0.111 Uiso 1 1 calc R . .
C89 C 0.3806(7) 0.9627(4) 0.1645(3) 0.059(4) Uani 1 1 d G . .
C90 C 0.3699(7) 1.0327(4) 0.1588(3) 0.062(4) Uani 1 1 d G . .
H90 H 0.3642 1.0648 0.1857 0.074 Uiso 1 1 calc R . .
C91 C 0.3678(7) 1.0546(4) 0.1130(4) 0.085(5) Uani 1 1 d G . .
H91 H 0.3607 1.1015 0.1092 0.102 Uiso 1 1 calc R . .
C92 C 0.3763(8) 1.0066(6) 0.0728(3) 0.069(4) Uani 1 1 d G . .
H92 H 0.3749 1.0213 0.0421 0.083 Uiso 1 1 calc R . .
C93 C 0.3870(9) 0.9366(5) 0.0785(3) 0.146(10) Uani 1 1 d G . .
H93 H 0.3927 0.9044 0.0516 0.175 Uiso 1 1 calc R . .
C94 C 0.3891(8) 0.9146(4) 0.1243(3) 0.074(5) Uani 1 1 d G . .
H94 H 0.3962 0.8678 0.1281 0.089 Uiso 1 1 calc R . .
C95 C 0.6225(7) 0.9832(5) 0.2074(3) 0.049(4) Uani 1 1 d G . .
C96 C 0.6125(8) 1.0426(5) 0.1840(4) 0.111(7) Uani 1 1 d G . .
H96 H 0.5863 1.0773 0.1981 0.133 Uiso 1 1 calc R . .
C97 C 0.6417(9) 1.0501(5) 0.1395(4) 0.131(9) Uani 1 1 d G . .
H97 H 0.6350 1.0898 0.1239 0.157 Uiso 1 1 calc R . .
C98 C 0.6809(8) 0.9982(6) 0.1184(3) 0.096(7) Uani 1 1 d G . .
H98 H 0.7004 1.0032 0.0886 0.115 Uiso 1 1 calc R . .
C99 C 0.6909(7) 0.9388(5) 0.1417(4) 0.111(8) Uani 1 1 d G . .
H99 H 0.7171 0.9041 0.1276 0.134 Uiso 1 1 calc R . .
C100 C 0.6617(7) 0.9313(4) 0.1862(4) 0.062(4) Uani 1 1 d G . .
H100 H 0.6684 0.8916 0.2019 0.074 Uiso 1 1 calc R . .
C101 C 0.6742(6) 1.0414(5) 0.3140(3) 0.038(3) Uani 1 1 d G . .
C102 C 0.6563(6) 1.0525(5) 0.3614(4) 0.079(5) Uani 1 1 d G . .
H102 H 0.5980 1.0298 0.3674 0.095 Uiso 1 1 calc R . .
C103 C 0.7256(8) 1.0974(6) 0.3998(3) 0.065(4) Uani 1 1 d G . .
H103 H 0.7137 1.1048 0.4315 0.078 Uiso 1 1 calc R . .
C104 C 0.8128(7) 1.1313(6) 0.3907(4) 0.103(7) Uani 1 1 d G . .
H104 H 0.8591 1.1614 0.4164 0.123 Uiso 1 1 calc R . .
C105 C 0.8306(5) 1.1202(7) 0.3433(5) 0.196(15) Uani 1 1 d G . .
H105 H 0.8889 1.1429 0.3373 0.235 Uiso 1 1 calc R . .
C106 C 0.7613(7) 1.0753(7) 0.3050(3) 0.144(10) Uani 1 1 d G . .
H106 H 0.7732 1.0679 0.2733 0.173 Uiso 1 1 calc R . .
C120 C 0.0807(9) 0.4063(8) 0.2191(6) 0.063(4) Uani 1 1 d . . .
C121 C 0.0264(6) 0.4191(5) 0.1706(3) 0.057(4) Uiso 1 1 d G . .
C122 C 0.0116(6) 0.3668(4) 0.1278(3) 0.074(5) Uani 1 1 d G . .
H122 H 0.0303 0.3237 0.1289 0.089 Uiso 1 1 calc R . .
C123 C -0.0312(6) 0.3789(4) 0.0834(3) 0.074(5) Uani 1 1 d G . .
H123 H -0.0411 0.3439 0.0548 0.089 Uiso 1 1 calc R . .
C124 C -0.0592(6) 0.4432(5) 0.0817(3) 0.050(4) Uani 1 1 d G . .
C125 C -0.0444(6) 0.4955(4) 0.1244(4) 0.074(5) Uani 1 1 d G . .
H125 H -0.0632 0.5386 0.1233 0.088 Uiso 1 1 calc R . .
C126 C -0.0016(7) 0.4835(4) 0.1689(3) 0.068(5) Uani 1 1 d G . .
H126 H 0.0083 0.5185 0.1975 0.082 Uiso 1 1 calc R . .
C127 C -0.0990(9) 0.4541(7) 0.0333(4) 0.048(4) Uani 1 1 d . . .
H127 H -0.1162 0.4130 0.0076 0.057 Uiso 1 1 calc R . .
C128 C -0.1126(8) 0.5184(7) 0.0230(5) 0.051(3) Uiso 1 1 d . . .
H128 H -0.0939 0.5592 0.0489 0.061 Uiso 1 1 calc R . .
C129 C -0.1543(6) 0.5320(5) -0.0251(2) 0.055(4) Uani 1 1 d G . .
C130 C -0.1815(6) 0.5966(4) -0.0270(2) 0.053(4) Uani 1 1 d G . .
H130 H -0.1741 0.6306 0.0018 0.063 Uiso 1 1 calc R . .
C131 C -0.2198(5) 0.6105(3) -0.0719(3) 0.047(3) Uani 1 1 d G . .
H131 H -0.2381 0.6538 -0.0731 0.057 Uiso 1 1 calc R . .
C132 C -0.2309(5) 0.5597(4) -0.1149(2) 0.032(3) Uiso 1 1 d G . .
C133 C -0.2037(5) 0.4950(4) -0.1130(3) 0.060(4) Uani 1 1 d G . .
H133 H -0.2110 0.4610 -0.1417 0.072 Uiso 1 1 calc R . .
C134 C -0.1654(5) 0.4811(4) -0.0681(3) 0.049(4) Uani 1 1 d G . .
H134 H -0.1471 0.4379 -0.0668 0.058 Uiso 1 1 calc R . .
C200 C -0.2720(