####################################################################### 
# 
# This file contains crystal structure data downloaded from the 
# Cambridge Structural Database (CSD) hosted by the Cambridge 
# Crystallographic Data Centre (CCDC).
# 
# Full information about CCDC data access policies and citation 
# guidelines are available at http://www.ccdc.cam.ac.uk/access/V1 
# 
# Audit and citation data items may have been added by the CCDC. 
# Please retain this information to preserve the provenance of 
# this file and to allow appropriate attribution of the data. 
# 
#######################################################################

data_UTSA-36
_audit_block_doi                 10.5517/ccw57js
_database_code_depnum_ccdc_archive 'CCDC 809395'
loop_
_citation_id
_citation_doi
_citation_year
1 10.1002/chem.201100350 2011
_audit_update_record             
;
2011-01-22 deposited with the CCDC.	2024-07-13 downloaded from the CCDC.
;
#TrackingRef '3921_web_deposit_cif_file_0_MadhabC.Das_1295738086.cif'


_audit_creation_method           SHELXL-97
_chemical_name_systematic        
;
?
;
_chemical_name_common            ?
_chemical_melting_point          ?
_chemical_formula_moiety         'C41 H49 N5 O15 Zn2'
_chemical_formula_sum            'C41 H49 N5 O15 Zn2'
_chemical_formula_weight         982.59

loop_
_atom_type_symbol
_atom_type_description
_atom_type_scat_dispersion_real
_atom_type_scat_dispersion_imag
_atom_type_scat_source
C C 0.0033 0.0016 'International Tables Vol C Tables 4.2.6.8 and 6.1.1.4'
H H 0.0000 0.0000 'International Tables Vol C Tables 4.2.6.8 and 6.1.1.4'
N N 0.0061 0.0033 'International Tables Vol C Tables 4.2.6.8 and 6.1.1.4'
O O 0.0106 0.0060 'International Tables Vol C Tables 4.2.6.8 and 6.1.1.4'
Zn Zn 0.2839 1.4301 'International Tables Vol C Tables 4.2.6.8 and 6.1.1.4'

_symmetry_cell_setting           Monoclinic
_symmetry_space_group_name_H-M   P2(1)/c

loop_
_symmetry_equiv_pos_as_xyz
'x, y, z'
'-x, y+1/2, -z+1/2'
'-x, -y, -z'
'x, -y-1/2, z-1/2'

_cell_length_a                   10.896(6)
_cell_length_b                   19.698(4)
_cell_length_c                   21.554(5)
_cell_angle_alpha                90.00
_cell_angle_beta                 100.480(5)
_cell_angle_gamma                90.00
_cell_volume                     4549(3)
_cell_formula_units_Z            4
_cell_measurement_temperature    98(2)
_cell_measurement_reflns_used    ?
_cell_measurement_theta_min      2.8
_cell_measurement_theta_max      28.3

_exptl_crystal_description       block
_exptl_crystal_colour            colorless
_exptl_crystal_size_max          0.20
_exptl_crystal_size_mid          0.18
_exptl_crystal_size_min          0.16
_exptl_crystal_density_meas      ?
_exptl_crystal_density_diffrn    1.435
_exptl_crystal_density_method    'not measured'
_exptl_crystal_F_000             2040
_exptl_absorpt_coefficient_mu    1.126
_exptl_absorpt_correction_type   Multi-scan
_exptl_absorpt_correction_T_min  0.8061
_exptl_absorpt_correction_T_max  0.8404
_exptl_absorpt_process_details   'ABSCOR (Higashi, 1995)'

_exptl_special_details           
;
?
;

_diffrn_ambient_temperature      98(2)
_diffrn_radiation_wavelength     0.71073
_diffrn_radiation_type           MoK\a
_diffrn_radiation_source         'sealed tube'
_diffrn_radiation_monochromator  graphite
_diffrn_measurement_device_type  
;
Saturn724 (2x2 bin mode)
;
_diffrn_measurement_method       \w
_diffrn_detector_area_resol_mean 28.5714
_diffrn_standards_number         0
_diffrn_standards_interval_count 0
_diffrn_standards_interval_time  ?
_diffrn_standards_decay_%        <1
_diffrn_reflns_number            17530
_diffrn_reflns_av_R_equivalents  0.0268
_diffrn_reflns_av_sigmaI/netI    0.0459
_diffrn_reflns_limit_h_min       -11
_diffrn_reflns_limit_h_max       13
_diffrn_reflns_limit_k_min       -25
_diffrn_reflns_limit_k_max       21
_diffrn_reflns_limit_l_min       -25
_diffrn_reflns_limit_l_max       27
_diffrn_reflns_theta_min         2.16
_diffrn_reflns_theta_max         27.00
_reflns_number_total             9807
_reflns_number_gt                8287
_reflns_threshold_expression     >2sigma(I)

_computing_data_collection       
;
CrystalClear-SM Expert 2.0 r3 (Rigaku, 2009)
;
_computing_cell_refinement       
;
CrystalClear-SM Expert 2.0 r3 (Rigaku, 2009)
;
_computing_data_reduction        
;
CrystalClear-SM Expert 2.0 r3 (Rigaku, 2009)
;
_computing_structure_solution    'SHELXS-97 (Sheldrick, 1990)'
_computing_structure_refinement  'SHELXL-97 (Sheldrick, 1997)'
_computing_molecular_graphics    ?
_computing_publication_material  ?

_refine_special_details          
;
Refinement of F^2^ against ALL reflections. The weighted R-factor wR and
goodness of fit S are based on F^2^, conventional R-factors R are based
on F, with F set to zero for negative F^2^. The threshold expression of
F^2^ > 2sigma(F^2^) is used only for calculating R-factors(gt) etc. and is
not relevant to the choice of reflections for refinement. R-factors based
on F^2^ are statistically about twice as large as those based on F, and R-
factors based on ALL data will be even larger.
;

_refine_ls_structure_factor_coef Fsqd
_refine_ls_matrix_type           full
_refine_ls_weighting_scheme      calc
_refine_ls_weighting_details     
'calc w=1/[\s^2^(Fo^2^)+(0.0935P)^2^+4.6536P] where P=(Fo^2^+2Fc^2^)/3'
_atom_sites_solution_primary     direct
_atom_sites_solution_secondary   difmap
_atom_sites_solution_hydrogens   geom
_refine_ls_hydrogen_treatment    constr
_refine_ls_extinction_method     none
_refine_ls_extinction_coef       ?
_refine_ls_number_reflns         9807
_refine_ls_number_parameters     548
_refine_ls_number_restraints     0
_refine_ls_R_factor_all          0.0832
_refine_ls_R_factor_gt           0.0733
_refine_ls_wR_factor_ref         0.1980
_refine_ls_wR_factor_gt          0.1871
_refine_ls_goodness_of_fit_ref   1.033
_refine_ls_restrained_S_all      1.033
_refine_ls_shift/su_max          0.001
_refine_ls_shift/su_mean         0.000

loop_
_atom_site_label
_atom_site_type_symbol
_atom_site_fract_x
_atom_site_fract_y
_atom_site_fract_z
_atom_site_U_iso_or_equiv
_atom_site_adp_type
_atom_site_occupancy
_atom_site_symmetry_multiplicity
_atom_site_calc_flag
_atom_site_refinement_flags
_atom_site_disorder_assembly
_atom_site_disorder_group
Zn1 Zn 0.35488(4) 0.94932(2) 0.365348(19) 0.01339(14) Uani 1 1 d . . .
Zn2 Zn 0.31540(4) 1.05228(2) 0.265087(19) 0.01363(14) Uani 1 1 d . . .
O5 O 0.3589(3) 0.88283(16) 0.29297(14) 0.0274(7) Uani 1 1 d . . .
O1 O 0.5408(3) 0.96525(17) 0.36712(15) 0.0284(7) Uani 1 1 d . . .
O8 O 0.3386(4) 1.12196(17) 0.33673(15) 0.0294(8) Uani 1 1 d . . .
C9 C 0.3369(4) 1.1532(2) 0.44290(19) 0.0218(8) Uani 1 1 d . . .
C12 C 0.3302(4) 1.2512(2) 0.03794(19) 0.0229(8) Uani 1 1 d . . .
C15 C 0.3265(4) 1.2017(2) 0.09001(19) 0.0242(8) Uani 1 1 d . . .
O4 O 0.1649(3) 0.95750(17) 0.33560(15) 0.0265(7) Uani 1 1 d . . .
O3 O 0.1345(3) 1.04788(17) 0.27181(19) 0.0221(8) Uani 1 1 d . . .
C28 C 0.3265(4) 0.8489(2) 0.18576(19) 0.0245(9) Uani 1 1 d . . .
N2 N 0.3458(3) 0.88603(17) 0.43840(15) 0.0181(6) Uani 1 1 d . . .
C3 C -0.0382(4) 1.0019(2) 0.3097(2) 0.0233(8) Uani 1 1 d . . .
C14 C 0.3520(4) 1.1330(2) 0.50504(19) 0.0223(8) Uani 1 1 d . . .
H14 H 0.3638 1.0873 0.5152 0.027 Uiso 1 1 calc R . .
N1 N 0.3179(3) 1.11370(17) 0.19005(15) 0.0267(7) Uani 1 1 d . . .
O2 O 0.5027(3) 1.0367(2) 0.28538(17) 0.0357(8) Uani 1 1 d . . .
O7 O 0.3470(3) 1.04065(15) 0.40898(15) 0.0291(7) Uani 1 1 d . . .
C2 C 0.5748(4) 1.0016(2) 0.32529(19) 0.0200(8) Uani 1 1 d . . .
O6 O 0.2982(4) 0.96107(16) 0.21864(15) 0.0275(8) Uani 1 1 d . . .
C32 C 0.3416(4) 1.1014(2) 0.39209(19) 0.0209(8) Uani 1 1 d . . .
C10 C 0.3198(5) 1.2222(2) 0.4279(2) 0.0308(10) Uani 1 1 d . . .
H10 H 0.3114 1.2363 0.3861 0.037 Uiso 1 1 calc R . .
C25 C 0.3310(4) 0.7456(2) 0.5887(2) 0.0275(9) Uani 1 1 d . . .
C22 C 0.3349(4) 0.7948(2) 0.53720(19) 0.0244(9) Uani 1 1 d . . .
C13 C 0.3499(4) 1.1802(2) 0.55246(19) 0.0235(8) Uani 1 1 d . . .
H13 H 0.3616 1.1660 0.5943 0.028 Uiso 1 1 calc R . .
C31 C 0.3277(4) 0.9017(2) 0.23704(19) 0.0215(8) Uani 1 1 d . . .
C4 C -0.1205(4) 1.0478(2) 0.2751(3) 0.0330(11) Uani 1 1 d . . .
H4 H -0.0918 1.0783 0.2481 0.040 Uiso 1 1 calc R . .
C5 C 0.7546(4) 1.0481(2) 0.2808(2) 0.0313(11) Uani 1 1 d . . .
H5 H 0.6997 1.0788 0.2575 0.038 Uiso 1 1 calc R . .
C6 C 0.7115(4) 1.0028(2) 0.3212(2) 0.0226(8) Uani 1 1 d . . .
C1 C 0.0979(4) 1.0020(2) 0.3051(2) 0.0226(8) Uani 1 1 d . . .
C20 C 0.3405(4) 0.8184(2) 0.4287(2) 0.0243(8) Uani 1 1 d . . .
H20 H 0.3399 0.8023 0.3881 0.029 Uiso 1 1 calc R . .
C27 C 0.2722(5) 0.8646(2) 0.1232(2) 0.0368(11) Uani 1 1 d . . .
H27 H 0.2344 0.9066 0.1135 0.044 Uiso 1 1 calc R . .
C23 C 0.3395(4) 0.8647(2) 0.5469(2) 0.0273(9) Uani 1 1 d . . .
H23 H 0.3386 0.8822 0.5869 0.033 Uiso 1 1 calc R . .
C29 C 0.3748(6) 0.7850(3) 0.1990(2) 0.0483(16) Uani 1 1 d . . .
H29 H 0.4054 0.7727 0.2406 0.058 Uiso 1 1 calc R . .
C21 C 0.3359(4) 0.7722(2) 0.4758(2) 0.0283(9) Uani 1 1 d . . .
H21 H 0.3334 0.7260 0.4669 0.034 Uiso 1 1 calc R . .
C11 C 0.3154(5) 1.2696(2) 0.4752(2) 0.0346(11) Uani 1 1 d . . .
H11 H 0.3025 1.3152 0.4650 0.042 Uiso 1 1 calc R . .
C8 C 0.9185(4) 0.9564(3) 0.3501(2) 0.0329(11) Uani 1 1 d . . .
H8 H 0.9730 0.9253 0.3729 0.039 Uiso 1 1 calc R . .
C30 C 0.3784(6) 0.7383(3) 0.1506(2) 0.0472(15) Uani 1 1 d . . .
H30 H 0.4133 0.6956 0.1603 0.057 Uiso 1 1 calc R . .
C7 C 0.7943(4) 0.9575(3) 0.3565(2) 0.0329(11) Uani 1 1 d . . .
H7 H 0.7661 0.9279 0.3844 0.039 Uiso 1 1 calc R . .
C34 C 0.9950(9) 0.5975(7) 0.0357(6) 0.042(4) Uani 1 1 d . . .
H34A H 1.0051 0.5734 0.0751 0.164 Uiso 1 1 calc R . .
H34B H 1.0607 0.5850 0.0137 0.164 Uiso 1 1 calc R . .
H34C H 0.9158 0.5861 0.0104 0.164 Uiso 1 1 calc R . .
C16 C 0.2506(6) 1.1461(3) 0.0822(3) 0.0410(16) Uani 1 1 d . . .
H16 H 0.2016 1.1367 0.0431 0.061 Uiso 1 1 calc R . .
C24 C 0.3454(4) 0.9081(2) 0.49722(19) 0.0242(8) Uani 1 1 d . . .
H24 H 0.3492 0.9546 0.5049 0.029 Uiso 1 1 calc R . .
C33 C 1.0105(8) 0.6893(7) 0.1124(5) 0.039(4) Uani 1 1 d . . .
H33A H 1.0176 0.6491 0.1379 0.155 Uiso 1 1 calc R . .
H33B H 0.9377 0.7143 0.1180 0.155 Uiso 1 1 calc R . .
H33C H 1.0833 0.7171 0.1249 0.155 Uiso 1 1 calc R . .
C26 C 0.2752(6) 0.8175(3) 0.0762(2) 0.0400(12) Uani 1 1 d . . .
H26 H 0.2388 0.8283 0.0349 0.048 Uiso 1 1 calc R . .
C17 C 0.2479(6) 1.1037(3) 0.1336(3) 0.0475(14) Uani 1 1 d . . .
H17 H 0.1943 1.0665 0.1282 0.057 Uiso 1 1 calc R . .
N4 N 0.9726(11) 0.7914(6) 0.2624(6) 0.018(4) Uani 1 1 d . . .
C18 C 0.3964(6) 1.1662(3) 0.1960(3) 0.0386(18) Uani 1 1 d . . .
H18 H 0.4486 1.1732 0.2347 0.068 Uiso 1 1 calc R . .
C19 C 0.4036(6) 1.2102(3) 0.1476(3) 0.0469(17) Uani 1 1 d . . .
H19 H 0.4604 1.2459 0.1537 0.065 Uiso 1 1 calc R . .
OW2 O 0.2813(18) 0.6916(7) 0.3175(7) 0.039(9) Uani 1 1 d . . .
N5 N 0.6101(11) 0.9985(7) 0.0910(6) 0.028(5) Uani 1 1 d . . .
C35 C 0.9906(7) 0.7166(8) 0.0057(6) 0.034(6) Uani 1 1 d . . .
H35 H 0.9885 0.7619 0.0174 0.160 Uiso 1 1 calc R . .
O9 O 0.9838(8) 0.7019(8) -0.0516(5) 0.036(7) Uani 1 1 d . . .
C37 C 1.0802(11) 0.7628(14) 0.3077(8) 0.043(17) Uani 1 1 d . . .
H37A H 1.0500 0.7309 0.3351 0.424 Uiso 1 1 calc R . .
H37B H 1.1238 0.7988 0.3324 0.424 Uiso 1 1 calc R . .
H37C H 1.1359 0.7402 0.2847 0.424 Uiso 1 1 calc R . .
N3 N 1.0003(5) 0.6710(5) 0.0480(3) 0.035(2) Uani 1 1 d . . .
C40 C 0.6027(17) 1.0692(14) 0.1024(9) 0.045(19) Uani 1 1 d . . .
H40 H 0.5456 1.0854 0.1261 0.364 Uiso 1 1 calc R . .
OW1 O 0.000(2) 0.0492(10) 0.0009(14) 0.034(13) Uani 1 1 d . . .
C39 C 0.668(3) 0.9755(14) 0.0388(12) 0.036(2) Uani 1 1 d . . .
H39A H 0.6668 0.9268 0.0371 0.541 Uiso 1 1 calc R . .
H39B H 0.7530 0.9911 0.0450 0.541 Uiso 1 1 calc R . .
H39C H 0.6229 0.9934 -0.0001 0.541 Uiso 1 1 calc R . .
OW3 O 0.9154(18) 0.148(2) 0.1028(19) 0.041(3) Uani 1 1 d . . .
OW4 O -0.040(5) 0.000(3) 0.105(2) 0.038(3) Uani 1 1 d . . .
C38 C 0.8550(18) 0.7520(15) 0.2644(9) 0.032(3) Uani 1 1 d . . .
H38A H 0.8698 0.7203 0.2988 0.612 Uiso 1 1 calc R . .
H38B H 0.8305 0.7278 0.2255 0.612 Uiso 1 1 calc R . .
H38C H 0.7897 0.7827 0.2703 0.612 Uiso 1 1 calc R . .
C41 C 0.587(2) 0.9436(13) 0.1337(10) 0.045(13) Uani 1 1 d . . .
H41A H 0.6002 0.9005 0.1151 0.403 Uiso 1 1 calc R . .
H41B H 0.5028 0.9463 0.1407 0.403 Uiso 1 1 calc R . .
H41C H 0.6438 0.9481 0.1732 0.403 Uiso 1 1 calc R . .
C36 C 0.919(3) 0.8391(8) 0.1914(14) 0.040(18) Uani 1 1 d . . .
H36' H 0.9661 0.8337 0.1597 0.321 Uiso 1 1 calc R . .
O10 O 0.829(7) 0.878(2) 0.179(2) 0.039(6) Uani 1 1 d . . .
O11 O 0.673(3) 1.1099(13) 0.0809(19) 0.04(3) Uani 1 1 d . . .

loop_
_atom_site_aniso_label
_atom_site_aniso_U_11
_atom_site_aniso_U_22
_atom_site_aniso_U_33
_atom_site_aniso_U_23
_atom_site_aniso_U_13
_atom_site_aniso_U_12
Zn1 0.0139(2) 0.0137(2) 0.0129(2) 0.00071(14) 0.00341(16) 0.00056(15)
Zn2 0.0142(2) 0.0138(2) 0.0132(2) 0.00123(14) 0.00358(16) 0.00026(15)
O5 0.0378(17) 0.0260(16) 0.0172(14) -0.0063(12) 0.0017(12) 0.0057(13)
O1 0.0158(14) 0.0350(17) 0.0349(17) 0.0124(14) 0.0064(12) 0.0027(13)
O8 0.043(2) 0.0241(16) 0.0205(15) -0.0035(13) 0.0045(15) 0.0059(16)
C9 0.024(2) 0.022(2) 0.0192(19) -0.0057(15) 0.0021(15) 0.0001(16)
C12 0.028(2) 0.021(2) 0.0197(19) 0.0077(16) 0.0022(15) -0.0019(16)
C15 0.031(2) 0.021(2) 0.0202(19) 0.0051(16) 0.0028(16) 0.0005(17)
O4 0.0125(13) 0.0378(18) 0.0300(16) 0.0072(13) 0.0057(11) 0.0025(12)
O3 0.0165(15) 0.0243(19) 0.025(2) 0.008(16) 0.0022(15) 0.0026(13)
C28 0.034(2) 0.020(2) 0.0199(19) -0.0071(16) 0.0062(16) -0.0011(17)
N2 0.0200(16) 0.0160(15) 0.0183(15) 0.0017(12) 0.0032(12) 0.0010(13)
C3 0.0129(18) 0.029(2) 0.029(2) 0.0010(17) 0.0055(15) -0.0002(16)
C14 0.028(2) 0.0173(18) 0.0216(19) -0.0005(15) 0.0059(15) -0.0013(16)
N1 0.0367(18) 0.0262(15) 0.0167(15) 0.0019(12) 0.0047(12) -0.0024(13)
O2 0.0143(15) 0.051(2) 0.043(2) 0.0221(17) 0.0085(13) 0.0046(14)
O7 0.044(2) 0.0201(15) 0.0257(16) -0.0043(12) 0.0139(14) -0.0026(13)
C2 0.0130(18) 0.024(2) 0.0228(19) -0.0019(15) 0.0036(14) 0.0010(15)
O6 0.042(2) 0.0189(15) 0.0222(15) -0.0064(12) 0.0102(15) -0.0049(15)
C32 0.0192(19) 0.0199(19) 0.0230(19) -0.0042(15) 0.0027(14) -0.0021(15)
C10 0.052(3) 0.022(2) 0.0176(19) -0.0012(16) 0.0048(18) 0.007(2)
C25 0.037(2) 0.024(2) 0.022(2) 0.0063(17) 0.0053(17) -0.0040(18)
C22 0.028(2) 0.025(2) 0.0198(19) 0.0051(16) 0.0055(15) -0.0038(17)
C13 0.030(2) 0.022(2) 0.0178(18) -0.0014(15) 0.0043(15) 0.0012(17)
C31 0.024(2) 0.023(2) 0.0185(18) -0.0069(15) 0.0060(14) -0.0008(16)
C4 0.018(2) 0.035(3) 0.049(3) 0.020(2) 0.0135(19) 0.0012(18)
C5 0.016(2) 0.035(3) 0.043(3) 0.019(2) 0.0068(18) 0.0052(18)
C6 0.0140(18) 0.026(2) 0.027(2) 0.0025(17) 0.0036(15) 0.0006(16)
C1 0.0142(18) 0.025(2) 0.030(2) 0.0005(16) 0.0058(15) 0.0000(15)
C20 0.033(2) 0.0188(19) 0.0211(19) 0.0013(15) 0.0041(16) -0.0009(17)
C27 0.059(3) 0.021(2) 0.028(2) -0.0028(18) 0.003(2) 0.005(2)
C23 0.039(3) 0.023(2) 0.020(2) 0.0014(16) 0.0074(17) -0.0060(18)
C29 0.090(5) 0.036(3) 0.014(2) -0.0064(19) -0.004(2) 0.003(3)
C21 0.039(3) 0.020(2) 0.025(2) 0.0010(17) 0.0032(18) -0.0040(18)
C11 0.057(3) 0.023(2) 0.023(2) -0.0034(18) 0.006(2) 0.010(2)
C8 0.018(2) 0.041(3) 0.041(3) 0.020(2) 0.0059(18) 0.0053(19)
C30 0.084(4) 0.030(3) 0.024(2) -0.007(2) 0.008(2) 0.004(3)
C7 0.019(2) 0.039(3) 0.041(3) 0.019(2) 0.0071(18) 0.0038(19)
C34 0.064(6) 0.036(5) 0.027(6) 0.012(5) 0.009(5) 0.003(4)
C16 0.044(4) 0.047(3) 0.028(3) 0.009(2) -0.003(3) -0.004(3)
C24 0.033(2) 0.0192(19) 0.023(2) 0.0014(16) 0.0089(16) 0.0008(17)
C33 0.054(5) 0.036(6) 0.026(7) 0.009(5) 0.003(4) -0.003(4)
C26 0.060(3) 0.033(3) 0.025(2) -0.007(2) 0.003(2) 0.005(2)
C17 0.060(4) 0.040(3) 0.038(3) 0.009(2) -0.002(2) -0.005(3)
N4 0.025(2) 0.016(2) 0.014(2) 0.002(12) 0.004(12) -0.002(13)
C18 0.048(4) 0.035(4) 0.029(3) 0.011(3) -0.005(3) -0.003(3)
C19 0.061(4) 0.040(4) 0.035(3) 0.010(3) -0.008(3) -0.006(3)
OW2 0.051(5) 0.035(5) 0.026(5) -0.005(4) -0.002(4) 0.002(3)
N5 0.039(4) 0.025(5) 0.021(4) -0.007(6) 0.009(7) 0.003(7)
C35 0.038(5) 0.032(6) 0.030(5) 0.013(5) 0.005(5) 0.002(6)
O9 0.047(6) 0.034(6) 0.026(5) 0.015(5) 0.006(5) 0.003(4)
C37 0.057(7) 0.040(5) 0.028(6) 0.011(5) -0.003(5) -0.002(4)
N3 0.042(3) 0.025(7) 0.037(4) 0.008(4) 0.007(3) 0.003(4)
C40 0.059(5) 0.043(4) 0.026(5) -0.006(3) -0.007(4) 0.003(2)
OW1 0.041(5) 0.033(5) 0.024(5) -0.007(4) -0.002(4) 0.003(3)
C39 0.044(4) 0.039(4) 0.025(4) -0.007(3) 0.005(4) -0.003(3)
OW3 0.056(4) 0.037(7) 0.025(5) 0.013(5) -0.005(2) 0.004(3)
OW4 0.054(5) 0.035(5) 0.022(5) -0.006(4) -0.002(4) 0.002(3)
C38 0.042(4) 0.033(5) 0.020(5) -0.010(3) 0.005(3) -0.005(4)
C41 0.055(4) 0.040(4) 0.035(3) 0.011(3) -0.006(3) -0.003(3)
C36 0.043(6) 0.035(5) 0.041(5) -0.009(4) 0.007(3) -0.004(4)
O10 0.057(5) 0.031(6) 0.029(5) -0.010(5) 0.007(4) -0.004(4)
O11 0.044(6) 0.041(2) 0.033(2) 0.0121(17) 0.005(3) 0.0046(14)

_geom_special_details            
;
All esds (except the esd in the dihedral angle between two l.s. planes)
are estimated using the full covariance matrix. The cell esds are taken
into account individually in the estimation of esds in distances, angles
and torsion angles; correlations between esds in cell parameters are only
used when they are defined by crystal symmetry. An approximate (isotropic)
treatment of cell esds is used for estimating esds involving l.s. planes.
;

loop_
_geom_bond_atom_site_label_1
_geom_bond_atom_site_label_2
_geom_bond_distance
_geom_bond_site_symmetry_2
_geom_bond_publ_flag
