####################################################################### 
# 
# This file contains crystal structure data downloaded from the 
# Cambridge Structural Database (CSD) hosted by the Cambridge 
# Crystallographic Data Centre (CCDC).
# 
# Full information about CCDC data access policies and citation 
# guidelines are available at http://www.ccdc.cam.ac.uk/access/V1 
# 
# Audit and citation data items may have been added by the CCDC. 
# Please retain this information to preserve the provenance of 
# this file and to allow appropriate attribution of the data. 
# 
#######################################################################

data_compound2
_audit_block_doi                 10.5517/ccw2xxr
_database_code_depnum_ccdc_archive 'CCDC 807175'
loop_
_citation_id
_citation_doi
_citation_year
1 10.1021/ic200182e 2011
_audit_update_record             
;
2011-01-10 deposited with the CCDC.	2024-07-13 downloaded from the CCDC.
;
#TrackingRef 'Compound 2.cif'


_audit_creation_date             2009-01-21T10:04:45-00:00
_audit_creation_method           'WinGX routine CIF_UPDATE'
_audit_conform_dict_name         cif_core.dic
_audit_conform_dict_version      2.4
_audit_conform_dict_location     ftp://ftp.iucr.org/pub/cif_core.dic

#----------------------------------------------------------------------------#
# CHEMICAL INFORMATION #
#----------------------------------------------------------------------------#

_chemical_name_systematic        
;
?
;
_chemical_formula_moiety         '2(C26 H35 Cd Cl N4 O8), 4(C3 H8 O), 5(H2 O)'
_chemical_formula_sum            'C64 H112 Cd2 Cl2 N8 O25'
_chemical_formula_weight         1689.32
_chemical_compound_source        'synthesis as described'

#----------------------------------------------------------------------------#
# UNIT CELL INFORMATION #
#----------------------------------------------------------------------------#

loop_
_symmetry_equiv_pos_as_xyz
'x, y, z'
'-x, -y, -z'

_symmetry_cell_setting           triclinic
_symmetry_space_group_name_H-M   'P -1'
_symmetry_space_group_name_Hall  '-P 1'
_symmetry_Int_Tables_number      2
_cell_length_a                   11.8366(4)
_cell_length_b                   12.0850(4)
_cell_length_c                   14.9182(5)
_cell_angle_alpha                100.066(2)
_cell_angle_beta                 108.711(2)
_cell_angle_gamma                94.059(2)
_cell_volume                     1971.58(11)
_cell_formula_units_Z            1
_cell_measurement_temperature    100.0(2)
_cell_measurement_reflns_used    4932
_cell_measurement_theta_min      2.5464
_cell_measurement_theta_max      26.7661
_cell_measurement_wavelength     0.71073

#----------------------------------------------------------------------------#
# CRYSTAL INFORMATION #
#----------------------------------------------------------------------------#

_exptl_crystal_description       prism
_exptl_crystal_colour            colourless
_exptl_crystal_size_max          0.16
_exptl_crystal_size_mid          0.08
_exptl_crystal_size_min          0.05
_exptl_crystal_density_diffrn    1.423
_exptl_crystal_density_method    'not measured'
_exptl_crystal_F_000             882
_exptl_special_details           
;
?
;

#----------------------------------------------------------------------------#
# ABSORPTION CORRECTION #
#----------------------------------------------------------------------------#

_exptl_absorpt_coefficient_mu    0.684
_exptl_absorpt_correction_type   multi-scan
_exptl_absorpt_correction_T_max  0.966
_exptl_absorpt_correction_T_min  0.856
_exptl_absorpt_process_details   SADABS

#----------------------------------------------------------------------------#
# DATA COLLECTION #
#----------------------------------------------------------------------------#

_diffrn_ambient_temperature      100.0(2)
_diffrn_radiation_wavelength     0.71073
_diffrn_radiation_type           MoK\a
_diffrn_radiation_source         'fine-focus sealed tube'
_diffrn_measurement_device_type  'Bruker X8 APEXII CCD'
_diffrn_measurement_method       'omega and phi rotation with narrow frames'
_diffrn_radiation_monochromator  graphite
_diffrn_radiation_probe          x-ray
_diffrn_reflns_av_R_equivalents  0.0643
_diffrn_reflns_av_unetI/netI     0.0773
_diffrn_reflns_number            35152
_diffrn_reflns_limit_h_min       -15
_diffrn_reflns_limit_h_max       15
_diffrn_reflns_limit_k_min       -16
_diffrn_reflns_limit_k_max       16
_diffrn_reflns_limit_l_min       -19
_diffrn_reflns_limit_l_max       19
_diffrn_reflns_theta_min         2.69
_diffrn_reflns_theta_max         28.38
_diffrn_reflns_theta_full        28.38
_diffrn_measured_fraction_theta_full 0.991
_diffrn_measured_fraction_theta_max 0.991
_reflns_number_total             9782
_reflns_number_gt                7241
_reflns_threshold_expression     >2\s(I)

#----------------------------------------------------------------------------#
# COMPUTER PROGRAMS USED #
#----------------------------------------------------------------------------#

_computing_data_collection       'Apex2 V.1.0-27 (Bruker Nonius, 2005)'
_computing_cell_refinement       
'SAINT V7.12A (Bruker Nonius 2004) in Apex2 suite'
_computing_data_reduction        
'SAINT and XPREP Version 6.14 COPYRIGHT(c) 2003 Bruker-AXS'
_computing_structure_solution    'DIRDIF08 (Beurskens et al, 2008)'
_computing_structure_refinement  'SHELXL-97 (Sheldrick, 2008)'
_computing_molecular_graphics    'Ortep-3 for Windows (Farrugia, 1997)'
_computing_publication_material  'WinGX publication routines (Farrugia, 1999)'

#----------------------------------------------------------------------------#
# STRUCTURE SOLUTION
#----------------------------------------------------------------------------#

_atom_sites_solution_primary     heavy
_atom_sites_solution_secondary   difmap
_atom_sites_solution_hydrogens   geom

#----------------------------------------------------------------------------#
# REFINEMENT INFORMATION #
#----------------------------------------------------------------------------#

_refine_special_details          
;
Refinement of F^2^ against ALL reflections. The weighted R-factor wR and
goodness of fit S are based on F^2^, conventional R-factors R are based
on F, with F set to zero for negative F^2^. The threshold expression of
F^2^ > 2\s(F^2^) is used only for calculating R-factors(gt) etc. and is
not relevant to the choice of reflections for refinement. R-factors based
on F^2^ are statistically about twice as large as those based on F, and R-
factors based on ALL data will be even larger.
;
_refine_ls_structure_factor_coef Fsqd
_refine_ls_matrix_type           full
_refine_ls_weighting_scheme      calc
_refine_ls_weighting_details     
'calc w=1/[\s^2^(Fo^2^)+(0.0662P)^2^+0.7913P] where P=(Fo^2^+2Fc^2^)/3'
_refine_ls_hydrogen_treatment    mixed
_refine_ls_extinction_method     none
_refine_ls_number_reflns         9782
_refine_ls_number_parameters     476
_refine_ls_number_restraints     11
_refine_ls_R_factor_all          0.0798
_refine_ls_R_factor_gt           0.0506
_refine_ls_wR_factor_ref         0.135
_refine_ls_wR_factor_gt          0.1201
_refine_ls_goodness_of_fit_ref   1.064
_refine_ls_restrained_S_all      1.066
_refine_ls_shift/su_max          0
_refine_ls_shift/su_mean         0
_refine_diff_density_max         1.047
_refine_diff_density_min         -0.811
_refine_diff_density_rms         0.118

#----------------------------------------------------------------------------#
# ATOMIC TYPES, COORDINATES AND THERMAL PARAMETERS #
#----------------------------------------------------------------------------#

loop_
_atom_type_symbol
_atom_type_description
_atom_type_scat_dispersion_real
_atom_type_scat_dispersion_imag
_atom_type_scat_source
C C 0.0033 0.0016 'International Tables Vol C Tables 4.2.6.8 and 6.1.1.4'
H H 0 0 'International Tables Vol C Tables 4.2.6.8 and 6.1.1.4'
Cd Cd -0.8075 1.2024 'International Tables Vol C Tables 4.2.6.8 and 6.1.1.4'
N N 0.0061 0.0033 'International Tables Vol C Tables 4.2.6.8 and 6.1.1.4'
O O 0.0106 0.006 'International Tables Vol C Tables 4.2.6.8 and 6.1.1.4'
Cl Cl 0.1484 0.1585 'International Tables Vol C Tables 4.2.6.8 and 6.1.1.4'

loop_
_atom_site_label
_atom_site_type_symbol
_atom_site_fract_x
_atom_site_fract_y
_atom_site_fract_z
_atom_site_U_iso_or_equiv
_atom_site_adp_type
_atom_site_occupancy
_atom_site_symmetry_multiplicity
_atom_site_calc_flag
_atom_site_refinement_flags
_atom_site_disorder_assembly
_atom_site_disorder_group
Cd1 Cd 0.00516(2) 0.21124(2) 0.31192(2) 0.01888(9) Uani 1 1 d . . .
C1 C 0.0263(3) 0.2359(3) 0.5383(3) 0.0220(8) Uani 1 1 d . . .
C2 C -0.0741(3) 0.1378(3) 0.4838(3) 0.0198(8) Uani 1 1 d . . .
C3 C -0.1324(3) 0.0783(3) 0.5308(3) 0.0229(8) Uani 1 1 d . . .
H3 H -0.1122 0.0981 0.5991 0.028 Uiso 1 1 calc R . .
C4 C -0.2210(3) -0.0110(3) 0.4760(3) 0.0283(9) Uani 1 1 d . . .
H4 H -0.2608 -0.055 0.5067 0.034 Uiso 1 1 calc R . .
C5 C -0.2514(3) -0.0360(3) 0.3763(3) 0.0241(8) Uani 1 1 d . . .
H5 H -0.3115 -0.0976 0.338 0.029 Uiso 1 1 calc R . .
C6 C -0.1927(3) 0.0305(3) 0.3335(3) 0.0199(8) Uani 1 1 d . . .
C7 C -0.2266(3) 0.0183(3) 0.2256(3) 0.0224(8) Uani 1 1 d . . .
H7A H -0.2706 -0.0585 0.1929 0.027 Uiso 1 1 calc R . .
H7B H -0.2809 0.0743 0.2042 0.027 Uiso 1 1 calc R . .
C8 C -0.1538(3) 0.0616(3) 0.0995(3) 0.0214(8) Uani 1 1 d . . .
H8A H -0.2081 0.1206 0.0956 0.026 Uiso 1 1 calc R . .
H8B H -0.1987 -0.0075 0.0512 0.026 Uiso 1 1 calc R . .
C9 C -0.0458(4) 0.1025(3) 0.0748(3) 0.0249(8) Uani 1 1 d . . .
H9A H 0.016 0.0511 0.0902 0.03 Uiso 1 1 calc R . .
H9B H -0.0703 0.102 0.0047 0.03 Uiso 1 1 calc R . .
C10 C 0.1138(3) 0.2531(3) 0.1173(3) 0.0256(9) Uani 1 1 d . . .
H10A H 0.1699 0.1968 0.1332 0.031 Uiso 1 1 calc R . .
H10B H 0.1502 0.3254 0.1644 0.031 Uiso 1 1 calc R . .
C11 C -0.0511(3) -0.0617(3) 0.2083(3) 0.0216(8) Uani 1 1 d . . .
H11A H -0.0403 -0.0767 0.2735 0.026 Uiso 1 1 calc R . .
H11B H 0.03 -0.0383 0.2067 0.026 Uiso 1 1 calc R . .
C12 C -0.1028(4) -0.1736(3) 0.1351(3) 0.0233(8) Uani 1 1 d . . .
H12A H -0.0618 -0.2359 0.1605 0.028 Uiso 1 1 calc R . .
H12B H -0.1897 -0.191 0.1243 0.028 Uiso 1 1 calc R . .
C13 C -0.1016(4) -0.2713(3) -0.0177(3) 0.0254(9) Uani 1 1 d . . .
H13A H -0.1747 -0.3187 -0.0201 0.03 Uiso 1 1 calc R . .
H13B H -0.0316 -0.3116 0.0062 0.03 Uiso 1 1 calc R . .
C14 C -0.1459(4) 0.3781(3) 0.2098(3) 0.0285(9) Uani 1 1 d . . .
C15 C -0.0213(3) 0.4432(3) 0.2405(3) 0.0247(8) Uani 1 1 d . . .
C16 C -0.0009(4) 0.5294(3) 0.1941(3) 0.0343(10) Uani 1 1 d . . .
H16 H -0.0646 0.5467 0.143 0.041 Uiso 1 1 calc R . .
C17 C 0.1123(4) 0.5890(4) 0.2233(3) 0.0364(10) Uani 1 1 d . . .
H17 H 0.1291 0.6456 0.1908 0.044 Uiso 1 1 calc R . .
C18 C 0.2017(4) 0.5652(3) 0.3009(3) 0.0288(9) Uani 1 1 d . . .
H18 H 0.2797 0.608 0.3245 0.035 Uiso 1 1 calc R . .
C19 C 0.1757(3) 0.4774(3) 0.3439(3) 0.0215(8) Uani 1 1 d . . .
C20 C 0.2727(3) 0.4469(3) 0.4245(3) 0.0203(8) Uani 1 1 d . . .
H20A H 0.3474 0.4997 0.4395 0.024 Uiso 1 1 calc R . .
H20B H 0.289 0.3694 0.4027 0.024 Uiso 1 1 calc R . .
C21 C 0.1868(3) 0.5539(3) 0.5460(3) 0.0253(8) Uani 1 1 d . . .
H21A H 0.1449 0.5365 0.5906 0.03 Uiso 1 1 calc R . .
H21B H 0.1255 0.5686 0.4878 0.03 Uiso 1 1 calc R . .
C22 C 0.2754(4) 0.6604(3) 0.5947(3) 0.0262(9) Uani 1 1 d . . .
H22A H 0.2333 0.7238 0.6131 0.031 Uiso 1 1 calc R . .
H22B H 0.3371 0.6484 0.6539 0.031 Uiso 1 1 calc R . .
C23 C 0.4294(3) 0.7731(3) 0.5694(3) 0.0272(9) Uani 1 1 d . . .
H23A H 0.4866 0.7558 0.6284 0.033 Uiso 1 1 calc R . .
H23B H 0.4013 0.8462 0.5875 0.033 Uiso 1 1 calc R . .
C24 C 0.4897(4) 0.7806(3) 0.4964(3) 0.0271(9) Uani 1 1 d . . .
H24A H 0.4315 0.7945 0.4362 0.033 Uiso 1 1 calc R . .
H24B H 0.5568 0.8439 0.5219 0.033 Uiso 1 1 calc R . .
C25 C 0.3490(3) 0.4337(3) 0.5982(3) 0.0251(8) Uani 1 1 d . . .
H25A H 0.4165 0.4937 0.6097 0.03 Uiso 1 1 calc R . .
H25B H 0.3277 0.4421 0.6578 0.03 Uiso 1 1 calc R . .
C26 C 0.3902(3) 0.3200(3) 0.5796(3) 0.0246(8) Uani 1 1 d . . .
H26A H 0.4348 0.3 0.6418 0.03 Uiso 1 1 calc R . .
H26B H 0.3197 0.2611 0.545 0.03 Uiso 1 1 calc R . .
N1 N -0.1038(3) 0.1145(2) 0.3875(2) 0.0183(6) Uani 1 1 d . . .
N2 N -0.1195(3) 0.0358(2) 0.1972(2) 0.0192(6) Uani 1 1 d . . .
N3 N 0.0652(3) 0.4152(2) 0.3121(2) 0.0199(6) Uani 1 1 d . . .
N4 N 0.2420(3) 0.4513(3) 0.5162(2) 0.0193(7) Uani 1 1 d . . .
O1 O 0.0645(2) 0.2884(2) 0.48447(19) 0.0264(6) Uani 1 1 d . . .
O2 O 0.0607(2) 0.2563(2) 0.6268(2) 0.0315(7) Uani 1 1 d . . .
O3 O 0.0029(2) 0.2146(2) 0.1291(2) 0.0244(6) Uani 1 1 d . . .
O4 O -0.0860(3) -0.1651(2) 0.0460(2) 0.0281(6) Uani 1 1 d . . .
O5 O -0.1588(2) 0.2926(2) 0.2452(2) 0.0240(6) Uani 1 1 d . . .
O6 O -0.2290(3) 0.4148(3) 0.1528(3) 0.0528(10) Uani 1 1 d . . .
O7 O 0.3301(2) 0.6855(2) 0.5274(2) 0.0245(6) Uani 1 1 d . . .
O8 O 0.4660(2) 0.3243(2) 0.5229(2) 0.0240(6) Uani 1 1 d . . .
Cl1 Cl 0.20419(8) 0.14949(8) 0.32939(7) 0.0237(2) Uani 1 1 d . . .
H4N H 0.181(4) 0.393(4) 0.501(3) 0.028 Uiso 1 1 d . . .
C1S C 0.5215(6) 0.2494(7) 0.1238(5) 0.077(2) Uani 1 1 d . . .
H1S H 0.5857 0.2408 0.184 0.092 Uiso 1 1 calc R . .
C2S C 0.4656(7) 0.3560(8) 0.1437(7) 0.115(3) Uani 1 1 d . . .
H21S H 0.529 0.4213 0.1718 0.173 Uiso 1 1 calc R . .
H22S H 0.4229 0.3479 0.1891 0.173 Uiso 1 1 calc R . .
H23S H 0.4088 0.3677 0.0829 0.173 Uiso 1 1 calc R . .
C3S C 0.4283(8) 0.1385(8) 0.0804(8) 0.148(5) Uani 1 1 d . . .
H31S H 0.4707 0.0734 0.0692 0.222 Uiso 1 1 calc R . .
H32S H 0.3694 0.1457 0.0189 0.222 Uiso 1 1 calc R . .
H33S H 0.3867 0.127 0.1259 0.222 Uiso 1 1 calc R . .
O5S O 0.5717(4) 0.2579(5) 0.0495(3) 0.0903(16) Uani 1 1 d . . .
H5S H 0.6191 0.3187 0.0655 0.135 Uiso 1 1 calc R . .
C4S C 0.3275(5) 0.8610(5) 0.2418(4) 0.0502(13) Uani 1 1 d . . .
H4S H 0.2745 0.8615 0.2822 0.06 Uiso 1 1 calc R . .
C5S C 0.4247(5) 0.9525(5) 0.2879(5) 0.0600(15) Uani 1 1 d . . .
H51S H 0.47 0.9425 0.3529 0.09 Uiso 1 1 calc R . .
H52S H 0.3921 1.0248 0.2925 0.09 Uiso 1 1 calc R . .
H53S H 0.4783 0.9527 0.2496 0.09 Uiso 1 1 calc R . .
C6S C 0.2546(6) 0.8692(5) 0.1449(5) 0.0697(18) Uani 1 1 d . . .
H61S H 0.19 0.8049 0.1175 0.105 Uiso 1 1 calc R . .
H62S H 0.305 0.8681 0.104 0.105 Uiso 1 1 calc R . .
H63S H 0.2194 0.9402 0.1477 0.105 Uiso 1 1 calc R . .
O6S O 0.3734(4) 0.7509(3) 0.2340(3) 0.0730(13) Uani 1 1 d D . .
H6S H 0.3154 0.6987 0.2068 0.11 Uiso 1 1 calc RD . .
O1W O -0.2657(3) -0.3621(3) 0.2231(2) 0.0382(7) Uani 1 1 d D . .
H81S H -0.254(4) -0.415(3) 0.190(3) 0.046 Uiso 1 1 d D . .
H82S H -0.323 -0.3232 0.1975 0.046 Uiso 1 1 d D . .
O3W O 0.5529(4) 0.7661(4) 0.1517(3) 0.0659(11) Uani 1 1 d D . .
H83S H 0.512(4) 0.738(5) 0.0917(17) 0.079 Uiso 1 1 d D . .
H84S H 0.492(3) 0.785(4) 0.175(3) 0.079 Uiso 1 1 d D . .
O2W O 0.2343(14) 0.5653(9) 0.0502(9) 0.142(5) Uani 0.5 1 d PD . .
H86S H 0.310(3) 0.566(4) 0.083(2) 0.214 Uiso 0.5 1 d PD . .
H85S H 0.2255 0.6367 0.0495 0.214 Uiso 0.5 1 d PD . .

loop_
_atom_site_aniso_label
_atom_site_aniso_U_11
_atom_site_aniso_U_22
_atom_site_aniso_U_33
_atom_site_aniso_U_23
_atom_site_aniso_U_13
_atom_site_aniso_U_12
Cd1 0.01925(14) 0.01897(14) 0.01890(16) 0.00245(10) 0.00841(11) 0.00036(9)
C1 0.0221(18) 0.0222(19) 0.022(2) 0.0017(16) 0.0094(17) 0.0026(15)
C2 0.0183(17) 0.0199(18) 0.021(2) 0.0041(15) 0.0071(16) 0.0037(14)
C3 0.0199(18) 0.032(2) 0.020(2) 0.0092(17) 0.0078(16) 0.0038(15)
C4 0.026(2) 0.033(2) 0.029(2) 0.0144(18) 0.0111(18) -0.0016(16)
C5 0.0241(19) 0.0189(18) 0.028(2) 0.0032(16) 0.0096(17) -0.0024(14)
C6 0.0179(17) 0.0202(18) 0.023(2) 0.0051(15) 0.0087(16) 0.0035(14)
C7 0.0169(17) 0.0265(19) 0.021(2) 0.0003(16) 0.0059(16) -0.0004(14)
C8 0.029(2) 0.0186(18) 0.016(2) 0.0027(15) 0.0069(16) 0.0028(15)
C9 0.035(2) 0.0215(19) 0.020(2) 0.0039(16) 0.0120(18) 0.0047(16)
C10 0.026(2) 0.026(2) 0.026(2) 0.0020(17) 0.0132(18) 0.0000(15)
C11 0.0231(18) 0.0224(18) 0.020(2) 0.0049(16) 0.0081(16) 0.0066(15)
C12 0.030(2) 0.0198(18) 0.024(2) 0.0057(16) 0.0129(18) 0.0046(15)
C13 0.036(2) 0.0163(18) 0.025(2) -0.0018(16) 0.0147(19) 0.0009(15)
C14 0.026(2) 0.022(2) 0.031(2) 0.0005(18) 0.0023(19) 0.0052(16)
C15 0.0251(19) 0.0209(19) 0.025(2) 0.0042(16) 0.0035(17) 0.0073(15)
C16 0.037(2) 0.028(2) 0.031(3) 0.0090(19) 0.000(2) 0.0066(18)
C17 0.044(3) 0.026(2) 0.038(3) 0.014(2) 0.008(2) 0.0009(19)
C18 0.030(2) 0.0213(19) 0.033(2) 0.0053(17) 0.0090(19) -0.0024(16)
C19 0.0251(19) 0.0171(17) 0.022(2) -0.0004(15) 0.0097(17) 0.0027(14)
C20 0.0198(18) 0.0197(18) 0.022(2) 0.0005(15) 0.0099(16) 0.0012(14)
C21 0.0222(19) 0.028(2) 0.027(2) 0.0026(17) 0.0117(17) 0.0036(15)
C22 0.027(2) 0.025(2) 0.027(2) -0.0013(17) 0.0134(18) 0.0036(16)
C23 0.025(2) 0.0202(19) 0.032(2) -0.0020(17) 0.0094(18) 0.0000(15)
C24 0.026(2) 0.0191(19) 0.035(2) 0.0062(17) 0.0081(19) 0.0029(15)
C25 0.0247(19) 0.028(2) 0.021(2) 0.0025(16) 0.0079(17) 0.0004(16)
C26 0.0257(19) 0.0250(19) 0.023(2) 0.0078(17) 0.0073(17) 0.0013(15)
N1 0.0203(15) 0.0184(15) 0.0177(16) 0.0037(12) 0.0085(13) 0.0038(12)
N2 0.0215(15) 0.0192(15) 0.0188(17) 0.0045(13) 0.0092(14) 0.0016(12)
N3 0.0214(15) 0.0181(15) 0.0191(17) -0.0005(13) 0.0075(14) 0.0037(12)
N4 0.0193(15) 0.0190(15) 0.0185(17) -0.0011(13) 0.0085(13) -0.0029(12)
O1 0.0278(14) 0.0281(14) 0.0200(15) 0.0008(12) 0.0083(12) -0.0078(11)
O2 0.0333(16) 0.0373(16) 0.0186(16) 0.0015(13) 0.0064(13) -0.0066(13)
O3 0.0311(14) 0.0199(13) 0.0234(15) 0.0008(11) 0.0135(12) 0.0008(11)
O4 0.0466(17) 0.0211(13) 0.0213(15) 0.0022(11) 0.0197(14) 0.0012(12)
O5 0.0199(13) 0.0266(14) 0.0249(15) 0.0024(12) 0.0081(12) 0.0050(11)
O6 0.0354(18) 0.0328(17) 0.069(3) 0.0202(18) -0.0157(18) 0.0005(14)
O7 0.0232(13) 0.0214(13) 0.0264(16) -0.0007(11) 0.0088(12) -0.0014(10)
O8 0.0251(14) 0.0183(13) 0.0307(16) 0.0050(11) 0.0127(13) 0.0020(10)
Cl1 0.0202(4) 0.0248(5) 0.0250(5) 0.0041(4) 0.0069(4) 0.0032(3)
C1S 0.046(3) 0.129(6) 0.059(4) 0.029(4) 0.018(3) 0.012(4)
C2S 0.069(5) 0.131(8) 0.130(8) -0.010(6) 0.031(5) 0.011(5)
C3S 0.098(7) 0.118(7) 0.169(11) 0.057(7) -0.035(7) -0.050(6)
O5S 0.077(3) 0.108(4) 0.062(3) 0.003(3) 0.008(3) -0.028(3)
C4S 0.046(3) 0.059(3) 0.044(3) 0.017(3) 0.010(3) 0.012(3)
C5S 0.057(3) 0.053(3) 0.068(4) 0.005(3) 0.022(3) 0.008(3)
C6S 0.064(4) 0.054(4) 0.082(5) 0.021(3) 0.010(4) 0.006(3)
O6S 0.070(3) 0.044(2) 0.094(4) 0.022(2) 0.010(3) 0.003(2)
O1W 0.0293(16) 0.0452(19) 0.036(2) 0.0051(15) 0.0068(15) 0.0076(14)
O3W 0.059(3) 0.059(3) 0.067(3) 0.000(2) 0.011(2) 0.008(2)
O2W 0.222(16) 0.097(9) 0.086(9) 0.020(7) 0.030(10) -0.022(9)


#----------------------------------------------------------------------------#
# MOLECULAR GEOMETRY #
#----------------------------------------------------------------------------#

_geom_special_details            
;
All s.u.'s (except the s.u. in the di