
#######################################################################
#
#                 Cambridge Crystallographic Data Centre
#                                CCDC
#
#######################################################################
#
# If this CIF has been generated from an entry in the Cambridge
# Structural Database, then it will include bibliographic, chemical,
# crystal, experimental, refinement or atomic coordinate data resulting
# from the CCDC's data processing and validation procedures.
#
#######################################################################

data_CSD_CIF_UXUXOB
_audit_creation_date 2011-10-27
_audit_creation_method CSD-ConQuest-V1
_database_code_CSD UXUXOB
_database_code_depnum_ccdc_archive 'CCDC 814757'
_chemical_formula_sum 'C17 H17 N1 O1'
_chemical_formula_moiety
;
C17 H17 N1 O1
;
_journal_coden_Cambridge 35
_journal_volume 75
_journal_year 2010
_journal_page_first 5984
_journal_name_full 'J.Org.Chem. '
loop_
_publ_author_name
"H.Tabata"
"H.Suzuki"
"K.Akiba"
"H.Takahashi"
"H.Natsugari"
_chemical_name_systematic
;
(a^1^R,a^2^S)-1,5-Dimethyl-7,8-dihydrodibenzo[b,d]azocin-6(5H)-one
;
_cell_volume   1351.652
_exptl_crystal_colour 'colorless'
_exptl_crystal_density_diffrn 1.235
_exptl_crystal_description 'block'
_diffrn_ambient_temperature 173.1
#These two values have been output from a single CSD field.
_refine_ls_R_factor_gt 0.0404
_refine_ls_wR_factor_gt 0.0404
loop_
_citation_database_id_CSD
_citation_special_details
UXUXUH "is a stereoisomer of this entry"
_symmetry_cell_setting tetragonal
_symmetry_space_group_name_H-M 'P 43'
_symmetry_Int_Tables_number 78
loop_
_symmetry_equiv_pos_site_id
_symmetry_equiv_pos_as_xyz
1 x,y,z
2 -y,x,3/4+z
3 -x,-y,1/2+z
4 y,-x,1/4+z
_cell_length_a 10.00645(18)
_cell_length_b 10.00645(18)
_cell_length_c 13.4991(3)
_cell_angle_alpha 90
_cell_angle_beta 90
_cell_angle_gamma 90
_cell_formula_units_Z 4
loop_
_atom_type_symbol
_atom_type_radius_bond
C 0.68
H 0.23
N 0.68
O 0.68
loop_
_atom_site_label
_atom_site_type_symbol
_atom_site_fract_x
_atom_site_fract_y
_atom_site_fract_z
O1 O 0.3635(2) -0.2303(2) -0.03356(18)
N1 N 0.4951(2) -0.1333(2) 0.08182(17)
C1 C 0.3238(2) 0.1169(2) 0.0024(2)
C2 C 0.1865(3) 0.1332(2) -0.0078(2)
C3 C 0.1063(3) 0.1657(3) 0.0721(2)
C4 C 0.1617(3) 0.1817(2) 0.1651(2)
C5 C 0.2976(2) 0.1637(2) 0.17640(19)
C6 C 0.3799(2) 0.1295(2) 0.09739(19)
C7 C 0.5247(2) 0.1057(2) 0.11811(18)
C8 C 0.6074(3) 0.2112(2) 0.1511(2)
C9 C 0.7353(3) 0.1809(3) 0.18350(19)
C10 C 0.7846(2) 0.0524(3) 0.1825(2)
C11 C 0.7070(2) -0.0508(2) 0.1477(2)
C12 C 0.5765(2) -0.0237(2) 0.1144(2)
C13 C 0.5576(3) 0.3532(3) 0.1531(2)
C14 C 0.4102(3) 0.0917(3) -0.0862(2)
C15 C 0.4896(2) -0.0396(3) -0.0857(2)
C16 C 0.4423(2) -0.1416(3) -0.0107(2)
C17 C 0.4644(3) -0.2360(3) 0.1550(2)
H1 H 0.14710 0.11840 -0.07090
H2 H 0.01270 0.17560 0.06320
H3 H 0.10690 0.20660 0.21950
H4 H 0.33610 0.17590 0.24010
H5 H 0.79210 0.25070 0.20570
H6 H 0.87170 0.03390 0.20710
H7 H 0.74000 -0.13980 0.14650
H8 H 0.57860 0.39470 0.09170
H9 H 0.60110 0.39950 0.20540
H10 H 0.46370 0.35580 0.16320
H11 H 0.35340 0.08980 -0.14250
H12 H 0.47170 0.16360 -0.09220
H13 H 0.48750 -0.07810 -0.15000
H14 H 0.57930 -0.01860 -0.06860
H15 H 0.53140 -0.30330 0.15320
H16 H 0.37990 -0.27480 0.14060
H17 H 0.46210 -0.19670 0.21900
#END
