
#######################################################################
#
#                 Cambridge Crystallographic Data Centre
#                                CCDC
#
#######################################################################
#
# If this CIF has been generated from an entry in the Cambridge
# Structural Database, then it will include bibliographic, chemical,
# crystal, experimental, refinement or atomic coordinate data resulting
# from the CCDC's data processing and validation procedures.
#
#######################################################################

data_CSD_CIF_UXUXUH
_audit_creation_date 2011-10-27
_audit_creation_method CSD-ConQuest-V1
_database_code_CSD UXUXUH
_database_code_depnum_ccdc_archive 'CCDC 814758'
_chemical_formula_sum 'C17 H17 N1 O1'
_chemical_formula_moiety
;
C17 H17 N1 O1
;
_journal_coden_Cambridge 35
_journal_volume 75
_journal_year 2010
_journal_page_first 5984
_journal_name_full 'J.Org.Chem. '
loop_
_publ_author_name
"H.Tabata"
"H.Suzuki"
"K.Akiba"
"H.Takahashi"
"H.Natsugari"
_chemical_name_systematic
;
(a^2^S,a^2^R)-1,5-Dimethyl-7,8-dihydrodibenzo[b,d]azocin-6(5H)-one
;
_cell_volume   1352.080
_exptl_crystal_colour 'colorless'
_exptl_crystal_density_diffrn 1.235
_exptl_crystal_description 'prismatic'
_diffrn_ambient_temperature 123.1
#These two values have been output from a single CSD field.
_refine_ls_R_factor_gt 0.0264
_refine_ls_wR_factor_gt 0.0264
loop_
_citation_database_id_CSD
_citation_special_details
UXUXOB "is a stereoisomer of this entry"
_symmetry_cell_setting tetragonal
_symmetry_space_group_name_H-M 'P 41'
_symmetry_Int_Tables_number 76
loop_
_symmetry_equiv_pos_site_id
_symmetry_equiv_pos_as_xyz
1 x,y,z
2 -y,x,1/4+z
3 -x,-y,1/2+z
4 y,-x,3/4+z
_cell_length_a 10.00744(18)
_cell_length_b 10.00744(18)
_cell_length_c 13.5007(3)
_cell_angle_alpha 90
_cell_angle_beta 90
_cell_angle_gamma 90
_cell_formula_units_Z 4
loop_
_atom_type_symbol
_atom_type_radius_bond
C 0.68
H 0.23
N 0.68
O 0.68
loop_
_atom_site_label
_atom_site_type_symbol
_atom_site_fract_x
_atom_site_fract_y
_atom_site_fract_z
O1 O 0.63675(11) -0.22949(11) 0.40635(11)
N1 N 0.50478(11) -0.13325(12) 0.52161(10)
C1 C 0.67635(14) 0.11711(14) 0.44256(11)
C2 C 0.81366(15) 0.13312(14) 0.43174(12)
C3 C 0.89444(16) 0.16511(16) 0.51215(13)
C4 C 0.83835(15) 0.18169(16) 0.60427(13)
C5 C 0.70267(14) 0.16413(14) 0.61664(11)
C6 C 0.62049(13) 0.12941(13) 0.53743(11)
C7 C 0.47531(14) 0.10578(14) 0.55797(10)
C8 C 0.39286(15) 0.21077(15) 0.59104(11)
C9 C 0.26400(16) 0.18103(17) 0.62326(11)
C10 C 0.21546(15) 0.05196(17) 0.62286(12)
C11 C 0.29369(15) -0.05131(15) 0.58732(12)
C12 C 0.42254(13) -0.02406(14) 0.55449(11)
C13 C 0.4424(2) 0.35263(17) 0.59342(16)
C14 C 0.58984(19) 0.09170(19) 0.35332(12)
C15 C 0.51062(16) -0.03978(17) 0.35409(12)
C16 C 0.55768(13) -0.14114(15) 0.42923(12)
C17 C 0.53609(18) -0.23641(17) 0.59529(16)
H1 H 0.8478(15) 0.1246(15) 0.3654(12)
H2 H 0.9892(18) 0.1756(15) 0.5022(12)
H3 H 0.8916(16) 0.2090(15) 0.6599(13)
H4 H 0.6637(14) 0.1738(14) 0.6844(11)
H5 H 0.2095(15) 0.2534(15) 0.6468(11)
H6 H 0.1250(15) 0.0324(15) 0.6466(10)
H7 H 0.2619(14) -0.1429(14) 0.5876(10)
H8 H 0.496(2) 0.378(2) 0.5330(19)
H9 H 0.372(2) 0.411(2) 0.5841(14)
H10 H 0.493(2) 0.367(2) 0.6500(18)
H11 H 0.526(2) 0.166(2) 0.3478(16)
H12 H 0.6450(18) 0.0917(17) 0.2949(14)
H13 H 0.4196(19) -0.0210(16) 0.3630(13)
H14 H 0.5191(17) -0.0848(17) 0.2900(16)
H15 H 0.5894(19) -0.1988(19) 0.6560(16)
H16 H 0.454(2) -0.276(2) 0.6218(16)
H17 H 0.594(2) -0.301(2) 0.5617(14)
#END
