####################################################################### 
# 
# This file contains crystal structure data downloaded from the 
# Cambridge Structural Database (CSD) hosted by the Cambridge 
# Crystallographic Data Centre (CCDC).
# 
# Full information about CCDC data access policies and citation 
# guidelines are available at http://www.ccdc.cam.ac.uk/access/V1 
# 
# Audit and citation data items may have been added by the CCDC. 
# Please retain this information to preserve the provenance of 
# this file and to allow appropriate attribution of the data. 
# 
#######################################################################

data_squeezed
_audit_block_doi                 10.5517/ccwnxs6
_database_code_depnum_ccdc_archive 'CCDC 824469'
loop_
_citation_id
_citation_doi
_citation_year
1 10.1039/c1cc12908b 2011
_audit_update_record             
;
2011-05-06 deposited with the CCDC.	2024-07-13 downloaded from the CCDC.
;
#TrackingRef '- Cu-(+)-2.cif'


_audit_creation_method           SHELXL-97
_chemical_name_systematic        
;
?
;
_chemical_name_common            ?
_chemical_melting_point          ?
_chemical_formula_moiety         ?
_chemical_formula_sum            'C68 H62 Cu2 N2 O14'
_chemical_formula_weight         1258.28

loop_
_atom_type_symbol
_atom_type_description
_atom_type_scat_dispersion_real
_atom_type_scat_dispersion_imag
_atom_type_scat_source
C C 0.0033 0.0016 'International Tables Vol C Tables 4.2.6.8 and 6.1.1.4'
H H 0.0000 0.0000 'International Tables Vol C Tables 4.2.6.8 and 6.1.1.4'
N N 0.0061 0.0033 'International Tables Vol C Tables 4.2.6.8 and 6.1.1.4'
O O 0.0106 0.0060 'International Tables Vol C Tables 4.2.6.8 and 6.1.1.4'
Cu Cu 0.3201 1.2651 'International Tables Vol C Tables 4.2.6.8 and 6.1.1.4'

_symmetry_cell_setting           hexagonal
_symmetry_space_group_name_H-M   p6(5)

loop_
_symmetry_equiv_pos_as_xyz
'x, y, z'
'-y, x-y, z+2/3'
'-x+y, -x, z+1/3'
'-x, -y, z+1/2'
'y, -x+y, z+1/6'
'x-y, x, z+5/6'

_cell_length_a                   18.6018(16)
_cell_length_b                   18.6018(16)
_cell_length_c                   42.963(4)
_cell_angle_alpha                90.00
_cell_angle_beta                 90.00
_cell_angle_gamma                120.00
_cell_volume                     12874.8(19)
_cell_formula_units_Z            6
_cell_measurement_temperature    100(2)
_cell_measurement_reflns_used    9082
_cell_measurement_theta_min      1.26
_cell_measurement_theta_max      23.286

_exptl_crystal_description       block
_exptl_crystal_colour            blue
_exptl_crystal_size_max          0.30
_exptl_crystal_size_mid          0.30
_exptl_crystal_size_min          0.10
_exptl_crystal_density_meas      ?
_exptl_crystal_density_diffrn    0.974
_exptl_crystal_density_method    'not measured'
_exptl_crystal_F_000             3924
_exptl_absorpt_coefficient_mu    0.544
_exptl_absorpt_correction_type   multi-scan
_exptl_absorpt_correction_T_min  0.8538
_exptl_absorpt_correction_T_max  0.9476
_exptl_absorpt_process_details   sadabs

_exptl_special_details           
;
?
;

_diffrn_ambient_temperature      100(2)
_diffrn_radiation_wavelength     0.71073
_diffrn_radiation_type           mok\a
_diffrn_radiation_source         'fine-focus sealed tube'
_diffrn_radiation_monochromator  graphite
_diffrn_measurement_device_type  'ccd area detector'
_diffrn_measurement_method       'omega scans'
_diffrn_detector_area_resol_mean ?
_diffrn_standards_number         ?
_diffrn_standards_interval_count ?
_diffrn_standards_interval_time  ?
_diffrn_standards_decay_%        ?
_diffrn_reflns_number            56703
_diffrn_reflns_av_R_equivalents  0.1987
_diffrn_reflns_av_sigmaI/netI    0.1460
_diffrn_reflns_limit_h_min       -20
_diffrn_reflns_limit_h_max       13
_diffrn_reflns_limit_k_min       -20
_diffrn_reflns_limit_k_max       20
_diffrn_reflns_limit_l_min       -47
_diffrn_reflns_limit_l_max       47
_diffrn_reflns_theta_min         1.26
_diffrn_reflns_theta_max         23.29
_reflns_number_total             12350
_reflns_number_gt                7453
_reflns_threshold_expression     >2sigma(I)

_computing_data_collection       'bruker smart apexii'
_computing_cell_refinement       'bruker smart apexii'
_computing_data_reduction        'bruker saint'
_computing_structure_solution    shelxtl
_computing_structure_refinement  'shelxl-97 (sheldrick, 1997)'
_computing_molecular_graphics    wingx
_computing_publication_material  wingx

_refine_special_details          
;
Refinement of F^2^ against ALL reflections. The weighted R-factor wR and
goodness of fit S are based on F^2^, conventional R-factors R are based
on F, with F set to zero for negative F^2^. The threshold expression of
F^2^ > 2sigma(F^2^) is used only for calculating R-factors(gt) etc. and is
not relevant to the choice of reflections for refinement. R-factors based
on F^2^ are statistically about twice as large as those based on F, and R-
factors based on ALL data will be even larger.
;

_refine_ls_structure_factor_coef Fsqd
_refine_ls_matrix_type           full
_refine_ls_weighting_scheme      calc
_refine_ls_weighting_details     
'calc w=1/[\s^2^(Fo^2^)+(0.0757P)^2^+0.0000P] where P=(Fo^2^+2Fc^2^)/3'
_atom_sites_solution_primary     direct
_atom_sites_solution_secondary   difmap
_atom_sites_solution_hydrogens   geom
_refine_ls_hydrogen_treatment    constr
_refine_ls_extinction_method     none
_refine_ls_extinction_coef       ?
_refine_ls_abs_structure_details 'Flack H D (1983), Acta Cryst. A39, 876-881'
_refine_ls_abs_structure_Flack   0.138(17)
_refine_ls_number_reflns         12350
_refine_ls_number_parameters     783
_refine_ls_number_restraints     1
_refine_ls_R_factor_all          0.1074
_refine_ls_R_factor_gt           0.0704
_refine_ls_wR_factor_ref         0.1612
_refine_ls_wR_factor_gt          0.1481
_refine_ls_goodness_of_fit_ref   0.898
_refine_ls_restrained_S_all      0.898
_refine_ls_shift/su_max          0.004
_refine_ls_shift/su_mean         0.000

loop_
_atom_site_label
_atom_site_type_symbol
_atom_site_fract_x
_atom_site_fract_y
_atom_site_fract_z
_atom_site_U_iso_or_equiv
_atom_site_adp_type
_atom_site_occupancy
_atom_site_symmetry_multiplicity
_atom_site_calc_flag
_atom_site_refinement_flags
_atom_site_disorder_assembly
_atom_site_disorder_group
Cu1 Cu 0.68503(6) 0.66083(5) 0.07421(2) 0.0459(3) Uani 1 1 d . . .
Cu2 Cu 0.71762(6) 0.66925(5) 0.13348(2) 0.0460(3) Uani 1 1 d . . .
O1A O 1.3359(3) 0.5473(3) 0.05283(15) 0.0698(17) Uani 1 1 d . . .
O2A O 1.3147(3) 0.4180(3) 0.03993(13) 0.0577(15) Uani 1 1 d . . .
O3A O 0.7846(3) 0.6208(3) 0.12102(13) 0.0510(14) Uani 1 1 d . . .
O4A O 0.7775(3) 0.6369(3) 0.06910(13) 0.0528(14) Uani 1 1 d . . .
O5A O 0.7676(3) -0.2206(4) 0.07544(15) 0.0625(15) Uani 1 1 d . . .
O6A O 0.8124(3) -0.2163(3) 0.12304(14) 0.0591(15) Uani 1 1 d . . .
C1A C 1.2637(5) 0.4870(5) 0.0692(2) 0.062(2) Uani 1 1 d . . .
H1A H 1.2823 0.4789 0.0900 0.074 Uiso 1 1 d . . .
C2A C 1.2389(5) 0.4091(5) 0.04934(19) 0.055(2) Uani 1 1 d . . .
H2A H 1.2122 0.4153 0.0306 0.066 Uiso 1 1 d . . .
C3A C 1.3707(5) 0.5049(5) 0.0366(3) 0.065(3) Uani 1 1 d . . .
C4A C 1.3750(7) 0.5271(6) 0.0031(3) 0.096(3) Uani 1 1 d . . .
H4A1 H 1.3712 0.4818 -0.0097 0.115 Uiso 1 1 calc R . .
H4A2 H 1.4278 0.5779 -0.0010 0.115 Uiso 1 1 calc R . .
H4A3 H 1.3289 0.5364 -0.0019 0.115 Uiso 1 1 calc R . .
C5A C 1.4506(5) 0.5248(5) 0.0493(2) 0.073(3) Uani 1 1 d . . .
H5A1 H 1.4428 0.4990 0.0699 0.088 Uiso 1 1 calc R . .
H5A2 H 1.4854 0.5852 0.0514 0.088 Uiso 1 1 calc R . .
H5A3 H 1.4777 0.5038 0.0354 0.088 Uiso 1 1 calc R . .
C6A C 1.2024(5) 0.5110(5) 0.0739(2) 0.055(2) Uani 1 1 d . . .
C7A C 1.1908(6) 0.5562(6) 0.0527(3) 0.078(3) Uani 1 1 d . . .
H7A H 1.2267 0.5756 0.0351 0.094 Uiso 1 1 calc R . .
C8A C 1.1266(6) 0.5769(6) 0.0551(2) 0.074(3) Uani 1 1 d . . .
H8A H 1.1224 0.6113 0.0397 0.089 Uiso 1 1 calc R . .
C9A C 1.0708(5) 0.5480(6) 0.0794(2) 0.063(2) Uani 1 1 d . . .
C10A C 1.0852(7) 0.5020(7) 0.1028(2) 0.089(3) Uani 1 1 d . . .
H10A H 1.0496 0.4808 0.1203 0.107 Uiso 1 1 calc R . .
C11A C 1.1547(8) 0.4881(7) 0.0992(3) 0.095(4) Uani 1 1 d . . .
H11A H 1.1667 0.4615 0.1157 0.114 Uiso 1 1 calc R . .
C12A C 0.9993(5) 0.5621(5) 0.0819(2) 0.058(2) Uani 1 1 d . . .
C13A C 0.9638(5) 0.5762(5) 0.0563(2) 0.058(2) Uani 1 1 d . . .
H13A H 0.9842 0.5750 0.0362 0.069 Uiso 1 1 calc R . .
C14A C 0.9012(5) 0.5916(5) 0.05924(18) 0.052(2) Uani 1 1 d . . .
H14A H 0.8770 0.5997 0.0411 0.063 Uiso 1 1 calc R . .
C15A C 0.8698(5) 0.5960(4) 0.0894(2) 0.051(2) Uani 1 1 d . . .
C16A C 0.9029(5) 0.5781(5) 0.1148(2) 0.065(3) Uani 1 1 d . . .
H16A H 0.8791 0.5746 0.1347 0.077 Uiso 1 1 calc R . .
C17A C 0.9736(6) 0.5642(5) 0.1124(3) 0.077(3) Uani 1 1 d . . .
H17A H 1.0001 0.5572 0.1301 0.092 Uiso 1 1 calc R . .
C18A C 0.8052(4) 0.6196(4) 0.0938(3) 0.050(2) Uani 1 1 d . . .
C19A C 1.1790(5) 0.3229(5) 0.06240(18) 0.050(2) Uani 1 1 d . . .
C20A C 1.0937(6) 0.2946(6) 0.0594(2) 0.070(3) Uani 1 1 d . . .
H20A H 1.0754 0.3313 0.0524 0.084 Uiso 1 1 calc R . .
C21A C 1.0351(5) 0.2111(5) 0.0669(2) 0.060(2) Uani 1 1 d . . .
H21A H 0.9774 0.1892 0.0634 0.072 Uiso 1 1 calc R . .
C22A C 1.0650(6) 0.1626(5) 0.0793(2) 0.067(3) Uani 1 1 d . . .
C23A C 1.1503(6) 0.1968(5) 0.0858(2) 0.063(2) Uani 1 1 d . . .
H23A H 1.1691 0.1651 0.0969 0.075 Uiso 1 1 calc R . .
C24A C 1.2056(5) 0.2744(5) 0.0762(2) 0.061(2) Uani 1 1 d . . .
H24A H 1.2633 0.2953 0.0791 0.073 Uiso 1 1 calc R . .
C25A C 1.0010(5) 0.0727(5) 0.0858(2) 0.064(3) Uani 1 1 d . . .
C26A C 0.9381(6) 0.0311(7) 0.0633(2) 0.078(3) Uani 1 1 d . . .
H26A H 0.9340 0.0593 0.0456 0.093 Uiso 1 1 calc R . .
C27A C 0.8839(5) -0.0510(5) 0.0680(2) 0.059(2) Uani 1 1 d . . .
H27A H 0.8442 -0.0800 0.0522 0.070 Uiso 1 1 calc R . .
C28A C 0.8818(5) -0.0945(5) 0.0934(2) 0.051(2) Uani 1 1 d . . .
C29A C 0.9435(5) -0.0536(5) 0.1155(2) 0.065(3) Uani 1 1 d . . .
H29A H 0.9466 -0.0823 0.1332 0.078 Uiso 1 1 calc R . .
C30A C 0.9994(5) 0.0280(5) 0.11123(19) 0.057(2) Uani 1 1 d . . .
H30A H 1.0400 0.0558 0.1270 0.068 Uiso 1 1 calc R . .
C31A C 0.8147(5) -0.1859(5) 0.0987(2) 0.052(2) Uani 1 1 d . . .
O1B O 0.0756(3) -0.0969(4) 0.15745(14) 0.0674(17) Uani 1 1 d . . .
O2B O 0.1062(3) -0.1799(3) 0.18649(13) 0.0622(15) Uani 1 1 d . . .
O3B O 0.6197(3) 0.5593(3) 0.13479(13) 0.0532(13) Uani 1 1 d . . .
O4B O 0.6119(3) 0.5427(3) 0.08237(12) 0.0498(13) Uani 1 1 d . . .
O5B O 0.6468(4) -0.2826(3) 0.13821(12) 0.0567(15) Uani 1 1 d . . .
O6B O 0.5971(3) -0.3156(3) 0.08923(13) 0.0498(13) Uani 1 1 d . . .
C1B C 0.1542(5) -0.0819(5) 0.14815(19) 0.053(2) Uani 1 1 d . . .
H1B H 0.1480 -0.1156 0.1299 0.064 Uiso 1 1 d . . .
C2B C 0.1835(5) -0.1126(4) 0.17480(19) 0.050(2) Uani 1 1 d . . .
H2B H 0.2075 -0.0691 0.1916 0.060 Uiso 1 1 d . . .
C3B C 0.0420(5) -0.1613(4) 0.1796(2) 0.052(2) Uani 1 1 d . . .
C4B C 0.0156(6) -0.1331(6) 0.2090(2) 0.081(3) Uani 1 1 d . . .
H4B1 H -0.0317 -0.1811 0.2187 0.097 Uiso 1 1 calc R . .
H4B2 H -0.0004 -0.0920 0.2033 0.097 Uiso 1 1 calc R . .
H4B3 H 0.0620 -0.1082 0.2237 0.097 Uiso 1 1 calc R . .
C5B C -0.0293(6) -0.2355(6) 0.1664(2) 0.091(3) Uani 1 1 d . . .
H5B1 H -0.0120 -0.2518 0.1473 0.109 Uiso 1 1 calc R . .
H5B2 H -0.0735 -0.2234 0.1615 0.109 Uiso 1 1 calc R . .
H5B3 H -0.0497 -0.2810 0.1815 0.109 Uiso 1 1 calc R . .
C6B C 0.2114(4) 0.0080(5) 0.1401(2) 0.049(2) Uani 1 1 d . . .
C7B C 0.2082(5) 0.0722(5) 0.1556(2) 0.057(2) Uani 1 1 d . . .
H7B H 0.1671 0.0598 0.1710 0.069 Uiso 1 1 calc R . .
C8B C 0.2643(6) 0.1534(5) 0.1486(2) 0.061(2) Uani 1 1 d . . .
H8B H 0.2597 0.1963 0.1588 0.073 Uiso 1 1 calc R . .
C9B C 0.3278(6) 0.1752(5) 0.1270(2) 0.059(2) Uani 1 1 d . . .
C10B C 0.3301(5) 0.1103(5) 0.1095(2) 0.069(3) Uani 1 1 d . . .
H10B H 0.3697 0.1228 0.0934 0.083 Uiso 1 1 calc R . .
C11B C 0.2712(6) 0.0270(6) 0.11712(19) 0.068(3) Uani 1 1 d . . .
H11B H 0.2725 -0.0169 0.1063 0.081 Uiso 1 1 calc R . .
C12B C 0.3923(5) 0.2620(5) 0.1225(2) 0.045(2) Uani 1 1 d . . .
C13B C 0.4200(5) 0.3172(5) 0.14491(19) 0.054(2) Uani 1 1 d . . .
H13B H 0.3956 0.2994 0.1649 0.065 Uiso 1 1 calc R . .
C14B C 0.4844(5) 0.4024(5) 0.1418(2) 0.061(2) Uani 1 1 d . . .
H14B H 0.5010 0.4393 0.1590 0.073 Uiso 1 1 calc R . .
C15B C 0.5212(5) 0.4291(4) 0.11313(18) 0.0440(19) Uani 1 1 d . . .
C16B C 0.4909(5) 0.3740(5) 0.0897(2) 0.062(2) Uani 1 1 d . . .
H16B H 0.5150 0.3927 0.0697 0.074 Uiso 1 1 calc R . .
C17B C 0.4264(6) 0.2909(6) 0.0921(3) 0.089(3) Uani 1 1 d . . .
H17B H 0.4065 0.2556 0.0744 0.106 Uiso 1 1 calc R . .
C18B C 0.5879(5) 0.5160(4) 0.1094(2) 0.044(2) Uani 1 1 d . . .
C19B C 0.2434(5) -0.1402(5) 0.16696(17) 0.050(2) Uani 1 1 d . . .
C20B C 0.3272(4) -0.0902(5) 0.17218(18) 0.049(2) Uani 1 1 d . . .
H20B H 0.3484 -0.0363 0.1808 0.059 Uiso 1 1 calc R . .
C21B C 0.3796(5) -0.1197(5) 0.16472(18) 0.055(2) Uani 1 1 d . . .
H21B H 0.4368 -0.0862 0.1697 0.066 Uiso 1 1 calc R . .
C22B C 0.3543(5) -0.1950(6) 0.1504(2) 0.065(3) Uani 1 1 d . . .
C23B C 0.2711(5) -0.2445(5) 0.1451(2) 0.074(3) Uani 1 1 d . . .
H23B H 0.2518 -0.2964 0.1351 0.088 Uiso 1 1 calc R . .
C24B C 0.2139(5) -0.2208(5) 0.1540(2) 0.065(3) Uani 1 1 d . . .
H24B H 0.1561 -0.2578 0.1515 0.078 Uiso 1 1 calc R . .
C25B C 0.4189(5) -0.2186(4) 0.1410(2) 0.050(2) Uani 1 1 d . . .
C26B C 0.4854(6) -0.1989(5) 0.1595(2) 0.061(2) Uani 1 1 d . . .
H26B H 0.4920 -0.1698 0.1784 0.073 Uiso 1 1 calc R . .
C27B C 0.5412(6) -0.2199(6) 0.1514(2) 0.068(3) Uani 1 1 d . . .
H27B H 0.5879 -0.2036 0.1646 0.081 Uiso 1 1 calc R . .
C28B C 0.5343(5) -0.2650(5) 0.12437(19) 0.050(2) Uani 1 1 d . . .
C29B C 0.4636(5) -0.2904(6) 0.1066(2) 0.076(3) Uani 1 1 d . . .
H29B H 0.4541 -0.3253 0.0891 0.092 Uiso 1 1 calc R . .
C30B C 0.4067(6) -0.2661(6) 0.1139(2) 0.074(3) Uani 1 1 d . . .
H30B H 0.3601 -0.2810 0.1008 0.089 Uiso 1 1 calc R . .
C31B C 0.5977(5) -0.2884(5) 0.1155(2) 0.051(2) Uani 1 1 d . . .
O1S O 0.6592(4) 0.6585(4) 0.02651(13) 0.0616(16) Uani 1 1 d . . .
N1S N 0.7152(6) 0.6977(6) -0.0239(2) 0.091(3) Uani 1 1 d . . .
C1S C 0.7194(8) 0.7031(8) 0.0084(4) 0.113(4) Uani 1 1 d . . .
H1S1 H 0.7706 0.7427 0.0175 0.136 Uiso 1 1 calc R . .
C2S C 0.6337(7) 0.6446(7) -0.0385(2) 0.110(4) Uani 1 1 d . . .
H2S1 H 0.6212 0.6780 -0.0528 0.132 Uiso 1 1 calc R . .
H2S2 H 0.5909 0.6209 -0.0223 0.132 Uiso 1 1 calc R . .
H2S3 H 0.6348 0.5998 -0.0501 0.132 Uiso 1 1 calc R . .
C3S C 0.7816(9) 0.7449(9) -0.0429(3) 0.159(6) Uani 1 1 d . . .
H3S1 H 0.7698 0.7815 -0.0556 0.191 Uiso 1 1 calc R . .
H3S2 H 0.7915 0.7084 -0.0565 0.191 Uiso 1 1 calc R . .
H3S3 H 0.8311 0.7785 -0.0302 0.191 Uiso 1 1 calc R . .
O2S O 0.7473(4) 0.6691(3) 0.18074(15) 0.0588(17) Uani 1 1 d . . .
N2S N 0.7943(5) 0.7454(7) 0.2238(3) 0.113(4) Uani 1 1 d . . .
C4S C 0.7727(8) 0.7211(11) 0.1982(4) 0.115(5) Uani 1 1 d . . .
H4S1 H 0.7807 0.7684 0.1868 0.138 Uiso 1 1 calc R . .
C5S C 0.7780(10) 0.6628(11) 0.2427(5) 0.199(8) Uani 1 1 d . . .
H5S1 H 0.7434 0.6555 0.2610 0.238 Uiso 1 1 calc R . .
H5S2 H 0.8312 0.6691 0.2494 0.238 Uiso 1 1 calc R . .
H5S3 H 0.7494 0.6142 0.2292 0.238 Uiso 1 1 calc R . .
C6S C 0.8233(8) 0.8141(7) 0.2451(3) 0.113(4) Uani 1 1 d . . .
H6S1 H 0.8837 0.8404 0.2473 0.135 Uiso 1 1 calc R . .
H6S2 H 0.7969 0.7939 0.2654 0.135 Uiso 1 1 calc R . .
H6S3 H 0.8091 0.8547 0.2370 0.135 Uiso 1 1 calc R . .

loop_
_atom_site_aniso_label
_atom_site_aniso_U_11
_atom_site_aniso_U_22
_atom_site_aniso_U_33
_atom_site_aniso_U_23
_atom_site_aniso_U_13
_atom_site_aniso_U_12
Cu1 0.0384(6) 0.0408(6) 0.0589(6) 0.0015(5) 0.0062(5) 0.0202(5)
Cu2 0.0367(5) 0.0434(6) 0.0609(7) 0.0005(5) 0.0034(5) 0.0222(5)
O1A 0.048(4) 0.040(3) 0.120(5) -0.014(3) 0.005(3) 0.021(3)
O2A 0.036(3) 0.041(3) 0.095(4) -0.011(3) 0.011(3) 0.018(3)
O3A 0.057(4) 0.043(3) 0.062(4) 0.003(3) 0.005(3) 0.032(3)
O4A 0.043(3) 0.055(4) 0.070(4) 0.005(3) 0.007(3) 0.032(3)
O5A 0.052(4) 0.064(4) 0.069(4) 0.010(3) 0.002(3) 0.028(3)
O6A 0.060(4) 0.041(3) 0.073(4) 0.002(3) 0.000(3) 0.022(3)
C1A 0.039(5) 0.056(6) 0.076(6) -0.018(5) -0.001(5) 0.013(5)
C2A 0.029(5) 0.050(5) 0.075(6) 0.008(5) -0.007(4) 0.012(4)
C3A 0.041(6) 0.054(6) 0.101(8) -0.006(5) 0.003(5) 0.025(5)
C4A 0.096(8) 0.055(7) 0.124(10) 0.004(6) -0.008(7) 0.028(6)
C5A 0.059(6) 0.032(5) 0.112(8) 0.003(5) 0.011(6) 0.011(4)
C6A 0.056(5) 0.049(5) 0.070(6) 0.018(5) 0.030(5) 0.033(5)
C7A 0.052(6) 0.078(7) 0.100(8) -0.016(6) 0.002(5) 0.030(6)
C8A 0.072(7) 0.074(6) 0.083(7) 0.029(5) 0.023(6) 0.042(6)
C9A 0.041(5) 0.080(6) 0.075(7) 0.009(5) -0.013(5) 0.035(5)
C10A 0.108(9) 0.129(9) 0.058(6) -0.021(6) -0.003(6) 0.080(8)
C11A 0.138(11) 0.134(10) 0.081(8) -0.009(7) -0.012(7) 0.120(9)
C12A 0.076(6) 0.048(5) 0.065(6) -0.001(4) 0.021(5) 0.043(5)
C13A 0.060(6) 0.078(6) 0.049(6) 0.016(5) 0.012(5) 0.045(5)
C14A 0.067(6) 0.063(6) 0.038(5) -0.016(4) -0.002(4) 0.041(5)
C15A 0.038(5) 0.028(4) 0.084(7) 0.000(4) -0.004(5) 0.015(4)
C16A 0.074(6) 0.072(6) 0.077(7) 0.010(5) 0.024(5) 0.059(6)
C17A 0.060(6) 0.058(6) 0.122(9) -0.002(6) -0.011(6) 0.037(5)
C18A 0.022(4) 0.028(4) 0.088(8) 0.007(5) 0.013(5) 0.005(4)
C19A 0.038(5) 0.064(6) 0.047(5) 0.000(4) 0.004(4) 0.024(5)
C20A 0.073(7) 0.060(6) 0.078(7) 0.018(5) 0.002(5) 0.032(6)
C21A 0.046(5) 0.065(6) 0.089(7) 0.029(5) 0.018(5) 0.043(5)
C22A 0.057(6) 0.045(5) 0.086(7) 0.000(5) 0.029(5) 0.015(5)
C23A 0.064(6) 0.042(5) 0.073(6) 0.006(4) 0.005(5) 0.020(5)
C24A 0.048(5) 0.054(6) 0.074(6) -0.007(5) -0.002(5) 0.020(5)
C25A 0.041(5) 0.054(6) 0.089(7) -0.023(5) -0.022(5) 0.019(5)
C26A 0.070(7) 0.116(9) 0.063(7) 0.041(6) 0.025(5) 0.059(7)
C27A 0.060(6) 0.048(6) 0.056(6) 0.006(5) -0.005(5) 0.019(5)
C28A 0.033(5) 0.053(5) 0.066(6) -0.001(5) 0.009(4) 0.022(4)
C29A 0.036(5) 0.045(6) 0.089(7) -0.007(5) -0.013(5) 0.002(4)
C30A 0.050(5) 0.042(5) 0.063(6) 0.014(4) -0.019(4) 0.011(5)
C31A 0.045(5) 0.046(5) 0.067(7) 0.021(5) 0.004(5) 0.024(5)
O1B 0.044(4) 0.060(4) 0.098(5) 0.020(3) -0.007(3) 0.026(3)
O2B 0.046(3) 0.044(3) 0.093(4) 0.007(3) 0.009(3) 0.020(3)
O3B 0.044(3) 0.045(3) 0.067(