####################################################################### 
# 
# This file contains crystal structure data downloaded from the 
# Cambridge Structural Database (CSD) hosted by the Cambridge 
# Crystallographic Data Centre (CCDC).
# 
# Full information about CCDC data access policies and citation 
# guidelines are available at http://www.ccdc.cam.ac.uk/access/V1 
# 
# Audit and citation data items may have been added by the CCDC. 
# Please retain this information to preserve the provenance of 
# this file and to allow appropriate attribution of the data. 
# 
#######################################################################

data_2
_audit_block_doi                 10.5517/ccvr64x
_database_code_depnum_ccdc_archive 'CCDC 796859'
loop_
_citation_id
_citation_doi
_citation_year
1 10.1016/j.inoche.2011.03.021 2011
_audit_update_record             
;
2010-10-14 deposited with the CCDC.	2024-07-13 downloaded from the CCDC.
;
#TrackingRef '1-2_.cif'


_audit_creation_method           SHELXL-97
_chemical_name_systematic        
;
?
;
_chemical_name_common            ?
_chemical_melting_point          ?
_chemical_formula_moiety         ?
_chemical_formula_sum            'C34 H52 Cd N10 O12'
_chemical_formula_weight         905.26

loop_
_atom_type_symbol
_atom_type_description
_atom_type_scat_dispersion_real
_atom_type_scat_dispersion_imag
_atom_type_scat_source
C C 0.0033 0.0016 'International Tables Vol C Tables 4.2.6.8 and 6.1.1.4'
H H 0.0000 0.0000 'International Tables Vol C Tables 4.2.6.8 and 6.1.1.4'
N N 0.0061 0.0033 'International Tables Vol C Tables 4.2.6.8 and 6.1.1.4'
O O 0.0106 0.0060 'International Tables Vol C Tables 4.2.6.8 and 6.1.1.4'
Cd Cd -0.8075 1.2024 'International Tables Vol C Tables 4.2.6.8 and 6.1.1.4'

_symmetry_cell_setting           Trigonal
_symmetry_space_group_name_H-M   R-3c

loop_
_symmetry_equiv_pos_as_xyz
'x, y, z'
'-y, x-y, z'
'-x+y, -x, z'
'x-y, -y, -z+1/2'
'-x, -x+y, -z+1/2'
'y, x, -z+1/2'
'x+2/3, y+1/3, z+1/3'
'-y+2/3, x-y+1/3, z+1/3'
'-x+y+2/3, -x+1/3, z+1/3'
'x-y+2/3, -y+1/3, -z+5/6'
'-x+2/3, -x+y+1/3, -z+5/6'
'y+2/3, x+1/3, -z+5/6'
'x+1/3, y+2/3, z+2/3'
'-y+1/3, x-y+2/3, z+2/3'
'-x+y+1/3, -x+2/3, z+2/3'
'x-y+1/3, -y+2/3, -z+7/6'
'-x+1/3, -x+y+2/3, -z+7/6'
'y+1/3, x+2/3, -z+7/6'
'-x, -y, -z'
'y, -x+y, -z'
'x-y, x, -z'
'-x+y, y, z-1/2'
'x, x-y, z-1/2'
'-y, -x, z-1/2'
'-x+2/3, -y+1/3, -z+1/3'
'y+2/3, -x+y+1/3, -z+1/3'
'x-y+2/3, x+1/3, -z+1/3'
'-x+y+2/3, y+1/3, z-1/6'
'x+2/3, x-y+1/3, z-1/6'
'-y+2/3, -x+1/3, z-1/6'
'-x+1/3, -y+2/3, -z+2/3'
'y+1/3, -x+y+2/3, -z+2/3'
'x-y+1/3, x+2/3, -z+2/3'
'-x+y+1/3, y+2/3, z+1/6'
'x+1/3, x-y+2/3, z+1/6'
'-y+1/3, -x+2/3, z+1/6'

_cell_length_a                   25.126(1)
_cell_length_b                   25.126(1)
_cell_length_c                   32.427(2)
_cell_angle_alpha                90.000
_cell_angle_beta                 90.000
_cell_angle_gamma                120.000
_cell_volume                     17729(6)
_cell_formula_units_Z            18
_cell_measurement_temperature    296(2)
_cell_measurement_reflns_used    9677
_cell_measurement_theta_min      1.52
_cell_measurement_theta_max      25.02

_exptl_crystal_description       block
_exptl_crystal_colour            colorless
_exptl_crystal_size_max          0.26
_exptl_crystal_size_mid          0.24
_exptl_crystal_size_min          0.24
_exptl_crystal_density_meas      ?
_exptl_crystal_density_diffrn    1.526
_exptl_crystal_density_method    'not measured'
_exptl_crystal_F_000             8460
_exptl_absorpt_coefficient_mu    0.628
_exptl_absorpt_correction_type   multi-scan
_exptl_absorpt_correction_T_min  0.849
_exptl_absorpt_correction_T_max  0.860
_exptl_absorpt_process_details   'SADABS (Sheldrick, 1996)'

_exptl_special_details           
;
?
;

_diffrn_ambient_temperature      296(2)
_diffrn_radiation_wavelength     0.71069
_diffrn_radiation_type           MoK\a
_diffrn_radiation_source         'fine-focus sealed tube'
_diffrn_radiation_monochromator  graphite
_diffrn_measurement_device_type  'Bruker APEX CCD area-detector'
_diffrn_measurement_method       'w scans'
_diffrn_detector_area_resol_mean ?
_diffrn_standards_number         ?
_diffrn_standards_interval_count ?
_diffrn_standards_interval_time  ?
_diffrn_standards_decay_%        ?
_diffrn_reflns_number            29019
_diffrn_reflns_av_R_equivalents  0.0597
_diffrn_reflns_av_sigmaI/netI    0.0364
_diffrn_reflns_limit_h_min       -29
_diffrn_reflns_limit_h_max       29
_diffrn_reflns_limit_k_min       -27
_diffrn_reflns_limit_k_max       29
_diffrn_reflns_limit_l_min       -38
_diffrn_reflns_limit_l_max       37
_diffrn_reflns_theta_min         1.57
_diffrn_reflns_theta_max         25.02
_reflns_number_total             3490
_reflns_number_gt                2456
_reflns_threshold_expression     >2sigma(I)

_computing_data_collection       'SMART (Bruker, 1997)'
_computing_cell_refinement       'SAINT (Bruker, 1999)'
_computing_data_reduction        SAINT
_computing_structure_solution    'SHELXS-97 (Sheldrick, 1997)'
_computing_structure_refinement  'SHELXL-97 (Sheldrick, 1997)'
_computing_molecular_graphics    'SHELXTL-PLUS (Sheldrick, 1990)'
_computing_publication_material  SHELXL-97

_refine_special_details          
;
Refinement of F^2^ against ALL reflections. The weighted R-factor wR and
goodness of fit S are based on F^2^, conventional R-factors R are based
on F, with F set to zero for negative F^2^. The threshold expression of
F^2^ > 2sigma(F^2^) is used only for calculating R-factors(gt) etc. and is
not relevant to the choice of reflections for refinement. R-factors based
on F^2^ are statistically about twice as large as those based on F, and R-
factors based on ALL data will be even larger.
;

_refine_ls_structure_factor_coef Fsqd
_refine_ls_matrix_type           full
_refine_ls_weighting_scheme      calc
_refine_ls_weighting_details     
'calc w=1/[\s^2^(Fo^2^)+(0.0567P)^2^+0.0000P] where P=(Fo^2^+2Fc^2^)/3'
_atom_sites_solution_primary     direct
_atom_sites_solution_secondary   difmap
_atom_sites_solution_hydrogens   geom
_refine_ls_hydrogen_treatment    mixed
_refine_ls_extinction_method     none
_refine_ls_extinction_coef       ?
_refine_ls_number_reflns         3490
_refine_ls_number_parameters     145
_refine_ls_number_restraints     0
_refine_ls_R_factor_all          0.0624
_refine_ls_R_factor_gt           0.0403
_refine_ls_wR_factor_ref         0.1033
_refine_ls_wR_factor_gt          0.0977
_refine_ls_goodness_of_fit_ref   0.982
_refine_ls_restrained_S_all      0.982
_refine_ls_shift/su_max          0.001
_refine_ls_shift/su_mean         0.000

loop_
_atom_site_label
_atom_site_type_symbol
_atom_site_fract_x
_atom_site_fract_y
_atom_site_fract_z
_atom_site_U_iso_or_equiv
_atom_site_adp_type
_atom_site_occupancy
_atom_site_symmetry_multiplicity
_atom_site_calc_flag
_atom_site_refinement_flags
_atom_site_disorder_assembly
_atom_site_disorder_group
Cd1 Cd 0.632554(12) 0.0000 0.2500 0.06306(16) Uani 1 2 d S . .
O3 O 0.96435(9) 0.20825(10) 0.39194(8) 0.0736(7) Uani 1 1 d . . .
C7 C 0.94596(13) -0.00605(13) 0.35424(10) 0.0526(8) Uani 1 1 d . . .
O1 O 0.71425(10) 0.06400(12) 0.29177(8) 0.0759(7) Uani 1 1 d . . .
O2 O 0.89376(11) 0.22694(10) 0.36778(8) 0.0794(7) Uani 1 1 d . . .
N2 N 0.99305(10) 0.05105(10) 0.35432(8) 0.0556(7) Uani 1 1 d . . .
N1 N 0.88789(13) -0.01551(13) 0.35349(12) 0.0685(10) Uani 1 1 d . . .
C3 C 0.86790(13) 0.02751(13) 0.34938(11) 0.0562(8) Uani 1 1 d . . .
C2 C 0.81168(13) 0.00711(14) 0.33063(11) 0.0604(9) Uani 1 1 d . . .
H2 H 0.7890 -0.0334 0.3217 0.072 Uiso 1 1 calc R . .
C9 C 0.91460(14) 0.19231(14) 0.37288(11) 0.0607(8) Uani 1 1 d . . .
C1 C 0.78857(12) 0.04668(14) 0.32495(10) 0.0577(8) Uani 1 1 d . . .
C8 C 0.72768(15) 0.02414(18) 0.30329(12) 0.0668(9) Uani 1 1 d . . .
C4 C 0.90084(13) 0.08758(13) 0.36335(10) 0.0570(8) Uani 1 1 d . . .
H4 H 0.9381 0.1012 0.3769 0.068 Uiso 1 1 calc R . .
C5 C 0.87864(13) 0.12687(13) 0.35732(10) 0.0547(8) Uani 1 1 d . . .
C6 C 0.82297(14) 0.10680(14) 0.33803(11) 0.0617(9) Uani 1 1 d . . .
H6 H 0.8085 0.1339 0.3338 0.074 Uiso 1 1 calc R . .
O4 O 0.69397(11) -0.03144(12) 0.29759(9) 0.0865(8) Uani 1 1 d . . .
H8 H 0.8656(17) -0.0435(15) 0.3489(12) 0.084(15) Uiso 1 1 d . . .

loop_
_atom_site_aniso_label
_atom_site_aniso_U_11
_atom_site_aniso_U_22
_atom_site_aniso_U_33
_atom_site_aniso_U_23
_atom_site_aniso_U_13
_atom_site_aniso_U_12
Cd1 0.04808(17) 0.0785(3) 0.0727(3) -0.00082(19) -0.00041(9) 0.03925(14)
O3 0.0432(13) 0.0518(13) 0.123(2) -0.0191(13) -0.0108(13) 0.0214(11)
C7 0.0355(16) 0.0421(17) 0.080(2) 0.0007(15) -0.0035(15) 0.0194(14)
O1 0.0622(15) 0.0823(16) 0.0997(19) -0.0120(15) -0.0216(13) 0.0484(13)
O2 0.0713(16) 0.0477(13) 0.123(2) -0.0140(13) -0.0163(14) 0.0327(12)
N2 0.0356(14) 0.0373(14) 0.093(2) 0.0027(13) -0.0011(13) 0.0177(12)
N1 0.0377(16) 0.0363(16) 0.129(3) -0.0085(17) -0.0138(16) 0.0169(14)
C3 0.0337(15) 0.0441(17) 0.095(3) 0.0038(16) -0.0006(15) 0.0226(14)
C2 0.0374(16) 0.0471(18) 0.095(3) -0.0064(17) -0.0067(16) 0.0198(14)
C9 0.0449(19) 0.0448(18) 0.091(3) -0.0059(17) 0.0008(17) 0.0211(16)
C1 0.0360(16) 0.0513(18) 0.088(2) -0.0072(17) -0.0115(16) 0.0239(15)
C8 0.0452(19) 0.070(2) 0.091(3) -0.008(2) -0.0096(18) 0.033(2)
C4 0.0376(16) 0.0427(17) 0.090(2) -0.0041(16) -0.0069(15) 0.0193(14)
C5 0.0402(16) 0.0415(16) 0.084(2) -0.0064(15) -0.0036(15) 0.0214(14)
C6 0.0526(19) 0.0480(19) 0.093(3) -0.0036(17) -0.0053(18) 0.0313(16)
O4 0.0532(14) 0.0664(17) 0.134(2) -0.0268(15) -0.0351(15) 0.0254(13)

_geom_special_details            
;
All esds (except the esd in the dihedral angle between two l.s. planes)
are estimated using the full covariance matrix. The cell esds are taken
into account individually in the estimation of esds in distances, angles
and torsion angles; correlations between esds in cell parameters are only
used when they are defined by crystal symmetry. An approximate (isotropic)
treatment of cell esds is used for estimating esds involving l.s. planes.
;

loop_
_geom_bond_atom_site_label_1
_geom_bond_atom_site_label_2
_geom_bond_distance
_geom_bond_site_symmetry_2
_geom_bond_publ_flag
Cd1 O1 2.309(2) . ?
Cd1 O1 2.309(2) 4 ?
Cd1 O3 2.404(2) 32 ?
Cd1 O3 2.404(2) 29_445 ?
Cd1 O2 2.409(2) 32 ?
Cd1 O2 2.409(2) 29_445 ?
Cd1 O4 2.570(3) . ?
Cd1 O4 2.570(3) 4 ?
Cd1 C9 2.726(3) 32 ?
Cd1 C9 2.726(3) 29_445 ?
Cd1 C8 2.760(3) . ?
Cd1 C8 2.760(3) 4 ?
O3 C9 1.267(4) . ?
O3 Cd1 2.404(2) 33_545 ?
C7 N2 1.327(3) . ?
C7 N2 1.344(3) 2_645 ?
C7 N1 1.356(4) . ?
O1 C8 1.262(4) . ?
O2 C9 1.231(3) . ?
O2 Cd1 2.409(2) 33_545 ?
N2 C7 1.344(3) 3_765 ?
N1 C3 1.407(4) . ?
N1 H8 0.66(3) . ?
C3 C2 1.380(4) . ?
C3 C4 1.385(4) . ?
C2 C1 1.392(4) . ?
C2 H2 0.9300 . ?
C9 C5 1.513(4) . ?
C9 Cd1 2.726(3) 33_545 ?
C1 C6 1.380(4) . ?
C1 C8 1.513(4) . ?
C8 O4 1.233(4) . ?
C4 C5 1.369(4) . ?
C4 H4 0.9300 . ?
C5 C6 1.377(4) . ?
C6 H6 0.9300 . ?

loop_
_geom_angle_atom_site_label_1
_geom_angle_atom_site_label_2
_geom_angle_atom_site_label_3
_geom_angle
_geom_angle_site_symmetry_1
_geom_angle_site_symmetry_3
_geom_angle_publ_flag
O1 Cd1 O1 114.53(11) . 4 ?
O1 Cd1 O3 123.63(10) . 32 ?
O1 Cd1 O3 88.22(8) 4 32 ?
O1 Cd1 O3 88.22(8) . 29_445 ?
O1 Cd1 O3 123.63(10) 4 29_445 ?
O3 Cd1 O3 122.19(10) 32 29_445 ?
O1 Cd1 O2 91.27(9) . 32 ?
O1 Cd1 O2 142.40(8) 4 32 ?
O3 Cd1 O2 54.23(8) 32 32 ?
O3 Cd1 O2 81.75(8) 29_445 32 ?
O1 Cd1 O2 142.40(8) . 29_445 ?
O1 Cd1 O2 91.27(9) 4 29_445 ?
O3 Cd1 O2 81.75(8) 32 29_445 ?
O3 Cd1 O2 54.23(8) 29_445 29_445 ?
O2 Cd1 O2 82.29(12) 32 29_445 ?
O1 Cd1 O4 53.17(8) . . ?
O1 Cd1 O4 77.52(9) 4 . ?
O3 Cd1 O4 87.07(8) 32 . ?
O3 Cd1 O4 141.28(8) 29_445 . ?
O2 Cd1 O4 99.93(9) 32 . ?
O2 Cd1 O4 164.43(8) 29_445 . ?
O1 Cd1 O4 77.52(9) . 4 ?
O1 Cd1 O4 53.17(8) 4 4 ?
O3 Cd1 O4 141.28(8) 32 4 ?
O3 Cd1 O4 87.07(8) 29_445 4 ?
O2 Cd1 O4 164.43(8) 32 4 ?
O2 Cd1 O4 99.93(9) 29_445 4 ?
O4 Cd1 O4 82.11(13) . 4 ?
O1 Cd1 C9 110.88(10) . 32 ?
O1 Cd1 C9 115.59(9) 4 32 ?
O3 Cd1 C9 27.69(8) 32 32 ?
O3 Cd1 C9 100.41(9) 29_445 32 ?
O2 Cd1 C9 26.83(8) 32 32 ?
O2 Cd1 C9 78.13(9) 29_445 32 ?
O4 Cd1 C9 96.83(10) . 32 ?
O4 Cd1 C9 168.73(9) 4 32 ?
O1 Cd1 C9 115.59(9) . 29_445 ?
O1 Cd1 C9 110.89(10) 4 29_445 ?
O3 Cd1 C9 100.41(9) 32 29_445 ?
O3 Cd1 C9 27.69(8) 29_445 29_445 ?
O2 Cd1 C9 78.13(9) 32 29_445 ?
O2 Cd1 C9 26.83(8) 29_445 29_445 ?
O4 Cd1 C9 168.73(9) . 29_445 ?
O4 Cd1 C9 96.83(10) 4 29_445 ?
C9 Cd1 C9 86.38(13) 32 29_445 ?
O1 Cd1 C8 27.02(9) . . ?
O1 Cd1 C8 94.20(10) 4 . ?
O3 Cd1 C8 108.11(10) 32 . ?
O3 Cd1 C8 114.85(10) 29_445 . ?
O2 Cd1 C8 99.07(10) 32 . ?
O2 Cd1 C8 168.84(10) 29_445 . ?
O4 Cd1 C8 26.43(8) . . ?
O4 Cd1 C8 75.82(10) 4 . ?
C9 Cd1 C8 108.04(11) 32 . ?
C9 Cd1 C8 142.46(11) 29_445 . ?
O1 Cd1 C8 94.20(10) . 4 ?
O1 Cd1 C8 27.02(9) 4 4 ?
O3 Cd1 C8 114.85(10) 32 4 ?
O3 Cd1 C8 108.11(10) 29_445 4 ?
O2 Cd1 C8 168.84(10) 32 4 ?
O2 Cd1 C8 99.07(10) 29_445 4 ?
O4 Cd1 C8 75.82(10) . 4 ?
O4 Cd1 C8 26.43(8) 4 4 ?
C9 Cd1 C8 142.45(11) 32 4 ?
C9 Cd1 C8 108.04(11) 29_445 4 ?
C8 Cd1 C8 81.75(15) . 4 ?
C9 O3 Cd1 90.43(18) . 33_545 ?
N2 C7 N2 126.7(3) . 2_645 ?
N2 C7 N1 119.3(3) . . ?
N2 C7 N1 114.0(3) 2_645 . ?
C8 O1 Cd1 96.8(2) . . ?
C9 O2 Cd1 91.1(2) . 33_545 ?
C7 N2 C7 113.3(3) . 3_765 ?
C7 N1 C3 129.3(3) . . ?
C7 N1 H8 117(4) . . ?
C3 N1 H8 111(4) . . ?
C2 C3 C4 119.5(3) . . ?
C2 C3 N1 116.7(3) . . ?
C4 C3 N1 123.9(3) . . ?
C3 C2 C1 120.6(3) . . ?
C3 C2 H2 119.7 . . ?
C1 C2 H2 119.7 . . ?
O2 C9 O3 122.9(3) . . ?
O2 C9 C5 119.3(3) . . ?
O3 C9 C5 117.7(3) . . ?
O2 C9 Cd1 62.09(17) . 33_545 ?
O3 C9 Cd1 61.88(16) . 33_545 ?
C5 C9 Cd1 167.4(2) . 33_545 ?
C6 C1 C2 119.0(3) . . ?
C6 C1 C8 121.0(3) . . ?
C2 C1 C8 120.0(3) . . ?
O4 C8 O1 123.3(3) . . ?
O4 C8 C1 119.2(3) . . ?
O1 C8 C1 117.5(3) . . ?
O4 C8 Cd1 68.16(19) . . ?
O1 C8 Cd1 56.19(16) . . ?
C1 C8 Cd1 167.3(3) . . ?
C5 C4 C3 120.1(3) . . ?
C5 C4 H4 119.9 . . ?
C3 C4 H4 119.9 . . ?
C4 C5 C6 120.4(3) . . ?
C4 C5 C9 119.9(3) . . ?
C6 C5 C9 119.6(3) . . ?
C5 C6 C1 120.4(3) . . ?
C5 C6 H6 119.8 . . ?
C1 C6 H6 119.8 . . ?
C8 O4 Cd1 85.4(2) . . ?

_diffrn_measured_fraction_theta_max 0.999
_diffrn_reflns_theta_full        25.00
_diffrn_measured_fraction_theta_full 0.999
_refine_diff_density_max         0.787
_refine_diff_density_min         -0.961
_refine_diff_density_rms         0.051


