####################################################################### 
# 
# This file contains crystal structure data downloaded from the 
# Cambridge Structural Database (CSD) hosted by the Cambridge 
# Crystallographic Data Centre (CCDC).
# 
# Full information about CCDC data access policies and citation 
# guidelines are available at http://www.ccdc.cam.ac.uk/access/V1 
# 
# Audit and citation data items may have been added by the CCDC. 
# Please retain this information to preserve the provenance of 
# this file and to allow appropriate attribution of the data. 
# 
#######################################################################

data_1
_audit_block_doi                 10.5517/ccwgktp
_database_code_depnum_ccdc_archive 'CCDC 818363'
loop_
_citation_id
_citation_doi
_citation_year
1 10.1016/j.inoche.2011.06.018 2011
_audit_update_record             
;
2011-03-22 deposited with the CCDC.	2024-07-13 downloaded from the CCDC.
;
#TrackingRef '1.CIF'


_audit_creation_method           SHELXL-97
_chemical_name_systematic        
;
?
;
_chemical_name_common            ?
_chemical_melting_point          'not measured'
_chemical_formula_moiety         'C33 H25 Ce N4 O10'
_chemical_formula_sum            'C33 H25 Ce N4 O10'
_chemical_formula_weight         777.69

loop_
_atom_type_symbol
_atom_type_description
_atom_type_scat_dispersion_real
_atom_type_scat_dispersion_imag
_atom_type_scat_source
C C 0.0033 0.0016 'International Tables Vol C Tables 4.2.6.8 and 6.1.1.4'
H H 0.0000 0.0000 'International Tables Vol C Tables 4.2.6.8 and 6.1.1.4'
N N 0.0061 0.0033 'International Tables Vol C Tables 4.2.6.8 and 6.1.1.4'
O O 0.0106 0.0060 'International Tables Vol C Tables 4.2.6.8 and 6.1.1.4'
Ce Ce -0.2486 2.6331 'International Tables Vol C Tables 4.2.6.8 and 6.1.1.4'

_symmetry_cell_setting           Monoclinic
_symmetry_space_group_name_H-M   P2(1)/c

loop_
_symmetry_equiv_pos_as_xyz
'x, y, z'
'-x, y+1/2, -z+1/2'
'-x, -y, -z'
'x, -y-1/2, z-1/2'

_cell_length_a                   12.288(3)
_cell_length_b                   36.854(7)
_cell_length_c                   11.440(2)
_cell_angle_alpha                90.00
_cell_angle_beta                 117.642(2)
_cell_angle_gamma                90.00
_cell_volume                     4589.7(17)
_cell_formula_units_Z            4
_cell_measurement_temperature    296(2)
_cell_measurement_reflns_used    11509
_cell_measurement_theta_min      ?
_cell_measurement_theta_max      ?

_exptl_crystal_description       block
_exptl_crystal_colour            colorless
_exptl_crystal_size_max          0.2
_exptl_crystal_size_mid          0.2
_exptl_crystal_size_min          0.15
_exptl_crystal_density_meas      ?
_exptl_crystal_density_diffrn    1.125
_exptl_crystal_density_method    'not measured'
_exptl_crystal_F_000             1556
_exptl_absorpt_coefficient_mu    1.037
_exptl_absorpt_correction_type   none
_exptl_absorpt_correction_T_min  ?
_exptl_absorpt_correction_T_max  ?
_exptl_absorpt_process_details   ?

_exptl_special_details           
;
?
;

_diffrn_ambient_temperature      296(2)
_diffrn_radiation_wavelength     0.71073
_diffrn_radiation_type           MoK\a
_diffrn_radiation_source         'fine-focus sealed tube'
_diffrn_radiation_monochromator  graphite
_diffrn_measurement_device_type  ?
_diffrn_measurement_method       ?
_diffrn_detector_area_resol_mean ?
_diffrn_standards_number         ?
_diffrn_standards_interval_count ?
_diffrn_standards_interval_time  ?
_diffrn_standards_decay_%        ?
_diffrn_reflns_number            42661
_diffrn_reflns_av_R_equivalents  0.0506
_diffrn_reflns_av_sigmaI/netI    0.0521
_diffrn_reflns_limit_h_min       -16
_diffrn_reflns_limit_h_max       16
_diffrn_reflns_limit_k_min       -49
_diffrn_reflns_limit_k_max       42
_diffrn_reflns_limit_l_min       -15
_diffrn_reflns_limit_l_max       15
_diffrn_reflns_theta_min         2.21
_diffrn_reflns_theta_max         28.62
_reflns_number_total             11509
_reflns_number_gt                9058
_reflns_threshold_expression     >2sigma(I)

_computing_data_collection       ?
_computing_cell_refinement       ?
_computing_data_reduction        ?
_computing_structure_solution    'SHELXS-97 (Sheldrick, 1990)'
_computing_structure_refinement  'SHELXL-97 (Sheldrick, 1997)'
_computing_molecular_graphics    ?
_computing_publication_material  ?

_refine_special_details          
;
Refinement of F^2^ against ALL reflections. The weighted R-factor wR and
goodness of fit S are based on F^2^, conventional R-factors R are based
on F, with F set to zero for negative F^2^. The threshold expression of
F^2^ > 2sigma(F^2^) is used only for calculating R-factors(gt) etc. and is
not relevant to the choice of reflections for refinement. R-factors based
on F^2^ are statistically about twice as large as those based on F, and R-
factors based on ALL data will be even larger.
;

_refine_ls_structure_factor_coef Fsqd
_refine_ls_matrix_type           full
_refine_ls_weighting_scheme      calc
_refine_ls_weighting_details     
'calc w=1/[\s^2^(Fo^2^)+(0.0557P)^2^+17.3703P] where P=(Fo^2^+2Fc^2^)/3'
_atom_sites_solution_primary     direct
_atom_sites_solution_secondary   difmap
_atom_sites_solution_hydrogens   geom
_refine_ls_hydrogen_treatment    constr
_refine_ls_extinction_method     none
_refine_ls_extinction_coef       ?
_refine_ls_number_reflns         11509
_refine_ls_number_parameters     433
_refine_ls_number_restraints     60
_refine_ls_R_factor_all          0.0833
_refine_ls_R_factor_gt           0.0647
_refine_ls_wR_factor_ref         0.1525
_refine_ls_wR_factor_gt          0.1456
_refine_ls_goodness_of_fit_ref   1.104
_refine_ls_restrained_S_all      1.111
_refine_ls_shift/su_max          0.002
_refine_ls_shift/su_mean         0.000

loop_
_atom_site_label
_atom_site_type_symbol
_atom_site_fract_x
_atom_site_fract_y
_atom_site_fract_z
_atom_site_U_iso_or_equiv
_atom_site_adp_type
_atom_site_occupancy
_atom_site_symmetry_multiplicity
_atom_site_calc_flag
_atom_site_refinement_flags
_atom_site_disorder_assembly
_atom_site_disorder_group
O7 O 1.2738(3) 0.50633(11) -0.0387(4) 0.0388(9) Uani 1 1 d . . .
Ce1 Ce 0.62999(2) 0.536487(7) 0.13023(3) 0.02379(9) Uani 1 1 d . . .
O3 O 0.6683(3) 0.57333(10) 0.3417(4) 0.0335(8) Uani 1 1 d . . .
O8 O 0.5673(4) 0.89757(10) 0.5644(5) 0.0434(10) Uani 1 1 d . . .
O9 O 0.7446(3) 0.91424(10) 0.5752(4) 0.0362(9) Uani 1 1 d . . .
C21 C 0.6611(5) 0.89033(15) 0.5528(6) 0.0347(11) Uani 1 1 d . . .
C13 C 0.6818(6) 0.85283(15) 0.5177(6) 0.0412(14) Uani 1 1 d . . .
C43 C 0.6107(7) 0.82401(17) 0.5240(9) 0.068(2) Uani 1 1 d . . .
H43A H 0.5494 0.8283 0.5483 0.081 Uiso 1 1 calc R . .
C14 C 0.7705(7) 0.84568(16) 0.4793(7) 0.0519(17) Uani 1 1 d . . .
H14A H 0.8174 0.8647 0.4732 0.062 Uiso 1 1 calc R . .
C15 C 0.7913(7) 0.81064(17) 0.4497(8) 0.062(2) Uani 1 1 d . . .
H15A H 0.8522 0.8063 0.4247 0.074 Uiso 1 1 calc R . .
C17 C 0.6311(8) 0.78917(18) 0.4941(10) 0.072(3) Uani 1 1 d . . .
H17A H 0.5836 0.7701 0.4988 0.087 Uiso 1 1 calc R . .
C16 C 0.7215(7) 0.78238(16) 0.4574(8) 0.058(2) Uani 1 1 d . . .
N2 N 0.7400(7) 0.74543(14) 0.4315(8) 0.075(2) Uani 1 1 d . . .
H2A H 0.7075 0.7290 0.4588 0.090 Uiso 1 1 calc R . .
O1 O 1.4259(3) 0.54129(10) 0.1054(4) 0.0386(9) Uani 1 1 d . . .
N3 N 1.0028(4) 0.60491(13) 0.2125(5) 0.0413(12) Uani 1 1 d . . .
H3A H 0.9323 0.5950 0.1888 0.050 Uiso 1 1 calc R . .
C8 C 0.6980(5) 0.60195(14) 0.4044(6) 0.0375(13) Uani 1 1 d . . .
N1 N 0.6784(7) 0.60869(16) 0.5090(7) 0.077(2) Uani 1 1 d . . .
H1A H 0.7026 0.6296 0.5453 0.092 Uiso 1 1 calc R . .
C45 C 0.6231(8) 0.5861(2) 0.5680(8) 0.070(2) Uani 1 1 d U . .
O6 O 0.4921(4) 0.53163(11) 0.8889(4) 0.0402(9) Uani 1 1 d . . .
O10 O 0.8379(10) 0.75460(15) 0.3133(11) 0.167(5) Uani 1 1 d . . .
C61 C 0.6635(14) 0.5913(4) 0.6991(11) 0.150(5) Uani 1 1 d U . .
H61A H 0.7266 0.6076 0.7460 0.180 Uiso 1 1 calc R . .
C22 C 0.9266(5) 0.64612(15) 0.3195(6) 0.0399(14) Uani 1 1 d . . .
C23 C 0.9069(6) 0.68253(16) 0.3298(7) 0.0507(17) Uani 1 1 d . . .
H23A H 0.9541 0.6997 0.3140 0.061 Uiso 1 1 calc R . .
C20 C 0.5150(6) 0.54799(17) 0.6982(6) 0.0451(14) Uani 1 1 d U . .
C19 C 0.4536(5) 0.52783(14) 0.7659(5) 0.0339(11) Uani 1 1 d . . .
O5 O 0.3675(4) 0.50678(11) 0.6995(4) 0.0428(10) Uani 1 1 d . . .
O2 O 0.8588(3) 0.53044(11) 0.2937(4) 0.0406(9) Uani 1 1 d . . .
C2 C 1.2314(4) 0.54976(15) 0.0898(5) 0.0302(11) Uani 1 1 d . . .
C1 C 1.3166(5) 0.53060(14) 0.0483(6) 0.0323(11) Uani 1 1 d . . .
C9 C 0.7668(5) 0.63099(14) 0.3775(6) 0.0344(12) Uani 1 1 d . . .
C10 C 0.8646(6) 0.61940(16) 0.3523(7) 0.0508(19) Uani 1 1 d . . .
H10A H 0.8863 0.5951 0.3574 0.061 Uiso 1 1 calc R . .
C3 C 1.1089(5) 0.54081(15) 0.0408(6) 0.0390(13) Uani 1 1 d . . .
H3B H 1.0762 0.5221 -0.0203 0.047 Uiso 1 1 calc R . .
C11 C 0.7477(6) 0.66791(15) 0.3875(7) 0.0497(17) Uani 1 1 d . . .
H11A H 0.6877 0.6752 0.4105 0.060 Uiso 1 1 calc R . .
C5 C 1.0813(5) 0.58726(16) 0.1717(6) 0.0396(13) Uani 1 1 d . . .
C4 C 1.0339(5) 0.55929(15) 0.0815(6) 0.0374(13) Uani 1 1 d . . .
H4A H 0.9517 0.5528 0.0480 0.045 Uiso 1 1 calc R . .
C12 C 0.8167(7) 0.69387(16) 0.3637(8) 0.0564(19) Uani 1 1 d . . .
C7 C 1.2770(5) 0.5777(2) 0.1781(8) 0.057(2) Uani 1 1 d . . .
H7A H 1.3592 0.5842 0.2112 0.069 Uiso 1 1 calc R . .
C6 C 1.2031(6) 0.5967(2) 0.2197(8) 0.062(2) Uani 1 1 d . . .
H6A H 1.2358 0.6156 0.2797 0.074 Uiso 1 1 calc R . .
N11 N 1.0562(5) 0.51153(17) 0.3774(6) 0.0547(15) Uani 1 1 d . . .
O30 O 1.1182(5) 0.65390(16) 0.3216(8) 0.101(3) Uani 1 1 d . . .
C41 C 0.4839(6) 0.5420(2) 0.5686(6) 0.0537(17) Uani 1 1 d U . .
H41A H 0.4227 0.5252 0.5217 0.064 Uiso 1 1 calc R . .
C48 C 0.9356(6) 0.5091(2) 0.2976(7) 0.0516(16) Uani 1 1 d . . .
H48A H 0.9082 0.4894 0.2402 0.062 Uiso 1 1 calc R . .
C52 C 1.0261(6) 0.63575(18) 0.2851(8) 0.058(2) Uani 1 1 d . . .
C40 C 0.5397(6) 0.5600(2) 0.5036(6) 0.0548(18) Uani 1 1 d U . .
H40A H 0.5197 0.5541 0.4170 0.066 Uiso 1 1 calc R . .
C53 C 0.8014(10) 0.73395(18) 0.3704(11) 0.085(3) Uani 1 1 d . . .
C51 C 1.1063(7) 0.5423(2) 0.4700(9) 0.077(3) Uani 1 1 d . . .
H51A H 1.0400 0.5571 0.4649 0.115 Uiso 1 1 calc R . .
H51B H 1.1590 0.5565 0.4471 0.115 Uiso 1 1 calc R . .
H51C H 1.1525 0.5332 0.5583 0.115 Uiso 1 1 calc R . .
C50 C 1.1441(9) 0.4863(3) 0.3727(11) 0.112(4) Uani 1 1 d . . .
H50A H 1.1014 0.4676 0.3096 0.168 Uiso 1 1 calc R . .
H50B H 1.1912 0.4756 0.4582 0.168 Uiso 1 1 calc R . .
H50C H 1.1981 0.4989 0.3471 0.168 Uiso 1 1 calc R . .
C60 C 0.6082(13) 0.5714(3) 0.7630(10) 0.140(5) Uani 1 1 d U . .
H60A H 0.6371 0.5746 0.8532 0.168 Uiso 1 1 calc R . .

loop_
_atom_site_aniso_label
_atom_site_aniso_U_11
_atom_site_aniso_U_22
_atom_site_aniso_U_33
_atom_site_aniso_U_23
_atom_site_aniso_U_13
_atom_site_aniso_U_12
O7 0.033(2) 0.042(2) 0.047(2) -0.0164(18) 0.0230(19) -0.0003(16)
Ce1 0.02599(14) 0.02080(13) 0.03341(15) -0.00229(12) 0.02126(11) -0.00251(11)
O3 0.040(2) 0.0316(19) 0.033(2) -0.0026(16) 0.0203(17) -0.0053(16)
O8 0.045(2) 0.0252(19) 0.071(3) -0.0133(19) 0.036(2) -0.0024(16)
O9 0.035(2) 0.0277(18) 0.051(2) -0.0006(17) 0.0244(19) 0.0079(15)
C21 0.037(3) 0.030(3) 0.038(3) -0.002(2) 0.018(2) 0.003(2)
C13 0.056(4) 0.026(3) 0.054(4) -0.005(3) 0.037(3) 0.002(2)
C43 0.082(5) 0.033(3) 0.130(7) -0.024(4) 0.085(6) -0.009(3)
C14 0.073(5) 0.032(3) 0.076(5) -0.010(3) 0.056(4) -0.004(3)
C15 0.089(5) 0.034(3) 0.100(6) -0.012(3) 0.075(5) 0.000(3)
C17 0.097(6) 0.032(3) 0.138(8) -0.019(4) 0.096(6) -0.012(3)
C16 0.088(5) 0.024(3) 0.095(6) -0.010(3) 0.070(5) 0.000(3)
N2 0.122(6) 0.023(3) 0.139(6) -0.013(3) 0.111(6) -0.002(3)
O1 0.0281(18) 0.039(2) 0.059(3) -0.0114(18) 0.0285(19) -0.0040(15)
N3 0.034(2) 0.040(3) 0.065(3) -0.018(2) 0.036(3) -0.005(2)
C8 0.052(3) 0.031(3) 0.044(3) -0.009(2) 0.034(3) -0.010(2)
N1 0.141(6) 0.046(3) 0.099(5) -0.030(3) 0.104(5) -0.043(4)
C45 0.117(6) 0.062(4) 0.073(5) -0.032(4) 0.080(5) -0.048(4)
O6 0.048(2) 0.041(2) 0.038(2) 0.0055(18) 0.0247(19) 0.0036(18)
O10 0.323(13) 0.030(3) 0.320(12) -0.012(5) 0.296(12) -0.008(5)
C61 0.241(12) 0.170(10) 0.087(6) -0.074(6) 0.118(7) -0.157(9)
C22 0.041(3) 0.031(3) 0.064(4) -0.013(3) 0.038(3) -0.004(2)
C23 0.071(4) 0.030(3) 0.082(5) -0.018(3) 0.061(4) -0.014(3)
C20 0.066(4) 0.048(3) 0.033(3) -0.002(3) 0.032(3) -0.015(3)
C19 0.040(3) 0.029(3) 0.034(3) 0.005(2) 0.018(2) 0.001(2)
O5 0.040(2) 0.049(2) 0.034(2) 0.0037(18) 0.0126(19) -0.0153(18)
O2 0.031(2) 0.041(2) 0.047(2) 0.0007(18) 0.0156(18) 0.0051(16)
C2 0.026(2) 0.039(3) 0.033(3) -0.007(2) 0.020(2) 0.003(2)
C1 0.033(3) 0.031(3) 0.043(3) -0.001(2) 0.026(2) 0.001(2)
C9 0.046(3) 0.029(3) 0.042(3) -0.010(2) 0.032(3) -0.007(2)
C10 0.058(4) 0.040(3) 0.088(5) -0.049(3) 0.062(4) -0.041(3)
C3 0.034(3) 0.038(3) 0.055(3) -0.018(3) 0.028(3) -0.005(2)
C11 0.072(4) 0.030(3) 0.082(5) -0.012(3) 0.066(4) -0.003(3)
C5 0.037(3) 0.039(3) 0.057(4) -0.013(3) 0.034(3) 0.000(2)
C4 0.017(2) 0.044(3) 0.055(4) -0.015(3) 0.020(2) -0.004(2)
C12 0.093(5) 0.026(3) 0.091(5) -0.006(3) 0.076(5) 0.001(3)
C7 0.028(3) 0.071(4) 0.081(5) -0.045(4) 0.031(3) -0.015(3)
C6 0.035(3) 0.071(5) 0.089(5) -0.052(4) 0.036(4) -0.016(3)
N11 0.039(3) 0.075(4) 0.045(3) 0.013(3) 0.015(3) 0.018(3)
O30 0.084(4) 0.072(4) 0.197(7) -0.085(4) 0.107(5) -0.049(3)
C41 0.055(4) 0.070(5) 0.041(3) -0.008(3) 0.027(3) -0.026(3)
C48 0.035(3) 0.063(4) 0.053(4) -0.002(3) 0.018(3) 0.011(3)
C52 0.056(4) 0.044(3) 0.105(6) -0.035(4) 0.062(4) -0.020(3)
C40 0.056(4) 0.080(5) 0.036(3) -0.007(3) 0.028(3) -0.023(3)
C53 0.142(8) 0.030(3) 0.156(9) -0.017(4) 0.131(8) -0.009(4)
C51 0.043(4) 0.080(6) 0.079(6) 0.007(5) 0.005(4) -0.006(4)
C50 0.066(6) 0.165(11) 0.094(8) -0.001(7) 0.027(6) 0.061(7)
C60 0.212(10) 0.176(9) 0.066(5) -0.058(6) 0.093(6) -0.142(8)

_geom_special_details            
;
All esds (except the esd in the dihedral angle between two l.s. planes)
are estimated using the full covariance matrix. The cell esds are taken
into account individually in the estimation of esds in distances, angles
and torsion angles; correlations between esds in cell parameters are only
used when they are defined by crystal symmetry. An approximate (isotropic)
treatment of cell esds is used for estimating esds involving l.s. planes.
;

loop_
_geom_bond_atom_site_label_1
_geom_bond_atom_site_label_2
_geom_bond_distance
_geom_bond_site_symmetry_2
_geom_bond_publ_flag
O7 C1 1.258(6) . ?
O7 Ce1 2.476(3) 3_765 ?
Ce1 O1 2.396(3) 1_455 ?
Ce1 O7 2.476(3) 3_765 ?
Ce1 O6 2.487(4) 1_554 ?
Ce1 O5 2.507(4) 3_666 ?
Ce1 O9 2.549(3) 4_575 ?
Ce1 O8 2.555(4) 4_575 ?
Ce1 O2 2.564(4) . ?
Ce1 O3 2.619(4) . ?
Ce1 O6 2.880(4) 3_666 ?
Ce1 C21 2.919(5) 4_575 ?
Ce1 C19 3.036(5) 3_666 ?
O3 C8 1.232(6) . ?
O8 C21 1.248(6) . ?
O8 Ce1 2.555(4) 4_576 ?
O9 C21 1.284(6) . ?
O9 Ce1 2.549(3) 4_576 ?
C21 C13 1.493(7) . ?
C21 Ce1 2.919(5) 4_576 ?
C13 C14 1.378(8) . ?
C13 C43 1.398(8) . ?
C43 C17 1.381(9) . ?
C43 H43A 0.9300 . ?
C14 C15 1.389(8) . ?
C14 H14A 0.9300 . ?
C15 C16 1.378(9) . ?
C15 H15A 0.9300 . ?
C17 C16 1.380(9) . ?
C17 H17A 0.9300 . ?
C16 N2 1.434(7) . ?
N2 C53 1.313(8) . ?
N2 H2A 0.8600 . ?
O1 C1 1.254(6) . ?
O1 Ce1 2.396(3) 1_655 ?
N3 C52 1.357(7) . ?
N3 C5 1.411(6) . ?
N3 H3A 0.8600 . ?
C8 N1 1.348(7) . ?
C8 C9 1.483(7) . ?
N1 C45 1.427(8) . ?
N1 H1A 0.8600 . ?
C45 C40 1.348(9) . ?
C45 C61 1.357(11) . ?
O6 C19 1.267(7) . ?
O6 Ce1 2.487(4) 1_556 ?
O6 Ce1 2.880(4) 3_666 ?
O10 C53 1.216(9) . ?
C61 C60 1.412(11) . ?
C61 H61A 0.9300 . ?
C22 C23 1.378(8) . ?
C22 C10 1.399(7) . ?
C22 C52 1.498(7) . ?
C23 C12 1.398(8) . ?
C23 H23A 0.9300 . ?
C20 C60 1.349(11) . ?
C20 C41 1.366(8) . ?
C20 C19 1.505(7) . ?
C19 O5 1.246(7) . ?
C19 Ce1 3.036(5) 3_666 ?
O5 Ce1 2.507(4) 3_666 ?
O2 C48 1.214(7) . ?
C2 C7 1.367(8) . ?
C2 C3 1.381(7) . ?
C2 C1 1.510(6) . ?
C9 C11 1.394(7) . ?
C9 C10 1.425(7) . ?
C10 H10A 0.9300 . ?
C3 C4 1.389(7) . ?
C3 H3B 0.9300 . ?
C11 C12 1.387(8) . ?
C11 H11A 0.9300 . ?
C5 C6 1.378(8) . ?
C5 C4 1.381(8) . ?
C4 H4A 0.9300 . ?
C12 C53 1.496(9) . ?
C7 C6 1.394(8) . ?
C7 H7A 0.9300 . ?
C6 H6A 0.9300 . ?
N11 C48 1.335(8) . ?
N11 C50 1.445(10) . ?
N11 C51 1.477(10) . ?
O30 C52 1.210(7) . ?
C41 C40 1.390(8) . ?
C41 H41A 0.9300 . ?
C48 H48A 0.9300 . ?
C40 H40A 0.9300 . ?
C51 H51A 0.9600 . ?
C51 H51B 0.9600 . ?
C51 H51C 0.9600 . ?
C50 H50A 0.9600 . ?
C50 H50B 0.9600 . ?
C50 H50C 0.9600 . ?
C60 H60A 0.9300 . ?

loop_
_geom_angle_atom_site_label_1
_geom_angle_atom_site_label_2
_geom_angle_atom_site_label_3
_geom_angle
_geom_angle_site_symmetry_1
_geom_angle_site_symmetry_3
_geom_angle_publ_flag
C1 O7 Ce1 132.9(3) . 3_765 ?
O1 Ce1 O7 132.52(13) 1_455 3_765 ?
O1 Ce1 O6 74.76(13) 1_455 1_554 ?
O7 Ce1 O6 72.42(13) 3_765 1_554 ?
O1 Ce1 O5 76.91(14) 1_455 3_666 ?
O7 Ce1 O5 95.00(14) 3_765 3_666 ?
O6 Ce1 O5 124.98(13) 1_554 3_666 ?
O1 Ce1 O9 125.86(13) 1_455 4_575 ?
O7 Ce1 O9 85.58(13) 3_765 4_575 ?
O6 Ce1 O9 86.97(13) 1_554 4_575 ?
O5 Ce1 O9 146.73(13) 3_666 4_575 ?
O1 Ce1 O8 74.88(12) 1_455 4_575 ?
O7 Ce1 O8 128.25(14) 3_765 4_575 ?
O6 Ce1 O8 77.53(14) 1_554 4_575 ?
O5 Ce1 O8 136.68(14) 3_666 4_575 ?
O9 Ce1 O8 51.31(12) 4_575 4_575 ?
O1 Ce1 O2 145.69(14) 1_455 . ?
O7 Ce1 O2 71.10(13) 3_765 . ?
O6 Ce1 O2 139.07(13) 1_554 . ?
O5 Ce1 O2 76.34(13) 3_666 . ?
O9 Ce1 O2 72.41(13) 4_575 . ?
O8 Ce1 O2 1