####################################################################### 
# 
# This file contains crystal structure data downloaded from the 
# Cambridge Structural Database (CSD) hosted by the Cambridge 
# Crystallographic Data Centre (CCDC).
# 
# Full information about CCDC data access policies and citation 
# guidelines are available at http://www.ccdc.cam.ac.uk/access/V1 
# 
# Audit and citation data items may have been added by the CCDC. 
# Please retain this information to preserve the provenance of 
# this file and to allow appropriate attribution of the data. 
# 
#######################################################################

data_Ag2-btre-SO4
_audit_block_doi                 10.5517/cctjvhn
_database_code_depnum_ccdc_archive 'CCDC 760972'
loop_
_citation_id
_citation_doi
_citation_year
1 10.1016/j.ica.2011.07.040 2011
_audit_update_record             
;
2010-01-08 deposited with the CCDC.	2024-07-13 downloaded from the CCDC.
;
#TrackingRef '- AgbtreCIF.cif'


_audit_creation_method           SHELXL-97
_chemical_name_systematic        
;
?
;
_chemical_name_common            ?
_chemical_melting_point          ?
_chemical_formula_moiety         ?
_chemical_formula_sum            'C9 H24 Ag2 N9 O10 S'
_chemical_formula_weight         666.17

loop_
_atom_type_symbol
_atom_type_description
_atom_type_scat_dispersion_real
_atom_type_scat_dispersion_imag
_atom_type_scat_source
C C 0.0033 0.0016 'International Tables Vol C Tables 4.2.6.8 and 6.1.1.4'
H H 0.0000 0.0000 'International Tables Vol C Tables 4.2.6.8 and 6.1.1.4'
N N 0.0061 0.0033 'International Tables Vol C Tables 4.2.6.8 and 6.1.1.4'
O O 0.0106 0.0060 'International Tables Vol C Tables 4.2.6.8 and 6.1.1.4'
Ag Ag -0.8971 1.1015 'International Tables Vol C Tables 4.2.6.8 and 6.1.1.4'
S S 0.1246 0.1234 'International Tables Vol C Tables 4.2.6.8 and 6.1.1.4'


_symmetry_cell_setting           Orthorhombic
_symmetry_space_group_name_H-M   Pccn

loop_
_symmetry_equiv_pos_as_xyz
'x, y, z'
'-x+1/2, y, z+1/2'
'x, -y+1/2, z+1/2'
'-x+1/2, -y+1/2, z'
'-x, -y, -z'
'x-1/2, -y, -z-1/2'
'-x, y-1/2, -z-1/2'
'x-1/2, y-1/2, -z'

_cell_length_a                   11.4111(14)
_cell_length_b                   27.955(4)
_cell_length_c                   14.887(2)
_cell_angle_alpha                90.00
_cell_angle_beta                 90.00
_cell_angle_gamma                90.00
_cell_volume                     4748.9(11)
_cell_formula_units_Z            8
_cell_measurement_temperature    223(2)
_cell_measurement_reflns_used    14058
_cell_measurement_theta_min      3.1007
_cell_measurement_theta_max      27.4816




_exptl_crystal_description       Block
_exptl_crystal_colour            Colorless
_exptl_crystal_size_max          0.30
_exptl_crystal_size_mid          0.20
_exptl_crystal_size_min          0.15
_exptl_crystal_density_meas      ?
_exptl_crystal_density_diffrn    1.864
_exptl_crystal_density_method    'not measured'
_exptl_crystal_F_000             2648
_exptl_absorpt_coefficient_mu    1.798
_exptl_absorpt_correction_type   Multi-scan
_exptl_absorpt_correction_T_min  0.6146
_exptl_absorpt_correction_T_max  0.7742
_exptl_absorpt_process_details   Empirical



_exptl_special_details           
;
?
;

_diffrn_ambient_temperature      223(2)
_diffrn_radiation_wavelength     0.71075
_diffrn_radiation_type           MoK\a
_diffrn_radiation_source         'fine-focus sealed tube'
_diffrn_radiation_monochromator  graphite
_diffrn_measurement_device_type  'Rigaku Mercury CCD'
_diffrn_measurement_method       \w
_diffrn_detector_area_resol_mean ?
_diffrn_standards_number         0
_diffrn_standards_interval_count 0
_diffrn_standards_interval_time  0
_diffrn_standards_decay_%        0
_diffrn_reflns_number            16395
_diffrn_reflns_av_R_equivalents  0.0583
_diffrn_reflns_av_sigmaI/netI    0.1251
_diffrn_reflns_limit_h_min       -12
_diffrn_reflns_limit_h_max       14
_diffrn_reflns_limit_k_min       -31
_diffrn_reflns_limit_k_max       36
_diffrn_reflns_limit_l_min       -10
_diffrn_reflns_limit_l_max       19
_diffrn_reflns_theta_min         3.10
_diffrn_reflns_theta_max         27.48
_reflns_number_total             5416
_reflns_number_gt                4313
_reflns_threshold_expression     >2sigma(I)


_computing_data_collection       'CrystalClear (Rigaku Inc., 2008)'
_computing_cell_refinement       'CrystalClear (Rigaku Inc., 2008)'
_computing_data_reduction        'CrystalClear (Rigaku Inc., 2008)'
_computing_structure_solution    'SHELXS-97 (Sheldrick, 1990)'
_computing_structure_refinement  'SHELXL-97 (Sheldrick, 1997)'
_computing_molecular_graphics    'Bruker SHELXTL'
_computing_publication_material  'Bruker SHELXTL'

_refine_special_details          
;
Refinement of F^2^ against ALL reflections. The weighted R-factor wR and
goodness of fit S are based on F^2^, conventional R-factors R are based
on F, with F set to zero for negative F^2^. The threshold expression of
F^2^ > 2sigma(F^2^) is used only for calculating R-factors(gt) etc. and is
not relevant to the choice of reflections for refinement. R-factors based
on F^2^ are statistically about twice as large as those based on F, and R-
factors based on ALL data will be even larger.
;

_refine_ls_structure_factor_coef Fsqd
_refine_ls_matrix_type           full
_refine_ls_weighting_scheme      calc
_refine_ls_weighting_details     
'calc w=1/[\s^2^(Fo^2^)+(0.1240P)^2^+8.1006P] where P=(Fo^2^+2Fc^2^)/3'
_atom_sites_solution_primary     direct
_atom_sites_solution_secondary   difmap
_atom_sites_solution_hydrogens   geom
_refine_ls_hydrogen_treatment    mixed
_refine_ls_extinction_method     none
_refine_ls_extinction_coef       ?
_refine_ls_number_reflns         5416
_refine_ls_number_parameters     293
_refine_ls_number_restraints     3
_refine_ls_R_factor_all          0.0912
_refine_ls_R_factor_gt           0.0722
_refine_ls_wR_factor_ref         0.2291
_refine_ls_wR_factor_gt          0.2123
_refine_ls_goodness_of_fit_ref   1.079
_refine_ls_restrained_S_all      1.079
_refine_ls_shift/su_max          0.001
_refine_ls_shift/su_mean         0.000

loop_
_atom_site_label
_atom_site_type_symbol
_atom_site_fract_x
_atom_site_fract_y
_atom_site_fract_z
_atom_site_U_iso_or_equiv
_atom_site_adp_type
_atom_site_occupancy
_atom_site_symmetry_multiplicity
_atom_site_calc_flag
_atom_site_refinement_flags
_atom_site_disorder_assembly
_atom_site_disorder_group
Ag1 Ag 0.41907(5) 0.56683(2) 0.60053(4) 0.0337(2) Uani 1 1 d . . .
Ag2 Ag 0.41845(5) 0.42176(2) 0.61438(4) 0.0363(2) Uani 1 1 d . . .
S1 S 0.38098(17) 0.64200(6) 0.78036(13) 0.0355(4) Uani 1 1 d . . .
O1 O 0.3858(7) 0.3931(3) 0.7770(5) 0.0673(19) Uani 1 1 d D . .
H1W H 0.370(8) 0.370(3) 0.731(4) 0.06(3) Uiso 1 1 d D . .
H2W H 0.319(5) 0.383(3) 0.814(5) 0.05(3) Uiso 1 1 d D . .
O2 O 0.4882(6) 0.6185(3) 0.7529(6) 0.073(2) Uani 1 1 d . . .
O3 O 0.2870(6) 0.6251(3) 0.7224(5) 0.070(2) Uani 1 1 d . . .
O4 O 0.3531(6) 0.6314(2) 0.8735(4) 0.0591(17) Uani 1 1 d . . .
O5 O 0.3946(7) 0.6933(2) 0.7691(5) 0.0663(19) Uani 1 1 d . . .
O6 O 0.5017(6) 0.6112(3) 0.0080(5) 0.0664(19) Uani 1 1 d . . .
O7 O 0.4211(6) 0.6565(3) 0.1646(5) 0.0634(19) Uani 1 1 d . . .
O8 O 0.7284(10) 0.6421(4) -0.0158(10) 0.141(5) Uani 1 1 d . . .
O9 O 0.8223(9) 0.6517(4) 0.1702(11) 0.149(6) Uani 1 1 d . . .
O10 O 0.5307(14) 0.7429(5) 0.1863(19) 0.138(11) Uani 0.50 1 d P . .
O11 O 0.2500 0.7500 0.1730(9) 0.162(9) Uani 1 2 d S . .
N1 N 0.2625(5) 0.5168(2) 0.6283(4) 0.0322(13) Uani 1 1 d . . .
N2 N 0.2599(5) 0.4676(2) 0.6261(4) 0.0323(13) Uani 1 1 d . . .
N3 N 0.0842(5) 0.4937(2) 0.6609(5) 0.0299(13) Uani 1 1 d . . .
N4 N -0.4157(5) 0.5235(2) 0.6115(5) 0.0348(15) Uani 1 1 d . . .
N5 N -0.4139(5) 0.4745(2) 0.6211(5) 0.0356(15) Uani 1 1 d . . .
N6 N -0.2345(5) 0.4991(2) 0.6038(4) 0.0309(13) Uani 1 1 d . . .
N7 N 0.4096(5) 0.6321(2) 0.5148(5) 0.0349(14) Uani 1 1 d . . .
N8 N 0.4677(5) 0.63820(19) 0.4341(5) 0.0353(14) Uani 1 1 d . . .
N9 N 0.3663(6) 0.7030(2) 0.4631(5) 0.0396(15) Uani 1 1 d . . .
C1 C -0.0438(6) 0.4949(3) 0.6779(5) 0.0312(15) Uani 1 1 d . . .
H1A H -0.0633 0.5225 0.7157 0.037 Uiso 1 1 calc R . .
H1B H -0.0678 0.4658 0.7096 0.037 Uiso 1 1 calc R . .
C2 C -0.1077(7) 0.4984(3) 0.5897(6) 0.0358(17) Uani 1 1 d . . .
H2A H -0.0838 0.5277 0.5585 0.043 Uiso 1 1 calc R . .
H2B H -0.0868 0.4711 0.5517 0.043 Uiso 1 1 calc R . .
C3 C 0.1567(6) 0.5306(3) 0.6488(6) 0.0352(16) Uani 1 1 d . . .
H3A H 0.1341 0.5628 0.6543 0.042 Uiso 1 1 calc R . .
C4 C 0.1519(6) 0.4552(3) 0.6460(6) 0.0344(16) Uani 1 1 d . . .
H4A H 0.1253 0.4234 0.6493 0.041 Uiso 1 1 calc R . .
C5 C -0.3068(6) 0.5366(3) 0.6013(5) 0.0334(16) Uani 1 1 d . . .
H5A H -0.2823 0.5684 0.5932 0.040 Uiso 1 1 calc R . .
C6 C -0.3051(7) 0.4608(3) 0.6147(5) 0.0362(16) Uani 1 1 d . . .
H6A H -0.2795 0.4289 0.6173 0.043 Uiso 1 1 calc R . .
C7 C 0.3162(7) 0.7516(3) 0.4566(6) 0.047(2) Uani 1 1 d . . .
H7A H 0.3432 0.7670 0.4013 0.056 Uiso 1 1 calc R . .
H7B H 0.3426 0.7709 0.5077 0.056 Uiso 1 1 calc R . .
C8 C 0.3503(7) 0.6709(2) 0.5294(5) 0.0371(17) Uani 1 1 d . . .
H8A H 0.3024 0.6760 0.5799 0.045 Uiso 1 1 calc R . .
C9 C 0.4381(7) 0.6807(3) 0.4045(6) 0.043(2) Uani 1 1 d . . .
H9A H 0.4635 0.6938 0.3498 0.052 Uiso 1 1 calc R . .

loop_
_atom_site_aniso_label
_atom_site_aniso_U_11
_atom_site_aniso_U_22
_atom_site_aniso_U_33
_atom_site_aniso_U_23
_atom_site_aniso_U_13
_atom_site_aniso_U_12
Ag1 0.0305(3) 0.0289(3) 0.0417(4) 0.0062(2) 0.0008(2) 0.0039(2)
Ag2 0.0295(3) 0.0355(4) 0.0438(4) -0.0028(2) 0.0042(2) 0.0087(2)
S1 0.0424(9) 0.0297(8) 0.0344(10) 0.0017(7) 0.0012(8) 0.0010(8)
O1 0.074(4) 0.077(5) 0.052(5) 0.016(4) 0.004(4) 0.016(4)
O2 0.068(4) 0.067(4) 0.086(6) 0.016(4) 0.020(4) 0.033(4)
O3 0.075(4) 0.085(5) 0.052(5) -0.007(4) -0.017(4) -0.020(4)
O4 0.075(4) 0.068(4) 0.035(4) 0.013(3) 0.002(3) -0.023(4)
O5 0.108(5) 0.030(3) 0.061(5) -0.001(3) 0.011(4) -0.004(3)
O6 0.085(5) 0.063(4) 0.051(4) -0.005(3) -0.003(4) 0.015(4)
O7 0.069(4) 0.069(4) 0.053(4) -0.008(4) -0.006(3) 0.021(3)
O8 0.117(8) 0.107(8) 0.198(15) -0.022(8) 0.021(9) -0.008(7)
O9 0.086(6) 0.115(9) 0.246(18) -0.006(9) -0.045(8) -0.008(6)
O10 0.065(9) 0.038(7) 0.31(3) -0.053(12) 0.083(15) -0.012(7)
O11 0.36(3) 0.085(9) 0.045(7) 0.000 0.000 -0.113(13)
N1 0.026(3) 0.031(3) 0.039(4) 0.002(3) -0.002(2) 0.001(3)
N2 0.030(3) 0.031(3) 0.036(3) 0.002(3) 0.003(2) 0.002(3)
N3 0.023(3) 0.035(3) 0.032(3) -0.001(2) 0.001(2) 0.001(2)
N4 0.030(3) 0.028(3) 0.046(4) 0.000(3) 0.005(3) 0.007(2)
N5 0.030(3) 0.032(3) 0.045(4) 0.003(3) 0.003(3) 0.003(3)
N6 0.025(3) 0.033(3) 0.035(3) 0.002(2) 0.002(2) -0.001(2)
N7 0.042(3) 0.027(3) 0.035(3) 0.006(3) 0.007(3) 0.009(2)
N8 0.046(3) 0.023(3) 0.038(4) 0.004(3) 0.013(3) 0.009(3)
N9 0.054(4) 0.029(3) 0.036(4) 0.005(3) 0.011(3) 0.012(3)
C1 0.018(3) 0.039(4) 0.036(4) 0.000(3) 0.004(3) 0.003(3)
C2 0.024(3) 0.046(4) 0.037(4) 0.007(3) 0.001(3) 0.001(3)
C3 0.028(3) 0.033(3) 0.045(5) -0.003(3) -0.005(3) 0.000(3)
C4 0.023(3) 0.036(4) 0.044(4) -0.006(3) -0.004(3) -0.006(3)
C5 0.027(3) 0.034(4) 0.040(4) 0.004(3) -0.003(3) 0.000(3)
C6 0.037(4) 0.038(4) 0.033(4) -0.005(3) 0.001(3) 0.003(3)
C7 0.066(5) 0.029(3) 0.046(5) 0.013(4) 0.005(4) 0.015(4)
C8 0.047(4) 0.033(4) 0.031(4) 0.008(3) 0.012(3) 0.008(3)
C9 0.058(5) 0.037(4) 0.035(4) 0.006(3) 0.018(4) 0.016(4)

_geom_special_details            
;
All esds (except the esd in the dihedral angle between two l.s. planes)
are estimated using the full covariance matrix. The cell esds are taken
into account individually in the estimation of esds in distances, angles
and torsion angles; correlations between esds in cell parameters are only
used when they are defined by crystal symmetry. An approximate (isotropic)
treatment of cell esds is used for estimating esds involving l.s. planes.
;

loop_
_geom_bond_atom_site_label_1
_geom_bond_atom_site_label_2
_geom_bond_distance
_geom_bond_site_symmetry_2
_geom_bond_publ_flag
Ag1 N7 2.230(6) . ?
Ag1 N4 2.246(6) 1_655 ?
Ag1 N1 2.306(6) . ?
Ag2 N2 2.223(6) . ?
Ag2 N8 2.240(5) 5_666 ?
Ag2 N5 2.418(6) 1_655 ?
Ag2 O1 2.576(8) . ?
S1 O2 1.447(7) . ?
S1 O5 1.452(6) . ?
S1 O4 1.453(6) . ?
S1 O3 1.455(7) . ?
O1 H1W 0.96(3) . ?
O1 H2W 0.98(3) . ?
N1 C3 1.302(9) . ?
N1 N2 1.379(9) . ?
N2 C4 1.314(9) . ?
N3 C3 1.334(9) . ?
N3 C4 1.344(9) . ?
N3 C1 1.483(8) . ?
N4 C5 1.305(9) . ?
N4 N5 1.378(10) . ?
N4 Ag1 2.246(6) 1_455 ?
N5 C6 1.303(10) . ?
N5 Ag2 2.418(6) 1_455 ?
N6 C5 1.337(9) . ?
N6 C6 1.348(10) . ?
N6 C2 1.461(10) . ?
N7 C8 1.297(9) . ?
N7 N8 1.382(9) . ?
N8 C9 1.311(10) . ?
N8 Ag2 2.240(5) 5_666 ?
N9 C8 1.346(9) . ?
N9 C9 1.349(10) . ?
N9 C7 1.477(9) . ?
C1 C2 1.506(11) . ?
C1 H1A 0.9800 . ?
C1 H1B 0.9800 . ?
C2 H2A 0.9800 . ?
C2 H2B 0.9800 . ?
C3 H3A 0.9400 . ?
C4 H4A 0.9400 . ?
C5 H5A 0.9400 . ?
C6 H6A 0.9400 . ?
C7 C7 1.514(16) 4_565 ?
C7 H7A 0.9800 . ?
C7 H7B 0.9800 . ?
C8 H8A 0.9400 . ?
C9 H9A 0.9400 . ?

loop_
_geom_angle_atom_site_label_1
_geom_angle_atom_site_label_2
_geom_angle_atom_site_label_3
_geom_angle
_geom_angle_site_symmetry_1
_geom_angle_site_symmetry_3
_geom_angle_publ_flag
N7 Ag1 N4 121.6(2) . 1_655 ?
N7 Ag1 N1 124.1(2) . . ?
N4 Ag1 N1 108.1(2) 1_655 . ?
N2 Ag2 N8 158.1(2) . 5_666 ?
N2 Ag2 N5 106.8(2) . 1_655 ?
N8 Ag2 N5 90.6(2) 5_666 1_655 ?
N2 Ag2 O1 89.3(2) . . ?
N8 Ag2 O1 98.9(2) 5_666 . ?
N5 Ag2 O1 105.4(3) 1_655 . ?
O2 S1 O5 108.9(4) . . ?
O2 S1 O4 111.2(4) . . ?
O5 S1 O4 109.6(4) . . ?
O2 S1 O3 108.0(5) . . ?
O5 S1 O3 109.3(5) . . ?
O4 S1 O3 109.8(4) . . ?
Ag2 O1 H1W 64(5) . . ?
Ag2 O1 H2W 137(5) . . ?
H1W O1 H2W 94(3) . . ?
C3 N1 N2 106.3(6) . . ?
C3 N1 Ag1 125.6(5) . . ?
N2 N1 Ag1 128.2(4) . . ?
C4 N2 N1 106.1(5) . . ?
C4 N2 Ag2 129.0(5) . . ?
N1 N2 Ag2 124.1(4) . . ?
C3 N3 C4 103.9(6) . . ?
C3 N3 C1 128.1(6) . . ?
C4 N3 C1 127.7(6) . . ?
C5 N4 N5 106.1(5) . . ?
C5 N4 Ag1 129.8(5) . 1_455 ?
N5 N4 Ag1 123.8(4) . 1_455 ?
C6 N5 N4 107.4(6) . . ?
C6 N5 Ag2 124.9(6) . 1_455 ?
N4 N5 Ag2 126.2(4) . 1_455 ?
C5 N6 C6 104.9(7) . . ?
C5 N6 C2 128.1(6) . . ?
C6 N6 C2 126.8(6) . . ?
C8 N7 N8 107.0(6) . . ?
C8 N7 Ag1 127.9(5) . . ?
N8 N7 Ag1 125.1(4) . . ?
C9 N8 N7 106.3(6) . . ?
C9 N8 Ag2 136.0(5) . 5_666 ?
N7 N8 Ag2 117.8(4) . 5_666 ?
C8 N9 C9 104.4(6) . . ?
C8 N9 C7 127.4(6) . . ?
C9 N9 C7 128.2(7) . . ?
N3 C1 C2 109.3(6) . . ?
N3 C1 H1A 109.8 . . ?
C2 C1 H1A 109.8 . . ?
N3 C1 H1B 109.8 . . ?
C2 C1 H1B 109.8 . . ?
H1A C1 H1B 108.3 . . ?
N6 C2 C1 110.8(7) . . ?
N6 C2 H2A 109.5 . . ?
C1 C2 H2A 109.5 . . ?
N6 C2 H2B 109.5 . . ?
C1 C2 H2B 109.5 . . ?
H2A C2 H2B 108.1 . . ?
N1 C3 N3 112.3(6) . . ?
N1 C3 H3A 123.9 . . ?
N3 C3 H3A 123.9 . . ?
N2 C4 N3 111.4(6) . . ?
N2 C4 H4A 124.3 . . ?
N3 C4 H4A 124.3 . . ?
N4 C5 N6 111.4(7) . . ?
N4 C5 H5A 124.3 . . ?
N6 C5 H5A 124.3 . . ?
N5 C6 N6 110.2(7) . . ?
N5 C6 H6A 124.9 . . ?
N6 C6 H6A 124.9 . . ?
N9 C7 C7 109.4(8) . 4_565 ?
N9 C7 H7A 109.8 . . ?
C7 C7 H7A 109.8 4_565 . ?
N9 C7 H7B 109.8 . . ?
C7 C7 H7B 109.8 4_565 . ?
H7A C7 H7B 108.2 . . ?
N7 C8 N9 111.3(7) . . ?
N7 C8 H8A 124.4 . . ?
N9 C8 H8A 124.4 . . ?
N8 C9 N9 111.0(7) . . ?
N8 C9 H9A 124.5 . . ?
N9 C9 H9A 124.5 . . ?

loop_
_geom_torsion_atom_site_label_1
_geom_torsion_atom_site_label_2
_geom_torsion_atom_site_label_3
_geom_torsion_atom_site_label_4
_geom_torsion
_geom_torsion_site_symmetry_1
_geom_torsion_site_symmetry_2
_geom_torsion_site_symmetry_3
_geom_torsion_site_symmetry_4
_geom_torsion_publ_flag
N7 Ag1 N1 C3 -44.7(7) . . . . ?
N4 Ag1 N1 C3 162.8(6) 1_655 . . . ?
N7 Ag1 N1 N2 134.6(5) . . . . ?
N4 Ag1 N1 N2 -18.0(6) 1_655 . . . ?
C3 N1 N2 C4 -0.3(8) . . . . ?
Ag1 N1 N2 C4 -179.7(5) . . . . ?
C3 N1 N2 Ag2 -170.8(5) . . . . ?
Ag1 N1 N2 Ag2 9.8(8) . . . . ?
N8 Ag2 N2 C4 55.3(10) 5_666 . . . ?
N5 Ag2 N2 C4 -163.0(6) 1_655 . . . ?
O1 Ag2 N2 C4 -57.2(7) . . . . ?
N8 Ag2 N2 N1 -136.4(6) 5_666 . . . ?
N5 Ag2 N2 N1 5.2(6) 1_655 . . . ?
O1 Ag2 N2 N1 111.1(6) . . . . ?
C5 N4 N5 C6 -1.0(8) . . . . ?
Ag1 N4 N5 C6 172.6(5) 1_455 . . . ?
C5 N4 N5 Ag2 -167.3(5) . . . 1_455 ?
Ag1 N4 N5 Ag2 6.3(8) 1_455 . . 1_455 ?
N4 Ag1 N7 C8 -145.6(6) 1_655 . . . ?
N1 Ag1 N7 C8 65.4(7) . . . . ?
N4 Ag1 N7 N8 34.7(7) 1_655 . . . ?
N1 Ag1 N7 N8 -114.4(6) . . . . ?
C8 N7 N8 C9 -0.7(9) . . . . ?
Ag1 N7 N8 C9 179.1(6) . . . . ?
C8 N7 N8 Ag2 179.7(5) . . . 5_666 ?
Ag1 N7 N8 Ag2 -0.5(8) . . . 5_666 ?
C3 N3 C1 C2 84.5(9) . . . . ?
C4 N3 C1 C2 -88.8(9) . . . . ?
C5 N6 C2 C1 102.2(9) . . . . ?
C6 N6 C2 C1 -83.8(9) . . . . ?
N3 C1 C2 N6 179.3(6) . . . . ?
N2 N1 C3 N3 0.5(9) . . . . ?
Ag1 N1 C3 N3 179.8(5) . . . . ?
C4 N3 C3 N1 -0.4(9) . . . . ?
C1 N3 C3 N1 -174.9(7) . . . . ?
N1 N2 C4 N3 0.0(9) . . . . ?
Ag2 N2 C4 N3 169.9(5) . . . . ?
C3 N3 C4 N2 0.2(9) . . . . ?
C1 N3 C4 N2 174.8(7) . . . . ?
N5 N4 C5 N6 -0.1(9) . . . . ?
Ag1 N4 C5 N6 -173.2(5) 1_455 . . . ?
C6 N6 C5 N4 1.1(9) . . . . ?
C2 N6 C5 N4 176.1(7) . . . . ?
N4 N5 C6 N6 1.8(9) . . . . ?
Ag2 N5 C6 N6 168.3(5) 1_455 . . . ?
C5 N6 C6 N5 -1.8(9) . . . . ?
C2 N6 C6 N5 -176.8(7) . . . . ?
C8 N9 C7 C7 -59.9(9) . . . 4_565 ?
C9 N9 C7 C7 120.3(8) . . . 4_565 ?
N8 N7 C8 N9 -0.5(9) . . . . ?
Ag1 N7 C8 N9 179.7(5) . . . . ?
C9 N9 C8 N7 1.5(10) . . . . ?
C7 N9 C8 N7 -178.4(7) . . . . ?
N7 N8 C9 N9 1.7(10) . . . . ?
Ag2 N8 C9 N9 -178.8(6) 5_666 . . . ?
C8 N9 C9 N8 -1.9(10) . . . . ?
C7 N9 C9 N8 177.9(8) . . . . ?

loop_
_geom_hbond_atom_site_label_D
_geom_hbond_atom_site_label_H
_geom_hbond_atom_site_label_A
_geom_hbond_distance_DH
_geom_hbond_distance_HA
_geom_hbond_distance_DA
_geom_hbond_angle_DHA
_geom_hbond_site_symmetry_A
O1 H2W O9 0.98(3) 1.90(5) 2.797(14) 151(7) 5_666

_diffrn_measured_fraction_theta_max 0.992
_diffrn_reflns_theta_full        27.48
_diffrn_measured_fraction_theta_full 0.992
_refine_diff_density_max         1.329
_refine_diff_density_min         -1.084
_refine_diff_density_rms         0.152
