####################################################################### 
# 
# This file contains crystal structure data downloaded from the 
# Cambridge Structural Database (CSD) hosted by the Cambridge 
# Crystallographic Data Centre (CCDC).
# 
# Full information about CCDC data access policies and citation 
# guidelines are available at http://www.ccdc.cam.ac.uk/access/V1 
# 
# Audit and citation data items may have been added by the CCDC. 
# Please retain this information to preserve the provenance of 
# this file and to allow appropriate attribution of the data. 
# 
#######################################################################

data_060627f
_audit_block_doi                 10.5517/ccnzvhy
_database_code_depnum_ccdc_archive 'CCDC 625471'
loop_
_citation_id
_citation_doi
_citation_year
1 10.1080/00958970902902713 2009
_audit_update_record             
;
2006-10-26 deposited with the CCDC.	2024-07-13 downloaded from the CCDC.
;

_audit_creation_method           SHELXL-97
_chemical_name_systematic        
;
?
;
_chemical_name_common            ?
_chemical_melting_point          ?
_chemical_formula_moiety         ?
_chemical_formula_sum            'C12 H12 N2 O6 Zn'
_chemical_formula_weight         345.6

loop_
_atom_type_symbol
_atom_type_description
_atom_type_scat_dispersion_real
_atom_type_scat_dispersion_imag
_atom_type_scat_source
C C 0.0033 0.0016 'International Tables Vol C Tables 4.2.6.8 and 6.1.1.4'
H H 0.0000 0.0000 'International Tables Vol C Tables 4.2.6.8 and 6.1.1.4'
N N 0.0061 0.0033 'International Tables Vol C Tables 4.2.6.8 and 6.1.1.4'
O O 0.0106 0.0060 'International Tables Vol C Tables 4.2.6.8 and 6.1.1.4'
Zn Zn 0.2839 1.4301 'International Tables Vol C Tables 4.2.6.8 and 6.1.1.4'

_symmetry_cell_setting           Hexagonal
_symmetry_space_group_name_H-M   P6(2)

loop_
_symmetry_equiv_pos_as_xyz
'x, y, z'
'x-y, x, z+1/3'
'-y, x-y, z+2/3'
'-x, -y, z'
'-x+y, -x, z+1/3'
'y, -x+y, z+2/3'

_cell_length_a                   15.512(3)
_cell_length_b                   15.512(3)
_cell_length_c                   6.262(2)
_cell_angle_alpha                90.00
_cell_angle_beta                 90.00
_cell_angle_gamma                120.00
_cell_volume                     1304.9(5)
_cell_formula_units_Z            3
_cell_measurement_temperature    298(2)
_cell_measurement_reflns_used    3323
_cell_measurement_theta_min      2.626
_cell_measurement_theta_max      25.735

_exptl_crystal_description       needlelike
_exptl_crystal_colour            colorless
_exptl_crystal_size_max          0.46
_exptl_crystal_size_mid          0.33
_exptl_crystal_size_min          0.30
_exptl_crystal_density_meas      1.253
_exptl_crystal_density_diffrn    1.251
_exptl_crystal_density_method    'not measured'
_exptl_crystal_F_000             498
_exptl_absorpt_coefficient_mu    1.427
_exptl_absorpt_correction_type   multi-scan
_exptl_absorpt_correction_T_min  0.5598
_exptl_absorpt_correction_T_max  0.6742
_exptl_absorpt_process_details   sadabs

_exptl_special_details           
;
?
;

_diffrn_ambient_temperature      298(2)
_diffrn_radiation_wavelength     0.71073
_diffrn_radiation_type           MoK\a
_diffrn_radiation_source         'fine-focus sealed tube'
_diffrn_radiation_monochromator  graphite
_diffrn_measurement_device_type  'CCD area detector'
_diffrn_measurement_method       'phi and omega scans'
_diffrn_detector_area_resol_mean ?
_diffrn_standards_number         ?
_diffrn_standards_interval_count ?
_diffrn_standards_interval_time  ?
_diffrn_standards_decay_%        ?
_diffrn_reflns_number            6528
_diffrn_reflns_av_R_equivalents  0.0346
_diffrn_reflns_av_sigmaI/netI    0.0304
_diffrn_reflns_limit_h_min       -18
_diffrn_reflns_limit_h_max       16
_diffrn_reflns_limit_k_min       -18
_diffrn_reflns_limit_k_max       18
_diffrn_reflns_limit_l_min       -7
_diffrn_reflns_limit_l_max       7
_diffrn_reflns_theta_min         3.03
_diffrn_reflns_theta_max         24.97
_reflns_number_total             1482
_reflns_number_gt                1356
_reflns_threshold_expression     >2sigma(I)

_computing_data_collection       'Bruker SMART'
_computing_cell_refinement       'Bruker SMART'
_computing_data_reduction        'Bruker SMART'
_computing_structure_solution    'SHELXS-97 (Sheldrick, 1990)'
_computing_structure_refinement  'SHELXL-97 (Sheldrick, 1997)'
_computing_molecular_graphics    'Bruker SHELXTL'
_computing_publication_material  'Bruker SHELXTL'

_refine_special_details          
;
Refinement of F^2^ against ALL reflections. The weighted R-factor wR and
goodness of fit S are based on F^2^, conventional R-factors R are based
on F, with F set to zero for negative F^2^. The threshold expression of
F^2^ > 2sigma(F^2^) is used only for calculating R-factors(gt) etc. and is
not relevant to the choice of reflections for refinement. R-factors based
on F^2^ are statistically about twice as large as those based on F, and R-
factors based on ALL data will be even larger.
;

_refine_ls_structure_factor_coef Fsqd
_refine_ls_matrix_type           full
_refine_ls_weighting_scheme      calc
_refine_ls_weighting_details     
'calc w=1/[\s^2^(Fo^2^)+(0.0447P)^2^+0.2289P] where P=(Fo^2^+2Fc^2^)/3'
_atom_sites_solution_primary     direct
_atom_sites_solution_secondary   difmap
_atom_sites_solution_hydrogens   geom
_refine_ls_hydrogen_treatment    constr
_refine_ls_extinction_method     none
_refine_ls_extinction_coef       ?
_refine_ls_abs_structure_details 'Flack H D (1983), Acta Cryst. A39, 876-881'
_refine_ls_abs_structure_Flack   -0.01(2)
_refine_ls_number_reflns         1482
_refine_ls_number_parameters     100
_refine_ls_number_restraints     7
_refine_ls_R_factor_all          0.0371
_refine_ls_R_factor_gt           0.0309
_refine_ls_wR_factor_ref         0.0783
_refine_ls_wR_factor_gt          0.0742
_refine_ls_goodness_of_fit_ref   1.089
_refine_ls_restrained_S_all      1.092
_refine_ls_shift/su_max          0.000
_refine_ls_shift/su_mean         0.000

loop_
_atom_site_label
_atom_site_type_symbol
_atom_site_fract_x
_atom_site_fract_y
_atom_site_fract_z
_atom_site_U_iso_or_equiv
_atom_site_adp_type
_atom_site_occupancy
_atom_site_symmetry_multiplicity
_atom_site_calc_flag
_atom_site_refinement_flags
_atom_site_disorder_assembly
_atom_site_disorder_group
Zn1 Zn 0.5000 1.0000 0.14960(11) 0.03371(17) Uani 1 2 d S . .
N1 N 0.61831(19) 1.09490(18) 0.3296(5) 0.0383(6) Uani 1 1 d . . .
O1 O 0.51939(19) 0.91458(16) -0.0501(4) 0.0455(6) Uani 1 1 d . . .
O2 O 0.5596(3) 0.8585(2) 0.2362(5) 0.0650(9) Uani 1 1 d . . .
O3 O 0.767(2) 0.934(2) 0.463(6) 0.118(4) Uani 0.153(7) 1 d PU A 1
O3' O 0.7629(9) 0.8133(10) 0.480(3) 0.118(4) Uani 0.347(7) 1 d P A 2
C1 C 0.5423(3) 0.8561(3) 0.0461(6) 0.0423(9) Uani 1 1 d . . .
C2 C 0.5379(3) 0.7737(3) -0.0928(6) 0.0390(8) Uani 1 1 d . . .
C3 C 0.5731(3) 0.7130(2) -0.0169(7) 0.0472(8) Uani 1 1 d . . .
H3 H 0.6019 0.7236 0.1179 0.057 Uiso 1 1 calc R . .
C4 C 0.6371(3) 1.0724(2) 0.5228(6) 0.0473(9) Uani 1 1 d . . .
H4 H 0.5971 1.0081 0.5739 0.057 Uiso 1 1 calc R . .
C5 C 0.6780(3) 1.1872(3) 0.2568(6) 0.0489(9) Uani 1 1 d . . .
H5 H 0.6658 1.2039 0.1220 0.059 Uiso 1 1 calc R . .
C6 C 0.4984(3) 0.7566(3) -0.2933(6) 0.0469(10) Uani 1 1 d . . .
H6 H 0.4767 0.7978 -0.3507 0.056 Uiso 1 1 calc R . .

loop_
_atom_site_aniso_label
_atom_site_aniso_U_11
_atom_site_aniso_U_22
_atom_site_aniso_U_33
_atom_site_aniso_U_23
_atom_site_aniso_U_13
_atom_site_aniso_U_12
Zn1 0.0406(3) 0.0216(2) 0.0322(3) 0.000 0.000 0.0104(2)
N1 0.0421(14) 0.0272(13) 0.0356(15) 0.0021(13) 0.0018(14) 0.0097(11)
O1 0.0670(16) 0.0341(11) 0.0421(14) 0.0014(11) 0.0041(12) 0.0303(12)
O2 0.113(3) 0.0621(18) 0.0380(16) -0.0080(13) -0.0096(15) 0.0574(19)
O3 0.093(6) 0.113(6) 0.123(7) -0.010(7) -0.011(6) 0.034(5)
O3' 0.093(6) 0.113(6) 0.123(7) -0.010(7) -0.011(6) 0.034(5)
C1 0.056(2) 0.0341(18) 0.037(2) -0.0022(15) 0.0029(16) 0.0225(17)
C2 0.0453(19) 0.0346(17) 0.042(2) 0.0013(14) 0.0043(15) 0.0236(15)
C3 0.063(2) 0.0484(18) 0.0387(19) -0.0028(19) -0.0123(19) 0.0344(17)
C4 0.054(2) 0.0288(16) 0.045(2) 0.0036(15) -0.0042(17) 0.0095(15)
C5 0.047(2) 0.0374(19) 0.040(2) 0.0072(15) -0.0024(16) 0.0042(17)
C6 0.079(3) 0.047(2) 0.036(2) -0.0026(15) -0.0061(17) 0.047(2)

_geom_special_details            
;
All esds (except the esd in the dihedral angle between two l.s. planes)
are estimated using the full covariance matrix. The cell esds are taken
into account individually in the estimation of esds in distances, angles
and torsion angles; correlations between esds in cell parameters are only
used when they are defined by crystal symmetry. An approximate (isotropic)
treatment of cell esds is used for estimating esds involving l.s. planes.
;

loop_
_geom_bond_atom_site_label_1
_geom_bond_atom_site_label_2
_geom_bond_distance
_geom_bond_site_symmetry_2
_geom_bond_publ_flag
Zn1 O1 1.952(2) 4_675 ?
Zn1 O1 1.952(2) . ?
Zn1 N1 2.026(3) . ?
Zn1 N1 2.026(3) 4_675 ?
N1 C4 1.331(5) . ?
N1 C5 1.337(4) . ?
O1 C1 1.279(4) . ?
O2 C1 1.217(4) . ?
C1 C2 1.518(5) . ?
C2 C6 1.364(5) . ?
C2 C3 1.387(5) . ?
C3 C4 1.372(5) 2_654 ?
C3 H3 0.9300 . ?
C4 C3 1.372(5) 6_565 ?
C4 H4 0.9300 . ?
C5 C6 1.375(5) 6_565 ?
C5 H5 0.9300 . ?
C6 C5 1.375(5) 2_654 ?
C6 H6 0.9300 . ?

loop_
_geom_angle_atom_site_label_1
_geom_angle_atom_site_label_2
_geom_angle_atom_site_label_3
_geom_angle
_geom_angle_site_symmetry_1
_geom_angle_site_symmetry_3
_geom_angle_publ_flag
O1 Zn1 O1 100.30(15) 4_675 . ?
O1 Zn1 N1 104.74(10) 4_675 . ?
O1 Zn1 N1 117.31(10) . . ?
O1 Zn1 N1 117.31(10) 4_675 4_675 ?
O1 Zn1 N1 104.74(10) . 4_675 ?
N1 Zn1 N1 112.37(17) . 4_675 ?
C4 N1 C5 117.7(3) . . ?
C4 N1 Zn1 123.6(2) . . ?
C5 N1 Zn1 118.6(3) . . ?
C1 O1 Zn1 111.8(2) . . ?
O2 C1 O1 125.0(4) . . ?
O2 C1 C2 120.2(4) . . ?
O1 C1 C2 114.6(3) . . ?
C6 C2 C3 118.3(3) . . ?
C6 C2 C1 121.2(3) . . ?
C3 C2 C1 120.5(3) . . ?
C4 C3 C2 118.9(4) 2_654 . ?
C4 C3 H3 120.6 2_654 . ?
C2 C3 H3 120.6 . . ?
N1 C4 C3 123.0(3) . 6_565 ?
N1 C4 H4 118.5 . . ?
C3 C4 H4 118.5 6_565 . ?
N1 C5 C6 122.6(4) . 6_565 ?
N1 C5 H5 118.7 . . ?
C6 C5 H5 118.7 6_565 . ?
C2 C6 C5 119.5(3) . 2_654 ?
C2 C6 H6 120.3 . . ?
C5 C6 H6 120.3 2_654 . ?

loop_
_geom_torsion_atom_site_label_1
_geom_torsion_atom_site_label_2
_geom_torsion_atom_site_label_3
_geom_torsion_atom_site_label_4
_geom_torsion
_geom_torsion_site_symmetry_1
_geom_torsion_site_symmetry_2
_geom_torsion_site_symmetry_3
_geom_torsion_site_symmetry_4
_geom_torsion_publ_flag
O1 Zn1 N1 C4 158.2(3) 4_675 . . . ?
O1 Zn1 N1 C4 -91.7(3) . . . . ?
N1 Zn1 N1 C4 29.7(3) 4_675 . . . ?
O1 Zn1 N1 C5 -18.0(3) 4_675 . . . ?
O1 Zn1 N1 C5 92.2(3) . . . . ?
N1 Zn1 N1 C5 -146.4(3) 4_675 . . . ?
O1 Zn1 O1 C1 174.5(3) 4_675 . . . ?
N1 Zn1 O1 C1 61.9(3) . . . . ?
N1 Zn1 O1 C1 -63.5(3) 4_675 . . . ?
Zn1 O1 C1 O2 -6.6(5) . . . . ?
Zn1 O1 C1 C2 168.2(2) . . . . ?
O2 C1 C2 C6 165.9(4) . . . . ?
O1 C1 C2 C6 -9.2(5) . . . . ?
O2 C1 C2 C3 -13.2(6) . . . . ?
O1 C1 C2 C3 171.7(3) . . . . ?
C6 C2 C3 C4 -1.4(6) . . . 2_654 ?
C1 C2 C3 C4 177.7(3) . . . 2_654 ?
C5 N1 C4 C3 1.4(6) . . . 6_565 ?
Zn1 N1 C4 C3 -174.8(3) . . . 6_565 ?
C4 N1 C5 C6 -0.1(6) . . . 6_565 ?
Zn1 N1 C5 C6 176.2(3) . . . 6_565 ?
C3 C2 C6 C5 2.6(6) . . . 2_654 ?
C1 C2 C6 C5 -176.5(4) . . . 2_654 ?

_diffrn_measured_fraction_theta_max 0.970
_diffrn_reflns_theta_full        24.97
_diffrn_measured_fraction_theta_full 0.970
_refine_diff_density_max         0.270
_refine_diff_density_min         -0.175
_refine_diff_density_rms         0.060


