####################################################################### 
# 
# This file contains crystal structure data downloaded from the 
# Cambridge Structural Database (CSD) hosted by the Cambridge 
# Crystallographic Data Centre (CCDC).
# 
# Full information about CCDC data access policies and citation 
# guidelines are available at http://www.ccdc.cam.ac.uk/access/V1 
# 
# Audit and citation data items may have been added by the CCDC. 
# Please retain this information to preserve the provenance of 
# this file and to allow appropriate attribution of the data. 
# 
#######################################################################

data_010227d
_audit_block_doi                 10.5517/cc6b1xg
_database_code_depnum_ccdc_archive 'CCDC 188415'
loop_
_citation_id
_citation_doi
_citation_year
1 10.1002/1521-3773(20021202)41:23<4471::AID-ANIE4471>3.0.CO;2-9 2002
_audit_update_record             
;
2002-06-25 deposited with the CCDC.	2024-07-13 downloaded from the CCDC.
;

_audit_creation_method           SHELXL-97
_chemical_name_systematic        
; 
? 
;
_chemical_name_common            ?
_chemical_melting_point          ?
_chemical_formula_moiety         ?
_chemical_formula_sum            'C16 H16 N2 O6 Zn'
_chemical_formula_weight         397.68

loop_
_atom_type_symbol
_atom_type_description
_atom_type_scat_dispersion_real
_atom_type_scat_dispersion_imag
_atom_type_scat_source
C C 0.0033 0.0016 'International Tables Vol C Tables 4.2.6.8 and 6.1.1.4'
H H 0.0000 0.0000 'International Tables Vol C Tables 4.2.6.8 and 6.1.1.4'
N N 0.0061 0.0033 'International Tables Vol C Tables 4.2.6.8 and 6.1.1.4'
O O 0.0106 0.0060 'International Tables Vol C Tables 4.2.6.8 and 6.1.1.4'
Zn Zn 0.2839 1.4301 'International Tables Vol C Tables 4.2.6.8 and 6.1.1.4'

_symmetry_cell_setting           ?
_symmetry_space_group_name_H-M   ?

loop_
_symmetry_equiv_pos_as_xyz
'x, y, z'
'-y, x-y, z+1/3'
'-x+y, -x, z+2/3'

_cell_length_a                   15.526(5)
_cell_length_b                   15.526(5)
_cell_length_c                   6.258(3)
_cell_angle_alpha                90.00
_cell_angle_beta                 90.00
_cell_angle_gamma                120.00
_cell_volume                     1306.4(8)
_cell_formula_units_Z            3
_cell_measurement_temperature    298(2)
_cell_measurement_reflns_used    ?
_cell_measurement_theta_min      ?
_cell_measurement_theta_max      ?

_exptl_crystal_description       ?
_exptl_crystal_colour            ?
_exptl_crystal_size_max          ?
_exptl_crystal_size_mid          ?
_exptl_crystal_size_min          ?
_exptl_crystal_density_meas      ?
_exptl_crystal_density_diffrn    1.516
_exptl_crystal_density_method    'not measured'
_exptl_crystal_F_000             612
_exptl_absorpt_coefficient_mu    1.444
_exptl_absorpt_correction_type   ?
_exptl_absorpt_correction_T_min  ?
_exptl_absorpt_correction_T_max  ?
_exptl_absorpt_process_details   ?

_exptl_special_details           
; 
? 
;

_diffrn_ambient_temperature      298(2)
_diffrn_radiation_wavelength     0.71073
_diffrn_radiation_type           MoK\a
_diffrn_radiation_source         'fine-focus sealed tube'
_diffrn_radiation_monochromator  graphite
_diffrn_measurement_device_type  ?
_diffrn_measurement_method       ?
_diffrn_detector_area_resol_mean ?
_diffrn_standards_number         ?
_diffrn_standards_interval_count ?
_diffrn_standards_interval_time  ?
_diffrn_standards_decay_%        ?
_diffrn_reflns_number            6517
_diffrn_reflns_av_R_equivalents  0.0364
_diffrn_reflns_av_sigmaI/netI    0.0510
_diffrn_reflns_limit_h_min       -19
_diffrn_reflns_limit_h_max       18
_diffrn_reflns_limit_k_min       -15
_diffrn_reflns_limit_k_max       19
_diffrn_reflns_limit_l_min       -7
_diffrn_reflns_limit_l_max       7
_diffrn_reflns_theta_min         1.51
_diffrn_reflns_theta_max         27.07
_reflns_number_total             3664
_reflns_number_gt                3152
_reflns_threshold_expression     >2sigma(I)

_computing_data_collection       ?
_computing_cell_refinement       ?
_computing_data_reduction        ?
_computing_structure_solution    'SHELXS-97 (Sheldrick, 1990)'
_computing_structure_refinement  'SHELXL-97 (Sheldrick, 1997)'
_computing_molecular_graphics    ?
_computing_publication_material  ?

_refine_special_details          
; 
Refinement of F^2^ against ALL reflections.  The weighted R-factor wR and 
goodness of fit S are based on F^2^, conventional R-factors R are based 
on F, with F set to zero for negative F^2^. The threshold expression of 
F^2^ > 2sigma(F^2^) is used only for calculating R-factors(gt) etc. and is 
not relevant to the choice of reflections for refinement.  R-factors based 
on F^2^ are statistically about twice as large as those based on F, and R- 
factors based on ALL data will be even larger. 
;

_refine_ls_structure_factor_coef Fsqd
_refine_ls_matrix_type           full
_refine_ls_weighting_scheme      calc
_refine_ls_weighting_details     
'calc w=1/[\s^2^(Fo^2^)+(0.1197P)^2^+0.0000P] where P=(Fo^2^+2Fc^2^)/3'
_atom_sites_solution_primary     direct
_atom_sites_solution_secondary   difmap
_atom_sites_solution_hydrogens   geom
_refine_ls_hydrogen_treatment    mixed
_refine_ls_extinction_method     none
_refine_ls_extinction_coef       ?
_refine_ls_abs_structure_details 'Flack H D (1983), Acta Cryst. A39, 876-881'
_refine_ls_abs_structure_Flack   0.04(3)
_refine_ls_number_reflns         3664
_refine_ls_number_parameters     180
_refine_ls_number_restraints     1
_refine_ls_R_factor_all          0.0792
_refine_ls_R_factor_gt           0.0642
_refine_ls_wR_factor_ref         0.1902
_refine_ls_wR_factor_gt          0.1722
_refine_ls_goodness_of_fit_ref   1.155
_refine_ls_restrained_S_all      1.154
_refine_ls_shift/su_max          1.771
_refine_ls_shift/su_mean         0.117

loop_
_atom_site_label
_atom_site_type_symbol
_atom_site_fract_x
_atom_site_fract_y
_atom_site_fract_z
_atom_site_U_iso_or_equiv
_atom_site_adp_type
_atom_site_occupancy
_atom_site_symmetry_multiplicity
_atom_site_calc_flag
_atom_site_refinement_flags
_atom_site_disorder_assembly
_atom_site_disorder_group
Zn1 Zn 0.83327(6) 0.16661(6) 0.04845(15) 0.0330(2) Uani 1 1 d . . .
O1 O 0.7288(4) 0.1480(4) 0.2481(8) 0.0440(12) Uani 1 1 d . . .
O2 O 0.9385(4) 0.1863(4) 0.2485(8) 0.0431(12) Uani 1 1 d . . .
N2 N 0.8090(5) 0.0472(5) -0.1313(10) 0.0369(13) Uani 1 1 d . . .
N1 N 0.8581(5) 0.2859(5) -0.1317(9) 0.0371(13) Uani 1 1 d . . .
C5 C 1.0188(6) 0.2077(7) 0.1499(14) 0.0459(18) Uani 1 1 d . . .
C6 C 0.6483(6) 0.1260(6) 0.1513(14) 0.0429(17) Uani 1 1 d . . .
O3 O 0.6319(5) 0.1078(6) -0.0400(9) 0.0611(18) Uani 1 1 d . . .
C8 C 1.0975(5) 0.2047(6) 0.2921(11) 0.0363(15) Uani 1 1 d . . .
C9 C 0.8418(6) -0.0109(6) -0.0572(13) 0.0431(17) Uani 1 1 d . . .
O4 O 1.0344(5) 0.2250(6) -0.0402(10) 0.0627(18) Uani 1 1 d . . .
C11 C 0.5691(5) 0.1275(6) 0.2907(12) 0.0385(16) Uani 1 1 d . . .
C12 C 0.4722(6) 0.0919(6) 0.2120(13) 0.0459(18) Uani 1 1 d . . .
C13 C 1.0721(6) 0.1635(7) 0.4924(13) 0.0460(18) Uani 1 1 d . . .
C14 C 0.5934(6) 0.1693(7) 0.4922(13) 0.0475(18) Uani 1 1 d . . .
C15 C 1.1943(6) 0.2409(7) 0.2126(13) 0.0470(18) Uani 1 1 d . . .
C16 C 0.8260(7) 0.3458(6) -0.0563(13) 0.0447(18) Uani 1 1 d . . .
C17 C 0.7680(6) 0.0313(6) -0.3262(13) 0.0454(18) Uani 1 1 d . . .
C18 C 0.8979(6) 0.3033(6) -0.3275(13) 0.0434(17) Uani 1 1 d . . .
O5 O 0.1004(17) 0.4764(19) 0.046(4) 0.247(9) Uiso 1 1 d . . .
O6 O 0.559(2) 0.865(2) 0.051(5) 0.307(13) Uiso 1 1 d . . .

loop_
_atom_site_aniso_label
_atom_site_aniso_U_11
_atom_site_aniso_U_22
_atom_site_aniso_U_33
_atom_site_aniso_U_23
_atom_site_aniso_U_13
_atom_site_aniso_U_12
Zn1 0.0400(4) 0.0394(4) 0.0324(3) 0.0003(3) 0.0001(3) 0.0293(4)
O1 0.041(3) 0.068(4) 0.037(3) -0.002(2) -0.001(2) 0.038(3)
O2 0.039(3) 0.064(3) 0.039(3) -0.005(2) -0.003(2) 0.035(3)
N2 0.045(3) 0.037(3) 0.038(3) 0.001(2) -0.001(3) 0.027(3)
N1 0.048(4) 0.036(3) 0.036(3) 0.003(2) 0.005(3) 0.028(3)
C5 0.046(4) 0.061(5) 0.041(4) -0.004(4) -0.008(3) 0.034(4)
C6 0.036(4) 0.054(5) 0.049(5) 0.002(3) 0.006(3) 0.031(4)
O3 0.061(4) 0.111(6) 0.031(3) -0.010(3) -0.003(2) 0.058(4)
C8 0.033(3) 0.054(4) 0.036(4) -0.004(3) -0.002(3) 0.032(3)
C9 0.062(5) 0.040(4) 0.039(4) 0.000(3) -0.002(3) 0.035(4)
O4 0.062(4) 0.107(6) 0.035(3) 0.006(3) -0.001(3) 0.053(4)
C11 0.034(3) 0.057(4) 0.037(4) 0.002(3) 0.006(3) 0.031(3)
C12 0.034(4) 0.055(4) 0.042(4) -0.008(3) -0.002(3) 0.017(3)
C13 0.040(4) 0.074(6) 0.039(4) 0.001(4) 0.004(3) 0.040(4)
C14 0.036(4) 0.074(6) 0.042(4) -0.004(4) -0.005(3) 0.034(4)
C15 0.040(4) 0.058(5) 0.044(4) 0.008(3) 0.001(3) 0.025(4)
C16 0.070(5) 0.037(4) 0.035(4) 0.003(3) 0.009(4) 0.032(4)
C17 0.056(5) 0.048(4) 0.046(4) -0.004(3) -0.006(3) 0.037(4)
C18 0.050(4) 0.049(4) 0.047(4) 0.006(3) 0.007(3) 0.038(4)

_geom_special_details            
; 
All esds (except the esd in the dihedral angle between two l.s. planes) 
are estimated using the full covariance matrix.  The cell esds are taken 
into account individually in the estimation of esds in distances, angles 
and torsion angles; correlations between esds in cell parameters are only 
used when they are defined by crystal symmetry.  An approximate (isotropic) 
treatment of cell esds is used for estimating esds involving l.s. planes. 
;

loop_
_geom_bond_atom_site_label_1
_geom_bond_atom_site_label_2
_geom_bond_distance
_geom_bond_site_symmetry_2
_geom_bond_publ_flag
Zn1 O1 1.951(5) . ?
Zn1 O2 1.957(5) . ?
Zn1 N1 2.033(6) . ?
Zn1 N2 2.036(6) . ?
O1 C6 1.273(9) . ?
O2 C5 1.278(10) . ?
N2 C9 1.322(9) . ?
N2 C17 1.340(10) . ?
N1 C18 1.337(10) . ?
N1 C16 1.342(9) . ?
C5 O4 1.217(10) . ?
C5 C8 1.531(10) . ?
C6 O3 1.227(10) . ?
C6 C11 1.518(10) . ?
C8 C13 1.373(10) . ?
C8 C15 1.406(10) . ?
C9 C13 1.416(11) 2_644 ?
C11 C14 1.381(10) . ?
C11 C12 1.406(10) . ?
C12 C18 1.378(11) 3_665 ?
C13 C9 1.416(11) 3_765 ?
C14 C16 1.394(11) 3_665 ?
C15 C17 1.398(11) 3_765 ?
C16 C14 1.394(11) 2_654 ?
C17 C15 1.398(11) 2_644 ?
C18 C12 1.378(11) 2_654 ?

loop_
_geom_angle_atom_site_label_1
_geom_angle_atom_site_label_2
_geom_angle_atom_site_label_3
_geom_angle
_geom_angle_site_symmetry_1
_geom_angle_site_symmetry_3
_geom_angle_publ_flag
O1 Zn1 O2 100.4(2) . . ?
O1 Zn1 N1 104.8(2) . . ?
O2 Zn1 N1 116.7(3) . . ?
O1 Zn1 N2 117.2(3) . . ?
O2 Zn1 N2 104.8(2) . . ?
N1 Zn1 N2 112.8(2) . . ?
C6 O1 Zn1 111.5(5) . . ?
C5 O2 Zn1 111.2(5) . . ?
C9 N2 C17 120.2(7) . . ?
C9 N2 Zn1 117.9(5) . . ?
C17 N2 Zn1 121.7(5) . . ?
C18 N1 C16 118.4(6) . . ?
C18 N1 Zn1 123.4(5) . . ?
C16 N1 Zn1 118.0(5) . . ?
O4 C5 O2 126.2(7) . . ?
O4 C5 C8 120.1(7) . . ?
O2 C5 C8 113.7(7) . . ?
O3 C6 O1 126.1(7) . . ?
O3 C6 C11 119.2(7) . . ?
O1 C6 C11 114.6(7) . . ?
C13 C8 C15 120.7(6) . . ?
C13 C8 C5 119.8(6) . . ?
C15 C8 C5 119.5(7) . . ?
N2 C9 C13 123.3(7) . 2_644 ?
C14 C11 C12 119.5(6) . . ?
C14 C11 C6 119.9(6) . . ?
C12 C11 C6 120.5(7) . . ?
C18 C12 C11 118.1(7) 3_665 . ?
C8 C13 C9 116.5(6) . 3_765 ?
C16 C14 C11 118.0(6) 3_665 . ?
C17 C15 C8 118.5(7) 3_765 . ?
N1 C16 C14 122.9(7) . 2_654 ?
N2 C17 C15 120.8(7) . 2_644 ?
N1 C18 C12 123.1(6) . 2_654 ?

_diffrn_measured_fraction_theta_max 0.996
_diffrn_reflns_theta_full        27.07
_diffrn_measured_fraction_theta_full 0.996
_refine_diff_density_max         0.956
_refine_diff_density_min         -0.536
_refine_diff_density_rms         0.231

