
#######################################################################
#
#                 Cambridge Crystallographic Data Centre
#                                CCDC
#
#######################################################################
#
# If this CIF has been generated from an entry in the Cambridge
# Structural Database, then it will include bibliographic, chemical,
# crystal, experimental, refinement or atomic coordinate data resulting
# from the CCDC's data processing and validation procedures.
#
#######################################################################

data_CSD_CIF_VADNET
_audit_creation_date 1989-07-31
_audit_creation_method CSD-ConQuest-V1
_database_code_CSD VADNET
_database_code_depnum_ccdc_archive 'CCDC 1278863'
_chemical_formula_sum 'C68 H134 Cl2 N8 O53'
_chemical_formula_moiety
;
C68 H78 Cl2 N8 O25,28(H2 O1)
;
_journal_coden_Cambridge 4
_journal_volume 110
_journal_year 1988
_journal_page_first 7896
_journal_name_full 'J.Am.Chem.Soc. '
loop_
_publ_author_name
"R.Nagarajan"
"K.E.Merkel"
"K.H.Michel"
"H.M.Higgins Junior"
"M.M.Hoehn"
"A.H.Hunt"
"N.D.Jones"
"J.L.Occolowitz"
"A.A.Schabel"
"J.K.Swartzendruber"
_chemical_name_systematic
;
Vancomycin M43A hydrate
;
_chemical_name_common
;
Desvancosamine M43A hydrate; Teaching Subset: Drug Molecules
;
_cell_volume  10129.723
_exptl_crystal_colour 'colorless'
_exptl_crystal_density_diffrn 1.33
_diffrn_ambient_temperature ?
_diffrn_special_details
;
The study was carried out at room temperature,in the range 283-303K

;
_refine_special_details
;
Text states disordered Cl atom is in structure 7; this is assumed to be a 
misprint for structure 6. Cl2 is disordered over two positions; Cl2a has 
occupancy 0.9 and Cl2b has occupancy 0.1. Only the dominant site retained.
;
#These two values have been output from a single CSD field.
_refine_ls_R_factor_gt 0.127
_refine_ls_wR_factor_gt 0.127
_chemical_compound_source
;
Amycolatopsis orientalis
;
_symmetry_cell_setting orthorhombic
_symmetry_space_group_name_H-M 'P 21 21 21'
_symmetry_Int_Tables_number 19
loop_
_symmetry_equiv_pos_site_id
_symmetry_equiv_pos_as_xyz
1 x,y,z
2 1/2+x,1/2-y,-z
3 -x,1/2+y,1/2-z
4 1/2-x,-y,1/2+z
_cell_length_a 14.018(2)
_cell_length_b 21.460(5)
_cell_length_c 33.673(8)
_cell_angle_alpha 90
_cell_angle_beta 90
_cell_angle_gamma 90
_cell_formula_units_Z 4
loop_
_atom_type_symbol
_atom_type_radius_bond
C 0.68
H 0.23
Cl 0.99
N 0.68
O 0.68
loop_
_atom_site_label
_atom_site_type_symbol
_atom_site_fract_x
_atom_site_fract_y
_atom_site_fract_z
C1 C 0.6026(20) 1.3223(11) 0.1013(7)
O1 O 0.6371(18) 1.3361(7) 0.0679(6)
O2 O 0.5503(19) 1.3541(8) 0.1218(5)
C2 C 0.6274(17) 1.2562(8) 0.1157(6)
N1 N 0.6396(15) 1.2112(7) 0.0849(4)
C3 C 0.7032(16) 1.2526(9) 0.1469(6)
C4 C 0.7175(18) 1.1970(9) 0.1706(6)
C5 C 0.7856(17) 1.2001(9) 0.1988(6)
O3 O 0.7960(11) 1.1470(6) 0.2232(5)
C6 C 0.8380(21) 1.2501(11) 0.2061(7)
C7 C 0.8263(20) 1.3019(12) 0.1830(7)
O4 O 0.8750(16) 1.3577(8) 0.1921(5)
C8 C 0.7666(19) 1.3020(9) 0.1554(6)
C9 C 0.5621(23) 1.1844(11) 0.0675(7)
O5 O 0.4817(14) 1.2006(8) 0.0724(6)
C10 C 0.5846(18) 1.1215(9) 0.0433(6)
N2 N 0.5123(14) 1.0803(8) 0.0490(5)
C11 C 0.5969(22) 1.1330(9) -0.0020(7)
O6 O 0.5233(14) 1.1594(6) -0.0191(4)
C12 C 0.6288(17) 1.0675(9) -0.0191(6)
C13 C 0.7180(18) 1.0449(8) -0.0133(5)
C14 C 0.7402(18) 0.9809(11) -0.0235(6)
Cl1 Cl 0.8485(5) 0.9508(3) -0.0175(2)
C15 C 0.6600(19) 0.9438(9) -0.0359(5)
C16 C 0.5683(18) 0.9689(9) -0.0416(6)
C17 C 0.5573(17) 1.0317(10) -0.0327(6)
C18 C 0.5052(15) 1.0257(9) 0.0696(6)
O7 O 0.4392(11) 0.9921(7) 0.0699(5)
C19 C 0.5896(17) 1.0103(8) 0.0971(5)
N3 N 0.5888(12) 0.9425(6) 0.1040(4)
C20 C 0.5929(16) 1.0506(8) 0.1334(5)
C21 C 0.6596(16) 1.0984(9) 0.1378(6)
C22 C 0.6469(16) 1.1452(8) 0.1671(5)
C23 C 0.5774(16) 1.1382(8) 0.1930(5)
O8 O 0.5657(13) 1.1816(6) 0.2235(4)
C24 C 0.5101(16) 1.089(1) 0.1902(6)
C25 C 0.5142(15) 1.0456(9) 0.1593(6)
C26 C 0.6694(15) 0.9094(9) 0.1066(5)
O9 O 0.7484(11) 0.9316(5) 0.1094(4)
C27 C 0.6553(14) 0.8378(7) 0.1019(5)
N4 N 0.7183(11) 0.8064(6) 0.1290(4)
C28 C 0.6691(12) 0.8198(7) 0.0590(5)
C29 C 0.6919(12) 0.7585(8) 0.0506(5)
C30 C 0.7019(13) 0.7387(7) 0.0123(5)
O10 O 0.7258(10) 0.6769(5) 0.0017(3)
C31 C 0.6984(12) 0.7778(8) -0.0197(5)
O11 O 0.7118(8) 0.7600(5) -0.0573(3)
C32 C 0.6765(14) 0.8424(8) -0.0103(5)
O12 O 0.6755(11) 0.8811(5) -0.0429(3)
C33 C 0.6653(14) 0.8610(8) 0.0292(5)
C34 C 0.6442(21) 0.6928(11) 0.2281(7)
O13 O 0.5705(15) 0.6603(7) 0.2291(4)
O14 O 0.6521(16) 0.7408(8) 0.2503(5)
C35 C 0.7239(16) 0.6756(8) 0.2022(6)
N5 N 0.6986(11) 0.6204(7) 0.1779(4)
C36 C 0.7639(17) 0.7283(9) 0.1766(6)
C37 C 0.6872(16) 0.7605(9) 0.1527(6)
O15 O 0.6055(11) 0.7450(7) 0.1532(5)
C38 C 0.7466(17) 0.5684(11) 0.1788(7)
O16 O 0.8252(13) 0.5622(8) 0.1936(7)
C39 C 0.7024(17) 0.5100(9) 0.1598(6)
N6 N 0.6971(12) 0.4624(7) 0.1884(4)
C40 C 0.7470(19) 0.4895(10) 0.1216(7)
O17 O 0.8364(15) 0.4682(8) 0.1266(6)
C41 C 0.7436(17) 0.5411(9) 0.0890(6)
C42 C 0.8173(16) 0.5790(9) 0.0833(6)
C43 C 0.8090(7) 0.6236(9) 0.0525(7)
Cl2 Cl 0.9070(5) 0.6694(3) 0.0403(2)
C44 C 0.7317(18) 0.6329(9) 0.0320(6)
C45 C 0.6480(18) 0.5928(9) 0.0370(6)
C46 C 0.6621(19) 0.5487(10) 0.0677(7)
C47 C 0.6326(22) 0.4582(9) 0.2144(7)
O18 O 0.5621(12) 0.4922(7) 0.2164(5)
C48 C 0.6469(19) 0.4100(9) 0.2484(5)
N7 N 0.5529(14) 0.3665(7) 0.2521(5)
C49 C 0.6710(21) 0.4454(11) 0.2887(7)
C50 C 0.7674(21) 0.4719(14) 0.290(1)
C51 C 0.7732(22) 0.5176(18) 0.3260(12)
C52 C 0.8343(27) 0.4305(21) 0.2938(14)
C53 C 0.5864(20) 0.3093(9) 0.2762(7)
C54 C 0.5255(20) 0.345(1) 0.2113(6)
C55 C 0.4711(17) 0.3941(10) 0.2700(7)
C56 C 0.6338(15) 0.7537(8) -0.0807(5)
O19 O 0.5780(9) 0.7005(6) -0.0660(4)
C57 C 0.6522(13) 0.7469(8) -0.1229(5)
O20 O 0.6981(9) 0.7998(5) -0.1371(3)
C58 C 0.5654(14) 0.7327(8) -0.1465(5)
O21 O 0.5895(10) 0.7249(7) -0.1873(3)
C59 C 0.5100(14) 0.6769(9) -0.1299(5)
O22 O 0.4247(10) 0.6673(6) -0.1501(4)
C60 C 0.4932(15) 0.6836(9) -0.0859(5)
C61 C 0.4530(18) 0.6285(13) -0.0646(8)
O23 O 0.5164(16) 0.5785(9) -0.0700(8)
C62 C 0.7900(15) 0.7890(9) -0.1549(5)
O24 O 0.8581(9) 0.7744(5) -0.1266(4)
C63 C 0.8225(15) 0.8459(9) -0.1786(5)
C64 C 0.8526(15) 0.9000(9) -0.1528(6)
N8 N 0.9060(15) 0.9460(8) -0.1787(5)
C65 C 0.9174(15) 0.8790(8) -0.1222(5)
O25 O 1.0117(10) 0.8652(6) -0.1368(4)
C66 C 0.8801(14) 0.8219(8) -0.0993(5)
C67 C 0.9388(15) 0.7971(9) -0.0665(6)
C68 C 0.7670(18) 0.9342(10) -0.1353(7)
H1 H 0.57010 1.24410 0.12930
H2 H 0.70260 1.19990 0.07640
H3 H 0.88380 1.25000 0.22730
H4 H 0.76350 1.33840 0.13890
H5 H 0.64340 1.10440 0.05310
H6 H 0.45400 1.09220 0.03610
H7 H 0.64460 1.16390 -0.00750
H8 H 0.76660 1.07130 -0.00230
H9 H 0.51630 0.94400 -0.05120
H10 H 0.49560 1.05030 -0.03620
H11 H 0.64910 1.02060 0.08470
H12 H 0.52880 0.92140 0.10660
H13 H 0.71440 1.09990 0.12080
H14 H 0.46060 1.08560 0.20980
H15 H 0.46620 1.01410 0.15580
H16 H 0.59150 0.82520 0.10860
H17 H 0.78410 0.81870 0.13030
H18 H 0.70090 0.72950 0.07200
H19 H 0.65480 0.90420 0.03510
H20 H 0.77550 0.66510 0.21980
H21 H 0.64440 0.62300 0.16060
H22 H 0.81040 0.71140 0.15870
H23 H 0.79370 0.75840 0.19360
H24 H 0.63930 0.52090 0.15120
H25 H 0.74590 0.43110 0.18830
H26 H 0.70820 0.45560 0.11240
H27 H 0.87350 0.57650 0.09950
H28 H 0.60960 0.52170 0.07390
H29 H 0.70040 0.38360 0.24250
H30 H 0.66490 0.41620 0.31020
H31 H 0.62570 0.47850 0.29220
H32 H 0.77750 0.49210 0.26490
H33 H 0.72400 0.54850 0.32380
H34 H 0.83440 0.53770 0.32630
H35 H 0.76470 0.49470 0.35030
H36 H 0.83360 0.40260 0.27160
H37 H 0.82390 0.40730 0.31780
H38 H 0.89490 0.45120 0.29510
H39 H 0.64040 0.29060 0.26340
H40 H 0.53550 0.27940 0.27780
H41 H 0.60400 0.32240 0.30240
H42 H 0.57960 0.32610 0.19870
H43 H 0.50460 0.38000 0.19590
H44 H 0.47470 0.31510 0.21320
H45 H 0.48690 0.40860 0.29610
H46 H 0.42120 0.36360 0.27180
H47 H 0.44980 0.42850 0.25410
H48 H 0.59930 0.79220 -0.07870
H49 H 0.69310 0.71130 -0.12600
H50 H 0.52320 0.76780 -0.14450
H51 H 0.54870 0.64060 -0.13380
H52 H 0.44530 0.71550 -0.08500
H53 H 0.39180 0.61800 -0.07560
H54 H 0.44630 0.63770 -0.03690
H55 H 0.78340 0.75400 -0.17250
H56 H 0.77080 0.85910 -0.19530
H57 H 0.87580 0.83410 -0.19490
H58 H 0.86630 0.96030 -0.20000
H59 H 0.96080 0.92520 -0.18940
H60 H 0.92620 0.98100 -0.16300
H61 H 0.92170 0.91370 -0.10430
H62 H 0.82470 0.83750 -0.08580
H63 H 0.95230 0.82980 -0.04790
H64 H 0.99760 0.78110 -0.07700
H65 H 0.90480 0.76430 -0.05340
H66 H 0.72560 0.94700 -0.15650
H67 H 0.78950 0.97030 -0.12130
H68 H 0.73250 0.90770 -0.11740
O26 O 0.8277(19) 0.1590(12) 0.0624(7)
O27 O 0.4093(11) 0.8594(7) 0.1199(4)
O28 O 0.4955(18) 0.4162(11) 0.0349(7)
O29 O 0.0689(16) 0.656(1) 0.2208(6)
O30 O 0.2928(14) 0.5314(9) 0.2476(5)
O31 O 0.4639(14) 0.4611(9) 0.1219(5)
O32 O 0.2422(14) 0.8968(9) 0.0733(5)
O33 O 0.0777(22) 0.2135(13) 0.0065(9)
O34 O 0.9820(18) 0.8364(11) 0.2502(7)
O35 O 0.0415(25) 0.0426(16) 0.0357(10)
O36 O 0.8254(28) 0.3826(18) 0.0574(11)
O37 O 0.9057(27) 0.9509(17) 0.1746(10)
O38 O 0.7680(23) 0.8395(15) 0.2569(9)
O39 O 0.2643(27) 0.4005(16) 0.1776(10)
O40 O 0.3032(21) 0.1431(13) 0.1043(8)
O41 O 0.3334(24) 0.3140(15) 0.1256(10)
O42 O 0.0765(25) 0.1252(16) 0.2306(10)
O43 O 0.7362(34) 0.9352(21) 0.2005(13)
O44 O 0.8797(26) 0.0354(16) 0.0385(10)
O45 O 0.2853(28) 0.0234(18) 0.0284(11)
O46 O 0.0851(26) 0.4866(16) 0.2446(10)
O47 O 0.0164(29) 0.5736(18) 0.1594(11)
O48 O 0.3043(21) 0.2116(13) 0.1731(8)
O49 O 0.9773(25) 0.3606(16) 0.1022(10)
O50 O 0.9742(27) 0.2277(17) 0.1136(11)
O51 O 0.9666(33) 0.0755(21) 0.1757(13)
O52 O 0.1415(33) 0.1326(21) 0.0774(13)
O53 O 0.0699(25) 0.4544(16) 0.1544(9)
#END
