
#######################################################################
#
#                 Cambridge Crystallographic Data Centre
#                                CCDC
#
#######################################################################
#
# If this CIF has been generated from an entry in the Cambridge
# Structural Database, then it will include bibliographic, chemical,
# crystal, experimental, refinement or atomic coordinate data resulting
# from the CCDC's data processing and validation procedures.
#
#######################################################################

data_CSD_CIF_VADRAU
_audit_creation_date 2003-03-19
_audit_creation_method CSD-ConQuest-V1
_database_code_CSD VADRAU
_database_code_depnum_ccdc_archive 'CCDC 202969'
_chemical_formula_sum 'C4 H12 Pb1'
_chemical_formula_moiety
;
C4 H12 Pb1
;
_journal_coeditor_code "IUCr YA6144"
_journal_coden_Cambridge 1370
_journal_volume 59
_journal_year 2003
_journal_page_first m11
_journal_name_full 'Acta Crystallogr.,Sect.E:Struct.Rep.Online '
loop_
_publ_author_name
"H.Fleischer"
"S.Parsons"
"C.R.Pulham"
_chemical_name_systematic
;
Tetramethyl-lead(iv)
;
_chemical_name_common
;
Teaching Subset: Fundamental Chemistry, Symmetry
;
_chemical_melting_point 243
_cell_volume   1394.605
_exptl_crystal_colour 'colorless'
_exptl_crystal_density_diffrn 2.546
_exptl_special_details
;
isostructural with the Sn analogue

;
_exptl_crystal_description 'cylinder'
_diffrn_ambient_temperature 150
#These two values have been output from a single CSD field.
_refine_ls_R_factor_gt 0.033
_refine_ls_wR_factor_gt 0.033
_symmetry_cell_setting cubic
_symmetry_space_group_name_H-M 'P a -3'
_symmetry_Int_Tables_number 205
loop_
_symmetry_equiv_pos_site_id
_symmetry_equiv_pos_as_xyz
1 x,y,z
2 y,z,x
3 z,x,y
4 1/2-x,-y,1/2+z
5 1/2-y,-z,1/2+x
6 1/2-z,-x,1/2+y
7 1/2+y,1/2-z,-x
8 1/2+z,1/2-x,-y
9 -z,1/2+x,1/2-y
10 -x,1/2+y,1/2-z
11 -y,1/2+z,1/2-x
12 1/2+x,1/2-y,-z
13 -x,-y,-z
14 -y,-z,-x
15 -z,-x,-y
16 -1/2+x,y,-1/2-z
17 -1/2+y,z,-1/2-x
18 -1/2+z,x,-1/2-y
19 -1/2-y,-1/2+z,x
20 -1/2-z,-1/2+x,y
21 z,-1/2-x,-1/2+y
22 x,-1/2-y,-1/2+z
23 y,-1/2-z,-1/2+x
24 -1/2-x,-1/2+y,z
_cell_length_a 11.1725(6)
_cell_length_b 11.1725(6)
_cell_length_c 11.1725(6)
_cell_angle_alpha 90
_cell_angle_beta 90
_cell_angle_gamma 90
_cell_formula_units_Z 8
loop_
_atom_type_symbol
_atom_type_radius_bond
C 0.68
H 0.23
Pb 1.54
loop_
_atom_site_label
_atom_site_type_symbol
_atom_site_fract_x
_atom_site_fract_y
_atom_site_fract_z
Pb1 Pb 0.872030(14) 0.372030(14) 0.127970(14)
C1 C 0.7586(8) 0.2586(8) 0.2414(8)
C2 C 0.9865(8) 0.2561(6) 0.0148(5)
H1 H 0.70710 0.31090 0.29210
H2 H 1.03900 0.30650 -0.03700
H3 H 1.03820 0.20430 0.06750
H4 H 0.93530 0.20350 -0.03630
H1F H 0.81090 0.20790 0.29290
H1H H 0.70790 0.20710 0.18910
C2F C 0.7561(8) 0.4852(6) 0.0135(5)
H2F H 0.80650 0.53700 -0.03900
H3F H 0.70430 0.43250 -0.03820
H4F H 0.70350 0.53630 0.06470
C2H C 0.9852(8) 0.4865(6) 0.2439(5)
H2H H 1.03700 0.53900 0.19350
H3H H 0.93250 0.53820 0.29570
H4H H 1.03630 0.43530 0.29650
#END
