####################################################################### 
# 
# This file contains crystal structure data downloaded from the 
# Cambridge Structural Database (CSD) hosted by the Cambridge 
# Crystallographic Data Centre (CCDC).
# 
# Full information about CCDC data access policies and citation 
# guidelines are available at http://www.ccdc.cam.ac.uk/access/V1 
# 
# Audit and citation data items may have been added by the CCDC. 
# Please retain this information to preserve the provenance of 
# this file and to allow appropriate attribution of the data. 
# 
#######################################################################

data_SNU31
_audit_block_doi                 10.5517/cctt8wr
_database_code_depnum_ccdc_archive 'CCDC 769075'
loop_
_citation_id
_citation_doi
_citation_year
1 10.1002/chem.201001549 2010
_audit_update_record             
;
2010-03-10 deposited with the CCDC.	2024-07-13 downloaded from the CCDC.
;
#TrackingRef 'SNU-31.cif'

#==============================================================================


_audit_creation_date             2009-06-05T21:47:15-00:00
_audit_creation_method           'WinGX routine CIF_UPDATE'

#----------------------------------------------------------------------------#
# CHEMICAL INFORMATION #
#----------------------------------------------------------------------------#

_chemical_name_systematic        
;
?
;
_chemical_formula_moiety         'C52 H32 N8 O8 Zn2'
_chemical_formula_sum            'C52 H32 N8 O8 Zn2'
_chemical_formula_weight         1027.66

#----------------------------------------------------------------------------#
# UNIT CELL INFORMATION #
#----------------------------------------------------------------------------#

_symmetry_cell_setting           orthorhombic
_symmetry_space_group_name_H-M   'I m m a'
_symmetry_space_group_name_Hall  '-I 2b 2'
_symmetry_Int_Tables_number      74
loop_
_symmetry_equiv_pos_as_xyz
'x, y, z'
'-x, -y+1/2, z'
'x, -y, -z'
'-x, y+1/2, -z'
'x+1/2, y+1/2, z+1/2'
'-x+1/2, -y+1, z+1/2'
'x+1/2, -y+1/2, -z+1/2'
'-x+1/2, y+1, -z+1/2'
'-x, -y, -z'
'x, y-1/2, -z'
'-x, y, z'
'x, -y-1/2, z'
'-x+1/2, -y+1/2, -z+1/2'
'x+1/2, y, -z+1/2'
'-x+1/2, y+1/2, z+1/2'
'x+1/2, -y, z+1/2'

_cell_length_a                   34.158(7)
_cell_length_b                   22.850(5)
_cell_length_c                   19.049(4)
_cell_angle_alpha                90
_cell_angle_beta                 90
_cell_angle_gamma                90
_cell_volume                     14868(5)
_cell_formula_units_Z            4
_cell_measurement_temperature    298(2)

#----------------------------------------------------------------------------#
# CRYSTAL INFORMATION #
#----------------------------------------------------------------------------#

_exptl_crystal_size_max          0.1
_exptl_crystal_size_mid          0.1
_exptl_crystal_size_min          0.1
_exptl_crystal_density_diffrn    0.459
_exptl_crystal_density_method    'not measured'
_exptl_crystal_F_000             2096
_exptl_special_details           
;
?
;

#----------------------------------------------------------------------------#
# ABSORPTION CORRECTION #
#----------------------------------------------------------------------------#

_exptl_absorpt_coefficient_mu    0.343
_exptl_absorpt_correction_type   none

#----------------------------------------------------------------------------#
# DATA COLLECTION #
#----------------------------------------------------------------------------#

_diffrn_ambient_temperature      298(2)
_diffrn_radiation_wavelength     0.71073
_diffrn_radiation_type           MoK\a
_diffrn_radiation_monochromator  graphite
_diffrn_reflns_av_R_equivalents  0.0918
_diffrn_reflns_av_unetI/netI     0.1389
_diffrn_reflns_number            46564
_diffrn_reflns_limit_h_min       -29
_diffrn_reflns_limit_h_max       45
_diffrn_reflns_limit_k_min       -30
_diffrn_reflns_limit_k_max       30
_diffrn_reflns_limit_l_min       -25
_diffrn_reflns_limit_l_max       25
_diffrn_reflns_theta_min         1.78
_diffrn_reflns_theta_max         28.29
_diffrn_reflns_theta_full        25
_diffrn_measured_fraction_theta_full 0.999
_diffrn_measured_fraction_theta_max 0.97
_reflns_number_total             9340
_reflns_number_gt                3517
_reflns_threshold_expression     >2sigma(I)

#----------------------------------------------------------------------------#
# COMPUTER PROGRAMS USED #
#----------------------------------------------------------------------------#

_computing_structure_refinement  'SHELXL-97 (Sheldrick, 1997)'

#----------------------------------------------------------------------------#
# REFINEMENT INFORMATION #
#----------------------------------------------------------------------------#

_refine_special_details          
;
Refinement of F^2^ against ALL reflections. The weighted R-factor wR and
goodness of fit S are based on F^2^, conventional R-factors R are based
on F, with F set to zero for negative F^2^. The threshold expression of
F^2^ > 2sigma(F^2^) is used only for calculating R-factors(gt) etc. and is
not relevant to the choice of reflections for refinement. R-factors based
on F^2^ are statistically about twice as large as those based on F, and R-
factors based on ALL data will be even larger.
;
_refine_ls_structure_factor_coef Fsqd
_refine_ls_matrix_type           full
_refine_ls_weighting_scheme      calc
_refine_ls_weighting_details     
'calc w=1/[\s^2^(Fo^2^)+(0.0579P)^2^+0.0000P] where P=(Fo^2^+2Fc^2^)/3'
_atom_sites_solution_primary     direct
_atom_sites_solution_secondary   difmap
_atom_sites_solution_hydrogens   geom
_refine_ls_hydrogen_treatment    constr
_refine_ls_extinction_method     none
_refine_ls_number_reflns         9340
_refine_ls_number_parameters     166
_refine_ls_number_restraints     0
_refine_ls_R_factor_all          0.1422
_refine_ls_R_factor_gt           0.0522
_refine_ls_wR_factor_ref         0.1332
_refine_ls_wR_factor_gt          0.1177
_refine_ls_goodness_of_fit_ref   0.766
_refine_ls_restrained_S_all      0.766
_refine_ls_shift/su_max          0.008
_refine_ls_shift/su_mean         0.002
_refine_diff_density_max         0.197
_refine_diff_density_min         -0.356
_refine_diff_density_rms         0.04

#----------------------------------------------------------------------------#
# ATOMIC TYPES, COORDINATES AND THERMAL PARAMETERS #
#----------------------------------------------------------------------------#

loop_
_atom_type_symbol
_atom_type_description
_atom_type_scat_dispersion_real
_atom_type_scat_dispersion_imag
_atom_type_scat_source
C C 0.003 0.002 'International Tables Vol C Tables 4.2.6.8 and 6.1.1.4'
H H 0 0 'International Tables Vol C Tables 4.2.6.8 and 6.1.1.4'
N N 0.006 0.003 'International Tables Vol C Tables 4.2.6.8 and 6.1.1.4'
O O 0.011 0.006 'International Tables Vol C Tables 4.2.6.8 and 6.1.1.4'
Zn Zn 0.284 1.43 'International Tables Vol C Tables 4.2.6.8 and 6.1.1.4'

loop_
_atom_site_label
_atom_site_type_symbol
_atom_site_fract_x
_atom_site_fract_y
_atom_site_fract_z
_atom_site_U_iso_or_equiv
_atom_site_adp_type
_atom_site_occupancy
_atom_site_symmetry_multiplicity
_atom_site_calc_flag
_atom_site_refinement_flags
_atom_site_disorder_assembly
_atom_site_disorder_group
O1 O 0.29436(4) 0.18763(7) 0.22061(8) 0.0887(5) Uani 1 1 d . . .
C7 C 0.28151(7) 0.10691(11) 0.06058(14) 0.0996(8) Uani 1 1 d . . .
H7 H 0.2578 0.1226 0.0454 0.119 Uiso 1 1 calc R . .
C1 C 0.27668(8) 0.17032(10) 0.16710(14) 0.0794(7) Uani 1 1 d . . .
C4 C 0.34995(8) 0.05879(12) 0.10433(16) 0.1158(9) Uani 1 1 d . . .
H4 H 0.3736 0.0431 0.1196 0.139 Uiso 1 1 calc R . .
C2 C 0.29675(7) 0.12503(10) 0.12399(14) 0.0817(7) Uani 1 1 d . . .
N1 N 0.35445(9) 0 0 0.1235(12) Uani 1 2 d S . .
C5 C 0.33412(8) 0.04100(12) 0.04180(16) 0.1033(9) Uani 1 1 d . . .
C3 C 0.33056(8) 0.10042(12) 0.14507(14) 0.1043(8) Uani 1 1 d . . .
H3 H 0.3413 0.1115 0.1879 0.125 Uiso 1 1 calc R . .
C6 C 0.30007(8) 0.06664(13) 0.01927(15) 0.1093(9) Uani 1 1 d . . .
H6 H 0.2896 0.0566 -0.0242 0.131 Uiso 1 1 calc R . .
N2 N 0.34024(8) 0.25 0.33429(15) 0.0822(8) Uani 1 2 d S . .
C8 C 0.39692(12) 0 0 0.1173(15) Uani 1 2 d S . .
C11 C 0.47817(10) 0 0 0.1119(13) Uani 1 2 d S . .
C14 C 0.42030(14) 0.25 0.3598(3) 0.1268(15) Uani 1 2 d S . .
C12 C 0.35985(9) 0.20145(13) 0.34020(17) 0.1307(11) Uani 1 1 d . . .
H12 H 0.3463 0.1665 0.3346 0.157 Uiso 1 1 calc R . .
C9 C 0.41637(10) -0.05031(15) 0.0138(2) 0.1480(13) Uani 1 1 d . . .
H9 H 0.4029 -0.0845 0.0245 0.178 Uiso 1 1 calc R . .
C10 C 0.45755(9) -0.04957(14) 0.0115(2) 0.1461(13) Uani 1 1 d . . .
H10 H 0.4711 -0.0845 0.018 0.175 Uiso 1 1 calc R . .
C15 C 0.46344(17) 0.25 0.3722(4) 0.160(2) Uani 1 2 d S . .
N3 N 0.47945(11) 0.20047(18) 0.3781(2) 0.2346(19) Uani 1 1 d . . .
C13 C 0.40045(10) 0.19837(15) 0.35452(18) 0.1479(13) Uani 1 1 d . . .
H13 H 0.4131 0.1626 0.3601 0.178 Uiso 1 1 calc R . .
O2 O 0.24333(5) 0.18852(6) 0.14709(8) 0.0856(5) Uani 1 1 d . . .
Zn1 Zn 0.284209(9) 0.25 0.296040(17) 0.06306(15) Uani 1 2 d S . .

loop_
_atom_site_aniso_label
_atom_site_aniso_U_11
_atom_site_aniso_U_22
_atom_site_aniso_U_33
_atom_site_aniso_U_23
_atom_site_aniso_U_13
_atom_site_aniso_U_12
O1 0.0712(11) 0.0929(12) 0.1020(12) -0.0280(10) 0.0068(9) 0.0013(9)
C7 0.0712(16) 0.104(2) 0.123(2) -0.0334(18) -0.0061(17) 0.0145(15)
C1 0.0729(18) 0.0773(17) 0.0881(17) -0.0112(15) 0.0105(15) -0.0047(14)
C4 0.0723(18) 0.124(2) 0.151(2) -0.049(2) -0.0120(18) 0.0184(16)
C2 0.0637(16) 0.0810(17) 0.1004(18) -0.0196(15) 0.0032(14) 0.0046(13)
N1 0.070(2) 0.133(3) 0.168(3) -0.073(3) 0 0
C5 0.0702(18) 0.109(2) 0.131(2) -0.0523(19) -0.0028(17) -0.0052(16)
C3 0.0784(19) 0.118(2) 0.117(2) -0.0389(18) -0.0120(16) 0.0067(17)
C6 0.0824(19) 0.123(2) 0.122(2) -0.0492(19) -0.0174(17) 0.0068(17)
N2 0.0597(18) 0.083(2) 0.104(2) 0 -0.0019(15) 0
C8 0.076(3) 0.118(4) 0.157(4) -0.065(3) 0 0
C11 0.072(2) 0.107(3) 0.156(3) -0.053(3) 0 0
C14 0.078(3) 0.137(4) 0.165(4) 0 -0.003(3) 0
C12 0.093(2) 0.108(2) 0.191(3) 0.008(2) -0.006(2) -0.0069(19)
C9 0.095(3) 0.118(3) 0.231(4) -0.042(3) -0.006(3) -0.008(2)
C10 0.090(2) 0.110(3) 0.238(4) -0.041(2) 0.002(3) 0.0078(19)
C15 0.089(4) 0.167(7) 0.224(6) 0 0.002(4) 0
N3 0.127(3) 0.240(5) 0.337(5) 0.038(4) -0.011(3) 0.005(2)
C13 0.090(3) 0.135(3) 0.219(4) 0.010(3) -0.018(2) 0.017(2)
O2 0.0682(11) 0.0854(11) 0.1031(12) -0.0159(9) 0.0032(9) 0.0091(9)
Zn1 0.0460(2) 0.0661(2) 0.0771(2) 0 0.00289(19) 0


#----------------------------------------------------------------------------#
# MOLECULAR GEOMETRY #
#----------------------------------------------------------------------------#

_geom_special_details            
;
All esds (except the esd in the dihedral angle between two l.s. planes)
are estimated using the full covariance matrix. The cell esds are taken
into account individually in the estimation of esds in distances, angles
and torsion angles; correlations between esds in cell parameters are only
used when they are defined by crystal symmetry. An approximate (isotropic)
treatment of cell esds is used for estimating esds involving l.s. planes.
;
loop_
_geom_bond_atom_site_label_1
_geom_bond_atom_site_label_2
_geom_bond_distance
_geom_bond_site_symmetry_2
_geom_bond_publ_flag
O1 C1 1.249(3) . ?
O1 Zn1 2.0532(16) . ?
C7 C6 1.367(3) . ?
C7 C2 1.379(3) . ?
C1 O2 1.271(3) . ?
C1 C2 1.488(3) . ?
C4 C5 1.370(3) . ?
C4 C3 1.395(3) . ?
C2 C3 1.346(3) . ?
N1 C5 1.412(3) . ?
N1 C5 1.412(3) 3 ?
N1 C8 1.451(4) . ?
C5 C6 1.371(3) . ?
N2 C12 1.301(3) 12_565 ?
N2 C12 1.301(3) . ?
N2 Zn1 2.048(3) . ?
C8 C9 1.354(3) 3 ?
C8 C9 1.354(3) . ?
C11 C10 1.352(3) 3 ?
C11 C10 1.352(3) . ?
C11 C11 1.491(7) 9_655 ?
C14 C13 1.365(4) . ?
C14 C13 1.365(4) 12_565 ?
C14 C15 1.492(7) . ?
C12 C13 1.415(4) . ?
C9 C10 1.407(4) . ?
C15 N3 1.262(4) 12_565 ?
C15 N3 1.262(4) . ?
N3 N3 1.404(7) 11_655 ?
O2 Zn1 2.0081(15) 13 ?
Zn1 O2 2.0081(15) 13 ?
Zn1 O2 2.0081(15) 8_545 ?
Zn1 O1 2.0532(16) 12_565 ?
Zn1 Zn1 2.9221(8) 13 ?

loop_
_geom_angle_atom_site_label_1
_geom_angle_atom_site_label_2
_geom_angle_atom_site_label_3
_geom_angle
_geom_angle_site_symmetry_1
_geom_angle_site_symmetry_3
_geom_angle_publ_flag
C1 O1 Zn1 135.17(16) . . ?
C6 C7 C2 122.1(2) . . ?
O1 C1 O2 125.1(2) . . ?
O1 C1 C2 116.6(2) . . ?
O2 C1 C2 118.3(2) . . ?
C5 C4 C3 119.9(3) . . ?
C3 C2 C7 117.4(2) . . ?
C3 C2 C1 121.4(2) . . ?
C7 C2 C1 121.2(2) . . ?
C5 N1 C5 121.1(3) . 3 ?
C5 N1 C8 119.46(16) . . ?
C5 N1 C8 119.46(16) 3 . ?
C4 C5 C6 118.7(2) . . ?
C4 C5 N1 119.5(3) . . ?
C6 C5 N1 121.6(3) . . ?
C2 C3 C4 121.8(2) . . ?
C7 C6 C5 120.1(2) . . ?
C12 N2 C12 117.0(4) 12_565 . ?
C12 N2 Zn1 120.81(18) 12_565 . ?
C12 N2 Zn1 120.81(18) . . ?
C9 C8 C9 121.2(4) 3 . ?
C9 C8 N1 119.4(2) 3 . ?
C9 C8 N1 119.4(2) . . ?
C10 C11 C10 117.2(4) 3 . ?
C10 C11 C11 121.4(2) 3 9_655 ?
C10 C11 C11 121.4(2) . 9_655 ?
C13 C14 C13 119.7(5) . 12_565 ?
C13 C14 C15 120.2(2) . . ?
C13 C14 C15 120.2(2) 12_565 . ?
N2 C12 C13 124.3(3) . . ?
C8 C9 C10 118.3(3) . . ?
C11 C10 C9 122.4(3) . . ?
N3 C15 N3 127.5(7) 12_565 . ?
N3 C15 C14 116.2(4) 12_565 . ?
N3 C15 C14 116.2(4) . . ?
C15 N3 N3 115.7(3) . 11_655 ?
C14 C13 C12 117.3(4) . . ?
C1 O2 Zn1 119.14(15) . 13 ?
O2 Zn1 O2 88.79(9) 13 8_545 ?
O2 Zn1 N2 104.24(7) 13 . ?
O2 Zn1 N2 104.24(7) 8_545 . ?
O2 Zn1 O1 88.34(6) 13 12_565 ?
O2 Zn1 O1 160.44(6) 8_545 12_565 ?
N2 Zn1 O1 95.23(7) . 12_565 ?
O2 Zn1 O1 160.44(6) 13 . ?
O2 Zn1 O1 88.34(6) 8_545 . ?
N2 Zn1 O1 95.23(7) . . ?
O1 Zn1 O1 87.90(9) 12_565 . ?
O2 Zn1 Zn1 87.08(5) 13 13 ?
O2 Zn1 Zn1 87.08(5) 8_545 13 ?
N2 Zn1 Zn1 163.95(8) . 13 ?
O1 Zn1 Zn1 73.44(5) 12_565 13 ?
O1 Zn1 Zn1 73.44(5) . 13 ?
