####################################################################### 
# 
# This file contains crystal structure data downloaded from the 
# Cambridge Structural Database (CSD) hosted by the Cambridge 
# Crystallographic Data Centre (CCDC).
# 
# Full information about CCDC data access policies and citation 
# guidelines are available at http://www.ccdc.cam.ac.uk/access/V1 
# 
# Audit and citation data items may have been added by the CCDC. 
# Please retain this information to preserve the provenance of 
# this file and to allow appropriate attribution of the data. 
# 
#######################################################################

data_SNU30
_audit_block_doi                 10.5517/cctt8tp
_database_code_depnum_ccdc_archive 'CCDC 769073'
loop_
_citation_id
_citation_doi
_citation_year
1 10.1002/chem.201001549 2010
_audit_update_record             
;
2010-03-10 deposited with the CCDC.	2024-07-13 downloaded from the CCDC.
;
#TrackingRef 'SNU-30.cif'

#==============================================================================


_audit_creation_date             2009-05-07T14:12:25-00:00
_audit_creation_method           'WinGX routine CIF_UPDATE'

#----------------------------------------------------------------------------#
# CHEMICAL INFORMATION #
#----------------------------------------------------------------------------#

_chemical_name_systematic        
;
?
;
_chemical_formula_moiety         'C40 H28 N5 O10 Zn2'
_chemical_formula_sum            'C40 H28 N2 O10 Zn2'
_chemical_formula_weight         827.43
_chemical_compound_source        'synthesis as described'

#----------------------------------------------------------------------------#
# UNIT CELL INFORMATION #
#----------------------------------------------------------------------------#

_symmetry_cell_setting           orthorhombic
_symmetry_space_group_name_H-M   'I m m a'
_symmetry_space_group_name_Hall  '-I 2b 2'
_symmetry_Int_Tables_number      74
loop_
_symmetry_equiv_pos_as_xyz
'x, y, z'
'-x, -y+1/2, z'
'x, -y, -z'
'-x, y+1/2, -z'
'x+1/2, y+1/2, z+1/2'
'-x+1/2, -y+1, z+1/2'
'x+1/2, -y+1/2, -z+1/2'
'-x+1/2, y+1, -z+1/2'
'-x, -y, -z'
'x, y-1/2, -z'
'-x, y, z'
'x, -y-1/2, z'
'-x+1/2, -y+1/2, -z+1/2'
'x+1/2, y, -z+1/2'
'-x+1/2, y+1/2, z+1/2'
'x+1/2, -y, z+1/2'

_cell_length_a                   35.965(7)
_cell_length_b                   23.273(5)
_cell_length_c                   17.219(3)
_cell_angle_alpha                90
_cell_angle_beta                 90
_cell_angle_gamma                90
_cell_volume                     14412(5)
_cell_formula_units_Z            4
_cell_measurement_temperature    298(2)
_cell_measurement_reflns_used    0
_cell_measurement_theta_min      0
_cell_measurement_theta_max      0
_cell_measurement_wavelength     0.71073

#----------------------------------------------------------------------------#
# CRYSTAL INFORMATION #
#----------------------------------------------------------------------------#

_exptl_crystal_description       prism
_exptl_crystal_colour            yellow
_exptl_crystal_size_max          0.2
_exptl_crystal_size_mid          0.2
_exptl_crystal_size_min          0.1
_exptl_crystal_density_diffrn    0.381
_exptl_crystal_density_method    'not measured'
_exptl_crystal_F_000             1672
_exptl_special_details           
;
?
;

#----------------------------------------------------------------------------#
# ABSORPTION CORRECTION #
#----------------------------------------------------------------------------#

_exptl_absorpt_coefficient_mu    0.349
_exptl_absorpt_correction_type   none

#----------------------------------------------------------------------------#
# DATA COLLECTION #
#----------------------------------------------------------------------------#

_diffrn_ambient_temperature      298(2)
_diffrn_radiation_wavelength     0.71073
_diffrn_radiation_type           MoK\a
_diffrn_radiation_monochromator  graphite
_diffrn_radiation_probe          x-ray
_diffrn_reflns_av_R_equivalents  0.0554
_diffrn_reflns_av_unetI/netI     0.0984
_diffrn_reflns_number            14275
_diffrn_reflns_limit_h_min       -45
_diffrn_reflns_limit_h_max       45
_diffrn_reflns_limit_k_min       -29
_diffrn_reflns_limit_k_max       29
_diffrn_reflns_limit_l_min       -20
_diffrn_reflns_limit_l_max       21
_diffrn_reflns_theta_min         1.13
_diffrn_reflns_theta_max         26.73
_diffrn_reflns_theta_full        26.73
_diffrn_measured_fraction_theta_full 0.966
_diffrn_measured_fraction_theta_max 0.966
_reflns_number_total             7717
_reflns_number_gt                3011
_reflns_threshold_expression     >2sigma(I)

#----------------------------------------------------------------------------#
# COMPUTER PROGRAMS USED #
#----------------------------------------------------------------------------#

_computing_structure_solution    'SHELXS-86 (Sheldrick, 1986)'
_computing_structure_refinement  'SHELXL-97 (Sheldrick, 1997)'
_computing_molecular_graphics    'Ortep-3 for Windows (Farrugia, 1997)'
_computing_publication_material  'WinGX publication routines (Farrugia, 1999)'

#----------------------------------------------------------------------------#
# REFINEMENT INFORMATION #
#----------------------------------------------------------------------------#

_refine_special_details          
;
Refinement of F^2^ against ALL reflections. The weighted R-factor wR and
goodness of fit S are based on F^2^, conventional R-factors R are based
on F, with F set to zero for negative F^2^. The threshold expression of
F^2^ > 2sigma(F^2^) is used only for calculating R-factors(gt) etc. and is
not relevant to the choice of reflections for refinement. R-factors based
on F^2^ are statistically about twice as large as those based on F, and R-
factors based on ALL data will be even larger.
;
_refine_ls_structure_factor_coef Fsqd
_refine_ls_matrix_type           full
_refine_ls_weighting_scheme      calc
_refine_ls_weighting_details     
'calc w=1/[\s^2^(Fo^2^)+(0.0952P)^2^+0.0000P] where P=(Fo^2^+2Fc^2^)/3'
_atom_sites_solution_primary     direct
_atom_sites_solution_secondary   difmap
_atom_sites_solution_hydrogens   geom
_refine_ls_hydrogen_treatment    const
_refine_ls_extinction_method     none
_refine_ls_number_reflns         7717
_refine_ls_number_parameters     127
_refine_ls_number_restraints     0
_refine_ls_R_factor_all          0.1121
_refine_ls_R_factor_gt           0.0693
_refine_ls_wR_factor_ref         0.2045
_refine_ls_wR_factor_gt          0.1973
_refine_ls_goodness_of_fit_ref   0.985
_refine_ls_restrained_S_all      0.985
_refine_ls_shift/su_max          0
_refine_ls_shift/su_mean         0
_refine_diff_density_max         0.223
_refine_diff_density_min         -1.17
_refine_diff_density_rms         0.126

#----------------------------------------------------------------------------#
# ATOMIC TYPES, COORDINATES AND THERMAL PARAMETERS #
#----------------------------------------------------------------------------#

loop_
_atom_type_symbol
_atom_type_description
_atom_type_scat_dispersion_real
_atom_type_scat_dispersion_imag
_atom_type_scat_source
C C 0.003 0.002 'International Tables Vol C Tables 4.2.6.8 and 6.1.1.4'
H H 0 0 'International Tables Vol C Tables 4.2.6.8 and 6.1.1.4'
N N 0.006 0.003 'International Tables Vol C Tables 4.2.6.8 and 6.1.1.4'
O O 0.011 0.006 'International Tables Vol C Tables 4.2.6.8 and 6.1.1.4'
Zn Zn 0.284 1.43 'International Tables Vol C Tables 4.2.6.8 and 6.1.1.4'

loop_
_atom_site_label
_atom_site_type_symbol
_atom_site_fract_x
_atom_site_fract_y
_atom_site_fract_z
_atom_site_U_iso_or_equiv
_atom_site_adp_type
_atom_site_occupancy
_atom_site_symmetry_multiplicity
_atom_site_calc_flag
_atom_site_refinement_flags
_atom_site_disorder_assembly
_atom_site_disorder_group
O1 O 0.29964(7) 0.18903(9) 0.23422(16) 0.0975(8) Uani 1 1 d . . .
C1 C 0.28473(12) 0.17198(15) 0.1728(2) 0.0840(11) Uani 1 1 d . . .
C4 C 0.35583(12) 0.06134(18) 0.1129(3) 0.1173(14) Uani 1 1 d . . .
H4 H 0.3775 0.0452 0.1327 0.141 Uiso 1 1 calc R . .
C5 C 0.34214(12) 0.04223(16) 0.0426(3) 0.0980(12) Uani 1 1 d . . .
C7 C 0.29116(11) 0.10675(16) 0.0574(3) 0.1011(12) Uani 1 1 d . . .
H7 H 0.2689 0.1215 0.0382 0.121 Uiso 1 1 calc R . .
C2 C 0.30479(11) 0.12573(14) 0.1285(3) 0.0913(11) Uani 1 1 d . . .
C3 C 0.33798(12) 0.10410(17) 0.1546(3) 0.1073(12) Uani 1 1 d . . .
H3 H 0.3485 0.1181 0.2002 0.129 Uiso 1 1 calc R . .
N1 N 0.36153(14) 0 0 0.1099(14) Uani 1 2 d S . .
C6 C 0.31022(13) 0.06681(17) 0.0160(2) 0.1064(12) Uani 1 1 d . . .
H6 H 0.3011 0.0558 -0.0323 0.128 Uiso 1 1 calc R . .
C8 C 0.40156(18) 0 0 0.1037(18) Uani 1 2 d S . .
C9 C 0.42011(14) -0.04801(17) 0.0134(3) 0.1272(16) Uani 1 1 d . . .
H9 H 0.4071 -0.0816 0.0243 0.153 Uiso 1 1 calc R . .
C10 C 0.45929(13) -0.04933(16) 0.0114(3) 0.1265(16) Uani 1 1 d . . .
H10 H 0.4717 -0.084 0.018 0.152 Uiso 1 1 calc R . .
C11 C 0.47907(14) 0 0 0.0966(16) Uani 1 2 d S . .
O2 O 0.25441(7) 0.18866(9) 0.14635(15) 0.0925(7) Uani 1 1 d . . .
O3 O 0.32069(11) 0.25 0.3858(2) 0.1339(14) Uani 1 2 d S . .
Zn1 Zn 0.279998(14) 0.25 0.30825(3) 0.0664(2) Uani 1 2 d S . .

loop_
_atom_site_aniso_label
_atom_site_aniso_U_11
_atom_site_aniso_U_22
_atom_site_aniso_U_33
_atom_site_aniso_U_23
_atom_site_aniso_U_13
_atom_site_aniso_U_12
O1 0.102(2) 0.0869(15) 0.103(2) -0.0081(16) 0.0080(17) 0.0058(14)
C1 0.080(3) 0.073(2) 0.099(3) -0.006(2) 0.003(2) 0.009(2)
C4 0.084(3) 0.118(3) 0.150(4) -0.019(3) -0.011(3) 0.010(2)
C5 0.077(3) 0.091(3) 0.126(4) -0.023(3) 0.000(3) 0.000(2)
C7 0.087(3) 0.088(3) 0.129(4) -0.024(3) -0.002(3) 0.008(2)
C2 0.084(3) 0.077(2) 0.113(3) -0.006(2) 0.011(3) -0.005(2)
C3 0.095(3) 0.104(3) 0.122(3) -0.031(3) -0.006(3) 0.004(2)
N1 0.089(4) 0.110(3) 0.131(4) -0.022(3) 0 0
C6 0.108(3) 0.103(3) 0.109(3) -0.028(3) -0.009(3) -0.007(3)
C8 0.098(5) 0.082(4) 0.131(5) -0.012(4) 0 0
C9 0.107(4) 0.103(3) 0.171(5) 0.003(3) 0.004(3) -0.015(3)
C10 0.102(4) 0.095(3) 0.183(5) 0.004(3) -0.005(3) 0.001(2)
C11 0.091(4) 0.096(4) 0.104(4) 0.002(3) 0 0
O2 0.089(2) 0.0829(14) 0.1060(19) -0.0063(14) 0.0053(16) 0.0033(13)
O3 0.124(3) 0.143(3) 0.135(3) 0 -0.019(3) 0
Zn1 0.0610(4) 0.0616(3) 0.0766(4) 0 0.0018(3) 0


#----------------------------------------------------------------------------#
# MOLECULAR GEOMETRY #
#----------------------------------------------------------------------------#

_geom_special_details            
;
All esds (except the esd in the dihedral angle between two l.s. planes)
are estimated using the full covariance matrix. The cell esds are taken
into account individually in the estimation of esds in distances, angles
and torsion angles; correlations between esds in cell parameters are only
used when they are defined by crystal symmetry. An approximate (isotropic)
treatment of cell esds is used for estimating esds involving l.s. planes.
;
loop_
_geom_bond_atom_site_label_1
_geom_bond_atom_site_label_2
_geom_bond_distance
_geom_bond_site_symmetry_2
_geom_bond_publ_flag
O1 C1 1.250(4) . ?
O1 Zn1 2.034(3) . ?
C1 O2 1.244(4) . ?
C1 C2 1.504(5) . ?
C4 C5 1.381(5) . ?
C4 C3 1.385(5) . ?
C5 C6 1.362(5) . ?
C5 N1 1.410(4) . ?
C7 C6 1.357(5) . ?
C7 C2 1.390(5) . ?
C2 C3 1.372(5) . ?
N1 C5 1.410(4) 3 ?
N1 C8 1.440(7) . ?
C8 C9 1.322(5) 3 ?
C8 C9 1.322(5) . ?
C9 C10 1.410(6) . ?
C10 C11 1.365(4) . ?
C11 C10 1.365(4) 3 ?
C11 C11 1.506(10) 9_655 ?
O2 Zn1 2.044(2) 13 ?
O3 Zn1 1.982(4) . ?
Zn1 O1 2.034(3) 12_565 ?
Zn1 O2 2.044(2) 8_545 ?
Zn1 O2 2.044(2) 13 ?
Zn1 Zn1 2.9462(11) 13 ?

loop_
_geom_angle_atom_site_label_1
_geom_angle_atom_site_label_2
_geom_angle_atom_site_label_3
_geom_angle
_geom_angle_site_symmetry_1
_geom_angle_site_symmetry_3
_geom_angle_publ_flag
C1 O1 Zn1 127.0(3) . . ?
O2 C1 O1 125.9(3) . . ?
O2 C1 C2 117.3(4) . . ?
O1 C1 C2 116.8(4) . . ?
C5 C4 C3 121.4(4) . . ?
C6 C5 C4 117.3(4) . . ?
C6 C5 N1 122.4(4) . . ?
C4 C5 N1 120.3(4) . . ?
C6 C7 C2 120.1(4) . . ?
C3 C2 C7 118.6(4) . . ?
C3 C2 C1 120.9(4) . . ?
C7 C2 C1 120.3(4) . . ?
C2 C3 C4 119.8(4) . . ?
C5 N1 C5 120.7(5) . 3 ?
C5 N1 C8 119.6(3) . . ?
C5 N1 C8 119.6(3) 3 . ?
C7 C6 C5 122.5(4) . . ?
C9 C8 C9 119.3(6) 3 . ?
C9 C8 N1 120.3(3) 3 . ?
C9 C8 N1 120.3(3) . . ?
C8 C9 C10 121.3(4) . . ?
C11 C10 C9 120.4(4) . . ?
C10 C11 C10 117.2(5) . 3 ?
C10 C11 C11 121.4(3) . 9_655 ?
C10 C11 C11 121.4(3) 3 9_655 ?
C1 O2 Zn1 127.5(3) . 13 ?
O3 Zn1 O1 99.56(12) . 12_565 ?
O3 Zn1 O1 99.56(12) . . ?
O1 Zn1 O1 88.47(13) 12_565 . ?
O3 Zn1 O2 100.90(12) . 8_545 ?
O1 Zn1 O2 159.54(11) 12_565 8_545 ?
O1 Zn1 O2 87.86(9) . 8_545 ?
O3 Zn1 O2 100.90(12) . 13 ?
O1 Zn1 O2 87.86(9) 12_565 13 ?
O1 Zn1 O2 159.54(11) . 13 ?
O2 Zn1 O2 88.57(13) 8_545 13 ?
O3 Zn1 Zn1 179.48(12) . 13 ?
O1 Zn1 Zn1 80.08(8) 12_565 13 ?
O1 Zn1 Zn1 80.08(8) . 13 ?
O2 Zn1 Zn1 79.46(8) 8_545 13 ?
O2 Zn1 Zn1 79.46(8) 13 13 ?
