####################################################################### 
# 
# This file contains crystal structure data downloaded from the 
# Cambridge Structural Database (CSD) hosted by the Cambridge 
# Crystallographic Data Centre (CCDC).
# 
# Full information about CCDC data access policies and citation 
# guidelines are available at http://www.ccdc.cam.ac.uk/access/V1 
# 
# Audit and citation data items may have been added by the CCDC. 
# Please retain this information to preserve the provenance of 
# this file and to allow appropriate attribution of the data. 
# 
#######################################################################

data_SNU31SC
_audit_block_doi                 10.5517/cctt8xs
_database_code_depnum_ccdc_archive 'CCDC 769076'
loop_
_citation_id
_citation_doi
_citation_year
1 10.1002/chem.201001549 2010
_audit_update_record             
;
2010-03-10 deposited with the CCDC.	2024-07-13 downloaded from the CCDC.
;
#TrackingRef 'SNU-31SC.cif'

#==============================================================================


_audit_creation_date             2009-05-14T10:51:26-00:00
_audit_creation_method           'WinGX routine CIF_UPDATE'
_audit_conform_dict_name         cif_core.dic
_audit_conform_dict_version      2.3
_audit_conform_dict_location     ftp://ftp.iucr.org/pub/cif_core.dic

#----------------------------------------------------------------------------#
# CHEMICAL INFORMATION #
#----------------------------------------------------------------------------#

_chemical_name_systematic        
;
?
;
_chemical_formula_moiety         'C52 H32 N8 O8 Zn2'
_chemical_formula_sum            'C52 H32 N8 O8 Zn2'
_chemical_formula_weight         1027.6
_chemical_absolute_configuration unk

#----------------------------------------------------------------------------#
# UNIT CELL INFORMATION #
#----------------------------------------------------------------------------#

_symmetry_cell_setting           orthorhombic
_symmetry_space_group_name_H-M   'P m n b'
_symmetry_space_group_name_Hall  '-P 2bc 2a'
loop_
_symmetry_equiv_pos_as_xyz
'x, y, z'
'x+1/2, -y+1/2, z+1/2'
'-x+1/2, y, z'
'x, y+1/2, -z+1/2'
'-x, -y, -z'
'-x-1/2, y-1/2, -z-1/2'
'x-1/2, -y, -z'
'-x, -y-1/2, z-1/2'

_cell_length_a                   34.103(7)
_cell_length_b                   23.758(5)
_cell_length_c                   17.033(3)
_cell_angle_alpha                90
_cell_angle_beta                 90
_cell_angle_gamma                90
_cell_volume                     13800(5)
_cell_formula_units_Z            4
_cell_measurement_temperature    100(2)

#----------------------------------------------------------------------------#
# CRYSTAL INFORMATION #
#----------------------------------------------------------------------------#

_exptl_crystal_size_max          0.2
_exptl_crystal_size_mid          0.1
_exptl_crystal_size_min          0.1
_exptl_crystal_density_diffrn    0.495
_exptl_crystal_density_method    'not measured'
_exptl_crystal_F_000             2096
_exptl_special_details           
;
?
;

#----------------------------------------------------------------------------#
# ABSORPTION CORRECTION #
#----------------------------------------------------------------------------#

_exptl_absorpt_coefficient_mu    0.37
_exptl_absorpt_correction_type   none

#----------------------------------------------------------------------------#
# DATA COLLECTION #
#----------------------------------------------------------------------------#

_diffrn_ambient_temperature      100(2)
_diffrn_radiation_wavelength     0.9000
_diffrn_radiation_type           synchrotron
_diffrn_radiation_monochromator  'Si(111) double crystal monochromator'
_diffrn_radiation_source         'bending magnet 6C1 MX beamline'
_diffrn_radiation_probe          x-ray
_diffrn_measurement_device_type  'CCD area detector'
_diffrn_measurement_method       'omega scan'
_diffrn_reflns_av_R_equivalents  0.1298
_diffrn_reflns_av_unetI/netI     0.0782
_diffrn_reflns_number            23910
_diffrn_reflns_limit_h_min       -30
_diffrn_reflns_limit_h_max       30
_diffrn_reflns_limit_k_min       -19
_diffrn_reflns_limit_k_max       18
_diffrn_reflns_limit_l_min       -12
_diffrn_reflns_limit_l_max       11
_diffrn_reflns_theta_min         1.69
_diffrn_reflns_theta_max         23.46
_diffrn_reflns_theta_full        23.46
_diffrn_measured_fraction_theta_full 0.751
_diffrn_measured_fraction_theta_max 0.751
_reflns_number_total             3850
_reflns_number_gt                2312
_reflns_threshold_expression     >2sigma(I)

#----------------------------------------------------------------------------#
# COMPUTER PROGRAMS USED #
#----------------------------------------------------------------------------#

_computing_data_collection       'ADSC Quantum-210 ADX Program'
_computing_cell_refinement       HKL2000
_computing_data_reduction        HKL2000
_computing_structure_solution    'SHELXS-86 (Sheldrick, 1986)'
_computing_structure_refinement  'SHELXL-97 (Sheldrick, 1997)'
_computing_molecular_graphics    'Ortep-3 for Windows (Farrugia, 1997)'
_computing_publication_material  'WinGX publication routines (Farrugia, 1999)'

#----------------------------------------------------------------------------#
# REFINEMENT INFORMATION #
#----------------------------------------------------------------------------#

_refine_special_details          
;
Refinement of F^2^ against ALL reflections. The weighted R-factor wR and
goodness of fit S are based on F^2^, conventional R-factors R are based
on F, with F set to zero for negative F^2^. The threshold expression of
F^2^ > 2sigma(F^2^) is used only for calculating R-factors(gt) etc. and is
not relevant to the choice of reflections for refinement. R-factors based
on F^2^ are statistically about twice as large as those based on F, and R-
factors based on ALL data will be even larger.
;
_refine_ls_structure_factor_coef Fsqd
_refine_ls_matrix_type           full
_refine_ls_weighting_scheme      calc
_refine_ls_weighting_details     
'calc w=1/[\s^2^(Fo^2^)+(0.1295P)^2^+0.0000P] where P=(Fo^2^+2Fc^2^)/3'
_atom_sites_solution_primary     direct
_atom_sites_solution_secondary   difmap
_atom_sites_solution_hydrogens   geom
_refine_ls_hydrogen_treatment    constr
_refine_ls_extinction_method     none
_refine_ls_number_reflns         3850
_refine_ls_number_parameters     306
_refine_ls_number_restraints     0
_refine_ls_R_factor_all          0.0917
_refine_ls_R_factor_gt           0.0702
_refine_ls_wR_factor_ref         0.1897
_refine_ls_wR_factor_gt          0.1816
_refine_ls_goodness_of_fit_ref   0.918
_refine_ls_restrained_S_all      0.918
_refine_ls_shift/su_max          0.045
_refine_ls_shift/su_mean         0.009
_refine_diff_density_max         0.455
_refine_diff_density_min         -0.553
_refine_diff_density_rms         0.039

#----------------------------------------------------------------------------#
# ATOMIC TYPES, COORDINATES AND THERMAL PARAMETERS #
#----------------------------------------------------------------------------#

loop_
_atom_type_symbol
_atom_type_description
_atom_type_scat_dispersion_real
_atom_type_scat_dispersion_imag
_atom_type_scat_source
C C 0.0033 0.0016 'International Tables Vol C Tables 4.2.6.8 and 6.1.1.4'
H H 0 0 'International Tables Vol C Tables 4.2.6.8 and 6.1.1.4'
N N 0.0061 0.0033 'International Tables Vol C Tables 4.2.6.8 and 6.1.1.4'
O O 0.0106 0.006 'International Tables Vol C Tables 4.2.6.8 and 6.1.1.4'
Zn Zn 0.2839 1.4301 'International Tables Vol C Tables 4.2.6.8 and 6.1.1.4'

loop_
_atom_site_label
_atom_site_type_symbol
_atom_site_fract_x
_atom_site_fract_y
_atom_site_fract_z
_atom_site_U_iso_or_equiv
_atom_site_adp_type
_atom_site_occupancy
_atom_site_symmetry_multiplicity
_atom_site_calc_flag
_atom_site_refinement_flags
_atom_site_disorder_assembly
_atom_site_disorder_group
Zn1 Zn 0.53378(2) 0.50564(4) 0.94805(8) 0.1236(7) Uani 1 1 d . . .
O4 O 0.5436(3) 0.0483(3) 1.4647(7) 0.170(4) Uani 1 1 d . . .
O3 O 0.49504(18) 0.0422(2) 1.3697(4) 0.148(3) Uani 1 1 d . . .
N2 N 0.5883(2) 0.5120(6) 0.9042(5) 0.136(3) Uani 1 1 d . . .
N1 N 0.6046(4) 0.2197(5) 1.1841(8) 0.163(4) Uani 1 1 d . . .
C18 C 0.7278(3) 0.2211(8) 1.1849(7) 0.156(4) Uani 1 1 d . . .
C8 C 0.5301(4) 0.0605(6) 1.3959(11) 0.142(6) Uani 1 1 d . . .
C10 C 0.5329(3) 0.1177(6) 1.2719(14) 0.145(5) Uani 1 1 d . . .
H10 H 0.5083 0.1022 1.2568 0.175 Uiso 1 1 calc R . .
C14 C 0.5838(4) 0.1240(5) 1.3638(6) 0.145(3) Uani 1 1 d . . .
H14 H 0.5966 0.1152 1.4118 0.174 Uiso 1 1 calc R . .
C15 C 0.6467(4) 0.2189(7) 1.1915(8) 0.161(5) Uani 1 1 d . . .
C20 C 0.6660(5) 0.1750(6) 1.1680(7) 0.179(5) Uani 1 1 d . . .
H20 H 0.6521 0.1424 1.1515 0.214 Uiso 1 1 calc R . .
C7 C 0.5327(2) 0.3347(6) 1.1566(9) 0.142(4) Uani 1 1 d . . .
H7 H 0.5091 0.3477 1.1801 0.171 Uiso 1 1 calc R . .
C16 C 0.6646(4) 0.2636(7) 1.2107(7) 0.185(5) Uani 1 1 d . . .
H16 H 0.65 0.2951 1.2285 0.222 Uiso 1 1 calc R . .
C23 C 0.6734(4) 0.5139(6) 0.8772(7) 0.171(4) Uani 1 1 d . . .
C9 C 0.5467(4) 0.1002(7) 1.3396(13) 0.150(7) Uani 1 1 d . . .
C5 C 0.5832(4) 0.2636(8) 1.1568(9) 0.154(4) Uani 1 1 d . . .
C12 C 0.5843(5) 0.1836(7) 1.2383(11) 0.146(5) Uani 1 1 d . . .
C2 C 0.5451(3) 0.3618(5) 1.0929(9) 0.131(4) Uani 1 1 d . . .
C11 C 0.5493(4) 0.1555(6) 1.2199(7) 0.152(4) Uani 1 1 d . . .
H11 H 0.5367 0.1626 1.1711 0.183 Uiso 1 1 calc R . .
C17 C 0.7070(5) 0.2675(6) 1.2059(7) 0.193(4) Uani 1 1 d . . .
H17 H 0.72 0.302 1.2174 0.232 Uiso 1 1 calc R . .
C6 C 0.5510(4) 0.2899(6) 1.1915(6) 0.149(4) Uani 1 1 d . . .
H6 H 0.5415 0.2764 1.2405 0.178 Uiso 1 1 calc R . .
N4 N 0.7297(2) 0.4649(4) 0.8474(5) 0.198(4) Uani 1 1 d . . .
C26 C 0.7130(3) 0.5156(5) 0.8619(7) 0.158(4) Uani 1 1 d . . .
C19 C 0.7068(6) 0.1748(6) 1.1667(7) 0.194(4) Uani 1 1 d . . .
H19 H 0.7202 0.1412 1.1527 0.232 Uiso 1 1 calc R . .
N3 N 0.7298(2) 0.5615(4) 0.8607(6) 0.180(4) Uani 1 1 d . . .
C21 C 0.6129(6) 0.5574(5) 0.9066(6) 0.154(4) Uani 1 1 d . . .
H21 H 0.601 0.5924 0.9195 0.185 Uiso 1 1 calc R . .
C13 C 0.5993(3) 0.1637(6) 1.3052(15) 0.156(5) Uani 1 1 d . . .
H13 H 0.6247 0.1779 1.3172 0.188 Uiso 1 1 calc R . .
C22 C 0.6481(5) 0.5589(5) 0.8942(7) 0.167(5) Uani 1 1 d . . .
H22 H 0.6599 0.5951 0.8964 0.2 Uiso 1 1 calc R . .
C25 C 0.6103(6) 0.4644(6) 0.8828(7) 0.186(4) Uani 1 1 d . . .
H25 H 0.5962 0.43 0.8805 0.223 Uiso 1 1 calc R . .
C24 C 0.6486(5) 0.4610(6) 0.8653(7) 0.194(5) Uani 1 1 d . . .
H24 H 0.6598 0.427 0.8462 0.233 Uiso 1 1 calc R . .
C3 C 0.5779(3) 0.3376(5) 1.0558(6) 0.165(4) Uiso 1 1 d . . .
H3 H 0.5878 0.3532 1.0085 0.198 Uiso 1 1 calc R . .
C4 C 0.5961(3) 0.2892(5) 1.0902(10) 0.155(4) Uani 1 1 d . . .
H4 H 0.6185 0.274 1.0649 0.186 Uiso 1 1 calc R . .
O1 O 0.54136(15) 0.4348(3) 1.0099(4) 0.153(2) Uani 1 1 d . . .
O2 O 0.49406(16) 0.4264(2) 1.0994(4) 0.162(2) Uani 1 1 d . . .
C1 C 0.5275(3) 0.4119(6) 1.0633(7) 0.121(3) Uiso 1 1 d . . .

loop_
_atom_site_aniso_label
_atom_site_aniso_U_11
_atom_site_aniso_U_22
_atom_site_aniso_U_33
_atom_site_aniso_U_23
_atom_site_aniso_U_13
_atom_site_aniso_U_12
Zn1 0.0885(7) 0.1054(9) 0.1769(13) 0.0008(9) -0.0027(7) -0.0004(5)
O4 0.159(7) 0.132(7) 0.220(11) 0.002(8) 0.017(8) -0.012(5)
O3 0.096(4) 0.145(5) 0.204(7) -0.008(4) 0.003(5) -0.001(4)
N2 0.114(5) 0.103(6) 0.191(7) -0.013(6) 0.018(5) 0.003(7)
N1 0.144(13) 0.116(8) 0.228(12) 0.020(8) 0.017(9) 0.000(8)
C18 0.126(8) 0.110(7) 0.232(11) -0.004(8) 0.003(6) 0.000(8)
C8 0.140(14) 0.102(8) 0.183(19) 0.040(12) 0.067(15) 0.009(10)
C10 0.076(7) 0.119(9) 0.242(18) -0.018(9) 0.012(12) -0.030(7)
C14 0.109(9) 0.142(8) 0.184(11) 0.025(9) -0.026(9) 0.018(6)
C15 0.067(11) 0.160(13) 0.256(13) 0.012(11) 0.002(8) -0.011(11)
C20 0.088(10) 0.163(12) 0.285(13) -0.011(9) 0.023(9) -0.012(8)
C7 0.074(6) 0.124(9) 0.229(15) 0.011(9) 0.011(8) 0.017(7)
C16 0.092(11) 0.207(15) 0.255(13) 0.032(11) -0.020(9) 0.016(8)
C23 0.109(11) 0.111(9) 0.293(14) 0.001(8) 0.018(9) -0.002(11)
C9 0.088(12) 0.168(12) 0.195(18) -0.023(13) -0.054(10) 0.022(10)
C5 0.108(12) 0.165(14) 0.190(15) 0.022(13) 0.025(10) -0.021(11)
C12 0.126(16) 0.140(11) 0.173(15) 0.037(11) -0.043(10) 0.025(11)
C2 0.107(8) 0.102(8) 0.183(11) -0.005(7) 0.032(7) -0.013(7)
C11 0.083(8) 0.148(9) 0.226(14) 0.001(11) -0.037(9) -0.003(6)
C17 0.171(13) 0.144(11) 0.265(13) -0.011(9) 0.015(10) -0.040(9)
C6 0.120(9) 0.151(10) 0.175(11) 0.002(10) 0.033(9) -0.013(7)
N4 0.137(7) 0.176(7) 0.282(10) -0.023(7) 0.019(5) -0.012(5)
C26 0.081(10) 0.160(14) 0.233(12) 0.002(10) -0.004(7) 0.007(9)
C19 0.173(13) 0.132(11) 0.276(13) -0.002(9) 0.007(10) 0.030(9)
N3 0.120(7) 0.168(7) 0.252(9) -0.001(7) 0.018(5) -0.001(5)
C21 0.145(10) 0.101(10) 0.215(10) -0.002(7) 0.041(9) 0.014(9)
C13 0.102(8) 0.101(9) 0.266(18) 0.001(10) 0.046(13) -0.015(7)
C22 0.089(8) 0.165(13) 0.247(12) 0.005(9) 0.008(8) -0.039(10)
C25 0.179(12) 0.117(11) 0.262(13) -0.007(8) 0.014(10) -0.046(9)
C24 0.109(8) 0.187(15) 0.287(14) 0.005(9) 0.032(9) 0.041(10)
C4 0.083(6) 0.134(10) 0.247(14) -0.015(9) -0.003(9) 0.003(6)
O1 0.120(4) 0.178(6) 0.162(6) 0.030(5) 0.009(4) 0.022(3)
O2 0.113(4) 0.163(5) 0.211(6) 0.007(4) -0.001(4) 0.011(4)


#----------------------------------------------------------------------------#
# MOLECULAR GEOMETRY #
#----------------------------------------------------------------------------#

_geom_special_details            
;
All esds (except the esd in the dihedral angle between two l.s. planes)
are estimated using the full covariance matrix. The cell esds are taken
into account individually in the estimation of esds in distances, angles
and torsion angles; correlations between esds in cell parameters are only
used when they are defined by crystal symmetry. An approximate (isotropic)
treatment of cell esds is used for estimating esds involving l.s. planes.
;
loop_
_geom_bond_atom_site_label_1
_geom_bond_atom_site_label_2
_geom_bond_distance
_geom_bond_site_symmetry_2
_geom_bond_publ_flag
Zn1 O4 1.830(11) 4_557 ?
Zn1 O1 2.002(7) . ?
Zn1 N2 2.009(8) . ?
Zn1 O3 2.009(7) 8_665 ?
Zn1 O2 2.040(5) 5_667 ?
Zn1 Zn1 2.9177(19) 5_667 ?
O4 C8 1.293(13) . ?
O4 Zn1 1.830(11) 4_547 ?
O3 C8 1.347(15) . ?
O3 Zn1 2.009(7) 8_666 ?
N2 C21 1.369(11) . ?
N2 C25 1.406(14) . ?
N1 C5 1.356(14) . ?
N1 C12 1.438(16) . ?
N1 C15 1.443(15) . ?
C18 C19 1.349(11) . ?
C18 C17 1.358(11) . ?
C18 C18 1.515(18) 3_655 ?
C8 C9 1.460(19) . ?
C10 C9 1.313(13) . ?
C10 C11 1.380(12) . ?
C14 C9 1.446(14) . ?
C14 C13 1.471(13) . ?
C15 C16 1.266(12) . ?
C15 C20 1.298(11) . ?
C20 C19 1.391(12) . ?
C7 C2 1.331(11) . ?
C7 C6 1.370(11) . ?
C16 C17 1.451(13) . ?
C23 C26 1.374(13) . ?
C23 C22 1.405(13) . ?
C23 C24 1.530(14) . ?
C5 C4 1.359(13) . ?
C5 C6 1.396(15) . ?
C12 C13 1.335(15) . ?
C12 C11 1.405(17) . ?
C2 C3 1.407(12) . ?
C2 C1 1.426(12) . ?
N4 C26 1.356(11) . ?
N4 N4 1.382(16) 3_655 ?
C26 N3 1.231(9) . ?
N3 N3 1.375(15) 3_655 ?
C21 C22 1.220(10) . ?
C25 C24 1.341(13) . ?
C3 C4 1.433(11) . ?
O1 C1 1.161(10) . ?
O2 C1 1.339(10) . ?
O2 Zn1 2.040(5) 5_667 ?

loop_
_geom_angle_atom_site_label_1
_geom_angle_atom_site_label_2
_geom_angle_atom_site_label_3
_geom_angle
_geom_angle_site_symmetry_1
_geom_angle_site_symmetry_3
_geom_angle_publ_flag
O4 Zn1 O1 90.8(3) 4_557 . ?
O4 Zn1 N2 95.2(4) 4_557 . ?
O1 Zn1 N2 98.0(4) . . ?
O4 Zn1 O3 160.4(3) 4_557 8_665 ?
O1 Zn1 O3 86.4(2) . 8_665 ?
N2 Zn1 O3 104.4(4) . 8_665 ?
O4 Zn1 O2 88.2(3) 4_557 5_667 ?
O1 Zn1 O2 159.0(2) . 5_667 ?
N2 Zn1 O2 103.0(4) . 5_667 ?
O3 Zn1 O2 87.5(2) 8_665 5_667 ?
O4 Zn1 Zn1 72.7(3) 4_557 5_667 ?
O1 Zn1 Zn1 72.88(18) . 5_667 ?
N2 Zn1 Zn1 164.4(2) . 5_667 ?
O3 Zn1 Zn1 87.97(18) 8_665 5_667 ?
O2 Zn1 Zn1 86.86(18) 5_667 5_667 ?
C8 O4 Zn1 142.6(12) . 4_547 ?
C8 O3 Zn1 113.3(9) . 8_666 ?
C21 N2 C25 108.3(7) . . ?
C21 N2 Zn1 128.0(10) . . ?
C25 N2 Zn1 122.1(11) . . ?
C5 N1 C12 114.9(13) . . ?
C5 N1 C15 125.2(12) . . ?
C12 N1 C15 114.5(12) . . ?
C19 C18 C17 116.5(10) . . ?
C19 C18 C18 122.1(10) . 3_655 ?
C17 C18 C18 121.4(9) . 3_655 ?
O4 C8 O3 123.1(15) . . ?
O4 C8 C9 126.9(16) . . ?
O3 C8 C9 109.6(13) . . ?
C9 C10 C11 128.6(16) . . ?
C9 C14 C13 111.8(12) . . ?
C16 C15 C20 120.6(12) . . ?
C16 C15 N1 119.6(15) . . ?
C20 C15 N1 119.2(15) . . ?
C15 C20 C19 120.9(11) . . ?
C2 C7 C6 125.9(12) . . ?
C15 C16 C17 121.4(13) . . ?
C26 C23 C22 128.3(13) . . ?
C26 C23 C24 122.9(13) . . ?
C22 C23 C24 108.2(9) . . ?
C10 C9 C14 116.2(17) . . ?
C10 C9 C8 129.9(16) . . ?
C14 C9 C8 114.0(17) . . ?
N1 C5 C4 117.2(16) . . ?
N1 C5 C6 128.5(14) . . ?
C4 C5 C6 114.1(15) . . ?
C13 C12 C11 110.4(17) . . ?
C13 C12 N1 125.1(16) . . ?
C11 C12 N1 123.3(15) . . ?
C7 C2 C3 114.9(11) . . ?
C7 C2 C1 124.0(12) . . ?
C3 C2 C1 121.2(14) . . ?
C10 C11 C12 120.6(12) . . ?
C18 C17 C16 118.7(10) . . ?
C7 C6 C5 121.5(12) . . ?
C26 N4 N4 114.9(6) . 3_655 ?
N3 C26 N4 125.9(11) . . ?
N3 C26 C23 119.2(11) . . ?
N4 C26 C23 114.9(11) . . ?
C18 C19 C20 121.7(10) . . ?
C26 N3 N3 117.8(7) . 3_655 ?
C22 C21 N2 128.5(10) . . ?
C12 C13 C14 131.9(17) . . ?
C21 C22 C23 128.2(11) . . ?
C24 C25 N2 128.8(9) . . ?
C25 C24 C23 117.4(10) . . ?
C2 C3 C4 119.3(11) . . ?
C5 C4 C3 124.1(15) . . ?
C1 O1 Zn1 138.9(9) . . ?
C1 O2 Zn1 114.7(8) . 5_667 ?
O1 C1 O2 125.9(14) . . ?
O1 C1 C2 119.7(14) . . ?
O2 C1 C2 114.2(11) . . ?
