
#######################################################################
#
#                 Cambridge Crystallographic Data Centre
#                                CCDC
#
#######################################################################
#
# If this CIF has been generated from an entry in the Cambridge
# Structural Database, then it will include bibliographic, chemical,
# crystal, experimental, refinement or atomic coordinate data resulting
# from the CCDC's data processing and validation procedures.
#
#######################################################################

data_CSD_CIF_VAJRIH
_audit_creation_date 1989-11-29
_audit_creation_method CSD-ConQuest-V1
_database_code_CSD VAJRIH
_database_code_depnum_ccdc_archive 'CCDC 1279388'
_chemical_formula_sum 'C19 H18 N1 O2 P1'
_chemical_formula_moiety
;
C19 H18 P1 1+,N1 O2 1-
;
_journal_coden_Cambridge 644
_journal_volume 43
_journal_year 1988
_journal_page_first 1279
_journal_name_full 'Z.Naturforsch.,B:Chem.Sci. '
loop_
_publ_author_name
"M.El Essawi"
"H.Gosmann"
"D.Fenske"
"F.Schmock"
"K.Dehnicke"
_chemical_name_systematic
;
Triphenylmethylphosphonium nitrite
;
_chemical_name_common
;
Teaching Subset: Fundamental Chemistry
;
_cell_volume   1748.916
_exptl_crystal_colour 'pale yellow'
_exptl_crystal_density_diffrn 1.22
_diffrn_ambient_temperature ?
_diffrn_special_details
;
The study was carried out at room temperature,in the range 283-303K

;
#These two values have been output from a single CSD field.
_refine_ls_R_factor_gt 0.0587
_refine_ls_wR_factor_gt 0.0587
_symmetry_cell_setting monoclinic
_symmetry_space_group_name_H-M 'P 21/n'
_symmetry_Int_Tables_number 14
loop_
_symmetry_equiv_pos_site_id
_symmetry_equiv_pos_as_xyz
1 x,y,z
2 1/2-x,1/2+y,1/2-z
3 -x,-y,-z
4 -1/2+x,-1/2-y,-1/2+z
_cell_length_a 9.147(3)
_cell_length_b 18.875(9)
_cell_length_c 10.800(4)
_cell_angle_alpha 90
_cell_angle_beta 110.29(3)
_cell_angle_gamma 90
_cell_formula_units_Z 4
loop_
_atom_type_symbol
_atom_type_radius_bond
C 0.68
H 0.23
N 0.68
O 0.68
P 1.05
loop_
_atom_site_label
_atom_site_type_symbol
_atom_site_fract_x
_atom_site_fract_y
_atom_site_fract_z
P1 P 0.0915(1) 0.60800 0.3276(1)
C1 C 0.0261(5) 0.6555(2) 0.4413(4)
C2 C 0.2166(4) 0.6642(2) 0.2749(3)
C3 C 0.2254(5) 0.6565(2) 0.1494(4)
C4 C 0.3298(6) 0.6965(3) 0.1140(5)
C5 C 0.4227(6) 0.7455(3) 0.2002(5)
C6 C 0.4139(5) 0.7536(3) 0.3226(5)
C7 C 0.3110(5) 0.7131(2) 0.3604(4)
C8 C -0.0757(4) 0.5836(2) 0.1863(3)
C9 C -0.1596(4) 0.6390(2) 0.1084(4)
C10 C -0.2949(5) 0.6238(3) 0.0017(4)
C11 C -0.3435(5) 0.5552(3) -0.0233(4)
C12 C -0.2633(5) 0.5004(3) 0.0537(4)
C13 C -0.1266(4) 0.5150(2) 0.1603(4)
C14 C 0.1975(4) 0.5306(2) 0.4044(3)
C15 C 0.2361(4) 0.5193(2) 0.5398(4)
C16 C 0.3228(5) 0.4604(3) 0.5978(6)
C17 C 0.3704(5) 0.4140(3) 0.5235(6)
C18 C 0.3361(6) 0.4246(3) 0.3906(6)
C19 C 0.2489(5) 0.4834(2) 0.3301(5)
H1 H -0.0275(40) 0.7046(20) 0.3998(33)
H2 H -0.0447(43) 0.6250(21) 0.4616(36)
H3 H 0.1196(48) 0.6701(21) 0.5166(40)
H4 H 0.159(41) 0.6199(21) 0.0874(36)
H5 H 0.3484(47) 0.6921(23) 0.0331(43)
H6 H 0.4993(48) 0.7658(24) 0.1769(39)
H7 H 0.4882(51) 0.7824(25) 0.3836(43)
H8 H 0.3033(33) 0.7139(17) 0.4423(31)
H9 H -0.4365(49) 0.5456(23) -0.0933(42)
H10 H -0.2907(40) 0.4516(23) 0.0456(34)
H11 H -0.0709(35) 0.4751(18) 0.2145(30)
H12 H 0.2038(46) 0.5521(23) 0.5875(39)
H13 H 0.3551(53) 0.4486(26) 0.6952(47)
H14 H 0.4253(48) 0.3722(25) 0.5603(40)
H15 H 0.3688(49) 0.3938(23) 0.3368(41)
H16 H 0.2233(40) 0.4888(21) 0.2368(37)
N1 N 0.1525(6) 0.1820(3) 0.7174(6)
O1 O 0.2548(6) 0.1463(2) 0.7214(4)
O2 O 0.1107(5) 0.1908(2) 0.8045(4)
#END
