####################################################################### 
# 
# This file contains crystal structure data downloaded from the 
# Cambridge Structural Database (CSD) hosted by the Cambridge 
# Crystallographic Data Centre (CCDC).
# 
# Full information about CCDC data access policies and citation 
# guidelines are available at http://www.ccdc.cam.ac.uk/access/V1 
# 
# Audit and citation data items may have been added by the CCDC. 
# Please retain this information to preserve the provenance of 
# this file and to allow appropriate attribution of the data. 
# 
#######################################################################

data_gq42_123k
_audit_block_doi                 10.5517/ccv5sj9
_database_code_depnum_ccdc_archive 'CCDC 780131'
loop_
_citation_id
_citation_doi
_citation_year
1 10.1039/c0ce00175a 2010
_audit_update_record             
;
2010-06-08 deposited with the CCDC.	2024-07-13 downloaded from the CCDC.
;
_audit_creation_date             08-12-03
_audit_creation_method           CRYSTALS_ver_12.86

_oxford_structure_analysis_title 'gq42_123k_0m in P-1'
_chemical_name_systematic        ?
_chemical_melting_point          ?


_cell_length_a                   13.2384(10)
_cell_length_b                   14.8656(11)
_cell_length_c                   24.2223(18)
_cell_angle_alpha                82.624(4)
_cell_angle_beta                 74.810(4)
_cell_angle_gamma                64.087(4)
_cell_volume                     4137.3(6)

_symmetry_cell_setting           Triclinic
_symmetry_space_group_name_H-M   'P -1 '
_symmetry_space_group_name_Hall  '-P 1'
loop_
_symmetry_equiv_pos_as_xyz
x,y,z
-x,-y,-z

loop_
_atom_type_symbol
_atom_type_scat_dispersion_real
_atom_type_scat_dispersion_imag
_atom_type_scat_Cromer_Mann_a1
_atom_type_scat_Cromer_Mann_b1
_atom_type_scat_Cromer_Mann_a2
_atom_type_scat_Cromer_Mann_b2
_atom_type_scat_Cromer_Mann_a3
_atom_type_scat_Cromer_Mann_b3
_atom_type_scat_Cromer_Mann_a4
_atom_type_scat_Cromer_Mann_b4
_atom_type_scat_Cromer_Mann_c
_atom_type_scat_source
C 0.0033 0.0016 2.3100 20.8439 1.0200 10.2075 1.5886 0.5687 0.8650 51.6512
0.2156 'International Tables Vol C 4.2.6.8 and 6.1.1.4'
H 0.0000 0.0000 0.4930 10.5109 0.3229 26.1257 0.1402 3.1424 0.0408 57.7998
0.0030 'International Tables Vol C 4.2.6.8 and 6.1.1.4'
N 0.0061 0.0033 12.2126 0.0057 3.1322 9.8933 2.0125 28.9975 1.1663 0.5826
-11.5290 'International Tables Vol C 4.2.6.8 and 6.1.1.4'
O 0.0106 0.0060 3.0485 13.2771 2.2868 5.7011 1.5463 0.3239 0.8670 32.9089
0.2508 'International Tables Vol C 4.2.6.8 and 6.1.1.4'
S 0.1246 0.1234 6.9053 1.4679 5.2034 22.2151 1.4379 0.2536 1.5863 56.1720
0.8669 'International Tables Vol C 4.2.6.8 and 6.1.1.4'
Cl 0.1484 0.1585 11.4604 0.0104 7.1964 1.1662 6.2556 18.5194 1.6455 47.7784
-9.5574 'International Tables Vol C 4.2.6.8 and 6.1.1.4'
Cd -0.8075 1.2024 19.2214 0.5946 17.6444 6.9089 4.4610 24.7008 1.6029 87.4825
5.0694 'International Tables Vol C 4.2.6.8 and 6.1.1.4'


_cell_formula_units_Z            2

# Given Formula = C80 H60 Cd2 Cl9 N9 O11 S3
# Dc = 1.58 Fooo = 1992.00 Mu = 9.45 M = 1963.48
# Found Formula = C71 H62 Cd2 Cl9 N13 O15 S3
# Dc = 1.59 FOOO = 1992.00 Mu = 9.50 M = 1977.42

_chemical_formula_sum            'C71 H62 Cd2 Cl9 N13 O15 S3'
_chemical_formula_moiety         
;
C66 H51 Cd2 N13 O12 S3, 3(C H Cl3), 2(C2 H4 O), H2 O
;
_chemical_compound_source        ?
_chemical_formula_weight         1977.42


_cell_measurement_reflns_used    3695
_cell_measurement_theta_min      4
_cell_measurement_theta_max      30
_cell_measurement_temperature    123

_exptl_crystal_description       block
_exptl_crystal_colour            colorless
_exptl_crystal_size_min          0.12
_exptl_crystal_size_mid          0.24
_exptl_crystal_size_max          0.36

_exptl_crystal_density_diffrn    1.587
_exptl_crystal_density_meas      ?
_exptl_crystal_density_method    'not measured'
# Non-dispersive F(000):
_exptl_crystal_F_000             1992
_exptl_absorpt_coefficient_mu    0.950

# Sheldrick geometric approximatio 0.80 0.89
_exptl_absorpt_correction_type   multi-scan
_exptl_absorpt_process_details   'DENZO/SCALEPACK (Otwinowski & Minor, 1997)'
_exptl_absorpt_correction_T_min  0.80
_exptl_absorpt_correction_T_max  0.89
# For a Kappa CCD, set Tmin to 1.0 and
# Tmax to the ratio of max:min frame scales in scale_all.log
_diffrn_measurement_device       'Nonius KappaCCD'
_diffrn_measurement_device_type  Area
_diffrn_radiation_monochromator  graphite
_diffrn_radiation_type           'Mo K\a'
_diffrn_radiation_wavelength     0.71073
_diffrn_measurement_method       '\f & \w scans'

# If a reference occurs more than once, delete the author
# and date from subsequent references.
_computing_data_collection       'COLLECT (Nonius, 1997-2001).'
_computing_cell_refinement       'DENZO/SCALEPACK (Otwinowski & Minor, 1997)'
_computing_data_reduction        'DENZO/SCALEPACK (Otwinowski & Minor, 1997)'
_computing_structure_solution    'SIR97 (Altomare et al., 1999)'
_computing_structure_refinement  'CRYSTALS (Betteridge et al., 2003)'
_computing_publication_material  'CRYSTALS (Betteridge et al., 2003)'
_computing_molecular_graphics    'CAMERON (Watkin et al., 1996)'

_diffrn_standards_interval_time  .
_diffrn_standards_interval_count .
_diffrn_standards_number         0
_diffrn_standards_decay_%        ?

_diffrn_ambient_temperature      123
_diffrn_reflns_number            121701
_reflns_number_total             24057
_diffrn_reflns_av_R_equivalents  0.049
# Number of reflections with Friedels Law is 24057
# Number of reflections without Friedels Law is 0
# Theoretical number of reflections is about 25575


_diffrn_reflns_theta_min         1.758
_diffrn_reflns_theta_max         30.620
_diffrn_measured_fraction_theta_max 0.943

_diffrn_reflns_theta_full        25.109
_diffrn_measured_fraction_theta_full 0.982


_diffrn_reflns_limit_h_min       -18
_diffrn_reflns_limit_h_max       18
_diffrn_reflns_limit_k_min       -21
_diffrn_reflns_limit_k_max       21
_diffrn_reflns_limit_l_min       -34
_diffrn_reflns_limit_l_max       34
_reflns_limit_h_min              -18
_reflns_limit_h_max              18
_reflns_limit_k_min              -20
_reflns_limit_k_max              21
_reflns_limit_l_min              0
_reflns_limit_l_max              34

_oxford_diffrn_Wilson_B_factor   1.67
_oxford_diffrn_Wilson_scale      190.08

_atom_sites_solution_primary     direct #heavy,direct,difmap,geom
# _atom_sites_solution_secondary difmap
_atom_sites_solution_hydrogens   geom

_refine_diff_density_min         -2.11
_refine_diff_density_max         3.09


# The current dictionary definitions do not cover the
# situation where the reflections used for refinement were
# selected by a user-defined sigma threshold


# The values actually used during refinement
_oxford_reflns_threshold_expression_ref I>3.0\s(I)
_refine_ls_number_reflns         17808
_refine_ls_number_restraints     1715
_refine_ls_number_parameters     1082
_oxford_refine_ls_R_factor_ref   0.0661
_refine_ls_wR_factor_ref         0.0721
_refine_ls_goodness_of_fit_ref   1.0197
_refine_ls_shift/su_max          0.024165


# The values computed from all data
_oxford_reflns_number_all        23958
_refine_ls_R_factor_all          0.0819
_refine_ls_wR_factor_all         0.1027

# The values computed with a 2 sigma cutoff - a la SHELX
_reflns_threshold_expression     I>2.0\s(I)
_reflns_number_gt                18612
_refine_ls_R_factor_gt           0.0678
_refine_ls_wR_factor_gt          0.0737

# choose from: rm (reference molecule of known chirality),
# ad (anomolous dispersion - Flack), rmad (rm and ad),
# syn (from synthesis), unk (unknown) or . (not applicable).
_chemical_absolute_configuration .


_refine_ls_structure_factor_coef F
_refine_ls_matrix_type           full
_refine_ls_hydrogen_treatment    constr # none, undef, noref, refall,
# refxyz, refU, constr or mixed
_refine_ls_weighting_scheme      calc
_refine_ls_weighting_details     
;
Method, part 1, Chebychev polynomial, (Watkin, 1994, Prince, 1982)
[weight] = 1.0/[A~0~*T~0~(x)+A~1~*T~1~(x) ... +A~n-1~]*T~n-1~(x)]
where A~i~ are the Chebychev coefficients listed below and x= Fcalc/Fmax
Method = Robust Weighting (Prince, 1982)
W = [weight] * [1-(deltaF/6*sigmaF)^2^]^2^
A~i~ are:
0.877 1.17 0.666 0.248 0.822E-01
;

# Uequiv = arithmetic mean of Ui i.e. Ueqiv = (U1+U2+U3)/3

# Replace last . with number of unfound hydrogen atomsattached to an atom.

# ..._refinement_flags_...
# . no refinement constraints S special position constraint on site
# G rigid group refinement of site R riding atom
# D distance or angle restraint on site T thermal displacement constraints
# U Uiso or Uij restraint (rigid bond) P partial occupancy constraint

_refine_special_details          
;
Checking of the symmetry of this structure generates an alert in checkcif
saying that there could be higher symmetry and that the space group
is therefore possibly in error. In fact there is a very similar structure where
the ligand has C2-symmetry, and there the transformation to the monoclinic
cell is successful. Here, as the ligand cannot be placed on a twofold axes,
this transformation does not give the desired results and we therefore are
convinced that the space group is correct.
;

loop_
_atom_site_label
_atom_site_type_symbol
_atom_site_fract_x
_atom_site_fract_y
_atom_site_fract_z
_atom_site_U_iso_or_equiv
_atom_site_occupancy
_atom_site_adp_type
_atom_site_refinement_flags_posn
_atom_site_refinement_flags_adp
_atom_site_refinement_flags_occupancy
_atom_site_disorder_assembly
_atom_site_disorder_group
_oxford_atom_site_special_shape
_atom_site_attached_hydrogens
Cd1 Cd 0.27565(2) 0.22570(2) 0.680252(12) 0.0173 1.0000 Uani . . . . . . .
Cd2 Cd 0.31131(2) -0.27242(2) 1.180889(12) 0.0164 1.0000 Uani . . . . . . .
O1 O 0.2897(3) 0.3116(2) 0.75720(16) 0.0268 1.0000 Uani . . . . . . .
O2 O 0.1501(3) 0.3875(3) 0.71455(17) 0.0318 1.0000 Uani . . . . . . .
O3 O 0.1666(4) 0.4632(3) 0.7810(2) 0.0416 1.0000 Uani . . . . . . .
O4 O 0.1242(3) 0.2720(3) 0.62663(15) 0.0301 1.0000 Uani . . . . . . .
O5 O 0.2728(3) 0.1307(3) 0.60623(15) 0.0290 1.0000 Uani . . . . . . .
O6 O 0.1411(4) 0.1834(4) 0.5570(2) 0.0500 1.0000 Uani . . . . . . .
O7 O 0.4702(3) -0.2253(3) 1.12951(15) 0.0292 1.0000 Uani . . . . . . .
O8 O 0.4767(3) -0.3646(3) 1.10734(15) 0.0276 1.0000 Uani . . . . . . .
O9 O 0.6061(4) -0.3140(4) 1.0597(2) 0.0484 1.0000 Uani . . . . . . .
O10 O 0.1417(3) -0.1921(2) 1.26040(16) 0.0250 1.0000 Uani . . . . . . .
O11 O 0.2459(3) -0.1135(3) 1.21771(15) 0.0296 1.0000 Uani . . . . . . .
O12 O 0.0985(4) -0.0433(3) 1.28716(19) 0.0375 1.0000 Uani . . . . . . .
O81 O 0.6151(5) -0.1139(4) 1.1036(2) 0.0545 1.0000 Uani . . . . . . .
O82 O -0.1013(4) 0.3848(4) 0.6010(2) 0.0481 1.0000 Uani . . . . . . .
O101 O 0.8565(11) 0.7511(10) 0.0723(4) 0.0632 0.5000 Uani . U . . . . .
O111 O -0.1026(18) 1.1535(18) 0.5731(9) 0.1156 0.5000 Uani . U . . . . .
N1 N 0.1870(3) 0.1431(3) 0.74805(15) 0.0208 1.0000 Uani . . . . . . .
N2 N 0.1117(3) -0.0699(3) 0.91854(14) 0.0171 1.0000 Uani . . . . . . .
N3 N 0.2183(3) -0.2018(3) 1.10707(15) 0.0193 1.0000 Uani . . . . . . .
N4 N 0.3728(3) 0.2955(3) 0.60812(15) 0.0182 1.0000 Uani . . . . . . .
N5 N 0.5317(3) 0.4297(3) 0.42142(14) 0.0173 1.0000 Uani . . . . . . .
N6 N 0.4125(3) 0.6395(3) 0.24978(15) 0.0198 1.0000 Uani . . . . . . .
N7 N 0.4436(3) 0.0920(3) 0.69830(16) 0.0190 1.0000 Uani . . . . . . .
N8 N 0.7155(2) -0.2510(3) 0.75274(16) 0.0160 1.0000 Uani . . . . . . .
N9 N 0.7498(3) -0.5982(3) 0.80653(16) 0.0201 1.0000 Uani . . . . . . .
N10 N 0.2011(3) 0.3889(3) 0.75160(18) 0.0272 1.0000 Uani . . . . . . .
N11 N 0.1788(4) 0.1947(3) 0.59522(17) 0.0265 1.0000 Uani . . . . . . .
N12 N 0.5206(4) -0.3006(3) 1.09734(18) 0.0292 1.0000 Uani . . . . . . .
N13 N 0.1600(4) -0.1150(3) 1.25609(17) 0.0237 1.0000 Uani . . . . . . .
C9 C 0.2083(4) 0.1268(4) 0.80125(19) 0.0260 1.0000 Uani . . . . . . .
C10 C 0.1720(4) 0.0661(3) 0.84206(18) 0.0223 1.0000 Uani . . . . . . .
C11 C 0.1134(3) 0.0171(3) 0.82809(16) 0.0167 1.0000 Uani . . . . . . .
C12 C 0.0956(4) 0.0303(4) 0.77275(18) 0.0223 1.0000 Uani . . . . . . .
C13 C 0.1328(4) 0.0932(4) 0.73484(18) 0.0239 1.0000 Uani . . . . . . .
C14 C 0.0677(3) -0.0443(3) 0.87169(16) 0.0156 1.0000 Uani . . . . . . .
C15 C -0.0183(4) -0.0684(3) 0.86445(17) 0.0185 1.0000 Uani . . . . . . .
C16 C -0.0612(4) -0.1239(3) 0.90740(17) 0.0183 1.0000 Uani . . . . . . .
C17 C -0.0158(4) -0.1502(3) 0.95629(18) 0.0203 1.0000 Uani . . . . . . .
C18 C 0.0701(3) -0.1221(3) 0.96021(16) 0.0162 1.0000 Uani . . . . . . .
C19 C 0.1286(4) -0.2202(4) 1.1056(2) 0.0260 1.0000 Uani . . . . . . .
C20 C 0.0779(4) -0.1952(4) 1.05905(19) 0.0249 1.0000 Uani . . . . . . .
C21 C 0.1197(3) -0.1476(3) 1.01138(17) 0.0166 1.0000 Uani . . . . . . .
C22 C 0.2093(4) -0.1257(3) 1.01377(19) 0.0232 1.0000 Uani . . . . . . .
C23 C 0.2567(4) -0.1536(3) 1.06173(19) 0.0239 1.0000 Uani . . . . . . .
C24 C -0.1570(4) -0.1480(3) 0.90349(17) 0.0214 1.0000 Uani . . . . . . .
C25 C -0.1624(5) -0.2377(4) 0.9277(2) 0.0280 1.0000 Uani . . . . . . .
C26 C -0.2574(5) -0.2564(4) 0.9284(2) 0.0293 1.0000 Uani . . . . . . .
C27 C -0.3502(4) -0.1857(4) 0.90638(19) 0.0242 1.0000 Uani . . . . . . .
C28 C -0.3429(4) -0.0977(4) 0.88089(19) 0.0245 1.0000 Uani . . . . . . .
C29 C -0.2461(4) -0.0810(4) 0.87919(19) 0.0252 1.0000 Uani . . . . . . .
C30 C -0.5487(5) -0.1293(5) 0.8652(3) 0.0366 1.0000 Uani . . . . . . .
C31 C 0.3311(4) 0.3435(3) 0.56256(19) 0.0223 1.0000 Uani . . . . . . .
C32 C 0.3965(4) 0.3722(3) 0.51518(18) 0.0224 1.0000 Uani . . . . . . .
C33 C 0.5112(3) 0.3515(3) 0.51425(16) 0.0158 1.0000 Uani . . . . . . .
C34 C 0.5534(4) 0.3032(3) 0.56241(18) 0.0210 1.0000 Uani . . . . . . .
C35 C 0.4814(4) 0.2776(4) 0.60728(18) 0.0228 1.0000 Uani . . . . . . .
C36 C 0.5845(3) 0.3781(3) 0.46308(16) 0.0167 1.0000 Uani . . . . . . .
C37 C 0.7012(3) 0.3501(3) 0.45998(17) 0.0178 1.0000 Uani . . . . . . .
C38 C 0.7669(3) 0.3763(3) 0.41142(17) 0.0179 1.0000 Uani . . . . . . .
C39 C 0.7132(3) 0.4293(3) 0.36808(16) 0.0174 1.0000 Uani . . . . . . .
C40 C 0.5952(3) 0.4554(3) 0.37465(16) 0.0152 1.0000 Uani . . . . . . .
C41 C 0.5286(4) 0.5941(3) 0.23712(18) 0.0220 1.0000 Uani . . . . . . .
C42 C 0.5904(3) 0.5318(3) 0.27568(17) 0.0192 1.0000 Uani . . . . . . .
C43 C 0.5328(3) 0.5157(3) 0.33024(16) 0.0163 1.0000 Uani . . . . . . .
C44 C 0.4118(3) 0.5620(3) 0.34258(18) 0.0217 1.0000 Uani . . . . . . .
C45 C 0.3569(4) 0.6229(4) 0.30137(19) 0.0250 1.0000 Uani . . . . . . .
C46 C 0.8918(3) 0.3484(3) 0.40755(16) 0.0166 1.0000 Uani . . . . . . .
C47 C 0.9407(4) 0.4144(3) 0.38200(18) 0.0220 1.0000 Uani . . . . . . .
C48 C 1.0528(4) 0.3946(4) 0.38247(19) 0.0239 1.0000 Uani . . . . . . .
C49 C 1.1200(3) 0.3055(4) 0.40775(18) 0.0220 1.0000 Uani . . . . . . .
C50 C 1.0738(4) 0.2372(3) 0.43100(19) 0.0239 1.0000 Uani . . . . . . .
C51 C 0.9600(4) 0.2592(3) 0.43133(18) 0.0223 1.0000 Uani . . . . . . .
C52 C 1.3042(4) 0.3617(4) 0.3681(2) 0.0342 1.0000 Uani . . . . . . .
C53 C 0.5135(3) 0.0997(3) 0.72697(19) 0.0189 1.0000 Uani . . . . . . .
C54 C 0.6081(3) 0.0178(3) 0.74012(18) 0.0189 1.0000 Uani . . . . . . .
C55 C 0.6303(3) -0.0771(3) 0.72421(18) 0.0163 1.0000 Uani . . . . . . .
C56 C 0.5550(3) -0.0865(3) 0.69716(19) 0.0198 1.0000 Uani . . . . . . .
C57 C 0.4637(3) -0.0006(3) 0.6841(2) 0.0229 1.0000 Uani . . . . . . .
C58 C 0.7306(3) -0.1672(3) 0.73757(17) 0.0150 1.0000 Uani . . . . . . .
C59 C 0.8346(3) -0.1607(3) 0.73280(18) 0.0163 1.0000 Uani . . . . . . .
C60 C 0.9290(3) -0.2451(3) 0.74476(19) 0.0177 1.0000 Uani . . . . . . .
C61 C 0.9141(3) -0.3330(3) 0.76077(18) 0.0169 1.0000 Uani . . . . . . .
C62 C 0.8074(3) -0.3323(3) 0.76439(17) 0.0157 1.0000 Uani . . . . . . .
C63 C 0.6753(4) -0.5113(3) 0.8318(2) 0.0269 1.0000 Uani . . . . . . .
C64 C 0.6914(4) -0.4238(3) 0.8196(2) 0.0247 1.0000 Uani . . . . . . .
C65 C 0.7893(3) -0.4252(3) 0.77972(17) 0.0160 1.0000 Uani . . . . . . .
C66 C 0.8701(3) -0.5174(3) 0.75730(19) 0.0193 1.0000 Uani . . . . . . .
C67 C 0.8462(3) -0.6012(3) 0.77070(18) 0.0189 1.0000 Uani . . . . . . .
C68 C 1.0405(3) -0.2418(3) 0.73989(19) 0.0197 1.0000 Uani . . . . . . .
C69 C 1.0784(4) -0.1831(3) 0.6958(2) 0.0228 1.0000 Uani . . . . . . .
C70 C 1.1831(4) -0.1796(4) 0.6902(2) 0.0290 1.0000 Uani . . . . . . .
C71 C 1.2516(4) -0.2318(4) 0.7288(3) 0.0313 1.0000 Uani . . . . . . .
C72 C 1.2153(4) -0.2896(3) 0.7726(2) 0.0287 1.0000 Uani . . . . . . .
C73 C 1.1103(4) -0.2942(3) 0.7772(2) 0.0238 1.0000 Uani . . . . . . .
C74 C 1.4541(5) -0.3046(5) 0.7679(3) 0.0469 1.0000 Uani . . . . . . .
S1 S -0.47391(11) -0.20810(10) 0.91782(6) 0.0322 1.0000 Uani . . . . . . .
S2 S 1.25980(10) 0.27652(11) 0.41648(6) 0.0340 1.0000 Uani . . . . . . .
S3 S 1.38099(13) -0.21834(14) 0.71844(10) 0.0572 1.0000 Uani . . . . . . .
C81 C 0.6140(10) -0.0823(6) 1.0461(3) 0.0753 1.0000 Uani . . . . . . .
C82 C -0.0786(8) 0.4226(5) 0.5448(3) 0.0546 1.0000 Uani . . . . . . .
C91 C 0.6713(7) 0.4522(5) 1.0349(4) 0.0573 1.0000 Uani . U . . . . .
C92 C 0.3496(7) 0.9568(6) 0.5181(3) 0.0737 1.0000 Uani D U . . . . .
C101 C 0.9246(12) 0.5722(10) 0.0943(5) 0.0651 0.5000 Uani D U . . . . .
C111 C -0.1074(18) 1.0940(13) 0.5889(10) 0.1311 0.5000 Uani D U . . . . .
Cl1 Cl 0.5996(3) 0.37692(19) 1.0406(2) 0.