####################################################################### 
# 
# This file contains crystal structure data downloaded from the 
# Cambridge Structural Database (CSD) hosted by the Cambridge 
# Crystallographic Data Centre (CCDC).
# 
# Full information about CCDC data access policies and citation 
# guidelines are available at http://www.ccdc.cam.ac.uk/access/V1 
# 
# Audit and citation data items may have been added by the CCDC. 
# Please retain this information to preserve the provenance of 
# this file and to allow appropriate attribution of the data. 
# 
#######################################################################

data___FeTb_as_173K_a
_audit_block_doi                 10.5517/ccvbq73
_database_code_depnum_ccdc_archive 'CCDC 784865'
loop_
_citation_id
_citation_doi
_citation_year
1 10.1021/ic1015498 2011
_audit_update_record             
;
2010-07-20 deposited with the CCDC.	2024-07-13 downloaded from the CCDC.
;
#TrackingRef 'Fe_low.cif'


#==============================================================================

# CHEMICAL DATA

_chemical_formula_sum            'C29 H33 Fe N6 O7 '
_chemical_formula_moiety         'C29 H33 Fe N6 O7 '
_chemical_formula_weight         633.46
_chemical_melting_point          ?
_chemical_absolute_configuration 'CHOOSE rm ad rmad syn or unk'

#==============================================================================

# CRYSTAL DATA
_symmetry_cell_setting           tetragonal
_symmetry_space_group_name_H-M   'P -4 21 c'
_symmetry_space_group_name_Hall  'P -4 2n'
_symmetry_Int_Tables_number      114
loop_
_symmetry_equiv_pos_site_id
_symmetry_equiv_pos_as_xyz
1 +X,+Y,+Z
2 +Y,-X,-Z
3 -X,-Y,+Z
4 -Y,+X,-Z
5 1/2-X,1/2+Y,1/2-Z
6 1/2-Y,1/2-X,1/2+Z
7 1/2+X,1/2-Y,1/2-Z
8 1/2+Y,1/2+X,1/2+Z

#------------------------------------------------------------------------------

_cell_length_a                   17.2926(4)
_cell_length_b                   17.2926(4)
_cell_length_c                   22.8962(8)
_cell_angle_alpha                90.0000
_cell_angle_beta                 90.0000
_cell_angle_gamma                90.0000
_cell_volume                     6846.7(3)
_cell_formula_units_Z            8
_cell_measurement_reflns_used    13843
_cell_measurement_theta_min      3.2
_cell_measurement_theta_max      27.5
_cell_measurement_temperature    133.1

#------------------------------------------------------------------------------

_exptl_crystal_description       prism
_exptl_crystal_colour            colorless
_exptl_crystal_size_max          0.20
_exptl_crystal_size_mid          0.20
_exptl_crystal_size_min          0.20
_exptl_crystal_density_diffrn    1.229
_exptl_crystal_density_meas      ?
_exptl_crystal_density_method    'not measured'
_exptl_crystal_F_000             2648.00
_exptl_absorpt_coefficient_mu    0.489
_exptl_absorpt_correction_type   none

#==============================================================================

# EXPERIMENTAL DATA

_diffrn_radiation_type           'Mo K\a'
_diffrn_radiation_wavelength     0.71075
_diffrn_measurement_device_type  'Rigaku Saturn'
_diffrn_measurement_method       \w
_diffrn_detector_area_resol_mean 7.31
_diffrn_reflns_number            45593
_diffrn_reflns_av_R_equivalents  0.048
_diffrn_reflns_theta_max         27.48
_diffrn_measured_fraction_theta_max 0.994
_diffrn_reflns_theta_full        27.48
_diffrn_measured_fraction_theta_full 0.994
_diffrn_reflns_limit_h_min       -22
_diffrn_reflns_limit_h_max       22
_diffrn_reflns_limit_k_min       -22
_diffrn_reflns_limit_k_max       16
_diffrn_reflns_limit_l_min       -29
_diffrn_reflns_limit_l_max       28
_diffrn_ambient_temperature      133.1

#==============================================================================

# REFINEMENT DATA

_refine_special_details          
;
Refinement was performed using reflections with F^2^ > 2.0 sigma(F^2^).
The weighted R-factor (wR) and goodness of fit (S) are based on F^2^.
R-factor (gt) are based on F. The threshold expression of
F^2^ > 2.0 sigma(F^2^) is used only for calculating R-factor (gt).
;
_reflns_number_total             7814
_reflns_number_gt                32886
_reflns_threshold_expression     F^2^>2.0\s(F^2^)
_refine_ls_structure_factor_coef Fsqd
_refine_ls_R_factor_gt           0.0749
_refine_ls_wR_factor_ref         0.1039
_refine_ls_hydrogen_treatment    refall
_refine_ls_number_reflns         33313
_refine_ls_number_parameters     426
_refine_ls_goodness_of_fit_ref   1.139
_refine_ls_weighting_scheme      calc
_refine_ls_weighting_details     
;
Chebychev polynomial with 3 parameters (Carruthers & Watkin, 1979)
18651.1000 25941.1000 7838.4300
;
_refine_ls_shift/su_max          0.0000
_refine_diff_density_max         9.63
_refine_diff_density_min         -5.30
_refine_ls_extinction_method     none
_refine_ls_extinction_coef       ?
_refine_ls_abs_structure_details 
'Flack, H. D. (1983), Acta Cryst. A39, 876-881. 3555 Friedel Pairs'
_refine_ls_abs_structure_Flack   0.521(15)

loop_
_atom_type_symbol
_atom_type_description
_atom_type_scat_dispersion_real
_atom_type_scat_dispersion_imag
_atom_type_scat_source
C C 0.003 0.002
;
International Tables for Crystallography
(1992, Vol. C, Tables 4.2.6.8 and 6.1.1.4)
;
H H 0.000 0.000
;
International Tables for Crystallography
(1992, Vol. C, Table 6.1.1.4)
;
N N 0.006 0.003
;
International Tables for Crystallography
(1992, Vol. C, Tables 4.2.6.8 and 6.1.1.4)
;
O O 0.011 0.006
;
International Tables for Crystallography
(1992, Vol. C, Tables 4.2.6.8 and 6.1.1.4)
;
Fe Fe 0.346 0.844
;
International Tables for Crystallography
(1992, Vol. C, Tables 4.2.6.8 and 6.1.1.4)
;

#==============================================================================

# ATOMIC COORDINATES AND THERMAL PARAMETERS

loop_
_atom_site_label
_atom_site_type_symbol
_atom_site_fract_x
_atom_site_fract_y
_atom_site_fract_z
_atom_site_U_iso_or_equiv
_atom_site_adp_type
_atom_site_occupancy
_atom_site_symmetry_multiplicity
_atom_site_calc_flag
_atom_site_refinement_flags
_atom_site_disorder_assembly
_atom_site_disorder_group
Fe(1) Fe 0.0000 0.0000 0.0000 0.01086(11) Uani 1.00 4 d S . .
Fe(2) Fe 0.5000 0.0000 -0.051560(10) 0.01063(9) Uani 1.00 2 d S . .
Fe(3) Fe 0.0000 0.0000 0.5000 0.01043(11) Uani 1.00 4 d S . .
O(1) O 0.4111(2) -0.20889(15) 0.18480(10) 0.1183(11) Uani 1.00 1 d . . .
O(2) O 0.11125(13) -0.21655(12) 0.22886(9) 0.0629(7) Uani 1.00 1 d . . .
O(3) O -0.04022(14) -0.21829(15) 0.21903(9) 0.0780(8) Uani 1.00 1 d . . .
O(4) O 0.32425(11) -0.08482(12) 0.16874(8) 0.0577(6) Uani 1.00 1 d . . .
O(5) O 0.23719(11) -0.06241(12) 0.26337(8) 0.0545(6) Uani 1.00 1 d . . .
O(6) O 0.3184(2) 0.17427(18) 0.20198(13) 0.1446(13) Uani 1.00 1 d . . .
O(7) O 0.24965(14) 0.08439(14) 0.29310(12) 0.0802(8) Uani 1.00 1 d . . .
N(1) N 0.12315(11) 0.01536(10) -0.00123(8) 0.0164(5) Uani 1.00 1 d . . .
N(2) N 0.37786(10) 0.02357(10) -0.04989(9) 0.0172(4) Uani 1.00 1 d . . .
N(3) N 0.52148(10) 0.12167(10) -0.05070(9) 0.0174(4) Uani 1.00 1 d . . .
N(4) N -0.12315(11) 0.01431(11) 0.49929(8) 0.0180(5) Uani 1.00 1 d . . .
N(5) N 0.0000 0.0000 0.09527(11) 0.0168(7) Uani 1.00 2 d S . .
N(6) N 0.0000 0.0000 0.40400(11) 0.0135(6) Uani 1.00 2 d S . .
N(7) N 0.5000 0.0000 0.04405(7) 0.0157(6) Uani 1.00 2 d S . .
N(8) N 0.5000 0.0000 -0.14632(7) 0.0164(6) Uani 1.00 2 d S . .
C(1) C 0.18285(13) 0.04317(12) -0.00895(10) 0.0147(6) Uani 1.00 1 d . . .
C(2) C 0.25135(12) 0.08525(13) -0.01691(10) 0.0155(5) Uani 1.00 1 d . . .
C(3) C 0.31903(14) 0.04827(12) -0.03517(10) 0.0168(6) Uani 1.00 1 d . . .
C(4) C 0.25080(14) 0.16801(14) -0.00670(12) 0.0216(6) Uani 1.00 1 d . . .
C(5) C 0.18588(13) 0.20705(13) 0.01415(10) 0.0182(6) Uani 1.00 1 d . . .
C(6) C 0.18561(13) 0.28645(13) 0.02422(12) 0.0195(6) Uani 1.00 1 d . . .
C(7) C 0.25054(13) 0.32985(13) 0.01283(10) 0.0158(5) Uani 1.00 1 d . . .
C(8) C 0.31615(16) 0.29374(14) -0.00904(13) 0.0316(7) Uani 1.00 1 d . . .
C(9) C 0.31707(14) 0.21521(15) -0.01805(14) 0.0298(7) Uani 1.00 1 d . . .
C(10) C -0.24932(14) 0.08375(13) 0.47789(11) 0.0188(6) Uani 1.00 1 d . . .
C(11) C -0.18313(12) 0.04233(13) 0.48916(10) 0.0152(6) Uani 1.00 1 d . . .
C(12) C 0.54680(13) 0.18162(12) -0.03749(9) 0.0148(6) Uani 1.00 1 d . . .
C(13) C -0.05929(15) 0.02891(15) 0.12536(10) 0.0237(6) Uani 1.00 1 d . . .
C(14) C -0.06107(16) 0.03107(15) 0.18604(10) 0.0293(6) Uani 1.00 1 d . . .
C(15) C 0.0000 0.0000 0.21762(15) 0.0194(8) Uani 1.00 2 d S . .
C(16) C 0.0000 0.0000 0.28213(13) 0.0234(9) Uani 1.00 2 d S . .
C(17) C -0.04022(14) 0.05604(15) 0.31456(10) 0.0235(6) Uani 1.00 1 d . . .
C(18) C -0.03899(14) 0.05333(15) 0.37384(10) 0.0243(6) Uani 1.00 1 d . . .
C(19) C 0.46538(11) 0.05568(11) 0.07461(8) 0.0231(5) Uani 1.00 1 d . . .
C(20) C 0.46374(12) 0.05860(12) 0.13498(8) 0.0246(5) Uani 1.00 1 d . . .
C(21) C 0.5000 0.0000 0.16692(9) 0.0217(8) Uani 1.00 2 d S . .
C(22) C 0.5000 0.0000 0.23099(8) 0.0184(8) Uani 1.00 2 d S . .
C(23) C 0.43997(11) 0.03299(12) 0.26293(8) 0.0251(5) Uani 1.00 1 d . . .
C(24) C 0.53230(11) -0.05790(11) -0.17698(8) 0.0221(5) Uani 1.00 1 d . . .
C(25) C 0.4486(2) -0.2471(2) 0.13931(15) 0.0924(13) Uani 1.00 1 d . . .
C(26) C 0.15561(17) -0.22975(18) 0.17670(12) 0.0576(9) Uani 1.00 1 d . . .
C(27) C -0.0619(2) -0.2360(3) 0.16120(17) 0.139(2) Uani 1.00 1 d . . .
C(28) C 0.3001(2) -0.0850(2) 0.10865(13) 0.0812(12) Uani 1.00 1 d . . .
C(29) C 0.2655(2) -0.11552(19) 0.30572(15) 0.0728(11) Uani 1.00 1 d . . .
C(30) C 0.2817(4) 0.1681(4) 0.1490(3) 0.385(5) Uani 1.00 1 d . . .
C(31) C 0.1922(2) 0.1063(2) 0.3311(2) 0.161(2) Uani 1.00 1 d . . .
H(1) H 0.1401 0.1784 0.0218 0.022 Uiso 1.00 1 c R . .
H(2) H 0.1402 0.3109 0.0386 0.024 Uiso 1.00 1 c R . .
H(3) H 0.3606 0.3236 -0.0182 0.038 Uiso 1.00 1 c R . .
H(4) H 0.3631 0.1915 -0.0320 0.036 Uiso 1.00 1 c R . .
H(5) H -0.1021 0.0490 0.1042 0.028 Uiso 1.00 1 c R . .
H(6) H -0.1039 0.0537 0.2056 0.036 Uiso 1.00 1 c R . .
H(7) H -0.0682 0.0956 0.2950 0.029 Uiso 1.00 1 c R . .
H(8) H -0.0675 0.0913 0.3947 0.029 Uiso 1.00 1 c R . .
H(9) H 0.4404 0.0959 0.0536 0.028 Uiso 1.00 1 c R . .
H(10) H 0.4382 0.0999 0.1545 0.030 Uiso 1.00 1 c R . .
H(11) H 0.3976 0.0565 0.2434 0.031 Uiso 1.00 1 c R . .
H(12) H 0.5552 -0.0993 -0.1559 0.027 Uiso 1.00 1 c R . .
H(13) H 0.5013 -0.2549 0.1493 0.111 Uiso 1.00 1 c R . .
H(14) H 0.4244 -0.2957 0.1329 0.111 Uiso 1.00 1 c R . .
H(15) H 0.4455 -0.2170 0.1047 0.111 Uiso 1.00 1 c R . .
H(16) H 0.1253 -0.2586 0.1498 0.070 Uiso 1.00 1 c R . .
H(17) H 0.1693 -0.1815 0.1597 0.070 Uiso 1.00 1 c R . .
H(18) H 0.2012 -0.2579 0.1859 0.070 Uiso 1.00 1 c R . .
H(19) H -0.1127 -0.2178 0.1537 0.167 Uiso 1.00 1 c R . .
H(20) H -0.0603 -0.2905 0.1561 0.167 Uiso 1.00 1 c R . .
H(21) H -0.0267 -0.2122 0.1348 0.167 Uiso 1.00 1 c R . .
H(22) H 0.2670 -0.1277 0.1014 0.097 Uiso 1.00 1 c R . .
H(23) H 0.2732 -0.0382 0.1008 0.098 Uiso 1.00 1 c R . .
H(24) H 0.3442 -0.0883 0.0841 0.097 Uiso 1.00 1 c R . .
H(25) H 0.2299 -0.1193 0.3372 0.088 Uiso 1.00 1 c R . .
H(26) H 0.2718 -0.1649 0.2881 0.088 Uiso 1.00 1 c R . .
H(27) H 0.3140 -0.0980 0.3200 0.088 Uiso 1.00 1 c R . .
H(28) H 0.2921 0.2157 0.1297 0.462 Uiso 1.00 1 c R . .
H(29) H 0.2274 0.1614 0.1527 0.462 Uiso 1.00 1 c R . .
H(30) H 0.3028 0.1267 0.1269 0.462 Uiso 1.00 1 c R . .
H(31) H 0.1444 0.0854 0.3180 0.193 Uiso 1.00 1 c R . .
H(32) H 0.1887 0.1611 0.3323 0.193 Uiso 1.00 1 c R . .
H(33) H 0.2035 0.0871 0.3690 0.193 Uiso 1.00 1 c R . .


loop_
_atom_site_aniso_label
_atom_site_aniso_U_11
_atom_site_aniso_U_22
_atom_site_aniso_U_33
_atom_site_aniso_U_12
_atom_site_aniso_U_13
_atom_site_aniso_U_23
Fe(1) 0.0108(2) 0.0108(2) 0.0109(3) 0.0000 0.0000 0.0000
Fe(2) 0.0121(2) 0.0101(2) 0.00966(14) -0.0003(2) 0.0000 0.0000
Fe(3) 0.0101(2) 0.0101(2) 0.0111(3) 0.0000 0.0000 0.0000
O(1) 0.224(3) 0.0888(18) 0.0418(14) 0.080(2) 0.0076(18) 0.0006(13)
O(2) 0.0806(15) 0.0636(14) 0.0444(12) -0.0090(11) 0.0063(11) -0.0090(10)
O(3) 0.0803(16) 0.1077(19) 0.0459(13) -0.0088(14) 0.0178(12) 0.0030(13)
O(4) 0.0567(12) 0.0846(15) 0.0319(10) -0.0100(10) -0.0013(9) -0.0058(10)
O(5) 0.0524(12) 0.0664(12) 0.0447(11) -0.0033(10) -0.0003(9) -0.0047(10)
O(6) 0.215(3) 0.127(2) 0.092(2) 0.113(2) -0.093(2) -0.0697(18)
O(7) 0.0648(14) 0.0789(16) 0.0969(19) 0.0034(13) 0.0148(13) -0.0225(15)
N(1) 0.0123(9) 0.0108(10) 0.0262(11) -0.0015(8) 0.0027(9) -0.0015(8)
N(2) 0.0114(9) 0.0143(9) 0.0258(10) 0.0036(8) 0.0020(9) 0.0007(9)
N(3) 0.0145(9) 0.0183(10) 0.0193(9) 0.0041(8) 0.0001(9) 0.0016(9)
N(4) 0.0165(9) 0.0173(11) 0.0203(10) -0.0025(9) -0.0007(9) -0.0002(9)
N(5) 0.0156(14) 0.0236(15) 0.0113(13) 0.0076(16) 0.0000 0.0000
N(6) 0.0124(12) 0.0129(13) 0.0153(13) -0.0051(15) 0.0000 0.0000
N(7) 0.0218(14) 0.0121(13) 0.0132(8) 0.0049(18) 0.0000 0.0000
N(8) 0.0302(16) 0.0066(12) 0.0123(8) -0.0016(19) 0.0000 0.0000
C(1) 0.0196(12) 0.0101(12) 0.0143(12) 0.0056(10) -0.0008(10) -0.0005(9)
C(2) 0.0056(10) 0.0156(11) 0.0253(12) -0.0004(8) 0.0001(10) -0.0018(9)
C(3) 0.0240(13) 0.0059(11) 0.0205(13) -0.0009(10) -0.0024(10) 0.0002(9)
C(4) 0.0161(13) 0.0170(12) 0.0318(14) -0.0023(10) -0.0007(10) 0.0060(11)
C(5) 0.0093(11) 0.0192(12) 0.0260(13) -0.0004(9) 0.0104(10) 0.0005(10)
C(6) 0.0122(12) 0.0110(12) 0.0352(14) -0.0022(9) 0.0029(10) -0.0021(10)
C(7) 0.0156(12) 0.0117(11) 0.0200(12) 0.0023(9) 0.0069(9) -0.0033(9)
C(8) 0.0193(14) 0.0149(13) 0.0606(19) -0.0039(10) 0.0089(14) -0.0057(13)
C(9) 0.0124(13) 0.0253(15) 0.0516(18) 0.0030(10) 0.0121(12) -0.0032(13)
C(10) 0.0208(13) 0.0144(11) 0.0212(12) 0.0026(10) -0.0043(11) 0.0004(10)
C(11) 0.0084(10) 0.0152(13) 0.0218(13) -0.0020(9) -0.0018(10) -0.0032(10)
C(12) 0.0197(13) 0.0091(11) 0.0156(12) 0.0069(10) 0.0004(9) 0.0003(9)
C(13) 0.0211(11) 0.0403(14) 0.0096(11) 0.0072(10) -0.0014(9) 0.0003(9)
C(14) 0.0264(13) 0.0436(15) 0.0180(12) 0.0122(12) 0.0094(11) 0.0031(11)
C(15) 0.0098(14) 0.0235(18) 0.0250(17) -0.002(2) 0.0000 0.0000
C(16) 0.0239(19) 0.044(2) 0.0018(15) -0.001(2) 0.0000 0.0000
C(17) 0.0297(13) 0.0222(12) 0.0184(11) 0.0073(10) -0.0030(10) -0.0055(11)
C(18) 0.0222(12) 0.0279(13) 0.0229(13) 0.0070(10) 0.0006(9) -0.0004(11)
C(19) 0.0324(11) 0.0232(10) 0.0137(9) 0.0053(8) -0.0011(8) 0.0046(8)
C(20) 0.0322(11) 0.0253(10) 0.0164(10) 0.0055(9) 0.0013(8) -0.0047(8)
C(21) 0.0143(17) 0.039(2) 0.0124(10) 0.006(2) 0.0000 0.0000
C(22) 0.0221(19) 0.026(2) 0.0069(9) -0.006(2) 0.0000 0.0000
C(23) 0.0211(10) 0.0384(11) 0.0158(10) 0.0080(9) -0.0012(8) 0.0000(8)
C(24) 0.0303(10) 0.0168(9) 0.0191(10) 0.0071(8) -0.0003(8) -0.0001(8)
C(25) 0.149(3) 0.062(2) 0.066(2) 0.012(2) -0.028(2) -0.0065(19)
C(26) 0.0662(19) 0.065(2) 0.0420(17) 0.0065(15) -0.0069(15) 0.0060(15)
C(27) 0.067(2) 0.288(7) 0.062(2) -0.063(3) 0.011(2) -0.011(3)
C(28) 0.067(2) 0.125(3) 0.052(2) -0.016(2) -0.0037(18) 0.000(2)
C(29) 0.081(2) 0.081(2) 0.056(2) -0.0186(19) -0.0048(19) -0.0037(19)
C(30) 0.467(11) 0.429(11) 0.259(7) 0.387(9) -0.313(8) -0.243(7)
C(31) 0.078(3) 0.136(4) 0.269(6) -0.042(2) 0.084(3) -0.127(4)

#==============================================================================

_computing_data_collection       CrystalClear
_computing_cell_refinement       CrystalClear
_computing_data_reduction        CrystalStructure
_computing_structure_solution    SIR2002
_computing_structure_refinement  CRYSTALS
_computing_publication_material  'CrystalStructure 3.8'
_computing_molecular_graphics    ?

#==============================================================================

# MOLECULAR GEOMETRY

_geom_special_details            
;
ENTER SPECIAL DETAILS OF THE MOLECULAR GEOMETRY
;

loop_
_geom_bond_atom_site_label_1
_geom_bond_atom_site_label_2
_geom_bond_distance
_geom_bond_publ_flag
_geom_bond_site_symmetry_1
_geom_bond_site_symmetry_2
Fe(1) N(1) 2.1463(19) yes . .
Fe(1) N(1) 2.1463(17) yes . 2_555
Fe(1) N(1) 2.1463(19) yes . 3_555
Fe(1) N(1) 2.1463(17) yes . 4_555
Fe(1) N(5) 2.181(2) yes . .
Fe(1) N(5) 2.181(2) yes . 2_555
Fe(2) N(2) 2.1514(17) yes . .
Fe(2) N(2) 2.1514(17) yes . 3_655
Fe(2) N(3) 2.1366(17) yes . .
Fe(2) N(3) 2.1366(17) yes . 3_655
Fe(2) N(7) 2.1891(16) yes . .
Fe(2) N(8) 2.1696(16) yes . .
Fe(3) N(4) 2.1440(19) yes . .
Fe(3) N(4) 2.1440(19) yes . 2_556
Fe(3) N(4) 2.1440(19) yes . 3_555
Fe(3) N(4) 2.1440(19) yes . 4_556
Fe(3) N(6) 2.198(2) yes . .
Fe(3) N(6) 2.198(2) yes . 2_556
O(1) C(25) 1.394(4) yes . .
O(2) C(26) 1.438(3) yes . .
O(3) C(27) 1.409(4) yes . .
O(4) C(28) 1.438(3) yes . .
O(5) C(29) 1.423(3) yes . .
O(6) C(30) 1.373(8) yes . .
O(7) C(31) 1.373(5) yes . .
N(1) C(1) 1.153(2) yes . .
N(2) C(3) 1.154(2) yes . .
N(3) C(12) 1.165(2) yes . .
N(4) C(11) 1.168(2) yes . .
N(5) C(13) 1.333(2) yes . .
N(5) C(13) 1.333(2) yes . 3_555
N(6) C(18) 1.335(2) yes . .
N(6) C(18) 1.335(2) yes . 3_555
N(7) C(19) 1.332(2) yes . .
N(7) C(19) 1.332(2) yes . 3_655
N(8) C(24) 1.344(2) yes . .
N(8) C(24) 1.344(2) yes . 3_655
C(1) C(2) 1.402(3) yes . .
C(2) C(3) 1.398(3) yes . .
C(2) C(4) 1.450(3) yes . .
C(4) C(5) 1.394(3) yes . .
C(4) C(9) 1.431(3) yes . .
C(5) C(6) 1.392(3) yes . .
C(6) C(7) 1.375(3) yes . .
C(7) C(8) 1.388(3) yes . .
C(7) C(10) 1.509(3) yes . 7_555
C(8) C(9) 1.374(3) yes . .
C(10) C(11) 1.375(3) yes . .
C(10) C(12) 1.399(3) yes . 8_445
C(13) C(14) 1.390(3) yes . .
C(14) C(15) 1.388(3) yes . .
C(15) C(16) 1.477(4) yes . .
C(16) C(17) 1.405(2) yes . .
C(16) C(17) 1.405(2) yes . 3_555
C(17) C(18) 1.358(3) yes . .
C(19) C(20) 1.383(2) yes . .
C(20) C(21) 1.398(2) yes . .
C(21) C(22) 1.467(2) yes . .
C(22) C(23) 1.392(2) yes . .
C(22) C(23) 1.392(2) yes . 3_655
C(23) C(24) 1.376(2) yes . 8_545
C(5) H(1) 0.950 no . .
C(6) H(2) 0.950 no . .
C(8) H(3) 0.950 no . .
C(9) H(4) 0.950 no . .
C(13) H(5) 0.950 no . .
C(14) H(6) 0.950 no . .
C(17) H(7) 0.950 no . .
C(18) H(8) 0.950 no . .
C(19) H(9) 0.950 no . .
C(20) H(10) 0.950 no . .
C(23) H(11) 0.950 no . .
C(24) H(12) 0.950 no . .
C(25) H(13) 0.950 no . .
C(25) H(14) 0.950 no . .
C(25) H(15) 0.950 no . .
C(26) H(16) 0.950 no . .
C(26) H(17) 0.950 no . .
C(26) H(18) 0.950 no . .
C(27) H(19) 0.950 no . .
C(27) H(20) 0.950 no . .
C(27) H(21) 0.950 no . .
C(28) H(22) 0.950 no . .
C(28) H(23) 0.950 no . .
C(28) H(24) 0.950 no . .
C(29) H(25) 0.950 no . .
C(29) H(26) 0.950 no . .
C(29) H(27) 0.950 no . .
C(30) H(28) 0.950 no . .
C(30) H(29) 0.950 no . .
C(30) H(30) 0.950 no . .
C(31) H(31) 0.950 no . .
C(31) H(32) 0.950 no . .
C(31) H(33) 0.950 no . .

loop_
_geom_angle_atom_site_label_1
_geom_angle_atom_site_label_2
_geom_angle_atom_site_label_3
_geom_angle
_geom_angle_publ_flag
_geom_angle_site_symmetry_1
_geom_angle_site_symmetry_2
_geom_angle_site_symmetry_3
N(1) Fe(1) N(1) 90.01(6) yes . . 2_555
N(1) Fe(1) N(1) 178.50(6) yes . . 3_555
N(1) Fe(1) N(1) 90.01(6) yes . . 4_555
N(1) Fe(1) N(5) 90.75(4) yes . . .
N(1) Fe(1) N(5) 89.25(4) yes . . 2_555
N(1) Fe(1) N(1) 90.01(6) yes 2_555 . 3_555
N(1) Fe(1) N(1) 178.50(6) yes 2_555 . 4_555
N(1) Fe(1) N(5) 89.25(4) yes 2_555 . .
N(1) Fe(1) N(5) 90.75(4) yes 2_555 . 2_555
N(1) Fe(1) N(1) 90.01(6) yes 3_555 . 4_555
N(1) Fe(1) N(5) 90.75(4) yes 3_555 . .
N(1) Fe(1) N(5) 89.25(4) yes 3_555 . 2_555
N(1) Fe(1) N(5) 89.25(4) yes 4_555 . .
N(1) Fe(1) N(5) 90.75(4) yes 4_555 . 2_555
N(5) Fe(1) N(5) 180.0000 yes . . 2_555
N(2) Fe(2) N(2) 177.96(7) yes . . 3_655
N(2) Fe(2) N(3) 89.08(6) yes . . .
N(2) Fe(2) N(3) 90.90(6) yes . . 3_655
N(2) Fe(2) N(7) 88.98(5) yes . . .
N(2) Fe(2) N(8) 91.02(5) yes . . .
N(2) Fe(2) N(3) 90.90(6) yes 3_655 . .
N(2) Fe(2) N(3) 89.08(6) yes 3_655 . 3_655
N(2) Fe(2) N(7) 88.98(5) yes 3_655 . .
N(2) Fe(2) N(8) 91.02(5) yes 3_655 . .
N(3) Fe(2) N(3) 