####################################################################### 
# 
# This file contains crystal structure data downloaded from the 
# Cambridge Structural Database (CSD) hosted by the Cambridge 
# Crystallographic Data Centre (CCDC).
# 
# Full information about CCDC data access policies and citation 
# guidelines are available at http://www.ccdc.cam.ac.uk/access/V1 
# 
# Audit and citation data items may have been added by the CCDC. 
# Please retain this information to preserve the provenance of 
# this file and to allow appropriate attribution of the data. 
# 
#######################################################################

data_p2
_audit_block_doi                 10.5517/ccxn3n9
_database_code_depnum_ccdc_archive 'CCDC 853481'
loop_
_citation_id
_citation_doi
_citation_year
1 10.1016/j.molstruc.2011.12.030 2012
_audit_update_record             
;
2011-11-10 deposited with the CCDC.	2024-07-13 downloaded from the CCDC.
;
#TrackingRef 'web_deposit_cif_file_0_DiSun_1329053511.p1-3.cif'


_audit_creation_method           SHELXL-97
_chemical_name_systematic        
;
?
;
_chemical_name_common            ?
_chemical_melting_point          ?
_chemical_formula_moiety         ?
_chemical_formula_sum            'C16 H14 N4 O7 Zn'
_chemical_formula_weight         439.70

loop_
_atom_type_symbol
_atom_type_description
_atom_type_scat_dispersion_real
_atom_type_scat_dispersion_imag
_atom_type_scat_source
C C 0.0033 0.0016 'International Tables Vol C Tables 4.2.6.8 and 6.1.1.4'
H H 0.0000 0.0000 'International Tables Vol C Tables 4.2.6.8 and 6.1.1.4'
N N 0.0061 0.0033 'International Tables Vol C Tables 4.2.6.8 and 6.1.1.4'
O O 0.0106 0.0060 'International Tables Vol C Tables 4.2.6.8 and 6.1.1.4'
Zn Zn 0.2839 1.4301 'International Tables Vol C Tables 4.2.6.8 and 6.1.1.4'

_symmetry_cell_setting           Monoclinic
_symmetry_space_group_name_H-M   P2(1)/c

loop_
_symmetry_equiv_pos_as_xyz
'x, y, z'
'-x, y+1/2, -z+1/2'
'-x, -y, -z'
'x, -y-1/2, z-1/2'

_cell_length_a                   10.231(2)
_cell_length_b                   21.874(4)
_cell_length_c                   8.8151(18)
_cell_angle_alpha                90.00
_cell_angle_beta                 103.52(3)
_cell_angle_gamma                90.00
_cell_volume                     1918.1(6)
_cell_formula_units_Z            4
_cell_measurement_temperature    173(2)
_cell_measurement_reflns_used    7664
_cell_measurement_theta_min      6.04
_cell_measurement_theta_max      54.97

_exptl_crystal_description       block
_exptl_crystal_colour            Pale-yellow
_exptl_crystal_size_max          0.15
_exptl_crystal_size_mid          0.10
_exptl_crystal_size_min          0.10
_exptl_crystal_density_meas      ?
_exptl_crystal_density_diffrn    1.523
_exptl_crystal_density_method    'not measured'
_exptl_crystal_F_000             896
_exptl_absorpt_coefficient_mu    1.326
_exptl_absorpt_correction_type   multi-scan
_exptl_absorpt_correction_T_min  0.8259
_exptl_absorpt_correction_T_max  0.8788
_exptl_absorpt_process_details   'SADABS (Bruker, 2002)'

_exptl_special_details           
;
?
;

_diffrn_ambient_temperature      173(2)
_diffrn_radiation_wavelength     0.71073
_diffrn_radiation_type           MoK\a
_diffrn_radiation_source         'fine-focus sealed tube'
_diffrn_radiation_monochromator  graphite
_diffrn_measurement_device_type  'Bruker SMART CCD'
_diffrn_measurement_method       '\f and \w'
_diffrn_detector_area_resol_mean ?
_diffrn_standards_number         ?
_diffrn_standards_interval_count ?
_diffrn_standards_interval_time  ?
_diffrn_standards_decay_%        ?
_diffrn_reflns_number            13861
_diffrn_reflns_av_R_equivalents  0.1097
_diffrn_reflns_av_sigmaI/netI    0.0972
_diffrn_reflns_limit_h_min       -12
_diffrn_reflns_limit_h_max       12
_diffrn_reflns_limit_k_min       -26
_diffrn_reflns_limit_k_max       26
_diffrn_reflns_limit_l_min       -10
_diffrn_reflns_limit_l_max       10
_diffrn_reflns_theta_min         3.02
_diffrn_reflns_theta_max         26.00
_reflns_number_total             3728
_reflns_number_gt                2252
_reflns_threshold_expression     >2sigma(I)

_computing_data_collection       ?
_computing_cell_refinement       ?
_computing_data_reduction        ?
_computing_structure_solution    'SHELXS-97 (Sheldrick, 1990)'
_computing_structure_refinement  'SHELXL-97 (Sheldrick, 1997)'
_computing_molecular_graphics    ?
_computing_publication_material  ?

_refine_special_details          
;
Refinement of F^2^ against ALL reflections. The weighted R-factor wR and
goodness of fit S are based on F^2^, conventional R-factors R are based
on F, with F set to zero for negative F^2^. The threshold expression of
F^2^ > 2sigma(F^2^) is used only for calculating R-factors(gt) etc. and is
not relevant to the choice of reflections for refinement. R-factors based
on F^2^ are statistically about twice as large as those based on F, and R-
factors based on ALL data will be even larger.
;

_refine_ls_structure_factor_coef Fsqd
_refine_ls_matrix_type           full
_refine_ls_weighting_scheme      calc
_refine_ls_weighting_details     
'calc w=1/[\s^2^(Fo^2^)+(0.0613P)^2^+20.6045P] where P=(Fo^2^+2Fc^2^)/3'
_atom_sites_solution_primary     direct
_atom_sites_solution_secondary   difmap
_atom_sites_solution_hydrogens   geom
_refine_ls_hydrogen_treatment    constr
_refine_ls_extinction_method     SHELXL
_refine_ls_extinction_coef       0.0090(15)
_refine_ls_extinction_expression Fc^*^=kFc[1+0.001xFc^2^\l^3^/sin(2\q)]^-1/4^
_refine_ls_number_reflns         3728
_refine_ls_number_parameters     254
_refine_ls_number_restraints     0
_refine_ls_R_factor_all          0.1413
_refine_ls_R_factor_gt           0.0757
_refine_ls_wR_factor_ref         0.2378
_refine_ls_wR_factor_gt          0.1611
_refine_ls_goodness_of_fit_ref   1.087
_refine_ls_restrained_S_all      1.087
_refine_ls_shift/su_max          0.014
_refine_ls_shift/su_mean         0.001

loop_
_atom_site_label
_atom_site_type_symbol
_atom_site_fract_x
_atom_site_fract_y
_atom_site_fract_z
_atom_site_U_iso_or_equiv
_atom_site_adp_type
_atom_site_occupancy
_atom_site_symmetry_multiplicity
_atom_site_calc_flag
_atom_site_refinement_flags
_atom_site_disorder_assembly
_atom_site_disorder_group
Zn1 Zn 0.41215(9) 0.60103(4) 0.36200(12) 0.0297(4) Uani 1 1 d . . .
C1 C 0.4747(8) 0.4877(3) 0.2193(11) 0.0312(19) Uani 1 1 d . . .
H1A H 0.5536 0.4834 0.3005 0.037 Uiso 1 1 calc R . .
C2 C 0.2890(9) 0.5227(4) 0.0735(10) 0.0322(19) Uani 1 1 d . . .
H2B H 0.2140 0.5486 0.0352 0.039 Uiso 1 1 calc R . .
C3 C 0.3121(8) 0.4680(4) 0.0082(11) 0.035(2) Uani 1 1 d . . .
H3A H 0.2582 0.4489 -0.0818 0.042 Uiso 1 1 calc R . .
C4 C 0.4958(9) 0.3871(3) 0.0934(11) 0.035(2) Uani 1 1 d . . .
H4A H 0.5940 0.3910 0.1349 0.042 Uiso 1 1 calc R . .
H4B H 0.4796 0.3744 -0.0173 0.042 Uiso 1 1 calc R . .
C5 C 0.4414(9) 0.3388(4) 0.1847(13) 0.043(2) Uani 1 1 d . . .
H5A H 0.4369 0.3555 0.2878 0.051 Uiso 1 1 calc R . .
H5B H 0.3492 0.3275 0.1282 0.051 Uiso 1 1 calc R . .
C6 C 0.4972(9) 0.2294(4) 0.1444(10) 0.035(2) Uani 1 1 d . . .
H6A H 0.4145 0.2195 0.0740 0.042 Uiso 1 1 calc R . .
C7 C 0.6528(11) 0.2805(4) 0.3049(14) 0.057(3) Uani 1 1 d . . .
H7A H 0.7013 0.3121 0.3677 0.069 Uiso 1 1 calc R . .
C8 C 0.6936(11) 0.2217(5) 0.2940(14) 0.058(3) Uani 1 1 d . . .
H8A H 0.7773 0.2053 0.3489 0.070 Uiso 1 1 calc R . .
C9 C 0.6903(7) 0.5977(3) 0.4217(10) 0.0270(18) Uani 1 1 d . . .
C10 C 0.8322(8) 0.5839(4) 0.5124(11) 0.034(2) Uani 1 1 d . . .
C11 C 0.8580(9) 0.5629(4) 0.6661(11) 0.037(2) Uani 1 1 d . . .
H11A H 0.7864 0.5577 0.7168 0.045 Uiso 1 1 calc R . .
C12 C 0.9884(9) 0.5499(4) 0.7438(12) 0.044(2) Uani 1 1 d . . .
H12A H 1.0066 0.5349 0.8478 0.053 Uiso 1 1 calc R . .
C13 C 1.0934(9) 0.5588(4) 0.6704(11) 0.040(2) Uani 1 1 d . . .
H13A H 1.1829 0.5495 0.7245 0.048 Uiso 1 1 calc R . .
C14 C 1.0684(8) 0.5810(4) 0.5186(11) 0.032(2) Uani 1 1 d . . .
C15 C 1.1823(9) 0.5901(4) 0.4354(12) 0.036(2) Uani 1 1 d . . .
C16 C 0.9366(8) 0.5938(4) 0.4403(11) 0.0323(19) Uani 1 1 d . . .
H16A H 0.9183 0.6094 0.3369 0.039 Uiso 1 1 calc R . .
O1 O 0.6699(6) 0.6168(3) 0.2862(8) 0.0407(15) Uani 1 1 d . . .
O1W O 0.7628(9) 0.7181(4) 0.1465(11) 0.081(3) Uani 1 1 d . . .
O2 O 0.5970(5) 0.5873(2) 0.4931(7) 0.0342(14) Uani 1 1 d . . .
O2W O 0.9584(11) 0.6470(6) 0.0432(13) 0.112(4) Uani 1 1 d . . .
O3 O 1.3007(6) 0.5832(2) 0.5182(7) 0.0342(14) Uani 1 1 d . . .
O3W O 0.9788(18) 0.7122(8) -0.203(2) 0.197(7) Uani 1 1 d . . .
O4 O 1.1554(5) 0.6046(3) 0.2958(7) 0.0345(14) Uani 1 1 d . . .
N1 N 0.5267(8) 0.2848(3) 0.2062(9) 0.0395(19) Uani 1 1 d . . .
N2 N 0.5956(7) 0.1897(3) 0.1918(9) 0.0383(18) Uani 1 1 d . . .
N3 N 0.3913(6) 0.5346(3) 0.2036(8) 0.0284(15) Uani 1 1 d . . .
N4 N 0.4321(7) 0.4464(3) 0.1028(8) 0.0305(16) Uani 1 1 d . . .

loop_
_atom_site_aniso_label
_atom_site_aniso_U_11
_atom_site_aniso_U_22
_atom_site_aniso_U_33
_atom_site_aniso_U_23
_atom_site_aniso_U_13
_atom_site_aniso_U_12
Zn1 0.0235(5) 0.0288(5) 0.0369(6) 0.0001(4) 0.0073(4) -0.0010(4)
C1 0.026(4) 0.030(4) 0.038(5) -0.003(4) 0.008(4) -0.003(3)
C2 0.035(5) 0.035(4) 0.025(5) 0.004(4) 0.003(4) -0.001(3)
C3 0.028(5) 0.037(5) 0.043(6) 0.000(4) 0.010(4) 0.000(3)
C4 0.039(5) 0.023(4) 0.044(6) 0.000(4) 0.012(4) 0.006(3)
C5 0.041(5) 0.033(5) 0.060(7) -0.002(4) 0.023(5) 0.005(4)
C6 0.039(5) 0.039(5) 0.027(5) -0.007(4) 0.004(4) -0.009(4)
C7 0.063(7) 0.023(5) 0.071(8) -0.007(5) -0.014(6) 0.007(4)
C8 0.042(6) 0.050(6) 0.072(8) -0.014(6) -0.009(6) 0.000(5)
C9 0.019(4) 0.032(4) 0.035(5) -0.008(4) 0.016(3) -0.004(3)
C10 0.023(4) 0.032(4) 0.044(6) -0.010(4) 0.004(4) -0.004(3)
C11 0.030(5) 0.052(5) 0.034(5) 0.012(4) 0.016(4) 0.000(4)
C12 0.032(5) 0.063(6) 0.038(6) 0.009(5) 0.009(4) 0.002(4)
C13 0.027(5) 0.051(5) 0.042(6) 0.010(4) 0.006(4) -0.001(4)
C14 0.024(4) 0.031(4) 0.048(6) -0.007(4) 0.019(4) -0.004(3)
C15 0.029(5) 0.031(4) 0.051(6) -0.003(4) 0.018(4) -0.003(3)
C16 0.024(4) 0.037(5) 0.038(5) 0.005(4) 0.012(4) 0.002(3)
O1 0.032(3) 0.052(4) 0.036(4) 0.005(3) 0.002(3) -0.001(3)
O1W 0.072(6) 0.088(6) 0.078(7) 0.020(5) 0.011(5) 0.002(5)
O2 0.030(3) 0.035(3) 0.035(4) 0.001(3) 0.003(3) -0.006(2)
O2W 0.096(8) 0.154(10) 0.087(8) 0.004(7) 0.023(6) 0.008(7)
O3 0.030(3) 0.025(3) 0.043(4) 0.001(2) -0.002(3) -0.002(2)
O3W 0.206(17) 0.180(15) 0.199(19) 0.054(14) 0.036(15) 0.040(13)
O4 0.023(3) 0.047(3) 0.035(4) 0.003(3) 0.011(3) 0.004(2)
N1 0.046(5) 0.025(4) 0.044(5) 0.000(3) 0.004(4) 0.007(3)
N2 0.026(4) 0.044(4) 0.044(5) -0.007(4) 0.006(3) 0.004(3)
N3 0.020(3) 0.029(3) 0.034(4) 0.005(3) 0.003(3) 0.000(3)
N4 0.036(4) 0.027(3) 0.031(4) 0.005(3) 0.011(3) 0.000(3)

_geom_special_details            
;
All esds (except the esd in the dihedral angle between two l.s. planes)
are estimated using the full covariance matrix. The cell esds are taken
into account individually in the estimation of esds in distances, angles
and torsion angles; correlations between esds in cell parameters are only
used when they are defined by crystal symmetry. An approximate (isotropic)
treatment of cell esds is used for estimating esds involving l.s. planes.
;

loop_
_geom_bond_atom_site_label_1
_geom_bond_atom_site_label_2
_geom_bond_distance
_geom_bond_site_symmetry_2
_geom_bond_publ_flag
Zn1 N3 1.992(7) . y
Zn1 N2 1.994(7) 2_655 y
Zn1 O2 1.995(6) . y
Zn1 O3 2.021(6) 1_455 y
Zn1 O4 2.555(5) 1_455 y
Zn1 C15 2.592(8) 1_455 ?
C1 N3 1.321(10) . ?
C1 N4 1.361(11) . ?
C1 H1A 0.9500 . ?
C2 C3 1.374(12) . ?
C2 N3 1.384(11) . ?
C2 H2B 0.9500 . ?
C3 N4 1.395(11) . ?
C3 H3A 0.9500 . ?
C4 N4 1.461(10) . ?
C4 C5 1.511(12) . ?
C4 H4A 0.9900 . ?
C4 H4B 0.9900 . ?
C5 N1 1.455(10) . ?
C5 H5A 0.9900 . ?
C5 H5B 0.9900 . ?
C6 N2 1.320(11) . ?
C6 N1 1.335(10) . ?
C6 H6A 0.9500 . ?
C7 C8 1.361(13) . ?
C7 N1 1.380(12) . ?
C7 H7A 0.9500 . ?
C8 N2 1.373(12) . ?
C8 H8A 0.9500 . ?
C9 O1 1.237(10) . ?
C9 O2 1.281(9) . ?
C9 C10 1.515(11) . ?
C10 C16 1.382(11) . ?
C10 C11 1.397(13) . ?
C11 C12 1.379(13) . ?
C11 H11A 0.9500 . ?
C12 C13 1.391(12) . ?
C12 H12A 0.9500 . ?
C13 C14 1.390(13) . ?
C13 H13A 0.9500 . ?
C14 C16 1.393(12) . ?
C14 C15 1.527(11) . ?
C15 O4 1.238(11) . ?
C15 O3 1.269(11) . ?
C15 Zn1 2.592(8) 1_655 ?
C16 H16A 0.9500 . ?
O3 Zn1 2.021(6) 1_655 ?
O4 Zn1 2.555(5) 1_655 ?
N2 Zn1 1.994(7) 2_645 ?

loop_
_geom_angle_atom_site_label_1
_geom_angle_atom_site_label_2
_geom_angle_atom_site_label_3
_geom_angle
_geom_angle_site_symmetry_1
_geom_angle_site_symmetry_3
_geom_angle_publ_flag
N3 Zn1 N2 123.4(3) . 2_655 y
N3 Zn1 O2 103.1(2) . . y
N2 Zn1 O2 105.3(3) 2_655 . y
N3 Zn1 O3 110.6(2) . 1_455 y
N2 Zn1 O3 110.7(3) 2_655 1_455 y
O2 Zn1 O3 100.7(2) . 1_455 y
N3 Zn1 O4 85.8(2) . 1_455 y
N2 Zn1 O4 86.3(2) 2_655 1_455 y
O2 Zn1 O4 157.1(2) . 1_455 y
O3 Zn1 O4 56.5(2) 1_455 1_455 y
N3 Zn1 C15 98.8(3) . 1_455 ?
N2 Zn1 C15 99.3(3) 2_655 1_455 ?
O2 Zn1 C15 129.3(3) . 1_455 ?
O3 Zn1 C15 28.7(3) 1_455 1_455 ?
O4 Zn1 C15 27.8(2) 1_455 1_455 ?
N3 C1 N4 110.6(8) . . ?
N3 C1 H1A 124.7 . . ?
N4 C1 H1A 124.7 . . ?
C3 C2 N3 109.9(7) . . ?
C3 C2 H2B 125.1 . . ?
N3 C2 H2B 125.1 . . ?
C2 C3 N4 105.0(8) . . ?
C2 C3 H3A 127.5 . . ?
N4 C3 H3A 127.5 . . ?
N4 C4 C5 111.4(7) . . ?
N4 C4 H4A 109.3 . . ?
C5 C4 H4A 109.3 . . ?
N4 C4 H4B 109.3 . . ?
C5 C4 H4B 109.3 . . ?
H4A C4 H4B 108.0 . . ?
N1 C5 C4 110.7(7) . . ?
N1 C5 H5A 109.5 . . ?
C4 C5 H5A 109.5 . . ?
N1 C5 H5B 109.5 . . ?
C4 C5 H5B 109.5 . . ?
H5A C5 H5B 108.1 . . ?
N2 C6 N1 112.6(8) . . ?
N2 C6 H6A 123.7 . . ?
N1 C6 H6A 123.7 . . ?
C8 C7 N1 106.1(8) . . ?
C8 C7 H7A 126.9 . . ?
N1 C7 H7A 126.9 . . ?
C7 C8 N2 109.8(9) . . ?
C7 C8 H8A 125.1 . . ?
N2 C8 H8A 125.1 . . ?
O1 C9 O2 123.9(8) . . ?
O1 C9 C10 120.1(7) . . ?
O2 C9 C10 116.0(8) . . ?
C16 C10 C11 120.4(8) . . ?
C16 C10 C9 118.3(8) . . ?
C11 C10 C9 121.2(8) . . ?
C12 C11 C10 119.4(8) . . ?
C12 C11 H11A 120.3 . . ?
C10 C11 H11A 120.3 . . ?
C11 C12 C13 120.2(9) . . ?
C11 C12 H12A 119.9 . . ?
C13 C12 H12A 119.9 . . ?
C14 C13 C12 120.6(8) . . ?
C14 C13 H13A 119.7 . . ?
C12 C13 H13A 119.7 . . ?
C13 C14 C16 119.1(8) . . ?
C13 C14 C15 121.3(8) . . ?
C16 C14 C15 119.7(8) . . ?
O4 C15 O3 124.2(8) . . ?
O4 C15 C14 119.6(8) . . ?
O3 C15 C14 116.2(9) . . ?
O4 C15 Zn1 74.4(5) . 1_655 ?
O3 C15 Zn1 49.8(4) . 1_655 ?
C14 C15 Zn1 165.9(7) . 1_655 ?
C10 C16 C14 120.3(8) . . ?
C10 C16 H16A 119.9 . . ?
C14 C16 H16A 119.9 . . ?
C9 O2 Zn1 113.8(5) . . ?
C15 O3 Zn1 101.5(6) . 1_655 ?
C15 O4 Zn1 77.7(5) . 1_655 ?
C6 N1 C7 106.5(7) . . ?
C6 N1 C5 127.8(8) . . ?
C7 N1 C5 125.6(8) . . ?
C6 N2 C8 105.0(8) . . ?
C6 N2 Zn1 125.4(6) . 2_645 ?
C8 N2 Zn1 129.3(6) . 2_645 ?
C1 N3 C2 106.6(7) . . ?
C1 N3 Zn1 122.2(6) . . ?
C2 N3 Zn1 130.8(5) . . ?
C1 N4 C3 107.9(7) . . ?
C1 N4 C4 124.3(7) . . ?
C3 N4 C4 127.4(7) . . ?

loop_
_geom_torsion_atom_site_label_1
_geom_torsion_atom_site_label_2
_geom_torsion_atom_site_label_3
_geom_torsion_atom_site_label_4
_geom_torsion
_geom_torsion_site_symmetry_1
_geom_torsion_site_symmetry_2
_geom_torsion_site_symmetry_3
_geom_torsion_site_symmetry_4
_geom_torsion_publ_flag
N3 C2 C3 N4 0.2(9) . . . . ?
N4 C4 C5 N1 -166.1(8) . . . . ?
N1 C7 C8 N2 -0.3(14) . . . . ?
O1 C9 C10 C16 0.6(11) . . . . ?
O2 C9 C10 C16 179.3(7) . . . . ?
O1 C9 C10 C11 179.3(8) . . . . ?
O2 C9 C10 C11 -2.0(11) . . . . ?
C16 C10 C11 C12 -2.4(13) . . . . ?
C9 C10 C11 C12 178.9(8) . . . . ?
C10 C11 C12 C13 1.2(15) . . . . ?
C11 C12 C13 C14 0.3(15) . . . . ?
C12 C13 C14 C16 -0.6(13) . . . . ?
C12 C13 C14 C15 -179.1(8) . . . . ?
C13 C14 C15 O4 173.5(8) . . . . ?
C16 C14 C15 O4 -5.1(12) . . . . ?
C13 C14 C15 O3 -8.0(12) . . . . ?
C16 C14 C15 O3 173.4(7) . . . . ?
C13 C14 C15 Zn1 -11(3) . . . 1_655 ?
C16 C14 C15 Zn1 170.0(19) . . . 1_655 ?
C11 C10 C16 C14 2.1(13) . . . . ?
C9 C10 C16 C14 -179.2(7) . . . . ?
C13 C14 C16 C10 -0.7(12) . . . . ?
C15 C14 C16 C10 177.9(7) . . . . ?
O1 C9 O2 Zn1 2.6(10) . . . . ?
C10 C9 O2 Zn1 -176.1(5) . . . . ?
N3 Zn1 O2 C9 67.9(5) . . . . ?
N2 Zn1 O2 C9 -62.7(6) 2_655 . . . ?
O3 Zn1 O2 C9 -177.8(5) 1_455 . . . ?
O4 Zn1 O2 C9 178.9(5) 1_455 . . . ?
C15 Zn1 O2 C9 -178.9(5) 1_455 . . . ?
O4 C15 O3 Zn1 -0.5(9) . . . 1_655 ?
C14 C15 O3 Zn1 -178.9(6) . . . 1_655 ?
O3 C15 O4 Zn1 0.4(7) . . . 1_655 ?
C14 C15 O4 Zn1 178.8(7) . . . 1_655 ?
N2 C6 N1 C7 -1.7(12) . . . . ?
N2 C6 N1 C5 -177.8(8) . . . . ?
C8 C7 N1 C6 1.2(13) . . . . ?
C8 C7 N1 C5 177.3(9) . . . . ?
C4 C5 N1 C6 -112.1(10) . . . . ?
C4 C5 N1 C7 72.6(13) . . . . ?
N1 C6 N2 C8 1.5(11) . . . . ?
N1 C6 N2 Zn1 175.9(6) . . . 2_645 ?
C7 C8 N2 C6 -0.7(13) . . . . ?
C7 C8 N2 Zn1 -174.8(8) . . . 2_645 ?
N4 C1 N3 C2 1.2(9) . . . . ?
N4 C1 N3 Zn1 174.7(5) . . . . ?
C3 C2 N3 C1 -0.8(9) . . . . ?
C3 C2 N3 Zn1 -173.6(6) . . . . ?
N2 Zn1 N3 C1 132.3(6) 2_655 . . . ?
O2 Zn1 N3 C1 13.7(7) . . . . ?
O3 Zn1 N3 C1 -93.2(6) 1_455 . . . ?
O4 Zn1 N3 C1 -145.0(6) 1_455 . . . ?
C15 Zn1 N3 C1 -120.3(6) 1_455 . . . ?
N2 Zn1 N3 C2 -55.8(8) 2_655 . . . ?
O2 Zn1 N3 C2 -174.5(7) . . . . ?
O3 Zn1 N3 C2 78.6(7) 1_455 . . . ?
O4 Zn1 N3 C2 26.9(7) 1_455 . . . ?
C15 Zn1 N3 C2 51.5(7) 1_455 . . . ?
N3 C1 N4 C3 -1.1(9) . . . . ?
N3 C1 N4 C4 -174.9(7) . . . . ?
C2 C3 N4 C1 0.5(9) . . . . ?
C2 C3 N4 C4 174.0(7) . . . . ?
C5 C4 N4 C1 86.3(10) . . . . ?
C5 C4 N4 C3 -86.2(11) . . . . ?

_diffrn_measured_fraction_theta_max 0.987
_diffrn_reflns_theta_full        26.00
_diffrn_measured_fraction_theta_full 0.987
_refine_diff_density_max         1.397
_refine_diff_density_min         -1.603
_refine_diff_density_rms         0.205
