####################################################################### 
# 
# This file contains crystal structure data downloaded from the 
# Cambridge Structural Database (CSD) hosted by the Cambridge 
# Crystallographic Data Centre (CCDC).
# 
# Full information about CCDC data access policies and citation 
# guidelines are available at http://www.ccdc.cam.ac.uk/access/V1 
# 
# Audit and citation data items may have been added by the CCDC. 
# Please retain this information to preserve the provenance of 
# this file and to allow appropriate attribution of the data. 
# 
#######################################################################

data_2
_audit_block_doi                 10.5517/cc8c0qb
_database_code_depnum_ccdc_archive 'CCDC 248921'
loop_
_citation_id
_citation_doi
_citation_year
1 10.1007/s10870-005-2216-6 2005
_audit_update_record             
;
2004-08-26 deposited with the CCDC.	2024-07-13 downloaded from the CCDC.
;

_chemical_name_systematic        
;
hexaaquacobalt(II) tetraaquabezenetetracarboxylatocobaltate(II)
heptahydrate
;
_chemical_name_common            ?
_chemical_melting_point          ?
_chemical_formula_moiety         
'C10 H10 Co O12, Co H12 O6, 4(H2 O), 1.38(H2 O), 1.842(H2 O)'
_chemical_formula_sum            'C10 H36.44 Co2 O25.70'
_chemical_formula_weight         685.89

loop_
_atom_type_symbol
_atom_type_description
_atom_type_scat_dispersion_real
_atom_type_scat_dispersion_imag
_atom_type_scat_source
C C 0.0033 0.0016 'International Tables Vol C Tables 4.2.6.8 and 6.1.1.4'
H H 0.0000 0.0000 'International Tables Vol C Tables 4.2.6.8 and 6.1.1.4'
O O 0.0106 0.0060 'International Tables Vol C Tables 4.2.6.8 and 6.1.1.4'
Co Co 0.3494 0.9721 'International Tables Vol C Tables 4.2.6.8 and 6.1.1.4'

_symmetry_cell_setting           Triclinic
_symmetry_space_group_name_H-M   P-1

loop_
_symmetry_equiv_pos_as_xyz
'x, y, z'
'-x, -y, -z'

_cell_length_a                   6.8591(9)
_cell_length_b                   9.9691(13)
_cell_length_c                   10.9231(14)
_cell_angle_alpha                93.021(2)
_cell_angle_beta                 104.883(2)
_cell_angle_gamma                103.702(2)
_cell_volume                     696.16(16)
_cell_formula_units_Z            1
_cell_measurement_temperature    293(2)
_cell_measurement_reflns_used    5166
_cell_measurement_theta_min      0.86
_cell_measurement_theta_max      28.29

_exptl_crystal_description       plate
_exptl_crystal_colour            yellow
_exptl_crystal_size_max          0.38
_exptl_crystal_size_mid          0.21
_exptl_crystal_size_min          0.17
_exptl_crystal_density_meas      ?
_exptl_crystal_density_diffrn    1.636
_exptl_crystal_density_method    'not measured'
_exptl_crystal_F_000             358
_exptl_absorpt_coefficient_mu    1.293
_exptl_absorpt_correction_type   multi-scan
_exptl_absorpt_correction_T_min  0.729
_exptl_absorpt_correction_T_max  0.803
_exptl_absorpt_process_details   '(SADABS, BRUKER 1997)'

_exptl_special_details           
;
?
;

_diffrn_ambient_temperature      293(2)
_diffrn_radiation_wavelength     0.71073
_diffrn_radiation_type           MoK\a
_diffrn_radiation_source         'fine-focus sealed tube'
_diffrn_radiation_monochromator  graphite
_diffrn_measurement_device_type  'BRUKER AXS SMART APEX CCD diffractometer'
_diffrn_measurement_method       'omega scans'
_diffrn_detector_area_resol_mean ?
_diffrn_standards_number         0
_diffrn_standards_interval_count \\infinity
_diffrn_standards_interval_time  \\infinity
_diffrn_standards_decay_%        none
_diffrn_reflns_number            5166
_diffrn_reflns_av_R_equivalents  0.0132
_diffrn_reflns_av_sigmaI/netI    0.0209
_diffrn_reflns_limit_h_min       -8
_diffrn_reflns_limit_h_max       8
_diffrn_reflns_limit_k_min       -12
_diffrn_reflns_limit_k_max       12
_diffrn_reflns_limit_l_min       -14
_diffrn_reflns_limit_l_max       13
_diffrn_reflns_theta_min         2.12
_diffrn_reflns_theta_max         28.29
_reflns_number_total             2961
_reflns_number_gt                2809
_reflns_threshold_expression     >2sigma(I)

_computing_data_collection       'SMART FOR WNT/2000 5.625 (Bruker 1997-2000)'
_computing_cell_refinement       'SAINT+ 6.02 (Bruker 1997-1999)'
_computing_data_reduction        'SAINT+ 6.02 (Bruker 1997-1999)'
_computing_structure_solution    'SHELXS-97 (Sheldrick, 1990)'
_computing_structure_refinement  'SHELXL-97 (Sheldrick, 1997)'
_computing_molecular_graphics    ?
_computing_publication_material  ?

_refine_special_details          
;
Refinement of F^2^ against ALL reflections.  The weighted R-factor wR and
goodness of fit S are based on F^2^, conventional R-factors R are based
on F, with F set to zero for negative F^2^. The threshold expression of
F^2^ > 2sigma(F^2^) is used only for calculating R-factors(gt) etc. and is
not relevant to the choice of reflections for refinement.  R-factors based
on F^2^ are statistically about twice as large as those based on F, and R-
factors based on ALL data will be even larger.
;

_refine_ls_structure_factor_coef Fsqd
_refine_ls_matrix_type           full
_refine_ls_weighting_scheme      calc
_refine_ls_weighting_details     
'calc w=1/[\s^2^(Fo^2^)+(0.0353P)^2^+1.1501P] where P=(Fo^2^+2Fc^2^)/3'
_atom_sites_solution_primary     direct
_atom_sites_solution_secondary   difmap
_atom_sites_solution_hydrogens   geom
_refine_ls_hydrogen_treatment    mixed
_refine_ls_extinction_method     none
_refine_ls_extinction_coef       ?
_refine_ls_number_reflns         2961
_refine_ls_number_parameters     253
_refine_ls_number_restraints     56
_refine_ls_R_factor_all          0.0397
_refine_ls_R_factor_gt           0.0386
_refine_ls_wR_factor_ref         0.1078
_refine_ls_wR_factor_gt          0.1073
_refine_ls_goodness_of_fit_ref   1.196
_refine_ls_restrained_S_all      1.198
_refine_ls_shift/su_max          0.000
_refine_ls_shift/su_mean         0.000

loop_
_atom_site_label
_atom_site_type_symbol
_atom_site_fract_x
_atom_site_fract_y
_atom_site_fract_z
_atom_site_U_iso_or_equiv
_atom_site_adp_type
_atom_site_occupancy
_atom_site_symmetry_multiplicity
_atom_site_calc_flag
_atom_site_refinement_flags
_atom_site_disorder_assembly
_atom_site_disorder_group
C5 C 0.3994(4) -0.0107(3) 0.7426(2) 0.0249(5) Uani 1 1 d . . .
C3 C 0.4542(4) -0.0083(3) 0.6170(2) 0.0232(5) Uani 1 1 d . . .
H6B H 0.796(8) 0.139(5) 1.091(5) 0.074(16) Uiso 1 1 d . . .
H6A H 0.709(7) 0.128(4) 0.966(5) 0.055(12) Uiso 1 1 d . . .
Co1 Co 1.0000 0.0000 1.0000 0.02005(14) Uani 1 2 d S . .
O4 O 0.4782(3) 0.0973(2) 0.82201(19) 0.0298(4) Uani 1 1 d . . .
O1 O 0.8407(3) -0.02137(19) 0.80765(17) 0.0246(4) Uani 1 1 d . . .
O6 O 0.8290(3) 0.1419(2) 1.0295(2) 0.0291(4) Uani 1 1 d . . .
O2 O 0.7634(4) -0.1690(2) 1.0256(2) 0.0315(5) Uani 1 1 d . . .
C4 C 0.8376(4) 0.0723(3) 0.7336(2) 0.0242(5) Uani 1 1 d . . .
O3 O 0.2749(4) -0.1173(2) 0.7573(2) 0.0409(6) Uani 1 1 d . . .
O5 O 0.9681(4) 0.1867(2) 0.7533(2) 0.0418(6) Uani 1 1 d . . .
C2 C 0.6611(4) 0.0382(3) 0.6131(2) 0.0229(5) Uani 1 1 d . . .
C1 C 0.7051(4) 0.0473(3) 0.4958(3) 0.0250(5) Uani 1 1 d . . .
H1 H 0.836(6) 0.067(4) 0.488(3) 0.036(9) Uiso 1 1 d . . .
Co2 Co 0.0000 0.5000 0.5000 0.03267(16) Uani 1 2 d S . .
O7 O -0.1697(5) 0.6483(3) 0.4989(3) 0.0544(8) Uani 0.864(3) 1 d PD A 1
H7A H -0.1962 0.6562 0.5675 0.082 Uiso 0.864(3) 1 calc PRD A 1
H7B H -0.247(7) 0.653(7) 0.430(2) 0.082 Uiso 0.864(3) 1 d PD A 1
O8 O 0.2467(5) 0.6342(3) 0.6352(4) 0.0636(10) Uani 0.864(3) 1 d PD A 1
H8A H 0.2032 0.6904 0.6711 0.095 Uiso 0.864(3) 1 calc PRD A 1
H8B H 0.371(4) 0.637(6) 0.648(6) 0.095 Uiso 0.864(3) 1 d PD A 1
O9 O 0.1033(6) 0.5838(3) 0.3476(3) 0.0578(9) Uani 0.864(3) 1 d PD A 1
H9A H 0.0764 0.6592 0.3389 0.087 Uiso 0.864(3) 1 calc PRD A 1
H9B H 0.215(6) 0.573(5) 0.334(6) 0.087 Uiso 0.864(3) 1 d PD A 1
O7B O 0.303(3) 0.605(2) 0.4990(19) 0.0544(8) Uani 0.136(3) 1 d PD A 2
H7C H 0.3824 0.5554 0.5223 0.082 Uiso 0.136(3) 1 calc PRD A 2
H7D H 0.34(2) 0.689(6) 0.52(3) 0.082 Uiso 0.136(3) 1 d PD A 2
O8B O -0.019(3) 0.668(2) 0.610(2) 0.0636(10) Uani 0.136(3) 1 d PD A 2
H8C H 0.0233 0.6592 0.6861 0.095 Uiso 0.136(3) 1 calc PRD A 2
H8D H 0.04(4) 0.73(3) 0.577(11) 0.095 Uiso 0.136(3) 1 d PD A 2
O9B O -0.119(3) 0.585(2) 0.3330(19) 0.0578(9) Uani 0.136(3) 1 d PD A 2
H9C H -0.1831 0.6406 0.3492 0.087 Uiso 0.136(3) 1 calc PRD A 2
H9D H -0.01(3) 0.609(7) 0.32(4) 0.087 Uiso 0.136(3) 1 d PD A 2
O10 O 0.4991(5) 0.6504(3) 0.2919(3) 0.0654(8) Uani 1 1 d D B 3
H10A H 0.504(10) 0.607(5) 0.220(3) 0.098 Uiso 1 1 d D C 3
H10B H 0.494(9) 0.735(3) 0.269(5) 0.098 Uiso 1 1 d D D 3
O11 O 0.6869(5) 0.6969(3) 0.7086(3) 0.0663(8) Uani 1 1 d D E 3
H11A H 0.796(6) 0.674(5) 0.758(5) 0.099 Uiso 1 1 d D F 3
H11B H 0.710(8) 0.786(3) 0.736(5) 0.099 Uiso 1 1 d D G 3
O12 O 0.526(2) 0.4518(12) 0.1043(11) 0.167(6) Uani 0.690(17) 1 d PDU H 3
H12A H 0.52(3) 0.400(17) 0.033(11) 0.250 Uiso 0.690(17) 1 d PD H 3
H12B H 0.660(12) 0.504(18) 0.125(17) 0.250 Uiso 0.690(17) 1 d PD H 3
O13 O 0.758(9) 0.541(3) 0.939(4) 0.22(3) Uani 0.24(2) 1 d PU I 4
O14 O 0.0318(17) 0.5695(5) 0.9021(5) 0.197(6) Uani 0.921(16) 1 d PDU J 5
H14A H 0.1553 0.5503 0.9059 0.296 Uiso 0.921(16) 1 d PRD J 5
H14B H 0.0753 0.6566 0.9432 0.296 Uiso 0.921(16) 1 d PRD J 5
H2A H 0.680(7) -0.147(4) 1.047(4) 0.041(11) Uiso 1 1 d . . .
H2B H 0.821(10) -0.204(6) 1.084(6) 0.10(2) Uiso 1 1 d . . .

loop_
_atom_site_aniso_label
_atom_site_aniso_U_11
_atom_site_aniso_U_22
_atom_site_aniso_U_33
_atom_site_aniso_U_23
_atom_site_aniso_U_13
_atom_site_aniso_U_12
C5 0.0253(12) 0.0369(14) 0.0137(12) 0.0043(10) 0.0049(10) 0.0108(11)
C3 0.0271(13) 0.0311(13) 0.0132(12) 0.0061(9) 0.0067(10) 0.0092(10)
Co1 0.0219(2) 0.0263(3) 0.0120(2) 0.00393(17) 0.00336(18) 0.00737(18)
O4 0.0324(10) 0.0383(11) 0.0196(10) 0.0000(8) 0.0080(8) 0.0109(8)
O1 0.0286(9) 0.0299(9) 0.0139(9) 0.0056(7) 0.0018(7) 0.0088(7)
O6 0.0335(11) 0.0402(11) 0.0184(10) 0.0058(8) 0.0100(9) 0.0153(9)
O2 0.0296(11) 0.0381(12) 0.0268(12) 0.0057(9) 0.0097(9) 0.0063(9)
C4 0.0249(12) 0.0327(14) 0.0143(12) 0.0039(9) 0.0039(10) 0.0075(10)
O3 0.0530(14) 0.0431(13) 0.0241(11) 0.0015(9) 0.0217(10) -0.0035(10)
O5 0.0384(12) 0.0403(12) 0.0302(12) 0.0153(9) -0.0072(9) -0.0052(9)
C2 0.0250(12) 0.0291(13) 0.0145(12) 0.0049(9) 0.0040(10) 0.0079(10)
C1 0.0224(12) 0.0352(14) 0.0168(13) 0.0051(10) 0.0052(10) 0.0059(10)
Co2 0.0377(3) 0.0274(3) 0.0317(3) 0.0056(2) 0.0078(2) 0.0077(2)
O7 0.061(2) 0.0547(18) 0.0536(19) 0.0085(15) 0.0114(16) 0.0315(16)
O8 0.0479(17) 0.0470(17) 0.080(3) -0.0167(16) -0.0027(17) 0.0102(14)
O9 0.073(2) 0.0500(17) 0.067(2) 0.0283(16) 0.0358(19) 0.0268(16)
O7B 0.061(2) 0.0547(18) 0.0536(19) 0.0085(15) 0.0114(16) 0.0315(16)
O8B 0.0479(17) 0.0470(17) 0.080(3) -0.0167(16) -0.0027(17) 0.0102(14)
O9B 0.073(2) 0.0500(17) 0.067(2) 0.0283(16) 0.0358(19) 0.0268(16)
O10 0.072(2) 0.0570(18) 0.071(2) 0.0230(15) 0.0185(17) 0.0229(16)
O11 0.073(2) 0.0443(15) 0.073(2) -0.0074(14) 0.0075(17) 0.0150(14)
O12 0.202(13) 0.128(8) 0.146(9) -0.021(6) 0.060(8) -0.009(7)
O13 0.31(5) 0.15(3) 0.19(3) 0.03(2) 0.08(3) 0.04(2)
O14 0.397(15) 0.064(3) 0.081(4) -0.002(3) 0.065(6) -0.030(5)

_geom_special_details            
;
All esds (except the esd in the dihedral angle between two l.s. planes)
are estimated using the full covariance matrix.  The cell esds are taken
into account individually in the estimation of esds in distances, angles
and torsion angles; correlations between esds in cell parameters are only
used when they are defined by crystal symmetry.  An approximate (isotropic)
treatment of cell esds is used for estimating esds involving l.s. planes.
;

loop_
_geom_bond_atom_site_label_1
_geom_bond_atom_site_label_2
_geom_bond_distance
_geom_bond_site_symmetry_2
_geom_bond_publ_flag
C5 O3 1.242(4) . ?
C5 O4 1.261(3) . ?
C5 C3 1.513(3) . ?
C3 C1 1.385(4) 2_656 ?
C3 C2 1.397(4) . ?
Co1 O1 2.0778(18) 2_757 ?
Co1 O1 2.0778(18) . ?
Co1 O6 2.101(2) . ?
Co1 O6 2.101(2) 2_757 ?
Co1 O2 2.130(2) 2_757 ?
Co1 O2 2.130(2) . ?
O1 C4 1.268(3) . ?
O6 H6B 0.77(5) . ?
O6 H6A 0.91(5) . ?
O2 H2A 0.74(4) . ?
O2 H2B 0.80(6) . ?
C4 O5 1.241(3) . ?
C4 C2 1.501(4) . ?
C2 C1 1.392(4) . ?
C1 C3 1.385(4) 2_656 ?
C1 H1 0.90(4) . ?
Co2 O8B 2.062(19) . ?
Co2 O8B 2.062(19) 2_566 ?
Co2 O8 2.067(3) . ?
Co2 O8 2.067(3) 2_566 ?
Co2 O7 2.086(3) . ?
Co2 O7 2.086(3) 2_566 ?
Co2 O7B 2.10(2) 2_566 ?
Co2 O7B 2.10(2) . ?
Co2 O9 2.108(3) 2_566 ?
Co2 O9 2.108(3) . ?
Co2 O9B 2.108(19) 2_566 ?
Co2 O9B 2.108(19) . ?
O7 H7A 0.8200 . ?
O7 H7B 0.815(19) . ?
O7 H8D 1.48(9) . ?
O8 H8A 0.8200 . ?
O8 H8B 0.819(19) . ?
O9 H9A 0.8200 . ?
O9 H9B 0.843(19) . ?
O9 H9D 0.9(3) . ?
O7B H7C 0.8200 . ?
O7B H7D 0.820(11) . ?
O8B H8C 0.8200 . ?
O8B H8D 0.821(11) . ?
O9B H9C 0.8200 . ?
O9B H9D 0.820(11) . ?
O10 H10A 0.893(19) . ?
O10 H10B 0.900(19) . ?
O11 H11A 0.886(19) . ?
O11 H11B 0.891(19) . ?
O12 H12A 0.91(2) . ?
O12 H12B 0.91(2) . ?
O14 H14A 0.9030 . ?
O14 H14B 0.9013 . ?

loop_
_geom_angle_atom_site_label_1
_geom_angle_atom_site_label_2
_geom_angle_atom_site_label_3
_geom_angle
_geom_angle_site_symmetry_1
_geom_angle_site_symmetry_3
_geom_angle_publ_flag
O3 C5 O4 125.3(3) . . ?
O3 C5 C3 117.3(2) . . ?
O4 C5 C3 117.3(2) . . ?
C1 C3 C2 119.8(2) 2_656 . ?
C1 C3 C5 119.1(2) 2_656 . ?
C2 C3 C5 121.1(2) . . ?
O1 Co1 O1 180.0 2_757 . ?
O1 Co1 O6 92.99(8) 2_757 . ?
O1 Co1 O6 87.01(8) . . ?
O1 Co1 O6 87.01(8) 2_757 2_757 ?
O1 Co1 O6 92.99(8) . 2_757 ?
O6 Co1 O6 180.000(1) . 2_757 ?
O1 Co1 O2 89.40(8) 2_757 2_757 ?
O1 Co1 O2 90.60(8) . 2_757 ?
O6 Co1 O2 88.88(9) . 2_757 ?
O6 Co1 O2 91.12(9) 2_757 2_757 ?
O1 Co1 O2 90.60(8) 2_757 . ?
O1 Co1 O2 89.40(8) . . ?
O6 Co1 O2 91.12(9) . . ?
O6 Co1 O2 88.88(9) 2_757 . ?
O2 Co1 O2 180.00(10) 2_757 . ?
C4 O1 Co1 127.96(17) . . ?
Co1 O6 H6B 115(4) . . ?
Co1 O6 H6A 112(3) . . ?
H6B O6 H6A 105(5) . . ?
Co1 O2 H2A 113(3) . . ?
Co1 O2 H2B 105(4) . . ?
H2A O2 H2B 105(5) . . ?
O5 C4 O1 125.1(3) . . ?
O5 C4 C2 119.0(2) . . ?
O1 C4 C2 115.9(2) . . ?
C1 C2 C3 119.7(2) . . ?
C1 C2 C4 119.5(2) . . ?
C3 C2 C4 120.8(2) . . ?
C3 C1 C2 120.6(2) 2_656 . ?
C3 C1 H1 116(2) 2_656 . ?
C2 C1 H1 123(2) . . ?
O8B Co2 O8B 180.000(4) . 2_566 ?
O8B Co2 O8 54.4(6) . . ?
O8B Co2 O8 125.6(6) 2_566 . ?
O8B Co2 O8 125.6(6) . 2_566 ?
O8B Co2 O8 54.4(6) 2_566 2_566 ?
O8 Co2 O8 180.00(17) . 2_566 ?
O8B Co2 O7 38.0(6) . . ?
O8B Co2 O7 142.0(6) 2_566 . ?
O8 Co2 O7 88.69(14) . . ?
O8 Co2 O7 91.31(14) 2_566 . ?
O8B Co2 O7 142.0(6) . 2_566 ?
O8B Co2 O7 38.0(6) 2_566 2_566 ?
O8 Co2 O7 91.31(14) . 2_566 ?
O8 Co2 O7 88.69(14) 2_566 2_566 ?
O7 Co2 O7 180.000(1) . 2_566 ?
O8B Co2 O7B 89.5(8) . 2_566 ?
O8B Co2 O7B 90.5(8) 2_566 2_566 ?
O8 Co2 O7B 133.0(6) . 2_566 ?
O8 Co2 O7B 47.0(6) 2_566 2_566 ?
O7 Co2 O7B 72.6(5) . 2_566 ?
O7 Co2 O7B 107.4(5) 2_566 2_566 ?
O8B Co2 O7B 90.5(8) . . ?
O8B Co2 O7B 89.5(8) 2_566 . ?
O8 Co2 O7B 47.0(6) . . ?
O8 Co2 O7B 133.0(6) 2_566 . ?
O7 Co2 O7B 107.4(5) . . ?
O7 Co2 O7B 72.6(5) 2_566 . ?
O7B Co2 O7B 180.0(11) 2_566 . ?
O8B Co2 O9 74.8(7) . 2_566 ?
O8B Co2 O9 105.2(7) 2_566 2_566 ?
O8 Co2 O9 87.44(16) . 2_566 ?
O8 Co2 O9 92.56(16) 2_566 2_566 ?
O7 Co2 O9 90.64(13) . 2_566 ?
O7 Co2 O9 89.36(13) 2_566 2_566 ?
O7B Co2 O9 51.4(6) 2_566 2_566 ?
O7B Co2 O9 128.6(6) . 2_566 ?
O8B Co2 O9 105.2(7) . . ?
O8B Co2 O9 74.8(7) 2_566 . ?
O8 Co2 O9 92.56(16) . . ?
O8 Co2 O9 87.44(16) 2_566 . ?
O7 Co2 O9 89.36(13) . . ?
O7 Co2 O9 90.64(13) 2_566 . ?
O7B Co2 O9 128.6(6) 2_566 . ?
O7B Co2 O9 51.4(6) . . ?
O9 Co2 O9 180.000(1) 2_566 . ?
O8B Co2 O9B 89.7(8) . 2_566 ?
O8B Co2 O9B 90.3(8) 2_566 2_566 ?
O8 Co2 O9B 64.7(6) . 2_566 ?
O8 Co2 O9B 115.3(6) 2_566 2_566 ?
O7 Co2 O9B 122.2(6) . 2_566 ?
O7 Co2 O9B 57.8(6) 2_566 2_566 ?
O7B Co2 O9B 89.2(7) 2_566 2_566 ?
O7B Co2 O9B 90.8(7) . 2_566 ?
O9 Co2 O9B 41.6(6) 2_566 2_566 ?
O9 Co2 O9B 138.4(6) . 2_566 ?
O8B Co2 O9B 90.3(8) . . ?
O8B Co2 O9B 89.7(8) 2_566 . ?
O8 Co2 O9B 115.3(6) . . ?
O8 Co2 O9B 64.7(6) 2_566 . ?
O7 Co2 O9B 57.8(6) . . ?
O7 Co2 O9B 122.2(6) 2_566 . ?
O7B Co2 O9B 90.8(7) 2_566 . ?
O7B Co2 O9B 89.2(7) . . ?
O9 Co2 O9B 138.4(6) 2_566 . ?
O9 Co2 O9B 41.6(6) . . ?
O9B Co2 O9B 180.000(4) 2_566 . ?
Co2 O7 H7A 109.5 . . ?
Co2 O7 H7B 116(4) . . ?
H7A O7 H7B 125.0 . . ?
Co2 O7 H8D 80(10) . . ?
H7A O7 H8D 81.3 . . ?
H7B O7 H8D 135(5) . . ?
Co2 O8 H8A 109.5 . . ?
Co2 O8 H8B 127(4) . . ?
H8A O8 H8B 123.6 . . ?
Co2 O9 H9A 109.5 . . ?
Co2 O9 H9B 121(4) . . ?
H9A O9 H9B 118.4 . . ?
H9A O9 H9D 45.8 . . ?
Co2 O7B H7C 109.5 . . ?
Co2 O7B H7D 116(10) . . ?
Co2 O8B H8C 109.5 . . ?
Co2 O8B H8D 100(10) . . ?
H8C O8B H8D 122.9 . . ?
Co2 O9B H9C 109.5 . . ?
H9C O9B H9D 123.0 . . ?
H10A O10 H10B 101(3) . . ?
H11A O11 H11B 103(3) . . ?
H12A O12 H12B 99(3) . . ?
H14A O14 H14B 100.9 . . ?

loop_
_geom_hbond_atom_site_label_D
_geom_hbond_atom_site_label_H
_geom_hbond_atom_site_label_A
_geom_hbond_distance_DH
_geom_hbond_distance_HA
_geom_hbond_distance_DA
_geom_hbond_angle_DHA
_geom_hbond_site_symmetry_A
O12 H12A O2 0.91(2) 2.58(15) 3.063(10) 114(12) 2_656
O8B H8D O3 0.821(11) 2.38(11) 2.675(19) 102(8) 1_565
O12 H12A O12 0.91(2) 2.2(2) 2.49(3) 99(14) 2_665
O2 H2A O4 0.74(4) 2.11(4) 2.807(3) 157(4) 2_657
O2 H2B O5 0.80(6) 1.95(6) 2.677(3) 150(6) 2_757
O10 H10B O4 0.900(19) 1.98(3) 2.854(4) 162(5) 2_666
O8 H8A O3 0.82 1.98 2.691(4) 144.4 1_565
O14 H14B O6 0.90 1.94 2.803(5) 159.4 2_667
O11 H11B O1 0.891(19) 1.94(3) 2.803(3) 164(5) 1_565
O9 H9A O5 0.82 1.92 2.685(4) 154.4 2_666

_diffrn_measured_fraction_theta_max 0.860
_diffrn_reflns_theta_full        28.29
_diffrn_measured_fraction_theta_full 0.860
_refine_diff_density_max         0.493
_refine_diff_density_min         -0.441
_refine_diff_density_rms         0.084




