
#######################################################################
#
#                 Cambridge Crystallographic Data Centre
#                                CCDC
#
#######################################################################
#
# If this CIF has been generated from an entry in the Cambridge
# Structural Database, then it will include bibliographic, chemical,
# crystal, experimental, refinement or atomic coordinate data resulting
# from the CCDC's data processing and validation procedures.
#
#######################################################################

data_CSD_CIF_VAXKOU
_audit_creation_date 1990-05-24
_audit_creation_method CSD-ConQuest-V1
_database_code_CSD VAXKOU
_database_code_depnum_ccdc_archive 'CCDC 1280703'
_chemical_formula_sum 'C10 H10 Hg1'
_chemical_formula_moiety
;
C10 H10 Hg1
;
_journal_coden_Cambridge 55
_journal_volume 107
_journal_year 1988
_journal_page_first 259
_journal_name_full 'Rec.Trav.Chim.Pays-Bas(Fr.)(Rec.J.R.Neth.Chem.Soc.) '
loop_
_publ_author_name
"B.Fischer"
"G.P.M.van Mier"
"J.Boersma"
"G.van Koten"
"W.J.J.Smeets"
"A.L.Spek"
_chemical_name_systematic
;
Dicyclopentadienyl-mercury
;
_chemical_name_common
;
Teaching Subset: Fundamental Chemistry, Symmetry
;
_chemical_melting_point 356.15
_cell_volume   1748.336
_exptl_crystal_colour 'yellow'
_exptl_crystal_density_diffrn 2.514
_exptl_special_details
;
Melting point range 356.15-358.15K
Absolute configuration
light-sensitive

;
_diffrn_ambient_temperature 100
#These two values have been output from a single CSD field.
_refine_ls_R_factor_gt 0.0385
_refine_ls_wR_factor_gt 0.0385
_symmetry_cell_setting tetragonal
_symmetry_space_group_name_H-M 'I 41'
_symmetry_Int_Tables_number 80
loop_
_symmetry_equiv_pos_site_id
_symmetry_equiv_pos_as_xyz
1 x,y,z
2 1/2+x,1/2+y,1/2+z
3 -y,1/2+x,1/4+z
4 1/2-y,x,3/4+z
5 -x,-y,z
6 1/2-x,1/2-y,1/2+z
7 y,1/2-x,1/4+z
8 1/2+y,-x,3/4+z
_cell_length_a 17.347(5)
_cell_length_b 17.347(5)
_cell_length_c 5.810(3)
_cell_angle_alpha 90
_cell_angle_beta 90
_cell_angle_gamma 90
_cell_formula_units_Z 8
loop_
_atom_type_symbol
_atom_type_radius_bond
C 0.68
H 0.23
Hg 1.70
loop_
_atom_site_label
_atom_site_type_symbol
_atom_site_fract_x
_atom_site_fract_y
_atom_site_fract_z
Hg1 Hg 0.26190(3) 0.50976(3) 0.50000
C1 C 0.3697(7) 0.4558(8) 0.560(3)
C2 C 0.3925(8) 0.4259(9) 0.334(3)
C3 C 0.3835(8) 0.3479(8) 0.332(3)
C4 C 0.3587(7) 0.3242(8) 0.555(3)
C5 C 0.3520(8) 0.385(1) 0.694(3)
C6 C 0.1525(8) 0.5630(8) 0.426(3)
C7 C 0.1147(8) 0.5569(8) 0.656(3)
C8 C 0.1104(7) 0.6295(7) 0.750(4)
C9 C 0.1419(7) 0.6829(8) 0.590(3)
C10 C 0.1663(8) 0.6446(8) 0.394(3)
H1 H 0.4111(7) 0.4841(8) 0.630(3)
H2 H 0.4118(8) 0.4570(9) 0.210(3)
H3 H 0.3927(8) 0.3149(8) 0.203(3)
H4 H 0.3474(7) 0.2725(8) 0.603(3)
H5 H 0.3403(8) 0.385(1) 0.855(3)
H6 H 0.1193(8) 0.5434(8) 0.308(3)
H7 H 0.0965(8) 0.5105(8) 0.727(3)
H8 H 0.0893(7) 0.6421(7) 0.898(4)
H9 H 0.1469(7) 0.7373(8) 0.616(3)
H10 H 0.1883(8) 0.6681(8) 0.260(3)
#END
