####################################################################### 
# 
# This file contains crystal structure data downloaded from the 
# Cambridge Structural Database (CSD) hosted by the Cambridge 
# Crystallographic Data Centre (CCDC).
# 
# Full information about CCDC data access policies and citation 
# guidelines are available at http://www.ccdc.cam.ac.uk/access/V1 
# 
# Audit and citation data items may have been added by the CCDC. 
# Please retain this information to preserve the provenance of 
# this file and to allow appropriate attribution of the data. 
# 
#######################################################################

data_compound1
_audit_block_doi                 10.5517/ccx0sm9
_database_code_depnum_ccdc_archive 'CCDC 834911'
loop_
_citation_id
_citation_doi
_citation_year
1 10.1007/s12039-011-0167-3 2011
_audit_update_record             
;
2011-07-15 deposited with the CCDC.	2024-07-13 downloaded from the CCDC.
;
#TrackingRef 'Compound1.cif'


_audit_creation_method           SHELXL-97
_chemical_name_systematic        
;
?
;
_chemical_name_common            ?
_chemical_melting_point          ?
_chemical_formula_moiety         ?
_chemical_formula_sum            'C24 H19 Fe N2 O6'
_chemical_formula_weight         487.26

loop_
_atom_type_symbol
_atom_type_description
_atom_type_scat_dispersion_real
_atom_type_scat_dispersion_imag
_atom_type_scat_source
C C 0.0033 0.0016 'International Tables Vol C Tables 4.2.6.8 and 6.1.1.4'
H H 0.0000 0.0000 'International Tables Vol C Tables 4.2.6.8 and 6.1.1.4'
N N 0.0061 0.0033 'International Tables Vol C Tables 4.2.6.8 and 6.1.1.4'
O O 0.0106 0.0060 'International Tables Vol C Tables 4.2.6.8 and 6.1.1.4'
Fe Fe 0.3463 0.8444 'International Tables Vol C Tables 4.2.6.8 and 6.1.1.4'

_symmetry_cell_setting           orthorhombic
_symmetry_space_group_name_H-M   Pcca

loop_
_symmetry_equiv_pos_as_xyz
'x, y, z'
'-x+1/2, -y, z'
'x+1/2, -y, -z+1/2'
'-x, y, -z+1/2'
'-x, -y, -z'
'x-1/2, y, -z'
'-x-1/2, y, z-1/2'
'x, -y, z-1/2'

_cell_length_a                   24.451(7)
_cell_length_b                   11.479(3)
_cell_length_c                   16.299(4)
_cell_angle_alpha                90.00
_cell_angle_beta                 90.00
_cell_angle_gamma                90.00
_cell_volume                     4575(2)
_cell_formula_units_Z            8
_cell_measurement_temperature    293(2)
_cell_measurement_reflns_used    ?
_cell_measurement_theta_min      ?
_cell_measurement_theta_max      ?

_exptl_crystal_description       block
_exptl_crystal_colour            'deep brown'
_exptl_crystal_size_max          0.08
_exptl_crystal_size_mid          0.06
_exptl_crystal_size_min          0.04
_exptl_crystal_density_meas      ?
_exptl_crystal_density_diffrn    1.421
_exptl_crystal_density_method    'not measured'
_exptl_crystal_F_000             2024
_exptl_absorpt_coefficient_mu    0.702
_exptl_absorpt_correction_type   empirical
_exptl_absorpt_correction_T_min  0.8123
_exptl_absorpt_correction_T_max  0.9751
_exptl_absorpt_process_details   REQABA

_exptl_special_details           
;
?
;

_diffrn_ambient_temperature      293(2)
_diffrn_radiation_wavelength     0.71070
_diffrn_radiation_type           MoK\a
_diffrn_radiation_source         'fine-focus sealed tube'
_diffrn_radiation_monochromator  graphite
_diffrn_measurement_device_type  ?
_diffrn_measurement_method       ?
_diffrn_detector_area_resol_mean ?
_diffrn_standards_number         ?
_diffrn_standards_interval_count ?
_diffrn_standards_interval_time  ?
_diffrn_standards_decay_%        ?
_diffrn_reflns_number            5203
_diffrn_reflns_av_R_equivalents  0.0000
_diffrn_reflns_av_sigmaI/netI    0.1374
_diffrn_reflns_limit_h_min       0
_diffrn_reflns_limit_h_max       31
_diffrn_reflns_limit_k_min       0
_diffrn_reflns_limit_k_max       14
_diffrn_reflns_limit_l_min       0
_diffrn_reflns_limit_l_max       20
_diffrn_reflns_theta_min         3.00
_diffrn_reflns_theta_max         27.48
_reflns_number_total             5203
_reflns_number_gt                2577
_reflns_threshold_expression     >2sigma(I)

_computing_data_collection       'Rigaku Mercury diffractometer'
_computing_cell_refinement       Rigaku
_computing_data_reduction        SAINT
_computing_structure_solution    SIR-92
_computing_structure_refinement  'SHELXL-97 (Sheldrick, 1997)'
_computing_molecular_graphics    'Mercury 1.4.1'
_computing_publication_material  'PLATON (Spek, 2003)'

_refine_special_details          
;
Refinement of F^2^ against ALL reflections. The weighted R-factor wR and
goodness of fit S are based on F^2^, conventional R-factors R are based
on F, with F set to zero for negative F^2^. The threshold expression of
F^2^ > 2sigma(F^2^) is used only for calculating R-factors(gt) etc. and is
not relevant to the choice of reflections for refinement. R-factors based
on F^2^ are statistically about twice as large as those based on F, and R-
factors based on ALL data will be even larger.
;

_refine_ls_structure_factor_coef Fsqd
_refine_ls_matrix_type           full
_refine_ls_weighting_scheme      calc
_refine_ls_weighting_details     
'calc w=1/[\s^2^(Fo^2^)+(0.0000P)^2^+0.0000P] where P=(Fo^2^+2Fc^2^)/3'
_atom_sites_solution_primary     direct
_atom_sites_solution_secondary   difmap
_atom_sites_solution_hydrogens   geom
_refine_ls_hydrogen_treatment    noref
_refine_ls_extinction_method     none
_refine_ls_extinction_coef       ?
_refine_ls_number_reflns         5203
_refine_ls_number_parameters     298
_refine_ls_number_restraints     0
_refine_ls_R_factor_all          0.1839
_refine_ls_R_factor_gt           0.0654
_refine_ls_wR_factor_ref         0.1499
_refine_ls_wR_factor_gt          0.0984
_refine_ls_goodness_of_fit_ref   0.956
_refine_ls_restrained_S_all      0.956
_refine_ls_shift/su_max          0.000
_refine_ls_shift/su_mean         0.000

loop_
_atom_site_label
_atom_site_type_symbol
_atom_site_fract_x
_atom_site_fract_y
_atom_site_fract_z
_atom_site_U_iso_or_equiv
_atom_site_adp_type
_atom_site_occupancy
_atom_site_symmetry_multiplicity
_atom_site_calc_flag
_atom_site_refinement_flags
_atom_site_disorder_assembly
_atom_site_disorder_group
Fe1 Fe 0.54572(2) 0.35544(5) 0.65355(4) 0.04093(18) Uani 1 1 d . . .
O1 O 0.47050(12) 0.3559(2) 0.59830(19) 0.0487(7) Uani 1 1 d . . .
O2 O 0.44002(15) 0.3558(3) 0.72401(18) 0.0639(9) Uani 1 1 d . . .
O3 O 0.09524(19) 0.3291(4) 0.4921(3) 0.1004(15) Uani 1 1 d . . .
O4 O 0.12880(12) 0.3580(3) 0.3700(2) 0.0568(9) Uani 1 1 d . . .
N1 N 0.54344(17) 0.5439(3) 0.6579(3) 0.0587(10) Uani 1 1 d . . .
C1 C 0.5092(2) 0.6038(4) 0.6046(3) 0.0596(14) Uani 1 1 d . . .
H1 H 0.4864 0.5627 0.5692 0.072 Uiso 1 1 calc R . .
C2 C 0.5088(2) 0.7251(4) 0.6041(3) 0.0594(13) Uani 1 1 d . . .
H2 H 0.4859 0.7650 0.5683 0.071 Uiso 1 1 calc R . .
C3 C 0.5429(2) 0.7865(4) 0.6572(3) 0.0560(11) Uani 1 1 d . . .
C4 C 0.5776(2) 0.7256(4) 0.7101(3) 0.0598(13) Uani 1 1 d . . .
H4 H 0.6006 0.7663 0.7452 0.072 Uiso 1 1 calc R . .
C5 C 0.5778(2) 0.6051(4) 0.7106(3) 0.0602(14) Uani 1 1 d . . .
H5 H 0.6008 0.5651 0.7461 0.072 Uiso 1 1 calc R . .
C6 C 0.5456(2) 0.9218(4) 0.6554(3) 0.0654(13) Uani 1 1 d . . .
C7 C 0.5038(2) 0.9830(4) 0.6158(3) 0.0615(13) Uani 1 1 d . . .
H7 H 0.4761 0.9428 0.5889 0.074 Uiso 1 1 calc R . .
C8 C 0.5038(2) 1.1037(4) 0.6166(3) 0.0623(14) Uani 1 1 d . . .
H8 H 0.4759 1.1442 0.5904 0.075 Uiso 1 1 calc R . .
N2 N 0.54515(16) 1.1648(3) 0.6561(2) 0.0586(10) Uani 1 1 d . . .
C9 C 0.5865(2) 1.1042(4) 0.6962(3) 0.0644(15) Uani 1 1 d . . .
H9 H 0.6139 1.1446 0.7239 0.077 Uiso 1 1 calc R . .
C10 C 0.5869(2) 0.9831(4) 0.6950(3) 0.0626(14) Uani 1 1 d . . .
H10 H 0.6150 0.9428 0.7209 0.075 Uiso 1 1 calc R . .
C11 C 0.4318(2) 0.3562(5) 0.6475(4) 0.0739(15) Uani 1 1 d . . .
C17 C 0.3595(3) 0.3531(5) 0.5352(4) 0.0796(16) Uani 1 1 d . . .
H17 H 0.3862 0.3526 0.4946 0.096 Uiso 1 1 calc R . .
C12 C 0.3744(2) 0.3571(5) 0.6172(4) 0.0730(14) Uani 1 1 d . . .
C13 C 0.3345(3) 0.3582(5) 0.6766(4) 0.0770(16) Uani 1 1 d . . .
H13 H 0.3449 0.3611 0.7314 0.092 Uiso 1 1 calc R . .
C14 C 0.2794(3) 0.3550(5) 0.6574(4) 0.0811(16) Uani 1 1 d . . .
H14 H 0.2530 0.3558 0.6984 0.097 Uiso 1 1 calc R . .
C15 C 0.2648(3) 0.3507(5) 0.5755(4) 0.0780(16) Uani 1 1 d . . .
C16 C 0.3046(3) 0.3498(5) 0.5138(4) 0.0797(17) Uani 1 1 d . . .
C21 C 0.2888(3) 0.3458(5) 0.4317(4) 0.0817(17) Uani 1 1 d . . .
H21 H 0.3154 0.3445 0.3909 0.098 Uiso 1 1 calc R . .
C20 C 0.2342(2) 0.3437(5) 0.4105(4) 0.0807(17) Uani 1 1 d . . .
H20 H 0.2241 0.3420 0.3554 0.097 Uiso 1 1 calc R . .
C19 C 0.1940(3) 0.3441(5) 0.4711(4) 0.0831(18) Uani 1 1 d . . .
C18 C 0.2091(3) 0.3473(5) 0.5527(4) 0.0805(17) Uani 1 1 d . . .
H18 H 0.1823 0.3473 0.5931 0.097 Uiso 1 1 calc R . .
C22 C 0.1320(3) 0.3471(5) 0.4478(4) 0.0754(15) Uani 1 1 d . . .
O5 O 0.6173(3) 0.1291(6) 0.4044(5) 0.164(3) Uani 1 1 d . . .
C30 C 0.6489(6) -0.0460(10) 0.4610(8) 0.244(7) Uani 1 1 d . . .
H30A H 0.6747 -0.0753 0.5002 0.366 Uiso 1 1 calc R . .
H30B H 0.6564 -0.0793 0.4081 0.366 Uiso 1 1 calc R . .
H30C H 0.6125 -0.0667 0.4777 0.366 Uiso 1 1 calc R . .
C31 C 0.6537(7) 0.0843(12) 0.4560(9) 0.225(6) Uani 1 1 d . . .
H31A H 0.6481 0.1175 0.5101 0.270 Uiso 1 1 calc R . .
H31B H 0.6902 0.1050 0.4380 0.270 Uiso 1 1 calc R . .
O1W O 0.7402(5) 0.0965(8) 0.2310(7) 0.329(6) Uani 1 1 d . . .

loop_
_atom_site_aniso_label
_atom_site_aniso_U_11
_atom_site_aniso_U_22
_atom_site_aniso_U_33
_atom_site_aniso_U_23
_atom_site_aniso_U_13
_atom_site_aniso_U_12
Fe1 0.0343(3) 0.0409(3) 0.0476(3) 0.0117(3) -0.0019(3) -0.0096(3)
O1 0.0447(17) 0.0390(14) 0.0623(19) 0.0084(16) -0.0104(16) 0.0087(15)
O2 0.091(3) 0.066(2) 0.0348(17) -0.0135(17) -0.0022(17) 0.0050(19)
O3 0.078(3) 0.138(4) 0.085(3) -0.039(3) 0.017(3) -0.050(3)
O4 0.0318(16) 0.0486(16) 0.090(3) -0.0139(19) 0.0039(17) 0.0112(15)
N1 0.055(2) 0.051(2) 0.070(3) 0.002(2) -0.010(3) 0.002(2)
C1 0.062(4) 0.053(3) 0.064(3) 0.004(2) -0.012(3) 0.004(2)
C2 0.061(3) 0.051(3) 0.067(3) 0.002(2) -0.013(3) 0.008(2)
C3 0.057(3) 0.049(2) 0.062(3) 0.006(2) -0.012(3) 0.001(2)
C4 0.059(3) 0.051(3) 0.070(3) 0.003(2) -0.016(3) 0.003(2)
C5 0.058(3) 0.052(3) 0.071(4) 0.003(2) -0.013(3) 0.000(2)
C6 0.064(3) 0.053(3) 0.079(3) 0.012(3) -0.007(4) -0.003(3)
C7 0.068(3) 0.045(2) 0.072(3) 0.005(2) -0.018(3) 0.010(3)
C8 0.061(4) 0.052(2) 0.074(3) -0.001(2) -0.015(3) 0.002(2)
N2 0.055(2) 0.055(2) 0.066(2) -0.001(2) -0.010(2) 0.004(2)
C9 0.068(4) 0.050(3) 0.075(4) 0.005(2) -0.019(3) 0.002(2)
C10 0.056(3) 0.051(3) 0.080(4) 0.002(3) -0.015(3) 0.003(3)
C11 0.070(4) 0.072(3) 0.080(4) 0.005(4) -0.006(4) 0.001(3)
C17 0.075(4) 0.082(4) 0.082(4) 0.003(4) -0.002(4) 0.003(4)
C12 0.070(4) 0.079(3) 0.070(3) -0.003(3) -0.001(3) -0.004(4)
C13 0.080(4) 0.073(3) 0.078(4) -0.004(3) 0.007(3) 0.005(4)
C14 0.077(4) 0.089(4) 0.077(4) 0.004(4) -0.001(4) 0.002(4)
C15 0.074(4) 0.075(4) 0.086(4) 0.005(4) 0.013(3) 0.005(4)
C16 0.094(5) 0.077(3) 0.069(4) 0.006(3) -0.002(4) 0.003(4)
C21 0.076(4) 0.085(4) 0.084(4) 0.004(3) 0.001(4) 0.005(4)
C20 0.077(4) 0.083(4) 0.083(4) -0.003(3) 0.002(4) 0.005(4)
C19 0.082(5) 0.076(4) 0.091(5) 0.013(3) 0.001(4) 0.009(4)
C18 0.080(4) 0.082(4) 0.079(4) 0.006(4) -0.002(4) 0.002(4)
C22 0.071(4) 0.076(4) 0.079(4) 0.005(4) 0.003(3) 0.011(3)
O5 0.168(7) 0.167(6) 0.157(6) 0.007(5) 0.002(5) 0.011(5)
C30 0.252(16) 0.238(13) 0.243(15) 0.015(14) -0.003(12) -0.004(14)
C31 0.227(17) 0.221(14) 0.228(16) 0.025(14) -0.001(13) 0.000(14)
O1W 0.312(14) 0.334(11) 0.342(13) -0.007(9) -0.004(10) 0.003(12)

_geom_special_details            
;
All esds (except the esd in the dihedral angle between two l.s. planes)
are estimated using the full covariance matrix. The cell esds are taken
into account individually in the estimation of esds in distances, angles
and torsion angles; correlations between esds in cell parameters are only
used when they are defined by crystal symmetry. An approximate (isotropic)
treatment of cell esds is used for estimating esds involving l.s. planes.
;

loop_
_geom_bond_atom_site_label_1
_geom_bond_atom_site_label_2
_geom_bond_distance
_geom_bond_site_symmetry_2
_geom_bond_publ_flag
Fe1 O2 2.026(3) 4_656 ?
Fe1 O1 2.048(3) . ?
Fe1 O4 2.068(3) 6_656 ?
Fe1 N1 2.165(3) . ?
Fe1 N2 2.189(4) 1_545 ?
O1 C11 1.240(6) . ?
O2 C11 1.264(6) . ?
O2 Fe1 2.026(3) 4_656 ?
O3 C22 1.171(7) . ?
O4 C22 1.277(6) . ?
O4 Fe1 2.068(3) 6_556 ?
N1 C1 1.388(6) . ?
N1 C5 1.391(6) . ?
C1 C2 1.393(6) . ?
C2 C3 1.394(6) . ?
C3 C4 1.396(6) . ?
C3 C6 1.554(6) . ?
C4 C5 1.383(6) . ?
C6 C10 1.389(7) . ?
C6 C7 1.398(6) . ?
C7 C8 1.386(6) . ?
C8 N2 1.388(6) . ?
N2 C9 1.391(6) . ?
N2 Fe1 2.189(4) 1_565 ?
C9 C10 1.391(6) . ?
C11 C12 1.487(7) . ?
C17 C12 1.387(8) . ?
C17 C16 1.387(8) . ?
C12 C13 1.375(7) . ?
C13 C14 1.383(8) . ?
C14 C15 1.382(8) . ?
C15 C16 1.401(8) . ?
C15 C18 1.410(8) . ?
C16 C21 1.393(8) . ?
C21 C20 1.381(8) . ?
C20 C19 1.394(8) . ?
C19 C18 1.380(8) . ?
C19 C22 1.563(9) . ?
O5 C31 1.328(13) . ?
C30 C31 1.503(13) . ?

loop_
_geom_angle_atom_site_label_1
_geom_angle_atom_site_label_2
_geom_angle_atom_site_label_3
_geom_angle
_geom_angle_site_symmetry_1
_geom_angle_site_symmetry_3
_geom_angle_publ_flag
O2 Fe1 O1 126.00(14) 4_656 . ?
O2 Fe1 O4 90.79(15) 4_656 6_656 ?
O1 Fe1 O4 143.20(14) . 6_656 ?
O2 Fe1 N1 88.29(14) 4_656 . ?
O1 Fe1 N1 89.35(13) . . ?
O4 Fe1 N1 90.99(14) 6_656 . ?
O2 Fe1 N2 89.12(14) 4_656 1_545 ?
O1 Fe1 N2 90.30(13) . 1_545 ?
O4 Fe1 N2 91.36(14) 6_656 1_545 ?
N1 Fe1 N2 176.53(15) . 1_545 ?
C11 O1 Fe1 113.7(3) . . ?
C11 O2 Fe1 179.2(4) . 4_656 ?
C22 O4 Fe1 104.1(4) . 6_556 ?
C1 N1 C5 120.0(4) . . ?
C1 N1 Fe1 119.3(3) . . ?
C5 N1 Fe1 120.6(3) . . ?
N1 C1 C2 120.2(5) . . ?
C1 C2 C3 119.9(5) . . ?
C2 C3 C4 119.5(4) . . ?
C2 C3 C6 121.2(5) . . ?
C4 C3 C6 119.1(5) . . ?
C5 C4 C3 120.4(5) . . ?
C4 C5 N1 120.0(5) . . ?
C10 C6 C7 119.4(5) . . ?
C10 C6 C3 121.9(5) . . ?
C7 C6 C3 118.7(5) . . ?
C8 C7 C6 119.9(5) . . ?
C7 C8 N2 120.6(5) . . ?
C8 N2 C9 119.7(4) . . ?
C8 N2 Fe1 120.1(3) . 1_565 ?
C9 N2 Fe1 120.2(3) . 1_565 ?
N2 C9 C10 119.8(5) . . ?
C6 C10 C9 120.6(5) . . ?
O1 C11 O2 121.1(5) . . ?
O1 C11 C12 120.4(5) . . ?
O2 C11 C12 118.5(5) . . ?
C12 C17 C16 119.9(6) . . ?
C13 C12 C17 119.4(6) . . ?
C13 C12 C11 115.9(6) . . ?
C17 C12 C11 124.6(6) . . ?
C12 C13 C14 122.1(6) . . ?
C15 C14 C13 118.2(6) . . ?
C14 C15 C16 120.8(6) . . ?
C14 C15 C18 120.4(6) . . ?
C16 C15 C18 118.7(6) . . ?
C17 C16 C21 120.7(7) . . ?
C17 C16 C15 119.5(6) . . ?
C21 C16 C15 119.8(6) . . ?
C20 C21 C16 120.6(6) . . ?
C21 C20 C19 120.2(6) . . ?
C18 C19 C20 119.6(7) . . ?
C18 C19 C22 119.5(6) . . ?
C20 C19 C22 120.8(6) . . ?
C19 C18 C15 120.9(6) . . ?
O3 C22 O4 125.6(7) . . ?
O3 C22 C19 126.3(6) . . ?
O4 C22 C19 107.6(5) . . ?
O5 C31 C30 111.5(14) . . ?

_diffrn_measured_fraction_theta_max 0.992
_diffrn_reflns_theta_full        27.48
_diffrn_measured_fraction_theta_full 0.992
_refine_diff_density_max         0.293
_refine_diff_density_min         -0.188
_refine_diff_density_rms         0.037


