####################################################################### 
# 
# This file contains crystal structure data downloaded from the 
# Cambridge Structural Database (CSD) hosted by the Cambridge 
# Crystallographic Data Centre (CCDC).
# 
# Full information about CCDC data access policies and citation 
# guidelines are available at http://www.ccdc.cam.ac.uk/access/V1 
# 
# Audit and citation data items may have been added by the CCDC. 
# Please retain this information to preserve the provenance of 
# this file and to allow appropriate attribution of the data. 
# 
#######################################################################

data_6
_audit_block_doi                 10.5517/cc7p524
_database_code_depnum_ccdc_archive 'CCDC 228875'
loop_
_citation_id
_citation_doi
_citation_year
1 10.1002/jccs.200500154 2005
_audit_update_record             
;
2004-01-15 deposited with the CCDC.	2024-07-13 downloaded from the CCDC.
;

_audit_creation_method           SHELXL-97
_chemical_name_systematic        
;
?
;
_chemical_name_common            ?
_chemical_melting_point          ?
_chemical_formula_moiety         ?
_chemical_formula_sum            'C27 H45 Ag2 N4 O11.50 S'
_chemical_formula_weight         857.47

loop_
_atom_type_symbol
_atom_type_description
_atom_type_scat_dispersion_real
_atom_type_scat_dispersion_imag
_atom_type_scat_source
C C 0.0033 0.0016 'International Tables Vol C Tables 4.2.6.8 and 6.1.1.4'
H H 0.0000 0.0000 'International Tables Vol C Tables 4.2.6.8 and 6.1.1.4'
N N 0.0061 0.0033 'International Tables Vol C Tables 4.2.6.8 and 6.1.1.4'
O O 0.0106 0.0060 'International Tables Vol C Tables 4.2.6.8 and 6.1.1.4'
S S 0.1246 0.1234 'International Tables Vol C Tables 4.2.6.8 and 6.1.1.4'
Ag Ag -0.8971 1.1015 'International Tables Vol C Tables 4.2.6.8 and 6.1.1.4'

_symmetry_cell_setting           Monoclinic
_symmetry_space_group_name_H-M   C2/c

loop_
_symmetry_equiv_pos_as_xyz
'x, y, z'
'-x, y, -z+1/2'
'x+1/2, y+1/2, z'
'-x+1/2, y+1/2, -z+1/2'
'-x, -y, -z'
'x, -y, z-1/2'
'-x+1/2, -y+1/2, -z'
'x+1/2, -y+1/2, z-1/2'

_cell_length_a                   17.885(4)
_cell_length_b                   25.230(6)
_cell_length_c                   8.832(2)
_cell_angle_alpha                90.00
_cell_angle_beta                 105.437(4)
_cell_angle_gamma                90.00
_cell_volume                     3841.8(15)
_cell_formula_units_Z            4
_cell_measurement_temperature    298(2)
_cell_measurement_reflns_used    996
_cell_measurement_theta_min      2.69
_cell_measurement_theta_max      24.51

_exptl_crystal_description       column
_exptl_crystal_colour            colorless
_exptl_crystal_size_max          0.46
_exptl_crystal_size_mid          0.20
_exptl_crystal_size_min          0.10
_exptl_crystal_density_meas      0
_exptl_crystal_density_diffrn    1.482
_exptl_crystal_density_method    'not measured'
_exptl_crystal_F_000             1748
_exptl_absorpt_coefficient_mu    1.129
_exptl_absorpt_correction_type   multi-scan
_exptl_absorpt_correction_T_min  0.4412
_exptl_absorpt_correction_T_max  1.0000
_exptl_absorpt_process_details   ?

_exptl_special_details           
;
?
;

_diffrn_ambient_temperature      298(2)
_diffrn_radiation_wavelength     0.71073
_diffrn_radiation_type           MoK\a
_diffrn_radiation_source         'fine-focus sealed tube'
_diffrn_radiation_monochromator  graphite
_diffrn_measurement_device_type  'CCD area detector'
_diffrn_measurement_method       'phi and omega scans'
_diffrn_detector_area_resol_mean ?
_diffrn_standards_number         ?
_diffrn_standards_interval_count ?
_diffrn_standards_interval_time  ?
_diffrn_standards_decay_%        ?
_diffrn_reflns_number            7368
_diffrn_reflns_av_R_equivalents  0.0414
_diffrn_reflns_av_sigmaI/netI    0.0597
_diffrn_reflns_limit_h_min       -8
_diffrn_reflns_limit_h_max       21
_diffrn_reflns_limit_k_min       -30
_diffrn_reflns_limit_k_max       28
_diffrn_reflns_limit_l_min       -10
_diffrn_reflns_limit_l_max       9
_diffrn_reflns_theta_min         2.50
_diffrn_reflns_theta_max         25.03
_reflns_number_total             3379
_reflns_number_gt                2108
_reflns_threshold_expression     >2sigma(I)

_computing_data_collection       'Bruker SMART'
_computing_cell_refinement       'Bruker SMART'
_computing_data_reduction        'Bruker SAINT'
_computing_structure_solution    'SHELXS-97 (Sheldrick, 1990)'
_computing_structure_refinement  'SHELXL-97 (Sheldrick, 1997)'
_computing_molecular_graphics    'Bruker SHELXTL'
_computing_publication_material  'Bruker SHELXTL'

_refine_special_details          
;
Refinement of F^2^ against ALL reflections. The weighted R-factor wR and
goodness of fit S are based on F^2^, conventional R-factors R are based
on F, with F set to zero for negative F^2^. The threshold expression of
F^2^ > 2sigma(F^2^) is used only for calculating R-factors(gt) etc. and is
not relevant to the choice of reflections for refinement. R-factors based
on F^2^ are statistically about twice as large as those based on F, and R-
factors based on ALL data will be even larger.
;

_refine_ls_structure_factor_coef Fsqd
_refine_ls_matrix_type           full
_refine_ls_weighting_scheme      calc
_refine_ls_weighting_details     
'calc w=1/[\s^2^(Fo^2^)+(0.0000P)^2^+53.1409P] where P=(Fo^2^+2Fc^2^)/3'
_atom_sites_solution_primary     direct
_atom_sites_solution_secondary   difmap
_atom_sites_solution_hydrogens   geom
_refine_ls_hydrogen_treatment    mixed
_refine_ls_extinction_method     none
_refine_ls_extinction_coef       ?
_refine_ls_number_reflns         3379
_refine_ls_number_parameters     206
_refine_ls_number_restraints     0
_refine_ls_R_factor_all          0.1070
_refine_ls_R_factor_gt           0.0710
_refine_ls_wR_factor_ref         0.1786
_refine_ls_wR_factor_gt          0.1620
_refine_ls_goodness_of_fit_ref   1.033
_refine_ls_restrained_S_all      1.033
_refine_ls_shift/su_max          0.000
_refine_ls_shift/su_mean         0.000

loop_
_atom_site_label
_atom_site_type_symbol
_atom_site_fract_x
_atom_site_fract_y
_atom_site_fract_z
_atom_site_U_iso_or_equiv
_atom_site_adp_type
_atom_site_occupancy
_atom_site_symmetry_multiplicity
_atom_site_calc_flag
_atom_site_refinement_flags
_atom_site_disorder_assembly
_atom_site_disorder_group
Ag Ag 0.19775(5) 0.20976(3) 0.86827(10) 0.0865(3) Uani 1 1 d . . .
N1 N 0.2134(5) 0.2718(3) 0.7115(9) 0.0676(19) Uani 1 1 d . . .
N2 N 0.2838(5) 0.6367(3) 0.4964(9) 0.076(2) Uani 1 1 d . . .
C1 C 0.2825(6) 0.2850(4) 0.6960(12) 0.080(3) Uani 1 1 d . . .
H1 H 0.3259 0.2686 0.7607 0.096 Uiso 1 1 calc R . .
C2 C 0.2933(7) 0.3220(4) 0.5885(13) 0.085(3) Uani 1 1 d . . .
H2 H 0.3430 0.3313 0.5841 0.102 Uiso 1 1 calc R . .
C3 C 0.2286(7) 0.3450(3) 0.4873(11) 0.072(3) Uani 1 1 d . . .
C4 C 0.1595(6) 0.3309(4) 0.5053(12) 0.080(3) Uani 1 1 d . . .
H4 H 0.1150 0.3463 0.4413 0.097 Uiso 1 1 calc R . .
C5 C 0.1523(6) 0.2943(4) 0.6155(12) 0.078(3) Uani 1 1 d . . .
H5 H 0.1030 0.2852 0.6228 0.094 Uiso 1 1 calc R . .
C6 C 0.2369(7) 0.3847(3) 0.3643(12) 0.093(3) Uani 1 1 d . . .
H6A H 0.1920 0.3822 0.2743 0.112 Uiso 1 1 calc R . .
H6B H 0.2824 0.3758 0.3293 0.112 Uiso 1 1 calc R . .
C7 C 0.2444(7) 0.4416(3) 0.4261(11) 0.080(3) Uani 1 1 d . . .
H7A H 0.2902 0.4445 0.5142 0.096 Uiso 1 1 calc R . .
H7B H 0.1996 0.4503 0.4633 0.096 Uiso 1 1 calc R . .
C8 C 0.2507(7) 0.4813(3) 0.2976(11) 0.094(3) Uani 1 1 d . . .
H8A H 0.2942 0.4717 0.2571 0.112 Uiso 1 1 calc R . .
H8B H 0.2040 0.4796 0.2116 0.112 Uiso 1 1 calc R . .
C9 C 0.3443(7) 0.6064(4) 0.4913(13) 0.091(3) Uani 1 1 d . . .
H9 H 0.3941 0.6195 0.5331 0.109 Uiso 1 1 calc R . .
C10 C 0.3357(8) 0.5566(4) 0.4267(14) 0.097(3) Uani 1 1 d . . .
H10 H 0.3791 0.5361 0.4276 0.116 Uiso 1 1 calc R . .
C11 C 0.2618(7) 0.5371(4) 0.3601(11) 0.076(3) Uani 1 1 d . . .
C12 C 0.2024(7) 0.5690(4) 0.3650(11) 0.083(3) Uani 1 1 d . . .
H12 H 0.1519 0.5571 0.3226 0.100 Uiso 1 1 calc R . .
C13 C 0.2139(7) 0.6178(4) 0.4301(13) 0.085(3) Uani 1 1 d . . .
H13 H 0.1710 0.6389 0.4280 0.102 Uiso 1 1 calc R . .
S S 0.0000 0.20507(18) 0.7500 0.1014(13) Uani 1 2 d S . .
O1 O 0.0472(5) 0.1750(4) 0.6711(13) 0.147(4) Uani 1 1 d . . .
O2 O 0.0556(6) 0.2358(4) 0.8639(14) 0.172(4) Uani 1 1 d . . .
O3 O 0.5000 0.5226(12) 0.2500 0.300(14) Uani 1 2 d S . .
O4 O 0.0535(7) 0.0696(5) 0.585(2) 0.235(7) Uani 1 1 d . . .
O5 O 0.0650(10) 0.3046(8) 1.093(2) 0.300(10) Uani 1 1 d . . .
O6 O 0.0000 0.3679(19) 0.7500 0.244(18) Uiso 0.50 2 d SP . .
O7 O 0.0000 0.474(3) 0.7500 0.39(4) Uiso 0.50 2 d SP . .
O8 O 0.0000 0.5000 1.0000 0.28(2) Uiso 0.50 2 d SP . .
O9 O 0.003(2) 0.1571(18) 1.352(5) 0.155(14) Uiso 0.25 1 d P . .
O10 O -0.001(2) 0.2225(15) 1.329(4) 0.232(16) Uiso 0.25 1 d P . .
C14 C -0.001(2) 0.2225(15) 1.329(4) 0.232(16) Uiso 0.25 1 d P . .
C15 C 0.0000 0.531(3) 0.7500 0.25(3) Uiso 0.50 2 d SP . .

loop_
_atom_site_aniso_label
_atom_site_aniso_U_11
_atom_site_aniso_U_22
_atom_site_aniso_U_33
_atom_site_aniso_U_23
_atom_site_aniso_U_13
_atom_site_aniso_U_12
Ag 0.1287(7) 0.0455(4) 0.0920(6) -0.0012(4) 0.0412(5) -0.0037(4)
N1 0.082(5) 0.045(4) 0.081(5) -0.011(3) 0.030(4) -0.007(4)
N2 0.104(6) 0.053(4) 0.078(5) 0.005(4) 0.037(5) 0.006(4)
C1 0.092(8) 0.061(6) 0.088(7) -0.012(5) 0.025(6) 0.002(5)
C2 0.097(8) 0.070(6) 0.098(8) -0.010(6) 0.041(7) -0.020(6)
C3 0.102(8) 0.050(5) 0.071(6) -0.015(4) 0.032(6) -0.008(5)
C4 0.079(7) 0.070(6) 0.090(7) 0.004(5) 0.019(6) 0.006(5)
C5 0.073(6) 0.067(6) 0.096(7) 0.007(5) 0.024(6) -0.003(5)
C6 0.156(10) 0.053(5) 0.084(7) -0.013(5) 0.055(7) -0.011(6)
C7 0.129(9) 0.048(5) 0.075(6) -0.006(4) 0.046(6) -0.007(5)
C8 0.165(11) 0.058(5) 0.067(6) -0.005(5) 0.047(7) -0.010(6)
C9 0.098(8) 0.063(6) 0.121(9) -0.009(6) 0.045(7) 0.001(6)
C10 0.118(10) 0.063(6) 0.120(9) -0.004(6) 0.052(8) 0.009(6)
C11 0.119(9) 0.056(5) 0.060(5) 0.004(4) 0.037(6) 0.002(6)
C12 0.096(8) 0.068(6) 0.082(7) -0.004(5) 0.018(6) -0.006(6)
C13 0.086(8) 0.068(6) 0.104(8) -0.001(5) 0.028(6) 0.013(6)
S 0.090(3) 0.083(3) 0.137(4) 0.000 0.041(3) 0.000
O1 0.131(7) 0.126(7) 0.198(10) -0.029(7) 0.069(7) 0.023(6)
O2 0.155(9) 0.169(10) 0.211(11) -0.078(9) 0.081(8) -0.056(8)
O3 0.21(2) 0.40(4) 0.33(3) 0.000 0.16(2) 0.000
O4 0.174(11) 0.169(11) 0.37(2) -0.096(13) 0.079(12) 0.007(9)
O5 0.238(16) 0.32(2) 0.269(18) -0.125(16) -0.069(14) 0.037(15)

_geom_special_details            
;
All esds (except the esd in the dihedral angle between two l.s. planes)
are estimated using the full covariance matrix. The cell esds are taken
into account individually in the estimation of esds in distances, angles
and torsion angles; correlations between esds in cell parameters are only
used when they are defined by crystal symmetry. An approximate (isotropic)
treatment of cell esds is used for estimating esds involving l.s. planes.
;

loop_
_geom_bond_atom_site_label_1
_geom_bond_atom_site_label_2
_geom_bond_distance
_geom_bond_site_symmetry_2
_geom_bond_publ_flag
Ag N1 2.158(7) . ?
Ag N2 2.174(7) 4_546 ?
Ag Ag 3.2734(17) 7_557 ?
N1 C5 1.321(11) . ?
N1 C1 1.321(11) . ?
N2 C13 1.320(12) . ?
N2 C9 1.335(12) . ?
N2 Ag 2.174(7) 4_556 ?
C1 C2 1.382(13) . ?
C2 C3 1.387(14) . ?
C3 C4 1.336(13) . ?
C3 C6 1.513(13) . ?
C4 C5 1.371(13) . ?
C6 C7 1.530(11) . ?
C7 C8 1.541(12) . ?
C8 C11 1.505(12) . ?
C9 C10 1.371(13) . ?
C10 C11 1.387(14) . ?
C11 C12 1.342(13) . ?
C12 C13 1.352(13) . ?
S O2 1.438(10) 2_556 ?
S O2 1.438(10) . ?
S O1 1.444(9) 2_556 ?
S O1 1.444(9) . ?
O7 C15 1.43(9) . ?
O9 C14 1.66(5) . ?
O9 O10 1.66(5) . ?
O9 O9 1.78(8) 2_557 ?
O10 C14 1.40(6) 2_557 ?
O10 O10 1.40(6) 2_557 ?
C14 C14 1.40(6) 2_557 ?
C14 O10 1.40(6) 2_557 ?

loop_
_geom_angle_atom_site_label_1
_geom_angle_atom_site_label_2
_geom_angle_atom_site_label_3
_geom_angle
_geom_angle_site_symmetry_1
_geom_angle_site_symmetry_3
_geom_angle_publ_flag
N1 Ag N2 160.4(3) . 4_546 ?
N1 Ag Ag 81.9(2) . 7_557 ?
N2 Ag Ag 99.3(2) 4_546 7_557 ?
C5 N1 C1 117.6(8) . . ?
C5 N1 Ag 119.8(6) . . ?
C1 N1 Ag 122.3(7) . . ?
C13 N2 C9 117.2(9) . . ?
C13 N2 Ag 122.5(7) . 4_556 ?
C9 N2 Ag 119.9(7) . 4_556 ?
N1 C1 C2 123.2(10) . . ?
C1 C2 C3 118.6(10) . . ?
C4 C3 C2 116.8(9) . . ?
C4 C3 C6 122.2(11) . . ?
C2 C3 C6 121.0(10) . . ?
C3 C4 C5 122.0(10) . . ?
N1 C5 C4 121.7(9) . . ?
C3 C6 C7 112.4(7) . . ?
C6 C7 C8 111.4(7) . . ?
C11 C8 C7 111.5(7) . . ?
N2 C9 C10 122.5(11) . . ?
C9 C10 C11 119.3(11) . . ?
C12 C11 C10 116.6(9) . . ?
C12 C11 C8 122.9(11) . . ?
C10 C11 C8 120.3(10) . . ?
C11 C12 C13 121.8(10) . . ?
N2 C13 C12 122.5(10) . . ?
O2 S O2 114.8(11) 2_556 . ?
O2 S O1 103.7(6) 2_556 2_556 ?
O2 S O1 109.2(6) . 2_556 ?
O2 S O1 109.2(6) 2_556 . ?
O2 S O1 103.7(6) . . ?
O1 S O1 116.6(9) 2_556 . ?
C14 O9 O10 0(3) . . ?
C14 O9 O9 83.3(18) . 2_557 ?
O10 O9 O9 83.3(18) . 2_557 ?
C14 O10 O10 0(3) 2_557 2_557 ?
C14 O10 O9 96.4(18) 2_557 . ?
O10 O10 O9 96.4(18) 2_557 . ?
C14 C14 O10 0(3) 2_557 2_557 ?
C14 C14 O9 96.4(18) 2_557 . ?
O10 C14 O9 96.4(18) 2_557 . ?

_diffrn_measured_fraction_theta_max 0.991
_diffrn_reflns_theta_full        25.03
_diffrn_measured_fraction_theta_full 0.991
_refine_diff_density_max         1.055
_refine_diff_density_min         -0.665
_refine_diff_density_rms         0.149
