####################################################################### 
# 
# This file contains crystal structure data downloaded from the 
# Cambridge Structural Database (CSD) hosted by the Cambridge 
# Crystallographic Data Centre (CCDC).
# 
# Full information about CCDC data access policies and citation 
# guidelines are available at http://www.ccdc.cam.ac.uk/access/V1 
# 
# Audit and citation data items may have been added by the CCDC. 
# Please retain this information to preserve the provenance of 
# this file and to allow appropriate attribution of the data. 
# 
#######################################################################

data_compound-1
_audit_block_doi                 10.5517/ccxrl9j
_database_code_depnum_ccdc_archive 'CCDC 856818'
loop_
_citation_id
_citation_doi
_citation_year
1 10.1039/c2dt00039c 2012
_audit_update_record             
;
2011-12-05 deposited with the CCDC.	2024-07-13 downloaded from the CCDC.
;
#TrackingRef '- revised compound 1.cif'


_audit_creation_method           SHELXL-97
_chemical_name_systematic        
;
?
;
_chemical_name_common            ?
_chemical_melting_point          ?
_chemical_formula_moiety         ?
_chemical_formula_sum            'C18 H16 Co6 N6 O46 P W9'
_chemical_formula_weight         3091.48

loop_
_atom_type_symbol
_atom_type_description
_atom_type_scat_dispersion_real
_atom_type_scat_dispersion_imag
_atom_type_scat_source
C C 0.0033 0.0016 'International Tables Vol C Tables 4.2.6.8 and 6.1.1.4'
H H 0.0000 0.0000 'International Tables Vol C Tables 4.2.6.8 and 6.1.1.4'
Co Co 0.3494 0.9721 'International Tables Vol C Tables 4.2.6.8 and 6.1.1.4'
N N 0.0061 0.0033 'International Tables Vol C Tables 4.2.6.8 and 6.1.1.4'
O O 0.0106 0.0060 'International Tables Vol C Tables 4.2.6.8 and 6.1.1.4'
P P 0.1023 0.0942 'International Tables Vol C Tables 4.2.6.8 and 6.1.1.4'
W W -0.8490 6.8722 'International Tables Vol C Tables 4.2.6.8 and 6.1.1.4'

_symmetry_cell_setting           Orthorhombic
_symmetry_space_group_name_H-M   'P b c n'

loop_
_symmetry_equiv_pos_as_xyz
'x, y, z'
'-x+1/2, -y+1/2, z+1/2'
'x+1/2, -y+1/2, -z'
'-x, y, -z+1/2'
'-x, -y, -z'
'x-1/2, y-1/2, -z-1/2'
'-x-1/2, y-1/2, z'
'x, -y, z-1/2'

_cell_length_a                   21.398(14)
_cell_length_b                   32.298(14)
_cell_length_c                   20.891(21)
_cell_angle_alpha                90.00
_cell_angle_beta                 90.00
_cell_angle_gamma                90.00
_cell_volume                     14437.9(184)
_cell_formula_units_Z            8
_cell_measurement_temperature    187(2)
_cell_measurement_reflns_used    ?
_cell_measurement_theta_min      ?
_cell_measurement_theta_max      ?

_exptl_crystal_description       BLOCK
_exptl_crystal_colour            RED
_exptl_crystal_size_max          0.23
_exptl_crystal_size_mid          0.22
_exptl_crystal_size_min          0.21
_exptl_crystal_density_meas      ?
_exptl_crystal_density_diffrn    2.845
_exptl_crystal_density_method    'not measured'
_exptl_crystal_F_000             11016
_exptl_absorpt_coefficient_mu    15.720
_exptl_absorpt_correction_type   empirical
_exptl_absorpt_correction_T_min  0.037
_exptl_absorpt_correction_T_max  0.038
_exptl_absorpt_process_details   SADABS

_exptl_special_details           
;
?
;

_diffrn_ambient_temperature      187
_diffrn_radiation_wavelength     0.71073
_diffrn_radiation_type           MoK\a
_diffrn_radiation_source         'fine-focus sealed tube'
_diffrn_radiation_monochromator  graphite
_diffrn_measurement_device_type  ?
_diffrn_measurement_method       ?
_diffrn_detector_area_resol_mean ?
_diffrn_standards_number         ?
_diffrn_standards_interval_count ?
_diffrn_standards_interval_time  ?
_diffrn_standards_decay_%        ?
_diffrn_reflns_number            79188
_diffrn_reflns_av_R_equivalents  0.0657
_diffrn_reflns_av_sigmaI/netI    0.0387
_diffrn_reflns_limit_h_min       -16
_diffrn_reflns_limit_h_max       25
_diffrn_reflns_limit_k_min       -35
_diffrn_reflns_limit_k_max       37
_diffrn_reflns_limit_l_min       -24
_diffrn_reflns_limit_l_max       24
_diffrn_reflns_theta_min         1.50
_diffrn_reflns_theta_max         24.71
_reflns_number_total             12307
_reflns_number_gt                10604
_reflns_threshold_expression     >2sigma(I)

_computing_data_collection       'SMART (Bruker, 2001)'
_computing_cell_refinement       'SMART (Bruker, 2001)'
_computing_data_reduction        'SAINT+ (Bruker, 1999)'
_computing_structure_solution    'SHELXS-97 (Sheldrick, 1990)'
_computing_structure_refinement  'SHELXL-97 (Sheldrick, 1997)'
_computing_molecular_graphics    'PLATON (Spek, 2003)'
_computing_publication_material  'SHELXTL (1998)'

_refine_special_details          
;
Refinement of F^2^ against ALL reflections. The weighted R-factor wR and
goodness of fit S are based on F^2^, conventional R-factors R are based
on F, with F set to zero for negative F^2^. The threshold expression of
F^2^ > 2sigma(F^2^) is used only for calculating R-factors(gt) etc. and is
not relevant to the choice of reflections for refinement. R-factors based
on F^2^ are statistically about twice as large as those based on F, and R-
factors based on ALL data will be even larger.
The low quality of the data resulted in significant complications during
refinement. The atoms (C2, O24, N3, C5, C17, O11, O13, O17, O27, O34,
N6, C6, C18, C13, O18, O6, O3, O35) are left isotropic,
because they are disordered in the main framework and
exhibit high Ueq values compared to other atoms.
;

_refine_ls_structure_factor_coef Fsqd
_refine_ls_matrix_type           full
_refine_ls_weighting_scheme      calc
_refine_ls_weighting_details     
'calc w=1/[\s^2^(Fo^2^)+(0.0220P)^2^+670.9183P] where P=(Fo^2^+2Fc^2^)/3'
_atom_sites_solution_primary     direct
_atom_sites_solution_secondary   difmap
_atom_sites_solution_hydrogens   geom
_refine_ls_hydrogen_treatment    constr
_refine_ls_extinction_method     none
_refine_ls_extinction_coef       ?
_refine_ls_number_reflns         12307
_refine_ls_number_parameters     775
_refine_ls_number_restraints     110
_refine_ls_R_factor_all          0.0603
_refine_ls_R_factor_gt           0.0506
_refine_ls_wR_factor_ref         0.1115
_refine_ls_wR_factor_gt          0.1084
_refine_ls_goodness_of_fit_ref   1.147
_refine_ls_restrained_S_all      1.147
_refine_ls_shift/su_max          0.014
_refine_ls_shift/su_mean         0.000

loop_
_atom_site_label
_atom_site_type_symbol
_atom_site_fract_x
_atom_site_fract_y
_atom_site_fract_z
_atom_site_U_iso_or_equiv
_atom_site_adp_type
_atom_site_occupancy
_atom_site_symmetry_multiplicity
_atom_site_calc_flag
_atom_site_refinement_flags
_atom_site_disorder_assembly
_atom_site_disorder_group
C1 C 0.2900(8) 0.4023(5) 0.3401(8) 0.032(4) Uani 1 1 d . . .
H1A H 0.3239 0.4027 0.3680 0.038 Uiso 1 1 calc R . .
C2 C 0.2205(7) 0.3809(5) 0.2796(6) 0.021(3) Uani 1 1 d U . .
H2A H 0.1937 0.3644 0.2556 0.025 Uiso 1 1 calc R . .
C3 C 0.1804(11) 0.4500(6) 0.2402(9) 0.053(6) Uani 1 1 d . . .
H3A H 0.2047 0.4740 0.2274 0.064 Uiso 1 1 calc R . .
H3B H 0.1659 0.4363 0.2017 0.064 Uiso 1 1 calc R . .
C4 C 0.1254(10) 0.4641(6) 0.2781(9) 0.044(5) Uani 1 1 d U . .
C5 C 0.0796(12) 0.4378(8) 0.2920(13) 0.073(7) Uani 1 1 d U . .
H5A H 0.0795 0.4112 0.2750 0.087 Uiso 1 1 calc R . .
C6 C 0.0316(12) 0.4508(8) 0.3323(12) 0.070(7) Uani 1 1 d U . .
H6A H 0.0021 0.4312 0.3447 0.084 Uiso 1 1 calc R . .
C7 C 0.0249(11) 0.4895(7) 0.3547(14) 0.069(8) Uani 1 1 d . . .
C8 C 0.0660(14) 0.5166(8) 0.3286(12) 0.072(7) Uani 1 1 d . . .
H8A H 0.0600 0.5447 0.3358 0.086 Uiso 1 1 calc R . .
C9 C 0.1167(15) 0.5044(7) 0.2917(14) 0.083(9) Uani 1 1 d . . .
H9A H 0.1446 0.5241 0.2763 0.100 Uiso 1 1 calc R . .
C10 C -0.0252(12) 0.5012(7) 0.4012(16) 0.083(9) Uani 1 1 d . . .
C11 C -0.0726(14) 0.4751(8) 0.4153(16) 0.093(10) Uani 1 1 d . . .
H11A H -0.0753 0.4500 0.3938 0.112 Uiso 1 1 calc R . .
C12 C -0.1172(13) 0.4849(8) 0.4611(18) 0.101(12) Uani 1 1 d . . .
H12A H -0.1509 0.4675 0.4685 0.122 Uiso 1 1 calc R . .
C13 C -0.1106(14) 0.5199(9) 0.4942(15) 0.082(8) Uani 1 1 d U . .
C14 C -0.0624(12) 0.5472(8) 0.4818(17) 0.096(11) Uani 1 1 d . . .
H14A H -0.0583 0.5714 0.5055 0.115 Uiso 1 1 calc R . .
C15 C -0.0201(12) 0.5378(8) 0.4334(16) 0.091(10) Uani 1 1 d . . .
H15A H 0.0115 0.5564 0.4230 0.109 Uiso 1 1 calc R . .
C16 C -0.1558(11) 0.5311(6) 0.5518(13) 0.065(7) Uani 1 1 d . . .
H16A H -0.1849 0.5086 0.5592 0.078 Uiso 1 1 calc R . .
H16B H -0.1317 0.5354 0.5905 0.078 Uiso 1 1 calc R . .
C17 C -0.2546(10) 0.6060(5) 0.4933(9) 0.041(5) Uani 1 1 d U . .
H17A H -0.2890 0.6151 0.4699 0.049 Uiso 1 1 calc R . .
C18 C -0.1743(9) 0.6098(6) 0.5544(8) 0.037(4) Uani 1 1 d U . .
H18A H -0.1423 0.6178 0.5818 0.044 Uiso 1 1 calc R . .
Co1 Co 0.17170(10) 0.13929(7) 0.43196(10) 0.0257(5) Uani 1 1 d . . .
Co2 Co 0.17812(9) 0.29332(6) 0.61501(9) 0.0203(4) Uani 1 1 d . . .
Co3 Co 0.29132(9) 0.30478(6) 0.33583(9) 0.0170(4) Uani 1 1 d . . .
Co4 Co 0.23617(9) 0.22161(6) 0.38589(9) 0.0179(4) Uani 1 1 d . . .
Co5 Co 0.23720(9) 0.30191(6) 0.47673(9) 0.0186(4) Uani 1 1 d . . .
Co6 Co 0.17763(9) 0.21493(6) 0.52643(9) 0.0180(4) Uani 1 1 d . . .
N1 N 0.2622(6) 0.3667(4) 0.3197(5) 0.021(3) Uani 1 1 d . . .
N2 N 0.2647(8) 0.4359(5) 0.3166(7) 0.040(4) Uani 1 1 d . . .
N3 N 0.2212(7) 0.4210(4) 0.2774(6) 0.030(3) Uani 1 1 d U . .
N4 N -0.2409(9) 0.5665(6) 0.4984(9) 0.064(5) Uani 1 1 d . . .
N5 N -0.1907(6) 0.5698(5) 0.5349(8) 0.038(4) Uani 1 1 d U . .
N6 N -0.2155(7) 0.6334(5) 0.5245(7) 0.036(4) Uani 1 1 d U . .
O1 O 0.3718(4) 0.2589(3) 0.5306(4) 0.019(2) Uani 1 1 d . . .
O2 O 0.3235(4) 0.1921(3) 0.5689(4) 0.018(2) Uani 1 1 d . . .
O3 O 0.3698(5) 0.1963(3) 0.4577(4) 0.020(2) Uani 1 1 d U . .
O4 O 0.2697(4) 0.2347(3) 0.4835(4) 0.016(2) Uani 1 1 d . . .
O5 O 0.4752(5) 0.1965(4) 0.3931(5) 0.033(3) Uani 1 1 d . . .
O6 O 0.5520(5) 0.2642(4) 0.6085(5) 0.034(3) Uani 1 1 d U . .
O7 O 0.4583(6) 0.1353(4) 0.6860(6) 0.040(3) Uani 1 1 d . . .
O8 O 0.4469(5) 0.1485(3) 0.5511(5) 0.025(2) Uani 1 1 d . . .
O9 O 0.3157(5) 0.1157(3) 0.4907(5) 0.026(2) Uani 1 1 d . . .
O10 O 0.3341(6) 0.3459(3) 0.6682(5) 0.034(3) Uani 1 1 d . . .
O11 O 0.5481(5) 0.1433(4) 0.4663(6) 0.041(3) Uani 1 1 d U . .
O12 O 0.4780(5) 0.2978(3) 0.5106(5) 0.027(2) Uani 1 1 d . . .
O13 O 0.3514(4) 0.1837(3) 0.6905(4) 0.019(2) Uani 1 1 d U . .
O14 O 0.4253(5) 0.1260(3) 0.4318(5) 0.029(3) Uani 1 1 d . . .
O15 O 0.2384(5) 0.0770(3) 0.5812(5) 0.033(3) Uani 1 1 d . . .
O16 O 0.4948(5) 0.2165(3) 0.5126(6) 0.030(3) Uani 1 1 d . . .
O17 O 0.4300(5) 0.2926(3) 0.6265(5) 0.028(3) Uani 1 1 d U . .
O18 O 0.3256(5) 0.0871(4) 0.3634(5) 0.033(3) Uani 1 1 d U . .
O19 O 0.3201(4) 0.2424(3) 0.3499(4) 0.017(2) Uani 1 1 d . . .
O20 O 0.4469(4) 0.2126(4) 0.6251(5) 0.027(3) Uani 1 1 d . . .
O21 O 0.3722(5) 0.1675(3) 0.3417(5) 0.027(3) Uani 1 1 d . . .
O22 O 0.2462(4) 0.1542(3) 0.6448(4) 0.017(2) Uani 1 1 d . . .
O23 O 0.4309(5) 0.2357(3) 0.2805(5) 0.026(2) Uani 1 1 d . . .
O24 O 0.3231(4) 0.3149(3) 0.4330(4) 0.018(2) Uani 1 1 d U . .
O25 O 0.4337(5) 0.3572(3) 0.4225(5) 0.033(3) Uani 1 1 d . . .
O26 O 0.2101(4) 0.2310(3) 0.6168(5) 0.021(2) Uani 1 1 d . . .
O27 O 0.3177(5) 0.2588(3) 0.6580(5) 0.021(2) Uani 1 1 d U . .
O28 O 0.2096(4) 0.1534(3) 0.5251(4) 0.018(2) Uani 1 1 d . . .
O29 O 0.3501(5) 0.1179(3) 0.6154(5) 0.023(2) Uani 1 1 d . . .
O30 O 0.4248(5) 0.2715(3) 0.4034(5) 0.022(2) Uani 1 1 d . . .
O31 O 0.2621(5) 0.1589(3) 0.3968(4) 0.021(2) Uani 1 1 d . . .
O32 O 0.2661(4) 0.3079(3) 0.5718(5) 0.019(2) Uani 1 1 d . . .
O33 O 0.3770(5) 0.3391(3) 0.5406(5) 0.026(2) Uani 1 1 d . . .
O34 O 0.2419(5) 0.2125(3) 0.7438(4) 0.020(2) Uani 1 1 d U . .
O35 O 0.1574(5) 0.2791(3) 0.5209(4) 0.019(2) Uani 1 1 d U . .
O36 O 0.2137(4) 0.2847(3) 0.3846(4) 0.019(2) Uani 1 1 d . . .
O37 O 0.1572(5) 0.2019(3) 0.4327(5) 0.025(2) Uani 1 1 d . . .
O1W O 0.0835(6) 0.1265(4) 0.4703(6) 0.052(4) Uani 1 1 d . . .
O2W O 0.1915(7) 0.0763(4) 0.4332(7) 0.058(4) Uani 1 1 d . . .
O3W O 0.1407(6) 0.1339(4) 0.3341(5) 0.044(3) Uani 1 1 d . . .
O4W O 0.2023(5) 0.3051(4) 0.7119(5) 0.031(3) Uani 1 1 d . . .
O5W O 0.0875(5) 0.2718(3) 0.6493(5) 0.031(3) Uani 1 1 d . . .
O6W O 0.3737(5) 0.3236(4) 0.2940(5) 0.029(3) Uani 1 1 d . . .
O7W O 0.1480(5) 0.3547(3) 0.6126(5) 0.030(3) Uani 1 1 d . . .
O8W O 0.1951(5) 0.2073(4) 0.2956(5) 0.032(3) Uani 1 1 d . . .
O9W O 0.0883(5) 0.2012(4) 0.5659(5) 0.033(3) Uani 1 1 d . . .
P1 P 0.33259(16) 0.22053(11) 0.50941(15) 0.0101(7) Uani 1 1 d . . .
W1 W 0.47616(3) 0.16521(2) 0.46967(3) 0.02810(17) Uani 1 1 d . . .
W2 W 0.27022(3) 0.124818(19) 0.56702(3) 0.02032(14) Uani 1 1 d . . .
W3 W 0.34136(3) 0.30819(2) 0.61216(3) 0.02107(14) Uani 1 1 d . . .
W4 W 0.33622(3) 0.13258(2) 0.40506(3) 0.02485(15) Uani 1 1 d . . .
W5 W 0.47855(3) 0.25745(2) 0.57583(3) 0.02709(16) Uani 1 1 d . . .
W6 W 0.40085(3) 0.22387(2) 0.35457(3) 0.01946(14) Uani 1 1 d . . .
W7 W 0.40929(3) 0.15879(2) 0.63285(3) 0.02271(15) Uani 1 1 d . . .
W8 W 0.27134(3) 0.209477(19) 0.66666(3) 0.01614(13) Uani 1 1 d . . .
W9 W 0.40338(3) 0.315515(19) 0.46032(3) 0.01973(14) Uani 1 1 d . . .

loop_
_atom_site_aniso_label
_atom_site_aniso_U_11
_atom_site_aniso_U_22
_atom_site_aniso_U_33
_atom_site_aniso_U_23
_atom_site_aniso_U_13
_atom_site_aniso_U_12
C1 0.037(10) 0.029(10) 0.029(9) -0.014(7) -0.015(8) -0.006(8)
C2 0.032(7) 0.022(7) 0.009(6) -0.005(5) -0.006(5) 0.000(6)
C3 0.085(17) 0.030(10) 0.044(12) -0.002(9) -0.037(12) 0.021(11)
C4 0.065(13) 0.028(10) 0.039(11) -0.006(8) -0.010(10) 0.016(9)
C5 0.069(10) 0.063(10) 0.085(10) -0.033(8) -0.002(8) 0.004(8)
C6 0.064(10) 0.061(10) 0.084(10) -0.020(8) -0.005(8) -0.004(8)
C7 0.051(14) 0.042(13) 0.11(2) -0.043(14) -0.021(15) 0.012(11)
C8 0.10(2) 0.047(15) 0.070(17) -0.011(12) 0.000(15) 0.023(15)
C9 0.11(2) 0.028(12) 0.11(2) -0.007(13) -0.020(19) 0.016(14)
C10 0.073(18) 0.021(11) 0.15(3) -0.011(14) -0.005(18) -0.006(12)
C11 0.09(2) 0.050(16) 0.13(3) -0.053(17) -0.02(2) -0.005(15)
C12 0.064(18) 0.048(16) 0.19(4) -0.021(19) 0.05(2) -0.007(13)
C13 0.080(11) 0.073(11) 0.094(11) -0.004(9) 0.011(9) 0.006(9)
C14 0.065(18) 0.043(14) 0.18(3) -0.025(17) 0.05(2) 0.000(13)
C15 0.062(17) 0.058(16) 0.15(3) -0.021(17) 0.046(18) 0.018(13)
C16 0.066(16) 0.032(11) 0.098(19) 0.003(12) -0.020(14) -0.012(11)
C17 0.058(9) 0.026(7) 0.040(8) 0.006(6) -0.006(7) 0.006(7)
C18 0.038(8) 0.046(7) 0.026(7) 0.005(6) 0.005(6) 0.009(7)
Co1 0.0274(12) 0.0321(12) 0.0176(10) -0.0046(9) 0.0032(9) -0.0036(10)
Co2 0.0197(11) 0.0298(12) 0.0114(9) -0.0011(8) -0.0019(8) 0.0038(9)
Co3 0.0149(10) 0.0249(11) 0.0111(9) 0.0006(8) -0.0019(8) 0.0011(8)
Co4 0.0169(10) 0.0252(11) 0.0115(9) -0.0015(8) -0.0004(8) 0.0012(8)
Co5 0.0206(11) 0.0238(11) 0.0114(9) 0.0011(8) 0.0009(8) 0.0039(9)
Co6 0.0157(10) 0.0262(11) 0.0121(9) -0.0019(8) -0.0016(8) 0.0016(8)
N1 0.026(7) 0.021(7) 0.015(6) 0.005(5) -0.001(5) -0.004(6)
N2 0.050(10) 0.035(9) 0.035(8) -0.004(7) -0.006(8) 0.000(8)
N3 0.037(7) 0.037(7) 0.015(5) -0.010(5) -0.013(5) 0.010(6)
N4 0.060(13) 0.062(13) 0.071(13) -0.019(10) -0.014(11) 0.007(10)
N5 0.020(7) 0.036(8) 0.057(10) -0.017(7) -0.017(7) -0.002(6)
N6 0.038(7) 0.045(7) 0.027(6) 0.013(6) 0.009(6) 0.006(6)
O1 0.012(5) 0.031(6) 0.015(5) 0.004(4) 0.006(4) 0.000(4)
O2 0.015(5) 0.028(6) 0.011(5) 0.007(4) 0.002(4) 0.006(4)
O3 0.020(4) 0.024(4) 0.014(4) 0.009(3) 0.000(3) 0.000(3)
O4 0.017(5) 0.021(5) 0.009(5) -0.001(4) 0.004(4) 0.003(4)
O5 0.017(6) 0.049(7) 0.032(6) 0.012(6) 0.007(5) 0.010(5)
O6 0.034(4) 0.043(5) 0.024(4) 0.018(4) -0.006(4) -0.008(4)
O7 0.036(7) 0.050(8) 0.035(7) 0.018(6) 0.010(6) 0.011(6)
O8 0.020(6) 0.039(7) 0.017(5) 0.005(5) 0.012(4) 0.000(5)
O9 0.022(6) 0.038(7) 0.019(5) -0.001(5) 0.008(5) 0.005(5)
O10 0.049(8) 0.033(7) 0.021(6) 0.001(5) -0.015(5) -0.017(6)
O11 0.027(6) 0.048(6) 0.049(6) 0.029(5) 0.001(5) 0.013(5)
O12 0.019(6) 0.037(7) 0.025(6) 0.001(5) -0.005(5) 0.003(5)
O13 0.009(4) 0.031(5) 0.018(5) 0.009(4) 0.001(4) 0.005(4)
O14 0.033(6) 0.026(6) 0.029(6) 0.011(5) 0.015(5) 0.016(5)
O15 0.038(7) 0.024(6) 0.037(7) -0.003(5) 0.005(6) 0.000(5)
O16 0.017(6) 0.028(6) 0.046(7) 0.019(5) -0.004(5) -0.003(5)
O17 0.026(5) 0.040(6) 0.019(5) 0.014(4) 0.006(4) -0.007(5)
O18 0.036(6) 0.042(6) 0.020(5) 0.000(5) 0.015(5) 0.002(5)
O19 0.014(5) 0.025(6) 0.012(5) -0.001(4) 0.000(4) 0.000(4)
O20 0.010(5) 0.045(7) 0.025(6) 0.013(5) -0.001(4) 0.006(5)
O21 0.026(6) 0.029(6) 0.025(6) 0.005(5) 0.001(5) 0.006(5)
O22 0.017(5) 0.027(6) 0.007(4) 0.004(4) 0.004(4) -0.001(4)
O23 0.027(6) 0.024(6) 0.028(6) 0.001(5) 0.011(5) 0.005(5)
O24 0.018(5) 0.028(5) 0.009(4) 0.007(4) -0.004(4) 0.003(4)
O25 0.039(7) 0.032(7) 0.027(6) -0.006(5) -0.006(5) -0.003(5)
O26 0.015(5) 0.023(6) 0.026(6) -0.005(4) -0.001(4) 0.007(4)
O27 0.018(5) 0.029(5) 0.017(5) 0.015(4) -0.005(4) -0.004(4)
O28 0.020(5) 0.027(6) 0.008(5) -0.004(4) -0.002(4) 0.003(4)
O29 0.028(6) 0.020(5) 0.022(5) 0.005(4) -0.006(5) 0.004(5)
O30 0.021(6) 0.029(6) 0.015(5) 0.002(4) -0.004(4) -0.001(5)
O31 0.025(6) 0.022(5) 0.015(5) 0.003(4) 0.004(4) -0.003(5)
O32 0.011(5) 0.021(5) 0.023(5) 0.000(4) -0.007(4) -0.008(4)
O33 0.019(6) 0.035(6) 0.025(6) 0.005(5) -0.012(5) -0.004(5)
O34 0.018(5) 0.031(5) 0.011(4) 0.001(4) 0.007(4) 0.000(4)
O35 0.019(4) 0.025(4) 0.012(4) -0.001(3) -0.002(3) 0.005(3)
O36 0.020(5) 0.028(6) 0.009(5) -0.006(4) 0.000(4) 0.001(4)
O37 0.015(5) 0.031(6) 0.029(6) -0.015(5) 0.005(5) -0.007(5)
O1W 0.049(8) 0.061(9) 0.046(8) 0.001(7) 0.009(7) -0.023(7)
O2W 0.085(11) 0.035(8) 0.052(9) 0.004(