####################################################################### 
# 
# This file contains crystal structure data downloaded from the 
# Cambridge Structural Database (CSD) hosted by the Cambridge 
# Crystallographic Data Centre (CCDC).
# 
# Full information about CCDC data access policies and citation 
# guidelines are available at http://www.ccdc.cam.ac.uk/access/V1 
# 
# Audit and citation data items may have been added by the CCDC. 
# Please retain this information to preserve the provenance of 
# this file and to allow appropriate attribution of the data. 
# 
#######################################################################

data_MIL-142
_audit_block_doi                 10.5517/ccwrp3d
_database_code_depnum_ccdc_archive 'CCDC 827114'
loop_
_citation_id
_citation_doi
_citation_year
1 10.1016/j.micromeso.2011.10.001 2012
_audit_update_record             
;
2011-05-24 deposited with the CCDC.	2024-07-13 downloaded from the CCDC.
;
#TrackingRef 'mil142.cif'


_audit_creation_method           SHELXL-97
_chemical_name_systematic        
;
?
;
_chemical_name_common            ?
_chemical_melting_point          ?
_chemical_formula_moiety         ?
_chemical_formula_sum            'C111 H126 Co5 N14 O34'
_chemical_formula_weight         2494.91

loop_
_atom_type_symbol
_atom_type_description
_atom_type_scat_dispersion_real
_atom_type_scat_dispersion_imag
_atom_type_scat_source
C C 0.0033 0.0016 'International Tables Vol C Tables 4.2.6.8 and 6.1.1.4'
H H 0.0000 0.0000 'International Tables Vol C Tables 4.2.6.8 and 6.1.1.4'
N N 0.0061 0.0033 'International Tables Vol C Tables 4.2.6.8 and 6.1.1.4'
O O 0.0106 0.0060 'International Tables Vol C Tables 4.2.6.8 and 6.1.1.4'
Co Co 0.3494 0.9721 'International Tables Vol C Tables 4.2.6.8 and 6.1.1.4'

_symmetry_cell_setting           Trigonal
_symmetry_space_group_name_H-M   R-3

loop_
_symmetry_equiv_pos_as_xyz
'x, y, z'
'-y, x-y, z'
'-x+y, -x, z'
'x+2/3, y+1/3, z+1/3'
'-y+2/3, x-y+1/3, z+1/3'
'-x+y+2/3, -x+1/3, z+1/3'
'x+1/3, y+2/3, z+2/3'
'-y+1/3, x-y+2/3, z+2/3'
'-x+y+1/3, -x+2/3, z+2/3'
'-x, -y, -z'
'y, -x+y, -z'
'x-y, x, -z'
'-x+2/3, -y+1/3, -z+1/3'
'y+2/3, -x+y+1/3, -z+1/3'
'x-y+2/3, x+1/3, -z+1/3'
'-x+1/3, -y+2/3, -z+2/3'
'y+1/3, -x+y+2/3, -z+2/3'
'x-y+1/3, x+2/3, -z+2/3'

_cell_length_a                   38.8481(11)
_cell_length_b                   38.8481(11)
_cell_length_c                   28.3192(9)
_cell_angle_alpha                90.00
_cell_angle_beta                 90.00
_cell_angle_gamma                120.00
_cell_volume                     37012.7(19)
_cell_formula_units_Z            9
_cell_measurement_temperature    100(2)
_cell_measurement_reflns_used    9847
_cell_measurement_theta_min      2.30
_cell_measurement_theta_max      25.90

_exptl_crystal_description       parallelepiped
_exptl_crystal_colour            violet
_exptl_crystal_size_max          0.20
_exptl_crystal_size_mid          0.10
_exptl_crystal_size_min          0.04
_exptl_crystal_density_meas      ?
_exptl_crystal_density_diffrn    1.007
_exptl_crystal_density_method    'not measured'
_exptl_crystal_F_000             11673
_exptl_absorpt_coefficient_mu    0.554
_exptl_absorpt_correction_type   multi-scan
_exptl_absorpt_correction_T_min  0.8973
_exptl_absorpt_correction_T_max  0.9782
_exptl_absorpt_process_details   'SADABS (Sheldrick, V2.10)'

_exptl_special_details           
;
'Blessing, Acta Cryst. (1995) A51, 33-38'
;

_diffrn_ambient_temperature      100(2)
_diffrn_radiation_wavelength     0.71073
_diffrn_radiation_type           MoK\a
_diffrn_radiation_source         'fine-focus sealed tube'
_diffrn_radiation_monochromator  graphite
_diffrn_measurement_device_type  'Bruker APEX-II CCD'
_diffrn_measurement_method       '\f and \w scans'
_diffrn_detector_area_resol_mean 512x512
_diffrn_standards_number         0
_diffrn_standards_interval_count ?
_diffrn_standards_interval_time  ?
_diffrn_standards_decay_%        ?
_diffrn_reflns_number            214381
_diffrn_reflns_av_R_equivalents  0.0508
_diffrn_reflns_av_sigmaI/netI    0.0362
_diffrn_reflns_limit_h_min       -53
_diffrn_reflns_limit_h_max       53
_diffrn_reflns_limit_k_min       -54
_diffrn_reflns_limit_k_max       54
_diffrn_reflns_limit_l_min       -39
_diffrn_reflns_limit_l_max       39
_diffrn_reflns_theta_min         0.94
_diffrn_reflns_theta_max         30.03
_reflns_number_total             24036
_reflns_number_gt                18784
_reflns_threshold_expression     >2sigma(I)

_computing_data_collection       'Bruker APEX2'
_computing_cell_refinement       'Bruker SAINT'
_computing_data_reduction        'Bruker SAINT'
_computing_structure_solution    'SHELXS-97 (Sheldrick, 1990)'
_computing_structure_refinement  'SHELXL-97 (Sheldrick, 1997)'
_computing_molecular_graphics    'Bruker SHELXTL'
_computing_publication_material  'Bruker SHELXTL'

_refine_special_details          
;
Refinement of F^2^ against ALL reflections. The weighted R-factor wR and
goodness of fit S are based on F^2^, conventional R-factors R are based
on F, with F set to zero for negative F^2^. The threshold expression of
F^2^ > 2sigma(F^2^) is used only for calculating R-factors(gt) etc. and is
not relevant to the choice of reflections for refinement. R-factors based
on F^2^ are statistically about twice as large as those based on F, and R-
factors based on ALL data will be even larger.
;

_refine_ls_structure_factor_coef Fsqd
_refine_ls_matrix_type           full
_refine_ls_weighting_scheme      calc
_refine_ls_weighting_details     
'calc w=1/[\s^2^(Fo^2^)+(0.1467P)^2^+43.2617P] where P=(Fo^2^+2Fc^2^)/3'
_atom_sites_solution_primary     direct
_atom_sites_solution_secondary   difmap
_atom_sites_solution_hydrogens   geom
_refine_ls_hydrogen_treatment    constr
_refine_ls_extinction_method     none
_refine_ls_extinction_coef       ?
_refine_ls_number_reflns         24036
_refine_ls_number_parameters     799
_refine_ls_number_restraints     9
_refine_ls_R_factor_all          0.0951
_refine_ls_R_factor_gt           0.0681
_refine_ls_wR_factor_ref         0.2227
_refine_ls_wR_factor_gt          0.1960
_refine_ls_goodness_of_fit_ref   1.085
_refine_ls_restrained_S_all      1.087
_refine_ls_shift/su_max          0.003
_refine_ls_shift/su_mean         0.000

loop_
_atom_site_label
_atom_site_type_symbol
_atom_site_fract_x
_atom_site_fract_y
_atom_site_fract_z
_atom_site_U_iso_or_equiv
_atom_site_adp_type
_atom_site_occupancy
_atom_site_symmetry_multiplicity
_atom_site_calc_flag
_atom_site_refinement_flags
_atom_site_disorder_assembly
_atom_site_disorder_group
Co1 Co 0.5000 0.0000 0.0000 0.02418(6) Uani 1 2 d S . .
Co2 Co 0.396765(5) -0.060100(6) -0.012648(7) 0.03188(5) Uani 1 1 d . . .
Co3 Co 0.367391(5) 0.201284(5) 0.146007(6) 0.02736(4) Uani 1 1 d . . .
O1 O 0.54703(3) 0.04770(3) 0.04070(3) 0.0307(3) Uani 1 1 d . . .
O2 O 0.59832(3) 0.06757(4) 0.08828(4) 0.0398(3) Uani 1 1 d . . .
O3 O 0.48765(4) -0.00957(4) 0.42334(4) 0.0516(4) Uani 1 1 d . . .
O4 O 0.48611(3) 0.04240(4) 0.45398(4) 0.0508(4) Uani 1 1 d . . .
O5 O 0.34080(4) 0.11622(4) 0.19847(7) 0.0625(4) Uani 1 1 d . . .
O6 O 0.39267(4) 0.16888(3) 0.16596(4) 0.0545(3) Uani 1 1 d . . .
O7 O 0.47157(3) 0.03263(3) 0.00152(3) 0.0291(2) Uani 1 1 d . . .
O8 O 0.40940(3) -0.00306(3) -0.02655(4) 0.0362(3) Uani 1 1 d . . .
O9 O 0.41363(4) 0.24952(3) 0.11947(4) 0.0385(3) Uani 1 1 d . . .
O10 O 0.42859(8) 0.29736(4) 0.06899(5) 0.1171(8) Uani 1 1 d . . .
O11 O 0.36159(3) 0.17069(2) -0.26883(3) 0.0299(2) Uani 1 1 d . . .
O12 O 0.38376(3) 0.12764(3) -0.27720(4) 0.0406(3) Uani 1 1 d . . .
O13 O 0.33765(3) -0.07557(5) -0.00226(5) 0.0571(5) Uani 1 1 d . . .
O14 O 0.37729(15) -0.12250(11) -0.00636(13) 0.0883(17) Uani 0.50 1 d P . .
N14 N 0.38060(10) -0.11894(9) 0.00221(12) 0.0502(10) Uani 0.50 1 d PD . .
H14A H 0.3632 -0.1261 0.0276 0.060 Uiso 0.50 1 calc PR . .
N1 N 0.47406(4) 0.07107(4) 0.23465(5) 0.0553(3) Uani 1 1 d . . .
N2 N 0.43943(4) 0.17153(4) -0.06687(5) 0.0422(3) Uani 1 1 d . . .
C1 C 0.49547(4) 0.06560(5) 0.19712(5) 0.0452(4) Uani 1 1 d . . .
C2 C 0.47962(4) 0.05773(5) 0.15184(5) 0.0413(4) Uani 1 1 d . . .
H2 H 0.4540 0.0545 0.1464 0.050 Uiso 1 1 calc R . .
C3 C 0.50095(4) 0.05447(4) 0.11431(5) 0.0357(4) Uani 1 1 d . . .
H3 H 0.4901 0.0495 0.0833 0.043 Uiso 1 1 calc R . .
C4 C 0.53838(4) 0.05855(4) 0.12217(5) 0.0349(4) Uani 1 1 d . . .
C5 C 0.55311(4) 0.06548(5) 0.16797(6) 0.0468(4) Uani 1 1 d . . .
H5 H 0.5784 0.0681 0.1737 0.056 Uiso 1 1 calc R . .
C6 C 0.53216(5) 0.06873(5) 0.20550(5) 0.0501(4) Uani 1 1 d . . .
H6 H 0.5427 0.0730 0.2366 0.060 Uiso 1 1 calc R . .
C7 C 0.47472(4) 0.05775(5) 0.28094(5) 0.0441(4) Uani 1 1 d . . .
C8 C 0.47397(5) 0.02253(5) 0.28789(5) 0.0478(4) Uani 1 1 d . . .
H8 H 0.4715 0.0064 0.2614 0.057 Uiso 1 1 calc R . .
C9 C 0.47677(3) 0.00979(3) 0.33303(3) 0.0435(4) Uani 1 1 d . . .
H9 H 0.4777 -0.0140 0.3372 0.052 Uiso 1 1 calc R . .
C10 C 0.47818(3) 0.03245(3) 0.37183(3) 0.0373(4) Uani 1 1 d R . .
C11 C 0.47850(3) 0.06820(3) 0.36523(3) 0.0462(4) Uani 1 1 d R . .
H11 H 0.4808 0.0844 0.3916 0.055 Uiso 1 1 d R . .
C12 C 0.47577(5) 0.08013(5) 0.31962(6) 0.0485(4) Uani 1 1 d . . .
H12 H 0.4746 0.1038 0.3150 0.058 Uiso 1 1 calc R . .
C13 C 0.45001(4) 0.08749(4) 0.22416(5) 0.0421(4) Uani 1 1 d . . .
C14 C 0.41238(5) 0.07092(5) 0.24132(6) 0.0496(4) Uani 1 1 d . . .
H14 H 0.4024 0.0486 0.2618 0.060 Uiso 1 1 calc R . .
C15 C 0.38821(5) 0.08687(5) 0.22880(7) 0.0475(4) Uani 1 1 d . . .
H15 H 0.3616 0.0747 0.2400 0.057 Uiso 1 1 calc R . .
C16 C 0.40283(4) 0.11986(4) 0.20058(5) 0.0393(4) Uani 1 1 d . . .
C17 C 0.44184(5) 0.13804(5) 0.18470(6) 0.0440(4) Uani 1 1 d . . .
H17 H 0.4520 0.1613 0.1657 0.053 Uiso 1 1 calc R . .
C18 C 0.46606(5) 0.12273(5) 0.19623(6) 0.0466(5) Uani 1 1 d . . .
H18 H 0.4929 0.1354 0.1858 0.056 Uiso 1 1 calc R . .
C19 C 0.56224(4) 0.05782(4) 0.08184(5) 0.0330(4) Uani 1 1 d . . .
C20 C 0.48420(4) 0.02082(5) 0.42032(5) 0.0397(4) Uani 1 1 d . . .
C21 C 0.37734(4) 0.13695(4) 0.18673(6) 0.0437(4) Uani 1 1 d . . .
C22 C 0.43986(4) 0.13586(4) -0.05344(5) 0.0385(4) Uani 1 1 d . . .
C23 C 0.40653(4) 0.09886(5) -0.06231(6) 0.0427(4) Uani 1 1 d . . .
H23 H 0.3837 0.0973 -0.0766 0.051 Uiso 1 1 calc R . .
C24 C 0.40671(2) 0.06470(2) -0.05038(3) 0.0382(4) Uani 1 1 d . . .
H24 H 0.3841 0.0396 -0.0572 0.046 Uiso 1 1 calc R . .
C25 C 0.43957(2) 0.06646(2) -0.02847(3) 0.0314(3) Uani 1 1 d R . .
C26 C 0.47281(2) 0.10308(2) -0.01864(3) 0.0424(4) Uani 1 1 d R . .
H26 H 0.4955 0.1048 -0.0035 0.051 Uiso 1 1 d R . .
C27 C 0.47248(5) 0.13809(5) -0.03176(6) 0.0455(5) Uani 1 1 d . . .
H27 H 0.4950 0.1633 -0.0255 0.055 Uiso 1 1 calc R . .
C28 C 0.43773(4) 0.19530(4) -0.03056(5) 0.0363(4) Uani 1 1 d . . .
C29 C 0.43146(4) 0.18246(4) 0.01640(5) 0.0378(4) Uani 1 1 d . . .
H29 H 0.4296 0.1578 0.0242 0.045 Uiso 1 1 calc R . .
C30 C 0.42792(5) 0.20495(4) 0.05157(5) 0.0363(4) Uani 1 1 d . . .
H30 H 0.4235 0.1956 0.0832 0.044 Uiso 1 1 calc R . .
C31 C 0.43070(5) 0.24106(4) 0.04106(5) 0.0415(5) Uani 1 1 d . . .
C32 C 0.43848(6) 0.25491(5) -0.00564(6) 0.0467(5) Uani 1 1 d . . .
H32 H 0.4409 0.2799 -0.0133 0.056 Uiso 1 1 calc R . .
C33 C 0.44254(5) 0.23257(5) -0.04030(5) 0.0424(5) Uani 1 1 d . . .
H33 H 0.4488 0.2427 -0.0716 0.051 Uiso 1 1 calc R . .
C34 C 0.42561(4) 0.17134(4) -0.11321(5) 0.0367(4) Uani 1 1 d . . .
C35 C 0.39460(4) 0.17830(4) -0.12360(5) 0.0324(3) Uani 1 1 d . . .
H35 H 0.3837 0.1869 -0.0993 0.039 Uiso 1 1 calc R . .
C36 C 0.37933(4) 0.17287(4) -0.16923(5) 0.0305(3) Uani 1 1 d . . .
H36 H 0.3582 0.1778 -0.1758 0.037 Uiso 1 1 calc R . .
C37 C 0.39474(4) 0.16028(4) -0.20519(5) 0.0322(3) Uani 1 1 d . . .
C38 C 0.42697(5) 0.15497(5) -0.19548(6) 0.0432(4) Uani 1 1 d . . .
H38 H 0.4380 0.1468 -0.2200 0.052 Uiso 1 1 calc R . .
C39 C 0.44336(5) 0.16153(5) -0.15019(6) 0.0473(4) Uani 1 1 d . . .
H39 H 0.4663 0.1594 -0.1444 0.057 Uiso 1 1 calc R . .
C40 C 0.44009(3) 0.02865(4) -0.01689(4) 0.0302(3) Uani 1 1 d . . .
C41 C 0.42358(6) 0.26424(5) 0.07913(6) 0.0485(5) Uani 1 1 d . . .
C42 C 0.37861(4) 0.15258(4) -0.25453(5) 0.0318(3) Uani 1 1 d . . .
C43 C 0.35818(14) -0.14978(12) -0.03489(17) 0.0601(14) Uani 0.50 1 d PD . .
H43A H 0.3763 -0.1471 -0.0605 0.090 Uiso 0.50 1 calc PR . .
H43B H 0.3367 -0.1461 -0.0474 0.090 Uiso 0.50 1 calc PR . .
H43C H 0.3469 -0.1763 -0.0209 0.090 Uiso 0.50 1 calc PR . .
C44 C 0.41323(15) -0.12616(13) 0.0188(2) 0.096(2) Uani 0.50 1 d PD . .
H44A H 0.4019 -0.1498 0.0391 0.144 Uiso 0.50 1 calc PR . .
H44B H 0.4329 -0.1030 0.0368 0.144 Uiso 0.50 1 calc PR . .
H44C H 0.4262 -0.1304 -0.0085 0.144 Uiso 0.50 1 calc PR . .
O1A O 0.32076(5) 0.25395(6) 0.84112(8) 0.0840(7) Uani 1 1 d . . .
C2A C 0.34837(7) 0.25300(7) 0.82016(10) 0.0688(7) Uani 1 1 d . . .
H2A H 0.3427 0.2394 0.7908 0.083 Uiso 1 1 calc R . .
N3A N 0.38475(6) 0.26959(6) 0.83603(8) 0.0688(6) Uani 1 1 d . . .
C4A C 0.39687(9) 0.29149(10) 0.87880(12) 0.0912(12) Uani 1 1 d . . .
H4A1 H 0.3934 0.3147 0.8763 0.137 Uiso 1 1 calc R . .
H4A2 H 0.4249 0.3002 0.8848 0.137 Uiso 1 1 calc R . .
H4A3 H 0.3807 0.2746 0.9049 0.137 Uiso 1 1 calc R . .
C5A C 0.41580(7) 0.26893(8) 0.80757(10) 0.0785(9) Uani 1 1 d . . .
H5A1 H 0.4036 0.2478 0.7839 0.118 Uiso 1 1 calc R . .
H5A2 H 0.4332 0.2639 0.8281 0.118 Uiso 1 1 calc R . .
H5A3 H 0.4315 0.2946 0.7917 0.118 Uiso 1 1 calc R . .
O1B O 0.31774(6) -0.01437(7) 0.00764(9) 0.1060(8) Uani 1 1 d . . .
C2B C 0.33263(9) 0.02246(11) 0.02568(15) 0.1071(13) Uani 1 1 d . . .
H2B H 0.3254 0.0403 0.0122 0.128 Uiso 1 1 calc R . .
N3B N 0.35683(5) 0.03368(5) 0.06133(7) 0.0587(5) Uani 1 1 d . . .
C4B C 0.37047(12) 0.01033(11) 0.08479(16) 0.1173(17) Uani 1 1 d . . .
H4B1 H 0.3569 -0.0166 0.0717 0.176 Uiso 1 1 calc R . .
H4B2 H 0.3647 0.0092 0.1186 0.176 Uiso 1 1 calc R . .
H4B3 H 0.3992 0.0223 0.0802 0.176 Uiso 1 1 calc R . .
C5B C 0.37587(12) 0.07460(11) 0.07791(16) 0.1201(16) Uani 1 1 d . . .
H5B1 H 0.3625 0.0879 0.0640 0.180 Uiso 1 1 calc R . .
H5B2 H 0.4039 0.0885 0.0685 0.180 Uiso 1 1 calc R . .
H5B3 H 0.3740 0.0749 0.1124 0.180 Uiso 1 1 calc R . .
O1C O 0.44906(17) 0.17761(14) 0.32304(17) 0.280(3) Uani 1 1 d . . .
C2C C 0.40797(11) 0.15792(9) 0.31723(14) 0.0992(12) Uani 1 1 d . . .
H2C H 0.3983 0.1672 0.2924 0.119 Uiso 1 1 calc R . .
N3C N 0.38031(8) 0.12710(6) 0.34280(8) 0.0998(8) Uani 1 1 d D . .
C4C C 0.38204(17) 0.10838(11) 0.38673(13) 0.260(2) Uani 1 1 d D . .
H4C1 H 0.4064 0.1264 0.4038 0.389 Uiso 1 1 calc R . .
H4C2 H 0.3819 0.0836 0.3796 0.389 Uiso 1 1 calc R . .
H4C3 H 0.3589 0.1025 0.4063 0.389 Uiso 1 1 calc R . .
C5C C 0.33751(10) 0.10618(8) 0.32832(13) 0.0910(11) Uani 1 1 d . . .
H5C1 H 0.3346 0.1179 0.2990 0.137 Uiso 1 1 calc R . .
H5C2 H 0.3216 0.1090 0.3533 0.137 Uiso 1 1 calc R . .
H5C3 H 0.3283 0.0779 0.3232 0.137 Uiso 1 1 calc R . .
O1D O 0.54647(12) 0.22078(14) 0.1962(2) 0.127(2) Uani 0.50 1 d PD . .
C2D C 0.52337(14) 0.22646(16) 0.2236(2) 0.086(2) Uani 0.50 1 d PD . .
H2D H 0.5207 0.2178 0.2555 0.104 Uiso 0.50 1 calc PR . .
N3D N 0.50372(10) 0.24316(11) 0.21030(14) 0.0664(12) Uani 0.50 1 d PD . .
C4D C 0.47361(13) 0.24555(15) 0.2370(2) 0.081(2) Uani 0.50 1 d PD . .
H4D1 H 0.4497 0.2364 0.2176 0.122 Uiso 0.50 1 calc PR . .
H4D2 H 0.4834 0.2732 0.2466 0.122 Uiso 0.50 1 calc PR . .
H4D3 H 0.4671 0.2287 0.2652 0.122 Uiso 0.50 1 calc PR . .
C5D C 0.5099(2) 0.2603(2) 0.16272(19) 0.119(3) Uani 0.50 1 d PD . .
H5D1 H 0.5239 0.2894 0.1650 0.179 Uiso 0.50 1 calc PR . .
H5D2 H 0.4842 0.2509 0.1473 0.179 Uiso 0.50 1 calc PR . .
H5D3 H 0.5259 0.2521 0.1441 0.179 Uiso 0.50 1 calc PR . .
N1E N 0.33060(8) 0.91150(11) 0.85003(9) 0.0699(10) Uani 0.50 1 d PD A 1
H1E1 H 0.3177 0.9019 0.8784 0.084 Uiso 0.50 1 calc PR A 1
H1E2 H 0.3558 0.9321 0.8561 0.084 Uiso 0.50 1 calc PR A 1
C2E C 0.33265(13) 0.87851(14) 0.82270(17) 0.0743(19) Uani 0.50 1 d PD A 1
H2E1 H 0.3063 0.8545 0.8225 0.111 Uiso 0.50 1 calc PR A 1
H2E2 H 0.3518 0.8727 0.8380 0.111 Uiso 0.50 1 calc PR A 1
H2E3 H 0.3411 0.8873 0.7902 0.111 Uiso 0.50 1 calc PR A 1
C3E C 0.30813(14) 0.92586(18) 0.82001(18) 0.0882(18) Uani 0.50 1 d PD A 1
H3E1 H 0.3142 0.9249 0.7866 0.132 Uiso 0.50 1 calc PR A 1
H3E2 H 0.3161 0.9533 0.8287 0.132 Uiso 0.50 1 calc PR A 1
H3E3 H 0.2795 0.9087 0.8252 0.132 Uiso 0.50 1 calc PR A 1
N2E N 0.33472(8) 0.91911(12) 0.86142(9) 0.0699(10) Uani 0.50 1 d PD B 2
H2E4 H 0.3240 0.8982 0.8823 0.084 Uiso 0.50 1 calc PR B 2
H2E5 H 0.3619 0.9325 0.8644 0.084 Uiso 0.50 1 calc PR B 2
C4E C 0.31903(15) 0.94571(17) 0.8700(3) 0.122(3) Uani 0.50 1 d PD B 2
H4E1 H 0.3164 0.9567 0.8399 0.184 Uiso 0.50 1 calc PR B 2
H4E2 H 0.3372 0.9674 0.8907 0.184 Uiso 0.50 1 calc PR B 2
H4E3 H 0.2929 0.9309 0.8851 0.184 Uiso 0.50 1 calc PR B 2
C5E C 0.32194(17) 0.9041(2) 0.8093(2) 0.0882(18) Uani 0.50 1 d PD B 2
H5E1 H 0.2929 0.8881 0.8074 0.132 Uiso 0.50 1 calc PR B 2
H5E2 H 0.3335 0.8877 0.7999 0.132 Uiso 0.50 1 calc PR B 2
H5E3 H 0.3315 0.9269 0.7880 0.132 Uiso 0.50 1 calc PR B 2

loop_
_atom_site_aniso_label
_atom_site_aniso_U_11
_atom_site_aniso_U_22
_atom_site_aniso_U_33
_atom_site_aniso_U_23
_atom_site_aniso_U_13
_atom_site_aniso_U_12
Co1 0.02262(7) 0.04038(9) 0.01564(9) 0.00273(7) 0.00005(7) 0.02032(6)
Co2 0.02524(6) 0.04641(8) 0.02193(7) 0.00100(7) -0.00055(6) 0.01636(5)
Co3 0.04254(6) 0.02669(5) 0.01944(7) -0.00258(5) -0.00467(6) 0.02226(4)
O1 0.0278(3) 0.0472(4) 0.0213(4) -0.0023(3) -0.0036(3) 0.0221(3)
O2 0.0299(4) 0.0631(5) 0.0258(5) -0.0038(4) -0.0043(4) 0.0227(3)
O3 0.0604(5) 0.0615(5) 0.0372(5) 0.0150(4) -0.0091(4) 0.0337(4)
O4 0.0580(4) 0.0941(6) 0.0191(4) -0.0002(4) -0.0039(4) 0.0521(4)
O5 0.0615(5) 0.0550(5) 0.0898(10) -0.0180(6) -0.0255(6) 0.0433(3)
O6 0.0951(5) 0.0730(4) 0.0311(5) 0.00