####################################################################### 
# 
# This file contains crystal structure data downloaded from the 
# Cambridge Structural Database (CSD) hosted by the Cambridge 
# Crystallographic Data Centre (CCDC).
# 
# Full information about CCDC data access policies and citation 
# guidelines are available at http://www.ccdc.cam.ac.uk/access/V1 
# 
# Audit and citation data items may have been added by the CCDC. 
# Please retain this information to preserve the provenance of 
# this file and to allow appropriate attribution of the data. 
# 
#######################################################################

data_p
_audit_block_doi                 10.5517/ccwfzjs
_database_code_depnum_ccdc_archive 'CCDC 817796'
loop_
_citation_id
_citation_doi
_citation_year
1 10.1080/15533174.2011.614310 2012
_audit_update_record             
;
2011-03-17 deposited with the CCDC.	2024-07-13 downloaded from the CCDC.
;
#TrackingRef '2.cif'


_audit_creation_method           SHELXL-97
_chemical_name_systematic        
;
?
;
_chemical_name_common            ?
_chemical_melting_point          ?
_chemical_formula_moiety         ?
_chemical_formula_sum            'C17 H24 Cd N6 O5 S2'
_chemical_formula_weight         568.94

loop_
_atom_type_symbol
_atom_type_description
_atom_type_scat_dispersion_real
_atom_type_scat_dispersion_imag
_atom_type_scat_source
C C 0.0033 0.0016 'International Tables Vol C Tables 4.2.6.8 and 6.1.1.4'
H H 0.0000 0.0000 'International Tables Vol C Tables 4.2.6.8 and 6.1.1.4'
N N 0.0061 0.0033 'International Tables Vol C Tables 4.2.6.8 and 6.1.1.4'
O O 0.0106 0.0060 'International Tables Vol C Tables 4.2.6.8 and 6.1.1.4'
S S 0.1246 0.1234 'International Tables Vol C Tables 4.2.6.8 and 6.1.1.4'
Cd Cd -0.8075 1.2024 'International Tables Vol C Tables 4.2.6.8 and 6.1.1.4'

_symmetry_cell_setting           Monoclinic
_symmetry_space_group_name_H-M   P2(1)/n

loop_
_symmetry_equiv_pos_as_xyz
'x, y, z'
'-x+1/2, y+1/2, -z+1/2'
'-x, -y, -z'
'x-1/2, -y-1/2, z-1/2'

_cell_length_a                   8.8470(18)
_cell_length_b                   7.3875(15)
_cell_length_c                   34.624(7)
_cell_angle_alpha                90.00
_cell_angle_beta                 91.85(3)
_cell_angle_gamma                90.00
_cell_volume                     2261.8(8)
_cell_formula_units_Z            4
_cell_measurement_temperature    293(2)
_cell_measurement_reflns_used    3352
_cell_measurement_theta_min      2.3540
_cell_measurement_theta_max      27.9083

_exptl_crystal_description       Platelike
_exptl_crystal_colour            Colourless
_exptl_crystal_size_max          0.23
_exptl_crystal_size_mid          0.20
_exptl_crystal_size_min          0.08
_exptl_crystal_density_meas      ?
_exptl_crystal_density_diffrn    1.671
_exptl_crystal_density_method    'not measured'
_exptl_crystal_F_000             1152
_exptl_absorpt_coefficient_mu    1.191
_exptl_absorpt_correction_type   Multi-scan
_exptl_absorpt_correction_T_min  0.7713
_exptl_absorpt_correction_T_max  0.8703
_exptl_absorpt_process_details   ?

_exptl_special_details           
;
?
;

_diffrn_ambient_temperature      293(2)
_diffrn_radiation_wavelength     0.71073
_diffrn_radiation_type           MoK\a
_diffrn_radiation_source         'fine-focus sealed tube'
_diffrn_radiation_monochromator  graphite
_diffrn_measurement_device_type  'Rigaku Saturn'
_diffrn_measurement_method       \w
_diffrn_detector_area_resol_mean 28.5714
_diffrn_standards_number         ?
_diffrn_standards_interval_count ?
_diffrn_standards_interval_time  ?
_diffrn_standards_decay_%        ?
_diffrn_reflns_number            10450
_diffrn_reflns_av_R_equivalents  0.0283
_diffrn_reflns_av_sigmaI/netI    0.0340
_diffrn_reflns_limit_h_min       -10
_diffrn_reflns_limit_h_max       9
_diffrn_reflns_limit_k_min       -8
_diffrn_reflns_limit_k_max       7
_diffrn_reflns_limit_l_min       -41
_diffrn_reflns_limit_l_max       41
_diffrn_reflns_theta_min         1.18
_diffrn_reflns_theta_max         25.00
_reflns_number_total             3346
_reflns_number_gt                3136
_reflns_threshold_expression     >2sigma(I)

_computing_data_collection       'CrystalClear (Rigaku/MSC Inc., 2006)'
_computing_cell_refinement       'CrystalClear (Rigaku/MSC Inc., 2006)'
_computing_data_reduction        'CrystalClear (Rigaku/MSC Inc., 2006)'
_computing_structure_solution    'SHELXS-97 (Sheldrick, 2008)'
_computing_structure_refinement  'SHELXL-97 (Sheldrick, 2008)'
_computing_molecular_graphics    SHELXTL
_computing_publication_material  SHELXTL

_refine_special_details          
;
Refinement of F^2^ against ALL reflections. The weighted R-factor wR and
goodness of fit S are based on F^2^, conventional R-factors R are based
on F, with F set to zero for negative F^2^. The threshold expression of
F^2^ > 2sigma(F^2^) is used only for calculating R-factors(gt) etc. and is
not relevant to the choice of reflections for refinement. R-factors based
on F^2^ are statistically about twice as large as those based on F, and R-
factors based on ALL data will be even larger.
;

_refine_ls_structure_factor_coef Fsqd
_refine_ls_matrix_type           full
_refine_ls_weighting_scheme      calc
_refine_ls_weighting_details     
'calc w=1/[\s^2^(Fo^2^)+(0.0790P)^2^+3.6854P] where P=(Fo^2^+2Fc^2^)/3'
_atom_sites_solution_primary     direct
_atom_sites_solution_secondary   difmap
_atom_sites_solution_hydrogens   geom
_refine_ls_hydrogen_treatment    constr
_refine_ls_extinction_method     SHELXL
_refine_ls_extinction_coef       0.0097(8)
_refine_ls_extinction_expression Fc^*^=kFc[1+0.001xFc^2^\l^3^/sin(2\q)]^-1/4^
_refine_ls_number_reflns         3346
_refine_ls_number_parameters     281
_refine_ls_number_restraints     0
_refine_ls_R_factor_all          0.0529
_refine_ls_R_factor_gt           0.0472
_refine_ls_wR_factor_ref         0.1449
_refine_ls_wR_factor_gt          0.1351
_refine_ls_goodness_of_fit_ref   1.185
_refine_ls_restrained_S_all      1.185
_refine_ls_shift/su_max          0.000
_refine_ls_shift/su_mean         0.000

loop_
_atom_site_label
_atom_site_type_symbol
_atom_site_fract_x
_atom_site_fract_y
_atom_site_fract_z
_atom_site_U_iso_or_equiv
_atom_site_adp_type
_atom_site_occupancy
_atom_site_symmetry_multiplicity
_atom_site_calc_flag
_atom_site_refinement_flags
_atom_site_disorder_assembly
_atom_site_disorder_group
Cd1 Cd -0.19400(4) 0.43908(6) 0.213868(10) 0.0290(2) Uani 1 1 d . . .
N1 N 0.0553(5) 0.4252(6) 0.20702(13) 0.0302(11) Uani 1 1 d . . .
N2 N 0.2943(5) 0.5002(7) 0.20358(14) 0.0304(11) Uani 1 1 d . . .
N3 N 0.4527(6) 0.5951(7) 0.12785(14) 0.0368(12) Uani 1 1 d . . .
H3B H 0.3644 0.6382 0.1223 0.044 Uiso 1 1 calc R . .
N4 N 0.6490(5) 0.4945(6) 0.16318(12) 0.0262(10) Uani 1 1 d . . .
N5 N 0.0139(7) 0.8310(9) 0.07227(18) 0.0565(16) Uani 1 1 d . . .
N6 N 0.6438(10) 0.8584(10) 0.9240(2) 0.080(2) Uani 1 1 d . . .
O1 O -0.2799(6) 0.8870(6) 0.15171(12) 0.0495(12) Uani 1 1 d . . .
O2 O -0.1742(5) 1.1417(5) 0.18620(12) 0.0383(10) Uani 1 1 d . . .
O3 O -0.4203(5) 1.0292(6) 0.20268(13) 0.0462(11) Uani 1 1 d . . .
O4 O 0.1677(7) 0.7255(14) 0.1198(2) 0.121(3) Uani 1 1 d . . .
O5 O 0.8170(9) 0.7263(12) 0.9630(2) 0.113(3) Uani 1 1 d . . .
S1 S -0.16977(16) 0.81453(19) 0.22895(4) 0.0294(4) Uani 1 1 d . . .
S2 S -0.27355(16) 0.98465(19) 0.18771(4) 0.0284(3) Uani 1 1 d . . .
C1 C 0.1514(6) 0.5598(8) 0.20419(16) 0.0316(13) Uani 1 1 d . . .
H1A H 0.1237 0.6811 0.2028 0.038 Uiso 1 1 calc R . .
C2 C 0.1433(7) 0.2705(8) 0.20796(17) 0.0394(14) Uani 1 1 d . . .
H2A H 0.1066 0.1529 0.2097 0.047 Uiso 1 1 calc R . .
C3 C 0.2909(6) 0.3158(9) 0.20594(19) 0.0389(15) Uani 1 1 d . . .
H3A H 0.3732 0.2375 0.2061 0.047 Uiso 1 1 calc R . .
C4 C 0.4312(6) 0.6121(8) 0.19936(17) 0.0343(13) Uani 1 1 d . . .
H4A H 0.4987 0.5942 0.2217 0.041 Uiso 1 1 calc R . .
H4B H 0.4028 0.7389 0.1985 0.041 Uiso 1 1 calc R . .
C5 C 0.5120(7) 0.5645(7) 0.16338(15) 0.0299(12) Uani 1 1 d . . .
C6 C 0.6839(7) 0.4816(8) 0.12413(15) 0.0315(13) Uani 1 1 d . . .
C7 C 0.8138(7) 0.4215(9) 0.10702(18) 0.0406(15) Uani 1 1 d . . .
H7A H 0.8962 0.3799 0.1219 0.049 Uiso 1 1 calc R . .
C8 C 0.8173(9) 0.4255(10) 0.06719(19) 0.0529(19) Uani 1 1 d . . .
H8A H 0.9028 0.3847 0.0549 0.063 Uiso 1 1 calc R . .
C9 C 0.6941(9) 0.4899(11) 0.04532(19) 0.0551(19) Uani 1 1 d . . .
H9A H 0.7007 0.4942 0.0186 0.066 Uiso 1 1 calc R . .
C10 C 0.5640(9) 0.5469(10) 0.06158(18) 0.0530(19) Uani 1 1 d . . .
H10A H 0.4813 0.5858 0.0465 0.064 Uiso 1 1 calc R . .
C11 C 0.5606(7) 0.5443(8) 0.10161(17) 0.0359(13) Uani 1 1 d . . .
C12 C 0.0545(10) 0.8041(14) 0.1083(3) 0.077(3) Uani 1 1 d . . .
H12 H -0.0090 0.8491 0.1269 0.092 Uiso 1 1 calc R . .
C13 C 0.1017(12) 0.7615(16) 0.0411(3) 0.093(3) Uani 1 1 d . . .
H13A H 0.1897 0.7007 0.0515 0.140 Uiso 1 1 calc R . .
H13B H 0.1322 0.8598 0.0250 0.140 Uiso 1 1 calc R . .
H13C H 0.0414 0.6777 0.0260 0.140 Uiso 1 1 calc R . .
C14 C -0.1261(10) 0.9284(12) 0.0626(3) 0.072(2) Uani 1 1 d . . .
H14A H -0.1727 0.9659 0.0859 0.108 Uiso 1 1 calc R . .
H14B H -0.1938 0.8504 0.0482 0.108 Uiso 1 1 calc R . .
H14C H -0.1037 1.0330 0.0473 0.108 Uiso 1 1 calc R . .
C15 C 0.7613(14) 0.7660(17) 0.9318(4) 0.107(4) Uani 1 1 d . . .
H15 H 0.8119 0.7225 0.9106 0.128 Uiso 1 1 calc R . .
C16 C 0.5515(19) 0.914(2) 0.9575(6) 0.192(10) Uani 1 1 d . . .
H16A H 0.6038 0.8813 0.9812 0.288 Uiso 1 1 calc R . .
H16B H 0.4554 0.8539 0.9560 0.288 Uiso 1 1 calc R . .
H16C H 0.5362 1.0427 0.9569 0.288 Uiso 1 1 calc R . .
C17 C 0.579(2) 0.9000(16) 0.8881(5) 0.205(11) Uani 1 1 d . . .
H17A H 0.6457 0.8616 0.8683 0.308 Uiso 1 1 calc R . .
H17B H 0.5638 1.0283 0.8862 0.308 Uiso 1 1 calc R . .
H17C H 0.4841 0.8388 0.8849 0.308 Uiso 1 1 calc R . .

loop_
_atom_site_aniso_label
_atom_site_aniso_U_11
_atom_site_aniso_U_22
_atom_site_aniso_U_33
_atom_site_aniso_U_23
_atom_site_aniso_U_13
_atom_site_aniso_U_12
Cd1 0.0208(3) 0.0336(3) 0.0328(3) 0.00268(14) 0.00284(17) -0.00062(16)
N1 0.022(3) 0.028(3) 0.040(2) -0.0020(18) 0.0034(19) 0.004(2)
N2 0.019(3) 0.031(3) 0.041(2) 0.003(2) 0.0041(18) -0.003(2)
N3 0.023(3) 0.045(3) 0.042(3) 0.000(2) -0.003(2) 0.003(2)
N4 0.025(3) 0.021(2) 0.033(2) 0.0003(17) 0.0026(18) -0.002(2)
N5 0.044(4) 0.059(4) 0.067(4) 0.013(3) 0.001(3) 0.004(3)
N6 0.079(6) 0.049(4) 0.108(6) 0.007(4) -0.046(5) -0.003(4)
O1 0.077(4) 0.039(3) 0.032(2) -0.0016(18) -0.006(2) -0.007(2)
O2 0.038(3) 0.026(2) 0.050(2) -0.0009(17) 0.0051(18) -0.0058(19)
O3 0.033(3) 0.042(3) 0.064(3) 0.006(2) 0.002(2) 0.005(2)
O4 0.047(4) 0.184(9) 0.133(6) 0.072(6) 0.001(4) 0.033(5)
O5 0.108(6) 0.132(7) 0.096(5) 0.037(5) -0.022(4) 0.017(5)
S1 0.0319(8) 0.0251(8) 0.0315(7) -0.0009(5) 0.0025(5) 0.0043(6)
S2 0.0300(8) 0.0234(7) 0.0316(6) -0.0001(5) 0.0002(5) -0.0006(6)
C1 0.025(3) 0.026(3) 0.045(3) -0.002(2) 0.008(2) 0.001(3)
C2 0.038(4) 0.027(3) 0.053(3) 0.001(2) 0.006(3) -0.002(3)
C3 0.021(3) 0.031(4) 0.066(4) 0.006(3) 0.009(3) 0.004(3)
C4 0.024(3) 0.032(3) 0.047(3) -0.009(2) 0.004(2) -0.001(3)
C5 0.029(3) 0.025(3) 0.036(3) 0.002(2) 0.000(2) -0.006(2)
C6 0.034(4) 0.028(3) 0.032(3) -0.001(2) 0.001(2) -0.004(3)
C7 0.032(4) 0.043(4) 0.047(3) -0.004(3) 0.007(3) 0.004(3)
C8 0.061(5) 0.053(5) 0.047(4) -0.005(3) 0.024(3) 0.003(4)
C9 0.071(6) 0.057(5) 0.038(3) 0.002(3) 0.010(3) -0.002(4)
C10 0.063(5) 0.057(5) 0.038(3) 0.008(3) -0.009(3) -0.002(4)
C11 0.034(4) 0.034(3) 0.039(3) 0.001(2) 0.001(2) -0.002(3)
C12 0.049(5) 0.105(8) 0.076(5) 0.032(5) 0.002(4) 0.017(5)
C13 0.087(7) 0.098(8) 0.097(7) -0.006(6) 0.031(6) 0.003(7)
C14 0.068(6) 0.070(6) 0.076(5) 0.011(4) -0.013(4) 0.023(5)
C15 0.103(9) 0.084(8) 0.131(10) 0.015(7) -0.026(8) -0.023(7)
C16 0.146(15) 0.089(11) 0.35(3) -0.070(13) 0.095(18) -0.021(10)
C17 0.29(2) 0.086(9) 0.222(18) 0.062(10) -0.194(18) -0.080(12)

_geom_special_details            
;
All esds (except the esd in the dihedral angle between two l.s. planes)
are estimated using the full covariance matrix. The cell esds are taken
into account individually in the estimation of esds in distances, angles
and torsion angles; correlations between esds in cell parameters are only
used when they are defined by crystal symmetry. An approximate (isotropic)
treatment of cell esds is used for estimating esds involving l.s. planes.
;

loop_
_geom_bond_atom_site_label_1
_geom_bond_atom_site_label_2
_geom_bond_distance
_geom_bond_site_symmetry_2
_geom_bond_publ_flag
Cd1 N1 2.228(5) . ?
Cd1 N4 2.241(4) 1_455 ?
Cd1 O2 2.405(4) 1_545 ?
Cd1 S1 2.5245(15) 2_445 ?
Cd1 S1 2.8292(15) . ?
N1 C1 1.314(7) . ?
N1 C2 1.383(8) . ?
N2 C1 1.340(7) . ?
N2 C3 1.364(9) . ?
N2 C4 1.478(7) . ?
N3 C5 1.341(7) . ?
N3 C11 1.390(8) . ?
N3 H3B 0.8600 . ?
N4 C5 1.317(7) . ?
N4 C6 1.400(7) . ?
N4 Cd1 2.241(4) 1_655 ?
N5 C12 1.303(10) . ?
N5 C13 1.445(11) . ?
N5 C14 1.462(10) . ?
N6 C15 1.266(13) . ?
N6 C17 1.386(14) . ?
N6 C16 1.498(18) . ?
O1 S2 1.440(4) . ?
O2 S2 1.458(4) . ?
O2 Cd1 2.405(4) 1_565 ?
O3 S2 1.451(5) . ?
O4 C12 1.213(9) . ?
O5 C15 1.210(12) . ?
S1 S2 2.0921(19) . ?
S1 Cd1 2.5245(15) 2_455 ?
C1 H1A 0.9300 . ?
C2 C3 1.352(8) . ?
C2 H2A 0.9300 . ?
C3 H3A 0.9300 . ?
C4 C5 1.498(8) . ?
C4 H4A 0.9700 . ?
C4 H4B 0.9700 . ?
C6 C7 1.383(9) . ?
C6 C11 1.399(8) . ?
C7 C8 1.381(9) . ?
C7 H7A 0.9300 . ?
C8 C9 1.391(10) . ?
C8 H8A 0.9300 . ?
C9 C10 1.365(11) . ?
C9 H9A 0.9300 . ?
C10 C11 1.387(9) . ?
C10 H10A 0.9300 . ?
C12 H12 0.9300 . ?
C13 H13A 0.9600 . ?
C13 H13B 0.9600 . ?
C13 H13C 0.9600 . ?
C14 H14A 0.9600 . ?
C14 H14B 0.9600 . ?
C14 H14C 0.9600 . ?
C15 H15 0.9300 . ?
C16 H16A 0.9600 . ?
C16 H16B 0.9600 . ?
C16 H16C 0.9600 . ?
C17 H17A 0.9600 . ?
C17 H17B 0.9600 . ?
C17 H17C 0.9600 . ?

loop_
_geom_angle_atom_site_label_1
_geom_angle_atom_site_label_2
_geom_angle_atom_site_label_3
_geom_angle
_geom_angle_site_symmetry_1
_geom_angle_site_symmetry_3
_geom_angle_publ_flag
N1 Cd1 N4 121.06(16) . 1_455 ?
N1 Cd1 O2 80.25(15) . 1_545 ?
N4 Cd1 O2 84.62(15) 1_455 1_545 ?
N1 Cd1 S1 124.47(12) . 2_445 ?
N4 Cd1 S1 112.41(12) 1_455 2_445 ?
O2 Cd1 S1 91.27(10) 1_545 2_445 ?
N1 Cd1 S1 89.73(12) . . ?
N4 Cd1 S1 90.39(12) 1_455 . ?
O2 Cd1 S1 164.34(10) 1_545 . ?
S1 Cd1 S1 104.35(3) 2_445 . ?
C1 N1 C2 105.2(5) . . ?
C1 N1 Cd1 128.2(4) . . ?
C2 N1 Cd1 126.4(4) . . ?
C1 N2 C3 107.7(5) . . ?
C1 N2 C4 126.5(5) . . ?
C3 N2 C4 125.8(5) . . ?
C5 N3 C11 107.3(5) . . ?
C5 N3 H3B 126.3 . . ?
C11 N3 H3B 126.3 . . ?
C5 N4 C6 105.3(4) . . ?
C5 N4 Cd1 127.9(3) . 1_655 ?
C6 N4 Cd1 126.4(4) . 1_655 ?
C12 N5 C13 121.6(8) . . ?
C12 N5 C14 120.0(8) . . ?
C13 N5 C14 118.4(7) . . ?
C15 N6 C17 128.5(14) . . ?
C15 N6 C16 116.6(12) . . ?
C17 N6 C16 114.6(14) . . ?
S2 O2 Cd1 131.4(2) . 1_565 ?
S2 S1 Cd1 96.10(7) . 2_455 ?
S2 S1 Cd1 115.72(6) . . ?
Cd1 S1 Cd1 117.83(5) 2_455 . ?
O1 S2 O3 114.4(3) . . ?
O1 S2 O2 112.0(3) . . ?
O3 S2 O2 112.3(3) . . ?
O1 S2 S1 107.1(2) . . ?
O3 S2 S1 105.70(19) . . ?
O2 S2 S1 104.53(18) . . ?
N1 C1 N2 111.4(5) . . ?
N1 C1 H1A 124.3 . . ?
N2 C1 H1A 124.3 . . ?
C3 C2 N1 109.7(5) . . ?
C3 C2 H2A 125.1 . . ?
N1 C2 H2A 125.1 . . ?
C2 C3 N2 105.9(5) . . ?
C2 C3 H3A 127.1 . . ?
N2 C3 H3A 127.1 . . ?
N2 C4 C5 111.4(5) . . ?
N2 C4 H4A 109.3 . . ?
C5 C4 H4A 109.3 . . ?
N2 C4 H4B 109.3 . . ?
C5 C4 H4B 109.3 . . ?
H4A C4 H4B 108.0 . . ?
N4 C5 N3 113.2(5) . . ?
N4 C5 C4 124.1(5) . . ?
N3 C5 C4 122.7(5) . . ?
C7 C6 C11 120.7(5) . . ?
C7 C6 N4 130.4(5) . . ?
C11 C6 N4 108.9(5) . . ?
C8 C7 C6 117.8(6) . . ?
C8 C7 H7A 121.1 . . ?
C6 C7 H7A 121.1 . . ?
C7 C8 C9 120.6(7) . . ?
C7 C8 H8A 119.7 . . ?
C9 C8 H8A 119.7 . . ?
C10 C9 C8 122.5(6) . . ?
C10 C9 H9A 118.7 . . ?
C8 C9 H9A 118.7 . . ?
C9 C10 C11 117.0(6) . . ?
C9 C10 H10A 121.5 . . ?
C11 C10 H10A 121.5 . . ?
C10 C11 N3 133.3(6) . . ?
C10 C11 C6 121.3(6) . . ?
N3 C11 C6 105.3(5) . . ?
O4 C12 N5 125.8(10) . . ?
O4 C12 H12 117.1 . . ?
N5 C12 H12 117.1 . . ?
N5 C13 H13A 109.5 . . ?
N5 C13 H13B 109.5 . . ?
H13A C13 H13B 109.5 . . ?
N5 C13 H13C 109.5 . . ?
H13A C13 H13C 109.5 . . ?
H13B C13 H13C 109.5 . . ?
N5 C14 H14A 109.5 . . ?
N5 C14 H14B 109.5 . . ?
H14A C14 H14B 109.5 . . ?
N5 C14 H14C 109.5 . . ?
H14A C14 H14C 109.5 . . ?
H14B C14 H14C 109.5 . . ?
O5 C15 N6 129.0(14) . . ?
O5 C15 H15 115.5 . . ?
N6 C15 H15 115.5 . . ?
N6 C16 H16A 109.5 . . ?
N6 C16 H16B 109.5 . . ?
H16A C16 H16B 109.5 . . ?
N6 C16 H16C 109.5 . . ?
H16A C16 H16C 109.5 . . ?
H16B C16 H16C 109.5 . . ?
N6 C17 H17A 109.5 . . ?
N6 C17 H17B 109.5 . . ?
H17A C17 H17B 109.5 . . ?
N6 C17 H17C 109.5 . . ?
H17A C17 H17C 109.5 . . ?
H17B C17 H17C 109.5 . . ?

loop_
_geom_torsion_atom_site_label_1
_geom_torsion_atom_site_label_2
_geom_torsion_atom_site_label_3
_geom_torsion_atom_site_label_4
_geom_torsion
_geom_torsion_site_symmetry_1
_geom_torsion_site_symmetry_2
_geom_torsion_site_symmetry_3
_geom_torsion_site_symmetry_4
_geom_torsion_publ_flag
N4 Cd1 N1 C1 78.9(5) 1_455 . . . ?
O2 Cd1 N1 C1 156.5(5) 1_545 . . . ?
S1 Cd1 N1 C1 -118.7(4) 2_445 . . . ?
S1 Cd1 N1 C1 -11.4(5) . . . . ?
N4 Cd1 N1 C2 -106.6(5) 1_455 . . . ?
O2 Cd1 N1 C2 -29.0(4) 1_545 . . . ?
S1 Cd1 N1 C2 55.8(5) 2_445 . . . ?
S1 Cd1 N1 C2 163.1(4) . . . . ?
N1 Cd1 S1 S2 114.32(14) . . . . ?
N4 Cd1 S1 S2 -6.73(13) 1_455 . . . ?
O2 Cd1 S1 S2 64.4(4) 1_545 . . . ?
S1 Cd1 S1 S2 -120.01(9) 2_445 . . . ?
N1 Cd1 S1 Cd1 -132.87(12) . . . 2_455 ?
N4 Cd1 S1 Cd1 106.07(13) 1_455 . . 2_455 ?
O2 Cd1 S1 Cd1 177.2(4) 1_545 . . 2_455 ?
S1 Cd1 S1 Cd1 -7.21(3) 2_445 . . 2_455 ?
Cd1 O2 S2 O1 142.7(3) 1_565 . . . ?
Cd1 O2 S2 O3 12.4(4) 1_565 . . . ?
Cd1 O2 S2 S1 -101.7(3) 1_565 . . . ?
Cd1 S1 S2 O1 -150.1(2) 2_455 . . . ?
Cd1 S1 S2 O1 -25.2(2) . . . . ?
Cd1 S1 S2 O3 -27.8(2) 2_455 . . . ?
Cd1 S1 S2 O3 97.1(2) . . . . ?
Cd1 S1 S2 O2 90.89(18) 2_455 . . . ?
Cd1 S1 S2 O2 -144.18(18) . . . . ?
C2 N1 C1 N2 -0.5(6) . . . . ?
Cd1 N1 C1 N2 174.9(3) . . . . ?
C3 N2 C1 N1 0.3(7) . . . . ?
C4 N2 C1 N1 177.9(5) . . . . ?
C1 N1 C2 C3 0.4(6) . . . . ?
Cd1 N1 C2 C3 -175.0(4) . . . . ?
N1 C2 C3 N2 -0.2(7) 