####################################################################### 
# 
# This file contains crystal structure data downloaded from the 
# Cambridge Structural Database (CSD) hosted by the Cambridge 
# Crystallographic Data Centre (CCDC).
# 
# Full information about CCDC data access policies and citation 
# guidelines are available at http://www.ccdc.cam.ac.uk/access/V1 
# 
# Audit and citation data items may have been added by the CCDC. 
# Please retain this information to preserve the provenance of 
# this file and to allow appropriate attribution of the data. 
# 
#######################################################################

data_RuPhTPTcoronene
_audit_block_doi                 10.5517/ccygp68
_database_code_depnum_ccdc_archive 'CCDC 878050'
loop_
_citation_id
_citation_doi
_citation_year
1 10.1039/c2ce25806d 2012
_audit_update_record             
;
2012-04-23 deposited with the CCDC.	2024-07-13 downloaded from the CCDC.
;
#TrackingRef '- cif_Ru-1_miyasaka.cif'


#==============================================================================
# CHEMICAL DATA

_chemical_formula_sum            'C144 H96 N12 O24 Ru6'
_chemical_formula_moiety         'C144 H96 N12 O24 Ru6'
_chemical_formula_weight         2984.83
_chemical_melting_point          ?

#==============================================================================
# CRYSTAL DATA
_symmetry_cell_setting           monoclinic
_symmetry_space_group_name_H-M   'C 1 2/m 1'
_symmetry_space_group_name_Hall  '-C 2y'
_symmetry_Int_Tables_number      12
loop_
_symmetry_equiv_pos_site_id
_symmetry_equiv_pos_as_xyz
1 +X,+Y,+Z
2 -X,+Y,-Z
3 -X,-Y,-Z
4 +X,-Y,+Z
5 1/2+X,1/2+Y,+Z
6 1/2-X,1/2+Y,-Z
7 1/2-X,1/2-Y,-Z
8 1/2+X,1/2-Y,+Z
#------------------------------------------------------------------------------
_cell_length_a                   19.686(3)
_cell_length_b                   28.643(4)
_cell_length_c                   19.816(3)
_cell_angle_alpha                90.0000
_cell_angle_beta                 112.198(3)
_cell_angle_gamma                90.0000
_cell_volume                     10345(3)
_cell_formula_units_Z            2
_cell_measurement_reflns_used    7788
_cell_measurement_theta_min      2.09
_cell_measurement_theta_max      30.80
_cell_measurement_temperature    97
#------------------------------------------------------------------------------
_exptl_crystal_description       prism
_exptl_crystal_colour            black
_exptl_crystal_size_max          0.060
_exptl_crystal_size_mid          0.060
_exptl_crystal_size_min          0.010
_exptl_crystal_density_diffrn    0.958
_exptl_crystal_density_meas      ?
_exptl_crystal_density_method    'not measured'
_exptl_crystal_F_000             3000.00
_exptl_absorpt_coefficient_mu    0.475
_exptl_absorpt_correction_type   multi-scan
_exptl_absorpt_process_details   'REQAB (Rigaku, 1998)'
_exptl_absorpt_correction_T_min  0.918
_exptl_absorpt_correction_T_max  0.995

#==============================================================================
# EXPERIMENTAL DATA

_diffrn_ambient_temperature      97
_diffrn_radiation_type           'Mo K\a'
_diffrn_radiation_wavelength     0.71075
_diffrn_measurement_device_type  'Rigaku Saturn70'
_diffrn_measurement_method       \w
_diffrn_detector_area_resol_mean 7.314
_diffrn_reflns_number            35790
_diffrn_reflns_av_R_equivalents  0.0879
_diffrn_reflns_theta_max         25.00
_diffrn_reflns_theta_full        25.00
_diffrn_measured_fraction_theta_max 0.999
_diffrn_measured_fraction_theta_full 0.999
_diffrn_reflns_limit_h_min       -23
_diffrn_reflns_limit_h_max       20
_diffrn_reflns_limit_k_min       -28
_diffrn_reflns_limit_k_max       34
_diffrn_reflns_limit_l_min       -23
_diffrn_reflns_limit_l_max       23
_diffrn_standards_number         0
_diffrn_standards_interval_count .
_diffrn_standards_decay_%        ?

#==============================================================================
# REFINEMENT DATA

_refine_special_details          
;
Refinement was performed using all reflections. The weighted
R-factor (wR) and goodness of fit (S) are based on F^2^.
R-factor (gt) are based on F. The threshold expression of
F^2^ > 2.0 sigma(F^2^) is used only for calculating R-factor (gt).
;
_reflns_number_total             9315
_reflns_number_gt                5164
_reflns_threshold_expression     F^2^>2.0\s(F^2^)
_refine_ls_structure_factor_coef Fsqd
_refine_ls_R_factor_gt           0.0593
_refine_ls_wR_factor_ref         0.1501
_refine_ls_number_restraints     57
_refine_ls_hydrogen_treatment    constr
_refine_ls_number_reflns         9271
_refine_ls_number_parameters     445
_refine_ls_goodness_of_fit_ref   0.872
_refine_ls_weighting_scheme      calc
_refine_ls_weighting_details     
'w = 1/[\s^2^(Fo^2^)+(0.0708P)^2^+0.0000P] where P=(Fo^2^+2Fc^2^)/3'
_atom_sites_solution_hydrogens   geom
_atom_sites_solution_primary     direct
_atom_sites_solution_secondary   difmap
_refine_ls_shift/su_max          0.000
_refine_diff_density_max         0.690
_refine_diff_density_min         -0.730
_refine_ls_extinction_method     none
_refine_ls_extinction_coef       ?

loop_
_atom_type_symbol
_atom_type_description
_atom_type_scat_dispersion_real
_atom_type_scat_dispersion_imag
_atom_type_scat_source
C C 0.0033 0.0016
;
International Tables for Crystallography
(1992, Vol. C, Tables 4.2.6.8 and 6.1.1.4)
;
H H 0.0000 0.0000
;
International Tables for Crystallography
(1992, Vol. C, Table 6.1.1.4)
;
N N 0.0061 0.0033
;
International Tables for Crystallography
(1992, Vol. C, Tables 4.2.6.8 and 6.1.1.4)
;
O O 0.0106 0.0060
;
International Tables for Crystallography
(1992, Vol. C, Tables 4.2.6.8 and 6.1.1.4)
;
Ru Ru -1.2594 0.8363
;
International Tables for Crystallography
(1992, Vol. C, Tables 4.2.6.8 and 6.1.1.4)
;

#==============================================================================
# ATOMIC COORDINATES AND THERMAL PARAMETERS

loop_
_atom_site_label
_atom_site_type_symbol
_atom_site_fract_x
_atom_site_fract_y
_atom_site_fract_z
_atom_site_U_iso_or_equiv
_atom_site_adp_type
_atom_site_occupancy
_atom_site_symmetry_multiplicity
_atom_site_calc_flag
_atom_site_refinement_flags
_atom_site_disorder_assembly
_atom_site_disorder_group
Ru1 Ru -0.20780(2) 0.278752(13) 0.02472(3) 0.03442(16) Uani 1.0 8 d . . .
Ru2 Ru 0.44043(3) 0.5000 0.46012(4) 0.0382(2) Uani 1.0 4 d . . .
O1 O -0.27751(19) 0.30655(11) 0.0697(2) 0.0397(10) Uani 1.0 8 d . . .
O2 O -0.35979(18) 0.24997(12) 0.0225(2) 0.0407(10) Uani 1.0 8 d . . .
O3 O -0.15954(19) 0.23782(11) 0.11548(19) 0.0388(10) Uani 1.0 8 d . . .
O4 O -0.24181(19) 0.18113(11) 0.0670(2) 0.0409(10) Uani 1.0 8 d . . .
O5 O 0.4763(3) 0.5000 0.3743(3) 0.0424(14) Uani 1.0 4 d . . .
O6 O 0.5944(3) 0.5000 0.4545(3) 0.0474(15) Uani 1.0 4 d . . .
O7 O 0.4416(2) 0.42803(12) 0.4626(2) 0.0482(11) Uani 1.0 8 d . . .
N1 N -0.1299(2) 0.33812(13) 0.0836(3) 0.0337(11) Uani 1.0 8 d . . .
N2 N -0.0459(3) 0.5000 0.1492(3) 0.0373(17) Uani 1.0 4 d . . .
N3 N 0.0609(3) 0.45806(14) 0.2215(3) 0.0399(12) Uani 1.0 8 d . . .
N4 N 0.3195(3) 0.5000 0.3790(4) 0.0455(19) Uani 1.0 4 d . . .
C1 C -0.3376(3) 0.28719(17) 0.0592(4) 0.0403(15) Uani 1.0 8 d . . .
C2 C -0.3850(4) 0.30757(19) 0.0954(4) 0.0522(17) Uani 1.0 8 d . . .
C3 C -0.3611(5) 0.3482(3) 0.1370(5) 0.092(3) Uani 1.0 8 d . . .
C4 C -0.4029(6) 0.3686(3) 0.1711(6) 0.122(4) Uani 1.0 8 d . . .
C5 C -0.4700(5) 0.3477(3) 0.1645(6) 0.108(4) Uani 1.0 8 d . . .
C6 C -0.4935(4) 0.3069(3) 0.1254(5) 0.071(3) Uani 1.0 8 d . . .
C7 C -0.4489(4) 0.2872(2) 0.0930(4) 0.0589(19) Uani 1.0 8 d . . .
C8 C -0.1848(3) 0.19744(17) 0.1175(3) 0.0380(14) Uani 1.0 8 d . . .
C9 C -0.1455(3) 0.16807(18) 0.1820(4) 0.0446(15) Uani 1.0 8 d . . .
C10 C -0.0953(4) 0.1883(3) 0.2440(4) 0.065(2) Uani 1.0 8 d . . .
C11 C -0.0566(5) 0.1607(3) 0.3036(4) 0.086(3) Uani 1.0 8 d . . .
C12 C -0.0691(5) 0.1134(3) 0.3009(5) 0.091(3) Uani 1.0 8 d . . .
C13 C -0.1207(4) 0.0929(3) 0.2389(5) 0.080(3) Uani 1.0 8 d . . .
C14 C -0.1599(3) 0.1203(2) 0.1799(4) 0.0553(18) Uani 1.0 8 d . . .
C15 C -0.1589(3) 0.38050(16) 0.0637(4) 0.0430(16) Uani 1.0 8 d . . .
C16 C -0.1213(3) 0.42027(17) 0.0936(4) 0.0475(17) Uani 1.0 8 d . . .
C17 C -0.0496(3) 0.41667(16) 0.1459(3) 0.0341(14) Uani 1.0 8 d . . .
C18 C -0.0221(3) 0.37349(18) 0.1655(4) 0.0456(16) Uani 1.0 8 d . . .
C19 C -0.0628(3) 0.33537(17) 0.1342(3) 0.0419(15) Uani 1.0 8 d . . .
C20 C -0.0089(3) 0.46037(16) 0.1742(3) 0.0364(14) Uani 1.0 8 d . . .
C21 C 0.0932(4) 0.5000 0.2442(4) 0.037(2) Uani 1.0 4 d . . .
C22 C 0.1708(4) 0.5000 0.2910(4) 0.041(2) Uani 1.0 4 d . . .
C23 C 0.2090(3) 0.54115(17) 0.3132(4) 0.0504(18) Uani 1.0 8 d . . .
C24 C 0.2830(3) 0.53999(17) 0.3586(4) 0.0508(18) Uani 1.0 8 d . . .
C25 C 0.5453(6) 0.5000 0.3915(6) 0.058(3) Uani 1.0 4 d . . .
C26 C 0.5690(7) 0.5000 0.3269(7) 0.084(3) Uani 1.0 4 d . . .
C27 C 0.5293(8) 0.5000 0.2596(8) 0.115(4) Uani 1.0 4 d . . .
C28 C 0.5567(9) 0.5000 0.2049(8) 0.130(4) Uani 1.0 4 d . . .
C29 C 0.6211(10) 0.5000 0.2155(9) 0.140(4) Uani 1.0 4 d . . .
C30 C 0.6726(9) 0.5000 0.2860(9) 0.152(4) Uani 1.0 4 d . . .
C31 C 0.6421(9) 0.5000 0.3408(9) 0.141(4) Uani 1.0 4 d . . .
C32 C 0.5000 0.4072(3) 0.5000 0.045(3) Uani 1.0 4 d . . .
C33 C 0.5000 0.3554(3) 0.5000 0.057(3) Uani 1.0 4 d . . .
C34 C 0.5658(4) 0.3313(3) 0.5243(5) 0.085(3) Uani 1.0 8 d . . .
C35 C 0.5647(6) 0.2813(3) 0.5234(7) 0.139(5) Uani 1.0 8 d . . .
C36 C 0.5000 0.2579(4) 0.5000 0.136(7) Uani 1.0 4 d . . .
C37 C 0.0349(3) 0.37258(18) 0.0254(4) 0.0492(17) Uani 1.0 8 d . . .
C38 C 0.0732(3) 0.41407(18) 0.0527(4) 0.0420(15) Uani 1.0 8 d . . .
C39 C 0.1468(3) 0.41532(19) 0.1041(4) 0.0487(17) Uani 1.0 8 d . . .
C40 C 0.1808(3) 0.4565(2) 0.1269(4) 0.0504(17) Uani 1.0 8 d . . .
C41 C 0.1460(4) 0.5000 0.1020(5) 0.041(2) Uani 1.0 4 d . . .
C42 C 0.0741(4) 0.5000 0.0498(4) 0.039(2) Uani 1.0 4 d . . .
C43 C 0.0371(3) 0.45711(16) 0.0259(3) 0.0392(15) Uani 1.0 8 d . . .
H3 H -0.3156 0.3619 0.1418 0.1104 Uiso 1.0 8 calc R . .
H4 H -0.3868 0.3965 0.1986 0.1462 Uiso 1.0 8 calc R . .
H5 H -0.4995 0.3619 0.1873 0.1299 Uiso 1.0 8 calc R . .
H6 H -0.5387 0.2927 0.1209 0.0853 Uiso 1.0 8 calc R . .
H7 H -0.4633 0.2584 0.0679 0.0706 Uiso 1.0 8 calc R . .
H10 H -0.0872 0.2210 0.2459 0.0778 Uiso 1.0 8 calc R . .
H11 H -0.0216 0.1744 0.3462 0.1033 Uiso 1.0 8 calc R . .
H12 H -0.0423 0.0944 0.3416 0.1088 Uiso 1.0 8 calc R . .
H13 H -0.1289 0.0602 0.2373 0.0954 Uiso 1.0 8 calc R . .
H14 H -0.1964 0.1068 0.1381 0.0664 Uiso 1.0 8 calc R . .
H15 H -0.2071 0.3830 0.0277 0.0516 Uiso 1.0 8 calc R . .
H16 H -0.1434 0.4500 0.0792 0.0570 Uiso 1.0 8 calc R . .
H18 H 0.0260 0.3697 0.2013 0.0547 Uiso 1.0 8 calc R . .
H19 H -0.0423 0.3053 0.1492 0.0503 Uiso 1.0 8 calc R . .
H23 H 0.1850 0.5702 0.2977 0.0605 Uiso 1.0 8 calc R . .
H24 H 0.3081 0.5686 0.3755 0.0610 Uiso 1.0 8 calc R . .
H27 H 0.4775 0.5000 0.2459 0.1379 Uiso 1.0 4 calc R . .
H28 H 0.5227 0.5000 0.1558 0.1560 Uiso 1.0 4 calc R . .
H29 H 0.6365 0.5000 0.1755 0.1675 Uiso 1.0 4 calc R . .
H30 H 0.7239 0.5000 0.2970 0.1829 Uiso 1.0 4 calc R . .
H31 H 0.6751 0.5000 0.3903 0.1688 Uiso 1.0 4 calc R . .
H34 H 0.6111 0.3477 0.5412 0.1018 Uiso 1.0 8 calc R . .
H35 H 0.6096 0.2645 0.5394 0.1669 Uiso 1.0 8 calc R . .
H36 H 0.5000 0.2247 0.5000 0.1631 Uiso 1.0 4 calc R . .
H37 H 0.0584 0.3436 0.0430 0.0590 Uiso 1.0 8 calc R . .
H39 H 0.1721 0.3870 0.1225 0.0585 Uiso 1.0 8 calc R . .
H40 H 0.2300 0.4564 0.1611 0.0604 Uiso 1.0 8 calc R . .


loop_
_atom_site_aniso_label
_atom_site_aniso_U_11
_atom_site_aniso_U_22
_atom_site_aniso_U_33
_atom_site_aniso_U_12
_atom_site_aniso_U_13
_atom_site_aniso_U_23
Ru1 0.0279(3) 0.0265(3) 0.0438(3) -0.00493(18) 0.0078(2) 0.0006(2)
Ru2 0.0282(4) 0.0404(4) 0.0346(4) 0.0000 -0.0011(3) 0.0000
O1 0.035(3) 0.030(2) 0.054(3) -0.0069(17) 0.016(2) -0.0028(18)
O2 0.031(2) 0.044(3) 0.044(3) -0.0035(18) 0.0106(19) -0.0002(19)
O3 0.040(3) 0.034(2) 0.041(3) -0.0066(17) 0.0143(19) 0.0027(17)
O4 0.035(2) 0.030(2) 0.049(3) -0.0071(17) 0.006(2) 0.0057(18)
O5 0.049(4) 0.041(3) 0.027(3) 0.0000 0.003(3) 0.0000
O6 0.036(4) 0.059(4) 0.043(4) 0.0000 0.010(3) 0.0000
O7 0.040(3) 0.046(3) 0.046(3) 0.004(2) 0.002(2) 0.002(2)
N1 0.022(3) 0.025(3) 0.041(3) -0.0077(19) -0.003(2) 0.005(2)
N2 0.024(4) 0.023(4) 0.051(5) 0.0000 -0.002(3) 0.0000
N3 0.026(3) 0.033(3) 0.053(4) -0.002(2) 0.006(3) 0.002(3)
N4 0.027(4) 0.046(4) 0.044(5) 0.0000 -0.008(4) 0.0000
C1 0.038(4) 0.027(3) 0.053(4) -0.007(3) 0.014(3) 0.001(3)
C2 0.051(4) 0.038(4) 0.071(5) 0.001(3) 0.027(4) -0.007(3)
C3 0.083(6) 0.055(5) 0.173(10) -0.020(4) 0.089(7) -0.032(5)
C4 0.123(8) 0.089(6) 0.202(12) -0.031(6) 0.116(9) -0.081(7)
C5 0.089(7) 0.081(6) 0.182(11) 0.003(5) 0.083(7) -0.028(7)
C6 0.057(5) 0.061(5) 0.110(7) -0.009(4) 0.048(5) -0.031(5)
C7 0.036(4) 0.055(4) 0.080(6) -0.003(3) 0.015(4) -0.022(4)
C8 0.044(4) 0.028(3) 0.040(4) 0.003(3) 0.013(3) 0.002(3)
C9 0.042(4) 0.038(4) 0.047(4) 0.001(3) 0.010(3) 0.008(3)
C10 0.072(5) 0.056(4) 0.048(5) -0.008(4) 0.001(4) 0.007(4)
C11 0.108(7) 0.076(6) 0.045(5) -0.020(5) -0.005(5) 0.018(4)
C12 0.110(7) 0.077(6) 0.062(6) -0.004(5) 0.006(5) 0.041(5)
C13 0.077(6) 0.048(4) 0.096(7) -0.006(4) 0.012(5) 0.041(5)
C14 0.039(4) 0.049(4) 0.065(5) -0.009(3) 0.004(4) 0.017(4)
C15 0.034(4) 0.025(3) 0.062(5) -0.009(3) 0.010(3) -0.003(3)
C16 0.041(4) 0.025(3) 0.061(5) -0.005(3) 0.002(3) 0.010(3)
C17 0.028(3) 0.025(3) 0.042(4) 0.003(3) 0.004(3) 0.000(3)
C18 0.032(4) 0.036(4) 0.055(4) -0.003(3) 0.002(3) 0.001(3)
C19 0.042(4) 0.028(3) 0.046(4) 0.009(3) 0.005(3) 0.006(3)
C20 0.026(3) 0.027(3) 0.050(4) -0.004(3) 0.008(3) 0.001(3)
C21 0.035(5) 0.025(4) 0.044(5) 0.0000 0.006(4) 0.0000
C22 0.040(5) 0.033(5) 0.037(5) 0.0000 -0.001(4) 0.0000
C23 0.043(4) 0.028(3) 0.058(5) -0.002(3) -0.005(4) 0.003(3)
C24 0.036(4) 0.027(3) 0.064(5) 0.004(3) -0.011(4) 0.001(3)
C25 0.080(7) 0.047(5) 0.058(6) 0.0000 0.038(6) 0.0000
C26 0.098(6) 0.100(6) 0.070(5) 0.0000 0.049(5) 0.0000
C27 0.124(7) 0.161(8) 0.076(6) 0.0000 0.055(6) 0.0000
C28 0.139(8) 0.187(8) 0.084(6) 0.0000 0.063(7) 0.0000
C29 0.140(9) 0.207(9) 0.096(7) 0.0000 0.073(7) 0.0000
C30 0.128(8) 0.253(9) 0.105(8) 0.0000 0.075(6) 0.0000
C31 0.114(7) 0.234(8) 0.096(7) 0.0000 0.064(6) 0.0000
C32 0.042(5) 0.041(5) 0.030(5) 0.0000 -0.009(4) 0.0000
C33 0.075(7) 0.036(5) 0.050(6) 0.0000 0.011(6) 0.0000
C34 0.064(5) 0.056(5) 0.111(7) 0.011(4) 0.006(5) -0.017(5)
C35 0.105(8) 0.051(6) 0.213(13) 0.036(5) 0.005(8) 0.006(7)
C36 0.104(11) 0.044(7) 0.201(17) 0.0000 -0.009(11) 0.0000
C37 0.052(4) 0.032(4) 0.065(5) 0.008(3) 0.024(4) 0.005(3)
C38 0.038(4) 0.036(4) 0.053(4) -0.001(3) 0.018(3) 0.004(3)
C39 0.042(4) 0.040(4) 0.056(5) 0.011(3) 0.009(4) 0.009(3)
C40 0.031(4) 0.056(4) 0.055(5) 0.006(3) 0.006(3) 0.004(3)
C41 0.032(5) 0.033(5) 0.061(6) 0.0000 0.021(5) 0.0000
C42 0.029(5) 0.034(5) 0.055(6) 0.0000 0.015(4) 0.0000
C43 0.040(4) 0.024(3) 0.055(4) 0.009(3) 0.020(3) 0.005(3)

#==============================================================================
_computing_data_collection       'CrystalClear (Rigaku Inc., 2008)'
_computing_cell_refinement       CrystalClear
_computing_data_reduction        CrystalClear
_computing_structure_solution    'SHELXS97 (Sheldrick, 2008)'
_computing_structure_refinement  'SHELXL97 (Sheldrick, 2008)'
_computing_publication_material  'CrystalStructure 4.0 (Rigaku, 2010)'
_computing_molecular_graphics    'CrystalStructure 4.0'

#==============================================================================
# MOLECULAR GEOMETRY

_geom_special_details            
;
ENTER SPECIAL DETAILS OF THE MOLECULAR GEOMETRY
;

loop_
_geom_bond_atom_site_label_1
_geom_bond_atom_site_label_2
_geom_bond_distance
_geom_bond_publ_flag
_geom_bond_site_symmetry_1
_geom_bond_site_symmetry_2
Ru1 Ru1 2.2811(6) yes . 7_455
Ru1 O1 2.058(5) yes . .
Ru1 O2 2.065(5) yes . 7_455
Ru1 O3 2.054(4) yes . .
Ru1 O4 2.061(4) yes . 7_455
Ru1 N1 2.292(4) yes . .
Ru2 Ru2 2.2799(8) yes . 2_656
Ru2 O5 2.073(7) yes . .
Ru2 O6 2.052(7) yes . 2_656
Ru2 O7 2.062(4) yes . .
Ru2 O7 2.062(4) yes . 4_565
Ru2 N4 2.315(6) yes . .
O1 C1 1.250(7) yes . .
O2 C1 1.271(6) yes . .
O3 C8 1.266(7) yes . .
O4 C8 1.277(6) yes . .
O5 C25 1.269(13) yes . .
O6 C25 1.257(11) yes . .
O7 C32 1.259(6) yes . .
N1 C15 1.336(6) yes . .
N1 C19 1.325(6) yes . .
N2 C20 1.338(6) yes . .
N2 C20 1.338(6) yes . 4_565
N3 C20 1.341(6) yes . .
N3 C21 1.354(5) yes . .
N4 C24 1.331(6) yes . .
N4 C24 1.331(6) yes . 4_565
C1 C2 1.495(11) yes . .
C2 C3 1.401(10) yes . .
C2 C7 1.370(10) yes . .
C3 C4 1.376(16) yes . .
C4 C5 1.411(15) yes . .
C5 C6 1.381(11) yes . .
C6 C7 1.389(12) yes . .
C8 C9 1.480(8) yes . .
C9 C10 1.381(8) yes . .
C9 C14 1.394(8) yes . .
C10 C11 1.384(9) yes . .
C11 C12 1.375(11) yes . .
C12 C13 1.394(10) yes . .
C13 C14 1.376(9) yes . .
C15 C16 1.366(7) yes . .
C16 C17 1.404(7) yes . .
C17 C18 1.347(7) yes . .
C17 C20 1.478(7) yes . .
C18 C19 1.358(7) yes . .
C21 C22 1.457(10) yes . .
C22 C23 1.378(6) yes . .
C22 C23 1.378(6) yes . 4_565
C23 C24 1.393(8) yes . .
C25 C26 1.52(2) yes . .
C26 C27 1.266(18) yes . .
C26 C31 1.36(3) yes . .
C27 C28 1.38(3) yes . .
C28 C29 1.20(3) yes . .
C29 C30 1.38(2) yes . .
C30 C31 1.43(3) yes . .
C32 C33 1.484(13) yes . .
C33 C34 1.384(9) yes . .
C33 C34 1.384(9) yes . 2_656
C34 C35 1.431(11) yes . .
C35 C36 1.358(12) yes . .
C37 C37 1.364(7) yes . 2_555
C37 C38 1.401(8) yes . .
C38 C39 1.423(7) yes . .
C38 C43 1.422(7) yes . .
C39 C40 1.347(8) yes . .
C40 C41 1.417(7) yes . .
C41 C42 1.403(10) yes . .
C42 C43 1.415(6) yes . .
C42 C43 1.415(6) yes . 4_565
C43 C43 1.433(7) yes . 2_555
C3 H3 0.950 no . .
C4 H4 0.950 no . .
C5 H5 0.950 no . .
C6 H6 0.950 no . .
C7 H7 0.950 no . .
C10 H10 0.950 no . .
C11 H11 0.950 no . .
C12 H12 0.950 no . .
C13 H13 0.950 no . .
C14 H14 0.950 no . .
C15 H15 0.950 no . .
C16 H16 0.950 no . .
C18 H18 0.950 no . .
C19 H19 0.950 no . .
C23 H23 0.950 no . .
C24 H24 0.950 no . .
C27 H27 0.951 no . .
C28 H28 0.950 no . .
C29 H29 0.949 no . .
C30 H30 0.950 no . .
C31 H31 0.950 no . .
C34 H34 0.950 no . .
C35 H35 0.950 no . .
C36 H36 0.950 no . .
C37 H37 0.950 no . .
C39 H39 0.950 no . .
C40 H40 0.950 no . .

loop_
_geom_angle_atom_site_label_1
_geom_angle_atom_site_label_2
_geom_angle_atom_site_label_3
_geom_angle
_geom_angle_publ_flag
_geom_angle_site_symmetry_1
_geom_angle_site_symmetry_2
_geom_angle_site_symmetry_3
Ru1 Ru1 O1 88.21(9) yes 7_455 . .
Ru1 Ru1 O2 90.41(10) yes 7_455 . 7_455
Ru1 Ru1 O3 89.13(9) yes 7_455 . .
Ru1 Ru1 O4 89.66(9) yes 7_455 . 7_455
Ru1 Ru1 N1 173.27(14) yes 7_455 . .
O1 Ru1 O2 178.48(13) yes . . 7_455
O1 Ru1 O3 90.30(16) yes . .