####################################################################### 
# 
# This file contains crystal structure data downloaded from the 
# Cambridge Structural Database (CSD) hosted by the Cambridge 
# Crystallographic Data Centre (CCDC).
# 
# Full information about CCDC data access policies and citation 
# guidelines are available at http://www.ccdc.cam.ac.uk/access/V1 
# 
# Audit and citation data items may have been added by the CCDC. 
# Please retain this information to preserve the provenance of 
# this file and to allow appropriate attribution of the data. 
# 
#######################################################################

data_compound-1
_audit_block_doi                 10.5517/ccy63y5
_database_code_depnum_ccdc_archive 'CCDC 869827'
loop_
_citation_id
_citation_doi
_citation_year
1 10.1039/c2dt30563a 2012
_audit_update_record             
;
2012-03-01 deposited with the CCDC.	2024-07-13 downloaded from the CCDC.
;
#TrackingRef '- compound-revised.cif'


_audit_creation_method           SHELXL-97
_chemical_name_systematic        
;
?
;
_chemical_name_common            ?
_chemical_melting_point          ?
_chemical_formula_moiety         
'5(C6 H8 N), 10(C36 H24 Fe N6), C72 H24 Cl61 O138 Pr20 S12 Sb60, 80(H2 O)'
_chemical_formula_sum            'C462 H464 Cl61 Fe10 N65 O218 Pr20 S12 Sb60'
_chemical_formula_weight         23643.85

loop_
_atom_type_symbol
_atom_type_description
_atom_type_scat_dispersion_real
_atom_type_scat_dispersion_imag
_atom_type_scat_source
C C 0.0033 0.0016 'International Tables Vol C Tables 4.2.6.8 and 6.1.1.4'
H H 0.0000 0.0000 'International Tables Vol C Tables 4.2.6.8 and 6.1.1.4'
N N 0.0061 0.0033 'International Tables Vol C Tables 4.2.6.8 and 6.1.1.4'
O O 0.0106 0.0060 'International Tables Vol C Tables 4.2.6.8 and 6.1.1.4'
S S 0.1246 0.1234 'International Tables Vol C Tables 4.2.6.8 and 6.1.1.4'
Cl Cl 0.1484 0.1585 'International Tables Vol C Tables 4.2.6.8 and 6.1.1.4'
Fe Fe 0.3463 0.8444 'International Tables Vol C Tables 4.2.6.8 and 6.1.1.4'
Sb Sb -0.5866 1.5461 'International Tables Vol C Tables 4.2.6.8 and 6.1.1.4'
Pr Pr -0.2180 2.8214 'International Tables Vol C Tables 4.2.6.8 and 6.1.1.4'

_symmetry_cell_setting           Tetragonal
_symmetry_space_group_name_H-M   'P 42/n'
_symmetry_space_group_name_Hall  '-P 4bc '

loop_
_symmetry_equiv_pos_as_xyz
'x, y, z'
'-y, x+1/2, z+1/2'
'-x+1/2, -y+1/2, z'
'y+1/2, -x, z+1/2'
'-x, -y, -z'
'y, -x-1/2, -z-1/2'
'x-1/2, y-1/2, -z'
'-y-1/2, x, -z-1/2'

_cell_length_a                   43.6051(6)
_cell_length_b                   43.6051(6)
_cell_length_c                   19.3474(5)
_cell_angle_alpha                90.00
_cell_angle_beta                 90.00
_cell_angle_gamma                90.00
_cell_volume                     36787.2(12)
_cell_formula_units_Z            2
_cell_measurement_temperature    295(2)
_cell_measurement_reflns_used    9787
_cell_measurement_theta_min      2.2986
_cell_measurement_theta_max      29.1542

_exptl_crystal_description       prism
_exptl_crystal_colour            'dark red'
_exptl_crystal_size_max          0.22
_exptl_crystal_size_mid          0.12
_exptl_crystal_size_min          0.08
_exptl_crystal_density_meas      ?
_exptl_crystal_density_diffrn    2.135
_exptl_crystal_density_method    'not measured'
_exptl_crystal_F_000             22328
_exptl_absorpt_coefficient_mu    3.979
_exptl_absorpt_correction_type   multi-scan
_exptl_absorpt_correction_T_min  0.98500
_exptl_absorpt_correction_T_max  1.00000
_exptl_absorpt_process_details   'CrysAlis CCD; Oxford, 2006'

_exptl_special_details           
;
?
;

_diffrn_ambient_temperature      295(2)
_diffrn_radiation_wavelength     0.71073
_diffrn_radiation_type           MoK\a
_diffrn_radiation_source         'fine-focus sealed tube'
_diffrn_radiation_monochromator  graphite
_diffrn_measurement_device_type  'Xcalibur, Eos'
_diffrn_measurement_method       '\w scans'
_diffrn_detector_area_resol_mean 16.2083
_diffrn_standards_number         ?
_diffrn_standards_interval_count ?
_diffrn_standards_interval_time  ?
_diffrn_standards_decay_%        ?
_diffrn_reflns_number            86949
_diffrn_reflns_av_R_equivalents  0.0932
_diffrn_reflns_av_sigmaI/netI    0.1653
_diffrn_reflns_limit_h_min       -39
_diffrn_reflns_limit_h_max       45
_diffrn_reflns_limit_k_min       -36
_diffrn_reflns_limit_k_max       53
_diffrn_reflns_limit_l_min       -23
_diffrn_reflns_limit_l_max       20
_diffrn_reflns_theta_min         2.34
_diffrn_reflns_theta_max         26.00
_reflns_number_total             36081
_reflns_number_gt                18455
_reflns_threshold_expression     >2sigma(I)

_computing_data_collection       'CrysAlis CCD (Oxford Diffraction, 2006)'
_computing_cell_refinement       'CrysAlis CCD (Oxford Diffraction, 2006)'
_computing_data_reduction        'CrysAlis RED (Oxford Diffraction, 2006)'
_computing_structure_solution    'SHELXS-97 (Sheldrick, 1990)'
_computing_structure_refinement  'SHELXL-97 (Sheldrick, 1997)'
_computing_molecular_graphics    'DIAMOND. Version 3.0. Crystal Impact'
_computing_publication_material  'Windows Word 2003'

_refine_special_details          
;
Refinement of F^2^ against ALL reflections. The weighted R-factor wR and
goodness of fit S are based on F^2^, conventional R-factors R are based
on F, with F set to zero for negative F^2^. The threshold expression of
F^2^ > 2sigma(F^2^) is used only for calculating R-factors(gt) etc. and is
not relevant to the choice of reflections for refinement. R-factors based
on F^2^ are statistically about twice as large as those based on F, and R-
factors based on ALL data will be even larger.
Some of the C, O and N atoms in the 1,10-phen, 2-MepyH and TDC ligands were refined with 667 restraints (DFIX, SIMU, DELU and ISOR) to obtain the chemical-reasonable
models and atomic displacement parameters. there still exist a few large isolated residual density peaks (< 2.233 ea^-3^) in the difference Fourier-maps that should
be assigned for the oxygen atoms of highly disordered lattice water molecules.
However, it was difficult to locate all the disordered water molecules according to
the D-F maps. Therefore, finally only one lattice water molecule per asymmetric unit was added and refined. The empirical formula was determined to include 20 water molecules according to the EA and TGA analyses.
;

_refine_ls_structure_factor_coef Fsqd
_refine_ls_matrix_type           full
_refine_ls_weighting_scheme      calc
_refine_ls_weighting_details     
'calc w=1/[\s^2^(Fo^2^)+(0.0500P)^2^+190.0000P] where P=(Fo^2^+2Fc^2^)/3'
_atom_sites_solution_primary     direct
_atom_sites_solution_secondary   difmap
_atom_sites_solution_hydrogens   geom
_refine_ls_hydrogen_treatment    constr
_refine_ls_extinction_method     none
_refine_ls_extinction_coef       ?
_refine_ls_number_reflns         36081
_refine_ls_number_parameters     1897
_refine_ls_number_restraints     667
_refine_ls_R_factor_all          0.1607
_refine_ls_R_factor_gt           0.0754
_refine_ls_wR_factor_ref         0.1973
_refine_ls_wR_factor_gt          0.1556
_refine_ls_goodness_of_fit_ref   1.055
_refine_ls_restrained_S_all      1.046
_refine_ls_shift/su_max          0.001
_refine_ls_shift/su_mean         0.000

loop_
_atom_site_label
_atom_site_type_symbol
_atom_site_fract_x
_atom_site_fract_y
_atom_site_fract_z
_atom_site_U_iso_or_equiv
_atom_site_adp_type
_atom_site_occupancy
_atom_site_symmetry_multiplicity
_atom_site_calc_flag
_atom_site_refinement_flags
_atom_site_disorder_assembly
_atom_site_disorder_group
Pr1 Pr 0.52697(2) 0.12422(2) 0.21303(5) 0.0420(3) Uani 1 1 d . . .
Pr2 Pr 0.54545(2) 0.23385(2) 0.22163(4) 0.0353(2) Uani 1 1 d . . .
Pr3 Pr 0.60463(2) 0.16364(2) 0.36442(4) 0.0350(2) Uani 1 1 d . . .
Pr4 Pr 0.49938(2) 0.18246(2) 0.41574(5) 0.0342(2) Uani 1 1 d . . .
Pr5 Pr 0.30311(2) 0.23740(2) 0.66054(5) 0.0374(2) Uani 1 1 d . . .
Sb1 Sb 0.57482(3) 0.08465(3) 0.34213(6) 0.0423(3) Uani 1 1 d . . .
Sb2 Sb 0.49445(3) 0.09804(3) 0.38296(6) 0.0383(3) Uani 1 1 d . . .
Sb3 Sb 0.45123(2) 0.15139(3) 0.27570(6) 0.0386(3) Uani 1 1 d . . .
Sb4 Sb 0.48688(3) 0.18869(3) 0.12909(5) 0.0398(3) Uani 1 1 d . . .
Sb5 Sb 0.56658(3) 0.17528(3) 0.08978(6) 0.0467(3) Uani 1 1 d . . .
Sb6 Sb 0.61153(3) 0.12326(3) 0.19612(6) 0.0435(3) Uani 1 1 d . . .
Sb7 Sb 0.55395(3) 0.12746(3) 0.49505(5) 0.0370(3) Uani 1 1 d . . .
Sb8 Sb 0.46580(2) 0.23307(3) 0.28221(5) 0.0352(3) Uani 1 1 d . . .
Sb9 Sb 0.62516(3) 0.20479(3) 0.20290(6) 0.0411(3) Uani 1 1 d . . .
Sb10 Sb 0.52603(3) 0.26213(2) 0.39429(5) 0.0358(3) Uani 1 1 d . . .
Sb11 Sb 0.60610(3) 0.24832(3) 0.35748(5) 0.0365(3) Uani 1 1 d . . .
Sb12 Sb 0.56884(2) 0.20941(3) 0.50331(5) 0.0338(3) Uani 1 1 d . . .
Sb13 Sb 0.27006(3) 0.15802(2) 0.68496(5) 0.0344(3) Uani 1 1 d . . .
Sb14 Sb 0.18961(3) 0.17940(3) 0.68323(5) 0.0355(3) Uani 1 1 d . . .
Sb15 Sb 0.24148(3) 0.20949(3) 0.55117(5) 0.0360(3) Uani 1 1 d . . .
Fe1 Fe 0.53845(6) 0.09558(6) 0.78558(11) 0.0404(6) Uani 1 1 d . . .
Fe2 Fe 0.40259(6) 0.34361(5) 0.24098(12) 0.0375(6) Uani 1 1 d . . .
Fe3 Fe 0.7500 0.2500 0.69333(15) 0.0375(8) Uani 1 2 d S . .
Cl1 Cl 0.54430(9) 0.17510(10) 0.3041(2) 0.0397(10) Uani 1 1 d . . .
Cl2 Cl 0.51090(12) 0.12267(14) 0.0680(2) 0.0710(16) Uani 1 1 d . . .
Cl3 Cl 0.55825(16) 0.06792(15) 0.1794(3) 0.094(2) Uani 1 1 d . . .
Cl4 Cl 0.47202(11) 0.08485(11) 0.2282(3) 0.0580(13) Uani 1 1 d . . .
Cl5 Cl 0.52985(12) 0.23783(13) 0.0692(2) 0.0694(16) Uani 1 1 d . . .
Cl6 Cl 0.51233(12) 0.29128(11) 0.2387(3) 0.0625(14) Uani 1 1 d . . .
Cl7 Cl 0.66070(10) 0.19996(12) 0.3510(2) 0.0567(13) Uani 1 1 d . . .
Cl8 Cl 0.64554(12) 0.10987(13) 0.3363(3) 0.0719(16) Uani 1 1 d . . .
Cl9 Cl 0.51087(12) 0.17907(12) 0.5695(2) 0.0590(13) Uani 1 1 d . . .
Cl10 Cl 0.30314(12) 0.23514(11) 0.5030(2) 0.0604(14) Uani 1 1 d . . .
Cl11 Cl 0.2500 0.2500 0.7500 0.046(2) Uani 1 4 d S . .
Cl12 Cl 0.63628(12) 0.16481(15) 0.0818(2) 0.0772(18) Uani 1 1 d . . .
Cl13 Cl 0.41964(11) 0.19962(13) 0.1864(3) 0.0664(15) Uani 1 1 d . . .
Cl14 Cl 0.57662(12) 0.28144(11) 0.4898(2) 0.0627(14) Uani 1 1 d . . .
Cl15 Cl 0.54153(13) 0.05956(12) 0.4712(3) 0.0746(16) Uani 1 1 d . . .
Cl16 Cl 0.22231(12) 0.14061(11) 0.5705(2) 0.0578(13) Uani 1 1 d . . .
S1 S 0.66485(11) 0.14044(11) 0.6511(2) 0.0458(12) Uani 1 1 d . . .
S2 S 0.39918(11) 0.17418(11) 0.5585(2) 0.0487(12) Uani 1 1 d . . .
S3 S 0.39423(13) 0.25530(14) 0.5249(3) 0.0709(16) Uani 1 1 d . . .
O1 O 0.4866(2) 0.1370(2) 0.3313(5) 0.039(3) Uani 1 1 d . . .
O2 O 0.4797(2) 0.1556(2) 0.1981(5) 0.036(3) Uani 1 1 d . . .
O3 O 0.5303(2) 0.1792(2) 0.1519(5) 0.037(3) Uani 1 1 d . . .
O4 O 0.5739(2) 0.1381(3) 0.1483(5) 0.039(3) Uani 1 1 d . . .
O5 O 0.5822(2) 0.1185(3) 0.2746(5) 0.047(3) Uani 1 1 d . . .
O6 O 0.5316(2) 0.0949(2) 0.3212(5) 0.042(3) Uani 1 1 d . . .
O7 O 0.5144(2) 0.1282(2) 0.4474(5) 0.036(3) Uani 1 1 d . . .
O8 O 0.4631(2) 0.1907(2) 0.3178(5) 0.037(3) Uani 1 1 d . . .
O9 O 0.4909(2) 0.2206(2) 0.1995(5) 0.037(3) Uani 1 1 d . . .
O10 O 0.5850(2) 0.2047(3) 0.1549(5) 0.038(3) Uani 1 1 d . . .
O11 O 0.6208(3) 0.1630(2) 0.2416(5) 0.042(3) Uani 1 1 d . . .
O12 O 0.5788(2) 0.1170(2) 0.4126(5) 0.038(3) Uani 1 1 d . . .
O13 O 0.5592(2) 0.1699(2) 0.4569(4) 0.031(3) Uani 1 1 d . . .
O14 O 0.5071(2) 0.2322(2) 0.3273(5) 0.034(3) Uani 1 1 d . . .
O15 O 0.5998(2) 0.2176(2) 0.2836(5) 0.039(3) Uani 1 1 d . . .
O16 O 0.5965(2) 0.2139(2) 0.4217(5) 0.033(3) Uani 1 1 d . . .
O17 O 0.5330(2) 0.2247(2) 0.4496(5) 0.029(2) Uani 1 1 d . . .
O18 O 0.5629(2) 0.2580(2) 0.3356(5) 0.034(3) Uani 1 1 d . . .
O19 O 0.2859(2) 0.1890(2) 0.7503(5) 0.044(3) Uani 1 1 d . . .
O20 O 0.2716(2) 0.1940(2) 0.6187(5) 0.035(3) Uani 1 1 d . . .
O21 O 0.2500 0.2500 0.5965(7) 0.036(4) Uani 1 2 d S . .
O22 O 0.2068(2) 0.2101(2) 0.6183(5) 0.036(3) Uani 1 1 d . . .
O23 O 0.2292(2) 0.1695(2) 0.7267(5) 0.036(3) Uani 1 1 d . . .
O24 O 0.4697(3) 0.2318(3) 0.4395(9) 0.092(5) Uani 1 1 d D . .
O25 O 0.4256(5) 0.2432(4) 0.3922(8) 0.139(9) Uani 1 1 d D . .
O26 O 0.3810(4) 0.2733(4) 0.7185(7) 0.123(7) Uani 1 1 d D . .
O27 O 0.3495(3) 0.2668(3) 0.6367(7) 0.074(4) Uani 1 1 d D . .
O28 O 0.4442(3) 0.1158(3) 0.4457(6) 0.066(4) Uani 1 1 d D . .
O29 O 0.4513(3) 0.1654(3) 0.4607(6) 0.061(4) Uani 1 1 d D . .
O30 O 0.3371(5) 0.1583(4) 0.6956(9) 0.142(9) Uani 1 1 d D . .
O31 O 0.3431(3) 0.1989(3) 0.6354(6) 0.068(4) Uani 1 1 d D . .
O32 O 0.6258(3) 0.1554(3) 0.4744(6) 0.050(3) Uani 1 1 d . . .
O33 O 0.6076(3) 0.1653(3) 0.5783(6) 0.073(4) Uani 1 1 d . . .
O34 O 0.7306(3) 0.0822(3) 0.6839(6) 0.070(4) Uani 1 1 d D . .
O35 O 0.7168(3) 0.1219(3) 0.7474(6) 0.079(5) Uani 1 1 d D . .
N1 N 0.5680(3) 0.0975(3) 0.8628(7) 0.040(3) Uani 1 1 d . . .
N2 N 0.5753(4) 0.0814(3) 0.7348(7) 0.046(4) Uani 1 1 d . . .
N3 N 0.5053(3) 0.1139(3) 0.8414(6) 0.042(3) Uani 1 1 d U . .
N4 N 0.5473(3) 0.1384(3) 0.7651(7) 0.048(4) Uani 1 1 d . . .
N5 N 0.5269(3) 0.0537(3) 0.8065(7) 0.047(4) Uani 1 1 d . . .
N6 N 0.5115(3) 0.0887(4) 0.7056(7) 0.050(4) Uani 1 1 d . . .
N7 N 0.3675(3) 0.3509(3) 0.1803(6) 0.038(3) Uani 1 1 d . . .
N8 N 0.4161(3) 0.3163(3) 0.1658(6) 0.038(3) Uani 1 1 d . . .
N9 N 0.4281(3) 0.3767(3) 0.2046(6) 0.036(3) Uani 1 1 d . . .
N10 N 0.4383(3) 0.3380(3) 0.3020(7) 0.043(4) Uani 1 1 d . . .
N11 N 0.3862(3) 0.3679(3) 0.3168(7) 0.042(4) Uani 1 1 d . . .
N12 N 0.3794(3) 0.3114(3) 0.2876(7) 0.040(3) Uani 1 1 d . . .
N13 N 0.7924(3) 0.2335(3) 0.6874(7) 0.042(4) Uani 1 1 d . . .
N14 N 0.7647(3) 0.2796(3) 0.6223(6) 0.041(4) Uani 1 1 d . . .
N15 N 0.7376(4) 0.2228(3) 0.7686(6) 0.051(4) Uani 1 1 d . . .
C1 C 0.4434(4) 0.2401(5) 0.4434(10) 0.071(5) Uani 1 1 d DU . .
C2 C 0.4316(5) 0.2467(5) 0.5099(11) 0.070(5) Uani 1 1 d U . .
C3 C 0.4488(6) 0.2478(5) 0.5685(11) 0.083(5) Uani 1 1 d U . .
H3A H 0.4697 0.2438 0.5715 0.099 Uiso 1 1 calc R . .
C4 C 0.4305(6) 0.2554(5) 0.6203(12) 0.086(5) Uani 1 1 d U . .
H4A H 0.4387 0.2577 0.6643 0.104 Uiso 1 1 calc R . .
C5 C 0.3994(5) 0.2601(5) 0.6106(10) 0.071(5) Uani 1 1 d U . .
C6 C 0.3755(4) 0.2675(5) 0.6565(8) 0.068(5) Uani 1 1 d DU . .
C7 C 0.4383(4) 0.1403(3) 0.4709(10) 0.051(4) Uani 1 1 d DU . .
C8 C 0.4127(4) 0.1408(4) 0.5235(9) 0.053(4) Uani 1 1 d U . .
C9 C 0.3960(4) 0.1156(5) 0.5496(10) 0.062(4) Uani 1 1 d U . .
H9A H 0.3993 0.0953 0.5367 0.074 Uiso 1 1 calc R . .
C10 C 0.3739(5) 0.1252(5) 0.5977(9) 0.063(4) Uani 1 1 d U . .
H10A H 0.3615 0.1115 0.6217 0.075 Uiso 1 1 calc R . .
C11 C 0.3721(4) 0.1557(5) 0.6065(10) 0.060(4) Uani 1 1 d U . .
C12 C 0.3498(5) 0.1718(4) 0.6493(10) 0.062(4) Uani 1 1 d DU . .
C13 C 0.6262(4) 0.1527(4) 0.5385(9) 0.046(4) Uani 1 1 d U . .
C14 C 0.6518(4) 0.1356(4) 0.5671(8) 0.043(4) Uani 1 1 d U . .
C15 C 0.6688(4) 0.1143(4) 0.5343(8) 0.047(4) Uani 1 1 d U . .
H15A H 0.6654 0.1086 0.4886 0.056 Uiso 1 1 calc R . .
C16 C 0.6921(4) 0.1013(4) 0.5753(9) 0.052(4) Uani 1 1 d U . .
H16A H 0.7053 0.0860 0.5600 0.062 Uiso 1 1 calc R . .
C17 C 0.6933(4) 0.1136(4) 0.6395(8) 0.043(4) Uani 1 1 d U . .
C18 C 0.7156(4) 0.1063(3) 0.6954(7) 0.047(4) Uani 1 1 d DU . .
C19 C 0.5642(5) 0.1042(4) 0.9307(9) 0.054(5) Uani 1 1 d . . .
H19A H 0.5447 0.1091 0.9466 0.065 Uiso 1 1 calc R . .
C20 C 0.5891(6) 0.1040(5) 0.9785(10) 0.070(7) Uani 1 1 d . . .
H20A H 0.5858 0.1092 1.0245 0.084 Uiso 1 1 calc R . .
C21 C 0.6172(5) 0.0962(5) 0.9573(11) 0.076(7) Uani 1 1 d U . .
H21A H 0.6331 0.0956 0.9892 0.092 Uiso 1 1 calc R . .
C22 C 0.6231(5) 0.0890(4) 0.8890(11) 0.057(5) Uani 1 1 d U . .
C23 C 0.6516(5) 0.0819(5) 0.8618(13) 0.079(7) Uani 1 1 d . . .
H23A H 0.6685 0.0832 0.8908 0.095 Uiso 1 1 calc R . .
C24 C 0.6561(5) 0.0733(5) 0.7975(14) 0.074(7) Uani 1 1 d . . .
H24A H 0.6756 0.0680 0.7819 0.088 Uiso 1 1 calc R . .
C25 C 0.6295(5) 0.0721(4) 0.7510(11) 0.062(6) Uani 1 1 d . . .
C26 C 0.6315(5) 0.0634(5) 0.6778(13) 0.084(8) Uani 1 1 d . . .
H26A H 0.6499 0.0573 0.6581 0.101 Uiso 1 1 calc R . .
C27 C 0.6044(6) 0.0647(4) 0.6390(11) 0.068(6) Uani 1 1 d . . .
H27A H 0.6051 0.0599 0.5921 0.081 Uiso 1 1 calc R . .
C28 C 0.5774(5) 0.0727(4) 0.6679(9) 0.061(6) Uani 1 1 d . . .
H28A H 0.5597 0.0721 0.6411 0.074 Uiso 1 1 calc R . .
C29 C 0.6013(4) 0.0809(4) 0.7747(9) 0.042(4) Uani 1 1 d . . .
C30 C 0.5981(5) 0.0901(4) 0.8431(9) 0.050(5) Uani 1 1 d . . .
C31 C 0.5342(4) 0.0356(4) 0.8600(9) 0.055(5) Uani 1 1 d . . .
H31A H 0.5465 0.0437 0.8948 0.066 Uiso 1 1 calc R . .
C32 C 0.5245(6) 0.0054(5) 0.8662(13) 0.089(8) Uani 1 1 d . . .
H32A H 0.5289 -0.0052 0.9068 0.107 Uiso 1 1 calc R . .
C33 C 0.5086(7) -0.0095(6) 0.8154(14) 0.098(9) Uani 1 1 d . . .
H33A H 0.5038 -0.0303 0.8175 0.118 Uiso 1 1 calc R . .
C34 C 0.5000(5) 0.0095(6) 0.7591(12) 0.073(7) Uani 1 1 d . . .
C35 C 0.4835(7) -0.0027(6) 0.7043(14) 0.099(9) Uani 1 1 d . . .
H35A H 0.4772 -0.0230 0.7056 0.118 Uiso 1 1 calc R . .
C36 C 0.4769(6) 0.0139(7) 0.6518(12) 0.098(9) Uani 1 1 d . . .
H36A H 0.4669 0.0047 0.6147 0.117 Uiso 1 1 calc R . .
C37 C 0.4842(5) 0.0474(6) 0.6471(11) 0.077(7) Uani 1 1 d U . .
C38 C 0.4771(6) 0.0691(6) 0.5975(12) 0.097(9) Uani 1 1 d U . .
H38A H 0.4661 0.0626 0.5591 0.116 Uiso 1 1 calc R . .
C39 C 0.4850(5) 0.0989(5) 0.6009(9) 0.069(6) Uani 1 1 d U . .
H39A H 0.4783 0.1129 0.