####################################################################### 
# 
# This file contains crystal structure data downloaded from the 
# Cambridge Structural Database (CSD) hosted by the Cambridge 
# Crystallographic Data Centre (CCDC).
# 
# Full information about CCDC data access policies and citation 
# guidelines are available at http://www.ccdc.cam.ac.uk/access/V1 
# 
# Audit and citation data items may have been added by the CCDC. 
# Please retain this information to preserve the provenance of 
# this file and to allow appropriate attribution of the data. 
# 
#######################################################################

data_TPA[e(trim)]infini
_audit_block_doi                 10.5517/ccy6pvn
_database_code_depnum_ccdc_archive 'CCDC 870382'
loop_
_citation_id
_citation_doi
_citation_year
1 10.1039/c2dt30537b 2012
_audit_update_record             
;
2012-03-06 deposited with the CCDC.	2024-07-13 downloaded from the CCDC.
;

_audit_creation_method           SHELXL-97
_chemical_name_systematic        
;
?
;
_chemical_name_common            ?
_chemical_melting_point          ?
_chemical_formula_moiety         ?
_chemical_formula_sum            'C45 H45 Mo12 N3 O46 P Zn4'
_chemical_formula_weight         2807.57

loop_
_atom_type_symbol
_atom_type_description
_atom_type_scat_dispersion_real
_atom_type_scat_dispersion_imag
_atom_type_scat_source
O O 0.0106 0.0060 'International Tables Vol C Tables 4.2.6.8 and 6.1.1.4'
P P 0.1023 0.0942 'International Tables Vol C Tables 4.2.6.8 and 6.1.1.4'
Zn Zn 0.2839 1.4301 'International Tables Vol C Tables 4.2.6.8 and 6.1.1.4'
Mo Mo -1.6832 0.6857 'International Tables Vol C Tables 4.2.6.8 and 6.1.1.4'
C C 0.0033 0.0016 'International Tables Vol C Tables 4.2.6.8 and 6.1.1.4'
N N 0.0061 0.0033 'International Tables Vol C Tables 4.2.6.8 and 6.1.1.4'
H H 0.0000 0.0000 'International Tables Vol C Tables 4.2.6.8 and 6.1.1.4'

_symmetry_cell_setting           orthorhombic
_symmetry_space_group_name_H-M   Pcab

loop_
_symmetry_equiv_pos_as_xyz
'x, y, z'
'-x, -y+1/2, z+1/2'
'x+1/2, -y, -z+1/2'
'-x+1/2, y+1/2, -z'
'-x, -y, -z'
'x, y-1/2, -z-1/2'
'-x-1/2, y, z-1/2'
'x-1/2, -y-1/2, z'

_cell_length_a                   17.5630(15)
_cell_length_b                   30.229(2)
_cell_length_c                   31.886(3)
_cell_angle_alpha                90.00
_cell_angle_beta                 90.00
_cell_angle_gamma                90.00
_cell_volume                     16929(2)
_cell_formula_units_Z            8
_cell_measurement_temperature    293(2)
_cell_measurement_reflns_used    63902
_cell_measurement_theta_min      1.28
_cell_measurement_theta_max      30.13

_exptl_crystal_description       platelet
_exptl_crystal_colour            red
_exptl_crystal_size_max          0.30
_exptl_crystal_size_mid          0.20
_exptl_crystal_size_min          0.10
_exptl_crystal_density_meas      ?
_exptl_crystal_density_diffrn    2.203
_exptl_crystal_density_method    'not measured'
_exptl_crystal_F_000             8512
_exptl_absorpt_coefficient_mu    2.928
_exptl_absorpt_correction_type   multi-scan
_exptl_absorpt_correction_T_min  0.4762
_exptl_absorpt_correction_T_max  0.7600
_exptl_absorpt_process_details   
'G. M. Sheldrick, SADABS; program for scaling and correction of area detector data, University of G ttingen, Germany, 1997'

_exptl_special_details           
;

;

_diffrn_ambient_temperature      293(2)
_diffrn_radiation_wavelength     0.71073
_diffrn_radiation_type           MoK\a
_diffrn_radiation_source         'fine-focus sealed tube'
_diffrn_radiation_monochromator  graphite
_diffrn_measurement_device_type  'CCD area detector'
_diffrn_measurement_method       'phi and omega scans'
_diffrn_detector_area_resol_mean 512x512
_diffrn_standards_number         ?
_diffrn_standards_interval_count ?
_diffrn_standards_interval_time  ?
_diffrn_standards_decay_%        ?
_diffrn_reflns_number            198388
_diffrn_reflns_av_R_equivalents  0.0993
_diffrn_reflns_av_sigmaI/netI    0.0760
_diffrn_reflns_limit_h_min       -24
_diffrn_reflns_limit_h_max       24
_diffrn_reflns_limit_k_min       -39
_diffrn_reflns_limit_k_max       42
_diffrn_reflns_limit_l_min       -35
_diffrn_reflns_limit_l_max       44
_diffrn_reflns_theta_min         1.28
_diffrn_reflns_theta_max         30.13
_reflns_number_total             24676
_reflns_number_gt                13560
_reflns_threshold_expression     >2\s(I)

_computing_data_collection       'Bruker APEX2'
_computing_cell_refinement       'Bruker APEX2'
_computing_data_reduction        'Bruker SAINT'
_computing_structure_solution    'SHELXS-97 (Sheldrick, 1990)'
_computing_structure_refinement  'SHELXL-97 (Sheldrick, 1997)'
_computing_molecular_graphics    'Bruker SHELXTL'
_computing_publication_material  'Bruker SHELXTL'

_refine_special_details          
;
Refinement of F^2^ against ALL reflections. The weighted R-factor wR and
goodness of fit S are based on F^2^, conventional R-factors R are based
on F, with F set to zero for negative F^2^. The threshold expression of
F^2^ > 2\s(F^2^) is used only for calculating R-factors(gt) etc. and is
not relevant to the choice of reflections for refinement. R-factors based
on F^2^ are statistically about twice as large as those based on F, and R-
factors based on ALL data will be even larger.
The disordered TPA counter-cations could not be located and the data set was corrected with the program SQUEEZE
(P. van der Sluis and A. L. Spek, Acta Crystallogr., Sect. A., 1990, 46, 194).
;
loop_
_platon_squeeze_void_nr
_platon_squeeze_void_average_x
_platon_squeeze_void_average_y
_platon_squeeze_void_average_z
_platon_squeeze_void_volume
_platon_squeeze_void_count_electrons
_platon_squeeze_void_content
1 -0.025 -0.014 -0.002 9754 10975 ' '
_platon_squeeze_details          
;
;

_refine_ls_structure_factor_coef Fsqd
_refine_ls_matrix_type           full
_refine_ls_weighting_scheme      calc
_refine_ls_weighting_details     
'calc w=1/[\s^2^(Fo^2^)+(0.0561P)^2^+0.0000P] where P=(Fo^2^+2Fc^2^)/3'
_atom_sites_solution_primary     direct
_atom_sites_solution_secondary   difmap
_atom_sites_solution_hydrogens   geom
_refine_ls_hydrogen_treatment    constr
_refine_ls_extinction_method     SHELXL
_refine_ls_extinction_coef       0.0000106(13)
_refine_ls_extinction_expression Fc^*^=kFc[1+0.001xFc^2^\l^3^/sin(2\q)]^-1/4^
_refine_ls_number_reflns         24676
_refine_ls_number_parameters     650
_refine_ls_number_restraints     0
_refine_ls_R_factor_all          0.0867
_refine_ls_R_factor_gt           0.0414
_refine_ls_wR_factor_ref         0.1408
_refine_ls_wR_factor_gt          0.1303
_refine_ls_goodness_of_fit_ref   0.961
_refine_ls_restrained_S_all      0.961
_refine_ls_shift/su_max          0.005
_refine_ls_shift/su_mean         0.000

loop_
_atom_site_label
_atom_site_type_symbol
_atom_site_fract_x
_atom_site_fract_y
_atom_site_fract_z
_atom_site_U_iso_or_equiv
_atom_site_adp_type
_atom_site_occupancy
_atom_site_symmetry_multiplicity
_atom_site_calc_flag
_atom_site_refinement_flags
_atom_site_disorder_assembly
_atom_site_disorder_group
Mo1 Mo 0.92057(3) 0.680218(18) 0.070401(16) 0.01640(12) Uani 1 1 d . . .
Mo2 Mo 0.56451(3) 0.679797(18) 0.069670(16) 0.01648(12) Uani 1 1 d . . .
Mo3 Mo 0.84442(3) 0.739957(18) 0.112384(16) 0.01737(12) Uani 1 1 d . . .
Mo4 Mo 0.63840(3) 0.740202(18) 0.112331(16) 0.01780(12) Uani 1 1 d . . .
Mo5 Mo 0.56512(3) 0.682087(18) -0.039845(16) 0.01553(11) Uani 1 1 d . . .
Mo6 Mo 0.92082(3) 0.681884(18) -0.039294(16) 0.01592(12) Uani 1 1 d . . .
Mo7 Mo 0.63933(3) 0.743407(18) -0.080901(16) 0.01636(12) Uani 1 1 d . . .
Mo8 Mo 0.84609(3) 0.743643(18) -0.079983(16) 0.01711(12) Uani 1 1 d . . .
Mo9 Mo 0.74249(3) 0.823881(16) 0.067074(15) 0.01742(11) Uani 1 1 d . . .
Mo10 Mo 0.74201(3) 0.825806(16) -0.032655(15) 0.01760(11) Uani 1 1 d . . .
Mo11 Mo 0.83403(3) 0.597273(17) 0.014618(16) 0.01657(11) Uani 1 1 d . . .
Mo12 Mo 0.65188(3) 0.597278(17) 0.013612(16) 0.01632(11) Uani 1 1 d . . .
Zn1 Zn 1.07500(4) 0.71151(2) 0.01642(2) 0.01765(15) Uani 1 1 d . . .
Zn2 Zn 0.74296(4) 0.63832(2) -0.07439(2) 0.01755(14) Uani 1 1 d . . .
Zn3 Zn 0.91008(4) 0.78873(2) 0.01672(2) 0.01725(15) Uani 1 1 d . . .
Zn4 Zn 0.74166(4) 0.63474(2) 0.10418(2) 0.01853(15) Uani 1 1 d . . .
P1 P 0.74259(7) 0.71125(5) 0.01564(4) 0.0134(3) Uani 1 1 d . . .
O1 O 0.9769(2) 0.68002(13) 0.01560(12) 0.0170(8) Uani 1 1 d . . .
O2 O 0.7425(2) 0.60314(12) -0.02363(11) 0.0186(8) Uani 1 1 d . . .
O3 O 0.6542(2) 0.67654(14) 0.10491(12) 0.0189(9) Uani 1 1 d . . .
O4 O 0.7406(3) 0.60125(14) -0.12366(12) 0.0291(11) Uani 1 1 d . . .
O5 O 0.7425(2) 0.73957(12) 0.05572(12) 0.0188(8) Uani 1 1 d . . .
O6 O 0.6549(2) 0.67978(13) -0.07577(12) 0.0179(9) Uani 1 1 d . . .
O7 O 0.8153(2) 0.68271(12) 0.01535(12) 0.0174(8) Uani 1 1 d . . .
O8 O 0.7380(2) 0.59665(14) 0.15323(13) 0.0295(10) Uani 1 1 d . . .
O9 O 0.7422(2) 0.74090(12) -0.02376(11) 0.0166(8) Uani 1 1 d . . .
O10 O 0.7419(2) 0.60220(12) 0.05163(11) 0.0178(8) Uani 1 1 d . . .
O11 O 0.5830(2) 0.75064(15) -0.12221(13) 0.0258(11) Uani 1 1 d . . .
O12 O 0.8302(2) 0.67910(13) -0.07549(11) 0.0180(9) Uani 1 1 d . . .
O13 O 0.6733(2) 0.81995(13) 0.01710(12) 0.0200(9) Uani 1 1 d . . .
O14 O 0.5744(2) 0.74447(14) 0.06224(12) 0.0192(9) Uani 1 1 d . . .
O15 O 1.0082(2) 0.81843(13) 0.01482(12) 0.0170(8) Uani 1 1 d . . .
O16 O 0.8292(2) 0.67609(13) 0.10600(12) 0.0182(9) Uani 1 1 d . . .
O17 O 0.9081(2) 0.74413(13) 0.06294(12) 0.0160(9) Uani 1 1 d . . .
O18 O 0.5801(2) 0.74533(17) 0.15336(13) 0.0296(11) Uani 1 1 d . . .
O19 O 0.5757(2) 0.74549(14) -0.03078(12) 0.0179(9) Uani 1 1 d . . .
O20 O 0.9016(2) 0.74666(15) 0.15352(13) 0.0245(10) Uani 1 1 d . . .
O21 O 0.9030(2) 0.75219(15) -0.12103(14) 0.0273(11) Uani 1 1 d . . .
O22 O 0.7407(2) 0.73738(13) 0.14430(11) 0.0204(9) Uani 1 1 d . . .
O23 O 0.8110(2) 0.81923(12) 0.01754(12) 0.0182(8) Uani 1 1 d . . .
O24 O 0.6376(2) 0.54193(13) 0.01197(14) 0.0264(10) Uani 1 1 d . . .
O25 O 0.9096(2) 0.74620(13) -0.03043(12) 0.0181(9) Uani 1 1 d . . .
O26 O 0.8946(2) 0.61792(14) 0.05673(12) 0.0194(9) Uani 1 1 d . . .
O27 O 0.7424(2) 0.74117(13) -0.11245(12) 0.0214(9) Uani 1 1 d . . .
O28 O 0.6706(2) 0.68119(12) 0.01559(11) 0.0155(8) Uani 1 1 d . . .
O29 O 0.7445(2) 0.87903(13) 0.07732(14) 0.0293(10) Uani 1 1 d . . .
O30 O 0.7389(2) 0.88105(13) -0.04050(14) 0.0278(10) Uani 1 1 d . . .
O31 O 0.8214(2) 0.80329(13) 0.09957(12) 0.0231(10) Uani 1 1 d . . .
O32 O 0.9947(2) 0.67251(13) 0.10288(13) 0.0214(10) Uani 1 1 d . . .
O33 O 0.5927(2) 0.61567(13) 0.05613(12) 0.0192(9) Uani 1 1 d . . .
O34 O 0.5931(2) 0.61872(13) -0.02861(11) 0.0155(9) Uani 1 1 d . . .
O35 O 0.8919(2) 0.61688(14) -0.02852(13) 0.0226(10) Uani 1 1 d . . .
O36 O 0.8195(2) 0.80686(13) -0.06503(13) 0.0218(10) Uani 1 1 d . . .
O37 O 0.6657(2) 0.80335(14) 0.09921(12) 0.0216(10) Uani 1 1 d . . .
O38 O 0.9936(2) 0.67405(15) -0.07102(13) 0.0285(11) Uani 1 1 d . . .
O39 O 0.6657(2) 0.80534(13) -0.06551(12) 0.0187(9) Uani 1 1 d . . .
O40 O 0.8492(2) 0.54155(14) 0.01465(14) 0.0284(10) Uani 1 1 d . . .
O41 O 0.4905(2) 0.67087(15) 0.10183(13) 0.0309(11) Uani 1 1 d . . .
O42 O 0.7500(3) 0.66480(13) -0.15976(13) 0.0310(11) Uani 1 1 d . . .
O43 O 0.4917(2) 0.67537(13) -0.07294(13) 0.0212(9) Uani 1 1 d . . .
O44 O 0.7417(3) 0.66076(15) 0.18870(13) 0.0409(13) Uani 1 1 d . . .
O45 O 0.7317(5) 0.45450(19) -0.26160(18) 0.107(3) Uani 1 1 d . . .
O46 O 0.7052(5) 0.46201(17) -0.19681(17) 0.085(2) Uani 1 1 d . . .
C1 C 0.7415(4) 0.6193(2) 0.18731(18) 0.0257(14) Uani 1 1 d . . .
C2 C 0.7470(4) 0.5948(2) 0.22724(18) 0.0294(15) Uani 1 1 d . . .
C3 C 0.7471(4) 0.6190(2) 0.26422(17) 0.0265(14) Uani 1 1 d . . .
H3 H 0.7419 0.6497 0.2638 0.032 Uiso 1 1 calc R . .
C4 C 0.7448(4) 0.5963(2) -0.19795(18) 0.0274(14) Uani 1 1 d . . .
C5 C 0.7466(4) 0.6242(2) -0.15768(18) 0.0275(14) Uani 1 1 d . . .
C6 C 0.7310(4) 0.5517(2) -0.19741(18) 0.0345(18) Uani 1 1 d . . .
H6 H 0.7162 0.5381 -0.1725 0.041 Uiso 1 1 calc R . .
C7 C 0.7389(5) 0.5265(2) -0.23386(19) 0.046(2) Uani 1 1 d . . .
C8 C 0.7196(7) 0.4774(2) -0.2330(2) 0.071(4) Uani 1 1 d . . .
C9 C 0.7534(4) 0.5492(2) 0.22855(19) 0.0380(18) Uani 1 1 d . . .
H9 H 0.7525 0.5333 0.2036 0.046 Uiso 1 1 calc R . .

loop_
_atom_site_aniso_label
_atom_site_aniso_U_11
_atom_site_aniso_U_22
_atom_site_aniso_U_33
_atom_site_aniso_U_23
_atom_site_aniso_U_13
_atom_site_aniso_U_12
Mo1 0.0143(2) 0.0194(3) 0.0155(3) 0.0010(2) -0.00041(19) 0.0010(2)
Mo2 0.0146(2) 0.0199(3) 0.0150(3) 0.0010(2) -0.00108(19) 0.0006(2)
Mo3 0.0155(3) 0.0209(3) 0.0157(3) 0.0001(2) -0.0006(2) 0.0003(2)
Mo4 0.0165(3) 0.0223(3) 0.0146(3) -0.0014(2) -0.0004(2) 0.0011(2)
Mo5 0.0133(2) 0.0198(3) 0.0135(3) -0.0004(2) -0.00008(19) -0.0011(2)
Mo6 0.0136(2) 0.0181(3) 0.0161(3) -0.0003(2) -0.00109(19) 0.0003(2)
Mo7 0.0146(2) 0.0198(3) 0.0147(3) 0.0018(2) 0.00091(19) -0.0001(2)
Mo8 0.0152(3) 0.0207(3) 0.0154(3) 0.0005(2) -0.0002(2) -0.0004(2)
Mo9 0.0152(2) 0.0172(2) 0.0199(2) -0.00323(19) -0.0011(2) 0.0012(2)
Mo10 0.0157(2) 0.0173(2) 0.0198(2) 0.00162(19) 0.0001(2) -0.0005(2)
Mo11 0.0158(2) 0.0172(3) 0.0167(3) -0.0001(2) 0.0005(2) 0.00114(19)
Mo12 0.0165(2) 0.0163(3) 0.0162(3) 0.0005(2) 0.0004(2) -0.00098(19)
Zn1 0.0134(3) 0.0199(4) 0.0196(4) 0.0008(3) 0.0009(3) -0.0003(3)
Zn2 0.0190(3) 0.0203(3) 0.0134(3) -0.0017(3) 0.0001(3) 0.0000(3)
Zn3 0.0142(3) 0.0201(4) 0.0174(4) 0.0006(3) 0.0005(3) -0.0006(3)
Zn4 0.0183(4) 0.0231(3) 0.0142(3) 0.0010(3) 0.0000(3) 0.0005(3)
P1 0.0110(6) 0.0162(7) 0.0130(6) 0.0005(5) 0.0004(6) 0.0013(5)
O1 0.0127(19) 0.022(2) 0.017(2) 0.0085(19) 0.0028(17) -0.0011(16)
O2 0.019(2) 0.019(2) 0.017(2) 0.0036(15) 0.0021(16) 0.0031(17)
O3 0.020(2) 0.025(3) 0.012(2) -0.0004(18) -0.0055(16) -0.0021(18)
O4 0.053(3) 0.027(2) 0.0073(19) 0.0003(16) 0.008(2) 0.000(2)
O5 0.020(2) 0.0177(19) 0.019(2) 0.0029(15) -0.0002(17) -0.0054(17)
O6 0.013(2) 0.021(2) 0.020(2) 0.0026(18) 0.0020(16) 0.0027(17)
O7 0.0150(19) 0.018(2) 0.019(2) 0.0041(19) -0.0022(17) 0.0004(16)
O8 0.039(3) 0.031(2) 0.018(2) 0.0009(18) 0.002(2) -0.001(2)
O9 0.0149(19) 0.0178(19) 0.0170(19) -0.0038(15) -0.0003(16) 0.0021(16)
O10 0.017(2) 0.023(2) 0.0138(19) 0.0007(16) 0.0045(16) -0.0036(17)
O11 0.023(2) 0.029(3) 0.025(3) 0.002(2) -0.0044(19) -0.0050(19)
O12 0.012(2) 0.027(2) 0.015(2) -0.0012(18) -0.0058(16) 0.0033(17)
O13 0.016(2) 0.022(2) 0.022(2) -0.004(2) -0.0024(18) 0.0024(16)
O14 0.0114(19) 0.027(3) 0.019(2) -0.0058(19) -0.0025(16) 0.0023(17)
O15 0.0144(19) 0.021(2) 0.016(2) 0.0039(19) 0.0061(17) -0.0006(16)
O16 0.017(2) 0.017(2) 0.020(2) -0.0024(18) 0.0006(17) 0.0045(17)
O17 0.024(2) 0.009(2) 0.016(2) 0.0001(16) 0.0052(16) 0.0010(16)
O18 0.014(2) 0.050(3) 0.024(3) -0.003(2) 0.0089(18) 0.004(2)
O19 0.020(2) 0.022(2) 0.011(2) -0.0033(18) -0.0008(16) -0.0013(17)
O20 0.023(2) 0.030(3) 0.021(2) -0.003(2) -0.0008(18) -0.0005(19)
O21 0.023(2) 0.035(3) 0.024(3) 0.007(2) 0.0028(18) 0.001(2)
O22 0.023(2) 0.025(2) 0.0134(19) -0.0006(16) -0.0044(17) 0.0046(19)
O23 0.0137(19) 0.017(2) 0.023(2) 0.0024(19) 0.0002(18) -0.0012(16)
O24 0.032(2) 0.015(2) 0.032(3) 0.001(2) 0.004(2) -0.0014(18)
O25 0.016(2) 0.016(2) 0.022(2) 0.0029(18) -0.0042(16) -0.0033(16)
O26 0.018(2) 0.023(2) 0.017(2) 0.0036(18) 0.0046(17) 0.0113(17)
O27 0.020(2) 0.030(2) 0.0142(19) 0.0030(17) -0.0030(17) 0.0004(19)
O28 0.0143(19) 0.021(2) 0.0117(19) -0.0042(18) 0.0006(16) -0.0027(15)
O29 0.026(2) 0.018(2) 0.043(3) 0.0005(19) -0.008(2) -0.0065(19)
O30 0.033(3) 0.016(2) 0.035(3) 0.0025(18) 0.003(2) -0.0026(19)
O31 0.025(2) 0.020(2) 0.024(2) -0.0088(19) -0.0023(19) 0.0007(18)
O32 0.020(2) 0.022(2) 0.023(2) -0.0022(19) -0.0012(18) 0.0048(18)
O33 0.024(2) 0.017(2) 0.017(2) -0.0001(18) 0.0048(17) -0.0025(17)
O34 0.022(2) 0.016(2) 0.009(2) -0.0008(16) -0.0003(15) -0.0023(17)
O35 0.017(2) 0.025(3) 0.026(3) 0.0008(19) 0.0030(17) -0.0032(18)
O36 0.015(2) 0.019(2) 0.032(3) 0.0097(19) 0.0002(18) -0.0050(17)
O37 0.015(2) 0.027(3) 0.023(2) 0.0050(19) 0.0028(17) 0.0018(18)
O38 0.018(2) 0.045(3) 0.023(2) -0.005(2) 0.0064(18) -0.002(2)
O39 0.017(2) 0.021(2) 0.017(2) -0.0052(18) -0.0012(16) 0.0034(17)
O40 0.035(3) 0.018(2) 0.031(3) 0.007(2) 0.002(2) 0.0015(19)
O41 0.031(3) 0.039(3) 0.023(3) 0.014(2) 0.008(2) 0.001(2)
O42 0.058(3) 0.0127(19) 0.022(2) -0.0033(16) -0.009(2) 0.004(2)
O43 0.017(2) 0.020(2) 0.027(2) 0.0014(19) -0.0036(18) -0.0016(17)
O44 0.073(4) 0.032(3) 0.018(2) 0.0078(19) -0.003(2) 0.005(3)
O45 0.259(11) 0.021(3) 0.040(4) -0.003(3) -0.014(5) -0.020(5)
O46 0.196(8) 0.020(3) 0.038(4) -0.006(3) 0.001(4) -0.006(4)
C1 0.033(4) 0.027(3) 0.017(3) 0.000(2) 0.000(3) 0.001(3)
C2 0.043(4) 0.030(3) 0.015(3) 0.001(2) 0.005(3) -0.002(3)
C3 0.050(4) 0.017(3) 0.012(3) 0.002(2) 0.001(3) 0.000(3)
C4 0.040(4) 0.028(3) 0.014(3) -0.002(2) 0.006(3) 0.011(3)
C5 0.036(4) 0.030(3) 0.017(3) -0.004(2) -0.009(3) 0.003(3)
C6 0.073(6) 0.020(3) 0.011(3) 0.003(2) 0.000(3) 0.000(3)
C7 0.106(7) 0.017(3) 0.016(3) -0.002(3) -0.015(4) -0.020(4)
C8 0.186(11) 0.015(4) 0.013(4) -0.004(3) -0.005(5) 0.010(5)
C9 0.066(5) 0.032(4) 0.016(3) -0.006(3) 0.004(3) -0.001(4)

_geom_special_details            
;
All s.u.'s (except the s.u. in the dihedral angle between two l.s. planes)
are estimated using the full covariance matrix. The cell s.u.'s are taken
into account individually in the estimation of s.u.'s in distances, angles
and torsion angles; correlations between s.u.'s in cell parameters are only
used when they are defined by crystal symmetry. An approximate (isotropic)
treatment of cell s.u.'s is used for estimating s.u.'s involving l.s. planes.
;

loop_
_geom_bond_atom_site_label_1
_geom_bond_atom_site_label_2
_geom_bond_distance
_geom_bond_site_symmetry_2
_geom_bond_publ_flag
Mo1 O32 1.679(4) . ?
Mo1 O17 1.