
#######################################################################
#
#                 Cambridge Crystallographic Data Centre
#                                CCDC
#
#######################################################################
#
# If this CIF has been generated from an entry in the Cambridge
# Structural Database, then it will include bibliographic, chemical,
# crystal, experimental, refinement or atomic coordinate data resulting
# from the CCDC's data processing and validation procedures.
#
#######################################################################

data_CSD_CIF_VEJXAJ
_audit_creation_date 1991-02-12
_audit_creation_method CSD-ConQuest-V1
_database_code_CSD VEJXAJ
_database_code_depnum_ccdc_archive 'CCDC 1281705'
_chemical_formula_sum 'C6 H14 N4 O6'
_chemical_formula_moiety
;
C4 H6 O4,2(C1 H4 N2 O1)
;
_journal_coeditor_code "IUCr BX0375"
_journal_coden_Cambridge 591
_journal_volume 46
_journal_year 1990
_journal_page_first 1038
_journal_name_full 'Acta Crystallogr.,Sect.C:Cryst.Struct.Commun. '
loop_
_publ_author_name
"H.Wiedenfeld"
"F.Knoch"
_chemical_name_systematic
;
Succinic acid bis(urea)
;
_chemical_name_common
;
Teaching Subset: Fundamental Chemistry, Symmetry
;
_cell_volume    565.814
_exptl_crystal_density_diffrn 1.41
_exptl_special_details
;
monoclinic polymorph

;
_diffrn_ambient_temperature ?
_diffrn_special_details
;
The study was carried out at room temperature,in the range 283-303K

;
#These two values have been output from a single CSD field.
_refine_ls_R_factor_gt 0.054
_refine_ls_wR_factor_gt 0.054
_symmetry_cell_setting monoclinic
_symmetry_space_group_name_H-M 'P 21/c'
_symmetry_Int_Tables_number 14
loop_
_symmetry_equiv_pos_site_id
_symmetry_equiv_pos_as_xyz
1 x,y,z
2 -x,1/2+y,1/2-z
3 -x,-y,-z
4 x,-1/2-y,-1/2+z
_cell_length_a 5.637(2)
_cell_length_b 8.243(4)
_cell_length_c 12.262(6)
_cell_angle_alpha 90
_cell_angle_beta 96.75(4)
_cell_angle_gamma 90
_cell_formula_units_Z 2
loop_
_atom_type_symbol
_atom_type_radius_bond
C 0.68
H 0.23
N 0.68
O 0.68
loop_
_atom_site_label
_atom_site_type_symbol
_atom_site_fract_x
_atom_site_fract_y
_atom_site_fract_z
C1 C 0.2691(11) 0.1365(7) 0.4792(4)
C2 C 0.0943(11) 0.0426(8) 0.5390(4)
O1 O 0.4331(8) 0.2106(5) 0.5447(3)
O2 O 0.2621(7) 0.1419(5) 0.3788(3)
H1 H 0.04290 0.12540 0.58590
H2 H 0.16430 -0.04540 0.58290
H3 H 0.55000 0.26140 0.50500
C3 C 0.7609(12) 0.0802(7) 0.8668(4)
O3 O 0.7534(7) 0.1310(5) 0.9640(3)
N1 N 0.5894(12) 0.1249(8) 0.7879(4)
N2 N 0.9346(10) -0.0155(6) 0.8440(3)
H4 H 0.51840 0.23090 0.78320
H5 H 0.61420 0.08870 0.71570
H6 H 0.91080 -0.05930 0.77100
H7 H 1.05230 0.06910 0.84730
C2B C -0.0943(11) -0.0426(8) 0.4610(4)
C1B C -0.2691(11) -0.1365(7) 0.5208(4)
H1B H -0.04290 -0.12540 0.41410
H2B H -0.16430 0.04540 0.41710
O1B O -0.4331(8) -0.2106(5) 0.4553(3)
O2B O -0.2621(7) -0.1419(5) 0.6212(3)
H3B H -0.55000 -0.26140 0.49500
#END
