####################################################################### 
# 
# This file contains crystal structure data downloaded from the 
# Cambridge Structural Database (CSD) hosted by the Cambridge 
# Crystallographic Data Centre (CCDC).
# 
# Full information about CCDC data access policies and citation 
# guidelines are available at http://www.ccdc.cam.ac.uk/access/V1 
# 
# Audit and citation data items may have been added by the CCDC. 
# Please retain this information to preserve the provenance of 
# this file and to allow appropriate attribution of the data. 
# 
#######################################################################

data_[Zn(im)2]-8
_audit_block_doi                 10.5517/cc8jgpx
_database_code_depnum_ccdc_archive 'CCDC 254159'
loop_
_citation_id
_citation_doi
_citation_year
1 10.1002/chem.200700181 2007
_audit_update_record             
;
2004-10-29 deposited with the CCDC.	2024-07-13 downloaded from the CCDC.
;

_audit_creation_method           SHELXL-97
_chemical_name_systematic        
;
?
;
_chemical_name_common            'zinc imidazolate'
_chemical_melting_point          ?
_chemical_formula_moiety         ?
_chemical_formula_sum            'C21 H33 N11 O3 Zn2'
_chemical_formula_weight         618.32

loop_
_atom_type_symbol
_atom_type_description
_atom_type_scat_dispersion_real
_atom_type_scat_dispersion_imag
_atom_type_scat_source
C C 0.0033 0.0016 'International Tables Vol C Tables 4.2.6.8 and 6.1.1.4'
H H 0.0000 0.0000 'International Tables Vol C Tables 4.2.6.8 and 6.1.1.4'
O O 0.0106 0.0060 'International Tables Vol C Tables 4.2.6.8 and 6.1.1.4'
Zn Zn 0.2839 1.4301 'International Tables Vol C Tables 4.2.6.8 and 6.1.1.4'
N N 0.0061 0.0033 'International Tables Vol C Tables 4.2.6.8 and 6.1.1.4'

_symmetry_cell_setting           Orthorhombic
_symmetry_space_group_name_H-M   Pbca

loop_
_symmetry_equiv_pos_as_xyz
'x, y, z'
'-x+1/2, -y, z+1/2'
'-x, y+1/2, -z+1/2'
'x+1/2, -y+1/2, -z'
'-x, -y, -z'
'x-1/2, y, -z-1/2'
'x, -y-1/2, z-1/2'
'-x-1/2, y-1/2, z'

_cell_length_a                   9.801(3)
_cell_length_b                   24.104(8)
_cell_length_c                   24.356(8)
_cell_angle_alpha                90.00
_cell_angle_beta                 90.00
_cell_angle_gamma                90.00
_cell_volume                     5754(3)
_cell_formula_units_Z            8
_cell_measurement_temperature    293(2)
_cell_measurement_reflns_used    ?
_cell_measurement_theta_min      ?
_cell_measurement_theta_max      ?

_exptl_crystal_description       block
_exptl_crystal_colour            colourless
_exptl_crystal_size_max          0.2
_exptl_crystal_size_mid          0.1
_exptl_crystal_size_min          0.1
_exptl_crystal_density_meas      'not measured'
_exptl_crystal_density_diffrn    1.428
_exptl_crystal_density_method    'not measured'
_exptl_crystal_F_000             2560
_exptl_absorpt_coefficient_mu    1.709
_exptl_absorpt_correction_type   'empirical used sadabs'
_exptl_absorpt_correction_T_min  0.55
_exptl_absorpt_correction_T_max  0.86
_exptl_absorpt_process_details   ?

_exptl_special_details           
;
?
;

_diffrn_ambient_temperature      293(2)
_diffrn_radiation_wavelength     0.71073
_diffrn_radiation_type           MoK\a
_diffrn_radiation_source         'fine-focus sealed tube'
_diffrn_radiation_monochromator  graphite
_diffrn_measurement_device_type  'Bruker SMART CCD area detector'
_diffrn_measurement_method       'phi and omega scans'
_diffrn_detector_area_resol_mean ?
_diffrn_standards_number         ?
_diffrn_standards_interval_count ?
_diffrn_standards_interval_time  5Sec.
_diffrn_standards_decay_%        0
_diffrn_reflns_number            22604
_diffrn_reflns_av_R_equivalents  0.0700
_diffrn_reflns_av_sigmaI/netI    0.0446
_diffrn_reflns_limit_h_min       -11
_diffrn_reflns_limit_h_max       11
_diffrn_reflns_limit_k_min       -28
_diffrn_reflns_limit_k_max       28
_diffrn_reflns_limit_l_min       -28
_diffrn_reflns_limit_l_max       16
_diffrn_reflns_theta_min         1.69
_diffrn_reflns_theta_max         25.01
_reflns_number_total             5055
_reflns_number_gt                2873
_reflns_threshold_expression     >2sigma(I)

_computing_data_collection       'Bruker SMART'
_computing_cell_refinement       'Bruker SAINT'
_computing_data_reduction        'Bruker SAINT'
_computing_structure_solution    'SHELXS-97 (Sheldrick, 1990)'
_computing_structure_refinement  'SHELXL-97 (Sheldrick, 1997)'
_computing_molecular_graphics    'Bruker SHELXTL'
_computing_publication_material  'Bruker SHELXTL'

_refine_special_details          
;
Refinement of F^2^ against ALL reflections. The weighted R-factor wR and
goodness of fit S are based on F^2^, conventional R-factors R are based
on F, with F set to zero for negative F^2^. The threshold expression of
F^2^ > 2sigma(F^2^) is used only for calculating R-factors(gt) etc. and is
not relevant to the choice of reflections for refinement. R-factors based
on F^2^ are statistically about twice as large as those based on F, and R-
factors based on ALL data will be even larger.
;

_refine_ls_structure_factor_coef Fsqd
_refine_ls_matrix_type           full
_refine_ls_weighting_scheme      calc
_refine_ls_weighting_details     
'calc w=1/[\s^2^(Fo^2^)+(0.0802P)^2^+14.4660P] where P=(Fo^2^+2Fc^2^)/3'
_atom_sites_solution_primary     direct
_atom_sites_solution_secondary   difmap
_atom_sites_solution_hydrogens   geom
_refine_ls_hydrogen_treatment    mixed
_refine_ls_extinction_method     none
_refine_ls_extinction_coef       ?
_refine_ls_number_reflns         5055
_refine_ls_number_parameters     334
_refine_ls_number_restraints     16
_refine_ls_R_factor_all          0.1131
_refine_ls_R_factor_gt           0.0608
_refine_ls_wR_factor_ref         0.1858
_refine_ls_wR_factor_gt          0.1514
_refine_ls_goodness_of_fit_ref   1.045
_refine_ls_restrained_S_all      1.052
_refine_ls_shift/su_max          0.001
_refine_ls_shift/su_mean         0.000

loop_
_atom_site_label
_atom_site_type_symbol
_atom_site_fract_x
_atom_site_fract_y
_atom_site_fract_z
_atom_site_U_iso_or_equiv
_atom_site_adp_type
_atom_site_occupancy
_atom_site_symmetry_multiplicity
_atom_site_calc_flag
_atom_site_refinement_flags
_atom_site_disorder_assembly
_atom_site_disorder_group
Zn1 Zn -0.02466(7) 0.17578(3) 0.50056(3) 0.0359(2) Uani 1 1 d . . .
Zn2 Zn -0.00040(8) -0.00059(3) 0.67663(3) 0.0359(2) Uani 1 1 d . . .
N1 N 0.1068(5) 0.2381(2) 0.5158(2) 0.0399(13) Uani 1 1 d . . .
N2 N 0.2909(5) 0.2919(2) 0.5156(2) 0.0400(13) Uani 1 1 d . . .
N3 N -0.0436(6) 0.1318(2) 0.5693(2) 0.0464(14) Uani 1 1 d . . .
N4 N -0.0351(6) 0.0684(2) 0.6357(2) 0.0438(13) Uani 1 1 d . . .
N5 N -0.0362(6) -0.0675(2) 0.6301(2) 0.0410(13) Uani 1 1 d . . .
N6 N -0.0309(6) -0.1327(2) 0.5652(2) 0.0423(13) Uani 1 1 d . . .
N7 N -0.1252(5) -0.0072(2) 0.7411(2) 0.0380(13) Uani 1 1 d . . .
N8 N -0.3091(5) -0.0082(2) 0.7954(2) 0.0396(13) Uani 1 1 d . . .
N9 N 0.4254(9) 0.1476(3) 0.6369(4) 0.092(3) Uani 1 1 d D . .
N10 N -0.3525(10) -0.0152(6) 0.5472(4) 0.154(6) Uani 1 1 d D . .
N11 N -0.2937(13) -0.2143(5) 0.7510(4) 0.143(5) Uani 1 1 d D . .
C1 C 0.2288(6) 0.2467(3) 0.4952(3) 0.0444(15) Uani 1 1 d . . .
H1A H 0.2685 0.2237 0.4691 0.053 Uiso 1 1 calc R . .
C2 C 0.2004(8) 0.3119(3) 0.5522(3) 0.066(2) Uani 1 1 d . . .
H2A H 0.2130 0.3433 0.5738 0.079 Uiso 1 1 calc R . .
C3 C 0.0885(7) 0.2793(3) 0.5526(3) 0.065(2) Uani 1 1 d . . .
H3A H 0.0118 0.2844 0.5745 0.078 Uiso 1 1 calc R . .
C4 C -0.0127(6) 0.0801(3) 0.5825(3) 0.0421(17) Uani 1 1 d . . .
H4A H 0.0212 0.0544 0.5575 0.051 Uiso 1 1 calc R . .
C7 C 0.0106(6) -0.0827(3) 0.5810(3) 0.0425(18) Uani 1 1 d . . .
H7A H 0.0671 -0.0604 0.5597 0.051 Uiso 1 1 calc R . .
C8 C -0.1081(9) -0.1513(3) 0.6076(3) 0.067(2) Uani 1 1 d . . .
H8A H -0.1516 -0.1856 0.6093 0.081 Uiso 1 1 calc R . .
C9 C -0.1114(9) -0.1122(3) 0.6467(3) 0.063(2) Uani 1 1 d . . .
H9A H -0.1576 -0.1150 0.6799 0.076 Uiso 1 1 calc R . .
C10 C -0.2541(6) 0.0093(3) 0.7484(3) 0.0401(16) Uani 1 1 d . . .
H10A H -0.3010 0.0310 0.7231 0.048 Uiso 1 1 calc R . .
C11 C -0.0966(7) -0.0375(3) 0.7876(3) 0.0537(19) Uani 1 1 d . . .
H11A H -0.0148 -0.0555 0.7950 0.064 Uiso 1 1 calc R . .
C12 C -0.2076(7) -0.0365(3) 0.8206(3) 0.057(2) Uani 1 1 d . . .
H12A H -0.2133 -0.0528 0.8552 0.068 Uiso 1 1 calc R . .
C13 C 0.2899(17) 0.1326(9) 0.6180(9) 0.268(12) Uani 1 1 d . . .
H13A H 0.2503 0.1064 0.6430 0.403 Uiso 1 1 calc R . .
H13B H 0.2960 0.1163 0.5821 0.403 Uiso 1 1 calc R . .
H13C H 0.2338 0.1652 0.6164 0.403 Uiso 1 1 calc R . .
C14 C 0.5009(18) 0.1853(7) 0.6081(7) 0.221(10) Uani 1 1 d . . .
H14A H 0.5879 0.1901 0.6257 0.332 Uiso 1 1 calc R . .
H14B H 0.4537 0.2202 0.6072 0.332 Uiso 1 1 calc R . .
H14C H 0.5144 0.1721 0.5713 0.332 Uiso 1 1 calc R . .
C15 C 0.4541(15) 0.1186(6) 0.6873(6) 0.165(6) Uani 1 1 d D . .
H15A H 0.3917 0.0964 0.7058 0.198 Uiso 1 1 calc R . .
C16 C -0.379(2) 0.0197(9) 0.5954(8) 0.265(12) Uani 1 1 d D . .
H16A H -0.3444 0.0564 0.5889 0.397 Uiso 1 1 calc R . .
H16B H -0.3339 0.0040 0.6268 0.397 Uiso 1 1 calc R . .
H16C H -0.4752 0.0214 0.6021 0.397 Uiso 1 1 calc R . .
C17 C -0.411(2) -0.0689(10) 0.5668(12) 0.39(2) Uani 1 1 d D . .
H17A H -0.4024 -0.0963 0.5384 0.580 Uiso 1 1 calc R . .
H17B H -0.5054 -0.0639 0.5758 0.580 Uiso 1 1 calc R . .
H17C H -0.3622 -0.0810 0.5989 0.580 Uiso 1 1 calc R . .
C18 C -0.2205(16) -0.0147(12) 0.5186(7) 0.88(7) Uani 1 1 d D . .
H18A H -0.1360 -0.0246 0.5329 1.055 Uiso 1 1 calc R . .
C19 C -0.357(3) -0.1644(9) 0.7752(9) 0.50(4) Uani 1 1 d D . .
H19A H -0.4093 -0.1456 0.7477 0.757 Uiso 1 1 calc R . .
H19B H -0.2864 -0.1401 0.7886 0.757 Uiso 1 1 calc R . .
H19C H -0.4150 -0.1751 0.8050 0.757 Uiso 1 1 calc R . .
C20 C -0.300(2) -0.2388(7) 0.6960(7) 0.34(2) Uani 1 1 d D . .
H20A H -0.2596 -0.2710 0.6826 0.411 Uiso 1 1 calc R . .
C21 C -0.221(3) -0.2358(13) 0.8011(9) 0.48(3) Uani 1 1 d D . .
H21A H -0.1724 -0.2692 0.7919 0.718 Uiso 1 1 calc R . .
H21B H -0.2861 -0.2436 0.8294 0.718 Uiso 1 1 calc R . .
H21C H -0.1573 -0.2084 0.8139 0.718 Uiso 1 1 calc R . .
O1 O 0.5734(11) 0.1271(6) 0.7031(5) 0.175(5) Uani 1 1 d D . .
O2 O -0.2461(12) 0.0021(4) 0.4706(5) 0.173(4) Uani 1 1 d D . .
O3 O -0.3747(19) -0.2034(8) 0.6716(7) 0.299(12) Uani 1 1 d D . .
C5 C -0.0861(12) 0.1162(4) 0.6567(3) 0.089(3) Uani 1 1 d . . .
H5A H -0.1127 0.1218 0.6929 0.107 Uiso 1 1 calc R . .
C6 C -0.0917(12) 0.1541(4) 0.6162(3) 0.098(4) Uani 1 1 d . . .
H6A H -0.1240 0.1902 0.6200 0.118 Uiso 1 1 calc R . .

loop_
_atom_site_aniso_label
_atom_site_aniso_U_11
_atom_site_aniso_U_22
_atom_site_aniso_U_33
_atom_site_aniso_U_23
_atom_site_aniso_U_13
_atom_site_aniso_U_12
Zn1 0.0391(4) 0.0362(4) 0.0325(4) 0.0001(4) 0.0006(4) 0.0008(3)
Zn2 0.0373(4) 0.0433(4) 0.0271(4) -0.0005(4) 0.0002(3) 0.0010(3)
N1 0.041(3) 0.041(3) 0.037(3) -0.004(2) 0.004(2) -0.004(2)
N2 0.040(3) 0.037(3) 0.042(3) -0.005(2) 0.001(2) -0.006(2)
N3 0.065(4) 0.041(3) 0.033(3) 0.006(3) 0.008(3) 0.006(3)
N4 0.057(3) 0.045(3) 0.030(3) 0.002(3) 0.005(3) 0.008(3)
N5 0.046(3) 0.046(3) 0.030(3) -0.006(3) 0.002(3) -0.004(3)
N6 0.050(3) 0.041(3) 0.036(3) -0.002(3) 0.005(3) -0.001(3)
N7 0.039(3) 0.048(3) 0.027(3) -0.001(2) 0.002(2) 0.002(2)
N8 0.037(3) 0.053(4) 0.029(3) 0.003(3) 0.000(2) 0.002(2)
N9 0.100(6) 0.084(6) 0.092(6) 0.031(5) -0.013(5) -0.020(5)
N10 0.074(6) 0.311(19) 0.076(7) 0.012(9) -0.011(6) 0.015(9)
N11 0.141(9) 0.176(12) 0.112(8) -0.026(8) 0.039(7) -0.081(9)
C1 0.044(3) 0.043(4) 0.046(4) -0.008(3) 0.002(4) 0.000(3)
C2 0.064(5) 0.067(6) 0.066(5) -0.033(4) 0.015(4) -0.015(4)
C3 0.049(4) 0.075(6) 0.070(5) -0.027(5) 0.022(4) -0.010(4)
C4 0.049(4) 0.045(4) 0.032(4) 0.002(3) 0.006(3) 0.006(3)
C7 0.048(4) 0.040(4) 0.039(4) 0.000(3) 0.010(3) -0.007(3)
C8 0.093(6) 0.060(5) 0.048(4) -0.016(4) 0.016(4) -0.022(5)
C9 0.089(6) 0.061(5) 0.039(4) -0.004(4) 0.023(4) -0.022(4)
C10 0.037(3) 0.056(5) 0.028(3) 0.002(3) -0.002(3) 0.005(3)
C11 0.044(4) 0.078(6) 0.038(4) 0.017(4) -0.003(3) 0.010(4)
C12 0.052(4) 0.085(6) 0.033(4) 0.019(4) 0.008(3) 0.008(4)
C13 0.125(14) 0.28(2) 0.40(3) -0.09(2) -0.077(18) -0.050(15)
C14 0.28(2) 0.190(17) 0.196(18) 0.111(15) 0.085(16) -0.031(15)
C15 0.173(17) 0.152(15) 0.171(17) 0.016(13) 0.019(15) 0.005(14)
C16 0.19(2) 0.36(3) 0.24(3) -0.12(2) 0.01(2) -0.01(2)
C17 0.25(3) 0.40(5) 0.51(6) 0.14(5) -0.12(4) 0.04(3)
C18 1.2(2) 1.30(19) 0.18(4) 0.15(6) -0.04(7) -0.514
C19 0.38(5) 0.27(3) 0.86(10) -0.31(5) 0.39(6) -0.15(3)
C20 0.43(5) 0.18(2) 0.42(4) -0.21(3) 0.27(4) -0.20(2)
C21 0.40(5) 0.74(9) 0.30(4) 0.06(5) -0.14(4) -0.27(6)
O1 0.124(8) 0.261(14) 0.141(9) 0.026(9) -0.016(7) 0.013(9)
O2 0.146(9) 0.185(11) 0.187(11) -0.017(8) 0.027(9) -0.033(7)
O3 0.203(15) 0.35(3) 0.35(2) 0.16(2) -0.066(15) -0.148(16)
C5 0.165(10) 0.064(6) 0.040(5) 0.009(4) 0.028(6) 0.031(6)
C6 0.189(12) 0.048(5) 0.059(6) 0.007(4) 0.049(7) 0.035(6)

_geom_special_details            
;
All esds (except the esd in the dihedral angle between two l.s. planes)
are estimated using the full covariance matrix. The cell esds are taken
into account individually in the estimation of esds in distances, angles
and torsion angles; correlations between esds in cell parameters are only
used when they are defined by crystal symmetry. An approximate (isotropic)
treatment of cell esds is used for estimating esds involving l.s. planes.
;

loop_
_geom_bond_atom_site_label_1
_geom_bond_atom_site_label_2
_geom_bond_distance
_geom_bond_site_symmetry_2
_geom_bond_publ_flag
Zn1 N6 1.986(5) 5_556 ?
Zn1 N3 1.990(5) . ?
Zn1 N2 2.007(5) 4_456 ?
Zn1 N1 2.013(5) . ?
Zn2 N4 1.969(5) . ?
Zn2 N7 1.997(5) . ?
Zn2 N5 2.002(5) . ?
Zn2 N8 2.003(5) 6_657 ?
N1 C1 1.313(8) . ?
N1 C3 1.352(8) . ?
N2 C1 1.344(8) . ?
N2 C2 1.348(8) . ?
N2 Zn1 2.007(5) 4_556 ?
N3 C4 1.323(8) . ?
N3 C6 1.347(9) . ?
N4 C4 1.343(8) . ?
N4 C5 1.356(9) . ?
N5 C7 1.333(8) . ?
N5 C9 1.365(9) . ?
N6 C7 1.328(8) . ?
N6 C8 1.357(9) . ?
N6 Zn1 1.986(5) 5_556 ?
N7 C10 1.335(8) . ?
N7 C11 1.376(8) . ?
N8 C10 1.333(7) . ?
N8 C12 1.354(8) . ?
N8 Zn2 2.003(5) 6_557 ?
N9 C14 1.366(14) . ?
N9 C15 1.441(9) . ?
N9 C13 1.451(16) . ?
N10 C16 1.467(9) . ?
N10 C18 1.469(10) . ?
N10 C17 1.495(10) . ?
N11 C20 1.466(10) . ?
N11 C19 1.475(9) . ?
N11 C21 1.505(9) . ?
C2 C3 1.349(10) . ?
C8 C9 1.340(10) . ?
C11 C12 1.354(9) . ?
C15 O1 1.248(9) . ?
C18 O2 1.262(10) . ?
C20 O3 1.272(10) . ?
C5 C6 1.345(11) . ?

loop_
_geom_angle_atom_site_label_1
_geom_angle_atom_site_label_2
_geom_angle_atom_site_label_3
_geom_angle
_geom_angle_site_symmetry_1
_geom_angle_site_symmetry_3
_geom_angle_publ_flag
N6 Zn1 N3 115.3(2) 5_556 . ?
N6 Zn1 N2 107.0(2) 5_556 4_456 ?
N3 Zn1 N2 106.7(2) . 4_456 ?
N6 Zn1 N1 111.3(2) 5_556 . ?
N3 Zn1 N1 107.6(2) . . ?
N2 Zn1 N1 108.9(2) 4_456 . ?
N4 Zn2 N7 111.1(2) . . ?
N4 Zn2 N5 111.3(2) . . ?
N7 Zn2 N5 105.9(2) . . ?
N4 Zn2 N8 114.3(2) . 6_657 ?
N7 Zn2 N8 107.4(2) . 6_657 ?
N5 Zn2 N8 106.4(2) . 6_657 ?
C1 N1 C3 104.9(6) . . ?
C1 N1 Zn1 129.1(4) . . ?
C3 N1 Zn1 125.9(5) . . ?
C1 N2 C2 103.7(6) . . ?
C1 N2 Zn1 130.6(4) . 4_556 ?
C2 N2 Zn1 125.7(5) . 4_556 ?
C4 N3 C6 104.4(6) . . ?
C4 N3 Zn1 133.2(5) . . ?
C6 N3 Zn1 122.3(5) . . ?
C4 N4 C5 104.2(6) . . ?
C4 N4 Zn2 129.6(5) . . ?
C5 N4 Zn2 126.2(5) . . ?
C7 N5 C9 103.5(6) . . ?
C7 N5 Zn2 132.0(5) . . ?
C9 N5 Zn2 124.2(5) . . ?
C7 N6 C8 104.6(6) . . ?
C7 N6 Zn1 128.5(5) . 5_556 ?
C8 N6 Zn1 126.5(5) . 5_556 ?
C10 N7 C11 104.0(5) . . ?
C10 N7 Zn2 131.3(4) . . ?
C11 N7 Zn2 124.3(4) . . ?
C10 N8 C12 104.5(5) . . ?
C10 N8 Zn2 129.9(4) . 6_557 ?
C12 N8 Zn2 125.4(4) . 6_557 ?
C14 N9 C15 130.8(12) . . ?
C14 N9 C13 120.0(14) . . ?
C15 N9 C13 109.2(12) . . ?
C16 N10 C18 121.9(13) . . ?
C16 N10 C17 99.9(18) . . ?
C18 N10 C17 119.7(13) . . ?
C20 N11 C19 132.6(10) . . ?
C20 N11 C21 128.5(11) . . ?
C19 N11 C21 98.9(8) . . ?
N1 C1 N2 113.6(6) . . ?
N2 C2 C3 109.4(7) . . ?
C2 C3 N1 108.4(6) . . ?
N3 C4 N4 113.3(6) . . ?
N6 C7 N5 113.8(6) . . ?
C9 C8 N6 108.7(7) . . ?
C8 C9 N5 109.5(7) . . ?
N8 C10 N7 113.8(6) . . ?
C12 C11 N7 108.4(6) . . ?
C11 C12 N8 109.3(6) . . ?
O1 C15 N9 111.5(12) . . ?
O2 C18 N10 105.4(10) . . ?
O3 C20 N11 100.4(11) . . ?
C6 C5 N4 108.4(7) . . ?
C5 C6 N3 109.7(7) . . ?

_diffrn_measured_fraction_theta_max 0.996
_diffrn_reflns_theta_full        25.01
_diffrn_measured_fraction_theta_full 0.996
_refine_diff_density_max         1.265
_refine_diff_density_min         -0.525
_refine_diff_density_rms         0.098
