####################################################################### 
# 
# This file contains crystal structure data downloaded from the 
# Cambridge Structural Database (CSD) hosted by the Cambridge 
# Crystallographic Data Centre (CCDC).
# 
# Full information about CCDC data access policies and citation 
# guidelines are available at http://www.ccdc.cam.ac.uk/access/V1 
# 
# Audit and citation data items may have been added by the CCDC. 
# Please retain this information to preserve the provenance of 
# this file and to allow appropriate attribution of the data. 
# 
#######################################################################

data_MER-ZIF-10
_audit_block_doi                 10.5517/ccn6zxq
_database_code_depnum_ccdc_archive 'CCDC 602544'
loop_
_citation_id
_citation_doi
_citation_year
1 10.1073/pnas.0602439103 2006
_audit_update_record             
;
2006-03-22 deposited with the CCDC.	2024-07-13 downloaded from the CCDC.
;

_audit_creation_method           SHELXL-97
_chemical_name_systematic        
;
ZIF-10
;
_chemical_name_common            ZIF-10
_chemical_melting_point          ?
_chemical_formula_moiety         'C6 H6 N4 O0.69 Zn'
_chemical_formula_sum            'C6 H6 N4 O0.69 Zn'
_chemical_formula_weight         210.52

loop_
_atom_type_symbol
_atom_type_description
_atom_type_scat_dispersion_real
_atom_type_scat_dispersion_imag
_atom_type_scat_source
C C 0.0033 0.0016 'International Tables Vol C Tables 4.2.6.8 and 6.1.1.4'
N N 0.0061 0.0033 'International Tables Vol C Tables 4.2.6.8 and 6.1.1.4'
O O 0.0106 0.0060 'International Tables Vol C Tables 4.2.6.8 and 6.1.1.4'
Zn Zn 0.2839 1.4301 'International Tables Vol C Tables 4.2.6.8 and 6.1.1.4'
H H 0.0000 0.0000 'International Tables Vol C Tables 4.2.6.8 and 6.1.1.4'

_symmetry_cell_setting           Tetragonal
_symmetry_space_group_name_H-M   I4/mmm

loop_
_symmetry_equiv_pos_as_xyz
'x, y, z'
'-x, -y, z'
'-y, x, z'
'y, -x, z'
'-x, y, -z'
'x, -y, -z'
'y, x, -z'
'-y, -x, -z'
'x+1/2, y+1/2, z+1/2'
'-x+1/2, -y+1/2, z+1/2'
'-y+1/2, x+1/2, z+1/2'
'y+1/2, -x+1/2, z+1/2'
'-x+1/2, y+1/2, -z+1/2'
'x+1/2, -y+1/2, -z+1/2'
'y+1/2, x+1/2, -z+1/2'
'-y+1/2, -x+1/2, -z+1/2'
'-x, -y, -z'
'x, y, -z'
'y, -x, -z'
'-y, x, -z'
'x, -y, z'
'-x, y, z'
'-y, -x, z'
'y, x, z'
'-x+1/2, -y+1/2, -z+1/2'
'x+1/2, y+1/2, -z+1/2'
'y+1/2, -x+1/2, -z+1/2'
'-y+1/2, x+1/2, -z+1/2'
'x+1/2, -y+1/2, z+1/2'
'-x+1/2, y+1/2, z+1/2'
'-y+1/2, -x+1/2, z+1/2'
'y+1/2, x+1/2, z+1/2'

_cell_length_a                   27.0608(18)
_cell_length_b                   27.0608(18)
_cell_length_c                   19.406(3)
_cell_angle_alpha                90.00
_cell_angle_beta                 90.00
_cell_angle_gamma                90.00
_cell_volume                     14211(2)
_cell_formula_units_Z            32
_cell_measurement_temperature    223(2)
_cell_measurement_reflns_used    999
_cell_measurement_theta_min      5
_cell_measurement_theta_max      20

_exptl_crystal_description       block
_exptl_crystal_colour            colourless
_exptl_crystal_size_max          0.2
_exptl_crystal_size_mid          0.1
_exptl_crystal_size_min          0.1
_exptl_crystal_density_meas      ?
_exptl_crystal_density_diffrn    0.787
_exptl_crystal_density_method    'not measured'
_exptl_crystal_F_000             3376
_exptl_absorpt_coefficient_mu    1.359
_exptl_absorpt_correction_type   multi-scan
_exptl_absorpt_correction_T_min  0.850
_exptl_absorpt_correction_T_max  0.873
_exptl_absorpt_process_details   'Blessing, Acta Cryst. (1995) A51 33-58'

_exptl_special_details           
;
Crystal was mounted in a flame sealed capillary containing a very
small amount of mother liquor. Mounted crystal was slow cooled to
-50 C.
;

_diffrn_ambient_temperature      223(2)
_diffrn_radiation_wavelength     0.71073
_diffrn_radiation_type           MoK\a
_diffrn_radiation_source         'fine-focus sealed tube'
_diffrn_radiation_monochromator  graphite
_diffrn_measurement_device_type  ?
_diffrn_measurement_method       ?
_diffrn_detector_area_resol_mean ?
_diffrn_standards_number         ?
_diffrn_standards_interval_count ?
_diffrn_standards_interval_time  ?
_diffrn_standards_decay_%        ?
_diffrn_reflns_number            66076
_diffrn_reflns_av_R_equivalents  0.1371
_diffrn_reflns_av_sigmaI/netI    0.0785
_diffrn_reflns_limit_h_min       -33
_diffrn_reflns_limit_h_max       33
_diffrn_reflns_limit_k_min       -33
_diffrn_reflns_limit_k_max       33
_diffrn_reflns_limit_l_min       -24
_diffrn_reflns_limit_l_max       24
_diffrn_reflns_theta_min         1.06
_diffrn_reflns_theta_max         26.37
_reflns_number_total             3998
_reflns_number_gt                1771
_reflns_threshold_expression     >2sigma(I)

_computing_data_collection       BrukerSMART
_computing_cell_refinement       BrukerCELLNOW
_computing_data_reduction        BrukerSAINT
_computing_structure_solution    'SHELXS-97 (Sheldrick, 1990)'
_computing_structure_refinement  'SHELXL-97 (Sheldrick, 1997)'
_computing_molecular_graphics    Crystalmaker
_computing_publication_material  WinGX

_refine_special_details          
;
Refinement of F^2^ against ALL reflections. The weighted R-factor wR and
goodness of fit S are based on F^2^, conventional R-factors R are based
on F, with F set to zero for negative F^2^. The threshold expression of
F^2^ > 2sigma(F^2^) is used only for calculating R-factors(gt) etc. and is
not relevant to the choice of reflections for refinement. R-factors based
on F^2^ are statistically about twice as large as those based on F, and R-
factors based on ALL data will be even larger.

As an open structure, there are many highly disordered solvent molecules
contained within the cavities of the structure. These molecules could not be
resolved from F-maps, therefore residual electron density in these parts of the
structures is modeled as isolated oxygen atoms. Lower data collection
temperatures did not ameloriate the ordering of these molecules and hence
their refinement.

C5 and C8 are disordered over 2 sites and have been isotropically refined
with a ca. 50 % population calculated for each site.

;

_refine_ls_structure_factor_coef Fsqd
_refine_ls_matrix_type           full
_refine_ls_weighting_scheme      calc
_refine_ls_weighting_details     
'calc w=1/[\s^2^(Fo^2^)+(0.1200P)^2^+0.0000P] where P=(Fo^2^+2Fc^2^)/3'
_atom_sites_solution_primary     direct
_atom_sites_solution_secondary   difmap
_atom_sites_solution_hydrogens   geom
_refine_ls_hydrogen_treatment    constr
_refine_ls_extinction_method     none
_refine_ls_extinction_coef       ?
_refine_ls_number_reflns         3998
_refine_ls_number_parameters     118
_refine_ls_number_restraints     0
_refine_ls_R_factor_all          0.1291
_refine_ls_R_factor_gt           0.0636
_refine_ls_wR_factor_ref         0.2457
_refine_ls_wR_factor_gt          0.2183
_refine_ls_goodness_of_fit_ref   1.059
_refine_ls_restrained_S_all      1.059
_refine_ls_shift/su_max          0.059
_refine_ls_shift/su_mean         0.004

loop_
_atom_site_label
_atom_site_type_symbol
_atom_site_fract_x
_atom_site_fract_y
_atom_site_fract_z
_atom_site_U_iso_or_equiv
_atom_site_adp_type
_atom_site_occupancy
_atom_site_symmetry_multiplicity
_atom_site_calc_flag
_atom_site_refinement_flags
_atom_site_disorder_assembly
_atom_site_disorder_group
C1 C 0.3671(3) 0.1045(3) 0.2279(5) 0.109(3) Uani 1 1 d . . .
H1 H 0.3756 0.0732 0.2106 0.131 Uiso 1 1 calc R . .
C2 C 0.3282(3) 0.1718(3) 0.2500 0.072(3) Uani 1 2 d S . .
H2 H 0.3036 0.1964 0.2500 0.086 Uiso 1 2 calc SR . .
C3 C 0.1874(2) 0.1874(2) 0.1477(5) 0.064(2) Uani 1 2 d S . .
H3 H 0.1936 0.1936 0.1009 0.077 Uiso 1 2 calc SR . .
C4 C 0.1918(3) 0.1576(3) 0.2479(4) 0.103(3) Uani 1 1 d . . .
H4 H 0.2013 0.1386 0.2863 0.123 Uiso 1 1 calc R . .
C5A C 0.2136(10) 0.0255(8) 0.2226(19) 0.166(14) Uiso 0.48(3) 1 d P . 2
H5A H 0.1953 0.0464 0.2516 0.199 Uiso 0.48(3) 1 calc PR . 2
C5B C 0.2009(8) 0.0250(6) 0.1709(11) 0.103(8) Uiso 0.52(3) 1 d P . 3
H5B H 0.1728 0.0454 0.1734 0.124 Uiso 0.52(3) 1 calc PR . 3
C8A C 0.3158(8) 0.1635(10) 0.0354(8) 0.080(7) Uiso 0.48(4) 1 d P . 4
H8A H 0.3324 0.1860 0.0641 0.097 Uiso 0.48(4) 1 calc PR . 4
C8B C 0.3327(10) 0.1419(10) 0.0358(8) 0.103(8) Uiso 0.52(4) 1 d P . 5
H8B H 0.3586 0.1523 0.0646 0.124 Uiso 0.52(4) 1 calc PR . 5
C6 C 0.2684(4) 0.0000 0.1521(5) 0.076(3) Uani 1 2 d S . .
H6 H 0.2990 0.0000 0.1292 0.091 Uiso 1 2 calc SR . .
C7 C 0.2654(4) 0.1075(4) 0.0000 0.068(3) Uani 1 2 d S . .
H7 H 0.2379 0.0864 0.0000 0.082 Uiso 1 2 calc SR . .
N1 N 0.3242(2) 0.1300(2) 0.2134(3) 0.0690(15) Uani 1 1 d . . .
N2 N 0.2114(2) 0.1538(2) 0.1832(3) 0.0667(15) Uani 1 1 d . . .
N3 N 0.2488(2) 0.0409(2) 0.1668(3) 0.0805(17) Uani 1 1 d . . .
N4 N 0.2861(2) 0.1233(2) 0.0571(3) 0.0675(15) Uani 1 1 d . . .
Zn1 Zn 0.26787(3) 0.11096(3) 0.15461(4) 0.0613(3) Uani 1 1 d . . .
O1 O 0.3917(15) 0.0000 0.0000 0.224(18) Uiso 0.50 4 d SP . .
O2 O 0.3924(9) 0.0000 0.1341(13) 0.183(10) Uiso 0.50 2 d SP . .
O3 O 0.5000 0.0000 0.2500 0.24(3) Uiso 0.50 8 d SP . .
O4 O 0.306(2) 0.0000 0.380(3) 0.20(2) Uiso 0.25 2 d SP . .
O5 O 0.303(2) 0.303(2) 0.0000 0.20(3) Uiso 0.25 4 d SP . .
O6 O 0.1270(18) 0.1270(18) 0.0000 0.18(2) Uiso 0.25 4 d SP . .

loop_
_atom_site_aniso_label
_atom_site_aniso_U_11
_atom_site_aniso_U_22
_atom_site_aniso_U_33
_atom_site_aniso_U_23
_atom_site_aniso_U_13
_atom_site_aniso_U_12
C1 0.093(6) 0.093(6) 0.141(8) -0.046(5) -0.039(5) 0.040(5)
C2 0.069(4) 0.069(4) 0.078(6) -0.009(4) -0.009(4) 0.011(5)
C3 0.067(4) 0.067(4) 0.057(5) 0.001(3) 0.001(3) 0.007(5)
C4 0.126(7) 0.115(6) 0.066(4) 0.021(5) 0.014(5) 0.052(5)
C6 0.080(7) 0.054(6) 0.094(8) 0.000 0.030(6) 0.000
C7 0.066(6) 0.083(7) 0.056(5) 0.000 0.000 -0.013(5)
N1 0.077(4) 0.065(4) 0.066(3) -0.012(3) -0.012(3) 0.009(3)
N2 0.073(4) 0.063(4) 0.063(3) 0.001(3) -0.004(3) 0.020(3)
N3 0.085(4) 0.054(3) 0.103(5) -0.002(3) 0.021(4) -0.003(3)
N4 0.070(4) 0.071(4) 0.062(3) 0.000(3) 0.000(3) -0.004(3)
Zn1 0.0746(6) 0.0513(5) 0.0580(5) -0.0046(4) -0.0077(4) 0.0086(4)

_geom_special_details            
;
All esds (except the esd in the dihedral angle between two l.s. planes)
are estimated using the full covariance matrix. The cell esds are taken
into account individually in the estimation of esds in distances, angles
and torsion angles; correlations between esds in cell parameters are only
used when they are defined by crystal symmetry. An approximate (isotropic)
treatment of cell esds is used for estimating esds involving l.s. planes.
;

loop_
_geom_bond_atom_site_label_1
_geom_bond_atom_site_label_2
_geom_bond_distance
_geom_bond_site_symmetry_2
_geom_bond_publ_flag
C1 N1 1.379(8) . ?
C1 C1 1.385(14) 16 ?
C1 H1 0.9400 . ?
C2 N1 1.342(7) . ?
C2 N1 1.342(7) 16 ?
C2 H2 0.9400 . ?
C3 N2 1.314(6) . ?
C3 N2 1.314(6) 24 ?
C3 H3 0.9400 . ?
C4 N2 1.368(8) . ?
C4 C4 1.309(14) 24 ?
C4 H4 0.9400 . ?
C5A C5A 1.38(4) 21 ?
C5A N3 1.50(3) . ?
C5A H5A 0.9400 . ?
C5B C5B 1.36(3) 21 ?
C5B N3 1.37(2) . ?
C5B H5B 0.9400 . ?
C8A C8A 1.37(3) 18 ?
C8A N4 1.416(19) . ?
C8A H8A 0.9400 . ?
C8B N4 1.42(2) . ?
C8B C8B 1.39(3) 18 ?
C8B H8B 0.9400 . ?
C6 N3 1.261(7) . ?
C6 N3 1.261(7) 21 ?
C6 C5B 1.98(2) 21 ?
C6 H6 0.9400 . ?
C7 N4 1.313(7) . ?
C7 N4 1.313(7) 18 ?
C7 H7 0.9400 . ?
N1 Zn1 1.972(5) . ?
N2 Zn1 1.996(5) . ?
N3 Zn1 1.978(6) . ?
N4 Zn1 1.984(5) . ?

loop_
_geom_angle_atom_site_label_1
_geom_angle_atom_site_label_2
_geom_angle_atom_site_label_3
_geom_angle
_geom_angle_site_symmetry_1
_geom_angle_site_symmetry_3
_geom_angle_publ_flag
N1 C1 C1 108.4(4) . 16 ?
N1 C1 H1 125.8 . . ?
C1 C1 H1 125.8 16 . ?
N1 C2 N1 114.6(9) . 16 ?
N1 C2 H2 122.7 . . ?
N1 C2 H2 122.7 16 . ?
N2 C3 N2 114.2(9) . 24 ?
N2 C3 H3 122.9 . . ?
N2 C3 H3 122.9 24 . ?
N2 C4 C4 109.2(4) . 24 ?
N2 C4 H4 125.4 . . ?
C4 C4 H4 125.4 24 . ?
C5A C5A N3 106.1(9) 21 . ?
C5A C5A H5A 126.9 21 . ?
N3 C5A H5A 126.9 . . ?
C5B C5B N3 108.3(7) 21 . ?
C5B C5B H5B 125.8 21 . ?
N3 C5B H5B 125.8 . . ?
C8A C8A N4 107.3(7) 18 . ?
C8A C8A H8A 126.4 18 . ?
N4 C8A H8A 126.4 . . ?
N4 C8B C8B 106.9(7) . 18 ?
N4 C8B H8B 126.5 . . ?
C8B C8B H8B 126.5 18 . ?
N3 C6 N3 123.0(10) . 21 ?
N3 C6 C5B 82.6(8) . 21 ?
N3 C6 C5B 43.1(6) 21 21 ?
N3 C6 H6 118.5 . . ?
N3 C6 H6 118.5 21 . ?
C5B C6 H6 154.0 21 . ?
N4 C7 N4 115.1(9) . 18 ?
N4 C7 H7 122.5 . . ?
N4 C7 H7 122.5 18 . ?
C2 N1 C1 104.3(6) . . ?
C2 N1 Zn1 126.1(5) . . ?
C1 N1 Zn1 129.6(5) . . ?
C3 N2 C4 103.7(6) . . ?
C3 N2 Zn1 129.4(5) . . ?
C4 N2 Zn1 126.6(4) . . ?
C6 N3 C5B 97.8(9) . . ?
C6 N3 C5A 100.7(11) . . ?
C5B N3 C5A 43.0(10) . . ?
C6 N3 Zn1 134.8(6) . . ?
C5B N3 Zn1 123.7(8) . . ?
C5A N3 Zn1 121.2(10) . . ?
C7 N4 C8B 104.4(9) . . ?
C7 N4 C8A 104.0(9) . . ?
C8B N4 C8A 30.3(8) . . ?
C7 N4 Zn1 130.1(5) . . ?
C8B N4 Zn1 124.0(8) . . ?
C8A N4 Zn1 123.6(8) . . ?
N1 Zn1 N2 106.2(2) . . ?
N1 Zn1 N4 108.4(2) . . ?
N2 Zn1 N4 111.0(2) . . ?
N1 Zn1 N3 112.5(3) . . ?
N2 Zn1 N3 108.9(2) . . ?
N4 Zn1 N3 109.9(2) . . ?

loop_
_geom_torsion_atom_site_label_1
_geom_torsion_atom_site_label_2
_geom_torsion_atom_site_label_3
_geom_torsion_atom_site_label_4
_geom_torsion
_geom_torsion_site_symmetry_1
_geom_torsion_site_symmetry_2
_geom_torsion_site_symmetry_3
_geom_torsion_site_symmetry_4
_geom_torsion_publ_flag
N1 C2 N1 C1 0.3(5) 16 . . . ?
N1 C2 N1 Zn1 179.3(5) 16 . . . ?
C1 C1 N1 C2 -0.9(12) 16 . . . ?
C1 C1 N1 Zn1 -179.8(7) 16 . . . ?
N2 C3 N2 C4 -1.2(11) 24 . . . ?
N2 C3 N2 Zn1 -175.9(3) 24 . . . ?
C4 C4 N2 C3 0.7(6) 24 . . . ?
C4 C4 N2 Zn1 175.6(3) 24 . . . ?
N3 C6 N3 C5B -23.6(16) 21 . . . ?
C5B C6 N3 C5B -7.6(5) 21 . . . ?
N3 C6 N3 C5A 19.9(19) 21 . . . ?
C5B C6 N3 C5A 35.9(11) 21 . . . ?
N3 C6 N3 Zn1 178.5(4) 21 . . . ?
C5B C6 N3 Zn1 -165.4(9) 21 . . . ?
C5B C5B N3 C6 11.6(8) 21 . . . ?
C5B C5B N3 C5A -85.8(17) 21 . . . ?
C5B C5B N3 Zn1 172.9(4) 21 . . . ?
C5A C5A N3 C6 -9.7(9) 21 . . . ?
C5A C5A N3 C5B 80.2(16) 21 . . . ?
C5A C5A N3 Zn1 -172.2(5) 21 . . . ?
N4 C7 N4 C8B -15.4(17) 18 . . . ?
N4 C7 N4 C8A 15.9(16) 18 . . . ?
N4 C7 N4 Zn1 178.7(3) 18 . . . ?
C8B C8B N4 C7 8.6(9) 18 . . . ?
C8B C8B N4 C8A -85(2) 18 . . . ?
C8B C8B N4 Zn1 175.6(5) 18 . . . ?
C8A C8A N4 C7 -8.9(9) 18 . . . ?
C8A C8A N4 C8B 86(2) 18 . . . ?
C8A C8A N4 Zn1 -173.1(5) 18 . . . ?
C2 N1 Zn1 N2 -17.5(5) . . . . ?
C1 N1 Zn1 N2 161.2(7) . . . . ?
C2 N1 Zn1 N4 101.8(4) . . . . ?
C1 N1 Zn1 N4 -79.5(8) . . . . ?
C2 N1 Zn1 N3 -136.5(4) . . . . ?
C1 N1 Zn1 N3 42.2(8) . . . . ?
C3 N2 Zn1 N1 116.3(7) . . . . ?
C4 N2 Zn1 N1 -57.2(7) . . . . ?
C3 N2 Zn1 N4 -1.3(7) . . . . ?
C4 N2 Zn1 N4 -174.8(6) . . . . ?
C3 N2 Zn1 N3 -122.4(7) . . . . ?
C4 N2 Zn1 N3 64.1(7) . . . . ?
C7 N4 Zn1 N1 164.5(7) . . . . ?
C8B N4 Zn1 N1 1.0(16) . . . . ?
C8A N4 Zn1 N1 -35.7(14) . . . . ?
C7 N4 Zn1 N2 -79.3(7) . . . . ?
C8B N4 Zn1 N2 117.2(16) . . . . ?
C8A N4 Zn1 N2 80.5(14) . . . . ?
C7 N4 Zn1 N3 41.2(8) . . . . ?
C8B N4 Zn1 N3 -122.3(16) . . . . ?
C8A N4 Zn1 N3 -159.0(14) . . . . ?
C6 N3 Zn1 N1 -69.1(10) . . . . ?
C5B N3 Zn1 N1 137.6(11) . . . . ?
C5A N3 Zn1 N1 86.2(15) . . . . ?
C6 N3 Zn1 N2 173.5(9) . . . . ?
C5B N3 Zn1 N2 20.2(12) . . . . ?
C5A N3 Zn1 N2 -31.2(15) . . . . ?
C6 N3 Zn1 N4 51.8(10) . . . . ?
C5B N3 Zn1 N4 -101.5(12) . . . . ?
C5A N3 Zn1 N4 -152.9(15) . . . . ?

_diffrn_measured_fraction_theta_max 0.992
_diffrn_reflns_theta_full        26.37
_diffrn_measured_fraction_theta_full 0.992
_refine_diff_density_max         0.557
_refine_diff_density_min         -0.501
_refine_diff_density_rms         0.119
