####################################################################### 
# 
# This file contains crystal structure data downloaded from the 
# Cambridge Structural Database (CSD) hosted by the Cambridge 
# Crystallographic Data Centre (CCDC).
# 
# Full information about CCDC data access policies and citation 
# guidelines are available at http://www.ccdc.cam.ac.uk/access/V1 
# 
# Audit and citation data items may have been added by the CCDC. 
# Please retain this information to preserve the provenance of 
# this file and to allow appropriate attribution of the data. 
# 
#######################################################################

data_cavity
_audit_block_doi                 10.5517/cc9k724
_database_code_depnum_ccdc_archive 'CCDC 284675'
loop_
_citation_id
_citation_doi
_citation_year
1 10.1039/b600408c 2006
_audit_update_record             
;
2005-09-21 deposited with the CCDC.	2024-07-13 downloaded from the CCDC.
;

_audit_creation_method           SHELXL-97
_chemical_name_systematic        
;
?
;
_chemical_name_common            ?
_chemical_melting_point          ?
_chemical_formula_moiety         ?
_chemical_formula_sum            'C96 H144 Cl Mn N14 O28 Zn2'
_chemical_formula_weight         2163.38

loop_
_atom_type_symbol
_atom_type_description
_atom_type_scat_dispersion_real
_atom_type_scat_dispersion_imag
_atom_type_scat_source
C C 0.0033 0.0016 'International Tables Vol C Tables 4.2.6.8 and 6.1.1.4'
H H 0.0000 0.0000 'International Tables Vol C Tables 4.2.6.8 and 6.1.1.4'
N N 0.0061 0.0033 'International Tables Vol C Tables 4.2.6.8 and 6.1.1.4'
O O 0.0106 0.0060 'International Tables Vol C Tables 4.2.6.8 and 6.1.1.4'
Cl Cl 0.1484 0.1585 'International Tables Vol C Tables 4.2.6.8 and 6.1.1.4'
Mn Mn 0.3368 0.7283 'International Tables Vol C Tables 4.2.6.8 and 6.1.1.4'
Zn Zn 0.2839 1.4301 'International Tables Vol C Tables 4.2.6.8 and 6.1.1.4'

_symmetry_cell_setting           triclinic
_symmetry_space_group_name_H-M   P1

loop_
_symmetry_equiv_pos_as_xyz
'x, y, z'

_cell_length_a                   15.1376(18)
_cell_length_b                   15.2092(18)
_cell_length_c                   26.300(3)
_cell_angle_alpha                73.271(2)
_cell_angle_beta                 77.508(2)
_cell_angle_gamma                82.596(2)
_cell_volume                     5647.2(12)
_cell_formula_units_Z            2
_cell_measurement_temperature    153(2)
_cell_measurement_reflns_used    20334
_cell_measurement_theta_min      1.38
_cell_measurement_theta_max      28.84

_exptl_crystal_description       block
_exptl_crystal_colour            brown
_exptl_crystal_size_max          0.33
_exptl_crystal_size_mid          0.30
_exptl_crystal_size_min          0.22
_exptl_crystal_density_meas      nm
_exptl_crystal_density_diffrn    1.272
_exptl_crystal_density_method    calcd
_exptl_crystal_F_000             2288
_exptl_absorpt_coefficient_mu    0.630
_exptl_absorpt_correction_type   numerical
_exptl_absorpt_correction_T_min  0.819
_exptl_absorpt_correction_T_max  0.951
_exptl_absorpt_process_details   XPREP

_exptl_special_details           
;
?
;

_diffrn_ambient_temperature      153(2)
_diffrn_radiation_wavelength     0.71073
_diffrn_radiation_type           MoK\a
_diffrn_radiation_source         'fine-focus sealed tube'
_diffrn_radiation_monochromator  graphite
_diffrn_measurement_device_type  'Smart CCD 1000'
_diffrn_measurement_method       '/w scan'
_diffrn_detector_area_resol_mean ?
_diffrn_standards_number         0
_diffrn_standards_interval_count na
_diffrn_standards_interval_time  na
_diffrn_standards_decay_%        0
_diffrn_reflns_number            51451
_diffrn_reflns_av_R_equivalents  0.0515
_diffrn_reflns_av_sigmaI/netI    0.1748
_diffrn_reflns_limit_h_min       -19
_diffrn_reflns_limit_h_max       19
_diffrn_reflns_limit_k_min       -19
_diffrn_reflns_limit_k_max       19
_diffrn_reflns_limit_l_min       -35
_diffrn_reflns_limit_l_max       35
_diffrn_reflns_theta_min         1.38
_diffrn_reflns_theta_max         28.84
_reflns_number_total             44994
_reflns_number_gt                20334
_reflns_threshold_expression     >2sigma(I)

_computing_data_collection       SMART
_computing_cell_refinement       'SMART, SAINT'
_computing_data_reduction        SAINT
_computing_structure_solution    'SHELXS-97 (Sheldrick, 1990)'
_computing_structure_refinement  'SHELXL-97 (Sheldrick, 1997)'
_computing_molecular_graphics    'SHELXP-97 (Sheldrick, 1997)'
_computing_publication_material  'SHELXCIF-97 (Sheldrick, 1997)'

_refine_special_details          
;
Refinement of F^2^ against ALL reflections. The weighted R-factor wR and
goodness of fit S are based on F^2^, conventional R-factors R are based
on F, with F set to zero for negative F^2^. The threshold expression of
F^2^ > 2sigma(F^2^) is used only for calculating R-factors(gt) etc. and is
not relevant to the choice of reflections for refinement. R-factors based
on F^2^ are statistically about twice as large as those based on F, and R-
factors based on ALL data will be even larger.
;

_refine_ls_structure_factor_coef Fsqd
_refine_ls_matrix_type           full
_refine_ls_weighting_scheme      calc
_refine_ls_weighting_details     
'calc w=1/[\s^2^(Fo^2^)+(0.0697P)^2^+0.0000P] where P=(Fo^2^+2Fc^2^)/3'
_atom_sites_solution_primary     direct
_atom_sites_solution_secondary   difmap
_atom_sites_solution_hydrogens   geom
_refine_ls_hydrogen_treatment    constr
_refine_ls_extinction_method     none
_refine_ls_extinction_coef       0
_refine_ls_abs_structure_details 'Flack H D (1983), Acta Cryst. A39, 876-881'
_refine_ls_abs_structure_Flack   0.00(3)
_refine_ls_number_reflns         44994
_refine_ls_number_parameters     1472
_refine_ls_number_restraints     1048
_refine_ls_R_factor_all          0.1259
_refine_ls_R_factor_gt           0.0635
_refine_ls_wR_factor_ref         0.1536
_refine_ls_wR_factor_gt          0.1391
_refine_ls_goodness_of_fit_ref   0.798
_refine_ls_restrained_S_all      0.796
_refine_ls_shift/su_max          0.028
_refine_ls_shift/su_mean         0.001

loop_
_atom_site_label
_atom_site_type_symbol
_atom_site_fract_x
_atom_site_fract_y
_atom_site_fract_z
_atom_site_U_iso_or_equiv
_atom_site_adp_type
_atom_site_occupancy
_atom_site_symmetry_multiplicity
_atom_site_calc_flag
_atom_site_refinement_flags
_atom_site_disorder_assembly
_atom_site_disorder_group
Zn1 Zn 0.681994(13) -0.742906(13) 0.580835(8) 0.02346(7) Uani 1 1 d . . .
Zn2 Zn 0.646528(13) -0.799012(13) 0.700983(8) 0.02361(7) Uani 1 1 d . . .
Zn3 Zn 0.389840(14) -0.461214(14) 0.361877(9) 0.02761(8) Uani 1 1 d . . .
Zn4 Zn 0.354173(14) -0.517217(14) 0.481847(9) 0.02573(8) Uani 1 1 d . . .
Mn1 Mn 0.64323(5) -0.73135(6) 0.13389(2) 0.0585(3) Uani 0.50 1 d PU . .
Mn1' Mn 0.63483(5) -0.78441(6) 0.15067(3) 0.0469(2) Uani 0.50 1 d PU . .
Mn2 Mn 0.39840(2) -0.55100(3) -0.068445(14) 0.06569(15) Uani 1 1 d . . .
Cl1 Cl 0.64859(16) -0.82362(18) 0.15523(8) 0.1442(11) Uani 0.50 1 d PU . .
Cl1' Cl 0.6377(3) -0.9450(3) 0.19920(16) 0.259(2) Uani 0.50 1 d P . .
Cl2 Cl 0.38584(9) -0.69232(11) -0.03791(6) 0.1873(7) Uani 1 1 d . . .
O1 O 0.65444(10) -0.65629(8) 0.67865(5) 0.0355(4) Uani 1 1 d U . .
O2 O 0.65779(9) -0.61337(9) 0.59000(5) 0.0344(4) Uani 1 1 d U . .
O3 O 0.65018(10) 0.06998(9) 0.69013(6) 0.0404(5) Uani 1 1 d U . .
O4 O 0.70757(9) 0.11372(8) 0.60200(5) 0.0305(4) Uani 1 1 d U . .
O5 O 0.81474(8) -0.73802(10) 0.58887(5) 0.0320(5) Uani 1 1 d U . .
O6 O 0.78346(9) -0.81173(9) 0.67852(5) 0.0290(5) Uani 1 1 d U . .
O7 O 1.55018(9) -0.76152(10) 0.61138(5) 0.0343(5) Uani 1 1 d U . .
O8 O 1.51234(8) -0.78333(10) 0.69958(5) 0.0375(5) Uani 1 1 d U . .
O9 O 0.72226(11) -0.79723(15) 0.08449(6) 0.0994(7) Uani 1 1 d U . .
O10 O 0.72728(11) -0.74999(15) 0.18117(6) 0.0831(7) Uani 1 1 d U . .
O101 O 0.52400(10) -0.48001(10) 0.36268(5) 0.0412(5) Uani 1 1 d U . .
O102 O 0.49158(9) -0.49841(9) 0.45470(5) 0.0317(5) Uani 1 1 d U . .
O103 O 1.25181(9) -0.45442(11) 0.38745(5) 0.0442(5) Uani 1 1 d U . .
O104 O 1.22846(10) -0.52509(9) 0.47532(5) 0.0346(5) Uani 1 1 d U . .
O105 O 0.37879(9) -0.64824(9) 0.47344(5) 0.0310(5) Uani 1 1 d U . .
O106 O 0.38001(10) -0.59959(11) 0.38539(6) 0.0440(5) Uani 1 1 d U . .
O107 O 0.33291(10) -1.37577(9) 0.46351(6) 0.0357(5) Uani 1 1 d U . .
O108 O 0.39303(10) -1.33886(10) 0.37489(5) 0.0411(5) Uani 1 1 d U . .
O109 O 0.31393(14) -0.52039(19) -0.01063(7) 0.1160(10) Uani 1 1 d U . .
O110 O 0.30518(14) -0.53212(16) -0.11229(7) 0.1086(9) Uani 1 1 d U . .
N1 N 0.64924(11) -0.81994(12) -0.21780(6) 0.0354(6) Uani 1 1 d U . .
N2 N 0.53142(13) -0.77639(16) 0.11304(7) 0.0679(8) Uani 1 1 d U . .
N3 N 0.53797(13) -0.73362(15) 0.20162(6) 0.0573(7) Uani 1 1 d U . .
N4 N 0.68784(10) -0.72839(10) 0.50345(6) 0.0251(5) Uani 1 1 d U . .
N101 N 0.38921(11) -0.44288(12) 0.28342(7) 0.0308(6) Uani 1 1 d U . .
N102 N 0.50676(14) -0.55121(14) -0.03468(8) 0.0579(7) Uani 1 1 d U . .
N103 N 0.50089(13) -0.53214(15) -0.13431(7) 0.0616(8) Uani 1 1 d U . .
N104 N 0.34707(10) -0.53440(11) -0.43707(6) 0.0243(5) Uani 1 1 d U . .
C1 C 0.65902(14) -0.59541(14) 0.63608(8) 0.031 Uiso 1 1 d U . .
C2 C 0.65858(14) -0.49918(13) 0.63650(8) 0.0302(6) Uani 1 1 d U . .
C3 C 0.66665(17) -0.48637(15) 0.68267(8) 0.0482(8) Uani 1 1 d U . .
H3A H 0.6693 -0.5367 0.7138 0.058 Uiso 1 1 calc R . .
C4 C 0.67143(19) -0.38976(15) 0.68430(9) 0.0575(9) Uani 1 1 d U . .
H4A H 0.6757 -0.3781 0.7172 0.069 Uiso 1 1 calc R . .
C5 C 0.66979(16) -0.31951(14) 0.63998(8) 0.0401(7) Uani 1 1 d U . .
C6 C 0.66184(16) -0.33917(14) 0.59096(8) 0.0454(8) Uani 1 1 d U . .
H6A H 0.6580 -0.2912 0.5589 0.054 Uiso 1 1 calc R . .
C7 C 0.65999(18) -0.42742(17) 0.59195(10) 0.0597(9) Uani 1 1 d U . .
H7A H 0.6596 -0.4405 0.5588 0.072 Uiso 1 1 calc R . .
C8 C 0.67853(18) -0.22604(14) 0.64209(8) 0.0465(8) Uani 1 1 d U . .
C9 C 0.64729(17) -0.19571(16) 0.68790(9) 0.0514(9) Uani 1 1 d U . .
H9A H 0.6258 -0.2400 0.7206 0.062 Uiso 1 1 calc R . .
C10 C 0.64507(17) -0.10857(14) 0.68944(8) 0.0460(8) Uani 1 1 d U . .
H10A H 0.6162 -0.0918 0.7215 0.055 Uiso 1 1 calc R . .
C11 C 0.68509(15) -0.04111(13) 0.64403(8) 0.0357(7) Uani 1 1 d U . .
C12 C 0.72224(18) -0.06211(13) 0.59692(9) 0.0563(9) Uani 1 1 d U . .
H12A H 0.7510 -0.0170 0.5668 0.068 Uiso 1 1 calc R . .
C13 C 0.7173(2) -0.15662(15) 0.59308(9) 0.0687(10) Uani 1 1 d U . .
H13A H 0.7387 -0.1721 0.5598 0.082 Uiso 1 1 calc R . .
C14 C 0.68148(13) 0.05662(14) 0.64368(8) 0.0307(7) Uani 1 1 d U . .
C15 C 0.83907(13) -0.77796(14) 0.63448(8) 0.0281(6) Uani 1 1 d U . .
C16 C 0.93520(14) -0.78141(16) 0.63883(8) 0.0404(8) Uani 1 1 d U . .
C17 C 0.96554(14) -0.83147(18) 0.68059(10) 0.0534(9) Uani 1 1 d U . .
H17A H 0.9257 -0.8664 0.7105 0.064 Uiso 1 1 calc R . .
C18 C 1.06106(16) -0.8344(2) 0.68174(10) 0.0689(11) Uani 1 1 d U . .
H18A H 1.0845 -0.8778 0.7105 0.083 Uiso 1 1 calc R . .
C19 C 1.11954(13) -0.77580(17) 0.64225(8) 0.0387(8) Uani 1 1 d U . .
C20 C 1.08626(14) -0.72059(19) 0.60286(10) 0.0583(10) Uani 1 1 d U . .
H20A H 1.1241 -0.6780 0.5761 0.070 Uiso 1 1 calc R . .
C21 C 0.99098(14) -0.72110(18) 0.59774(10) 0.0506(9) Uani 1 1 d U . .
H21A H 0.9683 -0.6816 0.5674 0.061 Uiso 1 1 calc R . .
C22 C 1.21080(15) -0.77552(16) 0.64396(8) 0.0414(8) Uani 1 1 d U . .
C23 C 1.23726(13) -0.79802(17) 0.69433(9) 0.0484(9) Uani 1 1 d U . .
H23A H 1.1929 -0.8164 0.7262 0.058 Uiso 1 1 calc R . .
C24 C 1.32909(15) -0.79416(18) 0.69918(10) 0.0520(9) Uani 1 1 d U . .
H24A H 1.3455 -0.8046 0.7334 0.062 Uiso 1 1 calc R . .
C25 C 1.39210(13) -0.77472(16) 0.65220(8) 0.0359(7) Uani 1 1 d U . .
C26 C 1.36338(13) -0.75943(15) 0.60401(8) 0.0363(7) Uani 1 1 d U . .
H26A H 1.4067 -0.7459 0.5713 0.044 Uiso 1 1 calc R . .
C27 C 1.27903(14) -0.76289(16) 0.60182(8) 0.0453(8) Uani 1 1 d U . .
H27A H 1.2650 -0.7558 0.5673 0.054 Uiso 1 1 calc R . .
C28 C 1.49566(13) -0.77408(14) 0.65493(8) 0.0321(7) Uani 1 1 d U . .
C29 C 0.57736(15) -0.77463(15) -0.18959(8) 0.0395(7) Uani 1 1 d U . .
H29A H 0.5248 -0.7456 -0.2034 0.047 Uiso 1 1 calc R . .
C30 C 0.59323(16) -0.77739(17) -0.13555(9) 0.0552(8) Uani 1 1 d U . .
H30A H 0.5486 -0.7468 -0.1139 0.066 Uiso 1 1 calc R . .
C31 C 0.66790(14) -0.82101(15) -0.11451(7) 0.0318(7) Uani 1 1 d U . .
C32 C 0.73228(19) -0.8546(2) -0.14869(10) 0.0966(13) Uani 1 1 d U . .
H32A H 0.7893 -0.8743 -0.1381 0.116 Uiso 1 1 calc R . .
C33 C 0.72310(16) -0.86355(15) -0.19957(8) 0.0459(7) Uani 1 1 d U . .
H33A H 0.7667 -0.8983 -0.2193 0.055 Uiso 1 1 calc R . .
C34 C 0.67977(15) -0.82104(16) -0.06130(8) 0.0435(7) Uani 1 1 d U . .
C35 C 0.60224(18) -0.80672(17) -0.02331(9) 0.0575(9) Uani 1 1 d U . .
H35A H 0.5420 -0.8023 -0.0294 0.069 Uiso 1 1 calc R . .
C36 C 0.62513(17) -0.7990(2) 0.02819(9) 0.0713(10) Uani 1 1 d U . .
C37 C 0.70675(17) -0.80585(17) 0.04145(10) 0.051 Uiso 1 1 d U . .
C38 C 0.78347(17) -0.8090(3) -0.00601(9) 0.1058(14) Uani 1 1 d U . .
C39 C 0.76414(17) -0.82598(19) -0.05051(8) 0.0697(9) Uani 1 1 d U . .
H39A H 0.8137 -0.8426 -0.0759 0.084 Uiso 1 1 calc R . .
C40 C 0.53403(16) -0.7930(2) 0.06775(9) 0.0647(10) Uani 1 1 d U . .
H40A H 0.4793 -0.8017 0.0583 0.078 Uiso 1 1 calc R . .
C41 C 0.87989(18) -0.8277(2) 0.01055(10) 0.0767(11) Uani 1 1 d U . .
C42 C 0.8971(2) -0.7424(2) 0.02632(12) 0.1447(13) Uani 1 1 d U . .
H42A H 0.8480 -0.7314 0.0554 0.217 Uiso 1 1 calc R . .
H42B H 0.8993 -0.6887 -0.0052 0.217 Uiso 1 1 calc R . .
H42C H 0.9551 -0.7527 0.0388 0.217 Uiso 1 1 calc R . .
C43 C 0.95521(17) -0.8381(3) -0.04010(10) 0.1104(16) Uani 1 1 d U . .
H43A H 0.9430 -0.8896 -0.0523 0.166 Uiso 1 1 calc R . .
H43B H 1.0150 -0.8498 -0.0298 0.166 Uiso 1 1 calc R . .
H43C H 0.9542 -0.7812 -0.0694 0.166 Uiso 1 1 calc R . .
C44 C 0.9002(3) -0.8987(3) 0.05535(12) 0.1336(19) Uani 1 1 d U . .
H44A H 0.8576 -0.8921 0.0881 0.200 Uiso 1 1 calc R . .
H44B H 0.9623 -0.8949 0.0595 0.200 Uiso 1 1 calc R . .
H44C H 0.8949 -0.9585 0.0496 0.200 Uiso 1 1 calc R . .
C45 C 0.44613(16) -0.7773(2) 0.15079(8) 0.0830(9) Uani 1 1 d U . .
H45A H 0.4439 -0.8421 0.1740 0.100 Uiso 1 1 calc R . .
C46 C 0.44489(18) -0.7227(3) 0.18757(11) 0.1130(14) Uani 1 1 d U . .
H46 H 0.4449 -0.6592 0.1626 0.136 Uiso 1 1 calc R . .
C47 C 0.36749(15) -0.7133(2) 0.22914(10) 0.0664(10) Uani 1 1 d U . .
H47A H 0.3750 -0.6634 0.2448 0.080 Uiso 1 1 calc R . .
H47B H 0.3613 -0.7713 0.2584 0.080 Uiso 1 1 calc R . .
C48 C 0.27876(19) -0.6892(2) 0.20159(10) 0.1006(13) Uani 1 1 d U . .
H48A H 0.2234 -0.6940 0.2300 0.121 Uiso 1 1 calc R . .
H48B H 0.2791 -0.6253 0.1782 0.121 Uiso 1 1 calc R . .
C49 C 0.27768(18) -0.7550(3) 0.16820(10) 0.1230(13) Uani 1 1 d U . .
H49A H 0.2696 -0.8175 0.1929 0.148 Uiso 1 1 calc R . .
H49B H 0.2244 -0.7369 0.1503 0.148 Uiso 1 1 calc R . .
C50 C 0.35948(15) -0.7593(2) 0.12647(9) 0.0976(12) Uani 1 1 d U . .
H50A H 0.3623 -0.7005 0.0977 0.117 Uiso 1 1 calc R . .
H50B H 0.3559 -0.8091 0.1098 0.117 Uiso 1 1 calc R . .
C51 C 0.54769(16) -0.71664(18) 0.24495(9) 0.0544(8) Uani 1 1 d U . .
H51A H 0.4956 -0.6980 0.2679 0.065 Uiso 1 1 calc R . .
C52 C 0.63508(17) -0.72480(19) 0.26014(8) 0.0551(9) Uani 1 1 d U . .
C53 C 0.62866(15) -0.71524(16) 0.31498(8) 0.0452(7) Uani 1 1 d U . .
H53A H 0.5710 -0.7057 0.3365 0.054 Uiso 1 1 calc R . .
C54 C 0.71006(14) -0.72045(15) 0.33594(8) 0.0371(7) Uani 1 1 d U . .
C55 C 0.79666(16) -0.73558(18) 0.30002(9) 0.0565(9) Uani 1 1 d U . .
H55A H 0.8512 -0.7397 0.3132 0.068 Uiso 1 1 calc R . .
C56 C 0.80318(14) -0.74380(18) 0.25034(8) 0.0589(8) Uani 1 1 d U . .
C57 C 0.72675(18) -0.7462(2) 0.22920(10) 0.0768(11) Uani 1 1 d U . .
C58 C 0.89650(18) -0.74262(19) 0.21262(8) 0.0608(9) Uani 1 1 d U . .
C59 C 0.9725(2) -0.7356(3) 0.23580(14) 0.1428(19) Uani 1 1 d U . .
H59A H 0.9767 -0.7884 0.2673 0.214 Uiso 1 1 calc R . .
H59B H 0.9641 -0.6786 0.2471 0.214 Uiso 1 1 calc R . .
H59C H 1.0285 -0.7351 0.2088 0.214 Uiso 1 1 calc R . .
C60 C 0.9170(2) -0.8227(2) 0.19491(14) 0.117 Uiso 1 1 d U . .
H60A H 0.9132 -0.8767 0.2263 0.175 Uiso 1 1 calc R . .
H60B H 0.9786 -0.8219 0.1734 0.175 Uiso 1 1 calc R . .
H60C H 0.8736 -0.8254 0.1727 0.175 Uiso 1 1 calc R . .
C61 C 0.9096(2) -0.6726(3) 0.16482(11) 0.1502(14) Uani 1 1 d U . .
H61A H 0.8613 -0.6704 0.1449 0.225 Uiso 1 1 calc R . .
H61B H 0.9685 -0.6843 0.1427 0.225 Uiso 1 1 calc R . .
H61C H 0.9081 -0.6136 0.1732 0.225 Uiso 1 1 calc R . .
C62 C 0.70200(13) -0.72186(15) 0.39085(8) 0.0328(7) Uani 1 1 d U . .
C63 C 0.61742(15) -0.72104(16) 0.42664(8) 0.0463(7) Uani 1 1 d U . .
H63A H 0.5616 -0.7172 0.4149 0.056 Uiso 1 1 calc R . .
C64 C 0.62085(16) -0.72636(17) 0.48190(9) 0.0502(9) Uani 1 1 d U . .
H64A H 0.5636 -0.7287 0.5057 0.060 Uiso 1 1 calc R . .
C65 C 0.76559(17) -0.72311(16) 0.46750(9) 0.047 Uiso 1 1 d U . .
H65A H 0.8196 -0.7176 0.4789 0.056 Uiso 1 1 calc R . .
C66 C 0.77163(17) -0.72517(19) 0.41508(9) 0.0625(10) Uani 1 1 d U . .
H66A H 0.8308 -0.7293 0.3941 0.075 Uiso 1 1 calc R . .
C101 C 0.54663(14) -0.48694(14) 0.40979(7) 0.0263(7) Uani 1 1 d U . .
C102 C 0.63912(13) -0.48256(14) 0.41164(9) 0.0287(7) Uani 1 1 d U . .
C103 C 0.70711(15) -0.46340(16) 0.36322(8) 0.0434(8) Uani 1 1 d U . .
H10C H 0.6893 -0.4494 0.3291 0.052 Uiso 1 1 calc R . .
C104 C 0.79457(16) -0.46483(18) 0.36497(9) 0.0506(9) Uani 1 1 d U . .
H10D H 0.8384 -0.4551 0.3324 0.061 Uiso 1 1 calc R . .
C105 C 0.82286(13) -0.48070(15) 0.41504(9) 0.0335(7) Uani 1 1 d U . .
C106 C 0.75712(14) -0.50424(15) 0.46674(9) 0.0361(8) Uani 1 1 d U . .
H10B H 0.7756 -0.5211 0.5008 0.043 Uiso 1 1 calc R . .
C10