####################################################################### 
# 
# This file contains crystal structure data downloaded from the 
# Cambridge Structural Database (CSD) hosted by the Cambridge 
# Crystallographic Data Centre (CCDC).
# 
# Full information about CCDC data access policies and citation 
# guidelines are available at http://www.ccdc.cam.ac.uk/access/V1 
# 
# Audit and citation data items may have been added by the CCDC. 
# Please retain this information to preserve the provenance of 
# this file and to allow appropriate attribution of the data. 
# 
#######################################################################

data_z
_audit_block_doi                 10.5517/cc5gl8g
_database_code_depnum_ccdc_archive 'CCDC 162975'
loop_
_citation_id
_citation_doi
_citation_year
1 10.1021/ja991100b 1999
_audit_update_record             
;
2001-04-27 deposited with the CCDC.	2024-07-13 downloaded from the CCDC.
;

_audit_creation_method           SHELXL-97
_chemical_name_systematic        
;
?
;
_chemical_name_common            ?
_chemical_melting_point          ?
_chemical_formula_moiety         ?
_chemical_formula_sum            'C79 H54 Ag F3 N3 O3 S'
_chemical_formula_weight         1290.18

loop_
_atom_type_symbol
_atom_type_description
_atom_type_scat_dispersion_real
_atom_type_scat_dispersion_imag
_atom_type_scat_source
N N 0.0061 0.0033 'International Tables Vol C Tables 4.2.6.8 and 6.1.1.4'
H H 0.0000 0.0000 'International Tables Vol C Tables 4.2.6.8 and 6.1.1.4'
C C 0.0033 0.0016 'International Tables Vol C Tables 4.2.6.8 and 6.1.1.4'
O O 0.0106 0.0060 'International Tables Vol C Tables 4.2.6.8 and 6.1.1.4'
F F 0.0171 0.0103 'International Tables Vol C Tables 4.2.6.8 and 6.1.1.4'
S S 0.1246 0.1234 'International Tables Vol C Tables 4.2.6.8 and 6.1.1.4'
Ag Ag -0.8971 1.1015 'International Tables Vol C Tables 4.2.6.8 and 6.1.1.4'

_symmetry_cell_setting           Triclinic
_symmetry_space_group_name_H-M   P-1

loop_
_symmetry_equiv_pos_as_xyz
'x, y, z'
'-x, -y, -z'

_cell_length_a                   14.3765(11)
_cell_length_b                   27.628(2)
_cell_length_c                   27.648(2)
_cell_angle_alpha                66.549(2)
_cell_angle_beta                 84.674(3)
_cell_angle_gamma                79.620(3)
_cell_volume                     9906.9(13)
_cell_formula_units_Z            4
_cell_measurement_temperature    173(2)
_cell_measurement_reflns_used    ?
_cell_measurement_theta_min      ?
_cell_measurement_theta_max      ?

_exptl_crystal_description       block
_exptl_crystal_colour            colorless
_exptl_crystal_size_max          0.3
_exptl_crystal_size_mid          0.3
_exptl_crystal_size_min          0.2
_exptl_crystal_density_meas      ?
_exptl_crystal_density_diffrn    0.865
_exptl_crystal_density_method    'not measured'
_exptl_crystal_F_000             2652
_exptl_absorpt_coefficient_mu    0.264
_exptl_absorpt_correction_type   SADABS
_exptl_absorpt_correction_T_min  ?
_exptl_absorpt_correction_T_max  ?
_exptl_absorpt_process_details   ?

_exptl_special_details           
;
?
;

_diffrn_ambient_temperature      173(2)
_diffrn_radiation_wavelength     0.71073
_diffrn_radiation_type           MoK\a
_diffrn_radiation_source         'fine-focus sealed tube'
_diffrn_radiation_monochromator  graphite
_diffrn_measurement_device_type  'Bruker 1K CCD area detector'
_diffrn_measurement_method       'phi and omega scans'
_diffrn_detector_area_resol_mean ?
_diffrn_standards_number         ?
_diffrn_standards_interval_count ?
_diffrn_standards_interval_time  ?
_diffrn_standards_decay_%        ?
_diffrn_reflns_number            21609
_diffrn_reflns_av_R_equivalents  0.1500
_diffrn_reflns_av_sigmaI/netI    0.2720
_diffrn_reflns_limit_h_min       -11
_diffrn_reflns_limit_h_max       11
_diffrn_reflns_limit_k_min       -23
_diffrn_reflns_limit_k_max       16
_diffrn_reflns_limit_l_min       -23
_diffrn_reflns_limit_l_max       23
_diffrn_reflns_theta_min         0.80
_diffrn_reflns_theta_max         17.23
_reflns_number_total             11525
_reflns_number_gt                5057
_reflns_threshold_expression     >2sigma(I)

_computing_data_collection       'Bruker SMART'
_computing_cell_refinement       'Bruker SAINT'
_computing_data_reduction        'Bruker SAINT'
_computing_structure_solution    'SHELXS-97 (Sheldrick, 1990)'
_computing_structure_refinement  'SHELXL-97 (Sheldrick, 1997)'
_computing_molecular_graphics    'Bruker SHELXTL, CERIUS2'
_computing_publication_material  'Bruker SHELXTL'

_refine_special_details          
;
Refinement of F^2^ against ALL reflections.  The weighted R-factor wR and
goodness of fit S are based on F^2^, conventional R-factors R are based
on F, with F set to zero for negative F^2^. The threshold expression of
F^2^ > 2sigma(F^2^) is used only for calculating R-factors(gt) etc. and is
not relevant to the choice of reflections for refinement.  R-factors based
on F^2^ are statistically about twice as large as those based on F, and R-
factors based on ALL data will be even larger.
;

_refine_ls_structure_factor_coef Fsqd
_refine_ls_matrix_type           full
_refine_ls_weighting_scheme      calc
_refine_ls_weighting_details     
'calc w=1/[\s^2^(Fo^2^)+(0.2000P)^2^+0.0000P] where P=(Fo^2^+2Fc^2^)/3'
_atom_sites_solution_primary     direct
_atom_sites_solution_secondary   difmap
_atom_sites_solution_hydrogens   geom
_refine_ls_hydrogen_treatment    mixed
_refine_ls_extinction_method     none
_refine_ls_extinction_coef       ?
_refine_ls_number_reflns         11525
_refine_ls_number_parameters     724
_refine_ls_number_restraints     12
_refine_ls_R_factor_all          0.2696
_refine_ls_R_factor_gt           0.1574
_refine_ls_wR_factor_ref         0.4576
_refine_ls_wR_factor_gt          0.4005
_refine_ls_goodness_of_fit_ref   1.212
_refine_ls_restrained_S_all      1.211
_refine_ls_shift/su_max          0.295
_refine_ls_shift/su_mean         0.027

loop_
_atom_site_label
_atom_site_type_symbol
_atom_site_fract_x
_atom_site_fract_y
_atom_site_fract_z
_atom_site_U_iso_or_equiv
_atom_site_adp_type
_atom_site_occupancy
_atom_site_symmetry_multiplicity
_atom_site_calc_flag
_atom_site_refinement_flags
_atom_site_disorder_assembly
_atom_site_disorder_group
Ag1 Ag 0.02973(18) 0.71141(10) 0.71992(9) 0.0541(11) Uani 1 1 d . . .
Ag2 Ag -0.17691(18) 0.71750(9) 0.61789(9) 0.0522(11) Uani 1 1 d . . .
N_1 N -0.2023(17) 1.6741(10) -0.2999(11) 0.061(8) Uiso 1 1 d . . .
C1_1 C -0.221(2) 1.6509(14) -0.2564(15) 0.071(11) Uiso 1 1 d . . .
C2_1 C -0.2549(19) 1.6222(12) -0.2014(11) 0.034(8) Uiso 1 1 d . . .
C3_1 C -0.228(2) 1.5688(13) -0.1794(12) 0.056(10) Uiso 1 1 d . . .
H3D_1 H -0.1869 1.5510 -0.1980 0.068 Uiso 1 1 calc R . .
C4_1 C -0.298(2) 1.6521(13) -0.1737(12) 0.056(10) Uiso 1 1 d . . .
H4D_1 H -0.3091 1.6901 -0.1880 0.067 Uiso 1 1 calc R . .
C5_1 C -0.264(2) 1.5390(13) -0.1273(12) 0.053(10) Uiso 1 1 d . . .
H5B_1 H -0.2552 1.5011 -0.1126 0.063 Uiso 1 1 calc R . .
C6_1 C -0.323(2) 1.6198(13) -0.1211(12) 0.052(10) Uiso 1 1 d . . .
H6E_1 H -0.3511 1.6374 -0.0989 0.062 Uiso 1 1 calc R . .
C7_1 C -0.3089(18) 1.5676(11) -0.1012(11) 0.024(8) Uiso 1 1 d . . .
C8_1 C -0.342(2) 1.5407(14) -0.0488(15) 0.069(11) Uiso 1 1 d . . .
C9_1 C -0.371(2) 1.5149(12) -0.0066(14) 0.048(9) Uiso 1 1 d . . .
C10_1 C -0.4076(19) 1.4877(12) 0.0462(11) 0.037(9) Uiso 1 1 d . . .
C11_1 C -0.411(2) 1.4332(13) 0.0673(12) 0.054(10) Uiso 1 1 d . . .
H11D_1 H -0.3850 1.4126 0.0473 0.065 Uiso 1 1 calc R . .
C12_1 C -0.4397(19) 1.5152(12) 0.0776(11) 0.046(9) Uiso 1 1 d . . .
H12B_1 H -0.4386 1.5525 0.0639 0.055 Uiso 1 1 calc R . .
C13_1 C -0.4502(19) 1.4083(12) 0.1164(12) 0.048(9) Uiso 1 1 d . . .
H13B_1 H -0.4546 1.3714 0.1286 0.057 Uiso 1 1 calc R . .
C14_1 C -0.476(2) 1.4894(14) 0.1316(14) 0.076(11) Uiso 1 1 d . . .
H14D_1 H -0.4928 1.5080 0.1543 0.091 Uiso 1 1 calc R . .
C15_1 C -0.4827(18) 1.4351(11) 0.1475(11) 0.030(8) Uiso 1 1 d . . .
N_2 N -0.2133(18) 0.8029(11) 0.5845(10) 0.062(8) Uiso 1 1 d . . .
C1_2 C -0.251(2) 0.8461(13) 0.5590(12) 0.039(9) Uiso 1 1 d . . .
C2_2 C -0.288(2) 0.8976(13) 0.5221(13) 0.058(10) Uiso 1 1 d . . .
C3_2 C -0.345(2) 0.9340(12) 0.5423(13) 0.056(10) Uiso 1 1 d . . .
H3E_2 H -0.3596 0.9231 0.5790 0.067 Uiso 1 1 calc R . .
C4_2 C -0.267(2) 0.9142(13) 0.4691(13) 0.066(11) Uiso 1 1 d . . .
H4F_2 H -0.2338 0.8900 0.4544 0.080 Uiso 1 1 calc R . .
C5_2 C -0.379(2) 0.9852(13) 0.5078(12) 0.054(10) Uiso 1 1 d . . .
H5F_2 H -0.4204 1.0082 0.5212 0.065 Uiso 1 1 calc R . .
C6_2 C -0.296(2) 0.9705(13) 0.4363(13) 0.066(11) Uiso 1 1 d . . .
H6F_2 H -0.2741 0.9842 0.4007 0.080 Uiso 1 1 calc R . .
C7_2 C -0.355(2) 1.0041(13) 0.4552(13) 0.048(9) Uiso 1 1 d . . .
C8_2 C -0.385(2) 1.0544(15) 0.4214(13) 0.050(10) Uiso 1 1 d . . .
C9_2 C -0.412(2) 1.0998(14) 0.3937(12) 0.048(10) Uiso 1 1 d . . .
C10_2 C -0.444(2) 1.1574(12) 0.3642(12) 0.043(9) Uiso 1 1 d . . .
C11_2 C -0.5206(19) 1.1885(11) 0.3822(11) 0.042(9) Uiso 1 1 d . . .
H11E_2 H -0.5507 1.1720 0.4154 0.050 Uiso 1 1 calc R . .
C12_2 C -0.394(2) 1.1848(13) 0.3198(12) 0.060(10) Uiso 1 1 d . . .
H12E_2 H -0.3392 1.1668 0.3088 0.072 Uiso 1 1 calc R . .
C13_2 C -0.549(2) 1.2398(13) 0.3534(12) 0.057(10) Uiso 1 1 d . . .
H13E_2 H -0.6065 1.2578 0.3627 0.068 Uiso 1 1 calc R . .
C14_2 C -0.424(2) 1.2386(12) 0.2913(12) 0.045(9) Uiso 1 1 d . . .
H14F_2 H -0.3930 1.2555 0.2584 0.055 Uiso 1 1 calc R . .
C15_2 C -0.4939(19) 1.2681(11) 0.3082(11) 0.031(8) Uiso 1 1 d . . .
N_3 N -1.0779(16) 1.6695(9) 0.5805(9) 0.052(8) Uiso 1 1 d . . .
C1_3 C -1.043(2) 1.6465(11) 0.5543(11) 0.040(9) Uiso 1 1 d . . .
C2_3 C -1.0030(19) 1.6213(12) 0.5203(11) 0.039(9) Uiso 1 1 d . . .
C3_3 C -0.974(2) 1.6542(13) 0.4700(12) 0.060(10) Uiso 1 1 d . . .
H3F_3 H -0.9847 1.6920 0.4585 0.073 Uiso 1 1 calc R . .
C4_3 C -0.9791(19) 1.5634(11) 0.5405(12) 0.045(9) Uiso 1 1 d . . .
H4G_3 H -0.9959 1.5415 0.5755 0.054 Uiso 1 1 calc R . .
C5_3 C -0.926(2) 1.6287(12) 0.4366(12) 0.052(10) Uiso 1 1 d . . .
H5G_3 H -0.9088 1.6489 0.4012 0.063 Uiso 1 1 calc R . .
C6_3 C -0.9310(19) 1.5418(12) 0.5065(11) 0.046(9) Uiso 1 1 d . . .
H6G_3 H -0.9143 1.5042 0.5171 0.055 Uiso 1 1 calc R . .
C7_3 C -0.908(2) 1.5760(13) 0.4569(12) 0.045(9) Uiso 1 1 d . . .
C8_3 C -0.860(2) 1.5515(12) 0.4238(13) 0.057(10) Uiso 1 1 d . . .
C9_3 C -0.822(2) 1.5278(11) 0.3952(11) 0.040(9) Uiso 1 1 d . . .
C10_3 C -0.767(2) 1.4962(13) 0.3665(11) 0.043(9) Uiso 1 1 d . . .
C11_3 C -0.708(2) 1.5237(13) 0.3223(12) 0.060(10) Uiso 1 1 d . . .
H11F_3 H -0.7028 1.5601 0.3130 0.072 Uiso 1 1 calc R . .
C12_3 C -0.7639(19) 1.4467(12) 0.3808(11) 0.044(9) Uiso 1 1 d . . .
H12F_3 H -0.7953 1.4283 0.4130 0.052 Uiso 1 1 calc R . .
C13_3 C -0.660(2) 1.4954(12) 0.2941(12) 0.048(9) Uiso 1 1 d . . .
H13F_3 H -0.6253 1.5139 0.2632 0.058 Uiso 1 1 calc R . .
C14_3 C -0.7175(18) 1.4171(11) 0.3527(10) 0.039(9) Uiso 1 1 d . . .
H14G_3 H -0.7247 1.3809 0.3626 0.046 Uiso 1 1 calc R . .
C15_3 C -0.6585(18) 1.4428(11) 0.3084(10) 0.026(8) Uiso 1 1 d . . .
C1B_4 C -0.6045(19) 1.4107(11) 0.2824(11) 0.035(8) Uiso 1 1 d . . .
C2B_4 C -0.5772(18) 1.3563(11) 0.3054(11) 0.035(8) Uiso 1 1 d . . .
H2BB_4 H -0.5962 1.3378 0.3410 0.042 Uiso 1 1 calc R . .
C3B_4 C -0.5213(19) 1.3265(11) 0.2780(11) 0.035(8) Uiso 1 1 d . . .
C4B_4 C -0.4958(17) 1.3508(10) 0.2278(10) 0.026(8) Uiso 1 1 d . . .
H4BB_4 H -0.4627 1.3301 0.2093 0.031 Uiso 1 1 calc R . .
C5B_4 C -0.5176(18) 1.4081(10) 0.2007(10) 0.024(8) Uiso 1 1 d . . .
C6B_4 C -0.5738(17) 1.4360(10) 0.2290(10) 0.024(8) Uiso 1 1 d . . .
H6BB_4 H -0.5919 1.4735 0.2116 0.028 Uiso 1 1 calc R . .
N_9 N 0.9616(19) 0.6661(11) -0.2034(12) 0.079(9) Uiso 1 1 d . . .
C1_9 C 0.948(3) 0.6455(15) -0.1594(18) 0.085(12) Uiso 1 1 d . . .
C2_9 C 0.920(2) 0.6213(13) -0.1055(13) 0.057(10) Uiso 1 1 d . . .
C3_9 C 0.928(2) 0.5644(13) -0.0845(13) 0.063(10) Uiso 1 1 d . . .
H3A_9 H 0.9529 0.5443 -0.1051 0.075 Uiso 1 1 calc R . .
C4_9 C 0.884(3) 0.6502(17) -0.0779(16) 0.099(14) Uiso 1 1 d . . .
H4A_9 H 0.8756 0.6881 -0.0944 0.119 Uiso 1 1 calc R . .
C5_9 C 0.899(2) 0.5393(13) -0.0308(12) 0.062(10) Uiso 1 1 d . . .
H5A_9 H 0.9059 0.5015 -0.0137 0.074 Uiso 1 1 calc R . .
C6_9 C 0.858(2) 0.6253(15) -0.0239(14) 0.077(12) Uiso 1 1 d . . .
H6A_9 H 0.8396 0.6452 -0.0024 0.092 Uiso 1 1 calc R . .
C7_9 C 0.859(2) 0.5718(13) -0.0044(13) 0.056(10) Uiso 1 1 d . . .
C8_9 C 0.831(2) 0.5441(13) 0.0501(14) 0.053(10) Uiso 1 1 d . . .
C9_9 C 0.802(2) 0.5172(13) 0.0959(14) 0.061(10) Uiso 1 1 d . . .
C10_9 C 0.7673(18) 0.4894(11) 0.1455(11) 0.031(8) Uiso 1 1 d . . .
C11_9 C 0.7670(18) 0.4367(11) 0.1589(11) 0.039(9) Uiso 1 1 d . . .
H11A_9 H 0.7908 0.4201 0.1351 0.047 Uiso 1 1 calc R . .
C12_9 C 0.738(2) 0.5158(14) 0.1769(13) 0.067(11) Uiso 1 1 d . . .
H12A_9 H 0.7421 0.5525 0.1665 0.080 Uiso 1 1 calc R . .
C13_9 C 0.7293(18) 0.4062(11) 0.2106(10) 0.037(9) Uiso 1 1 d . . .
H13A_9 H 0.7281 0.3691 0.2211 0.044 Uiso 1 1 calc R . .
C14_9 C 0.699(2) 0.4851(13) 0.2271(13) 0.060(10) Uiso 1 1 d . . .
H14A_9 H 0.6740 0.5029 0.2498 0.072 Uiso 1 1 calc R . .
C15_9 C 0.6949(17) 0.4317(10) 0.2444(10) 0.023(8) Uiso 1 1 d . . .
N_10 N 0.9856(17) -0.2120(11) 0.6642(10) 0.063(8) Uiso 1 1 d . . .
C1_10 C 0.960(2) -0.1679(14) 0.6364(12) 0.048(10) Uiso 1 1 d . . .
C2_10 C 0.920(2) -0.1142(12) 0.6042(12) 0.044(9) Uiso 1 1 d . . .
C3_10 C 0.854(2) -0.0807(13) 0.6220(13) 0.057(10) Uiso 1 1 d . . .
H3B_10 H 0.8295 -0.0947 0.6571 0.069 Uiso 1 1 calc R . .
C4_10 C 0.9498(19) -0.0921(11) 0.5507(11) 0.038(9) Uiso 1 1 d . . .
H4B_10 H 0.9945 -0.1136 0.5372 0.046 Uiso 1 1 calc R . .
C5_10 C 0.824(2) -0.0290(13) 0.5906(13) 0.061(10) Uiso 1 1 d . . .
H5C_10 H 0.7808 -0.0071 0.6045 0.074 Uiso 1 1 calc R . .
C6_10 C 0.9157(17) -0.0395(10) 0.5168(11) 0.027(8) Uiso 1 1 d . . .
H6_10 H 0.9330 -0.0261 0.4804 0.033 Uiso 1 1 calc R . .
C7_10 C 0.856(2) -0.0077(12) 0.5388(12) 0.042(9) Uiso 1 1 d . . .
C8_10 C 0.816(2) 0.0462(15) 0.5045(13) 0.051(10) Uiso 1 1 d . . .
C9_10 C 0.789(2) 0.0909(16) 0.4795(13) 0.057(10) Uiso 1 1 d . . .
C10_10 C 0.753(2) 0.1434(14) 0.4499(14) 0.062(10) Uiso 1 1 d . . .
C11_10 C 0.673(2) 0.1728(13) 0.4677(13) 0.065(11) Uiso 1 1 d . . .
H11B_10 H 0.6416 0.1534 0.4994 0.078 Uiso 1 1 calc R . .
C12_10 C 0.792(2) 0.1764(12) 0.4030(12) 0.050(9) Uiso 1 1 d . . .
H12C_10 H 0.8429 0.1608 0.3870 0.060 Uiso 1 1 calc R . .
C13_10 C 0.641(2) 0.2246(12) 0.4435(12) 0.051(10) Uiso 1 1 d . . .
H13C_10 H 0.5852 0.2389 0.4580 0.061 Uiso 1 1 calc R . .
C14_10 C 0.759(2) 0.2324(12) 0.3770(12) 0.059(10) Uiso 1 1 d . . .
H14B_10 H 0.7898 0.2518 0.3449 0.070 Uiso 1 1 calc R . .
C15_10 C 0.6828(18) 0.2602(11) 0.3971(10) 0.028(8) Uiso 1 1 d . . .
N_11 N 0.0827(18) 0.6634(10) 0.6737(10) 0.069(9) Uiso 1 1 d . . .
C1_11 C 0.122(2) 0.6391(11) 0.6504(11) 0.040(9) Uiso 1 1 d . . .
C2_11 C 0.171(2) 0.6110(13) 0.6187(12) 0.052(10) Uiso 1 1 d . . .
C3_11 C 0.202(2) 0.6427(13) 0.5670(12) 0.054(10) Uiso 1 1 d . . .
H3C_11 H 0.1942 0.6806 0.5540 0.065 Uiso 1 1 calc R . .
C4_11 C 0.182(2) 0.5569(12) 0.6366(12) 0.055(10) Uiso 1 1 d . . .
H4C_11 H 0.1574 0.5371 0.6706 0.065 Uiso 1 1 calc R . .
C5_11 C 0.245(2) 0.6135(12) 0.5363(12) 0.052(10) Uiso 1 1 d . . .
H5D_11 H 0.2621 0.6329 0.5006 0.063 Uiso 1 1 calc R . .
C6_11 C 0.2297(19) 0.5294(12) 0.6043(11) 0.046(9) Uiso 1 1 d . . .
H6D_11 H 0.2370 0.4915 0.6169 0.056 Uiso 1 1 calc R . .
C7_11 C 0.264(2) 0.5579(12) 0.5558(12) 0.043(9) Uiso 1 1 d . . .
C8_11 C 0.308(2) 0.5296(12) 0.5237(12) 0.046(9) Uiso 1 1 d . . .
C9_11 C 0.350(2) 0.5107(13) 0.4952(14) 0.067(11) Uiso 1 1 d . . .
C10_11 C 0.4055(18) 0.4819(11) 0.4650(10) 0.031(8) Uiso 1 1 d . . .
C11_11 C 0.4644(19) 0.5093(12) 0.4234(11) 0.046(9) Uiso 1 1 d . . .
H11C_11 H 0.4679 0.5460 0.4139 0.055 Uiso 1 1 calc R . .
C12_11 C 0.396(2) 0.4304(12) 0.4763(12) 0.053(10) Uiso 1 1 d . . .
H12D_11 H 0.3556 0.4128 0.5047 0.064 Uiso 1 1 calc R . .
C13_11 C 0.5167(18) 0.4799(11) 0.3972(10) 0.032(8) Uiso 1 1 d . . .
H13D_11 H 0.5602 0.4971 0.3705 0.038 Uiso 1 1 calc R . .
C14_11 C 0.4478(19) 0.4019(12) 0.4445(10) 0.043(9) Uiso 1 1 d . . .
H14C_11 H 0.4395 0.3669 0.4495 0.051 Uiso 1 1 calc R . .
C15_11 C 0.5118(18) 0.4310(11) 0.4056(10) 0.028(8) Uiso 1 1 d . . .
C1B_12 C 0.5674(17) 0.4017(10) 0.3777(10) 0.020(7) Uiso 1 1 d . . .
C2B_12 C 0.5968(17) 0.3461(10) 0.3984(10) 0.029(8) Uiso 1 1 d . . .
H2BA_12 H 0.5783 0.3268 0.4338 0.034 Uiso 1 1 calc R . .
C3B_12 C 0.6516(18) 0.3160(11) 0.3713(11) 0.030(8) Uiso 1 1 d . . .
C4B_12 C 0.6802(19) 0.3445(12) 0.3214(11) 0.043(9) Uiso 1 1 d . . .
H4BA_12 H 0.7185 0.3258 0.3026 0.052 Uiso 1 1 calc R . .
C5B_12 C 0.6568(19) 0.3989(11) 0.2968(11) 0.033(8) Uiso 1 1 d . . .
C6B_12 C 0.5969(19) 0.4266(12) 0.3266(11) 0.049(9) Uiso 1 1 d . . .
H6BA_12 H 0.5775 0.4641 0.3094 0.059 Uiso 1 1 calc R . .
S1_17 S 0.1611(8) 0.7505(5) 0.7887(5) 0.101(4) Uiso 1 1 d . . .
O1A_17 O 0.1693(15) 0.7206(9) 0.7546(9) 0.081(7) Uiso 1 1 d . . .
O2A_17 O 0.0557(19) 0.7771(11) 0.7932(10) 0.123(10) Uiso 1 1 d . . .
O3A_17 O 0.218(2) 0.7962(12) 0.7742(11) 0.134(10) Uiso 1 1 d . . .
C1T_17 C 0.1762(16) 0.7070(8) 0.8501(6) 0.17(2) Uiso 1 1 d G . .
F1A_17 F 0.1843(17) 0.7383(8) 0.8818(10) 0.161(10) Uiso 1 1 d G . .
F2A_17 F 0.2631(14) 0.6947(12) 0.8541(13) 0.235(15) Uiso 1 1 d G . .
F3A_17 F 0.1163(15) 0.6720(9) 0.8723(10) 0.162(10) Uiso 1 1 d G . .
S1_19 S -0.3392(7) 0.7443(4) 0.5128(4) 0.064(3) Uiso 1 1 d . . .
O1C_19 O -0.2961(15) 0.7112(9) 0.5630(9) 0.084(8) Uiso 1 1 d . . .
O2C_19 O -0.3322(15) 0.7996(9) 0.4914(9) 0.083(7) Uiso 1 1 d . . .
O3C_19 O -0.4299(15) 0.7335(8) 0.5057(8) 0.073(7) Uiso 1 1 d . . .
C3T_19 C -0.2747(10) 0.7121(7) 0.4746(5) 0.101(14) Uiso 1 1 d G . .
F1C_19 F -0.3051(12) 0.7400(7) 0.4202(7) 0.126(8) Uiso 1 1 d G . .
F2C_19 F -0.1804(11) 0.7311(7) 0.4620(8) 0.115(7) Uiso 1 1 d G . .
F3C_19 F -0.2636(14) 0.6676(6) 0.4814(7) 0.137(9) Uiso 1 1 d G . .
C1S_21 C 0.910(3) 0.038(2) 0.361(2) 0.150(19) Uiso 1 1 d . . .
H1S_21 H 0.8670 0.0377 0.3895 0.180 Uiso 1 1 calc R . .
C2S_21 C 0.908(4) 0.090(2) 0.318(2) 0.17(2) Uiso 1 1 d . . .
H2S_21 H 0.8657 0.1216 0.3147 0.198 Uiso 1 1 calc R . .
C3S_21 C 0.990(4) 0.083(2) 0.280(2) 0.16(2) Uiso 1 1 d . . .
H3S_21 H 1.0042 0.1139 0.251