####################################################################### 
# 
# This file contains crystal structure data downloaded from the 
# Cambridge Structural Database (CSD) hosted by the Cambridge 
# Crystallographic Data Centre (CCDC).
# 
# Full information about CCDC data access policies and citation 
# guidelines are available at http://www.ccdc.cam.ac.uk/access/V1 
# 
# Audit and citation data items may have been added by the CCDC. 
# Please retain this information to preserve the provenance of 
# this file and to allow appropriate attribution of the data. 
# 
#######################################################################

data_am
_audit_block_doi                 10.5517/cc5gl7f
_database_code_depnum_ccdc_archive 'CCDC 162974'
loop_
_citation_id
_citation_doi
_citation_year
1 10.1021/ja991100b 1999
_audit_update_record             
;
2001-04-27 deposited with the CCDC.	2024-07-13 downloaded from the CCDC.
;

_audit_creation_method           SHELXL-97
_chemical_name_systematic        
; 
? 
;
_chemical_name_common            ?
_chemical_melting_point          ?
_chemical_formula_moiety         ?
_chemical_formula_sum            'C78 H50 Ag2 F6 N6 O2 S2'
_chemical_formula_weight         1497.10

loop_
_atom_type_symbol
_atom_type_description
_atom_type_scat_dispersion_real
_atom_type_scat_dispersion_imag
_atom_type_scat_source
C C 0.0033 0.0016 'International Tables Vol C Tables 4.2.6.8 and 6.1.1.4'
H H 0.0000 0.0000 'International Tables Vol C Tables 4.2.6.8 and 6.1.1.4'
N N 0.0061 0.0033 'International Tables Vol C Tables 4.2.6.8 and 6.1.1.4'
O O 0.0106 0.0060 'International Tables Vol C Tables 4.2.6.8 and 6.1.1.4'
Ag Ag -0.8971 1.1015 'International Tables Vol C Tables 4.2.6.8 and 6.1.1.4'
S S 0.1246 0.1234 'International Tables Vol C Tables 4.2.6.8 and 6.1.1.4'
F F 0.0171 0.0103 'International Tables Vol C Tables 4.2.6.8 and 6.1.1.4'

_symmetry_cell_setting           ?
_symmetry_space_group_name_H-M   ?

loop_
_symmetry_equiv_pos_as_xyz
'x, y, z'
'x, -y, z'
'x, y+1/2, z+1/2'
'x, -y+1/2, z+1/2'

_cell_length_a                   3.7528(8)
_cell_length_b                   22.259(5)
_cell_length_c                   32.295(7)
_cell_angle_alpha                90.00
_cell_angle_beta                 92.65(3)
_cell_angle_gamma                90.00
_cell_volume                     2694.8(10)
_cell_formula_units_Z            1
_cell_measurement_temperature    293(2)
_cell_measurement_reflns_used    ?
_cell_measurement_theta_min      ?
_cell_measurement_theta_max      ?

_exptl_crystal_description       ?
_exptl_crystal_colour            ?
_exptl_crystal_size_max          ?
_exptl_crystal_size_mid          ?
_exptl_crystal_size_min          ?
_exptl_crystal_density_meas      ?
_exptl_crystal_density_diffrn    0.923
_exptl_crystal_density_method    'not measured'
_exptl_crystal_F_000             756
_exptl_absorpt_coefficient_mu    0.445
_exptl_absorpt_correction_type   ?
_exptl_absorpt_correction_T_min  ?
_exptl_absorpt_correction_T_max  ?
_exptl_absorpt_process_details   ?

_exptl_special_details           
; 
? 
;

_diffrn_ambient_temperature      293(2)
_diffrn_radiation_wavelength     0.71073
_diffrn_radiation_type           MoK\a
_diffrn_radiation_source         'fine-focus sealed tube'
_diffrn_radiation_monochromator  graphite
_diffrn_measurement_device_type  ?
_diffrn_measurement_method       ?
_diffrn_detector_area_resol_mean ?
_diffrn_standards_number         ?
_diffrn_standards_interval_count ?
_diffrn_standards_interval_time  ?
_diffrn_standards_decay_%        ?
_diffrn_reflns_number            2873
_diffrn_reflns_av_R_equivalents  0.0583
_diffrn_reflns_av_sigmaI/netI    0.1057
_diffrn_reflns_limit_h_min       -4
_diffrn_reflns_limit_h_max       4
_diffrn_reflns_limit_k_min       -9
_diffrn_reflns_limit_k_max       24
_diffrn_reflns_limit_l_min       -20
_diffrn_reflns_limit_l_max       33
_diffrn_reflns_theta_min         1.83
_diffrn_reflns_theta_max         23.30
_reflns_number_total             2527
_reflns_number_gt                2196
_reflns_threshold_expression     >2sigma(I)

_computing_data_collection       ?
_computing_cell_refinement       ?
_computing_data_reduction        ?
_computing_structure_solution    'SHELXS-97 (Sheldrick, 1990)'
_computing_structure_refinement  'SHELXL-97 (Sheldrick, 1997)'
_computing_molecular_graphics    ?
_computing_publication_material  ?

_refine_special_details          
; 
Refinement of F^2^ against ALL reflections.  The weighted R-factor wR and 
goodness of fit S are based on F^2^, conventional R-factors R are based 
on F, with F set to zero for negative F^2^. The threshold expression of 
F^2^ > 2sigma(F^2^) is used only for calculating R-factors(gt) etc. and is 
not relevant to the choice of reflections for refinement.  R-factors based 
on F^2^ are statistically about twice as large as those based on F, and R- 
factors based on ALL data will be even larger. 
;

_refine_ls_structure_factor_coef Fsqd
_refine_ls_matrix_type           full
_refine_ls_weighting_scheme      calc
_refine_ls_weighting_details     
'calc w=1/[\s^2^(Fo^2^)+(0.1000P)^2^+0.0000P] where P=(Fo^2^+2Fc^2^)/3'
_atom_sites_solution_primary     direct
_atom_sites_solution_secondary   difmap
_atom_sites_solution_hydrogens   geom
_refine_ls_hydrogen_treatment    mixed
_refine_ls_extinction_method     none
_refine_ls_extinction_coef       ?
_refine_ls_abs_structure_details 'Flack H D (1983), Acta Cryst. A39, 876-881'
_refine_ls_abs_structure_Flack   0.32(14)
_refine_ls_number_reflns         2527
_refine_ls_number_parameters     152
_refine_ls_number_restraints     11
_refine_ls_R_factor_all          0.1272
_refine_ls_R_factor_gt           0.1171
_refine_ls_wR_factor_ref         0.3021
_refine_ls_wR_factor_gt          0.2887
_refine_ls_goodness_of_fit_ref   1.765
_refine_ls_restrained_S_all      1.763
_refine_ls_shift/su_max          0.004
_refine_ls_shift/su_mean         0.000

loop_
_atom_site_label
_atom_site_type_symbol
_atom_site_fract_x
_atom_site_fract_y
_atom_site_fract_z
_atom_site_U_iso_or_equiv
_atom_site_adp_type
_atom_site_occupancy
_atom_site_symmetry_multiplicity
_atom_site_calc_flag
_atom_site_refinement_flags
_atom_site_disorder_assembly
_atom_site_disorder_group
Ag1 Ag 0.7353(5) 0.0000 0.79811(15) 0.0828(8) Uani 1 2 d S . .
N1 N 0.013(4) 0.0851(9) 0.8139(9) 0.137(8) Uani 1 1 d . . .
N2 N 0.387(7) 0.0000 0.7398(13) 0.137(8) Uani 1 2 d S . .
C1 C 0.412(6) 0.0000 0.5191(8) 0.064(7) Uani 1 2 d S . .
C2 C 0.230(4) 0.5000 0.9787(6) 0.045(5) Uani 1 2 d S . .
C3 C 0.142(3) 0.4458(6) 0.9573(5) 0.053(4) Uani 1 1 d . . .
C4 C -0.034(3) 0.4463(6) 0.9198(5) 0.045(3) Uani 1 1 d . . .
C5 C 0.885(5) 0.5000 0.8969(7) 0.055(5) Uani 1 2 d S . .
C6 C 0.579(4) 0.2383(8) 0.8958(8) 0.098(3) Uani 1 1 d D . .
H6 H 0.6557 0.2417 0.9235 0.08(2) Uiso 1 1 calc R . .
C7 C 0.444(4) 0.1834(9) 0.8816(7) 0.098(3) Uani 1 1 d D . .
H7 H 0.4434 0.1490 0.8979 0.08(2) Uiso 1 1 calc R . .
C8 C 0.312(3) 0.1846(8) 0.8414(6) 0.098(7) Uani 1 1 d D . .
C9 C 0.315(4) 0.2331(8) 0.8133(8) 0.098(3) Uani 1 1 d D . .
H9 H 0.2241 0.2302 0.7860 0.08(2) Uiso 1 1 calc R . .
C10 C 0.466(4) 0.2861(9) 0.8299(7) 0.098(3) Uani 1 1 d D . .
H10 H 0.4725 0.3203 0.8134 0.08(2) Uiso 1 1 calc R . .
C11 C 0.604(3) 0.2886(9) 0.8700(5) 0.084(5) Uani 1 1 d D . .
C12 C 0.852(4) 0.3906(8) 0.8996(6) 0.069(5) Uani 1 1 d . . .
C13 C 0.738(4) 0.3444(8) 0.8847(8) 0.095(7) Uani 1 1 d . . .
C14 C 0.136(6) 0.1249(11) 0.8282(10) 0.120(8) Uani 1 1 d . . .
C15 C 0.068(5) 0.0000 0.6711(11) 0.098(7) Uani 1 2 d S . .
C16 C 0.741(5) 0.0000 0.5916(9) 0.084(5) Uani 1 2 d S . .
C17 C 0.821(4) 0.0527(9) 0.6116(8) 0.098(3) Uani 1 1 d . . .
H17 H 0.7574 0.0888 0.5988 0.08(2) Uiso 1 1 calc R . .
C18 C -0.007(4) 0.0540(9) 0.6505(8) 0.098(3) Uani 1 1 d . . .
H18 H 0.0578 0.0904 0.6627 0.08(2) Uiso 1 1 calc R . .
C19 C 0.561(6) 0.0000 0.5506(9) 0.085(9) Uani 1 2 d S . .
C20 C 0.227(9) 0.0000 0.7136(16) 0.120(8) Uani 1 2 d S . .
O1 O 0.716(12) 0.5000 0.8598(16) 0.073(7) Uani 0.33 2 d SP . .
O2 O 0.256(8) 0.3946(16) 0.9777(11) 0.073(7) Uani 0.33 1 d P . .
S1 S 0.577(7) 0.2108(11) 0.6961(7) 0.128(6) Uiso 0.33 1 d P . .
S2 S 0.081(11) 0.0000 0.8947(12) 0.128(6) Uiso 0.33 2 d SP . .

loop_
_atom_site_aniso_label
_atom_site_aniso_U_11
_atom_site_aniso_U_22
_atom_site_aniso_U_33
_atom_site_aniso_U_23
_atom_site_aniso_U_13
_atom_site_aniso_U_12
Ag1 0.0707(11) 0.0536(9) 0.1193(15) 0.000 -0.0485(9) 0.000
N1 0.041(6) 0.097(11) 0.27(2) -0.117(16) 0.019(10) 0.004(8)
N2 0.041(6) 0.097(11) 0.27(2) -0.117(16) 0.019(10) 0.004(8)
C1 0.029(11) 0.089(17) 0.08(2) 0.000 0.031(13) 0.000
C2 0.029(9) 0.072(14) 0.035(11) 0.000 -0.005(8) 0.000
C3 0.028(7) 0.042(8) 0.091(12) -0.001(8) 0.006(7) 0.009(5)
C4 0.022(6) 0.045(7) 0.067(10) 0.002(7) 0.010(6) 0.000(5)
C5 0.021(9) 0.090(16) 0.056(14) 0.000 0.002(9) 0.000
C6 0.039(4) 0.083(6) 0.172(9) -0.031(6) 0.001(4) -0.003(3)
C7 0.039(4) 0.083(6) 0.172(9) -0.031(6) 0.001(4) -0.003(3)
C8 0.018(5) 0.095(12) 0.182(19) -0.084(14) 0.021(8) -0.004(7)
C9 0.039(4) 0.083(6) 0.172(9) -0.031(6) 0.001(4) -0.003(3)
C10 0.039(4) 0.083(6) 0.172(9) -0.031(6) 0.001(4) -0.003(3)
C11 0.018(6) 0.116(13) 0.118(13) -0.058(13) 0.013(7) 0.005(8)
C12 0.034(7) 0.076(11) 0.097(13) -0.035(10) 0.010(8) 0.009(7)
C13 0.022(7) 0.073(12) 0.19(2) -0.059(14) 0.012(10) -0.005(7)
C14 0.057(9) 0.094(13) 0.21(2) -0.087(16) -0.006(12) 0.010(10)
C15 0.018(5) 0.095(12) 0.182(19) -0.084(14) 0.021(8) -0.004(7)
C16 0.018(6) 0.116(13) 0.118(13) -0.058(13) 0.013(7) 0.005(8)
C17 0.039(4) 0.083(6) 0.172(9) -0.031(6) 0.001(4) -0.003(3)
C18 0.039(4) 0.083(6) 0.172(9) -0.031(6) 0.001(4) -0.003(3)
C19 0.024(10) 0.17(3) 0.056(16) 0.000 -0.005(11) 0.000
C20 0.057(9) 0.094(13) 0.21(2) -0.087(16) -0.006(12) 0.010(10)
O1 0.042(13) 0.09(2) 0.09(2) 0.000 -0.001(13) 0.000
O2 0.042(13) 0.09(2) 0.09(2) 0.000 -0.001(13) 0.000

_geom_special_details            
; 
All esds (except the esd in the dihedral angle between two l.s. planes) 
are estimated using the full covariance matrix.  The cell esds are taken 
into account individually in the estimation of esds in distances, angles 
and torsion angles; correlations between esds in cell parameters are only 
used when they are defined by crystal symmetry.  An approximate (isotropic) 
treatment of cell esds is used for estimating esds involving l.s. planes. 
;

loop_
_geom_bond_atom_site_label_1
_geom_bond_atom_site_label_2
_geom_bond_distance
_geom_bond_site_symmetry_2
_geom_bond_publ_flag
Ag1 N1 2.210(18) 1_655 ?
Ag1 N1 2.210(17) 2_655 ?
Ag1 N2 2.24(4) . ?
N1 C14 1.09(2) . ?
N1 Ag1 2.210(17) 1_455 ?
N2 C20 1.01(5) . ?
C1 C19 1.14(3) . ?
C1 C2 1.45(3) 3_544 ?
C2 C3 1.421(18) . ?
C2 C3 1.421(17) 2_565 ?
C2 C1 1.45(4) 3 ?
C3 C4 1.35(2) . ?
C3 O2 1.37(4) . ?
C4 C5 1.429(17) 1_455 ?
C4 C12 1.46(2) 1_455 ?
C5 O1 1.33(6) . ?
C5 C4 1.429(17) 2_665 ?
C5 C4 1.429(17) 1_655 ?
C6 C7 1.393(18) . ?
C6 C11 1.402(19) . ?
C7 C8 1.368(19) . ?
C8 C9 1.411(19) . ?
C8 C14 1.54(3) . ?
C9 C10 1.406(19) . ?
C10 C11 1.372(18) . ?
C11 C13 1.41(3) . ?
C12 C13 1.21(2) . ?
C12 C4 1.46(2) 1_655 ?
C15 C18 1.40(3) 2 ?
C15 C18 1.40(3) . ?
C15 C20 1.47(5) . ?
C16 C17 1.37(2) 2 ?
C16 C17 1.37(2) . ?
C16 C19 1.46(4) . ?
C17 C18 1.39(3) 1_655 ?
C18 C17 1.39(3) 1_455 ?

loop_
_geom_angle_atom_site_label_1
_geom_angle_atom_site_label_2
_geom_angle_atom_site_label_3
_geom_angle
_geom_angle_site_symmetry_1
_geom_angle_site_symmetry_3
_geom_angle_publ_flag
N1 Ag1 N1 118.0(11) 1_655 2_655 ?
N1 Ag1 N2 116.3(8) 1_655 . ?
N1 Ag1 N2 116.3(8) 2_655 . ?
C14 N1 Ag1 168(3) . 1_455 ?
C20 N2 Ag1 179(4) . . ?
C19 C1 C2 179(2) . 3_544 ?
C3 C2 C3 116.1(18) . 2_565 ?
C3 C2 C1 121.9(9) . 3 ?
C3 C2 C1 121.9(9) 2_565 3 ?
C4 C3 O2 124.3(19) . . ?
C4 C3 C2 121.4(13) . . ?
O2 C3 C2 114(2) . . ?
C3 C4 C5 123.5(13) . 1_455 ?
C3 C4 C12 120.9(13) . 1_455 ?
C5 C4 C12 115.5(14) 1_455 1_455 ?
O1 C5 C4 123.1(9) . 2_665 ?
O1 C5 C4 123.1(9) . 1_655 ?
C4 C5 C4 113.4(18) 2_665 1_655 ?
C7 C6 C11 122(2) . . ?
C8 C7 C6 114(2) . . ?
C7 C8 C9 127.7(18) . . ?
C7 C8 C14 112(2) . . ?
C9 C8 C14 120.0(19) . . ?
C10 C9 C8 114(2) . . ?
C11 C10 C9 122(2) . . ?
C10 C11 C6 119.7(19) . . ?
C10 C11 C13 117.7(19) . . ?
C6 C11 C13 122.4(18) . . ?
C13 C12 C4 175.6(17) . 1_655 ?
C12 C13 C11 176(3) . . ?
N1 C14 C8 171(4) . . ?
C18 C15 C18 119(3) 2 . ?
C18 C15 C20 120.6(16) 2 . ?
C18 C15 C20 120.6(16) . . ?
C17 C16 C17 118(3) 2 . ?
C17 C16 C19 120.8(15) 2 . ?
C17 C16 C19 120.8(15) . . ?
C16 C17 C18 122(2) . 1_655 ?
C17 C18 C15 119(2) 1_455 . ?
C1 C19 C16 178(2) . . ?
N2 C20 C15 168(4) . . ?

_diffrn_measured_fraction_theta_max 0.944
_diffrn_reflns_theta_full        23.30
_diffrn_measured_fraction_theta_full 0.944
_refine_diff_density_max         1.537
_refine_diff_density_min         -1.319
_refine_diff_density_rms         0.197
