####################################################################### 
# 
# This file contains crystal structure data downloaded from the 
# Cambridge Structural Database (CSD) hosted by the Cambridge 
# Crystallographic Data Centre (CCDC).
# 
# Full information about CCDC data access policies and citation 
# guidelines are available at http://www.ccdc.cam.ac.uk/access/V1 
# 
# Audit and citation data items may have been added by the CCDC. 
# Please retain this information to preserve the provenance of 
# this file and to allow appropriate attribution of the data. 
# 
#######################################################################

data_fm-3c1
_audit_block_doi                 10.5517/ccz21nq
_database_code_depnum_ccdc_archive 'CCDC 895703'
loop_
_citation_id
_citation_doi
_citation_year
1 10.1002/chem.201202899 2012
_audit_update_record             
;
2012-08-10 deposited with the CCDC.	2024-07-13 downloaded from the CCDC.
;
#TrackingRef '13204_web_deposit_cif_file_0_YonghwiKim_1344609293.Mn.cif'


_audit_creation_method           SHELXL-97
_chemical_name_systematic        
;
?
;
_chemical_name_common            ?
_chemical_melting_point          ?
_chemical_formula_moiety         ?
_chemical_formula_sum            'C288 H216 Cl3 Mn13 O48'
_chemical_formula_weight         5265.18

loop_
_atom_type_symbol
_atom_type_description
_atom_type_scat_dispersion_real
_atom_type_scat_dispersion_imag
_atom_type_scat_source
C C -0.0020 0.0024 'International Tables Vol C Tables 4.2.6.8 and 6.1.1.4'
H H 0.0000 0.0000 'International Tables Vol C Tables 4.2.6.8 and 6.1.1.4'
O O -0.0042 0.0090 'International Tables Vol C Tables 4.2.6.8 and 6.1.1.4'
Cl Cl 0.1599 0.2273 'International Tables Vol C Tables 4.2.6.8 and 6.1.1.4'
Mn Mn 0.2110 1.0142 'International Tables Vol C Tables 4.2.6.8 and 6.1.1.4'

_symmetry_cell_setting           Cubic
_symmetry_space_group_name_H-M   fm-3c

loop_
_symmetry_equiv_pos_as_xyz
'x, y, z'
'-x, -y, z'
'-x, y, -z'
'x, -y, -z'
'z, x, y'
'z, -x, -y'
'-z, -x, y'
'-z, x, -y'
'y, z, x'
'-y, z, -x'
'y, -z, -x'
'-y, -z, x'
'y+1/2, x+1/2, -z+1/2'
'-y+1/2, -x+1/2, -z+1/2'
'y+1/2, -x+1/2, z+1/2'
'-y+1/2, x+1/2, z+1/2'
'x+1/2, z+1/2, -y+1/2'
'-x+1/2, z+1/2, y+1/2'
'-x+1/2, -z+1/2, -y+1/2'
'x+1/2, -z+1/2, y+1/2'
'z+1/2, y+1/2, -x+1/2'
'z+1/2, -y+1/2, x+1/2'
'-z+1/2, y+1/2, x+1/2'
'-z+1/2, -y+1/2, -x+1/2'
'x, y+1/2, z+1/2'
'-x, -y+1/2, z+1/2'
'-x, y+1/2, -z+1/2'
'x, -y+1/2, -z+1/2'
'z, x+1/2, y+1/2'
'z, -x+1/2, -y+1/2'
'-z, -x+1/2, y+1/2'
'-z, x+1/2, -y+1/2'
'y, z+1/2, x+1/2'
'-y, z+1/2, -x+1/2'
'y, -z+1/2, -x+1/2'
'-y, -z+1/2, x+1/2'
'y+1/2, x+1, -z+1'
'-y+1/2, -x+1, -z+1'
'y+1/2, -x+1, z+1'
'-y+1/2, x+1, z+1'
'x+1/2, z+1, -y+1'
'-x+1/2, z+1, y+1'
'-x+1/2, -z+1, -y+1'
'x+1/2, -z+1, y+1'
'z+1/2, y+1, -x+1'
'z+1/2, -y+1, x+1'
'-z+1/2, y+1, x+1'
'-z+1/2, -y+1, -x+1'
'x+1/2, y, z+1/2'
'-x+1/2, -y, z+1/2'
'-x+1/2, y, -z+1/2'
'x+1/2, -y, -z+1/2'
'z+1/2, x, y+1/2'
'z+1/2, -x, -y+1/2'
'-z+1/2, -x, y+1/2'
'-z+1/2, x, -y+1/2'
'y+1/2, z, x+1/2'
'-y+1/2, z, -x+1/2'
'y+1/2, -z, -x+1/2'
'-y+1/2, -z, x+1/2'
'y+1, x+1/2, -z+1'
'-y+1, -x+1/2, -z+1'
'y+1, -x+1/2, z+1'
'-y+1, x+1/2, z+1'
'x+1, z+1/2, -y+1'
'-x+1, z+1/2, y+1'
'-x+1, -z+1/2, -y+1'
'x+1, -z+1/2, y+1'
'z+1, y+1/2, -x+1'
'z+1, -y+1/2, x+1'
'-z+1, y+1/2, x+1'
'-z+1, -y+1/2, -x+1'
'x+1/2, y+1/2, z'
'-x+1/2, -y+1/2, z'
'-x+1/2, y+1/2, -z'
'x+1/2, -y+1/2, -z'
'z+1/2, x+1/2, y'
'z+1/2, -x+1/2, -y'
'-z+1/2, -x+1/2, y'
'-z+1/2, x+1/2, -y'
'y+1/2, z+1/2, x'
'-y+1/2, z+1/2, -x'
'y+1/2, -z+1/2, -x'
'-y+1/2, -z+1/2, x'
'y+1, x+1, -z+1/2'
'-y+1, -x+1, -z+1/2'
'y+1, -x+1, z+1/2'
'-y+1, x+1, z+1/2'
'x+1, z+1, -y+1/2'
'-x+1, z+1, y+1/2'
'-x+1, -z+1, -y+1/2'
'x+1, -z+1, y+1/2'
'z+1, y+1, -x+1/2'
'z+1, -y+1, x+1/2'
'-z+1, y+1, x+1/2'
'-z+1, -y+1, -x+1/2'
'-x, -y, -z'
'x, y, -z'
'x, -y, z'
'-x, y, z'
'-z, -x, -y'
'-z, x, y'
'z, x, -y'
'z, -x, y'
'-y, -z, -x'
'y, -z, x'
'-y, z, x'
'y, z, -x'
'-y-1/2, -x-1/2, z-1/2'
'y-1/2, x-1/2, z-1/2'
'-y-1/2, x-1/2, -z-1/2'
'y-1/2, -x-1/2, -z-1/2'
'-x-1/2, -z-1/2, y-1/2'
'x-1/2, -z-1/2, -y-1/2'
'x-1/2, z-1/2, y-1/2'
'-x-1/2, z-1/2, -y-1/2'
'-z-1/2, -y-1/2, x-1/2'
'-z-1/2, y-1/2, -x-1/2'
'z-1/2, -y-1/2, -x-1/2'
'z-1/2, y-1/2, x-1/2'
'-x, -y+1/2, -z+1/2'
'x, y+1/2, -z+1/2'
'x, -y+1/2, z+1/2'
'-x, y+1/2, z+1/2'
'-z, -x+1/2, -y+1/2'
'-z, x+1/2, y+1/2'
'z, x+1/2, -y+1/2'
'z, -x+1/2, y+1/2'
'-y, -z+1/2, -x+1/2'
'y, -z+1/2, x+1/2'
'-y, z+1/2, x+1/2'
'y, z+1/2, -x+1/2'
'-y-1/2, -x, z'
'y-1/2, x, z'
'-y-1/2, x, -z'
'y-1/2, -x, -z'
'-x-1/2, -z, y'
'x-1/2, -z, -y'
'x-1/2, z, y'
'-x-1/2, z, -y'
'-z-1/2, -y, x'
'-z-1/2, y, -x'
'z-1/2, -y, -x'
'z-1/2, y, x'
'-x+1/2, -y, -z+1/2'
'x+1/2, y, -z+1/2'
'x+1/2, -y, z+1/2'
'-x+1/2, y, z+1/2'
'-z+1/2, -x, -y+1/2'
'-z+1/2, x, y+1/2'
'z+1/2, x, -y+1/2'
'z+1/2, -x, y+1/2'
'-y+1/2, -z, -x+1/2'
'y+1/2, -z, x+1/2'
'-y+1/2, z, x+1/2'
'y+1/2, z, -x+1/2'
'-y, -x-1/2, z'
'y, x-1/2, z'
'-y, x-1/2, -z'
'y, -x-1/2, -z'
'-x, -z-1/2, y'
'x, -z-1/2, -y'
'x, z-1/2, y'
'-x, z-1/2, -y'
'-z, -y-1/2, x'
'-z, y-1/2, -x'
'z, -y-1/2, -x'
'z, y-1/2, x'
'-x+1/2, -y+1/2, -z'
'x+1/2, y+1/2, -z'
'x+1/2, -y+1/2, z'
'-x+1/2, y+1/2, z'
'-z+1/2, -x+1/2, -y'
'-z+1/2, x+1/2, y'
'z+1/2, x+1/2, -y'
'z+1/2, -x+1/2, y'
'-y+1/2, -z+1/2, -x'
'y+1/2, -z+1/2, x'
'-y+1/2, z+1/2, x'
'y+1/2, z+1/2, -x'
'-y, -x, z-1/2'
'y, x, z-1/2'
'-y, x, -z-1/2'
'y, -x, -z-1/2'
'-x, -z, y-1/2'
'x, -z, -y-1/2'
'x, z, y-1/2'
'-x, z, -y-1/2'
'-z, -y, x-1/2'
'-z, y, -x-1/2'
'z, -y, -x-1/2'
'z, y, x-1/2'

_cell_length_a                   50.621(6)
_cell_length_b                   50.621(6)
_cell_length_c                   50.621(6)
_cell_angle_alpha                90.00
_cell_angle_beta                 90.00
_cell_angle_gamma                90.00
_cell_volume                     129716(26)
_cell_formula_units_Z            8
_cell_measurement_temperature    100(2)
_cell_measurement_reflns_used    2681
_cell_measurement_theta_min      1.44
_cell_measurement_theta_max      28.81

_exptl_crystal_description       cubic
_exptl_crystal_colour            'pale yellow'
_exptl_crystal_size_max          0.32
_exptl_crystal_size_mid          0.28
_exptl_crystal_size_min          0.24
_exptl_crystal_density_meas      ?
_exptl_crystal_density_diffrn    0.539
_exptl_crystal_density_method    'not measured'
_exptl_crystal_F_000             21632
_exptl_absorpt_coefficient_mu    0.462
_exptl_absorpt_correction_type   multi-scan
_exptl_absorpt_correction_T_min  0.8661
_exptl_absorpt_correction_T_max  0.8971
_exptl_absorpt_process_details   HKL2000

_exptl_special_details           
;
?
;

_diffrn_ambient_temperature      100(2)
_diffrn_radiation_wavelength     0.90000
_diffrn_radiation_type           synchrotron
_diffrn_radiation_source         PAL
_diffrn_radiation_monochromator  Si(111)
_diffrn_measurement_device_type  'ADSC Quantum 210'
_diffrn_measurement_method       \w-scan
_diffrn_detector_area_resol_mean ?
_diffrn_standards_number         ?
_diffrn_standards_interval_count ?
_diffrn_standards_interval_time  ?
_diffrn_standards_decay_%        ?
_diffrn_reflns_number            44084
_diffrn_reflns_av_R_equivalents  0.0416
_diffrn_reflns_av_sigmaI/netI    0.0201
_diffrn_reflns_limit_h_min       -47
_diffrn_reflns_limit_h_max       49
_diffrn_reflns_limit_k_min       -34
_diffrn_reflns_limit_k_max       50
_diffrn_reflns_limit_l_min       -47
_diffrn_reflns_limit_l_max       33
_diffrn_reflns_theta_min         1.44
_diffrn_reflns_theta_max         28.81
_reflns_number_total             2681
_reflns_number_gt                1958
_reflns_threshold_expression     >2sigma(I)

_computing_data_collection       'ADSC Quantum software'
_computing_cell_refinement       'DENZO (Z. Otwinowski and W. Minor, 1997)'
_computing_data_reduction        'HKL2000 (Z. Otwinowski and W. Minor, 1997)'
_computing_structure_solution    'SHELXS-97 (Sheldrick, 1990)'
_computing_structure_refinement  'SHELXL-97 (Sheldrick, 1997)'
_computing_molecular_graphics    'Bruker SHELXTL'
_computing_publication_material  'Bruker SHELXTL'

_refine_special_details          
;
Refinement of F^2^ against ALL reflections. The weighted R-factor wR and
goodness of fit S are based on F^2^, conventional R-factors R are based
on F, with F set to zero for negative F^2^. The threshold expression of
F^2^ > 2sigma(F^2^) is used only for calculating R-factors(gt) etc. and is
not relevant to the choice of reflections for refinement. R-factors based
on F^2^ are statistically about twice as large as those based on F, and R-
factors based on ALL data will be even larger. The SQUEEZE routine within
the PLATON software package (Spek, A.L. (1990), Acta Cryst. A46, C-34)
was used to treat the diffuse electron density peaks observed within the
large voids of the structure. These could not be reliably assigned to solvent
molecules, as commonly observed for structures of this type.
;

# Details about the Squeezed Material
loop_
_platon_squeeze_void_nr
_platon_squeeze_void_average_x
_platon_squeeze_void_average_y
_platon_squeeze_void_average_z
_platon_squeeze_void_volume
_platon_squeeze_void_count_electrons
_platon_squeeze_void_content
1 -0.015 -0.026 -0.016 75112 10376 ' '
2 0.250 0.250 0.250 2005 501 ' '
3 0.750 0.250 0.250 2005 500 ' '
4 0.250 0.250 0.750 2005 500 ' '
5 0.750 0.250 0.750 2005 501 ' '
6 0.250 0.750 0.250 2005 500 ' '
7 0.750 0.750 0.250 2005 501 ' '
8 0.250 0.750 0.750 2005 501 ' '
9 0.750 0.750 0.750 2005 500 ' '
_platon_squeeze_details          
;
;

_refine_ls_structure_factor_coef Fsqd
_refine_ls_matrix_type           full
_refine_ls_weighting_scheme      calc
_refine_ls_weighting_details     
'calc w=1/[\s^2^(Fo^2^)+(0.1747P)^2^+23.8334P] where P=(Fo^2^+2Fc^2^)/3'
_atom_sites_solution_primary     direct
_atom_sites_solution_secondary   difmap
_atom_sites_solution_hydrogens   geom
_refine_ls_hydrogen_treatment    constr
_refine_ls_extinction_method     none
_refine_ls_extinction_coef       ?
_refine_ls_number_reflns         2681
_refine_ls_number_parameters     146
_refine_ls_number_restraints     0
_refine_ls_R_factor_all          0.0895
_refine_ls_R_factor_gt           0.0762
_refine_ls_wR_factor_ref         0.2406
_refine_ls_wR_factor_gt          0.2307
_refine_ls_goodness_of_fit_ref   1.072
_refine_ls_restrained_S_all      1.072
_refine_ls_shift/su_max          0.001
_refine_ls_shift/su_mean         0.000

loop_
_atom_site_label
_atom_site_type_symbol
_atom_site_fract_x
_atom_site_fract_y
_atom_site_fract_z
_atom_site_U_iso_or_equiv
_atom_site_adp_type
_atom_site_occupancy
_atom_site_symmetry_multiplicity
_atom_site_calc_flag
_atom_site_refinement_flags
_atom_site_disorder_assembly
_atom_site_disorder_group
Mn1 Mn 1.0000 0.300027(19) 0.236358(17) 0.1180(6) Uani 1 2 d S . .
Mn2 Mn 0.7500 0.2500 0.2500 0.245(2) Uani 1 24 d S . .
Cl1 Cl 1.01079(5) 0.2500 0.2500 0.0981(12) Uani 0.50 4 d SP . .
O1 O 0.97044(7) 0.31718(8) 0.25816(7) 0.1648(14) Uani 1 1 d . . .
O2A O 0.97952(12) 0.29596(15) 0.29791(13) 0.1248(19) Uani 0.50 1 d P . .
O2B O 0.96661(14) 0.28520(18) 0.2827(2) 0.162(3) Uani 0.50 1 d P . .
C1 C 0.96256(11) 0.30836(14) 0.27920(13) 0.1497(19) Uani 1 1 d . . .
C2 C 0.93842(9) 0.32043(10) 0.29094(9) 0.1299(15) Uani 1 1 d . . .
C4 C 0.92749(9) 0.30857(9) 0.31312(10) 0.1387(16) Uani 1 1 d . . .
H4A H 0.9354 0.2932 0.3204 0.166 Uiso 1 1 calc R . .
C7 C 0.90515(8) 0.31923(9) 0.32448(8) 0.1307(14) Uani 1 1 d . . .
C6 C 0.89279(9) 0.34196(8) 0.31380(8) 0.1175(14) Uani 1 1 d . . .
C5 C 0.90320(9) 0.35353(10) 0.29155(9) 0.1380(17) Uani 1 1 d . . .
H5A H 0.8950 0.3686 0.2839 0.166 Uiso 1 1 calc R . .
C3 C 0.92633(9) 0.34253(9) 0.28036(8) 0.1341(16) Uani 1 1 d . . .
H3A H 0.9338 0.3506 0.2651 0.161 Uiso 1 1 calc R . .
C8 C 0.89050(10) 0.30901(9) 0.34874(9) 0.1349(17) Uani 1 1 d . . .
C11 C 0.86789(8) 0.32900(8) 0.35054(9) 0.1174(14) Uani 1 1 d . . .
C12 C 0.86920(8) 0.34778(9) 0.33055(8) 0.1125(13) Uani 1 1 d . . .
C9 C 0.91102(13) 0.31112(16) 0.37134(14) 0.235(4) Uani 1 1 d . . .
H9A H 0.9161 0.3297 0.3738 0.352 Uiso 1 1 calc R . .
H9B H 0.9267 0.3007 0.3668 0.352 Uiso 1 1 calc R . .
H9C H 0.9033 0.3043 0.3877 0.352 Uiso 1 1 calc R . .
C10 C 0.87912(13) 0.28059(10) 0.34044(11) 0.196(3) Uani 1 1 d . . .
H10A H 0.8664 0.2827 0.3260 0.294 Uiso 1 1 calc R . .
H10B H 0.8703 0.2725 0.3557 0.294 Uiso 1 1 calc R . .
H10C H 0.8937 0.2693 0.3346 0.294 Uiso 1 1 calc R . .

loop_
_atom_site_aniso_label
_atom_site_aniso_U_11
_atom_site_aniso_U_22
_atom_site_aniso_U_33
_atom_site_aniso_U_23
_atom_site_aniso_U_13
_atom_site_aniso_U_12
Mn1 0.0958(8) 0.1427(9) 0.1155(8) -0.0378(5) 0.000 0.000
Mn2 0.245(2) 0.245(2) 0.245(2) 0.000 0.000 0.000
Cl1 0.071(2) 0.1116(15) 0.1116(15) 0.000 0.000 0.000
O1 0.146(3) 0.221(4) 0.127(3) -0.021(2) 0.035(2) 0.051(2)
O2A 0.109(4) 0.136(5) 0.130(5) -0.020(4) 0.013(4) 0.036(4)
O2B 0.114(5) 0.155(7) 0.218(8) -0.054(6) -0.026(5) 0.067(5)
C1 0.139(5) 0.178(6) 0.133(5) -0.017(4) 0.052(4) 0.037(4)
C2 0.128(3) 0.156(4) 0.105(3) 0.006(3) 0.030(3) 0.042(3)
C4 0.141(4) 0.139(4) 0.136(4) 0.027(3) 0.034(3) 0.066(3)
C7 0.133(3) 0.143(4) 0.116(3) 0.021(3) 0.024(3) 0.055(3)
C6 0.123(3) 0.125(3) 0.104(3) 0.019(3) 0.023(3) 0.038(3)
C5 0.141(4) 0.160(4) 0.113(3) 0.037(3) 0.044(3) 0.060(3)
C3 0.137(4) 0.154(4) 0.112(3) 0.023(3) 0.038(3) 0.039(3)
C8 0.156(4) 0.137(4) 0.112(3) 0.038(3) 0.042(3) 0.056(4)
C11 0.125(4) 0.109(3) 0.118(3) 0.024(3) 0.039(3) 0.038(3)
C12 0.118(4) 0.116(3) 0.103(3) 0.018(3) 0.029(3) 0.027(3)
C9 0.198(6) 0.320(9) 0.187(6) 0.111(6) 0.052(5) 0.113(6)
C10 0.248(6) 0.124(4) 0.215(5) 0.016(4) 0.119(5) 0.028(4)

_geom_special_details            
;
All esds (except the esd in the dihedral angle between two l.s. planes)
are estimated using the full covariance matrix. The cell esds are taken
into account individually in the estimation of esds in distances, angles
and torsion angles; correlations between esds in cell parameters are only
used when they are defined by crystal symmetry. An approximate (isotropic)
treatment of cell esds is used for estimating esds involving l.s. planes.
;

loop_
_geom_bond_atom_site_label_1
_geom_bond_atom_site_label_2
_geom_bond_distance
_geom_bond_site_symmetry_2
_geom_bond_publ_flag
Mn1 O2A 1.940(6) 89_445 ?
Mn1 O2A 1.940(6) 188_756 ?
Mn1 O1 2.052(3) . ?
Mn1 O1 2.052(3) 100_755 ?
Mn1 O2B 2.195(8) 89_445 ?
Mn1 O2B 2.195(8) 188_756 ?
Mn1 Cl1 2.6811(11) . ?
Mn1 Cl1 2.6811(11) 121_755 ?
Cl1 Cl1 1.092(5) 121_755 ?
Cl1 Mn1 2.6810(11) 161_765 ?
Cl1 Mn1 2.6810(11) 121_755 ?
Cl1 Mn1 2.6810(11) 89_445 ?
O1 C1 1.222(6) . ?
O2A O2B 1.148(8) . ?
O2A C1 1.424(9) . ?
O2A Mn1 1.940(6) 161_765 ?
O2B C1 1.203(9) . ?
O2B Mn1 2.195(8) 161_765 ?
C1 C2 1.489(7) . ?
C2 C3 1.383(6) . ?
C2 C4 1.389(5) . ?
C4 C7 1.379(5) . ?
C7 C6 1.417(5) . ?
C7 C8 1.525(6) . ?
C6 C5 1.375(5) . ?
C6 C12 1.494(5) . ?
C5 C3 1.415(5) . ?
C8 C11 1.530(5) . ?
C8 C9 1.549(9) . ?
C8 C10 1.606(7) . ?
C11 C12 1.390(4) . ?
C11 C12 1.391(4) 57_554 ?
C12 C11 1.391(4) 77_545 ?

loop_
_geom_angle_atom_site_label_1
_geom_angle_atom_site_label_2
_geom_angle_atom_site_label_3
_geom_angle
_geom_angle_site_symmetry_1
_geom_angle_site_symmetry_3
_geom_angle_publ_flag
O2A Mn1 O2A 64.6(4) 89_445 188_756 ?
O2A Mn1 O1 95.0(2) 89_445 . ?
O2A Mn1 O1 150.1(2) 188_756 . ?
O2A Mn1 O1 150.1(2) 89_445 100_755 ?
O2A Mn1 O1 95.0(2) 188_756 100_755 ?
O1 Mn1 O1 93.6(2) . 100_755 ?
O2A Mn1 O2B 31.5(2) 89_445 89_445 ?
O2A Mn1 O2B 88.3(3) 188_756 89_445 ?
O1 Mn1 O2B 82.8(3) . 89_445 ?
O1 Mn1 O2B 176.4(3) 100_755 89_445 ?
O2A Mn1 O2B 88.3(3) 89_445 188_756 ?
O2A Mn1 O2B 31.5(2) 188_756 188_756 ?
O1 Mn1 O2B 176.4(3) . 188_756 ?
O1 Mn1 O2B 82.8(3) 100_755 188_756 ?
O2B Mn1 O2B 100.7(5) 89_445 188_756 ?
O2A Mn1 Cl1 105.9(2) 89_445 . ?
O2A Mn1 Cl1 93.2(2) 188_756 . ?
O1 Mn1 Cl1 114.18(14) . . ?
O1 Mn1 Cl1 96.46(14) 100_755 . ?
O2B Mn1 Cl1 84.7(2) 89_445 . ?
O2B Mn1 Cl1 66.0(2) 188_756 . ?
O2A Mn1 Cl1 93.2(2) 89_445 121_755 ?
O2A Mn1 Cl1 105.9(2) 188_756 121_755 ?
O1 Mn1 Cl1 96.47(14) . 121_755 ?
O1 Mn1 Cl1 114.18(14) 100_755 121_755 ?
O2B Mn1 Cl1 66.0(2) 89_445 121_755 ?
O2B Mn1 Cl1 84.7(2) 188_756 121_755 ?
Cl1 Mn1 Cl1 23.50(12) . 121_755 ?
Cl1 Cl1 Mn1 78.25(6) 121_755 161_765 ?
Cl1 Cl1 Mn1 78.25(6) 121_755 121_755 ?
Mn1 Cl1 Mn1 87.62(2) 161_765 121_755 ?
Cl1 Cl1 Mn1 78.25(6) 121_755 89_445 ?
Mn1 Cl1 Mn1 156.50(12) 161_765 89_445 ?
Mn1 Cl1 Mn1 87.62(2) 121_755 89_445 ?
Cl1 Cl1 Mn1 78.25(6) 121_755 . ?
Mn1 Cl1 Mn1 87.62(2) 161_765 . ?
Mn1 Cl1 Mn1 156.50(12) 121_755 . ?
Mn1 Cl1 Mn1 87.62(2) 89_445 . ?
C1 O1 Mn1 123.5(4) . . ?
O2B O2A C1 54.5(6) . . ?
O2B O2A Mn1 86.6(6) . 161_765 ?
C1 O2A Mn1 136.9(6) . 161_765 ?
O2A O2B C1 74.5(7) . . ?
O2A O2B Mn1 61.9(6) . 161_765 ?
C1 O2B Mn1 132.4(7) . 161_765 ?
O2B C1 O1 115.4(7) . . ?
O2B C1 O2A 51.0(5) . . ?
O1 C1 O2A 122.9(5) . . ?
O2B C1 C2 118.8(6) . . ?
O1 C1 C2 117.7(6) . . ?
O2A C1 C2 114.2(5) . . ?
C3 C2 C4 119.1(4) . . ?
C3 C2 C1 122.7(5) . . ?
C4 C2 C1 118.2(5) . . ?
C7 C4 C2 119.7(4) . . ?
C4 C7 C6 121.4(4) . . ?
C4 C7 C8 127.0(4) . . ?
C6 C7 C8 111.6(4) . . ?
C5 C6 C7 119.3(4) . . ?
C5 C6 C12 133.5(4) . . ?
C7 C6 C12 107.3(4) . . ?
C6 C5 C3 118.5(4) . . ?
C2 C3 C5 122.0(4) . . ?
C7 C8 C11 100.8(3) . . ?
C7 C8 C9 104.2(4) . . ?
C11 C8 C9 114.4(4) . . ?
C7 C8 C10 105.5(4) . . ?
C11 C8 C10 109.9(4) . . ?
C9 C8 C10 119.7(5) . . ?
C12 C11 C12 119.4(4) . 57_554 ?
C12 C11 C8 111.9(4) . . ?
C12 C11 C8 128.7(5) 57_554 . ?
C11 C12 C11 120.6(4) . 77_545 ?
C11 C12 C6 108.5(4) . . ?
C11 C12 C6 130.9(5) 77_545 . ?

_diffrn_measured_fraction_theta_max 0.733
_diffrn_reflns_theta_full        28.81
_diffrn_measured_fraction_theta_full 0.733
_refine_diff_density_max         0.325
_refine_diff_density_min         -0.688
_refine_diff_density_rms         0.038
