####################################################################### 
# 
# This file contains crystal structure data downloaded from the 
# Cambridge Structural Database (CSD) hosted by the Cambridge 
# Crystallographic Data Centre (CCDC).
# 
# Full information about CCDC data access policies and citation 
# guidelines are available at http://www.ccdc.cam.ac.uk/access/V1 
# 
# Audit and citation data items may have been added by the CCDC. 
# Please retain this information to preserve the provenance of 
# this file and to allow appropriate attribution of the data. 
# 
#######################################################################

data_fm-3c2
_audit_block_doi                 10.5517/ccz21pr
_database_code_depnum_ccdc_archive 'CCDC 895704'
loop_
_citation_id
_citation_doi
_citation_year
1 10.1002/chem.201202899 2012
_audit_update_record             
;
2012-08-10 deposited with the CCDC.	2024-07-13 downloaded from the CCDC.
;
#TrackingRef '13205_web_deposit_cif_file_1_YonghwiKim_1344609293.Co.cif'


_audit_creation_method           SHELXL-97
_chemical_name_systematic        
;
?
;
_chemical_name_common            ?
_chemical_melting_point          ?
_chemical_formula_moiety         ?
_chemical_formula_sum            'C288 H216 Cl3 Co13 O48'
_chemical_formula_weight         5317.05

loop_
_atom_type_symbol
_atom_type_description
_atom_type_scat_dispersion_real
_atom_type_scat_dispersion_imag
_atom_type_scat_source
C C 0.0033 0.0016 'International Tables Vol C Tables 4.2.6.8 and 6.1.1.4'
H H 0.0000 0.0000 'International Tables Vol C Tables 4.2.6.8 and 6.1.1.4'
O O 0.0106 0.0060 'International Tables Vol C Tables 4.2.6.8 and 6.1.1.4'
Cl Cl 0.1484 0.1585 'International Tables Vol C Tables 4.2.6.8 and 6.1.1.4'
Co Co 0.3494 0.9721 'International Tables Vol C Tables 4.2.6.8 and 6.1.1.4'

_symmetry_cell_setting           cubic
_symmetry_space_group_name_H-M   fm-3c

loop_
_symmetry_equiv_pos_as_xyz
'x, y, z'
'-x, -y, z'
'-x, y, -z'
'x, -y, -z'
'z, x, y'
'z, -x, -y'
'-z, -x, y'
'-z, x, -y'
'y, z, x'
'-y, z, -x'
'y, -z, -x'
'-y, -z, x'
'y+1/2, x+1/2, -z+1/2'
'-y+1/2, -x+1/2, -z+1/2'
'y+1/2, -x+1/2, z+1/2'
'-y+1/2, x+1/2, z+1/2'
'x+1/2, z+1/2, -y+1/2'
'-x+1/2, z+1/2, y+1/2'
'-x+1/2, -z+1/2, -y+1/2'
'x+1/2, -z+1/2, y+1/2'
'z+1/2, y+1/2, -x+1/2'
'z+1/2, -y+1/2, x+1/2'
'-z+1/2, y+1/2, x+1/2'
'-z+1/2, -y+1/2, -x+1/2'
'x, y+1/2, z+1/2'
'-x, -y+1/2, z+1/2'
'-x, y+1/2, -z+1/2'
'x, -y+1/2, -z+1/2'
'z, x+1/2, y+1/2'
'z, -x+1/2, -y+1/2'
'-z, -x+1/2, y+1/2'
'-z, x+1/2, -y+1/2'
'y, z+1/2, x+1/2'
'-y, z+1/2, -x+1/2'
'y, -z+1/2, -x+1/2'
'-y, -z+1/2, x+1/2'
'y+1/2, x+1, -z+1'
'-y+1/2, -x+1, -z+1'
'y+1/2, -x+1, z+1'
'-y+1/2, x+1, z+1'
'x+1/2, z+1, -y+1'
'-x+1/2, z+1, y+1'
'-x+1/2, -z+1, -y+1'
'x+1/2, -z+1, y+1'
'z+1/2, y+1, -x+1'
'z+1/2, -y+1, x+1'
'-z+1/2, y+1, x+1'
'-z+1/2, -y+1, -x+1'
'x+1/2, y, z+1/2'
'-x+1/2, -y, z+1/2'
'-x+1/2, y, -z+1/2'
'x+1/2, -y, -z+1/2'
'z+1/2, x, y+1/2'
'z+1/2, -x, -y+1/2'
'-z+1/2, -x, y+1/2'
'-z+1/2, x, -y+1/2'
'y+1/2, z, x+1/2'
'-y+1/2, z, -x+1/2'
'y+1/2, -z, -x+1/2'
'-y+1/2, -z, x+1/2'
'y+1, x+1/2, -z+1'
'-y+1, -x+1/2, -z+1'
'y+1, -x+1/2, z+1'
'-y+1, x+1/2, z+1'
'x+1, z+1/2, -y+1'
'-x+1, z+1/2, y+1'
'-x+1, -z+1/2, -y+1'
'x+1, -z+1/2, y+1'
'z+1, y+1/2, -x+1'
'z+1, -y+1/2, x+1'
'-z+1, y+1/2, x+1'
'-z+1, -y+1/2, -x+1'
'x+1/2, y+1/2, z'
'-x+1/2, -y+1/2, z'
'-x+1/2, y+1/2, -z'
'x+1/2, -y+1/2, -z'
'z+1/2, x+1/2, y'
'z+1/2, -x+1/2, -y'
'-z+1/2, -x+1/2, y'
'-z+1/2, x+1/2, -y'
'y+1/2, z+1/2, x'
'-y+1/2, z+1/2, -x'
'y+1/2, -z+1/2, -x'
'-y+1/2, -z+1/2, x'
'y+1, x+1, -z+1/2'
'-y+1, -x+1, -z+1/2'
'y+1, -x+1, z+1/2'
'-y+1, x+1, z+1/2'
'x+1, z+1, -y+1/2'
'-x+1, z+1, y+1/2'
'-x+1, -z+1, -y+1/2'
'x+1, -z+1, y+1/2'
'z+1, y+1, -x+1/2'
'z+1, -y+1, x+1/2'
'-z+1, y+1, x+1/2'
'-z+1, -y+1, -x+1/2'
'-x, -y, -z'
'x, y, -z'
'x, -y, z'
'-x, y, z'
'-z, -x, -y'
'-z, x, y'
'z, x, -y'
'z, -x, y'
'-y, -z, -x'
'y, -z, x'
'-y, z, x'
'y, z, -x'
'-y-1/2, -x-1/2, z-1/2'
'y-1/2, x-1/2, z-1/2'
'-y-1/2, x-1/2, -z-1/2'
'y-1/2, -x-1/2, -z-1/2'
'-x-1/2, -z-1/2, y-1/2'
'x-1/2, -z-1/2, -y-1/2'
'x-1/2, z-1/2, y-1/2'
'-x-1/2, z-1/2, -y-1/2'
'-z-1/2, -y-1/2, x-1/2'
'-z-1/2, y-1/2, -x-1/2'
'z-1/2, -y-1/2, -x-1/2'
'z-1/2, y-1/2, x-1/2'
'-x, -y+1/2, -z+1/2'
'x, y+1/2, -z+1/2'
'x, -y+1/2, z+1/2'
'-x, y+1/2, z+1/2'
'-z, -x+1/2, -y+1/2'
'-z, x+1/2, y+1/2'
'z, x+1/2, -y+1/2'
'z, -x+1/2, y+1/2'
'-y, -z+1/2, -x+1/2'
'y, -z+1/2, x+1/2'
'-y, z+1/2, x+1/2'
'y, z+1/2, -x+1/2'
'-y-1/2, -x, z'
'y-1/2, x, z'
'-y-1/2, x, -z'
'y-1/2, -x, -z'
'-x-1/2, -z, y'
'x-1/2, -z, -y'
'x-1/2, z, y'
'-x-1/2, z, -y'
'-z-1/2, -y, x'
'-z-1/2, y, -x'
'z-1/2, -y, -x'
'z-1/2, y, x'
'-x+1/2, -y, -z+1/2'
'x+1/2, y, -z+1/2'
'x+1/2, -y, z+1/2'
'-x+1/2, y, z+1/2'
'-z+1/2, -x, -y+1/2'
'-z+1/2, x, y+1/2'
'z+1/2, x, -y+1/2'
'z+1/2, -x, y+1/2'
'-y+1/2, -z, -x+1/2'
'y+1/2, -z, x+1/2'
'-y+1/2, z, x+1/2'
'y+1/2, z, -x+1/2'
'-y, -x-1/2, z'
'y, x-1/2, z'
'-y, x-1/2, -z'
'y, -x-1/2, -z'
'-x, -z-1/2, y'
'x, -z-1/2, -y'
'x, z-1/2, y'
'-x, z-1/2, -y'
'-z, -y-1/2, x'
'-z, y-1/2, -x'
'z, -y-1/2, -x'
'z, y-1/2, x'
'-x+1/2, -y+1/2, -z'
'x+1/2, y+1/2, -z'
'x+1/2, -y+1/2, z'
'-x+1/2, y+1/2, z'
'-z+1/2, -x+1/2, -y'
'-z+1/2, x+1/2, y'
'z+1/2, x+1/2, -y'
'z+1/2, -x+1/2, y'
'-y+1/2, -z+1/2, -x'
'y+1/2, -z+1/2, x'
'-y+1/2, z+1/2, x'
'y+1/2, z+1/2, -x'
'-y, -x, z-1/2'
'y, x, z-1/2'
'-y, x, -z-1/2'
'y, -x, -z-1/2'
'-x, -z, y-1/2'
'x, -z, -y-1/2'
'x, z, y-1/2'
'-x, z, -y-1/2'
'-z, -y, x-1/2'
'-z, y, -x-1/2'
'z, -y, -x-1/2'
'z, y, x-1/2'

_cell_length_a                   49.821(3)
_cell_length_b                   49.821(3)
_cell_length_c                   49.821(3)
_cell_angle_alpha                90.00
_cell_angle_beta                 90.00
_cell_angle_gamma                90.00
_cell_volume                     123663(13)
_cell_formula_units_Z            8
_cell_measurement_temperature    100(2)
_cell_measurement_reflns_used    3848
_cell_measurement_theta_min      2.312
_cell_measurement_theta_max      15.205

_exptl_crystal_description       cubic
_exptl_crystal_colour            violet
_exptl_crystal_size_max          0.30
_exptl_crystal_size_mid          0.30
_exptl_crystal_size_min          0.30
_exptl_crystal_density_meas      ?
_exptl_crystal_density_diffrn    0.571
_exptl_crystal_density_method    'not measured'
_exptl_crystal_F_000             21840
_exptl_absorpt_coefficient_mu    0.383
_exptl_absorpt_correction_type   empirical
_exptl_absorpt_correction_T_min  0.8938
_exptl_absorpt_correction_T_max  0.8938
_exptl_absorpt_process_details   SADABS

_exptl_special_details           
;
?
;

_diffrn_ambient_temperature      100(2)
_diffrn_radiation_wavelength     0.71073
_diffrn_radiation_type           MoK\a
_diffrn_radiation_source         'fine-focus sealed tube'
_diffrn_radiation_monochromator  graphite
_diffrn_measurement_device_type  'Bruker APEX-II CCD'
_diffrn_measurement_method       '\f and \w scans'
_diffrn_detector_area_resol_mean ?
_diffrn_standards_number         ?
_diffrn_standards_interval_count ?
_diffrn_standards_interval_time  ?
_diffrn_standards_decay_%        ?
_diffrn_reflns_number            35638
_diffrn_reflns_av_R_equivalents  0.0625
_diffrn_reflns_av_sigmaI/netI    0.0221
_diffrn_reflns_limit_h_min       -37
_diffrn_reflns_limit_h_max       42
_diffrn_reflns_limit_k_min       -39
_diffrn_reflns_limit_k_max       39
_diffrn_reflns_limit_l_min       -35
_diffrn_reflns_limit_l_max       40
_diffrn_reflns_theta_min         1.16
_diffrn_reflns_theta_max         18.29
_reflns_number_total             1941
_reflns_number_gt                1349
_reflns_threshold_expression     >2sigma(I)

_computing_data_collection       'Bruker APEX2'
_computing_cell_refinement       'Bruker SAINT'
_computing_data_reduction        'Bruker SAINT'
_computing_structure_solution    'SHELXS-97 (Sheldrick, 1990)'
_computing_structure_refinement  'SHELXL-97 (Sheldrick, 1997)'
_computing_molecular_graphics    'Bruker SHELXTL'
_computing_publication_material  'Bruker SHELXTL'

_refine_special_details          
;
Refinement of F^2^ against ALL reflections. The weighted R-factor wR and
goodness of fit S are based on F^2^, conventional R-factors R are based
on F, with F set to zero for negative F^2^. The threshold expression of
F^2^ > 2sigma(F^2^) is used only for calculating R-factors(gt) etc. and is
not relevant to the choice of reflections for refinement. R-factors based
on F^2^ are statistically about twice as large as those based on F, and R-
factors based on ALL data will be even larger. The SQUEEZE routine within
the PLATON software package (Spek, A.L. (1990), Acta Cryst. A46, C-34)
was used to treat the diffuse electron density peaks observed within the
large voids of the structure. These could not be reliably assigned to solvent
molecules, as commonly observed for structures of this type.
;

# Details about the Squeezed Material
loop_
_platon_squeeze_void_nr
_platon_squeeze_void_average_x
_platon_squeeze_void_average_y
_platon_squeeze_void_average_z
_platon_squeeze_void_volume
_platon_squeeze_void_count_electrons
_platon_squeeze_void_content
1 -0.012 -0.048 -0.016 70042 16253 ' '
2 0.250 0.250 0.250 2007 697 ' '
3 0.750 0.250 0.250 2007 697 ' '
4 0.250 0.250 0.750 2007 697 ' '
5 0.750 0.250 0.750 2007 697 ' '
6 0.250 0.750 0.250 2007 697 ' '
7 0.750 0.750 0.250 2007 697 ' '
8 0.250 0.750 0.750 2007 697 ' '
9 0.750 0.750 0.750 2007 697 ' '
_platon_squeeze_details          
;
;

_refine_ls_structure_factor_coef Fsqd
_refine_ls_matrix_type           full
_refine_ls_weighting_scheme      calc
_refine_ls_weighting_details     
'calc w=1/[\s^2^(Fo^2^)+(0.2000P)^2^+0.0000P] where P=(Fo^2^+2Fc^2^)/3'
_atom_sites_solution_primary     direct
_atom_sites_solution_secondary   difmap
_atom_sites_solution_hydrogens   geom
_refine_ls_hydrogen_treatment    constr
_refine_ls_extinction_method     none
_refine_ls_extinction_coef       ?
_refine_ls_number_reflns         1941
_refine_ls_number_parameters     146
_refine_ls_number_restraints     0
_refine_ls_R_factor_all          0.1153
_refine_ls_R_factor_gt           0.0897
_refine_ls_wR_factor_ref         0.3310
_refine_ls_wR_factor_gt          0.3131
_refine_ls_goodness_of_fit_ref   1.292
_refine_ls_restrained_S_all      1.292
_refine_ls_shift/su_max          0.000
_refine_ls_shift/su_mean         0.000

loop_
_atom_site_label
_atom_site_type_symbol
_atom_site_fract_x
_atom_site_fract_y
_atom_site_fract_z
_atom_site_U_iso_or_equiv
_atom_site_adp_type
_atom_site_occupancy
_atom_site_symmetry_multiplicity
_atom_site_calc_flag
_atom_site_refinement_flags
_atom_site_disorder_assembly
_atom_site_disorder_group
Co1 Co 0.23671(4) 0.0000 0.20384(5) 0.1557(15) Uani 1 2 d S . .
Co2 Co 0.2500 0.2500 0.2500 0.192(3) Uani 1 24 d S . .
Cl1 Cl 0.2500 0.0094(2) 0.2500 0.162(7) Uani 0.50 4 d SP . .
O1 O 0.2538(2) 0.02872(19) 0.1808(2) 0.211(5) Uani 1 1 d . . .
O2A O 0.2764(4) 0.0341(4) 0.2126(4) 0.166(7) Uani 0.50 1 d P . .
O2B O 0.2967(4) 0.0186(3) 0.2058(4) 0.169(5) Uani 0.50 1 d P . .
C1 C 0.2749(4) 0.0368(3) 0.1895(4) 0.200(8) Uani 1 1 d . . .
C2 C 0.2916(3) 0.0602(3) 0.1801(3) 0.173(5) Uani 1 1 d . . .
C3 C 0.28019(17) 0.0715(2) 0.1555(3) 0.156(4) Uani 1 1 d . . .
H3A H 0.2650 0.0631 0.1476 0.188 Uiso 1 1 calc R . .
C4 C 0.3136(2) 0.0722(3) 0.1902(2) 0.169(5) Uani 1 1 d . . .
H4A H 0.3214 0.0650 0.2060 0.203 Uiso 1 1 calc R . .
C5 C 0.2912(2) 0.0945(2) 0.14321(19) 0.127(3) Uani 1 1 d . . .
H5A H 0.2838 0.1021 0.1274 0.153 Uiso 1 1 calc R . .
C6 C 0.3138(2) 0.1052(2) 0.1558(2) 0.111(3) Uani 1 1 d . . .
C7 C 0.32468(18) 0.0931(2) 0.1792(2) 0.124(3) Uani 1 1 d . . .
C8 C 0.3489(2) 0.1067(2) 0.18862(18) 0.117(3) Uani 1 1 d . . .
C9 C 0.3718(2) 0.08663(19) 0.1889(2) 0.155(4) Uani 1 1 d . . .
H9A H 0.3743 0.0792 0.1709 0.232 Uiso 1 1 calc R . .
H9B H 0.3676 0.0721 0.2015 0.232 Uiso 1 1 calc R . .
H9C H 0.3883 0.0956 0.1946 0.232 Uiso 1 1 calc R . .
C10 C 0.34393(19) 0.1177(2) 0.2166(2) 0.157(4) Uani 1 1 d . . .
H10A H 0.3288 0.1302 0.2162 0.236 Uiso 1 1 calc R . .
H10B H 0.3600 0.1271 0.2229 0.236 Uiso 1 1 calc R . .
H10C H 0.3398 0.1029 0.2289 0.236 Uiso 1 1 calc R . .
C11 C 0.3524(2) 0.12885(16) 0.16843(18) 0.096(3) Uani 1 1 d . . .
C12 C 0.37210(17) 0.1492(2) 0.1685(2) 0.096(3) Uani 1 1 d . . .

loop_
_atom_site_aniso_label
_atom_site_aniso_U_11
_atom_site_aniso_U_22
_atom_site_aniso_U_33
_atom_site_aniso_U_23
_atom_site_aniso_U_13
_atom_site_aniso_U_12
Co1 0.1102(19) 0.1235(19) 0.234(3) 0.000 0.0638(14) 0.000
Co2 0.192(3) 0.192(3) 0.192(3) 0.000 0.000 0.000
Cl1 0.144(4) 0.20(2) 0.144(4) 0.000 0.000 0.000
O1 0.162(8) 0.197(8) 0.275(11) 0.031(7) 0.074(7) -0.102(7)
O2A 0.157(15) 0.156(13) 0.186(18) 0.049(13) 0.078(14) -0.021(11)
O2B 0.176(15) 0.175(12) 0.155(14) 0.032(12) 0.035(11) -0.042(11)
C1 0.22(2) 0.209(16) 0.174(15) 0.053(12) 0.022(15) -0.097(16)
C2 0.141(10) 0.234(14) 0.143(10) 0.095(10) 0.025(9) -0.059(11)
C3 0.072(7) 0.162(10) 0.234(14) 0.011(9) -0.018(7) -0.062(7)
C4 0.120(9) 0.223(12) 0.164(10) 0.081(9) -0.077(7) -0.104(9)
C5 0.099(7) 0.126(8) 0.156(8) 0.037(6) -0.019(6) -0.063(6)
C6 0.094(8) 0.108(8) 0.131(10) 0.039(7) 0.025(7) -0.032(8)
C7 0.082(7) 0.143(8) 0.147(9) 0.082(8) -0.029(6) -0.069(7)
C8 0.139(10) 0.129(8) 0.083(7) 0.032(7) -0.009(6) -0.031(8)
C9 0.124(8) 0.132(8) 0.208(11) 0.097(7) -0.043(7) -0.034(7)
C10 0.164(9) 0.206(10) 0.103(8) 0.019(7) -0.004(6) -0.079(8)
C11 0.100(8) 0.082(7) 0.106(8) 0.043(7) -0.007(8) -0.038(7)
C12 0.109(10) 0.100(8) 0.080(8) 0.023(7) -0.017(9) -0.017(8)

_geom_special_details            
;
All esds (except the esd in the dihedral angle between two l.s. planes)
are estimated using the full covariance matrix. The cell esds are taken
into account individually in the estimation of esds in distances, angles
and torsion angles; correlations between esds in cell parameters are only
used when they are defined by crystal symmetry. An approximate (isotropic)
treatment of cell esds is used for estimating esds involving l.s. planes.
;

loop_
_geom_bond_atom_site_label_1
_geom_bond_atom_site_label_2
_geom_bond_distance
_geom_bond_site_symmetry_2
_geom_bond_publ_flag
Co1 O2B 1.799(17) 191_556 ?
Co1 O2B 1.799(17) 93_445 ?
Co1 O1 2.023(8) 99 ?
Co1 O1 2.023(8) . ?
Co1 O2A 2.30(2) 191_556 ?
Co1 O2A 2.30(2) 93_445 ?
Co1 Cl1 2.439(3) . ?
Co1 Cl1 2.439(3) 145 ?
Cl1 Cl1 0.94(2) 145 ?
Cl1 Co1 2.438(3) 93_445 ?
Cl1 Co1 2.439(3) 141_655 ?
Cl1 Co1 2.439(3) 145 ?
O1 C1 1.211(17) . ?
O2A C1 1.164(19) . ?
O2A O2B 1.32(2) . ?
O2A Co1 2.30(2) 141_655 ?
O2B C1 1.63(2) . ?
O2B Co1 1.799(17) 141_655 ?
C1 C2 1.503(19) . ?
C2 C4 1.344(13) . ?
C2 C3 1.461(14) . ?
C3 C5 1.411(13) . ?
C4 C7 1.299(11) . ?
C5 C6 1.394(12) . ?
C6 C7 1.421(11) . ?
C6 C12 1.472(12) 79 ?
C7 C8 1.462(12) . ?
C8 C11 1.503(11) . ?
C8 C9 1.517(12) . ?
C8 C10 1.520(11) . ?
C11 C12 1.413(9) . ?
C11 C12 1.414(9) 79 ?
C12 C11 1.414(9) 58 ?
C12 C6 1.472(12) 58 ?

loop_
_geom_angle_atom_site_label_1
_geom_angle_atom_site_label_2
_geom_angle_atom_site_label_3
_geom_angle
_geom_angle_site_symmetry_1
_geom_angle_site_symmetry_3
_geom_angle_publ_flag
O2B Co1 O2B 62.1(12) 191_556 93_445 ?
O2B Co1 O1 89.2(6) 191_556 99 ?
O2B Co1 O1 135.7(7) 93_445 99 ?
O2B Co1 O1 135.7(7) 191_556 . ?
O2B Co1 O1 89.2(6) 93_445 . ?
O1 Co1 O1 90.0(5) 99 . ?
O2B Co1 O2A 34.8(7) 191_556 191_556 ?
O2B Co1 O2A 86.6(7) 93_445 191_556 ?
O1 Co1 O2A 86.5(6) 99 191_556 ?
O1 Co1 O2A 169.8(5) . 191_556 ?
O2B Co1 O2A 86.6(7) 191_556 93_445 ?
O2B Co1 O2A 34.8(7) 93_445 93_445 ?
O1 Co1 O2A 169.8(5) 99 93_445 ?
O1 Co1 O2A 86.5(6) . 93_445 ?
O2A Co1 O2A 95.2(10) 191_556 93_445 ?
O2B Co1 Cl1 110.3(6) 191_556 . ?
O2B Co1 Cl1 98.5(7) 93_445 . ?
O1 Co1 Cl1 123.9(4) 99 . ?
O1 Co1 Cl1 106.6(4) . . ?
O2A Co1 Cl1 83.2(5) 191_556 . ?
O2A Co1 Cl1 66.2(4) 93_445 . ?
O2B Co1 Cl1 98.5(7) 191_556 145 ?
O2B Co1 Cl1 110.3(6) 93_445 145 ?
O1 Co1 Cl1 106.6(4) 99 145 ?
O1 Co1 Cl1 123.9(4) . 145 ?
O2A Co1 Cl1 66.2(4) 191_556 145 ?
O2A Co1 Cl1 83.2(5) 93_445 145 ?
Cl1 Co1 Cl1 22.2(6) . 145 ?
Cl1 Cl1 Co1 78.9(3) 145 93_445 ?
Cl1 Cl1 Co1 78.9(3) 145 . ?
Co1 Cl1 Co1 87.88(11) 93_445 . ?
Cl1 Cl1 Co1 78.9(3) 145 141_655 ?
Co1 Cl1 Co1 157.8(6) 93_445 141_655 ?
Co1 Cl1 Co1 87.88(11) . 141_655 ?
Cl1 Cl1 Co1 78.9(3) 145 145 ?
Co1 Cl1 Co1 87.89(11) 93_445 145 ?
Co1 Cl1 Co1 157.8(6) . 145 ?
Co1 Cl1 Co1 87.88(11) 141_655 145 ?
C1 O1 Co1 113.5(10) . . ?
C1 O2A O2B 82.0(16) . . ?
C1 O2A Co1 129(2) . 141_655 ?
O2B O2A Co1 51.3(13) . 141_655 ?
O2A O2B C1 44.9(11) . . ?
O2A O2B Co1 93.9(16) . 141_655 ?
C1 O2B Co1 134.6(16) . 141_655 ?
O2A C1 O1 111.9(19) . . ?
O2A C1 C2 111.3(17) . . ?
O1 C1 C2 128.9(15) . . ?
O2A C1 O2B 53.0(12) . . ?
O1 C1 O2B 124.9(13) . . ?
C2 C1 O2B 102.7(14) . . ?
C4 C2 C3 117.3(9) . . ?
C4 C2 C1 132.6(14) . . ?
C3 C2 C1 110.1(14) . . ?
C5 C3 C2 121.7(8) . . ?
C7 C4 C2 123.1(9) . . ?
C6 C5 C3 115.4(8) . . ?
C5 C6 C7 120.9(9) . . ?
C5 C6 C12 132.7(11) . 79 ?
C7 C6 C12 106.3(10) . 79 ?
C4 C7 C6 121.5(10) . . ?
C4 C7 C8 126.1(11) . . ?
C6 C7 C8 112.4(9) . . ?
C7 C8 C11 102.9(8) . . ?
C7 C8 C9 108.5(9) . . ?
C11 C8 C9 113.8(8) . . ?
C7 C8 C10 109.1(9) . . ?
C11 C8 C10 111.6(9) . . ?
C9 C8 C10 110.5(8) . . ?
C12 C11 C12 122.4(9) . 79 ?
C12 C11 C8 127.4(13) . . ?
C12 C11 C8 110.0(10) 79 . ?
C11 C12 C11 117.5(9) . 58 ?
C11 C12 C6 134.0(12) . 58 ?
C11 C12 C6 108.5(10) 58 58 ?

_diffrn_measured_fraction_theta_max 0.984
_diffrn_reflns_theta_full        18.29
_diffrn_measured_fraction_theta_full 0.984
_refine_diff_density_max         0.487
_refine_diff_density_min         -0.376
_refine_diff_density_rms         0.051
