####################################################################### 
# 
# This file contains crystal structure data downloaded from the 
# Cambridge Structural Database (CSD) hosted by the Cambridge 
# Crystallographic Data Centre (CCDC).
# 
# Full information about CCDC data access policies and citation 
# guidelines are available at http://www.ccdc.cam.ac.uk/access/V1 
# 
# Audit and citation data items may have been added by the CCDC. 
# Please retain this information to preserve the provenance of 
# this file and to allow appropriate attribution of the data. 
# 
#######################################################################

data_fm-3c5
_audit_block_doi                 10.5517/ccz21sv
_database_code_depnum_ccdc_archive 'CCDC 895707'
loop_
_citation_id
_citation_doi
_citation_year
1 10.1002/chem.201202899 2012
_audit_update_record             
;
2012-08-10 deposited with the CCDC.	2024-07-13 downloaded from the CCDC.
;
#TrackingRef '13208_web_deposit_cif_file_4_YonghwiKim_1344609293.Fe.cif'


_audit_creation_method           SHELXL-97
_chemical_name_systematic        
;
?
;
_chemical_name_common            ?
_chemical_melting_point          ?
_chemical_formula_moiety         ?
_chemical_formula_sum            'C288 H216 Fe13 O57'
_chemical_formula_weight         5314.66

loop_
_atom_type_symbol
_atom_type_description
_atom_type_scat_dispersion_real
_atom_type_scat_dispersion_imag
_atom_type_scat_source
C C -0.0020 0.0018 'International Tables Vol C Tables 4.2.6.8 and 6.1.1.4'
H H 0.0000 0.0000 'International Tables Vol C Tables 4.2.6.8 and 6.1.1.4'
O O -0.0041 0.0069 'International Tables Vol C Tables 4.2.6.8 and 6.1.1.4'
Fe Fe 0.2120 0.9364 'International Tables Vol C Tables 4.2.6.8 and 6.1.1.4'

_symmetry_cell_setting           cubic
_symmetry_space_group_name_H-M   fm-3c

loop_
_symmetry_equiv_pos_as_xyz
'x, y, z'
'-x, -y, z'
'-x, y, -z'
'x, -y, -z'
'z, x, y'
'z, -x, -y'
'-z, -x, y'
'-z, x, -y'
'y, z, x'
'-y, z, -x'
'y, -z, -x'
'-y, -z, x'
'y+1/2, x+1/2, -z+1/2'
'-y+1/2, -x+1/2, -z+1/2'
'y+1/2, -x+1/2, z+1/2'
'-y+1/2, x+1/2, z+1/2'
'x+1/2, z+1/2, -y+1/2'
'-x+1/2, z+1/2, y+1/2'
'-x+1/2, -z+1/2, -y+1/2'
'x+1/2, -z+1/2, y+1/2'
'z+1/2, y+1/2, -x+1/2'
'z+1/2, -y+1/2, x+1/2'
'-z+1/2, y+1/2, x+1/2'
'-z+1/2, -y+1/2, -x+1/2'
'x, y+1/2, z+1/2'
'-x, -y+1/2, z+1/2'
'-x, y+1/2, -z+1/2'
'x, -y+1/2, -z+1/2'
'z, x+1/2, y+1/2'
'z, -x+1/2, -y+1/2'
'-z, -x+1/2, y+1/2'
'-z, x+1/2, -y+1/2'
'y, z+1/2, x+1/2'
'-y, z+1/2, -x+1/2'
'y, -z+1/2, -x+1/2'
'-y, -z+1/2, x+1/2'
'y+1/2, x+1, -z+1'
'-y+1/2, -x+1, -z+1'
'y+1/2, -x+1, z+1'
'-y+1/2, x+1, z+1'
'x+1/2, z+1, -y+1'
'-x+1/2, z+1, y+1'
'-x+1/2, -z+1, -y+1'
'x+1/2, -z+1, y+1'
'z+1/2, y+1, -x+1'
'z+1/2, -y+1, x+1'
'-z+1/2, y+1, x+1'
'-z+1/2, -y+1, -x+1'
'x+1/2, y, z+1/2'
'-x+1/2, -y, z+1/2'
'-x+1/2, y, -z+1/2'
'x+1/2, -y, -z+1/2'
'z+1/2, x, y+1/2'
'z+1/2, -x, -y+1/2'
'-z+1/2, -x, y+1/2'
'-z+1/2, x, -y+1/2'
'y+1/2, z, x+1/2'
'-y+1/2, z, -x+1/2'
'y+1/2, -z, -x+1/2'
'-y+1/2, -z, x+1/2'
'y+1, x+1/2, -z+1'
'-y+1, -x+1/2, -z+1'
'y+1, -x+1/2, z+1'
'-y+1, x+1/2, z+1'
'x+1, z+1/2, -y+1'
'-x+1, z+1/2, y+1'
'-x+1, -z+1/2, -y+1'
'x+1, -z+1/2, y+1'
'z+1, y+1/2, -x+1'
'z+1, -y+1/2, x+1'
'-z+1, y+1/2, x+1'
'-z+1, -y+1/2, -x+1'
'x+1/2, y+1/2, z'
'-x+1/2, -y+1/2, z'
'-x+1/2, y+1/2, -z'
'x+1/2, -y+1/2, -z'
'z+1/2, x+1/2, y'
'z+1/2, -x+1/2, -y'
'-z+1/2, -x+1/2, y'
'-z+1/2, x+1/2, -y'
'y+1/2, z+1/2, x'
'-y+1/2, z+1/2, -x'
'y+1/2, -z+1/2, -x'
'-y+1/2, -z+1/2, x'
'y+1, x+1, -z+1/2'
'-y+1, -x+1, -z+1/2'
'y+1, -x+1, z+1/2'
'-y+1, x+1, z+1/2'
'x+1, z+1, -y+1/2'
'-x+1, z+1, y+1/2'
'-x+1, -z+1, -y+1/2'
'x+1, -z+1, y+1/2'
'z+1, y+1, -x+1/2'
'z+1, -y+1, x+1/2'
'-z+1, y+1, x+1/2'
'-z+1, -y+1, -x+1/2'
'-x, -y, -z'
'x, y, -z'
'x, -y, z'
'-x, y, z'
'-z, -x, -y'
'-z, x, y'
'z, x, -y'
'z, -x, y'
'-y, -z, -x'
'y, -z, x'
'-y, z, x'
'y, z, -x'
'-y-1/2, -x-1/2, z-1/2'
'y-1/2, x-1/2, z-1/2'
'-y-1/2, x-1/2, -z-1/2'
'y-1/2, -x-1/2, -z-1/2'
'-x-1/2, -z-1/2, y-1/2'
'x-1/2, -z-1/2, -y-1/2'
'x-1/2, z-1/2, y-1/2'
'-x-1/2, z-1/2, -y-1/2'
'-z-1/2, -y-1/2, x-1/2'
'-z-1/2, y-1/2, -x-1/2'
'z-1/2, -y-1/2, -x-1/2'
'z-1/2, y-1/2, x-1/2'
'-x, -y+1/2, -z+1/2'
'x, y+1/2, -z+1/2'
'x, -y+1/2, z+1/2'
'-x, y+1/2, z+1/2'
'-z, -x+1/2, -y+1/2'
'-z, x+1/2, y+1/2'
'z, x+1/2, -y+1/2'
'z, -x+1/2, y+1/2'
'-y, -z+1/2, -x+1/2'
'y, -z+1/2, x+1/2'
'-y, z+1/2, x+1/2'
'y, z+1/2, -x+1/2'
'-y-1/2, -x, z'
'y-1/2, x, z'
'-y-1/2, x, -z'
'y-1/2, -x, -z'
'-x-1/2, -z, y'
'x-1/2, -z, -y'
'x-1/2, z, y'
'-x-1/2, z, -y'
'-z-1/2, -y, x'
'-z-1/2, y, -x'
'z-1/2, -y, -x'
'z-1/2, y, x'
'-x+1/2, -y, -z+1/2'
'x+1/2, y, -z+1/2'
'x+1/2, -y, z+1/2'
'-x+1/2, y, z+1/2'
'-z+1/2, -x, -y+1/2'
'-z+1/2, x, y+1/2'
'z+1/2, x, -y+1/2'
'z+1/2, -x, y+1/2'
'-y+1/2, -z, -x+1/2'
'y+1/2, -z, x+1/2'
'-y+1/2, z, x+1/2'
'y+1/2, z, -x+1/2'
'-y, -x-1/2, z'
'y, x-1/2, z'
'-y, x-1/2, -z'
'y, -x-1/2, -z'
'-x, -z-1/2, y'
'x, -z-1/2, -y'
'x, z-1/2, y'
'-x, z-1/2, -y'
'-z, -y-1/2, x'
'-z, y-1/2, -x'
'z, -y-1/2, -x'
'z, y-1/2, x'
'-x+1/2, -y+1/2, -z'
'x+1/2, y+1/2, -z'
'x+1/2, -y+1/2, z'
'-x+1/2, y+1/2, z'
'-z+1/2, -x+1/2, -y'
'-z+1/2, x+1/2, y'
'z+1/2, x+1/2, -y'
'z+1/2, -x+1/2, y'
'-y+1/2, -z+1/2, -x'
'y+1/2, -z+1/2, x'
'-y+1/2, z+1/2, x'
'y+1/2, z+1/2, -x'
'-y, -x, z-1/2'
'y, x, z-1/2'
'-y, x, -z-1/2'
'y, -x, -z-1/2'
'-x, -z, y-1/2'
'x, -z, -y-1/2'
'x, z, y-1/2'
'-x, z, -y-1/2'
'-z, -y, x-1/2'
'-z, y, -x-1/2'
'z, -y, -x-1/2'
'z, y, x-1/2'

_cell_length_a                   50.983(6)
_cell_length_b                   50.983(6)
_cell_length_c                   50.983(6)
_cell_angle_alpha                90.00
_cell_angle_beta                 90.00
_cell_angle_gamma                90.00
_cell_volume                     132518(27)
_cell_formula_units_Z            8
_cell_measurement_temperature    100(2)
_cell_measurement_reflns_used    4149
_cell_measurement_theta_min      0.84
_cell_measurement_theta_max      28.66

_exptl_crystal_description       cubic
_exptl_crystal_colour            red
_exptl_crystal_size_max          0.20
_exptl_crystal_size_mid          0.20
_exptl_crystal_size_min          0.20
_exptl_crystal_density_meas      ?
_exptl_crystal_density_diffrn    0.533
_exptl_crystal_density_method    'not measured'
_exptl_crystal_F_000             21904
_exptl_absorpt_coefficient_mu    0.352
_exptl_absorpt_correction_type   multi-scan
_exptl_absorpt_correction_T_min  0.9329
_exptl_absorpt_correction_T_max  0.9329
_exptl_absorpt_process_details   HKL2000

_exptl_special_details           
;
?
;

_diffrn_ambient_temperature      100(2)
_diffrn_radiation_wavelength     0.75000
_diffrn_radiation_type           synchrotron
_diffrn_radiation_source         PAL
_diffrn_radiation_monochromator  Si(111)
_diffrn_measurement_device_type  'ADSC Quantum 210'
_diffrn_measurement_method       ?
_diffrn_detector_area_resol_mean ?
_diffrn_standards_number         ?
_diffrn_standards_interval_count ?
_diffrn_standards_interval_time  ?
_diffrn_standards_decay_%        ?
_diffrn_reflns_number            10141
_diffrn_reflns_av_R_equivalents  0.0601
_diffrn_reflns_av_sigmaI/netI    0.0380
_diffrn_reflns_limit_h_min       2
_diffrn_reflns_limit_h_max       62
_diffrn_reflns_limit_k_min       0
_diffrn_reflns_limit_k_max       44
_diffrn_reflns_limit_l_min       0
_diffrn_reflns_limit_l_max       43
_diffrn_reflns_theta_min         0.84
_diffrn_reflns_theta_max         28.66
_reflns_number_total             5418
_reflns_number_gt                4139
_reflns_threshold_expression     >2sigma(I)

_computing_data_collection       'ADSC Quantum software'
_computing_cell_refinement       'DENZO (Z. Otwinowski and W. Minor, 1997)'
_computing_data_reduction        'HKL2000 (Z. Otwinowski and W. Minor, 1997)'
_computing_structure_solution    'SHELXS-97 (Sheldrick, 1990)'
_computing_structure_refinement  'SHELXL-97 (Sheldrick, 1997)'
_computing_molecular_graphics    'Bruker SHELXTL'
_computing_publication_material  'Bruker SHELXTL'

_refine_special_details          
;
Refinement of F^2^ against ALL reflections. The weighted R-factor wR and
goodness of fit S are based on F^2^, conventional R-factors R are based
on F, with F set to zero for negative F^2^. The threshold expression of
F^2^ > 2sigma(F^2^) is used only for calculating R-factors(gt) etc. and is
not relevant to the choice of reflections for refinement. R-factors based
on F^2^ are statistically about twice as large as those based on F, and R-
factors based on ALL data will be even larger. The SQUEEZE routine within
the PLATON software package (Spek, A.L. (1990), Acta Cryst. A46, C-34)
was used to treat the diffuse electron density peaks observed within the
large voids of the structure. These could not be reliably assigned to solvent
molecules, as commonly observed for structures of this type.
;

# Details about the Squeezed Material
loop_
_platon_squeeze_void_nr
_platon_squeeze_void_average_x
_platon_squeeze_void_average_y
_platon_squeeze_void_average_z
_platon_squeeze_void_volume
_platon_squeeze_void_count_electrons
_platon_squeeze_void_content
1 -0.011 -0.023 -0.013 76823 33425 ' '
2 0.250 0.250 0.250 2205 682 ' '
3 0.750 0.250 0.250 2205 677 ' '
4 0.250 0.250 0.750 2205 677 ' '
5 0.750 0.250 0.750 2205 682 ' '
6 0.250 0.750 0.250 2205 677 ' '
7 0.750 0.750 0.250 2205 682 ' '
8 0.250 0.750 0.750 2205 682 ' '
9 0.750 0.750 0.750 2205 677 ' '
_platon_squeeze_details          
;
;

_refine_ls_structure_factor_coef Fsqd
_refine_ls_matrix_type           full
_refine_ls_weighting_scheme      calc
_refine_ls_weighting_details     
'calc w=1/[\s^2^(Fo^2^)+(0.2000P)^2^+0.0000P] where P=(Fo^2^+2Fc^2^)/3'
_atom_sites_solution_primary     direct
_atom_sites_solution_secondary   difmap
_atom_sites_solution_hydrogens   geom
_refine_ls_hydrogen_treatment    constr
_refine_ls_extinction_method     none
_refine_ls_extinction_coef       ?
_refine_ls_number_reflns         5418
_refine_ls_number_parameters     121
_refine_ls_number_restraints     0
_refine_ls_R_factor_all          0.1743
_refine_ls_R_factor_gt           0.1628
_refine_ls_wR_factor_ref         0.4204
_refine_ls_wR_factor_gt          0.4117
_refine_ls_goodness_of_fit_ref   1.661
_refine_ls_restrained_S_all      1.661
_refine_ls_shift/su_max          0.000
_refine_ls_shift/su_mean         0.000

loop_
_atom_site_label
_atom_site_type_symbol
_atom_site_fract_x
_atom_site_fract_y
_atom_site_fract_z
_atom_site_U_iso_or_equiv
_atom_site_adp_type
_atom_site_occupancy
_atom_site_symmetry_multiplicity
_atom_site_calc_flag
_atom_site_refinement_flags
_atom_site_disorder_assembly
_atom_site_disorder_group
Fe1 Fe 0.24017(3) 0.0000 0.20110(2) 0.0905(7) Uani 1 2 d S . .
Fe2 Fe 0.2500 0.2500 0.2500 0.154(3) Uani 1 24 d S . .
O1 O 0.26408(10) 0.02850(10) 0.18449(10) 0.0955(14) Uani 1 1 d . . .
O2 O 0.30073(9) 0.03087(9) 0.21816(9) 0.0868(12) Uani 1 1 d . . .
O3 O 0.2719(3) 0.0000 0.2201(4) 0.123(5) Uani 0.50 2 d SP . .
O4 O 0.2500 0.0000 0.2500 0.228(15) Uani 1 8 d S . .
C1 C 0.28751(12) 0.03763(10) 0.19458(9) 0.0769(18) Uani 1 1 d . . .
C2 C 0.31382(5) 0.07319(5) 0.19518(5) 0.0773(18) Uani 1 1 d G . .
H2A H 0.3209 0.0650 0.2103 0.093 Uiso 1 1 calc R . .
C3 C 0.29194(5) 0.06242(5) 0.18294(5) 0.086(2) Uani 1 1 d R . .
C4 C 0.28148(5) 0.07435(5) 0.16074(5) 0.110(3) Uani 1 1 d R . .
H4A H 0.2666 0.0670 0.1524 0.132 Uiso 1 1 d R . .
C5 C 0.29289(5) 0.09706(5) 0.15078(5) 0.092(2) Uani 1 1 d R . .
H5A H 0.2846 0.1064 0.1370 0.110 Uiso 1 1 d R . .
C6 C 0.31681(7) 0.10630(7) 0.16158(6) 0.090(2) Uani 1 1 d G . .
C7 C 0.32535(4) 0.09587(4) 0.18531(4) 0.101(2) Uani 1 1 d G . .
C8 C 0.34788(8) 0.10969(8) 0.19271(8) 0.090(2) Uani 1 1 d G . .
C9 C 0.35384(8) 0.12751(8) 0.17278(9) 0.119(3) Uani 1 1 d G . .
C10 C 0.33330(8) 0.12708(7) 0.15473(7) 0.0852(18) Uani 1 1 d G . .
C11 C 0.37209(13) 0.09482(9) 0.19495(11) 0.0789(18) Uani 1 1 d . . .
H11A H 0.3763 0.0869 0.1779 0.118 Uiso 1 1 calc R . .
H11B H 0.3699 0.0810 0.2081 0.118 Uiso 1 1 calc R . .
H11C H 0.3863 0.1065 0.2003 0.118 Uiso 1 1 calc R . .
C12 C 0.35168(16) 0.1156(2) 0.22498(16) 0.129(3) Uani 1 1 d . . .
H12A H 0.3375 0.1270 0.2311 0.193 Uiso 1 1 calc R . .
H12B H 0.3686 0.1242 0.2280 0.193 Uiso 1 1 calc R . .
H12C H 0.3511 0.0989 0.2346 0.193 Uiso 1 1 calc R . .

loop_
_atom_site_aniso_label
_atom_site_aniso_U_11
_atom_site_aniso_U_22
_atom_site_aniso_U_33
_atom_site_aniso_U_23
_atom_site_aniso_U_13
_atom_site_aniso_U_12
Fe1 0.1767(15) 0.0369(6) 0.0578(7) 0.000 0.0688(8) 0.000
Fe2 0.154(3) 0.154(3) 0.154(3) 0.000 0.000 0.000
O1 0.101(3) 0.089(3) 0.097(3) -0.003(2) -0.006(3) -0.001(3)
O2 0.089(3) 0.080(3) 0.092(3) -0.007(2) -0.012(2) 0.002(2)
O3 0.079(9) 0.161(16) 0.127(12) 0.000 -0.012(8) 0.000
O4 0.22(2) 0.24(3) 0.22(2) 0.000 0.000 0.000
C1 0.121(4) 0.071(3) 0.039(2) 0.008(2) -0.059(3) -0.041(3)
C2 0.113(4) 0.079(3) 0.040(2) 0.012(2) -0.058(3) -0.050(3)
C3 0.047(2) 0.083(3) 0.127(5) 0.054(3) -0.061(3) -0.042(2)
C4 0.113(5) 0.139(6) 0.078(4) 0.064(4) -0.065(4) -0.079(5)
C5 0.061(3) 0.096(4) 0.118(5) 0.027(4) 0.002(3) -0.033(3)
C6 0.085(4) 0.062(3) 0.124(5) 0.039(3) -0.011(4) -0.029(3)
C7 0.114(5) 0.066(3) 0.125(5) 0.048(3) -0.036(4) -0.062(4)
C8 0.116(5) 0.062(3) 0.091(4) 0.013(3) -0.004(3) -0.068(4)
C9 0.147(7) 0.086(4) 0.124(6) 0.038(4) -0.004(5) -0.084(5)
C10 0.071(3) 0.093(4) 0.091(4) 0.014(3) 0.045(3) -0.032(3)
C11 0.123(5) 0.038(2) 0.076(3) -0.003(2) -0.009(3) -0.056(3)
C12 0.093(5) 0.180(9) 0.114(6) -0.032(6) 0.032(4) -0.069(6)

_geom_special_details            
;
All esds (except the esd in the dihedral angle between two l.s. planes)
are estimated using the full covariance matrix. The cell esds are taken
into account individually in the estimation of esds in distances, angles
and torsion angles; correlations between esds in cell parameters are only
used when they are defined by crystal symmetry. An approximate (isotropic)
treatment of cell esds is used for estimating esds involving l.s. planes.
;

loop_
_geom_bond_atom_site_label_1
_geom_bond_atom_site_label_2
_geom_bond_distance
_geom_bond_site_symmetry_2
_geom_bond_publ_flag
Fe1 O3 1.714(15) 93_445 ?
Fe1 O3 1.886(15) . ?
Fe1 O2 1.935(5) 191_556 ?
Fe1 O2 1.935(5) 93_445 ?
Fe1 O1 2.077(5) . ?
Fe1 O1 2.077(5) 99 ?
O1 C1 1.382(7) . ?
O2 C1 1.421(6) . ?
O2 Fe1 1.935(5) 141_655 ?
O3 Fe1 1.715(15) 141_655 ?
C1 C3 1.415(5) . ?
C2 C3 1.3911 . ?
C2 C7 1.3914 . ?
C3 C4 1.3912 . ?
C4 C5 1.3917 . ?
C5 C6 1.419(3) . ?
C6 C7 1.3914 . ?
C6 C10 1.3968 . ?
C7 C8 1.3992 . ?
C8 C9 1.3966 . ?
C8 C11 1.453(8) . ?
C8 C12 1.683(9) . ?
C9 C10 1.3941 . ?
C9 C10 1.723(6) 58 ?
C10 C9 1.723(4) 79 ?

loop_
_geom_angle_atom_site_label_1
_geom_angle_atom_site_label_2
_geom_angle_atom_site_label_3
_geom_angle
_geom_angle_site_symmetry_1
_geom_angle_site_symmetry_3
_geom_angle_publ_flag
O3 Fe1 O3 95.7(12) 93_445 . ?
O3 Fe1 O2 72.1(3) 93_445 191_556 ?
O3 Fe1 O2 121.5(2) . 191_556 ?
O3 Fe1 O2 72.1(3) 93_445 93_445 ?
O3 Fe1 O2 121.5(2) . 93_445 ?
O2 Fe1 O2 108.8(3) 191_556 93_445 ?
O3 Fe1 O1 132.6(2) 93_445 . ?
O3 Fe1 O1 72.9(4) . . ?
O2 Fe1 O1 152.8(2) 191_556 . ?
O2 Fe1 O1 75.62(18) 93_445 . ?
O3 Fe1 O1 132.6(2) 93_445 99 ?
O3 Fe1 O1 72.9(4) . 99 ?
O2 Fe1 O1 75.61(18) 191_556 99 ?
O2 Fe1 O1 152.8(2) 93_445 99 ?
O1 Fe1 O1 88.8(3) . 99 ?
C1 O1 Fe1 126.2(4) . . ?
C1 O2 Fe1 131.7(3) . 141_655 ?
Fe1 O3 Fe1 174.3(12) 141_655 . ?
O1 C1 C3 106.4(4) . . ?
O1 C1 O2 130.1(5) . . ?
C3 C1 O2 119.7(3) . . ?
C3 C2 C7 120.31(8) . . ?
C2 C3 C4 120.0 . . ?
C2 C3 C1 107.01(18) . . ?
C4 C3 C1 132.13(17) . . ?
C3 C4 C5 120.0 . . ?
C4 C5 C6 119.6 . . ?
C7 C6 C10 108.6 . . ?
C7 C6 C5 118.67(9) . . ?
C10 C6 C5 132.24(8) . . ?
C2 C7 C6 120.0 . . ?
C2 C7 C8 131.9 . . ?
C6 C7 C8 107.4 . . ?
C9 C8 C7 108.1 . . ?
C9 C8 C11 102.2(3) . . ?
C7 C8 C11 117.1(3) . . ?
C9 C8 C12 124.8(4) . . ?
C7 C8 C12 116.6(3) . . ?
C11 C8 C12 85.3(5) . . ?
C10 C9 C8 107.9 . . ?
C10 C9 C10 108.5(3) . 58 ?
C8 C9 C10 141.1(3) . 58 ?
C9 C10 C6 107.4 . . ?
C9 C10 C9 131.2(3) . 79 ?
C6 C10 C9 121.4(4) . 79 ?

_diffrn_measured_fraction_theta_max 0.862
_diffrn_reflns_theta_full        28.66
_diffrn_measured_fraction_theta_full 0.862
_refine_diff_density_max         0.953
_refine_diff_density_min         -0.944
_refine_diff_density_rms         0.109



