
#######################################################################
#
#                 Cambridge Crystallographic Data Centre
#                                CCDC
#
#######################################################################
#
# If this CIF has been generated from an entry in the Cambridge
# Structural Database, then it will include bibliographic, chemical,
# crystal, experimental, refinement or atomic coordinate data resulting
# from the CCDC's data processing and validation procedures.
#
#######################################################################

data_CSD_CIF_VEWJAI
_audit_creation_date 1991-06-25
_audit_creation_method CSD-ConQuest-V1
_database_code_CSD VEWJAI
_database_code_depnum_ccdc_archive 'CCDC 1282791'
_chemical_formula_sum 'C1 H6 F6 N3 P1'
_chemical_formula_moiety
;
C1 H6 N3 1+,F6 P1 1-
;
_journal_coden_Cambridge 1116
_journal_volume 1
_journal_year 1989
_journal_page_first 7069
_journal_name_full 'J.Phys.:Condens.Matter '
loop_
_publ_author_name
"M.Grottel"
"A.Kozak"
"A.E.Koziel"
"Z.Pajak"
_chemical_name_systematic
;
Guanidinium hexafluorophosphate
;
_chemical_name_common
;
Teaching Subset: Symmetry
;
_cell_volume    338.235
_exptl_crystal_colour 'colorless'
_exptl_crystal_density_diffrn 2.01
_diffrn_ambient_temperature ?
_diffrn_special_details
;
The study was carried out at room temperature,in the range 283-303K

;
#These two values have been output from a single CSD field.
_refine_ls_R_factor_gt 0.0389
_refine_ls_wR_factor_gt 0.0389
_symmetry_cell_setting rhombohedral
_symmetry_space_group_name_H-M 'R -3 m'
_symmetry_Int_Tables_number 166
loop_
_symmetry_equiv_pos_site_id
_symmetry_equiv_pos_as_xyz
1 x,y,z
2 z,x,y
3 y,z,x
4 -y,-x,-z
5 -x,-z,-y
6 -z,-y,-x
7 -x,-y,-z
8 -z,-x,-y
9 -y,-z,-x
10 y,x,z
11 x,z,y
12 z,y,x
_cell_length_a 7.427(2)
_cell_length_b 7.427(2)
_cell_length_c 7.427(2)
_cell_angle_alpha 67.89(2)
_cell_angle_beta 67.89(2)
_cell_angle_gamma 67.89(2)
_cell_formula_units_Z 2
loop_
_atom_type_symbol
_atom_type_radius_bond
C 0.68
H 0.23
F 0.64
N 0.68
P 1.05
loop_
_atom_site_label
_atom_site_type_symbol
_atom_site_fract_x
_atom_site_fract_y
_atom_site_fract_z
P1 P 0.00000 0.00000 0.00000
F1 F 0.1447(2) 0.1447(2) -0.1281(3)
P2 P 0.50000 0.50000 0.50000
F2 F 0.5367(2) 0.5367(2) 0.2659(3)
C1 C 0.2457(4) 0.2457(4) 0.2457(4)
N1 N 0.1535(3) 0.1535(3) 0.4279(5)
H1 H 0.230(4) 0.046(4) 0.474(5)
F1F F -0.1447(2) -0.1447(2) 0.1281(3)
F1A F -0.1281(2) 0.1447(2) 0.1447(3)
F1G F 0.1281(2) -0.1447(2) -0.1447(3)
F1B F 0.1447(2) -0.1281(2) 0.1447(3)
F1H F -0.1447(2) 0.1281(2) -0.1447(3)
F2F F 0.4633(2) 0.4633(2) 0.7341(3)
F2A F 0.2659(2) 0.5367(2) 0.5367(3)
F2G F 0.7341(2) 0.4633(2) 0.4633(3)
F2B F 0.5367(2) 0.2659(2) 0.5367(3)
F2H F 0.4633(2) 0.7341(2) 0.4633(3)
N1A N 0.4279(3) 0.1535(3) 0.1535(5)
N1B N 0.1535(3) 0.4279(3) 0.1535(5)
H1I H 0.046(4) 0.230(4) 0.474(5)
H1A H 0.474(4) 0.230(4) 0.046(5)
H1K H 0.474(4) 0.046(4) 0.230(5)
H1B H 0.046(4) 0.474(4) 0.230(5)
H1J H 0.230(4) 0.474(4) 0.046(5)
#END
