####################################################################### 
# 
# This file contains crystal structure data downloaded from the 
# Cambridge Structural Database (CSD) hosted by the Cambridge 
# Crystallographic Data Centre (CCDC).
# 
# Full information about CCDC data access policies and citation 
# guidelines are available at http://www.ccdc.cam.ac.uk/access/V1 
# 
# Audit and citation data items may have been added by the CCDC. 
# Please retain this information to preserve the provenance of 
# this file and to allow appropriate attribution of the data. 
# 
#######################################################################

data_Zn_p21
_audit_block_doi                 10.5517/ccy21gh
_database_code_depnum_ccdc_archive 'CCDC 865906'
loop_
_citation_id
_citation_doi
_citation_year
1 10.1039/C2SC20172K 2012
_audit_update_record             
;
2012-02-07 deposited with the CCDC.	2024-07-13 downloaded from the CCDC.
;
#TrackingRef 'Zn_P21.cif'


_audit_creation_method           SHELXL-97
_chemical_name_systematic        
;
?
;
_chemical_name_common            ?
_chemical_melting_point          ?
_chemical_formula_moiety         ?
_chemical_formula_sum            'C159 H O24 Zn4'
_chemical_formula_weight         2556.08

loop_
_atom_type_symbol
_atom_type_description
_atom_type_scat_dispersion_real
_atom_type_scat_dispersion_imag
_atom_type_scat_source
C C 0.0181 0.0091 'International Tables Vol C Tables 4.2.6.8 and 6.1.1.4'
H H 0.0000 0.0000 'International Tables Vol C Tables 4.2.6.8 and 6.1.1.4'
O O 0.0492 0.0322 'International Tables Vol C Tables 4.2.6.8 and 6.1.1.4'
Zn Zn -1.5491 0.6778 'International Tables Vol C Tables 4.2.6.8 and 6.1.1.4'

_symmetry_cell_setting           monoclinic
_symmetry_space_group_name_H-M   P21

loop_
_symmetry_equiv_pos_as_xyz
'x, y, z'
'-x, y+1/2, -z'

_cell_length_a                   20.6536(3)
_cell_length_b                   33.4974(5)
_cell_length_c                   20.7926(3)
_cell_angle_alpha                90.00
_cell_angle_beta                 118.6190(10)
_cell_angle_gamma                90.00
_cell_volume                     12627.7(3)
_cell_formula_units_Z            2
_cell_measurement_temperature    293(2)
_cell_measurement_reflns_used    ?
_cell_measurement_theta_min      ?
_cell_measurement_theta_max      ?

_exptl_crystal_description       ?
_exptl_crystal_colour            ?
_exptl_crystal_size_max          0.20
_exptl_crystal_size_mid          0.20
_exptl_crystal_size_min          0.20
_exptl_crystal_density_meas      ?
_exptl_crystal_density_diffrn    0.672
_exptl_crystal_density_method    'not measured'
_exptl_crystal_F_000             2534
_exptl_absorpt_coefficient_mu    0.740
_exptl_absorpt_correction_type   ?
_exptl_absorpt_correction_T_min  0.8660
_exptl_absorpt_correction_T_max  0.8660
_exptl_absorpt_process_details   ?

_exptl_special_details           
;
?
;

_diffrn_ambient_temperature      293(2)
_diffrn_radiation_wavelength     1.54178
_diffrn_radiation_type           CuK\a
_diffrn_radiation_source         'fine-focus sealed tube'
_diffrn_radiation_monochromator  graphite
_diffrn_measurement_device_type  ?
_diffrn_measurement_method       ?
_diffrn_detector_area_resol_mean ?
_diffrn_standards_number         ?
_diffrn_standards_interval_count ?
_diffrn_standards_interval_time  ?
_diffrn_standards_decay_%        ?
_diffrn_reflns_number            59241
_diffrn_reflns_av_R_equivalents  0.0512
_diffrn_reflns_av_sigmaI/netI    0.0775
_diffrn_reflns_limit_h_min       -21
_diffrn_reflns_limit_h_max       21
_diffrn_reflns_limit_k_min       -33
_diffrn_reflns_limit_k_max       35
_diffrn_reflns_limit_l_min       -22
_diffrn_reflns_limit_l_max       21
_diffrn_reflns_theta_min         2.42
_diffrn_reflns_theta_max         55.19
_reflns_number_total             27767
_reflns_number_gt                20758
_reflns_threshold_expression     >2sigma(I)

_computing_data_collection       ?
_computing_cell_refinement       ?
_computing_data_reduction        ?
_computing_structure_solution    'SHELXS-97 (Sheldrick, 1990)'
_computing_structure_refinement  'SHELXL-97 (Sheldrick, 1997)'
_computing_molecular_graphics    ?
_computing_publication_material  ?

_refine_special_details          
;
Refinement of F^2^ against ALL reflections. The weighted R-factor wR and
goodness of fit S are based on F^2^, conventional R-factors R are based
on F, with F set to zero for negative F^2^. The threshold expression of
F^2^ > 2sigma(F^2^) is used only for calculating R-factors(gt) etc. and is
not relevant to the choice of reflections for refinement. R-factors based
on F^2^ are statistically about twice as large as those based on F, and R-
factors based on ALL data will be even larger.
;

_refine_ls_structure_factor_coef Fsqd
_refine_ls_matrix_type           full
_refine_ls_weighting_scheme      calc
_refine_ls_weighting_details     
'calc w=1/[\s^2^(Fo^2^)+(0.1000P)^2^+0.3465P] where P=(Fo^2^+2Fc^2^)/3'
_atom_sites_solution_primary     direct
_atom_sites_solution_secondary   difmap
_atom_sites_solution_hydrogens   none
_refine_ls_hydrogen_treatment    none
_refine_ls_extinction_method     none
_refine_ls_extinction_coef       ?
_refine_ls_abs_structure_details 'Flack H D (1983), Acta Cryst. A39, 876-881'
_refine_ls_abs_structure_Flack   0.04(3)
_refine_ls_number_reflns         27767
_refine_ls_number_parameters     747
_refine_ls_number_restraints     195
_refine_ls_R_factor_all          0.1038
_refine_ls_R_factor_gt           0.0868
_refine_ls_wR_factor_ref         0.2226
_refine_ls_wR_factor_gt          0.2131
_refine_ls_goodness_of_fit_ref   1.320
_refine_ls_restrained_S_all      1.316
_refine_ls_shift/su_max          0.001
_refine_ls_shift/su_mean         0.000

loop_
_atom_site_label
_atom_site_type_symbol
_atom_site_fract_x
_atom_site_fract_y
_atom_site_fract_z
_atom_site_U_iso_or_equiv
_atom_site_adp_type
_atom_site_occupancy
_atom_site_symmetry_multiplicity
_atom_site_calc_flag
_atom_site_refinement_flags
_atom_site_disorder_assembly
_atom_site_disorder_group
Zn1 Zn 0.34864(5) 0.99806(3) 1.19185(5) 0.0410(2) Uani 1 1 d U . .
Zn2 Zn 0.15203(5) 1.06097(3) 0.80375(5) 0.0407(2) Uani 1 1 d U . .
Zn3 Zn 0.69720(5) -0.14971(3) 0.33633(5) 0.0486(2) Uani 1 1 d U . .
Zn4 Zn 0.25273(7) 1.02997(4) 0.99479(7) 0.063 Uiso 1 1 d U . .
O1 O 0.3491(3) 1.05453(14) 1.1984(2) 0.0415(11) Uiso 1 1 d U . .
O2 O 0.2489(2) 1.05690(14) 1.0855(2) 0.0370(10) Uiso 1 1 d U . .
O3 O 0.2454(3) 1.08920(14) 0.8417(3) 0.0437(12) Uiso 1 1 d U . .
O4 O 0.2606(2) 1.08354(13) 0.9561(2) 0.0333(10) Uiso 1 1 d U . .
O5 O 0.1406(3) 1.03394(15) 0.9365(2) 0.0415(11) Uiso 1 1 d U . .
O6 O 0.0921(3) 1.07962(15) 0.8453(3) 0.0472(12) Uiso 1 1 d U . .
O7 O 0.4128(3) 0.98212(15) 1.1513(3) 0.0483(12) Uiso 1 1 d U . .
O8 O 0.3639(3) 1.02491(15) 1.0603(2) 0.0430(11) Uiso 1 1 d U . .
O9 O 0.2577(3) 1.00243(14) 0.9121(2) 0.0383(11) Uiso 1 1 d U . .
O10 O 0.1624(3) 1.00391(17) 0.7992(3) 0.0574(14) Uiso 1 1 d U . .
O11 O 0.2571(3) 0.96799(14) 1.1505(2) 0.0438(11) Uiso 1 1 d U . .
O12 O 0.2426(3) 0.97435(14) 1.0357(2) 0.0391(11) Uiso 1 1 d U . .
O13 O 0.1047(3) 1.08094(18) 0.7054(3) 0.0669(15) Uiso 1 1 d U . .
O14 O 0.4084(3) 0.97756(16) 1.2912(3) 0.0559(14) Uiso 1 1 d U . .
O15 O 0.6999(3) -0.09254(15) 0.3384(3) 0.0516(12) Uiso 1 1 d U . .
O16 O 0.5829(5) -0.0884(3) 0.3232(5) 0.123(3) Uiso 1 1 d U . .
O17 O 0.8035(3) -0.16236(18) 0.3763(3) 0.0712(16) Uiso 1 1 d U . .
O18 O 0.7120(4) -0.1490(2) 0.4679(4) 0.094 Uiso 1 1 d U . .
O19 O 0.5472(4) -0.1415(2) 0.2087(3) 0.083 Uiso 1 1 d U . .
O20 O 0.6528(3) -0.16912(17) 0.2333(3) 0.0645(14) Uiso 1 1 d U . .
O21 O 0.6391(4) -0.1717(2) 0.3768(4) 0.099(2) Uiso 1 1 d U . .
O22 O 0.3269(4) 1.00147(19) 1.3185(3) 0.0773(16) Uiso 1 1 d U . .
O24 O 0.7734(5) -0.2195(3) 0.3841(4) 0.104 Uiso 1 1 d U . .
O25 O 0.0135(4) 1.0354(3) 0.6681(4) 0.104 Uiso 1 1 d U . .
C1 C 0.2096(4) 0.9865(2) 0.8559(4) 0.0371(16) Uiso 1 1 d U . .
C2 C 0.2088(4) 0.9409(2) 0.8556(4) 0.0395(16) Uiso 1 1 d U . .
C3 C 0.1495(5) 0.9200(3) 0.7996(4) 0.057(2) Uiso 1 1 d U . .
C4 C 0.1455(4) 0.8809(3) 0.8010(4) 0.053(2) Uiso 1 1 d U . .
C5 C 0.2015(4) 0.8578(2) 0.8555(4) 0.0466(18) Uiso 1 1 d U . .
C6 C 0.2570(4) 0.8774(2) 0.9102(4) 0.0439(17) Uiso 1 1 d U . .
C7 C 0.2617(4) 0.9199(2) 0.9099(4) 0.0463(18) Uiso 1 1 d U . .
C8 C 0.2849(4) 1.0917(2) 0.9110(4) 0.0472(18) Uiso 1 1 d U . .
C9 C 0.3604(4) 1.1075(2) 0.9417(4) 0.0409(17) Uiso 1 1 d U . .
C10 C 0.3875(5) 1.1133(3) 0.8938(5) 0.061(2) Uiso 1 1 d U . .
C11 C 0.4681(5) 1.1252(3) 0.9281(5) 0.070(2) Uiso 1 1 d U . .
C12 C 0.5053(4) 1.1353(2) 1.0002(4) 0.0469(18) Uiso 1 1 d U . .
C13 C 0.4735(4) 1.1307(2) 1.0433(4) 0.0454(18) Uiso 1 1 d U . .
C14 C 0.4014(5) 1.1165(2) 1.0145(4) 0.054(2) Uiso 1 1 d U . .
C15 C 0.2994(4) 1.0754(2) 1.1408(4) 0.0443(18) Uiso 1 1 d U . .
C16 C 0.3052(4) 1.1172(2) 1.1417(4) 0.0390(16) Uiso 1 1 d U . .
C17 C 0.2446(5) 1.1414(3) 1.0872(4) 0.055(2) Uiso 1 1 d U . .
C18 C 0.2463(5) 1.1815(3) 1.0865(4) 0.053(2) Uiso 1 1 d U . .
C19 C 0.3109(4) 1.2020(2) 1.1432(4) 0.0407(17) Uiso 1 1 d U . .
C20 C 0.3679(5) 1.1797(2) 1.1928(4) 0.0517(19) Uiso 1 1 d U . .
C21 C 0.3630(4) 1.1365(2) 1.1935(4) 0.0490(19) Uiso 1 1 d U . .
C22 C 0.2199(4) 0.9646(2) 1.0806(4) 0.0343(15) Uiso 1 1 d U . .
C23 C 0.1445(4) 0.9486(2) 1.0504(4) 0.0395(16) Uiso 1 1 d U . .
C24 C 0.1084(5) 0.9426(2) 1.0946(4) 0.054(2) Uiso 1 1 d U . .
C25 C 0.0395(5) 0.9282(3) 1.0679(4) 0.058(2) Uiso 1 1 d U . .
C26 C -0.0032(4) 0.9216(2) 0.9904(4) 0.0447(18) Uiso 1 1 d U . .
C27 C 0.0317(5) 0.9249(2) 0.9467(4) 0.0526(19) Uiso 1 1 d U . .
C28 C 0.1051(4) 0.9384(2) 0.9749(4) 0.0512(19) Uiso 1 1 d U . .
C29 C -0.0797(4) 0.9096(2) 0.9569(4) 0.0453(18) Uiso 1 1 d U . .
C30 C -0.1249(5) 0.9258(3) 0.9843(4) 0.056(2) Uiso 1 1 d U . .
C31 C -0.2014(4) 0.9148(2) 0.9502(4) 0.0491(19) Uiso 1 1 d U . .
C32 C -0.2311(4) 0.88941(19) 0.8897(3) 0.0316(15) Uiso 1 1 d U . .
C33 C -0.1863(5) 0.8712(2) 0.8664(4) 0.053(2) Uiso 1 1 d U . .
C34 C -0.1120(5) 0.8814(3) 0.9013(4) 0.054(2) Uiso 1 1 d U . .
C35 C 0.1954(4) 0.8139(2) 0.8545(4) 0.0368(16) Uiso 1 1 d U . .
C36 C 0.1647(5) 0.7901(3) 0.7897(4) 0.055(2) Uiso 1 1 d U . .
C37 C 0.1557(5) 0.7522(3) 0.7886(5) 0.060(2) Uiso 1 1 d U . .
C38 C 0.1851(4) 0.7290(2) 0.8543(3) 0.0304(15) Uiso 1 1 d U . .
C39 C 0.2209(5) 0.7506(3) 0.9207(4) 0.055(2) Uiso 1 1 d U . .
C40 C 0.2231(4) 0.7923(2) 0.9211(4) 0.0464(18) Uiso 1 1 d U . .
C41 C 0.1466(4) 0.6666(2) 0.7783(4) 0.0384(16) Uiso 1 1 d U . .
C42 C 0.0766(5) 0.6690(3) 0.7381(5) 0.063(2) Uiso 1 1 d U . .
C43 C 0.0371(6) 0.6542(3) 0.6625(5) 0.074(3) Uiso 1 1 d U . .
C44 C 0.0789(5) 0.6354(3) 0.6349(5) 0.065(2) Uiso 1 1 d U . .
C45 C 0.1527(5) 0.6304(3) 0.6787(5) 0.062(2) Uiso 1 1 d U . .
C46 C 0.1887(4) 0.6451(2) 0.7505(4) 0.0495(19) Uiso 1 1 d U . .
C47 C 0.2655(4) 0.6693(2) 0.9006(4) 0.0414(17) Uiso 1 1 d U . .
C48 C 0.3154(5) 0.6870(2) 0.8767(4) 0.0508(19) Uiso 1 1 d U . .
C49 C 0.2930(5) 0.6459(2) 0.9571(4) 0.052(2) Uiso 1 1 d U . .
C50 C -0.3131(4) 0.8772(2) 0.8506(4) 0.0364(16) Uiso 1 1 d U . .
C51 C -0.3524(4) 0.8942(2) 0.8908(4) 0.0444(18) Uiso 1 1 d U . .
C52 C -0.3674(5) 0.9361(2) 0.8878(4) 0.053(2) Uiso 1 1 d U . .
C53 C -0.4029(4) 0.9522(2) 0.9241(4) 0.0482(19) Uiso 1 1 d U . .
C54 C -0.4248(4) 0.9307(2) 0.9635(4) 0.0472(18) Uiso 1 1 d U . .
C55 C -0.4128(5) 0.8878(3) 0.9702(5) 0.065(2) Uiso 1 1 d U . .
C56 C -0.3747(4) 0.8719(2) 0.9362(4) 0.0422(17) Uiso 1 1 d U . .
C57 C -0.3540(4) 0.8954(2) 0.7730(4) 0.0454(18) Uiso 1 1 d U . .
C58 C -0.3224(5) 0.9121(3) 0.7390(4) 0.054(2) Uiso 1 1 d U . .
C59 C -0.3625(5) 0.9266(3) 0.6670(5) 0.063(2) Uiso 1 1 d U . .
C60 C -0.4395(5) 0.9238(2) 0.6281(4) 0.0531(19) Uiso 1 1 d U . .
C61 C -0.4744(4) 0.9057(2) 0.6640(4) 0.0489(19) Uiso 1 1 d U . .
C62 C -0.4334(4) 0.8894(2) 0.7336(4) 0.0427(17) Uiso 1 1 d U . .
C63 C -0.4841(4) 0.9407(2) 0.5561(4) 0.0461(17) Uiso 1 1 d U . .
C64 C -0.4527(5) 0.9403(3) 0.5054(5) 0.062(2) Uiso 1 1 d U . .
C65 C -0.4987(4) 0.9558(2) 0.4332(4) 0.0508(18) Uiso 1 1 d U . .
C66 C -0.5676(4) 0.9692(2) 0.4151(4) 0.0500(18) Uiso 1 1 d U . .
C67 C -0.5955(5) 0.9703(2) 0.4616(4) 0.059(2) Uiso 1 1 d U . .
C68 C -0.5517(5) 0.9551(2) 0.5331(4) 0.0559(19) Uiso 1 1 d U . .
C69 C -0.3130(4) 0.7465(2) 0.8564(4) 0.0413(17) Uiso 1 1 d U . .
C70 C -0.2706(4) 0.7724(2) 0.9194(4) 0.0509(19) Uiso 1 1 d U . .
C71 C -0.3543(4) 0.7669(2) 0.7906(4) 0.0407(16) Uiso 1 1 d U . .
C72 C 0.4180(4) 0.6498(2) 0.9702(4) 0.0431(17) Uiso 1 1 d U . .
C73 C 0.3913(5) 0.6771(2) 0.9114(4) 0.053(2) Uiso 1 1 d U . .
C74 C 0.3673(5) 0.6336(3) 0.9929(4) 0.057(2) Uiso 1 1 d U . .
C75 C 0.1832(4) 0.6830(2) 0.8556(4) 0.0379(16) Uiso 1 1 d U . .
C76 C 0.1420(4) 0.6658(2) 0.8948(4) 0.0342(15) Uiso 1 1 d U . .
C77 C 0.1296(4) 0.6258(2) 0.8916(4) 0.0438(18) Uiso 1 1 d U . .
C78 C 0.0927(5) 0.6078(2) 0.9252(4) 0.053(2) Uiso 1 1 d U . .
C79 C 0.0625(4) 0.6317(2) 0.9592(4) 0.0421(17) Uiso 1 1 d U . .
C80 C 0.0717(5) 0.6713(3) 0.9589(4) 0.058(2) Uiso 1 1 d U . .
C81 C 0.1081(4) 0.6904(2) 0.9241(4) 0.0414(17) Uiso 1 1 d U . .
C82 C 0.0242(4) 0.6142(2) 0.9979(4) 0.0487(19) Uiso 1 1 d U . .
C83 C 0.0238(5) 0.6320(3) 1.0570(5) 0.060(2) Uiso 1 1 d U . .
C85 C 0.6416(7) -0.0743(4) 0.3193(6) 0.097(3) Uiso 1 1 d U . .
C86 C 0.6420(6) -0.0289(3) 0.3263(5) 0.078(3) Uiso 1 1 d U . .
C87 C 0.5775(5) -0.0083(3) 0.2951(5) 0.066(2) Uiso 1 1 d U . .
C88 C 0.5773(5) 0.0332(3) 0.2897(5) 0.068(2) Uiso 1 1 d U . .
C89 C 0.6407(5) 0.0541(3) 0.3225(5) 0.071(2) Uiso 1 1 d U . .
C90 C 0.7115(7) 0.0326(4) 0.3686(7) 0.105(3) Uiso 1 1 d U . .
C91 C 0.7071(7) -0.0096(4) 0.3590(6) 0.093(3) Uiso 1 1 d U . .
C92 C 0.6401(4) 0.0983(2) 0.3247(4) 0.0499(18) Uiso 1 1 d U . .
C93 C 0.5892(5) 0.1196(3) 0.2643(4) 0.061(2) Uiso 1 1 d U . .
C94 C 0.5902(5) 0.1618(3) 0.2634(5) 0.070(2) Uiso 1 1 d U . .
C95 C 0.6392(4) 0.1820(2) 0.3216(4) 0.0479(17) Uiso 1 1 d U . .
C96 C 0.6843(5) 0.1608(3) 0.3857(5) 0.069(2) Uiso 1 1 d U . .
C97 C 0.6866(5) 0.1212(3) 0.3894(5) 0.067(2) Uiso 1 1 d U . .
C98 C 0.6416(4) 0.2294(2) 0.3290(4) 0.0523(18) Uiso 1 1 d U . .
C99 C 0.5893(4) 0.2434(2) 0.3605(4) 0.0449(17) Uiso 1 1 d U . .
C100 C 0.5615(4) 0.2160(2) 0.3935(4) 0.0526(18) Uiso 1 1 d U . .
C101 C 0.5160(6) 0.2316(3) 0.4233(5) 0.075(2) Uiso 1 1 d U . .
C102 C 0.5049(5) 0.2725(3) 0.4238(4) 0.060(2) Uiso 1 1 d U . .
C103 C 0.5310(4) 0.2983(2) 0.3885(4) 0.0508(18) Uiso 1 1 d U . .
C104 C 0.5741(4) 0.2831(2) 0.3598(4) 0.0525(19) Uiso 1 1 d U . .
C105 C 0.7184(5) 0.2423(2) 0.3728(4) 0.0547(19) Uiso 1 1 d U . .
C106 C 0.7752(5) 0.2232(2) 0.3614(4) 0.056(2) Uiso 1 1 d U . .
C107 C 0.8462(5) 0.2345(2) 0.3998(4) 0.0552(19) Uiso 1 1 d U . .
C108 C 0.8699(5) 0.2629(3) 0.4542(5) 0.067(2) Uiso 1 1 d U . .
C109 C 0.8212(5) 0.2812(3) 0.4712(5) 0.069(2) Uiso 1 1 d U . .
C110 C 0.7451(5) 0.2686(2) 0.4293(4) 0.0555(19) Uiso 1 1 d U . .
C111 C 0.4604(5) 0.2881(3) 0.4554(4) 0.060(2) Uiso 1 1 d U . .
C112 C 0.4102(5) 0.3174(3) 0.4239(5) 0.071(2) Uiso 1 1 d U . .
C113 C 0.3664(6) 0.3329(3) 0.4563(5) 0.080(3) Uiso 1 1 d U . .
C114 C 0.3781(6) 0.3167(3) 0.5217(6) 0.083(3) Uiso 1 1 d U . .
C115 C 0.4274(5) 0.2871(3) 0.5552(5) 0.073(2) Uiso 1 1 d U . .
C116 C 0.4732(7) 0.2699(4) 0.5243(7) 0.099(3) Uiso 1 1 d U . .
C117 C 0.6599(6) -0.1645(3) 0.4363(6) 0.072(2) Uiso 1 1 d U . .
C119 C 0.5481(5) -0.1791(2) 0.1062(4) 0.0552(19) Uiso 1 1 d U . .
C120 C 0.6056(4) 0.2457(2) 0.2505(4) 0.0385(15) Uiso 1 1 d U . .
C121 C 0.6510(5) 0.2656(3) 0.2190(5) 0.063(2) Uiso 1 1 d U . .
C122 C 0.6159(5) 0.2788(3) 0.1492(5) 0.065(2) Uiso 1 1 d U . .
C123 C 0.5417(5) 0.2769(2) 0.1078(4) 0.059(2) Uiso 1 1 d U . .
C124 C 0.4963(5) 0.2633(3) 0.1374(4) 0.061(2) Uiso 1 1 d U . .
C125 C 0.5283(5) 0.2487(3) 0.2029(4) 0.058(2) Uiso 1 1 d U . .
C126 C 0.9484(6) 0.2769(3) 0.4936(6) 0.082(3) Uiso 1 1 d U . .
C127 C 1.0068(7) 0.2441(4) 0.5135(6) 0.093(3) Uiso 1 1 d U . .
C128 C 1.0791(7) 0.2544(4) 0.5486(6) 0.099(3) Uiso 1 1 d U . .
C129 C 1.1019(7) 0.2917(4) 0.5686(6) 0.091(3) Uiso 1 1 d U . .
C130 C 1.0521(7) 0.3195(4) 0.5617(6) 0.096(3) Uiso 1 1 d U . .
C131 C 0.9712(7) 0.3127(4) 0.5229(6) 0.098(3) Uiso 1 1 d U . .
C133 C 0.5922(8) -0.1625(4) 0.1975(7) 0.100(3) Uiso 1 1 d U . .
C134 C 0.5955(6) -0.2029(3) 0.0936(5) 0.077(3) Uiso 1 1 d U . .
C135 C 0.5614(6) -0.2201(3) 0.0205(5) 0.076(3) Uiso 1 1 d U . .
C136 C 0.4930(6) -0.2077(3) -0.0289(5) 0.076(2) Uiso 1 1 d U . .
C137 C 0.4544(6) -0.1796(3) -0.0096(6) 0.083(3) Uiso 1 1 d U . .
C138 C 0.4889(7) -0.1667(3) 0.0646(6) 0.092(3) Uiso 1 1 d U . .
C139 C -0.4668(4) 0.9489(2) 0.9994(4) 0.0467(18) Uiso 1 1 d U . .
C140 C -0.4586(4) 0.9352(2) 1.0663(4) 0.052(2) Uiso 1 1 d U . .
C141 C -0.3158(4) 0.8317(2) 0.8515(4) 0.0409(17) Uiso 1 1 d U . .
C142 C -0.3545(4) 0.8093(2) 0.7891(4) 0.0411(17) Uiso 1 1 d U . .
C143 C -0.2742(4) 0.8089(2) 0.9182(4) 0.0396(17) Uiso 1 1 d U . .
C144 C 0.4080(4) 0.9975(2) 1.0950(4) 0.0354(15) Uiso 1 1 d U . .
C145 C -0.4960(4) 0.9496(2) 1.0973(4) 0.0405(16) Uiso 1 1 d U . .
C146 C -0.5458(4) 0.9822(2) 1.0635(4) 0.0427(17) Uiso 1 1 d U . .
C147 C -0.5551(5) 0.9972(3) 0.9970(5) 0.062(2) Uiso 1 1 d U . .
C148 C -0.5141(5) 0.9797(2) 0.9674(4) 0.053(2) Uiso 1 1 d U . .
C149 C 0.1000(4) 1.0613(2) 0.9044(4) 0.0472(18) Uiso 1 1 d U . .
C150 C -0.0174(5) 0.6165(3) 1.0890(5) 0.066(2) Uiso 1 1 d U . .
C151 C -0.0576(4) 0.5814(2) 1.0626(3) 0.0341(15) Uiso 1 1 d U . .
C152 C -0.0582(4) 0.5619(3) 1.0001(4) 0.0529(19) Uiso 1 1 d U . .
C153 C -0.0161(5) 0.5778(3) 0.9706(4) 0.056(2) Uiso 1 1 d U . .
C84 C 0.0463(4) 0.6155(2) 0.5634(3) 0.085(3) Uiso 1 1 d GU . .
C159 C 0.0793(4) 0.5819(3) 0.5523(4) 0.124(4) Uiso 1 1 d GU . .
C160 C 0.0510(5) 0.5654(2) 0.4827(5) 0.147(5) Uiso 1 1 d GU . .
C166 C -0.0104(5) 0.5824(3) 0.4242(4) 0.096(3) Uiso 1 1 d GU . .
C162 C -0.0433(4) 0.6159(3) 0.4353(4) 0.107(4) Uiso 1 1 d GU . .
C161 C -0.0150(5) 0.6325(2) 0.5049(4) 0.107(4) Uiso 1 1 d GU . .
C163 C 0.3832(5) 0.9829(2) 1.3304(4) 0.057(2) Uiso 1 1 d U . .
C165 C 0.8209(6) -0.1966(3) 0.3948(5) 0.077(3) Uiso 1 1 d U . .
C167 C 0.0486(8) 1.0670(4) 0.6565(7) 0.110(4) Uiso 1 1 d U . .

loop_
_atom_site_aniso_label
_atom_site_aniso_U_11
_atom_site_aniso_U_22
_atom_site_aniso_U_33
_atom_site_aniso_U_23
_atom_site_aniso_U_13
_atom_site_aniso_U_12
Zn1 0.0392(6) 0.0466(6) 0.0363(5) 0.0045(4) 0.0173(5) 0.0027(5)
Zn2 0.0405(6) 0.0443(6) 0.0361(5) 0.0028(4) 0.0174(5) 0.0023(5)
Zn3 0.0481(6) 0.0505(6) 0.0478(5) -0.0010(5) 0.0234(5) 0.0007(5)

_geom_special_details            
;
All esds (except the esd in the dihedral angle between two l.s. planes)
are estimated using the full covariance matrix. The cell