####################################################################### 
# 
# This file contains crystal structure data downloaded from the 
# Cambridge Structural Database (CSD) hosted by the Cambridge 
# Crystallographic Data Centre (CCDC).
# 
# Full information about CCDC data access policies and citation 
# guidelines are available at http://www.ccdc.cam.ac.uk/access/V1 
# 
# Audit and citation data items may have been added by the CCDC. 
# Please retain this information to preserve the provenance of 
# this file and to allow appropriate attribution of the data. 
# 
#######################################################################

data_Co_p21
_audit_block_doi                 10.5517/ccy21fg
_database_code_depnum_ccdc_archive 'CCDC 865905'
loop_
_citation_id
_citation_doi
_citation_year
1 10.1039/C2SC20172K 2012
_audit_update_record             
;
2012-02-07 deposited with the CCDC.	2024-07-13 downloaded from the CCDC.
;
#TrackingRef 'Co_P21.cif'


_audit_creation_method           SHELXL-97
_chemical_name_systematic        
;
?
;
_chemical_name_common            ?
_chemical_melting_point          ?
_chemical_formula_moiety         ?
_chemical_formula_sum            'C159 H0 Co5 O25'
_chemical_formula_weight         2604.24

loop_
_atom_type_symbol
_atom_type_description
_atom_type_scat_dispersion_real
_atom_type_scat_dispersion_imag
_atom_type_scat_source
C C 0.0181 0.0091 'International Tables Vol C Tables 4.2.6.8 and 6.1.1.4'
O O 0.0492 0.0322 'International Tables Vol C Tables 4.2.6.8 and 6.1.1.4'
Co Co -2.3653 3.6143 'International Tables Vol C Tables 4.2.6.8 and 6.1.1.4'
H H 0.0000 0.0000 'International Tables Vol C Tables 4.2.6.8 and 6.1.1.4'

_symmetry_cell_setting           Monoclinic
_symmetry_space_group_name_H-M   P21

loop_
_symmetry_equiv_pos_as_xyz
'x, y, z'
'-x, y+1/2, -z'

_cell_length_a                   19.3772(8)
_cell_length_b                   34.3744(10)
_cell_length_c                   20.7308(7)
_cell_angle_alpha                90.00
_cell_angle_beta                 115.432(2)
_cell_angle_gamma                90.00
_cell_volume                     12470.3(8)
_cell_formula_units_Z            2
_cell_measurement_temperature    293(2)
_cell_measurement_reflns_used    ?
_cell_measurement_theta_min      ?
_cell_measurement_theta_max      ?

_exptl_crystal_description       block
_exptl_crystal_colour            purple
_exptl_crystal_size_max          0.10
_exptl_crystal_size_mid          0.10
_exptl_crystal_size_min          0.10
_exptl_crystal_density_meas      ?
_exptl_crystal_density_diffrn    0.694
_exptl_crystal_density_method    'not measured'
_exptl_crystal_F_000             2578
_exptl_absorpt_coefficient_mu    2.869
_exptl_absorpt_correction_type   ?
_exptl_absorpt_correction_T_min  0.7624
_exptl_absorpt_correction_T_max  0.7624
_exptl_absorpt_process_details   ?

_exptl_special_details           
;
?
;

_diffrn_ambient_temperature      293(2)
_diffrn_radiation_wavelength     1.54178
_diffrn_radiation_type           CuK\a
_diffrn_radiation_source         'fine-focus sealed tube'
_diffrn_radiation_monochromator  graphite
_diffrn_measurement_device_type  ?
_diffrn_measurement_method       ?
_diffrn_detector_area_resol_mean ?
_diffrn_standards_number         ?
_diffrn_standards_interval_count ?
_diffrn_standards_interval_time  ?
_diffrn_standards_decay_%        ?
_diffrn_reflns_number            31032
_diffrn_reflns_av_R_equivalents  0.0585
_diffrn_reflns_av_sigmaI/netI    0.1377
_diffrn_reflns_limit_h_min       -12
_diffrn_reflns_limit_h_max       16
_diffrn_reflns_limit_k_min       -29
_diffrn_reflns_limit_k_max       29
_diffrn_reflns_limit_l_min       -18
_diffrn_reflns_limit_l_max       17
_diffrn_reflns_theta_min         2.36
_diffrn_reflns_theta_max         42.08
_reflns_number_total             14527
_reflns_number_gt                9315
_reflns_threshold_expression     >2sigma(I)

_computing_data_collection       ?
_computing_cell_refinement       ?
_computing_data_reduction        ?
_computing_structure_solution    'SHELXS-97 (Sheldrick, 1990)'
_computing_structure_refinement  'SHELXL-97 (Sheldrick, 1997)'
_computing_molecular_graphics    ?
_computing_publication_material  ?

_refine_special_details          
;
Refinement of F^2^ against ALL reflections. The weighted R-factor wR and
goodness of fit S are based on F^2^, conventional R-factors R are based
on F, with F set to zero for negative F^2^. The threshold expression of
F^2^ > 2sigma(F^2^) is used only for calculating R-factors(gt) etc. and is
not relevant to the choice of reflections for refinement. R-factors based
on F^2^ are statistically about twice as large as those based on F, and R-
factors based on ALL data will be even larger.
;

_refine_ls_structure_factor_coef Fsqd
_refine_ls_matrix_type           full
_refine_ls_weighting_scheme      calc
_refine_ls_weighting_details     
'calc w=1/[\s^2^(Fo^2^)+(0.1000P)^2^+0.2813P] where P=(Fo^2^+2Fc^2^)/3'
_atom_sites_solution_primary     direct
_atom_sites_solution_secondary   difmap
_atom_sites_solution_hydrogens   none
_refine_ls_hydrogen_treatment    none
_refine_ls_extinction_method     none
_refine_ls_extinction_coef       ?
_refine_ls_abs_structure_details 'Flack H D (1983), Acta Cryst. A39, 876-881'
_refine_ls_abs_structure_Flack   0.006(4)
_refine_ls_number_reflns         14527
_refine_ls_number_parameters     765
_refine_ls_number_restraints     200
_refine_ls_R_factor_all          0.0912
_refine_ls_R_factor_gt           0.0602
_refine_ls_wR_factor_ref         0.1655
_refine_ls_wR_factor_gt          0.1493
_refine_ls_goodness_of_fit_ref   0.813
_refine_ls_restrained_S_all      0.808
_refine_ls_shift/su_max          0.032
_refine_ls_shift/su_mean         0.000

loop_
_atom_site_label
_atom_site_type_symbol
_atom_site_fract_x
_atom_site_fract_y
_atom_site_fract_z
_atom_site_U_iso_or_equiv
_atom_site_adp_type
_atom_site_occupancy
_atom_site_symmetry_multiplicity
_atom_site_calc_flag
_atom_site_refinement_flags
_atom_site_disorder_assembly
_atom_site_disorder_group
C137 C -0.1285(9) 0.3723(5) 0.8648(8) 0.124(5) Uiso 1 1 d U . .
C156 C -0.1294(8) 0.3407(5) 0.9100(8) 0.122(5) Uiso 1 1 d U . .
C155 C -0.0655(11) 0.3851(5) 0.8579(9) 0.154(6) Uiso 1 1 d U . .
C150 C 0.8177(6) 0.8157(3) 1.1786(5) 0.057(3) Uiso 1 1 d U . .
C158 C 0.7800(5) 0.7940(3) 1.2133(5) 0.054(3) Uiso 1 1 d U . .
C151 C 0.8488(6) 0.7964(3) 1.1380(6) 0.066(3) Uiso 1 1 d U . .
C33 C -0.0568(7) 0.6220(3) 0.9933(6) 0.078(4) Uiso 1 1 d U . .
C34 C -0.1110(8) 0.6068(4) 0.9258(7) 0.108(5) Uiso 1 1 d U . .
C35 C -0.0772(8) 0.5908(4) 0.8796(7) 0.111(5) Uiso 1 1 d U . .
Co1 Co 0.28392(8) 0.42953(5) 0.66044(8) 0.0510(5) Uani 1 1 d U . .
Co2 Co 0.47069(8) 0.42362(4) 0.71285(8) 0.0445(5) Uani 1 1 d U . .
Co3 Co 0.14226(9) 0.55636(5) 0.80860(9) 0.0568(5) Uani 1 1 d U . .
Co4 Co 0.64996(9) 0.40875(5) 0.76436(9) 0.0569(5) Uani 1 1 d U . .
Co5 Co 0.24989(9) 0.51614(5) 0.72077(8) 0.0563(5) Uani 1 1 d U . .
O1 O 0.3001(4) 0.37289(18) 0.6717(3) 0.053(2) Uiso 1 1 d U . .
O2 O 0.3106(4) 0.45872(18) 0.7575(3) 0.0515(19) Uiso 1 1 d U . .
O6 O 0.4229(3) 0.42965(18) 0.7817(3) 0.0450(17) Uiso 1 1 d U . .
O8 O 0.5260(4) 0.47698(18) 0.7471(3) 0.0514(19) Uiso 1 1 d U . .
O7 O 0.4208(4) 0.37240(18) 0.6773(3) 0.054(2) Uiso 1 1 d U . .
O13 O 0.7453(5) 0.3787(3) 0.8329(4) 0.093 Uiso 1 1 d U . .
O11 O 0.6454(4) 0.46853(19) 0.7600(3) 0.062(2) Uiso 1 1 d U . .
O10 O 0.5686(3) 0.39184(18) 0.7936(4) 0.057(2) Uiso 1 1 d U . .
O9 O 0.5151(3) 0.41748(19) 0.6404(3) 0.057(2) Uiso 1 1 d U . .
O3 O 0.1669(3) 0.4252(2) 0.6027(3) 0.0529(19) Uiso 1 1 d U . .
O5 O 0.3695(3) 0.45794(17) 0.6408(3) 0.0463(18) Uiso 1 1 d U . .
O12 O 0.6213(4) 0.3832(2) 0.6707(4) 0.073(2) Uiso 1 1 d U . .
O4 O 0.2803(4) 0.4317(2) 0.5451(3) 0.073(2) Uiso 1 1 d U . .
O15 O 0.0964(4) 0.5815(2) 0.7121(4) 0.072(2) Uiso 1 1 d U . .
O18 O 0.2072(4) 0.4855(2) 0.6251(3) 0.062(2) Uiso 1 1 d U . .
O16 O 0.1871(4) 0.56596(19) 0.6734(3) 0.059(2) Uiso 1 1 d U . .
O19 O 0.3398(4) 0.53040(19) 0.6903(4) 0.070(2) Uiso 1 1 d U . .
O17 O 0.1628(4) 0.4982(2) 0.7498(4) 0.087(3) Uiso 1 1 d U . .
O14 O 0.2495(4) 0.5761(2) 0.8636(4) 0.070(2) Uiso 1 1 d U . .
O21 O 0.1075(5) 0.5866(2) 0.8722(4) 0.094(3) Uiso 1 1 d U . .
O20 O 0.3167(4) 0.5460(2) 0.8113(4) 0.067(2) Uiso 1 1 d U . .
C7 C 0.3721(6) 0.6166(3) 0.9539(6) 0.068(3) Uiso 1 1 d U . .
C2 C 0.3793(6) 0.5855(3) 0.9107(6) 0.072(4) Uiso 1 1 d U . .
C3 C 0.4491(6) 0.5748(3) 0.9112(5) 0.056(3) Uiso 1 1 d U . .
C5 C 0.5134(6) 0.6202(3) 1.0072(5) 0.057(3) Uiso 1 1 d U . .
C4 C 0.5155(5) 0.5912(3) 0.9607(5) 0.055(3) Uiso 1 1 d U . .
C6 C 0.4431(7) 0.6323(3) 1.0033(6) 0.075(4) Uiso 1 1 d U . .
C1 C 0.3018(7) 0.5673(3) 0.8557(6) 0.067(3) Uiso 1 1 d U . .
C12 C 0.6660(6) 0.6976(3) 1.1074(5) 0.052(3) Uiso 1 1 d U . .
C11 C 0.7306(5) 0.6730(3) 1.1411(5) 0.049(3) Uiso 1 1 d U . .
C8 C 0.5867(5) 0.6386(3) 1.0594(5) 0.046(3) Uiso 1 1 d U . .
C10 C 0.7212(5) 0.6308(3) 1.1370(5) 0.053(3) Uiso 1 1 d U . .
C13 C 0.5932(5) 0.6803(3) 1.0665(5) 0.054(3) Uiso 1 1 d U . .
C9 C 0.6496(6) 0.6151(3) 1.0940(5) 0.060(3) Uiso 1 1 d U . .
C14 C 0.8108(5) 0.6904(3) 1.1739(5) 0.042(3) Uiso 1 1 d U . .
C16 C 0.8237(5) 0.6587(3) 1.2953(5) 0.056(3) Uiso 1 1 d U . .
C15 C 0.8576(5) 0.6773(3) 1.2582(5) 0.040(3) Uiso 1 1 d U . .
C20 C 0.9309(6) 0.6913(3) 1.2896(6) 0.065(3) Uiso 1 1 d U . .
C17 C 0.8683(5) 0.6476(3) 1.3665(5) 0.049(3) Uiso 1 1 d U . .
C24 C 1.0842(6) 0.6079(3) 1.6052(5) 0.056(3) Uiso 1 1 d U . .
C26 C 1.0665(6) 0.6319(3) 1.4880(5) 0.052(3) Uiso 1 1 d U . .
C19 C 0.9786(5) 0.6795(3) 1.3631(5) 0.055(3) Uiso 1 1 d U . .
C23 C 1.0128(6) 0.6227(3) 1.5913(6) 0.073(4) Uiso 1 1 d U . .
C18 C 0.9428(6) 0.6581(3) 1.3997(5) 0.052(3) Uiso 1 1 d U . .
C25 C 1.1159(6) 0.6132(3) 1.5561(6) 0.072(4) Uiso 1 1 d U . .
C22 C 0.9641(6) 0.6398(3) 1.5235(6) 0.062(3) Uiso 1 1 d U . .
C21 C 0.9927(6) 0.6440(3) 1.4717(5) 0.055(3) Uiso 1 1 d U . .
C27 C 0.8488(6) 0.6727(3) 1.1298(6) 0.064(3) Uiso 1 1 d U . .
C29 C 0.8406(6) 0.6610(3) 1.0091(6) 0.067(3) Uiso 1 1 d U . .
C32 C 0.9164(6) 0.6472(3) 1.1565(6) 0.080(4) Uiso 1 1 d U . .
C30 C 0.9081(6) 0.6382(3) 1.0383(6) 0.063(3) Uiso 1 1 d U . .
C28 C 0.8113(6) 0.6765(3) 1.0544(6) 0.060(3) Uiso 1 1 d U . .
C31 C 0.9456(6) 0.6303(3) 1.1106(6) 0.066(3) Uiso 1 1 d U . .
O22 O -0.0005(6) 0.5589(3) 0.8041(6) 0.145(4) Uiso 1 1 d U . .
C38 C 0.0537(9) 0.6062(5) 0.9674(9) 0.133(5) Uiso 1 1 d U . .
C37 C 0.0033(8) 0.5928(4) 0.8995(7) 0.093(4) Uiso 1 1 d U . .
C36 C 0.0495(10) 0.5772(4) 0.8553(8) 0.105(5) Uiso 1 1 d U . .
O23 O 0.1420(4) 0.5023(2) 0.8463(4) 0.090(3) Uiso 1 1 d U . .
C39 C 0.5556(8) 0.3943(4) 0.6302(6) 0.083(4) Uiso 1 1 d U . .
O24 O 0.6462(5) 0.4205(3) 0.8939(4) 0.109(3) Uiso 1 1 d U . .
C40 C 0.5910(9) 0.3973(4) 0.8611(8) 0.113(5) Uiso 1 1 d U . .
C44 C 0.4414(7) 0.3219(3) 1.0171(6) 0.078(4) Uiso 1 1 d U . .
C45 C 0.4757(6) 0.3265(3) 1.0896(6) 0.075(4) Uiso 1 1 d U . .
C41 C 0.3611(5) 0.2909(3) 1.0910(5) 0.052(3) Uiso 1 1 d U . .
C43 C 0.3709(5) 0.3013(3) 0.9794(5) 0.050(3) Uiso 1 1 d U . .
C42 C 0.3342(5) 0.2873(3) 1.0143(5) 0.052(3) Uiso 1 1 d U . .
C46 C 0.4339(7) 0.3130(3) 1.1246(6) 0.085(4) Uiso 1 1 d U . .
C47 C 0.4843(7) 0.3434(4) 0.9741(7) 0.095(4) Uiso 1 1 d U . .
C49 C 0.5012(7) 0.3540(4) 0.8689(6) 0.088(4) Uiso 1 1 d U . .
C51 C 0.5820(8) 0.3910(4) 0.9733(8) 0.120(5) Uiso 1 1 d U . .
C48 C 0.4613(8) 0.3298(4) 0.9056(8) 0.118(5) Uiso 1 1 d U . .
C50 C 0.5521(6) 0.3787(3) 0.8996(6) 0.066(3) Uiso 1 1 d U . .
C52 C 0.3494(5) 0.2930(3) 1.2082(5) 0.048(3) Uiso 1 1 d U . .
C56 C 0.4538(6) 0.2934(3) 1.3276(6) 0.070(4) Uiso 1 1 d U . .
C57 C 0.4219(6) 0.2772(3) 1.2580(6) 0.079(4) Uiso 1 1 d U . .
C55 C 0.4159(6) 0.3210(3) 1.3465(5) 0.055(3) Uiso 1 1 d U . .
C54 C 0.3452(6) 0.3321(3) 1.3042(6) 0.068(3) Uiso 1 1 d U . .
C53 C 0.3137(6) 0.3191(3) 1.2332(6) 0.070(3) Uiso 1 1 d U . .
C58 C 0.3174(5) 0.2767(3) 1.1301(5) 0.041(3) Uiso 1 1 d U . .
C60 C 0.4501(5) 0.3357(2) 1.4243(3) 0.073(4) Uiso 1 1 d GU . .
C59 C 0.5245(4) 0.32557(19) 1.4708(4) 0.062 Uiso 1 1 d GU . .
C127 C 0.5599(3) 0.3433(2) 1.5373(4) 0.095 Uiso 1 1 d GU . .
C128 C 0.5210(5) 0.3713(2) 1.5573(3) 0.061(3) Uiso 1 1 d GU . .
C129 C 0.4467(5) 0.3815(2) 1.5109(5) 0.088 Uiso 1 1 d GU . .
C61 C 0.4113(3) 0.3637(3) 1.4444(4) 0.120 Uiso 1 1 d GU . .
C62 C 0.3471(5) 0.1517(3) 1.1635(5) 0.056(3) Uiso 1 1 d U . .
C66 C 0.3622(5) 0.2092(3) 1.1064(5) 0.052(3) Uiso 1 1 d U . .
C65 C 0.3231(5) 0.2313(3) 1.1352(5) 0.040(3) Uiso 1 1 d U . .
C67 C 0.3715(5) 0.1670(3) 1.1211(5) 0.048(3) Uiso 1 1 d U . .
C63 C 0.3083(6) 0.1758(4) 1.1976(6) 0.073(4) Uiso 1 1 d U . .
C64 C 0.2940(5) 0.2151(3) 1.1822(5) 0.057(3) Uiso 1 1 d U . .
C73 C 0.4430(5) 0.0514(3) 1.2071(5) 0.055(3) Uiso 1 1 d U . .
C68 C 0.3909(6) 0.0293(3) 1.2233(5) 0.053(3) Uiso 1 1 d U . .
C69 C 0.3236(6) 0.0452(3) 1.2207(5) 0.065(3) Uiso 1 1 d U . .
C71 C 0.3638(5) 0.1094(3) 1.1864(5) 0.050(3) Uiso 1 1 d U . .
C72 C 0.4304(5) 0.0921(3) 1.1876(5) 0.052(3) Uiso 1 1 d U . .
C70 C 0.3112(6) 0.0858(3) 1.2023(6) 0.074(4) Uiso 1 1 d U . .
C74 C 0.2362(6) 0.2905(3) 1.0859(5) 0.053(3) Uiso 1 1 d U . .
C75 C 0.2256(5) 0.3300(3) 1.0707(5) 0.054(3) Uiso 1 1 d U . .
O25 O 0.7903(7) 0.4129(4) 0.7745(8) 0.209(6) Uiso 1 1 d U . .
C77 C 0.1543(6) 0.4595(4) 0.5976(6) 0.066(3) Uiso 1 1 d U . .
C78 C -0.2995(5) 0.5473(3) 0.3464(5) 0.045(3) Uiso 1 1 d U . .
C81 C -0.1529(5) 0.5158(3) 0.4237(5) 0.056(3) Uiso 1 1 d U . .
C80 C -0.2136(6) 0.5020(3) 0.4368(5) 0.067(3) Uiso 1 1 d U . .
C79 C -0.2907(6) 0.5164(3) 0.3949(5) 0.064(3) Uiso 1 1 d U . .
C83 C -0.2439(6) 0.5591(3) 0.3307(5) 0.053(3) Uiso 1 1 d U . .
C82 C -0.1648(6) 0.5453(3) 0.3684(6) 0.070(3) Uiso 1 1 d U . .
C84 C -0.4121(5) 0.5456(3) 0.2275(5) 0.051(3) Uiso 1 1 d U . .
C88 C -0.4038(6) 0.5026(3) 0.1324(5) 0.059(3) Uiso 1 1 d U . .
C89 C -0.3705(6) 0.5204(3) 0.2017(6) 0.063(3) Uiso 1 1 d U . .
C87 C -0.4814(6) 0.5131(3) 0.0852(6) 0.064(3) Uiso 1 1 d U . .
C86 C -0.5284(6) 0.5395(3) 0.1071(6) 0.059(3) Uiso 1 1 d U . .
C85 C -0.4924(6) 0.5541(3) 0.1777(6) 0.064(3) Uiso 1 1 d U . .
C91 C -0.3740(5) 0.6055(3) 0.3010(4) 0.027(2) Uiso 1 1 d U . .
C93 C -0.4014(5) 0.6715(3) 0.2475(5) 0.050(3) Uiso 1 1 d U . .
C94 C -0.3591(5) 0.6886(3) 0.3101(5) 0.042(3) Uiso 1 1 d U . .
C90 C -0.3242(5) 0.6242(3) 0.3652(5) 0.056(3) Uiso 1 1 d U . .
C92 C -0.4097(5) 0.6301(3) 0.2412(5) 0.049(3) Uiso 1 1 d U . .
C95 C -0.3204(5) 0.6653(3) 0.3714(5) 0.047(3) Uiso 1 1 d U . .
C96 C -0.3784(5) 0.5624(3) 0.3040(5) 0.041(3) Uiso 1 1 d U . .
C101 C -0.5060(5) 0.4744(3) -0.0934(5) 0.047(3) Uiso 1 1 d U . .
C100 C -0.5862(6) 0.4671(3) -0.1238(5) 0.049(3) Uiso 1 1 d U . .
C99 C -0.6324(5) 0.4728(3) -0.0927(5) 0.035(3) Uiso 1 1 d U . .
C97 C -0.5178(6) 0.4950(3) 0.0115(5) 0.051(3) Uiso 1 1 d U . .
C102 C -0.4728(5) 0.4903(3) -0.0242(5) 0.038(3) Uiso 1 1 d U . .
C98 C -0.5963(6) 0.4881(3) -0.0221(5) 0.052(3) Uiso 1 1 d U . .
C103 C -0.4341(5) 0.5516(3) 0.3369(5) 0.047(3) Uiso 1 1 d U . .
C106 C -0.5229(6) 0.5219(4) 0.4023(6) 0.073(3) Uiso 1 1 d U . .
C105 C -0.5116(6) 0.4990(3) 0.3551(6) 0.070(4) Uiso 1 1 d U . .
C104 C -0.4661(6) 0.5115(3) 0.3228(6) 0.076(4) Uiso 1 1 d U . .
C108 C -0.4509(5) 0.5742(3) 0.3809(5) 0.056(3) Uiso 1 1 d U . .
C107 C -0.4953(6) 0.5621(3) 0.4138(6) 0.071(3) Uiso 1 1 d U . .
C112 C -0.6281(5) 0.4737(3) 0.5283(5) 0.047(3) Uiso 1 1 d U . .
C113 C -0.5702(5) 0.4982(3) 0.5624(5) 0.050(3) Uiso 1 1 d U . .
C109 C -0.5634(7) 0.5062(3) 0.4482(6) 0.083(4) Uiso 1 1 d U . .
C111 C -0.6571(6) 0.4650(3) 0.4559(6) 0.081(4) Uiso 1 1 d U . .
C114 C -0.5354(6) 0.5126(3) 0.5225(6) 0.070(3) Uiso 1 1 d U . .
C110 C -0.6298(6) 0.4817(3) 0.4098(6) 0.068(3) Uiso 1 1 d U . .
C118 C -0.3605(6) 0.8111(3) 0.3231(5) 0.050(3) Uiso 1 1 d U . .
C117 C -0.2881(6) 0.7925(3) 0.3494(5) 0.063(3) Uiso 1 1 d U . .
C115 C -0.3547(6) 0.7314(3) 0.3181(5) 0.062(3) Uiso 1 1 d U . .
C119 C -0.4300(7) 0.7941(4) 0.2970(6) 0.091(4) Uiso 1 1 d U . .
C116 C -0.2870(6) 0.7517(3) 0.3486(5) 0.064(3) Uiso 1 1 d U . .
C120 C 0.0763(6) 0.4751(3) 0.5497(5) 0.050(3) Uiso 1 1 d U . .
C125 C 0.0630(6) 0.5141(4) 0.5339(6) 0.071(3) Uiso 1 1 d U . .
C123 C -0.0716(5) 0.5014(3) 0.4672(5) 0.047(3) Uiso 1 1 d U . .
C124 C -0.0130(6) 0.5250(3) 0.4873(5) 0.057(3) Uiso 1 1 d U . .
C121 C 0.0156(7) 0.4480(3) 0.5282(6) 0.082(4) Uiso 1 1 d U . .
C122 C -0.0612(6) 0.4626(3) 0.4870(5) 0.065(3) Uiso 1 1 d U . .
C126 C 0.3372(7) 0.4535(3) 0.5720(6) 0.066(3) Uiso 1 1 d U . .
C130 C 0.1489(6) 0.3452(3) 1.0291(5) 0.061(3) Uiso 1 1 d U . .
C131 C 0.0892(6) 0.3206(3) 1.0039(5) 0.059(3) Uiso 1 1 d U . .
C132 C 0.0982(6) 0.2824(4) 1.0171(6) 0.072(4) Uiso 1 1 d U . .
C133 C 0.1727(6) 0.2639(3) 1.0594(5) 0.066(3) Uiso 1 1 d U . .
C134 C 0.0082(8) 0.3356(4) 0.9518(7) 0.097(4) Uiso 1 1 d U . .
C135 C 0.0109(9) 0.3657(5) 0.9084(8) 0.135(5) Uiso 1 1 d U . .
C136 C 0.7786(8) 0.3962(4) 0.8160(8) 0.095(5) Uiso 1 1 d U . .
C138 C 0.3599(6) 0.3573(3) 0.6758(5) 0.055(3) Uiso 1 1 d U . .
C139 C 0.5921(6) 0.4873(3) 0.7614(5) 0.048(3) Uiso 1 1 d U . .
C140 C 0.1317(6) 0.5822(3) 0.6726(6) 0.062(3) Uiso 1 1 d U . .
C143 C 0.7811(6) 0.7539(3) 1.2119(5) 0.060(3) Uiso 1 1 d U . .
C142 C 0.8123(5) 0.7350(3) 1.1721(5) 0.049(3) Uiso 1 1 d U . .
C141 C 0.8493(5) 0.7530(3) 1.1357(5) 0.053(3) Uiso 1 1 d U . .
C144 C 0.1565(7) 0.4837(4) 0.8013(7) 0.085(4) Uiso 1 1 d U . .
C149 C 0.1779(5) 0.3592(3) 0.8179(5) 0.047(3) Uiso 1 1 d U . .
C147 C 0.1786(6) 0.4228(4) 0.8720(6) 0.072(3) Uiso 1 1 d U . .
C148 C 0.1873(5) 0.3808(3) 0.8803(5) 0.061(3) Uiso 1 1 d U . .
C145 C 0.1587(5) 0.4191(3) 0.7512(6) 0.063(3) Uiso 1 1 d U . .
C146 C 0.1666(5) 0.4385(3) 0.8091(6) 0.057(3) Uiso 1 1 d U . .
C152 C 0.5404(7) 0.3702(4) 1.0063(7) 0.094(4) Uiso 1 1 d U . .
C153 C 0.3814(6) 0.4502(3) 0.7996(5) 0.051(3) Uiso 1 1 d U . .
C154 C 0.0195(9) 0.6219(4) 1.0124(7) 0.113(5) Uiso 1 1 d U . .
C157 C 0.1666(6) 0.3766(4) 0.7546(6) 0.076(4) Uiso 1 1 d U . .
C159 C -0.0526(9) 0.3198(4) 0.9633(8) 0.128(5) Uiso 1 1 d U . .
C160 C -0.4251(8) 0.7516(4) 0.2929(7) 0.104(4) Uiso 1 1 d U . .

loop_
_atom_site_aniso_label
_atom_site_aniso_U_11
_atom_site_aniso_U_22
_atom_site_aniso_U_33
_atom_site_aniso_U_23
_atom_site_aniso_U_13
_atom_site_aniso_U_12
Co1 0.0547(11) 0.0464(12) 0.0484(11) 0.0003(10) 0.0190(9) 0.0037(10)
Co2 0.0485(10) 0.0399(11) 0.0427(10) -0.0018(9) 0.0174(8) 0.0018(9)
Co3 0.0634(12) 0.0528(13) 0.0546(12) 0.0012(10) 0.0257(10) 0.0035(10)
Co4 0.0579(12) 0.0524(13) 0.0584(12) -0.0055(10) 0.0230(10) 0.0012(10)
Co5 0.0576(11) 0.0543(13) 0.0547(12) -0.0013(10) 0.0218(9) 0.0023(10)

_geom_special_details            
;
All esds (except the esd in the dihedral angle between two l.s. p