####################################################################### 
# 
# This file contains crystal structure data downloaded from the 
# Cambridge Structural Database (CSD) hosted by the Cambridge 
# Crystallographic Data Centre (CCDC).
# 
# Full information about CCDC data access policies and citation 
# guidelines are available at http://www.ccdc.cam.ac.uk/access/V1 
# 
# Audit and citation data items may have been added by the CCDC. 
# Please retain this information to preserve the provenance of 
# this file and to allow appropriate attribution of the data. 
# 
#######################################################################

data_1acta
_audit_block_doi                 10.5517/ccy1ygc
_database_code_depnum_ccdc_archive 'CCDC 865813'
loop_
_citation_id
_citation_doi
_citation_year
1 10.1080/00958972.2013.769211 2013
_audit_update_record             
;
2012-02-06 deposited with the CCDC.	2024-07-13 downloaded from the CCDC.
;
#TrackingRef '1acta.cif'


_audit_creation_method           SHELXL-97
_chemical_name_systematic        
;
?
;
_chemical_name_common            ?
_chemical_melting_point          ?
_chemical_formula_moiety         ?
_chemical_formula_sum            'C208 H194 Co6 N28 O51'
_chemical_formula_weight         4255.49

loop_
_atom_type_symbol
_atom_type_description
_atom_type_scat_dispersion_real
_atom_type_scat_dispersion_imag
_atom_type_scat_source
C C 0.0033 0.0016 'International Tables Vol C Tables 4.2.6.8 and 6.1.1.4'
H H 0.0000 0.0000 'International Tables Vol C Tables 4.2.6.8 and 6.1.1.4'
N N 0.0061 0.0033 'International Tables Vol C Tables 4.2.6.8 and 6.1.1.4'
O O 0.0106 0.0060 'International Tables Vol C Tables 4.2.6.8 and 6.1.1.4'
Co Co 0.3494 0.9721 'International Tables Vol C Tables 4.2.6.8 and 6.1.1.4'

_symmetry_cell_setting           Triclinic
_symmetry_space_group_name_H-M   'P -1'
_symmetry_space_group_name_Hall  '-P 1'

loop_
_symmetry_equiv_pos_as_xyz
'x, y, z'
'-x, -y, -z'

_cell_length_a                   13.3231(13)
_cell_length_b                   20.788(2)
_cell_length_c                   22.187(3)
_cell_angle_alpha                113.580(3)
_cell_angle_beta                 105.255(3)
_cell_angle_gamma                97.167(2)
_cell_volume                     5246.3(10)
_cell_formula_units_Z            1
_cell_measurement_temperature    298(2)
_cell_measurement_reflns_used    7824
_cell_measurement_theta_min      2.68
_cell_measurement_theta_max      27.53

_exptl_crystal_description       Block
_exptl_crystal_colour            Red
_exptl_crystal_size_max          0.25
_exptl_crystal_size_mid          0.21
_exptl_crystal_size_min          0.15
_exptl_crystal_density_meas      ?
_exptl_crystal_density_diffrn    1.347
_exptl_crystal_density_method    'not measured'
_exptl_crystal_F_000             2208
_exptl_absorpt_coefficient_mu    0.549
_exptl_absorpt_correction_type   Multi-scan
_exptl_absorpt_correction_T_min  0.8750
_exptl_absorpt_correction_T_max  0.9222
_exptl_absorpt_process_details   'SADABS (Bruker, 2002)'

_diffrn_ambient_temperature      298(2)
_diffrn_radiation_wavelength     0.71073
_diffrn_radiation_type           MoK\a
_diffrn_radiation_source         'fine-focus sealed tube'
_diffrn_radiation_monochromator  graphite
_diffrn_measurement_device_type  'Bruker APEX II area-detector diffractometer'
_diffrn_measurement_method       '\f and \w scans'
_diffrn_detector_area_resol_mean ?
_diffrn_standards_number         ?
_diffrn_standards_interval_count ?
_diffrn_standards_interval_time  ?
_diffrn_standards_decay_%        ?
_diffrn_reflns_number            44214
_diffrn_reflns_av_R_equivalents  0.0322
_diffrn_reflns_av_sigmaI/netI    0.0457
_diffrn_reflns_limit_h_min       -15
_diffrn_reflns_limit_h_max       15
_diffrn_reflns_limit_k_min       -24
_diffrn_reflns_limit_k_max       24
_diffrn_reflns_limit_l_min       -26
_diffrn_reflns_limit_l_max       26
_diffrn_reflns_theta_min         1.62
_diffrn_reflns_theta_max         25.10
_reflns_number_total             18329
_reflns_number_gt                14126
_reflns_threshold_expression     I>2\s(I)

_computing_data_collection       'SMART (Bruker, 2002)'
_computing_cell_refinement       'SAINT (Bruker, 2002)'
_computing_data_reduction        SAINT
_computing_structure_solution    'SHELXS-97 (Sheldrick, 1997)'
_computing_structure_refinement  'SHELXL-97 (Sheldrick, 1997)'
_computing_molecular_graphics    'XP (Bruker, 2002)'
_computing_publication_material  'SHELXL-97 (Bruker, 2002)'

_refine_special_details          
;
Refinement of F^2^ against ALL reflections. The weighted R-factor wR and
goodness of fit S are based on F^2^, conventional R-factors R are based
on F, with F set to zero for negative F^2^. The threshold expression of
F^2^ > 2sigma(F^2^) is used only for calculating R-factors(gt) etc. and is
not relevant to the choice of reflections for refinement. R-factors based
on F^2^ are statistically about twice as large as those based on F, and R-
factors based on ALL data will be even larger.
;

_refine_ls_structure_factor_coef Fsqd
_refine_ls_matrix_type           full
_refine_ls_weighting_scheme      calc
_refine_ls_weighting_details     
'calc w=1/[\s^2^(Fo^2^)+(0.1488P)^2^+1.8469P] where P=(Fo^2^+2Fc^2^)/3'
_atom_sites_solution_primary     direct
_atom_sites_solution_secondary   difmap
_atom_sites_solution_hydrogens   geom
_refine_ls_hydrogen_treatment    constr
_refine_ls_extinction_method     none
_refine_ls_extinction_coef       ?
_refine_ls_number_reflns         18329
_refine_ls_number_parameters     1380
_refine_ls_number_restraints     85
_refine_ls_R_factor_all          0.0856
_refine_ls_R_factor_gt           0.0673
_refine_ls_wR_factor_ref         0.2126
_refine_ls_wR_factor_gt          0.1960
_refine_ls_goodness_of_fit_ref   1.048
_refine_ls_restrained_S_all      2.063
_refine_ls_shift/su_max          0.001
_refine_ls_shift/su_mean         0.001

loop_
_atom_site_label
_atom_site_type_symbol
_atom_site_fract_x
_atom_site_fract_y
_atom_site_fract_z
_atom_site_U_iso_or_equiv
_atom_site_adp_type
_atom_site_occupancy
_atom_site_symmetry_multiplicity
_atom_site_calc_flag
_atom_site_refinement_flags
_atom_site_disorder_assembly
_atom_site_disorder_group
O28 O 0.515(6) 0.988(4) 0.050(4) 0.19(3) Uani 0.25 1 d PU . .
H28C H 0.4629 0.9731 0.0602 0.292 Uiso 0.25 1 d PR . .
H28B H 0.5408 0.9534 0.0306 0.292 Uiso 0.25 1 d PR . .
Co1 Co 1.20008(8) 0.69341(5) 0.60170(5) 0.0281(3) Uani 1 1 d . . .
Co2 Co 1.07918(8) 0.64700(5) 0.07909(5) 0.0292(3) Uani 1 1 d . . .
Co3 Co 0.58040(8) 1.01654(5) 0.25767(5) 0.0308(3) Uani 1 1 d . . .
O1 O 1.2620(5) 0.7050(3) 0.6992(3) 0.0383(13) Uani 1 1 d . . .
O2 O 1.2871(5) 0.6046(3) 0.6280(3) 0.0419(14) Uani 1 1 d . . .
O3 O 1.5050(5) 0.6146(4) 0.9255(3) 0.0499(16) Uani 1 1 d . . .
O4 O 1.7157(5) 0.3575(3) 0.9287(3) 0.0391(13) Uani 1 1 d . . .
O5 O 1.8397(4) 0.4242(3) 0.9124(3) 0.0385(13) Uani 1 1 d . . .
O6 O 1.1439(5) 0.7793(3) 0.6130(3) 0.0391(13) Uani 1 1 d . . .
O7 O 1.0092(5) 0.7324(3) 0.6367(3) 0.0422(14) Uani 1 1 d . . .
O8 O 0.8890(5) 1.0168(3) 0.6270(3) 0.0393(13) Uani 1 1 d . . .
O9 O 0.6898(5) 0.9476(3) 0.3066(3) 0.0420(14) Uani 1 1 d . . .
O10 O 0.6337(5) 1.0435(3) 0.3590(3) 0.0377(13) Uani 1 1 d . . .
O11 O 0.9674(5) 0.7119(3) 0.0371(3) 0.0407(14) Uani 1 1 d . . .
O12 O 1.0328(4) 0.6258(3) -0.0222(3) 0.0356(12) Uani 1 1 d . . .
O13 O 0.7354(6) 0.6639(4) -0.2726(3) 0.0512(17) Uani 1 1 d . . .
O14 O 0.6322(7) 0.9560(4) -0.2675(4) 0.063(2) Uani 1 1 d . . .
O15 O 0.4880(5) 0.9055(3) -0.2544(3) 0.0487(16) Uani 1 1 d . . .
O16 O 0.3286(6) 0.2478(5) 0.5096(4) 0.071(2) Uani 1 1 d . . .
O17 O 0.2578(8) 0.3415(5) 0.5439(4) 0.076(2) Uani 1 1 d . . .
H17 H 0.2361 0.3303 0.5020 0.114 Uiso 1 1 calc R . .
O18 O 0.3766(6) 0.3127(4) 0.8224(4) 0.0619(19) Uani 1 1 d . . .
O19 O 0.1356(11) 0.1310(5) 0.9387(5) 0.113(4) Uani 1 1 d . . .
O20 O 0.0224(10) 0.0872(5) 0.8289(6) 0.096(3) Uani 1 1 d . . .
H20 H -0.0225 0.1105 0.8263 0.144 Uiso 1 1 calc R . .
N1 N 1.3248(5) 0.7187(3) 0.5719(3) 0.0326(14) Uani 1 1 d . . .
N2 N 1.4500(5) 0.7847(4) 0.5587(3) 0.0324(14) Uani 1 1 d . . .
N3 N 1.2862(6) 0.8367(4) 0.2512(3) 0.0390(16) Uani 1 1 d . . .
N4 N 1.1586(6) 0.7434(4) 0.1638(3) 0.0364(15) Uani 1 1 d . . .
N5 N 1.0887(5) 0.6097(3) 0.5174(3) 0.0327(14) Uani 1 1 d . . .
N6 N 1.0180(5) 0.5083(3) 0.4199(3) 0.0344(15) Uani 1 1 d . . .
N7 N 0.8344(5) 0.5166(4) 0.0942(3) 0.0316(14) Uani 1 1 d . . .
N8 N 0.9488(5) 0.6004(3) 0.0917(3) 0.0312(14) Uani 1 1 d . . .
N9 N 0.3032(6) 0.9574(4) -0.2224(4) 0.0417(17) Uani 1 1 d . . .
N10 N 0.1903(7) 0.8908(5) -0.2016(4) 0.055(2) Uani 1 1 d . . .
N11 N 0.4846(5) 0.9187(3) 0.1853(3) 0.0329(14) Uani 1 1 d . . .
N12 N 0.3421(6) 0.8329(4) 0.1042(3) 0.0375(16) Uani 1 1 d . . .
C1 C 1.2982(6) 0.6501(4) 0.6889(4) 0.0326(17) Uani 1 1 d . . .
C2 C 1.3574(6) 0.6399(4) 0.7504(4) 0.0329(17) Uani 1 1 d . . .
C3 C 1.3785(7) 0.5748(5) 0.7420(4) 0.0386(19) Uani 1 1 d . . .
H3A H 1.3584 0.5368 0.6971 0.046 Uiso 1 1 calc R . .
C4 C 1.4299(7) 0.5645(5) 0.7996(5) 0.042(2) Uani 1 1 d . . .
H4 H 1.4441 0.5201 0.7936 0.050 Uiso 1 1 calc R . .
C5 C 1.4590(6) 0.6212(5) 0.8651(4) 0.0362(18) Uani 1 1 d . . .
C6 C 1.4408(8) 0.6879(6) 0.8745(5) 0.051(2) Uani 1 1 d . . .
H6 H 1.4628 0.7263 0.9193 0.061 Uiso 1 1 calc R . .
C7 C 1.3905(8) 0.6971(5) 0.8180(5) 0.047(2) Uani 1 1 d . . .
H7 H 1.3779 0.7420 0.8243 0.056 Uiso 1 1 calc R . .
C8 C 1.5636(7) 0.5633(5) 0.9213(4) 0.0371(19) Uani 1 1 d . . .
C9 C 1.6633(7) 0.5744(5) 0.9136(5) 0.047(2) Uani 1 1 d . . .
H9 H 1.6894 0.6147 0.9083 0.057 Uiso 1 1 calc R . .
C10 C 1.7225(6) 0.5255(5) 0.9139(5) 0.0397(19) Uani 1 1 d . . .
H10 H 1.7900 0.5333 0.9096 0.048 Uiso 1 1 calc R . .
C11 C 1.6844(6) 0.4642(4) 0.9207(4) 0.0285(16) Uani 1 1 d . . .
C12 C 1.5849(6) 0.4545(5) 0.9281(5) 0.041(2) Uani 1 1 d . . .
H12 H 1.5579 0.4139 0.9327 0.050 Uiso 1 1 calc R . .
C13 C 1.5246(7) 0.5044(5) 0.9289(5) 0.046(2) Uani 1 1 d . . .
H13 H 1.4580 0.4976 0.9346 0.055 Uiso 1 1 calc R . .
C14 C 1.7491(6) 0.4109(4) 0.9206(4) 0.0310(17) Uani 1 1 d . . .
C15 C 1.0566(6) 0.7803(4) 0.6268(4) 0.0324(17) Uani 1 1 d . . .
C16 C 1.0139(6) 0.8444(4) 0.6308(4) 0.0317(17) Uani 1 1 d . . .
C17 C 1.0772(7) 0.9039(5) 0.6316(5) 0.0394(19) Uani 1 1 d . . .
H17A H 1.1473 0.9045 0.6321 0.047 Uiso 1 1 calc R . .
C18 C 1.0362(7) 0.9617(5) 0.6317(5) 0.0400(19) Uani 1 1 d . . .
H18 H 1.0782 1.0013 0.6321 0.048 Uiso 1 1 calc R . .
C19 C 0.9319(7) 0.9602(4) 0.6311(4) 0.0346(18) Uani 1 1 d . . .
C20 C 0.8701(7) 0.9038(5) 0.6328(5) 0.043(2) Uani 1 1 d . . .
H20A H 0.8007 0.9043 0.6336 0.052 Uiso 1 1 calc R . .
C21 C 0.9109(7) 0.8460(5) 0.6333(5) 0.041(2) Uani 1 1 d . . .
H21 H 0.8693 0.8081 0.6354 0.050 Uiso 1 1 calc R . .
C22 C 0.8421(6) 1.0096(4) 0.5609(4) 0.0304(16) Uani 1 1 d . . .
C23 C 0.8359(7) 0.9497(5) 0.5000(4) 0.0402(19) Uani 1 1 d . . .
H23 H 0.8647 0.9120 0.5026 0.048 Uiso 1 1 calc R . .
C24 C 0.7865(7) 0.9476(4) 0.4363(4) 0.0355(18) Uani 1 1 d . . .
H24 H 0.7821 0.9077 0.3957 0.043 Uiso 1 1 calc R . .
C25 C 0.7435(6) 1.0025(4) 0.4310(4) 0.0293(16) Uani 1 1 d . . .
C26 C 0.7497(6) 1.0615(4) 0.4922(4) 0.0315(17) Uani 1 1 d . . .
H26 H 0.7198 1.0988 0.4895 0.038 Uiso 1 1 calc R . .
C27 C 0.7996(6) 1.0652(4) 0.5567(4) 0.0326(17) Uani 1 1 d . . .
H27 H 0.8045 1.1053 0.5973 0.039 Uiso 1 1 calc R . .
C28 C 0.6860(6) 0.9963(4) 0.3612(4) 0.0305(16) Uani 1 1 d . . .
C29 C 1.3628(6) 0.7833(4) 0.5774(4) 0.0307(16) Uani 1 1 d . . .
H29 H 1.3329 0.8225 0.5922 0.037 Uiso 1 1 calc R . .
C30 C 1.3911(7) 0.6772(5) 0.5475(5) 0.043(2) Uani 1 1 d . . .
H30 H 1.3836 0.6287 0.5382 0.052 Uiso 1 1 calc R . .
C31 C 1.4679(7) 0.7172(5) 0.5391(5) 0.043(2) Uani 1 1 d . . .
H31 H 1.5227 0.7020 0.5231 0.052 Uiso 1 1 calc R . .
C32 C 1.5137(7) 0.8468(5) 0.5578(4) 0.0380(19) Uani 1 1 d . . .
H32A H 1.5881 0.8444 0.5682 0.046 Uiso 1 1 calc R . .
H32B H 1.5112 0.8911 0.5949 0.046 Uiso 1 1 calc R . .
C33 C 1.4773(6) 0.8514(4) 0.4899(4) 0.0306(16) Uani 1 1 d . . .
C34 C 1.5319(6) 0.9099(4) 0.4862(4) 0.0372(18) Uani 1 1 d . . .
H34 H 1.5900 0.9441 0.5248 0.045 Uiso 1 1 calc R . .
C35 C 1.5015(7) 0.9184(5) 0.4257(4) 0.0379(18) Uani 1 1 d . . .
H35 H 1.5389 0.9584 0.4243 0.046 Uiso 1 1 calc R . .
C36 C 1.4167(7) 0.8683(4) 0.3679(4) 0.0333(17) Uani 1 1 d . . .
C37 C 1.3609(7) 0.8103(4) 0.3716(4) 0.0366(18) Uani 1 1 d . . .
H37 H 1.3024 0.7766 0.3329 0.044 Uiso 1 1 calc R . .
C38 C 1.3904(6) 0.8016(4) 0.4319(4) 0.0343(17) Uani 1 1 d . . .
H38 H 1.3518 0.7622 0.4335 0.041 Uiso 1 1 calc R . .
C39 C 1.3911(7) 0.8795(5) 0.3030(4) 0.041(2) Uani 1 1 d . . .
H39A H 1.3949 0.9306 0.3166 0.049 Uiso 1 1 calc R . .
H39B H 1.4456 0.8676 0.2819 0.049 Uiso 1 1 calc R . .
C40 C 1.2623(7) 0.7681(4) 0.2003(4) 0.0352(18) Uani 1 1 d . . .
H40 H 1.3128 0.7416 0.1920 0.042 Uiso 1 1 calc R . .
C41 C 1.1903(8) 0.8560(5) 0.2466(5) 0.049(2) Uani 1 1 d . . .
H41 H 1.1805 0.9000 0.2752 0.058 Uiso 1 1 calc R . .
C42 C 1.1140(8) 0.7989(5) 0.1931(5) 0.046(2) Uani 1 1 d . . .
H42 H 1.0412 0.7971 0.1779 0.055 Uiso 1 1 calc R . .
C43 C 1.1084(7) 0.5556(4) 0.4689(4) 0.0346(17) Uani 1 1 d . . .
H43 H 1.1771 0.5513 0.4690 0.042 Uiso 1 1 calc R . .
C44 C 0.9782(6) 0.5955(4) 0.4966(4) 0.0362(18) Uani 1 1 d . . .
H44 H 0.9399 0.6246 0.5201 0.043 Uiso 1 1 calc R . .
C45 C 0.9342(7) 0.5329(5) 0.4370(4) 0.0396(19) Uani 1 1 d . . .
H45 H 0.8611 0.5109 0.4123 0.047 Uiso 1 1 calc R . .
C46 C 1.0092(8) 0.4429(4) 0.3575(4) 0.0400(19) Uani 1 1 d . . .
H46A H 0.9697 0.4006 0.3579 0.048 Uiso 1 1 calc R . .
H46B H 1.0807 0.4372 0.3587 0.048 Uiso 1 1 calc R . .
C47 C 0.9527(7) 0.4467(4) 0.2913(4) 0.0337(17) Uani 1 1 d . . .
C48 C 0.9632(7) 0.5121(4) 0.2873(4) 0.041(2) Uani 1 1 d . . .
H48 H 1.0045 0.5551 0.3268 0.049 Uiso 1 1 calc R . .
C49 C 0.9130(7) 0.5138(4) 0.2254(4) 0.0392(19) Uani 1 1 d . . .
H49 H 0.9211 0.5579 0.2233 0.047 Uiso 1 1 calc R . .
C50 C 0.8510(6) 0.4509(4) 0.1665(4) 0.0305(16) Uani 1 1 d . . .
C51 C 0.8407(7) 0.3861(4) 0.1699(4) 0.0353(18) Uani 1 1 d . . .
H51 H 0.7997 0.3432 0.1303 0.042 Uiso 1 1 calc R . .
C52 C 0.8915(7) 0.3841(4) 0.2325(4) 0.0377(19) Uani 1 1 d . . .
H52 H 0.8836 0.3400 0.2344 0.045 Uiso 1 1 calc R . .
C53 C 0.7941(7) 0.4508(4) 0.0979(4) 0.0365(18) Uani 1 1 d . . .
H53A H 0.8018 0.4097 0.0601 0.044 Uiso 1 1 calc R . .
H53B H 0.7179 0.4444 0.0910 0.044 Uiso 1 1 calc R . .
C54 C 0.9300(6) 0.5352(4) 0.0871(4) 0.0310(16) Uani 1 1 d . . .
H54 H 0.9765 0.5053 0.0799 0.037 Uiso 1 1 calc R . .
C55 C 0.7915(7) 0.5749(5) 0.1050(4) 0.0387(19) Uani 1 1 d . . .
H55 H 0.7266 0.5786 0.1125 0.046 Uiso 1 1 calc R . .
C56 C 0.8616(7) 0.6264(5) 0.1027(5) 0.0389(19) Uani 1 1 d . . .
H56 H 0.8524 0.6717 0.1078 0.047 Uiso 1 1 calc R . .
C57 C 0.9705(6) 0.6687(4) -0.0198(4) 0.0314(17) Uani 1 1 d . . .
C58 C 0.9056(6) 0.6662(4) -0.0861(4) 0.0295(16) Uani 1 1 d . . .
C59 C 0.9044(6) 0.6154(4) -0.1504(4) 0.0326(17) Uani 1 1 d . . .
H59 H 0.9441 0.5813 -0.1520 0.039 Uiso 1 1 calc R . .
C60 C 0.8455(7) 0.6148(5) -0.2115(4) 0.0384(19) Uani 1 1 d . . .
H60 H 0.8434 0.5795 -0.2544 0.046 Uiso 1 1 calc R . .
C61 C 0.7892(7) 0.6670(4) -0.2091(4) 0.0345(17) Uani 1 1 d . . .
C62 C 0.7890(7) 0.7178(4) -0.1459(4) 0.0353(18) Uani 1 1 d . . .
H62 H 0.7501 0.7522 -0.1445 0.042 Uiso 1 1 calc R . .
C63 C 0.8466(7) 0.7173(4) -0.0850(4) 0.0346(17) Uani 1 1 d . . .
H63 H 0.8462 0.7515 -0.0424 0.042 Uiso 1 1 calc R . .
C64 C 0.6961(7) 0.7235(5) -0.2709(4) 0.0390(19) Uani 1 1 d . . .
C65 C 0.7615(7) 0.7816(6) -0.2675(5) 0.050(2) Uani 1 1 d . . .
H65 H 0.8317 0.7814 -0.2663 0.061 Uiso 1 1 calc R . .
C66 C 0.7237(7) 0.8404(5) -0.2660(5) 0.046(2) Uani 1 1 d . . .
H66 H 0.7682 0.8800 -0.2639 0.055 Uiso 1 1 calc R . .
C67 C 0.6188(7) 0.8408(4) -0.2677(4) 0.0353(18) Uani 1 1 d . . .
C68 C 0.5529(7) 0.7806(4) -0.2730(5) 0.0398(19) Uani 1 1 d . . .
H68 H 0.4820 0.7799 -0.2754 0.048 Uiso 1 1 calc R . .
C69 C 0.5916(7) 0.7208(5) -0.2748(5) 0.044(2) Uani 1 1 d . . .
H69 H 0.5472 0.6800 -0.2787 0.052 Uiso 1 1 calc R . .
C70 C 0.5782(8) 0.9059(5) -0.2634(4) 0.041(2) Uani 1 1 d . . .
C71 C 0.5135(7) 0.8539(4) 0.1588(4) 0.0404(19) Uani 1 1 d . . .
H71 H 0.5824 0.8478 0.1725 0.048 Uiso 1 1 calc R . .
C72 C 0.4250(8) 0.8012(5) 0.1095(5) 0.044(2) Uani 1 1 d . . .
H72 H 0.4216 0.7525 0.0841 0.052 Uiso 1 1 calc R . .
C73 C 0.3806(7) 0.9031(4) 0.1505(4) 0.0341(17) Uani 1 1 d . . .
H73 H 0.3395 0.9367 0.1573 0.041 Uiso 1 1 calc R . .
C74 C 0.2321(7) 0.7989(5) 0.0557(4) 0.044(2) Uani 1 1 d . . .
H74A H 0.1831 0.8167 0.0800 0.052 Uiso 1 1 calc R . .
H74B H 0.2173 0.7468 0.0399 0.052 Uiso 1 1 calc R . .
C75 C 0.2112(7) 0.8136(4) -0.0068(4) 0.0386(19) Uani 1 1 d . . .
C76 C 0.2900(9) 0.8286(6) -0.0329(5) 0.057(3) Uani 1 1 d . . .
H76 H 0.3615 0.8340 -0.0089 0.068 Uiso 1 1 calc R . .
C77 C 0.2643(9) 0.8356(6) -0.0938(5) 0.057(3) Uani 1 1 d . . .
H77 H 0.3186 0.8457 -0.1103 0.068 Uiso 1 1 calc R . .
C78 C 0.1599(9) 0.8280(5) -0.1303(5) 0.054(3) Uani 1 1 d . . .
C79 C 0.0824(10) 0.8161(10) -0.1029(8) 0.118(7) Uani 1 1 d . . .
H79 H 0.0111 0.8125 -0.1260 0.142 Uiso 1 1 calc R . .
C80 C 0.1084(9) 0.8095(9) -0.0425(7) 0.095(5) Uani 1 1 d . . .
H80 H 0.0542 0.8019 -0.0250 0.114 Uiso 1 1 calc R . .
C81 C 0.1301(11) 0.8270(7) -0.2019(6) 0.079(4) Uani 1 1 d . . .
H81A H 0.1429 0.7838 -0.2346 0.095 Uiso 1 1 calc R . .
H81B H 0.0537 0.8237 -0.2186 0.095 Uiso 1 1 calc R . .
C82 C 0.2694(8) 0.8934(5) -0.2264(4) 0.044(2) Uani 1 1 d . . .
H82 H 0.2980 0.8543 -0.2446 0.053 Uiso 1 1 calc R . .
C83 C 0.1683(11) 0.9558(8) -0.1833(8) 0.082(4) Uani 1 1 d . . .
H83 H 0.1148 0.9699 -0.1652 0.098 Uiso 1 1 calc R . .
C84 C 0.2376(10) 0.9965(6) -0.1960(7) 0.069(3) Uani 1 1 d . . .
H84 H 0.2404 1.0443 -0.1879 0.082 Uiso 1 1 calc R . .
C85 C 0.3040(8) 0.2927(6) 0.5541(6) 0.053(2) Uani 1 1 d . . .
C86 C 0.3238(7) 0.2980(5) 0.6250(5) 0.046(2) Uani 1 1 d . . .
C87 C 0.3711(8) 0.2508(6) 0.6424(5) 0.054(2) Uani 1 1 d . . .
H87 H 0.3928 0.2161 0.6101 0.065 Uiso 1 1 calc R . .
C88 C 0.3876(9) 0.2534(6) 0.7079(