####################################################################### 
# 
# This file contains crystal structure data downloaded from the 
# Cambridge Structural Database (CSD) hosted by the Cambridge 
# Crystallographic Data Centre (CCDC).
# 
# Full information about CCDC data access policies and citation 
# guidelines are available at http://www.ccdc.cam.ac.uk/access/V1 
# 
# Audit and citation data items may have been added by the CCDC. 
# Please retain this information to preserve the provenance of 
# this file and to allow appropriate attribution of the data. 
# 
#######################################################################

data_1a
_audit_block_doi                 10.5517/ccy1rd3
_database_code_depnum_ccdc_archive 'CCDC 865625'
_audit_update_record             
;
2012-02-04 deposited with the CCDC.	2024-07-13 downloaded from the CCDC.
;
#TrackingRef '2010-0846(865625).cif'


_audit_creation_method           SHELXL-97
_chemical_name_systematic        
;
?
;
_chemical_name_common            ?
_chemical_melting_point          ?
_chemical_formula_moiety         'C26 H27 Cd N5 O8'
_chemical_formula_sum            'C26 H27 Cd N5 O8'
_chemical_formula_weight         649.93

loop_
_atom_type_symbol
_atom_type_description
_atom_type_scat_dispersion_real
_atom_type_scat_dispersion_imag
_atom_type_scat_source
C C 0.0033 0.0016 'International Tables Vol C Tables 4.2.6.8 and 6.1.1.4'
H H 0.0000 0.0000 'International Tables Vol C Tables 4.2.6.8 and 6.1.1.4'
N N 0.0061 0.0033 'International Tables Vol C Tables 4.2.6.8 and 6.1.1.4'
O O 0.0106 0.0060 'International Tables Vol C Tables 4.2.6.8 and 6.1.1.4'
Cd Cd -0.8075 1.2024 'International Tables Vol C Tables 4.2.6.8 and 6.1.1.4'

_symmetry_cell_setting           Orthorhombic
_symmetry_space_group_name_H-M   'Ccca '
_symmetry_space_group_name_Hall  '-c2b2bc '

loop_
_symmetry_equiv_pos_as_xyz
'x, y, z'
'-x+1/2, -y, z'
'-x, y, -z+1/2'
'x+1/2, -y, -z+1/2'
'x+1/2, y+1/2, z'
'-x+1, -y+1/2, z'
'-x+1/2, y+1/2, -z+1/2'
'x+1, -y+1/2, -z+1/2'
'-x, -y, -z'
'x-1/2, y, -z'
'x, -y, z-1/2'
'-x-1/2, y, z-1/2'
'-x+1/2, -y+1/2, -z'
'x, y+1/2, -z'
'x+1/2, -y+1/2, z-1/2'
'-x, y+1/2, z-1/2'

_cell_length_a                   17.125(2)
_cell_length_b                   40.751(3)
_cell_length_c                   24.938(2)
_cell_angle_alpha                90.00
_cell_angle_beta                 90.00
_cell_angle_gamma                90.00
_cell_volume                     17403(3)
_cell_formula_units_Z            16
_cell_measurement_temperature    291(2)
_cell_measurement_reflns_used    5026
_cell_measurement_theta_min      2.4
_cell_measurement_theta_max      25.2

_exptl_crystal_description       stick
_exptl_crystal_colour            colorless
_exptl_crystal_size_max          0.30
_exptl_crystal_size_mid          0.22
_exptl_crystal_size_min          0.20
_exptl_crystal_density_meas      ?
_exptl_crystal_density_diffrn    0.992
_exptl_crystal_density_method    'not measured'
_exptl_crystal_F_000             5280
_exptl_absorpt_coefficient_mu    0.538
_exptl_absorpt_correction_type   multi-scan
_exptl_absorpt_correction_T_min  0.8552
_exptl_absorpt_correction_T_max  0.9000
_exptl_absorpt_process_details   'SADABS; Bruker, 2000'

_exptl_special_details           
;
The final structural model was refined without the guest molecules by using
the SQUEEZE option of PLATON. The identity and number of the guest
molecules were determined from the IR spectra, elemental analyses, and TGA data.
;

_diffrn_ambient_temperature      291(2)
_diffrn_radiation_wavelength     0.71073
_diffrn_radiation_type           MoK\a
_diffrn_radiation_source         'fine-focus sealed tube'
_diffrn_radiation_monochromator  graphite
_diffrn_measurement_device_type  'fine-focus sealed tube'
_diffrn_measurement_method       graphite
_diffrn_detector_area_resol_mean 'Bruker Smart Apex CCD'
_diffrn_standards_number         'phi and omega scans'
_diffrn_standards_interval_count ?
_diffrn_standards_interval_time  ?
_diffrn_standards_decay_%        ?
_diffrn_reflns_number            45569
_diffrn_reflns_av_R_equivalents  0.0558
_diffrn_reflns_av_sigmaI/netI    0.0399
_diffrn_reflns_limit_h_min       -15
_diffrn_reflns_limit_h_max       21
_diffrn_reflns_limit_k_min       -48
_diffrn_reflns_limit_k_max       50
_diffrn_reflns_limit_l_min       -30
_diffrn_reflns_limit_l_max       30
_diffrn_reflns_theta_min         1.91
_diffrn_reflns_theta_max         26.00
_reflns_number_total             8564
_reflns_number_gt                6627
_reflns_threshold_expression     >2sigma(I)

_computing_data_collection       'SMART (Bruker, 2000)'
_computing_cell_refinement       SMART
_computing_data_reduction        'SAINT (Bruker, 2000)'
_computing_structure_solution    'SHELXS-97 (Sheldrick, 1990)'
_computing_structure_refinement  'SHELXL-97 (Sheldrick, 1997)'
_computing_molecular_graphics    SHELXTL
_computing_publication_material  SHELXTL

_refine_special_details          
;
Refinement of F^2^ against ALL reflections. The weighted R-factor wR and
goodness of fit S are based on F^2^, conventional R-factors R are based
on F, with F set to zero for negative F^2^. The threshold expression of
F^2^ > 2sigma(F^2^) is used only for calculating R-factors(gt) etc. and is
not relevant to the choice of reflections for refinement. R-factors based
on F^2^ are statistically about twice as large as those based on F, and R-
factors based on ALL data will be even larger.
;

_refine_ls_structure_factor_coef Fsqd
_refine_ls_matrix_type           full
_refine_ls_weighting_scheme      calc
_refine_ls_weighting_details     
'calc w=1/[\s^2^(Fo^2^)+(0.0900P)^2^+1.9900P] where P=(Fo^2^+2Fc^2^)/3'
_atom_sites_solution_primary     direct
_atom_sites_solution_secondary   difmap
_atom_sites_solution_hydrogens   geom
_refine_ls_hydrogen_treatment    constr
_refine_ls_extinction_method     none
_refine_ls_extinction_coef       ?
_refine_ls_number_reflns         8564
_refine_ls_number_parameters     363
_refine_ls_number_restraints     0
_refine_ls_R_factor_all          0.0671
_refine_ls_R_factor_gt           0.0533
_refine_ls_wR_factor_ref         0.1499
_refine_ls_wR_factor_gt          0.1449
_refine_ls_goodness_of_fit_ref   1.080
_refine_ls_restrained_S_all      1.080
_refine_ls_shift/su_max          0.000
_refine_ls_shift/su_mean         0.000

loop_
_atom_site_label
_atom_site_type_symbol
_atom_site_fract_x
_atom_site_fract_y
_atom_site_fract_z
_atom_site_U_iso_or_equiv
_atom_site_adp_type
_atom_site_occupancy
_atom_site_symmetry_multiplicity
_atom_site_calc_flag
_atom_site_refinement_flags
_atom_site_disorder_assembly
_atom_site_disorder_group
C1 C 0.2077(2) 0.06110(8) 0.48394(14) 0.0441(8) Uani 1 1 d . . .
H1 H 0.1633 0.0614 0.5055 0.053 Uiso 1 1 calc R . .
C2 C 0.2135(2) 0.08419(9) 0.44309(14) 0.0448(8) Uani 1 1 d . . .
H2 H 0.1744 0.0998 0.4383 0.054 Uiso 1 1 calc R . .
C3 C 0.2763(2) 0.08380(9) 0.41036(15) 0.0444(8) Uani 1 1 d . . .
C4 C 0.3323(2) 0.06089(9) 0.42106(16) 0.0463(9) Uani 1 1 d . . .
H4 H 0.3772 0.0599 0.4002 0.056 Uiso 1 1 calc R . .
C5 C 0.3222(2) 0.03928(9) 0.46272(14) 0.0413(8) Uani 1 1 d . . .
H5 H 0.3613 0.0239 0.4691 0.050 Uiso 1 1 calc R . .
C6 C 0.2262(2) 0.12659(9) 0.35441(15) 0.0436(8) Uani 1 1 d . . .
H6A H 0.2108 0.1393 0.3855 0.052 Uiso 1 1 calc R . .
H6B H 0.1809 0.1150 0.3409 0.052 Uiso 1 1 calc R . .
C7 C 0.25963(19) 0.14872(8) 0.31155(13) 0.0389(7) Uani 1 1 d . . .
C8 C 0.3266(2) 0.16916(9) 0.33364(14) 0.0434(8) Uani 1 1 d . . .
H8A H 0.3687 0.1551 0.3460 0.052 Uiso 1 1 calc R . .
H8B H 0.3468 0.1838 0.3063 0.052 Uiso 1 1 calc R . .
C9 C 0.3428(2) 0.19909(9) 0.41584(15) 0.0443(8) Uani 1 1 d . . .
C10 C 0.4224(2) 0.19914(9) 0.41355(16) 0.0465(8) Uani 1 1 d . . .
H10 H 0.4483 0.1908 0.3837 0.056 Uiso 1 1 calc R . .
C11 C 0.4636(2) 0.21171(9) 0.45622(15) 0.0449(8) Uani 1 1 d . . .
H11 H 0.5179 0.2119 0.4543 0.054 Uiso 1 1 calc R . .
C12 C 0.3525(2) 0.22296(8) 0.50193(15) 0.0437(8) Uani 1 1 d . . .
H12 H 0.3279 0.2307 0.5327 0.052 Uiso 1 1 calc R . .
C13 C 0.3059(2) 0.21143(8) 0.46034(15) 0.0431(8) Uani 1 1 d . . .
H13 H 0.2517 0.2120 0.4626 0.052 Uiso 1 1 calc R . .
C14 C 0.2955(2) 0.12829(9) 0.26441(14) 0.0423(8) Uani 1 1 d . . .
H14A H 0.3161 0.1424 0.2365 0.051 Uiso 1 1 calc R . .
H14B H 0.3366 0.1138 0.2770 0.051 Uiso 1 1 calc R . .
C15 C 0.2403(2) 0.08732(9) 0.20658(15) 0.0419(8) Uani 1 1 d . . .
C16 C 0.3071(2) 0.07962(9) 0.18490(15) 0.0456(8) Uani 1 1 d . . .
H16 H 0.3529 0.0895 0.1968 0.055 Uiso 1 1 calc R . .
C17 C 0.3094(2) 0.05623(9) 0.14329(15) 0.0441(8) Uani 1 1 d . . .
H17 H 0.3570 0.0521 0.1267 0.053 Uiso 1 1 calc R . .
C18 C 0.1851(2) 0.04664(9) 0.15010(15) 0.0483(9) Uani 1 1 d . . .
H18 H 0.1406 0.0352 0.1396 0.058 Uiso 1 1 calc R . .
C19 C 0.1767(2) 0.07007(9) 0.19116(15) 0.0451(8) Uani 1 1 d . . .
H19 H 0.1285 0.0736 0.2073 0.054 Uiso 1 1 calc R . .
C20 C 0.1938(2) 0.16981(9) 0.29214(15) 0.0422(8) Uani 1 1 d . . .
H20A H 0.1544 0.1563 0.2750 0.051 Uiso 1 1 calc R . .
H20B H 0.1698 0.1810 0.3222 0.051 Uiso 1 1 calc R . .
C21 C 0.17460(19) 0.20651(8) 0.21815(13) 0.0396(7) Uani 1 1 d . . .
C22 C 0.0981(2) 0.19846(10) 0.21303(16) 0.0482(9) Uani 1 1 d . . .
H22 H 0.0752 0.1834 0.2363 0.058 Uiso 1 1 calc R . .
C23 C 0.0548(2) 0.21285(9) 0.17304(15) 0.0439(8) Uani 1 1 d . . .
H23 H 0.0022 0.2074 0.1707 0.053 Uiso 1 1 calc R . .
C24 C 0.1561(2) 0.24356(9) 0.14550(14) 0.0409(7) Uani 1 1 d . . .
H24 H 0.1765 0.2598 0.1233 0.049 Uiso 1 1 calc R . .
C25 C 0.2027(2) 0.23051(9) 0.18487(14) 0.0456(8) Uani 1 1 d . . .
H25 H 0.2537 0.2380 0.1890 0.055 Uiso 1 1 calc R . .
C26 C 0.4446(2) 0.02211(9) 0.55671(15) 0.0487(9) Uani 1 1 d . . .
H26A H 0.4774 0.0188 0.5260 0.073 Uiso 1 1 calc R . .
H26C H 0.4762 0.0232 0.5884 0.073 Uiso 1 1 calc R . .
H26B H 0.4161 0.0422 0.5526 0.073 Uiso 1 1 calc R . .
Cd1 Cd 0.0000 0.2500 0.067738(13) 0.04168(13) Uani 1 2 d S . .
Cd2 Cd 0.2500 0.0000 0.560708(14) 0.03871(12) Uani 1 2 d S . .
N1 N 0.26133(17) 0.03901(7) 0.49365(13) 0.0445(7) Uani 1 1 d . . .
N2 N 0.42910(17) 0.22368(7) 0.50050(12) 0.0417(7) Uani 1 1 d . . .
N3 N 0.08271(17) 0.23377(7) 0.13790(11) 0.0409(6) Uani 1 1 d . . .
N4 N 0.24741(17) 0.03997(7) 0.12671(12) 0.0451(7) Uani 1 1 d . . .
N5 N -0.09365(19) 0.18245(8) 0.05952(12) 0.0434(7) Uani 1 1 d . . .
O1 O 0.28773(14) 0.10362(6) 0.36851(10) 0.0457(6) Uani 1 1 d . . .
O2 O 0.29445(14) 0.18742(6) 0.37729(10) 0.0440(6) Uani 1 1 d . . .
O3 O 0.22589(16) 0.10928(6) 0.24520(11) 0.0504(7) Uani 1 1 d . . .
O4 O 0.22420(15) 0.19377(6) 0.25393(10) 0.0447(6) Uani 1 1 d . . .
O5 O 0.38999(15) -0.00511(6) 0.56141(10) 0.0463(6) Uani 1 1 d . . .
O6 O -0.05204(15) 0.17851(6) 0.09135(11) 0.0486(6) Uani 1 1 d . . .
O7 O -0.12531(16) 0.15886(6) 0.04365(11) 0.0494(6) Uani 1 1 d . . .
O8 O -0.10092(14) 0.20992(6) 0.04693(10) 0.0449(6) Uani 1 1 d . . .

loop_
_atom_site_aniso_label
_atom_site_aniso_U_11
_atom_site_aniso_U_22
_atom_site_aniso_U_33
_atom_site_aniso_U_23
_atom_site_aniso_U_13
_atom_site_aniso_U_12
C1 0.051(2) 0.0399(18) 0.042(2) 0.0137(14) 0.0133(16) 0.0118(15)
C2 0.047(2) 0.0464(19) 0.041(2) 0.0146(15) 0.0113(15) 0.0165(16)
C3 0.0445(18) 0.0445(19) 0.044(2) 0.0187(16) 0.0059(15) 0.0138(15)
C4 0.0475(19) 0.0397(19) 0.052(2) 0.0184(16) 0.0152(16) 0.0173(15)
C5 0.0454(19) 0.0392(17) 0.0393(19) 0.0155(14) 0.0132(14) 0.0163(14)
C6 0.0399(17) 0.0443(19) 0.047(2) 0.0055(15) -0.0004(15) 0.0149(14)
C7 0.0406(18) 0.0367(17) 0.0393(18) -0.0017(13) -0.0167(14) 0.0028(13)
C8 0.0465(19) 0.0461(19) 0.0376(18) -0.0146(15) -0.0183(14) 0.0119(15)
C9 0.0436(18) 0.047(2) 0.0420(19) -0.0179(16) -0.0124(15) 0.0017(15)
C10 0.046(2) 0.050(2) 0.044(2) -0.0130(16) -0.0021(16) 0.0013(15)
C11 0.047(2) 0.0456(19) 0.042(2) -0.0137(15) -0.0008(15) -0.0098(15)
C12 0.044(2) 0.0445(19) 0.0424(18) -0.0135(15) 0.0069(14) -0.0172(14)
C13 0.0440(18) 0.0404(18) 0.045(2) -0.0132(15) -0.0140(15) 0.0021(14)
C14 0.0424(18) 0.0463(19) 0.0383(18) -0.0100(15) -0.0083(14) -0.0080(15)
C15 0.0455(19) 0.0393(18) 0.0409(18) -0.0129(14) 0.0022(14) -0.0127(14)
C16 0.047(2) 0.0427(19) 0.047(2) -0.0163(15) -0.0071(15) -0.0098(15)
C17 0.0410(18) 0.0459(19) 0.045(2) -0.0172(15) 0.0044(15) -0.0086(14)
C18 0.050(2) 0.049(2) 0.046(2) -0.0149(16) 0.0047(16) -0.0155(16)
C19 0.0414(19) 0.0428(19) 0.051(2) -0.0207(16) 0.0098(15) -0.0125(14)
C20 0.0450(19) 0.0421(18) 0.0396(18) 0.0114(14) -0.0098(14) 0.0049(15)
C21 0.0371(17) 0.0462(18) 0.0354(18) 0.0043(14) -0.0164(13) 0.0065(14)
C22 0.0428(19) 0.052(2) 0.049(2) 0.0184(17) -0.0072(16) -0.0024(16)
C23 0.0424(19) 0.0440(19) 0.045(2) 0.0153(15) -0.0043(15) 0.0018(14)
C24 0.0414(18) 0.0414(18) 0.0398(18) 0.0025(14) -0.0032(14) 0.0030(14)
C25 0.0458(19) 0.047(2) 0.044(2) 0.0051(15) -0.0153(15) -0.0038(15)
C26 0.047(2) 0.049(2) 0.050(2) 0.0109(16) 0.0116(16) 0.0139(16)
Cd1 0.0454(2) 0.0519(2) 0.0278(2) 0.000 0.000 0.01355(15)
Cd2 0.0434(2) 0.0358(2) 0.0370(2) 0.000 0.000 0.01802(14)
N1 0.0449(16) 0.0413(16) 0.0474(17) 0.0119(13) 0.0078(13) 0.0131(12)
N2 0.0479(17) 0.0383(15) 0.0389(15) -0.0161(12) -0.0045(12) -0.0112(12)
N3 0.0461(16) 0.0415(15) 0.0352(15) 0.0156(12) -0.0023(12) 0.0082(12)
N4 0.0477(17) 0.0443(16) 0.0433(17) -0.0172(13) -0.0074(13) -0.0107(13)
N5 0.0438(17) 0.049(2) 0.0370(16) 0.0071(13) 0.0094(13) 0.0006(14)
O1 0.0459(13) 0.0491(14) 0.0421(14) 0.0148(11) 0.0125(11) 0.0155(11)
O2 0.0403(12) 0.0456(13) 0.0462(14) -0.0151(11) -0.0140(10) 0.0146(10)
O3 0.0491(15) 0.0508(15) 0.0512(15) -0.0187(12) 0.0106(11) -0.0140(12)
O4 0.0473(15) 0.0400(13) 0.0468(14) 0.0147(10) -0.0170(10) -0.0029(11)
O5 0.0429(14) 0.0485(14) 0.0476(14) 0.0126(11) -0.0029(10) 0.0148(11)
O6 0.0478(15) 0.0481(14) 0.0501(16) 0.0071(12) 0.0094(12) 0.0006(11)
O7 0.0508(15) 0.0470(15) 0.0505(15) 0.0071(12) 0.0094(12) 0.0006(12)
O8 0.0462(14) 0.0395(14) 0.0489(14) 0.0000(11) 0.0000(11) 0.0136(10)

_geom_special_details            
;
All esds (except the esd in the dihedral angle between two l.s. planes)
are estimated using the full covariance matrix. The cell esds are taken
into account individually in the estimation of esds in distances, angles
and torsion angles; correlations between esds in cell parameters are only
used when they are defined by crystal symmetry. An approximate (isotropic)
treatment of cell esds is used for estimating esds involving l.s. planes.
;

loop_
_geom_bond_atom_site_label_1
_geom_bond_atom_site_label_2
_geom_bond_distance
_geom_bond_site_symmetry_2
_geom_bond_publ_flag
C1 N1 1.309(4) . ?
C1 C2 1.391(5) . ?
C1 H1 0.9300 . ?
C2 C3 1.350(5) . ?
C2 H2 0.9300 . ?
C3 O1 1.334(4) . ?
C3 C4 1.365(5) . ?
C4 C5 1.373(5) . ?
C4 H4 0.9300 . ?
C5 N1 1.297(4) . ?
C5 H5 0.9300 . ?
C6 O1 1.452(4) . ?
C6 C7 1.511(5) . ?
C6 H6A 0.9700 . ?
C6 H6B 0.9700 . ?
C7 C20 1.498(4) . ?
C7 C8 1.520(5) . ?
C7 C14 1.566(5) . ?
C8 O2 1.429(4) . ?
C8 H8A 0.9700 . ?
C8 H8B 0.9700 . ?
C9 O2 1.355(4) . ?
C9 C10 1.364(5) . ?
C9 C13 1.372(5) . ?
C10 C11 1.376(5) . ?
C10 H10 0.9300 . ?
C11 N2 1.344(5) . ?
C11 H11 0.9300 . ?
C12 N2 1.312(5) . ?
C12 C13 1.390(5) . ?
C12 H12 0.9300 . ?
C13 H13 0.9300 . ?
C14 O3 1.501(4) . ?
C14 H14A 0.9700 . ?
C14 H14B 0.9700 . ?
C15 C16 1.304(5) . ?
C15 O3 1.338(4) . ?
C15 C19 1.352(5) . ?
C16 C17 1.410(5) . ?
C16 H16 0.9300 . ?
C17 N4 1.318(4) . ?
C17 H17 0.9300 . ?
C18 N4 1.246(5) . ?
C18 C19 1.407(5) . ?
C18 H18 0.9300 . ?
C19 H19 0.9300 . ?
C20 O4 1.460(4) . ?
C20 H20A 0.9700 . ?
C20 H20B 0.9700 . ?
C21 O4 1.337(4) . ?
C21 C22 1.357(5) . ?
C21 C25 1.370(5) . ?
C22 C23 1.374(5) . ?
C22 H22 0.9300 . ?
C23 N3 1.312(4) . ?
C23 H23 0.9300 . ?
C24 N3 1.333(5) . ?
C24 C25 1.372(5) . ?
C24 H24 0.9300 . ?
C25 H25 0.9300 . ?
C26 O5 1.455(5) . ?
C26 H26A 0.9600 . ?
C26 H26C 0.9600 . ?
C26 H26B 0.9600 . ?
Cd1 N2 2.332(3) 15_455 ?
Cd1 N2 2.332(3) 12_655 ?
Cd1 N3 2.346(3) . ?
Cd1 N3 2.346(3) 6_455 ?
Cd1 O8 2.434(3) . ?
Cd1 O8 2.434(3) 6_455 ?
Cd2 N1 2.315(3) 2 ?
Cd2 N1 2.315(3) . ?
Cd2 N4 2.316(3) 11_556 ?
Cd2 N4 2.316(3) 12_656 ?
Cd2 O5 2.406(3) 2 ?
Cd2 O5 2.406(3) . ?
N2 Cd1 2.332(3) 15_556 ?
N4 Cd2 2.316(3) 11 ?
N5 O6 1.079(4) . ?
N5 O8 1.169(4) . ?
N5 O7 1.173(4) . ?

loop_
_geom_angle_atom_site_label_1
_geom_angle_atom_site_label_2
_geom_angle_atom_site_label_3
_geom_angle
_geom_angle_site_symmetry_1
_geom_angle_site_symmetry_3
_geom_angle_publ_flag
N1 C1 C2 123.4(3) . . ?
N1 C1 H1 118.3 . . ?
C2 C1 H1 118.3 . . ?
C3 C2 C1 119.5(3) . . ?
C3 C2 H2 120.3 . . ?
C1 C2 H2 120.3 . . ?
O1 C3 C2 125.7(3) . . ?
O1 C3 C4 117.6(3) . . ?
C2 C3 C4 116.7(3) . . ?
C3 C4 C5 119.9(3) . . ?
C3 C4 H4 120.1 . . ?
C5 C4 H4 120.1 . . ?
N1 C5 C4 123.8(3) . . ?
N1 C5 H5 118.1 . . ?
C4 C5 H5 118.1 . . ?
O1 C6 C7 106.4(3) . . ?
O1 C6 H6A 110.5 . . ?
C7 C6 H6A 110.5 . . ?
O1 C6 H6B 110.5 . . ?
C7 C6 H6B 110.5 . . ?
H6A C6 H6B 108.6 . . ?
C20 C7 C6 106.6(3) . . ?
C20 C7 C8 111.7(3) . . ?
C6 C7 C8 110.9(3) . . ?
C20 C7 C14 111.0(3) . . ?
C6 C7 C14 111.2(3) . . ?
C8 C7 C14 105.5(3) . . ?
O2 C8 C7 105.7(3) . . ?
O2 C8 H8A 110.6 . . ?
C7 C8 H8A 110.6 . . ?
O2 C8 H8B 110.6 . . ?
C7 C8 H8B 110.6 . . ?
H8A C8 H8B 108.7 . . ?
O2 C9 C10 125.6(3) . . ?
O2 C9 C13 114.9(3) . . ?
C10 C9 C13 119.6(3) . . ?
C9 C10 C11 118.7(4) . . ?
C9 C10 H10 120.6 . . ?
C11 C10 H10 120.6 . . ?
N2 C11 C10 123.0(3) . . ?
N2 C11 H11 118.5 . . ?
C10 C11 H11 118.5 . . ?
N2 C12 C13 124.1(3) . . ?
N2 C12 H12 117.9 . . ?
C13 C12 H12 117.9 . . ?
C9 C13 C12 117.6(3) . . ?
C9 C13 H13 121.2 . . ?
C12 C13 H13 121.2 . . ?
O3 C14 C7 101.7(3) . . ?
O3 C14 H14A 111.4 . . ?
C7 C14 H14A 111.4 . . ?
O3 C14 H14B 111.4 . . ?
C7 C14 H14B 111.4 . . ?
H14A C14 H14B 109.3 . . ?
C16 C15 O3 128.4(3) . . ?
C16 C15 C19 117.7(3) . . ?
O3 C15 C19 113.8(3) . . ?
C15 C16 C17 119.5(3) . . ?
C15 C16 H16 120.3 . . ?
C17 C16 H16 120.3 . . ?
N4 C17 C16 123.3(3) . . ?
N4 C17 H17 118.4 . . ?
C16 