####################################################################### 
# 
# This file contains crystal structure data downloaded from the 
# Cambridge Structural Database (CSD) hosted by the Cambridge 
# Crystallographic Data Centre (CCDC).
# 
# Full information about CCDC data access policies and citation 
# guidelines are available at http://www.ccdc.cam.ac.uk/access/V1 
# 
# Audit and citation data items may have been added by the CCDC. 
# Please retain this information to preserve the provenance of 
# this file and to allow appropriate attribution of the data. 
# 
#######################################################################

data_cubtt
_audit_block_doi                 10.5517/ccnyw7p
_database_code_depnum_ccdc_archive 'CCDC 624533'
loop_
_citation_id
_citation_doi
_citation_year
1 10.1002/anie.200604362 2007
_audit_update_record             
;
2006-10-18 deposited with the CCDC.	2024-07-13 downloaded from the CCDC.
;

_audit_creation_method           SHELXL-97
_chemical_name_systematic        
;
?
;
_chemical_name_common            ?
_chemical_melting_point          ?
_chemical_formula_moiety         '3(C24 H8 Cl Cu4 N32 O4), C18 Cu N6 O6'
_chemical_formula_sum            'C90 H24 Cl3 Cu13 N102 O18'
_chemical_formula_weight         3754.48

loop_
_atom_type_symbol
_atom_type_description
_atom_type_scat_dispersion_real
_atom_type_scat_dispersion_imag
_atom_type_scat_source
C C 0.0033 0.0016 'International Tables Vol C Tables 4.2.6.8 and 6.1.1.4'
H H 0.0000 0.0000 'International Tables Vol C Tables 4.2.6.8 and 6.1.1.4'
N N 0.0061 0.0033 'International Tables Vol C Tables 4.2.6.8 and 6.1.1.4'
O O 0.0106 0.0060 'International Tables Vol C Tables 4.2.6.8 and 6.1.1.4'
Cl Cl 0.1484 0.1585 'International Tables Vol C Tables 4.2.6.8 and 6.1.1.4'
Cu Cu 0.3201 1.2651 'International Tables Vol C Tables 4.2.6.8 and 6.1.1.4'

_symmetry_cell_setting           cubic
_symmetry_space_group_name_H-M   'P m-3m'
_symmetry_space_group_name_Hall  '-P 4 2 3'

loop_
_symmetry_equiv_pos_as_xyz
'x, y, z'
'-x, -y, z'
'-x, y, -z'
'x, -y, -z'
'z, x, y'
'z, -x, -y'
'-z, -x, y'
'-z, x, -y'
'y, z, x'
'-y, z, -x'
'y, -z, -x'
'-y, -z, x'
'y, x, -z'
'-y, -x, -z'
'y, -x, z'
'-y, x, z'
'x, z, -y'
'-x, z, y'
'-x, -z, -y'
'x, -z, y'
'z, y, -x'
'z, -y, x'
'-z, y, x'
'-z, -y, -x'
'-x, -y, -z'
'x, y, -z'
'x, -y, z'
'-x, y, z'
'-z, -x, -y'
'-z, x, y'
'z, x, -y'
'z, -x, y'
'-y, -z, -x'
'y, -z, x'
'-y, z, x'
'y, z, -x'
'-y, -x, z'
'y, x, z'
'-y, x, -z'
'y, -x, -z'
'-x, -z, y'
'x, -z, -y'
'x, z, y'
'-x, z, -y'
'-z, -y, x'
'-z, y, -x'
'z, -y, -x'
'z, y, x'

_cell_length_a                   18.595(7)
_cell_length_b                   18.595(7)
_cell_length_c                   18.595(7)
_cell_angle_alpha                90.00
_cell_angle_beta                 90.00
_cell_angle_gamma                90.00
_cell_volume                     6430(4)
_cell_formula_units_Z            1
_cell_measurement_temperature    159(2)
_cell_measurement_reflns_used    984
_cell_measurement_theta_min      4.904
_cell_measurement_theta_max      44.830

_exptl_crystal_description       parallelepiped
_exptl_crystal_colour            green
_exptl_crystal_size_max          0.36
_exptl_crystal_size_mid          0.28
_exptl_crystal_size_min          0.24
_exptl_crystal_density_meas      ?
_exptl_crystal_density_diffrn    0.970
_exptl_crystal_density_method    'not measured'
_exptl_crystal_F_000             1850
_exptl_absorpt_coefficient_mu    1.136
_exptl_absorpt_correction_type   empirical
_exptl_absorpt_correction_T_min  0.667
_exptl_absorpt_correction_T_max  0.761
_exptl_absorpt_process_details   'Blessing, 1995'

_exptl_special_details           
;
?
;

_diffrn_ambient_temperature      159(2)
_diffrn_radiation_wavelength     0.71073
_diffrn_radiation_type           MoK\a
_diffrn_radiation_source         'fine-focus sealed tube'
_diffrn_radiation_monochromator  graphite
_diffrn_measurement_device_type  'Bruker Smart CCD'
_diffrn_measurement_method       \w/2\q-scans
_diffrn_detector_area_resol_mean ?
_diffrn_standards_number         ?
_diffrn_standards_interval_count ?
_diffrn_standards_interval_time  ?
_diffrn_standards_decay_%        ?
_diffrn_reflns_number            17902
_diffrn_reflns_av_R_equivalents  0.0869
_diffrn_reflns_av_sigmaI/netI    0.0373
_diffrn_reflns_limit_h_min       -20
_diffrn_reflns_limit_h_max       19
_diffrn_reflns_limit_k_min       -19
_diffrn_reflns_limit_k_max       20
_diffrn_reflns_limit_l_min       -20
_diffrn_reflns_limit_l_max       6
_diffrn_reflns_theta_min         1.55
_diffrn_reflns_theta_max         23.20
_reflns_number_total             953
_reflns_number_gt                800
_reflns_threshold_expression     >2sigma(I)

_computing_data_collection       'Bruker SMART v5.054d'
_computing_cell_refinement       'Bruker SAINT v7.07b'
_computing_data_reduction        'Bruker SAINT v7.07b'
_computing_structure_solution    'SHELXS-97 (Sheldrick, 1990)'
_computing_structure_refinement  'SHELXL-97 (Sheldrick, 1997)'
_computing_molecular_graphics    ?
_computing_publication_material  ?

_refine_special_details          
;
Refinement of F^2^ against ALL reflections. The weighted R-factor wR and
goodness of fit S are based on F^2^, conventional R-factors R are based
on F, with F set to zero for negative F^2^. The threshold expression of
F^2^ > 2sigma(F^2^) is used only for calculating R-factors(gt) etc. and is
not relevant to the choice of reflections for refinement. R-factors based
on F^2^ are statistically about twice as large as those based on F, and R-
factors based on ALL data will be even larger.
;

_refine_ls_structure_factor_coef Fsqd
_refine_ls_matrix_type           full
_refine_ls_weighting_scheme      calc
_refine_ls_weighting_details     
'calc w=1/[\s^2^(Fo^2^)+(0.0972P)^2^+20.9085P] where P=(Fo^2^+2Fc^2^)/3'
_atom_sites_solution_primary     direct
_atom_sites_solution_secondary   difmap
_atom_sites_solution_hydrogens   geom
_refine_ls_hydrogen_treatment    constr
_refine_ls_extinction_method     SHELXL
_refine_ls_extinction_coef       0.0006(3)
_refine_ls_extinction_expression Fc^*^=kFc[1+0.001xFc^2^\l^3^/sin(2\q)]^-1/4^
_refine_ls_number_reflns         953
_refine_ls_number_parameters     62
_refine_ls_number_restraints     0
_refine_ls_R_factor_all          0.0726
_refine_ls_R_factor_gt           0.0598
_refine_ls_wR_factor_ref         0.1650
_refine_ls_wR_factor_gt          0.1538
_refine_ls_goodness_of_fit_ref   1.086
_refine_ls_restrained_S_all      1.086
_refine_ls_shift/su_max          0.000
_refine_ls_shift/su_mean         0.000

loop_
_atom_site_label
_atom_site_type_symbol
_atom_site_fract_x
_atom_site_fract_y
_atom_site_fract_z
_atom_site_U_iso_or_equiv
_atom_site_adp_type
_atom_site_occupancy
_atom_site_symmetry_multiplicity
_atom_site_calc_flag
_atom_site_refinement_flags
_atom_site_disorder_assembly
_atom_site_disorder_group
Cu1 Cu 0.5000 0.13693(5) 0.0000 0.0129(5) Uani 1 4 d S . .
Cl1 Cl 0.5000 0.0000 0.0000 0.0245(11) Uani 1 16 d S . .
O1 O 0.5000 0.2564(4) 0.0000 0.068(3) Uani 1 4 d S . .
N1 N 0.42504(18) 0.13009(19) -0.0792(2) 0.0183(9) Uani 1 1 d . . .
N2 N 0.36954(19) 0.1747(2) -0.0893(2) 0.0227(10) Uani 1 1 d . . .
C1 C 0.3362(4) 0.1485(3) -0.1485(3) 0.0231(15) Uani 1 2 d S . .
C2 C 0.2723(4) 0.1805(3) -0.1805(3) 0.0262(16) Uani 1 2 d S . .
C3 C 0.2413(3) 0.2413(3) -0.1491(4) 0.0279(17) Uani 1 2 d S . .
H3 H 0.2610 0.2610 -0.1076 0.034 Uiso 1 2 calc SR . .
Cu2 Cu 0.0000 0.0000 0.0000 0.0517(15) Uani 1 48 d S . .
N3 N 0.0242(12) 0.0000 0.2225(12) 0.042(8) Uiso 0.25 2 d SP . .
O2 O 0.0000 0.041(3) 0.095(3) 0.19(3) Uiso 0.25 2 d SP . .
C4 C 0.0000 0.0000 0.158(3) 0.169(17) Uiso 1 8 d S . .
C5 C 0.0000 0.0000 0.2916(19) 0.115(10) Uiso 1 8 d S . .
C6 C 0.085(5) 0.0000 0.210(5) 0.16(3) Uiso 0.25 2 d SP . .

loop_
_atom_site_aniso_label
_atom_site_aniso_U_11
_atom_site_aniso_U_22
_atom_site_aniso_U_33
_atom_site_aniso_U_23
_atom_site_aniso_U_13
_atom_site_aniso_U_12
Cu1 0.0095(6) 0.0173(7) 0.0120(7) 0.000 0.000 0.000
Cl1 0.034(3) 0.0196(15) 0.0196(15) 0.000 0.000 0.000
O1 0.104(8) 0.022(4) 0.078(7) 0.000 0.000 0.000
N1 0.0157(19) 0.019(2) 0.0199(19) -0.0027(14) -0.0035(15) 0.0043(16)
N2 0.021(2) 0.026(2) 0.022(2) -0.0062(17) -0.0045(16) 0.0082(17)
C1 0.024(4) 0.023(2) 0.023(2) -0.009(3) -0.007(2) 0.007(2)
C2 0.028(4) 0.025(2) 0.025(2) -0.008(3) -0.013(2) 0.013(2)
C3 0.030(3) 0.030(3) 0.024(4) -0.014(2) -0.014(2) 0.009(3)
Cu2 0.0517(15) 0.0517(15) 0.0517(15) 0.000 0.000 0.000

_geom_special_details            
;
All esds (except the esd in the dihedral angle between two l.s. planes)
are estimated using the full covariance matrix. The cell esds are taken
into account individually in the estimation of esds in distances, angles
and torsion angles; correlations between esds in cell parameters are only
used when they are defined by crystal symmetry. An approximate (isotropic)
treatment of cell esds is used for estimating esds involving l.s. planes.
;

loop_
_geom_bond_atom_site_label_1
_geom_bond_atom_site_label_2
_geom_bond_distance
_geom_bond_site_symmetry_2
_geom_bond_publ_flag
Cu1 N1 2.032(4) . ?
Cu1 N1 2.032(4) 28_655 ?
Cu1 N1 2.032(4) 26 ?
Cu1 N1 2.032(4) 3_655 ?
Cu1 O1 2.221(8) . ?
Cu1 Cl1 2.5461(14) . ?
Cl1 Cu1 2.5461(14) 17 ?
Cl1 Cu1 2.5461(14) 25_655 ?
Cl1 Cu1 2.5461(14) 41_655 ?
N1 N2 1.337(5) . ?
N1 N1 1.338(7) 42 ?
N2 C1 1.354(5) . ?
C1 N2 1.354(5) 42 ?
C1 C2 1.456(9) . ?
C2 C3 1.397(5) 11 ?
C2 C3 1.397(5) . ?
C3 C2 1.397(5) 8 ?
Cu2 O2 1.93(5) 45 ?
Cu2 O2 1.93(5) 42 ?
Cu2 O2 1.93(5) 25 ?
Cu2 O2 1.93(5) 14 ?
Cu2 O2 1.93(5) 33 ?
Cu2 O2 1.93(5) 29 ?
Cu2 O2 1.93(5) 21 ?
Cu2 O2 1.93(5) 18 ?
Cu2 O2 1.93(5) 38 ?
Cu2 O2 1.93(5) 9 ?
Cu2 O2 1.93(5) 5 ?
Cu2 O2 1.93(5) 22 ?
N3 N3 0.64(3) 37 ?
N3 N3 0.64(3) 38 ?
N3 N3 0.90(4) 2 ?
N3 C6 1.16(10) . ?
N3 C4 1.28(5) . ?
N3 C5 1.36(4) . ?
N3 C6 1.66(9) 37 ?
N3 C6 1.66(9) 38 ?
O2 O2 1.08(7) 37 ?
O2 O2 1.08(7) 38 ?
O2 C4 1.39(6) . ?
O2 O2 1.43(11) 18 ?
O2 O2 1.52(10) 2 ?
C4 N3 1.28(5) 37 ?
C4 N3 1.28(5) 2 ?
C4 N3 1.28(5) 38 ?
C4 O2 1.39(6) 37 ?
C4 O2 1.39(6) 2 ?
C4 O2 1.39(6) 38 ?
C4 C6 1.85(10) 37 ?
C4 C6 1.85(10) 2 ?
C4 C6 1.85(10) . ?
C4 C6 1.85(10) 38 ?
C5 N3 1.36(4) 37 ?
C5 N3 1.36(4) 2 ?
C5 N3 1.36(4) 38 ?
C6 N3 1.66(9) 37 ?
C6 N3 1.66(9) 38 ?

loop_
_geom_angle_atom_site_label_1
_geom_angle_atom_site_label_2
_geom_angle_atom_site_label_3
_geom_angle
_geom_angle_site_symmetry_1
_geom_angle_site_symmetry_3
_geom_angle_publ_flag
N1 Cu1 N1 86.6(2) . 28_655 ?
N1 Cu1 N1 92.9(2) . 26 ?
N1 Cu1 N1 172.8(2) 28_655 26 ?
N1 Cu1 N1 172.8(2) . 3_655 ?
N1 Cu1 N1 92.9(2) 28_655 3_655 ?
N1 Cu1 N1 86.6(2) 26 3_655 ?
N1 Cu1 O1 93.59(11) . . ?
N1 Cu1 O1 93.59(11) 28_655 . ?
N1 Cu1 O1 93.59(11) 26 . ?
N1 Cu1 O1 93.59(11) 3_655 . ?
N1 Cu1 Cl1 86.41(11) . . ?
N1 Cu1 Cl1 86.41(11) 28_655 . ?
N1 Cu1 Cl1 86.41(11) 26 . ?
N1 Cu1 Cl1 86.41(11) 3_655 . ?
O1 Cu1 Cl1 180.0 . . ?
Cu1 Cl1 Cu1 90.0 17 25_655 ?
Cu1 Cl1 Cu1 90.0 17 . ?
Cu1 Cl1 Cu1 180.0 25_655 . ?
Cu1 Cl1 Cu1 180.0 17 41_655 ?
Cu1 Cl1 Cu1 90.0 25_655 41_655 ?
Cu1 Cl1 Cu1 90.0 . 41_655 ?
N2 N1 N1 109.9(2) . 42 ?
N2 N1 Cu1 126.3(3) . . ?
N1 N1 Cu1 123.84(10) 42 . ?
N1 N2 C1 104.1(4) . . ?
N2 C1 N2 112.1(6) . 42 ?
N2 C1 C2 124.0(3) . . ?
N2 C1 C2 124.0(3) 42 . ?
C3 C2 C3 120.4(7) 11 . ?
C3 C2 C1 119.8(3) 11 . ?
C3 C2 C1 119.8(3) . . ?
C2 C3 C2 119.6(7) . 8 ?
O2 Cu2 O2 68.7(11) 45 42 ?
O2 Cu2 O2 81.0(11) 45 25 ?
O2 Cu2 O2 44(3) 42 25 ?
O2 Cu2 O2 68.7(11) 45 14 ?
O2 Cu2 O2 68.7(11) 42 14 ?
O2 Cu2 O2 32(2) 25 14 ?
O2 Cu2 O2 44(3) 45 33 ?
O2 Cu2 O2 32(2) 42 33 ?
O2 Cu2 O2 68.7(11) 25 33 ?
O2 Cu2 O2 81.0(11) 14 33 ?
O2 Cu2 O2 32(2) 45 29 ?
O2 Cu2 O2 81.0(11) 42 29 ?
O2 Cu2 O2 68.7(11) 25 29 ?
O2 Cu2 O2 44(3) 14 29 ?
O2 Cu2 O2 68.7(11) 33 29 ?
O2 Cu2 O2 180(3) 45 21 ?
O2 Cu2 O2 111.3(11) 42 21 ?
O2 Cu2 O2 99.0(11) 25 21 ?
O2 Cu2 O2 111.3(11) 14 21 ?
O2 Cu2 O2 136(3) 33 21 ?
O2 Cu2 O2 148(2) 29 21 ?
O2 Cu2 O2 111.3(11) 45 18 ?
O2 Cu2 O2 180(3) 42 18 ?
O2 Cu2 O2 136(3) 25 18 ?
O2 Cu2 O2 111.3(11) 14 18 ?
O2 Cu2 O2 148(2) 33 18 ?
O2 Cu2 O2 99.0(11) 29 18 ?
O2 Cu2 O2 68.7(11) 21 18 ?
O2 Cu2 O2 111.3(11) 45 38 ?
O2 Cu2 O2 111.3(11) 42 38 ?
O2 Cu2 O2 148(2) 25 38 ?
O2 Cu2 O2 180(3) 14 38 ?
O2 Cu2 O2 99.0(11) 33 38 ?
O2 Cu2 O2 136(3) 29 38 ?
O2 Cu2 O2 68.7(11) 21 38 ?
O2 Cu2 O2 68.7(11) 18 38 ?
O2 Cu2 O2 136(3) 45 9 ?
O2 Cu2 O2 148(2) 42 9 ?
O2 Cu2 O2 111.3(11) 25 9 ?
O2 Cu2 O2 99.0(11) 14 9 ?
O2 Cu2 O2 180(3) 33 9 ?
O2 Cu2 O2 111.3(11) 29 9 ?
O2 Cu2 O2 44(3) 21 9 ?
O2 Cu2 O2 32(2) 18 9 ?
O2 Cu2 O2 81.0(11) 38 9 ?
O2 Cu2 O2 148(2) 45 5 ?
O2 Cu2 O2 99.0(11) 42 5 ?
O2 Cu2 O2 111.3(11) 25 5 ?
O2 Cu2 O2 136(3) 14 5 ?
O2 Cu2 O2 111.3(11) 33 5 ?
O2 Cu2 O2 180(3) 29 5 ?
O2 Cu2 O2 32(2) 21 5 ?
O2 Cu2 O2 81.0(11) 18 5 ?
O2 Cu2 O2 44(3) 38 5 ?
O2 Cu2 O2 68.7(11) 9 5 ?
O2 Cu2 O2 134(3) 45 22 ?
O2 Cu2 O2 68.7(11) 42 22 ?
O2 Cu2 O2 81.0(11) 25 22 ?
O2 Cu2 O2 111.3(11) 14 22 ?
O2 Cu2 O2 90.0 33 22 ?
O2 Cu2 O2 148(2) 29 22 ?
O2 Cu2 O2 46(3) 21 22 ?
O2 Cu2 O2 111.3(11) 18 22 ?
O2 Cu2 O2 68.7(11) 38 22 ?
O2 Cu2 O2 90.0 9 22 ?
O2 Cu2 O2 32(2) 5 22 ?
N3 N3 N3 90.000(13) 37 38 ?
N3 N3 N3 45.000(6) 37 2 ?
N3 N3 N3 45.000(11) 38 2 ?
N3 N3 C6 133.8(10) 37 . ?
N3 N3 C6 133.8(10) 38 . ?
N3 N3 C6 168(5) 2 . ?
N3 N3 C4 75.6(9) 37 . ?
N3 N3 C4 75.6(9) 38 . ?
N3 N3 C4 69.4(14) 2 . ?
C6 N3 C4 99(5) . . ?
N3 N3 C5 76.5(7) 37 . ?
N3 N3 C5 76.5(7) 38 . ?
N3 N3 C5 70.7(11) 2 . ?
C6 N3 C5 121(5) . . ?
C4 N3 C5 140(2) . . ?
N3 N3 C6 30.1(12) 37 37 ?
N3 N3 C6 118.8(11) 38 37 ?
N3 N3 C6 74.3(10) 2 37 ?
C6 N3 C6 103.7(19) . 37 ?
C4 N3 C6 77(3) . 37 ?
C5 N3 C6 92(3) . 37 ?
N3 N3 C6 118.8(11) 37 38 ?
N3 N3 C6 30.1(12) 38 38 ?
N3 N3 C6 74.3(10) 2 38 ?
C6 N3 C6 103.7(19) . 38 ?
C4 N3 C6 77(3) . 38 ?
C5 N3 C6 92(3) . 38 ?
C6 N3 C6 145(4) 37 38 ?
O2 O2 O2 90.000(11) 37 38 ?
O2 O2 C4 67.3(16) 37 . ?
O2 O2 C4 67.3(16) 38 . ?
O2 O2 O2 120.000(10) 37 18 ?
O2 O2 O2 120.000(9) 38 18 ?
C4 O2 O2 168(3) . 18 ?
O2 O2 O2 45.000(7) 37 2 ?
O2 O2 O2 45.000(8) 38 2 ?
C4 O2 O2 57(3) . 2 ?
O2 O2 O2 135.0 18 2 ?
O2 O2 Cu2 73.8(10) 37 . ?
O2 O2 Cu2 73.8(10) 38 . ?
C4 O2 Cu2 124(4) . . ?
O2 O2 Cu2 68.2(15) 18 . ?
O2 O2 Cu2 66.8(15) 2 . ?
N3 C4 N3 28.8(19) . 37 ?
N3 C4 N3 41(3) . 2 ?
N3 C4 N3 28.8(19) 37 2 ?
N3 C4 N3 28.8(19) . 38 ?
N3 C4 N3 41(3) 37 38 ?
N3 C4 N3 28.8(19) 2 38 ?
N3 C4 O2 167(3) . 37 ?
N3 C4 O2 141.6(19) 37 37 ?
N3 C4 O2 126(2) 2 37 ?
N3 C4 O2 141.6(19) 38 37 ?
N3 C4 O2 141.6(19) . 2 ?
N3 C4 O2 126(2) 37 2 ?
N3 C4 O2 141.6(19) 2 2 ?
N3 C4 O2 167(3) 38 2 ?
O2 C4 O2 45(3) 37 2 ?
N3 C4 O2 141.6(19) . . ?
N3 C4 O2 167(3) 37 . ?
N3 C4 O2 141.6(19) 2 . ?
N3 C4 O2 126(2) 38 . ?
O2 C4 O2 45(3) 37 . ?
O2 C4 O2 66(5) 2 . ?
N3 C4 O2 126(2) . 38 ?
N3 C4 O2 141.6(19) 37 38 ?
N3 C4 O2 167(3) 2 38 ?
N3 C4 O2 141.6(19) 38 38 ?
O2 C4 O2 66(5) 37 38 ?
O2 C4 O2 45(3) 2 38 ?
O2 C4 O2 45(3) . 38 ?
N3 C4 C6 61(3) . 37 ?
N3 C4 C6 38(3) 37 37 ?
N3 C4 C6 61(3) 2 37 ?
N3 C4 C6 79(4) 38 37 ?
O2 C4 C6 116(3) 37 37 ?
O2 C4 C6 88(4) 2 37 ?
O2 C4 C6 154(5) . 37 ?
O2 C4 C6 116(3) 38 37 ?
N3 C4 C6 79(4) . 2 ?
N3 C4 C6 61(3) 37 2 ?
N3 C4 C6 38(3) 2 2 ?
N3 C4 C6 61(3) 38 2 ?
O2 C4 C6 88(4) 37 2 ?
O2 C4 C6 116(3) 2 2 ?
O2 C4 C6 116(3) . 2 ?
O2 C4 C6 154(5) 38 2 ?
C6 C4 C6 74(3) 37 2 ?
N3 C4 C6 38(3) . . ?
N3 C4 C6 61(3) 37 . ?
N3 C4 C6 79(4) 2 . ?
N3 C4 C6 61(3) 38 . ?
O2 C4 C6 154(5) 37 . ?
O2 C4 C6 116(3) 2 . ?
O2 C4 C6 116(3) . . ?
O2 C4 C6 88(4) 38 . ?
C6 C4 C6 74(3) 37 . ?
C6 C4 C6 117(7) 2 . ?
N3 C4 C6 61(3) . 38 ?
N3 C4 C6 79(4) 37 38 ?
N3 C4 C6 61(3) 2 38 ?
N3 C4 C6 38(3) 38 38 ?
O2 C4 C6 116(3) 37 38 ?
O2 C4 C6 154(5) 2 38 ?
O2 C4 C6 88(4) . 38 ?
O2 C4 C6 116(3) 38 38 ?
C6 C4 C6 117(7) 37 38 ?
C6 C4 C6 74(3) 2 38 ?
C6 C4 C6 74(3) . 38 ?
N3 C5 N3 27.0(15) 37 2 ?
N3 C5 N3 39(2) 37 38 ?
N3 C5 N3 27.0(15) 2 38 ?
N3 C5 N3 27.0(15) 37 . ?
N3 C5 N3 39(2) 2 . ?
N3 C5 N3 27.0(15) 38 . ?
N3 C6 N3 16.0(11) . 37 ?
N3 C6 N3 16.0(11) . 38 ?
N3 C6 N3 31(2) 37 38 ?
N3 C6 C4 43(4) . . ?
N3 C6 C4 42(3) 37 . ?
N3 C6 C4 42(3) 38 . ?

_diffrn_measured_fraction_theta_max 0.968
_diffrn_reflns_theta_full        23.20
_diffrn_measured_fraction_theta_full 0.968
_refine_diff_density_max         0.928
_refine_diff_density_min         -0.910
_refine_diff_density_rms         0.126


