####################################################################### 
# 
# This file contains crystal structure data downloaded from the 
# Cambridge Structural Database (CSD) hosted by the Cambridge 
# Crystallographic Data Centre (CCDC).
# 
# Full information about CCDC data access policies and citation 
# guidelines are available at http://www.ccdc.cam.ac.uk/access/V1 
# 
# Audit and citation data items may have been added by the CCDC. 
# Please retain this information to preserve the provenance of 
# this file and to allow appropriate attribution of the data. 
# 
#######################################################################

data_e2318a
_audit_block_doi                 10.5517/cc103htf
_database_code_depnum_ccdc_archive 'CCDC 926894'
loop_
_citation_id
_citation_doi
_citation_year
1 10.1039/C3DT50577D 2013
_audit_update_record             
;
2013-02-27 deposited with the CCDC.	2024-07-13 downloaded from the CCDC.
;
#TrackingRef 'web_deposit_cif_file_5_FERLAY_1361985472.4-HgCl2.cif'




_audit_creation_method           SHELXL-97

_chemical_name_systematic        
;

?

;

_chemical_name_common            ?

_chemical_melting_point          ?

_chemical_formula_moiety         
'(C48 H36 Cl6 Hg3 N4 O4 S4), 0.27(C2 H2 Cl6), C H Cl3'

_chemical_formula_sum            'C49.54 H37.54 Cl10.61 Hg3 N4 O4 S4'

_chemical_formula_weight         1859.15



loop_

_atom_type_symbol

_atom_type_description

_atom_type_scat_dispersion_real

_atom_type_scat_dispersion_imag

_atom_type_scat_source














C C 0.0033 0.0016 'International Tables Vol C Tables 4.2.6.8 and 6.1.1.4'
Cl Cl 0.1484 0.1585 'International Tables Vol C Tables 4.2.6.8 and 6.1.1.4'
Hg Hg -2.3894 9.2266 'International Tables Vol C Tables 4.2.6.8 and 6.1.1.4'
N N 0.0061 0.0033 'International Tables Vol C Tables 4.2.6.8 and 6.1.1.4'
O O 0.0106 0.0060 'International Tables Vol C Tables 4.2.6.8 and 6.1.1.4'
H H 0.0000 0.0000 'International Tables Vol C Tables 4.2.6.8 and 6.1.1.4'
S S 0.1246 0.1234 'International Tables Vol C Tables 4.2.6.8 and 6.1.1.4'



_symmetry_cell_setting           Triclinic

_symmetry_space_group_name_H-M   P-1

_symmetry_space_group_name_Hall  '-P 1'



loop_

_symmetry_equiv_pos_as_xyz


'x, y, z'
'-x, -y, -z'



_cell_length_a                   13.4949(3)

_cell_length_b                   13.5043(4)

_cell_length_c                   18.1231(5)

_cell_angle_alpha                70.1100(10)

_cell_angle_beta                 83.5310(10)

_cell_angle_gamma                72.9180(10)

_cell_volume                     2968.42(14)

_cell_formula_units_Z            2

_cell_measurement_temperature    173(2)

_cell_measurement_reflns_used    9876

_cell_measurement_theta_min      2.39

_cell_measurement_theta_max      27.83



_exptl_crystal_description       prism

_exptl_crystal_colour            colorless

_exptl_crystal_size_max          0.07

_exptl_crystal_size_mid          0.06

_exptl_crystal_size_min          0.06

_exptl_crystal_density_meas      none

_exptl_crystal_density_diffrn    2.080

_exptl_crystal_density_method    'not measured'

_exptl_crystal_F_000             1758.1

_exptl_absorpt_coefficient_mu    8.404

_exptl_absorpt_correction_type   multi-scan

_exptl_absorpt_correction_T_min  0.5909

_exptl_absorpt_correction_T_max  0.6327

_exptl_absorpt_process_details   sadabs



_exptl_special_details           
;

?

;



_diffrn_ambient_temperature      173(2)

_diffrn_radiation_wavelength     0.71073

_diffrn_radiation_type           MoK\a

_diffrn_radiation_source         'fine-focus sealed tube'

_diffrn_radiation_monochromator  graphite

_diffrn_measurement_device_type  'CCD area detector'

_diffrn_measurement_method       'phi and omega scans'

_diffrn_detector_area_resol_mean ?

_diffrn_standards_number         ?

_diffrn_standards_interval_count ?

_diffrn_standards_interval_time  ?

_diffrn_standards_decay_%        ?

_diffrn_reflns_number            55007

_diffrn_reflns_av_R_equivalents  0.0377

_diffrn_reflns_av_sigmaI/netI    0.0515

_diffrn_reflns_limit_h_min       -18

_diffrn_reflns_limit_h_max       14

_diffrn_reflns_limit_k_min       -19

_diffrn_reflns_limit_k_max       19

_diffrn_reflns_limit_l_min       -25

_diffrn_reflns_limit_l_max       25

_diffrn_reflns_theta_min         1.67

_diffrn_reflns_theta_max         29.17

_reflns_number_total             15847

_reflns_number_gt                11233

_reflns_threshold_expression     >2sigma(I)



_computing_data_collection       'Bruker SMART'

_computing_cell_refinement       'Bruker SMART'

_computing_data_reduction        'Bruker SAINT'

_computing_structure_solution    'SHELXS-97 (Sheldrick, 1990)'

_computing_structure_refinement  'SHELXL-97 (Sheldrick, 1997)'

_computing_molecular_graphics    'Bruker SHELXTL'

_computing_publication_material  'Bruker SHELXTL'



_refine_special_details          
;

Refinement of F^2^ against ALL reflections. The weighted R-factor wR and

goodness of fit S are based on F^2^, conventional R-factors R are based

on F, with F set to zero for negative F^2^. The threshold expression of

F^2^ > 2sigma(F^2^) is used only for calculating R-factors(gt) etc. and is

not relevant to the choice of reflections for refinement. R-factors based

on F^2^ are statistically about twice as large as those based on F, and R-

factors based on ALL data will be even larger.

;



_refine_ls_structure_factor_coef Fsqd

_refine_ls_matrix_type           full

_refine_ls_weighting_scheme      calc

_refine_ls_weighting_details     
'calc w=1/[\s^2^(Fo^2^)+(0.0446P)^2^+4.1832P] where P=(Fo^2^+2Fc^2^)/3'

_atom_sites_solution_primary     direct

_atom_sites_solution_secondary   difmap

_atom_sites_solution_hydrogens   geom

_refine_ls_hydrogen_treatment    constr

_refine_ls_extinction_method     none

_refine_ls_extinction_coef       ?

_refine_ls_number_reflns         15847

_refine_ls_number_parameters     731

_refine_ls_number_restraints     15

_refine_ls_R_factor_all          0.0681

_refine_ls_R_factor_gt           0.0384

_refine_ls_wR_factor_ref         0.0968

_refine_ls_wR_factor_gt          0.0864

_refine_ls_goodness_of_fit_ref   1.021

_refine_ls_restrained_S_all      1.034

_refine_ls_shift/su_max          0.001

_refine_ls_shift/su_mean         0.000



loop_

_atom_site_label

_atom_site_type_symbol

_atom_site_fract_x

_atom_site_fract_y

_atom_site_fract_z

_atom_site_U_iso_or_equiv

_atom_site_adp_type

_atom_site_occupancy

_atom_site_symmetry_multiplicity

_atom_site_calc_flag

_atom_site_refinement_flags

_atom_site_disorder_assembly

_atom_site_disorder_group
























































































































Hg1 Hg 0.763516(18) 0.074746(18) 0.758845(14) 0.03622(7) Uani 1 1 d . . .
Cl1 Cl 0.77672(17) 0.05743(19) 0.89353(10) 0.0703(6) Uani 1 1 d . . .
Cl2 Cl 0.78471(14) -0.06193(14) 0.70054(11) 0.0547(4) Uani 1 1 d . . .
Hg2 Hg 0.952405(18) 0.215354(18) 0.826382(13) 0.03734(7) Uani 1 1 d . . .
Cl3 Cl 0.87883(10) 0.21141(10) 0.69428(8) 0.0307(3) Uani 1 1 d . . .
Cl4 Cl 0.82757(15) 0.34555(13) 0.86860(10) 0.0599(5) Uani 1 1 d . . .
Hg3 Hg 0.009669(16) 1.382769(16) 0.603247(12) 0.02895(6) Uani 1 1 d . . .
Cl5 Cl 0.10987(11) 1.28588(12) 0.75023(8) 0.0352(3) Uani 1 1 d . . .
Cl6 Cl 0.11647(10) 1.52082(11) 0.53013(8) 0.0306(3) Uani 1 1 d . . .
S1 S 0.27548(12) 0.70162(12) 0.51164(8) 0.0360(3) Uani 1 1 d . . .
C1 C 0.2036(4) 0.7059(4) 0.5988(3) 0.0326(13) Uani 1 1 d . . .
C2 C 0.2356(4) 0.6265(4) 0.6716(3) 0.0284(12) Uani 1 1 d . . .
C3 C 0.1736(4) 0.6276(5) 0.7388(3) 0.0347(13) Uani 1 1 d . . .
C4 C 0.0799(5) 0.7057(6) 0.7329(4) 0.0452(16) Uani 1 1 d . . .
H4 H 0.0380 0.7071 0.7785 0.054 Uiso 1 1 calc R . .
C5 C 0.0464(5) 0.7819(6) 0.6615(5) 0.0524(19) Uani 1 1 d . . .
H5 H -0.0194 0.8341 0.6578 0.063 Uiso 1 1 calc R . .
C6 C 0.1083(5) 0.7827(5) 0.5947(4) 0.0448(16) Uani 1 1 d . . .
H6 H 0.0851 0.8365 0.5458 0.054 Uiso 1 1 calc R . .
O1 O 0.3285(3) 0.5490(3) 0.6764(2) 0.0276(8) Uani 1 1 d . . .
C7 C 0.3186(4) 0.4493(4) 0.6704(4) 0.0338(13) Uani 1 1 d . . .
H7A H 0.2948 0.4622 0.6174 0.041 Uiso 1 1 calc R . .
H7B H 0.2669 0.4223 0.7094 0.041 Uiso 1 1 calc R . .
C8 C 0.4222(4) 0.3663(4) 0.6854(3) 0.0275(11) Uani 1 1 d . . .
C9 C 0.5120(4) 0.3938(5) 0.6896(3) 0.0355(13) Uani 1 1 d . . .
H9 H 0.5099 0.4676 0.6819 0.043 Uiso 1 1 calc R . .
C10 C 0.6033(5) 0.3138(5) 0.7048(4) 0.0377(14) Uani 1 1 d . . .
H10 H 0.6641 0.3335 0.7084 0.045 Uiso 1 1 calc R . .
N1 N 0.6117(4) 0.2089(4) 0.7149(3) 0.0334(11) Uani 1 1 d . . .
C11 C 0.5242(5) 0.1829(5) 0.7100(4) 0.0425(15) Uani 1 1 d . . .
H11 H 0.5287 0.1087 0.7170 0.051 Uiso 1 1 calc R . .
C12 C 0.4302(4) 0.2571(5) 0.6953(4) 0.0374(14) Uani 1 1 d . . .
H12 H 0.3706 0.2352 0.6919 0.045 Uiso 1 1 calc R . .
S2 S 0.20398(14) 0.52277(15) 0.83144(10) 0.0493(4) Uani 1 1 d . . .
C13 C 0.3334(5) 0.5122(5) 0.8506(3) 0.0353(13) Uani 1 1 d . . .
C14 C 0.3598(4) 0.5971(4) 0.8638(3) 0.0290(12) Uani 1 1 d . . .
C15 C 0.4610(4) 0.5836(4) 0.8843(3) 0.0310(12) Uani 1 1 d . . .
C16 C 0.5339(5) 0.4847(5) 0.8934(3) 0.0453(16) Uani 1 1 d . . .
H16 H 0.6030 0.4753 0.9067 0.054 Uiso 1 1 calc R . .
C17 C 0.5070(6) 0.3990(5) 0.8833(3) 0.0503(18) Uani 1 1 d . . .
H17 H 0.5573 0.3303 0.8912 0.060 Uiso 1 1 calc R . .
C18 C 0.4090(6) 0.4118(5) 0.8620(3) 0.0441(16) Uani 1 1 d . . .
H18 H 0.3918 0.3522 0.8550 0.053 Uiso 1 1 calc R . .
O2 O 0.2858(3) 0.6965(3) 0.85151(19) 0.0277(8) Uani 1 1 d . . .
C19 C 0.2335(4) 0.7111(4) 0.9228(3) 0.0336(13) Uani 1 1 d . . .
H19A H 0.2846 0.6969 0.9628 0.040 Uiso 1 1 calc R . .
H19B H 0.1897 0.6601 0.9443 0.040 Uiso 1 1 calc R . .
C20 C 0.1680(4) 0.8273(4) 0.9012(3) 0.0295(12) Uani 1 1 d . . .
C21 C 0.1563(4) 0.8875(4) 0.9513(3) 0.0309(12) Uani 1 1 d . . .
H21 H 0.1891 0.8550 1.0009 0.037 Uiso 1 1 calc R . .
C22 C 0.0968(4) 0.9948(5) 0.9293(3) 0.0317(12) Uani 1 1 d . . .
H22 H 0.0915 1.0360 0.9636 0.038 Uiso 1 1 calc R . .
N2 N 0.0464(3) 1.0427(3) 0.8615(3) 0.0284(10) Uani 1 1 d . . .
C23 C 0.0566(5) 0.9848(5) 0.8127(3) 0.0359(13) Uani 1 1 d . . .
H23 H 0.0213 1.0186 0.7642 0.043 Uiso 1 1 calc R . .
C24 C 0.1167(5) 0.8776(5) 0.8305(3) 0.0370(13) Uani 1 1 d . . .
H24 H 0.1227 0.8388 0.7945 0.044 Uiso 1 1 calc R . .
S3 S 0.49498(12) 0.68586(13) 0.90881(8) 0.0382(3) Uani 1 1 d . . .
C25 C 0.4556(4) 0.8050(4) 0.8260(3) 0.0287(12) Uani 1 1 d . . .
C26 C 0.4951(4) 0.8078(4) 0.7505(3) 0.0227(10) Uani 1 1 d . . .
C27 C 0.4618(4) 0.9036(4) 0.6876(3) 0.0271(11) Uani 1 1 d . . .
C28 C 0.3925(4) 0.9961(5) 0.7006(4) 0.0368(13) Uani 1 1 d . . .
H28 H 0.3693 1.0608 0.6574 0.044 Uiso 1 1 calc R . .
C29 C 0.3577(5) 0.9943(5) 0.7753(4) 0.0429(15) Uani 1 1 d . . .
H29 H 0.3124 1.0580 0.7841 0.051 Uiso 1 1 calc R . .
C30 C 0.3898(4) 0.8981(5) 0.8377(3) 0.0371(14) Uani 1 1 d . . .
H30 H 0.3658 0.8966 0.8893 0.045 Uiso 1 1 calc R . .
O3 O 0.5659(3) 0.7182(3) 0.73741(19) 0.0240(7) Uani 1 1 d . . .
C31 C 0.6694(4) 0.7056(5) 0.7591(4) 0.0356(13) Uani 1 1 d . . .
H31A H 0.6746 0.6788 0.8170 0.043 Uiso 1 1 calc R . .
H31B H 0.6850 0.7775 0.7392 0.043 Uiso 1 1 calc R . .
C32 C 0.7464(4) 0.6263(4) 0.7257(3) 0.0252(11) Uani 1 1 d . . .
C33 C 0.7173(4) 0.5657(4) 0.6890(3) 0.0262(11) Uani 1 1 d . . .
H33 H 0.6460 0.5710 0.6859 0.031 Uiso 1 1 calc R . .
C34 C 0.7921(4) 0.4968(4) 0.6566(3) 0.0261(11) Uani 1 1 d . . .
H34 H 0.7711 0.4566 0.6302 0.031 Uiso 1 1 calc R . .
N3 N 0.8928(3) 0.4853(3) 0.6616(2) 0.0258(9) Uani 1 1 d . . .
C35 C 0.9217(4) 0.5424(4) 0.6992(3) 0.0271(11) Uani 1 1 d . . .
H35 H 0.9936 0.5328 0.7039 0.032 Uiso 1 1 calc R . .
C36 C 0.8519(4) 0.6138(4) 0.7308(3) 0.0297(12) Uani 1 1 d . . .
H36 H 0.8749 0.6542 0.7560 0.036 Uiso 1 1 calc R . .
S4 S 0.51542(12) 0.92088(12) 0.59184(8) 0.0333(3) Uani 1 1 d . . .
C37 C 0.5008(4) 0.8131(4) 0.5628(3) 0.0244(11) Uani 1 1 d . . .
C38 C 0.4034(4) 0.8016(4) 0.5551(3) 0.0208(10) Uani 1 1 d . . .
C39 C 0.3960(4) 0.7191(4) 0.5277(3) 0.0269(11) Uani 1 1 d . . .
C40 C 0.4860(5) 0.6515(4) 0.5066(3) 0.0355(13) Uani 1 1 d . . .
H40 H 0.4816 0.5942 0.4890 0.043 Uiso 1 1 calc R . .
C41 C 0.5821(5) 0.6670(5) 0.5110(3) 0.0384(14) Uani 1 1 d . . .
H41 H 0.6430 0.6228 0.4943 0.046 Uiso 1 1 calc R . .
C42 C 0.5884(4) 0.7462(5) 0.5396(3) 0.0323(12) Uani 1 1 d . . .
H42 H 0.6544 0.7556 0.5436 0.039 Uiso 1 1 calc R . .
O4 O 0.3166(3) 0.8739(3) 0.57278(19) 0.0249(8) Uani 1 1 d . . .
C43 C 0.2672(4) 0.9597(4) 0.5041(3) 0.0265(11) Uani 1 1 d . . .
H43A H 0.2226 0.9328 0.4800 0.032 Uiso 1 1 calc R . .
H43B H 0.3204 0.9824 0.4649 0.032 Uiso 1 1 calc R . .
C44 C 0.2031(4) 1.0550(4) 0.5282(3) 0.0224(10) Uani 1 1 d . . .
C45 C 0.1820(4) 1.0485(4) 0.6055(3) 0.0324(13) Uani 1 1 d . . .
H45 H 0.2048 0.9805 0.6459 0.039 Uiso 1 1 calc R . .
C46 C 0.1280(4) 1.1403(4) 0.6241(3) 0.0339(13) Uani 1 1 d . . .
H46 H 0.1153 1.1348 0.6778 0.041 Uiso 1 1 calc R . .
N4 N 0.0922(3) 1.2383(3) 0.5686(2) 0.0249(9) Uani 1 1 d . . .
C47 C 0.1101(4) 1.2444(4) 0.4937(3) 0.0296(12) Uani 1 1 d . . .
H47 H 0.0838 1.3128 0.4545 0.035 Uiso 1 1 calc R . .
C48 C 0.1650(4) 1.1566(4) 0.4705(3) 0.0292(12) Uani 1 1 d . . .
H48 H 0.1770 1.1644 0.4164 0.035 Uiso 1 1 calc R . .
C49 C 0.3709(11) 0.1100(14) -0.0311(9) 0.110(7) Uani 0.538(3) 1 d PD A 1
H49 H 0.3652 0.0340 -0.0031 0.132 Uiso 0.538(3) 1 calc PR A 1
Cl7 Cl 0.2688(4) 0.1822(4) -0.0962(2) 0.0820(14) Uani 0.538(3) 1 d PD A 1
Cl9 Cl 0.4827(4) 0.1051(4) -0.0819(3) 0.1063(19) Uani 0.538(3) 1 d PD A 1
Cl8 Cl 0.3681(6) 0.1771(7) 0.0378(3) 0.153(3) Uani 0.538(3) 1 d PD A 1
C51 C 0.1040(14) 0.3602(13) 0.0149(9) 0.120(8) Uani 0.538(3) 1 d PD A 1
H51 H 0.1702 0.3369 -0.0134 0.145 Uiso 0.538(3) 1 calc PR A 1
Cl14 Cl 0.1067(6) 0.4609(5) 0.0532(3) 0.120(2) Uani 0.538(3) 1 d PD . 1
Cl13 Cl 0.0006(7) 0.3975(12) -0.0417(5) 0.120(2) Uani 0.538(3) 1 d PD . 1
Cl15 Cl 0.0859(15) 0.2606(12) 0.0918(8) 0.120(2) Uani 0.538(3) 1 d PD A 1
C50 C 0.1887(13) 0.2189(15) 0.0319(8) 0.107(9) Uani 0.462(3) 1 d PD A 2
H50 H 0.2293 0.1407 0.0548 0.128 Uiso 0.462(3) 1 calc PR A 2
Cl10 Cl 0.1616(6) 0.2475(5) -0.0611(3) 0.111(3) Uani 0.462(3) 1 d PD A 2
Cl11 Cl 0.2534(6) 0.3039(8) 0.0396(3) 0.111(3) Uani 0.462(3) 1 d PD A 2
Cl12 Cl 0.0788(7) 0.2433(7) 0.0763(6) 0.111(3) Uani 0.462(3) 1 d PD A 2



loop_

_atom_site_aniso_label

_atom_site_aniso_U_11

_atom_site_aniso_U_22

_atom_site_aniso_U_33

_atom_site_aniso_U_23

_atom_site_aniso_U_13

_atom_site_aniso_U_12

















































































Hg1 0.03300(14) 0.03179(12) 0.04753(14) -0.01917(10) -0.00638(10) -0.00460(10)
Cl1 0.0959(16) 0.0935(15) 0.0386(9) -0.0186(9) -0.0059(9) -0.0527(13)
Cl2 0.0674(12) 0.0489(10) 0.0611(10) -0.0363(8) 0.0088(9) -0.0173(9)
Hg2 0.03766(15) 0.03072(12) 0.04113(13) -0.01707(10) -0.00113(10) 0.00097(10)
Cl3 0.0262(7) 0.0267(6) 0.0366(7) -0.0064(5) -0.0036(5) -0.0068(6)
Cl4 0.0760(13) 0.0311(8) 0.0469(9) -0.0075(7) 0.0225(8) 0.0085(8)
Hg3 0.02528(12) 0.02293(10) 0.03648(11) -0.01282(8) -0.00060(8) 0.00047(9)
Cl5 0.0325(8) 0.0372(7) 0.0351(7) -0.0085(6) -0.0071(6) -0.0097(6)
Cl6 0.0255(7) 0.0329(7) 0.0349(7) -0.0079(5) -0.0073(5) -0.0114(6)
S1 0.0453(9) 0.0332(7) 0.0350(7) -0.0111(6) -0.0123(6) -0.0146(7)
C1 0.028(3) 0.028(3) 0.048(3) -0.016(2) -0.007(2) -0.010(3)
C2 0.023(3) 0.029(3) 0.042(3) -0.018(2) -0.001(2) -0.012(2)
C3 0.032(3) 0.039(3) 0.045(3) -0.020(3) 0.002(3) -0.019(3)
C4 0.024(4) 0.059(4) 0.072(5) -0.041(4) 0.004(3) -0.016(3)
C5 0.020(3) 0.048(4) 0.106(6) -0.047(4) -0.004(4) -0.006(3)
C6 0.028(4) 0.030(3) 0.076(5) -0.013(3) -0.019(3) -0.006(3)
O1 0.022(2) 0.0249(19) 0.036(2) -0.0106(15) -0.0039(15) -0.0048(16)
C7 0.026(3) 0.032(3) 0.049(3) -0.020(3) -0.009(2) -0.005(3)
C8 0.023(3) 0.033(3) 0.027(3) -0.010(2) -0.004(2) -0.007(2)
C9 0.031(3) 0.026(3) 0.050(3) -0.010(2) -0.004(3) -0.009(3)
C10 0.027(3) 0.034(3) 0.055(4) -0.018(3) 0.001(3) -0.010(3)
N1 0.028(3) 0.032(3) 0.042(3) -0.012(2) -0.006(2) -0.009(2)
C11 0.041(4) 0.026(3) 0.064(4) -0.017(3) -0.009(3) -0.007(3)
C12 0.026(3) 0.035(3) 0.055(4) -0.014(3) -0.010(3) -0.011(3)
S2 0.0597(11) 0.0573(11) 0.0447(9) -0.0172(8) 0.0130(8) -0.0405(9)
C13 0.051(4) 0.030(3) 0.023(3) -0.003(2) 0.003(2) -0.016(3)
C14 0.040(4) 0.025(3) 0.018(2) -0.005(2) 0.005(2) -0.007(2)
C15 0.034(3) 0.032(3) 0.019(2) -0.002(2) 0.001(2) -0.003(3)
C16 0.039(4) 0.047(4) 0.030(3) -0.005(3) -0.004(3) 0.011(3)
C17 0.059(5) 0.040(4) 0.029(3) -0.008(3) -0.003(3) 0.017(3)
C18 0.076(5) 0.023(3) 0.031(3) -0.009(2) 0.006(3) -0.011(3)
O2 0.032(2) 0.0227(18) 0.0253(18) -0.0071(14) 0.0026(15) -0.0042(16)
C19 0.035(3) 0.024(3) 0.030(3) -0.006(2) 0.005(2) 0.003(2)
C20 0.032(3) 0.024(3) 0.027(3) -0.004(2) 0.002(2) -0.006(2)
C21 0.031(3) 0.029(3) 0.025(3) -0.006(2) 0.000(2) -0.001(2)
C22 0.035(3) 0.034(3) 0.027(3) -0.014(2) 0.002(2) -0.009(3)
N2 0.027(3) 0.022(2) 0.033(2) -0.0083(18) -0.0007(19) -0.0028(19)
C23 0.040(4) 0.028(3) 0.034(3) -0.006(2) -0.012(2) -0.001(3)
C24 0.046(4) 0.028(3) 0.037(3) -0.014(2) -0.005(3) -0.004(3)
S3 0.0411(9) 0.0519(9) 0.0228(6) -0.0086(6) -0.0020(6) -0.0180(7)
C25 0.030(3) 0.035(3) 0.027(3) -0.013(2) 0.002(2) -0.014(3)
C26 0.017(3) 0.024(2) 0.030(3) -0.012(2) 0.002(2) -0.006(2)
C27 0.030(3) 0.032(3) 0.026(3) -0.013(2) 0.003(2) -0.017(2)
C28 0.038(4) 0.025(3) 0.052(4) -0.014(3) 0.000(3) -0.012(3)
C29 0.039(4) 0.035(3) 0.065(4) -0.028(3) 0.015(3) -0.016(3)
C30 0.032(3) 0.047(4) 0.042(3) -0.026(3) 0.015(3) -0.018(3)
O3 0.023(2) 0.0239(18) 0.0278(18) -0.0131(14) 0.0018(14) -0.0050(15)
C31 0.024(3) 0.045(3) 0.049(3) -0.032(3) -0.001(2) -0.007(3)
C32 0.025(3) 0.024(3) 0.026(2) -0.007(2) -0.003(2) -0.007(2)
C33 0.020(3) 0.025(3) 0.033(3) -0.009(2) 0.000(2) -0.006(2)
C34 0.025(3) 0.0