####################################################################### 
# 
# This file contains crystal structure data downloaded from the 
# Cambridge Structural Database (CSD) hosted by the Cambridge 
# Crystallographic Data Centre (CCDC).
# 
# Full information about CCDC data access policies and citation 
# guidelines are available at http://www.ccdc.cam.ac.uk/access/V1 
# 
# Audit and citation data items may have been added by the CCDC. 
# Please retain this information to preserve the provenance of 
# this file and to allow appropriate attribution of the data. 
# 
#######################################################################

data_shelxl
_audit_block_doi                 10.5517/cczh05m
_database_code_depnum_ccdc_archive 'CCDC 908150'
loop_
_citation_id
_citation_doi
_citation_year
1 10.1039/C3DT50664A 2013
_audit_update_record             
;
2012-10-29 deposited with the CCDC.	2024-07-13 downloaded from the CCDC.
;
#TrackingRef 'shelxl.cif'


_audit_creation_method           SHELXL-97
_chemical_name_systematic        
;
?
;
_chemical_name_common            ?
_chemical_melting_point          ?
_chemical_formula_moiety         ?
_chemical_formula_sum            'C171 H180 Cd4 Cl N9 Ni4 O31'
_chemical_formula_weight         3577.13
_chemical_absolute_configuration unk

loop_
_atom_type_symbol
_atom_type_description
_atom_type_scat_dispersion_real
_atom_type_scat_dispersion_imag
_atom_type_scat_source
C C 0.0033 0.0016 'International Tables Vol C Tables 4.2.6.8 and 6.1.1.4'
H H 0.0000 0.0000 'International Tables Vol C Tables 4.2.6.8 and 6.1.1.4'
N N 0.0061 0.0033 'International Tables Vol C Tables 4.2.6.8 and 6.1.1.4'
O O 0.0106 0.0060 'International Tables Vol C Tables 4.2.6.8 and 6.1.1.4'
Ni Ni 0.3393 1.1124 'International Tables Vol C Tables 4.2.6.8 and 6.1.1.4'
Cd Cd -0.8075 1.2024 'International Tables Vol C Tables 4.2.6.8 and 6.1.1.4'
Cl Cl 0.1484 0.1585 'International Tables Vol C Tables 4.2.6.8 and 6.1.1.4'

_symmetry_cell_setting           Monoclinic
_symmetry_space_group_name_H-M   P2(1)

loop_
_symmetry_equiv_pos_as_xyz
'x, y, z'
'-x, y+1/2, -z'

_cell_length_a                   23.235(5)
_cell_length_b                   11.855(2)
_cell_length_c                   36.749(7)
_cell_angle_alpha                90.00
_cell_angle_beta                 95.26(3)
_cell_angle_gamma                90.00
_cell_volume                     10080(3)
_cell_formula_units_Z            2
_cell_measurement_temperature    293(2)
_cell_measurement_reflns_used    ?
_cell_measurement_theta_min      ?
_cell_measurement_theta_max      ?

_exptl_crystal_description       block
_exptl_crystal_colour            brown
_exptl_crystal_size_max          0.20
_exptl_crystal_size_mid          0.20
_exptl_crystal_size_min          0.10
_exptl_crystal_density_meas      ?
_exptl_crystal_density_diffrn    1.179
_exptl_crystal_density_method    'not measured'
_exptl_crystal_F_000             3676
_exptl_absorpt_coefficient_mu    0.852
_exptl_absorpt_correction_type   multi-scan
_exptl_absorpt_correction_T_min  0.8481
_exptl_absorpt_correction_T_max  0.9196
_exptl_absorpt_process_details   ?

_exptl_special_details           
;
?
;

_diffrn_ambient_temperature      293(2)
_diffrn_radiation_wavelength     0.71073
_diffrn_radiation_type           MoK\a
_diffrn_radiation_source         'fine-focus sealed tube'
_diffrn_radiation_monochromator  graphite
_diffrn_measurement_device_type  ?
_diffrn_measurement_method       ?
_diffrn_detector_area_resol_mean ?
_diffrn_standards_number         ?
_diffrn_standards_interval_count ?
_diffrn_standards_interval_time  ?
_diffrn_standards_decay_%        ?
_diffrn_reflns_number            70940
_diffrn_reflns_av_R_equivalents  0.0847
_diffrn_reflns_av_sigmaI/netI    0.1229
_diffrn_reflns_limit_h_min       -27
_diffrn_reflns_limit_h_max       27
_diffrn_reflns_limit_k_min       -14
_diffrn_reflns_limit_k_max       13
_diffrn_reflns_limit_l_min       -43
_diffrn_reflns_limit_l_max       43
_diffrn_reflns_theta_min         3.00
_diffrn_reflns_theta_max         25.00
_reflns_number_total             31319
_reflns_number_gt                21044
_reflns_threshold_expression     >2sigma(I)

_computing_data_collection       ?
_computing_cell_refinement       ?
_computing_data_reduction        ?
_computing_structure_solution    'SHELXS-97 (Sheldrick, 1990)'
_computing_structure_refinement  'SHELXL-97 (Sheldrick, 1997)'
_computing_molecular_graphics    ?
_computing_publication_material  ?

_refine_special_details          
;
Refinement of F^2^ against ALL reflections. The weighted R-factor wR and
goodness of fit S are based on F^2^, conventional R-factors R are based
on F, with F set to zero for negative F^2^. The threshold expression of
F^2^ > 2sigma(F^2^) is used only for calculating R-factors(gt) etc. and is
not relevant to the choice of reflections for refinement. R-factors based
on F^2^ are statistically about twice as large as those based on F, and R-
factors based on ALL data will be even larger.
;

_refine_ls_structure_factor_coef Fsqd
_refine_ls_matrix_type           full
_refine_ls_weighting_scheme      calc
_refine_ls_weighting_details     
'calc w=1/[\s^2^(Fo^2^)+(0.1108P)^2^+0.0000P] where P=(Fo^2^+2Fc^2^)/3'
_atom_sites_solution_primary     direct
_atom_sites_solution_secondary   difmap
_atom_sites_solution_hydrogens   geom
_refine_ls_hydrogen_treatment    ?
_refine_ls_extinction_method     none
_refine_ls_extinction_coef       ?
_refine_ls_abs_structure_details 'Flack H D (1983), Acta Cryst. A39, 876-881'
_refine_ls_abs_structure_Flack   0.045(19)
_refine_ls_number_reflns         31319
_refine_ls_number_parameters     1981
_refine_ls_number_restraints     211
_refine_ls_R_factor_all          0.1037
_refine_ls_R_factor_gt           0.0739
_refine_ls_wR_factor_ref         0.1979
_refine_ls_wR_factor_gt          0.1811
_refine_ls_goodness_of_fit_ref   0.978
_refine_ls_restrained_S_all      0.979
_refine_ls_shift/su_max          0.001
_refine_ls_shift/su_mean         0.000

loop_
_atom_site_label
_atom_site_type_symbol
_atom_site_fract_x
_atom_site_fract_y
_atom_site_fract_z
_atom_site_U_iso_or_equiv
_atom_site_adp_type
_atom_site_occupancy
_atom_site_symmetry_multiplicity
_atom_site_calc_flag
_atom_site_refinement_flags
_atom_site_disorder_assembly
_atom_site_disorder_group
Cd2 Cd 0.24157(4) 0.66130(6) 0.746812(19) 0.0460(2) Uani 1 1 d . . .
Cd3 Cd 0.13483(3) 0.98379(6) 0.716646(18) 0.0462(2) Uani 1 1 d . . .
Cd1 Cd 0.40416(4) 0.63183(7) 0.77452(2) 0.0523(2) Uani 1 1 d . . .
Cd4 Cd 0.05657(4) 1.21838(7) 0.77023(2) 0.0525(2) Uani 1 1 d . . .
Ni2 Ni 0.41590(5) 0.49780(11) 0.51367(3) 0.0391(3) Uani 1 1 d . . .
Ni1 Ni 0.08605(6) 0.04119(11) 0.51801(3) 0.0396(3) Uani 1 1 d . . .
Ni3 Ni 0.42185(5) 0.70828(12) 0.97554(3) 0.0435(3) Uani 1 1 d . . .
Ni4 Ni 0.08003(6) 0.18655(12) 0.97485(4) 0.0516(4) Uani 1 1 d . . .
O9 O 0.3646(3) 0.8154(6) 0.96882(18) 0.0466(18) Uani 1 1 d . . .
O10 O 0.4171(3) 0.7259(6) 1.02547(17) 0.0503(18) Uani 1 1 d . . .
C78 C 0.3384(4) 0.8529(10) 0.9383(3) 0.044(3) Uani 1 1 d . . .
N5 N 0.4210(3) 0.6753(7) 0.9262(2) 0.041(2) Uani 1 1 d . . .
C81 C 0.2710(5) 0.9192(9) 0.8719(3) 0.050(3) Uani 1 1 d . . .
N6 N 0.4841(3) 0.6096(8) 0.9819(2) 0.046(2) Uani 1 1 d . . .
C166 C 0.3869(4) 0.7172(9) 0.9004(2) 0.046(3) Uani 1 1 d . . .
H16A H 0.3888 0.6867 0.8772 0.055 Uiso 1 1 calc R . .
C103 C 0.5107(5) 0.5892(10) 0.9472(3) 0.052(3) Uani 1 1 d . . .
H10A H 0.5309 0.5165 0.9485 0.063 Uiso 1 1 calc R . .
C80 C 0.3133(5) 0.8359(9) 0.8714(3) 0.050(3) Uani 1 1 d . . .
H80A H 0.3193 0.8008 0.8495 0.060 Uiso 1 1 calc R . .
C83 C 0.2954(5) 0.9412(9) 0.9395(3) 0.046(3) Uani 1 1 d . . .
C92 C 0.4845(4) 0.5796(9) 1.0457(3) 0.045(3) Uani 1 1 d . . .
C91 C 0.4395(4) 0.6603(9) 1.0512(2) 0.043(2) Uani 1 1 d . . .
C93 C 0.5085(5) 0.5136(10) 1.0754(3) 0.059(3) Uani 1 1 d . . .
H93A H 0.5385 0.4646 1.0714 0.071 Uiso 1 1 calc R . .
C87 C 0.2852(5) 1.0015(9) 0.9745(3) 0.046(3) Uani 1 1 d . . .
C95 C 0.4455(5) 0.6003(10) 1.1144(3) 0.055(3) Uani 1 1 d . . .
H95A H 0.4334 0.6084 1.1377 0.066 Uiso 1 1 calc R . .
C96 C 0.4198(5) 0.6669(10) 1.0879(3) 0.051(3) Uani 1 1 d . . .
C104 C 0.4591(4) 0.5835(8) 0.9172(3) 0.043(3) Uani 1 1 d . . .
H10B H 0.4736 0.6001 0.8936 0.052 Uiso 1 1 calc R . .
C79 C 0.3476(5) 0.8033(10) 0.9037(3) 0.051(3) Uani 1 1 d . . .
O1 O 0.1464(3) 0.1460(6) 0.51964(16) 0.0438(17) Uani 1 1 d . . .
O7 O 0.1993(3) 0.8014(7) 0.7124(2) 0.058(2) Uani 1 1 d . . .
O19 O 0.4618(4) 0.6993(7) 0.7321(2) 0.068(2) Uani 1 1 d . . .
O15 O 0.2835(3) 0.5364(6) 0.78666(19) 0.0518(18) Uani 1 1 d . . .
O17 O 0.4534(4) 0.7708(8) 0.8109(2) 0.067(2) Uani 1 1 d . . .
O25 O 0.2112(4) 1.1230(8) 0.7333(3) 0.078(3) Uani 1 1 d . . .
O1W O 0.3764(3) 0.4993(6) 0.73201(19) 0.060(2) Uani 1 1 d . . .
H1WA H 0.3478 0.5119 0.7164 0.072 Uiso 1 1 d R . .
H1WB H 0.3945 0.4371 0.7317 0.072 Uiso 1 1 d R . .
N2 N 0.0233(3) -0.0510(6) 0.51673(19) 0.0367(19) Uani 1 1 d . . .
O2 O 0.0823(3) 0.0552(6) 0.46846(18) 0.0519(19) Uani 1 1 d . . .
O16 O 0.3613(4) 0.5803(7) 0.8227(2) 0.068(2) Uani 1 1 d . . .
O8 O 0.1857(4) 0.9339(8) 0.6714(2) 0.081(3) Uani 1 1 d . . .
O2W O 0.1746(4) 0.7262(8) 0.7838(2) 0.084(3) Uani 1 1 d . . .
H2WA H 0.1415 0.6955 0.7832 0.101 Uiso 1 1 d R . .
H2WB H 0.1829 0.7814 0.7981 0.101 Uiso 1 1 d R . .
O4 O 0.2649(3) 0.5404(7) 0.70071(18) 0.0550(19) Uani 1 1 d . . .
N1 N 0.0947(3) 0.0109(7) 0.5671(2) 0.039(2) Uani 1 1 d . . .
O5 O 0.3708(3) 0.6246(5) 0.51358(16) 0.0393(16) Uani 1 1 d . . .
O6 O 0.4017(3) 0.5001(6) 0.46288(17) 0.0481(17) Uani 1 1 d . . .
N3 N 0.4283(3) 0.4971(7) 0.5631(2) 0.0405(19) Uani 1 1 d . . .
C2 C 0.1647(4) 0.1577(8) 0.5842(2) 0.040(2) Uani 1 1 d . . .
N4 N 0.4620(3) 0.3727(7) 0.5147(2) 0.040(2) Uani 1 1 d . . .
C1 C 0.1709(4) 0.1967(8) 0.5486(2) 0.039(2) Uani 1 1 d . . .
C6 C 0.2062(4) 0.2929(8) 0.5436(2) 0.038(2) Uani 1 1 d . . .
C3 C 0.1885(4) 0.2187(9) 0.6158(3) 0.049(3) Uani 1 1 d . . .
H3A H 0.1848 0.1916 0.6392 0.058 Uiso 1 1 calc R . .
C4 C 0.2174(4) 0.3194(8) 0.6104(3) 0.037(2) Uani 1 1 d . . .
O3 O 0.1830(3) 0.5070(7) 0.7226(2) 0.059(2) Uani 1 1 d . . .
C63 C 0.4796(4) 0.3242(8) 0.5513(2) 0.040(2) Uani 1 1 d . . .
H63A H 0.5189 0.2937 0.5520 0.048 Uiso 1 1 calc R . .
O11 O 0.1510(3) 0.9554(6) 0.77627(18) 0.0531(19) Uani 1 1 d . . .
C60 C 0.4814(4) 0.3242(9) 0.4862(2) 0.041(2) Uani 1 1 d . . .
H60A H 0.5070 0.2644 0.4906 0.049 Uiso 1 1 calc R . .
C49 C 0.2071(5) 0.8386(9) 0.6806(3) 0.045(3) Uani 1 1 d . . .
O22 O -0.0157(5) 1.3643(9) 0.7710(2) 0.095(3) Uani 1 1 d . . .
O12 O 0.1223(4) 1.1153(8) 0.8011(2) 0.082(3) Uani 1 1 d . . .
C55 C 0.4094(5) 0.4574(9) 0.4012(3) 0.049(3) Uani 1 1 d . . .
C54 C 0.4253(4) 0.4377(10) 0.4384(3) 0.047(3) Uani 1 1 d . . .
O3W O 0.0630(4) 0.8286(15) 0.7133(2) 0.158(7) Uani 1 1 d . . .
H3WA H 0.0745 0.7608 0.7117 0.190 Uiso 1 1 d R . .
H3WB H 0.0272 0.8427 0.7137 0.190 Uiso 1 1 d R . .
O5W O 0.1331(5) 1.3113(8) 0.7473(3) 0.117(4) Uani 1 1 d . . .
H5WA H 0.1374 1.3819 0.7506 0.140 Uiso 1 1 d R . .
H5WB H 0.1569 1.2748 0.7356 0.140 Uiso 1 1 d R . .
C59 C 0.4667(5) 0.3547(9) 0.4493(3) 0.049(3) Uani 1 1 d . . .
N8 N 0.0570(3) 0.1839(8) 0.9258(2) 0.053(2) Uani 1 1 d . . .
O13 O 0.1262(3) 0.3080(6) 0.97121(19) 0.0505(18) Uani 1 1 d . . .
O14 O 0.1053(3) 0.1875(8) 1.02379(19) 0.068(2) Uani 1 1 d . . .
C131 C 0.0858(5) 0.1308(10) 1.0496(3) 0.056(3) Uani 1 1 d . . .
C123 C 0.0853(5) 0.2291(10) 0.9014(3) 0.053(3) Uani 1 1 d . . .
H12A H 0.0733 0.2113 0.8773 0.063 Uiso 1 1 calc R . .
C143 C 0.0051(4) 0.1162(10) 0.9148(3) 0.054(3) Uani 1 1 d . . .
H14A H 0.0079 0.0856 0.8902 0.065 Uiso 1 1 calc R . .
C27 C 0.0583(5) -0.0773(8) 0.5802(2) 0.042(3) Uani 1 1 d . . .
H27A H 0.0491 -0.0581 0.6050 0.051 Uiso 1 1 calc R . .
C15 C 0.0551(4) -0.0110(9) 0.4435(2) 0.041(2) Uani 1 1 d . . .
C26 C 0.0017(4) -0.0709(8) 0.5538(2) 0.035(2) Uani 1 1 d . . .
H26A H -0.0176 -0.1444 0.5536 0.042 Uiso 1 1 calc R . .
C21 C -0.0042(4) -0.0987(9) 0.4892(3) 0.044(3) Uani 1 1 d . . .
H21A H -0.0347 -0.1462 0.4934 0.052 Uiso 1 1 calc R . .
C117 C 0.1488(4) 0.3473(9) 0.9422(3) 0.046(3) Uani 1 1 d . . .
C144 C 0.0106(6) 0.0165(14) 0.9438(5) 0.110(4) Uani 1 1 d U . .
H14B H -0.0283 -0.0124 0.9466 0.132 Uiso 1 1 calc R . .
C16 C 0.0089(5) -0.0840(9) 0.4526(3) 0.050(3) Uani 1 1 d . . .
N7 N 0.0329(4) 0.0639(8) 0.9781(3) 0.059(3) Uani 1 1 d . . .
C46 C 0.3555(4) 0.6306(9) 0.5767(2) 0.040(2) Uani 1 1 d . . .
C72 C 0.4375(4) 0.2315(8) 0.5591(2) 0.046(3) Uani 1 1 d D . .
C64 C 0.4782(4) 0.4252(9) 0.5779(3) 0.043(2) Uani 1 1 d . . .
H64A H 0.4704 0.3968 0.6021 0.052 Uiso 1 1 calc R . .
C43 C 0.2780(5) 0.8006(9) 0.5609(3) 0.047(3) Uani 1 1 d . . .
H43A H 0.2512 0.8582 0.5560 0.056 Uiso 1 1 calc R . .
C118 C 0.1899(4) 0.4351(9) 0.9454(3) 0.044(3) Uani 1 1 d . . .
C5 C 0.2267(4) 0.3506(8) 0.5749(3) 0.041(2) Uani 1 1 d . . .
H5A H 0.2484 0.4153 0.5719 0.049 Uiso 1 1 calc R . .
C44 C 0.2854(5) 0.7598(9) 0.5970(3) 0.045(3) Uani 1 1 d . . .
C119 C 0.2174(5) 0.4668(9) 0.9147(3) 0.050(3) Uani 1 1 d . . .
H11A H 0.2459 0.5221 0.9172 0.061 Uiso 1 1 calc R . .
C41 C 0.3457(4) 0.6672(9) 0.5404(3) 0.044(3) Uani 1 1 d . . .
C45 C 0.3244(4) 0.6758(9) 0.6041(3) 0.045(3) Uani 1 1 d . . .
H45A H 0.3306 0.6475 0.6278 0.054 Uiso 1 1 calc R . .
O23 O 0.0493(4) 1.1252(7) 0.72021(19) 0.063(2) Uani 1 1 d . . .
C47 C 0.2503(5) 0.8119(9) 0.6230(3) 0.048(3) Uani 1 1 d . . .
H47A H 0.2288 0.8745 0.6148 0.058 Uiso 1 1 calc R . .
C84 C 0.2338(5) 0.9416(9) 0.8395(3) 0.052(3) Uani 1 1 d . . .
H84A H 0.2421 0.9019 0.8188 0.062 Uiso 1 1 calc R . .
C167 C 0.5050(4) 0.5644(9) 1.0120(3) 0.050(3) Uani 1 1 d . . .
H16B H 0.5368 0.5173 1.0109 0.059 Uiso 1 1 calc R . .
C58 C 0.4940(4) 0.2947(9) 0.4225(3) 0.045(3) Uani 1 1 d . . .
H58A H 0.5220 0.2412 0.4299 0.054 Uiso 1 1 calc R . .
C105 C 0.5540(4) 0.6847(9) 0.9394(2) 0.052(3) Uani 1 1 d D . .
C8 C 0.2320(5) 0.3967(11) 0.6406(3) 0.060(3) Uani 1 1 d . . .
H8A H 0.2623 0.4469 0.6385 0.072 Uiso 1 1 calc R . .
C137 C 0.0174(5) 0.0232(10) 1.0081(3) 0.061(3) Uani 1 1 d . . .
H13A H -0.0115 -0.0312 1.0057 0.073 Uiso 1 1 calc R . .
C127 C 0.2065(5) 0.4945(10) 0.9822(3) 0.055(3) Uani 1 1 d . . .
C101 C 0.5105(5) 0.4409(10) 1.1379(3) 0.059(3) Uani 1 1 d . . .
H10C H 0.5371 0.3869 1.1319 0.071 Uiso 1 1 calc R . .
C139 C 0.1647(6) 0.2179(12) 1.0957(3) 0.067(3) Uani 1 1 d . . .
C125 C 0.2839(4) 0.5084(9) 0.8501(3) 0.048(3) Uani 1 1 d . . .
H12B H 0.3025 0.5276 0.8727 0.058 Uiso 1 1 calc R . .
C18 C -0.0065(5) -0.1538(9) 0.3905(3) 0.052(3) Uani 1 1 d . . .
C168 C 0.3628(5) 0.5397(12) 0.3888(3) 0.066(4) Uani 1 1 d . . .
C66 C 0.5354(4) 0.4882(10) 0.5815(3) 0.065(4) Uani 1 1 d D . .
C136 C 0.1100(5) 0.1447(11) 1.0870(3) 0.063(3) Uani 1 1 d . . .
C88 C 0.2422(5) 1.1006(10) 0.9682(3) 0.066(4) Uani 1 1 d . . .
H88A H 0.2575 1.1551 0.9524 0.080 Uiso 1 1 calc R . .
H88B H 0.2366 1.1354 0.9912 0.080 Uiso 1 1 calc R . .
H88C H 0.2059 1.0728 0.9572 0.080 Uiso 1 1 calc R . .
C9 C 0.2046(5) 0.4004(11) 0.6714(3) 0.059(3) Uani 1 1 d . . .
H9A H 0.1755 0.3483 0.6743 0.070 Uiso 1 1 calc R . .
C99 C 0.3821(7) 0.8664(11) 1.0854(4) 0.084(5) Uani 1 1 d . . .
H99A H 0.4153 0.8920 1.1006 0.101 Uiso 1 1 calc R . .
H99B H 0.3496 0.9136 1.0891 0.101 Uiso 1 1 calc R . .
H99C H 0.3900 0.8701 1.0602 0.101 Uiso 1 1 calc R . .
C85 C 0.1894(5) 1.0109(10) 0.8351(3) 0.064(3) Uani 1 1 d . . .
H85A H 0.1820 1.0542 0.8552 0.077 Uiso 1 1 calc R . .
C124 C 0.2347(5) 0.4522(10) 0.8493(3) 0.053(3) Uani 1 1 d . . .
H12C H 0.2180 0.4321 0.8262 0.064 Uiso 1 1 calc R . .
C151 C 0.0451(6) -0.0750(14) 0.9330(5) 0.121(4) Uani 1 1 d DU . .
C22 C 0.1168(6) 0.0685(11) 0.3944(3) 0.064(4) Uani 1 1 d . . .
C20 C 0.0681(5) -0.0101(9) 0.4060(3) 0.049(3) Uani 1 1 d . . .
C121 C 0.1607(4) 0.3400(9) 0.8755(3) 0.048(3) Uani 1 1 d . . .
H12D H 0.1497 0.3109 0.8524 0.057 Uiso 1 1 calc R . .
C90 C 0.3386(5) 1.0476(10) 0.9944(3) 0.059(3) Uani 1 1 d . . .
H90A H 0.3562 1.1006 0.9791 0.070 Uiso 1 1 calc R . .
H90B H 0.3651 0.9870 1.0007 0.070 Uiso 1 1 calc R . .
H90C H 0.3291 1.0847 1.0163 0.070 Uiso 1 1 calc R . .
C97 C 0.3688(5) 0.7472(10) 1.0951(3) 0.059(3) Uani 1 1 d . . .
C61 C 0.5117(5) 0.2482(10) 0.3600(3) 0.056(3) Uani 1 1 d . . .
H61A H 0.5379 0.1952 0.3702 0.068 Uiso 1 1 calc R . .
C126 C 0.3099(5) 0.5413(9) 0.8178(3) 0.046(3) Uani 1 1 d . . .
C98 C 0.3157(6) 0.7062(14) 1.0720(4) 0.094(5) Uani 1 1 d . . .
H98A H 0.2835 0.7541 1.0759 0.112 Uiso 1 1 calc R . .
H98B H 0.3071 0.6303 1.0789 0.112 Uiso 1 1 calc R . .
H98C H 0.3227 0.7080 1.0467 0.112 Uiso 1 1 calc R . .
C77 C 0.4572(7) 0.1229(9) 0.5631(6) 0.127(5) Uani 1 1 d DU . .
H77A H 0.4963 0.1084 0.5617 0.153 Uiso 1 1 calc R . .
C135 C 0.0851(5) 0.0894(11) 1.1146(3) 0.063(3) Uani 1 1 d . . .
H13B H 0.1001 0.1026 1.1386 0.076 Uiso 1 1 calc R . .
C120 C 0.2035(4) 0.4176(11) 0.8801(3) 0.053(3) Uani 1 1 d . . .
C19 C 0.0387(5) -0.0810(10) 0.3820(3) 0.057(3) Uani 1 1 d . . .
H19A H 0.0489 -0.0817 0.3581 0.069 Uiso 1 1 calc R . .
C48 C 0.2454(5) 0.7791(9) 0.6583(3) 0.057(3) Uani 1 1 d . . .
H48A H 0.2668 0.7181 0.6680 0.068 Uiso 1 1 calc R . .
C10 C 0.2188(5) 0.4832(9) 0.7005(3) 0.050(3) Uani 1 1 d . . .
C140 C 0.2133(5) 0.1725(13) 1.0741(4) 0.086(4) Uani 1 1 d . . .
H14C H 0.2211 0.0953 1.0806 0.103 Uiso 1 1 calc R . .
H14D H 0.2476 0.2167 1.0797 0.103 Uiso 1 1 calc R . .
H14E H 0.2016 0.1772 1.0484 0.103 Uiso 1 1 calc R . .
C82 C 0.2654(5) 0.9700(10) 0.9064(3) 0.057(3) Uani 1 1 d . . .
H82A H 0.2389 1.0287 0.9068 0.068 Uiso 1 1 calc R . .
O20 O 0.4329(4) 0.5999(8) 0.6826(2) 0.081(3) Uani 1 1 d . . .
O18 O 0.5004(5) 0.8640(9) 0.7687(