####################################################################### 
# 
# This file contains crystal structure data downloaded from the 
# Cambridge Structural Database (CSD) hosted by the Cambridge 
# Crystallographic Data Centre (CCDC).
# 
# Full information about CCDC data access policies and citation 
# guidelines are available at http://www.ccdc.cam.ac.uk/access/V1 
# 
# Audit and citation data items may have been added by the CCDC. 
# Please retain this information to preserve the provenance of 
# this file and to allow appropriate attribution of the data. 
# 
#######################################################################

data_6
_audit_block_doi                 10.5517/ccn6n2k
_database_code_depnum_ccdc_archive 'CCDC 602208'
loop_
_citation_id
_citation_doi
_citation_year
1 10.1016/j.ica.2006.09.024 2007
_audit_update_record             
;
2006-03-19 deposited with the CCDC.	2024-07-13 downloaded from the CCDC.
;

_audit_creation_method           SHELXL-97
_chemical_name_systematic        
;
?
;
_chemical_name_common            ?
_chemical_melting_point          ?
_chemical_formula_moiety         ?
_chemical_formula_sum            'C12 H18 Co N6 O12'
_chemical_formula_weight         497.25

loop_
_atom_type_symbol
_atom_type_description
_atom_type_scat_dispersion_real
_atom_type_scat_dispersion_imag
_atom_type_scat_source
C C 0.0033 0.0016 'International Tables Vol C Tables 4.2.6.8 and 6.1.1.4'
H H 0.0000 0.0000 'International Tables Vol C Tables 4.2.6.8 and 6.1.1.4'
N N 0.0061 0.0033 'International Tables Vol C Tables 4.2.6.8 and 6.1.1.4'
O O 0.0106 0.0060 'International Tables Vol C Tables 4.2.6.8 and 6.1.1.4'
Co Co 0.3494 0.9721 'International Tables Vol C Tables 4.2.6.8 and 6.1.1.4'

_symmetry_cell_setting           Monoclinic
_symmetry_space_group_name_H-M   C2/c

loop_
_symmetry_equiv_pos_as_xyz
'x, y, z'
'-x, y, -z+1/2'
'x+1/2, y+1/2, z'
'-x+1/2, y+1/2, -z+1/2'
'-x, -y, -z'
'x, -y, z-1/2'
'-x+1/2, -y+1/2, -z'
'x+1/2, -y+1/2, z-1/2'

_cell_length_a                   26.703(7)
_cell_length_b                   11.683(2)
_cell_length_c                   7.315(2)
_cell_angle_alpha                90.00
_cell_angle_beta                 91.206(4)
_cell_angle_gamma                90.00
_cell_volume                     2281.5(10)
_cell_formula_units_Z            4
_cell_measurement_temperature    293(2)
_cell_measurement_reflns_used    2919
_cell_measurement_theta_min      2.88
_cell_measurement_theta_max      26.40

_exptl_crystal_description       Block
_exptl_crystal_colour            Pink
_exptl_crystal_size_max          0.34
_exptl_crystal_size_mid          0.19
_exptl_crystal_size_min          0.11
_exptl_crystal_density_meas      NONE
_exptl_crystal_density_diffrn    1.448
_exptl_crystal_density_method    'not measured'
_exptl_crystal_F_000             1020
_exptl_absorpt_coefficient_mu    0.818
_exptl_absorpt_correction_type   MULTI-SCAN
_exptl_absorpt_correction_T_min  0.931266
_exptl_absorpt_correction_T_max  1.000000
_exptl_absorpt_process_details   SADABS

_exptl_special_details           
;
?
;

_diffrn_ambient_temperature      293(2)
_diffrn_radiation_wavelength     0.71073
_diffrn_radiation_type           MoK\a
_diffrn_radiation_source         'fine-focus sealed tube'
_diffrn_radiation_monochromator  graphite
_diffrn_measurement_device_type  'APEX II CCD area detector'
_diffrn_measurement_method       'phi and omega scans'
_diffrn_detector_area_resol_mean ?
_diffrn_standards_number         ?
_diffrn_standards_interval_count ?
_diffrn_standards_interval_time  ?
_diffrn_standards_decay_%        ?
_diffrn_reflns_number            6094
_diffrn_reflns_av_R_equivalents  0.0204
_diffrn_reflns_av_sigmaI/netI    0.0187
_diffrn_reflns_limit_h_min       -26
_diffrn_reflns_limit_h_max       31
_diffrn_reflns_limit_k_min       -13
_diffrn_reflns_limit_k_max       13
_diffrn_reflns_limit_l_min       -8
_diffrn_reflns_limit_l_max       6
_diffrn_reflns_theta_min         1.90
_diffrn_reflns_theta_max         25.03
_reflns_number_total             2027
_reflns_number_gt                1773
_reflns_threshold_expression     >2sigma(I)

_computing_data_collection       'Bruker APEX II'
_computing_cell_refinement       'Bruker APEX II'
_computing_data_reduction        'Bruker SAINT'
_computing_structure_solution    'SHELXS-97 (Sheldrick, 1990)'
_computing_structure_refinement  'SHELXL-97 (Sheldrick, 1997)'
_computing_molecular_graphics    'Bruker SHELXTL'
_computing_publication_material  'Bruker SHELXTL'

_refine_special_details          
;
Refinement of F^2^ against ALL reflections. The weighted R-factor wR and
goodness of fit S are based on F^2^, conventional R-factors R are based
on F, with F set to zero for negative F^2^. The threshold expression of
F^2^ > 2sigma(F^2^) is used only for calculating R-factors(gt) etc. and is
not relevant to the choice of reflections for refinement. R-factors based
on F^2^ are statistically about twice as large as those based on F, and R-
factors based on ALL data will be even larger.
;

_refine_ls_structure_factor_coef Fsqd
_refine_ls_matrix_type           full
_refine_ls_weighting_scheme      calc
_refine_ls_weighting_details     
'calc w=1/[\s^2^(Fo^2^)+(0.0988P)^2^+2.5926P] where P=(Fo^2^+2Fc^2^)/3'
_atom_sites_solution_primary     direct
_atom_sites_solution_secondary   difmap
_atom_sites_solution_hydrogens   geom
_refine_ls_hydrogen_treatment    constr
_refine_ls_extinction_method     none
_refine_ls_extinction_coef       ?
_refine_ls_number_reflns         2027
_refine_ls_number_parameters     166
_refine_ls_number_restraints     0
_refine_ls_R_factor_all          0.0409
_refine_ls_R_factor_gt           0.0361
_refine_ls_wR_factor_ref         0.1379
_refine_ls_wR_factor_gt          0.1337
_refine_ls_goodness_of_fit_ref   1.039
_refine_ls_restrained_S_all      1.038
_refine_ls_shift/su_max          0.000
_refine_ls_shift/su_mean         0.000

loop_
_atom_site_label
_atom_site_type_symbol
_atom_site_fract_x
_atom_site_fract_y
_atom_site_fract_z
_atom_site_U_iso_or_equiv
_atom_site_adp_type
_atom_site_occupancy
_atom_site_symmetry_multiplicity
_atom_site_calc_flag
_atom_site_refinement_flags
_atom_site_disorder_assembly
_atom_site_disorder_group
Co1 Co 0.2500 0.2500 0.5000 0.0292(2) Uani 1 2 d S . .
O1 O 0.5000 0.3872(3) 0.2500 0.0477(7) Uani 1 2 d S . .
O2 O 0.26774(8) 0.11085(16) 0.3464(3) 0.0448(5) Uani 1 1 d D . .
H2A H 0.2761 0.0470 0.3936 0.067 Uiso 1 1 d RD . .
H2B H 0.2724 0.1189 0.2325 0.067 Uiso 1 1 d RD . .
O3 O 0.19729(12) 0.2276(2) 0.0827(4) 0.0650(8) Uani 1 1 d . . .
O4 O 0.20200(10) 0.40591(18) 0.0094(3) 0.0515(6) Uani 1 1 d . . .
O5 O 0.21871(8) 0.35422(17) 0.2847(2) 0.0424(5) Uani 1 1 d . . .
N1 N 0.20587(9) 0.32632(19) 0.1245(3) 0.0362(5) Uani 1 1 d . . .
N2 N 0.32127(9) 0.3251(2) 0.4366(3) 0.0390(6) Uani 1 1 d . . .
N3 N 0.47487(10) 0.5655(2) 0.2771(5) 0.0616(8) Uani 1 1 d . . .
C1 C 0.46227(11) 0.4602(3) 0.2904(4) 0.0443(7) Uani 1 1 d . . .
C2 C 0.41383(11) 0.4133(3) 0.3423(4) 0.0430(7) Uani 1 1 d . . .
C3 C 0.40838(12) 0.2984(3) 0.3873(6) 0.0584(9) Uani 1 1 d . . .
H3 H 0.4357 0.2491 0.3860 0.070 Uiso 1 1 calc R . .
C4 C 0.36212(14) 0.2591(3) 0.4335(6) 0.0549(10) Uani 1 1 d . . .
H4 H 0.3589 0.1823 0.4644 0.066 Uiso 1 1 calc R . .
C5 C 0.32686(10) 0.4357(2) 0.3960(4) 0.0412(7) Uani 1 1 d . . .
H5 H 0.2989 0.4831 0.3998 0.049 Uiso 1 1 calc R . .
C6 C 0.37215(11) 0.4830(3) 0.3486(4) 0.0437(7) Uani 1 1 d . . .
H6 H 0.3745 0.5606 0.3215 0.052 Uiso 1 1 calc R . .
O6 O 0.4332(5) -0.1606(10) 0.421(2) 0.191(6) Uani 0.50 1 d P A 1
O7 O 0.4593(6) 0.0191(11) 0.398(3) 0.224(7) Uani 0.50 1 d P B 2
O8 O 0.4185(5) -0.0592(16) 0.400(5) 0.184(12) Uani 0.25 1 d P C 3
O9 O 0.4837(8) -0.111(2) 0.567(4) 0.167(9) Uani 0.25 1 d P D 4

loop_
_atom_site_aniso_label
_atom_site_aniso_U_11
_atom_site_aniso_U_22
_atom_site_aniso_U_33
_atom_site_aniso_U_23
_atom_site_aniso_U_13
_atom_site_aniso_U_12
Co1 0.0342(3) 0.0254(3) 0.0282(3) 0.00108(17) 0.0068(2) 0.00142(17)
O1 0.0323(14) 0.0437(16) 0.068(2) 0.000 0.0135(13) 0.000
O2 0.0718(14) 0.0324(10) 0.0306(10) 0.0009(8) 0.0093(9) 0.0111(9)
O3 0.094(2) 0.0336(12) 0.0664(17) -0.0038(12) -0.0173(15) -0.0087(12)
O4 0.0869(16) 0.0367(11) 0.0310(11) 0.0046(9) 0.0038(10) 0.0050(10)
O5 0.0622(13) 0.0359(11) 0.0291(10) 0.0014(8) -0.0016(9) 0.0039(9)
N1 0.0431(12) 0.0297(13) 0.0358(13) 0.0025(10) 0.0034(10) 0.0003(9)
N2 0.0360(12) 0.0362(13) 0.0452(14) 0.0061(10) 0.0083(10) 0.0036(9)
N3 0.0366(14) 0.0472(17) 0.102(2) -0.0008(16) 0.0181(15) 0.0027(12)
C1 0.0338(14) 0.0455(17) 0.0539(18) 0.0009(14) 0.0090(12) 0.0029(12)
C2 0.0346(15) 0.0451(17) 0.0495(17) 0.0024(13) 0.0076(12) 0.0010(12)
C3 0.0382(16) 0.0482(19) 0.089(3) 0.0119(19) 0.0142(16) 0.0122(14)
C4 0.0438(19) 0.0378(18) 0.083(3) 0.0160(15) 0.0121(18) 0.0066(12)
C5 0.0347(14) 0.0363(15) 0.0529(17) 0.0038(13) 0.0074(12) 0.0042(11)
C6 0.0381(15) 0.0363(15) 0.0569(18) 0.0057(13) 0.0082(13) 0.0010(12)
O6 0.183(11) 0.097(8) 0.292(16) -0.024(9) 0.011(12) -0.021(7)
O7 0.197(12) 0.118(9) 0.35(2) 0.051(12) -0.056(13) 0.005(9)
O8 0.061(8) 0.076(10) 0.41(4) 0.019(16) -0.017(14) -0.025(8)
O9 0.130(16) 0.157(18) 0.21(2) 0.058(18) -0.018(16) -0.001(14)

_geom_special_details            
;
All esds (except the esd in the dihedral angle between two l.s. planes)
are estimated using the full covariance matrix. The cell esds are taken
into account individually in the estimation of esds in distances, angles
and torsion angles; correlations between esds in cell parameters are only
used when they are defined by crystal symmetry. An approximate (isotropic)
treatment of cell esds is used for estimating esds involving l.s. planes.
;

loop_
_geom_bond_atom_site_label_1
_geom_bond_atom_site_label_2
_geom_bond_distance
_geom_bond_site_symmetry_2
_geom_bond_publ_flag
Co1 O2 2.0378(19) 7_556 ?
Co1 O2 2.0378(19) . ?
Co1 O5 2.1462(19) . ?
Co1 O5 2.1463(19) 7_556 ?
Co1 N2 2.155(2) 7_556 ?
Co1 N2 2.155(2) . ?
O1 C1 1.358(4) . ?
O1 C1 1.358(4) 2_655 ?
O3 N1 1.214(3) . ?
O4 N1 1.258(3) . ?
O5 N1 1.256(3) . ?
N2 C5 1.335(4) . ?
N2 C4 1.336(4) . ?
N3 C1 1.279(4) . ?
N3 N3 1.408(5) 2_655 ?
C1 C2 1.462(4) . ?
C2 C6 1.381(4) . ?
C2 C3 1.391(5) . ?
C3 C4 1.367(5) . ?
C5 C6 1.380(4) . ?

loop_
_geom_angle_atom_site_label_1
_geom_angle_atom_site_label_2
_geom_angle_atom_site_label_3
_geom_angle
_geom_angle_site_symmetry_1
_geom_angle_site_symmetry_3
_geom_angle_publ_flag
O2 Co1 O2 179.998(1) 7_556 . ?
O2 Co1 O5 82.00(8) 7_556 . ?
O2 Co1 O5 98.00(8) . . ?
O2 Co1 O5 98.00(8) 7_556 7_556 ?
O2 Co1 O5 82.00(8) . 7_556 ?
O5 Co1 O5 180.0 . 7_556 ?
O2 Co1 N2 89.39(9) 7_556 7_556 ?
O2 Co1 N2 90.61(9) . 7_556 ?
O5 Co1 N2 93.27(9) . 7_556 ?
O5 Co1 N2 86.74(9) 7_556 7_556 ?
O2 Co1 N2 90.61(9) 7_556 . ?
O2 Co1 N2 89.39(9) . . ?
O5 Co1 N2 86.73(9) . . ?
O5 Co1 N2 93.27(9) 7_556 . ?
N2 Co1 N2 180.0 7_556 . ?
C1 O1 C1 102.1(3) . 2_655 ?
N1 O5 Co1 129.15(17) . . ?
O3 N1 O5 121.8(2) . . ?
O3 N1 O4 121.4(3) . . ?
O5 N1 O4 116.7(2) . . ?
C5 N2 C4 117.3(3) . . ?
C5 N2 Co1 123.04(18) . . ?
C4 N2 Co1 119.6(2) . . ?
C1 N3 N3 105.97(17) . 2_655 ?
N3 C1 O1 113.0(3) . . ?
N3 C1 C2 128.0(3) . . ?
O1 C1 C2 119.0(3) . . ?
C6 C2 C3 118.2(3) . . ?
C6 C2 C1 120.4(3) . . ?
C3 C2 C1 121.4(3) . . ?
C4 C3 C2 118.8(3) . . ?
N2 C4 C3 123.6(3) . . ?
N2 C5 C6 123.1(3) . . ?
C5 C6 C2 118.9(3) . . ?

loop_
_geom_torsion_atom_site_label_1
_geom_torsion_atom_site_label_2
_geom_torsion_atom_site_label_3
_geom_torsion_atom_site_label_4
_geom_torsion
_geom_torsion_site_symmetry_1
_geom_torsion_site_symmetry_2
_geom_torsion_site_symmetry_3
_geom_torsion_site_symmetry_4
_geom_torsion_publ_flag
O2 Co1 O5 N1 -166.5(2) 7_556 . . . ?
O2 Co1 O5 N1 13.4(2) . . . . ?
N2 Co1 O5 N1 -77.6(2) 7_556 . . . ?
N2 Co1 O5 N1 102.4(2) . . . . ?
Co1 O5 N1 O3 20.0(4) . . . . ?
Co1 O5 N1 O4 -160.40(19) . . . . ?
O2 Co1 N2 C5 -41.6(2) 7_556 . . . ?
O2 Co1 N2 C5 138.4(2) . . . . ?
O5 Co1 N2 C5 40.4(2) . . . . ?
O5 Co1 N2 C5 -139.6(2) 7_556 . . . ?
O2 Co1 N2 C4 139.7(3) 7_556 . . . ?
O2 Co1 N2 C4 -40.3(3) . . . . ?
O5 Co1 N2 C4 -138.3(3) . . . . ?
O5 Co1 N2 C4 41.7(3) 7_556 . . . ?
N3 N3 C1 O1 0.2(5) 2_655 . . . ?
N3 N3 C1 C2 -179.9(3) 2_655 . . . ?
C1 O1 C1 N3 -0.1(2) 2_655 . . . ?
C1 O1 C1 C2 180.0(4) 2_655 . . . ?
N3 C1 C2 C6 13.0(6) . . . . ?
O1 C1 C2 C6 -167.1(3) . . . . ?
N3 C1 C2 C3 -166.6(4) . . . . ?
O1 C1 C2 C3 13.3(5) . . . . ?
C6 C2 C3 C4 0.8(6) . . . . ?
C1 C2 C3 C4 -179.5(4) . . . . ?
C5 N2 C4 C3 -1.6(6) . . . . ?
Co1 N2 C4 C3 177.2(3) . . . . ?
C2 C3 C4 N2 0.6(7) . . . . ?
C4 N2 C5 C6 1.2(5) . . . . ?
Co1 N2 C5 C6 -177.5(2) . . . . ?
N2 C5 C6 C2 0.1(5) . . . . ?
C3 C2 C6 C5 -1.1(5) . . . . ?
C1 C2 C6 C5 179.2(3) . . . . ?

_diffrn_measured_fraction_theta_max 0.999
_diffrn_reflns_theta_full        25.03
_diffrn_measured_fraction_theta_full 0.999
_refine_diff_density_max         0.579
_refine_diff_density_min         -0.217
_refine_diff_density_rms         0.091


