####################################################################### 
# 
# This file contains crystal structure data downloaded from the 
# Cambridge Structural Database (CSD) hosted by the Cambridge 
# Crystallographic Data Centre (CCDC).
# 
# Full information about CCDC data access policies and citation 
# guidelines are available at http://www.ccdc.cam.ac.uk/access/V1 
# 
# Audit and citation data items may have been added by the CCDC. 
# Please retain this information to preserve the provenance of 
# this file and to allow appropriate attribution of the data. 
# 
#######################################################################

data_n0035s
_audit_block_doi                 10.5517/ccyzsh5
_database_code_depnum_ccdc_archive 'CCDC 893528'
loop_
_citation_id
_citation_doi
_citation_year
1 10.1039/C3CE40198G 2013
_audit_update_record             
;
2012-07-24 deposited with the CCDC.	2024-07-13 downloaded from the CCDC.
;
#TrackingRef 'n0035sforpub.txt'


_audit_creation_method           SHELXL-97
_chemical_name_systematic        
;
?
;
_chemical_name_common            ?
_chemical_melting_point          ?
_chemical_formula_moiety         'C40 H24 Br N2 O13 Zn2, 5(C3 H7 N O)'
_chemical_formula_sum            'C55 H59 Br N7 O18 Zn2'
_chemical_formula_weight         1316.74

loop_
_atom_type_symbol
_atom_type_description
_atom_type_scat_dispersion_real
_atom_type_scat_dispersion_imag
_atom_type_scat_source
C C 0.0181 0.0091 'International Tables Vol C Tables 4.2.6.8 and 6.1.1.4'
H H 0.0000 0.0000 'International Tables Vol C Tables 4.2.6.8 and 6.1.1.4'
N N 0.0311 0.0180 'International Tables Vol C Tables 4.2.6.8 and 6.1.1.4'
O O 0.0492 0.0322 'International Tables Vol C Tables 4.2.6.8 and 6.1.1.4'
Zn Zn -1.5491 0.6778 'International Tables Vol C Tables 4.2.6.8 and 6.1.1.4'
Br Br -0.6763 1.2805 'International Tables Vol C Tables 4.2.6.8 and 6.1.1.4'

_symmetry_cell_setting           Triclinic
_symmetry_space_group_name_H-M   P-1
_symmetry_space_group_name_Hall  '-P 1'




loop_
_symmetry_equiv_pos_as_xyz
'x, y, z'
'-x, -y, -z'

_cell_length_a                   9.2506(6)
_cell_length_b                   14.4032(10)
_cell_length_c                   27.384(2)
_cell_angle_alpha                97.587(6)
_cell_angle_beta                 93.139(6)
_cell_angle_gamma                106.920(5)
_cell_volume                     3443.4(4)
_cell_formula_units_Z            2
_cell_measurement_temperature    100(2)
_cell_measurement_reflns_used    3258
_cell_measurement_theta_min      5.09
_cell_measurement_theta_max      49.60

_exptl_crystal_description       needle
_exptl_crystal_colour            colourless
_exptl_crystal_size_max          0.271
_exptl_crystal_size_mid          0.138
_exptl_crystal_size_min          0.07
_exptl_crystal_density_meas      ?
_exptl_crystal_density_diffrn    1.270
_exptl_crystal_density_method    'not measured'
_exptl_crystal_F_000             1354
_exptl_absorpt_coefficient_mu    2.094
_exptl_absorpt_correction_type   multi-scan
_exptl_absorpt_correction_T_min  0.709182
_exptl_absorpt_correction_T_max  1.0
_exptl_absorpt_process_details   'SADABS v2.03 (Bruker)'

_exptl_special_details           
;
?
;

_diffrn_ambient_temperature      100(2)
_diffrn_radiation_wavelength     1.54178
_diffrn_radiation_type           CuK\a
_diffrn_radiation_source         'fine-focus sealed tube'
_diffrn_radiation_monochromator  graphite
_diffrn_measurement_device_type  'CCD area detector'
_diffrn_measurement_method       'phi and omega scans'
_diffrn_detector_area_resol_mean ?
_diffrn_standards_number         ?
_diffrn_standards_interval_count ?
_diffrn_standards_interval_time  ?
_diffrn_standards_decay_%        ?
_diffrn_reflns_number            13343
_diffrn_reflns_av_R_equivalents  0.0838
_diffrn_reflns_av_sigmaI/netI    0.1604
_diffrn_reflns_limit_h_min       -8
_diffrn_reflns_limit_h_max       6
_diffrn_reflns_limit_k_min       -14
_diffrn_reflns_limit_k_max       13
_diffrn_reflns_limit_l_min       -27
_diffrn_reflns_limit_l_max       26
_diffrn_reflns_theta_min         4.24
_diffrn_reflns_theta_max         50.26
_reflns_number_total             6665
_reflns_number_gt                3559
_reflns_threshold_expression     >2sigma(I)

_computing_data_collection       'APEX2 V2.1-4 (Bruker, 2007)'
_computing_cell_refinement       'SAINT V7.23A (Bruker, 2005)'
_computing_data_reduction        'Bruker SAINT'
_computing_structure_solution    'SHELXS-97 (Sheldrick, 1990)'
_computing_structure_refinement  'SHELXL-97 (Sheldrick, 1997)'
_computing_molecular_graphics    'Bruker SHELXTL'
_computing_publication_material  'Bruker SHELXTL'

_refine_special_details          
;
Refinement of F^2^ against ALL reflections. The weighted R-factor wR and
goodness of fit S are based on F^2^, conventional R-factors R are based
on F, with F set to zero for negative F^2^. The threshold expression of
F^2^ > 2sigma(F^2^) is used only for calculating R-factors(gt) etc. and is
not relevant to the choice of reflections for refinement. R-factors based
on F^2^ are statistically about twice as large as those based on F, and R-
factors based on ALL data will be even larger.

Data were scaled for absorption and other effects using the program SADABS
(v2.03, Bruker).


Data for this compound were very weak and, though collected to a resolution of
at least 0.83Ang, no reflections above 3 sigma were evident past approximately
1.0Ang.

The thermal parameters for the tetra-acid group are large an indicate some
degree of disorder. Attempts to model this disorder did not result in any
significant improvement in the refinement. While the thermal parameters of
the other portions of this structure were subject to isotropic restraints,
the thermal parameters of the tetra-acid moiety were restrained only with
DELU and SIMU so as to better represent the suggested disorder.

;

_refine_ls_structure_factor_coef Fsqd
_refine_ls_matrix_type           full
_refine_ls_weighting_scheme      calc
_refine_ls_weighting_details     
'calc w=1/[\s^2^(Fo^2^)+(0.1506P)^2^+0.0000P] where P=(Fo^2^+2Fc^2^)/3'
_atom_sites_solution_primary     direct
_atom_sites_solution_secondary   difmap
_atom_sites_solution_hydrogens   geom
_refine_ls_hydrogen_treatment    constr
_refine_ls_extinction_method     SHELXL
_refine_ls_extinction_coef       0.0033(4)
_refine_ls_extinction_expression Fc^*^=kFc[1+0.001xFc^2^\l^3^/sin(2\q)]^-1/4^
_refine_ls_number_reflns         6665
_refine_ls_number_parameters     516
_refine_ls_number_restraints     692
_refine_ls_R_factor_all          0.1351
_refine_ls_R_factor_gt           0.0903
_refine_ls_wR_factor_ref         0.2452
_refine_ls_wR_factor_gt          0.2221
_refine_ls_goodness_of_fit_ref   0.911
_refine_ls_restrained_S_all      0.906
_refine_ls_shift/su_max          0.001
_refine_ls_shift/su_mean         0.000

loop_
_atom_site_label
_atom_site_type_symbol
_atom_site_fract_x
_atom_site_fract_y
_atom_site_fract_z
_atom_site_U_iso_or_equiv
_atom_site_adp_type
_atom_site_occupancy
_atom_site_symmetry_multiplicity
_atom_site_calc_flag
_atom_site_refinement_flags
_atom_site_disorder_assembly
_atom_site_disorder_group
Zn1 Zn 0.29683(13) 0.11710(9) 0.84991(5) 0.0336(5) Uani 1 1 d U . .
Zn2 Zn 0.11104(14) 0.28793(9) 0.84581(5) 0.0394(5) Uani 1 1 d U . .
Br1 Br 0.3376(3) 0.1376(3) 0.54973(9) 0.1977(15) Uani 1 1 d U . .
O1 O 0.4101(7) 0.2430(4) 0.8900(2) 0.0350(16) Uani 1 1 d U . .
O2 O 0.3256(7) 0.3618(4) 0.8655(3) 0.0382(16) Uani 1 1 d U . .
O3 O 0.2671(8) 0.1383(6) 0.7824(3) 0.062(2) Uani 1 1 d U . .
O4 O 0.0789(9) 0.2084(7) 0.7821(3) 0.071(2) Uani 1 1 d U . .
O5 O 0.0956(7) 0.0523(4) 0.8663(3) 0.0376(17) Uani 1 1 d U . .
O6 O 0.0279(7) 0.1859(5) 0.8893(2) 0.0383(16) Uani 1 1 d U . .
O7 O 0.4493(7) 0.0518(5) 0.8548(3) 0.0436(18) Uani 1 1 d U . .
O8 O 0.3768(7) 0.0448(4) 0.9315(3) 0.0373(18) Uani 1 1 d U . .
O9 O -0.0407(7) 0.3545(5) 0.8552(3) 0.0460(18) Uani 1 1 d U . .
O10 O 0.0812(7) 0.4139(4) 0.9308(2) 0.0350(17) Uani 1 1 d U . .
O11 O 0.1608(13) 0.3927(9) 0.7853(4) 0.125(3) Uani 1 1 d U . .
O12 O -0.592(3) -0.263(2) 0.6643(10) 0.295(13) Uani 1 1 d U . .
O13 O -0.702(2) -0.1625(17) 0.6519(9) 0.248(10) Uani 1 1 d U . .
N1 N 0.7469(8) 0.6670(5) 0.9598(3) 0.0247(17) Uani 1 1 d U . .
N2 N 0.7263(8) 0.8097(5) 0.9603(3) 0.0215(16) Uani 1 1 d U . .
C1 C 0.4242(11) 0.3309(7) 0.8862(4) 0.029(2) Uani 1 1 d U . .
C2 C 0.5709(10) 0.4037(6) 0.9050(3) 0.025(2) Uani 1 1 d U . .
C3 C 0.5870(10) 0.5038(6) 0.9260(3) 0.025(2) Uani 1 1 d U . .
C4 C 0.7355(10) 0.5644(6) 0.9393(4) 0.028(2) Uani 1 1 d U . .
C5 C 0.8666(10) 0.5373(7) 0.9346(3) 0.025(2) Uani 1 1 d U . .
C6 C 0.8492(11) 0.4437(7) 0.9125(4) 0.033(2) Uani 1 1 d U . .
C7 C 0.6975(10) 0.3774(7) 0.8983(4) 0.031(2) Uani 1 1 d U . .
H7A H 0.6867 0.3120 0.8834 0.037 Uiso 1 1 calc R . .
C8 C 0.4522(10) 0.5406(7) 0.9362(4) 0.033(3) Uani 1 1 d U . .
H8A H 0.4720 0.5819 0.9687 0.050 Uiso 1 1 calc R . .
H8B H 0.3613 0.4845 0.9357 0.050 Uiso 1 1 calc R . .
H8C H 0.4359 0.5792 0.9106 0.050 Uiso 1 1 calc R . .
C9 C 1.0192(11) 0.6114(7) 0.9497(4) 0.038(3) Uani 1 1 d U . .
H9A H 1.0945 0.5933 0.9298 0.057 Uiso 1 1 calc R . .
H9B H 1.0483 0.6128 0.9848 0.057 Uiso 1 1 calc R . .
H9C H 1.0146 0.6764 0.9443 0.057 Uiso 1 1 calc R . .
C10 C 0.7292(10) 0.7292(7) 0.9303(3) 0.024(2) Uani 1 1 d U . .
C11 C 0.7553(10) 0.7058(7) 1.0081(4) 0.026(2) Uani 1 1 d U . .
H11A H 0.7652 0.6748 1.0362 0.032 Uiso 1 1 calc R . .
C12 C 0.7467(9) 0.7988(6) 1.0081(4) 0.025(2) Uani 1 1 d U . .
H12A H 0.7538 0.8466 1.0363 0.030 Uiso 1 1 calc R . .
C13 C 0.7311(10) 0.8984(6) 0.9412(3) 0.0229(19) Uani 1 1 d U . .
C14 C 0.5946(10) 0.9217(7) 0.9349(3) 0.026(2) Uani 1 1 d U . .
C15 C 0.6036(10) 1.0035(7) 0.9132(4) 0.028(2) Uani 1 1 d U . .
C16 C 0.7376(11) 1.0591(7) 0.8988(4) 0.031(2) Uani 1 1 d U . .
H16A H 0.7389 1.1153 0.8839 0.037 Uiso 1 1 calc R . .
C17 C 0.8743(10) 1.0339(6) 0.9057(3) 0.027(2) Uani 1 1 d U . .
C18 C 0.8684(10) 0.9510(6) 0.9279(3) 0.023(2) Uani 1 1 d U . .
C19 C 0.4523(11) 0.8586(7) 0.9513(4) 0.039(3) Uani 1 1 d U . .
H19A H 0.3675 0.8834 0.9429 0.059 Uiso 1 1 calc R . .
H19B H 0.4651 0.8602 0.9872 0.059 Uiso 1 1 calc R . .
H19C H 0.4309 0.7909 0.9345 0.059 Uiso 1 1 calc R . .
C20 C 1.0110(10) 0.9207(7) 0.9376(4) 0.036(3) Uani 1 1 d U . .
H20A H 1.0137 0.9014 0.9706 0.054 Uiso 1 1 calc R . .
H20B H 1.1011 0.9761 0.9359 0.054 Uiso 1 1 calc R . .
H20C H 1.0099 0.8651 0.9126 0.054 Uiso 1 1 calc R . .
C21 C 0.1598(15) 0.1585(11) 0.7588(5) 0.069(3) Uani 1 1 d U . .
C22 C 0.1222(16) 0.1228(12) 0.7075(5) 0.082(4) Uani 1 1 d U . .
C23 C 0.0381(18) 0.1555(14) 0.6804(5) 0.106(5) Uani 1 1 d U . .
H23A H -0.0009 0.2050 0.6958 0.127 Uiso 1 1 calc R . .
C24 C 0.000(2) 0.1242(15) 0.6302(6) 0.126(6) Uani 1 1 d U . .
H24A H -0.0698 0.1476 0.6122 0.151 Uiso 1 1 calc R . .
C25 C 0.0629(19) 0.0603(15) 0.6078(5) 0.109(5) Uani 1 1 d U . .
C26 C 0.1393(18) 0.0138(14) 0.6356(6) 0.110(5) Uani 1 1 d U . .
H26A H 0.1684 -0.0407 0.6208 0.133 Uiso 1 1 calc R . .
C27 C 0.1722(16) 0.0471(13) 0.6845(5) 0.095(5) Uani 1 1 d U . .
H27A H 0.2308 0.0183 0.7038 0.114 Uiso 1 1 calc R . .
C28 C 0.028(2) 0.0312(18) 0.5522(6) 0.135(5) Uani 1 1 d U . .
C29 C -0.123(2) -0.0303(17) 0.5315(6) 0.127(5) Uani 1 1 d U . .
C30 C 0.150(2) 0.0661(19) 0.5210(6) 0.146(7) Uani 1 1 d U . .
C31 C -0.2391(14) -0.0725(11) 0.5647(4) 0.131(5) Uani 1 1 d GU . .
C32 C -0.3539(17) -0.0295(9) 0.5729(5) 0.143(6) Uani 1 1 d GU . .
H32A H -0.3524 0.0284 0.5597 0.172 Uiso 1 1 calc R . .
C33 C -0.4707(14) -0.0714(12) 0.6005(5) 0.145(6) Uani 1 1 d GU . .
H33A H -0.5491 -0.0420 0.6061 0.174 Uiso 1 1 calc R . .
C34 C -0.4728(15) -0.1562(12) 0.6198(5) 0.173(7) Uani 1 1 d GU . .
C35 C -0.3581(19) -0.1992(10) 0.6116(6) 0.181(7) Uani 1 1 d GU . .
H35A H -0.3595 -0.2571 0.6249 0.217 Uiso 1 1 calc R . .
C36 C -0.2412(15) -0.1573(12) 0.5841(5) 0.158(7) Uani 1 1 d GU . .
H36A H -0.1628 -0.1867 0.5784 0.190 Uiso 1 1 calc R . .
C37 C -0.589(4) -0.192(3) 0.6492(15) 0.226(10) Uani 1 1 d U . .
C38 C 1.0052(11) 1.0938(8) 0.8858(4) 0.031(2) Uani 1 1 d U . .
C39 C 0.4621(12) 0.0363(7) 0.9007(5) 0.036(2) Uani 1 1 d U . .
C40 C -0.0231(11) 0.4026(7) 0.9001(4) 0.030(2) Uani 1 1 d U . .

loop_
_atom_site_aniso_label
_atom_site_aniso_U_11
_atom_site_aniso_U_22
_atom_site_aniso_U_33
_atom_site_aniso_U_23
_atom_site_aniso_U_13
_atom_site_aniso_U_12
Zn1 0.0077(8) 0.0280(8) 0.0704(11) 0.0077(7) 0.0069(7) 0.0129(6)
Zn2 0.0084(8) 0.0301(9) 0.0817(12) -0.0007(7) 0.0026(7) 0.0133(6)
Br1 0.150(2) 0.304(4) 0.1062(19) -0.010(2) -0.0020(16) 0.038(2)
O1 0.019(4) 0.021(3) 0.064(4) 0.011(3) 0.002(3) 0.003(2)
O2 0.009(3) 0.026(3) 0.083(5) 0.006(3) 0.012(3) 0.010(2)
O3 0.032(4) 0.092(5) 0.060(4) 0.002(3) 0.001(3) 0.023(4)
O4 0.040(5) 0.121(5) 0.055(4) -0.007(3) -0.007(3) 0.041(4)
O5 0.013(3) 0.025(3) 0.074(5) 0.001(3) 0.007(3) 0.007(3)
O6 0.024(4) 0.022(4) 0.068(4) -0.001(3) -0.003(3) 0.010(3)
O7 0.026(4) 0.042(4) 0.070(4) -0.001(4) 0.009(3) 0.025(3)
O8 0.018(4) 0.027(4) 0.076(5) 0.004(3) 0.011(3) 0.021(3)
O9 0.025(4) 0.054(4) 0.067(4) 0.002(3) -0.014(3) 0.031(3)
O10 0.021(4) 0.034(4) 0.056(4) 0.009(3) 0.006(3) 0.017(3)
O11 0.118(7) 0.146(6) 0.122(6) 0.071(5) 0.018(4) 0.031(6)
O12 0.31(3) 0.35(3) 0.36(3) 0.21(2) 0.23(2) 0.20(2)
O13 0.197(18) 0.29(2) 0.34(2) 0.164(19) 0.170(18) 0.124(16)
N1 0.007(4) 0.022(3) 0.045(4) 0.001(3) -0.002(4) 0.006(3)
N2 0.0203(19) 0.0213(17) 0.0232(18) 0.0024(10) 0.0022(10) 0.0070(11)
C1 0.017(4) 0.027(3) 0.048(6) 0.005(4) 0.009(4) 0.011(3)
C2 0.020(3) 0.019(3) 0.041(5) 0.008(4) 0.003(4) 0.012(3)
C3 0.014(3) 0.021(4) 0.044(5) 0.005(4) 0.003(4) 0.011(3)
C4 0.015(3) 0.021(3) 0.052(5) 0.005(3) 0.004(4) 0.010(3)
C5 0.013(4) 0.025(4) 0.040(5) 0.004(4) 0.002(4) 0.009(3)
C6 0.023(4) 0.025(4) 0.055(6) 0.002(4) -0.001(5) 0.015(3)
C7 0.019(4) 0.019(4) 0.059(6) 0.004(4) 0.004(4) 0.012(3)
C8 0.014(4) 0.032(5) 0.058(6) 0.003(4) 0.004(5) 0.014(4)
C9 0.018(4) 0.032(5) 0.067(6) 0.005(5) 0.003(5) 0.013(4)
C10 0.008(5) 0.022(4) 0.044(4) 0.002(3) 0.003(4) 0.009(4)
C11 0.015(5) 0.033(4) 0.038(4) 0.013(3) 0.005(4) 0.015(4)
C12 0.008(5) 0.023(4) 0.040(4) 0.000(3) 0.003(4) 0.002(4)
C13 0.013(3) 0.016(4) 0.040(5) 0.001(3) 0.001(4) 0.007(3)
C14 0.017(4) 0.022(4) 0.042(5) -0.004(4) 0.006(4) 0.014(3)
C15 0.018(4) 0.023(4) 0.047(6) -0.003(4) 0.000(4) 0.018(4)
C16 0.022(4) 0.020(5) 0.053(6) 0.006(4) -0.006(4) 0.012(3)
C17 0.021(4) 0.015(4) 0.049(6) 0.003(4) 0.009(4) 0.012(3)
C18 0.014(4) 0.017(4) 0.040(5) 0.001(3) -0.002(4) 0.008(3)
C19 0.016(4) 0.035(5) 0.069(6) 0.004(4) 0.006(5) 0.012(4)
C20 0.021(4) 0.030(5) 0.061(6) 0.006(5) -0.006(5) 0.017(4)
C21 0.061(9) 0.103(10) 0.057(5) 0.003(6) 0.000(6) 0.049(7)
C22 0.062(9) 0.147(12) 0.057(5) 0.000(7) 0.001(6) 0.069(8)
C23 0.108(12) 0.191(15) 0.052(6) 0.006(8) 0.000(8) 0.103(11)
C24 0.124(13) 0.220(17) 0.065(7) -0.025(10) -0.024(9) 0.124(12)
C25 0.099(11) 0.197(15) 0.058(6) -0.002(7) 0.011(7) 0.095(9)
C26 0.094(11) 0.161(14) 0.084(7) -0.038(8) -0.028(9) 0.081(10)
C27 0.071(10) 0.160(13) 0.068(6) -0.016(7) -0.005(8) 0.073(9)
C28 0.119(7) 0.239(17) 0.060(6) -0.019(8) 0.003(6) 0.095(8)
C29 0.131(8) 0.213(16) 0.055(9) 0.031(9) -0.004(6) 0.077(8)
C30 0.115(8) 0.29(2) 0.038(8) 0.004(11) -0.013(6) 0.089(10)
C31 0.145(9) 0.208(14) 0.066(10) 0.024(9) 0.021(9) 0.091(8)
C32 0.107(13) 0.199(16) 0.141(15) 0.044(12) 0.009(9) 0.067(11)
C33 0.137(14) 0.192(17) 0.125(15) 0.030(11) 0.031(10) 0.073(13)
C34 0.173(15) 0.218(18) 0.177(17) 0.064(13) 0.090(12) 0.108(13)
C35 0.175(18) 0.207(17) 0.211(19) 0.070(13) 0.096(13) 0.104(14)
C36 0.163(15) 0.215(18) 0.145(16) 0.060(12) 0.070(11) 0.107(13)
C37 0.20(2) 0.28(3) 0.27(3) 0.129(18) 0.140(17) 0.123(18)
C38 0.021(4) 0.029(5) 0.040(6) 0.005(4) -0.007(4) 0.004(4)
C39 0.020(6) 0.023(6) 0.071(6) -0.001(6) 0.005(5) 0.021(5)
C40 0.011(6) 0.016(5) 0.066(6) 0.010(5) 0.004(4) 0.007(5)

_geom_special_details            
;
All esds (except the esd in the dihedral angle between two l.s. planes)
are estimated using the full covariance matrix. The cell esds are taken
into account individually in the estimation of esds in distances, angles
and torsion angles; correlations between esds in cell parameters are only
used when they are defined by crystal symmetry. An approximate (isotropic)
treatment of cell esds is used for estimating esds involving l.s. planes.
;

loop_
_geom_bond_atom_site_label_1
_geom_bond_atom_site_label_2
_geom_bond_distance
_geom_bond_site_symmetry_2
_geom_bond_publ_flag
Zn1 O7 1.918(6) . ?
Zn1 O3 1.931(8) . ?
Zn1 O5 1.931(7) . ?
Zn1 O1 1.958(6) . ?
Zn2 O4 1.914(8) . ?
Zn2 O9 1.927(6) . ?
Zn2 O2 1.966(6) . ?
Zn2 O6 2.019(7) . ?
Zn2 O11 2.361(10) . ?
Br1 C30 1.81(2) . ?
O1 C1 1.254(10) . ?
O2 C1 1.264(11) . ?
O3 C21 1.279(13) . ?
O4 C21 1.313(13) . ?
O