####################################################################### 
# 
# This file contains crystal structure data downloaded from the 
# Cambridge Structural Database (CSD) hosted by the Cambridge 
# Crystallographic Data Centre (CCDC).
# 
# Full information about CCDC data access policies and citation 
# guidelines are available at http://www.ccdc.cam.ac.uk/access/V1 
# 
# Audit and citation data items may have been added by the CCDC. 
# Please retain this information to preserve the provenance of 
# this file and to allow appropriate attribution of the data. 
# 
#######################################################################

data_3
_audit_block_doi                 10.5517/ccpy5wn
_database_code_depnum_ccdc_archive 'CCDC 653662'
loop_
_citation_id
_citation_doi
_citation_year
1 10.1021/ja071046w 2007
_audit_update_record             
;
2007-07-11 deposited with the CCDC.	2024-07-13 downloaded from the CCDC.
;
_audit_creation_method           SHELXL-97
_chemical_name_systematic        
;
?
;
_chemical_name_common            ?
_chemical_melting_point          ?
_chemical_formula_moiety         ?
_chemical_formula_sum            'C57.50 H69.50 N4.50 Ni2 O9'
_chemical_formula_weight         1085.10

loop_
_atom_type_symbol
_atom_type_description
_atom_type_scat_dispersion_real
_atom_type_scat_dispersion_imag
_atom_type_scat_source
C C 0.0033 0.0016 'International Tables Vol C Tables 4.2.6.8 and 6.1.1.4'
H H 0.0000 0.0000 'International Tables Vol C Tables 4.2.6.8 and 6.1.1.4'
N N 0.0061 0.0033 'International Tables Vol C Tables 4.2.6.8 and 6.1.1.4'
O O 0.0106 0.0060 'International Tables Vol C Tables 4.2.6.8 and 6.1.1.4'
Ni Ni 0.3393 1.1124 'International Tables Vol C Tables 4.2.6.8 and 6.1.1.4'

_symmetry_cell_setting           Triclinic
_symmetry_space_group_name_H-M   P1

loop_
_symmetry_equiv_pos_as_xyz
'x, y, z'

_cell_length_a                   13.3754(12)
_cell_length_b                   15.3953(14)
_cell_length_c                   15.7098(15)
_cell_angle_alpha                70.609(2)
_cell_angle_beta                 70.501(2)
_cell_angle_gamma                67.214(2)
_cell_volume                     2733.9(4)
_cell_formula_units_Z            2
_cell_measurement_temperature    153(2)
_cell_measurement_reflns_used    6151
_cell_measurement_theta_min      2.45
_cell_measurement_theta_max      27.82

_exptl_crystal_description       column
_exptl_crystal_colour            red
_exptl_crystal_size_max          0.250
_exptl_crystal_size_mid          0.224
_exptl_crystal_size_min          0.070
_exptl_crystal_density_meas      ?
_exptl_crystal_density_diffrn    1.318
_exptl_crystal_density_method    'not measured'
_exptl_crystal_F_000             1148
_exptl_absorpt_coefficient_mu    0.748
_exptl_absorpt_correction_type   integration
_exptl_absorpt_correction_T_min  0.8313
_exptl_absorpt_correction_T_max  0.9491
_exptl_absorpt_process_details   ?

_exptl_special_details           
;
?
;

_diffrn_ambient_temperature      153(2)
_diffrn_radiation_wavelength     0.71073
_diffrn_radiation_type           MoK\a
_diffrn_radiation_source         'fine-focus sealed tube'
_diffrn_radiation_monochromator  graphite
_diffrn_measurement_device_type  'CCD area detector'
_diffrn_measurement_method       'omega scans'
_diffrn_detector_area_resol_mean ?
_diffrn_standards_number         ?
_diffrn_standards_interval_count ?
_diffrn_standards_interval_time  ?
_diffrn_standards_decay_%        ?
_diffrn_reflns_number            25622
_diffrn_reflns_av_R_equivalents  0.0302
_diffrn_reflns_av_sigmaI/netI    0.1018
_diffrn_reflns_limit_h_min       -17
_diffrn_reflns_limit_h_max       17
_diffrn_reflns_limit_k_min       -19
_diffrn_reflns_limit_k_max       19
_diffrn_reflns_limit_l_min       -20
_diffrn_reflns_limit_l_max       20
_diffrn_reflns_theta_min         1.41
_diffrn_reflns_theta_max         28.84
_reflns_number_total             22126
_reflns_number_gt                12941
_reflns_threshold_expression     >2sigma(I)

_computing_data_collection       'Bruker SMART'
_computing_cell_refinement       'Bruker SMART'
_computing_data_reduction        'Bruker SAINT'
_computing_structure_solution    'SHELXS-97 (Sheldrick, 1990)'
_computing_structure_refinement  'SHELXL-97 (Sheldrick, 1997)'
_computing_molecular_graphics    'Bruker SHELXTL'
_computing_publication_material  'Bruker SHELXTL'

_refine_special_details          
;
Refinement of F^2^ against ALL reflections. The weighted R-factor wR and
goodness of fit S are based on F^2^, conventional R-factors R are based
on F, with F set to zero for negative F^2^. The threshold expression of
F^2^ > 2sigma(F^2^) is used only for calculating R-factors(gt) etc. and is
not relevant to the choice of reflections for refinement. R-factors based
on F^2^ are statistically about twice as large as those based on F, and R-
factors based on ALL data will be even larger.
;

_refine_ls_structure_factor_coef Fsqd
_refine_ls_matrix_type           full
_refine_ls_weighting_scheme      calc
_refine_ls_weighting_details     
'calc w=1/[\s^2^(Fo^2^)+(0.1375P)^2^+0.0000P] where P=(Fo^2^+2Fc^2^)/3'
_atom_sites_solution_primary     direct
_atom_sites_solution_secondary   difmap
_atom_sites_solution_hydrogens   geom
_refine_ls_hydrogen_treatment    const
_refine_ls_extinction_method     none
_refine_ls_extinction_coef       ?
_refine_ls_abs_structure_details 'Flack H D (1983), Acta Cryst. A39, 876-881'
_refine_ls_abs_structure_Flack   0.07(3)
_refine_ls_number_reflns         22126
_refine_ls_number_parameters     1313
_refine_ls_number_restraints     15
_refine_ls_R_factor_all          0.1351
_refine_ls_R_factor_gt           0.0762
_refine_ls_wR_factor_ref         0.2447
_refine_ls_wR_factor_gt          0.2018
_refine_ls_goodness_of_fit_ref   1.028
_refine_ls_restrained_S_all      1.028
_refine_ls_shift/su_max          0.021
_refine_ls_shift/su_mean         0.005

loop_
_atom_site_label
_atom_site_type_symbol
_atom_site_fract_x
_atom_site_fract_y
_atom_site_fract_z
_atom_site_U_iso_or_equiv
_atom_site_adp_type
_atom_site_occupancy
_atom_site_symmetry_multiplicity
_atom_site_calc_flag
_atom_site_refinement_flags
_atom_site_disorder_assembly
_atom_site_disorder_group
Ni1 Ni 0.50434(10) 0.07251(9) 0.69420(9) 0.0215(4) Uani 1 1 d . . .
Ni2 Ni -0.40965(13) 0.60856(11) 1.25507(10) 0.0305(4) Uani 1 1 d . . .
Ni3 Ni -0.01130(10) 0.57313(9) 0.68744(9) 0.0216(4) Uani 1 1 d . . .
Ni4 Ni 0.90318(13) 0.03739(11) 0.12628(11) 0.0318(5) Uani 1 1 d . . .
O1 O 0.6491(7) 0.0354(6) 0.7065(6) 0.0222(19) Uani 1 1 d . . .
O2 O 0.4710(7) 0.1620(6) 0.7625(6) 0.0224(19) Uani 1 1 d . . .
O3 O 1.3555(9) -0.4435(8) 0.3481(9) 0.063(4) Uani 1 1 d . . .
O4 O 1.4415(8) -0.3442(7) 0.3451(6) 0.036(2) Uani 1 1 d . . .
O5 O -0.3254(9) 0.6234(7) 1.0308(6) 0.044(3) Uani 1 1 d . . .
O6 O -0.2634(8) 0.5701(7) 1.1576(6) 0.034(2) Uani 1 1 d . . .
O7 O -0.4706(8) 0.7259(6) 1.1468(6) 0.036(2) Uani 1 1 d . . .
O8 O -0.4757(8) 0.5231(7) 1.2194(7) 0.041(3) Uani 1 1 d . . .
O9 O -0.1569(7) 0.6033(6) 0.6828(6) 0.027(2) Uani 1 1 d . . .
O10 O 0.0237(7) 0.4889(6) 0.6139(7) 0.030(2) Uani 1 1 d . . .
O11 O -0.8595(8) 1.0918(7) 1.0286(7) 0.046(3) Uani 1 1 d . . .
O12 O -0.9453(8) 0.9886(7) 1.0338(7) 0.039(3) Uani 1 1 d . . .
O13 O 0.8216(9) 0.0205(8) 0.3546(7) 0.052(3) Uani 1 1 d . . .
O14 O 0.7586(8) 0.0747(7) 0.2241(7) 0.040(3) Uani 1 1 d . . .
O15 O 0.9664(8) -0.0773(7) 0.2325(7) 0.038(2) Uani 1 1 d . . .
O16 O 0.9671(7) 0.1206(6) 0.1642(6) 0.035(2) Uani 1 1 d . . .
O17 O 0.5549(17) 0.5472(11) -0.0409(11) 0.127(6) Uani 1 1 d . . .
O18 O -0.0767(9) 0.1048(8) 0.4207(9) 0.071(3) Uani 1 1 d . . .
N1 N 0.5372(9) -0.0158(8) 0.6245(8) 0.026(2) Uani 1 1 d . . .
N2 N 0.3601(9) 0.1070(8) 0.6843(8) 0.026(2) Uani 1 1 d . . .
N3 N -0.3476(10) 0.4874(8) 1.3585(8) 0.034(3) Uani 1 1 d . . .
N4 N -0.3502(10) 0.6960(8) 1.2878(8) 0.032(3) Uani 1 1 d . . .
N5 N -0.0496(9) 0.6496(8) 0.7688(7) 0.022(2) Uani 1 1 d . . .
N6 N 0.1382(9) 0.5478(8) 0.6854(8) 0.028(2) Uani 1 1 d . . .
N7 N 0.8376(11) -0.0498(9) 0.0935(8) 0.039(3) Uani 1 1 d . . .
N8 N 0.8388(10) 0.1571(9) 0.0258(8) 0.036(3) Uani 1 1 d . . .
C1 C 0.7392(10) -0.0210(9) 0.6639(8) 0.019(3) Uani 1 1 d . . .
C2 C 0.8486(10) -0.0329(8) 0.6756(8) 0.019(3) Uani 1 1 d . . .
C3 C 0.9438(12) -0.0937(9) 0.6295(9) 0.033(3) Uani 1 1 d . . .
H3 H 1.0136 -0.1029 0.6399 0.039 Uiso 1 1 calc R . .
C4 C 0.9430(11) -0.1424(9) 0.5687(9) 0.0266(19) Uani 1 1 d U . .
C5 C 0.8405(11) -0.1323(10) 0.5573(9) 0.0271(19) Uani 1 1 d U . .
H5 H 0.8382 -0.1652 0.5168 0.033 Uiso 1 1 calc R . .
C6 C 0.7369(11) -0.0733(9) 0.6049(9) 0.0271(19) Uani 1 1 d U . .
C7 C 0.6387(11) -0.0681(9) 0.5900(10) 0.031(3) Uani 1 1 d . . .
H7 H 0.6448 -0.1062 0.5506 0.037 Uiso 1 1 calc R . .
C8 C 0.4381(7) -0.0283(7) 0.6170(7) 0.036(2) Uani 1 1 d . . .
H8 H 0.4109 -0.0730 0.6754 0.043 Uiso 1 1 calc R . .
C9 C 0.4544(11) -0.0684(9) 0.5329(9) 0.028(3) Uani 1 1 d . . .
H9A H 0.5093 -0.1342 0.5378 0.033 Uiso 1 1 calc R . .
H9B H 0.4821 -0.0257 0.4741 0.033 Uiso 1 1 calc R . .
C10 C 0.3378(8) -0.0716(7) 0.5354(8) 0.035(2) Uani 1 1 d . . .
H10A H 0.3441 -0.0910 0.4793 0.043 Uiso 1 1 calc R . .
H10B H 0.3172 -0.1218 0.5902 0.043 Uiso 1 1 calc R . .
C11 C 0.2473(12) 0.0216(10) 0.5396(11) 0.050(4) Uani 1 1 d . . .
H11A H 0.1755 0.0114 0.5487 0.059 Uiso 1 1 calc R . .
H11B H 0.2602 0.0684 0.4793 0.059 Uiso 1 1 calc R . .
C12 C 0.2380(11) 0.0655(10) 0.6165(9) 0.028(3) Uani 1 1 d . . .
H12A H 0.2116 0.0252 0.6777 0.034 Uiso 1 1 calc R . .
H12B H 0.1832 0.1313 0.6103 0.034 Uiso 1 1 calc R . .
C13 C 0.3517(7) 0.0709(7) 0.6108(7) 0.029(2) Uani 1 1 d . . .
H13 H 0.3756 0.1134 0.5492 0.034 Uiso 1 1 calc R . .
C14 C 0.2735(12) 0.1662(10) 0.7272(10) 0.033(3) Uani 1 1 d . . .
H14 H 0.2037 0.1758 0.7166 0.039 Uiso 1 1 calc R . .
C15 C 0.2708(11) 0.2174(9) 0.7868(9) 0.024(3) Uani 1 1 d . . .
C16 C 0.1679(11) 0.2712(10) 0.8336(10) 0.028(3) Uani 1 1 d . . .
H16 H 0.1010 0.2704 0.8254 0.034 Uiso 1 1 calc R . .
C17 C 0.1609(11) 0.3253(9) 0.8912(9) 0.027(3) Uani 1 1 d . . .
C18 C 0.2574(11) 0.3223(9) 0.9020(9) 0.030(3) Uani 1 1 d . . .
H18 H 0.2516 0.3577 0.9437 0.036 Uiso 1 1 calc R . .
C19 C 0.3653(11) 0.2735(10) 0.8597(10) 0.031(3) Uani 1 1 d . . .
C20 C 0.3728(12) 0.2158(9) 0.7996(9) 0.029(3) Uani 1 1 d . . .
C21 C 0.8520(11) 0.0228(10) 0.7391(9) 0.028(3) Uani 1 1 d . . .
C22 C 0.7916(12) -0.0130(11) 0.8394(9) 0.037(3) Uani 1 1 d . . .
H22A H 0.7945 0.0225 0.8795 0.055 Uiso 1 1 calc R . .
H22B H 0.8282 -0.0824 0.8609 0.055 Uiso 1 1 calc R . .
H22C H 0.7136 -0.0021 0.8418 0.055 Uiso 1 1 calc R . .
C23 C 0.8019(10) 0.1301(8) 0.7076(9) 0.027(3) Uani 1 1 d . . .
H23A H 0.7215 0.1461 0.7155 0.041 Uiso 1 1 calc R . .
H23B H 0.8365 0.1515 0.6419 0.041 Uiso 1 1 calc R . .
H23C H 0.8151 0.1630 0.7447 0.041 Uiso 1 1 calc R . .
C24 C 0.9767(10) 0.0076(10) 0.7372(10) 0.035(3) Uani 1 1 d . . .
H24A H 1.0183 0.0238 0.6728 0.052 Uiso 1 1 calc R . .
H24B H 1.0118 -0.0602 0.7658 0.052 Uiso 1 1 calc R . .
H24C H 0.9772 0.0498 0.7719 0.052 Uiso 1 1 calc R . .
C25 C 0.4709(11) 0.2771(10) 0.8705(10) 0.034(4) Uani 1 1 d . . .
C26 C 0.5352(12) 0.3171(11) 0.7797(11) 0.041(4) Uani 1 1 d . . .
H26A H 0.6031 0.3208 0.7873 0.062 Uiso 1 1 calc R . .
H26B H 0.4899 0.3822 0.7537 0.062 Uiso 1 1 calc R . .
H26C H 0.5555 0.2751 0.7375 0.062 Uiso 1 1 calc R . .
C27 C 0.5398(10) 0.1763(10) 0.9161(9) 0.034(3) Uani 1 1 d . . .
H27A H 0.6073 0.1806 0.9238 0.051 Uiso 1 1 calc R . .
H27B H 0.5608 0.1314 0.8766 0.051 Uiso 1 1 calc R . .
H27C H 0.4951 0.1525 0.9770 0.051 Uiso 1 1 calc R . .
C28 C 0.4432(13) 0.3475(12) 0.9322(12) 0.050(4) Uani 1 1 d . . .
H28A H 0.3921 0.3291 0.9913 0.075 Uiso 1 1 calc R . .
H28B H 0.4078 0.4138 0.9003 0.075 Uiso 1 1 calc R . .
H28C H 0.5121 0.3443 0.9441 0.075 Uiso 1 1 calc R . .
C29 C 1.0460(11) -0.2005(9) 0.5194(9) 0.023(3) Uani 1 1 d . . .
C30 C 1.1430(12) -0.1837(11) 0.4988(10) 0.039(4) Uani 1 1 d . . .
H30 H 1.1423 -0.1307 0.5175 0.047 Uiso 1 1 calc R . .
C31 C 1.2468(12) -0.2379(10) 0.4515(10) 0.035(4) Uani 1 1 d . . .
H31 H 1.3130 -0.2220 0.4391 0.041 Uiso 1 1 calc R . .
C32 C 1.2481(10) -0.3139(10) 0.4244(9) 0.035(4) Uani 1 1 d . . .
C33 C 1.1499(12) -0.3338(9) 0.4421(9) 0.029(3) Uani 1 1 d . . .
H33 H 1.1495 -0.3854 0.4220 0.035 Uiso 1 1 calc R . .
C34 C 1.0523(10) -0.2774(9) 0.4894(8) 0.023(3) Uani 1 1 d . . .
H34 H 0.9857 -0.2927 0.5019 0.027 Uiso 1 1 calc R . .
C35 C 1.3545(12) -0.3720(9) 0.3682(9) 0.032(3) Uani 1 1 d . . .
C36 C 0.0492(12) 0.3840(10) 0.9411(9) 0.032(3) Uani 1 1 d . . .
C37 C 0.0407(12) 0.4054(9) 1.0226(9) 0.033(3) Uani 1 1 d . . .
H37 H 0.1032 0.3790 1.0495 0.040 Uiso 1 1 calc R . .
C38 C -0.0592(11) 0.4658(10) 1.0655(9) 0.036(4) Uani 1 1 d . . .
H38 H -0.0634 0.4794 1.1215 0.043 Uiso 1 1 calc R . .
C39 C -0.1481(12) 0.5044(10) 1.0299(9) 0.035(4) Uani 1 1 d . . .
C40 C -0.1409(11) 0.4862(9) 0.9468(10) 0.029(3) Uani 1 1 d . . .
H40 H -0.2027 0.5152 0.9189 0.035 Uiso 1 1 calc R . .
C41 C -0.0426(11) 0.4256(10) 0.9052(9) 0.030(3) Uani 1 1 d . . .
H41 H -0.0390 0.4125 0.8491 0.036 Uiso 1 1 calc R . .
C42 C -0.2543(11) 0.5709(8) 1.0758(9) 0.027(3) Uani 1 1 d . . .
C43 C -0.3932(13) 0.4785(11) 1.4444(10) 0.042(4) Uani 1 1 d . . .
H43 H -0.4504 0.5343 1.4616 0.050 Uiso 1 1 calc R . .
C44 C -0.3714(11) 0.4011(10) 1.5137(9) 0.039(3) Uani 1 1 d . . .
H44 H -0.4156 0.4002 1.5753 0.047 Uiso 1 1 calc R . .
C45 C -0.2823(15) 0.3228(12) 1.4920(10) 0.048(4) Uani 1 1 d . . .
H45 H -0.2616 0.2650 1.5378 0.057 Uiso 1 1 calc R . .
C46 C -0.2266(13) 0.3321(11) 1.4039(13) 0.053(4) Uani 1 1 d . . .
H46 H -0.1603 0.2820 1.3866 0.064 Uiso 1 1 calc R . .
C47 C -0.2623(14) 0.4118(10) 1.3377(11) 0.046(4) Uani 1 1 d . . .
H47 H -0.2246 0.4130 1.2744 0.055 Uiso 1 1 calc R . .
C48 C -0.4160(14) 0.7830(10) 1.3068(10) 0.044(4) Uani 1 1 d . . .
H48 H -0.4937 0.8003 1.3118 0.052 Uiso 1 1 calc R . .
C49 C -0.3770(14) 0.8491(10) 1.3197(10) 0.043(4) Uani 1 1 d . . .
H49 H -0.4266 0.9106 1.3293 0.052 Uiso 1 1 calc R . .
C50 C -0.2603(17) 0.8223(11) 1.3181(10) 0.058(5) Uani 1 1 d . . .
H50 H -0.2300 0.8642 1.3271 0.070 Uiso 1 1 calc R . .
C51 C -0.1951(13) 0.7305(13) 1.3024(10) 0.053(5) Uani 1 1 d . . .
H51 H -0.1174 0.7093 1.2991 0.063 Uiso 1 1 calc R . .
C52 C -0.2422(14) 0.6701(11) 1.2916(10) 0.049(4) Uani 1 1 d . . .
H52 H -0.1958 0.6063 1.2865 0.059 Uiso 1 1 calc R . .
C53 C -0.5834(11) 0.7594(10) 1.1408(9) 0.038(3) Uani 1 1 d . . .
H53A H -0.6113 0.7040 1.1590 0.057 Uiso 1 1 calc R . .
H53B H -0.5884 0.7941 1.0768 0.057 Uiso 1 1 calc R . .
H53C H -0.6286 0.8032 1.1825 0.057 Uiso 1 1 calc R . .
C54 C -0.4207(12) 0.4268(9) 1.2078(9) 0.045(4) Uani 1 1 d . . .
H54A H -0.3428 0.4200 1.1741 0.067 Uiso 1 1 calc R . .
H54B H -0.4582 0.4125 1.1725 0.067 Uiso 1 1 calc R . .
H54C H -0.4231 0.3814 1.2688 0.067 Uiso 1 1 calc R . .
C55 C -0.2502(10) 0.6612(9) 0.7241(9) 0.022(3) Uani 1 1 d . . .
C56 C -0.3525(10) 0.6740(9) 0.7064(9) 0.027(3) Uani 1 1 d . . .
C57 C -0.4474(9) 0.7357(9) 0.7516(8) 0.020(3) Uani 1 1 d . . .
H57 H -0.5172 0.7443 0.7416 0.024 Uiso 1 1 calc R . .
C58 C -0.4470(10) 0.7860(9) 0.8111(8) 0.024(2) Uani 1 1 d . . .
C59 C -0.3462(11) 0.7744(9) 0.8241(9) 0.025(2) Uani 1 1 d . . .
H59 H -0.3428 0.8082 0.8633 0.030 Uiso 1 1 calc R . .
C60 C -0.2492(10) 0.7141(8) 0.7809(8) 0.018(2) Uani 1 1 d . . .
C61 C -0.1448(11) 0.7026(9) 0.8021(8) 0.025(3) Uani 1 1 d . . .
H61 H -0.1494 0.7376 0.8437 0.030 Uiso 1 1 calc R . .
C62 C 0.0467(8) 0.6307(8) 0.8073(7) 0.040(3) Uani 1 1 d . . .
H62 H 0.0551 0.5673 0.8542 0.048 Uiso 1 1 calc R . .
C63 C 0.0431(12) 0.7042(11) 0.8533(11) 0.046(4) Uani 1 1 d . . .
H63A H 0.0347 0.7679 0.8085 0.055 Uiso 1 1 calc R . .
H63B H -0.0225 0.7110 0.9066 0.055 Uiso 1 1 calc R . .
C64 C 0.1469(9) 0.6748(9) 0.8864(8) 0.050(3) Uani 1 1 d . . .
H64A H 0.1445 0.7265 0.9120 0.060 Uiso 1 1 calc R . .
H64B H 0.1510 0.6150 0.9367 0.060 Uiso 1 1 calc R . .
C65 C 0.2468(12) 0.6576(12) 0.8091(11) 0.066(5) Uani 1 1 d . . .
H65A H 0.3140 0.6312 0.8346 0.080 Uiso 1 1 calc R . .
H65B H 0.2487 0.7206 0.7653 0.080 Uiso 1 1 calc R . .
C66 C 0.2538(12) 0.5890(11) 0.7552(11) 0.039(4) Uani 1 1 d . . .
H66A H 0.3165 0.5898 0.6995 0.046 Uiso 1 1 calc R . .
H66B H 0.2685 0.5221 0.7945 0.046 Uiso 1 1 calc R . .
C67 C 0.1493(7) 0.6175(8) 0.7268(7) 0.034(2) Uani 1 1 d . . .
H67 H 0.1420 0.6809 0.6801 0.040 Uiso 1 1 calc R . .
C68 C 0.2230(11) 0.4927(10) 0.6451(9) 0.032(3) Uani 1 1 d . . .
H68 H 0.2932 0.4887 0.6508 0.038 Uiso 1 1 calc R . .
C69 C 0.2225(11) 0.4324(9) 0.5883(10) 0.027(3) Uani 1 1 d . . .
C70 C 0.3273(11) 0.3741(10) 0.5463(9) 0.027(3) Uani 1 1 d . . .
H70 H 0.3934 0.3735 0.5570 0.032 Uiso 1 1 calc R . .
C71 C 0.3352(11) 0.3192(9) 0.4912(9) 0.029(3) Uani 1 1 d . . .
C72 C 0.2325(10) 0.3182(9) 0.4812(9) 0.025(3) Uani 1 1 d . . .
H72 H 0.2361 0.2785 0.4445 0.030 Uiso 1 1 calc R . .
C73 C 0.1287(10) 0.3727(9) 0.5228(8) 0.022(3) Uani 1 1 d . . .
C74 C 0.1212(10) 0.4344(9) 0.5762(9) 0.020(3) Uani 1 1 d . . .
C75 C -0.3618(11) 0.6242(9) 0.6403(9) 0.027(3) Uani 1 1 d . . .
C76 C -0.3136(13) 0.5126(9) 0.6807(11) 0.043(4) Uani 1 1 d . . .
H76A H -0.2411 0.4985 0.6931 0.065 Uiso 1 1 calc R . .
H76B H -0.3045 0.4771 0.6357 0.065 Uiso 1 1 calc R . .
H76C H -0.3653 0.4925 0.7387 0.065 Uiso 1 1 calc R . .
C77 C -0.2958(11) 0.6569(9) 0.5428(8) 0.029(3) Uani 1 1 d . . .
H77A H -0.3316 0.7258 0.5184 0.043 Uiso 1 1 calc R . .
H77B H -0.2935 0.6190 0.5026 0.043 Uiso 1 1 calc R . .
H77C H -0.2195 0.6471 0.5447 0.043 Uiso 1 1 calc R . .
C78 C -0.4772(12) 0.6467(11) 0.6329(10) 0.039(3) Uani 1 1 d . . .
H78A H -0.5222 0.6231 0.6937 0.058 Uiso 1 1 calc R . .
H78B H -0.4759 0.6149 0.5877 0.058 Uiso 1 1 calc R . .
H78C H -0.5098 0.7169 0.6125 0.058 Uiso 1 1 calc R . .
C79 C 0.0223(12) 0.3651(10) 0.5084(10) 0.032(3) Uani 1 1 d . . .
C80 C 0.0495(13) 0.2940(12) 0.4514(11) 0.048(4) Uani 1 1 d . . .
H80A H 0.1015 0.2324 0.4764 0.072 Uiso 1 1 calc R . .
H80B H 0.0839 0.3198 0.386