####################################################################### 
# 
# This file contains crystal structure data downloaded from the 
# Cambridge Structural Database (CSD) hosted by the Cambridge 
# Crystallographic Data Centre (CCDC).
# 
# Full information about CCDC data access policies and citation 
# guidelines are available at http://www.ccdc.cam.ac.uk/access/V1 
# 
# Audit and citation data items may have been added by the CCDC. 
# Please retain this information to preserve the provenance of 
# this file and to allow appropriate attribution of the data. 
# 
#######################################################################

data_squeezed
_audit_block_doi                 10.5517/ccxwh4d
_database_code_depnum_ccdc_archive 'CCDC 860564'
loop_
_citation_id
_citation_doi
_citation_year
1 10.1021/cg301347t 2013
_audit_update_record             
;
2012-01-03 deposited with the CCDC.	2024-07-13 downloaded from the CCDC.
;
#TrackingRef '8889_web_deposit_cif_file_1_IrenaSenkovska_1325606060.Zn-imid.cif'


_audit_creation_method           SHELXL-97
_chemical_name_systematic        
;
?
;
_chemical_name_common            ?
_chemical_melting_point          ?
_chemical_formula_moiety         'C105 H95 N10 O20 Zn4'
_chemical_formula_sum            'C105 H95 N10 O20 Zn4'
_chemical_formula_weight         2078.39

loop_
_atom_type_symbol
_atom_type_description
_atom_type_scat_dispersion_real
_atom_type_scat_dispersion_imag
_atom_type_scat_source
C C 0.0033 0.0016 'International Tables Vol C Tables 4.2.6.8 and 6.1.1.4'
H H 0.0000 0.0000 'International Tables Vol C Tables 4.2.6.8 and 6.1.1.4'
N N 0.0061 0.0033 'International Tables Vol C Tables 4.2.6.8 and 6.1.1.4'
O O 0.0106 0.0060 'International Tables Vol C Tables 4.2.6.8 and 6.1.1.4'
Zn Zn 0.2839 1.4301 'International Tables Vol C Tables 4.2.6.8 and 6.1.1.4'

_symmetry_cell_setting           monoclinic
_symmetry_space_group_name_H-M   'P 2/n'
_space_group_name_Hall           '-P 2yac'

loop_
_symmetry_equiv_pos_as_xyz
'x, y, z'
'-x+1/2, y, -z+1/2'
'-x, -y, -z'
'x-1/2, -y, z-1/2'

_cell_length_a                   12.036(2)
_cell_length_b                   16.838(3)
_cell_length_c                   40.383(8)
_cell_angle_alpha                90.00
_cell_angle_beta                 90.46(3)
_cell_angle_gamma                90.00
_cell_volume                     8184(3)
_cell_formula_units_Z            2
_cell_measurement_temperature    293(2)
_cell_measurement_reflns_used    ?
_cell_measurement_theta_min      ?
_cell_measurement_theta_max      ?

_exptl_crystal_description       ?
_exptl_crystal_colour            colorless
_exptl_crystal_density_meas      ?
_exptl_crystal_density_diffrn    0.843
_exptl_crystal_density_method    'not measured'
_exptl_crystal_F_000             2150
_exptl_absorpt_coefficient_mu    0.624
_exptl_absorpt_correction_type   none
_exptl_absorpt_correction_T_min  ?
_exptl_absorpt_correction_T_max  ?
_exptl_absorpt_process_details   ?

_exptl_special_details           
;
?
;

_diffrn_ambient_temperature      293(2)
_diffrn_radiation_wavelength     0.71073
_diffrn_radiation_type           MoK\a
_diffrn_radiation_source         'fine-focus sealed tube'
_diffrn_radiation_monochromator  graphite
_diffrn_measurement_device_type  'STOE IPDS I'
_diffrn_measurement_method       \f
_diffrn_detector_area_resol_mean ?
_diffrn_standards_number         ?
_diffrn_standards_interval_count ?
_diffrn_standards_interval_time  ?
_diffrn_standards_decay_%        ?
_diffrn_reflns_number            8101
_diffrn_reflns_av_R_equivalents  0.0000
_diffrn_reflns_av_sigmaI/netI    0.0844
_diffrn_reflns_limit_h_min       -11
_diffrn_reflns_limit_h_max       11
_diffrn_reflns_limit_k_min       0
_diffrn_reflns_limit_k_max       16
_diffrn_reflns_limit_l_min       0
_diffrn_reflns_limit_l_max       40
_diffrn_reflns_theta_min         1.57
_diffrn_reflns_theta_max         20.79
_reflns_number_total             8101
_reflns_number_gt                4437
_reflns_threshold_expression     >2sigma(I)

_computing_data_collection       'IPDS software'
_computing_cell_refinement       'IPDS software'
_computing_data_reduction        'IPDS software '
_computing_structure_solution    'SHELXS-97 (Sheldrick, 1997)'
_computing_structure_refinement  'SHELXL-97 (Sheldrick, 1997)'
_computing_molecular_graphics    'Diamond 3.1'
_computing_publication_material  WinGX

_refine_special_details          
;
Refinement of F^2^ against ALL reflections. The weighted R-factor wR and
goodness of fit S are based on F^2^, conventional R-factors R are based
on F, with F set to zero for negative F^2^. The threshold expression of
F^2^ > 2sigma(F^2^) is used only for calculating R-factors(gt) etc. and is
not relevant to the choice of reflections for refinement. R-factors based
on F^2^ are statistically about twice as large as those based on F, and R-
factors based on ALL data will be even larger.
;

_refine_ls_structure_factor_coef Fsqd
_refine_ls_matrix_type           full
_refine_ls_weighting_scheme      calc
_refine_ls_weighting_details     
'calc w=1/[\s^2^(Fo^2^)+(0.0480P)^2^] where P=(Fo^2^+2Fc^2^)/3'
_atom_sites_solution_primary     direct
_atom_sites_solution_secondary   difmap
_atom_sites_solution_hydrogens   geom
_refine_ls_hydrogen_treatment    constr
_refine_ls_extinction_method     none
_refine_ls_extinction_coef       ?
_refine_ls_number_reflns         8101
_refine_ls_number_parameters     627
_refine_ls_number_restraints     0
_refine_ls_R_factor_all          0.0744
_refine_ls_R_factor_gt           0.0483
_refine_ls_wR_factor_ref         0.1139
_refine_ls_wR_factor_gt          0.1097
_refine_ls_goodness_of_fit_ref   0.991
_refine_ls_restrained_S_all      0.991
_refine_ls_shift/su_max          0.022
_refine_ls_shift/su_mean         0.058

loop_
_atom_site_label
_atom_site_type_symbol
_atom_site_fract_x
_atom_site_fract_y
_atom_site_fract_z
_atom_site_U_iso_or_equiv
_atom_site_adp_type
_atom_site_occupancy
_atom_site_symmetry_multiplicity
_atom_site_calc_flag
_atom_site_refinement_flags
_atom_site_disorder_assembly
_atom_site_disorder_group
Zn1 Zn 0.42320(6) 0.58115(4) 0.171786(14) 0.0511(2) Uani 1 1 d . . .
Zn2 Zn 0.27242(6) 0.58586(4) 0.100398(15) 0.0546(2) Uani 1 1 d . . .
C1 C 0.1777(6) 0.6273(3) 0.16284(16) 0.0577(17) Uani 1 1 d . . .
O2 O 0.2703(4) 0.6206(2) 0.17713(10) 0.0746(13) Uani 1 1 d . . .
O1 O 0.1615(4) 0.6040(3) 0.13361(11) 0.0828(14) Uani 1 1 d . . .
C2 C 0.0865(6) 0.6620(3) 0.18103(14) 0.0543(16) Uani 1 1 d . . .
C3 C -0.0179(6) 0.6693(3) 0.16735(15) 0.0641(17) Uani 1 1 d . . .
H3 H -0.0288 0.6519 0.1457 0.077 Uiso 1 1 calc R . .
C4 C -0.1081(6) 0.7012(4) 0.18401(17) 0.0657(19) Uani 1 1 d . . .
C5 C -0.0837(6) 0.7276(3) 0.21600(16) 0.0598(17) Uani 1 1 d . . .
C6 C 0.0192(6) 0.7255(3) 0.23190(15) 0.0573(17) Uani 1 1 d . . .
C7 C 0.1029(6) 0.6913(3) 0.21373(15) 0.0607(17) Uani 1 1 d . . .
H7 H 0.1732 0.6873 0.2233 0.073 Uiso 1 1 calc R . .
C8 C -0.2212(6) 0.7061(4) 0.1686(2) 0.106(3) Uani 1 1 d . . .
H8A H -0.2191 0.6845 0.1466 0.158 Uiso 1 1 calc R . .
H8B H -0.2444 0.7605 0.1677 0.158 Uiso 1 1 calc R . .
H8C H -0.2727 0.6762 0.1817 0.158 Uiso 1 1 calc R . .
C9 C 0.0396(6) 0.7554(4) 0.26641(15) 0.083(2) Uani 1 1 d . . .
H9A H 0.1163 0.7478 0.2722 0.125 Uiso 1 1 calc R . .
H9B H -0.0063 0.7265 0.2816 0.125 Uiso 1 1 calc R . .
H9C H 0.0217 0.8109 0.2675 0.125 Uiso 1 1 calc R . .
C10 C -0.2500 0.7135(5) 0.2500 0.069(3) Uani 1 2 d S . .
H10 H -0.2500 0.6582 0.2500 0.083 Uiso 1 2 calc SR . .
C11 C -0.2032(6) 0.8369(4) 0.2404(2) 0.101(3) Uani 1 1 d . . .
H11 H -0.1656 0.8813 0.2326 0.121 Uiso 1 1 calc R . .
N1 N -0.1756(4) 0.7590(3) 0.23493(12) 0.0660(14) Uani 1 1 d . . .
C12 C 0.4133(6) 0.4531(3) 0.12028(17) 0.0546(17) Uani 1 1 d . . .
O4 O 0.4531(4) 0.4868(2) 0.14583(11) 0.0685(13) Uani 1 1 d . . .
O3 O 0.3426(4) 0.4824(2) 0.10117(10) 0.0669(12) Uani 1 1 d . . .
C13 C 0.4616(5) 0.3734(3) 0.11179(15) 0.0538(17) Uani 1 1 d . . .
C14 C 0.5688(6) 0.2578(4) 0.1273(2) 0.085(2) Uani 1 1 d . . .
C14A C 0.5281(6) 0.3335(4) 0.13409(17) 0.074(2) Uani 1 1 d . . .
H14A H 0.5462 0.3576 0.1541 0.089 Uiso 1 1 calc R . .
C15 C 0.5357(6) 0.2261(3) 0.0976(2) 0.080(2) Uani 1 1 d . . .
C16 C 0.4730(7) 0.2627(4) 0.07348(18) 0.082(2) Uani 1 1 d . . .
C17 C 0.4328(6) 0.3378(3) 0.08235(17) 0.077(2) Uani 1 1 d . . .
H17 H 0.3852 0.3644 0.0679 0.092 Uiso 1 1 calc R . .
C18 C 0.6412(7) 0.2162(4) 0.1530(2) 0.132(3) Uani 1 1 d . . .
H18A H 0.6526 0.2508 0.1716 0.198 Uiso 1 1 calc R . .
H18B H 0.7116 0.2032 0.1434 0.198 Uiso 1 1 calc R . .
H18C H 0.6051 0.1685 0.1602 0.198 Uiso 1 1 calc R . .
C19 C 0.4433(8) 0.2224(4) 0.04150(19) 0.143(4) Uani 1 1 d . . .
H19A H 0.4761 0.1705 0.0410 0.215 Uiso 1 1 calc R . .
H19B H 0.4707 0.2532 0.0233 0.215 Uiso 1 1 calc R . .
H19C H 0.3640 0.2178 0.0397 0.215 Uiso 1 1 calc R . .
C20 C 0.5234(6) 0.0782(5) 0.10099(17) 0.089(2) Uani 1 1 d . . .
H20 H 0.4572 0.0775 0.1127 0.107 Uiso 1 1 calc R . .
C21 C 0.6722(9) 0.1220(5) 0.0743(3) 0.156(5) Uani 1 1 d . . .
H21 H 0.7259 0.1549 0.0652 0.187 Uiso 1 1 calc R . .
C22 C 0.6703(9) 0.0418(5) 0.0752(3) 0.149(4) Uani 1 1 d . . .
H22 H 0.7232 0.0093 0.0654 0.179 Uiso 1 1 calc R . .
C23 C 0.5561(6) -0.0661(3) 0.0998(2) 0.081(2) Uani 1 1 d . . .
C24 C 0.5790(6) -0.0936(4) 0.13102(19) 0.081(2) Uani 1 1 d . . .
C25 C 0.5469(6) -0.1700(4) 0.13756(18) 0.080(2) Uani 1 1 d . . .
H25 H 0.5621 -0.1910 0.1584 0.096 Uiso 1 1 calc R . .
C26 C 0.4932(6) -0.2171(3) 0.11475(17) 0.0618(18) Uani 1 1 d . . .
C27 C 0.4738(7) -0.1859(4) 0.08357(18) 0.092(3) Uani 1 1 d . . .
H27 H 0.4376 -0.2170 0.0678 0.110 Uiso 1 1 calc R . .
C28 C 0.5062(8) -0.1104(4) 0.07515(19) 0.102(3) Uani 1 1 d . . .
C29 C 0.6305(8) -0.0425(4) 0.1574(2) 0.158(4) Uani 1 1 d . . .
H29A H 0.6393 -0.0729 0.1774 0.236 Uiso 1 1 calc R . .
H29B H 0.5833 0.0023 0.1616 0.236 Uiso 1 1 calc R . .
H29C H 0.7018 -0.0242 0.1502 0.236 Uiso 1 1 calc R . .
C30 C 0.4883(9) -0.0782(4) 0.04009(19) 0.156(4) Uani 1 1 d . . .
H30A H 0.5160 -0.0248 0.0389 0.234 Uiso 1 1 calc R . .
H30B H 0.4104 -0.0785 0.0348 0.234 Uiso 1 1 calc R . .
H30C H 0.5272 -0.1110 0.0246 0.234 Uiso 1 1 calc R . .
O6 O 0.4870(3) 0.6729(2) 0.15112(11) 0.0676(12) Uani 1 1 d . . .
O5 O 0.3869(4) 0.6681(2) 0.10418(10) 0.0782(14) Uani 1 1 d . . .
C30A C 0.4527(6) 0.7020(3) 0.12394(17) 0.0594(18) Uani 1 1 d . . .
N4 N 0.5771(6) 0.1435(3) 0.09002(17) 0.093(2) Uani 1 1 d . . .
N5 N 0.5827(7) 0.0153(3) 0.09196(18) 0.092(2) Uani 1 1 d . . .
C31 C 0.5232(8) 0.5459(4) 0.23180(16) 0.065(2) Uani 1 1 d . . .
C32 C 0.5207(6) 0.5088(3) 0.26614(14) 0.0601(17) Uani 1 1 d . . .
C33 C 0.4244(6) 0.4803(3) 0.27868(15) 0.0584(17) Uani 1 1 d . . .
H33 H 0.3595 0.4853 0.2662 0.070 Uiso 1 1 calc R . .
C34 C 0.4192(6) 0.4442(3) 0.30919(14) 0.0584(18) Uani 1 1 d . . .
C35 C 0.5184(7) 0.4394(3) 0.32701(13) 0.0574(18) Uani 1 1 d . . .
C36 C 0.6172(7) 0.4682(4) 0.31569(15) 0.0678(19) Uani 1 1 d . . .
C37 C 0.6186(6) 0.5043(3) 0.28495(15) 0.0633(17) Uani 1 1 d . . .
H37 H 0.6843 0.5256 0.2768 0.076 Uiso 1 1 calc R . .
C38 C 0.3118(6) 0.4109(4) 0.32209(15) 0.083(2) Uani 1 1 d . . .
H38A H 0.2537 0.4195 0.3061 0.124 Uiso 1 1 calc R . .
H38B H 0.2931 0.4371 0.3424 0.124 Uiso 1 1 calc R . .
H38C H 0.3201 0.3550 0.3260 0.124 Uiso 1 1 calc R . .
C39 C 0.7251(6) 0.4628(4) 0.33481(16) 0.098(3) Uani 1 1 d . . .
H39A H 0.7833 0.4872 0.3223 0.147 Uiso 1 1 calc R . .
H39B H 0.7431 0.4081 0.3387 0.147 Uiso 1 1 calc R . .
H39C H 0.7175 0.4898 0.3556 0.147 Uiso 1 1 calc R . .
C40 C 0.5245(5) 0.4310(3) 0.38824(16) 0.0619(18) Uani 1 1 d . . .
H40 H 0.5248 0.4852 0.3927 0.074 Uiso 1 1 calc R . .
C41 C 0.5245(7) 0.3176(4) 0.36173(18) 0.103(3) Uani 1 1 d . . .
H41 H 0.5240 0.2800 0.3448 0.124 Uiso 1 1 calc R . .
C42 C 0.5319(7) 0.3035(4) 0.39402(19) 0.103(3) Uani 1 1 d . . .
H42 H 0.5371 0.2536 0.4038 0.124 Uiso 1 1 calc R . .
C43 C 0.5532(7) 0.3850(3) 0.44589(14) 0.0638(19) Uani 1 1 d . . .
C44 C 0.4659(6) 0.3853(3) 0.46730(16) 0.0647(18) Uani 1 1 d . . .
C45 C 0.4930(6) 0.3955(3) 0.50097(14) 0.0734(19) Uani 1 1 d . . .
H45 H 0.4364 0.3978 0.5165 0.088 Uiso 1 1 calc R . .
C46 C 0.0997(7) 0.5978(3) 0.01112(16) 0.0648(18) Uani 1 1 d . . .
C47 C 0.1860(6) 0.6026(3) -0.01182(16) 0.074(2) Uani 1 1 d . . .
H47 H 0.2594 0.6012 -0.0045 0.089 Uiso 1 1 calc R . .
C48 C 0.6633(7) 0.3907(4) 0.45475(16) 0.082(2) Uani 1 1 d . . .
C49 C 0.3440(6) 0.3748(4) 0.45627(16) 0.099(2) Uani 1 1 d . . .
H49A H 0.2967 0.3770 0.4753 0.149 Uiso 1 1 calc R . .
H49B H 0.3352 0.3243 0.4455 0.149 Uiso 1 1 calc R . .
H49C H 0.3240 0.4164 0.4411 0.149 Uiso 1 1 calc R . .
C50 C 0.7568(7) 0.3880(5) 0.43023(18) 0.135(3) Uani 1 1 d . . .
H50A H 0.8265 0.3935 0.4417 0.203 Uiso 1 1 calc R . .
H50B H 0.7483 0.4306 0.4146 0.203 Uiso 1 1 calc R . .
H50C H 0.7552 0.3381 0.4187 0.203 Uiso 1 1 calc R . .
C51 C 0.1230(9) 0.5880(4) 0.04766(17) 0.082(2) Uani 1 1 d . . .
N2 N 0.5178(4) 0.3986(3) 0.35821(12) 0.0632(14) Uani 1 1 d . . .
N3 N 0.5308(5) 0.3741(3) 0.41064(12) 0.0674(15) Uani 1 1 d . . .
O8 O 0.6116(5) 0.5760(3) 0.22134(10) 0.0800(13) Uani 1 1 d . . .
O9 O 0.2288(5) 0.5963(3) 0.05536(10) 0.0885(15) Uani 1 1 d . . .
O7 O 0.4334(4) 0.5431(2) 0.21550(10) 0.0738(13) Uani 1 1 d . . .
O10 O 0.0493(5) 0.5735(3) 0.06753(12) 0.111(2) Uani 1 1 d . . .

loop_
_atom_site_aniso_label
_atom_site_aniso_U_11
_atom_site_aniso_U_22
_atom_site_aniso_U_33
_atom_site_aniso_U_23
_atom_site_aniso_U_13
_atom_site_aniso_U_12
Zn1 0.0529(5) 0.0632(4) 0.0370(4) 0.0036(3) -0.0087(3) 0.0032(4)
Zn2 0.0585(6) 0.0676(4) 0.0377(4) -0.0007(4) -0.0092(3) 0.0051(4)
C1 0.053(6) 0.081(4) 0.040(4) 0.011(3) 0.007(4) 0.015(4)
O2 0.053(4) 0.119(3) 0.052(3) -0.007(2) -0.006(2) 0.026(2)
O1 0.068(4) 0.135(4) 0.045(3) -0.023(3) 0.003(2) 0.019(3)
C2 0.043(5) 0.080(4) 0.039(4) 0.007(3) -0.001(4) -0.003(3)
C3 0.054(6) 0.087(5) 0.051(4) 0.000(3) -0.004(4) 0.000(4)
C4 0.063(6) 0.082(4) 0.051(5) 0.011(4) -0.011(4) 0.004(4)
C5 0.053(6) 0.063(4) 0.063(5) 0.012(3) 0.016(4) 0.009(3)
C6 0.044(5) 0.070(4) 0.059(5) 0.001(3) 0.001(4) 0.001(3)
C7 0.050(5) 0.078(4) 0.054(5) 0.005(3) -0.008(4) -0.001(3)
C8 0.052(6) 0.145(7) 0.120(7) -0.005(5) -0.024(5) 0.016(4)
C9 0.090(6) 0.104(5) 0.056(5) -0.023(4) 0.009(4) -0.004(4)
C10 0.084(9) 0.069(6) 0.055(6) 0.000 0.009(6) 0.000
C11 0.094(8) 0.064(4) 0.144(8) 0.002(4) 0.054(5) -0.003(4)
N1 0.047(4) 0.075(4) 0.076(4) 0.007(3) 0.020(3) 0.003(3)
C12 0.058(6) 0.045(4) 0.061(5) 0.009(3) 0.016(4) -0.005(3)
O4 0.080(4) 0.057(2) 0.067(3) -0.004(2) -0.016(3) 0.014(2)
O3 0.073(4) 0.062(3) 0.065(3) -0.003(2) -0.020(3) 0.014(2)
C13 0.060(5) 0.063(4) 0.039(4) 0.011(3) -0.006(3) -0.004(3)
C14 0.095(7) 0.058(5) 0.101(6) 0.011(4) -0.027(5) 0.011(4)
C14A 0.068(6) 0.068(5) 0.087(5) 0.001(4) -0.017(4) -0.006(4)
C15 0.080(6) 0.040(4) 0.118(7) 0.003(4) -0.003(5) -0.005(4)
C16 0.099(7) 0.063(5) 0.083(6) -0.011(4) -0.002(5) 0.005(4)
C17 0.090(6) 0.059(4) 0.080(5) -0.003(4) -0.022(4) 0.009(4)
C18 0.133(9) 0.093(6) 0.169(9) 0.008(5) -0.048(7) 0.025(5)
C19 0.230(12) 0.111(6) 0.088(6) -0.048(5) -0.046(7) 0.036(6)
C20 0.092(6) 0.063(5) 0.113(6) 0.015(5) -0.008(4) -0.011(6)
C21 0.119(10) 0.076(7) 0.275(14) -0.009(7) 0.102(9) 0.017(6)
C22 0.157(12) 0.055(6) 0.236(12) -0.030(6) 0.067(10) 0.013(6)
C23 0.080(6) 0.044(5) 0.120(7) 0.003(4) 0.006(5) 0.006(3)
C24 0.085(6) 0.067(5) 0.090(6) 0.003(4) -0.011(4) -0.013(4)
C25 0.094(6) 0.050(4) 0.095(6) 0.014(4) -0.040(5) -0.001(4)
C26 0.068(5) 0.058(4) 0.060(5) -0.001(4) -0.002(4) 0.007(3)
C27 0.148(8) 0.059(4) 0.068(5) -0.004(4) -0.019(5) -0.015(4)
C28 0.173(9) 0.056(5) 0.078(6) 0.016(4) -0.004(5) -0.023(5)
C29 0.192(11) 0.098(6) 0.182(10) 0.010(6) -0.093(9) -0.049(6)
C30 0.281(13) 0.093(5) 0.094(7) 0.021(5) -0.017(7) -0.037(7)
O6 0.069(4) 0.057(2) 0.076(3) 0.015(2) -0.012(3) -0.004(2)
O5 0.108(4) 0.071(3) 0.055(3) 0.007(2) -0.023(3) -0.024(3)
C30A 0.083(6) 0.044(4) 0.051(5) 0.004(3) 0.012(4) -0.002(3)
N4 0.095(6) 0.052(4) 0.134(6) 0.005(3) 0.017(4) 0.001(4)
N5 0.084(6) 0.057(5) 0.136(6) 0.007(4) 0.024(4) 0.009(4)
C31 0.086(8) 0.067(4) 0.043(5) 0.001(3) -0.001(5) 0.016(4)
C32 0.067(6) 0.081(4) 0.032(4) -0.007(3) 0.001(4) 0.013(4)
C33 0.057(6) 0.076(4) 0.042(4) -0.003(3) -0.014(4) 0.006(4)
C34 0.071(6) 0.080(4) 0.025(4) -0.001(3) -0.003(4) 0.011(4)
C35 0.087(6) 0.060(4) 0.026(4) 0.001(3) -0.008(4) 0.006(4)
C36 0.074(7) 0.096(5) 0.033(4) 0.006(3) -0.013(4) 0.006(4)
C37 0.051(5) 0.090(4) 0.049(4) 0.005(3) -0.005(4) -0.003(3)
C38 0.076(6) 0.105(5) 0.067(4) 0.019(4) -0.017(4) -0.001(4)
C39 0.084(7) 0.152(6) 0.057(5) 0.029(4) -0.028(4) 0.003(5)
C40 0.078(5) 0.060(4) 0.048(4) 0.007(4) -0.011(3) -0.003(3)
C41 0.171(9) 0.098(6) 0.040(5) -0.005(4) -0.014(5) 0.018(5)
C42 0.161(9) 0.084(5) 0.064(6) 0.004(4) -0.015(5) 0.013(5)
C43 0.077(7) 0.084(4) 0.030(4) -0.006(3) -0.020(4) 0.011(4)
C44 0.052(6) 0.094(5) 0.048(5) 0.012(3) -0.012(4) 0.005(3)
C45 0.070(6) 0.115(5) 0.035(4) 0.010(3) 0.003(4) 0.009(4)
C46 0.065(6) 0.072(4) 0.057(5) -0.005(3) -0.008(4) -0.004(4)
C47 0.064(6) 0.110(5) 0.049(5) -0.005(4) -0.020(4) -0.008(4)
C48 0.079(7) 0.127(6) 0.039(5) 0.004(4) -0.012(4) 0.013(4)
C49 0.094(7) 0.146(6) 0.057(5) 0.017(4) -0.026(4) -0.004(5)
C50 0.077(7) 0.270(11) 0.059(5) 0.001(6) -0.002(5) 0.021(6)
C51 0.136(9) 0.070(4) 0.039(5) 0.000(4) -0.030(5) 0.003(5)
N2 0.088(4) 0.061(4) 0.040(4) -0.004(3) -0.011(3) 0.005(3)
N3 0.096(5) 0.063(3) 0.043(4) -0.004(3) -0.007(3) 0.001(3)
O8 0.082(4) 0.108(3) 0.050(3) 0.015(3) -0.007(3) 0.005(3)
O9 0.104(5) 0.116(4) 0.045(3) 0.000(2) -0.033(3) 0.005(3)
O7 0.075(4) 0.100(3) 0.045(3) 0.019(2) -0.020(3) -0.002(2)
O10 0.