####################################################################### 
# 
# This file contains crystal structure data downloaded from the 
# Cambridge Structural Database (CSD) hosted by the Cambridge 
# Crystallographic Data Centre (CCDC).
# 
# Full information about CCDC data access policies and citation 
# guidelines are available at http://www.ccdc.cam.ac.uk/access/V1 
# 
# Audit and citation data items may have been added by the CCDC. 
# Please retain this information to preserve the provenance of 
# this file and to allow appropriate attribution of the data. 
# 
#######################################################################

data_1
_audit_block_doi                 10.5517/ccxvwn8
_database_code_depnum_ccdc_archive 'CCDC 859991'
loop_
_citation_id
_citation_doi
_citation_year
1 10.1016/j.poly.2012.11.051 2013
_audit_update_record             
;
2011-12-26 deposited with the CCDC.	2024-07-13 downloaded from the CCDC.
;
#TrackingRef 'CCDC 859991.cif'


_audit_creation_method           SHELXL-97
_chemical_name_systematic        
;
?
;
_chemical_name_common            ?
_chemical_melting_point          ?
_chemical_formula_moiety         ?
_chemical_formula_sum            'C21 H23 Cd N2 O7 P'
_chemical_formula_weight         558.78

loop_
_atom_type_symbol
_atom_type_description
_atom_type_scat_dispersion_real
_atom_type_scat_dispersion_imag
_atom_type_scat_source
C C 0.0033 0.0016 'International Tables Vol C Tables 4.2.6.8 and 6.1.1.4'
H H 0.0000 0.0000 'International Tables Vol C Tables 4.2.6.8 and 6.1.1.4'
N N 0.0061 0.0033 'International Tables Vol C Tables 4.2.6.8 and 6.1.1.4'
O O 0.0106 0.0060 'International Tables Vol C Tables 4.2.6.8 and 6.1.1.4'
P P 0.1023 0.0942 'International Tables Vol C Tables 4.2.6.8 and 6.1.1.4'
Cd Cd -0.8075 1.2024 'International Tables Vol C Tables 4.2.6.8 and 6.1.1.4'

_symmetry_cell_setting           Monoclinic
_symmetry_space_group_name_H-M   C2/c

loop_
_symmetry_equiv_pos_as_xyz
'x, y, z'
'-x, y, -z+1/2'
'x+1/2, y+1/2, z'
'-x+1/2, y+1/2, -z+1/2'
'-x, -y, -z'
'x, -y, z-1/2'
'-x+1/2, -y+1/2, -z'
'x+1/2, -y+1/2, z-1/2'

_cell_length_a                   23.4405(4)
_cell_length_b                   12.0253(2)
_cell_length_c                   19.3466(3)
_cell_angle_alpha                90.00
_cell_angle_beta                 104.3700(10)
_cell_angle_gamma                90.00
_cell_volume                     5282.78(15)
_cell_formula_units_Z            8
_cell_measurement_temperature    296(2)
_cell_measurement_reflns_used    ?
_cell_measurement_theta_min      ?
_cell_measurement_theta_max      ?

_exptl_crystal_description       block
_exptl_crystal_colour            yellow
_exptl_crystal_size_max          0.420
_exptl_crystal_size_mid          0.240
_exptl_crystal_size_min          0.120
_exptl_crystal_density_meas      ?
_exptl_crystal_density_diffrn    1.405
_exptl_crystal_density_method    'not measured'
_exptl_crystal_F_000             2256
_exptl_absorpt_coefficient_mu    0.926
_exptl_absorpt_correction_type   Multi-scan
_exptl_absorpt_correction_T_min  0.6485
_exptl_absorpt_correction_T_max  0.7456
_exptl_absorpt_process_details   'SADABS (Bruker, 2008)'

_exptl_special_details           
;
?
;

_diffrn_ambient_temperature      296(2)
_diffrn_radiation_wavelength     0.71073
_diffrn_radiation_type           MoK\a
_diffrn_radiation_source         'fine-focus sealed tube'
_diffrn_radiation_monochromator  graphite
_diffrn_measurement_device_type  'Bruker P4'
_diffrn_measurement_method       '\w scans'
_diffrn_detector_area_resol_mean ?
_diffrn_standards_number         ?
_diffrn_standards_interval_count ?
_diffrn_standards_interval_time  ?
_diffrn_standards_decay_%        ?
_diffrn_reflns_number            24234
_diffrn_reflns_av_R_equivalents  0.0443
_diffrn_reflns_av_sigmaI/netI    0.0417
_diffrn_reflns_limit_h_min       -30
_diffrn_reflns_limit_h_max       29
_diffrn_reflns_limit_k_min       -15
_diffrn_reflns_limit_k_max       15
_diffrn_reflns_limit_l_min       -25
_diffrn_reflns_limit_l_max       25
_diffrn_reflns_theta_min         1.92
_diffrn_reflns_theta_max         27.90
_reflns_number_total             6313
_reflns_number_gt                4624
_reflns_threshold_expression     >2sigma(I)

_computing_data_collection       'Bruker XSCANS'
_computing_cell_refinement       'Bruker XSCANS'
_computing_data_reduction        'Bruker SHELXTL'
_computing_structure_solution    'SHELXS-97 (Sheldrick, 1990)'
_computing_structure_refinement  'SHELXL-97 (Sheldrick, 1997)'
_computing_molecular_graphics    'Bruker SHELXTL'
_computing_publication_material  'Bruker SHELXTL'

_refine_special_details          
;
Refinement of F^2^ against ALL reflections. The weighted R-factor wR and
goodness of fit S are based on F^2^, conventional R-factors R are based
on F, with F set to zero for negative F^2^. The threshold expression of
F^2^ > 2sigma(F^2^) is used only for calculating R-factors(gt) etc. and is
not relevant to the choice of reflections for refinement. R-factors based
on F^2^ are statistically about twice as large as those based on F, and R-
factors based on ALL data will be even larger.
;

_refine_ls_structure_factor_coef Fsqd
_refine_ls_matrix_type           full
_refine_ls_weighting_scheme      calc
_refine_ls_weighting_details     
'calc w=1/[\s^2^(Fo^2^)+(0.1207P)^2^+9.8614P] where P=(Fo^2^+2Fc^2^)/3'
_atom_sites_solution_primary     direct
_atom_sites_solution_secondary   difmap
_atom_sites_solution_hydrogens   geom
_refine_ls_hydrogen_treatment    constr
_refine_ls_extinction_method     none
_refine_ls_extinction_coef       ?
_refine_ls_number_reflns         6313
_refine_ls_number_parameters     282
_refine_ls_number_restraints     0
_refine_ls_R_factor_all          0.0749
_refine_ls_R_factor_gt           0.0542
_refine_ls_wR_factor_ref         0.2016
_refine_ls_wR_factor_gt          0.1800
_refine_ls_goodness_of_fit_ref   1.054
_refine_ls_restrained_S_all      1.054
_refine_ls_shift/su_max          0.001
_refine_ls_shift/su_mean         0.000

loop_
_atom_site_label
_atom_site_type_symbol
_atom_site_fract_x
_atom_site_fract_y
_atom_site_fract_z
_atom_site_U_iso_or_equiv
_atom_site_adp_type
_atom_site_occupancy
_atom_site_symmetry_multiplicity
_atom_site_calc_flag
_atom_site_refinement_flags
_atom_site_disorder_assembly
_atom_site_disorder_group
Cd1 Cd 0.426073(16) 0.62007(3) 0.139833(17) 0.04592(17) Uani 1 1 d . . .
P1 P 0.57459(6) 0.59811(12) 0.19127(6) 0.0441(3) Uani 1 1 d . . .
N1 N 0.3225(2) 0.6403(6) 0.1043(3) 0.0681(15) Uani 1 1 d . . .
N2 N 0.4019(2) 0.8043(4) 0.1452(2) 0.0600(12) Uani 1 1 d . . .
C1 C 0.6383(2) 0.6874(5) 0.2013(2) 0.0507(12) Uani 1 1 d . . .
C2 C 0.6323(4) 0.7980(7) 0.1849(4) 0.0795(19) Uani 1 1 d . . .
H2A H 0.5951 0.8296 0.1684 0.095 Uiso 1 1 calc R . .
C3 C 0.6838(6) 0.8634(8) 0.1937(6) 0.110(3) Uani 1 1 d . . .
H3A H 0.6804 0.9388 0.1828 0.132 Uiso 1 1 calc R . .
C4 C 0.7391(5) 0.8174(10) 0.2181(5) 0.105(3) Uani 1 1 d . . .
H4A H 0.7726 0.8615 0.2247 0.126 Uiso 1 1 calc R . .
C5 C 0.7435(3) 0.7119(9) 0.2317(4) 0.092(3) Uani 1 1 d . . .
H5A H 0.7807 0.6801 0.2458 0.111 Uiso 1 1 calc R . .
C6 C 0.6939(3) 0.6444(6) 0.2257(3) 0.0693(17) Uani 1 1 d . . .
H6A H 0.6986 0.5698 0.2383 0.083 Uiso 1 1 calc R . .
C7 C 0.5789(2) 0.5007(4) 0.1218(2) 0.0484(11) Uani 1 1 d . . .
H7A H 0.6143 0.4563 0.1374 0.058 Uiso 1 1 calc R . .
H7B H 0.5454 0.4509 0.1137 0.058 Uiso 1 1 calc R . .
C8 C 0.5798(2) 0.5583(5) 0.0527(2) 0.0502(12) Uani 1 1 d . . .
H8A H 0.5469 0.6096 0.0411 0.060 Uiso 1 1 calc R . .
H8B H 0.6156 0.6022 0.0606 0.060 Uiso 1 1 calc R . .
C9 C 0.5768(2) 0.4845(5) -0.0112(2) 0.0501(12) Uani 1 1 d . . .
C10 C 0.2837(3) 0.5581(10) 0.0849(3) 0.098(3) Uani 1 1 d . . .
H10A H 0.2971 0.4855 0.0837 0.117 Uiso 1 1 calc R . .
C11 C 0.2210(4) 0.5803(13) 0.0656(5) 0.124(4) Uani 1 1 d . . .
H11A H 0.1943 0.5222 0.0523 0.149 Uiso 1 1 calc R . .
C12 C 0.2021(4) 0.6818(14) 0.0670(5) 0.133(6) Uani 1 1 d . . .
H12A H 0.1618 0.6958 0.0544 0.159 Uiso 1 1 calc R . .
C13 C 0.2423(3) 0.7718(10) 0.0876(3) 0.101(3) Uani 1 1 d . . .
C14 C 0.2250(5) 0.8854(11) 0.0896(5) 0.114(5) Uani 1 1 d . . .
H14A H 0.1852 0.9032 0.0759 0.137 Uiso 1 1 calc R . .
C15 C 0.2623(5) 0.9631(11) 0.1094(5) 0.126(4) Uani 1 1 d . . .
H15A H 0.2492 1.0359 0.1103 0.151 Uiso 1 1 calc R . .
C16 C 0.3227(5) 0.9408(9) 0.1297(4) 0.102(3) Uani 1 1 d . . .
C17 C 0.3655(6) 1.0254(10) 0.1519(6) 0.135(4) Uani 1 1 d . . .
H17A H 0.3540 1.0989 0.1548 0.162 Uiso 1 1 calc R . .
C18 C 0.4230(6) 0.9980(8) 0.1688(6) 0.137(4) Uani 1 1 d . . .
H18A H 0.4513 1.0533 0.1826 0.165 Uiso 1 1 calc R . .
C19 C 0.4412(5) 0.8842(6) 0.1656(5) 0.089(2) Uani 1 1 d . . .
H19A H 0.4811 0.8667 0.1782 0.107 Uiso 1 1 calc R . .
C20 C 0.3440(3) 0.8300(7) 0.1272(3) 0.0711(19) Uani 1 1 d . . .
C21 C 0.3021(3) 0.7450(7) 0.1058(3) 0.0681(18) Uani 1 1 d . . .
O1 O 0.52057(16) 0.6691(3) 0.16794(18) 0.0528(8) Uani 1 1 d . . .
O2 O 0.58024(16) 0.5343(3) 0.25972(16) 0.0526(8) Uani 1 1 d . . .
O3 O 0.57443(19) 0.3808(4) -0.0065(2) 0.0626(11) Uani 1 1 d . . .
O4 O 0.57618(19) 0.5336(4) -0.07017(17) 0.0681(11) Uani 1 1 d . . .
O1W O 0.6029(5) 0.3096(11) 0.2742(6) 0.225(5) Uiso 1 1 d . . .
O2W O 0.5366(8) 0.1780(17) 0.0311(10) 0.167(6) Uiso 0.50 1 d P . .
O3W O 0.5651(8) 0.7413(15) -0.0992(9) 0.157(6) Uiso 0.50 1 d P . .
O4W O 0.3738(10) 1.2645(19) 0.0719(12) 0.216(9) Uiso 0.50 1 d P . .
O5W O 0.0780(10) 0.426(2) 0.0101(12) 0.204(9) Uiso 0.50 1 d P . .

loop_
_atom_site_aniso_label
_atom_site_aniso_U_11
_atom_site_aniso_U_22
_atom_site_aniso_U_33
_atom_site_aniso_U_23
_atom_site_aniso_U_13
_atom_site_aniso_U_12
Cd1 0.0481(2) 0.0577(3) 0.0323(2) -0.00110(13) 0.01063(15) 0.00634(16)
P1 0.0418(6) 0.0608(8) 0.0306(6) -0.0030(5) 0.0110(5) -0.0003(5)
N1 0.052(3) 0.111(5) 0.040(2) 0.004(2) 0.011(2) -0.004(3)
N2 0.065(3) 0.064(3) 0.048(2) 0.001(2) 0.007(2) 0.019(3)
C1 0.058(3) 0.064(3) 0.034(2) -0.006(2) 0.018(2) -0.010(3)
C2 0.087(5) 0.091(5) 0.065(4) 0.000(3) 0.027(3) -0.012(4)
C3 0.148(9) 0.089(6) 0.112(7) -0.015(5) 0.066(7) -0.055(6)
C4 0.107(7) 0.117(8) 0.103(6) -0.028(6) 0.049(6) -0.065(6)
C5 0.054(4) 0.156(9) 0.070(4) -0.035(5) 0.020(3) -0.021(5)
C6 0.054(3) 0.099(5) 0.054(3) -0.013(3) 0.013(3) -0.009(3)
C7 0.047(3) 0.061(3) 0.037(2) -0.007(2) 0.0099(19) 0.000(2)
C8 0.057(3) 0.064(3) 0.031(2) -0.005(2) 0.013(2) 0.003(2)
C9 0.039(2) 0.073(4) 0.037(2) -0.007(2) 0.0078(19) 0.005(2)
C10 0.072(5) 0.169(9) 0.050(3) 0.001(5) 0.011(3) -0.038(5)
C11 0.074(6) 0.227(14) 0.068(5) 0.007(7) 0.010(4) -0.055(8)
C12 0.062(5) 0.274(18) 0.064(5) 0.029(8) 0.021(4) 0.019(8)
C13 0.055(4) 0.208(11) 0.044(3) 0.025(5) 0.017(3) 0.036(6)
C14 0.084(6) 0.198(13) 0.063(5) 0.030(6) 0.021(4) 0.092(7)
C15 0.137(9) 0.166(11) 0.075(6) 0.022(6) 0.029(6) 0.100(9)
C16 0.134(8) 0.116(7) 0.057(4) 0.009(4) 0.026(4) 0.078(7)
C17 0.170(11) 0.101(8) 0.118(8) -0.008(6) 0.007(7) 0.068(8)
C18 0.215(14) 0.059(5) 0.128(8) -0.014(5) 0.023(8) -0.005(7)
C19 0.103(6) 0.066(5) 0.089(6) -0.007(3) 0.005(5) 0.008(4)
C20 0.083(4) 0.088(5) 0.041(3) 0.009(3) 0.014(3) 0.040(4)
C21 0.052(3) 0.117(6) 0.035(3) 0.011(3) 0.011(2) 0.027(4)
O1 0.0499(19) 0.061(2) 0.0487(19) -0.0037(16) 0.0145(15) 0.0058(18)
O2 0.066(2) 0.061(2) 0.0326(16) 0.0007(14) 0.0157(15) -0.0015(18)
O3 0.066(3) 0.074(3) 0.049(2) -0.0091(17) 0.0170(19) 0.001(2)
O4 0.095(3) 0.078(3) 0.0329(17) -0.0036(17) 0.0200(19) 0.006(2)

_geom_special_details            
;
All esds (except the esd in the dihedral angle between two l.s. planes)
are estimated using the full covariance matrix. The cell esds are taken
into account individually in the estimation of esds in distances, angles
and torsion angles; correlations between esds in cell parameters are only
used when they are defined by crystal symmetry. An approximate (isotropic)
treatment of cell esds is used for estimating esds involving l.s. planes.
;

loop_
_geom_bond_atom_site_label_1
_geom_bond_atom_site_label_2
_geom_bond_distance
_geom_bond_site_symmetry_2
_geom_bond_publ_flag
Cd1 O1 2.225(4) . ?
Cd1 O2 2.237(3) 2_655 ?
Cd1 O4 2.280(4) 5_665 ?
Cd1 N2 2.295(5) . ?
Cd1 N1 2.365(5) . ?
Cd1 O3 2.576(4) 5_665 ?
P1 O1 1.501(4) . ?
P1 O2 1.508(3) . ?
P1 C7 1.804(5) . ?
P1 C1 1.811(5) . ?
N1 C10 1.332(10) . ?
N1 C21 1.349(9) . ?
N2 C19 1.323(10) . ?
N2 C20 1.349(8) . ?
C1 C2 1.366(10) . ?
C1 C6 1.372(8) . ?
C2 C3 1.417(12) . ?
C3 C4 1.379(14) . ?
C4 C5 1.294(13) . ?
C5 C6 1.398(10) . ?
C7 C8 1.511(6) . ?
C8 C9 1.510(7) . ?
C9 O3 1.252(7) . ?
C9 O4 1.281(6) . ?
C10 C11 1.450(13) . ?
C11 C12 1.301(19) . ?
C12 C13 1.426(17) . ?
C13 C21 1.396(9) . ?
C13 C14 1.428(15) . ?
C14 C15 1.272(15) . ?
C15 C16 1.397(14) . ?
C16 C17 1.419(15) . ?
C16 C20 1.428(11) . ?
C17 C18 1.346(15) . ?
C18 C19 1.439(12) . ?
C20 C21 1.407(11) . ?
O2 Cd1 2.237(3) 2_655 ?
O3 Cd1 2.576(4) 5_665 ?
O4 Cd1 2.280(4) 5_665 ?
O3W O4W 1.40(2) 5_675 ?
O4W O3W 1.40(2) 5_675 ?

loop_
_geom_angle_atom_site_label_1
_geom_angle_atom_site_label_2
_geom_angle_atom_site_label_3
_geom_angle
_geom_angle_site_symmetry_1
_geom_angle_site_symmetry_3
_geom_angle_publ_flag
O1 Cd1 O2 100.75(13) . 2_655 ?
O1 Cd1 O4 103.59(15) . 5_665 ?
O2 Cd1 O4 98.21(13) 2_655 5_665 ?
O1 Cd1 N2 88.59(17) . . ?
O2 Cd1 N2 109.61(15) 2_655 . ?
O4 Cd1 N2 147.03(15) 5_665 . ?
O1 Cd1 N1 158.6(2) . . ?
O2 Cd1 N1 90.87(15) 2_655 . ?
O4 Cd1 N1 92.29(19) 5_665 . ?
N2 Cd1 N1 70.5(2) . . ?
O1 Cd1 O3 90.15(13) . 5_665 ?
O2 Cd1 O3 151.98(13) 2_655 5_665 ?
O4 Cd1 O3 53.92(13) 5_665 5_665 ?
N2 Cd1 O3 96.27(15) . 5_665 ?
N1 Cd1 O3 87.73(15) . 5_665 ?
O1 P1 O2 115.9(2) . . ?
O1 P1 C7 110.2(2) . . ?
O2 P1 C7 108.3(2) . . ?
O1 P1 C1 107.8(3) . . ?
O2 P1 C1 108.5(2) . . ?
C7 P1 C1 105.5(2) . . ?
C10 N1 C21 118.5(7) . . ?
C10 N1 Cd1 125.8(6) . . ?
C21 N1 Cd1 115.7(4) . . ?
C19 N2 C20 119.5(6) . . ?
C19 N2 Cd1 123.6(5) . . ?
C20 N2 Cd1 117.0(5) . . ?
C2 C1 C6 118.8(6) . . ?
C2 C1 P1 121.1(5) . . ?
C6 C1 P1 120.0(5) . . ?
C1 C2 C3 118.4(8) . . ?
C4 C3 C2 121.2(9) . . ?
C5 C4 C3 118.9(8) . . ?
C4 C5 C6 122.0(8) . . ?
C1 C6 C5 120.6(7) . . ?
C8 C7 P1 112.2(4) . . ?
C9 C8 C7 116.5(5) . . ?
O3 C9 O4 122.1(5) . . ?
O3 C9 C8 121.4(5) . . ?
O4 C9 C8 116.5(5) . . ?
N1 C10 C11 121.0(11) . . ?
C12 C11 C10 119.7(12) . . ?
C11 C12 C13 120.9(10) . . ?
C21 C13 C12 116.5(10) . . ?
C21 C13 C14 119.3(10) . . ?
C12 C13 C14 124.2(9) . . ?
C15 C14 C13 122.1(9) . . ?
C14 C15 C16 121.1(11) . . ?
C15 C16 C17 122.6(10) . . ?
C15 C16 C20 120.6(11) . . ?
C17 C16 C20 116.8(8) . . ?
C18 C17 C16 119.2(9) . . ?
C17 C18 C19 120.8(11) . . ?
N2 C19 C18 120.7(10) . . ?
N2 C20 C21 119.5(6) . . ?
N2 C20 C16 122.9(9) . . ?
C21 C20 C16 117.6(7) . . ?
N1 C21 C13 123.3(8) . . ?
N1 C21 C20 117.3(6) . . ?
C13 C21 C20 119.3(8) . . ?
P1 O1 Cd1 129.6(2) . . ?
P1 O2 Cd1 121.2(2) . 2_655 ?
C9 O3 Cd1 85.5(3) . 5_665 ?
C9 O4 Cd1 98.4(4) . 5_665 ?

_diffrn_measured_fraction_theta_max 0.997
_diffrn_reflns_theta_full        27.90
_diffrn_measured_fraction_theta_full 0.997
_refine_diff_density_max         1.072
_refine_diff_density_min         -0.551
_refine_diff_density_rms         0.142


