####################################################################### 
# 
# This file contains crystal structure data downloaded from the 
# Cambridge Structural Database (CSD) hosted by the Cambridge 
# Crystallographic Data Centre (CCDC).
# 
# Full information about CCDC data access policies and citation 
# guidelines are available at http://www.ccdc.cam.ac.uk/access/V1 
# 
# Audit and citation data items may have been added by the CCDC. 
# Please retain this information to preserve the provenance of 
# this file and to allow appropriate attribution of the data. 
# 
#######################################################################

data_07032b
_audit_block_doi                 10.5517/ccpjqws
_database_code_depnum_ccdc_archive 'CCDC 641696'
loop_
_citation_id
_citation_doi
_citation_year
1 10.1002/anie.200701325 2007
_audit_update_record             
;
2007-03-23 deposited with the CCDC.	2024-07-13 downloaded from the CCDC.
;

_audit_creation_method           SHELXL-97
_chemical_name_systematic        
;
?
;
_chemical_name_common            ?
_chemical_melting_point          ?
_chemical_formula_moiety         ?
_chemical_formula_sum            'C56 H40 Au2 F3 N2 O2 P2'
_chemical_formula_weight         1285.80

loop_
_atom_type_symbol
_atom_type_description
_atom_type_scat_dispersion_real
_atom_type_scat_dispersion_imag
_atom_type_scat_source
C C 0.0033 0.0016 'International Tables Vol C Tables 4.2.6.8 and 6.1.1.4'
H H 0.0000 0.0000 'International Tables Vol C Tables 4.2.6.8 and 6.1.1.4'
N N 0.0061 0.0033 'International Tables Vol C Tables 4.2.6.8 and 6.1.1.4'
O O 0.0106 0.0060 'International Tables Vol C Tables 4.2.6.8 and 6.1.1.4'
F F 0.0171 0.0103 'International Tables Vol C Tables 4.2.6.8 and 6.1.1.4'
P P 0.1023 0.0942 'International Tables Vol C Tables 4.2.6.8 and 6.1.1.4'
Au Au -2.0133 8.8022 'International Tables Vol C Tables 4.2.6.8 and 6.1.1.4'

_symmetry_cell_setting           orthorhombic
_symmetry_space_group_name_H-M   C222(1)

loop_
_symmetry_equiv_pos_as_xyz
'x, y, z'
'-x, -y, z+1/2'
'-x, y, -z+1/2'
'x, -y, -z'
'x+1/2, y+1/2, z'
'-x+1/2, -y+1/2, z+1/2'
'-x+1/2, y+1/2, -z+1/2'
'x+1/2, -y+1/2, -z'

_cell_length_a                   11.8033(3)
_cell_length_b                   28.8564(4)
_cell_length_c                   38.3325(9)
_cell_angle_alpha                90.00
_cell_angle_beta                 90.00
_cell_angle_gamma                90.00
_cell_volume                     13056.1(5)
_cell_formula_units_Z            8
_cell_measurement_temperature    150(2)
_cell_measurement_reflns_used    165511
_cell_measurement_theta_min      2.04
_cell_measurement_theta_max      27.48

_exptl_crystal_description       Block
_exptl_crystal_colour            Colourless
_exptl_crystal_size_max          0.38
_exptl_crystal_size_mid          0.30
_exptl_crystal_size_min          0.15
_exptl_crystal_density_meas      ?
_exptl_crystal_density_diffrn    1.308
_exptl_crystal_density_method    'not measured'
_exptl_crystal_F_000             4968
_exptl_absorpt_coefficient_mu    4.580
_exptl_absorpt_correction_type   multi-scan
_exptl_absorpt_correction_T_min  0.2785
_exptl_absorpt_correction_T_max  0.5466
_exptl_absorpt_process_details   'DENZO-SMN (Otwinowski & Minor, 1997)'

_exptl_special_details           
;
?
;

_diffrn_ambient_temperature      150(2)
_diffrn_radiation_wavelength     0.71073
_diffrn_radiation_type           MoK\a
_diffrn_radiation_source         'fine-focus sealed tube'
_diffrn_radiation_monochromator  graphite
_diffrn_measurement_device_type  'Nonius Kappa-CCD'
_diffrn_measurement_method       '\f scans, and \w scans with \k offsets'
_diffrn_detector_area_resol_mean ?
_diffrn_standards_number         ?
_diffrn_standards_interval_count ?
_diffrn_standards_interval_time  ?
_diffrn_standards_decay_%        ?
_diffrn_reflns_number            21457
_diffrn_reflns_av_R_equivalents  0.0368
_diffrn_reflns_av_sigmaI/netI    0.0451
_diffrn_reflns_limit_h_min       -14
_diffrn_reflns_limit_h_max       14
_diffrn_reflns_limit_k_min       -34
_diffrn_reflns_limit_k_max       34
_diffrn_reflns_limit_l_min       -45
_diffrn_reflns_limit_l_max       45
_diffrn_reflns_theta_min         2.55
_diffrn_reflns_theta_max         25.03
_reflns_number_total             11503
_reflns_number_gt                10206
_reflns_threshold_expression     >2sigma(I)

_computing_data_collection       ?
_computing_cell_refinement       ?
_computing_data_reduction        ?
_computing_structure_solution    'SHELXS-97 (Sheldrick, 1990)'
_computing_structure_refinement  'SHELXL-97 (Sheldrick, 1997)'
_computing_molecular_graphics    ?
_computing_publication_material  ?

_refine_special_details          
;
Refinement of F^2^ against ALL reflections. The weighted R-factor wR and
goodness of fit S are based on F^2^, conventional R-factors R are based
on F, with F set to zero for negative F^2^. The threshold expression of
F^2^ > 2sigma(F^2^) is used only for calculating R-factors(gt) etc. and is
not relevant to the choice of reflections for refinement. R-factors based
on F^2^ are statistically about twice as large as those based on F, and R-
factors based on ALL data will be even larger.
;

_refine_ls_structure_factor_coef Fsqd
_refine_ls_matrix_type           full
_refine_ls_weighting_scheme      calc
_refine_ls_weighting_details     
'calc w=1/[\s^2^(Fo^2^)+(0.0810P)^2^+25.1909P] where P=(Fo^2^+2Fc^2^)/3'
_atom_sites_solution_primary     direct
_atom_sites_solution_secondary   difmap
_atom_sites_solution_hydrogens   geom
_refine_ls_hydrogen_treatment    constr
_refine_ls_extinction_method     none
_refine_ls_extinction_coef       ?
_refine_ls_abs_structure_details 'Flack H D (1983), Acta Cryst. A39, 876-881'
_refine_ls_abs_structure_Flack   0.059(9)
_refine_ls_number_reflns         11503
_refine_ls_number_parameters     556
_refine_ls_number_restraints     992
_refine_ls_R_factor_all          0.0486
_refine_ls_R_factor_gt           0.0425
_refine_ls_wR_factor_ref         0.1279
_refine_ls_wR_factor_gt          0.1246
_refine_ls_goodness_of_fit_ref   1.058
_refine_ls_restrained_S_all      1.026
_refine_ls_shift/su_max          0.001
_refine_ls_shift/su_mean         0.000

loop_
_atom_site_label
_atom_site_type_symbol
_atom_site_fract_x
_atom_site_fract_y
_atom_site_fract_z
_atom_site_U_iso_or_equiv
_atom_site_adp_type
_atom_site_occupancy
_atom_site_symmetry_multiplicity
_atom_site_calc_flag
_atom_site_refinement_flags
_atom_site_disorder_assembly
_atom_site_disorder_group
Au1 Au 0.68214(3) 0.319223(11) 0.116208(9) 0.05055(11) Uani 1 1 d U . .
P1 P 0.65909(19) 0.24444(7) 0.10240(6) 0.0402(5) Uani 1 1 d U . .
C1 C 0.5221(7) 0.2212(3) 0.1612(2) 0.0365(15) Uani 1 1 d U . .
Au2 Au 0.29200(3) 0.202861(10) 0.124651(10) 0.04758(11) Uani 1 1 d U . .
P2 P 0.30815(18) 0.27977(6) 0.13012(6) 0.0424(5) Uani 1 1 d U . .
C2 C 0.5888(6) 0.2061(3) 0.1323(2) 0.0420(17) Uani 1 1 d U . .
C3 C 0.6050(7) 0.1579(3) 0.1280(3) 0.050(2) Uani 1 1 d U . .
H3 H 0.6514 0.1478 0.1092 0.060 Uiso 1 1 calc R . .
C4 C 0.5584(8) 0.1253(3) 0.1489(3) 0.050(2) Uani 1 1 d U . .
H4 H 0.5721 0.0934 0.1447 0.060 Uiso 1 1 calc R . .
C5 C 0.4890(7) 0.1391(3) 0.1772(2) 0.0483(19) Uani 1 1 d U . .
C6 C 0.4418(8) 0.1064(3) 0.1992(3) 0.055(2) Uani 1 1 d U . .
H6 H 0.4581 0.0745 0.1959 0.066 Uiso 1 1 calc R . .
C7 C 0.3731(9) 0.1195(4) 0.2253(3) 0.063(2) Uani 1 1 d U . .
H7 H 0.3366 0.0968 0.2393 0.076 Uiso 1 1 calc R . .
C8 C 0.3542(9) 0.1684(3) 0.2322(2) 0.058(2) Uani 1 1 d U . .
H8 H 0.3074 0.1778 0.2511 0.069 Uiso 1 1 calc R . .
C9 C 0.4026(7) 0.1996(3) 0.2120(2) 0.0450(18) Uani 1 1 d U . .
H9 H 0.3897 0.2315 0.2167 0.054 Uiso 1 1 calc R . .
C10 C 0.4723(6) 0.1875(3) 0.1838(2) 0.0379(16) Uani 1 1 d U . .
C11 C 0.5080(7) 0.2704(3) 0.1699(2) 0.0401(16) Uani 1 1 d U . .
C12 C 0.4200(7) 0.2985(3) 0.1588(2) 0.0445(17) Uani 1 1 d U . .
C13 C 0.4111(8) 0.3460(3) 0.1709(3) 0.049(2) Uani 1 1 d U . .
H13 H 0.3511 0.3651 0.1628 0.059 Uiso 1 1 calc R . .
C14 C 0.4889(8) 0.3636(3) 0.1940(2) 0.054(2) Uani 1 1 d U . .
H14 H 0.4822 0.3947 0.2018 0.065 Uiso 1 1 calc R . .
C15 C 0.5773(8) 0.3361(3) 0.2062(2) 0.0502(19) Uani 1 1 d U . .
C16 C 0.6560(9) 0.3529(4) 0.2314(2) 0.061(2) Uani 1 1 d U . .
H16 H 0.6479 0.3838 0.2397 0.073 Uiso 1 1 calc R . .
C17 C 0.7388(9) 0.3276(4) 0.2435(3) 0.065(2) Uani 1 1 d U . .
H17 H 0.7903 0.3405 0.2599 0.077 Uiso 1 1 calc R . .
C18 C 0.7533(9) 0.2786(4) 0.2319(3) 0.059(2) Uani 1 1 d U . .
H18 H 0.8120 0.2600 0.2415 0.071 Uiso 1 1 calc R . .
C19 C 0.6832(7) 0.2606(3) 0.2077(2) 0.0487(18) Uani 1 1 d U . .
H19 H 0.6939 0.2299 0.1994 0.058 Uiso 1 1 calc R . .
C20 C 0.5903(7) 0.2891(3) 0.1946(2) 0.0432(17) Uani 1 1 d U . .
C21 C 0.7953(4) 0.21735(19) 0.09497(14) 0.0396(16) Uani 1 1 d GU . .
C22 C 0.8813(5) 0.2258(2) 0.11890(15) 0.071(3) Uani 1 1 d GU . .
H22 H 0.8689 0.2467 0.1377 0.086 Uiso 1 1 calc R . .
C23 C 0.9853(4) 0.2038(3) 0.11534(17) 0.084(3) Uani 1 1 d GU . .
H23 H 1.0441 0.2096 0.1317 0.101 Uiso 1 1 calc R . .
C24 C 1.0034(4) 0.1733(3) 0.08784(18) 0.069(3) Uani 1 1 d GU . .
H24 H 1.0745 0.1582 0.0854 0.083 Uiso 1 1 calc R . .
C25 C 0.9174(5) 0.1648(2) 0.06391(15) 0.059(2) Uani 1 1 d GU . .
H25 H 0.9297 0.1439 0.0451 0.070 Uiso 1 1 calc R . .
C26 C 0.8133(4) 0.1868(2) 0.06747(13) 0.0483(19) Uani 1 1 d GU . .
H26 H 0.7545 0.1810 0.0511 0.058 Uiso 1 1 calc R . .
C31 C 0.5845(5) 0.24120(19) 0.06110(12) 0.0439(17) Uani 1 1 d GU . .
C32 C 0.4986(5) 0.20931(19) 0.05486(15) 0.057(2) Uani 1 1 d GU . .
H32 H 0.4765 0.1882 0.0727 0.068 Uiso 1 1 calc R . .
C33 C 0.4450(5) 0.2082(2) 0.02258(18) 0.078(3) Uani 1 1 d GU . .
H33 H 0.3863 0.1864 0.0183 0.093 Uiso 1 1 calc R . .
C34 C 0.4773(6) 0.2390(2) -0.00346(14) 0.073(3) Uani 1 1 d GU . .
H34 H 0.4407 0.2383 -0.0255 0.088 Uiso 1 1 calc R . .
C35 C 0.5632(6) 0.2709(2) 0.00278(14) 0.066(2) Uani 1 1 d GU . .
H35 H 0.5853 0.2920 -0.0150 0.079 Uiso 1 1 calc R . .
C36 C 0.6168(5) 0.27201(19) 0.03506(16) 0.054(2) Uani 1 1 d GU . .
H36 H 0.6755 0.2938 0.0393 0.065 Uiso 1 1 calc R . .
C41 C 0.1816(4) 0.3022(2) 0.15067(17) 0.0501(19) Uani 1 1 d GU . .
C42 C 0.1320(6) 0.3431(2) 0.1393(2) 0.095(4) Uani 1 1 d GU . .
H42 H 0.1658 0.3603 0.1208 0.114 Uiso 1 1 calc R . .
C43 C 0.0330(7) 0.3590(2) 0.1548(3) 0.116(5) Uani 1 1 d GU . .
H43 H -0.0009 0.3870 0.1470 0.139 Uiso 1 1 calc R . .
C44 C -0.0164(6) 0.3340(3) 0.1818(2) 0.093(4) Uani 1 1 d GU . .
H44 H -0.0841 0.3448 0.1924 0.112 Uiso 1 1 calc R . .
C45 C 0.0332(6) 0.2930(3) 0.19319(17) 0.070(3) Uani 1 1 d GU . .
H45 H -0.0006 0.2759 0.2116 0.084 Uiso 1 1 calc R . .
C46 C 0.1322(5) 0.2771(2) 0.17764(17) 0.055(2) Uani 1 1 d GU . .
H46 H 0.1661 0.2491 0.1854 0.066 Uiso 1 1 calc R . .
C51 C 0.3231(6) 0.31016(19) 0.08929(13) 0.0483(18) Uani 1 1 d GU . .
C52 C 0.2541(6) 0.2957(2) 0.06197(17) 0.077(3) Uani 1 1 d GU . .
H52 H 0.2071 0.2693 0.0647 0.092 Uiso 1 1 calc R . .
C53 C 0.2541(7) 0.3200(3) 0.03065(15) 0.089(4) Uani 1 1 d GU . .
H53 H 0.2070 0.3101 0.0120 0.107 Uiso 1 1 calc R . .
C54 C 0.3229(7) 0.3587(2) 0.02665(14) 0.070(2) Uani 1 1 d GU . .
H54 H 0.3228 0.3753 0.0052 0.084 Uiso 1 1 calc R . .
C55 C 0.3918(6) 0.3732(2) 0.05397(18) 0.072(3) Uani 1 1 d GU . .
H55 H 0.4388 0.3996 0.0512 0.087 Uiso 1 1 calc R . .
C56 C 0.3919(5) 0.3489(2) 0.08529(15) 0.065(3) Uani 1 1 d GU . .
H56 H 0.4390 0.3588 0.1040 0.078 Uiso 1 1 calc R . .
N61 N 0.7042(7) 0.3905(2) 0.1213(2) 0.061(2) Uani 1 1 d DU . .
C62 C 0.6958(11) 0.4153(3) 0.0908(3) 0.086(4) Uani 1 1 d DU . .
H62 H 0.6796 0.3998 0.0695 0.103 Uiso 1 1 calc R . .
C63 C 0.7108(12) 0.4626(3) 0.0911(3) 0.084(4) Uani 1 1 d DU . .
H63 H 0.7066 0.4792 0.0698 0.101 Uiso 1 1 calc R . .
C64 C 0.7311(8) 0.4860(3) 0.1206(3) 0.059(2) Uani 1 1 d DU . .
C65 C 0.7385(10) 0.4595(3) 0.1518(3) 0.069(3) Uani 1 1 d DU . .
H65 H 0.7545 0.4745 0.1733 0.082 Uiso 1 1 calc R . .
C66 C 0.7223(11) 0.4116(3) 0.1510(3) 0.069(3) Uani 1 1 d DU . .
H66 H 0.7244 0.3943 0.1720 0.083 Uiso 1 1 calc R . .
N71 N 0.2697(6) 0.1318(2) 0.1220(2) 0.0503(17) Uani 1 1 d DU . .
C72 C 0.2139(9) 0.1100(3) 0.1486(3) 0.062(2) Uani 1 1 d DU . .
H72 H 0.1818 0.1275 0.1671 0.075 Uiso 1 1 calc R . .
C73 C 0.2046(10) 0.0620(3) 0.1483(3) 0.066(3) Uani 1 1 d DU . .
H73 H 0.1683 0.0470 0.1673 0.079 Uiso 1 1 calc R . .
C74 C 0.2444(8) 0.0364(3) 0.1224(3) 0.061(2) Uani 1 1 d DU . .
C75 C 0.3003(11) 0.0593(3) 0.0965(3) 0.074(3) Uani 1 1 d DU . .
H75 H 0.3324 0.0421 0.0778 0.089 Uiso 1 1 calc R . .
C76 C 0.3106(9) 0.1046(3) 0.0969(3) 0.067(3) Uani 1 1 d DU . .
H76 H 0.3498 0.1189 0.0782 0.080 Uiso 1 1 calc R . .
C103 C 0.7067(12) 0.3772(4) -0.0093(3) 0.126(5) Uani 1 1 d DU . .
O102 O 0.743(2) 0.3688(5) 0.0193(3) 0.221(9) Uani 1 1 d DU . .
O101 O 0.7003(18) 0.3533(5) -0.0345(3) 0.199(7) Uani 1 1 d DU . .
F107 F 0.7428(19) 0.4601(4) -0.0178(5) 0.259(8) Uani 1 1 d DU . .
C104 C 0.6579(17) 0.4277(5) -0.0142(4) 0.187(7) Uani 1 1 d DU . .
F106 F 0.5966(17) 0.4424(7) 0.0136(5) 0.292(10) Uani 1 1 d DU . .
F105 F 0.600(2) 0.4360(9) -0.0435(6) 0.354(12) Uani 1 1 d DU . .

loop_
_atom_site_aniso_label
_atom_site_aniso_U_11
_atom_site_aniso_U_22
_atom_site_aniso_U_33
_atom_site_aniso_U_23
_atom_site_aniso_U_13
_atom_site_aniso_U_12
Au1 0.0690(2) 0.02660(16) 0.0561(2) -0.00596(14) 0.01970(17) -0.01174(15)
P1 0.0474(11) 0.0243(9) 0.0489(11) -0.0042(8) 0.0108(9) -0.0058(8)
C1 0.035(4) 0.030(3) 0.044(4) 0.001(3) -0.001(3) -0.002(3)
Au2 0.04569(17) 0.02387(15) 0.0732(2) -0.00139(15) -0.00896(16) -0.00007(13)
P2 0.0432(11) 0.0209(8) 0.0630(13) -0.0004(8) 0.0045(11) 0.0014(8)
C2 0.040(4) 0.027(3) 0.059(4) -0.003(3) 0.016(3) -0.002(3)
C3 0.042(4) 0.027(3) 0.081(6) -0.006(4) 0.023(4) 0.003(3)
C4 0.054(5) 0.022(4) 0.074(6) 0.002(4) 0.004(4) -0.006(3)
C5 0.045(5) 0.040(4) 0.060(5) 0.005(4) -0.002(4) 0.000(4)
C6 0.061(5) 0.040(4) 0.065(5) 0.014(4) -0.006(4) -0.013(4)
C7 0.079(7) 0.052(5) 0.058(5) 0.016(5) -0.001(4) -0.013(5)
C8 0.077(6) 0.054(5) 0.042(5) 0.012(4) 0.003(4) -0.013(4)
C9 0.043(4) 0.042(4) 0.049(5) -0.001(4) 0.005(3) -0.002(4)
C10 0.030(3) 0.034(4) 0.049(4) 0.003(3) 0.002(3) -0.001(3)
C11 0.049(4) 0.029(3) 0.042(4) -0.003(3) 0.008(3) -0.003(3)
C12 0.047(4) 0.029(4) 0.057(5) -0.002(4) 0.010(3) -0.003(3)
C13 0.049(4) 0.025(4) 0.072(6) -0.005(4) 0.018(4) 0.006(3)
C14 0.069(5) 0.032(4) 0.060(5) -0.007(4) 0.015(4) -0.011(4)
C15 0.062(5) 0.037(4) 0.052(5) -0.011(4) 0.011(4) -0.011(3)
C16 0.074(6) 0.060(5) 0.049(5) -0.013(4) 0.011(4) -0.020(4)
C17 0.071(6) 0.070(6) 0.053(5) -0.014(5) 0.002(4) -0.025(5)
C18 0.061(5) 0.062(5) 0.053(5) 0.003(4) 0.002(4) -0.012(4)
C19 0.049(5) 0.045(4) 0.052(5) 0.000(4) 0.002(4) -0.012(4)
C20 0.049(4) 0.044(4) 0.037(4) -0.008(3) 0.011(3) -0.008(3)
C21 0.037(3) 0.035(4) 0.047(4) -0.005(3) 0.003(3) -0.006(3)
C22 0.058(5) 0.090(8) 0.065(6) -0.030(6) -0.013(5) -0.007(5)
C23 0.054(5) 0.119(10) 0.079(7) -0.023(7) -0.027(5) 0.006(6)
C24 0.039(5) 0.099(8) 0.068(6) -0.005(5) 0.003(4) 0.006(5)
C25 0.048(5) 0.072(7) 0.057(5) -0.011(5) 0.007(4) 0.010(4)
C26 0.040(4) 0.057(5) 0.047(4) -0.012(4) -0.004(3) 0.000(4)
C31 0.043(4) 0.031(4) 0.058(4) -0.007(3) 0.003(3) 0.001(3)
C32 0.057(5) 0.033(5) 0.080(6) -0.008(4) 0.001(4) -0.010(4)
C33 0.068(6) 0.065(7) 0.100(7) -0.008(5) -0.026(6) -0.010(5)
C34 0.084(7) 0.060(7) 0.075(6) -0.010(5) -0.033(6) 0.012(5)
C35 0.070(6) 0.063(6) 0.066(5) 0.009(5) -0.010(5) 0.017(4)
C36 0.056(5) 0.042(5) 0.064(5) 0.002(4) -0.003(4) -0.003(4)
C41 0.041(4) 0.035(4) 0.074(5) 0.000(4) 0.007(4) -0.006(3)
C42 0.070(6) 0.044(5) 0.171(11) 0.036(6) 0.060(7) 0.019(5)
C43 0.096(9) 0.053(7) 0.198(14) 0.033(8) 0.070(9) 0.028(6)
C44 0.067(7) 0.083(8) 0.130(11) 0.016(7) 0.040(7) 0.018(6)
C45 0.061(6) 0.087(7) 0.063(6) 0.006(6) 0.013(5) 0.009(5)
C46 0.055(5) 0.055(5) 0.056(5) -0.001(4) -0.003(4) 0.003(4)
C51 0.052(5) 0.028(4) 0.066(4) 0.006(3) 0.007(4) 0.011(3)
C52 0.101(8) 0.057(6) 0.071(6) 0.011(5) -0.012(5) -0.020(6)
C53 0.137(10) 0.072(7) 0.058(5) 0.010(5) -0.017(6) -0.008(7)
C54 0.087(7) 0.059(6) 0.063(5) 0.009(4) 0.020(5) 0.018(5)
C55 0.080(7) 0.062(6) 0.074(6) 0.024(5) 0.012(5) 0.000(5)
C56 0.079(7) 0.046(5) 0.069(5) 0.007(4) 0.009(5) -0.009(5)
N61 0.092(5) 0.031(3) 0.060(4) -0.010(3) 0.037(5) -0.016(4)
C62 0.164(11) 0.033(4) 0.060(5) -0.014(4) 0.027(7) -0.023(7)
C63 0.155(11) 0.039(4) 0.058(5) 0.004(4) 0.030(7) -0.026(7)
C64 0.069(6) 0.029(4) 0.077(6) -0.001(4) -0.001(5) -0.017(4)
C65 0.110(8) 0.029(4) 0.066(5) -0.004(4) -0.006(6) -0.024(5)
C66 0.104(8) 0.034(4) 0.070(5) -0.012(4) 0.014(6) -0.008(5)
N71 0.056(4) 0.026(3) 0.068(5) -0.002(3) -0.011(4) 0.000(3)
C72 0.091(7) 0.032(4) 0.064(5) -0.001(4) 0.001(5) -0.009(5)
C73 0.095(8) 0.044(4) 0.057(5) -0.009(4) 0.008(5) -0.014(5)
C74 0.068(5) 0.026(4) 0.088(7) 0.001(4) 0.018(5) -0.003(4)
C75 0.089(7) 0.033(4) 0.101(7) -0.006(5) 0.042(6) -0.007(5)
C76 0.065(6) 0.037(4) 0.099(7) -0.009(4) 0.026(6) -0.011(5)
C103 0.183(15) 0.116(8) 0.080(7) -0.016(7) 0.057(9) -0.035(9)
O102 0.42(3) 0.119(9) 0.121(8) -0.028(8) -0.003(13) 0.024(14)
O101 0.30(2) 0.175(12) 0.118(8) -0.048(9) 0.051(12) -0.034(15)
F107 0.38(2) 0.124(9) 0.268(15) 0.039(11) 0.154(13) -0.027(13)
C104 0.21(2) 0.168(11) 0.180(15) 0.000(13) 0.063(12) 0.034(11)
F106 0.260(17) 0.30(2) 0.317(16) 0.024(17) 0.173(14) 0.119(16)
F105 0.301(19) 0.46(3) 0.304(16) 0.01(2) -0.025(16) 0.238(19)

_geom_special_details            
;
All esds (except the esd in the dihedral angle between two l.s. planes)
are estimated using the full covariance matrix. The cell esds are taken
into account individually in the estimation of 