####################################################################### 
# 
# This file contains crystal structure data downloaded from the 
# Cambridge Structural Database (CSD) hosted by the Cambridge 
# Crystallographic Data Centre (CCDC).
# 
# Full information about CCDC data access policies and citation 
# guidelines are available at http://www.ccdc.cam.ac.uk/access/V1 
# 
# Audit and citation data items may have been added by the CCDC. 
# Please retain this information to preserve the provenance of 
# this file and to allow appropriate attribution of the data. 
# 
#######################################################################

data_07003
_audit_block_doi                 10.5517/ccpjqyv
_database_code_depnum_ccdc_archive 'CCDC 641698'
loop_
_citation_id
_citation_doi
_citation_year
1 10.1002/anie.200701325 2007
_audit_update_record             
;
2007-03-23 deposited with the CCDC.	2024-07-13 downloaded from the CCDC.
;

_audit_creation_method           SHELXL-97
_chemical_name_systematic        
;
?
;
_chemical_name_common            ?
_chemical_melting_point          ?
_chemical_formula_moiety         ?
_chemical_formula_sum            'C108 H80 Au4 F0 N4 O0 P4'
_chemical_formula_weight         2345.51

loop_
_atom_type_symbol
_atom_type_description
_atom_type_scat_dispersion_real
_atom_type_scat_dispersion_imag
_atom_type_scat_source
C C 0.0033 0.0016 'International Tables Vol C Tables 4.2.6.8 and 6.1.1.4'
H H 0.0000 0.0000 'International Tables Vol C Tables 4.2.6.8 and 6.1.1.4'
N N 0.0061 0.0033 'International Tables Vol C Tables 4.2.6.8 and 6.1.1.4'
O O 0.0106 0.0060 'International Tables Vol C Tables 4.2.6.8 and 6.1.1.4'
F F 0.0171 0.0103 'International Tables Vol C Tables 4.2.6.8 and 6.1.1.4'
P P 0.1023 0.0942 'International Tables Vol C Tables 4.2.6.8 and 6.1.1.4'
Au Au -2.0133 8.8022 'International Tables Vol C Tables 4.2.6.8 and 6.1.1.4'

_symmetry_cell_setting           monoclinic
_symmetry_space_group_name_H-M   P2(1)/c

loop_
_symmetry_equiv_pos_as_xyz
'x, y, z'
'-x, y+1/2, -z+1/2'
'-x, -y, -z'
'x, -y-1/2, z-1/2'

_cell_length_a                   20.540(4)
_cell_length_b                   24.291(5)
_cell_length_c                   27.441(6)
_cell_angle_alpha                90.00
_cell_angle_beta                 111.67(3)
_cell_angle_gamma                90.00
_cell_volume                     12723(4)
_cell_formula_units_Z            4
_cell_measurement_temperature    150(2)
_cell_measurement_reflns_used    ?
_cell_measurement_theta_min      2.04
_cell_measurement_theta_max      25.03

_exptl_crystal_description       plate
_exptl_crystal_colour            colourless
_exptl_crystal_size_max          0.30
_exptl_crystal_size_mid          0.15
_exptl_crystal_size_min          0.03
_exptl_crystal_density_meas      ?
_exptl_crystal_density_diffrn    1.224
_exptl_crystal_density_method    'not measured'
_exptl_crystal_F_000             4528
_exptl_absorpt_coefficient_mu    4.685
_exptl_absorpt_correction_type   multi-scan
_exptl_absorpt_correction_T_min  0.3339
_exptl_absorpt_correction_T_max  0.8919
_exptl_absorpt_process_details   ?

_exptl_special_details           
;
?
;

_diffrn_ambient_temperature      150(2)
_diffrn_radiation_wavelength     0.71073
_diffrn_radiation_type           MoK\a
_diffrn_radiation_source         'fine-focus sealed tube'
_diffrn_radiation_monochromator  graphite
_diffrn_measurement_device_type  'Nonius Kappa-CCD'
_diffrn_measurement_method       '\f scans, and \w scans with \k offsets'
_diffrn_detector_area_resol_mean ?
_diffrn_standards_number         ?
_diffrn_standards_interval_count ?
_diffrn_standards_interval_time  ?
_diffrn_standards_decay_%        ?
_diffrn_reflns_number            36558
_diffrn_reflns_av_R_equivalents  0.1471
_diffrn_reflns_av_sigmaI/netI    0.3267
_diffrn_reflns_limit_h_min       -22
_diffrn_reflns_limit_h_max       22
_diffrn_reflns_limit_k_min       -28
_diffrn_reflns_limit_k_max       28
_diffrn_reflns_limit_l_min       -31
_diffrn_reflns_limit_l_max       31
_diffrn_reflns_theta_min         2.60
_diffrn_reflns_theta_max         25.03
_reflns_number_total             20008
_reflns_number_gt                5499
_reflns_threshold_expression     >2sigma(I)

_computing_data_collection       'Bruker XSCANS'
_computing_cell_refinement       'Bruker XSCANS'
_computing_data_reduction        'Bruker SHELXTL'
_computing_structure_solution    'SHELXS-97 (Sheldrick, 1990)'
_computing_structure_refinement  'SHELXL-97 (Sheldrick, 1997)'
_computing_molecular_graphics    'Bruker SHELXTL'
_computing_publication_material  'Bruker SHELXTL'

_refine_special_details          
;
Refinement of F^2^ against ALL reflections. The weighted R-factor wR and
goodness of fit S are based on F^2^, conventional R-factors R are based
on F, with F set to zero for negative F^2^. The threshold expression of
F^2^ > 2sigma(F^2^) is used only for calculating R-factors(gt) etc. and is
not relevant to the choice of reflections for refinement. R-factors based
on F^2^ are statistically about twice as large as those based on F, and R-
factors based on ALL data will be even larger.
;

_refine_ls_structure_factor_coef Fsqd
_refine_ls_matrix_type           full
_refine_ls_weighting_scheme      calc
_refine_ls_weighting_details     
'calc w=1/[\s^2^(Fo^2^)+(0.1078P)^2^+0.0000P] where P=(Fo^2^+2Fc^2^)/3'
_atom_sites_solution_primary     direct
_atom_sites_solution_secondary   difmap
_atom_sites_solution_hydrogens   geom
_refine_ls_hydrogen_treatment    constr
_refine_ls_extinction_method     none
_refine_ls_extinction_coef       ?
_refine_ls_number_reflns         20008
_refine_ls_number_parameters     745
_refine_ls_number_restraints     1145
_refine_ls_R_factor_all          0.2577
_refine_ls_R_factor_gt           0.0867
_refine_ls_wR_factor_ref         0.2531
_refine_ls_wR_factor_gt          0.2100
_refine_ls_goodness_of_fit_ref   0.858
_refine_ls_restrained_S_all      0.840
_refine_ls_shift/su_max          0.001
_refine_ls_shift/su_mean         0.000

loop_
_atom_site_label
_atom_site_type_symbol
_atom_site_fract_x
_atom_site_fract_y
_atom_site_fract_z
_atom_site_U_iso_or_equiv
_atom_site_adp_type
_atom_site_occupancy
_atom_site_symmetry_multiplicity
_atom_site_calc_flag
_atom_site_refinement_flags
_atom_site_disorder_assembly
_atom_site_disorder_group
Au1 Au -0.92974(5) 0.62094(3) 0.18521(3) 0.0929(4) Uani 1 1 d U . .
P1 P -0.9280(3) 0.6675(2) 0.25580(19) 0.0800(18) Uani 1 1 d U . .
Au2 Au -0.71364(5) 0.63140(3) 0.31761(3) 0.0960(4) Uani 1 1 d U . .
P2 P -0.7091(4) 0.6537(2) 0.2390(2) 0.097(2) Uani 1 1 d U . .
Au3 Au -0.67180(6) 0.40801(3) 0.68322(3) 0.1019(4) Uani 1 1 d U . .
P3 P -0.6704(3) 0.3572(2) 0.75105(19) 0.0791(17) Uani 1 1 d U . .
Au4 Au -0.70366(6) 0.51751(4) 0.79904(3) 0.1224(5) Uani 1 1 d U . .
P4 P -0.7887(3) 0.52962(19) 0.72206(18) 0.0835(19) Uani 1 1 d U . .
C1A C -0.8148(11) 0.7369(7) 0.2639(7) 0.086(5) Uani 1 1 d DU . .
C2A C -0.8532(9) 0.7148(6) 0.2876(6) 0.071(4) Uani 1 1 d DU . .
C3A C -0.8382(11) 0.7250(7) 0.3422(7) 0.086(5) Uani 1 1 d DU . .
H3A H -0.8668 0.7089 0.3588 0.103 Uiso 1 1 calc R . .
C4A C -0.7817(12) 0.7587(8) 0.3711(8) 0.101(6) Uani 1 1 d DU . .
H4A H -0.7712 0.7657 0.4073 0.121 Uiso 1 1 calc R . .
C5A C -0.7407(12) 0.7821(7) 0.3443(8) 0.089(5) Uani 1 1 d DU . .
C6A C -0.6816(12) 0.8158(8) 0.3739(7) 0.104(6) Uani 1 1 d DU . .
H6A H -0.6707 0.8215 0.4103 0.125 Uiso 1 1 calc R . .
C7A C -0.6401(13) 0.8403(9) 0.3492(8) 0.116(7) Uani 1 1 d DU . .
H7A H -0.5997 0.8612 0.3685 0.139 Uiso 1 1 calc R . .
C8A C -0.6604(11) 0.8329(8) 0.2952(7) 0.093(6) Uani 1 1 d DU . .
H8A H -0.6345 0.8503 0.2772 0.112 Uiso 1 1 calc R . .
C9A C -0.7190(12) 0.7997(6) 0.2667(8) 0.083(5) Uani 1 1 d DU . .
H9A H -0.7301 0.7955 0.2301 0.100 Uiso 1 1 calc R . .
C10A C -0.7613(12) 0.7728(7) 0.2890(7) 0.084(5) Uani 1 1 d DU . .
C11A C -0.8261(11) 0.7229(7) 0.2083(7) 0.084(4) Uani 1 1 d DU . .
C12A C -0.7845(11) 0.6901(7) 0.1924(8) 0.097(5) Uani 1 1 d DU . .
C13A C -0.8021(12) 0.6804(7) 0.1361(7) 0.095(6) Uani 1 1 d DU . .
H13A H -0.7710 0.6579 0.1264 0.114 Uiso 1 1 calc R . .
C14A C -0.8547(14) 0.6994(7) 0.0996(9) 0.107(6) Uani 1 1 d DU . .
H14A H -0.8609 0.6915 0.0642 0.128 Uiso 1 1 calc R . .
C15A C -0.9030(14) 0.7313(8) 0.1098(8) 0.101(6) Uani 1 1 d DU . .
C16A C -0.9650(15) 0.7576(10) 0.0704(10) 0.140(8) Uani 1 1 d DU . .
H16A H -0.9758 0.7508 0.0341 0.169 Uiso 1 1 calc R . .
C17A C -1.0020(15) 0.7879(10) 0.0839(10) 0.147(9) Uani 1 1 d DU . .
H17A H -1.0430 0.8003 0.0563 0.177 Uiso 1 1 calc R . .
C18A C -0.9934(14) 0.8089(9) 0.1377(9) 0.124(7) Uani 1 1 d DU . .
H18A H -1.0236 0.8343 0.1452 0.149 Uiso 1 1 calc R . .
C19A C -0.9343(12) 0.7852(8) 0.1742(8) 0.089(5) Uani 1 1 d DU . .
H19A H -0.9263 0.7923 0.2100 0.107 Uiso 1 1 calc R . .
C20A C -0.8843(13) 0.7514(8) 0.1642(8) 0.103(6) Uani 1 1 d DU . .
C1B C -0.8209(9) 0.4165(7) 0.7024(7) 0.075(5) Uani 1 1 d DU . .
C2B C -0.8179(8) 0.4679(7) 0.6818(7) 0.096(6) Uani 1 1 d DU . .
C3B C -0.8406(9) 0.4761(7) 0.6256(7) 0.093(6) Uani 1 1 d DU . .
H3B H -0.8387 0.5123 0.6130 0.112 Uiso 1 1 calc R . .
C4B C -0.8668(12) 0.4311(8) 0.5865(8) 0.114(7) Uani 1 1 d DU . .
H4B H -0.8786 0.4367 0.5499 0.136 Uiso 1 1 calc R . .
C5B C -0.8724(12) 0.3805(7) 0.6075(8) 0.098(6) Uani 1 1 d DU . .
C6B C -0.8937(12) 0.3349(8) 0.5746(8) 0.107(6) Uani 1 1 d DU . .
H6B H -0.9045 0.3390 0.5380 0.128 Uiso 1 1 calc R . .
C7B C -0.8992(11) 0.2846(7) 0.5944(8) 0.096(6) Uani 1 1 d DU . .
H7B H -0.9179 0.2549 0.5708 0.115 Uiso 1 1 calc R . .
C8B C -0.8789(11) 0.2752(8) 0.6468(8) 0.099(6) Uani 1 1 d DU . .
H8B H -0.8843 0.2392 0.6583 0.119 Uiso 1 1 calc R . .
C9B C -0.8509(10) 0.3158(7) 0.6839(7) 0.086(6) Uani 1 1 d DU . .
H9B H -0.8330 0.3075 0.7203 0.103 Uiso 1 1 calc R . .
C10B C -0.8498(10) 0.3708(7) 0.6653(7) 0.079(5) Uani 1 1 d DU . .
C11B C -0.7919(11) 0.4034(6) 0.7614(7) 0.077(4) Uani 1 1 d DU . .
C12B C -0.7271(11) 0.3791(5) 0.7873(7) 0.088(5) Uani 1 1 d DU . .
C13B C -0.6979(12) 0.3695(7) 0.8393(7) 0.105(6) Uani 1 1 d DU . .
H13B H -0.6527 0.3539 0.8564 0.126 Uiso 1 1 calc R . .
C14B C -0.7467(13) 0.3868(8) 0.8670(7) 0.099(6) Uani 1 1 d DU . .
H14B H -0.7334 0.3770 0.9029 0.119 Uiso 1 1 calc R . .
C15B C -0.8082(13) 0.4154(7) 0.8444(7) 0.083(5) Uani 1 1 d DU . .
C16B C -0.8485(12) 0.4321(7) 0.8755(8) 0.085(5) Uani 1 1 d DU . .
H16B H -0.8340 0.4248 0.9120 0.102 Uiso 1 1 calc R . .
C17B C -0.9037(13) 0.4570(7) 0.8503(8) 0.089(6) Uani 1 1 d DU . .
H17B H -0.9226 0.4791 0.8703 0.107 Uiso 1 1 calc R . .
C18B C -0.9411(12) 0.4566(7) 0.7966(8) 0.088(5) Uani 1 1 d DU . .
H18B H -0.9895 0.4653 0.7809 0.105 Uiso 1 1 calc R . .
C19B C -0.9018(11) 0.4426(6) 0.7699(7) 0.072(5) Uani 1 1 d DU . .
H19B H -0.9204 0.4490 0.7331 0.087 Uiso 1 1 calc R . .
C20B C -0.8346(11) 0.4190(6) 0.7915(7) 0.070(4) Uani 1 1 d DU . .
C21A C -1.0078(7) 0.7097(5) 0.2386(5) 0.090(6) Uiso 1 1 d GU . .
C22A C -1.0113(7) 0.7547(6) 0.2688(4) 0.093(6) Uiso 1 1 d GU . .
H22A H -0.9723 0.7639 0.2994 0.112 Uiso 1 1 calc R . .
C23A C -1.0720(8) 0.7863(5) 0.2540(5) 0.125(8) Uiso 1 1 d GU . .
H23A H -1.0744 0.8171 0.2747 0.150 Uiso 1 1 calc R . .
C24A C -1.1291(6) 0.7729(6) 0.2091(6) 0.117(7) Uiso 1 1 d GU . .
H24A H -1.1705 0.7944 0.1991 0.140 Uiso 1 1 calc R . .
C25A C -1.1255(7) 0.7278(6) 0.1790(4) 0.128(8) Uiso 1 1 d GU . .
H25A H -1.1645 0.7186 0.1483 0.154 Uiso 1 1 calc R . .
C26A C -1.0648(9) 0.6962(5) 0.1937(5) 0.114(7) Uiso 1 1 d GU . .
H26A H -1.0624 0.6655 0.1731 0.137 Uiso 1 1 calc R . .
C21B C -0.6874(7) 0.2856(4) 0.7335(5) 0.076(5) Uiso 1 1 d GU . .
C22B C -0.7082(7) 0.2488(6) 0.7637(4) 0.109(7) Uiso 1 1 d GU . .
H22B H -0.7129 0.2610 0.7952 0.131 Uiso 1 1 calc R . .
C23B C -0.7220(8) 0.1943(5) 0.7480(5) 0.132(8) Uiso 1 1 d GU . .
H23B H -0.7362 0.1691 0.7687 0.159 Uiso 1 1 calc R . .
C24B C -0.7150(8) 0.1765(4) 0.7020(6) 0.119(8) Uiso 1 1 d GU . .
H24B H -0.7245 0.1392 0.6913 0.143 Uiso 1 1 calc R . .
C25B C -0.6942(8) 0.2133(6) 0.6718(5) 0.131(8) Uiso 1 1 d GU . .
H25B H -0.6895 0.2012 0.6404 0.157 Uiso 1 1 calc R . .
C26B C -0.6804(7) 0.2678(6) 0.6875(5) 0.125(8) Uiso 1 1 d GU . .
H26B H -0.6662 0.2930 0.6668 0.150 Uiso 1 1 calc R . .
C31A C -0.9312(8) 0.6232(6) 0.3051(5) 0.107(7) Uiso 1 1 d GU . .
C32A C -0.9667(7) 0.6336(5) 0.3385(6) 0.108(7) Uiso 1 1 d GU . .
H32A H -0.9939 0.6661 0.3343 0.129 Uiso 1 1 calc R . .
C33A C -0.9625(7) 0.5964(6) 0.3781(5) 0.114(7) Uiso 1 1 d GU . .
H33A H -0.9868 0.6035 0.4009 0.136 Uiso 1 1 calc R . .
C34A C -0.9227(8) 0.5488(5) 0.3843(5) 0.120(8) Uiso 1 1 d GU . .
H34A H -0.9198 0.5234 0.4113 0.144 Uiso 1 1 calc R . .
C35A C -0.8872(7) 0.5384(5) 0.3508(6) 0.140(9) Uiso 1 1 d GU . .
H35A H -0.8600 0.5058 0.3550 0.168 Uiso 1 1 calc R . .
C36A C -0.8914(8) 0.5755(7) 0.3113(5) 0.131(8) Uiso 1 1 d GU . .
H36A H -0.8671 0.5684 0.2884 0.157 Uiso 1 1 calc R . .
C31B C -0.5850(7) 0.3597(8) 0.8012(5) 0.112(7) Uiso 1 1 d GU . .
C32B C -0.5458(9) 0.4078(5) 0.8150(6) 0.102(7) Uiso 1 1 d GU . .
H32B H -0.5631 0.4409 0.7962 0.122 Uiso 1 1 calc R . .
C33B C -0.4812(9) 0.4075(7) 0.8562(7) 0.150(9) Uiso 1 1 d GU . .
H33B H -0.4545 0.4404 0.8657 0.180 Uiso 1 1 calc R . .
C34B C -0.4559(7) 0.3591(9) 0.8837(5) 0.176(11) Uiso 1 1 d GU . .
H34B H -0.4117 0.3589 0.9119 0.211 Uiso 1 1 calc R . .
C35B C -0.4951(11) 0.3110(7) 0.8700(7) 0.220(13) Uiso 1 1 d GU . .
H35B H -0.4777 0.2779 0.8888 0.264 Uiso 1 1 calc R . .
C36B C -0.5596(10) 0.3113(6) 0.8287(7) 0.162(10) Uiso 1 1 d GU . .
H36B H -0.5864 0.2784 0.8193 0.195 Uiso 1 1 calc R . .
C41A C -0.7047(10) 0.5903(6) 0.2108(6) 0.125(8) Uiso 1 1 d GU . .
C42A C -0.7489(8) 0.5472(8) 0.2114(6) 0.119(7) Uiso 1 1 d GU . .
H42A H -0.7819 0.5518 0.2279 0.143 Uiso 1 1 calc R . .
C43A C -0.7449(10) 0.4973(6) 0.1878(7) 0.189(12) Uiso 1 1 d GU . .
H43A H -0.7751 0.4679 0.1882 0.227 Uiso 1 1 calc R . .
C44A C -0.6966(13) 0.4906(7) 0.1637(7) 0.210(13) Uiso 1 1 d GU . .
H44A H -0.6938 0.4565 0.1476 0.253 Uiso 1 1 calc R . .
C45A C -0.6524(10) 0.5337(11) 0.1631(7) 0.303(17) Uiso 1 1 d GU . .
H45A H -0.6195 0.5291 0.1466 0.363 Uiso 1 1 calc R . .
C46A C -0.6565(9) 0.5836(8) 0.1867(8) 0.205(13) Uiso 1 1 d GU . .
H46A H -0.6263 0.6130 0.1863 0.246 Uiso 1 1 calc R . .
C41B C -0.8669(8) 0.5605(6) 0.7297(6) 0.090(6) Uiso 1 1 d GU . .
C42B C -0.9341(10) 0.5537(6) 0.6926(5) 0.134(8) Uiso 1 1 d GU . .
H42B H -0.9409 0.5354 0.6605 0.161 Uiso 1 1 calc R . .
C43B C -0.9914(7) 0.5737(7) 0.7025(6) 0.182(11) Uiso 1 1 d GU . .
H43B H -1.0374 0.5690 0.6772 0.219 Uiso 1 1 calc R . .
C44B C -0.9815(8) 0.6005(7) 0.7495(8) 0.183(11) Uiso 1 1 d GU . .
H44B H -1.0207 0.6142 0.7562 0.219 Uiso 1 1 calc R . .
C45B C -0.9143(10) 0.6074(5) 0.7865(5) 0.123(8) Uiso 1 1 d GU . .
H45B H -0.9075 0.6257 0.8186 0.148 Uiso 1 1 calc R . .
C46B C -0.8570(7) 0.5874(6) 0.7766(5) 0.113(7) Uiso 1 1 d GU . .
H46B H -0.8110 0.5920 0.8020 0.136 Uiso 1 1 calc R . .
C51A C -0.6352(7) 0.6945(6) 0.2454(7) 0.091(6) Uiso 1 1 d GU . .
C52A C -0.5790(10) 0.6923(6) 0.2931(5) 0.134(8) Uiso 1 1 d GU . .
H52A H -0.5823 0.6708 0.3210 0.160 Uiso 1 1 calc R . .
C53A C -0.5181(8) 0.7215(7) 0.2999(5) 0.178(11) Uiso 1 1 d GU . .
H53A H -0.4797 0.7200 0.3325 0.214 Uiso 1 1 calc R . .
C54A C -0.5133(8) 0.7529(6) 0.2590(8) 0.148(9) Uiso 1 1 d GU . .
H54A H -0.4717 0.7729 0.2637 0.178 Uiso 1 1 calc R . .
C55A C -0.5695(11) 0.7551(6) 0.2113(6) 0.163(10) Uiso 1 1 d GU . .
H55A H -0.5662 0.7766 0.1834 0.195 Uiso 1 1 calc R . .
C56A C -0.6304(8) 0.7259(7) 0.2045(5) 0.148(9) Uiso 1 1 d GU . .
H56A H -0.6688 0.7274 0.1719 0.178 Uiso 1 1 calc R . .
C51B C -0.7627(8) 0.5773(4) 0.6809(4) 0.077(6) Uiso 1 1 d GU . .
C52B C -0.6933(7) 0.5787(5) 0.6848(4) 0.085(6) Uiso 1 1 d GU . .
H52B H -0.6606 0.5530 0.7066 0.102 Uiso 1 1 calc R . .
C53B C -0.6718(6) 0.6178(6) 0.6569(5) 0.115(7) Uiso 1 1 d GU . .
H53B H -0.6243 0.6187 0.6596 0.138 Uiso 1 1 calc R . .
C54B C -0.7197(8) 0.6554(5) 0.6250(5) 0.112(7) Uiso 1 1 d GU . .
H54B H -0.7050 0.6820 0.6059 0.135 Uiso 1 1 calc R . .
C55B C -0.7891(8) 0.6540(5) 0.6211(4) 0.139(9) Uiso 1 1 d GU . .
H55B H -0.8218 0.6797 0.5993 0.167 Uiso 1 1 calc R . .
C56B C -0.8106(6) 0.6150(5) 0.6491(5) 0.085(6) Uiso 1 1 d GU . .
H56B H -0.8580 0.6140 0.6464 0.102 Uiso 1 1 calc R . .
N61A N -0.9472(9) 0.5767(6) 0.1150(6) 0.097(5) Uani 1 1 d DU . .
C62A C -0.9330(11) 0.5248(9) 0.1166(8) 0.133(8) Uani 1 1 d DU . .
H62A H -0.9104 0.5067 0.1492 0.160 Uiso 1 1 calc R . .
C63A C -0.9515(12) 0.4959(8) 0.0699(8) 0.118(7) Uani 1 1 d DU . .
H63A H -0.9392 0.4581 0.0713 0.141 Uiso 1 1 calc R . .
C64A C -0.9848(13) 0.5181(9) 0.0244(8) 0.099(7) Uani 1 1 d DU . .
C65A C -0.9938(14) 0.5685(10) 0.0281(9) 0.152(9) Uani 1 1 d DU . .
H65A H -1.0129 0.5875 -0.0043 0.182 Uiso 1 1 calc R . .
C66A C -0.9812(14) 0.5986(9) 0.0691(9) 0.141(9) Uani 1 1 d DU . .
H66A H -0.9963 0.6359 0.0660 0.169 Uiso 1 1 calc R . .
N71A N -0.7080(8) 0.5981(6) 0.3874(5) 0.089(5) Uani 1 1 d DU . .
C72A C -0.6988(10) 0.6254(9) 0.4307(7) 0.126(7) Uani 1 1 d DU . .
H72A H -0.6954 0.6644 0.4309 0.151 Uiso 1 1 calc R . .
C73A C -0.6939(11) 0.5970(9) 0.4769(8) 0.117(7) Uani 1 1 d DU . .
H73A H -0.6878 0.6177 0.5077 0.141 Uiso 1 1 calc R . .
C74A C -0.6976(11) 0.5400(9) 0.4789(7) 0.101(6) Uani 1 1 d DU . .
C75A C -0.7031(12) 0.5122(9) 0.4316(7) 0.111(7) Uani 1 1 d DU . .
H75A H -0.6986 0.4733 0.4319 0.133 Uiso 1 1 calc R . .
C76A C -0.7147(11) 0.5406(8) 0.3858(7) 0.098(6) Uani 1 1 d DU . .
H76A H -0.7272 0.5215 0.3534 0.118 Uiso 1 1 calc R . .
N61B N -0.6734(9) 0.4532(6) 0.6184(6) 0.097(5) Uani 1 1 d DU . .
C62B C -0.6369(11) 0.4948(8) 0.6180(7) 0.116(7) Uani 1 1 d DU . .
H62B H -0.6053 0.5069 0.6513 0.139 Uiso 1 1 calc R . .
C63B C -0.6369(12) 0.5245(8) 0.5762(7) 0.113(7) Uani 1 1 d DU . .
H63B H -0.6043 0.5534 0.5800 0.136 Uiso 1 1 calc R . .
C64B C -0.6844(13) 0.5112(9) 0.5299(8) 0.100(6) Uani 1 1 d DU . .
C65B C -0.7196(12) 0.4634(9) 0.5258(7) 0.104(6) Uani 1 1 d DU . .
H65B H -0.7470 0.4494 0.4921 0.125 Uiso 1 1 calc R . .
C66B C -0.7164(13) 0.4357(9) 0.5684(8) 0.123(7) Uani 1 1 d DU . .
H66B H -0.7439 0.4034 0.5648 0.148 Uiso 1 1 calc R . .
N71B N -0.6300(14) 0.5126(8) 0.8766(8) 0.156(8) Uani 1 1 d DU . .
C7