####################################################################### 
# 
# This file contains crystal structure data downloaded from the 
# Cambridge Structural Database (CSD) hosted by the Cambridge 
# Crystallographic Data Centre (CCDC).
# 
# Full information about CCDC data access policies and citation 
# guidelines are available at http://www.ccdc.cam.ac.uk/access/V1 
# 
# Audit and citation data items may have been added by the CCDC. 
# Please retain this information to preserve the provenance of 
# this file and to allow appropriate attribution of the data. 
# 
#######################################################################

data_wa218
_audit_block_doi                 10.5517/cc7k8vw
_database_code_depnum_ccdc_archive 'CCDC 225148'
loop_
_citation_id
_citation_doi
_citation_year
1 10.1007/s10870-007-9204-y 2007
_audit_update_record             
;
2003-11-25 deposited with the CCDC.	2024-07-13 downloaded from the CCDC.
;

_audit_creation_method           SHELXL-97
_chemical_name_systematic        
;
;

_chemical_name_common            ?
_chemical_melting_point          ?
_chemical_formula_moiety         ?
_chemical_formula_sum            'C48 H96 Br12 Cu6 Li3 O12'
_chemical_formula_weight         2226.23

loop_
_atom_type_symbol
_atom_type_description
_atom_type_scat_dispersion_real
_atom_type_scat_dispersion_imag
_atom_type_scat_source
C C 0.0033 0.0016 'International Tables Vol C Tables 4.2.6.8 and 6.1.1.4'
H H 0.0000 0.0000 'International Tables Vol C Tables 4.2.6.8 and 6.1.1.4'
Br Br -0.2901 2.4595 'International Tables Vol C Tables 4.2.6.8 and 6.1.1.4'
Cu Cu 0.3201 1.2651 'International Tables Vol C Tables 4.2.6.8 and 6.1.1.4'
Li Li -0.0003 0.0001 'International Tables Vol C Tables 4.2.6.8 and 6.1.1.4'
O O 0.0106 0.0060 'International Tables Vol C Tables 4.2.6.8 and 6.1.1.4'

_symmetry_cell_setting           Monoclinic
_symmetry_space_group_name_H-M   P21/c

loop_
_symmetry_equiv_pos_as_xyz
'x, y, z'
'-x, y+1/2, -z+1/2'
'-x, -y, -z'
'x, -y-1/2, z-1/2'

_cell_length_a                   20.2502(12)
_cell_length_b                   20.1923(12)
_cell_length_c                   18.7067(13)
_cell_angle_alpha                90.00
_cell_angle_beta                 103.772(5)
_cell_angle_gamma                90.00
_cell_volume                     7429.2(8)
_cell_formula_units_Z            4
_cell_measurement_temperature    100(2)
_cell_measurement_reflns_used    21771
_cell_measurement_theta_min      2.3
_cell_measurement_theta_max      26.2

_exptl_crystal_description       needle
_exptl_crystal_colour            red
_exptl_crystal_size_max          0.13
_exptl_crystal_size_mid          0.09
_exptl_crystal_size_min          0.08
_exptl_crystal_density_meas      ?
_exptl_crystal_density_diffrn    1.990
_exptl_crystal_density_method    'not measured'
_exptl_crystal_F_000             4332
_exptl_absorpt_coefficient_mu    8.189
_exptl_absorpt_correction_type   multi-scan
_exptl_absorpt_correction_T_min  0.4158
_exptl_absorpt_correction_T_max  0.5603
_exptl_absorpt_process_details   'MULABS (Spek, 1990; Blessing, 1995)'

_exptl_special_details           
;
;


_diffrn_ambient_temperature      100(2)
_diffrn_radiation_wavelength     0.71073
_diffrn_radiation_type           MoK\a
_diffrn_radiation_source         'fine-focus sealed tube'
_diffrn_radiation_monochromator  graphite
_diffrn_measurement_device_type  'STOE IPDS II two-circle-diffractometer'
_diffrn_measurement_method       \w
_diffrn_detector_area_resol_mean ?
_diffrn_standards_number         0
_diffrn_standards_interval_count ?
_diffrn_standards_interval_time  0
_diffrn_standards_decay_%        0
_diffrn_reflns_number            60654
_diffrn_reflns_av_R_equivalents  0.0980
_diffrn_reflns_av_sigmaI/netI    0.1716
_diffrn_reflns_limit_h_min       -25
_diffrn_reflns_limit_h_max       23
_diffrn_reflns_limit_k_min       -25
_diffrn_reflns_limit_k_max       25
_diffrn_reflns_limit_l_min       -23
_diffrn_reflns_limit_l_max       23
_diffrn_reflns_theta_min         2.45
_diffrn_reflns_theta_max         26.24
_reflns_number_total             14699
_reflns_number_gt                7108
_reflns_threshold_expression     I>2\s(I)

_computing_data_collection       'X-Area (Stoe & Cie, 2001)'
_computing_cell_refinement       'X-Area (Stoe & Cie, 2001)'
_computing_data_reduction        'X-Area (Stoe & Cie, 2001)'
_computing_structure_solution    'SHELXS97 (Sheldrick, 1990) '
_computing_structure_refinement  'SHELXL97 (Sheldrick, 1997) '
_computing_molecular_graphics    'XP in SHELXTL-Plus (Sheldrick, 1991)'
_computing_publication_material  ?

_refine_special_details          
;
Refinement of F^2^ against ALL reflections. The weighted R-factor wR and
goodness of fit S are based on F^2^, conventional R-factors R are based
on F, with F set to zero for negative F^2^. The threshold expression of
F^2^ > 2sigma(F^2^) is used only for calculating R-factors(gt) etc. and is
not relevant to the choice of reflections for refinement. R-factors based
on F^2^ are statistically about twice as large as those based on F, and R-
factors based on ALL data will be even larger.
;

_refine_ls_structure_factor_coef Fsqd
_refine_ls_matrix_type           full
_refine_ls_weighting_scheme      calc
_refine_ls_weighting_details     
'calc w=1/[\s^2^(Fo^2^)+(0.0010P)^2^+0.0000P] where P=(Fo^2^+2Fc^2^)/3'
_atom_sites_solution_primary     direct
_atom_sites_solution_secondary   difmap
_atom_sites_solution_hydrogens   geom
_refine_ls_hydrogen_treatment    mixed
_refine_ls_extinction_method     none
_refine_ls_extinction_coef       ?
_refine_ls_number_reflns         14699
_refine_ls_number_parameters     730
_refine_ls_number_restraints     0
_refine_ls_R_factor_all          0.1241
_refine_ls_R_factor_gt           0.0469
_refine_ls_wR_factor_ref         0.0797
_refine_ls_wR_factor_gt          0.0638
_refine_ls_goodness_of_fit_ref   0.721
_refine_ls_restrained_S_all      0.721
_refine_ls_shift/su_max          0.001
_refine_ls_shift/su_mean         0.000

loop_
_atom_site_label
_atom_site_type_symbol
_atom_site_fract_x
_atom_site_fract_y
_atom_site_fract_z
_atom_site_U_iso_or_equiv
_atom_site_adp_type
_atom_site_occupancy
_atom_site_symmetry_multiplicity
_atom_site_calc_flag
_atom_site_refinement_flags
_atom_site_disorder_assembly
_atom_site_disorder_group
Cu1 Cu -0.13596(6) 0.12379(6) 0.23756(7) 0.0390(3) Uani 1 1 d . . .
Cu2 Cu 0.03408(5) 0.13106(5) 0.25449(6) 0.0288(2) Uani 1 1 d . . .
Cu3 Cu 0.20692(5) 0.12414(6) 0.26798(6) 0.0366(3) Uani 1 1 d . . .
Cu4 Cu 0.36727(6) 0.10315(5) 0.25809(6) 0.0303(2) Uani 1 1 d . . .
Cu5 Cu 0.52971(6) 0.09302(6) 0.24398(7) 0.0379(3) Uani 1 1 d . . .
Cu6 Cu 0.69750(5) 0.11108(5) 0.23495(6) 0.0316(2) Uani 1 1 d . . .
Br11 Br -0.06017(5) 0.19468(4) 0.18514(5) 0.0342(2) Uani 1 1 d . . .
Br12 Br -0.03785(5) 0.05805(4) 0.30446(5) 0.0342(2) Uani 1 1 d . . .
Br21 Br 0.10548(5) 0.15675(5) 0.17259(5) 0.0356(2) Uani 1 1 d . . .
Br22 Br 0.13153(4) 0.11407(5) 0.35473(5) 0.0346(2) Uani 1 1 d . . .
Br31 Br 0.27304(5) 0.02845(4) 0.23927(5) 0.0359(2) Uani 1 1 d . . .
Br32 Br 0.30970(5) 0.19324(4) 0.30191(5) 0.0334(2) Uani 1 1 d . . .
Br41 Br 0.42968(5) 0.16594(4) 0.18805(5) 0.0329(2) Uani 1 1 d . . .
Br42 Br 0.45725(5) 0.02523(5) 0.30374(5) 0.0393(2) Uani 1 1 d . . .
Br51 Br 0.59420(5) 0.08301(5) 0.14693(5) 0.0357(2) Uani 1 1 d . . .
Br52 Br 0.64076(5) 0.11573(5) 0.33428(5) 0.0362(2) Uani 1 1 d . . .
Br61 Br 0.78469(5) 0.18820(5) 0.29121(5) 0.0397(2) Uani 1 1 d . . .
Br62 Br 0.76960(5) 0.05426(5) 0.16972(5) 0.0379(2) Uani 1 1 d . . .
Li1 Li 0.5987(8) 0.3302(7) 0.4056(8) 0.035(4) Uani 1 1 d . . .
O1 O 0.6079(3) 0.4215(3) 0.4319(3) 0.0382(15) Uani 1 1 d . . .
C12 C 0.6734(5) 0.4531(5) 0.4617(6) 0.041(2) Uani 1 1 d . . .
H12A H 0.7036 0.4473 0.4276 0.049 Uiso 1 1 calc R . .
H12B H 0.6957 0.4333 0.5098 0.049 Uiso 1 1 calc R . .
C13 C 0.6598(5) 0.5254(5) 0.4707(6) 0.043(2) Uani 1 1 d . . .
H13A H 0.6721 0.5519 0.4312 0.051 Uiso 1 1 calc R . .
H13B H 0.6860 0.5418 0.5190 0.051 Uiso 1 1 calc R . .
C14 C 0.5839(5) 0.5293(4) 0.4655(5) 0.036(2) Uani 1 1 d . . .
H14A H 0.5736 0.5225 0.5141 0.044 Uiso 1 1 calc R . .
H14B H 0.5648 0.5722 0.4448 0.044 Uiso 1 1 calc R . .
C15 C 0.5579(4) 0.4729(5) 0.4138(5) 0.039(2) Uani 1 1 d . . .
H15A H 0.5135 0.4572 0.4206 0.046 Uiso 1 1 calc R . .
H15B H 0.5523 0.4870 0.3620 0.046 Uiso 1 1 calc R . .
O2 O 0.6035(3) 0.3232(3) 0.3061(3) 0.0412(17) Uani 1 1 d . . .
C22 C 0.6462(6) 0.3637(6) 0.2738(6) 0.057(3) Uani 1 1 d . . .
H22A H 0.6947 0.3556 0.2976 0.068 Uiso 1 1 calc R . .
H22B H 0.6361 0.4112 0.2792 0.068 Uiso 1 1 calc R . .
C23 C 0.6309(8) 0.3444(7) 0.1930(6) 0.070(4) Uani 1 1 d . . .
H23A H 0.6132 0.3828 0.1613 0.084 Uiso 1 1 calc R . .
H23B H 0.6724 0.3279 0.1796 0.084 Uiso 1 1 calc R . .
C24 C 0.5836(12) 0.2961(12) 0.1848(8) 0.168(12) Uani 1 1 d . . .
H24A H 0.6014 0.2558 0.1658 0.202 Uiso 1 1 calc R . .
H24B H 0.5426 0.3104 0.1476 0.202 Uiso 1 1 calc R . .
C25 C 0.5649(6) 0.2803(5) 0.2497(5) 0.044(2) Uani 1 1 d . . .
H25A H 0.5754 0.2333 0.2628 0.052 Uiso 1 1 calc R . .
H25B H 0.5156 0.2875 0.2440 0.052 Uiso 1 1 calc R . .
O3 O 0.5238(3) 0.2832(3) 0.4289(4) 0.0380(16) Uani 1 1 d . . .
C32 C 0.4854(5) 0.3000(5) 0.4818(6) 0.042(2) Uani 1 1 d . . .
H32A H 0.4550 0.3380 0.4639 0.050 Uiso 1 1 calc R . .
H32B H 0.5164 0.3126 0.5292 0.050 Uiso 1 1 calc R . .
C33 C 0.4449(6) 0.2414(5) 0.4917(6) 0.050(3) Uani 1 1 d . . .
H33A H 0.3985 0.2437 0.4596 0.060 Uiso 1 1 calc R . .
H33B H 0.4420 0.2369 0.5436 0.060 Uiso 1 1 calc R . .
C34 C 0.4852(6) 0.1844(5) 0.4693(6) 0.051(3) Uani 1 1 d . . .
H34A H 0.5230 0.1704 0.5106 0.061 Uiso 1 1 calc R . .
H34B H 0.4556 0.1459 0.4516 0.061 Uiso 1 1 calc R . .
C35 C 0.5111(6) 0.2155(4) 0.4081(5) 0.039(2) Uani 1 1 d . . .
H35A H 0.5534 0.1935 0.4030 0.047 Uiso 1 1 calc R . .
H35B H 0.4767 0.2120 0.3608 0.047 Uiso 1 1 calc R . .
O4 O 0.6789(3) 0.2908(3) 0.4694(3) 0.0402(16) Uani 1 1 d . . .
C42 C 0.7427(6) 0.2738(7) 0.4515(7) 0.063(3) Uani 1 1 d . . .
H42A H 0.7696 0.3141 0.4480 0.075 Uiso 1 1 calc R . .
H42B H 0.7346 0.2496 0.4042 0.075 Uiso 1 1 calc R . .
C43 C 0.7783(8) 0.2314(8) 0.5126(11) 0.097(5) Uani 1 1 d . . .
H43A H 0.7686 0.1841 0.5009 0.116 Uiso 1 1 calc R . .
H43B H 0.8280 0.2386 0.5231 0.116 Uiso 1 1 calc R . .
C44 C 0.7516(9) 0.2515(15) 0.5745(10) 0.169(12) Uani 1 1 d . . .
H44A H 0.7786 0.2886 0.6012 0.203 Uiso 1 1 calc R . .
H44B H 0.7534 0.2141 0.6091 0.203 Uiso 1 1 calc R . .
C45 C 0.6808(7) 0.2722(7) 0.5443(6) 0.066(3) Uani 1 1 d . . .
H45A H 0.6489 0.2354 0.5458 0.079 Uiso 1 1 calc R . .
H45B H 0.6688 0.3103 0.5721 0.079 Uiso 1 1 calc R . .
Li2 Li 0.0080(8) 0.3911(8) 0.3840(8) 0.041(4) Uani 1 1 d . . .
O5 O 0.0048(3) 0.3099(3) 0.4358(3) 0.0400(16) Uani 1 1 d . . .
C52 C -0.0252(6) 0.2961(4) 0.4969(5) 0.042(2) Uani 1 1 d . . .
H52A H -0.0746 0.3051 0.4830 0.051 Uiso 1 1 calc R . .
H52B H -0.0043 0.3244 0.5395 0.051 Uiso 1 1 calc R . .
C53 C -0.0125(6) 0.2250(4) 0.5162(6) 0.044(3) Uani 1 1 d . . .
H53A H -0.0486 0.2063 0.5377 0.053 Uiso 1 1 calc R . .
H53B H 0.0322 0.2185 0.5509 0.053 Uiso 1 1 calc R . .
C54 C -0.0140(6) 0.1949(5) 0.4421(6) 0.051(3) Uani 1 1 d . . .
H54A H 0.0122 0.1531 0.4475 0.061 Uiso 1 1 calc R . .
H54B H -0.0612 0.1860 0.4145 0.061 Uiso 1 1 calc R . .
C55 C 0.0182(7) 0.2461(5) 0.4044(6) 0.055(3) Uani 1 1 d . . .
H55A H 0.0677 0.2382 0.4132 0.066 Uiso 1 1 calc R . .
H55B H -0.0018 0.2453 0.3507 0.066 Uiso 1 1 calc R . .
O6 O -0.0812(3) 0.4082(3) 0.3272(4) 0.0460(18) Uani 1 1 d . . .
C62 C -0.1378(7) 0.3634(7) 0.3113(7) 0.080(5) Uani 1 1 d . . .
H62A H -0.1733 0.3779 0.3362 0.096 Uiso 1 1 calc R . .
H62B H -0.1230 0.3181 0.3285 0.096 Uiso 1 1 calc R . .
C63 C -0.1646(6) 0.3643(5) 0.2295(6) 0.058(3) Uani 1 1 d . . .
H63A H -0.2149 0.3659 0.2167 0.070 Uiso 1 1 calc R . .
H63B H -0.1499 0.3242 0.2071 0.070 Uiso 1 1 calc R . .
C64 C -0.1350(6) 0.4269(5) 0.2023(5) 0.050(3) Uani 1 1 d . . .
H64A H -0.1044 0.4155 0.1700 0.060 Uiso 1 1 calc R . .
H64B H -0.1716 0.4563 0.1750 0.060 Uiso 1 1 calc R . .
C65 C -0.0958(5) 0.4596(5) 0.2735(6) 0.043(3) Uani 1 1 d . . .
H65A H -0.0531 0.4797 0.2665 0.051 Uiso 1 1 calc R . .
H65B H -0.1235 0.4946 0.2891 0.051 Uiso 1 1 calc R . .
O7 O 0.0677(3) 0.3766(3) 0.3177(4) 0.0470(17) Uani 1 1 d . . .
C72 C 0.0519(5) 0.3625(4) 0.2379(5) 0.038(2) Uani 1 1 d . . .
H72A H 0.0306 0.4015 0.2094 0.045 Uiso 1 1 calc R . .
H72B H 0.0204 0.3244 0.2259 0.045 Uiso 1 1 calc R . .
C73 C 0.1193(6) 0.3466(5) 0.2203(6) 0.049(3) Uani 1 1 d . . .
H73A H 0.1404 0.3867 0.2049 0.059 Uiso 1 1 calc R . .
H73B H 0.1141 0.3125 0.1813 0.059 Uiso 1 1 calc R . .
C74 C 0.1609(6) 0.3202(5) 0.2949(6) 0.055(3) Uani 1 1 d . . .
H74A H 0.1493 0.2735 0.3025 0.066 Uiso 1 1 calc R . .
H74B H 0.2104 0.3236 0.2984 0.066 Uiso 1 1 calc R . .
C75 C 0.1397(5) 0.3646(5) 0.3481(6) 0.051(3) Uani 1 1 d . . .
H75A H 0.1472 0.3433 0.3970 0.062 Uiso 1 1 calc R . .
H75B H 0.1656 0.4067 0.3532 0.062 Uiso 1 1 calc R . .
O8 O 0.0499(3) 0.4635(3) 0.4432(3) 0.0333(15) Uani 1 1 d . . .
C82 C 0.0718(5) 0.5240(4) 0.4159(5) 0.034(2) Uani 1 1 d . . .
H82A H 0.0338 0.5559 0.4030 0.041 Uiso 1 1 calc R . .
H82B H 0.0893 0.5154 0.3716 0.041 Uiso 1 1 calc R . .
C83 C 0.1288(5) 0.5511(4) 0.4790(5) 0.042(3) Uani 1 1 d . . .
H83A H 0.1654 0.5720 0.4599 0.050 Uiso 1 1 calc R . .
H83B H 0.1108 0.5838 0.5090 0.050 Uiso 1 1 calc R . .
C84 C 0.1538(5) 0.4897(5) 0.5228(6) 0.049(3) Uani 1 1 d . . .
H84A H 0.1859 0.4644 0.5006 0.058 Uiso 1 1 calc R . .
H84B H 0.1763 0.5006 0.5745 0.058 Uiso 1 1 calc R . .
C85 C 0.0899(5) 0.4527(5) 0.5179(5) 0.037(2) Uani 1 1 d . . .
H85A H 0.0993 0.4049 0.5271 0.044 Uiso 1 1 calc R . .
H85B H 0.0657 0.4696 0.5542 0.044 Uiso 1 1 calc R . .
Li3 Li 0.2650(9) 0.3927(9) 0.0817(8) 0.047(4) Uani 1 1 d . . .
O9 O 0.2417(3) 0.3048(3) 0.0482(3) 0.0410(16) Uani 1 1 d . . .
C92 C 0.2567(5) 0.2728(4) -0.0148(5) 0.035(2) Uani 1 1 d . . .
H92A H 0.2944 0.2956 -0.0300 0.042 Uiso 1 1 calc R . .
H92B H 0.2162 0.2727 -0.0567 0.042 Uiso 1 1 calc R . .
C93 C 0.2766(5) 0.2036(4) 0.0100(5) 0.039(2) Uani 1 1 d . . .
H93A H 0.2676 0.1725 -0.0322 0.047 Uiso 1 1 calc R . .
H93B H 0.3253 0.2011 0.0356 0.047 Uiso 1 1 calc R . .
C94 C 0.2325(6) 0.1887(5) 0.0611(6) 0.048(3) Uani 1 1 d . . .
H94A H 0.1890 0.1686 0.0343 0.057 Uiso 1 1 calc R . .
H94B H 0.2556 0.1579 0.1004 0.057 Uiso 1 1 calc R . .
C95 C 0.2208(6) 0.2536(5) 0.0923(6) 0.049(3) Uani 1 1 d . . .
H95A H 0.1720 0.2588 0.0916 0.059 Uiso 1 1 calc R . .
H95B H 0.2474 0.2569 0.1439 0.059 Uiso 1 1 calc R . .
O10 O 0.3266(3) 0.4319(3) 0.0275(3) 0.0427(17) Uani 1 1 d . . .
C102 C 0.3919(5) 0.4604(5) 0.0589(5) 0.041(2) Uani 1 1 d . . .
H10A H 0.4278 0.4260 0.0664 0.050 Uiso 1 1 calc R . .
H10B H 0.3924 0.4812 0.1069 0.050 Uiso 1 1 calc R . .
C103 C 0.4036(6) 0.5111(6) 0.0054(6) 0.056(3) Uani 1 1 d . . .
H10C H 0.4343 0.4939 -0.0243 0.067 Uiso 1 1 calc R . .
H10D H 0.4236 0.5519 0.0310 0.067 Uiso 1 1 calc R . .
C104 C 0.3334(6) 0.5244(5) -0.0425(6) 0.053(3) Uani 1 1 d . . .
H10E H 0.3088 0.5577 -0.0199 0.064 Uiso 1 1 calc R . .
H10F H 0.3355 0.5396 -0.0922 0.064 Uiso 1 1 calc R . .
C105 C 0.3016(5) 0.4588(5) -0.0451(5) 0.044(3) Uani 1 1 d . . .
H10G H 0.2514 0.4626 -0.0570 0.053 Uiso 1 1 calc R . .
H10H H 0.3148 0.4304 -0.0825 0.053 Uiso 1 1 calc R . .
O11 O 0.1885(3) 0.4487(3) 0.0789(3) 0.0433(17) Uani 1 1 d . . .
C112 C 0.1976(5) 0.5182(5) 0.0966(6) 0.048(3) Uani 1 1 d . . .
H11A H 0.2457 0.5313 0.1031 0.058 Uiso 1 1 calc R . .
H11B H 0.1831 0.5285 0.1423 0.058 Uiso 1 1 calc R . .
C113 C 0.1532(6) 0.5533(6) 0.0319(7) 0.059(3) Uani 1 1 d . . .
H11C H 0.1384 0.5968 0.0467 0.071 Uiso 1 1 calc R . .
H11D H 0.1777 0.5601 -0.0075 0.071 Uiso 1 1 calc R . .
C114 C 0.0947(6) 0.5086(6) 0.0069(7) 0.065(4) Uani 1 1 d . . .
H11E H 0.0836 0.5040 -0.0473 0.078 Uiso 1 1 calc R . .
H11F H 0.0543 0.5259 0.0218 0.078 Uiso 1 1 calc R . .
C115 C 0.1162(5) 0.4431(6) 0.0434(5) 0.051(3) Uani 1 1 d . . .
H11G H 0.0898 0.4332 0.0804 0.062 Uiso 1 1 calc R . .
H11H H 0.1085 0.4071 0.0064 0.062 Uiso 1 1 calc R . .
O12 O 0.3168(3) 0.3850(3) 0.1828(3) 0.0455(18) Uani 1 1 d . . .
C122 C 0.3073(6) 0.4258(5) 0.2414(5) 0.044(3) Uani 1 1 d . . .
H12C H 0.2594 0.4239 0.2453 0.053 Uiso 1 1 calc R . .
H12D H 0.3189 0.4723 0.2332 0.053 Uiso 1 1 calc R . .
C123 C 0.3548(6) 0.3983(5) 0.3111(6) 0.053(3) Uani 1 1 d . . .
H12E H 0.3690 0.4331 0.3489 0.063 Uiso 1 1 calc R . .
H12F H 0.3335 0.3613 0.3322 0.063 Uiso 1 1 calc R . .
C124 C 0.4138(6) 0.3747(7) 0.2812(6) 0.065(3) Uani 1 1 d . . .
H12G H 0.4439 0.4118 0.2753 0.078 Uiso 1 1 calc R . .
H12H H 0.4408 0.3405 0.3134 0.078 Uiso 1 1 calc R . .
C125 C 0.3777(6) 0.3462(6) 0.2079(6) 0.063(3) Uani 1 1 d . . .
H12I H 0.4068 0.3492 0.1724 0.076 Uiso 1 1 calc R . .
H12J H 0.3661 0.2992 0.2133 0.076 Uiso 1 1 calc R . .

loop_
_atom_site_aniso_label
_atom_site_aniso_U_11
_atom_site_aniso_U_22
_atom_site_aniso_U_33
_atom_site_aniso_U_23
_atom_site_aniso_U_13
_atom_site_aniso_U_12
Cu1 0.0261(6) 0.0496(7) 0.0425(6) -0.0039(6) 0.0106(5) -0.0031(5)
Cu2 0.0247(6) 0.0342(6) 0.0278(5) -0.0016(4) 0.0071(4) 0.0003(4)
Cu3 0.0245(6) 0.0434(6) 0.0426(6) -0.0034(5) 0.0095(5) 0.0009(5)
Cu4 0.0241(5) 0.0347(6) 0.0329(6) -0.0019(4) 0.0081(5) -0.0007(5)
Cu5 0.0266(6) 0.0459(7) 0.0418(6) -0.0012(5) 0.0095(5) -0.0011(5)
Cu6 0.0243(6) 0.0375(6) 0.0339(6) -0.0016(5) 0.0089(5) -0.0001(5)
Br11 0.0266(5) 0.0404(5) 0.0366(5) 0.0062(4) 0.0097(4) 0.0024(4)
Br12 0.0278(5) 0.0389(5) 0.0364(5) 0.0036(4) 0.0087(4) -0.0024(4)
Br21 0.0267(5) 0.0510(5) 0.0302(5) 0.0015(4) 0.0092(4) -0.0001(4)
Br22 0.0252(5) 0.0479(5) 0.0305(4) 0.0005(4) 0.0060(4) -0.0001(4)
Br31 0.0256(5) 0.0349(5) 0.0475(5) -0.0075(4) 0.0094(4) -0.0025(4)
Br32 0.0267(5) 0.0363(5) 0.0388(5) -0.0064(4) 0.0111(4) -0.0014(4)
Br41 0.0280(5) 0.0357(5) 0.0367(5) 0.0028(4) 0.0112(4) 0.0009(4)
Br42 0.0272(5) 0.0462(5) 0.0453(6) 0.0129(4) 0.0100(4) 0.0042(4)
Br51 0.0244(5) 0.0492(5) 0.0337(5) -0.0025(4) 0.0070(4) -0.0007(4)
Br52 0.0261(5) 0.0506(5) 0.0331(5) -0.0010(4) 0.0096(4) -0.0005(4)
Br61 0.0307(5) 0.0431(5) 0.0491(6) -0.0142