
#######################################################################
#
#                 Cambridge Crystallographic Data Centre
#                                CCDC
#
#######################################################################
#
# If this CIF has been generated from an entry in the Cambridge
# Structural Database, then it will include bibliographic, chemical,
# crystal, experimental, refinement or atomic coordinate data resulting
# from the CCDC's data processing and validation procedures.
#
#######################################################################

data_CSD_CIF_VIKLOR
_audit_creation_date 2007-10-23
_audit_creation_method CSD-ConQuest-V1
_database_code_CSD VIKLOR
_database_code_depnum_ccdc_archive 'CCDC 634490'
_chemical_formula_sum 'C13 H15 N1 O6'
_chemical_formula_moiety
;
C9 H11 N1 O2,C4 H4 O4
;
_journal_coden_Cambridge 4
_journal_volume 129
_journal_year 2007
_journal_page_first 7657
_journal_name_full 'J.Am.Chem.Soc. '
loop_
_publ_author_name
"M.Klussmann"
"T.Izumi"
"A.J.P.White"
"A.Armstrong"
"D.G.Blackmond"
_chemical_name_systematic
;
DL-Phenylalanine fumaric acid
;
_chemical_name_common
;
Teaching Subset: Essential Nutrients
;
_cell_volume    675.080
_exptl_crystal_colour 'colorless'
_exptl_crystal_density_diffrn 1.384
_exptl_crystal_description 'needles'
_diffrn_ambient_temperature 173
#These two values have been output from a single CSD field.
_refine_ls_R_factor_gt 0.05
_refine_ls_wR_factor_gt 0.05
loop_
_citation_database_id_CSD
_citation_special_details
EDAXIQ "is a stereoisomer of this entry"
OJEPEY "is a stereoisomer of this entry"
VAGVIJ "is a stereoisomer of this entry"
_symmetry_cell_setting triclinic
_symmetry_space_group_name_H-M 'P -1'
_symmetry_Int_Tables_number 2
loop_
_symmetry_equiv_pos_site_id
_symmetry_equiv_pos_as_xyz
1 x,y,z
2 -x,-y,-z
_cell_length_a 5.499(3)
_cell_length_b 11.661(5)
_cell_length_c 11.909(5)
_cell_angle_alpha 64.67(4)
_cell_angle_beta 78.00(4)
_cell_angle_gamma 84.17(4)
_cell_formula_units_Z 2
loop_
_atom_type_symbol
_atom_type_radius_bond
C 0.68
H 0.23
N 0.68
O 0.68
loop_
_atom_site_label
_atom_site_type_symbol
_atom_site_fract_x
_atom_site_fract_y
_atom_site_fract_z
C1 C 0.2980(4) 0.8264(2) 0.5114(2)
H1 H 0.18690 0.83940 0.58310
C2 C 0.2716(5) 0.6903(2) 0.5289(3)
H2 H 0.09470 0.67440 0.53530
H3 H 0.36810 0.67940 0.45400
N1 N 0.2196(4) 0.9160(2) 0.3908(2)
H4 H 0.308(7) 0.912(4) 0.320(2)
H5 H 0.0594(16) 0.897(3) 0.401(3)
H6 H 0.225(5) 0.9964(9) 0.382(3)
C3 C 0.5670(5) 0.8529(2) 0.5094(2)
O1 O 0.6155(3) 0.86107(16) 0.60346(15)
O2 O 0.7233(3) 0.86430(17) 0.41217(16)
C4 C 0.3620(5) 0.5951(2) 0.6455(3)
C5 C 0.2284(6) 0.5725(3) 0.7656(3)
H7 H 0.07250 0.61400 0.77440
C6 C 0.3201(7) 0.4900(3) 0.8725(3)
H8 H 0.22770 0.47600 0.95400
C7 C 0.5434(7) 0.4288(3) 0.8610(4)
H9 H 0.60650 0.37300 0.93440
C8 C 0.6764(6) 0.4477(3) 0.7437(4)
H10 H 0.82950 0.40350 0.73620
C9 C 0.5885(5) 0.5310(3) 0.6362(3)
H11 H 0.68330 0.54470 0.55520
C10 C 0.6811(5) 0.8493(2) 0.1393(2)
C11 C 0.7912(5) 0.8505(2) 0.0149(2)
H12 H 0.68280 0.85560 -0.03970
C12 C 1.0323(5) 0.8447(2) -0.0242(2)
H13 H 1.14300 0.83760 0.03010
C13 C 1.1343(4) 0.8491(2) -0.1512(2)
O3 O 0.4659(3) 0.87833(17) 0.16670(16)
O4 O 0.8416(3) 0.8149(2) 0.21745(19)
H14 H 0.771(7) 0.822(4) 0.2897(19)
O5 O 1.0090(3) 0.86447(18) -0.22943(16)
O6 O 1.3795(3) 0.83173(18) -0.16959(17)
H15 H 1.427(5) 0.845(3) -0.2512(8)
#END
