####################################################################### 
# 
# This file contains crystal structure data downloaded from the 
# Cambridge Structural Database (CSD) hosted by the Cambridge 
# Crystallographic Data Centre (CCDC).
# 
# Full information about CCDC data access policies and citation 
# guidelines are available at http://www.ccdc.cam.ac.uk/access/V1 
# 
# Audit and citation data items may have been added by the CCDC. 
# Please retain this information to preserve the provenance of 
# this file and to allow appropriate attribution of the data. 
# 
#######################################################################

data_c:\docume~1\zhao\desktop\han328~1\han328
_audit_block_doi                 10.5517/ccyhzn1
_database_code_depnum_ccdc_archive 'CCDC 879304'
loop_
_citation_id
_citation_doi
_citation_year
1 10.1016/j.poly.2013.06.006 2013
_audit_update_record             
;
2012-04-27 deposited with the CCDC.	2024-07-13 downloaded from the CCDC.
;
_audit_creation_method           SHELXL-97
_chemical_name_systematic        
;
?
;
_chemical_name_common            ?
_chemical_melting_point          ?
_chemical_formula_moiety         ?
_chemical_formula_sum            'C52 H40 Co3 N28 O8 W2'
_chemical_formula_weight         1729.61

loop_
_atom_type_symbol
_atom_type_description
_atom_type_scat_dispersion_real
_atom_type_scat_dispersion_imag
_atom_type_scat_source
C C 0.0033 0.0016 'International Tables Vol C Tables 4.2.6.8 and 6.1.1.4'
H H 0.0000 0.0000 'International Tables Vol C Tables 4.2.6.8 and 6.1.1.4'
N N 0.0061 0.0033 'International Tables Vol C Tables 4.2.6.8 and 6.1.1.4'
O O 0.0106 0.0060 'International Tables Vol C Tables 4.2.6.8 and 6.1.1.4'
Co Co 0.3494 0.9721 'International Tables Vol C Tables 4.2.6.8 and 6.1.1.4'
W W -0.8490 6.8722 'International Tables Vol C Tables 4.2.6.8 and 6.1.1.4'

_symmetry_cell_setting           triclinic
_symmetry_space_group_name_H-M   p-1

loop_
_symmetry_equiv_pos_as_xyz
'x, y, z'
'-x, -y, -z'

_cell_length_a                   10.733(2)
_cell_length_b                   13.380(3)
_cell_length_c                   17.141(3)
_cell_angle_alpha                100.06(3)
_cell_angle_beta                 96.15(3)
_cell_angle_gamma                112.15(3)
_cell_volume                     2204.2(8)
_cell_formula_units_Z            1
_cell_measurement_temperature    110(2)
_cell_measurement_reflns_used    1078
_cell_measurement_theta_min      5.333
_cell_measurement_theta_max      66.577

_exptl_crystal_description       plate
_exptl_crystal_colour            red
_exptl_crystal_size_max          0.06
_exptl_crystal_size_mid          0.04
_exptl_crystal_size_min          0.01
_exptl_crystal_density_meas      ?
_exptl_crystal_density_diffrn    1.303
_exptl_crystal_density_method    'not measured'
_exptl_crystal_F_000             841
_exptl_absorpt_coefficient_mu    3.206
_exptl_absorpt_correction_type   multi-scan
_exptl_absorpt_correction_T_min  0.8309
_exptl_absorpt_correction_T_max  0.9686
_exptl_absorpt_process_details   ?

_exptl_special_details           
;
?
;

_diffrn_ambient_temperature      110(2)
_diffrn_radiation_wavelength     0.71073
_diffrn_radiation_type           MoK\a
_diffrn_radiation_source         'fine-focus sealed tube'
_diffrn_radiation_monochromator  graphite
_diffrn_measurement_device_type  'Bruker-AXS GADDS (Hi-Star) 2D detector'
_diffrn_measurement_method       multi-scan
_diffrn_detector_area_resol_mean ?
_diffrn_standards_number         ?
_diffrn_standards_interval_count ?
_diffrn_standards_interval_time  ?
_diffrn_standards_decay_%        ?
_diffrn_reflns_number            15622
_diffrn_reflns_av_R_equivalents  0.1255
_diffrn_reflns_av_sigmaI/netI    0.2315
_diffrn_reflns_limit_h_min       -12
_diffrn_reflns_limit_h_max       12
_diffrn_reflns_limit_k_min       -15
_diffrn_reflns_limit_k_max       15
_diffrn_reflns_limit_l_min       -18
_diffrn_reflns_limit_l_max       19
_diffrn_reflns_theta_min         1.84
_diffrn_reflns_theta_max         24.34
_reflns_number_total             6221
_reflns_number_gt                2846
_reflns_threshold_expression     >2sigma(I)

_computing_data_collection       'SMART V5.625 (Bruker, 2000)'
_computing_cell_refinement       'SMART V5.625 (Bruker, 2000)'
_computing_data_reduction        'SAINT V6.32 (Bruker, 2001)'
_computing_structure_solution    'SHELXS-97 (Sheldrick, 1997)'
_computing_structure_refinement  'SHELXL-97 (Sheldrick, 1997)'
_computing_molecular_graphics    'X-Seed (Barbour, 2001)'
_computing_publication_material  'SHELXL-97 (Sheldrick, 1997)'

_refine_special_details          
;
Refinement of F^2^ against ALL reflections. The weighted R-factor wR and
goodness of fit S are based on F^2^, conventional R-factors R are based
on F, with F set to zero for negative F^2^. The threshold expression of
F^2^ > 2sigma(F^2^) is used only for calculating R-factors(gt) etc. and is
not relevant to the choice of reflections for refinement. R-factors based
on F^2^ are statistically about twice as large as those based on F, and R-
factors based on ALL data will be even larger.
;

_refine_ls_structure_factor_coef Fsqd
_refine_ls_matrix_type           full
_refine_ls_weighting_scheme      calc
_refine_ls_weighting_details     
'calc w=1/[\s^2^(Fo^2^)+(0.1165P)^2^+0.0000P] where P=(Fo^2^+2Fc^2^)/3'
_atom_sites_solution_primary     direct
_atom_sites_solution_secondary   difmap
_atom_sites_solution_hydrogens   geom
_refine_ls_hydrogen_treatment    mixed
_refine_ls_extinction_method     none
_refine_ls_extinction_coef       ?
_refine_ls_number_reflns         6221
_refine_ls_number_parameters     421
_refine_ls_number_restraints     12
_refine_ls_R_factor_all          0.1757
_refine_ls_R_factor_gt           0.0779
_refine_ls_wR_factor_ref         0.2283
_refine_ls_wR_factor_gt          0.1937
_refine_ls_goodness_of_fit_ref   0.922
_refine_ls_restrained_S_all      0.922
_refine_ls_shift/su_max          0.011
_refine_ls_shift/su_mean         0.000

loop_
_atom_site_label
_atom_site_type_symbol
_atom_site_fract_x
_atom_site_fract_y
_atom_site_fract_z
_atom_site_U_iso_or_equiv
_atom_site_adp_type
_atom_site_occupancy
_atom_site_symmetry_multiplicity
_atom_site_calc_flag
_atom_site_refinement_flags
_atom_site_disorder_assembly
_atom_site_disorder_group
W1 W 0.61973(8) 0.93966(7) 0.70700(5) 0.0473(3) Uani 1 1 d . . .
Co1 Co 0.2848(3) 0.7151(2) 0.42608(17) 0.0592(8) Uani 1 1 d . . .
O1 O 0.0969(11) 0.6226(9) 0.3418(7) 0.049(3) Uani 1 1 d . . .
N1 N 0.4584(13) 0.8123(11) 0.5208(9) 0.036(4) Uani 1 1 d . . .
C1 C 0.5187(16) 0.8616(14) 0.5850(11) 0.034(4) Uani 1 1 d U . .
Co2 Co 0.5000 1.0000 1.0000 0.109(2) Uani 1 2 d S . .
O2 O 0.418(3) 0.828(2) 0.9942(17) 0.218(12) Uani 1 1 d U . .
N2 N 0.567(2) 0.970(2) 0.8928(12) 0.104(8) Uani 1 1 d . . .
C2 C 0.588(2) 0.9602(17) 0.8232(15) 0.068(7) Uani 1 1 d . . .
O3 O 0.689(3) 1.019(3) 1.0644(12) 0.265(19) Uani 1 1 d . . .
N3 N 0.3730(17) 0.7052(16) 0.7132(11) 0.069(5) Uani 1 1 d . . .
C3 C 0.459(2) 0.7887(15) 0.7107(11) 0.047(5) Uani 1 1 d . . .
O4 O 0.889(3) 1.018(4) 1.1577(19) 0.37(3) Uani 1 1 d . . .
N4 N 0.7685(18) 0.7838(18) 0.7633(15) 0.110(8) Uani 1 1 d . . .
C4 C 0.718(2) 0.8378(17) 0.7491(17) 0.083(8) Uani 1 1 d . . .
N5 N 0.893(2) 1.1393(18) 0.8251(11) 0.089(7) Uani 1 1 d . . .
C5 C 0.803(2) 1.071(2) 0.7836(13) 0.068(7) Uani 1 1 d . . .
N6 N 0.6756(14) 1.1593(12) 0.6282(10) 0.047(4) Uani 1 1 d . . .
C6 C 0.6533(16) 1.0827(16) 0.6537(11) 0.043(5) Uani 1 1 d . . .
N7 N 0.8563(19) 0.9652(14) 0.5976(11) 0.074(6) Uani 1 1 d . . .
C7 C 0.773(2) 0.9504(17) 0.6370(11) 0.054(6) Uani 1 1 d . . .
N8 N 0.3506(19) 1.0044(14) 0.7062(10) 0.066(5) Uani 1 1 d . . .
C8 C 0.4388(19) 0.9780(14) 0.7050(11) 0.043(5) Uani 1 1 d . . .
N9 N 0.3843(14) 0.6249(12) 0.3598(9) 0.044(4) Uani 1 1 d . . .
C9 C 0.4425(18) 0.6480(17) 0.2988(12) 0.053(5) Uani 1 1 d . . .
H9 H 0.4450 0.7124 0.2816 0.063 Uiso 1 1 calc R . .
N10 N 0.2549(14) 0.5810(11) 0.4755(9) 0.041(4) Uani 1 1 d . . .
C10 C 0.502(2) 0.584(2) 0.2567(12) 0.069(6) Uani 1 1 d . . .
H10 H 0.5415 0.6036 0.2118 0.083 Uiso 1 1 calc R . .
N11 N 0.1626(13) 0.7306(12) 0.5164(9) 0.046(4) Uani 1 1 d . . .
C11 C 0.501(2) 0.4924(17) 0.2810(13) 0.068(6) Uani 1 1 d . . .
H11 H 0.5428 0.4487 0.2538 0.081 Uiso 1 1 calc R . .
N12 N 0.2968(13) 0.4258(12) 0.4823(9) 0.046(4) Uani 1 1 d . . .
C12 C 0.437(2) 0.4611(17) 0.3497(11) 0.056(5) Uani 1 1 d . . .
H12 H 0.4346 0.3986 0.3694 0.067 Uiso 1 1 calc R . .
N13 N 0.1643(12) 0.4815(12) 0.5689(8) 0.037(4) Uani 1 1 d . . .
C13 C 0.3794(17) 0.5302(16) 0.3824(11) 0.045(5) Uani 1 1 d . . .
N14 N 0.1242(15) 0.3044(13) 0.6373(10) 0.056(4) Uani 1 1 d . . .
C14 C 0.3107(16) 0.5106(15) 0.4510(12) 0.042(5) Uani 1 1 d . . .
C15 C 0.1856(18) 0.5664(15) 0.5350(11) 0.042(5) Uani 1 1 d . . .
C16 C 0.1326(16) 0.6543(15) 0.5605(11) 0.041(5) Uani 1 1 d . . .
C17 C 0.0552(16) 0.6509(15) 0.6201(11) 0.043(5) Uani 1 1 d . . .
H17 H 0.0368 0.5937 0.6487 0.051 Uiso 1 1 calc R . .
C18 C 0.0048(17) 0.7309(16) 0.6376(13) 0.058(6) Uani 1 1 d . . .
H18 H -0.0518 0.7297 0.6767 0.069 Uiso 1 1 calc R . .
C19 C 0.042(2) 0.8149(16) 0.5943(15) 0.068(7) Uani 1 1 d . . .
H19 H 0.0151 0.8750 0.6063 0.082 Uiso 1 1 calc R . .
C20 C 0.1164(18) 0.8101(15) 0.5353(12) 0.048(5) Uani 1 1 d . . .
H20 H 0.1366 0.8663 0.5058 0.057 Uiso 1 1 calc R . .
C21 C 0.2274(18) 0.4153(14) 0.5424(12) 0.047(5) Uani 1 1 d . . .
C22 C 0.2034(16) 0.3173(14) 0.5813(11) 0.039(5) Uani 1 1 d . . .
C23 C 0.2716(17) 0.2454(15) 0.5571(11) 0.049(5) Uani 1 1 d . . .
H23 H 0.3260 0.2548 0.5166 0.058 Uiso 1 1 calc R . .
C24 C 0.250(2) 0.1597(16) 0.5992(13) 0.061(6) Uani 1 1 d . . .
H24 H 0.2931 0.1098 0.5872 0.073 Uiso 1 1 calc R . .
C25 C 0.171(2) 0.1470(16) 0.6558(12) 0.054(5) Uani 1 1 d . . .
H25 H 0.1594 0.0897 0.6837 0.064 Uiso 1 1 calc R . .
C26 C 0.1060(19) 0.2179(17) 0.6730(12) 0.060(6) Uani 1 1 d . . .
H26 H 0.0467 0.2058 0.7109 0.072 Uiso 1 1 calc R . .

loop_
_atom_site_aniso_label
_atom_site_aniso_U_11
_atom_site_aniso_U_22
_atom_site_aniso_U_33
_atom_site_aniso_U_23
_atom_site_aniso_U_13
_atom_site_aniso_U_12
W1 0.0424(5) 0.0514(6) 0.0574(6) 0.0192(4) 0.0115(4) 0.0257(4)
Co1 0.0551(18) 0.0545(19) 0.070(2) 0.0229(17) 0.0073(15) 0.0217(15)
O1 0.037(7) 0.029(7) 0.077(9) 0.016(7) 0.011(7) 0.006(6)
N1 0.028(8) 0.044(10) 0.049(9) 0.020(9) 0.020(7) 0.022(7)
C1 0.033(6) 0.033(6) 0.040(6) 0.014(5) 0.002(4) 0.017(4)
Co2 0.085(4) 0.183(6) 0.057(3) 0.036(4) 0.019(3) 0.048(4)
O2 0.224(12) 0.217(12) 0.214(12) 0.052(6) 0.049(5) 0.087(7)
N2 0.089(16) 0.16(2) 0.052(12) 0.017(15) -0.007(12) 0.048(15)
C2 0.070(15) 0.049(14) 0.088(17) 0.024(15) -0.017(14) 0.031(12)
O3 0.17(2) 0.60(6) 0.079(14) 0.06(2) 0.041(15) 0.22(3)
N3 0.056(12) 0.080(14) 0.082(13) 0.039(13) 0.000(11) 0.033(11)
C3 0.058(14) 0.028(12) 0.045(12) 0.005(11) 0.000(11) 0.012(10)
O4 0.17(3) 0.61(7) 0.22(3) -0.08(4) 0.11(2) 0.08(4)
N4 0.050(13) 0.115(19) 0.19(2) 0.068(18) 0.020(14) 0.046(13)
C4 0.040(14) 0.043(14) 0.16(3) 0.016(16) 0.014(15) 0.015(11)
N5 0.073(14) 0.108(18) 0.054(12) 0.021(13) -0.005(11) 0.006(13)
C5 0.036(13) 0.086(19) 0.059(15) 0.023(15) -0.003(11) 0.001(12)
N6 0.032(9) 0.030(9) 0.066(12) 0.008(9) -0.002(8) 0.001(7)
C6 0.022(10) 0.056(14) 0.060(14) 0.017(12) 0.020(9) 0.022(10)
N7 0.073(14) 0.063(13) 0.083(14) -0.015(12) 0.007(11) 0.039(11)
C7 0.097(18) 0.061(15) 0.027(11) -0.005(11) 0.000(11) 0.066(14)
N8 0.090(14) 0.078(13) 0.064(12) 0.033(11) 0.035(11) 0.058(12)
C8 0.052(13) 0.041(12) 0.057(13) 0.028(11) 0.031(11) 0.028(10)
N9 0.047(10) 0.036(10) 0.045(10) 0.015(9) 0.018(8) 0.006(7)
C9 0.037(12) 0.063(15) 0.068(15) 0.022(13) 0.021(11) 0.025(10)
N10 0.034(9) 0.036(9) 0.053(10) 0.009(8) 0.010(8) 0.015(7)
C10 0.072(16) 0.096(19) 0.057(14) 0.052(15) 0.031(12) 0.032(14)
N11 0.029(9) 0.040(10) 0.072(11) 0.019(10) 0.008(8) 0.016(7)
C11 0.089(17) 0.058(15) 0.062(15) -0.002(14) -0.002(13) 0.047(13)
N12 0.029(9) 0.055(11) 0.060(11) 0.019(9) 0.031(8) 0.016(8)
C12 0.070(15) 0.061(15) 0.045(13) 0.020(12) 0.012(11) 0.033(12)
N13 0.015(7) 0.044(10) 0.046(9) 0.011(9) 0.014(7) 0.003(7)
C13 0.034(11) 0.050(13) 0.053(13) 0.013(12) 0.015(10) 0.018(10)
N14 0.043(10) 0.056(11) 0.087(13) 0.035(10) 0.036(10) 0.025(8)
C14 0.021(10) 0.050(13) 0.069(14) 0.042(12) 0.017(10) 0.014(9)
C15 0.041(12) 0.043(12) 0.040(12) 0.021(11) 0.008(10) 0.013(9)
C16 0.021(10) 0.049(13) 0.050(12) 0.007(11) -0.001(9) 0.015(9)
C17 0.029(10) 0.050(12) 0.055(12) 0.012(11) 0.010(10) 0.023(9)
C18 0.028(11) 0.053(14) 0.094(17) 0.008(14) 0.019(11) 0.021(10)
C19 0.047(13) 0.040(13) 0.12(2) 0.009(15) -0.001(14) 0.034(11)
C20 0.036(12) 0.047(13) 0.058(13) 0.009(11) -0.002(10) 0.019(10)
C21 0.037(12) 0.033(12) 0.063(14) 0.014(11) -0.005(11) 0.010(9)
C22 0.024(10) 0.045(12) 0.057(12) 0.026(11) 0.013(9) 0.014(9)
C23 0.035(11) 0.056(13) 0.050(12) 0.005(12) 0.008(9) 0.017(10)
C24 0.066(15) 0.050(14) 0.072(16) 0.033(13) -0.006(13) 0.027(11)
C25 0.060(14) 0.047(13) 0.064(15) 0.024(12) 0.020(12) 0.026(11)
C26 0.057(13) 0.080(16) 0.072(15) 0.054(14) 0.030(12) 0.038(12)

_geom_special_details            
;
All esds (except the esd in the dihedral angle between two l.s. planes)
are estimated using the full covariance matrix. The cell esds are taken
into account individually in the estimation of esds in distances, angles
and torsion angles; correlations between esds in cell parameters are only
used when they are defined by crystal symmetry. An approximate (isotropic)
treatment of cell esds is used for estimating esds involving l.s. planes.
;

loop_
_geom_bond_atom_site_label_1
_geom_bond_atom_site_label_2
_geom_bond_distance
_geom_bond_site_symmetry_2
_geom_bond_publ_flag
W1 C2 2.05(3) . ?
W1 C7 2.11(2) . ?
W1 C3 2.12(2) . ?
W1 C1 2.130(18) . ?
W1 C5 2.18(2) . ?
W1 C4 2.18(2) . ?
W1 C8 2.185(19) . ?
W1 C6 2.19(2) . ?
Co1 N6 1.990(17) 2_676 ?
Co1 N10 2.048(14) . ?
Co1 O1 2.135(11) . ?
Co1 N1 2.142(14) . ?
Co1 N9 2.154(15) . ?
Co1 N11 2.165(15) . ?
N1 C1 1.156(18) . ?
Co2 N2 2.07(2) . ?
Co2 N2 2.07(2) 2_677 ?
Co2 O3 2.10(2) . ?
Co2 O3 2.10(2) 2_677 ?
Co2 O2 2.12(3) . ?
Co2 O2 2.12(3) 2_677 ?
N2 C2 1.23(3) . ?
N3 C3 1.16(2) . ?
N4 C4 1.10(2) . ?
N5 C5 1.11(2) . ?
N6 C6 1.14(2) . ?
N6 Co1 1.990(17) 2_676 ?
N7 C7 1.16(2) . ?
N8 C8 1.13(2) . ?
N9 C9 1.30(2) . ?
N9 C13 1.37(2) . ?
C9 C10 1.40(3) . ?
N10 C15 1.32(2) . ?
N10 C14 1.33(2) . ?
C10 C11 1.36(3) . ?
N11 C16 1.34(2) . ?
N11 C20 1.34(2) . ?
C11 C12 1.47(3) . ?
N12 C14 1.30(2) . ?
N12 C21 1.33(2) . ?
C12 C13 1.37(2) . ?
N13 C15 1.32(2) . ?
N13 C21 1.35(2) . ?
C13 C14 1.46(2) . ?
N14 C22 1.34(2) . ?
N14 C26 1.36(2) . ?
C15 C16 1.51(2) . ?
C16 C17 1.38(2) . ?
C17 C18 1.37(2) . ?
C18 C19 1.41(3) . ?
C19 C20 1.36(3) . ?
C21 C22 1.52(2) . ?
C22 C23 1.44(2) . ?
C23 C24 1.42(2) . ?
C24 C25 1.35(2) . ?
C25 C26 1.38(2) . ?

loop_
_geom_angle_atom_site_label_1
_geom_angle_atom_site_label_2
_geom_angle_atom_site_label_3
_geom_angle
_geom_angle_site_symmetry_1
_geom_angle_site_symmetry_3
_geom_angle_publ_flag
C2 W1 C7 143.0(8) . . ?
C2 W1 C3 74.6(8) . . ?
C7 W1 C3 124.2(8) . . ?
C2 W1 C1 143.1(7) . . ?
C7 W1 C1 72.6(7) . . ?
C3 W1 C1 74.1(7) . . ?
C2 W1 C5 71.7(8) . . ?
C7 W1 C5 76.4(8) . . ?
C3 W1 C5 140.5(7) . . ?
C1 W1 C5 144.0(7) . . ?
C2 W1 C4 81.5(9) . . ?
C7 W1 C4 75.4(8) . . ?
C3 W1 C4 73.9(7) . . ?
C1 W1 C4 107.8(8) . . ?
C5 W1 C4 81.2(8) . . ?
C2 W1 C8 73.8(7) . . ?
C7 W1 C8 137.8(7) . . ?
C3 W1 C8 75.5(7) . . ?
C1 W1 C8 79.8(6) . . ?
C5 W1 C8 113.4(8) . . ?
C4 W1 C8 144.7(8) . . ?
C2 W1 C6 115.6(7) . . ?
C7 W1 C6 72.5(6) . . ?
C3 W1 C6 139.6(7) . . ?
C1 W1 C6 78.2(6) . . ?
C5 W1 C6 75.3(7) . . ?
C4 W1 C6 143.8(7) . . ?
C8 W1 C6 71.1(6) . . ?
N6 Co1 N10 174.7(6) 2_676 . ?
N6 Co1 O1 90.4(5) 2_676 . ?
N10 Co1 O1 90.1(5) . . ?
N6 Co1 N1 91.0(5) 2_676 . ?
N10 Co1 N1 89.1(5) . . ?
O1 Co1 N1 173.0(5) . . ?
N6 Co1 N9 99.5(6) 2_676 . ?
N10 Co1 N9 75.2(6) . . ?
O1 Co1 N9 90.8(5) . . ?
N1 Co1 N9 95.7(5) . . ?
N6 Co1 N11 110.0(6) 2_676 . ?
N10 Co1 N11 75.3(6) . . ?
O1 Co1 N11 87.4(5) . . ?
N1 Co1 N11 85.7(5) . . ?
N9 Co1 N11 150.5(6) . . ?
C1 N1 Co1 158.3(12) . . ?
N1 C1 W1 174.9(15) . . ?
N2 Co2 N2 180.000(11) . 2_677 ?
N2 Co2 O3 89.7(8) . . ?
N2 Co2 O3 90.3(8) 2_677 . ?
N2 Co2 O3 90.3(8) . 2_677 ?
N2 Co2 O3 89.7(8) 2_677 2_677 ?
O3 Co2 O3 180.000(12) . 2_677 ?
N2 Co2 O2 89.4(11) . . ?
N2 Co2 O2 90.6(11) 2_677 . ?
O3 Co2 O2 90.6(14) . . ?
O3 Co2 O2 89.4(14) 2_677 . ?
N2 Co2 O2 90.6(11) . 2_677 ?
N2 Co2 O2 89.4(11) 2_677 2_677 ?
O3 Co2 O2 89.4(14) . 2_677 ?
O3 Co2 O2 90.6(14) 2_677 2_677 ?
O2 Co2 O2 180.000(11) . 2_677 ?
C2 N2 Co2 167.5(19) . . ?
N2 C2 W1 179(2) . . ?
N3 C3 W1 178.3(17) . . ?
N4 C4 W1 174(3) . . ?
N5 C5 W1 177(2) . . ?
C6 N6 Co1 174.7(17) . 2_676 ?
N6 C6 W1 177.2(16) . . ?
N7 C7 W1 173.8(18) . . ?
N8 C8 W1 175.7(18) . . ?
C9 N9 C13 117.0(16) . . ?
C9 N9 Co1 126.8(13) . . ?
C13 N9 Co1 116.1(12) . . ?
N9 C9 C10 123.9(19) . . ?
C15 N10 C14 119.1(16) . . ?
C15 N10 Co1 120.5(12) . . ?
C14 N10 Co1 120.3(13) . . ?
C11 C10 C9 119(2) . . ?
C16 N11 C20 115.6(17) . . ?
C16 N11 Co1 116.9(11) . . ?
C20 N11 Co1 127.5(14) . . ?
C10 C11 C12 119.8(19) . . ?
C14 N12 C21 116.5(16) . . ?
C13 C12 C11 114.0(18) . . ?
C15 N13 C21 114.7(15) . . ?
C12 C13 N9 126.2(18) . . ?
C12 C13 C14 120.8(18) . . ?
N9 C13 C14 112.9(16) . . ?
C22 N14 C26 118.0(16) . . ?
N12 C14 N10 122.1(17) . . ?
N12 C14 C13 122.6(17) . . ?
N10 C14 C13 115.2(16) . . ?
N13 C15 N10 122.6(17) . . ?
N13 C15 C16 122.8(17) . . ?
N10 C15 C16 114.5(16) . . ?
N11 C16 C17 124.7(16) . . ?
N11 C16 C15 112.7(16) . . ?
C17 C16 C15 122.5(17) . . ?
C18 C17 C16 119.3(18) . . ?
C17 C18 C19 116.3(19) . . ?
C20 C19 C18 120.2(17) . . ?
N11 C20 C19 123.8(19) . . ?
N12 C21 N13 124.7(17) . . ?
N12 C21 C22 120.1(17) . . ?
N13 C21 C22 115.0(18) . . ?
N14 C22 C23 123.9(16) . . ?
N14 C22 C21 118.6(16) . . ?
C23 C22 C21 117.5(17) . . ?
C24 C23 C22 114.2(17) . . ?
C25 C24 C23 121.9(19) . . ?
C24 C25 C26 119.7(19) . . ?
N14 C26 C25 122.3(19) . . ?

_diffrn_measured_fraction_theta_max 0.861
_diffrn_reflns_theta_full        24.34
_diffrn_measured_fraction_theta_full 0.861
_refine_diff_density_max         1.436
_refine_diff_density_min         -2.026
_refine_diff_density_rms         0.196
