####################################################################### 
# 
# This file contains crystal structure data downloaded from the 
# Cambridge Structural Database (CSD) hosted by the Cambridge 
# Crystallographic Data Centre (CCDC).
# 
# Full information about CCDC data access policies and citation 
# guidelines are available at http://www.ccdc.cam.ac.uk/access/V1 
# 
# Audit and citation data items may have been added by the CCDC. 
# Please retain this information to preserve the provenance of 
# this file and to allow appropriate attribution of the data. 
# 
#######################################################################

data_1
_audit_block_doi                 10.5517/ccpll0v
_database_code_depnum_ccdc_archive 'CCDC 643467'
loop_
_citation_id
_citation_doi
_citation_year
1 10.1039/b701600j 2007
_audit_update_record             
;
2007-04-09 deposited with the CCDC.	2024-07-13 downloaded from the CCDC.
;

_audit_creation_method           SHELXL-97
_chemical_name_systematic        
;
bis(ethylenediamine)diaquacopper(II) catena-bis(ethylenediamine)
(aqua)copper(II)(mu-aqua)bis((triaqua)tetrakis(malonomonohydroxate)
pentacopper(II)) hydrate
;
_chemical_name_common            
;
bis(ethylenediamine)diaquacopper(ii) catena-
bis(ethylenediamine) (aqua)copper(ii)(mu-
aqua)bis((triaqua)tetrakis(malonomonohydroxate) pentacopper(ii)) hydrate
;
_chemical_melting_point          ?
_chemical_formula_moiety         'C16 H32 Cu6 N8 O20, 11(H2 O)'
_chemical_formula_sum            'C16 H54 Cu6 N8 O31'
_chemical_formula_weight         1235.91

loop_
_atom_type_symbol
_atom_type_description
_atom_type_scat_dispersion_real
_atom_type_scat_dispersion_imag
_atom_type_scat_source
C C 0.0033 0.0016 'International Tables Vol C Tables 4.2.6.8 and 6.1.1.4'
H H 0.0000 0.0000 'International Tables Vol C Tables 4.2.6.8 and 6.1.1.4'
Cu Cu 0.3201 1.2651 'International Tables Vol C Tables 4.2.6.8 and 6.1.1.4'
N N 0.0061 0.0033 'International Tables Vol C Tables 4.2.6.8 and 6.1.1.4'
O O 0.0106 0.0060 'International Tables Vol C Tables 4.2.6.8 and 6.1.1.4'

_symmetry_cell_setting           triclinic
_symmetry_space_group_name_H-M   'P -1'
_symmetry_space_group_name_Hall  '-P 1'

loop_
_symmetry_equiv_pos_as_xyz
'x, y, z'
'-x, -y, -z'

_cell_length_a                   11.2883(4)
_cell_length_b                   13.0045(4)
_cell_length_c                   14.3048(6)
_cell_angle_alpha                84.252(2)
_cell_angle_beta                 82.162(2)
_cell_angle_gamma                88.661(2)
_cell_volume                     2069.75(13)
_cell_formula_units_Z            2
_cell_measurement_temperature    120(2)
_cell_measurement_reflns_used    9047
_cell_measurement_theta_min      1.00
_cell_measurement_theta_max      27.48

_exptl_crystal_description       'bluish green'
_exptl_crystal_colour            plate
_exptl_crystal_size_max          0.22
_exptl_crystal_size_mid          0.17
_exptl_crystal_size_min          0.08
_exptl_crystal_density_meas      ?
_exptl_crystal_density_diffrn    1.983
_exptl_crystal_density_method    'not measured'
_exptl_crystal_F_000             1256
_exptl_absorpt_coefficient_mu    3.137
_exptl_absorpt_correction_type   multi-scan
_exptl_absorpt_correction_T_min  0.5401
_exptl_absorpt_correction_T_max  0.7875
_exptl_absorpt_process_details   'SADABS v.2.10 (Sheldrick, 2003)'

_exptl_special_details           
;
?
;

_diffrn_ambient_temperature      120(2)
_diffrn_radiation_wavelength     0.71073
_diffrn_radiation_type           MoK\a
_diffrn_radiation_source         'fine-focus sealed tube'
_diffrn_radiation_monochromator  'horizontally mounted graphite crystal'
_diffrn_measurement_device_type  'Nonius KappaCCD'
_diffrn_measurement_device       '95mm CCD camera on \k-goniostat'
_diffrn_detector_area_resol_mean 9
_diffrn_measurement_method       '\f scans and \w scans with \k offset'
_diffrn_standards_number         ?
_diffrn_standards_interval_count ?
_diffrn_standards_interval_time  ?
_diffrn_standards_decay_%        ?
_diffrn_reflns_number            41194
_diffrn_reflns_av_R_equivalents  0.0611
_diffrn_reflns_av_sigmaI/netI    0.0605
_diffrn_reflns_limit_h_min       -14
_diffrn_reflns_limit_h_max       14
_diffrn_reflns_limit_k_min       -16
_diffrn_reflns_limit_k_max       16
_diffrn_reflns_limit_l_min       -18
_diffrn_reflns_limit_l_max       18
_diffrn_reflns_theta_min         2.17
_diffrn_reflns_theta_max         27.00
_reflns_number_total             9041
_reflns_number_gt                6300
_reflns_threshold_expression     >2sigma(I)

_computing_data_collection       'Collect (Nonius BV, 1997-2000)'
_computing_cell_refinement       'Denzo/Scalepack (Otwinowski & Minor, 1997)'
_computing_data_reduction        'Denzo/Scalepack (Otwinowski & Minor, 1997)'
_computing_structure_solution    'DIRDIF99 (Beurskens et al., 1999)'
_computing_structure_refinement  'SHELXL-97 (Sheldrick, 1997)'
_computing_molecular_graphics    'Diamond v.3.1d (Crystal Impact GbR, 2006)'
_computing_publication_material  'SHELXL-97 (Sheldrick, 1997)'

_refine_special_details          
;
Refinement of F^2^ against ALL reflections. The weighted R-factor wR and
goodness of fit S are based on F^2^, conventional R-factors R are based
on F, with F set to zero for negative F^2^. The threshold expression of
F^2^ > 2sigma(F^2^) is used only for calculating R-factors(gt) etc. and is
not relevant to the choice of reflections for refinement. R-factors based
on F^2^ are statistically about twice as large as those based on F, and R-
factors based on ALL data will be even larger.
;

_refine_ls_structure_factor_coef Fsqd
_refine_ls_matrix_type           full
_refine_ls_weighting_scheme      calc
_refine_ls_weighting_details     
'calc w=1/[\s^2^(Fo^2^)+(0.0490P)^2^+2.7643P] where P=(Fo^2^+2Fc^2^)/3'
_atom_sites_solution_primary     direct
_atom_sites_solution_secondary   difmap
_atom_sites_solution_hydrogens   geom
_refine_ls_hydrogen_treatment    constr
_refine_ls_extinction_method     none
_refine_ls_extinction_coef       ?
_refine_ls_number_reflns         9041
_refine_ls_number_parameters     578
_refine_ls_number_restraints     0
_refine_ls_R_factor_all          0.0811
_refine_ls_R_factor_gt           0.0434
_refine_ls_wR_factor_ref         0.1063
_refine_ls_wR_factor_gt          0.0933
_refine_ls_goodness_of_fit_ref   1.027
_refine_ls_restrained_S_all      1.027
_refine_ls_shift/su_max          0.002
_refine_ls_shift/su_mean         0.000

loop_
_atom_site_label
_atom_site_type_symbol
_atom_site_fract_x
_atom_site_fract_y
_atom_site_fract_z
_atom_site_U_iso_or_equiv
_atom_site_adp_type
_atom_site_occupancy
_atom_site_symmetry_multiplicity
_atom_site_calc_flag
_atom_site_refinement_flags
_atom_site_disorder_assembly
_atom_site_disorder_group
Cu1A Cu -0.16838(4) 0.30331(4) -0.21611(4) 0.01959(13) Uani 1 1 d . . .
Cu1B Cu 0.11032(4) 0.15354(4) -0.03562(4) 0.01760(12) Uani 1 1 d . . .
Cu1C Cu 0.02413(4) 0.39091(4) 0.17881(4) 0.02112(13) Uani 1 1 d . . .
Cu1D Cu -0.26721(4) 0.53354(4) 0.00644(4) 0.01816(12) Uani 1 1 d . . .
Cu2 Cu -0.06169(4) 0.35647(4) -0.02993(3) 0.01776(12) Uani 1 1 d . . .
Cu3 Cu 0.0000 0.5000 -0.5000 0.0512(3) Uani 1 2 d S . .
Cu4 Cu 0.5000 1.0000 0.0000 0.02830(19) Uani 1 2 d S . .
O1A O 0.1317(4) -0.1183(3) -0.1450(3) 0.0527(11) Uani 1 1 d . . .
O2A O 0.1407(2) 0.0170(2) -0.0683(2) 0.0230(7) Uani 1 1 d . . .
O3A O -0.1107(2) 0.1629(2) -0.2435(2) 0.0235(7) Uani 1 1 d . . .
O4A O -0.0329(2) 0.2925(2) -0.1460(2) 0.0183(6) Uani 1 1 d . . .
O1C O -0.3012(3) 0.7805(2) 0.1481(2) 0.0242(7) Uani 1 1 d . . .
O2C O -0.3396(2) 0.6474(2) 0.0727(2) 0.0209(6) Uani 1 1 d . . .
O3C O -0.0817(2) 0.4949(2) 0.2399(2) 0.0210(6) Uani 1 1 d . . .
O4C O -0.0790(3) 0.4181(2) 0.0848(2) 0.0259(7) Uani 1 1 d . . .
O1B O 0.2905(3) 0.3072(3) 0.3312(3) 0.0424(9) Uani 1 1 d . . .
O2B O 0.1310(3) 0.3706(2) 0.2717(2) 0.0246(7) Uani 1 1 d . . .
O3B O 0.1898(2) 0.1342(2) 0.0781(2) 0.0225(6) Uani 1 1 d . . .
O4B O 0.0745(2) 0.2841(2) 0.0095(2) 0.0213(6) Uani 1 1 d . . .
O1D O -0.4666(3) 0.3630(3) -0.3435(3) 0.0520(11) Uani 1 1 d . . .
O2D O -0.3028(3) 0.3049(2) -0.2858(2) 0.0275(7) Uani 1 1 d . . .
O3D O -0.3684(2) 0.5406(2) -0.0942(2) 0.0202(6) Uani 1 1 d . . .
O4D O -0.1668(2) 0.4558(2) -0.08251(19) 0.0193(6) Uani 1 1 d . . .
O5 O -0.0331(3) 0.3828(2) -0.3454(2) 0.0281(7) Uani 1 1 d . . .
H5D H 0.0045 0.4208 -0.3136 0.042 Uiso 1 1 d R . .
H5E H 0.0225 0.3289 -0.3702 0.042 Uiso 1 1 d R . .
O6 O -0.1069(3) 0.2475(2) 0.2772(2) 0.0315(7) Uani 1 1 d . . .
H6D H -0.1185 0.1953 0.2452 0.047 Uiso 1 1 d R . .
H6E H -0.0857 0.2075 0.3300 0.047 Uiso 1 1 d R . .
O7 O -0.3965(3) 0.3831(2) 0.0839(2) 0.0308(7) Uani 1 1 d . . .
H7D H -0.4677 0.4086 0.0884 0.046 Uiso 1 1 d R . .
H7E H -0.3829 0.3639 0.1401 0.046 Uiso 1 1 d R . .
O8 O -0.2360(3) 0.2305(2) 0.0054(2) 0.0371(8) Uani 1 1 d . . .
H8D H -0.2019 0.1974 0.0562 0.056 Uiso 1 1 d R . .
H8E H -0.2852 0.2765 0.0330 0.056 Uiso 1 1 d R . .
O9 O 0.5367(3) 0.8098(2) -0.0321(3) 0.0379(8) Uani 1 1 d . . .
H9D H 0.5738 0.7644 0.0027 0.057 Uiso 1 1 d R . .
H9E H 0.4626 0.7931 -0.0214 0.057 Uiso 1 1 d R . .
O1W O 0.0030(3) 0.1388(2) 0.4395(2) 0.0407(9) Uani 1 1 d . . .
H11W H -0.0412 0.1046 0.4943 0.061 Uiso 1 1 d R . .
H21W H 0.0030 0.0857 0.4008 0.061 Uiso 1 1 d R . .
O2W O 0.4602(5) 0.1778(4) 0.3862(3) 0.099(2) Uani 1 1 d . . .
H12W H 0.3788 0.2089 0.4002 0.148 Uiso 1 1 d R . .
H22W H 0.4658 0.1489 0.4415 0.148 Uiso 1 1 d R . .
O3W O 0.6635(3) 0.3400(3) 0.2647(3) 0.0508(10) Uani 1 1 d . . .
H13W H 0.7398 0.3189 0.2667 0.076 Uiso 1 1 d R . .
H23W H 0.6181 0.3320 0.3176 0.076 Uiso 1 1 d R . .
O4W O 0.7166(5) 0.0486(4) 0.3706(4) 0.102(2) Uani 1 1 d . . .
H14W H 0.6566 0.0817 0.3719 0.153 Uiso 1 1 d R . .
H24W H 0.7125 -0.0157 0.3596 0.153 Uiso 1 1 d R . .
O5W O 0.1300(3) 0.9547(3) 0.3945(2) 0.0411(9) Uani 1 1 d . . .
H15W H 0.1029 0.9392 0.3443 0.062 Uiso 1 1 d R . .
H25W H 0.2136 0.9606 0.3908 0.062 Uiso 1 1 d R . .
O6W O 0.3545(3) 0.9771(3) 0.4382(3) 0.0632(13) Uani 1 1 d . . .
H16W H 0.3635 1.0413 0.4209 0.095 Uiso 1 1 d R . .
H26W H 0.3324 0.9691 0.4977 0.095 Uiso 1 1 d R . .
O7W O 0.5042(3) 0.8034(2) 0.4298(2) 0.0360(8) Uani 1 1 d . . .
H17W H 0.4424 0.7588 0.4120 0.054 Uiso 1 1 d R . .
H27W H 0.4423 0.8544 0.4524 0.054 Uiso 1 1 d R . .
O8W O 0.7187(3) 0.8522(3) 0.3207(2) 0.0394(8) Uani 1 1 d . . .
H18W H 0.7098 0.8214 0.2620 0.059 Uiso 1 1 d R . .
H28W H 0.6458 0.8375 0.3587 0.059 Uiso 1 1 d R . .
O9W O 0.8785(3) 0.7582(2) 0.4306(2) 0.0423(9) Uani 1 1 d . . .
H19W H 0.9029 0.8010 0.4647 0.064 Uiso 1 1 d R . .
H29W H 0.8272 0.8009 0.4015 0.064 Uiso 1 1 d R . .
O10W O 0.5327(11) 0.4215(9) 0.4082(7) 0.117(5) Uani 0.50 1 d P . .
H110 H 0.5138 0.4830 0.3892 0.176 Uiso 0.50 1 d PR . .
H510 H 0.4928 0.3917 0.4578 0.176 Uiso 0.50 1 d PR . .
O11W O 0.5944(10) 0.1534(8) 0.2438(8) 0.102(4) Uani 0.50 1 d P . .
H211 H 0.6659 0.1718 0.2449 0.153 Uiso 0.50 1 d PR . .
H311 H 0.5468 0.1618 0.2939 0.153 Uiso 0.50 1 d PR . .
N1A N 0.0144(3) 0.1905(2) -0.1370(2) 0.0171(7) Uani 1 1 d . . .
N1D N -0.2320(3) 0.4227(2) -0.1522(2) 0.0181(7) Uani 1 1 d . . .
N1B N 0.1110(3) 0.2949(3) 0.0986(2) 0.0195(7) Uani 1 1 d . . .
N1C N -0.1614(3) 0.4987(2) 0.1016(2) 0.0199(8) Uani 1 1 d . . .
N2 N 0.3528(3) 0.9544(3) 0.0868(3) 0.0333(10) Uani 1 1 d . . .
H2NA H 0.2975 1.0076 0.0898 0.040 Uiso 1 1 calc R . .
H2NB H 0.3192 0.8995 0.0646 0.040 Uiso 1 1 calc R . .
N3 N 0.5803(3) 0.9845(3) 0.1173(3) 0.0323(9) Uani 1 1 d . . .
H3NA H 0.6269 0.9255 0.1185 0.039 Uiso 1 1 calc R . .
H3NB H 0.6284 1.0403 0.1185 0.039 Uiso 1 1 calc R . .
N4 N 0.0713(5) 0.6150(3) -0.4424(3) 0.0575(14) Uani 1 1 d . . .
H4NA H 0.0323 0.6764 -0.4566 0.069 Uiso 1 1 calc R . .
H4NB H 0.0635 0.6013 -0.3776 0.069 Uiso 1 1 calc R . .
N5 N 0.1723(5) 0.4546(4) -0.5350(3) 0.0608(15) Uani 1 1 d . . .
H5NA H 0.1809 0.3852 -0.5170 0.073 Uiso 1 1 calc R . .
H5NB H 0.1940 0.4658 -0.5995 0.073 Uiso 1 1 calc R . .
C1A C 0.1025(4) -0.0274(3) -0.1325(3) 0.0229(9) Uani 1 1 d . . .
C2A C 0.0168(4) 0.0228(3) -0.1974(3) 0.0228(9) Uani 1 1 d . . .
H2A H 0.0559 0.0187 -0.2632 0.027 Uiso 1 1 calc R . .
H2B H -0.0544 -0.0220 -0.1887 0.027 Uiso 1 1 calc R . .
C3A C -0.0289(3) 0.1321(3) -0.1918(3) 0.0169(8) Uani 1 1 d . . .
C1D C -0.3907(4) 0.3686(3) -0.2885(3) 0.0281(10) Uani 1 1 d . . .
C2D C -0.4115(4) 0.4562(3) -0.2262(3) 0.0260(10) Uani 1 1 d . . .
H2C H -0.4111 0.5208 -0.2691 0.031 Uiso 1 1 calc R . .
H2D H -0.4937 0.4484 -0.1922 0.031 Uiso 1 1 calc R . .
C3D C -0.3318(4) 0.4735(3) -0.1534(3) 0.0190(9) Uani 1 1 d . . .
C3B C 0.1717(4) 0.2133(3) 0.1259(3) 0.0214(9) Uani 1 1 d . . .
C2B C 0.2250(4) 0.2110(3) 0.2173(3) 0.0282(10) Uani 1 1 d . . .
H2E H 0.3114 0.1955 0.2020 0.034 Uiso 1 1 calc R . .
H2F H 0.1898 0.1511 0.2592 0.034 Uiso 1 1 calc R . .
C1B C 0.2149(4) 0.3029(3) 0.2763(3) 0.0280(10) Uani 1 1 d . . .
C3C C -0.1570(4) 0.5323(3) 0.1832(3) 0.0185(9) Uani 1 1 d . . .
C2C C -0.2417(4) 0.6168(3) 0.2150(3) 0.0209(9) Uani 1 1 d . . .
H11G H -0.1988 0.6615 0.2511 0.025 Uiso 1 1 calc R . .
H11H H -0.3082 0.5844 0.2597 0.025 Uiso 1 1 calc R . .
C1C C -0.2961(3) 0.6863(3) 0.1388(3) 0.0181(9) Uani 1 1 d . . .
C4 C 0.1990(7) 0.6228(4) -0.4819(4) 0.0604(18) Uani 1 1 d . . .
H4A H 0.2427 0.6611 -0.4411 0.072 Uiso 1 1 calc R . .
H4B H 0.2078 0.6600 -0.5463 0.072 Uiso 1 1 calc R . .
C5 C 0.2483(7) 0.5148(5) -0.4860(4) 0.068(2) Uani 1 1 d . . .
H5A H 0.3308 0.5169 -0.5201 0.082 Uiso 1 1 calc R . .
H5B H 0.2511 0.4818 -0.4209 0.082 Uiso 1 1 calc R . .
C6 C 0.3868(5) 0.9239(6) 0.1811(5) 0.070(2) Uani 1 1 d . . .
H6A H 0.3189 0.9375 0.2300 0.084 Uiso 1 1 calc R . .
H6B H 0.4043 0.8488 0.1873 0.084 Uiso 1 1 calc R . .
C7 C 0.4885(5) 0.9784(7) 0.1969(4) 0.085(3) Uani 1 1 d . . .
H7A H 0.5211 0.9434 0.2528 0.102 Uiso 1 1 calc R . .
H7B H 0.4637 1.0492 0.2115 0.102 Uiso 1 1 calc R . .

loop_
_atom_site_aniso_label
_atom_site_aniso_U_11
_atom_site_aniso_U_22
_atom_site_aniso_U_33
_atom_site_aniso_U_23
_atom_site_aniso_U_13
_atom_site_aniso_U_12
Cu1A 0.0222(3) 0.0187(3) 0.0208(3) -0.0079(2) -0.0103(2) 0.0081(2)
Cu1B 0.0187(3) 0.0162(2) 0.0194(3) -0.0047(2) -0.0068(2) 0.0063(2)
Cu1C 0.0251(3) 0.0218(3) 0.0199(3) -0.0089(2) -0.0121(2) 0.0112(2)
Cu1D 0.0193(3) 0.0185(3) 0.0191(3) -0.0075(2) -0.0088(2) 0.0088(2)
Cu2 0.0197(3) 0.0178(2) 0.0180(3) -0.0069(2) -0.0083(2) 0.0088(2)
Cu3 0.1022(9) 0.0289(5) 0.0245(5) -0.0082(4) -0.0137(5) 0.0160(5)
Cu4 0.0216(4) 0.0239(4) 0.0399(5) 0.0004(4) -0.0095(3) 0.0060(3)
O1A 0.086(3) 0.0309(19) 0.055(2) -0.0252(18) -0.050(2) 0.0326(19)
O2A 0.0270(16) 0.0158(14) 0.0292(17) -0.0073(13) -0.0114(13) 0.0048(12)
O3A 0.0280(16) 0.0216(15) 0.0249(17) -0.0111(13) -0.0131(13) 0.0091(13)
O4A 0.0204(14) 0.0147(13) 0.0219(16) -0.0054(12) -0.0087(12) 0.0079(11)
O1C 0.0293(16) 0.0191(15) 0.0249(17) -0.0054(13) -0.0050(13) 0.0063(13)
O2C 0.0212(15) 0.0218(14) 0.0219(16) -0.0092(13) -0.0078(12) 0.0097(12)
O3C 0.0253(15) 0.0202(14) 0.0200(16) -0.0064(12) -0.0100(13) 0.0071(12)
O4C 0.0318(17) 0.0265(16) 0.0240(17) -0.0159(13) -0.0144(14) 0.0211(13)
O1B 0.050(2) 0.041(2) 0.045(2) -0.0202(17) -0.0350(19) 0.0242(17)
O2B 0.0321(17) 0.0257(16) 0.0195(16) -0.0075(13) -0.0131(13) 0.0099(14)
O3B 0.0258(16) 0.0202(15) 0.0236(16) -0.0069(13) -0.0091(13) 0.0104(12)
O4B 0.0266(15) 0.0226(15) 0.0190(16) -0.0111(12) -0.0139(13) 0.0130(12)
O1D 0.052(2) 0.053(2) 0.067(3) -0.042(2) -0.046(2) 0.0307(19)
O2D 0.0269(16) 0.0284(16) 0.0328(19) -0.0140(14) -0.0177(14) 0.0119(14)
O3D 0.0187(14) 0.0227(15) 0.0210(16) -0.0071(12) -0.0066(12) 0.0079(12)
O4D 0.0202(14) 0.0209(14) 0.0209(16) -0.0101(12) -0.0123(12) 0.0057(12)
O5 0.0388(18) 0.0247(16) 0.0222(17) -0.0047(13) -0.0080(14) 0.0054(14)
O6 0.0403(19) 0.0242(16) 0.0331(19) -0.0095(14) -0.0125(15) 0.0089(14)
O7 0.0247(16) 0.0421(19) 0.0267(18) -0.0079(15) -0.0069(14) 0.0169(14)
O8 0.046(2) 0.0321(18) 0.032(2) -0.0033(15) -0.0075(16) 0.0179(16)
O9 0.0295(18) 0.0242(17) 0.063(2) -0.0020(16) -0.0204(17) 0.0077(14)
O1W 0.059(2) 0.0328(18) 0.032(2) -0.0053(15) -0.0119(17) 0.0052(17)
O2W 0.161(5) 0.095(4) 0.053(3) -0.036(3) -0.057(3) 0.106(4)
O3W 0.048(2) 0.071(3) 0.035(2) -0.0032(19) -0.0151(18) 0.025(2)
O4W 0.160(6) 0.058(3) 0.097(4) 0.010(3) -0.052(4) -0.052(3)
O5W 0.041(2) 0.051(2) 0.038(2) -0.0223(17) -0.0171(17) 0.0116(17)
O6W 0.058(3) 0.080(3) 0.067(3) -0.048(2) -0.037(2) 0.034(2)
O7W 0.0372(19) 0.0377(19) 0.038(2) -0.0187(16) -0.0121(16) 0.0082(15)
O8W 0.0373(19) 0.051(2) 0.035(2) -0.0221(17) -0.0103(16) 0.0072(17)
O9W 0.057(2) 0.0324(18) 0.041(2) -0.0145(16) -0.0120(18) 0.0142(17)
O10W 0.152(11) 0.116(9) 0.067(7) 0.013(6) 0.014(7) 0.082(8)
O11W 0.096(8) 0.102(8) 0.107(9) -0.039(7) 0.019(7) -0.026(7)
N1A 0.0188(17) 0.0138(16) 0.0190(18) -0.0045(14) -0.0024(14) 0.0070(14)
N1D 0.0208(18) 0.0191(17) 0.0176(19) -0.0059(14) -0.0121(15) 0.0049(14)
N1B 0.0229(18) 0.0233(18) 0.0155(18) -0.0052(15) -0.0127(15) 0.0076(15)
N1C 0.0207(18) 0.0196(17) 0.022(2) -0.0089(15) -0.0074(15) 0.0110(14)
N2 0.029(2) 0.024(2) 0.047(3) 0.0009(18) -0.0077(19) 0.0093(17)
N3 0.026(2) 0.028(2) 0.044(3) -0.0044(19) -0.0113(18) 0.0070(17)
N4 0.113(5) 0.035(3) 0.024(2) -0.002(2) -0.012(3) 0.015(3)
N5 0.114(5) 0.037(3) 0.033(3) -0.002(2) -0.016(3) 0.008(3)
C1A 0.025(2) 0.021(2) 0.023(2) -0.0046(19) -0.0057(19) 0.0056(18)
C2A 0.025(2) 0.018(2) 0.028(3) -0.0091(18) -0.0100(19) 0.0044(18)
C