####################################################################### 
# 
# This file contains crystal structure data downloaded from the 
# Cambridge Structural Database (CSD) hosted by the Cambridge 
# Crystallographic Data Centre (CCDC).
# 
# Full information about CCDC data access policies and citation 
# guidelines are available at http://www.ccdc.cam.ac.uk/access/V1 
# 
# Audit and citation data items may have been added by the CCDC. 
# Please retain this information to preserve the provenance of 
# this file and to allow appropriate attribution of the data. 
# 
#######################################################################

data_shi_722_cr
_audit_block_doi                 10.5517/cc10fmcf
_database_code_depnum_ccdc_archive 'CCDC 936614'
loop_
_citation_id
_citation_doi
_citation_year
1 10.1016/j.polymer.2013.09.001 2013
_audit_update_record             
;
2013-04-29 deposited with the CCDC.	2024-07-13 downloaded from the CCDC.
;
_audit_creation_date             2013-03-24
_audit_creation_method           
;
  Olex2 1.2
  (compiled 2012.05.09 svn.r2324, GUI svn.r4230)
;
_chemical_name_common            ?
_chemical_name_systematic        
;
 ? 
;
_chemical_formula_moiety         'C20 H25 N2 O4.5 Si Zn, 0.83(H2 O)'
_chemical_formula_sum            'C20 H26.68 N2 O5.345 Si Zn'
_chemical_formula_weight         470.90
_chemical_melting_point          ?
_chemical_oxdiff_formula         'C24 H30 Zn1 N2 O5 Si2'
_chemical_oxdiff_usercomment     CH_M6_
loop_
_atom_type_symbol
_atom_type_description
_atom_type_scat_dispersion_real
_atom_type_scat_dispersion_imag
_atom_type_scat_source
C C 0.0033 0.0016 'International Tables Vol C Tables 4.2.6.8 and 6.1.1.4'
H H 0.0000 0.0000 'International Tables Vol C Tables 4.2.6.8 and 6.1.1.4'
N N 0.0061 0.0033 'International Tables Vol C Tables 4.2.6.8 and 6.1.1.4'
O O 0.0106 0.0060 'International Tables Vol C Tables 4.2.6.8 and 6.1.1.4'
Si Si 0.0817 0.0704 'International Tables Vol C Tables 4.2.6.8 and 6.1.1.4'
Zn Zn 0.2839 1.4301 'International Tables Vol C Tables 4.2.6.8 and 6.1.1.4'

_space_group_crystal_system      trigonal
_space_group_IT_number           163
_space_group_name_H-M_alt        'P -3 1 c'
_space_group_name_Hall           '-P 3 2c'
loop_
_space_group_symop_id
_space_group_symop_operation_xyz
1 'x, y, z'
2 '-y, x-y, z'
3 '-x+y, -x, z'
4 '-y, -x, -z+1/2'
5 '-x+y, y, -z+1/2'
6 'x, x-y, -z+1/2'
7 '-x, -y, -z'
8 'y, -x+y, -z'
9 'x-y, x, -z'
10 'y, x, z-1/2'
11 'x-y, -y, z-1/2'
12 '-x, -x+y, z-1/2'

_cell_length_a                   34.426(8)
_cell_length_b                   34.426(8)
_cell_length_c                   8.7042(10)
_cell_angle_alpha                90.00
_cell_angle_beta                 90.00
_cell_angle_gamma                120.00
_cell_volume                     8933(3)
_cell_formula_units_Z            12
_cell_measurement_reflns_used    2481
_cell_measurement_temperature    200.00(10)
_cell_measurement_theta_max      29.2406
_cell_measurement_theta_min      2.3630
_exptl_absorpt_coefficient_mu    0.890
_exptl_absorpt_correction_T_max  1.00000
_exptl_absorpt_correction_T_min  0.62002
_exptl_absorpt_correction_type   multi-scan
_exptl_absorpt_process_details   
;
CrysAlisPro, Agilent Technologies,
Version 1.171.35.15 (release 03-08-2011 CrysAlis171 .NET)
(compiled Aug  3 2011,13:03:54)
Empirical absorption correction using spherical harmonics,
 implemented in SCALE3 ABSPACK scaling algorithm.
;
_exptl_crystal_colour            ?
_exptl_crystal_density_diffrn    1.050
_exptl_crystal_density_meas      ?
_exptl_crystal_density_method    'not measured'
_exptl_crystal_description       ?
_exptl_crystal_F_000             2932
_exptl_crystal_size_max          ?
_exptl_crystal_size_mid          ?
_exptl_crystal_size_min          ?
_exptl_special_details           
;
 ? 
;
_diffrn_reflns_av_R_equivalents  0.2175
_diffrn_reflns_av_unetI/netI     0.1387
_diffrn_reflns_limit_h_max       40
_diffrn_reflns_limit_h_min       -40
_diffrn_reflns_limit_k_max       40
_diffrn_reflns_limit_k_min       -40
_diffrn_reflns_limit_l_max       10
_diffrn_reflns_limit_l_min       -10
_diffrn_reflns_number            56991
_diffrn_reflns_theta_full        25.00
_diffrn_reflns_theta_max         25.00
_diffrn_reflns_theta_min         2.71
_diffrn_ambient_temperature      200.00(10)
_diffrn_detector_area_resol_mean 16.1593
_diffrn_measured_fraction_theta_full 0.997
_diffrn_measured_fraction_theta_max 0.997
_diffrn_measurement_details      
;
#__ type_ start__ end____ width___ exp.time_
  1 omega  -73.00   -5.00   1.0000   25.0000
omega____ theta____ kappa____ phi______ frames
    -      -14.3503  -77.0000    0.0000 68

#__ type_ start__ end____ width___ exp.time_
  2 omega  -23.00   24.00   1.0000   25.0000
omega____ theta____ kappa____ phi______ frames
    -      -14.3503  -99.0000 -120.0000 47

#__ type_ start__ end____ width___ exp.time_
  3 omega  -31.00   53.00   1.0000   25.0000
omega____ theta____ kappa____ phi______ frames
    -      -14.3503   57.0000  -60.0000 84

#__ type_ start__ end____ width___ exp.time_
  4 omega  -87.00  -32.00   1.0000   25.0000
omega____ theta____ kappa____ phi______ frames
    -      -14.3503  178.0000  -30.0000 55

#__ type_ start__ end____ width___ exp.time_
  5 omega  -82.00  -57.00   1.0000   25.0000
omega____ theta____ kappa____ phi______ frames
    -      -14.3503  -77.0000 -180.0000 25

#__ type_ start__ end____ width___ exp.time_
  6 omega   32.00   90.00   1.0000   25.0000
omega____ theta____ kappa____ phi______ frames
    -       17.0065 -178.0000  -90.0000 58
;
_diffrn_measurement_device_type  'Xcalibur, Eos'
_diffrn_measurement_method       '\w scans'
_diffrn_orient_matrix_UB_11      0.0160507000
_diffrn_orient_matrix_UB_12      -0.0071196000
_diffrn_orient_matrix_UB_13      -0.0061568000
_diffrn_orient_matrix_UB_21      0.0093652000
_diffrn_orient_matrix_UB_22      0.0138333000
_diffrn_orient_matrix_UB_23      -0.0656600000
_diffrn_orient_matrix_UB_31      0.0148747000
_diffrn_orient_matrix_UB_32      0.0180155000
_diffrn_orient_matrix_UB_33      0.0479591000
_diffrn_radiation_monochromator  graphite
_diffrn_radiation_type           'Mo K\a'
_diffrn_radiation_wavelength     0.7107
_diffrn_source                   'Enhance (Mo) X-ray Source'
_diffrn_standards_decay_%        ?
_diffrn_standards_interval_count ?
_diffrn_standards_interval_time  ?
_diffrn_standards_number         ?
_reflns_number_gt                2745
_reflns_number_total             5247
_reflns_odcompleteness_completeness 99.90
_reflns_odcompleteness_iscentric 1
_reflns_odcompleteness_theta     26.32
_reflns_threshold_expression     >2sigma(I)
_computing_cell_refinement       
;
CrysAlisPro, Agilent Technologies,
Version 1.171.35.15 (release 03-08-2011 CrysAlis171 .NET)
(compiled Aug  3 2011,13:03:54)
;
_computing_data_collection       
;
CrysAlisPro, Agilent Technologies,
Version 1.171.35.15 (release 03-08-2011 CrysAlis171 .NET)
(compiled Aug  3 2011,13:03:54)
;
_computing_data_reduction        
;
CrysAlisPro, Agilent Technologies,
Version 1.171.35.15 (release 03-08-2011 CrysAlis171 .NET)
(compiled Aug  3 2011,13:03:54)
;
_computing_molecular_graphics    
;
O. V. Dolomanov, L. J. Bourhis, R. J. Gildea, J. A. K. Howard and H. Puschmann,
OLEX2: a complete structure solution, refinement and analysis program.
J. Appl. Cryst. (2009). 42, 339-341.
;
_computing_publication_material  
;
O. V. Dolomanov, L. J. Bourhis, R. J. Gildea, J. A. K. Howard and H. Puschmann,
OLEX2: a complete structure solution, refinement and analysis program.
J. Appl. Cryst. (2009). 42, 339-341.
;
_computing_structure_refinement  
;
SHELXL, G.M. Sheldrick, Acta Cryst.
(2008). A64, 112-122
;
_computing_structure_solution    
;
SHELXS, G.M. Sheldrick, Acta Cryst.
(2008). A64, 112-122
;
_refine_diff_density_max         0.671
_refine_diff_density_min         -0.747
_refine_diff_density_rms         0.093
_refine_ls_extinction_coef       ?
_refine_ls_extinction_method     none
_refine_ls_goodness_of_fit_ref   1.092
_refine_ls_hydrogen_treatment    mixed
_refine_ls_matrix_type           full
_refine_ls_number_parameters     268
_refine_ls_number_reflns         5247
_refine_ls_number_restraints     58
_refine_ls_R_factor_all          0.2305
_refine_ls_R_factor_gt           0.1357
_refine_ls_restrained_S_all      1.092
_refine_ls_shift/su_max          0.007
_refine_ls_shift/su_mean         0.000
_refine_ls_structure_factor_coef Fsqd
_refine_ls_weighting_details     
'calc w=1/[\s^2^(Fo^2^)+(0.1170P)^2^+30.9712P] where P=(Fo^2^+2Fc^2^)/3'
_refine_ls_weighting_scheme      calc
_refine_ls_wR_factor_gt          0.2752
_refine_ls_wR_factor_ref         0.3195
_refine_special_details          
;
 Refinement of F^2^ against ALL reflections.  The weighted R-factor wR and 
 goodness of fit S are based on F^2^, conventional R-factors R are based 
 on F, with F set to zero for negative F^2^. The threshold expression of 
 F^2^ > 2sigma(F^2^) is used only for calculating R-factors(gt) etc. and is 
 not relevant to the choice of reflections for refinement.  R-factors based 
 on F^2^ are statistically about twice as large as those based on F, and R- 
 factors based on ALL data will be even larger. 
;
_atom_sites_solution_hydrogens   geom
_atom_sites_solution_primary     direct
_atom_sites_solution_secondary   difmap
loop_
_atom_site_label
_atom_site_type_symbol
_atom_site_fract_x
_atom_site_fract_y
_atom_site_fract_z
_atom_site_U_iso_or_equiv
_atom_site_adp_type
_atom_site_occupancy
_atom_site_symmetry_multiplicity
_atom_site_calc_flag
_atom_site_refinement_flags
_atom_site_disorder_assembly
_atom_site_disorder_group
Zn1 Zn 0.69644(4) 0.61428(4) 0.38082(13) 0.0593(5) Uani 1 1 d . . .
Si1 Si 0.88772(11) 0.80424(12) 0.4226(3) 0.0680(10) Uani 1 1 d . . .
O3 O 0.9080(2) 0.8161(4) 0.2500 0.086(3) Uani 1 2 d S . .
O1 O 0.7524(3) 0.6696(3) 0.4996(8) 0.081(2) Uani 1 1 d . A .
O2 O 0.6946(2) 0.6739(3) 0.4286(8) 0.074(2) Uani 1 1 d . A .
N1 N 0.6330(3) 0.5820(3) 0.2816(9) 0.064(2) Uani 1 1 d . A .
C11 C 0.5522(4) 0.5397(5) 0.1205(12) 0.070(3) Uani 1 1 d . . .
C1 C 0.7312(4) 0.6897(4) 0.4930(10) 0.060(3) Uani 1 1 d . A .
C13 C 0.6090(4) 0.6017(4) 0.2519(12) 0.067(3) Uani 1 1 d . . .
H13 H 0.6195 0.6306 0.2883 0.080 Uiso 1 1 calc R A .
C12 C 0.5702(4) 0.5821(5) 0.1723(13) 0.078(4) Uani 1 1 d . A .
H12 H 0.5557 0.5981 0.1527 0.094 Uiso 1 1 calc R . .
C4 C 0.8258(4) 0.7732(4) 0.4154(10) 0.066(3) Uani 1 1 d . . .
H4A H 0.8161 0.7910 0.3578 0.080 Uiso 1 1 calc R . .
H4B H 0.8161 0.7456 0.3591 0.080 Uiso 1 1 calc R . .
C3 C 0.8020(3) 0.7616(4) 0.5708(12) 0.067(3) Uani 1 1 d . A .
H3A H 0.8111 0.7432 0.6279 0.081 Uiso 1 1 calc R . .
H3B H 0.8119 0.7891 0.6282 0.081 Uiso 1 1 calc R . .
C6 C 0.9094(5) 0.7724(6) 0.5244(17) 0.131(6) Uani 1 1 d . . .
H6A H 0.8922 0.7412 0.4671 0.197 Uiso 1 1 d R . .
H6B H 0.8987 0.7623 0.6172 0.197 Uiso 1 1 d R . .
H6C H 0.9336 0.7779 0.4988 0.197 Uiso 1 1 d R . .
C9 C 0.6166(4) 0.5409(5) 0.2288(15) 0.086(4) Uani 1 1 d . . .
H9 H 0.6328 0.5264 0.2473 0.103 Uiso 1 1 calc R A .
C5 C 0.9078(5) 0.8587(5) 0.524(2) 0.125(6) Uani 1 1 d . . .
H5A H 0.9400 0.8750 0.5258 0.188 Uiso 1 1 d R . .
H5B H 0.8972 0.8759 0.4701 0.188 Uiso 1 1 d R . .
H5C H 0.8965 0.8533 0.6271 0.188 Uiso 1 1 d R . .
C10 C 0.5772(4) 0.5181(5) 0.1484(15) 0.092(4) Uani 1 1 d . A .
H10 H 0.5673 0.4891 0.1132 0.110 Uiso 1 1 calc R . .
C2 C 0.7518(4) 0.7372(4) 0.5616(12) 0.070(3) Uani 1 1 d . . .
H2A H 0.7427 0.7547 0.4994 0.084 Uiso 1 1 calc R A .
H2B H 0.7398 0.7350 0.6640 0.084 Uiso 1 1 calc R . .
N2X N 0.7363(4) 0.6367(5) 0.1859(11) 0.048(3) Uiso 0.50 1 d PD A 1
C14 C 0.5091(4) 0.5180(4) 0.0298(14) 0.085(4) Uani 1 1 d . . .
H14 H 0.4949 0.5348 0.0190 0.102 Uiso 1 1 calc R . .
O4 O 0.7106(4) 0.5650(5) 0.4382(17) 0.141(4) Uani 1 1 d . A .
C17X C 0.7806(4) 0.6415(8) -0.105(2) 0.065(2) Uiso 0.50 1 d PD A 1
C19 C 0.7190(3) 0.6362(3) 0.0457(9) 0.067(3) Uani 1 1 d D . .
H19 H 0.6904 0.6325 0.0407 0.080 Uiso 0.50 1 calc PR A 1
H19A H 0.6980 0.6457 0.0507 0.080 Uiso 0.50 1 calc PR A 2
C18 C 0.7411(3) 0.6407(4) -0.0876(11) 0.073(3) Uani 1 1 d D A .
H18 H 0.7278 0.6435 -0.1766 0.087 Uiso 1 1 calc R B 1
O5 O 0.6723(5) 0.5713(6) 0.6082(17) 0.175(6) Uani 1 1 d . A 2
C7 C 0.6919(8) 0.5510(9) 0.555(3) 0.144(8) Uani 1 1 d D A .
C8 C 0.6937(14) 0.5259(13) 0.703(4) 0.161(12) Uiso 0.50 1 d PD A 1
H8A H 0.7248 0.5368 0.7237 0.242 Uiso 0.50 1 d PR A 1
H8B H 0.6799 0.5309 0.7907 0.242 Uiso 0.50 1 d PR A 1
H8C H 0.6790 0.4944 0.6807 0.242 Uiso 0.50 1 d PR A 1
C15 C 0.7616(4) 0.6104(6) 0.166(2) 0.065(2) Uiso 0.50 1 d PD A 2
H15 H 0.7696 0.6009 0.2549 0.078 Uiso 0.50 1 calc PR A 2
C20 C 0.8003(3) 0.6385(4) -0.2435(11) 0.061(3) Uani 1 1 d . . .
H20 H 0.7850 0.6364 -0.3338 0.073 Uiso 0.50 1 calc PR A 1
H20A H 0.7879 0.6429 -0.3320 0.073 Uiso 0.50 1 calc PR A 2
O2W O 1.0000 1.0000 0.302(15) 0.14(5) Uiso 0.13 3 d SP C 2
H2WA H 0.9798 1.0000 0.3587 0.204 Uiso 0.04 1 d PR C 2
H2WB H 1.0202 1.0000 0.3587 0.204 Uiso 0.04 1 d PR C 2
O1W O 1.0000 1.0000 0.5000 0.14(4) Uiso 0.25 6 d SP D 1
H1WA H 0.9866 0.9731 0.5325 0.211 Uiso 0.04 1 d PR D 1
H1WB H 1.0000 1.0000 0.4024 0.211 Uiso 0.13 3 d SPR D 1
O6W O 0.5952(15) 0.3881(15) 0.667(5) 0.133(15) Uiso 0.25 1 d P E 6
H6WA H 0.6189 0.4079 0.6229 0.200 Uiso 0.25 1 d PR E 6
H6WB H 0.5986 0.3910 0.7639 0.200 Uiso 0.25 1 d PR E 6
O5W O 0.5770(18) 0.3656(17) 0.557(6) 0.150(17) Uiso 0.25 1 d P F 5
H5WA H 0.5872 0.3773 0.4693 0.225 Uiso 0.25 1 d PR F 5
H5WB H 0.5543 0.3396 0.5445 0.225 Uiso 0.25 1 d PR F 5
O4W O 0.544(4) 0.325(4) 0.394(12) 0.17(4) Uiso 0.13 1 d P G 3
H4WA H 0.5188 0.3022 0.3993 0.202 Uiso 0.13 1 d PR G 3
H4WB H 0.5585 0.3114 0.4058 0.202 Uiso 0.13 1 d PR G 3
O3W O 0.523(5) 0.330(5) 0.510(18) 0.25(6) Uiso 0.13 1 d P H 4
H3WA H 0.5191 0.3272 0.4130 0.368 Uiso 0.13 1 d PR H 4
H3WB H 0.4988 0.3102 0.5541 0.368 Uiso 0.13 1 d PR H 4
C15X C 0.7765(5) 0.6391(6) 0.169(2) 0.065(2) Uiso 0.50 1 d PD A 1
H15X H 0.7903 0.6371 0.2582 0.078 Uiso 0.50 1 calc PR A 1
C16 C 0.7852(7) 0.6161(7) 0.0356(18) 0.065(2) Uiso 0.50 1 d PD A 2
H16 H 0.814(6) 0.604(6) 0.07(2) 0.078 Uiso 0.50 1 d P I 2
C16X C 0.7988(7) 0.6443(7) 0.0356(17) 0.065(2) Uiso 0.50 1 d PD A 1
H16X H 0.8282 0.6502 0.0406 0.078 Uiso 0.50 1 calc PR A 1
N2 N 0.7267(5) 0.6181(5) 0.1719(12) 0.048(3) Uiso 0.50 1 d PD A 2
C8X C 0.7009(14) 0.5135(12) 0.615(5) 0.161(12) Uiso 0.50 1 d PD A 2
H8XA H 0.6959 0.4918 0.5372 0.242 Uiso 0.50 1 d PR A 2
H8XB H 0.7316 0.5277 0.6487 0.242 Uiso 0.50 1 d PR A 2
H8XC H 0.6814 0.4988 0.7009 0.242 Uiso 0.50 1 d PR A 2
C17 C 0.7752(6) 0.6317(8) -0.092(2) 0.065(2) Uiso 0.50 1 d PD A 2

loop_
_atom_site_aniso_label
_atom_site_aniso_U_11
_atom_site_aniso_U_22
_atom_site_aniso_U_33
_atom_site_aniso_U_23
_atom_site_aniso_U_13
_atom_site_aniso_U_12
Zn1 0.0435(7) 0.0822(10) 0.0509(7) -0.0189(6) -0.0082(6) 0.0304(7)
Si1 0.068(2) 0.099(3) 0.0577(19) -0.0107(18) -0.0081(16) 0.057(2)
O3 0.088(6) 0.119(10) 0.061(7) 0.000 0.008(5) 0.059(5)
O1 0.114(7) 0.086(6) 0.072(5) -0.025(4) -0.034(5) 0.071(6)
O2 0.052(5) 0.092(6) 0.078(5) -0.034(5) -0.014(4) 0.037(4)
N1 0.040(5) 0.076(7) 0.057(6) -0.021(5) -0.011(4) 0.013(5)
C11 0.040(7) 0.099(10) 0.045(6) 0.008(7) 0.003(5) 0.014(7)
C1 0.064(8) 0.086(9) 0.027(5) -0.017(5) -0.003(5) 0.035(7)
C13 0.052(7) 0.084(8) 0.062(7) -0.008(6) -0.011(6) 0.033(7)
C12 0.046(7) 0.113(11) 0.057(7) 0.011(7) -0.009(6) 0.025(7)
C4 0.082(8) 0.086(8) 0.035(5) 0.002(5) 0.001(5) 0.045(7)
C3 0.061(7) 0.084(8) 0.062(7) -0.011(6) -0.008(6) 0.039(7)
C6 0.146(14) 0.214(19) 0.103(11) 0.028(12) 0.002(10) 0.142(15)
C9 0.044(7) 0.092(10) 0.104(10) -0.020(8) -0.012(7) 0.020(7)
C5 0.092(11) 0.093(11) 0.167(15) -0.053(11) -0.001(10) 0.028(9)
C10 0.077(9) 0.083(9) 0.095(10) -0.035(8) -0.020(8) 0.025(8)
C2 0.063(8) 0.094(9) 0.057(7) -0.012(6) -0.006(6) 0.043(7)
C14 0.076(10) 0.076(10) 0.077(9) 0.012(8) 0.005(7) 0.017(8)
O4 0.111(10) 0.172(13) 0.143(11) -0.020(10) -0.019(8) 0.075(9)
C19 0.056(7) 0.048(6) 0.104(9) 0.028(6) 0.044(7) 0.032(6)
C18 0.059(7) 0.104(10) 0.071(8) 0.019(7) 0.007(6) 0.053(7)
O5 0.147(13) 0.239(18) 0.127(11) 0.042(11) -0.007(9) 0.089(12)
C7 0.122(19) 0.15(2) 0.14(2) 0.036(17) 0.005(16) 0.057(15)
C20 0.054(6) 0.096(8) 0.041(6) 0.001(6) -0.002(5) 0.045(6)

_geom_special_details            
;
 All esds (except the esd in the dihedral angle between two l.s. planes) 
 are estimated using the full covariance matrix.  The cell esds are taken 
 into account individually in the estimation of esds in distances, angles 
 and torsion angles; correlations between esds in cell parameters are only 
 used when they are defined by crystal symmetry.  An approximate (isotropic) 
 treatment of cell esds is used for estimating esds involving l.s. planes. 
;
loop_
_geom_bond_atom_site_label_1
_geom_bond_atom_site_label_2
_geom_bond_distance
_geom_bond_site_symmetry_2
_geom_bond_publ_flag
Zn1 O1 2.177(8) . ?
Zn1 O2 2.126(7) . ?
Zn1 N1 2.080(8) . ?
Zn1 C1 2.454(11) . ?
Zn1 N2X 2.072(12) . ?
Zn1 O4 2.048(15) . ?
Zn1 O5 2.359(15) . ?
Zn1 C7 2.59(3) . ?
Zn1 N2 2.068(13) . ?
Si1 O3 1.621(4) . ?
Si1 C4 1.848(11) . ?
Si1 C6 1.833(13) . ?
Si1 C5 1.863(13) . ?
O3 Si1 1.621(4) 5_655 ?
O1 C1 1.235(12) . ?
O2 C1 1.230(12) . ?
N1 C13 1.332(13) . ?
N1 C9 1.314(14) . ?
C11 C12 1.344(16) . ?
C11 C10 1.416(17) . ?
C11 C14 1.507(16) . ?
C1 C2 1.540(15) . ?
C13 C12 1.347(14) . ?
C4 C3 1.527(13) . ?
C3 C2 1.498(13) . ?
C9 C10 1.370(16) . ?
N2X C19 1.353(4) . ?
N2X C15X 1.354(4) . ?
C14 C14 1.19(2) 7_665 ?
O4 C7 1.17(2) . ?
C17X C18 1.354(4) . ?
C17X C20 1.413(18) . ?
C17X C16X 1.354(4) . ?
C19 C18 1.354(4) . ?
C19 N2 1.354(4) . ?
C18 C17 1.354(4) . ?
O5 C7 1.28(3) . ?
C7 C8 1.57(3) . ?
C7 C8X 1.56(3) . ?
C15 C16 1.354(4) . ?
C15 N2 1.354(4) . ?
C20 C20 1.308(18) 5_654 ?
C20 C17 1.53(2) . ?
O2W O2W 