
#######################################################################
#
#                 Cambridge Crystallographic Data Centre
#                                CCDC
#
#######################################################################
#
# If this CIF has been generated from an entry in the Cambridge
# Structural Database, then it will include bibliographic, chemical,
# crystal, experimental, refinement or atomic coordinate data resulting
# from the CCDC's data processing and validation procedures.
#
#######################################################################

data_CSD_CIF_VIRAZL01
_audit_creation_date 1976-05-27
_audit_creation_method CSD-ConQuest-V1
_database_code_CSD VIRAZL01
_database_code_depnum_ccdc_archive 'CCDC 1284474'
_chemical_formula_sum 'C8 H12 N4 O5'
_chemical_formula_moiety
;
C8 H12 N4 O5
;
_journal_coeditor_code "IUCr A13127"
_journal_coden_Cambridge 107
_journal_volume 32
_journal_year 1976
_journal_page_first 419
_journal_name_full 'Acta Crystallogr.,Sect.B:Struct.Crystallogr.Cryst.Chem. '
loop_
_publ_author_name
"P.Prusiner"
"M.Sundaralingam"
_chemical_name_systematic
;
1-\b-D-Ribofuranosyl-1,2,4-triazole-3-carboxamide
;
_chemical_name_common
;
Virazole; Ribavirin; Copegus; Moderiba; Rebetol; Rebretron; Ribamide; 
Ribasphere; Vilona; Viramid; Virazide; DrugBank: DB00811; PDB Chemical 
Component code: RBV; Teaching Subset: Drug Molecules, 'Bound' Drugs
;
_cell_volume   1022.033
_exptl_crystal_density_diffrn 1.585
_exptl_special_details
;
V2 polymorph
broad spectrum antiviral agent.  Ribavirin was investigated in 2020 as a 
potential candidate to target COVID-19 (coronavirus).
;
_diffrn_ambient_temperature ?
_diffrn_special_details
;
The study was carried out at room temperature,in the range 283-303K

;
#These two values have been output from a single CSD field.
_refine_ls_R_factor_gt 0.036
_refine_ls_wR_factor_gt 0.036
_symmetry_cell_setting orthorhombic
_symmetry_space_group_name_H-M 'P 21 21 21'
_symmetry_Int_Tables_number 19
loop_
_symmetry_equiv_pos_site_id
_symmetry_equiv_pos_as_xyz
1 x,y,z
2 1/2+x,1/2-y,-z
3 -x,1/2+y,1/2-z
4 1/2-x,-y,1/2+z
_cell_length_a 25.034(8)
_cell_length_b 7.719(2)
_cell_length_c 5.289(1)
_cell_angle_alpha 90
_cell_angle_beta 90
_cell_angle_gamma 90
_cell_formula_units_Z 4
loop_
_atom_type_symbol
_atom_type_radius_bond
C 0.68
H 0.23
N 0.68
O 0.68
loop_
_atom_site_label
_atom_site_type_symbol
_atom_site_fract_x
_atom_site_fract_y
_atom_site_fract_z
C1 C 0.36880 0.48170 0.41160
C2 C 0.41150 0.52340 0.60960
C3 C 0.24960 0.25750 0.50670
C4 C 0.44390 0.35440 0.61050
C5 C 0.43980 0.29010 0.33630
C6 C 0.31130 0.32760 0.75140
C7 C 0.43170 0.09740 0.32330
C8 C 0.19740 0.18620 0.41990
H1 H 0.35100 0.58400 0.32200
H2 H 0.39600 0.55400 0.79300
H3 H 0.46600 0.71400 0.63700
H4 H 0.51500 0.44000 0.59600
H5 H 0.40300 -0.03700 0.04000
H6 H 0.42400 0.27400 0.73200
H7 H 0.47300 0.32400 0.21700
H8 H 0.33900 0.34300 0.92400
H9 H 0.46500 0.03600 0.41500
H10 H 0.39900 0.06800 0.42500
H11 H 0.21900 0.19100 0.05200
H12 H 0.15900 0.13600 0.09800
N1 N 0.32300 0.38360 0.51800
N2 N 0.28280 0.33940 0.35780
N3 N 0.26480 0.24730 0.75370
N4 N 0.19090 0.17460 0.17240
O1 O 0.39420 0.37940 0.22650
O2 O 0.44060 0.66330 0.50380
O3 O 0.49680 0.37380 0.70100
O4 O 0.42800 0.03920 0.06840
O5 O 0.16270 0.14740 0.57540
#END
