####################################################################### 
# 
# This file contains crystal structure data downloaded from the 
# Cambridge Structural Database (CSD) hosted by the Cambridge 
# Crystallographic Data Centre (CCDC).
# 
# Full information about CCDC data access policies and citation 
# guidelines are available at http://www.ccdc.cam.ac.uk/access/V1 
# 
# Audit and citation data items may have been added by the CCDC. 
# Please retain this information to preserve the provenance of 
# this file and to allow appropriate attribution of the data. 
# 
#######################################################################

data_compound_3
_audit_block_doi                 10.5517/ccqhzsy
_database_code_depnum_ccdc_archive 'CCDC 670771'
loop_
_citation_id
_citation_doi
_citation_year
1 10.1021/cg070578l 2007
_audit_update_record             
;
2007-12-13 deposited with the CCDC.	2024-07-13 downloaded from the CCDC.
;

#data_lwl13

_audit_creation_method           SHELXL-97
_chemical_name_systematic        
;
?
;
_chemical_name_common            ?
_chemical_melting_point          ?
_chemical_formula_moiety         ?
_chemical_formula_sum            'C30 H58 Co3 N2 O29'
_chemical_formula_weight         1087.57

loop_
_atom_type_symbol
_atom_type_description
_atom_type_scat_dispersion_real
_atom_type_scat_dispersion_imag
_atom_type_scat_source
C C 0.0033 0.0016 'International Tables Vol C Tables 4.2.6.8 and 6.1.1.4'
H H 0.0000 0.0000 'International Tables Vol C Tables 4.2.6.8 and 6.1.1.4'
N N 0.0061 0.0033 'International Tables Vol C Tables 4.2.6.8 and 6.1.1.4'
O O 0.0106 0.0060 'International Tables Vol C Tables 4.2.6.8 and 6.1.1.4'
Co Co 0.3494 0.9721 'International Tables Vol C Tables 4.2.6.8 and 6.1.1.4'

_symmetry_cell_setting           Triclinic
_symmetry_space_group_name_H-M   P-1

loop_
_symmetry_equiv_pos_as_xyz
'x, y, z'
'-x, -y, -z'

_cell_length_a                   7.3992(5)
_cell_length_b                   12.6509(8)
_cell_length_c                   13.2265(9)
_cell_angle_alpha                103.3250(10)
_cell_angle_beta                 91.7670(10)
_cell_angle_gamma                94.634(2)
_cell_volume                     1199.26(14)
_cell_formula_units_Z            1
_cell_measurement_temperature    223(2)
_cell_measurement_reflns_used    3080
_cell_measurement_theta_min      2.55
_cell_measurement_theta_max      29.70

_exptl_crystal_description       block
_exptl_crystal_colour            pink
_exptl_crystal_size_max          0.2
_exptl_crystal_size_mid          0.12
_exptl_crystal_size_min          0.1
_exptl_crystal_density_meas      0
_exptl_crystal_density_diffrn    1.506
_exptl_crystal_density_method    'not measured'
_exptl_crystal_F_000             565
_exptl_absorpt_coefficient_mu    1.117
_exptl_absorpt_correction_type   none
_exptl_absorpt_correction_T_min  0.79067
_exptl_absorpt_correction_T_max  1.00
_exptl_absorpt_process_details   ?

_exptl_special_details           
;
?
;

_diffrn_ambient_temperature      223(2)
_diffrn_radiation_wavelength     0.71073
_diffrn_radiation_type           MoK\a
_diffrn_radiation_source         'fine-focus sealed tube'
_diffrn_radiation_monochromator  graphite
_diffrn_measurement_device_type  'CCD area detector'
_diffrn_measurement_method       'phi and omega scans'
_diffrn_detector_area_resol_mean ?
_diffrn_standards_number         ?
_diffrn_standards_interval_count ?
_diffrn_standards_interval_time  ?
_diffrn_standards_decay_%        ?
_diffrn_reflns_number            6886
_diffrn_reflns_av_R_equivalents  0.0189
_diffrn_reflns_av_sigmaI/netI    0.0373
_diffrn_reflns_limit_h_min       -8
_diffrn_reflns_limit_h_max       4
_diffrn_reflns_limit_k_min       -14
_diffrn_reflns_limit_k_max       15
_diffrn_reflns_limit_l_min       -15
_diffrn_reflns_limit_l_max       15
_diffrn_reflns_theta_min         1.58
_diffrn_reflns_theta_max         25.00
_reflns_number_total             4192
_reflns_number_gt                3690
_reflns_threshold_expression     >2sigma(I)

_computing_data_collection       'Bruker SMART'
_computing_cell_refinement       'Bruker SMART'
_computing_data_reduction        'Bruker SAINT'
_computing_structure_solution    'SHELXS-97 (Sheldrick, 1990)'
_computing_structure_refinement  'SHELXL-97 (Sheldrick, 1997)'
_computing_molecular_graphics    'Bruker SHELXTL'
_computing_publication_material  'Bruker SHELXTL'

_refine_special_details          
;
Refinement of F^2^ against ALL reflections. The weighted R-factor wR and
goodness of fit S are based on F^2^, conventional R-factors R are based
on F, with F set to zero for negative F^2^. The threshold expression of
F^2^ > 2sigma(F^2^) is used only for calculating R-factors(gt) etc. and is
not relevant to the choice of reflections for refinement. R-factors based
on F^2^ are statistically about twice as large as those based on F, and R-
factors based on ALL data will be even larger.
;

_refine_ls_structure_factor_coef Fsqd
_refine_ls_matrix_type           full
_refine_ls_weighting_scheme      calc
_refine_ls_weighting_details     
'calc w=1/[\s^2^(Fo^2^)+(0.0963P)^2^+0.9912P] where P=(Fo^2^+2Fc^2^)/3'
_atom_sites_solution_primary     direct
_atom_sites_solution_secondary   difmap
_atom_sites_solution_hydrogens   geom
_refine_ls_hydrogen_treatment    mixed
_refine_ls_extinction_method     SHELXL
_refine_ls_extinction_coef       0.0011(14)
_refine_ls_extinction_expression Fc^*^=kFc[1+0.001xFc^2^\l^3^/sin(2\q)]^-1/4^
_refine_ls_number_reflns         4192
_refine_ls_number_parameters     351
_refine_ls_number_restraints     0
_refine_ls_R_factor_all          0.0515
_refine_ls_R_factor_gt           0.0461
_refine_ls_wR_factor_ref         0.1548
_refine_ls_wR_factor_gt          0.1508
_refine_ls_goodness_of_fit_ref   1.117
_refine_ls_restrained_S_all      1.117
_refine_ls_shift/su_max          0.000
_refine_ls_shift/su_mean         0.000

loop_
_atom_site_label
_atom_site_type_symbol
_atom_site_fract_x
_atom_site_fract_y
_atom_site_fract_z
_atom_site_U_iso_or_equiv
_atom_site_adp_type
_atom_site_occupancy
_atom_site_symmetry_multiplicity
_atom_site_calc_flag
_atom_site_refinement_flags
_atom_site_disorder_assembly
_atom_site_disorder_group
Co1 Co 0.47830(6) 0.43971(3) 0.38743(3) 0.01804(19) Uani 1 1 d . . .
Co2 Co 0.5000 0.5000 0.0000 0.0266(2) Uani 1 2 d S . .
O1 O 0.5189(3) 0.39776(19) 0.52834(18) 0.0205(5) Uani 1 1 d . . .
C1 C 0.4349(5) 0.3061(3) 0.5453(3) 0.0209(7) Uani 1 1 d . . .
C2 C 0.3642(5) 0.3046(3) 0.6429(3) 0.0249(8) Uani 1 1 d . . .
H2 H 0.3699 0.3697 0.6948 0.030 Uiso 1 1 calc R . .
C3 C 0.2878(5) 0.2106(3) 0.6632(3) 0.0272(8) Uani 1 1 d . . .
H3 H 0.2460 0.2115 0.7297 0.033 Uiso 1 1 calc R . .
C4 C 0.2702(5) 0.1122(3) 0.5868(3) 0.0244(8) Uani 1 1 d . . .
C5 C 0.3349(5) 0.1158(3) 0.4901(3) 0.0221(8) Uani 1 1 d . . .
C6 C 0.4214(5) 0.2088(3) 0.4669(3) 0.0204(7) Uani 1 1 d . . .
C7 C 0.5114(5) 0.2034(3) 0.3654(3) 0.0205(7) Uani 1 1 d . . .
H7A H 0.6415 0.2253 0.3799 0.025 Uiso 1 1 calc R . .
H7B H 0.4981 0.1278 0.3244 0.025 Uiso 1 1 calc R . .
N1 N 0.4344(4) 0.2744(2) 0.3029(2) 0.0194(6) Uani 1 1 d . . .
C8 C 0.2379(5) 0.2487(3) 0.2806(3) 0.0236(8) Uani 1 1 d . . .
H8A H 0.2055 0.1731 0.2845 0.028 Uiso 1 1 calc R . .
H8B H 0.2085 0.2540 0.2093 0.028 Uiso 1 1 calc R . .
C9 C 0.1234(5) 0.3230(3) 0.3543(3) 0.0229(8) Uani 1 1 d . . .
O2 O 0.2012(3) 0.4145(2) 0.40404(19) 0.0233(5) Uani 1 1 d . . .
O3 O -0.0375(4) 0.2923(2) 0.3582(2) 0.0340(7) Uani 1 1 d . . .
C10 C 0.5317(5) 0.2705(3) 0.2062(3) 0.0240(8) Uani 1 1 d . . .
H10A H 0.4848 0.2059 0.1528 0.029 Uiso 1 1 calc R . .
H10B H 0.6614 0.2656 0.2196 0.029 Uiso 1 1 calc R . .
C11 C 0.5050(5) 0.3731(3) 0.1678(3) 0.0230(8) Uani 1 1 d . . .
O4 O 0.4711(4) 0.45613(19) 0.23532(19) 0.0255(6) Uani 1 1 d . . .
O5 O 0.5227(4) 0.3694(2) 0.0742(2) 0.0315(6) Uani 1 1 d . . .
C12 C 0.2382(5) -0.0744(3) 0.4232(3) 0.0304(9) Uani 1 1 d . . .
C13 C 0.1802(5) -0.0797(3) 0.5233(3) 0.0295(9) Uani 1 1 d . . .
H13 H 0.1301 -0.1467 0.5340 0.035 Uiso 1 1 calc R . .
C14 C 0.1951(5) 0.0092(3) 0.6038(3) 0.0269(8) Uani 1 1 d . . .
C15 C 0.1364(6) 0.0003(3) 0.7095(3) 0.0358(10) Uani 1 1 d . . .
H15A H 0.0946 -0.0749 0.7074 0.054 Uiso 1 1 calc R . .
H15B H 0.0385 0.0463 0.7295 0.054 Uiso 1 1 calc R . .
H15C H 0.2382 0.0238 0.7599 0.054 Uiso 1 1 calc R . .
O6 O 0.3183(4) 0.0231(2) 0.4107(2) 0.0276(6) Uani 1 1 d . . .
O7 O 0.2267(5) -0.1489(2) 0.3454(2) 0.0416(8) Uani 1 1 d . . .
O8 O 0.7684(3) 0.4625(2) 0.3905(2) 0.0249(6) Uani 1 1 d . . .
H8A H 0.795(7) 0.516(4) 0.452(4) 0.044(14) Uiso 1 1 d . . .
H8B H 0.841(7) 0.417(4) 0.396(4) 0.051(16) Uiso 1 1 d . . .
O9 O 0.6722(5) 0.4191(4) -0.1065(3) 0.0422(8) Uani 1 1 d . . .
H9A H 0.655(8) 0.431(5) -0.163(5) 0.061(19) Uiso 1 1 d . . .
H9B H 0.638(9) 0.361(6) -0.121(5) 0.07(3) Uiso 1 1 d . . .
O10 O 0.7246(5) 0.5929(3) 0.0827(3) 0.0392(8) Uani 1 1 d . . .
H10A H 0.792(8) 0.603(5) 0.051(5) 0.042(19) Uiso 1 1 d . . .
H10B H 0.774(8) 0.572(5) 0.115(5) 0.05(2) Uiso 1 1 d . . .
O11 O 1.1808(6) 0.6276(3) 0.3221(3) 0.0590(11) Uani 1 1 d . . .
H11A H 1.113(8) 0.626(5) 0.377(5) 0.058(8) Uiso 1 1 d . . .
H11B H 1.208(8) 0.694(5) 0.331(4) 0.058(8) Uiso 1 1 d . . .
O12 O 0.9215(5) 0.4918(3) 0.2049(3) 0.0456(8) Uani 1 1 d . . .
H12A H 1.002(8) 0.545(5) 0.240(4) 0.058(8) Uiso 1 1 d . . .
H12B H 0.868(8) 0.472(5) 0.254(5) 0.058(8) Uiso 1 1 d . . .
O13 O 0.9618(17) 0.6831(10) -0.0443(10) 0.073(4) Uani 0.50 1 d P . .
O13A O 1.0223(15) 0.6494(10) -0.0214(9) 0.076(3) Uani 0.50 1 d P . .
O14 O 0.7261(13) 0.2027(6) -0.1344(5) 0.059(2) Uani 0.50 1 d P . .
O15 O 0.3580(19) 0.1628(8) -0.0536(8) 0.120(5) Uani 0.50 1 d P . .
O16 O 1.048(3) 0.8689(16) 0.0302(15) 0.080(5) Uiso 0.25 1 d P . .
O17 O 0.600(3) 0.1563(16) -0.1271(15) 0.076(5) Uiso 0.25 1 d P . .

loop_
_atom_site_aniso_label
_atom_site_aniso_U_11
_atom_site_aniso_U_22
_atom_site_aniso_U_33
_atom_site_aniso_U_23
_atom_site_aniso_U_13
_atom_site_aniso_U_12
Co1 0.0210(3) 0.0160(3) 0.0181(3) 0.00583(19) 0.00001(19) 0.00235(19)
Co2 0.0344(4) 0.0281(4) 0.0203(4) 0.0099(3) 0.0034(3) 0.0071(3)
O1 0.0249(13) 0.0165(12) 0.0206(12) 0.0060(9) -0.0015(10) 0.0010(10)
C1 0.0205(18) 0.0188(17) 0.0261(18) 0.0103(14) -0.0021(14) 0.0040(14)
C2 0.031(2) 0.0231(19) 0.0210(18) 0.0053(15) 0.0008(15) 0.0026(15)
C3 0.031(2) 0.027(2) 0.0259(19) 0.0107(16) 0.0040(16) 0.0010(16)
C4 0.0215(18) 0.0256(19) 0.0300(19) 0.0148(16) -0.0022(15) 0.0032(15)
C5 0.0217(18) 0.0186(17) 0.0266(18) 0.0062(14) -0.0042(14) 0.0043(14)
C6 0.0221(18) 0.0193(17) 0.0214(18) 0.0076(14) -0.0021(14) 0.0047(14)
C7 0.0234(18) 0.0165(17) 0.0239(18) 0.0079(14) 0.0013(14) 0.0066(14)
N1 0.0220(15) 0.0187(14) 0.0197(15) 0.0078(12) 0.0014(12) 0.0051(11)
C8 0.0227(18) 0.0209(18) 0.0271(19) 0.0065(15) -0.0030(15) 0.0011(14)
C9 0.0241(19) 0.0195(18) 0.0266(18) 0.0088(15) -0.0033(15) 0.0034(14)
O2 0.0219(13) 0.0216(13) 0.0257(13) 0.0040(10) 0.0002(10) 0.0037(10)
O3 0.0217(14) 0.0235(14) 0.0555(19) 0.0064(13) 0.0038(13) 0.0011(11)
C10 0.0299(19) 0.0222(18) 0.0209(18) 0.0062(14) 0.0028(15) 0.0049(15)
C11 0.0236(19) 0.0253(19) 0.0208(18) 0.0074(15) -0.0011(14) 0.0017(15)
O4 0.0378(15) 0.0192(13) 0.0208(13) 0.0069(10) 0.0005(11) 0.0047(11)
O5 0.0463(17) 0.0298(15) 0.0220(14) 0.0108(11) 0.0055(12) 0.0101(12)
C12 0.033(2) 0.0203(19) 0.039(2) 0.0109(18) -0.0062(17) 0.0023(16)
C13 0.029(2) 0.0235(19) 0.040(2) 0.0173(17) -0.0045(17) 0.0022(15)
C14 0.0222(18) 0.0250(19) 0.037(2) 0.0144(17) -0.0035(16) 0.0020(15)
C15 0.043(2) 0.029(2) 0.041(2) 0.0185(18) 0.0071(19) -0.0026(18)
O6 0.0350(15) 0.0183(13) 0.0295(14) 0.0068(11) -0.0006(11) 0.0000(11)
O7 0.062(2) 0.0207(15) 0.0396(17) 0.0045(13) -0.0051(15) -0.0030(13)
O8 0.0202(13) 0.0265(14) 0.0290(15) 0.0074(12) 0.0033(11) 0.0051(11)
O9 0.050(2) 0.054(2) 0.0265(17) 0.0118(16) 0.0062(15) 0.0183(18)
O10 0.042(2) 0.045(2) 0.0325(18) 0.0144(16) -0.0014(18) 0.0008(16)
O11 0.067(3) 0.0312(18) 0.076(3) 0.0139(19) -0.031(2) 0.0000(17)
O12 0.0392(18) 0.063(2) 0.0361(18) 0.0203(16) -0.0029(14) -0.0094(16)
O13 0.084(8) 0.079(7) 0.084(7) 0.058(6) 0.032(6) 0.041(5)
O13A 0.064(7) 0.092(9) 0.069(7) 0.014(6) 0.015(5) -0.014(6)
O14 0.105(6) 0.040(4) 0.040(4) 0.013(3) 0.035(4) 0.025(4)
O15 0.183(13) 0.072(6) 0.082(7) -0.023(5) -0.056(8) 0.019(7)

_geom_special_details            
;
All esds (except the esd in the dihedral angle between two l.s. planes)
are estimated using the full covariance matrix. The cell esds are taken
into account individually in the estimation of esds in distances, angles
and torsion angles; correlations between esds in cell parameters are only
used when they are defined by crystal symmetry. An approximate (isotropic)
treatment of cell esds is used for estimating esds involving l.s. planes.
;

loop_
_geom_bond_atom_site_label_1
_geom_bond_atom_site_label_2
_geom_bond_distance
_geom_bond_site_symmetry_2
_geom_bond_publ_flag
Co1 O4 2.069(2) . ?
Co1 O1 2.072(2) . ?
Co1 O2 2.076(2) . ?
Co1 O1 2.099(2) 2_666 ?
Co1 N1 2.126(3) . ?
Co1 O8 2.141(3) . ?
Co2 O9 2.077(3) . ?
Co2 O9 2.077(3) 2_665 ?
Co2 O10 2.078(4) . ?
Co2 O10 2.078(4) 2_665 ?
Co2 O5 2.122(3) 2_665 ?
Co2 O5 2.122(3) . ?
O1 C1 1.340(4) . ?
O1 Co1 2.099(2) 2_666 ?
C1 C6 1.409(5) . ?
C1 C2 1.411(5) . ?
C2 C3 1.362(5) . ?
C3 C4 1.404(5) . ?
C4 C5 1.389(5) . ?
C4 C14 1.443(5) . ?
C5 O6 1.376(4) . ?
C5 C6 1.394(5) . ?
C6 C7 1.507(5) . ?
C7 N1 1.486(4) . ?
N1 C8 1.470(5) . ?
N1 C10 1.481(5) . ?
C8 C9 1.520(5) . ?
C9 O3 1.229(5) . ?
C9 O2 1.273(4) . ?
C10 C11 1.523(5) . ?
C11 O5 1.240(4) . ?
C11 O4 1.260(4) . ?
C12 O7 1.220(5) . ?
C12 O6 1.372(5) . ?
C12 C13 1.419(6) . ?
C13 C14 1.354(6) . ?
C14 C15 1.503(6) . ?
O13 O13A 0.746(12) . ?
O14 O17 1.079(19) . ?

loop_
_geom_angle_atom_site_label_1
_geom_angle_atom_site_label_2
_geom_angle_atom_site_label_3
_geom_angle
_geom_angle_site_symmetry_1
_geom_angle_site_symmetry_3
_geom_angle_publ_flag
O4 Co1 O1 168.23(10) . . ?
O4 Co1 O2 98.71(10) . . ?
O1 Co1 O2 87.84(10) . . ?
O4 Co1 O1 102.01(9) . 2_666 ?
O1 Co1 O1 87.58(9) . 2_666 ?
O2 Co1 O1 90.85(9) . 2_666 ?
O4 Co1 N1 78.34(10) . . ?
O1 Co1 N1 93.15(10) . . ?
O2 Co1 N1 81.03(10) . . ?
O1 Co1 N1 171.81(10) 2_666 . ?
O4 Co1 O8 88.80(10) . . ?
O1 Co1 O8 84.69(10) . . ?
O2 Co1 O8 172.47(10) . . ?
O1 Co1 O8 87.97(10) 2_666 . ?
N1 Co1 O8 100.22(11) . . ?
O9 Co2 O9 180.000(1) . 2_665 ?
O9 Co2 O10 89.22(16) . . ?
O9 Co2 O10 90.78(16) 2_665 . ?
O9 Co2 O10 90.78(16) . 2_665 ?
O9 Co2 O10 89.22(16) 2_665 2_665 ?
O10 Co2 O10 180.0 . 2_665 ?
O9 Co2 O5 94.82(14) . 2_665 ?
O9 Co2 O5 85.18(14) 2_665 2_665 ?
O10 Co2 O5 86.27(14) . 2_665 ?
O10 Co2 O5 93.73(14) 2_665 2_665 ?
O9 Co2 O5 85.18(14) . . ?
O9 Co2 O5 94.82(14) 2_665 . ?
O10 Co2 O5 93.73(14) . . ?
O10 Co2 O5 86.27(14) 2_665 . ?
O5 Co2 O5 180.00(11) 2_665 . ?
C1 O1 Co1 120.5(2) . . ?
C1 O1 Co1 130.6(2) . 2_666 ?
Co1 O1 Co1 92.42(9) . 2_666 ?
O1 C1 C6 120.3(3) . . ?
O1 C1 C2 120.6(3) . . ?
C6 C1 C2 119.1(3) . . ?
C3 C2 C1 121.2(3) . . ?
C2 C3 C4 121.4(4) . . ?
C5 C4 C3 116.7(3) . . ?
C5 C4 C14 119.0(3) . . ?
C3 C4 C14 124.3(4) . . ?
O6 C5 C4 119.9(3) . . ?
O6 C5 C6 116.0(3) . . ?
C4 C5 C6 124.1(3) . . ?
C5 C6 C1 117.4(3) . . ?
C5 C6 C7 121.3(3) . . ?
C1 C6 C7 121.1(3) . . ?
N1 C7 C6 113.0(3) . . ?
C8 N1 C10 111.3(3) . . ?
C8 N1 C7 112.3(3) . . ?
C10 N1 C7 111.3(3) . . ?
C8 N1 Co1 107.7(2) . . ?
C10 N1 Co1 104.7(2) . . ?
C7 N1 Co1 109.2(2) . . ?
N1 C8 C9 113.7(3) . . ?
O3 C9 O2 125.3(3) . . ?
O3 C9 C8 117.8(3) . . ?
O2 C9 C8 116.9(3) . . ?
C9 O2 Co1 116.3(2) . . ?
N1 C10 C11 109.4(3) . . ?
O5 C11 O4 125.3(3) . . ?
O5 C11 C10 118.0(3) . . ?
O4 C11 C10 116.7(3) . . ?
C11 O4 Co1 115.6(2) . . ?
C11 O5 Co2 126.3(2) . . ?
O7 C12 O6 115.3(4) . . ?
O7 C12 C13 126.7(4) . . ?
O6 C12 C13 118.0(3) . . ?
C14 C13 C12 121.7(4) . . ?
C13 C14 C4 119.0(4) . . ?
C13 C14 C15 120.4(3) . . ?
C4 C14 C15 120.6(3) . . ?
C12 O6 C5 122.2(3) . . ?

_diffrn_measured_fraction_theta_max 0.992
_diffrn_reflns_theta_full        25.00
_diffrn_measured_fraction_theta_full 0.992
_refine_diff_density_max         0.962
_refine_diff_density_min         -0.280
_refine_diff_density_rms         0.125

#===END
