####################################################################### 
# 
# This file contains crystal structure data downloaded from the 
# Cambridge Structural Database (CSD) hosted by the Cambridge 
# Crystallographic Data Centre (CCDC).
# 
# Full information about CCDC data access policies and citation 
# guidelines are available at http://www.ccdc.cam.ac.uk/access/V1 
# 
# Audit and citation data items may have been added by the CCDC. 
# Please retain this information to preserve the provenance of 
# this file and to allow appropriate attribution of the data. 
# 
#######################################################################

data_Structure3-Zn-Pt
_audit_block_doi                 10.5517/ccqj1nx
_database_code_depnum_ccdc_archive 'CCDC 670829'
loop_
_citation_id
_citation_doi
_citation_year
1 10.1021/cg7008094 2007
_audit_update_record             
;
2007-12-13 deposited with the CCDC.	2024-07-13 downloaded from the CCDC.
;
#==========================================================================

_audit_creation_date             07-05-24
_audit_creation_method           CRYSTALS_ver_12.82

_oxford_structure_analysis_title 'Pna2-1 in Pna2(1)'
_chemical_name_systematic        ?
_chemical_melting_point          ?

_cell_length_a                   23.340(4)
_cell_length_b                   12.766(2)
_cell_length_c                   14.903(3)
_cell_angle_alpha                90
_cell_angle_beta                 90
_cell_angle_gamma                90
_cell_volume                     4440.1(14)

_symmetry_cell_setting           Orthorhombic
_symmetry_space_group_name_H-M   'P n a 21 '
_symmetry_space_group_name_Hall  'P 2c -2n'
loop_
_symmetry_equiv_pos_as_xyz
x,y,z
-x+1/2,y+1/2,z+1/2
x+1/2,-y+1/2,z
-x,-y,z+1/2

loop_
_atom_type_symbol
_atom_type_scat_dispersion_real
_atom_type_scat_dispersion_imag
_atom_type_scat_Cromer_Mann_a1
_atom_type_scat_Cromer_Mann_b1
_atom_type_scat_Cromer_Mann_a2
_atom_type_scat_Cromer_Mann_b2
_atom_type_scat_Cromer_Mann_a3
_atom_type_scat_Cromer_Mann_b3
_atom_type_scat_Cromer_Mann_a4
_atom_type_scat_Cromer_Mann_b4
_atom_type_scat_Cromer_Mann_c
_atom_type_scat_source
C 0.0033 0.0016 2.3100 20.8439 1.0200 10.2075 1.5886 0.5687 0.8650 51.6512
0.2156 'International Tables Vol C 4.2.6.8 and 6.1.1.4'
H 0.0000 0.0000 0.4930 10.5109 0.3229 26.1257 0.1402 3.1424 0.0408 57.7998
0.0030 'International Tables Vol C 4.2.6.8 and 6.1.1.4'
N 0.0061 0.0033 12.2126 0.0057 3.1322 9.8933 2.0125 28.9975 1.1663 0.5826
-11.5290 'International Tables Vol C 4.2.6.8 and 6.1.1.4'
O 0.0106 0.0060 3.0485 13.2771 2.2868 5.7011 1.5463 0.3239 0.8670 32.9089
0.2508 'International Tables Vol C 4.2.6.8 and 6.1.1.4'
Cl 0.1484 0.1585 11.4604 0.0104 7.1964 1.1662 6.2556 18.5194 1.6455 47.7784
-9.5574 'International Tables Vol C 4.2.6.8 and 6.1.1.4'
Zn 0.2839 1.4301 14.0743 3.2655 7.0318 0.2333 5.1652 10.3163 2.4100 58.7097
1.3041 'International Tables Vol C 4.2.6.8 and 6.1.1.4'
Pt -1.7033 8.3905 27.0059 1.5129 17.7639 8.8117 15.7131 0.4246 5.7837 38.6103
11.6883 'International Tables Vol C 4.2.6.8 and 6.1.1.4'


_cell_formula_units_Z            4

# Given Formula = C26 H30 Cl2 N8 O14 Pt1 Zn2
# Dc = 1.61 Fooo = 2320.00 Mu = 43.97 M = 1075.33
# Found Formula = C32 H48 Cl2 N8 O14 Pt1 Zn2
# Dc = 1.74 FOOO = 2320.00 Mu = 44.04 M = 1165.53

_chemical_formula_sum            'C32 H48 Cl2 N8 O14 Pt1 Zn2'
_chemical_formula_moiety         'C23 H27 Cl2 N5 O11 Pt Zn2, 3(C3 H7 N O)'
_chemical_compound_source        ?
_chemical_formula_weight         1165.53


_cell_measurement_reflns_used    8215
_cell_measurement_theta_min      2
_cell_measurement_theta_max      28
_cell_measurement_temperature    105

_exptl_crystal_description       block
_exptl_crystal_colour            yellow
_exptl_crystal_size_min          0.20
_exptl_crystal_size_mid          0.22
_exptl_crystal_size_max          0.35

_exptl_crystal_density_diffrn    1.743
_exptl_crystal_density_meas      ?
# Non-dispersive F(000):
_exptl_crystal_F_000             2320
_exptl_absorpt_coefficient_mu    4.404

# Sheldrick geometric approximatio 0.38 0.41
_exptl_absorpt_correction_type   multi-scan
_exptl_absorpt_process_details   'SADABS (Siemens, 1996)'
_exptl_absorpt_correction_T_min  0.33
_exptl_absorpt_correction_T_max  0.41
_diffrn_measurement_device_type  'Bruker SMART'
_diffrn_radiation_monochromator  graphite
_diffrn_radiation_type           'Mo K\a'
_diffrn_radiation_wavelength     0.71073
_diffrn_measurement_method       \w

_computing_data_collection       'SMART (Siemens, 1993)'
_computing_data_reduction        'SAINT (Siemens ,1995)'
_computing_cell_refinement       'SAINT (Siemens ,1995)'
_computing_structure_solution    'SIR92 (Altomare et al., 1994)'
_computing_structure_refinement  'CRYSTALS (Betteridge et al., 2003)'
_computing_publication_material  'CRYSTALS (Betteridge et al., 2003)'
_computing_molecular_graphics    'CAMERON (Watkin et al., 1996)'

_diffrn_standards_interval_time  none
_diffrn_standards_interval_count none
_diffrn_standards_number         0
_diffrn_standards_decay_%        none

_diffrn_ambient_temperature      105
_diffrn_reflns_number            40175
_reflns_number_total             10601
_diffrn_reflns_av_R_equivalents  0.027
# Number of reflections with Friedels Law is 10601
# Number of reflections without Friedels Law is 10601
# Theoretical number of reflections is about 5572


_diffrn_reflns_theta_min         1.745
_diffrn_reflns_theta_max         28.396
_diffrn_measured_fraction_theta_max 0.972

_diffrn_reflns_theta_full        27.544
_diffrn_measured_fraction_theta_full 0.995


_diffrn_reflns_limit_h_min       -31
_diffrn_reflns_limit_h_max       29
_diffrn_reflns_limit_k_min       -16
_diffrn_reflns_limit_k_max       16
_diffrn_reflns_limit_l_min       -19
_diffrn_reflns_limit_l_max       19
_reflns_limit_h_min              0
_reflns_limit_h_max              31
_reflns_limit_k_min              0
_reflns_limit_k_max              16
_reflns_limit_l_min              -19
_reflns_limit_l_max              19

_oxford_diffrn_Wilson_B_factor   1.81
_oxford_diffrn_Wilson_scale      407.04

_atom_sites_solution_primary     direct #heavy,direct,difmap,geom
# _atom_sites_solution_secondary difmap
_atom_sites_solution_hydrogens   geom

_refine_diff_density_min         -1.83
_refine_diff_density_max         2.48


_refine_ls_number_reflns         7989
_refine_ls_number_restraints     27
_refine_ls_number_parameters     457

#_refine_ls_R_factor_ref 0.0362
_refine_ls_wR_factor_ref         0.0393
_refine_ls_goodness_of_fit_ref   1.0290

#_reflns_number_all 10568
_refine_ls_R_factor_all          0.0507
_refine_ls_wR_factor_all         0.0526

# The I/u(I) cutoff below was used for refinement as
# well as the _gt R-factors:
_reflns_threshold_expression     I>3.00u(I)
_reflns_number_gt                7989
_refine_ls_R_factor_gt           0.0362
_refine_ls_wR_factor_gt          0.0393

_refine_ls_shift/su_max          0.040002

_refine_ls_abs_structure_Flack   0.355(7)
_refine_ls_abs_structure_details 'Flack, 0 Friedel-pairs'
# choose from: rm (reference molecule of known chirality),
# ad (anomolous dispersion - Flack), rmad (rm and ad),
# syn (from synthesis), unk (unknown) or . (not applicable).
_chemical_absolute_configuration ad


_refine_ls_structure_factor_coef F
_refine_ls_matrix_type           full
_refine_ls_hydrogen_treatment    constr # none, undef, noref, refall,
# refxyz, refU, constr or mixed
_refine_ls_weighting_scheme      calc
_refine_ls_weighting_details     
;
Method, part 1, Chebychev polynomial, (Watkin, 1994, Prince, 1982)
[weight] = 1.0/[A~0~*T~0~(x)+A~1~*T~1~(x) ... +A~n-1~]*T~n-1~(x)]
where A~i~ are the Chebychev coefficients listed below and x= Fcalc/Fmax
Method = Robust Weighting (Prince, 1982)
W = [weight] * [1-(deltaF/6*sigmaF)^2^]^2^
A~i~ are:
0.380 0.301 0.211
;

# start Validation Reply Form
_vrf_PLAT220_Structure3-Zn-Pt    
;
PROBLEM: Large Non-Solvent C Ueq(max)/Ueq(min) ... 5.52 Ratio
RESPONSE: There are three dimethylformamide molecules coordinated to Zn2,
these molecules are slightly disordered which leads to
larger thermal ellipsoides.
;
_vrf_PLAT222_Structure3-Zn-Pt    
;
PROBLEM: Large Non-Solvent H Ueq(max)/Ueq(min) ... 6.65 Ratio
RESPONSE: There are three dimethylformamide molecules coordinated to Zn2,
these molecules are slightly disordered which leads to
larger thermal ellipsoides.
;

# Uequiv = arithmetic mean of Ui i.e. Ueqiv = (U1+U2+U3)/3

# Replace last . with number of unfound hydrogen atomsattached to an atom.

# ..._refinement_flags_...
# . no refinement constraints S special position constraint on site
# G rigid group refinement of site R riding atom
# D distance or angle restraint on site T thermal displacement constraints
# U Uiso or Uij restraint (rigid bond) P partial occupancy constraint


loop_
_atom_site_label
_atom_site_type_symbol
_atom_site_fract_x
_atom_site_fract_y
_atom_site_fract_z
_atom_site_U_iso_or_equiv
_atom_site_occupancy
_atom_site_adp_type
_atom_site_refinement_flags_posn
_atom_site_refinement_flags_adp
_atom_site_refinement_flags_occupancy
_atom_site_disorder_assembly
_atom_site_disorder_group
_atom_site_attached_hydrogens
Pt1 Pt 0.744111(7) -0.026660(17) 0.14927(10) 0.0254 1.0000 Uani . . . . . .
Zn1 Zn 0.90137(3) 0.15056(6) 0.51172(11) 0.0231 1.0000 Uani . . . . . .
Zn8 Zn 1.01532(2) 0.25254(6) 0.39420(11) 0.0190 1.0000 Uani . . . . . .
Cl1 Cl 0.73887(7) -0.0578(2) 0.30162(16) 0.0402 1.0000 Uani . . . . . .
Cl2 Cl 0.74880(7) 0.00597(19) -0.00227(15) 0.0382 1.0000 Uani . . . . . .
O1 O 0.90207(18) 0.1063(4) 0.3815(3) 0.0303 1.0000 Uani . . . . . .
O2 O 0.98378(18) 0.1491(4) 0.3081(3) 0.0296 1.0000 Uani . . . . . .
O3 O 1.01610(18) -0.0928(4) 0.0422(4) 0.0360 1.0000 Uani . . . . . .
O4 O 0.93819(19) -0.1609(4) -0.0254(3) 0.0244 1.0000 Uani . . . . . .
O5 O 0.55770(18) -0.2077(4) -0.0299(3) 0.0247 1.0000 Uani . . . . . .
O6 O 0.4821(2) -0.1122(4) 0.0024(4) 0.0381 1.0000 Uani . . . . . .
O7 O 0.4896(2) 0.1087(5) 0.2848(4) 0.0416 1.0000 Uani . . . . . .
O8 O 0.5747(2) 0.1771(4) 0.3171(3) 0.0291 1.0000 Uani . . . . . .
O9 O 0.8179(2) 0.2073(5) 0.4836(4) 0.0342 1.0000 Uani . . . . . .
O10 O 0.8729(2) 0.0026(5) 0.5515(4) 0.0410 1.0000 Uani . . . . . .
O11 O 0.8907(2) 0.1945(4) 0.6457(4) 0.0413 1.0000 Uani . . . . . .
O12 O 0.4890(5) -0.3541(9) 0.3274(7) 0.100(3) 1.0000 Uiso D . . . . .
O13 O 0.4022(10) -0.1570(16) 0.4852(13) 0.197(8) 1.0000 Uiso D . . . . .
O14 O 0.7580(5) -0.4936(10) 0.1760(8) 0.106(3) 1.0000 Uiso D . . . . .
N1 N 0.83128(17) -0.0193(4) 0.1571(5) 0.0267 1.0000 Uani . . . . . .
N2 N 0.65775(16) -0.0243(4) 0.1463(6) 0.0259 1.0000 Uani . . . . . .
N3 N 0.7227(3) 0.1840(6) 0.4714(5) 0.0429 1.0000 Uani . . . . . .
N4 N 0.8252(6) -0.1483(9) 0.5572(8) 0.0942 1.0000 Uani . . . . . .
N5 N 0.8738(4) 0.1220(7) 0.7815(5) 0.0562 1.0000 Uani . . . . . .
N6 N 0.4119(6) -0.2557(11) 0.2785(8) 0.117(4) 1.0000 Uiso D . . . . .
N7 N 0.5059(16) -0.187(2) 0.4760(17) 0.33(2) 1.0000 Uiso D . . . . .
N8 N 0.8274(5) -0.5895(9) 0.2407(7) 0.078(3) 1.0000 Uiso D . . . . .
C1 C 0.8546(2) 0.0369(6) 0.2240(5) 0.0294 1.0000 Uani . . . . . .
C2 C 0.9130(2) 0.0511(5) 0.2322(4) 0.0253 1.0000 Uani . . . . . .
C3 C 0.9490(2) 0.0096(5) 0.1669(4) 0.0246 1.0000 Uani . . . . . .
C4 C 0.9248(2) -0.0501(5) 0.0987(4) 0.0229 1.0000 Uani . . . . . .
C5 C 0.8656(2) -0.0626(6) 0.0943(4) 0.0258 1.0000 Uani . . . . . .
C6 C 0.9350(3) 0.1060(6) 0.3148(4) 0.0274 1.0000 Uani . . . . . .
C7 C 0.9632(2) -0.1054(5) 0.0320(4) 0.0246 1.0000 Uani . . . . . .
C8 C 0.6260(2) -0.0805(6) 0.0849(4) 0.0276 1.0000 Uani . . . . . .
C9 C 0.5669(3) -0.0743(6) 0.0823(4) 0.0261 1.0000 Uani . . . . . .
C10 C 0.5389(2) -0.0093(5) 0.1414(6) 0.0278 1.0000 Uani . . . . . .
C11 C 0.5711(3) 0.0458(5) 0.2038(4) 0.0250 1.0000 Uani . . . . . .
C12 C 0.6294(3) 0.0387(6) 0.2036(4) 0.0295 1.0000 Uani . . . . . .
C13 C 0.5328(3) -0.1339(5) 0.0152(4) 0.0260 1.0000 Uani . . . . . .
C14 C 0.5420(3) 0.1161(6) 0.2727(5) 0.0313 1.0000 Uani . . . . . .
C15 C 0.7733(3) 0.1717(6) 0.5110(6) 0.0373 1.0000 Uani . . . . . .
C16 C 0.7184(4) 0.2418(8) 0.3880(7) 0.0535 1.0000 Uani . . . . . .
C17 C 0.6702(4) 0.1316(10) 0.5042(10) 0.0746 1.0000 Uani . . . . . .
C18 C 0.8395(4) -0.0599(7) 0.5216(6) 0.0499 1.0000 Uani . . . . . .
C19 C 0.7816(9) -0.2196(14) 0.5158(14) 0.1272 1.0000 Uani . . . . . .
C20 C 0.8473(7) -0.1834(13) 0.6382(11) 0.1135 1.0000 Uani . . . . . .
C21 C 0.8980(4) 0.1296(7) 0.7048(5) 0.0439 1.0000 Uani . . . . . .
C22 C 0.8880(5) 0.0446(9) 0.8493(7) 0.0658 1.0000 Uani . . . . . .
C23 C 0.8255(6) 0.1893(14) 0.8031(10) 0.0920 1.0000 Uani . . . . . .
C24 C 0.4372(8) -0.3309(12) 0.3268(8) 0.124(6) 1.0000 Uiso D . . . . .
C25 C 0.4466(9) -0.1951(13) 0.2148(10) 0.127(6) 1.0000 Uiso D . . . . .
C26 C 0.3533(9) -0.2341(14) 0.2964(11) 0.133(7) 1.0000 Uiso D . . . . .
C27 C 0.4549(15) -0.1334(13) 0.4571(11) 0.207(13) 1.0000 Uiso D . . . . .
C28 C 0.5513(11) -0.1458(16) 0.4207(13) 0.165(9) 1.0000 Uiso D . . . . .
C29 C 0.5103(9) -0.2697(14) 0.5416(12) 0.134(7) 1.0000 Uiso D . . . . .
C30 C 0.7830(4) -0.5266(7) 0.2399(6) 0.064(3) 1.0000 Uiso D . . . . .
C31 C 0.8520(12) -0.6433(19) 0.164(2) 0.251(16) 1.0000 Uiso D . . . . .
C32 C 0.8545(6) -0.6262(11) 0.3224(11) 0.108(5) 1.0000 Uiso D . . . . .
H11 H 0.8306 0.0679 0.2664 0.0348 1.0000 Uiso R . . . . .
H31 H 0.9882 0.0216 0.1688 0.0289 1.0000 Uiso R . . . . .
H51 H 0.8491 -0.1014 0.0484 0.0314 1.0000 Uiso R . . . . .
H81 H 0.6451 -0.1230 0.0440 0.0327 1.0000 Uiso R . . . . .
H101 H 0.4994 -0.0028 0.1396 0.0331 1.0000 Uiso R . . . . .
H121 H 0.6503 0.0783 0.2439 0.0353 1.0000 Uiso R . . . . .
H151 H 0.7743 0.1324 0.5639 0.0454 1.0000 Uiso R . . . . .
H161 H 0.7504 0.2883 0.3825 0.0800 1.0000 Uiso R . . . . .
H162 H 0.6839 0.2822 0.3878 0.0801 1.0000 Uiso R . . . . .
H163 H 0.7183 0.1941 0.3383 0.0800 1.0000 Uiso R . . . . .
H171 H 0.6781 0.0977 0.5607 0.1119 1.0000 Uiso R . . . . .
H172 H 0.6401 0.1815 0.5124 0.1119 1.0000 Uiso R . . . . .
H173 H 0.6579 0.0802 0.4613 0.1119 1.0000 Uiso R . . . . .
H181 H 0.8219 -0.0427 0.4671 0.0600 1.0000 Uiso R . . . . .
H191 H 0.7811 -0.2852 0.5478 0.1920 1.0000 Uiso R . . . . .
H192 H 0.7912 -0.2324 0.4538 0.1920 1.0000 Uiso R . . . . .
H193 H 0.7442 -0.1879 0.5194 0.1921 1.0000 Uiso R . . . . .
H201 H 0.8594 -0.1247 0.6746 0.1710 1.0000 Uiso R . . . . .
H202 H 0.8795 -0.2284 0.6258 0.1710 1.0000 Uiso R . . . . .
H203 H 0.8183 -0.2224 0.6702 0.1711 1.0000 Uiso R . . . . .
H211 H 0.9252 0.0776 0.6931 0.0530 1.0000 Uiso R . . . . .
H221 H 0.8672 0.0609 0.9033 0.0990 1.0000 Uiso R . . . . .
H222 H 0.9284 0.0481 0.8605 0.0990 1.0000 Uiso R . . . . .
H223 H 0.8779 -0.0245 0.8279 0.0991 1.0000 Uiso R . . . . .
H231 H 0.8077 0.1643 0.8574 0.1380 1.0000 Uiso R . . . . .
H232 H 0.8392 0.2596 0.8126 0.1381 1.0000 Uiso R . . . . .
H233 H 0.7985 0.1885 0.7542 0.1381 1.0000 Uiso R . . . . .
H241 H 0.4134 -0.3702 0.3643 0.1492 1.0000 Uiso R . . . . .
H251 H 0.4852 -0.2220 0.2145 0.1899 1.0000 Uiso R . . . . .
H252 H 0.4465 -0.1227 0.2333 0.1899 1.0000 Uiso R . . . . .
H253 H 0.4302 -0.2011 0.1555 0.1901 1.0000 Uiso R . . . . .
H261 H 0.3362 -0.2031 0.2439 0.1990 1.0000 Uiso R . . . . .
H262 H 0.3509 -0.1862 0.3464 0.1989 1.0000 Uiso R . . . . .
H263 H 0.3341 -0.2986 0.3119 0.1991 1.0000 Uiso R . . . . .
H271 H 0.4582 -0.0746 0.4205 0.2480 1.0000 Uiso R . . . . .
H281 H 0.5409 -0.0774 0.3995 0.2480 1.0000 Uiso R . . . . .
H282 H 0.5858 -0.1405 0.4559 0.2480 1.0000 Uiso R . . . . .
H283 H 0.5573 -0.1918 0.3703 0.2480 1.0000 Uiso R . . . . .
H291 H 0.4699 -0.2819 0.5681 0.2000 1.0000 Uiso R . . . . .
H292 H 0.5390 -0.2442 0.5898 0.1999 1.0000 Uiso R . . . . .
H293 H 0.5256 -0.3353 0.5084 0.2000 1.0000 Uiso R . . . . .
H294 H 0.7690 -0.5044 0.2953 0.0769 1.0000 Uiso R . . . . .
H311 H 0.8864 -0.6943 0.1936 0.3740 1.0000 Uiso R . . . . .
H312 H 0.8687 -0.5810 0.1193 0.3740 1.0000 Uiso R . . . . .
H313 H 0.8155 -0.6895 0.1345 0.3740 1.0000 Uiso R . . . . .
H321 H 0.8307 -0.6083 0.3731 0.1620 1.0000 Uiso R . . . . .
H322 H 0.8912 -0.5923 0.3285 0.1620 1.0000 Uiso R . . . . .
H323 H 0.8595 -0.7010 0.3192 0.1620 1.0000 Uiso R . . . . .
loop_
_atom_site_aniso_label
_atom_site_aniso_U_11
_atom_site_aniso_U_22
_atom_site_aniso_U_33
_atom_site_aniso_U_23
_atom_site_aniso_U_13
_atom_site_aniso_U_12
Pt1 0.01670(8) 0.03369(10) 0.02589(9) -0.01252(12) 0.00053(14) 0.00124(8)
Zn1 0.0159(3) 0.0337(4) 0.0196(3) 0.0013(3) 0.0007(2) -0.0023(3)
Zn8 0.0144(3) 0.0257(3) 0.0170(2) 0.0025(3) 0.0015(2) -0.0005(3)
Cl1 0.0283(8) 0.0593(12) 0.0331(8) -0.0005(9) 0.0012(6) 0.0029(8)
Cl2 0.0286(8) 0.0560(11) 0.0301(8) -0.0031(8) -0.0001(6) -0.0002(7)
O1 0.028(2) 0.039(3) 0.024(2) -0.0102(19) 0.0077(16) -0.0076(19)
O2 0.022(2) 0.042(3) 0.025(2) -0.006(2) 0.0004(16) -0.0049(18)
O3 0.020(2) 0.046(3) 0.042(3) -0.022(2) 0.0022(18) 0.000(2)
O4 0.023(2) 0.029(3) 0.021(2) -0.0145(19) 0.0008(15) 0.0025(17)
O5 0.027(2) 0.029(2) 0.0175(19) -0.0030(18) -0.0033(15) -0.0020(18)
O6 0.027(2) 0.047(3) 0.040(3) -0.019(3) -0.009(2) 0.005(2)
O7 0.030(2) 0.052(4) 0.043(3) -0.018(3) 0.007(2) -0.004(2)
O8 0.032(2) 0.035(3) 0.020(2) -0.0125(18) -0.0033(16) 0.0032(19)
O9 0.017(2) 0.043(3) 0.043(3) -0.004(2) 0.0002(18) 0.002(2)
O10 0.029(2) 0.045(3) 0.049(3) 0.006(2) 0.004(2) -0.004(2)
O11 0.057(3) 0.044(3) 0.023(2) 0.002(3) -0.002(3) -0.001(2)
N1 0.0124(16) 0.039(3) 0.029(3) -0.010(3) 0.005(2) -0.0003(18)
N2 0.0197(17) 0.030(2) 0.028(2) -0.001(3) 0.009(3) -0.0002(19)
N3 0.029(3) 0.056(5) 0.043(4) 0.000(3) -0.010(2) 0.001(3)
N4 0.142(1