####################################################################### 
# 
# This file contains crystal structure data downloaded from the 
# Cambridge Structural Database (CSD) hosted by the Cambridge 
# Crystallographic Data Centre (CCDC).
# 
# Full information about CCDC data access policies and citation 
# guidelines are available at http://www.ccdc.cam.ac.uk/access/V1 
# 
# Audit and citation data items may have been added by the CCDC. 
# Please retain this information to preserve the provenance of 
# this file and to allow appropriate attribution of the data. 
# 
#######################################################################

data_VISCAB
#This CIF has been generated from an entry in the Cambridge Structural Database
_database_code_depnum_ccdc_archive 'CCDC 1284588'
_database_code_CSD               VISCAB
loop_
_citation_id
_citation_doi
_citation_year
1 10.1016/S0020-1693(00)80290-X 1990
_audit_creation_method           'Created from the CSD'
_audit_update_record             
;
2024-07-13 downloaded from the CCDC.
;
_database_code_NBS               605598
_chemical_formula_moiety         '(C8 H12 Cu1 N3 O5)n,0.37n(H2 O1)'
_chemical_name_systematic        
'catena-((\m~2~-Iminodiacetato)-imidazole-methanol-copper(ii) hydrate)'
_chemical_absolute_configuration unk
_diffrn_ambient_temperature      295
_exptl_crystal_density_diffrn    1.385
#These two values have been output from a single CSD field.
_refine_ls_R_factor_gt           0.039
_refine_ls_wR_factor_gt          0.039
_diffrn_radiation_probe          x-ray
_symmetry_cell_setting           monoclinic
_symmetry_space_group_name_H-M   'P 21'
_symmetry_Int_Tables_number      4
_space_group_name_Hall           'P 2yb'
loop_
_symmetry_equiv_pos_site_id
_symmetry_equiv_pos_as_xyz
1 x,y,z
2 -x,1/2+y,-z
_cell_length_a                   9.649(5)
_cell_length_b                   7.772(4)
_cell_length_c                   9.865(2)
_cell_angle_alpha                90
_cell_angle_beta                 103.10(3)
_cell_angle_gamma                90
_cell_volume                     720.544
_exptl_crystal_colour            'dark blue'
_cell_formula_units_Z            2
_chemical_properties_physical    'Air- and moisture-sensitive'
loop_
_atom_site_label
_atom_site_type_symbol
_atom_site_fract_x
_atom_site_fract_y
_atom_site_fract_z
Cu1 Cu 0.36427(9) 0.2741 0.1240(1)
N1 N 0.5548(7) 0.367(1) 0.2089(8)
C1 C 0.557(1) 0.419(1) 0.354(1)
C2 C 0.405(1) 0.443(2) 0.374(1)
O1 O 0.3044(7) 0.402(1) 0.2757(7)
O2 O 0.3921(8) 0.509(1) 0.4845(7)
O3 O 0.6864(6) 0.025(1) 0.0282(7)
O4 O 0.4701(6) 0.1362(9) 0.0121(7)
C3 C 0.661(1) 0.241(1) 0.188(1)
C4 C 0.6022(9) 0.125(1) 0.067(1)
N2 N -0.0418(8) 0.097(1) -0.006(1)
C5 C 0.070(1) 0.150(2) 0.088(1)
N3 N 0.1780(7) 0.189(1) 0.0305(8)
C6 C 0.128(1) 0.163(2) -0.109(1)
C7 C -0.007(1) 0.104(2) -0.131(1)
O5 O 0.393(1) 0.028(1) 0.2863(9)
C8 C 0.370(2) -0.138(2) 0.233(1)
O3A O 0.3136(6) 0.525(1) -0.0282(7)
Cu1A Cu 0.63573(9) -0.2259 -0.1240(1)
O6 O 0.898(5) 0.839(8) 0.477(5)

#END
