
#######################################################################
#
#                 Cambridge Crystallographic Data Centre
#                                CCDC
#
#######################################################################
#
# If this CIF has been generated from an entry in the Cambridge
# Structural Database, then it will include bibliographic, chemical,
# crystal, experimental, refinement or atomic coordinate data resulting
# from the CCDC's data processing and validation procedures.
#
#######################################################################

data_CSD_CIF_VITAAC01
_audit_creation_date 1973-02-27
_audit_creation_method CSD-ConQuest-V1
_database_code_CSD VITAAC01
_database_code_depnum_ccdc_archive 'CCDC 1284682'
_chemical_formula_sum 'C20 H28 O2'
_chemical_formula_moiety
;
C20 H28 O2
;
_journal_coeditor_code "IUCr A09329"
_journal_coden_Cambridge 107
_journal_volume 28
_journal_year 1972
_journal_page_first 2936
_journal_name_full 'Acta Crystallogr.,Sect.B:Struct.Crystallogr.Cryst.Chem. '
loop_
_publ_author_name
"C.H.Stam"
_chemical_name_systematic
;
Vitamin A acid
;
_chemical_name_common
;
Tretinoin; Aberel; Aberela; Airol; Amnesteem; Atralin; Avita; Claravis; 
Dermairol; Eudyna; KA{C}trel; Refissa; Retin-A; Retisol-A; Sotret; Stieva-A; 
Tretin-X; TRETIN.X; Vesanoid; Vitinoin; DrugBank: DB00982; PDB Chemical 
Component code: 3KV; PDB Chemical Component code: REA; Teaching Subset: 
Fundamental Chemistry, Drug Molecules, Essential Nutrients
;
_cell_volume   1783.969
_exptl_special_details
;
monoclinic polymorph
keratolytic agent; Tretinoin as investigated in 2020 as a potential candidate 
to target COVID-19 (coronavirus)
y(C11) is 0.0734 not 0.0719; y(C12)is 0.0669 not 0.0685
;
_diffrn_ambient_temperature ?
_diffrn_special_details
;
The study was carried out at room temperature,in the range 283-303K

;
#These two values have been output from a single CSD field.
_refine_ls_R_factor_gt 0.057
_refine_ls_wR_factor_gt 0.057
loop_
_citation_database_id_CSD
_citation_special_details
TUDSIU "is a stereoisomer of this entry"
_symmetry_cell_setting monoclinic
_symmetry_space_group_name_H-M 'P 21/n'
_symmetry_Int_Tables_number 14
loop_
_symmetry_equiv_pos_site_id
_symmetry_equiv_pos_as_xyz
1 x,y,z
2 1/2-x,1/2+y,1/2-z
3 -x,-y,-z
4 -1/2+x,-1/2-y,-1/2+z
_cell_length_a 8.078(1)
_cell_length_b 34.103(2)
_cell_length_c 7.387(1)
_cell_angle_alpha 90
_cell_angle_beta 118.76
_cell_angle_gamma 90
_cell_formula_units_Z 4
loop_
_atom_type_symbol
_atom_type_radius_bond
C 0.68
H 0.20
O 0.68
loop_
_atom_site_label
_atom_site_type_symbol
_atom_site_fract_x
_atom_site_fract_y
_atom_site_fract_z
C1 C -0.25800 0.19550 0.41480
C2 C -0.28560 0.09640 -0.17230
C3 C -0.31730 0.07340 -0.34980
C4 C -0.18440 0.06690 -0.40530
C5 C -0.20750 0.04550 -0.58630
C6 C -0.06090 0.04510 -0.62380
C7 C -0.04390 0.02520 -0.79030
C8 C -0.22360 0.21850 0.25660
C9 C -0.08620 0.16980 0.54660
C10 C -0.76200 0.15140 0.25430
C11 C -0.61530 0.09250 -0.22560
C12 C -0.28010 0.22760 0.55060
C13 C -0.39250 0.02580 -0.71980
C14 C -0.35830 0.21150 0.68330
C15 C -0.55510 0.19600 0.54750
C16 C -0.57420 0.17270 0.36580
C17 C -0.43880 0.17090 0.30740
C18 C -0.47310 0.14540 0.13350
C19 C -0.35730 0.13190 0.06540
C20 C -0.41360 0.10620 -0.11190
H1 H -0.14800 0.24100 0.64400
H2 H -0.44400 0.06100 -0.43200
H3 H -0.05500 0.08100 -0.31600
H4 H 0.05000 0.06200 -0.53200
H5 H -0.34600 0.23500 0.15100
H6 H -0.18000 0.20100 0.18200
H7 H -0.12000 0.24000 0.33100
H8 H -0.06800 0.14900 0.47000
H9 H 0.02900 0.18300 0.60600
H10 H -0.09800 0.15800 0.65700
H11 H -0.83500 0.16000 0.09900
H12 H -0.38900 0.25100 0.44700
H13 H -0.83100 0.15400 0.32400
H14 H -0.73900 0.11800 0.25700
H15 H -0.65500 0.08200 -0.34200
H16 H -0.63700 0.07700 -0.12600
H17 H -0.70200 0.12000 -0.27100
H18 H -0.38600 0.00900 -0.82200
H19 H -0.50000 0.04600 -0.76700
H20 H -0.41900 0.00400 -0.64400
H21 H 0.12700 0.01800 -0.90200
H22 H -0.36900 0.23600 0.77300
H23 H -0.26700 0.18600 0.77900
H24 H -0.59800 0.17800 0.63000
H25 H -0.65200 0.22000 0.49600
H26 H -0.60600 0.13700 0.05700
H27 H -0.22600 0.13900 0.13200
H28 H -0.15700 0.10500 -0.08700
O1 O 0.11440 0.03440 -0.79130
O2 O -0.15830 0.00230 -0.91530
#END
