####################################################################### 
# 
# This file contains crystal structure data downloaded from the 
# Cambridge Structural Database (CSD) hosted by the Cambridge 
# Crystallographic Data Centre (CCDC).
# 
# Full information about CCDC data access policies and citation 
# guidelines are available at http://www.ccdc.cam.ac.uk/access/V1 
# 
# Audit and citation data items may have been added by the CCDC. 
# Please retain this information to preserve the provenance of 
# this file and to allow appropriate attribution of the data. 
# 
#######################################################################

data_ni_cip67
_audit_block_doi                 10.5517/ccnp7p7
_database_code_depnum_ccdc_archive 'CCDC 616239'
loop_
_citation_id
_citation_doi
_citation_year
1 10.1007/s10847-007-9293-4 2007
_audit_update_record             
;
2006-07-27 deposited with the CCDC.	2024-07-13 downloaded from the CCDC.
;

_audit_creation_method           SHELXL-97
_chemical_name_systematic        ?
_chemical_name_common            ?
_chemical_melting_point          ?
_chemical_formula_moiety         ?
_chemical_formula_sum            'C68 H108 N4 Ni2 O20 P4'
_chemical_formula_weight         1542.88

loop_
_atom_type_symbol
_atom_type_description
_atom_type_scat_dispersion_real
_atom_type_scat_dispersion_imag
_atom_type_scat_source
C C 0.0033 0.0016 'International Tables Vol C Tables 4.2.6.8 and 6.1.1.4'
H H 0.0000 0.0000 'International Tables Vol C Tables 4.2.6.8 and 6.1.1.4'
N N 0.0061 0.0033 'International Tables Vol C Tables 4.2.6.8 and 6.1.1.4'
O O 0.0106 0.0060 'International Tables Vol C Tables 4.2.6.8 and 6.1.1.4'
P P 0.1023 0.0942 'International Tables Vol C Tables 4.2.6.8 and 6.1.1.4'
Ni Ni 0.3393 1.1124 'International Tables Vol C Tables 4.2.6.8 and 6.1.1.4'

_symmetry_cell_setting           orthorhombic
_symmetry_space_group_name_H-M   'P b c a'
_symmetry_space_group_name_Hall  '-P 2ac 2ab'
_symmetry_int_tables_number      61

loop_
_symmetry_equiv_pos_as_xyz
'x, y, z'
'-x+1/2, -y, z+1/2'
'x+1/2, -y+1/2, -z'
'-x, y+1/2, -z+1/2'
'-x, -y, -z'
'x-1/2, y, -z-1/2'
'-x-1/2, y-1/2, z'
'x, -y-1/2, z-1/2'

_cell_length_a                   39.0511(13)
_cell_length_b                   57.409(2)
_cell_length_c                   17.4346(5)
_cell_angle_alpha                90.00
_cell_angle_beta                 90.00
_cell_angle_gamma                90.00
_cell_volume                     39087(2)
_cell_formula_units_Z            16
_cell_measurement_temperature    173(2)
_cell_measurement_reflns_used    6781
_cell_measurement_theta_min      3.12
_cell_measurement_theta_max      24.05

_exptl_crystal_description       prism
_exptl_crystal_colour            'light yellow'
_exptl_crystal_size_max          0.90
_exptl_crystal_size_mid          0.35
_exptl_crystal_size_min          0.32
_exptl_crystal_density_meas      ?
_exptl_crystal_density_diffrn    1.049
_exptl_crystal_density_method    'not measured'
_exptl_crystal_F_000             13120
_exptl_absorpt_coefficient_mu    0.506

_exptl_absorpt_correction_type   multi-scan
_exptl_absorpt_correction_T_min  0.6588
_exptl_absorpt_correction_T_max  0.8549
_exptl_absorpt_process_details   'SADABS (Bruker, 2004)'

_exptl_special_details           
;
?
;

_diffrn_ambient_temperature      100(2)


_diffrn_radiation_probe          x-ray
_diffrn_radiation_type           MoK\a
_diffrn_radiation_wavelength     0.71073
_diffrn_source                   'fine-focus sealed tube'
_diffrn_radiation_monochromator  graphite
_diffrn_measurement_device_type  'Bruker Nonius X8Apex CCD area-detector'
_diffrn_measurement_method       '\f scans'
_diffrn_detector_area_resol_mean 25
_diffrn_standards_number         0
_diffrn_standards_interval_count ?
_diffrn_standards_interval_time  ?
_diffrn_standards_decay_%        0
_diffrn_reflns_number            135858
_diffrn_reflns_av_R_equivalents  0.1168
_diffrn_reflns_av_sigmaI/netI    0.1494
_diffrn_reflns_limit_h_min       -46
_diffrn_reflns_limit_h_max       45
_diffrn_reflns_limit_k_min       -47
_diffrn_reflns_limit_k_max       68
_diffrn_reflns_limit_l_min       -20
_diffrn_reflns_limit_l_max       19
_diffrn_reflns_theta_min         1.33
_diffrn_reflns_theta_max         25.20
_reflns_number_total             34275
_reflns_number_gt                17717
_reflns_threshold_expression     >2\s(I)


_computing_data_collection       'APEX2 (Bruker, 2004)'
_computing_cell_refinement       'SAINT (Bruker, 2004)'
_computing_data_reduction        'SAINT (Bruker, 2004)'
_computing_structure_solution    'SHELXTL (Bruker, 2004)'
_computing_structure_refinement  'SHELXTL (Bruker, 2004)'
_computing_molecular_graphics    'SHELXTL (Bruker, 2004)'
_computing_publication_material  'SHELXTL (Bruker, 2004)'

_refine_special_details          
;
Refinement of F^2^ against ALL reflections. The weighted R-factor wR and
goodness of fit S are based on F^2^, conventional R-factors R are based
on F, with F set to zero for negative F^2^. The threshold expression of
F^2^ > 2sigma(F^2^) is used only for calculating R-factors(gt) etc. and is
not relevant to the choice of reflections for refinement. R-factors based
on F^2^ are statistically about twice as large as those based on F, and R-
factors based on ALL data will be even larger.
;

_refine_ls_structure_factor_coef Fsqd
_refine_ls_matrix_type           full
_refine_ls_weighting_scheme      calc
_refine_ls_weighting_details     
'calc w=1/[\s^2^(Fo^2^)+(0.1795P)^2^+272.7603P] where P=(Fo^2^+2Fc^2^)/3'
_atom_sites_solution_primary     direct
_atom_sites_solution_secondary   difmap
_atom_sites_solution_hydrogens   geom
_refine_ls_hydrogen_treatment    constr
_refine_ls_extinction_method     none
_refine_ls_extinction_coef       0
_refine_ls_number_reflns         34275
_refine_ls_number_parameters     1787
_refine_ls_number_restraints     82
_refine_ls_R_factor_all          0.2259
_refine_ls_R_factor_gt           0.1521
_refine_ls_wR_factor_ref         0.4035
_refine_ls_wR_factor_gt          0.3678
_refine_ls_goodness_of_fit_ref   1.044
_refine_ls_restrained_S_all      1.046
_refine_ls_shift/su_max          0.001
_refine_ls_shift/su_mean         0.000

loop_
_platon_squeeze_void_nr
_platon_squeeze_void_average_x
_platon_squeeze_void_average_y
_platon_squeeze_void_average_z
_platon_squeeze_void_volume
_platon_squeeze_void_count_electrons
1 0.000 0.000 0.000 192.3 33.4
2 -0.016 0.167 0.087 26.7 1.3
3 -0.016 0.333 0.587 26.7 2.2
4 0.000 0.500 0.500 192.3 33.2
5 0.016 0.667 0.413 26.7 2.2
6 0.016 0.833 0.913 26.7 2.7
7 0.206 0.250 0.601 2193.1 120.7
8 0.293 0.750 0.967 2192.9 118.8
9 0.500 0.500 0.000 192.3 33.3
10 0.500 1.000 0.500 192.3 33.4
11 0.484 0.167 0.413 26.6 1.2
12 0.484 0.333 0.913 26.7 1.7
13 0.516 0.667 0.087 26.7 2.4
14 0.516 0.833 0.587 26.7 2.6
15 0.706 0.250 0.897 2193.2 119.1
16 0.793 0.750 0.533 2193.1 116.6
_platon_squeeze_details          
;
;

loop_
_atom_site_label
_atom_site_type_symbol
_atom_site_fract_x
_atom_site_fract_y
_atom_site_fract_z
_atom_site_U_iso_or_equiv
_atom_site_adp_type
_atom_site_occupancy
_atom_site_symmetry_multiplicity
_atom_site_calc_flag
_atom_site_refinement_flags
_atom_site_disorder_assembly
_atom_site_disorder_group
Ni1 Ni 0.20197(3) 0.03625(2) 0.11520(6) 0.0368(3) Uani 1 1 d . . .
Ni2 Ni 0.41858(4) 0.08557(3) -0.27755(7) 0.0496(4) Uani 1 1 d . . .
Ni3 Ni 0.33465(4) 0.14501(2) 0.25865(7) 0.0473(4) Uani 1 1 d . . .
Ni4 Ni 0.49735(12) 0.23253(4) 0.70593(10) 0.182(2) Uani 1 1 d . . .
P11 P 0.23462(6) 0.03062(5) -0.06198(13) 0.0369(7) Uani 1 1 d . . .
P12 P 0.24914(6) 0.07831(5) 0.19769(13) 0.0310(6) Uani 1 1 d . . .
P21 P 0.37587(8) 0.10076(5) -0.12469(14) 0.0443(7) Uani 1 1 d . . .
P22 P 0.39171(8) 0.03371(5) -0.34027(14) 0.0477(8) Uani 1 1 d . . .
P31 P 0.36079(10) 0.12289(5) 0.42304(15) 0.0559(9) Uani 1 1 d . . .
P32 P 0.39020(9) 0.18687(6) 0.22317(19) 0.0584(9) Uani 1 1 d . . .
P41 P 0.47007(14) 0.17834(7) 0.7233(2) 0.0851(14) Uani 1 1 d . . .
P42 P 0.52063(16) 0.25898(10) 0.3863(2) 0.1108(19) Uani 1 1 d . . .
O1 O 0.41148(17) -0.01184(11) 0.0044(3) 0.0369(16) Uani 1 1 d . . .
O2 O 0.45476(16) 0.03182(12) 0.1140(3) 0.0390(17) Uani 1 1 d . . .
O3 O 0.38216(17) 0.00872(11) 0.1820(3) 0.0374(17) Uani 1 1 d . . .
O4 O 0.34755(19) -0.04035(12) 0.0822(3) 0.0430(18) Uani 1 1 d . . .
O5 O 0.5399(2) 0.13173(15) 0.2042(4) 0.063(2) Uani 1 1 d . . .
O6 O 0.5233(3) 0.10502(13) 0.3523(4) 0.059(2) Uani 1 1 d . . .
O7 O 0.5757(3) 0.1206(2) 0.5012(6) 0.108(4) Uani 1 1 d . . .
O8 O 0.5796(4) 0.1531(2) 0.3564(7) 0.110(4) Uani 1 1 d . . .
O11 O 0.21793(17) 0.04073(12) 0.0088(3) 0.0382(16) Uani 1 1 d . . .
O12 O 0.23748(16) 0.05575(11) 0.1629(3) 0.0371(16) Uani 1 1 d . . .
O21 O 0.3847(2) 0.08614(12) -0.1946(4) 0.055(2) Uani 1 1 d . . .
O22 O 0.4115(2) 0.05271(15) -0.3038(5) 0.069(2) Uani 1 1 d . . .
O31 O 0.3513(2) 0.12386(13) 0.3386(4) 0.055(2) Uani 1 1 d . . .
O32 O 0.3744(2) 0.16576(12) 0.2616(4) 0.053(2) Uani 1 1 d . . .
O41 O 0.4896(4) 0.19979(18) 0.7406(4) 0.114(5) Uani 1 1 d . A .
O42 O 0.5071(4) 0.2558(2) 0.3051(5) 0.146(6) Uani 1 1 d . . .
O111 O 0.1561(2) 0.02242(15) 0.0768(4) 0.054(2) Uani 1 1 d . . .
O112 O 0.1625(2) 0.05902(15) 0.0978(4) 0.057(2) Uani 1 1 d . . .
O113 O 0.1140(2) 0.04539(19) 0.0485(6) 0.090(3) Uani 1 1 d . . .
O121 O 0.22649(17) 0.00569(12) 0.1495(3) 0.0400(17) Uani 1 1 d . . .
O122 O 0.19211(18) 0.02258(14) 0.2285(4) 0.0462(18) Uani 1 1 d . . .
O123 O 0.2235(2) -0.00660(15) 0.2665(4) 0.058(2) Uani 1 1 d . . .
O211 O 0.4634(3) 0.08603(18) -0.3389(4) 0.086(3) Uani 1 1 d . . .
O212 O 0.4641(2) 0.07961(16) -0.2185(4) 0.067(2) Uani 1 1 d . . .
O213 O 0.5123(3) 0.0794(3) -0.2833(8) 0.153(7) Uani 1 1 d . . .
O221 O 0.4182(2) 0.12277(14) -0.2796(5) 0.069(3) Uani 1 1 d . . .
O222 O 0.3858(2) 0.10239(15) -0.3555(4) 0.059(2) Uani 1 1 d . . .
O223 O 0.3796(3) 0.13978(17) -0.3545(5) 0.089(3) Uani 1 1 d . . .
O311 O 0.3510(2) 0.12493(13) 0.1663(4) 0.053(2) Uani 1 1 d . . .
O312 O 0.3209(2) 0.15596(15) 0.1453(4) 0.056(2) Uani 1 1 d . . .
O313 O 0.3381(3) 0.13493(16) 0.0479(4) 0.075(3) Uani 1 1 d . . .
O321 O 0.2847(2) 0.13138(13) 0.2728(4) 0.060(2) Uani 1 1 d . . .
O322 O 0.3005(3) 0.16302(15) 0.3307(4) 0.064(2) Uani 1 1 d . . .
O323 O 0.2504(3) 0.14805(19) 0.3567(6) 0.092(3) Uani 1 1 d . . .
O411 O 0.4614(4) 0.23004(18) 0.6139(6) 0.120(5) Uani 1 1 d . A .
O412 O 0.4432(5) 0.2479(2) 0.7150(10) 0.195(9) Uani 1 1 d . A .
O413 O 0.4051(5) 0.2449(3) 0.6150(10) 0.172(7) Uani 1 1 d . A .
O421 O 0.5438(4) 0.2273(2) 0.6508(9) 0.159(7) Uani 1 1 d DU A 2
O422 O 0.5168(5) 0.2621(2) 0.6522(6) 0.150(7) Uani 1 1 d D A .
O423 O 0.5670(4) 0.2578(3) 0.5984(7) 0.170(7) Uani 1 1 d D . .
N11 N 0.1423(3) 0.0422(2) 0.0729(5) 0.061(3) Uani 1 1 d . . .
N12 N 0.2139(2) 0.00717(15) 0.2156(4) 0.039(2) Uani 1 1 d . . .
N21 N 0.4815(3) 0.0811(2) -0.2800(7) 0.082(4) Uani 1 1 d . . .
N22 N 0.3940(3) 0.1224(2) -0.3311(5) 0.064(3) Uani 1 1 d . . .
N31 N 0.3371(3) 0.13838(18) 0.1173(5) 0.063(3) Uani 1 1 d . . .
N32 N 0.2772(4) 0.14747(18) 0.3210(6) 0.066(3) Uani 1 1 d . . .
N41 N 0.4366(6) 0.2421(3) 0.6483(10) 0.133(7) Uani 1 1 d . . .
N42 N 0.5427(4) 0.2489(3) 0.6343(9) 0.111(5) Uani 1 1 d DU A .
C1 C 0.3590(3) -0.03336(18) -0.0813(5) 0.038(2) Uani 1 1 d U . .
H1A H 0.3694 -0.0458 -0.0494 0.046 Uiso 1 1 calc R . .
H1B H 0.3453 -0.0408 -0.1223 0.046 Uiso 1 1 calc R . .
C2 C 0.4528(2) 0.02505(18) -0.0510(6) 0.040(2) Uani 1 1 d . . .
H2A H 0.4691 0.0343 -0.0822 0.048 Uiso 1 1 calc R . .
H2B H 0.4662 0.0156 -0.0140 0.048 Uiso 1 1 calc R . .
C3 C 0.4019(2) 0.05639(17) 0.1992(5) 0.032(2) Uani 1 1 d . . .
H3A H 0.4200 0.0464 0.2216 0.039 Uiso 1 1 calc R . .
H3B H 0.4049 0.0724 0.2194 0.039 Uiso 1 1 calc R . .
C4 C 0.3147(3) -0.00654(16) 0.1804(5) 0.035(2) Uani 1 1 d . . .
H4A H 0.2916 -0.0109 0.1989 0.042 Uiso 1 1 calc R . .
H4B H 0.3311 -0.0186 0.1971 0.042 Uiso 1 1 calc R . .
C5 C 0.4736(4) 0.11183(18) 0.2378(6) 0.063(4) Uani 1 1 d . . .
H5A H 0.4544 0.1083 0.2024 0.075 Uiso 1 1 calc R . .
H5B H 0.4939 0.1029 0.2207 0.075 Uiso 1 1 calc R . .
C6 C 0.5567(3) 0.1803(2) 0.2299(8) 0.067(4) Uani 1 1 d . . .
H6A H 0.5726 0.1674 0.2172 0.080 Uiso 1 1 calc R . .
H6B H 0.5587 0.1923 0.1894 0.080 Uiso 1 1 calc R . .
C7 C 0.5852(4) 0.1707(4) 0.5133(10) 0.122(7) Uani 1 1 d . A .
H7A H 0.6033 0.1591 0.5024 0.146 Uiso 1 1 calc R . .
H7B H 0.5929 0.1805 0.5569 0.146 Uiso 1 1 calc R . .
C8 C 0.5099(4) 0.09834(19) 0.5109(6) 0.059(4) Uani 1 1 d . . .
H8A H 0.5313 0.0916 0.4899 0.071 Uiso 1 1 calc R . .
H8B H 0.5029 0.0889 0.5558 0.071 Uiso 1 1 calc R . .
C11 C 0.4368(5) -0.0278(3) 0.0286(10) 0.100(5) Uani 1 1 d U . .
H11A H 0.4429 -0.0366 -0.0183 0.120 Uiso 1 1 calc R . .
H11B H 0.4570 -0.0180 0.0406 0.120 Uiso 1 1 calc R . .
C12 C 0.4362(8) -0.0412(8) 0.075(3) 0.43(4) Uani 1 1 d . . .
H12A H 0.4158 -0.0508 0.0628 0.515 Uiso 1 1 calc R . .
H12B H 0.4299 -0.0322 0.1215 0.515 Uiso 1 1 calc R . .
C13 C 0.4622(4) -0.0589(3) 0.1044(12) 0.137(9) Uani 1 1 d . . .
H13A H 0.4745 -0.0658 0.0609 0.205 Uiso 1 1 calc R . .
H13B H 0.4503 -0.0713 0.1327 0.205 Uiso 1 1 calc R . .
H13C H 0.4785 -0.0512 0.1386 0.205 Uiso 1 1 calc R . .
C21 C 0.4838(3) 0.0470(2) 0.1278(6) 0.049(3) Uani 1 1 d . . .
H21A H 0.4764 0.0611 0.1561 0.058 Uiso 1 1 calc R . .
H21B H 0.4941 0.0519 0.0785 0.058 Uiso 1 1 calc R . .
C22 C 0.5094(3) 0.0335(3) 0.1745(6) 0.068(4) Uani 1 1 d . . .
H22A H 0.5148 0.0189 0.1464 0.082 Uiso 1 1 calc R . .
H22B H 0.5308 0.0427 0.1775 0.082 Uiso 1 1 calc R . .
C23 C 0.4989(3) 0.0271(3) 0.2546(7) 0.068(4) Uani 1 1 d . . .
H23A H 0.4919 0.0411 0.2823 0.102 Uiso 1 1 calc R . .
H23B H 0.5182 0.0197 0.2811 0.102 Uiso 1 1 calc R . .
H23C H 0.4796 0.0161 0.2525 0.102 Uiso 1 1 calc R . .
C31 C 0.4039(4) -0.0004(2) 0.2381(7) 0.065(4) Uani 1 1 d . . .
H31A H 0.4093 0.0121 0.2754 0.078 Uiso 1 1 calc R . .
H31B H 0.4257 -0.0050 0.2134 0.078 Uiso 1 1 calc R . .
C32 C 0.3897(4) -0.0212(3) 0.2817(10) 0.098(5) Uani 1 1 d . . .
H32A H 0.3689 -0.0162 0.3096 0.117 Uiso 1 1 calc R . .
H32B H 0.3827 -0.0332 0.2440 0.117 Uiso 1 1 calc R . .
C33 C 0.4136(7) -0.0320(4) 0.3371(15) 0.178(11) Uani 1 1 d . . .
H33A H 0.4318 -0.0402 0.3092 0.267 Uiso 1 1 calc R . .
H33B H 0.4011 -0.0431 0.3693 0.267 Uiso 1 1 calc R . .
H33C H 0.4237 -0.0198 0.3695 0.267 Uiso 1 1 calc R . .
C41 C 0.3263(4) -0.06066(19) 0.0774(7) 0.068(4) Uani 1 1 d . . .
H41A H 0.3194 -0.0635 0.0236 0.082 Uiso 1 1 calc R . .
H41B H 0.3054 -0.0586 0.1088 0.082 Uiso 1 1 calc R . .
C42 C 0.3475(4) -0.0811(2) 0.1076(9) 0.082(4) Uani 1 1 d U . .
H42A H 0.3693 -0.0822 0.0790 0.098 Uiso 1 1 calc R . .
H42B H 0.3529 -0.0787 0.1626 0.098 Uiso 1 1 calc R . .
C43 C 0.3272(8) -0.1032(3) 0.0977(14) 0.200(14) Uani 1 1 d . . .
H43A H 0.3183 -0.1040 0.0453 0.300 Uiso 1 1 calc R . .
H43B H 0.3081 -0.1034 0.1341 0.300 Uiso 1 1 calc R . .
H43C H 0.3420 -0.1167 0.1074 0.300 Uiso 1 1 calc R . .
C51 C 0.5448(4) 0.1298(3) 0.1229(8) 0.096(5) Uani 1 1 d . . .
H51A H 0.5512 0.1451 0.1012 0.115 Uiso 1 1 calc R . .
H51B H 0.5233 0.1246 0.0982 0.115 Uiso 1 1 calc R . .
C52 C 0.5733(5) 0.1120(4) 0.1082(9) 0.144(10) Uani 1 1 d . . .
H52A H 0.5933 0.1159 0.1404 0.173 Uiso 1 1 calc R . .
H52B H 0.5652 0.0963 0.1232 0.173 Uiso 1 1 calc R . .
C53 C 0.5836(6) 0.1117(5) 0.0277(13) 0.179(11) Uani 1 1 d . . .
H53A H 0.5635 0.1141 -0.0049 0.269 Uiso 1 1 calc R . .
H53B H 0.5940 0.0966 0.0156 0.269 Uiso 1 1 calc R . .
H53C H 0.6003 0.1241 0.0184 0.269 Uiso 1 1 calc R . .
C61 C 0.5392(4) 0.0841(2) 0.3275(6) 0.064(4) Uani 1 1 d . . .
H61A H 0.5287 0.0790 0.2787 0.077 Uiso 1 1 calc R . .
H61B H 0.5354 0.0718 0.3661 0.077 Uiso 1 1 calc R . .
C62 C 0.5763(3) 0.0874(2) 0.3163(7) 0.066(4) Uani 1 1 d . . .
H62A H 0.5870 0.0908 0.3665 0.079 Uiso 1 1 calc R . .
H62B H 0.5799 0.1011 0.2827 0.079 Uiso 1 1 calc R . .
C63 C 0.5941(4) 0.0663(2) 0.2808(7) 0.076(4) Uani 1 1 d . . .
H63A H 0.5902 0.0526 0.3131 0.115 Uiso 1 1 calc R . .
H63B H 0.6188 0.0694 0.2772 0.115 Uiso 1 1 calc R . .
H63C H 0.5849 0.0635 0.2294 0.115 Uiso 1 1 calc R . .
C71 C 0.6230(11) 0.1034(7) 0.525(2) 0.44(6) Uani 1 1 d D . .
H71A H 0.6155 0.0936 0.4814 0.527 Uiso 1 1 calc R . .
H71B H 0.6358 0.1170 0.5057 0.527 Uiso 1 1 calc R . .
C72 C 0.6442(18) 0.0893(9) 0.583(3) 0.68(10) Uani 1 1 d D . .
H72A H 0.6648 0.0834 0.5582 1.023 Uiso 0.50 1 calc PR . .
H72B H 0.6305 0.0763 0.6024 1.023 Uiso 0.50 1 calc PR . .
H72C H 0.6507 0.0994 0.6262 1.023 Uiso 0.50 1 calc PR . .
H72D H 0.6325 0.0893 0.6330 1.023 Uiso 0.50 1 calc PR . .
H72E H 0.6668 0.0964 0.5888 1.023 Uiso 0.50 1 calc PR . .
H72F H 0.6466 0.0733 0.5650 1.023 Uiso 0.50 1 calc PR . .
C73 C 0.5925(7) 0.1107(5) 0.576(2) 0.233(18) Uani 1 1 d D . .
H73A H 0.5982 0.1227 0.6145 0.280 Uiso 1 1 calc R . .
H73B H 0.5799 0.0975 0.5989 0.280 Uiso 1 1 calc R . .
C81 C 0.6170(8) 0.1488(3) 0.327(2) 0.219(18) Uani 1 1 d . . .
H81A H 0.6155 0.1317 0.3180 0.262 Uiso 1 1 calc R . .
H81B H 0.6147 0.1555 0.2748 0.262 Uiso 1 1 calc R . .
C82 C 0.6549(19) 0.1508(6) 0.336(4) 0.43(6) Uani 1 1 d . . .
H82A H 0.6631 0.1639 0.3676 0.512 Uiso 1 1 calc R . .
H82B H 0.6685 0.1488 0.2881 0.512 Uiso 1 1 calc R . .
C83 C 0.6448(18) 0.1256(15) 0.384(4) 0.68(10) Uani 1 1 d . . .
H83A H 0.6657 0.1187 0.4053 1.024 Uiso 0.50 1 calc PR . .
H83B H 0.6341 0.1145 0.3484 1.024 Uiso 0.50 1 calc PR . .
H83C H 0.6288 0.1292 0.4256 1.024 Uiso 0.50 1 calc PR . .
H83D H 0.6200 0.1229 0.3810 1.024 Uiso 0.50 1 calc PR . .
H83E H 0.6516 0.1271 0.4378 1.024 Uiso 0.50 1 calc PR . .
H83F H 0.6569 0.1124 0.3606 1.024 Uiso 0.50 1 calc PR . .
C111 C 0.2278(3) 0.0001(2) -0.0704(8) 0.074(5) Uani 1 1 d . . .
H49 H 0.2404 -0.0051 -0.