####################################################################### 
# 
# This file contains crystal structure data downloaded from the 
# Cambridge Structural Database (CSD) hosted by the Cambridge 
# Crystallographic Data Centre (CCDC).
# 
# Full information about CCDC data access policies and citation 
# guidelines are available at http://www.ccdc.cam.ac.uk/access/V1 
# 
# Audit and citation data items may have been added by the CCDC. 
# Please retain this information to preserve the provenance of 
# this file and to allow appropriate attribution of the data. 
# 
#######################################################################

data_a
_audit_block_doi                 10.5517/ccnb357
_database_code_depnum_ccdc_archive 'CCDC 605528'
loop_
_citation_id
_citation_doi
_citation_year
1 10.1016/j.inoche.2007.11.011 2008
_audit_update_record             
;
2006-04-25 deposited with the CCDC.	2024-07-13 downloaded from the CCDC.
;

_audit_creation_method           SHELXL-97
_chemical_name_systematic        
;
?
;
_chemical_name_common            ?
_chemical_melting_point          ?
_chemical_formula_moiety         ?
_chemical_formula_sum            'C10 H8 Cu2 I2 N2 S3'
_chemical_formula_weight         633.24

loop_
_atom_type_symbol
_atom_type_description
_atom_type_scat_dispersion_real
_atom_type_scat_dispersion_imag
_atom_type_scat_source
C C 0.0033 0.0016 'International Tables Vol C Tables 4.2.6.8 and 6.1.1.4'
H H 0.0000 0.0000 'International Tables Vol C Tables 4.2.6.8 and 6.1.1.4'
N N 0.0061 0.0033 'International Tables Vol C Tables 4.2.6.8 and 6.1.1.4'
S S 0.1246 0.1234 'International Tables Vol C Tables 4.2.6.8 and 6.1.1.4'
Cu Cu 0.3201 1.2651 'International Tables Vol C Tables 4.2.6.8 and 6.1.1.4'
I I -0.4742 1.8119 'International Tables Vol C Tables 4.2.6.8 and 6.1.1.4'

_symmetry_cell_setting           Monoclinic
_symmetry_space_group_name_H-M   C2/c

loop_
_symmetry_equiv_pos_as_xyz
'x, y, z'
'-x, y, -z+1/2'
'x+1/2, y+1/2, z'
'-x+1/2, y+1/2, -z+1/2'
'-x, -y, -z'
'x, -y, z-1/2'
'-x+1/2, -y+1/2, -z'
'x+1/2, -y+1/2, z-1/2'

_cell_length_a                   30.283(11)
_cell_length_b                   4.2083(15)
_cell_length_c                   18.833(8)
_cell_angle_alpha                90.00
_cell_angle_beta                 126.984(16)
_cell_angle_gamma                90.00
_cell_volume                     1917.2(12)
_cell_formula_units_Z            4
_cell_measurement_temperature    293(2)
_cell_measurement_reflns_used    1982
_cell_measurement_theta_min      4.05
_cell_measurement_theta_max      27.48

_exptl_crystal_description       Prism
_exptl_crystal_colour            Yellow
_exptl_crystal_size_max          0.2500
_exptl_crystal_size_mid          0.0800
_exptl_crystal_size_min          0.0500
_exptl_crystal_density_meas      ?
_exptl_crystal_density_diffrn    2.194
_exptl_crystal_density_method    'not measured'
_exptl_crystal_F_000             1176
_exptl_absorpt_coefficient_mu    5.753
_exptl_absorpt_correction_type   empirical
_exptl_absorpt_process_details   'SADABS (Sheldrick, 1996)'
_exptl_absorpt_correction_T_max  1.0000
_exptl_absorpt_correction_T_min  0.4465

_exptl_special_details           
;
?
;

_diffrn_ambient_temperature      293(2)
_diffrn_radiation_wavelength     0.71073
_diffrn_radiation_type           MoK\a
_diffrn_radiation_source         'fine-focus sealed tube'
_diffrn_radiation_monochromator  graphite
_diffrn_measurement_device_type  'Bruker P4'
_diffrn_measurement_method       '\w scans'
_diffrn_detector_area_resol_mean ?
_diffrn_standards_number         none
_diffrn_standards_interval_count none
_diffrn_standards_interval_time  none
_diffrn_standards_decay_%        none
_diffrn_reflns_number            4978
_diffrn_reflns_av_R_equivalents  0.0507
_diffrn_reflns_av_sigmaI/netI    0.0563
_diffrn_reflns_limit_h_min       -38
_diffrn_reflns_limit_h_max       37
_diffrn_reflns_limit_k_min       -5
_diffrn_reflns_limit_k_max       4
_diffrn_reflns_limit_l_min       -24
_diffrn_reflns_limit_l_max       24
_diffrn_reflns_theta_min         4.05
_diffrn_reflns_theta_max         27.48
_reflns_number_total             1880
_reflns_number_gt                1509
_reflns_threshold_expression     >2sigma(I)

_computing_data_collection       'Siemens SMART'
_computing_cell_refinement       'Siemens SMART & SAINT'
_computing_data_reduction        'Siemens XPREP'
_computing_structure_solution    'Siemens SHELXTL'
_computing_structure_refinement  'Siemens SHELXTL'
_computing_molecular_graphics    'Bruker SHELXTL'
_computing_publication_material  'Bruker SHELXTL'

_refine_special_details          
;
Refinement of F^2^ against ALL reflections. The weighted R-factor wR and
goodness of fit S are based on F^2^, conventional R-factors R are based
on F, with F set to zero for negative F^2^. The threshold expression of
F^2^ > 2sigma(F^2^) is used only for calculating R-factors(gt) etc. and is
not relevant to the choice of reflections for refinement. R-factors based
on F^2^ are statistically about twice as large as those based on F, and R-
factors based on ALL data will be even larger.
;

_refine_ls_structure_factor_coef Fsqd
_refine_ls_matrix_type           full
_refine_ls_weighting_scheme      calc
_refine_ls_weighting_details     
'calc w=1/[\s^2^(Fo^2^)+(0.1167P)^2^+11.2550P] where P=(Fo^2^+2Fc^2^)/3'
_atom_sites_solution_primary     direct
_atom_sites_solution_secondary   difmap
_atom_sites_solution_hydrogens   geom
_refine_ls_hydrogen_treatment    mixed
_refine_ls_extinction_method     none
_refine_ls_extinction_coef       ?
_refine_ls_number_reflns         1880
_refine_ls_number_parameters     87
_refine_ls_number_restraints     0
_refine_ls_R_factor_ref          0.0713
_refine_ls_R_factor_gt           0.0590
_refine_ls_wR_factor_ref         0.2133
_refine_ls_wR_factor_gt          0.2017
_refine_ls_goodness_of_fit_ref   1.104
_refine_ls_restrained_S_all      1.104
_refine_ls_shift/su_max          0.001
_refine_ls_shift/su_mean         0.000

loop_
_atom_site_label
_atom_site_type_symbol
_atom_site_fract_x
_atom_site_fract_y
_atom_site_fract_z
_atom_site_U_iso_or_equiv
_atom_site_adp_type
_atom_site_occupancy
_atom_site_symmetry_multiplicity
_atom_site_calc_flag
_atom_site_refinement_flags
_atom_site_disorder_assembly
_atom_site_disorder_group
Cu2 Cu 0.24114(5) 0.2245(2) 0.69260(7) 0.0447(4) Uani 1 1 d . . .
I1 I 0.19355(2) 0.24256(10) 0.77251(3) 0.0379(3) Uani 1 1 d . . .
S1 S 0.06029(8) 0.5491(6) 0.26600(12) 0.0499(6) Uani 1 1 d . . .
S2 S 0.0000 0.8310(8) 0.2500 0.0509(8) Uani 1 2 d S . .
N1 N 0.1807(3) 0.2863(16) 0.5595(4) 0.0402(16) Uani 1 1 d . . .
C1 C 0.1870(4) 0.193(2) 0.4988(6) 0.0442(18) Uani 1 1 d . . .
H1A H 0.2179 0.0715 0.5174 0.053 Uiso 1 1 calc R . .
C2 C 0.1491(4) 0.2673(18) 0.4071(6) 0.045(2) Uani 1 1 d . . .
H2A H 0.1545 0.1911 0.3665 0.054 Uiso 1 1 calc R . .
C3 C 0.1050(3) 0.4519(19) 0.3802(5) 0.0401(16) Uani 1 1 d . . .
C4 C 0.0974(3) 0.549(2) 0.4434(5) 0.051(2) Uani 1 1 d . . .
H4A H 0.0668 0.6696 0.4268 0.061 Uiso 1 1 calc R . .
C5 C 0.1367(3) 0.461(2) 0.5314(5) 0.052(2) Uani 1 1 d . . .
H5A H 0.1318 0.5287 0.5731 0.062 Uiso 1 1 calc R . .

loop_
_atom_site_aniso_label
_atom_site_aniso_U_11
_atom_site_aniso_U_22
_atom_site_aniso_U_33
_atom_site_aniso_U_23
_atom_site_aniso_U_13
_atom_site_aniso_U_12
Cu2 0.0478(6) 0.0468(7) 0.0411(6) 0.0036(4) 0.0276(5) 0.0067(4)
I1 0.0492(4) 0.0273(4) 0.0539(5) 0.00120(16) 0.0398(4) -0.00048(15)
S1 0.0444(10) 0.0678(15) 0.0364(9) -0.0005(9) 0.0237(8) -0.0039(9)
S2 0.0467(15) 0.0454(15) 0.0410(14) 0.000 0.0159(12) 0.000
N1 0.039(3) 0.049(4) 0.031(3) 0.000(2) 0.021(3) -0.001(2)
C1 0.045(4) 0.046(4) 0.050(4) 0.004(4) 0.032(4) 0.006(3)
C2 0.054(5) 0.048(5) 0.045(4) -0.002(3) 0.035(4) 0.002(3)
C3 0.039(3) 0.044(4) 0.036(3) -0.008(3) 0.022(3) -0.012(3)
C4 0.051(4) 0.064(6) 0.040(4) 0.001(4) 0.028(4) 0.015(4)
C5 0.053(4) 0.068(6) 0.039(4) 0.003(4) 0.030(3) 0.013(4)

_geom_special_details            
;
All esds (except the esd in the dihedral angle between two l.s. planes)
are estimated using the full covariance matrix. The cell esds are taken
into account individually in the estimation of esds in distances, angles
and torsion angles; correlations between esds in cell parameters are only
used when they are defined by crystal symmetry. An approximate (isotropic)
treatment of cell esds is used for estimating esds involving l.s. planes.
;

loop_
_geom_bond_atom_site_label_1
_geom_bond_atom_site_label_2
_geom_bond_distance
_geom_bond_site_symmetry_2
_geom_bond_publ_flag
Cu2 N1 2.045(6) . ?
Cu2 I1 2.6253(13) 4_546 ?
Cu2 I1 2.6376(16) . ?
Cu2 I1 2.7444(14) 4_556 ?
Cu2 Cu2 2.8274(18) 4_556 ?
Cu2 Cu2 2.8274(18) 4_546 ?
I1 Cu2 2.6253(14) 4_556 ?
I1 Cu2 2.7444(14) 4_546 ?
S1 C3 1.767(7) . ?
S1 S2 2.042(3) . ?
S2 S1 2.042(3) 2 ?
N1 C5 1.319(11) . ?
N1 C1 1.326(12) . ?
C1 C2 1.419(12) . ?
C1 H1A 0.9300 . ?
C2 C3 1.352(12) . ?
C2 H2A 0.9300 . ?
C3 C4 1.403(11) . ?
C4 C5 1.388(11) . ?
C4 H4A 0.9300 . ?
C5 H5A 0.9300 . ?

loop_
_geom_angle_atom_site_label_1
_geom_angle_atom_site_label_2
_geom_angle_atom_site_label_3
_geom_angle
_geom_angle_site_symmetry_1
_geom_angle_site_symmetry_3
_geom_angle_publ_flag
N1 Cu2 I1 112.9(2) . 4_546 ?
N1 Cu2 I1 107.6(2) . . ?
I1 Cu2 I1 117.86(5) 4_546 . ?
N1 Cu2 I1 100.2(2) . 4_556 ?
I1 Cu2 I1 103.18(6) 4_546 4_556 ?
I1 Cu2 I1 113.76(4) . 4_556 ?
N1 Cu2 Cu2 117.4(2) . 4_556 ?
I1 Cu2 Cu2 128.00(7) 4_546 4_556 ?
I1 Cu2 Cu2 57.29(5) . 4_556 ?
I1 Cu2 Cu2 56.48(3) 4_556 4_556 ?
N1 Cu2 Cu2 130.5(2) . 4_546 ?
I1 Cu2 Cu2 57.71(3) 4_546 4_546 ?
I1 Cu2 Cu2 60.17(5) . 4_546 ?
I1 Cu2 Cu2 129.07(6) 4_556 4_546 ?
Cu2 Cu2 Cu2 96.18(8) 4_556 4_546 ?
Cu2 I1 Cu2 64.99(4) 4_556 . ?
Cu2 I1 Cu2 103.18(6) 4_556 4_546 ?
Cu2 I1 Cu2 63.35(4) . 4_546 ?
C3 S1 S2 106.1(3) . . ?
S1 S2 S1 109.0(2) . 2 ?
C5 N1 C1 116.9(7) . . ?
C5 N1 Cu2 120.4(6) . . ?
C1 N1 Cu2 122.1(6) . . ?
N1 C1 C2 123.6(8) . . ?
N1 C1 H1A 118.2 . . ?
C2 C1 H1A 118.2 . . ?
C3 C2 C1 118.4(8) . . ?
C3 C2 H2A 120.8 . . ?
C1 C2 H2A 120.8 . . ?
C2 C3 C4 118.6(7) . . ?
C2 C3 S1 116.8(6) . . ?
C4 C3 S1 124.6(6) . . ?
C5 C4 C3 118.2(7) . . ?
C5 C4 H4A 120.9 . . ?
C3 C4 H4A 120.9 . . ?
N1 C5 C4 124.2(8) . . ?
N1 C5 H5A 117.9 . . ?
C4 C5 H5A 117.9 . . ?

_diffrn_measured_fraction_theta_max 0.851
_diffrn_reflns_theta_full        27.48
_diffrn_measured_fraction_theta_full 0.851
_refine_diff_density_max         1.470
_refine_diff_density_min         -0.904
_refine_diff_density_rms         0.180
