
#######################################################################
#
#                 Cambridge Crystallographic Data Centre
#                                CCDC
#
#######################################################################
#
# If this CIF has been generated from an entry in the Cambridge
# Structural Database, then it will include bibliographic, chemical,
# crystal, experimental, refinement or atomic coordinate data resulting
# from the CCDC's data processing and validation procedures.
#
#######################################################################

data_CSD_CIF_VIXQOK02
_audit_creation_date 2019-10-29
_audit_creation_method CSD-ConQuest-V1
_database_code_CSD VIXQOK02
_database_code_depnum_ccdc_archive 'CCDC 1937607'
_chemical_formula_sum 'C11 H12 N2 O2'
_chemical_formula_moiety
;
C11 H12 N2 O2
;
_journal_coden_Cambridge 69
_journal_volume 131
_journal_year 2019
_journal_page_first 18964
_journal_name_full 'Angew.Chem. '
loop_
_publ_author_name
"O.Al Rahal"
"Colan Hughes"
"A.Williams"
"A.J.Logsdail"
"Y.Diskin-Posner"
"K.D.M.Harris"
_chemical_name_systematic
;
2-azaniumyl-3-(1H-indol-3-yl)propanoate
;
_chemical_name_common
;
L-Tryptophan; Teaching Subset: Essential Nutrients
;
_cell_volume    984.878
_exptl_special_details
;
beta polymorph
powder data

;
_exptl_crystal_preparation 'Sublimation'
_diffrn_ambient_temperature 294
#These two values have been output from a single CSD field.
_refine_ls_R_factor_gt 0.082
_refine_ls_wR_factor_gt 0.082
_symmetry_cell_setting monoclinic
_symmetry_space_group_name_H-M 'P 21'
_symmetry_Int_Tables_number 4
loop_
_symmetry_equiv_pos_site_id
_symmetry_equiv_pos_as_xyz
1 x,y,z
2 -x,1/2+y,-z
_cell_length_a 9.60851(28)
_cell_length_b 5.20198(14)
_cell_length_c 19.7511(6)
_cell_angle_alpha 90
_cell_angle_beta 93.9514(33)
_cell_angle_gamma 90
_cell_formula_units_Z 4
loop_
_atom_type_symbol
_atom_type_radius_bond
C 0.68
H 0.23
N 0.68
O 0.68
loop_
_atom_site_label
_atom_site_type_symbol
_atom_site_fract_x
_atom_site_fract_y
_atom_site_fract_z
C1 C 0.8028(6) 0.0857(11) 0.76354(21)
C2 C 0.8347(6) -0.0739(11) 0.82577(20)
H1 H 0.9371(8) -0.1650(15) 0.8212(4)
H2 H 0.7604(9) -0.2351(16) 0.82700(29)
C3 C 0.8414(8) 0.0531(15) 0.89645(15)
H3 H 0.9278(9) 0.1914(20) 0.9014(4)
N1 N 0.8733(15) -0.1589(22) 0.9462(4)
H4 H 0.9769(31) -0.231(10) 0.9419(29)
H5 H 0.803(5) -0.309(7) 0.9370(23)
H6 H 0.866(8) -0.090(4) 0.9954(4)
C4 C 0.7052(8) 0.1782(18) 0.91635(14)
O1 O 0.6184(10) 0.0332(22) 0.94311(16)
O2 O 0.6874(9) 0.4154(18) 0.90520(18)
C5 C 0.7130(5) 0.2906(12) 0.7516(4)
H7 H 0.6442(6) 0.3833(18) 0.7853(6)
C6 C 0.8681(5) 0.0435(10) 0.70109(24)
C7 C 0.9678(5) -0.1332(12) 0.6805(5)
H8 H 1.0126(7) -0.2786(11) 0.7153(7)
C8 C 1.0089(6) -0.1199(19) 0.6144(5)
H9 H 1.0861(7) -0.2556(23) 0.5980(8)
C9 C 0.9524(10) 0.0661(22) 0.56828(35)
H10 H 0.9870(13) 0.0712(30) 0.5169(4)
C10 C 0.8535(10) 0.2429(18) 0.58714(26)
H11 H 0.8099(13) 0.3866(20) 0.5516(4)
C11 C 0.8121(6) 0.2296(11) 0.65346(28)
N2 N 0.7184(6) 0.3755(9) 0.6859(4)
H12 H 0.6611(7) 0.5249(9) 0.6655(6)
C12 C 0.3286(6) 0.6146(11) 0.76809(20)
C13 C 0.3888(5) 0.7846(10) 0.82357(20)
H13 H 0.3542(9) 0.9841(11) 0.81403(34)
H14 H 0.5030(5) 0.7910(16) 0.8212(4)
C14 C 0.3599(7) 0.7254(14) 0.89695(13)
H15 H 0.4322(8) 0.8480(16) 0.92783(26)
N3 N 0.3900(11) 0.4590(14) 0.92175(26)
H16 H 0.4947(9) 0.4149(26) 0.9152(21)
H17 H 0.3224(17) 0.3170(18) 0.9018(13)
H18 H 0.381(5) 0.4605(20) 0.97451(30)
C15 C 0.2138(7) 0.8092(18) 0.91329(10)
O3 O 0.1319(9) 0.6352(22) 0.93314(13)
O4 O 0.1887(9) 1.0445(19) 0.90537(15)
C16 C 0.2332(5) 0.4160(12) 0.7671(4)
H19 H 0.1767(7) 0.3322(18) 0.8075(5)
C17 C 0.3685(5) 0.6413(9) 0.69989(24)
C18 C 0.4610(5) 0.8083(11) 0.6698(5)
H20 H 0.5194(6) 0.9538(10) 0.6997(7)
C19 C 0.4769(7) 0.7844(18) 0.6008(5)
H21 H 0.5484(8) 0.9131(22) 0.5769(7)
C20 C 0.4023(10) 0.5972(21) 0.56148(31)
H22 H 0.4177(13) 0.5848(28) 0.50752(32)
C21 C 0.3101(9) 0.4291(16) 0.59005(30)
H23 H 0.2527(11) 0.2847(18) 0.5594(5)
C22 C 0.2941(5) 0.4531(10) 0.65963(30)
N4 N 0.2129(5) 0.3194(8) 0.7020(4)
H24 H 0.1472(5) 0.1716(9) 0.6881(6)
#END
