####################################################################### 
# 
# This file contains crystal structure data downloaded from the 
# Cambridge Structural Database (CSD) hosted by the Cambridge 
# Crystallographic Data Centre (CCDC).
# 
# Full information about CCDC data access policies and citation 
# guidelines are available at http://www.ccdc.cam.ac.uk/access/V1 
# 
# Audit and citation data items may have been added by the CCDC. 
# Please retain this information to preserve the provenance of 
# this file and to allow appropriate attribution of the data. 
# 
#######################################################################

data_x1308fin
_audit_block_doi                 10.5517/cc115b9v
_database_code_depnum_ccdc_archive 'CCDC 958436'
loop_
_citation_id
_citation_doi
_citation_year
1 10.1039/C3DT53543F 2014
_audit_update_record             
;
2014-01-27 deposited with the CCDC.	2024-07-13 downloaded from the CCDC.
;

_audit_creation_date             2014-01-21T17:44:36-00:00
_audit_creation_method           'WinGX routine CIF_UPDATE'
_audit_conform_dict_name         cif_core.dic
_audit_conform_dict_version      2.4
_audit_conform_dict_location     ftp://ftp.iucr.org/pub/cif_core.dic

#----------------------------------------------------------------------------#
#                   CHEMICAL INFORMATION                                     #
#----------------------------------------------------------------------------#

_chemical_name_systematic        
;
 ?
;
_chemical_formula_sum            'C170 H204 Cd2 N18 O31 P4'
_chemical_formula_weight         3344.19
_chemical_absolute_configuration rmad

#----------------------------------------------------------------------------#
#                   UNIT CELL INFORMATION                                    #
#----------------------------------------------------------------------------#

_symmetry_cell_setting           Monoclinic
_symmetry_space_group_name_H-M   C2
loop_
_symmetry_equiv_pos_as_xyz
'x, y, z'
'-x, y, -z'
'x+1/2, y+1/2, z'
'-x+1/2, y+1/2, -z'

_cell_length_a                   32.8047(8)
_cell_length_b                   16.8286(5)
_cell_length_c                   31.6834(8)
_cell_angle_alpha                90
_cell_angle_beta                 91.867(2)
_cell_angle_gamma                90
_cell_volume                     17481.8(8)
_cell_formula_units_Z            4
_cell_measurement_temperature    130(2)
_cell_measurement_reflns_used    13841
_cell_measurement_theta_min      2.9491
_cell_measurement_theta_max      51.3708

#----------------------------------------------------------------------------#
#                   CRYSTAL INFORMATION                                      #
#----------------------------------------------------------------------------#

_exptl_crystal_description       platelet
_exptl_crystal_colour            colorless
_exptl_crystal_size_max          0.5
_exptl_crystal_size_mid          0.2
_exptl_crystal_size_min          0.05
_exptl_crystal_density_diffrn    1.271
_exptl_crystal_density_method    'not measured'
_exptl_crystal_F_000             7016
_exptl_special_details           
;
 ?
;

#----------------------------------------------------------------------------#
#                   ABSORPTION CORRECTION                                    #
#----------------------------------------------------------------------------#

_exptl_absorpt_coefficient_mu    2.894
_exptl_absorpt_correction_type   multi-scan
_exptl_absorpt_process_details   
;
        CrysAlisPro, Agilent Technologies,
        Version 1.171.35.11 (release 16-05-2011 CrysAlis171 .NET)
        (compiled May 16 2011,17:55:39)
        Empirical absorption correction using spherical harmonics,
 implemented in SCALE3 ABSPACK scaling algorithm.
;
_exptl_absorpt_correction_T_min  0.55818
_exptl_absorpt_correction_T_max  1

#----------------------------------------------------------------------------#
#                   DATA COLLECTION                                          #
#----------------------------------------------------------------------------#

_diffrn_ambient_temperature      130(2)
_diffrn_radiation_wavelength     1.54184
_diffrn_radiation_type           CuK\a
_diffrn_radiation_monochromator  graphite
_diffrn_detector_area_resol_mean 16.356
_diffrn_orient_matrix_ub_11      0.0203817
_diffrn_orient_matrix_ub_12      0.0401791
_diffrn_orient_matrix_ub_13      -0.0375759
_diffrn_orient_matrix_ub_21      -0.0279076
_diffrn_orient_matrix_ub_22      0.0728952
_diffrn_orient_matrix_ub_23      0.0047655
_diffrn_orient_matrix_ub_31      0.0317973
_diffrn_orient_matrix_ub_32      0.0380772
_diffrn_orient_matrix_ub_33      0.0305839
_diffrn_measurement_device_type  'Xcalibur, Sapphire3, Gemini'
_diffrn_measurement_method       '\w scans'
_diffrn_reflns_av_R_equivalents  0.0393
_diffrn_reflns_av_unetI/netI     0.0621
_diffrn_reflns_number            48559
_diffrn_reflns_limit_h_min       -32
_diffrn_reflns_limit_h_max       31
_diffrn_reflns_limit_k_min       -16
_diffrn_reflns_limit_k_max       16
_diffrn_reflns_limit_l_min       -29
_diffrn_reflns_limit_l_max       31
_diffrn_reflns_theta_min         2.95
_diffrn_reflns_theta_max         50.44
_diffrn_reflns_theta_full        50.44
_diffrn_measured_fraction_theta_full 0.999
_diffrn_measured_fraction_theta_max 0.999
_reflns_number_total             18286
_reflns_number_gt                14550
_reflns_threshold_expression     >2\s(I)

#----------------------------------------------------------------------------#
#                   COMPUTER PROGRAMS USED                                   #
#----------------------------------------------------------------------------#

_computing_data_collection       
;
        CrysAlisPro, Agilent Technologies,
        Version 1.171.35.11 (release 16-05-2011 CrysAlis171 .NET)
        (compiled May 16 2011,17:55:39)
;
_computing_cell_refinement       
;
        CrysAlisPro, Agilent Technologies,
        Version 1.171.35.11 (release 16-05-2011 CrysAlis171 .NET)
        (compiled May 16 2011,17:55:39)
;
_computing_data_reduction        
;
        CrysAlisPro, Agilent Technologies,
        Version 1.171.35.11 (release 16-05-2011 CrysAlis171 .NET)
        (compiled May 16 2011,17:55:39)
;
_computing_structure_solution    
;
 SIR92
 A. Altomare, G. Cascarano, C. Giacovazzo and A. Guagliardi,
 J. Appl. Crystallogr. 1993, 26, 343-350.
;
_computing_structure_refinement  'SHELXL-97 (Sheldrick, 2008)'
_computing_molecular_graphics    
;
 ORTEP3 for Windows
 L. J. Farrugia, J. Appl. Crystallogr. 1997, 30, 565.
;
_computing_publication_material  
;
 WINGX
 L.J. Farrugia,
 J. Appl. Cryst., 1999, 32, 837-838.
;

#----------------------------------------------------------------------------#
#                   STRUCTURE SOLUTION
#----------------------------------------------------------------------------#

_atom_sites_solution_primary     direct
_atom_sites_solution_secondary   difmap
_atom_sites_solution_hydrogens   geom

#----------------------------------------------------------------------------#
#                   REFINEMENT INFORMATION                                   #
#----------------------------------------------------------------------------#

_refine_special_details          
;
 Refinement of F^2^ against ALL reflections.  The weighted R-factor wR and
 goodness of fit S are based on F^2^, conventional R-factors R are based
 on F, with F set to zero for negative F^2^. The threshold expression of
 F^2^ > 2\s(F^2^) is used only for calculating R-factors(gt) etc. and is
 not relevant to the choice of reflections for refinement.  R-factors based
 on F^2^ are statistically about twice as large as those based on F, and R-
 factors based on ALL data will be even larger.

 Restraints are used only to model the shape of some poorly defined solvent
 dmf-molecules. The atoms of 6 solvent dmf molecules starting from 
 O(202) to O(207) are forced to be planar. For the solvent molecules 
 starting from O(204) to O(207) the isotropic displacement parameters
 are assumed to have the same value within one molecule.
;
_refine_ls_structure_factor_coef Fsqd
_refine_ls_matrix_type           full
_refine_ls_weighting_scheme      calc
_refine_ls_weighting_details     
'calc w=1/[\s^2^(Fo^2^)+(0.1146P)^2^+0.0000P] where P=(Fo^2^+2Fc^2^)/3'
_refine_ls_hydrogen_treatment    constr
_refine_ls_extinction_method     none
_refine_ls_number_reflns         18286
_refine_ls_number_parameters     1360
_refine_ls_number_restraints     181
_refine_ls_R_factor_all          0.0763
_refine_ls_R_factor_gt           0.0604
_refine_ls_wR_factor_ref         0.1692
_refine_ls_wR_factor_gt          0.1578
_refine_ls_goodness_of_fit_ref   1
_refine_ls_restrained_S_all      1.004
_refine_ls_shift/su_max          0.001
_refine_ls_shift/su_mean         0
_refine_ls_abs_structure_details 'Flack H D (1983), Acta Cryst. A39, 876-881'
_refine_ls_abs_structure_Flack   0.009(6)
_refine_diff_density_max         0.786
_refine_diff_density_min         -0.436
_refine_diff_density_rms         0.065

#----------------------------------------------------------------------------#
#                   ATOMIC TYPES, COORDINATES AND THERMAL PARAMETERS         #
#----------------------------------------------------------------------------#

loop_
_atom_type_symbol
_atom_type_description
_atom_type_scat_dispersion_real
_atom_type_scat_dispersion_imag
_atom_type_scat_source
Cd Cd 0.1185 4.6533 'International Tables Vol C Tables 4.2.6.8 and 6.1.1.4'
P P 0.2955 0.4335 'International Tables Vol C Tables 4.2.6.8 and 6.1.1.4'
O O 0.0492 0.0322 'International Tables Vol C Tables 4.2.6.8 and 6.1.1.4'
N N 0.0311 0.018 'International Tables Vol C Tables 4.2.6.8 and 6.1.1.4'
C C 0.0181 0.0091 'International Tables Vol C Tables 4.2.6.8 and 6.1.1.4'
H H 0 0 'International Tables Vol C Tables 4.2.6.8 and 6.1.1.4'

loop_
_atom_site_label
_atom_site_type_symbol
_atom_site_fract_x
_atom_site_fract_y
_atom_site_fract_z
_atom_site_U_iso_or_equiv
_atom_site_adp_type
_atom_site_occupancy
_atom_site_symmetry_multiplicity
_atom_site_calc_flag
_atom_site_refinement_flags
_atom_site_disorder_assembly
_atom_site_disorder_group
Cd1 Cd 0.590032(16) 0.33988(3) 0.913326(16) 0.05222(19) Uani 1 1 d . . .
Cd2 Cd 0.357569(18) 0.35993(4) 0.643308(19) 0.0666(2) Uani 1 1 d . . .
P1 P 0.56972(7) 0.54003(14) 0.91218(7) 0.0505(6) Uani 1 1 d . . .
P2 P 0.68113(7) 0.44968(13) 0.88383(7) 0.0487(6) Uani 1 1 d . . .
P3 P 0.38203(7) 0.17278(17) 0.58447(7) 0.0635(7) Uani 1 1 d . . .
P4 P 0.32186(7) 0.18951(14) 0.69373(7) 0.0513(6) Uani 1 1 d . . .
O1 O 0.55875(15) 0.4546(3) 0.92234(15) 0.0486(14) Uani 1 1 d . . .
O2 O 0.63946(16) 0.4239(3) 0.89598(16) 0.0502(14) Uani 1 1 d . . .
O3 O 0.4194(2) 0.4402(5) 0.6473(2) 0.092(2) Uani 1 1 d . . .
O4 O 0.41089(17) 0.3473(5) 0.69137(19) 0.0782(18) Uani 1 1 d . . .
O5 O 0.88258(17) 0.8261(4) 1.01989(16) 0.0599(16) Uani 1 1 d . . .
O6 O 0.86274(18) 0.7409(3) 1.06816(19) 0.0609(16) Uani 1 1 d . . .
O7 O 0.36494(16) 0.2446(4) 0.60531(17) 0.0589(16) Uani 1 1 d . . .
O8 O 0.32661(17) 0.2759(3) 0.68740(15) 0.0565(15) Uani 1 1 d . . .
O9 O 0.1551(2) -0.0799(4) 0.4227(2) 0.081(2) Uani 1 1 d . . .
O10 O 0.2083(2) -0.1210(4) 0.3910(2) 0.077(2) Uani 1 1 d . . .
O11 O 0.5316(2) 0.2718(4) 0.8941(2) 0.080(2) Uani 1 1 d . . .
O12 O 0.5732(2) 0.3020(4) 0.84551(18) 0.0692(18) Uani 1 1 d . . .
O13 O 0.3341(2) 0.4690(5) 0.6853(2) 0.102(3) Uani 1 1 d . . .
H13A H 0.3325 0.5187 0.6686 0.122 Uiso 1 1 d R . .
H13B H 0.3069 0.4575 0.6965 0.122 Uiso 1 1 d R . .
C1 C 0.5871(2) 0.5500(5) 0.8583(2) 0.043(2) Uani 1 1 d . . .
C2 C 0.6235(2) 0.5803(5) 0.8436(3) 0.050(2) Uani 1 1 d . . .
C3 C 0.6300(2) 0.5841(5) 0.7994(2) 0.045(2) Uani 1 1 d . . .
C4 C 0.6657(3) 0.6155(5) 0.7839(3) 0.056(2) Uani 1 1 d . . .
H4 H 0.6865 0.6338 0.8031 0.067 Uiso 1 1 calc R . .
C5 C 0.6715(3) 0.6206(6) 0.7411(3) 0.062(3) Uani 1 1 d . . .
H5 H 0.6962 0.6417 0.731 0.074 Uiso 1 1 calc R . .
C6 C 0.6415(3) 0.5953(6) 0.7131(3) 0.065(3) Uani 1 1 d . . .
H6 H 0.6457 0.5981 0.6836 0.078 Uiso 1 1 calc R . .
C7 C 0.6068(3) 0.5669(6) 0.7270(3) 0.069(3) Uani 1 1 d . . .
H7 H 0.5862 0.5516 0.7069 0.082 Uiso 1 1 calc R . .
C8 C 0.5989(3) 0.5584(5) 0.7707(2) 0.049(2) Uani 1 1 d . . .
C9 C 0.5613(2) 0.5253(5) 0.7864(3) 0.049(2) Uani 1 1 d . . .
C10 C 0.5568(3) 0.5236(5) 0.8283(2) 0.049(2) Uani 1 1 d . . .
H10 H 0.5319 0.5036 0.8385 0.059 Uiso 1 1 calc R . .
C11 C 0.6857(2) 0.5562(5) 0.8907(2) 0.048(2) Uani 1 1 d . . .
C12 C 0.6576(2) 0.6072(5) 0.8724(2) 0.043(2) Uani 1 1 d . . .
C13 C 0.6623(3) 0.6923(5) 0.8781(2) 0.052(2) Uani 1 1 d . . .
C14 C 0.6341(3) 0.7474(6) 0.8585(3) 0.068(3) Uani 1 1 d . . .
H14 H 0.612 0.7285 0.8411 0.082 Uiso 1 1 calc R . .
C15 C 0.6392(3) 0.8265(6) 0.8649(3) 0.074(3) Uani 1 1 d . . .
H15 H 0.6203 0.8626 0.852 0.089 Uiso 1 1 calc R . .
C16 C 0.6729(3) 0.8574(7) 0.8910(3) 0.087(3) Uani 1 1 d . . .
H16 H 0.6759 0.9129 0.8956 0.104 Uiso 1 1 calc R . .
C17 C 0.7000(3) 0.8043(6) 0.9088(3) 0.066(3) Uani 1 1 d . . .
H17 H 0.7225 0.8243 0.9253 0.08 Uiso 1 1 calc R . .
C18 C 0.6963(2) 0.7225(5) 0.9038(2) 0.050(2) Uani 1 1 d . . .
C19 C 0.7246(2) 0.6670(5) 0.9229(2) 0.0398(19) Uani 1 1 d . . .
C20 C 0.7198(2) 0.5899(6) 0.9168(2) 0.049(2) Uani 1 1 d . . .
H20 H 0.7389 0.5546 0.9299 0.058 Uiso 1 1 calc R . .
C21 C 0.5293(2) 0.4942(5) 0.7575(2) 0.047(2) Uani 1 1 d . . .
C22 C 0.5120(3) 0.5419(6) 0.7254(3) 0.071(3) Uani 1 1 d . . .
H22 H 0.5222 0.5937 0.7202 0.086 Uiso 1 1 calc R . .
C23 C 0.4791(3) 0.5108(7) 0.7010(3) 0.074(3) Uani 1 1 d . . .
H23 H 0.4667 0.5432 0.6796 0.089 Uiso 1 1 calc R . .
C24 C 0.4643(3) 0.4357(6) 0.7070(3) 0.059(2) Uani 1 1 d . . .
C25 C 0.4827(3) 0.3906(6) 0.7388(3) 0.069(3) Uani 1 1 d . . .
H25 H 0.473 0.3384 0.744 0.083 Uiso 1 1 calc R . .
C26 C 0.5151(3) 0.4207(6) 0.7632(3) 0.071(3) Uani 1 1 d . . .
H26 H 0.5275 0.3882 0.7846 0.085 Uiso 1 1 calc R . .
C27 C 0.4295(3) 0.4072(6) 0.6799(3) 0.055(2) Uani 1 1 d . . .
C28 C 0.7598(2) 0.6932(5) 0.9491(2) 0.049(2) Uani 1 1 d . . .
C29 C 0.7879(3) 0.7488(5) 0.9354(3) 0.053(2) Uani 1 1 d . . .
H29 H 0.7849 0.7705 0.9078 0.063 Uiso 1 1 calc R . .
C30 C 0.8203(3) 0.7726(5) 0.9618(3) 0.056(2) Uani 1 1 d . . .
H30 H 0.8389 0.8116 0.9525 0.067 Uiso 1 1 calc R . .
C31 C 0.8254(2) 0.7385(5) 1.0029(3) 0.051(2) Uani 1 1 d . . .
C32 C 0.7978(2) 0.6831(5) 1.0158(2) 0.047(2) Uani 1 1 d . . .
H32 H 0.8005 0.6604 1.0432 0.057 Uiso 1 1 calc R . .
C33 C 0.7665(2) 0.6606(5) 0.9890(3) 0.050(2) Uani 1 1 d . . .
H33 H 0.7483 0.6206 0.9982 0.06 Uiso 1 1 calc R . .
C34 C 0.8598(3) 0.7720(6) 1.0311(3) 0.057(2) Uani 1 1 d . . .
C35 C 0.5236(3) 0.6006(5) 0.9131(3) 0.056(2) Uani 1 1 d . . .
C36 C 0.5187(3) 0.6682(7) 0.8891(3) 0.090(3) Uani 1 1 d . . .
H36 H 0.5397 0.6862 0.8715 0.108 Uiso 1 1 calc R . .
C37 C 0.4820(4) 0.7095(8) 0.8915(4) 0.118(5) Uani 1 1 d . . .
H37 H 0.477 0.7534 0.8732 0.141 Uiso 1 1 calc R . .
C38 C 0.4526(4) 0.6881(8) 0.9199(4) 0.095(3) Uani 1 1 d . . .
H38 H 0.4282 0.7177 0.9227 0.114 Uiso 1 1 calc R . .
C39 C 0.4610(3) 0.6217(7) 0.9435(3) 0.074(3) Uani 1 1 d . . .
H39 H 0.4415 0.6052 0.9633 0.089 Uiso 1 1 calc R . .
C40 C 0.4950(3) 0.5788(6) 0.9405(3) 0.055(2) Uani 1 1 d . . .
H40 H 0.499 0.5329 0.9575 0.067 Uiso 1 1 calc R . .
C41 C 0.6031(3) 0.5833(6) 0.9523(3) 0.053(2) Uani 1 1 d . . .
C42 C 0.6056(2) 0.6639(6) 0.9581(3) 0.058(2) Uani 1 1 d . . .
H42 H 0.5909 0.6983 0.9393 0.07 Uiso 1 1 calc R . .
C43 C 0.6286(3) 0.6950(6) 0.9900(3) 0.071(3) Uani 1 1 d . . .
H43 H 0.6293 0.7508 0.9946 0.085 Uiso 1 1 calc R . .
C44 C 0.6519(3) 0.6424(7) 1.0170(3) 0.071(3) Uani 1 1 d . . .
H44 H 0.6693 0.664 1.0386 0.085 Uiso 1 1 calc R . .
C45 C 0.6496(3) 0.5633(7) 1.0123(3) 0.062(3) Uani 1 1 d . . .
H45 H 0.6638 0.5287 1.0314 0.075 Uiso 1 1 calc R . .
C46 C 0.6252(2) 0.5323(6) 0.9777(3) 0.055(2) Uani 1 1 d . . .
H46 H 0.6243 0.4767 0.9725 0.067 Uiso 1 1 calc R . .
C47 C 0.6902(3) 0.4288(6) 0.8295(3) 0.056(2) Uani 1 1 d . . .
C48 C 0.6606(3) 0.3933(6) 0.8057(3) 0.072(3) Uani 1 1 d . . .
H48 H 0.6358 0.3789 0.8185 0.087 Uiso 1 1 calc R . .
C49 C 0.6654(4) 0.3765(6) 0.7612(3) 0.095(4) Uani 1 1 d . . .
H49 H 0.6444 0.3527 0.7441 0.114 Uiso 1 1 calc R . .
C50 C 0.7027(5) 0.3976(7) 0.7456(4) 0.098(4) Uani 1 1 d . . .
H50 H 0.7078 0.3851 0.717 0.118 Uiso 1 1 calc R . .
C51 C 0.7328(4) 0.4360(7) 0.7692(4) 0.087(3) Uani 1 1 d . . .
H51 H 0.7577 0.4514 0.757 0.104 Uiso 1 1 calc R . .
C52 C 0.7257(3) 0.4513(5) 0.8114(3) 0.068(3) Uani 1 1 d . . .
H52 H 0.746 0.4782 0.828 0.082 Uiso 1 1 calc R . .
C53 C 0.7200(3) 0.4023(5) 0.9147(3) 0.052(2) Uani 1 1 d . . .
C54 C 0.7482(3) 0.3517(6) 0.9002(3) 0.070(3) Uani 1 1 d . . .
H54 H 0.7485 0.3414 0.8707 0.084 Uiso 1 1 calc R . .
C55 C 0.7764(3) 0.3149(7) 0.9260(4) 0.090(3) Uani 1 1 d . . .
H55 H 0.7947 0.2769 0.915 0.108 Uiso 1 1 calc R . .
C56 C 0.7779(3) 0.3347(8) 0.9703(4) 0.091(3) Uani 1 1 d . . .
H56 H 0.7984 0.3119 0.9883 0.109 Uiso 1 1 calc R . .
C57 C 0.7509(3) 0.3845(6) 0.9863(3) 0.069(3) Uani 1 1 d . . .
H57 H 0.7517 0.3966 1.0156 0.082 Uiso 1 1 calc R . .
C58 C 0.7217(3) 0.4181(5) 0.9597(3) 0.060(2) Uani 1 1 d . . .
H58 H 0.7021 0.4527 0.9711 0.071 Uiso 1 1 calc R . .
C59 C 0.3520(3) 0.0858(6) 0.5911(3) 0.058(2) Uani 1 1 d . . .
C60 C 0.3514(3) 0.0435(6) 0.6299(3) 0.059(2) Uani 1 1 d . . .
C61 C 0.3254(3) -0.0219(5) 0.6357(3) 0.057(2) Uani 1 1 d . . .
C62 C 0.3242(3) -0.0645(6) 0.6744(3) 0.058(2) Uani 1 1 d . . .
H62 H 0.3423 -0.0497 0.697 0.07 Uiso 1 1 calc R . .
C63 C 0.2985(3) -0.1243(6) 0.6799(3) 0.071(3) Uani 1 1 d . . .
H63 H 0.2982 -0.151 0.7063 0.085 Uiso 1 1 calc R . .
C64 C 0.2724(3) -0.1476(7) 0.6475(4) 0.090(3) Uani 1 1 d . . .
H64 H 0.2539 -0.19 0.6517 0.108 Uiso 1 1 calc R . .
C65 C 0.2729(3) -0.1102(7) 0.6092(3) 0.080(3) Uani 1 1 d . . .
H65 H 0.2551 -0.1284 0.587 0.096 Uiso 1 1 calc R . .
C66 C 0.2984(3) -0.0467(6) 0.6018(3) 0.060(2) Uani 1 1 d . . .
C67 C 0.2985(3) -0.0027(7) 0.5638(3) 0.069(3) Uani 1 1 d . . .
C68 C 0.3243(3) 0.0585(6) 0.5593(3) 0.060(3) Uani 1 1 d . . .
H68 H 0.3239 0.0852 0.5329 0.072 Uiso 1 1 calc R . .
C69 C 0.3710(3) 0.1344(5) 0.6898(3) 0.053(2) Uani 1 1 d . . .
C70 C 0.3793(2) 0.0697(5) 0.6665(2) 0.050(2) Uani 1 1 d . . .
C71 C 0.4147(3) 0.0277(6) 0.6755(3) 0.061(2) Uani 1 1 d . . .
C72 C 0.4246(3) -0.0412(6) 0.6526(3) 0.079(3) Uani 1 1 d . . .
H72 H 0.4065 -0.0572 0.6302 0.094 Uiso 1 1 calc R . .
C73 C 0.4590(3) -0.0868(7) 0.6608(4) 0.094(4) Uani 1 1 d . . .
H73 H 0.4648 -0.1334 0.6452 0.113 Uiso 1 1 calc R . .
C74 C 0.4860(3) -0.0577(7) 0.6955(3) 0.080(3) Uani 1 1 d . . .
H74 H 0.5098 -0.0875 0.7027 0.097 Uiso 1 1 calc R . .
C75 C 0.4792(3) 0.0035(7) 0.7156(3) 0.077(3) Uani 1 1 d . . .
H75 H 0.4982 0.019 0.7374 0.092 Uiso 1 1 calc R . .
C76 C 0.4432(3) 0.0532(5) 0.7072(3) 0.054(2) Uani 1 1 d . . .
C77 C 0.4337(3) 0.1256(5) 0.7301(2) 0.050(2) Uani 1 1 d . . .
C78 C 0.3985(2) 0.1634(5) 0.7224(2) 0.043(2) Uani 1 1 d . . .
H78 H 0.3917 0.209 0.7383 0.052 Uiso 1 1 calc R . .
C79 C 0.2690(3) -0.02