####################################################################### 
# 
# This file contains crystal structure data downloaded from the 
# Cambridge Structural Database (CSD) hosted by the Cambridge 
# Crystallographic Data Centre (CCDC).
# 
# Full information about CCDC data access policies and citation 
# guidelines are available at http://www.ccdc.cam.ac.uk/access/V1 
# 
# Audit and citation data items may have been added by the CCDC. 
# Please retain this information to preserve the provenance of 
# this file and to allow appropriate attribution of the data. 
# 
#######################################################################

data_compound2
_audit_block_doi                 10.5517/cc10kzk3
_database_code_depnum_ccdc_archive 'CCDC 940805'
loop_
_citation_id
_citation_doi
_citation_year
1 10.1016/j.inoche.2013.09.069 2013
_audit_update_record             
;
2013-08-17 deposited with the CCDC.	2024-07-13 downloaded from the CCDC.
;

_audit_creation_method           SHELXL-97
_chemical_name_systematic        
;
 ?
;
_chemical_name_common            ?
_chemical_melting_point          'not measured'
_chemical_formula_moiety         'C16 H9 Mn1.50 O8'
_chemical_formula_sum            'C16 H9 Mn1.50 O8'
_chemical_formula_weight         411.64

loop_
_atom_type_symbol
_atom_type_description
_atom_type_scat_dispersion_real
_atom_type_scat_dispersion_imag
_atom_type_scat_source
C C 0.0033 0.0016 'International Tables Vol C Tables 4.2.6.8 and 6.1.1.4'
H H 0.0000 0.0000 'International Tables Vol C Tables 4.2.6.8 and 6.1.1.4'
O O 0.0106 0.0060 'International Tables Vol C Tables 4.2.6.8 and 6.1.1.4'
Mn Mn 0.3368 0.7283 'International Tables Vol C Tables 4.2.6.8 and 6.1.1.4'

_symmetry_cell_setting           Monoclinic
_symmetry_space_group_name_H-M   C2/c
_symmetry_space_group_name_Hall  '-c 2yc'

loop_
_symmetry_equiv_pos_as_xyz
'x, y, z'
'-x, y, -z+1/2'
'x+1/2, y+1/2, z'
'-x+1/2, y+1/2, -z+1/2'
'-x, -y, -z'
'x, -y, z-1/2'
'-x+1/2, -y+1/2, -z'
'x+1/2, -y+1/2, z-1/2'

_cell_length_a                   34.493(5)
_cell_length_b                   9.953(5)
_cell_length_c                   18.104(5)
_cell_angle_alpha                90.000(5)
_cell_angle_beta                 93.380(5)
_cell_angle_gamma                90.000(5)
_cell_volume                     6204(4)
_cell_formula_units_Z            8
_cell_measurement_temperature    293(2)
_cell_measurement_reflns_used    ?
_cell_measurement_theta_min      2.3
_cell_measurement_theta_max      26.3

_exptl_crystal_description       block
_exptl_crystal_colour            yellow
_exptl_crystal_size_max          0.26
_exptl_crystal_size_mid          0.18
_exptl_crystal_size_min          0.10
_exptl_crystal_density_meas      ?
_exptl_crystal_density_diffrn    0.881
_exptl_crystal_density_method    'not measured'
_exptl_crystal_F_000             1652
_exptl_absorpt_coefficient_mu    0.642
_exptl_absorpt_correction_type   multi-scan
_exptl_absorpt_correction_T_min  0.227
_exptl_absorpt_correction_T_max  0.268
_exptl_absorpt_process_details   'SADABS (Sheldrick, 1996)'

_exptl_special_details           
;
 ?
;

_diffrn_ambient_temperature      293(2)
_diffrn_radiation_wavelength     0.71069
_diffrn_radiation_type           MoK\a
_diffrn_radiation_source         'fine-focus sealed tube'
_diffrn_radiation_monochromator  graphite
_diffrn_measurement_device_type  'Bruker SMART APEX CCD'
_diffrn_measurement_method       '\w scan'
_diffrn_detector_area_resol_mean ?
_diffrn_standards_number         ?
_diffrn_standards_interval_count ?
_diffrn_standards_interval_time  ?
_diffrn_standards_decay_%        ?
_diffrn_reflns_number            19713
_diffrn_reflns_av_R_equivalents  0.0769
_diffrn_reflns_av_sigmaI/netI    0.0977
_diffrn_reflns_limit_h_min       -42
_diffrn_reflns_limit_h_max       42
_diffrn_reflns_limit_k_min       -12
_diffrn_reflns_limit_k_max       12
_diffrn_reflns_limit_l_min       -21
_diffrn_reflns_limit_l_max       22
_diffrn_reflns_theta_min         2.25
_diffrn_reflns_theta_max         26.29
_reflns_number_total             6146
_reflns_number_gt                3405
_reflns_threshold_expression     >2sigma(I)

_computing_data_collection       'SMART (Bruker, 1997)'
_computing_cell_refinement       'SAINT (Bruker, 1999)'
_computing_data_reduction        'SAINT (Bruker, 1999)'
_computing_structure_solution    'SHELXS-97(Sheldrick, 1997)'
_computing_structure_refinement  'SHELXL-97 (Sheldrick, 1997)'
_computing_molecular_graphics    'SHELXTL-PLUS (Sheldrick, 1990)'
_computing_publication_material  SHELXL-97

_refine_special_details          
;
 Refinement of F^2^ against ALL reflections.  The weighted R-factor wR and
 goodness of fit S are based on F^2^, conventional R-factors R are based
 on F, with F set to zero for negative F^2^. The threshold expression of
 F^2^ > 2sigma(F^2^) is used only for calculating R-factors(gt) etc. and is
 not relevant to the choice of reflections for refinement.  R-factors based
 on F^2^ are statistically about twice as large as those based on F, and R-
 factors based on ALL data will be even larger.
;

_refine_ls_structure_factor_coef Fsqd
_refine_ls_matrix_type           full
_refine_ls_weighting_scheme      calc
_refine_ls_weighting_details     
'calc w=1/[\s^2^(Fo^2^)+(0.0803P)^2^+0.0000P] where P=(Fo^2^+2Fc^2^)/3'
_atom_sites_solution_primary     direct
_atom_sites_solution_secondary   difmap
_atom_sites_solution_hydrogens   geom
_refine_ls_hydrogen_treatment    mixed
_refine_ls_extinction_method     none
_refine_ls_extinction_coef       ?
_refine_ls_number_reflns         6146
_refine_ls_number_parameters     235
_refine_ls_number_restraints     8
_refine_ls_R_factor_all          0.0884
_refine_ls_R_factor_gt           0.0566
_refine_ls_wR_factor_ref         0.1508
_refine_ls_wR_factor_gt          0.1400
_refine_ls_goodness_of_fit_ref   0.844
_refine_ls_restrained_S_all      0.847
_refine_ls_shift/su_max          0.001
_refine_ls_shift/su_mean         0.000

loop_
_atom_site_label
_atom_site_type_symbol
_atom_site_fract_x
_atom_site_fract_y
_atom_site_fract_z
_atom_site_U_iso_or_equiv
_atom_site_adp_type
_atom_site_occupancy
_atom_site_symmetry_multiplicity
_atom_site_calc_flag
_atom_site_refinement_flags
_atom_site_disorder_assembly
_atom_site_disorder_group
C1 C 0.31506(12) 0.1260(4) 0.4069(2) 0.0503(10) Uani 1 1 d . . .
C2 C 0.31356(11) 0.0528(4) 0.33436(19) 0.0487(10) Uani 1 1 d . . .
C3 C 0.28075(12) -0.0144(5) 0.3116(2) 0.0758(15) Uani 1 1 d . . .
H3 H 0.2592 -0.0124 0.3402 0.091 Uiso 1 1 calc R . .
C4 C 0.27917(13) -0.0856(5) 0.2463(2) 0.0759(15) Uani 1 1 d . . .
H4 H 0.2567 -0.1322 0.2316 0.091 Uiso 1 1 calc R . .
C5 C 0.31044(11) -0.0889(4) 0.2023(2) 0.0474(10) Uani 1 1 d . . .
C6 C 0.34322(13) -0.0189(5) 0.2252(2) 0.0755(15) Uani 1 1 d . . .
H6 H 0.3646 -0.0195 0.1962 0.091 Uiso 1 1 calc R . .
C7 C 0.34496(12) 0.0526(5) 0.2907(2) 0.0757(15) Uani 1 1 d . . .
H7 H 0.3673 0.1005 0.3053 0.091 Uiso 1 1 calc R . .
C8 C 0.30928(13) -0.1685(4) 0.1311(2) 0.0519(10) Uani 1 1 d . . .
C9 C 0.30032(12) 0.5199(4) 0.5214(3) 0.0581(11) Uani 1 1 d . . .
C10 C 0.27383(11) 0.6391(4) 0.5110(2) 0.0460(9) Uani 1 1 d . . .
C11 C 0.24465(12) 0.6399(4) 0.4540(2) 0.0604(12) Uani 1 1 d . . .
H11 H 0.2411 0.5654 0.4233 0.072 Uiso 1 1 calc R . .
C12 C 0.27854(12) 0.7505(4) 0.5567(2) 0.0575(11) Uani 1 1 d . . .
H12 H 0.2977 0.7502 0.5951 0.069 Uiso 1 1 calc R . .
C13 C 0.42049(14) 0.4086(5) 0.5075(3) 0.0773(14) Uani 1 1 d U . .
C14 C 0.46182(13) 0.4555(5) 0.5043(3) 0.0734(14) Uani 1 1 d . . .
C15 C 0.48923(16) 0.4183(8) 0.5530(4) 0.145(3) Uani 1 1 d . . .
H15 H 0.4829 0.3598 0.5905 0.174 Uiso 1 1 calc R . .
C16 C 0.47231(15) 0.5371(8) 0.4488(4) 0.147(3) Uani 1 1 d . . .
H16 H 0.4540 0.5635 0.4119 0.176 Uiso 1 1 calc R . .
O1 O 0.28693(8) 0.1190(3) 0.44607(14) 0.0535(7) Uani 1 1 d . . .
O2 O 0.34591(9) 0.1919(3) 0.42541(16) 0.0648(8) Uani 1 1 d D . .
O3 O 0.27658(9) -0.2064(3) 0.10669(14) 0.0649(8) Uani 1 1 d . . .
O4 O 0.34112(8) -0.1938(3) 0.10428(15) 0.0598(8) Uani 1 1 d . . .
O5 O 0.29318(7) 0.4143(3) 0.48406(15) 0.0525(7) Uani 1 1 d . . .
O6 O 0.32939(9) 0.5251(3) 0.5658(2) 0.0846(11) Uani 1 1 d . . .
O7 O 0.39569(9) 0.4438(4) 0.4587(2) 0.0987(12) Uani 1 1 d . . .
O8 O 0.41188(9) 0.3350(4) 0.5567(2) 0.1062(13) Uani 1 1 d U . .
Mn1 Mn 0.2500 0.2500 0.5000 0.0345(2) Uani 1 2 d S . .
Mn2 Mn 0.350430(15) 0.31897(6) 0.51639(3) 0.03923(18) Uani 1 1 d D . .
H1 H 0.3496(11) 0.2730(13) 0.3976(5) 0.059 Uiso 1 1 d D . .

loop_
_atom_site_aniso_label
_atom_site_aniso_U_11
_atom_site_aniso_U_22
_atom_site_aniso_U_33
_atom_site_aniso_U_23
_atom_site_aniso_U_13
_atom_site_aniso_U_12
C1 0.055(3) 0.044(2) 0.053(2) -0.0121(19) 0.003(2) 0.004(2)
C2 0.049(2) 0.056(3) 0.041(2) -0.0123(18) 0.0065(18) 0.007(2)
C3 0.047(3) 0.112(4) 0.071(3) -0.039(3) 0.020(2) -0.024(3)
C4 0.054(3) 0.114(4) 0.061(3) -0.038(3) 0.006(2) -0.025(3)
C5 0.041(2) 0.057(3) 0.044(2) -0.0127(19) 0.0024(17) -0.0002(19)
C6 0.055(3) 0.109(4) 0.064(3) -0.042(3) 0.020(2) -0.020(3)
C7 0.051(3) 0.109(4) 0.068(3) -0.046(3) 0.021(2) -0.029(3)
C8 0.062(3) 0.055(3) 0.037(2) -0.0042(18) -0.009(2) 0.007(2)
C9 0.047(3) 0.032(2) 0.096(3) -0.003(2) 0.011(2) -0.004(2)
C10 0.044(2) 0.030(2) 0.064(3) 0.0036(18) -0.0025(19) -0.0018(17)
C11 0.068(3) 0.032(2) 0.081(3) -0.013(2) 0.002(2) -0.003(2)
C12 0.057(3) 0.039(2) 0.076(3) -0.008(2) -0.007(2) 0.000(2)
C13 0.044(3) 0.073(4) 0.116(4) 0.011(3) 0.011(3) -0.010(3)
C14 0.038(2) 0.081(4) 0.101(4) 0.013(3) 0.002(2) -0.015(2)
C15 0.063(4) 0.199(8) 0.171(6) 0.102(6) -0.015(4) -0.051(4)
C16 0.040(3) 0.211(8) 0.187(7) 0.100(6) -0.012(4) -0.030(4)
O1 0.0611(18) 0.0501(17) 0.0516(16) -0.0101(13) 0.0227(14) 0.0032(14)
O2 0.0603(19) 0.065(2) 0.070(2) -0.0205(16) 0.0129(16) -0.0135(17)
O3 0.071(2) 0.079(2) 0.0427(16) -0.0130(14) -0.0091(15) -0.0051(17)
O4 0.0535(18) 0.072(2) 0.0541(17) -0.0193(14) 0.0020(14) 0.0109(15)
O5 0.0524(17) 0.0338(15) 0.0727(18) -0.0034(14) 0.0145(13) -0.0011(13)
O6 0.062(2) 0.055(2) 0.133(3) -0.0142(19) -0.030(2) 0.0090(17)
O7 0.046(2) 0.119(3) 0.130(3) 0.014(3) 0.001(2) -0.025(2)
O8 0.049(2) 0.127(3) 0.142(3) 0.044(3) 0.003(2) -0.029(2)
Mn1 0.0301(4) 0.0344(4) 0.0390(4) -0.0004(3) 0.0030(3) 0.0023(3)
Mn2 0.0303(3) 0.0419(4) 0.0456(3) 0.0009(3) 0.0030(2) -0.0046(3)

_geom_special_details            
;
 All esds (except the esd in the dihedral angle between two l.s. planes)
 are estimated using the full covariance matrix.  The cell esds are taken
 into account individually in the estimation of esds in distances, angles
 and torsion angles; correlations between esds in cell parameters are only
 used when they are defined by crystal symmetry.  An approximate (isotropic)
 treatment of cell esds is used for estimating esds involving l.s. planes.
;

loop_
_geom_bond_atom_site_label_1
_geom_bond_atom_site_label_2
_geom_bond_distance
_geom_bond_site_symmetry_2
_geom_bond_publ_flag
C1 O1 1.238(4) . ?
C1 O2 1.278(5) . ?
C1 C2 1.499(5) . ?
C2 C3 1.358(5) . ?
C2 C7 1.377(5) . ?
C3 C4 1.376(5) . ?
C3 H3 0.9300 . ?
C4 C5 1.378(5) . ?
C4 H4 0.9300 . ?
C5 C6 1.372(5) . ?
C5 C8 1.511(5) . ?
C6 C7 1.381(5) . ?
C6 H6 0.9300 . ?
C7 H7 0.9300 . ?
C8 O3 1.245(5) . ?
C8 O4 1.252(5) . ?
C9 O6 1.248(5) . ?
C9 O5 1.266(5) . ?
C9 C10 1.503(5) . ?
C10 C12 1.387(5) . ?
C10 C11 1.399(5) . ?
C11 C12 1.360(5) 7_566 ?
C11 H11 0.9300 . ?
C12 C11 1.360(5) 7_566 ?
C12 H12 0.9300 . ?
C13 O8 1.205(6) . ?
C13 O7 1.243(6) . ?
C13 C14 1.504(6) . ?
C13 Mn2 2.590(5) . ?
C14 C15 1.309(7) . ?
C14 C16 1.358(7) . ?
C15 C16 1.401(7) 5_666 ?
C15 H15 0.9300 . ?
C16 C15 1.401(7) 5_666 ?
C16 H16 0.9300 . ?
O1 Mn1 2.103(2) . ?
O2 Mn2 2.075(3) . ?
O2 H1 0.964(10) . ?
O3 Mn1 2.133(3) 4_545 ?
O4 Mn2 2.061(3) 6 ?
O5 Mn2 2.237(3) . ?
O5 Mn1 2.242(3) . ?
O6 Mn2 2.369(3) . ?
O7 Mn2 2.294(3) . ?
O8 Mn2 2.206(3) . ?
Mn1 O1 2.103(2) 7_556 ?
Mn1 O3 2.133(3) 4 ?
Mn1 O3 2.133(3) 6_556 ?
Mn1 O5 2.242(3) 7_556 ?
Mn2 O4 2.061(3) 6_556 ?

loop_
_geom_angle_atom_site_label_1
_geom_angle_atom_site_label_2
_geom_angle_atom_site_label_3
_geom_angle
_geom_angle_site_symmetry_1
_geom_angle_site_symmetry_3
_geom_angle_publ_flag
O1 C1 O2 123.2(4) . . ?
O1 C1 C2 119.1(4) . . ?
O2 C1 C2 117.7(4) . . ?
C3 C2 C7 119.6(4) . . ?
C3 C2 C1 119.4(4) . . ?
C7 C2 C1 121.0(4) . . ?
C2 C3 C4 120.3(4) . . ?
C2 C3 H3 119.8 . . ?
C4 C3 H3 119.8 . . ?
C3 C4 C5 121.1(4) . . ?
C3 C4 H4 119.5 . . ?
C5 C4 H4 119.5 . . ?
C6 C5 C4 118.1(4) . . ?
C6 C5 C8 120.3(3) . . ?
C4 C5 C8 121.5(4) . . ?
C5 C6 C7 121.0(4) . . ?
C5 C6 H6 119.5 . . ?
C7 C6 H6 119.5 . . ?
C2 C7 C6 119.8(4) . . ?
C2 C7 H7 120.1 . . ?
C6 C7 H7 120.1 . . ?
O3 C8 O4 126.8(4) . . ?
O3 C8 C5 116.0(4) . . ?
O4 C8 C5 117.1(4) . . ?
O6 C9 O5 120.1(4) . . ?
O6 C9 C10 120.5(4) . . ?
O5 C9 C10 119.4(4) . . ?
C12 C10 C11 119.3(4) . . ?
C12 C10 C9 120.5(4) . . ?
C11 C10 C9 120.2(4) . . ?
C12 C11 C10 120.1(4) 7_566 . ?
C12 C11 H11 120.0 7_566 . ?
C10 C11 H11 120.0 . . ?
C11 C12 C10 120.6(4) 7_566 . ?
C11 C12 H12 119.7 7_566 . ?
C10 C12 H12 119.7 . . ?
O8 C13 O7 120.5(5) . . ?
O8 C13 C14 119.5(5) . . ?
O7 C13 C14 120.0(5) . . ?
O8 C13 Mn2 58.2(3) . . ?
O7 C13 Mn2 62.3(3) . . ?
C14 C13 Mn2 177.5(4) . . ?
C15 C14 C16 117.1(5) . . ?
C15 C14 C13 122.3(5) . . ?
C16 C14 C13 120.6(5) . . ?
C14 C15 C16 122.8(6) . 5_666 ?
C14 C15 H15 118.6 . . ?
C16 C15 H15 118.6 5_666 . ?
C14 C16 C15 120.0(5) . 5_666 ?
C14 C16 H16 120.0 . . ?
C15 C16 H16 120.0 5_666 . ?
C1 O1 Mn1 138.4(3) . . ?
C1 O2 Mn2 123.0(3) . . ?
C1 O2 H1 115(2) . . ?
Mn2 O2 H1 84.2(7) . . ?
C8 O3 Mn1 135.6(3) . 4_545 ?
C8 O4 Mn2 126.9(3) . 6 ?
C9 O5 Mn2 94.1(2) . . ?
C9 O5 Mn1 130.3(2) . . ?
Mn2 O5 Mn1 103.88(11) . . ?
C9 O6 Mn2 88.5(3) . . ?
C13 O7 Mn2 89.0(3) . . ?
C13 O8 Mn2 94.2(3) . . ?
O1 Mn1 O1 180.00(12) 7_556 . ?
O1 Mn1 O3 93.12(11) 7_556 4 ?
O1 Mn1 O3 86.88(11) . 4 ?
O1 Mn1 O3 86.88(11) 7_556 6_556 ?
O1 Mn1 O3 93.12(11) . 6_556 ?
O3 Mn1 O3 180.000(1) 4 6_556 ?
O1 Mn1 O5 88.13(10) 7_556 7_556 ?
O1 Mn1 O5 91.87(10) . 7_556 ?
O3 Mn1 O5 90.67(11) 4 7_556 ?
O3 Mn1 O5 89.33(11) 6_556 7_556 ?
O1 Mn1 O5 91.87(10) 7_556 . ?
O1 Mn1 O5 88.13(10) . . ?
O3 Mn1 O5 89.33(11) 4 . ?
O3 Mn1 O5 90.67(11) 6_556 . ?
O5 Mn1 O5 180.00(13) 7_556 . ?
O4 Mn2 O2 103.67(13) 6_556 . ?
O4 Mn2 O8 88.77(13) 6_556 . ?
O2 Mn2 O8 109.42(15) . . ?
O4 Mn2 O5 106.44(11) 6_556 . ?
O2 Mn2 O5 91.54(12) . . ?
O8 Mn2 O5 150.66(14) . . ?
O4 Mn2 O7 145.09(13) 6_556 . ?
O2 Mn2 O7 89.41(13) . . ?
O8 Mn2 O7 56.32(13) . . ?
O5 Mn2 O7 105.37(12) . . ?
O4 Mn2 O6 99.63(13) 6_556 . ?
O2 Mn2 O6 144.78(12) . . ?
O8 Mn2 O6 97.03(14) . . ?
O5 Mn2 O6 56.37(10) . . ?
O7 Mn2 O6 86.27(13) . . ?
O4 Mn2 C13 116.41(16) 6_556 . ?
O2 Mn2 C13 100.78(15) . . ?
O8 Mn2 C13 27.64(14) . . ?
O5 Mn2 C13 130.54(15) . . ?
O7 Mn2 C13 28.68(14) . . ?
O6 Mn2 C13 91.89(15) . . ?

loop_
_geom_torsion_atom_site_label_1
_geom_torsion_atom_site_label_2
_geom_torsion_atom_site_label_3
_geom_torsion_atom_site_label_4
_geom_torsion
_geom_torsion_site_symmetry_1
_geom_torsion_site_symmetry_2
_geom_torsion_site_symmetry_3
_geom_torsion_site_symmetry_4
_geom_torsion_publ_flag
O1 C1 C2 C3 3.1(6) . . . . ?
O2 C1 C2 C3 -177.7(4) . . . . ?
O1 C1 C2 C7 -176.8(4) . . . . ?
O2 C1 C2 C7 2.4(6) . . . . ?
C7 C2 C3 C4 1.8(8) . . . . ?
C1 C2 C3 C4 -178.1(4) . . . . ?
C2 C3 C4 C5 -0.9(8) . . . . ?
C3 C4 C5 C6 -0.2(7) . . . . ?
C3 C4 C5 C8 179.0(4) . . . . ?
C4 C5 C6 C7 0.3(7) . . . . ?
C8 C5 C6 C7 -179.0(4) . . . . ?
C3 C2 C7 C6 -1.8(8) . . . . ?
C1 C2 C7 C6 178.1(4) . . . . ?
C5 C6 C7 C2 0.7(8) . . . . ?
C6 C5 C8 O3 -166.1(4) . . . . ?
C4 C5 C8 O3 14.7(6) . . . . ?
C6 C5 C8 O4 16.5(6) . . . . ?
C4 C5 C8 O4 -162.7(4) . . . . ?
O6 C9 C10 C12 -7.8(6) . . . . ?
O5 C9 C10 C12 173.0(4) . . . . ?
O6 C9 C10 C11 170.8(4) . . . . ?
O5 C9 C10 C11 -8.4(6) . . . . ?
C12 C10 C11 C12 0.6(7) . . . 7_566 ?
C9 C10 C11 C12 -178.0(4) . . . 7_566 ?
C11 C10 C12 C11 -0.6(7) . . . 7_566 ?
C9 C10 C12 C11 178.0(4) . . . 7_566 ?
O8 C13 C14 C15 0.6(10) . . . . ?
O7 C13 C14 C15 -178.0(7) . . . . ?
Mn2 C13 C14 C15 -22(10) . . . . ?
O8 C13 C14 C16 179.2(6) . . . . ?
O7 C13 C14 C16 0.6(9) . . . . ?
Mn2 C13 C14 C16 157(9) . . . . ?
C16 C14 C15 C16 2.3(14) . . . 5_666 ?
C13 C14 C15 C16 -179.1(7) . . . 5_666 ?
C15 C14 C16 C15 -2.3(13) . . . 5_666 ?
C13 C14 C16 C15 179.1(7) . . . 5_666 ?
O2 C1 O1 Mn1 53.3(6) . . . . ?
C2 C1 O1 Mn1 -127.5(4) . . . . ?
O1 C1 O2 Mn2 -9.1(6) . . . . ?
C2 C1 O2 Mn2 171.7(3) . . . . ?
O4 C8 O3 Mn1 -31.2(7) . . . 4_545 ?
C5 C8 O3 Mn1 151.7(3) . . . 4_545 ?
O3 C8 O4 Mn2 -5.5(6) . . . 6 ?
C5 C8 O4 Mn2 171.6(3) . . . 6 ?
O6 C9 O5 Mn2 -10.0(4) . . . . ?
C10 C9 O5 Mn2 169.1(3) . . . . ?
O6 C9 O5 Mn1 102.0(4) . . . . ?
C10 C9 O5 Mn1 -78.8(5) . . . . ?
O5 C9 O6 Mn2 9.4(4) . . . . ?
C10 C9 O6 Mn2 -169.7(3) . . . . ?
O8 C13 O7 Mn2 0.3(6) . . . . ?
C14 C13 O7 Mn2 178.9(5) . . . . ?
O7 C13 O8 Mn2 -0.3(6) . . . . ?
C14 C13 O8 Mn2 -178.9(4) . . . . ?
C1 O1 Mn1 O1 -87(100) . . . 7_556 ?
C1 O1 Mn1 O3 74.2(4) . . . 4 ?
C1 O1 Mn1 O3 -105.8(4) . . . 6_556 ?
C1 O1 Mn1 O5 164.8(4) . . . 7_556 ?
C1 O1 Mn1 O5 -15.2(4) . . . . ?
C9 O5 Mn1 O1 27.0(4) . . . 7_556 ?
Mn2 O5 Mn1 O1 134.74(11) . . . 7_556 ?
C9 O5 Mn1 O1 -153.0(4) . . . . ?
Mn2 O5 Mn1 O1 -45.26(11) . . . . ?
C9 O5 Mn1 O3 120.0(4) . . . 4 ?
Mn2 O5 Mn1 O3 -132.16(12) . . . 4 ?
C9 O5 Mn1 O3 -60.0(4) . . . 6_556 ?
Mn2 O5 Mn1 O3 47.84(12) . . . 6_556 ?
C9 O5 Mn1 O5 -7(100) . . . 7_556 ?
Mn2 O5 Mn1 O5 101(100) . . . 7_556 ?
C1 O2 Mn2 O4 60.5(4) . . . 6_556 ?
C1 O2 Mn2 O8 154.1(3) . . . . ?
C1 O2 Mn2 O5 -46.8(3) . . . . ?
C1 O2 Mn2 O7 -152.2(3) . . . . ?
C1 O2 Mn2 O6 -69.5(4) . . . . ?
C1 O2 Mn2 C13 -178.6(3) . . . . ?
C13 O8 Mn2 O4 179.9(4) . . . 6_556 ?
C13 O8 Mn2 O2 75.8(4) . . . . ?
C13 O8 Mn2 O5 -57.5(5) . . . . ?
C13 O8 Mn2 O7 0.2(4) . . . . ?
C13 O8 Mn2 O6 -80.6(4) . . . . ?
C9 O5 Mn2 O4 96.2(2) . . . 6_556 ?
Mn1 O5 Mn2 O4 -37.04(14) . . . 6_556 ?
C9 O5 Mn2 O2 -159.0(2) . . . . ?
Mn1 O5 Mn2 O2 67.70(13) . . . . ?
C9 O5 Mn2 O8 -22.4(4) . . . . ?
Mn1 O5 Mn2 O8 -155.7(2) . . . . ?
C9 O5 Mn2 O7 -69.2(3) . . . . ?
Mn1 O5 Mn2 O7 157.52(12) . . . . ?
C9 O5 Mn2 O6 5.5(2) . . . . ?
Mn1 O5 Mn2 O6 -127.79(16) . . . . ?
C9 O5 Mn2 C13 -53.4(3) . . . . ?
Mn1 O5 Mn2 C13 173.32(18) . . . . ?
C13 O7 Mn2 O4 -0.6(5) . . . 