####################################################################### 
# 
# This file contains crystal structure data downloaded from the 
# Cambridge Structural Database (CSD) hosted by the Cambridge 
# Crystallographic Data Centre (CCDC).
# 
# Full information about CCDC data access policies and citation 
# guidelines are available at http://www.ccdc.cam.ac.uk/access/V1 
# 
# Audit and citation data items may have been added by the CCDC. 
# Please retain this information to preserve the provenance of 
# this file and to allow appropriate attribution of the data. 
# 
#######################################################################

data_a
_audit_block_doi                 10.5517/cc10w254
_database_code_depnum_ccdc_archive 'CCDC 949535'
loop_
_citation_id
_citation_doi
_citation_year
1 10.1016/j.inoche.2013.10.017 2013
_audit_update_record             
;
2013-07-10 deposited with the CCDC.	2024-07-13 downloaded from the CCDC.
;

_audit_creation_method           SHELXL-97
_chemical_name_systematic        
; 
 ? 
;
_chemical_name_common            ?
_chemical_melting_point          ?
_chemical_formula_moiety         'C3 H5 Cu3 N15'
_chemical_formula_sum            'C3 H5 Cu3 N15'
_chemical_formula_weight         441.87

loop_
_atom_type_symbol
_atom_type_description
_atom_type_scat_dispersion_real
_atom_type_scat_dispersion_imag
_atom_type_scat_source
C C 0.0033 0.0016 'International Tables Vol C Tables 4.2.6.8 and 6.1.1.4'
H H 0.0000 0.0000 'International Tables Vol C Tables 4.2.6.8 and 6.1.1.4'
N N 0.0061 0.0033 'International Tables Vol C Tables 4.2.6.8 and 6.1.1.4'
O O 0.0106 0.0060 'International Tables Vol C Tables 4.2.6.8 and 6.1.1.4'
Cu Cu 0.3201 1.2651 'International Tables Vol C Tables 4.2.6.8 and 6.1.1.4'

_symmetry_cell_setting           Hexagonal
_symmetry_space_group_name_H-M   P6(5)22
_symmetry_space_group_name_Hall  'P 65 2 ( 0'

loop_
_symmetry_equiv_pos_as_xyz
'x, y, z'
'-y, x-y, z+2/3'
'-x+y, -x, z+1/3'
'-x, -y, z+1/2'
'y, -x+y, z+1/6'
'x-y, x, z+5/6'
'y, x, -z+2/3'
'x-y, -y, -z'
'-x, -x+y, -z+1/3'
'-y, -x, -z+1/6'
'-x+y, y, -z+1/2'
'x, x-y, -z+5/6'

_cell_length_a                   11.4708(6)
_cell_length_b                   11.4708(6)
_cell_length_c                   18.4672(17)
_cell_angle_alpha                90.00
_cell_angle_beta                 90.00
_cell_angle_gamma                120.00
_cell_volume                     2104.4(2)
_cell_formula_units_Z            6
_cell_measurement_temperature    293(2)
_cell_measurement_reflns_used    6853
_cell_measurement_theta_min      2.0501
_cell_measurement_theta_max      27.5127

_exptl_crystal_description       block
_exptl_crystal_colour            yellow
_exptl_crystal_size_max          0.20
_exptl_crystal_size_mid          0.18
_exptl_crystal_size_min          0.17
_exptl_crystal_density_meas      ?
_exptl_crystal_density_diffrn    2.092
_exptl_crystal_density_method    'not measured'
_exptl_crystal_F_000             1326
_exptl_absorpt_coefficient_mu    4.525
_exptl_absorpt_correction_type   Multi-scan
_exptl_absorpt_correction_T_min  0.5573
_exptl_absorpt_correction_T_max  1.0000
_exptl_absorpt_process_details   crystalclear

_exptl_special_details           
; 
 ? 
;

_diffrn_ambient_temperature      293(2)
_diffrn_radiation_wavelength     0.71073
_diffrn_radiation_type           MoK\a
_diffrn_radiation_source         'fine-focus sealed tube'
_diffrn_radiation_monochromator  graphite
_diffrn_measurement_device_type  'Bruker P4'
_diffrn_measurement_method       '\w scans'
_diffrn_detector_area_resol_mean ?
_diffrn_standards_number         none
_diffrn_standards_interval_count 0
_diffrn_standards_interval_time  none
_diffrn_standards_decay_%        none
_diffrn_reflns_number            16309
_diffrn_reflns_av_R_equivalents  0.0660
_diffrn_reflns_av_sigmaI/netI    0.0331
_diffrn_reflns_limit_h_min       -14
_diffrn_reflns_limit_h_max       14
_diffrn_reflns_limit_k_min       -14
_diffrn_reflns_limit_k_max       14
_diffrn_reflns_limit_l_min       -23
_diffrn_reflns_limit_l_max       23
_diffrn_reflns_theta_min         2.33
_diffrn_reflns_theta_max         27.50
_reflns_number_total             1610
_reflns_number_gt                1506
_reflns_threshold_expression     >2sigma(I)

_computing_data_collection       'Bruker XSCANS'
_computing_cell_refinement       'Bruker XSCANS'
_computing_data_reduction        'Bruker SHELXTL'
_computing_structure_solution    'SHELXS-97 (Sheldrick, 1990)'
_computing_structure_refinement  'SHELXL-97 (Sheldrick, 1997)'
_computing_molecular_graphics    'Bruker SHELXTL'
_computing_publication_material  'Bruker SHELXTL'

_refine_special_details          
; 
 Refinement of F^2^ against ALL reflections.  The weighted R-factor wR and 
 goodness of fit S are based on F^2^, conventional R-factors R are based 
 on F, with F set to zero for negative F^2^. The threshold expression of 
 F^2^ > 2sigma(F^2^) is used only for calculating R-factors(gt) etc. and is 
 not relevant to the choice of reflections for refinement.  R-factors based 
 on F^2^ are statistically about twice as large as those based on F, and R- 
 factors based on ALL data will be even larger. 
;

_refine_ls_structure_factor_coef Fsqd
_refine_ls_matrix_type           full
_refine_ls_weighting_scheme      calc
_refine_ls_weighting_details     
'calc w=1/[\s^2^(Fo^2^)+(0.1000P)^2^+0.0000P] where P=(Fo^2^+2Fc^2^)/3'
_atom_sites_solution_primary     direct
_atom_sites_solution_secondary   difmap
_atom_sites_solution_hydrogens   geom
_refine_ls_hydrogen_treatment    constr
_refine_ls_extinction_method     none
_refine_ls_extinction_coef       ?
_refine_ls_abs_structure_details 'Flack H D (1983), Acta Cryst. A39, 876-881'
_refine_ls_abs_structure_Flack   0.08(5)
_refine_ls_number_reflns         1610
_refine_ls_number_parameters     98
_refine_ls_number_restraints     0
_refine_ls_R_factor_all          0.0408
_refine_ls_R_factor_gt           0.0392
_refine_ls_wR_factor_ref         0.1423
_refine_ls_wR_factor_gt          0.1410
_refine_ls_goodness_of_fit_ref   1.097
_refine_ls_restrained_S_all      1.097
_refine_ls_shift/su_max          0.001
_refine_ls_shift/su_mean         0.000

loop_
_atom_site_label
_atom_site_type_symbol
_atom_site_fract_x
_atom_site_fract_y
_atom_site_fract_z
_atom_site_U_iso_or_equiv
_atom_site_adp_type
_atom_site_occupancy
_atom_site_symmetry_multiplicity
_atom_site_calc_flag
_atom_site_refinement_flags
_atom_site_disorder_assembly
_atom_site_disorder_group
Cu1 Cu 0.10134(6) 0.41000(6) 0.06106(4) 0.0335(2) Uani 1 1 d . . .
Cu2 Cu 0.18169(9) 0.59084(4) -0.0833 0.0416(3) Uani 1 2 d S . .
N19 N -0.1011(3) 0.3074(3) 0.0792(2) 0.0207(7) Uani 1 1 d . . .
N9 N 0.2981(4) 0.7019(4) 0.0833 0.0337(14) Uani 1 2 d S . .
N8 N -0.3078(2) 0.3078(2) 0.0833 0.0205(10) Uani 1 2 d S . .
N7 N -0.1052(3) 0.1052(3) 0.0833 0.0356(14) Uani 1 2 d S . .
H7A H -0.0148 0.1501 0.0806 0.043 Uiso 0.50 1 d PR . .
N6 N 0.1981(5) 0.6068(5) 0.0674(3) 0.0588(15) Uani 1 1 d . . .
N5 N 0.0818(4) 0.3944(5) -0.0695(3) 0.0422(11) Uani 1 1 d . . .
C4 C -0.1716(3) 0.1716(3) 0.0833 0.0206(11) Uani 1 2 d S . .
N3 N -0.1062(4) 0.5034(4) 0.0779(3) 0.0400(11) Uani 1 1 d . . .
H3A H -0.0197 0.5465 0.0763 0.048 Uiso 1 1 calc R . .
H3B H -0.1494 0.5467 0.0782 0.048 Uiso 1 1 calc R . .
C2 C -0.1729(4) 0.3701(4) 0.0798(2) 0.0210(8) Uani 1 1 d . . .
N1 N -0.1136(6) 0.1981(6) -0.1012(3) 0.0622(18) Uani 1 1 d . . .
N11 N -0.0170(4) 0.3005(4) -0.0856(2) 0.0325(9) Uani 1 1 d . . .

loop_
_atom_site_aniso_label
_atom_site_aniso_U_11
_atom_site_aniso_U_22
_atom_site_aniso_U_33
_atom_site_aniso_U_23
_atom_site_aniso_U_13
_atom_site_aniso_U_12
Cu1 0.0154(3) 0.0256(4) 0.0559(5) -0.0006(3) -0.0026(2) 0.0075(3)
Cu2 0.0155(4) 0.0225(4) 0.0844(8) 0.0021(4) 0.000 0.0078(2)
N19 0.0108(15) 0.0115(17) 0.0349(19) 0.0025(13) 0.0032(13) 0.0018(13)
N9 0.0224(19) 0.0224(19) 0.040(3) 0.000(2) 0.000(2) -0.001(2)
N8 0.0152(17) 0.0152(17) 0.033(3) 0.0018(18) 0.0018(18) 0.009(2)
N7 0.020(2) 0.020(2) 0.072(4) 0.003(2) 0.003(2) 0.013(2)
N6 0.032(3) 0.034(3) 0.084(4) -0.016(3) 0.006(3) -0.003(2)
N5 0.026(2) 0.022(2) 0.059(3) 0.0037(19) -0.0067(19) -0.0028(19)
C4 0.017(2) 0.017(2) 0.028(3) 0.0017(19) 0.0017(19) 0.008(2)
N3 0.0160(19) 0.0138(19) 0.087(3) 0.007(2) 0.004(2) 0.0052(16)
C2 0.0151(19) 0.017(2) 0.030(2) 0.0008(16) 0.0008(16) 0.0079(16)
N1 0.034(3) 0.035(3) 0.089(5) 0.007(3) -0.021(3) -0.004(2)
N11 0.027(2) 0.023(2) 0.037(2) 0.0036(17) -0.0036(17) 0.0050(17)

_geom_special_details            
; 
 All esds (except the esd in the dihedral angle between two l.s. planes) 
 are estimated using the full covariance matrix.  The cell esds are taken 
 into account individually in the estimation of esds in distances, angles 
 and torsion angles; correlations between esds in cell parameters are only 
 used when they are defined by crystal symmetry.  An approximate (isotropic) 
 treatment of cell esds is used for estimating esds involving l.s. planes. 
;

loop_
_geom_bond_atom_site_label_1
_geom_bond_atom_site_label_2
_geom_bond_distance
_geom_bond_site_symmetry_2
_geom_bond_publ_flag
Cu1 N1 1.939(6) 5 ?
Cu1 N6 1.958(5) . ?
Cu1 N19 2.039(3) . ?
Cu1 N5 2.420(5) . ?
Cu2 N5 1.969(5) 12_564 ?
Cu2 N5 1.969(5) . ?
Cu2 N8 2.015(5) 6_664 ?
N19 C2 1.337(6) . ?
N19 C4 1.352(4) . ?
N9 N6 1.158(5) . ?
N9 N6 1.158(5) 10_665 ?
N8 C2 1.343(5) . ?
N8 C2 1.343(5) 10 ?
N8 Cu2 2.015(5) 5_455 ?
N7 C4 1.318(9) . ?
N7 H7A 0.8999 . ?
N5 N11 1.146(6) . ?
C4 N19 1.352(4) 10 ?
N3 C2 1.324(6) . ?
N3 H3A 0.8600 . ?
N3 H3B 0.8600 . ?
N1 N11 1.178(7) . ?
N1 Cu1 1.939(6) 6_554 ?

loop_
_geom_angle_atom_site_label_1
_geom_angle_atom_site_label_2
_geom_angle_atom_site_label_3
_geom_angle
_geom_angle_site_symmetry_1
_geom_angle_site_symmetry_3
_geom_angle_publ_flag
N1 Cu1 N6 120.5(3) 5 . ?
N1 Cu1 N19 118.4(2) 5 . ?
N6 Cu1 N19 118.7(2) . . ?
N1 Cu1 N5 93.3(2) 5 . ?
N6 Cu1 N5 97.1(2) . . ?
N19 Cu1 N5 94.83(16) . . ?
N5 Cu2 N5 119.4(3) 12_564 . ?
N5 Cu2 N8 120.28(14) 12_564 6_664 ?
N5 Cu2 N8 120.28(14) . 6_664 ?
C2 N19 C4 116.5(4) . . ?
C2 N19 Cu1 121.4(3) . . ?
C4 N19 Cu1 121.7(3) . . ?
N6 N9 N6 175.2(10) . 10_665 ?
C2 N8 C2 115.1(5) . 10 ?
C2 N8 Cu2 122.5(3) . 5_455 ?
C2 N8 Cu2 122.5(3) 10 5_455 ?
C4 N7 H7A 120.2 . . ?
N9 N6 Cu1 145.6(6) . . ?
N11 N5 Cu2 141.1(4) . . ?
N11 N5 Cu1 109.9(4) . . ?
Cu2 N5 Cu1 93.73(19) . . ?
N7 C4 N19 118.7(3) . . ?
N7 C4 N19 118.7(3) . 10 ?
N19 C4 N19 122.5(5) . 10 ?
C2 N3 H3A 120.0 . . ?
C2 N3 H3B 120.0 . . ?
H3A N3 H3B 120.0 . . ?
N3 C2 N19 117.7(4) . . ?
N3 C2 N8 117.6(4) . . ?
N19 C2 N8 124.7(4) . . ?
N11 N1 Cu1 145.3(6) . 6_554 ?
N5 N11 N1 174.7(6) . . ?

_diffrn_measured_fraction_theta_max 0.993
_diffrn_reflns_theta_full        27.50
_diffrn_measured_fraction_theta_full 0.993
_refine_diff_density_max         1.367
_refine_diff_density_min         -0.676
_refine_diff_density_rms         0.167
