####################################################################### 
# 
# This file contains crystal structure data downloaded from the 
# Cambridge Structural Database (CSD) hosted by the Cambridge 
# Crystallographic Data Centre (CCDC).
# 
# Full information about CCDC data access policies and citation 
# guidelines are available at http://www.ccdc.cam.ac.uk/access/V1 
# 
# Audit and citation data items may have been added by the CCDC. 
# Please retain this information to preserve the provenance of 
# this file and to allow appropriate attribution of the data. 
# 
#######################################################################

data_s92
_audit_block_doi                 10.5517/ccqthll
_database_code_depnum_ccdc_archive 'CCDC 679910'
loop_
_citation_id
_citation_doi
_citation_year
1 10.1007/s11243-008-9086-7 2008
_audit_update_record             
;
2008-02-29 deposited with the CCDC.	2024-07-13 downloaded from the CCDC.
;

_audit_creation_method           SHELXL-97
_chemical_name_systematic        
;
?
;
_chemical_name_common            ?
_chemical_melting_point          ?
_chemical_formula_moiety         ?
_chemical_formula_sum            'C13 H5 Co N2 O6'
_chemical_formula_weight         344.12

loop_
_atom_type_symbol
_atom_type_description
_atom_type_scat_dispersion_real
_atom_type_scat_dispersion_imag
_atom_type_scat_source
C C 0.0033 0.0000 'International Tables Vol C Tables 4.2.6.8 and 6.1.1.4'
H H 0.0000 0.0000 'International Tables Vol C Tables 4.2.6.8 and 6.1.1.4'
Co Co 0.3494 0.0000 'International Tables Vol C Tables 4.2.6.8 and 6.1.1.4'
N N 0.0061 0.0000 'International Tables Vol C Tables 4.2.6.8 and 6.1.1.4'
O O 0.0106 0.0000 'International Tables Vol C Tables 4.2.6.8 and 6.1.1.4'

_symmetry_cell_setting           Hexagonal
_symmetry_space_group_name_H-M   'P -62m'

loop_
_symmetry_equiv_pos_as_xyz
'x, y, z'
'-x+y, -x, -z'
'-y, x-y, z'
'x, y, -z'
'-x+y, -x, z'
'-y, x-y, -z'
'y, x, z'
'x-y, -y, -z'
'-x, -x+y, z'
'y, x, -z'
'x-y, -y, z'
'-x, -x+y, -z'

_cell_length_a                   16.6736(16)
_cell_length_b                   16.6736(16)
_cell_length_c                   11.389(2)
_cell_angle_alpha                90.00
_cell_angle_beta                 90.00
_cell_angle_gamma                120.00
_cell_volume                     2742.0(6)
_cell_formula_units_Z            3
_cell_measurement_temperature    293(2)
_cell_measurement_reflns_used    ?
_cell_measurement_theta_min      ?
_cell_measurement_theta_max      ?

_exptl_crystal_description       Block
_exptl_crystal_colour            Pink
_exptl_crystal_size_max          0.12
_exptl_crystal_size_mid          0.08
_exptl_crystal_size_min          0.05
_exptl_crystal_density_meas      ?
_exptl_crystal_density_diffrn    0.625
_exptl_crystal_density_method    'not measured'
_exptl_crystal_F_000             516
_exptl_absorpt_coefficient_mu    0.481
_exptl_absorpt_correction_type   multi-scan
_exptl_absorpt_correction_T_min  0.9445
_exptl_absorpt_correction_T_max  0.9763
_exptl_absorpt_process_details   
;
[R.H. Blessing, Acta Cryst. (1995). A51, 33-38]
;

_exptl_special_details           
;
?
;

_diffrn_ambient_temperature      293(2)
_diffrn_radiation_wavelength     0.71073
_diffrn_radiation_type           MoK\a
_diffrn_radiation_source         'fine-focus sealed tube'
_diffrn_radiation_monochromator  graphite
_diffrn_measurement_device_type  ?
_diffrn_measurement_method       ?
_diffrn_detector_area_resol_mean ?
_diffrn_standards_number         ?
_diffrn_standards_interval_count ?
_diffrn_standards_interval_time  ?
_diffrn_standards_decay_%        0
_diffrn_reflns_number            62718
_diffrn_reflns_av_R_equivalents  0.0895
_diffrn_reflns_av_sigmaI/netI    0.0287
_diffrn_reflns_limit_h_min       -22
_diffrn_reflns_limit_h_max       22
_diffrn_reflns_limit_k_min       -21
_diffrn_reflns_limit_k_max       21
_diffrn_reflns_limit_l_min       -14
_diffrn_reflns_limit_l_max       14
_diffrn_reflns_theta_min         1.41
_diffrn_reflns_theta_max         28.29
_reflns_number_total             1370
_reflns_number_gt                1156
_reflns_threshold_expression     >2sigma(I)

_computing_data_collection       
'DENZO (Otwinowski & Minor, 1997) and COLLECT (Hooft, 1998)'
_computing_cell_refinement       'DENZO and COLLECT'
_computing_data_reduction        'DENZO and COLLECT'
_computing_structure_solution    'SHELXS-97 (Sheldrick, 1990)'
_computing_structure_refinement  'SHELXL-97 (Sheldrick, 1997)'
_computing_molecular_graphics    'ORTEP3 for windows (Farrugia, 1997)'
_computing_publication_material  'WinGX (Farrugia, 1999)'

_refine_special_details          
;
Refinement of F^2^ against ALL reflections. The weighted R-factor wR and
goodness of fit S are based on F^2^, conventional R-factors R are based
on F, with F set to zero for negative F^2^. The threshold expression of
F^2^ > 2sigma(F^2^) is used only for calculating R-factors(gt) etc. and is
not relevant to the choice of reflections for refinement. R-factors based
on F^2^ are statistically about twice as large as those based on F, and R-
factors based on ALL data will be even larger.
;

_refine_ls_structure_factor_coef Fsqd
_refine_ls_matrix_type           full
_refine_ls_weighting_scheme      calc
_refine_ls_weighting_details     
'calc w=1/[\s^2^(Fo^2^)+(0.1897P)^2^+0.8972P] where P=(Fo^2^+2Fc^2^)/3'
_atom_sites_solution_primary     direct
_atom_sites_solution_secondary   difmap
_atom_sites_solution_hydrogens   geom
_refine_ls_hydrogen_treatment    mixed
_refine_ls_extinction_method     none
_refine_ls_extinction_coef       ?
_refine_ls_abs_structure_details 'Flack H D (1983), Acta Cryst. A39, 876-881'
_refine_ls_abs_structure_Flack   0(10)
_refine_ls_number_reflns         1370
_refine_ls_number_parameters     83
_refine_ls_number_restraints     72
_refine_ls_R_factor_all          0.1353
_refine_ls_R_factor_gt           0.1189
_refine_ls_wR_factor_ref         0.2848
_refine_ls_wR_factor_gt          0.2619
_refine_ls_goodness_of_fit_ref   1.268
_refine_ls_restrained_S_all      1.240
_refine_ls_shift/su_max          0.338
_refine_ls_shift/su_mean         0.020

loop_
_atom_site_label
_atom_site_type_symbol
_atom_site_fract_x
_atom_site_fract_y
_atom_site_fract_z
_atom_site_U_iso_or_equiv
_atom_site_adp_type
_atom_site_occupancy
_atom_site_symmetry_multiplicity
_atom_site_calc_flag
_atom_site_refinement_flags
_atom_site_disorder_assembly
_atom_site_disorder_group
C1 C 0.0839(8) 0.0000 0.0000 0.035(3) Uani 1 4 d SU . .
C4 C 0.6018(7) 0.2391(6) 0.0000 0.040(2) Uani 1 2 d SU . .
C5 C 0.6959(7) 0.2686(7) 0.0000 0.041(2) Uani 1 2 d SU . .
H5 H 0.7156 0.2253 0.0000 0.050 Uiso 1 2 calc SR . .
C2 C 0.0000 -0.0826(7) 0.0000 0.035(3) Uani 1 4 d SU . .
H2 H 0.0000 -0.1383 0.0000 0.042 Uiso 1 4 calc SR . .
C8 C 0.366(3) 0.0802(14) 0.3706(15) 0.069(10) Uani 0.25 1 d PU . .
H8 H 0.3928 0.1374 0.4082 0.083 Uiso 0.25 1 calc PR . .
C3 C 0.1736(8) 0.0000 0.0000 0.038(3) Uani 1 4 d SU . .
C7 C 0.367(2) 0.0755(13) 0.2476(15) 0.060(9) Uani 0.25 1 d PU . .
H7 H 0.4011 0.1305 0.2062 0.072 Uiso 0.25 1 calc PR . .
O2 O 0.4493(5) 0.1147(5) 0.0000 0.0447(19) Uani 1 2 d SU . .
C9 C 0.3243(6) 0.0000 0.4347(9) 0.053(2) Uani 1 2 d SU . .
C6 C 0.5322(7) 0.1377(6) 0.0000 0.044(2) Uani 1 2 d SU . .
N1 N 0.3243(4) 0.0000 0.1889(6) 0.0415(16) Uani 1 2 d SU . .
O1 O 0.1725(4) -0.0762(4) 0.0000 0.0439(16) Uani 1 2 d SU . .
Co1 Co 0.32235(8) 0.0000 0.0000 0.0282(5) Uani 1 4 d S . .
O3 O 0.5630(7) 0.0838(6) 0.0000 0.106(4) Uani 1 2 d SU . .

loop_
_atom_site_aniso_label
_atom_site_aniso_U_11
_atom_site_aniso_U_22
_atom_site_aniso_U_33
_atom_site_aniso_U_23
_atom_site_aniso_U_13
_atom_site_aniso_U_12
C1 0.025(4) 0.035(6) 0.048(6) 0.000 0.000 0.017(3)
C4 0.027(4) 0.016(3) 0.069(6) 0.000 0.000 0.005(3)
C5 0.028(5) 0.032(5) 0.071(6) 0.000 0.000 0.020(4)
C2 0.032(6) 0.023(4) 0.053(7) 0.000 0.000 0.016(3)
C8 0.111(19) 0.024(9) 0.000(7) -0.004(6) -0.011(11) -0.020(13)
C3 0.031(5) 0.031(7) 0.052(7) 0.000 0.000 0.016(3)
C7 0.084(17) 0.023(9) 0.000(6) -0.007(6) 0.006(10) -0.028(12)
O2 0.028(3) 0.032(4) 0.073(5) 0.000 0.000 0.014(3)
C9 0.064(4) 0.061(6) 0.035(5) 0.000 -0.005(3) 0.031(3)
C6 0.027(5) 0.022(4) 0.077(6) 0.000 0.000 0.008(4)
N1 0.049(3) 0.047(4) 0.028(3) 0.000 -0.002(2) 0.024(2)
O1 0.031(3) 0.029(4) 0.078(4) 0.000 0.000 0.019(3)
Co1 0.0209(6) 0.0217(7) 0.0423(9) 0.000 0.000 0.0109(4)
O3 0.037(5) 0.022(4) 0.257(13) 0.000 0.000 0.014(3)

_geom_special_details            
;
All esds (except the esd in the dihedral angle between two l.s. planes)
are estimated using the full covariance matrix. The cell esds are taken
into account individually in the estimation of esds in distances, angles
and torsion angles; correlations between esds in cell parameters are only
used when they are defined by crystal symmetry. An approximate (isotropic)
treatment of cell esds is used for estimating esds involving l.s. planes.
;

loop_
_geom_bond_atom_site_label_1
_geom_bond_atom_site_label_2
_geom_bond_distance
_geom_bond_site_symmetry_2
_geom_bond_publ_flag
C1 C2 1.388(8) . ?
C1 C2 1.388(8) 3 ?
C1 C3 1.497(18) . ?
C4 C5 1.390(13) . ?
C4 C5 1.392(14) 2_665 ?
C4 C6 1.497(12) . ?
C5 C4 1.392(14) 3_655 ?
C5 H5 0.9300 . ?
C2 C1 1.388(8) 2 ?
C2 H2 0.9300 . ?
C8 C9 1.37(2) . ?
C8 C7 1.40(2) . ?
C8 H8 0.9300 . ?
C3 O1 1.261(9) 8 ?
C3 O1 1.261(9) . ?
C3 Co1 2.480(14) . ?
C7 N1 1.281(17) . ?
C7 H7 0.9300 . ?
O2 C6 1.237(11) . ?
O2 Co1 2.022(8) . ?
C9 C8 1.37(2) 11 ?
C9 C9 1.49(2) 4_556 ?
C6 O3 1.239(13) . ?
N1 C7 1.281(17) 11 ?
N1 Co1 2.151(7) . ?
O1 Co1 2.164(6) . ?
Co1 O2 2.022(8) 8 ?
Co1 N1 2.151(7) 4 ?
Co1 O1 2.164(6) 8 ?

loop_
_geom_angle_atom_site_label_1
_geom_angle_atom_site_label_2
_geom_angle_atom_site_label_3
_geom_angle
_geom_angle_site_symmetry_1
_geom_angle_site_symmetry_3
_geom_angle_publ_flag
C2 C1 C2 118.4(13) . 3 ?
C2 C1 C3 120.8(7) . . ?
C2 C1 C3 120.8(7) 3 . ?
C5 C4 C5 119.8(9) . 2_665 ?
C5 C4 C6 120.0(10) . . ?
C5 C4 C6 120.2(9) 2_665 . ?
C4 C5 C4 120.2(9) . 3_655 ?
C4 C5 H5 119.9 . . ?
C4 C5 H5 119.9 3_655 . ?
C1 C2 C1 121.6(13) . 2 ?
C1 C2 H2 119.2 . . ?
C1 C2 H2 119.2 2 . ?
C9 C8 C7 119.4(17) . . ?
C9 C8 H8 120.3 . . ?
C7 C8 H8 120.3 . . ?
O1 C3 O1 121.5(13) 8 . ?
O1 C3 C1 119.3(7) 8 . ?
O1 C3 C1 119.3(7) . . ?
O1 C3 Co1 60.7(7) 8 . ?
O1 C3 Co1 60.7(7) . . ?
C1 C3 Co1 180.0 . . ?
N1 C7 C8 124.0(17) . . ?
N1 C7 H7 118.0 . . ?
C8 C7 H7 118.0 . . ?
C6 O2 Co1 140.6(7) . . ?
C8 C9 C8 115.6(17) 11 . ?
C8 C9 C9 122.2(8) 11 4_556 ?
C8 C9 C9 122.2(8) . 4_556 ?
O2 C6 O3 125.4(9) . . ?
O2 C6 C4 117.8(9) . . ?
O3 C6 C4 116.8(8) . . ?
C7 N1 C7 116.5(19) . 11 ?
C7 N1 Co1 121.5(9) . . ?
C7 N1 Co1 121.5(9) 11 . ?
C3 O1 Co1 88.7(7) . . ?
O2 Co1 O2 110.0(4) . 8 ?
O2 Co1 N1 89.50(10) . . ?
O2 Co1 N1 89.50(10) 8 . ?
O2 Co1 N1 89.50(10) . 4 ?
O2 Co1 N1 89.50(10) 8 4 ?
N1 Co1 N1 178.2(3) . 4 ?
O2 Co1 O1 155.5(2) . . ?
O2 Co1 O1 94.5(3) 8 . ?
N1 Co1 O1 90.76(15) . . ?
N1 Co1 O1 90.76(15) 4 . ?
O2 Co1 O1 94.5(3) . 8 ?
O2 Co1 O1 155.5(2) 8 8 ?
N1 Co1 O1 90.76(15) . 8 ?
N1 Co1 O1 90.76(15) 4 8 ?
O1 Co1 O1 61.1(3) . 8 ?
O2 Co1 C3 125.00(19) . . ?
O2 Co1 C3 125.00(19) 8 . ?
N1 Co1 C3 90.88(17) . . ?
N1 Co1 C3 90.88(17) 4 . ?
O1 Co1 C3 30.54(17) . . ?
O1 Co1 C3 30.54(17) 8 . ?

_diffrn_measured_fraction_theta_max 0.987
_diffrn_reflns_theta_full        28.29
_diffrn_measured_fraction_theta_full 0.987
_refine_diff_density_max         3.025
_refine_diff_density_min         -0.701
_refine_diff_density_rms         0.310


