####################################################################### 
# 
# This file contains crystal structure data downloaded from the 
# Cambridge Structural Database (CSD) hosted by the Cambridge 
# Crystallographic Data Centre (CCDC).
# 
# Full information about CCDC data access policies and citation 
# guidelines are available at http://www.ccdc.cam.ac.uk/access/V1 
# 
# Audit and citation data items may have been added by the CCDC. 
# Please retain this information to preserve the provenance of 
# this file and to allow appropriate attribution of the data. 
# 
#######################################################################

data_p10
_audit_block_doi                 10.5517/cczvqgz
_database_code_depnum_ccdc_archive 'CCDC 919412'
loop_
_citation_id
_citation_doi
_citation_year
1 10.3390/polym5020418 2013
_audit_update_record             
;
2013-01-12 deposited with the CCDC.	2024-07-13 downloaded from the CCDC.
;
#TrackingRef 'submitCIF-SI2.cif'


_audit_creation_method           SHELXL-97
_chemical_name_systematic        
;
?
;
_chemical_name_common            ?
_chemical_melting_point          ?
_chemical_formula_moiety         'C42 H62 Er2 N28 O24, Co Cl4, 4Cl, 47(H2 O)'
_chemical_formula_sum            'C42 H156 Cl8 Co Er2 N28 O71'
_chemical_formula_weight         2867.00

loop_
_atom_type_symbol
_atom_type_description
_atom_type_scat_dispersion_real
_atom_type_scat_dispersion_imag
_atom_type_scat_source
C C 0.0033 0.0016 'International Tables Vol C Tables 4.2.6.8 and 6.1.1.4'
H H 0.0000 0.0000 'International Tables Vol C Tables 4.2.6.8 and 6.1.1.4'
N N 0.0061 0.0033 'International Tables Vol C Tables 4.2.6.8 and 6.1.1.4'
O O 0.0106 0.0060 'International Tables Vol C Tables 4.2.6.8 and 6.1.1.4'
Cl Cl 0.1484 0.1585 'International Tables Vol C Tables 4.2.6.8 and 6.1.1.4'
Er Er -0.2586 4.9576 'International Tables Vol C Tables 4.2.6.8 and 6.1.1.4'
Co Co 0.3494 0.9721 'International Tables Vol C Tables 4.2.6.8 and 6.1.1.4'

_symmetry_cell_setting           triclinic
_symmetry_space_group_name_H-M   'P -1'
_symmetry_space_group_name_Hall  '-P 1'

loop_
_symmetry_equiv_pos_as_xyz
'x, y, z'
'-x, -y, -z'

_cell_length_a                   17.085(4)
_cell_length_b                   17.228(4)
_cell_length_c                   20.219(6)
_cell_angle_alpha                97.325(10)
_cell_angle_beta                 113.561(7)
_cell_angle_gamma                111.615(7)
_cell_volume                     4801(2)
_cell_formula_units_Z            2
_cell_measurement_temperature    223(2)
_cell_measurement_reflns_used    ?
_cell_measurement_theta_min      ?
_cell_measurement_theta_max      ?

_exptl_crystal_description       prism
_exptl_crystal_colour            colorless
_exptl_crystal_size_max          0.19
_exptl_crystal_size_mid          0.15
_exptl_crystal_size_min          0.13
_exptl_crystal_density_meas      ?
_exptl_crystal_density_diffrn    1.983
_exptl_crystal_density_method    'not measured'
_exptl_crystal_F_000             2942
_exptl_absorpt_coefficient_mu    2.261
_exptl_absorpt_correction_type   multi-scan
_exptl_absorpt_correction_T_min  0.6733
_exptl_absorpt_correction_T_max  0.7576
_exptl_absorpt_process_details   'SADABS (Bruker, 2008)'

_exptl_special_details           
;
?
;

_diffrn_ambient_temperature      223(2)
_diffrn_radiation_wavelength     0.71073
_diffrn_radiation_type           MoK\a
_diffrn_radiation_source         'fine-focus sealed tube'
_diffrn_radiation_monochromator  graphite
_diffrn_measurement_device_type  'Bruker Smart Apex2 CCD Detector'
_diffrn_measurement_method       '\f and \w scan'
_diffrn_detector_area_resol_mean ?
_diffrn_standards_number         ?
_diffrn_standards_interval_count ?
_diffrn_standards_interval_time  ?
_diffrn_standards_decay_%        ?
_diffrn_reflns_number            40422
_diffrn_reflns_av_R_equivalents  0.0950
_diffrn_reflns_av_sigmaI/netI    0.1380
_diffrn_reflns_limit_h_min       -20
_diffrn_reflns_limit_h_max       20
_diffrn_reflns_limit_k_min       -20
_diffrn_reflns_limit_k_max       20
_diffrn_reflns_limit_l_min       -22
_diffrn_reflns_limit_l_max       24
_diffrn_reflns_theta_min         1.16
_diffrn_reflns_theta_max         25.00
_reflns_number_total             16592
_reflns_number_gt                10343
_reflns_threshold_expression     >2sigma(I)

_computing_data_collection       ?
_computing_cell_refinement       ?
_computing_data_reduction        ?
_computing_structure_solution    ?
_computing_structure_refinement  'SHELXL-97 (Sheldrick, 1997)'
_computing_molecular_graphics    ?
_computing_publication_material  ?

_refine_special_details          
;
Refinement of F^2^ against ALL reflections. The weighted R-factor wR and
goodness of fit S are based on F^2^, conventional R-factors R are based
on F, with F set to zero for negative F^2^. The threshold expression of
F^2^ > 2sigma(F^2^) is used only for calculating R-factors(gt) etc. and is
not relevant to the choice of reflections for refinement. R-factors based
on F^2^ are statistically about twice as large as those based on F, and R-
factors based on ALL data will be even larger.
;

_refine_ls_structure_factor_coef Fsqd
_refine_ls_matrix_type           full
_refine_ls_weighting_scheme      calc
_refine_ls_weighting_details     
'calc w=1/[\s^2^(Fo^2^)+(0.1519P)^2^+0.0000P] where P=(Fo^2^+2Fc^2^)/3'
_atom_sites_solution_primary     direct
_atom_sites_solution_secondary   difmap
_atom_sites_solution_hydrogens   geom
_refine_ls_hydrogen_treatment    constr
_refine_ls_extinction_method     none
_refine_ls_extinction_coef       ?
_refine_ls_number_reflns         16592
_refine_ls_number_parameters     980
_refine_ls_number_restraints     2
_refine_ls_R_factor_all          0.1267
_refine_ls_R_factor_gt           0.0986
_refine_ls_wR_factor_ref         0.2814
_refine_ls_wR_factor_gt          0.2585
_refine_ls_goodness_of_fit_ref   1.085
_refine_ls_restrained_S_all      1.085
_refine_ls_shift/su_max          0.009
_refine_ls_shift/su_mean         0.001

loop_
_atom_site_label
_atom_site_type_symbol
_atom_site_fract_x
_atom_site_fract_y
_atom_site_fract_z
_atom_site_U_iso_or_equiv
_atom_site_adp_type
_atom_site_occupancy
_atom_site_symmetry_multiplicity
_atom_site_calc_flag
_atom_site_refinement_flags
_atom_site_disorder_assembly
_atom_site_disorder_group
Cl5 Cl 0.3196(4) -0.1939(4) 0.3896(3) 0.0574(16) Uani 0.869(9) 1 d P A 1
Cl5' Cl 0.1924(11) -0.2467(11) 0.4052(10) 0.003(5) Uani 0.131(9) 1 d P . 2
Cl6 Cl 0.0000 0.5000 0.5000 0.51(3) Uani 1 2 d S . .
Cl7 Cl 0.7700(6) 0.3626(10) 0.2572(6) 0.089(4) Uani 0.50 1 d P . .
Cl8 Cl 0.0863(16) 0.8022(18) 0.3637(17) 0.32(2) Uani 0.50 1 d P . .
Cl9 Cl 0.4835(13) 0.051(2) -0.0305(9) 0.36(4) Uani 0.50 1 d P . .
Cl10 Cl 0.2263(14) 0.177(2) -0.2247(18) 0.34(3) Uani 0.50 1 d P . .
Cl11 Cl 0.7334(9) 0.2624(12) 0.1360(16) 0.199(12) Uani 0.50 1 d P . .
Cl1 Cl 0.8616(3) 0.0053(3) 0.4320(3) 0.0546(11) Uani 1 1 d . . .
Cl2 Cl 0.6725(3) 0.0021(3) 0.2579(2) 0.0558(11) Uani 1 1 d . . .
Cl3 Cl 0.8114(3) 0.1904(3) 0.4458(3) 0.0587(11) Uani 1 1 d . . .
Cl4 Cl 0.6194(3) -0.0243(4) 0.4141(3) 0.0697(14) Uani 1 1 d . . .
Co1 Co 0.73870(16) 0.04156(16) 0.38673(13) 0.0457(6) Uani 1 1 d . . .
O1W O 0.4802(6) 0.3219(7) 0.3748(5) 0.040(2) Uani 1 1 d . . .
O2W O 0.6385(7) 0.4874(7) 0.4081(6) 0.050(3) Uani 1 1 d . . .
O3W O 0.5919(6) 0.3478(6) 0.5250(5) 0.034(2) Uani 1 1 d . . .
O4W O 0.7543(6) 0.3166(7) 0.5221(5) 0.039(2) Uani 1 1 d . . .
O5W O 0.7799(7) 0.4036(7) 0.4177(5) 0.045(3) Uani 1 1 d . . .
O6W O 0.1289(8) -0.1128(8) -0.0294(5) 0.059(3) Uani 1 1 d . . .
O7W O -0.0177(6) -0.1143(7) -0.1679(6) 0.050(3) Uani 1 1 d . . .
O8W O 0.2706(6) 0.0652(6) -0.1369(5) 0.039(3) Uani 1 1 d . . .
O9W O 0.1058(7) 0.0631(7) -0.1127(5) 0.048(3) Uani 1 1 d . . .
O10W O 0.2799(6) -0.0812(7) -0.0891(6) 0.050(3) Uani 1 1 d . . .
Er1 Er 0.64607(4) 0.36334(4) 0.43752(3) 0.02405(19) Uani 1 1 d . . .
Er2 Er 0.15234(4) -0.04784(4) -0.11946(3) 0.0259(2) Uani 1 1 d . . .
C1 C 0.5207(8) 0.1325(9) 0.3568(7) 0.027(3) Uani 1 1 d . . .
C2 C 0.4048(8) -0.0114(8) 0.2994(6) 0.026(3) Uani 1 1 d . . .
H2 H 0.4098 -0.0615 0.3166 0.031 Uiso 1 1 calc R . .
C3 C 0.4535(9) 0.0123(9) 0.2499(7) 0.026(3) Uani 1 1 d . . .
H3 H 0.4827 -0.0262 0.2435 0.031 Uiso 1 1 calc R . .
C4 C 0.2943(9) -0.0258(9) 0.1780(7) 0.029(3) Uani 1 1 d . . .
C5 C 0.5807(11) 0.1563(9) 0.2496(18) 0.106(12) Uani 1 1 d . . .
H5A H 0.6464 0.1990 0.2887 0.128 Uiso 1 1 calc R . .
H5B H 0.5865 0.1119 0.2190 0.128 Uiso 1 1 calc R . .
C6 C 0.3894(10) 0.0073(9) 0.1119(7) 0.030(3) Uani 1 1 d . . .
H6A H 0.4396 -0.0093 0.1154 0.036 Uiso 1 1 calc R . .
H6B H 0.3291 -0.0370 0.0673 0.036 Uiso 1 1 calc R . .
C7 C 0.5619(8) 0.2800(8) 0.2401(6) 0.022(3) Uani 1 1 d . . .
C8 C 0.5123(8) 0.1610(8) 0.1382(7) 0.023(3) Uani 1 1 d . . .
H8 H 0.5509 0.1433 0.1199 0.027 Uiso 1 1 calc R . .
C9 C 0.5001(8) 0.2368(8) 0.1082(6) 0.023(3) Uani 1 1 d . . .
H9 H 0.5409 0.2583 0.0843 0.028 Uiso 1 1 calc R . .
C10 C 0.3511(8) 0.1105(9) 0.0473(6) 0.024(3) Uani 1 1 d . . .
C11 C 0.5529(9) 0.3946(9) 0.1822(8) 0.034(3) Uani 1 1 d . . .
H11A H 0.5833 0.4116 0.1507 0.041 Uiso 1 1 calc R . .
H11B H 0.6000 0.4319 0.2351 0.041 Uiso 1 1 calc R . .
C12 C 0.3587(10) 0.2416(9) 0.0018(7) 0.033(3) Uani 1 1 d . . .
H12A H 0.4057 0.2750 -0.0129 0.040 Uiso 1 1 calc R . .
H12B H 0.3002 0.1982 -0.0446 0.040 Uiso 1 1 calc R . .
C13 C 0.4612(11) 0.4635(9) 0.2090(8) 0.043(4) Uani 1 1 d . . .
C14 C 0.4063(8) 0.3952(8) 0.0814(6) 0.023(3) Uani 1 1 d . . .
H14 H 0.4401 0.4208 0.0535 0.027 Uiso 1 1 calc R . .
C15 C 0.3425(9) 0.4375(9) 0.0863(7) 0.027(3) Uani 1 1 d . . .
H15 H 0.3427 0.4806 0.0583 0.033 Uiso 1 1 calc R . .
C16 C 0.2453(10) 0.2867(9) 0.0234(7) 0.031(3) Uani 1 1 d . . .
C17 C 0.3718(10) 0.5469(11) 0.2017(7) 0.041(4) Uani 1 1 d . . .
H17A H 0.3739 0.5890 0.1733 0.049 Uiso 1 1 calc R . .
H17B H 0.4245 0.5787 0.2541 0.049 Uiso 1 1 calc R . .
C18 C 0.1594(10) 0.3720(9) 0.0255(7) 0.035(3) Uani 1 1 d . . .
H18A H 0.1633 0.4158 -0.0012 0.042 Uiso 1 1 calc R . .
H18B H 0.1044 0.3155 -0.0106 0.042 Uiso 1 1 calc R . .
C19 C 0.2800(10) 0.5363(9) 0.2708(7) 0.031(3) Uani 1 1 d . . .
C20 C 0.1864(10) 0.4894(9) 0.1347(8) 0.032(3) Uani 1 1 d . . .
H20 H 0.1905 0.5316 0.1057 0.039 Uiso 1 1 calc R . .
C21 C 0.1231(9) 0.4865(9) 0.1732(7) 0.026(3) Uani 1 1 d . . .
H21 H 0.0930 0.5256 0.1602 0.031 Uiso 1 1 calc R . .
C22 C 0.0626(9) 0.3447(9) 0.0909(6) 0.032(3) Uani 1 1 d . . .
C23 C 0.1650(10) 0.5473(10) 0.3103(8) 0.035(3) Uani 1 1 d . . .
H23A H 0.1256 0.5766 0.2899 0.042 Uiso 1 1 calc R . .
H23B H 0.2255 0.5913 0.3550 0.042 Uiso 1 1 calc R . .
C24 C -0.0299(9) 0.3648(10) 0.1491(6) 0.030(3) Uani 1 1 d . . .
H24A H -0.0782 0.3092 0.1076 0.037 Uiso 1 1 calc R . .
H24B H -0.0552 0.4074 0.1420 0.037 Uiso 1 1 calc R . .
C25 C 0.1539(9) 0.4666(8) 0.4014(7) 0.024(3) Uani 1 1 d . . .
C26 C 0.0121(9) 0.4215(9) 0.2915(6) 0.029(3) Uani 1 1 d . . .
H26 H -0.0241 0.4560 0.2795 0.035 Uiso 1 1 calc R . .
C27 C -0.0107(8) 0.3680(7) 0.3420(6) 0.018(3) Uani 1 1 d . . .
H27 H -0.0570 0.3753 0.3566 0.021 Uiso 1 1 calc R . .
C28 C -0.0616(8) 0.2661(8) 0.2261(6) 0.027(3) Uani 1 1 d . . .
C29 C 0.1043(9) 0.3697(8) 0.4700(6) 0.026(3) Uani 1 1 d . . .
H29A H 0.0529 0.3627 0.4826 0.031 Uiso 1 1 calc R . .
H29B H 0.1652 0.4144 0.5140 0.031 Uiso 1 1 calc R . .
C30 C -0.0854(6) 0.2334(9) 0.3298(5) 0.028(4) Uani 1 1 d D . .
H30A H -0.1557 0.1995 0.2994 0.034 Uiso 1 1 calc R . .
H30B H -0.0705 0.2756 0.3758 0.034 Uiso 1 1 calc R . .
C31 C 0.1928(10) 0.2799(10) 0.4807(7) 0.031(3) Uani 1 1 d . . .
C32 C 0.0263(9) 0.2010(9) 0.4323(7) 0.028(3) Uani 1 1 d . . .
H32 H -0.0037 0.1998 0.4653 0.033 Uiso 1 1 calc R . .
C33 C 0.0748(9) 0.1365(8) 0.4426(6) 0.028(3) Uani 1 1 d . . .
H33 H 0.0629 0.1037 0.4772 0.034 Uiso 1 1 calc R . .
C34 C -0.0371(9) 0.1001(9) 0.3163(7) 0.027(3) Uani 1 1 d . . .
C35 C 0.2514(10) 0.1740(8) 0.5094(6) 0.027(3) Uani 1 1 d . . .
H35A H 0.2368 0.1390 0.5414 0.032 Uiso 1 1 calc R . .
H35B H 0.3107 0.2288 0.5430 0.032 Uiso 1 1 calc R . .
C36 C 0.0310(9) -0.0032(9) 0.3440(8) 0.034(3) Uani 1 1 d . . .
H36A H 0.0181 -0.0370 0.3772 0.041 Uiso 1 1 calc R . .
H36B H -0.0205 -0.0378 0.2916 0.041 Uiso 1 1 calc R . .
C37 C 0.3578(9) 0.1525(9) 0.4626(6) 0.026(3) Uani 1 1 d . . .
C38 C 0.2056(8) 0.0271(8) 0.4157(7) 0.027(3) Uani 1 1 d . . .
H38 H 0.1917 -0.0032 0.4511 0.032 Uiso 1 1 calc R . .
C39 C 0.2631(9) -0.0004(10) 0.3905(7) 0.033(3) Uani 1 1 d . . .
H39 H 0.2721 -0.0484 0.4094 0.040 Uiso 1 1 calc R . .
C40 C 0.1188(9) -0.0295(10) 0.2828(7) 0.033(3) Uani 1 1 d . . .
C41 C 0.4410(9) 0.0738(10) 0.4312(6) 0.034(3) Uani 1 1 d . . .
H41A H 0.4404 0.0217 0.4461 0.040 Uiso 1 1 calc R . .
H41B H 0.4972 0.1258 0.4728 0.040 Uiso 1 1 calc R . .
C42 C 0.2219(9) -0.0849(10) 0.2560(7) 0.036(4) Uani 1 1 d . . .
H42A H 0.1633 -0.1145 0.2063 0.043 Uiso 1 1 calc R . .
H42B H 0.2330 -0.1304 0.2769 0.043 Uiso 1 1 calc R . .
N1 N 0.4518(7) 0.0684(8) 0.3615(6) 0.030(3) Uani 1 1 d . . .
N2 N 0.5272(7) 0.1045(7) 0.2959(5) 0.019(2) Uani 1 1 d . . .
N3 N 0.3035(7) -0.0329(8) 0.2458(6) 0.032(3) Uani 1 1 d . . .
N4 N 0.3785(7) 0.0019(7) 0.1797(5) 0.021(2) Uani 1 1 d . . .
N5 N 0.5592(8) 0.1852(11) 0.2187(5) 0.057(5) Uani 1 1 d . . .
N6 N 0.5300(7) 0.3052(7) 0.1770(5) 0.023(2) Uani 1 1 d . . .
N7 N 0.4125(7) 0.0882(7) 0.0985(5) 0.028(3) Uani 1 1 d . . .
N8 N 0.3986(8) 0.1945(8) 0.0526(5) 0.032(3) Uani 1 1 d . . .
N9 N 0.4725(8) 0.4114(7) 0.1589(6) 0.031(3) Uani 1 1 d . . .
N10 N 0.3865(8) 0.4792(7) 0.1681(6) 0.032(3) Uani 1 1 d . . .
N11 N 0.3360(7) 0.3022(7) 0.0400(6) 0.031(3) Uani 1 1 d . . .
N12 N 0.2497(8) 0.3628(8) 0.0531(6) 0.036(3) Uani 1 1 d . . .
N13 N 0.2793(7) 0.5123(7) 0.2023(6) 0.034(3) Uani 1 1 d . . .
N14 N 0.1862(8) 0.5145(8) 0.2526(6) 0.034(3) Uani 1 1 d . . .
N15 N 0.1452(8) 0.3994(8) 0.0892(6) 0.034(3) Uani 1 1 d . . .
N16 N 0.0505(7) 0.3943(8) 0.1423(6) 0.032(3) Uani 1 1 d . . .
N17 N 0.1143(7) 0.4773(7) 0.3340(6) 0.029(3) Uani 1 1 d . . .
N18 N 0.0883(7) 0.4002(6) 0.4074(5) 0.023(2) Uani 1 1 d . . .
N19 N -0.0187(7) 0.3499(6) 0.2215(5) 0.021(2) Uani 1 1 d . . .
N20 N -0.0492(6) 0.2816(5) 0.2862(5) 0.34(3) Uani 1 1 d D . .
N21 N 0.1081(7) 0.2864(7) 0.4582(5) 0.024(2) Uani 1 1 d . . .
N22 N 0.1751(7) 0.1952(7) 0.4730(6) 0.031(3) Uani 1 1 d . . .
N23 N -0.0460(8) 0.1734(6) 0.3522(6) 0.045(4) Uani 1 1 d D . .
N24 N 0.0281(8) 0.0786(8) 0.3653(6) 0.033(3) Uani 1 1 d . . .
N25 N 0.2689(8) 0.1233(6) 0.4550(6) 0.027(2) Uani 1 1 d . . .
N26 N 0.3553(7) 0.0791(7) 0.4220(6) 0.029(3) Uani 1 1 d . . .
N27 N 0.1180(8) 0.0077(7) 0.3487(6) 0.032(3) Uani 1 1 d . . .
N28 N 0.2081(7) -0.0304(7) 0.3066(5) 0.027(3) Uani 1 1 d . . .
O1 O 0.5740(6) 0.2115(6) 0.4036(5) 0.030(2) Uani 1 1 d . . .
O2 O 0.5930(6) 0.3269(6) 0.3051(5) 0.029(2) Uani 1 1 d . . .
O3 O 0.5152(7) 0.4975(7) 0.2794(5) 0.045(3) Uani 1 1 d . . .
O4 O 0.3496(7) 0.5629(7) 0.3354(5) 0.050(3) Uani 1 1 d . . .
O5 O 0.2401(6) 0.5101(6) 0.4510(4) 0.027(2) Uani 1 1 d . . .
O6 O 0.2726(7) 0.3445(7) 0.5080(6) 0.045(3) Uani 1 1 d . . .
O7 O 0.4258(7) 0.2223(7) 0.5003(6) 0.047(3) Uani 1 1 d . . .
O8 O 0.2150(6) -0.0451(7) 0.1215(5) 0.043(3) Uani 1 1 d . . .
O9 O 0.2653(5) 0.0602(5) 0.0028(4) 0.025(2) Uani 1 1 d . . .
O10 O 0.1718(7) 0.2141(8) -0.0134(6) 0.058(3) Uani 1 1 d . . .
O11 O 0.0074(8) 0.2698(7) 0.0526(6) 0.054(3) Uani 1 1 d . . .
O12 O -0.0898(6) 0.2024(7) 0.1774(5) 0.036(2) Uani 1 1 d . . .
O13 O -0.0891(6) 0.0536(7) 0.2460(5) 0.039(2) Uani 1 1 d . . .
O14 O 0.0534(6) -0.0613(7) 0.2184(5) 0.045(3) Uani 1 1 d . . .

loop_
_atom_site_aniso_label
_atom_site_aniso_U_11
_atom_site_aniso_U_22
_atom_site_aniso_U_33
_atom_site_aniso_U_23
_atom_site_aniso_U_13
_atom_site_aniso_U_12
Cl5 0.050(3) 0.060(3) 0.061(3) 0.031(3) 0.022(2) 0.026(3)
Cl5' 0.001(9) 0.000(9) 0.016(9) 0.011(7) 0.005(7) 0.003(7)
Cl6 0.113(9) 0.57(4) 0.40(3) -0.44(3) -0.154(13) 0.226(17)
Cl7 0.022(4) 0.179(13) 0.064(6) 0.051(7) 0.020(4) 0.040(6)
Cl8 0.143(18) 0.25(3) 0.33(3) 0.24(3) -0.029(19) -0.042(17)
Cl9 0.079(12) 0.49(6) 0.158(19) -0.26(3) 0.098(16) -0.15(2)
Cl10 0.089(13) 0.33(3) 0.42(4) 0.32(4) 0.008(18) -0.013(17)
Cl11 0.048(7) 0.124(13) 0.42(3) 0.150(18) 0.086(13) 0.044(8)
Cl1 0.050(2) 0.066(3) 0.075(3) 0.048(2) 0.039(2) 0.035(2)
Cl2 0.076(3) 0.065(3) 0.057(2) 0.026(2) 0.045(2) 0.045(3)
Cl3 0.074(3) 0.061(3) 0.063(3) 0.023(2) 0.045(2) 0.038(3)
Cl4 0.052(3) 0.097(4) 0.070(3) 0.041(3) 0.040(2) 0.027(3)
Co1 0.0481(13) 0.0559(15) 0.0531(13) 0.0294(11) 0.0337(11) 0.0294(12)
O1W 0.015(5) 0.046(7) 0.038(5) 0.001(5) 0.005(4) 0.005(5)
O2W 0.044(6) 0.036(6) 0.046(6) 0.008(5) 0.002(5) 0.016(5)
O3W 0.022(5) 0.026(5) 0.030(5) -0.001(4) 0.007(4) -0.002(4)
O4W 0.031(5) 0.048(7) 0.031(5) 0.008(5) 0.006(4) 0.022(5)
O5W 0.031(5) 0.052(7) 0.037(5) -0.002(5) 0.012(4) 0.016(5)
O6W 0.047(7) 0.072(9) 0.022(5) 0.005(5) 0.014(5) -0.003(6)
O7W 0.013(5) 0.047(7) 0.054(6) -0.005(5) 0.006(4) -0.003(5)
O8W 0.035(5) 0.022(5) 0.017(4) -0.017(4) 0.000(4) -0.009(4)
O9W 0.030(5) 0.043(7) 0.039(6) -0.018(5) 0.000(4) 0.012(5)
O10W 0.020(5) 0.040(6) 0.054(6) -0.008(5) 0.000(5) 0.008(5)
Er1 0.0170(3) 0.0229(4) 0.0174(3) -0.0016(2) 0.0032(2) 0.0030(3)
Er2 0.0174(3) 0.0251(4) 0.0183(3) -0.0034(2) 0.0042(2) 0.0016(3)
C1 0.015(6) 0.024(8) 0.038(7) 0.009(6) 0.016(6) 0.003(6)
C2 0.018(6) 0.019(7) 0.019(6) 0.001(5) 0.003(5) -0.005(5)
C3 0.019(6) 0.026(8) 0.036(7) 0.015(6) 0.016(6) 0.008(6)
C4 0.022(7) 0.030(8) 0.016(6) -0.003(5) 0.002(5) 0.005(6)
C5 0.022(9) 0.000(7) 0.33(4) 0.033(13) 0.116(17) 0.013(7)
C6 0.037(8) 0.020(7) 0.033(7) 0.005(6) 0.021(6) 0.009(6)
C7 0.009(6) 0.019(7) 0.012(6) 0.001(5) -0.001(5) -0.010(5)
C8 0.024(6) 0.012(7) 0.038(7) 0.008(5) 0.021(6) 0.008(5)
C9 0.014(6) 0.017(7) 0.012(5) -0.007(5) -0.005(5) -0.003(5)
C10 0.016(6) 0.027(8) 0.018(6) -0.004(5) 0.011(5) -0.002(6)
C11 0.021(7) 0.037(9) 0.039(7) 0.012(7) 0.019(6) 0.003(6)
C12 0.030(7) 0.037(9) 0.024(6) 0.008(6) 0.005(6) 0.016(7)
C13 0.049(9) 0.022(8) 0.026(7) -0.003(6) 0.005(7) 0.005(7)
C14 0.022(6) 0.021(7) 0.022(