####################################################################### 
# 
# This file contains crystal structure data downloaded from the 
# Cambridge Structural Database (CSD) hosted by the Cambridge 
# Crystallographic Data Centre (CCDC).
# 
# Full information about CCDC data access policies and citation 
# guidelines are available at http://www.ccdc.cam.ac.uk/access/V1 
# 
# Audit and citation data items may have been added by the CCDC. 
# Please retain this information to preserve the provenance of 
# this file and to allow appropriate attribution of the data. 
# 
#######################################################################

data_p12
_audit_block_doi                 10.5517/cczvqj1
_database_code_depnum_ccdc_archive 'CCDC 919414'
loop_
_citation_id
_citation_doi
_citation_year
1 10.3390/polym5020418 2013
_audit_update_record             
;
2013-01-12 deposited with the CCDC.	2024-07-13 downloaded from the CCDC.
;
#TrackingRef 'submitCIF-SI4.cif'


_audit_creation_method           SHELXL-97
_chemical_name_systematic        
;
?
;
_chemical_name_common            ?
_chemical_melting_point          ?
_chemical_formula_moiety         'C42 H62 Ho2 N28 O24, Co Cl4, 4Cl, 55(H2 O)'
_chemical_formula_sum            'C42 H172 Cl8 Co Ho2 N28 O79'
_chemical_formula_weight         3006.47

loop_
_atom_type_symbol
_atom_type_description
_atom_type_scat_dispersion_real
_atom_type_scat_dispersion_imag
_atom_type_scat_source
C C 0.0033 0.0016 'International Tables Vol C Tables 4.2.6.8 and 6.1.1.4'
H H 0.0000 0.0000 'International Tables Vol C Tables 4.2.6.8 and 6.1.1.4'
N N 0.0061 0.0033 'International Tables Vol C Tables 4.2.6.8 and 6.1.1.4'
O O 0.0106 0.0060 'International Tables Vol C Tables 4.2.6.8 and 6.1.1.4'
Cl Cl 0.1484 0.1585 'International Tables Vol C Tables 4.2.6.8 and 6.1.1.4'
Ho Ho -0.2175 4.6783 'International Tables Vol C Tables 4.2.6.8 and 6.1.1.4'
Co Co 0.3494 0.9721 'International Tables Vol C Tables 4.2.6.8 and 6.1.1.4'

_symmetry_cell_setting           monoclinic
_symmetry_space_group_name_H-M   'P 21/c'
_symmetry_space_group_name_Hall  '-P 2ybc'

loop_
_symmetry_equiv_pos_as_xyz
'x, y, z'
'-x, y+1/2, -z+1/2'
'-x, -y, -z'
'x, -y-1/2, z-1/2'

_cell_length_a                   17.1162(13)
_cell_length_b                   27.675(2)
_cell_length_c                   20.4248(16)
_cell_angle_alpha                90.00
_cell_angle_beta                 97.399(2)
_cell_angle_gamma                90.00
_cell_volume                     9594.4(13)
_cell_formula_units_Z            4
_cell_measurement_temperature    223(2)
_cell_measurement_reflns_used    ?
_cell_measurement_theta_min      ?
_cell_measurement_theta_max      ?

_exptl_crystal_description       prism
_exptl_crystal_colour            colorless
_exptl_crystal_size_max          0.21
_exptl_crystal_size_mid          0.17
_exptl_crystal_size_min          0.15
_exptl_crystal_density_meas      ?
_exptl_crystal_density_diffrn    2.081
_exptl_crystal_density_method    'not measured'
_exptl_crystal_F_000             6196
_exptl_absorpt_coefficient_mu    2.174
_exptl_absorpt_correction_type   multi-scan
_exptl_absorpt_correction_T_min  0.6582
_exptl_absorpt_correction_T_max  0.7363
_exptl_absorpt_process_details   'SADABS (Bruker, 2008)'

_exptl_special_details           
;
?
;

_diffrn_ambient_temperature      223(2)
_diffrn_radiation_wavelength     0.71073
_diffrn_radiation_type           MoK\a
_diffrn_radiation_source         'fine-focus sealed tube'
_diffrn_radiation_monochromator  graphite
_diffrn_measurement_device_type  'Bruker Smart Apex2 CCD Detector'
_diffrn_measurement_method       '\f and \w scan'
_diffrn_detector_area_resol_mean ?
_diffrn_standards_number         ?
_diffrn_standards_interval_count ?
_diffrn_standards_interval_time  ?
_diffrn_standards_decay_%        ?
_diffrn_reflns_number            86198
_diffrn_reflns_av_R_equivalents  0.1098
_diffrn_reflns_av_sigmaI/netI    0.1036
_diffrn_reflns_limit_h_min       -21
_diffrn_reflns_limit_h_max       21
_diffrn_reflns_limit_k_min       -30
_diffrn_reflns_limit_k_max       33
_diffrn_reflns_limit_l_min       -25
_diffrn_reflns_limit_l_max       24
_diffrn_reflns_theta_min         1.20
_diffrn_reflns_theta_max         26.00
_reflns_number_total             18676
_reflns_number_gt                10691
_reflns_threshold_expression     >2sigma(I)

_computing_data_collection       ?
_computing_cell_refinement       ?
_computing_data_reduction        ?
_computing_structure_solution    ?
_computing_structure_refinement  'SHELXL-97 (Sheldrick, 1997)'
_computing_molecular_graphics    ?
_computing_publication_material  ?

_refine_special_details          
;
Refinement of F^2^ against ALL reflections. The weighted R-factor wR and
goodness of fit S are based on F^2^, conventional R-factors R are based
on F, with F set to zero for negative F^2^. The threshold expression of
F^2^ > 2sigma(F^2^) is used only for calculating R-factors(gt) etc. and is
not relevant to the choice of reflections for refinement. R-factors based
on F^2^ are statistically about twice as large as those based on F, and R-
factors based on ALL data will be even larger.
;

_refine_ls_structure_factor_coef Fsqd
_refine_ls_matrix_type           full
_refine_ls_weighting_scheme      calc
_refine_ls_weighting_details     
'calc w=1/[\s^2^(Fo^2^)+(0.1325P)^2^+0.0000P] where P=(Fo^2^+2Fc^2^)/3'
_atom_sites_solution_primary     direct
_atom_sites_solution_secondary   difmap
_atom_sites_solution_hydrogens   geom
_refine_ls_hydrogen_treatment    constr
_refine_ls_extinction_method     none
_refine_ls_extinction_coef       ?
_refine_ls_number_reflns         18676
_refine_ls_number_parameters     964
_refine_ls_number_restraints     4
_refine_ls_R_factor_all          0.1201
_refine_ls_R_factor_gt           0.0804
_refine_ls_wR_factor_ref         0.2368
_refine_ls_wR_factor_gt          0.2144
_refine_ls_goodness_of_fit_ref   1.014
_refine_ls_restrained_S_all      2.006
_refine_ls_shift/su_max          0.010
_refine_ls_shift/su_mean         0.001

loop_
_atom_site_label
_atom_site_type_symbol
_atom_site_fract_x
_atom_site_fract_y
_atom_site_fract_z
_atom_site_U_iso_or_equiv
_atom_site_adp_type
_atom_site_occupancy
_atom_site_symmetry_multiplicity
_atom_site_calc_flag
_atom_site_refinement_flags
_atom_site_disorder_assembly
_atom_site_disorder_group
Cl6 Cl 0.9646(5) -0.0440(3) 0.6436(4) 0.082(2) Uani 1 1 d . . .
Cl7 Cl 1.2780(5) 0.2672(6) 0.8028(4) 0.166(6) Uani 1 1 d . . .
Cl8 Cl 0.3166(8) 0.3062(8) 0.6057(11) 0.122(8) Uani 0.50 1 d P . .
Cl9 Cl 1.3302(11) 0.1765(10) 0.8144(8) 0.141(10) Uani 0.50 1 d P . .
Cl10 Cl 1.2395(11) 0.3204(8) 0.4848(13) 0.137(9) Uani 0.50 1 d P . .
Cl11 Cl 0.3654(13) 0.4397(7) 0.4659(12) 0.136(8) Uani 0.50 1 d P . .
Co1 Co 0.28501(15) 0.07691(11) 0.55061(14) 0.0422(7) Uani 1 1 d . . .
Cl1 Cl 0.3089(3) 0.1214(2) 0.6446(3) 0.0506(14) Uani 1 1 d . . .
Cl2 Cl 0.3984(3) 0.0362(2) 0.5395(3) 0.0552(16) Uani 1 1 d . . .
Cl3 Cl 0.2595(3) 0.1223(2) 0.4569(3) 0.0573(16) Uani 1 1 d . . .
Cl4 Cl 0.1789(4) 0.0299(2) 0.5603(3) 0.0589(16) Uani 1 1 d . . .
O1W O 0.5892(9) 0.2892(5) 0.7439(6) 0.044(4) Uani 1 1 d . . .
O2W O 0.4629(8) 0.1474(5) 0.7465(6) 0.043(4) Uani 1 1 d . . .
O3W O 0.6568(8) 0.2233(5) 0.6594(7) 0.046(4) Uani 1 1 d . . .
O4W O 0.6422(7) 0.1618(5) 0.7601(6) 0.042(4) Uani 1 1 d . . .
O5W O 0.4171(8) 0.2465(6) 0.7177(7) 0.052(4) Uani 1 1 d . . .
O6W O 0.9804(10) 0.2916(5) 0.3660(6) 0.046(4) Uani 1 1 d . . .
O7W O 1.1041(7) 0.1488(5) 0.3619(6) 0.039(3) Uani 1 1 d . . .
O8W O 0.9111(8) 0.2254(6) 0.4474(7) 0.046(4) Uani 1 1 d . . .
O9W O 0.9294(8) 0.1621(5) 0.3483(6) 0.040(3) Uani 1 1 d . . .
O10W O 1.1542(8) 0.2439(6) 0.3931(7) 0.052(4) Uani 1 1 d . . .
Ho1 Ho 0.54252(5) 0.21299(3) 0.71377(4) 0.0237(3) Uani 1 1 d . . .
Ho2 Ho 1.02546(4) 0.21426(3) 0.39489(4) 0.0228(3) Uani 1 1 d . . .
C1 C 0.6225(10) 0.0747(7) 0.5956(9) 0.032(4) Uani 1 1 d . . .
H1A H 0.6130 0.0811 0.6411 0.039 Uiso 1 1 calc R . .
H1B H 0.6075 0.0410 0.5854 0.039 Uiso 1 1 calc R . .
C2 C 0.6752(11) 0.0829(7) 0.4272(9) 0.033(4) Uani 1 1 d . . .
H2A H 0.6928 0.0942 0.3861 0.040 Uiso 1 1 calc R . .
H2B H 0.6577 0.0494 0.4205 0.040 Uiso 1 1 calc R . .
C3 C 0.7440(10) 0.0560(7) 0.5394(8) 0.027(4) Uani 1 1 d . . .
H3 H 0.7229 0.0231 0.5298 0.032 Uiso 1 1 calc R . .
C4 C 0.8307(10) 0.0546(6) 0.5682(8) 0.026(4) Uani 1 1 d . . .
H4 H 0.8502 0.0211 0.5756 0.031 Uiso 1 1 calc R . .
C5 C 0.7581(11) 0.0930(7) 0.6425(8) 0.031(4) Uani 1 1 d . . .
C6 C 0.8163(11) 0.0945(7) 0.4646(8) 0.029(4) Uani 1 1 d . . .
C7 C 0.8997(11) 0.0789(7) 0.6808(8) 0.034(5) Uani 1 1 d . . .
H7A H 0.9186 0.0455 0.6852 0.040 Uiso 1 1 calc R . .
H7B H 0.8827 0.0886 0.7228 0.040 Uiso 1 1 calc R . .
C8 C 0.9510(10) 0.0722(7) 0.5129(9) 0.031(4) Uani 1 1 d . . .
H8A H 0.9598 0.0781 0.4671 0.037 Uiso 1 1 calc R . .
H8B H 0.9653 0.0385 0.5235 0.037 Uiso 1 1 calc R . .
C9 C 1.0251(10) 0.0951(6) 0.6246(8) 0.025(4) Uani 1 1 d . . .
H9 H 1.0418 0.0611 0.6331 0.030 Uiso 1 1 calc R . .
C10 C 1.0927(10) 0.1315(6) 0.6454(8) 0.024(4) Uani 1 1 d . . .
H10 H 1.1420 0.1150 0.6638 0.029 Uiso 1 1 calc R . .
C11 C 0.9904(10) 0.1486(6) 0.7069(8) 0.025(4) Uani 1 1 d . . .
C12 C 1.0460(10) 0.1392(6) 0.5337(8) 0.023(4) Uani 1 1 d . . .
C13 C 1.1090(10) 0.1969(6) 0.7328(8) 0.024(4) Uani 1 1 d . . .
H13A H 1.1643 0.1868 0.7370 0.029 Uiso 1 1 calc R . .
H13B H 1.0929 0.1968 0.7771 0.029 Uiso 1 1 calc R . .
C14 C 1.1548(9) 0.1961(7) 0.5768(10) 0.042(6) Uani 1 1 d . . .
H14A H 1.2035 0.1896 0.6062 0.051 Uiso 1 1 calc R . .
H14B H 1.1683 0.1967 0.5316 0.051 Uiso 1 1 calc R . .
C15 C 1.1182(9) 0.3155(6) 0.6446(8) 0.021(4) Uani 1 1 d . . .
H15 H 1.1621 0.3391 0.6505 0.025 Uiso 1 1 calc R . .
C16 C 1.1492(10) 0.2626(6) 0.6564(7) 0.022(4) Uani 1 1 d . . .
H16 H 1.2065 0.2617 0.6714 0.026 Uiso 1 1 calc R . .
C17 C 1.0598(9) 0.2814(6) 0.7302(8) 0.018(3) Uani 1 1 d . . .
C18 C 1.0876(10) 0.2718(6) 0.5481(8) 0.021(4) Uani 1 1 d . . .
C19 C 1.0306(11) 0.3677(7) 0.7089(8) 0.032(4) Uani 1 1 d . . .
H19A H 1.0702 0.3933 0.7098 0.038 Uiso 1 1 calc R . .
H19B H 1.0136 0.3659 0.7529 0.038 Uiso 1 1 calc R . .
C20 C 1.0588(11) 0.3572(7) 0.5381(9) 0.032(4) Uani 1 1 d . . .
H20A H 1.0594 0.3495 0.4913 0.038 Uiso 1 1 calc R . .
H20B H 1.0986 0.3823 0.5499 0.038 Uiso 1 1 calc R . .
C21 C 0.9682(10) 0.4068(6) 0.6008(8) 0.025(4) Uani 1 1 d . . .
H21 H 1.0072 0.4333 0.6079 0.030 Uiso 1 1 calc R . .
C22 C 0.8853(10) 0.4260(7) 0.5809(8) 0.029(4) Uani 1 1 d . . .
H22 H 0.8829 0.4617 0.5806 0.035 Uiso 1 1 calc R . .
C23 C 0.8897(12) 0.3813(8) 0.6781(9) 0.038(5) Uani 1 1 d . . .
C24 C 0.9218(11) 0.3777(7) 0.4959(8) 0.030(4) Uani 1 1 d . . .
C25 C 0.7640(10) 0.4239(8) 0.6425(8) 0.037(5) Uani 1 1 d . . .
H25A H 0.7538 0.4150 0.6871 0.044 Uiso 1 1 calc R . .
H25B H 0.7657 0.4592 0.6401 0.044 Uiso 1 1 calc R . .
C26 C 0.4193(10) 0.2628(6) 0.4523(8) 0.022(4) Uani 1 1 d . . .
H26 H 0.3623 0.2622 0.4362 0.026 Uiso 1 1 calc R . .
C27 C 0.7997(10) 0.4238(8) 0.4679(9) 0.033(4) Uani 1 1 d . . .
H27A H 0.8006 0.4592 0.4693 0.040 Uiso 1 1 calc R . .
H27B H 0.8085 0.4138 0.4234 0.040 Uiso 1 1 calc R . .
C28 C 0.6798(10) 0.4272(7) 0.5307(8) 0.027(4) Uani 1 1 d . . .
H28 H 0.6824 0.4629 0.5317 0.032 Uiso 1 1 calc R . .
C29 C 0.4109(6) 0.1902(6) 0.5306(10) 0.15(2) Uani 1 1 d D . .
H29A H 0.3637 0.1809 0.5009 0.185 Uiso 1 1 calc R . .
H29B H 0.3973 0.1908 0.5758 0.185 Uiso 1 1 calc R . .
C30 C 0.5939(10) 0.4085(7) 0.5091(8) 0.027(4) Uani 1 1 d . . .
H30 H 0.5552 0.4352 0.5028 0.032 Uiso 1 1 calc R . .
C31 C 0.6398(11) 0.3787(6) 0.6154(9) 0.030(4) Uani 1 1 d . . .
C32 C 0.6761(12) 0.3838(8) 0.4310(10) 0.038(5) Uani 1 1 d . . .
C33 C 0.5038(11) 0.3572(7) 0.5706(8) 0.031(4) Uani 1 1 d . . .
H33A H 0.5019 0.3492 0.6172 0.037 Uiso 1 1 calc R . .
H33B H 0.4634 0.3818 0.5579 0.037 Uiso 1 1 calc R . .
C34 C 0.5325(11) 0.3698(6) 0.4006(8) 0.027(4) Uani 1 1 d . . .
H34A H 0.4914 0.3943 0.4008 0.033 Uiso 1 1 calc R . .
H34B H 0.5489 0.3691 0.3563 0.033 Uiso 1 1 calc R . .
C35 C 0.4485(10) 0.3147(6) 0.4651(7) 0.021(4) Uani 1 1 d . . .
H35 H 0.4038 0.3376 0.4596 0.025 Uiso 1 1 calc R . .
C37 C 0.4801(12) 0.2714(7) 0.5601(8) 0.034(5) Uani 1 1 d . . .
C38 C 0.5065(10) 0.2834(7) 0.3779(8) 0.025(4) Uani 1 1 d . . .
C39 C 0.4624(9) 0.1969(6) 0.3760(8) 0.023(4) Uani 1 1 d . . .
H39A H 0.4078 0.1856 0.3726 0.027 Uiso 1 1 calc R . .
H39B H 0.4778 0.1968 0.3314 0.027 Uiso 1 1 calc R . .
C40 C 0.4801(10) 0.1321(6) 0.4630(7) 0.021(4) Uani 1 1 d . . .
H40 H 0.4310 0.1154 0.4445 0.026 Uiso 1 1 calc R . .
C41 C 0.5249(10) 0.1401(6) 0.5747(8) 0.024(4) Uani 1 1 d . . .
C42 C 0.5843(10) 0.1511(7) 0.4026(8) 0.025(4) Uani 1 1 d . . .
C44 C 0.5502(10) 0.0964(6) 0.4820(8) 0.025(4) Uani 1 1 d . . .
H44 H 0.5345 0.0624 0.4734 0.030 Uiso 1 1 calc R . .
N1 N 1.1034(8) 0.2463(5) 0.7074(6) 0.024(3) Uani 1 1 d . . .
N3 N 1.0665(8) 0.3218(5) 0.6943(6) 0.023(3) Uani 1 1 d . . .
N4 N 0.9627(9) 0.3805(6) 0.6608(7) 0.031(4) Uani 1 1 d . . .
N5 N 0.8408(9) 0.4042(6) 0.6307(7) 0.032(4) Uani 1 1 d . . .
N6 N 0.7008(8) 0.4063(6) 0.5953(7) 0.030(4) Uani 1 1 d . . .
N7 N 0.5807(9) 0.3775(5) 0.5639(7) 0.029(4) Uani 1 1 d . . .
N8 N 0.4852(8) 0.3146(5) 0.5313(6) 0.023(3) Uani 1 1 d . . .
N9 N 0.5719(8) 0.1058(5) 0.5520(7) 0.027(3) Uani 1 1 d . . .
N10 N 0.7050(8) 0.0799(5) 0.5918(7) 0.029(3) Uani 1 1 d . . .
N11 N 0.8331(8) 0.0812(6) 0.6293(7) 0.028(3) Uani 1 1 d . . .
N12 N 0.9650(9) 0.1106(6) 0.6665(7) 0.032(4) Uani 1 1 d . . .
N13 N 1.0629(7) 0.1622(5) 0.6934(6) 0.024(3) Uani 1 1 d . . .
N14 N 1.0029(9) 0.1043(5) 0.5568(7) 0.028(3) Uani 1 1 d . . .
N15 N 1.0997(8) 0.1543(5) 0.5820(7) 0.025(3) Uani 1 1 d . . .
N16 N 1.1295(9) 0.2414(5) 0.5911(6) 0.025(3) Uani 1 1 d . . .
N17 N 1.0806(9) 0.3148(5) 0.5766(6) 0.024(3) Uani 1 1 d . . .
N18 N 0.9820(9) 0.3767(6) 0.5465(7) 0.034(4) Uani 1 1 d . . .
N19 N 0.8639(9) 0.4049(6) 0.5159(7) 0.033(4) Uani 1 1 d . . .
N20 N 0.7232(8) 0.4069(6) 0.4807(7) 0.031(4) Uani 1 1 d . . .
N21 N 0.5998(9) 0.3829(6) 0.4486(7) 0.032(4) Uani 1 1 d . . .
N22 N 0.5008(9) 0.3232(5) 0.4148(7) 0.029(4) Uani 1 1 d . . .
N23 N 0.4659(8) 0.2464(5) 0.4007(6) 0.023(3) Uani 1 1 d . . .
N24 N 0.5105(8) 0.1643(5) 0.4149(7) 0.026(3) Uani 1 1 d . . .
N25 N 0.6086(8) 0.1122(6) 0.4408(7) 0.029(4) Uani 1 1 d . . .
N26 N 0.7422(8) 0.0842(5) 0.4799(7) 0.027(3) Uani 1 1 d . . .
N27 N 0.8682(8) 0.0790(5) 0.5185(7) 0.027(3) Uani 1 1 d . . .
N28 N 0.4357(10) 0.2377(6) 0.5131(6) 0.113(13) Uani 1 1 d D . .
N29 N 0.4742(7) 0.1538(4) 0.5260(7) 0.021(3) Uani 1 1 d D . .
O1 O 0.5063(7) 0.2608(4) 0.6181(5) 0.026(3) Uani 1 1 d . . .
O2 O 0.5297(7) 0.1542(5) 0.6328(5) 0.031(3) Uani 1 1 d . . .
O3 O 0.7436(8) 0.1094(5) 0.6962(6) 0.044(4) Uani 1 1 d . . .
O4 O 0.9531(8) 0.1651(5) 0.7480(7) 0.045(4) Uani 1 1 d . . .
O5 O 1.0223(7) 0.2781(4) 0.7788(5) 0.027(3) Uani 1 1 d . . .
O6 O 0.8676(8) 0.3622(6) 0.7280(7) 0.049(4) Uani 1 1 d . . .
O7 O 0.6416(8) 0.3581(5) 0.6682(6) 0.044(4) Uani 1 1 d . . .
O8 O 0.5460(7) 0.2806(4) 0.3306(5) 0.029(3) Uani 1 1 d . . .
O9 O 0.6206(8) 0.1698(5) 0.3608(6) 0.036(3) Uani 1 1 d . . .
O10 O 0.8325(7) 0.1114(5) 0.4140(6) 0.042(4) Uani 1 1 d . . .
O11 O 1.0372(7) 0.1555(5) 0.4762(5) 0.033(3) Uani 1 1 d . . .
O12 O 1.0628(7) 0.2615(4) 0.4904(6) 0.027(3) Uani 1 1 d . . .
O13 O 0.9218(9) 0.3587(6) 0.4417(6) 0.050(4) Uani 1 1 d . . .
O14 O 0.6966(8) 0.3666(7) 0.3815(7) 0.061(5) Uani 1 1 d . . .

loop_
_atom_site_aniso_label
_atom_site_aniso_U_11
_atom_site_aniso_U_22
_atom_site_aniso_U_33
_atom_site_aniso_U_23
_atom_site_aniso_U_13
_atom_site_aniso_U_12
Cl6 0.096(6) 0.056(5) 0.094(5) 0.001(4) 0.017(4) 0.009(4)
Cl7 0.078(6) 0.372(19) 0.047(5) -0.006(8) 0.005(4) -0.098(9)
Cl8 0.046(8) 0.159(17) 0.176(19) 0.083(15) 0.069(11) 0.038(10)
Cl9 0.115(14) 0.25(3) 0.076(11) -0.085(14) 0.058(11) -0.101(17)
Cl10 0.097(13) 0.109(16) 0.23(2) -0.034(16) 0.101(15) -0.004(11)
Cl11 0.142(18) 0.073(13) 0.20(2) 0.023(13) 0.051(17) 0.044(12)
Co1 0.0360(15) 0.0297(17) 0.061(2) -0.0045(14) 0.0050(14) -0.0016(12)
Cl1 0.043(3) 0.047(4) 0.058(3) -0.003(3) -0.011(3) 0.001(3)
Cl2 0.044(3) 0.030(3) 0.094(5) 0.003(3) 0.021(3) 0.003(2)
Cl3 0.049(3) 0.062(4) 0.056(4) 0.000(3) -0.014(3) -0.001(3)
Cl4 0.055(4) 0.048(4) 0.077(4) -0.020(3) 0.022(3) -0.015(3)
O1W 0.069(10) 0.046(9) 0.017(7) 0.002(6) 0.005(7) -0.017(8)
O2W 0.053(9) 0.049(9) 0.029(7) -0.002(7) 0.008(6) -0.018(7)
O3W 0.035(8) 0.058(10) 0.049(9) 0.005(7) 0.018(7) -0.003(7)
O4W 0.033(7) 0.069(11) 0.025(7) 0.005(7) 0.007(6) 0.021(7)
O5W 0.036(8) 0.082(12) 0.039(8) 0.004(8) 0.012(7) 0.011(8)
O6W 0.088(12) 0.034(9) 0.019(7) 0.011(6) 0.018(7) 0.026(8)
O7W 0.038(7) 0.047(9) 0.031(7) 0.004(6) 0.004(6) 0.023(7)
O8W 0.034(8) 0.063(10) 0.042(9) -0.007(7) 0.015(7) 0.005(7)
O9W 0.053(9) 0.044(9) 0.024(7) -0.006(6) 0.013(6) -0.014(7)
O10W 0.040(8) 0.078(12) 0.043(8) -0.005(8) 0.020(7) -0.015(8)
Ho1 0.0273(5) 0.0309(6) 0.0135(4) -0.0002(3) 0.0051(3) -0.0022(4)
Ho2 0.0261(5) 0.0301(5) 0.0126(4) 0.0000(3) 0.0039(3) 0.0020(4)
C1 0.036(10) 0.033(12) 0.030(10) 0.010(9) 0.012(8) 0.000(9)
C2 0.034(11) 0.031(12) 0.031(10) 0.002(9) -0.004(8) 0.000(9)
C3 0.023(9) 0.039(12) 0.021(9) -0.003(8) 0.007(7) -0.009(8)
C4 0.037(10) 0.021(10) 0.021(9) -0.009(7) 0.014(8) -0.006(8)
C5 0.035(10) 0.046(13) 0.012(9) -0.004(8) 0.004(7) -0.006(9)
C6 0.038(10) 0.037(12) 0.013(9) -0.012(8) 0.007(7) -0.003(9)
C7 0.051(12) 0.031(11) 0.021(9) -0.002(8) 0.011(8) -0.017(9)
C8 0.027(10) 0.035(12) 0.033(10) -0.012(9) 0.012(8) -0.001(8)
C9 0.034(10) 0.014(9) 0.029(10) -0.009(7) 0.006(8) -0.005(8)
C10 0.029(9) 0.027(11) 0.016(8) 0.002(7) -0.004(7) 0.001(8)
C11 0.035(10) 0.024(10) 0.014(8) 0.000(7) 0.000(7) 0.000(8)
C12 0.030(9) 0.019(10) 0.023(9) -0.001(7) 0.011(7) 0.000(8)
C13 0.033(10) 0.027(10) 0.011(8) 0.013(7) 0.000(7) -0.003(8)
C14 0.000(7) 0.061(14) 0.070(14) 0.061(12) 0.018(8) 0.011(8)
C15 0.022(8) 0.018(10) 0.020(9) -0.005(7) -0.002(7) -0.004(7)
C16 0.027(9) 0.024(10) 0.015(8) 0.003(7) 0.003(7) -0.005(8)
C17 0.016(8) 0.019(