####################################################################### 
# 
# This file contains crystal structure data downloaded from the 
# Cambridge Structural Database (CSD) hosted by the Cambridge 
# Crystallographic Data Centre (CCDC).
# 
# Full information about CCDC data access policies and citation 
# guidelines are available at http://www.ccdc.cam.ac.uk/access/V1 
# 
# Audit and citation data items may have been added by the CCDC. 
# Please retain this information to preserve the provenance of 
# this file and to allow appropriate attribution of the data. 
# 
#######################################################################

data_p9
_audit_block_doi                 10.5517/cczvqfy
_database_code_depnum_ccdc_archive 'CCDC 919411'
loop_
_citation_id
_citation_doi
_citation_year
1 10.3390/polym5020418 2013
_audit_update_record             
;
2013-01-12 deposited with the CCDC.	2024-07-13 downloaded from the CCDC.
;
#TrackingRef 'submitCIF-SI1.cif'


_audit_creation_method           SHELXL-97
_chemical_name_systematic        
;
?
;
_chemical_name_common            ?
_chemical_melting_point          ?
_chemical_formula_moiety         'C42 H62 Dy2 N28 O24, Co Cl4, 4Cl, 39(H2 O)'
_chemical_formula_sum            'C42 H140 Cl8 Co Dy2 N28 O63'
_chemical_formula_weight         2713.35

loop_
_atom_type_symbol
_atom_type_description
_atom_type_scat_dispersion_real
_atom_type_scat_dispersion_imag
_atom_type_scat_source
C C 0.0033 0.0016 'International Tables Vol C Tables 4.2.6.8 and 6.1.1.4'
H H 0.0000 0.0000 'International Tables Vol C Tables 4.2.6.8 and 6.1.1.4'
N N 0.0061 0.0033 'International Tables Vol C Tables 4.2.6.8 and 6.1.1.4'
O O 0.0106 0.0060 'International Tables Vol C Tables 4.2.6.8 and 6.1.1.4'
Cl Cl 0.1484 0.1585 'International Tables Vol C Tables 4.2.6.8 and 6.1.1.4'
Dy Dy -0.1892 4.4098 'International Tables Vol C Tables 4.2.6.8 and 6.1.1.4'
Co Co 0.3494 0.9721 'International Tables Vol C Tables 4.2.6.8 and 6.1.1.4'

_symmetry_cell_setting           triclinic
_symmetry_space_group_name_H-M   'P -1'
_symmetry_space_group_name_Hall  '-P 1'

loop_
_symmetry_equiv_pos_as_xyz
'x, y, z'
'-x, -y, -z'

_cell_length_a                   16.979(3)
_cell_length_b                   17.140(3)
_cell_length_c                   20.168(3)
_cell_angle_alpha                97.223(7)
_cell_angle_beta                 113.441(6)
_cell_angle_gamma                111.556(6)
_cell_volume                     4747.3(14)
_cell_formula_units_Z            2
_cell_measurement_temperature    223(2)
_cell_measurement_reflns_used    ?
_cell_measurement_theta_min      ?
_cell_measurement_theta_max      ?

_exptl_crystal_description       prism
_exptl_crystal_colour            colorless
_exptl_crystal_size_max          0.21
_exptl_crystal_size_mid          0.15
_exptl_crystal_size_min          0.14
_exptl_crystal_density_meas      ?
_exptl_crystal_density_diffrn    1.898
_exptl_crystal_density_method    'not measured'
_exptl_crystal_F_000             2774
_exptl_absorpt_coefficient_mu    2.081
_exptl_absorpt_correction_type   multi-scan
_exptl_absorpt_correction_T_min  0.6690
_exptl_absorpt_correction_T_max  0.7593
_exptl_absorpt_process_details   'SADABS (Bruker, 2008)'

_exptl_special_details           
;
?
;

_diffrn_ambient_temperature      223(2)
_diffrn_radiation_wavelength     0.71073
_diffrn_radiation_type           MoK\a
_diffrn_radiation_source         'fine-focus sealed tube'
_diffrn_radiation_monochromator  graphite
_diffrn_measurement_device_type  'Bruker Smart Apex2 CCD Detector'
_diffrn_measurement_method       '\f and \w scan'
_diffrn_detector_area_resol_mean ?
_diffrn_standards_number         ?
_diffrn_standards_interval_count ?
_diffrn_standards_interval_time  ?
_diffrn_standards_decay_%        ?
_diffrn_reflns_number            49848
_diffrn_reflns_av_R_equivalents  0.0906
_diffrn_reflns_av_sigmaI/netI    0.1069
_diffrn_reflns_limit_h_min       -20
_diffrn_reflns_limit_h_max       19
_diffrn_reflns_limit_k_min       -20
_diffrn_reflns_limit_k_max       20
_diffrn_reflns_limit_l_min       -24
_diffrn_reflns_limit_l_max       24
_diffrn_reflns_theta_min         1.16
_diffrn_reflns_theta_max         25.10
_reflns_number_total             16666
_reflns_number_gt                12014
_reflns_threshold_expression     >2sigma(I)

_computing_data_collection       ?
_computing_cell_refinement       ?
_computing_data_reduction        ?
_computing_structure_solution    ?
_computing_structure_refinement  'SHELXL-97 (Sheldrick, 1997)'
_computing_molecular_graphics    ?
_computing_publication_material  ?

_refine_special_details          
;
Refinement of F^2^ against ALL reflections. The weighted R-factor wR and
goodness of fit S are based on F^2^, conventional R-factors R are based
on F, with F set to zero for negative F^2^. The threshold expression of
F^2^ > 2sigma(F^2^) is used only for calculating R-factors(gt) etc. and is
not relevant to the choice of reflections for refinement. R-factors based
on F^2^ are statistically about twice as large as those based on F, and R-
factors based on ALL data will be even larger.
;

_refine_ls_structure_factor_coef Fsqd
_refine_ls_matrix_type           full
_refine_ls_weighting_scheme      calc
_refine_ls_weighting_details     
'calc w=1/[\s^2^(Fo^2^)+(0.1562P)^2^+0.0000P] where P=(Fo^2^+2Fc^2^)/3'
_atom_sites_solution_primary     direct
_atom_sites_solution_secondary   difmap
_atom_sites_solution_hydrogens   geom
_refine_ls_hydrogen_treatment    constr
_refine_ls_extinction_method     none
_refine_ls_extinction_coef       ?
_refine_ls_number_reflns         16666
_refine_ls_number_parameters     962
_refine_ls_number_restraints     2
_refine_ls_R_factor_all          0.1015
_refine_ls_R_factor_gt           0.0839
_refine_ls_wR_factor_ref         0.2387
_refine_ls_wR_factor_gt          0.2224
_refine_ls_goodness_of_fit_ref   1.030
_refine_ls_restrained_S_all      1.030
_refine_ls_shift/su_max          0.015
_refine_ls_shift/su_mean         0.002

loop_
_atom_site_label
_atom_site_type_symbol
_atom_site_fract_x
_atom_site_fract_y
_atom_site_fract_z
_atom_site_U_iso_or_equiv
_atom_site_adp_type
_atom_site_occupancy
_atom_site_symmetry_multiplicity
_atom_site_calc_flag
_atom_site_refinement_flags
_atom_site_disorder_assembly
_atom_site_disorder_group
Cl5 Cl 0.8194(3) -0.1959(2) 0.3896(2) 0.0704(10) Uani 1 1 d . . .
Cl6 Cl 0.5000 0.5000 0.5000 0.165(5) Uani 1 2 d S . .
Cl7 Cl 1.2710(4) 0.3614(7) 0.2562(4) 0.161(3) Uani 1 1 d . . .
Cl8 Cl 1.0153(11) -0.0530(13) 0.0299(8) 0.46(3) Uani 1 1 d . . .
Cl9 Cl 1.1693(9) 0.7991(10) 0.7971(6) 0.107(5) Uani 0.386(8) 1 d P A 1
Cl9' Cl 1.2627(11) 0.8243(10) 0.8968(8) 0.014(6) Uani 0.114(8) 1 d P A 2
Cl1 Cl 0.3612(2) 0.0030(2) 0.43053(19) 0.0504(8) Uani 1 1 d . . .
Cl2 Cl 0.1742(2) 0.0027(2) 0.25955(17) 0.0492(7) Uani 1 1 d . . .
Cl3 Cl 0.3117(2) 0.1901(2) 0.44514(18) 0.0504(7) Uani 1 1 d . . .
Cl4 Cl 0.1208(2) -0.0249(2) 0.41516(19) 0.0581(8) Uani 1 1 d . . .
Co1 Co 0.24017(11) 0.04173(10) 0.38742(9) 0.0382(4) Uani 1 1 d . . .
Dy1 Dy 0.34728(3) 0.04795(3) 0.11842(2) 0.02252(15) Uani 1 1 d . . .
Dy2 Dy 0.85347(3) 0.63632(3) 0.56215(2) 0.02015(15) Uani 1 1 d . . .
O1W O 0.3696(6) 0.1127(5) 0.0296(4) 0.048(2) Uani 1 1 d . . .
O2W O 0.5168(5) 0.1131(5) 0.1645(4) 0.0451(19) Uani 1 1 d . . .
O3W O 0.2285(5) -0.0649(5) 0.1367(4) 0.0416(18) Uani 1 1 d . . .
O4W O 0.3947(5) -0.0624(5) 0.1132(4) 0.0390(18) Uani 1 1 d . . .
O5W O 0.2193(5) 0.0830(5) 0.0890(5) 0.052(2) Uani 1 1 d . . .
O6W O 1.0211(5) 0.6776(5) 0.6239(4) 0.0418(19) Uani 1 1 d . . .
O7W O 0.7444(5) 0.6820(4) 0.4773(4) 0.0338(16) Uani 1 1 d . . .
O8W O 0.9088(5) 0.6537(4) 0.4746(4) 0.0336(16) Uani 1 1 d . . .
O9W O 0.8633(6) 0.5126(5) 0.5920(4) 0.047(2) Uani 1 1 d . . .
O10W O 0.7192(5) 0.5968(6) 0.5833(4) 0.046(2) Uani 1 1 d . . .
C1 C 0.4619(6) 0.0972(6) 0.3149(5) 0.024(2) Uani 1 1 d . . .
C2 C 0.5758(7) 0.1365(6) 0.4422(5) 0.025(2) Uani 1 1 d . . .
H2 H 0.5654 0.1041 0.4777 0.030 Uiso 1 1 calc R . .
C3 C 0.5276(7) 0.1990(6) 0.4324(5) 0.0214(19) Uani 1 1 d . . .
H3 H 0.4959 0.1974 0.4645 0.026 Uiso 1 1 calc R . .
C4 C 0.6927(6) 0.2806(6) 0.4801(5) 0.0218(19) Uani 1 1 d . . .
C5 C 0.4015(5) 0.2115(7) 0.3213(5) 0.106(8) Uani 1 1 d D . .
H5A H 0.3381 0.1686 0.2788 0.127 Uiso 1 1 calc R . .
H5B H 0.3913 0.2383 0.3610 0.127 Uiso 1 1 calc R . .
C6 C 0.6036(7) 0.3673(6) 0.4693(5) 0.024(2) Uani 1 1 d . . .
H6A H 0.5519 0.3590 0.4823 0.028 Uiso 1 1 calc R . .
H6B H 0.6644 0.4121 0.5133 0.028 Uiso 1 1 calc R . .
C7 C 0.4431(6) 0.2705(6) 0.2275(5) 0.0201(19) Uani 1 1 d . . .
C8 C 0.4901(6) 0.3695(6) 0.3423(5) 0.0212(19) Uani 1 1 d . . .
H8 H 0.4457 0.3808 0.3576 0.025 Uiso 1 1 calc R . .
C9 C 0.5124(6) 0.4214(6) 0.2886(5) 0.0192(18) Uani 1 1 d . . .
H9 H 0.4760 0.4560 0.2764 0.023 Uiso 1 1 calc R . .
C10 C 0.6545(6) 0.4670(5) 0.4008(5) 0.0179(18) Uani 1 1 d . . .
C11 C 0.4682(7) 0.3666(6) 0.1490(5) 0.026(2) Uani 1 1 d . . .
H11A H 0.4192 0.3109 0.1078 0.031 Uiso 1 1 calc R . .
H11B H 0.4435 0.4101 0.1424 0.031 Uiso 1 1 calc R . .
C12 C 0.6664(7) 0.5475(6) 0.3109(5) 0.027(2) Uani 1 1 d . . .
H12A H 0.7267 0.5908 0.3562 0.032 Uiso 1 1 calc R . .
H12B H 0.6275 0.5779 0.2912 0.032 Uiso 1 1 calc R . .
C13 C 0.5620(8) 0.3468(7) 0.0895(5) 0.033(2) Uani 1 1 d . . .
C14 C 0.6250(7) 0.4881(6) 0.1732(5) 0.0234(19) Uani 1 1 d . . .
H14 H 0.5950 0.5275 0.1594 0.028 Uiso 1 1 calc R . .
C15 C 0.6887(8) 0.4912(6) 0.1380(6) 0.031(2) Uani 1 1 d . . .
H15 H 0.6929 0.5346 0.1098 0.038 Uiso 1 1 calc R . .
C16 C 0.7802(7) 0.5355(6) 0.2704(5) 0.029(2) Uani 1 1 d . . .
C17 C 0.6637(6) 0.3766(6) 0.0281(5) 0.028(2) Uani 1 1 d . . .
H17A H 0.6702 0.4225 0.0032 0.034 Uiso 1 1 calc R . .
H17B H 0.6083 0.3213 -0.0100 0.034 Uiso 1 1 calc R . .
C18 C 0.8716(8) 0.5487(6) 0.2013(6) 0.033(2) Uani 1 1 d . . .
H18A H 0.9250 0.5824 0.2533 0.040 Uiso 1 1 calc R . .
H18B H 0.8717 0.5896 0.1714 0.040 Uiso 1 1 calc R . .
C19 C 0.7460(7) 0.2876(7) 0.0222(5) 0.031(2) Uani 1 1 d . . .
C20 C 0.8444(7) 0.4394(6) 0.0869(5) 0.028(2) Uani 1 1 d . . .
H20 H 0.8453 0.4834 0.0594 0.034 Uiso 1 1 calc R . .
C21 C 0.9061(7) 0.3949(6) 0.0802(5) 0.024(2) Uani 1 1 d . . .
H21 H 0.9396 0.4195 0.0515 0.029 Uiso 1 1 calc R . .
C22 C 0.9629(8) 0.4663(7) 0.2082(6) 0.035(2) Uani 1 1 d . . .
C23 C 0.8565(7) 0.2396(6) 0.0035(5) 0.025(2) Uani 1 1 d . . .
H23A H 0.7959 0.1946 -0.0407 0.031 Uiso 1 1 calc R . .
H23B H 0.9004 0.2703 -0.0152 0.031 Uiso 1 1 calc R . .
C24 C 1.0545(7) 0.3972(6) 0.1825(6) 0.030(2) Uani 1 1 d . . .
H24A H 1.1016 0.4346 0.2354 0.036 Uiso 1 1 calc R . .
H24B H 1.0849 0.4142 0.1507 0.036 Uiso 1 1 calc R . .
C25 C 0.8525(7) 0.1108(6) 0.0496(5) 0.0196(19) Uani 1 1 d . . .
C26 C 1.0013(6) 0.2367(5) 0.1086(5) 0.0172(18) Uani 1 1 d . . .
H26 H 1.0423 0.2584 0.0846 0.021 Uiso 1 1 calc R . .
C27 C 1.0139(6) 0.1617(5) 0.1397(5) 0.0206(19) Uani 1 1 d . . .
H27 H 1.0538 0.1434 0.1231 0.025 Uiso 1 1 calc R . .
C28 C 1.0605(6) 0.2804(5) 0.2405(5) 0.0170(18) Uani 1 1 d . . .
C29 C 0.8905(7) 0.0050(5) 0.1124(5) 0.025(2) Uani 1 1 d . . .
H29A H 0.8301 -0.0400 0.0682 0.031 Uiso 1 1 calc R . .
H29B H 0.9417 -0.0110 0.1166 0.031 Uiso 1 1 calc R . .
C30 C 1.0943(6) 0.1581(6) 0.2740(5) 0.024(2) Uani 1 1 d . . .
H30A H 1.1473 0.2089 0.3186 0.029 Uiso 1 1 calc R . .
H30B H 1.1222 0.1234 0.2581 0.029 Uiso 1 1 calc R . .
C31 C 0.7941(6) -0.0267(6) 0.1778(5) 0.0230(19) Uani 1 1 d . . .
C32 C 0.9562(7) 0.0123(6) 0.2516(5) 0.0215(19) Uani 1 1 d . . .
H32 H 0.9856 -0.0266 0.2454 0.026 Uiso 1 1 calc R . .
C33 C 0.9058(6) -0.0109(6) 0.3001(5) 0.0208(18) Uani 1 1 d . . .
H33 H 0.9108 -0.0612 0.3175 0.025 Uiso 1 1 calc R . .
C34 C 1.0208(7) 0.1340(6) 0.3582(4) 0.022(2) Uani 1 1 d . . .
C35 C 0.7238(7) -0.0843(6) 0.2568(5) 0.028(2) Uani 1 1 d . . .
H35A H 0.6653 -0.1135 0.2070 0.033 Uiso 1 1 calc R . .
H35B H 0.7345 -0.1305 0.2774 0.033 Uiso 1 1 calc R . .
C36 C 0.9423(7) 0.0737(7) 0.4304(5) 0.028(2) Uani 1 1 d . . .
H36A H 0.9978 0.1265 0.4717 0.034 Uiso 1 1 calc R . .
H36B H 0.9432 0.0219 0.4458 0.034 Uiso 1 1 calc R . .
C37 C 0.6194(7) -0.0336(6) 0.2837(5) 0.027(2) Uani 1 1 d . . .
C38 C 0.7638(7) -0.0027(6) 0.3901(5) 0.026(2) Uani 1 1 d . . .
H38 H 0.7727 -0.0511 0.4088 0.031 Uiso 1 1 calc R . .
C39 C 0.7058(6) 0.0269(5) 0.4164(5) 0.0223(19) Uani 1 1 d . . .
H39 H 0.6909 -0.0040 0.4514 0.027 Uiso 1 1 calc R . .
C40 C 0.8565(6) 0.1478(6) 0.4615(5) 0.024(2) Uani 1 1 d . . .
C41 C 0.5300(6) -0.0048(6) 0.3469(6) 0.028(2) Uani 1 1 d . . .
H41A H 0.5221 -0.0346 0.3839 0.034 Uiso 1 1 calc R . .
H41B H 0.4751 -0.0426 0.2964 0.034 Uiso 1 1 calc R . .
C42 C 0.7529(7) 0.1738(6) 0.5085(5) 0.025(2) Uani 1 1 d . . .
H42A H 0.8129 0.2286 0.5409 0.030 Uiso 1 1 calc R . .
H42B H 0.7386 0.1401 0.5416 0.030 Uiso 1 1 calc R . .
N1 N 0.5284(5) 0.0784(5) 0.3656(4) 0.0221(16) Uani 1 1 d . . .
N2 N 0.4579(5) 0.1657(4) 0.3515(4) 0.0203(16) Uani 1 1 d D . .
N3 N 0.6749(5) 0.1960(4) 0.4707(4) 0.0229(16) Uani 1 1 d . . .
N4 N 0.6088(5) 0.2851(5) 0.4567(4) 0.0222(16) Uani 1 1 d . . .
N5 N 0.4489(5) 0.2796(4) 0.2952(4) 0.0244(19) Uani 1 1 d D . .
N6 N 0.4815(5) 0.3523(4) 0.2214(4) 0.0219(16) Uani 1 1 d . . .
N7 N 0.5863(5) 0.4000(5) 0.4065(4) 0.0216(16) Uani 1 1 d . . .
N8 N 0.6150(5) 0.4784(5) 0.3333(4) 0.0210(16) Uani 1 1 d . . .
N9 N 0.5526(6) 0.3963(5) 0.1424(4) 0.0299(19) Uani 1 1 d . . .
N10 N 0.6446(6) 0.4009(5) 0.0881(4) 0.0298(18) Uani 1 1 d . . .
N11 N 0.6890(6) 0.5174(6) 0.2539(4) 0.0317(19) Uani 1 1 d . . .
N12 N 0.7825(6) 0.5157(5) 0.2039(4) 0.0299(18) Uani 1 1 d . . .
N13 N 0.7507(6) 0.3649(5) 0.0537(4) 0.0325(19) Uani 1 1 d . . .
N14 N 0.8368(6) 0.3034(5) 0.0412(4) 0.0271(18) Uani 1 1 d . . .
N15 N 0.8886(6) 0.4794(5) 0.1682(4) 0.0328(19) Uani 1 1 d . . .
N16 N 0.9738(6) 0.4131(5) 0.1593(4) 0.0263(17) Uani 1 1 d . . .
N17 N 0.8993(5) 0.1962(5) 0.0540(4) 0.0227(16) Uani 1 1 d . . .
N18 N 0.9133(5) 0.0906(5) 0.0996(4) 0.0217(16) Uani 1 1 d . . .
N19 N 1.0308(5) 0.3039(5) 0.1774(4) 0.0214(16) Uani 1 1 d . . .
N20 N 1.0566(6) 0.1874(8) 0.2189(4) 0.069(4) Uani 1 1 d . . .
N21 N 0.8805(5) 0.0037(5) 0.1793(4) 0.0218(16) Uani 1 1 d . . .
N22 N 0.8048(5) -0.0335(5) 0.2468(4) 0.0239(17) Uani 1 1 d . . .
N23 N 1.0293(5) 0.1052(4) 0.2962(4) 0.0223(16) Uani 1 1 d . . .
N24 N 0.9526(5) 0.0693(5) 0.3636(4) 0.0264(17) Uani 1 1 d . . .
N25 N 0.7093(5) -0.0307(5) 0.3072(4) 0.0238(16) Uani 1 1 d . . .
N26 N 0.6174(5) 0.0049(5) 0.3467(4) 0.0245(17) Uani 1 1 d . . .
N27 N 0.8549(5) 0.0769(5) 0.4208(4) 0.0223(16) Uani 1 1 d . . .
N28 N 0.7680(5) 0.1222(4) 0.4559(4) 0.0211(16) Uani 1 1 d . . .
O1 O 0.4109(5) 0.0558(4) 0.2453(4) 0.0303(15) Uani 1 1 d . . .
O2 O 0.4087(4) 0.2014(3) 0.1766(3) 0.0216(13) Uani 1 1 d . . .
O3 O 0.5074(5) 0.2701(5) 0.0512(4) 0.0417(18) Uani 1 1 d . . .
O4 O 0.6732(5) 0.2160(5) -0.0132(5) 0.050(2) Uani 1 1 d . . .
O5 O 0.7676(4) 0.0603(4) 0.0041(3) 0.0255(14) Uani 1 1 d . . .
O6 O 0.7169(5) -0.0449(5) 0.1235(4) 0.0357(16) Uani 1 1 d . . .
O7 O 0.5553(5) -0.0630(5) 0.2186(4) 0.0375(17) Uani 1 1 d . . .
O8 O 0.7723(5) 0.3440(4) 0.5061(4) 0.0332(16) Uani 1 1 d . . .
O9 O 0.7404(4) 0.5108(4) 0.4513(3) 0.0225(13) Uani 1 1 d . . .
O10 O 0.8493(5) 0.5621(5) 0.3340(4) 0.045(2) Uani 1 1 d . . .
O11 O 1.0157(6) 0.4968(5) 0.2779(4) 0.0409(18) Uani 1 1 d . . .
O12 O 1.0926(5) 0.3258(4) 0.3045(3) 0.0261(14) Uani 1 1 d . . .
O13 O 1.0739(5) 0.2110(4) 0.4035(4) 0.0260(14) Uani 1 1 d . . .
O14 O 0.9245(5) 0.2193(5) 0.4991(4) 0.0393(18) Uani 1 1 d . . .

loop_
_atom_site_aniso_label
_atom_site_aniso_U_11
_atom_site_aniso_U_22
_atom_site_aniso_U_33
_atom_site_aniso_U_23
_atom_site_aniso_U_13
_atom_site_aniso_U_12
Cl5 0.071(3) 0.060(2) 0.075(2) 0.0292(19) 0.027(2) 0.033(2)
Cl6 0.042(3) 0.166(8) 0.159(7) -0.119(6) -0.015(4) 0.047(4)
Cl7 0.068(3) 0.293(10) 0.142(5) 0.095(6) 0.058(4) 0.086(5)
Cl8 0.155(11) 0.57(4) 0.251(19) -0.26(2) 0.151(15) -0.154(19)
Cl9 0.067(7) 0.128(11) 0.068(7) -0.032(7) 0.037(6) 0.001(7)
Cl9' 0.000(8) 0.000(8) 0.002(8) -0.017(6) -0.012(6) -0.020(6)
Cl1 0.0417(17) 0.0587(19) 0.073(2) 0.0401(17) 0.0342(16) 0.0312(15)
Cl2 0.064(2) 0.0494(17) 0.0515(16) 0.0131(14) 0.0359(16) 0.0355(16)
Cl3 0.062(2) 0.0476(17) 0.0595(18) 0.0152(14) 0.0398(16) 0.0318(16)
Cl4 0.0442(18) 0.075(2) 0.0590(19) 0.0305(17) 0.0314(16) 0.0210(17)
Co1 0.0384(9) 0.0445(9) 0.0475(9) 0.0229(7) 0.0271(7) 0.0247(8)
Dy1 0.0145(2) 0.0185(2) 0.0187(2) -0.00721(18) 0.00361(19) 0.00105(19)
Dy2 0.0141(2) 0.0150(2) 0.0181(2) -0.00482(17) 0.00282(18) 0.00253(19)
O1W 0.047(5) 0.040(4) 0.022(4) 0.000(3) 0.013(4) -0.005(4)
O2W 0.022(4) 0.041(4) 0.049(5) -0.007(4) 0.014(4) 0.001(3)
O3W 0.036(4) 0.027(4) 0.035(4) -0.006(3) 0.017(4) -0.008(3)
O4W 0.026(4) 0.034(4) 0.033(4) -0.010(3) -0.003(3) 0.017(3)
O5W 0.019(4) 0.047(5) 0.066(5) -0.013(4) 0.009(4) 0.015(4)
O6W 0.012(4) 0.052(5) 0.039(4) -0.003(4) 0.002(3) 0.010(3)
O7W 0.024(4) 0.029(4) 0.035(4) -0.003(3) 0.007(3) 0.009(3)
O8W 0.014(3) 0.034(4) 0.028(3) -0.005(3) 0.007(3) -0.005(3)
O9W 0.052(5) 0.027(4) 0.033(4) -0.002(3) -0.002(4) 0.020(4)
O10W 0.025(4) 0.067(6) 0.035(4) 0.007(4) 0.018(3) 0.011(4)
C1 0.016(5) 0.029(5) 0.017(4) 0.005(4) 0.008(4) 0.002(4)
C2 0.023(5) 0.022(5) 0.021(4) 0.001(4) 0.004(4) 0.010(4)
C3 0.025(5) 0.021(5) 0.018(4) 0.007(4) 0.011(4) 0.009(4)
C4 0.018(5) 0.023(5) 0.027(5) 0.001(4) 0.013(4) 0.012(4)
C5 0.035(6) 0.36(2) 0.051(7) 0.154(12) 0.057(6) 0.149(12)
C6 0.027(5) 0.024(5) 0.015(4) 0.000(4) 0.006(4) 0.014(4)
C7 0.003(4) 0.027(5) 0.016(4) -0.001(4) -0.004(3) 0.005(4)
C8 0.013(4) 0.023(5) 0.014(4) -0.007(4) -0.003(4) 0.009(4)
C9 0.009(4) 0.019(4) 0.016(4) -0.005(3) -0.002(3) 0.004(4)
C10 0.015(5) 0.011(4) 0.019(4) -0.008(3) 0.005(4) 0.006(4)
C11 0.023(5) 0.027(5) 0.015(4) -0.002(4) 0.002(4) 0.008(4)
C12 0.032(6) 0.027(5) 0.015(4) 0.001(4) 0.011(4) 0.009(5)
C13 0.031(6) 0.033(6) 0.022(5) 0.004(4) 0.009(5) 0.008(5)
C14 0.023(5) 0.015(4) 0.025(5) 0.004(4) 0.009(4) 0.005(4)
C15 0.042(6) 0.028(5) 0.033(5) 0.011(4) 0.023(5) 0.0