####################################################################### 
# 
# This file contains crystal structure data downloaded from the 
# Cambridge Structural Database (CSD) hosted by the Cambridge 
# Crystallographic Data Centre (CCDC).
# 
# Full information about CCDC data access policies and citation 
# guidelines are available at http://www.ccdc.cam.ac.uk/access/V1 
# 
# Audit and citation data items may have been added by the CCDC. 
# Please retain this information to preserve the provenance of 
# this file and to allow appropriate attribution of the data. 
# 
#######################################################################

data_p8
_audit_block_doi                 10.5517/cczvqdx
_database_code_depnum_ccdc_archive 'CCDC 919410'
loop_
_citation_id
_citation_doi
_citation_year
1 10.3390/polym5020418 2013
_audit_update_record             
;
2013-01-12 deposited with the CCDC.	2024-07-13 downloaded from the CCDC.
;
#TrackingRef 'submitCIF-8.cif'


_audit_creation_method           SHELXL-97
_chemical_name_systematic        
;
?
;
_chemical_name_common            ?
_chemical_melting_point          ?
_chemical_formula_moiety         'C42 H62 Gd2 N28 O24, Co Cl4, 4Cl, 34(H2 O)'
_chemical_formula_sum            'C42 H130 Cl8 Co Gd2 N28 O58'
_chemical_formula_weight         2612.77

loop_
_atom_type_symbol
_atom_type_description
_atom_type_scat_dispersion_real
_atom_type_scat_dispersion_imag
_atom_type_scat_source
C C 0.0033 0.0016 'International Tables Vol C Tables 4.2.6.8 and 6.1.1.4'
H H 0.0000 0.0000 'International Tables Vol C Tables 4.2.6.8 and 6.1.1.4'
N N 0.0061 0.0033 'International Tables Vol C Tables 4.2.6.8 and 6.1.1.4'
O O 0.0106 0.0060 'International Tables Vol C Tables 4.2.6.8 and 6.1.1.4'
Cl Cl 0.1484 0.1585 'International Tables Vol C Tables 4.2.6.8 and 6.1.1.4'
Gd Gd -0.1653 3.9035 'International Tables Vol C Tables 4.2.6.8 and 6.1.1.4'
Co Co 0.3494 0.9721 'International Tables Vol C Tables 4.2.6.8 and 6.1.1.4'

_symmetry_cell_setting           monoclinic
_symmetry_space_group_name_H-M   'P 21/c'
_symmetry_space_group_name_Hall  '-P 2ybc'

loop_
_symmetry_equiv_pos_as_xyz
'x, y, z'
'-x, y+1/2, -z+1/2'
'-x, -y, -z'
'x, -y-1/2, z-1/2'

_cell_length_a                   17.0997(11)
_cell_length_b                   27.7353(19)
_cell_length_c                   20.6163(13)
_cell_angle_alpha                90.00
_cell_angle_beta                 97.468(2)
_cell_angle_gamma                90.00
_cell_volume                     9694.7(11)
_cell_formula_units_Z            4
_cell_measurement_temperature    223(2)
_cell_measurement_reflns_used    ?
_cell_measurement_theta_min      ?
_cell_measurement_theta_max      ?

_exptl_crystal_description       prism
_exptl_crystal_colour            colorless
_exptl_crystal_size_max          0.29
_exptl_crystal_size_mid          0.26
_exptl_crystal_size_min          0.24
_exptl_crystal_density_meas      ?
_exptl_crystal_density_diffrn    1.790
_exptl_crystal_density_method    'not measured'
_exptl_crystal_F_000             5332
_exptl_absorpt_coefficient_mu    1.858
_exptl_absorpt_correction_type   multi-scan
_exptl_absorpt_correction_T_min  0.6148
_exptl_absorpt_correction_T_max  0.6640
_exptl_absorpt_process_details   'SADABS (Bruker, 2008)'

_exptl_special_details           
;
?
;

_diffrn_ambient_temperature      223(2)
_diffrn_radiation_wavelength     0.71073
_diffrn_radiation_type           MoK\a
_diffrn_radiation_source         'fine-focus sealed tube'
_diffrn_radiation_monochromator  graphite
_diffrn_measurement_device_type  'Bruker Smart Apex2 CCD Detector'
_diffrn_measurement_method       '\f and \w scan'
_diffrn_detector_area_resol_mean ?
_diffrn_standards_number         ?
_diffrn_standards_interval_count ?
_diffrn_standards_interval_time  ?
_diffrn_standards_decay_%        ?
_diffrn_reflns_number            84951
_diffrn_reflns_av_R_equivalents  0.0597
_diffrn_reflns_av_sigmaI/netI    0.0493
_diffrn_reflns_limit_h_min       -20
_diffrn_reflns_limit_h_max       20
_diffrn_reflns_limit_k_min       -32
_diffrn_reflns_limit_k_max       33
_diffrn_reflns_limit_l_min       -23
_diffrn_reflns_limit_l_max       24
_diffrn_reflns_theta_min         1.20
_diffrn_reflns_theta_max         25.10
_reflns_number_total             17169
_reflns_number_gt                12787
_reflns_threshold_expression     >2sigma(I)

_computing_data_collection       ?
_computing_cell_refinement       ?
_computing_data_reduction        ?
_computing_structure_solution    ?
_computing_structure_refinement  'SHELXL-97 (Sheldrick, 1997)'
_computing_molecular_graphics    ?
_computing_publication_material  ?

_refine_special_details          
;
Refinement of F^2^ against ALL reflections. The weighted R-factor wR and
goodness of fit S are based on F^2^, conventional R-factors R are based
on F, with F set to zero for negative F^2^. The threshold expression of
F^2^ > 2sigma(F^2^) is used only for calculating R-factors(gt) etc. and is
not relevant to the choice of reflections for refinement. R-factors based
on F^2^ are statistically about twice as large as those based on F, and R-
factors based on ALL data will be even larger.
;

_refine_ls_structure_factor_coef Fsqd
_refine_ls_matrix_type           full
_refine_ls_weighting_scheme      calc
_refine_ls_weighting_details     
'calc w=1/[\s^2^(Fo^2^)+(0.0796P)^2^+0.0000P] where P=(Fo^2^+2Fc^2^)/3'
_atom_sites_solution_primary     direct
_atom_sites_solution_secondary   difmap
_atom_sites_solution_hydrogens   geom
_refine_ls_hydrogen_treatment    constr
_refine_ls_extinction_method     none
_refine_ls_extinction_coef       ?
_refine_ls_number_reflns         17169
_refine_ls_number_parameters     955
_refine_ls_number_restraints     0
_refine_ls_R_factor_all          0.0538
_refine_ls_R_factor_gt           0.0404
_refine_ls_wR_factor_ref         0.1217
_refine_ls_wR_factor_gt          0.1155
_refine_ls_goodness_of_fit_ref   0.951
_refine_ls_restrained_S_all      0.951
_refine_ls_shift/su_max          0.005
_refine_ls_shift/su_mean         0.000

loop_
_atom_site_label
_atom_site_type_symbol
_atom_site_fract_x
_atom_site_fract_y
_atom_site_fract_z
_atom_site_U_iso_or_equiv
_atom_site_adp_type
_atom_site_occupancy
_atom_site_symmetry_multiplicity
_atom_site_calc_flag
_atom_site_refinement_flags
_atom_site_disorder_assembly
_atom_site_disorder_group
Cl5 Cl 0.03491(10) 0.04500(5) 0.35827(8) 0.0639(4) Uani 1 1 d . . .
Cl6 Cl 0.27852(9) 0.23322(9) 0.30108(8) 0.0837(6) Uani 1 1 d . . .
Cl7 Cl -0.68651(11) 0.30001(9) 0.59643(11) 0.1007(7) Uani 1 1 d . . .
Cl8 Cl -0.6610(3) 0.1700(2) 0.8207(2) 0.146(2) Uani 0.50 1 d P . .
Cl9 Cl -0.5362(4) 0.0480(2) 0.6947(3) 0.143(2) Uani 0.50 1 d P . .
Cl2 Cl 0.39760(7) 0.03674(4) 0.53749(7) 0.0460(3) Uani 1 1 d . . .
Cl3 Cl 0.17926(7) 0.02963(5) 0.55808(7) 0.0498(4) Uani 1 1 d . . .
Cl4 Cl 0.25987(7) 0.12395(5) 0.45695(7) 0.0474(3) Uani 1 1 d . . .
Cl1 Cl 0.30836(7) 0.12177(4) 0.64187(6) 0.0424(3) Uani 1 1 d . . .
Co1 Co 0.28438(3) 0.07784(2) 0.54922(3) 0.03518(17) Uani 1 1 d . . .
O1W O -0.4105(2) 0.29040(11) 0.74474(16) 0.0467(10) Uani 1 1 d . . .
O2W O -0.53713(19) 0.14746(12) 0.74851(15) 0.0395(8) Uani 1 1 d . . .
O3W O -0.3400(2) 0.22312(13) 0.66226(17) 0.0457(9) Uani 1 1 d . . .
O4W O -0.35771(18) 0.15959(12) 0.76071(15) 0.0394(8) Uani 1 1 d . . .
O5W O -0.58594(18) 0.24799(14) 0.71516(16) 0.0479(9) Uani 1 1 d . . .
O6W O 0.10536(17) 0.14949(11) 0.36133(14) 0.0304(7) Uani 1 1 d . . .
O7W O -0.07092(18) 0.16157(12) 0.34774(14) 0.0355(8) Uani 1 1 d . . .
O8W O -0.0930(2) 0.22803(15) 0.44400(18) 0.0551(10) Uani 1 1 d . . .
O9W O -0.0151(3) 0.29527(13) 0.36426(16) 0.0539(11) Uani 1 1 d . . .
O10W O 0.15446(18) 0.24478(13) 0.39315(16) 0.0430(9) Uani 1 1 d . . .
Gd1 Gd -0.457416(12) 0.213011(7) 0.714500(9) 0.02115(8) Uani 1 1 d . . .
Gd2 Gd 0.024989(12) 0.216054(7) 0.393851(10) 0.02081(7) Uani 1 1 d . . .
C1 C 0.0312(2) 0.36638(15) 0.7085(2) 0.0250(9) Uani 1 1 d . . .
H1A H 0.0719 0.3913 0.7094 0.030 Uiso 1 1 calc R . .
H1B H 0.0152 0.3644 0.7524 0.030 Uiso 1 1 calc R . .
C2 C -0.1117(3) 0.38174(16) 0.6789(2) 0.0273(10) Uani 1 1 d . . .
C3 C -0.2358(2) 0.42401(16) 0.6424(2) 0.0284(10) Uani 1 1 d . . .
H3A H -0.2460 0.4151 0.6865 0.034 Uiso 1 1 calc R . .
H3B H -0.2352 0.4593 0.6398 0.034 Uiso 1 1 calc R . .
C4 C -0.3580(3) 0.37800(15) 0.6143(2) 0.0276(10) Uani 1 1 d . . .
C5 C -0.4939(2) 0.35734(14) 0.5717(2) 0.0241(9) Uani 1 1 d . . .
H5A H -0.5343 0.3818 0.5586 0.029 Uiso 1 1 calc R . .
H5B H -0.4960 0.3497 0.6178 0.029 Uiso 1 1 calc R . .
C6 C -0.5844(2) 0.19403(15) 0.5329(2) 0.0267(10) Uani 1 1 d . . .
H6A H -0.6342 0.1870 0.5054 0.032 Uiso 1 1 calc R . .
H6B H -0.5951 0.1955 0.5784 0.032 Uiso 1 1 calc R . .
C7 C -0.4742(2) 0.13989(14) 0.57548(19) 0.0190(9) Uani 1 1 d . . .
C8 C -0.3769(2) 0.07419(16) 0.5948(2) 0.0260(10) Uani 1 1 d . . .
H8A H -0.3922 0.0408 0.5841 0.031 Uiso 1 1 calc R . .
H8B H -0.3857 0.0801 0.6402 0.031 Uiso 1 1 calc R . .
C9 C -0.2411(2) 0.09211(15) 0.6422(2) 0.0249(9) Uani 1 1 d . . .
C10 C -0.0989(2) 0.07878(15) 0.67734(19) 0.0227(9) Uani 1 1 d . . .
H10A H -0.0797 0.0455 0.6815 0.027 Uiso 1 1 calc R . .
H10B H -0.1155 0.0881 0.7193 0.027 Uiso 1 1 calc R . .
C11 C -0.0088(2) 0.14708(15) 0.70434(19) 0.0236(9) Uani 1 1 d . . .
C12 C 0.0592(2) 0.28033(14) 0.7296(2) 0.0203(9) Uani 1 1 d . . .
C13 C 0.1103(3) 0.19631(15) 0.73186(19) 0.0241(9) Uani 1 1 d . . .
H13A H 0.0941 0.1960 0.7757 0.029 Uiso 1 1 calc R . .
H13B H 0.1660 0.1869 0.7360 0.029 Uiso 1 1 calc R . .
C14 C 0.1468(2) 0.26245(14) 0.65406(19) 0.0199(9) Uani 1 1 d . . .
H14 H 0.2044 0.2610 0.6680 0.024 Uiso 1 1 calc R . .
C15 C 0.1179(2) 0.31467(14) 0.64449(19) 0.0199(9) Uani 1 1 d . . .
H15 H 0.1622 0.3379 0.6509 0.024 Uiso 1 1 calc R . .
C16 C -0.0313(2) 0.40663(14) 0.60308(19) 0.0221(9) Uani 1 1 d . . .
H16 H 0.0077 0.4331 0.6100 0.026 Uiso 1 1 calc R . .
C17 C -0.1147(2) 0.42599(15) 0.5827(2) 0.0266(10) Uani 1 1 d . . .
H17 H -0.1161 0.4617 0.5831 0.032 Uiso 1 1 calc R . .
C18 C -0.3206(2) 0.42660(14) 0.5316(2) 0.0225(9) Uani 1 1 d . . .
H18 H -0.3190 0.4623 0.5334 0.027 Uiso 1 1 calc R . .
C19 C -0.4051(2) 0.40796(14) 0.51016(19) 0.0228(9) Uani 1 1 d . . .
H19 H -0.4437 0.4347 0.5039 0.027 Uiso 1 1 calc R . .
C20 C -0.5508(2) 0.31512(14) 0.46569(19) 0.0194(9) Uani 1 1 d . . .
H20 H -0.5954 0.3382 0.4599 0.023 Uiso 1 1 calc R . .
C21 C -0.4925(2) 0.28263(14) 0.37896(19) 0.0195(9) Uani 1 1 d . . .
C22 C -0.5787(2) 0.26212(14) 0.45376(19) 0.0197(9) Uani 1 1 d . . .
H22 H -0.6364 0.2604 0.4406 0.024 Uiso 1 1 calc R . .
C23 C -0.5185(2) 0.13245(14) 0.46415(19) 0.0202(9) Uani 1 1 d . . .
H23 H -0.5669 0.1154 0.4450 0.024 Uiso 1 1 calc R . .
C24 C -0.4490(2) 0.09715(14) 0.48317(19) 0.0204(9) Uani 1 1 d . . .
H24 H -0.4646 0.0632 0.4743 0.024 Uiso 1 1 calc R . .
C25 C -0.2568(2) 0.05607(15) 0.53901(18) 0.0214(9) Uani 1 1 d . . .
H25 H -0.2781 0.0232 0.5299 0.026 Uiso 1 1 calc R . .
C26 C -0.1701(2) 0.05497(14) 0.56609(18) 0.0208(9) Uani 1 1 d . . .
H26 H -0.1509 0.0214 0.5728 0.025 Uiso 1 1 calc R . .
C27 C 0.0247(2) 0.09494(14) 0.62336(19) 0.0202(9) Uani 1 1 d . . .
H27 H 0.0414 0.0611 0.6320 0.024 Uiso 1 1 calc R . .
C28 C 0.0929(2) 0.13085(14) 0.64225(19) 0.0210(9) Uani 1 1 d . . .
H28 H 0.1425 0.1143 0.6595 0.025 Uiso 1 1 calc R . .
C29 C -0.1842(2) 0.09380(15) 0.4652(2) 0.0244(9) Uani 1 1 d . . .
C30 C -0.0490(2) 0.07276(15) 0.5121(2) 0.0252(10) Uani 1 1 d . . .
H30A H -0.0346 0.0392 0.5227 0.030 Uiso 1 1 calc R . .
H30B H -0.0402 0.0785 0.4667 0.030 Uiso 1 1 calc R . .
C31 C 0.0444(2) 0.13998(14) 0.53173(18) 0.0194(9) Uani 1 1 d . . .
C33 C 0.1526(2) 0.19523(15) 0.5731(2) 0.0234(9) Uani 1 1 d . . .
H33A H 0.2033 0.1883 0.5995 0.028 Uiso 1 1 calc R . .
H33B H 0.1620 0.1969 0.5273 0.028 Uiso 1 1 calc R . .
C34 C 0.0858(2) 0.27162(14) 0.5481(2) 0.0194(9) Uani 1 1 d . . .
C35 C 0.0583(2) 0.35807(15) 0.5395(2) 0.0254(9) Uani 1 1 d . . .
H35A H 0.0979 0.3830 0.5524 0.030 Uiso 1 1 calc R . .
H35B H 0.0594 0.3511 0.4930 0.030 Uiso 1 1 calc R . .
C36 C -0.0778(3) 0.37832(15) 0.4983(2) 0.0264(10) Uani 1 1 d . . .
C37 C -0.1996(2) 0.42613(16) 0.4720(2) 0.0286(10) Uani 1 1 d . . .
H37A H -0.1895 0.4183 0.4275 0.034 Uiso 1 1 calc R . .
H37B H -0.1995 0.4613 0.4762 0.034 Uiso 1 1 calc R . .
C38 C -0.3245(3) 0.38516(15) 0.4327(2) 0.0258(9) Uani 1 1 d . . .
C39 C -0.4657(2) 0.36888(15) 0.40301(19) 0.0229(9) Uani 1 1 d . . .
H39A H -0.5074 0.3931 0.4035 0.027 Uiso 1 1 calc R . .
H39B H -0.4500 0.3684 0.3590 0.027 Uiso 1 1 calc R . .
C40 C -0.5387(2) 0.19763(15) 0.37696(19) 0.0238(9) Uani 1 1 d . . .
H40A H -0.5933 0.1862 0.3733 0.029 Uiso 1 1 calc R . .
H40B H -0.5229 0.1974 0.3329 0.029 Uiso 1 1 calc R . .
C41 C -0.5177(2) 0.27006(15) 0.5611(2) 0.0214(9) Uani 1 1 d . . .
C106 C -0.3261(2) 0.08350(15) 0.4281(2) 0.0237(9) Uani 1 1 d . . .
H10C H -0.3089 0.0948 0.3872 0.028 Uiso 1 1 calc R . .
H10D H -0.3445 0.0502 0.4213 0.028 Uiso 1 1 calc R . .
C118 C -0.4164(2) 0.15073(15) 0.4036(2) 0.0235(9) Uani 1 1 d . . .
N1 N -0.13167(19) 0.07913(12) 0.51690(16) 0.0230(8) Uani 1 1 d . . .
N2 N -0.25864(19) 0.08433(12) 0.47981(16) 0.0220(8) Uani 1 1 d . . .
N3 N -0.3906(2) 0.11304(12) 0.44317(16) 0.0233(8) Uani 1 1 d . . .
N4 N -0.4890(2) 0.16426(12) 0.41749(16) 0.0232(8) Uani 1 1 d . . .
N5 N -0.53573(19) 0.24671(11) 0.40097(16) 0.0212(7) Uani 1 1 d . . .
N6 N -0.4971(2) 0.32204(12) 0.41689(16) 0.0221(8) Uani 1 1 d . . .
N7 N -0.3985(2) 0.38288(12) 0.44945(16) 0.0256(8) Uani 1 1 d . . .
N8 N 0.10208(19) 0.24474(12) 0.70576(16) 0.0219(8) Uani 1 1 d . . .
N9 N -0.2772(2) 0.40818(13) 0.48123(17) 0.0276(8) Uani 1 1 d . . .
N10 N -0.1370(2) 0.40680(12) 0.51756(16) 0.0251(8) Uani 1 1 d . . .
N11 N -0.0178(2) 0.37646(13) 0.54791(16) 0.0260(8) Uani 1 1 d . . .
N12 N 0.0794(2) 0.31461(12) 0.57728(16) 0.0221(8) Uani 1 1 d . . .
N13 N 0.12620(19) 0.24071(12) 0.59151(15) 0.0192(7) Uani 1 1 d . . .
N14 N 0.09871(19) 0.15497(11) 0.58039(16) 0.0201(7) Uani 1 1 d . . .
N15 N 0.00195(19) 0.10387(12) 0.55408(16) 0.0217(8) Uani 1 1 d . . .
N16 N 0.06370(19) 0.16120(12) 0.69127(16) 0.0222(8) Uani 1 1 d . . .
N17 N -0.0344(2) 0.10997(12) 0.66399(16) 0.0237(8) Uani 1 1 d . . .
N18 N -0.16631(19) 0.08055(12) 0.62762(16) 0.0237(8) Uani 1 1 d . . .
N19 N -0.29408(19) 0.07994(12) 0.58976(16) 0.0243(8) Uani 1 1 d . . .
N20 N -0.42687(19) 0.10607(12) 0.55235(16) 0.0225(8) Uani 1 1 d . . .
N21 N -0.52811(19) 0.15470(11) 0.52601(16) 0.0212(8) Uani 1 1 d . . .
N22 N -0.5565(2) 0.23876(12) 0.51518(15) 0.0244(8) Uani 1 1 d . . .
N23 N -0.51252(19) 0.31387(11) 0.53261(15) 0.0198(7) Uani 1 1 d . . .
N24 N -0.4185(2) 0.37702(12) 0.56508(16) 0.0259(8) Uani 1 1 d . . .
N25 N -0.2987(2) 0.40572(13) 0.59548(17) 0.0270(8) Uani 1 1 d . . .
N26 N -0.1587(2) 0.40549(13) 0.63154(17) 0.0276(8) Uani 1 1 d . . .
N27 N -0.0370(2) 0.38081(13) 0.66227(16) 0.0267(8) Uani 1 1 d . . .
N28 N 0.06474(19) 0.32068(12) 0.69296(16) 0.0226(8) Uani 1 1 d . . .
O1 O -0.49373(16) 0.26024(10) 0.61811(13) 0.0238(6) Uani 1 1 d . . .
O2 O -0.47005(17) 0.15283(10) 0.63320(13) 0.0286(7) Uani 1 1 d . . .
O3 O -0.25482(17) 0.10907(12) 0.69410(15) 0.0367(8) Uani 1 1 d . . .
O4 O -0.04608(17) 0.16461(11) 0.74524(14) 0.0307(7) Uani 1 1 d . . .
O5 O 0.02215(17) 0.27625(10) 0.77722(13) 0.0269(7) Uani 1 1 d . . .
O6 O -0.13303(18) 0.36372(12) 0.72806(15) 0.0386(8) Uani 1 1 d . . .
O7 O -0.35710(19) 0.35837(12) 0.66736(15) 0.0387(8) Uani 1 1 d . . .
O8 O -0.45603(17) 0.27971(9) 0.33096(13) 0.0236(6) Uani 1 1 d . . .
O9 O -0.38016(17) 0.16959(11) 0.36286(14) 0.0326(7) Uani 1 1 d . . .
O10 O -0.16881(17) 0.11115(12) 0.41413(15) 0.0350(8) Uani 1 1 d . . .
O11 O 0.03556(17) 0.15578(10) 0.47556(14) 0.0294(7) Uani 1 1 d . . .
O12 O 0.06100(17) 0.26252(10) 0.48999(14) 0.0254(6) Uani 1 1 d . . .
O13 O -0.08021(19) 0.35894(12) 0.44437(15) 0.0401(8) Uani 1 1 d . . .
O14 O -0.30294(18) 0.36977(12) 0.38184(14) 0.0384(8) Uani 1 1 d . . .

loop_
_atom_site_aniso_label
_atom_site_aniso_U_11
_atom_site_aniso_U_22
_atom_site_aniso_U_33
_atom_site_aniso_U_23
_atom_site_aniso_U_13
_atom_site_aniso_U_12
Cl5 0.0781(11) 0.0448(8) 0.0699(11) -0.0046(7) 0.0138(9) 0.0056(7)
Cl6 0.0496(10) 0.1594(18) 0.0435(10) 0.0129(10) 0.0113(8) 0.0265(10)
Cl7 0.0625(11) 0.1448(18) 0.1012(16) 0.0389(14) 0.0355(11) 0.0234(12)
Cl8 0.124(4) 0.233(6) 0.095(3) -0.077(4) 0.068(3) -0.098(4)
Cl9 0.140(4) 0.153(5) 0.139(5) 0.018(4) 0.027(4) -0.008(4)
Cl2 0.0360(7) 0.0293(6) 0.0753(10) -0.0010(6) 0.0174(6) -0.0002(5)
Cl3 0.0423(7) 0.0433(7) 0.0668(10) -0.0192(6) 0.0186(7) -0.0153(6)
Cl4 0.0368(7) 0.0538(8) 0.0468(8) 0.0011(6) -0.0131(6) -0.0035(6)
Cl1 0.0366(7) 0.0433(7) 0.0439(8) -0.0065(6) -0.0076(6) 0.0014(5)
Co1 0.0302(4) 0.0289(3) 0.0462(4) -0.0059(3) 0.0040(3) -0.0030(3)
O1W 0.084(3) 0.038(2) 0.0197(19) -0.0046(14) 0.0104(18) -0.0268(18)
O2W 0.046(2) 0.044(2) 0.0294(19) -0.0023(15) 0.0098(16) -0.0173(16)
O3W 0.035(2) 0.068(2) 0.037(2) 0.0083(17) 0.0124(17) -0.0044(17)
O4W 0.0391(19) 0.055(2) 0.0243(18) 0.0047(15) 0.0066(15) 0.0182(16)
O5W 0.0311(18) 0.081(3) 0.035(2) 0.0145(18) 0.0164(16) 0.0156(18)
O6W 0.0306(17) 0.0373(18) 0.0231(17) -0.0033(13) 0.0032(13) 0.0079(14)
O7W 0.0372(18) 0.052(2) 0.0180(17) -0.0012(14) 0.0055(14) -0.0166(15)
O8W 0.034(2) 0.093(3) 0.041(2) -0.020(2) 0.0152(18) 0.0003(19)
O9W 0.097(3) 0.045(2) 0.0204(19) 0.0032(15) 0.009(2) 0.035(2)
O10W 0.0318(18) 0.060(2) 0.040(2) -0.0141(17) 0.0140(16) -0.0114(16)
Gd1 0.02302(13) 0.02999(13) 0.01066(13) -0.00057(8) 0.00300(9) -0.00159(8)
Gd2 0.02217(13) 0.03000(13) 0.01040(12) 0.00003(8) 0.00271(9) 0.00109(8)
C1 0.028(2) 0.027(2) 0.018(2) -0.0048(17) -0.0035(18) 0.0038(18)
C2 0.028(2) 0.033(2) 0.019(2) -0.0011(19) -0.0012(1