####################################################################### 
# 
# This file contains crystal structure data downloaded from the 
# Cambridge Structural Database (CSD) hosted by the Cambridge 
# Crystallographic Data Centre (CCDC).
# 
# Full information about CCDC data access policies and citation 
# guidelines are available at http://www.ccdc.cam.ac.uk/access/V1 
# 
# Audit and citation data items may have been added by the CCDC. 
# Please retain this information to preserve the provenance of 
# this file and to allow appropriate attribution of the data. 
# 
#######################################################################

data_compound_2
_audit_block_doi                 10.5517/cc12dxq3
_database_code_depnum_ccdc_archive 'CCDC 995525'
loop_
_citation_id
_citation_doi
_citation_year
1 10.1021/ic500908r 2014
_audit_update_record             
;
2014-08-15 deposited with the CCDC.	2024-07-13 downloaded from the CCDC.
;

_audit_creation_method           SHELXL-97
_chemical_name_systematic        
;
 ?
;
_chemical_name_common            ?
_chemical_melting_point          ?
_chemical_formula_moiety         'C38 H34 Ag2 N8 O6'
_chemical_formula_sum            'C38 H34 Ag2 N8 O6'
_chemical_formula_weight         914.47

loop_
_atom_type_symbol
_atom_type_description
_atom_type_scat_dispersion_real
_atom_type_scat_dispersion_imag
_atom_type_scat_source
C C -0.0020 0.0020 'International Tables Vol C Tables 4.2.6.8 and 6.1.1.4'
H H 0.0000 0.0000 'International Tables Vol C Tables 4.2.6.8 and 6.1.1.4'
Ag Ag -0.8860 1.4500 'International Tables Vol C Tables 4.2.6.8 and 6.1.1.4'
N N -0.0030 0.0050 'International Tables Vol C Tables 4.2.6.8 and 6.1.1.4'
O O -0.0040 0.0080 'International Tables Vol C Tables 4.2.6.8 and 6.1.1.4'

_symmetry_cell_setting           orthorhombic
_symmetry_space_group_name_H-M   Iba2
_symmetry_space_group_name_Hall  'I 2 -2c'
_symmetry_Int_Tables_number      45

loop_
_symmetry_equiv_pos_as_xyz
'x, y, z'
'-x, -y, z'
'-x, y, z+1/2'
'x, -y, z+1/2'
'x+1/2, y+1/2, z+1/2'
'-x+1/2, -y+1/2, z+1/2'
'-x+1/2, y+1/2, z+1'
'x+1/2, -y+1/2, z+1'

_cell_length_a                   23.407(3)
_cell_length_b                   29.545(4)
_cell_length_c                   29.171(4)
_cell_angle_alpha                90.00
_cell_angle_beta                 90.00
_cell_angle_gamma                90.00
_cell_volume                     20174(4)
_cell_formula_units_Z            16
_cell_measurement_temperature    180(2)
_cell_measurement_reflns_used    34506
_cell_measurement_theta_min      1.29
_cell_measurement_theta_max      29.47

_exptl_crystal_description       prism
_exptl_crystal_colour            colourless
_exptl_crystal_size_max          0.20
_exptl_crystal_size_mid          0.15
_exptl_crystal_size_min          0.10
_exptl_crystal_density_meas      ?
_exptl_crystal_density_diffrn    1.204
_exptl_crystal_density_method    'not measured'
_exptl_crystal_F_000             7360
_exptl_absorpt_coefficient_mu    1.210
_exptl_absorpt_correction_type   none
_exptl_absorpt_correction_T_min  ?
_exptl_absorpt_correction_T_max  ?
_exptl_absorpt_process_details   ?

_exptl_special_details           
;
 ?
;

_diffrn_ambient_temperature      180(2)
_diffrn_radiation_wavelength     0.82657
_diffrn_radiation_type           synchrotron
_diffrn_radiation_source         'BESSY BL MX-14.2'
_diffrn_radiation_monochromator  'Si 111'
_diffrn_measurement_device_type  'MX-225 CCD'
_diffrn_measurement_method       'rotation method'
_diffrn_detector_area_resol_mean ?
_diffrn_standards_number         ?
_diffrn_standards_interval_count ?
_diffrn_standards_interval_time  ?
_diffrn_standards_decay_%        ?
_diffrn_reflns_number            31550
_diffrn_reflns_av_R_equivalents  0.0302
_diffrn_reflns_av_sigmaI/netI    0.0291
_diffrn_reflns_limit_h_min       -24
_diffrn_reflns_limit_h_max       27
_diffrn_reflns_limit_k_min       -35
_diffrn_reflns_limit_k_max       35
_diffrn_reflns_limit_l_min       -34
_diffrn_reflns_limit_l_max       34
_diffrn_reflns_theta_min         1.29
_diffrn_reflns_theta_max         29.47
_reflns_number_total             16171
_reflns_number_gt                15835
_reflns_threshold_expression     >2sigma(I)

_computing_data_collection       'marCCD 1994-2002'
_computing_cell_refinement       'XDS, Kabsch, W. (2010) Acta Cryst.'
_computing_data_reduction        'XDS, Kabsch, W. (2010) Acta Cryst.'
_computing_structure_solution    'SHELXS-97 Sheldrick, G. M. (2008) Acta Cryst.'
_computing_structure_refinement  'SHELXL-97 Sheldrick, G. M. (2008) Acta Cryst.'
_computing_molecular_graphics    'DIAMOND 3.2'
_computing_publication_material  'WinGX publication routines (Farrugia, 1999)'

_refine_special_details          
;
 Refinement of F^2^ against ALL reflections.  The weighted R-factor wR and
 goodness of fit S are based on F^2^, conventional R-factors R are based
 on F, with F set to zero for negative F^2^. The threshold expression of
 F^2^ > 2sigma(F^2^) is used only for calculating R-factors(gt) etc. and is
 not relevant to the choice of reflections for refinement.  R-factors based
 on F^2^ are statistically about twice as large as those based on F, and R-
 factors based on ALL data will be even larger.

The unit cell contains solvent accessible voids. The PLATON/SQUEEZE routine was used in order to remove the diffuse residual electron density as no solvent could be detected during single crystal structure refinement.
;

_refine_ls_structure_factor_coef Fsqd
_refine_ls_matrix_type           full
_refine_ls_weighting_scheme      calc
_refine_ls_weighting_details     
'calc w=1/[\s^2^(Fo^2^)+(0.0610P)^2^+56.3813P] where P=(Fo^2^+2Fc^2^)/3'
_atom_sites_solution_primary     direct
_atom_sites_solution_secondary   difmap
_atom_sites_solution_hydrogens   geom
_refine_ls_hydrogen_treatment    mixed
_refine_ls_extinction_method     none
_refine_ls_extinction_coef       ?
_refine_ls_abs_structure_details 'Flack H D (1983), Acta Cryst. A39, 876-881'
_refine_ls_abs_structure_Flack   0.400(14)
_refine_ls_number_reflns         16171
_refine_ls_number_parameters     984
_refine_ls_number_restraints     220
_refine_ls_R_factor_all          0.0401
_refine_ls_R_factor_gt           0.0395
_refine_ls_wR_factor_ref         0.1084
_refine_ls_wR_factor_gt          0.1080
_refine_ls_goodness_of_fit_ref   1.077
_refine_ls_restrained_S_all      1.070
_refine_ls_shift/su_max          0.002
_refine_ls_shift/su_mean         0.000

loop_
_atom_site_label
_atom_site_type_symbol
_atom_site_fract_x
_atom_site_fract_y
_atom_site_fract_z
_atom_site_U_iso_or_equiv
_atom_site_adp_type
_atom_site_occupancy
_atom_site_symmetry_multiplicity
_atom_site_calc_flag
_atom_site_refinement_flags
_atom_site_disorder_assembly
_atom_site_disorder_group
C1 C 0.7259(2) 0.37525(18) 0.37370(19) 0.0376(12) Uani 1 1 d . . .
C2 C 0.7228(2) 0.33570(16) 0.34036(17) 0.0321(10) Uani 1 1 d . . .
C3 C 0.7721(2) 0.32110(16) 0.31850(19) 0.0334(11) Uani 1 1 d . . .
H3 H 0.8075 0.3362 0.3230 0.040 Uiso 1 1 calc R . .
C4 C 0.7679(2) 0.28388(16) 0.28998(17) 0.0293(10) Uani 1 1 d . . .
C5 C 0.7169(2) 0.26083(15) 0.28170(17) 0.0303(10) Uani 1 1 d . . .
H5 H 0.7156 0.2354 0.2618 0.036 Uiso 1 1 calc R . .
C6 C 0.6679(2) 0.27651(16) 0.30375(16) 0.0283(10) Uani 1 1 d . . .
C7 C 0.6725(2) 0.31311(16) 0.33405(17) 0.0320(10) Uani 1 1 d . . .
H7 H 0.6396 0.3225 0.3507 0.038 Uiso 1 1 calc R . .
C8 C 0.8319(2) 0.33397(18) 0.21341(18) 0.0379(11) Uani 1 1 d . . .
H8A H 0.7966 0.3448 0.2278 0.057 Uiso 1 1 calc R . .
H8B H 0.8254 0.3295 0.1805 0.057 Uiso 1 1 calc R . .
H8C H 0.8622 0.3564 0.2178 0.057 Uiso 1 1 calc R . .
C9 C 0.8493(2) 0.29015(15) 0.23479(15) 0.0280(10) Uani 1 1 d . . .
C10 C 0.8505(2) 0.22965(15) 0.27777(18) 0.0330(11) Uani 1 1 d . . .
C11 C 0.8335(3) 0.19578(19) 0.3126(2) 0.0493(15) Uani 1 1 d . . .
H11A H 0.8641 0.1735 0.3163 0.074 Uiso 1 1 calc R . .
H11B H 0.7985 0.1804 0.3025 0.074 Uiso 1 1 calc R . .
H11C H 0.8264 0.2110 0.3419 0.074 Uiso 1 1 calc R . .
C12 C 0.5996(2) 0.22215(17) 0.27072(17) 0.0316(10) Uani 1 1 d . . .
C13 C 0.5423(2) 0.19946(16) 0.28058(19) 0.0350(11) Uani 1 1 d U . .
C14 C 0.5073(2) 0.21242(18) 0.3155(2) 0.0397(11) Uani 1 1 d U . .
H14 H 0.5174 0.2382 0.3331 0.048 Uiso 1 1 calc R . .
C15 C 0.4569(3) 0.1893(2) 0.3264(2) 0.0470(13) Uani 1 1 d U . .
C16 C 0.4440(3) 0.1513(2) 0.2996(3) 0.0573(15) Uani 1 1 d U . .
H16 H 0.4112 0.1336 0.3063 0.069 Uiso 1 1 calc R . .
C17 C 0.4789(3) 0.1396(2) 0.2635(3) 0.068(2) Uani 1 1 d U . .
H17 H 0.4688 0.1145 0.2448 0.082 Uiso 1 1 calc R . .
C18 C 0.5270(2) 0.16286(17) 0.2542(2) 0.0427(12) Uani 1 1 d U . .
H18 H 0.5505 0.1539 0.2293 0.051 Uiso 1 1 calc R . .
C19 C 0.4218(3) 0.2036(3) 0.3645(3) 0.074(2) Uani 1 1 d U . .
H19A H 0.4464 0.2126 0.3901 0.112 Uiso 1 1 calc R . .
H19B H 0.3971 0.1786 0.3740 0.112 Uiso 1 1 calc R . .
H19C H 0.3982 0.2294 0.3551 0.112 Uiso 1 1 calc R . .
C20 C 0.7585(2) 0.60881(18) 0.57295(18) 0.0338(11) Uani 1 1 d . . .
C21 C 0.7444(2) 0.65102(18) 0.59867(17) 0.0325(11) Uani 1 1 d . . .
C22 C 0.6916(2) 0.65723(15) 0.61956(16) 0.0292(10) Uani 1 1 d . . .
H22 H 0.6638 0.6338 0.6187 0.035 Uiso 1 1 calc R . .
C23 C 0.6796(2) 0.69749(16) 0.64158(16) 0.0298(10) Uani 1 1 d . . .
C24 C 0.7189(2) 0.73204(16) 0.64518(18) 0.0328(11) Uani 1 1 d . . .
H24 H 0.7102 0.7589 0.6617 0.039 Uiso 1 1 calc R . .
C25 C 0.7722(2) 0.72647(17) 0.62362(17) 0.0339(11) Uani 1 1 d . . .
C26 C 0.7839(2) 0.68653(17) 0.60044(17) 0.0337(11) Uani 1 1 d . . .
H26 H 0.8196 0.6832 0.5854 0.040 Uiso 1 1 calc R . .
C27 C 0.6230(2) 0.64426(18) 0.72231(18) 0.0389(12) Uani 1 1 d . . .
H27A H 0.5976 0.6361 0.7477 0.058 Uiso 1 1 calc R . .
H27B H 0.6602 0.6535 0.7345 0.058 Uiso 1 1 calc R . .
H27C H 0.6280 0.6181 0.7020 0.058 Uiso 1 1 calc R . .
C28 C 0.5979(2) 0.68179(14) 0.69642(16) 0.0268(9) Uani 1 1 d . . .
C29 C 0.5857(2) 0.73673(16) 0.64715(19) 0.0362(11) Uani 1 1 d . . .
C30 C 0.5933(3) 0.7677(2) 0.6074(2) 0.0579(18) Uani 1 1 d . . .
H30A H 0.5562 0.7734 0.5930 0.087 Uiso 1 1 calc R . .
H30B H 0.6191 0.7537 0.5850 0.087 Uiso 1 1 calc R . .
H30C H 0.6097 0.7964 0.6179 0.087 Uiso 1 1 calc R . .
C31 C 0.8204(2) 0.79572(16) 0.65187(19) 0.0360(11) Uani 1 1 d . . .
C32 C 0.8713(3) 0.82518(18) 0.6465(2) 0.0442(12) Uani 1 1 d U . .
C33 C 0.9113(3) 0.8185(2) 0.6111(2) 0.0531(15) Uani 1 1 d U . .
H33 H 0.9053 0.7951 0.5893 0.064 Uiso 1 1 calc R . .
C34 C 0.9601(3) 0.8462(2) 0.6076(3) 0.0593(16) Uani 1 1 d U . .
C35 C 0.9678(3) 0.8793(2) 0.6388(3) 0.0680(18) Uani 1 1 d U . .
H35 H 1.0009 0.8979 0.6367 0.082 Uiso 1 1 calc R . .
C36 C 0.9294(4) 0.8869(3) 0.6732(3) 0.076(2) Uani 1 1 d U . .
H36 H 0.9357 0.9109 0.6943 0.092 Uiso 1 1 calc R . .
C37 C 0.8810(3) 0.8597(2) 0.6775(3) 0.0644(17) Uani 1 1 d U . .
H37 H 0.8547 0.8648 0.7018 0.077 Uiso 1 1 calc R . .
C38 C 1.0014(4) 0.8376(3) 0.5693(4) 0.087(2) Uani 1 1 d U . .
H38A H 0.9883 0.8117 0.5512 0.130 Uiso 1 1 calc R . .
H38B H 1.0392 0.8310 0.5821 0.130 Uiso 1 1 calc R . .
H38C H 1.0037 0.8644 0.5497 0.130 Uiso 1 1 calc R . .
C39 C 1.0288(2) 0.3520(2) 0.6150(2) 0.0410(13) Uani 1 1 d . . .
C40 C 1.0212(2) 0.38361(17) 0.57481(18) 0.0334(11) Uani 1 1 d . . .
C41 C 0.9666(2) 0.39988(18) 0.56408(19) 0.0380(12) Uani 1 1 d . . .
H41 H 0.9347 0.3932 0.5831 0.046 Uiso 1 1 calc R . .
C42 C 0.9604(2) 0.42521(16) 0.52619(16) 0.0282(10) Uani 1 1 d . . .
C43 C 1.0046(2) 0.43938(14) 0.49864(17) 0.0282(9) Uani 1 1 d . . .
H43 H 0.9980 0.4586 0.4731 0.034 Uiso 1 1 calc R . .
C44 C 1.0602(2) 0.42423(15) 0.50969(16) 0.0270(9) Uani 1 1 d . . .
C45 C 1.0672(2) 0.39550(16) 0.54758(17) 0.0321(10) Uani 1 1 d . . .
H45 H 1.1041 0.3840 0.5546 0.039 Uiso 1 1 calc R . .
C46 C 0.8920(3) 0.3988(2) 0.4395(2) 0.0511(15) Uani 1 1 d . . .
H46A H 0.9092 0.3714 0.4525 0.077 Uiso 1 1 calc R . .
H46B H 0.9205 0.4150 0.4212 0.077 Uiso 1 1 calc R . .
H46C H 0.8596 0.3904 0.4200 0.077 Uiso 1 1 calc R . .
C47 C 0.8715(2) 0.42876(17) 0.47755(17) 0.0313(10) Uani 1 1 d . . .
C48 C 0.8699(2) 0.46863(15) 0.54011(16) 0.0293(9) Uani 1 1 d . . .
C49 C 0.8864(3) 0.4906(2) 0.58450(19) 0.0478(14) Uani 1 1 d . . .
H49A H 0.8534 0.5068 0.5972 0.072 Uiso 1 1 calc R . .
H49B H 0.9176 0.5121 0.5791 0.072 Uiso 1 1 calc R . .
H49C H 0.8990 0.4674 0.6063 0.072 Uiso 1 1 calc R . .
C50 C 1.1136(2) 0.45775(16) 0.44466(17) 0.0340(11) Uani 1 1 d . . .
C51 C 1.1682(2) 0.45295(17) 0.41955(16) 0.0336(11) Uani 1 1 d . . .
C52 C 1.2077(2) 0.41821(18) 0.42841(18) 0.0399(12) Uani 1 1 d . . .
H52 H 1.2011 0.3982 0.4533 0.048 Uiso 1 1 calc R . .
C53 C 1.2564(2) 0.4124(2) 0.4015(2) 0.0450(14) Uani 1 1 d . . .
C54 C 1.2651(3) 0.4423(2) 0.3652(2) 0.0518(16) Uani 1 1 d . . .
H54 H 1.2977 0.4384 0.3462 0.062 Uiso 1 1 calc R . .
C55 C 1.2272(3) 0.4779(2) 0.3559(2) 0.0519(15) Uani 1 1 d . . .
H55 H 1.2342 0.4978 0.3310 0.062 Uiso 1 1 calc R . .
C56 C 1.1796(3) 0.48353(19) 0.3834(2) 0.0475(14) Uani 1 1 d . . .
H56 H 1.1544 0.5082 0.3779 0.057 Uiso 1 1 calc R . .
C57 C 1.2964(3) 0.3737(2) 0.4113(3) 0.0627(18) Uani 1 1 d . . .
H57A H 1.2946 0.3660 0.4439 0.094 Uiso 1 1 calc R . .
H57B H 1.3355 0.3825 0.4032 0.094 Uiso 1 1 calc R . .
H57C H 1.2850 0.3473 0.3930 0.094 Uiso 1 1 calc R . .
C58 C 0.4979(2) 0.64605(18) 0.3438(2) 0.0395(13) Uani 1 1 d . . .
C59 C 0.4987(2) 0.61636(15) 0.38598(19) 0.0356(11) Uani 1 1 d U . .
C60 C 0.5465(2) 0.58923(15) 0.39566(19) 0.0320(10) Uani 1 1 d U . .
H60 H 0.5780 0.5882 0.3752 0.038 Uiso 1 1 calc R . .
C61 C 0.5466(2) 0.56447(15) 0.43491(18) 0.0324(10) Uani 1 1 d U . .
C62 C 0.5007(2) 0.56365(15) 0.46529(17) 0.0320(10) Uani 1 1 d U . .
H62 H 0.5013 0.5449 0.4917 0.038 Uiso 1 1 calc R . .
C63 C 0.4535(2) 0.59140(16) 0.4556(2) 0.0356(11) Uani 1 1 d U . .
C64 C 0.4529(2) 0.61692(16) 0.4167(2) 0.0373(11) Uani 1 1 d U . .
H64 H 0.4207 0.6354 0.4103 0.045 Uiso 1 1 calc R . .
C65 C 0.6070(2) 0.48730(17) 0.37974(18) 0.0391(12) Uani 1 1 d . . .
H65A H 0.6115 0.5103 0.3558 0.059 Uiso 1 1 calc R . .
H65B H 0.5669 0.4782 0.3817 0.059 Uiso 1 1 calc R . .
H65C H 0.6306 0.4609 0.3723 0.059 Uiso 1 1 calc R . .
C66 C 0.6252(2) 0.50605(15) 0.42372(16) 0.0288(10) Uani 1 1 d . . .
C67 C 0.6280(2) 0.54689(16) 0.48704(17) 0.0306(10) Uani 1 1 d . . .
C68 C 0.6133(3) 0.5791(2) 0.5237(2) 0.0464(14) Uani 1 1 d . . .
H68A H 0.5830 0.5663 0.5429 0.070 Uiso 1 1 calc R . .
H68B H 0.6000 0.6075 0.5101 0.070 Uiso 1 1 calc R . .
H68C H 0.6472 0.5849 0.5426 0.070 Uiso 1 1 calc R . .
C69 C 0.3952(2) 0.56932(17) 0.52403(19) 0.0368(12) Uani 1 1 d . . .
C70 C 0.3408(3) 0.57850(19) 0.5499(2) 0.0485(14) Uani 1 1 d U . .
C71 C 0.3029(3) 0.6124(2) 0.5384(3) 0.0583(15) Uani 1 1 d U . .
H71 H 0.3091 0.6307 0.5122 0.070 Uiso 1 1 calc R . .
C72 C 0.2538(3) 0.6194(3) 0.5671(3) 0.0662(18) Uani 1 1 d U . .
C73 C 0.2456(4) 0.5927(3) 0.6029(3) 0.076(2) Uani 1 1 d U . .
H73 H 0.2125 0.5970 0.6211 0.091 Uiso 1 1 calc R . .
C74 C 0.2819(3) 0.5604(3) 0.6142(3) 0.0709(19) Uani 1 1 d U . .
H74 H 0.2750 0.5427 0.6407 0.085 Uiso 1 1 calc R . .
C75 C 0.3294(3) 0.5522(3) 0.5880(2) 0.0616(17) Uani 1 1 d U . .
H75 H 0.3546 0.5283 0.5961 0.074 Uiso 1 1 calc R . .
C76 C 0.2144(4) 0.6576(3) 0.5530(4) 0.094(3) Uani 1 1 d U . .
H76A H 0.1795 0.6451 0.5394 0.141 Uiso 1 1 calc R . .
H76B H 0.2337 0.6769 0.5305 0.141 Uiso 1 1 calc R . .
H76C H 0.2044 0.6756 0.5801 0.141 Uiso 1 1 calc R . .
Ag1 Ag 0.745479(15) 0.450312(13) 0.432200(14) 0.03671(10) Uani 1 1 d . . .
Ag2 Ag 0.745722(16) 0.514496(13) 0.536337(14) 0.03614(10) Uani 1 1 d . . .
Ag3 Ag 0.976102(16) 0.185747(12) 0.251328(14) 0.03505(10) Uani 1 1 d . . .
Ag4 Ag 0.967153(19) 0.282341(15) 0.179767(16) 0.04935(13) Uani 1 1 d . . .
N1 N 0.89604(17) 0.22892(12) 0.25231(15) 0.0292(8) Uani 1 1 d . . .
N2 N 0.89398(17) 0.26707(12) 0.22470(13) 0.0287(8) Uani 1 1 d . . .
N3 N 0.81888(17) 0.26845(12) 0.26737(14) 0.0281(8) Uani 1 1 d . . .
N4 N 0.61443(18) 0.25564(15) 0.29929(15) 0.0341(9) Uani 1 1 d . . .
H4 H 0.5873 0.2658 0.3175 0.041 Uiso 1 1 calc R . .
N5 N 0.5393(2) 0.73395(14) 0.67146(17) 0.0410(11) Uani 1 1 d . . .
N6 N 0.54775(17) 0.69951(12) 0.70320(14) 0.0286(8) Uani 1 1 d . . .
N7 N 0.62389(18) 0.70458(13) 0.66089(14) 0.0316(9) Uani 1 1 d . . .
N8 N 0.8150(2) 0.76061(16) 0.62415(16) 0.0427(11) Uani 1 1 d . . .
H8 H 0.8416 0.7580 0.6030 0.051 Uiso 1 1 calc R . .
N9 N 0.81997(17) 0.47293(14) 0.51979(13) 0.0292(8) Uani 1 1 d . . .
N10 N 0.82058(18) 0.44774(13) 0.48007(14) 0.0300(9) Uani 1 1 d . . .
N11 N 0.90373(18) 0.44164(14) 0.51388(14) 0.0318(9) Uani 1 1 d . . .
N12 N 1.10946(17) 0.43433(14) 0.48463(14) 0.0302(9) Uani 1 1 d . . .
H12 H 1.1418 0.4243 0.4961 0.036 Uiso 1 1 calc R . .
N13 N 0.67268(17) 0.52071(13) 0.48708(14) 0.0284(8) Uani 1 1 d . . .
N14 N 0.67055(17) 0.49441(12) 0.44690(13) 0.0266(8) Uani 1 1 d . . .
N15 N 0.59663(17) 0.53936(13) 0.44786(14) 0.0288(8) Uani 1 1 d . . .
N16 N 0.40495(19) 0.59351(15) 0.48515(19) 0.0461(12) Uani 1 1 d . . .
H16A H 0.3781 0.6128 0.4772 0.055 Uiso 1 1 calc R . .
O1 O 0.76764(18) 0.40238(15) 0.36987(17) 0.0556(12) Uani 1 1 d . . .
O2 O 0.68905(18) 0.37944(15) 0.40309(15) 0.0532(11) Uani 1 1 d . . .
O3 O 0.63057(17) 0.21002(14) 0.23888(15) 0.0497(10) Uani 1 1 d . . .
O4 O 0.73396(17) 0.57364(12) 0.58607(13) 0.0396(8) Uani 1 1 d . . .
O5 O 0.79329(15) 0.61071(13) 0.54028(13) 0.0418(9) Uani 1 1 d . . .
O6 O 0.78520(19) 0.80344(14) 0.68311(18) 0.0581(12) Uani 1 1 d . . .
O7 O 0.99488(19) 0.35358(17) 0.64637(16) 0.0607(12) Uani 1 1 d . . .
O8 O 1.07042(19) 0.32511(16) 0.61317(16) 0.0597(12) Uani 1 1 d . . .
O9 O 1.07334(16) 0.48050(12) 0.42931(13) 0.0395(8) Uani 1 1 d . . .
O10 O 0.5314(2) 0.63638(14) 0.31170(16) 0.0540(11) Uani 1 1 d . . .
O11 O 0.46460(19) 0.67988(15) 0.34422(18) 0.0606(13) Uani 1 1 d . . .
O12 O 0.42852(17) 0.53995(1