####################################################################### 
# 
# This file contains crystal structure data downloaded from the 
# Cambridge Structural Database (CSD) hosted by the Cambridge 
# Crystallographic Data Centre (CCDC).
# 
# Full information about CCDC data access policies and citation 
# guidelines are available at http://www.ccdc.cam.ac.uk/access/V1 
# 
# Audit and citation data items may have been added by the CCDC. 
# Please retain this information to preserve the provenance of 
# this file and to allow appropriate attribution of the data. 
# 
#######################################################################

data_Zn-ant
_audit_block_doi                 10.5517/ccr5q4r
_database_code_depnum_ccdc_archive 'CCDC 690684'
loop_
_citation_id
_citation_doi
_citation_year
1 10.1021/ic800777r 2008
_audit_update_record             
;
2008-06-09 deposited with the CCDC.	2024-07-13 downloaded from the CCDC.
;
_audit_creation_method           SHELXL-97
_chemical_name_systematic        
;
?
;
_chemical_name_common            ?
_chemical_melting_point          ?
_chemical_formula_moiety         'C55.65 H33.3 O13.55 Zn4'
_chemical_formula_sum            'C55.65 H33.3 O13.55 Zn4'
_chemical_formula_weight         1179.05

loop_
_atom_type_symbol
_atom_type_description
_atom_type_scat_dispersion_real
_atom_type_scat_dispersion_imag
_atom_type_scat_source
C C 0.0181 0.0091 'International Tables Vol C Tables 4.2.6.8 and 6.1.1.4'
H H 0.0000 0.0000 'International Tables Vol C Tables 4.2.6.8 and 6.1.1.4'
O O 0.0492 0.0322 'International Tables Vol C Tables 4.2.6.8 and 6.1.1.4'
Zn Zn -1.5491 0.6778 'International Tables Vol C Tables 4.2.6.8 and 6.1.1.4'

_symmetry_cell_setting           monoclinic
_symmetry_space_group_name_H-M   'C 1 2/c 1'
_symmetry_space_group_name_Hall  '-C 2yc'
_symmetry_Int_Tables_number      15

loop_
_symmetry_equiv_pos_as_xyz
'x, y, z'
'-x, y, -z+1/2'
'x+1/2, y+1/2, z'
'-x+1/2, y+1/2, -z+1/2'
'-x, -y, -z'
'x, -y, z-1/2'
'-x+1/2, -y+1/2, -z'
'x+1/2, -y+1/2, z-1/2'

_cell_length_a                   26.3857(14)
_cell_length_b                   28.3859(14)
_cell_length_c                   31.6139(16)
_cell_angle_alpha                90.00
_cell_angle_beta                 113.567(2)
_cell_angle_gamma                90.00
_cell_volume                     21703.3(19)
_cell_formula_units_Z            8
_cell_measurement_temperature    100(2)
_cell_measurement_reflns_used    23603
_cell_measurement_theta_min      6.5
_cell_measurement_theta_max      50.4

_exptl_crystal_description       Prism
_exptl_crystal_colour            Colorless
_exptl_crystal_size_max          0.29
_exptl_crystal_size_mid          0.14
_exptl_crystal_size_min          0.11
_exptl_crystal_density_meas      ?
_exptl_crystal_density_diffrn    0.722
_exptl_crystal_density_method    'not measured'
_exptl_crystal_F_000             4760
_exptl_absorpt_coefficient_mu    1.264
_exptl_absorpt_correction_type   multi-scan
_exptl_absorpt_correction_T_min  0.647
_exptl_absorpt_correction_T_max  0.870
_exptl_absorpt_process_details   
;
Higashi, T. (1995). Program for Absorption Correction.
Rigaku Corporation, Tokyo, Japan.
;
_exptl_special_details           
;
?
;

_diffrn_ambient_temperature      100(2)
_diffrn_radiation_wavelength     1.54187
_diffrn_radiation_type           CuK\a
_diffrn_radiation_source         'fine-focus sealed tube'
_diffrn_radiation_monochromator  graphite
_diffrn_measurement_device_type  'Rigaku RAXIS-RAPID'
_diffrn_measurement_method       \w
_diffrn_detector_area_resol_mean 10.00
_diffrn_standards_number         ?
_diffrn_standards_interval_count ?
_diffrn_standards_interval_time  ?
_diffrn_standards_decay_%        ?
_diffrn_reflns_number            47250
_diffrn_reflns_av_R_equivalents  0.0831
_diffrn_reflns_av_sigmaI/netI    0.0852
_diffrn_reflns_limit_h_min       -18
_diffrn_reflns_limit_h_max       26
_diffrn_reflns_limit_k_min       -28
_diffrn_reflns_limit_k_max       28
_diffrn_reflns_limit_l_min       -31
_diffrn_reflns_limit_l_max       31
_diffrn_reflns_theta_min         6.53
_diffrn_reflns_theta_max         50.43
_reflns_number_total             11222
_reflns_number_gt                7305
_reflns_threshold_expression     >2sigma(I)

_computing_data_collection       'CrystalClear 1.4'
_computing_cell_refinement       'CrystalClear 1.4'
_computing_data_reduction        'CrystalStructure 3.8.1'
_computing_structure_solution    'SHELXS-97 (Sheldrick, 1990)'
_computing_structure_refinement  'SHELXL-97 (Sheldrick, 1997)'
_computing_molecular_graphics    'CrystalStructure 3.8.1'
_computing_publication_material  'CrystalStructure 3.8.1'

_refine_special_details          
;
Refinement of F^2^ against ALL reflections. The weighted R-factor wR and
goodness of fit S are based on F^2^, conventional R-factors R are based
on F, with F set to zero for negative F^2^. The threshold expression of
F^2^ > 2sigma(F^2^) is used only for calculating R-factors(gt) etc. and is
not relevant to the choice of reflections for refinement. R-factors based
on F^2^ are statistically about twice as large as those based on F, and R-
factors based on ALL data will be even larger.
;

_refine_ls_structure_factor_coef Fsqd
_refine_ls_matrix_type           full
_refine_ls_weighting_scheme      calc
_refine_ls_weighting_details     
'calc w=1/[\s^2^(Fo^2^)+(0.1463P)^2^+0.0000P] where P=(Fo^2^+2Fc^2^)/3'
_atom_sites_solution_primary     direct
_atom_sites_solution_secondary   difmap
_atom_sites_solution_hydrogens   geom
_refine_ls_hydrogen_treatment    noref
_refine_ls_extinction_method     SHELXL
_refine_ls_extinction_coef       0.000053(15)
_refine_ls_extinction_expression Fc^*^=kFc[1+0.001xFc^2^\l^3^/sin(2\q)]^-1/4^
_refine_ls_number_reflns         11222
_refine_ls_number_parameters     658
_refine_ls_number_restraints     0
_refine_ls_R_factor_all          0.1066
_refine_ls_R_factor_gt           0.0782
_refine_ls_wR_factor_ref         0.2431
_refine_ls_wR_factor_gt          0.2245
_refine_ls_goodness_of_fit_ref   1.021
_refine_ls_restrained_S_all      1.021
_refine_ls_shift/su_max          0.001
_refine_ls_shift/su_mean         0.000

loop_
_atom_site_label
_atom_site_type_symbol
_atom_site_fract_x
_atom_site_fract_y
_atom_site_fract_z
_atom_site_U_iso_or_equiv
_atom_site_adp_type
_atom_site_occupancy
_atom_site_symmetry_multiplicity
_atom_site_calc_flag
_atom_site_refinement_flags
_atom_site_disorder_assembly
_atom_site_disorder_group
Zn1 Zn 0.85684(4) 0.61180(3) 0.34980(3) 0.0789(4) Uani 1 1 d . . .
Zn2 Zn 0.97250(4) 0.58129(3) 0.42686(3) 0.0755(4) Uani 1 1 d . . .
Zn3 Zn 0.96835(4) 0.65222(3) 0.34785(3) 0.0821(4) Uani 1 1 d . . .
Zn4 Zn 0.92798(4) 0.68391(3) 0.42649(3) 0.0763(4) Uani 1 1 d . . .
O1 O 0.93196(16) 0.63209(12) 0.38770(13) 0.0757(12) Uani 1 1 d . . .
O2 O 0.8376(2) 0.55247(15) 0.36846(15) 0.0924(15) Uani 1 1 d . . .
O3 O 0.9230(2) 0.52783(15) 0.41606(14) 0.0827(14) Uani 1 1 d . . .
O4 O 1.03073(16) 0.55647(14) 0.40909(16) 0.0838(13) Uani 1 1 d . . .
O5 O 1.0184(2) 0.60235(17) 0.34759(16) 0.0955(16) Uani 1 1 d . . .
O6 O 0.9179(3) 0.65125(19) 0.28277(17) 0.1121(17) Uani 1 1 d . . .
O7 O 0.8449(2) 0.61077(17) 0.28472(17) 0.1019(18) Uani 1 1 d . . .
O8 O 1.01179(19) 0.70760(17) 0.36993(16) 0.1019(15) Uani 1 1 d . . .
O9 O 0.9759(2) 0.73399(15) 0.41918(17) 0.0939(15) Uani 1 1 d . . .
O10 O 0.8570(2) 0.71317(16) 0.40635(16) 0.0961(16) Uani 1 1 d . . .
O11 O 0.80606(17) 0.65940(16) 0.35208(14) 0.0891(14) Uani 1 1 d . . .
O12 O 0.99915(19) 0.59572(16) 0.49194(14) 0.0825(13) Uani 1 1 d . . .
O13 O 0.9645(2) 0.66845(17) 0.49123(14) 0.0984(15) Uani 1 1 d . . .
O14 O 0.8717(4) 0.6125(3) 0.4504(3) 0.107(3) Uiso 0.55 1 d P . .
C1 C 1.0332(3) 0.5647(3) 0.3694(3) 0.093(2) Uani 1 1 d . . .
C2 C 1.0542(3) 0.5248(2) 0.3503(2) 0.0723(18) Uani 1 1 d . . .
C3 C 1.0589(3) 0.5327(2) 0.3098(2) 0.082(2) Uani 1 1 d . . .
H3 H 1.0535 0.5633 0.2966 0.098 Uiso 1 1 calc R . .
C4 C 1.0721(3) 0.4947(3) 0.2881(2) 0.087(2) Uani 1 1 d . . .
H4 H 1.0755 0.4995 0.2596 0.105 Uiso 1 1 calc R . .
C5 C 1.0805(3) 0.4498(2) 0.3075(2) 0.0771(19) Uani 1 1 d . . .
C6 C 1.0779(3) 0.4432(2) 0.3499(2) 0.0793(19) Uani 1 1 d . . .
H6 H 1.0854 0.4131 0.3641 0.095 Uiso 1 1 calc R . .
C7 C 1.0645(3) 0.4804(3) 0.3713(2) 0.0786(19) Uani 1 1 d . . .
H7 H 1.0623 0.4759 0.4003 0.094 Uiso 1 1 calc R . .
C8 C 1.0943(3) 0.4097(2) 0.2826(3) 0.083(2) Uani 1 1 d . . .
C9 C 1.0689(3) 0.4085(3) 0.2337(2) 0.091(2) Uani 1 1 d . . .
H9 H 1.0440 0.4326 0.2169 0.109 Uiso 1 1 calc R . .
C10 C 1.0815(3) 0.3713(3) 0.2109(2) 0.081(2) Uani 1 1 d . . .
C11 C 1.1183(3) 0.3369(2) 0.2353(2) 0.083(2) Uani 1 1 d . . .
H11 H 1.1268 0.3119 0.2191 0.100 Uiso 1 1 calc R . .
C12 C 1.1435(3) 0.3379(3) 0.2835(3) 0.090(2) Uani 1 1 d . . .
C13 C 1.1320(3) 0.3743(2) 0.3075(2) 0.084(2) Uani 1 1 d . . .
H13 H 1.1492 0.3754 0.3403 0.100 Uiso 1 1 calc R . .
C14 C 1.0561(3) 0.3702(3) 0.1594(2) 0.082(2) Uani 1 1 d . . .
C15 C 1.0526(3) 0.4124(2) 0.1344(2) 0.082(2) Uani 1 1 d . . .
H15 H 1.0647 0.4415 0.1500 0.098 Uiso 1 1 calc R . .
C16 C 1.0314(3) 0.4104(2) 0.0869(2) 0.0774(19) Uani 1 1 d . . .
H16 H 1.0307 0.4384 0.0703 0.093 Uiso 1 1 calc R . .
C17 C 1.0114(3) 0.3698(2) 0.0627(2) 0.082(2) Uani 1 1 d . . .
C18 C 1.0160(3) 0.3276(3) 0.0882(2) 0.094(2) Uani 1 1 d . . .
H18 H 1.0039 0.2986 0.0725 0.112 Uiso 1 1 calc R . .
C19 C 1.0373(3) 0.3287(2) 0.1343(2) 0.087(2) Uani 1 1 d . . .
H19 H 1.0398 0.3001 0.1506 0.104 Uiso 1 1 calc R . .
C20 C 1.1847(3) 0.3010(3) 0.3083(2) 0.087(2) Uani 1 1 d . . .
C21 C 1.2332(3) 0.3120(2) 0.3482(2) 0.093(2) Uani 1 1 d . . .
H21 H 1.2379 0.3431 0.3603 0.112 Uiso 1 1 calc R . .
C22 C 1.2736(3) 0.2785(3) 0.3696(2) 0.099(2) Uani 1 1 d . . .
H22 H 1.3053 0.2863 0.3964 0.118 Uiso 1 1 calc R . .
C23 C 1.2672(3) 0.2346(2) 0.3519(3) 0.083(2) Uani 1 1 d . . .
C24 C 1.2175(3) 0.2223(3) 0.3126(2) 0.091(2) Uani 1 1 d . . .
H24 H 1.2122 0.1909 0.3013 0.109 Uiso 1 1 calc R . .
C25 C 1.1780(3) 0.2554(3) 0.2915(2) 0.088(2) Uani 1 1 d . . .
H25 H 1.1459 0.2471 0.2652 0.106 Uiso 1 1 calc R . .
C26 C 0.8700(4) 0.5269(3) 0.4000(3) 0.082(2) Uani 1 1 d . . .
C27 C 0.8456(4) 0.4927(2) 0.4226(3) 0.082(2) Uani 1 1 d . . .
C28 C 0.8796(3) 0.4682(2) 0.4627(2) 0.085(2) Uani 1 1 d . . .
H28 H 0.9186 0.4717 0.4742 0.102 Uiso 1 1 calc R . .
C29 C 0.8568(4) 0.4391(2) 0.4853(2) 0.094(2) Uani 1 1 d . . .
H29 H 0.8803 0.4224 0.5120 0.112 Uiso 1 1 calc R . .
C30 C 0.7989(4) 0.4339(3) 0.4695(3) 0.096(2) Uani 1 1 d . . .
C31 C 0.7655(3) 0.4601(3) 0.4283(3) 0.104(2) Uani 1 1 d . . .
H31 H 0.7263 0.4579 0.4167 0.124 Uiso 1 1 calc R . .
C32 C 0.7894(4) 0.4879(2) 0.4059(2) 0.096(2) Uani 1 1 d . . .
H32 H 0.7667 0.5039 0.3785 0.115 Uiso 1 1 calc R . .
C33 C 0.7735(4) 0.4042(3) 0.4934(3) 0.105(3) Uani 1 1 d . . .
C34 C 0.7969(3) 0.4011(3) 0.5407(3) 0.108(3) Uani 1 1 d . . .
H34 H 0.8306 0.4173 0.5572 0.130 Uiso 1 1 calc R . .
C35 C 0.7727(4) 0.3749(3) 0.5653(3) 0.110(3) Uani 1 1 d . . .
C36 C 0.7243(4) 0.3517(3) 0.5410(3) 0.126(3) Uani 1 1 d . . .
H36 H 0.7072 0.3338 0.5571 0.151 Uiso 1 1 calc R . .
C37 C 0.6993(4) 0.3541(3) 0.4920(3) 0.114(3) Uani 1 1 d . . .
C38 C 0.7252(4) 0.3803(3) 0.4701(3) 0.122(3) Uani 1 1 d . . .
H38 H 0.7090 0.3819 0.4373 0.146 Uiso 1 1 calc R . .
C39 C 0.6484(4) 0.3261(3) 0.4668(3) 0.125(3) Uani 1 1 d . . .
C40 C 0.6051(4) 0.3226(3) 0.4819(3) 0.111(3) Uani 1 1 d . . .
H40 H 0.6065 0.3409 0.5075 0.134 Uiso 1 1 calc R . .
C41 C 0.5615(3) 0.2937(3) 0.4606(3) 0.110(3) Uani 1 1 d . . .
H41 H 0.5332 0.2903 0.4717 0.132 Uiso 1 1 calc R . .
C42 C 0.5594(4) 0.2685(3) 0.4211(3) 0.117(3) Uani 1 1 d . . .
C43 C 0.6005(4) 0.2726(3) 0.4063(3) 0.135(4) Uani 1 1 d . . .
H43 H 0.5986 0.2548 0.3804 0.162 Uiso 1 1 calc R . .
C44 C 0.6432(4) 0.3007(4) 0.4268(3) 0.139(4) Uani 1 1 d . . .
H44 H 0.6706 0.3038 0.4146 0.167 Uiso 1 1 calc R . .
C45 C 0.7964(4) 0.3729(3) 0.6165(3) 0.107(3) Uani 1 1 d . . .
C46 C 0.8529(5) 0.3595(3) 0.6393(3) 0.107(3) Uani 1 1 d . . .
H46 H 0.8739 0.3518 0.6219 0.128 Uiso 1 1 calc R . .
C47 C 0.8770(3) 0.3579(2) 0.6873(3) 0.100(2) Uani 1 1 d . . .
H47 H 0.9146 0.3488 0.7024 0.120 Uiso 1 1 calc R . .
C48 C 0.8480(4) 0.3689(3) 0.7131(3) 0.092(2) Uani 1 1 d . . .
C49 C 0.7932(5) 0.3821(3) 0.6912(3) 0.111(3) Uani 1 1 d . . .
H49 H 0.7729 0.3905 0.7091 0.134 Uiso 1 1 calc R . .
C50 C 0.7666(4) 0.3833(3) 0.6416(3) 0.120(3) Uani 1 1 d . . .
H50 H 0.7286 0.3913 0.6267 0.144 Uiso 1 1 calc R . .
C51 C 0.8706(4) 0.6298(3) 0.2646(3) 0.096(3) Uani 1 1 d . . .
C52 C 1.0131(4) 0.7354(3) 0.4032(3) 0.103(3) Uani 1 1 d . . .
C53 C 0.8154(4) 0.7002(3) 0.3733(3) 0.091(2) Uani 1 1 d . . .
C54 C 0.9910(3) 0.6304(3) 0.5115(3) 0.081(2) Uani 1 1 d . . .
C55 C 0.8569(6) 0.5824(5) 0.5129(5) 0.127(5) Uiso 0.55 1 d P . .
H55A H 0.8551 0.5481 0.5090 0.153 Uiso 0.55 1 calc PR . .
H55B H 0.8331 0.5920 0.5285 0.153 Uiso 0.55 1 calc PR . .
H55C H 0.8951 0.5918 0.5315 0.153 Uiso 0.55 1 calc PR . .
C56 C 0.8395(6) 0.6033(5) 0.4712(5) 0.106(4) Uiso 0.55 1 d P . .
C57 C 0.7766(8) 0.6064(7) 0.4443(6) 0.187(8) Uiso 0.55 1 d P . .
H57B H 0.7638 0.6378 0.4482 0.225 Uiso 0.55 1 calc PR . .
H57C H 0.7585 0.5826 0.4560 0.225 Uiso 0.55 1 calc PR . .
H57A H 0.7674 0.6007 0.4115 0.225 Uiso 0.55 1 calc PR . .

loop_
_atom_site_aniso_label
_atom_site_aniso_U_11
_atom_site_aniso_U_22
_atom_site_aniso_U_33
_atom_site_aniso_U_23
_atom_site_aniso_U_13
_atom_site_aniso_U_12
Zn1 0.0990(8) 0.0623(6) 0.0687(7) 0.0008(4) 0.0265(5) 0.0010(5)
Zn2 0.0956(8) 0.0606(6) 0.0673(6) 0.0022(4) 0.0293(5) 0.0070(5)
Zn3 0.1068(8) 0.0640(6) 0.0759(7) 0.0028(4) 0.0369(6) 0.0015(5)
Zn4 0.0917(7) 0.0616(6) 0.0674(7) 0.0001(4) 0.0232(5) 0.0062(5)
O1 0.092(3) 0.057(2) 0.071(3) -0.002(2) 0.026(2) -0.002(2)
O2 0.119(4) 0.068(3) 0.075(3) 0.020(3) 0.023(3) -0.001(3)
O3 0.092(4) 0.070(3) 0.080(3) 0.008(2) 0.029(3) -0.005(3)
O4 0.082(3) 0.069(3) 0.088(3) -0.003(3) 0.021(3) 0.017(2)
O5 0.130(4) 0.069(3) 0.097(4) 0.016(3) 0.055(3) 0.018(3)
O6 0.154(5) 0.116(4) 0.071(4) -0.002(3) 0.050(4) -0.008(4)
O7 0.149(5) 0.084(4) 0.070(4) 0.000(3) 0.041(3) -0.009(3)
O8 0.110(4) 0.102(4) 0.089(4) -0.001(3) 0.035(3) -0.028(3)
O9 0.107(4) 0.070(3) 0.100(4) -0.014(3) 0.037(3) -0.009(3)
O10 0.109(4) 0.079(3) 0.081(3) -0.016(3) 0.018(3) 0.001(3)
O11 0.078(3) 0.081(3) 0.089(3) 0.011(3) 0.014(3) 0.011(3)
O12 0.108(4) 0.071(3) 0.062(3) 0.006(2) 0.027(3) 0.018(3)
O13 0.138(4) 0.083(3) 0.068(3) -0.008(3) 0.035(3) 0.010(3)
C1 0.100(6) 0.118(7) 0.064(6) -0.015(5) 0.036(5) -0.028(6)
C2 0.090(5) 0.069(5) 0.055(5) -0.006(4) 0.025(4) 0.016(4)
C3 0.105(6) 0.074(5) 0.070(5) 0.003(4) 0.039(4) 0.018(4)
C4 0.117(6) 0.089(5) 0.066(5) 0.016(4) 0.047(4) 0.020(5)
C5 0.092(5) 0.067(5) 0.068(5) 0.004(4) 0.026(4) 0.014(4)
C6 0.105(6) 0.067(5) 0.068(5) 0.003(4) 0.038(4) 0.015(4)
C7 0.091(5) 0.080(5) 0.064(5) 0.007(4) 0.030(4) 0.006(4)
C8 0.082(5) 0.077(5) 0.086(6) -0.009(4) 0.031(4) 0.012(4)
C9 0.108(6) 0.089(5) 0.061(5) 0.003(4) 0.019(4) 0.020(5)
C10 0.108(6) 0.074(5) 0.050(5) 0.003(4) 0.021(4) 0.007(5)
C11 0.110(6) 0.072(5) 0.054(5) -0.010(4) 0.019(4) 0.012(5)
C12 0.099(6) 0.081(5) 0.082(6) 0.005(5) 0.028(5) 0.028(5)
C13 0.091(5) 0.084(5) 0.070(5) -0.001(4) 0.025(4) 0.031(5)
C14 0.094(5) 0.079(5) 0.071(5) -0.001(4) 0.032(4) 0.022(5)
C15 0.106(6) 0.068(5) 0.054(5) -0.001(4) 0.014(4) 0.004(4)
C16 0.091(5) 0.062(5) 0.076(5) 0.000(4) 0.030(4) -0.007(4)
C17 0.110(6) 0.067(5) 0.056(5) -0.001(4) 0.018(4) 0.000(4)
C18 0.131(7) 0.083(5) 0.051(5) 0.001(4) 0.020(4) -0.003(5)
C19 0.123(6) 0.072(5) 0.051(5) 0.006(4) 0.021(4) 0.002(4)
C20 0.102(6) 0.081(5) 0.064(5) -0.007(4) 0.019(4) 0.015(5)
C21 0.122(7) 0.073(5) 0.079(5) -0.016(4) 0.034(5) 0.000(5)
C22 0.111(6) 0.063(5) 0.091(5) 0.001(4) 0.008(5) 0.018(5)
C23 0.105(6) 0.054(5) 0.093(6) -0.001(4) 0.045(5) 0.021(5)
C24 0.105(6) 0.079(5) 0.072(5) -0.015(4) 0.018(5) 0.015(5)
C25 0.097(6) 0.079(5) 0.077(5) -0.006(4) 0.022(4) 0.030(5)
C26 0.116(7) 0.063(5) 0.068(5) -0.014(4) 0.038(6) -0.012(6)
C27 0.087(6) 0.067(5) 0.083(6) -0.013(4) 0.025(5) -0.020(5)
C28 0.090(6) 0.075(5) 0.080(5) 0.007(4) 0.023(5) -0.017(5)
C29 0.110(7) 0.076(5) 0.086(5) -0.002(4) 0.030(5) -0.021(5)
C30 0.105(7) 0.097(6) 0.076(6) -0.002(5) 0.027(5) -0.027(5)
C31 0.097(6) 0.110(6) 0.088(6) -0.011(5) 0.021(5) -0.032(5)
C32 0.118(7) 0.084(5) 0.078(5) 0.013(4) 0.032(5) -0.031(5)
C33 0.122(7) 0.127(6) 0.058(5) -0.004(5) 0.027(5) -0.052(6)
C34 0.116(7) 0.114(6) 0.076(6) -0.004(5) 0.020(5) -0.037(5)
C35 0.143(8) 0.121(7) 0.061(6) -0.006(5) 0.034(6) -0.056(6)
C36 0.159(8) 0.151(8) 0.056(5) -0.018(5) 0.030(5) -0.071(7)
C37 0.132(7) 0.118(6) 0.097(7) -0.028(5) 0.050(6) -0.068(6)
C38 0.132(7) 0.145(7) 0.082(6) -0.012(5) 0.035(6) -0.075(6)
C39 0.134(8) 0.156(8) 0.081(6) -0.009(6) 0.037(6) -0.065(7)
C40 0.142(8) 0.114(6) 0.088(6) -0.024(5) 0.056(6) -0.039(6)
C41 0.109(7) 0.101(6) 0.114(7) -0.020(5) 0.039(5) -0.058(5)
C42 0.124(8) 0.104(6) 0.095(7) -0.044(5) 0.015(6) -0.082(6)
C43 0.137(8) 0.185(9) 0.093(6) -0.041(6) 0.057(6) -0.108(7)
C44 0.135(8) 0.223(10) 0.085(6) -0.050(7) 0.072(6) -0.087(8)
C45 0.112(8) 0.112(7) 0.087(7) -0.004(5) 0.030(6) -0.039(6)
C46 0.157(9) 0.093(6) 0.083(7) -0.004(5) 0.061(6) -0.039(6)
C47 0.116(7) 0.100(6) 0.083(7) 0.008(5) 0.040(6) -0.015(5)
C48 0.108(7) 0.093(6) 0.069(6) 0.012(4) 0.029(6) -0.001(5)
C49 0.169(10) 0.107(6) 0.073(6) -0.002(5) 0.064(6) -0.016(6)
C50 0.134(8) 0.148(8) 0.088(7) 0.000(5) 0.054(6) -0.012(6)
C51 0.123(8) 0.062(5) 0.086(8) -0.019(5) 0.023(6) 0.001(5)
C52 0.147(9) 0.101(7) 0.068(6) 0.003(5) 0.052(6) 0.025(6)
C53 0.133(8) 0.059(5) 0.092(6) -0.011(5) 0.058(6) 0.008(6)
C54 0.090(5) 0.065(5) 0.076(6) 0.012(4) 0.021(4) 0.016(5)

_geom_special_details            
;
All esds (except the esd in the dihedral angle