####################################################################### 
# 
# This file contains crystal structure data downloaded from the 
# Cambridge Structural Database (CSD) hosted by the Cambridge 
# Crystallographic Data Centre (CCDC).
# 
# Full information about CCDC data access policies and citation 
# guidelines are available at http://www.ccdc.cam.ac.uk/access/V1 
# 
# Audit and citation data items may have been added by the CCDC. 
# Please retain this information to preserve the provenance of 
# this file and to allow appropriate attribution of the data. 
# 
#######################################################################

data_Complex5
_audit_block_doi                 10.5517/cc137ymx
_database_code_depnum_ccdc_archive 'CCDC 1020539'
loop_
_citation_id
_citation_doi
_citation_year
1 10.1021/cg500474j 2014
_audit_update_record             
;
2014-08-21 deposited with the CCDC.	2024-07-13 downloaded from the CCDC.
;

_audit_creation_method           SHELXL-97
_chemical_name_systematic        
;
 ?
;
_chemical_name_common            ?
_chemical_melting_point          ?
_chemical_formula_moiety         ?
_chemical_formula_sum            'C26 H22 Ag2 N6 O8 S2'
_chemical_formula_weight         826.36

loop_
_atom_type_symbol
_atom_type_description
_atom_type_scat_dispersion_real
_atom_type_scat_dispersion_imag
_atom_type_scat_source
C C 0.0033 0.0016 'International Tables Vol C Tables 4.2.6.8 and 6.1.1.4'
H H 0.0000 0.0000 'International Tables Vol C Tables 4.2.6.8 and 6.1.1.4'
N N 0.0061 0.0033 'International Tables Vol C Tables 4.2.6.8 and 6.1.1.4'
O O 0.0106 0.0060 'International Tables Vol C Tables 4.2.6.8 and 6.1.1.4'
S S 0.1246 0.1234 'International Tables Vol C Tables 4.2.6.8 and 6.1.1.4'
Ag Ag -0.8971 1.1015 'International Tables Vol C Tables 4.2.6.8 and 6.1.1.4'

_symmetry_cell_setting           triclinic
_symmetry_space_group_name_H-M   P-1

loop_
_symmetry_equiv_pos_as_xyz
'x, y, z'
'-x, -y, -z'

_cell_length_a                   7.9886(12)
_cell_length_b                   12.4368(19)
_cell_length_c                   15.866(2)
_cell_angle_alpha                101.685(3)
_cell_angle_beta                 101.743(3)
_cell_angle_gamma                96.666(3)
_cell_volume                     1490.9(4)
_cell_formula_units_Z            2
_cell_measurement_temperature    173(2)
_cell_measurement_reflns_used    ?
_cell_measurement_theta_min      ?
_cell_measurement_theta_max      ?

_exptl_crystal_description       needle
_exptl_crystal_colour            yellow
_exptl_crystal_size_max          0.35
_exptl_crystal_size_mid          0.15
_exptl_crystal_size_min          0.10
_exptl_crystal_density_meas      ?
_exptl_crystal_density_diffrn    1.841
_exptl_crystal_density_method    'not measured'
_exptl_crystal_F_000             820
_exptl_absorpt_coefficient_mu    1.512
_exptl_absorpt_correction_type   multi-scan
_exptl_absorpt_correction_T_min  0.754
_exptl_absorpt_correction_T_max  0.848
_exptl_absorpt_process_details   SADABS

_exptl_special_details           
;
 ?
;

_diffrn_ambient_temperature      173(2)
_diffrn_radiation_wavelength     0.71073
_diffrn_radiation_type           MoK\a
_diffrn_radiation_source         'fine-focus sealed tube'
_diffrn_radiation_monochromator  graphite
_diffrn_measurement_device_type  ?
_diffrn_measurement_method       ?
_diffrn_detector_area_resol_mean ?
_diffrn_standards_number         ?
_diffrn_standards_interval_count ?
_diffrn_standards_interval_time  ?
_diffrn_standards_decay_%        ?
_diffrn_reflns_number            21789
_diffrn_reflns_av_R_equivalents  0.1575
_diffrn_reflns_av_sigmaI/netI    0.1360
_diffrn_reflns_limit_h_min       -9
_diffrn_reflns_limit_h_max       9
_diffrn_reflns_limit_k_min       -14
_diffrn_reflns_limit_k_max       14
_diffrn_reflns_limit_l_min       -18
_diffrn_reflns_limit_l_max       16
_diffrn_reflns_theta_min         1.90
_diffrn_reflns_theta_max         25.01
_reflns_number_total             5249
_reflns_number_gt                3410
_reflns_threshold_expression     >2sigma(I)

_computing_data_collection       APEX2(Bruker,2003)
_computing_cell_refinement       SAINT(Bruker,2001)
_computing_data_reduction        APEX2(Bruker,2003)
_computing_structure_solution    ?
_computing_structure_refinement  'SHELXL-97 (Sheldrick, 1997)'
_computing_molecular_graphics    ?
_computing_publication_material  ?

_refine_special_details          
;
 Refinement of F^2^ against ALL reflections.  The weighted R-factor wR and
 goodness of fit S are based on F^2^, conventional R-factors R are based
 on F, with F set to zero for negative F^2^. The threshold expression of
 F^2^ > 2sigma(F^2^) is used only for calculating R-factors(gt) etc. and is
 not relevant to the choice of reflections for refinement.  R-factors based
 on F^2^ are statistically about twice as large as those based on F, and R-
 factors based on ALL data will be even larger.
;

_refine_ls_structure_factor_coef Fsqd
_refine_ls_matrix_type           full
_refine_ls_weighting_scheme      calc
_refine_ls_weighting_details     
'calc w=1/[\s^2^(Fo^2^)+(0.1060P)^2^+0.0000P] where P=(Fo^2^+2Fc^2^)/3'
_atom_sites_solution_primary     direct
_atom_sites_solution_secondary   difmap
_atom_sites_solution_hydrogens   geom
_refine_ls_hydrogen_treatment    mixed
_refine_ls_extinction_method     none
_refine_ls_extinction_coef       ?
_refine_ls_number_reflns         5249
_refine_ls_number_parameters     415
_refine_ls_number_restraints     33
_refine_ls_R_factor_all          0.1221
_refine_ls_R_factor_gt           0.0751
_refine_ls_wR_factor_ref         0.2058
_refine_ls_wR_factor_gt          0.1805
_refine_ls_goodness_of_fit_ref   1.022
_refine_ls_restrained_S_all      1.019
_refine_ls_shift/su_max          0.002
_refine_ls_shift/su_mean         0.000

loop_
_atom_site_label
_atom_site_type_symbol
_atom_site_fract_x
_atom_site_fract_y
_atom_site_fract_z
_atom_site_U_iso_or_equiv
_atom_site_adp_type
_atom_site_occupancy
_atom_site_symmetry_multiplicity
_atom_site_calc_flag
_atom_site_refinement_flags
_atom_site_disorder_assembly
_atom_site_disorder_group
C1 C 1.1215(14) 0.6425(10) 0.4892(7) 0.025(3) Uani 1 1 d . . .
H1 H 1.1305 0.7045 0.5348 0.030 Uiso 1 1 calc R . .
C2 C 1.0200(14) 0.6382(10) 0.4074(7) 0.027(3) Uani 1 1 d . . .
H2 H 0.9648 0.6983 0.3990 0.032 Uiso 1 1 calc R . .
C3 C 1.0852(13) 0.4683(10) 0.3546(7) 0.022(2) Uani 1 1 d . . .
H3 H 1.0756 0.4061 0.3090 0.026 Uiso 1 1 calc R . .
C4 C 1.1897(13) 0.4738(9) 0.4369(7) 0.019(2) Uani 1 1 d . . .
C5 C 1.4065(12) 0.3350(9) 0.3747(7) 0.017(2) Uani 1 1 d . . .
C6 C 1.4986(14) 0.2445(9) 0.3724(7) 0.023(3) Uani 1 1 d . . .
H6 H 1.4906 0.1994 0.4121 0.028 Uiso 1 1 calc R . .
C7 C 1.5991(14) 0.2907(10) 0.2570(7) 0.025(3) Uani 1 1 d . . .
H7 H 1.6676 0.2802 0.2161 0.030 Uiso 1 1 calc R . .
C8 C 1.5017(12) 0.3741(8) 0.2590(7) 0.016(2) Uani 1 1 d . . .
C9 C 1.4011(13) 0.5678(9) 0.2132(7) 0.017(2) Uani 1 1 d . . .
C10 C 1.4555(14) 0.6313(9) 0.2979(7) 0.021(2) Uani 1 1 d . . .
H10 H 1.5448 0.6132 0.3374 0.026 Uiso 1 1 calc R . .
C11 C 1.2543(13) 0.7429(9) 0.2647(7) 0.022(2) Uani 1 1 d . . .
H11 H 1.1999 0.8034 0.2811 0.026 Uiso 1 1 calc R . .
C12 C 1.2032(13) 0.6788(9) 0.1794(7) 0.020(2) Uani 1 1 d . . .
H12 H 1.1168 0.6984 0.1392 0.024 Uiso 1 1 calc R . .
C13 C 0.9751(12) 0.3343(8) 0.0926(7) 0.015(2) Uani 1 1 d U . .
C14 C 1.0672(13) 0.2366(9) 0.0942(7) 0.019(2) Uani 1 1 d . . .
C15 C 1.1285(13) 0.1887(9) 0.0228(7) 0.021(2) Uani 1 1 d . . .
H15 H 1.1097 0.2165 -0.0279 0.025 Uiso 1 1 calc R . .
C16 C 1.2174(13) 0.1002(9) 0.0253(7) 0.021(2) Uani 1 1 d . . .
H16 H 1.2604 0.0711 -0.0232 0.026 Uiso 1 1 calc R . .
C17 C 1.2446(12) 0.0527(9) 0.0998(7) 0.020(2) Uani 1 1 d . . .
C18 C 1.1775(13) 0.0988(10) 0.1695(7) 0.023(2) Uani 1 1 d . . .
H18 H 1.1929 0.0697 0.2196 0.028 Uiso 1 1 calc R . .
C19 C 1.0878(13) 0.1873(9) 0.1669(7) 0.019(2) Uani 1 1 d . . .
H19 H 1.0404 0.2146 0.2143 0.023 Uiso 1 1 calc R . .
C20 C 1.3432(13) -0.0378(9) 0.1042(7) 0.019(2) Uani 1 1 d . . .
C21 C 1.3393(13) -0.1204(9) 0.0274(7) 0.020(2) Uani 1 1 d . . .
H21 H 1.2717 -0.1174 -0.0269 0.024 Uiso 1 1 calc R . .
C22 C 1.4361(13) -0.2059(10) 0.0328(7) 0.021(2) Uani 1 1 d . . .
H22 H 1.4279 -0.2614 -0.0177 0.026 Uiso 1 1 calc R . .
C23 C 1.5442(13) -0.2098(9) 0.1119(7) 0.019(2) Uani 1 1 d U . .
C24 C 1.5547(13) -0.1270(10) 0.1873(7) 0.023(2) Uani 1 1 d . . .
H24 H 1.6285 -0.1278 0.2406 0.027 Uiso 1 1 calc R . .
C25 C 1.4539(13) -0.0426(9) 0.1826(7) 0.023(3) Uani 1 1 d . . .
H25 H 1.4614 0.0120 0.2336 0.028 Uiso 1 1 calc R . .
C26 C 1.6478(14) -0.3032(9) 0.1145(7) 0.018(2) Uani 1 1 d . . .
N1 N 0.9976(11) 0.5506(8) 0.3392(6) 0.022(2) Uani 1 1 d . . .
N2 N 1.2078(11) 0.5607(8) 0.5053(6) 0.024(2) Uani 1 1 d . . .
N3 N 1.5966(12) 0.2227(8) 0.3146(6) 0.026(2) Uani 1 1 d . . .
N4 N 1.4056(10) 0.3989(7) 0.3176(5) 0.018(2) Uani 1 1 d . . .
N5 N 1.3812(12) 0.7197(8) 0.3247(6) 0.026(2) Uani 1 1 d . . .
N6 N 1.2741(11) 0.5886(8) 0.1522(5) 0.019(2) Uani 1 1 d . . .
O1 O 0.9072(9) 0.3662(6) 0.1561(5) 0.0217(17) Uani 1 1 d U . .
O2 O 0.9678(9) 0.3784(6) 0.0272(5) 0.0223(17) Uani 1 1 d U . .
O3 O 1.7758(10) -0.2919(6) 0.1807(5) 0.0249(18) Uani 1 1 d . . .
O4 O 1.6022(9) -0.3875(6) 0.0512(4) 0.0223(17) Uani 1 1 d . . .
S1 S 1.3002(4) 0.3643(3) 0.46226(18) 0.0259(7) Uani 1 1 d . . .
S2 S 1.4933(3) 0.4486(2) 0.17324(17) 0.0205(6) Uani 1 1 d . . .
Ag1 Ag 0.84794(11) 0.54010(7) 0.19203(5) 0.0240(3) Uani 1 1 d . . .
Ag2 Ag 0.77077(10) 0.49543(7) 0.00255(5) 0.0212(3) Uani 1 1 d . . .
O1W O 0.9626(12) -0.1032(8) 0.3109(6) 0.048(2) Uani 1 1 d D . .
H1A H 0.940(18) -0.098(12) 0.362(4) 0.071 Uiso 1 1 d D . .
H1B H 0.894(16) -0.162(8) 0.279(7) 0.071 Uiso 1 1 d D . .
O2W O 0.9145(13) 0.1222(9) 0.3439(6) 0.049(3) Uani 1 1 d D . .
H2A H 0.925(18) 0.060(7) 0.313(8) 0.074 Uiso 1 1 d D . .
H2B H 0.819(11) 0.136(11) 0.315(8) 0.074 Uiso 1 1 d D . .
O3W O 0.9168(12) -0.1087(8) 0.4860(6) 0.044(2) Uani 1 1 d D . .
H3A H 0.962(14) -0.108(14) 0.539(3) 0.066 Uiso 1 1 d D . .
H3B H 0.814(8) -0.097(14) 0.485(8) 0.066 Uiso 1 1 d D . .
O4W O 1.4338(12) 0.0994(8) 0.5222(6) 0.047(2) Uani 1 1 d . . .

loop_
_atom_site_aniso_label
_atom_site_aniso_U_11
_atom_site_aniso_U_22
_atom_site_aniso_U_33
_atom_site_aniso_U_23
_atom_site_aniso_U_13
_atom_site_aniso_U_12
C1 0.023(6) 0.023(7) 0.025(6) -0.004(5) 0.002(5) 0.005(5)
C2 0.021(6) 0.029(7) 0.032(7) 0.010(5) 0.006(5) 0.001(5)
C3 0.024(6) 0.028(7) 0.015(5) 0.005(5) 0.005(4) 0.010(5)
C4 0.020(6) 0.018(6) 0.021(6) 0.007(5) 0.006(4) 0.004(5)
C5 0.013(5) 0.020(6) 0.021(6) 0.005(5) 0.005(4) 0.005(4)
C6 0.025(6) 0.015(6) 0.027(6) 0.007(5) -0.005(5) 0.006(5)
C7 0.023(6) 0.021(6) 0.028(6) 0.000(5) 0.003(5) 0.006(5)
C8 0.008(5) 0.012(6) 0.025(6) 0.004(4) 0.003(4) -0.004(4)
C9 0.023(6) 0.011(6) 0.019(5) 0.006(4) 0.007(4) 0.006(4)
C10 0.024(6) 0.020(6) 0.023(6) 0.004(5) 0.009(5) 0.011(5)
C11 0.021(6) 0.008(6) 0.038(7) 0.003(5) 0.011(5) 0.005(5)
C12 0.013(5) 0.027(7) 0.023(6) 0.011(5) 0.006(4) 0.005(5)
C13 0.011(4) 0.011(5) 0.021(5) 0.004(4) 0.000(4) 0.009(4)
C14 0.013(5) 0.017(6) 0.028(6) 0.006(5) 0.005(4) 0.002(4)
C15 0.019(6) 0.012(6) 0.036(7) 0.014(5) 0.010(5) 0.002(5)
C16 0.015(5) 0.018(6) 0.033(6) 0.005(5) 0.010(5) 0.004(5)
C17 0.007(5) 0.020(6) 0.032(6) 0.007(5) 0.005(4) 0.001(4)
C18 0.019(6) 0.026(7) 0.025(6) 0.012(5) 0.001(5) 0.005(5)
C19 0.013(5) 0.019(6) 0.026(6) 0.003(5) 0.007(4) 0.008(5)
C20 0.020(6) 0.009(6) 0.031(6) 0.007(5) 0.009(5) 0.001(5)
C21 0.018(6) 0.022(6) 0.020(6) 0.005(5) 0.004(4) 0.009(5)
C22 0.019(6) 0.025(7) 0.028(6) 0.013(5) 0.013(5) 0.008(5)
C23 0.013(5) 0.012(5) 0.034(6) 0.007(5) 0.005(4) 0.005(4)
C24 0.019(6) 0.027(7) 0.024(6) 0.008(5) 0.003(4) 0.011(5)
C25 0.019(6) 0.011(6) 0.035(6) -0.004(5) 0.000(5) 0.007(5)
C26 0.023(6) 0.013(6) 0.022(6) 0.006(5) 0.008(5) 0.006(5)
N1 0.024(5) 0.019(5) 0.022(5) 0.005(4) 0.007(4) 0.002(4)
N2 0.021(5) 0.027(6) 0.019(5) 0.000(4) 0.005(4) -0.003(4)
N3 0.026(5) 0.018(5) 0.033(5) 0.004(4) 0.006(4) 0.011(4)
N4 0.012(4) 0.023(5) 0.020(5) 0.007(4) 0.000(3) 0.006(4)
N5 0.035(6) 0.024(6) 0.019(5) 0.004(4) 0.007(4) 0.004(4)
N6 0.015(4) 0.023(5) 0.023(5) 0.014(4) 0.005(4) 0.005(4)
O1 0.028(4) 0.018(4) 0.026(4) 0.008(3) 0.012(3) 0.017(3)
O2 0.017(4) 0.021(4) 0.027(4) 0.001(3) 0.005(3) 0.005(3)
O3 0.028(4) 0.014(4) 0.031(4) 0.002(3) 0.004(3) 0.009(3)
O4 0.029(4) 0.016(4) 0.018(4) 0.000(3) 0.000(3) 0.009(3)
S1 0.0310(16) 0.0300(17) 0.0232(15) 0.0130(13) 0.0088(12) 0.0151(13)
S2 0.0247(15) 0.0201(15) 0.0202(14) 0.0070(11) 0.0069(11) 0.0108(12)
Ag1 0.0295(5) 0.0197(5) 0.0241(5) 0.0058(4) 0.0026(4) 0.0150(4)
Ag2 0.0235(5) 0.0190(5) 0.0235(5) 0.0041(4) 0.0058(3) 0.0143(4)
O1W 0.044(6) 0.038(6) 0.050(6) -0.005(5) -0.001(5) 0.015(5)
O2W 0.047(6) 0.046(7) 0.052(6) 0.008(5) 0.002(5) 0.018(5)
O3W 0.047(6) 0.042(6) 0.046(6) 0.012(5) 0.015(4) 0.010(5)
O4W 0.050(6) 0.037(6) 0.045(5) -0.003(4) 0.001(4) 0.005(5)

_geom_special_details            
;
 All esds (except the esd in the dihedral angle between two l.s. planes)
 are estimated using the full covariance matrix.  The cell esds are taken
 into account individually in the estimation of esds in distances, angles
 and torsion angles; correlations between esds in cell parameters are only
 used when they are defined by crystal symmetry.  An approximate (isotropic)
 treatment of cell esds is used for estimating esds involving l.s. planes.
;

loop_
_geom_bond_atom_site_label_1
_geom_bond_atom_site_label_2
_geom_bond_distance
_geom_bond_site_symmetry_2
_geom_bond_publ_flag
C1 N2 1.330(14) . ?
C1 C2 1.370(15) . ?
C1 H1 0.9300 . ?
C2 N1 1.337(14) . ?
C2 H2 0.9300 . ?
C3 N1 1.340(14) . ?
C3 C4 1.382(14) . ?
C3 H3 0.9300 . ?
C4 N2 1.339(14) . ?
C4 S1 1.775(11) . ?
C5 N4 1.320(13) . ?
C5 C6 1.413(14) . ?
C5 S1 1.769(10) . ?
C6 N3 1.331(14) . ?
C6 H6 0.9300 . ?
C7 C8 1.366(15) . ?
C7 N3 1.367(14) . ?
C7 H7 0.9300 . ?
C8 N4 1.334(13) . ?
C8 S2 1.789(10) . ?
C9 N6 1.340(12) . ?
C9 C10 1.368(15) . ?
C9 S2 1.790(10) . ?
C10 N5 1.344(14) . ?
C10 H10 0.9300 . ?
C11 N5 1.343(13) . ?
C11 C12 1.378(15) . ?
C11 H11 0.9300 . ?
C12 N6 1.348(14) . ?
C12 H12 0.9300 . ?
C13 O1 1.257(12) . ?
C13 O2 1.263(12) . ?
C13 C14 1.493(14) . ?
C14 C15 1.378(15) . ?
C14 C19 1.402(15) . ?
C15 C16 1.380(15) . ?
C15 H15 0.9300 . ?
C16 C17 1.414(15) . ?
C16 H16 0.9300 . ?
C17 C18 1.376(15) . ?
C17 C20 1.452(15) . ?
C18 C19 1.384(15) . ?
C18 H18 0.9300 . ?
C19 H19 0.9300 . ?
C20 C25 1.389(14) . ?
C20 C21 1.417(14) . ?
C21 C22 1.392(14) . ?
C21 H21 0.9300 . ?
C22 C23 1.385(14) . ?
C22 H22 0.9300 . ?
C23 C24 1.393(15) . ?
C23 C26 1.505(14) . ?
C24 C25 1.400(15) . ?
C24 H24 0.9300 . ?
C25 H25 0.9300 . ?
C26 O4 1.255(12) . ?
C26 O3 1.280(12) . ?
N1 Ag1 2.368(9) . ?
N6 Ag2 2.401(9) 2_765 ?
O1 Ag1 2.253(7) . ?
O2 Ag2 2.293(7) . ?
O3 Ag1 2.263(7) 1_645 ?
O4 Ag2 2.225(7) 1_645 ?
S2 Ag1 2.860(3) 1_655 ?
Ag1 O3 2.263(7) 1_465 ?
Ag1 S2 2.860(3) 1_455 ?
Ag1 Ag2 2.8664(12) . ?
Ag2 O4 2.225(7) 1_465 ?
Ag2 N6 2.401(9) 2_765 ?
O1W H1A 0.86(2) . ?
O1W H1B 0.86(2) . ?
O2W H2A 0.86(2) . ?
O2W H2B 0.86(2) . ?
O3W H3A 0.85(2) . ?
O3W H3B 0.85(2) . ?

loop_
_geom_angle_atom_site_label_1
_geom_angle_atom_site_label_2
_geom_angle_atom_site_label_3
_geom_angle
_geom_angle_site_symmetry_1
_geom_angle_site_symmetry_3
_geom_angle_publ_flag
N2 C1 C2 122.1(11) . . ?
N2 C1 H1 119.0 . . ?
C2 C1 H1 119.0 . . ?
N1 C2 C1 122.3(11) . . ?
N1 C2 H2 118.8 . . ?
C1 C2 H2 118.8 . . ?
N1 C3 C4 121.5(10) . . ?
N1 C3 H3 119.3 . . ?
C4 C3 H3 119.3 . . ?
N2 C4 C3 122.0(10) . . ?
N2 C4 S1 114.6(8) . . ?
C3 C4 S1 123.3(8) . . ?
N4 C5 C6 122.4(9) . . ?
N4 C5 S1 120.8(8) . . ?
C6 C5 S1 116.7(8) . . ?
N3 C6 C5 121.2(10) . . ?
N3 C6 H6 119.4 . . ?
C5 C6 H6 119.4 . . ?
C8 C7 N3 120.6(10) . . ?
C8 C7 H7 119.7 . . ?
N3 C7 H7 119.7 . . ?
N4 C8 C7 124.1(10) . . ?
N4 C8 S2 118.4(8) . . ?
C7 C8 S2 117.4(8) . . ?
N6 C9 C10 123.4(10) . . ?
N6 C9 S2 113.5(8) . . ?
C10 C9 S2 123.1(8) . . ?
N5 C10 C9 120.7(10) . . ?
N5 C10 H10 119.6 . . ?
C9 C10 H10 119.6 . . ?
N5 C11 C12 121.2(10) . . ?
N5 C11 H11 119.4 . . ?
C12 C11 H11 119.4 . . ?
N6 C12 C11 122.2(10) . . ?
N6 C12 H12 118.9 . . ?
C11 C12 H12 118.9 . . ?
O1 C13 O2 124.1(9) . . ?
O1 C13 C14 117.5(9) . . ?
O2 C13 C14 118.4(9) . . ?
C15 C14 C19 117.5(10) . . ?
C15 C14 C13 121.2(9) . . ?
C19 C14 C13 121.2(9) . . ?
C14 C15 C16 121.1(10) . . ?
C14 C15 H15 119.4 . . ?
C16 C15 H15 119.4 . . ?
C15 C16 C17 121.6(10) . . ?
C15 C16 H16 119.2 . . ?
C17 C16 H16 119.2 . . ?
C18 C17 C16 116.7(10) . . ?
C18 C17 C20 121.3(10) . . ?
C16 C17 C20 121.9(10) . . ?
C17 C18 C19 121.7(10) . . ?
C17 C18 H18 119.1 . . ?
C19 C18 H18 119.1 . . ?
C18 C19 C14 121.1(10) . . ?
C18 C19 H19 119.4 . . ?
C14 C19 H19 119.4 . . ?
C25 C20 C21 117.4(9) . . ?
C25 C20 C17 121.1(10) . . ?
C21 C20 C17 121.3(10) . . ?
C22 C21 C20 120.5(10) . . ?
C22 C21 H21 119.7 . . ?
C20 C21 H21 119.7 . . ?
C23 C22 C21 121.1(10) . . ?
C23 C22 H22 119.5 . . ?
C21 C22 H22 119.5 . . ?
C22 C23 C24 119.2(10) . . ?
C22 C23 C26 119.3(9) . . ?
C24 C23 C26 121.5(9) . . ?
C23 C24 C25 119.8(10) . . ?
C23 C24 H24 120.1 . . ?
C25 C24 H24 120.1 . . ?
C20 C25 C24 121.9(10) . . ?
C20 C25 H25 119.1 . . ?
C24 C25 H25 119.1 . . ?
O4 C26 O3 124.3(9) . . ?
O4 C26 C23 117.4(9) . . ?
O3 C26 C23 118.2(9) . . ?
C2 N1 C3 116.0(9) . . ?
C2 N1 Ag1 125.5(8) . . ?
C3 N1 Ag1 118.0(7) . . ?
C1 N2 C4 116.1(9) . . ?
C6 N3 C7 116.3(9) . . ?
C5 N4 C8 115.4(9) . . ?
C11 N5 C10 117.2(9) . . ?
C9 N6 C12 115.3(9) . . ?
C9 N6 Ag2 122.0(7) . 2_765 ?
C12 N6 Ag2 120.7(6) . 2_765 ?
C13 O1 Ag1 122.5(6) . . ?
C13 O2 Ag2 119.4(6) . . ?
C26 O3 Ag1 110.2(6) . 1_645 ?
C26 O4 Ag2 126.7(7) . 1_645 ?
C5 S1 C4 102.6(5) . . ?
C8 S2 C9 103.4(5) . . ?
C8 S2 Ag1 103.7(3) . 1_655 ?
C9 S2 Ag1 103.1(4) . 1_655 ?
O1 Ag1 O3 161.6(3) . 1_465 ?
O1 Ag1 N1 87.9(3) . . ?
O3 Ag1 N1 109.5(3) 1_465 . ?
O1 Ag1 S2 89.3(2) . 1_455 ?
O3 Ag1 S2 91.2(2) 1_465 1_455 ?
N1 Ag1 S2 107.8(2) . 1_455 ?
O1 Ag1 Ag2 78.07(18) . . ?
O3 Ag1 Ag2 83.57(19) 1_465 . ?
N1 Ag1 Ag2 160.0(2) . . ?
S2 Ag1 Ag2 86.41(6) 1_455 . ?
O4 Ag2 O2 150.9(3) 1_465 . ?
O4 Ag2 N6 121.2(3) 1_465 