####################################################################### 
# 
# This file contains crystal structure data downloaded from the 
# Cambridge Structural Database (CSD) hosted by the Cambridge 
# Crystallographic Data Centre (CCDC).
# 
# Full information about CCDC data access policies and citation 
# guidelines are available at http://www.ccdc.cam.ac.uk/access/V1 
# 
# Audit and citation data items may have been added by the CCDC. 
# Please retain this information to preserve the provenance of 
# this file and to allow appropriate attribution of the data. 
# 
#######################################################################

data_080708a
_audit_block_doi                 10.5517/ccrynfr
_database_code_depnum_ccdc_archive 'CCDC 713695'
loop_
_citation_id
_citation_doi
_citation_year
1 10.1021/ja805920t 2008
2 10.1021/ic900283t 2009
_audit_update_record             
;
2008-12-12 deposited with the CCDC.	2024-07-13 downloaded from the CCDC.
;

_audit_creation_method           SHELXL-97
_chemical_name_systematic        
;
?
;
_chemical_name_common            ?
_chemical_melting_point          ?
_chemical_formula_moiety         ?
_chemical_formula_sum            'C18 H16 I3 N3 O7 Zn'
_chemical_formula_weight         832.41

loop_
_atom_type_symbol
_atom_type_description
_atom_type_scat_dispersion_real
_atom_type_scat_dispersion_imag
_atom_type_scat_source
C C 0.0033 0.0016 'International Tables Vol C Tables 4.2.6.8 and 6.1.1.4'
H H 0.0000 0.0000 'International Tables Vol C Tables 4.2.6.8 and 6.1.1.4'
N N 0.0061 0.0033 'International Tables Vol C Tables 4.2.6.8 and 6.1.1.4'
O O 0.0106 0.0060 'International Tables Vol C Tables 4.2.6.8 and 6.1.1.4'
Zn Zn 0.2839 1.4301 'International Tables Vol C Tables 4.2.6.8 and 6.1.1.4'
I I -0.4742 1.8119 'International Tables Vol C Tables 4.2.6.8 and 6.1.1.4'

_symmetry_cell_setting           tetragonal
_symmetry_space_group_name_H-M   P4/n

loop_
_symmetry_equiv_pos_as_xyz
'x, y, z'
'-x+1/2, -y+1/2, z'
'-y+1/2, x, z'
'y, -x+1/2, z'
'-x, -y, -z'
'x-1/2, y-1/2, -z'
'y-1/2, -x, -z'
'-y, x-1/2, -z'

_cell_length_a                   24.4385(2)
_cell_length_b                   24.4385(2)
_cell_length_c                   9.57470(10)
_cell_angle_alpha                90.00
_cell_angle_beta                 90.00
_cell_angle_gamma                90.00
_cell_volume                     5718.40(9)
_cell_formula_units_Z            8
_cell_measurement_temperature    298(2)
_cell_measurement_reflns_used    5599
_cell_measurement_theta_min      2.43
_cell_measurement_theta_max      24.1

_exptl_crystal_description       prism
_exptl_crystal_colour            yellow
_exptl_crystal_size_max          0.20
_exptl_crystal_size_mid          0.10
_exptl_crystal_size_min          0.05
_exptl_crystal_density_meas      ?
_exptl_crystal_density_diffrn    1.934
_exptl_crystal_density_method    'not measured'
_exptl_crystal_F_000             3120
_exptl_absorpt_coefficient_mu    4.134
_exptl_absorpt_correction_type   multi-scan
_exptl_absorpt_correction_T_min  0.4919
_exptl_absorpt_correction_T_max  0.8199
_exptl_absorpt_process_details   ?

_exptl_special_details           
;
?
;

_diffrn_ambient_temperature      298(2)
_diffrn_radiation_wavelength     0.71073
_diffrn_radiation_type           MoK\a
_diffrn_radiation_source         'fine-focus sealed tube'
_diffrn_radiation_monochromator  graphite
_diffrn_measurement_device_type  ?
_diffrn_measurement_method       ?
_diffrn_detector_area_resol_mean ?
_diffrn_standards_number         ?
_diffrn_standards_interval_count ?
_diffrn_standards_interval_time  ?
_diffrn_standards_decay_%        ?
_diffrn_reflns_number            22623
_diffrn_reflns_av_R_equivalents  0.0372
_diffrn_reflns_av_sigmaI/netI    0.0454
_diffrn_reflns_limit_h_min       -31
_diffrn_reflns_limit_h_max       30
_diffrn_reflns_limit_k_min       -28
_diffrn_reflns_limit_k_max       24
_diffrn_reflns_limit_l_min       -12
_diffrn_reflns_limit_l_max       9
_diffrn_reflns_theta_min         1.18
_diffrn_reflns_theta_max         27.58
_reflns_number_total             6649
_reflns_number_gt                4188
_reflns_threshold_expression     >2sigma(I)

_computing_data_collection       ?
_computing_cell_refinement       ?
_computing_data_reduction        ?
_computing_structure_solution    ?
_computing_structure_refinement  'SHELXL-97 (Sheldrick, 1997)'
_computing_molecular_graphics    ?
_computing_publication_material  ?

_refine_special_details          
;
Refinement of F^2^ against ALL reflections. The weighted R-factor wR and
goodness of fit S are based on F^2^, conventional R-factors R are based
on F, with F set to zero for negative F^2^. The threshold expression of
F^2^ > 2sigma(F^2^) is used only for calculating R-factors(gt) etc. and is
not relevant to the choice of reflections for refinement. R-factors based
on F^2^ are statistically about twice as large as those based on F, and R-
factors based on ALL data will be even larger.
;

_refine_ls_structure_factor_coef Fsqd
_refine_ls_matrix_type           full
_refine_ls_weighting_scheme      calc
_refine_ls_weighting_details     
'calc w=1/[\s^2^(Fo^2^)+(0.1077P)^2^+24.3246P] where P=(Fo^2^+2Fc^2^)/3'
_atom_sites_solution_primary     direct
_atom_sites_solution_secondary   difmap
_atom_sites_solution_hydrogens   geom
_refine_ls_hydrogen_treatment    ?
_refine_ls_extinction_method     none
_refine_ls_extinction_coef       ?
_refine_ls_number_reflns         6649
_refine_ls_number_parameters     289
_refine_ls_number_restraints     0
_refine_ls_R_factor_all          0.1073
_refine_ls_R_factor_gt           0.0671
_refine_ls_wR_factor_ref         0.2227
_refine_ls_wR_factor_gt          0.1921
_refine_ls_goodness_of_fit_ref   1.077
_refine_ls_restrained_S_all      1.077
_refine_ls_shift/su_max          0.006
_refine_ls_shift/su_mean         0.000

loop_
_atom_site_label
_atom_site_type_symbol
_atom_site_fract_x
_atom_site_fract_y
_atom_site_fract_z
_atom_site_U_iso_or_equiv
_atom_site_adp_type
_atom_site_occupancy
_atom_site_symmetry_multiplicity
_atom_site_calc_flag
_atom_site_refinement_flags
_atom_site_disorder_assembly
_atom_site_disorder_group
Zn Zn 0.54781(4) 0.37534(4) -0.40201(9) 0.0426(3) Uani 1 1 d . . .
I1 I 0.51833(4) 0.42529(8) 0.11258(8) 0.1450(7) Uani 1 1 d . . .
I2 I 0.72481(3) 0.34335(3) 0.39504(6) 0.0695(3) Uani 1 1 d . . .
I3 I 0.72591(3) 0.39700(4) -0.21534(7) 0.0769(3) Uani 1 1 d . . .
C1 C 0.5986(4) 0.4187(4) -0.1569(8) 0.049(2) Uani 1 1 d . . .
C2 C 0.6280(3) 0.4059(3) -0.0216(8) 0.0380(16) Uani 1 1 d . . .
C3 C 0.6010(3) 0.4027(4) 0.1054(8) 0.0423(18) Uani 1 1 d . . .
C4 C 0.6273(3) 0.3861(3) 0.2268(7) 0.0391(17) Uani 1 1 d . . .
C5 C 0.5971(5) 0.3808(5) 0.3634(10) 0.062(3) Uani 1 1 d . . .
C6 C 0.6821(4) 0.3713(4) 0.2172(8) 0.0439(19) Uani 1 1 d . . .
C7 C 0.7118(3) 0.3749(4) 0.0921(8) 0.0440(18) Uani 1 1 d . . .
C8 C 0.6828(3) 0.3925(3) -0.0258(7) 0.0421(18) Uani 1 1 d . . .
C9 C 0.4945(6) 0.2720(5) -0.5003(10) 0.084(4) Uani 1 1 d . . .
H9A H 0.4925 0.2922 -0.5824 0.101 Uiso 1 1 calc R . .
C10 C 0.4781(6) 0.2185(5) -0.5042(12) 0.090(4) Uani 1 1 d . . .
H10A H 0.4675 0.2027 -0.5884 0.108 Uiso 1 1 calc R . .
C11 C 0.4772(4) 0.1878(4) -0.3818(9) 0.055(2) Uani 1 1 d . . .
C12 C 0.4940(4) 0.2139(4) -0.2621(10) 0.057(2) Uani 1 1 d . . .
H12A H 0.4934 0.1954 -0.1772 0.069 Uiso 1 1 calc R . .
C13 C 0.5119(4) 0.2677(4) -0.2676(9) 0.055(2) Uani 1 1 d . . .
H13A H 0.5235 0.2843 -0.1853 0.067 Uiso 1 1 calc R . .
C14 C 0.4414(5) 0.0474(5) -0.5030(12) 0.075(3) Uani 1 1 d . . .
H14A H 0.4443 0.0274 -0.5852 0.090 Uiso 1 1 calc R . .
C15 C 0.4608(6) 0.0994(5) -0.5024(12) 0.082(4) Uani 1 1 d . . .
H15A H 0.4755 0.1142 -0.5837 0.099 Uiso 1 1 calc R . .
C16 C 0.4591(4) 0.1304(4) -0.3829(10) 0.053(2) Uani 1 1 d . . .
C17 C 0.4376(6) 0.1051(5) -0.2665(10) 0.077(4) Uani 1 1 d . . .
H17A H 0.4358 0.1237 -0.1819 0.093 Uiso 1 1 calc R . .
C18 C 0.4190(6) 0.0522(5) -0.2762(12) 0.081(4) Uani 1 1 d . . .
H18A H 0.4058 0.0356 -0.1956 0.098 Uiso 1 1 calc R . .
O1 O 0.5940(5) 0.4135(5) 0.4461(10) 0.115(4) Uani 1 1 d . . .
O01 O 0.235(2) 0.452(2) 0.114(4) 0.45(3) Uani 1 1 d . . .
O2 O 0.5923(4) 0.4658(3) -0.1956(7) 0.073(2) Uani 1 1 d . . .
O02 O 0.174(3) 0.382(2) 0.135(11) 0.96(10) Uani 1 1 d . . .
O03 O 0.0548(8) 0.3527(12) 0.0875(19) 0.250(12) Uani 1 1 d . . .
O4 O 0.5821(3) 0.3760(3) -0.2206(6) 0.0547(16) Uani 1 1 d . . .
O5 O 0.5769(10) 0.3403(7) 0.3942(15) 0.258(14) Uani 1 1 d . . .
N1 N 0.7660(3) 0.3620(4) 0.0864(9) 0.074(3) Uani 1 1 d . . .
H1A H 0.7834 0.3645 0.0086 0.089 Uiso 1 1 calc R . .
H1B H 0.7827 0.3513 0.1605 0.089 Uiso 1 1 calc R . .
N2 N 0.5133(3) 0.2969(3) -0.3857(7) 0.0554(19) Uani 1 1 d . . .
N3 N 0.4188(4) 0.0237(3) -0.3935(7) 0.0556(19) Uani 1 1 d . . .

loop_
_atom_site_aniso_label
_atom_site_aniso_U_11
_atom_site_aniso_U_22
_atom_site_aniso_U_33
_atom_site_aniso_U_23
_atom_site_aniso_U_13
_atom_site_aniso_U_12
Zn 0.0435(5) 0.0555(6) 0.0287(4) 0.0004(4) -0.0005(4) -0.0032(4)
I1 0.0533(5) 0.335(2) 0.0469(5) -0.0216(7) -0.0024(3) 0.0584(8)
I2 0.0868(5) 0.0833(5) 0.0383(4) 0.0094(3) -0.0172(3) 0.0129(4)
I3 0.0742(5) 0.1165(7) 0.0399(4) 0.0076(3) 0.0242(3) 0.0029(4)
C1 0.061(5) 0.058(6) 0.027(4) -0.001(4) 0.002(4) -0.002(4)
C2 0.044(4) 0.040(4) 0.030(4) -0.005(3) 0.002(3) 0.000(3)
C3 0.039(4) 0.055(5) 0.032(4) -0.006(3) 0.001(3) 0.004(4)
C4 0.044(4) 0.047(4) 0.027(3) -0.001(3) 0.003(3) -0.009(3)
C5 0.073(7) 0.078(7) 0.035(5) 0.003(5) 0.011(4) -0.008(6)
C6 0.055(5) 0.048(5) 0.029(4) 0.000(3) -0.009(3) 0.003(4)
C7 0.046(5) 0.051(5) 0.035(4) 0.000(3) 0.000(3) -0.004(4)
C8 0.054(5) 0.049(5) 0.023(3) 0.000(3) 0.007(3) -0.009(4)
C9 0.127(11) 0.087(8) 0.039(5) 0.008(5) -0.019(6) -0.049(8)
C10 0.140(12) 0.085(8) 0.045(6) -0.002(5) 0.000(7) -0.061(8)
C11 0.067(6) 0.060(6) 0.038(4) -0.002(4) 0.005(4) -0.019(5)
C12 0.070(6) 0.061(6) 0.041(5) 0.002(4) -0.001(4) -0.008(5)
C13 0.065(6) 0.066(6) 0.035(4) -0.009(4) -0.004(4) -0.011(5)
C14 0.096(8) 0.080(7) 0.049(6) -0.020(5) 0.025(6) -0.022(6)
C15 0.119(10) 0.075(7) 0.052(6) -0.015(5) 0.025(6) -0.034(7)
C16 0.058(6) 0.054(5) 0.049(5) -0.004(4) 0.001(4) -0.010(4)
C17 0.126(10) 0.067(7) 0.038(5) -0.005(5) 0.001(6) -0.028(7)
C18 0.133(11) 0.063(7) 0.049(6) 0.005(5) 0.004(6) -0.034(7)
O1 0.153(9) 0.129(8) 0.062(5) -0.033(6) 0.049(6) -0.004(7)
O01 0.52(7) 0.47(6) 0.37(5) -0.09(4) 0.02(4) -0.25(5)
O2 0.107(6) 0.060(4) 0.052(4) 0.009(3) -0.029(4) 0.003(4)
O02 0.78(15) 0.24(4) 1.9(3) -0.14(10) -0.08(15) 0.01(6)
O03 0.170(16) 0.42(4) 0.156(16) -0.007(18) 0.030(12) 0.104(19)
O4 0.076(4) 0.058(4) 0.030(3) 0.001(3) -0.009(3) -0.008(3)
O5 0.43(3) 0.194(15) 0.152(13) -0.090(11) 0.203(17) -0.201(19)
N1 0.047(5) 0.125(8) 0.050(5) -0.008(5) -0.002(4) 0.022(5)
N2 0.055(5) 0.070(5) 0.041(4) -0.006(3) 0.002(3) -0.019(4)
N3 0.079(6) 0.051(4) 0.038(4) -0.003(3) 0.000(4) -0.008(4)

_geom_special_details            
;
All esds (except the esd in the dihedral angle between two l.s. planes)
are estimated using the full covariance matrix. The cell esds are taken
into account individually in the estimation of esds in distances, angles
and torsion angles; correlations between esds in cell parameters are only
used when they are defined by crystal symmetry. An approximate (isotropic)
treatment of cell esds is used for estimating esds involving l.s. planes.
;

loop_
_geom_bond_atom_site_label_1
_geom_bond_atom_site_label_2
_geom_bond_distance
_geom_bond_site_symmetry_2
_geom_bond_publ_flag
Zn O4 1.929(6) . ?
Zn N3 2.045(8) 3 ?
Zn O1 2.063(10) 1_554 ?
Zn N2 2.101(8) . ?
Zn O5 2.246(11) 1_554 ?
Zn C5 2.553(9) 1_554 ?
I1 C3 2.094(8) . ?
I2 C6 2.110(8) . ?
I3 C8 2.102(7) . ?
C1 O2 1.219(11) . ?
C1 O4 1.274(11) . ?
C1 C2 1.514(11) . ?
C2 C8 1.378(12) . ?
C2 C3 1.387(10) . ?
C3 C4 1.390(11) . ?
C4 C6 1.391(12) . ?
C4 C5 1.508(11) . ?
C5 O1 1.128(13) . ?
C5 O5 1.144(15) . ?
C5 Zn 2.553(9) 1_556 ?
C6 C7 1.403(11) . ?
C7 N1 1.364(12) . ?
C7 C8 1.400(11) . ?
C9 N2 1.336(12) . ?
C9 C10 1.368(16) . ?
C9 H9A 0.9300 . ?
C10 C11 1.392(14) . ?
C10 H10A 0.9300 . ?
C11 C12 1.374(13) . ?
C11 C16 1.471(13) . ?
C12 C13 1.388(14) . ?
C12 H12A 0.9300 . ?
C13 N2 1.337(12) . ?
C13 H13A 0.9300 . ?
C14 N3 1.321(13) . ?
C14 C15 1.356(15) . ?
C14 H14A 0.9300 . ?
C15 C16 1.373(13) . ?
C15 H15A 0.9300 . ?
C16 C17 1.379(14) . ?
C17 C18 1.372(15) . ?
C17 H17A 0.9300 . ?
C18 N3 1.323(13) . ?
C18 H18A 0.9300 . ?
O1 Zn 2.063(10) 1_556 ?
O5 Zn 2.246(11) 1_556 ?
N1 H1A 0.8600 . ?
N1 H1B 0.8600 . ?
N3 Zn 2.045(8) 4 ?

loop_
_geom_angle_atom_site_label_1
_geom_angle_atom_site_label_2
_geom_angle_atom_site_label_3
_geom_angle
_geom_angle_site_symmetry_1
_geom_angle_site_symmetry_3
_geom_angle_publ_flag
O4 Zn N3 109.3(3) . 3 ?
O4 Zn O1 113.1(4) . 1_554 ?
N3 Zn O1 105.1(4) 3 1_554 ?
O4 Zn N2 96.6(3) . . ?
N3 Zn N2 97.4(3) 3 . ?
O1 Zn N2 133.2(3) 1_554 . ?
O4 Zn O5 130.4(8) . 1_554 ?
N3 Zn O5 120.2(8) 3 1_554 ?
O1 Zn O5 52.2(4) 1_554 1_554 ?
N2 Zn O5 81.0(4) . 1_554 ?
O4 Zn C5 125.9(3) . 1_554 ?
N3 Zn C5 114.3(3) 3 1_554 ?
O1 Zn C5 25.6(4) 1_554 1_554 ?
N2 Zn C5 107.6(3) . 1_554 ?
O5 Zn C5 26.6(4) 1_554 1_554 ?
O2 C1 O4 126.0(8) . . ?
O2 C1 C2 121.1(8) . . ?
O4 C1 C2 113.0(8) . . ?
C8 C2 C3 118.4(7) . . ?
C8 C2 C1 119.0(7) . . ?
C3 C2 C1 122.4(7) . . ?
C2 C3 C4 121.9(7) . . ?
C2 C3 I1 118.3(6) . . ?
C4 C3 I1 119.8(6) . . ?
C3 C4 C6 117.9(7) . . ?
C3 C4 C5 121.6(8) . . ?
C6 C4 C5 120.4(7) . . ?
O1 C5 O5 113.7(11) . . ?
O1 C5 C4 125.5(11) . . ?
O5 C5 C4 120.7(11) . . ?
O1 C5 Zn 52.2(7) . 1_556 ?
O5 C5 Zn 61.6(7) . 1_556 ?
C4 C5 Zn 177.7(8) . 1_556 ?
C4 C6 C7 122.5(7) . . ?
C4 C6 I2 120.5(6) . . ?
C7 C6 I2 117.0(6) . . ?
N1 C7 C8 122.0(8) . . ?
N1 C7 C6 121.4(8) . . ?
C8 C7 C6 116.6(8) . . ?
C2 C8 C7 122.7(7) . . ?
C2 C8 I3 119.9(5) . . ?
C7 C8 I3 117.3(6) . . ?
N2 C9 C10 124.0(10) . . ?
N2 C9 H9A 118.0 . . ?
C10 C9 H9A 118.0 . . ?
C9 C10 C11 119.7(10) . . ?
C9 C10 H10A 120.1 . . ?
C11 C10 H10A 120.1 . . ?
C12 C11 C10 116.7(9) . . ?
C12 C11 C16 122.6(8) . . ?
C10 C11 C16 120.8(8) . . ?
C11 C12 C13 120.2(9) . . ?
C11 C12 H12A 119.9 . . ?
C13 C12 H12A 119.9 . . ?
N2 C13 C12 123.0(8) . . ?
N2 C13 H13A 118.5 . . ?
C12 C13 H13A 118.5 . . ?
N3 C14 C15 123.7(10) . . ?
N3 C14 H14A 118.1 . . ?
C15 C14 H14A 118.1 . . ?
C14 C15 C16 120.7(10) . . ?
C14 C15 H15A 119.7 . . ?
C16 C15 H15A 119.7 . . ?
C15 C16 C17 115.9(9) . . ?
C15 C16 C11 121.6(9) . . ?
C17 C16 C11 122.5(8) . . ?
C16 C17 C18 119.6(10) . . ?
C16 C17 H17A 120.2 . . ?
C18 C17 H17A 120.2 . . ?
N3 C18 C17 123.8(10) . . ?
N3 C18 H18A 118.1 . . ?
C17 C18 H18A 118.1 . . ?
C5 O1 Zn 102.2(9) . 1_556 ?
C1 O4 Zn 125.1(6) . . ?
C5 O5 Zn 91.8(9) . 1_556 ?
C7 N1 H1A 120.0 . . ?
C7 N1 H1B 120.0 . . ?
H1A N1 H1B 120.0 . . ?
C13 N2 C9 116.3(8) . . ?
C13 N2 Zn 124.0(6) . . ?
C9 N2 Zn 119.5(7) . . ?
C18 N3 C14 116.1(9) . . ?
C18 N3 Zn 119.2(7) . 4 ?
C14 N3 Zn 124.2(7) . 4 ?

loop_
_geom_torsion_atom_site_label_1
_geom_torsion_atom_site_label_2
_geom_torsion_atom_site_label_3
_geom_torsion_atom_site_label_4
_geom_torsion
_geom_torsion_site_symmetry_1
_geom_torsion_site_symmetry_2
_geom_torsion_site_symmetry_3
_geom_torsion_site_symmetry_4
_geom_torsion_publ_flag
O2 C1 C2 C8 -96.8(11) . . . . ?
O4 C1 C2 C8 83.6(10) . . . . ?
O2 C1 C2 C3 88.6(12) . . . . ?
O4 C1 C2 C3 -91.1(10) . . . . ?
C8 C2 C3 C4 -0.6(13) . . . . ?
C1 C2 C3 C4 174.1(8) . . . . ?
C8 C2 C3 I1 178.2(6) . . . . ?
C1 C2 C3 I1 -7.1(11) . . . . ?
C2 C3 C4 C6 -1.5(13) . . . . ?
I1 C3 C4 C6 179.7(6) . . . . ?
C2 C3 C4 C5 -177.7(8) . . . . ?
I1 C3 C4 C5 3.5(11) . . . . ?
C3 C4 C5 O1 -93.8(15) . . . . ?
C6 C4 C5 O1 90.1(15) . . . . ?
C3 C4 C5 O5 90(2) . . . . ?
C6 C4 C5 O5 -86(2) . . . . ?
C3 C4 C5 Zn -106(20) . . . 1_556 ?
C6 C4 C5 Zn 78(20) . . . 1_556 ?
C3 C4 C6 C7 3.0(13) . . . . ?
C5 C4 C6 C7 179.2(9) . . . . ?
C3 C4 C6 I2 -178.2(6) . . . . ?
C5 C4 C6 I2 -1.9(11) . . . . ?
C4 C6 C7 N1 177.7(9) . . . . ?
I2 C6 C7 N1 -1.2(12) . . . . ?
C4 C6 C7 C8 -2.3(13) . . . . ?
I2 C6 C7 C8 178.8(6) . . . . ?
C3 C2 C8 C7 1.3(13) . . . . ?
C1 C2 C8 C7 -173.6(8) . . . . ?
C3 C2 C8 I3 -179.6(6) . . . . ?
C1 C2 C8 I3 5.5(10) . . . . ?
N1 C7 C8 C2 -179.8(9) . . . . ?
C6 C7 C8 C2 0.2(13) . . . . ?
N1 C7 C8 I3 1.0(12) . . . . ?
C6 C7 C8 I3 -179.0(6) . . . . ?
N2 C9 C10 C11 4(2) . . . . ?
C9 C10 C11 C12 -1(2) . . . . ?
C9 C10 C11 C16 179.3(13) . . . . ?
C10 C11 C12 C13 -1.4(17) . . . . ?
C16 C11 C12 C13 178.4(10) . . . . ?
C11 C12 C13 N2 0.7(16) . . . . ?
N3 C14 C15 C16 2(2) . . . . ?
C14 C15 C16 C17 1(2) . . . . ?
C14 C15 C16 C11 -176.7(12) . . . . ?
C12 C11 C16 C15 -156.7(12) . . . . ?
C10 C11 C16 C15 23.1(18) . . . . ?
C12 C11 C16 C17 25.7(17) . . . . ?
C10 C11 C16 C17 -154.5(13) . . . . ?
C15 C16 C17 C18 -0.9(19) . . . . ?
C11 C16 C17 C18 176.8(12) . . . . ?
C16 C17 C18 N3 -2(2) . . . . ?
O5 C5 O1 Zn -3(2) . . . 1_556 ?
C4 C5 O1 Zn -179.4(9) . . . 1_556 ?
O2 C1 O4 Zn 5.0(14) . . . . ?
C2 C1 O4 Zn -175.3(5) . . . . ?
N3 Zn O4 C1 -61.8(8) 3 . . . ?
O1 Zn O4 C1 55.0(9) 1_554 . . . ?
N2 Zn O4 C1 -162.1(8) . . . . ?
O5 Zn O4 C1 114.2(8) 1_554 . . . ?
C5 Zn O4 C1 80.6(8) 1_554 . . . ?
O1 C5 O5 Zn 2.7(18) . . . 1_556 ?
C4 C5 O5 Zn 179.3(9) . . . 1_556 ?
C12 C13 N2 C9 2.3(16) . . . . ?
C12 C13 N2 Zn -173.3(8) . . . . ?
C10 C9 N2 C13 -5(2) . . . . ?
C10 C9 N2 Zn 171.0(12) . . . . ?
O4 Zn N2 C13 10.1(9) . . . . ?
N3 Zn N2 C13 -100.4(8) 3 . . . ?
O1 Zn N2 C13 140.7(8) 1_554 . . . ?
O5 Zn N2 C13 140.0(11) 1_554 . . . ?
C5 Zn N2 C13 141.1(8) 1_554 . . . ?
O4 Zn N2 C9 -165.3(10) . . . . ?
N3 Zn N2 C9 84.2(10) 3 . . . ?
O1 Zn N2 C9 -34.7(12) 1_554 . . . ?
O5 Zn N2 C9 -35.4(12) 1_554 . . . ?
C5 Zn N2 C9 -34.3(10) 1_554 . . . ?
C17 C18 N3 C14 5(2) . . . . ?
C17 C18 N3 Zn -167.1(12) . . . 4 ?
C15 C14 N3 C18 -5(2) . . . . ?
C15 C14 N3 Zn 166.7(11) . . . 4 ?

_diffrn_measured_fraction_theta_max 1.000
_diffrn_reflns_theta_full        27.58
_diffrn_measured_fraction_theta_full 1.000
_refine_diff_density_max         3.336
_refine_diff_density_min         -2.789
_refine_diff_density_rms         0.334
