####################################################################### 
# 
# This file contains crystal structure data downloaded from the 
# Cambridge Structural Database (CSD) hosted by the Cambridge 
# Crystallographic Data Centre (CCDC).
# 
# Full information about CCDC data access policies and citation 
# guidelines are available at http://www.ccdc.cam.ac.uk/access/V1 
# 
# Audit and citation data items may have been added by the CCDC. 
# Please retain this information to preserve the provenance of 
# this file and to allow appropriate attribution of the data. 
# 
#######################################################################

data_080627b
_audit_block_doi                 10.5517/ccrynjv
_database_code_depnum_ccdc_archive 'CCDC 713698'
loop_
_citation_id
_citation_doi
_citation_year
1 10.1021/ja805920t 2008
_audit_update_record             
;
2008-12-12 deposited with the CCDC.	2024-07-13 downloaded from the CCDC.
;

_audit_creation_method           SHELXL-97
_chemical_name_systematic        
;
?
;
_chemical_name_common            ?
_chemical_melting_point          ?
_chemical_formula_moiety         ?
_chemical_formula_sum            'C18 H16 I3 N3 O7 Zn'
_chemical_formula_weight         832.41

loop_
_atom_type_symbol
_atom_type_description
_atom_type_scat_dispersion_real
_atom_type_scat_dispersion_imag
_atom_type_scat_source
C C 0.0033 0.0016 'International Tables Vol C Tables 4.2.6.8 and 6.1.1.4'
H H 0.0000 0.0000 'International Tables Vol C Tables 4.2.6.8 and 6.1.1.4'
N N 0.0061 0.0033 'International Tables Vol C Tables 4.2.6.8 and 6.1.1.4'
O O 0.0106 0.0060 'International Tables Vol C Tables 4.2.6.8 and 6.1.1.4'
Zn Zn 0.2839 1.4301 'International Tables Vol C Tables 4.2.6.8 and 6.1.1.4'
I I -0.4742 1.8119 'International Tables Vol C Tables 4.2.6.8 and 6.1.1.4'

_symmetry_cell_setting           tetragonal
_symmetry_space_group_name_H-M   P4/n

loop_
_symmetry_equiv_pos_as_xyz
'x, y, z'
'-x+1/2, -y+1/2, z'
'-y+1/2, x, z'
'y, -x+1/2, z'
'-x, -y, -z'
'x-1/2, y-1/2, -z'
'y-1/2, -x, -z'
'-y, x-1/2, -z'

_cell_length_a                   24.3448(2)
_cell_length_b                   24.3448(2)
_cell_length_c                   9.5798(2)
_cell_angle_alpha                90.00
_cell_angle_beta                 90.00
_cell_angle_gamma                90.00
_cell_volume                     5677.65(14)
_cell_formula_units_Z            8
_cell_measurement_temperature    298(2)
_cell_measurement_reflns_used    3828
_cell_measurement_theta_min      2.43
_cell_measurement_theta_max      24.08

_exptl_crystal_description       prism
_exptl_crystal_colour            yellow
_exptl_crystal_size_max          0.20
_exptl_crystal_size_mid          0.10
_exptl_crystal_size_min          0.05
_exptl_crystal_density_meas      ?
_exptl_crystal_density_diffrn    1.948
_exptl_crystal_density_method    'not measured'
_exptl_crystal_F_000             3120
_exptl_absorpt_coefficient_mu    4.164
_exptl_absorpt_correction_type   multi-scan
_exptl_absorpt_correction_T_min  0.4897
_exptl_absorpt_correction_T_max  0.8188
_exptl_absorpt_process_details   ?

_exptl_special_details           
;
?
;

_diffrn_ambient_temperature      298(2)
_diffrn_radiation_wavelength     0.71073
_diffrn_radiation_type           MoK\a
_diffrn_radiation_source         'fine-focus sealed tube'
_diffrn_radiation_monochromator  graphite
_diffrn_measurement_device_type  ?
_diffrn_measurement_method       ?
_diffrn_detector_area_resol_mean ?
_diffrn_standards_number         ?
_diffrn_standards_interval_count ?
_diffrn_standards_interval_time  ?
_diffrn_standards_decay_%        ?
_diffrn_reflns_number            18197
_diffrn_reflns_av_R_equivalents  0.0391
_diffrn_reflns_av_sigmaI/netI    0.0676
_diffrn_reflns_limit_h_min       -17
_diffrn_reflns_limit_h_max       31
_diffrn_reflns_limit_k_min       -31
_diffrn_reflns_limit_k_max       22
_diffrn_reflns_limit_l_min       -12
_diffrn_reflns_limit_l_max       9
_diffrn_reflns_theta_min         1.18
_diffrn_reflns_theta_max         27.47
_reflns_number_total             6507
_reflns_number_gt                3295
_reflns_threshold_expression     >2sigma(I)

_computing_data_collection       ?
_computing_cell_refinement       ?
_computing_data_reduction        ?
_computing_structure_solution    'SHELXS-97 (Sheldrick, 1990)'
_computing_structure_refinement  'SHELXL-97 (Sheldrick, 1997)'
_computing_molecular_graphics    ?
_computing_publication_material  ?

_refine_special_details          
;
Refinement of F^2^ against ALL reflections. The weighted R-factor wR and
goodness of fit S are based on F^2^, conventional R-factors R are based
on F, with F set to zero for negative F^2^. The threshold expression of
F^2^ > 2sigma(F^2^) is used only for calculating R-factors(gt) etc. and is
not relevant to the choice of reflections for refinement. R-factors based
on F^2^ are statistically about twice as large as those based on F, and R-
factors based on ALL data will be even larger.
;

_refine_ls_structure_factor_coef Fsqd
_refine_ls_matrix_type           full
_refine_ls_weighting_scheme      calc
_refine_ls_weighting_details     
'calc w=1/[\s^2^(Fo^2^)+(0.1184P)^2^+13.6245P] where P=(Fo^2^+2Fc^2^)/3'
_atom_sites_solution_primary     direct
_atom_sites_solution_secondary   difmap
_atom_sites_solution_hydrogens   geom
_refine_ls_hydrogen_treatment    ?
_refine_ls_extinction_method     none
_refine_ls_extinction_coef       ?
_refine_ls_number_reflns         6507
_refine_ls_number_parameters     289
_refine_ls_number_restraints     0
_refine_ls_R_factor_all          0.1429
_refine_ls_R_factor_gt           0.0703
_refine_ls_wR_factor_ref         0.2455
_refine_ls_wR_factor_gt          0.1985
_refine_ls_goodness_of_fit_ref   1.060
_refine_ls_restrained_S_all      1.060
_refine_ls_shift/su_max          3.315
_refine_ls_shift/su_mean         0.024

loop_
_atom_site_label
_atom_site_type_symbol
_atom_site_fract_x
_atom_site_fract_y
_atom_site_fract_z
_atom_site_U_iso_or_equiv
_atom_site_adp_type
_atom_site_occupancy
_atom_site_symmetry_multiplicity
_atom_site_calc_flag
_atom_site_refinement_flags
_atom_site_disorder_assembly
_atom_site_disorder_group
Zn Zn 0.37876(5) 0.54666(5) 0.90015(11) 0.0462(3) Uani 1 1 d . . .
O1 O 0.3793(3) 0.5809(3) 0.7179(7) 0.0587(19) Uani 1 1 d . . .
O01 O 0.5576(7) 0.6570(9) 0.5966(17) 0.199(8) Uani 1 1 d . . .
O2 O 0.4694(4) 0.5930(4) 0.6922(9) 0.078(2) Uani 1 1 d . . .
O02 O 0.2711(15) 0.4567(14) 0.387(3) 0.339(18) Uani 1 1 d . . .
O3 O 0.3383(8) 0.5770(11) 0.1127(18) 0.313(18) Uani 1 1 d . . .
O03 O 0.3383(16) 0.3648(19) 0.320(9) 0.94(8) Uani 1 1 d . . .
O4 O 0.4119(4) 0.5911(5) 0.0539(10) 0.101(3) Uani 1 1 d . . .
I1 I 0.42648(8) 0.51785(4) 0.38549(10) 0.1478(7) Uani 1 1 d . . .
I2 I 0.34383(4) 0.72497(4) 0.10456(8) 0.0763(3) Uani 1 1 d . . .
I3 I 0.39833(4) 0.72611(4) 0.71395(9) 0.0779(3) Uani 1 1 d . . .
C1 C 0.4218(5) 0.5986(4) 0.6546(11) 0.051(3) Uani 1 1 d . . .
C2 C 0.4069(4) 0.6282(4) 0.5196(9) 0.040(2) Uani 1 1 d . . .
C3 C 0.4038(4) 0.6002(4) 0.3931(9) 0.045(2) Uani 1 1 d . . .
C4 C 0.3870(4) 0.6268(4) 0.2733(9) 0.043(2) Uani 1 1 d . . .
C5 C 0.3793(5) 0.5964(5) 0.1366(12) 0.061(3) Uani 1 1 d . . .
C6 C 0.3714(4) 0.6824(4) 0.2821(9) 0.044(2) Uani 1 1 d . . .
C7 C 0.3746(4) 0.7119(4) 0.4069(10) 0.046(2) Uani 1 1 d . . .
C8 C 0.3937(4) 0.6837(4) 0.5249(9) 0.043(2) Uani 1 1 d . . .
C9 C 0.2718(5) 0.5118(5) 0.7667(11) 0.059(3) Uani 1 1 d . . .
H9 H 0.2885 0.5241 0.6852 0.071 Uiso 1 1 calc R . .
C10 C 0.2175(5) 0.4945(5) 0.7602(12) 0.060(3) Uani 1 1 d . . .
H10 H 0.1984 0.4957 0.6762 0.072 Uiso 1 1 calc R . .
C11 C 0.1922(5) 0.4754(5) 0.8808(11) 0.057(3) Uani 1 1 d . . .
C12 C 0.2231(6) 0.4748(7) 1.0016(14) 0.093(5) Uani 1 1 d . . .
H12 H 0.2074 0.4631 1.0850 0.112 Uiso 1 1 calc R . .
C13 C 0.2765(6) 0.4914(6) 0.9983(12) 0.086(4) Uani 1 1 d . . .
H13 H 0.2971 0.4888 1.0799 0.103 Uiso 1 1 calc R . .
C14 C 0.0549(5) 0.4195(6) 0.7744(13) 0.080(4) Uani 1 1 d . . .
H14 H 0.0388 0.4044 0.6952 0.096 Uiso 1 1 calc R . .
C15 C 0.1074(5) 0.4381(6) 0.7650(12) 0.074(4) Uani 1 1 d . . .
H15 H 0.1259 0.4366 0.6802 0.089 Uiso 1 1 calc R . .
C16 C 0.1330(5) 0.4591(5) 0.8801(11) 0.055(3) Uani 1 1 d . . .
C17 C 0.1018(6) 0.4631(6) 1.0017(13) 0.079(4) Uani 1 1 d . . .
H17 H 0.1164 0.4794 1.0812 0.095 Uiso 1 1 calc R . .
C18 C 0.0494(5) 0.4428(5) 1.0029(14) 0.073(4) Uani 1 1 d . . .
H18 H 0.0299 0.4438 1.0862 0.088 Uiso 1 1 calc R . .
N1 N 0.3624(5) 0.7666(4) 0.4129(10) 0.075(3) Uani 1 1 d . . .
N2 N 0.3011(4) 0.5115(4) 0.8834(9) 0.058(2) Uani 1 1 d . . .
N3 N 0.0251(4) 0.4218(4) 0.8915(9) 0.057(2) Uani 1 1 d . . .

loop_
_atom_site_aniso_label
_atom_site_aniso_U_11
_atom_site_aniso_U_22
_atom_site_aniso_U_33
_atom_site_aniso_U_23
_atom_site_aniso_U_13
_atom_site_aniso_U_12
Zn 0.0591(7) 0.0477(7) 0.0320(6) 0.0006(5) 0.0001(5) -0.0054(5)
O1 0.068(5) 0.073(5) 0.036(4) 0.013(4) -0.001(4) -0.011(4)
O01 0.164(14) 0.27(2) 0.160(15) 0.001(14) 0.041(11) -0.059(14)
O2 0.065(6) 0.108(7) 0.061(5) 0.028(5) -0.010(4) 0.007(5)
O02 0.38(4) 0.35(4) 0.29(3) 0.04(2) -0.04(3) 0.19(3)
O3 0.219(18) 0.52(4) 0.197(17) -0.28(2) 0.118(14) -0.24(2)
O03 0.32(4) 0.51(6) 2.0(2) 0.89(11) 0.22(7) 0.08(4)
O4 0.106(7) 0.137(9) 0.059(6) -0.047(6) 0.029(6) -0.006(6)
I1 0.337(2) 0.0540(6) 0.0521(6) 0.0031(4) 0.0337(8) 0.0536(9)
I2 0.0888(6) 0.0980(7) 0.0422(5) 0.0186(4) -0.0092(4) 0.0161(5)
I3 0.1112(8) 0.0776(6) 0.0448(5) -0.0255(4) -0.0069(4) 0.0024(5)
C1 0.068(8) 0.048(6) 0.036(5) -0.002(5) -0.004(5) 0.002(5)
C2 0.053(6) 0.042(5) 0.026(4) 0.002(4) 0.008(4) -0.001(4)
C3 0.073(7) 0.036(5) 0.028(5) 0.002(4) 0.011(5) -0.006(4)
C4 0.048(6) 0.053(6) 0.029(5) -0.006(4) 0.000(4) -0.008(4)
C5 0.066(8) 0.073(8) 0.046(7) -0.014(6) 0.004(6) -0.010(6)
C6 0.049(6) 0.056(6) 0.027(5) 0.008(4) 0.003(4) -0.003(4)
C7 0.057(6) 0.045(6) 0.036(5) -0.001(5) 0.004(5) -0.003(4)
C8 0.038(5) 0.060(7) 0.032(5) 0.001(5) 0.001(4) -0.009(4)
C9 0.066(8) 0.072(8) 0.040(6) -0.004(5) 0.008(5) -0.012(6)
C10 0.068(8) 0.064(7) 0.048(6) -0.005(6) 0.000(6) -0.002(6)
C11 0.062(7) 0.067(7) 0.043(6) -0.004(5) 0.009(5) -0.009(5)
C12 0.078(9) 0.155(14) 0.048(7) 0.010(9) -0.002(7) -0.042(9)
C13 0.093(10) 0.117(11) 0.048(7) 0.010(8) -0.013(7) -0.051(9)
C14 0.069(9) 0.124(12) 0.047(7) 0.001(7) -0.008(6) -0.022(8)
C15 0.069(8) 0.110(10) 0.043(7) -0.011(7) 0.005(6) -0.019(7)
C16 0.061(7) 0.056(7) 0.047(6) 0.002(5) 0.001(5) -0.007(5)
C17 0.084(9) 0.106(10) 0.047(7) -0.019(7) 0.014(7) -0.021(8)
C18 0.069(8) 0.087(9) 0.063(8) -0.012(7) 0.023(7) -0.012(6)
N1 0.107(8) 0.057(6) 0.063(6) 0.007(5) 0.021(6) 0.008(5)
N2 0.066(6) 0.068(6) 0.040(5) -0.002(4) 0.000(4) -0.019(5)
N3 0.061(6) 0.071(6) 0.039(5) 0.005(5) 0.004(4) -0.006(4)

_geom_special_details            
;
All esds (except the esd in the dihedral angle between two l.s. planes)
are estimated using the full covariance matrix. The cell esds are taken
into account individually in the estimation of esds in distances, angles
and torsion angles; correlations between esds in cell parameters are only
used when they are defined by crystal symmetry. An approximate (isotropic)
treatment of cell esds is used for estimating esds involving l.s. planes.
;

loop_
_geom_bond_atom_site_label_1
_geom_bond_atom_site_label_2
_geom_bond_distance
_geom_bond_site_symmetry_2
_geom_bond_publ_flag
Zn O1 1.934(7) . ?
Zn O4 1.997(9) 1_556 ?
Zn N3 2.039(9) 4 ?
Zn N2 2.083(9) . ?
Zn O3 2.380(13) 1_556 ?
Zn C5 2.569(12) 1_556 ?
O1 C1 1.274(13) . ?
O2 C1 1.221(13) . ?
O3 C5 1.127(16) . ?
O3 Zn 2.380(13) 1_554 ?
O4 C5 1.129(13) . ?
O4 Zn 1.997(9) 1_554 ?
I1 C3 2.081(10) . ?
I2 C6 2.102(9) . ?
I3 C8 2.088(9) . ?
C1 C2 1.525(14) . ?
C2 C8 1.389(13) . ?
C2 C3 1.393(12) . ?
C3 C4 1.379(13) . ?
C4 C6 1.408(14) . ?
C4 C5 1.515(14) . ?
C5 Zn 2.569(12) 1_554 ?
C6 C7 1.397(13) . ?
C7 N1 1.364(13) . ?
C7 C8 1.403(13) . ?
C9 N2 1.325(13) . ?
C9 C10 1.388(16) . ?
C9 H9 0.9300 . ?
C10 C11 1.389(15) . ?
C10 H10 0.9300 . ?
C11 C12 1.379(16) . ?
C11 C16 1.496(15) . ?
C12 C13 1.363(17) . ?
C12 H12 0.9300 . ?
C13 N2 1.345(14) . ?
C13 H13 0.9300 . ?
C14 N3 1.337(15) . ?
C14 C15 1.359(16) . ?
C14 H14 0.9300 . ?
C15 C16 1.365(15) . ?
C15 H15 0.9300 . ?
C16 C17 1.394(15) . ?
C17 C18 1.368(17) . ?
C17 H17 0.9300 . ?
C18 N3 1.323(15) . ?
C18 H18 0.9300 . ?
N3 Zn 2.039(9) 3 ?

loop_
_geom_angle_atom_site_label_1
_geom_angle_atom_site_label_2
_geom_angle_atom_site_label_3
_geom_angle
_geom_angle_site_symmetry_1
_geom_angle_site_symmetry_3
_geom_angle_publ_flag
O1 Zn O4 115.4(4) . 1_556 ?
O1 Zn N3 109.2(3) . 4 ?
O4 Zn N3 106.7(4) 1_556 4 ?
O1 Zn N2 96.5(3) . . ?
O4 Zn N2 130.3(4) 1_556 . ?
N3 Zn N2 96.4(4) 4 . ?
O1 Zn O3 129.9(8) . 1_556 ?
O4 Zn O3 50.8(4) 1_556 1_556 ?
N3 Zn O3 120.9(8) 4 1_556 ?
N2 Zn O3 79.5(4) . 1_556 ?
O1 Zn C5 126.3(4) . 1_556 ?
O4 Zn C5 24.8(4) 1_556 1_556 ?
N3 Zn C5 115.9(4) 4 1_556 ?
N2 Zn C5 105.5(4) . 1_556 ?
O3 Zn C5 26.0(4) 1_556 1_556 ?
C1 O1 Zn 125.5(7) . . ?
C5 O3 Zn 86.4(10) . 1_554 ?
C5 O4 Zn 107.2(9) . 1_554 ?
O2 C1 O1 126.3(10) . . ?
O2 C1 C2 121.9(10) . . ?
O1 C1 C2 111.8(9) . . ?
C8 C2 C3 119.7(8) . . ?
C8 C2 C1 118.9(8) . . ?
C3 C2 C1 121.3(8) . . ?
C4 C3 C2 120.7(9) . . ?
C4 C3 I1 120.1(7) . . ?
C2 C3 I1 119.2(7) . . ?
C3 C4 C6 118.8(8) . . ?
C3 C4 C5 121.8(9) . . ?
C6 C4 C5 119.2(9) . . ?
O3 C5 O4 115.6(14) . . ?
O3 C5 C4 119.3(12) . . ?
O4 C5 C4 125.1(12) . . ?
O3 C5 Zn 67.6(9) . 1_554 ?
O4 C5 Zn 48.0(7) . 1_554 ?
C4 C5 Zn 173.0(9) . 1_554 ?
C7 C6 C4 122.1(8) . . ?
C7 C6 I2 117.1(7) . . ?
C4 C6 I2 120.8(7) . . ?
N1 C7 C6 121.7(9) . . ?
N1 C7 C8 121.1(9) . . ?
C6 C7 C8 117.1(9) . . ?
C2 C8 C7 121.6(9) . . ?
C2 C8 I3 120.0(7) . . ?
C7 C8 I3 118.3(7) . . ?
N2 C9 C10 123.2(10) . . ?
N2 C9 H9 118.4 . . ?
C10 C9 H9 118.4 . . ?
C9 C10 C11 119.1(11) . . ?
C9 C10 H10 120.5 . . ?
C11 C10 H10 120.5 . . ?
C12 C11 C10 117.4(11) . . ?
C12 C11 C16 121.7(10) . . ?
C10 C11 C16 120.9(10) . . ?
C13 C12 C11 119.8(12) . . ?
C13 C12 H12 120.1 . . ?
C11 C12 H12 120.1 . . ?
N2 C13 C12 123.4(12) . . ?
N2 C13 H13 118.3 . . ?
C12 C13 H13 118.3 . . ?
N3 C14 C15 123.5(12) . . ?
N3 C14 H14 118.2 . . ?
C15 C14 H14 118.2 . . ?
C14 C15 C16 120.0(11) . . ?
C14 C15 H15 120.0 . . ?
C16 C15 H15 120.0 . . ?
C15 C16 C17 116.9(11) . . ?
C15 C16 C11 122.9(10) . . ?
C17 C16 C11 120.2(10) . . ?
C18 C17 C16 119.3(12) . . ?
C18 C17 H17 120.3 . . ?
C16 C17 H17 120.3 . . ?
N3 C18 C17 123.4(12) . . ?
N3 C18 H18 118.3 . . ?
C17 C18 H18 118.3 . . ?
C9 N2 C13 117.0(10) . . ?
C9 N2 Zn 123.4(7) . . ?
C13 N2 Zn 119.3(7) . . ?
C18 N3 C14 116.7(10) . . ?
C18 N3 Zn 123.3(8) . 3 ?
C14 N3 Zn 118.6(8) . 3 ?

loop_
_geom_torsion_atom_site_label_1
_geom_torsion_atom_site_label_2
_geom_torsion_atom_site_label_3
_geom_torsion_atom_site_label_4
_geom_torsion
_geom_torsion_site_symmetry_1
_geom_torsion_site_symmetry_2
_geom_torsion_site_symmetry_3
_geom_torsion_site_symmetry_4
_geom_torsion_publ_flag
O4 Zn O1 C1 56.1(9) 1_556 . . . ?
N3 Zn O1 C1 -64.0(9) 4 . . . ?
N2 Zn O1 C1 -163.1(8) . . . . ?
O3 Zn O1 C1 115.1(9) 1_556 . . . ?
C5 Zn O1 C1 82.3(9) 1_556 . . . ?
Zn O1 C1 O2 6.6(16) . . . . ?
Zn O1 C1 C2 -174.4(6) . . . . ?
O2 C1 C2 C8 -94.8(12) . . . . ?
O1 C1 C2 C8 86.1(11) . . . . ?
O2 C1 C2 C3 88.3(13) . . . . ?
O1 C1 C2 C3 -90.8(12) . . . . ?
C8 C2 C3 C4 -0.8(15) . . . . ?
C1 C2 C3 C4 176.0(9) . . . . ?
C8 C2 C3 I1 177.7(7) . . . . ?
C1 C2 C3 I1 -5.4(13) . . . . ?
C2 C3 C4 C6 -2.1(14) . . . . ?
I1 C3 C4 C6 179.4(7) . . . . ?
C2 C3 C4 C5 -175.5(10) . . . . ?
I1 C3 C4 C5 6.0(13) . . . . ?
Zn O3 C5 O4 0.7(19) 1_554 . . . ?
Zn O3 C5 C4 -179.1(11) 1_554 . . . ?
Zn O4 C5 O3 -1(2) 1_554 . . . ?
Zn O4 C5 C4 179.0(10) 1_554 . . . ?
C3 C4 C5 O3 88(2) . . . . ?
C6 C4 C5 O3 -85(2) . . . . ?
C3 C4 C5 O4 -91.7(16) . . . . ?
C6 C4 C5 O4 94.9(16) . . . . ?
C3 C4 C5 Zn -85(7) . . . 1_554 ?
C6 C4 C5 Zn 101(7) . . . 1_554 ?
C3 C4 C6 C7 2.8(15) . . . . ?
C5 C4 C6 C7 176.4(10) . . . . ?
C3 C4 C6 I2 -178.7(7) . . . . ?
C5 C4 C6 I2 -5.1(13) . . . . ?
C4 C6 C7 N1 176.2(10) . . . . ?
I2 C6 C7 N1 -2.4(14) . . . . ?
C4 C6 C7 C8 -0.5(15) . . . . ?
I2 C6 C7 C8 -179.1(7) . . . . ?
C3 C2 C8 C7 3.2(14) . . . . ?
C1 C2 C8 C7 -173.7(9) . . . . ?
C3 C2 C8 I3 -180.0(7) . . . . ?
C1 C2 C8 I3 3.1(12) . . . . ?
N1 C7 C8 C2 -179.2(9) . . . . ?
C6 C7 C8 C2 -2.5(14) . . . . ?
N1 C7 C8 I3 3.9(13) . . . . ?
C6 C7 C8 I3 -179.4(7) . . . . ?
N2 C9 C10 C11 -0.6(18) . . . . ?
C9 C10 C11 C12 0.0(18) . . . . ?
C9 C10 C11 C16 176.9(11) . . . . ?
C10 C11 C12 C13 -1(2) . . . . ?
C16 C11 C12 C13 -178.2(13) . . . . ?
C11 C12 C13 N2 3(2) . . . . ?
N3 C14 C15 C16 2(2) . . . . ?
C14 C15 C16 C17 -4(2) . . . . ?
C14 C15 C16 C11 174.2(13) . . . . ?
C12 C11 C16 C15 -153.0(14) . . . . ?
C10 C11 C16 C15 30.2(18) . . . . ?
C12 C11 C16 C17 24.8(19) . . . . ?
C10 C11 C16 C17 -152.0(12) . . . . ?
C15 C16 C17 C18 4(2) . . . . ?
C11 C16 C17 C18 -173.4(12) . . . . ?
C16 C17 C18 N3 -4(2) . . . . ?
C10 C9 N2 C13 2.4(18) . . . . ?
C10 C9 N2 Zn -171.7(9) . . . . ?
C12 C13 N2 C9 -4(2) . . . . ?
C12 C13 N2 Zn 170.5(12) . . . . ?
O1 Zn N2 C9 7.3(10) . . . . ?
O4 Zn N2 C9 138.9(9) 1_556 . . . ?
N3 Zn N2 C9 -102.9(10) 4 . . . ?
O3 Zn N2 C9 136.8(12) 1_556 . . . ?
C5 Zn N2 C9 137.9(9) 1_556 . . . ?
O1 Zn N2 C13 -166.6(10) . . . . ?
O4 Zn N2 C13 -35.1(12) 1_556 . . . ?
N3 Zn N2 C13 83.1(10) 4 . . . ?
O3 Zn N2 C13 -37.2(13) 1_556 . . . ?
C5 Zn N2 C13 -36.0(11) 1_556 . . . ?
C17 C18 N3 C14 2(2) . . . . ?
C17 C18 N3 Zn 168.1(11) . . . 3 ?
C15 C14 N3 C18 -1(2) . . . . ?
C15 C14 N3 Zn -167.8(12) . . . 3 ?

_diffrn_measured_fraction_theta_max 0.999
_diffrn_reflns_theta_full        27.47
_diffrn_measured_fraction_theta_full 0.999
_refine_diff_density_max         2.838
_refine_diff_density_min         -2.389
_refine_diff_density_rms         0.334
