####################################################################### 
# 
# This file contains crystal structure data downloaded from the 
# Cambridge Structural Database (CSD) hosted by the Cambridge 
# Crystallographic Data Centre (CCDC).
# 
# Full information about CCDC data access policies and citation 
# guidelines are available at http://www.ccdc.cam.ac.uk/access/V1 
# 
# Audit and citation data items may have been added by the CCDC. 
# Please retain this information to preserve the provenance of 
# this file and to allow appropriate attribution of the data. 
# 
#######################################################################

data_080702b
_audit_block_doi                 10.5517/ccrynht
_database_code_depnum_ccdc_archive 'CCDC 713697'
loop_
_citation_id
_citation_doi
_citation_year
1 10.1021/ja805920t 2008
_audit_update_record             
;
2008-12-12 deposited with the CCDC.	2024-07-13 downloaded from the CCDC.
;

_audit_creation_method           SHELXL-97
_chemical_name_systematic        
;
?
;
_chemical_name_common            ?
_chemical_melting_point          ?
_chemical_formula_moiety         ?
_chemical_formula_sum            'C18 H16 I3 N3 O7 Zn'
_chemical_formula_weight         832.41

loop_
_atom_type_symbol
_atom_type_description
_atom_type_scat_dispersion_real
_atom_type_scat_dispersion_imag
_atom_type_scat_source
C C 0.0033 0.0016 'International Tables Vol C Tables 4.2.6.8 and 6.1.1.4'
H H 0.0000 0.0000 'International Tables Vol C Tables 4.2.6.8 and 6.1.1.4'
N N 0.0061 0.0033 'International Tables Vol C Tables 4.2.6.8 and 6.1.1.4'
O O 0.0106 0.0060 'International Tables Vol C Tables 4.2.6.8 and 6.1.1.4'
Zn Zn 0.2839 1.4301 'International Tables Vol C Tables 4.2.6.8 and 6.1.1.4'
I I -0.4742 1.8119 'International Tables Vol C Tables 4.2.6.8 and 6.1.1.4'

_symmetry_cell_setting           tetragonal
_symmetry_space_group_name_H-M   P4/n

loop_
_symmetry_equiv_pos_as_xyz
'x, y, z'
'-x+1/2, -y+1/2, z'
'-y+1/2, x, z'
'y, -x+1/2, z'
'-x, -y, -z'
'x-1/2, y-1/2, -z'
'y-1/2, -x, -z'
'-y, x-1/2, -z'

_cell_length_a                   24.3373(3)
_cell_length_b                   24.3373(3)
_cell_length_c                   9.5814(3)
_cell_angle_alpha                90.00
_cell_angle_beta                 90.00
_cell_angle_gamma                90.00
_cell_volume                     5675.1(2)
_cell_formula_units_Z            8
_cell_measurement_temperature    298(2)
_cell_measurement_reflns_used    4718
_cell_measurement_theta_min      2.65
_cell_measurement_theta_max      24.11

_exptl_crystal_description       prism
_exptl_crystal_colour            yellow
_exptl_crystal_size_max          0.30
_exptl_crystal_size_mid          0.10
_exptl_crystal_size_min          0.10
_exptl_crystal_density_meas      ?
_exptl_crystal_density_diffrn    1.949
_exptl_crystal_density_method    'not measured'
_exptl_crystal_F_000             3120
_exptl_absorpt_coefficient_mu    4.166
_exptl_absorpt_correction_type   multi-scan
_exptl_absorpt_correction_T_min  0.3679
_exptl_absorpt_correction_T_max  0.6807
_exptl_absorpt_process_details   ?

_exptl_special_details           
;
?
;

_diffrn_ambient_temperature      298(2)
_diffrn_radiation_wavelength     0.71073
_diffrn_radiation_type           MoK\a
_diffrn_radiation_source         'fine-focus sealed tube'
_diffrn_radiation_monochromator  graphite
_diffrn_measurement_device_type  ?
_diffrn_measurement_method       ?
_diffrn_detector_area_resol_mean ?
_diffrn_standards_number         ?
_diffrn_standards_interval_count ?
_diffrn_standards_interval_time  ?
_diffrn_standards_decay_%        ?
_diffrn_reflns_number            19549
_diffrn_reflns_av_R_equivalents  0.0364
_diffrn_reflns_av_sigmaI/netI    0.0487
_diffrn_reflns_limit_h_min       -26
_diffrn_reflns_limit_h_max       31
_diffrn_reflns_limit_k_min       -31
_diffrn_reflns_limit_k_max       28
_diffrn_reflns_limit_l_min       -5
_diffrn_reflns_limit_l_max       12
_diffrn_reflns_theta_min         1.18
_diffrn_reflns_theta_max         27.56
_reflns_number_total             6544
_reflns_number_gt                4054
_reflns_threshold_expression     >2sigma(I)

_computing_data_collection       ?
_computing_cell_refinement       ?
_computing_data_reduction        ?
_computing_structure_solution    'SHELXS-97 (Sheldrick, 1990)'
_computing_structure_refinement  'SHELXL-97 (Sheldrick, 1997)'
_computing_molecular_graphics    ?
_computing_publication_material  ?

_refine_special_details          
;
Refinement of F^2^ against ALL reflections. The weighted R-factor wR and
goodness of fit S are based on F^2^, conventional R-factors R are based
on F, with F set to zero for negative F^2^. The threshold expression of
F^2^ > 2sigma(F^2^) is used only for calculating R-factors(gt) etc. and is
not relevant to the choice of reflections for refinement. R-factors based
on F^2^ are statistically about twice as large as those based on F, and R-
factors based on ALL data will be even larger.
;

_refine_ls_structure_factor_coef Fsqd
_refine_ls_matrix_type           full
_refine_ls_weighting_scheme      calc
_refine_ls_weighting_details     
'calc w=1/[\s^2^(Fo^2^)+(0.1372P)^2^+31.6058P] where P=(Fo^2^+2Fc^2^)/3'
_atom_sites_solution_primary     direct
_atom_sites_solution_secondary   difmap
_atom_sites_solution_hydrogens   geom
_refine_ls_hydrogen_treatment    ?
_refine_ls_extinction_method     none
_refine_ls_extinction_coef       ?
_refine_ls_number_reflns         6544
_refine_ls_number_parameters     285
_refine_ls_number_restraints     0
_refine_ls_R_factor_all          0.1235
_refine_ls_R_factor_gt           0.0801
_refine_ls_wR_factor_ref         0.2688
_refine_ls_wR_factor_gt          0.2333
_refine_ls_goodness_of_fit_ref   1.070
_refine_ls_restrained_S_all      1.070
_refine_ls_shift/su_max          0.001
_refine_ls_shift/su_mean         0.000

loop_
_atom_site_label
_atom_site_type_symbol
_atom_site_fract_x
_atom_site_fract_y
_atom_site_fract_z
_atom_site_U_iso_or_equiv
_atom_site_adp_type
_atom_site_occupancy
_atom_site_symmetry_multiplicity
_atom_site_calc_flag
_atom_site_refinement_flags
_atom_site_disorder_assembly
_atom_site_disorder_group
Zn Zn 0.54648(5) 0.37935(5) 0.89962(11) 0.0454(3) Uani 1 1 d . . .
N1 N 0.7661(4) 0.3615(5) 0.4136(12) 0.079(3) Uani 1 1 d . . .
N2 N 0.5111(4) 0.3018(4) 0.8831(9) 0.058(2) Uani 1 1 d . . .
N3 N 0.4216(4) 0.0255(4) 0.8909(9) 0.057(2) Uani 1 1 d . . .
I1 I 0.51774(4) 0.42643(9) 0.38500(11) 0.1525(9) Uani 1 1 d . . .
I2 I 0.72498(4) 0.34383(4) 0.10450(8) 0.0763(3) Uani 1 1 d . . .
I3 I 0.72624(4) 0.39871(4) 0.71335(9) 0.0769(3) Uani 1 1 d . . .
O1 O 0.5811(3) 0.3796(3) 0.7179(7) 0.0600(19) Uani 1 1 d . . .
O01 O 0.6551(11) 0.5590(9) 0.6000(19) 0.196(9) Uani 1 1 d . . .
O2 O 0.5932(4) 0.4694(4) 0.6904(9) 0.074(2) Uani 1 1 d . . .
O02 O 0.7704(17) 0.5455(17) 0.614(3) 0.33(2) Uani 1 1 d . . .
O3 O 0.5767(13) 0.3377(9) 0.111(2) 0.32(2) Uani 1 1 d . . .
O03 O 0.841(6) 0.641(5) 0.684(12) 0.88(9) Uiso 1 1 d . . .
O4 O 0.5908(5) 0.4111(4) 0.0538(10) 0.094(3) Uani 1 1 d . . .
C1 C 0.5981(4) 0.4216(5) 0.6544(11) 0.050(2) Uani 1 1 d . . .
C2 C 0.6279(4) 0.4078(4) 0.5196(9) 0.042(2) Uani 1 1 d . . .
C3 C 0.6002(4) 0.4037(5) 0.3932(10) 0.047(2) Uani 1 1 d . . .
C4 C 0.6267(4) 0.3867(4) 0.2734(10) 0.044(2) Uani 1 1 d . . .
C5 C 0.5959(5) 0.3786(5) 0.1361(12) 0.060(3) Uani 1 1 d . . .
C6 C 0.6824(4) 0.3721(4) 0.2822(9) 0.044(2) Uani 1 1 d . . .
C7 C 0.7119(4) 0.3748(4) 0.4060(10) 0.045(2) Uani 1 1 d . . .
C8 C 0.6834(4) 0.3937(4) 0.5257(9) 0.043(2) Uani 1 1 d . . .
C9 C 0.5128(5) 0.2718(5) 0.7669(11) 0.060(3) Uani 1 1 d . . .
H9 H 0.5266 0.2879 0.6861 0.072 Uiso 1 1 calc R . .
C10 C 0.4950(5) 0.2176(5) 0.7608(13) 0.058(3) Uani 1 1 d . . .
H10 H 0.4963 0.1984 0.6769 0.070 Uiso 1 1 calc R . .
C11 C 0.4753(5) 0.1924(4) 0.8786(10) 0.053(2) Uani 1 1 d . . .
C12 C 0.4735(7) 0.2240(6) 0.9993(15) 0.088(5) Uani 1 1 d . . .
H12 H 0.4606 0.2084 1.0817 0.106 Uiso 1 1 calc R . .
C13 C 0.4902(7) 0.2773(6) 0.9988(14) 0.084(4) Uani 1 1 d . . .
H13 H 0.4873 0.2977 1.0805 0.101 Uiso 1 1 calc R . .
C14 C 0.4189(6) 0.0553(5) 0.7743(14) 0.075(4) Uani 1 1 d . . .
H14 H 0.4037 0.0391 0.6952 0.090 Uiso 1 1 calc R . .
C15 C 0.4374(6) 0.1087(6) 0.7646(13) 0.075(4) Uani 1 1 d . . .
H15 H 0.4359 0.1274 0.6799 0.090 Uiso 1 1 calc R . .
C16 C 0.4582(4) 0.1340(5) 0.8806(11) 0.053(2) Uani 1 1 d . . .
C17 C 0.4627(6) 0.1028(6) 1.0010(14) 0.079(4) Uani 1 1 d . . .
H17 H 0.4781 0.1177 1.0815 0.095 Uiso 1 1 calc R . .
C18 C 0.4440(6) 0.0493(5) 0.9990(14) 0.073(4) Uani 1 1 d . . .
H18 H 0.4476 0.0287 1.0803 0.087 Uiso 1 1 calc R . .

loop_
_atom_site_aniso_label
_atom_site_aniso_U_11
_atom_site_aniso_U_22
_atom_site_aniso_U_33
_atom_site_aniso_U_23
_atom_site_aniso_U_13
_atom_site_aniso_U_12
Zn 0.0465(6) 0.0589(7) 0.0308(6) 0.0009(5) 0.0007(4) -0.0052(5)
N1 0.057(6) 0.118(9) 0.063(7) 0.017(6) 0.004(5) 0.017(6)
N2 0.061(5) 0.068(6) 0.045(5) 0.000(4) -0.003(4) -0.018(4)
N3 0.075(6) 0.055(5) 0.042(5) 0.000(4) 0.001(4) -0.004(4)
I1 0.0525(5) 0.353(3) 0.0520(6) 0.0376(9) 0.0032(4) 0.0534(9)
I2 0.1003(7) 0.0872(6) 0.0414(5) -0.0095(4) 0.0191(4) 0.0159(5)
I3 0.0764(6) 0.1102(7) 0.0440(5) -0.0066(4) -0.0260(4) 0.0026(5)
O1 0.077(5) 0.070(5) 0.033(4) 0.002(3) 0.013(3) -0.010(4)
O01 0.27(3) 0.162(16) 0.154(17) 0.026(12) 0.003(15) -0.072(16)
O2 0.097(6) 0.066(5) 0.059(5) -0.012(4) 0.028(5) 0.006(4)
O02 0.35(4) 0.35(4) 0.29(4) -0.02(3) 0.04(3) -0.16(4)
O3 0.54(4) 0.218(19) 0.22(2) 0.131(17) -0.31(3) -0.25(3)
O4 0.131(9) 0.097(7) 0.053(5) 0.027(5) -0.042(6) -0.019(6)
C1 0.053(6) 0.066(7) 0.031(5) -0.002(5) 0.005(4) 0.004(5)
C2 0.048(5) 0.046(5) 0.031(4) 0.008(4) 0.003(4) 0.000(4)
C3 0.040(5) 0.072(6) 0.030(5) 0.011(4) -0.002(4) -0.003(4)
C4 0.053(5) 0.048(5) 0.031(5) 0.003(4) -0.007(4) -0.007(4)
C5 0.071(7) 0.071(7) 0.039(6) 0.005(5) -0.018(5) -0.013(6)
C6 0.060(6) 0.046(5) 0.025(4) 0.002(4) 0.005(4) 0.000(4)
C7 0.039(5) 0.056(5) 0.038(5) 0.002(4) -0.001(4) -0.005(4)
C8 0.052(5) 0.049(5) 0.029(5) 0.000(4) -0.004(4) -0.011(4)
C9 0.075(7) 0.067(7) 0.037(6) 0.008(5) 0.000(5) -0.015(6)
C10 0.063(6) 0.066(7) 0.047(6) -0.003(5) 0.002(5) -0.006(5)
C11 0.065(6) 0.058(6) 0.037(5) 0.003(4) 0.000(5) -0.008(5)
C12 0.132(13) 0.078(8) 0.056(8) -0.009(6) 0.025(8) -0.052(8)
C13 0.116(11) 0.087(9) 0.050(7) -0.009(7) 0.015(7) -0.038(8)
C14 0.114(11) 0.063(7) 0.049(7) -0.001(6) -0.009(7) -0.015(7)
C15 0.112(11) 0.074(8) 0.039(6) 0.006(6) -0.008(7) -0.020(7)
C16 0.054(6) 0.062(6) 0.043(6) 0.006(5) -0.003(5) -0.016(5)
C17 0.097(10) 0.086(9) 0.053(8) 0.016(7) -0.030(7) -0.020(7)
C18 0.091(9) 0.075(8) 0.052(7) 0.021(6) -0.016(6) -0.015(7)

_geom_special_details            
;
All esds (except the esd in the dihedral angle between two l.s. planes)
are estimated using the full covariance matrix. The cell esds are taken
into account individually in the estimation of esds in distances, angles
and torsion angles; correlations between esds in cell parameters are only
used when they are defined by crystal symmetry. An approximate (isotropic)
treatment of cell esds is used for estimating esds involving l.s. planes.
;

loop_
_geom_bond_atom_site_label_1
_geom_bond_atom_site_label_2
_geom_bond_distance
_geom_bond_site_symmetry_2
_geom_bond_publ_flag
Zn O1 1.934(7) . ?
Zn O4 1.986(10) 1_556 ?
Zn N3 2.032(9) 3 ?
Zn N2 2.081(9) . ?
Zn O3 2.383(14) 1_556 ?
Zn C5 2.565(11) 1_556 ?
N1 C7 1.359(14) . ?
N2 C9 1.333(14) . ?
N2 C13 1.356(15) . ?
N3 C18 1.307(16) . ?
N3 C14 1.333(15) . ?
N3 Zn 2.032(9) 4 ?
I1 C3 2.082(10) . ?
I2 C6 2.108(9) . ?
I3 C8 2.082(9) . ?
O1 C1 1.261(13) . ?
O2 C1 1.218(13) . ?
O3 C5 1.125(18) . ?
O3 Zn 2.383(14) 1_554 ?
O4 C5 1.125(14) . ?
O4 Zn 1.986(9) 1_554 ?
C1 C2 1.519(14) . ?
C2 C3 1.390(13) . ?
C2 C8 1.396(14) . ?
C3 C4 1.380(14) . ?
C4 C6 1.405(14) . ?
C4 C5 1.527(14) . ?
C5 Zn 2.565(11) 1_554 ?
C6 C7 1.388(13) . ?
C7 C8 1.418(13) . ?
C9 C10 1.390(17) . ?
C9 H9 0.9300 . ?
C10 C11 1.370(15) . ?
C10 H10 0.9300 . ?
C11 C12 1.389(17) . ?
C11 C16 1.483(15) . ?
C12 C13 1.360(19) . ?
C12 H12 0.9300 . ?
C13 H13 0.9300 . ?
C14 C15 1.380(17) . ?
C14 H14 0.9300 . ?
C15 C16 1.366(16) . ?
C15 H15 0.9300 . ?
C16 C17 1.385(16) . ?
C17 C18 1.380(19) . ?
C17 H17 0.9300 . ?
C18 H18 0.9300 . ?

loop_
_geom_angle_atom_site_label_1
_geom_angle_atom_site_label_2
_geom_angle_atom_site_label_3
_geom_angle
_geom_angle_site_symmetry_1
_geom_angle_site_symmetry_3
_geom_angle_publ_flag
O1 Zn O4 115.6(4) . 1_556 ?
O1 Zn N3 109.7(4) . 3 ?
O4 Zn N3 107.6(5) 1_556 3 ?
O1 Zn N2 96.6(3) . . ?
O4 Zn N2 129.4(4) 1_556 . ?
N3 Zn N2 95.7(4) 3 . ?
O1 Zn O3 129.3(10) . 1_556 ?
O4 Zn O3 50.6(5) 1_556 1_556 ?
N3 Zn O3 121.1(10) 3 1_556 ?
N2 Zn O3 78.8(4) . 1_556 ?
O1 Zn C5 126.2(4) . 1_556 ?
O4 Zn C5 24.7(4) 1_556 1_556 ?
N3 Zn C5 116.4(4) 3 1_556 ?
N2 Zn C5 104.7(4) . 1_556 ?
O3 Zn C5 25.9(4) 1_556 1_556 ?
C9 N2 C13 117.0(10) . . ?
C9 N2 Zn 123.2(7) . . ?
C13 N2 Zn 119.4(8) . . ?
C18 N3 C14 116.3(10) . . ?
C18 N3 Zn 124.1(8) . 4 ?
C14 N3 Zn 118.6(8) . 4 ?
C1 O1 Zn 125.5(7) . . ?
C5 O3 Zn 86.1(10) . 1_554 ?
C5 O4 Zn 107.9(9) . 1_554 ?
O2 C1 O1 127.3(10) . . ?
O2 C1 C2 119.9(10) . . ?
O1 C1 C2 112.8(9) . . ?
C3 C2 C8 119.3(9) . . ?
C3 C2 C1 121.7(9) . . ?
C8 C2 C1 118.7(8) . . ?
C4 C3 C2 121.3(9) . . ?
C4 C3 I1 119.9(7) . . ?
C2 C3 I1 118.7(7) . . ?
C3 C4 C6 118.5(9) . . ?
C3 C4 C5 121.8(9) . . ?
C6 C4 C5 119.5(9) . . ?
O4 C5 O3 115.4(13) . . ?
O4 C5 C4 124.5(11) . . ?
O3 C5 C4 120.1(12) . . ?
O4 C5 Zn 47.5(7) . 1_554 ?
O3 C5 Zn 67.9(8) . 1_554 ?
C4 C5 Zn 172.0(8) . 1_554 ?
C7 C6 C4 122.6(9) . . ?
C7 C6 I2 116.8(7) . . ?
C4 C6 I2 120.6(7) . . ?
N1 C7 C6 122.4(9) . . ?
N1 C7 C8 120.6(9) . . ?
C6 C7 C8 117.0(8) . . ?
C2 C8 C7 121.3(8) . . ?
C2 C8 I3 120.5(7) . . ?
C7 C8 I3 118.2(7) . . ?
N2 C9 C10 123.0(10) . . ?
N2 C9 H9 118.5 . . ?
C10 C9 H9 118.5 . . ?
C11 C10 C9 119.9(11) . . ?
C11 C10 H10 120.0 . . ?
C9 C10 H10 120.0 . . ?
C10 C11 C12 116.7(11) . . ?
C10 C11 C16 122.5(10) . . ?
C12 C11 C16 120.7(10) . . ?
C13 C12 C11 121.0(12) . . ?
C13 C12 H12 119.5 . . ?
C11 C12 H12 119.5 . . ?
N2 C13 C12 122.3(12) . . ?
N2 C13 H13 118.9 . . ?
C12 C13 H13 118.9 . . ?
N3 C14 C15 123.6(12) . . ?
N3 C14 H14 118.2 . . ?
C15 C14 H14 118.2 . . ?
C16 C15 C14 119.3(12) . . ?
C16 C15 H15 120.3 . . ?
C14 C15 H15 120.3 . . ?
C15 C16 C17 117.5(11) . . ?
C15 C16 C11 121.7(10) . . ?
C17 C16 C11 120.8(10) . . ?
C18 C17 C16 118.6(12) . . ?
C18 C17 H17 120.7 . . ?
C16 C17 H17 120.7 . . ?
N3 C18 C17 124.6(12) . . ?
N3 C18 H18 117.7 . . ?
C17 C18 H18 117.7 . . ?

loop_
_geom_torsion_atom_site_label_1
_geom_torsion_atom_site_label_2
_geom_torsion_atom_site_label_3
_geom_torsion_atom_site_label_4
_geom_torsion
_geom_torsion_site_symmetry_1
_geom_torsion_site_symmetry_2
_geom_torsion_site_symmetry_3
_geom_torsion_site_symmetry_4
_geom_torsion_publ_flag
O1 Zn N2 C9 -5.6(10) . . . . ?
O4 Zn N2 C9 -136.7(10) 1_556 . . . ?
N3 Zn N2 C9 105.0(10) 3 . . . ?
O3 Zn N2 C9 -134.4(14) 1_556 . . . ?
C5 Zn N2 C9 -135.8(10) 1_556 . . . ?
O1 Zn N2 C13 167.1(11) . . . . ?
O4 Zn N2 C13 35.9(13) 1_556 . . . ?
N3 Zn N2 C13 -82.4(11) 3 . . . ?
O3 Zn N2 C13 38.3(14) 1_556 . . . ?
C5 Zn N2 C13 36.8(12) 1_556 . . . ?
O4 Zn O1 C1 -58.2(10) 1_556 . . . ?
N3 Zn O1 C1 63.5(9) 3 . . . ?
N2 Zn O1 C1 162.0(9) . . . . ?
O3 Zn O1 C1 -117.1(10) 1_556 . . . ?
C5 Zn O1 C1 -84.3(10) 1_556 . . . ?
Zn O1 C1 O2 -4.8(17) . . . . ?
Zn O1 C1 C2 174.9(6) . . . . ?
O2 C1 C2 C3 -90.4(14) . . . . ?
O1 C1 C2 C3 89.8(12) . . . . ?
O2 C1 C2 C8 96.0(13) . . . . ?
O1 C1 C2 C8 -83.7(12) . . . . ?
C8 C2 C3 C4 -1.1(15) . . . . ?
C1 C2 C3 C4 -174.6(9) . . . . ?
C8 C2 C3 I1 -178.8(7) . . . . ?
C1 C2 C3 I1 7.7(13) . . . . ?
C2 C3 C4 C6 1.8(15) . . . . ?
I1 C3 C4 C6 179.5(7) . . . . ?
C2 C3 C4 C5 176.1(10) . . . . ?
I1 C3 C4 C5 -6.1(13) . . . . ?
Zn O4 C5 O3 2(3) 1_554 . . . ?
Zn O4 C5 C4 -178.9(10) 1_554 . . . ?
Zn O3 C5 O4 -1(2) 1_554 . . . ?
Zn O3 C5 C4 179.2(12) 1_554 . . . ?
C3 C4 C5 O4 91.8(17) . . . . ?
C6 C4 C5 O4 -93.9(17) . . . . ?
C3 C4 C5 O3 -89(3) . . . . ?
C6 C4 C5 O3 86(3) . . . . ?
C3 C4 C5 Zn 86(6) . . . 1_554 ?
C6 C4 C5 Zn -100(6) . . . 1_554 ?
C3 C4 C6 C7 -1.0(15) . . . . ?
C5 C4 C6 C7 -175.5(10) . . . . ?
C3 C4 C6 I2 178.4(7) . . . . ?
C5 C4 C6 I2 3.9(12) . . . . ?
C4 C6 C7 N1 -178.9(10) . . . . ?
I2 C6 C7 N1 1.6(14) . . . . ?
C4 C6 C7 C8 -0.4(15) . . . . ?
I2 C6 C7 C8 -179.8(7) . . . . ?
C3 C2 C8 C7 -0.3(14) . . . . ?
C1 C2 C8 C7 173.3(9) . . . . ?
C3 C2 C8 I3 -179.5(7) . . . . ?
C1 C2 C8 I3 -5.8(12) . . . . ?
N1 C7 C8 C2 179.6(10) . . . . ?
C6 C7 C8 C2 1.1(14) . . . . ?
N1 C7 C8 I3 -1.2(14) . . . . ?
C6 C7 C8 I3 -179.8(7) . . . . ?
C13 N2 C9 C10 -0.6(19) . . . . ?
Zn N2 C9 C10 172.2(9) . . . . ?
N2 C9 C10 C11 -1.2(19) . . . . ?
C9 C10 C11 C12 1.3(18) . . . . ?
C9 C10 C11 C16 -177.0(11) . . . . ?
C10 C11 C12 C13 0(2) . . . . ?
C16 C11 C12 C13 178.6(14) . . . . ?
C9 N2 C13 C12 2(2) . . . . ?
Zn N2 C13 C12 -170.8(13) . . . . ?
C11 C12 C13 N2 -2(3) . . . . ?
C18 N3 C14 C15 -1(2) . . . . ?
Zn N3 C14 C15 168.1(12) 4 . . . ?
N3 C14 C15 C16 -2(2) . . . . ?
C14 C15 C16 C17 4(2) . . . . ?
C14 C15 C16 C11 -176.0(13) . . . . ?
C10 C11 C16 C15 -29.8(19) . . . . ?
C12 C11 C16 C15 151.9(14) . . . . ?
C10 C11 C16 C17 150.1(13) . . . . ?
C12 C11 C16 C17 -28.2(19) . . . . ?
C15 C16 C17 C18 -3(2) . . . . ?
C11 C16 C17 C18 177.3(13) . . . . ?
C14 N3 C18 C17 3(2) . . . . ?
Zn N3 C18 C17 -166.0(12) 4 . . . ?
C16 C17 C18 N3 -1(2) . . . . ?

_diffrn_measured_fraction_theta_max 0.997
_diffrn_reflns_theta_full        27.56
_diffrn_measured_fraction_theta_full 0.997
_refine_diff_density_max         3.520
_refine_diff_density_min         -3.091
_refine_diff_density_rms         0.354
