####################################################################### 
# 
# This file contains crystal structure data downloaded from the 
# Cambridge Structural Database (CSD) hosted by the Cambridge 
# Crystallographic Data Centre (CCDC).
# 
# Full information about CCDC data access policies and citation 
# guidelines are available at http://www.ccdc.cam.ac.uk/access/V1 
# 
# Audit and citation data items may have been added by the CCDC. 
# Please retain this information to preserve the provenance of 
# this file and to allow appropriate attribution of the data. 
# 
#######################################################################

data_080702d
_audit_block_doi                 10.5517/ccryngs
_database_code_depnum_ccdc_archive 'CCDC 713696'
loop_
_citation_id
_citation_doi
_citation_year
1 10.1021/ja805920t 2008
_audit_update_record             
;
2008-12-12 deposited with the CCDC.	2024-07-13 downloaded from the CCDC.
;

_audit_creation_method           SHELXL-97
_chemical_name_systematic        
;
?
;
_chemical_name_common            ?
_chemical_melting_point          ?
_chemical_formula_moiety         ?
_chemical_formula_sum            'C18 H16 I3 N3 O7 Zn'
_chemical_formula_weight         832.41

loop_
_atom_type_symbol
_atom_type_description
_atom_type_scat_dispersion_real
_atom_type_scat_dispersion_imag
_atom_type_scat_source
C C 0.0033 0.0016 'International Tables Vol C Tables 4.2.6.8 and 6.1.1.4'
H H 0.0000 0.0000 'International Tables Vol C Tables 4.2.6.8 and 6.1.1.4'
N N 0.0061 0.0033 'International Tables Vol C Tables 4.2.6.8 and 6.1.1.4'
O O 0.0106 0.0060 'International Tables Vol C Tables 4.2.6.8 and 6.1.1.4'
Zn Zn 0.2839 1.4301 'International Tables Vol C Tables 4.2.6.8 and 6.1.1.4'
I I -0.4742 1.8119 'International Tables Vol C Tables 4.2.6.8 and 6.1.1.4'

_symmetry_cell_setting           tetragonal
_symmetry_space_group_name_H-M   p4/n

loop_
_symmetry_equiv_pos_as_xyz
'x, y, z'
'-x+1/2, -y+1/2, z'
'-y+1/2, x, z'
'y, -x+1/2, z'
'-x, -y, -z'
'x-1/2, y-1/2, -z'
'y-1/2, -x, -z'
'-y, x-1/2, -z'

_cell_length_a                   24.3030(4)
_cell_length_b                   24.3030(4)
_cell_length_c                   9.5709(5)
_cell_angle_alpha                90.00
_cell_angle_beta                 90.00
_cell_angle_gamma                90.00
_cell_volume                     5652.9(3)
_cell_formula_units_Z            8
_cell_measurement_temperature    298(2)
_cell_measurement_reflns_used    2864
_cell_measurement_theta_min      2.37
_cell_measurement_theta_max      24.11

_exptl_crystal_description       prism
_exptl_crystal_colour            yellow
_exptl_crystal_size_max          0.20
_exptl_crystal_size_mid          0.10
_exptl_crystal_size_min          0.05
_exptl_crystal_density_meas      ?
_exptl_crystal_density_diffrn    1.956
_exptl_crystal_density_method    'not measured'
_exptl_crystal_F_000             3120
_exptl_absorpt_coefficient_mu    4.182
_exptl_absorpt_correction_type   multi-scan
_exptl_absorpt_correction_T_min  0.4884
_exptl_absorpt_correction_T_max  0.8181
_exptl_absorpt_process_details   ?

_exptl_special_details           
;
?
;

_diffrn_ambient_temperature      298(2)
_diffrn_radiation_wavelength     0.71073
_diffrn_radiation_type           MoK\a
_diffrn_radiation_source         'fine-focus sealed tube'
_diffrn_radiation_monochromator  graphite
_diffrn_measurement_device_type  ?
_diffrn_measurement_method       ?
_diffrn_detector_area_resol_mean ?
_diffrn_standards_number         ?
_diffrn_standards_interval_count ?
_diffrn_standards_interval_time  ?
_diffrn_standards_decay_%        ?
_diffrn_reflns_number            17967
_diffrn_reflns_av_R_equivalents  0.1187
_diffrn_reflns_av_sigmaI/netI    0.2122
_diffrn_reflns_limit_h_min       -31
_diffrn_reflns_limit_h_max       22
_diffrn_reflns_limit_k_min       -31
_diffrn_reflns_limit_k_max       25
_diffrn_reflns_limit_l_min       -4
_diffrn_reflns_limit_l_max       12
_diffrn_reflns_theta_min         1.18
_diffrn_reflns_theta_max         27.56
_reflns_number_total             6510
_reflns_number_gt                2403
_reflns_threshold_expression     >2sigma(I)

_computing_data_collection       ?
_computing_cell_refinement       ?
_computing_data_reduction        ?
_computing_structure_solution    'SHELXS-97 (Sheldrick, 1990)'
_computing_structure_refinement  'SHELXL-97 (Sheldrick, 1997)'
_computing_molecular_graphics    ?
_computing_publication_material  ?

_refine_special_details          
;
Refinement of F^2^ against ALL reflections. The weighted R-factor wR and
goodness of fit S are based on F^2^, conventional R-factors R are based
on F, with F set to zero for negative F^2^. The threshold expression of
F^2^ > 2sigma(F^2^) is used only for calculating R-factors(gt) etc. and is
not relevant to the choice of reflections for refinement. R-factors based
on F^2^ are statistically about twice as large as those based on F, and R-
factors based on ALL data will be even larger.
;

_refine_ls_structure_factor_coef Fsqd
_refine_ls_matrix_type           full
_refine_ls_weighting_scheme      calc
_refine_ls_weighting_details     
'calc w=1/[\s^2^(Fo^2^)+(0.1887P)^2^+54.8205P] where P=(Fo^2^+2Fc^2^)/3'
_atom_sites_solution_primary     direct
_atom_sites_solution_secondary   difmap
_atom_sites_solution_hydrogens   geom
_refine_ls_hydrogen_treatment    ?
_refine_ls_extinction_method     none
_refine_ls_extinction_coef       ?
_refine_ls_number_reflns         6510
_refine_ls_number_parameters     289
_refine_ls_number_restraints     0
_refine_ls_R_factor_all          0.2814
_refine_ls_R_factor_gt           0.1333
_refine_ls_wR_factor_ref         0.4121
_refine_ls_wR_factor_gt          0.3399
_refine_ls_goodness_of_fit_ref   1.057
_refine_ls_restrained_S_all      1.057
_refine_ls_shift/su_max          0.210
_refine_ls_shift/su_mean         0.001

loop_
_atom_site_label
_atom_site_type_symbol
_atom_site_fract_x
_atom_site_fract_y
_atom_site_fract_z
_atom_site_U_iso_or_equiv
_atom_site_adp_type
_atom_site_occupancy
_atom_site_symmetry_multiplicity
_atom_site_calc_flag
_atom_site_refinement_flags
_atom_site_disorder_assembly
_atom_site_disorder_group
Zn Zn 0.54668(11) 0.37908(11) 0.9004(2) 0.0466(7) Uani 1 1 d . . .
I1 I 0.51818(10) 0.42732(19) 0.3843(2) 0.1658(18) Uani 1 1 d . . .
I2 I 0.72445(9) 0.34364(9) 0.10460(16) 0.0799(7) Uani 1 1 d . . .
I3 I 0.72664(8) 0.39823(9) 0.71400(18) 0.0833(8) Uani 1 1 d . . .
O1 O 0.5822(7) 0.3790(7) 0.7182(13) 0.059(4) Uani 1 1 d . . .
O01 O 0.6545(12) 0.5642(13) 0.615(3) 0.150(11) Uani 1 1 d . . .
O2 O 0.5950(8) 0.4688(8) 0.6935(16) 0.069(5) Uani 1 1 d . . .
O02 O 0.656(3) 0.673(4) 0.810(17) 0.97(16) Uani 1 1 d . . .
O3 O 0.5794(19) 0.3384(16) 0.109(3) 0.25(3) Uani 1 1 d . . .
O03 O 0.781(2) 0.556(2) 0.607(4) 0.25(2) Uani 1 1 d . . .
O4 O 0.5937(9) 0.4118(9) 0.055(2) 0.096(7) Uani 1 1 d . . .
C1 C 0.5974(9) 0.4210(9) 0.6514(18) 0.040(5) Uani 1 1 d . . .
C2 C 0.6287(7) 0.4074(8) 0.5188(17) 0.028(4) Uani 1 1 d . . .
C3 C 0.6001(9) 0.4042(11) 0.3986(19) 0.055(7) Uani 1 1 d . . .
C4 C 0.6275(11) 0.3854(10) 0.2725(19) 0.052(6) Uani 1 1 d . . .
C5 C 0.5962(10) 0.3795(11) 0.137(2) 0.048(6) Uani 1 1 d . . .
C6 C 0.6827(11) 0.3708(7) 0.2825(18) 0.040(6) Uani 1 1 d . . .
C7 C 0.7116(9) 0.3754(10) 0.410(2) 0.044(6) Uani 1 1 d . . .
C8 C 0.6848(8) 0.3934(8) 0.5248(17) 0.033(5) Uani 1 1 d . . .
C9 C 0.4920(12) 0.2778(11) 1.005(2) 0.072(8) Uani 1 1 d . . .
H9 H 0.4864 0.2992 1.0841 0.086 Uiso 1 1 calc R . .
C10 C 0.4792(14) 0.2216(13) 1.003(3) 0.098(11) Uani 1 1 d . . .
H10 H 0.4729 0.2037 1.0879 0.118 Uiso 1 1 calc R . .
C11 C 0.4755(10) 0.1914(10) 0.880(2) 0.055(7) Uani 1 1 d . . .
C12 C 0.4939(10) 0.2178(11) 0.760(2) 0.062(7) Uani 1 1 d . . .
H12 H 0.4954 0.1989 0.6759 0.074 Uiso 1 1 calc R . .
C13 C 0.5104(10) 0.2734(11) 0.7677(18) 0.062(7) Uani 1 1 d . . .
H13 H 0.5194 0.2912 0.6848 0.074 Uiso 1 1 calc R . .
C14 C 0.4203(13) 0.0544(14) 0.769(3) 0.089(10) Uani 1 1 d . . .
H14 H 0.4057 0.0378 0.6894 0.107 Uiso 1 1 calc R . .
C15 C 0.4374(12) 0.1071(11) 0.760(2) 0.068(8) Uani 1 1 d . . .
H15 H 0.4340 0.1267 0.6772 0.082 Uiso 1 1 calc R . .
C16 C 0.4603(11) 0.1319(10) 0.879(2) 0.060(7) Uani 1 1 d . . .
C17 C 0.4637(14) 0.1007(14) 1.007(2) 0.094(11) Uani 1 1 d . . .
H17 H 0.4781 0.1159 1.0880 0.113 Uiso 1 1 calc R . .
C18 C 0.4443(13) 0.0468(11) 1.003(3) 0.077(9) Uani 1 1 d . . .
H18 H 0.4462 0.0257 1.0837 0.092 Uiso 1 1 calc R . .
N1 N 0.7657(10) 0.3615(10) 0.417(2) 0.080(7) Uani 1 1 d . . .
N2 N 0.5136(8) 0.3007(9) 0.8812(18) 0.060(6) Uani 1 1 d . . .
N3 N 0.4235(10) 0.0244(9) 0.8897(17) 0.068(6) Uani 1 1 d . . .

loop_
_atom_site_aniso_label
_atom_site_aniso_U_11
_atom_site_aniso_U_22
_atom_site_aniso_U_33
_atom_site_aniso_U_23
_atom_site_aniso_U_13
_atom_site_aniso_U_12
Zn 0.0502(17) 0.0694(19) 0.0202(10) -0.0009(12) -0.0009(11) -0.0019(14)
I1 0.0719(16) 0.384(6) 0.0420(11) 0.0305(19) 0.0024(11) 0.063(2)
I2 0.1107(17) 0.0976(16) 0.0314(8) -0.0106(9) 0.0207(9) 0.0151(12)
I3 0.0859(15) 0.1298(19) 0.0342(9) -0.0057(10) -0.0294(9) 0.0016(12)
O1 0.090(12) 0.074(11) 0.012(6) 0.008(7) 0.003(7) -0.013(9)
O01 0.16(3) 0.17(3) 0.12(2) 0.050(19) 0.015(19) -0.03(2)
O2 0.092(14) 0.078(13) 0.038(9) -0.016(9) 0.003(9) -0.008(10)
O02 0.38(9) 0.52(11) 2.0(4) 0.97(19) 0.49(15) 0.19(8)
O3 0.40(6) 0.23(4) 0.12(3) 0.07(2) -0.20(3) -0.18(4)
O03 0.32(6) 0.32(6) 0.11(3) -0.02(3) -0.02(3) -0.01(4)
O4 0.133(19) 0.095(16) 0.060(12) 0.029(12) -0.040(12) -0.026(13)
C1 0.064(16) 0.047(15) 0.010(7) 0.002(9) 0.001(9) -0.012(12)
C2 0.022(11) 0.049(13) 0.014(7) 0.004(8) -0.007(7) 0.009(9)
C3 0.050(15) 0.10(2) 0.016(9) 0.007(11) 0.016(9) 0.003(13)
C4 0.070(18) 0.071(17) 0.014(9) -0.012(10) -0.019(10) -0.011(14)
C5 0.064(17) 0.053(16) 0.029(11) -0.004(11) -0.010(11) -0.023(13)
C6 0.088(19) 0.014(10) 0.019(8) 0.003(7) 0.019(11) -0.011(11)
C7 0.052(15) 0.061(15) 0.020(9) -0.003(9) -0.005(9) 0.002(12)
C8 0.051(14) 0.032(12) 0.015(8) 0.001(8) 0.010(8) -0.002(10)
C9 0.11(2) 0.066(19) 0.035(13) -0.004(12) 0.020(14) -0.037(17)
C10 0.16(3) 0.07(2) 0.060(19) -0.028(16) 0.03(2) -0.04(2)
C11 0.082(18) 0.057(16) 0.027(11) 0.023(10) -0.008(11) -0.033(13)
C12 0.074(18) 0.073(19) 0.038(13) -0.014(12) -0.005(12) -0.004(15)
C13 0.09(2) 0.09(2) 0.000(7) 0.002(9) -0.017(10) -0.015(15)
C14 0.12(3) 0.12(3) 0.030(13) 0.007(15) -0.012(15) -0.03(2)
C15 0.13(2) 0.063(18) 0.017(10) 0.007(11) -0.009(12) -0.020(17)
C16 0.09(2) 0.054(16) 0.037(12) 0.015(11) -0.020(12) 0.011(14)
C17 0.16(3) 0.11(3) 0.016(11) 0.004(13) -0.017(15) -0.01(2)
C18 0.13(3) 0.050(18) 0.051(16) 0.008(13) -0.004(16) -0.023(17)
N1 0.083(17) 0.11(2) 0.043(12) 0.029(12) 0.026(11) 0.040(15)
N2 0.074(15) 0.072(14) 0.033(10) -0.004(9) -0.012(10) -0.016(11)
N3 0.108(18) 0.080(16) 0.016(8) 0.000(9) 0.014(10) -0.015(13)

_geom_special_details            
;
All esds (except the esd in the dihedral angle between two l.s. planes)
are estimated using the full covariance matrix. The cell esds are taken
into account individually in the estimation of esds in distances, angles
and torsion angles; correlations between esds in cell parameters are only
used when they are defined by crystal symmetry. An approximate (isotropic)
treatment of cell esds is used for estimating esds involving l.s. planes.
;

loop_
_geom_bond_atom_site_label_1
_geom_bond_atom_site_label_2
_geom_bond_distance
_geom_bond_site_symmetry_2
_geom_bond_publ_flag
Zn O1 1.945(14) . ?
Zn O4 2.028(19) 1_556 ?
Zn N3 2.04(2) 3 ?
Zn N2 2.08(2) . ?
Zn O3 2.37(3) 1_556 ?
Zn C5 2.56(2) 1_556 ?
I1 C3 2.07(2) . ?
I2 C6 2.089(18) . ?
I3 C8 2.080(18) . ?
O1 C1 1.26(2) . ?
O2 C1 1.23(2) . ?
O3 C5 1.11(3) . ?
O3 Zn 2.37(3) 1_554 ?
O4 C5 1.11(3) . ?
O4 Zn 2.028(19) 1_554 ?
C1 C2 1.52(3) . ?
C2 C3 1.35(3) . ?
C2 C8 1.41(3) . ?
C3 C4 1.45(3) . ?
C4 C6 1.39(3) . ?
C4 C5 1.51(3) . ?
C5 Zn 2.56(2) 1_554 ?
C6 C7 1.41(3) . ?
C7 C8 1.35(3) . ?
C7 N1 1.36(3) . ?
C9 C10 1.40(4) . ?
C9 N2 1.41(3) . ?
C9 H9 0.9300 . ?
C10 C11 1.39(3) . ?
C10 H10 0.9300 . ?
C11 C12 1.39(3) . ?
C11 C16 1.49(3) . ?
C12 C13 1.41(3) . ?
C12 H12 0.9300 . ?
C13 N2 1.28(3) . ?
C13 H13 0.9300 . ?
C14 C15 1.35(4) . ?
C14 N3 1.37(3) . ?
C14 H14 0.9300 . ?
C15 C16 1.40(3) . ?
C15 H15 0.9300 . ?
C16 C17 1.44(3) . ?
C17 C18 1.39(4) . ?
C17 H17 0.9300 . ?
C18 N3 1.31(3) . ?
C18 H18 0.9300 . ?
N3 Zn 2.04(2) 4 ?

loop_
_geom_angle_atom_site_label_1
_geom_angle_atom_site_label_2
_geom_angle_atom_site_label_3
_geom_angle
_geom_angle_site_symmetry_1
_geom_angle_site_symmetry_3
_geom_angle_publ_flag
O1 Zn O4 113.7(8) . 1_556 ?
O1 Zn N3 109.3(7) . 3 ?
O4 Zn N3 107.9(9) 1_556 3 ?
O1 Zn N2 95.2(7) . . ?
O4 Zn N2 129.9(8) 1_556 . ?
N3 Zn N2 98.8(9) 3 . ?
O1 Zn O3 127.4(15) . 1_556 ?
O4 Zn O3 50.3(9) 1_556 1_556 ?
N3 Zn O3 123.3(14) 3 1_556 ?
N2 Zn O3 79.7(9) . 1_556 ?
O1 Zn C5 125.7(7) . 1_556 ?
O4 Zn C5 24.7(7) 1_556 1_556 ?
N3 Zn C5 116.1(8) 3 1_556 ?
N2 Zn C5 105.3(8) . 1_556 ?
O3 Zn C5 25.7(8) 1_556 1_556 ?
C1 O1 Zn 125.8(14) . . ?
C5 O3 Zn 87(2) . 1_554 ?
C5 O4 Zn 105.7(18) . 1_554 ?
O2 C1 O1 125.7(19) . . ?
O2 C1 C2 120.2(18) . . ?
O1 C1 C2 113.3(19) . . ?
C3 C2 C8 121.5(17) . . ?
C3 C2 C1 117.9(17) . . ?
C8 C2 C1 120.4(15) . . ?
C2 C3 C4 119(2) . . ?
C2 C3 I1 122.5(15) . . ?
C4 C3 I1 118.1(16) . . ?
C6 C4 C3 117.7(17) . . ?
C6 C4 C5 121(2) . . ?
C3 C4 C5 121(2) . . ?
O3 C5 O4 116(3) . . ?
O3 C5 C4 119(3) . . ?
O4 C5 C4 125(2) . . ?
O3 C5 Zn 67.1(17) . 1_554 ?
O4 C5 Zn 49.6(14) . 1_554 ?
C4 C5 Zn 174.2(18) . 1_554 ?
C4 C6 C7 121.3(17) . . ?
C4 C6 I2 119.6(15) . . ?
C7 C6 I2 119.1(18) . . ?
C8 C7 N1 120.3(19) . . ?
C8 C7 C6 119(2) . . ?
N1 C7 C6 120(2) . . ?
C7 C8 C2 120.7(18) . . ?
C7 C8 I3 119.6(15) . . ?
C2 C8 I3 119.7(12) . . ?
C10 C9 N2 117(2) . . ?
C10 C9 H9 121.3 . . ?
N2 C9 H9 121.3 . . ?
C11 C10 C9 122(3) . . ?
C11 C10 H10 118.9 . . ?
C9 C10 H10 118.9 . . ?
C12 C11 C10 116(2) . . ?
C12 C11 C16 121(2) . . ?
C10 C11 C16 122(2) . . ?
C11 C12 C13 120(2) . . ?
C11 C12 H12 120.2 . . ?
C13 C12 H12 120.2 . . ?
N2 C13 C12 124(2) . . ?
N2 C13 H13 118.0 . . ?
C12 C13 H13 118.0 . . ?
C15 C14 N3 123(2) . . ?
C15 C14 H14 118.7 . . ?
N3 C14 H14 118.7 . . ?
C14 C15 C16 119(2) . . ?
C14 C15 H15 120.6 . . ?
C16 C15 H15 120.6 . . ?
C15 C16 C17 119(2) . . ?
C15 C16 C11 121(2) . . ?
C17 C16 C11 119(2) . . ?
C18 C17 C16 117(2) . . ?
C18 C17 H17 121.6 . . ?
C16 C17 H17 121.6 . . ?
N3 C18 C17 123(2) . . ?
N3 C18 H18 118.6 . . ?
C17 C18 H18 118.6 . . ?
C13 N2 C9 119(2) . . ?
C13 N2 Zn 125.2(17) . . ?
C9 N2 Zn 115.6(15) . . ?
C18 N3 C14 120(2) . . ?
C18 N3 Zn 120.8(16) . 4 ?
C14 N3 Zn 117.6(18) . 4 ?

loop_
_geom_torsion_atom_site_label_1
_geom_torsion_atom_site_label_2
_geom_torsion_atom_site_label_3
_geom_torsion_atom_site_label_4
_geom_torsion
_geom_torsion_site_symmetry_1
_geom_torsion_site_symmetry_2
_geom_torsion_site_symmetry_3
_geom_torsion_site_symmetry_4
_geom_torsion_publ_flag
O4 Zn O1 C1 -62(2) 1_556 . . . ?
N3 Zn O1 C1 58.6(19) 3 . . . ?
N2 Zn O1 C1 159.9(18) . . . . ?
O3 Zn O1 C1 -119.1(19) 1_556 . . . ?
C5 Zn O1 C1 -87(2) 1_556 . . . ?
Zn O1 C1 O2 4(3) . . . . ?
Zn O1 C1 C2 174.4(12) . . . . ?
O2 C1 C2 C3 -96(3) . . . . ?
O1 C1 C2 C3 94(2) . . . . ?
O2 C1 C2 C8 91(3) . . . . ?
O1 C1 C2 C8 -80(2) . . . . ?
C8 C2 C3 C4 1(4) . . . . ?
C1 C2 C3 C4 -173(2) . . . . ?
C8 C2 C3 I1 -177.7(15) . . . . ?
C1 C2 C3 I1 8(3) . . . . ?
C2 C3 C4 C6 1(3) . . . . ?
I1 C3 C4 C6 179.1(16) . . . . ?
C2 C3 C4 C5 178(2) . . . . ?
I1 C3 C4 C5 -4(3) . . . . ?
Zn O3 C5 O4 -7(4) 1_554 . . . ?
Zn O3 C5 C4 -179(2) 1_554 . . . ?
Zn O4 C5 O3 9(5) 1_554 . . . ?
Zn O4 C5 C4 180(2) 1_554 . . . ?
C6 C4 C5 O3 82(4) . . . . ?
C3 C4 C5 O3 -95(4) . . . . ?
C6 C4 C5 O4 -89(4) . . . . ?
C3 C4 C5 O4 94(3) . . . . ?
C6 C4 C5 Zn -87(19) . . . 1_554 ?
C3 C4 C5 Zn 96(18) . . . 1_554 ?
C3 C4 C6 C7 -2(3) . . . . ?
C5 C4 C6 C7 -179(2) . . . . ?
C3 C4 C6 I2 -179.8(17) . . . . ?
C5 C4 C6 I2 3(3) . . . . ?
C4 C6 C7 C8 1(3) . . . . ?
I2 C6 C7 C8 179.5(15) . . . . ?
C4 C6 C7 N1 -179(2) . . . . ?
I2 C6 C7 N1 -1(3) . . . . ?
N1 C7 C8 C2 -180(2) . . . . ?
C6 C7 C8 C2 0(3) . . . . ?
N1 C7 C8 I3 -1(3) . . . . ?
C6 C7 C8 I3 178.4(14) . . . . ?
C3 C2 C8 C7 -1(3) . . . . ?
C1 C2 C8 C7 173(2) . . . . ?
C3 C2 C8 I3 -179.3(18) . . . . ?
C1 C2 C8 I3 -6(2) . . . . ?
N2 C9 C10 C11 -14(5) . . . . ?
C9 C10 C11 C12 10(5) . . . . ?
C9 C10 C11 C16 -178(3) . . . . ?
C10 C11 C12 C13 -5(4) . . . . ?
C16 C11 C12 C13 -177(2) . . . . ?
C11 C12 C13 N2 6(4) . . . . ?
N3 C14 C15 C16 1(5) . . . . ?
C14 C15 C16 C17 -1(5) . . . . ?
C14 C15 C16 C11 -175(3) . . . . ?
C12 C11 C16 C15 -33(4) . . . . ?
C10 C11 C16 C15 156(3) . . . . ?
C12 C11 C16 C17 154(3) . . . . ?
C10 C11 C16 C17 -17(4) . . . . ?
C15 C16 C17 C18 1(5) . . . . ?
C11 C16 C17 C18 174(3) . . . . ?
C16 C17 C18 N3 0(5) . . . . ?
C12 C13 N2 C9 -10(4) . . . . ?
C12 C13 N2 Zn 172.0(19) . . . . ?
C10 C9 N2 C13 14(4) . . . . ?
C10 C9 N2 Zn -168(2) . . . . ?
O1 Zn N2 C13 -14(2) . . . . ?
O4 Zn N2 C13 -141(2) 1_556 . . . ?
N3 Zn N2 C13 97(2) 3 . . . ?
O3 Zn N2 C13 -141(3) 1_556 . . . ?
C5 Zn N2 C13 -143(2) 1_556 . . . ?
O1 Zn N2 C9 168.0(19) . . . . ?
O4 Zn N2 C9 41(2) 1_556 . . . ?
N3 Zn N2 C9 -81.5(19) 3 . . . ?
O3 Zn N2 C9 41(2) 1_556 . . . ?
C5 Zn N2 C9 39(2) 1_556 . . . ?
C17 C18 N3 C14 0(5) . . . . ?
C17 C18 N3 Zn -165(2) . . . 4 ?
C15 C14 N3 C18 -1(5) . . . . ?
C15 C14 N3 Zn 165(2) . . . 4 ?

_diffrn_measured_fraction_theta_max 0.995
_diffrn_reflns_theta_full        27.56
_diffrn_measured_fraction_theta_full 0.995
_refine_diff_density_max         1.886
_refine_diff_density_min         -2.419
_refine_diff_density_rms         0.385
