####################################################################### 
# 
# This file contains crystal structure data downloaded from the 
# Cambridge Structural Database (CSD) hosted by the Cambridge 
# Crystallographic Data Centre (CCDC).
# 
# Full information about CCDC data access policies and citation 
# guidelines are available at http://www.ccdc.cam.ac.uk/access/V1 
# 
# Audit and citation data items may have been added by the CCDC. 
# Please retain this information to preserve the provenance of 
# this file and to allow appropriate attribution of the data. 
# 
#######################################################################

data_zn2
_audit_block_doi                 10.5517/ccrynkw
_database_code_depnum_ccdc_archive 'CCDC 713699'
loop_
_citation_id
_citation_doi
_citation_year
1 10.1021/ja805920t 2008
_audit_update_record             
;
2008-12-12 deposited with the CCDC.	2024-07-13 downloaded from the CCDC.
;

_audit_creation_method           SHELXL-97
_chemical_name_systematic        
;
?
;
_chemical_name_common            ?
_chemical_melting_point          ?
_chemical_formula_moiety         ?
_chemical_formula_sum            'C18 H16 I3 N3 O7 Zn'
_chemical_formula_weight         832.41

loop_
_atom_type_symbol
_atom_type_description
_atom_type_scat_dispersion_real
_atom_type_scat_dispersion_imag
_atom_type_scat_source
C C 0.0033 0.0016 'International Tables Vol C Tables 4.2.6.8 and 6.1.1.4'
H H 0.0000 0.0000 'International Tables Vol C Tables 4.2.6.8 and 6.1.1.4'
N N 0.0061 0.0033 'International Tables Vol C Tables 4.2.6.8 and 6.1.1.4'
O O 0.0106 0.0060 'International Tables Vol C Tables 4.2.6.8 and 6.1.1.4'
Zn Zn 0.2839 1.4301 'International Tables Vol C Tables 4.2.6.8 and 6.1.1.4'
I I -0.4742 1.8119 'International Tables Vol C Tables 4.2.6.8 and 6.1.1.4'

_symmetry_cell_setting           tetragonal
_symmetry_space_group_name_H-M   P4/n

loop_
_symmetry_equiv_pos_as_xyz
'x, y, z'
'-x+1/2, -y+1/2, z'
'-y+1/2, x, z'
'y, -x+1/2, z'
'-x, -y, -z'
'x-1/2, y-1/2, -z'
'y-1/2, -x, -z'
'-y, x-1/2, -z'

_cell_length_a                   24.3170(3)
_cell_length_b                   24.3170(3)
_cell_length_c                   9.5795(3)
_cell_angle_alpha                90.00
_cell_angle_beta                 90.00
_cell_angle_gamma                90.00
_cell_volume                     5664.5(2)
_cell_formula_units_Z            8
_cell_measurement_temperature    298(2)
_cell_measurement_reflns_used    5233
_cell_measurement_theta_min      2.21
_cell_measurement_theta_max      24.08

_exptl_crystal_description       prism
_exptl_crystal_colour            yellow
_exptl_crystal_size_max          0.20
_exptl_crystal_size_mid          0.10
_exptl_crystal_size_min          0.05
_exptl_crystal_density_meas      ?
_exptl_crystal_density_diffrn    1.952
_exptl_crystal_density_method    'not measured'
_exptl_crystal_F_000             3120
_exptl_absorpt_coefficient_mu    4.174
_exptl_absorpt_correction_type   multi-scan
_exptl_absorpt_correction_T_min  0.4890
_exptl_absorpt_correction_T_max  0.8185
_exptl_absorpt_process_details   ?

_exptl_special_details           
;
?
;

_diffrn_ambient_temperature      298(2)
_diffrn_radiation_wavelength     0.71073
_diffrn_radiation_type           MoK\a
_diffrn_radiation_source         'fine-focus sealed tube'
_diffrn_radiation_monochromator  graphite
_diffrn_measurement_device_type  ?
_diffrn_measurement_method       ?
_diffrn_detector_area_resol_mean ?
_diffrn_standards_number         ?
_diffrn_standards_interval_count ?
_diffrn_standards_interval_time  ?
_diffrn_standards_decay_%        ?
_diffrn_reflns_number            20753
_diffrn_reflns_av_R_equivalents  0.0421
_diffrn_reflns_av_sigmaI/netI    0.0635
_diffrn_reflns_limit_h_min       -30
_diffrn_reflns_limit_h_max       29
_diffrn_reflns_limit_k_min       -31
_diffrn_reflns_limit_k_max       22
_diffrn_reflns_limit_l_min       -11
_diffrn_reflns_limit_l_max       12
_diffrn_reflns_theta_min         2.13
_diffrn_reflns_theta_max         27.52
_reflns_number_total             6517
_reflns_number_gt                3863
_reflns_threshold_expression     >2sigma(I)

_computing_data_collection       ?
_computing_cell_refinement       ?
_computing_data_reduction        ?
_computing_structure_solution    'SHELXS-97 (Sheldrick, 1990)'
_computing_structure_refinement  'SHELXL-97 (Sheldrick, 1997)'
_computing_molecular_graphics    ?
_computing_publication_material  ?

_refine_special_details          
;
Refinement of F^2^ against ALL reflections. The weighted R-factor wR and
goodness of fit S are based on F^2^, conventional R-factors R are based
on F, with F set to zero for negative F^2^. The threshold expression of
F^2^ > 2sigma(F^2^) is used only for calculating R-factors(gt) etc. and is
not relevant to the choice of reflections for refinement. R-factors based
on F^2^ are statistically about twice as large as those based on F, and R-
factors based on ALL data will be even larger.
;

_refine_ls_structure_factor_coef Fsqd
_refine_ls_matrix_type           full
_refine_ls_weighting_scheme      calc
_refine_ls_weighting_details     
'calc w=1/[\s^2^(Fo^2^)+(0.0903P)^2^+126.5652P] where P=(Fo^2^+2Fc^2^)/3'
_atom_sites_solution_primary     direct
_atom_sites_solution_secondary   difmap
_atom_sites_solution_hydrogens   geom
_refine_ls_hydrogen_treatment    ?
_refine_ls_extinction_method     none
_refine_ls_extinction_coef       ?
_refine_ls_number_reflns         6517
_refine_ls_number_parameters     290
_refine_ls_number_restraints     0
_refine_ls_R_factor_all          0.1421
_refine_ls_R_factor_gt           0.0949
_refine_ls_wR_factor_ref         0.2739
_refine_ls_wR_factor_gt          0.2496
_refine_ls_goodness_of_fit_ref   1.075
_refine_ls_restrained_S_all      1.075
_refine_ls_shift/su_max          0.000
_refine_ls_shift/su_mean         0.000

loop_
_atom_site_label
_atom_site_type_symbol
_atom_site_fract_x
_atom_site_fract_y
_atom_site_fract_z
_atom_site_U_iso_or_equiv
_atom_site_adp_type
_atom_site_occupancy
_atom_site_symmetry_multiplicity
_atom_site_calc_flag
_atom_site_refinement_flags
_atom_site_disorder_assembly
_atom_site_disorder_group
Zn Zn 0.37956(7) 0.54654(6) -0.40037(15) 0.0427(4) Uani 1 1 d . . .
I1 I 0.42591(12) 0.51763(6) 0.11472(14) 0.1389(10) Uani 1 1 d . . .
I2 I 0.34405(5) 0.72528(6) 0.39555(10) 0.0721(4) Uani 1 1 d . . .
I3 I 0.39902(6) 0.72650(5) -0.21392(11) 0.0720(4) Uani 1 1 d . . .
O1 O 0.3792(4) 0.5814(4) -0.2186(10) 0.054(3) Uani 1 1 d . . .
O01 O 0.5595(11) 0.6525(13) -0.100(3) 0.212(13) Uani 1 1 d . . .
O2 O 0.4691(5) 0.5936(5) -0.1910(11) 0.067(3) Uani 1 1 d . . .
O02 O 0.5399(16) 0.7738(18) -0.115(3) 0.264(19) Uani 1 1 d . . .
O3 O 0.3371(10) 0.5775(15) 0.389(2) 0.26(2) Uani 1 1 d . . .
O03 O 0.622(2) 0.838(2) -0.114(14) 0.83(13) Uani 1 1 d . . .
O4 O 0.4115(6) 0.5921(7) 0.4490(14) 0.100(5) Uani 1 1 d . . .
C1 C 0.4218(6) 0.5982(6) -0.1547(12) 0.041(3) Uani 1 1 d . . .
C2 C 0.4076(5) 0.6273(5) -0.0199(12) 0.033(3) Uani 1 1 d . . .
C3 C 0.4041(6) 0.6008(5) 0.1075(13) 0.042(3) Uani 1 1 d . . .
C4 C 0.3860(5) 0.6279(6) 0.2273(11) 0.038(3) Uani 1 1 d . . .
C5 C 0.3784(7) 0.5958(7) 0.3625(14) 0.055(4) Uani 1 1 d . . .
C6 C 0.3714(5) 0.6823(6) 0.2180(13) 0.041(3) Uani 1 1 d . . .
C7 C 0.3753(6) 0.7125(5) 0.0930(13) 0.043(3) Uani 1 1 d . . .
C8 C 0.3941(5) 0.6838(5) -0.0243(13) 0.039(3) Uani 1 1 d . . .
C9 C 0.2778(8) 0.4898(8) -0.4978(16) 0.075(6) Uani 1 1 d . . .
H9 H 0.2984 0.4873 -0.5794 0.090 Uiso 1 1 calc R . .
C10 C 0.2233(8) 0.4716(8) -0.5003(18) 0.073(5) Uani 1 1 d . . .
H10 H 0.2082 0.4570 -0.5814 0.087 Uiso 1 1 calc R . .
C11 C 0.1923(6) 0.4756(6) -0.3799(14) 0.050(4) Uani 1 1 d . . .
C12 C 0.2192(7) 0.4946(6) -0.2616(16) 0.058(4) Uani 1 1 d . . .
H12 H 0.2004 0.4957 -0.1771 0.069 Uiso 1 1 calc R . .
C13 C 0.2739(7) 0.5120(7) -0.2666(15) 0.056(4) Uani 1 1 d . . .
H13 H 0.2906 0.5246 -0.1853 0.067 Uiso 1 1 calc R . .
C14 C 0.0493(7) 0.4449(7) -0.5019(17) 0.059(4) Uani 1 1 d . . .
H14 H 0.0289 0.4494 -0.5833 0.071 Uiso 1 1 calc R . .
C15 C 0.1037(8) 0.4620(7) -0.5034(17) 0.068(5) Uani 1 1 d . . .
H15 H 0.1196 0.4758 -0.5846 0.081 Uiso 1 1 calc R . .
C16 C 0.1340(6) 0.4581(6) -0.3812(14) 0.047(3) Uani 1 1 d . . .
C17 C 0.1084(7) 0.4362(8) -0.2658(16) 0.065(5) Uani 1 1 d . . .
H17 H 0.1279 0.4322 -0.1829 0.079 Uiso 1 1 calc R . .
C18 C 0.0541(7) 0.4202(9) -0.2722(18) 0.076(6) Uani 1 1 d . . .
H18 H 0.0372 0.4073 -0.1916 0.091 Uiso 1 1 calc R . .
N1 N 0.3620(7) 0.7666(6) 0.0875(14) 0.073(4) Uani 1 1 d . . .
N2 N 0.3022(6) 0.5110(5) -0.3823(11) 0.054(3) Uani 1 1 d . . .
N3 N 0.0243(5) 0.4227(5) -0.3929(12) 0.054(3) Uani 1 1 d . . .

loop_
_atom_site_aniso_label
_atom_site_aniso_U_11
_atom_site_aniso_U_22
_atom_site_aniso_U_33
_atom_site_aniso_U_23
_atom_site_aniso_U_13
_atom_site_aniso_U_12
Zn 0.0567(10) 0.0429(9) 0.0285(7) -0.0003(6) 0.0000(7) -0.0057(7)
I1 0.320(3) 0.0489(7) 0.0483(7) -0.0023(6) -0.0315(11) 0.0492(12)
I2 0.0845(8) 0.0934(9) 0.0383(5) -0.0186(5) 0.0097(5) 0.0156(7)
I3 0.1025(10) 0.0720(8) 0.0414(5) 0.0257(5) 0.0071(6) 0.0028(6)
O1 0.064(7) 0.059(6) 0.039(5) -0.018(5) -0.002(5) -0.011(5)
O01 0.15(2) 0.27(3) 0.21(3) -0.02(2) -0.07(2) -0.09(2)
O2 0.065(7) 0.094(9) 0.042(6) -0.023(6) 0.008(5) 0.010(6)
O02 0.25(4) 0.35(5) 0.19(3) 0.01(3) -0.02(3) -0.12(3)
O3 0.162(19) 0.46(5) 0.152(19) 0.22(3) -0.087(16) -0.19(3)
O03 0.30(6) 0.22(5) 2.0(4) -0.05(11) -0.29(13) -0.09(4)
O4 0.094(10) 0.145(14) 0.059(8) 0.050(9) -0.016(7) -0.020(9)
C1 0.054(8) 0.048(8) 0.021(5) -0.005(5) -0.005(5) 0.005(6)
C2 0.036(6) 0.034(6) 0.029(5) -0.002(5) -0.004(5) -0.005(5)
C3 0.058(8) 0.031(6) 0.038(6) 0.003(5) -0.008(6) 0.001(6)
C4 0.040(7) 0.055(8) 0.021(5) 0.005(5) -0.002(5) -0.006(6)
C5 0.070(10) 0.064(10) 0.032(7) 0.017(7) -0.002(7) -0.009(8)
C6 0.036(7) 0.058(8) 0.030(6) -0.015(6) 0.001(5) 0.005(6)
C7 0.057(8) 0.038(7) 0.035(6) -0.004(5) -0.001(6) 0.011(6)
C8 0.044(7) 0.039(7) 0.032(6) 0.004(5) -0.001(5) -0.004(6)
C9 0.080(12) 0.107(15) 0.037(8) -0.017(9) 0.006(8) -0.041(11)
C10 0.095(14) 0.074(12) 0.049(9) -0.010(9) 0.007(9) -0.031(10)
C11 0.062(9) 0.054(8) 0.034(7) -0.002(6) -0.003(6) -0.018(7)
C12 0.073(11) 0.057(9) 0.043(8) 0.004(7) 0.002(7) -0.003(8)
C13 0.066(10) 0.067(10) 0.035(7) 0.006(7) -0.009(7) -0.006(8)
C14 0.052(9) 0.073(11) 0.053(9) 0.015(8) -0.008(7) -0.011(8)
C15 0.080(12) 0.078(12) 0.045(8) 0.012(8) -0.010(8) -0.022(10)
C16 0.054(8) 0.046(8) 0.042(7) 0.002(6) 0.001(6) -0.010(6)
C17 0.048(9) 0.109(14) 0.039(8) -0.003(9) 0.002(7) -0.016(9)
C18 0.042(9) 0.135(17) 0.051(9) -0.010(10) -0.007(7) -0.014(10)
N1 0.124(13) 0.045(7) 0.051(8) -0.003(6) -0.012(8) 0.009(8)
N2 0.071(8) 0.061(8) 0.031(6) 0.005(5) -0.003(6) -0.016(6)
N3 0.065(8) 0.063(8) 0.034(6) -0.007(6) 0.000(6) -0.003(6)

_geom_special_details            
;
All esds (except the esd in the dihedral angle between two l.s. planes)
are estimated using the full covariance matrix. The cell esds are taken
into account individually in the estimation of esds in distances, angles
and torsion angles; correlations between esds in cell parameters are only
used when they are defined by crystal symmetry. An approximate (isotropic)
treatment of cell esds is used for estimating esds involving l.s. planes.
;

loop_
_geom_bond_atom_site_label_1
_geom_bond_atom_site_label_2
_geom_bond_distance
_geom_bond_site_symmetry_2
_geom_bond_publ_flag
Zn O1 1.937(9) . ?
Zn O4 1.978(13) 1_554 ?
Zn N3 2.018(13) 4 ?
Zn N2 2.077(13) . ?
Zn O3 2.392(17) 1_554 ?
Zn C5 2.569(13) 1_554 ?
I1 C3 2.091(13) . ?
I2 C6 2.104(12) . ?
I3 C8 2.096(12) . ?
O1 C1 1.271(16) . ?
O2 C1 1.207(17) . ?
O3 C5 1.13(2) . ?
O3 Zn 2.392(17) 1_556 ?
O4 C5 1.158(19) . ?
O4 Zn 1.978(13) 1_556 ?
C1 C2 1.512(16) . ?
C2 C3 1.384(17) . ?
C2 C8 1.412(17) . ?
C3 C4 1.395(18) . ?
C4 C6 1.373(19) . ?
C4 C5 1.524(17) . ?
C5 Zn 2.569(13) 1_556 ?
C6 C7 1.408(18) . ?
C7 N1 1.354(18) . ?
C7 C8 1.400(17) . ?
C9 N2 1.357(19) . ?
C9 C10 1.40(2) . ?
C9 H9 0.9300 . ?
C10 C11 1.38(2) . ?
C10 H10 0.9300 . ?
C11 C12 1.39(2) . ?
C11 C16 1.48(2) . ?
C12 C13 1.40(2) . ?
C12 H12 0.9300 . ?
C13 N2 1.305(19) . ?
C13 H13 0.9300 . ?
C14 N3 1.324(19) . ?
C14 C15 1.39(2) . ?
C14 H14 0.9300 . ?
C15 C16 1.39(2) . ?
C15 H15 0.9300 . ?
C16 C17 1.38(2) . ?
C17 C18 1.38(2) . ?
C17 H17 0.9300 . ?
C18 N3 1.37(2) . ?
C18 H18 0.9300 . ?
N3 Zn 2.018(13) 3 ?

loop_
_geom_angle_atom_site_label_1
_geom_angle_atom_site_label_2
_geom_angle_atom_site_label_3
_geom_angle
_geom_angle_site_symmetry_1
_geom_angle_site_symmetry_3
_geom_angle_publ_flag
O1 Zn O4 114.3(6) . 1_554 ?
O1 Zn N3 110.2(5) . 4 ?
O4 Zn N3 107.5(6) 1_554 4 ?
O1 Zn N2 95.9(4) . . ?
O4 Zn N2 130.5(5) 1_554 . ?
N3 Zn N2 96.4(5) 4 . ?
O1 Zn O3 128.3(11) . 1_554 ?
O4 Zn O3 51.4(6) 1_554 1_554 ?
N3 Zn O3 121.5(11) 4 1_554 ?
N2 Zn O3 79.1(5) . 1_554 ?
O1 Zn C5 126.2(5) . 1_554 ?
O4 Zn C5 25.5(5) 1_554 1_554 ?
N3 Zn C5 115.8(5) 4 1_554 ?
N2 Zn C5 105.0(5) . 1_554 ?
O3 Zn C5 25.9(5) 1_554 1_554 ?
C1 O1 Zn 124.7(9) . . ?
C5 O3 Zn 85.8(12) . 1_556 ?
C5 O4 Zn 107.1(12) . 1_556 ?
O2 C1 O1 127.5(12) . . ?
O2 C1 C2 120.4(12) . . ?
O1 C1 C2 112.1(12) . . ?
C3 C2 C8 117.8(11) . . ?
C3 C2 C1 123.2(11) . . ?
C8 C2 C1 118.9(11) . . ?
C2 C3 C4 121.6(11) . . ?
C2 C3 I1 117.7(9) . . ?
C4 C3 I1 120.7(9) . . ?
C6 C4 C3 119.0(11) . . ?
C6 C4 C5 121.1(12) . . ?
C3 C4 C5 119.7(12) . . ?
O3 C5 O4 115.5(16) . . ?
O3 C5 C4 120.0(16) . . ?
O4 C5 C4 124.3(15) . . ?
O3 C5 Zn 68.3(11) . 1_556 ?
O4 C5 Zn 47.4(9) . 1_556 ?
C4 C5 Zn 171.7(11) . 1_556 ?
C4 C6 C7 122.7(11) . . ?
C4 C6 I2 120.5(9) . . ?
C7 C6 I2 116.7(10) . . ?
N1 C7 C8 122.0(13) . . ?
N1 C7 C6 121.6(12) . . ?
C8 C7 C6 116.3(11) . . ?
C7 C8 C2 122.5(11) . . ?
C7 C8 I3 117.8(9) . . ?
C2 C8 I3 119.6(9) . . ?
N2 C9 C10 123.3(15) . . ?
N2 C9 H9 118.4 . . ?
C10 C9 H9 118.4 . . ?
C11 C10 C9 118.8(15) . . ?
C11 C10 H10 120.6 . . ?
C9 C10 H10 120.6 . . ?
C10 C11 C12 116.6(15) . . ?
C10 C11 C16 119.7(13) . . ?
C12 C11 C16 123.6(13) . . ?
C11 C12 C13 121.5(15) . . ?
C11 C12 H12 119.3 . . ?
C13 C12 H12 119.3 . . ?
N2 C13 C12 121.7(14) . . ?
N2 C13 H13 119.2 . . ?
C12 C13 H13 119.2 . . ?
N3 C14 C15 124.7(15) . . ?
N3 C14 H14 117.7 . . ?
C15 C14 H14 117.7 . . ?
C16 C15 C14 118.4(15) . . ?
C16 C15 H15 120.8 . . ?
C14 C15 H15 120.8 . . ?
C17 C16 C15 117.8(14) . . ?
C17 C16 C11 122.4(13) . . ?
C15 C16 C11 119.7(13) . . ?
C16 C17 C18 120.4(15) . . ?
C16 C17 H17 119.8 . . ?
C18 C17 H17 119.8 . . ?
N3 C18 C17 122.3(17) . . ?
N3 C18 H18 118.8 . . ?
C17 C18 H18 118.8 . . ?
C13 N2 C9 118.0(14) . . ?
C13 N2 Zn 122.7(10) . . ?
C9 N2 Zn 119.1(10) . . ?
C14 N3 C18 116.2(14) . . ?
C14 N3 Zn 125.2(10) . 3 ?
C18 N3 Zn 117.5(11) . 3 ?

loop_
_geom_torsion_atom_site_label_1
_geom_torsion_atom_site_label_2
_geom_torsion_atom_site_label_3
_geom_torsion_atom_site_label_4
_geom_torsion
_geom_torsion_site_symmetry_1
_geom_torsion_site_symmetry_2
_geom_torsion_site_symmetry_3
_geom_torsion_site_symmetry_4
_geom_torsion_publ_flag
O4 Zn O1 C1 -59.3(13) 1_554 . . . ?
N3 Zn O1 C1 61.9(12) 4 . . . ?
N2 Zn O1 C1 161.0(11) . . . . ?
O3 Zn O1 C1 -118.2(12) 1_554 . . . ?
C5 Zn O1 C1 -85.6(12) 1_554 . . . ?
Zn O1 C1 O2 -3(2) . . . . ?
Zn O1 C1 C2 175.8(8) . . . . ?
O2 C1 C2 C3 -89.3(18) . . . . ?
O1 C1 C2 C3 91.4(15) . . . . ?
O2 C1 C2 C8 94.5(16) . . . . ?
O1 C1 C2 C8 -84.7(15) . . . . ?
C8 C2 C3 C4 2(2) . . . . ?
C1 C2 C3 C4 -174.0(12) . . . . ?
C8 C2 C3 I1 -178.7(9) . . . . ?
C1 C2 C3 I1 5.1(17) . . . . ?
C2 C3 C4 C6 0(2) . . . . ?
I1 C3 C4 C6 -179.1(10) . . . . ?
C2 C3 C4 C5 175.0(13) . . . . ?
I1 C3 C4 C5 -4.1(18) . . . . ?
Zn O3 C5 O4 -5(3) 1_556 . . . ?
Zn O3 C5 C4 -178.8(15) 1_556 . . . ?
Zn O4 C5 O3 6(3) 1_556 . . . ?
Zn O4 C5 C4 179.7(13) 1_556 . . . ?
C6 C4 C5 O3 83(3) . . . . ?
C3 C4 C5 O3 -92(3) . . . . ?
C6 C4 C5 O4 -91(2) . . . . ?
C3 C4 C5 O4 94(2) . . . . ?
C6 C4 C5 Zn -89(8) . . . 1_556 ?
C3 C4 C5 Zn 96(8) . . . 1_556 ?
C3 C4 C6 C7 -2(2) . . . . ?
C5 C4 C6 C7 -176.8(13) . . . . ?
C3 C4 C6 I2 -179.8(10) . . . . ?
C5 C4 C6 I2 5.3(18) . . . . ?
C4 C6 C7 N1 -178.1(14) . . . . ?
I2 C6 C7 N1 -0.1(19) . . . . ?
C4 C6 C7 C8 1(2) . . . . ?
I2 C6 C7 C8 179.3(10) . . . . ?
N1 C7 C8 C2 -179.5(14) . . . . ?
C6 C7 C8 C2 1(2) . . . . ?
N1 C7 C8 I3 -2(2) . . . . ?
C6 C7 C8 I3 178.7(10) . . . . ?
C3 C2 C8 C7 -2.8(19) . . . . ?
C1 C2 C8 C7 173.6(13) . . . . ?
C3 C2 C8 I3 179.6(10) . . . . ?
C1 C2 C8 I3 -4.0(16) . . . . ?
N2 C9 C10 C11 1(3) . . . . ?
C9 C10 C11 C12 -4(3) . . . . ?
C9 C10 C11 C16 178.2(17) . . . . ?
C10 C11 C12 C13 4(2) . . . . ?
C16 C11 C12 C13 -178.3(15) . . . . ?
C11 C12 C13 N2 0(3) . . . . ?
N3 C14 C15 C16 -3(3) . . . . ?
C14 C15 C16 C17 1(3) . . . . ?
C14 C15 C16 C11 179.5(16) . . . . ?
C10 C11 C16 C17 148.4(18) . . . . ?
C12 C11 C16 C17 -29(2) . . . . ?
C10 C11 C16 C15 -30(2) . . . . ?
C12 C11 C16 C15 152.7(17) . . . . ?
C15 C16 C17 C18 -2(3) . . . . ?
C11 C16 C17 C18 -179.6(17) . . . . ?
C16 C17 C18 N3 3(3) . . . . ?
C12 C13 N2 C9 -3(3) . . . . ?
C12 C13 N2 Zn 171.1(12) . . . . ?
C10 C9 N2 C13 3(3) . . . . ?
C10 C9 N2 Zn -171.4(16) . . . . ?
O1 Zn N2 C13 -7.3(14) . . . . ?
O4 Zn N2 C13 -136.6(13) 1_554 . . . ?
N3 Zn N2 C13 103.8(13) 4 . . . ?
O3 Zn N2 C13 -135.2(17) 1_554 . . . ?
C5 Zn N2 C13 -137.3(13) 1_554 . . . ?
O1 Zn N2 C9 166.9(14) . . . . ?
O4 Zn N2 C9 37.6(18) 1_554 . . . ?
N3 Zn N2 C9 -81.9(14) 4 . . . ?
O3 Zn N2 C9 39.0(17) 1_554 . . . ?
C5 Zn N2 C9 37.0(15) 1_554 . . . ?
C15 C14 N3 C18 4(3) . . . . ?
C15 C14 N3 Zn -162.7(14) . . . 3 ?
C17 C18 N3 C14 -5(3) . . . . ?
C17 C18 N3 Zn 163.7(16) . . . 3 ?

_diffrn_measured_fraction_theta_max 0.999
_diffrn_reflns_theta_full        27.52
_diffrn_measured_fraction_theta_full 0.999
_refine_diff_density_max         2.777
_refine_diff_density_min         -2.701
_refine_diff_density_rms         0.214
