####################################################################### 
# 
# This file contains crystal structure data downloaded from the 
# Cambridge Structural Database (CSD) hosted by the Cambridge 
# Crystallographic Data Centre (CCDC).
# 
# Full information about CCDC data access policies and citation 
# guidelines are available at http://www.ccdc.cam.ac.uk/access/V1 
# 
# Audit and citation data items may have been added by the CCDC. 
# Please retain this information to preserve the provenance of 
# this file and to allow appropriate attribution of the data. 
# 
#######################################################################

data_2
_audit_block_doi                 10.5517/ccr7vqj
_database_code_depnum_ccdc_archive 'CCDC 692748'
loop_
_citation_id
_citation_doi
_citation_year
1 10.1002/ejic.200800665 2008
_audit_update_record             
;
2008-06-25 deposited with the CCDC.	2024-07-13 downloaded from the CCDC.
;

_audit_creation_method           SHELXL-97
_chemical_name_systematic        
;
?
;
_chemical_name_common            ?
_chemical_melting_point          ?
_chemical_formula_moiety         ?
_chemical_formula_sum            'C114 H156 Mn6 N34 O24'
_chemical_formula_weight         2716.37

loop_
_atom_type_symbol
_atom_type_description
_atom_type_scat_dispersion_real
_atom_type_scat_dispersion_imag
_atom_type_scat_source
C C 0.0033 0.0016 'International Tables Vol C Tables 4.2.6.8 and 6.1.1.4'
H H 0.0000 0.0000 'International Tables Vol C Tables 4.2.6.8 and 6.1.1.4'
N N 0.0061 0.0033 'International Tables Vol C Tables 4.2.6.8 and 6.1.1.4'
O O 0.0106 0.0060 'International Tables Vol C Tables 4.2.6.8 and 6.1.1.4'
Mn Mn 0.3368 0.7283 'International Tables Vol C Tables 4.2.6.8 and 6.1.1.4'

_symmetry_cell_setting           Orthorhombic
_symmetry_space_group_name_H-M   Pbca

loop_
_symmetry_equiv_pos_as_xyz
'x, y, z'
'-x+1/2, -y, z+1/2'
'-x, y+1/2, -z+1/2'
'x+1/2, -y+1/2, -z'
'-x, -y, -z'
'x-1/2, y, -z-1/2'
'x, -y-1/2, z-1/2'
'-x-1/2, y-1/2, z'

_cell_length_a                   25.354(5)
_cell_length_b                   14.478(3)
_cell_length_c                   34.667(7)
_cell_angle_alpha                90.00
_cell_angle_beta                 90.00
_cell_angle_gamma                90.00
_cell_volume                     12725(4)
_cell_formula_units_Z            4
_cell_measurement_temperature    100(2)
_cell_measurement_reflns_used    19104
_cell_measurement_theta_min      1.40
_cell_measurement_theta_max      30.28

_exptl_crystal_description       block'
_exptl_crystal_colour            'dark brown'
_exptl_crystal_size_max          0.30
_exptl_crystal_size_mid          0.20
_exptl_crystal_size_min          0.15
_exptl_crystal_density_meas      ?
_exptl_crystal_density_diffrn    1.418
_exptl_crystal_density_method    'not measured'
_exptl_crystal_F_000             5680
_exptl_absorpt_coefficient_mu    0.659
_exptl_absorpt_correction_type   empirical
_exptl_absorpt_correction_T_min  0.8267
_exptl_absorpt_correction_T_max  0.9076
_exptl_absorpt_process_details   HKL2000-Scalepack

_exptl_special_details           
;
?
;

_diffrn_ambient_temperature      100(2)
_diffrn_radiation_wavelength     0.70000
_diffrn_radiation_type           synchrotron
_diffrn_radiation_source         'Fixed gap multiple wiggler beamline'
_diffrn_radiation_monochromator  'Pt coated Si double crystal'
_diffrn_measurement_device_type  'CCD area detector'
_diffrn_measurement_method       'phi scans'
_diffrn_detector_area_resol_mean ?
_diffrn_standards_number         ?
_diffrn_standards_interval_count ?
_diffrn_standards_interval_time  ?
_diffrn_standards_decay_%        ?
_diffrn_reflns_number            70113
_diffrn_reflns_av_R_equivalents  0.0552
_diffrn_reflns_av_sigmaI/netI    0.0418
_diffrn_reflns_limit_h_min       -33
_diffrn_reflns_limit_h_max       33
_diffrn_reflns_limit_k_min       0
_diffrn_reflns_limit_k_max       20
_diffrn_reflns_limit_l_min       -49
_diffrn_reflns_limit_l_max       49
_diffrn_reflns_theta_min         1.40
_diffrn_reflns_theta_max         30.28
_reflns_number_total             19104
_reflns_number_gt                14630
_reflns_threshold_expression     >2sigma(I)

_computing_data_collection       'PAL ADSC Quantum-210 ADX Program'
_computing_cell_refinement       HKL2000
_computing_data_reduction        HKL2000
_computing_structure_solution    'Bruker SHELXTL'
_computing_structure_refinement  'Bruker SHELXTL'
_computing_molecular_graphics    ORTEP3
_computing_publication_material  WinGX

_refine_special_details          
;
Refinement of F^2^ against ALL reflections. The weighted R-factor wR and
goodness of fit S are based on F^2^, conventional R-factors R are based
on F, with F set to zero for negative F^2^. The threshold expression of
F^2^ > 2sigma(F^2^) is used only for calculating R-factors(gt) etc. and is
not relevant to the choice of reflections for refinement. R-factors based
on F^2^ are statistically about twice as large as those based on F, and R-
factors based on ALL data will be even larger.
;

_refine_ls_structure_factor_coef Fsqd
_refine_ls_matrix_type           full
_refine_ls_weighting_scheme      calc
_refine_ls_weighting_details     
'calc w=1/[\s^2^(Fo^2^)+(0.0827P)^2^+8.2236P] where P=(Fo^2^+2Fc^2^)/3'
_atom_sites_solution_primary     direct
_atom_sites_solution_secondary   difmap
_atom_sites_solution_hydrogens   geom
_refine_ls_hydrogen_treatment    mixed
_refine_ls_extinction_method     SHELXL
_refine_ls_extinction_coef       0.0039(2)
_refine_ls_extinction_expression Fc^*^=kFc[1+0.001xFc^2^\l^3^/sin(2\q)]^-1/4^
_refine_ls_number_reflns         19104
_refine_ls_number_parameters     944
_refine_ls_number_restraints     0
_refine_ls_R_factor_all          0.0687
_refine_ls_R_factor_gt           0.0473
_refine_ls_wR_factor_ref         0.1434
_refine_ls_wR_factor_gt          0.1269
_refine_ls_goodness_of_fit_ref   1.020
_refine_ls_restrained_S_all      1.020
_refine_ls_shift/su_max          0.002
_refine_ls_shift/su_mean         0.000

loop_
_atom_site_label
_atom_site_type_symbol
_atom_site_fract_x
_atom_site_fract_y
_atom_site_fract_z
_atom_site_U_iso_or_equiv
_atom_site_adp_type
_atom_site_occupancy
_atom_site_symmetry_multiplicity
_atom_site_calc_flag
_atom_site_refinement_flags
_atom_site_disorder_assembly
_atom_site_disorder_group
Mn1 Mn 0.482551(11) 1.01465(2) 0.136966(7) 0.01907(7) Uani 1 1 d . . .
O1A O 0.43461(6) 0.73995(9) 0.12138(4) 0.0243(3) Uani 1 1 d . . .
O2A O 0.43615(6) 1.05190(9) 0.09471(4) 0.0220(3) Uani 1 1 d . . .
N1A N 0.52210(7) 0.95333(13) 0.17616(5) 0.0251(3) Uani 1 1 d . . .
H1A H 0.5424(11) 0.9881(19) 0.1876(8) 0.030 Uiso 1 1 d . . .
N2A N 0.45505(6) 0.89359(11) 0.12151(4) 0.0191(3) Uani 1 1 d . . .
N3A N 0.42222(6) 0.89629(11) 0.08846(4) 0.0204(3) Uani 1 1 d . . .
N4A N 0.41393(7) 1.04951(12) 0.17936(5) 0.0239(3) Uani 1 1 d . . .
C1A C 0.52076(8) 0.86469(14) 0.18900(5) 0.0233(4) Uani 1 1 d . . .
C2A C 0.49054(8) 0.79363(14) 0.17117(5) 0.0230(4) Uani 1 1 d . . .
C3A C 0.49084(9) 0.70336(15) 0.18650(6) 0.0284(4) Uani 1 1 d . . .
H3A H 0.4705 0.6567 0.1742 0.034 Uiso 1 1 calc R . .
C4A C 0.51993(10) 0.68096(16) 0.21888(6) 0.0323(5) Uani 1 1 d . . .
H4A H 0.5194 0.6200 0.2290 0.039 Uiso 1 1 calc R . .
C5A C 0.55030(10) 0.75055(16) 0.23644(6) 0.0332(5) Uani 1 1 d . . .
H5A H 0.5710 0.7361 0.2585 0.040 Uiso 1 1 calc R . .
C6A C 0.55050(9) 0.83936(16) 0.22221(5) 0.0287(4) Uani 1 1 d . . .
H6A H 0.5711 0.8850 0.2349 0.034 Uiso 1 1 calc R . .
C7A C 0.45879(8) 0.80953(13) 0.13661(5) 0.0204(3) Uani 1 1 d . . .
C8A C 0.41527(8) 0.98124(13) 0.07716(5) 0.0204(3) Uani 1 1 d . . .
C9A C 0.38147(9) 0.99913(15) 0.04260(6) 0.0304(4) Uani 1 1 d . . .
H9A1 H 0.3552 1.0464 0.0489 0.046 Uiso 1 1 calc R . .
H9A2 H 0.3635 0.9420 0.0351 0.046 Uiso 1 1 calc R . .
H9A3 H 0.4036 1.0207 0.0212 0.046 Uiso 1 1 calc R . .
C10A C 0.40876(10) 1.00373(18) 0.21237(6) 0.0364(5) Uani 1 1 d . . .
H10A H 0.4326 0.9547 0.2177 0.044 Uiso 1 1 calc R . .
C11A C 0.37046(12) 1.0241(2) 0.23933(7) 0.0498(7) Uani 1 1 d . . .
H11A H 0.3683 0.9892 0.2625 0.060 Uiso 1 1 calc R . .
C12A C 0.33514(9) 1.09535(19) 0.23271(6) 0.0362(5) Uani 1 1 d . . .
C13A C 0.34121(9) 1.14450(17) 0.19876(6) 0.0309(4) Uani 1 1 d . . .
H13A H 0.3187 1.1951 0.1931 0.037 Uiso 1 1 calc R . .
C14A C 0.38044(9) 1.11914(16) 0.17318(6) 0.0292(4) Uani 1 1 d . . .
H14A H 0.3838 1.1532 0.1499 0.035 Uiso 1 1 calc R . .
C15A C 0.29133(12) 1.1181(3) 0.26065(7) 0.0548(8) Uani 1 1 d . . .
H15A H 0.2788 1.1817 0.2555 0.066 Uiso 1 1 calc R . .
H15B H 0.2615 1.0755 0.2560 0.066 Uiso 1 1 calc R . .
Mn2 Mn 0.404457(12) 0.749933(19) 0.069331(7) 0.01942(7) Uani 1 1 d . . .
O1B O 0.32131(5) 0.77264(9) -0.03423(4) 0.0189(2) Uani 1 1 d . . .
O2B O 0.47059(5) 0.75493(10) 0.04102(4) 0.0227(3) Uani 1 1 d . . .
O3B O 0.41505(7) 0.59059(11) 0.07033(4) 0.0300(3) Uani 1 1 d . . .
N1B N 0.33342(7) 0.73961(13) 0.08709(5) 0.0282(4) Uani 1 1 d . . .
H1B H 0.3286(11) 0.7293(19) 0.1129(8) 0.034 Uiso 1 1 d . . .
N2B N 0.37718(6) 0.76092(10) 0.01688(4) 0.0180(3) Uani 1 1 d . . .
N3B N 0.41697(6) 0.77265(11) -0.01138(4) 0.0196(3) Uani 1 1 d . . .
N4B N 0.40382(8) 0.45954(14) 0.10597(6) 0.0350(4) Uani 1 1 d . . .
C1B C 0.28691(8) 0.73844(13) 0.06798(5) 0.0227(4) Uani 1 1 d . . .
C2B C 0.28274(7) 0.74892(12) 0.02738(5) 0.0191(3) Uani 1 1 d . . .
C3B C 0.23299(8) 0.74490(12) 0.00975(6) 0.0229(4) Uani 1 1 d . . .
H3B H 0.2307 0.7514 -0.0175 0.028 Uiso 1 1 calc R . .
C4B C 0.18724(8) 0.73176(14) 0.03068(6) 0.0282(4) Uani 1 1 d . . .
H4B H 0.1540 0.7290 0.0181 0.034 Uiso 1 1 calc R . .
C5B C 0.19076(9) 0.72271(15) 0.07054(6) 0.0305(4) Uani 1 1 d . . .
H5B H 0.1596 0.7140 0.0853 0.037 Uiso 1 1 calc R . .
C6B C 0.23892(9) 0.72628(15) 0.08886(6) 0.0303(4) Uani 1 1 d . . .
H6B H 0.2402 0.7205 0.1161 0.036 Uiso 1 1 calc R . .
C7B C 0.32886(7) 0.76125(11) 0.00222(5) 0.0171(3) Uani 1 1 d . . .
C8B C 0.46337(7) 0.76830(13) 0.00430(5) 0.0212(3) Uani 1 1 d . . .
C9B C 0.51092(8) 0.77896(19) -0.02088(6) 0.0328(5) Uani 1 1 d . . .
H9B1 H 0.5022 0.7603 -0.0473 0.049 Uiso 1 1 calc R . .
H9B2 H 0.5395 0.7399 -0.0110 0.049 Uiso 1 1 calc R . .
H9B3 H 0.5223 0.8437 -0.0208 0.049 Uiso 1 1 calc R . .
C10B C 0.39836(9) 0.54924(16) 0.09974(6) 0.0319(4) Uani 1 1 d . . .
H10B H 0.3806 0.5847 0.1188 0.038 Uiso 1 1 calc R . .
C11B C 0.38150(13) 0.4154(2) 0.14002(9) 0.0490(7) Uani 1 1 d . . .
H11B H 0.3658 0.4625 0.1568 0.073 Uiso 1 1 calc R . .
H11C H 0.4094 0.3828 0.1541 0.073 Uiso 1 1 calc R . .
H11D H 0.3542 0.3713 0.1321 0.073 Uiso 1 1 calc R . .
C12B C 0.43151(13) 0.40081(19) 0.07847(9) 0.0478(6) Uani 1 1 d . . .
H12A H 0.4458 0.4389 0.0576 0.072 Uiso 1 1 calc R . .
H12B H 0.4069 0.3553 0.0678 0.072 Uiso 1 1 calc R . .
H12C H 0.4604 0.3687 0.0916 0.072 Uiso 1 1 calc R . .
Mn3 Mn 0.380486(11) 0.806934(18) -0.069214(7) 0.01631(7) Uani 1 1 d . . .
O1C O 0.49805(6) 0.85769(9) -0.15144(4) 0.0229(3) Uani 1 1 d . . .
O2C O 0.38281(5) 0.93674(9) -0.05430(4) 0.0204(2) Uani 1 1 d . . .
N1C N 0.38889(7) 0.68802(11) -0.09140(5) 0.0210(3) Uani 1 1 d . . .
H1C H 0.3687(11) 0.6513(18) -0.0831(8) 0.025 Uiso 1 1 d . . .
N2C N 0.43706(6) 0.85102(10) -0.10319(4) 0.0179(3) Uani 1 1 d . . .
N3C N 0.44877(6) 0.94607(11) -0.09905(4) 0.0202(3) Uani 1 1 d . . .
N4C N 0.31338(7) 0.84301(11) -0.11282(4) 0.0224(3) Uani 1 1 d . . .
C1C C 0.41851(8) 0.65796(12) -0.12133(5) 0.0203(3) Uani 1 1 d . . .
C2C C 0.45637(7) 0.71379(13) -0.14064(5) 0.0205(3) Uani 1 1 d . . .
C3C C 0.48693(9) 0.67581(14) -0.17075(6) 0.0279(4) Uani 1 1 d . . .
H3C H 0.5125 0.7135 -0.1832 0.033 Uiso 1 1 calc R . .
C4C C 0.48085(10) 0.58577(16) -0.18265(7) 0.0352(5) Uani 1 1 d . . .
H4C H 0.5020 0.5614 -0.2028 0.042 Uiso 1 1 calc R . .
C5C C 0.44286(10) 0.53075(15) -0.16444(7) 0.0336(5) Uani 1 1 d . . .
H5C H 0.4379 0.4687 -0.1726 0.040 Uiso 1 1 calc R . .
C6C C 0.41250(9) 0.56544(14) -0.13471(6) 0.0267(4) Uani 1 1 d . . .
H6C H 0.3870 0.5267 -0.1229 0.032 Uiso 1 1 calc R . .
C7C C 0.46453(7) 0.81139(12) -0.13128(5) 0.0183(3) Uani 1 1 d . . .
C8C C 0.41825(7) 0.98337(13) -0.07307(5) 0.0200(3) Uani 1 1 d . . .
C9C C 0.42458(9) 1.08391(14) -0.06416(6) 0.0307(4) Uani 1 1 d . . .
H9C1 H 0.3902 1.1146 -0.0658 0.046 Uiso 1 1 calc R . .
H9C2 H 0.4489 1.1119 -0.0828 0.046 Uiso 1 1 calc R . .
H9C3 H 0.4388 1.0911 -0.0381 0.046 Uiso 1 1 calc R . .
C10C C 0.26185(8) 0.83989(16) -0.10451(6) 0.0288(4) Uani 1 1 d . . .
H10C H 0.2517 0.8267 -0.0787 0.035 Uiso 1 1 calc R . .
C11C C 0.22272(9) 0.85488(17) -0.13152(6) 0.0305(4) Uani 1 1 d . . .
H11E H 0.1867 0.8534 -0.1240 0.037 Uiso 1 1 calc R . .
C12C C 0.23574(9) 0.8719(2) -0.16921(6) 0.0363(5) Uani 1 1 d . . .
C13C C 0.28904(10) 0.8751(3) -0.17795(7) 0.0573(9) Uani 1 1 d . . .
H13C H 0.3002 0.8869 -0.2037 0.069 Uiso 1 1 calc R . .
C14C C 0.32622(10) 0.8611(2) -0.14907(6) 0.0428(6) Uani 1 1 d . . .
H14C H 0.3625 0.8646 -0.1556 0.051 Uiso 1 1 calc R . .
C15C C 0.19302(11) 0.8886(3) -0.19848(7) 0.0602(10) Uani 1 1 d . . .
H15C H 0.1643 0.8436 -0.1938 0.072 Uiso 1 1 calc R . .
H15D H 0.1783 0.9510 -0.1940 0.072 Uiso 1 1 calc R . .
O1S O 0.32236(10) 0.54158(15) 0.93842(8) 0.0636(7) Uani 1 1 d . . .
N1S N 0.27895(8) 0.51450(13) 0.99458(6) 0.0338(4) Uani 1 1 d . . .
C1S C 0.32040(11) 0.53939(18) 0.97375(11) 0.0530(8) Uani 1 1 d . . .
H1S H 0.3513 0.5571 0.9874 0.064 Uiso 1 1 calc R . .
C2S C 0.22843(11) 0.49771(19) 0.97664(8) 0.0432(6) Uani 1 1 d . . .
H2S1 H 0.2319 0.5033 0.9486 0.065 Uiso 1 1 calc R . .
H2S2 H 0.2028 0.5431 0.9860 0.065 Uiso 1 1 calc R . .
H2S3 H 0.2163 0.4354 0.9832 0.065 Uiso 1 1 calc R . .
C3S C 0.28050(13) 0.50910(19) 1.03627(9) 0.0486(7) Uani 1 1 d . . .
H3S1 H 0.3160 0.5250 1.0454 0.073 Uiso 1 1 calc R . .
H3S2 H 0.2717 0.4462 1.0445 0.073 Uiso 1 1 calc R . .
H3S3 H 0.2549 0.5525 1.0472 0.073 Uiso 1 1 calc R . .
O2S O 0.65048(8) 0.72455(14) 0.06243(6) 0.0441(4) Uani 1 1 d . . .
N2S N 0.57862(8) 0.63020(15) 0.06261(6) 0.0358(4) Uani 1 1 d . . .
C4S C 0.62341(10) 0.66381(17) 0.04768(7) 0.0358(5) Uani 1 1 d . . .
H4S H 0.6351 0.6387 0.0238 0.043 Uiso 1 1 calc R . .
C5S C 0.54908(11) 0.55726(19) 0.04331(8) 0.0418(5) Uani 1 1 d . . .
H5S1 H 0.5646 0.5454 0.0179 0.063 Uiso 1 1 calc R . .
H5S2 H 0.5123 0.5766 0.0402 0.063 Uiso 1 1 calc R . .
H5S3 H 0.5505 0.5008 0.0589 0.063 Uiso 1 1 calc R . .
C6S C 0.55845(10) 0.66580(19) 0.09882(7) 0.0391(5) Uani 1 1 d . . .
H6S1 H 0.5579 0.7334 0.0979 0.059 Uiso 1 1 calc R . .
H6S2 H 0.5813 0.6454 0.1200 0.059 Uiso 1 1 calc R . .
H6S3 H 0.5226 0.6426 0.1030 0.059 Uiso 1 1 calc R . .
O3S O 0.21497(11) 1.0847(2) 0.15915(8) 0.0736(7) Uani 0.563(5) 1 d P A 1
N3S N 0.26637(11) 0.95606(18) 0.15967(7) 0.0495(6) Uani 0.563(5) 1 d P A 1
C7S C 0.2374(2) 1.0098(4) 0.17601(15) 0.0526(14) Uani 0.563(5) 1 d P A 1
H7S H 0.2299 0.9988 0.2025 0.063 Uiso 0.563(5) 1 calc PR A 1
C8S C 0.2888(2) 0.9674(4) 0.12117(15) 0.0488(13) Uani 0.563(5) 1 d P A 1
H8S1 H 0.2782 1.0274 0.1106 0.073 Uiso 0.563(5) 1 calc PR A 1
H8S2 H 0.2759 0.9180 0.1043 0.073 Uiso 0.563(5) 1 calc PR A 1
H8S3 H 0.3273 0.9645 0.1227 0.073 Uiso 0.563(5) 1 calc PR A 1
C9S C 0.2920(2) 0.8708(4) 0.18038(15) 0.0504(13) Uani 0.563(5) 1 d P A 1
H9S1 H 0.2815 0.8703 0.2076 0.076 Uiso 0.563(5) 1 calc PR A 1
H9S2 H 0.3305 0.8751 0.1786 0.076 Uiso 0.563(5) 1 calc PR A 1
H9S3 H 0.2801 0.8137 0.1679 0.076 Uiso 0.563(5) 1 calc PR A 1
O30S O 0.21497(11) 1.0847(2) 0.15915(8) 0.0736(7) Uani 0.437(5) 1 d P A 2
N30S N 0.26637(11) 0.95606(18) 0.15967(7) 0.0495(6) Uani 0.437(5) 1 d P A 2
C22S C 0.2456(3) 1.0430(5) 0.14539(17) 0.0456(16) Uani 0.437(5) 1 d P A 2
H22S H 0.2599 1.0657 0.1219 0.055 Uiso 0.437(5) 1 calc PR A 2
C23S C 0.3036(3) 0.9124(6) 0.1425(3) 0.066(3) Uani 0.437(5) 1 d P A 2
H23F H 0.2910 0.8512 0.1347 0.098 Uiso 0.437(5) 1 calc PR A 2
H23G H 0.3336 0.9054 0.1601 0.098 Uiso 0.437(5) 1 calc PR A 2
H23H H 0.3148 0.9471 0.1197 0.098 Uiso 0.437(5) 1 calc PR A 2
C24S C 0.2357(4) 0.9244(6) 0.1952(3) 0.066(2) Uani 0.437(5) 1 d P A 2
H24F H 0.2148 0.8696 0.1887 0.100 Uiso 0.437(5) 1 calc PR A 2
H24G H 0.2121 0.9740 0.2037 0.100 Uiso 0.437(5) 1 calc PR A 2
H24H H 0.2604 0.9092 0.2159 0.100 Uiso 0.437(5) 1 calc PR A 2
O4S O 0.2550(4) 0.1121(7) 0.7707(2) 0.111(3) Uani 0.513(6) 1 d P B 1
N4S N 0.28168(11) 0.11661(19) 0.83577(9) 0.0565(7) Uani 0.513(6) 1 d P B 1
C10S C 0.2904(4) 0.1126(7) 0.7949(2) 0.080(3) Uani 0.513(6) 1 d P B 1
H10S H 0.3258 0.1101 0.7860 0.095 Uiso 0.513(6) 1 calc PR B 1
C11S C 0.2323(3) 0.1152(4) 0.8504(2) 0.0590(19) Uani 0.513(6) 1 d P B 1
H11F H 0.2067 0.1238 0.8296 0.088 Uiso 0.513(6) 1 calc PR B 1
H11G H 0.2284 0.1650 0.8694 0.088 Uiso 0.513(6) 1 calc PR B 1
H11H H 0.2260 0.0556 0.8630 0.088 Uiso 0.513(6) 1 calc PR B 1
C12S C 0.3293(3) 0.1089(5) 0.85862(19) 0.0569(18) Uani 0.513(6) 1 d P B 1
H12F H 0.3339 0.1651 0.8740 0.085 Uiso 0.513(6) 1 calc PR B 1
H12G H 0.3597 0.1011 0.8415 0.085 Uiso 0.513(6) 1 calc PR B 1
H12H H 0.3266 0.0554 0.8758 0.085 Uiso 0.513(6) 1 calc PR B 1
O40S O 0.2290(4) 0.1402(6) 0.78538(19) 0.099(3) Uani 0.487(6) 1 d P B 2
N40S N 0.28168(11) 0.11661(19) 0.83577(9) 0.0565(7) Uani 0.487(6) 1 d P B 2
C25S C 0.2336(3) 0.1305(6) 0.8211(2) 0.063(2) Uani 0.487(6) 1 d P B 2
H25S H 0.2035 0.1330 0.8374 0.075 Uiso 0.487(6) 1 calc PR B 2
C26S C 0.2788(3) 0.1064(5) 0.8810(2) 0.062(2) Uani 0.487(6) 1 d P B 2
H26F H 0.2956 0.0483 0.8888 0.093 Uiso 0.487(6) 1 calc PR B 2
H26G H 0.2418 0.1061 0.8893 0.093 Uiso 0.487(6) 1 calc PR B 2
H26H H 0.2972 0.1583 0.8932 0.093 Uiso 0.487(6) 1 calc PR B 2
C27S C 0.3289(4) 0.1273(8) 0.8205(4) 0.122(6) Uani 0.487(6) 1 d P B 2
H27F H 0.3420 0.0675 0.8114 0.183 Uiso 0.487(6) 1 calc PR B 2
H27G H 0.3530 0.1521 0.8400 0.183 Uiso 0.487(6) 1 calc PR B 2
H27H H 0.3267 0.1704 0.7988 0.183 Uiso 0.487(6) 1 calc PR B 2
O5S O 0.40686(13) 0.54812(16) 0.26494(9) 0.0481(8) Uani 0.699(4) 1 d P C 1
N5S N 0.38272(18) 0.