####################################################################### 
# 
# This file contains crystal structure data downloaded from the 
# Cambridge Structural Database (CSD) hosted by the Cambridge 
# Crystallographic Data Centre (CCDC).
# 
# Full information about CCDC data access policies and citation 
# guidelines are available at http://www.ccdc.cam.ac.uk/access/V1 
# 
# Audit and citation data items may have been added by the CCDC. 
# Please retain this information to preserve the provenance of 
# this file and to allow appropriate attribution of the data. 
# 
#######################################################################

data_ni
_audit_block_doi                 10.5517/cc5mq0h
_database_code_depnum_ccdc_archive 'CCDC 167896'
loop_
_citation_id
_citation_doi
_citation_year
1 10.1039/b106490h 2001
_audit_update_record             
;
2001-07-23 deposited with the CCDC.	2024-07-13 downloaded from the CCDC.
;


_audit_creation_method           SHELXL-97
_chemical_name_systematic        
; 
? 
;
_chemical_name_common            ?
_chemical_melting_point          ?
_chemical_formula_moiety         ?
_chemical_formula_sum            'C90 H132 N18 Ni3 O18'
_chemical_formula_weight         1930.41

loop_
_atom_type_symbol
_atom_type_description
_atom_type_scat_dispersion_real
_atom_type_scat_dispersion_imag
_atom_type_scat_source
C C 0.0033 0.0016 'International Tables Vol C Tables 4.2.6.8 and 6.1.1.4'
H H 0.0000 0.0000 'International Tables Vol C Tables 4.2.6.8 and 6.1.1.4'
N N 0.0061 0.0033 'International Tables Vol C Tables 4.2.6.8 and 6.1.1.4'
O O 0.0106 0.0060 'International Tables Vol C Tables 4.2.6.8 and 6.1.1.4'
Ni Ni 0.3393 1.1124 'International Tables Vol C Tables 4.2.6.8 and 6.1.1.4'

_symmetry_cell_setting           Triclinic
_symmetry_space_group_name_H-M   P-1

loop_
_symmetry_equiv_pos_as_xyz
'x, y, z'
'-x, -y, -z'

_cell_length_a                   14.217(3)
_cell_length_b                   14.439(3)
_cell_length_c                   14.914(3)
_cell_angle_alpha                100.087(4)
_cell_angle_beta                 96.311(4)
_cell_angle_gamma                109.958(3)
_cell_volume                     2785.2(10)
_cell_formula_units_Z            1
_cell_measurement_temperature    293(2)
_cell_measurement_reflns_used    ?
_cell_measurement_theta_min      ?
_cell_measurement_theta_max      ?

_exptl_crystal_description       ?
_exptl_crystal_colour            ?
_exptl_crystal_size_max          0.26
_exptl_crystal_size_mid          0.07
_exptl_crystal_size_min          0.05
_exptl_crystal_density_meas      ?
_exptl_crystal_density_diffrn    1.333
_exptl_crystal_density_method    'not measured'
_exptl_crystal_F_000             1188
_exptl_absorpt_coefficient_mu    0.587
_exptl_absorpt_correction_type   ?
_exptl_absorpt_correction_T_min  ?
_exptl_absorpt_correction_T_max  ?
_exptl_absorpt_process_details   ?

_exptl_special_details           
; 
? 
;

_diffrn_ambient_temperature      293(2)
_diffrn_radiation_wavelength     0.71073
_diffrn_radiation_type           MoK\a
_diffrn_radiation_source         'fine-focus sealed tube'
_diffrn_radiation_monochromator  graphite
_diffrn_measurement_device_type  ?
_diffrn_measurement_method       ?
_diffrn_detector_area_resol_mean ?
_diffrn_standards_number         ?
_diffrn_standards_interval_count ?
_diffrn_standards_interval_time  ?
_diffrn_standards_decay_%        ?
_diffrn_reflns_number            16259
_diffrn_reflns_av_R_equivalents  0.0216
_diffrn_reflns_av_sigmaI/netI    0.0663
_diffrn_reflns_limit_h_min       -18
_diffrn_reflns_limit_h_max       10
_diffrn_reflns_limit_k_min       -17
_diffrn_reflns_limit_k_max       18
_diffrn_reflns_limit_l_min       -19
_diffrn_reflns_limit_l_max       17
_diffrn_reflns_theta_min         4.16
_diffrn_reflns_theta_max         27.10
_reflns_number_total             11936
_reflns_number_gt                7274
_reflns_threshold_expression     >2sigma(I)

_computing_data_collection       ?
_computing_cell_refinement       ?
_computing_data_reduction        ?
_computing_structure_solution    'SHELXS-97 (Sheldrick, 1990)'
_computing_structure_refinement  'SHELXL-97 (Sheldrick, 1997)'
_computing_molecular_graphics    ?
_computing_publication_material  ?

_refine_special_details          
; 
Refinement of F^2^ against ALL reflections.  The weighted R-factor wR and 
goodness of fit S are based on F^2^, conventional R-factors R are based 
on F, with F set to zero for negative F^2^. The threshold expression of 
F^2^ > 2sigma(F^2^) is used only for calculating R-factors(gt) etc. and is 
not relevant to the choice of reflections for refinement.  R-factors based 
on F^2^ are statistically about twice as large as those based on F, and R- 
factors based on ALL data will be even larger. 
;

_refine_ls_structure_factor_coef Fsqd
_refine_ls_matrix_type           full
_refine_ls_weighting_scheme      calc
_refine_ls_weighting_details     
'calc w=1/[\s^2^(Fo^2^)+(0.1779P)^2^+0.0000P] where P=(Fo^2^+2Fc^2^)/3'
_atom_sites_solution_primary     direct
_atom_sites_solution_secondary   difmap
_atom_sites_solution_hydrogens   geom
_refine_ls_hydrogen_treatment    mixed
_refine_ls_extinction_method     none
_refine_ls_extinction_coef       ?
_refine_ls_number_reflns         11936
_refine_ls_number_parameters     556
_refine_ls_number_restraints     6
_refine_ls_R_factor_all          0.1101
_refine_ls_R_factor_gt           0.0709
_refine_ls_wR_factor_ref         0.2638
_refine_ls_wR_factor_gt          0.2316
_refine_ls_goodness_of_fit_ref   0.991
_refine_ls_restrained_S_all      0.991
_refine_ls_shift/su_max          0.030
_refine_ls_shift/su_mean         0.002

loop_
_atom_site_label
_atom_site_type_symbol
_atom_site_fract_x
_atom_site_fract_y
_atom_site_fract_z
_atom_site_U_iso_or_equiv
_atom_site_adp_type
_atom_site_occupancy
_atom_site_symmetry_multiplicity
_atom_site_calc_flag
_atom_site_refinement_flags
_atom_site_disorder_assembly
_atom_site_disorder_group
Ni3 Ni 0.5000 -0.5000 0.5000 0.0327(2) Uani 1 2 d S . .
Ni1 Ni 0.5000 0.0000 0.0000 0.0366(2) Uani 1 2 d S . .
Ni2 Ni 1.0000 0.0000 0.5000 0.0419(2) Uani 1 2 d S . .
O1 O 0.5401(2) -0.0823(2) 0.0936(2) 0.0478(8) Uani 1 1 d . . .
O5 O 0.8556(2) -0.0989(2) 0.4121(2) 0.0516(8) Uani 1 1 d . . .
O4 O 0.5413(2) -0.4111(2) 0.3997(2) 0.0429(7) Uani 1 1 d . . .
N8 N 0.3573(2) -0.4918(2) 0.4903(2) 0.0368(8) Uani 1 1 d . . .
O3 O 0.3949(2) -0.4097(3) 0.3296(2) 0.0598(10) Uani 1 1 d . . .
C41 C 0.6520(3) -0.2397(3) 0.3377(3) 0.0353(9) Uani 1 1 d . . .
H41A H 0.6873 -0.2579 0.3835 0.042 Uiso 1 1 calc R . .
N9 N 0.4272(3) -0.6374(3) 0.4067(2) 0.0400(8) Uani 1 1 d . . .
O6 O 0.8640(3) -0.0536(3) 0.2768(3) 0.0732(12) Uani 1 1 d . . .
O2 O 0.3947(3) -0.1963(3) 0.1094(3) 0.0811(14) Uani 1 1 d . . .
C44 C 0.4900(3) -0.3780(3) 0.3487(3) 0.0375(9) Uani 1 1 d . . .
C42 C 0.7042(3) -0.1596(3) 0.2991(3) 0.0371(9) Uani 1 1 d . . .
N5 N 1.0486(3) 0.0694(3) 0.3962(3) 0.0475(9) Uani 1 1 d . . .
N2 N 0.6528(3) 0.0730(3) 0.0033(2) 0.0454(9) Uani 1 1 d . . .
C38 C 0.5460(3) -0.1834(3) 0.2008(3) 0.0358(9) Uani 1 1 d . . .
C34 C 0.2845(3) -0.5954(3) 0.4495(3) 0.0451(11) Uani 1 1 d . . .
H34A H 0.2183 -0.5941 0.4272 0.054 Uiso 1 1 calc R . .
H34B H 0.2772 -0.6358 0.4957 0.054 Uiso 1 1 calc R . .
C40 C 0.5485(3) -0.2920(3) 0.3083(3) 0.0336(8) Uani 1 1 d . . .
C39 C 0.4955(3) -0.2619(3) 0.2406(3) 0.0364(9) Uani 1 1 d . . .
H39A H 0.4254 -0.2953 0.2223 0.044 Uiso 1 1 calc R . .
C43 C 0.6516(3) -0.1328(3) 0.2306(3) 0.0395(10) Uani 1 1 d . . .
H43A H 0.6866 -0.0806 0.2041 0.047 Uiso 1 1 calc R . .
C45 C 0.8170(3) -0.0987(3) 0.3326(3) 0.0483(11) Uani 1 1 d . . .
N7 N 0.4134(3) -0.3457(3) 0.6224(3) 0.0469(9) Uani 1 1 d . . .
C37 C 0.4888(3) -0.1524(3) 0.1289(3) 0.0429(10) Uani 1 1 d . . .
N6 N 1.0730(3) -0.0960(3) 0.4540(3) 0.0539(10) Uani 1 1 d . . .
C35 C 0.3246(3) -0.6404(3) 0.3701(3) 0.0457(11) Uani 1 1 d . . .
H35A H 0.2793 -0.7098 0.3430 0.055 Uiso 1 1 calc R . .
H35B H 0.3286 -0.6020 0.3225 0.055 Uiso 1 1 calc R . .
C30 C 0.3349(4) -0.1651(4) 0.4985(4) 0.0521(12) Uani 1 1 d . . .
N4 N 1.0067(3) 0.2177(3) 0.4540(3) 0.0610(12) Uani 1 1 d . . .
C21 C 1.0817(3) 0.1810(3) 0.4217(4) 0.0547(13) Uani 1 1 d . . .
H21A H 1.1006 0.2074 0.3680 0.066 Uiso 1 1 calc R . .
H21B H 1.1421 0.2074 0.4697 0.066 Uiso 1 1 calc R . .
C33 C 0.3392(3) -0.4440(3) 0.5812(3) 0.0460(10) Uani 1 1 d . . .
H33A H 0.3385 -0.4877 0.6238 0.055 Uiso 1 1 calc R . .
H33B H 0.2725 -0.4392 0.5717 0.055 Uiso 1 1 calc R . .
N1 N 0.6788(4) 0.1880(3) 0.1541(3) 0.0603(12) Uani 1 1 d . . .
N3 N 0.4923(3) 0.1068(3) 0.1078(3) 0.0517(10) Uani 1 1 d . . .
C9 C 0.7142(4) 0.1195(4) 0.1000(3) 0.0566(14) Uani 1 1 d . . .
H9A H 0.7126 0.0658 0.1314 0.068 Uiso 1 1 calc R . .
H9B H 0.7845 0.1553 0.0958 0.068 Uiso 1 1 calc R . .
C32 C 0.4206(3) -0.2678(3) 0.5699(3) 0.0477(11) Uani 1 1 d . . .
H32A H 0.4401 -0.2877 0.5113 0.057 Uiso 1 1 calc R . .
H32B H 0.4739 -0.2050 0.6041 0.057 Uiso 1 1 calc R . .
C36 C 0.4867(4) -0.6584(4) 0.3379(3) 0.0510(11) Uani 1 1 d . . .
H36A H 0.4490 -0.7252 0.2985 0.061 Uiso 1 1 calc R . .
H36B H 0.4952 -0.6098 0.2991 0.061 Uiso 1 1 calc R . .
C18 C 0.9986(5) 0.3454(5) 0.3135(4) 0.0707(17) Uani 1 1 d . . .
C25 C 0.3422(4) -0.1827(4) 0.4069(4) 0.0575(13) Uani 1 1 d . . .
H25A H 0.3359 -0.2467 0.3754 0.069 Uiso 1 1 calc R . .
C31 C 0.3220(4) -0.2492(4) 0.5507(4) 0.0551(12) Uani 1 1 d . . .
H31A H 0.2689 -0.3110 0.5143 0.066 Uiso 1 1 calc R . .
H31B H 0.3011 -0.2308 0.6088 0.066 Uiso 1 1 calc R . .
C24 C 1.0138(4) -0.2046(4) 0.4560(4) 0.0637(14) Uani 1 1 d . . .
H24A H 0.9496 -0.2287 0.4130 0.076 Uiso 1 1 calc R . .
H24B H 1.0519 -0.2459 0.4350 0.076 Uiso 1 1 calc R . .
C20 C 0.9149(4) 0.1978(4) 0.3871(5) 0.0770(19) Uani 1 1 d . . .
H20A H 0.8763 0.1255 0.3703 0.092 Uiso 1 1 calc R . .
H20B H 0.8731 0.2302 0.4166 0.092 Uiso 1 1 calc R . .
C29 C 0.3463(4) -0.0685(4) 0.5431(4) 0.0624(14) Uani 1 1 d . . .
H29A H 0.3427 -0.0549 0.6057 0.075 Uiso 1 1 calc R . .
C22 C 1.1277(4) 0.0321(4) 0.3660(4) 0.0665(15) Uani 1 1 d . . .
H22A H 1.1911 0.0663 0.4101 0.080 Uiso 1 1 calc R . .
H22B H 1.1396 0.0458 0.3060 0.080 Uiso 1 1 calc R . .
C28 C 0.3629(4) 0.0076(4) 0.4960(6) 0.0796(19) Uani 1 1 d . . .
H28A H 0.3698 0.0721 0.5266 0.096 Uiso 1 1 calc R . .
C11 C 0.5838(4) 0.1449(4) 0.1829(3) 0.0619(14) Uani 1 1 d . . .
H11A H 0.5765 0.1956 0.2307 0.074 Uiso 1 1 calc R . .
H11B H 0.5857 0.0893 0.2104 0.074 Uiso 1 1 calc R . .
C10 C 0.6860(4) -0.0013(4) -0.0511(4) 0.0634(14) Uani 1 1 d . . .
H10A H 0.6954 -0.0478 -0.0144 0.076 Uiso 1 1 calc R . .
H10B H 0.7504 0.0329 -0.0687 0.076 Uiso 1 1 calc R . .
C19 C 0.9353(5) 0.2343(4) 0.3003(5) 0.0772(18) Uani 1 1 d . . .
H19A H 0.8704 0.2200 0.2614 0.093 Uiso 1 1 calc R . .
H19B H 0.9694 0.1953 0.2671 0.093 Uiso 1 1 calc R . .
C26 C 0.3591(4) -0.1032(5) 0.3609(5) 0.0720(16) Uani 1 1 d . . .
H26A H 0.3633 -0.1156 0.2984 0.086 Uiso 1 1 calc R . .
C27 C 0.3694(5) -0.0110(5) 0.4039(6) 0.0754(17) Uani 1 1 d . . .
H27A H 0.3809 0.0406 0.3721 0.090 Uiso 1 1 calc R . .
C23 C 1.0912(4) -0.0806(4) 0.3600(4) 0.0672(15) Uani 1 1 d . . .
H23A H 1.0288 -0.1154 0.3147 0.081 Uiso 1 1 calc R . .
H23B H 1.1422 -0.1069 0.3416 0.081 Uiso 1 1 calc R . .
C12 C 0.3948(5) 0.0589(5) 0.1369(4) 0.0673(15) Uani 1 1 d . . .
H12A H 0.3756 0.1102 0.1728 0.081 Uiso 1 1 calc R . .
H12B H 0.4013 0.0130 0.1753 0.081 Uiso 1 1 calc R . .
C15 C 1.1088(12) 0.5522(9) 0.3421(10) 0.165(7) Uani 1 1 d . . .
H15A H 1.1440 0.6214 0.3505 0.198 Uiso 1 1 calc R . .
C14 C 1.1384(7) 0.4837(12) 0.2821(10) 0.147(5) Uani 1 1 d . . .
H14A H 1.1940 0.5063 0.2533 0.177 Uiso 1 1 calc R . .
C8 C 0.6973(7) 0.2860(4) 0.1285(5) 0.095(2) Uani 1 1 d . . .
H8A H 0.7416 0.2924 0.0830 0.114 Uiso 1 1 calc R . .
H8B H 0.6331 0.2870 0.0998 0.114 Uiso 1 1 calc R . .
C17 C 0.9814(8) 0.4192(6) 0.3727(6) 0.113(3) Uani 1 1 d . . .
H17A H 0.9301 0.3988 0.4069 0.136 Uiso 1 1 calc R . .
C16 C 1.0341(11) 0.5206(7) 0.3854(7) 0.151(5) Uani 1 1 d . . .
H16A H 1.0165 0.5668 0.4249 0.182 Uiso 1 1 calc R . .
C13 C 1.0770(6) 0.3750(7) 0.2676(6) 0.105(3) Uani 1 1 d . . .
H13A H 1.0919 0.3272 0.2273 0.126 Uiso 1 1 calc R . .
C7 C 0.7406(13) 0.3671(7) 0.2023(9) 0.224(8) Uani 1 1 d . . .
H7A H 0.7497 0.3542 0.2609 0.269 Uiso 1 1 calc R . .
C6 C 0.7755(9) 0.4786(9) 0.1949(8) 0.138(3) Uiso 1 1 d D . .
C3 C 0.8290(11) 0.6692(12) 0.1797(9) 0.175(5) Uiso 1 1 d D . .
H3A H 0.8435 0.7317 0.1644 0.210 Uiso 1 1 calc R . .
C5 C 0.6989(11) 0.5146(12) 0.1840(9) 0.178(5) Uiso 1 1 d D . .
H5A H 0.6307 0.4740 0.1771 0.213 Uiso 1 1 calc R . .
C1 C 0.8747(9) 0.5363(11) 0.1978(10) 0.194(6) Uiso 1 1 d D . .
H1A H 0.9227 0.5060 0.2006 0.233 Uiso 1 1 calc R . .
C2 C 0.9070(13) 0.6367(12) 0.1967(12) 0.238(8) Uiso 1 1 d D . .
H2A H 0.9752 0.6784 0.2065 0.286 Uiso 1 1 calc R . .
C4 C 0.7308(13) 0.6152(12) 0.1839(15) 0.275(9) Uiso 1 1 d D . .
H4A H 0.6844 0.6475 0.1869 0.330 Uiso 1 1 calc R . .
OW1 O 0.4100(13) 1.2881(9) 0.0814(11) 0.315(8) Uani 1 1 d . . .
OW2 O 1.107(2) 0.732(2) 0.074(2) 0.67(3) Uani 1 1 d . . .
OW3 O 0.9004(19) -0.0516(18) 0.1009(11) 0.427(15) Uani 1 1 d . . .

loop_
_atom_site_aniso_label
_atom_site_aniso_U_11
_atom_site_aniso_U_22
_atom_site_aniso_U_33
_atom_site_aniso_U_23
_atom_site_aniso_U_13
_atom_site_aniso_U_12
Ni3 0.0282(4) 0.0270(4) 0.0398(4) 0.0160(3) 0.0002(3) 0.0042(3)
Ni1 0.0390(4) 0.0355(4) 0.0324(4) 0.0138(3) -0.0052(3) 0.0109(3)
Ni2 0.0290(4) 0.0308(4) 0.0601(5) 0.0225(3) -0.0061(3) 0.0023(3)
O1 0.0422(17) 0.0456(17) 0.0505(17) 0.0291(14) -0.0063(14) 0.0057(13)
O5 0.0363(16) 0.0472(18) 0.0589(19) 0.0263(15) -0.0135(14) -0.0001(14)
O4 0.0396(16) 0.0423(17) 0.0528(17) 0.0326(14) 0.0066(13) 0.0125(13)
N8 0.0293(17) 0.0328(18) 0.0461(19) 0.0175(15) 0.0020(14) 0.0060(14)
O3 0.0353(17) 0.071(2) 0.070(2) 0.0473(19) -0.0001(15) 0.0036(16)
C41 0.036(2) 0.032(2) 0.035(2) 0.0160(16) -0.0040(16) 0.0097(16)
N9 0.0337(18) 0.0345(18) 0.048(2) 0.0138(15) -0.0007(15) 0.0082(14)
O6 0.0431(19) 0.082(3) 0.068(2) 0.042(2) -0.0082(17) -0.0162(18)
O2 0.0377(19) 0.098(3) 0.105(3) 0.078(3) -0.0133(19) 0.0027(19)
C44 0.033(2) 0.038(2) 0.039(2) 0.0192(18) 0.0019(17) 0.0063(17)
C42 0.029(2) 0.034(2) 0.045(2) 0.0174(17) -0.0035(17) 0.0051(16)
N5 0.0312(18) 0.041(2) 0.065(2) 0.0277(18) -0.0012(17) 0.0033(15)
N2 0.044(2) 0.044(2) 0.044(2) 0.0153(16) -0.0046(16) 0.0123(17)
C38 0.037(2) 0.034(2) 0.034(2) 0.0152(16) -0.0042(16) 0.0105(17)
C34 0.029(2) 0.039(2) 0.060(3) 0.019(2) -0.0033(19) 0.0042(17)
C40 0.035(2) 0.0292(19) 0.034(2) 0.0148(16) 0.0016(16) 0.0064(16)
C39 0.030(2) 0.039(2) 0.038(2) 0.0169(18) -0.0028(16) 0.0085(17)
C43 0.038(2) 0.034(2) 0.041(2) 0.0209(17) -0.0015(17) 0.0039(17)
C45 0.037(2) 0.037(2) 0.061(3) 0.022(2) -0.010(2) 0.0012(18)
N7 0.049(2) 0.045(2) 0.048(2) 0.0130(17) 0.0067(17) 0.0194(18)
C37 0.040(2) 0.043(2) 0.045(2) 0.0235(19) -0.0047(18) 0.0106(19)
N6 0.042(2) 0.039(2) 0.078(3) 0.021(2) 0.001(2) 0.0112(17)
C35 0.038(2) 0.038(2) 0.051(3) 0.0117(19) -0.0062(19) 0.0054(18)
C30 0.041(2) 0.046(3) 0.071(3) 0.015(2) 0.008(2) 0.018(2)
N4 0.044(2) 0.038(2) 0.094(3) 0.031(2) -0.013(2) 0.0069(17)
C21 0.038(2) 0.040(3) 0.073(3) 0.030(2) -0.011(2) -0.0034(19)
C33 0.044(2) 0.044(2) 0.054(3) 0.021(2) 0.013(2) 0.014(2)
N1 0.068(3) 0.045(2) 0.051(2) 0.0095(19) -0.015(2) 0.009(2)
N3 0.057(2) 0.052(2) 0.040(2) 0.0076(17) -0.0026(18) 0.0179(19)
C9 0.047(3) 0.049(3) 0.058(3) 0.021(2) -0.023(2) 0.004(2)
C32 0.047(3) 0.036(2) 0.060(3) 0.010(2) 0.007(2) 0.016(2)
C36 0.057(3) 0.048(3) 0.045(2) 0.011(2) 0.001(2) 0.019(2)
C18 0.060(3) 0.068(4) 0.074(4) 0.033(3) -0.018(3) 0.011(3)
C25 0.056(3) 0.051(3) 0.065(3) 0.012(2) 0.007(2) 0.020(2)
C31 0.047(3) 0.054(3) 0.067(3) 0.019(2) 0.006(2) 0.019(2)
C24 0.063(3) 0.038(3) 0.086(4) 0.018(3) -0.003(3) 0.016(2)
C20 0.045(3) 0.046(3) 0.128(5) 0.042(3) -0.023(3) 0.003(2)
C29 0.058(3) 0.053(3) 0.075(4) 0.005(3) 0.004(3) 0.026(3)
C22 0.041(3) 0.071(4) 0.088(4) 0.039(3) 0.012(3) 0.011(2)
C28 0.059(4) 0.046(3) 0.128(6) 0.011(3) 0.001(4) 0.021(3)
C11 0.077(4) 0.054(3) 0.040(3) 0.004(2) -0.014(2) 0.017(3)
C10 0.050(3) 0.069(4) 0.075(4) 0.020(3) 0.011(3) 0.026(3)
C19 0.066(4) 0.057(3) 0.091(4) 0.019(3) -0.032(3) 0.013(3)
C26 0.065(4) 0.075(4) 0.085(4) 0.035(3) 0.011(3) 0.029(3)
C27 0.062(4) 0.062(4) 0.114(5) 0.041(4) 0.015(4) 0.028(3)
C23 0.051(3) 0.057(3) 0.093(4) 0.022(3) 0.010(3) 0.017(3)
C12 0.082(4) 0.071(4) 0.054(3) 0.009(3) 0.009(3) 0.038(3)
C15 0.151(11) 0.110(9) 0.157(11) 0.076(8) -0.067(9) -0.038(8)
C14 0.067(5) 0.183(12) 0.197(13) 0.142(11) -0.004(7) 0.011(7)
C8 0.139(6) 0.045(3) 0.076(4) 0.015(3) -0.024(4) 0.017(4)
C17 0.152(8) 0.067(5) 0.110(6) 0.036(4) 0.020(6) 0.020(5)
C16 0.223(13) 0.061(5) 0.125(8) 0.038(5) -0.001(8) -0.002(6)
C13 0.093(5) 0.133(7) 0.110(6) 0.073(5) 0.009(5) 0.048(5)
C7 0.336(19) 0.050(5) 0.191(11) 0.031(6) -0.105(12) -0.001(8)
OW1 0.42(2) 0.191(11) 0.302(15) 0.010(10) -0.086(14) 0.136(13)
OW2 0.57(4) 0.65(4) 0.69(4) 0.17(3) 0.55(4) -0.05(3)
OW3 0.72(4) 0.59(3) 0.254(15) 0.236(19) 0.27(2) 0.48(3)

_geom_special_details            
; 
All esds (except the esd in the dihedral angle between two l.s. planes) 
are estimated using the full covariance matrix.  The cell esds are taken 
into account individually in the estimation of esds in distances, angles 
and torsion angles; correlations between esds in cell parameters are only 
used when they are defined by crystal symmetry.  An approximate (isotropic) 
treatment of cell esds 