####################################################################### 
# 
# This file contains crystal structure data downloaded from the 
# Cambridge Structural Database (CSD) hosted by the Cambridge 
# Crystallographic Data Centre (CCDC).
# 
# Full information about CCDC data access policies and citation 
# guidelines are available at http://www.ccdc.cam.ac.uk/access/V1 
# 
# Audit and citation data items may have been added by the CCDC. 
# Please retain this information to preserve the provenance of 
# this file and to allow appropriate attribution of the data. 
# 
#######################################################################

data_complex-2
_audit_block_doi                 10.5517/cc13cfqm
#TrackingRef '- 1-3.cif'

_database_code_depnum_ccdc_archive 'CCDC 1023890'
loop_
_citation_id
_citation_doi
_citation_year
1 10.1016/j.cclet.2015.01.019 2015
_audit_update_record             
;
2014-09-11 deposited with the CCDC.	2024-07-13 downloaded from the CCDC.
;


_audit_creation_method           SHELXL-97
_chemical_name_systematic        
; 
 ? 
;
_chemical_name_common            ?
_chemical_melting_point          ?
_chemical_formula_moiety         ?
_chemical_formula_sum            'C36 H52 Cu3 N9 O21'
_chemical_formula_weight         1137.49

loop_
_atom_type_symbol
_atom_type_description
_atom_type_scat_dispersion_real
_atom_type_scat_dispersion_imag
_atom_type_scat_source
C C 0.0033 0.0016 'International Tables Vol C Tables 4.2.6.8 and 6.1.1.4'
H H 0.0000 0.0000 'International Tables Vol C Tables 4.2.6.8 and 6.1.1.4'
Cu Cu 0.3201 1.2651 'International Tables Vol C Tables 4.2.6.8 and 6.1.1.4'
N N 0.0061 0.0033 'International Tables Vol C Tables 4.2.6.8 and 6.1.1.4'
O O 0.0106 0.0060 'International Tables Vol C Tables 4.2.6.8 and 6.1.1.4'

_symmetry_cell_setting           monoclinic
_symmetry_space_group_name_H-M   P21/c

loop_
_symmetry_equiv_pos_as_xyz
'x, y, z'
'-x, y+1/2, -z+1/2'
'-x, -y, -z'
'x, -y-1/2, z-1/2'

_cell_length_a                   10.173(2)
_cell_length_b                   36.243(7)
_cell_length_c                   23.027(6)
_cell_angle_alpha                90.00
_cell_angle_beta                 111.70(3)
_cell_angle_gamma                90.00
_cell_volume                     7888(3)
_cell_formula_units_Z            4
_cell_measurement_temperature    293(2)
_cell_measurement_reflns_used    18002
_cell_measurement_theta_min      1.4727
_cell_measurement_theta_max      27.8904

_exptl_crystal_description       block
_exptl_crystal_colour            green
_exptl_crystal_size_max          0.23
_exptl_crystal_size_mid          0.21
_exptl_crystal_size_min          0.2
_exptl_crystal_density_meas      ?
_exptl_crystal_density_diffrn    0.958
_exptl_crystal_density_method    'not measured'
_exptl_crystal_F_000             2344
_exptl_absorpt_coefficient_mu    0.854
_exptl_absorpt_correction_type   Multi-scan
_exptl_absorpt_correction_T_min  0.822
_exptl_absorpt_correction_T_max  0.843
_exptl_absorpt_process_details   CrystalClear

_exptl_special_details           
; 
 ? 
;

_diffrn_ambient_temperature      293(2)
_diffrn_radiation_wavelength     0.71073
_diffrn_radiation_type           MoK\a
_diffrn_radiation_source         'fine-focus sealed tube'
_diffrn_radiation_monochromator  graphite
_diffrn_measurement_device_type  'Rigaku Saturn70 (4x4 bin mode) '
_diffrn_measurement_method       'profile data from \w-scans'
_diffrn_detector_area_resol_mean ?
_diffrn_standards_number         ?
_diffrn_standards_interval_count ?
_diffrn_standards_interval_time  ?
_diffrn_standards_decay_%        ?
_diffrn_reflns_number            67808
_diffrn_reflns_av_R_equivalents  0.0556
_diffrn_reflns_av_sigmaI/netI    0.0660
_diffrn_reflns_limit_h_min       -13
_diffrn_reflns_limit_h_max       12
_diffrn_reflns_limit_k_min       -47
_diffrn_reflns_limit_k_max       46
_diffrn_reflns_limit_l_min       -30
_diffrn_reflns_limit_l_max       30
_diffrn_reflns_theta_min         1.11
_diffrn_reflns_theta_max         27.89
_reflns_number_total             18442
_reflns_number_gt                13607
_reflns_threshold_expression     >2sigma(I)

_computing_data_collection       'CrystalClear (Rigaku Inc., 2008)'
_computing_cell_refinement       'CrystalClear (Rigaku Inc., 2008)'
_computing_data_reduction        'CrystalClear (Rigaku Inc., 2008)'
_computing_structure_solution    'SHELXS-97 (Sheldrick, 1990)'
_computing_structure_refinement  'SHELXL-97 (Sheldrick, 1997)'
_computing_molecular_graphics    ?
_computing_publication_material  ?

_refine_special_details          
; 
 Refinement of F^2^ against ALL reflections.  The weighted R-factor wR and 
 goodness of fit S are based on F^2^, conventional R-factors R are based 
 on F, with F set to zero for negative F^2^. The threshold expression of 
 F^2^ > 2sigma(F^2^) is used only for calculating R-factors(gt) etc. and is 
 not relevant to the choice of reflections for refinement.  R-factors based 
 on F^2^ are statistically about twice as large as those based on F, and R- 
 factors based on ALL data will be even larger. 
;

_refine_ls_structure_factor_coef Fsqd
_refine_ls_matrix_type           full
_refine_ls_weighting_scheme      calc
_refine_ls_weighting_details     
'calc w=1/[\s^2^(Fo^2^)+(0.0770P)^2^+0.0000P] where P=(Fo^2^+2Fc^2^)/3'
_atom_sites_solution_primary     direct
_atom_sites_solution_secondary   difmap
_atom_sites_solution_hydrogens   geom
_refine_ls_hydrogen_treatment    mixed
_refine_ls_extinction_method     none
_refine_ls_extinction_coef       ?
_refine_ls_number_reflns         18442
_refine_ls_number_parameters     631
_refine_ls_number_restraints     0
_refine_ls_R_factor_all          0.0644
_refine_ls_R_factor_gt           0.0499
_refine_ls_wR_factor_ref         0.1362
_refine_ls_wR_factor_gt          0.1294
_refine_ls_goodness_of_fit_ref   0.957
_refine_ls_restrained_S_all      0.957
_refine_ls_shift/su_max          0.049
_refine_ls_shift/su_mean         0.001

loop_
_atom_site_label
_atom_site_type_symbol
_atom_site_fract_x
_atom_site_fract_y
_atom_site_fract_z
_atom_site_U_iso_or_equiv
_atom_site_adp_type
_atom_site_occupancy
_atom_site_symmetry_multiplicity
_atom_site_calc_flag
_atom_site_refinement_flags
_atom_site_disorder_assembly
_atom_site_disorder_group
O10 O -0.10296(17) 0.02876(5) 0.55743(7) 0.0293(4) Uani 1 1 d . . .
Cu1 Cu 0.13608(3) -0.008535(7) 0.525913(12) 0.01919(8) Uani 1 1 d . . .
Cu2 Cu 0.38807(3) 0.355023(8) 0.619411(12) 0.02104(8) Uani 1 1 d . . .
Cu3 Cu 0.11674(3) 0.337598(7) 0.566105(12) 0.01939(8) Uani 1 1 d . . .
O1 O 0.42327(16) 0.30930(5) 0.58165(8) 0.0280(4) Uani 1 1 d . . .
O2 O 0.19400(17) 0.29301(5) 0.54322(8) 0.0299(4) Uani 1 1 d . . .
O3 O 0.36308(17) 0.11875(5) 1.04127(8) 0.0322(4) Uani 1 1 d . . .
O4 O 0.13708(17) 0.13628(5) 0.99394(7) 0.0303(4) Uani 1 1 d . . .
O5 O 0.37690(17) 0.17262(5) 0.19079(8) 0.0321(4) Uani 1 1 d . . .
O6 O 0.14283(16) 0.18330(5) 0.14892(7) 0.0276(4) Uani 1 1 d . . .
O7 O -0.30504(17) -0.10186(5) 0.85353(8) 0.0329(4) Uani 1 1 d . . .
O8 O -0.07512(16) -0.11451(5) 0.90356(8) 0.0287(4) Uani 1 1 d . . .
O11 O 0.16235(16) 0.04062(5) 0.49413(8) 0.0272(4) Uani 1 1 d . . .
O9 O 0.12649(17) 0.01412(6) 0.60188(8) 0.0339(4) Uani 1 1 d . . .
O19 O 0.15788(19) 0.08178(5) 0.79494(8) 0.0347(4) Uani 1 1 d . . .
O21 O 0.05720(19) -0.04061(5) 0.77040(9) 0.0389(4) Uani 1 1 d . . .
O20 O 0.0062(2) 0.02217(6) 0.93200(8) 0.0453(5) Uani 1 1 d . . .
O18 O 0.2018(2) 0.17299(6) 0.50717(9) 0.0417(5) Uani 1 1 d . . .
O17 O 0.35087(18) 0.23908(5) 0.37555(8) 0.0306(4) Uani 1 1 d . . .
O16 O 0.32044(18) 0.11391(5) 0.35945(8) 0.0332(4) Uani 1 1 d . . .
O15 O 0.35518(16) -0.02047(5) 0.56199(8) 0.0300(4) Uani 1 1 d . . .
O13 O 0.59821(17) 0.37065(5) 0.67279(8) 0.0317(4) Uani 1 1 d . . .
O14 O -0.09210(16) 0.31760(5) 0.52121(8) 0.0299(4) Uani 1 1 d . . .
N1 N -0.3213(2) 0.30793(6) 0.46535(11) 0.0355(5) Uani 1 1 d . . .
N2 N 0.8290(2) 0.37409(6) 0.72900(10) 0.0320(5) Uani 1 1 d . . .
N3 N 0.5782(2) -0.02207(7) 0.62937(10) 0.0341(5) Uani 1 1 d . . .
N7 N 0.0953(2) 0.02170(6) 0.77758(9) 0.0274(4) Uani 1 1 d . . .
N9 N 0.0339(2) -0.01012(6) 0.85263(9) 0.0287(4) Uani 1 1 d . . .
N8 N 0.0725(2) 0.05341(5) 0.86171(9) 0.0241(4) Uani 1 1 d . . .
N5 N 0.3333(2) 0.17677(5) 0.36485(9) 0.0231(4) Uani 1 1 d . . .
N4 N 0.2693(2) 0.20709(5) 0.44055(9) 0.0260(4) Uani 1 1 d . . .
N6 N 0.2735(2) 0.14270(5) 0.43796(9) 0.0258(4) Uani 1 1 d . . .
O12 O -0.06792(17) 0.05476(5) 0.44936(8) 0.0315(4) Uani 1 1 d . . .
C12 C 0.0621(2) 0.06076(6) 0.46198(10) 0.0233(5) Uani 1 1 d . . .
C13 C 0.0114(3) 0.02589(7) 0.60319(11) 0.0264(5) Uani 1 1 d . . .
C21 C 0.2464(2) 0.11856(7) 0.99634(11) 0.0258(5) Uani 1 1 d . . .
C16 C 0.0624(2) -0.01166(7) 0.79821(11) 0.0273(5) Uani 1 1 d . . .
C6 C 0.3099(2) 0.14239(6) 0.38511(11) 0.0258(5) Uani 1 1 d . . .
C9 C 0.2614(2) 0.18365(6) 0.19348(11) 0.0242(5) Uani 1 1 d . . .
C30 C 0.7216(2) 0.36542(6) 0.67638(11) 0.0251(5) Uani 1 1 d . . .
C5 C 0.3217(2) 0.20972(6) 0.39308(11) 0.0248(5) Uani 1 1 d . . .
C11 C 0.0964(2) 0.09544(7) 0.43373(11) 0.0277(5) Uani 1 1 d . . .
H11A H 0.0376 0.1154 0.4384 0.033 Uiso 1 1 calc R . .
H11B H 0.0728 0.0915 0.3894 0.033 Uiso 1 1 calc R . .
C1 C 0.3234(2) 0.28779(6) 0.55232(11) 0.0247(5) Uani 1 1 d . . .
C23 C -0.1391(2) -0.06006(7) 0.84246(12) 0.0314(6) Uani 1 1 d . . .
H23A H -0.2074 -0.0411 0.8413 0.038 Uiso 1 1 calc R . .
H23B H -0.1479 -0.0649 0.7997 0.038 Uiso 1 1 calc R . .
C15 C 0.1276(3) 0.02148(8) 0.72005(11) 0.0312(6) Uani 1 1 d . . .
H15A H 0.1441 -0.0037 0.7101 0.037 Uiso 1 1 calc R . .
H15B H 0.2133 0.0355 0.7271 0.037 Uiso 1 1 calc R . .
C24 C -0.1755(2) -0.09479(6) 0.86931(11) 0.0247(5) Uani 1 1 d . . .
C17 C 0.0370(3) 0.02184(8) 0.88586(11) 0.0312(6) Uani 1 1 d . . .
C2 C 0.3574(3) 0.25271(7) 0.52570(11) 0.0291(5) Uani 1 1 d . . .
H2A H 0.3763 0.2332 0.5565 0.035 Uiso 1 1 calc R . .
H2B H 0.4422 0.2564 0.5165 0.035 Uiso 1 1 calc R . .
C14 C 0.0094(3) 0.03768(9) 0.66647(11) 0.0390(7) Uani 1 1 d . . .
H14A H 0.0150 0.0644 0.6695 0.047 Uiso 1 1 calc R . .
H14B H -0.0798 0.0302 0.6691 0.047 Uiso 1 1 calc R . .
C18 C 0.1141(2) 0.05422(7) 0.81094(10) 0.0253(5) Uani 1 1 d . . .
C4 C 0.2456(3) 0.17413(7) 0.46476(11) 0.0274(5) Uani 1 1 d . . .
C7 C 0.3775(2) 0.17899(7) 0.31068(10) 0.0260(5) Uani 1 1 d . . .
H7A H 0.3933 0.1543 0.2984 0.031 Uiso 1 1 calc R . .
H7B H 0.4660 0.1924 0.3225 0.031 Uiso 1 1 calc R . .
C8 C 0.2658(2) 0.19827(7) 0.25544(10) 0.0271(5) Uani 1 1 d . . .
H8A H 0.1737 0.1949 0.2582 0.033 Uiso 1 1 calc R . .
H8B H 0.2858 0.2245 0.2577 0.033 Uiso 1 1 calc R . .
C34 C 0.4411(2) -0.02819(7) 0.61522(11) 0.0286(5) Uani 1 1 d . . .
C10 C 0.2509(2) 0.10692(7) 0.46332(12) 0.0295(5) Uani 1 1 d . . .
H10A H 0.2779 0.1089 0.5083 0.035 Uiso 1 1 calc R . .
H10B H 0.3101 0.0883 0.4550 0.035 Uiso 1 1 calc R . .
C22 C 0.0096(3) -0.04535(7) 0.87892(13) 0.0369(6) Uani 1 1 d . . .
H22A H 0.0214 -0.0418 0.9223 0.044 Uiso 1 1 calc R . .
H22B H 0.0791 -0.0633 0.8775 0.044 Uiso 1 1 calc R . .
C20 C 0.2359(3) 0.09492(8) 0.94096(12) 0.0379(6) Uani 1 1 d . . .
H20A H 0.2818 0.0715 0.9560 0.045 Uiso 1 1 calc R . .
H20B H 0.2867 0.1069 0.9179 0.045 Uiso 1 1 calc R . .
C19 C 0.0844(2) 0.08772(7) 0.89672(11) 0.0299(5) Uani 1 1 d . . .
H19A H 0.0235 0.0864 0.9206 0.036 Uiso 1 1 calc R . .
H19B H 0.0524 0.1081 0.8676 0.036 Uiso 1 1 calc R . .
C28 C -0.2078(3) 0.32953(7) 0.48714(11) 0.0290(5) Uani 1 1 d . . .
C29 C 0.7525(3) 0.35021(9) 0.62270(14) 0.0463(7) Uani 1 1 d . . .
H29A H 0.6653 0.3446 0.5890 0.069 Uiso 1 1 calc R . .
H29B H 0.8078 0.3281 0.6355 0.069 Uiso 1 1 calc R . .
H29C H 0.8044 0.3681 0.6090 0.069 Uiso 1 1 calc R . .
C31 C 0.8005(3) 0.39018(10) 0.78106(13) 0.0483(8) Uani 1 1 d . . .
H31A H 0.7002 0.3910 0.7711 0.072 Uiso 1 1 calc R . .
H31B H 0.8383 0.4148 0.7887 0.072 Uiso 1 1 calc R . .
H31C H 0.8442 0.3754 0.8178 0.072 Uiso 1 1 calc R . .
C32 C 0.9794(3) 0.36974(8) 0.73926(15) 0.0428(7) Uani 1 1 d . . .
H32A H 0.9886 0.3616 0.7013 0.064 Uiso 1 1 calc R . .
H32B H 1.0211 0.3518 0.7715 0.064 Uiso 1 1 calc R . .
H32C H 1.0269 0.3930 0.7517 0.064 Uiso 1 1 calc R . .
C36 C 0.6268(3) -0.00526(11) 0.58342(14) 0.0566(10) Uani 1 1 d . . .
H36A H 0.6888 -0.0220 0.5737 0.085 Uiso 1 1 calc R . .
H36B H 0.6768 0.0171 0.6002 0.085 Uiso 1 1 calc R . .
H36C H 0.5469 0.0002 0.5461 0.085 Uiso 1 1 calc R . .
C33 C 0.3949(3) -0.04513(10) 0.66365(14) 0.0526(9) Uani 1 1 d . . .
H33A H 0.2958 -0.0508 0.6455 0.079 Uiso 1 1 calc R . .
H33B H 0.4118 -0.0281 0.6976 0.079 Uiso 1 1 calc R . .
H33C H 0.4474 -0.0674 0.6789 0.079 Uiso 1 1 calc R . .
C3 C 0.2369(3) 0.24119(7) 0.46669(11) 0.0294(5) Uani 1 1 d . . .
H3A H 0.1523 0.2376 0.4760 0.035 Uiso 1 1 calc R . .
H3B H 0.2181 0.2607 0.4359 0.035 Uiso 1 1 calc R . .
C27 C -0.4657(3) 0.32076(10) 0.43197(17) 0.0601(10) Uani 1 1 d . . .
H27A H -0.4964 0.3350 0.4597 0.090 Uiso 1 1 calc R . .
H27B H -0.5271 0.2999 0.4170 0.090 Uiso 1 1 calc R . .
H27C H -0.4685 0.3358 0.3972 0.090 Uiso 1 1 calc R . .
C26 C -0.3025(3) 0.26890(9) 0.48316(18) 0.0596(9) Uani 1 1 d . . .
H26A H -0.2109 0.2608 0.4853 0.089 Uiso 1 1 calc R . .
H26B H -0.3744 0.2545 0.4526 0.089 Uiso 1 1 calc R . .
H26C H -0.3097 0.2658 0.5233 0.089 Uiso 1 1 calc R . .
C25 C -0.2268(3) 0.36962(8) 0.46888(15) 0.0498(8) Uani 1 1 d . . .
H25A H -0.1408 0.3828 0.4909 0.075 Uiso 1 1 calc R . .
H25B H -0.3023 0.3798 0.4794 0.075 Uiso 1 1 calc R . .
H25C H -0.2496 0.3719 0.4247 0.075 Uiso 1 1 calc R . .
C35 C 0.6878(3) -0.02965(9) 0.69028(13) 0.0425(7) Uani 1 1 d . . .
H35A H 0.6514 -0.0463 0.7132 0.064 Uiso 1 1 calc R . .
H35B H 0.7160 -0.0070 0.7131 0.064 Uiso 1 1 calc R . .
H35C H 0.7680 -0.0407 0.6846 0.064 Uiso 1 1 calc R . .

loop_
_atom_site_aniso_label
_atom_site_aniso_U_11
_atom_site_aniso_U_22
_atom_site_aniso_U_33
_atom_site_aniso_U_23
_atom_site_aniso_U_13
_atom_site_aniso_U_12
O10 0.0277(9) 0.0404(10) 0.0214(9) -0.0061(7) 0.0111(7) 0.0037(8)
Cu1 0.01868(15) 0.02483(15) 0.01555(14) 0.00065(11) 0.00808(11) -0.00163(11)
Cu2 0.02027(15) 0.02289(14) 0.01938(15) 0.00065(11) 0.00667(11) -0.00125(11)
Cu3 0.02122(15) 0.01962(14) 0.01764(15) -0.00075(10) 0.00754(11) -0.00164(10)
O1 0.0238(8) 0.0292(9) 0.0310(9) -0.0068(7) 0.0103(7) -0.0020(7)
O2 0.0302(9) 0.0284(9) 0.0341(10) -0.0108(8) 0.0153(8) -0.0039(7)
O3 0.0274(9) 0.0361(10) 0.0310(9) -0.0135(8) 0.0083(8) 0.0027(7)
O4 0.0290(9) 0.0371(10) 0.0226(9) -0.0070(7) 0.0072(7) 0.0036(7)
O5 0.0265(9) 0.0459(11) 0.0241(9) -0.0103(8) 0.0096(7) 0.0002(8)
O6 0.0248(9) 0.0354(10) 0.0220(9) -0.0043(7) 0.0079(7) 0.0036(7)
O7 0.0227(9) 0.0296(9) 0.0438(11) 0.0116(8) 0.0095(8) 0.0004(7)
O8 0.0242(9) 0.0276(9) 0.0312(9) 0.0086(7) 0.0065(7) -0.0002(7)
O11 0.0239(8) 0.0275(9) 0.0319(9) 0.0089(7) 0.0124(7) -0.0012(7)
O9 0.0260(9) 0.0574(12) 0.0191(9) -0.0094(8) 0.0093(7) 0.0028(8)
O19 0.0473(11) 0.0335(10) 0.0287(10) 0.0021(8) 0.0202(8) -0.0095(8)
O21 0.0369(10) 0.0296(10) 0.0509(12) -0.0117(9) 0.0169(9) -0.0024(8)
O20 0.0610(13) 0.0554(13) 0.0257(10) -0.0020(9) 0.0231(9) -0.0202(10)
O18 0.0576(12) 0.0423(11) 0.0378(11) -0.0045(9) 0.0325(10) -0.0100(9)
O17 0.0423(10) 0.0233(8) 0.0266(9) -0.0024(7) 0.0131(8) -0.0093(7)
O16 0.0457(11) 0.0221(9) 0.0366(10) -0.0073(7) 0.0207(8) -0.0031(8)
O15 0.0195(8) 0.0439(11) 0.0263(9) 0.0059(8) 0.0081(7) 0.0036(7)
O13 0.0205(9) 0.0375(10) 0.0328(10) -0.0044(8) 0.0046(7) -0.0018(7)
O14 0.0222(9) 0.0353(10) 0.0280(9) -0.0023(8) 0.0045(7) -0.0044(7)
N1 0.0217(11) 0.0351(12) 0.0410(13) 0.0019(10) 0.0014(9) -0.0062(9)
N2 0.0209(10) 0.0445(13) 0.0296(11) 0.0018(10) 0.0080(9) 0.0011(9)
N3 0.0224(11) 0.0514(14) 0.0249(11) 0.0032(10) 0.0043(9) 0.0009(10)
N7 0.0361(11) 0.0308(11) 0.0181(10) -0.0037(8) 0.0134(9) -0.0034(9)
N9 0.0318(11) 0.0273(10) 0.0237(11) 0.0037(8) 0.0066(9) -0.0069(8)
N8 0.0305(10) 0.0258(10) 0.0178(9) -0.0017(8) 0.0112(8) -0.0040(8)
N5 0.0307(10) 0.0212(10) 0.0199(10) -0.0013(8) 0.0120(8) -0.0013(8)
N4 0.0333(11) 0.0224(10) 0.0248(10) -0.0010(8) 0.0138(9) 0.0008(8)
N6 0.0309(11) 0.0220(10) 0.0264(11) 0.0007(8) 0.0128(9) -0.0047(8)
O12 0.0266(9) 0.0318(9) 0.0360(10) 0.0136(8) 0.0115(7) -0.0028(7)
C12 0.0255(12) 0.0255(11) 0.0195(11) -0.0014(9) 0.0090(9) -0.0036(9)
C13 0.0322(13) 0.0306(12) 0.0195(12) -0.0016(10) 0.0132(10) -0.0011(10)
C21 0.0260(12) 0.0277(12) 0.0251(12) -0.0075(10) 0.0109(10) -0.0018(10)
C16 0.0218(12) 0.0278(12) 0.0305(13) -0.0018(10) 0.0074(10) -0.0012(9)
C6 0.0245(12) 0.0242(12) 0.0288(13) 0.0014(10) 0.0098(10) -0.0027(9)
C9 0.0296(13) 0.0231(11) 0.0216(12) -0.0004(9) 0.0115(10) 0.0003(9)
C30 0.0262(12) 0.0228(11) 0.0264(12) 0.0011(9) 0.0099(10) -0.0028(9)
C5 0.0286(12) 0.0234(11) 0.0233(12) -0.0027(9) 0.0107(10) -0.0044(9)
C11 0.0246(12) 0.0306(13) 0.0265(13) 0.0060(10) 0.0079(10) -0.0031(10)
C1 0.0288(13) 0.0240(11) 0.0215(11) -0.0001(9) 0.0097(10) 0.0020(9)
C23 0.0240(13) 0.0310(13) 0.0328(14) 0.0123(11) 0.0030(10) -0.0005(10)
C15 0.0350(14) 0.0436(15) 0.0186(12) -0.0059(11) 0.0140(10) -0.0024(11)
C24 0.0283(13) 0.0233(11) 0.0204(11) 0.0026(9) 0.0065(10) -0.0005(9)
C17 0.0336(13) 0.0418(15) 0.0178(12) 0.0013(10) 0.0091(10) -0.0121(11)
C2 0.0310(13) 0.0274(12) 0.0298(13) -0.0072(10) 0.0125(10) 0.0037(10)
C14 0.0491(16) 0.0537(17) 0.0181(12) 0.0026(12) 0.0170(11) 0.0153(14)
C18 0.0321(13) 0.0299(12) 0.0144(11) 0.0003(9) 0.0093(9) -0.0012(10)
C4 0.0302(13) 0.0267(12) 0.0271(13) -0.0027(10) 0.0127(10) -0.0053(10)
C7 0.0262(12) 0.0330(13) 0.0224(12) -0.0032(10) 0.0133(10) -0.0035(10)
C8 0.0339(13) 0.0307(12) 0.0184(11) -0.0057(9) 0.0115(10) 0.0001(10)
C34 0.0252(12) 0.0329(13) 0.0244(13) 0.0040(10) 0.0054(10) 0.0043(10)
C10 0.0298(13) 0.0252(12) 0.0312(13) 0.0069(10) 0.0085(11) -0.0051(10)
C22 0.0340(1