####################################################################### 
# 
# This file contains crystal structure data downloaded from the 
# Cambridge Structural Database (CSD) hosted by the Cambridge 
# Crystallographic Data Centre (CCDC).
# 
# Full information about CCDC data access policies and citation 
# guidelines are available at http://www.ccdc.cam.ac.uk/access/V1 
# 
# Audit and citation data items may have been added by the CCDC. 
# Please retain this information to preserve the provenance of 
# this file and to allow appropriate attribution of the data. 
# 
#######################################################################

data_1
_audit_block_doi                 10.5517/cc11zfwb
_database_code_depnum_ccdc_archive 'CCDC 982572'
loop_
_citation_id
_citation_doi
_citation_year
1 10.1016/j.poly.2014.12.029 2015
_audit_update_record             
;
2014-01-21 deposited with the CCDC.	2024-07-13 downloaded from the CCDC.
;

_audit_creation_method           SHELXL-97
_chemical_name_systematic        
; 
 ? 
;
_chemical_name_common            ?
_chemical_melting_point          ?
_chemical_formula_moiety         'C35 H50 Cd N4 O13'
_chemical_formula_sum            'C35 H50 Cd N4 O13'
_chemical_formula_weight         847.19

loop_
_atom_type_symbol
_atom_type_description
_atom_type_scat_dispersion_real
_atom_type_scat_dispersion_imag
_atom_type_scat_source
C C 0.0033 0.0016 'International Tables Vol C Tables 4.2.6.8 and 6.1.1.4'
H H 0.0000 0.0000 'International Tables Vol C Tables 4.2.6.8 and 6.1.1.4'
O O 0.0106 0.0060 'International Tables Vol C Tables 4.2.6.8 and 6.1.1.4'
N N 0.0061 0.0033 'International Tables Vol C Tables 4.2.6.8 and 6.1.1.4'
Cd Cd -0.8075 1.2024 'International Tables Vol C Tables 4.2.6.8 and 6.1.1.4'

_symmetry_cell_setting           Monoclinic
_symmetry_space_group_name_H-M   C2/c

loop_
_symmetry_equiv_pos_as_xyz
'x, y, z'
'-x, y, -z+1/2'
'x+1/2, y+1/2, z'
'-x+1/2, y+1/2, -z+1/2'
'-x, -y, -z'
'x, -y, z-1/2'
'-x+1/2, -y+1/2, -z'
'x+1/2, -y+1/2, z-1/2'

_cell_length_a                   24.4671(9)
_cell_length_b                   14.7460(6)
_cell_length_c                   24.1155(9)
_cell_angle_alpha                90.00
_cell_angle_beta                 107.8040(10)
_cell_angle_gamma                90.00
_cell_volume                     8284.0(5)
_cell_formula_units_Z            8
_cell_measurement_temperature    296(2)
_cell_measurement_reflns_used    ?
_cell_measurement_theta_min      ?
_cell_measurement_theta_max      ?

_exptl_crystal_description       ?
_exptl_crystal_colour            ?
_exptl_crystal_size_max          0.22
_exptl_crystal_size_mid          0.20
_exptl_crystal_size_min          0.18
_exptl_crystal_density_meas      ?
_exptl_crystal_density_diffrn    1.359
_exptl_crystal_density_method    'not measured'
_exptl_crystal_F_000             3520
_exptl_absorpt_coefficient_mu    0.590
_exptl_absorpt_correction_type   Multi-scan
_exptl_absorpt_correction_T_min  0.8811
_exptl_absorpt_correction_T_max  0.9012
_exptl_absorpt_process_details   'Bruker SMART'

_exptl_special_details           
; 
 ? 
;

_diffrn_ambient_temperature      296(2)
_diffrn_radiation_wavelength     0.71073
_diffrn_radiation_type           MoK\a
_diffrn_radiation_source         'fine-focus sealed tube'
_diffrn_radiation_monochromator  graphite
_diffrn_measurement_device_type  'CCD area detector'
_diffrn_measurement_method       '\f and \w scans'
_diffrn_detector_area_resol_mean ?
_diffrn_standards_number         ?
_diffrn_standards_interval_count ?
_diffrn_standards_interval_time  ?
_diffrn_standards_decay_%        ?
_diffrn_reflns_number            25986
_diffrn_reflns_av_R_equivalents  0.0405
_diffrn_reflns_av_sigmaI/netI    0.0581
_diffrn_reflns_limit_h_min       -22
_diffrn_reflns_limit_h_max       32
_diffrn_reflns_limit_k_min       -19
_diffrn_reflns_limit_k_max       18
_diffrn_reflns_limit_l_min       -31
_diffrn_reflns_limit_l_max       23
_diffrn_reflns_theta_min         1.63
_diffrn_reflns_theta_max         28.34
_reflns_number_total             10072
_reflns_number_gt                6213
_reflns_threshold_expression     >2sigma(I)

_computing_data_collection       'Bruker SMART'
_computing_cell_refinement       'Bruker SMART'
_computing_data_reduction        'Bruker SMART'
_computing_structure_solution    'SHELXS97 (Sheldrick, 2008)'
_computing_structure_refinement  'SHELXS97 (Sheldrick, 2008)'
_computing_molecular_graphics    'SHELXTL (Sheldrick, 2008)'
_computing_publication_material  'SHELXTL (Sheldrick, 2008)'

_refine_special_details          
; 
 Refinement of F^2^ against ALL reflections.  The weighted R-factor wR and 
 goodness of fit S are based on F^2^, conventional R-factors R are based 
 on F, with F set to zero for negative F^2^. The threshold expression of 
 F^2^ > 2sigma(F^2^) is used only for calculating R-factors(gt) etc. and is 
 not relevant to the choice of reflections for refinement.  R-factors based 
 on F^2^ are statistically about twice as large as those based on F, and R- 
 factors based on ALL data will be even larger. 
;

_refine_ls_structure_factor_coef Fsqd
_refine_ls_matrix_type           full
_refine_ls_weighting_scheme      calc
_refine_ls_weighting_details     
'calc w=1/[\s^2^(Fo^2^)+(0.0323P)^2^+0.0000P] where P=(Fo^2^+2Fc^2^)/3'
_atom_sites_solution_primary     direct
_atom_sites_solution_secondary   difmap
_atom_sites_solution_hydrogens   geom
_refine_ls_hydrogen_treatment    constr
_refine_ls_extinction_method     none
_refine_ls_extinction_coef       ?
_refine_ls_number_reflns         10072
_refine_ls_number_parameters     451
_refine_ls_number_restraints     6
_refine_ls_R_factor_all          0.0793
_refine_ls_R_factor_gt           0.0440
_refine_ls_wR_factor_ref         0.0948
_refine_ls_wR_factor_gt          0.0879
_refine_ls_goodness_of_fit_ref   1.056
_refine_ls_restrained_S_all      1.112
_refine_ls_shift/su_max          0.015
_refine_ls_shift/su_mean         0.001

loop_
_atom_site_label
_atom_site_type_symbol
_atom_site_fract_x
_atom_site_fract_y
_atom_site_fract_z
_atom_site_U_iso_or_equiv
_atom_site_adp_type
_atom_site_occupancy
_atom_site_symmetry_multiplicity
_atom_site_calc_flag
_atom_site_refinement_flags
_atom_site_disorder_assembly
_atom_site_disorder_group
Cd1 Cd 0.170753(3) 0.489705(5) 0.188335(4) 0.04722(3) Uani 1 1 d . . .
N1 N 0.19075(4) 0.42484(6) 0.27697(4) 0.0524(3) Uani 1 1 d . . .
N2 N 0.20683(4) 0.39503(6) 0.36946(4) 0.0572(3) Uani 1 1 d . . .
N3 N 0.26016(4) 0.53991(7) 0.20207(4) 0.0542(3) Uani 1 1 d . . .
N4 N 0.34148(4) 0.58886(7) 0.19333(4) 0.0539(3) Uani 1 1 d . . .
C1 C 0.11934(5) 0.33580(8) 0.13637(5) 0.0574(4) Uani 1 1 d . . .
C2 C 0.09098(5) 0.24623(8) 0.11639(5) 0.0483(4) Uani 1 1 d . . .
C3 C 0.03466(5) 0.23395(8) 0.11491(5) 0.0581(4) Uani 1 1 d . . .
H3 H 0.0141 0.2821 0.1235 0.070 Uiso 1 1 calc R . .
C4 C 0.00883(5) 0.15093(8) 0.10079(5) 0.0556(4) Uani 1 1 d . . .
H4 H -0.0293 0.1437 0.0993 0.067 Uiso 1 1 calc R . .
C5 C 0.03857(5) 0.07818(7) 0.08876(5) 0.0467(4) Uani 1 1 d . . .
C6 C 0.09456(5) 0.09048(8) 0.08949(5) 0.0528(4) Uani 1 1 d . . .
H6 H 0.1151 0.0421 0.0810 0.063 Uiso 1 1 calc R . .
C7 C 0.12048(5) 0.17460(8) 0.10278(5) 0.0546(4) Uani 1 1 d . . .
H7 H 0.1581 0.1827 0.1025 0.065 Uiso 1 1 calc R . .
C8 C 0.00706(5) -0.00953(8) 0.07281(5) 0.0530(4) Uani 1 1 d . . .
C9 C 0.03774(5) -0.09650(8) 0.09179(5) 0.0504(4) Uani 1 1 d . . .
C10 C 0.01840(5) -0.17407(7) 0.05884(6) 0.0566(4) Uani 1 1 d . . .
H10 H -0.0129 -0.1705 0.0253 0.068 Uiso 1 1 calc R . .
C11 C 0.04522(5) -0.25630(8) 0.07562(6) 0.0603(4) Uani 1 1 d . . .
H11 H 0.0336 -0.3072 0.0522 0.072 Uiso 1 1 calc R . .
C12 C 0.08966(5) -0.26272(8) 0.12763(5) 0.0565(4) Uani 1 1 d . . .
C13 C 0.10735(5) -0.18680(9) 0.16095(6) 0.0645(5) Uani 1 1 d . . .
H13 H 0.1364 -0.1915 0.1963 0.077 Uiso 1 1 calc R . .
C14 C 0.08263(5) -0.10313(8) 0.14276(6) 0.0590(4) Uani 1 1 d . . .
H14 H 0.0963 -0.0516 0.1649 0.071 Uiso 1 1 calc R . .
C15 C 0.11778(5) -0.35325(8) 0.14721(6) 0.0633(5) Uani 1 1 d . . .
C16 C 0.21589(5) 0.34122(8) 0.28898(5) 0.0565(4) Uani 1 1 d . . .
H16 H 0.2249 0.3033 0.2622 0.068 Uiso 1 1 calc R . .
C17 C 0.22537(6) 0.32308(8) 0.34547(5) 0.0631(5) Uani 1 1 d . . .
H17 H 0.2418 0.2705 0.3648 0.076 Uiso 1 1 calc R . .
C18 C 0.18560(5) 0.45537(8) 0.32668(5) 0.0587(4) Uani 1 1 d . . .
C19 C 0.15967(8) 0.54322(11) 0.33522(7) 0.1261(7) Uani 1 1 d . . .
H19A H 0.1346 0.5642 0.2986 0.189 Uiso 1 1 calc R . .
H19B H 0.1895 0.5870 0.3505 0.189 Uiso 1 1 calc R . .
H19C H 0.1381 0.5353 0.3621 0.189 Uiso 1 1 calc R . .
C20 C 0.20996(7) 0.40996(9) 0.43115(6) 0.0775(5) Uani 1 1 d . . .
H20A H 0.1723 0.4265 0.4332 0.093 Uiso 1 1 calc R . .
H20B H 0.2359 0.4599 0.4468 0.093 Uiso 1 1 calc R . .
C21 C 0.23057(5) 0.32648(8) 0.46748(5) 0.0544(4) Uani 1 1 d . . .
C22 C 0.28945(5) 0.30810(8) 0.48673(5) 0.0537(4) Uani 1 1 d . . .
C23 C 0.33192(6) 0.37103(11) 0.47170(7) 0.0929(6) Uani 1 1 d . . .
H23A H 0.3501 0.4087 0.5047 0.139 Uiso 1 1 calc R . .
H23B H 0.3120 0.4085 0.4392 0.139 Uiso 1 1 calc R . .
H23C H 0.3605 0.3357 0.4617 0.139 Uiso 1 1 calc R . .
C24 C 0.19133(5) 0.26994(9) 0.48078(5) 0.0527(4) Uani 1 1 d . . .
C25 C 0.12745(5) 0.29229(12) 0.46000(7) 0.0931(7) Uani 1 1 d . . .
H25A H 0.1056 0.2376 0.4581 0.140 Uiso 1 1 calc R . .
H25B H 0.1178 0.3195 0.4220 0.140 Uiso 1 1 calc R . .
H25C H 0.1187 0.3339 0.4868 0.140 Uiso 1 1 calc R . .
C26 C 0.29495(5) 0.56975(10) 0.25540(6) 0.0676(5) Uani 1 1 d . . .
H26 H 0.2854 0.5690 0.2899 0.081 Uiso 1 1 calc R . .
C27 C 0.34460(5) 0.60002(10) 0.24994(6) 0.0655(5) Uani 1 1 d . . .
H27 H 0.3753 0.6240 0.2793 0.079 Uiso 1 1 calc R . .
C28 C 0.28951(5) 0.55263(8) 0.16509(5) 0.0531(4) Uani 1 1 d . . .
C29 C 0.26961(6) 0.53094(12) 0.10270(6) 0.0884(6) Uani 1 1 d . . .
H29A H 0.2311 0.5081 0.0924 0.133 Uiso 1 1 calc R . .
H29B H 0.2943 0.4858 0.0943 0.133 Uiso 1 1 calc R . .
H29C H 0.2705 0.5847 0.0806 0.133 Uiso 1 1 calc R . .
C30 C 0.38639(5) 0.61242(11) 0.16644(6) 0.0784(5) Uani 1 1 d . . .
H30A H 0.3779 0.6713 0.1478 0.094 Uiso 1 1 calc R . .
H30B H 0.3863 0.5681 0.1367 0.094 Uiso 1 1 calc R . .
C31 C 0.44508(5) 0.61482(10) 0.21135(5) 0.0624(5) Uani 1 1 d . . .
C32 C 0.47159(5) 0.69685(10) 0.23143(6) 0.0606(4) Uani 1 1 d . . .
C33 C 0.44052(6) 0.78624(10) 0.21619(7) 0.0811(6) Uani 1 1 d . . .
H33A H 0.4527 0.8161 0.1866 0.122 Uiso 1 1 calc R . .
H33B H 0.4492 0.8239 0.2503 0.122 Uiso 1 1 calc R . .
H33C H 0.3999 0.7756 0.2020 0.122 Uiso 1 1 calc R . .
C34 C 0.47266(5) 0.53226(10) 0.22985(6) 0.0686(5) Uani 1 1 d . . .
C35 C 0.44382(7) 0.44257(11) 0.20758(7) 0.0995(7) Uani 1 1 d . . .
H35A H 0.4179 0.4506 0.1690 0.149 Uiso 1 1 calc R . .
H35B H 0.4228 0.4219 0.2329 0.149 Uiso 1 1 calc R . .
H35C H 0.4725 0.3985 0.2068 0.149 Uiso 1 1 calc R . .
O1 O 0.17062(4) 0.34776(6) 0.13882(4) 0.0724(3) Uani 1 1 d . . .
O2 O 0.09107(4) 0.39599(6) 0.15226(4) 0.0709(3) Uani 1 1 d . . .
O3 O 0.12433(4) -0.40753(6) 0.11100(4) 0.0797(4) Uani 1 1 d . . .
O4 O 0.13390(5) -0.36923(7) 0.20038(4) 0.0950(4) Uani 1 1 d . . .
O5 O -0.04375(4) -0.00886(6) 0.04588(5) 0.0759(4) Uani 1 1 d . . .
O6 O 0.97819(8) 0.47089(15) 0.12228(13) 0.2735(15) Uani 1 1 d D . .
H6A H 1.0137 0.4760 0.1227 0.410 Uiso 1 1 d RD . .
H6B H 0.9623 0.5182 0.1036 0.410 Uiso 1 1 d RD . .
O7 O 0.26374(8) 0.62684(14) 0.46970(10) 0.2296(12) Uani 1 1 d G . .
H7A H 0.2314 0.6196 0.4755 0.344 Uiso 1 1 d G . .
H7B H 0.2699 0.6831 0.4668 0.344 Uiso 1 1 d G . .
O8 O 0.86541(7) 0.88130(16) 0.05181(9) 0.2383(12) Uani 1 1 d . . .
H8A H 0.8318 0.8848 0.0277 0.357 Uiso 1 1 d R . .
H8B H 0.8972 0.8833 0.0445 0.357 Uiso 1 1 d R . .
O9 O 0.92922(13) 0.50823(15) -0.00511(10) 0.3178(18) Uani 1 1 d D . .
H9A H 0.9352 0.5389 0.0261 0.477 Uiso 1 1 d RD . .
H9B H 0.9139 0.4795 -0.0357 0.477 Uiso 1 1 d RD . .

loop_
_atom_site_aniso_label
_atom_site_aniso_U_11
_atom_site_aniso_U_22
_atom_site_aniso_U_33
_atom_site_aniso_U_23
_atom_site_aniso_U_13
_atom_site_aniso_U_12
Cd1 0.05065(4) 0.04088(4) 0.04623(4) 0.00841(4) 0.00901(3) -0.00089(4)
N1 0.0618(6) 0.0501(5) 0.0436(5) 0.0089(5) 0.0136(4) -0.0001(5)
N2 0.0819(6) 0.0486(5) 0.0414(5) 0.0091(5) 0.0192(5) 0.0069(5)
N3 0.0507(5) 0.0649(6) 0.0437(5) 0.0051(5) 0.0096(4) -0.0106(5)
N4 0.0469(5) 0.0714(6) 0.0412(5) 0.0061(5) 0.0099(4) -0.0092(5)
C1 0.0644(7) 0.0539(7) 0.0489(7) 0.0065(6) 0.0098(6) -0.0027(6)
C2 0.0593(7) 0.0424(6) 0.0409(6) 0.0016(5) 0.0120(5) 0.0016(5)
C3 0.0676(7) 0.0426(6) 0.0657(8) -0.0061(6) 0.0227(6) 0.0062(6)
C4 0.0542(7) 0.0488(7) 0.0643(8) -0.0023(6) 0.0188(6) 0.0046(5)
C5 0.0537(6) 0.0398(6) 0.0427(6) 0.0015(5) 0.0090(5) 0.0056(5)
C6 0.0528(6) 0.0462(6) 0.0565(7) 0.0004(6) 0.0122(6) 0.0077(5)
C7 0.0535(7) 0.0548(7) 0.0557(7) 0.0014(6) 0.0171(5) -0.0015(6)
C8 0.0564(7) 0.0433(6) 0.0533(7) 0.0037(6) 0.0078(6) 0.0021(5)
C9 0.0529(6) 0.0441(6) 0.0532(7) 0.0076(5) 0.0146(5) -0.0002(5)
C10 0.0630(7) 0.0418(6) 0.0550(8) 0.0072(6) 0.0035(6) -0.0003(6)
C11 0.0691(8) 0.0399(6) 0.0686(8) 0.0039(6) 0.0160(6) -0.0008(6)
C12 0.0679(7) 0.0432(6) 0.0617(7) 0.0156(6) 0.0247(6) 0.0085(6)
C13 0.0685(8) 0.0610(8) 0.0520(8) 0.0101(7) 0.0005(7) 0.0077(7)
C14 0.0645(7) 0.0492(7) 0.0564(8) 0.0028(6) 0.0084(6) 0.0036(6)
C15 0.0610(7) 0.0543(7) 0.0767(9) 0.0176(7) 0.0242(6) 0.0071(6)
C16 0.0675(7) 0.0526(7) 0.0460(7) 0.0033(6) 0.0125(6) 0.0096(6)
C17 0.0914(9) 0.0468(7) 0.0470(7) 0.0086(6) 0.0151(6) 0.0128(6)
C18 0.0777(8) 0.0475(6) 0.0521(7) 0.0161(6) 0.0215(6) 0.0129(6)
C19 0.2238(16) 0.0877(10) 0.0768(10) 0.0278(9) 0.0609(10) 0.0744(10)
C20 0.1230(11) 0.0649(8) 0.0475(7) 0.0076(7) 0.0305(7) 0.0125(8)
C21 0.0767(8) 0.0504(7) 0.0367(6) 0.0031(5) 0.0183(5) 0.0033(6)
C22 0.0647(7) 0.0634(7) 0.0371(6) -0.0076(6) 0.0218(5) -0.0203(6)
C23 0.1066(10) 0.0973(10) 0.0849(10) -0.0085(9) 0.0441(8) -0.0460(8)
C24 0.0507(6) 0.0694(8) 0.0357(6) -0.0025(6) 0.0098(5) -0.0008(6)
C25 0.0569(8) 0.1402(14) 0.0767(11) -0.0069(11) 0.0123(7) 0.0142(9)
C26 0.0634(7) 0.0916(9) 0.0470(7) -0.0064(7) 0.0159(6) -0.0197(7)
C27 0.0561(7) 0.0928(10) 0.0437(7) -0.0061(7) 0.0097(6) -0.0169(7)
C28 0.0489(6) 0.0606(7) 0.0458(7) 0.0045(6) 0.0085(5) -0.0078(6)
C29 0.0691(9) 0.1429(13) 0.0484(8) -0.0068(9) 0.0109(7) -0.0325(9)
C30 0.0590(8) 0.1205(12) 0.0561(8) 0.0090(8) 0.0181(6) -0.0190(8)
C31 0.0458(7) 0.0961(10) 0.0454(7) 0.0055(7) 0.0139(5) -0.0049(6)
C32 0.0506(7) 0.0822(9) 0.0525(7) 0.0034(7) 0.0212(5) 0.0001(6)
C33 0.0622(8) 0.0934(10) 0.0820(10) 0.0152(9) 0.0134(7) 0.0096(8)
C34 0.0737(8) 0.0828(9) 0.0559(7) -0.0080(7) 0.0295(6) -0.0123(7)
C35 0.1083(11) 0.1019(12) 0.0941(12) -0.0135(10) 0.0397(9) -0.0171(10)
O1 0.0746(5) 0.0658(5) 0.0788(6) -0.0146(5) 0.0266(5) -0.0148(4)
O2 0.0749(5) 0.0468(5) 0.0837(7) -0.0114(5) 0.0133(5) -0.0017(4)
O3 0.0935(6) 0.0519(5) 0.0817(7) 0.0067(5) 0.0089(5) 0.0152(5)
O4 0.1386(8) 0.0784(6) 0.0763(6) 0.0349(5) 0.0449(5) 0.0474(5)
O5 0.0584(5) 0.0512(5) 0.0985(8) 0.0019(5) -0.0051(5) 0.0038(4)
O6 0.1386(13) 0.2191(19) 0.458(4) 0.043(2) 0.0851(17) 0.0407(13)
O7 0.2091(17) 0.2047(18) 0.254(2) 0.0131(18) 0.0396(16) -0.0375(15)
O8 0.1686(13) 0.351(3) 0.2089(17) -0.0220(19) 0.0785(12) -0.0663(15)
O9 0.481(4) 0.208(2) 0.158(2) -0.0182(17) -0.060(2) -0.034(2)

_geom_special_details            
; 
 All esds (except the esd in the dihedral angle between two l.s. planes) 
 are estimated using the full covariance matrix.  The cell esds are taken 
 into account individually in the estimation of esds in distances, angles 
 and torsion angles; correlations between esds in cell parameters are only 
 used when they are defined by crystal symmetry.  An approximate (isotropic) 
 treatment of cell esds is used for estimating esds involving l.s. planes. 
;

loop_
_geom_bond_atom_site_label_1
_geom_bond_atom_site_label_2
_geom_bond_distance
_geom_bond_site_symmetry_2
_geom_bond_publ_flag
Cd1 N3 2.2361(10) . ?
Cd1 N1 2.2547(10) . ?
Cd1 O4 2.3205(10) 1_565 ?
Cd1 O2 2.3302(8) . ?
Cd1 O3 2.4019(9) 1_565 ?
Cd1 O1 2.4093(9) . ?
Cd1 C15 2.6908(12) 1_565 ?
N1 C18 1.3222(17) . ?
N1 C16 1.3688(15) . ?
N2 C18 1.3410(15) . ?
N2 C17 1.3516(17) . ?
N2 C20 1.4824(17) . ?
N3 C28 1.3182(17) . ?
N3 C26 1.3792(15) . ?
N4 C27 1.3538(17) . ?
N4 C28 1.3551(14) . ?
N4 C30 1.4781(18) . ?
C1 O1 1.2504(16) . ?
C1 O2 1.2551(16) . ?
C1 C2 1.5012(16) . ?
C2 C7 1.3745(17) . ?
C2 C3 1.3795(17) . ?
C3 C4 1.3719(16) . ?
C3 H3 0.9300 . ?
C4 C5 1.3760(17) . ?
C4 H4 0.9300 . ?
C5 C6 1.3766(17) . ?
C5 C8 1.4947(15) . ?
C6 C7 1.3853(16) . ?
C6 H6 0.9300 . ?
C7 H7 0.9300 . ?
C8 O5 1.2139(13) . ?
C8 C9 1.4859(15) . ?
C9 C14 1.3788(15) . ?
C9 C10 1.3906(16) . ?
C10 C11 1.3792(16) . ?
C10 H10 0.9300 . ?
C11 C12 1.3895(16) . ?
C11 H11 0.9300 . ?
C12 C13 1.3688(17) . ?
C12 C15 1.5098(17) . ?
C13 C14 1.3851(17) . ?
C13 H13 0.9300 . ?
C14 H14 0.9300 . ?
C15 O3 1.2308(17) . ?
C15 O4 1.2434(17) . ?
C15 Cd1 2.6908(12) 1_545 ?
C16 C17 1.3372(18) . ?
C16 H16 0.9300 . ?
C17 H17 0.9300 . ?
C18 C19 1.484(2) . ?
C19 H19A 0.9600 . ?
C19 H19B 0.9600 . ?
C19 H19C 0.9600 . ?
C20 C21 1.5057(1