####################################################################### 
# 
# This file contains crystal structure data downloaded from the 
# Cambridge Structural Database (CSD) hosted by the Cambridge 
# Crystallographic Data Centre (CCDC).
# 
# Full information about CCDC data access policies and citation 
# guidelines are available at http://www.ccdc.cam.ac.uk/access/V1 
# 
# Audit and citation data items may have been added by the CCDC. 
# Please retain this information to preserve the provenance of 
# this file and to allow appropriate attribution of the data. 
# 
#######################################################################

data_cc
_audit_block_doi                 10.5517/cc12whfw
_database_code_depnum_ccdc_archive 'CCDC 1009528'
loop_
_citation_id
_citation_doi
_citation_year
1 10.1002/anie.201407948 2014
_audit_update_record             
;
2015-02-12 deposited with the CCDC.	2024-07-13 downloaded from the CCDC.
;
_audit_creation_method           SHELXL-2013
_chemical_name_systematic        'compound 12'
_chemical_name_common            ?
_chemical_melting_point          ?
_chemical_formula_moiety         ?
_chemical_formula_sum            'C92.49 H68.39 F6.86 I12 N28.58 O9.15 Zn6'
_chemical_formula_weight         3771.90

loop_
_atom_type_symbol
_atom_type_description
_atom_type_scat_dispersion_real
_atom_type_scat_dispersion_imag
_atom_type_scat_source
C C 0.0033 0.0016 'International Tables Vol C Tables 4.2.6.8 and 6.1.1.4'
H H 0.0000 0.0000 'International Tables Vol C Tables 4.2.6.8 and 6.1.1.4'
N N 0.0061 0.0033 'International Tables Vol C Tables 4.2.6.8 and 6.1.1.4'
Zn Zn 0.2839 1.4301 'International Tables Vol C Tables 4.2.6.8 and 6.1.1.4'
I I -0.4742 1.8119 'International Tables Vol C Tables 4.2.6.8 and 6.1.1.4'
O O 0.0106 0.0060 'International Tables Vol C Tables 4.2.6.8 and 6.1.1.4'
F F 0.0171 0.0103 'International Tables Vol C Tables 4.2.6.8 and 6.1.1.4'

_space_group_crystal_system      monoclinic
_space_group_IT_number           9
_space_group_name_H-M_alt        'C c'
_space_group_name_Hall           'C -2yc'

_shelx_space_group_comment       
; 
The symmetry employed for this shelxl refinement is uniquely defined 
by the following loop, which should always be used as a source of 
symmetry information in preference to the above space-group names. 
They are only intended as comments. 
;

loop_
_space_group_symop_operation_xyz
'x, y, z'
'x, -y, z+1/2'
'x+1/2, y+1/2, z'
'x+1/2, -y+1/2, z+1/2'

_cell_length_a                   33.914(18)
_cell_length_b                   15.135(8)
_cell_length_c                   30.963(16)
_cell_angle_alpha                90
_cell_angle_beta                 100.727(6)
_cell_angle_gamma                90
_cell_volume                     15616(14)
_cell_formula_units_Z            4
_cell_measurement_temperature    90(2)
_cell_measurement_reflns_used    9920
_cell_measurement_theta_min      2.27
_cell_measurement_theta_max      25.03

_exptl_crystal_description       rod
_exptl_crystal_colour            colorless
_exptl_crystal_density_meas      'not measured'
_exptl_crystal_density_method    ?
_exptl_crystal_density_diffrn    1.604
_exptl_crystal_F_000             7097
_exptl_transmission_factor_min   0.4992
_exptl_transmission_factor_max   0.7454
_exptl_crystal_size_max          0.160
_exptl_crystal_size_mid          0.060
_exptl_crystal_size_min          0.060
_exptl_absorpt_coefficient_mu    3.336
_shelx_estimated_absorpt_T_min   0.617
_shelx_estimated_absorpt_T_max   0.825
_exptl_absorpt_correction_type   multi-scan
_exptl_absorpt_correction_T_min  0.4992
_exptl_absorpt_correction_T_max  0.7454
_exptl_absorpt_process_details   SADABS

_exptl_special_details           
; 
 ? 
;

_diffrn_ambient_temperature      90(2)
_diffrn_radiation_wavelength     0.71073
_diffrn_radiation_type           MoK\a
_diffrn_source                   ?
_diffrn_measurement_device_type  'Bruker APEX-II CCD'
_diffrn_measurement_method       '\f and \w scans'
_diffrn_detector_area_resol_mean ?
_diffrn_reflns_number            65317
_diffrn_reflns_av_unetI/netI     0.1054
_diffrn_reflns_av_R_equivalents  0.0630
_diffrn_reflns_limit_h_min       -41
_diffrn_reflns_limit_h_max       39
_diffrn_reflns_limit_k_min       -18
_diffrn_reflns_limit_k_max       18
_diffrn_reflns_limit_l_min       -38
_diffrn_reflns_limit_l_max       38
_diffrn_reflns_theta_min         1.222
_diffrn_reflns_theta_max         26.389
_diffrn_reflns_theta_full        25.242
_diffrn_measured_fraction_theta_max 0.939
_diffrn_measured_fraction_theta_full 0.962
_diffrn_reflns_Laue_measured_fraction_max 0.939
_diffrn_reflns_Laue_measured_fraction_full 0.962
_diffrn_reflns_point_group_measured_fraction_max 0.886
_diffrn_reflns_point_group_measured_fraction_full 0.916
_reflns_number_total             28333
_reflns_number_gt                19059
_reflns_threshold_expression     'I > 2\s(I)'
_reflns_Friedel_coverage         0.886
_reflns_Friedel_fraction_max     0.832
_reflns_Friedel_fraction_full    0.870

_reflns_special_details          
; 
 Reflections were merged by SHELXL according to the crystal 
 class for the calculation of statistics and refinement. 
  
 _reflns_Friedel_fraction is defined as the number of unique 
 Friedel pairs measured divided by the number that would be 
 possible theoretically, ignoring centric projections and 
 systematic absences. 
;

_computing_data_collection       'Bruker APEX2'
_computing_cell_refinement       'Bruker SAINT'
_computing_data_reduction        'Bruker SAINT'
_computing_structure_solution    'SHELXS-97 (Sheldrick, 2008)'
_computing_structure_refinement  'SHELXL-2013 (Sheldrick, 2013)'
_computing_molecular_graphics    'Bruker SHELXTL'
_computing_publication_material  'Bruker SHELXTL'

_refine_special_details          
; 
 ? 
;
_refine_ls_structure_factor_coef Fsqd
_refine_ls_matrix_type           full
_refine_ls_weighting_scheme      calc
_refine_ls_weighting_details     
'w=1/[\s^2^(Fo^2^)+(0.1797P)^2^+2439.5227P] where P=(Fo^2^+2Fc^2^)/3'
_atom_sites_solution_primary     ?
_atom_sites_solution_secondary   ?
_atom_sites_solution_hydrogens   geom
_refine_ls_hydrogen_treatment    constr
_refine_ls_extinction_method     none
_refine_ls_extinction_coef       .
_refine_ls_abs_structure_details 
; 
 Flack x determined using 6985 quotients [(I+)-(I-)]/[(I+)+(I-)] 
 (Parsons and Flack (2004), Acta Cryst. A60, s61). 
;
_refine_ls_abs_structure_Flack   0.501(17)
_chemical_absolute_configuration ?
_refine_ls_number_reflns         28333
_refine_ls_number_parameters     1476
_refine_ls_number_restraints     1278
_refine_ls_R_factor_all          0.2076
_refine_ls_R_factor_gt           0.1589
_refine_ls_wR_factor_ref         0.4273
_refine_ls_wR_factor_gt          0.3903
_refine_ls_goodness_of_fit_ref   1.047
_refine_ls_restrained_S_all      1.031
_refine_ls_shift/su_max          0.003
_refine_ls_shift/su_mean         0.000

loop_
_atom_site_label
_atom_site_type_symbol
_atom_site_fract_x
_atom_site_fract_y
_atom_site_fract_z
_atom_site_U_iso_or_equiv
_atom_site_adp_type
_atom_site_occupancy
_atom_site_site_symmetry_order
_atom_site_calc_flag
_atom_site_refinement_flags_posn
_atom_site_refinement_flags_adp
_atom_site_refinement_flags_occupancy
_atom_site_disorder_assembly
_atom_site_disorder_group
Zn1 Zn 0.2308(2) 0.1410(3) 0.0369(2) 0.0472(15) Uani 1 1 d . . . . .
I1 I 0.29156(17) 0.2403(2) 0.06293(19) 0.0612(11) Uani 1 1 d . . . . .
I2 I 0.18377(19) 0.1672(3) -0.0364(2) 0.0756(13) Uani 1 1 d . . . . .
N1 N 0.1977(10) 0.1561(15) 0.0889(12) 0.058(7) Uani 1 1 d D U . . .
C1 C 0.1826(12) 0.088(3) 0.1076(13) 0.060(8) Uani 1 1 d D U . . .
H1 H 0.1879 0.0298 0.0981 0.072 Uiso 1 1 calc R U . . .
C2 C 0.1598(12) 0.096(2) 0.1397(14) 0.060(8) Uani 1 1 d D U . . .
H2 H 0.1493 0.0456 0.1521 0.072 Uiso 1 1 calc R U . . .
C3 C 0.1530(12) 0.180(2) 0.1531(11) 0.060(7) Uani 1 1 d D U . . .
C4 C 0.1677(11) 0.253(2) 0.1347(11) 0.066(8) Uani 1 1 d D U . . .
H3 H 0.1630 0.3111 0.1439 0.079 Uiso 1 1 calc R U . . .
C5 C 0.1895(5) 0.2370(9) 0.1025(6) 0.063(8) Uani 1 1 d D U . . .
H4 H 0.1993 0.2865 0.0889 0.076 Uiso 1 1 calc R U . . .
C6 C 0.1305(5) 0.1923(9) 0.1894(6) 0.056(6) Uani 1 1 d DR U . . .
N2 N 0.1001(5) 0.1364(9) 0.1942(6) 0.056(7) Uani 1 1 d DR U . . .
C7 C 0.0757(5) 0.1561(9) 0.2232(6) 0.061(7) Uani 1 1 d DR U . . .
N3 N 0.0817(5) 0.2316(9) 0.2474(6) 0.059(7) Uani 1 1 d R U . . .
C8 C 0.1121(5) 0.2874(9) 0.2426(6) 0.055(6) Uani 1 1 d DR U . . .
N4 N 0.1365(5) 0.2678(9) 0.2137(6) 0.050(6) Uani 1 1 d DR U . . .
N5 N -0.0265(11) -0.010(2) 0.2280(13) 0.080(10) Uani 1 1 d D U . . .
C9 C -0.0101(11) 0.043(2) 0.2607(13) 0.079(10) Uani 1 1 d D U . . .
H5 H -0.0229 0.0459 0.2855 0.095 Uiso 1 1 calc R U . . .
C10 C 0.0233(11) 0.095(2) 0.2621(11) 0.073(9) Uani 1 1 d D U . . .
H6 H 0.0331 0.1307 0.2871 0.088 Uiso 1 1 calc R U . . .
C11 C 0.0424(9) 0.095(2) 0.2266(13) 0.071(8) Uani 1 1 d D U . . .
C12 C 0.0274(12) 0.038(3) 0.1924(13) 0.079(9) Uani 1 1 d D U . . .
H7 H 0.0403 0.0328 0.1678 0.094 Uiso 1 1 calc R U . . .
C13 C -0.0065(12) -0.009(2) 0.1948(13) 0.082(10) Uani 1 1 d D U . . .
H8 H -0.0168 -0.0456 0.1703 0.098 Uiso 1 1 calc R U . . .
Zn2 Zn -0.0811(3) -0.0877(4) 0.2309(3) 0.103(4) Uani 1 1 d . . . . .
I3 I -0.0661(3) -0.2370(3) 0.2010(3) 0.169(5) Uani 1 1 d . . . . .
I4 I -0.1143(3) -0.0523(5) 0.2997(2) 0.150(4) Uani 1 1 d . . . . .
N6 N 0.1295(11) 0.528(2) 0.3158(11) 0.057(7) Uani 1 1 d D U . . .
C14 C 0.1551(12) 0.501(2) 0.2910(13) 0.054(8) Uani 1 1 d D U . . .
H9 H 0.1783 0.5358 0.2903 0.065 Uiso 1 1 calc R U . . .
C15 C 0.1496(11) 0.426(2) 0.2664(13) 0.053(7) Uani 1 1 d D U . . .
H10 H 0.1686 0.4101 0.2487 0.063 Uiso 1 1 calc R U . . .
C16 C 0.1172(11) 0.3720(18) 0.2670(13) 0.053(6) Uani 1 1 d D U . . .
C17 C 0.0911(11) 0.400(2) 0.2930(13) 0.053(7) Uani 1 1 d D U . . .
H11 H 0.0684 0.3647 0.2954 0.063 Uiso 1 1 calc R U . . .
C18 C 0.0973(12) 0.478(2) 0.3156(14) 0.057(8) Uani 1 1 d D U . . .
H12 H 0.0778 0.4970 0.3319 0.068 Uiso 1 1 calc R U . . .
I5 I 0.18577(19) 0.7375(2) 0.32849(17) 0.0665(13) Uani 1 1 d . . . . .
Zn3 Zn 0.1440(2) 0.6266(3) 0.3628(2) 0.0425(15) Uani 1 1 d . . . . .
I6 I 0.08366(17) 0.6597(3) 0.3985(2) 0.0822(15) Uani 1 1 d . . . . .
N7 N 0.1807(9) 0.5559(19) 0.4114(9) 0.027(5) Uani 1 1 d D U . . .
C19 C 0.2105(11) 0.594(2) 0.4394(11) 0.028(6) Uani 1 1 d D U . . .
H13 H 0.2156 0.6547 0.4356 0.033 Uiso 1 1 calc R U . . .
C20 C 0.2342(13) 0.5507(16) 0.4732(13) 0.030(6) Uani 1 1 d D U . . .
H14 H 0.2559 0.5800 0.4916 0.036 Uiso 1 1 calc R U . . .
C21 C 0.2259(11) 0.4641(16) 0.4799(9) 0.031(5) Uani 1 1 d D U . . .
C22 C 0.1980(11) 0.4175(16) 0.4515(11) 0.034(6) Uani 1 1 d D U . . .
H15 H 0.1943 0.3556 0.4538 0.041 Uiso 1 1 calc R U . . .
C23 C 0.1758(4) 0.4679(8) 0.4195(4) 0.032(6) Uani 1 1 d D U . . .
H16 H 0.1544 0.4387 0.4007 0.038 Uiso 1 1 calc R U . . .
C24 C 0.2452(4) 0.4106(8) 0.5176(4) 0.030(5) Uani 1 1 d DR U . . .
N8 N 0.2738(4) 0.4501(8) 0.5490(4) 0.026(5) Uani 1 1 d R U . . .
C25 C 0.2987(4) 0.3990(8) 0.5793(4) 0.027(5) Uani 1 1 d DR U . . .
N9 N 0.2949(4) 0.3084(8) 0.5782(4) 0.030(5) Uani 1 1 d DR U . . .
C26 C 0.2663(4) 0.2689(8) 0.5468(4) 0.029(5) Uani 1 1 d DR U . . .
N10 N 0.2414(4) 0.3200(8) 0.5165(4) 0.028(5) Uani 1 1 d DR U . . .
N11 N 0.3792(12) 0.5247(17) 0.6818(10) 0.040(6) Uani 1 1 d D U . . .
C27 C 0.3735(14) 0.4376(18) 0.6824(11) 0.039(6) Uani 1 1 d D U . . .
H17 H 0.3854 0.4055 0.7078 0.047 Uiso 1 1 calc R U . . .
C28 C 0.3513(13) 0.392(2) 0.6480(10) 0.035(6) Uani 1 1 d D U . . .
H18 H 0.3502 0.3296 0.6486 0.042 Uiso 1 1 calc R U . . .
C29 C 0.3307(11) 0.4380(17) 0.6126(10) 0.034(5) Uani 1 1 d D U . . .
C30 C 0.3357(14) 0.5279(17) 0.6112(12) 0.037(6) Uani 1 1 d D U . . .
H19 H 0.3225 0.5619 0.5870 0.044 Uiso 1 1 calc R U . . .
C31 C 0.3606(13) 0.567(2) 0.6460(10) 0.037(6) Uani 1 1 d D U . . .
H20 H 0.3647 0.6289 0.6445 0.044 Uiso 1 1 calc R U . . .
N12 N 0.2466(11) -0.0092(19) 0.5408(11) 0.041(6) Uani 1 1 d D U . . .
C32 C 0.2233(14) 0.0465(18) 0.5142(15) 0.045(7) Uani 1 1 d D U . . .
H21 H 0.2026 0.0244 0.4919 0.054 Uiso 1 1 calc R U . . .
C33 C 0.2293(12) 0.135(2) 0.5189(14) 0.042(6) Uani 1 1 d D U . . .
H22 H 0.2109 0.1738 0.5011 0.051 Uiso 1 1 calc R U . . .
C34 C 0.2601(11) 0.1725(11) 0.5479(12) 0.034(5) Uani 1 1 d D U . . .
C35 C 0.2816(13) 0.1131(16) 0.5762(12) 0.039(6) Uani 1 1 d D U . . .
H23 H 0.3021 0.1341 0.5991 0.046 Uiso 1 1 calc R U . . .
C36 C 0.2744(12) 0.0242(19) 0.5725(13) 0.038(6) Uani 1 1 d D U . . .
H24 H 0.2897 -0.0147 0.5931 0.046 Uiso 1 1 calc R U . . .
Zn4 Zn 0.3796(2) 0.3701(4) 0.4874(2) 0.0520(16) Uani 1 1 d . . . . .
I7 I 0.31198(19) 0.3065(3) 0.4478(2) 0.0845(16) Uani 1 1 d . . . . .
I8 I 0.4201(2) 0.3271(2) 0.56209(19) 0.095(2) Uani 1 1 d . . . . .
N13 N 0.4167(8) 0.3619(19) 0.4385(12) 0.038(6) Uani 1 1 d D U . . .
C37 C 0.4086(12) 0.293(2) 0.4120(13) 0.035(6) Uani 1 1 d D U . . .
H25 H 0.3856 0.2570 0.4125 0.042 Uiso 1 1 calc R U . . .
C38 C 0.4343(12) 0.274(2) 0.3841(13) 0.031(6) Uani 1 1 d D U . . .
H26 H 0.4299 0.2242 0.3649 0.038 Uiso 1 1 calc R U . . .
C39 C 0.4663(10) 0.328(2) 0.3846(11) 0.031(5) Uani 1 1 d D U . . .
C40 C 0.4756(10) 0.402(2) 0.4095(12) 0.037(6) Uani 1 1 d D U . . .
H27 H 0.4974 0.4409 0.4080 0.044 Uiso 1 1 calc R U . . .
C41 C 0.4487(4) 0.4126(8) 0.4369(4) 0.042(6) Uani 1 1 d D U . . .
H28 H 0.4532 0.4608 0.4569 0.051 Uiso 1 1 calc R U . . .
C42 C 0.4936(4) 0.3123(8) 0.3534(4) 0.026(5) Uani 1 1 d DR U . . .
N14 N 0.4886(4) 0.2386(8) 0.3287(4) 0.026(5) Uani 1 1 d DR U . . .
C43 C 0.5133(4) 0.2218(8) 0.3004(4) 0.025(5) Uani 1 1 d DR U . . .
N15 N 0.5430(4) 0.2787(8) 0.2968(4) 0.022(5) Uani 1 1 d R U . . .
C44 C 0.5480(4) 0.3525(8) 0.3215(4) 0.023(5) Uani 1 1 d DR U . . .
N16 N 0.5232(4) 0.3692(8) 0.3498(4) 0.022(5) Uani 1 1 d DR U . . .
N17 N 0.6464(11) 0.523(2) 0.3185(8) 0.033(6) Uani 1 1 d D U . . .
C45 C 0.6281(13) 0.529(3) 0.3530(12) 0.042(6) Uani 1 1 d D U . . .
H29 H 0.6329 0.5759 0.3736 0.050 Uiso 1 1 calc R U . . .
C46 C 0.6016(14) 0.462(3) 0.3561(14) 0.039(6) Uani 1 1 d D U . . .
H30 H 0.5963 0.4479 0.3844 0.046 Uiso 1 1 calc R U . . .
C47 C 0.5822(9) 0.412(2) 0.3205(10) 0.026(5) Uani 1 1 d D U . . .
C48 C 0.6022(10) 0.408(2) 0.2861(10) 0.028(6) Uani 1 1 d D U . . .
H31 H 0.5952 0.3652 0.2634 0.034 Uiso 1 1 calc R U . . .
C49 C 0.6326(11) 0.467(2) 0.2858(10) 0.030(6) Uani 1 1 d D U . . .
H32 H 0.6447 0.4691 0.2604 0.036 Uiso 1 1 calc R U . . .
Zn5 Zn 0.6957(2) 0.6037(3) 0.32341(19) 0.0356(12) Uani 1 1 d . . . . .
I9 I 0.72081(17) 0.5854(3) 0.25288(17) 0.0648(11) Uani 1 1 d . . . . .
I10 I 0.68103(16) 0.7482(2) 0.35639(18) 0.0602(11) Uani 1 1 d . . . . .
N18 N 0.5000(9) -0.0177(18) 0.2270(10) 0.031(5) Uani 1 1 d D U . . .
C50 C 0.5273(10) 0.0436(19) 0.2226(11) 0.033(6) Uani 1 1 d D U . . .
H33 H 0.5444 0.0320 0.2022 0.040 Uiso 1 1 calc R U . . .
C51 C 0.5326(10) 0.1220(18) 0.2452(10) 0.028(6) Uani 1 1 d D U . . .
H34 H 0.5517 0.1642 0.2395 0.034 Uiso 1 1 calc R U . . .
C52 C 0.5094(11) 0.1374(15) 0.2762(10) 0.025(5) Uani 1 1 d D U . . .
C53 C 0.4810(12) 0.0791(18) 0.2811(11) 0.029(6) Uani 1 1 d D U . . .
H35 H 0.4628 0.0910 0.3003 0.034 Uiso 1 1 calc R U . . .
C54 C 0.4786(11) 0.0016(18) 0.2577(11) 0.032(6) Uani 1 1 d D U . . .
H36 H 0.4602 -0.0417 0.2639 0.038 Uiso 1 1 calc R U . . .
Zn6 Zn 0.4810(2) -0.1191(3) 0.1826(2) 0.056(2) Uani 1 1 d . . . . .
I11 I 0.53915(19) -0.1483(4) 0.14299(19) 0.107(2) Uani 1 1 d . . . . .
I12 I 0.4424(2) -0.2328(2) 0.2195(2) 0.0897(19) Uani 1 1 d . . . . .
N19 N 0.4382(13) -0.0501(18) 0.1365(14) 0.051(7) Uani 1 1 d D U . . .
C55 C 0.4376(14) 0.0376(18) 0.1350(13) 0.052(7) Uani 1 1 d D U . . .
H37 H 0.4523 0.0678 0.1598 0.062 Uiso 1 1 calc R U . . .
C56 C 0.4181(14) 0.0891(13) 0.1012(12) 0.047(7) Uani 1 1 d D U . . .
H38 H 0.4212 0.1514 0.0997 0.057 Uiso 1 1 calc R U . . .
C57 C 0.3935(12) 0.0405(16) 0.0699(10) 0.040(6) Uani 1 1 d D U . . .
C58 C 0.3862(11) -0.0477(16) 0.0720(12) 0.045(7) Uani 1 1 d D U . . .
H39 H 0.3647 -0.0775 0.0536 0.054 Uiso 1 1 calc R U . . .
C59 C 0.4133(5) -0.0876(9) 0.1036(5) 0.051(7) Uani 1 1 d D U . . .
H40 H 0.4146 -0.1502 0.1020 0.061 Uiso 1 1 calc R U . . .
C60 C 0.3685(5) 0.0831(9) 0.0318(5) 0.039(6) Uani 1 1 d DR U . . .
N20 N 0.3792(5) 0.1685(9) 0.0254(5) 0.038(6) Uani 1 1 d DR U . . .
C61 C 0.3586(5) 0.2160(9) -0.0092(5) 0.041(6) Uani 1 1 d DR U . . .
N21 N 0.3273(5) 0.1781(9) -0.0373(5) 0.043(6) Uani 1 1 d DR U . . .
C62 C 0.3166(5) 0.0927(9) -0.0308(5) 0.045(6) Uani 1 1 d DR U . . .
N22 N 0.3372(5) 0.0452(9) 0.0037(5) 0.046(6) Uani 1 1 d R U . . .
N23 N 0.3702(12) 0.493(2) -0.0122(11) 0.045(7) Uani 1 1 d D U . . .
C63 C 0.3454(15) 0.447(2) -0.0425(13) 0.053(7) Uani 1 1 d D U . . .
H41 H 0.3270 0.4795 -0.0634 0.063 Uiso 1 1 calc R U . . .
C64 C 0.3441(15) 0.357(2) -0.0462(14) 0.049(7) Uani 1 1 d D U . . .
H42 H 0.3316 0.3268 -0.0721 0.059 Uiso 1 1 calc R U . . .
C65 C 0.3626(14) 0.3132(13) -0.0090(13) 0.044(6) Uani 1 1 d D U . . .
C66 C 0.3851(14) 0.3552(19) 0.0265(12) 0.046(7) Uani 1 1 d D U . . .
H43 H 0.3964 0.3252 0.0528 0.055 Uiso 1 1 calc R U . . .
C67 C 0.3897(14) 0.4438(19) 0.0208(12) 0.046(7) Uani 1 1 d D U . . .
H44 H 0.4086 0.4734 0.0425 0.056 Uiso 1 1 calc R U . . .
N24 N 0.2358(10) -0.0399(19) -0.1257(11) 0.037(6) Uani 1 1 d D U . . .
C68 C 0.2603(12) -0.088(2) -0.0963(12) 0.044(7) Uani 1 1 d D U . . .
H45 H 0.2588 -0.1512 -0.0968 0.053 Uiso 1 1 calc R U . . .
C69 C 0.2878(14) -0.045(3) -0.0655(14) 0.046(7) Uani 1 1 d D U . . .
H46 H 0.3043 -0.0781 -0.0431 0.055 Uiso 1 1 calc R U . . .
C70 C 0.2918(14) 0.041(2) -0.0661(11) 0.044(6) Uani 1 1 d D U . . .
C71 C 0.2717(13) 0.083(3) -0.