####################################################################### 
# 
# This file contains crystal structure data downloaded from the 
# Cambridge Structural Database (CSD) hosted by the Cambridge 
# Crystallographic Data Centre (CCDC).
# 
# Full information about CCDC data access policies and citation 
# guidelines are available at http://www.ccdc.cam.ac.uk/access/V1 
# 
# Audit and citation data items may have been added by the CCDC. 
# Please retain this information to preserve the provenance of 
# this file and to allow appropriate attribution of the data. 
# 
#######################################################################

data_VUCLOU
#This CIF has been generated from an entry in the Cambridge Structural Database
_database_code_depnum_ccdc_archive 'CCDC 1287253'
_database_code_CSD               VUCLOU
loop_
_citation_id
_citation_doi
_citation_year
1 10.1002/anie.199206261 1992
_audit_creation_method           'Created from the CSD'
_audit_update_record             
;
2024-07-13 downloaded from the CCDC.
;
_database_code_depnum_ccdc_fiz   'CSD 56038'
_database_code_NBS               618330
_chemical_formula_moiety         '(C21 H36 Cu3 N6 O27 Sm2)n,14n(H2 O1)'
_chemical_name_systematic        
"catena-(Nona-aqua-tris(\m~3~-1,3-propylenebis(oxamato)-O,O',O'',O''',O''',O''''',N,N')-tri-copper(ii)-di-samarium(iii) tetradecahydrate)"
_chemical_absolute_configuration unk
_diffrn_ambient_temperature      295
_exptl_crystal_density_diffrn    1.872
#These two values have been output from a single CSD field.
_refine_ls_R_factor_gt           0.078
_refine_ls_wR_factor_gt          0.078
_diffrn_radiation_probe          x-ray
_symmetry_cell_setting           orthorhombic
_symmetry_space_group_name_H-M   'P c c 2'
_symmetry_Int_Tables_number      27
_space_group_name_Hall           'P 2 -2c'
loop_
_symmetry_equiv_pos_site_id
_symmetry_equiv_pos_as_xyz
1 x,y,z
2 -x,y,1/2+z
3 x,-y,1/2+z
4 -x,-y,z
_cell_length_a                   16.076(5)
_cell_length_b                   16.079(3)
_cell_length_c                   21.256(10)
_cell_angle_alpha                90
_cell_angle_beta                 90
_cell_angle_gamma                90
_cell_volume                     5494.38
_exptl_crystal_colour            'dark blue'
_cell_formula_units_Z            4
loop_
_atom_site_label
_atom_site_type_symbol
_atom_site_fract_x
_atom_site_fract_y
_atom_site_fract_z
Sm1 Sm -0.1237(2) 0.1471(2) 0.206
Sm2 Sm 0.3529(2) 0.6238(2) 0.0537(2)
Cu1 Cu 0.0107(4) 0.1077(4) -0.0402(3)
Cu2 Cu 0.3919(4) 0.5107(4) -0.2016(3)
Cu3 Cu 0.0771(5) 0.4234(5) 0.1310(4)
O1 O -0.106(2) 0.090(2) 0.008(1)
O2 O -0.037(2) 0.095(2) -0.125(2)
O3 O 0.014(8) 0.268(9) -0.090(8)
O4 O 0.399(2) 0.467(2) -0.116(1)
O5 O 0.410(2) 0.399(2) -0.240(1)
O6 O 0.241(4) 0.475(4) -0.195(4)
O7 O -0.012(2) 0.347(2) 0.089(2)
O8 O 0.124(2) 0.461(2) 0.051(2)
O9 O 0.172(4) 0.326(4) 0.137(4)
O10 O -0.121(2) -0.004(2) 0.221(1)
O11 O 0.003(2) 0.103(2) -0.224(1)
O12 O 0.163(2) 0.147(2) -0.185(2)
O13 O -0.224(2) 0.258(2) 0.218(2)
O14 O -0.148(3) 0.095(2) 0.100(2)
O15 O -0.266(2) 0.084(2) 0.205(2)
O16 O 0.000(3) 0.128(2) 0.145(2)
O17 O -0.104(2) 0.253(2) 0.128(2)
O18 O -0.042(2) 0.269(2) 0.244(2)
O19 O 0.505(2) 0.622(2) 0.044(2)
O20 O 0.414(2) 0.762(2) 0.063(2)
O21 O 0.361(2) 0.659(2) -0.055(1)
O22 O 0.392(2) 0.504(2) -0.017(1)
O23 O 0.406(2) 0.351(2) -0.336(2)
O24 O 0.243(2) 0.727(3) 0.046(2)
O25 O 0.230(2) 0.538(2) 0.020(2)
O26 O 0.386(2) 0.501(3) -0.391(2)
O27 O 0.247(2) 0.606(2) 0.139(2)
N1 N 0.110(2) 0.127(3) -0.079(12)
N2 N 0.048(2) 0.113(2) 0.050(2)
N3 N 0.369(2) 0.610(2) -0.155(2)
N4 N 0.389(2) 0.554(2) -0.285(2)
N5 N 0.030(2) 0.373(2) 0.212(2)
N6 N 0.156(3) 0.508(3) 0.162(2)
C1 C -0.004(4) 0.106(3) 0.099(3)
C2 C -0.092(3) 0.094(3) 0.065(2)
C3 C 0.021(3) 0.112(3) -0.159(2)
C4 C 0.101(3) 0.130(3) -0.135(3)
C5 C 0.200(4) 0.145(3) -0.048(3)
C6 C 0.196(4) 0.093(4) 0.011(3)
C7 C 0.141(3) 0.132(3) 0.069(2)
C8 C 0.390(4) 0.523(4) -0.075(3)
C9 C 0.369(3) 0.608(3) -0.092(2)
C10 C 0.403(3) 0.408(3) -0.298(3)
C11 C 0.390(3) 0.495(4) -0.324(2)
C12 C 0.364(3) 0.702(3) -0.184(3)
C13 C 0.395(5) 0.683(5) -0.257(4)
C14 C 0.358(3) 0.646(3) -0.302(3)
C15 C -0.020(3) 0.313(3) 0.206(3)
C16 C -0.045(3) 0.306(3) 0.136(2)
C17 C 0.208(4) 0.552(4) 0.133(3)
C18 C 0.181(3) 0.513(3) 0.056(3)
C19 C 0.149(9) 0.520(8) 0.234(6)
C20 C 0.137(9) 0.441(9) 0.271(6)
C21 C 0.051(9) 0.384(9) 0.271(6)
O26B O 0.386(2) 0.499(3) 0.109(2)
O23B O 0.406(2) 0.649(2) 0.164(2)
O12A O -0.163(2) 0.147(2) 0.315(2)
O11A O -0.003(2) 0.103(2) 0.276(1)
Sm2B Sm 0.3529(2) 0.3762(2) -0.4463(2)
Sm1A Sm 0.1237(2) 0.1471(2) -0.294
O28 O -0.305(3) 0.083(3) 0.042(3)
O29 O 0.422(3) 0.811(3) 0.215(3)
O30 O -0.155(4) -0.192(4) 0.224(3)
O31 O -0.582(4) 0.200(4) 0.061(4)
O32 O 0.695(3) 0.657(3) 0.041(3)
O33 O -0.330(6) 0.049(5) 0.351(5)
O34 O -0.307(4) -0.076(5) 0.183(4)

#END
