####################################################################### 
# 
# This file contains crystal structure data downloaded from the 
# Cambridge Structural Database (CSD) hosted by the Cambridge 
# Crystallographic Data Centre (CCDC).
# 
# Full information about CCDC data access policies and citation 
# guidelines are available at http://www.ccdc.cam.ac.uk/access/V1 
# 
# Audit and citation data items may have been added by the CCDC. 
# Please retain this information to preserve the provenance of 
# this file and to allow appropriate attribution of the data. 
# 
#######################################################################

data_xb0408m
_audit_block_doi                 10.5517/ccpzzwh
_database_code_depnum_ccdc_archive 'CCDC 655398'
loop_
_citation_id
_citation_doi
_citation_year
1 10.1080/00958970902926803 2009
_audit_update_record             
;
2007-07-24 deposited with the CCDC.	2024-07-13 downloaded from the CCDC.
;

_audit_creation_method           SHELXL-97
_chemical_name_systematic        
;
?
;
_chemical_name_common            ?
_chemical_melting_point          ?
_chemical_formula_moiety         ?
_chemical_formula_sum            'C27 H30 N7 Ni O8.50'
_chemical_formula_weight         647.29

loop_
_atom_type_symbol
_atom_type_description
_atom_type_scat_dispersion_real
_atom_type_scat_dispersion_imag
_atom_type_scat_source
C C 0.0033 0.0016 'International Tables Vol C Tables 4.2.6.8 and 6.1.1.4'
H H 0.0000 0.0000 'International Tables Vol C Tables 4.2.6.8 and 6.1.1.4'
N N 0.0061 0.0033 'International Tables Vol C Tables 4.2.6.8 and 6.1.1.4'
O O 0.0106 0.0060 'International Tables Vol C Tables 4.2.6.8 and 6.1.1.4'
Ni Ni 0.3393 1.1124 'International Tables Vol C Tables 4.2.6.8 and 6.1.1.4'

_symmetry_cell_setting           ?
_symmetry_space_group_name_H-M   ?

loop_
_symmetry_equiv_pos_as_xyz
'x, y, z'
'-x, y, -z'
'x+1/2, y+1/2, z'
'-x+1/2, y+1/2, -z'
'-x, -y, -z'
'x, -y, z'
'-x+1/2, -y+1/2, -z'
'x+1/2, -y+1/2, z'

_cell_length_a                   20.1767(11)
_cell_length_b                   18.3953(12)
_cell_length_c                   9.7443(7)
_cell_angle_alpha                90.00
_cell_angle_beta                 105.393(5)
_cell_angle_gamma                90.00
_cell_volume                     3486.9(4)
_cell_formula_units_Z            4
_cell_measurement_temperature    273(2)
_cell_measurement_reflns_used    ?
_cell_measurement_theta_min      ?
_cell_measurement_theta_max      ?

_exptl_crystal_description       ?
_exptl_crystal_colour            ?
_exptl_crystal_size_max          ?
_exptl_crystal_size_mid          ?
_exptl_crystal_size_min          ?
_exptl_crystal_density_meas      ?
_exptl_crystal_density_diffrn    1.233
_exptl_crystal_density_method    'not measured'
_exptl_crystal_F_000             1348
_exptl_absorpt_coefficient_mu    0.609
_exptl_absorpt_correction_type   ?
_exptl_absorpt_correction_T_min  ?
_exptl_absorpt_correction_T_max  ?
_exptl_absorpt_process_details   ?

_exptl_special_details           
;
?
;

_diffrn_ambient_temperature      273(2)
_diffrn_radiation_wavelength     0.71073
_diffrn_radiation_type           MoK\a
_diffrn_radiation_source         'fine-focus sealed tube'
_diffrn_radiation_monochromator  graphite
_diffrn_measurement_device_type  ?
_diffrn_measurement_method       ?
_diffrn_detector_area_resol_mean ?
_diffrn_standards_number         ?
_diffrn_standards_interval_count ?
_diffrn_standards_interval_time  ?
_diffrn_standards_decay_%        ?
_diffrn_reflns_number            8274
_diffrn_reflns_av_R_equivalents  0.0593
_diffrn_reflns_av_sigmaI/netI    0.1202
_diffrn_reflns_limit_h_min       -23
_diffrn_reflns_limit_h_max       21
_diffrn_reflns_limit_k_min       -21
_diffrn_reflns_limit_k_max       20
_diffrn_reflns_limit_l_min       -10
_diffrn_reflns_limit_l_max       11
_diffrn_reflns_theta_min         2.09
_diffrn_reflns_theta_max         25.00
_reflns_number_total             3167
_reflns_number_gt                2118
_reflns_threshold_expression     >2sigma(I)

_computing_data_collection       ?
_computing_cell_refinement       ?
_computing_data_reduction        ?
_computing_structure_solution    'SHELXS-97 (Sheldrick, 1990)'
_computing_structure_refinement  'SHELXL-97 (Sheldrick, 1997)'
_computing_molecular_graphics    ?
_computing_publication_material  ?

_refine_special_details          
;
Refinement of F^2^ against ALL reflections. The weighted R-factor wR and
goodness of fit S are based on F^2^, conventional R-factors R are based
on F, with F set to zero for negative F^2^. The threshold expression of
F^2^ > 2sigma(F^2^) is used only for calculating R-factors(gt) etc. and is
not relevant to the choice of reflections for refinement. R-factors based
on F^2^ are statistically about twice as large as those based on F, and R-
factors based on ALL data will be even larger.
;

_refine_ls_structure_factor_coef Fsqd
_refine_ls_matrix_type           full
_refine_ls_weighting_scheme      calc
_refine_ls_weighting_details     
'calc w=1/[\s^2^(Fo^2^)+(0.0851P)^2^+3.0000P] where P=(Fo^2^+2Fc^2^)/3'
_atom_sites_solution_primary     direct
_atom_sites_solution_secondary   difmap
_atom_sites_solution_hydrogens   geom
_refine_ls_hydrogen_treatment    mixed
_refine_ls_extinction_method     none
_refine_ls_extinction_coef       ?
_refine_ls_number_reflns         3167
_refine_ls_number_parameters     243
_refine_ls_number_restraints     10
_refine_ls_R_factor_all          0.1143
_refine_ls_R_factor_gt           0.0795
_refine_ls_wR_factor_ref         0.2415
_refine_ls_wR_factor_gt          0.2146
_refine_ls_goodness_of_fit_ref   1.268
_refine_ls_restrained_S_all      1.267
_refine_ls_shift/su_max          3.276
_refine_ls_shift/su_mean         0.013

loop_
_atom_site_label
_atom_site_type_symbol
_atom_site_fract_x
_atom_site_fract_y
_atom_site_fract_z
_atom_site_U_iso_or_equiv
_atom_site_adp_type
_atom_site_occupancy
_atom_site_symmetry_multiplicity
_atom_site_calc_flag
_atom_site_refinement_flags
_atom_site_disorder_assembly
_atom_site_disorder_group
Ni1 Ni 0.22041(5) 0.0000 0.14946(9) 0.0484(4) Uani 1 2 d S . .
N1 N 0.2007(2) 0.0870(3) 0.0071(5) 0.0586(12) Uani 1 1 d . . .
N2 N 0.1048(3) 0.1244(3) 0.0898(5) 0.0568(12) Uani 1 1 d . . .
N3 N 0.1173(3) 0.0000 0.1185(6) 0.0472(14) Uani 1 2 d S . .
N4 N 0.0292(2) 0.0639(2) 0.1873(5) 0.0540(11) Uani 1 1 d . . .
O1 O 0.23155(19) 0.0785(2) 0.3069(4) 0.0545(9) Uani 1 1 d . . .
O2 O 0.3385(2) 0.1146(2) 0.3371(5) 0.0741(12) Uani 1 1 d . . .
C1 C 0.2421(4) 0.1023(4) -0.0752(7) 0.0752(18) Uani 1 1 d . . .
H1 H 0.2762 0.0690 -0.0791 0.090 Uiso 1 1 calc R . .
C2 C 0.2369(4) 0.1659(5) -0.1560(7) 0.091(2) Uani 1 1 d . . .
H2 H 0.2663 0.1740 -0.2137 0.110 Uiso 1 1 calc R . .
C3 C 0.1889(4) 0.2150(5) -0.1485(8) 0.094(2) Uani 1 1 d . . .
H3 H 0.1854 0.2584 -0.1989 0.113 Uiso 1 1 calc R . .
C4 C 0.1452(4) 0.2010(4) -0.0668(7) 0.0761(18) Uani 1 1 d . . .
H4 H 0.1112 0.2344 -0.0621 0.091 Uiso 1 1 calc R . .
C5 C 0.1517(3) 0.1363(3) 0.0097(6) 0.0602(15) Uani 1 1 d . . .
C6 C 0.0835(3) 0.0613(3) 0.1333(5) 0.0487(12) Uani 1 1 d . . .
C7 C 0.0076(4) 0.0000 0.2203(7) 0.0524(18) Uani 1 2 d S . .
C8 C -0.0464(4) 0.0000 0.2993(8) 0.060(2) Uani 1 2 d S . .
C9 C -0.0695(4) -0.0648(4) 0.3410(7) 0.085(2) Uani 1 1 d . . .
H9 H -0.0530 -0.1090 0.3174 0.103 Uiso 1 1 calc R . .
C10 C -0.1184(4) -0.0624(6) 0.4200(9) 0.108(3) Uani 1 1 d . . .
H10 H -0.1359 -0.1059 0.4443 0.130 Uiso 1 1 calc R . .
C11 C -0.1407(6) 0.0000 0.4615(12) 0.108(4) Uani 1 2 d S . .
H11 H -0.1713 0.0000 0.5182 0.129 Uiso 1 2 calc SR . .
C12 C 0.2798(3) 0.1214(3) 0.3550(5) 0.0509(13) Uani 1 1 d . . .
C13 C 0.2649(3) 0.1869(3) 0.4321(5) 0.0493(12) Uani 1 1 d . . .
C14 C 0.3172(3) 0.2286(3) 0.5168(6) 0.0581(14) Uani 1 1 d . . .
H14 H 0.3627 0.2146 0.5288 0.070 Uiso 1 1 calc R . .
C15 C 0.1972(3) 0.2092(3) 0.4160(6) 0.0564(14) Uani 1 1 d . . .
H15 H 0.1613 0.1821 0.3595 0.068 Uiso 1 1 calc R . .
O3 O 0.3266(3) 0.0000 0.1707(6) 0.0627(14) Uani 1 2 d SD . .
O4 O 0.0377(5) 0.2624(5) 0.1431(12) 0.166(3) Uani 1 1 d D . .
O5 O 0.4664(7) 0.1823(10) 0.3523(16) 0.118(4) Uani 0.50 1 d PD . .
O6 O 0.4281(18) 0.0000 0.036(3) 0.28(2) Uani 0.50 2 d SPD . .
H5WA H 0.458(4) 0.170(2) 0.264(3) 0.09(3) Uiso 1 1 d D . .
H5WB H 0.472(3) 0.2270(16) 0.365(4) 0.049(19) Uiso 1 1 d D . .
H4WB H 0.001(3) 0.281(13) 0.09(2) 0.7(3) Uiso 1 1 d D . .
H4WA H 0.024(4) 0.235(4) 0.207(7) 0.09(3) Uiso 1 1 d D . .
H6WA H 0.431(11) 0.0000 0.126(6) 0.20(8) Uiso 1 2 d SD . .
H3WB H 0.3703(19) 0.0000 0.210(17) 0.19(7) Uiso 1 2 d SD . .
H12 H 0.085(2) 0.163(3) 0.101(5) 0.041(14) Uiso 1 1 d . . .
H3WA H 0.319(9) 0.0000 0.080(3) 2(3) Uiso 1 2 d SD . .

loop_
_atom_site_aniso_label
_atom_site_aniso_U_11
_atom_site_aniso_U_22
_atom_site_aniso_U_33
_atom_site_aniso_U_23
_atom_site_aniso_U_13
_atom_site_aniso_U_12
Ni1 0.0615(7) 0.0441(6) 0.0452(5) 0.000 0.0241(4) 0.000
N1 0.071(3) 0.061(3) 0.050(2) 0.007(2) 0.027(2) 0.001(2)
N2 0.071(3) 0.040(3) 0.065(3) 0.010(2) 0.029(2) 0.004(2)
N3 0.059(3) 0.042(3) 0.043(3) 0.000 0.018(3) 0.000
N4 0.062(3) 0.052(3) 0.052(2) 0.003(2) 0.022(2) 0.004(2)
O1 0.068(2) 0.046(2) 0.055(2) -0.0034(16) 0.0260(18) -0.0071(18)
O2 0.064(3) 0.062(3) 0.103(3) -0.026(2) 0.034(2) -0.005(2)
C1 0.084(4) 0.084(5) 0.068(4) 0.014(3) 0.039(3) -0.005(4)
C2 0.105(5) 0.106(6) 0.077(4) 0.030(4) 0.048(4) -0.020(5)
C3 0.114(6) 0.079(5) 0.098(5) 0.040(4) 0.043(5) 0.009(5)
C4 0.096(5) 0.060(4) 0.075(4) 0.021(3) 0.026(4) -0.001(4)
C5 0.077(4) 0.053(3) 0.052(3) 0.007(3) 0.019(3) -0.009(3)
C6 0.058(3) 0.045(3) 0.041(3) 0.000(2) 0.012(2) 0.004(2)
C7 0.062(4) 0.057(5) 0.038(3) 0.000 0.013(3) 0.000
C8 0.058(4) 0.080(6) 0.044(4) 0.000 0.018(3) 0.000
C9 0.096(5) 0.087(5) 0.087(5) -0.006(4) 0.050(4) -0.025(4)
C10 0.106(6) 0.139(9) 0.091(5) 0.006(5) 0.044(5) -0.037(6)
C11 0.092(8) 0.175(14) 0.068(6) 0.000 0.042(6) 0.000
C12 0.065(3) 0.043(3) 0.049(3) -0.001(2) 0.023(2) -0.005(3)
C13 0.066(3) 0.041(3) 0.045(3) 0.004(2) 0.023(2) -0.006(2)
C14 0.060(3) 0.051(3) 0.067(3) -0.004(3) 0.022(3) -0.002(3)
C15 0.064(3) 0.049(3) 0.059(3) -0.010(3) 0.022(3) -0.013(3)
O3 0.064(3) 0.069(4) 0.063(3) 0.000 0.031(3) 0.000
O4 0.174(7) 0.145(7) 0.183(9) 0.017(6) 0.055(7) 0.035(6)
O5 0.093(8) 0.146(14) 0.119(11) 0.004(9) 0.038(8) -0.035(9)
O6 0.18(3) 0.54(7) 0.15(2) 0.000 0.10(2) 0.000

_geom_special_details            
;
All esds (except the esd in the dihedral angle between two l.s. planes)
are estimated using the full covariance matrix. The cell esds are taken
into account individually in the estimation of esds in distances, angles
and torsion angles; correlations between esds in cell parameters are only
used when they are defined by crystal symmetry. An approximate (isotropic)
treatment of cell esds is used for estimating esds involving l.s. planes.
;

loop_
_geom_bond_atom_site_label_1
_geom_bond_atom_site_label_2
_geom_bond_distance
_geom_bond_site_symmetry_2
_geom_bond_publ_flag
Ni1 N3 2.021(6) . ?
Ni1 O1 2.075(4) . ?
Ni1 O1 2.075(4) 6 ?
Ni1 N1 2.085(5) 6 ?
Ni1 N1 2.085(5) . ?
Ni1 O3 2.097(6) . ?
N1 C1 1.333(7) . ?
N1 C5 1.347(7) . ?
N2 C6 1.346(7) . ?
N2 C5 1.394(7) . ?
N2 H12 0.85(6) . ?
N3 C6 1.346(6) 6 ?
N3 C6 1.346(6) . ?
N4 C7 1.323(6) . ?
N4 C6 1.336(7) . ?
O1 C12 1.243(6) . ?
O2 C12 1.250(6) . ?
C1 C2 1.399(10) . ?
C1 H1 0.9300 . ?
C2 C3 1.341(11) . ?
C2 H2 0.9300 . ?
C3 C4 1.360(10) . ?
C3 H3 0.9300 . ?
C4 C5 1.392(8) . ?
C4 H4 0.9300 . ?
C7 N4 1.323(6) 6 ?
C7 C8 1.491(11) . ?
C8 C9 1.380(8) 6 ?
C8 C9 1.380(8) . ?
C9 C10 1.405(10) . ?
C9 H9 0.9300 . ?
C10 C11 1.334(11) . ?
C10 H10 0.9300 . ?
C11 C10 1.334(11) 6 ?
C11 H11 0.9300 . ?
C12 C13 1.493(7) . ?
C13 C14 1.385(7) . ?
C13 C15 1.396(8) . ?
C14 C15 1.387(8) 7_556 ?
C14 H14 0.9300 . ?
C15 C14 1.387(8) 7_556 ?
C15 H15 0.9300 . ?
O3 H3WB 0.86(2) . ?
O3 H3WA 0.86(2) . ?
O4 H4WB 0.87(2) . ?
O4 H4WA 0.90(2) . ?
O5 H5WA 0.858(19) . ?
O5 H5WB 0.834(19) . ?
O6 H6WA 0.86(2) . ?

loop_
_geom_angle_atom_site_label_1
_geom_angle_atom_site_label_2
_geom_angle_atom_site_label_3
_geom_angle
_geom_angle_site_symmetry_1
_geom_angle_site_symmetry_3
_geom_angle_publ_flag
N3 Ni1 O1 90.89(15) . . ?
N3 Ni1 O1 90.89(15) . 6 ?
O1 Ni1 O1 88.2(2) . 6 ?
N3 Ni1 N1 83.88(17) . 6 ?
O1 Ni1 N1 171.78(16) . 6 ?
O1 Ni1 N1 85.50(16) 6 6 ?
N3 Ni1 N1 83.88(17) . . ?
O1 Ni1 N1 85.50(16) . . ?
O1 Ni1 N1 171.78(16) 6 . ?
N1 Ni1 N1 100.2(3) 6 . ?
N3 Ni1 O3 177.2(2) . . ?
O1 Ni1 O3 91.11(15) . . ?
O1 Ni1 O3 91.11(15) 6 . ?
N1 Ni1 O3 94.33(17) 6 . ?
N1 Ni1 O3 94.33(17) . . ?
C1 N1 C5 116.7(5) . . ?
C1 N1 Ni1 121.5(4) . . ?
C5 N1 Ni1 121.1(4) . . ?
C6 N2 C5 129.3(5) . . ?
C6 N2 H12 119(3) . . ?
C5 N2 H12 111(3) . . ?
C6 N3 C6 113.9(6) 6 . ?
C6 N3 Ni1 121.0(3) 6 . ?
C6 N3 Ni1 121.0(3) . . ?
C7 N4 C6 114.9(5) . . ?
C12 O1 Ni1 129.8(3) . . ?
N1 C1 C2 123.4(7) . . ?
N1 C1 H1 118.3 . . ?
C2 C1 H1 118.3 . . ?
C3 C2 C1 118.6(7) . . ?
C3 C2 H2 120.7 . . ?
C1 C2 H2 120.7 . . ?
C2 C3 C4 119.7(7) . . ?
C2 C3 H3 120.2 . . ?
C4 C3 H3 120.2 . . ?
C3 C4 C5 119.4(7) . . ?
C3 C4 H4 120.3 . . ?
C5 C4 H4 120.3 . . ?
N1 C5 C4 122.1(6) . . ?
N1 C5 N2 121.0(5) . . ?
C4 C5 N2 116.9(6) . . ?
N4 C6 N3 124.4(5) . . ?
N4 C6 N2 117.2(5) . . ?
N3 C6 N2 118.4(5) . . ?
N4 C7 N4 125.4(7) . 6 ?
N4 C7 C8 117.3(4) . . ?
N4 C7 C8 117.3(4) 6 . ?
C9 C8 C9 119.5(9) 6 . ?
C9 C8 C7 120.1(4) 6 . ?
C9 C8 C7 120.1(4) . . ?
C8 C9 C10 118.4(8) . . ?
C8 C9 H9 120.8 . . ?
C10 C9 H9 120.8 . . ?
C11 C10 C9 122.5(9) . . ?
C11 C10 H10 118.8 . . ?
C9 C10 H10 118.8 . . ?
C10 C11 C10 118.6(12) 6 . ?
C10 C11 H11 120.7 6 . ?
C10 C11 H11 120.7 . . ?
O1 C12 O2 124.1(5) . . ?
O1 C12 C13 117.4(5) . . ?
O2 C12 C13 118.4(5) . . ?
C14 C13 C15 118.2(5) . . ?
C14 C13 C12 121.6(5) . . ?
C15 C13 C12 120.2(5) . . ?
C13 C14 C15 121.1(5) . 7_556 ?
C13 C14 H14 119.5 . . ?
C15 C14 H14 119.5 7_556 . ?
C14 C15 C13 120.7(5) 7_556 . ?
C14 C15 H15 119.6 7_556 . ?
C13 C15 H15 119.6 . . ?
Ni1 O3 H3WB 160(10) . . ?
Ni1 O3 H3WA 90(10) . . ?
H3WB O3 H3WA 110(3) . . ?
H4WB O4 H4WA 106(2) . . ?
H5WA O5 H5WB 113(3) . . ?

_diffrn_measured_fraction_theta_max 0.995
_diffrn_reflns_theta_full        25.00
_diffrn_measured_fraction_theta_full 0.995
_refine_diff_density_max         0.890
_refine_diff_density_min         -0.477
_refine_diff_density_rms         0.107


