####################################################################### 
# 
# This file contains crystal structure data downloaded from the 
# Cambridge Structural Database (CSD) hosted by the Cambridge 
# Crystallographic Data Centre (CCDC).
# 
# Full information about CCDC data access policies and citation 
# guidelines are available at http://www.ccdc.cam.ac.uk/access/V1 
# 
# Audit and citation data items may have been added by the CCDC. 
# Please retain this information to preserve the provenance of 
# this file and to allow appropriate attribution of the data. 
# 
#######################################################################

data_xb1392
_audit_block_doi                 10.5517/ccpzzvg
_database_code_depnum_ccdc_archive 'CCDC 655397'
loop_
_citation_id
_citation_doi
_citation_year
1 10.1002/cjoc.200890224 2008
_audit_update_record             
;
2007-07-24 deposited with the CCDC.	2024-07-13 downloaded from the CCDC.
;

_audit_creation_method           SHELXL-97
_chemical_name_systematic        
;
?
;
_chemical_name_common            ?
_chemical_melting_point          ?
_chemical_formula_moiety         ?
_chemical_formula_sum            'C24 H42 Cu2 N4 O17'
_chemical_formula_weight         785.70

loop_
_atom_type_symbol
_atom_type_description
_atom_type_scat_dispersion_real
_atom_type_scat_dispersion_imag
_atom_type_scat_source
C C 0.0033 0.0016 'International Tables Vol C Tables 4.2.6.8 and 6.1.1.4'
H H 0.0000 0.0000 'International Tables Vol C Tables 4.2.6.8 and 6.1.1.4'
N N 0.0061 0.0033 'International Tables Vol C Tables 4.2.6.8 and 6.1.1.4'
O O 0.0106 0.0060 'International Tables Vol C Tables 4.2.6.8 and 6.1.1.4'
Cu Cu 0.3201 1.2651 'International Tables Vol C Tables 4.2.6.8 and 6.1.1.4'

_symmetry_cell_setting           Monoclinic
_symmetry_space_group_name_H-M   P2(1)/c

loop_
_symmetry_equiv_pos_as_xyz
'x, y, z'
'-x, y+1/2, -z+1/2'
'-x, -y, -z'
'x, -y-1/2, z-1/2'

_cell_length_a                   17.6905(9)
_cell_length_b                   9.7523(5)
_cell_length_c                   19.9933(10)
_cell_angle_alpha                90.00
_cell_angle_beta                 108.7960(10)
_cell_angle_gamma                90.00
_cell_volume                     3265.4(3)
_cell_formula_units_Z            8
_cell_measurement_temperature    296(2)
_cell_measurement_reflns_used    ?
_cell_measurement_theta_min      2.10
_cell_measurement_theta_max      25.50

_exptl_crystal_description       plane
_exptl_crystal_colour            blue
_exptl_crystal_size_max          0.35
_exptl_crystal_size_mid          0.22
_exptl_crystal_size_min          0.13
_exptl_crystal_density_meas      ?
_exptl_crystal_density_diffrn    1.598
_exptl_crystal_density_method    'not measured'
_exptl_crystal_F_000             1632
_exptl_absorpt_coefficient_mu    1.383
_exptl_absorpt_correction_type   multi-scan
_exptl_absorpt_correction_T_min  0.6439
_exptl_absorpt_correction_T_max  0.8428
_exptl_absorpt_process_details   'SADABS(Bruker, 2000)'

_exptl_special_details           
;
?
;

_diffrn_ambient_temperature      296(2)
_diffrn_radiation_wavelength     0.71073
_diffrn_radiation_type           MoK\a
_diffrn_radiation_source         'fine-focus sealed tube'
_diffrn_radiation_monochromator  graphite
_diffrn_measurement_device_type  'CCD area detector'
_diffrn_measurement_method       'Phi and omega scans'
_diffrn_detector_area_resol_mean ?
_diffrn_standards_number         0
_diffrn_standards_interval_count 0
_diffrn_standards_interval_time  0
_diffrn_standards_decay_%        0
_diffrn_reflns_number            16531
_diffrn_reflns_av_R_equivalents  0.0268
_diffrn_reflns_av_sigmaI/netI    0.0319
_diffrn_reflns_limit_h_min       -21
_diffrn_reflns_limit_h_max       21
_diffrn_reflns_limit_k_min       -11
_diffrn_reflns_limit_k_max       11
_diffrn_reflns_limit_l_min       -17
_diffrn_reflns_limit_l_max       24
_diffrn_reflns_theta_min         2.10
_diffrn_reflns_theta_max         25.50
_reflns_number_total             6063
_reflns_number_gt                4827
_reflns_threshold_expression     >2sigma(I)

_computing_data_collection       'Bruker SMART'
_computing_cell_refinement       'Bruker SMART'
_computing_data_reduction        'Bruker SMART'
_computing_structure_solution    'SHELXS-97 (Sheldrick, 1990)'
_computing_structure_refinement  'SHELXL-97 (Sheldrick, 1997)'
_computing_molecular_graphics    'Bruker SHELXTL'
_computing_publication_material  'Bruker SHELXTL'

_refine_special_details          
;
Refinement of F^2^ against ALL reflections. The weighted R-factor wR and
goodness of fit S are based on F^2^, conventional R-factors R are based
on F, with F set to zero for negative F^2^. The threshold expression of
F^2^ > 2sigma(F^2^) is used only for calculating R-factors(gt) etc. and is
not relevant to the choice of reflections for refinement. R-factors based
on F^2^ are statistically about twice as large as those based on F, and R-
factors based on ALL data will be even larger.
;

_refine_ls_structure_factor_coef Fsqd
_refine_ls_matrix_type           full
_refine_ls_weighting_scheme      calc
_refine_ls_weighting_details     
'calc w=1/[\s^2^(Fo^2^)+(0.0512P)^2^+2.9882P] where P=(Fo^2^+2Fc^2^)/3'
_atom_sites_solution_primary     direct
_atom_sites_solution_secondary   difmap
_atom_sites_solution_hydrogens   geom
_refine_ls_hydrogen_treatment    mixed
_refine_ls_extinction_method     SHELXL
_refine_ls_extinction_coef       0.00029(18)
_refine_ls_extinction_expression Fc^*^=kFc[1+0.001xFc^2^\l^3^/sin(2\q)]^-1/4^
_refine_ls_number_reflns         6063
_refine_ls_number_parameters     481
_refine_ls_number_restraints     18
_refine_ls_R_factor_all          0.0490
_refine_ls_R_factor_gt           0.0364
_refine_ls_wR_factor_ref         0.1016
_refine_ls_wR_factor_gt          0.0929
_refine_ls_goodness_of_fit_ref   0.992
_refine_ls_restrained_S_all      0.992
_refine_ls_shift/su_max          2.202
_refine_ls_shift/su_mean         0.013

loop_
_atom_site_label
_atom_site_type_symbol
_atom_site_fract_x
_atom_site_fract_y
_atom_site_fract_z
_atom_site_U_iso_or_equiv
_atom_site_adp_type
_atom_site_occupancy
_atom_site_symmetry_multiplicity
_atom_site_calc_flag
_atom_site_refinement_flags
_atom_site_disorder_assembly
_atom_site_disorder_group
Cu1 Cu 0.295701(19) 0.28492(3) 0.154708(19) 0.02956(12) Uani 1 1 d . . .
Cu2 Cu 0.27584(2) 0.73120(4) 0.47919(2) 0.03085(12) Uani 1 1 d . . .
N1 N 0.40222(13) 0.2069(2) 0.21236(12) 0.0278(5) Uani 1 1 d . . .
N2 N 0.37063(13) 0.8028(2) 0.45761(12) 0.0279(5) Uani 1 1 d . . .
N3 N 0.19039(14) 0.3677(2) 0.10009(13) 0.0338(6) Uani 1 1 d . . .
N4 N 0.17556(14) 0.6543(3) 0.48637(13) 0.0344(6) Uani 1 1 d . . .
O1 O 0.25288(12) 0.1123(2) 0.17946(11) 0.0385(5) Uani 1 1 d . . .
O2 O 0.29113(15) -0.1014(2) 0.21354(13) 0.0560(7) Uani 1 1 d . . .
O3 O 0.36243(11) 0.4347(2) 0.13912(11) 0.0352(5) Uani 1 1 d . . .
O4 O 0.48221(12) 0.4666(2) 0.12804(12) 0.0430(5) Uani 1 1 d . . .
O5 O 0.30393(12) 0.3596(2) 0.27864(11) 0.0375(5) Uani 1 1 d . . .
O6 O 0.26490(12) 0.5941(2) 0.36359(11) 0.0364(5) Uani 1 1 d . . .
O7 O 0.34474(11) 0.5766(2) 0.52192(11) 0.0334(5) Uani 1 1 d . . .
O8 O 0.47343(13) 0.5312(2) 0.57557(13) 0.0490(6) Uani 1 1 d . . .
O9 O 0.22971(13) 0.9097(2) 0.44508(13) 0.0466(6) Uani 1 1 d . . .
O10 O 0.26708(16) 1.1248(2) 0.43657(14) 0.0576(7) Uani 1 1 d . . .
O11 O 0.3057(2) 0.1852(4) 0.04965(16) 0.0580(8) Uani 1 1 d . . .
O12 O 0.3298(2) 0.7975(3) 0.6099(2) 0.0834(10) Uani 1 1 d D . .
O13 O 0.0866(2) 0.0278(6) 0.3437(2) 0.1171(14) Uani 1 1 d D . .
O14 O 0.1656(3) 0.7404(6) 0.2293(3) 0.1101(13) Uani 1 1 d D . .
O15 O 0.0449(3) 0.1275(8) 0.7277(4) 0.176(2) Uani 1 1 d D . .
O16 O -0.0003(3) 0.2245(6) 0.8366(3) 0.1333(18) Uani 1 1 d D . .
O17 O 0.1088(2) 0.1086(5) 0.21523(19) 0.0985(12) Uani 1 1 d D . .
C1 C 0.30576(19) 0.0184(3) 0.20193(16) 0.0371(7) Uani 1 1 d . . .
C2 C 0.39143(18) 0.0563(3) 0.21158(17) 0.0359(7) Uani 1 1 d . . .
H2A H 0.4258 0.0180 0.2557 0.043 Uiso 1 1 calc R . .
H2B H 0.4070 0.0170 0.1734 0.043 Uiso 1 1 calc R . .
C3 C 0.43428(17) 0.3971(3) 0.14546(15) 0.0320(6) Uani 1 1 d . . .
C4 C 0.45762(17) 0.2540(3) 0.17570(17) 0.0337(7) Uani 1 1 d . . .
H4A H 0.4562 0.1909 0.1378 0.040 Uiso 1 1 calc R . .
H4B H 0.5116 0.2556 0.2086 0.040 Uiso 1 1 calc R . .
C5 C 0.42836(18) 0.2638(3) 0.28537(16) 0.0366(7) Uani 1 1 d . . .
H5A H 0.4478 0.3565 0.2841 0.044 Uiso 1 1 calc R . .
H5B H 0.4725 0.2092 0.3146 0.044 Uiso 1 1 calc R . .
C6 C 0.36412(19) 0.2665(3) 0.31873(16) 0.0391(7) Uani 1 1 d . . .
H6B H 0.3417 0.1755 0.3182 0.047 Uiso 1 1 calc R . .
H6A H 0.3855 0.2970 0.3674 0.047 Uiso 1 1 calc R . .
C7 C 0.23666(19) 0.3691(4) 0.30363(18) 0.0433(8) Uani 1 1 d . . .
H7A H 0.2199 0.2772 0.3110 0.052 Uiso 1 1 calc R . .
H7B H 0.1928 0.4123 0.2675 0.052 Uiso 1 1 calc R . .
C8 C 0.2531(2) 0.4486(3) 0.37103(18) 0.0415(8) Uani 1 1 d . . .
H8A H 0.2087 0.4362 0.3889 0.050 Uiso 1 1 calc R . .
H8B H 0.3004 0.4113 0.4058 0.050 Uiso 1 1 calc R . .
C9 C 0.34292(18) 0.6278(3) 0.36056(17) 0.0374(7) Uani 1 1 d . . .
H9A H 0.3446 0.6139 0.3130 0.045 Uiso 1 1 calc R . .
H9B H 0.3828 0.5692 0.3924 0.045 Uiso 1 1 calc R . .
C10 C 0.35983(19) 0.7746(3) 0.38157(16) 0.0347(7) Uani 1 1 d . . .
H10A H 0.3161 0.8304 0.3526 0.042 Uiso 1 1 calc R . .
H10B H 0.4078 0.8025 0.3717 0.042 Uiso 1 1 calc R . .
C11 C 0.2823(2) 1.0021(3) 0.44781(17) 0.0404(7) Uani 1 1 d . . .
C12 C 0.36805(18) 0.9534(3) 0.46754(17) 0.0364(7) Uani 1 1 d . . .
H12A H 0.3945 0.9994 0.4382 0.044 Uiso 1 1 calc R . .
H12B H 0.3962 0.9764 0.5165 0.044 Uiso 1 1 calc R . .
C13 C 0.41982(17) 0.6037(3) 0.53756(15) 0.0322(7) Uani 1 1 d . . .
C14 C 0.44159(17) 0.7345(3) 0.50730(17) 0.0355(7) Uani 1 1 d . . .
H14A H 0.4674 0.7970 0.5456 0.043 Uiso 1 1 calc R . .
H14B H 0.4794 0.7134 0.4828 0.043 Uiso 1 1 calc R . .
C15 C 0.1654(2) 0.4890(4) 0.1139(2) 0.0522(9) Uani 1 1 d . . .
H15 H 0.1991 0.5401 0.1509 0.063 Uiso 1 1 calc R . .
C16 C 0.0921(2) 0.5436(4) 0.0764(2) 0.0525(10) Uani 1 1 d . . .
H16 H 0.0777 0.6295 0.0886 0.063 Uiso 1 1 calc R . .
C17 C 0.04002(16) 0.4723(3) 0.02110(15) 0.0322(7) Uani 1 1 d . . .
C18 C 0.0678(2) 0.3479(4) 0.0054(2) 0.0513(9) Uani 1 1 d . . .
H18 H 0.0361 0.2963 -0.0324 0.062 Uiso 1 1 calc R . .
C19 C 0.1415(2) 0.2997(4) 0.0449(2) 0.0534(10) Uani 1 1 d . . .
H19 H 0.1583 0.2158 0.0327 0.064 Uiso 1 1 calc R . .
C20 C 0.11052(19) 0.6403(5) 0.43038(18) 0.0564(11) Uani 1 1 d . . .
H20 H 0.1119 0.6725 0.3870 0.068 Uiso 1 1 calc R . .
C21 C 0.0416(2) 0.5808(5) 0.43336(19) 0.0596(11) Uani 1 1 d . . .
H21 H -0.0021 0.5723 0.3925 0.072 Uiso 1 1 calc R . .
C22 C 0.03679(16) 0.5334(3) 0.49715(17) 0.0355(7) Uani 1 1 d . . .
C23 C 0.10374(19) 0.5509(4) 0.55532(18) 0.0478(9) Uani 1 1 d . . .
H23 H 0.1035 0.5232 0.5997 0.057 Uiso 1 1 calc R . .
C24 C 0.17098(19) 0.6095(4) 0.54733(18) 0.0478(9) Uani 1 1 d . . .
H24 H 0.2159 0.6180 0.5872 0.057 Uiso 1 1 calc R . .
H11C H 0.317(2) 0.117(5) 0.039(2) 0.057(13) Uiso 1 1 d . . .
H11D H 0.297(3) 0.229(5) 0.024(3) 0.062(18) Uiso 1 1 d . . .
H12C H 0.3540(17) 0.775(3) 0.6530(8) 0.024(9) Uiso 1 1 d D . .
H12D H 0.330(13) 0.881(3) 0.603(3) 0.73(18) Uiso 1 1 d D . .
H13C H 0.109(9) 0.101(7) 0.360(13) 0.8(2) Uiso 1 1 d D . .
H13D H 0.116(7) -0.040(10) 0.350(12) 0.61(16) Uiso 1 1 d D . .
H14C H 0.132(6) 0.695(10) 0.241(9) 0.60(16) Uiso 1 1 d D . .
H14D H 0.161(7) 0.8248(16) 0.232(7) 0.33(8) Uiso 1 1 d D . .
H15C H 0.046(7) 0.17(3) 0.764(7) 2.0(9) Uiso 1 1 d D . .
H15D H 0.000(3) 0.120(13) 0.697(5) 0.11(5) Uiso 0.50 1 d PD . .
H16C H -0.031(5) 0.291(7) 0.831(10) 2.0(12) Uiso 1 1 d D . .
H17C H 0.097(4) 0.06(3) 0.243(13) 2.0(18) Uiso 0.50 1 d PD . .
H17D H 0.1564(14) 0.106(9) 0.217(4) 0.20(4) Uiso 1 1 d D . .
H16D H 0.023(8) 0.217(19) 0.807(6) 0.41(11) Uiso 1 1 d D . .

loop_
_atom_site_aniso_label
_atom_site_aniso_U_11
_atom_site_aniso_U_22
_atom_site_aniso_U_33
_atom_site_aniso_U_23
_atom_site_aniso_U_13
_atom_site_aniso_U_12
Cu1 0.02326(19) 0.0272(2) 0.0338(2) 0.00415(15) 0.00308(15) 0.00364(13)
Cu2 0.0238(2) 0.0289(2) 0.0412(2) 0.00504(15) 0.01232(16) -0.00144(13)
N1 0.0259(12) 0.0275(13) 0.0264(12) -0.0008(10) 0.0034(10) 0.0047(9)
N2 0.0259(12) 0.0264(12) 0.0313(13) -0.0003(10) 0.0092(10) -0.0051(9)
N3 0.0268(12) 0.0305(13) 0.0395(14) 0.0035(11) 0.0043(11) 0.0028(10)
N4 0.0265(13) 0.0383(14) 0.0393(15) 0.0054(12) 0.0119(11) -0.0015(10)
O1 0.0323(11) 0.0368(12) 0.0419(13) 0.0037(10) 0.0059(10) -0.0027(9)
O2 0.0666(16) 0.0358(13) 0.0538(15) 0.0106(11) 0.0029(13) -0.0119(11)
O3 0.0290(11) 0.0288(11) 0.0454(12) 0.0045(9) 0.0089(9) 0.0042(8)
O4 0.0337(12) 0.0453(13) 0.0478(14) 0.0065(11) 0.0101(10) -0.0059(10)
O5 0.0384(12) 0.0420(12) 0.0316(11) -0.0050(9) 0.0106(10) 0.0048(9)
O6 0.0331(11) 0.0336(11) 0.0456(13) -0.0069(10) 0.0170(10) -0.0052(9)
O7 0.0297(11) 0.0284(11) 0.0410(12) 0.0055(9) 0.0098(9) -0.0037(8)
O8 0.0374(12) 0.0495(14) 0.0530(15) 0.0183(12) 0.0048(11) 0.0064(11)
O9 0.0399(13) 0.0377(13) 0.0637(16) 0.0102(11) 0.0189(12) 0.0075(10)
O10 0.0818(19) 0.0289(13) 0.0612(16) 0.0069(11) 0.0218(14) 0.0099(12)
O11 0.090(2) 0.0413(17) 0.0394(16) -0.0037(14) 0.0169(15) 0.0264(16)
O12 0.116(3) 0.0553(19) 0.092(3) -0.0224(19) 0.052(3) -0.0241(18)
O13 0.074(2) 0.168(4) 0.098(3) 0.002(3) 0.010(2) 0.005(3)
O14 0.098(3) 0.113(3) 0.110(3) 0.003(3) 0.021(2) -0.024(2)
O15 0.105(4) 0.222(7) 0.199(6) -0.063(5) 0.044(4) -0.040(4)
O16 0.131(4) 0.154(5) 0.110(4) -0.015(3) 0.033(3) -0.031(3)
O17 0.068(2) 0.145(4) 0.079(2) -0.029(2) 0.0188(19) -0.015(2)
C1 0.0477(19) 0.0308(17) 0.0269(16) 0.0011(13) 0.0039(14) -0.0051(14)
C2 0.0401(17) 0.0278(15) 0.0345(17) 0.0031(13) 0.0048(14) 0.0088(13)
C3 0.0290(15) 0.0318(16) 0.0301(16) -0.0015(13) 0.0024(13) 0.0005(12)
C4 0.0263(15) 0.0368(17) 0.0366(17) 0.0010(13) 0.0083(13) 0.0061(12)
C5 0.0357(17) 0.0379(17) 0.0289(16) -0.0025(13) 0.0004(13) 0.0035(13)
C6 0.0438(18) 0.0425(18) 0.0272(16) -0.0027(13) 0.0061(14) 0.0063(14)
C7 0.0372(17) 0.046(2) 0.0466(19) -0.0133(16) 0.0133(15) -0.0062(14)
C8 0.0477(19) 0.0385(18) 0.0450(19) -0.0077(15) 0.0241(16) -0.0080(14)
C9 0.0340(16) 0.0440(18) 0.0384(17) -0.0089(14) 0.0175(14) -0.0039(13)
C10 0.0359(16) 0.0396(17) 0.0313(16) 0.0002(13) 0.0147(14) -0.0066(13)
C11 0.055(2) 0.0310(17) 0.0375(18) 0.0022(14) 0.0178(16) 0.0031(15)
C12 0.0434(18) 0.0273(16) 0.0376(17) 0.0005(13) 0.0120(15) -0.0090(13)
C13 0.0322(16) 0.0332(16) 0.0309(16) 0.0014(13) 0.0098(13) -0.0011(12)
C14 0.0211(14) 0.0407(17) 0.0404(18) 0.0049(14) 0.0037(13) -0.0043(12)
C15 0.0362(18) 0.051(2) 0.056(2) -0.0139(18) -0.0042(16) 0.0069(15)
C16 0.0388(18) 0.043(2) 0.063(2) -0.0119(17) -0.0015(17) 0.0132(15)
C17 0.0246(14) 0.0317(15) 0.0364(17) 0.0052(13) 0.0044(13) 0.0019(12)
C18 0.0371(18) 0.043(2) 0.057(2) -0.0092(17) -0.0072(17) 0.0031(15)
C19 0.0390(19) 0.0348(19) 0.072(3) -0.0080(17) -0.0025(18) 0.0096(15)
C20 0.0344(18) 0.100(3) 0.0339(18) 0.0148(19) 0.0101(16) -0.0159(19)
C21 0.0308(18) 0.107(3) 0.0367(19) 0.013(2) 0.0051(15) -0.0193(19)
C22 0.0230(14) 0.0438(18) 0.0386(17) 0.0049(14) 0.0087(13) -0.0003(13)
C23 0.0349(17) 0.069(2) 0.0350(18) 0.0147(17) 0.0057(15) -0.0141(16)
C24 0.0325(17) 0.064(2) 0.0401(19) 0.0103(17) 0.0015(15) -0.0146(16)

_geom_special_details            
;
All esds (except the esd in the dihedral angle between two l.s. planes)
are estimated using the full covariance matrix. The cell esds are taken
into account individually in the estimation of esds in distances, angles
and torsion angles; correlations between esds in cell parameters are only
used when they are defined by crystal symmetry. An approximate (isotropic)
treatment of cell esds is used for estimating esds involving l.s. planes.
;

loop_
_geom_bond_atom_site_label_1
_geom_bond_atom_site_label_2
_geom_bond_distance
_geom_bond_site_symmetry_2
_geom_bond_publ_flag
Cu1 O3 1.965(2) . ?
Cu1 O1 1.973(2) . ?
Cu1 N3 2.001(2) . ?
Cu1 N1 2.014(2) . ?
Cu1 O11 2.373(3) . ?
Cu2 O9 1.950(2) . ?
Cu2 O7 1.954(2) . ?
Cu2 N4 1.973(2) . ?
Cu2 N2 1.988(2) . ?
Cu2 O12 2.560(4) . ?
N1 C4 1.474(4) . ?
N1 C2 1.481(4) . ?
N1 C5 1.489(4) . ?
N2 C14 1.484(4) . ?
N2 C12 1.484(4) . ?
N2 C10 1.495(4) . ?
N3 C15 1.323(4) . ?
N3 C19 1.338(4) . ?
N4 C24 1.322(4) . ?
N4 C20 1.329(4) . ?
O1 C1 1.282(4) . ?
O2 C1 1.236(4) . ?
O3 C3 1.289(3) . ?
O4 C3 1.220(3) . ?
O5 C6 1.432(4) . ?
O5 C7 1.434(4) . ?
O6 C9 1.439(3) . ?
O6 C8 1.449(4) . ?
O7 C13 1.290(3) . ?
O8 C13 1.230(3) . ?
O9 C11 1.283(4) . ?
O10 C11 1.231(4) . ?
O11 H11C 0.74(4) . ?
O11 H11D 0.64(5) . ?
O12 H12C 0.858(10) . ?
O12 H12D 0.824(11) . ?
O13 H13C 0.830(3) . ?
O13 H13D 0.8300(12) . ?
O14 H14C 0.830(2) . ?
O14 H14D 0.830(2) . ?
O15 H15C 0.8300(12) . ?
O15 H15D 0.8301(12) . ?
O16 H16C 0.831(5) . ?
O16 H16D 0.830(2) . ?
O17 H17C 0.830(2) . ?
O17 H17D 0.830(2) . ?
C1 C2 1.510(4) . ?
C2 H2A 0.9700 . ?
C2 H2B 0.9700 . ?
C3 C4 1.524(4) . ?
C4 H4A 0.9700 . ?
C4 H4B 0.9700 . ?
C5 C6 1.492(4) . ?
C5 H5A 0.9700 . ?
C5 H5B 0.9700 . ?
C6 H6B 0.9700 . ?
C6 H6A 0.9700 . ?
C7 C8 1.500(4) . ?
C7 H7A 0.9700 . ?
C7 H7B 0.9700 . ?
C8 H8A 0.9700 . ?
C8 H8B 0.9700 . ?
C9 C10 1.495(4) . ?
C9 H9A 0.9700 . ?
C9 H9B 0.9700 . ?
C10 H10A 0.9700 . ?
C10 H10B 0.9700 . ?
C11 C12 1.516(4) . ?
C12 