####################################################################### 
# 
# This file contains crystal structure data downloaded from the 
# Cambridge Structural Database (CSD) hosted by the Cambridge 
# Crystallographic Data Centre (CCDC).
# 
# Full information about CCDC data access policies and citation 
# guidelines are available at http://www.ccdc.cam.ac.uk/access/V1 
# 
# Audit and citation data items may have been added by the CCDC. 
# Please retain this information to preserve the provenance of 
# this file and to allow appropriate attribution of the data. 
# 
#######################################################################

data_diepox
_audit_block_doi                 10.5517/cc14bz1h
_database_code_depnum_ccdc_archive 'CCDC 1053226'
loop_
_citation_id
_citation_doi
_citation_year
1 10.1002/anie.201502302 2015
_audit_update_record             
;
2015-03-11 deposited with the CCDC.	2024-07-13 downloaded from the CCDC.
;

_audit_creation_method           SHELXL-2014/7
_shelx_SHELXL_version_number     2014/7
_chemical_name_systematic        ?
_chemical_name_common            ?
_chemical_melting_point          ?
_chemical_formula_moiety         ?
_chemical_formula_sum            'C60 H66 I6 N12 O2 Zn3'
_chemical_formula_weight         1944.75

loop_
_atom_type_symbol
_atom_type_description
_atom_type_scat_dispersion_real
_atom_type_scat_dispersion_imag
_atom_type_scat_source
C C 0.0181 0.0091 'International Tables Vol C Tables 4.2.6.8 and 6.1.1.4'
H H 0.0000 0.0000 'International Tables Vol C Tables 4.2.6.8 and 6.1.1.4'
N N 0.0311 0.0180 'International Tables Vol C Tables 4.2.6.8 and 6.1.1.4'
Zn Zn -1.5491 0.6778 'International Tables Vol C Tables 4.2.6.8 and 6.1.1.4'
I I -0.3257 6.8362 'International Tables Vol C Tables 4.2.6.8 and 6.1.1.4'
O O 0.0492 0.0322 'International Tables Vol C Tables 4.2.6.8 and 6.1.1.4'

_space_group_crystal_system      monoclinic
_space_group_IT_number           15
_space_group_name_H-M_alt        'C 2/c'
_space_group_name_Hall           '-C 2yc'

_shelx_space_group_comment       
;
The symmetry employed for this shelxl refinement is uniquely defined
by the following loop, which should always be used as a source of
symmetry information in preference to the above space-group names.
They are only intended as comments.
;

loop_
_space_group_symop_operation_xyz
'x, y, z'
'-x, y, -z+1/2'
'x+1/2, y+1/2, z'
'-x+1/2, y+1/2, -z+1/2'
'-x, -y, -z'
'x, -y, z-1/2'
'-x+1/2, -y+1/2, -z'
'x+1/2, -y+1/2, z-1/2'

_cell_length_a                   34.8531(7)
_cell_length_b                   14.7838(3)
_cell_length_c                   31.0339(8)
_cell_angle_alpha                90
_cell_angle_beta                 101.296(2)
_cell_angle_gamma                90
_cell_volume                     15680.8(6)
_cell_formula_units_Z            8
_cell_measurement_temperature    100(2)
_cell_measurement_reflns_used    12702
_cell_measurement_theta_min      3.6530
_cell_measurement_theta_max      75.3540

_exptl_crystal_description       block
_exptl_crystal_colour            colorless
_exptl_crystal_density_meas      ?
_exptl_crystal_density_method    ?
_exptl_crystal_density_diffrn    1.648
_exptl_crystal_F_000             7472
_exptl_transmission_factor_min   ?
_exptl_transmission_factor_max   ?
_exptl_crystal_size_max          0.130
_exptl_crystal_size_mid          0.090
_exptl_crystal_size_min          0.080
_exptl_absorpt_coefficient_mu    19.958
_shelx_estimated_absorpt_T_min   0.181
_shelx_estimated_absorpt_T_max   0.298
loop_
_exptl_crystal_face_index_h
_exptl_crystal_face_index_k
_exptl_crystal_face_index_l
_exptl_crystal_face_perp_dist
_exptl_oxdiff_crystal_face_indexfrac_h
_exptl_oxdiff_crystal_face_indexfrac_k
_exptl_oxdiff_crystal_face_indexfrac_l
_exptl_oxdiff_crystal_face_x
_exptl_oxdiff_crystal_face_y
_exptl_oxdiff_crystal_face_z
5 8 -11 0.0703 4.9355 7.8941 -11.2529 -0.8783 -0.4780 -0.0091
22 0 2 0.0363 21.9802 -0.0016 2.0020 0.2858 -0.6576 0.7197
8 -4 -17 0.0377 8.0013 -3.9974 -17.0166 -0.4246 0.4517 0.7347
-3 -1 -19 0.0392 -2.9822 -0.9967 -19.0189 -0.7792 0.5786 0.2540
-10 -8 -3 0.0477 -10.0044 -7.9984 -3.0021 0.2322 0.9428 0.0730
6 -9 3 0.0490 5.9752 -9.0002 3.0041 0.6898 0.4387 0.5678
-19 2 13 0.0415 -18.9925 1.9988 13.0128 0.2668 0.0928 -0.9540
-4 8 11 0.0458 -3.9915 7.9979 11.0101 -0.0197 -0.7294 -0.6827
-22 -2 3 0.0390 -21.9886 -1.9991 3.0032 0.0396 0.6964 -0.7100
23 1 -4 0.0422 22.9868 0.9993 -4.0041 -0.0166 -0.6275 0.8063
9 1 16 0.0532 9.2639 0.9127 16.3074 0.7260 -0.6876 0.0091
7 4 15 0.0447 7.1233 4.3327 15.2462 0.4685 -0.8597 -0.2035
4 2 18 0.0512 3.6680 2.0558 18.3882 0.6989 -0.6628 -0.2687
17 4 6 0.0481 17.4850 4.2220 5.9686 0.1752 -0.9353 0.3076
9 9 0 0.0533 9.1688 8.7558 -0.4304 -0.4284 -0.9000 -0.0803
-16 -1 -11 0.0319 -15.9788 -0.9973 -11.0109 -0.5575 0.7641 -0.3215
17 5 -10 0.0681 16.6189 5.3654 -10.4952 -0.5968 -0.6321 0.4942
-9 -7 13 0.0544 -9.0178 -7.0011 13.0138 0.8655 0.4863 -0.2003
_exptl_absorpt_correction_T_min  0.203
_exptl_absorpt_correction_T_max  0.401
_exptl_absorpt_correction_type   gaussian
_exptl_absorpt_process_details   
;
CrysAlisPro, Agilent Technologies,
Version 1.171.37.35 (release 13-08-2014 CrysAlis171 .NET)
(compiled Aug 13 2014,18:06:01)
Numerical absorption correction based on gaussian integration over
			a multifaceted crystal model
Empirical absorption correction using spherical harmonics,
 implemented in SCALE3 ABSPACK scaling algorithm.
;
_diffrn_ambient_temperature      100(2)
_diffrn_ambient_environment      N~2~
_diffrn_source                   'sealed X-ray tube'
_diffrn_source_type              'SuperNova (Cu) X-ray Source'
_diffrn_radiation_probe          x-ray
_diffrn_radiation_type           'Cu K\a'
_diffrn_radiation_wavelength     1.54184
_diffrn_radiation_monochromator  mirror
_diffrn_measurement_device       'four-circle diffractometer'
_diffrn_measurement_device_type  'SuperNova, Dual, Cu at zero, AtlasS2'
_diffrn_detector                 'CCD plate'
_diffrn_detector_type            AtlasS2
_diffrn_detector_area_resol_mean 5.2332
_diffrn_measurement_method       '\w scans'
_diffrn_reflns_number            40194
_diffrn_reflns_av_unetI/netI     0.0335
_diffrn_reflns_av_R_equivalents  0.0277
_diffrn_reflns_limit_h_min       -35
_diffrn_reflns_limit_h_max       43
_diffrn_reflns_limit_k_min       -18
_diffrn_reflns_limit_k_max       18
_diffrn_reflns_limit_l_min       -39
_diffrn_reflns_limit_l_max       35
_diffrn_reflns_theta_min         3.462
_diffrn_reflns_theta_max         76.624
_diffrn_reflns_theta_full        67.684
_diffrn_measured_fraction_theta_max 0.980
_diffrn_measured_fraction_theta_full 0.999
_diffrn_reflns_Laue_measured_fraction_max 0.980
_diffrn_reflns_Laue_measured_fraction_full 0.999
_diffrn_reflns_point_group_measured_fraction_max 0.980
_diffrn_reflns_point_group_measured_fraction_full 0.999
_reflns_number_total             16164
_reflns_number_gt                13094
_reflns_threshold_expression     'I > 2\s(I)'
_reflns_Friedel_coverage         0.000
_reflns_Friedel_fraction_max     .
_reflns_Friedel_fraction_full    .

_reflns_special_details          
;
 Reflections were merged by SHELXL according to the crystal
 class for the calculation of statistics and refinement.
 
 _reflns_Friedel_fraction is defined as the number of unique
 Friedel pairs measured divided by the number that would be
 possible theoretically, ignoring centric projections and
 systematic absences.
;

_computing_data_collection       
;
CrysAlisPro, Agilent Technologies,
Version 1.171.37.35 (release 13-08-2014 CrysAlis171 .NET)
(compiled Aug 13 2014,18:06:01)
;
_computing_cell_refinement       
;
CrysAlisPro, Agilent Technologies,
Version 1.171.37.35 (release 13-08-2014 CrysAlis171 .NET)
(compiled Aug 13 2014,18:06:01)
;
_computing_data_reduction        
;
CrysAlisPro, Agilent Technologies,
Version 1.171.37.35 (release 13-08-2014 CrysAlis171 .NET)
(compiled Aug 13 2014,18:06:01)
;
_computing_structure_solution    'SHELXT-2014/5 (Sheldrick, 2014)'
_computing_structure_refinement  'SHELXL-2014/7 (Sheldrick, 2014)'
_computing_molecular_graphics    'shelXle (Hubschle et al., 2011)'
_computing_publication_material  'SHELXL-2014/7 (Sheldrick, 2014)'
_refine_special_details          ?
_refine_ls_structure_factor_coef Fsqd
_refine_ls_matrix_type           full
_refine_ls_weighting_scheme      calc
_refine_ls_weighting_details     
'w=1/[\s^2^(Fo^2^)+(0.1330P)^2^+39.5636P] where P=(Fo^2^+2Fc^2^)/3'
_atom_sites_solution_primary     iterative
_atom_sites_solution_secondary   difmap
_atom_sites_solution_hydrogens   geom
_refine_ls_hydrogen_treatment    constr
_refine_ls_extinction_method     none
_refine_ls_extinction_coef       .
_refine_ls_number_reflns         16164
_refine_ls_number_parameters     1093
_refine_ls_number_restraints     348
_refine_ls_R_factor_all          0.0753
_refine_ls_R_factor_gt           0.0624
_refine_ls_wR_factor_ref         0.2055
_refine_ls_wR_factor_gt          0.1896
_refine_ls_goodness_of_fit_ref   1.054
_refine_ls_restrained_S_all      1.045
_refine_ls_shift/su_max          0.001
_refine_ls_shift/su_mean         0.000

loop_
_atom_site_label
_atom_site_type_symbol
_atom_site_fract_x
_atom_site_fract_y
_atom_site_fract_z
_atom_site_U_iso_or_equiv
_atom_site_adp_type
_atom_site_occupancy
_atom_site_site_symmetry_order
_atom_site_calc_flag
_atom_site_refinement_flags_posn
_atom_site_refinement_flags_adp
_atom_site_refinement_flags_occupancy
_atom_site_disorder_assembly
_atom_site_disorder_group
Zn1 Zn 0.62606(2) 0.60176(6) 0.56149(3) 0.0534(2) Uani 1 1 d . . . . .
Zn2 Zn 0.41578(2) -0.12742(5) 0.41168(3) 0.04548(19) Uani 1 1 d . . . . .
I11 I 0.60849(3) 0.74183(4) 0.59733(3) 0.1170(4) Uani 1 1 d . . . . .
I22 I 0.47258(2) -0.15761(4) 0.37446(2) 0.07501(17) Uani 1 1 d . . . . .
N101 N 0.57947(16) 0.5154(4) 0.55797(19) 0.0528(12) Uani 1 1 d . . . . .
C102 C 0.56522(18) 0.4662(5) 0.5229(2) 0.0493(13) Uani 1 1 d . . . . .
H102 H 0.5772 0.4704 0.4980 0.059 Uiso 1 1 calc R U . . .
C103 C 0.53354(18) 0.4087(5) 0.5211(2) 0.0492(13) Uani 1 1 d . . . . .
H103 H 0.5244 0.3736 0.4955 0.059 Uiso 1 1 calc R U . . .
C104 C 0.51564(16) 0.4029(4) 0.5562(2) 0.0450(12) Uani 1 1 d . . . . .
C105 C 0.5322(3) 0.4488(8) 0.5942(3) 0.090(3) Uani 1 1 d . . . . .
H105 H 0.5220 0.4427 0.6203 0.108 Uiso 1 1 calc R U . . .
C106 C 0.5643(3) 0.5040(9) 0.5932(3) 0.095(4) Uani 1 1 d . . . . .
H106 H 0.5758 0.5351 0.6194 0.114 Uiso 1 1 calc R U . . .
N111 N 0.42946(15) -0.0196(3) 0.45500(16) 0.0453(10) Uani 1 1 d . . . . .
C112 C 0.46132(16) 0.0308(4) 0.4559(2) 0.0440(12) Uani 1 1 d . . . . .
H112 H 0.4797 0.0132 0.4386 0.053 Uiso 1 1 calc R U . . .
C113 C 0.46829(17) 0.1080(4) 0.4813(2) 0.0448(12) Uani 1 1 d . . . . .
H113 H 0.4912 0.1429 0.4814 0.054 Uiso 1 1 calc R U . . .
C114 C 0.44171(16) 0.1341(4) 0.50660(18) 0.0398(11) Uani 1 1 d . . . . .
C115 C 0.4090(2) 0.0812(5) 0.5064(2) 0.0583(16) Uani 1 1 d . . . . .
H115 H 0.3903 0.0970 0.5236 0.070 Uiso 1 1 calc R U . . .
C116 C 0.4043(2) 0.0041(5) 0.4802(3) 0.0625(18) Uani 1 1 d . . . . .
H116 H 0.3822 -0.0334 0.4804 0.075 Uiso 1 1 calc R U . . .
N121 N 0.3603(2) 0.3458(4) 0.6819(2) 0.0608(15) Uani 1 1 d . . . . .
C122 C 0.3912(4) 0.3942(8) 0.6815(4) 0.101(4) Uani 1 1 d . . . . .
H122 H 0.3972 0.4415 0.7025 0.121 Uiso 1 1 calc R U . . .
C123 C 0.4160(4) 0.3809(8) 0.6525(4) 0.100(4) Uani 1 1 d . . . . .
H123 H 0.4389 0.4168 0.6544 0.120 Uiso 1 1 calc R U . . .
C124 C 0.4073(2) 0.3156(4) 0.6209(2) 0.0517(14) Uani 1 1 d . . . . .
C125 C 0.3732(3) 0.2691(7) 0.6181(4) 0.091(4) Uani 1 1 d . . . . .
H125 H 0.3652 0.2260 0.5954 0.109 Uiso 1 1 calc R U . . .
C126 C 0.3502(3) 0.2862(7) 0.6492(4) 0.092(4) Uani 1 1 d . . . . .
H126 H 0.3263 0.2539 0.6472 0.111 Uiso 1 1 calc R U . . .
C131 C 0.48196(16) 0.3418(4) 0.5568(2) 0.0428(11) Uani 1 1 d . . . . .
N132 N 0.47591(13) 0.2747(3) 0.52822(16) 0.0397(9) Uani 1 1 d . . . . .
C133 C 0.44785(16) 0.2174(4) 0.53416(18) 0.0393(11) Uani 1 1 d . . . . .
N134 N 0.42530(14) 0.2261(3) 0.56364(18) 0.0445(10) Uani 1 1 d . . . . .
C135 C 0.43207(18) 0.2998(4) 0.5886(2) 0.0475(12) Uani 1 1 d . . . . .
N136 N 0.46117(15) 0.3589(4) 0.58746(19) 0.0494(11) Uani 1 1 d . . . . .
N201 N 0.37662(16) -0.0610(3) 0.36262(17) 0.0491(12) Uani 1 1 d . . . . .
C202 C 0.3813(3) 0.0267(5) 0.3570(3) 0.094(4) Uani 1 1 d . . . . .
H202 H 0.4003 0.0582 0.3779 0.113 Uiso 1 1 calc R U . . .
C203 C 0.3602(3) 0.0743(5) 0.3225(3) 0.088(4) Uani 1 1 d . . . . .
H203 H 0.3644 0.1374 0.3198 0.106 Uiso 1 1 calc R U . . .
C204 C 0.33294(18) 0.0300(4) 0.2919(2) 0.0459(12) Uani 1 1 d . . . . .
C205 C 0.32727(19) -0.0608(4) 0.2978(2) 0.0498(14) Uani 1 1 d . . . . .
H205 H 0.3084 -0.0936 0.2775 0.060 Uiso 1 1 calc R U . . .
C206 C 0.3496(2) -0.1038(4) 0.3341(2) 0.0516(15) Uani 1 1 d . . . . .
H206 H 0.3452 -0.1663 0.3385 0.062 Uiso 1 1 calc R U . . .
N211 N 0.31523(17) 0.4978(4) 0.2248(2) 0.0526(12) Uani 1 1 d . . . . .
C212 C 0.2851(2) 0.4648(5) 0.1977(3) 0.0615(17) Uani 1 1 d . . . . .
H212 H 0.2676 0.5054 0.1800 0.074 Uiso 1 1 calc R U . . .
C213 C 0.2776(2) 0.3717(5) 0.1936(3) 0.0576(16) Uani 1 1 d . . . . .
H213 H 0.2556 0.3492 0.1734 0.069 Uiso 1 1 calc R U . . .
C214 C 0.30297(18) 0.3139(4) 0.2200(2) 0.0434(12) Uani 1 1 d . . . . .
C215 C 0.3345(2) 0.3493(4) 0.2485(3) 0.0606(18) Uani 1 1 d . . . . .
H215 H 0.3526 0.3108 0.2668 0.073 Uiso 1 1 calc R U . . .
C216 C 0.3394(3) 0.4432(5) 0.2502(3) 0.0660(19) Uani 1 1 d . . . . .
H216 H 0.3608 0.4682 0.2704 0.079 Uiso 1 1 calc R U . . .
N221 N 0.16876(14) -0.0384(3) 0.10691(17) 0.0437(10) Uani 1 1 d . . . . .
C222 C 0.1770(2) 0.0486(4) 0.1021(2) 0.0518(14) Uani 1 1 d . . . . .
H222 H 0.1616 0.0808 0.0783 0.062 Uiso 1 1 calc R U . . .
C223 C 0.2063(2) 0.0944(4) 0.1295(2) 0.0510(14) Uani 1 1 d . . . . .
H223 H 0.2111 0.1566 0.1249 0.061 Uiso 1 1 calc R U . . .
C224 C 0.22885(15) 0.0468(4) 0.16407(17) 0.0381(10) Uani 1 1 d . . . . .
C225 C 0.22000(19) -0.0425(4) 0.1698(2) 0.0512(14) Uani 1 1 d . . . . .
H225 H 0.2344 -0.0761 0.1937 0.061 Uiso 1 1 calc R U . . .
C226 C 0.19011(19) -0.0828(4) 0.1406(2) 0.0517(14) Uani 1 1 d . . . . .
H226 H 0.1845 -0.1448 0.1446 0.062 Uiso 1 1 calc R U . . .
C231 C 0.30991(17) 0.0815(4) 0.25455(19) 0.0425(11) Uani 1 1 d . . . . .
N232 N 0.31926(15) 0.1685(3) 0.25180(17) 0.0449(10) Uani 1 1 d . . . . .
C233 C 0.29605(17) 0.2149(4) 0.22004(19) 0.0425(11) Uani 1 1 d . . . . .
N234 N 0.26688(14) 0.1793(3) 0.19006(16) 0.0407(9) Uani 1 1 d . . . . .
C235 C 0.26083(16) 0.0919(4) 0.19566(17) 0.0389(10) Uani 1 1 d . . . . .
N236 N 0.28065(14) 0.0394(3) 0.22766(15) 0.0407(9) Uani 1 1 d . . . . .
C301 C 0.2516(8) 0.305(2) 0.0218(11) 0.117(10) Uani 0.507(5) 1 d . . P A -1
C302 C 0.2239(7) 0.3527(15) -0.0121(8) 0.090(6) Uani 0.507(5) 1 d . . P A -1
H302 H 0.1971 0.3453 -0.0109 0.108 Uiso 0.507(5) 1 calc R U P A -1
C303 C 0.2309(6) 0.4035(15) -0.0438(7) 0.080(5) Uani 0.507(5) 1 d . . P A -1
H303 H 0.2570 0.4052 -0.0488 0.096 Uiso 0.507(5) 1 calc R U P A -1
C304 C 0.1999(7) 0.4615(18) -0.0740(7) 0.090(6) Uani 0.507(5) 1 d . . P A -1
H30A H 0.2046 0.4605 -0.1045 0.108 Uiso 0.507(5) 1 calc R U P A -1
H30B H 0.1734 0.4372 -0.0742 0.108 Uiso 0.507(5) 1 calc R U P A -1
C305 C 0.2030(5) 0.5574(16) -0.0565(6) 0.081(6) Uani 0.507(5) 1 d . . P A -1
C306 C 0.1885(4) 0.5747(12) -0.0150(5) 0.062(4) Uani 0.507(5) 1 d . . P A -1
H306 H 0.1787 0.5199 -0.0017 0.075 Uiso 0.507(5) 1 calc R U P A -1
C307 C 0.2024(8) 0.6459(16) 0.0156(9) 0.097(7) Uani 0.507(5) 1 d . . P A -1
H30C H 0.1806 0.6652 0.0295 0.116 Uiso 0.507(5) 1 calc R U P A -1
H30D H 0.2095 0.6982 -0.0013 0.116 Uiso 0.507(5) 1 calc R U P A -1
C312 C 0.2926(9) 0.304(2) 0.0102(13) 0.140(15) Uani 0.507(5) 1 d . . P A -1
H31A H 0.2917 0.3354 -0.0178 0.210 Uiso 0.507(5) 1 calc R U P A -1
H31B H 0.3009 0.2414 0.0077 0.210 Uiso 0.507(5) 1 calc R U P A -1
H31C H 0.3112 0.3349 0.0333 0.210 Uiso 0.507(5) 1 calc R U P A -1
C311 C 0.2532(7) 0.355(2) 0.0622(9) 0.113(10) Uani 0.507(5) 1 d . . P A -1
H31D H 0.2742 0.3284 0.0847 0.135 Uiso 0.507(5) 1 calc R U P A -1
H31E H 0.2282 0.3452 0.0721 0.135 Uiso 0.507(5) 1 calc R U P A -1
C310 C 0.2609(6) 0.465(2) 0.0608(7) 0.099(7) Uani 0.507(5) 1 d . . P A -1
H310 H 0.2740 0.4837 0.0362 0.118 Uiso 0.507(5) 1 calc R U P A -1
C309 C 0.2391(6) 0.5341(19) 0.0744(6) 0.087(6) Uani 0.507(5) 1 d . . P A -1
C308 C 0.2389(8) 0.623(2) 0.0535(8) 0.098(7) Uani 0.507(5) 1 d . . P A -1
H30E H 0.2630 0.6286 0.0411 0.117 Uiso 0.507(5) 1 calc R U P A -1
H30F H 0.2404 0.6701 0.0766 0.117 Uiso 0.507(5) 1 calc R U P A -1
C313 C 0.2388(11) 0.2119(19) 0.0303(13) 0.130(12) Uani 0.507(5) 1 d . . P A -1
H31F H 0.2450 0.1710 0.0077 0.195 Uiso 0.507(5) 1 calc R U P A -1
H31G H 0.2106 0.2114 0.0293 0.195 Uiso 0.507(5) 1 calc R U P A -1
H31H H 0.2526 0.1918 0.0593 0.195 Uiso 0.507(5) 1 calc R U P A -1
C314 C 0.2039(6) 0.515(2) 0.0951(6) 0.100(8) Uani 0.507(5) 1 d . . P A -1
H31I H 0.2054 0.5522 0.1215 0.151 Uiso 0.507(5) 1 calc R U P A -1
H31J H 0.2038 0.4508 0.1031 0.151 Uiso 0.507(5) 1 calc R U P A -1
H31K H 0.1799 0.5293 0.0740 0.151 Uiso 0.507(5) 1 calc R U P A -1
C315 C 0.2347(6) 0.6162(17) -0.0706(6) 0.088(6) Uani 0.507(5) 1 d . . P A -1
H31L H 0.2