####################################################################### 
# 
# This file contains crystal structure data downloaded from the 
# Cambridge Structural Database (CSD) hosted by the Cambridge 
# Crystallographic Data Centre (CCDC).
# 
# Full information about CCDC data access policies and citation 
# guidelines are available at http://www.ccdc.cam.ac.uk/access/V1 
# 
# Audit and citation data items may have been added by the CCDC. 
# Please retain this information to preserve the provenance of 
# this file and to allow appropriate attribution of the data. 
# 
#######################################################################

data_dialde
_audit_block_doi                 10.5517/cc14bz0g
_database_code_depnum_ccdc_archive 'CCDC 1053225'
loop_
_citation_id
_citation_doi
_citation_year
1 10.1002/anie.201502302 2015
_audit_update_record             
;
2015-03-11 deposited with the CCDC.	2024-07-13 downloaded from the CCDC.
;

_audit_creation_method           SHELXL-2014/7
_shelx_SHELXL_version_number     2014/7
_chemical_name_systematic        ?
_chemical_name_common            ?
_chemical_melting_point          ?
_chemical_formula_moiety         ?
_chemical_formula_sum            'C75 H82 I6 N12 O4 Zn3'
_chemical_formula_weight         2173.03

loop_
_atom_type_symbol
_atom_type_description
_atom_type_scat_dispersion_real
_atom_type_scat_dispersion_imag
_atom_type_scat_source
C C 0.0033 0.0016 'International Tables Vol C Tables 4.2.6.8 and 6.1.1.4'
H H 0.0000 0.0000 'International Tables Vol C Tables 4.2.6.8 and 6.1.1.4'
N N 0.0061 0.0033 'International Tables Vol C Tables 4.2.6.8 and 6.1.1.4'
O O 0.0106 0.0060 'International Tables Vol C Tables 4.2.6.8 and 6.1.1.4'
Zn Zn 0.2839 1.4301 'International Tables Vol C Tables 4.2.6.8 and 6.1.1.4'
I I -0.4742 1.8119 'International Tables Vol C Tables 4.2.6.8 and 6.1.1.4'

_space_group_crystal_system      monoclinic
_space_group_IT_number           15
_space_group_name_H-M_alt        'C 2/c'
_space_group_name_Hall           '-C 2yc'

_shelx_space_group_comment       
;
The symmetry employed for this shelxl refinement is uniquely defined
by the following loop, which should always be used as a source of
symmetry information in preference to the above space-group names.
They are only intended as comments.
;

loop_
_space_group_symop_operation_xyz
'x, y, z'
'-x, y, -z+1/2'
'x+1/2, y+1/2, z'
'-x+1/2, y+1/2, -z+1/2'
'-x, -y, -z'
'x, -y, z-1/2'
'-x+1/2, -y+1/2, -z'
'x+1/2, -y+1/2, z-1/2'

_cell_length_a                   34.307(7)
_cell_length_b                   14.392(3)
_cell_length_c                   34.931(7)
_cell_angle_alpha                90
_cell_angle_beta                 106.22(3)
_cell_angle_gamma                90
_cell_volume                     16560(6)
_cell_formula_units_Z            8
_cell_measurement_temperature    93(2)
_cell_measurement_reflns_used    18890
_cell_measurement_theta_min      3.018
_cell_measurement_theta_max      27.472

_exptl_crystal_description       block
_exptl_crystal_colour            colorless
_exptl_crystal_density_meas      ?
_exptl_crystal_density_method    ?
_exptl_crystal_density_diffrn    1.743
_exptl_crystal_F_000             8448
_exptl_transmission_factor_min   ?
_exptl_transmission_factor_max   ?
_exptl_crystal_size_max          0.310
_exptl_crystal_size_mid          0.120
_exptl_crystal_size_min          0.060
_exptl_absorpt_coefficient_mu    3.152
_shelx_estimated_absorpt_T_min   0.442
_shelx_estimated_absorpt_T_max   0.833
_exptl_absorpt_correction_type   Empirical
_exptl_absorpt_correction_T_min  0.1767
_exptl_absorpt_correction_T_max  1.0000
_exptl_absorpt_process_details   'ABSCOR by Higashi (Dec. 2010)'

_diffrn_ambient_temperature      93(2)
_diffrn_radiation_wavelength     0.71073
_diffrn_radiation_type           MoK\a
_diffrn_source                   X-ray
_diffrn_measurement_device_type  'Rigaku RAXIS-RAPID Imaging Plate'
_diffrn_measurement_method       'omega scan'
_diffrn_detector_area_resol_mean 10.0
_diffrn_reflns_number            165154
_diffrn_reflns_av_unetI/netI     0.0492
_diffrn_reflns_av_R_equivalents  0.0911
_diffrn_reflns_limit_h_min       -42
_diffrn_reflns_limit_h_max       44
_diffrn_reflns_limit_k_min       -18
_diffrn_reflns_limit_k_max       18
_diffrn_reflns_limit_l_min       -45
_diffrn_reflns_limit_l_max       45
_diffrn_reflns_theta_min         3.018
_diffrn_reflns_theta_max         27.472
_diffrn_reflns_theta_full        25.242
_diffrn_measured_fraction_theta_max 0.996
_diffrn_measured_fraction_theta_full 0.998
_diffrn_reflns_Laue_measured_fraction_max 0.996
_diffrn_reflns_Laue_measured_fraction_full 0.998
_diffrn_reflns_point_group_measured_fraction_max 0.996
_diffrn_reflns_point_group_measured_fraction_full 0.998
_reflns_number_total             18890
_reflns_number_gt                14573
_reflns_threshold_expression     'I > 2\s(I)'
_reflns_Friedel_coverage         0.000
_reflns_Friedel_fraction_max     .
_reflns_Friedel_fraction_full    .

_reflns_special_details          
;
 Reflections were merged by SHELXL according to the crystal
 class for the calculation of statistics and refinement.
 
 _reflns_Friedel_fraction is defined as the number of unique
 Friedel pairs measured divided by the number that would be
 possible theoretically, ignoring centric projections and
 systematic absences.
;

_computing_data_collection       'Rigaku RAPID AUTO'
_computing_cell_refinement       'Rigaku RAPID AUTO'
_computing_data_reduction        'Rigaku RAPID AUTO'
_computing_structure_solution    'SHELXT-2014/5 (Sheldrick, 2014)'
_computing_structure_refinement  'SHELXL-2014/7 (Sheldrick, 2014)'
_computing_molecular_graphics    'shelXle (Hubschle et al., 2011)'
_computing_publication_material  'SHELXL-2014/7 (Sheldrick, 2014)'
_refine_special_details          ?
_refine_ls_structure_factor_coef Fsqd
_refine_ls_matrix_type           full
_refine_ls_weighting_scheme      calc
_refine_ls_weighting_details     
'w=1/[\s^2^(Fo^2^)+(0.0951P)^2^+418.4774P] where P=(Fo^2^+2Fc^2^)/3'
_atom_sites_solution_primary     iterative
_atom_sites_solution_secondary   difmap
_atom_sites_solution_hydrogens   geom
_refine_ls_hydrogen_treatment    constr
_refine_ls_extinction_method     none
_refine_ls_extinction_coef       .
_refine_ls_number_reflns         18890
_refine_ls_number_parameters     905
_refine_ls_number_restraints     36
_refine_ls_R_factor_all          0.0908
_refine_ls_R_factor_gt           0.0725
_refine_ls_wR_factor_ref         0.2268
_refine_ls_wR_factor_gt          0.2119
_refine_ls_goodness_of_fit_ref   1.064
_refine_ls_restrained_S_all      1.078
_refine_ls_shift/su_max          0.001
_refine_ls_shift/su_mean         0.000

loop_
_atom_site_label
_atom_site_type_symbol
_atom_site_fract_x
_atom_site_fract_y
_atom_site_fract_z
_atom_site_U_iso_or_equiv
_atom_site_adp_type
_atom_site_occupancy
_atom_site_site_symmetry_order
_atom_site_calc_flag
_atom_site_refinement_flags_posn
_atom_site_refinement_flags_adp
_atom_site_refinement_flags_occupancy
_atom_site_disorder_assembly
_atom_site_disorder_group
Zn1 Zn 0.14103(3) 1.61617(7) 0.07496(3) 0.0388(2) Uani 1 1 d . . . . .
Zn2 Zn 0.16182(3) 0.84280(7) 0.26128(3) 0.0394(2) Uani 1 1 d . . . . .
Zn3 Zn -0.11553(3) 1.08701(7) 0.43744(3) 0.0376(2) Uani 1 1 d . . . . .
I11 I 0.08110(2) 1.71761(5) 0.07318(2) 0.05462(19) Uani 1 1 d . . . . .
I12 I 0.20740(2) 1.67616(5) 0.06510(2) 0.05335(18) Uani 1 1 d . . . . .
I21 I 0.22696(2) 0.75118(5) 0.28872(2) 0.04884(17) Uani 1 1 d . . . . .
I22 I 0.11660(2) 0.81707(5) 0.19128(2) 0.04990(17) Uani 1 1 d . . . . .
I31 I -0.13588(2) 1.07452(5) 0.50127(2) 0.04989(17) Uani 1 1 d . . . . .
I32 I -0.09877(2) 1.23623(5) 0.40662(2) 0.05652(19) Uani 1 1 d . . . . .
N101 N 0.1574(2) 1.5497(5) 0.1298(2) 0.0366(15) Uani 1 1 d . . . . .
C102 C 0.1723(3) 1.5977(6) 0.1636(3) 0.0397(19) Uani 1 1 d . . . . .
H102 H 0.1729 1.6636 0.1626 0.048 Uiso 1 1 calc R U . . .
C103 C 0.1868(3) 1.5539(6) 0.1999(2) 0.0358(17) Uani 1 1 d . . . . .
H103 H 0.1986 1.5897 0.2231 0.043 Uiso 1 1 calc R U . . .
C104 C 0.1844(3) 1.4583(6) 0.2029(3) 0.0366(17) Uani 1 1 d . . . . .
C105 C 0.1674(3) 1.4084(6) 0.1676(3) 0.0403(19) Uani 1 1 d . . . . .
H105 H 0.1650 1.3427 0.1681 0.048 Uiso 1 1 calc R U . . .
C106 C 0.1545(3) 1.4563(6) 0.1327(3) 0.0403(19) Uani 1 1 d . . . . .
H106 H 0.1427 1.4221 0.1090 0.048 Uiso 1 1 calc R U . . .
N111 N 0.1763(2) 0.9837(5) 0.2684(2) 0.0379(15) Uani 1 1 d . . . . .
C112 C 0.2050(3) 1.0178(6) 0.2997(3) 0.0385(18) Uani 1 1 d . . . . .
H112 H 0.2189 0.9757 0.3198 0.046 Uiso 1 1 calc R U . . .
C113 C 0.2155(3) 1.1094(6) 0.3041(2) 0.0369(18) Uani 1 1 d . . . . .
H113 H 0.2358 1.1307 0.3268 0.044 Uiso 1 1 calc R U . . .
C114 C 0.1952(3) 1.1718(6) 0.2738(2) 0.0354(17) Uani 1 1 d . . . . .
C115 C 0.1657(3) 1.1373(6) 0.2416(3) 0.042(2) Uani 1 1 d . . . . .
H115 H 0.1519 1.1779 0.2208 0.051 Uiso 1 1 calc R U . . .
C116 C 0.1563(3) 1.0439(7) 0.2396(3) 0.044(2) Uani 1 1 d . . . . .
H116 H 0.1354 1.0212 0.2176 0.053 Uiso 1 1 calc R U . . .
N121 N 0.3396(2) 1.5230(5) 0.3935(2) 0.0394(16) Uani 1 1 d . . . . .
C122 C 0.3300(3) 1.4324(6) 0.3956(3) 0.042(2) Uani 1 1 d . . . . .
H122 H 0.3446 1.3974 0.4180 0.050 Uiso 1 1 calc R U . . .
C123 C 0.3001(3) 1.3883(6) 0.3666(3) 0.0400(19) Uani 1 1 d . . . . .
H123 H 0.2945 1.3244 0.3694 0.048 Uiso 1 1 calc R U . . .
C124 C 0.2783(3) 1.4372(6) 0.3338(2) 0.0354(17) Uani 1 1 d . . . . .
C125 C 0.2876(3) 1.5312(7) 0.3308(3) 0.047(2) Uani 1 1 d . . . . .
H125 H 0.2737 1.5670 0.3083 0.057 Uiso 1 1 calc R U . . .
C126 C 0.3179(3) 1.5707(7) 0.3618(3) 0.045(2) Uani 1 1 d . . . . .
H126 H 0.3235 1.6350 0.3603 0.054 Uiso 1 1 calc R U . . .
C131 C 0.2011(3) 1.4070(6) 0.2403(2) 0.0343(17) Uani 1 1 d . . . . .
N132 N 0.1880(2) 1.3200(5) 0.2423(2) 0.0385(16) Uani 1 1 d . . . . .
C133 C 0.2071(3) 1.2729(6) 0.2742(3) 0.0377(18) Uani 1 1 d . . . . .
N134 N 0.2365(2) 1.3039(5) 0.3055(2) 0.0367(15) Uani 1 1 d . . . . .
C135 C 0.2462(3) 1.3944(6) 0.3011(2) 0.0357(17) Uani 1 1 d . . . . .
N136 N 0.2300(2) 1.4482(5) 0.2690(2) 0.0355(15) Uani 1 1 d . . . . .
N201 N 0.1319(2) 0.8242(5) 0.3041(2) 0.0386(16) Uani 1 1 d . . . . .
C202 C 0.1099(3) 0.8923(6) 0.3138(3) 0.043(2) Uani 1 1 d . . . . .
H202 H 0.1065 0.9484 0.2989 0.052 Uiso 1 1 calc R U . . .
C203 C 0.0917(3) 0.8852(6) 0.3445(3) 0.0395(19) Uani 1 1 d . . . . .
H203 H 0.0767 0.9356 0.3509 0.047 Uiso 1 1 calc R U . . .
C204 C 0.0958(3) 0.8036(6) 0.3654(3) 0.0382(18) Uani 1 1 d . . . . .
C205 C 0.1171(3) 0.7300(7) 0.3546(3) 0.048(2) Uani 1 1 d . . . . .
H205 H 0.1198 0.6722 0.3682 0.057 Uiso 1 1 calc R U . . .
C206 C 0.1339(4) 0.7437(7) 0.3235(3) 0.050(2) Uani 1 1 d . . . . .
H206 H 0.1477 0.6933 0.3155 0.060 Uiso 1 1 calc R U . . .
N211 N -0.0669(2) 1.0029(5) 0.4381(2) 0.0378(15) Uani 1 1 d . . . . .
C212 C -0.0473(3) 0.9513(7) 0.4693(3) 0.0396(18) Uani 1 1 d . . . . .
H212 H -0.0562 0.9529 0.4927 0.047 Uiso 1 1 calc R U . . .
C213 C -0.0144(3) 0.8954(6) 0.4689(2) 0.0366(18) Uani 1 1 d . . . . .
H213 H -0.0012 0.8591 0.4915 0.044 Uiso 1 1 calc R U . . .
C214 C -0.0014(3) 0.8935(6) 0.4355(2) 0.0343(17) Uani 1 1 d . . . . .
C215 C -0.0217(3) 0.9475(7) 0.4023(3) 0.045(2) Uani 1 1 d . . . . .
H215 H -0.0134 0.9472 0.3785 0.054 Uiso 1 1 calc R U . . .
C216 C -0.0537(3) 1.0001(7) 0.4056(3) 0.047(2) Uani 1 1 d . . . . .
H216 H -0.0673 1.0372 0.3835 0.057 Uiso 1 1 calc R U . . .
N221 N 0.1205(2) 0.4926(5) 0.5360(2) 0.0390(16) Uani 1 1 d . . . . .
C222 C 0.0832(3) 0.5256(7) 0.5306(3) 0.043(2) Uani 1 1 d . . . . .
H222 H 0.0661 0.4968 0.5444 0.052 Uiso 1 1 calc R U . . .
C223 C 0.0680(3) 0.6009(7) 0.5056(3) 0.043(2) Uani 1 1 d . . . . .
H223 H 0.0417 0.6250 0.5036 0.052 Uiso 1 1 calc R U . . .
C224 C 0.0915(3) 0.6391(6) 0.4840(2) 0.0378(18) Uani 1 1 d . . . . .
C225 C 0.1315(3) 0.6041(7) 0.4892(3) 0.042(2) Uani 1 1 d . . . . .
H225 H 0.1487 0.6299 0.4749 0.051 Uiso 1 1 calc R U . . .
C226 C 0.1448(3) 0.5313(7) 0.5158(3) 0.044(2) Uani 1 1 d . . . . .
H226 H 0.1715 0.5082 0.5199 0.053 Uiso 1 1 calc R U . . .
C231 C 0.0788(3) 0.7917(6) 0.4000(3) 0.0374(18) Uani 1 1 d . . . . .
N232 N 0.0490(2) 0.8496(5) 0.4020(2) 0.0385(16) Uani 1 1 d . . . . .
C233 C 0.0335(3) 0.8331(6) 0.4324(3) 0.0378(18) Uani 1 1 d . . . . .
N234 N 0.0454(2) 0.7658(5) 0.4597(2) 0.0373(15) Uani 1 1 d . . . . .
C235 C 0.0762(3) 0.7158(6) 0.4547(2) 0.0349(17) Uani 1 1 d . . . . .
N236 N 0.0940(2) 0.7249(5) 0.4258(2) 0.0382(15) Uani 1 1 d . . . . .
C301 C 0.1787(4) 1.4193(8) 0.4170(3) 0.055(3) Uani 1 1 d . . . . .
C302 C 0.1947(4) 1.3510(8) 0.3894(4) 0.057(3) Uani 1 1 d . . . . .
H30A H 0.2121 1.3863 0.3763 0.068 Uiso 1 1 calc R U . . .
H30B H 0.2118 1.3028 0.4063 0.068 Uiso 1 1 calc R U . . .
C303 C 0.1619(3) 1.3040(7) 0.3580(3) 0.049(2) Uani 1 1 d . . . . .
H303 H 0.1460 1.3432 0.3377 0.058 Uiso 1 1 calc R U . . .
C304 C 0.1520(3) 1.2135(7) 0.3547(3) 0.044(2) Uani 1 1 d . . . . .
C305 C 0.1720(4) 1.1359(8) 0.3811(3) 0.053(2) Uani 1 1 d . . . . .
H30C H 0.2018 1.1432 0.3869 0.063 Uiso 1 1 calc R U . . .
H30D H 0.1645 1.0767 0.3665 0.063 Uiso 1 1 calc R U . . .
C306 C 0.1612(3) 1.1288(8) 0.4210(3) 0.052(2) Uani 1 1 d . . . . .
H30E H 0.1762 1.0757 0.4363 0.062 Uiso 1 1 calc R U . . .
H30F H 0.1707 1.1859 0.4366 0.062 Uiso 1 1 calc R U . . .
C307 C 0.1177(4) 1.1167(8) 0.4171(3) 0.055(3) Uani 1 1 d . . . . .
H307 H 0.1045 1.0664 0.4010 0.066 Uiso 1 1 calc R U . . .
C308 C 0.0945(3) 1.1689(8) 0.4339(3) 0.052(2) Uani 1 1 d . . . . .
C309 C 0.1075(4) 1.2559(8) 0.4587(3) 0.056(3) Uani 1 1 d . . . . .
H30G H 0.0843 1.2799 0.4675 0.067 Uiso 1 1 calc R U . . .
H30H H 0.1297 1.2405 0.4828 0.067 Uiso 1 1 calc R U . . .
C310 C 0.1216(3) 1.3297(8) 0.4351(3) 0.053(2) Uani 1 1 d . . . . .
H310 H 0.1020 1.3572 0.4133 0.064 Uiso 1 1 calc R U . . .
C311 C 0.1594(4) 1.3582(8) 0.4428(3) 0.055(3) Uani 1 1 d . . . . .
H311 H 0.1771 1.3385 0.4676 0.066 Uiso 1 1 calc R U . . .
C312 C 0.2165(4) 1.4692(10) 0.4457(4) 0.070(3) Uani 1 1 d . . . . .
H31A H 0.2311 1.5040 0.4299 0.105 Uiso 1 1 calc R U . . .
H31B H 0.2346 1.4226 0.4619 0.105 Uiso 1 1 calc R U . . .
H31C H 0.2072 1.5120 0.4632 0.105 Uiso 1 1 calc R U . . .
C313 C 0.1484(5) 1.4887(8) 0.3916(4) 0.075(4) Uani 1 1 d . . . . .
H31D H 0.1617 1.5245 0.3749 0.112 Uiso 1 1 calc R U . . .
H31E H 0.1390 1.5310 0.4091 0.112 Uiso 1 1 calc R U . . .
H31F H 0.1252 1.4549 0.3746 0.112 Uiso 1 1 calc R U . . .
C314 C 0.1196(3) 1.1890(8) 0.3193(3) 0.051(2) Uani 1 1 d . . . . .
H314 H 0.1074 1.2390 0.3025 0.062 Uiso 1 1 calc R U . . .
O315 O 0.1067(3) 1.1131(6) 0.3088(3) 0.061(2) Uani 1 1 d . . . . .
C316 C 0.0521(4) 1.1326(9) 0.4283(3) 0.059(3) Uani 1 1 d . . . . .
H316 H 0.0438 1.0793 0.4120 0.071 Uiso 1 1 calc R U . . .
O317 O 0.0282(3) 1.1677(7) 0.4434(3) 0.071(2) Uani 1 1 d . . . . .
C401 C -0.0035(3) 1.4738(8) 0.3853(3) 0.053(2) Uani 1 1 d . . . . .
C402 C -0.0501(3) 1.4803(8) 0.3711(3) 0.049(2) Uani 1 1 d . . . . .
H40A H -0.0612 1.4174 0.3726 0.059 Uiso 1 1 calc R U . . .
H40B H -0.0591 1.5201 0.3901 0.059 Uiso 1 1 calc R U . . .
C403 C -0.0685(3) 1.5176(7) 0.3298(3) 0.048(2) Uani 1 1 d . . . . .
H403 H -0.0696 1.5834 0.3276 0.057 Uiso 1 1 calc R U . . .
C404 C -0.0837(3) 1.4707(7) 0.2956(3) 0.048(2) Uani 1 1 d . . . . .
C405 C -0.0830(3) 1.3662(7) 0.2912(3) 0.049(2) Uani 1 1 d . . . . .
H40C H -0.1102 1.3444 0.2757 0.059 Uiso 1 1 calc R U . . .
H40D H -0.0765 1.3369 0.3179 0.059 Uiso 1 1 calc R U . . .
C406 C -0.0514(4) 1.3364(7) 0.2699(3) 0.051(2) Uani 1 1 d . . . . .
H40E H -0.0617 1.3497 0.2411 0.062 Uiso 1 1 calc R U . . .
H40F H -0.0260 1.3719 0.2807 0.062 Uiso 1 1 calc R U . . .
C407 C -0.0431(4) 1.2327(9) 0.2765(3) 0.058(3) Uani 1 1 d . . . . .
H407 H -0.0623 1.1910 0.2605 0.069 Uiso 1 1 calc R U . . .
C408 C -0.0111(3) 1.1960(8) 0.3027(3) 0.052(2) Uani 1 1 d . . . . .
C409 C 0.0224(4) 1.2513(8) 0.3304(3) 0.053(2) Uani 1 1 d . . . . .
H40G H 0.0430 1.2074 0.3460 0.064 Uiso 1 1 calc R U . . .
H40H H 0.0356 1.2897 0.3141 0.064 Uiso 1 1 calc R U . . .
C410 C 0.0092(3) 1.3138(8) 0.3590(3) 0.048(2) Uani 1 1 d . . . . .
H410 H -0.0020 1.2863 0.3783 0.058 Uiso 1 1 calc R U . . .
C411 C 0.0124(3) 1.4057(8) 0.3584(3) 0.049(2) Uani 1 1 d . . . . .
H411 H 0.0254 1.4319 0.3402 0.059 Uiso 1 1 calc R U . . .
C412 C 0.0088(4) 1.4362(9) 0.4289(3) 0.061(3) Uani 1 1 d . . . . .
H41A H -0.0040 1.3756 0.4296 0.091 Uiso 1 1 calc R U . . .
H41B H -0.0003 1.4798 0.4461 0.091 Uiso 1 1 calc R U . . .
H41C H 0.0383 1.4296 0.4383 0.091 Uiso 1 1 calc R U . . .
C413 C 0.0161(4) 1.5682(9) 0.3833(4) 0.068(3) Uani 1 1 d . . . . .
H41D H 0.0445 1.5666 0.3995 0.102 Uiso 1 1 calc R U . . .
H41E H 0.0015 1.6162 0.3936 0.102 Uiso 1 1 calc R U . . .
H41F H 0.0150 1.5822 0.3556 0.102 Uiso 1 1 calc R U . . .
C414 C -0.1033(3) 1.5251(9) 0.2601(3) 0.056(3) Uani 1 1 d . . . . .
H414 H -0.1026 1.5909 0.2621 0.067 Uiso 1 1 calc R U . . .
O415 O -0.1209(3) 1.4895(7) 0.2277(3) 0.073(2) Uani 1 1 d . . . . .
C416 C -0.0099(4) 1.0939(9) 0.3055(4) 0.062(3) Uani 1 1 d . . . . .
H416 H -0.0309 1.0601 0.2873 0.075 Uiso 1 1 calc R U . . .
O417 O 0.0161(3) 1.0496(6) 0.3294(2) 0.068(2) Uani 1 1 d . . . . .
C501 C 0.2745(8) 1.7684(15) 0.4151(9) 0.197(13) Uani 1 1 d D U . . .
H50A H 0.3036 1.7538 0.4193 0.236 Uiso 1 1 calc R U . . .
H50B H 0.2585 1.7333 0.3915 0.236 Uiso 1 1 calc R U . . .
C502 C 0.2673(5) 1.8738(11) 0.4082(5) 0.086(4) Uani 1 1 d D . . . .
H50C H 0.2935 1.9069 0.4176 0.103 Uiso 1 1 calc R U . . .
H50D H 0.2562 1.8859 0.3793 0.103 Uiso 1 1 calc R U . . .
C503 C 0.2377(7) 1.9122(15) 0.4302(11) 0.23(2) Uani 1 1 d D . . . .
H50E H 0.2511 1.9144 0.4592 0.273 Uiso 1 1 calc R U . . .
H50F H 0.2293 1.9760 0.4209 0.273 Uiso 1 1 calc R U . . .
C504 C 0.2015(5) 1.8497(15) 0.4217(10) 0.164(13) Uani 1 1 d D . . . .
H50G H 0.1893 1.8440 0.3926 0.197 Uiso 1 1 calc R U . . .
H50H H 0.1808 1.8758 0.4336 0.197 Uiso 1 1 calc R U . . .
C505 C 0.2152(6) 1.7538(18) 0.43