####################################################################### 
# 
# This file contains crystal structure data downloaded from the 
# Cambridge Structural Database (CSD) hosted by the Cambridge 
# Crystallographic Data Centre (CCDC).
# 
# Full information about CCDC data access policies and citation 
# guidelines are available at http://www.ccdc.cam.ac.uk/access/V1 
# 
# Audit and citation data items may have been added by the CCDC. 
# Please retain this information to preserve the provenance of 
# this file and to allow appropriate attribution of the data. 
# 
#######################################################################

data_1
_audit_block_doi                 10.5517/cc13sqh3
_database_code_depnum_ccdc_archive 'CCDC 1036655'
loop_
_citation_id
_citation_doi
_citation_year
1 10.1039/C5CE00931F 2015
_audit_update_record             
;
2015-06-17 deposited with the CCDC.	2024-07-13 downloaded from the CCDC.
;
_audit_creation_date             2015-03-21
_audit_creation_method           
;
Olex2 1.2
(compiled 2014.03.20 svn.r2914 for OlexSys, GUI svn.r4816)
;
_shelxl_version_number           2014-3
_chemical_name_common            ?
_chemical_name_systematic        
;
 ?
;
_chemical_formula_moiety         'C12 H4 O10 Zn1.5, C3 H7 N O, C2 H8 N'
_chemical_formula_sum            'C17 H19 N2 O11 Zn1.50'
_chemical_formula_weight         525.40
_chemical_melting_point          ?
_chemical_oxdiff_formula         C12ZN1
_chemical_oxdiff_usercomment     2010120138
loop_
_atom_type_symbol
_atom_type_description
_atom_type_scat_dispersion_real
_atom_type_scat_dispersion_imag
_atom_type_scat_source
C C 0.0033 0.0016 'International Tables Vol C Tables 4.2.6.8 and 6.1.1.4'
H H 0.0000 0.0000 'International Tables Vol C Tables 4.2.6.8 and 6.1.1.4'
N N 0.0061 0.0033 'International Tables Vol C Tables 4.2.6.8 and 6.1.1.4'
O O 0.0106 0.0060 'International Tables Vol C Tables 4.2.6.8 and 6.1.1.4'
Zn Zn 0.2839 1.4301 'International Tables Vol C Tables 4.2.6.8 and 6.1.1.4'

_shelx_space_group_comment       
;
The symmetry employed for this shelxl refinement is uniquely defined
by the following loop, which should always be used as a source of
symmetry information in preference to the above space-group names.
They are only intended as comments.
;
_space_group_crystal_system      monoclinic
_space_group_IT_number           14
_space_group_name_H-M_alt        'P 1 21/c 1'
_space_group_name_Hall           '-P 2ybc'
loop_
_space_group_symop_operation_xyz
'x, y, z'
'-x, y+1/2, -z+1/2'
'-x, -y, -z'
'x, -y-1/2, z-1/2'

_cell_length_a                   9.3468(12)
_cell_length_b                   15.2267(8)
_cell_length_c                   17.6517(8)
_cell_angle_alpha                90
_cell_angle_beta                 95.599(8)
_cell_angle_gamma                90
_cell_volume                     2500.2(4)
_cell_formula_units_Z            4
_cell_measurement_reflns_used    4154
_cell_measurement_temperature    120.0
_cell_measurement_theta_max      29.2245
_cell_measurement_theta_min      2.3815
_shelx_estimated_absorpt_T_max   0.753
_shelx_estimated_absorpt_T_min   0.753
_exptl_absorpt_coefficient_mu    1.503
_exptl_absorpt_correction_T_max  1.00000
_exptl_absorpt_correction_T_min  0.62946
_exptl_absorpt_correction_type   multi-scan
_exptl_absorpt_process_details   
;
CrysAlisPro, Oxford Diffraction Ltd.,
Version 1.171.34.44 (release 25-10-2010 CrysAlis171 .NET)
(compiled Oct 25 2010,18:11:34)
Empirical absorption correction using spherical harmonics,
 implemented in SCALE3 ABSPACK scaling algorithm.
;
_exptl_crystal_colour            colourless
_exptl_crystal_colour_primary    colourless
_exptl_crystal_density_diffrn    1.396
_exptl_crystal_density_meas      ?
_exptl_crystal_density_method    ?
_exptl_crystal_description       block
_exptl_crystal_F_000             1072
_exptl_crystal_size_max          0.2
_exptl_crystal_size_mid          0.2
_exptl_crystal_size_min          0.2
_exptl_special_details           
;
 ?
;
_exptl_transmission_factor_max   ?
_exptl_transmission_factor_min   ?
_diffrn_reflns_av_R_equivalents  0.0364
_diffrn_reflns_av_unetI/netI     0.0617
_diffrn_reflns_Laue_measured_fraction_full 0.996
_diffrn_reflns_Laue_measured_fraction_max 0.996
_diffrn_reflns_limit_h_max       11
_diffrn_reflns_limit_h_min       -4
_diffrn_reflns_limit_k_max       18
_diffrn_reflns_limit_k_min       -12
_diffrn_reflns_limit_l_max       21
_diffrn_reflns_limit_l_min       -21
_diffrn_reflns_number            10286
_diffrn_reflns_point_group_measured_fraction_full 0.996
_diffrn_reflns_point_group_measured_fraction_max 0.996
_diffrn_reflns_theta_full        26.000
_diffrn_reflns_theta_max         25.999
_diffrn_reflns_theta_min         2.566
_diffrn_ambient_temperature      120.0
_diffrn_detector_area_resol_mean 16.2116
_diffrn_measured_fraction_theta_full 0.996
_diffrn_measured_fraction_theta_max 0.996
_diffrn_measurement_device_type  'SuperNova, Single source at offset), Eos'
_diffrn_measurement_method       '\w scans'
_diffrn_orient_matrix_UB_11      -0.0538116000
_diffrn_orient_matrix_UB_12      -0.0301480000
_diffrn_orient_matrix_UB_13      -0.0145539000
_diffrn_orient_matrix_UB_21      0.0463655000
_diffrn_orient_matrix_UB_22      -0.0355718000
_diffrn_orient_matrix_UB_23      0.0114783000
_diffrn_orient_matrix_UB_31      -0.0282249000
_diffrn_orient_matrix_UB_32      -0.0008232000
_diffrn_orient_matrix_UB_33      0.0359475000
_diffrn_radiation_monochromator  mirror
_diffrn_radiation_type           MoK\a
_diffrn_radiation_wavelength     0.71073
_diffrn_source                   'SuperNova (Mo) X-ray Source'
_reflns_Friedel_coverage         0.000
_reflns_Friedel_fraction_full    .
_reflns_Friedel_fraction_max     .
_reflns_number_gt                3814
_reflns_number_total             4903
_reflns_odcompleteness_completeness 99.91
_reflns_odcompleteness_iscentric 1
_reflns_odcompleteness_theta     26.32
_reflns_special_details          
;
 Reflections were merged by SHELXL according to the crystal
 class for the calculation of statistics and refinement.
 
 _reflns_Friedel_fraction is defined as the number of unique
 Friedel pairs measured divided by the number that would be
 possible theoretically, ignoring centric projections and
 systematic absences.
;
_reflns_threshold_expression     'I > 2\s(I)'
_computing_cell_refinement       
;
CrysAlisPro, Oxford Diffraction Ltd.,
Version 1.171.34.44 (release 25-10-2010 CrysAlis171 .NET)
(compiled Oct 25 2010,18:11:34)
;
_computing_data_collection       
;
CrysAlisPro, Oxford Diffraction Ltd.,
Version 1.171.34.44 (release 25-10-2010 CrysAlis171 .NET)
(compiled Oct 25 2010,18:11:34)
;
_computing_data_reduction        
;
CrysAlisPro, Oxford Diffraction Ltd.,
Version 1.171.34.44 (release 25-10-2010 CrysAlis171 .NET)
(compiled Oct 25 2010,18:11:34)
;
_computing_molecular_graphics    'Olex2 (Dolomanov et al., 2009)'
_computing_publication_material  'Olex2 (Dolomanov et al., 2009)'
_computing_structure_refinement  'ShelXL (Sheldrick, 2008)'
_computing_structure_solution    'ShelXS (Sheldrick, 2008)'
_refine_diff_density_max         0.890
_refine_diff_density_min         -2.328
_refine_diff_density_rms         0.177
_refine_ls_extinction_coef       .
_refine_ls_extinction_method     none
_refine_ls_goodness_of_fit_ref   1.077
_refine_ls_hydrogen_treatment    constr
_refine_ls_matrix_type           full
_refine_ls_number_parameters     367
_refine_ls_number_reflns         4903
_refine_ls_number_restraints     288
_refine_ls_R_factor_all          0.1040
_refine_ls_R_factor_gt           0.0832
_refine_ls_restrained_S_all      1.071
_refine_ls_shift/su_max          0.001
_refine_ls_shift/su_mean         0.000
_refine_ls_structure_factor_coef Fsqd
_refine_ls_weighting_details     
'w=1/[\s^2^(Fo^2^)+(0.1295P)^2^+12.4322P] where P=(Fo^2^+2Fc^2^)/3'
_refine_ls_weighting_scheme      calc
_refine_ls_wR_factor_gt          0.2254
_refine_ls_wR_factor_ref         0.2447
_refine_special_details          
;
 ?
;
_olex2_refinement_description    
;
1. Fixed Uiso
 At 1.2 times of:
  All C(H) groups, All N(H,H) groups
 At 1.5 times of:
  All C(H,H,H) groups
2. Uiso/Uaniso restraints and constraints
O12 \\sim C17 \\sim N2 \\sim C18 \\sim C16 \\sim N1 \\sim C14 \\sim O11 \\sim
C13 \\sim C15 \\sim C20' \\sim C19 \\sim N3' \\sim N3 \\sim C20 \\sim C19':
within 2A with sigma of 0.01 and sigma for terminal atoms of 0.02
Uanis(O12) \\sim Ueq, Uanis(C17) \\sim Ueq, Uanis(N2) \\sim Ueq, Uanis(C18)
\\sim Ueq, Uanis(C16) \\sim Ueq, Uanis(N1) \\sim Ueq, Uanis(C14) \\sim Ueq,
Uanis(O11) \\sim Ueq, Uanis(C13) \\sim Ueq, Uanis(C15) \\sim Ueq, Uanis(C20')
\\sim Ueq, Uanis(C19) \\sim Ueq, Uanis(N3') \\sim Ueq, Uanis(N3) \\sim Ueq,
Uanis(C20) \\sim Ueq, Uanis(C19') \\sim Ueq: with sigma of 0.01 and sigma for
terminal atoms of 0.02
Uanis(C3) \\sim Ueq, Uanis(C4) \\sim Ueq, Uanis(C1) \\sim Ueq, Uanis(C2) \\sim
Ueq, Uanis(O2) \\sim Ueq, Uanis(C6) \\sim Ueq, Uanis(C5) \\sim Ueq, Uanis(O6)
\\sim Ueq, Uanis(C8) \\sim Ueq, Uanis(C11) \\sim Ueq, Uanis(C12) \\sim Ueq,
Uanis(O10) \\sim Ueq, Uanis(O8) \\sim Ueq: with sigma of 0.01 and sigma for
terminal atoms of 0.02
3. Others
 Sof(N3')=Sof(H3'A)=Sof(H3'B)=Sof(C19')=Sof(H19D)=Sof(H19E)=Sof(H19F)=
 Sof(C20')=Sof(H20D)=Sof(H20E)=Sof(H20F)=1-FVAR(1)
 Sof(N3)=Sof(H3A)=Sof(H3B)=Sof(C19)=Sof(H19A)=Sof(H19B)=Sof(H19C)=Sof(C20)=
 Sof(H20A)=Sof(H20B)=Sof(H20C)=FVAR(1)
 Fixed Sof: O11(0.5) N1(0.5) C13(0.5) H13(0.5) C14(0.5) H14A(0.5) H14B(0.5)
 H14C(0.5) C15(0.5) H15A(0.5) H15B(0.5) H15C(0.5) O12(0.5) N2(0.5) C16(0.5)
 H16(0.5) C17(0.5) H17A(0.5) H17B(0.5) H17C(0.5) C18(0.5) H18A(0.5) H18B(0.5)
 H18C(0.5)
4.a Secondary CH2 refined with riding coordinates:
 N3(H3A,H3B), N3'(H3'A,H3'B)
4.b Aromatic/amide H refined with riding coordinates:
 C3(H3), C4(H4), C9(H9), C10(H10), C13(H13), C16(H16)
4.c Idealised Me refined as rotating group:
 C14(H14A,H14B,H14C), C15(H15A,H15B,H15C), C17(H17A,H17B,H17C), C18(H18A,H18B,
 H18C), C19(H19A,H19B,H19C), C20(H20A,H20B,H20C), C19'(H19D,H19E,H19F),
 C20'(H20D,H20E,H20F)
;
_atom_sites_solution_hydrogens   geom
_atom_sites_solution_primary     direct
_atom_sites_solution_secondary   ?
loop_
_atom_site_label
_atom_site_type_symbol
_atom_site_fract_x
_atom_site_fract_y
_atom_site_fract_z
_atom_site_U_iso_or_equiv
_atom_site_adp_type
_atom_site_occupancy
_atom_site_site_symmetry_order
_atom_site_calc_flag
_atom_site_refinement_flags_posn
_atom_site_refinement_flags_adp
_atom_site_refinement_flags_occupancy
_atom_site_disorder_assembly
_atom_site_disorder_group
Zn1 Zn -0.07258(8) 0.60963(5) 0.33770(4) 0.0221(3) Uani 1 1 d . . . . .
Zn2 Zn 0.0000 0.5000 0.5000 0.0403(4) Uani 1 2 d S T P . .
O1 O 0.7332(5) 0.5694(3) 0.3588(3) 0.0334(11) Uani 1 1 d . . . . .
O2 O 0.8032(5) 0.4622(4) 0.4418(4) 0.0576(17) Uani 1 1 d . U . . .
O3 O 0.4547(4) 0.5377(3) 0.3752(2) 0.0284(10) Uani 1 1 d . . . . .
O4 O 0.2034(6) 0.6203(4) 0.3270(3) 0.0494(15) Uani 1 1 d . . . . .
O5 O 0.0749(5) 0.5236(3) 0.3835(3) 0.0299(11) Uani 1 1 d . . . . .
O6 O -0.0584(6) 0.7192(3) 0.3983(3) 0.0367(12) Uani 1 1 d . U . . .
O7 O -0.0543(5) 0.6435(3) 0.5084(3) 0.0294(10) Uani 1 1 d . . . . .
O8 O -0.0839(5) 0.7988(3) 0.5854(2) 0.0307(11) Uani 1 1 d . U . . .
O9 O -0.1198(8) 0.9843(4) 0.7057(4) 0.0623(18) Uani 1 1 d . . . . .
O10 O -0.0899(5) 0.8434(4) 0.7332(3) 0.0414(13) Uani 1 1 d . U . . .
C1 C 0.7106(7) 0.5049(5) 0.4004(4) 0.0358(16) Uani 1 1 d . U . . .
C2 C 0.5586(7) 0.4797(5) 0.4036(4) 0.0339(16) Uani 1 1 d . U . . .
C3 C 0.4965(8) 0.4069(5) 0.4326(5) 0.0418(19) Uani 1 1 d . U . . .
H3 H 0.5438 0.3578 0.4542 0.050 Uiso 1 1 calc R . . . .
C4 C 0.3451(7) 0.4214(5) 0.4229(4) 0.0362(17) Uani 1 1 d . U . . .
H4 H 0.2741 0.3837 0.4371 0.043 Uiso 1 1 calc R . . . .
C5 C 0.3248(7) 0.5005(5) 0.3890(4) 0.0308(15) Uani 1 1 d . U . . .
C6 C 0.1959(7) 0.5543(5) 0.3647(4) 0.0302(15) Uani 1 1 d . U . . .
C7 C -0.0618(7) 0.7118(5) 0.4708(4) 0.0300(15) Uani 1 1 d . . . . .
C8 C -0.0840(8) 0.7986(5) 0.5079(4) 0.0342(16) Uani 1 1 d . U . . .
C9 C -0.1076(13) 0.8800(5) 0.4800(5) 0.057(3) Uani 1 1 d . . . . .
H9 H -0.1136 0.8965 0.4290 0.068 Uiso 1 1 calc R . . . .
C10 C -0.1215(12) 0.9355(6) 0.5426(5) 0.056(2) Uani 1 1 d . . . . .
H10 H -0.1374 0.9958 0.5408 0.067 Uiso 1 1 calc R . . . .
C11 C -0.1078(8) 0.8860(5) 0.6044(4) 0.0365(17) Uani 1 1 d . U . . .
C12 C -0.1047(8) 0.9074(5) 0.6869(4) 0.0373(17) Uani 1 1 d . U . . .
O11 O 0.239(2) 0.8595(14) 0.4044(13) 0.111(6) Uani 0.5 1 d . U . . .
N1 N 0.451(2) 0.8085(14) 0.4447(13) 0.083(4) Uani 0.5 1 d . U . . .
C13 C 0.329(3) 0.8100(18) 0.4079(16) 0.086(5) Uani 0.5 1 d . U . . .
H13 H 0.3087 0.7606 0.3777 0.103 Uiso 0.5 1 calc R . . . .
C14 C 0.543(3) 0.7544(12) 0.4077(13) 0.072(5) Uani 0.5 1 d . U . . .
H14A H 0.5464 0.7746 0.3564 0.107 Uiso 0.5 1 calc GR . . . .
H14B H 0.5071 0.6952 0.4071 0.107 Uiso 0.5 1 calc GR . . . .
H14C H 0.6372 0.7562 0.4342 0.107 Uiso 0.5 1 calc GR . . . .
C15 C 0.500(3) 0.8909(18) 0.4878(16) 0.091(7) Uani 0.5 1 d . U . . .
H15A H 0.5212 0.9357 0.4523 0.136 Uiso 0.5 1 calc GR . . . .
H15B H 0.5840 0.8783 0.5215 0.136 Uiso 0.5 1 calc GR . . . .
H15C H 0.4244 0.9110 0.5168 0.136 Uiso 0.5 1 calc GR . . . .
O12 O 0.431(2) 1.0800(14) 0.6997(11) 0.103(5) Uani 0.5 1 d . U . . .
N2 N 0.4208(19) 0.9166(14) 0.6836(10) 0.072(4) Uani 0.5 1 d . U . . .
C16 C 0.491(3) 1.0046(17) 0.7042(14) 0.079(5) Uani 0.5 1 d . U . . .
H16 H 0.5884 1.0035 0.7217 0.095 Uiso 0.5 1 calc R . . . .
C17 C 0.2780(19) 0.9108(17) 0.6459(12) 0.071(5) Uani 0.5 1 d . U . . .
H17A H 0.2234 0.8689 0.6717 0.106 Uiso 0.5 1 calc GR . . . .
H17B H 0.2825 0.8925 0.5942 0.106 Uiso 0.5 1 calc GR . . . .
H17C H 0.2324 0.9673 0.6466 0.106 Uiso 0.5 1 calc GR . . . .
C18 C 0.496(2) 0.8451(14) 0.7056(11) 0.059(4) Uani 0.5 1 d . U . . .
H18A H 0.5201 0.8134 0.6616 0.088 Uiso 0.5 1 calc GR . . . .
H18B H 0.4394 0.8083 0.7353 0.088 Uiso 0.5 1 calc GR . . . .
H18C H 0.5824 0.8622 0.7358 0.088 Uiso 0.5 1 calc GR . . . .
N3 N 0.0528(19) 0.8278(12) 0.2674(10) 0.064(4) Uani 0.481(14) 1 d . U . A 1
H3A H 0.0857 0.8611 0.3067 0.077 Uiso 0.481(14) 1 calc R . . A 1
H3B H 0.0572 0.7717 0.2816 0.077 Uiso 0.481(14) 1 calc R . . A 1
C19 C 0.140(4) 0.8434(19) 0.1985(16) 0.066(5) Uani 0.481(14) 1 d . U . A 1
H19A H 0.2406 0.8436 0.2153 0.100 Uiso 0.481(14) 1 calc GR . . A 1
H19B H 0.1132 0.8990 0.1756 0.100 Uiso 0.481(14) 1 calc GR . . A 1
H19C H 0.1195 0.7974 0.1618 0.100 Uiso 0.481(14) 1 calc GR . . A 1
C20 C -0.104(4) 0.854(3) 0.238(2) 0.063(6) Uani 0.481(14) 1 d . U . A 1
H20A H -0.1599 0.8616 0.2799 0.094 Uiso 0.481(14) 1 calc GR . . A 1
H20B H -0.1459 0.8089 0.2047 0.094 Uiso 0.481(14) 1 calc GR . . A 1
H20C H -0.1025 0.9083 0.2098 0.094 Uiso 0.481(14) 1 calc GR . . A 1
N3' N 0.0118(18) 0.8520(11) 0.1858(9) 0.062(3) Uani 0.519(14) 1 d . U . A 2
H3'A H -0.0307 0.8150 0.1516 0.074 Uiso 0.519(14) 1 calc R . . A 2
H3'B H 0.0236 0.9033 0.1631 0.074 Uiso 0.519(14) 1 calc R . . A 2
C19' C 0.155(3) 0.8159(17) 0.2177(16) 0.067(5) Uani 0.519(14) 1 d . U . A 2
H19D H 0.1409 0.7614 0.2433 0.100 Uiso 0.519(14) 1 calc GR . . A 2
H19E H 0.2014 0.8571 0.2531 0.100 Uiso 0.519(14) 1 calc GR . . A 2
H19F H 0.2142 0.8061 0.1770 0.100 Uiso 0.519(14) 1 calc GR . . A 2
C20' C -0.085(4) 0.864(3) 0.2550(18) 0.063(6) Uani 0.519(14) 1 d . U . A 2
H20D H -0.0397 0.9058 0.2906 0.094 Uiso 0.519(14) 1 calc GR . . A 2
H20E H -0.0947 0.8089 0.2799 0.094 Uiso 0.519(14) 1 calc GR . . A 2
H20F H -0.1781 0.8856 0.2359 0.094 Uiso 0.519(14) 1 calc GR . . A 2

loop_
_atom_site_aniso_label
_atom_site_aniso_U_11
_atom_site_aniso_U_22
_atom_site_aniso_U_33
_atom_site_aniso_U_23
_atom_site_aniso_U_13
_atom_site_aniso_U_12
Zn1 0.0255(4) 0.0245(4) 0.0163(4) 0.0053(3) 0.0013(3) -0.0002(3)
Zn2 0.0335(7) 0.0499(8) 0.0375(7) 0.0064(6) 0.0045(5) 0.0015(6)
O1 0.025(2) 0.045(3) 0.031(3) 0.009(2) 0.008(2) 0.002(2)
O2 0.016(2) 0.053(3) 0.104(5) 0.040(3) 0.005(3) 0.002(2)
O3 0.013(2) 0.048(3) 0.025(2) 0.006(2) 0.0062(17) 0.0047(19)
O4 0.028(3) 0.075(4) 0.045(3) 0.019(3) 0.007(2) 0.017(3)
O5 0.015(2) 0.046(3) 0.029(2) -0.011(2) -0.0001(18) 0.0072(19)
O6 0.058(3) 0.034(3) 0.020(2) -0.0033(19) 0.015(2) -0.010(2)
O7 0.024(2) 0.040(3) 0.026(2) 0.005(2) 0.0099(18) -0.007(2)
O8 0.030(2) 0.043(3) 0.020(2) -0.0060(19) 0.0070(18) -0.005(2)
O9 0.079(5) 0.064(4) 0.047(4) -0.027(3) 0.024(3) -0.017(4)
O10 0.031(3) 0.070(4) 0.023(2) -0.014(2) 0.002(2) 0.003(2)
C1 0.022(3) 0.046(4) 0.042(4) 0.011(3) 0.014(3) 0.004(3)
C2 0.021(3) 0.050(4) 0.031(3) 0.013(3) 0.007(3) 0.007(3)
C3 0.022(3) 0.054(4) 0.050(4) 0.026(4) 0.007(3) 0.002(3)
C4 0.018(3) 0.058(4) 0.033(3) 0.017(3) 0.010(3) -0.002(3)
C5 0.016(3) 0.056(4) 0.021(3) 0.001(3) 0.003(2) 0.001(3)
C6 0.016(3) 0.052(4) 0.023(3) -0.005(3) 0.004(2) 0.006(3)
C7 0.032(4) 0.035(4) 0.025(3) -0.005(3) 0.014(3) -0.012(3)
C8 0.044(4) 0.042(4) 0.018(3) -0.006(3) 0.011(3) -0.011(3)
C9 0.107(8) 0.040(5) 0.025(4) 0.000(3) 0.014(4) -0.004(5)
C10 0.095(8) 0.037(4) 0.040(5) -0.003(4) 0.023(5) -0.005(5)
C11 0.035(4) 0.043(4) 0.033(4) -0.008(3) 0.013(3) -0.009(3)
C12 0.033(4) 0.049(4) 0.031(4) -0.015(3) 0.009(3) -0.006(3)
O11 0.100(11) 0.101(10) 0.131(12) 0.002(10) 0.013(10) -0.001(9)
N1 0.077(7) 0.076(7) 0.093(7) 0.001(6) -0.003(6) 0.003(6)
C13 0.080(8) 0.076(7) 0.099(8) 0.001(7) -0.002(7) 0.002(7)
C14 0.085(11) 0.041(8) 0.092(11) 0.008(8) 0.028(9) 0.015(8)
C15 0.086(12) 0.100(12) 0.085(12) -0.014(10) -0.002(10) -0.011(10)
O12 0.105(11) 0.107(10) 0.100(10) 0.031(9) 0.021(9) 0.021(9)
N2 0.059(6) 0.095(7) 0.063(6) 0.012(6) 0.009(5) 0.003(6)
C16 0.076(7) 0.092(8) 0.071(7) 0.016(7) 0.014(6) 0.006(6)
C17 0.032(8) 0.123(12) 0.059(9) 0.038(9) 0.010(7) -0.005(8)
C18 0.050(9) 0.077(10) 0.049(8) -0.013(8) 0.005(7) -0.013(8)
N3 0.066(6) 0.061(6) 0.064(6) 0.009(5) -0.004(5) -0.002(5)
C19 0.065(9) 0.065(10) 0.069(10) -0.003(9) 0.003(9) -0.002(9)
C20 0.064(10) 0.057(9) 0.067(11) 0.012(9) 0.003(9) 0.001(8)
N3' 0.065(6) 0.059(6) 0.059(6) -0.002(5) -0.002(5) 0.007(5)
C19' 0.068(9) 0.060(9) 0.069(10) 0.011(8) -0.005(8) -0.002(8)
C20' 0.065(10) 0.059(9) 0.061(10) 0.008(8) -0.005(9) -0.003(8)

_geom_special_details            
;
 All esds (except the esd in the dihedral angle between two l.s. planes)
