####################################################################### 
# 
# This file contains crystal structure data downloaded from the 
# Cambridge Structural Database (CSD) hosted by the Cambridge 
# Crystallographic Data Centre (CCDC).
# 
# Full information about CCDC data access policies and citation 
# guidelines are available at http://www.ccdc.cam.ac.uk/access/V1 
# 
# Audit and citation data items may have been added by the CCDC. 
# Please retain this information to preserve the provenance of 
# this file and to allow appropriate attribution of the data. 
# 
#######################################################################

data_d:\c\y
_audit_block_doi                 10.5517/ccrq87y
_database_code_depnum_ccdc_archive 'CCDC 706590'
loop_
_citation_id
_citation_doi
_citation_year
1 10.1039/b817972g 2009
_audit_update_record             
;
2008-10-23 deposited with the CCDC.	2024-07-13 downloaded from the CCDC.
;

_audit_creation_method           SHELXL-97
_chemical_name_systematic        
;
?
;
_chemical_name_common            ?
_chemical_melting_point          ?
_chemical_formula_moiety         'C72 H62 In2 N12 O31'
_chemical_formula_sum            'C72 H62 In2 N12 O31'
_chemical_formula_weight         1820.98

loop_
_atom_type_symbol
_atom_type_description
_atom_type_scat_dispersion_real
_atom_type_scat_dispersion_imag
_atom_type_scat_source
C C 0.0033 0.0016 'International Tables Vol C Tables 4.2.6.8 and 6.1.1.4'
H H 0.0000 0.0000 'International Tables Vol C Tables 4.2.6.8 and 6.1.1.4'
N N 0.0061 0.0033 'International Tables Vol C Tables 4.2.6.8 and 6.1.1.4'
O O 0.0106 0.0060 'International Tables Vol C Tables 4.2.6.8 and 6.1.1.4'
In In -0.7276 1.3100 'International Tables Vol C Tables 4.2.6.8 and 6.1.1.4'

_symmetry_cell_setting           triclinic
_symmetry_space_group_name_H-M   P-1

loop_
_symmetry_equiv_pos_as_xyz
'x, y, z'
'-x, -y, -z'

_cell_length_a                   8.958(2)
_cell_length_b                   14.948(3)
_cell_length_c                   30.757(8)
_cell_angle_alpha                89.685(6)
_cell_angle_beta                 89.532(5)
_cell_angle_gamma                78.434(5)
_cell_volume                     4034.6(17)
_cell_formula_units_Z            2
_cell_measurement_temperature    293(2)
_cell_measurement_reflns_used    8564
_cell_measurement_theta_min      2.4088
_cell_measurement_theta_max      27.4797

_exptl_crystal_description       Prism
_exptl_crystal_colour            Colorless
_exptl_crystal_size_max          0.1200
_exptl_crystal_size_mid          0.0900
_exptl_crystal_size_min          0.0500
_exptl_crystal_density_meas      ?
_exptl_crystal_density_diffrn    1.499
_exptl_crystal_density_method    'not measured'
_exptl_crystal_F_000             1848
_exptl_absorpt_coefficient_mu    0.663
_exptl_absorpt_correction_type   Multi-scan
_exptl_absorpt_correction_T_min  0.8715
_exptl_absorpt_correction_T_max  1.0000
_exptl_absorpt_process_details   '(CrystalClear; Rigaku, 2000)'

_exptl_special_details           
;
?
;

_diffrn_ambient_temperature      293(2)
_diffrn_radiation_wavelength     0.71073
_diffrn_radiation_type           MoK\a
_diffrn_radiation_source         'fine-focus sealed tube'
_diffrn_radiation_monochromator  graphite
_diffrn_measurement_device_type  'Rigaku Mercury CCD area-detector'
_diffrn_measurement_method       \w
_diffrn_detector_area_resol_mean ?
_diffrn_standards_number         ?
_diffrn_standards_interval_count ?
_diffrn_standards_interval_time  ?
_diffrn_standards_decay_%        ?
_diffrn_reflns_number            31126
_diffrn_reflns_av_R_equivalents  0.0471
_diffrn_reflns_av_sigmaI/netI    0.0819
_diffrn_reflns_limit_h_min       -9
_diffrn_reflns_limit_h_max       11
_diffrn_reflns_limit_k_min       -19
_diffrn_reflns_limit_k_max       19
_diffrn_reflns_limit_l_min       -33
_diffrn_reflns_limit_l_max       39
_diffrn_reflns_theta_min         2.55
_diffrn_reflns_theta_max         27.47
_reflns_number_total             17926
_reflns_number_gt                11524
_reflns_threshold_expression     >2sigma(I)

_computing_data_collection       'CrystalClear (Rigaku, 2000)'
_computing_cell_refinement       CrystalClear
_computing_data_reduction        CrystalClear
_computing_structure_solution    'SHELXS-97 (Sheldrick, 1990)'
_computing_structure_refinement  'SHELXL-97 (Sheldrick, 1997)'
_computing_molecular_graphics    'SHELXL-97 (Sheldrick, 1997)'
_computing_publication_material  'SHELXL-97 (Sheldrick, 1997)'

_refine_special_details          
;
Refinement of F^2^ against ALL reflections. The weighted R-factor wR and
goodness of fit S are based on F^2^, conventional R-factors R are based
on F, with F set to zero for negative F^2^. The threshold expression of
F^2^ > 2sigma(F^2^) is used only for calculating R-factors(gt) etc. and is
not relevant to the choice of reflections for refinement. R-factors based
on F^2^ are statistically about twice as large as those based on F, and R-
factors based on ALL data will be even larger.
;

_refine_ls_structure_factor_coef Fsqd
_refine_ls_matrix_type           full
_refine_ls_weighting_scheme      calc
_refine_ls_weighting_details     
'calc w=1/[\s^2^(Fo^2^)+(0.1328P)^2^+0.0000P] where P=(Fo^2^+2Fc^2^)/3'
_atom_sites_solution_primary     direct
_atom_sites_solution_secondary   difmap
_atom_sites_solution_hydrogens   geom
_refine_ls_hydrogen_treatment    constr
_refine_ls_extinction_method     none
_refine_ls_extinction_coef       ?
_refine_ls_number_reflns         17926
_refine_ls_number_parameters     1046
_refine_ls_number_restraints     30
_refine_ls_R_factor_all          0.1035
_refine_ls_R_factor_gt           0.0720
_refine_ls_wR_factor_ref         0.2276
_refine_ls_wR_factor_gt          0.1969
_refine_ls_goodness_of_fit_ref   1.019
_refine_ls_restrained_S_all      1.024
_refine_ls_shift/su_max          0.001
_refine_ls_shift/su_mean         0.000

loop_
_atom_site_label
_atom_site_type_symbol
_atom_site_fract_x
_atom_site_fract_y
_atom_site_fract_z
_atom_site_U_iso_or_equiv
_atom_site_adp_type
_atom_site_occupancy
_atom_site_symmetry_multiplicity
_atom_site_calc_flag
_atom_site_refinement_flags
_atom_site_disorder_assembly
_atom_site_disorder_group
In1 In 0.08296(4) 0.55286(2) 0.131366(12) 0.03498(13) Uani 1 1 d . . .
In2 In 0.57411(4) 0.73201(2) 0.395619(12) 0.03539(13) Uani 1 1 d . . .
O1 O 0.0264(5) 0.4710(3) 0.18833(13) 0.0463(10) Uani 1 1 d . . .
O2 O -0.0162(8) 0.4641(4) 0.25841(17) 0.0818(17) Uani 1 1 d . . .
O3 O 0.3643(7) 0.8268(3) 0.1979(2) 0.0745(15) Uani 1 1 d . . .
O4 O 0.3382(7) 0.8452(4) 0.2692(2) 0.0870(18) Uani 1 1 d . . .
O5 O 0.0387(5) 0.6952(3) 0.10871(14) 0.0443(10) Uani 1 1 d . . .
O6 O -0.1312(6) 0.8116(3) 0.08276(19) 0.0746(16) Uani 1 1 d . . .
O7 O -0.5113(6) 0.4695(4) 0.17441(18) 0.0749(15) Uani 1 1 d . . .
O8 O -0.6763(5) 0.5468(4) 0.12636(16) 0.0602(12) Uani 1 1 d . . .
O9 O 0.0419(5) 0.4227(3) 0.10760(13) 0.0466(10) Uani 1 1 d . . .
O10 O 0.0503(7) 0.3220(3) 0.05387(17) 0.0693(15) Uani 1 1 d . . .
O11 O 0.3770(10) 0.7087(4) -0.0118(2) 0.117(3) Uani 1 1 d . . .
O12 O 0.4209(7) 0.6135(4) -0.06626(17) 0.0727(15) Uani 1 1 d . . .
O13 O 0.4550(5) 0.6647(3) 0.44993(14) 0.0472(10) Uani 1 1 d . . .
O14 O 0.4036(7) 0.6580(3) 0.52117(16) 0.0665(14) Uani 1 1 d . . .
O15 O 0.8071(7) 1.0157(3) 0.46958(17) 0.0671(14) Uani 1 1 d . . .
O16 O 0.7379(6) 1.0450(3) 0.53823(17) 0.0673(14) Uani 1 1 d . . .
O17 O 0.5485(5) 0.8820(3) 0.37350(14) 0.0451(9) Uani 1 1 d . . .
O18 O 0.3943(6) 1.0104(3) 0.35345(18) 0.0660(14) Uani 1 1 d . . .
O19 O -0.0101(6) 0.6448(4) 0.3907(3) 0.099(2) Uani 1 1 d . . .
O20 O -0.1900(5) 0.7675(3) 0.39151(15) 0.0514(11) Uani 1 1 d . . .
O21 O 0.4898(5) 0.6091(3) 0.36801(13) 0.0463(10) Uani 1 1 d . . .
O22 O 0.4894(8) 0.5148(4) 0.31265(18) 0.0817(18) Uani 1 1 d . . .
O23 O 0.8693(7) 0.8828(4) 0.25578(18) 0.0785(16) Uani 1 1 d . . .
O24 O 0.8592(7) 0.8112(4) 0.19445(17) 0.0771(16) Uani 1 1 d . . .
O25 O 0.7420(6) 0.6078(3) 0.41825(19) 0.0702(14) Uani 1 1 d . . .
O26 O -0.5913(14) 0.3973(6) 0.2517(3) 0.158(4) Uani 1 1 d . . .
O27 O -0.7864(18) 0.2896(9) 0.2732(6) 0.266(8) Uani 1 1 d . . .
O28 O 0.7198(11) 0.4296(5) 0.4155(3) 0.146(4) Uani 1 1 d . . .
O29 O 0.6721(16) 1.0678(10) 0.3717(5) 0.243(7) Uani 1 1 d . . .
O30 O 0.1616(14) 1.1405(8) 0.3167(5) 0.225(7) Uani 1 1 d . . .
N1 N 0.1254(5) 0.6241(3) 0.19491(15) 0.0395(10) Uani 1 1 d . . .
N2 N -0.1782(5) 0.6006(3) 0.12693(14) 0.0346(9) Uani 1 1 d . . .
N3 N 0.1450(6) 0.5379(3) 0.05620(15) 0.0410(11) Uani 1 1 d . . .
N4 N 0.5895(5) 0.8049(3) 0.46106(15) 0.0363(10) Uani 1 1 d . . .
N5 N 0.3216(5) 0.7955(3) 0.38257(15) 0.0375(10) Uani 1 1 d . . .
N6 N 0.6348(5) 0.7148(3) 0.32250(15) 0.0395(10) Uani 1 1 d . . .
N7 N 0.6727(10) 0.4900(5) 0.5693(5) 0.124(5) Uani 1 1 d . . .
H7 H 0.6187 0.4490 0.5730 0.149 Uiso 1 1 calc R . .
N8 N 1.0688(7) 0.8415(4) 0.5339(2) 0.0637(16) Uani 1 1 d . . .
H8 H 1.1120 0.8872 0.5293 0.076 Uiso 1 1 calc R . .
N9 N -0.4853(9) -0.0420(5) 0.1998(3) 0.085(2) Uani 1 1 d . . .
H9 H -0.5294 -0.0879 0.2023 0.102 Uiso 1 1 calc R . .
N10 N -0.1080(9) 0.3189(5) 0.1733(5) 0.120(5) Uani 1 1 d . . .
H10 H -0.0591 0.3624 0.1695 0.144 Uiso 1 1 calc R . .
N11 N 0.4252(8) 0.2732(4) 0.1006(2) 0.0757(19) Uani 1 1 d . . .
H11 H 0.4744 0.3112 0.0890 0.091 Uiso 1 1 calc R . .
N12 N 0.0285(10) -0.0220(6) 0.2063(3) 0.105(3) Uani 1 1 d D . .
H12 H -0.0211 -0.0560 0.2208 0.126 Uiso 1 1 calc R . .
C1 C 0.0299(8) 0.4982(4) 0.2271(2) 0.0484(14) Uani 1 1 d . . .
C2 C 0.0927(7) 0.5843(4) 0.2321(2) 0.0467(14) Uani 1 1 d . . .
C3 C 0.1218(9) 0.6193(5) 0.2728(2) 0.0631(19) Uani 1 1 d . . .
H3 H 0.0929 0.5936 0.2984 0.076 Uiso 1 1 calc R . .
C4 C 0.1933(9) 0.6916(5) 0.2742(2) 0.0622(18) Uani 1 1 d . . .
H4 H 0.2163 0.7148 0.3007 0.075 Uiso 1 1 calc R . .
C5 C 0.2318(7) 0.7305(4) 0.2352(2) 0.0483(14) Uani 1 1 d . . .
C6 C 0.1910(7) 0.6967(4) 0.1968(2) 0.0449(13) Uani 1 1 d . . .
H6 H 0.2096 0.7255 0.1710 0.054 Uiso 1 1 calc R . .
C7 C 0.3151(9) 0.8081(5) 0.2366(3) 0.068(2) Uani 1 1 d . . .
C8 C -0.0958(7) 0.7348(4) 0.0990(2) 0.0458(14) Uani 1 1 d . . .
C9 C -0.2226(7) 0.6849(4) 0.10955(18) 0.0392(12) Uani 1 1 d . . .
C10 C -0.3720(7) 0.7207(4) 0.1018(2) 0.0481(14) Uani 1 1 d . . .
H10A H -0.4002 0.7783 0.0893 0.058 Uiso 1 1 calc R . .
C11 C -0.4833(7) 0.6704(4) 0.1129(2) 0.0482(14) Uani 1 1 d . . .
H11A H -0.5857 0.6941 0.1076 0.058 Uiso 1 1 calc R . .
C12 C -0.4386(6) 0.5856(4) 0.13165(18) 0.0397(12) Uani 1 1 d . . .
C13 C -0.2824(6) 0.5532(4) 0.13849(18) 0.0365(11) Uani 1 1 d . . .
H13 H -0.2509 0.4964 0.1516 0.044 Uiso 1 1 calc R . .
C14 C -0.5494(7) 0.5281(5) 0.1458(2) 0.0506(15) Uani 1 1 d . . .
C15 C 0.0753(7) 0.3936(4) 0.0684(2) 0.0418(13) Uani 1 1 d . . .
C16 C 0.1510(7) 0.4535(4) 0.04043(19) 0.0413(12) Uani 1 1 d . . .
C17 C 0.2168(9) 0.4251(5) 0.0010(2) 0.0578(17) Uani 1 1 d . . .
H17 H 0.2124 0.3680 -0.0101 0.069 Uiso 1 1 calc R . .
C18 C 0.2904(9) 0.4850(5) -0.0217(2) 0.0573(17) Uani 1 1 d . . .
H18 H 0.3420 0.4665 -0.0475 0.069 Uiso 1 1 calc R . .
C19 C 0.2866(8) 0.5702(5) -0.0062(2) 0.0514(15) Uani 1 1 d . . .
C20 C 0.2121(8) 0.5954(4) 0.0331(2) 0.0499(15) Uani 1 1 d . . .
H20 H 0.2088 0.6540 0.0437 0.060 Uiso 1 1 calc R . .
C21 C 0.3652(10) 0.6380(5) -0.0291(3) 0.066(2) Uani 1 1 d . . .
C22 C 0.4552(7) 0.6914(4) 0.4891(2) 0.0437(13) Uani 1 1 d . . .
C23 C 0.5261(6) 0.7742(3) 0.49669(18) 0.0362(11) Uani 1 1 d . . .
C24 C 0.5329(8) 0.8142(4) 0.5360(2) 0.0477(15) Uani 1 1 d . . .
H24 H 0.4919 0.7909 0.5605 0.057 Uiso 1 1 calc R . .
C25 C 0.6002(8) 0.8893(4) 0.5401(2) 0.0511(15) Uani 1 1 d . . .
H25 H 0.6003 0.9186 0.5667 0.061 Uiso 1 1 calc R . .
C26 C 0.6665(7) 0.9192(4) 0.50427(19) 0.0399(12) Uani 1 1 d . . .
C27 C 0.6571(6) 0.8761(4) 0.4644(2) 0.0395(12) Uani 1 1 d . . .
H27 H 0.6991 0.8976 0.4396 0.047 Uiso 1 1 calc R . .
C28 C 0.7416(7) 1.0004(4) 0.5061(2) 0.0458(14) Uani 1 1 d . . .
C29 C 0.4173(7) 0.9302(4) 0.36479(19) 0.0441(14) Uani 1 1 d . . .
C30 C 0.2855(7) 0.8824(4) 0.36985(18) 0.0410(12) Uani 1 1 d . . .
C31 C 0.1377(8) 0.9260(4) 0.3629(2) 0.0553(16) Uani 1 1 d . . .
H31 H 0.1148 0.9869 0.3543 0.066 Uiso 1 1 calc R . .
C32 C 0.0236(8) 0.8770(4) 0.3691(2) 0.0550(16) Uani 1 1 d . . .
H32 H -0.0776 0.9055 0.3650 0.066 Uiso 1 1 calc R . .
C33 C 0.0591(6) 0.7860(4) 0.38125(19) 0.0432(13) Uani 1 1 d . . .
C34 C 0.2126(6) 0.7473(4) 0.3877(2) 0.0409(12) Uani 1 1 d . . .
H34 H 0.2396 0.6862 0.3958 0.049 Uiso 1 1 calc R . .
C35 C -0.0565(7) 0.7270(4) 0.3880(2) 0.0495(15) Uani 1 1 d . . .
C36 C 0.5211(8) 0.5827(4) 0.3297(2) 0.0488(15) Uani 1 1 d . . .
C37 C 0.6009(8) 0.6435(4) 0.3020(2) 0.0477(14) Uani 1 1 d . . .
C38 C 0.6279(9) 0.6277(5) 0.2576(2) 0.0629(19) Uani 1 1 d . . .
H38 H 0.5957 0.5802 0.2435 0.075 Uiso 1 1 calc R . .
C39 C 0.7041(9) 0.6854(5) 0.2360(2) 0.0621(18) Uani 1 1 d . . .
H39 H 0.7296 0.6744 0.2068 0.074 Uiso 1 1 calc R . .
C40 C 0.7439(7) 0.7590(5) 0.2559(2) 0.0508(15) Uani 1 1 d . . .
C41 C 0.7059(7) 0.7708(4) 0.2999(2) 0.0458(14) Uani 1 1 d . . .
H41 H 0.7314 0.8202 0.3142 0.055 Uiso 1 1 calc R . .
C42 C 0.8277(9) 0.8212(6) 0.2329(3) 0.067(2) Uani 1 1 d . . .
C43 C 0.6976(15) 0.5414(8) 0.6038(5) 0.127(5) Uani 1 1 d . . .
H43 H 0.6606 0.5313 0.6314 0.152 Uiso 1 1 calc R . .
C44 C 0.7295(14) 0.5009(6) 0.5295(6) 0.124(5) Uani 1 1 d . . .
H44 H 0.7116 0.4636 0.5068 0.148 Uiso 1 1 calc R . .
C45 C 0.7801(15) 0.6092(7) 0.5965(4) 0.124(5) Uani 1 1 d . . .
H45 H 0.7968 0.6465 0.6194 0.149 Uiso 1 1 calc R . .
C46 C 0.8132(11) 0.5662(5) 0.5222(4) 0.088(3) Uani 1 1 d . . .
H46 H 0.8534 0.5730 0.4947 0.106 Uiso 1 1 calc R . .
C47 C 0.8382(8) 0.6221(4) 0.5554(3) 0.0614(19) Uani 1 1 d . . .
C48 C 0.9223(7) 0.6983(4) 0.5483(2) 0.0478(15) Uani 1 1 d . . .
C49 C 0.9475(11) 0.7531(5) 0.5815(3) 0.079(3) Uani 1 1 d . . .
H49 H 0.9129 0.7441 0.6094 0.094 Uiso 1 1 calc R . .
C50 C 0.9726(9) 0.7175(4) 0.5079(2) 0.0608(19) Uani 1 1 d . . .
H50 H 0.9581 0.6820 0.4842 0.073 Uiso 1 1 calc R . .
C51 C 1.0241(13) 0.8215(6) 0.5732(3) 0.093(3) Uani 1 1 d . . .
H51 H 1.0462 0.8560 0.5965 0.112 Uiso 1 1 calc R . .
C52 C 1.0445(10) 0.7894(5) 0.5027(2) 0.067(2) Uani 1 1 d . . .
H52 H 1.0779 0.8013 0.4750 0.080 Uiso 1 1 calc R . .
C53 C -0.4843(10) 0.0100(7) 0.2333(3) 0.082(3) Uani 1 1 d . . .
H53 H -0.5272 -0.0044 0.2594 0.099 Uiso 1 1 calc R . .
C54 C -0.4239(11) -0.0287(6) 0.1629(4) 0.089(3) Uani 1 1 d . . .
H54 H -0.4281 -0.0673 0.1396 0.107 Uiso 1 1 calc R . .
C55 C -0.4161(10) 0.0916(6) 0.2306(3) 0.086(3) Uani 1 1 d . . .
H55 H -0.4205 0.1320 0.2537 0.104 Uiso 1 1 calc R . .
C56 C -0.3523(10) 0.0436(5) 0.1590(3) 0.080(3) Uani 1 1 d . . .
H56 H -0.3059 0.0516 0.1325 0.097 Uiso 1 1 calc R . .
C57 C -0.3440(8) 0.1047(5) 0.1911(3) 0.066(2) Uani 1 1 d . . .
C58 C -0.2629(8) 0.1823(4) 0.1843(3) 0.063(2) Uani 1 1 d . . .
C59 C -0.2390(12) 0.2368(6) 0.2197(4) 0.100(3) Uani 1 1 d . . .
H59 H -0.2776 0.2281 0.2472 0.120 Uiso 1 1 calc R . .
C60 C -0.2119(10) 0.2019(6) 0.1439(4) 0.086(3) Uani 1 1 d . . .
H60 H -0.2329 0.1683 0.1202 0.103 Uiso 1 1 calc R . .
C61 C -0.1534(14) 0.3057(6) 0.2117(5) 0.116(4) Uani 1 1 d . . .
H61 H -0.1304 0.3411 0.2345 0.139 Uiso 1 1 calc R . .
C62 C -0.1309(12) 0.2696(8) 0.1375(5) 0.104(4) Uani 1 1 d . . .
H62 H -0.0934 0.2813 0.1102 0.125 Uiso 1 1 calc R . .
C63 C 0.3643(8) 0.2883(5) 0.1397(3) 0.0614(18) Uani 1 1 d . . .
H63 H 0.3759 0.3404 0.1545 0.074 Uiso 1 1 calc R . .
C64 C 0.4098(12) 0.1984(7) 0.0792(4) 0.096(3) Uani 1 1 d . . .
H64 H 0.4535 0.1873 0.0517 0.115 Uiso 1 1 calc R . .
C65 C 0.2852(9) 0.2302(5) 0.1590(3) 0.069(2) Uani 1 1 d . . .
H65 H 0.2459 0.2423 0.1869 0.083 Uiso 1 1 calc R . .
C66 C 0.3279(12) 0.1356(6) 0.0976(4) 0.092(3) Uani 1 1 d . . .
H66 H 0.3193 0.0830 0.0826 0.110 Uiso 1 1 calc R . .
C67 C 0.2625(9) 0.1528(6) 0.1373(3) 0.075(2) Uani 1 1 d . . .
C68 C 0.1754(9) 0.0872(6) 0.1597(4) 0.106(4) Uani 1 1 d DU . .
C69 C 0.1524(12) 0.0895(7) 0.2051(4) 0.124(4) Uani 1 1 d DU . .
H69 H 0.1948 0.1321 0.2201 0.149 Uiso 1 1 calc R . .
C70 C 0.1202(13) 0.0214(7) 0.1359(5) 0.135(4) Uani 1 1 d DU . .
H70 H 0.1298 0.0151 0.1059 0.162 Uiso 1 1 calc R . .
C71 C 0.0757(14) 0.0371(7) 0.2299(4) 0.118(4) Uani 1 1 d DU . .
H71 H 0.0599 0.0433 0.2598 0.141 Uiso 1 1 calc R . .
C72 C 0.0399(9) -0.0406(6) 0.1659(3) 0.083(2) Uani 1 1 d DU . .
H72 H 0.0021 -0.0891 0.1545 0.099 Uiso 1 1 calc R . .
O31 O -0.1574(9) 0.1700(6) 0.3190(3) 0.282(8) Uiso 1 1 d R . .

loop_
_atom_site_aniso_label
_atom_site_aniso_U_11
_atom_site_aniso_U_22
_atom_site_aniso_U_33
_atom_site_aniso_U_23
_atom_site_aniso_U_13
_atom_site_aniso_U_12
In1 0.0266(2) 0.0387(2) 0.0437(2) -0.00028(16) 0.00123(15) -0.01614(16)
In2 0.0285(2) 0.0391(2) 0.0429(2) 0.00143(16) 0.00146(16) -0.01727(16)
O1 0.050(3) 0.049(2) 0.048(2) 0.0052(18) -0.0076(19) -0.0280(19)
O2 0.114(5) 0.093(4) 0.058(3) 0.010(3) 0.006(3) -0.067(4)
O3 0.077(4) 0.060(3) 0.099(4) -0.010(3) -0.009(3) -0.042(3)
O4 0.087(4) 0.078(4) 0.107(5) -0.039(3) -0.013(4) -0.040(3)
O5 0.037(2) 0.038(2) 0.061(3) 0.0035(18) 0.0073(19) -0.0160(17)
O6 0.070(4) 0.055(3) 0.102(4) 0.042(3) -0.009(3) -0.021(2)
O7 0.059(3) 0.097(4) 0.081(4) 0.035(3) -0.014(3) -0.044(3)
O8 0.024(2) 0.095(4) 0.065(3) -0.013(3) 0.0017(19) -0.019(2)
O9 0.051(3) 0.044(2) 0.050(2) -0.0031(18) 0.012(2) -0.0221(19)
O10 0.092(4) 0.056(3) 0.070(3) -0.013(2) 0.019(3) -0.039(3)
O11 0.168(8) 0.086(4) 0.116(6) -0.019(4) 0.071(5) -0.075(5)
O12 0.082(4) 0.083(3) 0.060(3) 0.005(3) 0.025(3) -0.034(3)
O13 0.055(3) 0.043(2) 0.051(2) -0.0005(18) 0.000(2) -0.0271(19)
O14 0.090(4) 0.060(3) 0.064(3) 0.007(2) 0.013(3) -0.049(3)
O15 0.084(4) 0.060(3) 0.073(3) -0.010(2) 0.008(3) -0.052(3)
O16 0.0