####################################################################### 
# 
# This file contains crystal structure data downloaded from the 
# Cambridge Structural Database (CSD) hosted by the Cambridge 
# Crystallographic Data Centre (CCDC).
# 
# Full information about CCDC data access policies and citation 
# guidelines are available at http://www.ccdc.cam.ac.uk/access/V1 
# 
# Audit and citation data items may have been added by the CCDC. 
# Please retain this information to preserve the provenance of 
# this file and to allow appropriate attribution of the data. 
# 
#######################################################################

data_1b-100k
_audit_block_doi                 10.5517/cczyvlb
_database_code_depnum_ccdc_archive 'CCDC 922423'
loop_
_citation_id
_citation_doi
_citation_year
1 10.1002/chem.201303991 2014
_audit_update_record             
;
2013-01-30 deposited with the CCDC.	2024-07-13 downloaded from the CCDC.
;
#TrackingRef 'cifs.cif'


_audit_creation_method           SHELXL-97
_chemical_name_systematic        
;
?
;
_chemical_name_common            ?
_chemical_melting_point          ?
_chemical_formula_moiety         ?
_chemical_formula_sum            'C28 H28 Cu4 N20 O2'
_chemical_formula_weight         930.86

loop_
_atom_type_symbol
_atom_type_description
_atom_type_scat_dispersion_real
_atom_type_scat_dispersion_imag
_atom_type_scat_source
C C 0.0033 0.0016 'International Tables Vol C Tables 4.2.6.8 and 6.1.1.4'
H H 0.0000 0.0000 'International Tables Vol C Tables 4.2.6.8 and 6.1.1.4'
O O 0.0106 0.0060 'International Tables Vol C Tables 4.2.6.8 and 6.1.1.4'
Cu Cu 0.3201 1.2651 'International Tables Vol C Tables 4.2.6.8 and 6.1.1.4'
N N 0.0061 0.0033 'International Tables Vol C Tables 4.2.6.8 and 6.1.1.4'

_symmetry_cell_setting           Triclinic
_symmetry_space_group_name_H-M   P-1

loop_
_symmetry_equiv_pos_as_xyz
'x, y, z'
'-x, -y, -z'

_cell_length_a                   7.0485(6)
_cell_length_b                   15.2337(8)
_cell_length_c                   16.0392(8)
_cell_angle_alpha                95.618(4)
_cell_angle_beta                 94.709(6)
_cell_angle_gamma                98.855(6)
_cell_volume                     1685.22(19)
_cell_formula_units_Z            2
_cell_measurement_temperature    100(2)
_cell_measurement_reflns_used    1655
_cell_measurement_theta_min      2.8716
_cell_measurement_theta_max      29.3795

_exptl_crystal_description       block
_exptl_crystal_colour            light-yellow
_exptl_crystal_size_max          0.20
_exptl_crystal_size_mid          0.15
_exptl_crystal_size_min          0.14
_exptl_crystal_density_meas      ?
_exptl_crystal_density_diffrn    1.834
_exptl_crystal_density_method    'not measured'
_exptl_crystal_F_000             936
_exptl_absorpt_coefficient_mu    2.554
_exptl_absorpt_correction_type   multi-scan
_exptl_absorpt_correction_T_min  0.6292
_exptl_absorpt_correction_T_max  0.7163
_exptl_absorpt_process_details   
;
CrysAlisPro, Oxford Diffraction Ltd.,
Version 1.171.34.44 (release 25-10-2010 CrysAlis171 .NET)
(compiled Oct 25 2010,18:11:34)
Empirical absorption correction using spherical harmonics,
implemented in SCALE3 ABSPACK scaling algorithm.
;
_exptl_special_details           
;
?
;

_diffrn_ambient_temperature      100(2)
_diffrn_radiation_wavelength     0.71073
_diffrn_radiation_type           MoK\a
_diffrn_radiation_source         'Enhance (Mo) X-ray Source'
_diffrn_radiation_monochromator  graphite
_diffrn_measurement_device_type  'Xcalibur, Atlas, Gemini'
_diffrn_measurement_method       'phi and omega scans'
_diffrn_detector_area_resol_mean 10.4098
_diffrn_standards_number         ?
_diffrn_standards_interval_count ?
_diffrn_standards_interval_time  ?
_diffrn_standards_decay_%        ?
_diffrn_reflns_number            10625
_diffrn_reflns_av_R_equivalents  0.0612
_diffrn_reflns_av_sigmaI/netI    0.1358
_diffrn_reflns_limit_h_min       -6
_diffrn_reflns_limit_h_max       8
_diffrn_reflns_limit_k_min       -17
_diffrn_reflns_limit_k_max       18
_diffrn_reflns_limit_l_min       -19
_diffrn_reflns_limit_l_max       15
_diffrn_reflns_theta_min         2.88
_diffrn_reflns_theta_max         25.00
_reflns_number_total             5942
_reflns_number_gt                3252
_reflns_threshold_expression     >2sigma(I)

_computing_data_collection       
;
CrysAlisPro, Oxford Diffraction Ltd.,
Version 1.171.34.44 (release 25-10-2010 CrysAlis171 .NET)
(compiled Oct 25 2010,18:11:34)
;
_computing_cell_refinement       
;
CrysAlisPro, Oxford Diffraction Ltd.,
Version 1.171.34.44 (release 25-10-2010 CrysAlis171 .NET)
(compiled Oct 25 2010,18:11:34)
;
_computing_data_reduction        
;
CrysAlisPro, Oxford Diffraction Ltd.,
Version 1.171.34.44 (release 25-10-2010 CrysAlis171 .NET)
(compiled Oct 25 2010,18:11:34)
;
_computing_structure_solution    'SHELXS-97 (Sheldrick, 1990)'
_computing_structure_refinement  'SHELXL-97 (Sheldrick, 1997)'
_computing_molecular_graphics    Olex-2
_computing_publication_material  Olex-2

_refine_special_details          
;
Refinement of F^2^ against ALL reflections. The weighted R-factor wR and
goodness of fit S are based on F^2^, conventional R-factors R are based
on F, with F set to zero for negative F^2^. The threshold expression of
F^2^ > 2sigma(F^2^) is used only for calculating R-factors(gt) etc. and is
not relevant to the choice of reflections for refinement. R-factors based
on F^2^ are statistically about twice as large as those based on F, and R-
factors based on ALL data will be even larger.
;

_refine_ls_structure_factor_coef Fsqd
_refine_ls_matrix_type           full
_refine_ls_weighting_scheme      calc
_refine_ls_weighting_details     
'calc w=1/[\s^2^(Fo^2^)+(0.0183P)^2^+0.0000P] where P=(Fo^2^+2Fc^2^)/3'
_atom_sites_solution_primary     direct
_atom_sites_solution_secondary   difmap
_atom_sites_solution_hydrogens   geom
_refine_ls_hydrogen_treatment    contr
_refine_ls_extinction_method     none
_refine_ls_extinction_coef       ?
_refine_ls_number_reflns         5942
_refine_ls_number_parameters     489
_refine_ls_number_restraints     0
_refine_ls_R_factor_all          0.1313
_refine_ls_R_factor_gt           0.0614
_refine_ls_wR_factor_ref         0.1240
_refine_ls_wR_factor_gt          0.0969
_refine_ls_goodness_of_fit_ref   1.008
_refine_ls_restrained_S_all      1.008
_refine_ls_shift/su_max          0.001
_refine_ls_shift/su_mean         0.000

loop_
_atom_site_label
_atom_site_type_symbol
_atom_site_fract_x
_atom_site_fract_y
_atom_site_fract_z
_atom_site_U_iso_or_equiv
_atom_site_adp_type
_atom_site_occupancy
_atom_site_symmetry_multiplicity
_atom_site_calc_flag
_atom_site_refinement_flags
_atom_site_disorder_assembly
_atom_site_disorder_group
Cu1 Cu 0.40475(15) 0.79476(6) 0.85101(5) 0.0155(3) Uani 1 1 d . . .
Cu2 Cu 0.10917(15) 0.63786(6) 0.71733(5) 0.0160(3) Uani 1 1 d . . .
Cu3 Cu 0.24186(15) 1.13852(6) 0.35209(5) 0.0155(3) Uani 1 1 d . . .
Cu4 Cu 0.26047(16) 0.29579(6) 1.21836(5) 0.0148(3) Uani 1 1 d . . .
N1 N 0.3218(10) 0.8212(4) 0.7385(3) 0.0153(16) Uani 1 1 d . . .
N2 N 0.3640(10) 0.8952(4) 0.7019(3) 0.0150(16) Uani 1 1 d . . .
N3 N 0.1522(9) 0.7936(4) 0.6151(3) 0.0119(15) Uani 1 1 d . . .
N4 N 0.1969(9) 0.7604(4) 0.6871(3) 0.0094(15) Uani 1 1 d . . .
N5 N -0.0707(10) 0.5578(4) 0.6328(3) 0.0168(16) Uani 1 1 d . . .
N6 N 0.2057(10) 0.6113(4) 0.8281(3) 0.0158(16) Uani 1 1 d . . .
N7 N 0.1715(10) 0.5361(4) 0.8659(3) 0.0136(16) Uani 1 1 d . . .
N8 N 0.3374(10) 0.6434(4) 0.9584(3) 0.0137(16) Uani 1 1 d . . .
N9 N 0.3046(10) 0.6756(4) 0.8835(3) 0.0160(16) Uani 1 1 d . . .
N10 N 0.5734(9) 0.8751(4) 0.9388(3) 0.0111(15) Uani 1 1 d . . .
N11 N 0.9969(10) 1.0366(4) 1.2018(3) 0.0161(16) Uani 1 1 d . . .
N12 N 1.1054(10) 1.1118(4) 1.2394(3) 0.0149(16) Uani 1 1 d . . .
N13 N 1.1028(9) 1.1759(4) 1.1878(3) 0.0153(16) Uani 1 1 d . . .
N14 N 0.9899(9) 1.1442(4) 1.1175(3) 0.0150(15) Uani 1 1 d . . .
N15 N 0.2474(9) 1.0571(4) 0.4389(3) 0.0134(16) Uani 1 1 d . . .
N16 N -0.4721(10) 0.3949(4) 0.3632(3) 0.0143(16) Uani 1 1 d . . .
N17 N -0.5909(10) 0.3207(4) 0.3281(3) 0.0145(16) Uani 1 1 d . . .
N18 N -0.6136(9) 0.2612(4) 0.3838(3) 0.0132(15) Uani 1 1 d . . .
N19 N -0.5110(9) 0.2944(4) 0.4572(3) 0.0139(16) Uani 1 1 d . . .
N20 N 0.2534(10) 0.3802(4) 1.1333(3) 0.0183(17) Uani 1 1 d . . .
C1 C 0.2562(11) 0.8763(5) 0.6269(4) 0.0112(18) Uani 1 1 d . . .
C2 C 0.2522(12) 0.9391(5) 0.5617(4) 0.0137(19) Uani 1 1 d . . .
C3 C 0.3401(11) 1.0278(5) 0.5799(4) 0.0119(18) Uani 1 1 d . . .
H3 H 0.4011 1.0497 0.6346 0.014 Uiso 1 1 calc R . .
C4 C 0.3372(11) 1.0841(5) 0.5164(4) 0.0150(19) Uani 1 1 d . . .
H4 H 0.4015 1.1441 0.5285 0.018 Uiso 1 1 calc R . .
C5 C 0.1604(12) 0.9699(5) 0.4235(4) 0.0166(19) Uani 1 1 d . . .
H5 H 0.0969 0.9497 0.3689 0.020 Uiso 1 1 calc R . .
C6 C 0.1585(11) 0.9091(5) 0.4818(4) 0.0116(18) Uani 1 1 d . . .
H6 H 0.0956 0.8490 0.4679 0.014 Uiso 1 1 calc R . .
C7 C -0.1185(12) 0.5836(5) 0.5562(4) 0.0142(18) Uani 1 1 d . . .
H7 H -0.0715 0.6428 0.5453 0.017 Uiso 1 1 calc R . .
C8 C -0.2340(12) 0.5258(5) 0.4934(4) 0.0135(18) Uani 1 1 d . . .
H8 H -0.2654 0.5457 0.4405 0.016 Uiso 1 1 calc R . .
C9 C -0.3032(11) 0.4395(5) 0.5079(4) 0.0108(18) Uani 1 1 d . . .
C10 C -0.4258(12) 0.3768(5) 0.4427(4) 0.0137(19) Uani 1 1 d . . .
C11 C -0.2598(12) 0.4142(5) 0.5871(4) 0.018(2) Uani 1 1 d . . .
H11 H -0.3093 0.3560 0.6001 0.021 Uiso 1 1 calc R . .
C12 C -0.1441(12) 0.4747(5) 0.6463(4) 0.018(2) Uani 1 1 d . . .
H12 H -0.1143 0.4564 0.7001 0.022 Uiso 1 1 calc R . .
C13 C 0.2545(11) 0.5577(5) 0.9444(4) 0.0095(18) Uani 1 1 d . . .
C14 C 0.2519(11) 0.4970(5) 1.0088(4) 0.0114(18) Uani 1 1 d . . .
C15 C 0.1677(12) 0.4083(5) 0.9926(4) 0.0154(19) Uani 1 1 d . . .
H15 H 0.1072 0.3856 0.9380 0.018 Uiso 1 1 calc R . .
C16 C 0.1708(12) 0.3530(5) 1.0548(4) 0.018(2) Uani 1 1 d . . .
H16 H 0.1116 0.2923 1.0417 0.021 Uiso 1 1 calc R . .
C17 C 0.3353(11) 0.4677(5) 1.1504(4) 0.0139(19) Uani 1 1 d . . .
H17 H 0.3942 0.4889 1.2056 0.017 Uiso 1 1 calc R . .
C18 C 0.3358(12) 0.5262(5) 1.0905(4) 0.0154(19) Uani 1 1 d . . .
H18 H 0.3936 0.5870 1.1048 0.019 Uiso 1 1 calc R . .
C19 C 0.6236(11) 0.8517(5) 1.0156(4) 0.0115(18) Uani 1 1 d . . .
H19 H 0.5798 0.7922 1.0266 0.014 Uiso 1 1 calc R . .
C20 C 0.7332(12) 0.9085(5) 1.0783(5) 0.0164(19) Uani 1 1 d . . .
H20 H 0.7601 0.8890 1.1319 0.020 Uiso 1 1 calc R . .
C21 C 0.8057(11) 0.9951(5) 1.0635(4) 0.0121(18) Uani 1 1 d . . .
C22 C 0.9258(12) 1.0589(5) 1.1276(4) 0.0148(19) Uani 1 1 d . . .
C23 C 0.7549(12) 1.0218(5) 0.9855(4) 0.0150(19) Uani 1 1 d . . .
H23 H 0.7963 1.0812 0.9737 0.018 Uiso 1 1 calc R . .
C24 C 0.6421(11) 0.9595(5) 0.9254(4) 0.0147(19) Uani 1 1 d . . .
H24 H 0.6115 0.9775 0.8715 0.018 Uiso 1 1 calc R . .
C25 C 0.340(2) 0.7883(8) 0.2626(9) 0.089(5) Uani 1 1 d . . .
H25A H 0.4825 0.8039 0.2661 0.107 Uiso 1 1 calc R . .
H25B H 0.2992 0.8056 0.3187 0.107 Uiso 1 1 calc R . .
C26 C 0.251(3) 0.8392(12) 0.1988(10) 0.151(8) Uani 1 1 d . . .
H26A H 0.2806 0.8178 0.1425 0.226 Uiso 1 1 calc R . .
H26B H 0.3026 0.9030 0.2114 0.226 Uiso 1 1 calc R . .
H26C H 0.1105 0.8300 0.2007 0.226 Uiso 1 1 calc R . .
C27 C 0.7429(16) 0.6383(7) 0.2793(5) 0.051(3) Uani 1 1 d . . .
H27A H 0.7176 0.5800 0.3022 0.061 Uiso 1 1 calc R . .
H27B H 0.6213 0.6497 0.2502 0.061 Uiso 1 1 calc R . .
C28 C 0.8203(18) 0.7132(7) 0.3502(6) 0.060(3) Uani 1 1 d . . .
H28A H 0.9278 0.6962 0.3843 0.090 Uiso 1 1 calc R . .
H28B H 0.7172 0.7230 0.3858 0.090 Uiso 1 1 calc R . .
H28C H 0.8652 0.7683 0.3259 0.090 Uiso 1 1 calc R . .
O1 O 0.8877(11) 0.6379(4) 0.2230(4) 0.058(2) Uani 1 1 d . . .
H1 H 0.8507 0.5977 0.1828 0.087 Uiso 1 1 calc R . .
O2 O 0.2866(14) 0.6972(5) 0.2416(5) 0.087(3) Uani 1 1 d . . .
H2 H 0.1664 0.6836 0.2412 0.131 Uiso 1 1 calc R . .

loop_
_atom_site_aniso_label
_atom_site_aniso_U_11
_atom_site_aniso_U_22
_atom_site_aniso_U_33
_atom_site_aniso_U_23
_atom_site_aniso_U_13
_atom_site_aniso_U_12
Cu1 0.0200(7) 0.0122(6) 0.0121(5) 0.0012(4) -0.0030(4) -0.0021(5)
Cu2 0.0205(7) 0.0124(6) 0.0127(5) 0.0023(4) -0.0030(4) -0.0026(5)
Cu3 0.0198(7) 0.0118(6) 0.0133(5) 0.0040(4) -0.0030(4) -0.0018(5)
Cu4 0.0194(7) 0.0120(6) 0.0118(5) 0.0034(4) -0.0016(4) -0.0014(5)
N1 0.020(5) 0.014(4) 0.011(3) 0.001(3) -0.002(3) 0.001(3)
N2 0.018(4) 0.020(4) 0.009(3) 0.009(3) 0.001(3) 0.004(3)
N3 0.014(4) 0.007(4) 0.015(3) 0.005(3) 0.007(3) -0.001(3)
N4 0.015(4) 0.003(3) 0.009(3) 0.001(2) 0.002(3) -0.002(3)
N5 0.024(5) 0.014(4) 0.012(3) 0.001(3) 0.005(3) 0.000(3)
N6 0.018(4) 0.014(4) 0.013(3) 0.003(3) -0.001(3) -0.003(3)
N7 0.015(4) 0.010(4) 0.015(3) 0.004(3) 0.001(3) -0.001(3)
N8 0.020(5) 0.015(4) 0.005(3) 0.003(3) 0.002(3) 0.000(3)
N9 0.021(5) 0.008(4) 0.019(4) 0.004(3) -0.002(3) 0.001(3)
N10 0.014(4) 0.007(4) 0.013(3) 0.004(2) 0.002(3) 0.002(3)
N11 0.021(5) 0.010(4) 0.016(3) -0.001(3) 0.004(3) 0.003(3)
N12 0.024(5) 0.010(4) 0.010(3) -0.001(3) -0.003(3) 0.003(3)
N13 0.012(4) 0.021(4) 0.011(3) 0.000(3) 0.000(3) 0.000(3)
N14 0.009(4) 0.015(4) 0.020(4) -0.007(3) -0.001(3) 0.004(3)
N15 0.014(4) 0.018(4) 0.008(3) 0.003(3) -0.001(3) 0.000(3)
N16 0.024(5) 0.008(4) 0.009(3) -0.003(2) -0.003(3) 0.003(3)
N17 0.016(4) 0.010(4) 0.015(3) 0.002(3) -0.002(3) -0.005(3)
N18 0.017(4) 0.010(4) 0.011(3) -0.001(3) -0.006(3) 0.002(3)
N19 0.012(4) 0.017(4) 0.010(3) -0.005(3) 0.002(3) -0.004(3)
N20 0.024(5) 0.017(4) 0.012(3) 0.003(3) -0.006(3) 0.002(3)
C1 0.003(5) 0.013(5) 0.019(4) 0.006(3) 0.003(3) 0.004(4)
C2 0.016(5) 0.016(5) 0.011(4) 0.004(3) 0.007(3) 0.004(4)
C3 0.007(5) 0.023(5) 0.005(4) -0.001(3) -0.001(3) 0.003(4)
C4 0.013(5) 0.016(5) 0.016(4) 0.000(3) 0.007(3) -0.001(4)
C5 0.020(5) 0.014(5) 0.013(4) 0.001(3) -0.002(3) -0.002(4)
C6 0.009(5) 0.015(5) 0.010(4) 0.002(3) -0.004(3) 0.001(4)
C7 0.015(5) 0.016(5) 0.014(4) 0.004(3) 0.003(3) 0.008(4)
C8 0.018(5) 0.010(4) 0.014(4) 0.007(3) 0.005(3) 0.003(4)
C9 0.008(5) 0.015(5) 0.011(4) 0.000(3) 0.007(3) 0.003(4)
C10 0.020(5) 0.010(4) 0.012(4) 0.000(3) 0.005(3) 0.003(4)
C11 0.016(5) 0.017(5) 0.020(4) 0.010(3) 0.008(3) -0.002(4)
C12 0.023(6) 0.017(5) 0.014(4) 0.004(3) -0.004(3) 0.001(4)
C13 0.013(5) 0.004(4) 0.010(4) -0.001(3) 0.002(3) -0.006(4)
C14 0.006(5) 0.007(4) 0.019(4) -0.004(3) 0.001(3) 0.000(4)
C15 0.020(6) 0.010(5) 0.013(4) 0.001(3) -0.002(3) -0.002(4)
C16 0.020(6) 0.015(5) 0.016(4) 0.004(3) -0.006(3) 0.000(4)
C17 0.014(5) 0.017(5) 0.009(4) 0.003(3) 0.000(3) -0.003(4)
C18 0.020(5) 0.016(5) 0.008(4) -0.003(3) 0.002(3) -0.002(4)
C19 0.020(5) 0.003(4) 0.011(4) -0.001(3) -0.001(3) 0.000(4)
C20 0.014(5) 0.011(5) 0.025(4) 0.004(3) -0.002(3) 0.004(4)
C21 0.006(5) 0.022(5) 0.007(4) -0.003(3) 0.000(3) 0.001(4)
C22 0.017(5) 0.017(5) 0.014(4) 0.007(3) 0.006(3) 0.005(4)
C23 0.020(5) 0.009(4) 0.016(4) 0.001(3) 0.006(3) 0.001(4)
C24 0.016(5) 0.019(5) 0.009(4) 0.001(3) 0.002(3) 0.001(4)
C25 0.084(13) 0.034(8) 0.134(12) -0.015(8) -0.009(9) -0.011(8)
C26 0.146(19) 0.167(18) 0.185(16) 0.147(15) 0.056(14) 0.070(15)
C27 0.045(8) 0.070(8) 0.038(6) -0.003(5) 0.007(5) 0.018(6)
C28 0.077(10) 0.052(8) 0.049(7) -0.012(5) 0.001(6) 0.016(7)
O1 0.083(7) 0.050(5) 0.036(4) -0.001(3) 0.001(4) 0.001(4)
O2 0.113(9) 0.055(6) 0.087(6) 0.010(4) -0.001(5) -0.002(6)

_geom_special_details            
;
All esds (except the esd in the dihedral angle between two l.s. planes)
are estimated using the full covariance matrix. The cell esds are taken
into account individually in the estimation of esds in distances, angles
and torsion angles; correlations between esds in cell parameters are only
used when they are defined by crystal symmetry. An approximate (isotropic)
treatment of cell esds is used for estimating esds involving l.s. planes.
;

loop_
_geom_bond_atom_site_label_1
_geom_bond_atom_site_label_2
_geom_bond_distance
_geom_bond_site_symmetry_2
_geom_bond_publ_flag
Cu1 N1 1.950(6) . ?
Cu1 N10 1.958(6) . ?
Cu1 N9 1.979(6) . ?
Cu2 N6 1.952(6) . ?
Cu2 N5 1.963(6) . ?
Cu2 N4 1.994(6) . ?
Cu3 N12 1.951(6) 1_454 ?
Cu3 N15 1.955(6) . ?
Cu3 N18 1.983(6) 1_665 ?
Cu4 N17 1.946(6) 1_656 ?
Cu4 N20 1.967(6) . ?
Cu4 N13 1.980(6) 1_445 ?
N1 N2 1.327(8) . ?
N1 N4 1.339(8) . ?
N2 C1 1.350(9) . ?
N3 N4 1.338(8) . ?
N3 C1 1.345(9) . ?
N5 C12 1.338(9) . ?
N5 C7 1.357(9) . ?
N6 N9 1.324(8) . ?
N6 N7 1.347(8) . ?
N7 C13 1.331(8) . ?
N8 C13 1.335(9) . ?
N8 N9 1.356(8) . ?
N10 C24 1.347(9) . ?
N10 C19 1.350(8) . ?
N11 N12 1.334(8) . ?
N11 C22 1.349(9) . ?
N12 N13 1.341(8) . ?
N12 Cu3 1.951(6) 1_656 ?
N13 N14 1.330(8) . ?
N13 Cu4 1.980(6) 1_665 ?
N14 C22 1.337(9) . ?
N15 C4 1.344(9) . ?
N15 C5 1.364(9) . ?
N16 N17 1.342(8) . ?
N16 C10 1.355(8) . ?
N17 N18 1.335(7) . ?
N17 Cu4 1.946(6) 1_454 ?
N18 N19 1.340(7) . ?
N18 Cu3 1.983(6) 1_445 ?
N19 C10 1.355(9) . ?
N20 C16 1.342(8) . ?
N20 C17 1.360(9) . ?
C1 C2 1.485(9) . ?
C2 C3 1.389(10) . ?
C2 C6 1.394(9) . ?
C3 C4 1.395(10) . ?
C3 H3 0.9500 . ?
C4 H4 0.9500 . ?
C5 C6 1.378(10) . ?
C5 H5 0.9500 . ?
C6 H6 0.9500 . ?
C7 C8 1.386(10) . ?
C7 H7 0.9500 . ?
C8 C9 1.379(10) . ?
C8 H8 0.9500 . ?
C9 C11 1.386(9) . ?
C9 C10 1.469(10) . ?
C11 C12 1.374(10) . ?
C11 H11 0.9500 . ?
C12 H12 0.9500 . ?
C13 C14 1.452(9) . ?
C14 C15 1.380(10) . ?
C14 C18 1.393(9) . ?
C15 C16 1.369(10) . ?
C15 H15 0.9500 . ?
C16 H16 0.9500 . ?
C17 C18 1.374(10) . ?
C17 H17 0.9500 . ?
C18 H18 0.9500 . ?
C19 C20 1.361(10) . ?
C19 H19 0.9500 . ?
C20 C21 1.390(10) . ?
C20 H20 0.9500 . ?
C21 C23 1.388(10) . ?
C21 C22 1.458(10) . ?
C23 C24 1.387(10) . ?
C23 H23 0.9500 . ?
C24 H24 0.9500 . ?
C25 O2 1.381(12) . ?
C25 C26 1.499(17) . ?
C25 H25A 0.9900 . ?
C25 H25B 0.9900 . ?
C26 H26A 0.9800 . ?
C26 H26B 0.9800 . ?
C26 H26C 0.9800 . ?
C27 O1 1.417(11) . ?
C27 C28 1.531(12) . ?
C27 H27A 0.9900 . ?
C27 H27B 0.9900 . ?
C28 H28A 0.9800 . ?
C28 H28B 0.9800 . ?
C28 H28C 0.9800 . ?
O1 H1 0.8400 . ?
O2 H2 0.8400 . ?

loop_
_geom_angle_atom_site_label_1
_geom_angle_atom_site_label_2
_geom_angle_atom_site_label_3
_geom_angle
_geom_angle_site_symmetry_1
_geom_angle_site_symmetry_3
_geom_angle_publ_flag
N1 Cu1 N10 127.1(3) . . ?
N1 Cu1 N9 117.8(3) . . ?
N10 Cu1 N9 115.1(2) . . ?
N6 Cu2 N5 127.1(3) . . ?
N6 Cu2 N4 116.9(3) . . ?
N5 Cu2 N4 116.0(2) . . ?
N12 Cu3 N15 126.7(2) 1_454 . ?
N12 Cu3 N18 117.3(2) 