####################################################################### 
# 
# This file contains crystal structure data downloaded from the 
# Cambridge Structural Database (CSD) hosted by the Cambridge 
# Crystallographic Data Centre (CCDC).
# 
# Full information about CCDC data access policies and citation 
# guidelines are available at http://www.ccdc.cam.ac.uk/access/V1 
# 
# Audit and citation data items may have been added by the CCDC. 
# Please retain this information to preserve the provenance of 
# this file and to allow appropriate attribution of the data. 
# 
#######################################################################

data_1b-rm
_audit_block_doi                 10.5517/cczyvk9
_database_code_depnum_ccdc_archive 'CCDC 922422'
loop_
_citation_id
_citation_doi
_citation_year
1 10.1002/chem.201303991 2014
_audit_update_record             
;
2013-01-30 deposited with the CCDC.	2024-07-13 downloaded from the CCDC.
;
#TrackingRef 'cifs.cif'


_audit_creation_method           SHELXL-97
_chemical_name_systematic        
;
?
;
_chemical_name_common            ?
_chemical_melting_point          ?
_chemical_formula_moiety         ?
_chemical_formula_sum            'C24 H16 Cu4 N20'
_chemical_formula_weight         838.73

loop_
_atom_type_symbol
_atom_type_description
_atom_type_scat_dispersion_real
_atom_type_scat_dispersion_imag
_atom_type_scat_source
C C 0.0033 0.0016 'International Tables Vol C Tables 4.2.6.8 and 6.1.1.4'
H H 0.0000 0.0000 'International Tables Vol C Tables 4.2.6.8 and 6.1.1.4'
N N 0.0061 0.0033 'International Tables Vol C Tables 4.2.6.8 and 6.1.1.4'
Cu Cu 0.3201 1.2651 'International Tables Vol C Tables 4.2.6.8 and 6.1.1.4'

_symmetry_cell_setting           Triclinic
_symmetry_space_group_name_H-M   P-1

loop_
_symmetry_equiv_pos_as_xyz
'x, y, z'
'-x, -y, -z'

_cell_length_a                   7.2059(2)
_cell_length_b                   15.3431(4)
_cell_length_c                   15.9791(5)
_cell_angle_alpha                95.315(2)
_cell_angle_beta                 96.638(2)
_cell_angle_gamma                98.272(2)
_cell_volume                     1725.80(9)
_cell_formula_units_Z            2
_cell_measurement_temperature    293(2)
_cell_measurement_reflns_used    9235
_cell_measurement_theta_min      2.8755
_cell_measurement_theta_max      29.4689

_exptl_crystal_description       block
_exptl_crystal_colour            light-yellwo
_exptl_crystal_size_max          0.18
_exptl_crystal_size_mid          0.15
_exptl_crystal_size_min          0.13
_exptl_crystal_density_meas      ?
_exptl_crystal_density_diffrn    1.614
_exptl_crystal_density_method    'not measured'
_exptl_crystal_F_000             832
_exptl_absorpt_coefficient_mu    2.480
_exptl_absorpt_correction_type   multi-scan
_exptl_absorpt_correction_T_min  0.6638
_exptl_absorpt_correction_T_max  0.7387
_exptl_absorpt_process_details   
;
CrysAlisPro, Oxford Diffraction Ltd.,
Version 1.171.34.44 (release 25-10-2010 CrysAlis171 .NET)
(compiled Oct 25 2010,18:11:34)
Empirical absorption correction using spherical harmonics,
implemented in SCALE3 ABSPACK scaling algorithm.
;
_exptl_special_details           
;
Large voids within the structure are filled with ill defined solvate molecules
(ethanol and DMF)and no suitable model for these molecules could be deduced. The
electron density within the voids was thus instead corrected for using the
Squeeze algorithm implemented in Platon (see Squeeze report appended to this
cif file).
;

_diffrn_ambient_temperature      293(2)
_diffrn_radiation_wavelength     0.71073
_diffrn_radiation_type           MoK\a
_diffrn_radiation_source         "Enhance (Mo) X-ray Source'"
_diffrn_radiation_monochromator  graphite
_diffrn_measurement_device_type  'Xcalibur, Atlas, Gemini'
_diffrn_measurement_method       '\w scans'
_diffrn_detector_area_resol_mean 10.4098
_diffrn_standards_number         ?
_diffrn_standards_interval_count ?
_diffrn_standards_interval_time  ?
_diffrn_standards_decay_%        ?
_diffrn_reflns_number            24834
_diffrn_reflns_av_R_equivalents  0.0351
_diffrn_reflns_av_sigmaI/netI    0.0324
_diffrn_reflns_limit_h_min       -8
_diffrn_reflns_limit_h_max       8
_diffrn_reflns_limit_k_min       -18
_diffrn_reflns_limit_k_max       18
_diffrn_reflns_limit_l_min       -18
_diffrn_reflns_limit_l_max       18
_diffrn_reflns_theta_min         2.88
_diffrn_reflns_theta_max         24.71
_reflns_number_total             5883
_reflns_number_gt                4317
_reflns_threshold_expression     >2sigma(I)

_computing_data_collection       
;
CrysAlisPro, Oxford Diffraction Ltd.,
Version 1.171.34.44 (release 25-10-2010 CrysAlis171 .NET)
(compiled Oct 25 2010,18:11:34)
;
_computing_cell_refinement       
;
CrysAlisPro, Oxford Diffraction Ltd.,
Version 1.171.34.44 (release 25-10-2010 CrysAlis171 .NET)
(compiled Oct 25 2010,18:11:34)
;
_computing_data_reduction        
;
CrysAlisPro, Oxford Diffraction Ltd.,
Version 1.171.34.44 (release 25-10-2010 CrysAlis171 .NET)
(compiled Oct 25 2010,18:11:34)
;
_computing_structure_solution    'SHELXS-97 (Sheldrick, 1990)'
_computing_structure_refinement  'SHELXL-97 (Sheldrick, 1997)'
_computing_molecular_graphics    Olex-2
_computing_publication_material  Olex-2

_refine_special_details          
;
Refinement of F^2^ against ALL reflections. The weighted R-factor wR and
goodness of fit S are based on F^2^, conventional R-factors R are based
on F, with F set to zero for negative F^2^. The threshold expression of
F^2^ > 2sigma(F^2^) is used only for calculating R-factors(gt) etc. and is
not relevant to the choice of reflections for refinement. R-factors based
on F^2^ are statistically about twice as large as those based on F, and R-
factors based on ALL data will be even larger.
;

_refine_ls_structure_factor_coef Fsqd
_refine_ls_matrix_type           full
_refine_ls_weighting_scheme      calc
_refine_ls_weighting_details     
'calc w=1/[\s^2^(Fo^2^)+(0.0877P)^2^+1.8826P] where P=(Fo^2^+2Fc^2^)/3'
_atom_sites_solution_primary     direct
_atom_sites_solution_secondary   difmap
_atom_sites_solution_hydrogens   geom
_refine_ls_hydrogen_treatment    mixed
_refine_ls_extinction_method     none
_refine_ls_extinction_coef       ?
_refine_ls_number_reflns         5883
_refine_ls_number_parameters     433
_refine_ls_number_restraints     0
_refine_ls_R_factor_all          0.0657
_refine_ls_R_factor_gt           0.0500
_refine_ls_wR_factor_ref         0.1578
_refine_ls_wR_factor_gt          0.1497
_refine_ls_goodness_of_fit_ref   1.071
_refine_ls_restrained_S_all      1.071
_refine_ls_shift/su_max          0.001
_refine_ls_shift/su_mean         0.000

loop_
_atom_site_label
_atom_site_type_symbol
_atom_site_fract_x
_atom_site_fract_y
_atom_site_fract_z
_atom_site_U_iso_or_equiv
_atom_site_adp_type
_atom_site_occupancy
_atom_site_symmetry_multiplicity
_atom_site_calc_flag
_atom_site_refinement_flags
_atom_site_disorder_assembly
_atom_site_disorder_group
C1 C 0.5714(6) 0.3733(3) 0.9418(3) 0.0295(10) Uani 1 1 d . . .
C2 C 0.6959(6) 0.4372(3) 1.0068(3) 0.0294(10) Uani 1 1 d . . .
C3 C 0.7594(6) 0.5224(3) 0.9912(3) 0.0304(10) Uani 1 1 d . . .
H3 H 0.7248 0.5409 0.9387 0.036 Uiso 1 1 calc R . .
C4 C 0.8735(6) 0.5797(3) 1.0531(3) 0.0341(11) Uani 1 1 d . . .
H4 H 0.9149 0.6370 1.0413 0.041 Uiso 1 1 calc R . .
C5 C 0.8660(7) 0.4738(3) 1.1452(3) 0.0401(12) Uani 1 1 d . . .
H5 H 0.9020 0.4564 1.1982 0.048 Uiso 1 1 calc R . .
C6 C 0.7509(7) 0.4134(3) 1.0852(3) 0.0396(12) Uani 1 1 d . . .
H6 H 0.7106 0.3563 1.0979 0.048 Uiso 1 1 calc R . .
C7 C 0.1619(7) 0.3503(3) 0.5514(3) 0.0384(11) Uani 1 1 d . . .
H7 H 0.0999 0.2923 0.5383 0.046 Uiso 1 1 calc R . .
C8 C 0.1598(7) 0.4069(3) 0.4884(3) 0.0381(11) Uani 1 1 d . . .
H8 H 0.0982 0.3867 0.4341 0.046 Uiso 1 1 calc R . .
C9 C 0.2507(6) 0.4942(3) 0.5071(3) 0.0315(10) Uani 1 1 d . . .
C10 C 0.2524(6) 0.5562(3) 0.4431(3) 0.0317(10) Uani 1 1 d . . .
C11 C 0.3406(7) 0.5199(3) 0.5890(3) 0.0384(11) Uani 1 1 d . . .
H11 H 0.4028 0.5777 0.6040 0.046 Uiso 1 1 calc R . .
C12 C 0.3377(7) 0.4592(3) 0.6488(3) 0.0396(12) Uani 1 1 d . . .
H12 H 0.3992 0.4773 0.7034 0.048 Uiso 1 1 calc R . .
C13 C 0.6357(6) 0.9555(3) 0.4231(3) 0.0297(10) Uani 1 1 d . . .
H13 H 0.6011 0.9724 0.3698 0.036 Uiso 1 1 calc R . .
C14 C 0.7489(6) 1.0159(3) 0.4823(3) 0.0302(10) Uani 1 1 d . . .
H14 H 0.7895 1.0725 0.4687 0.036 Uiso 1 1 calc R . .
C15 C 0.8038(6) 0.9936(3) 0.5618(3) 0.0290(10) Uani 1 1 d . . .
C16 C 0.9271(6) 1.0574(3) 0.6262(3) 0.0307(10) Uani 1 1 d . . .
C17 C 0.7396(7) 0.9073(3) 0.5779(3) 0.0382(11) Uani 1 1 d . . .
H17 H 0.7738 0.8890 0.6306 0.046 Uiso 1 1 calc R . .
C18 C 0.6266(7) 0.8499(3) 0.5161(3) 0.0411(12) Uani 1 1 d . . .
H18 H 0.5860 0.7926 0.5280 0.049 Uiso 1 1 calc R . .
C19 C 0.2515(6) 0.8757(3) 0.1259(3) 0.0296(10) Uani 1 1 d . . .
C20 C 0.2502(6) 0.9374(3) 0.0620(3) 0.0300(10) Uani 1 1 d . . .
C21 C 0.1587(7) 0.9114(3) -0.0198(3) 0.0363(11) Uani 1 1 d . . .
H21 H 0.0973 0.8535 -0.0348 0.044 Uiso 1 1 calc R . .
C22 C 0.1592(6) 0.9718(3) -0.0788(3) 0.0356(11) Uani 1 1 d . . .
H22 H 0.0958 0.9534 -0.1330 0.043 Uiso 1 1 calc R . .
C23 C 0.3361(6) 1.0803(3) 0.0178(3) 0.0345(11) Uani 1 1 d . . .
H23 H 0.3982 1.1383 0.0310 0.041 Uiso 1 1 calc R . .
C24 C 0.3400(6) 1.0242(3) 0.0798(3) 0.0347(11) Uani 1 1 d . . .
H24 H 0.4029 1.0445 0.1337 0.042 Uiso 1 1 calc R . .
Cu1 Cu 0.24560(9) 0.13848(4) 0.85262(4) 0.0398(2) Uani 1 1 d . . .
Cu2 Cu 0.25453(8) 0.29169(4) 0.71555(3) 0.0349(2) Uani 1 1 d . . .
Cu3 Cu 0.10384(9) 0.63954(4) 0.21488(4) 0.0385(2) Uani 1 1 d . . .
Cu4 Cu 0.39910(9) 0.79042(4) 0.35241(4) 0.0380(2) Uani 1 1 d . . .
N1 N 0.3885(5) 0.2594(2) 0.8841(2) 0.0317(9) Uani 1 1 d . . .
N2 N 0.4062(5) 0.3181(2) 0.8274(2) 0.0315(9) Uani 1 1 d . . .
N3 N 0.5230(5) 0.3908(3) 0.8630(2) 0.0335(9) Uani 1 1 d . . .
N4 N 0.4925(5) 0.2937(2) 0.9571(2) 0.0334(9) Uani 1 1 d . . .
N5 N 0.9281(5) 0.5571(3) 1.1299(2) 0.0327(9) Uani 1 1 d . . .
N6 N 0.2495(5) 0.3757(3) 0.6302(2) 0.0353(9) Uani 1 1 d . . .
N7 N 0.1681(6) 0.5344(3) 0.3621(2) 0.0375(10) Uani 1 1 d . . .
N8 N 0.2019(5) 0.6100(3) 0.3265(2) 0.0341(9) Uani 1 1 d . . .
N9 N 0.3026(6) 0.6733(3) 0.3841(2) 0.0376(10) Uani 1 1 d . . .
N10 N 0.3339(5) 0.6399(3) 0.4575(2) 0.0347(9) Uani 1 1 d . . .
N11 N 0.5714(5) 0.8721(2) 0.4390(2) 0.0323(9) Uani 1 1 d . . .
N12 N 0.9843(5) 1.1409(2) 0.6148(2) 0.0327(9) Uani 1 1 d . . .
N13 N 1.0978(5) 1.1739(2) 0.6859(2) 0.0321(9) Uani 1 1 d . . .
N14 N 1.1071(5) 1.1101(2) 0.7378(2) 0.0314(9) Uani 1 1 d . . .
N15 N 1.0002(5) 1.0361(3) 0.7005(2) 0.0340(9) Uani 1 1 d . . .
N16 N 0.1890(5) 0.7597(3) 0.1865(2) 0.0328(9) Uani 1 1 d . . .
N17 N 0.1449(5) 0.7942(3) 0.1135(2) 0.0340(9) Uani 1 1 d . . .
N18 N 0.3581(5) 0.8924(3) 0.2020(2) 0.0338(9) Uani 1 1 d . . .
N19 N 0.3154(5) 0.8183(2) 0.2386(2) 0.0307(9) Uani 1 1 d . . .
N20 N 0.2464(5) 1.0553(3) -0.0615(2) 0.0316(9) Uani 1 1 d . . .

loop_
_atom_site_aniso_label
_atom_site_aniso_U_11
_atom_site_aniso_U_22
_atom_site_aniso_U_33
_atom_site_aniso_U_23
_atom_site_aniso_U_13
_atom_site_aniso_U_12
C1 0.029(2) 0.028(3) 0.029(2) 0.0014(19) -0.0022(19) 0.0021(19)
C2 0.028(2) 0.028(3) 0.032(2) 0.0027(19) 0.0026(19) 0.0034(18)
C3 0.033(2) 0.030(3) 0.025(2) 0.0029(19) -0.0064(18) 0.002(2)
C4 0.034(2) 0.030(3) 0.036(3) 0.001(2) 0.001(2) 0.003(2)
C5 0.056(3) 0.035(3) 0.024(2) 0.010(2) -0.006(2) -0.006(2)
C6 0.052(3) 0.026(3) 0.033(3) 0.005(2) -0.007(2) -0.014(2)
C7 0.050(3) 0.025(3) 0.036(3) 0.006(2) -0.002(2) -0.005(2)
C8 0.051(3) 0.033(3) 0.027(2) 0.012(2) -0.005(2) 0.001(2)
C9 0.029(2) 0.029(3) 0.036(3) 0.010(2) 0.0028(19) 0.0006(19)
C10 0.032(2) 0.029(3) 0.033(3) 0.008(2) 0.003(2) 0.002(2)
C11 0.050(3) 0.032(3) 0.031(3) 0.011(2) -0.001(2) -0.002(2)
C12 0.047(3) 0.037(3) 0.029(3) 0.006(2) -0.009(2) -0.008(2)
C13 0.035(2) 0.031(3) 0.021(2) 0.0064(19) 0.0009(18) -0.004(2)
C14 0.031(2) 0.027(3) 0.030(2) 0.0041(19) 0.0001(19) -0.0040(19)
C15 0.027(2) 0.027(3) 0.033(2) 0.0041(19) 0.0034(19) 0.0040(18)
C16 0.027(2) 0.032(3) 0.030(3) -0.001(2) 0.0005(19) -0.0006(19)
C17 0.046(3) 0.037(3) 0.026(2) 0.004(2) -0.012(2) 0.001(2)
C18 0.050(3) 0.027(3) 0.039(3) -0.001(2) -0.011(2) -0.005(2)
C19 0.033(2) 0.023(2) 0.029(2) 0.0005(19) 0.0005(19) -0.0013(19)
C20 0.027(2) 0.032(3) 0.030(2) 0.008(2) 0.0034(19) 0.0023(19)
C21 0.043(3) 0.028(3) 0.035(3) 0.006(2) -0.002(2) -0.003(2)
C22 0.042(3) 0.030(3) 0.030(3) 0.007(2) -0.005(2) -0.004(2)
C23 0.036(3) 0.025(3) 0.038(3) 0.003(2) -0.001(2) -0.004(2)
C24 0.041(3) 0.030(3) 0.029(3) 0.005(2) -0.005(2) -0.004(2)
Cu1 0.0542(4) 0.0300(4) 0.0280(3) 0.0096(3) -0.0110(3) -0.0085(3)
Cu2 0.0473(4) 0.0275(4) 0.0254(3) 0.0080(3) -0.0060(3) -0.0040(3)
Cu3 0.0501(4) 0.0295(4) 0.0276(3) 0.0048(3) -0.0101(3) -0.0104(3)
Cu4 0.0493(4) 0.0289(4) 0.0276(3) 0.0037(3) -0.0107(3) -0.0087(3)
N1 0.040(2) 0.026(2) 0.024(2) 0.0029(16) -0.0048(16) -0.0061(17)
N2 0.044(2) 0.026(2) 0.0216(19) 0.0078(16) -0.0044(17) -0.0014(17)
N3 0.037(2) 0.028(2) 0.029(2) 0.0015(17) -0.0058(17) -0.0070(17)
N4 0.041(2) 0.023(2) 0.031(2) 0.0015(16) -0.0027(17) -0.0055(17)
N5 0.033(2) 0.031(2) 0.030(2) 0.0045(17) -0.0086(16) 0.0014(17)
N6 0.043(2) 0.032(2) 0.028(2) 0.0086(17) -0.0037(17) -0.0015(18)
N7 0.054(2) 0.032(2) 0.027(2) 0.0147(18) 0.0007(18) 0.0045(19)
N8 0.043(2) 0.028(2) 0.026(2) 0.0091(17) -0.0072(17) -0.0060(18)
N9 0.048(2) 0.036(2) 0.028(2) 0.0151(19) -0.0030(18) 0.0012(19)
N10 0.044(2) 0.031(2) 0.026(2) 0.0097(17) -0.0048(17) -0.0012(18)
N11 0.036(2) 0.025(2) 0.029(2) -0.0012(16) -0.0119(16) -0.0015(16)
N12 0.037(2) 0.026(2) 0.030(2) 0.0001(16) -0.0038(17) -0.0043(17)
N13 0.042(2) 0.025(2) 0.025(2) 0.0057(16) -0.0016(17) -0.0065(17)
N14 0.040(2) 0.026(2) 0.024(2) 0.0047(16) -0.0038(16) -0.0044(17)
N15 0.042(2) 0.028(2) 0.026(2) 0.0020(17) -0.0069(17) -0.0052(17)
N16 0.043(2) 0.029(2) 0.025(2) 0.0079(17) -0.0010(17) -0.0009(17)
N17 0.043(2) 0.023(2) 0.031(2) 0.0076(17) -0.0052(17) -0.0051(17)
N18 0.043(2) 0.035(2) 0.0203(19) 0.0080(17) -0.0068(16) 0.0000(18)
N19 0.038(2) 0.024(2) 0.027(2) 0.0073(17) -0.0031(17) -0.0045(17)
N20 0.037(2) 0.031(2) 0.025(2) 0.0107(16) -0.0029(16) 0.0001(17)

_geom_special_details            
;
All esds (except the esd in the dihedral angle between two l.s. planes)
are estimated using the full covariance matrix. The cell esds are taken
into account individually in the estimation of esds in distances, angles
and torsion angles; correlations between esds in cell parameters are only
used when they are defined by crystal symmetry. An approximate (isotropic)
treatment of cell esds is used for estimating esds involving l.s. planes.
;

loop_
_geom_bond_atom_site_label_1
_geom_bond_atom_site_label_2
_geom_bond_distance
_geom_bond_site_symmetry_2
_geom_bond_publ_flag
C1 N4 1.327(6) . ?
C1 N3 1.329(6) . ?
C1 C2 1.480(6) . ?
C2 C6 1.367(7) . ?
C2 C3 1.376(6) . ?
C3 C4 1.368(7) . ?
C3 H3 0.9300 . ?
C4 N5 1.337(6) . ?
C4 H4 0.9300 . ?
C5 N5 1.347(6) . ?
C5 C6 1.378(7) . ?
C5 H5 0.9300 . ?
C6 H6 0.9300 . ?
C7 N6 1.338(6) . ?
C7 C8 1.390(7) . ?
C7 H7 0.9300 . ?
C8 C9 1.393(7) . ?
C8 H8 0.9300 . ?
C9 C11 1.386(7) . ?
C9 C10 1.460(6) . ?
C10 N10 1.320(6) . ?
C10 N7 1.356(6) . ?
C11 C12 1.396(7) . ?
C11 H11 0.9300 . ?
C12 N6 1.335(6) . ?
C12 H12 0.9300 . ?
C13 N11 1.354(6) . ?
C13 C14 1.363(6) . ?
C13 H13 0.9300 . ?
C14 C15 1.375(6) . ?
C14 H14 0.9300 . ?
C15 C17 1.395(7) . ?
C15 C16 1.468(6) . ?
C16 N12 1.324(6) . ?
C16 N15 1.332(6) . ?
C17 C18 1.364(7) . ?
C17 H17 0.9300 . ?
C18 N11 1.340(6) . ?
C18 H18 0.9300 . ?
C19 N18 1.343(6) . ?
C19 N17 1.355(6) . ?
C19 C20 1.455(6) . ?
C20 C24 1.383(7) . ?
C20 C21 1.390(7) . ?
C21 C22 1.381(7) . ?
C21 H21 0.9300 . ?
C22 N20 1.332(6) . ?
C22 H22 0.9300 . ?
C23 N20 1.349(6) . ?
C23 C24 1.372(7) . ?
C23 H23 0.9300 . ?
C24 H24 0.9300 . ?
Cu1 N20 1.959(4) 1_546 ?
Cu1 N14 1.963(4) 1_445 ?
Cu1 N1 1.978(4) . ?
Cu2 N2 1.959(4) . ?
Cu2 N6 1.963(4) . ?
Cu2 N13 1.974(4) 1_445 ?
Cu3 N8 1.959(4) . ?
Cu3 N5 1.967(4) 1_454 ?
Cu3 N16 1.969(4) . ?
Cu4 N19 1.954(4) . ?
Cu4 N11 1.965(4) . ?
Cu4 N9 1.964(4) . ?
N1 N4 1.331(5) . ?
N1 N2 1.338(5) . ?
N2 N3 1.334(5) . ?
N5 Cu3 1.967(4) 1_656 ?
N7 N8 1.342(5) . ?
N8 N9 1.340(6) . ?
N9 N10 1.333(5) . ?
N12 N13 1.333(5) . ?
N13 N14 1.345(5) . ?
N13 Cu2 1.974(4) 1_665 ?
N14 N15 1.325(5) . ?
N14 Cu1 1.963(4) 1_665 ?
N16 N19 1.335(6) . ?
N16 N17 1.347(5) . ?
N18 N19 1.339(5) . ?
N20 Cu1 1.959(4) 1_564 ?

loop_
_geom_angle_atom_site_label_1
_geom_angle_atom_site_label_2
_geom_angle_atom_site_label_3
_geom_angle
_geom_angle_site_symmetry_1
_geom_angle_site_symmetry_3
_geom_angle_publ_flag
N4 C1 N3 113.3(4) . . ?
N4 C1 C2 123.3(4) . . ?
N3 C1 C2 123.4(4) . . ?
C6 C2 C3 117.7(4) . . ?
C6 C2 C1 120.7(4) . . ?
C3 C2 C1 121.6(4) . . ?
C4 C3 C2 119.9(4) . . ?
C4 C3 H3 120.0 . . ?
C2 C3 H3 120.0 . . ?
N5 C4 C3 122.9(4) . . ?
N5 C4 H4 118.6 . . ?
C3 C4 H4 118.6 . . ?
N5 C5 C6 122.2(4) . . ?
N5 C5 H5 118.9 . . ?
C6 C5 H5 118.9 . . ?
C2 C6 C5 120.0(4) . . ?
C2 C6 H6 120.0 . . ?
C5 C6 H6 120.0 . . ?
N6 C7 C8 122.7(5) . . ?
N6 C7 H7 118.6 . . ?
C8 C7 H7 118.6 . . ?
C7 C8 C9 119.4(5) . . ?
C7 C8 H8 120.3 . . ?
C9 C8 H8 120.3 . . ?
C11 C9 C8 117.4(4) . . ?
C11 C9 C10 121.2(4) . . ?
C8 C9 C10 121.4(4) . . ?
N10 C10 N7 112.3(4) . . ?
N10 C10 C9 124.1(4) . . ?
N7 C10 C9 123.6(4) . . ?
C9 C11 C12 120.0(5) . . ?
C9 C11 H11 120.0 . . ?
C12 C11 H11 120.0 . . ?
N6 C12 C11 122.1(4) . . ?
N6 C12 H12 119.0 . . ?
C11 C12 H12 119.0 . . ?
N11 C13 C14 122.6(4) . . ?
N11 C13 H13 118.7 . . ?
C14 C13 H13 118.7 . . ?
C13 C14 C15 120.6(4) . . ?
C13 C14 H14 119.7 . . ?
C15 C14 H14 119.7 . . ?
C14 C15 C17 116.9(4) . . ?
C14 C15 C16 121.4(4) . . ?
C17 C15 C16 121.7(4) . . ?
N12 C16 N15 112.9(4) . . ?
N12 C16 C15 123.6(4) . . ?
N15 C16 C15 123.4(4) . . ?
C18 C17 C15 119.8(4) . . ?
C18 C17 H17 120.1 . . ?
C15 C17 H17 120.1 . . ?
N11 C18 C17 123.2(5) . . ?
N11 C18 H18 118.4 . . ?
C17 C18 H18 118.4 . . ?
N18 C19 N17 113.1(4) . . ?
N18 C19 C20 124.3(4) . . ?
N17 C19 C20 122.6(4) . . ?
C24 C20 C21 117.1(4) . . ?
C24 C20 C19 121.6(4) . . ?
C21 C20 C19 121.3(4) . . ?
C22 C21 C20 119.8(4) . . ?
C22 C21 H21 120.1 . . ?
C20 C21 H21 120.1 . . ?
N20 C22 C21 123.0(4) . . ?
N20 C22 H22 118.5 . . ?
C21 C22 H22 118.5 . . ?
N20 C23 C24 123.0(4) . . ?
N20 C23 H23 118.5 . . ?
C24 C23 H23 118.5 . . ?
C23 C24 C20 119.9(4) . . ?
C23 C24 H24 120.0 . . ?
C20 C24 H24 120.0 . . ?
N20 Cu1 N14 124.00(16) 1_546 1_445 ?
N20 Cu1 N1 118.13(16) 1_546 . ?
N14 Cu1 N1 117.86(15) 1_445 . ?
N2 Cu2 N6 123.80(16) . . ?
N2 Cu2 N13 118.61(15) . 1_445 ?
N6 Cu2 N13 117.60(16) . 1_445 ?
N8 Cu3 N5 124.31(16) . 1_454 ?
N8 Cu3 N16 117.38(16) . . ?
N5 Cu3 N16 118.31(16) 1_454 . ?
N19 Cu4 N11 124.65(16) . . ?
N19 Cu4 N9 118.22(16) . . ?
N11 Cu4 N9 117.13(16) . . ?
N4 N1 N2 109.2(4) . . ?
N4 N1 Cu1 128.8(3) . . ?
N2 N1 Cu1 121.8(3) . . ?
N3 N2 N1 109.4(3) . . ?
N3 N2 Cu2 131.0(3) . . ?
N1 N2 Cu2 119.5(3) . . ?
C1 N3 N2 103.9(4) . . ?
C1 N4 N1 104.2(4) . . ?
C4 N5 C5 117.2(4) . . ?
C4 N5 Cu3 121.5(3) . 1_656 ?
C5 N5 Cu3 121.1(3) . 1_656 ?
C12 N6 C7 118.4(4) . . ?
C12 N6 Cu2 120.7(3) . . ?
C7 N6 Cu2 120.9(3) . . ?
N8 N7 C10 103.7(4) . . ?
N9 N8 N7 109.5(4) . . ?
N9 N8 Cu3 120.0(3) . . ?
N7 N8 Cu3 130.0(3) . . ?
N10 N9 N8 109.0(4) . . ?
N10 N9 Cu4 129.5(3) . . ?
N8 N9 Cu4 121.2(3) . . ?
C10 N10 N9 105.4(4) . . ?
C18 N11 C13 116.9(4) . . ?
C18 N11 Cu4 122.7(3) . . ?
C13 N11 Cu4 120.4(3) . . ?
C16 N12 N13 104.3(4) . . ?
N12 N13 N14 109.2(4) . . ?
N12 N13 Cu2 129.6(3) . 1_665 ?
N14 N13 Cu2 121.0(3) . 1_665 ?
N15 N14 N13 109.0(3) . . ?
N15 N14 Cu1 130.7(3) . 1_665 ?
N13 N14 Cu1 120.0(3) . 1_665 ?
N14 N15 C16 104.6(4) . . ?
N19 N16 N17 109.6(4) . . ?
N19 N16 Cu3 122.2(3) . . ?
N17 N16 Cu3 128.0(3) . . ?
N16 N17 C19 103.4(4) . . ?
C19 N18 N19 103.7(4) . . ?
N16 N19 N18 110.2(4) . . ?
N16 N19 Cu4 119.7(3) . . ?
N18 N19 Cu4 130.0(3) . . ?
C22 N20 C23 117.2(4) . . ?
C22 N20 Cu1 121.7(3) . 1_564 ?
C23 N20 Cu1 121.2(3) . 1_564 ?

loop_
_geom_torsion_atom_site_label_1
_geom_torsion_atom_site_label_2
_geom_torsion_atom_site_label_3
_geom_torsion_atom_site_label_4
_geom_torsion
_geom_torsion_site_symmetry_1
_geom_torsion_site_symmetry_2
_geom_torsion_site_symmetry_3
_geom_torsion_site_symmetry_4
_geom_torsion_publ_flag
N4 C1 C2 C6 6.4(7) . . . . ?
N3 C1 C2 C6 -175.6(4) . . . . ?
N4 C1 C2 C3 -173.2(4) . . . . ?
N3 C1 C2 C3 4.8(6) . . . . ?
C6 C2 C3 C4 0.0(6) . . . . ?
C1 C2 C3 C4 179.7(4) . . . . ?
C2 C3 C4 N5 0.0(7) . . . . ?
C3 C2 C6 C5 0.0(7) . . . . ?
C1 C2 C6 C5 -179.6(4) . . . . ?
N5 C5 C6 C2 0.0(8) . . . . ?
N6 C7 C8 C9 -0.5(8) . . . . ?
C7 C8 C9 C11 0.3(7) . . . . ?
C7 C8 C9 C10 -180.0(4) . . . . ?
C11 C9 C10 N10 -1.2(7) . . . . ?
C8 C9 C10 N10 179.1(4) . . . . ?
C11 C9 C10 N7 179.5(4) . . . . ?
C8 C9 C10 N7 -0.2(7) . . . . ?
C8 C9 C11 C12 0.1(7) . . . . ?
C10 C9 C11 C12 -179.7(4) . . . . ?
C9 C11 C12 N6 -0.3(8) . . . . ?
N11 C13 C14 C15 0.2(7) . . . . ?
C13 C14 C15 C17 0.6(6) . . . . ?
C13 C14 C15 C16 179.5(4) . . . . ?
C14 C15 C16 N12 4.2(6) . . . . ?
C17 C15 C16 N12 -176.9(4) . . . . ?
C14 C15 C16 N15 -172.5(4) . . . . ?
C17 C15 C16 N15 6.3(7) . . . . ?
C14 C15 C17 C18 -0.5(7) . . . . ?
C16 C15 C17 C18 -179.4(4) . . . . ?
C15 C17 C18 N11 -0.3(8) . . . . ?
N18 C19 C20 C24 -9.7(7) . . . . ?
N17 C19 C20 C24 171.3(4) . . . . ?
N18 C19 C20 C21 170.3(4) . . . . ?
N17 C19 C20 C21 -8.8(7) . . . . ?
C24 C20 C21 C22 -0.5(7) . . . . ?
C19 C20 C21 C22 179.6(4) . . . . ?
C20 C21 C22 N20 0.8(7) . . . . ?
N20 C23 C24 C20 0.5(7) . . . . ?
C21 C20 C24 C23 -0.1(7) . . . . ?
C19 C20 C24 C23 179.8(4) . . . . ?
N20 Cu1 N1 N4 1.6(4) 1_546 . . . ?
N14 Cu1 N1 N4 -179.7(3) 1_445 . . . ?
N20 Cu1 N1 N2 175.1(3) 1_546 . . . ?
N14 Cu1 N1 N2 -6.1(4) 1_445 . . . ?
N4 N1 N2 N3 0.4(5) . . . . ?
Cu1 N1 N2 N3 -174.2(3) . . . . ?
N4 N1 N2 Cu2 -175.2(3) . . . . ?
Cu1 N1 N2 Cu2 10.2(4) . . . . ?
N6 Cu2 N2 N3 -0.1(5) . . . . ?
N13 Cu2 N2 N3 179.7(3) 1_445 . . . ?
N6 Cu2 N2 N1 174.4(3) . . . . ?
N13 Cu2 N2 N1 -5.8(4) 1_445 . . . ?
N4 C1 N3 N2 0.5(5) . . . . ?
C2 C1 N3 N2 -177.7(4) . . . . ?
N1 N2 N3 C1 -0.5(5) . . . . ?
Cu2 N2 N3 C1 174.4(3) . . . . ?
N3 C1 N4 N1 -0.2(5) . . . . ?
C2 C1 N4 N1 178.0(4) . . . . ?
N2 N1 N4 C1 -0.1(5) . . . . ?
Cu1 N1 N4 C1 174.0(3) . . . . ?
C3 C4 N5 C5 0.0(7) . . . . ?
C3 C4 N5 Cu3 176.5(3) . . . 1_656 ?
C6 C5 N5 C4 0.0(7) . . . . ?
C6 C5 N5 Cu3 -176.5(4) . . . 1_656 ?
C11 C12 N6 C7 0.2(7) . . . . ?
C11 C12 N6 Cu2 178.4(4) . . . . ?
C8 C7 N6 C12 0.2(7) . . . . ?
C8 C7 N6 Cu2 -178.0(4) . . . . ?
N2 Cu2 N6 C12 -6.6(4) . . . . ?
N13 Cu2 N6 C12 173.6(3) 1_445 . . . ?
N2 Cu2 N6 C7 171.6(3) . . . . ?
N13 Cu2 N6 C7 -8.1(4) 1_445 . . . ?
N10 C10 N7 N8 -0.1(5) . . . . ?
C9 C10 N7 N8 179.3(4) . . . . ?
C10 N7 N8 N9 0.4(5) . . . . ?
C10 N7 N8 Cu3 -171.9(3) . . . . ?
N5 Cu3 N8 N9 -172.0(3) 1_454 . . . ?
N16 Cu3 N8 N9 8.4(4) . . . . ?
N5 Cu3 N8 N7 -0.5(5) 1_454 . . . ?
N16 Cu3 N8 N7 179.9(4) . . . . ?
N7 N8 N9 N10 -0.5(5) . . . . ?
Cu3 N8 N9 N10 172.6(3) . . . . ?
N7 N8 N9 Cu4 174.3(3) . . . . ?
Cu3 N8 N9 Cu4 -12.6(5) . . . . ?
N19 Cu4 N9 N10 -178.0(4) . . . . ?
N11 Cu4 N9 N10 1.2(5) . . . . ?
N19 Cu4 N9 N8 8.4(4) . . . . ?
N11 Cu4 N9 N8 -172.4(3) . . . . ?
N7 C10 N10 N9 -0.2(5) . . . . ?
C9 C10 N10 N9 -179.5(4) . . . . ?
N8 N9 N10 C10 0.4(5) . . . . ?
Cu4 N9 N10 C10 -173.8(3) . . . . ?
C17 C18 N11 C13 1.1(7) . . . . ?
C17 C18 N11 Cu4 -177.1(4) . . . . ?
C14 C13 N11 C18 -1.0(6) . . . . ?
C14 C13 N11 Cu4 177.2(3) . . . . ?
N19 Cu4 N11 C18 -179.3(3) . . . . ?
N9 Cu4 N11 C18 1.6(4) . . . . ?
N19 Cu4 N11 C13 2.6(4) . . . . ?
N9 Cu4 N11 C13 -176.6(3) . . . . ?
N15 C16 N12 N13 -0.6(5) . . . . ?
C15 C16 N12 N13 -177.6(4) . . . . ?
C16 N12 N13 N14 0.4(5) . . . . ?
C16 N12 N13 Cu2 174.9(3) . . . 1_665 ?
N12 N13 N14 N15 0.0(5) . . . . ?
Cu2 N13 N14 N15 -175.1(3) 1_665 . . . ?
N12 N13 N14 Cu1 -174.9(3) . . . 1_665 ?
Cu2 N13 N14 Cu1 10.0(4) 1_665 . . 1_665 ?
N13 N14 N15 C16 -0.3(5) . . . . ?
Cu1 N14 N15 C16 173.8(3) 1_665 . . . ?
N12 C16 N15 N14 0.5(5) . . . . ?
C15 C16 N15 N14 177.6(4) . . . . ?
N8 Cu3 N16 N19 3.1(4) . . . . ?
N5 Cu3 N16 N19 -176.5(3) 1_454 . . . ?
N8 Cu3 N16 N17 178.2(3) . . . . ?
N5 Cu3 N16 N17 -1.4(4) 1_454 . . . ?
N19 N16 N17 C19 -0.2(5) . . . . ?
Cu3 N16 N17 C19 -175.8(3) . . . . ?
N18 C19 N17 N16 0.3(5) . . . . ?
C20 C19 N17 N16 179.5(4) . . . . ?
N17 C19 N18 N19 -0.3(5) . . . . ?
C20 C19 N18 N19 -179.5(4) . . . . ?
N17 N16 N19 N18 -0.1(5) . . . . ?
Cu3 N16 N19 N18 175.9(3) . . . . ?
N17 N16 N19 Cu4 176.9(3) . . . . ?
Cu3 N16 N19 Cu4 -7.2(5) . . . . ?
C19 N18 N19 N16 0.2(5) . . . . ?
C19 N18 N19 Cu4 -176.3(3) . . . . ?
N11 Cu4 N19 N16 -176.0(3) . . . . ?
N9 Cu4 N19 N16 3.1(4) . . . . ?
N11 Cu4 N19 N18 0.3(5) . . . . ?
N9 Cu4 N19 N18 179.4(3) . . . . ?
C21 C22 N20 C23 -0.4(7) . . . . ?
C21 C22 N20 Cu1 179.4(4) . . . 1_564 ?
C24 C23 N20 C22 -0.2(7) . . . . ?
C24 C23 N20 Cu1 179.9(4) . . . 1_564 ?

_diffrn_measured_fraction_theta_max 0.999
_diffrn_reflns_theta_full        24.71
_diffrn_measured_fraction_theta_full 0.999
_refine_diff_density_max         1.569
_refine_diff_density_min         -0.376
# SQUEEZE RESULTS (APPEND TO CIF)
# Note: Data are Listed for all Voids in the P1 Unit Cell
# i.e. Centre of Gravity, Solvent Accessible Volume,
# Recovered number of Electrons in the Void and
# Details about the Squeezed Material
loop_
_platon_squeeze_void_nr
_platon_squeeze_void_average_x
_platon_squeeze_void_average_y
_platon_squeeze_void_average_z
_platon_squeeze_void_volume
_platon_squeeze_void_count_electrons
_platon_squeeze_void_content
1 -0.016 0.248 0.250 210 24 ' '
2 0.001 0.751 0.750 210 24 ' '
_platon_squeeze_details          
;
;
