####################################################################### 
# 
# This file contains crystal structure data downloaded from the 
# Cambridge Structural Database (CSD) hosted by the Cambridge 
# Crystallographic Data Centre (CCDC).
# 
# Full information about CCDC data access policies and citation 
# guidelines are available at http://www.ccdc.cam.ac.uk/access/V1 
# 
# Audit and citation data items may have been added by the CCDC. 
# Please retain this information to preserve the provenance of 
# this file and to allow appropriate attribution of the data. 
# 
#######################################################################

data_1
_audit_block_doi                 10.5517/ccrzcwy
_database_code_depnum_ccdc_archive 'CCDC 714391'
loop_
_citation_id
_citation_doi
_citation_year
1 10.1016/j.jssc.2009.06.041 2009
_audit_update_record             
;
2008-12-20 deposited with the CCDC.	2024-07-13 downloaded from the CCDC.
;

_audit_creation_method           SHELXL-97
_chemical_name_systematic        
;
?
;
_chemical_name_common            ?
_chemical_melting_point          ?
_chemical_formula_moiety         'C24 H16 Cu4 N20, 2(C2 H6 O)'
_chemical_formula_sum            'C28 H28 Cu4 N20 O2'
_chemical_formula_weight         930.86

loop_
_atom_type_symbol
_atom_type_description
_atom_type_scat_dispersion_real
_atom_type_scat_dispersion_imag
_atom_type_scat_source
C C 0.0033 0.0016 'International Tables Vol C Tables 4.2.6.8 and 6.1.1.4'
H H 0.0000 0.0000 'International Tables Vol C Tables 4.2.6.8 and 6.1.1.4'
N N 0.0061 0.0033 'International Tables Vol C Tables 4.2.6.8 and 6.1.1.4'
O O 0.0106 0.0060 'International Tables Vol C Tables 4.2.6.8 and 6.1.1.4'
Cu Cu 0.3201 1.2651 'International Tables Vol C Tables 4.2.6.8 and 6.1.1.4'

_symmetry_cell_setting           triclinic
_symmetry_space_group_name_H-M   P-1

loop_
_symmetry_equiv_pos_as_xyz
'x, y, z'
'-x, -y, -z'

_cell_length_a                   7.223(3)
_cell_length_b                   15.375(8)
_cell_length_c                   16.003(8)
_cell_angle_alpha                95.349(18)
_cell_angle_beta                 96.740(13)
_cell_angle_gamma                98.175(11)
_cell_volume                     1736.0(14)
_cell_formula_units_Z            2
_cell_measurement_temperature    298(2)
_cell_measurement_reflns_used    3820
_cell_measurement_theta_min      3.0406
_cell_measurement_theta_max      27.4410

_exptl_crystal_description       prism
_exptl_crystal_colour            yellow
_exptl_crystal_size_max          0.20
_exptl_crystal_size_mid          0.20
_exptl_crystal_size_min          0.20
_exptl_crystal_density_meas      ?
_exptl_crystal_density_diffrn    1.781
_exptl_crystal_density_method    'not measured'
_exptl_crystal_F_000             936
_exptl_absorpt_coefficient_mu    2.479
_exptl_absorpt_correction_type   Multi-scan
_exptl_absorpt_correction_T_min  0.6370
_exptl_absorpt_correction_T_max  0.6370
_exptl_absorpt_process_details   ?

_exptl_special_details           
;
?
;

_diffrn_ambient_temperature      298(2)
_diffrn_radiation_wavelength     0.71073
_diffrn_radiation_type           MoK\a
_diffrn_radiation_source         'Rotating Anode'
_diffrn_radiation_monochromator  Confocal
_diffrn_measurement_device_type  Saturn70
_diffrn_measurement_method       CCD_Profile_fitting
_diffrn_detector_area_resol_mean 28.5714
_diffrn_standards_number         ?
_diffrn_standards_interval_count ?
_diffrn_standards_interval_time  ?
_diffrn_standards_decay_%        ?
_diffrn_reflns_number            13175
_diffrn_reflns_av_R_equivalents  0.0341
_diffrn_reflns_av_sigmaI/netI    0.0556
_diffrn_reflns_limit_h_min       -7
_diffrn_reflns_limit_h_max       9
_diffrn_reflns_limit_k_min       -19
_diffrn_reflns_limit_k_max       19
_diffrn_reflns_limit_l_min       -20
_diffrn_reflns_limit_l_max       19
_diffrn_reflns_theta_min         2.85
_diffrn_reflns_theta_max         27.47
_reflns_number_total             7724
_reflns_number_gt                4746
_reflns_threshold_expression     >2sigma(I)

_computing_data_collection       'CrystalClear (Rigaku/MSC Inc., 2005)'
_computing_cell_refinement       'CrystalClear (Rigaku/MSC Inc., 2005)'
_computing_data_reduction        'CrystalClear (Rigaku/MSC Inc., 2005)'
_computing_structure_solution    'SHELXS-97 (Sheldrick, 1990)'
_computing_structure_refinement  'SHELXL-97 (Sheldrick, 1997)'
_computing_molecular_graphics    ?
_computing_publication_material  ?

_refine_special_details          
;
Refinement of F^2^ against ALL reflections. The weighted R-factor wR and
goodness of fit S are based on F^2^, conventional R-factors R are based
on F, with F set to zero for negative F^2^. The threshold expression of
F^2^ > 2sigma(F^2^) is used only for calculating R-factors(gt) etc. and is
not relevant to the choice of reflections for refinement. R-factors based
on F^2^ are statistically about twice as large as those based on F, and R-
factors based on ALL data will be even larger.
;

_refine_ls_structure_factor_coef Fsqd
_refine_ls_matrix_type           full
_refine_ls_weighting_scheme      calc
_refine_ls_weighting_details     
'calc w=1/[\s^2^(Fo^2^)+(0.1046P)^2^+0.0000P] where P=(Fo^2^+2Fc^2^)/3'
_atom_sites_solution_primary     direct
_atom_sites_solution_secondary   difmap
_atom_sites_solution_hydrogens   geom
_refine_ls_hydrogen_treatment    refall
_refine_ls_extinction_method     none
_refine_ls_extinction_coef       none
_refine_ls_number_reflns         7724
_refine_ls_number_parameters     457
_refine_ls_number_restraints     0
_refine_ls_R_factor_all          0.0770
_refine_ls_R_factor_gt           0.0537
_refine_ls_wR_factor_ref         0.1750
_refine_ls_wR_factor_gt          0.1623
_refine_ls_goodness_of_fit_ref   1.001
_refine_ls_restrained_S_all      1.001
_refine_ls_shift/su_max          1.398
_refine_ls_shift/su_mean         0.074

loop_
_atom_site_label
_atom_site_type_symbol
_atom_site_fract_x
_atom_site_fract_y
_atom_site_fract_z
_atom_site_U_iso_or_equiv
_atom_site_adp_type
_atom_site_occupancy
_atom_site_symmetry_multiplicity
_atom_site_calc_flag
_atom_site_refinement_flags
_atom_site_disorder_assembly
_atom_site_disorder_group
Cu1 Cu 0.25450(7) 0.79110(3) 0.71567(3) 0.03515(17) Uani 1 1 d . . .
Cu2 Cu -0.89598(8) 0.13942(3) 0.21535(3) 0.03860(18) Uani 1 1 d . . .
Cu3 Cu 0.24629(8) 0.63846(3) 0.85299(3) 0.03983(18) Uani 1 1 d . . .
Cu4 Cu -0.60108(8) 0.29026(3) 0.35277(3) 0.03783(18) Uani 1 1 d . . .
N20 N 0.1087(5) 0.6101(2) 0.7387(2) 0.0331(8) Uani 1 1 d . . .
N19 N 0.0987(5) 0.6737(2) 0.6862(2) 0.0326(8) Uani 1 1 d . . .
N9 N -0.6851(5) 0.3183(2) 0.2395(2) 0.0307(7) Uani 1 1 d . . .
N14 N -1.6112(5) -0.2410(2) -0.1156(2) 0.0321(8) Uani 1 1 d . . .
N10 N -0.8111(5) 0.2592(2) 0.1860(2) 0.0330(8) Uani 1 1 d . . .
N15 N -1.5950(5) -0.1823(2) -0.1725(2) 0.0313(7) Uani 1 1 d . . .
C6 C -0.7480(6) 0.0561(3) 0.4427(2) 0.0327(9) Uani 1 1 d . . .
N4 N -0.6982(5) 0.1731(2) 0.3844(2) 0.0364(8) Uani 1 1 d . . .
C16 C -1.2408(6) 0.0223(3) -0.0085(3) 0.0321(9) Uani 1 1 d . . .
H16A H -1.2757 0.0408 -0.0610 0.038 Uiso 1 1 calc R . .
N18 N -0.0147(5) 0.6407(2) 0.6143(2) 0.0333(8) Uani 1 1 d . . .
N6 N -0.7519(5) 0.5555(2) -0.0611(2) 0.0318(8) Uani 1 1 d . . .
N16 N -0.4274(5) 0.3716(2) 0.4383(2) 0.0331(8) Uani 1 1 d . . .
C17 C -1.3035(5) -0.0636(3) 0.0076(2) 0.0297(8) Uani 1 1 d . . .
C18 C -1.4282(6) -0.1270(3) -0.0577(2) 0.0298(8) Uani 1 1 d . . .
N3 N -0.6648(5) 0.1402(2) 0.4588(2) 0.0373(8) Uani 1 1 d . . .
C9 C -0.8405(6) 0.4712(3) -0.0787(3) 0.0347(9) Uani 1 1 d . . .
H9A H -0.9033 0.4528 -0.1329 0.042 Uiso 1 1 calc R . .
C8 C -0.6633(6) 0.5801(3) 0.0187(3) 0.0354(9) Uani 1 1 d . . .
H8A H -0.6011 0.6378 0.0322 0.042 Uiso 1 1 calc R . .
C24 C -0.0727(6) 0.5570(3) 0.6262(2) 0.0309(8) Uani 1 1 d . . .
C22 C -0.2584(6) 0.4075(3) 0.5785(3) 0.0397(10) Uani 1 1 d . . .
H22A H -0.2229 0.3891 0.6309 0.048 Uiso 1 1 calc R . .
N5 N -0.7977(5) 0.1095(2) 0.3269(2) 0.0343(8) Uani 1 1 d . . .
N11 N -1.0721(5) 0.0569(2) 0.1312(2) 0.0333(8) Uani 1 1 d . . .
C14 C -1.1344(6) -0.0264(3) 0.1467(3) 0.0401(11) Uani 1 1 d . . .
H14A H -1.0996 -0.0432 0.2000 0.048 Uiso 1 1 calc R . .
N2 N -0.8303(5) 0.0341(2) 0.3626(2) 0.0371(8) Uani 1 1 d . . .
C23 C -0.1951(5) 0.4933(2) 0.5620(2) 0.0287(8) Uani 1 1 d . . .
C15 C -1.1265(6) 0.0797(3) 0.0540(2) 0.0329(9) Uani 1 1 d . . .
H15A H -1.0850 0.1368 0.0424 0.040 Uiso 1 1 calc R . .
N17 N 0.0002(5) 0.5351(2) 0.7016(2) 0.0348(8) Uani 1 1 d . . .
C21 C -0.3746(6) 0.3499(3) 0.5161(3) 0.0400(10) Uani 1 1 d . . .
H21A H -0.4184 0.2934 0.5286 0.048 Uiso 1 1 calc R . .
N13 N -1.5068(5) -0.2064(2) -0.0422(2) 0.0339(8) Uani 1 1 d . . .
C5 C -0.7495(6) -0.0062(2) 0.5069(2) 0.0296(8) Uani 1 1 d . . .
N12 N -1.4784(5) -0.1087(2) -0.1371(2) 0.0334(8) Uani 1 1 d . . .
C7 C -0.6603(6) 0.5242(3) 0.0807(3) 0.0361(10) Uani 1 1 d . . .
H7A H -0.5982 0.5444 0.1348 0.043 Uiso 1 1 calc R . .
C20 C -0.3653(6) 0.4556(3) 0.4225(2) 0.0341(9) Uani 1 1 d . . .
H20A H -0.4025 0.4726 0.3696 0.041 Uiso 1 1 calc R . .
C19 C -0.2505(6) 0.5156(3) 0.4812(3) 0.0333(9) Uani 1 1 d . . .
H19A H -0.2088 0.5718 0.4674 0.040 Uiso 1 1 calc R . .
C1 C -0.8414(6) -0.0934(3) 0.4886(3) 0.0389(10) Uani 1 1 d . . .
H1A H -0.9046 -0.1133 0.4347 0.047 Uiso 1 1 calc R . .
C10 C -0.8421(6) 0.4116(3) -0.0203(3) 0.0371(10) Uani 1 1 d . . .
H10A H -0.9039 0.3540 -0.0356 0.045 Uiso 1 1 calc R . .
C13 C -1.2479(6) -0.0878(3) 0.0864(3) 0.0397(10) Uani 1 1 d . . .
H13A H -1.2863 -0.1449 0.0990 0.048 Uiso 1 1 calc R . .
C4 C -0.6596(6) 0.0191(3) 0.5896(3) 0.0387(10) Uani 1 1 d . . .
H4A H -0.5983 0.0767 0.6051 0.046 Uiso 1 1 calc R . .
N8 N -0.6434(5) 0.3925(2) 0.2018(2) 0.0344(8) Uani 1 1 d . . .
N7 N -0.8553(5) 0.2943(2) 0.1133(2) 0.0328(8) Uani 1 1 d . . .
N1 N -0.7516(5) -0.1248(2) 0.6304(2) 0.0353(8) Uani 1 1 d . . .
C11 C -0.7517(6) 0.4366(2) 0.0620(2) 0.0288(8) Uani 1 1 d . . .
C3 C -0.6615(6) -0.0412(3) 0.6488(3) 0.0392(10) Uani 1 1 d . . .
H3A H -0.5983 -0.0232 0.7030 0.047 Uiso 1 1 calc R . .
C12 C -0.7498(5) 0.3741(2) 0.1263(2) 0.0278(8) Uani 1 1 d . . .
C2 C -0.8383(6) -0.1502(3) 0.5513(3) 0.0385(10) Uani 1 1 d . . .
H2A H -0.8988 -0.2083 0.5378 0.046 Uiso 1 1 calc R . .
O1 O -0.825(2) -0.1500(10) 0.2730(9) 0.362(7) Uiso 1 1 d . . .
H1B H -0.8040 -0.1069 0.3089 0.544 Uiso 1 1 calc R . .
C25 C -0.685(2) -0.1421(12) 0.2158(12) 0.298(10) Uiso 1 1 d . . .
H25A H -0.5606 -0.1454 0.2439 0.358 Uiso 1 1 calc R . .
H25B H -0.6825 -0.0876 0.1896 0.358 Uiso 1 1 calc R . .
C26 C -0.7628(18) -0.2252(9) 0.1499(9) 0.214(6) Uiso 1 1 d . . .
H26A H -0.6788 -0.2295 0.1080 0.320 Uiso 1 1 calc R . .
H26B H -0.8857 -0.2195 0.1229 0.320 Uiso 1 1 calc R . .
H26C H -0.7712 -0.2776 0.1785 0.320 Uiso 1 1 calc R . .
C28 C -0.698(5) 0.326(2) -0.271(2) 0.47(2) Uiso 1 1 d . . .
H28A H -0.6325 0.3832 -0.2807 0.566 Uiso 1 1 calc R . .
H28B H -0.6444 0.3048 -0.2202 0.566 Uiso 1 1 calc R . .
C27 C -0.748(3) 0.2582(14) -0.3489(14) 0.354(12) Uiso 1 1 d . . .
H27A H -0.6360 0.2359 -0.3623 0.530 Uiso 1 1 calc R . .
H27B H -0.8003 0.2853 -0.3959 0.530 Uiso 1 1 calc R . .
H27C H -0.8385 0.2103 -0.3374 0.530 Uiso 1 1 calc R . .
O2 O -0.853(4) 0.319(2) -0.282(2) 0.70(3) Uiso 1 1 d . . .
H2B H -0.8882 0.3584 -0.2525 1.057 Uiso 1 1 calc R . .

loop_
_atom_site_aniso_label
_atom_site_aniso_U_11
_atom_site_aniso_U_22
_atom_site_aniso_U_33
_atom_site_aniso_U_23
_atom_site_aniso_U_13
_atom_site_aniso_U_12
Cu1 0.0489(4) 0.0266(3) 0.0254(3) 0.0076(2) -0.0057(2) -0.0042(2)
Cu2 0.0512(4) 0.0291(3) 0.0274(3) 0.0044(2) -0.0097(2) -0.0099(2)
Cu3 0.0550(4) 0.0294(3) 0.0280(3) 0.0097(2) -0.0102(2) -0.0088(2)
Cu4 0.0502(4) 0.0279(3) 0.0275(3) 0.0040(2) -0.0103(2) -0.0085(2)
N20 0.042(2) 0.0250(16) 0.0255(17) 0.0016(13) -0.0066(15) -0.0066(15)
N19 0.044(2) 0.0241(16) 0.0248(16) 0.0040(13) -0.0064(14) -0.0046(15)
N9 0.0398(19) 0.0237(16) 0.0243(16) 0.0060(13) -0.0051(14) -0.0045(15)
N14 0.042(2) 0.0255(16) 0.0232(16) 0.0014(13) -0.0068(14) -0.0044(15)
N10 0.046(2) 0.0266(17) 0.0240(16) 0.0087(13) -0.0020(15) -0.0021(15)
N15 0.039(2) 0.0222(16) 0.0264(17) -0.0001(13) -0.0071(14) -0.0062(14)
C6 0.038(2) 0.030(2) 0.028(2) 0.0043(16) 0.0009(17) 0.0008(17)
N4 0.047(2) 0.0310(18) 0.0270(17) 0.0110(14) -0.0065(15) -0.0033(16)
C16 0.036(2) 0.029(2) 0.0256(19) -0.0036(15) -0.0062(16) 0.0004(17)
N18 0.040(2) 0.0279(17) 0.0260(17) -0.0003(13) -0.0056(15) -0.0043(15)
N6 0.0381(19) 0.0318(18) 0.0241(16) 0.0097(13) -0.0021(14) 0.0016(15)
N16 0.038(2) 0.0279(17) 0.0278(17) -0.0004(13) -0.0050(15) -0.0031(15)
C17 0.030(2) 0.0283(19) 0.029(2) 0.0023(15) 0.0007(16) 0.0010(16)
C18 0.032(2) 0.028(2) 0.0273(19) 0.0034(15) -0.0006(16) 0.0029(16)
N3 0.050(2) 0.0300(18) 0.0279(18) 0.0111(14) -0.0051(16) -0.0043(16)
C9 0.041(2) 0.029(2) 0.028(2) 0.0065(16) -0.0089(17) -0.0059(18)
C8 0.043(2) 0.026(2) 0.035(2) 0.0076(16) -0.0003(18) -0.0032(18)
C24 0.035(2) 0.028(2) 0.028(2) 0.0024(15) 0.0026(17) 0.0011(17)
C22 0.049(3) 0.034(2) 0.029(2) 0.0004(17) -0.0091(19) -0.003(2)
N5 0.047(2) 0.0231(17) 0.0291(17) 0.0120(13) -0.0053(15) -0.0048(15)
N11 0.037(2) 0.0297(17) 0.0261(17) -0.0002(13) -0.0090(14) -0.0047(15)
C14 0.052(3) 0.032(2) 0.028(2) 0.0063(17) -0.0072(19) -0.011(2)
N2 0.049(2) 0.0322(19) 0.0292(18) 0.0123(14) 0.0010(16) -0.0004(16)
C23 0.030(2) 0.0263(19) 0.0273(19) 0.0001(15) 0.0005(16) -0.0007(16)
C15 0.034(2) 0.029(2) 0.031(2) 0.0004(16) -0.0029(17) -0.0006(17)
N17 0.042(2) 0.0273(17) 0.0287(17) -0.0018(14) -0.0070(15) -0.0018(15)
C21 0.048(3) 0.028(2) 0.036(2) -0.0004(17) -0.0082(19) -0.0087(19)
N13 0.041(2) 0.0237(17) 0.0318(18) -0.0017(13) -0.0032(15) -0.0039(15)
C5 0.034(2) 0.0229(18) 0.030(2) 0.0055(15) 0.0001(16) 0.0013(16)
N12 0.040(2) 0.0254(17) 0.0288(17) 0.0006(13) -0.0055(15) -0.0046(15)
C7 0.041(2) 0.034(2) 0.031(2) 0.0073(17) -0.0016(18) 0.0011(19)
C20 0.038(2) 0.036(2) 0.0250(19) 0.0045(16) -0.0001(17) -0.0022(18)
C19 0.033(2) 0.028(2) 0.034(2) 0.0012(16) -0.0015(17) -0.0043(17)
C1 0.049(3) 0.037(2) 0.026(2) 0.0124(17) -0.0076(18) -0.002(2)
C10 0.043(3) 0.029(2) 0.036(2) 0.0070(17) -0.0020(19) -0.0023(18)
C13 0.051(3) 0.027(2) 0.032(2) 0.0007(16) -0.0070(19) -0.0119(19)
C4 0.049(3) 0.032(2) 0.032(2) 0.0102(17) -0.0006(19) -0.0027(19)
N8 0.043(2) 0.0336(19) 0.0248(17) 0.0095(14) -0.0019(15) 0.0019(16)
N7 0.041(2) 0.0256(17) 0.0299(18) 0.0094(13) -0.0006(15) -0.0021(15)
N1 0.044(2) 0.0325(18) 0.0269(17) 0.0092(14) -0.0026(15) -0.0005(16)
C11 0.033(2) 0.0229(18) 0.030(2) 0.0069(15) 0.0016(16) 0.0001(16)
C3 0.055(3) 0.032(2) 0.027(2) 0.0077(17) -0.0031(19) -0.005(2)
C12 0.031(2) 0.0236(18) 0.0270(19) 0.0043(15) -0.0003(16) 0.0013(16)
C2 0.050(3) 0.029(2) 0.033(2) 0.0096(17) -0.0029(19) -0.0022(19)

_geom_special_details            
;
All esds (except the esd in the dihedral angle between two l.s. planes)
are estimated using the full covariance matrix. The cell esds are taken
into account individually in the estimation of esds in distances, angles
and torsion angles; correlations between esds in cell parameters are only
used when they are defined by crystal symmetry. An approximate (isotropic)
treatment of cell esds is used for estimating esds involving l.s. planes.
;

loop_
_geom_bond_atom_site_label_1
_geom_bond_atom_site_label_2
_geom_bond_distance
_geom_bond_site_symmetry_2
_geom_bond_publ_flag
Cu1 N15 1.957(3) 1_766 ?
Cu1 N1 1.967(3) 1_665 ?
Cu1 N19 1.972(3) . ?
Cu2 N11 1.965(3) . ?
Cu2 N5 1.963(3) . ?
Cu2 N10 1.974(3) . ?
Cu3 N20 1.956(3) . ?
Cu3 N6 1.960(3) 1_656 ?
Cu3 N14 1.977(3) 1_766 ?
Cu4 N9 1.950(3) . ?
Cu4 N16 1.961(3) . ?
Cu4 N4 1.971(3) . ?
N20 N17 1.343(4) . ?
N20 N19 1.351(4) . ?
N19 N18 1.344(4) . ?
N9 N10 1.351(5) . ?
N9 N8 1.351(4) . ?
N14 N15 1.343(4) . ?
N14 N13 1.339(4) . ?
N14 Cu3 1.977(3) 1_344 ?
N10 N7 1.352(4) . ?
N15 N12 1.346(4) . ?
N15 Cu1 1.957(3) 1_344 ?
C6 N2 1.340(5) . ?
C6 N3 1.335(5) . ?
C6 C5 1.468(5) . ?
N4 N5 1.341(5) . ?
N4 N3 1.346(4) . ?
C16 C15 1.377(5) . ?
C16 C17 1.392(5) . ?
C16 H16A 0.9300 . ?
N18 C24 1.333(5) . ?
N6 C8 1.354(5) . ?
N6 C9 1.350(5) . ?
N6 Cu3 1.960(3) 1_454 ?
N16 C21 1.345(5) . ?
N16 C20 1.362(5) . ?
C17 C13 1.380(6) . ?
C17 C18 1.481(5) . ?
C18 N13 1.329(5) . ?
C18 N12 1.347(5) . ?
C9 C10 1.369(5) . ?
C9 H9A 0.9300 . ?
C8 C7 1.372(5) . ?
C8 H8A 0.9300 . ?
C24 N17 1.351(5) . ?
C24 C23 1.466(5) . ?
C22 C21 1.382(6) . ?
C22 C23 1.393(6) . ?
C22 H22A 0.9300 . ?
N5 N2 1.342(4) . ?
N11 C14 1.352(5) . ?
N11 C15 1.344(5) . ?
C14 C13 1.386(5) . ?
C14 H14A 0.9300 . ?
C23 C19 1.396(6) . ?
C15 H15A 0.9300 . ?
C21 H21A 0.9300 . ?
C5 C4 1.399(6) . ?
C5 C1 1.397(6) . ?
C7 C11 1.402(6) . ?
C7 H7A 0.9300 . ?
C20 C19 1.364(5) . ?
C20 H20A 0.9300 . ?
C19 H19A 0.9300 . ?
C1 C2 1.391(5) . ?
C1 H1A 0.9300 . ?
C10 C11 1.393(6) . ?
C10 H10A 0.9300 . ?
C13 H13A 0.9300 . ?
C4 C3 1.384(5) . ?
C4 H4A 0.9300 . ?
N8 C12 1.337(5) . ?
N7 C12 1.333(5) . ?
N1 C2 1.341(5) . ?
N1 C3 1.345(5) . ?
N1 Cu1 1.967(3) 1_445 ?
C11 C12 1.474(5) . ?
C3 H3A 0.9300 . ?
C2 H2A 0.9300 . ?
O1 C25 1.438(18) . ?
O1 H1B 0.8200 . ?
C25 C26 1.571(18) . ?
C25 H25A 0.9700 . ?
C25 H25B 0.9700 . ?
C26 H26A 0.9600 . ?
C26 H26B 0.9600 . ?
C26 H26C 0.9600 . ?
C28 C27 1.52(4) . ?
C28 O2 1.10(5) . ?
C28 H28A 0.9700 . ?
C28 H28B 0.9700 . ?
C27 H27A 0.9600 . ?
C27 H27B 0.9600 . ?
C27 H27C 0.9600 . ?
O2 H2B 0.8200 . ?

loop_
_geom_angle_atom_site_label_1
_geom_angle_atom_site_label_2
_geom_angle_atom_site_label_3
_geom_angle
_geom_angle_site_symmetry_1
_geom_angle_site_symmetry_3
_geom_angle_publ_flag
N15 Cu1 N1 123.78(14) 1_766 1_665 ?
N15 Cu1 N19 118.53(13) 1_766 . ?
N1 Cu1 N19 117.69(14) 1_665 . ?
N11 Cu2 N5 123.82(14) . . ?
N11 Cu2 N10 118.27(14) . . ?
N5 Cu2 N10 117.90(14) . . ?
N20 Cu3 N6 124.10(14) . 1_656 ?
N20 Cu3 N14 117.88(13) . 1_766 ?
N6 Cu3 N14 118.02(14) 1_656 1_766 ?
N9 Cu4 N16 124.24(14) . . ?
N9 Cu4 N4 118.27(13) . . ?
N16 Cu4 N