####################################################################### 
# 
# This file contains crystal structure data downloaded from the 
# Cambridge Structural Database (CSD) hosted by the Cambridge 
# Crystallographic Data Centre (CCDC).
# 
# Full information about CCDC data access policies and citation 
# guidelines are available at http://www.ccdc.cam.ac.uk/access/V1 
# 
# Audit and citation data items may have been added by the CCDC. 
# Please retain this information to preserve the provenance of 
# this file and to allow appropriate attribution of the data. 
# 
#######################################################################

data_01-Zn-MOF_BF4
_audit_block_doi                 10.5517/cc14lg39
_database_code_depnum_ccdc_archive 'CCDC 1060420'
loop_
_citation_id
_citation_doi
_citation_year
1 10.1002/anie.201503588 2015
_audit_update_record             
;
2015-04-20 deposited with the CCDC.	2024-07-13 downloaded from the CCDC.
;

_audit_creation_method           SHELXL-97
_chemical_name_systematic        
; 
 ? 
;
_chemical_name_common            ?
_chemical_melting_point          ?
_chemical_formula_moiety         ?
_chemical_formula_sum            'C120 H114 B4 F16 N30 O36 Zn3'
_chemical_formula_weight         3095.76

loop_
_atom_type_symbol
_atom_type_description
_atom_type_scat_dispersion_real
_atom_type_scat_dispersion_imag
_atom_type_scat_source
C C 0.0033 0.0016 'International Tables Vol C Tables 4.2.6.8 and 6.1.1.4'
H H 0.0000 0.0000 'International Tables Vol C Tables 4.2.6.8 and 6.1.1.4'
B B 0.0013 0.0007 'International Tables Vol C Tables 4.2.6.8 and 6.1.1.4'
F F 0.0171 0.0103 'International Tables Vol C Tables 4.2.6.8 and 6.1.1.4'
N N 0.0061 0.0033 'International Tables Vol C Tables 4.2.6.8 and 6.1.1.4'
O O 0.0106 0.0060 'International Tables Vol C Tables 4.2.6.8 and 6.1.1.4'
Zn Zn 0.2839 1.4301 'International Tables Vol C Tables 4.2.6.8 and 6.1.1.4'

_symmetry_cell_setting           Trigonal
_symmetry_space_group_name_H-M   P-31m

loop_
_symmetry_equiv_pos_as_xyz
'x, y, z'
'-y, x-y, z'
'-x+y, -x, z'
'-y, -x, -z'
'x, x-y, -z'
'-x+y, y, -z'
'-x, -y, -z'
'y, -x+y, -z'
'x-y, x, -z'
'y, x, z'
'-x, -x+y, z'
'x-y, -y, z'

_cell_length_a                   21.3774(4)
_cell_length_b                   21.3774(4)
_cell_length_c                   16.5822(4)
_cell_angle_alpha                90.00
_cell_angle_beta                 90.00
_cell_angle_gamma                120.00
_cell_volume                     6562.7(2)
_cell_formula_units_Z            1
_cell_measurement_temperature    293(2)
_cell_measurement_reflns_used    7818
_cell_measurement_theta_min      2.27
_cell_measurement_theta_max      18.75

_exptl_crystal_description       block
_exptl_crystal_colour            colorless
_exptl_crystal_size_max          0.31
_exptl_crystal_size_mid          0.24
_exptl_crystal_size_min          0.23
_exptl_crystal_density_meas      ?
_exptl_crystal_density_diffrn    0.783
_exptl_crystal_density_method    'not measured'
_exptl_crystal_F_000             1586
_exptl_absorpt_coefficient_mu    0.330
_exptl_absorpt_correction_type   Multi-scan
_exptl_absorpt_correction_T_min  0.9047
_exptl_absorpt_correction_T_max  0.9280
_exptl_absorpt_process_details   SADABS

_exptl_special_details           
; 
 ? 
;

_diffrn_ambient_temperature      293(2)
_diffrn_radiation_wavelength     0.71073
_diffrn_radiation_type           MoK\a
_diffrn_radiation_source         'fine-focus sealed tube'
_diffrn_radiation_monochromator  graphite
_diffrn_measurement_device_type  'CCD area detector'
_diffrn_measurement_method       'phi and omega scans'
_diffrn_detector_area_resol_mean ?
_diffrn_reflns_number            111484
_diffrn_reflns_av_R_equivalents  0.1168
_diffrn_reflns_av_unetI/netI     0.0959
_diffrn_reflns_limit_h_min       -26
_diffrn_reflns_limit_h_max       26
_diffrn_reflns_limit_k_min       -26
_diffrn_reflns_limit_k_max       26
_diffrn_reflns_limit_l_min       -19
_diffrn_reflns_limit_l_max       20
_diffrn_reflns_theta_min         1.10
_diffrn_reflns_theta_max         26.50
_reflns_number_total             4760
_reflns_number_gt                1411
_reflns_threshold_expression     >2sigma(I)

_computing_data_collection       'Bruker SMART'
_computing_cell_refinement       'Bruker SMART'
_computing_data_reduction        'Bruker SAINT'
_computing_structure_solution    'SHELXS-97 (Sheldrick, 2008)'
_computing_structure_refinement  'SHELXL-97 (Sheldrick, 2008)'
_computing_molecular_graphics    'Bruker SHELXTL'
_computing_publication_material  'Bruker SHELXTL'

_refine_special_details          
; 
 Refinement of F^2^ against ALL reflections.  The weighted R-factor wR and 
 goodness of fit S are based on F^2^, conventional R-factors R are based 
 on F, with F set to zero for negative F^2^. The threshold expression of 
 F^2^ > 2sigma(F^2^) is used only for calculating R-factors(gt) etc. and is 
 not relevant to the choice of reflections for refinement.  R-factors based 
 on F^2^ are statistically about twice as large as those based on F, and R- 
 factors based on ALL data will be even larger. 
;

_refine_ls_structure_factor_coef Fsqd
_refine_ls_matrix_type           full
_refine_ls_weighting_scheme      calc
_refine_ls_weighting_details     
'calc w=1/[\s^2^(Fo^2^)+(0.1007P)^2^+0.0000P] where P=(Fo^2^+2Fc^2^)/3'
_atom_sites_solution_primary     direct
_atom_sites_solution_secondary   difmap
_atom_sites_solution_hydrogens   geom
_refine_ls_hydrogen_treatment    constr
_refine_ls_extinction_method     none
_refine_ls_extinction_coef       ?
_refine_ls_number_reflns         4760
_refine_ls_number_parameters     182
_refine_ls_number_restraints     0
_refine_ls_R_factor_all          0.2053
_refine_ls_R_factor_gt           0.0575
_refine_ls_wR_factor_ref         0.1811
_refine_ls_wR_factor_gt          0.1570
_refine_ls_goodness_of_fit_ref   0.741
_refine_ls_restrained_S_all      0.741
_refine_ls_shift/su_max          0.001
_refine_ls_shift/su_mean         0.000

loop_
_atom_site_label
_atom_site_type_symbol
_atom_site_fract_x
_atom_site_fract_y
_atom_site_fract_z
_atom_site_U_iso_or_equiv
_atom_site_adp_type
_atom_site_occupancy
_atom_site_symmetry_multiplicity
_atom_site_calc_flag
_atom_site_refinement_flags
_atom_site_disorder_assembly
_atom_site_disorder_group
Zn1 Zn 0.5000 0.5000 0.5000 0.1007(4) Uani 1 4 d S . .
O1 O 0.4581(2) 0.17065(17) 0.33721(17) 0.1942(16) Uani 1 1 d . . .
O2 O 0.49531(12) 0.24223(11) 0.22988(15) 0.1105(8) Uani 1 1 d . . .
O3 O 0.64065(15) 0.20041(16) 0.10075(13) 0.1189(9) Uani 1 1 d . . .
N1 N 0.49108(18) 0.40740(17) 0.43358(19) 0.1016(9) Uani 1 1 d . . .
N2 N 0.5980(2) 0.2786(3) 0.10103(13) 0.1019(9) Uani 1 1 d . . .
N3 N 0.5739(2) 0.5739(2) 0.4092(2) 0.1025(13) Uani 1 2 d S . .
C1 C 0.5086(2) 0.4096(2) 0.3566(3) 0.1368(14) Uani 1 1 d . . .
H1A H 0.5275 0.4537 0.3301 0.164 Uiso 1 1 calc R . .
C2 C 0.5011(2) 0.3527(3) 0.3138(2) 0.1343(14) Uani 1 1 d . . .
H2A H 0.5108 0.3582 0.2588 0.161 Uiso 1 1 calc R A .
C3 C 0.4809(2) 0.2911(2) 0.3468(2) 0.1193(13) Uani 1 1 d . A .
C4 C 0.4366(8) 0.2781(10) 0.4124(11) 0.149(6) Uani 0.50 1 d P A 1
H4A H 0.4041 0.2311 0.4284 0.179 Uiso 0.50 1 calc PR A 1
C5 C 0.4417(6) 0.3364(9) 0.4539(10) 0.147(6) Uani 0.50 1 d P A 1
H5A H 0.4108 0.3278 0.4973 0.176 Uiso 0.50 1 calc PR A 1
C4' C 0.4867(10) 0.2987(10) 0.4347(9) 0.184(8) Uani 0.50 1 d P A 2
H4'A H 0.4876 0.2632 0.4662 0.221 Uiso 0.50 1 calc PR A 2
C5' C 0.4905(8) 0.3548(8) 0.4681(6) 0.131(5) Uani 0.50 1 d P A 2
H5'A H 0.4931 0.3566 0.5241 0.157 Uiso 0.50 1 calc PR A 2
C6 C 0.4758(2) 0.2275(2) 0.3043(3) 0.1281(14) Uani 1 1 d . . .
C7 C 0.49848(17) 0.18730(19) 0.1842(2) 0.1099(11) Uani 1 1 d . . .
H7A H 0.4513 0.1439 0.1828 0.132 Uiso 1 1 calc R A .
H7B H 0.5325 0.1754 0.2085 0.132 Uiso 1 1 calc R . .
C8 C 0.52188(19) 0.2155(2) 0.10186(19) 0.1142(12) Uani 1 1 d . A .
H8A H 0.4894 0.2305 0.0799 0.137 Uiso 1 1 calc R . .
H8B H 0.5192 0.1773 0.0678 0.137 Uiso 1 1 calc R . .
C9 C 0.6530(4) 0.2627(3) 0.10200(17) 0.1032(12) Uani 1 1 d . . .
C10 C 0.6119(3) 0.6119(3) 0.3638(4) 0.1075(17) Uani 0.50 1 d P A .
C11 C 0.6638(3) 0.6638(3) 0.3052(4) 0.181(3) Uani 1 2 d S . .
H11A H 0.7011 0.7011 0.3298 0.218 Uiso 0.50 1 d PR A .
H11B H 0.6671 0.6387 0.2597 0.218 Uiso 0.50 1 d PR . .
H11C H 0.6463 0.6961 0.2876 0.218 Uiso 0.50 1 d PR . .
F1 F 0.3333 0.6667 0.2782(3) 0.216(2) Uani 1 3 d S . .
F2 F 0.2730(3) 0.6061(2) 0.3865(3) 0.364(3) Uani 1 1 d . . .
B1 B 0.3333 0.6667 0.3552(4) 0.141(4) Uani 1 3 d S . .

loop_
_atom_site_aniso_label
_atom_site_aniso_U_11
_atom_site_aniso_U_22
_atom_site_aniso_U_33
_atom_site_aniso_U_23
_atom_site_aniso_U_13
_atom_site_aniso_U_12
Zn1 0.1261(6) 0.1261(6) 0.0778(6) 0.0128(4) 0.0128(4) 0.0841(6)
O1 0.359(4) 0.127(2) 0.124(2) 0.0392(19) 0.083(2) 0.142(3)
O2 0.158(2) 0.1020(18) 0.0757(16) 0.0069(14) 0.0268(15) 0.0684(16)
O3 0.143(2) 0.129(2) 0.0891(17) -0.0099(16) -0.0024(14) 0.071(2)
N1 0.138(3) 0.123(3) 0.075(2) 0.0168(19) 0.0157(18) 0.089(3)
N2 0.140(4) 0.124(5) 0.0590(17) -0.0055(19) -0.0044(19) 0.079(4)
N3 0.120(3) 0.120(3) 0.083(3) 0.026(2) 0.026(2) 0.071(3)
C1 0.209(4) 0.115(3) 0.110(3) 0.025(3) 0.053(3) 0.098(3)
C2 0.219(4) 0.114(3) 0.087(3) 0.023(3) 0.062(3) 0.097(3)
C3 0.166(4) 0.121(4) 0.091(3) 0.041(3) 0.054(3) 0.086(3)
C4 0.194(13) 0.095(9) 0.117(10) -0.011(7) 0.042(9) 0.042(9)
C5 0.126(9) 0.093(10) 0.181(12) 0.006(8) 0.081(8) 0.025(8)
C4' 0.38(2) 0.121(13) 0.082(9) 0.055(9) 0.105(13) 0.145(16)
C5' 0.267(16) 0.119(11) 0.057(5) 0.036(6) 0.058(9) 0.133(13)
C6 0.194(4) 0.116(4) 0.101(3) 0.006(3) 0.037(3) 0.098(3)
C7 0.118(3) 0.115(3) 0.083(2) -0.003(2) 0.019(2) 0.049(2)
C8 0.097(3) 0.127(3) 0.093(3) -0.014(2) 0.000(2) 0.036(3)
C9 0.141(5) 0.109(5) 0.052(2) -0.014(3) 0.001(3) 0.057(7)
C10 0.124(4) 0.124(4) 0.105(5) 0.021(3) 0.021(3) 0.086(4)
C11 0.194(5) 0.194(5) 0.201(6) 0.093(5) 0.093(5) 0.132(5)
F1 0.255(4) 0.255(4) 0.136(4) 0.000 0.000 0.1277(18)
F2 0.382(7) 0.360(6) 0.397(6) 0.139(4) 0.179(5) 0.221(4)
B1 0.197(6) 0.197(6) 0.028(4) 0.000 0.000 0.098(3)

_geom_special_details            
; 
 All esds (except the esd in the dihedral angle between two l.s. planes) 
 are estimated using the full covariance matrix.  The cell esds are taken 
 into account individually in the estimation of esds in distances, angles 
 and torsion angles; correlations between esds in cell parameters are only 
 used when they are defined by crystal symmetry.  An approximate (isotropic) 
 treatment of cell esds is used for estimating esds involving l.s. planes. 
;

loop_
_geom_bond_atom_site_label_1
_geom_bond_atom_site_label_2
_geom_bond_distance
_geom_bond_site_symmetry_2
_geom_bond_publ_flag
Zn1 N3 2.182(4) 7_666 ?
Zn1 N3 2.182(4) . ?
Zn1 N1 2.189(3) . ?
Zn1 N1 2.189(3) 7_666 ?
Zn1 N1 2.189(3) 4_666 ?
Zn1 N1 2.189(3) 10 ?
O1 C6 1.207(4) . ?
O2 C6 1.290(4) . ?
O2 C7 1.427(3) . ?
O3 C9 1.221(4) . ?
N1 C5' 1.257(12) . ?
N1 C1 1.325(4) . ?
N1 C5 1.389(15) . ?
N2 C9 1.356(4) 3_665 ?
N2 C9 1.377(4) . ?
N2 C8 1.507(4) . ?
N3 C10 1.107(5) . ?
C1 C2 1.346(4) . ?
C1 H1A 0.9300 . ?
C2 C3 1.286(4) . ?
C2 H2A 0.9300 . ?
C3 C4 1.375(19) . ?
C3 C4' 1.465(17) . ?
C3 C6 1.486(5) . ?
C4 C5 1.38(2) . ?
C4 H4A 0.9300 . ?
C5 H5A 0.9300 . ?
C4' C5' 1.285(19) . ?
C4' H4'A 0.9300 . ?
C5' H5'A 0.9300 . ?
C7 C8 1.475(4) . ?
C7 H7A 0.9700 . ?
C7 H7B 0.9700 . ?
C8 H8A 0.9700 . ?
C8 H8B 0.9700 . ?
C9 N2 1.356(4) 2_655 ?
C10 C11 1.476(7) . ?
C11 H11A 0.8952 . ?
C11 H11B 0.9480 . ?
C11 H11C 0.9797 . ?
F1 B1 1.277(7) . ?
F2 B1 1.393(4) . ?
B1 F2 1.393(4) 3_565 ?
B1 F2 1.393(4) 2_665 ?

loop_
_geom_angle_atom_site_label_1
_geom_angle_atom_site_label_2
_geom_angle_atom_site_label_3
_geom_angle
_geom_angle_site_symmetry_1
_geom_angle_site_symmetry_3
_geom_angle_publ_flag
N3 Zn1 N3 179.998(1) 7_666 . ?
N3 Zn1 N1 89.33(12) 7_666 . ?
N3 Zn1 N1 90.68(12) . . ?
N3 Zn1 N1 90.67(12) 7_666 7_666 ?
N3 Zn1 N1 89.33(12) . 7_666 ?
N1 Zn1 N1 180.00(19) . 7_666 ?
N3 Zn1 N1 90.67(12) 7_666 4_666 ?
N3 Zn1 N1 89.33(12) . 4_666 ?
N1 Zn1 N1 89.89(16) . 4_666 ?
N1 Zn1 N1 90.11(16) 7_666 4_666 ?
N3 Zn1 N1 89.33(12) 7_666 10 ?
N3 Zn1 N1 90.67(12) . 10 ?
N1 Zn1 N1 90.11(16) . 10 ?
N1 Zn1 N1 89.89(16) 7_666 10 ?
N1 Zn1 N1 180.0 4_666 10 ?
C6 O2 C7 116.7(3) . . ?
C5' N1 C1 110.3(6) . . ?
C5' N1 C5 41.4(7) . . ?
C1 N1 C5 108.7(8) . . ?
C5' N1 Zn1 122.5(6) . . ?
C1 N1 Zn1 123.9(3) . . ?
C5 N1 Zn1 122.7(7) . . ?
C9 N2 C9 123.1(5) 3_665 . ?
C9 N2 C8 120.0(6) 3_665 . ?
C9 N2 C8 116.8(6) . . ?
C10 N3 Zn1 179.2(6) . . ?
N1 C1 C2 124.8(4) . . ?
N1 C1 H1A 117.6 . . ?
C2 C1 H1A 117.6 . . ?
C3 C2 C1 122.0(4) . . ?
C3 C2 H2A 119.0 . . ?
C1 C2 H2A 119.0 . . ?
C2 C3 C4 112.8(10) . . ?
C2 C3 C4' 110.0(8) . . ?
C4 C3 C4' 41.2(8) . . ?
C2 C3 C6 124.7(4) . . ?
C4 C3 C6 117.5(9) . . ?
C4' C3 C6 122.5(8) . . ?
C3 C4 C5 118.5(14) . . ?
C3 C4 H4A 120.8 . . ?
C5 C4 H4A 120.8 . . ?
C4 C5 N1 122.6(12) . . ?
C4 C5 H5A 118.7 . . ?
N1 C5 H5A 118.7 . . ?
C5' C4' C3 119.7(11) . . ?
C5' C4' H4'A 120.2 . . ?
C3 C4' H4'A 120.2 . . ?
N1 C5' C4' 127.3(10) . . ?
N1 C5' H5'A 116.4 . . ?
C4' C5' H5'A 116.4 . . ?
O1 C6 O2 125.3(4) . . ?
O1 C6 C3 123.3(4) . . ?
O2 C6 C3 111.3(4) . . ?
O2 C7 C8 107.5(3) . . ?
O2 C7 H7A 110.2 . . ?
C8 C7 H7A 110.2 . . ?
O2 C7 H7B 110.2 . . ?
C8 C7 H7B 110.2 . . ?
H7A C7 H7B 108.5 . . ?
C7 C8 N2 111.6(3) . . ?
C7 C8 H8A 109.3 . . ?
N2 C8 H8A 109.3 . . ?
C7 C8 H8B 109.3 . . ?
N2 C8 H8B 109.3 . . ?
H8A C8 H8B 108.0 . . ?
O3 C9 N2 121.6(7) . 2_655 ?
O3 C9 N2 121.5(7) . . ?
N2 C9 N2 116.8(5) 2_655 . ?
N3 C10 C11 178.4(7) . . ?
C10 C11 H11A 111.6 . . ?
C10 C11 H11B 109.8 . . ?
H11A C11 H11B 125.6 . . ?
C10 C11 H11C 108.5 . . ?
H11A C11 H11C 89.7 . . ?
H11B C11 H11C 108.8 . . ?
F1 B1 F2 111.9(4) . 3_565 ?
F1 B1 F2 111.9(4) . 2_665 ?
F2 B1 F2 106.9(4) 3_565 2_665 ?
F1 B1 F2 111.9(4) . . ?
F2 B1 F2 106.9(4) 3_565 . ?
F2 B1 F2 106.9(4) 2_665 . ?

loop_
_geom_torsion_atom_site_label_1
_geom_torsion_atom_site_label_2
_geom_torsion_atom_site_label_3
_geom_torsion_atom_site_label_4
_geom_torsion
_geom_torsion_site_symmetry_1
_geom_torsion_site_symmetry_2
_geom_torsion_site_symmetry_3
_geom_torsion_site_symmetry_4
_geom_torsion_publ_flag
N3 Zn1 N1 C5' -41.1(9) 7_666 . . . ?
N3 Zn1 N1 C5' 138.9(9) . . . . ?
N1 Zn1 N1 C5' -62(12) 7_666 . . . ?
N1 Zn1 N1 C5' 49.6(9) 4_666 . . . ?
N1 Zn1 N1 C5' -130.4(9) 10 . . . ?
N3 Zn1 N1 C1 161.4(3) 7_666 . . . ?
N3 Zn1 N1 C1 -18.6(3) . . . . ?
N1 Zn1 N1 C1 141(12) 7_666 . . . ?
N1 Zn1 N1 C1 -107.9(3) 4_666 . . . ?
N1 Zn1 N1 C1 72.1(3) 10 . . . ?
N3 Zn1 N1 C5 8.5(9) 7_666 . . . ?
N3 Zn1 N1 C5 -171.5(9) . . . . ?
N1 Zn1 N1 C5 -12(12) 7_666 . . . ?
N1 Zn1 N1 C5 99.2(9) 4_666 . . . ?
N1 Zn1 N1 C5 -80.8(9) 10 . . . ?
N3 Zn1 N3 C10 0(100) 7_666 . . . ?
N1 Zn1 N3 C10 -134.94(10) . . . . ?
N1 Zn1 N3 C10 45.06(10) 7_666 . . . ?
N1 Zn1 N3 C10 -45.06(10) 4_666 . . . ?
N1 Zn1 N3 C10 134.94(10) 10 . . . ?
C5' N1 C1 C2 22.6(10) . . . . ?
C5 N1 C1 C2 -21.4(9) . . . . ?
Zn1 N1 C1 C2 -177.5(3) . . . . ?
N1 C1 C2 C3 -5.6(7) . . . . ?
C1 C2 C3 C4 29.6(9) . . . . ?
C1 C2 C3 C4' -14.7(10) . . . . ?
C1 C2 C3 C6 -176.1(4) . . . . ?
C2 C3 C4 C5 -25.2(17) . . . . ?
C4' C3 C4 C5 69.5(16) . . . . ?
C6 C3 C4 C5 178.4(13) . . . . ?
C3 C4 C5 N1 -2(3) . . . . ?
C5' N1 C5 C4 -75.7(18) . . . . ?
C1 N1 C5 C4 24.2(19) . . . . ?
Zn1 N1 C5 C4 -179.4(13) . . . . ?
C2 C3 C4' C5' 19(2) . . . . ?
C4 C3 C4' C5' -84(3) . . . . ?
C6 C3 C4' C5' -179.6(14) . . . . ?
C1 N1 C5' C4' -18(2) . . . . ?
C5 N1 C5' C4' 77(2) . . . . ?
Zn1 N1 C5' C4' -178.7(16) . . . . ?
C3 C4' C5' N1 -1(3) . . . . ?
C7 O2 C6 O1 -2.4(6) . . . . ?
C7 O2 C6 C3 175.1(3) . . . . ?
C2 C3 C6 O1 178.4(5) . . . . ?
C4 C3 C6 O1 -28.4(10) . . . . ?
C4' C3 C6 O1 19.2(11) . . . . ?
C2 C3 C6 O2 0.8(6) . . . . ?
C4 C3 C6 O2 154.1(8) . . . . ?
C4' C3 C6 O2 -158.3(9) . . . . ?
C6 O2 C7 C8 -179.8(3) . . . . ?
O2 C7 C8 N2 65.5(4) . . . . ?
C9 N2 C8 C7 -96.3(4) 3_665 . . . ?
C9 N2 C8 C7 81.6(3) . . . . ?
C9 N2 C9 O3 -179.70(18) 3_665 . . . ?
C8 N2 C9 O3 2.5(4) . . . . ?
C9 N2 C9 N2 -2.4(6) 3_665 . . 2_655 ?
C8 N2 C9 N2 179.8(2) . . . 2_655 ?
Zn1 N3 C10 C11 0.00(10) . . . . ?

_diffrn_measured_fraction_theta_max 1.000
_diffrn_reflns_theta_full        26.50
_diffrn_measured_fraction_theta_full 1.000
_refine_diff_density_max         0.132
_refine_diff_density_min         -0.282
_refine_diff_density_rms         0.045
loop_
_platon_squeeze_void_nr
_platon_squeeze_void_average_x
_platon_squeeze_void_average_y
_platon_squeeze_void_average_z
_platon_squeeze_void_volume
_platon_squeeze_void_count_electrons
_platon_squeeze_void_content
1 -0.002 -0.002 -0.012 3577 1619 ' '
_platon_squeeze_details          
;
;
