####################################################################### 
# 
# This file contains crystal structure data downloaded from the 
# Cambridge Structural Database (CSD) hosted by the Cambridge 
# Crystallographic Data Centre (CCDC).
# 
# Full information about CCDC data access policies and citation 
# guidelines are available at http://www.ccdc.cam.ac.uk/access/V1 
# 
# Audit and citation data items may have been added by the CCDC. 
# Please retain this information to preserve the provenance of 
# this file and to allow appropriate attribution of the data. 
# 
#######################################################################

data_02-Zn-MOF_ClO4
_audit_block_doi                 10.5517/cc14lg4b
_database_code_depnum_ccdc_archive 'CCDC 1060421'
loop_
_citation_id
_citation_doi
_citation_year
1 10.1002/anie.201503588 2015
_audit_update_record             
;
2015-04-20 deposited with the CCDC.	2024-07-13 downloaded from the CCDC.
;

_audit_creation_method           SHELXL-97
_chemical_name_systematic        
; 
 ? 
;
_chemical_name_common            ?
_chemical_melting_point          ?
_chemical_formula_moiety         ?
_chemical_formula_sum            'C120 H138 Cl4 N30 O64 Zn3'
_chemical_formula_weight         3362.57

loop_
_atom_type_symbol
_atom_type_description
_atom_type_scat_dispersion_real
_atom_type_scat_dispersion_imag
_atom_type_scat_source
C C 0.0033 0.0016 'International Tables Vol C Tables 4.2.6.8 and 6.1.1.4'
H H 0.0000 0.0000 'International Tables Vol C Tables 4.2.6.8 and 6.1.1.4'
Cl Cl 0.1484 0.1585 'International Tables Vol C Tables 4.2.6.8 and 6.1.1.4'
N N 0.0061 0.0033 'International Tables Vol C Tables 4.2.6.8 and 6.1.1.4'
O O 0.0106 0.0060 'International Tables Vol C Tables 4.2.6.8 and 6.1.1.4'
Zn Zn 0.2839 1.4301 'International Tables Vol C Tables 4.2.6.8 and 6.1.1.4'

_symmetry_cell_setting           Trigonal
_symmetry_space_group_name_H-M   P-31m

loop_
_symmetry_equiv_pos_as_xyz
'x, y, z'
'-y, x-y, z'
'-x+y, -x, z'
'-y, -x, -z'
'x, x-y, -z'
'-x+y, y, -z'
'-x, -y, -z'
'y, -x+y, -z'
'x-y, x, -z'
'y, x, z'
'-x, -x+y, z'
'x-y, -y, z'

_cell_length_a                   21.341(2)
_cell_length_b                   21.341(2)
_cell_length_c                   16.635(3)
_cell_angle_alpha                90.00
_cell_angle_beta                 90.00
_cell_angle_gamma                120.00
_cell_volume                     6561.2(15)
_cell_formula_units_Z            1
_cell_measurement_temperature    293(2)
_cell_measurement_reflns_used    4795
_cell_measurement_theta_min      2.27
_cell_measurement_theta_max      18.69

_exptl_crystal_description       BLOCK
_exptl_crystal_colour            COLORLESS
_exptl_crystal_size_max          0.48
_exptl_crystal_size_mid          0.48
_exptl_crystal_size_min          0.22
_exptl_crystal_density_meas      ?
_exptl_crystal_density_diffrn    0.851
_exptl_crystal_density_method    'not measured'
_exptl_crystal_F_000             1738
_exptl_absorpt_coefficient_mu    0.372
_exptl_absorpt_correction_type   MULTI-SCAN
_exptl_absorpt_correction_T_min  0.8415
_exptl_absorpt_correction_T_max  0.9226
_exptl_absorpt_process_details   sadabs

_exptl_special_details           
; 
 ? 
;

_diffrn_ambient_temperature      293(2)
_diffrn_radiation_wavelength     0.71073
_diffrn_radiation_type           MoK\a
_diffrn_radiation_source         'fine-focus sealed tube'
_diffrn_radiation_monochromator  graphite
_diffrn_measurement_device_type  'Bruker Breeze CCD'
_diffrn_measurement_method       '\f and \w scans'
_diffrn_detector_area_resol_mean ?
_diffrn_reflns_number            54805
_diffrn_reflns_av_R_equivalents  0.0609
_diffrn_reflns_av_unetI/netI     0.0685
_diffrn_reflns_limit_h_min       -26
_diffrn_reflns_limit_h_max       26
_diffrn_reflns_limit_k_min       -26
_diffrn_reflns_limit_k_max       26
_diffrn_reflns_limit_l_min       -16
_diffrn_reflns_limit_l_max       20
_diffrn_reflns_theta_min         1.10
_diffrn_reflns_theta_max         25.99
_reflns_number_total             4311
_reflns_number_gt                1443
_reflns_threshold_expression     >2sigma(I)

_computing_data_collection       'Bruker APEX2'
_computing_cell_refinement       'Bruker APEX2'
_computing_data_reduction        'Bruker APEX2'
_computing_structure_solution    'SHELXS-97 (Sheldrick, 2008)'
_computing_structure_refinement  'SHELXL-97 (Sheldrick, 2008)'
_computing_molecular_graphics    'Bruker SHELXTL'
_computing_publication_material  'Bruker SHELXTL'

_refine_special_details          
; 
 Refinement of F^2^ against ALL reflections.  The weighted R-factor wR and 
 goodness of fit S are based on F^2^, conventional R-factors R are based 
 on F, with F set to zero for negative F^2^. The threshold expression of 
 F^2^ > 2sigma(F^2^) is used only for calculating R-factors(gt) etc. and is 
 not relevant to the choice of reflections for refinement.  R-factors based 
 on F^2^ are statistically about twice as large as those based on F, and R- 
 factors based on ALL data will be even larger. 
;

_refine_ls_structure_factor_coef Fsqd
_refine_ls_matrix_type           full
_refine_ls_weighting_scheme      calc
_refine_ls_weighting_details     
'calc w=1/[\s^2^(Fo^2^)+(0.1700P)^2^+0.0000P] where P=(Fo^2^+2Fc^2^)/3'
_atom_sites_solution_primary     direct
_atom_sites_solution_secondary   difmap
_atom_sites_solution_hydrogens   geom
_refine_ls_hydrogen_treatment    constr
_refine_ls_extinction_method     none
_refine_ls_extinction_coef       ?
_refine_ls_number_reflns         4311
_refine_ls_number_parameters     164
_refine_ls_number_restraints     7
_refine_ls_R_factor_all          0.2180
_refine_ls_R_factor_gt           0.1067
_refine_ls_wR_factor_ref         0.3439
_refine_ls_wR_factor_gt          0.3063
_refine_ls_goodness_of_fit_ref   1.027
_refine_ls_restrained_S_all      1.029
_refine_ls_shift/su_max          0.002
_refine_ls_shift/su_mean         0.000

loop_
_atom_site_label
_atom_site_type_symbol
_atom_site_fract_x
_atom_site_fract_y
_atom_site_fract_z
_atom_site_U_iso_or_equiv
_atom_site_adp_type
_atom_site_occupancy
_atom_site_symmetry_multiplicity
_atom_site_calc_flag
_atom_site_refinement_flags
_atom_site_disorder_assembly
_atom_site_disorder_group
Zn1 Zn 0.5000 0.5000 0.5000 0.1033(7) Uani 1 4 d S . .
Cl1 Cl 0.3333 0.6667 0.3527(3) 0.2104(19) Uani 1 3 d S . .
O1 O 0.1740(3) 0.4594(4) 0.3340(3) 0.210(3) Uani 1 1 d . . .
O2 O 0.2425(2) 0.4947(2) 0.2287(3) 0.1185(15) Uani 1 1 d . . .
O3 O 0.2019(3) 0.6406(2) 0.1023(2) 0.1176(14) Uani 1 1 d . . .
O4 O 0.2696(6) 0.6033(6) 0.3917(7) 0.379(6) Uani 1 1 d . . .
O5 O 0.3333 0.6667 0.2687(5) 0.225(5) Uani 1 3 d S . .
O6 O 0.0000 0.4742(7) 0.1688(8) 0.316(7) Uani 1 2 d S . .
H6A H 0.0000 0.5137 0.1650 0.379 Uiso 1 2 d SR . .
H6B H 0.0000 0.4586 0.1240 0.379 Uiso 1 2 d SR . .
O7 O 0.3163(7) 0.0000 0.0623(9) 0.365(7) Uani 1 2 d SU . .
H7C H 0.3579 0.0000 0.0730 0.438 Uiso 1 2 d SR . .
H7D H 0.3030 0.0000 -0.0065 0.438 Uiso 1 2 d SR . .
N2 N 0.2809(4) 0.6000(4) 0.0989(3) 0.1064(17) Uani 1 1 d . . .
N3 N 0.4261(4) 0.4261(4) 0.5895(4) 0.109(2) Uani 1 2 d S . .
N1 N 0.4094(2) 0.4950(2) 0.4307(3) 0.1085(15) Uani 1 1 d G . .
C1 C 0.4150(2) 0.5099(2) 0.3488(3) 0.146(3) Uani 1 1 d G . .
H1A H 0.4587 0.5251 0.3224 0.175 Uiso 1 1 calc R . .
C2 C 0.3554(3) 0.5020(2) 0.30646(19) 0.131(2) Uani 1 1 d G . .
H2A H 0.3591 0.5120 0.2517 0.157 Uiso 1 1 calc R . .
C3 C 0.2901(2) 0.4792(3) 0.3460(3) 0.129(2) Uani 1 1 d GD . .
C4 C 0.2844(2) 0.4643(4) 0.4278(3) 0.330(9) Uani 1 1 d G . .
H4A H 0.2408 0.4491 0.4542 0.396 Uiso 1 1 calc R . .
C5 C 0.3441(3) 0.4722(3) 0.4702(2) 0.247(6) Uani 1 1 d G . .
H5A H 0.3403 0.4622 0.5250 0.297 Uiso 1 1 calc R . .
C6 C 0.2346(4) 0.4773(5) 0.3011(6) 0.160(3) Uani 1 1 d D . .
C7 C 0.1904(4) 0.4994(3) 0.1832(4) 0.121(2) Uani 1 1 d . . .
H7A H 0.1796 0.5344 0.2069 0.146 Uiso 1 1 calc R . .
H7B H 0.1462 0.4529 0.1817 0.146 Uiso 1 1 calc R . .
C8 C 0.2194(4) 0.5225(4) 0.0996(3) 0.124(2) Uani 1 1 d . . .
H8A H 0.1809 0.5179 0.0647 0.149 Uiso 1 1 calc R . .
H8B H 0.2364 0.4911 0.0792 0.149 Uiso 1 1 calc R . .
C9 C 0.2647(4) 0.6526(7) 0.1009(3) 0.109(2) Uani 1 1 d . . .
C10 C 0.3884(5) 0.3884(5) 0.6324(6) 0.111(3) Uani 1 2 d S . .
C11 C 0.3371(7) 0.3371(7) 0.6878(8) 0.207(6) Uani 1 2 d S . .
H11A H 0.3127 0.3583 0.7153 0.249 Uiso 0.50 1 calc PR . .
H11B H 0.3618 0.3236 0.7262 0.249 Uiso 0.50 1 calc PR . .
H11C H 0.3023 0.2949 0.6591 0.249 Uiso 0.50 1 calc PR . .

loop_
_atom_site_aniso_label
_atom_site_aniso_U_11
_atom_site_aniso_U_22
_atom_site_aniso_U_33
_atom_site_aniso_U_23
_atom_site_aniso_U_13
_atom_site_aniso_U_12
Zn1 0.1279(11) 0.1279(11) 0.0811(11) 0.0107(6) 0.0107(6) 0.0842(10)
Cl1 0.226(3) 0.226(3) 0.180(5) 0.000 0.000 0.1129(16)
O1 0.139(5) 0.354(8) 0.137(5) 0.100(5) 0.010(4) 0.123(5)
O2 0.111(3) 0.162(4) 0.082(3) 0.029(3) -0.008(2) 0.067(3)
O3 0.133(4) 0.138(4) 0.075(3) 0.000(2) -0.016(2) 0.063(3)
O4 0.342(12) 0.350(12) 0.525(17) 0.223(11) 0.219(10) 0.233(9)
O5 0.317(9) 0.317(9) 0.042(5) 0.000 0.000 0.159(4)
O6 0.117(7) 0.369(13) 0.377(17) -0.035(12) 0.000 0.059(3)
O7 0.387(9) 0.363(9) 0.336(10) 0.000 0.021(7) 0.181(4)
N2 0.130(6) 0.152(6) 0.071(3) -0.024(3) -0.025(3) 0.095(5)
N3 0.134(5) 0.134(5) 0.075(5) 0.029(4) 0.029(4) 0.078(5)
N1 0.128(4) 0.140(4) 0.105(4) 0.015(3) 0.012(3) 0.103(3)
C1 0.169(7) 0.193(7) 0.116(6) 0.060(5) 0.041(5) 0.121(6)
C2 0.152(6) 0.188(7) 0.096(5) 0.048(4) 0.044(5) 0.119(6)
C3 0.136(6) 0.155(6) 0.105(5) 0.049(4) 0.021(5) 0.080(5)
C4 0.244(11) 0.69(3) 0.196(10) 0.274(14) 0.120(8) 0.340(15)
C5 0.166(7) 0.510(17) 0.151(7) 0.161(9) 0.083(6) 0.233(10)
C6 0.097(6) 0.215(8) 0.164(9) 0.060(7) -0.018(6) 0.075(6)
C7 0.141(6) 0.127(5) 0.090(5) 0.019(4) 0.002(4) 0.063(4)
C8 0.152(6) 0.157(6) 0.059(4) 0.009(4) 0.003(4) 0.073(5)
C9 0.083(7) 0.182(9) 0.057(4) -0.008(5) -0.005(4) 0.063(9)
C10 0.134(7) 0.134(7) 0.118(8) 0.038(6) 0.038(6) 0.107(7)
C11 0.259(12) 0.259(12) 0.205(13) 0.115(11) 0.115(11) 0.207(13)

_geom_special_details            
; 
 All esds (except the esd in the dihedral angle between two l.s. planes) 
 are estimated using the full covariance matrix.  The cell esds are taken 
 into account individually in the estimation of esds in distances, angles 
 and torsion angles; correlations between esds in cell parameters are only 
 used when they are defined by crystal symmetry.  An approximate (isotropic) 
 treatment of cell esds is used for estimating esds involving l.s. planes. 
;

loop_
_geom_bond_atom_site_label_1
_geom_bond_atom_site_label_2
_geom_bond_distance
_geom_bond_site_symmetry_2
_geom_bond_publ_flag
Zn1 N3 2.168(7) 7_666 ?
Zn1 N3 2.168(7) . ?
Zn1 N1 2.207(3) 10 ?
Zn1 N1 2.207(3) 4_666 ?
Zn1 N1 2.207(3) 7_666 ?
Zn1 N1 2.207(3) . ?
Cl1 O5 1.397(8) . ?
Cl1 O4 1.503(8) 2_665 ?
Cl1 O4 1.503(8) . ?
Cl1 O4 1.503(8) 3_565 ?
O1 C6 1.274(9) . ?
O2 C6 1.246(9) . ?
O2 C7 1.390(7) . ?
O3 C9 1.233(6) . ?
O6 H6A 0.8452 . ?
O6 H6B 0.8166 . ?
O7 H7C 0.9041 . ?
O7 H7D 1.1787 . ?
N2 C9 1.311(7) 2_665 ?
N2 C9 1.330(7) . ?
N2 C8 1.512(8) . ?
N3 C10 1.077(9) . ?
N1 C1 1.3900 . ?
N1 C5 1.3900 . ?
C1 C2 1.3900 . ?
C1 H1A 0.9300 . ?
C2 C3 1.3900 . ?
C2 H2A 0.9300 . ?
C3 C6 1.383(2) . ?
C3 C4 1.3900 . ?
C4 C5 1.3900 . ?
C4 H4A 0.9300 . ?
C5 H5A 0.9300 . ?
C7 C8 1.501(8) . ?
C7 H7A 0.9700 . ?
C7 H7B 0.9700 . ?
C8 H8A 0.9700 . ?
C8 H8B 0.9700 . ?
C9 N2 1.311(7) 3_565 ?
C10 C11 1.432(13) . ?
C11 H11A 0.9600 . ?
C11 H11B 0.9600 . ?
C11 H11C 0.9600 . ?

loop_
_geom_angle_atom_site_label_1
_geom_angle_atom_site_label_2
_geom_angle_atom_site_label_3
_geom_angle
_geom_angle_site_symmetry_1
_geom_angle_site_symmetry_3
_geom_angle_publ_flag
N3 Zn1 N3 180.0(4) 7_666 . ?
N3 Zn1 N1 88.72(18) 7_666 10 ?
N3 Zn1 N1 91.28(18) . 10 ?
N3 Zn1 N1 91.28(18) 7_666 4_666 ?
N3 Zn1 N1 88.72(18) . 4_666 ?
N1 Zn1 N1 180.00(12) 10 4_666 ?
N3 Zn1 N1 91.28(18) 7_666 7_666 ?
N3 Zn1 N1 88.72(18) . 7_666 ?
N1 Zn1 N1 88.5(2) 10 7_666 ?
N1 Zn1 N1 91.5(2) 4_666 7_666 ?
N3 Zn1 N1 88.72(18) 7_666 . ?
N3 Zn1 N1 91.28(18) . . ?
N1 Zn1 N1 91.5(2) 10 . ?
N1 Zn1 N1 88.5(2) 4_666 . ?
N1 Zn1 N1 180.00(11) 7_666 . ?
O5 Cl1 O4 115.5(6) . 2_665 ?
O5 Cl1 O4 115.5(6) . . ?
O4 Cl1 O4 102.8(7) 2_665 . ?
O5 Cl1 O4 115.5(6) . 3_565 ?
O4 Cl1 O4 102.8(7) 2_665 3_565 ?
O4 Cl1 O4 102.8(7) . 3_565 ?
C6 O2 C7 123.6(5) . . ?
H6A O6 H6B 109.6 . . ?
H7C O7 H7D 115.4 . . ?
C9 N2 C9 123.1(8) 2_665 . ?
C9 N2 C8 118.5(10) 2_665 . ?
C9 N2 C8 118.3(10) . . ?
C10 N3 Zn1 178.2(10) . . ?
C1 N1 C5 120.0 . . ?
C1 N1 Zn1 121.8(3) . . ?
C5 N1 Zn1 118.1(3) . . ?
N1 C1 C2 120.0 . . ?
N1 C1 H1A 120.0 . . ?
C2 C1 H1A 120.0 . . ?
C1 C2 C3 120.0 . . ?
C1 C2 H2A 120.0 . . ?
C3 C2 H2A 120.0 . . ?
C6 C3 C4 123.2(6) . . ?
C6 C3 C2 116.7(6) . . ?
C4 C3 C2 120.0 . . ?
C5 C4 C3 120.0 . . ?
C5 C4 H4A 120.0 . . ?
C3 C4 H4A 120.0 . . ?
C4 C5 N1 120.0 . . ?
C4 C5 H5A 120.0 . . ?
N1 C5 H5A 120.0 . . ?
O2 C6 O1 118.1(4) . . ?
O2 C6 C3 121.7(8) . . ?
O1 C6 C3 120.2(8) . . ?
O2 C7 C8 108.4(6) . . ?
O2 C7 H7A 110.0 . . ?
C8 C7 H7A 110.0 . . ?
O2 C7 H7B 110.0 . . ?
C8 C7 H7B 110.0 . . ?
H7A C7 H7B 108.4 . . ?
C7 C8 N2 110.9(5) . . ?
C7 C8 H8A 109.5 . . ?
N2 C8 H8A 109.5 . . ?
C7 C8 H8B 109.5 . . ?
N2 C8 H8B 109.5 . . ?
H8A C8 H8B 108.1 . . ?
O3 C9 N2 120.5(12) . 3_565 ?
O3 C9 N2 122.7(11) . . ?
N2 C9 N2 116.8(8) 3_565 . ?
N3 C10 C11 178.6(15) . . ?
C10 C11 H11A 109.5 . . ?
C10 C11 H11B 109.5 . . ?
H11A C11 H11B 109.5 . . ?
C10 C11 H11C 109.5 . . ?
H11A C11 H11C 109.5 . . ?
H11B C11 H11C 109.5 . . ?

loop_
_geom_torsion_atom_site_label_1
_geom_torsion_atom_site_label_2
_geom_torsion_atom_site_label_3
_geom_torsion_atom_site_label_4
_geom_torsion
_geom_torsion_site_symmetry_1
_geom_torsion_site_symmetry_2
_geom_torsion_site_symmetry_3
_geom_torsion_site_symmetry_4
_geom_torsion_publ_flag
N3 Zn1 N3 C10 2(100) 7_666 . . . ?
N1 Zn1 N3 C10 -45.79(11) 10 . . . ?
N1 Zn1 N3 C10 134.21(11) 4_666 . . . ?
N1 Zn1 N3 C10 -134.23(11) 7_666 . . . ?
N1 Zn1 N3 C10 45.78(11) . . . . ?
N3 Zn1 N1 C1 24.1(3) 7_666 . . . ?
N3 Zn1 N1 C1 -155.9(3) . . . . ?
N1 Zn1 N1 C1 -64.6(3) 10 . . . ?
N1 Zn1 N1 C1 115.4(3) 4_666 . . . ?
N1 Zn1 N1 C1 79(7) 7_666 . . . ?
N3 Zn1 N1 C5 -159.6(3) 7_666 . . . ?
N3 Zn1 N1 C5 20.4(3) . . . . ?
N1 Zn1 N1 C5 111.7(3) 10 . . . ?
N1 Zn1 N1 C5 -68.3(3) 4_666 . . . ?
N1 Zn1 N1 C5 -104(7) 7_666 . . . ?
C5 N1 C1 C2 0.0 . . . . ?
Zn1 N1 C1 C2 176.3(3) . . . . ?
N1 C1 C2 C3 0.0 . . . . ?
C1 C2 C3 C6 175.8(6) . . . . ?
C1 C2 C3 C4 0.0 . . . . ?
C6 C3 C4 C5 -175.5(6) . . . . ?
C2 C3 C4 C5 0.0 . . . . ?
C3 C4 C5 N1 0.0 . . . . ?
C1 N1 C5 C4 0.0 . . . . ?
Zn1 N1 C5 C4 -176.4(2) . . . . ?
C7 O2 C6 O1 3.7(12) . . . . ?
C7 O2 C6 C3 -174.3(6) . . . . ?
C4 C3 C6 O2 176.1(6) . . . . ?
C2 C3 C6 O2 0.4(10) . . . . ?
C4 C3 C6 O1 -1.9(11) . . . . ?
C2 C3 C6 O1 -177.6(7) . . . . ?
C6 O2 C7 C8 179.4(7) . . . . ?
O2 C7 C8 N2 -69.1(7) . . . . ?
C9 N2 C8 C7 96.9(7) 2_665 . . . ?
C9 N2 C8 C7 -79.3(7) . . . . ?
C9 N2 C9 O3 -177.0(3) 2_665 . . . ?
C8 N2 C9 O3 -1.0(8) . . . . ?
C9 N2 C9 N2 5.1(11) 2_665 . . 3_565 ?
C8 N2 C9 N2 -178.9(3) . . . 3_565 ?
Zn1 N3 C10 C11 -0.01(11) . . . . ?

_diffrn_measured_fraction_theta_max 0.952
_diffrn_reflns_theta_full        25.99
_diffrn_measured_fraction_theta_full 0.952
_refine_diff_density_max         0.517
_refine_diff_density_min         -0.434
_refine_diff_density_rms         0.077

# SQUEEZE RESULTS (APPEND TO CIF)
# Note: Data are Listed for all Voids in the P1 Unit Cell
# i.e. Centre of Gravity, Solvent Accessible Volume,
# Recovered number of Electrons in the Void and
# Details about the Squeezed Material
loop_
_platon_squeeze_void_nr
_platon_squeeze_void_average_x
_platon_squeeze_void_average_y
_platon_squeeze_void_average_z
_platon_squeeze_void_volume
_platon_squeeze_void_count_electrons
_platon_squeeze_void_content
1 0.000 0.000 -0.014 3289 1583 ' '
_platon_squeeze_details          
;
;
