####################################################################### 
# 
# This file contains crystal structure data downloaded from the 
# Cambridge Structural Database (CSD) hosted by the Cambridge 
# Crystallographic Data Centre (CCDC).
# 
# Full information about CCDC data access policies and citation 
# guidelines are available at http://www.ccdc.cam.ac.uk/access/V1 
# 
# Audit and citation data items may have been added by the CCDC. 
# Please retain this information to preserve the provenance of 
# this file and to allow appropriate attribution of the data. 
# 
#######################################################################

data_CCDC_696895
_audit_block_doi                 10.5517/ccrd5hs
_database_code_depnum_ccdc_archive 'CCDC 696895'
loop_
_citation_id
_citation_doi
_citation_year
1 10.1039/b916168f 2010
_audit_update_record             
;
2008-07-30 deposited with the CCDC.	2024-07-13 downloaded from the CCDC.
;

_audit_creation_method           SHELXL-97
_chemical_name_systematic        
;
?
;
_chemical_name_common            ?
_chemical_melting_point          ?
_chemical_formula_moiety         ?
_chemical_formula_sum            'C68 H60 Mn4 N4 O20'
_chemical_formula_weight         1472.96

loop_
_atom_type_symbol
_atom_type_description
_atom_type_scat_dispersion_real
_atom_type_scat_dispersion_imag
_atom_type_scat_source
C C 0.0033 0.0016 'International Tables Vol C Tables 4.2.6.8 and 6.1.1.4'
H H 0.0000 0.0000 'International Tables Vol C Tables 4.2.6.8 and 6.1.1.4'
N N 0.0061 0.0033 'International Tables Vol C Tables 4.2.6.8 and 6.1.1.4'
O O 0.0106 0.0060 'International Tables Vol C Tables 4.2.6.8 and 6.1.1.4'
Mn Mn 0.3368 0.7283 'International Tables Vol C Tables 4.2.6.8 and 6.1.1.4'

_symmetry_cell_setting           triclinic
_symmetry_space_group_name_H-M   P-1

loop_
_symmetry_equiv_pos_as_xyz
'x, y, z'
'-x, -y, -z'

_cell_length_a                   13.819(3)
_cell_length_b                   15.382(3)
_cell_length_c                   24.383(5)
_cell_angle_alpha                100.41(3)
_cell_angle_beta                 95.25(3)
_cell_angle_gamma                101.09(3)
_cell_volume                     4959.8(17)
_cell_formula_units_Z            2
_cell_measurement_temperature    293(2)
_cell_measurement_reflns_used    2965
_cell_measurement_theta_min      2.25
_cell_measurement_theta_max      27.48

_exptl_crystal_description       block
_exptl_crystal_colour            colorless
_exptl_crystal_size_max          0.24
_exptl_crystal_size_mid          0.20
_exptl_crystal_size_min          0.18
_exptl_crystal_density_meas      none
_exptl_crystal_density_diffrn    0.986
_exptl_crystal_density_method    'not measured'
_exptl_crystal_F_000             1512
_exptl_absorpt_coefficient_mu    0.550
_exptl_absorpt_correction_type   multi-scan
_exptl_absorpt_correction_T_min  0.9245
_exptl_absorpt_correction_T_max  1.0000
_exptl_absorpt_process_details   '(ABSCOR; Higashi, 1995)'
_exptl_special_details           
;
Refinement using reflections with F^2^ > -3.0 sigma(F^2^).
The weighted R-factor(wR), goodness of fit (S) and R-factor (gt) are
based on F, with F set to zero for negative F. The threshold expression of
F^2^ > 2.0 sigma(F^2^) is used only for calculating R-factor (gt).
;

_diffrn_ambient_temperature      293(2)
_diffrn_radiation_wavelength     0.71073
_diffrn_radiation_type           MoK\a
_diffrn_radiation_source         'fine-focus sealed tube'
_diffrn_radiation_monochromator  graphite
_diffrn_measurement_device_type  'Rigaku RAXIS-RAPID'
_diffrn_measurement_method       \w
_diffrn_detector_area_resol_mean ?
_diffrn_standards_number         0
_diffrn_standards_interval_count 0
_diffrn_standards_interval_time  0
_diffrn_standards_decay_%        0
_diffrn_reflns_number            35966
_diffrn_reflns_av_R_equivalents  0.0488
_diffrn_reflns_av_sigmaI/netI    0.0686
_diffrn_reflns_limit_h_min       -16
_diffrn_reflns_limit_h_max       16
_diffrn_reflns_limit_k_min       -15
_diffrn_reflns_limit_k_max       18
_diffrn_reflns_limit_l_min       -28
_diffrn_reflns_limit_l_max       28
_diffrn_reflns_theta_min         3.03
_diffrn_reflns_theta_max         25.01
_reflns_number_total             16813
_reflns_number_gt                11923
_reflns_threshold_expression     >2sigma(I)

_computing_data_collection       'PROCESS-AUTO (Rigaku, 1998)'
_computing_cell_refinement       PROCESS-AUTO
_computing_data_reduction        'CrystalClear (Rigaku, 1999)'
_computing_structure_solution    'SHELXS-97 (Sheldrick, 1997a)'
_computing_structure_refinement  'SHELXL-97 (Sheldrick, 1997b)'
_computing_molecular_graphics    SHELXTL
_computing_publication_material  SHELXTL

_refine_special_details          
;
Refinement of F^2^ against ALL reflections. The weighted R-factor wR and
goodness of fit S are based on F^2^, conventional R-factors R are based
on F, with F set to zero for negative F^2^. The threshold expression of
F^2^ > 2sigma(F^2^) is used only for calculating R-factors(gt) etc. and is
not relevant to the choice of reflections for refinement. R-factors based
on F^2^ are statistically about twice as large as those based on F, and R-
factors based on ALL data will be even larger.
;

_refine_ls_structure_factor_coef Fsqd
_refine_ls_matrix_type           full
_refine_ls_weighting_scheme      calc
_refine_ls_weighting_details     
'calc w=1/[\s^2^(Fo^2^)+(0.1902P)^2^+1.3013P] where P=(Fo^2^+2Fc^2^)/3'
_atom_sites_solution_primary     direct
_atom_sites_solution_secondary   difmap
_atom_sites_solution_hydrogens   geom
_refine_ls_hydrogen_treatment    constr
_refine_ls_extinction_method     none
_refine_ls_extinction_coef       ?
_refine_ls_number_reflns         16813
_refine_ls_number_parameters     841
_refine_ls_number_restraints     21
_refine_ls_R_factor_all          0.1071
_refine_ls_R_factor_gt           0.0808
_refine_ls_wR_factor_ref         0.2782
_refine_ls_wR_factor_gt          0.2439
_refine_ls_goodness_of_fit_ref   1.039
_refine_ls_restrained_S_all      1.047
_refine_ls_shift/su_max          0.001
_refine_ls_shift/su_mean         0.000

loop_
_atom_site_label
_atom_site_type_symbol
_atom_site_fract_x
_atom_site_fract_y
_atom_site_fract_z
_atom_site_U_iso_or_equiv
_atom_site_adp_type
_atom_site_occupancy
_atom_site_symmetry_multiplicity
_atom_site_calc_flag
_atom_site_refinement_flags
_atom_site_disorder_assembly
_atom_site_disorder_group
C70 C 0.2156(15) 0.2739(19) 0.9703(7) 0.290 Uiso 1 1 d D . .
Mn1 Mn 0.82539(5) 0.35644(4) 0.67661(3) 0.0394(2) Uani 1 1 d . . .
Mn2 Mn 0.63213(5) 0.44387(4) 0.72616(3) 0.0393(2) Uani 1 1 d . . .
Mn3 Mn 0.39124(5) 0.34591(4) 0.67524(3) 0.0369(2) Uani 1 1 d . . .
Mn4 Mn 0.18142(5) 0.30163(5) 0.73737(4) 0.0515(2) Uani 1 1 d . . .
C1 C 0.8504(4) 0.6332(3) 0.6769(2) 0.0564(13) Uani 1 1 d . . .
C2 C 0.7748(5) 0.6783(4) 0.6835(4) 0.092(2) Uani 1 1 d . . .
H2 H 0.7120 0.6470 0.6874 0.110 Uiso 1 1 calc R . .
C3 C 0.7912(5) 0.7709(5) 0.6846(4) 0.104(3) Uani 1 1 d . . .
H3 H 0.7388 0.8004 0.6894 0.124 Uiso 1 1 calc R . .
C4 C 0.8816(4) 0.8195(4) 0.6788(3) 0.0659(16) Uani 1 1 d . . .
C5 C 0.9574(5) 0.7735(4) 0.6706(4) 0.091(3) Uani 1 1 d . . .
H5 H 1.0194 0.8040 0.6649 0.110 Uiso 1 1 calc R . .
C6 C 0.9410(5) 0.6816(4) 0.6710(4) 0.091(3) Uani 1 1 d . . .
H6 H 0.9936 0.6522 0.6670 0.109 Uiso 1 1 calc R . .
C7 C 0.8986(4) 0.9186(4) 0.6799(3) 0.0648(15) Uani 1 1 d . . .
C8 C 0.8241(5) 0.9584(4) 0.6631(4) 0.101(3) Uani 1 1 d . . .
H8 H 0.7609 0.9229 0.6500 0.121 Uiso 1 1 calc R . .
C9 C 0.8408(5) 1.0504(4) 0.6652(4) 0.091(2) Uani 1 1 d . . .
H9 H 0.7885 1.0750 0.6527 0.110 Uiso 1 1 calc R . .
C10 C 0.9314(4) 1.1066(3) 0.6850(2) 0.0541(12) Uani 1 1 d . . .
C11 C 1.0044(5) 1.0674(5) 0.7018(5) 0.130(4) Uani 1 1 d . . .
H11 H 1.0672 1.1031 0.7156 0.155 Uiso 1 1 calc R . .
C12 C 0.9885(5) 0.9748(4) 0.6992(5) 0.134(4) Uani 1 1 d . . .
H12 H 1.0413 0.9503 0.7111 0.161 Uiso 1 1 calc R . .
C13 C 0.8332(4) 0.5338(3) 0.6771(2) 0.0513(12) Uani 1 1 d . . .
C14 C 0.9470(4) 1.2073(3) 0.6875(2) 0.0501(12) Uani 1 1 d . . .
C15 C 0.8694(4) 0.4515(5) 0.8616(2) 0.0662(15) Uani 1 1 d . . .
C16 C 0.8364(6) 0.5027(7) 0.9056(3) 0.110(3) Uani 1 1 d . . .
H16 H 0.7793 0.5249 0.8991 0.132 Uiso 1 1 calc R . .
C17 C 0.8877(6) 0.5215(8) 0.9594(3) 0.120(4) Uani 1 1 d . . .
H17 H 0.8642 0.5560 0.9886 0.144 Uiso 1 1 calc R . .
C18 C 0.9728(5) 0.4900(6) 0.9705(2) 0.088(2) Uani 1 1 d . . .
C19 C 1.0063(7) 0.4427(7) 0.9252(3) 0.123(4) Uani 1 1 d . . .
H19 H 1.0659 0.4240 0.9307 0.148 Uiso 1 1 calc R . .
C20 C 0.9552(6) 0.4226(7) 0.8729(3) 0.107(3) Uani 1 1 d . . .
H20 H 0.9791 0.3883 0.8438 0.128 Uiso 1 1 calc R . .
C21 C 0.8137(4) 0.4312(4) 0.8033(2) 0.0544(12) Uani 1 1 d . . .
C22 C 0.5653(3) 0.2070(3) 0.60086(19) 0.0429(10) Uani 1 1 d . . .
C23 C 0.4866(4) 0.1921(3) 0.5592(2) 0.0584(14) Uani 1 1 d . . .
H23 H 0.4495 0.2362 0.5574 0.070 Uiso 1 1 calc R . .
C24 C 0.4624(4) 0.1118(4) 0.5199(2) 0.0628(15) Uani 1 1 d . . .
H24 H 0.4097 0.1034 0.4915 0.075 Uiso 1 1 calc R . .
C25 C 0.5137(3) 0.0438(3) 0.5215(2) 0.0495(12) Uani 1 1 d . . .
C26 C 0.5930(5) 0.0597(4) 0.5635(3) 0.083(2) Uani 1 1 d . . .
H26 H 0.6297 0.0154 0.5655 0.100 Uiso 1 1 calc R . .
C27 C 0.6187(4) 0.1401(4) 0.6024(3) 0.0732(19) Uani 1 1 d . . .
H27 H 0.6728 0.1494 0.6301 0.088 Uiso 1 1 calc R . .
C28 C 0.5917(3) 0.2914(3) 0.64472(18) 0.0385(9) Uani 1 1 d . . .
C29 C 0.4549(4) 0.4154(4) 0.8523(2) 0.0568(13) Uani 1 1 d . . .
C30 C 0.3789(5) 0.4265(6) 0.8826(2) 0.094(3) Uani 1 1 d . . .
H30 H 0.3139 0.4117 0.8646 0.113 Uiso 1 1 calc R . .
C31 C 0.3970(5) 0.4597(7) 0.9404(3) 0.101(3) Uani 1 1 d . . .
H31 H 0.3437 0.4674 0.9601 0.121 Uiso 1 1 calc R . .
C32 C 0.4904(4) 0.4813(6) 0.9689(2) 0.079(2) Uani 1 1 d . . .
C33 C 0.5651(5) 0.4677(9) 0.9374(3) 0.145(5) Uani 1 1 d . . .
H33 H 0.6297 0.4789 0.9556 0.174 Uiso 1 1 calc R . .
C34 C 0.5492(5) 0.4389(8) 0.8810(3) 0.128(4) Uani 1 1 d . . .
H34 H 0.6032 0.4348 0.8613 0.153 Uiso 1 1 calc R . .
C35 C 0.4363(3) 0.3813(3) 0.78992(19) 0.0452(11) Uani 1 1 d . . .
C36 C 0.4515(4) 0.6458(4) 0.7112(3) 0.0689(17) Uani 1 1 d . . .
C37 C 0.3540(4) 0.6466(4) 0.6952(3) 0.0777(19) Uani 1 1 d . . .
H37 H 0.3065 0.5927 0.6865 0.093 Uiso 1 1 calc R . .
C38 C 0.3261(5) 0.7276(4) 0.6919(3) 0.083(2) Uani 1 1 d . . .
H38 H 0.2598 0.7274 0.6808 0.100 Uiso 1 1 calc R . .
C39 C 0.3949(5) 0.8085(4) 0.7048(4) 0.085(2) Uani 1 1 d . . .
C40 C 0.4936(5) 0.8071(5) 0.7255(5) 0.120(4) Uani 1 1 d . . .
H40 H 0.5402 0.8613 0.7374 0.144 Uiso 1 1 calc R . .
C41 C 0.5211(5) 0.7275(4) 0.7282(5) 0.110(3) Uani 1 1 d . . .
H41 H 0.5865 0.7275 0.7413 0.132 Uiso 1 1 calc R . .
C42 C 0.3667(5) 0.8960(4) 0.6996(4) 0.081(2) Uani 1 1 d . . .
C43 C 0.2868(5) 0.9225(4) 0.7225(4) 0.089(2) Uani 1 1 d . . .
H43 H 0.2464 0.8834 0.7400 0.107 Uiso 1 1 calc R . .
C44 C 0.2654(5) 1.0058(4) 0.7200(4) 0.086(2) Uani 1 1 d . . .
H44 H 0.2122 1.0228 0.7367 0.104 Uiso 1 1 calc R . .
C45 C 0.3229(4) 1.0640(4) 0.6927(3) 0.0631(15) Uani 1 1 d . . .
C46 C 0.4016(5) 1.0368(4) 0.6697(4) 0.087(2) Uani 1 1 d . . .
H46 H 0.4406 1.0746 0.6507 0.104 Uiso 1 1 calc R . .
C47 C 0.4243(6) 0.9554(5) 0.6740(4) 0.096(3) Uani 1 1 d . . .
H47 H 0.4800 0.9401 0.6593 0.115 Uiso 1 1 calc R . .
C48 C 0.4827(4) 0.5562(4) 0.7107(3) 0.0611(14) Uani 1 1 d . . .
C49 C 0.3055(4) 1.1572(3) 0.6914(2) 0.0569(13) Uani 1 1 d . . .
C50 C 0.1611(4) 0.4029(5) 0.5804(2) 0.0651(16) Uani 1 1 d . . .
C51 C 0.1788(8) 0.4162(11) 0.5290(4) 0.181(7) Uani 1 1 d . . .
H51 H 0.2331 0.3982 0.5141 0.217 Uiso 1 1 calc R . .
C52 C 0.1176(9) 0.4567(11) 0.4973(4) 0.194(8) Uani 1 1 d . . .
H52 H 0.1343 0.4691 0.4630 0.233 Uiso 1 1 calc R . .
C53 C 0.0330(4) 0.4781(6) 0.5165(3) 0.077(2) Uani 1 1 d . . .
C54 C 0.0162(5) 0.4630(6) 0.5680(3) 0.097(3) Uani 1 1 d . . .
H54 H -0.0398 0.4779 0.5824 0.116 Uiso 1 1 calc R . .
C55 C 0.0789(5) 0.4263(6) 0.6000(3) 0.091(3) Uani 1 1 d . . .
H55 H 0.0647 0.4175 0.6354 0.109 Uiso 1 1 calc R . .
C56 C 0.2310(4) 0.3642(4) 0.6153(2) 0.0614(14) Uani 1 1 d . . .
C57 C 0.8058(9) 0.2744(8) 0.5493(3) 0.137(4) Uani 1 1 d . . .
H57 H 0.8446 0.2346 0.5584 0.165 Uiso 1 1 calc R . .
C58 C 0.6924(15) 0.3039(17) 0.4788(6) 0.260(12) Uani 1 1 d . . .
H58A H 0.6575 0.3191 0.5103 0.391 Uiso 1 1 calc R . .
H58B H 0.6475 0.2619 0.4491 0.391 Uiso 1 1 calc R . .
H58C H 0.7186 0.3578 0.4657 0.391 Uiso 1 1 calc R . .
C59 C 0.779(3) 0.203(3) 0.4526(7) 0.60(4) Uani 1 1 d . . .
H59A H 0.7490 0.2133 0.4181 0.896 Uiso 1 1 calc R . .
H59B H 0.7481 0.1440 0.4581 0.896 Uiso 1 1 calc R . .
H59C H 0.8490 0.2049 0.4506 0.896 Uiso 1 1 calc R . .
C60 C 0.1169(7) 0.4821(7) 0.7767(5) 0.129(4) Uani 1 1 d . . .
H60 H 0.0576 0.4597 0.7526 0.155 Uiso 1 1 calc R . .
C61 C 0.2141(18) 0.5977(15) 0.8421(13) 0.41(2) Uani 1 1 d . . .
H61A H 0.1916 0.6006 0.8783 0.618 Uiso 1 1 calc R . .
H61B H 0.2483 0.6568 0.8390 0.618 Uiso 1 1 calc R . .
H61C H 0.2586 0.5568 0.8377 0.618 Uiso 1 1 calc R . .
C62 C 0.0665(15) 0.6192(11) 0.7871(11) 0.328(16) Uani 1 1 d . . .
H62A H 0.0179 0.5845 0.7564 0.492 Uiso 1 1 calc R . .
H62B H 0.1013 0.6726 0.7764 0.492 Uiso 1 1 calc R . .
H62C H 0.0338 0.6364 0.8192 0.492 Uiso 1 1 calc R . .
N1 N 0.7689(10) 0.2653(8) 0.4951(3) 0.170(5) Uani 1 1 d . . .
N2 N 0.1337(9) 0.5675(6) 0.8007(5) 0.193(6) Uani 1 1 d . . .
O1 O 0.7456(3) 0.4911(2) 0.67715(17) 0.0618(9) Uani 1 1 d . . .
O2 O 0.9043(3) 0.4949(2) 0.67618(18) 0.0659(10) Uani 1 1 d . . .
O3 O 0.8727(3) 1.2359(2) 0.67051(16) 0.0587(9) Uani 1 1 d . . .
O4 O 1.0290(3) 1.2572(3) 0.7053(2) 0.0894(16) Uani 1 1 d . . .
O5 O 0.7363(3) 0.4615(3) 0.79668(15) 0.0678(11) Uani 1 1 d . . .
O6 O 0.8507(3) 0.3875(3) 0.76512(14) 0.0603(10) Uani 1 1 d . . .
O7 O 0.6664(2) 0.3052(2) 0.68164(13) 0.0431(7) Uani 1 1 d . . .
O8 O 0.5372(2) 0.3501(2) 0.64568(13) 0.0410(7) Uani 1 1 d . . .
O9 O 0.5090(3) 0.3743(2) 0.76341(13) 0.0531(8) Uani 1 1 d . . .
O10 O 0.3491(3) 0.3613(3) 0.76556(13) 0.0553(9) Uani 1 1 d . . .
O11 O 0.4190(3) 0.4875(2) 0.68906(19) 0.0685(11) Uani 1 1 d . . .
O12 O 0.5704(3) 0.5584(2) 0.7312(2) 0.0758(12) Uani 1 1 d . . .
O13 O 0.3681(3) 1.2083(2) 0.67134(16) 0.0584(9) Uani 1 1 d . . .
O14 O 0.2299(3) 1.1783(2) 0.71227(19) 0.0662(11) Uani 1 1 d . . .
O15 O 0.3077(3) 0.3458(4) 0.59540(18) 0.0814(13) Uani 1 1 d . . .
O16 O 0.2147(3) 0.3563(3) 0.66429(16) 0.0653(10) Uani 1 1 d . . .
O17 O 0.7912(3) 0.3318(3) 0.58696(16) 0.0717(11) Uani 1 1 d . . .
O18 O 0.1667(4) 0.4307(4) 0.7816(3) 0.1019(17) Uani 1 1 d . . .
O21 O 0.1597(6) 0.2575(5) 0.8169(3) 0.125(2) Uani 1 1 d D . .
C63 C 0.5413(13) 0.7473(10) 0.6003(8) 0.117(6) Uiso 0.50 1 d PD . .
C64 C 0.671(2) 0.705(2) 0.5486(15) 0.219(14) Uiso 0.50 1 d PD . .
C65 C 0.546(2) 0.5864(12) 0.5727(14) 0.210(13) Uiso 0.50 1 d PD . .
C66 C 0.956(2) 0.851(3) 0.4408(13) 0.230(16) Uiso 0.50 1 d PD . .
C67 C 0.811(2) 0.915(3) 0.4479(14) 0.28(2) Uiso 0.50 1 d PD . .
C68 C 0.904(7) 0.897(9) 0.5331(9) 0.69(8) Uiso 0.50 1 d PD . .
N3 N 0.5843(14) 0.6779(12) 0.5731(9) 0.159(7) Uiso 0.50 1 d PD . .
N4 N 0.8886(13) 0.8846(12) 0.4741(7) 0.125(5) Uiso 0.50 1 d PD . .
O19 O 0.5885(10) 0.8259(9) 0.6038(6) 0.123(4) Uiso 0.50 1 d PD . .
O20 O 1.043(3) 0.871(3) 0.4671(16) 0.337(17) Uiso 0.50 1 d PD . .
C69 C 0.2054(14) 0.2541(17) 0.8633(6) 0.283 Uiso 1 1 d D . .
H69 H 0.2730 0.2543 0.8654 0.340 Uiso 1 1 calc R . .
C71 C 0.0481(13) 0.2305(17) 0.9139(9) 0.308 Uiso 1 1 d D . .
H71A H 0.0290 0.1854 0.9358 0.462 Uiso 1 1 calc R . .
H71B H 0.0169 0.2085 0.8758 0.462 Uiso 1 1 calc R . .
H71C H 0.0275 0.2848 0.9295 0.462 Uiso 1 1 calc R . .
H70A H 0.2078 0.3581 0.9836 0.462 Uiso 1 1 d R . .
H70B H 0.2795 0.2979 0.9764 0.462 Uiso 1 1 d R . .
H70C H 0.1824 0.2656 1.0043 0.462 Uiso 1 1 d R . .
N5 N 0.1562(14) 0.2497(17) 0.9150(7) 0.349 Uiso 1 1 d D . .

loop_
_atom_site_aniso_label
_atom_site_aniso_U_11
_atom_site_aniso_U_22
_atom_site_aniso_U_33
_atom_site_aniso_U_23
_atom_site_aniso_U_13
_atom_site_aniso_U_12
Mn1 0.0386(4) 0.0321(4) 0.0453(4) 0.0037(3) -0.0030(3) 0.0100(3)
Mn2 0.0333(4) 0.0340(4) 0.0448(4) -0.0031(3) -0.0084(3) 0.0098(3)
Mn3 0.0348(4) 0.0333(4) 0.0407(4) 0.0043(3) -0.0070(3) 0.0111(3)
Mn4 0.0405(4) 0.0458(4) 0.0689(5) 0.0108(4) 0.0045(4) 0.0127(3)
C1 0.054(3) 0.038(3) 0.081(4) 0.018(3) 0.015(3) 0.009(2)
C2 0.053(3) 0.046(3) 0.180(8) 0.035(4) 0.019(4) 0.004(3)
C3 0.057(4) 0.052(4) 0.213(10) 0.046(5) 0.024(5) 0.021(3)
C4 0.051(3) 0.039(3) 0.110(5) 0.024(3) 0.008(3) 0.007(2)
C5 0.057(4) 0.049(3) 0.183(8) 0.047(4) 0.041(4) 0.016(3)
C6 0.071(4) 0.043(3) 0.178(8) 0.046(4) 0.050(5) 0.021(3)
C7 0.052(3) 0.044(3) 0.099(4) 0.017(3) 0.004(3) 0.013(3)
C8 0.058(4) 0.039(3) 0.197(9) 0.021(4) -0.018(5) 0.008(3)
C9 0.057(4) 0.041(3) 0.168(8) 0.018(4) -0.026(4) 0.011(3)
C10 0.040(3) 0.042(3) 0.082(4) 0.015(3) 0.003(2) 0.011(2)
C11 0.047(4) 0.049(4) 0.289(13) 0.062(6) -0.030(5) 0.000(3)
C12 0.047(4) 0.041(3) 0.308(14) 0.056(6) -0.027(6) -0.002(3)
C13 0.059(3) 0.039(3) 0.055(3) 0.010(2) 0.010(2) 0.006(2)
C14 0.043(3) 0.039(3) 0.074(3) 0.016(2) 0.009(2) 0.016(2)
C15 0.058(3) 0.092(4) 0.041(3) 0.000(3) -0.011(2) 0.020(3)
C16 0.075(5) 0.200(10) 0.052(4) -0.019(5) -0.021(3) 0.075(6)
C17 0.082(5) 0.217(10) 0.047(3) -0.036(5) -0.024(3) 0.071(6)
C18 0.071(4) 0.142(7) 0.046(3) -0.006(4) -0.026(3) 0.044(4)
C19 0.118(7) 0.199(10) 0.055(4) -0.020(5) -0.031(4) 0.101(7)
C20 0.104(6) 0.169(8) 0.048(3) -0.018(4) -0.023(3) 0.085(6)
C21 0.046(3) 0.062(3) 0.046(3) 0.003(2) -0.009(2) 0.006(2)
C22 0.036(2) 0.040(2) 0.044(2) -0.007(2) -0.0081(19) 0.0073(19)
C23 0.067(3) 0.047(3) 0.055(3) -0.013(2) -0.016(3) 0.030(3)
C24 0.068(3) 0.054(3) 0.056(3) -0.013(2) -0.026(