####################################################################### 
# 
# This file contains crystal structure data downloaded from the 
# Cambridge Structural Database (CSD) hosted by the Cambridge 
# Crystallographic Data Centre (CCDC).
# 
# Full information about CCDC data access policies and citation 
# guidelines are available at http://www.ccdc.cam.ac.uk/access/V1 
# 
# Audit and citation data items may have been added by the CCDC. 
# Please retain this information to preserve the provenance of 
# this file and to allow appropriate attribution of the data. 
# 
#######################################################################

data_CCDC_746292
_audit_block_doi                 10.5517/cct1kyb
_database_code_depnum_ccdc_archive 'CCDC 746292'
loop_
_citation_id
_citation_doi
_citation_year
1 10.1039/b916168f 2010
_audit_update_record             
;
2009-09-01 deposited with the CCDC.	2024-07-13 downloaded from the CCDC.
;

_audit_creation_method           SHELXL-97
_chemical_name_systematic        
;
?
;
_chemical_name_common            ?
_chemical_melting_point          ?
_chemical_formula_moiety         ?
_chemical_formula_sum            'C68 H60 Mn4 N4 O20'
_chemical_formula_weight         1472.96

loop_
_atom_type_symbol
_atom_type_description
_atom_type_scat_dispersion_real
_atom_type_scat_dispersion_imag
_atom_type_scat_source
C C 0.0033 0.0016 'International Tables Vol C Tables 4.2.6.8 and 6.1.1.4'
H H 0.0000 0.0000 'International Tables Vol C Tables 4.2.6.8 and 6.1.1.4'
N N 0.0061 0.0033 'International Tables Vol C Tables 4.2.6.8 and 6.1.1.4'
O O 0.0106 0.0060 'International Tables Vol C Tables 4.2.6.8 and 6.1.1.4'
Mn Mn 0.3368 0.7283 'International Tables Vol C Tables 4.2.6.8 and 6.1.1.4'

_symmetry_cell_setting           triclinic
_symmetry_space_group_name_H-M   P-1

loop_
_symmetry_equiv_pos_as_xyz
'x, y, z'
'-x, -y, -z'

_cell_length_a                   13.819(3)
_cell_length_b                   15.382(3)
_cell_length_c                   24.383(5)
_cell_angle_alpha                100.41(3)
_cell_angle_beta                 95.25(3)
_cell_angle_gamma                101.09(3)
_cell_volume                     4959.8(17)
_cell_formula_units_Z            2
_cell_measurement_temperature    293(2)
_cell_measurement_reflns_used    2965
_cell_measurement_theta_min      2.25
_cell_measurement_theta_max      27.48

_exptl_crystal_description       block
_exptl_crystal_colour            colorless
_exptl_crystal_size_max          0.24
_exptl_crystal_size_mid          0.20
_exptl_crystal_size_min          0.18
_exptl_crystal_density_diffrn    0.986
_exptl_crystal_density_method    'not measured'
_exptl_crystal_F_000             1512
_exptl_absorpt_coefficient_mu    0.550
_exptl_absorpt_correction_type   multi-scan
_exptl_absorpt_correction_T_min  0.9245
_exptl_absorpt_correction_T_max  1.0000
_exptl_absorpt_process_details   '(ABSCOR; Higashi, 1995)'
_exptl_special_details           
;
Refinement using reflections with F^2^ > -3.0 sigma(F^2^).
The weighted R-factor(wR), goodness of fit (S) and R-factor (gt) are
based on F, with F set to zero for negative F. The threshold expression of
F^2^ > 2.0 sigma(F^2^) is used only for calculating R-factor (gt).
;

_diffrn_ambient_temperature      293(2)
_diffrn_radiation_wavelength     0.71073
_diffrn_radiation_type           MoK\a
_diffrn_radiation_source         'fine-focus sealed tube'
_diffrn_radiation_monochromator  graphite
_diffrn_measurement_device_type  'Rigaku RAXIS-RAPID'
_diffrn_measurement_method       \w
_diffrn_detector_area_resol_mean ?
_diffrn_standards_number         0
_diffrn_standards_interval_count 0
_diffrn_standards_interval_time  0
_diffrn_standards_decay_%        0
_diffrn_reflns_number            35966
_diffrn_reflns_av_R_equivalents  0.0475
_diffrn_reflns_av_sigmaI/netI    0.0693
_diffrn_reflns_limit_h_min       -16
_diffrn_reflns_limit_h_max       16
_diffrn_reflns_limit_k_min       -15
_diffrn_reflns_limit_k_max       18
_diffrn_reflns_limit_l_min       -28
_diffrn_reflns_limit_l_max       28
_diffrn_reflns_theta_min         3.03
_diffrn_reflns_theta_max         25.01
_reflns_number_total             16813
_reflns_number_gt                11777
_reflns_threshold_expression     >2sigma(I)

_computing_data_collection       'PROCESS-AUTO (Rigaku, 1998)'
_computing_cell_refinement       PROCESS-AUTO
_computing_data_reduction        'CrystalClear (Rigaku, 1999)'
_computing_structure_solution    'SHELXS-97 (Sheldrick, 1997a)'
_computing_structure_refinement  'SHELXL-97 (Sheldrick, 1997b)'
_computing_molecular_graphics    SHELXTL
_computing_publication_material  SHELXTL

_refine_special_details          
;
Refinement of F^2^ against ALL reflections. The weighted R-factor wR and
goodness of fit S are based on F^2^, conventional R-factors R are based
on F, with F set to zero for negative F^2^. The threshold expression of
F^2^ > 2sigma(F^2^) is used only for calculating R-factors(gt) etc. and is
not relevant to the choice of reflections for refinement. R-factors based
on F^2^ are statistically about twice as large as those based on F, and R-
factors based on ALL data will be even larger.
;

_refine_ls_structure_factor_coef Fsqd
_refine_ls_matrix_type           full
_refine_ls_weighting_scheme      calc
_refine_ls_weighting_details     
'calc w=1/[\s^2^(Fo^2^)+(0.1314P)^2^+0.0000P] where P=(Fo^2^+2Fc^2^)/3'
_atom_sites_solution_primary     direct
_atom_sites_solution_secondary   difmap
_atom_sites_solution_hydrogens   geom
_refine_ls_hydrogen_treatment    constr
_refine_ls_extinction_method     none
_refine_ls_extinction_coef       ?
_refine_ls_number_reflns         16813
_refine_ls_number_parameters     802
_refine_ls_number_restraints     7
_refine_ls_R_factor_all          0.0817
_refine_ls_R_factor_gt           0.0635
_refine_ls_wR_factor_ref         0.1980
_refine_ls_wR_factor_gt          0.1788
_refine_ls_goodness_of_fit_ref   0.981
_refine_ls_restrained_S_all      0.989
_refine_ls_shift/su_max          0.001
_refine_ls_shift/su_mean         0.000

loop_
_atom_site_label
_atom_site_type_symbol
_atom_site_fract_x
_atom_site_fract_y
_atom_site_fract_z
_atom_site_U_iso_or_equiv
_atom_site_adp_type
_atom_site_occupancy
_atom_site_symmetry_multiplicity
_atom_site_calc_flag
_atom_site_refinement_flags
_atom_site_disorder_assembly
_atom_site_disorder_group
Mn1 Mn 0.82541(4) 0.35638(3) 0.67658(2) 0.03919(15) Uani 1 1 d . . .
Mn2 Mn 0.63215(4) 0.44381(3) 0.72615(2) 0.03928(15) Uani 1 1 d . . .
Mn3 Mn 0.39127(3) 0.34596(3) 0.67525(2) 0.03680(15) Uani 1 1 d . . .
Mn4 Mn 0.18134(4) 0.30157(4) 0.73739(3) 0.05147(17) Uani 1 1 d . . .
C1 C 0.8505(3) 0.6331(2) 0.67737(18) 0.0556(10) Uani 1 1 d . . .
C2 C 0.7753(4) 0.6787(3) 0.6841(3) 0.0934(18) Uani 1 1 d . . .
H2 H 0.7124 0.6475 0.6880 0.112 Uiso 1 1 calc R . .
C3 C 0.7915(4) 0.7713(3) 0.6851(3) 0.105(2) Uani 1 1 d . . .
H3 H 0.7393 0.8009 0.6902 0.126 Uiso 1 1 calc R . .
C4 C 0.8815(3) 0.8194(3) 0.6789(2) 0.0644(11) Uani 1 1 d . . .
C5 C 0.9573(3) 0.7733(3) 0.6711(3) 0.0883(18) Uani 1 1 d . . .
H5 H 1.0196 0.8042 0.6660 0.106 Uiso 1 1 calc R . .
C6 C 0.9414(4) 0.6818(3) 0.6707(3) 0.0862(17) Uani 1 1 d . . .
H6 H 0.9937 0.6523 0.6658 0.103 Uiso 1 1 calc R . .
C7 C 0.8989(3) 0.9189(3) 0.6804(2) 0.0640(11) Uani 1 1 d . . .
C8 C 0.8240(4) 0.9581(3) 0.6628(3) 0.103(2) Uani 1 1 d . . .
H8 H 0.7612 0.9224 0.6490 0.123 Uiso 1 1 calc R . .
C9 C 0.8409(3) 1.0507(3) 0.6656(3) 0.0878(17) Uani 1 1 d . . .
H9 H 0.7886 1.0756 0.6535 0.105 Uiso 1 1 calc R . .
C10 C 0.9312(3) 1.1066(2) 0.68519(18) 0.0544(9) Uani 1 1 d . . .
C11 C 1.0044(4) 1.0675(3) 0.7023(3) 0.123(3) Uani 1 1 d . . .
H11 H 1.0673 1.1032 0.7158 0.147 Uiso 1 1 calc R . .
C12 C 0.9881(4) 0.9747(3) 0.7004(4) 0.124(3) Uani 1 1 d . . .
H12 H 1.0403 0.9504 0.7133 0.149 Uiso 1 1 calc R . .
C13 C 0.8334(3) 0.5341(2) 0.67716(16) 0.0510(9) Uani 1 1 d . . .
C14 C 0.9471(3) 1.2075(2) 0.68729(17) 0.0488(9) Uani 1 1 d . . .
C15 C 0.8692(3) 0.4511(3) 0.86162(16) 0.0664(11) Uani 1 1 d . . .
C16 C 0.8373(4) 0.5036(5) 0.9055(2) 0.108(2) Uani 1 1 d . . .
H16 H 0.7813 0.5274 0.8989 0.130 Uiso 1 1 calc R . .
C17 C 0.8878(4) 0.5212(5) 0.9593(2) 0.118(3) Uani 1 1 d . . .
H17 H 0.8636 0.5550 0.9885 0.141 Uiso 1 1 calc R . .
C18 C 0.9730(4) 0.4901(4) 0.97110(18) 0.0861(16) Uani 1 1 d . . .
C19 C 1.0063(5) 0.4427(5) 0.9254(2) 0.123(3) Uani 1 1 d . . .
H19 H 1.0658 0.4239 0.9309 0.148 Uiso 1 1 calc R . .
C20 C 0.9548(4) 0.4226(5) 0.8728(2) 0.108(2) Uani 1 1 d . . .
H20 H 0.9789 0.3884 0.8437 0.130 Uiso 1 1 calc R . .
C21 C 0.8140(3) 0.4312(3) 0.80316(16) 0.0550(9) Uani 1 1 d . . .
C22 C 0.5655(2) 0.2068(2) 0.60053(14) 0.0426(8) Uani 1 1 d . . .
C23 C 0.4871(3) 0.1926(3) 0.55927(16) 0.0577(10) Uani 1 1 d . . .
H23 H 0.4506 0.2371 0.5573 0.069 Uiso 1 1 calc R . .
C24 C 0.4621(3) 0.1115(3) 0.52019(17) 0.0637(12) Uani 1 1 d . . .
H24 H 0.4086 0.1027 0.4923 0.076 Uiso 1 1 calc R . .
C25 C 0.5139(3) 0.0436(2) 0.52136(15) 0.0500(9) Uani 1 1 d . . .
C26 C 0.5939(3) 0.0606(3) 0.5631(2) 0.0813(16) Uani 1 1 d . . .
H26 H 0.6314 0.0167 0.5650 0.098 Uiso 1 1 calc R . .
C27 C 0.6193(3) 0.1403(3) 0.60192(19) 0.0722(14) Uani 1 1 d . . .
H27 H 0.6735 0.1497 0.6295 0.087 Uiso 1 1 calc R . .
C28 C 0.5917(2) 0.2915(2) 0.64480(13) 0.0383(7) Uani 1 1 d . . .
C29 C 0.4548(3) 0.4149(3) 0.85235(15) 0.0566(10) Uani 1 1 d . . .
C30 C 0.3793(3) 0.4264(4) 0.88277(18) 0.0916(19) Uani 1 1 d . . .
H30 H 0.3143 0.4118 0.8646 0.110 Uiso 1 1 calc R . .
C31 C 0.3968(4) 0.4596(5) 0.94033(18) 0.098(2) Uani 1 1 d . . .
H31 H 0.3433 0.4672 0.9598 0.117 Uiso 1 1 calc R . .
C32 C 0.4901(3) 0.4815(4) 0.96910(17) 0.0797(15) Uani 1 1 d . . .
C33 C 0.5653(4) 0.4665(6) 0.9376(2) 0.145(4) Uani 1 1 d . . .
H33 H 0.6300 0.4773 0.9557 0.174 Uiso 1 1 calc R . .
C34 C 0.5483(4) 0.4366(6) 0.8807(2) 0.128(3) Uani 1 1 d . . .
H34 H 0.6018 0.4309 0.8609 0.153 Uiso 1 1 calc R . .
C35 C 0.4362(3) 0.3812(2) 0.79003(14) 0.0440(8) Uani 1 1 d . . .
C36 C 0.4513(3) 0.6454(3) 0.7111(2) 0.0674(12) Uani 1 1 d . . .
C37 C 0.3539(3) 0.6465(3) 0.6951(2) 0.0752(14) Uani 1 1 d . . .
H37 H 0.3065 0.5926 0.6858 0.090 Uiso 1 1 calc R . .
C38 C 0.3257(4) 0.7276(3) 0.6925(3) 0.0830(15) Uani 1 1 d . . .
H38 H 0.2592 0.7275 0.6820 0.100 Uiso 1 1 calc R . .
C39 C 0.3952(4) 0.8089(3) 0.7054(3) 0.0818(15) Uani 1 1 d . . .
C40 C 0.4936(4) 0.8077(3) 0.7246(4) 0.122(3) Uani 1 1 d . . .
H40 H 0.5408 0.8617 0.7352 0.147 Uiso 1 1 calc R . .
C41 C 0.5209(4) 0.7267(3) 0.7278(3) 0.108(2) Uani 1 1 d . . .
H41 H 0.5861 0.7265 0.7412 0.130 Uiso 1 1 calc R . .
C42 C 0.3662(4) 0.8957(3) 0.6996(3) 0.0811(15) Uani 1 1 d . . .
C43 C 0.2869(4) 0.9225(3) 0.7226(3) 0.0899(18) Uani 1 1 d . . .
H43 H 0.2465 0.8836 0.7403 0.108 Uiso 1 1 calc R . .
C44 C 0.2657(4) 1.0061(3) 0.7201(3) 0.0869(17) Uani 1 1 d . . .
H44 H 0.2124 1.0232 0.7366 0.104 Uiso 1 1 calc R . .
C45 C 0.3234(3) 1.0644(3) 0.6931(2) 0.0620(11) Uani 1 1 d . . .
C46 C 0.4009(4) 1.0365(3) 0.6693(3) 0.0852(16) Uani 1 1 d . . .
H46 H 0.4385 1.0735 0.6494 0.102 Uiso 1 1 calc R . .
C47 C 0.4243(4) 0.9560(3) 0.6739(3) 0.0950(19) Uani 1 1 d . . .
H47 H 0.4804 0.9412 0.6595 0.114 Uiso 1 1 calc R . .
C48 C 0.4829(3) 0.5567(3) 0.7112(2) 0.0603(11) Uani 1 1 d . . .
C49 C 0.3055(3) 1.1573(3) 0.69127(18) 0.0560(10) Uani 1 1 d . . .
C50 C 0.1608(3) 0.4025(3) 0.58039(17) 0.0646(12) Uani 1 1 d . . .
C51 C 0.1800(6) 0.4182(7) 0.5297(3) 0.177(5) Uani 1 1 d . . .
H51 H 0.2366 0.4034 0.5158 0.213 Uiso 1 1 calc R . .
C52 C 0.1174(6) 0.4564(8) 0.4969(3) 0.194(6) Uani 1 1 d . . .
H52 H 0.1329 0.4666 0.4620 0.233 Uiso 1 1 calc R . .
C53 C 0.0328(3) 0.4789(4) 0.51641(19) 0.0744(14) Uani 1 1 d . . .
C54 C 0.0171(4) 0.4650(4) 0.5687(2) 0.093(2) Uani 1 1 d . . .
H54 H -0.0377 0.4817 0.5837 0.112 Uiso 1 1 calc R . .
C55 C 0.0791(4) 0.4274(4) 0.6003(2) 0.0899(18) Uani 1 1 d . . .
H55 H 0.0649 0.4187 0.6357 0.108 Uiso 1 1 calc R . .
C56 C 0.2311(3) 0.3643(3) 0.61483(18) 0.0601(10) Uani 1 1 d . . .
C57 C 0.8044(6) 0.2745(5) 0.5496(2) 0.129(3) Uani 1 1 d . . .
H57 H 0.8417 0.2338 0.5591 0.155 Uiso 1 1 calc R . .
C58 C 0.6966(10) 0.3070(11) 0.4803(4) 0.245(8) Uani 1 1 d . . .
H58A H 0.6646 0.3259 0.5124 0.368 Uiso 1 1 calc R . .
H58B H 0.6485 0.2662 0.4516 0.368 Uiso 1 1 calc R . .
H58C H 0.7255 0.3589 0.4661 0.368 Uiso 1 1 calc R . .
C59 C 0.7823(18) 0.1965(17) 0.4533(5) 0.51(2) Uani 1 1 d . . .
H59A H 0.8332 0.2206 0.4325 0.763 Uiso 1 1 calc R . .
H59B H 0.7211 0.1728 0.4284 0.763 Uiso 1 1 calc R . .
H59C H 0.8018 0.1491 0.4694 0.763 Uiso 1 1 calc R . .
C60 C 0.1183(5) 0.4813(5) 0.7761(4) 0.132(3) Uani 1 1 d . . .
H60 H 0.0604 0.4595 0.7508 0.159 Uiso 1 1 calc R . .
C61 C 0.2195(12) 0.6008(10) 0.8399(7) 0.352(13) Uani 1 1 d . . .
H61A H 0.2042 0.5964 0.8771 0.527 Uiso 1 1 calc R . .
H61B H 0.2453 0.6630 0.8389 0.527 Uiso 1 1 calc R . .
H61C H 0.2683 0.5659 0.8303 0.527 Uiso 1 1 calc R . .
C62 C 0.0673(10) 0.6235(8) 0.7913(7) 0.306(10) Uani 1 1 d . . .
H62A H 0.0143 0.5900 0.7626 0.458 Uiso 1 1 calc R . .
H62B H 0.1019 0.6753 0.7788 0.458 Uiso 1 1 calc R . .
H62C H 0.0404 0.6431 0.8251 0.458 Uiso 1 1 calc R . .
N1 N 0.7689(7) 0.2645(6) 0.4957(2) 0.163(3) Uani 1 1 d . . .
N2 N 0.1339(7) 0.5680(4) 0.8018(4) 0.198(4) Uani 1 1 d . . .
O1 O 0.7456(2) 0.49139(18) 0.67726(12) 0.0619(7) Uani 1 1 d . . .
O2 O 0.9045(2) 0.49520(18) 0.67647(13) 0.0667(8) Uani 1 1 d . . .
O3 O 0.8727(2) 1.23592(17) 0.67049(12) 0.0591(7) Uani 1 1 d . . .
O4 O 1.0291(2) 1.25672(19) 0.70540(18) 0.0879(11) Uani 1 1 d . . .
O5 O 0.7364(2) 0.4619(2) 0.79679(11) 0.0684(8) Uani 1 1 d . . .
O6 O 0.8509(2) 0.38747(19) 0.76508(10) 0.0604(7) Uani 1 1 d . . .
O7 O 0.66646(16) 0.30525(15) 0.68169(9) 0.0421(5) Uani 1 1 d . . .
O8 O 0.53753(16) 0.35040(14) 0.64584(9) 0.0408(5) Uani 1 1 d . . .
O9 O 0.50923(18) 0.37432(18) 0.76344(10) 0.0530(6) Uani 1 1 d . . .
O10 O 0.34916(18) 0.36086(19) 0.76569(10) 0.0550(6) Uani 1 1 d . . .
O11 O 0.4190(2) 0.48734(18) 0.68951(14) 0.0686(8) Uani 1 1 d . . .
O12 O 0.5702(2) 0.55861(18) 0.73113(15) 0.0753(9) Uani 1 1 d . . .
O13 O 0.3679(2) 1.20810(17) 0.67144(12) 0.0581(7) Uani 1 1 d . . .
O14 O 0.22976(19) 1.17793(18) 0.71195(14) 0.0663(8) Uani 1 1 d . . .
O15 O 0.3075(2) 0.3460(3) 0.59533(13) 0.0803(10) Uani 1 1 d . . .
O16 O 0.2147(2) 0.3570(2) 0.66452(12) 0.0657(7) Uani 1 1 d . . .
O17 O 0.7917(2) 0.3320(2) 0.58684(12) 0.0708(8) Uani 1 1 d . . .
O18 O 0.1667(3) 0.4307(3) 0.78123(19) 0.1021(13) Uani 1 1 d . . .
O21 O 0.1589(4) 0.2575(3) 0.81717(19) 0.1258(16) Uani 1 1 d D . .
C69 C 0.2115(10) 0.2383(11) 0.8572(5) 0.283 Uiso 1 1 d D . .
H69 H 0.2741 0.2249 0.8556 0.340 Uiso 1 1 calc R . .
C71 C 0.0477(10) 0.2300(12) 0.9009(7) 0.308 Uiso 1 1 d D . .
H71A H 0.0189 0.1830 0.9194 0.462 Uiso 1 1 calc R . .
H71B H 0.0223 0.2141 0.8616 0.462 Uiso 1 1 calc R . .
H71C H 0.0309 0.2858 0.9174 0.462 Uiso 1 1 calc R . .
C70 C 0.2074(11) 0.2804(11) 0.9636(6) 0.290 Uiso 1 1 d D . .
H70A H 0.2155 0.3450 0.9699 0.435 Uiso 1 1 calc R . .
H70B H 0.2715 0.2651 0.9670 0.435 Uiso 1 1 calc R . .
H70C H 0.1694 0.2574 0.9908 0.435 Uiso 1 1 calc R . .
N5 N 0.1558(11) 0.2407(12) 0.9076(6) 0.349 Uiso 1 1 d D . .

loop_
_atom_site_aniso_label
_atom_site_aniso_U_11
_atom_site_aniso_U_22
_atom_site_aniso_U_33
_atom_site_aniso_U_23
_atom_site_aniso_U_13
_atom_site_aniso_U_12
Mn1 0.0381(3) 0.0321(3) 0.0451(3) 0.0036(2) -0.0031(2) 0.0097(2)
Mn2 0.0330(3) 0.0341(3) 0.0450(3) -0.0029(2) -0.0084(2) 0.0097(2)
Mn3 0.0344(3) 0.0338(3) 0.0403(3) 0.0043(2) -0.0068(2) 0.0111(2)
Mn4 0.0400(3) 0.0461(3) 0.0689(4) 0.0107(3) 0.0045(3) 0.0125(3)
C1 0.054(2) 0.0370(19) 0.079(3) 0.0173(19) 0.013(2) 0.0102(17)
C2 0.054(3) 0.047(3) 0.182(6) 0.036(3) 0.018(3) 0.003(2)
C3 0.057(3) 0.050(3) 0.218(7) 0.043(4) 0.027(4) 0.019(2)
C4 0.048(2) 0.038(2) 0.107(3) 0.022(2) 0.007(2) 0.0050(18)
C5 0.055(3) 0.052(3) 0.174(6) 0.049(3) 0.037(3) 0.015(2)
C6 0.070(3) 0.043(2) 0.164(5) 0.042(3) 0.047(3) 0.021(2)
C7 0.050(2) 0.043(2) 0.100(3) 0.019(2) 0.006(2) 0.0123(19)
C8 0.055(3) 0.040(2) 0.206(7) 0.024(3) -0.015(3) 0.008(2)
C9 0.053(3) 0.042(2) 0.161(5) 0.020(3) -0.022(3) 0.009(2)
C10 0.039(2) 0.042(2) 0.083(3) 0.0144(19) 0.0026(19) 0.0115(17)
C11 0.048(3) 0.050(3) 0.263(9) 0.055(4) -0.035(4) 0.000(2)
C12 0.050(3) 0.041(3) 0.277(9) 0.054(4) -0.029(4) 0.000(2)
C13 0.058(2) 0.0365(18) 0.057(2) 0.0087(16) 0.0106(19) 0.0041(18)
C14 0.042(2) 0.0360(18) 0.072(2) 0.0154(17) 0.0076(18) 0.0132(17)
C15 0.058(3) 0.092(3) 0.042(2) 0.001(2) -0.0134(18) 0.019(2)
C16 0.074(3) 0.190(7) 0.054(3) -0.025(3) -0.022(2) 0.071(4)
C17 0.089(4) 0.210(7) 0.044(3) -0.032(3) -0.023(2) 0.075(5)
C18 0.070(3) 0.133(5) 0.047(2) -0.008(3) -0.025(2) 0.041(3)
C19 0.114(5) 0.203(7) 0.054(3) -0.017(4) -0.031(3) 0.099(5)
C20 0.104(4) 0.172(6) 0.049(3) -0.017(3) -0.024(3) 0.087(5)
C21 0.044(2) 0.065(2) 0.047(2) 0.0029(19) -0.0117(17) 0.0055(19)
C22 0.0349(17) 0.0412(18) 0.0433(18) -0.0077(15) -0.0080(15) 0.0085(15)
C23 0.065(2) 0.048(2) 0.054(2) -0.0140(17) -0.0146(19) 0.029(2)
C24 0.068(3) 0.056(2) 0.056(2) -0.0159(18) -0.028(2) 0.029(2)
C25 0.044(2) 0.0415(19) 0.053(2) -0.0110(17) -0.0129(17) 0.0096(17)
C26 0.064(3) 0.065(3) 0.093(3) -0.039(2) -0.038(2) 0.037(2)
C27 0.059(3) 0.058(2) 0.084(3) -0.023(2) -0.037(2) 0.030(2)
C28 0.0336(17) 0.0426(18) 0.0350(16) 0.0043(14) -0.0022(14) 0.0054(14)
C29 0.043(2) 0.079(3) 0.042(2) 0.0047(19) -0.0039(17) 0.012(2)
C30 0.047(3) 0.168(6) 0.044(2) -0.015(3) -0.0125(19) 0.0