####################################################################### 
# 
# This file contains crystal structure data downloaded from the 
# Cambridge Structural Database (CSD) hosted by the Cambridge 
# Crystallographic Data Centre (CCDC).
# 
# Full information about CCDC data access policies and citation 
# guidelines are available at http://www.ccdc.cam.ac.uk/access/V1 
# 
# Audit and citation data items may have been added by the CCDC. 
# Please retain this information to preserve the provenance of 
# this file and to allow appropriate attribution of the data. 
# 
#######################################################################

data_a-IRMOF-3
_audit_block_doi                 10.5517/ccssskw
_database_code_depnum_ccdc_archive 'CCDC 738809'
loop_
_citation_id
_citation_doi
_citation_year
1 10.5012/bkcs.2010.31.04.1041 2010
_audit_update_record             
;
2009-07-02 deposited with the CCDC.	2024-07-13 downloaded from the CCDC.
;

#==============================================================================

_audit_creation_method           SHELXL-97
_chemical_name_systematic        
;
?
;
_chemical_name_common            ?
_chemical_melting_point          ?
_chemical_formula_moiety         ?
_chemical_formula_sum            'C24 H15 N3 O13 Zn4'
_chemical_formula_weight         814.87

loop_
_atom_type_symbol
_atom_type_description
_atom_type_scat_dispersion_real
_atom_type_scat_dispersion_imag
_atom_type_scat_source
C C 0.0033 0.0016 'International Tables Vol C Tables 4.2.6.8 and 6.1.1.4'
H H 0.0000 0.0000 'International Tables Vol C Tables 4.2.6.8 and 6.1.1.4'
N N 0.0061 0.0033 'International Tables Vol C Tables 4.2.6.8 and 6.1.1.4'
O O 0.0106 0.0060 'International Tables Vol C Tables 4.2.6.8 and 6.1.1.4'
Zn Zn 0.2839 1.4301 'International Tables Vol C Tables 4.2.6.8 and 6.1.1.4'

_symmetry_cell_setting           cubic
_symmetry_space_group_name_H-M   Pa(-3)

loop_
_symmetry_equiv_pos_as_xyz
'x, y, z'
'-x+1/2, -y, z+1/2'
'-x, y+1/2, -z+1/2'
'x+1/2, -y+1/2, -z'
'z, x, y'
'z+1/2, -x+1/2, -y'
'-z+1/2, -x, y+1/2'
'-z, x+1/2, -y+1/2'
'y, z, x'
'-y, z+1/2, -x+1/2'
'y+1/2, -z+1/2, -x'
'-y+1/2, -z, x+1/2'
'-x, -y, -z'
'x-1/2, y, -z-1/2'
'x, -y-1/2, z-1/2'
'-x-1/2, y-1/2, z'
'-z, -x, -y'
'-z-1/2, x-1/2, y'
'z-1/2, x, -y-1/2'
'z, -x-1/2, y-1/2'
'-y, -z, -x'
'y, -z-1/2, x-1/2'
'-y-1/2, z-1/2, x'
'y-1/2, z, -x-1/2'

_cell_length_a                   25.0872(10)
_cell_length_b                   25.0872(10)
_cell_length_c                   25.0872(10)
_cell_angle_alpha                90.00
_cell_angle_beta                 90.00
_cell_angle_gamma                90.00
_cell_volume                     15789.1(11)
_cell_formula_units_Z            8
_cell_measurement_temperature    173(2)
_cell_measurement_reflns_used    8323
_cell_measurement_theta_min      2.29
_cell_measurement_theta_max      16.42

_exptl_crystal_description       block
_exptl_crystal_colour            'pale yellow'
_exptl_crystal_size_max          0.40
_exptl_crystal_size_mid          0.30
_exptl_crystal_size_min          0.25
_exptl_crystal_density_meas      ?
_exptl_crystal_density_diffrn    0.686
_exptl_crystal_density_method    'not measured'
_exptl_crystal_F_000             3232
_exptl_absorpt_coefficient_mu    1.227
_exptl_absorpt_correction_type   emperical
_exptl_absorpt_correction_T_min  0.6397
_exptl_absorpt_correction_T_max  0.7491
_exptl_absorpt_process_details   ?

_exptl_special_details           
;
?
;

_diffrn_ambient_temperature      173(2)
_diffrn_radiation_wavelength     0.71073
_diffrn_radiation_type           MoK\a
_diffrn_radiation_source         'fine-focus sealed tube'
_diffrn_radiation_monochromator  graphite
_diffrn_measurement_device_type  'Bruker SMART CCD'
_diffrn_measurement_method       'omega scan'
_diffrn_detector_area_resol_mean ?
_diffrn_standards_number         ?
_diffrn_standards_interval_count ?
_diffrn_standards_interval_time  ?
_diffrn_standards_decay_%        none
_diffrn_reflns_number            52270
_diffrn_reflns_av_R_equivalents  0.1045
_diffrn_reflns_av_sigmaI/netI    0.0401
_diffrn_reflns_limit_h_min       -24
_diffrn_reflns_limit_h_max       25
_diffrn_reflns_limit_k_min       -24
_diffrn_reflns_limit_k_max       25
_diffrn_reflns_limit_l_min       -24
_diffrn_reflns_limit_l_max       25
_diffrn_reflns_theta_min         1.41
_diffrn_reflns_theta_max         20.83
_reflns_number_total             2781
_reflns_number_gt                1905
_reflns_threshold_expression     >2sigma(I)

_computing_data_collection       'Bruker SMART'
_computing_cell_refinement       'Bruker SAINT PLUS'
_computing_data_reduction        'Bruker SAINT PLUS'
_computing_structure_solution    'SHELXS-97 (Sheldrick, 1990)'
_computing_structure_refinement  'SHELXL-97 (Sheldrick, 1997)'
_computing_molecular_graphics    'Materias Studio'
_computing_publication_material  'Bruker XCIF'

_refine_special_details          
;
Refinement of F^2^ against ALL reflections. The weighted R-factor wR and
goodness of fit S are based on F^2^, conventional R-factors R are based
on F, with F set to zero for negative F^2^. The threshold expression of
F^2^ > 2sigma(F^2^) is used only for calculating R-factors(gt) etc. and is
not relevant to the choice of reflections for refinement. R-factors based
on F^2^ are statistically about twice as large as those based on F, and R-
factors based on ALL data will be even larger.
;

_refine_ls_structure_factor_coef Fsqd
_refine_ls_matrix_type           full
_refine_ls_weighting_scheme      calc
_refine_ls_weighting_details     
'calc w=1/[\s^2^(Fo^2^)+(0.2000P)^2^+0.0000P] where P=(Fo^2^+2Fc^2^)/3'
_atom_sites_solution_primary     direct
_atom_sites_solution_secondary   difmap
_atom_sites_solution_hydrogens   geom
_refine_ls_hydrogen_treatment    mixed
_refine_ls_extinction_method     none
_refine_ls_extinction_coef       ?
_refine_ls_number_reflns         2781
_refine_ls_number_parameters     134
_refine_ls_number_restraints     39
_refine_ls_R_factor_all          0.1342
_refine_ls_R_factor_gt           0.1094
_refine_ls_wR_factor_ref         0.3094
_refine_ls_wR_factor_gt          0.2871
_refine_ls_goodness_of_fit_ref   1.178
_refine_ls_restrained_S_all      1.181
_refine_ls_shift/su_max          0.033
_refine_ls_shift/su_mean         0.002

loop_
_atom_site_label
_atom_site_type_symbol
_atom_site_fract_x
_atom_site_fract_y
_atom_site_fract_z
_atom_site_U_iso_or_equiv
_atom_site_adp_type
_atom_site_occupancy
_atom_site_symmetry_multiplicity
_atom_site_calc_flag
_atom_site_refinement_flags
_atom_site_disorder_assembly
_atom_site_disorder_group
Zn1 Zn 0.16206(5) 1.16206(5) 0.16206(5) 0.0629(8) Uani 1 3 d S . .
Zn2 Zn 0.16450(5) 1.26431(6) 0.23622(6) 0.0757(7) Uani 1 1 d . . .
O1C O 0.2072(3) 1.2072(3) 0.2072(3) 0.057(3) Uani 1 3 d S . .
O1 O 0.2319(5) 0.8135(4) 0.1691(5) 0.157(5) Uani 1 1 d D . .
O2 O 0.3011(8) 0.8322(5) 0.2247(6) 0.294(15) Uani 1 1 d D . .
O3 O 0.1797(4) 1.0881(3) 0.1674(3) 0.087(3) Uani 1 1 d D . .
O4 O 0.2239(6) 1.0933(4) 0.2448(5) 0.172(7) Uani 1 1 d D . .
N1 N 0.1911(3) 0.8906(10) 0.1201(8) 0.61(4) Uani 1 1 d DU . .
H1A H 0.1981 0.8562 0.1193 0.731 Uiso 1 1 calc R . .
H1B H 0.1718 0.9051 0.0946 0.731 Uiso 1 1 calc R . .
C1 C 0.2412(4) 0.8998(5) 0.2024(5) 0.128(7) Uani 1 1 d D . .
C2 C 0.2106(3) 0.9221(3) 0.1618(5) 0.197(13) Uani 1 1 d DU . .
C3 C 0.1998(5) 0.9767(3) 0.1635(4) 0.117(6) Uani 1 1 d D . .
H3 H 0.1790 0.9921 0.1359 0.141 Uiso 1 1 calc R . .
C4 C 0.2185(5) 1.0093(4) 0.2043(4) 0.140(6) Uani 1 1 d D . .
C5 C 0.2490(5) 0.9866(5) 0.2448(6) 0.234(14) Uani 1 1 d D . .
H5 H 0.2622 1.0080 0.2730 0.281 Uiso 1 1 calc R . .
C6 C 0.2600(6) 0.9323(4) 0.2434(6) 0.274(17) Uani 1 1 d D . .
H6 H 0.2809 0.9169 0.2711 0.328 Uiso 1 1 calc R . .
C7 C 0.2598(5) 0.8434(5) 0.1984(3) 0.167(9) Uani 1 1 d D . .
C8 C 0.2063(3) 1.0674(4) 0.2050(3) 0.131(7) Uani 1 1 d D . .

loop_
_atom_site_aniso_label
_atom_site_aniso_U_11
_atom_site_aniso_U_22
_atom_site_aniso_U_33
_atom_site_aniso_U_23
_atom_site_aniso_U_13
_atom_site_aniso_U_12
Zn1 0.0629(8) 0.0629(8) 0.0629(8) -0.0003(6) -0.0003(6) -0.0003(6)
Zn2 0.0755(11) 0.0814(11) 0.0700(11) -0.0062(7) 0.0048(7) 0.0062(7)
O1C 0.057(3) 0.057(3) 0.057(3) 0.009(3) 0.009(3) 0.009(3)
O1 0.210(14) 0.093(8) 0.169(12) 0.047(8) 0.013(9) 0.084(9)
O2 0.57(4) 0.081(8) 0.235(19) -0.031(9) -0.28(2) 0.056(14)
O3 0.117(7) 0.053(5) 0.090(6) -0.013(4) 0.003(5) -0.001(5)
O4 0.221(15) 0.069(7) 0.226(13) -0.012(8) -0.156(11) 0.010(7)
N1 0.81(8) 0.30(4) 0.72(7) -0.03(5) -0.24(7) 0.25(5)
C1 0.184(17) 0.065(10) 0.134(14) -0.020(9) -0.075(13) 0.028(10)
C2 0.34(3) 0.18(2) 0.069(10) -0.066(12) 0.055(14) -0.21(2)
C3 0.220(18) 0.031(7) 0.102(11) 0.006(7) -0.009(11) 0.010(9)
C4 0.175(17) 0.088(12) 0.155(16) 0.039(11) -0.025(13) 0.052(11)
C5 0.168(18) 0.091(13) 0.44(4) -0.01(2) -0.17(2) 0.022(13)
C6 0.25(3) 0.23(3) 0.34(4) -0.02(3) -0.20(3) 0.01(3)
C7 0.20(2) 0.16(2) 0.14(2) -0.031(16) -0.025(17) -0.014(18)
C8 0.067(10) 0.082(12) 0.25(2) 0.017(14) -0.001(13) -0.017(8)

_geom_special_details            
;
All esds (except the esd in the dihedral angle between two l.s. planes)
are estimated using the full covariance matrix. The cell esds are taken
into account individually in the estimation of esds in distances, angles
and torsion angles; correlations between esds in cell parameters are only
used when they are defined by crystal symmetry. An approximate (isotropic)
treatment of cell esds is used for estimating esds involving l.s. planes.
;

loop_
_geom_bond_atom_site_label_1
_geom_bond_atom_site_label_2
_geom_bond_distance
_geom_bond_site_symmetry_2
_geom_bond_publ_flag
Zn1 O3 1.912(8) 5_564 ?
Zn1 O3 1.912(8) . ?
Zn1 O3 1.912(8) 9_465 ?
Zn1 O1C 1.961(12) . ?
Zn2 O4 1.879(10) 9_465 ?
Zn2 O1C 1.932(4) . ?
Zn2 O2 1.931(12) 16_665 ?
Zn2 O1 1.946(11) 20_575 ?
O1C Zn2 1.932(4) 9_465 ?
O1C Zn2 1.932(4) 5_564 ?
O1 C7 1.261(7) . ?
O1 Zn2 1.946(11) 23_765 ?
O2 C7 1.261(7) . ?
O2 Zn2 1.931(11) 16_655 ?
O3 C8 1.267(7) . ?
O4 C8 1.269(7) . ?
O4 Zn2 1.879(10) 5_564 ?
N1 C2 1.399(5) . ?
N1 H1A 0.8800 . ?
N1 H1B 0.8800 . ?
C1 C2 1.393(5) . ?
C1 C7 1.493(5) . ?
C1 C6 1.397(5) . ?
C2 C3 1.398(5) . ?
C3 C4 1.391(5) . ?
C3 H3 0.9500 . ?
C4 C8 1.491(5) . ?
C4 C5 1.393(5) . ?
C5 C6 1.390(5) . ?
C5 H5 0.9500 . ?
C6 H6 0.9500 . ?

loop_
_geom_angle_atom_site_label_1
_geom_angle_atom_site_label_2
_geom_angle_atom_site_label_3
_geom_angle
_geom_angle_site_symmetry_1
_geom_angle_site_symmetry_3
_geom_angle_publ_flag
O3 Zn1 O3 106.0(3) 5_564 . ?
O3 Zn1 O3 106.0(3) 5_564 9_465 ?
O3 Zn1 O3 106.0(3) . 9_465 ?
O3 Zn1 O1C 112.7(3) 5_564 . ?
O3 Zn1 O1C 112.7(3) . . ?
O3 Zn1 O1C 112.7(3) 9_465 . ?
O4 Zn2 O1C 105.8(4) 9_465 . ?
O4 Zn2 O2 129.1(9) 9_465 16_665 ?
O1C Zn2 O2 110.5(5) . 16_665 ?
O4 Zn2 O1 103.4(6) 9_465 20_575 ?
O1C Zn2 O1 112.3(4) . 20_575 ?
O2 Zn2 O1 94.5(6) 16_665 20_575 ?
Zn2 O1C Zn2 109.9(3) 9_465 . ?
Zn2 O1C Zn2 109.9(3) 9_465 5_564 ?
Zn2 O1C Zn2 109.9(3) . 5_564 ?
Zn2 O1C Zn1 109.0(3) 9_465 . ?
Zn2 O1C Zn1 109.0(3) . . ?
Zn2 O1C Zn1 109.0(3) 5_564 . ?
C7 O1 Zn2 126.7(8) . 23_765 ?
C7 O2 Zn2 129.9(9) . 16_655 ?
C8 O3 Zn1 124.8(7) . . ?
C8 O4 Zn2 138.4(8) . 5_564 ?
C2 N1 H1A 120.0 . . ?
C2 N1 H1B 120.0 . . ?
H1A N1 H1B 120.0 . . ?
C2 C1 C7 120.3(6) . . ?
C2 C1 C6 119.4(10) . . ?
C7 C1 C6 119.8(6) . . ?
C1 C2 N1 120.8(12) . . ?
C1 C2 C3 118.6(10) . . ?
N1 C2 C3 120.6(13) . . ?
C4 C3 C2 122.2(11) . . ?
C4 C3 H3 118.9 . . ?
C2 C3 H3 118.9 . . ?
C8 C4 C5 120.3(6) . . ?
C8 C4 C3 120.9(6) . . ?
C5 C4 C3 118.8(10) . . ?
C6 C5 C4 119.5(13) . . ?
C6 C5 H5 120.2 . . ?
C4 C5 H5 120.2 . . ?
C5 C6 C1 121.5(13) . . ?
C5 C6 H6 119.2 . . ?
C1 C6 H6 119.2 . . ?
O2 C7 O1 129.1(12) . . ?
O2 C7 C1 115.6(9) . . ?
O1 C7 C1 115.3(8) . . ?
O3 C8 C4 120.0(7) . . ?
O3 C8 O4 124.1(10) . . ?
C4 C8 O4 115.9(8) . . ?

loop_
_geom_hbond_atom_site_label_D
_geom_hbond_atom_site_label_H
_geom_hbond_atom_site_label_A
_geom_hbond_distance_DH
_geom_hbond_distance_HA
_geom_hbond_distance_DA
_geom_hbond_angle_DHA
_geom_hbond_site_symmetry_A
N1 H1A O1 0.88 1.85 2.51(3) 130.1 .

_diffrn_measured_fraction_theta_max 1.000
_diffrn_reflns_theta_full        20.83
_diffrn_measured_fraction_theta_full 1.000
_refine_diff_density_max         1.130
_refine_diff_density_min         -0.686
_refine_diff_density_rms         0.125

# SQUEEZE RESULTS (APPEND TO CIF)
loop_
_platon_squeeze_void_nr
_platon_squeeze_void_average_x
_platon_squeeze_void_average_y
_platon_squeeze_void_average_z
_platon_squeeze_void_volume
_platon_squeeze_void_count_electrons
1 -0.015 -0.005 0.001 11259.4 3725.8
_platon_squeeze_details          
;
;


