####################################################################### 
# 
# This file contains crystal structure data downloaded from the 
# Cambridge Structural Database (CSD) hosted by the Cambridge 
# Crystallographic Data Centre (CCDC).
# 
# Full information about CCDC data access policies and citation 
# guidelines are available at http://www.ccdc.cam.ac.uk/access/V1 
# 
# Audit and citation data items may have been added by the CCDC. 
# Please retain this information to preserve the provenance of 
# this file and to allow appropriate attribution of the data. 
# 
#######################################################################

data_CPL-4_as
_audit_block_doi                 10.5517/cctfy16
_database_code_depnum_ccdc_archive 'CCDC 758168'
loop_
_citation_id
_citation_doi
_citation_year
1 10.1246/cl.2010.218 2010
_audit_update_record             
;
2009-12-15 deposited with the CCDC.	2024-07-13 downloaded from the CCDC.
;
#TrackingRef '89_web_deposit_cif_file_1_HirotoshiSakamoto_1260866659.cif'


_pd_block_id                     2009-11-06|CPL-4_as|R.Kitaura|BL02B2_SPring-8

_chemical_formula_sum            'C11 H6 Cu N4 O7'
_chemical_formula_weight         369.7374

_pd_phase_name                   CPL-4
_cell_length_a                   4.7083(4)
_cell_length_b                   31.011(2)
_cell_length_c                   10.980(1)
_cell_angle_alpha                90.0
_cell_angle_beta                 96.145(8)
_cell_angle_gamma                90.0
_cell_volume                     1593.9(2)
_cell_formula_units_Z            4
_symmetry_cell_setting           monoclinic
_symmetry_space_group_name_H-M   'P 21/c'
_symmetry_Int_Tables_number      14
_cell_measurement_temperature    298

_diffrn_ambient_temperature      298
_diffrn_radiation_wavelength     0.80092
_exptl_crystal_density_diffrn    1.541

_exptl_crystal_colour            blue
_exptl_special_details           
;
powder data
;

loop_
_symmetry_equiv_pos_site_id
_symmetry_equiv_pos_as_xyz
1 x,y,z
2 -x,y+1/2,-z+1/2
3 -x,-y,-z
4 x,-y+1/2,z+1/2

loop_
_atom_site_label
_atom_site_symmetry_multiplicity
_atom_site_occupancy
_atom_site_fract_x
_atom_site_fract_y
_atom_site_fract_z
_atom_site_thermal_displace_type
_atom_site_B_iso_or_equiv
_atom_site_type_symbol
Cu1 4 1.0 0.48127 0.19383 0.60274 Biso 0.8 Cu
O1 4 1.0 0.6866 0.17576 0.75195 Biso 1.2 O
O2 4 1.0 0.95618 0.20001 0.93269 Biso 1.2 O
O3 4 1.0 1.31758 0.29141 0.98993 Biso 1.2 O
O4 4 1.0 0.87309 0.29684 1.02189 Biso 1.2 O
N1 4 1.0 0.5605 0.2519 0.666 Biso 1.2 N
N2 4 1.0 0.7767 0.3257 0.7736 Biso 1.2 N
N3 4 1.0 0.39312 0.13212 0.5394 Biso 1.2 N
N4 4 1.0 0.12225 0.00417 0.52095 Biso 1.2 N
C1 4 1.0 0.7835 0.2053 0.823 Biso 1.2 C
C2 4 1.0 0.7326 0.2507 0.7706 Biso 1.2 C
C3 4 1.0 0.4905 0.2902 0.6133 Biso 1.2 C
C4 4 1.0 0.6025 0.3267 0.6714 Biso 1.2 C
C5 4 1.0 0.8448 0.2879 0.8247 Biso 1.2 C
C6 4 1.0 1.0317 0.2916 0.9428 Biso 1.2 C
C7 4 1.0 0.25366 0.11447 0.63058 Biso 1.2 C
C8 4 1.0 0.43503 0.11045 0.44962 Biso 1.2 C
C9 4 1.0 0.32379 0.0693 0.43598 Biso 1.2 C
C10 4 1.0 0.14719 0.07418 0.61817 Biso 1.2 C
C11 4 1.0 0.18901 0.05188 0.52409 Biso 1.2 C
O5 4 1.0 0.53(1) 0.928(1) 1.059(3) Biso 10.4(5) O
O6 4 1.0 0.730(6) 1.014(1) 0.142(3) Biso 10.4(5) O
O7 4 1.0 -0.003(8) 1.081(1) -0.023(3) Biso 10.4(5) O
H1 4 1.0 0.37 0.292 0.539 Biso 0.618 H
H2 4 1.0 0.55 0.354 0.636 Biso 0.618 H
H3 4 1.0 0.23 0.1306 0.703 Biso 0.618 H
H4 4 1.0 0.5442 0.122 0.3893 Biso 0.618 H
H5 4 1.0 0.3438 0.0534 0.3634 Biso 0.618 H
H6 4 1.0 0.0414 0.0624 0.6793 Biso 0.618 H

#======================================================================

# POWDER SPECIMEN AND EXPERIMENTAL DATA



#_pd_block_id
#'2009-11-06|CPL-4_as|R.Kitaura|BL02B2_SPring-8'
_pd_meas_datetime_initialed      2002-11-15
_pd_meas_info_author_name        ?
_pd_meas_info_author_email       ?
_pd_meas_info_author_address     
;
;

_pd_calc_method                  'Rietveld Refinement'
#_diffrn_ambient_temperature 298
_diffrn_source                   synchrotoron
_diffrn_measurement_device_type  'BL02B2, SPring-8'
_diffrn_detector                 'Imaging plate'
_diffrn_detector_type            Debye-Scherrer
_pd_meas_scan_method             step
_pd_meas_special_details         
;
;
_diffrn_radiation_type           synchrotoron~
#_diffrn_radiation_wavelength 0.80092
_diffrn_radiation_monochromator  none

_pd_meas_2theta_range_min        1.860
_pd_meas_2theta_range_max        28.000
_pd_meas_2theta_range_inc        0.010
_pd_meas_number_of_points        2615


#======================================================================

# REFINEMENT DATA

_pd_proc_ls_special_details      
;
;

_pd_proc_ls_profile_function     Pseudo-Voigt
_pd_proc_ls_background_function  ?

_pd_proc_ls_prof_R_factor        0.022
_pd_proc_ls_prof_wR_factor       0.029
_pd_proc_ls_prof_wR_expected     0.026
_refine_special_details          
;
;

_refine_ls_structure_factor_coef Inet
_refine_ls_matrix_type           ?
_refine_ls_weighting_scheme      ?
_refine_ls_hydrogen_treatment    nore
_refine_ls_extinction_method     none
_refine_ls_extinction_coef       ?
_refine_ls_number_parameters     ?
_refine_ls_number_constraints    2
_refine_ls_goodness_of_fit_all   1.12


#--eof--eof--eof--eof--eof--eof--eof--eof--eof--eof--eof--eof--eof--eof--eof--#



