####################################################################### 
# 
# This file contains crystal structure data downloaded from the 
# Cambridge Structural Database (CSD) hosted by the Cambridge 
# Crystallographic Data Centre (CCDC).
# 
# Full information about CCDC data access policies and citation 
# guidelines are available at http://www.ccdc.cam.ac.uk/access/V1 
# 
# Audit and citation data items may have been added by the CCDC. 
# Please retain this information to preserve the provenance of 
# this file and to allow appropriate attribution of the data. 
# 
#######################################################################

data_MTV-MOF-5-AC
_audit_block_doi                 10.5517/cct29x2
_database_code_depnum_ccdc_archive 'CCDC 747004'
loop_
_citation_id
_citation_doi
_citation_year
1 10.1126/science.1181761 2010
_audit_update_record             
;
2009-09-08 deposited with the CCDC.	2024-07-13 downloaded from the CCDC.
;

_audit_creation_method           SHELXL-97
_chemical_name_systematic        
;
?
;
_chemical_name_common            MTV-MOF-5-AC
_chemical_melting_point          ?
_chemical_formula_moiety         ?

_chemical_formula_sum            'C12 H5.43 Br0.57 O7.25 Zn2'
_chemical_formula_weight         441.88

loop_
_atom_type_symbol
_atom_type_description
_atom_type_scat_dispersion_real
_atom_type_scat_dispersion_imag
_atom_type_scat_source
C C 0.0181 0.0091 'International Tables Vol C Tables 4.2.6.8 and 6.1.1.4'
H H 0.0000 0.0000 'International Tables Vol C Tables 4.2.6.8 and 6.1.1.4'
O O 0.0492 0.0322 'International Tables Vol C Tables 4.2.6.8 and 6.1.1.4'
Zn Zn -1.5491 0.6778 'International Tables Vol C Tables 4.2.6.8 and 6.1.1.4'
Br Br -0.6763 1.2805 'International Tables Vol C Tables 4.2.6.8 and 6.1.1.4'

_symmetry_cell_setting           monoclinic
_symmetry_space_group_name_H-M   C2/m

loop_
_symmetry_equiv_pos_as_xyz
'x, y, z'
'-x, y, -z'
'x+1/2, y+1/2, z'
'-x+1/2, y+1/2, -z'
'-x, -y, -z'
'x, -y, z'
'-x+1/2, -y+1/2, -z'
'x+1/2, -y+1/2, z'

_cell_length_a                   31.6131(7)
_cell_length_b                   18.252
_cell_length_c                   18.252
_cell_angle_alpha                90.00
_cell_angle_beta                 125.26
_cell_angle_gamma                90.00
_cell_volume                     8598.74(19)
_cell_formula_units_Z            8
_cell_measurement_temperature    296(2)
_cell_measurement_reflns_used    3500
_cell_measurement_theta_min      2.966
_cell_measurement_theta_max      38.372

_exptl_crystal_description       parallelepiped
_exptl_crystal_colour            colorless
_exptl_crystal_size_max          0.41
_exptl_crystal_size_mid          0.41
_exptl_crystal_size_min          0.28
_exptl_crystal_density_meas      ?
_exptl_crystal_density_diffrn    0.683
_exptl_crystal_density_method    'not measured'
_exptl_crystal_F_000             1723
_exptl_absorpt_coefficient_mu    2.102
_exptl_absorpt_correction_type   none
_exptl_absorpt_correction_T_min  ?
_exptl_absorpt_correction_T_max  ?
_exptl_absorpt_process_details   ?

_exptl_special_details           
;
?
;

_diffrn_ambient_temperature      296(2)
_diffrn_radiation_wavelength     1.54178
_diffrn_radiation_type           CuK\a
_diffrn_radiation_source         'fine-focus sealed tube'
_diffrn_radiation_monochromator  graphite
_diffrn_measurement_device_type  'CCD area detector'
_diffrn_measurement_method       'phi and omega scans'
_diffrn_detector_area_resol_mean ?
_diffrn_standards_number         ?
_diffrn_standards_interval_count ?
_diffrn_standards_interval_time  ?
_diffrn_standards_decay_%        ?
_diffrn_reflns_number            14178
_diffrn_reflns_av_R_equivalents  0.3363
_diffrn_reflns_av_sigmaI/netI    0.1813
_diffrn_reflns_limit_h_min       -27
_diffrn_reflns_limit_h_max       26
_diffrn_reflns_limit_k_min       -15
_diffrn_reflns_limit_k_max       15
_diffrn_reflns_limit_l_min       -15
_diffrn_reflns_limit_l_max       15
_diffrn_reflns_theta_min         2.97
_diffrn_reflns_theta_max         41.28
_reflns_number_total             2951
_reflns_number_gt                2069
_reflns_threshold_expression     >2sigma(I)

_computing_data_collection       'Bruker Apex11'
_computing_cell_refinement       'Bruker Apex11'
_computing_data_reduction        'Bruker SAINT'
_computing_structure_solution    'SHELXS-97 (Sheldrick, 1990)'
_computing_structure_refinement  'SHELXL-97 (Sheldrick, 1997)'
_computing_molecular_graphics    'Bruker SHELXTL'
_computing_publication_material  'Bruker SHELXTL'

_refine_special_details          
;
Refinement of F^2^ against ALL reflections. The weighted R-factor wR and
goodness of fit S are based on F^2^, conventional R-factors R are based
on F, with F set to zero for negative F^2^. The threshold expression of
F^2^ > 2sigma(F^2^) is used only for calculating R-factors(gt) etc. and is
not relevant to the choice of reflections for refinement. R-factors based
on F^2^ are statistically about twice as large as those based on F, and R-
factors based on ALL data will be even larger.
;

_refine_ls_structure_factor_coef Fsqd
_refine_ls_matrix_type           full
_refine_ls_weighting_scheme      calc
_refine_ls_weighting_details     
'calc w=1/[\s^2^(Fo^2^)+(0.2000P)^2^+0.0000P] where P=(Fo^2^+2Fc^2^)/3'
_atom_sites_solution_primary     direct
_atom_sites_solution_secondary   difmap
_atom_sites_solution_hydrogens   geom
_refine_ls_hydrogen_treatment    constr
_refine_ls_extinction_method     SHELXL
_refine_ls_extinction_coef       0.00020(9)
_refine_ls_extinction_expression Fc^*^=kFc[1+0.001xFc^2^\l^3^/sin(2\q)]^-1/4^
_refine_ls_number_reflns         2951
_refine_ls_number_parameters     154
_refine_ls_number_restraints     0
_refine_ls_R_factor_all          0.1892
_refine_ls_R_factor_gt           0.1711
_refine_ls_wR_factor_ref         0.4184
_refine_ls_wR_factor_gt          0.4040
_refine_ls_goodness_of_fit_ref   1.426
_refine_ls_restrained_S_all      1.426
_refine_ls_shift/su_max          0.005
_refine_ls_shift/su_mean         0.001

loop_
_atom_site_label
_atom_site_type_symbol
_atom_site_fract_x
_atom_site_fract_y
_atom_site_fract_z
_atom_site_U_iso_or_equiv
_atom_site_adp_type
_atom_site_occupancy
_atom_site_symmetry_multiplicity
_atom_site_calc_flag
_atom_site_refinement_flags
_atom_site_disorder_assembly
_atom_site_disorder_group
Zn1 Zn 0.29367(13) 0.0000 0.3808(2) 0.0736(15) Uani 1 2 d S . .
Zn2 Zn 0.29355(13) 0.0000 0.2061(2) 0.0726(15) Uani 1 2 d S . .
Zn3 Zn 0.20630(9) 0.08718(12) 0.20631(15) 0.0734(13) Uani 1 1 d . . .
O1 O 0.2501(6) 0.0000 0.2502(9) 0.057(4) Uani 1 2 d S . .
O2 O 0.3667(7) 0.0000 0.4289(13) 0.107(6) Uani 1 2 d S . .
O3 O 0.3683(7) 0.0000 0.3084(17) 0.119(7) Uani 1 2 d S . .
C1 C 0.3899(15) 0.0000 0.393(3) 0.108(11) Uiso 1 2 d S . .
C2 C 0.4460(12) 0.0000 0.446(2) 0.095(9) Uiso 1 2 d S . .
C3 C 0.4726(14) 0.0000 0.409(3) 0.129(12) Uiso 1 2 d S . .
H3 H 0.4549 0.0000 0.3470 0.155 Uiso 0.91 2 calc SPR . .
Br3 Br 0.447(2) 0.0000 0.276(4) 0.193 Uiso 0.09 2 d SP . .
C4 C 0.4750(15) 0.0000 0.538(3) 0.141(13) Uiso 1 2 d S . .
H4 H 0.4576 0.0000 0.5655 0.169 Uiso 0.91 2 calc SPR . .
Br4 Br 0.445(3) 0.0000 0.613(5) 0.211 Uiso 0.09 2 d SP . .
O4 O 0.2816(6) 0.0865(8) 0.4299(10) 0.116(5) Uani 1 1 d . . .
O5 O 0.2173(6) 0.1484(8) 0.3037(11) 0.116(5) Uani 1 1 d . . .
C10 C 0.2488(10) 0.1394(14) 0.3864(19) 0.101(7) Uiso 1 1 d . . .
C11 C 0.2497(8) 0.1973(12) 0.4468(15) 0.099(6) Uiso 1 1 d . . .
C12 C 0.2179(11) 0.2552(17) 0.410(2) 0.149(10) Uiso 1 1 d . . .
H12 H 0.1962 0.2600 0.3477 0.179 Uiso 0.90 1 calc PR . .
Br12 Br 0.1804 0.2722 0.2874 0.224 Uiso 0.10 1 d P . .
C13 C 0.2825(12) 0.1924(18) 0.536(2) 0.166(11) Uiso 1 1 d . . .
H13 H 0.3058 0.1535 0.5616 0.199 Uiso 0.90 1 calc PR . .
Br13 Br 0.3293 0.1135 0.5838 0.249 Uiso 0.10 1 d P . .
O6 O 0.2823(7) 0.0861(8) 0.1351(10) 0.115(5) Uani 1 1 d . . .
O7 O 0.2183(6) 0.1479(8) 0.1323(10) 0.118(5) Uani 1 1 d . . .
C20 C 0.2492(10) 0.1386(15) 0.1098(16) 0.103(7) Uiso 1 1 d . . .
C21 C 0.2493(9) 0.1944(13) 0.0529(15) 0.109(7) Uiso 1 1 d . . .
C22 C 0.2177(10) 0.2538(15) 0.0277(17) 0.141(9) Uiso 1 1 d . . .
H22 H 0.1954 0.2572 0.0452 0.170 Uiso 0.90 1 calc PR . .
Br22 Br 0.1631 0.2486 0.0385 0.212 Uiso 0.10 1 d P . .
C23 C 0.2817(10) 0.1902(16) 0.0243(18) 0.147(10) Uiso 1 1 d . . .
H23 H 0.3033 0.1498 0.0399 0.176 Uiso 0.90 1 calc PR . .
Br23 Br 0.3186 0.1057 0.0450 0.221 Uiso 0.10 1 d P . .
O8 O 0.1338(5) 0.0627(8) 0.1346(10) 0.114(5) Uani 1 1 d . . .
C30 C 0.1135(13) 0.0000 0.115(2) 0.101(10) Uiso 1 2 d S . .
C31 C 0.0533(12) 0.0000 0.053(2) 0.104(9) Uiso 1 2 d S . .
C32 C 0.0271(9) 0.0637(16) 0.0275(17) 0.146(10) Uiso 1 1 d . . .
H32 H 0.0450 0.1079 0.0470 0.176 Uiso 0.90 1 calc PR . .
Br32 Br 0.0655 0.1523 0.0680 0.220 Uiso 0.10 1 d P . .
O1W O 0.150(6) 0.0000 0.352(10) 0.41(7) Uiso 0.50 2 d SP . .
O2W O 0.334(4) 0.5000 -0.018(7) 0.28(4) Uiso 0.50 2 d SP . .
O3W O 0.381(6) 0.209(8) 0.386(9) 0.30(6) Uiso 0.25 1 d P . .

loop_
_atom_site_aniso_label
_atom_site_aniso_U_11
_atom_site_aniso_U_22
_atom_site_aniso_U_33
_atom_site_aniso_U_23
_atom_site_aniso_U_13
_atom_site_aniso_U_12
Zn1 0.086(3) 0.075(2) 0.064(3) 0.000 0.046(2) 0.000
Zn2 0.085(3) 0.076(2) 0.067(2) 0.000 0.050(2) 0.000
Zn3 0.084(2) 0.069(2) 0.071(2) 0.0034(12) 0.0465(16) 0.0039(13)
O1 0.070(10) 0.066(10) 0.040(9) 0.000 0.035(8) 0.000
O2 0.067(12) 0.148(18) 0.093(14) 0.000 0.038(11) 0.000
O3 0.081(14) 0.141(18) 0.14(2) 0.000 0.069(14) 0.000
O4 0.153(13) 0.107(12) 0.097(11) -0.036(9) 0.078(10) 0.003(11)
O5 0.153(13) 0.095(10) 0.106(12) -0.029(8) 0.078(11) 0.018(9)
O6 0.156(14) 0.111(12) 0.122(12) 0.033(9) 0.106(11) 0.003(11)
O7 0.158(14) 0.092(10) 0.127(12) 0.039(9) 0.096(11) 0.005(9)
O8 0.086(10) 0.117(12) 0.130(12) 0.007(10) 0.057(9) 0.023(9)

_geom_special_details            
;
All esds (except the esd in the dihedral angle between two l.s. planes)
are estimated using the full covariance matrix. The cell esds are taken
into account individually in the estimation of esds in distances, angles
and torsion angles; correlations between esds in cell parameters are only
used when they are defined by crystal symmetry. An approximate (isotropic)
treatment of cell esds is used for estimating esds involving l.s. planes.
;

loop_
_geom_bond_atom_site_label_1
_geom_bond_atom_site_label_2
_geom_bond_distance
_geom_bond_site_symmetry_2
_geom_bond_publ_flag
Zn1 O2 1.938(19) . ?
Zn1 O1 1.946(14) . ?
Zn1 O4 1.958(13) . ?
Zn1 O4 1.958(13) 6 ?
Zn2 O6 1.934(14) 6 ?
Zn2 O6 1.934(14) . ?
Zn2 O1 1.952(14) . ?
Zn2 O3 1.99(2) . ?
Zn3 O8 1.923(14) . ?
Zn3 O7 1.946(14) . ?
Zn3 O1 1.952(9) . ?
Zn3 O5 1.954(13) . ?
O1 Zn3 1.952(9) 6 ?
O2 C1 1.23(4) . ?
O3 C1 1.28(4) . ?
C1 C2 1.45(4) . ?
C2 C3 1.35(4) . ?
C2 C4 1.38(4) . ?
C3 C4 1.35(4) 5_656 ?
C3 H3 0.9300 . ?
C4 C3 1.35(4) 5_656 ?
C4 H4 0.9300 . ?
O4 C10 1.30(3) . ?
O5 C10 1.25(3) . ?
C10 C11 1.52(3) . ?
C11 C13 1.34(3) . ?
C11 C12 1.34(3) . ?
C12 C13 1.38(3) 7_556 ?
C12 H12 0.9300 . ?
C13 C12 1.38(3) 7_556 ?
C13 H13 0.9300 . ?
O6 C20 1.29(3) . ?
O7 C20 1.27(3) . ?
C20 C21 1.45(3) . ?
C21 C22 1.36(3) . ?
C21 C23 1.40(3) . ?
C22 C23 1.40(3) 7 ?
C22 H22 0.9300 . ?
C23 C22 1.40(3) 7 ?
C23 H23 0.9300 . ?
O8 C30 1.258(18) . ?
C30 O8 1.258(18) 6 ?
C30 C31 1.55(4) . ?
C31 C32 1.35(3) 6 ?
C31 C32 1.35(3) . ?
C32 C32 1.40(5) 2 ?
C32 H32 0.9300 . ?

loop_
_geom_angle_atom_site_label_1
_geom_angle_atom_site_label_2
_geom_angle_atom_site_label_3
_geom_angle
_geom_angle_site_symmetry_1
_geom_angle_site_symmetry_3
_geom_angle_publ_flag
O2 Zn1 O1 111.8(8) . . ?
O2 Zn1 O4 106.7(6) . . ?
O1 Zn1 O4 111.9(5) . . ?
O2 Zn1 O4 106.7(6) . 6 ?
O1 Zn1 O4 111.9(5) . 6 ?
O4 Zn1 O4 107.5(9) . 6 ?
O6 Zn2 O6 108.6(9) 6 . ?
O6 Zn2 O1 112.0(5) 6 . ?
O6 Zn2 O1 112.0(5) . . ?
O6 Zn2 O3 106.7(6) 6 . ?
O6 Zn2 O3 106.7(6) . . ?
O1 Zn2 O3 110.5(8) . . ?
O8 Zn3 O7 107.0(7) . . ?
O8 Zn3 O1 111.9(5) . . ?
O7 Zn3 O1 111.9(6) . . ?
O8 Zn3 O5 105.6(7) . . ?
O7 Zn3 O5 107.6(7) . . ?
O1 Zn3 O5 112.4(6) . . ?
Zn1 O1 Zn3 109.6(5) . 6 ?
Zn1 O1 Zn3 109.6(5) . . ?
Zn3 O1 Zn3 109.2(7) 6 . ?
Zn1 O1 Zn2 109.6(7) . . ?
Zn3 O1 Zn2 109.4(5) 6 . ?
Zn3 O1 Zn2 109.4(5) . . ?
C1 O2 Zn1 133(2) . . ?
C1 O3 Zn2 130(2) . . ?
O2 C1 O3 125(4) . . ?
O2 C1 C2 122(4) . . ?
O3 C1 C2 113(4) . . ?
C3 C2 C4 116(3) . . ?
C3 C2 C1 123(3) . . ?
C4 C2 C1 120(3) . . ?
C2 C3 C4 120(4) . 5_656 ?
C2 C3 H3 119.8 . . ?
C4 C3 H3 119.8 5_656 . ?
C3 C4 C2 123(4) 5_656 . ?
C3 C4 H4 118.4 5_656 . ?
C2 C4 H4 118.4 . . ?
C10 O4 Zn1 128.1(16) . . ?
C10 O5 Zn3 128.5(16) . . ?
O5 C10 O4 129(2) . . ?
O5 C10 C11 117(2) . . ?
O4 C10 C11 114(2) . . ?
C13 C11 C12 120(2) . . ?
C13 C11 C10 121(3) . . ?
C12 C11 C10 119(2) . . ?
C11 C12 C13 120(3) . 7_556 ?
C11 C12 H12 120.0 . . ?
C13 C12 H12 120.0 7_556 . ?
C11 C13 C12 120(3) . 7_556 ?
C11 C13 H13 119.9 . . ?
C12 C13 H13 119.9 7_556 . ?
C20 O6 Zn2 129.9(16) . . ?
C20 O7 Zn3 130.0(17) . . ?
O7 C20 O6 127(2) . . ?
O7 C20 C21 117(2) . . ?
O6 C20 C21 116(2) . . ?
C22 C21 C23 118(2) . . ?
C22 C21 C20 120(2) . . ?
C23 C21 C20 122(2) . . ?
C21 C22 C23 121(2) . 7 ?
C21 C22 H22 119.5 . . ?
C23 C22 H22 119.5 7 . ?
C21 C23 C22 121(3) . 7 ?
C21 C23 H23 119.6 . . ?
C22 C23 H23 119.6 7 . ?
C30 O8 Zn3 128.1(19) . . ?
O8 C30 O8 131(3) . 6 ?
O8 C30 C31 114.6(16) . . ?
O8 C30 C31 114.6(16) 6 . ?
C32 C31 C32 120(3) 6 . ?
C32 C31 C30 120.2(16) 6 . ?
C32 C31 C30 120.2(16) . . ?
C31 C32 C32 120.2(16) . 2 ?
C31 C32 H32 119.9 . . ?
C32 C32 H32 119.9 2 . ?

loop_
_geom_torsion_atom_site_label_1
_geom_torsion_atom_site_label_2
_geom_torsion_atom_site_label_3
_geom_torsion_atom_site_label_4
_geom_torsion
_geom_torsion_site_symmetry_1
_geom_torsion_site_symmetry_2
_geom_torsion_site_symmetry_3
_geom_torsion_site_symmetry_4
_geom_torsion_publ_flag
O2 Zn1 O1 Zn3 120.1(5) . . . 6 ?
O4 Zn1 O1 Zn3 -120.3(6) . . . 6 ?
O4 Zn1 O1 Zn3 0.4(8) 6 . . 6 ?
O2 Zn1 O1 Zn3 -120.1(5) . . . . ?
O4 Zn1 O1 Zn3 -0.4(8) . . . . ?
O4 Zn1 O1 Zn3 120.3(6) 6 . . . ?
O2 Zn1 O1 Zn2 0.0 . . . . ?
O4 Zn1 O1 Zn2 119.7(5) . . . . ?
O4 Zn1 O1 Zn2 -119.7(5) 6 . . . ?
O8 Zn3 O1 Zn1 -119.6(7) . . . . ?
O7 Zn3 O1 Zn1 120.3(7) . . . . ?
O5 Zn3 O1 Zn1 -1.0(9) . . . . ?
O8 Zn3 O1 Zn3 0.5(9) . . . 6 ?
O7 Zn3 O1 Zn3 -119.6(7) . . . 6 ?
O5 Zn3 O1 Zn3 119.1(7) . . . 6 ?
O8 Zn3 O1 Zn2 120.2(7) . . . . ?
O7 Zn3 O1 Zn2 0.1(8) . . . . ?
O5 Zn3 O1 Zn2 -121.1(7) . . . . ?
O6 Zn2 O1 Zn1 118.8(5) 6 . . . ?
O6 Zn2 O1 Zn1 -118.8(5) . . . . ?
O3 Zn2 O1 Zn1 0.0 . . . . ?
O6 Zn2 O1 Zn3 -1.3(8) 6 . . 6 ?
O6 Zn2 O1 Zn3 121.0(6) . . . 6 ?
O3 Zn2 O1 Zn3 -120.2(5) . . . 6 ?
O6 Zn2 O1 Zn3 -121.0(6) 6 . . . ?
O6 Zn2 O1 Zn3 1.3(8) . . . . ?
O3 Zn2 O1 Zn3 120.2(5) . . . . ?
O1 Zn1 O2 C1 0.000(7) . . . . ?
O4 Zn1 O2 C1 -122.7(5) . . . . ?
O4 Zn1 O2 C1 122.7(5) 6 . . . ?
O6 Zn2 O3 C1 -122.0(5) 6 . . . ?
O6 Zn2 O3 C1 122.0(5) . . . . ?
O1 Zn2 O3 C1 0.000(6) . . . . ?
Zn1 O2 C1 O3 0.000(8) . . . . ?
Zn1 O2 C1 C2 180.000(7) . . . . ?
Zn2 O3 C1 O2 0.000(6) . . . . ?
Zn2 O3 C1 C2 180.000(7) . . . . ?
O2 C1 C2 C3 180.000(12) . . . . ?
O3 C1 C2 C3 0.000(8) . . . . ?
O2 C1 C2 C4 0.000(9) . . . . ?
O3 C1 C2 C4 180.000(11) . . . . ?
C4 C2 C3 C4 0.000(13) . . . 5_656 ?
C1 C2 C3 C4 180.000(12) . . . 5_656 ?
C3 C2 C4 C3 0.000(8) . . . 5_656 ?
C1 C2 C4 C3 180.000(11) . . . 5_656 ?
O2 Zn1 O4 C10 124.0(19) . . . . ?
O1 Zn1 O4 C10 1(2) . . . . ?
O4 Zn1 O4 C10 -121.9(17) 6 . . . ?
O8 Zn3 O5 C10 124.9(19) . . . . ?
O7 Zn3 O5 C10 -121.1(19) . . . . ?
O1 Zn3 O5 C10 3(2) . . . . ?
Zn3 O5 C10 O4 -2(4) . . . . ?
Zn3 O5 C10 C11 178.4(14) . . . . ?
Zn1 O4 C10 O5 0(4) . . . . ?
Zn1 O4 C10 C11 179.4(13) . . . . ?
O5 C10 C11 C13 -179(2) . . . . ?
O4 C10 C11 C13 1(3) . . . . ?
O5 C10 C11 C12 -1(3) . . . . ?
O4 C10 C11 C12 179(2) . . . . ?
C13 C11 C12 C13 -3(5) . . . 7_556 ?
C10 C11 C12 C13 179(2) . . . 7_556 ?
C12 C11 C13 C12 3(5) . . . 7_556 ?
C10 C11 C13 C12 -179(2) . . . 7_556 ?
O6 Zn2 O6 C20 119.7(18) 6 . . . ?
O1 Zn2 O6 C20 -5(2) . . . . ?
O3 Zn2 O6 C20 -125.6(19) . . . . ?
O8 Zn3 O7 C20 -123(2) . . . . ?
O1 Zn3 O7 C20 0(2) . . . . ?
O5 Zn3 O7 C20 124(2) . . . . ?
Zn3 O7 C20 O6 -3(4) . . . . ?
Zn3 O7 C20 C21 180.0(15) . . . . ?
Zn2 O6 C20 O7 6(4) . . . . ?
Zn2 O6 C20 C21 -177.5(15) . . . . ?
O7 C20 C21 C22 1(3) . . . . ?
O6 C20 C21 C22 -176(2) . . . . ?
O7 C20 C21 C23 180(2) . . . . ?
O6 C20 C21 C23 2(3) . . . . ?
C23 C21 C22 C23 -1(4) . . . 7 ?
C20 C21 C22 C23 178(2) . . . 7 ?
C22 C21 C23 C22 1(4) . . . 7 ?
C20 C21 C23 C22 -178(2) . . . 7 ?
O7 Zn3 O8 C30 123(2) . . . . ?
O1 Zn3 O8 C30 0(3) . . . . ?
O5 Zn3 O8 C30 -123(2) . . . . ?
Zn3 O8 C30 O8 0(6) . . . 6 ?
Zn3 O8 C30 C31 -178.1(17) . . . . ?
O8 C30 C31 C32 -179(3) . . . 6 ?
O8 C30 C31 C32 3(4) 6 . . 6 ?
O8 C30 C31 C32 -3(4) . . . . ?
O8 C30 C31 C32 179(3) 6 . . . ?
C32 C31 C32 C32 -3(6) 6 . . 2 ?
C30 C31 C32 C32 -179(3) . . . 2 ?

_diffrn_measured_fraction_theta_max 0.995
_diffrn_reflns_theta_full        41.28
_diffrn_measured_fraction_theta_full 0.995
_refine_diff_density_max         1.266
_refine_diff_density_min         -0.739
_refine_diff_density_rms         0.164
