####################################################################### 
# 
# This file contains crystal structure data downloaded from the 
# Cambridge Structural Database (CSD) hosted by the Cambridge 
# Crystallographic Data Centre (CCDC).
# 
# Full information about CCDC data access policies and citation 
# guidelines are available at http://www.ccdc.cam.ac.uk/access/V1 
# 
# Audit and citation data items may have been added by the CCDC. 
# Please retain this information to preserve the provenance of 
# this file and to allow appropriate attribution of the data. 
# 
#######################################################################

data_001125b
_audit_block_doi                 10.5517/cc5q9fl
_database_code_depnum_ccdc_archive 'CCDC 170389'
_audit_update_record             
;
2001-09-07 deposited with the CCDC.	2024-07-13 downloaded from the CCDC.
;

_audit_creation_method           SHELXL-97
_chemical_name_systematic        
; 
? 
;
_chemical_name_common            ?
_chemical_melting_point          ?
_chemical_formula_moiety         ?
_chemical_formula_sum            'C30 H24 Co N6 O8 S2'
_chemical_formula_weight         719.60

loop_
_atom_type_symbol
_atom_type_description
_atom_type_scat_dispersion_real
_atom_type_scat_dispersion_imag
_atom_type_scat_source
C C 0.0033 0.0016 'International Tables Vol C Tables 4.2.6.8 and 6.1.1.4'
H H 0.0000 0.0000 'International Tables Vol C Tables 4.2.6.8 and 6.1.1.4'
N N 0.0061 0.0033 'International Tables Vol C Tables 4.2.6.8 and 6.1.1.4'
O O 0.0106 0.0060 'International Tables Vol C Tables 4.2.6.8 and 6.1.1.4'
S S 0.1246 0.1234 'International Tables Vol C Tables 4.2.6.8 and 6.1.1.4'
Co Co 0.3494 0.9721 'International Tables Vol C Tables 4.2.6.8 and 6.1.1.4'

_symmetry_cell_setting           Tetragonal
_symmetry_space_group_name_H-M   I4(1)

loop_
_symmetry_equiv_pos_as_xyz
'x, y, z'
'-x+1/2, -y+1/2, z+1/2'
'-y, x+1/2, z+1/4'
'y+1/2, -x, z+3/4'
'x+1/2, y+1/2, z+1/2'
'-x+1, -y+1, z+1'
'-y+1/2, x+1, z+3/4'
'y+1, -x+1/2, z+5/4'

_cell_length_a                   12.513(3)
_cell_length_b                   12.513(3)
_cell_length_c                   55.192(19)
_cell_angle_alpha                90.00
_cell_angle_beta                 90.00
_cell_angle_gamma                90.00
_cell_volume                     8641(4)
_cell_formula_units_Z            8
_cell_measurement_temperature    293(2)
_cell_measurement_reflns_used    ?
_cell_measurement_theta_min      ?
_cell_measurement_theta_max      ?

_exptl_crystal_description       ?
_exptl_crystal_colour            ?
_exptl_crystal_size_max          0.10
_exptl_crystal_size_mid          0.20
_exptl_crystal_size_min          0.20
_exptl_crystal_density_meas      ?
_exptl_crystal_density_diffrn    1.106
_exptl_crystal_density_method    'not measured'
_exptl_crystal_F_000             2952
_exptl_absorpt_coefficient_mu    0.538
_exptl_absorpt_correction_type   none
_exptl_absorpt_correction_T_min  ?
_exptl_absorpt_correction_T_max  ?
_exptl_absorpt_process_details   ?

_exptl_special_details           
; 
? 
;

_diffrn_ambient_temperature      293(2)
_diffrn_radiation_wavelength     0.71073
_diffrn_radiation_type           MoK\a
_diffrn_radiation_source         'fine-focus sealed tube'
_diffrn_radiation_monochromator  graphite
_diffrn_measurement_device_type  'CCD area detector'
_diffrn_measurement_method       'phi and omega scans'
_diffrn_detector_area_resol_mean ?
_diffrn_standards_number         ?
_diffrn_standards_interval_count ?
_diffrn_standards_interval_time  ?
_diffrn_standards_decay_%        ?
_diffrn_reflns_number            17668
_diffrn_reflns_av_R_equivalents  0.1162
_diffrn_reflns_av_sigmaI/netI    0.1597
_diffrn_reflns_limit_h_min       -14
_diffrn_reflns_limit_h_max       14
_diffrn_reflns_limit_k_min       -14
_diffrn_reflns_limit_k_max       14
_diffrn_reflns_limit_l_min       -55
_diffrn_reflns_limit_l_max       65
_diffrn_reflns_theta_min         2.95
_diffrn_reflns_theta_max         25.03
_reflns_number_total             7009
_reflns_number_gt                2327
_reflns_threshold_expression     >2sigma(I)

_computing_data_collection       'Bruker SMART'
_computing_cell_refinement       'Bruker SMART'
_computing_data_reduction        'Bruker SHELXTL'
_computing_structure_solution    'SHELXS-97 (Sheldrick, 1990)'
_computing_structure_refinement  'SHELXL-97 (Sheldrick, 1997)'
_computing_molecular_graphics    'Bruker SHELXTL'
_computing_publication_material  'Bruker SHELXTL'

_refine_special_details          
; 
Refinement of F^2^ against ALL reflections.  The weighted R-factor wR and 
goodness of fit S are based on F^2^, conventional R-factors R are based 
on F, with F set to zero for negative F^2^. The threshold expression of 
F^2^ > 2sigma(F^2^) is used only for calculating R-factors(gt) etc. and is 
not relevant to the choice of reflections for refinement.  R-factors based 
on F^2^ are statistically about twice as large as those based on F, and R- 
factors based on ALL data will be even larger. 
;

_refine_ls_structure_factor_coef Fsqd
_refine_ls_matrix_type           full
_refine_ls_weighting_scheme      calc
_refine_ls_weighting_details     
'calc w=1/[\s^2^(Fo^2^)+(0.0600P)^2^+0.0000P] where P=(Fo^2^+2Fc^2^)/3'
_atom_sites_solution_primary     direct
_atom_sites_solution_secondary   difmap
_atom_sites_solution_hydrogens   geom
_refine_ls_hydrogen_treatment    mixed
_refine_ls_extinction_method     none
_refine_ls_extinction_coef       ?
_refine_ls_abs_structure_details 'Flack H D (1983), Acta Cryst. A39, 876-881'
_refine_ls_abs_structure_Flack   0.01(4)
_refine_ls_number_reflns         7009
_refine_ls_number_parameters     425
_refine_ls_number_restraints     1
_refine_ls_R_factor_all          0.2170
_refine_ls_R_factor_gt           0.0668
_refine_ls_wR_factor_ref         0.1733
_refine_ls_wR_factor_gt          0.1252
_refine_ls_goodness_of_fit_ref   0.915
_refine_ls_restrained_S_all      0.915
_refine_ls_shift/su_max          0.001
_refine_ls_shift/su_mean         0.000

loop_
_atom_site_label
_atom_site_type_symbol
_atom_site_fract_x
_atom_site_fract_y
_atom_site_fract_z
_atom_site_U_iso_or_equiv
_atom_site_adp_type
_atom_site_occupancy
_atom_site_symmetry_multiplicity
_atom_site_calc_flag
_atom_site_refinement_flags
_atom_site_disorder_assembly
_atom_site_disorder_group
Co1 Co 0.5000 1.0000 0.25098(3) 0.0843(6) Uani 1 2 d S . .
Co2 Co 0.0000 1.0000 0.35271(3) 0.0831(6) Uani 1 2 d S . .
S1 S 0.8447(4) 0.8441(5) 0.25966(11) 0.210(2) Uani 1 1 d . . .
S2 S 0.3433(3) 1.1582(5) 0.34419(11) 0.206(2) Uani 1 1 d . . .
C1 C 0.7329(10) 0.9026(9) 0.2539(2) 0.100(3) Uani 1 1 d . . .
C2 C 0.2321(10) 1.0971(9) 0.34979(19) 0.094(3) Uani 1 1 d . . .
N1 N 0.6554(8) 0.9453(7) 0.25114(14) 0.099(3) Uani 1 1 d . . .
N2 N 0.1522(8) 1.0542(6) 0.35250(14) 0.091(3) Uani 1 1 d . . .
O1 O 0.3462(8) 0.7187(7) 0.35833(16) 0.153(4) Uani 1 1 d . . .
O2 O 0.4687(9) 0.6068(7) 0.34292(14) 0.134(3) Uani 1 1 d . . .
O3 O 0.3127(11) 0.5833(10) 0.1732(2) 0.217(6) Uani 1 1 d . . .
O4 O 0.4676(8) 0.6180(6) 0.15642(16) 0.115(2) Uani 1 1 d . . .
O5 O 0.1881(11) 0.5838(11) 0.4302(3) 0.236(8) Uani 1 1 d . . .
O6 O 0.0336(8) 0.6163(6) 0.44670(15) 0.116(2) Uani 1 1 d . . .
O7 O 0.1535(8) 0.7195(7) 0.24574(16) 0.147(3) Uani 1 1 d . . .
O8 O 0.0364(9) 0.6048(7) 0.26099(14) 0.131(3) Uani 1 1 d . . .
N11 N 0.4585(7) 0.8875(7) 0.27948(15) 0.085(2) Uani 1 1 d . . .
N12 N 0.4584(9) 0.8824(7) 0.22353(15) 0.090(2) Uani 1 1 d . . .
N13 N 0.0408(9) 0.8812(6) 0.38024(15) 0.090(2) Uani 1 1 d . . .
N14 N 0.0415(7) 0.8864(8) 0.32355(15) 0.089(2) Uani 1 1 d . . .
C11 C 0.5019(10) 0.7898(11) 0.2812(2) 0.115(5) Uani 1 1 d . . .
H11A H 0.5443 0.7652 0.2685 0.137 Uiso 1 1 calc R . .
C12 C 0.4855(10) 0.7216(9) 0.3018(3) 0.106(4) Uani 1 1 d . . .
H12A H 0.5188 0.6552 0.3027 0.127 Uiso 1 1 calc R . .
C13 C 0.4214(9) 0.7554(10) 0.31966(18) 0.084(3) Uani 1 1 d . . .
C14 C 0.3763(7) 0.8549(10) 0.31876(18) 0.085(3) Uani 1 1 d . . .
H14A H 0.3339 0.8794 0.3314 0.102 Uiso 1 1 calc R . .
C15 C 0.3953(8) 0.9193(8) 0.2984(2) 0.088(3) Uani 1 1 d . . .
H15A H 0.3636 0.9864 0.2977 0.106 Uiso 1 1 calc R . .
C16 C 0.4041(11) 0.6932(11) 0.3420(3) 0.112(4) Uani 1 1 d . . .
C17 C 0.4552(14) 0.5335(12) 0.3638(2) 0.163(6) Uani 1 1 d . . .
H17A H 0.4513 0.5736 0.3788 0.196 Uiso 1 1 calc R . .
H17B H 0.3902 0.4920 0.3620 0.196 Uiso 1 1 calc R . .
C21 C 0.5303(11) 0.8519(10) 0.2065(3) 0.111(4) Uani 1 1 d . . .
H21A H 0.5940 0.8901 0.2062 0.133 Uiso 1 1 calc R . .
C22 C 0.5206(14) 0.7713(12) 0.1896(2) 0.129(5) Uani 1 1 d . . .
H22A H 0.5742 0.7531 0.1787 0.155 Uiso 1 1 calc R . .
C23 C 0.4175(12) 0.7176(10) 0.19065(18) 0.098(3) Uani 1 1 d . . .
C24 C 0.3454(9) 0.7470(9) 0.2074(2) 0.108(3) Uani 1 1 d . . .
H24A H 0.2804 0.7113 0.2083 0.129 Uiso 1 1 calc R . .
C25 C 0.3673(9) 0.8310(8) 0.22351(16) 0.085(3) Uani 1 1 d . . .
H25A H 0.3151 0.8509 0.2346 0.102 Uiso 1 1 calc R . .
C26 C 0.3922(15) 0.6294(10) 0.1738(3) 0.127(4) Uani 1 1 d . . .
C27 C 0.4559(11) 0.5369(11) 0.1378(2) 0.131(5) Uani 1 1 d . . .
H27A H 0.3899 0.4979 0.1404 0.157 Uiso 1 1 calc R . .
H27B H 0.4514 0.5713 0.1220 0.157 Uiso 1 1 calc R . .
C31 C 0.1299(10) 0.8295(8) 0.37978(18) 0.088(3) Uani 1 1 d . . .
H31A H 0.1796 0.8465 0.3679 0.106 Uiso 1 1 calc R . .
C32 C 0.1554(10) 0.7477(9) 0.3967(2) 0.119(4) Uani 1 1 d . . .
H32A H 0.2224 0.7155 0.3966 0.142 Uiso 1 1 calc R . .
C33 C 0.0798(13) 0.7173(10) 0.41309(19) 0.107(4) Uani 1 1 d . . .
C34 C -0.0143(11) 0.7680(11) 0.4143(2) 0.105(4) Uani 1 1 d . . .
H34A H -0.0648 0.7506 0.4261 0.126 Uiso 1 1 calc R . .
C35 C -0.0338(11) 0.8505(11) 0.3968(2) 0.118(4) Uani 1 1 d . . .
H35A H -0.1000 0.8843 0.3968 0.141 Uiso 1 1 calc R . .
C36 C 0.1116(14) 0.6288(9) 0.4302(3) 0.114(4) Uani 1 1 d . . .
C37 C 0.0438(11) 0.5340(10) 0.4652(2) 0.123(5) Uani 1 1 d . . .
H37A H 0.1083 0.4928 0.4623 0.148 Uiso 1 1 calc R . .
H37B H 0.0504 0.5675 0.4810 0.148 Uiso 1 1 calc R . .
C41 C 0.1052(8) 0.9183(8) 0.3056(2) 0.086(3) Uani 1 1 d . . .
H41A H 0.1398 0.9839 0.3068 0.103 Uiso 1 1 calc R . .
C42 C 0.1209(8) 0.8574(11) 0.2854(2) 0.092(3) Uani 1 1 d . . .
H42A H 0.1614 0.8845 0.2727 0.110 Uiso 1 1 calc R . .
C43 C 0.0778(9) 0.7563(9) 0.28349(17) 0.087(3) Uani 1 1 d . . .
C44 C 0.0152(10) 0.7234(9) 0.3032(3) 0.112(4) Uani 1 1 d . . .
H44A H -0.0148 0.6554 0.3031 0.134 Uiso 1 1 calc R . .
C45 C -0.0026(9) 0.7897(11) 0.3225(2) 0.098(4) Uani 1 1 d . . .
H45A H -0.0462 0.7667 0.3351 0.118 Uiso 1 1 calc R . .
C46 C 0.0963(11) 0.6935(10) 0.2616(2) 0.103(3) Uani 1 1 d . . .
C47 C 0.0474(12) 0.5391(10) 0.2391(3) 0.140(5) Uani 1 1 d . . .
H47A H 0.1145 0.5003 0.2394 0.168 Uiso 1 1 calc R . .
H47B H 0.0457 0.5837 0.2247 0.168 Uiso 1 1 calc R . .

loop_
_atom_site_aniso_label
_atom_site_aniso_U_11
_atom_site_aniso_U_22
_atom_site_aniso_U_33
_atom_site_aniso_U_23
_atom_site_aniso_U_13
_atom_site_aniso_U_12
Co1 0.0896(16) 0.0829(16) 0.0803(15) 0.000 0.000 0.0029(11)
Co2 0.0865(16) 0.0824(16) 0.0805(14) 0.000 0.000 0.0007(11)
S1 0.128(3) 0.265(6) 0.236(6) 0.038(4) 0.009(3) 0.074(4)
S2 0.114(3) 0.258(6) 0.246(6) 0.043(4) -0.010(3) -0.066(3)
C1 0.091(9) 0.102(9) 0.107(8) 0.014(7) 0.007(7) 0.019(7)
C2 0.090(8) 0.098(8) 0.096(8) 0.015(6) -0.014(7) 0.002(7)
N1 0.114(8) 0.094(7) 0.089(6) 0.005(5) -0.007(6) 0.007(6)
N2 0.100(7) 0.080(6) 0.094(6) 0.005(5) -0.011(6) -0.016(5)
O1 0.189(9) 0.148(7) 0.122(7) 0.015(6) 0.068(7) 0.033(6)
O2 0.207(9) 0.106(7) 0.088(6) -0.005(5) 0.030(5) 0.037(7)
O3 0.246(12) 0.203(11) 0.202(11) -0.127(9) 0.091(11) -0.104(10)
O4 0.140(7) 0.114(6) 0.090(6) -0.015(5) 0.014(5) 0.008(5)
O5 0.257(13) 0.233(13) 0.217(12) 0.124(10) 0.115(11) 0.161(12)
O6 0.138(7) 0.130(7) 0.081(5) 0.014(5) 0.008(5) -0.003(5)
O7 0.182(9) 0.153(8) 0.106(6) -0.026(5) 0.057(6) -0.029(6)
O8 0.209(9) 0.092(6) 0.091(6) -0.019(5) 0.025(5) -0.037(6)
N11 0.077(6) 0.080(6) 0.097(6) 0.000(5) 0.002(5) 0.001(5)
N12 0.087(7) 0.109(7) 0.073(6) 0.002(5) 0.012(5) -0.017(6)
N13 0.093(7) 0.089(6) 0.089(7) -0.001(5) 0.016(6) 0.012(6)
N14 0.082(6) 0.099(7) 0.085(6) -0.004(5) 0.003(5) -0.004(5)
C11 0.172(13) 0.082(10) 0.089(10) 0.011(7) 0.036(7) 0.047(8)
C12 0.130(10) 0.085(8) 0.103(9) 0.008(8) 0.021(8) 0.025(7)
C13 0.098(8) 0.094(9) 0.062(7) 0.006(6) 0.011(6) 0.007(7)
C14 0.079(7) 0.108(9) 0.069(7) -0.019(6) 0.016(5) 0.007(6)
C15 0.098(8) 0.085(7) 0.082(7) -0.017(6) 0.017(6) 0.020(6)
C16 0.116(10) 0.104(10) 0.116(11) -0.003(8) 0.006(8) 0.016(8)
C17 0.28(2) 0.138(13) 0.068(9) 0.030(8) 0.038(10) 0.086(11)
C21 0.123(10) 0.110(10) 0.099(10) 0.013(8) 0.009(8) -0.042(8)
C22 0.188(16) 0.123(12) 0.076(10) -0.013(8) 0.017(8) -0.038(10)
C23 0.129(10) 0.104(9) 0.062(7) 0.002(6) 0.026(7) 0.001(8)
C24 0.117(9) 0.118(9) 0.088(8) -0.003(7) 0.022(7) -0.026(7)
C25 0.097(8) 0.092(7) 0.066(6) -0.022(5) 0.022(5) -0.017(6)
C26 0.169(14) 0.094(10) 0.117(11) -0.019(9) 0.006(12) -0.032(8)
C27 0.175(14) 0.148(13) 0.069(9) -0.035(8) -0.029(8) 0.047(9)
C31 0.102(9) 0.075(7) 0.088(7) 0.017(6) 0.022(6) 0.010(6)
C32 0.130(10) 0.113(9) 0.113(9) 0.003(8) 0.023(8) 0.038(8)
C33 0.142(12) 0.106(10) 0.072(7) 0.009(7) 0.047(8) -0.021(8)
C34 0.102(10) 0.131(11) 0.082(10) 0.016(8) 0.027(7) 0.024(8)
C35 0.114(10) 0.140(12) 0.100(10) -0.009(9) 0.043(9) 0.010(8)
C36 0.181(14) 0.078(8) 0.084(9) 0.005(7) 0.039(10) 0.013(8)
C37 0.180(15) 0.125(12) 0.066(8) 0.033(8) -0.014(7) -0.038(8)
C41 0.090(8) 0.080(7) 0.087(8) 0.003(6) 0.017(6) -0.012(6)
C42 0.082(7) 0.108(10) 0.086(8) 0.030(7) 0.007(6) -0.015(6)
C43 0.120(9) 0.078(8) 0.063(7) 0.002(6) 0.017(6) -0.002(7)
C44 0.158(12) 0.063(8) 0.114(11) 0.013(8) 0.007(8) -0.026(7)
C45 0.118(10) 0.082(10) 0.096(10) -0.010(7) 0.022(6) -0.031(7)
C46 0.119(10) 0.091(9) 0.099(10) -0.003(8) 0.012(7) -0.009(8)
C47 0.200(16) 0.102(11) 0.119(12) -0.005(8) 0.053(10) -0.013(9)

_geom_special_details            
; 
All esds (except the esd in the dihedral angle between two l.s. planes) 
are estimated using the full covariance matrix.  The cell esds are taken 
into account individually in the estimation of esds in distances, angles 
and torsion angles; correlations between esds in cell parameters are only 
used when they are defined by crystal symmetry.  An approximate (isotropic) 
treatment of cell esds is used for estimating esds involving l.s. planes. 
;

loop_
_geom_bond_atom_site_label_1
_geom_bond_atom_site_label_2
_geom_bond_distance
_geom_bond_site_symmetry_2
_geom_bond_publ_flag
Co1 N1 2.062(11) . ?
Co1 N1 2.062(11) 6_564 ?
Co1 N11 2.174(8) 6_564 ?
Co1 N11 2.174(8) . ?
Co1 N12 2.176(9) . ?
Co1 N12 2.176(9) 6_564 ?
Co2 N2 2.022(10) . ?
Co2 N2 2.022(10) 6_464 ?
Co2 N13 2.186(9) . ?
Co2 N13 2.186(9) 6_464 ?
Co2 N14 2.209(9) 6_464 ?
Co2 N14 2.209(9) . ?
S1 C1 1.609(13) . ?
S2 C2 1.617(14) . ?
C1 N1 1.118(10) . ?
C2 N2 1.145(10) . ?
O1 C16 1.202(13) . ?
O2 C16 1.351(14) . ?
O2 C17 1.480(15) . ?
O3 C26 1.151(14) . ?
O4 C26 1.353(17) . ?
O4 C27 1.453(13) . ?
O5 C36 1.110(14) . ?
O6 C36 1.343(15) . ?
O6 C37 1.457(13) . ?
O7 C46 1.175(12) . ?
O8 C46 1.340(14) . ?
O8 C47 1.467(15) . ?
N11 C11 1.341(13) . ?
N11 C15 1.369(11) . ?
N12 C25 1.308(12) . ?
N12 C21 1.356(15) . ?
N13 C31 1.289(12) . ?
N13 C35 1.363(13) . ?
N14 C45 1.331(12) . ?
N14 C41 1.335(11) . ?
C11 C12 1.436(16) . ?
C12 C13 1.341(15) . ?
C13 C14 1.368(13) . ?
C13 C16 1.471(15) . ?
C14 C15 1.403(13) . ?
C17 C17 1.40(2) 6_554 ?
C21 C22 1.380(16) . ?
C22 C23 1.455(16) . ?
C23 C24 1.342(13) . ?
C23 C26 1.478(17) . ?
C24 C25 1.405(13) . ?
C27 C27 1.44(2) 6_554 ?
C31 C32 1.423(13) . ?
C32 C33 1.362(13) . ?
C33 C34 1.340(15) . ?
C33 C36 1.510(17) . ?
C34 C35 1.435(16) . ?
C37 C37 1.39(2) 6_454 ?
C41 C42 1.362(14) . ?
C42 C43 1.379(13) . ?
C43 C44 1.401(16) . ?
C43 C46 1.461(14) . ?
C44 C45 1.369(17) . ?
C47 C47 1.54(2) 6_454 ?

loop_
_geom_angle_atom_site_label_1
_geom_angle_atom_site_label_2
_geom_angle_atom_site_label_3
_geom_angle
_geom_angle_site_symmetry_1
_geom_angle_site_symmetry_3
_geom_angle_publ_flag
N1 Co1 N1 179.5(4) . 6_564 ?
N1 Co1 N11 89.2(3) . 6_564 ?
N1 Co1 N11 90.4(3) 6_564 6_564 ?
N1 Co1 N11 90.4(3) . . ?
N1 Co1 N11 89.2(3) 6_564 . ?
N11 Co1 N11 87.3(4) 6_564 . ?
N1 Co1 N12 90.2(4) . . ?
N1 Co1 N12 90.1(4) 6_564 . ?
N11 Co1 N12 177.7(3) 6_564 . ?
N11 Co1 N12 90.5(3) . . ?
N1 Co1 N12 90.1(4) . 6_564 ?
N1 Co1 N12 90.2(4) 6_564 6_564 ?
N11 Co1 N12 90.5(3) 6_564 6_564 ?
N11 Co1 N12 177.7(3) . 6_564 ?
N12 Co1 N12 91.7(5) . 6_564 ?
N2 Co2 N2 179.4(5) . 6_464 ?
N2 Co2 N13 90.7(4) . . ?
N2 Co2 N13 89.8(4) 6_464 . ?
N2 Co2 N13 89.8(4) . 6_464 ?
N2 Co2 N13 90.7(4) 6_464 6_464 ?
N13 Co2 N13 91.9(5) . 6_464 ?
N2 Co2 N14 90.1(3) . 6_464 ?
N2 Co2 N14 89.4(3) 6_464 6_464 ?
N13 Co2 N14 177.2(3) . 6_464 ?
N13 Co2 N14 90.8(3) 6_464 6_464 ?
N2 Co2 N14 89.4(3) . . ?
N2 Co2 N14 90.1(3) 6_464 . ?
N13 Co2 N14 90.8(3) . . ?
N13 Co2 N14 177.2(3) 6_464 . ?
N14 Co2 N14 86.5(5) 6_464 . ?
N1 C1 S1 176.4(12) . . ?
N2 C2 S2 176.5(10) . . ?
C1 N1 Co1 167.8(10) . . ?
C2 N2 Co2 168.7(9) . . ?
C16 O2 C17 117.3(10) . . ?
C26 O4 C27 120.4(11) . . ?
C36 O6 C37 119.6(11) . . ?
C46 O8 C47 115.6(9) . . ?
C11 N11 C15 116.4(9) . . ?
C11 N11 Co1 123.0(8) . . ?
C15 N11 Co1 120.1(7) . . ?
C25 N12 C21 116.1(10) . . ?
C25 N12 Co1 122.8(7) . . ?
C21 N12 Co1 121.0(9) . . ?
C31 N13 C35 117.7(10) . . ?
C31 N13 Co2 122.0(7) . . ?
C35 N13 Co2 119.9(9) . . ?
C45 N14 C41 119.1(9) . . ?
C45 N14 Co2 121.3(8) . . ?
C41 N14 Co2 119.3(8) . . ?
N11 C11 C12 122.7(11) . . ?
C13 C12 C11 118.7(11) . . ?
C12 C13 C14 120.5(10) . . ?
C12 C13 C16 122.5(12) . . ?
C14 C13 C16 116.8(11) . . ?
C13 C14 C15 118.8(9) . . ?
N11 C15 C14 122.8(9) . . ?
O1 C16 O2 122.9(12) . . ?
O1 C16 C13 125.3(12) . . ?
O2 C16 C13 111.6(12) . . ?
C17 C17 O2 106.2(14) 6_554 . ?
N12 C21 C22 128.1(12) . . ?
C21 C22 C23 112.8(13) . . ?
C