####################################################################### 
# 
# This file contains crystal structure data downloaded from the 
# Cambridge Structural Database (CSD) hosted by the Cambridge 
# Crystallographic Data Centre (CCDC).
# 
# Full information about CCDC data access policies and citation 
# guidelines are available at http://www.ccdc.cam.ac.uk/access/V1 
# 
# Audit and citation data items may have been added by the CCDC. 
# Please retain this information to preserve the provenance of 
# this file and to allow appropriate attribution of the data. 
# 
#######################################################################

data_1
_audit_block_doi                 10.5517/ccsbxmm
_database_code_depnum_ccdc_archive 'CCDC 725481'
loop_
_citation_id
_citation_doi
_citation_year
1 10.1021/ic902262u 2010
_audit_update_record             
;
2009-03-28 deposited with the CCDC.	2024-07-13 downloaded from the CCDC.
;

_audit_creation_method           SHELXL-97
_chemical_name_systematic        
;
?
;
_chemical_name_common            ?
_chemical_melting_point          ?
_chemical_formula_moiety         ?
_chemical_formula_sum            'C48 H88 Cu7 N12 O57'
_chemical_formula_weight         2190.08

loop_
_atom_type_symbol
_atom_type_description
_atom_type_scat_dispersion_real
_atom_type_scat_dispersion_imag
_atom_type_scat_source
C C 0.0033 0.0016 'International Tables Vol C Tables 4.2.6.8 and 6.1.1.4'
H H 0.0000 0.0000 'International Tables Vol C Tables 4.2.6.8 and 6.1.1.4'
N N 0.0061 0.0033 'International Tables Vol C Tables 4.2.6.8 and 6.1.1.4'
O O 0.0106 0.0060 'International Tables Vol C Tables 4.2.6.8 and 6.1.1.4'
Cu Cu 0.3201 1.2651 'International Tables Vol C Tables 4.2.6.8 and 6.1.1.4'

_symmetry_cell_setting           triclinic
_symmetry_space_group_name_H-M   p-1

loop_
_symmetry_equiv_pos_as_xyz
'x, y, z'
'-x, -y, -z'

_cell_length_a                   11.8612(14)
_cell_length_b                   12.8546(15)
_cell_length_c                   16.8747(19)
_cell_angle_alpha                71.216(2)
_cell_angle_beta                 79.836(2)
_cell_angle_gamma                65.4310(10)
_cell_volume                     2212.6(4)
_cell_formula_units_Z            1
_cell_measurement_temperature    293(2)
_cell_measurement_reflns_used    ?
_cell_measurement_theta_min      ?
_cell_measurement_theta_max      ?

_exptl_crystal_description       block
_exptl_crystal_colour            green
_exptl_crystal_size_max          0.35
_exptl_crystal_size_mid          0.13
_exptl_crystal_size_min          0.02
_exptl_crystal_density_meas      ?
_exptl_crystal_density_diffrn    1.644
_exptl_crystal_density_method    'not measured'
_exptl_crystal_F_000             1119
_exptl_absorpt_coefficient_mu    1.761
_exptl_absorpt_correction_type   psi-scan
_exptl_absorpt_correction_T_min  0.5786
_exptl_absorpt_correction_T_max  0.9640
_exptl_absorpt_process_details   ?

_exptl_special_details           
;
?
;

_diffrn_ambient_temperature      293(2)
_diffrn_radiation_wavelength     0.71073
_diffrn_radiation_type           MoK\a
_diffrn_radiation_source         'fine-focus sealed tube'
_diffrn_radiation_monochromator  graphite
_diffrn_measurement_device_type  'Bruke P4 diffractometer'
_diffrn_measurement_method       '\w scan'
_diffrn_detector_area_resol_mean ?
_diffrn_standards_number         3
_diffrn_standards_interval_count 97
_diffrn_standards_interval_time  ?
_diffrn_standards_decay_%        none
_diffrn_reflns_number            12113
_diffrn_reflns_av_R_equivalents  0.0243
_diffrn_reflns_av_sigmaI/netI    0.0591
_diffrn_reflns_limit_h_min       -14
_diffrn_reflns_limit_h_max       14
_diffrn_reflns_limit_k_min       -15
_diffrn_reflns_limit_k_max       15
_diffrn_reflns_limit_l_min       -18
_diffrn_reflns_limit_l_max       20
_diffrn_reflns_theta_min         1.91
_diffrn_reflns_theta_max         26.00
_reflns_number_total             8515
_reflns_number_gt                6275
_reflns_threshold_expression     >2sigma(I)

_computing_data_collection       'Bruker XSCANS'
_computing_cell_refinement       'Bruker XSCANS'
_computing_data_reduction        'Bruker XSCANS'
_computing_structure_solution    'SHELXS-97 (Sheldrick, 1997)'
_computing_structure_refinement  'SHELXL-97 (Sheldrick, 1997)'
_computing_molecular_graphics    'SHELXTL (Bruker, 2001)'
_computing_publication_material  'SHELXTL (Bruker, 2001)'

_refine_special_details          
;
Refinement of F^2^ against ALL reflections. The weighted R-factor wR and
goodness of fit S are based on F^2^, conventional R-factors R are based
on F, with F set to zero for negative F^2^. The threshold expression of
F^2^ > 2sigma(F^2^) is used only for calculating R-factors(gt) etc. and is
not relevant to the choice of reflections for refinement. R-factors based
on F^2^ are statistically about twice as large as those based on F, and R-
factors based on ALL data will be even larger.
;

_refine_ls_structure_factor_coef Fsqd
_refine_ls_matrix_type           full
_refine_ls_weighting_scheme      calc
_refine_ls_weighting_details     
'calc w=1/[\s^2^(Fo^2^)+(0.1212P)^2^+7.8594P] where P=(Fo^2^+2Fc^2^)/3'
_atom_sites_solution_primary     direct
_atom_sites_solution_secondary   difmap
_atom_sites_solution_hydrogens   geom
_refine_ls_hydrogen_treatment    mixed
_refine_ls_extinction_method     none
_refine_ls_extinction_coef       ?
_refine_ls_number_reflns         8515
_refine_ls_number_parameters     595
_refine_ls_number_restraints     9
_refine_ls_R_factor_all          0.0866
_refine_ls_R_factor_gt           0.0640
_refine_ls_wR_factor_ref         0.2121
_refine_ls_wR_factor_gt          0.1910
_refine_ls_goodness_of_fit_ref   1.023
_refine_ls_restrained_S_all      1.023
_refine_ls_shift/su_max          0.001
_refine_ls_shift/su_mean         0.000

loop_
_atom_site_label
_atom_site_type_symbol
_atom_site_fract_x
_atom_site_fract_y
_atom_site_fract_z
_atom_site_U_iso_or_equiv
_atom_site_adp_type
_atom_site_occupancy
_atom_site_symmetry_multiplicity
_atom_site_calc_flag
_atom_site_refinement_flags
_atom_site_disorder_assembly
_atom_site_disorder_group
Cu1 Cu 0.52909(6) 0.48431(6) 0.42344(4) 0.01959(19) Uani 1 1 d . . .
Cu2 Cu 0.0000 0.5000 1.0000 0.0252(3) Uani 1 2 d S . .
Cu3 Cu -0.28244(7) 0.57488(7) 0.98830(5) 0.0302(2) Uani 1 1 d . . .
Cu4 Cu -0.07762(8) 0.28576(7) 0.99828(5) 0.0367(2) Uani 1 1 d . . .
C1 C 0.7071(5) -0.0300(5) 0.4166(4) 0.0244(13) Uani 1 1 d . . .
C2 C 0.9160(6) -0.0334(5) 0.4132(4) 0.0266(13) Uani 1 1 d . . .
C3 C 0.8682(6) -0.2069(5) 0.4961(4) 0.0238(12) Uani 1 1 d . . .
C4 C 0.6591(6) -0.2033(6) 0.4984(4) 0.0279(14) Uani 1 1 d . . .
H4A H 0.5752 -0.1459 0.5031 0.034 Uiso 1 1 calc R . .
H4B H 0.6795 -0.2611 0.5527 0.034 Uiso 1 1 calc R . .
C5 C 0.6665(7) -0.2657(7) 0.4341(4) 0.0371(16) Uani 1 1 d . . .
H5A H 0.6362 -0.2058 0.3819 0.044 Uiso 1 1 calc R . .
H5B H 0.7529 -0.3132 0.4237 0.044 Uiso 1 1 calc R . .
C6 C 0.5944(5) -0.3452(5) 0.4584(4) 0.0243(13) Uani 1 1 d . . .
C7 C 0.7585(6) 0.1338(5) 0.3201(4) 0.0259(13) Uani 1 1 d . . .
H7A H 0.7112 0.1286 0.2812 0.031 Uiso 1 1 calc R . .
H7B H 0.8332 0.1425 0.2902 0.031 Uiso 1 1 calc R . .
C8 C 0.6827(7) 0.2419(5) 0.3507(4) 0.0358(16) Uani 1 1 d . . .
H8A H 0.7351 0.2540 0.3821 0.043 Uiso 1 1 calc R . .
H8B H 0.6163 0.2267 0.3888 0.043 Uiso 1 1 calc R . .
C9 C 0.6265(6) 0.3551(5) 0.2819(4) 0.0238(12) Uani 1 1 d . . .
C10 C 1.0782(6) -0.2132(6) 0.4903(4) 0.0295(14) Uani 1 1 d . . .
H10A H 1.0826 -0.2724 0.5439 0.035 Uiso 1 1 calc R . .
H10B H 1.1117 -0.1589 0.4960 0.035 Uiso 1 1 calc R . .
C11 C 1.1559(6) -0.2743(6) 0.4244(5) 0.0368(16) Uani 1 1 d . . .
H11A H 1.1167 -0.3216 0.4145 0.044 Uiso 1 1 calc R . .
H11B H 1.1578 -0.2142 0.3723 0.044 Uiso 1 1 calc R . .
C12 C 1.2877(6) -0.3540(5) 0.4490(4) 0.0262(13) Uani 1 1 d . . .
C13 C 0.0430(7) 0.5107(7) 1.2918(4) 0.0391(17) Uani 1 1 d . . .
C14 C 0.1893(7) 0.3139(7) 1.2886(4) 0.0347(16) Uani 1 1 d . . .
C15 C -0.0263(7) 0.3789(7) 1.2572(4) 0.0360(16) Uani 1 1 d . . .
C16 C -0.1759(7) 0.5721(8) 1.2692(5) 0.0457(19) Uani 1 1 d . . .
H16A H -0.1947 0.6053 1.3164 0.055 Uiso 1 1 calc R . .
H16B H -0.2329 0.5337 1.2738 0.055 Uiso 1 1 calc R . .
C17 C -0.1977(7) 0.6745(7) 1.1872(5) 0.0420(18) Uani 1 1 d . . .
H17A H -0.2822 0.7322 1.1886 0.050 Uiso 1 1 calc R . .
H17B H -0.1421 0.7144 1.1826 0.050 Uiso 1 1 calc R . .
C18 C -0.1755(6) 0.6282(6) 1.1120(4) 0.0306(14) Uani 1 1 d . . .
C19 C 0.2679(7) 0.4592(7) 1.2936(4) 0.0386(17) Uani 1 1 d . . .
H19A H 0.3441 0.3889 1.2979 0.046 Uiso 1 1 calc R . .
H19B H 0.2562 0.4844 1.3438 0.046 Uiso 1 1 calc R . .
C20 C 0.2804(8) 0.5563(7) 1.2188(4) 0.0438(18) Uani 1 1 d . . .
H20A H 0.3650 0.5515 1.2143 0.053 Uiso 1 1 calc R . .
H20B H 0.2264 0.6322 1.2289 0.053 Uiso 1 1 calc R . .
C21 C 0.2508(6) 0.5555(6) 1.1361(4) 0.0334(15) Uani 1 1 d . . .
C22 C 0.1215(8) 0.1741(7) 1.2630(5) 0.0440(18) Uani 1 1 d . . .
H22A H 0.0447 0.1631 1.2658 0.053 Uiso 1 1 calc R . .
H22B H 0.1704 0.1133 1.3090 0.053 Uiso 1 1 calc R . .
C23 C 0.1917(7) 0.1574(7) 1.1815(5) 0.0457(19) Uani 1 1 d . . .
H23A H 0.2137 0.0765 1.1798 0.055 Uiso 1 1 calc R . .
H23B H 0.2678 0.1703 1.1773 0.055 Uiso 1 1 calc R . .
C24 C 0.1116(7) 0.2454(6) 1.1075(4) 0.0370(16) Uani 1 1 d . . .
N1 N 0.7470(4) -0.1413(4) 0.4731(3) 0.0238(11) Uani 1 1 d . . .
N2 N 0.7936(5) 0.0217(4) 0.3899(3) 0.0231(10) Uani 1 1 d . . .
N3 N 0.9474(4) -0.1466(4) 0.4678(3) 0.0243(11) Uani 1 1 d . . .
N4 N -0.0490(5) 0.4823(6) 1.2746(3) 0.0362(13) Uani 1 1 d . . .
N5 N 0.1630(5) 0.4282(5) 1.2890(3) 0.0321(12) Uani 1 1 d . . .
N6 N 0.0927(5) 0.2912(5) 1.2735(3) 0.0339(13) Uani 1 1 d . . .
O1 O 0.5891(4) -0.3874(4) 0.4018(3) 0.0341(11) Uani 1 1 d . . .
O2 O 0.5466(4) -0.3643(4) 0.5306(3) 0.0303(10) Uani 1 1 d . . .
O3 O 0.6246(5) 0.3479(4) 0.2092(3) 0.0400(12) Uani 1 1 d . . .
O4 O 0.5803(4) 0.4521(4) 0.3011(3) 0.0268(9) Uani 1 1 d . . .
O5 O 1.3135(4) -0.3737(4) 0.5221(3) 0.0340(11) Uani 1 1 d . . .
O6 O 1.3615(4) -0.3960(4) 0.3935(3) 0.0349(11) Uani 1 1 d . . .
O7 O 0.6014(4) 0.0213(4) 0.3927(3) 0.0394(12) Uani 1 1 d . . .
O8 O 0.9886(4) 0.0130(4) 0.3889(4) 0.0438(13) Uani 1 1 d . . .
O9 O 0.9026(4) -0.3091(4) 0.5382(3) 0.0369(11) Uani 1 1 d . . .
O10 O -0.2679(4) 0.6347(4) 1.0815(3) 0.0354(11) Uani 1 1 d . . .
O11 O -0.0639(4) 0.5826(4) 1.0872(3) 0.0312(10) Uani 1 1 d . . .
O12 O 0.1889(7) 0.6562(5) 1.0907(4) 0.067(2) Uani 1 1 d . . .
O13 O 0.2877(5) 0.4601(4) 1.1171(3) 0.0377(11) Uani 1 1 d . . .
O14 O 0.0505(5) 0.2083(4) 1.0790(3) 0.0455(13) Uani 1 1 d . . .
O15 O 0.1103(4) 0.3498(4) 1.0849(3) 0.0369(11) Uani 1 1 d . . .
O16 O 0.0202(6) 0.6044(6) 1.3058(4) 0.0587(16) Uani 1 1 d . . .
O17 O 0.2918(5) 0.2354(5) 1.2994(3) 0.0453(13) Uani 1 1 d . . .
O18 O -0.1056(5) 0.3606(5) 1.2324(4) 0.0484(13) Uani 1 1 d . . .
O19 O -0.1494(4) 0.4277(4) 1.0346(3) 0.0344(11) Uani 1 1 d . . .
H19C H -0.1622 0.4055 1.0958 0.041 Uiso 1 1 calc R . .
O1W O -0.2012(7) 0.1978(7) 1.0972(4) 0.079(2) Uani 1 1 d . . .
H1WA H -0.1934 0.1275 1.1012 0.094 Uiso 1 1 d R . .
H1WB H -0.2539 0.2365 1.1291 0.094 Uiso 1 1 d R . .
O2W O 0.0114(6) 0.1479(6) 0.9540(5) 0.0660(19) Uani 1 1 d D . .
H2WA H 0.001(8) 0.120(9) 0.918(6) 0.099 Uiso 1 1 d D . .
H2WB H 0.090(3) 0.120(10) 0.961(7) 0.099 Uiso 1 1 d D . .
O3W O -0.4422(6) 0.5181(6) 1.0604(4) 0.0551(15) Uani 1 1 d D . .
H3WA H -0.382(6) 0.541(8) 1.054(6) 0.083 Uiso 1 1 d D . .
H3WB H -0.431(8) 0.458(6) 1.104(4) 0.083 Uiso 1 1 d D . .
O4W O -0.4139(5) 0.7303(4) 0.9472(3) 0.0416(12) Uani 1 1 d D . .
H4WA H -0.420(8) 0.792(4) 0.957(4) 0.062 Uiso 1 1 d D . .
H4WB H -0.433(8) 0.746(6) 0.897(2) 0.062 Uiso 1 1 d D . .
O5W O 0.6566(9) 0.9614(8) 0.2051(6) 0.035(2) Uani 0.50 1 d P . .
H5WA H 0.6176 1.0123 0.1624 0.042 Uiso 0.50 1 d PR . .
H5WB H 0.6931 0.9811 0.2334 0.042 Uiso 0.50 1 d PR . .
O6W O 0.8888(8) 0.8498(7) 0.2826(5) 0.0268(19) Uani 0.50 1 d P . .
H6WA H 0.8228 0.9098 0.2657 0.032 Uiso 0.50 1 d PR . .
H6WB H 0.9526 0.8599 0.2891 0.032 Uiso 0.50 1 d PR . .
O7W O -0.4871(6) 0.6747(5) 1.1851(4) 0.0591(16) Uani 1 1 d . . .
H7WA H -0.5167 0.7012 1.2276 0.071 Uiso 1 1 d R . .
H7WB H -0.5322 0.6595 1.1601 0.071 Uiso 1 1 d R . .
O8W O -0.5109(5) 0.7975(5) 0.7995(3) 0.0443(12) Uani 1 1 d . . .
H8WA H -0.4944 0.8555 0.7663 0.053 Uiso 1 1 d R . .
H8WB H -0.5804 0.7936 0.7982 0.053 Uiso 1 1 d R . .
O9W O 0.4099(13) 0.0570(11) 0.0515(9) 0.072(4) Uani 0.50 1 d P . .
H9WA H 0.4626 0.0274 0.0154 0.086 Uiso 0.50 1 d PR . .
H9WB H 0.3387 0.1094 0.0367 0.086 Uiso 0.50 1 d PR . .
O10W O 0.0468(10) 0.9451(9) 0.1563(7) 0.046(2) Uiso 0.50 1 d P . .
H10C H -0.0154 0.9601 0.1908 0.055 Uiso 0.50 1 d PR . .
H10D H 0.0454 0.9943 0.1083 0.055 Uiso 0.50 1 d PR . .
O11W O 0.2544(11) 0.0186(13) 0.9640(8) 0.078(5) Uani 0.50 1 d P . .
H11C H 0.2145 -0.0264 0.9742 0.093 Uiso 0.50 1 d PR . .
H11D H 0.3309 -0.0067 0.9486 0.093 Uiso 0.50 1 d PR . .
O13W O -0.5327(16) 0.8775(16) 1.2382(11) 0.101(5) Uiso 0.50 1 d P . .
H13A H -0.5454 0.9336 1.1929 0.121 Uiso 0.50 1 d PR . .
H13B H -0.5886 0.8811 1.2776 0.121 Uiso 0.50 1 d PR . .
O12W O -0.6389(16) 0.7832(16) 1.0491(11) 0.100(5) Uiso 0.50 1 d P . .
H12A H -0.6900 0.7520 1.0761 0.120 Uiso 0.50 1 d PR . .
H12B H -0.6608 0.8583 1.0349 0.120 Uiso 0.50 1 d PR . .

loop_
_atom_site_aniso_label
_atom_site_aniso_U_11
_atom_site_aniso_U_22
_atom_site_aniso_U_33
_atom_site_aniso_U_23
_atom_site_aniso_U_13
_atom_site_aniso_U_12
Cu1 0.0149(4) 0.0209(4) 0.0241(4) -0.0074(3) -0.0021(3) -0.0067(3)
Cu2 0.0220(5) 0.0271(5) 0.0269(6) -0.0091(4) -0.0013(4) -0.0086(4)
Cu3 0.0262(4) 0.0326(4) 0.0285(4) -0.0081(3) -0.0070(3) -0.0063(3)
Cu4 0.0447(5) 0.0288(4) 0.0379(5) -0.0099(4) -0.0153(4) -0.0097(4)
C1 0.022(3) 0.020(3) 0.031(3) -0.011(3) 0.000(2) -0.005(2)
C2 0.020(3) 0.022(3) 0.033(3) -0.006(3) -0.001(3) -0.006(2)
C3 0.023(3) 0.025(3) 0.022(3) -0.007(3) 0.000(2) -0.007(2)
C4 0.029(3) 0.032(3) 0.033(3) -0.012(3) 0.009(3) -0.023(3)
C5 0.047(4) 0.042(4) 0.036(4) -0.015(3) 0.007(3) -0.030(4)
C6 0.017(3) 0.023(3) 0.033(3) -0.006(3) -0.004(2) -0.008(2)
C7 0.024(3) 0.022(3) 0.027(3) -0.002(2) -0.004(2) -0.006(2)
C8 0.053(4) 0.021(3) 0.031(4) -0.006(3) -0.010(3) -0.009(3)
C9 0.025(3) 0.020(3) 0.025(3) -0.005(2) -0.002(2) -0.009(2)
C10 0.020(3) 0.029(3) 0.038(4) -0.010(3) -0.012(3) -0.003(3)
C11 0.018(3) 0.042(4) 0.046(4) -0.020(3) -0.009(3) 0.002(3)
C12 0.022(3) 0.019(3) 0.037(4) -0.007(3) -0.007(3) -0.006(2)
C13 0.044(4) 0.056(5) 0.023(3) -0.012(3) -0.003(3) -0.024(4)
C14 0.034(4) 0.049(4) 0.018(3) 0.000(3) -0.004(3) -0.019(3)
C15 0.034(4) 0.051(4) 0.026(3) -0.007(3) 0.007(3) -0.027(3)
C16 0.039(4) 0.067(5) 0.033(4) -0.025(4) 0.004(3) -0.017(4)
C17 0.033(4) 0.053(5) 0.046(4) -0.028(4) -0.004(3) -0.010(3)
C18 0.027(3) 0.031(3) 0.036(4) -0.014(3) -0.005(3) -0.008(3)
C19 0.039(4) 0.053(4) 0.031(4) -0.006(3) -0.014(3) -0.025(3)
C20 0.054(5) 0.054(5) 0.034(4) -0.007(3) -0.009(3) -0.033(4)
C21 0.031(4) 0.039(4) 0.031(4) 0.000(3) -0.007(3) -0.018(3)
C22 0.048(5) 0.043(4) 0.039(4) 0.003(3) -0.013(3) -0.022(4)
C23 0.039(4) 0.046(4) 0.053(5) -0.015(4) -0.021(4) -0.008(3)
C24 0.033(4) 0.039(4) 0.036(4) -0.014(3) -0.002(3) -0.008(3)
N1 0.018(2) 0.021(2) 0.034(3) -0.007(2) -0.001(2) -0.009(2)
N2 0.021(3) 0.016(2) 0.030(3) -0.003(2) -0.005(2) -0.0060(19)
N3 0.017(2) 0.020(2) 0.032(3) -0.006(2) -0.008(2) -0.003(2)
N4 0.025(3) 0.057(4) 0.029(3) -0.013(3) 0.001(2) -0.018(3)
N5 0.031(3) 0.047(3) 0.025(3) -0.010(3) -0.001(2) -0.022(3)
N6 0.031(3) 0.046(3) 0.029(3) -0.005(3) -0.004(2) -0.022(3)
O1 0.041(3) 0.041(3) 0.035(3) -0.016(2) 0.009(2) -0.030(2)
O2 0.037(3) 0.032(2) 0.029(2) -0.0111(19) 0.006(2) -0.021(2)
O3 0.058(3) 0.030(3) 0.027(3) -0.008(2) -0.011(2) -0.009(2)
O4 0.031(2) 0.019(2) 0.025(2) -0.0051(17) -0.0034(18) -0.0048(18)
O5 0.021(2) 0.040(3) 0.036(3) -0.017(2) -0.0113(19) 0.0013(19)
O6 0.023(2) 0.039(3) 0.038(3) -0.012(2) -0.006(2) -0.004(2)
O7 0.020(2) 0.033(3) 0.059(3) -0.004(2) -0.014(2) -0.007(2)
O8 0.022(2) 0.035(3) 0.070(4) 0.003(2) -0.008(2) -0.018(2)
O9 0.035(3) 0.022(2) 0.040(3) 0.005(2) -0.004(2) -0.008(2)
O10 0.032(3) 0.044(3) 0.032(3) -0.016(2) -0.004(2) -0.012(2)
O11 0.026(2) 0.036(2) 0.032(2) -0.014(2) -0.0010(19) -0.010(2)
O12 0.100(5) 0.040(3) 0.066(4) -0.012(3) -0.052(4) -0.013(3)
O13 0.048(3) 0.038(3) 0.029(2) -0.009(2) -0.009(2) -0.015(2)
O14 0.048(3) 0.035(3) 0.058(3) -0.014(2) -0.028(3) -0.011(2)
O15 0.036(3) 0.043(3) 0.036(3) -0.010(2) -0.004(2) -0.020(2)
O16 0.058(4) 0.060(4) 0.068(4) -0.031(3) -0.016(3) -0.017(3)
O17 0.039(3) 0.050(3) 0.046(3) -0.011(3) -0.011(2) -0.015(3)
O18 0.033(3) 0.067(4) 0.057(3) -0.019(3) -0.003(2) -0.028(3)
O19 0.036(3) 0.032(2) 0.031(2) -0.009(2) -0.012(2) -0.005(2)
O1W 0.096(6) 0.075(5) 0.078(5) -0.031(4) 0.027(4) -0.051(4)
O2W 0.066(4) 0.056(4) 0.079(5) -0.045(4) -0.023(4) 0.000(3)
O3W 0.053(4) 0.071(4) 0.045(3) 0.004(3) -0.010(3) -0.039(3)
O4W 0.037(3) 0.037(3) 0.043(3) -0.008(2) -0.019(2) -0.003(2)
O5W 0.045(6) 0.022(4) 0.036(5) -0.021(4) -0.011(4) 0.002(4)
O6W 0.029(5) 0.019(4) 0.029(4) -0.020(4) -0.008(4) 0.008(3)
O7W 0.056(4) 0.052(3) 0.061(4) -0.006(3) -0.005(3) -0.018(3)
O8W 0.040(3) 0.043(3) 0.047(3) -0.006(2) -0.014(2) -0.013(2)
O9W 0.078(10) 0.054(8) 0.089(10) -0.044(7) 0.009(8) -0.017(7)
O11W 0.035(7) 0.093(10) 0.053(8) -0.001(7) -0.001(6) 0.010(6)

_geom_special_details            
;
All esds (except the esd in the dihedral angle between two l.s. planes)
are estimated using the full covariance matrix. The cell esds are taken
into account individually in the estimation of esds in distances, angles
and torsion angles; correlations between esds in cell parameters are only
used when they are defined by crystal symmetry. An a