####################################################################### 
# 
# This file contains crystal structure data downloaded from the 
# Cambridge Structural Database (CSD) hosted by the Cambridge 
# Crystallographic Data Centre (CCDC).
# 
# Full information about CCDC data access policies and citation 
# guidelines are available at http://www.ccdc.cam.ac.uk/access/V1 
# 
# Audit and citation data items may have been added by the CCDC. 
# Please retain this information to preserve the provenance of 
# this file and to allow appropriate attribution of the data. 
# 
#######################################################################

data_1
_audit_block_doi                 10.5517/cc8063k
_database_code_depnum_ccdc_archive 'CCDC 238517'
loop_
_citation_id
_citation_doi
_citation_year
1 10.1016/j.inoche.2004.08.016 2004
_audit_update_record             
;
2004-05-12 deposited with the CCDC.	2024-07-13 downloaded from the CCDC.
;

_audit_creation_method           SHELXL-97
_chemical_name_systematic        
;
?
;
_chemical_name_common            ?
_chemical_melting_point          ?
_chemical_formula_moiety         ?
_chemical_formula_sum            'C18 H17 N2 O6.50 Zn'
_chemical_formula_weight         430.71

loop_
_atom_type_symbol
_atom_type_description
_atom_type_scat_dispersion_real
_atom_type_scat_dispersion_imag
_atom_type_scat_source
C C 0.0033 0.0016 'International Tables Vol C Tables 4.2.6.8 and 6.1.1.4'
H H 0.0000 0.0000 'International Tables Vol C Tables 4.2.6.8 and 6.1.1.4'
N N 0.0061 0.0033 'International Tables Vol C Tables 4.2.6.8 and 6.1.1.4'
O O 0.0106 0.0060 'International Tables Vol C Tables 4.2.6.8 and 6.1.1.4'
Zn Zn 0.2839 1.4301 'International Tables Vol C Tables 4.2.6.8 and 6.1.1.4'

_symmetry_cell_setting           monoclinic
_symmetry_space_group_name_H-M   P2(1)/n

loop_
_symmetry_equiv_pos_as_xyz
'x, y, z'
'-x+1/2, y+1/2, -z+1/2'
'-x, -y, -z'
'x-1/2, -y-1/2, z-1/2'

_cell_length_a                   9.710(3)
_cell_length_b                   13.809(5)
_cell_length_c                   17.981(6)
_cell_angle_alpha                90.00
_cell_angle_beta                 97.700(4)
_cell_angle_gamma                90.00
_cell_volume                     2389.5(14)
_cell_formula_units_Z            4
_cell_measurement_temperature    293(2)
_cell_measurement_reflns_used    4871
_cell_measurement_theta_min      3.1631
_cell_measurement_theta_max      27.4835

_exptl_crystal_description       Platelet
_exptl_crystal_colour            Colorless
_exptl_crystal_size_max          0.2500
_exptl_crystal_size_mid          0.2500
_exptl_crystal_size_min          0.3000
_exptl_crystal_density_meas      ?
_exptl_crystal_density_diffrn    1.197
_exptl_crystal_density_method    'not measured'
_exptl_crystal_F_000             884
_exptl_absorpt_coefficient_mu    1.059
_exptl_absorpt_correction_type   Multi-scan
_exptl_absorpt_correction_T_min  0.7863
_exptl_absorpt_correction_T_max  1.000
_exptl_absorpt_process_details   'Sphere (Rigaku CrystalClear)'

_exptl_special_details           
;
?
;

_diffrn_ambient_temperature      293(2)
_diffrn_radiation_wavelength     0.71073
_diffrn_radiation_type           MoK\a
_diffrn_radiation_source         'rotating-anode generator'
_diffrn_radiation_monochromator  graphite
_diffrn_measurement_device_type  'Rigaku Mercury CCD'
_diffrn_measurement_method       \w
_diffrn_detector_area_resol_mean ?
_diffrn_standards_number         ?
_diffrn_standards_interval_count ?
_diffrn_standards_interval_time  ?
_diffrn_standards_decay_%        ?
_diffrn_reflns_number            14573
_diffrn_reflns_av_R_equivalents  0.0381
_diffrn_reflns_av_sigmaI/netI    0.0660
_diffrn_reflns_limit_h_min       -11
_diffrn_reflns_limit_h_max       11
_diffrn_reflns_limit_k_min       -16
_diffrn_reflns_limit_k_max       16
_diffrn_reflns_limit_l_min       -16
_diffrn_reflns_limit_l_max       21
_diffrn_reflns_theta_min         3.16
_diffrn_reflns_theta_max         25.03
_reflns_number_total             4114
_reflns_number_gt                2583
_reflns_threshold_expression     >2sigma(I)

_computing_data_collection       'CrystalClear (Rigaku Corp., 2002)'
_computing_cell_refinement       'CrystalClear (Rigaku Corp., 2002)'
_computing_data_reduction        'CrystalClear (Rigaku Corp., 2002)'
_computing_structure_solution    'Siemens SHELXTL^TM^ 5'
_computing_structure_refinement  'Siemens SHELXTL^TM^ 5'
_computing_molecular_graphics    'Siemens SHELXTL^TM^ 5'
_computing_publication_material  'Siemens SHELXTL^TM^ 5'

_refine_special_details          
;
Refinement of F^2^ against ALL reflections.  The weighted R-factor wR and
goodness of fit S are based on F^2^, conventional R-factors R are based
on F, with F set to zero for negative F^2^. The threshold expression of
F^2^ > 2sigma(F^2^) is used only for calculating R-factors(gt) etc. and is
not relevant to the choice of reflections for refinement.  R-factors based
on F^2^ are statistically about twice as large as those based on F, and R-
factors based on ALL data will be even larger.
;

_refine_ls_structure_factor_coef Fsqd
_refine_ls_matrix_type           full
_refine_ls_weighting_scheme      calc
_refine_ls_weighting_details     
'calc w=1/[\s^2^(Fo^2^)+(0.1036P)^2^+0.0000P] where P=(Fo^2^+2Fc^2^)/3'
_atom_sites_solution_primary     direct
_atom_sites_solution_secondary   difmap
_atom_sites_solution_hydrogens   geom
_refine_ls_hydrogen_treatment    mixed
_refine_ls_extinction_method     none
_refine_ls_extinction_coef       ?
_refine_ls_number_reflns         4114
_refine_ls_number_parameters     257
_refine_ls_number_restraints     0
_refine_ls_R_factor_all          0.0902
_refine_ls_R_factor_gt           0.0606
_refine_ls_wR_factor_ref         0.1821
_refine_ls_wR_factor_gt          0.1626
_refine_ls_goodness_of_fit_ref   1.005
_refine_ls_restrained_S_all      1.005
_refine_ls_shift/su_max          0.001
_refine_ls_shift/su_mean         0.000

loop_
_atom_site_label
_atom_site_type_symbol
_atom_site_fract_x
_atom_site_fract_y
_atom_site_fract_z
_atom_site_U_iso_or_equiv
_atom_site_adp_type
_atom_site_occupancy
_atom_site_symmetry_multiplicity
_atom_site_calc_flag
_atom_site_refinement_flags
_atom_site_disorder_assembly
_atom_site_disorder_group
Zn1 Zn 0.25046(2) 0.145841(19) 0.001563(14) 0.03982(7) Uani 1 1 d . . .
O11 O 0.44986(14) 0.16957(11) 0.03205(9) 0.0462(4) Uani 1 1 d . . .
O12 O 0.40356(17) 0.27557(16) 0.11656(12) 0.0879(7) Uani 1 1 d . . .
O13 O 1.10076(15) 0.20481(12) 0.04732(10) 0.0548(5) Uani 1 1 d . . .
O14 O 0.93670(16) 0.12568(12) -0.02385(10) 0.0601(5) Uani 1 1 d . . .
C11 C 0.6382(2) 0.25706(16) 0.09646(13) 0.0407(6) Uani 1 1 d . . .
C12 C 0.6860(3) 0.3204(2) 0.15208(16) 0.0637(8) Uani 1 1 d . . .
H12A H 0.6241 0.3503 0.1800 0.076 Uiso 1 1 calc R . .
C13 C 0.8265(3) 0.3403(2) 0.16691(18) 0.0808(9) Uani 1 1 d . . .
H13A H 0.8586 0.3843 0.2044 0.097 Uiso 1 1 calc R . .
C14 C 0.9186(2) 0.2959(2) 0.12697(16) 0.0663(9) Uani 1 1 d . . .
H14A H 1.0131 0.3088 0.1384 0.080 Uiso 1 1 calc R . .
C15 C 0.8735(2) 0.23224(16) 0.07016(13) 0.0413(6) Uani 1 1 d . . .
C16 C 0.7312(2) 0.21239(16) 0.05498(12) 0.0375(6) Uani 1 1 d . . .
H16A H 0.6986 0.1691 0.0170 0.045 Uiso 1 1 calc R . .
C17 C 0.4866(2) 0.23328(17) 0.08205(13) 0.0453(7) Uani 1 1 d . . .
C18 C 0.9756(2) 0.18248(16) 0.02770(13) 0.0423(6) Uani 1 1 d . . .
N21 N 0.25024(18) 0.05296(13) -0.08834(10) 0.0419(5) Uani 1 1 d . . .
N22 N 0.25738(19) -0.23334(14) -0.41529(11) 0.0473(6) Uani 1 1 d . . .
C20 C 0.3715(2) 0.02580(17) -0.11043(13) 0.0465(7) Uani 1 1 d . . .
H20A H 0.4538 0.0431 -0.0808 0.056 Uiso 1 1 calc R . .
C21 C 0.3792(2) -0.02738(17) -0.17596(13) 0.0463(7) Uani 1 1 d . . .
H21A H 0.4651 -0.0433 -0.1900 0.056 Uiso 1 1 calc R . .
C22 C 0.2582(2) -0.05596(16) -0.21946(12) 0.0417(6) Uani 1 1 d . . .
C23 C 0.1346(2) -0.02840(18) -0.19550(14) 0.0529(7) Uani 1 1 d . . .
H23A H 0.0506 -0.0457 -0.2235 0.064 Uiso 1 1 calc R . .
C24 C 0.1348(2) 0.02399(19) -0.13111(14) 0.0568(8) Uani 1 1 d . . .
H24A H 0.0497 0.0404 -0.1163 0.068 Uiso 1 1 calc R . .
C25 C 0.3769(3) -0.1553(3) -0.3081(2) 0.1007(12) Uani 1 1 d . . .
H25A H 0.4618 -0.1455 -0.2784 0.121 Uiso 1 1 calc R . .
C26 C 0.3705(3) -0.2120(3) -0.37199(19) 0.0935(10) Uani 1 1 d . . .
H26A H 0.4535 -0.2365 -0.3847 0.112 Uiso 1 1 calc R . .
C27 C 0.1460(3) -0.1937(3) -0.39714(18) 0.1001(11) Uani 1 1 d . . .
H27A H 0.0625 -0.2059 -0.4274 0.120 Uiso 1 1 calc R . .
C28 C 0.1432(3) -0.1347(3) -0.3360(2) 0.1135(12) Uani 1 1 d . . .
H28A H 0.0591 -0.1081 -0.3268 0.136 Uiso 1 1 calc R . .
C29 C 0.2607(2) -0.11436(17) -0.28872(13) 0.0457(7) Uani 1 1 d . . .
O1W O 0.25493(17) 0.01578(13) 0.07135(9) 0.0580(5) Uani 1 1 d . . .
O2W O 0.3321(5) 0.4664(3) 0.1425(2) 0.0929(14) Uani 0.50 1 d P . .
O3W O 0.2600(5) 0.0401(3) 0.22501(18) 0.0904(15) Uani 0.50 1 d P . .
O4W O 0.2800(8) 0.2284(6) 0.2389(4) 0.148(2) Uiso 0.50 1 d P . .

loop_
_atom_site_aniso_label
_atom_site_aniso_U_11
_atom_site_aniso_U_22
_atom_site_aniso_U_33
_atom_site_aniso_U_23
_atom_site_aniso_U_13
_atom_site_aniso_U_12
Zn1 0.02823(11) 0.05250(15) 0.03920(14) -0.00568(11) 0.00632(11) -0.00168(10)
O11 0.0277(6) 0.0589(9) 0.0505(9) 0.0004(8) -0.0007(7) -0.0038(7)
O12 0.0343(8) 0.1207(15) 0.1122(15) -0.0539(12) 0.0222(9) -0.0046(10)
O13 0.0298(7) 0.0697(10) 0.0672(11) -0.0109(8) 0.0149(7) -0.0011(7)
O14 0.0439(8) 0.0718(10) 0.0686(11) -0.0282(8) 0.0219(8) -0.0085(8)
C11 0.0333(10) 0.0433(12) 0.0457(13) -0.0051(10) 0.0060(10) 0.0014(9)
C12 0.0434(12) 0.0784(16) 0.0710(16) -0.0329(13) 0.0137(12) 0.0061(12)
C13 0.0473(14) 0.1092(19) 0.0855(18) -0.0593(15) 0.0076(14) -0.0092(14)
C14 0.0329(11) 0.0818(17) 0.0830(18) -0.0369(14) 0.0039(12) -0.0104(12)
C15 0.0299(9) 0.0417(11) 0.0527(13) -0.0004(10) 0.0076(10) -0.0017(9)
C16 0.0352(9) 0.0474(12) 0.0308(11) -0.0021(9) 0.0078(9) -0.0062(9)
C17 0.0338(10) 0.0574(13) 0.0458(13) 0.0014(11) 0.0093(10) 0.0002(10)
C18 0.0368(10) 0.0470(12) 0.0464(13) 0.0012(10) 0.0173(10) -0.0029(9)
N21 0.0410(9) 0.0506(10) 0.0353(9) -0.0032(8) 0.0097(8) 0.0008(8)
N22 0.0448(9) 0.0499(10) 0.0479(11) -0.0086(9) 0.0088(9) -0.0038(9)
C20 0.0463(12) 0.0517(13) 0.0405(13) -0.0033(11) 0.0027(11) -0.0009(11)
C21 0.0495(12) 0.0512(13) 0.0397(12) -0.0048(10) 0.0111(11) 0.0034(11)
C22 0.0456(11) 0.0416(12) 0.0373(12) 0.0005(10) 0.0035(10) -0.0008(10)
C23 0.0434(12) 0.0674(15) 0.0481(14) -0.0183(12) 0.0064(11) -0.0062(11)
C24 0.0369(11) 0.0799(17) 0.0536(15) -0.0174(13) 0.0057(11) -0.0018(12)
C25 0.0425(14) 0.169(3) 0.092(2) -0.0709(19) 0.0162(15) -0.0172(17)
C26 0.0497(14) 0.130(2) 0.102(2) -0.0714(17) 0.0163(15) -0.0048(16)
C27 0.0584(16) 0.148(2) 0.086(2) -0.0711(18) -0.0201(16) 0.0311(17)
C28 0.0550(16) 0.174(3) 0.104(2) -0.083(2) -0.0149(17) 0.0372(18)
C29 0.0501(12) 0.0503(13) 0.0380(13) -0.0037(10) 0.0102(11) -0.0029(11)
O1W 0.0550(9) 0.0669(10) 0.0513(10) 0.0095(8) 0.0035(8) -0.0115(8)
O2W 0.126(3) 0.080(2) 0.069(2) -0.025(2) 0.002(2) 0.056(2)
O3W 0.126(3) 0.129(3) 0.0195(16) -0.0099(19) 0.0215(19) -0.045(3)

_geom_special_details            
;
All esds (except the esd in the dihedral angle between two l.s. planes)
are estimated using the full covariance matrix.  The cell esds are taken
into account individually in the estimation of esds in distances, angles
and torsion angles; correlations between esds in cell parameters are only
used when they are defined by crystal symmetry.  An approximate (isotropic)
treatment of cell esds is used for estimating esds involving l.s. planes.
;

loop_
_geom_bond_atom_site_label_1
_geom_bond_atom_site_label_2
_geom_bond_distance
_geom_bond_site_symmetry_2
_geom_bond_publ_flag
Zn1 O13 1.9426(17) 1_455 ?
Zn1 O11 1.9679(15) . ?
Zn1 N21 2.0634(19) . ?
Zn1 O1W 2.1881(18) . ?
Zn1 N22 2.272(2) 2_554 ?
O11 C17 1.274(3) . ?
O12 C17 1.229(3) . ?
O13 C18 1.257(3) . ?
O13 Zn1 1.9426(17) 1_655 ?
O14 C18 1.234(3) . ?
C11 C12 1.363(3) . ?
C11 C16 1.390(3) . ?
C11 C17 1.497(3) . ?
C12 C13 1.382(4) . ?
C13 C14 1.365(4) . ?
C14 C15 1.374(4) . ?
C15 C16 1.400(3) . ?
C15 C18 1.497(3) . ?
N21 C24 1.333(3) . ?
N21 C20 1.345(3) . ?
N22 C26 1.292(3) . ?
N22 C27 1.292(4) . ?
N22 Zn1 2.272(2) 2_544 ?
C20 C21 1.399(3) . ?
C21 C22 1.379(3) . ?
C22 C23 1.382(3) . ?
C22 C29 1.487(3) . ?
C23 C24 1.365(4) . ?
C25 C29 1.350(4) . ?
C25 C26 1.385(5) . ?
C27 C28 1.371(5) . ?
C28 C29 1.358(4) . ?

loop_
_geom_angle_atom_site_label_1
_geom_angle_atom_site_label_2
_geom_angle_atom_site_label_3
_geom_angle
_geom_angle_site_symmetry_1
_geom_angle_site_symmetry_3
_geom_angle_publ_flag
O13 Zn1 O11 125.20(7) 1_455 . ?
O13 Zn1 N21 132.08(7) 1_455 . ?
O11 Zn1 N21 102.67(7) . . ?
O13 Zn1 O1W 93.42(7) 1_455 . ?
O11 Zn1 O1W 91.93(6) . . ?
N21 Zn1 O1W 86.38(7) . . ?
O13 Zn1 N22 91.31(7) 1_455 2_554 ?
O11 Zn1 N22 90.55(7) . 2_554 ?
N21 Zn1 N22 85.71(8) . 2_554 ?
O1W Zn1 N22 172.05(7) . 2_554 ?
C17 O11 Zn1 118.91(14) . . ?
C18 O13 Zn1 121.88(16) . 1_655 ?
C12 C11 C16 119.8(2) . . ?
C12 C11 C17 119.9(2) . . ?
C16 C11 C17 120.3(2) . . ?
C11 C12 C13 120.0(3) . . ?
C12 C13 C14 120.5(3) . . ?
C15 C14 C13 120.8(2) . . ?
C14 C15 C16 118.6(2) . . ?
C14 C15 C18 120.38(19) . . ?
C16 C15 C18 121.0(2) . . ?
C11 C16 C15 120.2(2) . . ?
O12 C17 O11 123.0(2) . . ?
O12 C17 C11 120.3(2) . . ?
O11 C17 C11 116.7(2) . . ?
O14 C18 O13 123.6(2) . . ?
O14 C18 C15 121.15(19) . . ?
O13 C18 C15 115.2(2) . . ?
C24 N21 C20 116.6(2) . . ?
C24 N21 Zn1 123.43(16) . . ?
C20 N21 Zn1 119.71(14) . . ?
C26 N22 C27 115.1(2) . . ?
C26 N22 Zn1 121.77(19) . 2_544 ?
C27 N22 Zn1 122.07(18) . 2_544 ?
N21 C20 C21 122.9(2) . . ?
C22 C21 C20 119.4(2) . . ?
C21 C22 C23 117.0(2) . . ?
C21 C22 C29 121.5(2) . . ?
C23 C22 C29 121.5(2) . . ?
C24 C23 C22 120.5(2) . . ?
N21 C24 C23 123.6(2) . . ?
C29 C25 C26 120.3(3) . . ?
N22 C26 C25 124.7(3) . . ?
N22 C27 C28 124.2(3) . . ?
C29 C28 C27 121.3(3) . . ?
C25 C29 C28 114.4(3) . . ?
C25 C29 C22 123.4(2) . . ?
C28 C29 C22 122.1(2) . . ?

_diffrn_measured_fraction_theta_max 0.974
_diffrn_reflns_theta_full        25.03
_diffrn_measured_fraction_theta_full 0.974
_refine_diff_density_max         0.876
_refine_diff_density_min         -0.378
_refine_diff_density_rms         0.096
