####################################################################### 
# 
# This file contains crystal structure data downloaded from the 
# Cambridge Structural Database (CSD) hosted by the Cambridge 
# Crystallographic Data Centre (CCDC).
# 
# Full information about CCDC data access policies and citation 
# guidelines are available at http://www.ccdc.cam.ac.uk/access/V1 
# 
# Audit and citation data items may have been added by the CCDC. 
# Please retain this information to preserve the provenance of 
# this file and to allow appropriate attribution of the data. 
# 
#######################################################################

data_mskb002b
_audit_block_doi                 10.5517/cc8hf5b
_database_code_depnum_ccdc_archive 'CCDC 253151'
loop_
_citation_id
_citation_doi
_citation_year
1 10.1039/b500666j 2005
_audit_update_record             
;
2004-10-18 deposited with the CCDC.	2024-07-13 downloaded from the CCDC.
;

_audit_creation_method           SHELXL-97
_chemical_name_systematic        
;
?
;
_chemical_name_common            ?
_chemical_melting_point          ?
_chemical_formula_moiety         ?
_chemical_formula_sum            'C31 H31 Cl9 Cu2 I2 N8 O4'
_chemical_formula_weight         1279.57

loop_
_atom_type_symbol
_atom_type_description
_atom_type_scat_dispersion_real
_atom_type_scat_dispersion_imag
_atom_type_scat_source
C C 0.0033 0.0016 'International Tables Vol C Tables 4.2.6.8 and 6.1.1.4'
H H 0.0000 0.0000 'International Tables Vol C Tables 4.2.6.8 and 6.1.1.4'
N N 0.0061 0.0033 'International Tables Vol C Tables 4.2.6.8 and 6.1.1.4'
O O 0.0106 0.0060 'International Tables Vol C Tables 4.2.6.8 and 6.1.1.4'
Cu Cu 0.3201 1.2651 'International Tables Vol C Tables 4.2.6.8 and 6.1.1.4'
I I -0.4742 1.8119 'International Tables Vol C Tables 4.2.6.8 and 6.1.1.4'
Cl Cl 0.1484 0.1585 'International Tables Vol C Tables 4.2.6.8 and 6.1.1.4'

_symmetry_cell_setting           Monoclinic
_symmetry_space_group_name_H-M   C2/m

loop_
_symmetry_equiv_pos_as_xyz
'x, y, z'
'-x, y, -z'
'x+1/2, y+1/2, z'
'-x+1/2, y+1/2, -z'
'-x, -y, -z'
'x, -y, z'
'-x+1/2, -y+1/2, -z'
'x+1/2, -y+1/2, z'

_cell_length_a                   9.6490(19)
_cell_length_b                   15.559(3)
_cell_length_c                   15.163(3)
_cell_angle_alpha                90.00
_cell_angle_beta                 91.96(3)
_cell_angle_gamma                90.00
_cell_volume                     2275.1(8)
_cell_formula_units_Z            2
_cell_measurement_temperature    293(2)
_cell_measurement_reflns_used    25
_cell_measurement_theta_min      8
_cell_measurement_theta_max      14

_exptl_crystal_description       'Diamond shape'
_exptl_crystal_colour            'bright yellow'
_exptl_crystal_size_max          0.15
_exptl_crystal_size_mid          0.10
_exptl_crystal_size_min          0.10
_exptl_crystal_density_meas      'not measured'
_exptl_crystal_density_diffrn    1.868
_exptl_crystal_density_method    'not measured'
_exptl_crystal_F_000             1244
_exptl_absorpt_coefficient_mu    2.864
_exptl_absorpt_correction_type   none
_exptl_absorpt_correction_T_min  ?
_exptl_absorpt_correction_T_max  ?
_exptl_absorpt_process_details   ?

_exptl_special_details           
;
?
;

_diffrn_ambient_temperature      293(2)
_diffrn_radiation_wavelength     0.71073
_diffrn_radiation_type           MoK\a
_diffrn_radiation_source         'fine-focus sealed tube'
_diffrn_radiation_monochromator  graphite
_diffrn_measurement_device_type  CAD4-MACH3
_diffrn_measurement_method       /w-scans
_diffrn_detector_area_resol_mean ?
_diffrn_standards_number         3
_diffrn_standards_interval_count ?
_diffrn_standards_interval_time  60
_diffrn_standards_decay_%        ?
_diffrn_reflns_number            2064
_diffrn_reflns_av_R_equivalents  0.0353
_diffrn_reflns_av_sigmaI/netI    0.0582
_diffrn_reflns_limit_h_min       0
_diffrn_reflns_limit_h_max       11
_diffrn_reflns_limit_k_min       0
_diffrn_reflns_limit_k_max       18
_diffrn_reflns_limit_l_min       -18
_diffrn_reflns_limit_l_max       18
_diffrn_reflns_theta_min         1.34
_diffrn_reflns_theta_max         24.97
_reflns_number_total             1933
_reflns_number_gt                1366
_reflns_threshold_expression     >2sigma(I)

_computing_data_collection       CAD4
_computing_cell_refinement       CAD4
_computing_data_reduction        CAD4
_computing_structure_solution    'SHELXS-97 (Sheldrick, 1990)'
_computing_structure_refinement  'SHELXL-97 (Sheldrick, 1997)'
_computing_molecular_graphics    ?
_computing_publication_material  ?

_refine_special_details          
;
Refinement of F^2^ against ALL reflections. The weighted R-factor wR and
goodness of fit S are based on F^2^, conventional R-factors R are based
on F, with F set to zero for negative F^2^. The threshold expression of
F^2^ > 2sigma(F^2^) is used only for calculating R-factors(gt) etc. and is
not relevant to the choice of reflections for refinement. R-factors based
on F^2^ are statistically about twice as large as those based on F, and R-
factors based on ALL data will be even larger.
;

_refine_ls_structure_factor_coef Fsqd
_refine_ls_matrix_type           full
_refine_ls_weighting_scheme      calc
_refine_ls_weighting_details     
'calc w=1/[\s^2^(Fo^2^)+(0.1053P)^2^+3.7223P] where P=(Fo^2^+2Fc^2^)/3'
_atom_sites_solution_primary     direct
_atom_sites_solution_secondary   difmap
_atom_sites_solution_hydrogens   geom
_refine_ls_hydrogen_treatment    mixed
_refine_ls_extinction_method     none
_refine_ls_extinction_coef       ?
_refine_ls_number_reflns         1933
_refine_ls_number_parameters     103
_refine_ls_number_restraints     0
_refine_ls_R_factor_all          0.0666
_refine_ls_R_factor_gt           0.0485
_refine_ls_wR_factor_ref         0.1467
_refine_ls_wR_factor_gt          0.1277
_refine_ls_goodness_of_fit_ref   0.848
_refine_ls_restrained_S_all      0.848
_refine_ls_shift/su_max          0.000
_refine_ls_shift/su_mean         0.000

loop_
_atom_site_label
_atom_site_type_symbol
_atom_site_fract_x
_atom_site_fract_y
_atom_site_fract_z
_atom_site_U_iso_or_equiv
_atom_site_adp_type
_atom_site_occupancy
_atom_site_symmetry_multiplicity
_atom_site_calc_flag
_atom_site_refinement_flags
_atom_site_disorder_assembly
_atom_site_disorder_group
I1 I 0.84273(7) -0.5000 -0.11329(4) 0.0629(3) Uani 1 2 d S . .
Cu1 Cu 0.89375(13) -0.5000 0.05677(7) 0.0611(4) Uani 1 2 d S . .
O1 O 0.9502(4) -0.2973(4) 0.3531(3) 0.0682(13) Uani 1 1 d . . .
N1 N 0.8065(6) -0.3910(3) 0.1118(3) 0.0572(13) Uani 1 1 d . . .
N2 N 0.7437(5) -0.2383(4) 0.3780(3) 0.0578(13) Uani 1 1 d . . .
H2 H 0.6631 -0.2259 0.3557 0.069 Uiso 1 1 calc R . .
C1 C 0.7832(6) -0.2961(4) 0.2345(4) 0.0475(13) Uani 1 1 d . . .
C2 C 0.8443(7) -0.3659(4) 0.1927(4) 0.0519(14) Uani 1 1 d . . .
H2A H 0.9145 -0.3960 0.2228 0.062 Uiso 1 1 calc R . .
C3 C 0.7083(8) -0.3437(5) 0.0681(4) 0.071(2) Uani 1 1 d . . .
H3 H 0.6814 -0.3592 0.0109 0.085 Uiso 1 1 calc R . .
C4 C 0.6476(9) -0.2738(6) 0.1054(4) 0.088(3) Uani 1 1 d . . .
H4 H 0.5792 -0.2434 0.0739 0.106 Uiso 1 1 calc R . .
C5 C 0.6870(7) -0.2482(5) 0.1888(4) 0.0637(17) Uani 1 1 d . . .
H5 H 0.6490 -0.1994 0.2137 0.076 Uiso 1 1 calc R . .
C6 C 0.8354(5) -0.2767(4) 0.3282(3) 0.0453(13) Uani 1 1 d . . .
C7 C 0.7765(7) -0.2167(5) 0.4699(4) 0.0618(17) Uani 1 1 d . . .
H7A H 0.7354 -0.1616 0.4837 0.074 Uiso 1 1 calc . . .
H7B H 0.8762 -0.2116 0.4788 0.074 Uiso 1 1 calc . . .

loop_
_atom_site_aniso_label
_atom_site_aniso_U_11
_atom_site_aniso_U_22
_atom_site_aniso_U_33
_atom_site_aniso_U_23
_atom_site_aniso_U_13
_atom_site_aniso_U_12
I1 0.0867(5) 0.0582(4) 0.0431(4) 0.000 -0.0097(3) 0.000
Cu1 0.0923(9) 0.0449(6) 0.0459(6) 0.000 -0.0015(6) 0.000
O1 0.050(2) 0.088(4) 0.066(3) -0.009(3) -0.014(2) 0.007(2)
N1 0.080(4) 0.048(3) 0.044(3) -0.010(2) 0.002(2) 0.002(3)
N2 0.054(3) 0.073(4) 0.046(3) -0.012(2) -0.007(2) 0.009(3)
C1 0.055(3) 0.046(3) 0.042(3) -0.002(2) 0.009(2) 0.001(3)
C2 0.067(4) 0.049(3) 0.040(3) 0.005(3) 0.003(3) 0.004(3)
C3 0.112(6) 0.061(4) 0.038(3) -0.004(3) -0.012(3) 0.031(4)
C4 0.122(7) 0.096(6) 0.045(4) -0.006(4) -0.018(4) 0.060(5)
C5 0.077(4) 0.065(4) 0.049(3) -0.005(3) -0.007(3) 0.028(4)
C6 0.038(3) 0.057(3) 0.041(3) 0.000(3) 0.001(2) -0.007(3)
C7 0.068(4) 0.066(4) 0.051(4) -0.020(3) -0.005(3) -0.003(3)

_geom_special_details            
;
All esds (except the esd in the dihedral angle between two l.s. planes)
are estimated using the full covariance matrix. The cell esds are taken
into account individually in the estimation of esds in distances, angles
and torsion angles; correlations between esds in cell parameters are only
used when they are defined by crystal symmetry. An approximate (isotropic)
treatment of cell esds is used for estimating esds involving l.s. planes.
;

loop_
_geom_bond_atom_site_label_1
_geom_bond_atom_site_label_2
_geom_bond_distance
_geom_bond_site_symmetry_2
_geom_bond_publ_flag
I1 Cu1 2.6085(13) . ?
I1 Cu1 2.6554(15) 5_745 ?
Cu1 N1 2.081(5) 6_545 ?
Cu1 N1 2.081(5) . ?
Cu1 I1 2.6554(15) 5_745 ?
Cu1 Cu1 2.722(3) 5_745 ?
O1 C6 1.202(7) . ?
N1 C2 1.326(7) . ?
N1 C3 1.355(8) . ?
N2 C6 1.326(7) . ?
N2 C7 1.458(8) . ?
C1 C5 1.361(8) . ?
C1 C2 1.399(8) . ?
C1 C6 1.521(8) . ?
C3 C4 1.367(10) . ?
C4 C5 1.367(9) . ?
C7 C7 1.483(15) 7_646 ?

loop_
_geom_angle_atom_site_label_1
_geom_angle_atom_site_label_2
_geom_angle_atom_site_label_3
_geom_angle
_geom_angle_site_symmetry_1
_geom_angle_site_symmetry_3
_geom_angle_publ_flag
Cu1 I1 Cu1 62.27(5) . 5_745 ?
N1 Cu1 N1 109.2(3) 6_545 . ?
N1 Cu1 I1 109.36(14) 6_545 . ?
N1 Cu1 I1 109.36(14) . . ?
N1 Cu1 I1 105.47(15) 6_545 5_745 ?
N1 Cu1 I1 105.47(15) . 5_745 ?
I1 Cu1 I1 117.73(5) . 5_745 ?
N1 Cu1 Cu1 125.29(15) 6_545 5_745 ?
N1 Cu1 Cu1 125.29(15) . 5_745 ?
I1 Cu1 Cu1 59.71(5) . 5_745 ?
I1 Cu1 Cu1 58.02(5) 5_745 5_745 ?
C2 N1 C3 117.2(5) . . ?
C2 N1 Cu1 120.6(4) . . ?
C3 N1 Cu1 122.2(4) . . ?
C6 N2 C7 121.4(5) . . ?
C5 C1 C2 119.0(6) . . ?
C5 C1 C6 124.5(5) . . ?
C2 C1 C6 116.5(5) . . ?
N1 C2 C1 122.8(6) . . ?
N1 C3 C4 122.2(6) . . ?
C3 C4 C5 120.3(6) . . ?
C1 C5 C4 118.4(6) . . ?
O1 C6 N2 124.6(5) . . ?
O1 C6 C1 120.9(5) . . ?
N2 C6 C1 114.5(5) . . ?
N2 C7 C7 111.0(6) . 7_646 ?

_diffrn_measured_fraction_theta_max 0.928
_diffrn_reflns_theta_full        24.97
_diffrn_measured_fraction_theta_full 0.928
_refine_diff_density_max         0.793
_refine_diff_density_min         -0.747
_refine_diff_density_rms         0.105
