
#######################################################################
#
#                 Cambridge Crystallographic Data Centre
#                                CCDC
#
#######################################################################
#
# If this CIF has been generated from an entry in the Cambridge
# Structural Database, then it will include bibliographic, chemical,
# crystal, experimental, refinement or atomic coordinate data resulting
# from the CCDC's data processing and validation procedures.
#
#######################################################################

data_CSD_CIF_WARFAR10
_audit_creation_date 1975-08-29
_audit_creation_method CSD-ConQuest-V1
_database_code_CSD WARFAR10
_database_code_depnum_ccdc_archive 'CCDC 1290275'
_chemical_formula_sum 'C19 H16 O4'
_chemical_formula_moiety
;
C19 H16 O4
;
_journal_coeditor_code "IUCr A12066"
_journal_coden_Cambridge 107
_journal_volume 31
_journal_year 1975
_journal_page_first 954
_journal_name_full 'Acta Crystallogr.,Sect.B:Struct.Crystallogr.Cryst.Chem. '
loop_
_publ_author_name
"E.J.Valente"
"W.F.Trager"
"L.H.Jensen"
_chemical_name_systematic
;
(-)-(S)-Warfarin
;
_chemical_name_common
;
Teaching Subset: Fundamental Chemistry, Drug Molecules
;
_chemical_melting_point 446
_cell_volume   1550.750
_exptl_crystal_density_diffrn 1.33
_exptl_special_details
;
Absolute configuration
stereoisomer of anticoagulant and rodenticidal agent

;
_diffrn_ambient_temperature ?
_diffrn_special_details
;
The study was carried out at room temperature,in the range 283-303K

;
#These two values have been output from a single CSD field.
_refine_ls_R_factor_gt 0.053
_refine_ls_wR_factor_gt 0.053
loop_
_citation_database_id_CSD
_citation_special_details
BEFZES "is a racemate of this entry"
_symmetry_cell_setting orthorhombic
_symmetry_space_group_name_H-M 'P 21 21 21'
_symmetry_Int_Tables_number 19
loop_
_symmetry_equiv_pos_site_id
_symmetry_equiv_pos_as_xyz
1 x,y,z
2 1/2+x,1/2-y,-z
3 -x,1/2+y,1/2-z
4 1/2-x,-y,1/2+z
_cell_length_a 10.883(3)
_cell_length_b 9.562(3)
_cell_length_c 14.902(5)
_cell_angle_alpha 90
_cell_angle_beta 90
_cell_angle_gamma 90
_cell_formula_units_Z 4
loop_
_atom_type_symbol
_atom_type_radius_bond
C 0.68
H 0.23
O 0.68
loop_
_atom_site_label
_atom_site_type_symbol
_atom_site_fract_x
_atom_site_fract_y
_atom_site_fract_z
C1 C 0.23126 0.28103 -0.34544
C2 C 0.02059 -0.03990 -0.37456
C3 C -0.08128 0.05106 -0.41553
C4 C -0.09705 0.18753 -0.36673
C5 C -0.19183 0.28317 -0.40767
C6 C 0.04879 -0.15763 -0.44013
C7 C 0.12586 -0.13841 -0.51310
C8 C 0.14023 -0.24248 -0.57735
C9 C 0.07823 -0.36525 -0.56981
C10 C 0.00417 -0.38667 -0.49791
C11 C 0.24196 -0.01146 -0.32432
C12 C -0.01017 -0.28467 -0.43272
C13 C 0.12959 0.05307 -0.35398
C14 C 0.12311 0.19406 -0.35816
C15 C 0.23296 0.42671 -0.35321
C16 C 0.34204 0.49960 -0.34337
C17 C 0.44944 0.42825 -0.32523
C18 C 0.44997 0.28544 -0.31603
C19 C 0.34098 0.21302 -0.32714
H1 H -0.00610 -0.07730 -0.31870
H2 H -0.16170 -0.00140 -0.42060
H3 H -0.06120 0.06920 -0.47980
H4 H -0.16820 0.30120 -0.47370
H5 H -0.19250 0.37150 -0.37380
H6 H -0.26970 0.23910 -0.39730
H7 H 0.17310 -0.04820 -0.51850
H8 H 0.19550 -0.22290 -0.63340
H9 H 0.09040 -0.44430 -0.61510
H10 H -0.03660 -0.47380 -0.51450
H11 H -0.05850 -0.29720 -0.38400
H12 H -0.15190 0.24210 -0.25620
H13 H 0.15960 0.47290 -0.36440
H14 H 0.33520 0.60500 -0.35030
H15 H 0.52310 0.48500 -0.31920
H16 H 0.52090 0.23300 -0.30270
O1 O 0.34532 0.07017 -0.31554
O2 O 0.25520 -0.13441 -0.30565
O3 O -0.11704 0.15937 -0.27673
O4 O 0.01932 0.26738 -0.37447
#END
