####################################################################### 
# 
# This file contains crystal structure data downloaded from the 
# Cambridge Structural Database (CSD) hosted by the Cambridge 
# Crystallographic Data Centre (CCDC).
# 
# Full information about CCDC data access policies and citation 
# guidelines are available at http://www.ccdc.cam.ac.uk/access/V1 
# 
# Audit and citation data items may have been added by the CCDC. 
# Please retain this information to preserve the provenance of 
# this file and to allow appropriate attribution of the data. 
# 
#######################################################################

data_V003sq
_audit_block_doi                 10.5517/ccx5ds7
_database_code_depnum_ccdc_archive 'CCDC 839349'
loop_
_citation_id
_citation_doi
_citation_year
1 10.1002/anie.201106732 2012
_audit_update_record             
;
2011-08-15 deposited with the CCDC.	2024-07-13 downloaded from the CCDC.
;

_audit_creation_method           SHELXL-97
_chemical_name_systematic        
;
?
;
_chemical_name_common            '[Co24Cl6(C40H44S4O4)6(C27H15O6)8]'
_chemical_melting_point          ?
_chemical_formula_moiety         ?
_chemical_formula_sum            'C456 H384 Cl6 Co24 O72 S24'
# Excluding the disordered counter cations and solvents
_chemical_formula_weight         9412.09

loop_
_atom_type_symbol
_atom_type_description
_atom_type_scat_dispersion_real
_atom_type_scat_dispersion_imag
_atom_type_scat_source
C C 0.0033 0.0016 'International Tables Vol C Tables 4.2.6.8 and 6.1.1.4'
H H 0.0000 0.0000 'International Tables Vol C Tables 4.2.6.8 and 6.1.1.4'
O O 0.0106 0.0060 'International Tables Vol C Tables 4.2.6.8 and 6.1.1.4'
S S 0.1246 0.1234 'International Tables Vol C Tables 4.2.6.8 and 6.1.1.4'
Cl Cl 0.1484 0.1585 'International Tables Vol C Tables 4.2.6.8 and 6.1.1.4'
Co Co 0.3494 0.9721 'International Tables Vol C Tables 4.2.6.8 and 6.1.1.4'

_symmetry_cell_setting           triclinic
_symmetry_space_group_name_H-M   'P -1'

loop_
_symmetry_equiv_pos_as_xyz
'x, y, z'
'-x, -y, -z'

_cell_length_a                   29.824(14)
_cell_length_b                   30.844(14)
_cell_length_c                   31.527(15)
_cell_angle_alpha                82.778(6)
_cell_angle_beta                 73.302(5)
_cell_angle_gamma                62.189(6)
_cell_volume                     24569(20)
_cell_formula_units_Z            1
_cell_measurement_temperature    120(2)
_cell_measurement_reflns_used    9929
_cell_measurement_theta_min      2.15
_cell_measurement_theta_max      18.65

_exptl_crystal_description       block
_exptl_crystal_colour            purple
_exptl_crystal_size_max          0.43
_exptl_crystal_size_mid          0.28
_exptl_crystal_size_min          0.27
_exptl_crystal_density_meas      ?
_exptl_crystal_density_diffrn    0.636
# Based on the molecular formula without the disordered
# counter cations and solvents
_exptl_crystal_density_method    'not measured'
_exptl_crystal_F_000             4830
_exptl_absorpt_coefficient_mu    0.492
_exptl_absorpt_correction_type   multi-scan
_exptl_absorpt_correction_T_min  0.8163
_exptl_absorpt_correction_T_max  0.8786
_exptl_absorpt_process_details   SADABS

_exptl_special_details           
;
?
;

_diffrn_ambient_temperature      120(2)
_diffrn_radiation_wavelength     0.71073
_diffrn_radiation_type           MoK\a
_diffrn_radiation_source         'fine-focus sealed tube'
_diffrn_radiation_monochromator  graphite
_diffrn_measurement_device_type  'Bruker APEX CCD'
_diffrn_measurement_method       '\w scans'
_diffrn_detector_area_resol_mean ?
_diffrn_reflns_number            131659
_diffrn_reflns_av_R_equivalents  0.1319
_diffrn_reflns_av_sigmaI/netI    0.2690
_diffrn_reflns_limit_h_min       -26
_diffrn_reflns_limit_h_max       26
_diffrn_reflns_limit_k_min       -27
_diffrn_reflns_limit_k_max       27
_diffrn_reflns_limit_l_min       -28
_diffrn_reflns_limit_l_max       28
_diffrn_reflns_theta_min         1.49
_diffrn_reflns_theta_max         18.80
_reflns_number_total             36735
_reflns_number_gt                12819
_reflns_threshold_expression     >2sigma(I)

_computing_data_collection       'Bruker SMART'
_computing_cell_refinement       'Bruker SAINT'
_computing_data_reduction        'Bruker SAINT'
_computing_structure_solution    'SHELXS-97 (Sheldrick, 2008)'
_computing_structure_refinement  'SHELXL-97 (Sheldrick, 2008)'
_computing_molecular_graphics    'Bruker SHELXTL'
_computing_publication_material  'Bruker SHELXTL'

_refine_special_details          
;
Refinement of F^2^ against ALL reflections. The weighted R-factor wR and
goodness of fit S are based on F^2^, conventional R-factors R are based
on F, with F set to zero for negative F^2^. The threshold expression of
F^2^ > 2sigma(F^2^) is used only for calculating R-factors(gt) etc. and is
not relevant to the choice of reflections for refinement. R-factors based
on F^2^ are statistically about twice as large as those based on F, and R-
factors based on ALL data will be even larger.
;

_refine_ls_structure_factor_coef Fsqd
_refine_ls_matrix_type           full
_refine_ls_weighting_scheme      calc
_refine_ls_weighting_details     
'calc w=1/[\s^2^(Fo^2^)+(0.0600P)^2^+0.0000P] where P=(Fo^2^+2Fc^2^)/3'
_atom_sites_solution_primary     direct
_atom_sites_solution_secondary   difmap
_atom_sites_solution_hydrogens   geom
_refine_ls_hydrogen_treatment    constr
_refine_ls_extinction_method     none
_refine_ls_extinction_coef       ?
_refine_ls_number_reflns         36735
_refine_ls_number_parameters     1218
_refine_ls_number_restraints     740
_refine_ls_R_factor_all          0.2000
_refine_ls_R_factor_gt           0.1266
_refine_ls_wR_factor_ref         0.2816
_refine_ls_wR_factor_gt          0.2629
_refine_ls_goodness_of_fit_ref   1.050
_refine_ls_restrained_S_all      1.074
_refine_ls_shift/su_max          0.001
_refine_ls_shift/su_mean         0.000

# SQUEEZE RESULTS (APPEND TO CIF)
# Note: Data are Listed for all Voids in the P1 Unit Cell
# i.e. Centre of Gravity, Solvent Accessible Volume,
# Recovered number of Electrons in the Void and
# Details about the Squeezed Material
loop_
_platon_squeeze_void_nr
_platon_squeeze_void_average_x
_platon_squeeze_void_average_y
_platon_squeeze_void_average_z
_platon_squeeze_void_volume
_platon_squeeze_void_count_electrons
_platon_squeeze_void_content
1 0.003 -0.007 -0.004 16439 5677 ' '
_platon_squeeze_details          
;
R factors based on the data before applying the PLATON/SQUEEZE:
_refine_ls_R_factor_all 0.4073
_refine_ls_R_factor_gt 0.3112
_refine_ls_wR_factor_ref 0.6883
_refine_ls_wR_factor_gt 0.6490
;

loop_
_atom_site_label
_atom_site_type_symbol
_atom_site_fract_x
_atom_site_fract_y
_atom_site_fract_z
_atom_site_U_iso_or_equiv
_atom_site_adp_type
_atom_site_occupancy
_atom_site_symmetry_multiplicity
_atom_site_calc_flag
_atom_site_refinement_flags
_atom_site_disorder_assembly
_atom_site_disorder_group
Co1 Co -0.23083(9) 0.05288(9) 0.18121(8) 0.0773(8) Uani 1 1 d U . .
Co2 Co -0.17262(9) -0.06660(9) 0.17897(8) 0.0800(9) Uani 1 1 d U . .
Co3 Co -0.26934(9) -0.06574(9) 0.26106(8) 0.0742(8) Uani 1 1 d U . .
Co4 Co -0.32794(9) 0.05266(9) 0.26348(8) 0.0706(8) Uani 1 1 d U . .
Co5 Co 0.18363(9) 0.27896(9) 0.22506(8) 0.0752(8) Uani 1 1 d . . .
Co6 Co 0.06163(9) 0.33613(9) 0.21834(8) 0.0765(8) Uani 1 1 d . . .
Co7 Co 0.02631(10) 0.39753(9) 0.30910(9) 0.0860(9) Uani 1 1 d . . .
Co8 Co 0.14781(9) 0.34048(9) 0.31603(8) 0.0754(8) Uani 1 1 d . . .
Co9 Co 0.39502(9) -0.34108(9) 0.21270(8) 0.0774(9) Uani 1 1 d . . .
Co10 Co 0.45814(9) -0.28019(9) 0.21916(7) 0.0717(8) Uani 1 1 d . . .
Co11 Co 0.48095(9) -0.33867(9) 0.30987(8) 0.0766(8) Uani 1 1 d . . .
Co12 Co 0.41807(10) -0.39848(9) 0.30286(8) 0.0830(9) Uani 1 1 d . . .
Cl1 Cl -0.22603(16) -0.00571(15) 0.25095(14) 0.0660(14) Uani 1 1 d U . .
Cl2 Cl 0.09564(16) 0.30257(15) 0.28933(14) 0.0711(14) Uani 1 1 d U . .
Cl3 Cl 0.39459(17) -0.30429(15) 0.28427(14) 0.0748(15) Uani 1 1 d U . .
S1 S -0.2556(2) 0.09509(18) 0.10934(17) 0.0925(17) Uani 1 1 d U . .
S2 S -0.1574(2) -0.10847(18) 0.10493(17) 0.0934(18) Uani 1 1 d U . .
S3 S -0.32069(19) -0.10826(18) 0.24640(16) 0.0863(17) Uani 1 1 d U . .
S4 S -0.42120(18) 0.09526(17) 0.24873(15) 0.0762(15) Uani 1 1 d U . .
S5 S 0.25266(17) 0.29278(18) 0.15928(14) 0.0782(16) Uani 1 1 d . . .
S6 S 0.0457(2) 0.38635(19) 0.14803(18) 0.0981(18) Uani 1 1 d U . .
S7 S -0.0143(2) 0.4929(2) 0.30111(19) 0.110(2) Uani 1 1 d U . .
S8 S 0.19176(19) 0.39663(17) 0.31421(16) 0.0840(17) Uani 1 1 d . . .
S9 S 0.4299(2) -0.39514(18) 0.14155(17) 0.0931(18) Uani 1 1 d . . .
S10 S 0.54080(18) -0.29493(19) 0.15259(15) 0.0878(17) Uani 1 1 d . . .
S11 S 0.57982(19) -0.39237(17) 0.30829(15) 0.0806(16) Uani 1 1 d . . .
S12 S 0.4717(2) -0.49351(19) 0.29498(18) 0.0986(18) Uani 1 1 d U . .
O1 O -0.2083(4) -0.0068(4) 0.1511(4) 0.083(4) Uani 1 1 d U . .
O2 O -0.2376(4) -0.0777(3) 0.1963(3) 0.061(3) Uani 1 1 d U . .
O3 O -0.3254(4) -0.0094(3) 0.2497(3) 0.074(3) Uani 1 1 d U . .
O4 O -0.3087(4) 0.0640(3) 0.2007(3) 0.060(3) Uani 1 1 d U . .
O5 O 0.1349(4) 0.3287(4) 0.1918(4) 0.088(3) Uani 1 1 d U . .
O6 O 0.0375(4) 0.3998(4) 0.2445(4) 0.088(3) Uani 1 1 d . . .
O7 O 0.0908(4) 0.4026(4) 0.3069(3) 0.078(4) Uani 1 1 d . . .
O8 O 0.1825(4) 0.3338(3) 0.2541(3) 0.070(3) Uani 1 1 d U . .
O9 O 0.4614(4) -0.3363(4) 0.1882(3) 0.077(4) Uani 1 1 d U . .
O10 O 0.5116(4) -0.3285(4) 0.2486(3) 0.078(4) Uani 1 1 d U . .
O11 O 0.4890(4) -0.4058(4) 0.2969(3) 0.076(3) Uani 1 1 d U . .
O12 O 0.4333(4) -0.4065(4) 0.2353(4) 0.085(4) Uani 1 1 d . . .
O13 O -0.1536(4) 0.0351(4) 0.1718(3) 0.081(4) Uani 1 1 d U . .
O14 O -0.1115(4) -0.0497(4) 0.1697(4) 0.086(4) Uani 1 1 d U . .
O15 O 0.1745(4) 0.2248(4) 0.2008(3) 0.080(4) Uani 1 1 d U . .
O16 O 0.0870(4) 0.2664(4) 0.1973(4) 0.084(4) Uani 1 1 d U . .
O17 O 0.3530(4) -0.2766(4) 0.1916(3) 0.079(4) Uani 1 1 d U . .
O18 O 0.3985(4) -0.2300(3) 0.1955(3) 0.072(3) Uani 1 1 d U . .
O19 O -0.2532(5) 0.1131(4) 0.2212(4) 0.102(4) Uani 1 1 d U . .
O20 O -0.3149(5) 0.1092(4) 0.2782(4) 0.108(4) Uani 1 1 d U . .
O21 O -0.0127(5) 0.3383(4) 0.2500(4) 0.100(4) Uani 1 1 d DU . .
O22 O -0.0336(4) 0.3863(4) 0.3133(4) 0.093(4) Uani 1 1 d DU . .
O23 O -0.4022(4) 0.3847(4) 0.6338(4) 0.092(4) Uani 1 1 d U . .
O24 O -0.4413(5) 0.3424(4) 0.6252(4) 0.090(4) Uani 1 1 d U . .
O25 O 0.2306(4) 0.2271(3) 0.2598(4) 0.074(3) Uani 1 1 d U . .
O26 O 0.2003(5) 0.2731(5) 0.3291(4) 0.101(4) Uani 1 1 d U . .
O27 O 0.4504(4) -0.2304(4) 0.2601(4) 0.075(4) Uani 1 1 d . . .
O28 O 0.4675(4) -0.2675(4) 0.3213(4) 0.080(4) Uani 1 1 d U . .
O29 O 0.2982(4) 0.0438(4) 0.6708(4) 0.088(3) Uani 1 1 d U . .
O30 O 0.3396(4) -0.0353(4) 0.6705(4) 0.088(3) Uani 1 1 d U . .
O31 O -0.1369(4) -0.1253(4) 0.2159(4) 0.091(4) Uani 1 1 d DU . .
O32 O -0.2053(5) -0.1237(4) 0.2746(4) 0.100(4) Uani 1 1 d DU . .
O33 O 0.3250(5) -0.3412(4) 0.2451(4) 0.104(4) Uani 1 1 d DU . .
O34 O 0.3398(5) -0.3800(4) 0.3091(4) 0.098(4) Uani 1 1 d DU . .
O35 O -0.1066(4) -0.3428(4) 0.6198(4) 0.081(4) Uani 1 1 d U . .
O36 O -0.0189(5) -0.3834(4) 0.6261(4) 0.101(4) Uani 1 1 d U . .
C1 C -0.2109(5) -0.0060(5) 0.1043(3) 0.086(3) Uani 1 1 d GU . .
C2 C -0.2357(4) 0.0382(4) 0.0839(4) 0.086(3) Uani 1 1 d G . .
C3 C -0.2409(4) 0.0384(3) 0.0414(4) 0.086(3) Uani 1 1 d G . .
H3 H -0.2579 0.0686 0.0275 0.103 Uiso 1 1 calc R . .
C4 C -0.2213(5) -0.0056(5) 0.0193(3) 0.086(3) Uani 1 1 d GD . .
C5 C -0.1964(4) -0.0498(3) 0.0397(4) 0.086(3) Uani 1 1 d G . .
H5 H -0.1830 -0.0799 0.0246 0.103 Uiso 1 1 calc R . .
C6 C -0.1912(4) -0.0500(4) 0.0822(4) 0.086(3) Uani 1 1 d G . .
C7 C -0.2324(8) -0.0052(8) -0.0246(5) 0.177(3) Uiso 1 1 d D . .
C8 C -0.2430(10) 0.0407(7) -0.0536(9) 0.255(3) Uiso 1 1 d D . .
H8A H -0.2532 0.0368 -0.0792 0.382 Uiso 1 1 calc R . .
H8B H -0.2111 0.0451 -0.0638 0.382 Uiso 1 1 calc R . .
H8C H -0.2714 0.0695 -0.0362 0.382 Uiso 1 1 calc R . .
C9 C -0.1935(9) -0.0476(8) -0.0571(9) 0.255(3) Uiso 1 1 d D . .
H9A H -0.2067 -0.0441 -0.0831 0.382 Uiso 1 1 calc R . .
H9B H -0.1894 -0.0788 -0.0426 0.382 Uiso 1 1 calc R . .
H9C H -0.1594 -0.0472 -0.0664 0.382 Uiso 1 1 calc R . .
C10 C -0.2841(8) -0.0084(9) -0.0180(9) 0.255(3) Uiso 1 1 d D . .
H10A H -0.2910 -0.0070 -0.0469 0.382 Uiso 1 1 calc R . .
H10B H -0.3131 0.0191 0.0006 0.382 Uiso 1 1 calc R . .
H10C H -0.2810 -0.0394 -0.0036 0.382 Uiso 1 1 calc R . .
C11 C -0.2373(5) -0.1147(4) 0.1711(4) 0.088(3) Uani 1 1 d GU . .
C12 C -0.2036(4) -0.1313(4) 0.1294(4) 0.088(3) Uani 1 1 d G . .
C13 C -0.2063(4) -0.1655(4) 0.1068(3) 0.088(3) Uani 1 1 d G . .
H13 H -0.1832 -0.1769 0.0782 0.106 Uiso 1 1 calc R . .
C14 C -0.2428(5) -0.1832(3) 0.1258(4) 0.088(3) Uani 1 1 d GD . .
C15 C -0.2765(4) -0.1665(4) 0.1675(4) 0.088(3) Uani 1 1 d G . .
H15 H -0.3014 -0.1786 0.1806 0.106 Uiso 1 1 calc R . .
C16 C -0.2738(4) -0.1323(4) 0.1902(3) 0.088(3) Uani 1 1 d G . .
C17 C -0.2412(10) -0.2247(7) 0.1034(8) 0.177(3) Uiso 1 1 d D . .
C18 C -0.2852(11) -0.2390(10) 0.1270(9) 0.255(3) Uiso 1 1 d D . .
H18A H -0.2814 -0.2663 0.1110 0.382 Uiso 1 1 calc R . .
H18B H -0.3194 -0.2108 0.1277 0.382 Uiso 1 1 calc R . .
H18C H -0.2829 -0.2490 0.1574 0.382 Uiso 1 1 calc R . .
C19 C -0.1962(11) -0.2748(9) 0.1083(10) 0.255(3) Uiso 1 1 d D . .
H19A H -0.1974 -0.2997 0.0927 0.382 Uiso 1 1 calc R . .
H19B H -0.1998 -0.2831 0.1397 0.382 Uiso 1 1 calc R . .
H19C H -0.1626 -0.2739 0.0955 0.382 Uiso 1 1 calc R . .
C20 C -0.2533(12) -0.2141(10) 0.0578(9) 0.255(3) Uiso 1 1 d D . .
H20A H -0.2513 -0.2435 0.0469 0.382 Uiso 1 1 calc R . .
H20B H -0.2276 -0.2051 0.0369 0.382 Uiso 1 1 calc R . .
H20C H -0.2887 -0.1871 0.0606 0.382 Uiso 1 1 calc R . .
C21 C -0.3762(4) -0.0079(4) 0.2451(4) 0.069(2) Uani 1 1 d GU . .
C22 C -0.3731(3) -0.0526(3) 0.2373(3) 0.069(2) Uani 1 1 d G . .
C23 C -0.4127(4) -0.0540(3) 0.2234(3) 0.069(2) Uani 1 1 d GD . .
H23 H -0.4106 -0.0846 0.2180 0.083 Uiso 1 1 calc R . .
C24 C -0.4552(3) -0.0105(4) 0.2173(3) 0.069(2) Uani 1 1 d GD . .
C25 C -0.4583(3) 0.0342(3) 0.2251(3) 0.069(2) Uani 1 1 d GD . .
H25 H -0.4874 0.0639 0.2209 0.083 Uiso 1 1 calc R . .
C26 C -0.4188(4) 0.0356(3) 0.2391(3) 0.069(2) Uani 1 1 d GU . .
C27 C -0.4992(6) -0.0141(6) 0.2064(7) 0.177(3) Uiso 1 1 d D . .
C28 C -0.5517(10) 0.0167(8) 0.2391(7) 0.255(3) Uiso 1 1 d D . .
H28A H -0.5799 0.0137 0.2318 0.382 Uiso 1 1 calc R . .
H28B H -0.5586 0.0512 0.2372 0.382 Uiso 1 1 calc R . .
H28C H -0.5501 0.0051 0.2693 0.382 Uiso 1 1 calc R . .
C29 C -0.5013(11) -0.0629(6) 0.2053(8) 0.255(3) Uiso 1 1 d D . .
H29A H -0.5339 -0.0565 0.1986 0.382 Uiso 1 1 calc R . .
H29B H -0.5001 -0.0787 0.2342 0.382 Uiso 1 1 calc R . .
H29C H -0.4712 -0.0845 0.1825 0.382 Uiso 1 1 calc R . .
C30 C -0.5060(11) 0.0085(9) 0.1613(7) 0.255(3) Uiso 1 1 d D . .
H30A H -0.5355 0.0067 0.1551 0.382 Uiso 1 1 calc R . .
H30B H -0.4738 -0.0095 0.1383 0.382 Uiso 1 1 calc R . .
H30C H -0.5131 0.0429 0.1616 0.382 Uiso 1 1 calc R . .
C31 C -0.3429(4) 0.0993(3) 0.1748(4) 0.074(2) Uani 1 1 d GU . .
C32 C -0.3964(5) 0.1163(4) 0.1943(3) 0.074(2) Uani 1 1 d G . .
C33 C -0.4326(3) 0.1504(4) 0.1725(4) 0.074(2) Uani 1 1 d G . .
H33 H -0.4692 0.1620 0.1858 0.089 Uiso 1 1 calc R . .
C34 C -0.4154(4) 0.1676(3) 0.1313(4) 0.074(2) Uani 1 1 d GD . .
C35 C -0.3620(4) 0.1507(4) 0.1118(3) 0.074(2) Uani 1 1 d G . .
H35 H -0.3502 0.1624 0.0836 0.089 Uiso 1 1 calc R . .
C36 C -0.3257(3) 0.1165(4) 0.1336(4) 0.074(2) Uani 1 1 d GU . .
C37 C -0.4530(9) 0.2045(8) 0.1061(8) 0.177(3) Uiso 1 1 d D . .
C38 C -0.5115(10) 0.2198(11) 0.1268(9) 0.255(3) Uiso 1 1 d D . .
H38A H -0.5321 0.2448 0.1084 0.382 Uiso 1 1 calc R . .
H38B H -0.5218 0.2332 0.1566 0.382 Uiso 1 1 calc R . .
H38C H -0.5179 0.1911 0.1286 0.382 Uiso 1 1 calc R . .
C39 C -0.4521(12) 0.2537(10) 0.1070(10) 0.255(3) Uiso 1 1 d D . .
H39A H -0.4757 0.2779 0.0901 0.382 Uiso 1 1 calc R . .
H39B H -0.4163 0.2495 0.0938 0.382 Uiso 1 1 calc R . .
H39C H -0.4638 0.2651 0.1377 0.382 Uiso 1 1 calc R . .
C40 C -0.4351(12) 0.1878(10) 0.0576(9) 0.255(3) Uiso 1 1 d D . .
H40A H -0.4586 0.2127 0.0410 0.382 Uiso 1 1 calc R . .
H40B H -0.4362 0.1567 0.0563 0.382 Uiso 1 1 calc R . .
H40C H -0.3992 0.1832 0.0445 0.382 Uiso 1 1 calc R . .
C41 C 0.1528(6) 0.3428(4) 0.1493(3) 0.096(3) Uani 1 1 d GDU . .
C42 C 0.2054(5) 0.3308(4) 0.1299(4) 0.096(3) Uani 1 1 d GD . .
C43 C 0.2202(4) 0.3474(4) 0.0877(4) 0.096(3) Uani 1 1 d GD . .
H43 H 0.2561 0.3392 0.0744 0.115 Uiso 1 1 calc R . .
C44 C 0.1826(5) 0.3761(4) 0.0650(3) 0.096(3) Uani 1 1 d GD . .
C45 C 0.1300(5) 0.3882(4) 0.0845(4) 0.096(3) Uani 1 1 d GD . .
H45 H 0.1043 0.4078 0.0689 0.115 Uiso 1 1 calc R . .
C46 C 0.1152(4) 0.3715(4) 0.1266(4) 0.096(3) Uani 1 1 d GD . .
C47 C 0.1993(8) 0.3944(7) 0.0152(6) 0.177(3) Uiso 1 1 d D . .
C48 C 0.2105(10) 0.3588(8) -0.0206(9) 0.255(3) Uiso 1 1 d D . .
H48A H 0.2329 0.3253 -0.0129 0.382 Uiso 1 1 calc R . .
H48B H 0.2284 0.3674 -0.0491 0.382 Uiso 1 1 calc R . .
H48C H 0.1773 0.3610 -0.0226 0.382 Uiso 1 1 calc R . .
C49 C 0.2507(9) 0.3982(9) 0.0060(9) 0.255(3) Uiso 1 1 d D . .
H49A H 0.2485 0.4176 0.0295 0.382 Uiso 1 1 calc R . .
H49B H 0.2565 0.4141 -0.0226 0.382 Uiso 1 1 calc R . .
H49C H 0.2800 0.3652 0.0051 0.382 Uiso 1 1 calc R . .
C50 C 0.1618(9) 0.4442(7) -0.0002(9) 0.255(3) Uiso 1 1 d D . .
H50A H 0.1497 0.4694 0.0222 0.382 Uiso 1 1 calc R . .
H50B H 0.1315 0.4420 -0.0042 0.382 Uiso 1 1 calc R . .
H50C H 0.1803 0.4529 -0.0283 0.382 Uiso 1 1 calc R . .
C51 C 0.0151(4) 0.4449(4) 0.2196(4) 0.095(3) Uani 1 1 d GDU . .
C52 C 0.0159(4) 0.4425(3) 0.1756(4) 0.095(3) Uani 1 1 d GD . .
C53 C -0.0124(5) 0.4847(4) 0.1545(3) 0.095(3) Uani 1 1 d GD . .
H53 H -0.0119 0.4831 0.1244 0.114 Uiso 1 1 calc R . .
C54 C -0.0417(4) 0.5292(3) 0.1772(4) 0.095(3) Uani 1 1 d GD . .
C55 C -0.0425(4) 0.5316(4) 0.2212(4) 0.095(3) Uani 1 1 d GD . .
H55 H -0.0625 0.5620 0.2368 0.114 Uiso 1 1 calc R . .
C56 C -0.0141(5) 0.4894(5) 0.2424(3) 0.095(3) Uani 1 1 d GD . .
C57 C -0.0746(6) 0.5742(5) 0.1544(6) 0.177(3) Uiso 1 1 d D . .
C58 C -0.