####################################################################### 
# 
# This file contains crystal structure data downloaded from the 
# Cambridge Structural Database (CSD) hosted by the Cambridge 
# Crystallographic Data Centre (CCDC).
# 
# Full information about CCDC data access policies and citation 
# guidelines are available at http://www.ccdc.cam.ac.uk/access/V1 
# 
# Audit and citation data items may have been added by the CCDC. 
# Please retain this information to preserve the provenance of 
# this file and to allow appropriate attribution of the data. 
# 
#######################################################################

data_V002cage3sq
_audit_block_doi                 10.5517/ccx5dt8
_database_code_depnum_ccdc_archive 'CCDC 839350'
loop_
_citation_id
_citation_doi
_citation_year
1 10.1002/anie.201106732 2012
_audit_update_record             
;
2011-08-15 deposited with the CCDC.	2024-07-13 downloaded from the CCDC.
;

_audit_creation_method           SHELXL-97
_chemical_name_systematic        
;
?
;
_chemical_name_common            '[Co24Cl6(C48H28S4O4)6(C27H15O6)8]'
_chemical_melting_point          ?
_chemical_formula_moiety         ?
_chemical_formula_sum            'C504 H288 Cl6 Co24 O72 S24'
# Excluding the disordered counter cations and solvents
_chemical_formula_weight         9891.80

loop_
_atom_type_symbol
_atom_type_description
_atom_type_scat_dispersion_real
_atom_type_scat_dispersion_imag
_atom_type_scat_source
C C 0.0033 0.0016 'International Tables Vol C Tables 4.2.6.8 and 6.1.1.4'
H H 0.0000 0.0000 'International Tables Vol C Tables 4.2.6.8 and 6.1.1.4'
O O 0.0106 0.0060 'International Tables Vol C Tables 4.2.6.8 and 6.1.1.4'
S S 0.1246 0.1234 'International Tables Vol C Tables 4.2.6.8 and 6.1.1.4'
Cl Cl 0.1484 0.1585 'International Tables Vol C Tables 4.2.6.8 and 6.1.1.4'
Co Co 0.3494 0.9721 'International Tables Vol C Tables 4.2.6.8 and 6.1.1.4'

_symmetry_cell_setting           Triclinic
_symmetry_space_group_name_H-M   'P-1 '

loop_
_symmetry_equiv_pos_as_xyz
'x, y, z'
'-x, -y, -z'

_cell_length_a                   32.9952(16)
_cell_length_b                   33.4644(16)
_cell_length_c                   35.2518(17)
_cell_angle_alpha                79.0930(10)
_cell_angle_beta                 78.9310(10)
_cell_angle_gamma                64.2070(10)
_cell_volume                     34147(3)
_cell_formula_units_Z            1
_cell_measurement_temperature    297(2)
_cell_measurement_reflns_used    9912
_cell_measurement_theta_min      2.16
_cell_measurement_theta_max      16.86

_exptl_crystal_description       block
_exptl_crystal_colour            colorless
_exptl_crystal_size_max          0.49
_exptl_crystal_size_mid          0.29
_exptl_crystal_size_min          0.21
_exptl_crystal_density_meas      ?
_exptl_crystal_density_diffrn    0.481
# Based on the molecular formula without the disordered
# counter cations and solvents
_exptl_crystal_density_method    'not measured'
_exptl_crystal_F_000             5022
_exptl_absorpt_coefficient_mu    0.355
_exptl_absorpt_correction_type   multi-scan
_exptl_absorpt_correction_T_min  0.8451
_exptl_absorpt_correction_T_max  0.9291
_exptl_absorpt_process_details   SADABS

_exptl_special_details           
;
?
;

_diffrn_ambient_temperature      297(2)
_diffrn_radiation_wavelength     0.71073
_diffrn_radiation_type           MoK\a
_diffrn_radiation_source         'fine-focus sealed tube'
_diffrn_radiation_monochromator  graphite
_diffrn_measurement_device_type  'Bruker APEX CCD'
_diffrn_measurement_method       '\w scans'
_diffrn_detector_area_resol_mean ?
_diffrn_reflns_number            180115
_diffrn_reflns_av_R_equivalents  0.1042
_diffrn_reflns_av_sigmaI/netI    0.1530
_diffrn_reflns_limit_h_min       -30
_diffrn_reflns_limit_h_max       30
_diffrn_reflns_limit_k_min       -30
_diffrn_reflns_limit_k_max       30
_diffrn_reflns_limit_l_min       -32
_diffrn_reflns_limit_l_max       32
_diffrn_reflns_theta_min         1.55
_diffrn_reflns_theta_max         18.88
_reflns_number_total             53827
_reflns_number_gt                19840
_reflns_threshold_expression     >2sigma(I)

_computing_data_collection       'Bruker SMART'
_computing_cell_refinement       'Bruker SAINT'
_computing_data_reduction        'Bruker SAINT'
_computing_structure_solution    'SHELXS-97 (Sheldrick, 2008)'
_computing_structure_refinement  'SHELXL-97 (Sheldrick, 2008)'
_computing_molecular_graphics    'Bruker SHELXTL'
_computing_publication_material  'Bruker SHELXTL'

_refine_special_details          
;
Refinement of F^2^ against ALL reflections. The weighted R-factor wR and
goodness of fit S are based on F^2^, conventional R-factors R are based
on F, with F set to zero for negative F^2^. The threshold expression of
F^2^ > 2sigma(F^2^) is used only for calculating R-factors(gt) etc. and is
not relevant to the choice of reflections for refinement. R-factors based
on F^2^ are statistically about twice as large as those based on F, and R-
factors based on ALL data will be even larger.
;

_refine_ls_structure_factor_coef Fsqd
_refine_ls_matrix_type           full
_refine_ls_weighting_scheme      calc
_refine_ls_weighting_details     
'calc w=1/[\s^2^(Fo^2^)+(0.0850P)^2^+0.0000P] where P=(Fo^2^+2Fc^2^)/3'
_atom_sites_solution_primary     direct
_atom_sites_solution_secondary   difmap
_atom_sites_solution_hydrogens   geom
_refine_ls_hydrogen_treatment    constr
_refine_ls_extinction_method     none
_refine_ls_extinction_coef       ?
_refine_ls_number_reflns         53827
_refine_ls_number_parameters     1150
_refine_ls_number_restraints     496
_refine_ls_R_factor_all          0.1641
_refine_ls_R_factor_gt           0.0843
_refine_ls_wR_factor_ref         0.2276
_refine_ls_wR_factor_gt          0.2099
_refine_ls_goodness_of_fit_ref   1.034
_refine_ls_restrained_S_all      1.160
_refine_ls_shift/su_max          0.001
_refine_ls_shift/su_mean         0.000

# SQUEEZE RESULTS (APPEND TO CIF)
# Note: Data are Listed for all Voids in the P1 Unit Cell
# i.e. Centre of Gravity, Solvent Accessible Volume,
# Recovered number of Electrons in the Void and
# Details about the Squeezed Material
loop_
_platon_squeeze_void_nr
_platon_squeeze_void_average_x
_platon_squeeze_void_average_y
_platon_squeeze_void_average_z
_platon_squeeze_void_volume
_platon_squeeze_void_count_electrons
_platon_squeeze_void_content
1 0.003 -0.009 -0.001 26008 5244 ' '
_platon_squeeze_details          
;
R factors based on the data before applying the PLATON/SQUEEZE:
_refine_ls_R_factor_all 0.3346
_refine_ls_R_factor_gt 0.1948
_refine_ls_wR_factor_ref 0.5472
_refine_ls_wR_factor_gt 0.4865

;


loop_
_atom_site_label
_atom_site_type_symbol
_atom_site_fract_x
_atom_site_fract_y
_atom_site_fract_z
_atom_site_U_iso_or_equiv
_atom_site_adp_type
_atom_site_occupancy
_atom_site_symmetry_multiplicity
_atom_site_calc_flag
_atom_site_refinement_flags
_atom_site_disorder_assembly
_atom_site_disorder_group
Co1 Co -0.07284(5) 0.65506(5) 0.33465(4) 0.1078(6) Uani 1 1 d U . .
Co2 Co -0.05346(5) 0.55243(5) 0.36932(4) 0.0999(6) Uani 1 1 d . . .
Co3 Co -0.15808(5) 0.57154(5) 0.36493(4) 0.1065(6) Uani 1 1 d U . .
Co4 Co -0.17740(5) 0.67404(5) 0.32990(5) 0.1135(6) Uani 1 1 d U . .
Co5 Co 0.33027(5) 0.17472(5) 0.17495(4) 0.0992(6) Uani 1 1 d U . .
Co6 Co 0.30699(5) 0.11346(5) 0.12876(4) 0.0945(5) Uani 1 1 d U . .
Co7 Co 0.36997(5) 0.13487(4) 0.05208(4) 0.0856(5) Uani 1 1 d . . .
Co8 Co 0.39415(5) 0.19577(4) 0.09809(5) 0.0945(5) Uani 1 1 d U . .
Co9 Co 0.17524(6) 0.79268(5) -0.10382(5) 0.1099(6) Uani 1 1 d . . .
Co10 Co 0.21700(5) 0.75244(5) -0.02207(5) 0.1095(6) Uani 1 1 d U . .
Co11 Co 0.30033(5) 0.67201(5) -0.06411(5) 0.1074(6) Uani 1 1 d U . .
Co12 Co 0.25871(5) 0.71311(5) -0.14636(5) 0.1096(6) Uani 1 1 d . . .
Cl1 Cl -0.10460(9) 0.60226(9) 0.31533(8) 0.1050(10) Uani 1 1 d . . .
Cl2 Cl 0.31553(9) 0.18909(8) 0.10221(8) 0.0944(9) Uani 1 1 d . . .
Cl3 Cl 0.21494(9) 0.70838(9) -0.07562(9) 0.1093(10) Uani 1 1 d . . .
S1 S -0.06178(12) 0.70156(10) 0.37898(10) 0.1286(12) Uani 1 1 d U . .
S2 S -0.02846(10) 0.52776(10) 0.43888(8) 0.1067(10) Uani 1 1 d U . .
S3 S -0.20509(11) 0.56089(11) 0.43034(9) 0.1265(12) Uani 1 1 d U . .
S4 S -0.23877(11) 0.73453(11) 0.37022(10) 0.1403(12) Uani 1 1 d U . .
S5 S 0.36987(11) 0.13538(11) 0.23588(9) 0.1237(11) Uani 1 1 d U . .
S6 S 0.33227(10) 0.03058(9) 0.15756(9) 0.1076(11) Uani 1 1 d U . .
S7 S 0.43845(9) 0.06564(8) 0.02709(8) 0.0858(9) Uani 1 1 d . . .
S8 S 0.47793(9) 0.16844(10) 0.10620(10) 0.1094(10) Uani 1 1 d U . .
S9 S 0.16516(11) 0.87185(10) -0.13025(11) 0.1289(12) Uani 1 1 d U . .
S10 S 0.23822(12) 0.80452(11) 0.00733(11) 0.1373(12) Uani 1 1 d U . .
S11 S 0.37987(10) 0.66852(11) -0.06306(11) 0.1315(12) Uani 1 1 d U . .
S12 S 0.30935(11) 0.73864(11) -0.20194(10) 0.1326(12) Uani 1 1 d U . .
O1 O -0.0600(2) 0.6106(2) 0.38281(19) 0.107(2) Uani 1 1 d U . .
O2 O -0.2028(3) 0.2784(2) 0.1702(2) 0.107(3) Uani 1 1 d . . .
O3 O -0.1129(2) 0.5597(2) 0.4016(2) 0.114(3) Uani 1 1 d . . .
O4 O -0.1906(3) 0.6352(3) 0.3772(2) 0.155(2) Uani 1 1 d U . .
O5 O -0.1388(3) 0.6865(3) 0.3592(2) 0.1641(19) Uani 1 1 d U . .
O6 O 0.3423(3) 0.1113(3) 0.1711(2) 0.144(2) Uani 1 1 d U . .
O7 O 0.4204(2) 0.13795(19) 0.07496(18) 0.096(2) Uani 1 1 d U . .
O8 O -0.1208(3) 0.5082(3) 0.3497(2) 0.114(3) Uani 1 1 d U . .
O9 O 0.3664(2) 0.0860(2) 0.09378(18) 0.096(2) Uani 1 1 d . . .
O10 O 0.2639(3) 0.1877(3) 0.1935(2) 0.112(3) Uani 1 1 d . . .
O11 O 0.2477(2) 0.1449(3) 0.1623(2) 0.106(3) Uani 1 1 d . . .
O12 O 0.3098(2) 0.7033(2) -0.1170(2) 0.114(2) Uani 1 1 d U . .
O13 O -0.0075(2) 0.6184(3) 0.30929(19) 0.101(3) Uani 1 1 d . . .
O14 O 0.0043(3) 0.5483(3) 0.3325(2) 0.102(3) Uani 1 1 d . . .
O15 O 0.3194(2) 0.2382(2) 0.1753(2) 0.108(3) Uani 1 1 d . . .
O16 O 0.3614(2) 0.2546(2) 0.1225(2) 0.105(3) Uani 1 1 d . . .
O17 O 0.2846(3) 0.6427(2) -0.0102(2) 0.104(3) Uani 1 1 d . . .
O18 O 0.2282(2) 0.6978(3) 0.0176(2) 0.115(3) Uani 1 1 d . . .
O19 O -0.0502(2) 0.4973(3) 0.3523(2) 0.104(3) Uani 1 1 d . . .
O20 O 0.3944(3) 0.1618(2) 0.1530(2) 0.1293(18) Uani 1 1 d U . .
O21 O 0.2073(2) 0.8037(2) -0.0656(2) 0.117(2) Uani 1 1 d U . .
O22 O 0.2841(2) 0.7276(2) -0.0404(2) 0.121(3) Uani 1 1 d U . .
O23 O -0.1453(2) 0.2229(3) 0.1413(2) 0.107(3) Uani 1 1 d . . .
O24 O 0.2326(2) 0.7791(2) -0.1413(2) 0.107(2) Uani 1 1 d . . .
O25 O -0.0891(3) 0.6970(2) 0.2843(2) 0.114(3) Uani 1 1 d . . .
O26 O -0.1612(3) 0.7112(3) 0.2815(2) 0.117(3) Uani 1 1 d U . .
O27 O 0.1490(3) 0.7752(2) -0.0068(2) 0.111(3) Uani 1 1 d . . .
O28 O 0.1213(2) 0.8012(3) -0.0632(3) 0.116(3) Uani 1 1 d . . .
O29 O -0.2720(2) 0.8800(2) -0.0842(2) 0.090(3) Uani 1 1 d U . .
O30 O -0.3171(3) 0.8654(2) -0.0310(2) 0.091(3) Uani 1 1 d . . .
O31 O 0.3704(2) 0.1875(2) 0.0118(2) 0.090(3) Uani 1 1 d . . .
O32 O 0.3878(3) 0.2292(2) 0.0423(2) 0.100(3) Uani 1 1 d U . .
O33 O 0.3111(2) 0.6171(2) -0.0888(3) 0.109(3) Uani 1 1 d . . .
O34 O 0.2820(3) 0.6465(2) -0.1462(2) 0.104(3) Uani 1 1 d . . .
O35 O 0.2014(2) 0.4132(3) -0.3230(2) 0.120(3) Uani 1 1 d . . .
O36 O 0.2121(2) 0.3436(2) -0.30006(19) 0.114(3) Uani 1 1 d . . .
C1 C -0.0447(3) 0.6141(4) 0.4145(2) 0.1526(17) Uani 1 1 d GDU . .
C2 C -0.0459(3) 0.6553(3) 0.4179(2) 0.1526(17) Uani 1 1 d GDU . .
C3 C -0.0331(3) 0.6614(2) 0.4510(3) 0.1526(17) Uani 1 1 d GD . .
H3 H -0.0338 0.6889 0.4533 0.183 Uiso 1 1 calc R . .
C4 C -0.0192(2) 0.6263(3) 0.48065(19) 0.1526(17) Uani 1 1 d GDU . .
C5 C -0.0181(2) 0.5851(3) 0.4772(2) 0.1526(17) Uani 1 1 d GD . .
H5 H -0.0088 0.5616 0.4971 0.183 Uiso 1 1 calc RD . .
C6 C -0.0308(3) 0.5790(2) 0.4442(3) 0.1526(17) Uani 1 1 d GDU . .
C7 C -0.0067(3) 0.6326(4) 0.5170(2) 0.1835(19) Uani 1 1 d GDU . .
C8 C -0.0174(3) 0.6751(3) 0.5258(2) 0.1835(19) Uani 1 1 d G . .
H8 H -0.0335 0.7001 0.5094 0.220 Uiso 1 1 calc R . .
C9 C -0.0040(3) 0.6802(2) 0.5590(3) 0.1835(19) Uani 1 1 d G . .
H9 H -0.0112 0.7086 0.5648 0.220 Uiso 1 1 calc R . .
C10 C 0.0200(3) 0.6427(3) 0.5834(2) 0.1835(19) Uani 1 1 d GD . .
H10 H 0.0290 0.6461 0.6056 0.220 Uiso 1 1 calc R . .
C11 C 0.0307(3) 0.6002(3) 0.5747(2) 0.1835(19) Uani 1 1 d G . .
H11 H 0.0468 0.5751 0.5910 0.220 Uiso 1 1 calc R . .
C12 C 0.0173(3) 0.5951(3) 0.5415(3) 0.1835(19) Uani 1 1 d G . .
H12 H 0.0245 0.5667 0.5356 0.220 Uiso 1 1 calc RD . .
C13 C -0.1188(4) 0.5438(3) 0.43936(16) 0.1565(18) Uani 1 1 d GDU . .
C14 C -0.1602(3) 0.5447(3) 0.4584(3) 0.1565(18) Uani 1 1 d GDU . .
C15 C -0.1652(2) 0.5322(3) 0.4983(3) 0.1565(18) Uani 1 1 d GD . .
H15 H -0.1929 0.5329 0.5110 0.188 Uiso 1 1 calc R . .
C16 C -0.1288(4) 0.5188(2) 0.51923(16) 0.1565(18) Uani 1 1 d GDU . .
C17 C -0.0874(3) 0.5178(2) 0.5002(3) 0.1565(18) Uani 1 1 d GD . .
H17 H -0.0631 0.5088 0.5142 0.188 Uiso 1 1 calc RD . .
C18 C -0.0825(3) 0.5303(3) 0.4603(3) 0.1565(18) Uani 1 1 d GDU . .
C19 C -0.1347(4) 0.5043(3) 0.56267(16) 0.201(2) Uani 1 1 d GDU . .
C20 C -0.1771(3) 0.5125(3) 0.5839(3) 0.201(2) Uani 1 1 d G . .
H20 H -0.2029 0.5256 0.5712 0.241 Uiso 1 1 calc R . .
C21 C -0.1809(3) 0.5011(3) 0.6240(3) 0.201(2) Uani 1 1 d G . .
H21 H -0.2093 0.5066 0.6382 0.241 Uiso 1 1 calc R . .
C22 C -0.1423(4) 0.4816(3) 0.64295(16) 0.201(2) Uani 1 1 d GD . .
H22 H -0.1449 0.4739 0.6698 0.241 Uiso 1 1 calc R . .
C23 C -0.0999(3) 0.4734(3) 0.6218(3) 0.201(2) Uani 1 1 d G . .
H23 H -0.0741 0.4603 0.6345 0.241 Uiso 1 1 calc R . .
C24 C -0.0961(3) 0.4848(3) 0.5816(3) 0.201(2) Uani 1 1 d G . .
H24 H -0.0678 0.4793 0.5675 0.241 Uiso 1 1 calc RD . .
C25 C -0.2244(3) 0.6503(5) 0.4041(3) 0.1954(18) Uani 1 1 d GDU . .
C26 C -0.2496(4) 0.6956(4) 0.4072(3) 0.1954(18) Uani 1 1 d GDU . .
C27 C -0.2844(3) 0.7093(2) 0.4376(4) 0.1954(18) Uani 1 1 d GD . .
H27 H -0.3013 0.7396 0.4396 0.234 Uiso 1 1 calc R . .
C28 C -0.2940(3) 0.6778(4) 0.4649(2) 0.1954(18) Uani 1 1 d GDU . .
C29 C -0.2688(4) 0.6325(4) 0.4618(3) 0.1954(18) Uani 1 1 d GD . .
H29 H -0.2752 0.6113 0.4800 0.234 Uiso 1 1 calc R . .
C30 C -0.2340(3) 0.6187(3) 0.4314(4) 0.1954(18) Uani 1 1 d GDU . .
C31 C -0.3361(3) 0.6975(5) 0.4932(2) 0.259(2) Uani 1 1 d GDU . .
C32 C -0.3398(4) 0.7338(4) 0.5096(4) 0.259(2) Uani 1 1 d GD . .
H32 H -0.3199 0.7473 0.5000 0.311 Uiso 1 1 calc R . .
C33 C -0.3733(5) 0.7499(3) 0.5404(4) 0.259(2) Uani 1 1 d G . .
H33 H -0.3758 0.7742 0.5514 0.311 Uiso 1 1 calc R . .
C34 C -0.4031(3) 0.7298(4) 0.5548(2) 0.259(2) Uani 1 1 d GD . .
H34 H -0.4255 0.7405 0.5753 0.311 Uiso 1 1 calc R . .
C35 C -0.3993(4) 0.6935(4) 0.5383(4) 0.259(2) Uani 1 1 d G . .
H35 H -0.4192 0.6800 0.5480 0.311 Uiso 1 1 calc R . .
C36 C -0.3658(5) 0.6774(3) 0.5076(4) 0.259(2) Uani 1 1 d G . .
H36 H -0.3633 0.6531 0.4966 0.311 Uiso 1 1 calc R . .
C37 C -0.1514(4) 0.7220(2) 0.3764(2) 0.1961(18) Uani 1 1 d GDU . .
C38 C -0.1213(2) 0.7332(3) 0.3901(3) 0.1961(18) Uani 1 1 d GDU . .
C39 C -0.1376(3) 0.7659(3) 0.4151(3) 0.1961(18) Uani 1 1 d GD . .
H39 H -0.1175 0.7734 0.4242 0.235 Uiso 1 1 calc R . .
C40 C -0.1840(3) 0.7875(2) 0.42631(19) 0.1961(18) Uani 1 1 d GDU . .
C41 C -0.2140(2) 0.7763(3) 0.4126(3) 0.1961(18) Uani 1 1 d GD . .
H41 H -0.2451 0.7907 0.4201 0.235 Uiso 1 1 calc R . .
C42 C -0.1977(4) 0.7436(3) 0.3877(3) 0.1961(18) Uani 1 1 d GDU . .
C43 C -0.2025(4) 0.8237(3) 0.4518(2) 0.248(2) Uani 1 1 d GDU . .
C44 C -0.1738(3) 0.8412(3) 0.4588(3) 0.248(2) Uani 1 1 d GD . .
H44 H -0.1448 0.8329 0.4452 0.298 Uiso 1 1 calc R . .
C45 C -0.1884(4) 0.8712(3) 0.4862(3) 0.248(2) Uani 1 1 d G . .
H45 H -0.1692 0.8829 0.4909 0.298 Uiso 1 1 calc R . .
C46 C -0.2317(4) 0.8836(3) 0.5065(2) 0.248(2) Uani 1 1 d GD . .
H46 H -0.2415 0.9036 0.5248 0.298 Uiso 1 1 calc R . .
C47 C -0.2604(3) 0.8660(3) 0.4994(3) 0.248(2) Uani 1 1 d G . .
H47 H -0.2894 0.8743 0.5130 0.298 Uiso 1 1 calc R . .
C48 C -0.2458(3) 0.8361(3) 0.4721(3) 0.248(2) Uani 1 1 d GD . .
H48 H -0.2650 0.8244 0.4674 0.298 Uiso 1 1 calc R . .
C49 C 0.3557(3) 0.0774(3) 0.1986(3) 0.1777(18) Uani 1 1 d GU . .
C50 C 0.3534(3) 0.0374(4) 0.1969(2) 0.1777(18) Uani 1 1 d GU . .
C51 C 0.3673(3) 0.0024(3) 0.2266(4) 0.1777(18) Uani 1 1 d G . .
H51 H 0.3657 -0.0244 0.2254 0.213 Uiso 1 1 calc R . .
C52 C 0.3835(3) 0.0075(3) 0.2581(3) 0.1777(18) Uani 1 1 d GDU . .
C53 C 0.3858(3) 0.0476(4) 0.2599(2) 0.1777(18) Uani 1 1 d G . .
H53 H 0.3967 0.0510 0.2810 0.213 Uiso 1 1 calc R . .
C54 C 0.3719(3) 0.0826(3) 0.2302(4) 0.1777(18) Uani 1 1 d GU . .
C55 C 0.4000(5) -0.0307(3) 0.2904(3) 0.247(2) Uani 1 1 d GDU . .
C56 C 0.3796(3) -0.0605(5) 0.2982(3) 0.247(2) Uani 1 1 d G . .
H56 H 0.3554 -0.0553 0.2853 0.296 Uiso 1 1 calc R . .
C57 C 0.3954(4) -0.0980(4) 0.3254(4) 0.247(2) Uani 1 1 d G . .
H57 H 0.3817 -0.1180 0.3306 0.296 Uiso 1 1 calc R . .
C58 C 0.4315(5) -0.1057(3) 0.3447(3) 0.247(2) Uani 1 1 d G . .
H58 H 0.4420 -0.1308 0.3629 0.296 Uiso 1 1 calc R . .
C59 C 0.4519(3) -0.0759(5) 0.3369(3) 0.247(2) Uani 1 1 d G . .
H59 H 0.4760 -0.0811 0.3499 0.296 Uiso 1 1 calc R . .
C60 C 0.4361(5) -0.0384(4) 0.3098(4) 0.247(2) Uani 1 1 d G . .
H60 H 0.4497 -0.0184 0.3046 0.296 Uiso 1 1 calc R . .
C61 C 0.3917(2) 0.04178(16) 0.0936(3) 0.1052(15) Uani 1 1 d GU . .
C62 C 0.4282(3) 0.0266(2) 0.06483(19) 0.1052(15) Uani 1 1 d G . .
C63 C 0.45539(19) -0.0189(3) 0.06515(18) 0.1052(15) Uani 1 1 d G . .
H63 H 0.4798 -0.0291 0.0459 0.126 Uiso 1 1 calc R . .
C64 C 0.4460(2) -0.04923(16) 0.0942(2) 0.1052(15) Uani 1 1 d GDU . .
C65 C 0.4095(3) -0.0340(2) 0.12300(18) 0.1052(15) Uani 1 1 d G . .
H65 H 0.4032 -0.0543 0.1425 0.126 Uiso 1 1 calc R . .
C66 C 0.38232(19) 0.0115(3) 0.12267(19) 0.1052(15) Uani 1 1 d G . .
C67 C 0.4753(2) -0.09860(17) 0.0957(3) 0.1380(17) Uani 1 1 d GDU . .
C68 C 0.5091(3) -0.1128(2) 0.0647(2) 0.1380(17) Uani 1 1 d G . .
H68 H 0.5117 -0.0923 0.0436 0.166 Uiso 1 1 calc R . .
C69 C 0.5390(2) -0.1576(3) 0.0653(2) 0.1380(17) Uani 1 1 d G . .
H69 H 0.5617 -0.1671 0.0445 0.166 Uiso 1 1 calc R . .
C70 C 0.5352(2) -0.18823(17) 0.0968(3) 0.1380(17) Uani 1 1 d GU . .
H70 H 0.5552 -0.2182 0.0972 0.166 Uiso 1 1 calc R . .
C7