####################################################################### 
# 
# This file contains crystal structure data downloaded from the 
# Cambridge Structural Database (CSD) hosted by the Cambridge 
# Crystallographic Data Centre (CCDC).
# 
# Full information about CCDC data access policies and citation 
# guidelines are available at http://www.ccdc.cam.ac.uk/access/V1 
# 
# Audit and citation data items may have been added by the CCDC. 
# Please retain this information to preserve the provenance of 
# this file and to allow appropriate attribution of the data. 
# 
#######################################################################

data_7
_audit_block_doi                 10.5517/ccyjpkp
_database_code_depnum_ccdc_archive 'CCDC 879983'
loop_
_citation_id
_citation_doi
_citation_year
1 10.1021/ja305181y 2012
_audit_update_record             
;
2012-05-02 deposited with the CCDC.	2024-07-13 downloaded from the CCDC.
;
#TrackingRef '7.cif'


_audit_creation_method           SHELXL-97
_chemical_name_systematic        
;
?
;
_chemical_name_common            ?
_chemical_melting_point          ?
_chemical_formula_moiety         ?
_chemical_formula_sum            'C128 H164 In5 N7 O48 Zn'
_chemical_formula_weight         3208.13

loop_
_atom_type_symbol
_atom_type_description
_atom_type_scat_dispersion_real
_atom_type_scat_dispersion_imag
_atom_type_scat_source
C C 0.0033 0.0016 'International Tables Vol C Tables 4.2.6.8 and 6.1.1.4'
H H 0.0000 0.0000 'International Tables Vol C Tables 4.2.6.8 and 6.1.1.4'
N N 0.0061 0.0033 'International Tables Vol C Tables 4.2.6.8 and 6.1.1.4'
O O 0.0106 0.0060 'International Tables Vol C Tables 4.2.6.8 and 6.1.1.4'
Zn Zn 0.2839 1.4301 'International Tables Vol C Tables 4.2.6.8 and 6.1.1.4'
In In -0.7276 1.3100 'International Tables Vol C Tables 4.2.6.8 and 6.1.1.4'

_symmetry_cell_setting           ?
_symmetry_space_group_name_H-M   ?

loop_
_symmetry_equiv_pos_as_xyz
'x, y, z'
'-x, -y, z'
'y, -x, -z'
'-y, x, -z'
'x+1/2, y+1/2, z+1/2'
'-x+1/2, -y+1/2, z+1/2'
'y+1/2, -x+1/2, -z+1/2'
'-y+1/2, x+1/2, -z+1/2'

_cell_length_a                   22.7219(3)
_cell_length_b                   22.7219(3)
_cell_length_c                   17.3033(6)
_cell_angle_alpha                90.00
_cell_angle_beta                 90.00
_cell_angle_gamma                90.00
_cell_volume                     8933.4(4)
_cell_formula_units_Z            2
_cell_measurement_temperature    296(2)
_cell_measurement_reflns_used    ?
_cell_measurement_theta_min      ?
_cell_measurement_theta_max      ?

_exptl_crystal_description       ?
_exptl_crystal_colour            ?
_exptl_crystal_size_max          ?
_exptl_crystal_size_mid          ?
_exptl_crystal_size_min          ?
_exptl_crystal_density_meas      ?
_exptl_crystal_density_diffrn    1.193
_exptl_crystal_density_method    'not measured'
_exptl_crystal_F_000             3280
_exptl_absorpt_coefficient_mu    0.835
_exptl_absorpt_correction_type   ?
_exptl_absorpt_correction_T_min  ?
_exptl_absorpt_correction_T_max  ?
_exptl_absorpt_process_details   ?

_exptl_special_details           
;
?
;

_diffrn_ambient_temperature      296(2)
_diffrn_radiation_wavelength     0.71073
_diffrn_radiation_type           MoK\a
_diffrn_radiation_source         'fine-focus sealed tube'
_diffrn_radiation_monochromator  graphite
_diffrn_measurement_device_type  ?
_diffrn_measurement_method       ?
_diffrn_detector_area_resol_mean ?
_diffrn_standards_number         ?
_diffrn_standards_interval_count ?
_diffrn_standards_interval_time  ?
_diffrn_standards_decay_%        ?
_diffrn_reflns_number            18000
_diffrn_reflns_av_R_equivalents  0.0458
_diffrn_reflns_av_sigmaI/netI    0.0498
_diffrn_reflns_limit_h_min       -24
_diffrn_reflns_limit_h_max       24
_diffrn_reflns_limit_k_min       -24
_diffrn_reflns_limit_k_max       20
_diffrn_reflns_limit_l_min       -18
_diffrn_reflns_limit_l_max       18
_diffrn_reflns_theta_min         1.27
_diffrn_reflns_theta_max         22.43
_reflns_number_total             5804
_reflns_number_gt                5096
_reflns_threshold_expression     >2sigma(I)

_computing_data_collection       ?
_computing_cell_refinement       ?
_computing_data_reduction        ?
_computing_structure_solution    'SHELXS-97 (Sheldrick, 1990)'
_computing_structure_refinement  'SHELXL-97 (Sheldrick, 1997)'
_computing_molecular_graphics    ?
_computing_publication_material  ?

_refine_special_details          
;
Refinement of F^2^ against ALL reflections. The weighted R-factor wR and
goodness of fit S are based on F^2^, conventional R-factors R are based
on F, with F set to zero for negative F^2^. The threshold expression of
F^2^ > 2sigma(F^2^) is used only for calculating R-factors(gt) etc. and is
not relevant to the choice of reflections for refinement. R-factors based
on F^2^ are statistically about twice as large as those based on F, and R-
factors based on ALL data will be even larger.
;

_refine_ls_structure_factor_coef Fsqd
_refine_ls_matrix_type           full
_refine_ls_weighting_scheme      calc
_refine_ls_weighting_details     
'calc w=1/[\s^2^(Fo^2^)+(0.0850P)^2^+0.0000P] where P=(Fo^2^+2Fc^2^)/3'
_atom_sites_solution_primary     direct
_atom_sites_solution_secondary   difmap
_atom_sites_solution_hydrogens   geom
_refine_ls_hydrogen_treatment    mixed
_refine_ls_extinction_method     none
_refine_ls_extinction_coef       ?
_refine_ls_abs_structure_details 'Flack H D (1983), Acta Cryst. A39, 876-881'
_refine_ls_abs_structure_Flack   0.17(4)
_refine_ls_number_reflns         5804
_refine_ls_number_parameters     280
_refine_ls_number_restraints     0
_refine_ls_R_factor_all          0.0538
_refine_ls_R_factor_gt           0.0482
_refine_ls_wR_factor_ref         0.1233
_refine_ls_wR_factor_gt          0.1198
_refine_ls_goodness_of_fit_ref   0.976
_refine_ls_restrained_S_all      0.976
_refine_ls_shift/su_max          0.001
_refine_ls_shift/su_mean         0.000

loop_
_atom_site_label
_atom_site_type_symbol
_atom_site_fract_x
_atom_site_fract_y
_atom_site_fract_z
_atom_site_U_iso_or_equiv
_atom_site_adp_type
_atom_site_occupancy
_atom_site_symmetry_multiplicity
_atom_site_calc_flag
_atom_site_refinement_flags
_atom_site_disorder_assembly
_atom_site_disorder_group
In1 In 0.79933(2) 0.79987(2) 0.40891(3) 0.05049(17) Uani 1 1 d . . .
In2 In 0.5000 0.5000 0.5000 0.0526(3) Uani 1 4 d S . .
Zn1 Zn 0.5000 1.0000 0.7500 0.0684(6) Uani 1 4 d S . .
O1 O 0.7791(3) 0.7582(2) 0.5232(3) 0.0636(16) Uani 1 1 d . . .
O2 O 0.7304(3) 0.7014(3) 0.7875(3) 0.0577(15) Uani 1 1 d . . .
O3 O 0.7121(3) 0.8507(3) 0.4388(4) 0.086(2) Uani 1 1 d . . .
O4 O 0.6528(3) 0.6481(3) 0.8091(3) 0.0822(18) Uani 1 1 d . . .
O5 O 0.7303(2) 1.1361(3) 0.6161(3) 0.0574(15) Uani 1 1 d . . .
O6 O 0.8022(3) 1.1057(3) 0.5409(3) 0.074(2) Uani 1 1 d . . .
O7 O 0.7980(3) 0.8902(3) 0.4622(4) 0.079(2) Uani 1 1 d . . .
O8 O 0.7332(3) 0.7215(2) 0.4234(3) 0.0601(15) Uani 1 1 d . . .
O9 O 0.5532(3) 0.5444(3) 0.5907(4) 0.0733(16) Uani 1 1 d . . .
O10 O 0.5780(3) 0.5640(3) 0.4731(4) 0.082(2) Uani 1 1 d . . .
O11 O 0.5721(3) 1.0069(3) 0.6905(5) 0.081(2) Uani 1 1 d . . .
O12 O 0.5456(3) 0.9290(3) 0.6174(5) 0.092(2) Uani 1 1 d . . .
C1 C 0.6350(4) 0.6096(3) 0.5735(4) 0.053(2) Uani 1 1 d . . .
C2 C 0.6418(4) 0.6177(4) 0.6509(6) 0.073(3) Uani 1 1 d . . .
H2A H 0.6184 0.5968 0.6854 0.088 Uiso 1 1 calc R . .
C3 C 0.7420(4) 0.7238(3) 0.4942(5) 0.055(2) Uani 1 1 d . . .
C4 C 0.6841(4) 0.6575(4) 0.6789(4) 0.058(2) Uani 1 1 d . . .
C5 C 0.6659(4) 0.6408(4) 0.5231(5) 0.066(2) Uani 1 1 d . . .
H5A H 0.6599 0.6349 0.4705 0.079 Uiso 1 1 calc R . .
C6 C 0.7186(4) 0.6894(4) 0.6278(5) 0.063(2) Uani 1 1 d . . .
H6A H 0.7480 0.7144 0.6458 0.075 Uiso 1 1 calc R . .
C7 C 0.5827(5) 0.5707(4) 0.5480(5) 0.069(3) Uani 1 1 d . . .
C8 C 0.7079(4) 0.6831(4) 0.5477(5) 0.065(2) Uani 1 1 d . . .
C9 C 0.7214(4) 1.0372(3) 0.5706(5) 0.065(2) Uani 1 1 d . . .
C10 C 0.6708(4) 1.0296(4) 0.6048(5) 0.064(2) Uani 1 1 d . . .
H10A H 0.6557 1.0598 0.6353 0.077 Uiso 1 1 calc R . .
C11 C 0.6592(4) 0.9323(4) 0.5470(6) 0.073(3) Uani 1 1 d . . .
H11A H 0.6373 0.8989 0.5357 0.087 Uiso 1 1 calc R . .
C12 C 0.7148(4) 0.9395(4) 0.5137(6) 0.077(3) Uani 1 1 d . . .
C13 C 0.6364(4) 0.9745(4) 0.5966(6) 0.074(3) Uani 1 1 d . . .
C14 C 0.7484(4) 0.9919(3) 0.5227(5) 0.066(2) Uani 1 1 d . . .
H14A H 0.7850 0.9970 0.4996 0.079 Uiso 1 1 calc R . .
C15 C 0.7456(5) 0.8918(4) 0.4609(6) 0.077(3) Uani 1 1 d . . .
C16 C 0.5779(5) 0.9684(6) 0.6362(7) 0.089(3) Uiso 1 1 d . . .
C17 C 0.7516(4) 1.0945(5) 0.5794(5) 0.075(3) Uani 1 1 d . . .
C18 C 0.6889(6) 0.6708(4) 0.7635(6) 0.084(3) Uani 1 1 d . . .

loop_
_atom_site_aniso_label
_atom_site_aniso_U_11
_atom_site_aniso_U_22
_atom_site_aniso_U_33
_atom_site_aniso_U_23
_atom_site_aniso_U_13
_atom_site_aniso_U_12
In1 0.0526(4) 0.0540(4) 0.0449(3) -0.0105(3) 0.0008(3) -0.0014(3)
In2 0.0491(4) 0.0491(4) 0.0597(7) 0.000 0.000 0.000
Zn1 0.0467(7) 0.0467(7) 0.1117(18) 0.000 0.000 0.000
O1 0.074(4) 0.056(3) 0.061(4) -0.011(3) 0.001(3) -0.013(3)
O2 0.077(4) 0.059(3) 0.037(3) 0.002(3) 0.005(3) 0.007(3)
O3 0.111(5) 0.071(4) 0.076(5) -0.029(4) -0.024(4) 0.013(4)
O4 0.079(5) 0.107(5) 0.060(4) 0.007(4) -0.007(4) -0.021(4)
O5 0.055(3) 0.062(4) 0.055(4) -0.021(3) 0.010(3) 0.001(3)
O6 0.074(4) 0.094(5) 0.056(4) -0.038(3) 0.036(3) -0.029(3)
O7 0.073(5) 0.055(4) 0.108(6) 0.007(3) 0.025(4) -0.007(3)
O8 0.080(4) 0.054(3) 0.047(4) -0.013(3) 0.016(3) -0.020(3)
O9 0.057(4) 0.103(5) 0.060(3) 0.015(4) -0.012(3) -0.021(3)
O10 0.072(4) 0.091(5) 0.082(5) 0.010(4) -0.009(3) -0.034(3)
O11 0.054(4) 0.061(4) 0.129(6) -0.009(4) 0.019(4) -0.007(3)
O12 0.062(4) 0.075(4) 0.140(7) -0.004(4) 0.005(4) -0.021(3)
C1 0.067(5) 0.046(4) 0.047(5) -0.004(4) -0.009(4) -0.012(4)
C2 0.090(7) 0.061(6) 0.069(6) 0.005(5) -0.001(5) 0.005(5)
C3 0.062(5) 0.055(5) 0.049(5) 0.012(4) 0.013(4) 0.004(4)
C4 0.074(6) 0.068(6) 0.032(4) 0.000(4) 0.013(4) -0.020(5)
C5 0.067(6) 0.068(6) 0.063(6) -0.011(5) -0.011(5) -0.017(5)
C6 0.055(5) 0.076(6) 0.057(5) -0.022(5) -0.014(4) -0.007(4)
C7 0.097(8) 0.076(7) 0.035(5) -0.006(5) -0.001(5) -0.031(6)
C8 0.061(6) 0.068(6) 0.067(5) -0.004(4) -0.017(5) -0.003(4)
C9 0.072(6) 0.040(5) 0.084(7) -0.008(4) 0.001(5) 0.003(4)
C10 0.063(6) 0.055(5) 0.075(6) -0.030(5) 0.015(5) 0.004(4)
C11 0.057(6) 0.050(5) 0.110(8) 0.010(5) -0.024(6) 0.003(4)
C12 0.073(7) 0.071(6) 0.088(7) -0.011(5) 0.016(6) 0.017(5)
C13 0.054(5) 0.080(6) 0.089(7) -0.018(6) 0.022(5) 0.004(5)
C14 0.076(6) 0.044(5) 0.077(7) 0.002(4) 0.006(5) -0.009(4)
C15 0.085(8) 0.063(6) 0.084(7) -0.003(5) -0.033(6) 0.017(6)
C17 0.092(7) 0.083(7) 0.050(6) 0.025(5) 0.010(5) -0.016(6)
C18 0.114(9) 0.044(5) 0.093(7) 0.029(5) -0.023(8) -0.015(6)

_geom_special_details            
;
All esds (except the esd in the dihedral angle between two l.s. planes)
are estimated using the full covariance matrix. The cell esds are taken
into account individually in the estimation of esds in distances, angles
and torsion angles; correlations between esds in cell parameters are only
used when they are defined by crystal symmetry. An approximate (isotropic)
treatment of cell esds is used for estimating esds involving l.s. planes.
;

loop_
_geom_bond_atom_site_label_1
_geom_bond_atom_site_label_2
_geom_bond_distance
_geom_bond_site_symmetry_2
_geom_bond_publ_flag
In1 O5 2.200(5) 4_756 ?
In1 O2 2.208(5) 6_664 ?
In1 O1 2.240(6) . ?
In1 O7 2.251(6) . ?
In1 O6 2.326(6) 4_756 ?
In1 O8 2.344(5) . ?
In1 O3 2.351(7) . ?
In1 O4 2.358(6) 6_664 ?
In1 C15 2.581(10) . ?
In1 C3 2.619(8) . ?
In1 C18 2.617(11) 6_664 ?
In1 C17 2.658(10) 4_756 ?
In2 O9 2.223(6) . ?
In2 O9 2.223(6) 3_566 ?
In2 O9 2.223(6) 4_656 ?
In2 O9 2.223(6) 2_665 ?
In2 O10 2.339(6) 2_665 ?
In2 O10 2.339(6) . ?
In2 O10 2.339(6) 4_656 ?
In2 O10 2.339(6) 3_566 ?
In2 C7 2.608(9) . ?
In2 C7 2.608(9) 3_566 ?
In2 C7 2.608(9) 4_656 ?
In2 C7 2.608(9) 2_665 ?
Zn1 O11 1.941(6) 2_675 ?
Zn1 O11 1.941(6) 8_656 ?
Zn1 O11 1.941(6) . ?
Zn1 O11 1.941(6) 7_466 ?
O1 C3 1.253(10) . ?
O2 C18 1.243(11) . ?
O2 In1 2.208(5) 6_665 ?
O3 C15 1.265(12) . ?
O4 C18 1.250(12) . ?
O4 In1 2.358(6) 6_665 ?
O5 C17 1.237(11) . ?
O5 In1 2.200(5) 3_576 ?
O6 C17 1.353(11) . ?
O6 In1 2.326(6) 3_576 ?
O7 C15 1.191(11) . ?
O8 C3 1.244(10) . ?
O9 C7 1.164(10) . ?
O10 C7 1.310(10) . ?
O11 C16 1.291(13) . ?
O12 C16 1.203(13) . ?
C1 C5 1.325(11) . ?
C1 C2 1.360(12) . ?
C1 C7 1.545(11) . ?
C2 C4 1.407(13) . ?
C3 C8 1.521(12) . ?
C4 C6 1.386(12) . ?
C4 C18 1.497(14) . ?
C5 C8 1.418(12) . ?
C6 C8 1.416(12) . ?
C9 C10 1.306(12) . ?
C9 C14 1.456(12) . ?
C9 C17 1.479(13) . ?
C10 C13 1.483(12) . ?
C11 C13 1.388(13) . ?
C11 C12 1.398(13) . ?
C12 C14 1.423(13) . ?
C12 C15 1.580(14) . ?
C13 C16 1.500(14) . ?
C17 In1 2.658(10) 3_576 ?
C18 In1 2.617(11) 6_665 ?

loop_
_geom_angle_atom_site_label_1
_geom_angle_atom_site_label_2
_geom_angle_atom_site_label_3
_geom_angle
_geom_angle_site_symmetry_1
_geom_angle_site_symmetry_3
_geom_angle_publ_flag
O5 In1 O2 90.4(2) 4_756 6_664 ?
O5 In1 O1 90.4(2) 4_756 . ?
O2 In1 O1 140.5(2) 6_664 . ?
O5 In1 O7 138.1(2) 4_756 . ?
O2 In1 O7 113.5(3) 6_664 . ?
O1 In1 O7 91.2(2) . . ?
O5 In1 O6 58.07(19) 4_756 4_756 ?
O2 In1 O6 129.7(2) 6_664 4_756 ?
O1 In1 O6 82.6(2) . 4_756 ?
O7 In1 O6 80.7(2) . 4_756 ?
O5 In1 O8 84.4(2) 4_756 . ?
O2 In1 O8 84.0(2) 6_664 . ?
O1 In1 O8 56.8(2) . . ?
O7 In1 O8 129.8(2) . . ?
O6 In1 O8 124.9(2) 4_756 . ?
O5 In1 O3 163.4(2) 4_756 . ?
O2 In1 O3 87.6(2) 6_664 . ?
O1 In1 O3 80.8(2) . . ?
O7 In1 O3 56.7(2) . . ?
O6 In1 O3 133.5(2) 4_756 . ?
O8 In1 O3 79.0(2) . . ?
O5 In1 O4 84.7(2) 4_756 6_664 ?
O2 In1 O4 56.7(2) 6_664 6_664 ?
O1 In1 O4 162.3(2) . 6_664 ?
O7 In1 O4 81.3(2) . 6_664 ?
O6 In1 O4 80.4(2) 4_756 6_664 ?
O8 In1 O4 139.0(2) . 6_664 ?
O3 In1 O4 107.7(3) . 6_664 ?
O5 In1 C15 164.9(3) 4_756 . ?
O2 In1 C15 101.4(3) 6_664 . ?
O1 In1 C15 86.4(3) . . ?
O7 In1 C15 27.5(3) . . ?
O6 In1 C15 106.8(3) 4_756 . ?
O8 In1 C15 105.9(3) . . ?
O3 In1 C15 29.2(3) . . ?
O4 In1 C15 93.9(3) 6_664 . ?
O5 In1 C3 88.2(2) 4_756 . ?
O2 In1 C3 112.1(3) 6_664 . ?
O1 In1 C3 28.5(2) . . ?
O7 In1 C3 111.3(3) . . ?
O6 In1 C3 105.4(3) 4_756 . ?
O8 In1 C3 28.3(2) . . ?
O3 In1 C3 77.3(3) . . ?
O4 In1 C3 166.5(3) 6_664 . ?
C15 In1 C3 95.9(3) . . ?
O5 In1 C18 85.7(3) 4_756 6_664 ?
O2 In1 C18 28.3(3) 6_664 6_664 ?
O1 In1 C18 167.8(3) . 6_664 ?
O7 In1 C18 99.4(3) . 6_664 ?
O6 In1 C18 105.0(3) 4_756 6_664 ?
O8 In1 C18 111.2(3) . 6_664 ?
O3 In1 C18 100.0(3) . 6_664 ?
O4 In1 C18 28.5(3) 6_664 6_664 ?
C15 In1 C18 100.2(3) . 6_664 ?
C3 In1 C18 139.5(3) . 6_664 ?
O5 In1 C17 27.5(2) 4_756 4_756 ?
O2 In1 C17 110.2(3) 6_664 4_756 ?
O1 In1 C17 86.9(3) . 4_756 ?
O7 In1 C17 110.9(3) . 4_756 ?
O6 In1 C17 30.6(3) 4_756 4_756 ?
O8 In1 C17 105.1(3) . 4_756 ?
O3 In1 C17 162.0(3) . 4_756 ?
O4 In1 C17 81.0(3) 6_664 4_756 ?
C15 In1 C17 137.4(3) . 4_756 ?
C3 In1 C17 97.8(3) . 4_756 ?
C18 In1 C17 94.9(3) 6_664 4_756 ?
O9 In2 O9 119.90(19) . 3_566 ?
O9 In2 O9 119.90(19) . 4_656 ?
O9 In2 O9 90.2(3) 3_566 4_656 ?
O9 In2 O9 90.2(3) . 2_665 ?
O9 In2 O9 119.90(19) 3_566 2_665 ?
O9 In2 O9 119.90(19) 4_656 2_665 ?
O9 In2 O10 146.6(2) . 2_665 ?
O9 In2 O10 82.2(2) 3_566 2_665 ?
O9 In2 O10 81.6(3) 4_656 2_665 ?
O9 In2 O10 56.4(2) 2_665 2_665 ?
O9 In2 O10 56.4(2) . . ?
O9 In2 O10 81.6(3) 3_566 . ?
O9 In2 O10 82.2(2) 4_656 . ?
O9 In2 O10 146.6(2) 2_665 . ?
O10 In2 O10 157.0(3) 2_665 . ?
O9 In2 O10 81.6(3) . 4_656 ?
O9 In2 O10 146.6(2) 3_566 4_656 ?
O9 In2 O10 56.4(2) 4_656 4_656 ?
O9 In2 O10 82.2(2) 2_665 4_656 ?
O10 In2 O10 92.28(6) 2_665 4_656 ?
O10 In2 O10 92.28(6) . 4_656 ?
O9 In2 O10 82.2(2) . 3_566 ?
O9 In2 O10 56.4(2) 3_566 3_566 ?
O9 In2 O10 146.6(2) 4_656 3_566 ?
O9 In2 O10 81.6(3) 2_665 3_566 ?
O10 In2 O10 92.28(6) 2_665 3_566 ?
O10 In2 O10 92.28(6) . 3_566 ?
O10 In2 O10 157.0(3) 4_656 3_566 ?
O9 In2 C7 26.4(2) . . ?
O9 In2 C7 103.5(3) 3_566 . ?
O9 In2 C7 102.5(3) 4_656 . ?
O9 In2 C7 116.5(3) 2_665 . ?
O10 In2 C7 172.8(3) 2_665 . ?
O10 In2 C7 30.1(2) . . ?
O10 In2 C7 85.3(3) 4_656 . ?
O10 In2 C7 87.5(3) 3_566 . ?
O9 In2 C7 102.5(3) . 3_566 ?
O9 In2 C7 26.4(2) 3_566 3_566 ?
O9 In2 C7 116.5(3) 4_656 3_566 ?
O9 In2 C7 103.5(3) 2_665 3_566 ?
O10 In2 C7 87.5(3) 2_665 3_566 ?
O10 In2 C7 85.3(3) . 3_566 ?
O10 In2 C7 172.8(3) 4_656 3_566 ?
O10 In2 C7 30.1(2) 3_566 3_566 ?
C7 In2 C7 95.81(12) . 3_566 ?
O9 In2 C7 103.5(3) . 4_656 ?
O9 In2 C7 116.5(3) 3_566 4_656 ?
O9 In2 C7 26.4(2) 4_656 4_656 ?
O9 In2 C7 102.5(3) 2_665 4_656 ?
O10 In2 C7 85.3(3) 2_665 4_656 ?
O10 In2 C7 87.5(3) . 4_656 ?
O10 In2 C7 30.1(2) 4_656 4_656 ?
O10 In2 C7 172.8(3) 3_566 4_656 ?
C7 In2 C7 95.81(12) . 4_656 ?
C7 In2 C7 142.9(4) 3_566 4_656 ?
O9 In2 C7 116.5(3) . 2_665 ?
O9 In2 C7 102.5(3) 3_566 2_665 ?
O9 In2 C7 103.5(3) 4_656 2_665 ?
O9 In2 C7 26.4(2) 2_665 2_665 ?
O10 In2 C7 30.1(2) 2_665 2_665 ?
O10 In2 C7 172.8(3) . 2_665 ?
O10 In2 C7 87.5(3) 4_656 2_665 ?
O10 In2 C7 85.3(3) 3_566 2_665 ?
C7 In2 C7 142.9(4) . 2_665 ?
C7 In2 C7 95.81(12) 3_566 2_665 ?
C7 In2 C7 95.81(12) 4_656 2_665 ?
O11 Zn1 O11 106.3(2) 2_675 8_656 ?
O11 Zn1 O11 116.0(4) 2_675 . ?
O11 Zn1 O11 106.3(2) 8_656 . ?
O11 Zn1 O11 106.3(2) 2_675 7_466 ?
O11 Zn1 O11 116.0(4) 8_656 7_466 ?
O11 Zn1 O11 106.3(2) . 7_466 ?
C3 O1 In1 92.8(5) . . ?
C18 O2 In1 94.5(6) . 6_665 ?
C15 O3 In1 85.5(6) . . ?
C18 O4 In1 87.3(6) . 6_665 ?
C17 O5 In1 97.3(5) . 3_576 ?
C17 O6 In1 88.4(5) . 3_576 ?
C15 O7 In1 91.9(6) . . ?
C3 O8 In1 88.2(5) . . ?
C7 O9 In2 95.7(5) . . ?
C7 O10 In2 86.4(5) . . ?
C16 O11 Zn1 114.7(7) . . ?
C5 C1 C2 121.0(8) . . ?
C5 C1 C7 121.7(7) . . ?
C2 C1 C7 116.5(8) . . ?
C1 C2 C4 120.3(9) . . ?
O8 C3 O1 122.0(7) . . ?
O8 C3 C8 119.4(8) . . ?
O1 C3 C8 118.6(8) . . ?
O8 C3 In1 63.4(4) . . ?
O1 C3 In1 58.7(4) . . ?
C8 C3 In1 176.0(6) . . ?
C6 C4 C2 120.1(7) . . ?
C6 C4 C18 118.5(8) . . ?
C2 C4 C18 121.1(8) . . ?
C1 C5 C8 121.4(8) . . ?
C4 C6 C8 118.4(8) . . ?
O9 C7 O10 121.4(8) . . ?
O9 C7 C1 123.8(7) . . ?
O10 C7 C1 114.4(8) . . ?
O9 C7 In2 58.0(5) . . ?
O10 C7 In2 63.5(4) . . ?
C1 C7 In2 175.8(7) . . ?
C6 C8 C5 118.6(9) . . ?
C6 C8 C3 116.5(8) . . ?
C5 C8 C3 124.9(8) . . ?
C10 C9 C14 122.4(8) . . ?
C10 C9 C17 118.6(8) . . ?
C14 C9 C17 119.0(8) . . ?
C9 C10 C13 122.2(7) . . ?
C13 C11 C12 120.9(9) . . ?
C11 C12 C14 122.4(8) . . ?
C11 C12 C15 123.9(9) . . ?
C14 C12 C15 113.6(8) . . ?
C11 C13 C16 123.4(9) . . ?
C11 C13 C10 116.4(8) . . ?
C16 C13 C10 120.0(9) . . ?
C12 C14 C9 115.4(8) . . ?
O7 C15 O3 125.8(9) . . ?
O7 C15 C12 116.9(9) . . ?
O3 C15 C12 114.5(10) . . ?
O7 C15 In1 60.6(5) . . ?
O3 C15 In1 65.2(5) . . ?
C12 C15 In1 165.0(7) . . ?
O12 C16 O11 129.6(11) . . ?
O12 C16 C13 119.1(11) . . ?
O11 C16 C13 111.1(10) . . ?
O5 C17 O6 116.2(8) . . ?
O5 C17 C9 122.9(9) . . ?
O6 C17 C9 120.6(9) . . ?
O5 C17 In1 55.2(4) . 3_576 ?
O6 C17 In1 61.0(4) . 3_576 ?
C9 C17 In1 176.3(7) . 3_576 ?
O2 C18 O4 121.2(10) . . ?
O2 C18 C4 119.6(9) . . ?
O4 C18 C4 119.1(9) . . ?
O2 C18 In1 57.3(5) . 6_665 ?
O4 C18 In1 64.2(6) . 6_665 ?
C4 C18 In1 176.4(7) . 6_665 ?

_diffrn_measured_fraction_theta_max 1.000
_diffrn_reflns_theta_full        22.43
_diffrn_measured_fraction_theta_full 1.000
_refine_diff_density_max         0.569
_refine_diff_density_min         -0.471
_refine_diff_density_rms         0.074


