
#######################################################################
#
#                 Cambridge Crystallographic Data Centre
#                                CCDC
#
#######################################################################
#
# If this CIF has been generated from an entry in the Cambridge
# Structural Database, then it will include bibliographic, chemical,
# crystal, experimental, refinement or atomic coordinate data resulting
# from the CCDC's data processing and validation procedures.
#
#######################################################################

data_CSD_CIF_WECQOL
_audit_creation_date 2006-07-12
_audit_creation_method CSD-ConQuest-V1
_database_code_CSD WECQOL
_database_code_depnum_ccdc_archive 'CCDC 289347'
_chemical_formula_sum 'C14 H17 I2 N1 Te1'
_chemical_formula_moiety
;
C5 H6 N1 1+,C9 H11 I2 Te1 1-
;
_journal_coden_Cambridge 29
_journal_volume 632
_journal_year 2006
_journal_page_first 659
_journal_name_full 'Z.Anorg.Allg.Chem. '
loop_
_publ_author_name
"G.M.de Oliveira"
"E.Faoro"
"E.S.Lang"
"G.A.Casagrande"
_chemical_name_systematic
;
Pyridinium di-iodo-(2,4,6-trimethylphenyl)-tellurium(ii)
;
_chemical_name_common
;
Teaching Subset: Fundamental Chemistry, Symmetry
;
_chemical_melting_point 416.1
_cell_volume   1738.101
_exptl_crystal_colour 'black'
_exptl_crystal_density_diffrn 2.219
_exptl_special_details
;
Melting point range 416.1-417.9K
fairly hygroscopic

;
_exptl_crystal_description 'block'
_diffrn_ambient_temperature 293
#These two values have been output from a single CSD field.
_refine_ls_R_factor_gt 0.0335
_refine_ls_wR_factor_gt 0.0335
_symmetry_cell_setting monoclinic
_symmetry_space_group_name_H-M 'P 21/n'
_symmetry_Int_Tables_number 14
loop_
_symmetry_equiv_pos_site_id
_symmetry_equiv_pos_as_xyz
1 x,y,z
2 1/2-x,1/2+y,1/2-z
3 -x,-y,-z
4 -1/2+x,-1/2-y,-1/2+z
_cell_length_a 8.728(5)
_cell_length_b 14.704(5)
_cell_length_c 13.799(5)
_cell_angle_alpha 90
_cell_angle_beta 101.047(5)
_cell_angle_gamma 90
_cell_formula_units_Z 4
loop_
_atom_type_symbol
_atom_type_radius_bond
C 0.68
H 0.23
I 1.40
N 0.68
Te 1.82
loop_
_atom_site_label
_atom_site_type_symbol
_atom_site_fract_x
_atom_site_fract_y
_atom_site_fract_z
N1 N 0.8522(9) -0.1778(4) 1.0461(4)
H1 H 0.89990 -0.12740 1.04050
C1 C 0.7042(7) -0.3333(4) 1.0618(4)
H2 H 0.65230 -0.38810 1.06530
C2 C 0.6312(7) -0.2563(5) 1.0713(4)
H3 H 0.53040 -0.25750 1.08400
C3 C 0.9243(7) -0.2539(6) 1.0387(5)
H4 H 1.02600 -0.25350 1.02740
C4 C 0.7017(10) -0.1753(5) 1.0627(4)
H5 H 0.65060 -0.12050 1.06770
C5 C 0.8508(8) -0.3343(5) 1.0474(5)
H6 H 0.90220 -0.38920 1.04330
Te1 Te 0.81731(3) 0.004192(15) 0.806873(19)
I1 I 0.78429(4) 0.07646(2) 1.00886(2)
I2 I 0.81000(4) -0.05884(2) 0.60709(2)
C6 C 0.5910(4) 0.0592(2) 0.7561(2)
C7 C 0.5747(4) 0.1504(2) 0.7227(3)
C8 C 0.4597(4) 0.0050(2) 0.7557(3)
C9 C 0.3123(4) 0.0426(2) 0.7224(3)
H7 H 0.22450 0.00690 0.72320
C10 C 0.2922(4) 0.1307(3) 0.6885(3)
C11 C 0.4248(4) 0.1839(2) 0.6894(3)
H8 H 0.41260 0.24370 0.66710
C12 C 0.4716(5) -0.0925(3) 0.7905(4)
H9 H 0.57930 -0.10810 0.81320
H10 H 0.42720 -0.13180 0.73690
H11 H 0.41580 -0.09970 0.84360
C13 C 0.7138(5) 0.2123(3) 0.7239(4)
H12 H 0.80800 0.18010 0.75120
H13 H 0.70430 0.26480 0.76370
H14 H 0.71730 0.23100 0.65780
C14 C 0.1326(5) 0.1695(3) 0.6547(4)
H15 H 0.14110 0.23210 0.63660
H16 H 0.07490 0.16540 0.70720
H17 H 0.07940 0.13590 0.59860
#END
