
#######################################################################
#
#                 Cambridge Crystallographic Data Centre
#                                CCDC
#
#######################################################################
#
# If this CIF has been generated from an entry in the Cambridge
# Structural Database, then it will include bibliographic, chemical,
# crystal, experimental, refinement or atomic coordinate data resulting
# from the CCDC's data processing and validation procedures.
#
#######################################################################

data_CSD_CIF_WECQIF
_audit_creation_date 2006-07-12
_audit_creation_method CSD-ConQuest-V1
_database_code_CSD WECQIF
_database_code_depnum_ccdc_archive 'CCDC 289346'
_chemical_formula_sum 'C14 H17 Br1 I1 N1 Te1'
_chemical_formula_moiety
;
C5 H6 N1 1+,C9 H11 Br1 I1 Te1 1-
;
_journal_coden_Cambridge 29
_journal_volume 632
_journal_year 2006
_journal_page_first 659
_journal_name_full 'Z.Anorg.Allg.Chem. '
loop_
_publ_author_name
"G.M.de Oliveira"
"E.Faoro"
"E.S.Lang"
"G.A.Casagrande"
_chemical_name_systematic
;
Pyridinium bromo-iodo-(2,4,6-trimethylphenyl)-tellurium(ii)
;
_chemical_name_common
;
Teaching Subset: Fundamental Chemistry
;
_chemical_melting_point 427.2
_cell_volume   1692.700
_exptl_crystal_colour 'red'
_exptl_crystal_density_diffrn 2.094
_exptl_special_details
;
Melting point range 427.2-428.8K
hygroscopic

;
_exptl_crystal_description 'prismatic'
_exptl_crystal_preparation 'dichloromethane'
_diffrn_ambient_temperature 293
#These two values have been output from a single CSD field.
_refine_ls_R_factor_gt 0.0449
_refine_ls_wR_factor_gt 0.0449
_symmetry_cell_setting monoclinic
_symmetry_space_group_name_H-M 'P 21/n'
_symmetry_Int_Tables_number 14
loop_
_symmetry_equiv_pos_site_id
_symmetry_equiv_pos_as_xyz
1 x,y,z
2 1/2-x,1/2+y,1/2-z
3 -x,-y,-z
4 -1/2+x,-1/2-y,-1/2+z
_cell_length_a 8.6507(2)
_cell_length_b 14.6145(4)
_cell_length_c 13.6002(4)
_cell_angle_alpha 90
_cell_angle_beta 100.113(1)
_cell_angle_gamma 90
_cell_formula_units_Z 4
loop_
_atom_type_symbol
_atom_type_radius_bond
C 0.68
H 0.23
Br 1.21
I 1.40
N 0.68
Te 1.47
loop_
_atom_site_label
_atom_site_type_symbol
_atom_site_fract_x
_atom_site_fract_y
_atom_site_fract_z
Te1 Te -0.32056(7) 0.49364(4) 0.19199(5)
I1 I -0.31676(11) 0.55358(7) 0.38977(7)
Br1 Br -0.28963(12) 0.42564(8) -0.00616(8)
C1 C 0.2037(11) 0.3646(7) 0.3134(7)
C2 C 0.1851(10) 0.4536(6) 0.2783(7)
H1 H 0.27360 0.48990 0.27910
C3 C -0.0925(9) 0.4359(6) 0.2419(6)
C4 C 0.3634(12) 0.3245(8) 0.3539(10)
H2 H 0.44310 0.36940 0.34970
H3 H 0.38080 0.27170 0.31530
H4 H 0.36770 0.30700 0.42230
C5 C 0.0288(12) 0.5881(7) 0.2053(9)
H5 H 0.13270 0.61330 0.21320
H6 H -0.03300 0.62350 0.24360
H7 H -0.01900 0.58970 0.13610
C6 C 0.0377(11) 0.4902(6) 0.2419(7)
C7 C 0.0701(10) 0.3121(6) 0.3109(7)
H8 H 0.08080 0.25190 0.33340
C8 C -0.0803(10) 0.3462(6) 0.2757(7)
C9 C -0.2193(12) 0.2857(7) 0.2765(10)
H9 H -0.18460 0.22700 0.30350
H10 H -0.27540 0.27830 0.20960
H11 H -0.28720 0.31300 0.31710
N1 N -0.6464(18) 0.3293(7) 0.0431(7)
H12 H -0.60020 0.38050 0.03670
C10 C -0.8006(18) 0.3284(7) 0.0593(7)
H13 H -0.85380 0.38320 0.06330
C11 C -0.8752(10) 0.2456(9) 0.0697(6)
H14 H -0.97840 0.24500 0.08060
C12 C -0.7956(13) 0.1637(6) 0.0638(7)
H15 H -0.84550 0.10830 0.07080
C13 C -0.6414(12) 0.1646(7) 0.0476(8)
H16 H -0.58810 0.10980 0.04360
C14 C -0.5668(10) 0.2474(11) 0.0372(7)
H17 H -0.46360 0.24800 0.02630
#END
