
#######################################################################
#
#                 Cambridge Crystallographic Data Centre
#                                CCDC
#
#######################################################################
#
# If this CIF has been generated from an entry in the Cambridge
# Structural Database, then it will include bibliographic, chemical,
# crystal, experimental, refinement or atomic coordinate data resulting
# from the CCDC's data processing and validation procedures.
#
#######################################################################

data_CSD_CIF_WEFWIO
_audit_creation_date 2006-07-12
_audit_creation_method CSD-ConQuest-V1
_database_code_CSD WEFWIO
_database_code_depnum_ccdc_archive 'CCDC 605104'
_chemical_formula_sum 'C6 H12 N9 Nd1 O16'
_chemical_formula_moiety
;
2(C3 H5 N2 1+),H2 N5 Nd1 O16 2-
;
_journal_coeditor_code "IUCr JH2003"
_journal_coden_Cambridge 1370
_journal_volume 62
_journal_year 2006
_journal_page_first m854
_journal_name_full 'Acta Crystallogr.,Sect.E:Struct.Rep.Online '
loop_
_publ_author_name
"Hui Zhang"
"Yanmei Wu"
"Liang Fang"
_chemical_name_systematic
;
Diimidazolium aqua-pentakis(nitrato-O,O')-neodymium(iii)
;
_chemical_name_common
;
Teaching Subset: Fundamental Chemistry
;
_cell_volume    937.986
_exptl_crystal_colour 'pink'
_exptl_crystal_density_diffrn 2.162
_exptl_crystal_description 'block'
_diffrn_ambient_temperature 293
#These two values have been output from a single CSD field.
_refine_ls_R_factor_gt 0.0166
_refine_ls_wR_factor_gt 0.0166
_symmetry_cell_setting triclinic
_symmetry_space_group_name_H-M 'P -1'
_symmetry_Int_Tables_number 2
loop_
_symmetry_equiv_pos_site_id
_symmetry_equiv_pos_as_xyz
1 x,y,z
2 -x,-y,-z
_cell_length_a 7.3817(15)
_cell_length_b 7.8831(16)
_cell_length_c 18.073(4)
_cell_angle_alpha 89.37(3)
_cell_angle_beta 89.49(3)
_cell_angle_gamma 63.12(3)
_cell_formula_units_Z 2
loop_
_atom_type_symbol
_atom_type_radius_bond
C 0.68
H 0.23
N 0.68
Nd 1.81
O 0.68
loop_
_atom_site_label
_atom_site_type_symbol
_atom_site_fract_x
_atom_site_fract_y
_atom_site_fract_z
Nd1 Nd 0.477860(12) 1.002765(11) 0.248957(4)
O1 O 0.6326(2) 1.14471(19) 0.15480(7)
O2 O 0.7173(2) 1.16715(19) 0.26625(7)
O3 O 0.5697(2) 0.80664(19) 0.12951(7)
O4 O 0.2969(2) 1.07185(18) 0.11996(7)
O5 O 0.74319(19) 0.85031(17) 0.35118(7)
O6 O 0.85675(19) 0.75881(19) 0.24099(7)
O7 O 0.3958(2) 1.21289(19) 0.36785(8)
O8 O 0.2980(3) 0.9942(2) 0.36881(8)
O9 O 0.5429(2) 0.66103(18) 0.27963(7)
O10 O 0.2528(2) 0.83721(19) 0.22935(8)
O11 O 0.8358(2) 1.2693(2) 0.17505(8)
O12 O 0.3929(2) 0.8743(2) 0.02826(8)
O13 O 1.0380(2) 0.6089(2) 0.33600(8)
O14 O 0.2445(3) 1.1724(3) 0.46481(9)
O15 O 0.3675(2) 0.53176(19) 0.23114(9)
O16 O 0.1573(2) 1.2929(2) 0.24178(9)
N1 N 0.7317(2) 1.1955(2) 0.19868(8)
N2 N 0.4196(2) 0.9160(2) 0.09039(8)
N3 N 0.8838(2) 0.7378(2) 0.30978(8)
N4 N 0.3111(3) 1.1278(2) 0.40232(9)
N5 N 0.3866(2) 0.6724(2) 0.24690(8)
H1 H 0.130(4) 1.386(4) 0.2669(15)
H2 H 0.060(5) 1.293(4) 0.2236(15)
N6 N 0.9749(3) 0.2666(2) 1.01246(9)
H3 H 1.04100 0.20560 1.05090
N7 N 0.8879(3) 0.3409(3) 0.90047(9)
H4 H 0.88750 0.33670 0.85290
C1 C 1.0245(3) 0.2116(3) 0.94368(11)
H5 H 1.13600 0.10120 0.92830
C2 C 0.8017(3) 0.4359(3) 1.01335(12)
H6 H 0.73500 0.50510 1.05500
C3 C 0.7468(3) 0.4829(3) 0.94256(13)
H7 H 0.63480 0.59080 0.92550
N8 N 0.7331(3) 0.3535(3) 0.40304(10)
H8 H 0.71740 0.35530 0.35590
N9 N 0.7574(3) 0.4412(3) 0.51215(11)
H9 H 0.76190 0.50760 0.54890
C4 C 0.7269(4) 0.4968(3) 0.44279(13)
H10 H 0.70490 0.61540 0.42460
C5 C 0.7677(3) 0.2053(3) 0.44806(14)
H11 H 0.78000 0.08750 0.43390
C6 C 0.7811(4) 0.2575(3) 0.51593(12)
H12 H 0.80260 0.18400 0.55860
#END
