####################################################################### 
# 
# This file contains crystal structure data downloaded from the 
# Cambridge Structural Database (CSD) hosted by the Cambridge 
# Crystallographic Data Centre (CCDC).
# 
# Full information about CCDC data access policies and citation 
# guidelines are available at http://www.ccdc.cam.ac.uk/access/V1 
# 
# Audit and citation data items may have been added by the CCDC. 
# Please retain this information to preserve the provenance of 
# this file and to allow appropriate attribution of the data. 
# 
#######################################################################

data_NiBDPSO3H90C
_audit_block_doi                 10.5517/ccypf67
_database_code_depnum_ccdc_archive 'CCDC 884529'
loop_
_citation_id
_citation_doi
_citation_year
1 10.1021/ja305267m 2012
_audit_update_record             
;
2012-05-30 deposited with the CCDC.	2024-07-13 downloaded from the CCDC.
;

_chemical_name_systematic        
;
?
;
_chemical_name_common            ?
_chemical_formula_moiety         'C27 H25 N9 Ni O7 S2'
_chemical_formula_structural     'Ni1 (C12 H9 N4 S1 O3)2 (C3 H7 N1 O1)'
_chemical_formula_analytical     ?
_chemical_formula_iupac          ?
_chemical_formula_sum            'C27 H25 N9 Ni O7 S2'
_chemical_formula_weight         710.37
_chemical_melting_point          ?
_chemical_compound_source        ?

loop_
_atom_type_symbol
_atom_type_description
# _atom_type_scat_dispersion_real
# _atom_type_scat_dispersion_imag
_atom_type_scat_source

C C 'International Tables for Crystallography (Vol. IV)'
H H 'International Tables for Crystallography (Vol. IV)'
Ni Ni 'International Tables for Crystallography (Vol. IV)'
N N 'International Tables for Crystallography (Vol. IV)'
O O 'International Tables for Crystallography (Vol. IV)'
S S 'International Tables for Crystallography (Vol. IV)'

#==============================================================================

# 4. POWDER SPECIMEN AND CRYSTAL DATA

_space_group_crystal_system      monoclinic
_space_group_name_H-M_alt        P21/c
_space_group_name_Hall           ?

loop_
_symmetry_equiv_pos_as_xyz
'-x, -y, -z'
'-x, y+1/2, -z+1/2'
'x, -y+1/2, z+1/2'
'x, y, z'

_cell_length_a                   7.45297(44)
_cell_length_b                   15.0032(13)
_cell_length_c                   17.6120(26)
_cell_angle_alpha                90
_cell_angle_beta                 91.2922(55)
_cell_angle_gamma                90
_cell_volume                     1968.85(36)
_cell_formula_units_Z            2
_cell_measurement_temperature    363

_pd_calibration_special_details  
; ?
;
_cell_special_details            
; ?
;

_exptl_crystal_density_diffrn    1.21
_exptl_crystal_density_meas      ?
_exptl_crystal_density_method    'not measured'
_exptl_crystal_F_000             732

# The next three fields give the specimen dimensions in mm. The equatorial
# plane contains the incident and diffracted beam.
_pd_spec_size_axial              15 # perpendicular to
# equatorial plane

_pd_spec_size_equat              15 # parallel to
# scattering vector
# in transmission

_pd_spec_size_thick              0.15 # parallel to
# scattering vector
# in reflection

# The next five fields are character fields that describe the specimen.

_pd_spec_mounting                
;
packed powder pellet
;
_pd_spec_mount_mode              reflection # options are 'reflection'
# or 'transmission'

_pd_spec_shape                   flat_sheet # options are 'cylinder',
# 'flat_sheet' or 'irregular'

_pd_char_particle_morphology     plate-like
_pd_char_colour                  yellow # use ICDD colour descriptions



# The next four fields are normally only needed for transmission experiments.
_exptl_absorpt_coefficient_mu    ?
_exptl_absorpt_correction_type   ?
_exptl_absorpt_correction_T_min  ?
_exptl_absorpt_correction_T_max  ?

#==============================================================================

# 5. EXPERIMENTAL DATA

_exptl_special_details           
; ?
;

# This following item is used to identify the equipment used to record the
# powder pattern when the diffractogram was measured at a laboratory
# other than the authors' home institution, e.g. when neutron or synchrotron
# radiation is used.

_pd_instr_location               
; ?
;

_diffrn_ambient_temperature      363
_diffrn_source_target            Cu
_diffrn_source_type              'sealed X-ray tube'
_diffrn_measurement_device_type  'Bruker AXS D8 Advance'
_diffrn_detector_type            'Bruker Lynxeye linear PSD'
_pd_meas_scan_method             step # options are 'step', 'cont',
# 'tof', 'fixed' or
# 'disp' (= dispersive)
_pd_meas_special_details         
; ?
;

# The following six items are used for angular dispersive measurements only.

loop_
_diffrn_radiation_type
'Cu K\a'
_diffrn_radiation_wavelength     CuK\a~1~
_diffrn_radiation_monochromator  'Ni filter'

# The following four items give details of the measured (not processed)
# powder pattern. Angles are in degrees.

_pd_meas_number_of_points        3201
_pd_meas_2theta_range_min        6
_pd_meas_2theta_range_max        70
_pd_meas_2theta_range_inc        0.02

# The following three items are used for time-of-flight measurements only.

_pd_instr_dist_src/spec          ?
_pd_instr_dist_spec/detc         ?
_pd_meas_2theta_fixed            ?

# The following fields are used to identify the programs used.

_computing_data_collection       ?
_computing_cell_refinement       'TOPAS, Bruker AXS 2005, Karlsruhe, Germany'
_computing_data_reduction        ?
_computing_structure_solution    'TOPAS, Bruker AXS 2005, Karlsruhe, Germany'
_computing_structure_refinement  'TOPAS, Bruker AXS 2005, Karlsruhe, Germany'
_computing_molecular_graphics    ?
_computing_publication_material  'TOPAS, Bruker AXS 2005, Karlsruhe, Germany'

#==============================================================================

# 6. REFINEMENT DATA

# Use the next field to give any special details about the fitting of the
# powder pattern.

_pd_proc_ls_special_details      
; The use of a rigid body description for the crystallographically independent
portion of the 2,5-Di(1H-pyrazol-4-yl)benzenesulfonate
and for the dimethylformamide solvent does not allow
the derivation of statistically meaningful s.u.'s for their atoms.

S.u.'s are available only for the position of the center of mass (X, Y, Z),
for the rotational angles (RX, RY, RZ) and
for the rotation of some portions of the rigid body

1. 2,5-Di(1H-pyrazol-4-yl)benzenesulfonate

X, Y, Z 0.630(1), 0.2003(6), 0.7593(4)

RX, RY, RZ 39.8(1), -4.8(2), -46.8(2)

R(C2, S) -172(1), R(C4, C10) 77(1), R(C1 C7) 204(1)


for the rigid body described by (H = center of mass):

z_matrix H
z_matrix C1 H =r1;
z_matrix C2 C1 =r1; H 60
z_matrix S C2 =r9; C1 120 H 180
z_matrix O1 S =r5; C2 109.5 C1 109.5
z_matrix O2 S =r5; O1 109.5 C2 120
z_matrix O3 S =r5; O1 109.5 C2 -120
z_matrix C3 C2 =r1; C1 120 H 0
z_matrix H3 C3 =r2; C2 120 C1 180
z_matrix C4 C3 =r1; C2 120 C1 0
z_matrix C5 C4 =r1; C3 120 C2 0
z_matrix H5 C5 =r2; C4 120 C3 180
z_matrix C6 C5 =r1; C4 120 C3 0
z_matrix H6 C6 =r2; C5 120 C4 180
z_matrix C7 C1 =r3; C2 120 C3 180
z_matrix C8 C7 =r4; C1 126 C2 0
z_matrix H8 C8 =r2; C7 126 C1 0
z_matrix N1 C8 =r4; C7 108 C1 180
z_matrix H1N N1 =r2; C8 126 C7 180
z_matrix N2 N1 =r4; C8 108 C7 0
z_matrix C9 N2 =r4; N1 108 C8 0
z_matrix H9 C9 =r2; N2 126 N1 180
z_matrix C10 C4 =r3; C3 120 C2 180
z_matrix C11 C10 =r4; C4 126 C3 0
z_matrix H11 C11 =r2; C10 126 C4 0
z_matrix N3 C11 =r4; C10 108 C4 180
z_matrix N4 N3 =r4; C11 108 C10 0
z_matrix H4N N4 =r2; N3 126 C11 180
z_matrix C12 N4 =r4; N3 108 C11 0
z_matrix H12 C12 =r2; N4 126 N3 180


prm r1 1.39
prm r2 0.95
prm r3 1.45
prm r4 1.36
prm r5 1.52
prm r9 1.77

2. dimethylformamide

X, Y, Z 0.074(5), 0.914(3), 0.585(3)

RX, RY, RZ 238(2), -153(2), -23(2)

for the rigid body described by:


rigid
z_matrix Oa
z_matrix C11a Oa 1.25
z_matrix Ha C11a =r8; Oa 120
z_matrix N1a C11a =r6; Oa 120 Ha 180
z_matrix C21a N1a =r7; C11a 120 Oa 0
z_matrix C31a N1a =r7; C11a 120 Oa 180
z_matrix H21a C21a =r8; N1a 109.5 C11a 0
z_matrix H22a C21a =r8; N1a 109.5 C11a 120
z_matrix H23a C21a =r8; N1a 109.5 C11a 240
z_matrix H31a C31a =r8; N1a 109.5 C11a 0
z_matrix H32a C31a =r8; N1a 109.5 C11a 120
z_matrix H33a C31a =r8; N1a 109.5 C11a 240


prm r6 1.45
prm r7 1.50
prm r8 0.95
;

# The next three items are given as text
_pd_proc_ls_profile_function     'fundamental parameters approach'
_pd_proc_ls_background_function  'Chebychev polynomial'
_pd_proc_ls_pref_orient_corr     ?
_pd_proc_ls_prof_R_factor        0.019
_pd_proc_ls_prof_wR_factor       0.028
_pd_proc_ls_prof_wR_expected     0.007

_refine_special_details          
; ?
;

_refine_ls_structure_factor_coef Inet
_refine_ls_matrix_type           fullcycle
_refine_ls_weighting_scheme      1/[Y~i~]
_refine_ls_hydrogen_treatment    ?
_refine_ls_extinction_method     none
_refine_ls_extinction_coef       ?
_refine_ls_number_parameters     52
_refine_ls_number_restraints     0
_refine_ls_number_constraints    ?
# The following item is 'CHI squared'
_refine_ls_goodness_of_fit_all   ?

_refine_ls_restrained_S_all      ?
_refine_ls_restrained_S_obs      ?
_refine_ls_shift/su_max          .01
_refine_ls_shift/su_mean         ?


# The following four items apply to angular dispersive measurements.
# 2theta minimum, maximum and increment (in degrees) are for the
# intensities used in the refinement.
_pd_proc_2theta_range_min        6
_pd_proc_2theta_range_max        70
_pd_proc_2theta_range_inc        0.02

loop_
_pd_proc_wavelength
1.540562
1.544390

_pd_block_diffractogram_id       ? # The id used for the block
# containing the powder
# pattern profile (section 11).

# Give appropriate details in the next two text fields.
_pd_proc_info_excluded_regions   ?
_pd_proc_info_data_reduction     ?

#==============================================================================

# 7. ATOMIC COORDINATES AND DISPLACEMENT PARAMETERS

loop_
_atom_site_label
_atom_site_type_symbol
_atom_site_symmetry_multiplicity
_atom_site_fract_x
_atom_site_fract_y
_atom_site_fract_z
_atom_site_occupancy
_atom_site_B_iso_or_equiv
Ni1 Ni 2 0 0 0 1 3.70(37)
C1 C 4 0.5372282 0.16283 0.8189625 1 5.70(37)
C2 C 4 0.6941064 0.1231502 0.7943574 1 5.70(37)
S S 4 0.7753936 0.0249598 0.8389608 1 5.70(37)
O1 O 4 0.8212919 0.04440801 0.9218424 1 5.70(37)
O2 O 4 0.9425665 -0.006867724 0.7991883 1 5.70(37)
O3 O 4 0.6320633 -0.04701024 0.8340373 1 5.70(37)
C3 C 4 0.7871488 0.1605804 0.7347249 1 5.70(37)
H3 H 4 0.8943677 0.1334611 0.7179084 1 5.70(37)
C4 C 4 0.723313 0.2376904 0.6996974 1 5.70(37)
C5 C 4 0.5664349 0.2773702 0.7243025 1 5.70(37)
H5 H 4 0.5228061 0.3300713 0.7003628 1 5.70(37)
C6 C 4 0.4733925 0.23994 0.783935 1 5.70(37)
H6 H 4 0.3661736 0.2670593 0.8007515 1 5.70(37)
C7 C 4 0.4401696 0.1237842 0.8811692 1 5.70(37)
C8 C 4 0.4865645 0.1295053 0.9561364 1 5.70(37)
H8 H 4 0.5882528 0.1597851 0.9769413 1 5.70(37)
N1 N 4 0.361826 0.08426793 0.9960908 1 5.70(37)
H1N H 4 0.3610827 0.0774001 1.049705 1 5.70(37)
N2 N 4 0.2383384 0.05058857 0.9458167 1 5.70(37)
C9 C 4 0.2867574 0.07501097 0.8747912 1 5.70(37)
H9 H 4 0.22437 0.06054159 0.8287977 1 5.70(37)
C10 C 4 0.8203717 0.2767362 0.6374907 1 5.70(37)
C11 C 4 0.8132635 0.3634798 0.6152086 1 5.70(37)
H11 H 4 0.7438364 0.4091293 0.6376672 1 5.70(37)
N3 N 4 0.9229958 0.3733988 0.5551303 1 5.70(37)
N4 N 4 0.9979223 0.2927855 0.5402821 1 5.70(37)
H4N H 4 1.080131 0.280383 0.5012132 1 5.70(37)
C12 C 4 0.934497 0.2330448 0.5911836 1 5.70(37)
H12 H 4 0.9646233 0.1715849 0.5939136 1 5.70(37)
Oa O 4 0.07361929 0.9142688 0.5853804 0.5 5.70(37)
Ha H 4 0.1162546 1.011071 0.6539768 0.5 5.70(37)
N1a N 4 0.3603053 0.9742622 0.6064561 0.5 5.70(37)
C11a C 4 0.1690427 0.9706241 0.6194999 0.5 5.70(37)
C21a C 4 0.443655 0.9103994 0.552019 0.5 5.70(37)
H21a H 4 0.3536092 0.8722913 0.5310489 0.5 5.70(37)
H22a H 4 0.4983105 0.9427817 0.5123668 0.5 5.70(37)
H23a H 4 0.5319083 0.8756212 0.5781153 0.5 5.70(37)
C31a C 4 0.4748134 1.041889 0.6473995 0.5 5.70(37)
H31a H 4 0.4020946 1.076901 0.6794699 0.5 5.70(37)
H32a H 4 0.5642842 1.012248 0.6772224 0.5 5.70(37)
H33a H 4 0.5306864 1.079408 0.6114739 0.5 5.70(37)
_iucr_compatibility_tag          ?
