####################################################################### 
# 
# This file contains crystal structure data downloaded from the 
# Cambridge Structural Database (CSD) hosted by the Cambridge 
# Crystallographic Data Centre (CCDC).
# 
# Full information about CCDC data access policies and citation 
# guidelines are available at http://www.ccdc.cam.ac.uk/access/V1 
# 
# Audit and citation data items may have been added by the CCDC. 
# Please retain this information to preserve the provenance of 
# this file and to allow appropriate attribution of the data. 
# 
#######################################################################

data_e:\wmy\forli~1\icc\111122~1\1
_audit_block_doi                 10.5517/ccydw8g
_database_code_depnum_ccdc_archive 'CCDC 876316'
loop_
_citation_id
_citation_doi
_citation_year
1 10.1016/j.inoche.2012.05.038 2012
_audit_update_record             
;
2012-04-16 deposited with the CCDC.	2024-07-13 downloaded from the CCDC.
;
#TrackingRef 'Eu.cif'


_audit_creation_method           SHELXL-97
_chemical_name_systematic        
;
?
;
_chemical_name_common            ?
_chemical_melting_point          ?
_chemical_formula_moiety         'C12 H8 Eu N3 O9, C3 H7 N O '
_chemical_formula_sum            'C15 H15 Eu N4 O10'
_chemical_formula_weight         563.27

loop_
_atom_type_symbol
_atom_type_description
_atom_type_scat_dispersion_real
_atom_type_scat_dispersion_imag
_atom_type_scat_source
C C 0.0033 0.0016 'International Tables Vol C Tables 4.2.6.8 and 6.1.1.4'
H H 0.0000 0.0000 'International Tables Vol C Tables 4.2.6.8 and 6.1.1.4'
N N 0.0061 0.0033 'International Tables Vol C Tables 4.2.6.8 and 6.1.1.4'
O O 0.0106 0.0060 'International Tables Vol C Tables 4.2.6.8 and 6.1.1.4'
Eu Eu -0.1578 3.6682 'International Tables Vol C Tables 4.2.6.8 and 6.1.1.4'

_symmetry_cell_setting           monoclinic
_symmetry_space_group_name_H-M   P21/c
_symmetry_space_group_name_Hall  '-P 2ybc'

loop_
_symmetry_equiv_pos_as_xyz
'x, y, z'
'-x, y+1/2, -z+1/2'
'-x, -y, -z'
'x, -y-1/2, z-1/2'

_cell_length_a                   10.2031(10)
_cell_length_b                   17.5346(12)
_cell_length_c                   11.4588(11)
_cell_angle_alpha                90.00
_cell_angle_beta                 109.874(5)
_cell_angle_gamma                90.00
_cell_volume                     1928.0(3)
_cell_formula_units_Z            4
_cell_measurement_temperature    293(2)
_cell_measurement_reflns_used    5043
_cell_measurement_theta_min      2.1225
_cell_measurement_theta_max      27.4856

_exptl_crystal_description       Prism
_exptl_crystal_colour            Colorless
_exptl_crystal_size_max          0.20
_exptl_crystal_size_mid          0.17
_exptl_crystal_size_min          0.14
_exptl_crystal_density_meas      ?
_exptl_crystal_density_diffrn    1.941
_exptl_crystal_density_method    'not measured'
_exptl_crystal_F_000             1104
_exptl_absorpt_coefficient_mu    3.317
_exptl_absorpt_correction_type   Multi-scan
_exptl_absorpt_correction_T_min  0.9051
_exptl_absorpt_correction_T_max  1.0000
_exptl_absorpt_process_details   '(SADABS; Sheldrick, 2008)'

_exptl_special_details           
;
?
;

_diffrn_ambient_temperature      293(2)
_diffrn_radiation_wavelength     0.71073
_diffrn_radiation_type           MoK\a
_diffrn_radiation_source         'fine-focus sealed tube'
_diffrn_radiation_monochromator  graphite
_diffrn_measurement_device_type  'Mercury70 (2x2 bin mode)'
_diffrn_measurement_method       CCD_Profile_fitting
_diffrn_detector_area_resol_mean 14.6306
_diffrn_standards_number         ?
_diffrn_standards_interval_count ?
_diffrn_standards_interval_time  ?
_diffrn_standards_decay_%        ?
_diffrn_reflns_number            17821
_diffrn_reflns_av_R_equivalents  0.0329
_diffrn_reflns_av_sigmaI/netI    0.0299
_diffrn_reflns_limit_h_min       -13
_diffrn_reflns_limit_h_max       13
_diffrn_reflns_limit_k_min       -22
_diffrn_reflns_limit_k_max       22
_diffrn_reflns_limit_l_min       -14
_diffrn_reflns_limit_l_max       14
_diffrn_reflns_theta_min         2.12
_diffrn_reflns_theta_max         27.48
_reflns_number_total             4384
_reflns_number_gt                4112
_reflns_threshold_expression     >2sigma(I)

_computing_data_collection       ?
_computing_cell_refinement       ?
_computing_data_reduction        ?
_computing_structure_solution    'SHELXS-97 (Sheldrick, 1990)'
_computing_structure_refinement  'SHELXL-97 (Sheldrick, 1997)'
_computing_molecular_graphics    ?
_computing_publication_material  ?

_refine_special_details          
;
Refinement of F^2^ against ALL reflections. The weighted R-factor wR and
goodness of fit S are based on F^2^, conventional R-factors R are based
on F, with F set to zero for negative F^2^. The threshold expression of
F^2^ > 2sigma(F^2^) is used only for calculating R-factors(gt) etc. and is
not relevant to the choice of reflections for refinement. R-factors based
on F^2^ are statistically about twice as large as those based on F, and R-
factors based on ALL data will be even larger.
;

_refine_ls_structure_factor_coef Fsqd
_refine_ls_matrix_type           full
_refine_ls_weighting_scheme      calc
_refine_ls_weighting_details     
'calc w=1/[\s^2^(Fo^2^)+(0.1500P)^2^+6.6427P] where P=(Fo^2^+2Fc^2^)/3'
_atom_sites_solution_primary     direct
_atom_sites_solution_secondary   difmap
_atom_sites_solution_hydrogens   geom
_refine_ls_hydrogen_treatment    constr
_refine_ls_extinction_method     none
_refine_ls_extinction_coef       ?
_refine_ls_number_reflns         4384
_refine_ls_number_parameters     273
_refine_ls_number_restraints     0
_refine_ls_R_factor_all          0.0482
_refine_ls_R_factor_gt           0.0447
_refine_ls_wR_factor_ref         0.1993
_refine_ls_wR_factor_gt          0.1948
_refine_ls_goodness_of_fit_ref   1.034
_refine_ls_restrained_S_all      1.034
_refine_ls_shift/su_max          0.001
_refine_ls_shift/su_mean         0.000

loop_
_atom_site_label
_atom_site_type_symbol
_atom_site_fract_x
_atom_site_fract_y
_atom_site_fract_z
_atom_site_U_iso_or_equiv
_atom_site_adp_type
_atom_site_occupancy
_atom_site_symmetry_multiplicity
_atom_site_calc_flag
_atom_site_refinement_flags
_atom_site_disorder_assembly
_atom_site_disorder_group
Eu1 Eu 0.50940(3) 0.00728(2) 0.68105(3) 0.02379(18) Uani 1 1 d . . .
O1 O 0.6470(6) -0.0820(4) 0.8447(5) 0.0444(14) Uani 1 1 d . . .
O2 O 0.7036(7) 0.0369(4) 0.8816(6) 0.0499(16) Uani 1 1 d . . .
O4 O 0.5608(6) 0.1410(3) 0.6565(4) 0.0326(11) Uani 1 1 d . . .
O5 O 0.5255(6) 0.0852(3) 0.4773(5) 0.0329(11) Uani 1 1 d . . .
O6 O 0.4124(6) 0.4293(3) 0.3170(5) 0.0370(12) Uani 1 1 d . . .
O7 O 0.7286(6) -0.0151(4) 0.6537(5) 0.0408(14) Uani 1 1 d . . .
O8 O 0.7103(5) -0.0477(3) 0.4591(4) 0.0315(11) Uani 1 1 d . . .
O9 O 1.3537(5) -0.0821(3) 0.7255(5) 0.0303(11) Uani 1 1 d . . .
O10 O 1.072(3) -0.1758(12) 1.3154(15) 0.241(12) Uani 1 1 d . . .
N1 N 0.7318(9) -0.0319(6) 0.9091(6) 0.050(2) Uani 1 1 d . . .
N2 N 0.4460(6) 0.3619(4) 0.3695(6) 0.0303(13) Uani 1 1 d . . .
N3 N 1.2147(6) -0.0746(4) 0.6892(5) 0.0290(12) Uani 1 1 d . . .
N4 N 1.0141(10) -0.1954(6) 1.1122(10) 0.068(2) Uani 1 1 d . . .
C1 C 0.5380(7) 0.1440(4) 0.5425(7) 0.0277(14) Uani 1 1 d . . .
C2 C 0.5086(7) 0.2211(4) 0.4800(6) 0.0263(13) Uani 1 1 d . . .
C3 C 0.5509(8) 0.2878(4) 0.5498(6) 0.0310(15) Uani 1 1 d . . .
H3 H 0.5992 0.2851 0.6346 0.037 Uiso 1 1 calc R . .
C4 C 0.5204(8) 0.3570(5) 0.4914(6) 0.0321(15) Uani 1 1 d . . .
H4 H 0.5516 0.4014 0.5367 0.038 Uiso 1 1 calc R . .
C5 C 0.4053(9) 0.2981(5) 0.3009(6) 0.0365(17) Uani 1 1 d . . .
H5 H 0.3550 0.3021 0.2166 0.044 Uiso 1 1 calc R . .
C6 C 0.4372(9) 0.2271(5) 0.3541(7) 0.0390(17) Uani 1 1 d . . .
H6 H 0.4109 0.1834 0.3057 0.047 Uiso 1 1 calc R . .
C7 C 0.7771(7) -0.0382(4) 0.5734(7) 0.0285(14) Uani 1 1 d . . .
C8 C 0.9303(6) -0.0545(4) 0.6169(6) 0.0245(13) Uani 1 1 d . . .
C9 C 1.0189(8) -0.0314(5) 0.7336(7) 0.0359(16) Uani 1 1 d . . .
H9 H 0.9816 -0.0086 0.7886 0.043 Uiso 1 1 calc R . .
C10 C 1.1610(7) -0.0418(5) 0.7684(7) 0.0358(17) Uani 1 1 d . . .
H10 H 1.2192 -0.0262 0.8464 0.043 Uiso 1 1 calc R . .
C11 C 1.1343(8) -0.1004(5) 0.5786(7) 0.0338(15) Uani 1 1 d . . .
H11 H 1.1746 -0.1255 0.5277 0.041 Uiso 1 1 calc R . .
C12 C 0.9920(8) -0.0902(5) 0.5394(7) 0.0324(15) Uani 1 1 d . . .
H12 H 0.9368 -0.1070 0.4611 0.039 Uiso 1 1 calc R . .
C13 C 1.098(2) -0.1723(13) 1.2197(18) 0.134(8) Uani 1 1 d . . .
H13 H 1.1831 -0.1516 1.2232 0.161 Uiso 1 1 calc R . .
C14 C 0.8799(17) -0.2205(12) 1.099(3) 0.170(12) Uani 1 1 d . . .
H14A H 0.8238 -0.2209 1.0126 0.255 Uiso 1 1 calc R . .
H14B H 0.8390 -0.1867 1.1430 0.255 Uiso 1 1 calc R . .
H14C H 0.8846 -0.2711 1.1322 0.255 Uiso 1 1 calc R . .
C15 C 1.051(3) -0.1848(11) 1.0035(16) 0.118(6) Uani 1 1 d . . .
H15A H 1.0062 -0.1396 0.9608 0.177 Uiso 1 1 calc R . .
H15B H 1.0204 -0.2282 0.9499 0.177 Uiso 1 1 calc R . .
H15C H 1.1499 -0.1796 1.0269 0.177 Uiso 1 1 calc R . .
O3 O 0.8318(11) -0.0490(8) 0.9949(8) 0.108(4) Uani 1 1 d . . .

loop_
_atom_site_aniso_label
_atom_site_aniso_U_11
_atom_site_aniso_U_22
_atom_site_aniso_U_33
_atom_site_aniso_U_23
_atom_site_aniso_U_13
_atom_site_aniso_U_12
Eu1 0.0241(3) 0.0263(3) 0.0218(3) -0.00032(10) 0.00886(18) -0.00034(11)
O1 0.036(3) 0.060(4) 0.031(3) 0.014(3) 0.004(2) 0.004(3)
O2 0.038(3) 0.058(4) 0.045(3) -0.015(3) 0.003(3) 0.000(3)
O4 0.044(3) 0.031(3) 0.026(2) 0.0003(19) 0.016(2) -0.006(2)
O5 0.033(3) 0.029(3) 0.041(3) -0.007(2) 0.019(2) -0.003(2)
O6 0.043(3) 0.035(3) 0.039(3) 0.013(2) 0.021(2) 0.009(2)
O7 0.023(3) 0.072(4) 0.027(3) 0.000(3) 0.007(2) 0.006(3)
O8 0.013(2) 0.053(3) 0.027(2) 0.006(2) 0.0034(18) 0.005(2)
O9 0.012(2) 0.041(3) 0.038(3) 0.007(2) 0.008(2) 0.0016(19)
O10 0.49(4) 0.168(17) 0.114(11) -0.001(11) 0.162(18) -0.07(2)
N1 0.047(5) 0.079(6) 0.015(3) 0.000(3) -0.001(3) 0.019(4)
N2 0.021(3) 0.032(3) 0.045(3) 0.006(3) 0.022(3) 0.000(2)
N3 0.024(3) 0.031(3) 0.034(3) 0.009(2) 0.012(2) 0.007(2)
N4 0.054(5) 0.075(7) 0.078(6) -0.003(5) 0.027(5) -0.004(5)
C1 0.017(3) 0.033(3) 0.038(4) 0.000(3) 0.015(3) -0.007(3)
C2 0.027(3) 0.029(3) 0.026(3) 0.000(3) 0.013(3) -0.001(3)
C3 0.031(4) 0.034(4) 0.027(3) -0.002(3) 0.009(3) -0.006(3)
C4 0.041(4) 0.030(3) 0.030(4) -0.003(3) 0.017(3) -0.007(3)
C5 0.044(4) 0.043(4) 0.019(3) 0.002(3) 0.005(3) -0.005(3)
C6 0.047(5) 0.037(4) 0.034(4) -0.002(3) 0.014(4) -0.004(4)
C7 0.018(3) 0.038(4) 0.033(3) 0.007(3) 0.012(3) 0.004(3)
C8 0.007(3) 0.039(4) 0.025(3) 0.007(3) 0.003(2) 0.000(2)
C9 0.023(4) 0.052(5) 0.032(4) -0.006(3) 0.009(3) 0.001(3)
C10 0.016(3) 0.056(5) 0.033(4) -0.007(3) 0.006(3) 0.003(3)
C11 0.032(4) 0.041(4) 0.028(3) -0.001(3) 0.010(3) 0.000(3)
C12 0.025(3) 0.045(4) 0.024(3) 0.000(3) 0.004(3) -0.004(3)
C13 0.146(18) 0.16(2) 0.091(12) -0.002(12) 0.027(12) -0.063(15)
C14 0.069(10) 0.104(15) 0.36(4) 0.013(19) 0.098(17) -0.013(10)
C15 0.189(19) 0.080(11) 0.109(13) -0.014(9) 0.082(13) 0.019(13)
O3 0.091(7) 0.145(11) 0.058(5) -0.015(6) -0.014(5) 0.041(7)

_geom_special_details            
;
All esds (except the esd in the dihedral angle between two l.s. planes)
are estimated using the full covariance matrix. The cell esds are taken
into account individually in the estimation of esds in distances, angles
and torsion angles; correlations between esds in cell parameters are only
used when they are defined by crystal symmetry. An approximate (isotropic)
treatment of cell esds is used for estimating esds involving l.s. planes.
;

loop_
_geom_bond_atom_site_label_1
_geom_bond_atom_site_label_2
_geom_bond_distance
_geom_bond_site_symmetry_2
_geom_bond_publ_flag
Eu1 O5 2.369(5) 3_656 ?
Eu1 O8 2.379(4) 3_656 ?
Eu1 O6 2.386(5) 4_566 ?
Eu1 O7 2.394(6) . ?
Eu1 O9 2.406(5) 1_455 ?
Eu1 O4 2.439(5) . ?
Eu1 O1 2.480(6) . ?
Eu1 O2 2.526(6) . ?
Eu1 O5 2.758(6) . ?
Eu1 N1 2.901(7) . ?
Eu1 C1 2.945(7) . ?
O1 N1 1.277(11) . ?
O2 N1 1.256(13) . ?
O4 C1 1.248(9) . ?
O5 C1 1.254(9) . ?
O5 Eu1 2.369(5) 3_656 ?
O6 N2 1.318(8) . ?
O6 Eu1 2.386(5) 4_565 ?
O7 C7 1.250(9) . ?
O8 C7 1.265(9) . ?
O8 Eu1 2.379(4) 3_656 ?
O9 N3 1.342(7) . ?
O9 Eu1 2.406(5) 1_655 ?
O10 C13 1.21(2) . ?
N1 O3 1.189(11) . ?
N2 C5 1.349(10) . ?
N2 C4 1.347(9) . ?
N3 C11 1.333(10) . ?
N3 C10 1.338(9) . ?
N4 C13 1.30(2) . ?
N4 C14 1.396(17) . ?
N4 C15 1.429(19) . ?
C1 C2 1.512(10) . ?
C2 C6 1.381(10) . ?
C2 C3 1.399(10) . ?
C3 C4 1.369(11) . ?
C3 H3 0.9300 . ?
C4 H4 0.9300 . ?
C5 C6 1.375(11) . ?
C5 H5 0.9300 . ?
C6 H6 0.9300 . ?
C7 C8 1.499(9) . ?
C8 C9 1.395(10) . ?
C8 C12 1.399(10) . ?
C9 C10 1.380(10) . ?
C9 H9 0.9300 . ?
C10 H10 0.9300 . ?
C11 C12 1.378(11) . ?
C11 H11 0.9300 . ?
C12 H12 0.9300 . ?
C13 H13 0.9300 . ?
C14 H14A 0.9600 . ?
C14 H14B 0.9600 . ?
C14 H14C 0.9600 . ?
C15 H15A 0.9600 . ?
C15 H15B 0.9600 . ?
C15 H15C 0.9600 . ?

loop_
_geom_angle_atom_site_label_1
_geom_angle_atom_site_label_2
_geom_angle_atom_site_label_3
_geom_angle
_geom_angle_site_symmetry_1
_geom_angle_site_symmetry_3
_geom_angle_publ_flag
O5 Eu1 O8 79.93(19) 3_656 3_656 ?
O5 Eu1 O6 146.30(18) 3_656 4_566 ?
O8 Eu1 O6 78.29(18) 3_656 4_566 ?
O5 Eu1 O7 72.0(2) 3_656 . ?
O8 Eu1 O7 131.92(18) 3_656 . ?
O6 Eu1 O7 140.8(2) 4_566 . ?
O5 Eu1 O9 77.18(18) 3_656 1_455 ?
O8 Eu1 O9 78.39(17) 3_656 1_455 ?
O6 Eu1 O9 73.46(18) 4_566 1_455 ?
O7 Eu1 O9 129.4(2) . 1_455 ?
O5 Eu1 O4 123.49(17) 3_656 . ?
O8 Eu1 O4 79.95(19) 3_656 . ?
O6 Eu1 O4 77.30(18) 4_566 . ?
O7 Eu1 O4 84.0(2) . . ?
O9 Eu1 O4 146.47(17) 1_455 . ?
O5 Eu1 O1 92.6(2) 3_656 . ?
O8 Eu1 O1 149.3(2) 3_656 . ?
O6 Eu1 O1 93.1(2) 4_566 . ?
O7 Eu1 O1 71.4(2) . . ?
O9 Eu1 O1 70.94(19) 1_455 . ?
O4 Eu1 O1 127.3(2) . . ?
O5 Eu1 O2 134.8(2) 3_656 . ?
O8 Eu1 O2 145.1(2) 3_656 . ?
O6 Eu1 O2 71.4(2) 4_566 . ?
O7 Eu1 O2 71.0(2) . . ?
O9 Eu1 O2 108.2(2) 1_455 . ?
O4 Eu1 O2 77.0(2) . . ?
O1 Eu1 O2 51.3(2) . . ?
O5 Eu1 O5 74.19(19) 3_656 . ?
O8 Eu1 O5 66.06(16) 3_656 . ?
O6 Eu1 O5 118.60(18) 4_566 . ?
O7 Eu1 O5 69.10(19) . . ?
O9 Eu1 O5 137.35(16) 1_455 . ?
O4 Eu1 O5 49.39(15) . . ?
O1 Eu1 O5 140.51(18) . . ?
O2 Eu1 O5 114.5(2) . . ?
O5 Eu1 N1 113.3(2) 3_656 . ?
O8 Eu1 N1 161.4(2) 3_656 . ?
O6 Eu1 N1 83.9(2) 4_566 . ?
O7 Eu1 N1 66.4(2) . . ?
O9 Eu1 N1 91.5(2) 1_455 . ?
O4 Eu1 N1 101.5(2) . . ?
O1 Eu1 N1 26.0(2) . . ?
O2 Eu1 N1 25.6(3) . . ?
O5 Eu1 N1 128.8(2) . . ?
O5 Eu1 C1 99.27(19) 3_656 . ?
O8 Eu1 C1 68.69(18) 3_656 . ?
O6 Eu1 C1 96.40(19) 4_566 . ?
O7 Eu1 C1 78.1(2) . . ?
O9 Eu1 C1 146.95(17) 1_455 . ?
O4 Eu1 C1 24.58(18) . . ?
O1 Eu1 C1 142.0(2) . . ?
O2 Eu1 C1 97.6(2) . . ?
O5 Eu1 C1 25.12(18) . . ?
N1 Eu1 C1 119.2(3) . . ?
O5 Eu1 Eu1 40.38(13) 3_656 3_656 ?
O8 Eu1 Eu1 68.02(11) 3_656 3_656 ?
O6 Eu1 Eu1 143.46(14) 4_566 3_656 ?
O7 Eu1 Eu1 65.24(14) . 3_656 ?
O9 Eu1 Eu1 111.53(12) 1_455 3_656 ?
O4 Eu1 Eu1 83.16(11) . 3_656 ?
O1 Eu1 Eu1 123.11(15) . 3_656 ?
O2 Eu1 Eu1 133.34(17) . 3_656 ?
O5 Eu1 Eu1 33.81(10) . 3_656 ?
N1 Eu1 Eu1 130.58(16) . 3_656 ?
C1 Eu1 Eu1 58.90(14) . 3_656 ?
N1 O1 Eu1 95.8(5) . . ?
N1 O2 Eu1 94.1(5) . . ?
C1 O4 Eu1 101.0(4) . . ?
C1 O5 Eu1 167.9(5) . 3_656 ?
C1 O5 Eu1 85.8(4) . . ?
Eu1 O5 Eu1 105.81(19) 3_656 . ?
N2 O6 Eu1 128.0(4) . 4_565 ?
C7 O7 Eu1 140.4(5) . . ?
C7 O8 Eu1 135.4(5) . 3_656 ?
N3 O9 Eu1 125.1(4) . 1_655 ?
O3 N1 O2 120.5(11) . . ?
O3 N1 O1 121.8(11) . . ?
O2 N1 O1 117.7(6) . . ?
O3 N1 Eu1 172.9(8) . . ?
O2 N1 Eu1 60.3(4) . . ?
O1 N1 Eu1 58.3(4) . . ?
O6 N2 C5 119.8(6) . . ?
O6 N2 C4 119.9(6) . . ?
C5 N2 C4 120.3(6) . . ?
C11 N3 C10 122.0(6) . . ?
C11 N3 O9 120.3(6) . . ?
C10 N3 O9 117.7(6) . . ?
C13 N4 C14 120.3(17) . . ?
C13 N4 C15 120.1(15) . . ?
C14 N4 C15 118.9(17) . . ?
O4 C1 O5 122.2(7) . . ?
O4 C1 C2 118.0(6) . . ?
O5 C1 C2 119.3(6) . . ?
O4 C1 Eu1 54.4(4) . . ?
O5 C1 Eu1 69.1(4) . . ?
C2 C1 Eu1 160.6(4) . . ?
C6 C2 C3 119.0(7) . . ?
C6 C2 C1 120.8(7) . . ?
C3 C2 C1 120.2(6) . . ?
C4 C3 C2 119.1(6) . . ?
C4 C3 H3 120.4 . . ?
C2 C3 H3 120.4 . . ?
N2 C4 C3 121.1(7) . . ?
N2 C4 H4 119.4 . . ?
C3 C4 H4 119.4 . . ?
N2 C5 C6 120.8(7) . . ?
N2 C5 H5 119.6 . . ?
C6 C5 H5 119.6 . . ?
C5 C6 C2 119.5(7) . . ?
C5 C6 H6 120.2 . . ?
C2 C6 H6 120.2 . . ?
O7 C7 O8 126.5(6) . . ?
O7 C7 C8 116.5(6) . . ?
O8 C7 C8 117.0(6) . . ?
C9 C8 C12 117.0(6) . . ?
C9 C8 C7 121.7(6) . . ?
C12 C8 C7 121.2(6) . . ?
C10 C9 C8 120.9(7) . . ?
C10 C9 H9 119.6 . . ?
C8 C9 H9 119.6 . . ?
N3 C10 C9 119.5(7) . . ?
N3 C10 H10 120.2 . . ?
C9 C10 H10 120.2 . . ?
N3 C11 C12 120.3(7) . . ?
N3 C11 H11 119.8 . . ?
C12 C11 H11 119.8 . . ?
C11 C12 C8 120.2(6) . . ?
C11 C12 H12 119.9 . . ?
C8 C12 H12 119.9 . . ?
O10 C13 N4 125(2) . . ?
O10 C13 H13 117.7 . . ?
N4 C13 H13 117.7 . . ?
N4 C14 H14A 109.5 . . ?
N4 C14 H14B 109.5 . . ?
H14A C14 H14B 109.5 . . ?
N4 C14 H14C 109.5 . . ?
H14A C14 H14C 109.5 . . ?
H14B C14 H14C 109.5 . . ?
N4 C15 H15A 109.5 . . ?
N4 C15 H15B 109.5 . . ?
H15A C15 H15B 109.5 . . ?
N4 C15 H15C 109.5 . . ?
H15A C15 H15C 109.5 . . ?
H15B C15 H15C 109.5 . . ?

_diffrn_measured_fraction_theta_max 0.992
_diffrn_reflns_theta_full        27.48
_diffrn_measured_fraction_theta_full 0.992
_refine_diff_density_max         0.824
_refine_diff_density_min         -1.174
_refine_diff_density_rms         0.131
