####################################################################### 
# 
# This file contains crystal structure data downloaded from the 
# Cambridge Structural Database (CSD) hosted by the Cambridge 
# Crystallographic Data Centre (CCDC).
# 
# Full information about CCDC data access policies and citation 
# guidelines are available at http://www.ccdc.cam.ac.uk/access/V1 
# 
# Audit and citation data items may have been added by the CCDC. 
# Please retain this information to preserve the provenance of 
# this file and to allow appropriate attribution of the data. 
# 
#######################################################################

data_Tb
_audit_block_doi                 10.5517/ccydw9h
_database_code_depnum_ccdc_archive 'CCDC 876317'
loop_
_citation_id
_citation_doi
_citation_year
1 10.1016/j.inoche.2012.05.038 2012
_audit_update_record             
;
2012-04-16 deposited with the CCDC.	2024-07-13 downloaded from the CCDC.
;

_audit_creation_method           SHELXL-97
_chemical_name_systematic        
;
?
;
_chemical_name_common            ?
_chemical_melting_point          ?
_chemical_formula_moiety         'C12 H8 N3 O9 Tb, C3 H7 N O'
_chemical_formula_sum            'C15 H15 N4 O10 Tb'
_chemical_formula_weight         570.23

loop_
_atom_type_symbol
_atom_type_description
_atom_type_scat_dispersion_real
_atom_type_scat_dispersion_imag
_atom_type_scat_source
C C 0.0033 0.0016 'International Tables Vol C Tables 4.2.6.8 and 6.1.1.4'
H H 0.0000 0.0000 'International Tables Vol C Tables 4.2.6.8 and 6.1.1.4'
N N 0.0061 0.0033 'International Tables Vol C Tables 4.2.6.8 and 6.1.1.4'
O O 0.0106 0.0060 'International Tables Vol C Tables 4.2.6.8 and 6.1.1.4'
Tb Tb -0.1723 4.1537 'International Tables Vol C Tables 4.2.6.8 and 6.1.1.4'

_symmetry_cell_setting           monoclinic
_symmetry_space_group_name_H-M   P21/c
_symmetry_space_group_name_Hall  '-P 2ybc'

loop_
_symmetry_equiv_pos_as_xyz
'x, y, z'
'-x, y+1/2, -z+1/2'
'-x, -y, -z'
'x, -y-1/2, z-1/2'

_cell_length_a                   10.1792(10)
_cell_length_b                   17.5193(11)
_cell_length_c                   11.4268(11)
_cell_angle_alpha                90.00
_cell_angle_beta                 110.035(5)
_cell_angle_gamma                90.00
_cell_volume                     1914.5(3)
_cell_formula_units_Z            4
_cell_measurement_temperature    293(2)
_cell_measurement_reflns_used    4596
_cell_measurement_theta_min      2.2246
_cell_measurement_theta_max      27.4797

_exptl_crystal_description       Prism
_exptl_crystal_colour            yellow
_exptl_crystal_size_max          0.20
_exptl_crystal_size_mid          0.18
_exptl_crystal_size_min          0.15
_exptl_crystal_density_meas      ?
_exptl_crystal_density_diffrn    1.978
_exptl_crystal_density_method    'not measured'
_exptl_crystal_F_000             1112
_exptl_absorpt_coefficient_mu    3.758
_exptl_absorpt_correction_type   Multi-scan
_exptl_absorpt_correction_T_min  0.6497
_exptl_absorpt_correction_T_max  1.0000
_exptl_absorpt_process_details   '(SADABS; Sheldrick, 2008)'

_exptl_special_details           
;
?
;

_diffrn_ambient_temperature      293(2)
_diffrn_radiation_wavelength     0.71073
_diffrn_radiation_type           MoK\a
_diffrn_radiation_source         'fine-focus sealed tube'
_diffrn_radiation_monochromator  graphite
_diffrn_measurement_device_type  'Mercury2 (1x1 bin mode)'
_diffrn_measurement_method       CCD_Profile_fitting
_diffrn_detector_area_resol_mean 13.6612
_diffrn_standards_number         ?
_diffrn_standards_interval_count ?
_diffrn_standards_interval_time  ?
_diffrn_standards_decay_%        ?
_diffrn_reflns_number            15604
_diffrn_reflns_av_R_equivalents  0.0282
_diffrn_reflns_av_sigmaI/netI    0.0225
_diffrn_reflns_limit_h_min       -12
_diffrn_reflns_limit_h_max       12
_diffrn_reflns_limit_k_min       -21
_diffrn_reflns_limit_k_max       21
_diffrn_reflns_limit_l_min       -14
_diffrn_reflns_limit_l_max       14
_diffrn_reflns_theta_min         2.43
_diffrn_reflns_theta_max         26.00
_reflns_number_total             3758
_reflns_number_gt                3640
_reflns_threshold_expression     >2sigma(I)

_computing_data_collection       'SHELXL-97 (Sheldrick, 1997)'
_computing_cell_refinement       'SHELXL-97 (Sheldrick, 1997)'
_computing_data_reduction        'SHELXL-97 (Sheldrick, 1997)'
_computing_structure_solution    'SHELXS-97 (Sheldrick, 1990)'
_computing_structure_refinement  'SHELXL-97 (Sheldrick, 1997)'
_computing_molecular_graphics    'SHELXL-97 (Sheldrick, 1997)'
_computing_publication_material  'SHELXL-97 (Sheldrick, 1997)'

_refine_special_details          
;
Refinement of F^2^ against ALL reflections. The weighted R-factor wR and
goodness of fit S are based on F^2^, conventional R-factors R are based
on F, with F set to zero for negative F^2^. The threshold expression of
F^2^ > 2sigma(F^2^) is used only for calculating R-factors(gt) etc. and is
not relevant to the choice of reflections for refinement. R-factors based
on F^2^ are statistically about twice as large as those based on F, and R-
factors based on ALL data will be even larger.
;

_refine_ls_structure_factor_coef Fsqd
_refine_ls_matrix_type           full
_refine_ls_weighting_scheme      calc
_refine_ls_weighting_details     
'calc w=1/[\s^2^(Fo^2^)+(0.0990P)^2^+9.5554P] where P=(Fo^2^+2Fc^2^)/3'
_atom_sites_solution_primary     direct
_atom_sites_solution_secondary   difmap
_atom_sites_solution_hydrogens   geom
_refine_ls_hydrogen_treatment    constr
_refine_ls_extinction_method     none
_refine_ls_extinction_coef       ?
_refine_ls_number_reflns         3758
_refine_ls_number_parameters     273
_refine_ls_number_restraints     0
_refine_ls_R_factor_all          0.0401
_refine_ls_R_factor_gt           0.0389
_refine_ls_wR_factor_ref         0.1502
_refine_ls_wR_factor_gt          0.1488
_refine_ls_goodness_of_fit_ref   1.080
_refine_ls_restrained_S_all      1.080
_refine_ls_shift/su_max          0.001
_refine_ls_shift/su_mean         0.000

loop_
_atom_site_label
_atom_site_type_symbol
_atom_site_fract_x
_atom_site_fract_y
_atom_site_fract_z
_atom_site_U_iso_or_equiv
_atom_site_adp_type
_atom_site_occupancy
_atom_site_symmetry_multiplicity
_atom_site_calc_flag
_atom_site_refinement_flags
_atom_site_disorder_assembly
_atom_site_disorder_group
Tb1 Tb 0.98962(3) 0.492751(18) 0.81829(3) 0.02329(16) Uani 1 1 d . . .
O1 O 1.0843(6) 0.4303(3) 0.6814(5) 0.0370(11) Uani 1 1 d . . .
O2 O 0.9745(5) 0.0848(3) 0.5259(5) 0.0320(10) Uani 1 1 d . . .
O3 O 0.9380(5) 0.1390(3) 0.3444(4) 0.0333(11) Uani 1 1 d . . .
O4 O 0.7727(6) 0.5139(3) 0.8467(5) 0.0404(13) Uani 1 1 d . . .
O5 O 0.7916(4) 0.5480(3) 1.0424(4) 0.0320(10) Uani 1 1 d . . .
O6 O 0.1455(4) 0.5810(3) 0.7750(4) 0.0314(10) Uani 1 1 d . . .
O7 O 0.7942(7) 0.4624(4) 0.6198(6) 0.0519(15) Uani 1 1 d . . .
O8 O 0.8544(6) 0.5818(3) 0.6573(5) 0.0444(13) Uani 1 1 d . . .
O9 O 0.6666(11) 0.5481(8) 0.5050(8) 0.120(4) Uani 1 1 d . . .
O10 O 0.564(3) 0.3228(11) 0.8128(15) 0.259(12) Uani 1 1 d . . .
N1 N 1.0510(6) 0.3624(3) 0.6304(5) 0.0300(12) Uani 1 1 d . . .
N2 N 0.2844(5) 0.5738(3) 0.8107(5) 0.0283(11) Uani 1 1 d . . .
N3 N 0.7681(8) 0.5325(5) 0.5917(6) 0.053(2) Uani 1 1 d . . .
N4 N 0.5141(10) 0.3032(6) 0.6108(11) 0.077(3) Uani 1 1 d . . .
C1 C 0.9611(6) 0.1433(4) 0.4582(6) 0.0262(13) Uani 1 1 d . . .
C2 C 0.9890(7) 0.2207(4) 0.5204(6) 0.0285(13) Uani 1 1 d . . .
C3 C 1.0620(9) 0.2274(4) 0.6473(6) 0.0393(17) Uani 1 1 d . . .
H3 H 1.0896 0.1839 0.6962 0.047 Uiso 1 1 calc R . .
C4 C 0.9470(7) 0.2868(4) 0.4501(6) 0.0326(15) Uani 1 1 d . . .
H4 H 0.8990 0.2836 0.3648 0.039 Uiso 1 1 calc R . .
C5 C 1.0932(8) 0.2982(5) 0.7002(6) 0.0392(17) Uani 1 1 d . . .
H5 H 1.1439 0.3025 0.7848 0.047 Uiso 1 1 calc R . .
C6 C 0.9767(8) 0.3568(4) 0.5071(6) 0.0328(15) Uani 1 1 d . . .
H6 H 0.9455 0.4010 0.4606 0.039 Uiso 1 1 calc R . .
C7 C 0.7249(6) 0.5381(4) 0.9279(6) 0.0273(13) Uani 1 1 d . . .
C8 C 0.5699(6) 0.5546(4) 0.8840(6) 0.0263(13) Uani 1 1 d . . .
C9 C 0.5097(7) 0.5904(4) 0.9612(6) 0.0316(14) Uani 1 1 d . . .
H9 H 0.5658 0.6078 1.0392 0.038 Uiso 1 1 calc R . .
C10 C 0.4826(7) 0.5309(5) 0.7676(7) 0.0369(16) Uani 1 1 d . . .
H10 H 0.5207 0.5089 0.7124 0.044 Uiso 1 1 calc R . .
C11 C 0.3647(7) 0.6005(4) 0.9222(6) 0.0332(14) Uani 1 1 d . . .
H11 H 0.3243 0.6255 0.9732 0.040 Uiso 1 1 calc R . .
C12 C 0.3384(7) 0.5397(5) 0.7325(6) 0.0339(15) Uani 1 1 d . . .
H12 H 0.2800 0.5222 0.6554 0.041 Uiso 1 1 calc R . .
C13 C 0.599(2) 0.3259(13) 0.7169(16) 0.142(8) Uani 1 1 d . . .
H13 H 0.6863 0.3447 0.7231 0.171 Uiso 1 1 calc R . .
C14 C 0.3792(16) 0.2773(11) 0.598(2) 0.166(10) Uani 1 1 d . . .
H14A H 0.3364 0.3121 0.6388 0.249 Uiso 1 1 calc R . .
H14B H 0.3853 0.2276 0.6345 0.249 Uiso 1 1 calc R . .
H14C H 0.3238 0.2745 0.5109 0.249 Uiso 1 1 calc R . .
C15 C 0.545(2) 0.3152(11) 0.4985(16) 0.134(7) Uani 1 1 d . . .
H15A H 0.4981 0.3603 0.4571 0.201 Uiso 1 1 calc R . .
H15B H 0.5141 0.2720 0.4445 0.201 Uiso 1 1 calc R . .
H15C H 0.6443 0.3214 0.5189 0.201 Uiso 1 1 calc R . .

loop_
_atom_site_aniso_label
_atom_site_aniso_U_11
_atom_site_aniso_U_22
_atom_site_aniso_U_33
_atom_site_aniso_U_23
_atom_site_aniso_U_13
_atom_site_aniso_U_12
Tb1 0.0228(2) 0.0252(2) 0.0225(2) -0.00079(9) 0.00850(16) -0.00083(10)
O1 0.041(3) 0.037(3) 0.038(3) -0.011(2) 0.021(2) -0.007(2)
O2 0.027(2) 0.031(2) 0.042(2) 0.009(2) 0.018(2) 0.0049(19)
O3 0.042(3) 0.030(2) 0.033(2) -0.0010(19) 0.018(2) 0.005(2)
O4 0.024(3) 0.066(4) 0.031(3) -0.001(2) 0.011(2) 0.004(2)
O5 0.017(2) 0.049(3) 0.027(2) 0.004(2) 0.0046(18) 0.000(2)
O6 0.016(2) 0.039(3) 0.040(3) 0.007(2) 0.0110(19) 0.0005(19)
O7 0.043(3) 0.060(4) 0.048(3) -0.014(3) 0.010(3) -0.003(3)
O8 0.038(3) 0.056(3) 0.033(3) 0.013(2) 0.005(2) 0.004(3)
O9 0.086(7) 0.170(12) 0.067(5) -0.018(6) -0.020(5) 0.049(7)
O10 0.52(4) 0.172(17) 0.123(12) -0.005(11) 0.166(19) -0.03(2)
N1 0.031(3) 0.031(3) 0.036(3) -0.007(2) 0.022(2) 0.001(2)
N2 0.020(3) 0.031(3) 0.033(3) 0.006(2) 0.009(2) 0.004(2)
N3 0.041(4) 0.086(6) 0.021(3) 0.000(3) -0.003(3) 0.022(4)
N4 0.066(6) 0.075(6) 0.095(7) -0.009(6) 0.032(6) -0.002(5)
C1 0.018(3) 0.030(3) 0.034(3) 0.002(3) 0.014(3) 0.004(2)
C2 0.026(3) 0.032(3) 0.032(3) -0.001(3) 0.016(3) 0.003(3)
C3 0.055(5) 0.031(4) 0.031(3) 0.004(3) 0.012(3) 0.007(3)
C4 0.035(4) 0.035(4) 0.029(3) 0.002(3) 0.013(3) 0.007(3)
C5 0.045(4) 0.045(4) 0.026(3) 0.000(3) 0.010(3) 0.006(3)
C6 0.043(4) 0.032(3) 0.029(3) 0.005(3) 0.020(3) 0.006(3)
C7 0.015(3) 0.036(4) 0.032(3) 0.007(3) 0.011(3) 0.006(3)
C8 0.010(3) 0.038(3) 0.028(3) 0.006(3) 0.003(2) 0.000(2)
C9 0.024(3) 0.041(4) 0.027(3) 0.002(3) 0.005(3) -0.004(3)
C10 0.022(3) 0.058(5) 0.028(3) -0.004(3) 0.006(3) 0.001(3)
C11 0.031(3) 0.038(4) 0.032(3) -0.001(3) 0.011(3) 0.000(3)
C12 0.016(3) 0.054(5) 0.030(3) -0.006(3) 0.006(3) 0.000(3)
C13 0.17(2) 0.16(2) 0.084(10) -0.019(12) 0.036(12) -0.058(16)
C14 0.074(10) 0.107(14) 0.33(3) 0.042(18) 0.090(16) 0.012(10)
C15 0.21(2) 0.105(13) 0.132(16) 0.005(10) 0.116(16) 0.015(14)

_geom_special_details            
;
All esds (except the esd in the dihedral angle between two l.s. planes)
are estimated using the full covariance matrix. The cell esds are taken
into account individually in the estimation of esds in distances, angles
and torsion angles; correlations between esds in cell parameters are only
used when they are defined by crystal symmetry. An approximate (isotropic)
treatment of cell esds is used for estimating esds involving l.s. planes.
;

loop_
_geom_bond_atom_site_label_1
_geom_bond_atom_site_label_2
_geom_bond_distance
_geom_bond_site_symmetry_2
_geom_bond_publ_flag
Tb1 O2 2.336(5) 2_756 ?
Tb1 O5 2.361(4) 3_767 ?
Tb1 O1 2.368(5) . ?
Tb1 O4 2.369(6) . ?
Tb1 O6 2.385(5) 1_655 ?
Tb1 O3 2.409(5) 4_566 ?
Tb1 O8 2.444(5) . ?
Tb1 O7 2.509(6) . ?
Tb1 O2 2.784(5) 4_566 ?
Tb1 N3 2.877(6) . ?
Tb1 C1 2.939(7) 4_566 ?
O1 N1 1.317(7) . ?
O2 C1 1.264(8) . ?
O2 Tb1 2.336(5) 2_746 ?
O2 Tb1 2.784(5) 4_565 ?
O3 C1 1.241(8) . ?
O3 Tb1 2.409(5) 4_565 ?
O4 C7 1.259(9) . ?
O5 C7 1.262(8) . ?
O5 Tb1 2.361(4) 3_767 ?
O6 N2 1.337(7) . ?
O6 Tb1 2.385(4) 1_455 ?
O7 N3 1.275(12) . ?
O8 N3 1.276(10) . ?
O9 N3 1.192(10) . ?
O10 C13 1.26(2) . ?
N1 C6 1.355(8) . ?
N1 C5 1.360(10) . ?
N2 C12 1.340(9) . ?
N2 C11 1.340(9) . ?
N4 C13 1.29(2) . ?
N4 C14 1.405(17) . ?
N4 C15 1.439(17) . ?
C1 C2 1.512(9) . ?
C1 Tb1 2.939(7) 4_565 ?
C2 C3 1.389(10) . ?
C2 C4 1.391(10) . ?
C3 C5 1.369(11) . ?
C3 H3 0.9300 . ?
C4 C6 1.374(10) . ?
C4 H4 0.9300 . ?
C5 H5 0.9300 . ?
C6 H6 0.9300 . ?
C7 C8 1.512(8) . ?
C8 C9 1.384(10) . ?
C8 C10 1.386(9) . ?
C9 C11 1.399(10) . ?
C9 H9 0.9300 . ?
C10 C12 1.391(9) . ?
C10 H10 0.9300 . ?
C11 H11 0.9300 . ?
C12 H12 0.9300 . ?
C13 H13 0.9300 . ?
C14 H14A 0.9600 . ?
C14 H14B 0.9600 . ?
C14 H14C 0.9600 . ?
C15 H15A 0.9600 . ?
C15 H15B 0.9600 . ?
C15 H15C 0.9600 . ?

loop_
_geom_angle_atom_site_label_1
_geom_angle_atom_site_label_2
_geom_angle_atom_site_label_3
_geom_angle
_geom_angle_site_symmetry_1
_geom_angle_site_symmetry_3
_geom_angle_publ_flag
O2 Tb1 O5 80.22(17) 2_756 3_767 ?
O2 Tb1 O1 146.06(17) 2_756 . ?
O5 Tb1 O1 78.60(17) 3_767 . ?
O2 Tb1 O4 72.38(18) 2_756 . ?
O5 Tb1 O4 131.54(17) 3_767 . ?
O1 Tb1 O4 140.57(19) . . ?
O2 Tb1 O6 76.65(17) 2_756 1_655 ?
O5 Tb1 O6 78.19(16) 3_767 1_655 ?
O1 Tb1 O6 73.28(18) . 1_655 ?
O4 Tb1 O6 130.14(19) . 1_655 ?
O2 Tb1 O3 123.45(17) 2_756 4_566 ?
O5 Tb1 O3 79.72(18) 3_767 4_566 ?
O1 Tb1 O3 78.13(17) . 4_566 ?
O4 Tb1 O3 83.11(19) . 4_566 ?
O6 Tb1 O3 146.67(17) 1_655 4_566 ?
O2 Tb1 O8 91.93(19) 2_756 . ?
O5 Tb1 O8 149.13(19) 3_767 . ?
O1 Tb1 O8 92.83(19) . . ?
O4 Tb1 O8 72.1(2) . . ?
O6 Tb1 O8 70.95(18) 1_655 . ?
O3 Tb1 O8 127.90(19) 4_566 . ?
O2 Tb1 O7 134.7(2) 2_756 . ?
O5 Tb1 O7 144.9(2) 3_767 . ?
O1 Tb1 O7 71.4(2) . . ?
O4 Tb1 O7 70.7(2) . . ?
O6 Tb1 O7 109.1(2) 1_655 . ?
O3 Tb1 O7 76.7(2) 4_566 . ?
O8 Tb1 O7 52.2(2) . . ?
O2 Tb1 O2 74.20(18) 2_756 4_566 ?
O5 Tb1 O2 65.94(15) 3_767 4_566 ?
O1 Tb1 O2 119.42(17) . 4_566 ?
O4 Tb1 O2 68.49(17) . 4_566 ?
O6 Tb1 O2 136.73(15) 1_655 4_566 ?
O3 Tb1 O2 49.34(15) 4_566 4_566 ?
O8 Tb1 O2 140.49(17) . 4_566 ?
O7 Tb1 O2 114.13(19) . 4_566 ?
O2 Tb1 N3 112.8(2) 2_756 . ?
O5 Tb1 N3 161.39(19) 3_767 . ?
O1 Tb1 N3 83.6(2) . . ?
O4 Tb1 N3 66.7(2) . . ?
O6 Tb1 N3 91.6(2) 1_655 . ?
O3 Tb1 N3 101.9(2) 4_566 . ?
O8 Tb1 N3 26.2(2) . . ?
O7 Tb1 N3 26.3(3) . . ?
O2 Tb1 N3 129.1(2) 4_566 . ?
O2 Tb1 C1 99.48(18) 2_756 4_566 ?
O5 Tb1 C1 68.51(17) 3_767 4_566 ?
O1 Tb1 C1 97.04(18) . 4_566 ?
O4 Tb1 C1 77.43(19) . 4_566 ?
O6 Tb1 C1 146.61(16) 1_655 4_566 ?
O3 Tb1 C1 24.34(17) 4_566 4_566 ?
O8 Tb1 C1 142.34(18) . 4_566 ?
O7 Tb1 C1 97.1(2) . 4_566 ?
O2 Tb1 C1 25.32(16) 4_566 4_566 ?
N3 Tb1 C1 119.5(2) . 4_566 ?
N1 O1 Tb1 127.5(4) . . ?
C1 O2 Tb1 169.4(5) . 2_746 ?
C1 O2 Tb1 84.2(4) . 4_565 ?
Tb1 O2 Tb1 105.80(18) 2_746 4_565 ?
C1 O3 Tb1 102.5(4) . 4_565 ?
C7 O4 Tb1 140.1(5) . . ?
C7 O5 Tb1 134.8(4) . 3_767 ?
N2 O6 Tb1 125.8(4) . 1_455 ?
N3 O7 Tb1 93.2(5) . . ?
N3 O8 Tb1 96.2(5) . . ?
O1 N1 C6 119.5(6) . . ?
O1 N1 C5 120.4(6) . . ?
C6 N1 C5 120.1(6) . . ?
O6 N2 C12 118.1(5) . . ?
O6 N2 C11 119.6(6) . . ?
C12 N2 C11 122.3(6) . . ?
O9 N3 O7 118.4(11) . . ?
O9 N3 O8 124.1(11) . . ?
O7 N3 O8 117.5(6) . . ?
O9 N3 Tb1 172.8(8) . . ?
O7 N3 Tb1 60.5(3) . . ?
O8 N3 Tb1 57.6(3) . . ?
C13 N4 C14 121.0(17) . . ?
C13 N4 C15 121.0(16) . . ?
C14 N4 C15 117.3(16) . . ?
O3 C1 O2 122.3(6) . . ?
O3 C1 C2 119.0(6) . . ?
O2 C1 C2 118.4(6) . . ?
O3 C1 Tb1 53.1(3) . 4_565 ?
O2 C1 Tb1 70.5(4) . 4_565 ?
C2 C1 Tb1 161.0(4) . 4_565 ?
C3 C2 C4 118.8(7) . . ?
C3 C2 C1 120.9(6) . . ?
C4 C2 C1 120.2(6) . . ?
C5 C3 C2 119.8(7) . . ?
C5 C3 H3 120.1 . . ?
C2 C3 H3 120.1 . . ?
C6 C4 C2 119.7(6) . . ?
C6 C4 H4 120.2 . . ?
C2 C4 H4 120.2 . . ?
N1 C5 C3 120.8(6) . . ?
N1 C5 H5 119.6 . . ?
C3 C5 H5 119.6 . . ?
N1 C6 C4 120.7(6) . . ?
N1 C6 H6 119.6 . . ?
C4 C6 H6 119.6 . . ?
O4 C7 O5 127.2(6) . . ?
O4 C7 C8 116.3(6) . . ?
O5 C7 C8 116.6(5) . . ?
C9 C8 C10 118.0(6) . . ?
C9 C8 C7 121.0(6) . . ?
C10 C8 C7 120.9(6) . . ?
C8 C9 C11 120.2(6) . . ?
C8 C9 H9 119.9 . . ?
C11 C9 H9 119.9 . . ?
C8 C10 C12 120.6(7) . . ?
C8 C10 H10 119.7 . . ?
C12 C10 H10 119.7 . . ?
N2 C11 C9 119.5(6) . . ?
N2 C11 H11 120.3 . . ?
C9 C11 H11 120.3 . . ?
N2 C12 C10 119.4(6) . . ?
N2 C12 H12 120.3 . . ?
C10 C12 H12 120.3 . . ?
O10 C13 N4 121(2) . . ?
O10 C13 H13 119.7 . . ?
N4 C13 H13 119.7 . . ?
N4 C14 H14A 109.5 . . ?
N4 C14 H14B 109.5 . . ?
H14A C14 H14B 109.5 . . ?
N4 C14 H14C 109.5 . . ?
H14A C14 H14C 109.5 . . ?
H14B C14 H14C 109.5 . . ?
N4 C15 H15A 109.5 . . ?
N4 C15 H15B 109.5 . . ?
H15A C15 H15B 109.5 . . ?
N4 C15 H15C 109.5 . . ?
H15A C15 H15C 109.5 . . ?
H15B C15 H15C 109.5 . . ?

_diffrn_measured_fraction_theta_max 0.997
_diffrn_reflns_theta_full        26.00
_diffrn_measured_fraction_theta_full 0.997
_refine_diff_density_max         1.005
_refine_diff_density_min         -1.269
_refine_diff_density_rms         0.127


