####################################################################### 
# 
# This file contains crystal structure data downloaded from the 
# Cambridge Structural Database (CSD) hosted by the Cambridge 
# Crystallographic Data Centre (CCDC).
# 
# Full information about CCDC data access policies and citation 
# guidelines are available at http://www.ccdc.cam.ac.uk/access/V1 
# 
# Audit and citation data items may have been added by the CCDC. 
# Please retain this information to preserve the provenance of 
# this file and to allow appropriate attribution of the data. 
# 
#######################################################################

data_3
_audit_block_doi                 10.5517/ccxjk65
_database_code_depnum_ccdc_archive 'CCDC 850057'
loop_
_citation_id
_citation_doi
_citation_year
1 10.1021/ic202635a 2012
_audit_update_record             
;
2011-10-22 deposited with the CCDC.	2024-07-13 downloaded from the CCDC.
;
#TrackingRef 'data.cif'


_audit_creation_method           SHELXL-97
_chemical_name_systematic        
;
?
;
_chemical_name_common            ?
_chemical_melting_point          ?
_chemical_formula_moiety         ?
_chemical_formula_sum            'C98 H102 N4 O50 Zn9'
_chemical_formula_weight         2724.17

loop_
_atom_type_symbol
_atom_type_description
_atom_type_scat_dispersion_real
_atom_type_scat_dispersion_imag
_atom_type_scat_source
C C 0.0033 0.0016 'International Tables Vol C Tables 4.2.6.8 and 6.1.1.4'
H H 0.0000 0.0000 'International Tables Vol C Tables 4.2.6.8 and 6.1.1.4'
N N 0.0061 0.0033 'International Tables Vol C Tables 4.2.6.8 and 6.1.1.4'
O O 0.0106 0.0060 'International Tables Vol C Tables 4.2.6.8 and 6.1.1.4'
Zn Zn 0.2839 1.4301 'International Tables Vol C Tables 4.2.6.8 and 6.1.1.4'

_symmetry_cell_setting           Orthorhombic
_symmetry_space_group_name_H-M   'P n a 21 '
_symmetry_space_group_name_Hall  'P 2c -2n '


loop_
_symmetry_equiv_pos_as_xyz
'x, y, z'
'-x, -y, z+1/2'
'-x+1/2, y+1/2, z+1/2'
'x+1/2, -y+1/2, z'

_cell_length_a                   30.4640(13)
_cell_length_b                   31.0040(13)
_cell_length_c                   18.9020(8)
_cell_angle_alpha                90.00
_cell_angle_beta                 90.00
_cell_angle_gamma                90.00
_cell_volume                     17853.0(13)
_cell_formula_units_Z            4
_cell_measurement_temperature    293(2)
_cell_measurement_reflns_used    ?
_cell_measurement_theta_min      0.94
_cell_measurement_theta_max      24.86

_exptl_crystal_description       block
_exptl_crystal_colour            colorless
_exptl_crystal_size_max          0.32
_exptl_crystal_size_mid          0.29
_exptl_crystal_size_min          0.24
_exptl_crystal_density_meas      ?
_exptl_crystal_density_diffrn    1.014
_exptl_crystal_density_method    'not measured'
_exptl_crystal_F_000             5552
_exptl_absorpt_coefficient_mu    1.246
_exptl_absorpt_correction_type   multi-scan
_exptl_absorpt_correction_T_min  0.678
_exptl_absorpt_correction_T_max  0.742
_exptl_absorpt_process_details   'SADABS (Sheldrick, 1996)'

_exptl_special_details           
;
?
;

_diffrn_ambient_temperature      293(2)
_diffrn_radiation_wavelength     0.71069
_diffrn_radiation_type           MoK\a
_diffrn_radiation_source         'fine-focus sealed tube'
_diffrn_radiation_monochromator  graphite
_diffrn_measurement_device_type  'Bruker APEX CCD area-detector'
_diffrn_measurement_method       '\w scans'
_diffrn_detector_area_resol_mean ?
_diffrn_standards_number         0
_diffrn_standards_interval_count 0
_diffrn_standards_interval_time  0
_diffrn_standards_decay_%        0
_diffrn_reflns_number            87800
_diffrn_reflns_av_R_equivalents  0.0849
_diffrn_reflns_av_sigmaI/netI    0.1187
_diffrn_reflns_limit_h_min       -35
_diffrn_reflns_limit_h_max       26
_diffrn_reflns_limit_k_min       -36
_diffrn_reflns_limit_k_max       35
_diffrn_reflns_limit_l_min       -22
_diffrn_reflns_limit_l_max       22
_diffrn_reflns_theta_min         0.94
_diffrn_reflns_theta_max         24.86
_reflns_number_total             30607
_reflns_number_gt                17191
_reflns_threshold_expression     >2sigma(I)

_computing_data_collection       'SMART (Bruker, 1997)'
_computing_cell_refinement       SMART
_computing_data_reduction        'SAINT (Bruker, 1999)'
_computing_structure_solution    'SHELXS-97(Sheldrick, 2008)'
_computing_structure_refinement  'SHELXL-97 (Sheldrick, 2008)'
_computing_molecular_graphics    'Diamond (Brandenburg and Putz, 2008)'
_computing_publication_material  SHELXL-97

_refine_special_details          
;
Refinement of F^2^ against ALL reflections. The weighted R-factor wR and
goodness of fit S are based on F^2^, conventional R-factors R are based
on F, with F set to zero for negative F^2^. The threshold expression of
F^2^ > 2sigma(F^2^) is used only for calculating R-factors(gt) etc. and is
not relevant to the choice of reflections for refinement. R-factors based
on F^2^ are statistically about twice as large as those based on F, and R-
factors based on ALL data will be even larger.
;

_refine_ls_structure_factor_coef Fsqd
_refine_ls_matrix_type           full
_refine_ls_weighting_scheme      calc
_refine_ls_weighting_details     
'calc w=1/[\s^2^(Fo^2^)+(0.0700P)^2^+0.0000P] where P=(Fo^2^+2Fc^2^)/3'
_atom_sites_solution_primary     direct
_atom_sites_solution_secondary   difmap
_atom_sites_solution_hydrogens   geom
_refine_ls_hydrogen_treatment    constr
_refine_ls_extinction_method     none
_refine_ls_extinction_coef       ?
_refine_ls_abs_structure_details 'Flack H D (1983), Acta Cryst. A39, 876-881'
_refine_ls_abs_structure_Flack   0.00
_refine_ls_number_reflns         30607
_refine_ls_number_parameters     690
_refine_ls_number_restraints     24
_refine_ls_R_factor_all          0.1080
_refine_ls_R_factor_gt           0.0645
_refine_ls_wR_factor_ref         0.1528
_refine_ls_wR_factor_gt          0.1402
_refine_ls_goodness_of_fit_ref   0.943
_refine_ls_restrained_S_all      0.943
_refine_ls_shift/su_max          0.002
_refine_ls_shift/su_mean         0.000

loop_
_atom_site_label
_atom_site_type_symbol
_atom_site_fract_x
_atom_site_fract_y
_atom_site_fract_z
_atom_site_U_iso_or_equiv
_atom_site_adp_type
_atom_site_occupancy
_atom_site_symmetry_multiplicity
_atom_site_calc_flag
_atom_site_refinement_flags
_atom_site_disorder_assembly
_atom_site_disorder_group
Zn1 Zn 0.96885(3) 0.47720(3) 0.22828(4) 0.0348(2) Uani 1 1 d . . .
Zn2 Zn 1.05412(2) 0.49339(2) 0.15056(4) 0.0341(2) Uani 1 1 d . . .
Zn3 Zn 0.50016(3) 0.53979(3) 0.25521(5) 0.0392(2) Uani 1 1 d . . .
Zn4 Zn 0.79933(3) 0.73712(3) 0.15261(5) 0.0467(2) Uani 1 1 d . . .
Zn5 Zn 0.50388(3) 0.45532(2) 0.17488(4) 0.0354(2) Uani 1 1 d . . .
Zn6 Zn 0.79423(3) 0.64294(3) 0.24682(5) 0.0524(3) Uani 1 1 d . . .
Zn7 Zn 1.20856(4) 0.21500(3) 0.19932(6) 0.0632(3) Uani 1 1 d . . .
Zn8 Zn 0.75594(3) 0.68045(3) -0.32870(5) 0.0498(2) Uani 1 1 d . . .
Zn9 Zn 0.70570(3) 0.67847(4) 0.16641(6) 0.0734(3) Uani 1 1 d . . .
C1 C 0.4922(2) 0.5382(3) 0.0976(4) 0.043(2) Uiso 1 1 d . . .
C2 C 0.5828(3) 0.5114(3) -0.2649(4) 0.052(2) Uiso 1 1 d . . .
C3 C 0.5126(3) 0.4561(3) 0.3300(4) 0.046(2) Uiso 1 1 d . . .
C4 C 0.4930(2) 0.5633(2) 0.0302(4) 0.0379(19) Uiso 1 1 d . . .
C5 C 0.4973(2) 0.6073(2) 0.0329(4) 0.045(2) Uiso 1 1 d . . .
H5 H 0.4995 0.6214 0.0762 0.054 Uiso 1 1 calc R . .
C6 C 0.4985(2) 0.6302(2) -0.0299(4) 0.0462(19) Uiso 1 1 d . . .
C7 C 0.4971(2) 0.6104(3) -0.0971(4) 0.050(2) Uiso 1 1 d . . .
H7 H 0.5013 0.6263 -0.1383 0.060 Uiso 1 1 calc R . .
C8 C 0.5108(2) 0.4337(2) 0.4005(4) 0.0377(19) Uiso 1 1 d . . .
C9 C 0.4894(2) 0.5416(3) -0.0355(4) 0.049(2) Uiso 1 1 d . . .
H9 H 0.4873 0.5117 -0.0370 0.059 Uiso 1 1 calc R . .
C10 C 0.9923(3) 0.2012(2) 0.4127(4) 0.045(2) Uiso 1 1 d . . .
H10A H 0.9723 0.1898 0.3775 0.054 Uiso 1 1 calc R . .
H10B H 1.0216 0.2018 0.3927 0.054 Uiso 1 1 calc R . .
C11 C 0.9780(2) 0.2474(2) 0.4356(4) 0.0413(19) Uiso 1 1 d . . .
C12 C 0.9801(3) 0.2752(3) 0.3712(4) 0.050(2) Uiso 1 1 d . . .
H12A H 0.9575 0.2672 0.3376 0.060 Uiso 1 1 calc R . .
H12B H 0.9765 0.3053 0.3836 0.060 Uiso 1 1 calc R . .
C13 C 0.9892(3) 0.7361(2) -0.0061(4) 0.054(2) Uiso 1 1 d . . .
H13A H 0.9887 0.7557 0.0339 0.064 Uiso 1 1 calc R . .
H13B H 0.9597 0.7338 -0.0251 0.064 Uiso 1 1 calc R . .
C14 C 0.9806(3) 0.6727(3) 0.0650(4) 0.051(2) Uiso 1 1 d . . .
C15 C 0.9976(3) 0.6323(3) 0.0857(4) 0.056(2) Uiso 1 1 d . . .
H15 H 1.0246 0.6231 0.0683 0.067 Uiso 1 1 calc R . .
C16 C 0.9739(3) 0.6057(2) 0.1326(4) 0.049(2) Uiso 1 1 d . . .
C17 C 0.9348(2) 0.6207(2) 0.1591(4) 0.0460(19) Uiso 1 1 d . . .
H17 H 0.9194 0.6039 0.1914 0.055 Uiso 1 1 calc R . .
C18 C 0.9178(2) 0.6607(2) 0.1386(4) 0.047(2) Uiso 1 1 d . . .
C19 C 0.9395(3) 0.6867(3) 0.0925(4) 0.056(2) Uiso 1 1 d . . .
H19 H 0.9277 0.7132 0.0791 0.068 Uiso 1 1 calc R . .
C20 C 0.8752(2) 0.6753(2) 0.1659(4) 0.048(2) Uiso 1 1 d . . .
C21 C 1.0438(3) 0.2968(3) 0.2929(5) 0.059(2) Uiso 1 1 d . . .
C22 C 1.0814(3) 0.2807(3) 0.2657(5) 0.070(3) Uiso 1 1 d . . .
H22 H 1.0904 0.2527 0.2758 0.084 Uiso 1 1 calc R . .
C23 C 1.1050(2) 0.3063(2) 0.2240(4) 0.047(2) Uiso 1 1 d . . .
C24 C 1.0904(3) 0.3467(3) 0.2078(4) 0.050(2) Uiso 1 1 d . . .
H24 H 1.1072 0.3643 0.1786 0.061 Uiso 1 1 calc R . .
C25 C 1.0512(2) 0.3618(2) 0.2338(4) 0.048(2) Uiso 1 1 d . . .
C26 C 1.0263(3) 0.3355(3) 0.2751(4) 0.054(2) Uiso 1 1 d . . .
H26 H 0.9986 0.3437 0.2905 0.064 Uiso 1 1 calc R . .
C27 C 1.1497(3) 0.2915(3) 0.1982(5) 0.071(3) Uiso 1 1 d . . .
C28 C 1.0348(3) 0.4071(3) 0.2148(4) 0.055(2) Uiso 1 1 d . . .
C29 C 0.9729(3) 0.4684(3) 0.0714(5) 0.053(2) Uiso 1 1 d . . .
C30 C 0.9944(3) 0.5638(2) 0.1552(4) 0.050(2) Uiso 1 1 d . . .
C31 C 1.0443(3) 0.5086(2) 0.3091(4) 0.043(2) Uiso 1 1 d . . .
C32 C 1.0637(2) 0.5214(2) 0.3795(4) 0.0385(18) Uiso 1 1 d . . .
C33 C 1.0367(3) 0.5220(2) 0.4388(4) 0.045(2) Uiso 1 1 d . . .
H33 H 1.0072 0.5149 0.4351 0.054 Uiso 1 1 calc R . .
C34 C 0.9448(3) 0.4661(2) 0.0057(4) 0.043(2) Uiso 1 1 d . . .
C35 C 0.9006(3) 0.4537(3) 0.0096(4) 0.054(2) Uiso 1 1 d . . .
H35 H 0.8888 0.4445 0.0524 0.064 Uiso 1 1 calc R . .
C36 C 0.8746(2) 0.4552(2) -0.0500(4) 0.0364(18) Uiso 1 1 d . . .
C37 C 1.1089(2) 0.5327(2) 0.3863(4) 0.043(2) Uiso 1 1 d . . .
H37 H 1.1271 0.5319 0.3469 0.052 Uiso 1 1 calc R . .
C38 C 0.7979(2) 0.4524(2) -0.0902(4) 0.0365(18) Uiso 1 1 d . . .
H38A H 0.8010 0.4340 -0.1314 0.044 Uiso 1 1 calc R . .
H38B H 0.8008 0.4822 -0.1052 0.044 Uiso 1 1 calc R . .
C39 C 0.7538(2) 0.4454(2) -0.0558(4) 0.0346(18) Uiso 1 1 d . . .
C40 C 0.7161(2) 0.4555(2) -0.1126(4) 0.0393(19) Uiso 1 1 d . . .
H40A H 0.7161 0.4339 -0.1498 0.047 Uiso 1 1 calc R . .
H40B H 0.6875 0.4556 -0.0900 0.047 Uiso 1 1 calc R . .
C41 C 0.7489(2) 0.4757(2) 0.0064(4) 0.0391(19) Uiso 1 1 d . . .
H41A H 0.7716 0.4699 0.0410 0.047 Uiso 1 1 calc R . .
H41B H 0.7519 0.5053 -0.0095 0.047 Uiso 1 1 calc R . .
C42 C 0.6934(3) 0.4955(2) 0.0957(4) 0.045(2) Uiso 1 1 d . . .
C43 C 0.6519(3) 0.4903(3) 0.1205(4) 0.048(2) Uiso 1 1 d . . .
H43 H 0.6349 0.4684 0.1010 0.058 Uiso 1 1 calc R . .
C44 C 0.6332(2) 0.5155(2) 0.1730(4) 0.0412(18) Uiso 1 1 d . . .
C45 C 0.6585(2) 0.5477(2) 0.2021(4) 0.051(2) Uiso 1 1 d . . .
H45 H 0.6465 0.5661 0.2359 0.061 Uiso 1 1 calc R . .
C46 C 0.7036(2) 0.5528(2) 0.1801(4) 0.048(2) Uiso 1 1 d . . .
C47 C 0.7210(3) 0.5257(2) 0.1281(4) 0.051(2) Uiso 1 1 d . . .
H47 H 0.7504 0.5277 0.1152 0.061 Uiso 1 1 calc R . .
C48 C 0.5874(3) 0.5100(3) 0.1971(4) 0.050(2) Uiso 1 1 d . . .
C49 C 0.7313(3) 0.5892(3) 0.2085(4) 0.050(2) Uiso 1 1 d . . .
C50 C 0.7279(3) 0.7476(3) 0.0626(5) 0.064(3) Uiso 1 1 d . . .
C51 C 0.6617(3) 0.7408(3) -0.0126(5) 0.057(2) Uiso 1 1 d . . .
H51 H 0.6457 0.7394 0.0291 0.068 Uiso 1 1 calc R . .
C52 C 0.7060(3) 0.7469(2) -0.0098(4) 0.047(2) Uiso 1 1 d . . .
C53 C 0.7320(3) 0.7494(3) -0.0714(4) 0.055(2) Uiso 1 1 d . . .
H53 H 0.7617 0.7561 -0.0688 0.065 Uiso 1 1 calc R . .
C54 C 0.7113(3) 0.7416(3) -0.1377(5) 0.057(2) Uiso 1 1 d . . .
C55 C 0.7371(3) 0.7399(3) -0.2051(4) 0.052(2) Uiso 1 1 d . . .
C56 C 0.6643(3) 0.7344(3) -0.1414(5) 0.064(3) Uiso 1 1 d . . .
H56 H 0.6507 0.7284 -0.1844 0.077 Uiso 1 1 calc R . .
C57 C 0.6398(3) 0.7365(3) -0.0790(5) 0.059(2) Uiso 1 1 d . . .
C58 C 0.5668(2) 0.7486(2) -0.0336(4) 0.050(2) Uiso 1 1 d . . .
H58A H 0.5755 0.7781 -0.0237 0.060 Uiso 1 1 calc R . .
H58B H 0.5680 0.7322 0.0100 0.060 Uiso 1 1 calc R . .
C59 C 0.6978(3) 0.5136(2) -0.1900(4) 0.046(2) Uiso 1 1 d . . .
C60 C 0.6554(2) 0.5002(2) -0.2013(4) 0.044(2) Uiso 1 1 d . . .
H60 H 0.6436 0.4769 -0.1769 0.052 Uiso 1 1 calc R . .
C61 C 0.6298(2) 0.5240(2) -0.2531(4) 0.050(2) Uiso 1 1 d . . .
C62 C 0.6461(3) 0.5604(3) -0.2853(5) 0.062(2) Uiso 1 1 d . . .
H62 H 0.6282 0.5764 -0.3155 0.075 Uiso 1 1 calc R . .
C63 C 0.6907(2) 0.5741(2) -0.2726(4) 0.049(2) Uiso 1 1 d . . .
C64 C 0.7140(3) 0.5507(3) -0.2226(4) 0.060(2) Uiso 1 1 d . . .
H64 H 0.7419 0.5602 -0.2101 0.072 Uiso 1 1 calc R . .
C65 C 0.7077(3) 0.6122(3) -0.3062(5) 0.062(2) Uiso 1 1 d . . .
C66 C 0.7454(3) 0.2433(3) 0.0682(5) 0.058(2) Uiso 1 1 d . . .
C69 C 0.7387(2) 0.2379(2) -0.0642(4) 0.0413(19) Uiso 1 1 d . . .
H69 H 0.7350 0.2083 -0.0597 0.050 Uiso 1 1 calc R . .
C70 C 0.7387(3) 0.2567(3) -0.1298(4) 0.046(2) Uiso 1 1 d . . .
C71 C 0.7712(3) 0.7307(3) 0.3065(5) 0.061(2) Uiso 1 1 d . . .
C72 C 0.7412(2) 0.3007(2) -0.1362(4) 0.047(2) Uiso 1 1 d . . .
H72 H 0.7391 0.3137 -0.1805 0.056 Uiso 1 1 calc R . .
C73 C 0.7471(2) 0.3263(2) -0.0746(4) 0.0363(18) Uiso 1 1 d . . .
C74 C 0.7495(2) 0.3081(2) -0.0088(4) 0.050(2) Uiso 1 1 d . . .
H74 H 0.7544 0.3248 0.0313 0.060 Uiso 1 1 calc R . .
C75 C 0.7495(2) 0.3997(2) -0.0291(4) 0.048(2) Uiso 1 1 d . . .
H75A H 0.7732 0.3933 0.0035 0.058 Uiso 1 1 calc R . .
H75B H 0.7218 0.3963 -0.0042 0.058 Uiso 1 1 calc R . .
C76 C 1.1328(8) 0.4340(8) -0.1904(14) 0.252(10) Uiso 1 1 d . . .
C77 C 1.1447(7) 0.4034(9) -0.1349(10) 0.256(11) Uiso 1 1 d D . .
C78 C 1.1479(9) 0.4208(11) 0.0432(11) 0.364(17) Uiso 1 1 d DU . .
C79 C 1.1546(13) 0.3848(9) -0.0104(15) 0.46(2) Uiso 1 1 d DU . .
C80 C 1.0559(7) 0.4027(10) -0.1190(13) 0.319(15) Uiso 1 1 d D . .
C81 C 0.6112(4) 0.6388(4) 0.0905(6) 0.115(4) Uiso 1 1 d . . .
H81A H 0.5877 0.6271 0.0628 0.172 Uiso 1 1 calc R . .
H81B H 0.6070 0.6693 0.0960 0.172 Uiso 1 1 calc R . .
H81C H 0.6114 0.6253 0.1363 0.172 Uiso 1 1 calc R . .
C82 C 0.6551(4) 0.6302(4) 0.0532(6) 0.093(3) Uiso 1 1 d . . .
C83 C 1.0842(5) 0.4142(8) -0.0562(11) 0.304(13) Uiso 1 1 d D . .
C84 C 0.7046(4) 0.5950(4) -0.0323(6) 0.103(4) Uiso 1 1 d . . .
H84A H 0.7264 0.5969 0.0050 0.123 Uiso 1 1 calc R . .
H84B H 0.7046 0.5657 -0.0503 0.123 Uiso 1 1 calc R . .
C85 C 0.7155(5) 0.6245(5) -0.0882(9) 0.171(6) Uiso 1 1 d . . .
H85A H 0.7439 0.6175 -0.1069 0.257 Uiso 1 1 calc R . .
H85B H 0.7159 0.6534 -0.0700 0.257 Uiso 1 1 calc R . .
H85C H 0.6939 0.6224 -0.1251 0.257 Uiso 1 1 calc R . .
C86 C 1.2327(7) 0.5062(6) 0.0920(11) 0.250(10) Uiso 1 1 d D . .
H86A H 1.2429 0.4771 0.1015 0.299 Uiso 1 1 calc R . .
H86B H 1.2455 0.5159 0.0478 0.299 Uiso 1 1 calc R . .
C87 C 1.1512(4) 0.4940(4) 0.1281(7) 0.111(4) Uiso 1 1 d . . .
C88 C 1.1610(4) 0.4649(4) 0.1884(7) 0.125(4) Uiso 1 1 d . . .
H88A H 1.1922 0.4632 0.1949 0.187 Uiso 1 1 calc R . .
H88B H 1.1497 0.4366 0.1785 0.187 Uiso 1 1 calc R . .
H88C H 1.1476 0.4760 0.2306 0.187 Uiso 1 1 calc R . .
C89 C 0.7444(2) 0.2634(3) -0.0045(4) 0.047(2) Uiso 1 1 d . . .
C90 C 0.5429(10) 0.3817(9) 0.1184(16) 0.265(12) Uiso 1 1 d . . .
C91 C 0.5715(6) 0.3666(5) 0.1795(10) 0.201(7) Uiso 1 1 d . . .
H91A H 0.5568 0.3725 0.2235 0.301 Uiso 1 1 calc R . .
H91B H 0.5990 0.3817 0.1784 0.301 Uiso 1 1 calc R . .
H91C H 0.5767 0.3362 0.1754 0.301 Uiso 1 1 calc R . .
C92 C 0.5483(5) 0.3956(6) -0.0137(11) 0.225(9) Uiso 1 1 d D . .
H92A H 0.5484 0.3741 -0.0509 0.270 Uiso 1 1 calc R . .
H92B H 0.5185 0.4058 -0.0064 0.270 Uiso 1 1 calc R . .
C93 C 0.5787(7) 0.4318(6) -0.0304(14) 0.319(14) Uiso 1 1 d D . .
H93A H 0.5687 0.4465 -0.0722 0.478 Uiso 1 1 calc R . .
H93B H 0.6077 0.4207 -0.0383 0.478 Uiso 1 1 calc R . .
H93C H 0.5793 0.4517 0.0085 0.478 Uiso 1 1 calc R . .
C95 C 0.6006(7) 0.3442(6) 0.0289(15) 0.55(3) Uiso 1 1 d D . .
H95A H 0.6074 0.3497 -0.0204 0.657 Uiso 1 1 calc R . .
H95B H 0.6276 0.3447 0.0560 0.657 Uiso 1 1 calc R . .
C96 C 0.5775(11) 0.3014(5) 0.037(2) 0.50(3) Uiso 1 1 d D . .
H96A H 0.5965 0.2786 0.0212 0.752 Uiso 1 1 calc R . .
H96B H 0.5511 0.3014 0.0095 0.752 Uiso 1 1 calc R . .
H96C H 0.5703 0.2969 0.0861 0.752 Uiso 1 1 calc R . .
C97 C 1.1760(5) 0.5330(5) 0.0215(7) 0.152(6) Uiso 1 1 d D . .
H97A H 1.1516 0.5211 -0.0049 0.183 Uiso 1 1 calc R . .
H97B H 1.2019 0.5321 -0.0082 0.183 Uiso 1 1 calc R . .
C98 C 0.6173(4) 0.5913(4) -0.0563(7) 0.130(5) Uiso 1 1 d . . .
H11A H 0.5905 0.6076 -0.0487 0.155 Uiso 1 1 calc R . .
H11B H 0.6254 0.5919 -0.1059 0.155 Uiso 1 1 calc R . .
C99 C 0.6155(6) 0.5528(6) -0.0306(10) 0.204(8) Uiso 1 1 d . . .
H11C H 0.5919 0.5373 -0.0524 0.307 Uiso 1 1 calc R . .
H11D H 0.6107 0.5543 0.0195 0.307 Uiso 1 1 calc R . .
H11E H 0.6427 0.5382 -0.0398 0.307 Uiso 1 1 calc R . .
C100 C 1.2454(5) 0.5357(6) 0.1511(11) 0.263(10) Uiso 1 1 d D . .
H13C H 1.2763 0.5328 0.1604 0.394 Uiso 1 1 calc R . .
H13D H 1.2292 0.5283 0.1928 0.394 Uiso 1 1 calc R . .
H13E H 1.2391 0.5650 0.1380 0.394 Uiso 1 1 calc R . .
C101 C 1.1660(9) 0.5796(6) 0.0431(15) 0.358(17) Uiso 1 1 d D . .
H10C H 1.1779 0.5989 0.0085 0.538 Uiso 1 1 calc R . .
H10D H 1.1790 0.5854 0.0884 0.538 Uiso 1 1 calc R . .
H10E H 1.1348 0.5835 0.0461 0.538 Uiso 1 1 calc R . .
N1 N 0.5687(4) 0.3775(5) 0.0566(8) 0.194(6) Uiso 1 1 d D . .
N2 N 1.1299(5) 0.3992(8) -0.0758(8) 0.375(13) Uiso 1 1 d DU . .
N4 N 0.6585(3) 0.6061(3) -0.0018(5) 0.103(3) Uiso 1 1 d . . .
N5 N 1.1836(5) 0.5072(4) 0.0879(7) 0.160(5) Uiso 1 1 d D . .
O1 O 0.49433(18) 0.4