####################################################################### 
# 
# This file contains crystal structure data downloaded from the 
# Cambridge Structural Database (CSD) hosted by the Cambridge 
# Crystallographic Data Centre (CCDC).
# 
# Full information about CCDC data access policies and citation 
# guidelines are available at http://www.ccdc.cam.ac.uk/access/V1 
# 
# Audit and citation data items may have been added by the CCDC. 
# Please retain this information to preserve the provenance of 
# this file and to allow appropriate attribution of the data. 
# 
#######################################################################

data_4
_audit_block_doi                 10.5517/ccxjk76
_database_code_depnum_ccdc_archive 'CCDC 850058'
loop_
_citation_id
_citation_doi
_citation_year
1 10.1021/ic202635a 2012
_audit_update_record             
;
2011-10-22 deposited with the CCDC.	2024-07-13 downloaded from the CCDC.
;
#TrackingRef 'data.cif'


_audit_creation_method           SHELXL-97
_chemical_name_systematic        
;
?
;
_chemical_name_common            ?
_chemical_melting_point          ?
_chemical_formula_moiety         ?
_chemical_formula_sum            'C84 H80 N2 O53 Zn10'
_chemical_formula_weight         2619.20

loop_
_atom_type_symbol
_atom_type_description
_atom_type_scat_dispersion_real
_atom_type_scat_dispersion_imag
_atom_type_scat_source
C C 0.0033 0.0016 'International Tables Vol C Tables 4.2.6.8 and 6.1.1.4'
H H 0.0000 0.0000 'International Tables Vol C Tables 4.2.6.8 and 6.1.1.4'
N N 0.0061 0.0033 'International Tables Vol C Tables 4.2.6.8 and 6.1.1.4'
O O 0.0106 0.0060 'International Tables Vol C Tables 4.2.6.8 and 6.1.1.4'
Zn Zn 0.2839 1.4301 'International Tables Vol C Tables 4.2.6.8 and 6.1.1.4'

_symmetry_cell_setting           Tetragonal
_symmetry_space_group_name_H-M   'P 21 21 21 '
_symmetry_space_group_name_Hall  'P 2ac 2ab '

loop_
_symmetry_equiv_pos_as_xyz
'x, y, z'
'-x+1/2, -y, z+1/2'
'x+1/2, -y+1/2, -z'
'-x, y+1/2, -z+1/2'

_cell_length_a                   21.883(2)
_cell_length_b                   21.883(2)
_cell_length_c                   40.1840(17)
_cell_angle_alpha                90.00
_cell_angle_beta                 90.00
_cell_angle_gamma                90.00
_cell_volume                     19243(3)
_cell_formula_units_Z            4
_cell_measurement_temperature    293(2)
_cell_measurement_reflns_used    ?
_cell_measurement_theta_min      1.01
_cell_measurement_theta_max      25.01

_exptl_crystal_description       block
_exptl_crystal_colour            colorless
_exptl_crystal_size_max          0.37
_exptl_crystal_size_mid          0.29
_exptl_crystal_size_min          0.24
_exptl_crystal_density_meas      ?
_exptl_crystal_density_diffrn    0.904
_exptl_crystal_density_method    'not measured'
_exptl_crystal_F_000             5288
_exptl_absorpt_coefficient_mu    1.276
_exptl_absorpt_correction_type   multi-scan
_exptl_absorpt_correction_T_min  0.648
_exptl_absorpt_correction_T_max  0.736
_exptl_absorpt_process_details   'SADABS (Sheldrick, 1996)'

_exptl_special_details           
;
?
;

_diffrn_ambient_temperature      293(2)
_diffrn_radiation_wavelength     0.71069
_diffrn_radiation_type           MoK\a
_diffrn_radiation_source         'fine-focus sealed tube'
_diffrn_radiation_monochromator  graphite
_diffrn_measurement_device_type  'Bruker APEX CCD area-detector'
_diffrn_measurement_method       '\w scans'
_diffrn_detector_area_resol_mean ?
_diffrn_standards_number         0
_diffrn_standards_interval_count 0
_diffrn_standards_interval_time  0
_diffrn_standards_decay_%        0
_diffrn_reflns_number            97830
_diffrn_reflns_av_R_equivalents  0.0757
_diffrn_reflns_av_sigmaI/netI    0.1040
_diffrn_reflns_limit_h_min       -26
_diffrn_reflns_limit_h_max       26
_diffrn_reflns_limit_k_min       -26
_diffrn_reflns_limit_k_max       18
_diffrn_reflns_limit_l_min       -45
_diffrn_reflns_limit_l_max       47
_diffrn_reflns_theta_min         1.01
_diffrn_reflns_theta_max         25.29
_reflns_number_total             34104
_reflns_number_gt                20443
_reflns_threshold_expression     >2sigma(I)

_computing_data_collection       'SMART (Bruker, 1997)'
_computing_cell_refinement       SMART
_computing_data_reduction        'SAINT (Bruker, 1999)'
_computing_structure_solution    'SHELXS-97(Sheldrick, 2008)'
_computing_structure_refinement  'SHELXL-97 (Sheldrick, 2008)'
_computing_molecular_graphics    'Diamond (Brandenburg and Putz, 2008)'
_computing_publication_material  SHELXL-97

_refine_special_details          
;
Refinement of F^2^ against ALL reflections. The weighted R-factor wR and
goodness of fit S are based on F^2^, conventional R-factors R are based
on F, with F set to zero for negative F^2^. The threshold expression of
F^2^ > 2sigma(F^2^) is used only for calculating R-factors(gt) etc. and is
not relevant to the choice of reflections for refinement. R-factors based
on F^2^ are statistically about twice as large as those based on F, and R-
factors based on ALL data will be even larger.
;

_refine_ls_structure_factor_coef Fsqd
_refine_ls_matrix_type           full
_refine_ls_weighting_scheme      calc
_refine_ls_weighting_details     
'calc w=1/[\s^2^(Fo^2^)+(0.0272P)^2^+0.0000P] where P=(Fo^2^+2Fc^2^)/3'
_atom_sites_solution_primary     direct
_atom_sites_solution_secondary   difmap
_atom_sites_solution_hydrogens   geom
_refine_ls_hydrogen_treatment    CONSTR
_refine_ls_extinction_method     none
_refine_ls_extinction_coef       ?
_refine_ls_abs_structure_details 'Flack H D (1983), Acta Cryst. A39, 876-881'
_refine_ls_abs_structure_Flack   -0.002(7)
_refine_ls_number_reflns         34104
_refine_ls_number_parameters     1272
_refine_ls_number_restraints     36
_refine_ls_R_factor_all          0.0812
_refine_ls_R_factor_gt           0.0487
_refine_ls_wR_factor_ref         0.0949
_refine_ls_wR_factor_gt          0.0896
_refine_ls_goodness_of_fit_ref   0.964
_refine_ls_restrained_S_all      0.967
_refine_ls_shift/su_max          0.001
_refine_ls_shift/su_mean         0.000

loop_
_atom_site_label
_atom_site_type_symbol
_atom_site_fract_x
_atom_site_fract_y
_atom_site_fract_z
_atom_site_U_iso_or_equiv
_atom_site_adp_type
_atom_site_occupancy
_atom_site_symmetry_multiplicity
_atom_site_calc_flag
_atom_site_refinement_flags
_atom_site_disorder_assembly
_atom_site_disorder_group
Zn1 Zn 0.18185(3) 0.01029(2) 0.285765(14) 0.04144(15) Uani 1 1 d . . .
Zn2 Zn 0.26248(3) 0.06897(2) 0.464847(13) 0.03872(15) Uani 1 1 d . . .
Zn3 Zn 0.22033(3) -0.34323(3) 0.289752(15) 0.05137(18) Uani 1 1 d . . .
Zn4 Zn 0.19345(3) -0.01765(3) 0.525363(14) 0.04906(17) Uani 1 1 d . . .
Zn5 Zn 0.25956(3) 0.08619(3) 0.226112(15) 0.05067(17) Uani 1 1 d . . .
Zn6 Zn 0.19075(3) 0.57237(3) 0.489544(13) 0.04202(15) Uani 1 1 d . . .
Zn7 Zn 0.62981(3) 0.03331(3) 0.467050(19) 0.0654(2) Uani 1 1 d D . .
Zn8 Zn 0.20024(3) -0.46973(3) 0.244382(16) 0.0640(2) Uani 1 1 d . . .
Zn9 Zn 0.34440(3) -0.39563(3) 0.255542(16) 0.05781(19) Uani 1 1 d . . .
Zn10 Zn 0.74917(4) 0.07701(3) 0.51151(2) 0.0956(3) Uani 1 1 d . . .
C1 C 0.1226(3) 0.0731(3) 0.23076(15) 0.0575(15) Uani 1 1 d . . .
C2 C 0.2728(2) -0.0451(2) 0.24283(14) 0.0487(14) Uani 1 1 d . . .
C3 C 0.2765(3) 0.1184(2) 0.28970(17) 0.0562(15) Uani 1 1 d . . .
C4 C 0.3019(2) 0.1476(2) 0.31967(14) 0.0502(14) Uani 1 1 d . . .
C5 C 0.2899(2) 0.1242(3) 0.35101(16) 0.0651(17) Uani 1 1 d . . .
H5 H 0.2626 0.0918 0.3528 0.078 Uiso 1 1 calc R . .
C6 C 0.3157(3) 0.1461(3) 0.37888(14) 0.0581(16) Uani 1 1 d . . .
C7 C 0.3552(3) 0.1976(3) 0.37739(14) 0.0641(17) Uani 1 1 d . . .
H7 H 0.3718 0.2140 0.3967 0.077 Uiso 1 1 calc R . .
C8 C 0.3687(2) 0.2234(2) 0.34605(13) 0.0445(13) Uani 1 1 d . . .
C9 C 0.3412(2) 0.1952(3) 0.31734(14) 0.0587(16) Uani 1 1 d . . .
H9 H 0.3507 0.2104 0.2964 0.070 Uiso 1 1 calc R . .
C10 C 0.4418(2) 0.2868(2) 0.36863(12) 0.0476(14) Uani 1 1 d . . .
H10A H 0.4644 0.2513 0.3763 0.057 Uiso 1 1 calc R . .
H10B H 0.4165 0.3013 0.3868 0.057 Uiso 1 1 calc R . .
C11 C 0.4860(2) 0.3366(2) 0.35803(12) 0.0400(13) Uani 1 1 d . . .
C12 C 0.5307(2) 0.3485(2) 0.38710(11) 0.0406(13) Uani 1 1 d . . .
H12A H 0.5607 0.3791 0.3809 0.049 Uiso 1 1 calc R . .
H12B H 0.5088 0.3628 0.4066 0.049 Uiso 1 1 calc R . .
C13 C 0.5218(2) 0.3177(2) 0.32778(12) 0.0427(13) Uani 1 1 d . . .
H13A H 0.5447 0.2807 0.3325 0.051 Uiso 1 1 calc R . .
H13B H 0.4942 0.3094 0.3095 0.051 Uiso 1 1 calc R . .
C14 C 0.5984(2) 0.2888(2) 0.42049(13) 0.0439(13) Uani 1 1 d . . .
C15 C 0.6224(2) 0.3382(2) 0.43703(13) 0.0521(15) Uani 1 1 d . . .
H15 H 0.6119 0.3778 0.4309 0.063 Uiso 1 1 calc R . .
C16 C 0.6636(2) 0.3274(2) 0.46375(13) 0.0423(13) Uani 1 1 d . . .
C17 C 0.6778(2) 0.2707(2) 0.47430(12) 0.0469(14) Uani 1 1 d . . .
H17 H 0.7051 0.2648 0.4917 0.056 Uiso 1 1 calc R . .
C18 C 0.6508(3) 0.2217(2) 0.45868(16) 0.0630(17) Uani 1 1 d . . .
C19 C 0.6112(2) 0.2311(2) 0.43200(13) 0.0508(15) Uani 1 1 d . . .
H19 H 0.5930 0.1976 0.4218 0.061 Uiso 1 1 calc R . .
C20 C 0.6643(3) 0.1577(2) 0.47049(15) 0.0584(16) Uani 1 1 d . . .
C21 C 0.3925(2) -0.1463(2) 0.20474(12) 0.0438(13) Uani 1 1 d . . .
C22 C 0.3589(2) -0.0952(2) 0.21270(12) 0.0481(14) Uani 1 1 d . . .
H22 H 0.3685 -0.0576 0.2032 0.058 Uiso 1 1 calc R . .
C23 C 0.3105(2) -0.1000(2) 0.23497(12) 0.0487(14) Uani 1 1 d . . .
C24 C 0.2973(2) -0.1571(2) 0.24902(12) 0.0474(14) Uani 1 1 d . . .
H24 H 0.2641 -0.1616 0.2633 0.057 Uiso 1 1 calc R . .
C25 C 0.3335(2) -0.2060(2) 0.24158(12) 0.0411(13) Uani 1 1 d . . .
C26 C 0.3815(2) -0.2007(2) 0.21982(13) 0.0488(14) Uani 1 1 d . . .
H26 H 0.4063 -0.2343 0.2154 0.059 Uiso 1 1 calc R . .
C27 C 0.3194(3) -0.2665(2) 0.25550(13) 0.0499(14) Uani 1 1 d . . .
C29 C 0.3121(3) -0.4223(2) 0.32370(13) 0.0490(14) Uani 1 1 d . . .
C30 C 0.3261(2) -0.4595(2) 0.35507(12) 0.0404(13) Uani 1 1 d . . .
C31 C 0.3683(2) -0.5040(2) 0.35262(12) 0.0449(13) Uani 1 1 d . . .
H31 H 0.3890 -0.5099 0.3327 0.054 Uiso 1 1 calc R . .
C32 C 0.3812(2) 0.4583(2) 0.38012(12) 0.0514(15) Uani 1 1 d . . .
C33 C 0.4504(2) 0.3942(2) 0.35137(12) 0.0430(13) Uani 1 1 d . . .
H33A H 0.4778 0.4267 0.3446 0.052 Uiso 1 1 calc R . .
H33B H 0.4210 0.3873 0.3337 0.052 Uiso 1 1 calc R . .
C34 C 0.3527(2) 0.4723(2) 0.41047(12) 0.0539(15) Uani 1 1 d . . .
H34 H 0.3623 0.4499 0.4295 0.065 Uiso 1 1 calc R . .
C35 C 0.3111(2) 0.5186(2) 0.41213(11) 0.0444(13) Uani 1 1 d . . .
C36 C 0.2976(2) -0.4479(2) 0.38540(12) 0.0459(14) Uani 1 1 d . . .
H36 H 0.2690 -0.4167 0.3870 0.055 Uiso 1 1 calc R . .
C37 C 0.2791(2) 0.5282(3) 0.44521(14) 0.0502(15) Uani 1 1 d . . .
C38 C -0.1072(3) 0.0775(3) 0.22037(16) 0.0758(19) Uani 1 1 d . . .
C39 C 0.2263(4) -0.5034(3) 0.17856(16) 0.092(2) Uani 1 1 d . . .
C40 C 0.2196(3) -0.5427(3) 0.14789(14) 0.0637(17) Uani 1 1 d . . .
C41 C 0.2548(3) -0.5331(2) 0.11935(14) 0.0636(17) Uani 1 1 d . . .
H41 H 0.2855 -0.5037 0.1196 0.076 Uiso 1 1 calc R . .
C42 C 0.2451(2) -0.5650(2) 0.09222(12) 0.0469(13) Uani 1 1 d . . .
C43 C 0.2811(3) -0.5509(2) 0.06131(13) 0.0484(15) Uani 1 1 d . . .
C44 C 0.5517(3) -0.0512(3) 0.49898(14) 0.0534(15) Uani 1 1 d . . .
C45 C 0.2047(3) -0.6123(2) 0.09135(12) 0.0593(16) Uani 1 1 d . . .
H45 H 0.1992 -0.6346 0.0719 0.071 Uiso 1 1 calc R . .
C46 C 0.1716(3) -0.6272(2) 0.11978(14) 0.0615(17) Uani 1 1 d . . .
C47 C 0.1771(3) -0.5902(2) 0.14804(12) 0.0583(16) Uani 1 1 d . . .
H47 H 0.1528 -0.5972 0.1666 0.070 Uiso 1 1 calc R . .
C48 C 0.1146(2) 0.2932(2) 0.09532(12) 0.0473(14) Uani 1 1 d . . .
H48A H 0.1478 0.2658 0.0897 0.057 Uiso 1 1 calc R . .
H48B H 0.1063 0.3191 0.0762 0.057 Uiso 1 1 calc R . .
C49 C 0.0574(2) 0.2568(2) 0.10480(11) 0.0388(13) Uani 1 1 d . . .
C50 C 0.0726(2) 0.2153(2) 0.13281(13) 0.0457(13) Uani 1 1 d . . .
H50A H 0.1044 0.1869 0.1261 0.055 Uiso 1 1 calc R . .
H50B H 0.0874 0.2387 0.1516 0.055 Uiso 1 1 calc R . .
C51 C 0.0205(3) 0.1495(2) 0.17021(13) 0.0505(14) Uani 1 1 d . . .
C52 C 0.0722(2) 0.1285(2) 0.18657(14) 0.0490(14) Uani 1 1 d . . .
H52 H 0.1108 0.1384 0.1786 0.059 Uiso 1 1 calc R . .
C53 C 0.0664(2) 0.0938(2) 0.21385(13) 0.0443(13) Uani 1 1 d . . .
C54 C 0.0098(2) 0.0760(2) 0.22641(13) 0.0576(15) Uani 1 1 d . . .
H54 H 0.0070 0.0518 0.2454 0.069 Uiso 1 1 calc R . .
C55 C -0.0440(2) 0.0961(2) 0.20932(13) 0.0497(14) Uani 1 1 d . . .
C56 C -0.0378(2) 0.1321(2) 0.18127(14) 0.0563(16) Uani 1 1 d . . .
H56 H -0.0723 0.1449 0.1697 0.068 Uiso 1 1 calc R . .
C57 C -0.0071(2) -0.2017(2) 0.38405(12) 0.0492(14) Uani 1 1 d . . .
H57A H 0.0273 -0.2256 0.3762 0.059 Uiso 1 1 calc R . .
H57B H -0.0213 -0.1760 0.3659 0.059 Uiso 1 1 calc R . .
C58 C 0.0548(2) -0.1209(2) 0.40552(14) 0.0540(15) Uani 1 1 d . . .
C59 C 0.0756(2) -0.1039(2) 0.37420(13) 0.0544(15) Uani 1 1 d . . .
H59 H 0.0604 -0.1237 0.3554 0.065 Uiso 1 1 calc R . .
C60 C 0.1178(3) -0.0588(2) 0.37062(13) 0.0524(15) Uani 1 1 d . . .
C61 C 0.1377(3) -0.0405(3) 0.33676(17) 0.0672(19) Uani 1 1 d . . .
C62 C 0.1444(3) -0.0339(2) 0.39766(14) 0.0581(16) Uani 1 1 d . . .
H62 H 0.1735 -0.0033 0.3951 0.070 Uiso 1 1 calc R . .
C63 C 0.1281(3) -0.0544(2) 0.43029(13) 0.0523(15) Uani 1 1 d . . .
C64 C 0.0821(2) -0.0956(2) 0.43325(12) 0.0497(14) Uani 1 1 d . . .
H64 H 0.0688 -0.1071 0.4543 0.060 Uiso 1 1 calc R . .
C65 C 0.1574(3) -0.0275(3) 0.45923(16) 0.0665(17) Uani 1 1 d . . .
C66 C 0.1918(3) 0.1172(2) 0.51932(15) 0.0519(15) Uani 1 1 d . . .
C67 C 0.3036(3) 0.1244(3) 0.4157(2) 0.074(2) Uani 1 1 d . . .
C68 C 0.3238(3) -0.0209(3) 0.50280(15) 0.0589(16) Uani 1 1 d . . .
C69 C 0.3803(2) -0.0547(2) 0.51134(13) 0.0510(14) Uani 1 1 d . . .
C70 C 0.3761(2) -0.1053(2) 0.53306(13) 0.0526(14) Uani 1 1 d . . .
H70 H 0.3383 -0.1164 0.5418 0.063 Uiso 1 1 calc R . .
C71 C 0.4269(3) -0.1377(2) 0.54136(13) 0.0513(15) Uani 1 1 d . . .
C72 C 0.4665(2) -0.2198(2) 0.57443(12) 0.0441(14) Uani 1 1 d . . .
H72A H 0.4999 -0.1933 0.5810 0.053 Uiso 1 1 calc R . .
H72B H 0.4807 -0.2471 0.5571 0.053 Uiso 1 1 calc R . .
C73 C 0.4848(2) -0.1219(2) 0.52964(13) 0.0513(14) Uani 1 1 d . . .
H73 H 0.5190 -0.1447 0.5356 0.062 Uiso 1 1 calc R . .
C74 C 0.4906(2) -0.0714(2) 0.50897(12) 0.0448(13) Uani 1 1 d . . .
C75 C 0.4408(2) -0.0381(2) 0.50063(11) 0.0435(14) Uani 1 1 d . . .
H75 H 0.4458 -0.0034 0.4876 0.052 Uiso 1 1 calc R . .
O1 O 0.11762(16) 0.04197(16) 0.25753(10) 0.0632(11) Uani 1 1 d . . .
O2 O 0.17291(16) 0.09091(18) 0.21989(9) 0.0676(12) Uani 1 1 d . . .
O3 O 0.28690(17) 0.00284(16) 0.22861(9) 0.0603(11) Uani 1 1 d . . .
O4 O 0.23146(17) -0.05194(15) 0.26440(9) 0.0619(11) Uani 1 1 d . . .
O5 O 0.2385(2) 0.0800(2) 0.29203(11) 0.1049(17) Uani 1 1 d . . .
O6 O 0.29370(18) 0.13622(17) 0.26090(10) 0.0700(12) Uani 1 1 d . . .
O7 O 0.40437(16) 0.27056(15) 0.34102(8) 0.0487(9) Uani 1 1 d . . .
O8 O 0.56177(16) 0.36449(14) 0.31911(8) 0.0535(10) Uani 1 1 d . . .
O9 O 0.55998(16) 0.29161(14) 0.39388(9) 0.0547(10) Uani 1 1 d . . .
O10 O 0.35481(16) -0.30957(15) 0.24793(9) 0.0593(11) Uani 1 1 d . . .
O11 O 0.27459(18) -0.27059(14) 0.27553(9) 0.0648(11) Uani 1 1 d . . .
O12 O 0.62917(18) 0.11757(15) 0.45769(10) 0.0666(11) Uani 1 1 d . . .
O13 O 0.7036(2) 0.14939(17) 0.49027(12) 0.1047(19) Uani 1 1 d . . .
O14 O 0.24867(15) -0.39587(15) 0.24815(8) 0.0583(10) Uani 1 1 d . . .
O15 O 0.34488(17) -0.43310(17) 0.29889(8) 0.0632(11) Uani 1 1 d . . .
O16 O 0.27232(16) -0.38380(15) 0.32518(8) 0.0494(9) Uani 1 1 d . . .
O17 O 0.15105(18) -0.4047(2) 0.29774(10) 0.0793(13) Uani 1 1 d . . .
O18 O -0.11306(18) 0.0485(2) 0.24652(10) 0.0828(14) Uani 1 1 d . . .
O19 O 0.1925(2) -0.5151(2) 0.20303(10) 0.0912(15) Uani 1 1 d . . .
O20 O 0.2665(3) -0.4653(3) 0.17796(12) 0.162(3) Uani 1 1 d . . .
O21 O 0.55541(15) -0.00532(17) 0.48002(9) 0.0614(11) Uani 1 1 d . . .
O22 O 0.09870(16) 0.58126(15) 0.49086(9) 0.0564(10) Uani 1 1 d . . .
O23 O 0.67812(19) -0.01156(19) 0.43475(8) 0.0743(12) Uani 1 1 d . . .
O24 O 0.22922(15) 0.57844(15) 0.53450(8) 0.0516(9) Uani 1 1 d . . .
O25 O 0.17991(15) 0.47842(13) 0.49237(9) 0.0545(10) Uani 1 1 d . . .
O7W O 0.8040(4) 0.0745(5) 0.46867(19) 0.277(5) Uani 1 1 d . . .
O27 O 0.29733(17) 0.49614(17) 0.46980(9) 0.0682(11) Uani 1 1 d . . .
O28 O 0.7329(3) 0.1100(3) 0.56210(17) 0.177(3) Uiso 1 1 d D . .
O29 O 0.1966(2) 0.66463(16) 0.48640(10) 0.0803(13) Uani 1 1 d D . .
O4W O 0.2957(3) 0.1160(2) 0.18641(12) 0.135(2) Uani 1 1 d . . .
O3W O 0.4490(3) -0.3992(3) 0.26030(17) 0.178(3) Uani 1 1 d . . .
O32 O 0.3611(2) -0.4420(2) 0.21617(11) 0.1170(18) Uani 1 1 d . . .
O33 O 0.2270(3) -0.5314(2) 0.27848(13) 0.135(2) Uani 1 1 d . . .
O1W O 0.1854(2) -0.28660(19) 0.32964(11) 0.1000(15) Uani 1 1 d . . .
O2W O 0.1458(3) -0.2961(3) 0.25881(18) 0.176(3) Uani 1 1 d . . .
O36 O 0.23615(18) 0.56587(16) 0.44667(8) 0.0619(10) Uani 1 1 d . . .
O37 O 0.12987(18) -0.67160(16) 0.12255(8) 0.0640(11) Uani 1 1 d . . .
O38 O 0.42017(16) 0.41041(16) 0.38056(8) 0.0592(11) Uani 1 1 d . . .
O39 O 0.02042(16) 0.18359(17) 0.14155(9) 0.0618(11) Uani 1 1 d . . .
O41 O 0.1186(2) -0.0678(2) 0.31121(10) 0.0895(15) Uani 1 1 d . . .
O42 O 0.17118(19) 0.00437(18) 0.33378(9) 0.0717(12) Uani 1 1 d . . .
O43 O 0.14398(19) -0.04775(16) 0.48752(10) 0.0680(12) Uani 1 1 d . . .
O44 O 0.1943(2) 0.0133(2) 0.45496(10) 0.1009(16) Uani 1 1 d . . .
O5W O 0.1596(3) -0.0673(3) 0.56108(15) 0.189(3) Uani 1 1 d . . .
O46 O 0.17724(19) 0.06657(15) 0.53151(9) 0.0698(12) Uani 1 1 d . . .
O47 O 0.22663(17) 0.12739(15) 0.49604(10) 0.0652(12) Uani 1 1 d . . .
O48 O 0.27721(19) -0.0383(2) 0.51561(12) 0.0999(17) Uani 1 1 d . . .
O49 O 0.33043(15) 0.02401(16) 0.48394(9) 0.0