####################################################################### 
# 
# This file contains crystal structure data downloaded from the 
# Cambridge Structural Database (CSD) hosted by the Cambridge 
# Crystallographic Data Centre (CCDC).
# 
# Full information about CCDC data access policies and citation 
# guidelines are available at http://www.ccdc.cam.ac.uk/access/V1 
# 
# Audit and citation data items may have been added by the CCDC. 
# Please retain this information to preserve the provenance of 
# this file and to allow appropriate attribution of the data. 
# 
#######################################################################

data_C-hexytetracyanoresorcinarene/Ag
_audit_block_doi                 10.5517/cczhry4
_database_code_depnum_ccdc_archive 'CCDC 908887'
loop_
_citation_id
_citation_doi
_citation_year
1 10.1039/c2ce26802g 2013
_audit_update_record             
;
2012-11-01 deposited with the CCDC.	2024-07-13 downloaded from the CCDC.
;
#TrackingRef '15895_web_deposit_cif_file_1_AndrewMossine_1354649190.RESCNAG.CIF'


_audit_creation_method           SHELXL-97
_chemical_name_systematic        ?
_chemical_name_common            
'C-hexyltetracyanoresorcin(4)arene silver complex'
_chemical_formula_moiety         'C56 H68 N4 O8 Ag1, 3.6(C1H4O1), 0.3(H2O)'
_chemical_formula_sum            'C59.60 H83 Ag N4 O11.90'
_exptl_crystal_recrystallization_method '8:1 methanol:water'
_chemical_melting_point          ?

_exptl_crystal_description       rod
_exptl_crystal_colour            yellow

_diffrn_ambient_temperature      173(2)
_chemical_formula_weight         1153.7990

loop_
_atom_type_symbol
_atom_type_description
_atom_type_scat_dispersion_real
_atom_type_scat_dispersion_imag
_atom_type_scat_source
C C 0.0033 0.0016 'International Tables Vol C Tables 4.2.6.8 and 6.1.1.4'
H H 0.0000 0.0000 'International Tables Vol C Tables 4.2.6.8 and 6.1.1.4'
N N 0.0061 0.0033 'International Tables Vol C Tables 4.2.6.8 and 6.1.1.4'
O O 0.0106 0.0060 'International Tables Vol C Tables 4.2.6.8 and 6.1.1.4'
Ag Ag -0.8971 1.1015 'International Tables Vol C Tables 4.2.6.8 and 6.1.1.4'

_symmetry_cell_setting           orthorhombic
_symmetry_space_group_name_H-M   'P 21 21 21'
_symmetry_int_tables_number      19
_chemical_absolute_configuration ?

loop_
_symmetry_equiv_pos_as_xyz
'x, y, z'
'-x+1/2, -y, z+1/2'
'x+1/2, -y+1/2, -z'
'-x, y+1/2, -z+1/2'

_cell_length_a                   15.6936(18)
_cell_length_b                   15.9984(19)
_cell_length_c                   26.489(3)
_cell_angle_alpha                90.00
_cell_angle_beta                 90.00
_cell_angle_gamma                90.00
_cell_volume                     6650.6(13)
_cell_formula_units_Z            4
_cell_measurement_temperature    173(2)
_cell_measurement_reflns_used    9901
_cell_measurement_theta_min      2.381
_cell_measurement_theta_max      22.326
_exptl_crystal_size_max          0.25
_exptl_crystal_size_mid          0.25
_exptl_crystal_size_min          0.15
_exptl_crystal_density_meas      ?
_exptl_crystal_density_diffrn    1.137
_exptl_crystal_density_method    'not measured'
_exptl_crystal_F_000             2439
_exptl_absorpt_coefficient_mu    0.359
_exptl_absorpt_correction_type   multi-scan
_exptl_absorpt_correction_T_min  0.82
_exptl_absorpt_correction_T_max  0.95
_exptl_absorpt_process_details   
;
Data were corrected for decay and absorption using the program
SADABS (Sheldrick, G. M. (2003). SADABS. Version 2.10.
University of G\"ottingen, Germany).
;
_exptl_special_details           
;
?
;
_diffrn_radiation_probe          x-ray
_diffrn_radiation_type           MoK\a
_diffrn_radiation_wavelength     0.71073
_diffrn_source                   'fine-focus sealed tube'
_diffrn_radiation_monochromator  graphite
_diffrn_measurement_device_type  'Bruker APEXII CCD area detector'
_diffrn_measurement_method       'omega scans'
_diffrn_detector_area_resol_mean ?
_diffrn_standards_number         ?
_diffrn_standards_interval_count ?
_diffrn_standards_interval_time  ?
_diffrn_standards_decay_%        0.0
_diffrn_reflns_number            77688
_diffrn_reflns_av_R_equivalents  0.0467
_diffrn_reflns_av_sigmaI/netI    0.0428
_diffrn_reflns_limit_h_min       -20
_diffrn_reflns_limit_h_max       20
_diffrn_reflns_limit_k_min       -20
_diffrn_reflns_limit_k_max       20
_diffrn_reflns_limit_l_min       -34
_diffrn_reflns_limit_l_max       33
_diffrn_reflns_theta_min         1.49
_diffrn_reflns_theta_max         27.50
_reflns_number_total             15196
_reflns_number_gt                8239
_reflns_threshold_expression     >2sigma(I)

_computing_data_collection       'APEX2 (Bruker AXS, 2008)'
_computing_cell_refinement       'APEX2 (Bruker AXS, 2008)'
_computing_data_reduction        'APEX2 (Bruker AXS, 2008)'
_computing_structure_solution    'SHELXS-97 (Sheldrick, 1990)'
_computing_structure_refinement  'SHELXL-97 (Sheldrick, 1997)'
_computing_molecular_graphics    'X-SEED, Barbour, 2001'
_computing_publication_material  'CIFTAB (Sheldrick, 1997)'

_refine_special_details          
;
Refinement of F^2^ against ALL reflections. The weighted R-factor wR and
goodness of fit S are based on F^2^, conventional R-factors R are based
on F, with F set to zero for negative F^2^. The threshold expression of
F^2^ > 2sigma(F^2^) is used only for calculating R-factors(gt) etc. and is
not relevant to the choice of reflections for refinement. R-factors based
on F^2^ are statistically about twice as large as those based on F, and R-
factors based on ALL data will be even larger. The crystal was a racemic
twin so the TWIN command was used during refinement. It is unlikely that
all possible positions of c-hexyl tails and solvent molecules have been
accounted for due to a high level of disorder within these parts of the
structure. However, all major parts have been modeled to the best of our
ability.
;

_refine_ls_structure_factor_coef Fsqd
_refine_ls_matrix_type           full
_refine_ls_weighting_scheme      calc
_refine_ls_weighting_details     
'calc w=1/[\s^2^(Fo^2^)+(0.2000P)^2^+0.0000P] where P=(Fo^2^+2Fc^2^)/3'
_atom_sites_solution_primary     direct
_atom_sites_solution_secondary   difmap
_atom_sites_solution_hydrogens   geom
_refine_ls_hydrogen_treatment    mixed
_refine_ls_extinction_method     none
_refine_ls_extinction_coef       ?
_refine_ls_abs_structure_details 'Flack H D (1983), Acta Cryst. A39, 876-881'
_refine_ls_abs_structure_Flack   0.50(5)
_refine_ls_number_reflns         15196
_refine_ls_number_parameters     670
_refine_ls_number_restraints     50
_refine_ls_R_factor_all          0.1634
_refine_ls_R_factor_gt           0.1058
_refine_ls_wR_factor_ref         0.3363
_refine_ls_wR_factor_gt          0.2857
_refine_ls_goodness_of_fit_ref   1.119
_refine_ls_restrained_S_all      1.121
_refine_ls_shift/su_max          0.059
_refine_ls_shift/su_mean         0.002

loop_
_atom_site_label
_atom_site_type_symbol
_atom_site_fract_x
_atom_site_fract_y
_atom_site_fract_z
_atom_site_U_iso_or_equiv
_atom_site_adp_type
_atom_site_occupancy
_atom_site_symmetry_multiplicity
_atom_site_calc_flag
_atom_site_refinement_flags
_atom_site_disorder_assembly
_atom_site_disorder_group
Ag1 Ag 1.01634(5) 0.75528(4) 0.13889(3) 0.1035(3) Uani 1 1 d . . .
O6 O 0.8532(4) 0.5926(3) 0.5429(2) 0.0851(16) Uani 1 1 d D . .
C8 C 0.6790(5) 0.9158(4) 0.4105(3) 0.067(2) Uani 1 1 d . . .
H8 H 0.6354 0.8750 0.4137 0.081 Uiso 1 1 calc R . .
O2 O 0.7973(4) 0.8967(3) 0.2512(2) 0.0894(16) Uani 1 1 d D D .
C15 C 0.6937(3) 0.7491(4) 0.5032(2) 0.0572(12) Uani 1 1 d . . .
H15 H 0.6379 0.7521 0.4894 0.069 Uiso 1 1 calc R . .
C20 C 0.7283(5) 0.6679(4) 0.5119(3) 0.0634(18) Uani 1 1 d . . .
C17 C 0.8180(4) 0.8162(4) 0.5335(3) 0.0623(16) Uani 1 1 d . . .
C2 C 0.6699(6) 0.6803(5) 0.2969(3) 0.078(2) Uani 1 1 d . D .
C16 C 0.7346(4) 0.8237(4) 0.5133(3) 0.0593(16) Uani 1 1 d . D .
C28 C 0.6282(7) 0.6000(6) 0.3094(3) 0.093(3) Uani 1 1 d . . .
H28 H 0.6365 0.5607 0.2804 0.111 Uiso 1 1 calc R . .
O5 O 0.8683(3) 0.8839(3) 0.5445(2) 0.0789(14) Uani 1 1 d D . .
C21 C 0.6766(4) 0.5897(4) 0.5005(3) 0.070(2) Uani 1 1 d . . .
H21 H 0.6977 0.5460 0.5245 0.085 Uiso 1 1 calc R . .
N3 N 1.0081(5) 0.7332(5) 0.5775(3) 0.100(2) Uani 1 1 d . . .
O1 O 0.7758(4) 0.6052(4) 0.2461(2) 0.0937(18) Uani 1 1 d D D .
C3N C 0.9393(5) 0.7328(5) 0.5621(3) 0.081(2) Uani 1 1 d . . .
C27 C 0.6730(6) 0.5620(4) 0.3572(4) 0.084(2) Uani 1 1 d . . .
O3 O 0.7880(5) 1.0325(3) 0.3117(2) 0.0924(18) Uani 1 1 d D D .
C4 C 0.7823(4) 0.7511(5) 0.2501(2) 0.0710(16) Uani 1 1 d . D .
C1 C 0.6448(4) 0.7593(4) 0.3111(3) 0.0732(17) Uani 1 1 d . . .
H1A H 0.5976 0.7629 0.3335 0.088 Uiso 1 1 calc R . .
C23 C 0.6978(5) 0.5589(4) 0.4496(3) 0.072(2) Uani 1 1 d . . .
C13 C 0.7200(5) 0.9421(4) 0.4530(3) 0.0628(17) Uani 1 1 d . D .
C9 C 0.6993(5) 0.9474(4) 0.3605(3) 0.0664(17) Uani 1 1 d . D .
C22 C 0.6602(6) 0.5915(5) 0.4054(3) 0.074(2) Uani 1 1 d . . .
H22 H 0.6229 0.6377 0.4093 0.089 Uiso 1 1 calc R . .
C11 C 0.8071(5) 1.0307(4) 0.4008(3) 0.0697(19) Uani 1 1 d . D .
C41 C 0.5808(6) 0.5979(5) 0.5106(4) 0.082(2) Uani 1 1 d . . .
H41A H 0.5578 0.6405 0.4872 0.098 Uiso 1 1 calc R . .
H41B H 0.5536 0.5440 0.5018 0.098 Uiso 1 1 calc R . .
O4 O 0.8263(4) 1.0229(3) 0.4904(2) 0.0874(16) Uani 1 1 d D D .
C7 C 0.6464(5) 0.9176(5) 0.3159(3) 0.077(2) Uani 1 1 d . . .
H7 H 0.6587 0.9581 0.2881 0.093 Uiso 1 1 calc R A 1
C26 C 0.7305(7) 0.4961(5) 0.3513(4) 0.103(4) Uani 1 1 d . . .
C10 C 0.7631(5) 1.0040(4) 0.3577(3) 0.0718(19) Uani 1 1 d . . .
C18 C 0.8549(4) 0.7380(5) 0.5418(2) 0.0668(16) Uani 1 1 d . . .
C19 C 0.8114(5) 0.6643(4) 0.5307(3) 0.0664(18) Uani 1 1 d . . .
C12 C 0.7849(5) 1.0000(4) 0.4487(3) 0.0701(19) Uani 1 1 d . . .
C14 C 0.6952(4) 0.9073(4) 0.5055(3) 0.0591(16) Uani 1 1 d . . .
H14 H 0.7200 0.9458 0.5313 0.071 Uiso 1 1 calc R D .
C4N C 0.8443(9) 0.4041(5) 0.3863(4) 0.113(4) Uani 1 1 d . . .
C25 C 0.7735(6) 0.4620(5) 0.3939(4) 0.086(3) Uani 1 1 d . . .
N1 N 0.9130(5) 0.7470(5) 0.1937(3) 0.0970(19) Uani 1 1 d . D .
C36 C 0.5689(6) 0.8853(5) 0.5650(3) 0.084(2) Uani 1 1 d . . .
H36A H 0.5854 0.8265 0.5713 0.100 Uiso 1 1 calc R D .
H36B H 0.6005 0.9205 0.5895 0.100 Uiso 1 1 calc R . .
O8 O 0.7489(6) 0.4684(4) 0.3023(3) 0.115(3) Uani 1 1 d D . .
O7 O 0.7980(4) 0.4623(3) 0.4818(3) 0.100(2) Uani 1 1 d D . .
C5 C 0.7528(6) 0.8280(5) 0.2664(3) 0.075(2) Uani 1 1 d . . .
C24 C 0.7576(6) 0.4939(4) 0.4422(3) 0.077(2) Uani 1 1 d . . .
C3 C 0.7420(6) 0.6766(5) 0.2646(3) 0.079(2) Uani 1 1 d . . .
C42 C 0.5539(6) 0.6207(6) 0.5627(3) 0.085(2) Uani 1 1 d . . .
H42A H 0.5767 0.6768 0.5709 0.102 Uiso 1 1 calc R . .
H42B H 0.4909 0.6240 0.5638 0.102 Uiso 1 1 calc R . .
C1N C 0.8566(5) 0.7463(6) 0.2189(3) 0.0818(19) Uani 1 1 d . . .
C35 C 0.5971(5) 0.9090(5) 0.5122(3) 0.0679(18) Uani 1 1 d . D .
H35A H 0.5759 0.9659 0.5044 0.082 Uiso 1 1 calc R . .
H35B H 0.5710 0.8699 0.4878 0.082 Uiso 1 1 calc R . .
C2N C 0.8735(8) 1.0905(6) 0.3952(4) 0.100(3) Uani 1 1 d . . .
N4 N 0.8951(6) 0.3577(5) 0.3785(4) 0.117(3) Uani 1 1 d . . .
C47 C 0.5299(6) 0.6121(5) 0.3180(4) 0.096(3) Uani 1 1 d D . .
H47A H 0.5226 0.6557 0.3442 0.115 Uiso 1 1 calc R . .
H47B H 0.5054 0.6345 0.2864 0.115 Uiso 1 1 calc R . .
C40 C 0.3552(6) 0.7464(6) 0.6113(3) 0.099(2) Uiso 1 1 d . . .
H40A H 0.3031 0.7764 0.6208 0.148 Uiso 1 1 calc R . .
H40B H 0.3499 0.6875 0.6209 0.148 Uiso 1 1 calc R . .
H40C H 0.3637 0.7507 0.5748 0.148 Uiso 1 1 calc R . .
C44 C 0.5413(7) 0.5793(6) 0.6547(3) 0.097(3) Uani 1 1 d . . .
H44A H 0.5566 0.6369 0.6650 0.116 Uiso 1 1 calc R . .
H44B H 0.4786 0.5772 0.6512 0.116 Uiso 1 1 calc R . .
C45 C 0.5666(9) 0.5212(8) 0.6960(4) 0.125(4) Uani 1 1 d . . .
H45A H 0.6296 0.5176 0.6970 0.150 Uiso 1 1 calc R . .
H45B H 0.5445 0.4647 0.6881 0.150 Uiso 1 1 calc R . .
N2 N 0.9295(6) 1.1350(4) 0.3888(3) 0.102(2) Uani 1 1 d . . .
C43 C 0.5827(7) 0.5615(6) 0.6010(3) 0.099(3) Uani 1 1 d . . .
H43A H 0.6455 0.5647 0.6039 0.119 Uiso 1 1 calc R . .
H43B H 0.5677 0.5041 0.5902 0.119 Uiso 1 1 calc R . .
C37 C 0.4759(6) 0.8942(9) 0.5753(4) 0.116(4) Uani 1 1 d . D .
H37A H 0.4456 0.8611 0.5493 0.139 Uiso 1 1 calc R . .
H37B H 0.4611 0.9535 0.5693 0.139 Uiso 1 1 calc R . .
C38 C 0.4365(13) 0.8694(8) 0.6278(4) 0.241(13) Uani 1 1 d . . .
H38A H 0.4692 0.8986 0.6545 0.289 Uiso 1 1 calc R D .
H38B H 0.3775 0.8911 0.6291 0.289 Uiso 1 1 calc R . .
C46 C 0.5348(9) 0.5467(8) 0.7479(4) 0.128(4) Uani 1 1 d . . .
H46A H 0.5707 0.5918 0.7611 0.193 Uiso 1 1 calc R . .
H46B H 0.5373 0.4986 0.7707 0.193 Uiso 1 1 calc R . .
H46C H 0.4758 0.5663 0.7452 0.193 Uiso 1 1 calc R . .
C48 C 0.4778(8) 0.5386(9) 0.3333(6) 0.175(7) Uani 1 1 d D . .
H48A H 0.4922 0.5235 0.3685 0.210 Uiso 1 1 calc R . .
H48B H 0.4930 0.4905 0.3115 0.210 Uiso 1 1 calc R . .
C49 C 0.3808(8) 0.5538(9) 0.3297(5) 0.150(6) Uani 1 1 d D . .
H49A H 0.3645 0.5661 0.2943 0.180 Uiso 1 1 calc R . .
H49B H 0.3642 0.6018 0.3511 0.180 Uiso 1 1 calc R . .
C50 C 0.3354(10) 0.4719(10) 0.3484(6) 0.176(7) Uani 1 1 d D . .
H50A H 0.3422 0.4267 0.3232 0.211 Uiso 1 1 calc R . .
H50B H 0.3603 0.4531 0.3808 0.211 Uiso 1 1 calc R . .
O1A O 0.8598(8) 1.1784(5) 0.2869(4) 0.109(4) Uani 0.60 1 d PD B 1
C1A C 0.9058(10) 1.1679(9) 0.2413(5) 0.087(4) Uani 0.60 1 d PD B 1
O1B O 0.7472(10) 0.2988(9) 0.3047(6) 0.209(5) Uiso 0.40 1 d PD C 2
C29 C 0.5538(6) 0.9236(5) 0.3246(3) 0.084(2) Uiso 0.60 1 d PD D 1
H29A H 0.5410 0.8915 0.3557 0.101 Uiso 0.60 1 calc PR D 1
H29B H 0.5408 0.9829 0.3321 0.101 Uiso 0.60 1 calc PR D 1
C30' C 0.5203(10) 1.0124(9) 0.3322(7) 0.072(4) Uiso 0.20 1 d PD D 2
H30A H 0.5340 1.0458 0.3018 0.086 Uiso 0.20 1 calc PR D 2
H30B H 0.5507 1.0380 0.3611 0.086 Uiso 0.20 1 calc PR D 2
C31' C 0.4243(10) 1.0177(11) 0.3420(7) 0.074(4) Uiso 0.20 1 d PD D 2
H31A H 0.4083 0.9757 0.3678 0.089 Uiso 0.20 1 calc PR D 2
H31B H 0.3934 1.0040 0.3105 0.089 Uiso 0.20 1 calc PR D 2
C30 C 0.4937(8) 0.8958(9) 0.2855(7) 0.175(10) Uiso 0.60 1 d PD D 1
H30C H 0.5001 0.8343 0.2831 0.211 Uiso 0.60 1 calc PR D 1
H30D H 0.5151 0.9188 0.2532 0.211 Uiso 0.60 1 calc PR D 1
C34 C 0.2390(13) 0.7686(11) 0.3445(7) 0.124(6) Uiso 0.60 1 d PD D 1
H34A H 0.1777 0.7769 0.3495 0.186 Uiso 0.60 1 calc PR D 1
H34B H 0.2666 0.7602 0.3774 0.186 Uiso 0.60 1 calc PR D 1
H34C H 0.2485 0.7194 0.3233 0.186 Uiso 0.60 1 calc PR D 1
C33 C 0.2758(11) 0.8433(12) 0.3197(8) 0.127(6) Uiso 0.60 1 d PD D 1
H33A H 0.2675 0.8933 0.3411 0.152 Uiso 0.60 1 calc PR D 1
H33B H 0.2475 0.8532 0.2868 0.152 Uiso 0.60 1 calc PR D 1
C32 C 0.3692(9) 0.8274(11) 0.3119(8) 0.124(6) Uiso 0.60 1 d PD D 1
H32A H 0.3791 0.7792 0.2892 0.149 Uiso 0.60 1 calc PR D 1
H32B H 0.3990 0.8179 0.3443 0.149 Uiso 0.60 1 calc PR D 1
C32' C 0.3964(15) 1.1065(13) 0.3606(11) 0.119(8) Uiso 0.20 1 d PD D 2
H32C H 0.4311 1.1237 0.3900 0.142 Uiso 0.20 1 calc PR D 2
H32D H 0.4044 1.1481 0.3333 0.142 Uiso 0.20 1 calc PR D 2
C33' C 0.3012(16) 1.1013(19) 0.3755(13) 0.068(8) Uiso 0.20 1 d PD D 2
H33C H 0.2680 1.0975 0.3438 0.082 Uiso 0.20 1 calc PR D 2
H33D H 0.2930 1.0478 0.3935 0.082 Uiso 0.20 1 calc PR D 2
C6 C 0.6802(5) 0.8320(5) 0.2966(3) 0.0675(18) Uani 1 1 d . D .
C39 C 0.4342(9) 0.7865(8) 0.6397(5) 0.134(4) Uiso 1 1 d . D .
H39A H 0.4280 0.7793 0.6766 0.161 Uiso 1 1 calc R . .
H39B H 0.4876 0.7589 0.6289 0.161 Uiso 1 1 calc R . .
C51 C 0.2395(10) 0.4937(10) 0.3553(7) 0.166(6) Uiso 1 1 d D . .
H51A H 0.2337 0.5399 0.3800 0.199 Uiso 1 1 calc R . .
H51B H 0.2155 0.5129 0.3227 0.199 Uiso 1 1 calc R . .
C52 C 0.1892(6) 0.4171(7) 0.3741(7) 0.250(12) Uiso 1 1 d D . .
H52A H 0.2088 0.3670 0.3562 0.376 Uiso 1 1 calc R . .
H52B H 0.1283 0.4255 0.3676 0.376 Uiso 1 1 calc R . .
H52C H 0.1985 0.4100 0.4104 0.376 Uiso 1 1 calc R . .
H7O H 0.8350 0.4293 0.4893 0.100 Uiso 1 1 d RD . .
H1O H 0.7904 0.5617 0.2617 0.100 Uiso 1 1 d RD . .
H4O H 0.8508 1.0598 0.4769 0.100 Uiso 1 1 d RD . .
H8O H 0.7640 0.4216 0.3005 0.100 Uiso 1 1 d RD . .
H5O H 0.8528 0.9283 0.5367 0.100 Uiso 1 1 d RD . .
H2O H 0.7840 0.9401 0.2631 0.100 Uiso 1 1 d RD . .
H3O H 0.7990 1.0794 0.3196 0.100 Uiso 1 1 d RD . .
H6O H 0.8294 0.5678 0.5211 0.100 Uiso 1 1 d RD . .
C31 C 0.3977(11) 0.9131(13) 0.2864(10) 0.144(8) Uiso 0.60 1 d PD D 1
H31C H 0.3738 0.9200 0.2520 0.172 Uiso 0.60 1 calc PR D 1
H31D H 0.3831 0.9622 0.3074 0.172 Uiso 0.60 1 calc PR D 1
O1F O 0.997(3) 0.392(3) 0.4912(17) 0.249(17) Uiso 0.40 1 d PD E 2
C29' C 0.5538(6) 0.9236(5) 0.3246(3) 0.084(2) Uiso 0.20 1 d PD D 2
H29C H 0.5393 0.8901 0.3549 0.101 Uiso 0.20 1 calc PR D 2
H29D H 0.5239 0.8984 0.2955 0.101 Uiso 0.20 1 calc PR D 2
O1E O 0.852(2) 0.3042(17) 0.4929(13) 0.276(14) Uiso 0.60 1 d PD F 1
C1G C 1.007(2) 0.107(2) 0.5450(10) 0.205(13) Uiso 0.60 1 d PD G 1
O1D O 0.8839(14) 0.1750(14) 0.5071(8) 0.131(6) Uiso 0.40 1 d PD H 2
O1G O 0.9703(10) 0.1024(10) 0.4954(6) 0.139(5) Uiso 0.60 1 d PD G 1
C1E C 0.7737(18) 0.268(2) 0.4753(11) 0.163(9) Uiso 0.60 1 d PD F 1
C1F C 1.082(3) 0.370(3) 0.5015(17) 0.167(14) Uiso 0.40 1 d PD 