####################################################################### 
# 
# This file contains crystal structure data downloaded from the 
# Cambridge Structural Database (CSD) hosted by the Cambridge 
# Crystallographic Data Centre (CCDC).
# 
# Full information about CCDC data access policies and citation 
# guidelines are available at http://www.ccdc.cam.ac.uk/access/V1 
# 
# Audit and citation data items may have been added by the CCDC. 
# Please retain this information to preserve the provenance of 
# this file and to allow appropriate attribution of the data. 
# 
#######################################################################

data_WEMPAF
#This CIF has been generated from an entry in the Cambridge Structural Database
_database_code_depnum_ccdc_archive 'CCDC 1291971'
_database_code_CSD               WEMPAF
loop_
_citation_id
_citation_doi
_citation_year
1 10.1246/bcsj.66.3387 1993
_audit_creation_method           'Created from the CSD'
_audit_update_record             
;
2024-07-13 downloaded from the CCDC.
;
_database_code_NBS               639379
_chemical_formula_moiety         
'(C18 H24 Cu2 N6 2+)n,2n(Cl1 O4 1-),2n(C3 H6 O1)'
_chemical_name_systematic        
"catena-(tris(\m~2~-2,6-Dimethylpyrazine-N,N')-di-copper(i) diperchlorate acetone solvate)"
_chemical_absolute_configuration unk
_diffrn_ambient_temperature      295
_exptl_crystal_density_diffrn    1.533
#These two values have been output from a single CSD field.
_refine_ls_R_factor_gt           0.078
_refine_ls_wR_factor_gt          0.078
_diffrn_radiation_probe          x-ray
_symmetry_cell_setting           monoclinic
_symmetry_space_group_name_H-M   'P 21/a'
_symmetry_Int_Tables_number      14
_space_group_name_Hall           '-P 2yab'
loop_
_symmetry_equiv_pos_site_id
_symmetry_equiv_pos_as_xyz
1 x,y,z
2 1/2-x,1/2+y,-z
3 -x,-y,-z
4 1/2+x,1/2-y,z
_cell_length_a                   15.520(5)
_cell_length_b                   19.315(2)
_cell_length_c                   11.856(2)
_cell_angle_alpha                90
_cell_angle_beta                 110.82(2)
_cell_angle_gamma                90
_cell_volume                     3321.98
_exptl_crystal_colour            yellow
_cell_formula_units_Z            4
loop_
_atom_site_label
_atom_site_type_symbol
_atom_site_fract_x
_atom_site_fract_y
_atom_site_fract_z
Cu1 Cu 0.2007(1) 0.06555(7) -0.7162(1)
Cu2 Cu 0.2342(1) -0.09595(7) -0.2000(1)
N1 N 0.1995(7) 0.0201(5) 0.1326(8)
N2 N 0.2165(6) -0.0468(4) -0.0651(7)
N3 N 0.2136(6) 0.0236(4) -0.5615(7)
N4 N 0.2307(7) -0.0408(4) -0.3463(8)
N5 N 0.2109(6) 0.1673(5) -0.7413(8)
N6 N 0.2469(6) 0.3043(4) -0.7787(7)
C1 C 0.1416(8) -0.0273(6) 0.074(1)
C2 C 0.1482(8) -0.0624(6) -0.027(1)
C3 C 0.2757(8) 0.0043(6) -0.007(1)
C4 C 0.2658(9) 0.0373(6) 0.091(1)
C5 C 0.081(1) -0.1156(7) -0.088(1)
C6 C 0.350(1) 0.0232(7) -0.053(1)
C7 C 0.1548(8) 0.0397(5) -0.5050(9)
C8 C 0.1661(9) 0.0087(6) -0.395(1)
C9 C 0.2897(9) -0.0525(6) -0.403(1)
C10 C 0.2823(8) -0.0215(6) -0.510(1)
C11 C 0.079(1) 0.0878(8) -0.560(1)
C12 C 0.351(1) -0.0333(7) -0.569(1)
C13 C 0.1652(8) 0.1984(6) -0.843(1)
C14 C 0.1813(8) 0.2676(6) -0.8648(9)
C15 C 0.2955(8) 0.2709(6) -0.677(1)
C16 C 0.2749(9) 0.2034(6) -0.657(1)
C17 C 0.126(1) 0.3030(7) -0.980(1)
C18 C 0.375(1) 0.3075(6) -0.586(1)
H1 H 0.0899 -0.0383 0.0999
H2 H 0.3079 0.0737 0.1304
H3 H 0.0347 -0.1213 -0.0509
H4 H 0.0473 -0.1035 -0.1718
H5 H 0.1083 -0.1599 -0.0877
H6 H 0.3905 -0.0166 -0.0484
H7 H 0.3265 0.0371 -0.1361
H8 H 0.3880 0.0593 -0.0068
H9 H 0.1266 0.0233 -0.3524
H10 H 0.3398 -0.0845 -0.3668
H11 H 0.1006 0.1319 -0.5739
H12 H 0.0381 0.0700 -0.6364
H13 H 0.0428 0.0941 -0.5095
H14 H 0.3954 -0.0669 -0.5250
H15 H 0.3214 -0.0507 -0.6501
H16 H 0.3821 0.0084 -0.5738
H17 H 0.1178 0.1726 -0.9045
H18 H 0.3097 0.1813 -0.5812
H19 H 0.0921 0.3418 -0.9637
H20 H 0.1648 0.3218 -1.0202
H21 H 0.0824 0.2729 -1.0343
H22 H 0.4068 0.2786 -0.5189
H23 H 0.4207 0.3204 -0.6229
H24 H 0.3566 0.3488 -0.5588
Cu1 Cu 0.2007(1) 0.06555(7) 0.2838(1)
N1 N 0.1995(7) 0.0201(5) -0.8674(8)
N6A N 0.2531(6) -0.1957(4) -0.2213(7)
Cu2A Cu 0.2658(1) 0.40405(7) -0.8000(1)
Cl1 Cl 0.4860(3) 0.1645(2) 0.2547(4)
O1 O 0.5241(9) 0.1188(6) 0.189(1)
O2 O 0.455(1) 0.1263(7) 0.332(1)
O3 O 0.554(1) 0.2076(9) 0.320(2)
O4 O 0.411(1) 0.1990(8) 0.175(1)
Cl2 Cl 0.0253(3) 0.1121(2) 0.7767(3)
O5 O 0.013(1) 0.041(1) 0.768(2)
O6 O 0.019(2) 0.140(1) 0.872(2)
O7 O 0.098(2) 0.133(1) 0.755(3)
O8 O -0.036(3) 0.133(2) 0.697(2)
O9 O 0.368(1) 0.1135(7) 0.625(1)
C19 C 0.451(1) 0.1179(8) 0.682(2)
C20 C 0.502(1) 0.178(1) 0.665(2)
C21 C 0.501(1) 0.060(1) 0.763(2)
H25 H 0.5665 0.1769 0.7123
H26 H 0.4958 0.1847 0.5821
H27 H 0.4786 0.2214 0.6886
H28 H 0.4773 0.0534 0.8293
H29 H 0.4940 0.0171 0.7221
H30 H 0.5664 0.0687 0.8028
O10 O 0.736(1) 0.1653(7) 0.812(1)
C22 C 0.757(1) 0.219(1) 0.774(2)
C23 C 0.807(2) 0.275(1) 0.861(2)
C24 C 0.734(2) 0.236(1) 0.649(2)
H31 H 0.8649 0.2599 0.9132
H32 H 0.8206 0.3145 0.8134
H33 H 0.7710 0.2931 0.9009
H34 H 0.7564 0.2801 0.6339
H35 H 0.7556 0.2018 0.6043
H36 H 0.6666 0.2374 0.6066

#END
