####################################################################### 
# 
# This file contains crystal structure data downloaded from the 
# Cambridge Structural Database (CSD) hosted by the Cambridge 
# Crystallographic Data Centre (CCDC).
# 
# Full information about CCDC data access policies and citation 
# guidelines are available at http://www.ccdc.cam.ac.uk/access/V1 
# 
# Audit and citation data items may have been added by the CCDC. 
# Please retain this information to preserve the provenance of 
# this file and to allow appropriate attribution of the data. 
# 
#######################################################################

data_WEMYES01
#This CIF has been generated from an entry in the Cambridge Structural Database
_database_code_depnum_ccdc_archive 'CCDC 1292012'
_database_code_CSD               WEMYES01
loop_
_citation_id
_citation_doi
_citation_year
1 10.1016/S0022-2860(98)00472-4 1998
_audit_creation_method           'Created from the CSD'
_audit_update_record             
;
2024-07-13 downloaded from the CCDC.
;
_database_code_NBS               730274
_chemical_formula_moiety         '(C3 H8 O7 P2 Zr1)n,n(H2 O1)'
_chemical_name_systematic        
'catena(\g-(\m~4~-Phosphato)-(\m~2~-n-propylphosphonato)-zirconium monohydrate)'
_chemical_absolute_configuration unk
_diffrn_ambient_temperature      295
_exptl_crystal_density_diffrn    2.019
#These two values have been output from a single CSD field.
_refine_ls_R_factor_gt           0.103
_refine_ls_wR_factor_gt          0.103
_diffrn_radiation_probe          x-ray
_symmetry_cell_setting           monoclinic
_symmetry_space_group_name_H-M   'P 21/c'
_symmetry_Int_Tables_number      14
_space_group_name_Hall           '-P 2ybc'
loop_
_symmetry_equiv_pos_site_id
_symmetry_equiv_pos_as_xyz
1 x,y,z
2 -x,1/2+y,1/2-z
3 -x,-y,-z
4 x,1/2-y,1/2+z
_cell_length_a                   5.3593(4)
_cell_length_b                   6.6217(4)
_cell_length_c                   30.695(2)
_cell_angle_alpha                90
_cell_angle_beta                 98.810(3)
_cell_angle_gamma                90
_cell_volume                     1076.44
_cell_formula_units_Z            4
loop_
_atom_site_label
_atom_site_type_symbol
_atom_site_fract_x
_atom_site_fract_y
_atom_site_fract_z
Zr1 Zr 0.1901(7) 0.2609(9) 0.20032(10)
P1 P 0.2371(15) 0.7539(22) 0.22993(22)
P2 P 0.6362(16) 0.2318(21) 0.11987(21)
O1 O 0.1959(23) 0.5692(16) 0.19912(34)
O2 O 0.5308(16) 0.7588(23) 0.24690(29)
O3 O 0.0799(19) 0.7611(22) 0.26362(30)
O4 O 0.1978(24) 0.9500(16) 0.19895(34)
O5 O 0.4575(21) 0.2684(24) 0.15691(32)
O6 O 0.9101(18) 0.2632(23) 0.14303(30)
O7 O 0.5493(32) 0.3840(24) 0.08238(37)
C1 C 0.584(4) -0.0313(23) 0.1032(7)
C2 C 0.731(7) -0.1724(32) 0.1400(8)
C3 C 0.983(6) -0.2340(78) 0.1182(10)
O2A O 0.4692(16) 0.2588(23) 0.25310(29)
O3A O -0.0799(19) 0.2611(22) 0.23638(30)
O4 O 0.1978(24) -0.0500(16) 0.19895(34)
O6 O -0.0899(18) 0.2632(23) 0.14303(30)
Zr1 Zr 1.1901(7) 0.2609(9) 0.20032(10)
Zr1A Zr 0.8099(7) 0.7609(9) 0.29968(10)
Zr1 Zr 0.1901(7) 1.2609(9) 0.20032(10)
Zr1A Zr -0.1901(7) 0.7609(9) 0.29968(10)
O8 O 0.2684(50) 0.5991(46) 0.01073(82)

#END
