####################################################################### 
# 
# This file contains crystal structure data downloaded from the 
# Cambridge Structural Database (CSD) hosted by the Cambridge 
# Crystallographic Data Centre (CCDC).
# 
# Full information about CCDC data access policies and citation 
# guidelines are available at http://www.ccdc.cam.ac.uk/access/V1 
# 
# Audit and citation data items may have been added by the CCDC. 
# Please retain this information to preserve the provenance of 
# this file and to allow appropriate attribution of the data. 
# 
#######################################################################

data_3
_audit_block_doi                 10.5517/cczd4r7
_database_code_depnum_ccdc_archive 'CCDC 905409'
loop_
_citation_id
_citation_doi
_citation_year
1 10.1039/c2dt32390g 2013
_audit_update_record             
;
2012-10-10 deposited with the CCDC.	2024-07-13 downloaded from the CCDC.
;
#TrackingRef 'web_deposit_cif_file_2_HouYinling_1351846730.3-Gd.cif'


_audit_creation_method           SHELXL-97
_chemical_name_systematic        
;
?
;
_chemical_name_common            ?
_chemical_melting_point          ?
_chemical_formula_moiety         ?
_chemical_formula_sum            'C45 H44 Gd2 O31 S3'
_chemical_formula_weight         1491.48

loop_
_atom_type_symbol
_atom_type_description
_atom_type_scat_dispersion_real
_atom_type_scat_dispersion_imag
_atom_type_scat_source
C C 0.0033 0.0016 'International Tables Vol C Tables 4.2.6.8 and 6.1.1.4'
H H 0.0000 0.0000 'International Tables Vol C Tables 4.2.6.8 and 6.1.1.4'
O O 0.0106 0.0060 'International Tables Vol C Tables 4.2.6.8 and 6.1.1.4'
S S 0.1246 0.1234 'International Tables Vol C Tables 4.2.6.8 and 6.1.1.4'
Gd Gd -0.1653 3.9035 'International Tables Vol C Tables 4.2.6.8 and 6.1.1.4'

_symmetry_cell_setting           triclinic
_symmetry_space_group_name_H-M   P-1

loop_
_symmetry_equiv_pos_as_xyz
'x, y, z'
'-x, -y, -z'

_cell_length_a                   9.2654(19)
_cell_length_b                   15.642(3)
_cell_length_c                   22.287(4)
_cell_angle_alpha                102.15(3)
_cell_angle_beta                 101.48(3)
_cell_angle_gamma                104.44(3)
_cell_volume                     2947.9(10)
_cell_formula_units_Z            2
_cell_measurement_temperature    150(2)
_cell_measurement_reflns_used    8197
_cell_measurement_theta_min      2.4378
_cell_measurement_theta_max      29.2228

_exptl_crystal_description       needle
_exptl_crystal_colour            colorless
_exptl_crystal_size_max          0.30
_exptl_crystal_size_mid          0.23
_exptl_crystal_size_min          0.21
_exptl_crystal_density_meas      none
_exptl_crystal_density_diffrn    1.680
_exptl_crystal_density_method    'not measured'
_exptl_crystal_F_000             1476
_exptl_absorpt_coefficient_mu    2.425
_exptl_absorpt_correction_type   multi-scan
_exptl_absorpt_correction_T_min  0.5298
_exptl_absorpt_correction_T_max  0.6299
_exptl_absorpt_process_details   
;
CrysAlisPro, Oxford Diffraction Ltd.,
Version 1.171.34.44 (release 25-10-2010 CrysAlis171 .NET)
(compiled Oct 25 2010,18:11:34)
Empirical absorption correction using spherical harmonics,
implemented in SCALE3 ABSPACK scaling algorithm.
;

_exptl_special_details           
;
?
;

_diffrn_ambient_temperature      150(2)
_diffrn_radiation_wavelength     0.71073
_diffrn_radiation_type           MoK\a
_diffrn_radiation_source         'fine-focus sealed tube'
_diffrn_radiation_monochromator  graphite
_diffrn_measurement_device_type  'SuperNova, Single source at offset), Eos'
_diffrn_measurement_method       '\w scans'
_diffrn_detector_area_resol_mean 16.2116
_diffrn_standards_number         ?
_diffrn_standards_interval_count ?
_diffrn_standards_interval_time  ?
_diffrn_standards_decay_%        ?
_diffrn_reflns_number            18350
_diffrn_reflns_av_R_equivalents  0.0411
_diffrn_reflns_av_sigmaI/netI    0.0790
_diffrn_reflns_limit_h_min       -10
_diffrn_reflns_limit_h_max       11
_diffrn_reflns_limit_k_min       -18
_diffrn_reflns_limit_k_max       16
_diffrn_reflns_limit_l_min       -20
_diffrn_reflns_limit_l_max       26
_diffrn_reflns_theta_min         2.44
_diffrn_reflns_theta_max         25.01
_reflns_number_total             10290
_reflns_number_gt                8034
_reflns_threshold_expression     >2sigma(I)

_computing_data_collection       
;
CrysAlisPro, Oxford Diffraction Ltd.,
Version 1.171.34.44 (release 25-10-2010 CrysAlis171 .NET)
(compiled Oct 25 2010,18:11:34)
;
_computing_cell_refinement       
;
CrysAlisPro, Oxford Diffraction Ltd.,
Version 1.171.34.44 (release 25-10-2010 CrysAlis171 .NET)
(compiled Oct 25 2010,18:11:34)
;
_computing_data_reduction        
;
CrysAlisPro, Oxford Diffraction Ltd.,
Version 1.171.34.44 (release 25-10-2010 CrysAlis171 .NET)
(compiled Oct 25 2010,18:11:34)
;
_computing_structure_solution    'SHELXS-97 (Sheldrick, 1990)'
_computing_structure_refinement  'SHELXL-97 (Sheldrick, 1997)'
_computing_molecular_graphics    'Bruker SHELXTL'
_computing_publication_material  'Bruker SHELXTL'

_refine_special_details          
;
Refinement of F^2^ against ALL reflections. The weighted R-factor wR and
goodness of fit S are based on F^2^, conventional R-factors R are based
on F, with F set to zero for negative F^2^. The threshold expression of
F^2^ > 2sigma(F^2^) is used only for calculating R-factors(gt) etc. and is
not relevant to the choice of reflections for refinement. R-factors based
on F^2^ are statistically about twice as large as those based on F, and R-
factors based on ALL data will be even larger.
The Squeeze program was applied in refining the structure to deal with the seriously disordered free water molecules in the channels.
;

_refine_ls_structure_factor_coef Fsqd
_refine_ls_matrix_type           full
_refine_ls_weighting_scheme      calc
_refine_ls_weighting_details     
'calc w=1/[\s^2^(Fo^2^)+(0.0387P)^2^+32.9562P] where P=(Fo^2^+2Fc^2^)/3'
_atom_sites_solution_primary     direct
_atom_sites_solution_secondary   difmap
_atom_sites_solution_hydrogens   geom
_refine_ls_hydrogen_treatment    constr
_refine_ls_extinction_method     none
_refine_ls_extinction_coef       ?
_refine_ls_number_reflns         10290
_refine_ls_number_parameters     697
_refine_ls_number_restraints     7
_refine_ls_R_factor_all          0.0780
_refine_ls_R_factor_gt           0.0623
_refine_ls_wR_factor_ref         0.1534
_refine_ls_wR_factor_gt          0.1461
_refine_ls_goodness_of_fit_ref   1.057
_refine_ls_restrained_S_all      1.057
_refine_ls_shift/su_max          0.001
_refine_ls_shift/su_mean         0.000

loop_
_atom_site_label
_atom_site_type_symbol
_atom_site_fract_x
_atom_site_fract_y
_atom_site_fract_z
_atom_site_U_iso_or_equiv
_atom_site_adp_type
_atom_site_occupancy
_atom_site_symmetry_multiplicity
_atom_site_calc_flag
_atom_site_refinement_flags
_atom_site_disorder_assembly
_atom_site_disorder_group
Gd1 Gd 0.48586(5) 0.13989(3) 0.19774(2) 0.02831(14) Uani 1 1 d U . .
Gd2 Gd 0.96946(5) 0.08785(3) 0.14350(2) 0.02623(14) Uani 1 1 d . . .
C1 C 0.8292(12) 0.1235(7) 0.2763(5) 0.034(2) Uani 1 1 d . . .
C2 C 0.9113(11) 0.1245(7) 0.3417(4) 0.033(2) Uani 1 1 d . . .
C3 C 1.0714(11) 0.1493(8) 0.3613(5) 0.044(3) Uani 1 1 d . . .
H3 H 1.1291 0.1661 0.3337 0.053 Uiso 1 1 calc R . .
C4 C 1.1457(13) 0.1492(9) 0.4212(6) 0.052(3) Uani 1 1 d . . .
H4 H 1.2531 0.1666 0.4335 0.063 Uiso 1 1 calc R . .
C5 C 1.0638(13) 0.1238(8) 0.4638(5) 0.047(3) Uani 1 1 d . . .
C6 C 0.9041(13) 0.1012(7) 0.4442(5) 0.039(2) Uani 1 1 d . . .
C7 C 0.8262(12) 0.1013(7) 0.3849(5) 0.038(2) Uani 1 1 d . . .
H7 H 0.7189 0.0863 0.3734 0.045 Uiso 1 1 calc R . .
C8 C 1.2889(17) 0.1487(12) 0.5470(7) 0.091(5) Uani 1 1 d . . .
H8A H 1.3333 0.2084 0.5422 0.136 Uiso 1 1 calc R . .
H8B H 1.3269 0.1049 0.5230 0.136 Uiso 1 1 calc R . .
H8C H 1.3170 0.1503 0.5912 0.136 Uiso 1 1 calc R . .
C9 C 0.7850(13) 0.1049(8) 0.5991(5) 0.041(3) Uani 1 1 d . . .
C10 C 0.9251(13) 0.1198(8) 0.6389(5) 0.050(3) Uani 1 1 d . . .
H10 H 1.0143 0.1542 0.6317 0.060 Uiso 1 1 calc R . .
C11 C 0.9341(12) 0.0830(8) 0.6905(5) 0.046(3) Uani 1 1 d . . .
H11 H 1.0298 0.0913 0.7177 0.055 Uiso 1 1 calc R . .
C12 C 0.8000(11) 0.0340(7) 0.7014(4) 0.031(2) Uani 1 1 d . . .
C13 C 0.6598(12) 0.0203(9) 0.6609(5) 0.047(3) Uani 1 1 d . . .
H13 H 0.5699 -0.0129 0.6682 0.056 Uiso 1 1 calc R . .
C14 C 0.6514(13) 0.0555(9) 0.6094(5) 0.056(3) Uani 1 1 d . . .
H14 H 0.5561 0.0459 0.5816 0.067 Uiso 1 1 calc R . .
C15 C 0.8111(11) -0.0042(6) 0.7588(5) 0.031(2) Uani 1 1 d . . .
C16 C 0.7915(11) 0.2566(7) 0.1445(5) 0.032(2) Uani 1 1 d . . .
C17 C 0.8239(10) 0.3506(7) 0.1328(5) 0.030(2) Uani 1 1 d . . .
C18 C 0.9422(12) 0.3760(7) 0.1029(5) 0.042(3) Uani 1 1 d . . .
H18 H 0.9962 0.3356 0.0906 0.050 Uiso 1 1 calc R . .
C19 C 0.9771(12) 0.4615(7) 0.0920(5) 0.043(3) Uani 1 1 d . . .
H19 H 1.0547 0.4791 0.0722 0.051 Uiso 1 1 calc R . .
C20 C 0.8962(13) 0.5207(7) 0.1106(5) 0.042(3) Uani 1 1 d . . .
C21 C 0.7790(14) 0.4960(8) 0.1395(6) 0.052(3) Uani 1 1 d . . .
H21 H 0.7257 0.5366 0.1523 0.063 Uiso 1 1 calc R . .
C22 C 0.7433(13) 0.4089(8) 0.1488(6) 0.046(3) Uani 1 1 d . . .
H22 H 0.6619 0.3902 0.1664 0.056 Uiso 1 1 calc R . .
C23 C 0.7287(14) 0.6682(7) 0.0186(5) 0.045(3) Uani 1 1 d . . .
C24 C 0.7814(12) 0.7296(7) -0.0127(5) 0.040(2) Uani 1 1 d . . .
H24 H 0.8776 0.7362 -0.0208 0.048 Uiso 1 1 calc R . .
C25 C 0.6921(10) 0.7824(7) -0.0324(5) 0.031(2) Uani 1 1 d . . .
C26 C 0.5518(11) 0.7737(8) -0.0187(5) 0.041(3) Uani 1 1 d . . .
H26 H 0.4914 0.8090 -0.0322 0.050 Uiso 1 1 calc R . .
C27 C 0.4992(12) 0.7125(9) 0.0153(5) 0.049(3) Uani 1 1 d . . .
H27 H 0.4055 0.7082 0.0254 0.059 Uiso 1 1 calc R . .
C28 C 0.5861(14) 0.6590(9) 0.0335(5) 0.052(3) Uani 1 1 d . . .
C29 C 0.7498(11) 0.8454(7) -0.0700(4) 0.033(2) Uani 1 1 d . . .
C30 C 0.3964(17) 0.5780(12) 0.0762(7) 0.099(6) Uani 1 1 d . . .
H30A H 0.3189 0.5582 0.0363 0.148 Uiso 1 1 calc R . .
H30B H 0.3894 0.6338 0.1017 0.148 Uiso 1 1 calc R . .
H30C H 0.3803 0.5314 0.0983 0.148 Uiso 1 1 calc R . .
C31 C 0.2943(11) 0.2731(7) 0.2112(5) 0.035(2) Uani 1 1 d . . .
C32 C 0.2463(10) 0.3562(6) 0.2285(5) 0.032(2) Uani 1 1 d . . .
C33 C 0.3261(11) 0.4372(6) 0.2170(5) 0.036(2) Uani 1 1 d . . .
H33 H 0.4065 0.4377 0.1977 0.043 Uiso 1 1 calc R . .
C34 C 0.2865(12) 0.5151(6) 0.2341(5) 0.036(2) Uani 1 1 d U . .
C35 C 0.1658(12) 0.5164(7) 0.2631(5) 0.040(3) Uani 1 1 d . . .
C36 C 0.0868(12) 0.4374(8) 0.2746(6) 0.045(3) Uani 1 1 d . . .
H36 H 0.0061 0.4373 0.2936 0.053 Uiso 1 1 calc R . .
C37 C 0.1276(11) 0.3572(8) 0.2577(5) 0.040(3) Uani 1 1 d . . .
H37 H 0.0747 0.3041 0.2662 0.048 Uiso 1 1 calc R . .
C38 C 0.0179(17) 0.6073(10) 0.3078(8) 0.082(5) Uani 1 1 d . . .
H38A H 0.0337 0.5830 0.3438 0.123 Uiso 1 1 calc R . .
H38B H -0.0823 0.5736 0.2794 0.123 Uiso 1 1 calc R . .
H38C H 0.0242 0.6708 0.3220 0.123 Uiso 1 1 calc R . .
C39 C 0.5541(12) 0.7476(7) 0.2381(5) 0.042(3) Uani 1 1 d . . .
C40 C 0.6729(12) 0.7641(7) 0.2087(6) 0.044(3) Uani 1 1 d . . .
H40 H 0.7391 0.7282 0.2086 0.053 Uiso 1 1 calc R . .
C41 C 0.6922(11) 0.8345(7) 0.1796(6) 0.041(3) Uani 1 1 d . . .
H41 H 0.7725 0.8466 0.1604 0.050 Uiso 1 1 calc R . .
C42 C 0.5919(11) 0.8868(6) 0.1792(5) 0.033(2) Uani 1 1 d . . .
C43 C 0.4762(13) 0.8702(8) 0.2092(6) 0.049(3) Uani 1 1 d . . .
H43 H 0.4101 0.9062 0.2092 0.059 Uiso 1 1 calc R . .
C44 C 0.4558(14) 0.8008(8) 0.2394(7) 0.057(3) Uani 1 1 d . . .
H44 H 0.3778 0.7904 0.2600 0.069 Uiso 1 1 calc R . .
C45 C 0.6113(10) 0.9624(6) 0.1463(4) 0.028(2) Uani 1 1 d . . .
O1 O 0.9104(8) 0.1391(5) 0.2384(3) 0.0414(17) Uani 1 1 d . . .
O2 O 0.6850(8) 0.1102(5) 0.2648(3) 0.0444(18) Uani 1 1 d . . .
O3 O 1.1243(10) 0.1226(7) 0.5243(4) 0.065(2) Uani 1 1 d . . .
O4 O 0.8179(10) 0.0733(6) 0.4862(4) 0.056(2) Uani 1 1 d . . .
O5 O 0.8916(11) 0.2366(6) 0.5482(4) 0.065(2) Uani 1 1 d . . .
O6 O 0.6179(12) 0.1445(9) 0.5053(5) 0.095(4) Uani 1 1 d . . .
O7 O 0.9396(8) -0.0013(5) 0.7899(3) 0.0393(17) Uani 1 1 d . . .
O8 O 0.6851(8) -0.0374(5) 0.7707(4) 0.0437(18) Uani 1 1 d . . .
O9 O 0.8678(8) 0.2065(5) 0.1268(3) 0.0425(18) Uani 1 1 d . . .
O10 O 0.6908(8) 0.2370(5) 0.1744(4) 0.048(2) Uani 1 1 d . . .
O11 O 1.0862(11) 0.6505(6) 0.0827(5) 0.078(3) Uani 1 1 d . . .
O12 O 0.9121(10) 0.6964(5) 0.1441(4) 0.057(2) Uani 1 1 d . . .
O13 O 0.8098(11) 0.6055(6) 0.0316(4) 0.063(2) Uani 1 1 d . . .
O14 O 0.5058(7) 0.9997(4) 0.1387(3) 0.0327(15) Uani 1 1 d . . .
O15 O 0.7296(8) 0.9830(5) 0.1276(4) 0.0437(19) Uani 1 1 d . . .
O16 O 0.8819(8) 0.8543(6) -0.0766(4) 0.054(2) Uani 1 1 d . . .
O17 O 0.6576(9) 0.8852(5) -0.0954(3) 0.0446(19) Uani 1 1 d . . .
O18 O 0.6369(10) 0.6086(6) 0.2632(6) 0.081(3) Uani 1 1 d . . .
O19 O 0.3643(8) 0.5954(5) 0.2209(4) 0.0470(19) Uani 1 1 d . . .
O20 O 0.5525(11) 0.2357(7) 0.3067(4) 0.080(3) Uani 1 1 d U . .
H20A H 0.4792 0.2579 0.2986 0.119 Uiso 1 1 d R . .
H20B H 0.5194 0.1792 0.3044 0.119 Uiso 1 1 d R . .
O21 O 0.9977(9) -0.0495(5) 0.0764(4) 0.057(2) Uani 1 1 d . . .
H21A H 0.9892 -0.0741 0.0382 0.086 Uiso 1 1 d R . .
H21B H 1.0493 -0.0698 0.1047 0.086 Uiso 1 1 d R . .
O22 O 0.4238(8) 0.2812(5) 0.1991(4) 0.048(2) Uani 1 1 d . . .
O23 O 0.8171(11) 0.0529(6) 0.0289(4) 0.068(3) Uani 1 1 d . . .
H23A H 0.7484 0.0766 0.0408 0.102 Uiso 1 1 d R . .
H23B H 0.7699 -0.0035 0.0075 0.102 Uiso 1 1 d R . .
O24 O 0.5464(11) 0.5938(7) 0.0649(4) 0.076(3) Uani 1 1 d . . .
O25 O 0.2091(8) 0.1946(5) 0.2099(4) 0.0448(18) Uani 1 1 d . . .
O26 O 0.1348(10) 0.5991(5) 0.2750(5) 0.066(3) Uani 1 1 d . . .
O27 O 0.4979(12) 0.6818(6) 0.3316(4) 0.077(3) Uani 1 1 d . . .
S1 S 0.7745(4) 0.1507(3) 0.53249(15) 0.0554(8) Uani 1 1 d . . .
S2 S 0.9399(4) 0.6303(2) 0.09723(16) 0.0493(7) Uani 1 1 d . . .
S3 S 0.5246(4) 0.6557(2) 0.27131(16) 0.0518(8) Uani 1 1 d . . .

loop_
_atom_site_aniso_label
_atom_site_aniso_U_11
_atom_site_aniso_U_22
_atom_site_aniso_U_33
_atom_site_aniso_U_23
_atom_site_aniso_U_13
_atom_site_aniso_U_12
Gd1 0.0318(3) 0.0272(3) 0.0307(3) 0.0133(2) 0.0105(2) 0.0112(2)
Gd2 0.0287(3) 0.0253(3) 0.0302(3) 0.0134(2) 0.0118(2) 0.00970(19)
C1 0.048(6) 0.032(6) 0.027(5) 0.009(4) 0.012(5) 0.018(5)
C2 0.042(6) 0.038(6) 0.024(5) 0.014(4) 0.012(4) 0.015(5)
C3 0.031(6) 0.045(7) 0.049(7) 0.008(5) 0.004(5) 0.009(5)
C4 0.033(6) 0.069(9) 0.047(7) 0.013(6) -0.001(5) 0.015(6)
C5 0.055(7) 0.049(7) 0.031(6) 0.006(5) -0.003(5) 0.020(6)
C6 0.057(7) 0.035(6) 0.028(5) 0.010(5) 0.014(5) 0.017(5)
C7 0.033(5) 0.046(6) 0.037(6) 0.012(5) 0.013(5) 0.014(5)
C8 0.076(11) 0.102(13) 0.066(10) 0.030(9) -0.026(8) 0.009(9)
C9 0.052(7) 0.058(7) 0.023(5) 0.021(5) 0.016(5) 0.023(6)
C10 0.051(7) 0.062(8) 0.050(7) 0.041(6) 0.023(6) 0.012(6)
C11 0.032(6) 0.065(8) 0.047(7) 0.034(6) 0.011(5) 0.011(5)
C12 0.035(5) 0.034(5) 0.027(5) 0.010(4) 0.008(4) 0.016(4)
C13 0.037(6) 0.073(8) 0.045(6) 0.035(6) 0.017(5) 0.021(6)
C14 0.042(7) 0.090(10) 0.040(6) 0.030(7) 0.006(5) 0.018(6)
C15 0.041(6) 0.028(5) 0.035(5) 0.013(4) 0.023(5) 0.016(4)
C16 0.032(5) 0.032(5) 0.031(5) 0.011(4) 0.007(4) 0.008(4)
C17 0.025(5) 0.034(5) 0.037(5) 0.019(5) 0.006(4) 0.013(4)
C18 0.047(6) 0.042(6) 0.052(7) 0.022(5) 0.027(5) 0.022(5)
C19 0.042(6) 0.046(7) 0.054(7) 0.027(6) 0.026(5) 0.015(5)
C20 0.060(7) 0.033(6) 0.049(7) 0.024(5) 0.023(6) 0.027(5)
C21 0.075(8) 0.045(7) 0.069(8) 0.031(6) 0.045(7) 0.041(6)
C22 0.048(7) 0.056(7) 0.058(7) 0.031(6) 0.028(6) 0.033(6)
C23 0.066(8) 0.037(6) 0.047(7) 0.023(5) 0.021(6) 0.025(5)
C24 0.046(6) 0.044(6) 0.039(6) 0.021(5) 0.014(5) 0.021(5)
C25 0.028(5) 0.032(5) 0.036(5) 0.016(4) 0.011(4) 0.008(4)
C26 0.025(5) 0.067(8) 0.047(6) 0.034(6) 0.011(5) 0.023(5)
C27 0.033(6) 0.079(9) 0.043(6) 0.032(6) 0.017(5) 0.013(6)
C28 0.055(7) 0.056(8) 0.040(6) 0.020(6) 0.015(6) 0.002(6)
C29 0.037(6) 0.038(6) 0.025(5) 0.018(4) 0.001(4) 0.010(4)
C30 0.093(12) 0.116(14) 0.059(9) 0.040(9) 0.026(9) -0.035(10)
C31 0.035(6) 0.026(5) 0.038(6) 0.006(4) 0.005(5) 0.004(4)
C32 0.027(5) 0.026(5) 0.048(6) 0.017(5) 0.010(4) 0.010(4)
C33 0.040(6) 0.025(5) 0.047(6) 0.014(5) 0.012(5) 0.013(4)
C34 0.050(5) 0.018(4) 0.041(5) 0.012(4) 0.009(4) 0.012(4)
C35 0.043(6) 0.024(5) 0.049(6) 0.001(5) 0.013(5) 0.011(4)
C36 0.031(6) 0.045(7) 0.057(7) 0.013(6) 0.015(5) 0.010(5)
C37 0.028(5) 0.045(6) 0.038(6) 0.003(5) 0.004(5) 0.007(5)
C38 0.078(10) 0.053(9) 0.121(14) 0.009(9) 0.040(10) 0.035(8)
C39 0.046(6) 0.033(6) 0.051(7) 0.023(5) 0.011(5) 0.014(5)
C40 0.042(6) 0.028(6) 0.071(8) 0.022(6) 0.015(6) 0.016(5)
C41 0.028(5) 0.040(6) 0.065(7) 0.026(6) 0.020(5) 0.008(4)
C42 0.031(5) 0.025(5) 0.042(6) 0.008(4) 0.011(5) 0.009(4)
C43 0.051(7) 0.048(7) 0.075(8) 0.035(6) 0.038(6) 0.028(6)
C44 0.061(8) 0.041(7) 0.091(10) 0.037(7) 0.041(7) 0.020(6)
C45 0.032(5) 0.015(4) 0.031(5) 0.004(4) 0.009(4) -0.002(4)
O1 0.053(4) 0.051(5) 0.028(4) 0.015(3) 0.018(3) 0.020(4)
O2 0.042(4) 0.060(5) 0.045(4) 0.029(4) 0.014(4) 0.026(4)
O3 0.073(6) 0.085(7) 0.035(4) 0.019(4) -0.003(4) 0.033(5)
O4 0.078(6) 0.058(5) 0.037(4) 0.021(4) 0.030(4) 0.016(4)
O5 0.113(7) 0.055(6) 0.044(5) 0.021(4) 0.037(5) 0.036(5)
O6 0.088(7) 0.164(12) 0.075(7) 0.075(8) 0.032(6) 0.069(8)
O7 0.038(4) 0.040(4) 0.045(4) 0.023(4) 0.007(3) 0.013(3)
O8 0.050(4) 0.049(5) 0.053(5) 0.033(4) 0.032(4) 0.023(4)
O9 0.057(5) 0.041(4) 0.046(4) 0.025(4) 0.022(4) 0.028(4)
O10 0.039(4) 0.046(5) 0.080(6) 0.041(4) 0.031(4) 0.020(3)
O11 0.079(6) 0.062(6) 0.127(9) 0.056(6) 0.059(6) 0.028(5)
O12 0.075(6) 0.037(5) 0.057(5) 0.016(4) 0.012(4) 0.018(4)
O13 0.112(7) 0.045(5) 0.049(5) 0.023(4) 0.021(5) 0.045(5)
O14 0.035(4) 0.031(4) 0.040(4) 0.012(3) 0.014(3) 0.018(3)
O15 0.033(4) 0.037(4) 0.067(5) 0.021(4) 0.023(4) 0.006(3)
O16 0.041(4) 0.084(6) 0.053(5) 0.040(5) 0.023(4) 0.019(4)
O17 0.069(5) 0.035(4) 0.027(4) 0.007(3) 0.010(4) 0.012(4)
O18 0.050(5) 0.061(6) 0.147(10) 0.062(7) 0.020(6) 0.022(5)
O19 0.054(5) 0.033(4) 0.052(5) 0.021(4) 0.008(4) 0.005(3)
O20 0.087(7) 0.102(8) 0.043(3) -0.013(4) 0.001(5) 0.057(6)
O21 0.073(6) 0.0