####################################################################### 
# 
# This file contains crystal structure data downloaded from the 
# Cambridge Structural Database (CSD) hosted by the Cambridge 
# Crystallographic Data Centre (CCDC).
# 
# Full information about CCDC data access policies and citation 
# guidelines are available at http://www.ccdc.cam.ac.uk/access/V1 
# 
# Audit and citation data items may have been added by the CCDC. 
# Please retain this information to preserve the provenance of 
# this file and to allow appropriate attribution of the data. 
# 
#######################################################################

data_5
_audit_block_doi                 10.5517/cczd4t9
_database_code_depnum_ccdc_archive 'CCDC 905411'
loop_
_citation_id
_citation_doi
_citation_year
1 10.1039/c2dt32390g 2013
_audit_update_record             
;
2012-10-10 deposited with the CCDC.	2024-07-13 downloaded from the CCDC.
;
#TrackingRef 'web_deposit_cif_file_4_HouYinling_1351846730.5-Dy.cif'


_audit_creation_method           SHELXL-97
_chemical_name_systematic        
;
?
;
_chemical_name_common            ?
_chemical_melting_point          ?
_chemical_formula_moiety         ?
_chemical_formula_sum            'C45 H46 Dy2 O32 S3'
_chemical_formula_weight         1520.00

loop_
_atom_type_symbol
_atom_type_description
_atom_type_scat_dispersion_real
_atom_type_scat_dispersion_imag
_atom_type_scat_source
C C 0.0033 0.0016 'International Tables Vol C Tables 4.2.6.8 and 6.1.1.4'
H H 0.0000 0.0000 'International Tables Vol C Tables 4.2.6.8 and 6.1.1.4'
O O 0.0106 0.0060 'International Tables Vol C Tables 4.2.6.8 and 6.1.1.4'
S S 0.1246 0.1234 'International Tables Vol C Tables 4.2.6.8 and 6.1.1.4'
Dy Dy -0.1892 4.4098 'International Tables Vol C Tables 4.2.6.8 and 6.1.1.4'

_symmetry_cell_setting           triclinic
_symmetry_space_group_name_H-M   P-1

loop_
_symmetry_equiv_pos_as_xyz
'x, y, z'
'-x, -y, -z'

_cell_length_a                   9.1999(19)
_cell_length_b                   15.578(3)
_cell_length_c                   22.142(4)
_cell_angle_alpha                102.86(3)
_cell_angle_beta                 101.55(3)
_cell_angle_gamma                104.52(3)
_cell_volume                     2882.7(10)
_cell_formula_units_Z            2
_cell_measurement_temperature    150(2)
_cell_measurement_reflns_used    1747
_cell_measurement_theta_min      2.3711
_cell_measurement_theta_max      28.8218

_exptl_crystal_description       needle
_exptl_crystal_colour            colorless
_exptl_crystal_size_max          0.30
_exptl_crystal_size_mid          0.23
_exptl_crystal_size_min          0.21
_exptl_crystal_density_meas      none
_exptl_crystal_density_diffrn    1.751
_exptl_crystal_density_method    'not measured'
_exptl_crystal_F_000             1504
_exptl_absorpt_coefficient_mu    2.774
_exptl_absorpt_correction_type   multi-scan
_exptl_absorpt_correction_T_min  0.4900
_exptl_absorpt_correction_T_max  0.5935
_exptl_absorpt_process_details   
;
CrysAlisPro, Oxford Diffraction Ltd.,
Version 1.171.34.44 (release 25-10-2010 CrysAlis171 .NET)
(compiled Oct 25 2010,18:11:34)
Empirical absorption correction using spherical harmonics,
implemented in SCALE3 ABSPACK scaling algorithm.
;

_exptl_special_details           
;
?
;

_diffrn_ambient_temperature      150(2)
_diffrn_radiation_wavelength     0.71073
_diffrn_radiation_type           MoK\a
_diffrn_radiation_source         'fine-focus sealed tube'
_diffrn_radiation_monochromator  graphite
_diffrn_measurement_device_type  'SuperNova, Single source at offset), Eos'
_diffrn_measurement_method       '\w scans'
_diffrn_detector_area_resol_mean 16.2116
_diffrn_standards_number         ?
_diffrn_standards_interval_count ?
_diffrn_standards_interval_time  ?
_diffrn_standards_decay_%        ?
_diffrn_reflns_number            19302
_diffrn_reflns_av_R_equivalents  0.0701
_diffrn_reflns_av_sigmaI/netI    0.1403
_diffrn_reflns_limit_h_min       -10
_diffrn_reflns_limit_h_max       10
_diffrn_reflns_limit_k_min       -18
_diffrn_reflns_limit_k_max       18
_diffrn_reflns_limit_l_min       -22
_diffrn_reflns_limit_l_max       26
_diffrn_reflns_theta_min         2.38
_diffrn_reflns_theta_max         25.01
_reflns_number_total             10122
_reflns_number_gt                6448
_reflns_threshold_expression     >2sigma(I)

_computing_data_collection       
;
CrysAlisPro, Oxford Diffraction Ltd.,
Version 1.171.34.44 (release 25-10-2010 CrysAlis171 .NET)
(compiled Oct 25 2010,18:11:34)
;
_computing_cell_refinement       
;
CrysAlisPro, Oxford Diffraction Ltd.,
Version 1.171.34.44 (release 25-10-2010 CrysAlis171 .NET)
(compiled Oct 25 2010,18:11:34)
;
_computing_data_reduction        
;
CrysAlisPro, Oxford Diffraction Ltd.,
Version 1.171.34.44 (release 25-10-2010 CrysAlis171 .NET)
(compiled Oct 25 2010,18:11:34)
;
_computing_structure_solution    'SHELXS-97 (Sheldrick, 1990)'
_computing_structure_refinement  'SHELXL-97 (Sheldrick, 1997)'
_computing_molecular_graphics    'Bruker SHELXTL'
_computing_publication_material  'Bruker SHELXTL'

_refine_special_details          
;
Refinement of F^2^ against ALL reflections. The weighted R-factor wR and
goodness of fit S are based on F^2^, conventional R-factors R are based
on F, with F set to zero for negative F^2^. The threshold expression of
F^2^ > 2sigma(F^2^) is used only for calculating R-factors(gt) etc. and is
not relevant to the choice of reflections for refinement. R-factors based
on F^2^ are statistically about twice as large as those based on F, and R-
factors based on ALL data will be even larger.
The Squeeze program was applied in refining the structure to deal with the seriously disordered free water molecules in the channels.
;

_refine_ls_structure_factor_coef Fsqd
_refine_ls_matrix_type           full
_refine_ls_weighting_scheme      calc
_refine_ls_weighting_details     
'calc w=1/[\s^2^(Fo^2^)+(0.0298P)^2^+0.0000P] where P=(Fo^2^+2Fc^2^)/3'
_atom_sites_solution_primary     direct
_atom_sites_solution_secondary   difmap
_atom_sites_solution_hydrogens   geom
_refine_ls_hydrogen_treatment    constr
_refine_ls_extinction_method     none
_refine_ls_extinction_coef       ?
_refine_ls_number_reflns         10122
_refine_ls_number_parameters     697
_refine_ls_number_restraints     18
_refine_ls_R_factor_all          0.1025
_refine_ls_R_factor_gt           0.0640
_refine_ls_wR_factor_ref         0.1324
_refine_ls_wR_factor_gt          0.1164
_refine_ls_goodness_of_fit_ref   0.988
_refine_ls_restrained_S_all      0.987
_refine_ls_shift/su_max          0.040
_refine_ls_shift/su_mean         0.001

loop_
_atom_site_label
_atom_site_type_symbol
_atom_site_fract_x
_atom_site_fract_y
_atom_site_fract_z
_atom_site_U_iso_or_equiv
_atom_site_adp_type
_atom_site_occupancy
_atom_site_symmetry_multiplicity
_atom_site_calc_flag
_atom_site_refinement_flags
_atom_site_disorder_assembly
_atom_site_disorder_group
Dy1 Dy 0.48589(5) 0.13777(3) 0.19568(2) 0.02876(15) Uani 1 1 d . . .
Dy2 Dy 0.97083(5) 0.08715(3) 0.14226(2) 0.02899(15) Uani 1 1 d . . .
C1 C 0.8316(11) 0.1233(6) 0.2758(5) 0.025(2) Uani 1 1 d U . .
C2 C 0.9096(11) 0.1214(7) 0.3409(5) 0.027(2) Uani 1 1 d . . .
C3 C 1.0762(10) 0.1487(7) 0.3618(5) 0.027(2) Uani 1 1 d . . .
H3 H 1.1344 0.1664 0.3344 0.032 Uiso 1 1 calc R . .
C4 C 1.1493(12) 0.1488(7) 0.4206(5) 0.038(3) Uani 1 1 d . . .
H4 H 1.2577 0.1657 0.4333 0.045 Uiso 1 1 calc R . .
C5 C 1.0640(12) 0.1237(7) 0.4633(5) 0.033(3) Uani 1 1 d . . .
C6 C 0.9010(12) 0.0979(7) 0.4436(5) 0.031(3) Uani 1 1 d . . .
C7 C 0.8253(11) 0.0979(7) 0.3818(5) 0.029(2) Uani 1 1 d . . .
H7 H 0.7170 0.0817 0.3689 0.035 Uiso 1 1 calc R . .
C8 C 1.2911(12) 0.1473(9) 0.5470(5) 0.060(4) Uani 1 1 d . . .
H8A H 1.3349 0.2104 0.5477 0.090 Uiso 1 1 calc R . .
H8B H 1.3298 0.1079 0.5188 0.090 Uiso 1 1 calc R . .
H8C H 1.3201 0.1415 0.5897 0.090 Uiso 1 1 calc R . .
C9 C 0.7826(11) 0.1047(7) 0.5978(5) 0.031(3) Uani 1 1 d . . .
C10 C 0.9256(11) 0.1179(8) 0.6393(5) 0.036(3) Uani 1 1 d . . .
H10 H 1.0163 0.1510 0.6319 0.043 Uiso 1 1 calc R . .
C11 C 0.9357(12) 0.0820(7) 0.6923(5) 0.039(3) Uani 1 1 d . . .
H11 H 1.0326 0.0902 0.7194 0.046 Uiso 1 1 calc R . .
C12 C 0.8006(10) 0.0346(7) 0.7038(5) 0.027(2) Uani 1 1 d . . .
C13 C 0.6583(12) 0.0219(8) 0.6618(5) 0.039(3) Uani 1 1 d . . .
H13 H 0.5675 -0.0105 0.6695 0.047 Uiso 1 1 calc R . .
C14 C 0.6459(12) 0.0553(7) 0.6089(5) 0.037(3) Uani 1 1 d . . .
H14 H 0.5488 0.0453 0.5813 0.044 Uiso 1 1 calc R . .
C15 C 0.8092(11) -0.0043(7) 0.7600(5) 0.029(2) Uani 1 1 d . . .
C16 C 0.7943(12) 0.2538(7) 0.1442(5) 0.034(3) Uani 1 1 d . . .
C17 C 0.8277(11) 0.3490(8) 0.1308(5) 0.035(3) Uani 1 1 d . . .
C18 C 0.9463(12) 0.3753(8) 0.1036(5) 0.037(3) Uani 1 1 d . . .
H18 H 1.0014 0.3348 0.0915 0.044 Uiso 1 1 calc R . .
C19 C 0.9843(11) 0.4612(7) 0.0939(5) 0.033(3) Uani 1 1 d . . .
H19 H 1.0640 0.4785 0.0749 0.040 Uiso 1 1 calc R . .
C20 C 0.9040(11) 0.5224(7) 0.1125(5) 0.033(3) Uani 1 1 d . . .
C21 C 0.7827(12) 0.4979(8) 0.1405(5) 0.042(3) Uani 1 1 d . . .
H21 H 0.7284 0.5388 0.1528 0.051 Uiso 1 1 calc R . .
C22 C 0.7458(12) 0.4102(7) 0.1495(5) 0.042(3) Uani 1 1 d . . .
H22 H 0.6655 0.3921 0.1682 0.050 Uiso 1 1 calc R . .
C23 C 0.7385(11) 0.6694(7) 0.0210(5) 0.030(2) Uani 1 1 d . . .
C24 C 0.7877(11) 0.7316(7) -0.0103(5) 0.032(3) Uani 1 1 d . . .
H24 H 0.8844 0.7394 -0.0189 0.039 Uiso 1 1 calc R . .
C25 C 0.6945(11) 0.7845(7) -0.0302(5) 0.027(2) Uani 1 1 d . . .
C26 C 0.5517(11) 0.7727(8) -0.0165(5) 0.035(3) Uani 1 1 d . . .
H26 H 0.4896 0.8080 -0.0287 0.042 Uiso 1 1 calc R . .
C27 C 0.5005(11) 0.7090(8) 0.0151(5) 0.036(3) Uani 1 1 d . . .
H27 H 0.4031 0.7010 0.0230 0.043 Uiso 1 1 calc R . .
C28 C 0.5921(12) 0.6566(8) 0.0355(6) 0.043(3) Uani 1 1 d . . .
C29 C 0.7482(11) 0.8473(7) -0.0677(5) 0.031(2) Uani 1 1 d . . .
C30 C 0.4012(14) 0.5719(10) 0.0757(6) 0.085(5) Uani 1 1 d . . .
H30A H 0.3244 0.5528 0.0350 0.128 Uiso 1 1 calc R . .
H30B H 0.3921 0.6267 0.1027 0.128 Uiso 1 1 calc R . .
H30C H 0.3845 0.5233 0.0962 0.128 Uiso 1 1 calc R . .
C31 C 0.2955(13) 0.2703(8) 0.2104(5) 0.040(3) Uani 1 1 d . . .
C32 C 0.2464(10) 0.3559(7) 0.2284(5) 0.028(2) Uani 1 1 d . . .
C33 C 0.3262(11) 0.4356(7) 0.2159(4) 0.030(2) Uani 1 1 d . . .
H33 H 0.4065 0.4353 0.1963 0.036 Uiso 1 1 calc R . .
C34 C 0.2848(11) 0.5148(7) 0.2329(5) 0.028(2) Uani 1 1 d . . .
C35 C 0.1655(12) 0.5158(7) 0.2634(5) 0.038(3) Uani 1 1 d . . .
C36 C 0.0899(11) 0.4359(7) 0.2747(5) 0.033(3) Uani 1 1 d . . .
H36 H 0.0101 0.4363 0.2946 0.040 Uiso 1 1 calc R . .
C37 C 0.1263(11) 0.3550(8) 0.2581(5) 0.034(3) Uani 1 1 d . . .
H37 H 0.0726 0.3017 0.2663 0.041 Uiso 1 1 calc R . .
C38 C 0.0151(12) 0.6058(8) 0.3078(6) 0.058(4) Uani 1 1 d . . .
H38A H 0.0510 0.6034 0.3510 0.088 Uiso 1 1 calc R . .
H38B H -0.0790 0.5556 0.2857 0.088 Uiso 1 1 calc R . .
H38C H -0.0051 0.6636 0.3088 0.088 Uiso 1 1 calc R . .
C39 C 0.5547(11) 0.7486(7) 0.2372(5) 0.034(3) Uani 1 1 d . . .
C40 C 0.6754(10) 0.7643(7) 0.2077(5) 0.027(2) Uani 1 1 d . . .
H40 H 0.7425 0.7285 0.2084 0.033 Uiso 1 1 calc R . .
C41 C 0.6945(11) 0.8321(6) 0.1778(5) 0.027(2) Uani 1 1 d U . .
H41 H 0.7741 0.8426 0.1577 0.032 Uiso 1 1 calc R . .
C42 C 0.5931(11) 0.8864(7) 0.1775(4) 0.028(2) Uani 1 1 d . . .
C43 C 0.4730(11) 0.8679(7) 0.2070(5) 0.034(3) Uani 1 1 d U . .
H43 H 0.4034 0.9020 0.2056 0.041 Uiso 1 1 calc R . .
C44 C 0.4551(12) 0.8007(8) 0.2380(5) 0.045(3) Uani 1 1 d . . .
H44 H 0.3773 0.7907 0.2590 0.053 Uiso 1 1 calc R . .
C45 C 0.6100(11) 0.9616(7) 0.1439(4) 0.025(2) Uani 1 1 d . . .
O1 O 0.9119(8) 0.1401(5) 0.2375(3) 0.0384(19) Uani 1 1 d . . .
O2 O 0.6843(7) 0.1065(5) 0.2616(3) 0.0339(17) Uani 1 1 d . . .
O3 O 1.1229(8) 0.1203(5) 0.5241(3) 0.043(2) Uani 1 1 d . . .
O4 O 0.8143(8) 0.0718(5) 0.4849(3) 0.0383(19) Uani 1 1 d . . .
O5 O 0.8923(8) 0.2352(5) 0.5477(3) 0.043(2) Uani 1 1 d . . .
O6 O 0.6131(8) 0.1432(6) 0.5045(4) 0.052(2) Uani 1 1 d . . .
O7 O 0.9415(7) -0.0013(4) 0.7910(3) 0.0310(17) Uani 1 1 d . . .
O8 O 0.6836(7) -0.0360(5) 0.7735(3) 0.0360(18) Uani 1 1 d . . .
O9 O 0.8709(8) 0.2051(5) 0.1247(3) 0.040(2) Uani 1 1 d . . .
O10 O 0.6903(8) 0.2344(5) 0.1735(3) 0.0367(18) Uani 1 1 d . . .
O11 O 1.0991(8) 0.6521(5) 0.0864(4) 0.051(2) Uani 1 1 d . . .
O12 O 0.9202(8) 0.6982(5) 0.1468(3) 0.0402(19) Uani 1 1 d . . .
O13 O 0.8217(9) 0.6082(5) 0.0329(3) 0.050(2) Uani 1 1 d . . .
O14 O 0.5003(7) 0.9968(4) 0.1344(3) 0.0264(16) Uani 1 1 d . . .
O15 O 0.7326(7) 0.9829(5) 0.1266(3) 0.0352(18) Uani 1 1 d . . .
O16 O 0.8825(7) 0.8575(5) -0.0747(3) 0.041(2) Uani 1 1 d . . .
O17 O 0.6541(8) 0.8864(5) -0.0933(3) 0.0387(18) Uani 1 1 d . . .
O18 O 0.6403(8) 0.6095(5) 0.2639(4) 0.052(2) Uani 1 1 d . . .
O19 O 0.3618(7) 0.5940(5) 0.2195(3) 0.0340(18) Uani 1 1 d . . .
O20 O 0.5536(9) 0.2339(6) 0.3069(3) 0.060(3) Uani 1 1 d . . .
H20A H 0.4802 0.2561 0.2987 0.090 Uiso 1 1 d R . .
H20B H 0.5204 0.1774 0.3046 0.090 Uiso 1 1 d R . .
O21 O 0.9948(8) -0.0478(5) 0.0749(3) 0.044(2) Uani 1 1 d . . .
H21A H 0.9863 -0.0724 0.0367 0.065 Uiso 1 1 d R . .
H21B H 1.0463 -0.0681 0.1031 0.065 Uiso 1 1 d R . .
O22 O 0.4288(7) 0.2808(5) 0.1982(4) 0.043(2) Uani 1 1 d . . .
O23 O 0.8149(9) 0.0525(6) 0.0265(4) 0.071(3) Uani 1 1 d . . .
H23A H 0.7463 0.0762 0.0384 0.106 Uiso 1 1 d R . .
H23B H 0.7677 -0.0039 0.0052 0.106 Uiso 1 1 d R . .
O24 O 0.5543(9) 0.5908(5) 0.0659(4) 0.050(2) Uani 1 1 d . . .
O25 O 0.2109(8) 0.1928(5) 0.2084(3) 0.0396(19) Uani 1 1 d . . .
O26 O 0.1318(8) 0.5982(5) 0.2749(4) 0.043(2) Uani 1 1 d . . .
O27 O 0.4998(9) 0.6830(5) 0.3319(4) 0.054(2) Uani 1 1 d . . .
S1 S 0.7712(3) 0.1489(2) 0.53215(14) 0.0392(7) Uani 1 1 d . . .
S2 S 0.9507(3) 0.6322(2) 0.09981(14) 0.0402(7) Uani 1 1 d . . .
S3 S 0.5250(3) 0.6562(2) 0.27072(14) 0.0393(7) Uani 1 1 d . . .

loop_
_atom_site_aniso_label
_atom_site_aniso_U_11
_atom_site_aniso_U_22
_atom_site_aniso_U_33
_atom_site_aniso_U_23
_atom_site_aniso_U_13
_atom_site_aniso_U_12
Dy1 0.0311(3) 0.0269(3) 0.0307(3) 0.0102(2) 0.0096(2) 0.0103(2)
Dy2 0.0317(3) 0.0258(3) 0.0344(3) 0.0123(2) 0.0142(2) 0.0103(2)
C1 0.024(5) 0.016(5) 0.028(5) -0.002(4) 0.001(4) 0.007(4)
C2 0.036(6) 0.019(6) 0.024(6) 0.006(5) 0.010(5) 0.005(5)
C3 0.025(5) 0.023(6) 0.025(6) 0.006(5) 0.004(5) -0.004(5)
C4 0.030(6) 0.034(7) 0.044(8) 0.005(6) 0.008(5) 0.009(5)
C5 0.040(6) 0.036(7) 0.017(6) 0.002(5) -0.002(5) 0.015(6)
C6 0.041(6) 0.031(6) 0.029(6) 0.011(5) 0.019(5) 0.014(5)
C7 0.027(5) 0.039(7) 0.026(6) 0.020(5) 0.007(5) 0.008(5)
C8 0.053(8) 0.075(10) 0.035(8) 0.011(7) -0.011(6) 0.011(8)
C9 0.033(6) 0.043(7) 0.014(6) 0.000(5) 0.007(5) 0.011(6)
C10 0.028(6) 0.040(7) 0.040(7) 0.016(6) 0.012(5) 0.004(5)
C11 0.043(7) 0.043(7) 0.029(7) 0.009(6) 0.011(5) 0.012(6)
C12 0.021(5) 0.032(6) 0.029(6) 0.007(5) 0.010(5) 0.011(5)
C13 0.041(6) 0.036(7) 0.033(7) 0.004(6) 0.004(5) 0.011(6)
C14 0.035(6) 0.038(7) 0.037(7) 0.013(6) 0.006(5) 0.011(6)
C15 0.033(6) 0.025(6) 0.035(7) 0.010(5) 0.013(5) 0.014(5)
C16 0.032(6) 0.035(7) 0.029(7) 0.012(5) -0.004(5) 0.008(6)
C17 0.024(5) 0.045(7) 0.028(6) 0.003(5) -0.002(5) 0.008(5)
C18 0.049(7) 0.041(7) 0.033(7) 0.019(6) 0.018(6) 0.021(6)
C19 0.031(6) 0.043(7) 0.024(6) 0.013(5) 0.007(5) 0.005(5)
C20 0.031(6) 0.038(7) 0.035(7) 0.017(5) 0.008(5) 0.014(5)
C21 0.054(7) 0.038(7) 0.061(8) 0.031(6) 0.036(7) 0.028(6)
C22 0.054(7) 0.029(7) 0.060(8) 0.026(6) 0.033(7) 0.017(6)
C23 0.041(6) 0.017(6) 0.031(6) 0.011(5) 0.009(5) 0.006(5)
C24 0.029(6) 0.034(7) 0.037(7) 0.014(5) 0.001(5) 0.017(5)
C25 0.038(6) 0.022(6) 0.020(6) 0.006(5) 0.005(5) 0.010(5)
C26 0.032(6) 0.042(7) 0.025(6) 0.007(5) 0.000(5) 0.011(6)
C27 0.026(5) 0.044(7) 0.033(7) 0.011(6) 0.011(5) 0.002(5)
C28 0.039(7) 0.039(7) 0.040(8) 0.005(6) 0.012(6) -0.003(6)
C29 0.033(6) 0.030(6) 0.023(6) 0.007(5) 0.004(5) 0.001(5)
C30 0.067(9) 0.090(12) 0.050(10) -0.008(9) 0.021(8) -0.038(9)
C31 0.039(7) 0.040(8) 0.032(7) 0.001(6) -0.002(5) 0.014(6)
C32 0.021(5) 0.028(6) 0.032(6) 0.008(5) 0.001(5) 0.005(5)
C33 0.028(5) 0.038(7) 0.027(6) 0.008(5) 0.006(5) 0.017(5)
C34 0.026(5) 0.027(6) 0.025(6) 0.008(5) 0.003(5) 0.001(5)
C35 0.044(7) 0.023(6) 0.044(7) -0.001(5) 0.009(6) 0.018(6)
C36 0.025(5) 0.029(6) 0.043(7) 0.009(5) 0.011(5) 0.003(5)
C37 0.027(6) 0.038(7) 0.035(7) 0.012(5) 0.008(5) 0.007(5)
C38 0.047(7) 0.054(9) 0.064(9) -0.014(7) 0.009(7) 0.030(7)
C39 0.034(6) 0.031(7) 0.032(7) 0.008(5) 0.002(5) 0.008(5)
C40 0.023(5) 0.024(6) 0.029(6) 0.002(5) 0.004(5) 0.003(5)
C41 0.029(5) 0.021(5) 0.033(5) 0.015(4) 0.013(4) 0.002(4)
C42 0.029(5) 0.032(6) 0.022(6) 0.003(5) 0.011(5) 0.008(5)
C43 0.037(5) 0.035(6) 0.046(6) 0.021(5) 0.021(5) 0.026(5)
C44 0.043(7) 0.045(8) 0.054(8) 0.013(7) 0.030(6) 0.016(6)
C45 0.025(5) 0.025(6) 0.023(6) 0.006(5) 0.005(4) 0.004(5)
O1 0.050(5) 0.043(5) 0.027(4) 0.008(4) 0.013(4) 0.023(4)
O2 0.034(4) 0.036(5) 0.033(4) 0.019(4) 0.007(3) 0.008(4)
O3 0.042(4) 0.049(5) 0.030(5) 0.003(4) 0.001(4) 0.015(4)
O4 0.048(5) 0.040(5) 0.021(4) 0.003(4) 0.009(4) 0.007(4)
O5 0.051(5) 0.040(5) 0.041(5) 0.013(4) 0.019(4) 0.011(4)
O6 0.048(5) 0.073(6) 0.050(5) 0.034(5) 0.016(4) 0.031(5)
O7 0.037(4) 0.025(4) 0.031(4) 0.004(3) 0.006(3) 0.015(4)
O8 0.026(4) 0.032(4) 0.057(5) 0.020(4) 0.018(4) 0.009(4)
O9 0.049(5) 0.029(4) 0.056(5) 0.018(4) 0.026(4) 0.024(4)
O10 0.043(4) 0.042(5) 0.045(5) 0.028(4) 0.020(4) 0.027(4)
O11 0.044(5) 0.034(5) 0.081(6) 0.022(5) 0.030(5) 0.009(4)
O12 0.047(4) 0.039(5) 0.041(5) 0.015(4) 0.015(4) 0.018(4)
O13 0.081(6) 0.046(5) 0.035(5) 0.015(4) 0.018(4) 0.035(5)
O14 0.028(4) 0.025(4) 0.027(4) 0.009(3) 0.011(3) 0.007(3)
O15 0.027(4) 0.030(4) 0.047(5) 0.004(4) 0.013(4) 0.010(3)
O16 0.023(4) 0.056(5) 0.046(5) 0.026(4) 0.008(4) 0.007(4)
O17 0.059(5) 0.026(4) 0.035(5) 0.019(4) 0.005(4) 0.017(4)
O18 0.041(4) 0.047(5) 0.073(6) 0.029(5) 0.010(4) 0.018(4)
O19 0.029(4) 0.030(4) 0.043(5) 0.017(4) 0.011(3) 0.003(3)
O20 0.078(6) 0.081(7) 0.041(5) 0.016(5) 0.017(5) 0.061(6)
O21 0.064(5) 0.043(5) 0.030(5) 0.009(4) 0.019(4) 0.025(4)
O22 0.023(4) 0.035(5) 0.066(6) 0.007(4) 0.010(4) 0.013(4)
O23 0.080(6) 0.076(7) 0.050(6) -0.005(5) 0.013(5) 0.038(6)
O24 0.054(5) 0.048(5) 0.032(5) 0.014(4) 0.012(4) -0.017(4)
O25 0.045(5) 0.033(5) 0.041(5) 0.01