
#######################################################################
#
#                 Cambridge Crystallographic Data Centre
#                                CCDC
#
#######################################################################
#
# If this CIF has been generated from an entry in the Cambridge
# Structural Database, then it will include bibliographic, chemical,
# crystal, experimental, refinement or atomic coordinate data resulting
# from the CCDC's data processing and validation procedures.
#
#######################################################################

data_CSD_CIF_WERKIN20
_audit_creation_date 1996-07-31
_audit_creation_method CSD-ConQuest-V1
_database_code_CSD WERKIN20
_database_code_depnum_ccdc_archive 'CCDC 131579'
_chemical_formula_sum 'C8 H24 Co1 Li1 N8 O12'
_chemical_formula_moiety
;
2(C4 H12 N1 1+),Li1 1+,Co1 N6 O12 3-
;
_journal_coeditor_code "IUCr CR0508"
_journal_coden_Cambridge 622
_journal_volume 52
_journal_year 1996
_journal_page_first 471
_journal_name_full 'Acta Crystallogr.,Sect.B:Struct.Sci. '
loop_
_publ_author_name
"R.Bianchi"
"C.Gatti"
"V.Adovasio"
"M.Nardelli"
_chemical_name_systematic
;
Lithium bis(tetramethylammonium) hexanitro-cobalt(iii)
;
_chemical_name_common
;
Teaching Subset: Fundamental Chemistry, Symmetry
;
_cell_volume    476.604
_exptl_crystal_density_diffrn 1.708
_diffrn_ambient_temperature 113
_refine_special_details
;
multipole model refinement

;
#These two values have been output from a single CSD field.
_refine_ls_R_factor_gt 0.0288
_refine_ls_wR_factor_gt 0.0288
_symmetry_cell_setting hexagonal
_symmetry_space_group_name_H-M 'P -3 m 1'
_symmetry_Int_Tables_number 164
loop_
_symmetry_equiv_pos_site_id
_symmetry_equiv_pos_as_xyz
1 x,y,z
2 -y,x-y,z
3 y,x,-z
4 -x+y,-x,z
5 -x,-x+y,-z
6 x-y,-y,-z
7 -x,-y,-z
8 y,-x+y,-z
9 -y,-x,z
10 x-y,x,-z
11 x,x-y,z
12 -x+y,y,z
_cell_length_a 8.856(1)
_cell_length_b 8.856(1)
_cell_length_c 7.017(2)
_cell_angle_alpha 90
_cell_angle_beta 90
_cell_angle_gamma 120
_cell_formula_units_Z 1
loop_
_atom_type_symbol
_atom_type_radius_bond
C 0.68
H 0.23
Co 1.33
Li 0.68
N 0.68
O 0.68
loop_
_atom_site_label
_atom_site_type_symbol
_atom_site_fract_x
_atom_site_fract_y
_atom_site_fract_z
Co1 Co 0.00000 0.00000 0.00000
O1 O 0.10684(2) -0.10684(2) 0.32931(4)
O2 O 0.17754(3) -0.17754(3) 0.06854(5)
N1 N 0.10745(2) -0.10745(2) 0.15261(4)
Li1 Li 0.00000 0.00000 0.50000
N2 N 0.33333 0.66667 0.64148(7)
C1 C 0.42519(3) 0.57481(3) 0.71250(7)
C2 C 0.33333 0.66667 0.42831(9)
H1 H 0.3567(12) 0.4422(15) 0.6580(11)
H2 H 0.4250(8) 0.5750(8) 0.866(2)
H3 H 0.2680(12) 0.7320(12) 0.3804(18)
N1A N 0.10745(2) 0.21490(2) 0.15261(4)
O1A O 0.10684(2) 0.21368(2) 0.32931(4)
O2A O 0.17754(3) 0.35508(3) 0.06854(5)
N1B N -0.10745(2) 0.10745(2) -0.15261(4)
O1B O -0.10684(2) 0.10684(2) -0.32931(4)
O2B O -0.17754(3) 0.17754(3) -0.06854(5)
N1C N -0.21490(2) -0.10745(2) 0.15261(4)
O1C O -0.21368(2) -0.10684(2) 0.32931(4)
O2C O -0.35508(3) -0.17754(3) 0.06854(5)
N1D N -0.10745(2) -0.21490(2) -0.15261(4)
O1D O -0.10684(2) -0.21368(2) -0.32931(4)
O2D O -0.17754(3) -0.35508(3) -0.06854(5)
N1E N 0.21490(2) 0.10745(2) -0.15261(4)
O1E O 0.21368(2) 0.10684(2) -0.32931(4)
O2E O 0.35508(3) 0.17754(3) -0.06854(5)
H1H H 0.5578(12) 0.6433(15) 0.6580(11)
C1A C 0.42519(3) 0.85038(3) 0.71250(7)
H1A H 0.5578(12) 0.9145(15) 0.6580(11)
H1J H 0.3567(12) 0.9145(15) 0.6580(11)
H2A H 0.4250(8) 0.8500(8) 0.866(2)
C1C C 0.14962(3) 0.57481(3) 0.71250(7)
H1C H 0.0855(12) 0.6433(15) 0.6580(11)
H1K H 0.0855(12) 0.4422(15) 0.6580(11)
H2C H 0.1500(8) 0.5750(8) 0.866(2)
H3A H 0.2680(12) 0.5360(12) 0.3804(18)
H3C H 0.4640(12) 0.7320(12) 0.3804(18)
#END
