
#######################################################################
#
#                 Cambridge Crystallographic Data Centre
#                                CCDC
#
#######################################################################
#
# If this CIF has been generated from an entry in the Cambridge
# Structural Database, then it will include bibliographic, chemical,
# crystal, experimental, refinement or atomic coordinate data resulting
# from the CCDC's data processing and validation procedures.
#
#######################################################################

data_CSD_CIF_WEVPOC
_audit_creation_date 1995-01-18
_audit_creation_method CSD-ConQuest-V1
_database_code_CSD WEVPOC
_database_code_depnum_ccdc_archive 'CCDC 1292604'
_chemical_formula_sum 'C21 H30 F3 I1 O4 S1'
_chemical_formula_moiety
;
C20 H28 I1 1+,C1 F3 O3 S1 1-,H2 O1
;
_journal_coden_Cambridge 4
_journal_volume 116
_journal_year 1994
_journal_page_first 2448
_journal_name_full 'J.Am.Chem.Soc. '
loop_
_publ_author_name
"R.S.Brown"
"R.W.Nagorski"
"A.J.Bennet"
"R.E.D.McClung"
"G.H.M.Aarts"
"M.Klobukowski"
"R.McDonald"
"B.D.Santarsiero"
_chemical_name_systematic
;
Adamantylideneadamantaneiodinium trifluoromethanesulfonate monohydrate
;
_chemical_name_common
;
Teaching Subset: Fundamental Chemistry, Symmetry
;
_cell_volume   2142.242
_exptl_crystal_colour 'colorless'
_exptl_crystal_density_diffrn 1.744
_diffrn_ambient_temperature 223.15
#These two values have been output from a single CSD field.
_refine_ls_R_factor_gt 0.032
_refine_ls_wR_factor_gt 0.032
_symmetry_cell_setting orthorhombic
_symmetry_space_group_name_H-M 'P 21 21 21'
_symmetry_Int_Tables_number 19
loop_
_symmetry_equiv_pos_site_id
_symmetry_equiv_pos_as_xyz
1 x,y,z
2 1/2+x,1/2-y,-z
3 -x,1/2+y,1/2-z
4 1/2-x,-y,1/2+z
_cell_length_a 11.199(2)
_cell_length_b 12.674(4)
_cell_length_c 15.093(2)
_cell_angle_alpha 90
_cell_angle_beta 90
_cell_angle_gamma 90
_cell_formula_units_Z 4
loop_
_atom_type_symbol
_atom_type_radius_bond
C 0.68
H 0.23
F 0.64
I 1.40
O 0.68
S 1.02
loop_
_atom_site_label
_atom_site_type_symbol
_atom_site_fract_x
_atom_site_fract_y
_atom_site_fract_z
I1 I 0.11662(3) 0.21920(2) 0.24478(2)
C1 C -0.0705(5) 0.2890(5) 0.2026(3)
C2 C -0.0510(6) 0.3870(4) 0.1465(4)
C3 C -0.1770(6) 0.4304(5) 0.1262(4)
C4 C -0.2504(6) 0.3524(5) 0.0742(4)
C5 C -0.2629(6) 0.2506(5) 0.1293(4)
C6 C -0.1386(5) 0.2051(4) 0.1501(3)
C7 C -0.0761(6) 0.1792(5) 0.0622(4)
C8 C -0.0634(6) 0.2795(6) 0.0063(4)
C9 C -0.1876(6) 0.3255(5) -0.0138(4)
C10 C 0.0101(5) 0.3598(5) 0.0573(4)
C11 C -0.0622(5) 0.2894(4) 0.2987(3)
C12 C -0.0366(5) 0.3905(5) 0.3504(4)
C13 C -0.1585(6) 0.4393(5) 0.3771(4)
C14 C -0.2291(5) 0.3568(5) 0.4352(4)
C15 C -0.2475(5) 0.2581(5) 0.3824(4)
C16 C -0.1252(5) 0.2083(4) 0.3551(3)
C17 C -0.0559(6) 0.1854(5) 0.4405(4)
C18 C -0.0372(5) 0.2858(5) 0.4932(4)
C19 C -0.1566(6) 0.3335(5) 0.5190(4)
C20 C 0.0339(5) 0.3665(5) 0.4367(4)
H1 H -0.00140 0.43580 0.17700
H2 H -0.16950 0.49350 0.09270
H3 H -0.21650 0.44520 0.18050
H4 H -0.32650 0.38200 0.06180
H5 H -0.30770 0.20020 0.09670
H6 H -0.30300 0.26620 0.18320
H7 H -0.14290 0.14210 0.18410
H8 H -0.12200 0.12860 0.03060
H9 H 0.00090 0.15110 0.07410
H10 H -0.02490 0.26310 -0.04810
H11 H -0.17930 0.38760 -0.04850
H12 H -0.23360 0.27500 -0.04550
H13 H 0.08710 0.33130 0.06870
H14 H 0.01780 0.42220 0.02290
H15 H 0.00960 0.43660 0.31460
H16 H -0.20320 0.45530 0.32540
H17 H -0.14570 0.50200 0.41020
H18 H -0.30470 0.38440 0.45170
H19 H -0.29160 0.27450 0.33050
H20 H -0.29090 0.20870 0.41710
H21 H -0.13310 0.14440 0.32280
H22 H 0.01960 0.15600 0.42570
H23 H -0.09970 0.13640 0.47540
H24 H 0.00640 0.26920 0.54540
H25 H -0.19930 0.28510 0.55510
H26 H -0.14370 0.39710 0.55080
H27 H 0.04420 0.42990 0.46950
H28 H 0.10980 0.33790 0.42220
S1 S 0.5697(2) -0.0693(2) 0.1889(1)
F1 F 0.6930(5) -0.0683(5) 0.3353(4)
F2 F 0.5106(5) -0.0386(6) 0.3512(4)
F3 F 0.6147(6) 0.0785(4) 0.3008(4)
O1 O 0.4732(6) -0.0079(6) 0.1597(5)
O2 O 0.6821(8) -0.0500(8) 0.1438(5)
O3 O 0.5436(7) -0.1770(5) 0.2005(5)
C21 C 0.6027(7) -0.0253(6) 0.2979(4)
O4 O 0.3358(4) 0.1447(3) 0.2464(3)
H29 H 0.38510 0.09030 0.21530
H30 H 0.37970 0.20950 0.26560
#END
