####################################################################### 
# 
# This file contains crystal structure data downloaded from the 
# Cambridge Structural Database (CSD) hosted by the Cambridge 
# Crystallographic Data Centre (CCDC).
# 
# Full information about CCDC data access policies and citation 
# guidelines are available at http://www.ccdc.cam.ac.uk/access/V1 
# 
# Audit and citation data items may have been added by the CCDC. 
# Please retain this information to preserve the provenance of 
# this file and to allow appropriate attribution of the data. 
# 
#######################################################################

data_2
_audit_block_doi                 10.5517/ccr11g8
_database_code_depnum_ccdc_archive 'CCDC 686199'
loop_
_citation_id
_citation_doi
_citation_year
1 10.1016/j.poly.2012.03.037 2013
_audit_update_record             
;
2008-04-24 deposited with the CCDC.	2024-07-13 downloaded from the CCDC.
;

_audit_creation_method           SHELXL-97
_chemical_name_systematic        
;
?
;
_chemical_name_common            ?
_chemical_melting_point          ?
_chemical_formula_moiety         'C30 H30 Cu3 Mo N5 S5, C6 H5 N, 2(C3 H7 N O)'
_chemical_formula_sum            'C42 H49 Cu3 Mo N8 O2 S5'
_chemical_formula_weight         1144.75

loop_
_atom_type_symbol
_atom_type_description
_atom_type_scat_dispersion_real
_atom_type_scat_dispersion_imag
_atom_type_scat_source
C C 0.0033 0.0016 'International Tables Vol C Tables 4.2.6.8 and 6.1.1.4'
H H 0.0000 0.0000 'International Tables Vol C Tables 4.2.6.8 and 6.1.1.4'
N N 0.0061 0.0033 'International Tables Vol C Tables 4.2.6.8 and 6.1.1.4'
O O 0.0106 0.0060 'International Tables Vol C Tables 4.2.6.8 and 6.1.1.4'
S S 0.1246 0.1234 'International Tables Vol C Tables 4.2.6.8 and 6.1.1.4'
Cu Cu 0.3201 1.2651 'International Tables Vol C Tables 4.2.6.8 and 6.1.1.4'
Mo Mo -1.6832 0.6857 'International Tables Vol C Tables 4.2.6.8 and 6.1.1.4'

_symmetry_cell_setting           triclinic
_symmetry_space_group_name_H-M   'P -1'
_symmetry_space_group_name_Hall  '-P 1'


loop_
_symmetry_equiv_pos_as_xyz
'x, y, z'
'-x, -y, -z'

_cell_length_a                   11.181(2)
_cell_length_b                   12.017(2)
_cell_length_c                   17.674(4)
_cell_angle_alpha                96.85(4)
_cell_angle_beta                 94.19(5)
_cell_angle_gamma                95.43(5)
_cell_volume                     2338.6(8)
_cell_formula_units_Z            2
_cell_measurement_temperature    153(2)
_cell_measurement_reflns_used    7544
_cell_measurement_theta_min      3.0
_cell_measurement_theta_max      25.3

_exptl_crystal_description       platelet
_exptl_crystal_colour            black
_exptl_crystal_size_max          0.50
_exptl_crystal_size_mid          0.25
_exptl_crystal_size_min          0.03
_exptl_crystal_density_meas      ?
_exptl_crystal_density_diffrn    1.626
_exptl_crystal_density_method    'not measured'
_exptl_crystal_F_000             1164
_exptl_absorpt_coefficient_mu    1.876
_exptl_absorpt_correction_type   multi-scan
_exptl_absorpt_correction_T_min  0.4539
_exptl_absorpt_correction_T_max  0.9459
_exptl_absorpt_process_details   'Jacobson, R. (1998) Private communication.'
_exptl_special_details           
;
?
;

_diffrn_ambient_temperature      153(2)
_diffrn_radiation_wavelength     0.71073
_diffrn_radiation_type           MoK\a
_diffrn_radiation_source         'fine-focus sealed tube'
_diffrn_radiation_monochromator  graphite
_diffrn_measurement_device_type  'Rigaku Mercury'
_diffrn_measurement_method       \w
_diffrn_detector_area_resol_mean ?
_diffrn_standards_number         0
_diffrn_standards_interval_count 0
_diffrn_standards_interval_time  0
_diffrn_standards_decay_%        0
_diffrn_reflns_number            23001
_diffrn_reflns_av_R_equivalents  0.0638
_diffrn_reflns_av_sigmaI/netI    0.0870
_diffrn_reflns_limit_h_min       -12
_diffrn_reflns_limit_h_max       13
_diffrn_reflns_limit_k_min       -14
_diffrn_reflns_limit_k_max       12
_diffrn_reflns_limit_l_min       -21
_diffrn_reflns_limit_l_max       21
_diffrn_reflns_theta_min         3.03
_diffrn_reflns_theta_max         25.35
_reflns_number_total             8515
_reflns_number_gt                6377
_reflns_threshold_expression     >2sigma(I)

_computing_data_collection       ?
_computing_cell_refinement       ?
_computing_data_reduction        ?
_computing_structure_solution    'SHELXS-97 (Sheldrick, 1990)'
_computing_structure_refinement  'SHELXL-97 (Sheldrick, 1997)'
_computing_molecular_graphics    ?
_computing_publication_material  ?

_refine_special_details          
;
Refinement of F^2^ against ALL reflections. The weighted R-factor wR and
goodness of fit S are based on F^2^, conventional R-factors R are based
on F, with F set to zero for negative F^2^. The threshold expression of
F^2^ > 2sigma(F^2^) is used only for calculating R-factors(gt) etc. and is
not relevant to the choice of reflections for refinement. R-factors based
on F^2^ are statistically about twice as large as those based on F, and R-
factors based on ALL data will be even larger.
;

_refine_ls_structure_factor_coef Fsqd
_refine_ls_matrix_type           full
_refine_ls_weighting_scheme      calc
_refine_ls_weighting_details     
'calc w=1/[\s^2^(Fo^2^)+(0.0436P)^2^+3.1839P] where P=(Fo^2^+2Fc^2^)/3'
_atom_sites_solution_primary     direct
_atom_sites_solution_secondary   difmap
_atom_sites_solution_hydrogens   geom
_refine_ls_hydrogen_treatment    constr
_refine_ls_extinction_method     none
_refine_ls_extinction_coef       ?
_refine_ls_number_reflns         8515
_refine_ls_number_parameters     559
_refine_ls_number_restraints     0
_refine_ls_R_factor_all          0.0953
_refine_ls_R_factor_gt           0.0655
_refine_ls_wR_factor_ref         0.1347
_refine_ls_wR_factor_gt          0.1213
_refine_ls_goodness_of_fit_ref   1.133
_refine_ls_restrained_S_all      1.133
_refine_ls_shift/su_max          0.000
_refine_ls_shift/su_mean         0.000

loop_
_atom_site_label
_atom_site_type_symbol
_atom_site_fract_x
_atom_site_fract_y
_atom_site_fract_z
_atom_site_U_iso_or_equiv
_atom_site_adp_type
_atom_site_occupancy
_atom_site_symmetry_multiplicity
_atom_site_calc_flag
_atom_site_refinement_flags
_atom_site_disorder_assembly
_atom_site_disorder_group
Mo1 Mo 0.63728(4) -0.15586(4) -0.23941(3) 0.01595(14) Uani 1 1 d . . .
Cu1 Cu 0.60505(7) -0.36660(6) -0.31620(4) 0.0222(2) Uani 1 1 d . . .
Cu2 Cu 0.39777(6) -0.19250(7) -0.24204(4) 0.0210(2) Uani 1 1 d . . .
Cu3 Cu 0.57250(7) -0.09305(7) -0.37581(4) 0.0257(2) Uani 1 1 d . . .
S1 S 0.70790(13) -0.21418(13) -0.35383(9) 0.0203(4) Uani 1 1 d . . .
S2 S 0.52667(13) -0.30987(13) -0.20561(9) 0.0192(3) Uani 1 1 d . . .
S3 S 0.50000(13) -0.03377(13) -0.26498(9) 0.0205(4) Uani 1 1 d . . .
S4 S 0.88599(19) -0.63477(17) -0.28195(13) 0.0469(5) Uani 1 1 d . . .
S5 S 0.67719(16) 0.10642(16) -0.39684(10) 0.0321(4) Uani 1 1 d . . .
O1 O 0.7347(5) 0.3989(5) -0.0306(3) 0.0514(15) Uani 1 1 d . . .
O2 O -0.0459(5) -0.2344(4) 0.1123(3) 0.0479(14) Uani 1 1 d . . .
N1 N 0.7163(5) -0.4869(5) -0.2956(3) 0.0277(13) Uani 1 1 d . . .
N2 N 0.5318(5) 0.1178(4) -0.5305(3) 0.0262(13) Uani 1 1 d . . .
N3 N 0.4701(4) -0.4414(4) -0.3946(3) 0.0204(12) Uani 1 1 d . . .
N4 N -0.2564(4) -0.7440(4) -0.6807(3) 0.0223(12) Uani 1 1 d . . .
N5 N 0.2917(5) -0.1387(4) -0.1549(3) 0.0223(12) Uani 1 1 d . . .
N6 N 1.2636(6) 0.2068(5) -0.3013(4) 0.0396(16) Uani 1 1 d . . .
N7 N 0.5633(5) 0.3691(5) -0.1094(3) 0.0388(16) Uani 1 1 d . . .
N8 N -0.0758(5) -0.4239(5) 0.1098(3) 0.0319(14) Uani 1 1 d . . .
C1 C 0.7814(6) -0.5443(6) -0.2900(3) 0.0196(14) Uani 1 1 d . . .
C2 C 0.5912(6) 0.1140(5) -0.4754(4) 0.0207(14) Uani 1 1 d . . .
C3 C 0.4026(6) -0.5362(6) -0.3863(4) 0.0355(18) Uani 1 1 d . . .
H3 H 0.4280 -0.5774 -0.3465 0.043 Uiso 1 1 calc R . .
C4 C 0.2995(6) -0.5782(6) -0.4311(4) 0.0357(18) Uani 1 1 d . . .
H4 H 0.2562 -0.6466 -0.4221 0.043 Uiso 1 1 calc R . .
C5 C 0.2584(6) -0.5206(6) -0.4899(4) 0.0252(15) Uani 1 1 d . . .
C6 C 0.3280(6) -0.4250(6) -0.4993(4) 0.0294(16) Uani 1 1 d . . .
H6 H 0.3046 -0.3830 -0.5392 0.035 Uiso 1 1 calc R . .
C7 C 0.4322(6) -0.3871(5) -0.4525(4) 0.0244(15) Uani 1 1 d . . .
H7 H 0.4785 -0.3204 -0.4617 0.029 Uiso 1 1 calc R . .
C8 C 0.1447(6) -0.5537(6) -0.5380(4) 0.0332(17) Uani 1 1 d . . .
H8 H 0.1263 -0.5071 -0.5762 0.040 Uiso 1 1 calc R . .
C9 C 0.0670(6) -0.6393(6) -0.5341(4) 0.0330(17) Uani 1 1 d . . .
H9 H 0.0832 -0.6853 -0.4952 0.040 Uiso 1 1 calc R . .
C10 C -0.0446(6) -0.6717(6) -0.5849(4) 0.0279(16) Uani 1 1 d . . .
C11 C -0.1184(6) -0.7652(6) -0.5747(4) 0.0386(19) Uani 1 1 d . . .
H11 H -0.0987 -0.8070 -0.5339 0.046 Uiso 1 1 calc R . .
C12 C -0.2219(6) -0.7995(6) -0.6234(4) 0.0331(17) Uani 1 1 d . . .
H12 H -0.2704 -0.8657 -0.6154 0.040 Uiso 1 1 calc R . .
C13 C -0.1881(6) -0.6503(6) -0.6885(4) 0.0314(17) Uani 1 1 d . . .
H13 H -0.2130 -0.6076 -0.7276 0.038 Uiso 1 1 calc R . .
C14 C -0.0822(6) -0.6106(6) -0.6429(4) 0.0319(17) Uani 1 1 d . . .
H14 H -0.0364 -0.5431 -0.6512 0.038 Uiso 1 1 calc R . .
C15 C 0.2586(5) -0.2016(5) -0.1003(4) 0.0213(14) Uani 1 1 d . . .
H15 H 0.2930 -0.2704 -0.0970 0.026 Uiso 1 1 calc R . .
C16 C 0.1768(5) -0.1705(5) -0.0487(4) 0.0210(14) Uani 1 1 d . . .
H16 H 0.1587 -0.2164 -0.0100 0.025 Uiso 1 1 calc R . .
C17 C 0.1213(5) -0.0731(5) -0.0529(3) 0.0190(14) Uani 1 1 d . . .
C18 C 0.1568(5) -0.0072(5) -0.1094(3) 0.0204(14) Uani 1 1 d . . .
H18 H 0.1242 0.0621 -0.1139 0.025 Uiso 1 1 calc R . .
C19 C 0.2387(6) -0.0434(6) -0.1578(4) 0.0246(15) Uani 1 1 d . . .
H19 H 0.2597 0.0019 -0.1962 0.030 Uiso 1 1 calc R . .
C20 C 0.0326(5) -0.0436(5) 0.0015(4) 0.0212(14) Uani 1 1 d . . .
H20 H 0.0208 -0.0893 0.0412 0.025 Uiso 1 1 calc R . .
C21 C 0.7621(5) -0.1729(5) -0.1268(3) 0.0214(14) Uani 1 1 d . . .
C22 C 0.6976(5) -0.0772(5) -0.1125(3) 0.0198(14) Uani 1 1 d . . .
C23 C 0.7399(6) 0.0034(5) -0.1604(4) 0.0242(15) Uani 1 1 d . . .
C24 C 0.8268(5) -0.0447(5) -0.2055(3) 0.0190(14) Uani 1 1 d . . .
C25 C 0.8401(5) -0.1536(5) -0.1844(3) 0.0194(14) Uani 1 1 d . . .
C26 C 0.7589(6) -0.2722(6) -0.0835(4) 0.0345(18) Uani 1 1 d . . .
H26A H 0.7749 -0.3389 -0.1173 0.052 Uiso 1 1 calc R . .
H26B H 0.6792 -0.2853 -0.0646 0.052 Uiso 1 1 calc R . .
H26C H 0.8206 -0.2576 -0.0401 0.052 Uiso 1 1 calc R . .
C27 C 0.6043(6) -0.0618(6) -0.0555(4) 0.0335(18) Uani 1 1 d . . .
H27A H 0.5522 -0.1325 -0.0569 0.050 Uiso 1 1 calc R . .
H27B H 0.5552 -0.0023 -0.0685 0.050 Uiso 1 1 calc R . .
H27C H 0.6448 -0.0407 -0.0040 0.050 Uiso 1 1 calc R . .
C28 C 0.7091(6) 0.1232(5) -0.1578(4) 0.0332(17) Uani 1 1 d . . .
H28A H 0.7766 0.1745 -0.1312 0.050 Uiso 1 1 calc R . .
H28B H 0.6368 0.1316 -0.1303 0.050 Uiso 1 1 calc R . .
H28C H 0.6939 0.1412 -0.2100 0.050 Uiso 1 1 calc R . .
C29 C 0.8986(6) 0.0149(6) -0.2599(4) 0.0351(18) Uani 1 1 d . . .
H29A H 0.8550 0.0758 -0.2768 0.053 Uiso 1 1 calc R . .
H29B H 0.9106 -0.0386 -0.3043 0.053 Uiso 1 1 calc R . .
H29C H 0.9772 0.0466 -0.2341 0.053 Uiso 1 1 calc R . .
C30 C 0.9267(6) -0.2311(6) -0.2167(4) 0.0323(17) Uani 1 1 d . . .
H30A H 0.9997 -0.2245 -0.1815 0.048 Uiso 1 1 calc R . .
H30B H 0.9482 -0.2105 -0.2663 0.048 Uiso 1 1 calc R . .
H30C H 0.8889 -0.3090 -0.2232 0.048 Uiso 1 1 calc R . .
C31 C 1.1451(7) 0.2034(6) -0.3115(4) 0.0406(19) Uani 1 1 d . . .
H31 H 1.1065 0.2438 -0.2724 0.049 Uiso 1 1 calc R . .
C32 C 1.0717(7) 0.1476(6) -0.3729(4) 0.0349(18) Uani 1 1 d . . .
H32 H 0.9866 0.1486 -0.3750 0.042 Uiso 1 1 calc R . .
C33 C 1.1265(6) 0.0890(6) -0.4321(4) 0.0297(16) Uani 1 1 d . . .
C34 C 1.2507(6) 0.0949(6) -0.4241(4) 0.0357(18) Uani 1 1 d . . .
H34 H 1.2920 0.0581 -0.4633 0.043 Uiso 1 1 calc R . .
C35 C 1.3153(7) 0.1534(6) -0.3602(5) 0.0398(19) Uani 1 1 d . . .
H35 H 1.4008 0.1564 -0.3572 0.048 Uiso 1 1 calc R . .
C36 C 1.0579(6) 0.0193(6) -0.4979(4) 0.0331(17) Uani 1 1 d . . .
H36 H 1.1004 0.0000 -0.5415 0.040 Uiso 1 1 calc R . .
C37 C 0.4888(8) 0.3370(11) -0.0497(6) 0.086(4) Uani 1 1 d . . .
H37A H 0.5402 0.3342 -0.0027 0.129 Uiso 1 1 calc R . .
H37B H 0.4448 0.2626 -0.0663 0.129 Uiso 1 1 calc R . .
H37C H 0.4312 0.3925 -0.0398 0.129 Uiso 1 1 calc R . .
C38 C 0.5079(7) 0.3655(8) -0.1870(5) 0.055(2) Uani 1 1 d . . .
H38A H 0.5704 0.3826 -0.2212 0.083 Uiso 1 1 calc R . .
H38B H 0.4496 0.4214 -0.1878 0.083 Uiso 1 1 calc R . .
H38C H 0.4665 0.2902 -0.2041 0.083 Uiso 1 1 calc R . .
C39 C 0.6796(7) 0.3976(6) -0.0931(5) 0.0414(19) Uani 1 1 d . . .
H39 H 0.7248 0.4191 -0.1334 0.050 Uiso 1 1 calc R . .
C40 C -0.1914(7) -0.4243(7) 0.1382(5) 0.054(2) Uani 1 1 d . . .
H40A H -0.1848 -0.4359 0.1923 0.081 Uiso 1 1 calc R . .
H40B H -0.2462 -0.4854 0.1090 0.081 Uiso 1 1 calc R . .
H40C H -0.2230 -0.3520 0.1331 0.081 Uiso 1 1 calc R . .
C41 C -0.0229(7) -0.5301(6) 0.1013(5) 0.053(2) Uani 1 1 d . . .
H41A H 0.0523 -0.5206 0.0764 0.080 Uiso 1 1 calc R . .
H41B H -0.0794 -0.5877 0.0699 0.080 Uiso 1 1 calc R . .
H41C H -0.0058 -0.5538 0.1518 0.080 Uiso 1 1 calc R . .
C42 C -0.0138(7) -0.3279(6) 0.1016(4) 0.0341(17) Uani 1 1 d . . .
H42 H 0.0649 -0.3326 0.0855 0.041 Uiso 1 1 calc R . .

loop_
_atom_site_aniso_label
_atom_site_aniso_U_11
_atom_site_aniso_U_22
_atom_site_aniso_U_33
_atom_site_aniso_U_23
_atom_site_aniso_U_13
_atom_site_aniso_U_12
Mo1 0.0164(3) 0.0177(3) 0.0125(3) -0.0012(2) -0.0017(2) 0.0015(2)
Cu1 0.0218(4) 0.0216(4) 0.0209(4) -0.0041(3) -0.0021(3) 0.0016(3)
Cu2 0.0168(4) 0.0240(4) 0.0211(4) -0.0009(3) -0.0001(3) 0.0024(3)
Cu3 0.0254(4) 0.0354(5) 0.0161(4) 0.0024(4) -0.0026(3) 0.0067(4)
S1 0.0195(8) 0.0239(9) 0.0164(8) -0.0013(7) 0.0009(6) 0.0020(7)
S2 0.0177(8) 0.0202(9) 0.0188(9) 0.0015(7) -0.0010(6) 0.0005(6)
S3 0.0193(8) 0.0209(9) 0.0213(9) 0.0022(7) -0.0004(6) 0.0047(7)
S4 0.0433(12) 0.0352(12) 0.0625(15) 0.0057(10) -0.0069(10) 0.0143(9)
S5 0.0309(10) 0.0409(11) 0.0213(9) 0.0050(8) -0.0092(7) -0.0056(8)
O1 0.042(3) 0.061(4) 0.047(4) -0.002(3) -0.010(3) 0.008(3)
O2 0.066(4) 0.019(3) 0.061(4) 0.009(3) 0.008(3) 0.012(3)
N1 0.035(4) 0.018(3) 0.029(3) -0.001(3) 0.010(3) -0.003(3)
N2 0.027(3) 0.025(3) 0.027(3) 0.007(3) -0.005(3) 0.004(2)
N3 0.022(3) 0.021(3) 0.016(3) -0.005(2) -0.002(2) 0.001(2)
N4 0.018(3) 0.022(3) 0.025(3) -0.002(2) 0.000(2) -0.006(2)
N5 0.025(3) 0.018(3) 0.024(3) 0.000(2) 0.008(2) 0.004(2)
N6 0.042(4) 0.038(4) 0.035(4) -0.002(3) -0.005(3) 0.000(3)
N7 0.037(4) 0.048(4) 0.034(4) 0.016(3) -0.005(3) 0.006(3)
N8 0.033(3) 0.022(3) 0.039(4) -0.002(3) 0.006(3) 0.004(3)
C1 0.026(4) 0.019(4) 0.008(3) -0.002(3) -0.007(3) -0.012(3)
C2 0.022(3) 0.019(4) 0.023(4) 0.008(3) 0.007(3) 0.004(3)
C3 0.037(4) 0.030(4) 0.037(5) 0.004(3) -0.009(3) 0.002(3)
C4 0.038(4) 0.028(4) 0.036(5) -0.005(3) -0.003(3) -0.008(3)
C5 0.021(3) 0.034(4) 0.018(4) -0.007(3) -0.001(3) 0.004(3)
C6 0.032(4) 0.036(4) 0.018(4) 0.002(3) -0.006(3) 0.005(3)
C7 0.028(4) 0.024(4) 0.019(4) -0.006(3) 0.001(3) 0.002(3)
C8 0.029(4) 0.040(5) 0.030(4) -0.004(3) 0.005(3) 0.009(3)
C9 0.033(4) 0.031(4) 0.032(4) 0.000(3) -0.009(3) 0.004(3)
C10 0.021(4) 0.029(4) 0.032(4) -0.001(3) -0.002(3) 0.007(3)
C11 0.039(4) 0.034(4) 0.041(5) 0.006(4) -0.011(4) 0.006(4)
C12 0.032(4) 0.034(4) 0.031(4) 0.005(3) -0.008(3) -0.001(3)
C13 0.036(4) 0.034(4) 0.023(4) 0.003(3) -0.002(3) 0.000(3)
C14 0.031(4) 0.028(4) 0.034(4) 0.000(3) 0.004(3) -0.011(3)
C15 0.016(3) 0.021(3) 0.025(4) 0.001(3) -0.001(3) -0.001(3)
C16 0.021(3) 0.021(4) 0.019(3) -0.001(3) -0.002(3) 0.002(3)
C17 0.020(3) 0.017(3) 0.017(3) -0.005(3) -0.005(3) 0.001(3)
C18 0.022(3) 0.021(4) 0.019(3) 0.003(3) 0.000(3) 0.005(3)
C19 0.025(4) 0.030(4) 0.019(4) 0.007(3) 0.001(3) 0.003(3)
C20 0.016(3) 0.026(4) 0.020(3) -0.004(3) 0.002(3) 0.001(3)
C21 0.025(3) 0.024(4) 0.013(3) 0.004(3) -0.011(3) -0.002(3)
C22 0.025(3) 0.019(3) 0.012(3) -0.004(3) -0.007(3) -0.001(3)
C23 0.029(4) 0.024(4) 0.015(3) -0.004(3) -0.011(3) -0.002(3)
C24 0.017(3) 0.019(3) 0.020(3) -0.001(3) -0.001(3) -0.001(3)
C25 0.014(3) 0.029(4) 0.013(3) -0.002(3) -0.004(2) 0.003(3)
C26 0.033(4) 0.038(4) 0.031(4) 0.008(3) -0.010(3) 0.000(3)
C27 0.037(4) 0.046(5) 0.013(4) -0.010(3) 0.006(3) -0.003(3)
C28 0.037(4) 0.025(4) 0.034(4) -0.003(3) -0.006(3) 0.002(3)
C29 0.028(4) 0.046(5) 0.030(4) 0.010(4) 0.000(3) -0.005(3)
C30 0.025(4) 0.036(4) 0.032(4) -0.007(3) -0.008(3) 0.006(3)
C31 0.041(5) 0.041(5) 0.036(5) -0.006(4) 0.002(4) -0.002(4)
C32 0.038(4) 0.040(5) 0.029(4) 0.007(3) 0.010(3) 0.007(3)
C33 0.035(4) 0.029(4) 0.028(4) 0.008(3) 0.011(3) 0.004(3)
C34 0.034(4) 0.032(4) 0.041(5) -0.003(4) 0.009(3) 0.010(3)
C35 0.032(4) 0.033(4) 0.055(5) 0.008(4) -0.002(4) 0.010(3)
C36 0.038(4) 0.032(4) 0.029(4) 0.002(3) 0.005(3) 0.005(3)
C37 0.044(6) 0.160(12) 0.068(7) 0.066(8) 0.011(5) 0.003(6)
C38 0.041(5) 0.079(7) 0.045(5) 0.022(5) -0.014(4) -0.007(5)
C39 0.040(5) 0.038(5) 0.044(5) 0.000(4) -0.005(4) 0.004(4)
C40 0.043(5) 0.055(6) 0.060(6) -0.004(5) 0.007(4) -0.007(4)
C41 0.055(5) 0.020(4) 0.079(7) -0.002(4) -0.017(5) 0.004(4)
C42 0.033(4) 0.038(5) 0.031(4) 0.003(4) 0.003(3) 0.006(4)

_geom_special_details            
;
All esds (except the esd in the dihedral angle between two l.s. planes)
are estimated using the full covariance matrix. The cell esds are taken
into account individually in the estimation of esds in distances, angles
and torsion angles; correlations between esds in cell parameters are only
used when they are defined by crystal symmetry. An approximate (isotropic)
treatment of cell esds is used for estimating esds involving l.s. planes.
;

loop_
_geom_bond_atom_site_label_1
_geom_bond_atom_site_label_2
_geom_bond_distance
_geom_bond_site_symmetry_2
_geom_bond_publ_flag
Mo1 S3 2.2796(17) . ?
Mo1 S1 2.2812(17) . ?
Mo1 S2 2.2912(17) . ?
Mo1 C22 2.352(6) . ?
Mo1 C23 2.375(6) . ?
Mo1 C21 2.387(6) . ?
Mo1 C24 2.392(6) . ?
Mo1 C25 2.398(6) . ?
Mo1 Cu2 2.6686(10) . ?
Mo1 Cu3 2.6812(11) . ?
Mo1 Cu1 2.7056(12) . ?
Cu1 N3 2.036(5) . ?
Cu1 N1 2.042(6) . ?
Cu1 S2 2.2579(18) . ?
Cu1 S1 2.2635(18) . ?
Cu2 N4 2.038(5) 2_544 ?
Cu2 N5 2.090(5) . ?
Cu2 S2 2.2242(18) . ?
Cu2 S3 2.2246(1