####################################################################### 
# 
# This file contains crystal structure data downloaded from the 
# Cambridge Structural Database (CSD) hosted by the Cambridge 
# Crystallographic Data Centre (CCDC).
# 
# Full information about CCDC data access policies and citation 
# guidelines are available at http://www.ccdc.cam.ac.uk/access/V1 
# 
# Audit and citation data items may have been added by the CCDC. 
# Please retain this information to preserve the provenance of 
# this file and to allow appropriate attribution of the data. 
# 
#######################################################################

data_WEZXUU
#This CIF has been generated from an entry in the Cambridge Structural Database
_database_code_depnum_ccdc_archive 'CCDC 1293014'
_database_code_CSD               WEZXUU
loop_
_citation_id
_citation_doi
_citation_year
1 10.1016/S0277-5387(00)80055-8 1993
_audit_creation_method           'Created from the CSD'
_audit_update_record             
;
2024-07-13 downloaded from the CCDC.
;
_database_code_NBS               643608
_chemical_formula_moiety         '(C72 H112 Hg4 N14 Nd2 O26)n,2n(H2 O1)'
_chemical_name_systematic        
"catena-(bis(tetrakis(\m~2~-9-Azabicyclo(6.2.0)decan-10-one-O,N)-tris(nitrato-O,O')-di-mercury-neodymium) dihydrate)"
_chemical_absolute_configuration unk
_diffrn_ambient_temperature      295
_exptl_crystal_density_diffrn    1.72
#These two values have been output from a single CSD field.
_refine_ls_R_factor_gt           0.058
_refine_ls_wR_factor_gt          0.058
_diffrn_radiation_probe          x-ray
_symmetry_cell_setting           triclinic
_symmetry_space_group_name_H-M   'P -1'
_symmetry_Int_Tables_number      2
_space_group_name_Hall           '-P 1'
loop_
_symmetry_equiv_pos_site_id
_symmetry_equiv_pos_as_xyz
1 x,y,z
2 -x,-y,-z
_cell_length_a                   13.716(3)
_cell_length_b                   14.010(5)
_cell_length_c                   15.216(6)
_cell_angle_alpha                86.13(3)
_cell_angle_beta                 64.10(3)
_cell_angle_gamma                89.80(2)
_cell_volume                     2623.14
_exptl_crystal_colour            lilac-purple
_cell_formula_units_Z            1
loop_
_atom_site_label
_atom_site_type_symbol
_atom_site_fract_x
_atom_site_fract_y
_atom_site_fract_z
N1 N 0.0340(16) 0.1306(11) 0.0227(13)
C1 C -0.0012(22) 0.1784(14) 0.1062(20)
O1 O -0.0658(12) 0.1605(9) 0.1898(10)
C2 C 0.0891(19) 0.2613(12) 0.0526(16)
C3 C 0.1268(19) 0.2024(13) -0.0434(14)
C4 C 0.0408(16) 0.3614(13) 0.0504(16)
C5 C 0.1322(22) 0.4401(12) 0.0052(16)
C6 C 0.1703(26) 0.4524(14) -0.1079(15)
C8 C 0.2462(16) 0.3696(19) -0.1575(20)
C10 C 0.1917(20) 0.3058(14) -0.2043(12)
C11 C 0.0949(17) 0.2465(15) -0.1233(15)
N2 N -0.4701(15) 0.1286(11) 0.4208(15)
C12 C -0.3713(23) 0.1692(15) 0.3597(18)
O2 O -0.2812(13) 0.1496(10) 0.3279(11)
C13 C -0.4278(16) 0.2453(12) 0.3183(17)
C14 C -0.5408(14) 0.1977(11) 0.3905(19)
C15 C -0.4101(16) 0.3479(14) 0.3459(18)
C16 C -0.4456(16) 0.4268(13) 0.2871(22)
C17 C -0.5714(18) 0.4140(20) 0.3184(16)
C18 C -0.6352(21) 0.4195(11) 0.4331(17)
C19 C -0.6877(13) 0.3179(14) 0.4828(18)
C20 C -0.5970(17) 0.2506(15) 0.4878(15)
N3 N 0.0596(18) 0.2147(11) 0.3785(16)
C21 C -0.0431(23) 0.2100(18) 0.3921(21)
O3 O -0.1063(13) 0.1432(10) 0.4089(11)
C22 C -0.0502(32) 0.3220(14) 0.4079(29)
C23 C 0.0664(22) 0.3245(14) 0.3896(21)
C24 C -0.1063(24) 0.3659(15) 0.3462(19)
C25 C -0.1280(17) 0.4733(14) 0.3639(18)
C26 C -0.0215(19) 0.5333(16) 0.3037(23)
C28 C 0.0532(19) 0.5245(19) 0.3564(22)
C30 C 0.1605(17) 0.4774(14) 0.2900(17)
C31 C 0.1398(22) 0.3694(14) 0.2853(16)
N4 N -0.2524(15) 0.0069(11) 0.6280(13)
C32 C -0.2956(18) 0.0351(14) 0.5672(18)
O4 O -0.2846(10) 0.0047(9) 0.4903(10)
C33 C -0.3702(24) 0.1064(14) 0.6366(18)
C34 C -0.3102(25) 0.0751(17) 0.7031(21)
C35 C -0.3537(20) 0.2125(14) 0.5925(14)
C36 C -0.4437(21) 0.2761(15) 0.6636(17)
C37 C -0.4500(18) 0.2645(19) 0.7689(15)
C38 C -0.3395(22) 0.2967(13) 0.7661(19)
C39 C -0.2876(26) 0.2100(16) 0.7990(17)
C40 C -0.2275(18) 0.1470(18) 0.7103(20)
N5 N -0.0810(19) -0.1497(14) 0.3818(14)
O5 O -0.0544(13) -0.0692(11) 0.4048(11)
O6 O -0.1410(16) -0.1475(11) 0.3407(12)
O7 O -0.0387(17) -0.2244(11) 0.3999(14)
N6 N 0.0967(23) 0.0043(18) 0.1760(16)
O8 O 0.0145(16) -0.0407(11) 0.1781(12)
O9 O 0.0821(18) 0.0583(14) 0.2407(15)
O10 O 0.1855(19) -0.0062(17) 0.1067(18)
N7 N -0.2887(21) -0.0444(14) 0.2405(21)
O11 O -0.3202(14) -0.0551(10) 0.3278(11)
O12 O -0.1938(13) -0.0069(11) 0.1819(11)
O13 O -0.3484(17) -0.0643(15) 0.2015(14)
H1 H 0.1411 0.2619 0.0790
H2 H 0.1983 0.1773 -0.0664
H3 H -0.0100 0.3744 0.1156
H4 H 0.0024 0.3610 0.0106
H5 H 0.1908 0.4225 0.0208
H6 H 0.1041 0.4992 0.0336
H7 H 0.2097 0.5123 -0.1325
H8 H 0.1099 0.4530 -0.1239
H11 H 0.2577 0.3307 -0.1087
H12 H 0.3153 0.3949 -0.2057
H15 H 0.2444 0.2643 -0.2470
H16 H 0.1666 0.3466 -0.2430
H17 H 0.0333 0.2862 -0.0943
H18 H 0.0754 0.1962 -0.1530
H19 H -0.4138 0.2425 0.2510
H20 H -0.5862 0.1717 0.3641
H21 H -0.3350 0.3582 0.3306
H22 H -0.4522 0.3537 0.4148
H23 H -0.4058 0.4193 0.2183
H24 H -0.4300 0.4898 0.2996
H25 H -0.5864 0.3530 0.3011
H26 H -0.5947 0.4631 0.2851
H27 H -0.6909 0.4658 0.4473
H28 H -0.5862 0.4398 0.4583
H29 H -0.7191 0.2890 0.4453
H30 H -0.7441 0.3251 0.5473
H31 H -0.5439 0.2891 0.4954
H32 H -0.6288 0.2054 0.5437
H33 H -0.0950 0.3302 0.4759
H34 H 0.0830 0.3425 0.4414
H35 H -0.1735 0.3323 0.3623
H36 H -0.0594 0.3591 0.2783
H37 H -0.1526 0.4827 0.4321
H38 H -0.1833 0.4941 0.3450
H39 H -0.0378 0.5993 0.2967
H40 H 0.0142 0.5102 0.2395
H43 H 0.0181 0.4857 0.4169
H44 H 0.0684 0.5867 0.3710
H47 H 0.2140 0.4865 0.3137
H48 H 0.1875 0.5078 0.2249
H49 H 0.1070 0.3599 0.2421
H50 H 0.2076 0.3374 0.2611
H51 H -0.4446 0.0845 0.6653
H52 H -0.3576 0.0432 0.7651
H53 H -0.2837 0.2371 0.5811
H54 H -0.3577 0.2153 0.5309
H55 H -0.4287 0.3423 0.6405
H56 H -0.5125 0.2583 0.6662
H57 H -0.5082 0.3005 0.8134
H58 H -0.4639 0.1981 0.7918
H59 H -0.2917 0.3225 0.7012
H60 H -0.3525 0.3463 0.8101
H61 H -0.2362 0.2334 0.8200
H62 H -0.3418 0.1715 0.8525
H63 H -0.1706 0.1124 0.7176
H64 H -0.1955 0.1879 0.6509
Hg1 Hg 0.0000 0.0000 0.0000
Hg2 Hg -0.5000 0.0000 0.5000
Hg3 Hg 0.1558(1) 0.1043(1) 0.3743(1)
Nd1 Nd -0.1467(1) 0.0337(1) 0.3189(1)
N1A N -0.0340(16) -0.1306(11) -0.0227(13)
C1A C 0.0012(22) -0.1784(14) -0.1062(20)
O1A O 0.0658(12) -0.1605(9) -0.1898(10)
C2A C -0.0891(19) -0.2613(12) -0.0526(16)
C3A C -0.1268(19) -0.2024(13) 0.0434(14)
C4A C -0.0408(16) -0.3614(13) -0.0504(16)
C5A C -0.1322(22) -0.4401(12) -0.0052(16)
C6A C -0.1703(26) -0.4524(14) 0.1079(15)
C8A C -0.2462(16) -0.3696(19) 0.1575(20)
C10A C -0.1917(20) -0.3058(14) 0.2043(12)
C11A C -0.0949(17) -0.2465(15) 0.1233(15)
H1A H -0.1411 -0.2619 -0.0790
H2A H -0.1983 -0.1773 0.0664
H3A H 0.0100 -0.3744 -0.1156
H4A H -0.0024 -0.3610 -0.0106
H5A H -0.1908 -0.4225 -0.0208
H6A H -0.1041 -0.4992 -0.0336
H7A H -0.2097 -0.5123 0.1325
H8A H -0.1099 -0.4530 0.1239
H11A H -0.2577 -0.3307 0.1087
H12A H -0.3153 -0.3949 0.2057
H15A H -0.2444 -0.2643 0.2470
H16A H -0.1666 -0.3466 0.2430
H17A H -0.0333 -0.2862 0.0943
H18A H -0.0754 -0.1962 0.1530
Nd1A Nd 0.1467(1) -0.0337(1) -0.3189(1)
N2A N 0.4701(15) -0.1286(11) -0.4208(15)
C12A C 0.3713(23) -0.1692(15) -0.3597(18)
O2A O 0.2812(13) -0.1496(10) -0.3279(11)
C13A C 0.4278(16) -0.2453(12) -0.3183(17)
C14A C 0.5408(14) -0.1977(11) -0.3905(19)
C15A C 0.4101(16) -0.3479(14) -0.3459(18)
C16A C 0.4456(16) -0.4268(13) -0.2871(22)
C17A C 0.5714(18) -0.4140(20) -0.3184(16)
C18A C 0.6352(21) -0.4195(11) -0.4331(17)
C19A C 0.6877(13) -0.3179(14) -0.4828(18)
C20A C 0.5970(17) -0.2506(15) -0.4878(15)
H19A H 0.4138 -0.2425 -0.2510
H20A H 0.5862 -0.1717 -0.3641
H21A H 0.3350 -0.3582 -0.3306
H22A H 0.4522 -0.3537 -0.4148
H23A H 0.4058 -0.4193 -0.2183
H24A H 0.4300 -0.4898 -0.2996
H25A H 0.5864 -0.3530 -0.3011
H26A H 0.5947 -0.4631 -0.2851
H27A H 0.6909 -0.4658 -0.4473
H28A H 0.5862 -0.4398 -0.4583
H29A H 0.7191 -0.2890 -0.4453
H30A H 0.7441 -0.3251 -0.5473
H31A H 0.5439 -0.2891 -0.4954
H32A H 0.6288 -0.2054 -0.5437
N3A N -0.0596(18) -0.2147(11) -0.3785(16)
C21A C 0.0431(23) -0.2100(18) -0.3921(21)
O3A O 0.1063(13) -0.1432(10) -0.4089(11)
C22A C 0.0502(32) -0.3220(14) -0.4079(29)
C23A C -0.0664(22) -0.3245(14) -0.3896(21)
C24A C 0.1063(24) -0.3659(15) -0.3462(19)
C25A C 0.1280(17) -0.4733(14) -0.3639(18)
C26A C 0.0215(19) -0.5333(16) -0.3037(23)
C28A C -0.0532(19) -0.5245(19) -0.3564(22)
C30A C -0.1605(17) -0.4774(14) -0.2900(17)
C31A C -0.1398(22) -0.3694(14) -0.2853(16)
H33A H 0.0950 -0.3302 -0.4759
H34A H -0.0830 -0.3425 -0.4414
H35A H 0.1735 -0.3323 -0.3623
H36A H 0.0594 -0.3591 -0.2783
H37A H 0.1526 -0.4827 -0.4321
H38A H 0.1833 -0.4941 -0.3450
H39A H 0.0378 -0.5993 -0.2967
H40A H -0.0142 -0.5102 -0.2395
H43A H -0.0181 -0.4857 -0.4169
H44A H -0.0684 -0.5867 -0.3710
H47A H -0.2140 -0.4865 -0.3137
H48A H -0.1875 -0.5078 -0.2249
H49A H -0.1070 -0.3599 -0.2421
H50A H -0.2076 -0.3374 -0.2611
N4A N 0.2524(15) -0.0069(11) -0.6280(13)
C32A C 0.2956(18) -0.0351(14) -0.5672(18)
O4A O 0.2846(10) -0.0047(9) -0.4903(10)
C33A C 0.3702(24) -0.1064(14) -0.6366(18)
C34A C 0.3102(25) -0.0751(17) -0.7031(21)
C35A C 0.3537(20) -0.2125(14) -0.5925(14)
C36A C 0.4437(21) -0.2761(15) -0.6636(17)
C37A C 0.4500(18) -0.2645(19) -0.7689(15)
C38A C 0.3395(22) -0.2967(13) -0.7661(19)
C39A C 0.2876(26) -0.2100(16) -0.7990(17)
C40A C 0.2275(18) -0.1470(18) -0.7103(20)
H51A H 0.4446 -0.0845 -0.6653
H52A H 0.3576 -0.0432 -0.7651
H53A H 0.2837 -0.2371 -0.5811
H54A H 0.3577 -0.2153 -0.5309
H55A H 0.4287 -0.3423 -0.6405
H56A H 0.5125 -0.2583 -0.6662
H57A H 0.5082 -0.3005 -0.8134
H58A H 0.4639 -0.1981 -0.7918
H59A H 0.2917 -0.3225 -0.7012
H60A H 0.3525 -0.3463 -0.8101
H61A H 0.2362 -0.2334 -0.8200
H62A H 0.3418 -0.1715 -0.8525
H63A H 0.1706 -0.1124 -0.7176
H64A H 0.1955 -0.1879 -0.6509
N5A N 0.0810(19) 0.1497(14) -0.3818(14)
O5A O 0.0544(13) 0.0692(11) -0.4048(11)
O6A O 0.1410(16) 0.1475(11) -0.3407(12)
O7A O 0.0387(17) 0.2244(11) -0.3999(14)
N6A N -0.0967(23) -0.0043(18) -0.1760(16)
O8A O -0.0145(16) 0.0407(11) -0.1781(12)
O9A O -0.0821(18) -0.0583(14) -0.2407(15)
O10A O -0.1855(19) 0.0062(17) -0.1067(18)
N7A N 0.2887(21) 0.0444(14) -0.2405(21)
O11A O 0.3202(14) 0.0551(10) -0.3278(11)
O12A O 0.1938(13) 0.0069(11) -0.1819(11)
O13A O 0.3484(17) 0.0643(15) -0.2015(14)
Hg3A Hg -0.1558(1) -0.1043(1) -0.3743(1)
Hg3A Hg -0.1558(1) -0.1043(1) 0.6257(1)
N2A N -0.5299(15) -0.1286(11) 0.5792(15)
N4A N 0.2524(15) -0.0069(11) 0.3720(13)
Hg2 Hg 0.5000 0.0000 -0.5000
Hg3 Hg 0.1558(1) 0.1043(1) -0.6257(1)
N4 N -0.2524(15) 0.0069(11) -0.3720(13)
O14 O 0.3428(32) 0.1813(26) 0.1924(28)
O15 O 0.7380(43) 0.1827(34) 0.0683(37)
C7? C 0.2272(7) 0.4079(25) -0.0893(17)
C9? C 0.1916(30) 0.4097(14) -0.1736(17)
C27? C -0.0366(18) 0.5205(18) 0.3814(18)
C29? C 0.0673(18) 0.5359(16) 0.2831(20)
H9? H 0.2490 0.3448 -0.0780
H10? H 0.2879 0.4514 -0.1073
H13? H 0.2396 0.4513 -0.2281
H14? H 0.1195 0.4332 -0.1515
H41? H -0.0203 0.4807 0.4269
H42? H -0.0585 0.5814 0.4080
H45? H 0.0875 0.6026 0.2673
H46? H 0.0521 0.5130 0.2322

#END
