####################################################################### 
# 
# This file contains crystal structure data downloaded from the 
# Cambridge Structural Database (CSD) hosted by the Cambridge 
# Crystallographic Data Centre (CCDC).
# 
# Full information about CCDC data access policies and citation 
# guidelines are available at http://www.ccdc.cam.ac.uk/access/V1 
# 
# Audit and citation data items may have been added by the CCDC. 
# Please retain this information to preserve the provenance of 
# this file and to allow appropriate attribution of the data. 
# 
#######################################################################

data_WIDNEC
#This CIF has been generated from an entry in the Cambridge Structural Database
_database_code_depnum_ccdc_archive 'CCDC 1293269'
_database_code_CSD               WIDNEC
_audit_creation_method           'Created from the CSD'
_audit_update_record             
;
2024-07-13 downloaded from the CCDC.
;
_database_code_NBS               643785
_chemical_formula_moiety         
'(C56 H92 La1 O16 Y1 2+)n,2n(Cl1 1-),3n(C3 H6 O1)'
_chemical_name_systematic        
"catena-(bis(\m~2~-Cyclohexylcarboxylic acid-O,O,O')-bis(\m~2~-cyclohexylcarboxylato-O,O')-bis(cyclohexylcarboxylato-O,O')-bis(cyclohexylcarboxylic acid-O,O')lanthanum-yttrium dichloride acetone solvate)"
_chemical_absolute_configuration unk
_diffrn_ambient_temperature      295
_exptl_crystal_density_diffrn    1.32
#These two values have been output from a single CSD field.
_refine_ls_R_factor_gt           0.0995
_refine_ls_wR_factor_gt          0.0995
_diffrn_radiation_probe          x-ray
_symmetry_cell_setting           monoclinic
_symmetry_space_group_name_H-M   'P 21'
_symmetry_Int_Tables_number      4
_space_group_name_Hall           'P 2yb'
loop_
_symmetry_equiv_pos_site_id
_symmetry_equiv_pos_as_xyz
1 x,y,z
2 -x,1/2+y,-z
_cell_length_a                   28.397(7)
_cell_length_b                   26.210(1)
_cell_length_c                   10.113(4)
_cell_angle_alpha                90
_cell_angle_beta                 92.43(2)
_cell_angle_gamma                90
_cell_volume                     7520.19
_exptl_crystal_colour            colorless
_cell_formula_units_Z            4
loop_
_atom_site_label
_atom_site_type_symbol
_atom_site_fract_x
_atom_site_fract_y
_atom_site_fract_z
Cl1 Cl 0.8622(4) 0.1671(4) 0.7918(11)
Cl2 Cl 0.0913(4) 0.2777(5) 0.7087(11)
La1 La 0.8389(1) 0.2163(1) 0.4447(2)
Y1 Y 0.8570(1) 0.2644(1) 0.0564(2)
O1 O 0.8721(6) 0.2874(8) 0.2774(14)
O2 O 0.8438(6) 0.1907(7) 0.2192(18)
O3 O 0.8973(11) 0.2934(9) 0.4802(24)
O4 O 0.8371(8) 0.1685(8) 0.0062(19)
O5 O 0.7759(8) 0.2608(10) 0.3511(20)
O6 O 0.7796(8) 0.2745(3) 0.1346(22)
O7 O 0.8181(9) 0.2614(10) 0.6283(23)
O8 O 0.8258(9) 0.2546(10) 0.8373(28)
O9 O 0.9044(6) 0.1976(6) 0.6225(17)
O10 O 0.9416(7) 0.2420(9) 0.1141(20)
O11 O 0.9081(8) 0.1564(3) 0.4317(18)
O12 O 0.9231(7) 0.2262(6) -0.0894(17)
O13 O 0.8065(9) 0.1541(11) 0.6049(21)
O14 O 0.8958(9) 0.3412(10) -0.0849(30)
O15 O 0.7773(11) 0.1504(14) 0.4411(23)
O16 O 0.8301(15) 0.3603(13) 0.0275(26)
C1 C 0.8961(11) 0.3078(13) 0.3492(28)
C2 C 0.9258(13) 0.3554(14) 0.3469(30)
C3 C 0.9189(14) 0.3951(16) 0.4413(33)
C4 C 0.9387(16) 0.4459(17) 0.4037(35)
C5 C 0.9917(16) 0.4317(16) 0.3964(35)
C6 C 1.0086(15) 0.3851(17) 0.3128(35)
C7 C 0.9810(17) 0.3439(18) 0.3306(36)
C8 C 0.8387(10) 0.1556(11) 0.1390(27)
C9 C 0.8385(14) 0.0941(13) 0.1733(31)
C10 C 0.8856(15) 0.0756(16) 0.1536(34)
C11 C 0.8841(14) 0.0128(14) 0.1940(33)
C12 C 0.8428(19) -0.0092(19) 0.1240(39)
C13 C 0.7929(24) 0.0206(25) 0.1379(45)
C14 C 0.7970(13) 0.0808(14) 0.0893(32)
C15 C 0.7629(16) 0.2530(17) 0.2365(36)
C16 C 0.7015(24) 0.2355(26) 0.1984(46)
C17 C 0.6767(17) 0.2337(17) 0.3256(38)
C18 C 0.6275(18) 0.2100(19) 0.2778(39)
C19 C 0.6411(19) 0.1691(22) 0.1915(4)
C20 C 0.6534(34) 0.1724(24) 0.0794(44)
C21 C 0.7069(18) 0.1860(19) 0.1263(39)
C22 C 0.8015(10) 0.2679(11) 0.7340(25)
C23 C 0.7543(19) 0.2924(20) 0.7223(39)
C24 C 0.7215(81) 0.2681(18) 0.7794(37)
C25 C 0.6711(21) 0.2962(21) 0.7587(61)
C26 C 0.6764(20) 0.3347(21) 0.7297(40)
C27 C 0.7134(20) 0.3767(21) 0.6745(40)
C28 C 0.7617(19) 0.3449(22) 0.6829(39)
C29 C 0.9228(11) 0.1680(12) 0.5450(27)
C30 C 0.9749(13) 0.1534(14) 0.5418(30)
C31 C 0.9858(15) 0.1000(17) 0.4972(35)
C32 C 1.0423(17) 0.0855(18) 0.5308(37)
C33 C 1.0632(17) 0.1212(20) 0.4589(37)
C34 C 1.0614(20) 0.1683(22) 0.4742(40)
C35 C 1.0035(17) 0.1899(18) 0.4813(37)
C36 C 0.9486(9) 0.2231(10) 0.0201(24)
C37 C 0.9919(11) 0.1905(12) -0.0329(28)
C38 C 0.9812(12) 0.1344(14) -0.0176(30)
C39 C 1.0300(16) 0.1049(16) -0.0568(35)
C40 C 1.0724(16) 0.1211(18) 0.0246(37)
C41 C 1.0803(16) 0.1767(17) 0.0464(35)
C42 C 1.0284(13) 0.2039(14) 0.0830(32)
C43 C 0.7714(14) 0.1403(15) 0.5533(33)
C44 C 0.7390(21) 0.1032(23) 0.6084(43)
C45 C 0.7249(20) 0.1203(21) 0.7315(42)
C46 C 0.6808(22) 0.0882(24) 0.7862(44)
C47 C 0.6642(17) 0.0580(18) 0.7056(38)
C48 C 0.6752(20) 0.0387(21) 0.5915(43)
C49 C 0.7086(26) 0.0842(29) 0.5294(47)
C50 C 0.8661(15) 0.3654(17) -0.0293(35)
C51 C 0.8769(18) 0.4201(19) -0.1084(37)
C52 C 0.8478(20) 0.4537(21) -0.0790(41)
C53 C 0.8730(20) 0.5183(19) -0.1043(39)
C54 C 0.9146(21) 0.5188(20) -0.1141(40)
C55 C 0.9587(28) 0.4815(30) -0.1315(48)
C56 C 0.9170(25) 0.4316(25) -0.0897(44)
Y1 Y 0.8570(1) 0.2644(1) 1.0564(2)
O8 O 0.8258(9) 0.2546(10) -0.1627(28)

#END
