####################################################################### 
# 
# This file contains crystal structure data downloaded from the 
# Cambridge Structural Database (CSD) hosted by the Cambridge 
# Crystallographic Data Centre (CCDC).
# 
# Full information about CCDC data access policies and citation 
# guidelines are available at http://www.ccdc.cam.ac.uk/access/V1 
# 
# Audit and citation data items may have been added by the CCDC. 
# Please retain this information to preserve the provenance of 
# this file and to allow appropriate attribution of the data. 
# 
#######################################################################

data_1
_audit_block_doi                 10.5517/cc10753j
_database_code_depnum_ccdc_archive 'CCDC 930406'
loop_
_citation_id
_citation_doi
_citation_year
1 10.1021/cg301649p 2013
_audit_update_record             
;
2013-03-21 deposited with the CCDC.	2024-07-13 downloaded from the CCDC.
;

_audit_creation_method           SHELXL-97
_chemical_name_systematic        
;
?
;
_chemical_name_common            ?
_chemical_melting_point          ?
_chemical_formula_moiety         ?
_chemical_formula_sum            'C62 H184 Ag8 Cl La N12 Ni6 O61 S12'
_chemical_formula_weight         3848.51

loop_
_atom_type_symbol
_atom_type_description
_atom_type_scat_dispersion_real
_atom_type_scat_dispersion_imag
_atom_type_scat_source
C C 0.0033 0.0016 'International Tables Vol C Tables 4.2.6.8 and 6.1.1.4'
H H 0.0000 0.0000 'International Tables Vol C Tables 4.2.6.8 and 6.1.1.4'
N N 0.0061 0.0033 'International Tables Vol C Tables 4.2.6.8 and 6.1.1.4'
O O 0.0106 0.0060 'International Tables Vol C Tables 4.2.6.8 and 6.1.1.4'
S S 0.1246 0.1234 'International Tables Vol C Tables 4.2.6.8 and 6.1.1.4'
Ni Ni 0.3393 1.1124 'International Tables Vol C Tables 4.2.6.8 and 6.1.1.4'
Ag Ag -0.8971 1.1015 'International Tables Vol C Tables 4.2.6.8 and 6.1.1.4'
La La -0.2871 2.4523 'International Tables Vol C Tables 4.2.6.8 and 6.1.1.4'
Cl Cl 0.1484 0.1585 'International Tables Vol C Tables 4.2.6.8 and 6.1.1.4'

_symmetry_cell_setting           Tetragonal
_symmetry_space_group_name_H-M   'P4(1)2(1)2 '

loop_
_symmetry_equiv_pos_as_xyz
'x, y, z'
'-x, -y, z+1/2'
'-y+1/2, x+1/2, z+1/4'
'y+1/2, -x+1/2, z+3/4'
'-x+1/2, y+1/2, -z+1/4'
'x+1/2, -y+1/2, -z+3/4'
'y, x, -z'
'-y, -x, -z+1/2'

_cell_length_a                   24.3687(14)
_cell_length_b                   24.3687(14)
_cell_length_c                   47.322(6)
_cell_angle_alpha                90.00
_cell_angle_beta                 90.00
_cell_angle_gamma                90.00
_cell_volume                     28101(4)
_cell_formula_units_Z            8
_cell_measurement_temperature    293(2)
_cell_measurement_reflns_used    7438
_cell_measurement_theta_min      2.272
_cell_measurement_theta_max      22.986

_exptl_crystal_description       Block
_exptl_crystal_colour            Red
_exptl_crystal_size_max          0.25
_exptl_crystal_size_mid          0.1
_exptl_crystal_size_min          0.08
_exptl_crystal_density_meas      ?
_exptl_crystal_density_diffrn    1.819
_exptl_crystal_density_method    'not measured'
_exptl_crystal_F_000             15504
_exptl_absorpt_coefficient_mu    2.449
_exptl_absorpt_correction_type   'multi scan'
_exptl_absorpt_correction_T_min  0.383897
_exptl_absorpt_correction_T_max  1.000000
_exptl_absorpt_process_details   'SADABS (Sheldrick, 1996)'

_exptl_special_details           
;
?
;

_diffrn_ambient_temperature      293(2)
_diffrn_radiation_wavelength     0.71073
_diffrn_radiation_type           MoK\a
_diffrn_radiation_source         'fine-focus sealed tube'
_diffrn_radiation_monochromator  graphite
_diffrn_measurement_device_type  'CCD area detector'
_diffrn_measurement_method       'phi and omega scans'
_diffrn_detector_area_resol_mean ?
_diffrn_standards_number         ?
_diffrn_standards_interval_count ?
_diffrn_standards_interval_time  ?
_diffrn_standards_decay_%        ?
_diffrn_reflns_number            135132
_diffrn_reflns_av_R_equivalents  0.0896
_diffrn_reflns_av_sigmaI/netI    0.0703
_diffrn_reflns_limit_h_min       -28
_diffrn_reflns_limit_h_max       28
_diffrn_reflns_limit_k_min       -28
_diffrn_reflns_limit_k_max       26
_diffrn_reflns_limit_l_min       -45
_diffrn_reflns_limit_l_max       56
_diffrn_reflns_theta_min         1.87
_diffrn_reflns_theta_max         25.00
_reflns_number_total             24729
_reflns_number_gt                19153
_reflns_threshold_expression     >2sigma(I)

_computing_data_collection       'Bruker SMART'
_computing_cell_refinement       'Bruker SMART'
_computing_data_reduction        'Bruker SAINT'
_computing_structure_solution    'SHELXS-97 (Sheldrick, 1990)'
_computing_structure_refinement  'SHELXL-97 (Sheldrick, 1997)'
_computing_molecular_graphics    'Bruker SHELXTL'
_computing_publication_material  'Bruker SHELXTL'

_refine_special_details          
;
Refinement of F^2^ against ALL reflections. The weighted R-factor wR and
goodness of fit S are based on F^2^, conventional R-factors R are based
on F, with F set to zero for negative F^2^. The threshold expression of
F^2^ > 2sigma(F^2^) is used only for calculating R-factors(gt) etc. and is
not relevant to the choice of reflections for refinement. R-factors based
on F^2^ are statistically about twice as large as those based on F, and R-
factors based on ALL data will be even larger.
Details about the Squeezed Material
loop_
_platon_squeeze_void_nr
_platon_squeeze_void_average_x
_platon_squeeze_void_average_y
_platon_squeeze_void_average_z
_platon_squeeze_void_volume
_platon_squeeze_void_count_electrons
_platon_squeeze_void_content
1 0.103 0.104 -0.001 9415 2484 ' '
_platon_squeeze_details
;

_refine_ls_structure_factor_coef Fsqd
_refine_ls_matrix_type           full
_refine_ls_weighting_scheme      calc
_refine_ls_weighting_details     
'calc w=1/[\s^2^(Fo^2^)+(0.0541P)^2^+0.0000P] where P=(Fo^2^+2Fc^2^)/3'
_atom_sites_solution_primary     direct
_atom_sites_solution_secondary   difmap
_atom_sites_solution_hydrogens   geom
_refine_ls_hydrogen_treatment    contr
_refine_ls_extinction_method     none
_refine_ls_extinction_coef       ?
_refine_ls_abs_structure_details 'Flack H D (1983), Acta Cryst. A39, 876-881'
_refine_ls_abs_structure_Flack   0.021(13)
_chemical_absolute_configuration rmad
_refine_ls_number_reflns         24729
_refine_ls_number_parameters     1164
_refine_ls_number_restraints     0
_refine_ls_R_factor_all          0.0631
_refine_ls_R_factor_gt           0.0468
_refine_ls_wR_factor_ref         0.1084
_refine_ls_wR_factor_gt          0.1024
_refine_ls_goodness_of_fit_ref   0.981
_refine_ls_restrained_S_all      0.981
_refine_ls_shift/su_max          0.002
_refine_ls_shift/su_mean         0.000

loop_
_atom_site_label
_atom_site_type_symbol
_atom_site_fract_x
_atom_site_fract_y
_atom_site_fract_z
_atom_site_U_iso_or_equiv
_atom_site_adp_type
_atom_site_occupancy
_atom_site_symmetry_multiplicity
_atom_site_calc_flag
_atom_site_refinement_flags
_atom_site_disorder_assembly
_atom_site_disorder_group
La1 La 0.08148(2) 0.37847(2) 0.637236(11) 0.03965(13) Uani 1 1 d . . .
Cl1 Cl 0.23546(8) 0.62421(8) 0.46086(4) 0.0350(4) Uani 1 1 d . . .
Ag1 Ag 0.12970(3) 0.70674(4) 0.441151(17) 0.0655(2) Uani 1 1 d . . .
Ag2 Ag 0.14749(3) 0.60745(3) 0.499872(15) 0.04321(17) Uani 1 1 d . . .
Ag3 Ag 0.18913(3) 0.50353(3) 0.462873(14) 0.04586(18) Uani 1 1 d . . .
Ag4 Ag 0.20192(3) 0.59285(3) 0.406453(15) 0.04418(17) Uani 1 1 d . . .
Ag5 Ag 0.26758(3) 0.73702(3) 0.460550(14) 0.04733(18) Uani 1 1 d . . .
Ag6 Ag 0.27796(3) 0.65584(3) 0.518664(14) 0.04310(17) Uani 1 1 d . . .
Ag7 Ag 0.32518(3) 0.55688(3) 0.477451(14) 0.04088(17) Uani 1 1 d . . .
Ag8 Ag 0.33970(3) 0.63970(3) 0.412680(18) 0.0613(2) Uani 1 1 d . . .
Ni1 Ni 0.04422(4) 0.56512(4) 0.43659(2) 0.0359(3) Uani 1 1 d . . .
Ni2 Ni 0.42624(4) 0.68774(4) 0.48227(2) 0.0351(3) Uani 1 1 d . . .
Ni3 Ni 0.23553(4) 0.74759(4) 0.37710(2) 0.0333(2) Uani 1 1 d . . .
Ni4 Ni 0.24293(4) 0.49593(4) 0.54525(2) 0.0313(2) Uani 1 1 d . . .
Ni5 Ni 0.16095(5) 0.77355(4) 0.52076(2) 0.0378(3) Uani 1 1 d . . .
Ni6 Ni 0.31556(4) 0.47307(4) 0.40471(2) 0.0310(2) Uani 1 1 d . . .
S1 S 0.07610(9) 0.62913(8) 0.46366(5) 0.0389(5) Uani 1 1 d . . .
S2 S 0.12423(8) 0.53340(8) 0.42521(4) 0.0324(5) Uani 1 1 d . . .
S3 S 0.34549(8) 0.71651(8) 0.49471(4) 0.0354(5) Uani 1 1 d . . .
S4 S 0.39535(8) 0.62083(8) 0.45655(4) 0.0341(5) Uani 1 1 d . . .
S5 S 0.29624(8) 0.73224(8) 0.40944(4) 0.0325(5) Uani 1 1 d . . .
S6 S 0.17599(9) 0.69066(9) 0.39416(5) 0.0368(5) Uani 1 1 d . . .
S7 S 0.29866(8) 0.55738(8) 0.52940(4) 0.0333(5) Uani 1 1 d . . .
S8 S 0.17753(8) 0.51334(8) 0.51540(4) 0.0327(5) Uani 1 1 d . . .
S9 S 0.18271(9) 0.68855(9) 0.52777(4) 0.0372(5) Uani 1 1 d . . .
S10 S 0.17549(10) 0.77081(9) 0.47583(5) 0.0435(6) Uani 1 1 d . . .
S11 S 0.28565(8) 0.48045(8) 0.44756(4) 0.0311(5) Uani 1 1 d . . .
S12 S 0.29410(9) 0.55595(8) 0.39264(4) 0.0332(5) Uani 1 1 d . . .
O1 O -0.1169(4) 0.6148(7) 0.4730(2) 0.144(6) Uani 1 1 d . . .
O2 O -0.1070(5) 0.6996(6) 0.4748(3) 0.199(8) Uani 1 1 d . . .
O3 O 0.0442(3) 0.3681(3) 0.39161(18) 0.078(2) Uani 1 1 d . . .
O4 O -0.0214(2) 0.4278(2) 0.38042(12) 0.0445(15) Uani 1 1 d . . .
O5 O 0.4870(3) 0.8240(3) 0.54194(14) 0.0567(18) Uani 1 1 d . . .
O6 O 0.4188(3) 0.8125(3) 0.57270(13) 0.0514(17) Uani 1 1 d . . .
O7 O 0.5891(3) 0.6094(4) 0.4615(2) 0.116(4) Uani 1 1 d . . .
O8 O 0.5714(4) 0.6005(4) 0.4130(3) 0.137(4) Uani 1 1 d . . .
O9 O 0.4289(2) 0.8416(3) 0.35970(13) 0.0527(17) Uani 1 1 d . . .
O10 O 0.3506(3) 0.8865(3) 0.35441(17) 0.076(2) Uani 1 1 d . . .
O11 O 0.1154(5) 0.7550(5) 0.3042(2) 0.130(4) Uani 1 1 d . . .
O12 O 0.0411(3) 0.7508(3) 0.3277(2) 0.096(3) Uani 1 1 d . . .
O13 O 0.3886(3) 0.4498(3) 0.59960(15) 0.066(2) Uani 1 1 d . . .
O14 O 0.4106(3) 0.5349(3) 0.61250(15) 0.070(2) Uani 1 1 d . . .
O15 O 0.1185(3) 0.3915(3) 0.58878(13) 0.0524(17) Uani 1 1 d . . .
O16 O 0.0690(4) 0.3675(4) 0.55245(18) 0.111(4) Uani 1 1 d . . .
O17 O 0.2032(3) 0.7233(4) 0.62615(14) 0.077(2) Uani 1 1 d . . .
O18 O 0.1256(3) 0.7670(3) 0.61482(14) 0.066(2) Uani 1 1 d . . .
O19 O 0.1291(6) 0.9539(3) 0.5067(2) 0.134(5) Uani 1 1 d . . .
O20 O 0.0892(6) 0.9444(4) 0.4638(3) 0.170(6) Uani 1 1 d . . .
O21 O 0.3629(3) 0.2986(2) 0.43429(14) 0.0520(17) Uani 1 1 d . . .
O22 O 0.2843(3) 0.2866(3) 0.45622(15) 0.0624(19) Uani 1 1 d . . .
O23 O 0.3405(4) 0.4485(3) 0.31093(15) 0.087(3) Uani 1 1 d . . .
O24 O 0.3788(4) 0.5308(3) 0.30239(17) 0.095(3) Uani 1 1 d . . .
O26 O 0.0871(3) 0.4333(3) 0.68706(15) 0.068(2) Uani 1 1 d . . .
O28 O 0.0492(5) 0.2853(3) 0.61945(18) 0.119(4) Uani 1 1 d . . .
O29 O -0.0122(2) 0.3868(2) 0.66323(12) 0.0427(15) Uani 1 1 d . . .
O30 O 0.1666(4) 0.3151(3) 0.6300(2) 0.110(3) Uani 1 1 d . . .
O31 O 0.0018(2) 0.3898(3) 0.60202(13) 0.0563(18) Uani 1 1 d . . .
N1 N -0.0286(3) 0.5934(3) 0.44434(17) 0.055(2) Uani 1 1 d . . .
N2 N 0.0124(3) 0.5055(3) 0.41503(15) 0.0390(17) Uani 1 1 d . . .
N3 N 0.4565(3) 0.7390(3) 0.50947(14) 0.0412(18) Uani 1 1 d . . .
N4 N 0.4992(3) 0.6707(3) 0.46856(15) 0.048(2) Uani 1 1 d . . .
N5 N 0.2873(3) 0.7972(3) 0.35988(14) 0.0439(19) Uani 1 1 d . . .
N6 N 0.1831(3) 0.7657(3) 0.34837(19) 0.067(3) Uani 1 1 d . . .
N7 N 0.2958(3) 0.4812(3) 0.57435(14) 0.0433(19) Uani 1 1 d . . .
N8 N 0.1993(3) 0.4359(3) 0.55904(16) 0.0418(18) Uani 1 1 d . . .
N9 N 0.1576(3) 0.7833(3) 0.56148(15) 0.047(2) Uani 1 1 d . . .
N10 N 0.1324(3) 0.8462(3) 0.51635(15) 0.0486(19) Uani 1 1 d . . .
N11 N 0.3276(3) 0.3966(3) 0.41133(13) 0.0358(16) Uani 1 1 d . . .
N12 N 0.3465(3) 0.4629(3) 0.36743(14) 0.0455(19) Uani 1 1 d . . .
C1 C -0.0314(4) 0.6475(4) 0.4572(2) 0.057(3) Uani 1 1 d . . .
H1A H -0.0246 0.6757 0.4429 0.068 Uiso 1 1 calc R . .
C2 C 0.0112(4) 0.6522(4) 0.48084(19) 0.046(2) Uani 1 1 d . . .
C3 C 0.0195(4) 0.7114(4) 0.4915(2) 0.070(3) Uani 1 1 d . . .
H3A H -0.0135 0.7240 0.5004 0.105 Uiso 1 1 calc R . .
H3B H 0.0281 0.7349 0.4758 0.105 Uiso 1 1 calc R . .
H3C H 0.0492 0.7122 0.5048 0.105 Uiso 1 1 calc R . .
C4 C -0.0016(4) 0.6156(4) 0.5055(2) 0.066(3) Uani 1 1 d . . .
H4A H -0.0350 0.6276 0.5143 0.100 Uiso 1 1 calc R . .
H4B H 0.0279 0.6173 0.5189 0.100 Uiso 1 1 calc R . .
H4C H -0.0059 0.5785 0.4990 0.100 Uiso 1 1 calc R . .
C5 C -0.0892(6) 0.6559(7) 0.4703(3) 0.092(5) Uani 1 1 d . . .
C6 C 0.0489(3) 0.4577(3) 0.41188(18) 0.037(2) Uani 1 1 d . . .
H6A H 0.0543 0.4416 0.4307 0.044 Uiso 1 1 calc R . .
C7 C 0.1052(3) 0.4766(3) 0.40105(18) 0.033(2) Uani 1 1 d . . .
C8 C 0.1015(4) 0.4983(4) 0.37104(17) 0.044(2) Uani 1 1 d . . .
H8A H 0.0916 0.4689 0.3585 0.066 Uiso 1 1 calc R . .
H8B H 0.1364 0.5130 0.3655 0.066 Uiso 1 1 calc R . .
H8C H 0.0742 0.5266 0.3701 0.066 Uiso 1 1 calc R . .
C9 C 0.1494(4) 0.4338(4) 0.4029(2) 0.057(3) Uani 1 1 d . . .
H9A H 0.1405 0.4038 0.3906 0.085 Uiso 1 1 calc R . .
H9B H 0.1520 0.4208 0.4220 0.085 Uiso 1 1 calc R . .
H9C H 0.1838 0.4496 0.3973 0.085 Uiso 1 1 calc R . .
C10 C 0.0219(4) 0.4135(4) 0.3928(2) 0.046(2) Uani 1 1 d . . .
C11 C 0.4181(3) 0.7557(3) 0.53062(17) 0.038(2) Uani 1 1 d . . .
H11A H 0.4102 0.7236 0.5424 0.045 Uiso 1 1 calc R . .
C12 C 0.3641(3) 0.7750(3) 0.51792(17) 0.036(2) Uani 1 1 d . . .
C13 C 0.3717(4) 0.8258(3) 0.49937(19) 0.051(2) Uani 1 1 d . . .
H13A H 0.3813 0.8566 0.5110 0.076 Uiso 1 1 calc R . .
H13B H 0.3381 0.8335 0.4896 0.076 Uiso 1 1 calc R . .
H13C H 0.4004 0.8192 0.4859 0.076 Uiso 1 1 calc R . .
C14 C 0.3187(4) 0.7815(4) 0.53976(19) 0.055(3) Uani 1 1 d . . .
H14A H 0.3274 0.8116 0.5521 0.083 Uiso 1 1 calc R . .
H14B H 0.3156 0.7484 0.5506 0.083 Uiso 1 1 calc R . .
H14C H 0.2846 0.7887 0.5303 0.083 Uiso 1 1 calc R . .
C15 C 0.4436(4) 0.8020(3) 0.5508(2) 0.046(2) Uani 1 1 d . . .
C16 C 0.4996(4) 0.6323(4) 0.4437(2) 0.055(3) Uani 1 1 d . . .
H16A H 0.4882 0.6530 0.4270 0.066 Uiso 1 1 calc R . .
C17 C 0.4608(3) 0.5859(4) 0.44753(19) 0.043(2) Uani 1 1 d . . .
C18 C 0.4520(4) 0.5518(4) 0.42176(19) 0.057(3) Uani 1 1 d . . .
H18A H 0.4855 0.5332 0.4170 0.086 Uiso 1 1 calc R . .
H18B H 0.4412 0.5749 0.4063 0.086 Uiso 1 1 calc R . .
H18C H 0.4238 0.5252 0.4253 0.086 Uiso 1 1 calc R . .
C19 C 0.4757(4) 0.5507(4) 0.4728(2) 0.067(3) Uani 1 1 d . . .
H19A H 0.5093 0.5316 0.4691 0.100 Uiso 1 1 calc R . .
H19B H 0.4469 0.5247 0.4763 0.100 Uiso 1 1 calc R . .
H19C H 0.4803 0.5737 0.4891 0.100 Uiso 1 1 calc R . .
C20 C 0.5603(7) 0.6136(6) 0.4392(4) 0.098(4) Uiso 1 1 d . . .
C21 C 0.3453(3) 0.7941(3) 0.36968(18) 0.038(2) Uani 1 1 d . . .
H21A H 0.3623 0.7618 0.3609 0.045 Uiso 1 1 calc R . .
C22 C 0.3468(4) 0.7865(3) 0.40141(18) 0.039(2) Uani 1 1 d . . .
C23 C 0.4014(4) 0.7679(6) 0.4135(3) 0.104(5) Uani 1 1 d . . .
H23A H 0.4288 0.7952 0.4097 0.156 Uiso 1 1 calc R . .
H23B H 0.4119 0.7338 0.4049 0.156 Uiso 1 1 calc R . .
H23C H 0.3979 0.7628 0.4335 0.156 Uiso 1 1 calc R . .
C24 C 0.3298(6) 0.8389(4) 0.4164(2) 0.090(4) Uani 1 1 d . . .
H24A H 0.3560 0.8674 0.4124 0.136 Uiso 1 1 calc R . .
H24B H 0.3286 0.8326 0.4364 0.136 Uiso 1 1 calc R . .
H24C H 0.2942 0.8500 0.4099 0.136 Uiso 1 1 calc R . .
C25 C 0.3775(4) 0.8454(4) 0.3601(2) 0.047(2) Uani 1 1 d . . .
C26 C 0.1250(4) 0.7486(3) 0.3543(2) 0.047(2) Uani 1 1 d . . .
H26A H 0.1087 0.7732 0.3684 0.056 Uiso 1 1 calc R . .
C27 C 0.1239(4) 0.6887(3) 0.36544(19) 0.044(2) Uani 1 1 d . . .
C28 C 0.0704(4) 0.6707(5) 0.3778(3) 0.089(4) Uani 1 1 d . . .
H28A H 0.0431 0.6693 0.3632 0.134 Uiso 1 1 calc R . .
H28B H 0.0592 0.6963 0.3921 0.134 Uiso 1 1 calc R . .
H28C H 0.0746 0.6349 0.3861 0.134 Uiso 1 1 calc R . .
C29 C 0.1457(6) 0.6486(4) 0.3430(2) 0.101(5) Uani 1 1 d . . .
H29A H 0.1199 0.6460 0.3277 0.151 Uiso 1 1 calc R . .
H29B H 0.1507 0.6130 0.3513 0.151 Uiso 1 1 calc R . .
H29C H 0.1802 0.6617 0.3358 0.151 Uiso 1 1 calc R . .
C30 C 0.0909(5) 0.7505(4) 0.3265(3) 0.065(3) Uani 1 1 d . . .
C31 C 0.3359(4) 0.5253(4) 0.58006(17) 0.047(2) Uani 1 1 d . . .
H31A H 0.3177 0.5548 0.5906 0.056 Uiso 1 1 calc R . .
C32 C 0.3590(3) 0.5486(3) 0.55293(17) 0.035(2) Uani 1 1 d . . .
C33 C 0.3858(4) 0.6036(4) 0.5575(2) 0.067(3) Uani 1 1 d . . .
H33A H 0.4171 0.5994 0.5696 0.100 Uiso 1 1 calc R . .
H33B H 0.3600 0.6283 0.5661 0.100 Uiso 1 1 calc R . .
H33C H 0.3974 0.6183 0.5396 0.100 Uiso 1 1 calc R . .
C34 C 0.3990(4) 0.5087(4) 0.53805(19) 0.051(3) Uani 1 1 d . . .
H34A H 0.4309 0.5035 0.5497 0.077 Uiso 1 1 calc R . .
H34B H 0.4098 0.5238 0.5202 0.077 Uiso 1 1 calc R . .
H34C H 0.3811 0.4741 0.5351 0.077 Uiso 1 1 calc R . .
C35 C 0.3835(4) 0.4997(5) 0.59916(19) 0.048(2) Uani 1 1 d . . .
C36 C 0.1486(3) 0.4214(3) 0.54301(17) 0.039(2) Uani 1 1 d . . .
H36A H 0.1584 0.3974 0.5272 0.047 Uiso 1 1 calc R . .
C37 C 0.1201(3) 0.4749(3) 0.53109(17) 0.036(2) Uani 1 1 d . . .
C38 C 0.0964(4) 0.5070(4) 0.5552(2) 0.069(3) Uani 1 1 d . . .
H38A H 0.0665 0.4869 0.5634 0.103 Uiso 1 1 calc R . .
H38B H 0.0834 0.5418 0.5484 0.103 Uiso 1 1 calc R . .
H38C H 0.1243 0.5129 0.5692 0.103 Uiso 1 1 calc R . .
C39 C 0.0807(4) 0.4612(4) 0.50778(19) 0.060(3) Uani 1 1 d . . .
H39A H 0.0503 0.4410 0.5154 0.090 Uiso 1 1 calc R . .
H39B H 0.0991 0.4393 0.4938 0.090 Uiso 1 1 calc R . .
H39C H 0.0677 0.4944 0.4992 0.090 Uiso 1 1 calc R . .
C40 C 0.1087(4) 0.3894(4) 0.5635(2) 0.050(2) Uani 1 1 d . . .
C41 C 0.1832(4) 0.7383(3) 0.57789(16) 0.040(2) Uani 1 1 d . . .
H41A H 0.2230 0.7414 0.5755 0.048 Uiso 1 1 calc R . .
C42 C 0.1658(3) 0.6820(3) 0.56604(17) 0.037(2) Uani 1 1 d . . .
C43 C 0.1033(4) 0.6722(4) 0.5693(2) 0.057(3) Uani 1 1 d . . .
H43A H 0.0944 0.6686 0.5889 0.086 Uiso 1 1 calc R . .
H43B H 0.0932 0.6392 0.5595 0.086 Uiso 1 1 calc R . .
H43C H 0.0836 0.7027 0.5614 0.086 Uiso 1 1 calc R . .
C44 C 0.1972(4) 0.6350(4) 0.57814(17) 0.048(2) Uani 1 1 d . . .
H44A H 0.1888 0.6314 0.5979 0.071 Uiso 1 1 calc R . .
H44B H 0.2358 0.6415 0.5759 0.071 Uiso 1 1 calc R . .
H44C H 0.1873 0.6018 0.5684 0.071 Uiso 1 1 calc R . .
C45 C 0.1707(4) 0.7453(4) 0.6093(2) 0.050(2) Uani 1 1 d . . .
C46 C 0.1203(5) 0.8611(4) 0.4865(2) 0.073(3) Uani 1 1 d . . .
H46A H 0.0859 0.8439 0.4805 0.088 Uiso 1 1 calc R . .
C47 C 0.1665(7) 0.8436(4) 0.4669(2) 0.097(5) Uani 1 1 d . . .
C48 C 0.2233(6) 0.8734(4) 0.4739(3) 0.123(7) Uani 1 1 d . . .
H48A H 0.2205 0.9117 0.4694 0.184 Uiso 1 1 calc R . .
H48B H 0.