####################################################################### 
# 
# This file contains crystal structure data downloaded from the 
# Cambridge Structural Database (CSD) hosted by the Cambridge 
# Crystallographic Data Centre (CCDC).
# 
# Full information about CCDC data access policies and citation 
# guidelines are available at http://www.ccdc.cam.ac.uk/access/V1 
# 
# Audit and citation data items may have been added by the CCDC. 
# Please retain this information to preserve the provenance of 
# this file and to allow appropriate attribution of the data. 
# 
#######################################################################

data_compound_3a
_audit_block_doi                 10.5517/ccphxxz
_database_code_depnum_ccdc_archive 'CCDC 640922'
loop_
_citation_id
_citation_doi
_citation_year
1 10.1002/anie.200701252 2007
_audit_update_record             
;
2007-03-18 deposited with the CCDC.	2024-07-13 downloaded from the CCDC.
;
# Cu4(mpba)4(bpy)2 (Pariya22) 8-Oct-2006

_audit_creation_method           SHELXL-97

_chemical_name_systematic        
;
catena(mu-4,4'-bipyridine-mu-(mu-4,4'-bipyridinetetrakis(mu-(3,3'-(1,3-
phenylene)bis(2,4-pentanedionato)))tetracopper))
chloroform dichloromethane water solvate
;
_chemical_name_common            
;
copper(II) m-phenylenebis(acetylacetonate) tetramer bis(4,4'-bpy) polymer
chloroform dichloromethane water solvate
;
_chemical_melting_point          ?
_chemical_compound_source        'Local laboratory'
_chemical_formula_moiety         
;
'C64 H64 Cu4 O16, 2(C10 H8 N2), 17.26(C H Cl3), 1.74(C H2 Cl2), 0.5(H2 O)'
;
_chemical_formula_sum            'C103 H101.74 Cl55.26 Cu4 N4 O16.50'
_chemical_formula_weight         3872.89

loop_
_atom_type_symbol
_atom_type_description
_atom_type_scat_dispersion_real
_atom_type_scat_dispersion_imag
_atom_type_scat_source
C C 0.0033 0.0016 'International Tables Vol C Tables 4.2.6.8 and 6.1.1.4'
H H 0.0000 0.0000 'International Tables Vol C Tables 4.2.6.8 and 6.1.1.4'
Cl Cl 0.1484 0.1585 'International Tables Vol C Tables 4.2.6.8 and 6.1.1.4'
Cu Cu 0.3201 1.2651 'International Tables Vol C Tables 4.2.6.8 and 6.1.1.4'
N N 0.0061 0.0033 'International Tables Vol C Tables 4.2.6.8 and 6.1.1.4'
O O 0.0106 0.0060 'International Tables Vol C Tables 4.2.6.8 and 6.1.1.4'

_symmetry_space_group_name_H-M   'P -1 '
_symmetry_space_group_name_Hall  '-P 1'
_symmetry_cell_setting           Triclinic

loop_
_symmetry_equiv_pos_as_xyz
'x, y, z'
'-x, -y, -z'

_cell_length_a                   14.824(3)
_cell_length_b                   19.384(4)
_cell_length_c                   29.616(6)
_cell_angle_alpha                99.043(8)
_cell_angle_beta                 97.751(11)
_cell_angle_gamma                101.782(9)
_cell_volume                     8104(3)
_cell_formula_units_Z            2
_cell_measurement_temperature    110
_cell_measurement_reflns_used    12569
_cell_measurement_theta_min      2.5
_cell_measurement_theta_max      25.0

_exptl_crystal_description       plate
_exptl_crystal_colour            blue-green
_exptl_crystal_size_max          0.48
_exptl_crystal_size_mid          0.23
_exptl_crystal_size_min          0.12
_exptl_crystal_density_meas      ?
_exptl_crystal_density_diffrn    1.587
_exptl_crystal_density_method    'not measured'
_exptl_crystal_F_000             3870
_exptl_absorpt_coefficient_mu    1.482
_exptl_absorpt_correction_type   multi-scan
_exptl_absorpt_correction_T_min  0.536
_exptl_absorpt_correction_T_max  0.842
_exptl_absorpt_process_details   'HKL Scalepack (Otwinowski & Minor 1997)'

_exptl_special_details           
;
?
;

_diffrn_ambient_temperature      110
_diffrn_radiation_wavelength     0.71073
_diffrn_radiation_type           MoK\a
_diffrn_radiation_source         'fine-focus sealed tube'
_diffrn_radiation_monochromator  graphite
_diffrn_measurement_device       'KappaCCD (with Oxford Cryostream)'
_diffrn_measurement_method       ' \w scans with \k offsets'
_diffrn_detector_area_resol_mean ?
_diffrn_standards_number         0
_diffrn_standards_interval_count ?
_diffrn_standards_interval_time  ?
_diffrn_standards_decay_%        <2
_diffrn_reflns_number            40575
_diffrn_reflns_av_R_equivalents  0.043
_diffrn_reflns_av_sigmaI/netI    0.0850
_diffrn_reflns_limit_h_min       -17
_diffrn_reflns_limit_h_max       14
_diffrn_reflns_limit_k_min       -22
_diffrn_reflns_limit_k_max       22
_diffrn_reflns_limit_l_min       -35
_diffrn_reflns_limit_l_max       33
_diffrn_reflns_theta_min         2.5
_diffrn_reflns_theta_max         25.0
_reflns_number_total             22622
_reflns_number_gt                13746
_reflns_threshold_expression     I>2\s(I)

_computing_data_collection       'COLLECT (Nonius, 2000)'
_computing_cell_refinement       'HKL Scalepack (Otwinowski & Minor 1997)'
_computing_data_reduction        
'HKL Denzo and Scalepack (Otwinowski & Minor 1997)'
_computing_structure_solution    'SIR97 (Altomare et al., 1999)'
_computing_structure_refinement  'SHELXL-97 (Sheldrick, 1997)'
_computing_molecular_graphics    'ORTEP-3 for Windows (Farrugia, 1997)'
_computing_publication_material  'SHELXL-97 (Sheldrick, 1997)'

_refine_special_details          
;
Refinement of F^2^ against ALL reflections. The weighted R-factor wR and
goodness of fit S are based on F^2^, conventional R-factors R are based
on F, with F set to zero for negative F^2^. The threshold expression of
F^2^ > 2sigma(F^2^) is used only for calculating R-factors(gt) etc. and is
not relevant to the choice of reflections for refinement. R-factors based
on F^2^ are statistically about twice as large as those based on F, and R-
factors based on ALL data will be even larger.
;

_refine_ls_structure_factor_coef Fsqd
_refine_ls_matrix_type           full
_refine_ls_weighting_scheme      calc
_refine_ls_weighting_details     
'calc w=1/[\s^2^(Fo^2^)+(0.1023P)^2^+7.21147P] where P=(Fo^2^+2Fc^2^)/3'
_atom_sites_solution_primary     direct
_atom_sites_solution_secondary   difmap
_atom_sites_solution_hydrogens   geom
_refine_ls_hydrogen_treatment    constr
_refine_ls_extinction_method     none
_refine_ls_extinction_coef       ?
_refine_ls_number_reflns         22622
_refine_ls_number_parameters     1440
_refine_ls_number_restraints     3
_refine_ls_R_factor_all          0.147
_refine_ls_R_factor_gt           0.088
_refine_ls_wR_factor_ref         0.253
_refine_ls_wR_factor_gt          0.214
_refine_ls_goodness_of_fit_ref   1.020
_refine_ls_restrained_S_all      1.020
_refine_ls_shift/su_max          0.005
_refine_ls_shift/su_mean         0.001

loop_
_atom_site_label
_atom_site_type_symbol
_atom_site_fract_x
_atom_site_fract_y
_atom_site_fract_z
_atom_site_U_iso_or_equiv
_atom_site_adp_type
_atom_site_occupancy
_atom_site_symmetry_multiplicity
_atom_site_calc_flag
_atom_site_refinement_flags
_atom_site_disorder_assembly
_atom_site_disorder_group
Cu1 Cu 0.56432(7) 0.61800(6) 0.40139(4) 0.0227(3) Uani 1 1 d . . .
Cu3 Cu 0.92752(7) 0.22464(5) 0.40239(4) 0.0212(3) Uani 1 1 d . . .
Cu2 Cu 0.93271(7) 0.39317(6) 0.09949(4) 0.0224(3) Uani 1 1 d . . .
Cu4 Cu 0.57416(7) 0.78275(5) 0.10399(4) 0.0224(3) Uani 1 1 d . . .
O1 O 0.6659(4) 0.6300(3) 0.4516(2) 0.0266(14) Uani 1 1 d . . .
O2 O 0.5147(4) 0.5209(3) 0.4073(2) 0.0261(14) Uani 1 1 d . . .
O3 O 0.9629(4) 0.3095(3) 0.4503(2) 0.0266(14) Uani 1 1 d . . .
O4 O 0.7981(4) 0.2078(3) 0.4106(2) 0.0274(15) Uani 1 1 d . . .
O5 O 0.8837(4) 0.1511(3) 0.3471(2) 0.0283(15) Uani 1 1 d . . .
O6 O 1.0464(4) 0.2544(3) 0.3833(2) 0.0262(14) Uani 1 1 d . . .
O7 O 0.8784(4) 0.2968(3) 0.1053(2) 0.0312(16) Uani 1 1 d . . .
O8 O 1.0478(4) 0.3939(3) 0.1383(2) 0.0251(14) Uani 1 1 d . . .
O9 O 0.9916(4) 0.4854(3) 0.0875(2) 0.0259(14) Uani 1 1 d . . .
O10 O 0.8267(4) 0.3837(3) 0.0516(2) 0.0341(17) Uani 1 1 d . . .
O11 O 0.7038(4) 0.8015(3) 0.0947(2) 0.0283(15) Uani 1 1 d . . .
O12 O 0.5411(4) 0.6963(3) 0.0578(2) 0.0263(14) Uani 1 1 d . . .
O13 O 0.4509(4) 0.7562(3) 0.1200(2) 0.0255(14) Uani 1 1 d . . .
O14 O 0.6181(4) 0.8513(3) 0.1606(2) 0.0319(16) Uani 1 1 d . . .
O15 O 0.4508(4) 0.6099(3) 0.3589(2) 0.0262(14) Uani 1 1 d . . .
O16 O 0.6037(4) 0.7195(3) 0.4019(2) 0.0294(15) Uani 1 1 d . . .
N1 N 0.6487(5) 0.5825(4) 0.3432(3) 0.0280(18) Uani 1 1 d . . .
N2 N 0.8700(5) 0.4464(4) 0.1617(3) 0.0298(19) Uani 1 1 d . . .
N3 N 0.9657(5) 0.1476(4) 0.4471(3) 0.0243(17) Uani 1 1 d . . .
N4 N 0.5371(5) 0.8599(4) 0.0592(3) 0.035(2) Uani 1 1 d . . .
C1 C 0.7758(7) 0.6062(6) 0.5091(4) 0.040(3) Uani 1 1 d . . .
H1A H 0.8126 0.6511 0.5034 0.059 Uiso 1 1 calc R . .
H1B H 0.8130 0.5697 0.5072 0.059 Uiso 1 1 calc R . .
H1C H 0.7588 0.6143 0.5400 0.059 Uiso 1 1 calc R . .
C2 C 0.6878(6) 0.5805(5) 0.4727(3) 0.026(2) Uiso 1 1 d . . .
C3 C 0.6368(6) 0.5095(5) 0.4648(3) 0.024(2) Uiso 1 1 d . . .
C4 C 0.5519(6) 0.4843(5) 0.4333(3) 0.027(2) Uiso 1 1 d . . .
C5 C 0.4963(7) 0.4088(5) 0.4304(4) 0.041(3) Uani 1 1 d . . .
H5A H 0.4831 0.4023 0.4612 0.061 Uiso 1 1 calc R . .
H5B H 0.5324 0.3745 0.4193 0.061 Uiso 1 1 calc R . .
H5C H 0.4372 0.4005 0.4088 0.061 Uiso 1 1 calc R . .
C6 C 0.6731(6) 0.4564(5) 0.4909(3) 0.025(2) Uani 1 1 d . . .
C7 C 0.6556(6) 0.4501(5) 0.5346(4) 0.033(2) Uani 1 1 d . . .
H7 H 0.6215 0.4808 0.5494 0.039 Uiso 1 1 calc R . .
C8 C 0.6870(7) 0.3991(5) 0.5581(4) 0.035(2) Uani 1 1 d . . .
H8 H 0.6736 0.3947 0.5881 0.042 Uiso 1 1 calc R . .
C9 C 0.7381(7) 0.3556(5) 0.5361(4) 0.032(2) Uani 1 1 d . . .
H9 H 0.7615 0.3220 0.5517 0.038 Uiso 1 1 calc R . .
C10 C 0.7554(6) 0.3605(5) 0.4915(4) 0.030(2) Uani 1 1 d . . .
C11 C 0.7227(6) 0.4118(5) 0.4697(3) 0.027(2) Uani 1 1 d . . .
H11 H 0.7350 0.4160 0.4395 0.032 Uiso 1 1 calc R . .
C12 C 0.9553(7) 0.4032(5) 0.5089(4) 0.037(3) Uani 1 1 d . . .
H12A H 0.9477 0.3934 0.5398 0.055 Uiso 1 1 calc R . .
H12B H 0.9272 0.4433 0.5032 0.055 Uiso 1 1 calc R . .
H12C H 1.0220 0.4156 0.5071 0.055 Uiso 1 1 calc R . .
C13 C 0.9079(6) 0.3381(5) 0.4730(3) 0.026(2) Uiso 1 1 d . . .
C14 C 0.8100(6) 0.3137(4) 0.4662(3) 0.0197(19) Uiso 1 1 d . . .
C15 C 0.7608(6) 0.2508(5) 0.4360(3) 0.024(2) Uiso 1 1 d . . .
C16 C 0.6557(6) 0.2260(5) 0.4308(4) 0.035(2) Uani 1 1 d . . .
H16A H 0.6346 0.1790 0.4101 0.053 Uiso 1 1 calc R . .
H16B H 0.6258 0.2608 0.4177 0.053 Uiso 1 1 calc R . .
H16C H 0.6386 0.2221 0.4613 0.053 Uiso 1 1 calc R . .
C17 C 0.8682(7) 0.0850(6) 0.2714(4) 0.041(3) Uani 1 1 d . . .
H17A H 0.8934 0.0422 0.2722 0.062 Uiso 1 1 calc R . .
H17B H 0.8742 0.1006 0.2418 0.062 Uiso 1 1 calc R . .
H17C H 0.8021 0.0737 0.2745 0.062 Uiso 1 1 calc R . .
C18 C 0.9219(6) 0.1440(5) 0.3107(3) 0.029(2) Uiso 1 1 d . . .
C19 C 1.0086(6) 0.1857(5) 0.3058(3) 0.026(2) Uiso 1 1 d . . .
C20 C 1.0656(6) 0.2380(5) 0.3431(3) 0.029(2) Uiso 1 1 d . . .
C21 C 1.1599(6) 0.2791(6) 0.3358(4) 0.040(3) Uani 1 1 d . . .
H21A H 1.1934 0.3102 0.3651 0.059 Uiso 1 1 calc R . .
H21B H 1.1503 0.3085 0.3123 0.059 Uiso 1 1 calc R . .
H21C H 1.1969 0.2451 0.3253 0.059 Uiso 1 1 calc R . .
C22 C 1.0368(6) 0.1808(5) 0.2596(3) 0.029(2) Uani 1 1 d . . .
C23 C 1.0920(8) 0.1350(6) 0.2432(4) 0.047(3) Uani 1 1 d . . .
H23 H 1.1112 0.1031 0.2618 0.056 Uiso 1 1 calc R . .
C24 C 1.1185(9) 0.1354(7) 0.2010(4) 0.056(4) Uani 1 1 d . . .
H24 H 1.1574 0.1048 0.1910 0.068 Uiso 1 1 calc R . .
C25 C 1.0893(8) 0.1805(6) 0.1719(4) 0.043(3) Uani 1 1 d . . .
H25 H 1.1070 0.1790 0.1421 0.051 Uiso 1 1 calc R . .
C26 C 1.0354(6) 0.2264(5) 0.1864(3) 0.028(2) Uani 1 1 d . . .
C27 C 1.0105(6) 0.2260(5) 0.2302(3) 0.024(2) Uani 1 1 d . . .
H27 H 0.9737 0.2581 0.2406 0.029 Uiso 1 1 calc R . .
C28 C 0.8537(8) 0.1842(5) 0.1283(4) 0.052(3) Uani 1 1 d . . .
H28A H 0.8367 0.1800 0.1588 0.078 Uiso 1 1 calc R . .
H28B H 0.8878 0.1475 0.1190 0.078 Uiso 1 1 calc R . .
H28C H 0.7968 0.1773 0.1054 0.078 Uiso 1 1 calc R . .
C29 C 0.9147(6) 0.2575(5) 0.1310(3) 0.030(2) Uiso 1 1 d . . .
C30 C 1.0040(6) 0.2772(4) 0.1574(3) 0.0214(19) Uiso 1 1 d . . .
C31 C 1.0661(6) 0.3446(5) 0.1599(3) 0.026(2) Uiso 1 1 d . . .
C32 C 1.1614(7) 0.3616(6) 0.1895(4) 0.046(3) Uani 1 1 d . . .
H32A H 1.1957 0.4094 0.1871 0.069 Uiso 1 1 calc R . .
H32B H 1.1958 0.3259 0.1787 0.069 Uiso 1 1 calc R . .
H32C H 1.1548 0.3607 0.2219 0.069 Uiso 1 1 calc R . .
C33 C 1.0173(7) 0.5938(5) 0.0601(4) 0.034(2) Uani 1 1 d . . .
H33A H 1.0771 0.6003 0.0808 0.051 Uiso 1 1 calc R . .
H33B H 0.9866 0.6322 0.0705 0.051 Uiso 1 1 calc R . .
H33C H 1.0285 0.5954 0.0284 0.051 Uiso 1 1 calc R . .
C34 C 0.9556(6) 0.5224(5) 0.0611(3) 0.026(2) Uiso 1 1 d . . .
C35 C 0.8667(6) 0.5024(5) 0.0343(3) 0.025(2) Uiso 1 1 d . . .
C36 C 0.8084(6) 0.4333(5) 0.0293(3) 0.031(2) Uiso 1 1 d . . .
C37 C 0.7165(7) 0.4121(6) -0.0042(4) 0.050(3) Uani 1 1 d . . .
H37A H 0.6787 0.3677 0.0017 0.076 Uiso 1 1 calc R . .
H37B H 0.7286 0.4042 -0.0361 0.076 Uiso 1 1 calc R . .
H37C H 0.6827 0.4504 0.0002 0.076 Uiso 1 1 calc R . .
C38 C 0.8300(6) 0.5565(5) 0.0092(3) 0.024(2) Uani 1 1 d . . .
C39 C 0.8433(6) 0.5639(5) -0.0348(3) 0.031(2) Uani 1 1 d . . .
H39 H 0.8763 0.5337 -0.0510 0.037 Uiso 1 1 calc R . .
C40 C 0.8096(7) 0.6143(5) -0.0562(4) 0.036(2) Uani 1 1 d . . .
H40 H 0.8186 0.6181 -0.0869 0.043 Uiso 1 1 calc R . .
C41 C 0.7625(7) 0.6595(5) -0.0324(4) 0.034(2) Uani 1 1 d . . .
H41 H 0.7410 0.6952 -0.0466 0.040 Uiso 1 1 calc R . .
C42 C 0.7468(6) 0.6526(5) 0.0123(3) 0.023(2) Uani 1 1 d . . .
C43 C 0.7812(6) 0.6013(5) 0.0319(3) 0.025(2) Uani 1 1 d . . .
H43 H 0.7711 0.5963 0.0623 0.030 Uiso 1 1 calc R . .
C44 C 0.8412(6) 0.7915(5) 0.0657(4) 0.037(2) Uani 1 1 d . . .
H44A H 0.8654 0.8351 0.0895 0.056 Uiso 1 1 calc R . .
H44B H 0.8471 0.8031 0.0350 0.056 Uiso 1 1 calc R . .
H44C H 0.8772 0.7557 0.0715 0.056 Uiso 1 1 calc R . .
C45 C 0.7399(6) 0.7618(5) 0.0673(3) 0.023(2) Uiso 1 1 d . . .
C46 C 0.6932(6) 0.6972(5) 0.0389(3) 0.024(2) Uiso 1 1 d . . .
C47 C 0.5973(6) 0.6681(5) 0.0354(3) 0.028(2) Uiso 1 1 d . . .
C48 C 0.5498(6) 0.5988(5) 0.0025(4) 0.035(2) Uani 1 1 d . . .
H48A H 0.4888 0.5799 0.0106 0.053 Uiso 1 1 calc R . .
H48B H 0.5887 0.5638 0.0047 0.053 Uiso 1 1 calc R . .
H48C H 0.5410 0.6076 -0.0294 0.053 Uiso 1 1 calc R . .
C49 C 0.3281(6) 0.7404(6) 0.1624(3) 0.035(2) Uani 1 1 d . . .
H49A H 0.2895 0.7756 0.1602 0.053 Uiso 1 1 calc R . .
H49B H 0.3273 0.7248 0.1923 0.053 Uiso 1 1 calc R . .
H49C H 0.3032 0.6988 0.1371 0.053 Uiso 1 1 calc R . .
C50 C 0.4271(6) 0.7741(5) 0.1587(3) 0.027(2) Uiso 1 1 d . . .
C51 C 0.4855(6) 0.8213(5) 0.1973(3) 0.027(2) Uiso 1 1 d . . .
C52 C 0.5776(6) 0.8573(5) 0.1964(3) 0.030(2) Uiso 1 1 d . . .
C53 C 0.6344(8) 0.9084(7) 0.2392(4) 0.055(3) Uiso 1 1 d . . .
H53A H 0.6709 0.8826 0.2577 0.083 Uiso 1 1 calc R . .
H53B H 0.5923 0.9283 0.2577 0.083 Uiso 1 1 calc R . .
H53C H 0.6769 0.9475 0.2300 0.083 Uiso 1 1 calc R . .
C54 C 0.4526(7) 0.8254(5) 0.2429(3) 0.028(2) Uani 1 1 d . . .
C55 C 0.3956(7) 0.8709(5) 0.2578(4) 0.035(2) Uani 1 1 d . . .
H55 H 0.3778 0.9024 0.2385 0.041 Uiso 1 1 calc R . .
C56 C 0.3649(8) 0.8707(6) 0.2999(4) 0.041(3) Uani 1 1 d . . .
H56 H 0.3263 0.9021 0.3091 0.049 Uiso 1 1 calc R . .
C57 C 0.3894(7) 0.8257(5) 0.3286(3) 0.035(2) Uani 1 1 d . . .
H57 H 0.3679 0.8261 0.3574 0.042 Uiso 1 1 calc R . .
C58 C 0.4461(6) 0.7795(5) 0.3152(3) 0.028(2) Uani 1 1 d . . .
C59 C 0.4770(6) 0.7813(5) 0.2727(3) 0.026(2) Uani 1 1 d . . .
H59 H 0.5167 0.7507 0.2639 0.031 Uiso 1 1 calc R . .
C60 C 0.3336(6) 0.6354(5) 0.3068(4) 0.036(2) Uani 1 1 d . . .
H60A H 0.2963 0.5926 0.3149 0.054 Uiso 1 1 calc R . .
H60B H 0.3440 0.6242 0.2748 0.054 Uiso 1 1 calc R . .
H60C H 0.3000 0.6741 0.3098 0.054 Uiso 1 1 calc R . .
C61 C 0.4260(6) 0.6590(5) 0.3390(3) 0.025(2) Uiso 1 1 d . . .
C62 C 0.4786(6) 0.7304(5) 0.3452(3) 0.0230(19) Uiso 1 1 d . . .
C63 C 0.5639(6) 0.7569(5) 0.3769(3) 0.024(2) Uiso 1 1 d . . .
C64 C 0.6132(8) 0.8332(5) 0.3823(4) 0.041(3) Uani 1 1 d . . .
H64A H 0.6601 0.8470 0.4108 0.062 Uiso 1 1 calc R . .
H64B H 0.5679 0.8636 0.3841 0.062 Uiso 1 1 calc R . .
H64C H 0.6442 0.8396 0.3555 0.062 Uiso 1 1 calc R . .
C65 C 0.6263(6) 0.5914(5) 0.3001(3) 0.028(2) Uani 1 1 d . . .
H65 H 0.5785 0.6164 0.2938 0.034 Uiso 1 1 calc R . .
C66 C 0.6679(6) 0.5666(5) 0.2633(3) 0.029(2) Uani 1 1 d . . .
H66 H 0.6489 0.5745 0.2329 0.034 Uiso 1 1 calc R . .
C67 C 0.7377(6) 0.5300(5) 0.2719(3) 0.025(2) Uiso 1 1 d . . .
C68 C 0.7615(7) 0.5219(6) 0.3168(4) 0.036(2) Uani 1 1 d . . .
H68 H 0.8102 0.4984 0.3244 0.044 Uiso 1 1 calc R . .
C69 C 0.7161(7) 0.5472(6) 0.3507(4) 0.039(3) Uani 1 1 d . . .
H69 H 0.7333 0.5392 0.3812 0.047 Uiso 1 1 calc R . .
C70 C 0.8418(6) 0.5080(5) 0.1627(3) 0.031(2) Uani 1 1 d . . .
H70 H 0.8508 0.5328 0.1379 0.037 Uiso 1 1 calc R . .
C71 C 0.8007(6) 0.5371(5) 0.1975(3) 0.028(2) Uani 1 1 d . . .
H71 H 0.7838 0.5817 0.1967 0.033 Uiso 1 1 calc R . .
C72 C 0.7836(6) 0.5016(5) 0.2339(3) 0.024(2) Uiso 1 1 d . . .
C73 C 0.8149(7) 0.4380(5) 0.2335(4) 0.032(2) Uani 1 1 d . . .
H73 H 0.8076 0.4124 0.2581 0.039 Uiso 1 1 calc R . .
C74 C 0.8562(6) 0.4126(5) 0.1975(4) 0.031(2) Uani 1 1 d . . .
H74 H 0.8760 0.3691 0.1978 0.037 Uiso 1 1 calc R . .
C75 C 0.9154(7) 0.1254(5) 0.4786(3) 0.032(2) Uiso 1 1 d . . .
H75 H 0.8692 0.1503 0.4869 0.039 Uiso 1 1 calc R . .
C76 C 0.9267(7) 0.0688(5) 0.4996(4) 0.032(2) Uiso 1 1 d . . .
H76 H 0.8883 0.0555 0.5215 0.038 Uiso 1 1 calc R . .
C77 C 0.9929(6) 0.0310(4) 0.4896(3) 0.0208(19) Uiso 1 1 d . . .
C78 C 1.0476(6) 0.0561(5) 0.4579(3) 0.030(2) Uiso 1 1 d . . .
H78 H 1.0966 0.0340 0.4503 0.036 Uiso 1 1 calc R . .
C79 C 1.0309(6) 0.1122(5) 0.4379(4) 0.032(2) Uiso 1 1 d . . .
H79 H 1.0685 0.1268 0.4160 0.038 Uiso 1 1 calc R . .
C80 C 0.5730(10) 0.8709(6) 0.0223(4) 0.054(4) Uani 1 1 d . . .
H80 H 0.6114 0.8404 0.0116 0.065 Uiso 1 1 calc R . .
C81 C 0.5585(10) 0.9242(7) -0.0021(4) 0.064(4) Uani 1 1 d . . .
H81 H 0.5857 0.928