####################################################################### 
# 
# This file contains crystal structure data downloaded from the 
# Cambridge Structural Database (CSD) hosted by the Cambridge 
# Crystallographic Data Centre (CCDC).
# 
# Full information about CCDC data access policies and citation 
# guidelines are available at http://www.ccdc.cam.ac.uk/access/V1 
# 
# Audit and citation data items may have been added by the CCDC. 
# Please retain this information to preserve the provenance of 
# this file and to allow appropriate attribution of the data. 
# 
#######################################################################

data_1
_audit_block_doi                 10.5517/cc10my9w
_database_code_depnum_ccdc_archive 'CCDC 942688'
loop_
_citation_id
_citation_doi
_citation_year
1 10.1016/j.jssc.2013.08.026 2013
_audit_update_record             
;
2013-10-17 deposited with the CCDC.	2024-07-13 downloaded from the CCDC.
;

_audit_creation_method           SHELXL-97
_chemical_name_systematic        
; 
 ? 
;
_chemical_name_common            ?
_chemical_melting_point          ?
_chemical_formula_moiety         ?
_chemical_formula_sum            'C66 H52 N6 O20 Zn5'
_chemical_formula_weight         1575.99

loop_
_atom_type_symbol
_atom_type_description
_atom_type_scat_dispersion_real
_atom_type_scat_dispersion_imag
_atom_type_scat_source
C C 0.0033 0.0016 'International Tables Vol C Tables 4.2.6.8 and 6.1.1.4'
H H 0.0000 0.0000 'International Tables Vol C Tables 4.2.6.8 and 6.1.1.4'
N N 0.0061 0.0033 'International Tables Vol C Tables 4.2.6.8 and 6.1.1.4'
O O 0.0106 0.0060 'International Tables Vol C Tables 4.2.6.8 and 6.1.1.4'
Zn Zn 0.2839 1.4301 'International Tables Vol C Tables 4.2.6.8 and 6.1.1.4'

_symmetry_cell_setting           Orthorhombic
_symmetry_space_group_name_H-M   Pccn

loop_
_symmetry_equiv_pos_as_xyz
'x, y, z'
'-x+1/2, -y+1/2, z'
'x+1/2, -y, -z+1/2'
'-x, y+1/2, -z+1/2'
'-x, -y, -z'
'x-1/2, y-1/2, -z'
'-x-1/2, y, z-1/2'
'x, -y-1/2, z-1/2'

_cell_length_a                   22.8973(12)
_cell_length_b                   26.5061(14)
_cell_length_c                   31.6472(17)
_cell_angle_alpha                90.00
_cell_angle_beta                 90.00
_cell_angle_gamma                90.00
_cell_volume                     19207.3(18)
_cell_formula_units_Z            4
_cell_measurement_temperature    293(2)
_cell_measurement_reflns_used    9964
_cell_measurement_theta_min      2.2
_cell_measurement_theta_max      19.63

_exptl_crystal_description       cubic
_exptl_crystal_colour            yellow
_exptl_crystal_size_max          0.16
_exptl_crystal_size_mid          0.12
_exptl_crystal_size_min          0.12
_exptl_crystal_density_meas      ?
_exptl_crystal_density_diffrn    0.545
_exptl_crystal_density_method    'not measured'
_exptl_crystal_F_000             3200
_exptl_absorpt_coefficient_mu    0.643
_exptl_absorpt_correction_type   ?
_exptl_absorpt_correction_T_min  0.9042
_exptl_absorpt_correction_T_max  0.9269
_exptl_absorpt_process_details   'SADABS (Bruker, 1999)'

_exptl_special_details           
; 
 ? 
;

_diffrn_ambient_temperature      293(2)
_diffrn_radiation_wavelength     0.71073
_diffrn_radiation_type           MoK\a
_diffrn_radiation_source         'fine-focus sealed tube'
_diffrn_radiation_monochromator  graphite
_diffrn_measurement_device_type  'CCD area detector'
_diffrn_measurement_method       'phi and omega scans'
_diffrn_detector_area_resol_mean ?
_diffrn_standards_number         ?
_diffrn_standards_interval_count ?
_diffrn_standards_interval_time  ?
_diffrn_standards_decay_%        ?
_diffrn_reflns_number            104965
_diffrn_reflns_av_R_equivalents  0.0832
_diffrn_reflns_av_sigmaI/netI    0.0848
_diffrn_reflns_limit_h_min       -28
_diffrn_reflns_limit_h_max       27
_diffrn_reflns_limit_k_min       -20
_diffrn_reflns_limit_k_max       32
_diffrn_reflns_limit_l_min       -37
_diffrn_reflns_limit_l_max       39
_diffrn_reflns_theta_min         1.74
_diffrn_reflns_theta_max         26.00
_reflns_number_total             18892
_reflns_number_gt                9214
_reflns_threshold_expression     >2sigma(I)

_computing_data_collection       'Bruker SMART'
_computing_cell_refinement       'Bruker SMART'
_computing_data_reduction        'Bruker SHELXTL'
_computing_structure_solution    'SHELXS-97 (Sheldrick, 1990)'
_computing_structure_refinement  'SHELXL-97 (Sheldrick, 1997)'
_computing_molecular_graphics    'Bruker SHELXTL'
_computing_publication_material  'Bruker SHELXTL'

_refine_special_details          
; 
 Refinement of F^2^ against ALL reflections.  The weighted R-factor wR and 
 goodness of fit S are based on F^2^, conventional R-factors R are based 
 on F, with F set to zero for negative F^2^. The threshold expression of 
 F^2^ > 2sigma(F^2^) is used only for calculating R-factors(gt) etc. and is 
 not relevant to the choice of reflections for refinement.  R-factors based 
 on F^2^ are statistically about twice as large as those based on F, and R- 
 factors based on ALL data will be even larger. 
;

_refine_ls_structure_factor_coef Fsqd
_refine_ls_matrix_type           full
_refine_ls_weighting_scheme      calc
_refine_ls_weighting_details     
'calc w=1/[\s^2^(Fo^2^)+(0.0489P)^2^+0.0000P] where P=(Fo^2^+2Fc^2^)/3'
_atom_sites_solution_primary     direct
_atom_sites_solution_secondary   difmap
_atom_sites_solution_hydrogens   geom
_refine_ls_hydrogen_treatment    mixed
_refine_ls_extinction_method     none
_refine_ls_extinction_coef       ?
_refine_ls_number_reflns         18892
_refine_ls_number_parameters     436
_refine_ls_number_restraints     39
_refine_ls_R_factor_all          0.0973
_refine_ls_R_factor_gt           0.0421
_refine_ls_wR_factor_ref         0.1047
_refine_ls_wR_factor_gt          0.0966
_refine_ls_goodness_of_fit_ref   0.848
_refine_ls_restrained_S_all      0.897
_refine_ls_shift/su_max          0.047
_refine_ls_shift/su_mean         0.002

loop_
_platon_squeeze_void_nr
_platon_squeeze_void_average_x
_platon_squeeze_void_average_y
_platon_squeeze_void_average_z
_platon_squeeze_void_volume
_platon_squeeze_void_count_electrons
_platon_squeeze_void_content
1 0.002 -0.009 -0.005 14070 2487 ' '
_platon_squeeze_details          
;
;

loop_
_atom_site_label
_atom_site_type_symbol
_atom_site_fract_x
_atom_site_fract_y
_atom_site_fract_z
_atom_site_U_iso_or_equiv
_atom_site_adp_type
_atom_site_occupancy
_atom_site_symmetry_multiplicity
_atom_site_calc_flag
_atom_site_refinement_flags
_atom_site_disorder_assembly
_atom_site_disorder_group
Zn1 Zn 0.7500 0.7500 0.751103(13) 0.04822(12) Uani 1 2 d S . .
Zn2 Zn 0.719043(13) 0.656400(11) 0.680913(10) 0.05543(10) Uani 1 1 d . . .
Zn3 Zn 0.616646(13) 0.717503(12) 0.733330(10) 0.05692(10) Uani 1 1 d . . .
N1 N 0.93159(12) 0.48878(10) 0.75105(9) 0.1043(10) Uani 1 1 d . . .
H1A H 0.9125 0.4677 0.7357 0.125 Uiso 1 1 calc R . .
N2 N 0.76990(10) 0.68724(9) 0.45863(8) 0.0776(7) Uani 1 1 d . . .
H2A H 0.7371 0.6727 0.4536 0.093 Uiso 1 1 calc R . .
N3 N 0.5275(2) 0.8319(2) 0.67020(18) 0.233(3) Uani 1 1 d DU . .
O1 O 0.80837(7) 0.69005(7) 0.75133(6) 0.0650(5) Uani 1 1 d U . .
O2 O 0.77390(8) 0.62198(7) 0.71739(6) 0.0715(6) Uani 1 1 d U . .
O3 O 1.15156(9) 0.38986(7) 0.81589(7) 0.0808(6) Uani 1 1 d U . .
O4 O 1.08576(9) 0.35046(8) 0.77479(7) 0.0884(7) Uani 1 1 d . . .
O5 O 0.80687(9) 0.70321(7) 0.64747(6) 0.0802(6) Uani 1 1 d . . .
O6 O 0.73446(9) 0.65976(8) 0.61990(6) 0.0771(6) Uani 1 1 d . . .
O7 O 0.79747(9) 0.71150(7) 0.29665(6) 0.0709(5) Uani 1 1 d . . .
O8 O 0.89244(8) 0.72992(7) 0.29341(6) 0.0674(5) Uani 1 1 d . . .
O9 O 0.55770(10) 0.75915(10) 0.70532(8) 0.1039(8) Uani 1 1 d U . .
O10 O 0.69205(8) 0.72106(7) 0.70481(6) 0.0506(5) Uani 1 1 d . . .
H10W H 0.6921(12) 0.7413(10) 0.6894(8) 0.061(11) Uiso 1 1 d . . .
C1 C 0.81033(12) 0.64433(11) 0.74091(9) 0.0605(7) Uani 1 1 d U . .
C2 C 0.86072(13) 0.61392(12) 0.75705(10) 0.0719(9) Uani 1 1 d . . .
C3 C 0.90248(15) 0.63655(12) 0.78355(12) 0.1026(12) Uani 1 1 d . . .
H3A H 0.8976 0.6699 0.7920 0.123 Uiso 1 1 calc R . .
C4 C 0.95055(16) 0.60986(13) 0.79706(13) 0.1261(16) Uani 1 1 d . . .
H4A H 0.9783 0.6253 0.8142 0.151 Uiso 1 1 calc R . .
C5 C 0.95762(14) 0.55970(12) 0.78500(11) 0.0869(10) Uani 1 1 d . . .
C6 C 0.91539(14) 0.53783(12) 0.75906(11) 0.0830(10) Uani 1 1 d . . .
C7 C 0.86706(13) 0.56449(12) 0.74459(10) 0.0827(10) Uani 1 1 d . . .
H7A H 0.8397 0.5493 0.7270 0.099 Uiso 1 1 calc R . .
C8 C 1.00030(14) 0.52188(13) 0.79357(11) 0.0904(11) Uani 1 1 d . . .
C9 C 1.05067(17) 0.52039(13) 0.81725(13) 0.1276(16) Uani 1 1 d . . .
H9A H 1.0623 0.5483 0.8329 0.153 Uiso 1 1 calc R . .
C10 C 1.08354(15) 0.47688(14) 0.81740(12) 0.1126(13) Uani 1 1 d . . .
H10A H 1.1178 0.4760 0.8332 0.135 Uiso 1 1 calc R . .
C11 C 1.06722(14) 0.43433(12) 0.79470(10) 0.0770(9) Uani 1 1 d . . .
C12 C 1.01631(14) 0.43509(12) 0.77166(11) 0.0892(10) Uani 1 1 d . . .
H12A H 1.0043 0.4069 0.7565 0.107 Uiso 1 1 calc R . .
C13 C 0.98312(15) 0.47912(13) 0.77153(11) 0.0861(10) Uani 1 1 d . . .
C14 C 1.10481(14) 0.38797(13) 0.79526(11) 0.0728(9) Uani 1 1 d U . .
C15 C 0.77990(15) 0.68677(11) 0.61590(10) 0.0666(8) Uani 1 1 d . . .
C16 C 0.80129(13) 0.69804(11) 0.57274(9) 0.0670(8) Uani 1 1 d . . .
C17 C 0.85382(16) 0.72417(14) 0.56820(10) 0.0979(11) Uani 1 1 d . . .
H17A H 0.8742 0.7337 0.5924 0.117 Uiso 1 1 calc R . .
C18 C 0.87659(15) 0.73636(15) 0.52930(11) 0.1102(13) Uani 1 1 d . . .
H18A H 0.9116 0.7539 0.5271 0.132 Uiso 1 1 calc R . .
C19 C 0.84606(14) 0.72179(13) 0.49319(10) 0.0812(9) Uani 1 1 d . . .
C20 C 0.79226(13) 0.69615(11) 0.49822(10) 0.0672(8) Uani 1 1 d . . .
C21 C 0.77036(13) 0.68446(11) 0.53756(10) 0.0685(8) Uani 1 1 d . . .
H21A H 0.7350 0.6675 0.5402 0.082 Uiso 1 1 calc R . .
C22 C 0.85568(14) 0.72742(12) 0.44835(10) 0.0765(9) Uani 1 1 d . . .
C23 C 0.90014(14) 0.74732(15) 0.42440(11) 0.1039(12) Uani 1 1 d . . .
H23A H 0.9324 0.7618 0.4376 0.125 Uiso 1 1 calc R . .
C24 C 0.89700(14) 0.74591(14) 0.38112(11) 0.0949(11) Uani 1 1 d . . .
H24A H 0.9272 0.7594 0.3650 0.114 Uiso 1 1 calc R . .
C25 C 0.84799(13) 0.72402(11) 0.36098(9) 0.0631(8) Uani 1 1 d . . .
C26 C 0.80293(12) 0.70449(11) 0.38447(9) 0.0666(8) Uani 1 1 d . . .
H26A H 0.7700 0.6912 0.3714 0.080 Uiso 1 1 calc R . .
C27 C 0.80769(12) 0.70509(11) 0.42816(10) 0.0658(8) Uani 1 1 d . . .
C28 C 0.84531(14) 0.72181(10) 0.31382(9) 0.0609(8) Uani 1 1 d . . .
C29 C 0.5638(2) 0.7981(2) 0.68731(16) 0.1441(18) Uani 1 1 d U . .
H29A H 0.6029 0.8071 0.6844 0.173 Uiso 1 1 calc R . .
C30 C 0.4667(5) 0.8125(4) 0.6701(4) 0.475(8) Uani 1 1 d DU . .
H30A H 0.4642 0.7766 0.6761 0.570 Uiso 1 1 calc R . .
H30B H 0.4454 0.8207 0.6445 0.570 Uiso 1 1 calc R . .
C31 C 0.5400(5) 0.8835(4) 0.6495(4) 0.475(8) Uani 1 1 d DU . .
H31A H 0.5132 0.9097 0.6586 0.570 Uiso 1 1 calc RD . .
H31B H 0.5801 0.8945 0.6534 0.570 Uiso 1 1 calc R . .
C32 C 0.4491(6) 0.8479(7) 0.7102(5) 0.798(16) Uani 1 1 d DU . .
H32A H 0.4085 0.8433 0.7167 1.197 Uiso 1 1 calc R . .
H32B H 0.4561 0.8827 0.7033 1.197 Uiso 1 1 calc RD . .
H32C H 0.4723 0.8386 0.7343 1.197 Uiso 1 1 calc R . .
C33 C 0.5277(9) 0.8649(8) 0.6047(4) 0.93(2) Uani 1 1 d DU . .
H33A H 0.5361 0.8914 0.5849 1.389 Uiso 1 1 calc R . .
H33B H 0.4874 0.8555 0.6024 1.389 Uiso 1 1 calc R . .
H33C H 0.5519 0.8362 0.5987 1.389 Uiso 1 1 calc R . .

loop_
_atom_site_aniso_label
_atom_site_aniso_U_11
_atom_site_aniso_U_22
_atom_site_aniso_U_33
_atom_site_aniso_U_23
_atom_site_aniso_U_13
_atom_site_aniso_U_12
Zn1 0.0478(2) 0.0447(3) 0.0522(3) 0.000 0.000 0.0028(2)
Zn2 0.05568(19) 0.0507(2) 0.0600(2) -0.00413(16) 0.00267(16) -0.00534(16)
Zn3 0.05307(18) 0.0574(2) 0.0603(2) -0.00250(16) 0.00023(16) -0.00455(16)
N1 0.101(2) 0.0616(19) 0.150(3) -0.0352(17) -0.0563(19) 0.0338(16)
N2 0.0705(17) 0.103(2) 0.0595(18) 0.0009(15) -0.0014(14) -0.0263(14)
N3 0.185(4) 0.251(6) 0.262(6) 0.060(5) -0.107(4) 0.075(5)
O1 0.0657(12) 0.0520(11) 0.0773(13) -0.0026(10) -0.0042(10) 0.0158(10)
O2 0.0707(13) 0.0521(12) 0.0918(16) 0.0032(10) -0.0140(11) 0.0076(10)
O3 0.0746(14) 0.0664(14) 0.1014(17) -0.0096(11) -0.0150(12) 0.0284(11)
O4 0.0893(15) 0.0667(15) 0.1091(19) -0.0182(13) -0.0183(13) 0.0349(12)
O5 0.0987(16) 0.0849(16) 0.0571(14) -0.0189(11) 0.0059(12) -0.0066(12)
O6 0.0887(15) 0.0848(16) 0.0578(13) -0.0042(11) 0.0100(11) -0.0106(13)
O7 0.0802(14) 0.0746(14) 0.0579(13) 0.0165(10) -0.0171(11) -0.0161(12)
O8 0.0720(13) 0.0778(15) 0.0523(13) 0.0008(10) -0.0014(10) 0.0002(11)
O9 0.0805(15) 0.110(2) 0.121(2) 0.0256(16) -0.0235(14) 0.0091(16)
O10 0.0549(11) 0.0442(13) 0.0529(13) 0.0042(10) 0.0036(9) -0.0049(10)
C1 0.0608(18) 0.0510(16) 0.070(2) 0.0109(14) 0.0043(14) 0.0107(15)
C2 0.074(2) 0.057(2) 0.085(2) -0.0084(17) -0.0074(17) 0.0185(17)
C3 0.116(3) 0.056(2) 0.136(3) -0.024(2) -0.053(3) 0.032(2)
C4 0.126(3) 0.075(3) 0.177(4) -0.043(3) -0.084(3) 0.042(2)
C5 0.088(2) 0.055(2) 0.117(3) -0.021(2) -0.034(2) 0.027(2)
C6 0.088(2) 0.053(2) 0.108(3) -0.0167(19) -0.025(2) 0.0236(19)
C7 0.083(2) 0.057(2) 0.109(3) -0.0116(19) -0.0247(19) 0.0159(18)
C8 0.089(3) 0.068(2) 0.115(3) -0.023(2) -0.040(2) 0.034(2)
C9 0.125(3) 0.069(3) 0.188(4) -0.046(3) -0.079(3) 0.040(2)
C10 0.108(3) 0.079(3) 0.151(4) -0.029(2) -0.061(3) 0.037(2)
C11 0.079(2) 0.056(2) 0.096(3) -0.0089(18) -0.0139(19) 0.0228(18)
C12 0.086(2) 0.064(2) 0.117(3) -0.0207(19) -0.028(2) 0.0288(19)
C13 0.087(2) 0.064(2) 0.107(3) -0.012(2) -0.032(2) 0.034(2)
C14 0.076(2) 0.065(2) 0.078(2) 0.0025(18) -0.0006(16) 0.0255(19)
C15 0.077(2) 0.058(2) 0.065(2) -0.0076(17) 0.0062(19) 0.0045(18)
C16 0.073(2) 0.074(2) 0.054(2) -0.0062(16) 0.0028(17) -0.0094(17)
C17 0.103(3) 0.140(3) 0.051(2) -0.012(2) -0.003(2) -0.033(2)
C18 0.089(2) 0.180(4) 0.062(3) -0.018(2) 0.003(2) -0.056(2)
C19 0.075(2) 0.114(3) 0.055(2) -0.0024(18) -0.0013(17) -0.022(2)
C20 0.074(2) 0.077(2) 0.051(2) -0.0060(16) 0.0027(17) -0.0061(17)
C21 0.075(2) 0.071(2) 0.059(2) -0.0038(16) 0.0056(17) -0.0067(16)
C22 0.070(2) 0.101(3) 0.058(2) 0.0004(18) 0.0007(18) -0.0224(19)
C23 0.086(2) 0.165(4) 0.061(2) 0.003(2) -0.0110(19) -0.049(2)
C24 0.077(2) 0.143(3) 0.065(2) 0.003(2) 0.0029(19) -0.030(2)
C25 0.0641(19) 0.071(2) 0.054(2) 0.0013(15) -0.0021(16) -0.0019(16)
C26 0.0610(18) 0.077(2) 0.061(2) 0.0018(16) -0.0085(16) -0.0028(16)
C27 0.0615(19) 0.076(2) 0.060(2) 0.0015(16) -0.0007(17) -0.0066(16)
C28 0.072(2) 0.0526(19) 0.058(2) 0.0064(15) -0.0090(18) 0.0032(16)
C29 0.129(4) 0.131(4) 0.172(5) 0.037(3) -0.038(3) -0.004(3)
C30 0.312(7) 0.439(10) 0.673(17) 0.382(11) -0.206(10) -0.050(8)
C31 0.312(7) 0.439(10) 0.673(17) 0.382(11) -0.206(10) -0.050(8)
C32 0.411(19) 1.25(5) 0.74(3) 0.19(3) 0.06(2) 0.17(3)
C33 0.71(3) 1.19(5) 0.88(4) 0.33(3) -0.26(3) 0.28(3)

_geom_special_details            
; 
 All esds (except the esd in the dihedral angle between two l.s. planes) 
 are estimated using the full covariance matrix.  The cell esds are taken 
 into account individually in the estimation of esds in distances, angles 
 and torsion angles; correlations between esds in cell parameters are only 
 used when they are defined by crystal symmetry.  An approximate (isotropic) 
 treatment of cell esds is used for estimating esds involving l.s. planes. 
;

loop_
_geom_bond_atom_site_label_1
_geom_bond_atom_site_label_2
_geom_bond_distance
_geom_bond_site_symmetry_2
_geom_bond_publ_flag
Zn1 O7 2.0739(18) 7_756 ?
Zn1 O7 2.0739(18) 8_576 ?
Zn1 O1 2.0764(17) 2_665 ?
Zn1 O1 2.0764(17) . ?
Zn1 O10 2.1203(19) . ?
Zn1 O10 2.1203(19) 2_665 ?
Zn2 O2 1.9346(18) . ?
Zn2 O6 1.9649(19) . ?
Zn2 O10 1.973(2) . ?
Zn2 O3 1.9751(18) 3_466 ?
Zn3 O8 1.9407(18) 7_756 ?
Zn3 O10 1.9506(18) . ?
Zn3 O4 1.952(2) 3_466 ?
Zn3 O9 1.956(2) . ?
N1 C13 1.370(3) . ?
N1 C6 1.376(3) . ?
N2 C20 1.374(3) . ?
N2 C27 1.379(3) . ?
N3 C29 1.339(6) . ?
N3 C30 1.484(8) . ?
N3 C31 1.543(7) . ?
O1 C1 1.257(3) . ?
O2 C1 1.265(3) . ?
O3 C14 1.255(3) . ?
O3 Zn2 1.9751(18) 3_566 ?
O4 C14 1.264(3) . ?
O4 Zn3 1.952(2) 3_566 ?
O5 C15 1.253(3) . ?
O6 C15 1.269(3) . ?
O7 C28 1.253(3) . ?
O7 Zn1 2.0739(18) 7_755 ?
O8 C28 1.276(3) . ?
O8 Zn3 1.9407(18) 7_755 ?
O9 C29 1.187(4) . ?
C1 C2 1.497(4) . ?
C2 C7 1.376(4) . ?
C2 C3 1.406(4) . ?
C3 C4 1.377(4) . ?
C4 C5 1.393(4) . ?
C5 C6 1.395(4) . ?
C5 C8 1.426(4) . ?
C6 C7 1.391(4) . ?
C8 C9 1.376(4) . ?
C8 C13 1.388(4) . ?
C9 C10 1.377(4) . ?
C10 C11 1.389(4) . ?
C11 C12 1.375(4) . ?
C11 C14 1.500(4) . ?
C12 C13 1.393(4) . ?
C15 C16 1.482(4) . ?
C16 C21 1.368(4) . ?
C16 C17 1.395(4) . ?
C17 C18 1.375(4) . ?
C18 C19 1.394(4) . ?
C19 C20 1.416(4) . ?
C19 C22 1.444(4) . ?
C20 C21 1.377(4) . ?
C22 C23 1.374(4) . ?
C22 C27 1.402(4) . ?
C23 C24 1.372(4) . ?
C24 C25 1.415(4) . ?
C25 C26 1.373(3) . ?
C25 C28 1.495(4) . ?
C26 C27 1.387(4) . ?
C30 C32 1.631(10) . ?
C31 C33 1.526(10) . ?

loop_
_geom_angle_atom_site_label_1
_geom_angle_atom_site_label_2
_geom_angle_atom_site_label_3
_geom_angle
_geom_angle_site_symmetry_1
_geom_angle_site_symmetry_3
_geom_angle_publ_flag
O7 Zn1 O7 91.93(11) 7_756 8_576 ?
O7 Zn1 O1 92.11(7) 7_756 2_665 ?
O7 Zn1 O1 87.61(7) 8_576 2_665 ?
O7 Zn1 O1 87.61(7) 