####################################################################### 
# 
# This file contains crystal structure data downloaded from the 
# Cambridge Structural Database (CSD) hosted by the Cambridge 
# Crystallographic Data Centre (CCDC).
# 
# Full information about CCDC data access policies and citation 
# guidelines are available at http://www.ccdc.cam.ac.uk/access/V1 
# 
# Audit and citation data items may have been added by the CCDC. 
# Please retain this information to preserve the provenance of 
# this file and to allow appropriate attribution of the data. 
# 
#######################################################################

data_2
_audit_block_doi                 10.5517/cc10mybx
_database_code_depnum_ccdc_archive 'CCDC 942689'
loop_
_citation_id
_citation_doi
_citation_year
1 10.1016/j.jssc.2013.08.026 2013
_audit_update_record             
;
2013-10-17 deposited with the CCDC.	2024-07-13 downloaded from the CCDC.
;

_audit_creation_method           SHELXL-97
_chemical_name_systematic        
; 
 ? 
;
_chemical_name_common            ?
_chemical_melting_point          ?
_chemical_formula_moiety         ?
_chemical_formula_sum            'C49 H65 N9 O15 Zn2'
_chemical_formula_weight         1150.88

loop_
_atom_type_symbol
_atom_type_description
_atom_type_scat_dispersion_real
_atom_type_scat_dispersion_imag
_atom_type_scat_source
C C 0.0033 0.0016 'International Tables Vol C Tables 4.2.6.8 and 6.1.1.4'
H H 0.0000 0.0000 'International Tables Vol C Tables 4.2.6.8 and 6.1.1.4'
N N 0.0061 0.0033 'International Tables Vol C Tables 4.2.6.8 and 6.1.1.4'
O O 0.0106 0.0060 'International Tables Vol C Tables 4.2.6.8 and 6.1.1.4'
Zn Zn 0.2839 1.4301 'International Tables Vol C Tables 4.2.6.8 and 6.1.1.4'

_symmetry_cell_setting           monoclinic
_symmetry_space_group_name_H-M   C2/c

loop_
_symmetry_equiv_pos_as_xyz
'x, y, z'
'-x, y, -z+1/2'
'x+1/2, y+1/2, z'
'-x+1/2, y+1/2, -z+1/2'
'-x, -y, -z'
'x, -y, z-1/2'
'-x+1/2, -y+1/2, -z'
'x+1/2, -y+1/2, z-1/2'

_cell_length_a                   39.826(8)
_cell_length_b                   14.012(2)
_cell_length_c                   29.269(4)
_cell_angle_alpha                90.00
_cell_angle_beta                 123.206(9)
_cell_angle_gamma                90.00
_cell_volume                     13666(4)
_cell_formula_units_Z            8
_cell_measurement_temperature    293(2)
_cell_measurement_reflns_used    3647
_cell_measurement_theta_min      2.2
_cell_measurement_theta_max      18.6

_exptl_crystal_description       prism
_exptl_crystal_colour            yellow
_exptl_crystal_size_max          0.10
_exptl_crystal_size_mid          0.08
_exptl_crystal_size_min          0.03
_exptl_crystal_density_meas      ?
_exptl_crystal_density_diffrn    1.119
_exptl_crystal_density_method    'not measured'
_exptl_crystal_F_000             4815
_exptl_absorpt_coefficient_mu    0.760
_exptl_absorpt_correction_type   ?
_exptl_absorpt_correction_T_min  0.9278
_exptl_absorpt_correction_T_max  0.9776
_exptl_absorpt_process_details   'SADABS (Bruker, 1999)'

_exptl_special_details           
; 
 ? 
;

_diffrn_ambient_temperature      293(2)
_diffrn_radiation_wavelength     0.71073
_diffrn_radiation_type           MoK\a
_diffrn_radiation_source         'fine-focus sealed tube'
_diffrn_radiation_monochromator  graphite
_diffrn_measurement_device_type  'CCD area detector'
_diffrn_measurement_method       'phi and omega scans'
_diffrn_detector_area_resol_mean ?
_diffrn_standards_number         ?
_diffrn_standards_interval_count ?
_diffrn_standards_interval_time  ?
_diffrn_standards_decay_%        ?
_diffrn_reflns_number            36030
_diffrn_reflns_av_R_equivalents  0.0875
_diffrn_reflns_av_sigmaI/netI    0.1556
_diffrn_reflns_limit_h_min       -49
_diffrn_reflns_limit_h_max       37
_diffrn_reflns_limit_k_min       -17
_diffrn_reflns_limit_k_max       17
_diffrn_reflns_limit_l_min       -36
_diffrn_reflns_limit_l_max       36
_diffrn_reflns_theta_min         1.93
_diffrn_reflns_theta_max         26.00
_reflns_number_total             13428
_reflns_number_gt                5581
_reflns_threshold_expression     >2sigma(I)

_computing_data_collection       'Bruker SMART'
_computing_cell_refinement       'Bruker SMART'
_computing_data_reduction        'Bruker SHELXTL'
_computing_structure_solution    'SHELXS-97 (Sheldrick, 1990)'
_computing_structure_refinement  'SHELXL-97 (Sheldrick, 1997)'
_computing_molecular_graphics    'Bruker SHELXTL'
_computing_publication_material  'Bruker SHELXTL'

_refine_special_details          
; 
 Refinement of F^2^ against ALL reflections.  The weighted R-factor wR and 
 goodness of fit S are based on F^2^, conventional R-factors R are based 
 on F, with F set to zero for negative F^2^. The threshold expression of 
 F^2^ > 2sigma(F^2^) is used only for calculating R-factors(gt) etc. and is 
 not relevant to the choice of reflections for refinement.  R-factors based 
 on F^2^ are statistically about twice as large as those based on F, and R- 
 factors based on ALL data will be even larger. 
;

_refine_ls_structure_factor_coef Fsqd
_refine_ls_matrix_type           full
_refine_ls_weighting_scheme      calc
_refine_ls_weighting_details     
'calc w=1/[\s^2^(Fo^2^)+(0.0789P)^2^+0.0000P] where P=(Fo^2^+2Fc^2^)/3'
_atom_sites_solution_primary     direct
_atom_sites_solution_secondary   difmap
_atom_sites_solution_hydrogens   geom
_refine_ls_hydrogen_treatment    mixed
_refine_ls_extinction_method     none
_refine_ls_extinction_coef       ?
_refine_ls_number_reflns         13428
_refine_ls_number_parameters     436
_refine_ls_number_restraints     0
_refine_ls_R_factor_all          0.1288
_refine_ls_R_factor_gt           0.0706
_refine_ls_wR_factor_ref         0.1970
_refine_ls_wR_factor_gt          0.1817
_refine_ls_goodness_of_fit_ref   0.888
_refine_ls_restrained_S_all      0.888
_refine_ls_shift/su_max          0.024
_refine_ls_shift/su_mean         0.001

loop_
_platon_squeeze_void_nr
_platon_squeeze_void_average_x
_platon_squeeze_void_average_y
_platon_squeeze_void_average_z
_platon_squeeze_void_volume
_platon_squeeze_void_count_electrons
_platon_squeeze_void_content
1 -0.161 0.073 0.212 4414 1341 ' '
_platon_squeeze_details          
;
;

loop_
_atom_site_label
_atom_site_type_symbol
_atom_site_fract_x
_atom_site_fract_y
_atom_site_fract_z
_atom_site_U_iso_or_equiv
_atom_site_adp_type
_atom_site_occupancy
_atom_site_symmetry_multiplicity
_atom_site_calc_flag
_atom_site_refinement_flags
_atom_site_disorder_assembly
_atom_site_disorder_group
Zn1 Zn -0.010493(19) 0.47169(4) -0.05490(2) 0.04435(19) Uani 1 1 d . . .
N1 N 0.18768(15) 0.3158(4) 0.02968(19) 0.0889(19) Uani 1 1 d . . .
H1A H 0.1786 0.3118 -0.0045 0.107 Uiso 1 1 calc R . .
N2 N -0.0272(2) 0.0744(4) 0.1262(2) 0.099(2) Uani 1 1 d . . .
H2A H -0.0231 0.1042 0.1545 0.119 Uiso 1 1 calc R . .
N3 N -0.03537(13) 0.4441(3) -0.13669(17) 0.0432(11) Uani 1 1 d . . .
N4 N -0.06596(14) 0.4118(3) -0.23905(17) 0.0503(12) Uani 1 1 d . . .
O1 O 0.32532(16) 0.1733(5) 0.0748(2) 0.135(2) Uani 1 1 d . . .
O2 O 0.35568(14) 0.1522(4) 0.16277(19) 0.1086(19) Uani 1 1 d . . .
O3 O 0.04823(12) 0.4377(3) -0.02114(16) 0.0618(11) Uani 1 1 d . . .
O4 O 0.06175(12) 0.4807(3) 0.05958(17) 0.0765(13) Uani 1 1 d . . .
O5 O -0.01697(13) 0.3457(2) -0.02700(17) 0.0662(12) Uani 1 1 d . . .
O6 O -0.00196(13) 0.3879(2) 0.05649(16) 0.0654(12) Uani 1 1 d . . .
O7 O -0.07167(17) -0.3353(4) 0.1365(3) 0.109(2) Uani 1 1 d . . .
O8 O -0.0636(2) -0.2256(4) 0.1951(3) 0.153(3) Uani 1 1 d . . .
C1 C 0.07220(19) 0.4447(4) 0.0297(3) 0.0566(15) Uani 1 1 d . . .
C2 C 0.11373(18) 0.4119(5) 0.0557(2) 0.0659(18) Uani 1 1 d . . .
C3 C 0.12740(19) 0.3812(4) 0.0236(3) 0.0623(16) Uani 1 1 d . . .
H3A H 0.1109 0.3815 -0.0143 0.075 Uiso 1 1 calc R . .
C4 C 0.16632(19) 0.3504(5) 0.0503(2) 0.0653(18) Uani 1 1 d . . .
C5 C 0.1920(2) 0.3459(7) 0.1063(3) 0.128(2) Uani 1 1 d . . .
C6 C 0.1759(2) 0.3798(7) 0.1375(3) 0.128(2) Uani 1 1 d . . .
H6A H 0.1916 0.3787 0.1755 0.153 Uiso 1 1 calc R . .
C7 C 0.1388(2) 0.4120(7) 0.1115(3) 0.125(4) Uani 1 1 d . . .
H7A H 0.1292 0.4358 0.1320 0.150 Uiso 1 1 calc R . .
C8 C 0.2303(2) 0.3040(7) 0.1223(3) 0.107(3) Uani 1 1 d . . .
C9 C 0.22647(19) 0.2875(6) 0.0720(2) 0.087(2) Uani 1 1 d . . .
C10 C 0.25738(18) 0.2469(6) 0.0702(3) 0.089(2) Uani 1 1 d . . .
H10A H 0.2543 0.2344 0.0369 0.107 Uiso 1 1 calc R . .
C11 C 0.2924(2) 0.2256(5) 0.1181(3) 0.085(2) Uani 1 1 d . . .
C12 C 0.2980(3) 0.2413(8) 0.1701(3) 0.139(4) Uani 1 1 d . . .
H12A H 0.3222 0.2269 0.2023 0.167 Uiso 1 1 calc R . .
C13 C 0.2660(3) 0.2788(8) 0.1707(3) 0.155(5) Uani 1 1 d . . .
H13A H 0.2684 0.2872 0.2038 0.186 Uiso 1 1 calc R . .
C14 C 0.3271(2) 0.1824(6) 0.1181(3) 0.091(2) Uani 1 1 d . . .
C15 C -0.01247(18) 0.3293(4) 0.0192(2) 0.0532(15) Uani 1 1 d . . .
C16 C -0.0201(2) 0.2280(4) 0.0282(2) 0.0622(17) Uani 1 1 d . . .
C17 C -0.0286(2) 0.1555(4) -0.0096(3) 0.079(2) Uani 1 1 d . . .
H17A H -0.0285 0.1699 -0.0405 0.095 Uiso 1 1 calc R . .
C18 C -0.0370(3) 0.0632(4) -0.0023(3) 0.099(3) Uani 1 1 d . . .
H18A H -0.0441 0.0170 -0.0289 0.118 Uiso 1 1 calc R . .
C19 C -0.0347(2) 0.0415(4) 0.0446(3) 0.0628(17) Uani 1 1 d . . .
C20 C -0.0258(2) 0.1129(4) 0.0838(3) 0.0686(18) Uani 1 1 d . . .
C21 C -0.0176(2) 0.2072(4) 0.0760(2) 0.076(2) Uani 1 1 d . . .
H21A H -0.0108 0.2539 0.1022 0.091 Uiso 1 1 calc R . .
C22 C -0.0410(2) -0.0471(4) 0.0665(3) 0.082(2) Uani 1 1 d . . .
C23 C -0.0367(3) -0.0229(5) 0.1142(3) 0.095(3) Uani 1 1 d . . .
C24 C -0.0429(2) -0.0849(5) 0.1459(3) 0.091(2) Uani 1 1 d . . .
H24A H -0.0412 -0.0655 0.1775 0.110 Uiso 1 1 calc R . .
C25 C -0.0522(2) -0.1791(5) 0.1264(3) 0.079(2) Uani 1 1 d . . .
C26 C -0.0559(2) -0.2067(5) 0.0781(3) 0.088(2) Uani 1 1 d . . .
H26A H -0.0619 -0.2696 0.0661 0.105 Uiso 1 1 calc R . .
C27 C -0.0504(2) -0.1388(4) 0.0482(3) 0.088(2) Uani 1 1 d . . .
H27A H -0.0532 -0.1559 0.0155 0.106 Uiso 1 1 calc R . .
C28A C -0.0622(2) -0.2545(7) 0.1561(4) 0.090(3) Uani 1 1 d . . .
C29 C -0.0460(2) 0.3440(4) -0.1503(3) 0.092(2) Uani 1 1 d . . .
H29A H -0.0635 0.3244 -0.1386 0.111 Uiso 1 1 calc R . .
H29B H -0.0219 0.3052 -0.1312 0.111 Uiso 1 1 calc R . .
C30 C -0.0677(3) 0.3277(5) -0.2131(3) 0.122(3) Uani 1 1 d . . .
H30A H -0.0551 0.2753 -0.2198 0.146 Uiso 1 1 calc R . .
H30B H -0.0956 0.3108 -0.2283 0.146 Uiso 1 1 calc R . .
C31 C -0.00717(18) 0.4685(5) -0.1520(2) 0.077(2) Uani 1 1 d . . .
H31A H 0.0176 0.4333 -0.1292 0.093 Uiso 1 1 calc R . .
H31B H -0.0010 0.5361 -0.1460 0.093 Uiso 1 1 calc R . .
C32 C -0.0250(2) 0.4444(5) -0.2120(2) 0.0730(19) Uani 1 1 d . . .
H32A H -0.0240 0.5006 -0.2306 0.088 Uiso 1 1 calc R . .
H32B H -0.0089 0.3951 -0.2144 0.088 Uiso 1 1 calc R . .
C33 C -0.0716(2) 0.5007(6) -0.1702(3) 0.095(3) Uani 1 1 d . . .
H33A H -0.0654 0.5677 -0.1610 0.113 Uiso 1 1 calc R . .
H33B H -0.0915 0.4822 -0.1626 0.113 Uiso 1 1 calc R . .
C34 C -0.0887(2) 0.4860(5) -0.2315(2) 0.091(2) Uani 1 1 d . . .
H34A H -0.1167 0.4674 -0.2503 0.109 Uiso 1 1 calc R . .
H34B H -0.0873 0.5455 -0.2473 0.109 Uiso 1 1 calc R . .
Zn2 Zn -0.09365(2) 0.39157(5) -0.32373(3) 0.0625(2) Uani 1 1 d . . .
O9 O -0.0936(4) 0.5145(5) -0.3403(4) 0.292(6) Uani 1 1 d . . .

loop_
_atom_site_aniso_label
_atom_site_aniso_U_11
_atom_site_aniso_U_22
_atom_site_aniso_U_33
_atom_site_aniso_U_23
_atom_site_aniso_U_13
_atom_site_aniso_U_12
Zn1 0.0506(4) 0.0448(4) 0.0396(4) -0.0012(3) 0.0260(3) 0.0015(3)
N1 0.060(4) 0.158(6) 0.031(3) 0.013(3) 0.014(3) 0.044(4)
N2 0.184(7) 0.075(4) 0.081(4) -0.001(3) 0.100(5) -0.014(4)
N3 0.047(3) 0.034(2) 0.049(3) -0.007(2) 0.027(2) 0.004(2)
N4 0.049(3) 0.070(3) 0.043(3) -0.011(2) 0.031(3) -0.008(3)
O1 0.108(4) 0.253(7) 0.072(4) 0.053(4) 0.067(4) 0.094(5)
O2 0.056(3) 0.210(6) 0.062(3) 0.046(4) 0.033(3) 0.056(4)
O3 0.056(3) 0.073(3) 0.050(3) 0.001(2) 0.025(2) 0.007(2)
O4 0.060(3) 0.106(3) 0.063(3) -0.015(3) 0.033(2) 0.012(3)
O5 0.108(4) 0.038(2) 0.073(3) -0.006(2) 0.063(3) -0.014(2)
O6 0.108(4) 0.032(2) 0.064(3) 0.002(2) 0.053(3) -0.014(2)
O7 0.140(5) 0.057(3) 0.190(6) 0.048(4) 0.130(5) 0.016(3)
O8 0.268(9) 0.107(5) 0.126(5) 0.037(4) 0.135(6) -0.018(5)
C1 0.058(4) 0.064(4) 0.050(4) 0.003(3) 0.031(4) 0.004(3)
C2 0.051(4) 0.104(5) 0.046(4) 0.004(3) 0.028(3) 0.035(4)
C3 0.063(4) 0.071(4) 0.057(4) 0.011(3) 0.035(4) 0.010(4)
C4 0.055(4) 0.106(5) 0.044(4) 0.000(3) 0.033(4) 0.017(4)
C5 0.087(4) 0.236(7) 0.051(3) -0.002(4) 0.031(3) 0.070(5)
C6 0.087(4) 0.236(7) 0.051(3) -0.002(4) 0.031(3) 0.070(5)
C7 0.070(5) 0.236(10) 0.054(5) -0.003(5) 0.025(4) 0.086(6)
C8 0.057(5) 0.211(9) 0.056(5) -0.012(5) 0.033(4) 0.024(6)
C9 0.044(4) 0.169(7) 0.037(4) 0.023(4) 0.014(3) 0.030(5)
C10 0.041(4) 0.175(7) 0.040(4) 0.025(4) 0.016(3) 0.044(5)
C11 0.072(5) 0.135(6) 0.064(5) 0.015(4) 0.048(4) 0.037(5)
C12 0.100(7) 0.263(12) 0.072(6) -0.002(6) 0.058(6) 0.045(7)
C13 0.095(7) 0.302(14) 0.050(5) -0.015(7) 0.029(5) 0.084(8)
C14 0.063(5) 0.151(7) 0.070(5) 0.027(5) 0.043(5) 0.041(5)
C15 0.065(4) 0.042(3) 0.050(4) -0.001(3) 0.030(3) -0.010(3)
C16 0.092(5) 0.042(3) 0.065(4) 0.003(3) 0.051(4) -0.010(3)
C17 0.151(7) 0.051(4) 0.084(5) -0.004(4) 0.095(5) -0.012(4)
C18 0.201(9) 0.049(4) 0.090(6) -0.007(4) 0.108(6) -0.023(5)
C19 0.096(5) 0.037(3) 0.073(4) 0.002(3) 0.058(4) -0.006(3)
C20 0.103(5) 0.056(4) 0.062(4) 0.011(3) 0.055(4) -0.002(4)
C21 0.133(7) 0.049(4) 0.060(4) 0.007(3) 0.062(5) -0.007(4)
C22 0.151(7) 0.039(4) 0.087(5) 0.008(3) 0.085(6) 0.004(4)
C23 0.170(8) 0.044(4) 0.093(6) 0.005(4) 0.085(6) -0.007(5)
C24 0.145(8) 0.061(5) 0.094(6) 0.026(4) 0.082(6) 0.016(5)
C25 0.073(5) 0.081(5) 0.091(6) 0.039(4) 0.050(5) 0.025(4)
C26 0.103(6) 0.058(4) 0.108(6) 0.036(4) 0.061(6) 0.010(4)
C27 0.149(7) 0.047(4) 0.106(6) 0.007(4) 0.093(6) -0.008(4)
C28A 0.089(6) 0.101(6) 0.108(7) 0.050(6) 0.072(6) 0.023(5)
C29 0.152(8) 0.050(4) 0.088(6) -0.019(4) 0.075(6) -0.036(4)
C30 0.238(11) 0.082(5) 0.067(5) -0.023(4) 0.097(7) -0.060(6)
C31 0.047(4) 0.137(6) 0.050(4) -0.004(4) 0.028(3) -0.015(4)
C32 0.083(5) 0.098(5) 0.047(4) -0.007(4) 0.041(4) -0.005(4)
C33 0.087(5) 0.142(7) 0.051(4) -0.015(4) 0.035(4) 0.032(5)
C34 0.086(5) 0.136(6) 0.045(4) -0.007(4) 0.033(4) 0.046(5)
Zn2 0.0655(5) 0.0795(5) 0.0531(5) -0.0162(4) 0.0393(4) -0.0120(4)
O9 0.498(18) 0.122(6) 0.272(12) 0.048(7) 0.221(13) -0.017(8)

_geom_special_details            
; 
 All esds (except the esd in the dihedral angle between two l.s. planes) 
 are estimated using the full covariance matrix.  The cell esds are taken 
 into account individually in the estimation of esds in distances, angles 
 and torsion angles; correlations between esds in cell parameters are only 
 used when they are defined by crystal symmetry.  An approximate (isotropic) 
 treatment of cell esds is used for estimating esds involving l.s. planes. 
;

loop_
_geom_bond_atom_site_label_1
_geom_bond_atom_site_label_2
_geom_bond_distance
_geom_bond_site_symmetry_2
_geom_bond_publ_flag
Zn1 O5 2.020(3) . ?
Zn1 O6 2.035(3) 5_565 ?
Zn1 O3 2.035(4) . ?
Zn1 N3 2.065(4) . ?
Zn1 O4 2.079(4) 5_565 ?
Zn1 Zn1 2.9522(12) 5_565 ?
N1 C4 1.373(6) . ?
N1 C9 1.407(7) . ?
N1 H1A 0.8600 . ?
N2 C20 1.383(6) . ?
N2 C23 1.407(7) . ?
N2 H2A 0.8600 . ?
N3 C29 1.456(6) . ?
N3 C33 1.457(7) . ?
N3 C31 1.459(6) . ?
N4 C30 1.425(7) . ?
N4 C32 1.444(7) . ?
N4 C34 1.473(7) . ?
N4 Zn2 2.108(4) . ?
O1 C14 1.237(7) . ?
O2 C14 1.247(7) . ?
O2 Zn2 1.931(4) 8_556 ?
O3 C1 1.256(6) . ?
O4 C1 1.262(6) . ?
O4 Zn1 2.079(4) 5_565 ?
O5 C15 1.283(6) . ?
O6 C15 1.242(6) . ?
O6 Zn1 2.035(3) 5_565 ?
O7 C28A 1.232(9) . ?
O7 Zn2 1.965(4) 6_556 ?
O8 C28A 1.240(9) . ?
O8 Zn2 2.535(6) 6_556 ?
C1 C2 1.465(8) . ?
C2 C7 1.370(8) . ?
C2 C3 1.388(7) . ?
C3 C4 1.368(8) . ?
C3 H3A 0.9300 . ?
C4 C5 1.378(8) . ?
C5 C8 1.452(9) . ?
C5 C6 1.455(9) . ?
C6 C7 1.315(9) . ?
C6 H6A 0.9300 . ?
C7 H7A 0.9300 . ?
C8 C13 1.394(10) . ?
C8 C9 1.416(8) . ?
C9 C10 1.382(8) . ?
C10 C11 1.362(8) . ?
C10 H10A 0.9300 . ?
C11 C12 1.429(9) . ?
C11 C14 1.510(8) . ?
C12 C13 1.388(9) . ?
C12 H12A 0.9300 . ?
C13 H13A 0.9300 . ?
C15 C16 1.504(7) . ?
C16 C21 1.378(7) . ?
C16 C17 1.400(7) . ?
C17 C18 1.381(7) . ?
C17 H17A 0.9300 . ?
C18 C19 1.359(7) . ?
C18 H18A 0.9300 . ?
C19 C20 1.413(7) . ?
C19 C22 1.481(7) . ?
C20 C21 1.408(7) . ?
C21 H21A 0.9300 . ?
C22 C23 1.352(8) . ?
C22 C27 1.364(8) . ?
C23 C24 1.390(8) . ?
C24 C25 1.405(9) . ?
C24 H24A 0.9300 . ?
C25 C26 1.395(9) . ?
C25 C28A 1.551(9) . ?
C26 C27 1.389(8) . ?
C26 H26A 0.9300 . ?
C27 H27A 0.9300 . ?
C28A Zn2 2.534(8) 6_556 ?
C29 C30 1.560(8) . ?
C29 H29A 0.9700 . ?
C29 H29B 0.9700 . ?
C30 H30A 0.9700 . ?
C30 H30B 0.9700 . ?
C31 C32 1.530(7) . ?
C31 H31A 0.9700 . ?
C31 H31B 0.9700 . ?
C32 H32A 0.9700 . ?
C32 H32B 0.9700 . ?
C33 C34 1.545(8) . ?
C33 H33A 0.9700 . ?
C33 H33B 0.9700 . ?
C34 H34A 0.9700 . ?
C34 H34B 0.9700 . ?
Zn2 O9 1.790(7) . ?
Zn2 O2 1.931(4) 8_455 ?
Zn2 O7 1.965(4) 6 ?
Zn2 O8 2.535(6) 6 ?
Zn2 C28A 2.534(8) 6 ?

loop_
_geom_angle_atom_site_label_1
_geom_angle_atom_site_label_2
_geom_angle_atom_site_label_3
_geom_angle
_geom_angle_site_symmetry_1
_geom_angle_site_symmetry_3
_geom_angle_publ_flag
O5 Zn1 O6 160.12(15) . 5_565 ?
O5 Zn1 O3 88.07(16) . . ?
O6 Zn1 O3 90.44(16) 5_565 . ?
O5 Zn1 N3 102.62(16) . . ?
O6 Zn1 N3 97.07(15) 5_565 . ?
O3 Zn1 N3 102.31(16) . . ?
O5 Zn1 O4 88.20(17) . 5_565 ?
O6 Zn1 O4 86.07(17) 5_565 5_565 ?
O3 Zn1 O4 158.85(16) . 5_565 ?
N3 Zn1 O4 98.83(16) . 5_565 ?
O5 Zn1 Zn1 79.47(11) . 5_565 ?
O6 Zn1 Zn1 80.67(