
#######################################################################
#
#                 Cambridge Crystallographic Data Centre
#                                CCDC
#
#######################################################################
#
# If this CIF has been generated from an entry in the Cambridge
# Structural Database, then it will include bibliographic, chemical,
# crystal, experimental, refinement or atomic coordinate data resulting
# from the CCDC's data processing and validation procedures.
#
#######################################################################

data_CSD_CIF_WIMTAN01
_audit_creation_date 1997-08-01
_audit_creation_method CSD-ConQuest-V1
_database_code_CSD WIMTAN01
_database_code_depnum_ccdc_archive 'CCDC 1293980'
_chemical_formula_sum 'C9 H18'
_chemical_formula_moiety
;
(C9 H18)n
;
_journal_coden_Cambridge 1211
_journal_volume 15
_journal_year 1960
_journal_page_first 40
_journal_name_full 'Supplemento del Nuovo Cimento '
loop_
_publ_author_name
"G.Natta"
"P.Corradini"
_chemical_name_systematic
;
poly(propylene)
;
_chemical_name_common
;
Teaching Subset: Fundamental Chemistry
;
_cell_volume    894.011
_exptl_crystal_density_diffrn 0.936
_exptl_special_details
;
identity period is 6.50(5)A
isotactic polymer chain conformer
No R-factor given, large esd for all cell dimensions
;
_diffrn_ambient_temperature ?
_diffrn_special_details
;
The study was carried out at room temperature,in the range 283-303K

;
loop_
_citation_database_id_CSD
_citation_special_details
WIQLEN "is a stereoisomer of this entry"
_symmetry_cell_setting monoclinic
_symmetry_space_group_name_H-M 'C c'
_symmetry_Int_Tables_number 9
loop_
_symmetry_equiv_pos_site_id
_symmetry_equiv_pos_as_xyz
1 x,y,z
2 x,-y,1/2+z
3 1/2+x,1/2+y,z
4 1/2+x,1/2-y,1/2+z
_cell_length_a 6.65(5)
_cell_length_b 20.96(15)
_cell_length_c 6.50(5)
_cell_angle_alpha 90
_cell_angle_beta 99.33(2)
_cell_angle_gamma 90
_cell_formula_units_Z 4
loop_
_atom_type_symbol
_atom_type_radius_bond
C 0.68
loop_
_atom_site_label
_atom_site_type_symbol
_atom_site_fract_x
_atom_site_fract_y
_atom_site_fract_z
C1 C 0.70900 0.07500 0.03500
C2 C 0.92400 0.10000 0.15100
C3 C 0.92400 0.10000 0.38800
C4 C 1.29000 0.07500 0.46500
C5 C 1.12100 0.11900 0.51900
C6 C 1.12100 0.11900 0.75600
C7 C 1.00000 0.23300 0.75000
C8 C 0.96700 0.16400 0.82600
C9 C 0.96700 0.16400 0.06300
C9* C 0.96700 0.16400 1.06300
C8* C 0.96700 0.16400 -0.17400
#END
