
#######################################################################
#
#                 Cambridge Crystallographic Data Centre
#                                CCDC
#
#######################################################################
#
# If this CIF has been generated from an entry in the Cambridge
# Structural Database, then it will include bibliographic, chemical,
# crystal, experimental, refinement or atomic coordinate data resulting
# from the CCDC's data processing and validation procedures.
#
#######################################################################

data_CSD_CIF_WIMZOH
_audit_creation_date 1997-08-01
_audit_creation_method CSD-ConQuest-V1
_database_code_CSD WIMZOH
_database_code_depnum_ccdc_archive 'CCDC 1294013'
_chemical_formula_sum 'C4 H8'
_chemical_formula_moiety
;
(C4 H8)n
;
_journal_coden_Cambridge 225
_journal_volume 12
_journal_year 1976
_journal_page_first 323
_journal_name_full 'Eur.Polym.J. '
loop_
_publ_author_name
"V.Petraccone"
"B.Pirozzi"
"A.Frasci"
"P.Corradini"
_chemical_name_systematic
;
Poly(\a-butene)
;
_chemical_name_common
;
Teaching Subset: Fundamental Chemistry
;
_cell_volume   5005.193
_exptl_crystal_density_diffrn 0.818
_exptl_special_details
;
identity period is 3.65A; interconverts rapidly at room temperature to form 1
isotactic polymer,11/3 helicoidal conformation
2 polymorph
Coordinates only given for monomer unit, details for construction of polymer 
model given in paper. Co-crystallised with 4 per cent 3-methylbutene to 
stabilise polymerisation. x(C3) is 0.407 not -0.407 as given
;
_exptl_crystal_preparation 'from the melt'
_diffrn_ambient_temperature ?
_diffrn_special_details
;
The study was carried out at room temperature,in the range 283-303K

;
_symmetry_cell_setting tetragonal
_symmetry_space_group_name_H-M 'P -4'
_symmetry_Int_Tables_number 81
loop_
_symmetry_equiv_pos_site_id
_symmetry_equiv_pos_as_xyz
1 x,y,z
2 y,-x,-z
3 -x,-y,z
4 -y,x,-z
_cell_length_a 15.42(15)
_cell_length_b 15.42(15)
_cell_length_c 21.05(2)
_cell_angle_alpha 90
_cell_angle_beta 90
_cell_angle_gamma 90
_cell_formula_units_Z 48
loop_
_atom_type_symbol
_atom_type_radius_bond
C 0.68
loop_
_atom_site_label
_atom_site_type_symbol
_atom_site_fract_x
_atom_site_fract_y
_atom_site_fract_z
C1 C 0.29800 0.20000 0.61300
C2 C 0.31200 0.21100 0.68500
C3 C 0.40700 0.19100 0.70400
C4 C 0.43100 0.09500 0.68700
#END
