
#######################################################################
#
#                 Cambridge Crystallographic Data Centre
#                                CCDC
#
#######################################################################
#
# If this CIF has been generated from an entry in the Cambridge
# Structural Database, then it will include bibliographic, chemical,
# crystal, experimental, refinement or atomic coordinate data resulting
# from the CCDC's data processing and validation procedures.
#
#######################################################################

data_CSD_CIF_WINCED
_audit_creation_date 1997-08-01
_audit_creation_method CSD-ConQuest-V1
_database_code_CSD WINCED
_database_code_depnum_ccdc_archive 'CCDC 1294025'
_chemical_formula_sum 'C2 H2'
_chemical_formula_moiety
;
(C2 H2)n
;
_journal_coden_Cambridge 19
_journal_volume 189
_journal_year 1988
_journal_page_first 2657
_journal_name_full 'Makromol.Chem. '
loop_
_publ_author_name
"G.Perego"
"G.Lugli"
"U.Pedretti"
"M.Cesari"
_chemical_name_systematic
;
cis-Poly(acetylene)
;
_chemical_name_common
;
Teaching Subset: Fundamental Chemistry
;
_cell_volume    148.323
_exptl_crystal_density_diffrn 1.166
_exptl_special_details
;
oriented fibres obtained by stretching uniaxially cis-rich PA films; only 
samples having less than 85 per cent cis-configuration are sufficiently 
stable
cis-transoid conformation
Atomic coordinates are extrapolated from the trend of the corresponding 
parameters in cis-trans poly(acetylene). All cis-poly(acetylene) tends to an 
initial relatively rapid isomerization, even at room temperature; X-ray data 
is taken from a sample containing 80 per cent cis-configuration
;
_diffrn_ambient_temperature ?
_diffrn_special_details
;
The study was carried out at room temperature,in the range 283-303K

;
_refine_special_details
;
The structure is disordered. Short-range in-phase and out-of- phase bond 
alternation is statistically present in the lattice.
;
#These two values have been output from a single CSD field.
_refine_ls_R_factor_gt 0.12
_refine_ls_wR_factor_gt 0.12
_symmetry_cell_setting orthorhombic
_symmetry_space_group_name_H-M 'P n a m'
_symmetry_Int_Tables_number 62
loop_
_symmetry_equiv_pos_site_id
_symmetry_equiv_pos_as_xyz
1 x,y,z
2 -x,-y,1/2+z
3 1/2+x,1/2-y,1/2-z
4 1/2-x,1/2+y,-z
5 -x,-y,-z
6 x,y,-1/2-z
7 -1/2-x,-1/2+y,-1/2+z
8 -1/2+x,-1/2-y,z
_cell_length_a 7.62
_cell_length_b 4.44
_cell_length_c 4.384
_cell_angle_alpha 90
_cell_angle_beta 90
_cell_angle_gamma 90
_cell_formula_units_Z 4
loop_
_atom_type_symbol
_atom_type_radius_bond
C 0.68
H 0.23
loop_
_atom_site_label
_atom_site_type_symbol
_atom_site_fract_x
_atom_site_fract_y
_atom_site_fract_z
C1 C 0.04840 0.10270 0.09720
H1 H 0.13000 0.27560 -0.00790
C1D C -0.04840 -0.10270 -0.09720
C1A C -0.04840 -0.10270 -0.40280
H1A H -0.13000 -0.27560 -0.50790
H1D H -0.13000 -0.27560 0.00790
C1E C 0.04840 0.10270 0.40280
H1E H 0.13000 0.27560 0.50790
#END
