
#######################################################################
#
#                 Cambridge Crystallographic Data Centre
#                                CCDC
#
#######################################################################
#
# If this CIF has been generated from an entry in the Cambridge
# Structural Database, then it will include bibliographic, chemical,
# crystal, experimental, refinement or atomic coordinate data resulting
# from the CCDC's data processing and validation procedures.
#
#######################################################################

data_CSD_CIF_WINFAA
_audit_creation_date 1995-06-19
_audit_creation_method CSD-ConQuest-V1
_database_code_CSD WINFAA
_database_code_depnum_ccdc_archive 'CCDC 1294034'
_chemical_formula_sum 'C28 H24 As1 F6 O1 P1 Ru1'
_chemical_formula_moiety
;
C28 H24 As1 O1 Ru1 1+,F6 P1 1-
;
_journal_coeditor_code "IUCr KA1055"
_journal_coden_Cambridge 591
_journal_volume 51
_journal_year 1995
_journal_page_first 361
_journal_name_full 'Acta Crystallogr.,Sect.C:Cryst.Struct.Commun. '
loop_
_publ_author_name
"K.Kirchner"
"R.Schmid"
"K.Mereiter"
_chemical_name_systematic
;
(\h^5^-Cyclopentadienyl)-(\h^4^-cyclopentadienone)-triphenylarsine-ruthenium 
hexafluorophosphate
;
_chemical_name_common
;
Teaching Subset: Fundamental Chemistry
;
_cell_volume   2611.010
_exptl_crystal_colour 'yellow'
_exptl_crystal_density_diffrn 1.774
_diffrn_ambient_temperature ?
_diffrn_special_details
;
The study was carried out at room temperature,in the range 283-303K

;
#These two values have been output from a single CSD field.
_refine_ls_R_factor_gt 0.027
_refine_ls_wR_factor_gt 0.027
_symmetry_cell_setting monoclinic
_symmetry_space_group_name_H-M 'P 21/c'
_symmetry_Int_Tables_number 14
loop_
_symmetry_equiv_pos_site_id
_symmetry_equiv_pos_as_xyz
1 x,y,z
2 -x,1/2+y,1/2-z
3 -x,-y,-z
4 x,-1/2-y,-1/2+z
_cell_length_a 8.076(1)
_cell_length_b 24.399(4)
_cell_length_c 13.337(2)
_cell_angle_alpha 90
_cell_angle_beta 96.52(1)
_cell_angle_gamma 90
_cell_formula_units_Z 4
loop_
_atom_type_symbol
_atom_type_radius_bond
C 0.68
H 0.23
As 1.21
F 0.64
O 0.68
P 1.05
Ru 1.40
loop_
_atom_site_label
_atom_site_type_symbol
_atom_site_fract_x
_atom_site_fract_y
_atom_site_fract_z
Ru1 Ru 0.60922(4) 0.37680(1) 0.20020(2)
C1 C 0.8523(6) 0.3781(3) 0.2937(4)
C2 C 0.8806(6) 0.3882(3) 0.1951(5)
C3 C 0.7956(7) 0.4374(3) 0.1652(4)
C4 C 0.7175(7) 0.4570(2) 0.2470(4)
C5 C 0.7530(7) 0.4200(2) 0.3254(4)
C6 C 0.3347(5) 0.3272(2) 0.1216(3)
C7 C 0.4995(5) 0.3107(2) 0.0936(3)
C8 C 0.5615(5) 0.3546(2) 0.0426(3)
C9 C 0.4677(5) 0.4019(2) 0.0607(3)
C10 C 0.3460(5) 0.3875(2) 0.1226(3)
O1 O 0.2203(3) 0.2987(1) 0.1415(2)
As1 As 0.49669(4) 0.32769(2) 0.34355(3)
C11 C 0.6674(4) 0.3097(2) 0.4544(3)
C12 C 0.6869(5) 0.3398(2) 0.5429(3)
C13 C 0.8057(5) 0.3255(2) 0.6217(3)
C14 C 0.9059(5) 0.2810(2) 0.6127(3)
C15 C 0.8913(5) 0.2515(2) 0.5252(3)
C16 C 0.7738(5) 0.2654(2) 0.4463(3)
C17 C 0.3936(4) 0.2556(2) 0.3251(3)
C18 C 0.4813(5) 0.2149(2) 0.2808(3)
C19 C 0.4234(5) 0.1616(2) 0.2760(3)
C20 C 0.2775(6) 0.1488(2) 0.3143(3)
C21 C 0.1869(6) 0.1888(2) 0.3549(3)
C22 C 0.2434(5) 0.2429(2) 0.3603(3)
C23 C 0.3467(4) 0.3722(2) 0.4137(3)
C24 C 0.3111(5) 0.4248(2) 0.3795(3)
C25 C 0.2134(6) 0.4591(2) 0.4311(3)
C26 C 0.1523(6) 0.4410(2) 0.5169(3)
C27 C 0.1867(5) 0.3888(2) 0.5512(3)
C28 C 0.2843(5) 0.3543(2) 0.5009(3)
H1 H 0.89390 0.34730 0.33370
H2 H 0.94550 0.36610 0.15450
H3 H 0.79200 0.45440 0.10010
H4 H 0.65210 0.48980 0.24840
H5 H 0.71540 0.42290 0.39100
H6 H 0.55370 0.27610 0.10810
H7 H 0.65230 0.35300 0.00200
H8 H 0.48480 0.43790 0.03470
H9 H 0.28200 0.41220 0.15890
H10 H 0.61700 0.37110 0.54970
H11 H 0.81770 0.34680 0.68250
H12 H 0.98650 0.27050 0.66780
H13 H 0.96350 0.22070 0.51870
H14 H 0.76520 0.24440 0.38510
H15 H 0.58270 0.22390 0.25340
H16 H 0.48510 0.13360 0.24600
H17 H 0.23890 0.11160 0.31260
H18 H 0.08340 0.17960 0.37970
H19 H 0.17900 0.27090 0.38820
H20 H 0.35420 0.43770 0.31960
H21 H 0.18860 0.49550 0.40680
H22 H 0.08530 0.46490 0.55290
H23 H 0.14250 0.37620 0.61090
H24 H 0.30900 0.31800 0.52610
P1 P 0.8345(2) 0.44766(5) -0.15989(9)
F1 F 0.7998(4) 0.3841(1) -0.1432(2)
F2 F 0.9583(3) 0.4326(1) -0.2382(2)
F3 F 0.6871(3) 0.4490(1) -0.2474(2)
F4 F 0.7086(4) 0.4629(1) -0.0808(2)
F5 F 0.9827(4) 0.4451(1) -0.0724(2)
F6 F 0.8678(3) 0.5104(1) -0.1770(2)
#END
