####################################################################### 
# 
# This file contains crystal structure data downloaded from the 
# Cambridge Structural Database (CSD) hosted by the Cambridge 
# Crystallographic Data Centre (CCDC).
# 
# Full information about CCDC data access policies and citation 
# guidelines are available at http://www.ccdc.cam.ac.uk/access/V1 
# 
# Audit and citation data items may have been added by the CCDC. 
# Please retain this information to preserve the provenance of 
# this file and to allow appropriate attribution of the data. 
# 
#######################################################################

data_x_Pb
_audit_block_doi                 10.5517/ccz9c5s
_database_code_depnum_ccdc_archive 'CCDC 902725'
loop_
_citation_id
_citation_doi
_citation_year
1 10.1016/j.jssc.2013.01.014 2013
_audit_update_record             
;
2012-09-24 deposited with the CCDC.	2024-07-13 downloaded from the CCDC.
;
#TrackingRef 'Pb.cif'


_audit_creation_method           SHELXL-97
_chemical_name_systematic        
;
?
;
_chemical_name_common            ?
_chemical_melting_point          ?
_chemical_formula_moiety         ?
_chemical_formula_sum            'C20 H24 N12 O12 Pb2'
_chemical_formula_weight         1038.89

loop_
_atom_type_symbol
_atom_type_description
_atom_type_scat_dispersion_real
_atom_type_scat_dispersion_imag
_atom_type_scat_source
C C 0.0033 0.0016 'International Tables Vol C Tables 4.2.6.8 and 6.1.1.4'
H H 0.0000 0.0000 'International Tables Vol C Tables 4.2.6.8 and 6.1.1.4'
N N 0.0061 0.0033 'International Tables Vol C Tables 4.2.6.8 and 6.1.1.4'
O O 0.0106 0.0060 'International Tables Vol C Tables 4.2.6.8 and 6.1.1.4'
Pb Pb -3.3944 10.1111 'International Tables Vol C Tables 4.2.6.8 and 6.1.1.4'

_symmetry_cell_setting           Tetragonal
_symmetry_space_group_name_H-M   P43

loop_
_symmetry_equiv_pos_as_xyz
'x, y, z'
'-x, -y, z+1/2'
'-y, x, z+3/4'
'y, -x, z+1/4'

_cell_length_a                   13.1297(3)
_cell_length_b                   13.1297(3)
_cell_length_c                   16.7858(8)
_cell_angle_alpha                90.00
_cell_angle_beta                 90.00
_cell_angle_gamma                90.00
_cell_volume                     2893.69(17)
_cell_formula_units_Z            4
_cell_measurement_temperature    293(2)
_cell_measurement_reflns_used    ?
_cell_measurement_theta_min      ?
_cell_measurement_theta_max      ?

_exptl_crystal_description       ?
_exptl_crystal_colour            ?
_exptl_crystal_size_max          0.10
_exptl_crystal_size_mid          0.10
_exptl_crystal_size_min          0.10
_exptl_crystal_density_meas      ?
_exptl_crystal_density_diffrn    2.385
_exptl_crystal_density_method    'not measured'
_exptl_crystal_F_000             1952
_exptl_absorpt_coefficient_mu    11.704
_exptl_absorpt_correction_type   analytical
_exptl_absorpt_correction_T_min  0.3874
_exptl_absorpt_correction_T_max  0.3874
_exptl_absorpt_process_details   '(SADABS; Bruker, 2007)'
_exptl_special_details           
;
?
;

_diffrn_ambient_temperature      293(2)
_diffrn_radiation_wavelength     0.71073
_diffrn_radiation_type           MoK\a
_diffrn_radiation_source         'fine-focus sealed tube'
_diffrn_radiation_monochromator  graphite
_diffrn_measurement_device_type  'Bruker SMART APEXII area-detector'
_diffrn_measurement_method       '0.5\% \w and 0.5 \% \f scans'
_diffrn_detector_area_resol_mean ?
_diffrn_standards_number         ?
_diffrn_standards_interval_count ?
_diffrn_standards_interval_time  ?
_diffrn_standards_decay_%        ?
_diffrn_reflns_number            8338
_diffrn_reflns_av_R_equivalents  0.0418
_diffrn_reflns_av_sigmaI/netI    0.0713
_diffrn_reflns_limit_h_min       -17
_diffrn_reflns_limit_h_max       12
_diffrn_reflns_limit_k_min       -17
_diffrn_reflns_limit_k_max       9
_diffrn_reflns_limit_l_min       -22
_diffrn_reflns_limit_l_max       15
_diffrn_reflns_theta_min         3.33
_diffrn_reflns_theta_max         29.24
_reflns_number_total             5110
_reflns_number_gt                4648
_reflns_threshold_expression     >2sigma(I)

_computing_data_collection       ?
_computing_cell_refinement       ?
_computing_data_reduction        ?
_computing_structure_solution    'SHELXS-97 (Sheldrick, 1990)'
_computing_structure_refinement  'SHELXL-97 (Sheldrick, 1997)'
_computing_molecular_graphics    ?
_computing_publication_material  ?

_refine_special_details          
;
Refinement of F^2^ against ALL reflections. The weighted R-factor wR and
goodness of fit S are based on F^2^, conventional R-factors R are based
on F, with F set to zero for negative F^2^. The threshold expression of
F^2^ > 2sigma(F^2^) is used only for calculating R-factors(gt) etc. and is
not relevant to the choice of reflections for refinement. R-factors based
on F^2^ are statistically about twice as large as those based on F, and R-
factors based on ALL data will be even larger.
;

_refine_ls_structure_factor_coef Fsqd
_refine_ls_matrix_type           full
_refine_ls_weighting_scheme      calc
_refine_ls_weighting_details     
'calc w=1/[\s^2^(Fo^2^)+(0.0700P)^2^+0.0000P] where P=(Fo^2^+2Fc^2^)/3'
_atom_sites_solution_primary     direct
_atom_sites_solution_secondary   difmap
_atom_sites_solution_hydrogens   geom
_refine_ls_hydrogen_treatment    constr
_refine_ls_extinction_method     none
_refine_ls_extinction_coef       ?
_refine_ls_abs_structure_details 'Flack H D (1983), Acta Cryst. A39, 876-881'
_refine_ls_abs_structure_Flack   0.002(14)
_refine_ls_number_reflns         5110
_refine_ls_number_parameters     385
_refine_ls_number_restraints     5
_refine_ls_R_factor_all          0.0527
_refine_ls_R_factor_gt           0.0461
_refine_ls_wR_factor_ref         0.1168
_refine_ls_wR_factor_gt          0.1111
_refine_ls_goodness_of_fit_ref   1.000
_refine_ls_restrained_S_all      1.007
_refine_ls_shift/su_max          0.000
_refine_ls_shift/su_mean         0.000

loop_
_atom_site_label
_atom_site_type_symbol
_atom_site_fract_x
_atom_site_fract_y
_atom_site_fract_z
_atom_site_U_iso_or_equiv
_atom_site_adp_type
_atom_site_occupancy
_atom_site_symmetry_multiplicity
_atom_site_calc_flag
_atom_site_refinement_flags
_atom_site_disorder_assembly
_atom_site_disorder_group
Pb1 Pb 0.95112(4) 0.03469(4) 0.19050(3) 0.01810(14) Uani 1 1 d . . .
N1 N 1.1738(8) 0.0862(7) 0.2817(6) 0.014(2) Uani 1 1 d . . .
O1 O 1.4099(8) 0.1229(9) 0.4424(8) 0.044(3) Uani 1 1 d . . .
C1 C 1.1937(10) 0.0951(9) 0.2002(8) 0.019(3) Uani 1 1 d . . .
Pb2 Pb -0.43970(4) 0.48573(4) 0.15428(2) 0.01601(13) Uani 1 1 d D . .
N2 N 1.1174(8) 0.0797(8) 0.1543(7) 0.021(2) Uani 1 1 d . . .
H2A H 1.1286 0.0867 0.1041 0.025 Uiso 1 1 calc R . .
C2 C 1.2397(10) 0.1026(10) 0.3424(8) 0.018(3) Uani 1 1 d . . .
O2 O 1.4953(8) 0.2010(8) 0.3556(7) 0.037(3) Uani 1 1 d . . .
O3 O 1.4166(8) 0.1524(9) 0.0850(7) 0.043(3) Uani 1 1 d . . .
N3 N 1.2084(9) 0.0911(9) 0.4139(7) 0.027(3) Uani 1 1 d . . .
H3A H 1.2503 0.0985 0.4528 0.032 Uiso 1 1 calc R . .
C3 C 1.3415(10) 0.1337(10) 0.3180(8) 0.021(3) Uani 1 1 d . . .
O4 O 1.2678(9) 0.1091(12) 0.0456(6) 0.053(4) Uani 1 1 d . . .
C4 C 1.3673(10) 0.1426(10) 0.2400(9) 0.020(3) Uani 1 1 d . . .
H4A H 1.4329 0.1626 0.2263 0.024 Uiso 1 1 calc R . .
N4 N 1.4199(10) 0.1535(9) 0.3753(8) 0.025(3) Uani 1 1 d . . .
C5 C 1.2960(9) 0.1218(9) 0.1797(8) 0.015(3) Uani 1 1 d . . .
N5 N 1.3284(9) 0.1287(9) 0.0999(7) 0.024(3) Uani 1 1 d . . .
O5 O 0.9383(7) 0.0759(7) 0.0512(5) 0.023(2) Uani 1 1 d . . .
O6 O 0.9751(8) -0.1494(7) 0.1053(6) 0.029(2) Uani 1 1 d . . .
C6 C 1.0170(12) -0.2329(12) 0.1123(9) 0.033(4) Uani 1 1 d . . .
C7 C 1.1523(12) -0.3524(11) 0.1240(10) 0.031 Uani 1 1 d . . .
H7A H 1.1921 -0.3564 0.1726 0.037 Uiso 1 1 calc R . .
H7B H 1.1930 -0.3777 0.0801 0.037 Uiso 1 1 calc R . .
O7 O -0.9751(8) 0.2878(9) 0.3201(7) 0.040(3) Uani 1 1 d . . .
N6 N 1.1185(9) -0.2477(10) 0.1090(7) 0.026(3) Uani 1 1 d . . .
C8 C 1.0551(12) -0.4113(11) 0.1317(10) 0.033(4) Uani 1 1 d . . .
H8A H 1.0526 -0.4461 0.1826 0.040 Uiso 1 1 calc R . .
H8B H 1.0500 -0.4616 0.0896 0.040 Uiso 1 1 calc R . .
N8 N -0.6531(8) 0.4058(8) 0.2459(6) 0.014(2) Uani 1 1 d . . .
O8 O -0.8743(7) 0.3327(9) 0.4148(7) 0.039(3) Uani 1 1 d . . .
C9 C 0.9667(12) -0.3335(11) 0.1254(11) 0.039(4) Uani 1 1 d . . .
H9A H 0.9223 -0.3503 0.0811 0.046 Uiso 1 1 calc R . .
H9B H 0.9268 -0.3328 0.1740 0.046 Uiso 1 1 calc R . .
N7 N -0.6065(8) 0.4374(9) 0.1186(7) 0.025(3) Uani 1 1 d . . .
H7C H -0.6210 0.4411 0.0687 0.030 Uiso 1 1 calc R . .
O9 O -0.8980(7) 0.3272(10) 0.0514(7) 0.039(3) Uani 1 1 d . . .
C10 C 1.1912(14) -0.1642(14) 0.1069(11) 0.046 Uani 1 1 d . . .
H10A H 1.1559 -0.1015 0.0965 0.069 Uiso 1 1 calc R . .
H10B H 1.2402 -0.1762 0.0655 0.069 Uiso 1 1 calc R . .
H10C H 1.2255 -0.1596 0.1573 0.069 Uiso 1 1 calc R . .
O10 O -0.7503(8) 0.3749(10) 0.0109(6) 0.042(3) Uani 1 1 d . . .
N9 N -0.8930(9) 0.3215(9) 0.3427(8) 0.026(3) Uani 1 1 d . . .
C11 C -0.8180(10) 0.3483(11) 0.2834(9) 0.022 Uani 1 1 d . . .
N10 N -0.8115(9) 0.3561(9) 0.0661(7) 0.022(3) Uani 1 1 d . . .
O11 O -0.4302(7) 0.4443(7) 0.0142(5) 0.020(2) Uani 1 1 d . . .
C12 C -0.8461(10) 0.3403(10) 0.2057(9) 0.022(3) Uani 1 1 d . . .
H12A H -0.9104 0.3161 0.1925 0.026 Uiso 1 1 calc R . .
C13 C -0.7785(10) 0.3685(9) 0.1464(8) 0.017(3) Uani 1 1 d . . .
O12 O -0.3356(8) 0.4137(8) 0.2902(5) 0.036 Uani 1 1 d D . .
C16 C -0.2646(9) 0.4483(9) 0.3240(6) 0.017(3) Uani 1 1 d D . .
C14 C -0.6776(10) 0.4066(10) 0.1640(8) 0.019(3) Uani 1 1 d . . .
N12 N -0.2075(8) 0.3903(9) 0.3710(6) 0.025(3) Uani 1 1 d D . .
N11 N -0.3884(8) 0.3216(8) 0.1295(7) 0.022 Uani 1 1 d . . .
H11A H -0.3726 0.2837 0.1693 0.026 Uiso 1 1 calc R . .
C15 C -0.3818(10) 0.2828(11) 0.0578(8) 0.021(3) Uani 1 1 d . . .
C17 C -0.2159(11) 0.5516(11) 0.3172(8) 0.032(4) Uani 1 1 d D . .
H17A H -0.2610 0.6041 0.3373 0.038 Uiso 1 1 calc R . .
H17B H -0.1993 0.5668 0.2621 0.038 Uiso 1 1 calc R . .
C18 C -0.1204(11) 0.5448(13) 0.3672(10) 0.044(5) Uani 1 1 d D . .
H18A H -0.0603 0.5551 0.3346 0.053 Uiso 1 1 calc R . .
H18B H -0.1212 0.5957 0.4091 0.053 Uiso 1 1 calc R . .
C19 C -0.1212(10) 0.4440(11) 0.4005(9) 0.035(4) Uani 1 1 d D . .
H19A H -0.0592 0.4084 0.3859 0.041 Uiso 1 1 calc R . .
H19B H -0.1243 0.4479 0.4582 0.041 Uiso 1 1 calc R . .
C20 C -0.2292(13) 0.2841(11) 0.3906(10) 0.049(5) Uani 1 1 d D . .
H20A H -0.2913 0.2636 0.3651 0.073 Uiso 1 1 calc R . .
H20B H -0.2362 0.2771 0.4472 0.073 Uiso 1 1 calc R . .
H20C H -0.1743 0.2419 0.3723 0.073 Uiso 1 1 calc R . .

loop_
_atom_site_aniso_label
_atom_site_aniso_U_11
_atom_site_aniso_U_22
_atom_site_aniso_U_33
_atom_site_aniso_U_23
_atom_site_aniso_U_13
_atom_site_aniso_U_12
Pb1 0.0169(2) 0.0260(3) 0.0114(3) 0.0021(2) -0.0001(2) -0.0034(2)
N1 0.022(6) 0.004(5) 0.015(5) -0.002(4) 0.002(5) 0.001(4)
O1 0.032(6) 0.062(8) 0.038(7) -0.008(7) -0.024(6) -0.005(6)
C1 0.020(6) 0.016(6) 0.019(7) 0.011(6) 0.000(6) 0.001(5)
Pb2 0.0201(3) 0.0154(2) 0.0125(3) -0.0007(2) -0.0002(2) -0.0030(2)
N2 0.018(5) 0.034(6) 0.011(5) 0.008(5) 0.004(5) -0.007(5)
C2 0.019(7) 0.018(6) 0.017(6) -0.001(6) -0.007(6) 0.000(6)
O2 0.018(5) 0.045(7) 0.047(7) -0.015(6) -0.001(5) -0.008(5)
O3 0.025(6) 0.060(8) 0.044(7) 0.006(6) 0.008(5) -0.008(6)
N3 0.028(6) 0.032(7) 0.020(6) -0.007(5) -0.001(5) -0.007(5)
C3 0.016(6) 0.021(7) 0.026(7) 0.000(6) -0.013(6) 0.001(6)
O4 0.033(7) 0.114(12) 0.013(5) 0.000(7) 0.005(5) -0.023(7)
C4 0.010(6) 0.018(6) 0.032(8) -0.008(6) -0.002(6) 0.001(5)
N4 0.030(7) 0.015(6) 0.029(7) -0.002(5) -0.010(6) 0.001(5)
C5 0.013(6) 0.014(6) 0.018(7) 0.010(5) 0.002(5) 0.002(5)
N5 0.016(5) 0.029(7) 0.028(7) 0.010(5) 0.007(5) -0.010(5)
O5 0.032(6) 0.025(5) 0.010(4) -0.005(4) -0.013(4) 0.014(4)
O6 0.032(6) 0.018(5) 0.038(6) 0.000(5) 0.004(5) 0.011(4)
C6 0.042(9) 0.037(9) 0.018(7) 0.002(7) -0.006(7) -0.012(8)
C7 0.031 0.031 0.031 0.000 0.000 0.000
O7 0.023(5) 0.049(7) 0.049(7) -0.019(6) 0.015(5) -0.018(5)
N6 0.021(6) 0.032(7) 0.024(6) -0.002(6) 0.001(5) 0.002(5)
C8 0.048(9) 0.021(7) 0.031(8) 0.006(6) 0.016(7) 0.018(7)
N8 0.010(5) 0.017(5) 0.014(5) 0.001(5) -0.001(4) 0.006(4)
O8 0.017(5) 0.068(8) 0.033(7) 0.000(6) 0.008(5) -0.005(5)
C9 0.028(8) 0.033(8) 0.055(11) 0.003(8) 0.012(8) 0.002(7)
N7 0.019(6) 0.043(7) 0.013(5) -0.007(5) 0.010(5) 0.000(5)
O9 0.015(5) 0.072(9) 0.031(6) -0.004(6) -0.003(5) -0.012(5)
C10 0.046 0.046 0.046 0.000 0.000 0.000
O10 0.028(6) 0.077(9) 0.021(6) 0.002(6) 0.001(5) -0.007(6)
N9 0.030(7) 0.016(6) 0.032(7) -0.002(5) -0.003(6) 0.001(5)
C11 0.022 0.022 0.022 0.000 0.000 0.000
N10 0.021(6) 0.022(6) 0.024(6) -0.009(5) -0.007(5) 0.010(5)
O11 0.033(5) 0.015(4) 0.011(4) 0.003(4) 0.001(4) 0.000(4)
C12 0.018(6) 0.016(6) 0.032(8) -0.005(6) -0.003(6) 0.009(5)
C13 0.020(6) 0.018(6) 0.012(6) -0.006(6) 0.000(6) 0.002(5)
O12 0.036 0.036 0.036 0.000 0.000 0.000
C16 0.025(7) 0.017(6) 0.010(6) -0.005(5) 0.001(5) -0.007(6)
C14 0.019(6) 0.020(6) 0.019(7) -0.007(5) -0.006(5) 0.011(5)
N12 0.021(6) 0.032(7) 0.022(6) 0.002(6) 0.000(5) -0.004(5)
N11 0.022 0.022 0.022 0.000 0.000 0.000
C15 0.018(7) 0.026(7) 0.018(7) -0.003(6) 0.006(6) -0.012(6)
C17 0.040(9) 0.025(7) 0.031(8) 0.000(7) -0.002(7) 0.001(7)
C18 0.024(8) 0.046(10) 0.062(12) -0.008(9) -0.018(9) -0.016(7)
C19 0.028(7) 0.025(7) 0.050(10) -0.013(8) -0.024(8) 0.005(6)
C20 0.063(12) 0.024(8) 0.059(11) 0.010(8) -0.012(10) 0.004(8)

_geom_special_details            
;
All esds (except the esd in the dihedral angle between two l.s. planes)
are estimated using the full covariance matrix. The cell esds are taken
into account individually in the estimation of esds in distances, angles
and torsion angles; correlations between esds in cell parameters are only
used when they are defined by crystal symmetry. An approximate (isotropic)
treatment of cell esds is used for estimating esds involving l.s. planes.
;

loop_
_geom_bond_atom_site_label_1
_geom_bond_atom_site_label_2
_geom_bond_distance
_geom_bond_site_symmetry_2
_geom_bond_publ_flag
Pb1 N2 2.342(10) . ?
Pb1 N3 2.389(12) 3_644 ?
Pb1 O5 2.405(9) . ?
Pb1 O5 2.503(9) 4_665 ?
N1 C2 1.354(16) . ?
N1 O5 1.365(13) 4_665 ?
N1 C1 1.397(17) . ?
O1 N4 1.203(17) . ?
C1 N2 1.280(17) . ?
C1 C5 1.430(17) . ?
Pb2 N11 2.296(11) . ?
Pb2 N7 2.357(11) . ?
Pb2 O11 2.417(9) . ?
Pb2 O11 2.502(9) 4_455 ?
N2 H2A 0.8600 . ?
C2 N3 1.278(17) . ?
C2 C3 1.456(19) . ?
O2 N4 1.216(16) . ?
O3 N5 1.225(14) . ?
N3 Pb1 2.389(12) 4_665 ?
N3 H3A 0.8600 . ?
C3 C4 1.36(2) . ?
C3 N4 1.432(17) . ?
O4 N5 1.237(16) . ?
C4 C5 1.405(18) . ?
C4 H4A 0.9300 . ?
C5 N5 1.408(17) . ?
O5 N1 1.365(13) 3_644 ?
O5 Pb1 2.503(9) 3_644 ?
O6 C6 1.232(18) . ?
C6 N6 1.348(19) . ?
C6 C9 1.49(2) . ?
C7 N6 1.466(19) . ?
C7 C8 1.50(2) . ?
C7 H7A 0.9700 . ?
C7 H7B 0.9700 . ?
O7 N9 1.225(15) . ?
N6 C10 1.45(2) . ?
C8 C9 1.55(2) . ?
C8 H8A 0.9700 . ?
C8 H8B 0.9700 . ?
N8 O11 1.353(13) 4_455 ?
N8 C15 1.373(17) 4_455 ?
N8 C14 1.413(16) . ?
O8 N9 1.244(16) . ?
C9 H9A 0.9700 . ?
C9 H9B 0.9700 . ?
N7 C14 1.271(17) . ?
N7 H7C 0.8600 . ?
O9 N10 1.222(14) . ?
C10 H10A 0.9600 . ?
C10 H10B 0.9600 . ?
C10 H10C 0.9600 . ?
O10 N10 1.251(15) . ?
N9 C11 1.445(19) . ?
C11 C12 1.36(2) . ?
C11 C15 1.453(19) 4_455 ?
N10 C13 1.426(17) . ?
O11 N8 1.353(13) 3_564 ?
O11 Pb2 2.502(9) 3_564 ?
C12 C13 1.384(19) . ?
C12 H12A 0.9300 . ?
C13 C14 1.447(18) . ?
O12 C16 1.183(15) . ?
C16 N12 1.327(17) . ?
C16 C17 1.503(19) . ?
N12 C19 1.424(17) . ?
N12 C20 1.461(19) . ?
N11 C15 1.309(18) . ?
N11 H11A 0.8600 . ?
C15 N8 1.373(17) 3_564 ?
C15 C11 1.453(19) 3_564 ?
C17 C18 1.51(2) . ?
C17 H17A 0.9700 . ?
C17 H17B 0.9700 . ?
C18 C19 1.44(2) . ?
C18 H18A 0.9700 . ?
C18 H18B 0.9700 . ?
C19 H19A 0.9700 . ?
C19 H19B 0.9700 . ?
C20 H20A 0.9600 . ?
C20 H20B 0.9600 . ?
C20 H20C 0.9600 . ?

loop_
_geom_angle_atom_site_label_1
_geom_angle_atom_site_label_2
_geom_angle_atom_site_label_3
_geom_angle
_geom_angle_site_symmetry_1
_geom_angle_site_symmetry_3
_geom_angle_publ_flag
N2 Pb1 N3 85.8(4) . 3_644 ?
N2 Pb1 O5 75.9(4) . . ?
N3 Pb1 O5 65.6(4) 3_644 . ?
N2 Pb1 O5 63.1(3) . 4_665 ?
N3 Pb1 O5 98.9(4) 3_644 4_665 ?
O5 Pb1 O5 137.4(3) . 4_665 ?
C2 N1 O5 117.3(10) . 4_665 ?
C2 N1 C1 127.1(11) . . ?
O5 N1 C1 115.5(10) 4_665 . ?
N2 C1 N1 115.5(11) . . ?
N2 C1 C5 128.9(13) . . ?
N1 C1 C5 115.6(12) . . ?
N11 Pb2 N7 88.5(4) . . ?
N11 Pb2 O11 66.2(4) . . ?
N7 Pb2 O11 74.9(3) . . ?
N11 Pb2 O11 92.2(3) . 4_455 ?
N7 Pb2 O11 62.8(3) . 4_455 ?
O11 Pb2 O11 133.1(3) . 4_455 ?
C1 N2 Pb1 127.8(9) . . ?
C1 N2 H2A 116.1 . . ?
Pb1 N2 H2A 116.1 . . ?
N3 C2 N1 118.8(12) . . ?
N3 C2 C3 126.4(12) . . ?
N1 C2 C3 114.8(12) . . ?
C2 N3 Pb1 120.7(9) . 4_665 ?
C2 N3 H3A 119.6 . . ?
Pb1 N3 H3A 119.6 4_665 . ?
C4 C3 N4 116.9(12) . . ?
C4 C3 C2 121.6(12) . . ?
N4 C3 C2 121.5(12) . . ?
C3 C4 C5 120.8(12) . . ?
C3 C4 H4A 119.6 . . ?
C5 C4 H4A 119.6 . . ?
O1 N4 O2 121.0(13) . . ?
O1 N4 C3 119.3(13) . . ?
O2 N4 C3 119.7(13) . . ?
C4 C5 N5 118.1(11) . . ?
C4 C5 C1 120.0(12) . . ?
N5 C5 C1 121.9(12) . . ?
O3 N5 O4 120.7(12) . . ?
O3 N5 C5 119.8(12) . . ?
O4 N5 C5 119.5(10) . . ?
N1 O5 Pb1 117.5(7) 3_644 . ?
N1 O5 Pb1 118.1(7) 3_644 3_644 ?
Pb1 O5 Pb1 124.4(4) . 3_644 ?
O6 C6 N6 124.5(14) . . ?
O6 C6 C9 127.1(15) . . ?
N6 C6 C9 108.4(14) . . ?
N6 C7 C8 103.9(11) . . ?
N6 C7 H7A 111.0 . . ?
C8 C7 H7A 111.0 . . ?
N6 C7 H7B 111.0 . . ?
C8 C7 H7B 111.0 . . ?
H7A C7 H7B 109.0 . . ?
C6 N6 C10 122.8(13) . . ?
C6 N6 C7 115.3(12) . . ?
C10 N6 C7 120.8(12) . . ?
C7 C8 C9 107.0(12) . . ?
C7 C8 H8A 110.3 . . ?
C9 C8 H8A 110.3 . . ?
C7 C8 H8B 110.3 . . ?
C9 C8 H8B 110.3 . . ?
H8A C8 H8B 108.6 . . ?
O11 N8 C15 117.5(10) 4_455 4_455 ?
O11 N8 C14 115.8(10) 4_455 . ?
C15 N8 