####################################################################### 
# 
# This file contains crystal structure data downloaded from the 
# Cambridge Structural Database (CSD) hosted by the Cambridge 
# Crystallographic Data Centre (CCDC).
# 
# Full information about CCDC data access policies and citation 
# guidelines are available at http://www.ccdc.cam.ac.uk/access/V1 
# 
# Audit and citation data items may have been added by the CCDC. 
# Please retain this information to preserve the provenance of 
# this file and to allow appropriate attribution of the data. 
# 
#######################################################################

data_lvni
_audit_block_doi                 10.5517/ccz8wfj
_database_code_depnum_ccdc_archive 'CCDC 902268'
loop_
_citation_id
_citation_doi
_citation_year
1 10.1002/zaac.201300185 2013
_audit_update_record             
;
2012-09-20 deposited with the CCDC.	2024-07-13 downloaded from the CCDC.
;
#TrackingRef 'web_deposit_cif_file_2_XiaoxiaLv_1348109467.3.cif'


_audit_creation_method           SHELXL-97
_chemical_name_systematic        
;
?
;
_chemical_name_common            ?
_chemical_melting_point          ?
_chemical_formula_moiety         ?
_chemical_formula_sum            'C47 H64 N5 Ni2 O25 P4'
_chemical_formula_weight         1340.33

loop_
_atom_type_symbol
_atom_type_description
_atom_type_scat_dispersion_real
_atom_type_scat_dispersion_imag
_atom_type_scat_source
C C 0.0033 0.0016 'International Tables Vol C Tables 4.2.6.8 and 6.1.1.4'
H H 0.0000 0.0000 'International Tables Vol C Tables 4.2.6.8 and 6.1.1.4'
N N 0.0061 0.0033 'International Tables Vol C Tables 4.2.6.8 and 6.1.1.4'
O O 0.0106 0.0060 'International Tables Vol C Tables 4.2.6.8 and 6.1.1.4'
P P 0.1023 0.0942 'International Tables Vol C Tables 4.2.6.8 and 6.1.1.4'
Ni Ni 0.3393 1.1124 'International Tables Vol C Tables 4.2.6.8 and 6.1.1.4'

_symmetry_cell_setting           Orthorhombic
_symmetry_space_group_name_H-M   P2(1)2(1)2

loop_
_symmetry_equiv_pos_as_xyz
'x, y, z'
'-x, -y, z'
'-x+1/2, y+1/2, -z'
'x+1/2, -y+1/2, -z'

_cell_length_a                   26.570(6)
_cell_length_b                   12.472(3)
_cell_length_c                   18.622(4)
_cell_angle_alpha                90.00
_cell_angle_beta                 90.00
_cell_angle_gamma                90.00
_cell_volume                     6171(2)
_cell_formula_units_Z            4
_cell_measurement_temperature    296(2)
_cell_measurement_reflns_used    ?
_cell_measurement_theta_min      ?
_cell_measurement_theta_max      ?

_exptl_crystal_description       BLOCK
_exptl_crystal_colour            green
_exptl_crystal_size_max          0.18
_exptl_crystal_size_mid          0.12
_exptl_crystal_size_min          0.06
_exptl_crystal_density_meas      ?
_exptl_crystal_density_diffrn    1.443
_exptl_crystal_density_method    'not measured'
_exptl_crystal_F_000             2788
_exptl_absorpt_coefficient_mu    0.795
_exptl_absorpt_correction_type   multi-scan
_exptl_absorpt_correction_T_min  0.8701
_exptl_absorpt_correction_T_max  0.9538
_exptl_absorpt_process_details   sadabs

_exptl_special_details           
;
?
;

_diffrn_ambient_temperature      296(2)
_diffrn_radiation_wavelength     0.71073
_diffrn_radiation_type           MoK\a
_diffrn_radiation_source         'fine-focus sealed tube'
_diffrn_radiation_monochromator  graphite
_diffrn_measurement_device_type  ?
_diffrn_measurement_method       ?
_diffrn_detector_area_resol_mean ?
_diffrn_standards_number         ?
_diffrn_standards_interval_count ?
_diffrn_standards_interval_time  ?
_diffrn_standards_decay_%        ?
_diffrn_reflns_number            28353
_diffrn_reflns_av_R_equivalents  0.1863
_diffrn_reflns_av_sigmaI/netI    0.3794
_diffrn_reflns_limit_h_min       -34
_diffrn_reflns_limit_h_max       33
_diffrn_reflns_limit_k_min       -16
_diffrn_reflns_limit_k_max       15
_diffrn_reflns_limit_l_min       -19
_diffrn_reflns_limit_l_max       24
_diffrn_reflns_theta_min         1.88
_diffrn_reflns_theta_max         27.36
_reflns_number_total             13798
_reflns_number_gt                4388
_reflns_threshold_expression     >2sigma(I)

_computing_data_collection       'BRUKER SMART'
_computing_cell_refinement       'BRUKER SMART'
_computing_data_reduction        'BRUKER SAINT'
_computing_structure_solution    'SHELXS-97 (Sheldrick, 1990)'
_computing_structure_refinement  'SHELXL-97 (Sheldrick, 1997)'
_computing_molecular_graphics    'BRUKER SHELXTL'
_computing_publication_material  'BRUKER SHELXTL'

_refine_special_details          
;
Refinement of F^2^ against ALL reflections. The weighted R-factor wR and
goodness of fit S are based on F^2^, conventional R-factors R are based
on F, with F set to zero for negative F^2^. The threshold expression of
F^2^ > 2sigma(F^2^) is used only for calculating R-factors(gt) etc. and is
not relevant to the choice of reflections for refinement. R-factors based
on F^2^ are statistically about twice as large as those based on F, and R-
factors based on ALL data will be even larger.
;

_refine_ls_structure_factor_coef Fsqd
_refine_ls_matrix_type           full
_refine_ls_weighting_scheme      calc
_refine_ls_weighting_details     
'calc w=1/[\s^2^(Fo^2^)+(0.0117P)^2^+0.0000P] where P=(Fo^2^+2Fc^2^)/3'
_atom_sites_solution_primary     direct
_atom_sites_solution_secondary   difmap
_atom_sites_solution_hydrogens   geom
_refine_ls_hydrogen_treatment    CONSTR
_refine_ls_extinction_method     none
_refine_ls_extinction_coef       ?
_refine_ls_abs_structure_details 'Flack H D (1983), Acta Cryst. A39, 876-881'
_refine_ls_abs_structure_Flack   0.00(3)
_refine_ls_number_reflns         13798
_refine_ls_number_parameters     757
_refine_ls_number_restraints     42
_refine_ls_R_factor_all          0.2828
_refine_ls_R_factor_gt           0.0905
_refine_ls_wR_factor_ref         0.2083
_refine_ls_wR_factor_gt          0.1495
_refine_ls_goodness_of_fit_ref   0.961
_refine_ls_restrained_S_all      0.960
_refine_ls_shift/su_max          0.001
_refine_ls_shift/su_mean         0.000

loop_
_atom_site_label
_atom_site_type_symbol
_atom_site_fract_x
_atom_site_fract_y
_atom_site_fract_z
_atom_site_U_iso_or_equiv
_atom_site_adp_type
_atom_site_occupancy
_atom_site_symmetry_multiplicity
_atom_site_calc_flag
_atom_site_refinement_flags
_atom_site_disorder_assembly
_atom_site_disorder_group
Ni1 Ni 0.78780(5) 0.49571(11) 0.54641(7) 0.0301(4) Uani 1 1 d . . .
Ni2 Ni 0.83399(6) -0.03875(11) 1.03333(8) 0.0402(5) Uani 1 1 d . . .
P1 P 0.90057(16) -0.2177(3) 0.93692(19) 0.0507(11) Uani 1 1 d . . .
P2 P 0.84045(15) -0.6489(3) 1.1291(2) 0.0472(10) Uani 1 1 d . . .
P3 P 0.84081(15) 0.2353(2) 0.34021(19) 0.0426(9) Uani 1 1 d . . .
P4 P 0.86751(15) -0.1209(3) 0.5993(2) 0.0460(10) Uani 1 1 d . . .
N1 N 0.7886(4) 0.5879(7) 0.4501(5) 0.033(2) Uani 1 1 d . . .
N2 N 0.7961(4) 0.4022(7) 0.6407(5) 0.031(3) Uani 1 1 d . . .
N3 N 0.8270(4) 0.0665(7) 0.9451(5) 0.036(2) Uani 1 1 d . . .
N4 N 0.8364(4) -0.1365(7) 1.1247(5) 0.038(3) Uani 1 1 d . . .
N5 N 0.8662(3) 0.4879(7) 0.5367(5) 0.031(2) Uani 1 1 d . . .
O1 O 0.8911(3) -0.1200(6) 0.9832(4) 0.048(2) Uani 1 1 d . . .
O1W O 0.7688(3) 0.3562(5) 0.4883(4) 0.039(2) Uani 1 1 d . . .
H1WA H 0.7826 0.3835 0.5252 0.046 Uiso 1 1 d R . .
H1WB H 0.7966 0.3283 0.4758 0.046 Uiso 1 1 d R . .
O2 O 0.9210(4) -0.1793(8) 0.8619(5) 0.073(3) Uani 1 1 d . . .
H2A H 0.8995 -0.1430 0.8418 0.109 Uiso 1 1 calc R . .
O2W O 0.7117(3) 0.5057(5) 0.5634(3) 0.0394(19) Uani 1 1 d . . .
H2WA H 0.6918 0.5215 0.5975 0.047 Uiso 1 1 d R . .
H2WB H 0.6960 0.4734 0.5300 0.047 Uiso 1 1 d R . .
O3 O 0.8534(3) -0.2880(7) 0.9282(5) 0.066(3) Uani 1 1 d . . .
O3W O 0.7921(3) 0.6327(5) 0.6112(3) 0.033(2) Uani 1 1 d . . .
H3WA H 0.7673 0.6754 0.6080 0.040 Uiso 1 1 d R . .
H3WB H 0.8167 0.6761 0.6084 0.040 Uiso 1 1 d R . .
O4 O 0.8160(4) -0.5845(6) 1.1926(4) 0.053(3) Uani 1 1 d . . .
H4A H 0.8194 -0.6182 1.2301 0.079 Uiso 1 1 calc R . .
O4W O 0.8889(3) 0.0642(5) 1.0800(4) 0.049(3) Uani 1 1 d . . .
H4WA H 0.8771 0.0582 1.0377 0.059 Uiso 1 1 d R . .
H4WB H 0.8846 0.1041 1.1165 0.059 Uiso 1 1 d R . .
O5 O 0.8365(4) -0.7706(5) 1.1448(4) 0.051(2) Uani 1 1 d . . .
O5W O 0.7810(3) -0.1429(5) 0.9896(4) 0.051(2) Uani 1 1 d . . .
H5WA H 0.7877 -0.1791 0.9521 0.062 Uiso 1 1 d R . .
H5WB H 0.7562 -0.1202 0.9650 0.062 Uiso 1 1 d R . .
O6 O 0.8136(3) -0.6145(6) 1.0604(5) 0.061(3) Uani 1 1 d . . .
O6W O 0.7801(3) 0.0578(6) 1.0871(4) 0.053(2) Uani 1 1 d . . .
H6WA H 0.7518 0.0278 1.0804 0.064 Uiso 1 1 d R . .
H6WB H 0.7892 -0.0065 1.0950 0.064 Uiso 1 1 d R . .
O7 O 0.8274(3) 0.1582(6) 0.2758(4) 0.052(3) Uani 1 1 d . . .
H7A H 0.8322 0.1895 0.2376 0.078 Uiso 1 1 calc R . .
O7W O 0.9533(3) 0.0536(7) 0.9596(6) 0.083(3) Uani 1 1 d U . .
O8 O 0.8400(4) 0.3534(6) 0.3178(4) 0.055(3) Uani 1 1 d . . .
O8W O 0.7031(4) 0.0721(8) 0.0018(6) 0.112(4) Uani 1 1 d U . .
O9 O 0.8071(3) 0.2090(6) 0.4032(4) 0.043(2) Uani 1 1 d . . .
O9W O 0.7842(5) 0.8486(11) 0.7467(7) 0.159(6) Uani 1 1 d U . .
O10 O 0.8736(3) -0.2372(6) 0.6194(4) 0.052(2) Uani 1 1 d . . .
O10W O 0.9648(8) 0.1627(18) 0.8383(10) 0.269(11) Uani 1 1 d U . .
O11 O 0.8597(4) -0.0521(7) 0.6691(5) 0.073(3) Uani 1 1 d . . .
H11 H 0.8417 -0.0850 0.6973 0.109 Uiso 1 1 calc R . .
O11W O 0.8036(8) 0.6562(14) 0.8078(8) 0.221(9) Uani 1 1 d U . .
O12 O 0.8255(3) -0.1008(6) 0.5481(4) 0.053(2) Uani 1 1 d . . .
O12W O 0.9175(10) 0.7006(12) 0.7380(8) 0.273(12) Uani 1 1 d U . .
O13W O 0.9397(8) 0.001(2) 0.7633(11) 0.296(12) Uani 1 1 d U . .
C1 C 0.8165(5) 0.6777(9) 0.4479(7) 0.045(4) Uani 1 1 d . . .
H1 H 0.8291 0.7032 0.4912 0.054 Uiso 1 1 calc R . .
C2 C 0.8278(5) 0.7338(9) 0.3883(6) 0.044(3) Uani 1 1 d . . .
H2 H 0.8458 0.7976 0.3915 0.052 Uiso 1 1 calc R . .
C3 C 0.8123(4) 0.6960(9) 0.3231(6) 0.033(3) Uani 1 1 d . . .
C4 C 0.7848(5) 0.5988(9) 0.3229(6) 0.041(3) Uani 1 1 d . . .
H4 H 0.7743 0.5687 0.2798 0.049 Uiso 1 1 calc R . .
C5 C 0.7741(5) 0.5503(10) 0.3858(7) 0.045(4) Uani 1 1 d . . .
H5 H 0.7556 0.4871 0.3845 0.054 Uiso 1 1 calc R . .
C6 C 0.7825(5) 0.4345(9) 0.7040(7) 0.045(3) Uani 1 1 d . . .
H6 H 0.7675 0.5016 0.7080 0.053 Uiso 1 1 calc R . .
C7 C 0.7892(5) 0.3741(9) 0.7667(6) 0.048(4) Uani 1 1 d . . .
H7 H 0.7787 0.4012 0.8108 0.057 Uiso 1 1 calc R . .
C8 C 0.8112(5) 0.2749(9) 0.7627(7) 0.042(4) Uani 1 1 d . . .
C9 C 0.8265(5) 0.2407(10) 0.6953(6) 0.049(4) Uani 1 1 d . . .
H9 H 0.8423 0.1746 0.6894 0.058 Uiso 1 1 calc R . .
C10 C 0.8178(5) 0.3068(10) 0.6371(7) 0.048(4) Uani 1 1 d . . .
H10 H 0.8280 0.2825 0.5922 0.058 Uiso 1 1 calc R . .
C11 C 0.8184(5) 0.2034(9) 0.8252(6) 0.041(4) Uani 1 1 d . . .
C12 C 0.8199(5) 0.2403(9) 0.8944(7) 0.053(4) Uani 1 1 d . . .
H12 H 0.8183 0.3138 0.9024 0.064 Uiso 1 1 calc R . .
C13 C 0.8236(5) 0.1717(9) 0.9533(7) 0.056(4) Uani 1 1 d . . .
H13 H 0.8238 0.2005 0.9993 0.067 Uiso 1 1 calc R . .
C14 C 0.8259(5) 0.0313(9) 0.8759(7) 0.052(4) Uani 1 1 d . . .
H14 H 0.8296 -0.0418 0.8678 0.062 Uiso 1 1 calc R . .
C15 C 0.8198(5) 0.0944(9) 0.8195(6) 0.053(4) Uani 1 1 d . . .
H15 H 0.8162 0.0634 0.7744 0.063 Uiso 1 1 calc R . .
C16 C 0.8384(5) -0.0870(9) 1.1904(7) 0.041(3) Uani 1 1 d . . .
H16 H 0.8436 -0.0133 1.1919 0.049 Uiso 1 1 calc R . .
C17 C 0.8332(5) -0.1396(9) 1.2524(6) 0.040(3) Uani 1 1 d . . .
H17 H 0.8367 -0.1024 1.2954 0.048 Uiso 1 1 calc R . .
C18 C 0.8226(5) -0.2489(8) 1.2541(6) 0.034(3) Uani 1 1 d . . .
C19 C 0.8219(5) -0.2960(9) 1.1864(6) 0.045(4) Uani 1 1 d . . .
H19 H 0.8159 -0.3693 1.1828 0.054 Uiso 1 1 calc R . .
C20 C 0.8296(5) -0.2396(8) 1.1262(6) 0.042(3) Uani 1 1 d . . .
H20 H 0.8302 -0.2765 1.0828 0.050 Uiso 1 1 calc R . .
C21 C 0.8920(4) 0.4670(8) 0.4761(7) 0.034(3) Uani 1 1 d . . .
H21 H 0.8736 0.4491 0.4352 0.041 Uiso 1 1 calc R . .
C22 C 0.9430(4) 0.4704(8) 0.4703(6) 0.036(3) Uani 1 1 d . . .
H22 H 0.9586 0.4551 0.4268 0.043 Uiso 1 1 calc R . .
C23 C 0.9714(4) 0.4969(9) 0.5300(6) 0.041(3) Uani 1 1 d . . .
C24 C 0.9449(5) 0.5206(10) 0.5915(7) 0.045(4) Uani 1 1 d . . .
H24 H 0.9621 0.5424 0.6325 0.054 Uiso 1 1 calc R . .
C25 C 0.8942(5) 0.5126(10) 0.5931(6) 0.043(3) Uani 1 1 d . . .
H25 H 0.8780 0.5253 0.6365 0.052 Uiso 1 1 calc R . .
C26 C 0.9517(5) -0.2945(10) 0.9686(7) 0.055(4) Uani 1 1 d . . .
H26A H 0.9588 -0.3501 0.9335 0.066 Uiso 1 1 calc R . .
H26B H 0.9811 -0.2484 0.9710 0.066 Uiso 1 1 calc R . .
C27 C 0.9446(5) -0.3479(9) 1.0421(8) 0.053(4) Uani 1 1 d . . .
C28 C 0.9282(4) -0.4570(9) 1.0507(6) 0.034(3) Uani 1 1 d . . .
C29 C 0.9228(5) -0.5047(10) 1.1189(7) 0.048(4) Uani 1 1 d . . .
C30 C 0.9345(5) -0.4464(10) 1.1794(7) 0.047(4) Uani 1 1 d . . .
C31 C 0.9524(5) -0.3399(11) 1.1762(7) 0.053(4) Uani 1 1 d . . .
H31 H 0.9603 -0.3019 1.2177 0.064 Uiso 1 1 calc R . .
C32 C 0.9579(5) -0.2918(10) 1.1052(8) 0.052(4) Uani 1 1 d . . .
C33 C 0.9762(5) -0.1743(9) 1.1060(7) 0.059(4) Uani 1 1 d . . .
H33A H 1.0048 -0.1670 1.0749 0.088 Uiso 1 1 calc R . .
H33B H 0.9855 -0.1546 1.1540 0.088 Uiso 1 1 calc R . .
H33C H 0.9497 -0.1282 1.0896 0.088 Uiso 1 1 calc R . .
C34 C 0.9304(5) -0.4864(11) 1.2567(7) 0.075(5) Uani 1 1 d . . .
H34A H 0.9474 -0.4375 1.2882 0.113 Uiso 1 1 calc R . .
H34B H 0.9456 -0.5561 1.2605 0.113 Uiso 1 1 calc R . .
H34C H 0.8956 -0.4909 1.2702 0.113 Uiso 1 1 calc R . .
C35 C 0.9089(5) -0.6175(10) 1.1272(7) 0.058(4) Uani 1 1 d . . .
H35A H 0.9237 -0.6436 1.1715 0.069 Uiso 1 1 calc R . .
H35B H 0.9240 -0.6574 1.0881 0.069 Uiso 1 1 calc R . .
C36 C 0.9196(5) -0.5230(10) 0.9845(7) 0.063(4) Uani 1 1 d . . .
H36A H 0.9488 -0.5658 0.9749 0.095 Uiso 1 1 calc R . .
H36B H 0.9133 -0.4765 0.9444 0.095 Uiso 1 1 calc R . .
H36C H 0.8911 -0.5690 0.9917 0.095 Uiso 1 1 calc R . .
C37 C 0.9060(4) 0.2061(8) 0.3653(6) 0.038(3) Uani 1 1 d . . .
H37A H 0.9273 0.2199 0.3240 0.046 Uiso 1 1 calc R . .
H37B H 0.9160 0.2557 0.4028 0.046 Uiso 1 1 calc R . .
C38 C 0.9167(4) 0.0910(9) 0.3919(7) 0.037(3) Uani 1 1 d . . .
C39 C 0.9134(4) 0.0652(8) 0.4652(7) 0.030(3) Uani 1 1 d . . .
C40 C 0.9288(5) -0.0403(11) 0.4866(8) 0.049(4) Uani 1 1 d . . .
C41 C 0.9408(5) -0.1148(10) 0.4351(9) 0.053(4) Uani 1 1 d . . .
C42 C 0.9442(5) -0.0860(10) 0.3639(9) 0.054(4) Uani 1 1 d . . .
H42 H 0.9545 -0.1372 0.3306 0.065 Uiso 1 1 calc R . .
C43 C 0.9327(4) 0.0169(10) 0.3399(7) 0.039(3) Uani 1 1 d . . .
C44 C 0.9383(5) 0.0453(11) 0.2643(7) 0.064(4) Uani 1 1 d . . .
H44A H 0.9098 0.0868 0.2492 0.096 Uiso 1 1 calc R . .
H44B H 0.9404 -0.0188 0.2360 0.096 Uiso 1 1 calc R . .
H44C H 0.9684 0.0868 0.2580 0.096 Uiso 1 1 calc R . .
C45 C 0.9574(5) -0.2285(9) 0.4532(8) 0.074(5) Uani 1 1 d . . .
H45A H 0.9897 -0.2265 0.4763 0.110 Uiso 1 1 calc R . .
H45B H 0.9598 -0.2698 0.4098 0.110 Uiso 1 1 calc R . .
H45C H 0.9332 -0.2608 0.4847 0.110 Uiso 1 1 calc R . .
C46 C 0.9271(5) -0.0652(10) 0.5650(8) 0.059(4) Uani 1 1 d . . .
H46A H 0.9343 0.0001 0.5913 0.071 Uiso 1 1 calc R . .
H46B H 0.9538 -0.1158 0.5756 0.071 Uiso 1 1 calc R . .
C47 C 0.8975(5) 0.1465(9) 0.5206(7) 0.053(4) Uani 1 1 d . . .
H47A H 0.8710 0.1172 0.5495 0.079 Uiso 1 1 calc R . .
H47B H 0.8857 0.2101 0.4969 0.079 Uiso 1 1 calc R . .
H47C H 0.9257 0.1641 0.5507 0.079 Uiso 1 1 calc R . .

loop_
_atom_site_aniso_label
_atom_site_aniso_U_11
_atom_site_aniso_U_22
_atom_site_aniso_U_33
_atom_site_aniso_U_23
_atom_site_aniso_U_13
_atom_site_aniso_U_12
Ni1 0.0332(9) 0.0296(7) 0.0276(9) 0.0022(7) -0.0007(8) -0.0004(8)
Ni2 0.0512(11) 0.0369(8) 0.0325(10) 0.0054(7) -0.0022(9) -0.0007(9)
P1 0.067(3) 0.047(2) 0.039(2) 0.0050(18) -0.001(2) 0.006(2)
P2 0.056(3) 0.0373(19) 0.049(3) 0.0001(17) -0.003(2) -0.006(2)
P3 0.051(3) 0.0339(18) 0.043(2) 0.0034(16) 0.002(2) 0.0017(18)
P4 0.057(3) 0.041(2) 0.040(2) -0.0005(18) -0.004(2) 0.0043(19)
N1 0.034(6) 0.038(5) 0.026(6) 0.007(5) -0.001(6) 0.003(5)
N2 0.046(7) 0.024(5) 0.024(6) 0.011(4) 0.008(5) -0.002(5)
N3 0.053(7) 0.044(6) 0.011(5) 0.005(4) 0.004(5) 0.010(6)
N4 0.050(7) 0.045(6) 0.020(6) 0.008(5) -0.005(6) 0.002(6)
N5 0.037(6) 0.028(5) 0.028(6) 0.004(5) -0.002(5) 0.006(5)
O1 0.066(7) 0.029(4) 0.047(6) -0.008(4) 0.002(5) 0.010(4)
O1W 0.044(6) 0.033(4) 0.038(5) -0.011(4) -0.010(4) 0.000(4)
O2 0.107(9) 0.063(7) 0.047(7) 0.009(5) 0.032(6) 0.007(6)
O2W 0.031(5) 0.052(4) 0.035(5) -0.005(4) 0.003(4) 0.009(5)
O3 0.058(7) 0.066(6) 0.073(7) 0.005(5) -0.021(5) -0.020(5)
O3W 0.047(5) 0.032(4) 0.021(4) 0.001(3) 0.002(4) -0.006(4)
O4 0.068(7) 0.037(5) 0.054(6) -0.007(4) -0.013(6) 0.012(5)
O4W 0.087(7) 0.038(5) 0.023(5) -0.009(4) -0.012(5) -0.014(5)
O5 0.066(7) 0.038(5) 0.049(6) 0.001(4) -0.007(5) -0.006(5)
O5W 0.066(7) 0.041(5) 0.047(6) -0.010(4) -0.014(5) 0.001(5)
O6 0.063(7) 0.057(5) 0.064(7) 0.013(5) -0.023(5) 0.000(5)
O6W 0.046(6) 0.056(5) 0.057(6) 0.004(4) 0.003(5) 0.009(5)
O7 0.085(7) 0.042(5) 0.029(5) -0.015(4) -0.013(5) -0.011(5)
O7W 0.068(7) 0.084(7) 0.095(8) -0.008(6) 0.013(6) -0.011(6)
O8 0.080(7) 0.040(5) 0.046(6) 0.010(4) 0.004(5) -0.004(5)
O8W 0.085(9) 0.098(8) 0.155(11) -0.032(7) -0.052(8) 0.026(7)
O9 0.049(6) 0.033(4) 0.046(5) 0.009(4) 0.022(4) -0.004(4)
O9W 0.134(12) 0.153(12) 0.191(15) -0.042(10) 0.062(11) -0.019(11)
O10 0.050(6) 0.048(5) 0.056(6) 0.001(5) -0.012(5) -0.004(5)
O10W 0.24(2) 0.39(3) 0.176(18) 0.10(2) -0.025(14) -0.10(2)
O11 0.079(9) 0.065(6) 0.073(8) -0.019(6) 0.007(6) -0.014(6)
O11W 0.28(2) 0.228(18) 0.158(15) -0.042(13) -0.055(14) -0.062(18)
O12 0.045(6) 0.066(5) 0.047(6) 0.014(5) -0.010(5) -0.001(5)
O12W 0.53(4) 0.128(12) 0.159(16) -0.045(11) -0.142(19) 0.152(18)
O13W 0.24(2) 0.41(3) 0.24(2) -0.06(3) -0.064(16) 0.13(2)
C1 0.057(10) 0.042(7) 0.036(9) 0.000(7) -0.004(7) -0.008(7)
C2 0.065(10) 0.045(7) 0.021(7) -0.005(6) 0.004(8) -0.019(8)
C3 0.034(8) 0.027(6) 0.037(8) -0.004(6) 0.003(6) 0.008(6)
C4 0.048(9) 0.045(7) 0.02