####################################################################### 
# 
# This file contains crystal structure data downloaded from the 
# Cambridge Structural Database (CSD) hosted by the Cambridge 
# Crystallographic Data Centre (CCDC).
# 
# Full information about CCDC data access policies and citation 
# guidelines are available at http://www.ccdc.cam.ac.uk/access/V1 
# 
# Audit and citation data items may have been added by the CCDC. 
# Please retain this information to preserve the provenance of 
# this file and to allow appropriate attribution of the data. 
# 
#######################################################################

data_lvco
_audit_block_doi                 10.5517/ccz8wdh
_database_code_depnum_ccdc_archive 'CCDC 902267'
loop_
_citation_id
_citation_doi
_citation_year
1 10.1002/asia.201301327 2014
2 10.1002/zaac.201300185 2013
_audit_update_record             
;
2012-09-20 deposited with the CCDC.	2024-07-13 downloaded from the CCDC.
;
#TrackingRef 'web_deposit_cif_file_1_XiaoxiaLv_1348109467.2.cif'


_audit_creation_method           SHELXL-97
_chemical_name_systematic        
;
?
;
_chemical_name_common            ?
_chemical_melting_point          ?
_chemical_formula_moiety         ?
_chemical_formula_sum            'C16 H20 Co N O6 P2'
_chemical_formula_weight         443.20

loop_
_atom_type_symbol
_atom_type_description
_atom_type_scat_dispersion_real
_atom_type_scat_dispersion_imag
_atom_type_scat_source
C C 0.0033 0.0016 'International Tables Vol C Tables 4.2.6.8 and 6.1.1.4'
H H 0.0000 0.0000 'International Tables Vol C Tables 4.2.6.8 and 6.1.1.4'
N N 0.0061 0.0033 'International Tables Vol C Tables 4.2.6.8 and 6.1.1.4'
O O 0.0106 0.0060 'International Tables Vol C Tables 4.2.6.8 and 6.1.1.4'
P P 0.1023 0.0942 'International Tables Vol C Tables 4.2.6.8 and 6.1.1.4'
Co Co 0.3494 0.9721 'International Tables Vol C Tables 4.2.6.8 and 6.1.1.4'

_symmetry_cell_setting           Triclinic
_symmetry_space_group_name_H-M   p-1

loop_
_symmetry_equiv_pos_as_xyz
'x, y, z'
'-x, -y, -z'

_cell_length_a                   9.02480(10)
_cell_length_b                   12.1416(2)
_cell_length_c                   12.1644(2)
_cell_angle_alpha                65.8380(10)
_cell_angle_beta                 73.6520(10)
_cell_angle_gamma                82.0220(10)
_cell_volume                     1166.55(3)
_cell_formula_units_Z            2
_cell_measurement_temperature    293(2)
_cell_measurement_reflns_used    ?
_cell_measurement_theta_min      ?
_cell_measurement_theta_max      ?

_exptl_crystal_description       block
_exptl_crystal_colour            brown
_exptl_crystal_size_max          0.40
_exptl_crystal_size_mid          0.30
_exptl_crystal_size_min          0.25
_exptl_crystal_density_meas      ?
_exptl_crystal_density_diffrn    1.262
_exptl_crystal_density_method    'not measured'
_exptl_crystal_F_000             456
_exptl_absorpt_coefficient_mu    0.899
_exptl_absorpt_correction_type   multi-scan
_exptl_absorpt_correction_T_min  0.7137
_exptl_absorpt_correction_T_max  0.8055
_exptl_absorpt_process_details   saddabs

_exptl_special_details           
;
?
;

_diffrn_ambient_temperature      293(2)
_diffrn_radiation_wavelength     0.71073
_diffrn_radiation_type           MoK\a
_diffrn_radiation_source         'fine-focus sealed tube'
_diffrn_radiation_monochromator  graphite
_diffrn_measurement_device_type  ?
_diffrn_measurement_method       ?
_diffrn_detector_area_resol_mean ?
_diffrn_standards_number         ?
_diffrn_standards_interval_count ?
_diffrn_standards_interval_time  ?
_diffrn_standards_decay_%        ?
_diffrn_reflns_number            17487
_diffrn_reflns_av_R_equivalents  0.0339
_diffrn_reflns_av_sigmaI/netI    0.0409
_diffrn_reflns_limit_h_min       -11
_diffrn_reflns_limit_h_max       11
_diffrn_reflns_limit_k_min       -15
_diffrn_reflns_limit_k_max       15
_diffrn_reflns_limit_l_min       -15
_diffrn_reflns_limit_l_max       15
_diffrn_reflns_theta_min         1.84
_diffrn_reflns_theta_max         27.39
_reflns_number_total             5266
_reflns_number_gt                3959
_reflns_threshold_expression     >2sigma(I)

_computing_data_collection       'bruker smart'
_computing_cell_refinement       'bruker smart'
_computing_data_reduction        'bruker saint'
_computing_structure_solution    'SHELXS-97 (Sheldrick, 1990)'
_computing_structure_refinement  'SHELXL-97 (Sheldrick, 1997)'
_computing_molecular_graphics    'bruker shelxtl'
_computing_publication_material  'bruker shelxtl'

_refine_special_details          
;
Refinement of F^2^ against ALL reflections. The weighted R-factor wR and
goodness of fit S are based on F^2^, conventional R-factors R are based
on F, with F set to zero for negative F^2^. The threshold expression of
F^2^ > 2sigma(F^2^) is used only for calculating R-factors(gt) etc. and is
not relevant to the choice of reflections for refinement. R-factors based
on F^2^ are statistically about twice as large as those based on F, and R-
factors based on ALL data will be even larger.
;

_refine_ls_structure_factor_coef Fsqd
_refine_ls_matrix_type           full
_refine_ls_weighting_scheme      calc
_refine_ls_weighting_details     
'calc w=1/[\s^2^(Fo^2^)+(0.0427P)^2^+0.0000P] where P=(Fo^2^+2Fc^2^)/3'
_atom_sites_solution_primary     direct
_atom_sites_solution_secondary   difmap
_atom_sites_solution_hydrogens   geom
_refine_ls_hydrogen_treatment    CONSTR
_refine_ls_extinction_method     none
_refine_ls_extinction_coef       ?
_refine_ls_number_reflns         5266
_refine_ls_number_parameters     235
_refine_ls_number_restraints     0
_refine_ls_R_factor_all          0.0481
_refine_ls_R_factor_gt           0.0338
_refine_ls_wR_factor_ref         0.0856
_refine_ls_wR_factor_gt          0.0811
_refine_ls_goodness_of_fit_ref   1.005
_refine_ls_restrained_S_all      1.005
_refine_ls_shift/su_max          0.000
_refine_ls_shift/su_mean         0.000

loop_
_atom_site_label
_atom_site_type_symbol
_atom_site_fract_x
_atom_site_fract_y
_atom_site_fract_z
_atom_site_U_iso_or_equiv
_atom_site_adp_type
_atom_site_occupancy
_atom_site_symmetry_multiplicity
_atom_site_calc_flag
_atom_site_refinement_flags
_atom_site_disorder_assembly
_atom_site_disorder_group
Co1 Co 0.83788(3) -0.08563(3) 0.18996(2) 0.03293(10) Uani 1 1 d . . .
N1 N 0.73452(18) -0.24631(16) 0.30275(16) 0.0401(4) Uani 1 1 d . . .
P1 P 0.84969(6) 0.03354(6) 0.38463(5) 0.03840(15) Uani 1 1 d . . .
O1 O 0.79437(16) 0.00331(16) 0.29480(14) 0.0515(4) Uani 1 1 d . . .
O2 O 1.01311(15) 0.07660(14) 0.33902(13) 0.0435(4) Uani 1 1 d . . .
O3 O 0.83219(15) -0.08230(13) 0.50930(14) 0.0458(4) Uani 1 1 d . . .
H3A H 0.8828 -0.0750 0.5523 0.069 Uiso 1 1 calc R . .
C1 C 0.7966(2) 0.2999(2) 0.6577(2) 0.0437(5) Uani 1 1 d . . .
C2 C 0.8562(3) 0.3489(2) 0.5301(2) 0.0501(6) Uani 1 1 d . . .
H2A H 0.9143 0.4180 0.4958 0.060 Uiso 1 1 calc R . .
C3 C 0.8342(3) 0.3010(2) 0.4516(2) 0.0456(5) Uani 1 1 d . . .
C4 C 0.7453(2) 0.1974(2) 0.50237(19) 0.0368(5) Uani 1 1 d . . .
C5 C 0.6845(2) 0.14335(19) 0.63217(18) 0.0341(5) Uani 1 1 d . . .
C6 C 0.7126(2) 0.19400(19) 0.70953(18) 0.0352(5) Uani 1 1 d . . .
C7 C 0.8230(3) 0.3636(3) 0.7344(3) 0.0647(7) Uani 1 1 d . . .
H7A H 0.8832 0.4338 0.6807 0.097 Uiso 1 1 calc R . .
H7B H 0.8773 0.3099 0.7944 0.097 Uiso 1 1 calc R . .
H7C H 0.7253 0.3875 0.7766 0.097 Uiso 1 1 calc R . .
C8 C 0.9051(4) 0.3624(3) 0.3124(2) 0.0744(8) Uani 1 1 d . . .
H8A H 0.9608 0.4315 0.2963 0.112 Uiso 1 1 calc R . .
H8B H 0.8246 0.3879 0.2690 0.112 Uiso 1 1 calc R . .
H8C H 0.9745 0.3066 0.2840 0.112 Uiso 1 1 calc R . .
C9 C 0.7144(2) 0.1475(2) 0.4162(2) 0.0437(5) Uani 1 1 d . . .
H9A H 0.7124 0.2142 0.3376 0.052 Uiso 1 1 calc R . .
H9B H 0.6122 0.1137 0.4515 0.052 Uiso 1 1 calc R . .
C10 C 0.5867(2) 0.0331(2) 0.6868(2) 0.0437(5) Uani 1 1 d . . .
H10A H 0.5548 0.0073 0.7756 0.066 Uiso 1 1 calc R . .
H10B H 0.6459 -0.0306 0.6657 0.066 Uiso 1 1 calc R . .
H10C H 0.4972 0.0527 0.6537 0.066 Uiso 1 1 calc R . .
C12 C 0.6780(3) -0.3103(2) 0.2574(2) 0.0509(6) Uani 1 1 d . . .
H12A H 0.7010 -0.2865 0.1715 0.061 Uiso 1 1 calc R . .
C13 C 0.5881(3) -0.4090(2) 0.3305(2) 0.0508(6) Uani 1 1 d . . .
H13A H 0.5527 -0.4506 0.2938 0.061 Uiso 1 1 calc R . .
C14 C 0.5496(2) -0.44723(19) 0.4588(2) 0.0403(5) Uani 1 1 d . . .
C15 C 0.6080(3) -0.3809(2) 0.5060(2) 0.0538(6) Uani 1 1 d . . .
H15A H 0.5854 -0.4023 0.5915 0.065 Uiso 1 1 calc R . .
C16 C 0.6992(3) -0.2837(2) 0.4271(2) 0.0529(6) Uani 1 1 d . . .
H16A H 0.7383 -0.2419 0.4615 0.064 Uiso 1 1 calc R . .
P2 P 0.79729(5) 0.02969(5) 0.91920(5) 0.03654(14) Uani 1 1 d . . .
C11 C 0.6555(2) 0.1336(2) 0.85007(18) 0.0389(5) Uani 1 1 d . . .
H11A H 0.5621 0.0907 0.8706 0.047 Uiso 1 1 calc R . .
H11B H 0.6300 0.1951 0.8846 0.047 Uiso 1 1 calc R . .
O4 O 0.94430(14) 0.09678(14) 0.87779(13) 0.0451(4) Uani 1 1 d . . .
O5 O 0.73119(14) -0.02410(15) 1.05781(12) 0.0467(4) Uani 1 1 d . . .
O6 O 0.82143(16) -0.07778(14) 0.87506(13) 0.0472(4) Uani 1 1 d . . .
H6A H 0.8780 -0.0569 0.8045 0.071 Uiso 1 1 calc R . .

loop_
_atom_site_aniso_label
_atom_site_aniso_U_11
_atom_site_aniso_U_22
_atom_site_aniso_U_33
_atom_site_aniso_U_23
_atom_site_aniso_U_13
_atom_site_aniso_U_12
Co1 0.02964(14) 0.04067(18) 0.02660(15) -0.01085(13) -0.00222(10) -0.01216(11)
N1 0.0365(9) 0.0375(11) 0.0394(10) -0.0097(9) -0.0032(8) -0.0098(7)
P1 0.0315(3) 0.0543(4) 0.0377(3) -0.0264(3) -0.0065(2) -0.0046(2)
O1 0.0416(8) 0.0799(12) 0.0525(10) -0.0443(10) -0.0107(7) -0.0053(8)
O2 0.0348(7) 0.0587(10) 0.0442(9) -0.0281(8) -0.0054(6) -0.0080(7)
O3 0.0431(8) 0.0491(10) 0.0519(9) -0.0225(8) -0.0140(7) -0.0087(7)
C1 0.0465(12) 0.0424(14) 0.0470(13) -0.0215(11) -0.0117(10) -0.0030(10)
C2 0.0564(13) 0.0387(14) 0.0500(14) -0.0139(12) -0.0048(11) -0.0135(11)
C3 0.0543(13) 0.0385(14) 0.0365(12) -0.0108(11) -0.0053(10) -0.0020(10)
C4 0.0346(10) 0.0428(13) 0.0340(11) -0.0178(10) -0.0089(9) 0.0050(9)
C5 0.0276(9) 0.0399(13) 0.0363(11) -0.0166(10) -0.0088(8) 0.0017(8)
C6 0.0311(9) 0.0422(13) 0.0309(10) -0.0139(10) -0.0062(8) -0.0003(9)
C7 0.0836(18) 0.0580(18) 0.0628(17) -0.0310(15) -0.0177(14) -0.0114(14)
C8 0.104(2) 0.0569(18) 0.0412(15) -0.0077(13) 0.0026(15) -0.0169(15)
C9 0.0408(11) 0.0573(15) 0.0352(12) -0.0204(11) -0.0113(9) 0.0033(10)
C10 0.0348(10) 0.0578(15) 0.0411(12) -0.0228(11) -0.0026(9) -0.0120(10)
C12 0.0571(13) 0.0504(15) 0.0384(13) -0.0140(12) 0.0026(11) -0.0209(11)
C13 0.0629(14) 0.0444(15) 0.0446(14) -0.0161(12) -0.0049(11) -0.0217(11)
C14 0.0393(10) 0.0297(12) 0.0438(13) -0.0059(10) -0.0084(9) -0.0062(9)
C15 0.0749(16) 0.0465(15) 0.0335(12) -0.0028(11) -0.0117(11) -0.0260(12)
C16 0.0659(15) 0.0453(15) 0.0449(14) -0.0073(12) -0.0151(12) -0.0230(12)
P2 0.0274(2) 0.0529(4) 0.0269(3) -0.0141(3) -0.0022(2) -0.0076(2)
C11 0.0319(10) 0.0520(14) 0.0366(11) -0.0220(11) -0.0055(8) -0.0039(9)
O4 0.0302(7) 0.0592(10) 0.0430(9) -0.0177(8) -0.0040(6) -0.0099(7)
O5 0.0311(7) 0.0767(12) 0.0261(7) -0.0141(7) -0.0021(6) -0.0110(7)
O6 0.0476(8) 0.0510(10) 0.0385(8) -0.0165(8) -0.0016(7) -0.0088(7)

_geom_special_details            
;
All esds (except the esd in the dihedral angle between two l.s. planes)
are estimated using the full covariance matrix. The cell esds are taken
into account individually in the estimation of esds in distances, angles
and torsion angles; correlations between esds in cell parameters are only
used when they are defined by crystal symmetry. An approximate (isotropic)
treatment of cell esds is used for estimating esds involving l.s. planes.
;

loop_
_geom_bond_atom_site_label_1
_geom_bond_atom_site_label_2
_geom_bond_distance
_geom_bond_site_symmetry_2
_geom_bond_publ_flag
Co1 O4 1.9150(13) 2_756 ?
Co1 O1 1.9170(15) . ?
Co1 O5 1.9384(14) 1_554 ?
Co1 N1 2.0377(17) . ?
N1 C12 1.337(3) . ?
N1 C16 1.343(3) . ?
P1 O1 1.5048(15) . ?
P1 O2 1.5073(14) . ?
P1 O3 1.5759(16) . ?
P1 C9 1.804(2) . ?
O3 H3A 0.8200 . ?
C1 C2 1.384(3) . ?
C1 C6 1.401(3) . ?
C1 C7 1.514(3) . ?
C2 C3 1.373(3) . ?
C2 H2A 0.9300 . ?
C3 C4 1.404(3) . ?
C3 C8 1.524(3) . ?
C4 C5 1.410(3) . ?
C4 C9 1.509(3) . ?
C5 C6 1.407(3) . ?
C5 C10 1.511(3) . ?
C6 C11 1.519(3) . ?
C7 H7A 0.9600 . ?
C7 H7B 0.9600 . ?
C7 H7C 0.9600 . ?
C8 H8A 0.9600 . ?
C8 H8B 0.9600 . ?
C8 H8C 0.9600 . ?
C9 H9A 0.9700 . ?
C9 H9B 0.9700 . ?
C10 H10A 0.9600 . ?
C10 H10B 0.9600 . ?
C10 H10C 0.9600 . ?
C12 C13 1.370(3) . ?
C12 H12A 0.9300 . ?
C13 C14 1.385(3) . ?
C13 H13A 0.9300 . ?
C14 C15 1.386(3) . ?
C14 C14 1.486(4) 2_646 ?
C15 C16 1.375(3) . ?
C15 H15A 0.9300 . ?
C16 H16A 0.9300 . ?
P2 O4 1.5052(14) . ?
P2 O5 1.5053(14) . ?
P2 O6 1.5707(16) . ?
P2 C11 1.796(2) . ?
C11 H11A 0.9700 . ?
C11 H11B 0.9700 . ?
O4 Co1 1.9150(13) 2_756 ?
O5 Co1 1.9384(14) 1_556 ?
O6 H6A 0.8200 . ?

loop_
_geom_angle_atom_site_label_1
_geom_angle_atom_site_label_2
_geom_angle_atom_site_label_3
_geom_angle
_geom_angle_site_symmetry_1
_geom_angle_site_symmetry_3
_geom_angle_publ_flag
O4 Co1 O1 110.82(6) 2_756 . ?
O4 Co1 O5 110.11(6) 2_756 1_554 ?
O1 Co1 O5 114.47(7) . 1_554 ?
O4 Co1 N1 115.14(7) 2_756 . ?
O1 Co1 N1 103.66(7) . . ?
O5 Co1 N1 102.39(7) 1_554 . ?
C12 N1 C16 116.45(19) . . ?
C12 N1 Co1 121.53(15) . . ?
C16 N1 Co1 121.28(16) . . ?
O1 P1 O2 115.02(8) . . ?
O1 P1 O3 107.67(10) . . ?
O2 P1 O3 109.96(8) . . ?
O1 P1 C9 105.09(9) . . ?
O2 P1 C9 111.07(10) . . ?
O3 P1 C9 107.68(9) . . ?
P1 O1 Co1 145.66(10) . . ?
P1 O3 H3A 109.5 . . ?
C2 C1 C6 118.1(2) . . ?
C2 C1 C7 118.8(2) . . ?
C6 C1 C7 123.1(2) . . ?
C3 C2 C1 123.5(2) . . ?
C3 C2 H2A 118.3 . . ?
C1 C2 H2A 118.3 . . ?
C2 C3 C4 118.7(2) . . ?
C2 C3 C8 119.2(2) . . ?
C4 C3 C8 122.1(2) . . ?
C3 C4 C5 119.7(2) . . ?
C3 C4 C9 119.07(19) . . ?
C5 C4 C9 121.27(19) . . ?
C6 C5 C4 119.75(19) . . ?
C6 C5 C10 120.51(18) . . ?
C4 C5 C10 119.73(19) . . ?
C1 C6 C5 120.21(19) . . ?
C1 C6 C11 119.07(19) . . ?
C5 C6 C11 120.70(19) . . ?
C1 C7 H7A 109.5 . . ?
C1 C7 H7B 109.5 . . ?
H7A C7 H7B 109.5 . . ?
C1 C7 H7C 109.5 . . ?
H7A C7 H7C 109.5 . . ?
H7B C7 H7C 109.5 . . ?
C3 C8 H8A 109.5 . . ?
C3 C8 H8B 109.5 . . ?
H8A C8 H8B 109.5 . . ?
C3 C8 H8C 109.5 . . ?
H8A C8 H8C 109.5 . . ?
H8B C8 H8C 109.5 . . ?
C4 C9 P1 116.40(14) . . ?
C4 C9 H9A 108.2 . . ?
P1 C9 H9A 108.2 . . ?
C4 C9 H9B 108.2 . . ?
P1 C9 H9B 108.2 . . ?
H9A C9 H9B 107.3 . . ?
C5 C10 H10A 109.5 . . ?
C5 C10 H10B 109.5 . . ?
H10A C10 H10B 109.5 . . ?
C5 C10 H10C 109.5 . . ?
H10A C10 H10C 109.5 . . ?
H10B C10 H10C 109.5 . . ?
N1 C12 C13 123.6(2) . . ?
N1 C12 H12A 118.2 . . ?
C13 C12 H12A 118.2 . . ?
C12 C13 C14 120.3(2) . . ?
C12 C13 H13A 119.8 . . ?
C14 C13 H13A 119.8 . . ?
C13 C14 C15 116.2(2) . . ?
C13 C14 C14 121.9(3) . 2_646 ?
C15 C14 C14 121.9(3) . 2_646 ?
C16 C15 C14 120.4(2) . . ?
C16 C15 H15A 119.8 . . ?
C14 C15 H15A 119.8 . . ?
N1 C16 C15 123.1(2) . . ?
N1 C16 H16A 118.5 . . ?
C15 C16 H16A 118.5 . . ?
O4 P2 O5 114.77(9) . . ?
O4 P2 O6 111.34(8) . . ?
O5 P2 O6 106.17(9) . . ?
O4 P2 C11 107.91(9) . . ?
O5 P2 C11 108.05(9) . . ?
O6 P2 C11 108.40(9) . . ?
C6 C11 P2 111.99(13) . . ?
C6 C11 H11A 109.2 . . ?
P2 C11 H11A 109.2 . . ?
C6 C11 H11B 109.2 . . ?
P2 C11 H11B 109.2 . . ?
H11A C11 H11B 107.9 . . ?
P2 O4 Co1 142.19(10) . 2_756 ?
P2 O5 Co1 129.10(8) . 1_556 ?
P2 O6 H6A 109.5 . . ?

loop_
_geom_torsion_atom_site_label_1
_geom_torsion_atom_site_label_2
_geom_torsion_atom_site_label_3
_geom_torsion_atom_site_label_4
_geom_torsion
_geom_torsion_site_symmetry_1
_geom_torsion_site_symmetry_2
_geom_torsion_site_symmetry_3
_geom_torsion_site_symmetry_4
_geom_torsion_publ_flag
O4 Co1 N1 C12 -89.15(17) 2_756 . . . ?
O1 Co1 N1 C12 149.64(16) . . . . ?
O5 Co1 N1 C12 30.32(18) 1_554 . . . ?
O4 Co1 N1 C16 101.07(18) 2_756 . . . ?
O1 Co1 N1 C16 -20.14(19) . . . . ?
O5 Co1 N1 C16 -139.47(17) 1_554 . . . ?
O2 P1 O1 Co1 51.5(2) . . . . ?
O3 P1 O1 Co1 -71.5(2) . . . . ?
C9 P1 O1 Co1 173.91(18) . . . . ?
O4 Co1 O1 P1 -33.1(2) 2_756 . . . ?
O5 Co1 O1 P1 -158.37(18) 1_554 . . . ?
N1 Co1 O1 P1 90.94(19) . . . . ?
C6 C1 C2 C3 1.7(3) . . . . ?
C7 C1 C2 C3 -177.5(2) . . . . ?
C1 C2 C3 C4 0.6(3) . . . . ?
C1 C2 C3 C8 180.0(2) . . . . ?
C2 C3 C4 C5 -1.7(3) . . . . ?
C8 C3 C4 C5 179.0(2) . . . . ?
C2 C3 C4 C9 177.21(19) . . . . ?
C8 C3 C4 C9 -2.1(3) . . . . ?
C3 C4 C5 C6 0.4(3) . . . . ?
C9 C4 C5 C6 -178.48(17) . . . . ?
C3 C4 C5 C10 178.99(17) . . . . ?
C9 C4 C5 C10 0.1(3) . . . . ?
C2 C1 C6 C5 -3.0(3) . . . . ?
C7 C1 C6 C5 176.2(2) . . . . ?
C2 C1 C6 C11 175.79(19) . . . . ?
C7 C1 C6 C11 -5.0(3) . . . . ?
C4 C5 C6 C1 2.0(3) . . . . ?
C10 C5 C6 C1 -176.62(18) . . . . ?
C4 C5 C6 C11 -176.75(17) . . . . ?
C10 C5 C6 C11 4.6(3) . . . . ?
C3 C4 C9 P1 91.9(2) . . . . ?
C5 C4 C9 P1 -89.3(2) . . . . ?
O1 P1 C9 C4 -178.39(16) . . . . ?
O2 P1 C9 C4 -53.42(19) . . . . ?
O3 P1 C9 C4 67.03(18) . . . . ?
C16 N1 C12 C13 0.2(3) . . . . ?
Co1 N1 C12 C13 -170.06(18) . . . . ?
N1 C12 C13 C14 0.6(4) . . . . ?
C12 C13 C14 C15 -0.5(4) . . . . ?
C12 C13 C14 C14 179.1(2) . . . 2_646 ?
C13 C14 C15 C16 -0.3(4) . . . . ?
C14 C14 C15 C16 -179.9(2) 2_646 . . . ?
C12 N1 C16 C15 -1.1(4) . . . . ?
Co1 N1 C16 C15 169.19(19) . . . . ?
C14 C15 C16 N1 1.2(4) . . . . ?
C1 C6 C11 P2 -87.4(2) . . . . ?
C5 C6 C11 P2 91.30(19) . . . . ?
O4 P2 C11 C6 54.71(18) . . . . ?
O5 P2 C11 C6 179.36(15) . . . . ?
O6 P2 C11 C6 -65.99(17) . . . . ?
O5 P2 O4 Co1 107.71(16) . . . 2_756 ?
O6 P2 O4 Co1 -12.92(18) . . . 2_756 ?
C11 P2 O4 Co1 -131.77(15) . . . 2_756 ?
O4 P2 O5 Co1 -31.37(17) . . . 1_556 ?
O6 P2 O5 Co1 92.08(13) . . . 1_556 ?
C11 P2 O5 Co1 -151.81(12) . . . 1_556 ?

loop_
_geom_hbond_atom_site_label_D
_geom_hbond_atom_site_label_H
_geom_hbond_atom_site_label_A
_geom_hbond_distance_DH
_geom_hbond_distance_HA
_geom_hbond_distance_DA
_geom_hbond_angle_DHA
_geom_hbond_site_symmetry_A
O3 H3A O2 0.82 1.82 2.634(2) 173.2 2_756
O6 H6A O2 0.82 1.84 2.607(2) 155.4 2_756

_diffrn_measured_fraction_theta_max 0.993
_diffrn_reflns_theta_full        27.39
_diffrn_measured_fraction_theta_full 0.993
_refine_diff_density_max         0.303
_refine_diff_density_min         -0.257
_refine_diff_density_rms         0.050

# Note: Data are Listed for all Voids in the P1 Unit Cell
# i.e. Centre of Gravity, Solvent Accessible Volume,
# Recovered number of Electrons in the Void and
# Details about the Squeezed Material
loop_
_platon_squeeze_void_nr
_platon_squeeze_void_average_x
_platon_squeeze_void_average_y
_platon_squeeze_void_average_z
_platon_squeeze_void_volume
_platon_squeeze_void_count_electrons
_platon_squeeze_void_content
1 -0.114 0.500 1.000 343 88 ' '
_platon_squeeze_details          
;
;
