####################################################################### 
# 
# This file contains crystal structure data downloaded from the 
# Cambridge Structural Database (CSD) hosted by the Cambridge 
# Crystallographic Data Centre (CCDC).
# 
# Full information about CCDC data access policies and citation 
# guidelines are available at http://www.ccdc.cam.ac.uk/access/V1 
# 
# Audit and citation data items may have been added by the CCDC. 
# Please retain this information to preserve the provenance of 
# this file and to allow appropriate attribution of the data. 
# 
#######################################################################

data_compound_4
_audit_block_doi                 10.5517/ccz30hk
_database_code_depnum_ccdc_archive 'CCDC 896628'
loop_
_citation_id
_citation_doi
_citation_year
1 10.1016/j.micromeso.2013.07.022 2013
_audit_update_record             
;
2012-08-16 deposited with the CCDC.	2024-07-13 downloaded from the CCDC.
;
#TrackingRef 'all cif.txt'


_audit_creation_method           SHELXL-97
_chemical_name_systematic        
;
?
;
_chemical_name_common            ?
_chemical_melting_point          ?
_chemical_formula_moiety         ?
_chemical_formula_sum            'C51.50 H38.50 Cd3 N1.50 O16'
_chemical_formula_weight         1271.54

loop_
_atom_type_symbol
_atom_type_description
_atom_type_scat_dispersion_real
_atom_type_scat_dispersion_imag
_atom_type_scat_source
C C 0.0033 0.0016 'International Tables Vol C Tables 4.2.6.8 and 6.1.1.4'
H H 0.0000 0.0000 'International Tables Vol C Tables 4.2.6.8 and 6.1.1.4'
N N 0.0061 0.0033 'International Tables Vol C Tables 4.2.6.8 and 6.1.1.4'
O O 0.0106 0.0060 'International Tables Vol C Tables 4.2.6.8 and 6.1.1.4'
Cd Cd -0.8075 1.2024 'International Tables Vol C Tables 4.2.6.8 and 6.1.1.4'

_symmetry_cell_setting           orthorhombic
_symmetry_space_group_name_H-M   Fdd2

loop_
_symmetry_equiv_pos_as_xyz
'x, y, z'
'-x, -y, z'
'x+1/4, -y+1/4, z+1/4'
'-x+1/4, y+1/4, z+1/4'
'x, y+1/2, z+1/2'
'-x, -y+1/2, z+1/2'
'x+1/4, -y+3/4, z+3/4'
'-x+1/4, y+3/4, z+3/4'
'x+1/2, y, z+1/2'
'-x+1/2, -y, z+1/2'
'x+3/4, -y+1/4, z+3/4'
'-x+3/4, y+1/4, z+3/4'
'x+1/2, y+1/2, z'
'-x+1/2, -y+1/2, z'
'x+3/4, -y+3/4, z+1/4'
'-x+3/4, y+3/4, z+1/4'

_cell_length_a                   32.68(7)
_cell_length_b                   34.95(8)
_cell_length_c                   25.12(4)
_cell_angle_alpha                90.00
_cell_angle_beta                 90.00
_cell_angle_gamma                90.00
_cell_volume                     28696(99)
_cell_formula_units_Z            16
_cell_measurement_temperature    293(2)
_cell_measurement_reflns_used    ?
_cell_measurement_theta_min      ?
_cell_measurement_theta_max      ?

_exptl_crystal_description       block
_exptl_crystal_colour            colorless
_exptl_crystal_size_max          0.14
_exptl_crystal_size_mid          0.10
_exptl_crystal_size_min          0.08
_exptl_crystal_density_meas      ?
_exptl_crystal_density_diffrn    1.177
_exptl_crystal_density_method    'not measured'
_exptl_crystal_F_000             10080
_exptl_absorpt_coefficient_mu    0.931
_exptl_absorpt_correction_type   Multi-scan
_exptl_absorpt_correction_T_min  0.8807
_exptl_absorpt_correction_T_max  0.9292
_exptl_absorpt_process_details   'SADABS (Bruker, 2002)'

_exptl_special_details           
;
?
;

_diffrn_ambient_temperature      293(2)
_diffrn_radiation_wavelength     0.71073
_diffrn_radiation_type           MoK\a
_diffrn_radiation_source         'fine-focus sealed tube'
_diffrn_radiation_monochromator  graphite
_diffrn_measurement_device_type  'Bruker Apex CCD'
_diffrn_measurement_method       '\w scan'
_diffrn_detector_area_resol_mean ?
_diffrn_standards_number         ?
_diffrn_standards_interval_count ?
_diffrn_standards_interval_time  ?
_diffrn_standards_decay_%        ?
_diffrn_reflns_number            17809
_diffrn_reflns_av_R_equivalents  0.0702
_diffrn_reflns_av_sigmaI/netI    0.1215
_diffrn_reflns_limit_h_min       -36
_diffrn_reflns_limit_h_max       38
_diffrn_reflns_limit_k_min       -18
_diffrn_reflns_limit_k_max       41
_diffrn_reflns_limit_l_min       -24
_diffrn_reflns_limit_l_max       17
_diffrn_reflns_theta_min         1.18
_diffrn_reflns_theta_max         25.00
_reflns_number_total             9339
_reflns_number_gt                5884
_reflns_threshold_expression     >2sigma(I)

_computing_data_collection       'SMART, 1998.'
_computing_cell_refinement       'SAINT-PLUS, Ver. 6.0, 1997'
_computing_data_reduction        'SAINT-PLUS, Ver. 6.0, 1997'
_computing_structure_solution    'SHELXS-97 (Sheldrick, 1990)'
_computing_structure_refinement  'SHELXL-97 (Sheldrick, 1997)'
_computing_molecular_graphics    'XP, Ver. 6.10, Bruker AXS Inc., 2000.'
_computing_publication_material  'SHELXTL-Bruker AXS Inc., 1998.'

_refine_special_details          
;
Refinement of F^2^ against ALL reflections. The weighted R-factor wR and
goodness of fit S are based on F^2^, conventional R-factors R are based
on F, with F set to zero for negative F^2^. The threshold expression of
F^2^ > 2sigma(F^2^) is used only for calculating R-factors(gt) etc. and is
not relevant to the choice of reflections for refinement. R-factors based
on F^2^ are statistically about twice as large as those based on F, and R-
factors based on ALL data will be even larger.
;

_refine_ls_structure_factor_coef Fsqd
_refine_ls_matrix_type           full
_refine_ls_weighting_scheme      calc
_refine_ls_weighting_details     
'calc w=1/[\s^2^(Fo^2^)+(0.0361P)^2^+0.0000P] where P=(Fo^2^+2Fc^2^)/3'
_atom_sites_solution_primary     direct
_atom_sites_solution_secondary   difmap
_atom_sites_solution_hydrogens   geom
_refine_ls_hydrogen_treatment    constr
_refine_ls_extinction_method     none
_refine_ls_extinction_coef       ?
_refine_ls_abs_structure_details 'Flack H D (1983), Acta Cryst. A39, 876-881'
_refine_ls_abs_structure_Flack   -0.06(5)
_refine_ls_number_reflns         9339
_refine_ls_number_parameters     624
_refine_ls_number_restraints     332
_refine_ls_R_factor_all          0.0925
_refine_ls_R_factor_gt           0.0661
_refine_ls_wR_factor_ref         0.1475
_refine_ls_wR_factor_gt          0.1372
_refine_ls_goodness_of_fit_ref   0.987
_refine_ls_restrained_S_all      0.990
_refine_ls_shift/su_max          0.001
_refine_ls_shift/su_mean         0.000


loop_
_atom_site_label
_atom_site_type_symbol
_atom_site_fract_x
_atom_site_fract_y
_atom_site_fract_z
_atom_site_U_iso_or_equiv
_atom_site_adp_type
_atom_site_occupancy
_atom_site_symmetry_multiplicity
_atom_site_calc_flag
_atom_site_refinement_flags
_atom_site_disorder_assembly
_atom_site_disorder_group
Cd2 Cd 0.49786(2) 0.14656(2) 0.88496(4) 0.0452(2) Uani 1 1 d . . .
Cd3 Cd 0.56981(3) 0.24939(3) 0.66463(5) 0.0626(3) Uani 1 1 d . . .
Cd1 Cd 0.53199(3) 0.19610(3) 0.77117(5) 0.0581(3) Uani 1 1 d . . .
C1 C 0.6454(5) 0.1628(4) 0.7849(8) 0.079(5) Uani 1 1 d . . .
H1A H 0.6269 0.1772 0.8046 0.095 Uiso 1 1 calc R . .
C2 C 0.6468(4) 0.1681(3) 0.7355(7) 0.059(4) Uani 1 1 d . . .
C3 C 0.6753(5) 0.1431(5) 0.6991(8) 0.114(6) Uani 1 1 d . . .
H3A H 0.6774 0.1469 0.6613 0.136 Uiso 1 1 d R . .
C4 C 0.6983(5) 0.1141(6) 0.7308(9) 0.111(7) Uani 1 1 d . . .
H4A H 0.7140 0.0964 0.7121 0.133 Uiso 1 1 calc R . .
C5 C 0.6983(4) 0.1118(4) 0.7793(8) 0.064(4) Uani 1 1 d . . .
C6 C 0.6717(5) 0.1347(5) 0.8138(9) 0.087(5) Uani 1 1 d . . .
C7 C 0.6712(6) 0.1289(5) 0.8690(9) 0.107(6) Uani 1 1 d . . .
H7A H 0.6499 0.1407 0.8896 0.128 Uiso 1 1 d R . .
C8 C 0.6975(6) 0.1045(6) 0.8918(8) 0.126(7) Uani 1 1 d . . .
H8A H 0.6972 0.1015 0.9286 0.152 Uiso 1 1 calc R . .
C9 C 0.7253(5) 0.0835(4) 0.8618(7) 0.070(4) Uani 1 1 d U . .
C10 C 0.7266(5) 0.0861(5) 0.8078(10) 0.117(6) Uani 1 1 d U . .
H10A H 0.7454 0.0716 0.7887 0.140 Uiso 1 1 calc R . .
C11 C 0.6191(5) 0.1936(4) 0.6999(8) 0.072(5) Uani 1 1 d . . .
C12 C 0.7589(6) 0.0562(6) 0.8850(10) 0.099(6) Uani 1 1 d . . .
O1 O 0.6263(3) 0.1987(3) 0.6548(5) 0.092(4) Uani 1 1 d . . .
O2 O 0.5940(3) 0.2115(3) 0.7329(4) 0.075(3) Uani 1 1 d . . .
O3 O 0.7541(3) 0.0567(3) 0.9376(6) 0.095(4) Uani 1 1 d . . .
O4 O 0.7778(3) 0.0339(3) 0.8610(5) 0.083(4) Uani 1 1 d . . .
C13 C 0.6582(5) 0.3251(4) 0.9845(8) 0.093(6) Uani 1 1 d . . .
H13A H 0.6702 0.3415 0.9599 0.111 Uiso 1 1 calc R . .
C14 C 0.6653(5) 0.3292(4) 1.0344(8) 0.073(5) Uani 1 1 d . . .
C15 C 0.6515(4) 0.3000(3) 1.0724(5) 0.051(3) Uani 1 1 d . . .
H15A H 0.6580 0.3022 1.1095 0.062 Uiso 1 1 d R . .
C16 C 0.6268(5) 0.2721(4) 1.0522(7) 0.092(6) Uani 1 1 d . . .
H16A H 0.6153 0.2546 1.0758 0.110 Uiso 1 1 calc R . .
C17 C 0.6180(4) 0.2682(4) 0.9997(7) 0.064(4) Uani 1 1 d . . .
C18 C 0.6315(5) 0.2949(4) 0.9669(8) 0.081(5) Uani 1 1 d . . .
C19 C 0.6249(6) 0.2939(4) 0.9088(10) 0.128(8) Uani 1 1 d . . .
H19A H 0.6375 0.3115 0.8864 0.154 Uiso 1 1 calc R . .
C20 C 0.5976(5) 0.2640(5) 0.8875(7) 0.095(5) Uani 1 1 d . . .
H20A H 0.5887 0.2636 0.8511 0.115 Uiso 1 1 d R . .
C21 C 0.5838(4) 0.2353(4) 0.9267(7) 0.067(4) Uani 1 1 d . . .
C22 C 0.5925(4) 0.2382(3) 0.9788(6) 0.055(4) Uani 1 1 d . . .
H22A H 0.5817 0.2202 1.0021 0.067 Uiso 1 1 calc R . .
C23 C 0.6941(5) 0.3609(4) 1.0537(8) 0.070(5) Uani 1 1 d . . .
C24 C 0.5578(5) 0.2029(5) 0.9040(8) 0.065(4) Uani 1 1 d . . .
O5 O 0.7038(3) 0.3562(3) 1.1000(5) 0.078(3) Uani 1 1 d . . .
O6 O 0.7047(3) 0.3840(3) 1.0214(5) 0.080(3) Uani 1 1 d . . .
O7 O 0.5573(3) 0.2012(3) 0.8542(6) 0.092(4) Uani 1 1 d . . .
O8 O 0.5382(3) 0.1846(3) 0.9357(4) 0.066(3) Uani 1 1 d . . .
C25 C 0.3936(6) 0.0455(6) 0.9458(9) 0.151(7) Uani 1 1 d DU . .
H25A H 0.3908 0.0400 0.9098 0.181 Uiso 1 1 calc R . .
C26 C 0.4186(6) 0.0718(5) 0.9715(9) 0.124(7) Uani 1 1 d DU . .
C27 C 0.4206(6) 0.0753(5) 1.0261(9) 0.136(7) Uani 1 1 d DU . .
H27A H 0.4378 0.0941 1.0396 0.164 Uiso 1 1 calc R . .
C28 C 0.3994(7) 0.0537(7) 1.0626(10) 0.186(8) Uani 1 1 d DU . .
H28A H 0.4015 0.0587 1.0989 0.223 Uiso 1 1 calc R . .
C29 C 0.3755(6) 0.0251(6) 1.0447(9) 0.147(6) Uani 1 1 d DU . .
C30 C 0.3735(6) 0.0296(6) 0.9904(9) 0.147(6) Uani 1 1 d DU . .
C31 C 0.3502(7) 0.0017(6) 0.9683(9) 0.174(7) Uani 1 1 d DU . .
H31A H 0.3474 -0.0028 0.9320 0.209 Uiso 1 1 calc R . .
C32 C 0.3310(5) -0.0195(5) 1.0087(8) 0.116(6) Uani 1 1 d DU . .
H32A H 0.3137 -0.0380 0.9945 0.139 Uiso 1 1 calc R . .
C33 C 0.3306(5) -0.0203(5) 1.0646(8) 0.107(6) Uani 1 1 d DU . .
C34 C 0.3575(6) 0.0057(5) 1.0873(9) 0.135(6) Uani 1 1 d DU . .
H34A H 0.3618 0.0087 1.1249 0.162 Uiso 1 1 d R . .
C35 C 0.4506(6) 0.0985(5) 0.9393(10) 0.082(6) Uani 1 1 d . . .
C36 C 0.3032(4) -0.0508(4) 1.0903(8) 0.068(5) Uani 1 1 d . . .
O9 O 0.4476(3) 0.0988(3) 0.8911(5) 0.075(3) Uani 1 1 d . . .
O10 O 0.4697(4) 0.1208(4) 0.9666(5) 0.111(4) Uani 1 1 d . . .
O11 O 0.3068(3) -0.0530(3) 1.1408(6) 0.097(4) Uani 1 1 d . . .
O12 O 0.2798(3) -0.0690(2) 1.0619(4) 0.066(3) Uani 1 1 d . . .
C37 C 0.7281(5) 0.4277(4) 0.5702(5) 0.119(6) Uani 1 1 d DU . .
H37A H 0.7415 0.4437 0.5961 0.143 Uiso 1 1 d R . .
C38 C 0.7356(4) 0.4335(4) 0.5164(6) 0.096(5) Uani 1 1 d DU . .
C39 C 0.7140(5) 0.4121(5) 0.4788(5) 0.123(6) Uani 1 1 d DU . .
H39A H 0.7156 0.4185 0.4429 0.147 Uiso 1 1 calc R . .
C40 C 0.6900(7) 0.3812(6) 0.4949(5) 0.177(7) Uani 1 1 d DU . .
H40A H 0.6824 0.3614 0.4702 0.212 Uiso 1 1 d R . .
C41 C 0.6814(4) 0.3767(3) 0.5470(5) 0.132(6) Uani 1 1 d DU . .
C42 C 0.7006(4) 0.3993(4) 0.5866(4) 0.138(6) Uani 1 1 d DU . .
C43 C 0.6931(5) 0.3906(5) 0.6393(5) 0.189(8) Uani 1 1 d DU . .
H43A H 0.7061 0.4045 0.6676 0.227 Uiso 1 1 d R . .
C44 C 0.6675(5) 0.3606(5) 0.6535(6) 0.172(8) Uani 1 1 d DU . .
H44A H 0.6577 0.3543 0.6884 0.207 Uiso 1 1 d R . .
C45 C 0.6486(4) 0.3389(4) 0.6139(7) 0.150(7) Uani 1 1 d DU . .
C46 C 0.6558(5) 0.3463(4) 0.5610(7) 0.181(8) Uani 1 1 d DU . .
H46A H 0.6414 0.3303 0.5361 0.217 Uiso 1 1 d R . .
C47 C 0.7627(5) 0.4650(5) 0.4965(9) 0.084(5) Uani 1 1 d U . .
C48 C 0.6181(7) 0.3055(6) 0.6234(14) 0.138(9) Uani 1 1 d DU . .
O13 O 0.7704(3) 0.4931(3) 0.5239(4) 0.080(3) Uani 1 1 d . . .
O14 O 0.7725(3) 0.4619(3) 0.4489(6) 0.097(4) Uani 1 1 d . . .
O15 O 0.5969(5) 0.2859(4) 0.5951(7) 0.144(6) Uani 1 1 d . . .
O16 O 0.6201(4) 0.2976(4) 0.6737(7) 0.137(6) Uani 1 1 d . . .
N1 N 0.5369(5) 0.2941(5) 0.5166(9) 0.165(7) Uiso 1 1 d . . .
H1B H 0.5422 0.3106 0.4901 0.198 Uiso 1 1 calc R . .
H1C H 0.5601 0.2916 0.5357 0.198 Uiso 1 1 calc R . .
C50 C 0.5042(8) 0.3117(7) 0.5527(12) 0.205(12) Uiso 1 1 d . . .
H50A H 0.5133 0.3362 0.5651 0.307 Uiso 1 1 calc R . .
H50B H 0.4995 0.2952 0.5827 0.307 Uiso 1 1 calc R . .
H50C H 0.4792 0.3147 0.5330 0.307 Uiso 1 1 calc R . .
C49 C 0.5278(7) 0.2584(7) 0.4939(10) 0.176(10) Uiso 1 1 d . . .
H49A H 0.5498 0.2507 0.4710 0.264 Uiso 1 1 calc R . .
H49B H 0.5030 0.2604 0.4735 0.264 Uiso 1 1 calc R . .
H49C H 0.5243 0.2398 0.5216 0.264 Uiso 1 1 calc R . .
N2 N 0.5000 0.0000 0.9779(13) 0.238(16) Uiso 1 2 d S . .
H2A H 0.4753 0.0059 0.9916 0.286 Uiso 1 1 d R . .
H2B H 0.5088 -0.0224 0.9916 0.286 Uiso 1 1 d R . .
C52 C 0.5000 0.0000 0.9105(11) 0.168(13) Uiso 1 2 d SD . .
H52A H 0.4814 -0.0192 0.8978 0.252 Uiso 0.50 1 calc PR . .
H52B H 0.5271 -0.0054 0.8978 0.252 Uiso 0.50 1 calc PR . .
H52C H 0.4915 0.0246 0.8978 0.252 Uiso 0.50 1 calc PR . .
C51 C 0.5333(7) 0.0320(7) 0.9820(9) 0.181(10) Uiso 1 1 d D . .
H51A H 0.5386 0.0375 1.0187 0.272 Uiso 1 1 calc R . .
H51B H 0.5236 0.0547 0.9645 0.272 Uiso 1 1 calc R . .
H51C H 0.5580 0.0235 0.9651 0.272 Uiso 1 1 calc R . .

loop_
_atom_site_aniso_label
_atom_site_aniso_U_11
_atom_site_aniso_U_22
_atom_site_aniso_U_33
_atom_site_aniso_U_23
_atom_site_aniso_U_13
_atom_site_aniso_U_12
Cd2 0.0524(5) 0.0395(4) 0.0436(7) -0.0007(4) 0.0042(4) -0.0014(4)
Cd3 0.0673(6) 0.0562(6) 0.0642(9) 0.0172(5) -0.0044(5) -0.0021(5)
Cd1 0.0702(5) 0.0490(5) 0.0551(7) 0.0014(5) -0.0078(5) -0.0041(4)
C1 0.074(10) 0.083(11) 0.080(16) 0.000(10) -0.014(10) -0.003(8)
C2 0.058(8) 0.049(8) 0.068(13) 0.018(8) -0.013(8) 0.012(6)
C3 0.119(15) 0.094(13) 0.128(18) -0.014(12) 0.001(13) 0.033(11)
C4 0.078(12) 0.156(19) 0.10(2) 0.002(15) -0.007(12) 0.034(11)
C5 0.062(9) 0.073(9) 0.056(14) 0.009(9) -0.012(9) 0.016(7)
C6 0.078(11) 0.077(11) 0.105(17) 0.004(11) -0.026(11) -0.013(9)
C7 0.128(16) 0.097(14) 0.10(2) -0.011(12) -0.026(13) 0.011(11)
C8 0.124(15) 0.17(2) 0.083(17) 0.001(14) -0.003(13) 0.051(15)
C9 0.075(9) 0.095(10) 0.042(11) -0.002(8) -0.012(8) 0.016(8)
C10 0.091(11) 0.119(13) 0.139(15) 0.005(12) -0.006(11) 0.010(10)
C11 0.056(9) 0.077(11) 0.083(17) 0.014(11) 0.009(10) -0.006(8)
C12 0.118(16) 0.128(18) 0.050(18) -0.004(14) -0.037(14) -0.031(13)
O1 0.103(8) 0.100(8) 0.073(11) -0.004(7) 0.019(8) 0.021(6)
O2 0.062(6) 0.071(6) 0.093(9) 0.004(6) -0.009(6) 0.008(5)
O3 0.098(8) 0.099(8) 0.087(11) -0.014(7) -0.024(7) 0.002(6)
O4 0.116(9) 0.090(8) 0.043(9) -0.006(6) -0.007(6) 0.032(7)
C13 0.130(15) 0.069(11) 0.079(17) -0.008(10) -0.014(12) -0.023(10)
C14 0.089(11) 0.074(10) 0.057(14) 0.004(9) -0.008(9) -0.018(8)
C15 0.070(8) 0.041(7) 0.043(10) -0.004(6) -0.014(7) -0.019(6)
C16 0.136(15) 0.080(11) 0.060(15) -0.013(9) -0.038(11) -0.006(10)
C17 0.093(11) 0.036(7) 0.063(14) -0.008(7) -0.004(9) -0.001(7)
C18 0.099(12) 0.070(11) 0.075(15) 0.002(10) -0.021(10) 0.001(9)
C19 0.18(2) 0.064(11) 0.14(2) -0.017(12) 0.008(16) -0.046(12)
C20 0.125(14) 0.108(13) 0.054(13) -0.006(10) -0.007(10) -0.033(10)
C21 0.090(10) 0.069(9) 0.043(13) 0.003(8) -0.014(8) -0.011(8)
C22 0.088(10) 0.054(8) 0.025(11) -0.001(6) 0.000(8) -0.013(7)
C23 0.090(11) 0.059(10) 0.061(16) -0.031(9) -0.027(11) 0.007(8)
C24 0.086(11) 0.094(12) 0.014(13) -0.021(9) -0.002(9) 0.004(9)
O5 0.083(7) 0.071(7) 0.081(10) -0.012(6) -0.022(7) -0.010(5)
O6 0.099(7) 0.054(6) 0.086(9) -0.015(6) 0.004(7) -0.012(5)
O7 0.104(8) 0.089(8) 0.082(11) -0.018(7) -0.013(7) -0.001(6)
O8 0.058(6) 0.084(7) 0.055(9) -0.013(6) -0.002(5) -0.010(5)
C25 0.136(16) 0.120(15) 0.196(14) 0.034(12) 0.053(13) -0.011(10)
C26 0.118(13) 0.071(11) 0.185(17) 0.033(12) 0.060(14) 0.015(8)
C27 0.121(13) 0.110(12) 0.178(17) 0.033(13) 0.056(14) 0.012(9)
C28 0.18(2) 0.162(18) 0.211(15) 0.049(14) 0.057(15) -0.029(12)
C29 0.120(14) 0.101(13) 0.221(13) 0.056(12) 0.051(13) 0.005(8)
C30 0.105(13) 0.109(13) 0.226(13) 0.070(12) 0.060(13) -0.007(8)
C31 0.157(18) 0.157(18) 0.209(14) 0.080(13) 0.034(14) -0.031(11)
C32 0.075(10) 0.113(12) 0.160(14) 0.067(11) -0.001(11) -0.010(8)
C33 0.061(9) 0.098(11) 0.162(14) 0.054(12) -0.004(10) 0.018(7)
C34 0.127(15) 0.114(14) 0.164(13) 0.021(11) 0.022(12) -0.005(9)
C35 0.095(13) 0.068(11) 0.084(18) -0.016(12) 0.009(12) -0.009(9)
C36 0.031(7) 0.077(10) 0.096(16) 0.049(11) 0.013(9) -0.009(7)
O9 0.076(6) 0.078(7) 0.071(9) 0.004(7) 0.009(7) -0.024(5)
O10 0.136(11) 0.101(10) 0.096(11) 0.023(8) 0.041(9) 0.015(8)
O11 0.077(7) 0.080(7) 0.134(12) 0.008(8) 0.004(8) -0.023(5)
O12 0.057(6) 0.053(5) 0.088(8) 0.007(5) 0.015(5) -0.016(5)
C37 0.103(12) 0.124(14) 0.130(11) 0.030(11) -0.012(11) -0.023(9)
C38 0.087(10) 0.074(9) 0.128(12) 0.017(9) 0.005(10) -0.010(6)
C39 0.098(12) 0.123(13) 0.148(13) -0.012(10) 0.021(10) -0.029(9)
C40 0.169(14) 0.169(14) 0.192(11) 0.011(11) -0.002(12) -0.070(10)
C41 0.120(14) 0.081(11) 0.194(12) 0.031(10) 0.009(12) -0.008(8)
C42 0.116(13) 0.132(14) 0.166(12) 0.020(11) 0.047(12) -0.012(9)
C43 0.168(18) 0.22(2) 0.180(12) 0.029(15) 0.029(16) -0.068(13)
C44 0.153(18) 0.164(19) 0.200(15) 0.047(14) 0.028(15) -0.043(12)
C45 0.111(13) 0.129(1