####################################################################### 
# 
# This file contains crystal structure data downloaded from the 
# Cambridge Structural Database (CSD) hosted by the Cambridge 
# Crystallographic Data Centre (CCDC).
# 
# Full information about CCDC data access policies and citation 
# guidelines are available at http://www.ccdc.cam.ac.uk/access/V1 
# 
# Audit and citation data items may have been added by the CCDC. 
# Please retain this information to preserve the provenance of 
# this file and to allow appropriate attribution of the data. 
# 
#######################################################################

data_compound_5
_audit_block_doi                 10.5517/ccz30jl
_database_code_depnum_ccdc_archive 'CCDC 896629'
loop_
_citation_id
_citation_doi
_citation_year
1 10.1016/j.micromeso.2013.07.022 2013
_audit_update_record             
;
2012-08-16 deposited with the CCDC.	2024-07-13 downloaded from the CCDC.
;
#TrackingRef 'all cif.txt'


_audit_creation_method           SHELXL-97
_chemical_name_systematic        
;
?
;
_chemical_name_common            ?
_chemical_melting_point          ?
_chemical_formula_moiety         ?
_chemical_formula_sum            'C75 H83 Cd3 N7 O25'
_chemical_formula_weight         1819.68

loop_
_atom_type_symbol
_atom_type_description
_atom_type_scat_dispersion_real
_atom_type_scat_dispersion_imag
_atom_type_scat_source
C C 0.0033 0.0016 'International Tables Vol C Tables 4.2.6.8 and 6.1.1.4'
H H 0.0000 0.0000 'International Tables Vol C Tables 4.2.6.8 and 6.1.1.4'
N N 0.0061 0.0033 'International Tables Vol C Tables 4.2.6.8 and 6.1.1.4'
O O 0.0106 0.0060 'International Tables Vol C Tables 4.2.6.8 and 6.1.1.4'
Cd Cd -0.8075 1.2024 'International Tables Vol C Tables 4.2.6.8 and 6.1.1.4'

_symmetry_cell_setting           Triclinic
_symmetry_space_group_name_H-M   P-1

loop_
_symmetry_equiv_pos_as_xyz
'x, y, z'
'-x, -y, -z'

_cell_length_a                   11.687(2)
_cell_length_b                   14.419(3)
_cell_length_c                   14.710(3)
_cell_angle_alpha                112.180(5)
_cell_angle_beta                 104.093(5)
_cell_angle_gamma                100.391(6)
_cell_volume                     2121.4(7)
_cell_formula_units_Z            1
_cell_measurement_temperature    293(2)
_cell_measurement_reflns_used    ?
_cell_measurement_theta_min      ?
_cell_measurement_theta_max      ?

_exptl_crystal_description       block
_exptl_crystal_colour            colorless
_exptl_crystal_size_max          0.20
_exptl_crystal_size_mid          0.14
_exptl_crystal_size_min          0.12
_exptl_crystal_density_meas      ?
_exptl_crystal_density_diffrn    1.424
_exptl_crystal_density_method    'not measured'
_exptl_crystal_F_000             926
_exptl_absorpt_coefficient_mu    0.820
_exptl_absorpt_correction_type   Multi-scan
_exptl_absorpt_correction_T_min  0.8531
_exptl_absorpt_correction_T_max  0.9080
_exptl_absorpt_process_details   'SADABS (Bruker, 2002)'

_exptl_special_details           
;
?
;

_diffrn_ambient_temperature      293(2)
_diffrn_radiation_wavelength     0.71073
_diffrn_radiation_type           MoK\a
_diffrn_radiation_source         'fine-focus sealed tube'
_diffrn_radiation_monochromator  graphite
_diffrn_measurement_device_type  'Bruker Apex CCD'
_diffrn_measurement_method       '\w scan'
_diffrn_detector_area_resol_mean ?
_diffrn_standards_number         ?
_diffrn_standards_interval_count ?
_diffrn_standards_interval_time  ?
_diffrn_standards_decay_%        ?
_diffrn_reflns_number            14041
_diffrn_reflns_av_R_equivalents  0.0284
_diffrn_reflns_av_sigmaI/netI    0.0485
_diffrn_reflns_limit_h_min       -14
_diffrn_reflns_limit_h_max       13
_diffrn_reflns_limit_k_min       -17
_diffrn_reflns_limit_k_max       16
_diffrn_reflns_limit_l_min       -18
_diffrn_reflns_limit_l_max       18
_diffrn_reflns_theta_min         1.60
_diffrn_reflns_theta_max         26.00
_reflns_number_total             8174
_reflns_number_gt                6955
_reflns_threshold_expression     >2sigma(I)

_computing_data_collection       'SMART, 1998.'
_computing_cell_refinement       'SAINT-PLUS, Ver. 6.0, 1997'
_computing_data_reduction        'SAINT-PLUS, Ver. 6.0, 1997'
_computing_structure_solution    'SHELXS-97 (Sheldrick, 1990)'
_computing_structure_refinement  'SHELXL-97 (Sheldrick, 1997)'
_computing_molecular_graphics    'XP, Ver. 6.10, Bruker AXS Inc., 2000.'
_computing_publication_material  'SHELXTL-Bruker AXS Inc., 1998.'

_refine_special_details          
;
Refinement of F^2^ against ALL reflections. The weighted R-factor wR and
goodness of fit S are based on F^2^, conventional R-factors R are based
on F, with F set to zero for negative F^2^. The threshold expression of
F^2^ > 2sigma(F^2^) is used only for calculating R-factors(gt) etc. and is
not relevant to the choice of reflections for refinement. R-factors based
on F^2^ are statistically about twice as large as those based on F, and R-
factors based on ALL data will be even larger.
;

_refine_ls_structure_factor_coef Fsqd
_refine_ls_matrix_type           full
_refine_ls_weighting_scheme      calc
_refine_ls_weighting_details     
'calc w=1/[\s^2^(Fo^2^)+(0.0977P)^2^+4.6347P] where P=(Fo^2^+2Fc^2^)/3'
_atom_sites_solution_primary     direct
_atom_sites_solution_secondary   difmap
_atom_sites_solution_hydrogens   geom
_refine_ls_hydrogen_treatment    constr
_refine_ls_extinction_method     none
_refine_ls_extinction_coef       ?
_refine_ls_number_reflns         8174
_refine_ls_number_parameters     431
_refine_ls_number_restraints     18
_refine_ls_R_factor_all          0.0661
_refine_ls_R_factor_gt           0.0580
_refine_ls_wR_factor_ref         0.1702
_refine_ls_wR_factor_gt          0.1638
_refine_ls_goodness_of_fit_ref   1.040
_refine_ls_restrained_S_all      1.042
_refine_ls_shift/su_max          0.001
_refine_ls_shift/su_mean         0.000

loop_
_atom_site_label
_atom_site_type_symbol
_atom_site_fract_x
_atom_site_fract_y
_atom_site_fract_z
_atom_site_U_iso_or_equiv
_atom_site_adp_type
_atom_site_occupancy
_atom_site_symmetry_multiplicity
_atom_site_calc_flag
_atom_site_refinement_flags
_atom_site_disorder_assembly
_atom_site_disorder_group
Cd1 Cd -1.0000 -0.5000 0.5000 0.03165(15) Uani 1 2 d S . .
Cd2 Cd -0.81476(3) -0.50468(3) 0.34753(3) 0.03192(14) Uani 1 1 d . . .
O1 O -0.6571(3) -0.3895(3) 0.3313(3) 0.0435(9) Uani 1 1 d . . .
O2 O -0.7817(4) -0.5296(3) 0.1919(3) 0.0460(9) Uani 1 1 d . . .
O3 O -0.4668(4) -0.3111(4) -0.0092(3) 0.0553(12) Uani 1 1 d . . .
O4 O -0.7923(3) -0.4281(3) -0.4746(3) 0.0411(8) Uani 1 1 d . . .
O5 O -0.6305(4) -0.4781(3) -0.5001(3) 0.0431(9) Uani 1 1 d . . .
O6 O -1.0396(4) -0.3909(3) 0.4353(3) 0.0466(9) Uani 1 1 d . . .
O7 O -0.9496(4) -0.4187(3) 0.3138(3) 0.0509(10) Uani 1 1 d . . .
O8 O -1.2227(4) -0.0939(3) 0.2511(4) 0.0679(15) Uani 1 1 d . . .
O9 O -0.8439(4) 0.3205(3) 0.3152(3) 0.0510(10) Uani 1 1 d . . .
O10 O -1.0003(4) 0.3781(3) 0.3429(3) 0.0399(8) Uani 1 1 d . . .
C1 C -0.6962(5) -0.4443(4) 0.2349(4) 0.0365(11) Uani 1 1 d . . .
C2 C -0.6384(5) -0.4093(4) 0.1682(4) 0.0355(11) Uani 1 1 d . . .
C3 C -0.5560(5) -0.3103(5) 0.2099(4) 0.0452(13) Uani 1 1 d . . .
H3A H -0.5363 -0.2648 0.2799 0.054 Uiso 1 1 calc R . .
C4 C -0.5025(5) -0.2779(5) 0.1489(4) 0.0459(13) Uani 1 1 d . . .
H4A H -0.4475 -0.2107 0.1772 0.055 Uiso 1 1 calc R . .
C5 C -0.5314(5) -0.3462(5) 0.0455(4) 0.0428(13) Uani 1 1 d . . .
C6 C -0.6131(5) -0.4455(5) 0.0018(4) 0.0440(13) Uani 1 1 d . . .
H6A H -0.6318 -0.4912 -0.0680 0.053 Uiso 1 1 calc R . .
C7 C -0.6665(5) -0.4757(4) 0.0639(4) 0.0404(12) Uani 1 1 d . . .
H7A H -0.7229 -0.5424 0.0351 0.048 Uiso 1 1 calc R . .
C8 C -0.5247(5) -0.3431(5) -0.1140(4) 0.0433(13) Uani 1 1 d . . .
C9 C -0.6469(5) -0.3490(5) -0.1548(4) 0.0485(14) Uani 1 1 d . . .
H9A H -0.6935 -0.3326 -0.1112 0.058 Uiso 1 1 calc R . .
C10 C -0.7000(5) -0.3795(5) -0.2608(4) 0.0412(12) Uani 1 1 d . . .
H10A H -0.7824 -0.3839 -0.2883 0.049 Uiso 1 1 calc R . .
C11 C -0.6307(5) -0.4036(4) -0.3261(4) 0.0364(11) Uani 1 1 d . . .
C12 C -0.5053(5) -0.3956(4) -0.2827(4) 0.0387(12) Uani 1 1 d . . .
H12A H -0.4580 -0.4116 -0.3257 0.046 Uiso 1 1 calc R . .
C13 C -0.4529(5) -0.3643(5) -0.1771(4) 0.0421(12) Uani 1 1 d . . .
H13A H -0.3698 -0.3575 -0.1485 0.050 Uiso 1 1 calc R . .
C14 C -0.6865(5) -0.4386(4) -0.4396(4) 0.0352(11) Uani 1 1 d . . .
C15 C -0.9500(5) 0.3056(4) 0.3231(4) 0.0367(11) Uani 1 1 d . . .
C16 C -1.0200(5) 0.1994(4) 0.3056(4) 0.0372(11) Uani 1 1 d . . .
C17 C -1.1388(6) 0.1794(5) 0.3063(5) 0.0504(15) Uani 1 1 d . . .
H17A H -1.1756 0.2329 0.3191 0.060 Uiso 1 1 calc R . .
C18 C -1.2044(6) 0.0809(5) 0.2883(6) 0.0538(16) Uani 1 1 d . . .
H18A H -1.2854 0.0678 0.2879 0.065 Uiso 1 1 calc R . .
C19 C -1.1499(5) 0.0028(4) 0.2709(5) 0.0506(15) Uani 1 1 d . . .
C20 C -1.0305(6) 0.0208(5) 0.2716(6) 0.0590(17) Uani 1 1 d . . .
H20A H -0.9927 -0.0320 0.2616 0.071 Uiso 1 1 calc R . .
C21 C -0.9683(6) 0.1188(5) 0.2876(5) 0.0529(15) Uani 1 1 d . . .
H21A H -0.8880 0.1312 0.2861 0.064 Uiso 1 1 calc R . .
C22 C -1.1658(5) -0.1608(5) 0.2789(5) 0.0504(15) Uani 1 1 d . . .
C23 C -1.1158(6) -0.1379(5) 0.3819(5) 0.0530(15) Uani 1 1 d . . .
H23A H -1.1145 -0.0752 0.4335 0.064 Uiso 1 1 calc R . .
C24 C -1.0669(6) -0.2081(5) 0.4092(5) 0.0455(13) Uani 1 1 d . . .
H24A H -1.0345 -0.1932 0.4793 0.055 Uiso 1 1 calc R . .
C25 C -1.0662(5) -0.2991(4) 0.3340(4) 0.0379(11) Uani 1 1 d . . .
C26 C -1.1159(7) -0.3212(5) 0.2297(5) 0.0595(17) Uani 1 1 d . . .
H26A H -1.1151 -0.3827 0.1778 0.071 Uiso 1 1 calc R . .
C27 C -1.1672(7) -0.2510(5) 0.2026(5) 0.067(2) Uani 1 1 d . . .
H27A H -1.2019 -0.2661 0.1327 0.081 Uiso 1 1 calc R . .
C28 C -1.0138(5) -0.3764(4) 0.3633(4) 0.0379(11) Uani 1 1 d . . .
N2 N -1.5766(5) -0.6597(4) -0.4759(4) 0.0516(12) Uani 1 1 d . . .
H2A H -1.5036 -0.6489 -0.4292 0.062 Uiso 1 1 d R . .
H2B H -1.5735 -0.6008 -0.4844 0.062 Uiso 1 1 d R . .
C32 C -1.6744(7) -0.6776(6) -0.4329(7) 0.0678(19) Uani 1 1 d . . .
H32A H -1.6588 -0.6170 -0.3688 0.102 Uiso 1 1 calc R . .
H32B H -1.6756 -0.7379 -0.4195 0.102 Uiso 1 1 calc R . .
H32C H -1.7530 -0.6895 -0.4821 0.102 Uiso 1 1 calc R . .
C33 C -1.5932(7) -0.7457(5) -0.5764(6) 0.0646(18) Uani 1 1 d . . .
H33A H -1.5268 -0.7276 -0.6002 0.097 Uiso 1 1 calc R . .
H33B H -1.6707 -0.7574 -0.6267 0.097 Uiso 1 1 calc R . .
H33C H -1.5930 -0.8086 -0.5680 0.097 Uiso 1 1 calc R . .
O11 O -1.5993(7) -0.8922(6) -0.4433(6) 0.113(2) Uiso 1 1 d . . .
C29 C -1.6087(8) -0.9773(7) -0.4373(7) 0.081(2) Uiso 1 1 d . . .
H29A H -1.5624 -0.9765 -0.3757 0.098 Uiso 1 1 calc R . .
N1 N -1.6819(7) -1.0681(6) -0.5149(6) 0.0806(19) Uiso 1 1 d . . .
C30 C -1.7497(13) -1.0746(11) -0.6111(10) 0.144(5) Uiso 1 1 d . . .
H30A H -1.7486 -1.0054 -0.6038 0.216 Uiso 1 1 calc R . .
H30B H -1.8336 -1.1171 -0.6331 0.216 Uiso 1 1 calc R . .
H30C H -1.7132 -1.1059 -0.6624 0.216 Uiso 1 1 calc R . .
C31 C -1.6856(12) -1.1646(9) -0.5065(9) 0.116(4) Uiso 1 1 d . . .
H31A H -1.6367 -1.1492 -0.4370 0.174 Uiso 1 1 calc R . .
H31B H -1.6530 -1.2066 -0.5556 0.174 Uiso 1 1 calc R . .
H31C H -1.7697 -1.2023 -0.5214 0.174 Uiso 1 1 calc R . .
O12 O -1.518(3) 0.061(2) 0.2353(19) 0.496(12) Uiso 1 1 d D . .
N3 N -1.654(3) 0.0293(19) 0.084(3) 0.496(12) Uiso 1 1 d D . .
C34 C -1.598(3) 0.080(2) 0.184(2) 0.496(12) Uiso 1 1 d D . .
H34A H -1.6229 0.1365 0.2200 0.595 Uiso 1 1 calc R . .
C36 C -1.751(3) 0.054(3) 0.024(3) 0.496(12) Uiso 1 1 d D . .
H36A H -1.7708 0.1113 0.0702 0.595 Uiso 1 1 calc R . .
H36B H -1.8235 -0.0067 -0.0133 0.595 Uiso 1 1 calc R . .
H36C H -1.7239 0.0728 -0.0248 0.595 Uiso 1 1 calc R . .
C35 C -1.6134(16) -0.0628(16) 0.0268(12) 0.496(12) Uiso 1 1 d D . .
H35A H -1.5508 -0.0718 0.0759 0.595 Uiso 1 1 calc R . .
H35B H -1.5804 -0.0499 -0.0226 0.595 Uiso 1 1 calc R . .
H35C H -1.6831 -0.1254 -0.0096 0.595 Uiso 1 1 calc R . .
O13 O -1.1692(16) -0.8917(16) -0.1613(12) 0.217(7) Uiso 0.50 1 d PRD . .
C37 C -1.1566(16) -0.7933(16) -0.1090(12) 0.217(7) Uiso 0.50 1 d PRD . .
H37A H -1.2119 -0.7655 -0.1392 0.260 Uiso 0.50 1 calc PR . .
N4 N -1.069(2) -0.726(2) -0.0133(19) 0.217(7) Uiso 0.50 1 d PD . .
C38 C -0.986(3) -0.775(3) 0.029(2) 0.217(7) Uiso 0.50 1 d PD . .
H38A H -1.0071 -0.8473 -0.0199 0.325 Uiso 0.50 1 calc PR . .
H38B H -0.9933 -0.7702 0.0938 0.325 Uiso 0.50 1 calc PR . .
H38C H -0.9025 -0.7390 0.0401 0.325 Uiso 0.50 1 calc PR . .
C39 C -1.066(3) -0.624(2) 0.033(2) 0.217(7) Uiso 0.50 1 d PD . .
H39A H -1.1253 -0.6102 -0.0138 0.325 Uiso 0.50 1 calc PR . .
H39B H -0.9849 -0.5794 0.0512 0.325 Uiso 0.50 1 calc PR . .
H39C H -1.0868 -0.6111 0.0955 0.325 Uiso 0.50 1 calc PR . .

loop_
_atom_site_aniso_label
_atom_site_aniso_U_11
_atom_site_aniso_U_22
_atom_site_aniso_U_33
_atom_site_aniso_U_23
_atom_site_aniso_U_13
_atom_site_aniso_U_12
Cd1 0.0333(3) 0.0360(3) 0.0426(3) 0.0267(2) 0.0215(2) 0.0160(2)
Cd2 0.0355(2) 0.0351(2) 0.0378(2) 0.02304(17) 0.02101(16) 0.01244(15)
O1 0.041(2) 0.060(2) 0.037(2) 0.0281(18) 0.0191(16) 0.0126(18)
O2 0.048(2) 0.049(2) 0.049(2) 0.0264(19) 0.0296(19) 0.0064(18)
O3 0.038(2) 0.089(3) 0.037(2) 0.036(2) 0.0125(17) -0.006(2)
O4 0.035(2) 0.054(2) 0.044(2) 0.0307(18) 0.0136(16) 0.0132(17)
O5 0.044(2) 0.056(2) 0.039(2) 0.0271(18) 0.0199(17) 0.0175(18)
O6 0.058(2) 0.052(2) 0.062(2) 0.043(2) 0.033(2) 0.030(2)
O7 0.061(3) 0.058(3) 0.068(3) 0.046(2) 0.036(2) 0.035(2)
O8 0.038(2) 0.042(2) 0.122(4) 0.055(3) 0.000(2) 0.0048(18)
O9 0.049(2) 0.043(2) 0.073(3) 0.032(2) 0.032(2) 0.0147(18)
O10 0.050(2) 0.0296(18) 0.048(2) 0.0212(16) 0.0206(17) 0.0139(16)
C1 0.035(3) 0.048(3) 0.041(3) 0.027(2) 0.021(2) 0.018(2)
C2 0.031(3) 0.045(3) 0.037(3) 0.025(2) 0.014(2) 0.008(2)
C3 0.049(3) 0.053(3) 0.035(3) 0.023(3) 0.016(2) 0.008(3)
C4 0.045(3) 0.053(3) 0.040(3) 0.026(3) 0.015(2) 0.002(3)
C5 0.036(3) 0.064(4) 0.037(3) 0.033(3) 0.014(2) 0.009(3)
C6 0.044(3) 0.056(3) 0.031(3) 0.022(3) 0.014(2) 0.009(3)
C7 0.039(3) 0.045(3) 0.040(3) 0.022(2) 0.017(2) 0.007(2)
C8 0.038(3) 0.064(4) 0.038(3) 0.033(3) 0.017(2) 0.011(3)
C9 0.044(3) 0.077(4) 0.043(3) 0.035(3) 0.029(3) 0.023(3)
C10 0.037(3) 0.056(3) 0.045(3) 0.032(3) 0.020(2) 0.019(2)
C11 0.036(3) 0.045(3) 0.036(3) 0.025(2) 0.014(2) 0.012(2)
C12 0.035(3) 0.054(3) 0.040(3) 0.028(2) 0.020(2) 0.015(2)
C13 0.032(3) 0.059(3) 0.047(3) 0.034(3) 0.017(2) 0.012(2)
C14 0.035(3) 0.040(3) 0.038(3) 0.025(2) 0.016(2) 0.009(2)
C15 0.044(3) 0.033(3) 0.039(3) 0.022(2) 0.016(2) 0.010(2)
C16 0.040(3) 0.032(3) 0.046(3) 0.023(2) 0.016(2) 0.009(2)
C17 0.048(3) 0.041(3) 0.082(4) 0.039(3) 0.030(3) 0.020(3)
C18 0.040(3) 0.045(3) 0.092(5) 0.045(3) 0.026(3) 0.014(3)
C19 0.044(3) 0.038(3) 0.071(4) 0.037(3) 0.003(3) 0.007(2)
C20 0.046(3) 0.036(3) 0.099(5) 0.037(3) 0.018(3) 0.015(3)
C21 0.039(3) 0.038(3) 0.087(5) 0.032(3) 0.023(3) 0.012(2)
C22 0.035(3) 0.037(3) 0.082(4) 0.039(3) 0.007(3) 0.008(2)
C23 0.052(4) 0.039(3) 0.076(4) 0.028(3) 0.027(3) 0.019(3)
C24 0.050(3) 0.044(3) 0.055(3) 0.030(3) 0.022(3) 0.019(3)
C25 0.037(3) 0.036(3) 0.052(3) 0.030(2) 0.016(2) 0.011(2)
C26 0.085(5) 0.041(3) 0.053(4) 0.024(3) 0.015(3) 0.026(3)
C27 0.087(5) 0.054(4) 0.057(4) 0.034(3) 0.003(4) 0.022(4)
C28 0.035(3) 0.037(3) 0.050(3) 0.027(2) 0.015(2) 0.011(2)
N2 0.040(3) 0.057(3) 0.067(3) 0.037(3) 0.020(2) 0.012(2)
C32 0.062(4) 0.070(5) 0.098(6) 0.054(4) 0.043(4) 0.022(4)
C33 0.070(5) 0.055(4) 0.069(4) 0.031(4) 0.023(4) 0.011(3)

_geom_special_details            
;
All esds (except the esd in the dihedral angle between two l.s. planes)
are estimated using the full covariance matrix. The cell esds are taken
into account individually in the estimation of esds in distances, angles
and torsion angles; correlations between esds in cell parameters are only
used when they are defined by crystal symmetry. An approximate (isotropic)
treatment of cell esds is used for estimating esds involving l.s. planes.
;

loop_
_geom_bond_atom_site_label_1
_geom_bond_atom_site_label_2
_geom_bond_distance
_geom_bond_site_symmetry_2
_geom_bond_publ_flag
Cd1 O6 2.185(3) 2_346 ?
Cd1 O6 2.185(3) . ?
Cd1 O10 2.314(4) 1_545 ?
Cd1 O10 2.314(4) 2_356 ?
Cd1 O4 2.337(4) 1_556 ?
Cd1 O4 2.337(4) 2_345 ?
Cd1 Cd2 3.4676(6) . ?
Cd1 Cd2 3.4676(6) 2_346 ?
Cd2 O7 2.249(4) . ?
Cd2 O2 2.319(4) . ?
Cd2 O9 2.325(4) 1_545 ?
Cd2 O4 2.348(4) 1_556 ?
Cd2 O1 2.371(4) . ?
Cd2 O10 2.466(4) 1_545 ?
Cd2 O5 2.552(4) 1_556 ?
Cd2 C1 2.683(5) . ?
Cd2 C15 2.744(5) 1_545 ?
O1 C1 1.247(6) . ?
O2 C1 1.255(7) . ?
O3 C8 1.375(6) . ?
O3 C5 1.393(6) . ?
O4 C14 1.279(6) . ?
O4 Cd1 2.337(4) 1_554 ?
O4 Cd2 2.348(4) 1_554 ?
O5 C14 1.257(6) . ?
O5 Cd2 2.552(4) 1_554 ?
O6 C28 1.248(6) . ?
O7 C28 1.249(7) . ?
O8 C19 1.378(7) . ?
O8 C22 1.392(6) . ?
O9 C15 1.261(7) . ?
O9 Cd2 2.325(4) 1_565 ?
O10 C15 1.264(6) . ?
O10 Cd1 2.314(4) 1_565 ?
O10 Cd2 2.466(4) 1_565 ?
C1 C2 1.499(7) . ?
C2 C3 1.377(8) . ?
C2 C7 1.382(7) . ?
C3 C4 1.378(8) . ?
C4 C5 1.377(8) . ?
C5 C6 1.374(8) . ?
C6 C7 1.376(7) . ?
C8 C9 1.381(8) . ?
C8 C13 1.385(8) . ?
C9 C10 1.386(8) . ?
C10 C11 1.388(7) . ?
C11 C12 1.412(7) . ?
C11 C14 1.477(7) . ?
C12 C13 1.378(7) . ?
C15 C16 1.493(7) . ?
C15 Cd2 2.744(5) 1_565 ?
C16 C17 1.370(8) . ?
C16 C21 1.372(8) . ?
C17 C18 1.377(8) . ?
C18 C19 1.364(8) . ?
C19 C20 1.369(9) . ?
C20 C21 1.370(8) . ?
C22 C27 1.355(10) . ?
C22 C23 1.366(9) . ?
C23 C24 1.385(8) . ?
C24 C25 1.364(8) . ?
C25 C26 1.387(8) . ?
C25 C28 1.510(7) . ?
C26 C27 1.396(9) . ?
N2 C32 1.464(8) . ?
N2 C33 1.467(9) . ?
O11 C29 1.250(11) . ?
C29 N1 1.320(10) . ?
N1 C30 1.403(14) . ?
N1 C31 1.435(13) . ?
O12 C34 1.18(3) . ?
N3 C34 1.30(2) . ?
N3 C36 1.44(2) . ?
N3 C35 1.51(2) . ?
O13 C37 1.2930 . ?
C37 N4 1.37(2) . ?
N4 C39 1.36(2) . ?
N4 C38 1.45(2) . ?

loop_
_geom_angle_atom_site_label_1
_geom_angle_atom_site_label_2
_geom_angle_atom_site_label_3
_geom_angle
_geom_angle_site_symmetry_