
#######################################################################
#
#                 Cambridge Crystallographic Data Centre
#                                CCDC
#
#######################################################################
#
# If this CIF has been generated from an entry in the Cambridge
# Structural Database, then it will include bibliographic, chemical,
# crystal, experimental, refinement or atomic coordinate data resulting
# from the CCDC's data processing and validation procedures.
#
#######################################################################

data_CSD_CIF_WIQDOP
_audit_creation_date 2000-11-09
_audit_creation_method CSD-ConQuest-V1
_database_code_CSD WIQDOP
_database_code_depnum_ccdc_archive 'CCDC 1294163'
_chemical_formula_sum 'C9 H12 O3'
_chemical_formula_moiety
;
C9 H12 O3
;
_journal_coden_Cambridge 643
_journal_volume 214
_journal_year 1999
_journal_page_first 469
_journal_name_full 'Z.Krist.Cryst.Mater. '
loop_
_publ_author_name
"K.Goubitz"
"E.J.Sonneveld"
"V.V.Chernyshev"
"A.V.Yatsenko"
"S.G.Zhukov"
"C.A.Reiss"
"H.Schenk"
_chemical_name_systematic
;
(4-Methoxyphenoxy)ethanol
;
_chemical_name_common
;
Teaching Subset: Fundamental Chemistry
;
_cell_volume   1766.122
_exptl_crystal_density_diffrn 1.27
_exptl_special_details
;
powder data

;
_diffrn_ambient_temperature ?
_diffrn_special_details
;
The study was carried out at room temperature,in the range 283-303K

;
#These two values have been output from a single CSD field.
_refine_ls_R_factor_gt 0.087
_refine_ls_wR_factor_gt 0.087
_symmetry_cell_setting orthorhombic
_symmetry_space_group_name_H-M 'P b c n'
_symmetry_Int_Tables_number 60
loop_
_symmetry_equiv_pos_site_id
_symmetry_equiv_pos_as_xyz
1 x,y,z
2 1/2-x,1/2-y,1/2+z
3 1/2+x,1/2-y,-z
4 -x,y,1/2-z
5 -x,-y,-z
6 -1/2+x,-1/2+y,-1/2-z
7 -1/2-x,-1/2+y,z
8 x,-y,-1/2+z
_cell_length_a 38.0
_cell_length_b 7.158
_cell_length_c 6.493
_cell_angle_alpha 90
_cell_angle_beta 90
_cell_angle_gamma 90
_cell_formula_units_Z 8
loop_
_atom_type_symbol
_atom_type_radius_bond
C 0.68
H 0.23
O 0.68
loop_
_atom_site_label
_atom_site_type_symbol
_atom_site_fract_x
_atom_site_fract_y
_atom_site_fract_z
O1 O 0.0749(3) 0.267(1) 0.221(2)
O2 O 0.0051(5) 0.177(2) 0.034(2)
O3 O 0.2098(4) 0.238(2) 0.554(2)
C1 C 0.1087(6) 0.259(2) 0.302(3)
C2 C 0.1346(8) 0.153(3) 0.210(3)
C3 C 0.1687(6) 0.154(2) 0.285(3)
C4 C 0.1755(6) 0.237(2) 0.480(3)
C5 C 0.1493(7) 0.345(3) 0.572(3)
C6 C 0.1149(5) 0.339(3) 0.499(4)
C7 C 0.0688(6) 0.191(3) 0.017(3)
C8 C 0.0341(7) 0.275(3) -0.057(3)
C9 C 0.2171(5) 0.338(4) 0.740(4)
H1 H 0.240(4) 0.29(2) 0.80(3)
H2 H 0.198(5) 0.32(2) 0.84(2)
H3 H 0.220(5) 0.47(2) 0.70(3)
H4 H 0.067(4) 0.05(1) 0.03(2)
H5 H 0.088(4) 0.24(2) -0.07(2)
H6 H 0.033(3) 0.27(1) -0.21(2)
H7 H 0.033(4) 0.41(1) -0.01(2)
H8 H 0.128(4) 0.06(2) 0.09(2)
H9 H 0.187(4) 0.06(1) 0.23(2)
H10 H 0.156(4) 0.43(2) 0.69(2)
H11 H 0.096(4) 0.41(1) 0.57(2)
H12 H 0.011(11) 0.05(4) 0.07(3)
H13? H -0.004(11) 0.24(3) 0.15(3)
#END
