####################################################################### 
# 
# This file contains crystal structure data downloaded from the 
# Cambridge Structural Database (CSD) hosted by the Cambridge 
# Crystallographic Data Centre (CCDC).
# 
# Full information about CCDC data access policies and citation 
# guidelines are available at http://www.ccdc.cam.ac.uk/access/V1 
# 
# Audit and citation data items may have been added by the CCDC. 
# Please retain this information to preserve the provenance of 
# this file and to allow appropriate attribution of the data. 
# 
#######################################################################

data_aa-sr
_audit_block_doi                 10.5517/cc10fflg
_database_code_depnum_ccdc_archive 'CCDC 936435'
loop_
_citation_id
_citation_doi
_citation_year
1 10.1021/ic401157n 2013
_audit_update_record             
;
2013-04-29 deposited with the CCDC.	2024-07-13 downloaded from the CCDC.
;

_audit_creation_method           SHELXL-97
_chemical_name_systematic        
; 
 ? 
;
_chemical_name_common            ?
_chemical_melting_point          ?
_chemical_formula_moiety         ?
_chemical_formula_sum            'C66 H50 La2 N8 O20'
_chemical_formula_weight         1552.96

loop_
_atom_type_symbol
_atom_type_description
_atom_type_scat_dispersion_real
_atom_type_scat_dispersion_imag
_atom_type_scat_source
C C 0.0033 0.0016 'International Tables Vol C Tables 4.2.6.8 and 6.1.1.4'
H H 0.0000 0.0000 'International Tables Vol C Tables 4.2.6.8 and 6.1.1.4'
N N 0.0061 0.0033 'International Tables Vol C Tables 4.2.6.8 and 6.1.1.4'
O O 0.0106 0.0060 'International Tables Vol C Tables 4.2.6.8 and 6.1.1.4'
La La -0.2871 2.4523 'International Tables Vol C Tables 4.2.6.8 and 6.1.1.4'

_symmetry_cell_setting           monoclinic
_symmetry_space_group_name_H-M   P21/c
_symmetry_space_group_name_Hall  -P2ybc

loop_
_symmetry_equiv_pos_as_xyz
'x, y, z'
'-x, y+1/2, -z+1/2'
'-x, -y, -z'
'x, -y-1/2, z-1/2'

_cell_length_a                   18.582(4)
_cell_length_b                   34.589(7)
_cell_length_c                   16.268(3)
_cell_angle_alpha                90.00
_cell_angle_beta                 103.81(3)
_cell_angle_gamma                90.00
_cell_volume                     10154(4)
_cell_formula_units_Z            4
_cell_measurement_temperature    223(2)
_cell_measurement_reflns_used    ?
_cell_measurement_theta_min      ?
_cell_measurement_theta_max      ?

_exptl_crystal_description       ?
_exptl_crystal_colour            ?
_exptl_crystal_size_max          0.18
_exptl_crystal_size_mid          0.13
_exptl_crystal_size_min          0.10
_exptl_crystal_density_meas      ?
_exptl_crystal_density_diffrn    1.016
_exptl_crystal_density_method    'not measured'
_exptl_crystal_F_000             3104
_exptl_absorpt_coefficient_mu    0.882
_exptl_absorpt_correction_type   multi-scan
_exptl_absorpt_correction_T_min  0.8573
_exptl_absorpt_correction_T_max  0.9170
_exptl_absorpt_process_details   ?

_exptl_special_details           
; 
 ? 
;

_diffrn_ambient_temperature      223(2)
_diffrn_radiation_wavelength     0.71073
_diffrn_radiation_type           MoK\a
_diffrn_radiation_source         'fine-focus sealed tube'
_diffrn_radiation_monochromator  graphite
_diffrn_measurement_device_type  ?
_diffrn_measurement_method       ?
_diffrn_detector_area_resol_mean ?
_diffrn_standards_number         ?
_diffrn_standards_interval_count ?
_diffrn_standards_interval_time  ?
_diffrn_standards_decay_%        ?
_diffrn_reflns_number            64226
_diffrn_reflns_av_R_equivalents  0.0523
_diffrn_reflns_av_sigmaI/netI    0.0565
_diffrn_reflns_limit_h_min       -22
_diffrn_reflns_limit_h_max       22
_diffrn_reflns_limit_k_min       -41
_diffrn_reflns_limit_k_max       41
_diffrn_reflns_limit_l_min       -19
_diffrn_reflns_limit_l_max       16
_diffrn_reflns_theta_min         2.55
_diffrn_reflns_theta_max         25.05
_reflns_number_total             17925
_reflns_number_gt                14901
_reflns_threshold_expression     >2sigma(I)

_computing_data_collection       ?
_computing_cell_refinement       ?
_computing_data_reduction        ?
_computing_structure_solution    'SHELXS-97 (Sheldrick, 1990)'
_computing_structure_refinement  'SHELXL-97 (Sheldrick, 1997)'
_computing_molecular_graphics    ?
_computing_publication_material  ?

_refine_special_details          
; 
 Refinement of F^2^ against ALL reflections.  The weighted R-factor wR and 
 goodness of fit S are based on F^2^, conventional R-factors R are based 
 on F, with F set to zero for negative F^2^. The threshold expression of 
 F^2^ > 2sigma(F^2^) is used only for calculating R-factors(gt) etc. and is 
 not relevant to the choice of reflections for refinement.  R-factors based 
 on F^2^ are statistically about twice as large as those based on F, and R- 
 factors based on ALL data will be even larger. 
;

_refine_ls_structure_factor_coef Fsqd
_refine_ls_matrix_type           full
_refine_ls_weighting_scheme      calc
_refine_ls_weighting_details     
'calc w=1/[\s^2^(Fo^2^)+(0.1500P)^2^+0.0000P] where P=(Fo^2^+2Fc^2^)/3'
_atom_sites_solution_primary     direct
_atom_sites_solution_secondary   difmap
_atom_sites_solution_hydrogens   geom
_refine_ls_hydrogen_treatment    constr
_refine_ls_extinction_method     none
_refine_ls_extinction_coef       ?
_refine_ls_number_reflns         17925
_refine_ls_number_parameters     869
_refine_ls_number_restraints     1514
_refine_ls_R_factor_all          0.0752
_refine_ls_R_factor_gt           0.0647
_refine_ls_wR_factor_ref         0.2148
_refine_ls_wR_factor_gt          0.2054
_refine_ls_goodness_of_fit_ref   1.066
_refine_ls_restrained_S_all      1.132
_refine_ls_shift/su_max          0.006
_refine_ls_shift/su_mean         0.000

loop_
_atom_site_label
_atom_site_type_symbol
_atom_site_fract_x
_atom_site_fract_y
_atom_site_fract_z
_atom_site_U_iso_or_equiv
_atom_site_adp_type
_atom_site_occupancy
_atom_site_symmetry_multiplicity
_atom_site_calc_flag
_atom_site_refinement_flags
_atom_site_disorder_assembly
_atom_site_disorder_group
C1 C 0.7084(4) 0.33305(18) 0.5283(4) 0.0354(13) Uani 1 1 d U . .
C2 C 0.7211(4) 0.37351(18) 0.5565(4) 0.0386(13) Uani 1 1 d U . .
C3 C 0.7040(4) 0.3862(2) 0.6308(5) 0.0473(14) Uani 1 1 d U . .
H3 H 0.6852 0.3685 0.6643 0.057 Uiso 1 1 calc RU . .
C4 C 0.7141(4) 0.4243(2) 0.6562(5) 0.0519(14) Uani 1 1 d U . .
H4 H 0.7006 0.4328 0.7053 0.062 Uiso 1 1 calc RU . .
C5 C 0.7454(4) 0.4505(2) 0.6066(5) 0.0517(15) Uani 1 1 d U . .
C6 C 0.7621(5) 0.4376(2) 0.5353(5) 0.0540(15) Uani 1 1 d U . .
H6 H 0.7839 0.4545 0.5030 0.065 Uiso 1 1 calc RU . .
C7 C 0.7479(4) 0.4004(2) 0.5091(5) 0.0517(15) Uani 1 1 d U . .
H7 H 0.7568 0.3929 0.4569 0.062 Uiso 1 1 calc RU . .
C8 C 0.7617(4) 0.5511(2) 0.7003(5) 0.0492(14) Uani 1 1 d U . .
C9 C 0.7140(4) 0.5761(2) 0.7278(4) 0.0444(13) Uani 1 1 d U . .
H9 H 0.6675 0.5673 0.7332 0.053 Uiso 1 1 calc RU . .
C10 C 0.7354(4) 0.6147(2) 0.7474(4) 0.0429(13) Uani 1 1 d U . .
C11 C 0.8025(4) 0.6274(2) 0.7365(5) 0.0509(14) Uani 1 1 d U . .
H11 H 0.8159 0.6535 0.7461 0.061 Uiso 1 1 calc RU . .
C12 C 0.8505(4) 0.6018(2) 0.7113(5) 0.0464(13) Uani 1 1 d U . .
C13 C 0.8302(4) 0.5637(2) 0.6954(5) 0.0506(14) Uani 1 1 d U . .
H13 H 0.8639 0.5461 0.6811 0.061 Uiso 1 1 calc RU . .
C14 C 0.9284(4) 0.6134(2) 0.7053(5) 0.0496(14) Uani 1 1 d U . .
C15 C 0.9972(4) 0.6626(2) 0.6478(4) 0.0431(13) Uani 1 1 d U . .
C16 C 0.9877(4) 0.6871(3) 0.5798(5) 0.0656(17) Uani 1 1 d U . .
H16 H 0.9398 0.6919 0.5463 0.079 Uiso 1 1 calc RU . .
C17 C 1.0488(4) 0.7050(3) 0.5603(5) 0.0608(17) Uani 1 1 d U . .
H17 H 1.0430 0.7190 0.5096 0.073 Uiso 1 1 calc RU . .
C18 C 1.1185(4) 0.7023(2) 0.6155(4) 0.0386(13) Uani 1 1 d U . .
C19 C 1.1266(4) 0.6790(2) 0.6856(4) 0.0385(13) Uani 1 1 d U . .
H19 H 1.1733 0.6766 0.7233 0.046 Uiso 1 1 calc RU . .
C20 C 1.0658(4) 0.6590(2) 0.7012(4) 0.0413(13) Uani 1 1 d U . .
H20 H 1.0722 0.6429 0.7489 0.050 Uiso 1 1 calc RU . .
C21 C 1.1840(3) 0.72308(18) 0.5966(4) 0.0291(12) Uani 1 1 d U . .
C22 C 0.5874(4) 0.6533(2) 0.8509(4) 0.0408(13) Uani 1 1 d U . .
C23 C 0.5663(4) 0.6913(2) 0.8268(4) 0.0443(14) Uani 1 1 d U . .
H23 H 0.5874 0.7043 0.7875 0.053 Uiso 1 1 calc RU . .
C24 C 0.5148(4) 0.7094(2) 0.8610(4) 0.0407(13) Uani 1 1 d U . .
H24 H 0.5009 0.7348 0.8441 0.049 Uiso 1 1 calc RU . .
C25 C 0.4827(3) 0.69194(18) 0.9188(4) 0.0326(12) Uani 1 1 d U . .
C26 C 0.5068(4) 0.65423(19) 0.9454(4) 0.0376(12) Uani 1 1 d U . .
H26 H 0.4879 0.6417 0.9871 0.045 Uiso 1 1 calc RU . .
C27 C 0.5575(4) 0.6361(2) 0.9105(4) 0.0430(13) Uani 1 1 d U . .
H27 H 0.5725 0.6108 0.9282 0.052 Uiso 1 1 calc RU . .
C28 C 0.4259(3) 0.71136(17) 0.9543(4) 0.0298(11) Uani 1 1 d U . .
C29 C 0.7445(3) 0.32942(17) 0.8546(4) 0.0340(13) Uani 1 1 d U . .
C30 C 0.7521(4) 0.37096(17) 0.8815(4) 0.0328(12) Uani 1 1 d U . .
C31 C 0.7977(4) 0.39589(19) 0.8541(4) 0.0436(13) Uani 1 1 d U . .
H31 H 0.8259 0.3867 0.8174 0.052 Uiso 1 1 calc RU . .
C32 C 0.8041(4) 0.43440(19) 0.8781(4) 0.0449(13) Uani 1 1 d U . .
H32 H 0.8363 0.4508 0.8579 0.054 Uiso 1 1 calc RU . .
C33 C 0.7625(4) 0.44867(19) 0.9326(4) 0.0405(13) Uani 1 1 d U . .
C34 C 0.7176(4) 0.4229(2) 0.9622(5) 0.0486(14) Uani 1 1 d U . .
H34 H 0.6911 0.4315 1.0012 0.058 Uiso 1 1 calc RU . .
C35 C 0.7106(4) 0.38473(19) 0.9359(4) 0.0427(14) Uani 1 1 d U . .
H35 H 0.6778 0.3681 0.9548 0.051 Uiso 1 1 calc RU . .
C36 C 0.7972(4) 0.5173(2) 0.9326(5) 0.0437(13) Uani 1 1 d U . .
C37 C 0.7903(4) 0.55596(18) 0.9707(4) 0.0369(12) Uani 1 1 d U . .
C38 C 0.8347(4) 0.58531(19) 0.9484(4) 0.0389(12) Uani 1 1 d U . .
H38 H 0.8672 0.5792 0.9141 0.047 Uiso 1 1 calc RU . .
C39 C 0.8314(3) 0.62266(19) 0.9759(4) 0.0358(12) Uani 1 1 d U . .
C40 C 0.7813(4) 0.63214(19) 1.0265(4) 0.0397(13) Uani 1 1 d U . .
H40 H 0.7782 0.6577 1.0448 0.048 Uiso 1 1 calc RU . .
C41 C 0.7367(3) 0.60337(19) 1.0490(4) 0.0371(12) Uani 1 1 d U . .
C42 C 0.7426(3) 0.56627(18) 1.0215(4) 0.0377(13) Uani 1 1 d U . .
H42 H 0.7132 0.5469 1.0376 0.045 Uiso 1 1 calc RU . .
C43 C 0.6819(4) 0.6107(2) 1.1002(4) 0.0401(13) Uani 1 1 d U . .
C44 C 0.6093(4) 0.6612(2) 1.1521(4) 0.0375(12) Uani 1 1 d U . .
C45 C 0.5926(3) 0.70147(19) 1.1400(4) 0.0361(12) Uani 1 1 d U . .
H45 H 0.6206 0.7174 1.1126 0.043 Uiso 1 1 calc RU . .
C46 C 0.5354(3) 0.71632(18) 1.1690(4) 0.0340(12) Uani 1 1 d U . .
H46 H 0.5244 0.7428 1.1617 0.041 Uiso 1 1 calc RU . .
C47 C 0.4926(3) 0.69308(18) 1.2095(4) 0.0320(12) Uani 1 1 d U . .
C48 C 0.5118(4) 0.65430(19) 1.2231(4) 0.0371(13) Uani 1 1 d U . .
H48 H 0.4858 0.6386 1.2533 0.045 Uiso 1 1 calc RU . .
C49 C 0.5691(4) 0.6384(2) 1.1923(4) 0.0420(13) Uani 1 1 d U . .
H49 H 0.5799 0.6119 1.1994 0.050 Uiso 1 1 calc RU . .
C50 C 0.4257(3) 0.70887(18) 1.2338(4) 0.0328(12) Uani 1 1 d U . .
C51 C 0.8792(4) 0.6547(2) 0.9550(4) 0.0413(13) Uani 1 1 d U . .
C52 C 1.0013(3) 0.66632(19) 0.9265(4) 0.0357(12) Uani 1 1 d U . .
C53 C 0.9860(4) 0.7000(2) 0.8796(4) 0.0418(13) Uani 1 1 d U . .
H53 H 0.9366 0.7083 0.8613 0.050 Uiso 1 1 calc RU . .
C54 C 1.0425(3) 0.72191(19) 0.8588(4) 0.0333(12) Uani 1 1 d U . .
H54 H 1.0314 0.7445 0.8260 0.040 Uiso 1 1 calc RU . .
C55 C 1.1159(3) 0.70946(18) 0.8880(4) 0.0307(11) Uani 1 1 d U . .
C56 C 1.1305(4) 0.67605(19) 0.9349(4) 0.0376(13) Uani 1 1 d U . .
H56 H 1.1798 0.6680 0.9551 0.045 Uiso 1 1 calc RU . .
C57 C 1.0739(4) 0.6541(2) 0.9530(4) 0.0401(13) Uani 1 1 d U . .
H57 H 1.0849 0.6309 0.9834 0.048 Uiso 1 1 calc RU . .
C58 C 1.1749(3) 0.73201(17) 0.8654(4) 0.0256(11) Uani 1 1 d U . .
C59 C 0.7334(4) 0.5107(2) 0.6813(5) 0.0558(15) Uani 1 1 d U . .
C60 C 0.6893(4) 0.6441(2) 0.7794(5) 0.0500(14) Uani 1 1 d U . .
C61 C 0.5363(4) 0.3121(2) 0.4857(5) 0.0476(17) Uani 1 1 d U . .
H61 H 0.5581 0.3049 0.5419 0.057 Uiso 1 1 calc RU . .
C62 C 0.4541(9) 0.3531(5) 0.3894(8) 0.166(5) Uani 1 1 d U . .
H62A H 0.4891 0.3520 0.3537 0.249 Uiso 1 1 calc RU . .
H62B H 0.4373 0.3796 0.3920 0.249 Uiso 1 1 calc RU . .
H62C H 0.4120 0.3366 0.3660 0.249 Uiso 1 1 calc RU . .
C63 C 0.4840(7) 0.3659(4) 0.5463(7) 0.119(4) Uani 1 1 d U . .
H63A H 0.5164 0.3568 0.5986 0.178 Uiso 1 1 calc RU . .
H63B H 0.4332 0.3659 0.5517 0.178 Uiso 1 1 calc RU . .
H63C H 0.4982 0.3919 0.5345 0.178 Uiso 1 1 calc RU . .
C64 C 0.6472(5) 0.1683(2) 0.7513(4) 0.054(2) Uani 1 1 d U . .
H64 H 0.6324 0.1786 0.7981 0.065 Uiso 1 1 calc RU . .
C65 C 0.6658(8) 0.1144(4) 0.6683(9) 0.134(5) Uani 1 1 d U . .
H65A H 0.6295 0.0963 0.6372 0.201 Uiso 1 1 calc RU . .
H65B H 0.7124 0.1012 0.6901 0.201 Uiso 1 1 calc RU . .
H65C H 0.6730 0.1352 0.6309 0.201 Uiso 1 1 calc RU . .
C66 C 0.6039(8) 0.1065(4) 0.7971(8) 0.142(5) Uani 1 1 d U . .
H66A H 0.5860 0.0823 0.7696 0.213 Uiso 1 1 calc RU . .
H66B H 0.5627 0.1207 0.8096 0.213 Uiso 1 1 calc RU . .
H66C H 0.6404 0.1012 0.8494 0.213 Uiso 1 1 calc RU . .
La1 La 0.705000(19) 0.261862(9) 0.70703(2) 0.02238(13) Uani 1 1 d . . .
La2 La 0.67939(2) 0.251733(9) 0.45642(2) 0.02205(13) Uani 1 1 d . . .
N1 N 0.7657(4) 0.48972(18) 0.6330(4) 0.0608(18) Uani 1 1 d . . .
H1A H 0.8030 0.5005 0.6146 0.073 Uiso 1 1 d RU . .
N2 N 0.6368(3) 0.6299(2) 0.8158(4) 0.0545(17) Uani 1 1 d . . .
H2A H 0.6334 0.6040 0.8186 0.065 Uiso 1 1 d RU . .
N3 N 0.9341(3) 0.64432(19) 0.6624(4) 0.0516(16) Uani 1 1 d . . .
H3A H 0.8907 0.6561 0.6394 0.062 Uiso 1 1 d RU . .
N4 N 0.7632(3) 0.48756(16) 0.9586(4) 0.0446(14) Uani 1 1 d . . .
H4A H 0.7387 0.4928 0.9987 0.053 Uiso 1 1 d RU . .
N5 N 0.6674(3) 0.64792(16) 1.1155(3) 0.0389(13) Uani 1 1 d . . .
H5A H 0.6977 0.6660 1.1028 0.047 Uiso 1 1 d RU . .
N6 N 0.9461(3) 0.64328(17) 0.9476(4) 0.0442(14) Uani 1 1 d . . .
H6A H 0.9575 0.6182 0.9583 0.053 Uiso 1 1 d RU . .
N7 N 0.4907(6) 0.3398(3) 0.4755(5) 0.115(4) Uani 1 1 d . . .
N8 N 0.6393(6) 0.1305(2) 0.7387(6) 0.099(3) Uani 1 1 d . . .
O1 O 0.7032(3) 0.32583(11) 0.4505(3) 0.0381(10) Uani 1 1 d U . .
O2 O 0.7022(2) 0.30628(11) 0.5801(2) 0.0293(9) Uani 1 1 d U . .
O3 O 1.1818(3) 0.73279(13) 0.5209(3) 0.0369(10) Uani 1 1 d U . .
O4 O 1.2396(2) 0.73003(12) 0.6562(2) 0.0292(9) Uani 1 1 d U . .
O5 O 0.3970(2) 0.74317(11) 0.9196(3) 0.0299(10) Uani 1 1 d U . .
O6 O 0.4042(2) 0.69694(13) 1.0145(3) 0.0373(10) Uani 1 1 d U . .
O7 O 0.9831(4) 0.5935(2) 0.7375(6) 0.115(3) Uani 1 1 d . . .
O8 O 0.6993(4) 0.67924(17) 0.7702(5) 0.087(2) Uani 1 1 d U . .
O9 O 0.6832(4) 0.4984(2) 0.7142(5) 0.103(3) Uani 1 1 d U . .
O10 O 0.7643(3) 0.31978(12) 0.7894(3) 0.0375(10) Uani 1 1 d U . .
O11 O 0.7191(2) 0.30695(12) 0.9017(3) 0.0358(10) Uani 1 1 d U . .
O12 O 1.1621(3) 0.75639(12) 0.8077(3) 0.0313(10) Uani 1 1 d U . .
O13 O 1.2437(2) 0.72552(12) 0.9055(2) 0.0282(9) Uani 1 1 d U . .
O14 O 0.3953(2) 0.73990(12) 1.1991(3) 0.0296(9) Uani 1 1 d U . .
O15 O 0.4022(2) 0.69159(13) 1.2889(3) 0.0387(10) Uani 1 1 d U . .
O16 O 0.8557(4) 0.68740(17) 0.9454(5) 0.084(2) Uani 1 1 d U . .
O17 O 0.6526(3) 0.58358(16) 1.1273(4) 0.0725(19) Uani 1 1 d . . .
O18 O 0.8361(5) 0.51347(18) 0.8836(5) 0.114(3) Uani 1 1 d U . .
O19 O 0.5553(2) 0.29343(13) 0.4293(3) 0.0367(10) Uani 1 1 d U . .
O20 O 0.6715(3) 0.19011(13) 0.7085(3) 0.0384(11) Uani 1 1 d . . .

loop_
_atom_site_aniso_label
_atom_site_aniso_U_11
_atom_site_aniso_U_22
_atom_site_aniso_U_33
_atom_site_aniso_U_23
_atom_site_aniso_U_13
_atom_site_aniso_U_12
C1 0.045(3) 0.025(3) 0.042(3) -0.001(2) 0.023(2) -0.004(2)
C2 0.055(3) 0.024(3) 0.043(3) -0.002(2) 0.023(3) 0.000(2)
C3 0.058(3) 0.032(3) 0.056(3) -0.006(3) 0.021(3) -0.001(3)
C4 0.068(3) 0.030(3) 0.061(3) -0.008(2) 0.022(3) -0.001(3)
C5 0.063(3) 0.031(3) 0.063(3) -0.004(3) 0.019(3) -0.004(3)
C6 0.073(3) 0.036(3) 0.059(3) -0.004(3) 0.026(3) -0.010(3)
C7 0.072(3) 0.033(3) 0.055(3) -0.002(3) 0.024(3) -0.010(3)
C8 0.044(3) 0.036(3) 0.069(3) -0.010(3) 0.016(3) -0.004(3)
C9 0.041(3) 0.038(3) 0.059(3) 0.000(3) 0.022(2) -0.004(2)
C10 0.042(3) 0.036(3) 0.054(3) -0.005(2) 0.019(2) 0.006(2)
C11 0.055(3) 0.037(3) 0.062(3) -0.002(3) 0.017(3) -0.006(3)
C12 0.046(3) 0.040(3) 0.058(3) -0.005(2) 0.021(2) -0.005(2)
C13 0.046(3) 0.044(3) 0.067(3) -0.008(3) 0.024(3) -0.004(3)
C14 0.045(3) 0.043(3) 0.063(3) 0.000(3) 0.019(3) -0.002(3)
C15 0.038(3) 0.046(3) 0.048(3) 0.006(3) 0.018(2) -0.009(3)
C16 0.046(3) 0.074(4) 0.072(4) 0.022(3) 0.004(3) -0.012(3)
C17 0.045(3) 0.069(4) 0.065(3) 0.023(3) 0.006(3) -0.011(3)
C18 0.035(3) 0.043(3) 0.040(3) 0.005(3) 0.016(2) -0.012(3)
C19 0.032(2) 0.043(3) 0.041(3) 0.007(2) 0.011(2) -0.011(2)
C20 0.038(2) 0.045(3) 0.044(3) 0.009(2) 0.015(2) -0.010(2)
C21 0.029(3) 0.031(3) 0.030(3) -0.002(2) 0.011(2) -0.005(2)
C22 0.039(3) 0.044(3) 0.043(3) -0.001(3) 0.015(2) 0.009(3)
C23 0.044(3) 0.049(3) 0.045(3) 0.007(3) 0.020(2) 0.009(3)
C24 0.042(3) 0.043(3) 0.042(3) 0.003(3) 0.019(2) 0.006(3)
C25 0.033(3) 0.034(3) 0.034(3) -0.002(2) 0.014(2) 0.004(2)
C26 0.039(3) 0.037(3) 0.040(3) -0.001(2) 0.016(2) 0.006(2)
C27 0.046(3) 0.040(3) 0.046(3) -0.003(2) 0.016(2) 0.006(2)
C28 0.033(2) 0.029(3) 0.033(3) -0.002(2) 0.018(2) 0.003(2)
C29 0.039(3) 0.022(3) 0.045(3) -0.002(2) 0.018(2) -0.003(2)
C30 0.043(3) 0.022(2) 0.038(3) 0.000(2) 0.020(2) -0.003(2)
C31 0.057(3) 0.030(3) 0.051(3) -0.006(2) 0.028(2) -0.007(2)
C32 0.056(3) 0.030(3) 0.057(3) -0.006(2) 0.031(2) -0.009(2)
C33 0.052(3) 0.029(3) 0.046(3) -0.008(2) 0.023(2) -0.005(2)
C34 0.063(3) 0.034(3) 0.058(3) -0.004(3) 0.033(3) -0.005(3)
C35 0.058(3) 0.027(3) 0.052(3) -0.006(2) 0.032(3) -0.008(3)
C36 0.046(3) 0.036(3) 0.056(3) -0.007(3) 0.025(3) -0.004(3)
C37 0.037(3) 0.030(3) 0.048(3) -0.008(2) 0.019(2) -0.002(2)
C38 0.037(2) 0.033(2) 0.052(3) 0.000(2) 0.022(2) -0.001(2)
C39 0.032(2) 0.034(2) 0.048(3) -0.002(2) 0.021(2) -0.005(2)
C40 0.040(3) 0.028(3) 0.055(3) -0.007(2) 0.019(2) 0.000(2)
C41 0.037(2) 0.032(2) 0.048(3) -0.004(2) 0.021(2) -0.002(2)
C42 0.036(3) 0.029(3) 0.051(3) 0.002(2) 0.017(2) -0.008(2)
C43 0.039(3) 0.038(3) 0.050(3) -0.005(2) 0.023(2) -0.008(2)
C44 0.036(3) 0.038(3) 0.043(3) -0.006(2) 0.019(2) 0.002(2)
C45 0.035(2) 0.036(2) 0.044(3) -0.002(2) 0.021(2) -0.001(2)
C46 0.034(3) 0.028(3) 0.043(3) 0.000(2) 0.017(2) 0.005(2)
C47 0.033(3) 0.032(3) 0.033(3) 0.000(2) 0.012(2) 0.005(2)
C48 0.039(3) 0.036(3) 0.043(3) 0.001(2) 0.021(2) 0.003(2)
C49 0.042(3) 0.037(3) 0.051(3) -0.001(3) 0.019(2) 0.007(3)
C50 0.036(3) 0.031(3) 0.033(3) 0.002(2) 0.013(2) 0.003(2)
C51 0.041(3) 0.035(3) 0.053(3) -0.002(2) 0.022(2) 0.000(2)
C52 0.033(3) 0.035(3) 0.0