####################################################################### 
# 
# This file contains crystal structure data downloaded from the 
# Cambridge Structural Database (CSD) hosted by the Cambridge 
# Crystallographic Data Centre (CCDC).
# 
# Full information about CCDC data access policies and citation 
# guidelines are available at http://www.ccdc.cam.ac.uk/access/V1 
# 
# Audit and citation data items may have been added by the CCDC. 
# Please retain this information to preserve the provenance of 
# this file and to allow appropriate attribution of the data. 
# 
#######################################################################

data_e2757b
_audit_block_doi                 10.5517/cc10ykbv
_database_code_depnum_ccdc_archive 'CCDC 951927'
loop_
_citation_id
_citation_doi
_citation_year
1 10.1039/C3DT52036F 2014
_audit_update_record             
;
2013-07-23 deposited with the CCDC.	2024-07-13 downloaded from the CCDC.
;

_audit_creation_method           SHELXL-97
_chemical_name_systematic        
; 
 ? 
;
_chemical_name_common            ?
_chemical_melting_point          ?
_chemical_formula_moiety         'C60 H72 Cl4 Hg N4 O4,2(CH Cl3)'
_chemical_formula_sum            'C62 H74 Cl10 Hg2 N4 O4'
_chemical_formula_weight         1694.93

loop_
_atom_type_symbol
_atom_type_description
_atom_type_scat_dispersion_real
_atom_type_scat_dispersion_imag
_atom_type_scat_source
C C 0.0033 0.0016 'International Tables Vol C Tables 4.2.6.8 and 6.1.1.4'
H H 0.0000 0.0000 'International Tables Vol C Tables 4.2.6.8 and 6.1.1.4'
N N 0.0061 0.0033 'International Tables Vol C Tables 4.2.6.8 and 6.1.1.4'
O O 0.0106 0.0060 'International Tables Vol C Tables 4.2.6.8 and 6.1.1.4'
Cl Cl 0.1484 0.1585 'International Tables Vol C Tables 4.2.6.8 and 6.1.1.4'
Hg Hg -2.3894 9.2266 'International Tables Vol C Tables 4.2.6.8 and 6.1.1.4'

_symmetry_cell_setting           Triclinic
_symmetry_space_group_name_H-M   P1
_symmetry_space_group_name_Hall  'P 1'

loop_
_symmetry_equiv_pos_as_xyz
'x, y, z'

_cell_length_a                   5.0861(2)
_cell_length_b                   14.8867(8)
_cell_length_c                   22.8798(11)
_cell_angle_alpha                98.776(4)
_cell_angle_beta                 94.498(3)
_cell_angle_gamma                96.439(2)
_cell_volume                     1693.20(14)
_cell_formula_units_Z            1
_cell_measurement_temperature    173(2)
_cell_measurement_reflns_used    9982
_cell_measurement_theta_min      2.79
_cell_measurement_theta_max      24.13

_exptl_crystal_description       prism
_exptl_crystal_colour            yellow
_exptl_crystal_size_max          0.05
_exptl_crystal_size_mid          0.05
_exptl_crystal_size_min          0.04
_exptl_crystal_density_meas      none
_exptl_crystal_density_diffrn    1.662
_exptl_crystal_density_method    'not measured'
_exptl_crystal_F_000             836
_exptl_absorpt_coefficient_mu    4.970
_exptl_absorpt_correction_type   multi-scan
_exptl_absorpt_correction_T_min  0.7892
_exptl_absorpt_correction_T_max  0.8260
_exptl_absorpt_process_details   sadabs

_exptl_special_details           
; 
 ? 
;

_diffrn_ambient_temperature      173(2)
_diffrn_radiation_wavelength     0.71073
_diffrn_radiation_type           MoK\a
_diffrn_radiation_source         'fine-focus sealed tube'
_diffrn_radiation_monochromator  graphite
_diffrn_measurement_device_type  'Bruker APEX-II CCD'
_diffrn_measurement_method       '\f and \w scans'
_diffrn_detector_area_resol_mean ?
_diffrn_reflns_number            51598
_diffrn_reflns_av_R_equivalents  0.0622
_diffrn_reflns_av_sigmaI/netI    0.0857
_diffrn_reflns_limit_h_min       -7
_diffrn_reflns_limit_h_max       7
_diffrn_reflns_limit_k_min       -20
_diffrn_reflns_limit_k_max       20
_diffrn_reflns_limit_l_min       -27
_diffrn_reflns_limit_l_max       22
_diffrn_reflns_theta_min         2.10
_diffrn_reflns_theta_max         29.14
_reflns_number_total             15956
_reflns_number_gt                12015
_reflns_threshold_expression     >2sigma(I)

_computing_data_collection       'Bruker APEX2'
_computing_cell_refinement       'Bruker SAINT'
_computing_data_reduction        'Bruker SAINT'
_computing_structure_solution    'SHELXS-97 (Sheldrick, 2008)'
_computing_structure_refinement  'SHELXL-97 (Sheldrick, 2008)'
_computing_molecular_graphics    'Bruker SHELXTL'
_computing_publication_material  'Bruker SHELXTL'

_refine_special_details          
; 
 Refinement of F^2^ against ALL reflections.  The weighted R-factor wR and 
 goodness of fit S are based on F^2^, conventional R-factors R are based 
 on F, with F set to zero for negative F^2^. The threshold expression of 
 F^2^ > 2sigma(F^2^) is used only for calculating R-factors(gt) etc. and is 
 not relevant to the choice of reflections for refinement.  R-factors based 
 on F^2^ are statistically about twice as large as those based on F, and R- 
 factors based on ALL data will be even larger. 
;

_refine_ls_structure_factor_coef Fsqd
_refine_ls_matrix_type           full
_refine_ls_weighting_scheme      calc
_refine_ls_weighting_details     
'calc w=1/[\s^2^(Fo^2^)+(0.0692P)^2^+0.2420P] where P=(Fo^2^+2Fc^2^)/3'
_atom_sites_solution_primary     direct
_atom_sites_solution_secondary   difmap
_atom_sites_solution_hydrogens   geom
_refine_ls_hydrogen_treatment    mixed
_refine_ls_extinction_method     none
_refine_ls_extinction_coef       ?
_refine_ls_abs_structure_details 'Flack H D (1983), Acta Cryst. A39, 876-881'
_refine_ls_abs_structure_Flack   0.020(8)
_chemical_absolute_configuration ad
_refine_ls_number_reflns         15956
_refine_ls_number_parameters     735
_refine_ls_number_restraints     7
_refine_ls_R_factor_all          0.0845
_refine_ls_R_factor_gt           0.0558
_refine_ls_wR_factor_ref         0.1306
_refine_ls_wR_factor_gt          0.1200
_refine_ls_goodness_of_fit_ref   1.013
_refine_ls_restrained_S_all      1.013
_refine_ls_shift/su_max          0.008
_refine_ls_shift/su_mean         0.029

loop_
_atom_site_label
_atom_site_type_symbol
_atom_site_fract_x
_atom_site_fract_y
_atom_site_fract_z
_atom_site_U_iso_or_equiv
_atom_site_adp_type
_atom_site_occupancy
_atom_site_symmetry_multiplicity
_atom_site_calc_flag
_atom_site_refinement_flags
_atom_site_disorder_assembly
_atom_site_disorder_group
Hg1 Hg 1.61808(4) -0.113888(19) 1.351218(16) 0.03049(14) Uani 1 1 d . . .
Cl1 Cl 1.7376(9) 0.0173(2) 1.42327(19) 0.0435(9) Uani 1 1 d . . .
Cl2 Cl 1.7348(8) -0.2373(3) 1.2849(2) 0.0407(9) Uani 1 1 d . . .
Hg2 Hg -1.25130(4) 0.437386(19) 0.871474(16) 0.03304(15) Uani 1 1 d . . .
Cl3 Cl -1.3821(10) 0.2945(3) 0.8072(2) 0.0491(10) Uani 1 1 d . . .
Cl4 Cl -1.3482(9) 0.5720(3) 0.9317(2) 0.0464(10) Uani 1 1 d . . .
N1 N 1.304(2) -0.0548(7) 1.2862(6) 0.031(3) Uani 1 1 d . . .
C1 C 1.228(3) -0.0948(8) 1.2321(7) 0.029(3) Uani 1 1 d . . .
H1 H 1.3088 -0.1473 1.2177 0.035 Uiso 1 1 calc R . .
C2 C 1.046(3) -0.0695(10) 1.1946(8) 0.039(4) Uani 1 1 d . . .
H2 H 1.0023 -0.1016 1.1553 0.046 Uiso 1 1 calc R . .
C3 C 0.926(2) 0.0065(8) 1.2161(6) 0.023(3) Uani 1 1 d . . .
C4 C 1.013(3) 0.0510(10) 1.2702(8) 0.040(4) Uani 1 1 d . . .
H4 H 0.9439 0.1058 1.2847 0.048 Uiso 1 1 calc R . .
C5 C 1.205(3) 0.0192(10) 1.3063(7) 0.032(3) Uani 1 1 d . . .
H5 H 1.2615 0.0514 1.3452 0.039 Uiso 1 1 calc R . .
C6 C 0.720(3) 0.0406(10) 1.1772(7) 0.038(4) Uani 1 1 d . . .
H6 H 0.6690 0.0046 1.1392 0.045 Uiso 1 1 calc R . .
C7 C 0.604(3) 0.1137(8) 1.1895(6) 0.032(3) Uani 1 1 d . . .
H7 H 0.6667 0.1535 1.2256 0.038 Uiso 1 1 calc R . .
C8 C 0.382(2) 0.1410(9) 1.1525(6) 0.026(3) Uani 1 1 d . . .
C9 C 0.291(3) 0.2223(9) 1.1729(6) 0.029(3) Uani 1 1 d . . .
C10 C 0.079(2) 0.2510(9) 1.1347(6) 0.025(3) Uani 1 1 d . . .
H10 H 0.0136 0.3073 1.1477 0.030 Uiso 1 1 calc R . .
C11 C -0.024(2) 0.2019(8) 1.0831(5) 0.023(3) Uani 1 1 d . . .
C12 C 0.083(3) 0.1207(10) 1.0617(6) 0.031(3) Uani 1 1 d . . .
C13 C 0.281(3) 0.0908(10) 1.0962(8) 0.052(5) Uani 1 1 d . . .
H13 H 0.3494 0.0357 1.0819 0.062 Uiso 1 1 calc R . .
O1 O 0.400(2) 0.2707(6) 1.2265(4) 0.041(2) Uani 1 1 d . . .
C14 C 0.278(3) 0.3382(11) 1.2541(8) 0.051(4) Uani 1 1 d . . .
H14A H 0.0864 0.3173 1.2540 0.061 Uiso 1 1 calc R . .
H14B H 0.2969 0.3919 1.2333 0.061 Uiso 1 1 calc R . .
C15 C 0.413(3) 0.3657(11) 1.3208(7) 0.059(5) Uani 1 1 d . . .
H15 H 0.6066 0.3844 1.3181 0.070 Uiso 1 1 calc R . .
C16 C 0.399(3) 0.2922(11) 1.3541(8) 0.062(5) Uani 1 1 d . . .
H16A H 0.4544 0.2376 1.3301 0.075 Uiso 1 1 calc R . .
H16B H 0.2126 0.2766 1.3622 0.075 Uiso 1 1 calc R . .
C17 C 0.575(3) 0.3157(13) 1.4128(8) 0.088(5) Uani 1 1 d . . .
H17A H 0.5486 0.3766 1.4328 0.131 Uiso 1 1 calc R . .
H17B H 0.7617 0.3153 1.4052 0.131 Uiso 1 1 calc R . .
H17C H 0.5273 0.2702 1.4382 0.131 Uiso 1 1 calc R . .
C18 C 0.298(3) 0.4549(10) 1.3499(7) 0.071(5) Uani 1 1 d . . .
H18A H 0.1097 0.4513 1.3355 0.106 Uiso 1 1 calc R . .
H18B H 0.3969 0.5092 1.3390 0.106 Uiso 1 1 calc R . .
H18C H 0.3154 0.4592 1.3933 0.106 Uiso 1 1 calc R . .
O2 O -0.023(2) 0.0731(6) 1.0102(4) 0.044(3) Uani 1 1 d . . .
C19 C 0.132(3) 0.0046(10) 0.9773(6) 0.041(3) Uani 1 1 d D . .
H19A H 0.1467 -0.0482 0.9984 0.049 Uiso 1 1 calc R . .
H19B H 0.3124 0.0331 0.9725 0.049 Uiso 1 1 calc R . .
C20 C -0.032(3) -0.0256(9) 0.9169(5) 0.043(3) Uani 1 1 d D . .
H20 H -0.2175 -0.0486 0.9236 0.051 Uiso 1 1 calc R . .
C21 C 0.089(3) -0.1020(10) 0.8852(6) 0.064(5) Uani 1 1 d D . .
H21A H 0.1107 -0.1478 0.9118 0.076 Uiso 1 1 calc R . .
H21B H 0.2681 -0.0785 0.8759 0.076 Uiso 1 1 calc R . .
C22 C -0.076(3) -0.1493(10) 0.8272(7) 0.080(5) Uani 1 1 d D . .
H22A H -0.2656 -0.1521 0.8328 0.121 Uiso 1 1 calc R . .
H22B H -0.0301 -0.2116 0.8168 0.121 Uiso 1 1 calc R . .
H22C H -0.0372 -0.1145 0.7952 0.121 Uiso 1 1 calc R . .
C23 C -0.040(5) 0.0557(10) 0.8832(8) 0.091(8) Uani 1 1 d D . .
H23A H 0.1322 0.0942 0.8905 0.137 Uiso 1 1 calc R . .
H23B H -0.1793 0.0920 0.8971 0.137 Uiso 1 1 calc R . .
H23C H -0.0792 0.0330 0.8405 0.137 Uiso 1 1 calc R . .
C24 C -0.213(2) 0.2337(7) 1.0423(6) 0.027(3) Uani 1 1 d . . .
H24 H -0.2453 0.1999 1.0032 0.032 Uiso 1 1 calc R . .
C25 C -0.344(2) 0.3059(9) 1.0546(6) 0.027(3) Uani 1 1 d . . .
H25 H -0.3001 0.3429 1.0925 0.033 Uiso 1 1 calc R . .
C26 C -0.549(3) 0.3329(10) 1.0154(7) 0.038(4) Uani 1 1 d . . .
C27 C -0.620(3) 0.2842(10) 0.9565(7) 0.037(4) Uani 1 1 d . . .
H27 H -0.5360 0.2323 0.9425 0.045 Uiso 1 1 calc R . .
C28 C -0.813(3) 0.3136(11) 0.9198(8) 0.045(4) Uani 1 1 d . . .
H28 H -0.8569 0.2805 0.8807 0.054 Uiso 1 1 calc R . .
N2 N -0.943(2) 0.3871(9) 0.9367(6) 0.036(3) Uani 1 1 d . . .
C29 C -0.865(3) 0.4379(9) 0.9900(7) 0.035(3) Uani 1 1 d . . .
H29 H -0.9366 0.4934 1.0019 0.042 Uiso 1 1 calc R . .
C30 C -0.672(3) 0.4068(10) 1.0289(7) 0.037(4) Uani 1 1 d . . .
H30 H -0.6290 0.4417 1.0675 0.044 Uiso 1 1 calc R . .
N3 N -0.939(2) 0.5065(7) 0.8126(5) 0.0272(19) Uani 1 1 d . . .
C31 C -0.827(2) 0.4532(8) 0.7703(5) 0.0272(19) Uani 1 1 d . . .
H31 H -0.8909 0.3896 0.7626 0.033 Uiso 1 1 calc R . .
C32 C -0.633(2) 0.4831(8) 0.7382(6) 0.034(3) Uani 1 1 d . . .
H32 H -0.5558 0.4412 0.7111 0.040 Uiso 1 1 calc R . .
C33 C -0.548(2) 0.5776(7) 0.7460(5) 0.023(2) Uani 1 1 d . . .
C34 C -0.663(3) 0.6300(8) 0.7907(7) 0.042(4) Uani 1 1 d . . .
H34 H -0.6018 0.6936 0.8008 0.050 Uiso 1 1 calc R . .
C35 C -0.864(3) 0.5923(9) 0.8209(6) 0.028(3) Uani 1 1 d . . .
H35 H -0.9477 0.6316 0.8484 0.034 Uiso 1 1 calc R . .
C36 C -0.350(2) 0.6179(8) 0.7121(5) 0.029(2) Uani 1 1 d . . .
H36 H -0.3052 0.6825 0.7203 0.034 Uiso 1 1 calc R . .
C37 C -0.225(2) 0.5717(7) 0.6702(5) 0.023(2) Uani 1 1 d . . .
H37 H -0.2712 0.5071 0.6630 0.028 Uiso 1 1 calc R . .
C38 C -0.029(2) 0.6078(7) 0.6343(5) 0.025(2) Uani 1 1 d . . .
C39 C 0.074(2) 0.5488(7) 0.5919(5) 0.027(2) Uani 1 1 d . . .
C40 C 0.275(2) 0.5828(7) 0.5583(6) 0.038(3) Uani 1 1 d . . .
H40 H 0.3447 0.5422 0.5289 0.045 Uiso 1 1 calc R . .
C41 C 0.3710(19) 0.6757(8) 0.5686(4) 0.024(2) Uani 1 1 d . . .
C42 C 0.272(2) 0.7351(7) 0.6133(5) 0.029(2) Uani 1 1 d . . .
C43 C 0.079(2) 0.7017(8) 0.6474(5) 0.030(2) Uani 1 1 d . . .
H43 H 0.0203 0.7413 0.6790 0.036 Uiso 1 1 calc R . .
O3 O -0.0326(17) 0.4595(5) 0.5807(4) 0.047(2) Uani 1 1 d . . .
C44 C 0.101(2) 0.3927(7) 0.5489(6) 0.039(3) Uani 1 1 d . . .
H44A H 0.2930 0.4033 0.5630 0.047 Uiso 1 1 calc R . .
H44B H 0.0826 0.3970 0.5060 0.047 Uiso 1 1 calc R . .
C45 C -0.016(3) 0.2991(8) 0.5581(6) 0.043(3) Uani 1 1 d . . .
H45 H -0.2100 0.2949 0.5456 0.052 Uiso 1 1 calc R . .
C46 C 0.004(3) 0.2899(10) 0.6252(7) 0.052(3) Uani 1 1 d . . .
H46A H 0.1909 0.2842 0.6383 0.062 Uiso 1 1 calc R . .
H46B H -0.0420 0.3469 0.6483 0.062 Uiso 1 1 calc R . .
C47 C -0.169(3) 0.2114(9) 0.6394(8) 0.074(4) Uani 1 1 d . . .
H47A H -0.3399 0.2040 0.6154 0.111 Uiso 1 1 calc R . .
H47B H -0.1969 0.2225 0.6817 0.111 Uiso 1 1 calc R . .
H47C H -0.0834 0.1556 0.6307 0.111 Uiso 1 1 calc R . .
C48 C 0.078(3) 0.2241(9) 0.5205(7) 0.064(4) Uani 1 1 d . . .
H48A H 0.0395 0.2301 0.4787 0.096 Uiso 1 1 calc R . .
H48B H -0.0130 0.1658 0.5277 0.096 Uiso 1 1 calc R . .
H48C H 0.2699 0.2258 0.5296 0.096 Uiso 1 1 calc R . .
O4 O 0.3823(19) 0.8250(5) 0.6213(4) 0.053(3) Uani 1 1 d . . .
C49 C 0.257(3) 0.8903(7) 0.6604(7) 0.049(3) Uani 1 1 d . . .
H49A H 0.2880 0.8804 0.7021 0.059 Uiso 1 1 calc R . .
H49B H 0.0631 0.8829 0.6491 0.059 Uiso 1 1 calc R . .
C50 C 0.381(3) 0.9855(8) 0.6539(8) 0.060(4) Uani 1 1 d . . .
H50 H 0.5793 0.9912 0.6602 0.072 Uiso 1 1 calc R . .
C51 C 0.271(4) 1.0582(11) 0.6984(8) 0.078(6) Uani 1 1 d . . .
H51A H 0.0778 1.0415 0.7002 0.094 Uiso 1 1 calc R . .
H51B H 0.2990 1.1192 0.6861 0.094 Uiso 1 1 calc R . .
C52 C 0.425(7) 1.0595(13) 0.7597(9) 0.182(15) Uani 1 1 d . . .
H52A H 0.3485 1.0081 0.7777 0.273 Uiso 1 1 calc R . .
H52B H 0.4121 1.1173 0.7857 0.273 Uiso 1 1 calc R . .
H52C H 0.6123 1.0538 0.7546 0.273 Uiso 1 1 calc R . .
C53 C 0.292(6) 1.0020(12) 0.5943(11) 0.134(11) Uani 1 1 d . . .
H53A H 0.1612 0.9509 0.5746 0.202 Uiso 1 1 calc R . .
H53B H 0.4452 1.0071 0.5709 0.202 Uiso 1 1 calc R . .
H53C H 0.2113 1.0591 0.5975 0.202 Uiso 1 1 calc R . .
C54 C 0.582(2) 0.7142(7) 0.5338(6) 0.034(3) Uani 1 1 d . . .
H54 H 0.6369 0.7782 0.5440 0.040 Uiso 1 1 calc R . .
C55 C 0.700(2) 0.6709(8) 0.4911(6) 0.038(3) Uani 1 1 d . . .
H55 H 0.6515 0.6067 0.4796 0.045 Uiso 1 1 calc R . .
C56 C 0.904(2) 0.7172(7) 0.4606(5) 0.025(2) Uani 1 1 d . . .
C57 C 1.022(2) 0.6694(7) 0.4185(6) 0.029(3) Uani 1 1 d . . .
H57 H 0.9756 0.6048 0.4093 0.035 Uiso 1 1 calc R . .
C58 C 1.212(3) 0.7123(8) 0.3873(7) 0.033(3) Uani 1 1 d . . .
H58 H 1.2838 0.6766 0.3558 0.040 Uiso 1 1 calc R . .
N4 N 1.299(2) 0.8038(7) 0.4008(5) 0.033(2) Uani 1 1 d . . .
C59 C 1.187(3) 0.8498(8) 0.4401(6) 0.033(2) Uani 1 1 d . . .
H59 H 1.2361 0.9142 0.4485 0.040 Uiso 1 1 calc R . .
C60 C 0.989(3) 0.8101(7) 0.4728(6) 0.032(3) Uani 1 1 d . . .
H60 H 0.9151 0.8478 0.5030 0.039 Uiso 1 1 calc R . .
C61 C 0.498(3) 0.7456(12) 0.0368(9) 0.070(6) Uani 1 1 d . . .
H61 H 0.6170 0.7000 0.0215 0.084 Uiso 1 1 calc R . .
Cl5 Cl 0.6143(9) 0.8514(3) 0.0194(2) 0.0639(11) Uani 1 1 d . . .
Cl6 Cl 0.1757(17) 0.7083(6) 0.0044(5) 0.165(4) Uani 1 1 d . . .
Cl7 Cl 0.502(2) 0.7513(7) 0.1125(4) 0.177(4) Uani 1 1 d . . .
C62 C 0.894(4) 0.5846(11) 0.1829(7) 0.070(6) Uani 1 1 d . . .
H62 H 0.7761 0.6328 0.1936 0.084 Uiso 1 1 calc R . .
Cl8 Cl 0.8849(10) 0.5687(4) 0.1065(2) 0.0798(15) Uani 1 1 d . . .
Cl9 Cl 1.1929(7) 0.6252(3) 0.22153(17) 0.0529(10) Uani 1 1 d . . .
Cl10 Cl 0.7487(18) 0.4858(5) 0.2093(5) 0.144(3) Uani 1 1 d . . .

loop_
_atom_site_aniso_label
_atom_site_aniso_U_11
_atom_site_aniso_U_22
_atom_site_aniso_U_33
_atom_site_aniso_U_23
_atom_site_aniso_U_13
_atom_site_aniso_U_12
Hg1 0.0304(3) 0.0266(3) 0.0357(4) 0.0088(2) 0.0012(2) 0.0049(2)
Cl1 0.0470(19) 0.0283(15) 0.051(2) 0.0023(14) -0.0039(16) -0.0031(13)
Cl2 0.0323(17) 0.0354(16) 0.053(3) 0.0022(15) 0.0016(15) 0.0072(13)
Hg2 0.0326(3) 0.0394(3) 0.0310(4) 0.0173(3) 0.0025(3) 0.0057(3)
Cl3 0.057(2) 0.0368(18) 0.051(3) 0.0059(15) 0.0018(17) 0.0022(15)
Cl4 0.050(2) 0.053(2) 0.038(2) 0.0048(16) 0.0144(17) 0.0105(17)
N1 0.031(6) 0.018(5) 0.043(9) 0.005(5) 0.007(5) 0.002(4)
C1 0.025(6) 0.018(5) 0.050(10) 0.019(5) 0.007(5) 0.008(4)
C2 0.043(8) 0.043(8) 0.035(10) 0.012(6) 0.013(7) 0.013(6)
C3 0.025(6) 0.017(5) 0.030(8) 0.014(4) -0.001(5) 0.009(4)
C4 0.040(8) 0.037(7) 0.040(10) 0.007(6) -0.018(6) 0.009(6)
C5 0.024(6) 0.040(7) 0.041(9) 0.011(6) 0.013(6) 0.019(5)
C6 0.039(7) 0.042(8) 0.027(8) 0.005(6) -0.006(5) -0.011(6)
C7 0.040(7) 0.023(6) 0.032(8) 0.011(5) 0.002(5) -0.010(5)
C8 0.025(5) 0.034(6) 0.018(7) -0.003(4) 0.006(4) 0.004(4)
C9 0.036(6) 0.030(6) 0.024(8) 0.009(5) -0.002(5) 0.015(5)
C10 0.021(5) 0.037(6) 0.018(6) 0.011(5) -0.008(4) 0.014(4)
C11 0.034(6) 0.024(5) 0.014(7) 0.005(4) 0.003(4) 0.010(4)
C12 0.024(6) 0.042(7) 0.022(7) 0.003(5) -0.008(4) 0.001(5)
C13 0.055(9) 0.029(7) 0.082(13) 0.014(7) 0.040(9) 0.024(6)
O1 0.045(5) 0.042(5) 0.032(6) -0.011(4) -0.007(4) 0.014(4)
C14 0.033(7) 0.050(8) 0.065(11) 0.001(7) -0.020(6) 0.007(6)
C15 0.058(9) 0.065(9) 0.044(10) -0.027(7) -0.016(6) 0.034(7)
C16 0.071(10) 0.055(9) 0.064(12) 0.011(8) 0.017(8) 0.013(7)
C17 0.074(10) 0.115(14) 0.078(13) 0.017(10) -0.008(8) 0.035(10)
C18 0.085(11) 0.052(9) 0.056(11) -0.042(8) -0.029(8) 0.016(8)
O2 0.052(5) 0.044(5) 0.030(6) -0.015(4) -0.024(4) 0.029(4)
C19 0.043(7) 0.047(7) 0.030(8) 0.009(6) -0.009(5) -0.006(6)
C20 0.048(7) 0.057(8) 0.020(8) 0.007(6) -0.001(5) -0.001(6)
C21 0.102(12) 0.047(8) 0.029(9) -0.031(6) -0.018(7) 0.019(8)
C22 0.092(11) 0.069(10) 0.067(12) -0.022(8) -0.020(9) 0.018(8)
C23 0.19(2) 0.036(8) 0.040(11) -0.002(7) -0.028(11) 0.018(10)
C24 0.019(5) 0.017(5) 0.045(8) 0.004(5) -0.003(4) 0.008(