####################################################################### 
# 
# This file contains crystal structure data downloaded from the 
# Cambridge Structural Database (CSD) hosted by the Cambridge 
# Crystallographic Data Centre (CCDC).
# 
# Full information about CCDC data access policies and citation 
# guidelines are available at http://www.ccdc.cam.ac.uk/access/V1 
# 
# Audit and citation data items may have been added by the CCDC. 
# Please retain this information to preserve the provenance of 
# this file and to allow appropriate attribution of the data. 
# 
#######################################################################

data_mm153-mask
_audit_block_doi                 10.5517/cc10xkj0
_database_code_depnum_ccdc_archive 'CCDC 950972'
loop_
_citation_id
_citation_doi
_citation_year
1 10.1039/C3CE41459K 2013
_audit_update_record             
;
2013-09-03 deposited with the CCDC.	2024-07-13 downloaded from the CCDC.
;

_audit_creation_method           SHELXL-97
_chemical_name_systematic        
;
 ?
;
_chemical_name_common            TMOF-4
_chemical_melting_point          ?
_chemical_formula_moiety         'C216 H148 O39 Zn7'
_chemical_formula_sum            'C216 H148 O39 Zn7'
_chemical_formula_weight         3825.18

loop_
_atom_type_symbol
_atom_type_description
_atom_type_scat_dispersion_real
_atom_type_scat_dispersion_imag
_atom_type_scat_source
C C 0.0181 0.0091 'International Tables Vol C Tables 4.2.6.8 and 6.1.1.4'
H H 0.0000 0.0000 'International Tables Vol C Tables 4.2.6.8 and 6.1.1.4'
O O 0.0492 0.0322 'International Tables Vol C Tables 4.2.6.8 and 6.1.1.4'
Zn Zn -1.5491 0.6778 'International Tables Vol C Tables 4.2.6.8 and 6.1.1.4'

_symmetry_cell_setting           Trigonal
_symmetry_space_group_name_H-M   'R -3 c'
_symmetry_space_group_name_Hall  '-R 3 2"c'

loop_
_symmetry_equiv_pos_as_xyz
'x, y, z'
'-y, x-y, z'
'-x+y, -x, z'
'y, x, -z+1/2'
'x-y, -y, -z+1/2'
'-x, -x+y, -z+1/2'
'x+2/3, y+1/3, z+1/3'
'-y+2/3, x-y+1/3, z+1/3'
'-x+y+2/3, -x+1/3, z+1/3'
'y+2/3, x+1/3, -z+5/6'
'x-y+2/3, -y+1/3, -z+5/6'
'-x+2/3, -x+y+1/3, -z+5/6'
'x+1/3, y+2/3, z+2/3'
'-y+1/3, x-y+2/3, z+2/3'
'-x+y+1/3, -x+2/3, z+2/3'
'y+1/3, x+2/3, -z+7/6'
'x-y+1/3, -y+2/3, -z+7/6'
'-x+1/3, -x+y+2/3, -z+7/6'
'-x, -y, -z'
'y, -x+y, -z'
'x-y, x, -z'
'-y, -x, z-1/2'
'-x+y, y, z-1/2'
'x, x-y, z-1/2'
'-x+2/3, -y+1/3, -z+1/3'
'y+2/3, -x+y+1/3, -z+1/3'
'x-y+2/3, x+1/3, -z+1/3'
'-y+2/3, -x+1/3, z-1/6'
'-x+y+2/3, y+1/3, z-1/6'
'x+2/3, x-y+1/3, z-1/6'
'-x+1/3, -y+2/3, -z+2/3'
'y+1/3, -x+y+2/3, -z+2/3'
'x-y+1/3, x+2/3, -z+2/3'
'-y+1/3, -x+2/3, z+1/6'
'-x+y+1/3, y+2/3, z+1/6'
'x+1/3, x-y+2/3, z+1/6'

_cell_length_a                   33.48(2)
_cell_length_b                   33.48(2)
_cell_length_c                   105.59(7)
_cell_angle_alpha                90.00
_cell_angle_beta                 90.00
_cell_angle_gamma                120.00
_cell_volume                     102497(125)
_cell_formula_units_Z            12
_cell_measurement_temperature    90(2)
_cell_measurement_reflns_used    8726
_cell_measurement_theta_min      33.0735
_cell_measurement_theta_max      56.3025

_exptl_crystal_description       prism
_exptl_crystal_colour            colourless
_exptl_crystal_size_max          0.330
_exptl_crystal_size_mid          0.200
_exptl_crystal_size_min          0.200
_exptl_crystal_density_meas      ?
_exptl_crystal_density_diffrn    0.743
_exptl_crystal_density_method    'not measured'
_exptl_crystal_F_000             23544
_exptl_absorpt_coefficient_mu    0.883
_exptl_absorpt_correction_type   multi-scan
_exptl_absorpt_correction_T_min  0.854
_exptl_absorpt_correction_T_max  1.193
_exptl_absorpt_process_details   'SADABS (Sheldrick, 2008)'

_exptl_special_details           
;
This MOF is massive, with a very very large amount of 
void space observed in the pores. Several attempts to obtain 
better diffraction data were made, however this was the best effort.
The pores are filled with disordered solvent molecules. Many of which
are present in partial occupancy as the structure units repeat. This 
is very common for these materials. In order to get a handle on the 
framework itself, all electron denisty belonging to trapped solvent 
molecules was removed using an OLEX solvent mask. These solvent 
molecules were likely DMF, water, and chlorobenzene, however none of
these solvent molecules were resolved before the solvent mask was
applied. This can account for the relatively high values for R and wR.
;

_diffrn_ambient_temperature      90(2)
_diffrn_radiation_wavelength     1.54178
_diffrn_radiation_type           CuK\a
_diffrn_radiation_source         'fine-focus sealed tube'
_diffrn_radiation_monochromator  graphite
_diffrn_measurement_device_type  'Bruker APEX DUO'
_diffrn_measurement_method       'area detector'
_diffrn_detector_area_resol_mean ?
_diffrn_standards_number         ?
_diffrn_standards_interval_count ?
_diffrn_standards_interval_time  ?
_diffrn_standards_decay_%        ?
_diffrn_reflns_number            8726
_diffrn_reflns_av_R_equivalents  0.0000
_diffrn_reflns_av_sigmaI/netI    0.0670
_diffrn_reflns_limit_h_min       0
_diffrn_reflns_limit_h_max       26
_diffrn_reflns_limit_k_min       0
_diffrn_reflns_limit_k_max       15
_diffrn_reflns_limit_l_min       -95
_diffrn_reflns_limit_l_max       96
_diffrn_reflns_theta_min         1.74
_diffrn_reflns_theta_max         44.78
_reflns_number_total             8726
_reflns_number_gt                4502
_reflns_threshold_expression     >2\s(I)

_computing_data_collection       'Bruker APEX2'
_computing_cell_refinement       'Bruker SAINT'
_computing_data_reduction        'Bruker SAINT'
_computing_structure_solution    'SIR-97 (Giacovazzo, 1998)'
_computing_structure_refinement  'SHELXL-2012 (Sheldrick, 2012)'
_computing_molecular_graphics    'Bruker SHELXTL'
_computing_publication_material  'Bruker SHELXTL'

_refine_special_details          
;
 Refinement of F^2^ against ALL reflections.  The weighted R-factor wR and
 goodness of fit S are based on F^2^, conventional R-factors R are based
 on F, with F set to zero for negative F^2^. The threshold expression of
 F^2^ > 2\s(F^2^) is used only for calculating R-factors(gt) etc. and is
 not relevant to the choice of reflections for refinement.  R-factors based
 on F^2^ are statistically about twice as large as those based on F, and R-
 factors based on ALL data will be even larger.
;

_refine_ls_structure_factor_coef Fsqd
_refine_ls_matrix_type           full
_refine_ls_weighting_scheme      calc
_refine_ls_weighting_details     
'calc w=1/[\s^2^(Fo^2^)+(0.2000P)^2^+0.0000P] where P=(Fo^2^+2Fc^2^)/3'
_atom_sites_solution_primary     direct
_atom_sites_solution_secondary   difmap
_atom_sites_solution_hydrogens   geom
_refine_ls_hydrogen_treatment    constr
_refine_ls_extinction_method     SHELXL
_refine_ls_extinction_coef       0.0000000(1)
_refine_ls_extinction_expression Fc^*^=kFc[1+0.001xFc^2^\l^3^/sin(2\q)]^-1/4^
_refine_ls_number_reflns         8726
_refine_ls_number_parameters     788
_refine_ls_number_restraints     1092
_refine_ls_R_factor_all          0.1737
_refine_ls_R_factor_gt           0.1166
_refine_ls_wR_factor_ref         0.3755
_refine_ls_wR_factor_gt          0.3416
_refine_ls_goodness_of_fit_ref   1.266
_refine_ls_restrained_S_all      1.212
_refine_ls_shift/su_max          0.000
_refine_ls_shift/su_mean         0.000

_vrf_PLAT041_ALERT_1             
;
PROBLEM: Calc. and Reported SumFormula    Strings  Differ 
RESPONSE: The H's on the hydroxyl groups and on the protonated ligand  are not modelled.
;

_vrf_CELLZ01_ALERT_1             
;
PROBLEM: WARNING: H atoms missing from atom site list. Is this intentional?
RESPONSE: The H's on the hydroxyl groups and on the protonated ligand  are not modelled.
;


loop_
_atom_site_label
_atom_site_type_symbol
_atom_site_fract_x
_atom_site_fract_y
_atom_site_fract_z
_atom_site_U_iso_or_equiv
_atom_site_adp_type
_atom_site_occupancy
_atom_site_symmetry_multiplicity
_atom_site_calc_flag
_atom_site_refinement_flags
_atom_site_disorder_assembly
_atom_site_disorder_group
C1 C 0.9903(7) 0.5177(6) -0.04079(17) 0.149(6) Uani 1 1 d U . .
C2 C 1.0245(7) 0.5055(5) -0.04107(15) 0.139(5) Uani 1 1 d U . .
H2 H 1.0235 0.4829 -0.0354 0.167 Uiso 1 1 calc R . .
C3 C 1.0603(6) 0.5272(5) -0.04984(16) 0.128(5) Uani 1 1 d U . .
H3 H 1.0879 0.5259 -0.0489 0.153 Uiso 1 1 calc R . .
C4 C 1.0544(6) 0.5515(7) -0.06031(17) 0.153(7) Uani 1 1 d U . .
C5 C 1.0169(7) 0.5582(7) -0.06009(17) 0.163(7) Uani 1 1 d U . .
C6 C 0.9818(7) 0.5381(7) -0.05178(18) 0.154(6) Uani 1 1 d U . .
C7 C 0.9438(8) 0.5469(9) -0.0542(2) 0.177(7) Uani 1 1 d U . .
H7 H 0.9182 0.5313 -0.0479 0.213 Uiso 1 1 calc R . .
C8 C 1.0086(7) 0.5880(8) -0.06974(19) 0.167(7) Uani 1 1 d U . .
H8 H 1.0338 0.6035 -0.0762 0.201 Uiso 1 1 calc R . .
C9 C 0.9290(9) 0.5338(9) -0.0665(3) 0.211(8) Uani 1 1 d DU . .
C10 C 0.9618(9) 0.5532(7) -0.0755(2) 0.183(7) Uani 1 1 d DU . .
C11 C 0.9493(9) 0.5407(8) -0.0895(3) 0.217(9) Uani 1 1 d DU . .
H11 H 0.9725 0.5550 -0.0958 0.260 Uiso 1 1 calc R . .
C12 C 0.9058(10) 0.5096(10) -0.0930(3) 0.249(11) Uani 1 1 d DU . .
H12 H 0.8992 0.5029 -0.1017 0.299 Uiso 1 1 calc R . .
C13 C 0.8777(10) 0.4917(11) -0.0860(3) 0.270(11) Uani 1 1 d DU . .
H13 H 0.8483 0.4685 -0.0889 0.324 Uiso 1 1 calc R . .
C14 C 0.8846(10) 0.5037(10) -0.0706(3) 0.255(10) Uani 1 1 d DU . .
H14 H 0.8593 0.4906 -0.0649 0.306 Uiso 1 1 calc R . .
C15 C 0.9665(7) 0.5976(10) -0.0535(2) 0.189(7) Uani 1 1 d DU . .
C16 C 1.0002(7) 0.6201(10) -0.0624(2) 0.186(7) Uani 1 1 d DU . .
C17 C 1.0237(9) 0.6629(12) -0.06417(19) 0.228(9) Uani 1 1 d DU . .
H17 H 1.0478 0.6750 -0.0703 0.274 Uiso 1 1 calc R . .
C18 C 1.0139(9) 0.6937(9) -0.0570(2) 0.252(9) Uani 1 1 d DU . .
H18 H 1.0280 0.7259 -0.0586 0.303 Uiso 1 1 calc R . .
C19 C 0.9782(9) 0.6686(10) -0.0464(2) 0.227(9) Uani 1 1 d DU . .
H19 H 0.9733 0.6865 -0.0403 0.273 Uiso 1 1 calc R . .
C20 C 0.9542(9) 0.6233(10) -0.0455(2) 0.225(9) Uani 1 1 d DU . .
H20 H 0.9295 0.6085 -0.0396 0.270 Uiso 1 1 calc R . .
C21 C 0.9603(6) 0.4751(6) -0.02182(15) 0.171(7) Uani 1 1 d U . .
H21A H 0.9921 0.4941 -0.0186 0.205 Uiso 1 1 calc R . .
H21B H 0.9559 0.4446 -0.0243 0.205 Uiso 1 1 calc R . .
C22 C 0.9268(6) 0.4691(6) -0.01183(16) 0.137(5) Uani 1 1 d U . .
C23 C 0.8942(7) 0.4836(6) -0.01283(15) 0.165(7) Uani 1 1 d U . .
H23 H 0.8957 0.5011 -0.0201 0.198 Uiso 1 1 calc R . .
C24 C 0.8618(5) 0.4749(5) -0.00444(15) 0.129(5) Uani 1 1 d U . .
H24 H 0.8400 0.4845 -0.0060 0.155 Uiso 1 1 calc R . .
C25 C 0.8594(6) 0.4508(5) 0.00707(12) 0.108(4) Uani 1 1 d U . .
C26 C 0.8915(5) 0.4382(5) 0.00822(13) 0.121(5) Uani 1 1 d U . .
H26 H 0.8908 0.4219 0.0157 0.145 Uiso 1 1 calc R . .
C27 C 0.9256(5) 0.4470(5) -0.00060(16) 0.131(5) Uani 1 1 d U . .
H27 H 0.9479 0.4380 0.0010 0.158 Uiso 1 1 calc R . .
C28 C 0.8223(6) 0.4413(5) 0.01729(15) 0.111(5) Uani 1 1 d U . .
C29 C 1.1200(6) 0.5645(5) -0.06995(11) 0.107(4) Uani 1 1 d U . .
H29A H 1.1069 0.5309 -0.0711 0.128 Uiso 1 1 calc R . .
H29B H 1.1368 0.5729 -0.0618 0.128 Uiso 1 1 calc R . .
C30 C 1.1543(5) 0.5890(5) -0.08031(11) 0.095(4) Uani 1 1 d U . .
C31 C 1.1428(5) 0.6103(5) -0.08958(13) 0.110(4) Uani 1 1 d U . .
H31 H 1.1140 0.6092 -0.0890 0.132 Uiso 1 1 calc R . .
C32 C 1.1714(5) 0.6335(4) -0.09991(11) 0.094(4) Uani 1 1 d U . .
H32 H 1.1618 0.6467 -0.1063 0.113 Uiso 1 1 calc R . .
C33 C 1.2153(5) 0.6366(4) -0.10041(11) 0.085(4) Uani 1 1 d U . .
C34 C 1.2248(4) 0.6146(5) -0.09162(13) 0.092(4) Uani 1 1 d U . .
H34 H 1.2529 0.6143 -0.0925 0.110 Uiso 1 1 calc R . .
C35 C 1.1979(5) 0.5922(4) -0.08147(12) 0.092(4) Uani 1 1 d U . .
H35 H 1.2083 0.5790 -0.0752 0.110 Uiso 1 1 calc R . .
C36 C 0.5806(5) 0.2504(6) 0.05587(11) 0.082(4) Uani 1 1 d U . .
C37 C 0.9455(8) 0.7498(10) 0.1154(2) 0.184(8) Uani 1 1 d U . .
C38 C 0.9184(6) 0.7554(6) 0.10500(19) 0.171(7) Uani 1 1 d U . .
H38 H 0.9154 0.7821 0.1046 0.205 Uiso 1 1 calc R . .
C39 C 0.8968(6) 0.7196(7) 0.09558(14) 0.147(6) Uani 1 1 d U . .
H39 H 0.8757 0.7198 0.0896 0.176 Uiso 1 1 calc R . .
C40 C 0.9077(6) 0.6855(7) 0.09548(16) 0.133(5) Uani 1 1 d U . .
C41 C 0.9312(7) 0.6800(7) 0.10635(18) 0.148(6) Uani 1 1 d U . .
C42 C 0.9526(7) 0.7141(7) 0.11521(18) 0.148(7) Uani 1 1 d U . .
C43 C 0.9826(7) 0.7112(6) 0.12437(17) 0.150(6) Uani 1 1 d U . .
H43 H 0.9988 0.7388 0.1300 0.180 Uiso 1 1 calc R . .
C44 C 0.9434(7) 0.6436(6) 0.10815(17) 0.141(6) Uani 1 1 d U . .
H44 H 0.9287 0.6184 0.1017 0.169 Uiso 1 1 calc R . .
C45 C 1.0137(8) 0.6999(7) 0.11726(17) 0.150(6) Uani 1 1 d U . .
C46 C 0.9921(8) 0.6639(7) 0.10855(18) 0.161(6) Uani 1 1 d U . .
C47 C 1.0201(9) 0.6522(7) 0.10137(19) 0.188(8) Uani 1 1 d U . .
H47 H 1.0055 0.6265 0.0958 0.225 Uiso 1 1 calc R . .
C48 C 1.0667(9) 0.6753(8) 0.1019(2) 0.226(9) Uani 1 1 d U . .
H48 H 1.0854 0.6694 0.0963 0.271 Uiso 1 1 calc R . .
C49 C 1.0844(8) 0.7081(9) 0.1112(2) 0.216(9) Uani 1 1 d U . .
H49 H 1.1166 0.7226 0.1128 0.259 Uiso 1 1 calc R . .
C50 C 1.0586(10) 0.7217(9) 0.1186(2) 0.219(10) Uani 1 1 d U . .
H50 H 1.0734 0.7465 0.1244 0.263 Uiso 1 1 calc R . .
C51 C 0.9477(6) 0.6660(7) 0.13138(18) 0.154(6) Uani 1 1 d U . .
C52 C 0.9251(6) 0.6268(7) 0.12191(17) 0.149(6) Uani 1 1 d U . .
C53 C 0.8952(6) 0.5823(7) 0.12564(19) 0.169(7) Uani 1 1 d U . .
H53 H 0.8812 0.5579 0.1197 0.203 Uiso 1 1 calc R . .
C54 C 0.8861(6) 0.5744(7) 0.13864(18) 0.162(6) Uani 1 1 d U . .
H54 H 0.8673 0.5439 0.1417 0.194 Uiso 1 1 calc R . .
C55 C 0.9057(7) 0.6132(7) 0.14751(17) 0.156(6) Uani 1 1 d U . .
H55 H 0.8960 0.6081 0.1561 0.187 Uiso 1 1 calc R . .
C56 C 0.9368(6) 0.6555(7) 0.14378(16) 0.158(6) Uani 1 1 d U . .
H56 H 0.9518 0.6790 0.1500 0.190 Uiso 1 1 calc R . .
C57 C 0.9445(7) 0.8157(7) 0.12557(17) 0.173(7) Uani 1 1 d U . .
H57A H 0.9104 0.7974 0.1260 0.207 Uiso 1 1 calc R . .
H57B H 0.9532 0.8370 0.1183 0.207 Uiso 1 1 calc R . .
C58 C 0.9634(7) 0.8418(7) 0.1373(2) 0.158(6) Uani 1 1 d U . .
C59 C 0.9527(7) 0.8770(8) 0.1412(2) 0.182(7) Uani 1 1 d U . .
H59 H 0.9358 0.8865 0.1360 0.219 Uiso 1 1 calc R . .
C60 C 0.9690(7) 0.8960(6) 0.15328(17) 0.153(7) Uani 1 1 d U . .
H60 H 0.9598 0.9172 0.1560 0.184 Uiso 1 1 calc R . .
C61 C 0.9942(7) 0.8897(6) 0.16117(15) 0.127(6) Uani 1 1 d U . .
C62 C 1.0073(7) 0.8584(6) 0.15779(16) 0.175(7) Uani 1 1 d U . .
H62 H 1.0287 0.8540 0.1626 0.210 Uiso 1 1 calc R . .
C63 C 0.9852(8) 0.8314(7) 0.1458(2) 0.185(7) Uani 1 1 d U . .
H63 H 0.9874 0.8045 0.1444 0.222 Uiso 1 1 calc R . .
C64 C 0.6821(9) 0.4304(7) 0.0052(2) 0.141(7) Uani 1 1 d U . .
C65 C 0.8588(6) 0.6498(5) 0.07836(14) 0.143(6) Uani 1 1 d U . .
H65A H 0.8757 0.6781 0.0732 0.172 Uiso 1 1 calc R . .
H65B H 0.8317 0.6496 0.0822 0.172 Uiso 1 1 calc R . .
C66 C 0.8435(6) 0.6079(6) 0.07022(14) 0.115(5) Uani 1 1 d U . .
C67 C 0.8518(5) 0.5731(6) 0.07317(14) 0.122(5) Uani 1 1 d U . .
H67 H 0.8703 0.5758 0.0803 0.147 Uiso 1 1 calc R . .
C68 C 0.8330(4) 0.5336(4) 0.06569(14) 0.096(4) Uani 1 1 d U . .
H68 H 0.8388 0.5094 0.0679 0.115 Uiso 1 1 calc R . .
C69 C 0.8047(5) 0.5281(6) 0.05462(13) 0.109(4) Uani 1 1 d U . .
C70 C 0.8012(5) 0.5657(6) 0.05127(12) 0.126(5) Uani 1 1 d U . .
H70 H 0.7872 0.5660 0.0435 0.151 Uiso 1 1 calc R . .
C71 C 0.8188(6) 0.6050(5) 0.05963(16) 0.142(6) Uani 1 1 d U . .
H71 H 0.8131 0.6294 0.0577 0.171 Uiso 1 1 calc R . .
C72 C 0.7857(6) 0.4865(5) 0.04567(14) 0.106(5) Uani 1 1 d U . .
O1 O 0.7222(3) 0.3817(2) 0.03097(6) 0.096(3) Uani 1 1 d U . .
O2 O 0.9539(4) 0.4965(4) -0.03226(13) 0.184(5) Uani 1 1 d U . .
O3 O 0.8257(3) 0.4185(3) 0.02634(8) 0.114(3) Uani 1 1 d U . .
O4 O 0.7958(4) 0.4559(3) 0.01466(8) 0.118(3) Uani 1 1 d U . .
O5 O 1.0866(4) 0.5725(4) -0.06906(10) 0.141(4) Uani 1 1 d U . .
O6 O 0.6121(3) 0.2914(4) 0.05389(7) 0.096(3) Uani 1 1 d U . .
O7 O 0.7840(3) 0.3594(3) 0.05005(7) 0.096(3) Uani 1 1 d U . .
O8 O 0.9626(4) 0.7869(5) 0.12418(11) 0.167(5) Uani 1 1 d U . .
O9 O 0.7089(4) 0.4609(4) 0.01148(9) 0.135(4) Uani 1 1 d U . .
O10 O 0.6601(4) 0.3903(5) 0.00912(8) 0.129(4) Uani 1 1 d U . .
O11 O 0.8875(4) 0.6489(4) 0.08787(11) 0.159(4) Uani 1 1 d U . .
O12 O 0.7964(3) 0.4551(4) 0.04914(8) 0.112(3) Uani 1 1 d U . .
O13 O 0.7597(3) 0.4855(3) 0.0368