####################################################################### 
# 
# This file contains crystal structure data downloaded from the 
# Cambridge Structural Database (CSD) hosted by the Cambridge 
# Crystallographic Data Centre (CCDC).
# 
# Full information about CCDC data access policies and citation 
# guidelines are available at http://www.ccdc.cam.ac.uk/access/V1 
# 
# Audit and citation data items may have been added by the CCDC. 
# Please retain this information to preserve the provenance of 
# this file and to allow appropriate attribution of the data. 
# 
#######################################################################

data_206
_audit_block_doi                 10.5517/ccw29mv
_database_code_depnum_ccdc_archive 'CCDC 806577'
loop_
_citation_id
_citation_doi
_citation_year
1 10.1002/zaac.201300117 2013
_audit_update_record             
;
2011-01-05 deposited with the CCDC.	2024-07-13 downloaded from the CCDC.
;
#TrackingRef '1.cif'


_audit_creation_method           SHELXL-97
_chemical_name_systematic        
;
?
;
_chemical_name_common            ?
_chemical_melting_point          ?
_chemical_formula_moiety         'C24 H26 Cd2 N4 O11, 3(C4 H9 N O), H2 O'
_chemical_formula_sum            'C36 H55 Cd2 N7 O15'
_chemical_formula_weight         1050.67

loop_
_atom_type_symbol
_atom_type_description
_atom_type_scat_dispersion_real
_atom_type_scat_dispersion_imag
_atom_type_scat_source
C C 0.0033 0.0016 'International Tables Vol C Tables 4.2.6.8 and 6.1.1.4'
H H 0.0000 0.0000 'International Tables Vol C Tables 4.2.6.8 and 6.1.1.4'
N N 0.0061 0.0033 'International Tables Vol C Tables 4.2.6.8 and 6.1.1.4'
O O 0.0106 0.0060 'International Tables Vol C Tables 4.2.6.8 and 6.1.1.4'
Cd Cd -0.8075 1.2024 'International Tables Vol C Tables 4.2.6.8 and 6.1.1.4'

_symmetry_cell_setting           Monoclinic
_symmetry_space_group_name_H-M   P2(1)/c
_symmetry_space_group_name_Hall  '-P 2ybc'

loop_
_symmetry_equiv_pos_as_xyz
'x, y, z'
'-x, y+1/2, -z+1/2'
'-x, -y, -z'
'x, -y-1/2, z-1/2'

_cell_length_a                   14.319(3)
_cell_length_b                   14.490(3)
_cell_length_c                   22.598(5)
_cell_angle_alpha                90.00
_cell_angle_beta                 98.21(3)
_cell_angle_gamma                90.00
_cell_volume                     4640.8(16)
_cell_formula_units_Z            4
_cell_measurement_temperature    291(2)
_cell_measurement_reflns_used    3912
_cell_measurement_theta_min      2.09
_cell_measurement_theta_max      23.81

_exptl_crystal_description       Prism
_exptl_crystal_colour            Yellow
_exptl_crystal_size_max          0.28
_exptl_crystal_size_mid          0.24
_exptl_crystal_size_min          0.22
_exptl_crystal_density_meas      ?
_exptl_crystal_density_diffrn    1.504
_exptl_crystal_density_method    'not measured'
_exptl_crystal_F_000             2144
_exptl_absorpt_coefficient_mu    0.985
_exptl_absorpt_correction_type   multi-scan
_exptl_absorpt_correction_T_min  0.7699
_exptl_absorpt_correction_T_max  0.8124
_exptl_absorpt_process_details   'SADABS; Bruker, 2004'

_exptl_special_details           
;
?
;

_diffrn_ambient_temperature      291(2)
_diffrn_radiation_wavelength     0.71073
_diffrn_radiation_type           MoK\a
_diffrn_radiation_source         'sealed tube'
_diffrn_radiation_monochromator  graphite
_diffrn_measurement_device_type  'Saturn 724 CCD'
_diffrn_measurement_method       'phi and omega scans'
_diffrn_detector_area_resol_mean ?
_diffrn_standards_number         ?
_diffrn_standards_interval_count ?
_diffrn_standards_interval_time  ?
_diffrn_standards_decay_%        ?
_diffrn_reflns_number            31677
_diffrn_reflns_av_R_equivalents  0.0553
_diffrn_reflns_av_sigmaI/netI    0.0679
_diffrn_reflns_limit_h_min       -17
_diffrn_reflns_limit_h_max       17
_diffrn_reflns_limit_k_min       -13
_diffrn_reflns_limit_k_max       17
_diffrn_reflns_limit_l_min       -27
_diffrn_reflns_limit_l_max       27
_diffrn_reflns_theta_min         2.12
_diffrn_reflns_theta_max         26.00
_reflns_number_total             9099
_reflns_number_gt                6117
_reflns_threshold_expression     >2sigma(I)

_computing_data_collection       'SMART (Bruker, 2004)'
_computing_cell_refinement       SMART
_computing_data_reduction        'SAINT (Bruker, 2004'
_computing_structure_solution    'SHELXS-97 (Sheldrick, 2008)'
_computing_structure_refinement  'SHELXL-97 (Sheldrick, 2008)'
_computing_molecular_graphics    'DIAMOND (Brandenburg, 2006)'
_computing_publication_material  SHELXTL

_refine_special_details          
;
Refinement of F^2^ against ALL reflections. The weighted R-factor wR and
goodness of fit S are based on F^2^, conventional R-factors R are based
on F, with F set to zero for negative F^2^. The threshold expression of
F^2^ > 2sigma(F^2^) is used only for calculating R-factors(gt) etc. and is
not relevant to the choice of reflections for refinement. R-factors based
on F^2^ are statistically about twice as large as those based on F, and R-
factors based on ALL data will be even larger.
;

_refine_ls_structure_factor_coef Fsqd
_refine_ls_matrix_type           full
_refine_ls_weighting_scheme      calc
_refine_ls_weighting_details     
'calc w=1/[\s^2^(Fo^2^)+(0.05P)^2^+0.55P] where P=(Fo^2^+2Fc^2^)/3'
_atom_sites_solution_primary     direct
_atom_sites_solution_secondary   difmap
_atom_sites_solution_hydrogens   geom
_refine_ls_hydrogen_treatment    constr
_refine_ls_extinction_method     none
_refine_ls_extinction_coef       ?
_refine_ls_number_reflns         9099
_refine_ls_number_parameters     556
_refine_ls_number_restraints     0
_refine_ls_R_factor_all          0.0756
_refine_ls_R_factor_gt           0.0527
_refine_ls_wR_factor_ref         0.1148
_refine_ls_wR_factor_gt          0.1100
_refine_ls_goodness_of_fit_ref   1.063
_refine_ls_restrained_S_all      1.063
_refine_ls_shift/su_max          0.000
_refine_ls_shift/su_mean         0.000

loop_
_atom_site_label
_atom_site_type_symbol
_atom_site_fract_x
_atom_site_fract_y
_atom_site_fract_z
_atom_site_U_iso_or_equiv
_atom_site_adp_type
_atom_site_occupancy
_atom_site_symmetry_multiplicity
_atom_site_calc_flag
_atom_site_refinement_flags
_atom_site_disorder_assembly
_atom_site_disorder_group
C1 C 1.0183(4) 0.4782(4) 0.9235(2) 0.0519(13) Uani 1 1 d . . .
C2 C 0.9615(4) 0.5403(3) 0.88697(19) 0.0419(11) Uani 1 1 d . . .
H2 H 0.9254 0.5833 0.9042 0.050 Uiso 1 1 calc R . .
C3 C 0.9584(3) 0.5386(3) 0.82578(19) 0.0356(10) Uani 1 1 d . . .
C4 C 1.0150(3) 0.4763(3) 0.80102(19) 0.0373(10) Uani 1 1 d . . .
H4 H 1.0152 0.4759 0.7599 0.045 Uiso 1 1 calc R . .
C5 C 1.0714(3) 0.4146(3) 0.8368(2) 0.0389(10) Uani 1 1 d . . .
C6 C 1.0727(3) 0.4165(4) 0.8980(2) 0.0487(12) Uani 1 1 d . . .
H6 H 1.1109 0.3755 0.9220 0.058 Uiso 1 1 calc R . .
C7 C 0.8946(3) 0.6032(3) 0.7869(2) 0.0390(10) Uani 1 1 d . . .
C8 C 1.1344(3) 0.3484(3) 0.8103(3) 0.0460(12) Uani 1 1 d . . .
C9 C 0.4929(4) 0.4794(4) 0.5777(2) 0.0511(13) Uani 1 1 d . . .
C10 C 0.5572(4) 0.5386(4) 0.6105(2) 0.0519(14) Uani 1 1 d . . .
H10 H 0.5982 0.5739 0.5914 0.062 Uiso 1 1 calc R . .
C11 C 0.5594(4) 0.5441(4) 0.6717(2) 0.0501(13) Uani 1 1 d . . .
C12 C 0.4991(4) 0.4897(4) 0.7003(2) 0.0467(12) Uani 1 1 d . . .
H12 H 0.5012 0.4934 0.7416 0.056 Uiso 1 1 calc R . .
C13 C 0.4359(3) 0.4300(4) 0.6673(2) 0.0482(12) Uani 1 1 d . . .
C14 C 0.4325(3) 0.4252(4) 0.6057(2) 0.0476(12) Uani 1 1 d . . .
H14 H 0.3899 0.3859 0.5833 0.057 Uiso 1 1 calc R . .
C15 C 0.6254(3) 0.6107(3) 0.7082(2) 0.0434(11) Uani 1 1 d . . .
C16 C 0.3697(3) 0.3700(4) 0.6970(2) 0.0460(11) Uani 1 1 d . . .
C17 C 0.9679(4) 0.4462(4) 0.6187(3) 0.0656(16) Uani 1 1 d . . .
H17B H 0.9816 0.4011 0.5900 0.098 Uiso 1 1 calc R . .
H17C H 1.0115 0.4392 0.6548 0.098 Uiso 1 1 calc R . .
H17A H 0.9739 0.5070 0.6028 0.098 Uiso 1 1 calc R . .
C18 C 0.8691(5) 0.4324(5) 0.6319(3) 0.0668(16) Uani 1 1 d . . .
C19 C 0.9348(5) 0.2788(4) 0.6764(3) 0.0720(18) Uani 1 1 d . . .
H19A H 0.9508 0.2436 0.6433 0.108 Uiso 1 1 calc R . .
H19B H 0.9172 0.2377 0.7062 0.108 Uiso 1 1 calc R . .
H19C H 0.9883 0.3149 0.6933 0.108 Uiso 1 1 calc R . .
C20 C 0.7558(4) 0.3038(4) 0.6512(3) 0.0654(16) Uani 1 1 d . . .
H20A H 0.7365 0.3041 0.6902 0.098 Uiso 1 1 calc R . .
H20B H 0.7544 0.2418 0.6362 0.098 Uiso 1 1 calc R . .
H20C H 0.7136 0.3416 0.6246 0.098 Uiso 1 1 calc R . .
C21 C 0.6484(4) 0.7856(4) 0.5509(3) 0.0631(16) Uani 1 1 d . . .
H21A H 0.6300 0.8397 0.5275 0.095 Uiso 1 1 calc R . .
H21B H 0.6760 0.8037 0.5904 0.095 Uiso 1 1 calc R . .
H21C H 0.5939 0.7480 0.5532 0.095 Uiso 1 1 calc R . .
C22 C 0.7188(4) 0.7321(4) 0.5220(2) 0.0515(13) Uani 1 1 d . . .
C23 C 0.8180(4) 0.7165(4) 0.4436(3) 0.0629(15) Uani 1 1 d . . .
H23A H 0.8753 0.7125 0.4713 0.094 Uiso 1 1 calc R . .
H23B H 0.8308 0.7447 0.4072 0.094 Uiso 1 1 calc R . .
H23C H 0.7930 0.6557 0.4353 0.094 Uiso 1 1 calc R . .
C24 C 0.7200(4) 0.8606(4) 0.4397(3) 0.0614(15) Uani 1 1 d . . .
H24A H 0.6702 0.8493 0.4073 0.092 Uiso 1 1 calc R . .
H24B H 0.7733 0.8867 0.4243 0.092 Uiso 1 1 calc R . .
H24C H 0.6984 0.9029 0.4675 0.092 Uiso 1 1 calc R . .
C25 C 0.6896(4) 0.0108(4) 0.5908(3) 0.0714(18) Uani 1 1 d . . .
H25A H 0.6796 -0.0093 0.5499 0.107 Uiso 1 1 calc R . .
H25B H 0.6814 -0.0405 0.6165 0.107 Uiso 1 1 calc R . .
H25C H 0.7525 0.0346 0.6004 0.107 Uiso 1 1 calc R . .
C26 C 0.6210(4) 0.0837(4) 0.5994(3) 0.0638(15) Uani 1 1 d . . .
C27 C 0.6822(4) 0.0887(4) 0.7094(2) 0.0672(17) Uani 1 1 d . . .
H27B H 0.6784 0.0226 0.7114 0.101 Uiso 1 1 calc R . .
H27C H 0.6649 0.1150 0.7453 0.101 Uiso 1 1 calc R . .
H27A H 0.7455 0.1066 0.7054 0.101 Uiso 1 1 calc R . .
C28 C 0.5519(4) 0.2031(4) 0.6629(3) 0.0659(16) Uani 1 1 d . . .
H28A H 0.5473 0.2411 0.6278 0.099 Uiso 1 1 calc R . .
H28B H 0.5771 0.2388 0.6973 0.099 Uiso 1 1 calc R . .
H28C H 0.4904 0.1807 0.6678 0.099 Uiso 1 1 calc R . .
C29 C 0.8329(4) 0.1719(4) 0.5006(3) 0.0667(17) Uani 1 1 d . . .
H29B H 0.7667 0.1600 0.4897 0.100 Uiso 1 1 calc R . .
H29C H 0.8513 0.1572 0.5420 0.100 Uiso 1 1 calc R . .
H29A H 0.8682 0.1346 0.4765 0.100 Uiso 1 1 calc R . .
C30 C 0.8520(5) 0.2703(4) 0.4906(3) 0.0665(16) Uani 1 1 d . . .
C31 C 0.8032(4) 0.4384(4) 0.4870(3) 0.0682(17) Uani 1 1 d . . .
H31A H 0.8463 0.4586 0.5211 0.102 Uiso 1 1 calc R . .
H31B H 0.7460 0.4737 0.4843 0.102 Uiso 1 1 calc R . .
H31C H 0.8314 0.4470 0.4514 0.102 Uiso 1 1 calc R . .
C32 C 0.6849(4) 0.3093(4) 0.5069(3) 0.0678(17) Uani 1 1 d . . .
H32B H 0.6573 0.3590 0.5265 0.102 Uiso 1 1 calc R . .
H32C H 0.6907 0.2559 0.5323 0.102 Uiso 1 1 calc R . .
H32A H 0.6454 0.2948 0.4700 0.102 Uiso 1 1 calc R . .
C33 C 0.5735(4) 0.2737(4) 0.3334(3) 0.0643(16) Uani 1 1 d . . .
H33A H 0.5961 0.3360 0.3323 0.096 Uiso 1 1 calc R . .
H33B H 0.5465 0.2643 0.3694 0.096 Uiso 1 1 calc R . .
H33C H 0.5264 0.2630 0.2994 0.096 Uiso 1 1 calc R . .
C34 C 0.6535(4) 0.2084(4) 0.3318(2) 0.0511(13) Uani 1 1 d . . .
C35 C 0.5558(4) 0.0790(4) 0.3652(3) 0.0642(16) Uani 1 1 d . . .
H35A H 0.5361 0.1184 0.3953 0.096 Uiso 1 1 calc R . .
H35B H 0.5649 0.0175 0.3807 0.096 Uiso 1 1 calc R . .
H35C H 0.5081 0.0786 0.3307 0.096 Uiso 1 1 calc R . .
C36 C 0.7263(4) 0.0496(5) 0.3498(3) 0.0709(18) Uani 1 1 d . . .
H36A H 0.7806 0.0831 0.3411 0.106 Uiso 1 1 calc R . .
H36B H 0.7111 0.0020 0.3205 0.106 Uiso 1 1 calc R . .
H36C H 0.7398 0.0223 0.3888 0.106 Uiso 1 1 calc R . .
Cd1 Cd 0.82123(3) 0.63256(3) 0.639985(14) 0.04362(11) Uani 1 1 d . . .
Cd2 Cd 0.74414(2) 0.75077(3) 0.758831(15) 0.04194(11) Uani 1 1 d . . .
N1 N 1.0285(3) 0.4769(3) 0.98777(17) 0.0495(10) Uani 1 1 d . . .
N2 N 0.4854(3) 0.4671(3) 0.51444(18) 0.0535(11) Uani 1 1 d . . .
N3 N 0.8542(4) 0.3414(4) 0.6552(2) 0.0669(14) Uani 1 1 d . . .
N4 N 0.7479(3) 0.7734(3) 0.47025(19) 0.0463(10) Uani 1 1 d . . .
N5 N 0.6159(4) 0.1229(3) 0.6563(2) 0.0627(13) Uani 1 1 d . . .
N6 N 0.7811(4) 0.3376(4) 0.4940(2) 0.0669(14) Uani 1 1 d . . .
N7 N 0.6450(3) 0.1138(3) 0.3483(2) 0.0519(11) Uani 1 1 d . . .
O1 O 0.8973(3) 0.5988(3) 0.73204(14) 0.0525(9) Uani 1 1 d . . .
O2 O 0.8475(2) 0.6580(2) 0.81254(16) 0.0479(8) Uani 1 1 d . . .
O3 O 1.1425(3) 0.3563(3) 0.7560(2) 0.0669(11) Uani 1 1 d . . .
O4 O 1.1777(3) 0.2884(3) 0.84404(19) 0.0622(10) Uani 1 1 d . . .
O5 O 0.6845(2) 0.6552(2) 0.68135(16) 0.0459(8) Uani 1 1 d . . .
O6 O 0.6200(3) 0.6246(3) 0.76130(16) 0.0572(9) Uani 1 1 d . . .
O7 O 0.3782(3) 0.3678(3) 0.75226(15) 0.0530(9) Uani 1 1 d . . .
O8 O 0.3117(3) 0.3225(3) 0.66444(16) 0.0574(9) Uani 1 1 d . . .
O9 O 0.7958(3) 0.4816(2) 0.62420(17) 0.0573(9) Uani 1 1 d . . .
O10 O 0.7494(3) 0.6611(3) 0.54736(16) 0.0583(10) Uani 1 1 d . . .
O11 O 0.5642(3) 0.1097(3) 0.5553(2) 0.0721(12) Uani 1 1 d . . .
O12 O 0.9290(3) 0.2939(3) 0.4764(2) 0.0720(12) Uani 1 1 d . . .
O13 O 0.7174(3) 0.2393(3) 0.3188(2) 0.0667(11) Uani 1 1 d . . .
O1W O 0.9614(3) 0.6336(3) 0.60778(19) 0.0674(11) Uani 1 1 d . . .
H1X H 1.0088 0.6539 0.6394 0.081 Uiso 1 1 d R . .
H1Y H 0.9596 0.6747 0.5743 0.081 Uiso 1 1 d R . .
O2W O 0.1482(3) 0.8742(3) 0.17229(19) 0.0701(11) Uani 1 1 d . . .
H2X H 0.1845 0.8577 0.2036 0.084 Uiso 1 1 d R . .
H2Y H 0.1731 0.8599 0.1416 0.084 Uiso 1 1 d R . .

loop_
_atom_site_aniso_label
_atom_site_aniso_U_11
_atom_site_aniso_U_22
_atom_site_aniso_U_33
_atom_site_aniso_U_23
_atom_site_aniso_U_13
_atom_site_aniso_U_12
C1 0.061(3) 0.059(3) 0.034(2) 0.014(2) -0.001(2) 0.011(3)
C2 0.063(3) 0.031(2) 0.030(2) 0.0043(19) 0.001(2) 0.009(2)
C3 0.042(2) 0.031(2) 0.033(2) -0.0012(18) 0.0022(18) 0.0026(18)
C4 0.042(2) 0.039(2) 0.031(2) -0.0009(19) 0.0069(18) 0.0021(19)
C5 0.038(2) 0.033(2) 0.045(3) -0.002(2) 0.0049(19) 0.0025(19)
C6 0.046(3) 0.046(3) 0.054(3) 0.008(2) 0.008(2) 0.009(2)
C7 0.036(2) 0.040(3) 0.040(2) 0.004(2) 0.0035(19) 0.0148(19)
C8 0.050(3) 0.028(3) 0.063(3) -0.002(2) 0.017(2) -0.009(2)
C9 0.049(3) 0.065(3) 0.038(2) -0.002(2) 0.003(2) -0.030(3)
C10 0.064(3) 0.053(3) 0.036(2) 0.017(2) -0.001(2) -0.027(3)
C11 0.056(3) 0.062(3) 0.031(2) 0.008(2) -0.001(2) -0.020(3)
C12 0.061(3) 0.053(3) 0.024(2) 0.006(2) -0.001(2) -0.011(2)
C13 0.043(3) 0.055(3) 0.047(3) 0.000(2) 0.008(2) -0.018(2)
C14 0.045(3) 0.051(3) 0.045(3) 0.006(2) 0.000(2) -0.018(2)
C15 0.038(2) 0.041(3) 0.050(3) 0.003(2) 0.002(2) -0.005(2)
C16 0.049(3) 0.043(3) 0.049(3) -0.008(2) 0.017(2) -0.006(2)
C17 0.068(4) 0.065(4) 0.067(4) -0.014(3) 0.017(3) 0.010(3)
C18 0.073(4) 0.067(4) 0.057(3) -0.001(3) 0.000(3) 0.019(3)
C19 0.080(4) 0.058(4) 0.071(4) -0.011(3) -0.015(3) 0.018(3)
C20 0.072(4) 0.055(4) 0.063(4) 0.015(3) -0.010(3) -0.008(3)
C21 0.064(4) 0.066(4) 0.061(4) 0.035(3) 0.014(3) 0.015(3)
C22 0.048(3) 0.048(3) 0.053(3) 0.014(3) -0.010(2) -0.015(2)
C23 0.071(4) 0.059(4) 0.059(3) -0.024(3) 0.012(3) -0.013(3)
C24 0.062(4) 0.059(4) 0.062(3) 0.006(3) 0.008(3) -0.001(3)
C25 0.069(4) 0.075(4) 0.065(4) -0.034(3) -0.006(3) 0.017(3)
C26 0.070(4) 0.066(4) 0.057(3) 0.003(3) 0.017(3) -0.016(3)
C27 0.071(4) 0.073(4) 0.051(3) 0.006(3) -0.015(3) 0.035(3)
C28 0.067(4) 0.065(4) 0.069(4) -0.013(3) 0.021(3) 0.014(3)
C29 0.069(4) 0.065(4) 0.069(4) 0.022(3) 0.020(3) -0.019(3)
C30 0.079(4) 0.065(4) 0.059(3) -0.016(3) 0.020(3) -0.022(3)
C31 0.063(4) 0.077(4) 0.058(4) -0.016(3) -0.014(3) 0.014(3)
C32 0.063(4) 0.067(4) 0.067(4) -0.016(3) -0.009(3) -0.010(3)
C33 0.073(4) 0.063(4) 0.059(4) -0.012(3) 0.016(3) -0.014(3)
C34 0.046(3) 0.061(3) 0.049(3) 0.012(3) 0.014(2) 0.015(3)
C35 0.067(4) 0.069(4) 0.058(3) 0.017(3) 0.015(3) -0.007(3)
C36 0.062(4) 0.078(4) 0.065(4) -0.021(3) -0.016(3) -0.006(3)
Cd1 0.0549(2) 0.0466(2) 0.02899(16) -0.00084(15) 0.00457(13) 0.00874(16)
Cd2 0.03170(17) 0.0627(3) 0.03302(17) -0.00101(16) 0.01011(12) 0.00259(15)
N1 0.061(3) 0.055(3) 0.031(2) 0.0087(19) 0.0006(17) 0.018(2)
N2 0.059(3) 0.060(3) 0.040(2) 0.016(2) 0.0038(19) -0.028(2)
N3 0.072(3) 0.066(3) 0.058(3) 0.011(2) -0.008(2) 0.016(3)
N4 0.051(2) 0.046(2) 0.043(2) 0.0108(19) 0.0113(18) 0.0098(19)
N5 0.075(3) 0.066(3) 0.055(3) -0.004(2) 0.039(2) 0.011(2)
N6 0.066(3) 0.065(3) 0.071(3) -0.017(3) 0.015(3) 0.017(3)
N7 0.056(3) 0.050(3) 0.051(2) 0.012(2) 0.014(2) 0.014(2)
O1 0.066(2) 0.060(2) 0.0302(17) 0.0087(16) 0.0012(15) 0.0134(18)
O2 0.0482(19) 0.047(2) 0.0493(19) -0.0010(16) 0.0101(16) 0.0026(15)
O3 0.066(3) 0.065(3) 0.071(3) -0.017(2) 0.015(2) 0.017(2)
O4 0.069(3) 0.043(2) 0.070(3) -0.0018(19) -0.008(2) 0.0166(18)
O5 0.0401(18) 0.0424(19) 0.056(2) 0.0021(16) 0.0100(15) -0.0076(14)
O6 0.065(2) 0.064(2) 0.042(2) -0.0054(18) 0.0032(16) -0.0171(19)
O7 0.059(2) 0.060(2) 0.0434(19) 0.0038(17) 0.0186(16) -0.0152(18)
O8 0.064(2) 0.061(2) 0.046(2) 0.0102(18) 0.0057(17) -0.0243(19)
O9 0.069(3) 0.0391(19) 0.066(2) -0.0074(18) 0.0198(19) 0.0079(18)
O10 0.066(2) 0.058(2) 0.047(2) 0.0094(18) -0.0070(17) -0.0012(19)
O11 0.072(3) 0.070(3) 0.072(3) 0.015(2) 0.004(2) 0.019(2)
O12 0.072(3) 0.082(3) 0.065(3) -0.019(2) 0.019(2) 0.011(2)
O13 0.069(3) 0.064(3) 0.073(3) 0.011(2) 0.028(2) -0.018(2)
O1W 0.061(2) 0.072(3) 0.070(3) 0.030(2) 0.0141(19) 0.016(2)
O2W 0.072(3) 0.076(3) 0.069(3) 0.012(2) 0.033(2) -0.024(2)

_geom_special_details            
;
All esds (except the esd in the dihedral angle between two l.s. planes)
are estimated using the full covariance matrix. The cell esds are taken
into account individually in the estimation of esds in distances, angles
and torsion angles; correlations between esds in cell parameters are only
used when they are defined by crystal symmetry. An approximate (isotropic)
treatment of cell esds is used for estimating esds involving l.s. planes.
;

loop_
_geom_bond_atom_site_label_1
_geom_bond_atom_site_label_2
_geom_bond_distance
_geom_bond_site_symmetry_2
_geom_bond_publ_flag
C1 C6 1.366(7) . ?
C1 C2 1.400(6) . ?
C1 N1 1.439(6) . ?
C2 C3 1.377(6) . ?
C2 