####################################################################### 
# 
# This file contains crystal structure data downloaded from the 
# Cambridge Structural Database (CSD) hosted by the Cambridge 
# Crystallographic Data Centre (CCDC).
# 
# Full information about CCDC data access policies and citation 
# guidelines are available at http://www.ccdc.cam.ac.uk/access/V1 
# 
# Audit and citation data items may have been added by the CCDC. 
# Please retain this information to preserve the provenance of 
# this file and to allow appropriate attribution of the data. 
# 
#######################################################################

data_compound_II
_audit_block_doi                 10.5517/cc105jf4
_database_code_depnum_ccdc_archive 'CCDC 928835'
loop_
_citation_id
_citation_doi
_citation_year
1 10.1021/cg401587r 2014
_audit_update_record             
;
2013-10-22 deposited with the CCDC.	2024-07-13 downloaded from the CCDC.
;

_audit_creation_method           SHELXL-97
_chemical_name_systematic        
;
 ?
;
_chemical_name_common            'Manganese sulfonyldibenzoates'
_chemical_melting_point          ?
_chemical_formula_moiety         ?
_chemical_formula_sum            'C84 H48 Mn7 O48 S6'
_chemical_formula_weight         2402.16

loop_
_atom_type_symbol
_atom_type_description
_atom_type_scat_dispersion_real
_atom_type_scat_dispersion_imag
_atom_type_scat_source
Mn Mn 0.3368 0.7283 'International Tables Vol C Tables 4.2.6.8 and 6.1.1.4'
S S 0.1246 0.1234 'International Tables Vol C Tables 4.2.6.8 and 6.1.1.4'
O O 0.0106 0.0060 'International Tables Vol C Tables 4.2.6.8 and 6.1.1.4'
C C 0.0033 0.0016 'International Tables Vol C Tables 4.2.6.8 and 6.1.1.4'
H H 0.0000 0.0000 'International Tables Vol C Tables 4.2.6.8 and 6.1.1.4'

_symmetry_cell_setting           Monoclinic
_symmetry_space_group_name_H-M   P2(1)/n

loop_
_symmetry_equiv_pos_as_xyz
'x, y, z'
'-x+1/2, y+1/2, -z+1/2'
'-x, -y, -z'
'x-1/2, -y-1/2, z-1/2'

_cell_length_a                   18.0352(10)
_cell_length_b                   25.8676(13)
_cell_length_c                   18.0584(9)
_cell_angle_alpha                90.00
_cell_angle_beta                 118.861(3)
_cell_angle_gamma                90.00
_cell_volume                     7378.3(7)
_cell_formula_units_Z            2
_cell_measurement_temperature    120(2)
_cell_measurement_reflns_used    ?
_cell_measurement_theta_min      ?
_cell_measurement_theta_max      ?

_exptl_crystal_description       Block
_exptl_crystal_colour            White
_exptl_crystal_size_max          0.19
_exptl_crystal_size_mid          0.14
_exptl_crystal_size_min          0.12
_exptl_crystal_density_meas      ?
_exptl_crystal_density_diffrn    1.081
_exptl_crystal_density_method    'not measured'
_exptl_crystal_F_000             2414
_exptl_absorpt_coefficient_mu    0.729
_exptl_absorpt_correction_type   multi-scan
_exptl_absorpt_correction_T_min  0.885
_exptl_absorpt_correction_T_max  0.916
_exptl_absorpt_process_details   'CrysAlis RED (Oxford Diffraction,2009)'

_exptl_special_details           
;
 ?
;

_diffrn_ambient_temperature      120(2)
_diffrn_radiation_wavelength     0.71073
_diffrn_radiation_type           MoK\a
_diffrn_radiation_source         'fine-focus sealed tube'
_diffrn_radiation_monochromator  graphite
_diffrn_measurement_device_type  'Oxford Xcalibur,Eos(Nova) CCD detector'
_diffrn_measurement_method       'f\w scans'
_diffrn_detector_area_resol_mean ?
_diffrn_standards_number         ?
_diffrn_standards_interval_count ?
_diffrn_standards_interval_time  ?
_diffrn_standards_decay_%        ?
_diffrn_reflns_number            57881
_diffrn_reflns_av_R_equivalents  0.0788
_diffrn_reflns_av_sigmaI/netI    0.1158
_diffrn_reflns_limit_h_min       -21
_diffrn_reflns_limit_h_max       22
_diffrn_reflns_limit_k_min       -31
_diffrn_reflns_limit_k_max       31
_diffrn_reflns_limit_l_min       -22
_diffrn_reflns_limit_l_max       22
_diffrn_reflns_theta_min         1.51
_diffrn_reflns_theta_max         26.00
_reflns_number_total             14508
_reflns_number_gt                6041
_reflns_threshold_expression     >2sigma(I)

_computing_data_collection       'CrysAlisPro CCD (Oxford Diffraction, 2009)'
_computing_cell_refinement       'CrysAlisPro CCD (Oxford Diffraction, 2009)'
_computing_data_reduction        'CrysAlisPro RED (Oxford Diffraction, 2009)'
_computing_structure_solution    'SHELXL-97 (Sheldrick, 1997)'
_computing_structure_refinement  'SHELXL-97 (Sheldrick, 1997)'
_computing_molecular_graphics    
'Ortep-3 (Farrugia, 1997) and CAMERON (Watkin et al., 1993)'
_computing_publication_material  'WinGX (Farrugia, 1999)'

_refine_special_details          
;
 Refinement of F^2^ against ALL reflections.  The weighted R-factor wR and
 goodness of fit S are based on F^2^, conventional R-factors R are based
 on F, with F set to zero for negative F^2^. The threshold expression of
 F^2^ > 2sigma(F^2^) is used only for calculating R-factors(gt) etc. and is
 not relevant to the choice of reflections for refinement.  R-factors based
 on F^2^ are statistically about twice as large as those based on F, and R-
 factors based on ALL data will be even larger.
;

_refine_ls_structure_factor_coef Fsqd
_refine_ls_matrix_type           full
_refine_ls_weighting_scheme      calc
_refine_ls_weighting_details     
'calc w=1/[\s^2^(Fo^2^)+(0.1121P)^2^+0.0000P] where P=(Fo^2^+2Fc^2^)/3'
_atom_sites_solution_primary     direct
_atom_sites_solution_secondary   difmap
_atom_sites_solution_hydrogens   geom
_refine_ls_hydrogen_treatment    constr
_refine_ls_extinction_method     none
_refine_ls_extinction_coef       ?
_refine_ls_number_reflns         14508
_refine_ls_number_parameters     655
_refine_ls_number_restraints     0
_refine_ls_R_factor_all          0.1391
_refine_ls_R_factor_gt           0.0696
_refine_ls_wR_factor_ref         0.2040
_refine_ls_wR_factor_gt          0.1820
_refine_ls_goodness_of_fit_ref   0.838
_refine_ls_restrained_S_all      0.838
_refine_ls_shift/su_max          0.001
_refine_ls_shift/su_mean         0.000

loop_
_atom_site_label
_atom_site_type_symbol
_atom_site_fract_x
_atom_site_fract_y
_atom_site_fract_z
_atom_site_U_iso_or_equiv
_atom_site_adp_type
_atom_site_occupancy
_atom_site_symmetry_multiplicity
_atom_site_calc_flag
_atom_site_refinement_flags
_atom_site_disorder_assembly
_atom_site_disorder_group
Mn1 Mn 1.0000 0.0000 0.0000 0.0465(3) Uani 1 2 d S . .
Mn2 Mn 0.92690(5) 0.08314(3) -0.19842(5) 0.0540(2) Uani 1 1 d . . .
Mn3 Mn 0.89337(6) 0.00004(3) 0.10682(6) 0.0676(3) Uani 1 1 d . . .
Mn4 Mn 0.80174(5) 0.08320(3) -0.07292(5) 0.0541(2) Uani 1 1 d . . .
S1 S 0.53421(10) -0.09614(5) -0.46593(10) 0.0681(4) Uani 1 1 d . . .
S2 S 0.43971(17) -0.17623(8) -0.2282(2) 0.1386(11) Uani 1 1 d . . .
S3 S 0.7724(2) -0.17614(9) 0.44001(17) 0.1395(12) Uani 1 1 d . . .
O1 O 0.91579(17) 0.04786(9) 0.02127(16) 0.0332(7) Uani 1 1 d . . .
O2 O 1.02073(17) 0.04811(9) -0.08492(16) 0.0312(6) Uani 1 1 d . . .
O3 O 0.8905(2) -0.03242(12) -0.1099(2) 0.0557(9) Uani 1 1 d . . .
O4 O 0.6293(3) -0.34689(13) -0.4408(2) 0.0799(12) Uani 1 1 d . . .
O5 O 0.2303(3) -0.11371(14) -0.0187(3) 0.0857(13) Uani 1 1 d . . .
O6 O 0.7204(2) 0.01703(14) -0.0954(2) 0.0716(11) Uani 1 1 d . . .
O7 O 0.6936(3) 0.12280(17) -0.1755(3) 0.1136(17) Uani 1 1 d . . .
O8 O 0.8373(2) 0.04624(11) -0.1629(2) 0.0591(9) Uani 1 1 d . . .
O9 O 0.5591(3) -0.34678(13) -0.3710(3) 0.0803(12) Uani 1 1 d . . .
O10 O 0.9819(3) -0.11439(14) 0.2311(3) 0.0835(13) Uani 1 1 d . . .
O11 O 0.9050(3) 0.01695(14) 0.7211(2) 0.0725(11) Uani 1 1 d . . .
O12 O 0.8237(3) 0.12281(17) -0.3070(3) 0.1142(17) Uani 1 1 d . . .
O13 O 0.1920(4) -0.0518(2) -0.1123(3) 0.128(2) Uani 1 1 d . . .
O14 O 0.8872(3) -0.0517(2) 0.1918(3) 0.1208(19) Uani 1 1 d . . .
O15 O 0.7931(3) -0.04188(17) 0.0042(3) 0.0891(14) Uani 1 1 d . . .
O16 O 1.0035(3) -0.04181(17) 0.7925(3) 0.0892(14) Uani 1 1 d . . .
O17 O 0.5404(3) -0.08091(14) -0.5394(2) 0.0999(16) Uani 1 1 d . . .
O18 O 0.4610(3) -0.08082(14) -0.4600(3) 0.0996(16) Uani 1 1 d . . .
O19 O 0.3961(5) -0.1687(3) -0.3188(5) 0.203(4) Uani 1 1 d . . .
O20 O 0.4702(4) -0.22679(19) -0.1950(6) 0.189(4) Uani 1 1 d . . .
O21 O 0.6842(6) -0.1703(3) 0.3977(4) 0.201(4) Uani 1 1 d . . .
O22 O 0.8051(6) -0.22737(19) 0.4698(4) 0.189(4) Uani 1 1 d . . .
O23 O 0.9990(7) 0.1455(3) 0.1292(4) 0.277(6) Uani 1 1 d . . .
O24 O 0.8696(4) -0.1459(3) 0.0035(7) 0.294(6) Uani 1 1 d . . .
C1 C 0.8357(4) -0.00378(19) -0.1645(3) 0.0503(13) Uani 1 1 d . . .
C2 C 0.7611(3) -0.02695(17) -0.2387(3) 0.0477(12) Uani 1 1 d . . .
C3 C 0.6999(4) 0.00270(18) -0.3001(3) 0.0607(15) Uani 1 1 d . . .
H3 H 0.7053 0.0385 -0.2949 0.073 Uiso 1 1 calc R . .
C4 C 0.6304(4) -0.01751(19) -0.3695(4) 0.0707(17) Uani 1 1 d . . .
H4 H 0.5896 0.0038 -0.4103 0.085 Uiso 1 1 calc R . .
C5 C 0.6238(3) -0.07139(17) -0.3761(3) 0.0542(14) Uani 1 1 d . . .
C6 C 0.6856(4) -0.10227(18) -0.3148(4) 0.0628(15) Uani 1 1 d . . .
H6 H 0.6813 -0.1381 -0.3196 0.075 Uiso 1 1 calc R . .
C7 C 0.7523(4) -0.08025(17) -0.2479(3) 0.0552(13) Uani 1 1 d . . .
H7 H 0.7933 -0.1014 -0.2070 0.066 Uiso 1 1 calc R . .
C8 C 0.5452(3) -0.16307(16) -0.4548(3) 0.0505(13) Uani 1 1 d . . .
C9 C 0.5137(3) -0.18952(19) -0.4096(4) 0.0655(15) Uani 1 1 d . . .
H9 H 0.4843 -0.1718 -0.3871 0.079 Uiso 1 1 calc R . .
C10 C 0.5257(3) -0.24161(18) -0.3976(3) 0.0602(14) Uani 1 1 d . . .
H10 H 0.5026 -0.2592 -0.3687 0.072 Uiso 1 1 calc R . .
C11 C 0.5719(3) -0.26863(16) -0.4280(3) 0.0485(12) Uani 1 1 d . . .
C12 C 0.6030(4) -0.24182(18) -0.4738(3) 0.0647(15) Uani 1 1 d . . .
H12 H 0.6327 -0.2595 -0.4961 0.078 Uiso 1 1 calc R . .
C13 C 0.5903(4) -0.18921(19) -0.4867(3) 0.0614(15) Uani 1 1 d . . .
H13 H 0.6122 -0.1715 -0.5167 0.074 Uiso 1 1 calc R . .
C14 C 0.5878(4) -0.32505(17) -0.4125(4) 0.0630(15) Uani 1 1 d . . .
C15 C 0.7317(5) -0.0264(2) -0.0611(5) 0.0757(19) Uani 1 1 d . . .
C16 C 0.6576(4) -0.0630(2) -0.1043(5) 0.0725(18) Uani 1 1 d . . .
C17 C 0.5924(5) -0.0544(3) -0.1859(5) 0.089(2) Uani 1 1 d . . .
H17 H 0.5929 -0.0244 -0.2140 0.107 Uiso 1 1 calc R . .
C18 C 0.5257(5) -0.0897(3) -0.2270(5) 0.101(2) Uani 1 1 d . . .
H18 H 0.4834 -0.0833 -0.2821 0.121 Uiso 1 1 calc R . .
C19 C 0.5230(5) -0.1330(3) -0.1861(6) 0.100(3) Uani 1 1 d . . .
C20 C 0.5865(5) -0.1430(3) -0.1056(7) 0.119(3) Uani 1 1 d . . .
H20 H 0.5837 -0.1730 -0.0787 0.143 Uiso 1 1 calc R . .
C21 C 0.6576(5) -0.1085(2) -0.0612(6) 0.107(3) Uani 1 1 d . . .
H21 H 0.7010 -0.1159 -0.0071 0.128 Uiso 1 1 calc R . .
C22 C 0.3758(5) -0.1543(3) -0.1863(5) 0.093(2) Uani 1 1 d . . .
C23 C 0.3210(5) -0.1154(3) -0.2259(5) 0.118(3) Uani 1 1 d . . .
H23 H 0.3150 -0.1026 -0.2767 0.141 Uiso 1 1 calc R . .
C24 C 0.2736(5) -0.0943(3) -0.1917(4) 0.110(3) Uani 1 1 d . . .
H24 H 0.2386 -0.0660 -0.2170 0.132 Uiso 1 1 calc R . .
C25 C 0.2794(4) -0.1163(2) -0.1187(4) 0.0704(17) Uani 1 1 d . . .
C26 C 0.3309(5) -0.1562(2) -0.0816(5) 0.096(2) Uani 1 1 d . . .
H26 H 0.3338 -0.1710 -0.0333 0.115 Uiso 1 1 calc R . .
C27 C 0.3810(5) -0.1760(2) -0.1154(5) 0.106(3) Uani 1 1 d . . .
H27 H 0.4173 -0.2037 -0.0895 0.127 Uiso 1 1 calc R . .
C28 C 0.2296(4) -0.0921(2) -0.0798(5) 0.0806(19) Uani 1 1 d . . .
C29 C 0.9196(5) -0.0922(2) 0.2288(4) 0.081(2) Uani 1 1 d . . .
C30 C 0.8819(4) -0.1165(2) 0.2797(4) 0.0675(16) Uani 1 1 d . . .
C31 C 0.8104(5) -0.0955(3) 0.2735(4) 0.106(2) Uani 1 1 d . . .
H31 H 0.7857 -0.0672 0.2382 0.127 Uiso 1 1 calc R . .
C32 C 0.7733(5) -0.1159(4) 0.3199(5) 0.123(3) Uani 1 1 d . . .
H32 H 0.7221 -0.1029 0.3126 0.148 Uiso 1 1 calc R . .
C33 C 0.8127(6) -0.1543(3) 0.3747(5) 0.096(3) Uani 1 1 d . . .
C34 C 0.8845(6) -0.1758(2) 0.3823(5) 0.118(3) Uani 1 1 d . . .
H34 H 0.9111 -0.2026 0.4204 0.142 Uiso 1 1 calc R . .
C35 C 0.9193(5) -0.1566(2) 0.3308(4) 0.097(2) Uani 1 1 d . . .
H35 H 0.9670 -0.1719 0.3331 0.117 Uiso 1 1 calc R . .
C36 C 0.8141(6) -0.1327(3) 0.5230(5) 0.095(3) Uani 1 1 d . . .
C37 C 0.7741(5) -0.0897(3) 0.5265(4) 0.098(2) Uani 1 1 d . . .
H37 H 0.7190 -0.0831 0.4845 0.117 Uiso 1 1 calc R . .
C38 C 0.8160(5) -0.0549(2) 0.5941(4) 0.083(2) Uani 1 1 d . . .
H38 H 0.7879 -0.0249 0.5951 0.099 Uiso 1 1 calc R . .
C39 C 0.8965(5) -0.0633(2) 0.6587(4) 0.0718(18) Uani 1 1 d . . .
C40 C 0.9401(6) -0.1080(3) 0.6578(4) 0.110(3) Uani 1 1 d . . .
H40 H 0.9947 -0.1151 0.7006 0.131 Uiso 1 1 calc R . .
C41 C 0.8950(7) -0.1427(2) 0.5860(5) 0.107(3) Uani 1 1 d . . .
H41 H 0.9218 -0.1727 0.5829 0.129 Uiso 1 1 calc R . .
C42 C 0.9401(5) -0.0257(2) 0.7321(4) 0.0727(18) Uani 1 1 d . . .

loop_
_atom_site_aniso_label
_atom_site_aniso_U_11
_atom_site_aniso_U_22
_atom_site_aniso_U_33
_atom_site_aniso_U_23
_atom_site_aniso_U_13
_atom_site_aniso_U_12
Mn1 0.0600(7) 0.0423(5) 0.0618(7) -0.0016(5) 0.0488(6) -0.0016(5)
Mn2 0.0835(6) 0.0362(4) 0.0733(5) -0.0001(4) 0.0626(5) 0.0000(4)
Mn3 0.0943(7) 0.0605(5) 0.0949(6) 0.0177(5) 0.0830(6) 0.0175(5)
Mn4 0.0731(6) 0.0365(4) 0.0846(6) 0.0005(4) 0.0634(5) 0.0011(4)
S1 0.0763(11) 0.0401(7) 0.0816(11) 0.0113(7) 0.0330(9) 0.0098(7)
S2 0.163(2) 0.0889(14) 0.280(3) -0.0923(18) 0.199(2) -0.0621(14)
S3 0.276(3) 0.0958(15) 0.160(2) -0.0672(14) 0.195(2) -0.1006(19)
O1 0.0499(18) 0.0284(14) 0.0465(17) 0.0013(12) 0.0434(16) -0.0004(13)
O2 0.0459(17) 0.0241(14) 0.0481(17) 0.0012(12) 0.0422(15) 0.0012(12)
O3 0.070(2) 0.0442(19) 0.067(2) 0.0000(18) 0.044(2) -0.0021(18)
O4 0.130(4) 0.045(2) 0.115(3) 0.005(2) 0.098(3) 0.021(2)
O5 0.130(4) 0.058(2) 0.131(4) -0.006(2) 0.112(3) 0.004(2)
O6 0.088(3) 0.051(2) 0.110(3) -0.004(2) 0.074(3) -0.015(2)
O7 0.118(4) 0.087(3) 0.118(4) 0.025(3) 0.042(3) 0.028(3)
O8 0.089(3) 0.0360(18) 0.090(3) -0.0066(17) 0.073(2) -0.0083(17)
O9 0.113(3) 0.044(2) 0.136(3) 0.024(2) 0.102(3) 0.011(2)
O10 0.123(4) 0.059(2) 0.131(4) 0.004(2) 0.111(3) -0.007(2)
O11 0.111(3) 0.049(2) 0.096(3) -0.015(2) 0.081(3) -0.002(2)
O12 0.105(4) 0.082(3) 0.134(4) 0.026(3) 0.041(3) 0.022(3)
O13 0.174(5) 0.127(4) 0.172(5) 0.051(4) 0.154(5) 0.080(4)
O14 0.159(5) 0.121(4) 0.164(5) 0.065(4) 0.143(4) 0.043(4)
O15 0.068(3) 0.085(3) 0.118(4) 0.018(3) 0.048(3) -0.003(2)
O16 0.123(4) 0.078(3) 0.077(3) -0.004(2) 0.057(3) 0.017(3)
O17 0.160(5) 0.059(2) 0.070(3) 0.022(2) 0.047(3) -0.001(3)
O18 0.070(3) 0.055(2) 0.161(4) 0.003(3) 0.045(3) 0.025(2)
O19 0.221(7) 0.235(8) 0.292(9) -0.175(7) 0.232(7) -0.127(6)
O20 0.196(6) 0.071(3) 0.448(12) -0.070(5) 0.272(7) -0.038(3)
O21 0.285(9) 0.244(8) 0.200(6) -0.133(6) 0.218(7) -0.192(8)
O22 0.451(12) 0.068(3) 0.198(6) -0.039(3) 0.275(8) -0.067(5)
O23 0.388(13) 0.164(6) 0.114(5) 0.026(5) -0.010(7) -0.072(8)
O24 0.110(5) 0.170(7) 0.407(13) -0.083(8) -0.028(7) 0.038(5)
C1 0.069(4) 0.049(3) 0.066(3) -0.002(3) 0.058(3) -0.006(3)
C2 0.056(3) 0.042(3) 0.062(3) 0.007(3) 0.042(3) 0.006(3)
C3 0.083(4) 0.031(3) 0.073(4) -0.002(3) 0.041(4) -0.004(3)
C4 0.081(4) 0.045(3) 0.083(4) 0.013(3) 0.037(4) 0.009(3)
C5 0.074(4) 0.035(3) 0.068(4) 0.011(2) 0.045(3) 0.008(2)
C6 0.076(4) 0.034(3) 0.085(4) 0.001(3) 0.044(4) 0.004(3)
C7 0.068(4) 0.038(3) 0.063(3) 0.009(3) 0.033(3) 0.013(3)
C8 0.065(3) 0.033(2) 0.072(3) -0.007(2) 0.048(3) -0.005(2)
C9 0.080(4) 0.047(3) 0.103(4) 0.003(3) 0.071(4) 0.017(3)
C10 0.087(4) 0.039(3) 0.093(4) 0.011(3) 0.074(4) 0.006(3)
C11 0.071(3) 0.036(2) 0.068(3) -0.003(2) 0.057(3) -0.004(2)
C12 0.099(4) 0.038(3) 0.096(4) 0.003(3) 0.079(4) 0.009(3)
C13 0.088(4) 0.051(3) 0.076(4) 0.013(3) 0.063(3) 0.002(3)
C14 0.101(5) 0.030(2) 0.094(4) 0.004(3) 0.075(4) 0.006(3)
C15 0.085(5) 0.056(4) 0.133(6) -0.002(4) 0.089(5) -0.005(4)
C16 0.083(5) 0.050(3) 0.129(6) 0.002(4) 0.087(5) -0.002(3)
C17 0.106(6) 0.078(4) 0.124(6) -0.017(4) 0.088(5) -0.028(4)
C18 0.114(6) 0.092(5) 0.152(7) -0.045(5) 0.109(5) -0.046(4)
C19 0.104(6) 0.063(5) 0.198(9) -0.030(5) 0.123(6) -0.019(4)
C20 0.108(6) 0.053(4) 0.251(11) 0.019(6) 0.129(7) -0.009(4)
C21 0.105(5) 0.064(4) 0.193(8) 0.028(5) 0.105(6) 0.005(4)
C22 0.109(6) 0.066(4) 0.176(7) -0.046(5) 0.126(6) -0.027(4)
C23 0.148(7) 0.142(7) 0.140(7) -0.007(6) 0.130(6) 0.020(6)
C24 0.135(7) 0.128(6) 0.122(6) 0.019(5) 0.106(6) 0.037(5)
C25 0.084(4) 0.064(4) 0.110(5) -0.007(3) 0.084(4) 0.005(3)
C26 0.129(6) 0.068(4) 0.160(6) 0.003(4) 0.124(6) 0.010(4)
C27 0.135(6) 0.052(4) 0.203(8) -0.007(4) 0.139(7) 0.008(4)
C28 0.114(5) 0.064(4) 0.125(6) 0.005(4) 0.106(5) 0.016(4)
C29 0.137(6) 0.059(4) 0.109(5) 0.013(4) 0.109(5) 0.003(4)
C30 0.102(5) 0.061(4) 0.084(4) 0.007(3) 0.080(4) -0.001(3)
C31 0.123(6) 0.120(6) 0.127(6) 0.037(5) 0.103(5) 0.015(5)
C32 0.157(8) 0.141(7) 0.159(7) 0.016(6) 0.146(7) 0.001(6)
C33 0.168(8) 0.070(4) 0.125(6) -0.035(4) 0.131(6) -0.053(5)
C34 0.239(10) 0.052(4) 0.154(7) -0.001(4) 0.166(7) -0.024(5)
C35 0.182(7) 0.056(4) 0.123(5) 0.013(4) 0.128(6) 0.009(4)
C36 0.184(8) 0.060(4) 0.110(6) -0.022(4) 0.124(6) -0.028(5)
C37 0.153(7) 0.086(5) 0.106(5) -0.036(4) 0.104(5) -0.038(5)
C38 0.124(6) 0.068(4) 0.101(5) -0.026(4) 0.090(5) -0.017(4)
C39 0.119(6) 0.052(3) 0.085(5) 0.000(3) 0.082(5) 0.006(4)
C40 0.192(8) 0.074(4) 0.098(5) 0.003(4) 0.098(6) 0.023(5)
C41 0.226(10) 0.044(4) 0.113(6) -0.010(4) 0.131(7) 0.007(5)
C42 0.125(6) 0.062(4) 0.073(5) -0.007(4) 0.082(5) 0.001(4)

_geom_special_details            
;
 All esds (except the esd in the dihedral angle between two l.s. planes)
 are estimated using the full covariance matrix.  The cell esds are taken
 into account ind