####################################################################### 
# 
# This file contains crystal structure data downloaded from the 
# Cambridge Structural Database (CSD) hosted by the Cambridge 
# Crystallographic Data Centre (CCDC).
# 
# Full information about CCDC data access policies and citation 
# guidelines are available at http://www.ccdc.cam.ac.uk/access/V1 
# 
# Audit and citation data items may have been added by the CCDC. 
# Please retain this information to preserve the provenance of 
# this file and to allow appropriate attribution of the data. 
# 
#######################################################################

data_p
_audit_block_doi                 10.5517/cc1270p0
_database_code_depnum_ccdc_archive 'CCDC 989851'
loop_
_citation_id
_citation_doi
_citation_year
1 10.1021/cg401766j 2014
_audit_update_record             
;
2014-03-03 deposited with the CCDC.	2024-07-13 downloaded from the CCDC.
;

_audit_creation_method           SHELXL-97
_chemical_name_systematic        
; 
 ? 
;
_chemical_name_common            ?
_chemical_melting_point          ?
_chemical_formula_moiety         ?
_chemical_formula_sum            'C168 H96 N12 O79 P12 Zn11'
_chemical_formula_weight         4637.50

loop_
_atom_type_symbol
_atom_type_description
_atom_type_scat_dispersion_real
_atom_type_scat_dispersion_imag
_atom_type_scat_source
C C 0.0030 0.0020 'International Tables Vol C Tables 4.2.6.8 and 6.1.1.4'
H H 0.0000 0.0000 'International Tables Vol C Tables 4.2.6.8 and 6.1.1.4'
N N 0.0060 0.0030 'International Tables Vol C Tables 4.2.6.8 and 6.1.1.4'
O O 0.0110 0.0060 'International Tables Vol C Tables 4.2.6.8 and 6.1.1.4'
P P 0.1020 0.0940 'International Tables Vol C Tables 4.2.6.8 and 6.1.1.4'
Zn Zn 0.2840 1.4300 'International Tables Vol C Tables 4.2.6.8 and 6.1.1.4'

_symmetry_cell_setting           TRIGONAL
_symmetry_space_group_name_H-M   'R -3 C'

loop_
_symmetry_equiv_pos_as_xyz
'x, y, z'
'-y, x-y, z'
'-x+y, -x, z'
'y, x, -z+1/2'
'-x, -x+y, -z+1/2'
'x-y, -y, -z+1/2'
'x+2/3, y+1/3, z+1/3'
'-y+2/3, x-y+1/3, z+1/3'
'-x+y+2/3, -x+1/3, z+1/3'
'y+2/3, x+1/3, -z+5/6'
'-x+2/3, -x+y+1/3, -z+5/6'
'x-y+2/3, -y+1/3, -z+5/6'
'x+1/3, y+2/3, z+2/3'
'-y+1/3, x-y+2/3, z+2/3'
'-x+y+1/3, -x+2/3, z+2/3'
'y+1/3, x+2/3, -z+7/6'
'-x+1/3, -x+y+2/3, -z+7/6'
'x-y+1/3, -y+2/3, -z+7/6'
'-x, -y, -z'
'y, -x+y, -z'
'x-y, x, -z'
'-y, -x, z-1/2'
'x, x-y, z-1/2'
'-x+y, y, z-1/2'
'-x+2/3, -y+1/3, -z+1/3'
'y+2/3, -x+y+1/3, -z+1/3'
'x-y+2/3, x+1/3, -z+1/3'
'-y+2/3, -x+1/3, z-1/6'
'x+2/3, x-y+1/3, z-1/6'
'-x+y+2/3, y+1/3, z-1/6'
'-x+1/3, -y+2/3, -z+2/3'
'y+1/3, -x+y+2/3, -z+2/3'
'x-y+1/3, x+2/3, -z+2/3'
'-y+1/3, -x+2/3, z+1/6'
'x+1/3, x-y+2/3, z+1/6'
'-x+y+1/3, y+2/3, z+1/6'

_cell_length_a                   34.0012(30)
_cell_length_b                   34.0012(30)
_cell_length_c                   154.0023(50)
_cell_angle_alpha                90.00
_cell_angle_beta                 90.00
_cell_angle_gamma                120.00
_cell_volume                     154186.00(1988)
_cell_formula_units_Z            12
_cell_measurement_temperature    173(2)
_cell_measurement_reflns_used    ?
_cell_measurement_theta_min      ?
_cell_measurement_theta_max      ?

_exptl_crystal_description       BLOCK
_exptl_crystal_colour            COLORLESS
_exptl_crystal_size_max          0.15
_exptl_crystal_size_mid          0.15
_exptl_crystal_size_min          0.10
_exptl_crystal_density_meas      ?
_exptl_crystal_density_diffrn    0.599
_exptl_crystal_density_method    'not measured'
_exptl_crystal_F_000             27957
_exptl_absorpt_coefficient_mu    0.577
_exptl_absorpt_correction_type   MULTI-SCAN
_exptl_absorpt_correction_T_min  0.9184
_exptl_absorpt_correction_T_max  0.9445
_exptl_absorpt_process_details   ?

_exptl_special_details           
; 
 ? 
;

_diffrn_ambient_temperature      173(2)
_diffrn_radiation_wavelength     0.71073
_diffrn_radiation_type           MoK\a
_diffrn_radiation_source         'fine-focus sealed tube'
_diffrn_radiation_monochromator  graphite
_diffrn_measurement_device_type  ?
_diffrn_measurement_method       ?
_diffrn_detector_area_resol_mean ?
_diffrn_standards_number         ?
_diffrn_standards_interval_count ?
_diffrn_standards_interval_time  ?
_diffrn_standards_decay_%        ?
_diffrn_reflns_number            17574
_diffrn_reflns_av_R_equivalents  0.0000
_diffrn_reflns_av_sigmaI/netI    0.0648
_diffrn_reflns_limit_h_min       -29
_diffrn_reflns_limit_h_max       0
_diffrn_reflns_limit_k_min       0
_diffrn_reflns_limit_k_max       34
_diffrn_reflns_limit_l_min       -152
_diffrn_reflns_limit_l_max       153
_diffrn_reflns_theta_min         2.22
_diffrn_reflns_theta_max         21.00
_reflns_number_total             17574
_reflns_number_gt                5817
_reflns_threshold_expression     >2sigma(I)

_computing_data_collection       ?
_computing_cell_refinement       ?
_computing_data_reduction        ?
_computing_structure_solution    'SHELXS-97 (Sheldrick, 1990)'
_computing_structure_refinement  'SHELXL-97 (Sheldrick, 1997)'
_computing_molecular_graphics    ?
_computing_publication_material  ?

_refine_special_details          
; 
 Refinement of F^2^ against ALL reflections.  The weighted R-factor wR and 
 goodness of fit S are based on F^2^, conventional R-factors R are based 
 on F, with F set to zero for negative F^2^. The threshold expression of 
 F^2^ > 2sigma(F^2^) is used only for calculating R-factors(gt) etc. and is 
 not relevant to the choice of reflections for refinement.  R-factors based 
 on F^2^ are statistically about twice as large as those based on F, and R- 
 factors based on ALL data will be even larger. 
;

_refine_ls_structure_factor_coef Fsqd
_refine_ls_matrix_type           full
_refine_ls_weighting_scheme      calc
_refine_ls_weighting_details     
'calc w=1/[\s^2^(Fo^2^)+(0.2000P)^2^+0.0000P] where P=(Fo^2^+2Fc^2^)/3'
_atom_sites_solution_primary     direct
_atom_sites_solution_secondary   difmap
_atom_sites_solution_hydrogens   geom
_refine_ls_hydrogen_treatment    mixed
_refine_ls_extinction_method     none
_refine_ls_extinction_coef       ?
_refine_ls_number_reflns         17574
_refine_ls_number_parameters     829
_refine_ls_number_restraints     658
_refine_ls_R_factor_all          0.2588
_refine_ls_R_factor_gt           0.1401
_refine_ls_wR_factor_ref         0.4341
_refine_ls_wR_factor_gt          0.3510
_refine_ls_goodness_of_fit_ref   1.173
_refine_ls_restrained_S_all      1.202
_refine_ls_shift/su_max          0.008
_refine_ls_shift/su_mean         0.001

loop_
_atom_site_label
_atom_site_type_symbol
_atom_site_fract_x
_atom_site_fract_y
_atom_site_fract_z
_atom_site_U_iso_or_equiv
_atom_site_adp_type
_atom_site_occupancy
_atom_site_symmetry_multiplicity
_atom_site_calc_flag
_atom_site_refinement_flags
_atom_site_disorder_assembly
_atom_site_disorder_group
Zn1 Zn 0.38662(6) 0.66593(6) 0.509400(9) 0.2288(9) Uani 1 1 d . . .
Zn2 Zn 0.3333 0.6667 0.526341(15) 0.2286(12) Uani 1 3 d S . .
Zn3 Zn 0.47997(6) 0.66598(6) 0.502052(9) 0.2368(9) Uani 1 1 d . . .
Zn4 Zn 0.6667 0.3333 0.449853(15) 0.2442(13) Uani 1 3 d S . .
Zn5 Zn 0.51858(9) 0.53547(10) 0.405600(16) 0.3469(14) Uani 1 1 d . . .
O1 O 0.6408(3) 0.3687(3) 0.47071(5) 0.244(3) Uani 1 1 d DU . .
O2 O 0.6241(4) 0.3446(4) 0.45660(6) 0.277(4) Uani 1 1 d DU . .
O3 O 0.5364(4) 0.5438(5) 0.41706(7) 0.3469(14) Uani 1 1 d DU . .
O4 O 0.4640(5) 0.4983(6) 0.42457(11) 0.489(12) Uani 1 1 d DU . .
O5 O 0.6268(3) 0.3946(3) 0.49105(5) 0.228(3) Uani 1 1 d D . .
O6 O 0.5663(3) 0.3959(3) 0.49751(5) 0.257(4) Uani 1 1 d D . .
O7 O 0.4978(6) 0.6621(7) 0.48466(13) 0.487(8) Uani 1 1 d D . .
O8 O 0.5356(3) 0.6683(3) 0.49847(7) 0.274(4) Uani 1 1 d D . .
O9 O 0.8033(3) 0.4910(3) 0.48622(5) 0.248(3) Uani 1 1 d DU . .
O10 O 0.7323(3) 0.4323(3) 0.48269(5) 0.228(3) Uani 1 1 d D . .
O11 O 0.6616(7) 0.7505(7) 0.43214(9) 0.417(11) Uani 1 1 d D . .
O12 O 0.6747(7) 0.7911(6) 0.44645(11) 0.425(11) Uani 1 1 d D . .
O19 O 0.3968(4) 0.6925(3) 0.49820(6) 0.254(4) Uani 1 1 d D . .
O20 O 0.4684(4) 0.7024(4) 0.49496(7) 0.293(5) Uani 1 1 d D . .
O21 O 0.5605(9) 0.7235(8) 0.42728(13) 0.608(17) Uani 1 1 d DU . .
O22 O 0.6011(7) 0.7997(7) 0.43217(10) 0.474(10) Uani 1 1 d DU . .
O13 O 0.5861(5) 0.5129(5) 0.45981(6) 0.269(4) Uani 1 1 d D . .
O14 O 0.5969(4) 0.5848(4) 0.45662(7) 0.310(5) Uani 1 1 d DU . .
O15 O 0.6834(3) 0.5990(3) 0.48377(7) 0.271(4) Uani 1 1 d D . .
O16 O 0.6831(3) 0.6590(4) 0.47612(7) 0.280(4) Uani 1 1 d D . .
O17 O 0.7465(4) 0.5856(4) 0.45688(6) 0.279(4) Uani 1 1 d D . .
O18 O 0.7411(4) 0.6465(5) 0.45245(7) 0.349(7) Uani 1 1 d D . .
C1 C 0.5941(4) 0.4769(4) 0.46044(8) 0.246(5) Uani 1 1 d DU . .
C2 C 0.5976(4) 0.4619(4) 0.46879(7) 0.232(4) Uani 1 1 d DU . .
H2 H 0.5934 0.4753 0.4737 0.279 Uiso 1 1 calc R . .
C3 C 0.6071(4) 0.4274(4) 0.46956(7) 0.226(4) Uani 1 1 d DU . .
H3 H 0.6098 0.4171 0.4750 0.271 Uiso 1 1 calc R . .
C4 C 0.6126(4) 0.4080(4) 0.46197(7) 0.227(4) Uani 1 1 d DU . .
C5 C 0.6061(5) 0.4204(5) 0.45389(7) 0.251(5) Uani 1 1 d DU . .
H5 H 0.6063 0.4044 0.4490 0.301 Uiso 1 1 calc R . .
C6 C 0.5991(5) 0.4570(5) 0.45311(8) 0.263(5) Uani 1 1 d DU . .
H6 H 0.5979 0.4680 0.4476 0.316 Uiso 1 1 calc R . .
C7 C 0.6258(4) 0.3745(4) 0.46281(7) 0.241(5) Uani 1 1 d DU . .
C8 C 0.5764(6) 0.5712(6) 0.44850(9) 0.341(9) Uani 1 1 d DU . .
C9 C 0.6024(5) 0.5808(6) 0.44130(10) 0.389(10) Uani 1 1 d DU . .
H9 H 0.6339 0.5968 0.4417 0.466 Uiso 1 1 calc R . .
C10 C 0.5811(5) 0.5663(7) 0.43321(10) 0.410(10) Uani 1 1 d DU . .
H10 H 0.5981 0.5713 0.4282 0.492 Uiso 1 1 calc R . .
C11 C 0.5343(6) 0.5443(6) 0.43290(8) 0.390(10) Uani 1 1 d DU . .
C12 C 0.5083(5) 0.5318(8) 0.44028(9) 0.403(10) Uani 1 1 d DU . .
H12 H 0.4769 0.5135 0.4400 0.484 Uiso 1 1 calc R . .
C13 C 0.5303(5) 0.5475(8) 0.44829(10) 0.380(9) Uani 1 1 d DU . .
H13 H 0.5136 0.5417 0.4534 0.456 Uiso 1 1 calc R . .
C14 C 0.5111(5) 0.5284(5) 0.42477(8) 0.345(9) Uani 1 1 d DU . .
C15 C 0.6642(5) 0.5539(4) 0.48644(7) 0.222(5) Uani 1 1 d DU . .
C16 C 0.6875(4) 0.5323(4) 0.48485(6) 0.212(4) Uani 1 1 d DU . .
H16 H 0.7156 0.5472 0.4821 0.254 Uiso 1 1 calc R . .
C17 C 0.6687(4) 0.4869(4) 0.48742(6) 0.213(4) Uani 1 1 d DU . .
H17 H 0.6841 0.4711 0.4865 0.255 Uiso 1 1 calc R . .
C18 C 0.6269(4) 0.4667(3) 0.49128(6) 0.203(4) Uani 1 1 d DU . .
C19 C 0.6038(4) 0.4885(4) 0.49304(7) 0.227(5) Uani 1 1 d DU . .
H19 H 0.5760 0.4741 0.4959 0.272 Uiso 1 1 calc R . .
C20 C 0.6229(4) 0.5331(4) 0.49041(8) 0.241(5) Uani 1 1 d DU . .
H20 H 0.6076 0.5490 0.4913 0.289 Uiso 1 1 calc R . .
C21 C 0.6069(4) 0.4192(4) 0.49325(6) 0.215(5) Uani 1 1 d DU . .
C22 C 0.6477(5) 0.6629(4) 0.48002(11) 0.344(8) Uani 1 1 d DU . .
C23 C 0.6165(6) 0.6634(6) 0.47395(12) 0.446(8) Uani 1 1 d DU . .
H23 H 0.6212 0.6629 0.4680 0.536 Uiso 1 1 calc R . .
C24 C 0.5793(6) 0.6648(7) 0.47706(11) 0.446(8) Uani 1 1 d DU . .
H24 H 0.5582 0.6654 0.4733 0.536 Uiso 1 1 calc R . .
C25 C 0.5743(6) 0.6654(6) 0.48583(12) 0.464(10) Uani 1 1 d DU . .
C26 C 0.6058(5) 0.6670(6) 0.49199(10) 0.379(7) Uani 1 1 d DU . .
H26 H 0.6024 0.6698 0.4979 0.455 Uiso 1 1 calc R . .
C27 C 0.6437(6) 0.6640(6) 0.48849(11) 0.393(8) Uani 1 1 d DU . .
H27 H 0.6648 0.6628 0.4922 0.471 Uiso 1 1 calc R . .
C28 C 0.5350(6) 0.6655(6) 0.48940(9) 0.487(8) Uani 1 1 d DU . .
C29 C 0.7519(5) 0.5575(5) 0.46288(7) 0.240(5) Uani 1 1 d DU . .
C30 C 0.7887(4) 0.5762(4) 0.46832(7) 0.238(5) Uani 1 1 d DU . .
H30 H 0.8095 0.6072 0.4681 0.285 Uiso 1 1 calc R . .
C31 C 0.7950(4) 0.5487(4) 0.47416(7) 0.236(5) Uani 1 1 d DU . .
H31 H 0.8205 0.5606 0.4777 0.283 Uiso 1 1 calc R . .
C32 C 0.7630(4) 0.5042(4) 0.47458(6) 0.218(5) Uani 1 1 d DU . .
C33 C 0.7258(4) 0.4838(4) 0.46902(6) 0.230(4) Uani 1 1 d DU . .
H33 H 0.7050 0.4528 0.4693 0.276 Uiso 1 1 calc R . .
C34 C 0.7211(4) 0.5116(4) 0.46309(7) 0.233(5) Uani 1 1 d DU . .
H34 H 0.6970 0.4993 0.4592 0.279 Uiso 1 1 calc R . .
C35 C 0.7657(4) 0.4761(4) 0.48128(7) 0.233(6) Uani 1 1 d DU . .
C36 C 0.7238(5) 0.6738(5) 0.44956(12) 0.332(8) Uani 1 1 d DU . .
C37 C 0.7160(6) 0.6990(6) 0.45581(10) 0.352(8) Uani 1 1 d DU . .
H37 H 0.7207 0.6964 0.4617 0.422 Uiso 1 1 calc R . .
C38 C 0.7008(7) 0.7281(6) 0.45290(10) 0.381(8) Uani 1 1 d DU . .
H38 H 0.6957 0.7458 0.4568 0.457 Uiso 1 1 calc R . .
C39 C 0.6936(6) 0.7304(6) 0.44426(11) 0.367(9) Uani 1 1 d DU . .
C40 C 0.7009(8) 0.7039(7) 0.43812(10) 0.377(9) Uani 1 1 d DU . .
H40 H 0.6943 0.7040 0.4323 0.452 Uiso 1 1 calc R . .
C41 C 0.7187(6) 0.6775(6) 0.44133(10) 0.347(7) Uani 1 1 d DU . .
H41 H 0.7271 0.6621 0.4374 0.417 Uiso 1 1 calc R . .
C42 C 0.6771(5) 0.7593(6) 0.44090(10) 0.395(18) Uani 1 1 d D . .
C43 C 0.4196(5) 0.7421(4) 0.46739(7) 0.290(7) Uani 1 1 d DU . .
C44 C 0.3856(4) 0.7364(4) 0.47341(7) 0.258(5) Uani 1 1 d DU . .
H44 H 0.3613 0.7403 0.4719 0.310 Uiso 1 1 calc R . .
C45 C 0.3912(4) 0.7244(4) 0.48184(8) 0.253(5) Uani 1 1 d DU . .
H45 H 0.3699 0.7198 0.4861 0.303 Uiso 1 1 calc R . .
C46 C 0.4274(4) 0.7194(4) 0.48387(7) 0.238(5) Uani 1 1 d DU . .
C47 C 0.4608(4) 0.7259(5) 0.47792(8) 0.276(5) Uani 1 1 d DU . .
H47 H 0.4863 0.7241 0.4795 0.332 Uiso 1 1 calc R . .
C48 C 0.4532(5) 0.7354(6) 0.46941(8) 0.293(6) Uani 1 1 d DU . .
H48 H 0.4728 0.7370 0.4650 0.351 Uiso 1 1 calc R . .
C49 C 0.4317(5) 0.7063(4) 0.49250(7) 0.255(6) Uani 1 1 d D . .
C50 C 0.4375(6) 0.7467(8) 0.44046(9) 0.398(11) Uani 1 1 d DU . .
C51 C 0.4750(6) 0.7892(6) 0.44101(11) 0.435(11) Uani 1 1 d DU . .
H51 H 0.4733 0.8132 0.4435 0.522 Uiso 1 1 calc R . .
C52 C 0.5168(6) 0.7951(7) 0.43761(12) 0.436(10) Uani 1 1 d DU . .
H52 H 0.5430 0.8235 0.4378 0.523 Uiso 1 1 calc R . .
C53 C 0.5176(6) 0.7583(7) 0.43412(10) 0.416(9) Uani 1 1 d DU . .
C54 C 0.4773(7) 0.7157(7) 0.43349(13) 0.431(10) Uani 1 1 d DU . .
H54 H 0.4777 0.6911 0.4309 0.518 Uiso 1 1 calc R . .
C55 C 0.4383(7) 0.7112(7) 0.43667(14) 0.437(11) Uani 1 1 d DU . .
H55 H 0.4116 0.6834 0.4362 0.525 Uiso 1 1 calc R . .
C56 C 0.5586(6) 0.7605(7) 0.43114(10) 0.386(10) Uani 1 1 d DU . .
P1 P 0.6233(3) 0.5639(3) 0.46099(4) 0.278(2) Uani 1 1 d . . .
N1 N 0.7203(4) 0.6212(5) 0.46835(11) 0.282(5) Uani 1 1 d . . .
P2 P 0.6780(3) 0.6117(3) 0.47409(4) 0.2558(19) Uani 1 1 d . . .
N2 N 0.6650(6) 0.5713(6) 0.45527(7) 0.269(5) Uani 1 1 d . . .
P3 P 0.7133(3) 0.6031(3) 0.45866(4) 0.277(2) Uani 1 1 d . . .
N3 N 0.6310(6) 0.5796(6) 0.47063(9) 0.251(5) Uani 1 1 d . . .
P4 P 0.3760(4) 0.7131(4) 0.45270(3) 0.331(3) Uani 1 1 d . . .
N4 N 0.3837(9) 0.6729(13) 0.45382(10) 0.351(9) Uani 1 1 d . . .
O23 O 0.4143(5) 0.7543(5) 0.45899(6) 0.350(6) Uani 1 1 d DU . .
O24 O 0.3963(5) 0.7394(5) 0.44372(6) 0.370(7) Uani 1 1 d D . .
O25 O 0.3333 0.6667 0.51364(7) 0.222(5) Uani 1 3 d S . .
O26 O 0.7080(4) 0.3154(4) 0.44212(6) 0.318(5) Uani 1 1 d . . .
O27 O 0.5042(7) 0.4668(6) 0.40297(14) 0.490(11) Uani 1 1 d . . .

loop_
_atom_site_aniso_label
_atom_site_aniso_U_11
_atom_site_aniso_U_22
_atom_site_aniso_U_33
_atom_site_aniso_U_23
_atom_site_aniso_U_13
_atom_site_aniso_U_12
Zn1 0.2694(16) 0.2655(19) 0.1522(12) -0.0034(10) 0.0016(10) 0.1344(13)
Zn2 0.2680(18) 0.2680(18) 0.1499(18) 0.000 0.000 0.1340(9)
Zn3 0.2746(18) 0.2648(19) 0.1664(13) -0.0039(10) 0.0202(10) 0.1314(15)
Zn4 0.2939(19) 0.2939(19) 0.1448(18) 0.000 0.000 0.1470(10)
Zn5 0.318(3) 0.399(3) 0.241(2) 0.040(2) 0.0292(18) 0.118(2)
O1 0.297(9) 0.282(8) 0.172(6) 0.009(6) 0.000(6) 0.159(7)
O2 0.330(10) 0.342(11) 0.183(7) -0.042(6) -0.041(7) 0.186(9)
O3 0.318(3) 0.399(3) 0.241(2) 0.040(2) 0.0292(18) 0.118(2)
O4 0.393(14) 0.46(2) 0.373(18) 0.025(15) 0.071(10) 0.036(17)
O5 0.288(9) 0.222(9) 0.157(6) -0.010(5) -0.012(5) 0.115(7)
O6 0.308(10) 0.235(9) 0.187(7) 0.011(5) 0.064(6) 0.105(8)
O7 0.474(11) 0.504(11) 0.492(12) -0.024(8) 0.083(8) 0.251(9)
O8 0.288(9) 0.250(8) 0.291(10) 0.017(7) 0.072(7) 0.140(7)
O9 0.239(8) 0.305(9) 0.172(7) 0.053(6) -0.010(5) 0.115(7)
O10 0.252(8) 0.266(9) 0.154(6) 0.003(6) -0.010(5) 0.121(6)
O11 0.64(3) 0.51(2) 0.245(12) 0.055(13) -0.055(14) 0.39(2)
O12 0.56(3) 0.378(19) 0.41(2) 0.130(16) 0.025(18) 0.285(19)
O19 0.316(10) 0.298(9) 0.143(6) 0.016(6) 0.003(6) 0.150(8)
O20 0.320(12) 0.348(12) 0.190(8) 0.086(7) 0.006(8) 0.151(10)
O21 1.00(5) 0.79(3) 0.346(19) -0.06(2) 0.07(3) 0.68(4)
O22 0.57(2) 0.68(3) 0.242(15) 0.156(16) 0.090(16) 0.36(2)
O13 0.343(12) 0.352(14) 0.181(7) 0.033(9) 0.017(8) 0.225(12)
O14 0.327(12) 0.398(14) 0.282(10) 0.093(10) 0.053(8) 0.240(11)
O15 0.312(10) 0.249(9) 0.207(9) 0.006(7) 0.067(7) 0.107(8)
O16 0.294(10) 0.280(11) 0.266(10) 0.058(8) 0.094(7) 0.143(9)
O17 0.339(11) 0.376(12) 0.178(7) 0.085(7) 0.053(7) 0.221(11)
O18 0.370(13) 0.518(18) 0.260(10) 0.183(12) 0.133(10) 0.299(14)
C1 0.329(13) 0.306(14) 0.147(8) 0.002(9) 0.001(10) 0.192(12)
C2 0.285(11) 0.272(13) 0.159(7) 0.003(8) -0.013(8) 0.154(10)
C3 0.266(11) 0.265(12) 0.152(7) 0.010(8) 0.001(8) 0.136(9)
C4 0.243(10) 0.309(12) 0.156(7) -0.019(8) -0.024(9) 0.158(9)
C5 0.326(13) 0.314(14) 0.155(7) -0.020(9) -0.009(9) 0.191(11)
C6 0.346(13) 0.347(16) 0.165(8) -0.003(10) -0.003(10) 0.225(12)
C7 0.232(11) 0.313(16) 0.199(10) -0.026(10) -0.032(10) 0.152(11)
C8 0.334(17) 0.49(2) 0.264(12) 0.122(16) 0.032(11) 0.252(18)
C9 0.334(14) 0.57(2) 0.258(15) 0.134(19) 0.019(10) 0.223(16)
C10 0.380(16) 0.55(2) 0.256(13) 0.124(17) 0.027(12) 0.20(2)
C11 0.373(16) 0.56(2) 0.234(8) 0.155(15) 0.008(11) 0.236(18)
C12 0.369(15) 0.60(3) 0.246(13) 0.099(19) 0.015(11) 0.247(18)
C13 0.345(16) 0.60(3) 0.266(11) 0.046(18) 0.012(13) 0.291(19)
C14 0.336(14) 0.51(3) 0.258(10) 0.079(15) 0.030(9) 0.263(16)
C15 0.248(13) 0.258(11) 0.163(9) 0.003(9) 0.047(8) 0.129(10)
C16 0.228(10) 0.247(11) 0.153(8) 0.012(8) 0.026(7) 0.114(9)
C17 0.251(11) 0.243(10) 0.131(8) 0.002(7) 0.018(7) 0.114(10)
C18 0.260(12) 0.207(9) 0.124(