####################################################################### 
# 
# This file contains crystal structure data downloaded from the 
# Cambridge Structural Database (CSD) hosted by the Cambridge 
# Crystallographic Data Centre (CCDC).
# 
# Full information about CCDC data access policies and citation 
# guidelines are available at http://www.ccdc.cam.ac.uk/access/V1 
# 
# Audit and citation data items may have been added by the CCDC. 
# Please retain this information to preserve the provenance of 
# this file and to allow appropriate attribution of the data. 
# 
#######################################################################

data_a
_audit_block_doi                 10.5517/ccz8xqv
_database_code_depnum_ccdc_archive 'CCDC 902308'
loop_
_citation_id
_citation_doi
_citation_year
1 10.1016/j.inoche.2013.11.033 2014
_audit_update_record             
;
2013-07-23 deposited with the CCDC.	2024-07-13 downloaded from the CCDC.
;

_audit_creation_method           SHELXL-97
_chemical_name_systematic        
;
 ?
;
_chemical_name_common            ?
_chemical_melting_point          ?
_chemical_formula_moiety         ?
_chemical_formula_sum            'C28 H21 N2 O6 Zn'
_chemical_formula_weight         546.84

loop_
_atom_type_symbol
_atom_type_description
_atom_type_scat_dispersion_real
_atom_type_scat_dispersion_imag
_atom_type_scat_source
C C 0.0033 0.0016 'International Tables Vol C Tables 4.2.6.8 and 6.1.1.4'
H H 0.0000 0.0000 'International Tables Vol C Tables 4.2.6.8 and 6.1.1.4'
N N 0.0061 0.0033 'International Tables Vol C Tables 4.2.6.8 and 6.1.1.4'
O O 0.0106 0.0060 'International Tables Vol C Tables 4.2.6.8 and 6.1.1.4'
Zn Zn 0.2839 1.4301 'International Tables Vol C Tables 4.2.6.8 and 6.1.1.4'

_symmetry_cell_setting           Triclinic
_symmetry_space_group_name_H-M   P-1

loop_
_symmetry_equiv_pos_as_xyz
'x, y, z'
'-x, -y, -z'

_cell_length_a                   8.6778(3)
_cell_length_b                   11.2777(4)
_cell_length_c                   14.1680(5)
_cell_angle_alpha                93.786(2)
_cell_angle_beta                 94.433(3)
_cell_angle_gamma                97.950(3)
_cell_volume                     1364.99(8)
_cell_formula_units_Z            2
_cell_measurement_temperature    296(2)
_cell_measurement_reflns_used    1394
_cell_measurement_theta_min      1.45
_cell_measurement_theta_max      27.56

_exptl_crystal_description       block
_exptl_crystal_colour            colourless
_exptl_crystal_size_max          0.28
_exptl_crystal_size_mid          0.25
_exptl_crystal_size_min          0.20
_exptl_crystal_density_meas      ?
_exptl_crystal_density_diffrn    1.330
_exptl_crystal_density_method    'not measured'
_exptl_crystal_F_000             562
_exptl_absorpt_coefficient_mu    0.942
_exptl_absorpt_correction_type   empirical
_exptl_absorpt_process_details   'SADABS (Sheldrick, 1996)'
_exptl_absorpt_correction_T_min  .0000
_exptl_absorpt_correction_T_max  .0000


_exptl_special_details           
;
 ?
;

_diffrn_ambient_temperature      296(2)
_diffrn_radiation_wavelength     0.71073
_diffrn_radiation_type           MoK\a
_diffrn_radiation_source         'fine-focus sealed tube'
_diffrn_radiation_monochromator  graphite
_diffrn_measurement_device_type  'Bruker P4'
_diffrn_measurement_method       '\w scans'
_diffrn_detector_area_resol_mean ?
_diffrn_standards_number         none
_diffrn_standards_interval_count none
_diffrn_standards_interval_time  none
_diffrn_standards_decay_%        none
_diffrn_reflns_number            21731
_diffrn_reflns_av_R_equivalents  0.0907
_diffrn_reflns_av_sigmaI/netI    0.1110
_diffrn_reflns_limit_h_min       -11
_diffrn_reflns_limit_h_max       8
_diffrn_reflns_limit_k_min       -12
_diffrn_reflns_limit_k_max       14
_diffrn_reflns_limit_l_min       -18
_diffrn_reflns_limit_l_max       18
_diffrn_reflns_theta_min         1.45
_diffrn_reflns_theta_max         27.56
_reflns_number_total             6188
_reflns_number_gt                3573
_reflns_threshold_expression     >2sigma(I)

_computing_data_collection       'Siemens SMART'
_computing_cell_refinement       'Siemens SMART & SAINT'
_computing_data_reduction        'Siemens XPREP'
_computing_structure_solution    'Siemens SHELXTL'
_computing_structure_refinement  'Siemens SHELXTL'
_computing_molecular_graphics    'Bruker SHELXTL'
_computing_publication_material  'Bruker SHELXTL'

_refine_special_details          
;
 Refinement of F^2^ against ALL reflections.  The weighted R-factor wR and
 goodness of fit S are based on F^2^, conventional R-factors R are based
 on F, with F set to zero for negative F^2^. The threshold expression of
 F^2^ > 2sigma(F^2^) is used only for calculating R-factors(gt) etc. and is
 not relevant to the choice of reflections for refinement.  R-factors based
 on F^2^ are statistically about twice as large as those based on F, and R-
 factors based on ALL data will be even larger.
;

_refine_ls_structure_factor_coef Fsqd
_refine_ls_matrix_type           full
_refine_ls_weighting_scheme      calc

_refine_ls_weighting_details     
'calc w=1/[\s^2^(Fo^2^)+(0.1860P)^2^+0.0000P] where P=(Fo^2^+2Fc^2^)/3'
_atom_sites_solution_primary     direct
_atom_sites_solution_secondary   difmap
_atom_sites_solution_hydrogens   geom
_refine_ls_hydrogen_treatment    mixed
_refine_ls_extinction_method     none
_refine_ls_extinction_coef       ?
_refine_ls_number_reflns         6188
_refine_ls_number_parameters     337
_refine_ls_number_restraints     0
_refine_ls_R_factor_ref          0.1419
_refine_ls_R_factor_gt           0.0870
_refine_ls_wR_factor_ref         0.3072
_refine_ls_wR_factor_gt          0.2671
_refine_ls_goodness_of_fit_ref   1.051
_refine_ls_restrained_S_all      1.051
_refine_ls_shift/su_max          0.001
_refine_ls_shift/su_mean         0.000

loop_
_atom_site_label
_atom_site_type_symbol
_atom_site_fract_x
_atom_site_fract_y
_atom_site_fract_z
_atom_site_U_iso_or_equiv
_atom_site_adp_type
_atom_site_occupancy
_atom_site_symmetry_multiplicity
_atom_site_calc_flag
_atom_site_refinement_flags
_atom_site_disorder_assembly
_atom_site_disorder_group
Zn1 Zn 0.64780(9) 0.85292(7) 0.65177(5) 0.0315(3) Uani 1 1 d . . .
O1 O 0.6056(6) 0.8612(6) -0.1517(4) 0.0611(17) Uani 1 1 d . . .
O2 O 0.7972(5) 0.8375(4) -0.2402(3) 0.0372(11) Uani 1 1 d . . .
O3 O 1.3282(7) 0.8784(7) -0.1000(4) 0.069(2) Uani 1 1 d . . .
H3 H 1.443(12) 0.892(8) -0.114(7) 0.082 Uiso 1 1 d . . .
O4 O 1.3819(6) 0.8341(7) 0.0479(4) 0.073(2) Uani 1 1 d . . .
O5 O 0.6362(7) 0.6513(5) 0.4848(4) 0.0535(15) Uani 1 1 d . . .
O6 O 0.7526(6) 0.8369(5) 0.5363(3) 0.0468(13) Uani 1 1 d . . .
N1 N 0.4257(7) 0.7666(5) 0.6508(4) 0.0321(12) Uani 1 1 d . . .
N2 N -0.3569(7) 0.0360(5) 0.6517(4) 0.0341(13) Uani 1 1 d . . .
C1 C 0.9025(8) 0.8278(6) 0.0943(4) 0.0318(15) Uani 1 1 d . . .
C2 C 0.7994(8) 0.8293(6) 0.0149(4) 0.0306(14) Uani 1 1 d . . .
H2A H 0.6927 0.8216 0.0214 0.037 Uiso 1 1 calc R . .
C3 C 0.8531(7) 0.8422(6) -0.0740(4) 0.0318(14) Uani 1 1 d . . .
C4 C 1.0135(8) 0.8509(6) -0.0849(4) 0.0324(15) Uani 1 1 d . . .
H4A H 1.0501 0.8596 -0.1444 0.039 Uiso 1 1 calc R . .
C5 C 1.1169(8) 0.8463(6) -0.0059(5) 0.0358(16) Uani 1 1 d . . .
C6 C 1.0622(8) 0.8352(7) 0.0821(5) 0.0393(17) Uani 1 1 d . . .
H6A H 1.1326 0.8325 0.1346 0.047 Uiso 1 1 calc R . .
C7 C 0.8515(8) 0.8128(6) 0.1916(4) 0.0335(15) Uani 1 1 d . . .
C8 C 0.7328(8) 0.7190(6) 0.2060(5) 0.0390(16) Uani 1 1 d . . .
H8A H 0.6820 0.6691 0.1548 0.047 Uiso 1 1 calc R . .
C9 C 0.6928(8) 0.7021(6) 0.2963(5) 0.0372(16) Uani 1 1 d . . .
H9A H 0.6147 0.6394 0.3049 0.045 Uiso 1 1 calc R . .
C10 C 0.7622(8) 0.7728(6) 0.3746(5) 0.0323(14) Uani 1 1 d . . .
C11 C 0.8798(8) 0.8691(6) 0.3600(5) 0.0382(16) Uani 1 1 d . . .
H11A H 0.9261 0.9206 0.4115 0.046 Uiso 1 1 calc R . .
C12 C 0.9253(8) 0.8867(7) 0.2721(5) 0.0372(16) Uani 1 1 d . . .
H12A H 1.0057 0.9480 0.2643 0.045 Uiso 1 1 calc R . .
C13 C 0.7425(8) 0.8457(6) -0.1597(4) 0.0349(15) Uani 1 1 d . . .
C14 C 1.2904(9) 0.8525(7) -0.0148(5) 0.0432(18) Uani 1 1 d . . .
C15 C 0.7119(9) 0.7500(6) 0.4725(5) 0.0371(16) Uani 1 1 d . . .
C16 C 0.3873(8) 0.6496(7) 0.6309(5) 0.0413(17) Uani 1 1 d . . .
H16A H 0.4655 0.6048 0.6160 0.050 Uiso 1 1 calc R . .
C17 C 0.2364(8) 0.5903(6) 0.6311(5) 0.0403(17) Uani 1 1 d . . .
H17A H 0.2147 0.5077 0.6169 0.048 Uiso 1 1 calc R . .
C18 C 0.1179(8) 0.6562(6) 0.6530(5) 0.0343(15) Uani 1 1 d . . .
C19 C 0.1578(8) 0.7780(6) 0.6715(5) 0.0375(16) Uani 1 1 d . . .
H19A H 0.0811 0.8255 0.6839 0.045 Uiso 1 1 calc R . .
C20 C 0.3121(9) 0.8306(6) 0.6719(5) 0.0369(16) Uani 1 1 d . . .
H20A H 0.3375 0.9128 0.6872 0.044 Uiso 1 1 calc R . .
C21 C -0.0505(9) 0.5984(6) 0.6553(6) 0.050(2) Uani 1 1 d . . .
H21A H -0.1306 0.6450 0.6587 0.059 Uiso 1 1 calc R . .
C22 C -0.0840(8) 0.4638(6) 0.6519(5) 0.0399(17) Uani 1 1 d . . .
H22A H -0.0247 0.4358 0.7046 0.048 Uiso 1 1 calc R . .
H22B H -0.0508 0.4297 0.5935 0.048 Uiso 1 1 calc R . .
C23 C -0.2577(9) 0.4209(6) 0.6569(6) 0.0425(17) Uani 1 1 d . . .
H23A H -0.2909 0.4570 0.7146 0.051 Uiso 1 1 calc R . .
H23B H -0.3163 0.4481 0.6035 0.051 Uiso 1 1 calc R . .
C24 C -0.2953(8) 0.2859(6) 0.6558(5) 0.0349(15) Uani 1 1 d . . .
C25 C -0.2757(9) 0.2141(7) 0.5752(5) 0.0434(18) Uani 1 1 d . . .
H25A H -0.2425 0.2489 0.5212 0.052 Uiso 1 1 calc R . .
C26 C -0.3052(9) 0.0928(6) 0.5760(5) 0.0421(17) Uani 1 1 d . . .
H26A H -0.2893 0.0462 0.5220 0.051 Uiso 1 1 calc R . .
C27 C -0.3782(8) 0.1044(6) 0.7276(5) 0.0367(16) Uani 1 1 d . . .
H27A H -0.4149 0.0677 0.7800 0.044 Uiso 1 1 calc R . .
C28 C -0.3478(8) 0.2284(6) 0.7322(5) 0.0344(15) Uani 1 1 d . . .
H28A H -0.3631 0.2731 0.7874 0.041 Uiso 1 1 calc R . .

loop_
_atom_site_aniso_label
_atom_site_aniso_U_11
_atom_site_aniso_U_22
_atom_site_aniso_U_33
_atom_site_aniso_U_23
_atom_site_aniso_U_13
_atom_site_aniso_U_12
Zn1 0.0303(5) 0.0372(5) 0.0260(4) 0.0039(3) 0.0038(3) 0.0006(3)
O1 0.030(3) 0.125(6) 0.035(3) 0.018(3) 0.007(2) 0.027(3)
O2 0.034(3) 0.055(3) 0.025(2) 0.005(2) 0.0077(19) 0.011(2)
O3 0.036(3) 0.139(6) 0.036(3) 0.020(3) 0.015(2) 0.019(4)
O4 0.032(3) 0.158(7) 0.033(3) 0.018(4) 0.000(2) 0.023(4)
O5 0.071(4) 0.048(3) 0.042(3) 0.008(2) 0.023(3) -0.002(3)
O6 0.058(3) 0.053(3) 0.027(2) -0.001(2) 0.010(2) 0.000(3)
N1 0.036(3) 0.033(3) 0.026(3) 0.003(2) 0.004(2) 0.001(3)
N2 0.037(3) 0.039(3) 0.028(3) 0.010(2) 0.004(2) 0.007(3)
C1 0.028(3) 0.043(4) 0.027(3) 0.011(3) 0.007(3) 0.004(3)
C2 0.028(3) 0.036(3) 0.028(3) -0.001(3) 0.004(3) 0.007(3)
C3 0.027(3) 0.043(4) 0.026(3) 0.008(3) 0.002(3) 0.008(3)
C4 0.030(4) 0.047(4) 0.021(3) 0.004(3) 0.006(3) 0.007(3)
C5 0.032(4) 0.047(4) 0.030(3) 0.002(3) 0.009(3) 0.005(3)
C6 0.030(4) 0.066(5) 0.022(3) 0.008(3) 0.001(3) 0.005(3)
C7 0.032(4) 0.044(4) 0.026(3) 0.004(3) 0.006(3) 0.008(3)
C8 0.040(4) 0.048(4) 0.027(3) -0.001(3) 0.003(3) 0.004(3)
C9 0.031(4) 0.046(4) 0.034(4) 0.000(3) 0.007(3) 0.004(3)
C10 0.029(3) 0.038(4) 0.033(3) 0.004(3) 0.009(3) 0.013(3)
C11 0.040(4) 0.045(4) 0.028(3) -0.003(3) -0.001(3) 0.003(3)
C12 0.032(4) 0.045(4) 0.034(4) 0.006(3) 0.011(3) -0.001(3)
C13 0.029(4) 0.049(4) 0.029(3) 0.008(3) 0.008(3) 0.008(3)
C14 0.039(4) 0.064(5) 0.028(3) 0.000(3) 0.008(3) 0.010(4)
C15 0.046(4) 0.042(4) 0.029(3) 0.006(3) 0.009(3) 0.021(4)
C16 0.033(4) 0.041(4) 0.053(4) 0.009(3) 0.009(3) 0.011(3)
C17 0.035(4) 0.034(4) 0.052(4) 0.003(3) 0.008(3) 0.004(3)
C18 0.032(4) 0.031(3) 0.040(4) 0.008(3) 0.007(3) 0.002(3)
C19 0.034(4) 0.035(4) 0.044(4) -0.001(3) 0.014(3) 0.002(3)
C20 0.045(4) 0.031(3) 0.034(4) -0.002(3) 0.005(3) 0.007(3)
C21 0.033(4) 0.029(4) 0.089(6) 0.014(4) 0.014(4) 0.004(3)
C22 0.032(4) 0.035(4) 0.054(4) 0.004(3) 0.008(3) 0.005(3)
C23 0.040(4) 0.032(4) 0.056(5) 0.004(3) 0.009(4) 0.005(3)
C24 0.026(3) 0.031(3) 0.045(4) 0.003(3) -0.001(3) -0.001(3)
C25 0.048(5) 0.047(4) 0.033(4) 0.009(3) 0.007(3) -0.008(4)
C26 0.050(5) 0.040(4) 0.035(4) 0.001(3) 0.008(3) -0.002(4)
C27 0.036(4) 0.041(4) 0.033(4) 0.002(3) 0.009(3) 0.005(3)
C28 0.037(4) 0.035(4) 0.032(3) 0.001(3) 0.006(3) 0.007(3)

_geom_special_details            
;
 All esds (except the esd in the dihedral angle between two l.s. planes)
 are estimated using the full covariance matrix.  The cell esds are taken
 into account individually in the estimation of esds in distances, angles
 and torsion angles; correlations between esds in cell parameters are only
 used when they are defined by crystal symmetry.  An approximate (isotropic)
 treatment of cell esds is used for estimating esds involving l.s. planes.
;

loop_
_geom_bond_atom_site_label_1
_geom_bond_atom_site_label_2
_geom_bond_distance
_geom_bond_site_symmetry_2
_geom_bond_publ_flag
Zn1 O6 1.942(5) . ?
Zn1 O2 1.961(5) 1_556 ?
Zn1 N1 2.034(6) . ?
Zn1 N2 2.071(6) 1_665 ?
O1 C13 1.237(8) . ?
O2 C13 1.272(7) . ?
O2 Zn1 1.961(5) 1_554 ?
O3 C14 1.316(8) . ?
O3 H3 1.02(10) . ?
O4 C14 1.193(9) . ?
O5 C15 1.241(8) . ?
O6 C15 1.281(8) . ?
N1 C16 1.322(9) . ?
N1 C20 1.340(9) . ?
N2 C27 1.322(9) . ?
N2 C26 1.358(8) . ?
N2 Zn1 2.071(6) 1_445 ?
C1 C2 1.384(9) . ?
C1 C6 1.401(9) . ?
C1 C7 1.494(8) . ?
C2 C3 1.386(8) . ?
C2 H2A 0.9300 . ?
C3 C4 1.404(9) . ?
C3 C13 1.494(9) . ?
C4 C5 1.387(9) . ?
C4 H4A 0.9300 . ?
C5 C6 1.375(8) . ?
C5 C14 1.513(10) . ?
C6 H6A 0.9300 . ?
C7 C8 1.407(9) . ?
C7 C12 1.421(10) . ?
C8 C9 1.370(9) . ?
C8 H8A 0.9300 . ?
C9 C10 1.369(9) . ?
C9 H9A 0.9300 . ?
C10 C11 1.421(10) . ?
C10 C15 1.513(9) . ?
C11 C12 1.354(9) . ?
C11 H11A 0.9300 . ?
C12 H12A 0.9300 . ?
C16 C17 1.386(10) . ?
C16 H16A 0.9300 . ?
C17 C18 1.391(10) . ?
C17 H17A 0.9300 . ?
C18 C19 1.372(9) . ?
C18 C21 1.520(10) . ?
C19 C20 1.387(10) . ?
C19 H19A 0.9300 . ?
C20 H20A 0.9300 . ?
C21 C22 1.502(9) . ?
C21 H21A 0.9300 . ?
C22 C23 1.527(10) . ?
C22 H22A 0.9700 . ?
C22 H22B 0.9700 . ?
C23 C24 1.511(9) . ?
C23 H23A 0.9700 . ?
C23 H23B 0.9700 . ?
C24 C28 1.374(9) . ?
C24 C25 1.392(10) . ?
C25 C26 1.357(10) . ?
C25 H25A 0.9300 . ?
C26 H26A 0.9300 . ?
C27 C28 1.383(9) . ?
C27 H27A 0.9300 . ?
C28 H28A 0.9300 . ?

loop_
_geom_angle_atom_site_label_1
_geom_angle_atom_site_label_2
_geom_angle_atom_site_label_3
_geom_angle
_geom_angle_site_symmetry_1
_geom_angle_site_symmetry_3
_geom_angle_publ_flag
O6 Zn1 O2 108.1(2) . 1_556 ?
O6 Zn1 N1 117.6(2) . . ?
O2 Zn1 N1 118.4(2) 1_556 . ?
O6 Zn1 N2 96.4(2) . 1_665 ?
O2 Zn1 N2 104.1(2) 1_556 1_665 ?
N1 Zn1 N2 109.2(2) . 1_665 ?
C13 O2 Zn1 114.4(4) . 1_554 ?
C14 O3 H3 120(5) . . ?
C15 O6 Zn1 122.9(5) . . ?
C16 N1 C20 117.9(6) . . ?
C16 N1 Zn1 123.2(5) . . ?
C20 N1 Zn1 118.9(5) . . ?
C27 N2 C26 117.1(6) . . ?
C27 N2 Zn1 123.5(4) . 1_445 ?
C26 N2 Zn1 118.1(5) . 1_445 ?
C2 C1 C6 118.4(6) . . ?
C2 C1 C7 123.2(6) . . ?
C6 C1 C7 118.3(6) . . ?
C1 C2 C3 120.8(6) . . ?
C1 C2 H2A 119.6 . . ?
C3 C2 H2A 119.6 . . ?
C2 C3 C4 120.1(6) . . ?
C2 C3 C13 121.1(6) . . ?
C4 C3 C13 118.8(5) . . ?
C5 C4 C3 119.2(6) . . ?
C5 C4 H4A 120.4 . . ?
C3 C4 H4A 120.4 . . ?
C6 C5 C4 120.1(6) . . ?
C6 C5 C14 118.9(6) . . ?
C4 C5 C14 121.0(6) . . ?
C5 C6 C1 121.3(6) . . ?
C5 C6 H6A 119.3 . . ?
C1 C6 H6A 119.3 . . ?
C8 C7 C12 118.3(6) . . ?
C8 C7 C1 119.8(6) . . ?
C12 C7 C1 121.9(6) . . ?
C9 C8 C7 119.3(6) . . ?
C9 C8 H8A 120.4 . . ?
C7 C8 H8A 120.4 . . ?
C10 C9 C8 123.3(7) . . ?
C10 C9 H9A 118.4 . . ?
C8 C9 H9A 118.4 . . ?
C9 C10 C11 117.6(6) . . ?
C9 C10 C15 120.7(6) . . ?
C11 C10 C15 121.7(6) . . ?
C12 C11 C10 120.8(6) . . ?
C12 C11 H11A 119.6 . . ?
C10 C11 H11A 119.6 . . ?
C11 C12 C7 120.8(6) . . ?
C11 C12 H12A 119.6 . . ?
C7 C12 H12A 119.6 . . ?
O1 C13 O2 121.9(6) . . ?
O1 C13 C3 120.9(6) . . ?
O2 C13 C3 117.2(6) . . ?
O4 C14 O3 123.9(7) . . ?
O4 C14 C5 123.8(6) . . ?
O3 C14 C5 112.2(6) . . ?
O5 C15 O6 125.6(6) . . ?
O5 C15 C10 118.8(6) . . ?
O6 C15 C10 115.6(6) . . ?
N1 C16 C17 123.4(7) . . ?
N1 C16 H16A 118.3 . . ?
C17 C16 H16A 118.3 . . ?
C16 C17 C18 119.0(7) . . ?
C16 C17 H17A 120.5 . . ?
C18 C17 H17A 120.5 . . ?
C19 C18 C17 117.4(6) . . ?
C19 C18 C21 120.1(6) . . ?
C17 C18 C21 122.5(6) . . ?
C18 C19 C20 120.3(7) . . ?
C18 C19 H19A 119.9 . . ?
C20 C19 H19A 119.9 . . ?
N1 C20 C19 122.0(6) . . ?
N1 C20 H20A 119.0 . . ?
C19 C20 H20A 119.0 . . ?
C22 C21 C18 118.1(6) . . ?
C22 C21 H21A 120.9 . . ?
C18 C21 H21A 120.9 . . ?
C21 C22 C23 111.3(6) . . ?
C21 C22 H22A 109.4 . . ?
C23 C22 H22A 109.4 . . ?
C21 C22 H22B 109.4 . . ?
C23 C22 H22B 109.4 . . ?
H22A C22 H22B 108.0 . . ?
C24 C23 C22 112.8(6) . . ?
C24 C23 H23A 109.0 . . ?
C22 C23 H23A 109.0 . . ?
C24 C23 H23B 109.0 . . ?
C22 C23 H23B 109.0 . . ?
H23A C23 H23B 107.8 . . ?
C28 C24 C25 117.1(6) . . ?
C28 C24 C23 122.9(6) . . ?
C25 C24 C23 120.0(6) . . ?
C26 C25 C24 119.5(6) . . ?
C26 C25 H25A 120.3 . . ?
C24 C25 H25A 120.3 . . ?
C25 C26 N2 123.4(7) . . ?
C25 C26 H26A 118.3 . . ?
N2 C26 H26A 118.3 . . ?
N2 C27 C28 122.6(6) . . ?
N2 C27 H27A 118.7 . . ?
C28 C27 H27A 118.7 . . ?
C24 C28 C27 120.4(6) . . ?
C24 C28 H28A 119.8 . . ?
C27 C28 H28A 119.8 . . ?

loop_
_geom_torsion_atom_site_label_1
_geom_torsion_atom_site_label_2
_geom_torsion_atom_site_label_3
_geom_torsion_atom_site_label_4
_geom_torsion
_geom_torsion_site_symmetry_1
_geom_torsion_site_symmetry_2
_geom_torsion_site_symmetry_3
_geom_torsion_site_symmetry_4
_geom_torsion_publ_flag
O2 Zn1 O6 C15 115.4(5) 1_556 . . . ?
N1 Zn1 O6 C15 -21.9(6) . . . . ?
N2 Zn1 O6 C15 -137.5(5) 1_665 . . . ?
O6 Zn1 N1 C16 57.0(6) . . . . ?
O2 Zn1 N1 C16 -75.9(6) 1_556 . . . ?
N2 Zn1 N1 C16 165.4(5) 1_665 . . . ?
O6 Zn1 N1 C20 -123.4(5) . . . . ?
O2 Zn1 N1 C20 103.7(5) 1_556 . . . ?
N2 Zn1 N1 C20 -15.0(5) 1_665 . . . ?
C6 C1 C2 C3 -2.3(10) . . . . ?
C7 C1 C2 C3 -179.3(6) . . . . ?
C1 C2 C3 C4 1.6(10) . . . . ?
C1 C2 C3 C13 -179.1(6) . . . . ?
C2 C3 C4 C5 0.0(10) . . . . ?
C13 C3 C4 C5 -179.2(6) . . . . ?
C3 C4 C5 C6 -1.0(11) . . . . ?
C3 C4 C5 C14 178.7(7) . . . . ?
C4 C5 C6 C1 0.3(11) . . . . ?
C14 C5 C6 C1 -179.4(7) . . . . ?
C2 C1 C6 C5 1.4(11) . . . . ?
C7 C1 C6 C5 178.5(7) . . . . ?
C2 C1 C7 C8 49.3(10) . . . . ?
C6 C1 C7 C8 -127.7(8) . . . . ?
C2 C1 C7 C12 -134.2(7) . . . . ?
C6 C1 C7 C12 48.8(10) . . . . ?
C12 C7 C8 C9 -0.2(11) . . . . ?
C1 C7 C8 C9 176.5(6) . . . . ?
C7 C8 C9 C10 0.5(11) . . . . ?
C8 C9 C10 C11 0.8(10) . . . . ?
C8 C9 C10 C15 179.5(7) . . . . ?
C9 C10 C11 C12 -2.5(10) . . . . ?
C15 C10 C11 C12 178.8(6) . . . . ?
C10 C11 C12 C7 2.9(11) . . . . ?
C8 C7 C12 C11 -1.5(11) . . . . ?
C1 C7 C12 C11 -178.1(7) . . . . ?
Zn1 O2 C13 O1 0.5(9) 1_554 . . . ?
Zn1 O2 C13 C3 -176.4(5) 1_554 . . . ?
C2 C3 C13 O1 14.6(11) . . . . ?
C4 C3 C13 O1 -166.2(7) . . . . ?
C2 C3 C13 O2 -168.6(6) . . . . ?
C4 C3 C13 O2 10.7(10) . . . . ?
C6 C5 C14 O4 9.4(13) . . . . ?
C4 C5 C14 O4 -170.3(