####################################################################### 
# 
# This file contains crystal structure data downloaded from the 
# Cambridge Structural Database (CSD) hosted by the Cambridge 
# Crystallographic Data Centre (CCDC).
# 
# Full information about CCDC data access policies and citation 
# guidelines are available at http://www.ccdc.cam.ac.uk/access/V1 
# 
# Audit and citation data items may have been added by the CCDC. 
# Please retain this information to preserve the provenance of 
# this file and to allow appropriate attribution of the data. 
# 
#######################################################################

data_g
_audit_block_doi                 10.5517/cc10ydjw
_database_code_depnum_ccdc_archive 'CCDC 951778'
loop_
_citation_id
_citation_doi
_citation_year
1 10.1016/j.inoche.2013.11.033 2014
_audit_update_record             
;
2013-07-23 deposited with the CCDC.	2024-07-13 downloaded from the CCDC.
;

_audit_creation_method           SHELXL-97
_chemical_name_systematic        
; 
 ? 
;
_chemical_name_common            ?
_chemical_melting_point          ?
_chemical_formula_moiety         ?
_chemical_formula_sum            'C28 H24 Cd N2 O7'
_chemical_formula_weight         612.90

loop_
_atom_type_symbol
_atom_type_description
_atom_type_scat_dispersion_real
_atom_type_scat_dispersion_imag
_atom_type_scat_source
C C 0.0033 0.0016 'International Tables Vol C Tables 4.2.6.8 and 6.1.1.4'
H H 0.0000 0.0000 'International Tables Vol C Tables 4.2.6.8 and 6.1.1.4'
Cd Cd -0.8075 1.2024 'International Tables Vol C Tables 4.2.6.8 and 6.1.1.4'
N N 0.0061 0.0033 'International Tables Vol C Tables 4.2.6.8 and 6.1.1.4'
O O 0.0106 0.0060 'International Tables Vol C Tables 4.2.6.8 and 6.1.1.4'

_symmetry_cell_setting           ?
_symmetry_space_group_name_H-M   'P -1'
loop_
_symmetry_equiv_pos_as_xyz
'x, y, z'
'-x, -y, -z'

_cell_length_a                   10.0495(10)
_cell_length_b                   12.6661(14)
_cell_length_c                   12.8425(13)
_cell_angle_alpha                93.859(5)
_cell_angle_beta                 94.145(5)
_cell_angle_gamma                93.990(5)
_cell_volume                     1622.2(3)
_cell_formula_units_Z            2
_cell_measurement_temperature    296(2)
_cell_measurement_reflns_used    ?
_cell_measurement_theta_min      ?
_cell_measurement_theta_max      ?

_exptl_crystal_description       ?
_exptl_crystal_colour            ?
_exptl_crystal_size_max          ?
_exptl_crystal_size_mid          ?
_exptl_crystal_size_min          ?
_exptl_crystal_density_meas      ?
_exptl_crystal_density_diffrn    1.255
_exptl_crystal_density_method    'not measured'
_exptl_crystal_F_000             620
_exptl_absorpt_coefficient_mu    0.713
_exptl_absorpt_correction_type   ?
_exptl_absorpt_correction_T_min  ?
_exptl_absorpt_correction_T_max  ?
_exptl_absorpt_process_details   ?

_exptl_special_details           
; 
 ? 
;

_diffrn_ambient_temperature      296(2)
_diffrn_radiation_wavelength     0.71073
_diffrn_radiation_type           MoK\a
_diffrn_radiation_source         'fine-focus sealed tube'
_diffrn_radiation_monochromator  graphite
_diffrn_measurement_device_type  ?
_diffrn_measurement_method       ?
_diffrn_detector_area_resol_mean ?
_diffrn_standards_number         ?
_diffrn_standards_interval_count ?
_diffrn_standards_interval_time  ?
_diffrn_standards_decay_%        ?
_diffrn_reflns_number            21445
_diffrn_reflns_av_R_equivalents  0.0272
_diffrn_reflns_av_sigmaI/netI    0.0257
_diffrn_reflns_limit_h_min       -11
_diffrn_reflns_limit_h_max       10
_diffrn_reflns_limit_k_min       -13
_diffrn_reflns_limit_k_max       15
_diffrn_reflns_limit_l_min       -15
_diffrn_reflns_limit_l_max       15
_diffrn_reflns_theta_min         1.59
_diffrn_reflns_theta_max         25.00
_reflns_number_total             5686
_reflns_number_gt                5140
_reflns_threshold_expression     >2sigma(I)

_computing_data_collection       ?
_computing_cell_refinement       ?
_computing_data_reduction        ?
_computing_structure_solution    'SHELXS-97 (Sheldrick, 1990)'
_computing_structure_refinement  'SHELXL-97 (Sheldrick, 1997)'
_computing_molecular_graphics    ?
_computing_publication_material  ?

_refine_special_details          
; 
 Refinement of F^2^ against ALL reflections.  The weighted R-factor wR and 
 goodness of fit S are based on F^2^, conventional R-factors R are based 
 on F, with F set to zero for negative F^2^. The threshold expression of 
 F^2^ > 2sigma(F^2^) is used only for calculating R-factors(gt) etc. and is 
 not relevant to the choice of reflections for refinement.  R-factors based 
 on F^2^ are statistically about twice as large as those based on F, and R- 
 factors based on ALL data will be even larger. 
;

_refine_ls_structure_factor_coef Fsqd
_refine_ls_matrix_type           full
_refine_ls_weighting_scheme      calc
_refine_ls_weighting_details     
'calc w=1/[\s^2^(Fo^2^)+(0.1426P)^2^+3.4722P] where P=(Fo^2^+2Fc^2^)/3'
_atom_sites_solution_primary     direct
_atom_sites_solution_secondary   difmap
_atom_sites_solution_hydrogens   geom
_refine_ls_hydrogen_treatment    mixed
_refine_ls_extinction_method     none
_refine_ls_extinction_coef       ?
_refine_ls_number_reflns         5686
_refine_ls_number_parameters     346
_refine_ls_number_restraints     22
_refine_ls_R_factor_all          0.0673
_refine_ls_R_factor_gt           0.0626
_refine_ls_wR_factor_ref         0.2088
_refine_ls_wR_factor_gt          0.2038
_refine_ls_goodness_of_fit_ref   1.101
_refine_ls_restrained_S_all      1.127
_refine_ls_shift/su_max          0.011
_refine_ls_shift/su_mean         0.000

loop_
_atom_site_label
_atom_site_type_symbol
_atom_site_fract_x
_atom_site_fract_y
_atom_site_fract_z
_atom_site_U_iso_or_equiv
_atom_site_adp_type
_atom_site_occupancy
_atom_site_symmetry_multiplicity
_atom_site_calc_flag
_atom_site_refinement_flags
_atom_site_disorder_assembly
_atom_site_disorder_group
Cd1 Cd 0.97457(4) 0.17028(3) -0.87383(3) 0.0373(2) Uani 1 1 d . . .
C1 C 1.3098(7) 0.0648(6) -1.6311(5) 0.0540(17) Uani 1 1 d . . .
C2 C 1.3478(7) 0.0763(6) -1.5166(5) 0.0520(16) Uani 1 1 d . . .
C3 C 1.2650(9) 0.0254(7) -1.4504(6) 0.068(2) Uani 1 1 d . . .
H3A H 1.1898 -0.0169 -1.4784 0.082 Uiso 1 1 calc R . .
C4 C 1.2936(8) 0.0372(7) -1.3439(5) 0.066(2) Uani 1 1 d . . .
H4A H 1.2349 0.0059 -1.3003 0.079 Uiso 1 1 calc R . .
C5 C 1.4098(6) 0.0956(5) -1.2999(5) 0.0438(14) Uani 1 1 d . . .
C6 C 1.4920(7) 0.1432(6) -1.3668(5) 0.0468(14) Uani 1 1 d . . .
H6A H 1.5703 0.1818 -1.3394 0.056 Uiso 1 1 calc R . .
C7 C 1.4612(7) 0.1350(6) -1.4739(5) 0.0489(15) Uani 1 1 d . . .
H7A H 1.5175 0.1695 -1.5173 0.059 Uiso 1 1 calc R . .
C8 C 1.4366(6) 0.1098(5) -1.1840(4) 0.0371(12) Uani 1 1 d . . .
C9 C 1.3292(6) 0.1189(5) -1.1217(4) 0.0378(12) Uani 1 1 d . . .
H9A H 1.2426 0.1148 -1.1533 0.045 Uiso 1 1 calc R . .
C10 C 1.3497(5) 0.1339(4) -1.0135(4) 0.0329(11) Uani 1 1 d . . .
C11 C 1.4776(5) 0.1382(4) -0.9656(4) 0.0328(11) Uani 1 1 d . . .
H11A H 1.4910 0.1475 -0.8930 0.039 Uiso 1 1 calc R . .
C12 C 1.5867(5) 0.1289(4) -1.0258(4) 0.0334(11) Uani 1 1 d . . .
C13 C 1.5655(6) 0.1137(5) -1.1350(4) 0.0368(12) Uani 1 1 d . . .
H13A H 1.6381 0.1062 -1.1752 0.044 Uiso 1 1 calc R . .
C14 C 1.2299(6) 0.1493(5) -0.9516(5) 0.0361(12) Uani 1 1 d . . .
C15 C 1.7255(6) 0.1373(5) -0.9742(5) 0.0411(13) Uani 1 1 d . . .
C16 C 0.8919(10) 0.4123(7) -0.8757(8) 0.078(3) Uani 1 1 d . . .
H16A H 0.8076 0.3762 -0.8844 0.093 Uiso 1 1 calc R . .
C17 C 0.9002(13) 0.5221(8) -0.8573(9) 0.090(3) Uani 1 1 d . . .
H17A H 0.8220 0.5570 -0.8541 0.108 Uiso 1 1 calc R . .
C18 C 1.0189(11) 0.5786(6) -0.8439(5) 0.065(2) Uani 1 1 d . . .
C19 C 1.1268(12) 0.5206(7) -0.8563(9) 0.092(3) Uani 1 1 d . . .
H19A H 1.2120 0.5550 -0.8532 0.110 Uiso 1 1 calc R . .
C20 C 1.1112(10) 0.4111(7) -0.8732(9) 0.085(3) Uani 1 1 d . . .
H20A H 1.1871 0.3738 -0.8792 0.101 Uiso 1 1 calc R . .
C21 C 1.0328(15) 0.6970(7) -0.8194(7) 0.094(4) Uani 1 1 d . . .
H21A H 1.1161 0.7252 -0.8443 0.113 Uiso 1 1 calc R . .
H21B H 0.9603 0.7281 -0.8575 0.113 Uiso 1 1 calc R . .
C22 C 1.032(2) 0.7299(8) -0.7069(8) 0.157(8) Uani 1 1 d DU . .
H22A H 1.0880 0.7956 -0.6961 0.188 Uiso 1 1 calc R . .
H22B H 0.9411 0.7491 -0.6976 0.188 Uiso 1 1 calc R . .
C23 C 1.065(2) 0.6733(17) -0.6239(14) 0.177(7) Uani 1 1 d DU . .
H23A H 1.1615 0.6704 -0.6169 0.213 Uiso 1 1 calc R . .
H23B H 1.0254 0.6012 -0.6374 0.213 Uiso 1 1 calc R . .
C24 C 1.018(3) 0.7212(14) -0.5188(11) 0.192(10) Uani 1 1 d U . .
C25 C 1.139(2) 0.7441(14) -0.4542(13) 0.146(5) Uani 1 1 d U . .
H25A H 1.2217 0.7372 -0.4812 0.175 Uiso 1 1 calc R . .
C26 C 1.1307(15) 0.7762(12) -0.3526(9) 0.133(6) Uani 1 1 d . . .
H26A H 1.2104 0.7967 -0.3128 0.160 Uiso 1 1 calc R . .
C27 C 0.9077(14) 0.7454(13) -0.3620(8) 0.124(5) Uani 1 1 d . . .
H27A H 0.8292 0.7405 -0.3279 0.148 Uiso 1 1 calc R . .
C28 C 0.901(3) 0.716(2) -0.4670(12) 0.205(11) Uani 1 1 d U . .
H28A H 0.8197 0.6931 -0.5032 0.246 Uiso 1 1 calc R . .
N1 N 1.0217(8) 0.7808(5) -0.3060(5) 0.0676(18) Uani 1 1 d . . .
N2 N 0.9949(7) 0.3584(5) -0.8812(5) 0.0555(14) Uani 1 1 d . . .
O1W O 0.9986(5) -0.0033(4) -0.8277(3) 0.0476(10) Uani 1 1 d D . .
H1WA H 1.0640 -0.0011 -0.7816 0.057 Uiso 1 1 d RD . .
H1WB H 0.9641 -0.0457 -0.8782 0.057 Uiso 1 1 d RD . .
O1 O 1.2196(7) 0.0045(5) -1.6709(4) 0.0733(16) Uani 1 1 d . . .
O2 O 1.3824(5) 0.1305(5) -1.6847(4) 0.0641(14) Uani 1 1 d D . .
H2 H 1.320(7) 0.134(7) -1.733(5) 0.077 Uiso 1 1 d D . .
O3 O 1.1177(4) 0.1472(4) -1.0004(3) 0.0468(10) Uani 1 1 d . . .
O4 O 1.2450(4) 0.1684(4) -0.8538(3) 0.0470(11) Uani 1 1 d . . .
O5 O 1.8207(4) 0.1173(5) -1.0270(4) 0.0559(12) Uani 1 1 d . . .
O6 O 1.7421(5) 0.1668(4) -0.8781(4) 0.0545(12) Uani 1 1 d . . .

loop_
_atom_site_aniso_label
_atom_site_aniso_U_11
_atom_site_aniso_U_22
_atom_site_aniso_U_33
_atom_site_aniso_U_23
_atom_site_aniso_U_13
_atom_site_aniso_U_12
Cd1 0.0279(3) 0.0522(3) 0.0310(3) -0.00390(19) 0.00265(18) 0.00423(19)
C1 0.047(4) 0.077(5) 0.038(3) 0.004(3) 0.000(3) 0.007(3)
C2 0.052(4) 0.070(4) 0.033(3) 0.002(3) 0.002(3) 0.006(3)
C3 0.064(5) 0.093(6) 0.041(4) 0.002(4) -0.008(3) -0.022(4)
C4 0.063(5) 0.094(6) 0.036(4) 0.008(4) 0.001(3) -0.024(4)
C5 0.039(3) 0.058(4) 0.034(3) 0.001(3) 0.003(2) 0.003(3)
C6 0.040(3) 0.065(4) 0.034(3) -0.001(3) 0.001(3) -0.002(3)
C7 0.045(4) 0.069(4) 0.034(3) 0.008(3) 0.007(3) 0.001(3)
C8 0.034(3) 0.045(3) 0.032(3) 0.003(2) 0.003(2) 0.002(2)
C9 0.030(3) 0.051(3) 0.032(3) 0.001(2) -0.001(2) 0.005(2)
C10 0.027(3) 0.041(3) 0.032(3) 0.006(2) 0.004(2) 0.003(2)
C11 0.029(3) 0.040(3) 0.030(3) 0.003(2) 0.002(2) 0.001(2)
C12 0.028(3) 0.035(3) 0.037(3) 0.003(2) 0.001(2) 0.002(2)
C13 0.033(3) 0.043(3) 0.035(3) 0.002(2) 0.008(2) 0.001(2)
C14 0.029(3) 0.045(3) 0.035(3) 0.005(2) 0.006(2) 0.006(2)
C15 0.030(3) 0.047(3) 0.046(3) 0.009(3) 0.002(3) 0.000(2)
C16 0.069(6) 0.055(5) 0.105(7) -0.012(4) -0.013(5) 0.016(4)
C17 0.109(8) 0.065(5) 0.096(7) -0.008(5) -0.003(6) 0.034(6)
C18 0.115(7) 0.050(4) 0.029(3) 0.003(3) 0.006(4) 0.004(4)
C19 0.104(8) 0.056(5) 0.113(8) -0.008(5) 0.027(6) -0.017(5)
C20 0.067(6) 0.060(5) 0.126(9) -0.016(5) 0.028(6) -0.001(4)
C21 0.186(12) 0.052(5) 0.045(4) 0.005(4) 0.012(6) 0.010(6)
C22 0.36(3) 0.053(6) 0.056(6) -0.007(4) 0.020(10) 0.011(9)
C23 0.204(11) 0.183(11) 0.142(9) -0.007(8) 0.009(8) 0.019(9)
C24 0.38(3) 0.129(12) 0.053(7) -0.025(7) 0.026(13) -0.034(16)
C25 0.162(9) 0.157(9) 0.115(8) -0.026(7) 0.054(7) -0.033(8)
C26 0.140(12) 0.173(13) 0.073(7) -0.052(8) 0.054(8) -0.069(10)
C27 0.119(10) 0.187(13) 0.060(6) -0.049(7) -0.027(6) 0.068(9)
C28 0.24(2) 0.29(3) 0.072(9) -0.082(13) -0.075(9) 0.119(19)
N1 0.100(5) 0.062(4) 0.040(3) -0.010(3) 0.000(3) 0.012(4)
N2 0.060(4) 0.054(3) 0.052(3) -0.003(3) 0.006(3) 0.004(3)
O1W 0.047(3) 0.052(3) 0.041(2) -0.0038(19) -0.0038(19) 0.001(2)
O1 0.090(4) 0.082(4) 0.043(3) 0.004(3) -0.012(3) -0.011(3)
O2 0.054(3) 0.101(4) 0.036(3) 0.014(3) -0.002(2) 0.002(3)
O3 0.025(2) 0.076(3) 0.040(2) 0.001(2) 0.0030(17) 0.0088(19)
O4 0.040(2) 0.073(3) 0.029(2) 0.000(2) 0.0067(17) 0.009(2)
O5 0.026(2) 0.090(4) 0.052(3) -0.003(2) 0.0053(19) 0.008(2)
O6 0.036(2) 0.082(3) 0.042(3) -0.010(2) -0.0039(19) 0.002(2)

_geom_special_details            
; 
 All esds (except the esd in the dihedral angle between two l.s. planes) 
 are estimated using the full covariance matrix.  The cell esds are taken 
 into account individually in the estimation of esds in distances, angles 
 and torsion angles; correlations between esds in cell parameters are only 
 used when they are defined by crystal symmetry.  An approximate (isotropic) 
 treatment of cell esds is used for estimating esds involving l.s. planes. 
;

loop_
_geom_bond_atom_site_label_1
_geom_bond_atom_site_label_2
_geom_bond_distance
_geom_bond_site_symmetry_2
_geom_bond_publ_flag
Cd1 O3 2.265(4) . ?
Cd1 O6 2.330(5) 1_455 ?
Cd1 O1W 2.339(5) . ?
Cd1 N1 2.347(6) 2_764 ?
Cd1 N2 2.386(6) . ?
Cd1 O5 2.439(5) 1_455 ?
Cd1 O4 2.714(4) . ?
Cd1 C15 2.723(6) 1_455 ?
Cd1 C14 2.843(6) . ?
C1 O1 1.204(9) . ?
C1 O2 1.328(9) . ?
C1 C2 1.488(9) . ?
C2 C7 1.374(10) . ?
C2 C3 1.391(11) . ?
C3 C4 1.373(10) . ?
C3 H3A 0.9300 . ?
C4 C5 1.399(10) . ?
C4 H4A 0.9300 . ?
C5 C6 1.373(9) . ?
C5 C8 1.490(8) . ?
C6 C7 1.383(9) . ?
C6 H6A 0.9300 . ?
C7 H7A 0.9300 . ?
C8 C13 1.395(8) . ?
C8 C9 1.395(8) . ?
C9 C10 1.389(8) . ?
C9 H9A 0.9300 . ?
C10 C11 1.380(8) . ?
C10 C14 1.506(8) . ?
C11 C12 1.393(8) . ?
C11 H11A 0.9300 . ?
C12 C13 1.402(8) . ?
C12 C15 1.495(8) . ?
C13 H13A 0.9300 . ?
C14 O3 1.248(7) . ?
C14 O4 1.259(7) . ?
C15 O5 1.242(8) . ?
C15 O6 1.261(8) . ?
C15 Cd1 2.723(6) 1_655 ?
C16 N2 1.283(11) . ?
C16 C17 1.391(13) . ?
C16 H16A 0.9300 . ?
C17 C18 1.342(15) . ?
C17 H17A 0.9300 . ?
C18 C19 1.364(15) . ?
C18 C21 1.506(11) . ?
C19 C20 1.385(13) . ?
C19 H19A 0.9300 . ?
C20 N2 1.298(11) . ?
C20 H20A 0.9300 . ?
C21 C22 1.479(13) . ?
C21 H21A 0.9700 . ?
C21 H21B 0.9700 . ?
C22 C23 1.359(15) . ?
C22 H22A 0.9700 . ?
C22 H22B 0.9700 . ?
C23 C24 1.56(2) . ?
C23 H23A 0.9700 . ?
C23 H23B 0.9700 . ?
C24 C28 1.39(3) . ?
C24 C25 1.42(3) . ?
C25 C26 1.351(18) . ?
C25 H25A 0.9300 . ?
C26 N1 1.288(15) . ?
C26 H26A 0.9300 . ?
C27 N1 1.341(14) . ?
C27 C28 1.370(17) . ?
C27 H27A 0.9300 . ?
C28 H28A 0.9300 . ?
N1 Cd1 2.347(6) 2_764 ?
O1W H1WA 0.8499 . ?
O1W H1WB 0.8501 . ?
O2 H2 0.85(2) . ?
O5 Cd1 2.439(5) 1_655 ?
O6 Cd1 2.330(5) 1_655 ?

loop_
_geom_angle_atom_site_label_1
_geom_angle_atom_site_label_2
_geom_angle_atom_site_label_3
_geom_angle
_geom_angle_site_symmetry_1
_geom_angle_site_symmetry_3
_geom_angle_publ_flag
O3 Cd1 O6 132.65(16) . 1_455 ?
O3 Cd1 O1W 90.09(17) . . ?
O6 Cd1 O1W 98.05(18) 1_455 . ?
O3 Cd1 N1 139.9(2) . 2_764 ?
O6 Cd1 N1 87.3(2) 1_455 2_764 ?
O1W Cd1 N1 87.0(2) . 2_764 ?
O3 Cd1 N2 92.0(2) . . ?
O6 Cd1 N2 92.0(2) 1_455 . ?
O1W Cd1 N2 164.2(2) . . ?
N1 Cd1 N2 81.3(2) 2_764 . ?
O3 Cd1 O5 78.33(15) . 1_455 ?
O6 Cd1 O5 54.64(16) 1_455 1_455 ?
O1W Cd1 O5 94.55(17) . 1_455 ?
N1 Cd1 O5 141.8(2) 2_764 1_455 ?
N2 Cd1 O5 101.2(2) . 1_455 ?
O3 Cd1 O4 51.22(14) . . ?
O6 Cd1 O4 175.51(14) 1_455 . ?
O1W Cd1 O4 79.14(16) . . ?
N1 Cd1 O4 89.1(2) 2_764 . ?
N2 Cd1 O4 90.01(19) . . ?
O5 Cd1 O4 128.78(14) 1_455 . ?
O3 Cd1 C15 105.24(17) . 1_455 ?
O6 Cd1 C15 27.52(18) 1_455 1_455 ?
O1W Cd1 C15 97.86(17) . 1_455 ?
N1 Cd1 C15 114.8(2) 2_764 1_455 ?
N2 Cd1 C15 96.7(2) . 1_455 ?
O5 Cd1 C15 27.14(18) 1_455 1_455 ?
O4 Cd1 C15 155.90(17) . 1_455 ?
O3 Cd1 C14 25.18(16) . . ?
O6 Cd1 C14 157.64(17) 1_455 . ?
O1W Cd1 C14 83.25(16) . . ?
N1 Cd1 C14 115.1(2) 2_764 . ?
N2 Cd1 C14 92.1(2) . . ?
O5 Cd1 C14 103.01(16) 1_455 . ?
O4 Cd1 C14 26.07(15) . . ?
C15 Cd1 C14 130.12(18) 1_455 . ?
O1 C1 O2 123.4(6) . . ?
O1 C1 C2 123.5(7) . . ?
O2 C1 C2 113.1(6) . . ?
C7 C2 C3 119.0(6) . . ?
C7 C2 C1 122.7(6) . . ?
C3 C2 C1 118.4(7) . . ?
C4 C3 C2 120.3(7) . . ?
C4 C3 H3A 119.9 . . ?
C2 C3 H3A 119.9 . . ?
C3 C4 C5 121.1(7) . . ?
C3 C4 H4A 119.5 . . ?
C5 C4 H4A 119.5 . . ?
C6 C5 C4 117.7(6) . . ?
C6 C5 C8 122.2(6) . . ?
C4 C5 C8 120.0(6) . . ?
C5 C6 C7 121.6(6) . . ?
C5 C6 H6A 119.2 . . ?
C7 C6 H6A 119.2 . . ?
C2 C7 C6 120.3(6) . . ?
C2 C7 H7A 119.8 . . ?
C6 C7 H7A 119.8 . . ?
C13 C8 C9 118.5(5) . . ?
C13 C8 C5 122.4(5) . . ?
C9 C8 C5 119.1(5) . . ?
C10 C9 C8 121.0(5) . . ?
C10 C9 H9A 119.5 . . ?
C8 C9 H9A 119.5 . . ?
C11 C10 C9 120.1(5) . . ?
C11 C10 C14 121.7(5) . . ?
C9 C10 C14 118.2(5) . . ?
C10 C11 C12 120.1(5) . . ?
C10 C11 H11A 120.0 . . ?
C12 C11 H11A 120.0 . . ?
C11 C12 C13 119.6(5) . . ?
C11 C12 C15 120.1(5) . . ?
C13 C12 C15 120.2(5) . . ?
C8 C13 C12 120.6(5) . . ?
C8 C13 H13A 119.7 . . ?
C12 C13 H13A 119.7 . . ?
O3 C14 O4 121.7(5) . . ?
O3 C14 C10 118.1(5) . . ?
O4 C14 C10 120.1(5) . . ?
O3 C14 Cd1 50.5(3) . . ?
O4 C14 Cd1 71.2(3) . . ?
C10 C14 Cd1 168.6(4) . . ?
O5 C15 O6 122.1(6) . . ?
O5 C15 C12 119.5(6) . . ?
O6 C15 C12 118.3(6) . . ?
O5 C15 Cd1 63.6(3) . 1_655 ?
O6 C15 Cd1 58.6(3) . 1_655 ?
C12 C15 Cd1 175.0(4) . 1_655 ?
N2 C16 C17 123.2(10) . . ?
N2 C16 H16A 118.4 . . ?
C17 C16 H16A 118.4 . . ?
C18 C17 C16 121.2(10) . . ?
C18 C17 H17A 119.4 . . ?
C16 C17 H17A 119.4 . . ?
C17 C18 C19 114.7(8) . . ?
C17 C18 C21 123.0(10) . . ?
C19 C18 C21 122.3(10) . . ?
C18 C19 C20 120.9(10) . . ?
C18 C19 H19A 119.6 . . ?
C20 C19 H19A 119.6 . . ?
N2 C20 C19 122.8(10) . . ?
N2 C20 H20A 118.6 . . ?
C19 C20 H20A 118.6 . . ?
C22 C21 C18 114.0(7) . . ?
C22 C21 H21A 108.7 . . ?
C18 C21 H21A 108.7 . . ?
C22 C21 H21B 108.7 . . ?
C18 C21 H21B 108.7 . . ?
H21A C21 H21B 107.6 . . ?
C23 C22 C21 127.8(13) . . ?
C23 C22 H22A 105.3 . . ?
C21 C22 