####################################################################### 
# 
# This file contains crystal structure data downloaded from the 
# Cambridge Structural Database (CSD) hosted by the Cambridge 
# Crystallographic Data Centre (CCDC).
# 
# Full information about CCDC data access policies and citation 
# guidelines are available at http://www.ccdc.cam.ac.uk/access/V1 
# 
# Audit and citation data items may have been added by the CCDC. 
# Please retain this information to preserve the provenance of 
# this file and to allow appropriate attribution of the data. 
# 
#######################################################################

data_1
_audit_block_doi                 10.5517/ccz5wzz
_database_code_depnum_ccdc_archive 'CCDC 899402'
loop_
_citation_id
_citation_doi
_citation_year
1 10.1016/j.inoche.2013.12.022 2014
_audit_update_record             
;
2013-12-12 deposited with the CCDC.	2024-07-13 downloaded from the CCDC.
;
_audit_creation_method           SHELXL-97
_chemical_name_systematic        
; 
 ? 
;
_chemical_name_common            ?
_chemical_melting_point          ?
_chemical_formula_moiety         'C33 H32 Cd2 O14'
_chemical_formula_sum            'C33 H28 Cd2 O14'
_chemical_formula_weight         873.35

loop_
_atom_type_symbol
_atom_type_description
_atom_type_scat_dispersion_real
_atom_type_scat_dispersion_imag
_atom_type_scat_source
C C 0.0033 0.0016 'International Tables Vol C Tables 4.2.6.8 and 6.1.1.4'
H H 0.0000 0.0000 'International Tables Vol C Tables 4.2.6.8 and 6.1.1.4'
O O 0.0106 0.0060 'International Tables Vol C Tables 4.2.6.8 and 6.1.1.4'
Cd Cd -0.8075 1.2024 'International Tables Vol C Tables 4.2.6.8 and 6.1.1.4'

_symmetry_cell_setting           Orthorhombic
_symmetry_space_group_name_H-M   FDD2
_symmetry_space_group_name_Hall  F2-2d

loop_
_symmetry_equiv_pos_as_xyz
'x, y, z'
'-x, -y, z'
'x+1/4, -y+1/4, z+1/4'
'-x+1/4, y+1/4, z+1/4'
'x, y+1/2, z+1/2'
'-x, -y+1/2, z+1/2'
'x+1/4, -y+3/4, z+3/4'
'-x+1/4, y+3/4, z+3/4'
'x+1/2, y, z+1/2'
'-x+1/2, -y, z+1/2'
'x+3/4, -y+1/4, z+3/4'
'-x+3/4, y+1/4, z+3/4'
'x+1/2, y+1/2, z'
'-x+1/2, -y+1/2, z'
'x+3/4, -y+3/4, z+1/4'
'-x+3/4, y+3/4, z+1/4'

_cell_length_a                   37.322(13)
_cell_length_b                   72.64(2)
_cell_length_c                   7.074(2)
_cell_angle_alpha                90.00
_cell_angle_beta                 90.00
_cell_angle_gamma                90.00
_cell_volume                     19178(11)
_cell_formula_units_Z            16
_cell_measurement_temperature    293(2)
_cell_measurement_reflns_used    11557
_cell_measurement_theta_min      2.0044
_cell_measurement_theta_max      27.7198

_exptl_crystal_description       block
_exptl_crystal_colour            colorless
_exptl_crystal_size_max          0.35
_exptl_crystal_size_mid          0.33
_exptl_crystal_size_min          0.29
_exptl_crystal_density_meas      ?
_exptl_crystal_density_diffrn    1.210
_exptl_crystal_density_method    'not measured'
_exptl_crystal_F_000             6944
_exptl_absorpt_coefficient_mu    0.935
_exptl_absorpt_correction_type   Multi-scan
_exptl_absorpt_correction_T_max  1.0000
_exptl_absorpt_correction_T_min  0.6341
_exptl_absorpt_process_details   'Sphere (Rigaku CrystalClear)'

_exptl_special_details           
; 
 ? 
;

_diffrn_ambient_temperature      293(2)
_diffrn_radiation_wavelength     0.71073
_diffrn_radiation_type           MoK\a
_diffrn_radiation_source         'fine-focus sealed tube'
_diffrn_radiation_monochromator  graphite
_diffrn_measurement_device_type  ?
_diffrn_measurement_method       CCD_Profile_fitting
_diffrn_detector_area_resol_mean ?
_diffrn_standards_number         ?
_diffrn_standards_interval_count ?
_diffrn_standards_interval_time  ?
_diffrn_standards_decay_%        ?
_diffrn_reflns_number            37758
_diffrn_reflns_av_R_equivalents  0.0874
_diffrn_reflns_av_sigmaI/netI    0.0852
_diffrn_reflns_limit_h_min       -48
_diffrn_reflns_limit_h_max       48
_diffrn_reflns_limit_k_min       -94
_diffrn_reflns_limit_k_max       94
_diffrn_reflns_limit_l_min       -8
_diffrn_reflns_limit_l_max       8
_diffrn_reflns_theta_min         2.01
_diffrn_reflns_theta_max         27.49
_reflns_number_total             10394
_reflns_number_gt                7143
_reflns_threshold_expression     >2sigma(I)

_computing_data_collection       ?
_computing_cell_refinement       ?
_computing_data_reduction        ?
_computing_structure_solution    'SHELXS-97 (Sheldrick, 1990)'
_computing_structure_refinement  'SHELXL-97 (Sheldrick, 1997)'
_computing_molecular_graphics    ?
_computing_publication_material  ?

_refine_special_details          
; 
 Refinement of F^2^ against ALL reflections.  The weighted R-factor wR and 
 goodness of fit S are based on F^2^, conventional R-factors R are based 
 on F, with F set to zero for negative F^2^. The threshold expression of 
 F^2^ > 2sigma(F^2^) is used only for calculating R-factors(gt) etc. and is 
 not relevant to the choice of reflections for refinement.  R-factors based 
 on F^2^ are statistically about twice as large as those based on F, and R- 
 factors based on ALL data will be even larger. 
;

_refine_ls_structure_factor_coef Fsqd
_refine_ls_matrix_type           full
_refine_ls_weighting_scheme      calc
_refine_ls_weighting_details     
'calc w=1/[\s^2^(Fo^2^)+(0.1395P)^2^+0.0000P] where P=(Fo^2^+2Fc^2^)/3'
_atom_sites_solution_primary     direct
_atom_sites_solution_secondary   difmap
_atom_sites_solution_hydrogens   geom
_refine_ls_hydrogen_treatment    constr
_refine_ls_extinction_method     none
_refine_ls_extinction_coef       ?
_refine_ls_abs_structure_details 'Flack H D (1983), Acta Cryst. A39, 876-881'
_refine_ls_abs_structure_Flack   0.00(6)
_refine_ls_number_reflns         10394
_refine_ls_number_parameters     442
_refine_ls_number_restraints     1
_refine_ls_R_factor_all          0.1075
_refine_ls_R_factor_gt           0.0845
_refine_ls_wR_factor_ref         0.2334
_refine_ls_wR_factor_gt          0.2190
_refine_ls_goodness_of_fit_ref   0.982
_refine_ls_restrained_S_all      0.982
_refine_ls_shift/su_max          0.001
_refine_ls_shift/su_mean         0.000

loop_
_atom_site_label
_atom_site_type_symbol
_atom_site_fract_x
_atom_site_fract_y
_atom_site_fract_z
_atom_site_U_iso_or_equiv
_atom_site_adp_type
_atom_site_occupancy
_atom_site_symmetry_multiplicity
_atom_site_calc_flag
_atom_site_refinement_flags
_atom_site_disorder_assembly
_atom_site_disorder_group
Cd1 Cd 0.381444(16) 0.069507(10) 0.49306(10) 0.0541(2) Uani 1 1 d . . .
Cd2 Cd 0.40744(2) 0.062730(13) 0.03402(11) 0.0698(3) Uani 1 1 d . . .
C1 C 0.1546(3) 0.06193(18) 1.375(2) 0.075(3) Uani 1 1 d . . .
C2 C 0.1781(3) 0.06366(19) 1.1976(19) 0.075(3) Uani 1 1 d . . .
H2A H 0.1752 0.0530 1.1162 0.091 Uiso 1 1 calc R . .
H2B H 0.1720 0.0747 1.1268 0.091 Uiso 1 1 calc R . .
C3 C 0.2403(3) 0.06633(17) 1.1375(17) 0.066(3) Uani 1 1 d . . .
C4 C 0.2352(4) 0.0690(2) 0.945(2) 0.088(4) Uani 1 1 d . . .
H4 H 0.2121 0.0698 0.8967 0.106 Uiso 1 1 calc R . .
C5 C 0.2644(4) 0.0705(2) 0.826(2) 0.088(4) Uani 1 1 d . . .
H5 H 0.2609 0.0723 0.6970 0.106 Uiso 1 1 calc R . .
C6 C 0.2987(3) 0.06943(15) 0.8968(17) 0.061(3) Uani 1 1 d . . .
C7 C 0.3039(4) 0.06668(16) 1.0897(18) 0.068(3) Uani 1 1 d . . .
H7 H 0.3270 0.0659 1.1383 0.082 Uiso 1 1 calc R . .
C8 C 0.2745(3) 0.06510(17) 1.2097(18) 0.071(3) Uani 1 1 d . . .
H8 H 0.2780 0.0632 1.3385 0.085 Uiso 1 1 calc R . .
C9 C 0.3311(2) 0.06798(13) 0.7638(17) 0.055(2) Uani 1 1 d . . .
C10 C 0.1625(4) 0.0410(2) 1.439(2) 0.092(4) Uani 1 1 d . . .
H10A H 0.1537 0.0324 1.3454 0.111 Uiso 1 1 calc R . .
H10B H 0.1880 0.0391 1.4567 0.111 Uiso 1 1 calc R . .
C11 C 0.3596(5) -0.0206(2) 0.154(3) 0.108(5) Uani 1 1 d . . .
C12 C 0.3542(4) -0.0056(2) 0.035(3) 0.098(4) Uani 1 1 d . . .
H12 H 0.3472 -0.0075 -0.0899 0.117 Uiso 1 1 calc R . .
C13 C 0.3593(4) 0.0122(2) 0.102(2) 0.092(4) Uani 1 1 d . . .
H13 H 0.3557 0.0222 0.0225 0.110 Uiso 1 1 calc R . .
C14 C 0.3698(4) 0.01496(19) 0.287(2) 0.087(4) Uani 1 1 d . . .
C15 C 0.3752(4) -0.0001(2) 0.407(3) 0.099(5) Uani 1 1 d . . .
H15 H 0.3822 0.0018 0.5315 0.119 Uiso 1 1 calc R . .
C16 C 0.3701(5) -0.0178(3) 0.340(3) 0.111(5) Uani 1 1 d . . .
H16 H 0.3737 -0.0278 0.4195 0.133 Uiso 1 1 calc R . .
C17 C 0.3747(3) 0.03299(18) 0.369(2) 0.074(3) Uani 1 1 d . . .
C18 C 0.1630(4) 0.07352(18) 1.555(2) 0.087(4) Uani 1 1 d . . .
H18A H 0.1453 0.0715 1.6538 0.104 Uiso 1 1 calc R . .
H18B H 0.1867 0.0709 1.6041 0.104 Uiso 1 1 calc R . .
C19 C 0.4052(6) 0.1457(3) -0.106(3) 0.129(7) Uani 1 1 d . . .
C20 C 0.4113(6) 0.1484(3) 0.084(3) 0.139(7) Uani 1 1 d . . .
H20 H 0.4203 0.1597 0.1256 0.167 Uiso 1 1 calc R . .
C21 C 0.4043(5) 0.1347(3) 0.213(3) 0.125(7) Uani 1 1 d . . .
H21 H 0.4086 0.1367 0.3406 0.150 Uiso 1 1 calc R . .
C22 C 0.3909(5) 0.1179(2) 0.152(3) 0.101(5) Uani 1 1 d . . .
C23 C 0.3850(5) 0.1152(2) -0.039(3) 0.102(5) Uani 1 1 d . . .
H23 H 0.3763 0.1040 -0.0813 0.122 Uiso 1 1 calc R . .
C24 C 0.3917(5) 0.1290(3) -0.167(3) 0.112(5) Uani 1 1 d . . .
H24 H 0.3873 0.1270 -0.2945 0.134 Uiso 1 1 calc R . .
C25 C 0.3848(4) 0.10144(18) 0.276(2) 0.087(4) Uani 1 1 d . . .
C26 C 0.1140(4) 0.0648(2) 1.322(3) 0.090(4) Uani 1 1 d . . .
H26A H 0.0995 0.0572 1.4044 0.108 Uiso 1 1 calc R . .
H26B H 0.1076 0.0775 1.3455 0.108 Uiso 1 1 calc R . .
C27 C 0.5707(5) 0.0616(3) 0.581(3) 0.105(5) Uani 1 1 d . . .
C28 C 0.5439(6) 0.0693(3) 0.688(4) 0.132(7) Uani 1 1 d . . .
H28 H 0.5492 0.0740 0.8071 0.159 Uiso 1 1 calc R . .
C29 C 0.5093(7) 0.0699(3) 0.622(4) 0.135(7) Uani 1 1 d . . .
H29 H 0.4914 0.0751 0.6960 0.162 Uiso 1 1 calc R . .
C30 C 0.5010(5) 0.0628(3) 0.446(3) 0.106(5) Uani 1 1 d . . .
C31 C 0.5280(5) 0.0551(3) 0.338(3) 0.122(6) Uani 1 1 d . . .
H31 H 0.5227 0.0503 0.2193 0.146 Uiso 1 1 calc R . .
C32 C 0.5624(6) 0.0545(3) 0.404(3) 0.124(6) Uani 1 1 d . . .
H32 H 0.5804 0.0494 0.3295 0.148 Uiso 1 1 calc R . .
C33 C 0.4632(5) 0.0631(2) 0.386(3) 0.098(5) Uani 1 1 d . . .
O1 O 0.21417(18) 0.06472(10) 1.2672(12) 0.0631(17) Uani 1 1 d . . .
O2 O 0.36160(15) 0.06743(9) 0.8126(9) 0.0476(14) Uani 1 1 d . . .
O3 O 0.32280(19) 0.06945(12) 0.5833(13) 0.074(2) Uani 1 1 d . . .
O4 O 0.3555(3) -0.03929(17) 0.105(2) 0.116(4) Uani 1 1 d . . .
O5 O 0.3827(2) 0.03471(12) 0.5329(14) 0.084(2) Uani 1 1 d . . .
O6 O 0.3739(2) 0.04688(11) 0.2645(14) 0.073(2) Uani 1 1 d . . .
O7 O 0.4106(3) 0.15828(17) -0.2722(19) 0.123(4) Uani 1 1 d . . .
O8 O 0.3834(3) 0.10340(15) 0.4560(17) 0.111(3) Uani 1 1 d . . .
O9 O 0.3837(2) 0.08559(10) 0.2062(12) 0.072(2) Uani 1 1 d . . .
O10 O 0.6062(3) 0.06083(16) 0.6474(18) 0.098(3) Uani 1 1 d . . .
O11 O 0.4403(3) 0.06752(14) 0.5211(19) 0.099(3) Uani 1 1 d . . .
O12 O 0.4554(3) 0.06137(15) 0.2045(18) 0.102(3) Uani 1 1 d . . .
O1W O 0.4229(3) 0.03721(13) -0.1302(14) 0.090(3) Uani 1 1 d . . .
O2W O 0.4419(3) 0.08040(18) -0.1578(18) 0.118(4) Uani 1 1 d . . .

loop_
_atom_site_aniso_label
_atom_site_aniso_U_11
_atom_site_aniso_U_22
_atom_site_aniso_U_33
_atom_site_aniso_U_23
_atom_site_aniso_U_13
_atom_site_aniso_U_12
Cd1 0.0365(3) 0.0774(4) 0.0483(4) -0.0060(3) -0.0004(3) -0.0056(3)
Cd2 0.0504(4) 0.1083(6) 0.0507(5) -0.0092(4) -0.0053(3) -0.0068(4)
C1 0.065(7) 0.083(8) 0.076(9) 0.010(6) -0.006(6) 0.008(6)
C2 0.058(7) 0.102(8) 0.067(8) 0.014(6) -0.009(6) -0.004(5)
C3 0.055(6) 0.097(8) 0.047(7) 0.014(5) -0.003(5) 0.000(5)
C4 0.067(8) 0.130(11) 0.068(10) 0.006(8) 0.001(7) -0.001(7)
C5 0.072(9) 0.125(11) 0.068(9) 0.011(7) -0.007(7) 0.006(7)
C6 0.051(6) 0.085(7) 0.047(6) 0.005(5) -0.006(5) 0.004(5)
C7 0.068(8) 0.082(8) 0.055(8) 0.002(5) -0.003(6) -0.006(5)
C8 0.061(7) 0.103(8) 0.049(7) 0.015(6) -0.005(5) 0.003(5)
C9 0.040(4) 0.081(6) 0.046(6) -0.004(5) 0.008(4) -0.011(4)
C10 0.078(9) 0.113(11) 0.085(11) 0.014(8) 0.010(7) -0.004(7)
C11 0.119(13) 0.093(12) 0.113(15) -0.005(10) -0.014(11) 0.002(9)
C12 0.097(10) 0.091(10) 0.106(12) -0.006(9) 0.000(9) 0.003(7)
C13 0.087(9) 0.091(10) 0.097(11) -0.010(8) -0.006(8) -0.001(7)
C14 0.088(9) 0.082(8) 0.089(12) -0.007(8) 0.003(8) -0.011(6)
C15 0.106(12) 0.090(10) 0.101(13) -0.003(9) 0.000(9) -0.013(8)
C16 0.122(14) 0.101(12) 0.109(14) -0.003(10) -0.004(11) 0.002(9)
C17 0.076(8) 0.070(8) 0.077(10) -0.015(7) -0.006(6) -0.008(5)
C18 0.081(9) 0.084(8) 0.096(12) -0.005(8) 0.001(8) 0.004(6)
C19 0.146(18) 0.123(16) 0.117(17) -0.010(13) -0.010(14) -0.010(12)
C20 0.16(2) 0.130(17) 0.13(2) -0.010(14) -0.003(16) -0.005(13)
C21 0.145(18) 0.117(14) 0.113(17) -0.012(12) 0.003(13) -0.010(10)
C22 0.116(13) 0.096(11) 0.089(12) -0.008(8) 0.001(9) -0.017(9)
C23 0.116(12) 0.101(10) 0.089(12) -0.003(9) 0.004(10) -0.014(8)
C24 0.119(13) 0.111(13) 0.106(14) 0.001(10) 0.001(11) -0.016(10)
C25 0.111(11) 0.077(9) 0.073(10) -0.001(7) 0.007(8) -0.012(6)
C26 0.073(9) 0.113(11) 0.082(12) 0.003(8) -0.001(8) 0.000(7)
C27 0.088(11) 0.128(13) 0.100(14) -0.018(10) 0.000(10) 0.007(9)
C28 0.123(17) 0.143(16) 0.13(2) -0.018(13) -0.005(16) 0.005(12)
C29 0.128(19) 0.143(18) 0.133(19) -0.016(14) -0.007(15) 0.003(13)
C30 0.102(13) 0.119(12) 0.097(13) -0.006(9) -0.001(11) 0.007(9)
C31 0.115(14) 0.143(15) 0.108(15) 0.000(11) -0.011(12) 0.012(11)
C32 0.111(15) 0.146(16) 0.114(15) -0.008(12) -0.007(12) 0.005(11)
C33 0.085(11) 0.116(12) 0.092(13) -0.021(9) 0.003(9) 0.001(8)
O1 0.048(3) 0.092(4) 0.050(4) 0.012(4) -0.004(3) -0.010(3)
O2 0.035(3) 0.083(4) 0.026(3) -0.002(3) -0.013(2) -0.009(2)
O3 0.034(3) 0.114(6) 0.075(6) -0.004(4) 0.024(4) -0.008(3)
O4 0.115(9) 0.107(8) 0.126(10) -0.008(7) -0.027(8) 0.009(6)
O5 0.088(6) 0.087(5) 0.077(7) -0.010(5) -0.012(5) 0.006(4)
O6 0.080(5) 0.064(4) 0.075(6) -0.026(5) -0.005(5) -0.019(3)
O7 0.138(10) 0.120(9) 0.111(10) -0.029(8) -0.009(9) -0.017(6)
O8 0.151(10) 0.103(7) 0.080(8) 0.001(6) 0.011(7) 0.004(6)
O9 0.091(5) 0.056(4) 0.070(6) -0.004(4) 0.007(4) -0.020(3)
O10 0.060(5) 0.130(8) 0.105(9) -0.004(7) 0.004(6) 0.010(5)
O11 0.086(6) 0.122(7) 0.089(8) -0.013(6) -0.010(6) -0.009(5)
O12 0.073(6) 0.130(8) 0.103(10) -0.039(6) 0.010(6) -0.003(5)
O1W 0.096(7) 0.095(6) 0.079(6) -0.014(5) 0.001(5) 0.004(5)
O2W 0.085(7) 0.143(10) 0.127(10) 0.012(7) 0.006(7) -0.018(6)

_geom_special_details            
; 
 All esds (except the esd in the dihedral angle between two l.s. planes) 
 are estimated using the full covariance matrix.  The cell esds are taken 
 into account individually in the estimation of esds in distances, angles 
 and torsion angles; correlations between esds in cell parameters are only 
 used when they are defined by crystal symmetry.  An approximate (isotropic) 
 treatment of cell esds is used for estimating esds involving l.s. planes. 
;

loop_
_geom_bond_atom_site_label_1
_geom_bond_atom_site_label_2
_geom_bond_distance
_geom_bond_site_symmetry_2
_geom_bond_publ_flag
Cd1 O11 2.212(10) . ?
Cd1 O3 2.280(7) . ?
Cd1 O6 2.323(7) . ?
Cd1 O9 2.343(8) . ?
Cd1 O2 2.383(6) . ?
Cd1 O8 2.477(11) . ?
Cd1 O5 2.544(9) . ?
Cd1 C9 2.685(10) . ?
Cd1 Cd2 3.4246(15) . ?
Cd2 O12 2.160(12) . ?
Cd2 O9 2.242(8) . ?
Cd2 O1W 2.262(9) . ?
Cd2 O2W 2.268(11) . ?
Cd2 O2 2.345(6) 1_554 ?
Cd2 O6 2.356(9) . ?
C1 C2 1.535(19) . ?
C1 C18 1.56(2) . ?
C1 C26 1.573(19) . ?
C1 C10 1.61(2) . ?
C2 O1 1.434(13) . ?
C2 H2A 0.9700 . ?
C2 H2B 0.9700 . ?
C3 O1 1.344(14) . ?
C3 C8 1.379(16) . ?
C3 C4 1.39(2) . ?
C4 C5 1.384(19) . ?
C4 H4 0.9300 . ?
C5 C6 1.377(18) . ?
C5 H5 0.9300 . ?
C6 C7 1.392(16) . ?
C6 C9 1.536(16) . ?
C7 C8 1.392(17) . ?
C7 H7 0.9300 . ?
C8 H8 0.9300 . ?
C9 O2 1.189(11) . ?
C9 O3 1.319(15) . ?
C10 O4 1.360(17) 10_556 ?
C10 H10A 0.9700 . ?
C10 H10B 0.9700 . ?
C11 C16 1.39(3) . ?
C11 C12 1.39(2) . ?
C11 O4 1.41(2) . ?
C12 C13 1.39(2) . ?
C12 H12 0.9300 . ?
C13 C14 1.38(2) . ?
C13 H13 0.9300 . ?
C14 C15 1.39(2) . ?
C14 C17 1.444(18) . ?
C15 C16 1.39(2) . ?
C15 H15 0.9300 . ?
C16 H16 0.9300 . ?
C17 O5 1.204(16) . ?
C17 O6 1.251(16) . ?
C18 O7 1.433(17) 11_456 ?
C18 H18A 0.9700 . ?
C18 H18B 0.9700 . ?
C19 C20 1.38(3) . ?
C19 C24 1.38(3) . ?
C19 O7 1.50(3) . ?
C20 C21 1.38(3) . ?
C20 H20 0.9300 . ?
C21 C22 1.39(2) . ?
C21 H21 0.9300 . ?
C22 C23 1.38(3) . ?
C22 C25 1.50(2) . ?
C23 C24 1.37(2) . ?
C23 H23 0.9300 . ?
C24 H24 0.9300 . ?
C25 O9 1.253(15) . ?
C25 O8 1.283(18) . ?
C26 O10 1.30(2) 9_455 ?
C26 H26A 0.9700 . ?
C26 H26B 0.9700 . ?
C27 C28 1.37(3) . ?
C27 C32 1.39(3) . ?
C27 O10 1.41(2) . ?
C28 C29 1.38(3) . ?
C28 H28 0.9300 . ?
C29 C30 1.38(3) . ?
C29 H29 0.9300 . ?
C30 C31 1.38(2) . ?
C30 C33 1.48(2) . ?
C31 C32 1.37(3) . ?
C31 H31 0.9300 . ?
C32 H32 0.9300 . ?
C33 O12 1.32(2) . ?
C33 O11 1.32(2) . ?
O2 Cd2 2.345(6) 1_556 ?
O4 C10 1.360(17) 10_553 ?
O7 C18 1.433(17) 3_553 ?
O10 C26 1.30(2) 9_554 ?

loop_
_geom_angle_atom_site_label_1
_geom_angle_atom_site_label_2
_geom_angle_atom_site_label_3
_geom_angle
_geom_angle_site_symmetry_1
_geom_angle_site_symmetry_3
_geom_angle_publ_flag
O11 Cd1 O3 158.3(4) . . ?
O11 Cd1 O6 97.8(4) . . ?
O3 Cd1 O6 94.5(3) . . ?
O11 Cd1 O9 94.2(4) . . ?
O3 Cd1 O9 106.2(3) . . ?
O6 Cd1 O9 75.8(3) . . ?
O11 Cd1 O2 102.7(4) . . ?
O3 Cd1 O2 55.7(3) . . ?
O6 Cd1 O2 125.3(3) . . ?
O9 Cd1 O2 149.8(3) . . ?
O11 Cd1 O8 92.6(4) . . ?
O3 Cd1 O8 93.4(4) . . ?
O6 Cd1 O8 129.3(4) . . ?
O9 Cd1 O8 54.0(3) . . ?
O2 Cd1 O8 99.9(3) . . ?
O11 Cd1 O5 84.6(3) . . ?
O3 Cd1 O5 89.2(3) . . ?
O6 Cd1 O5 51.4(3) . . ?
O9 Cd1 O5 126.2(3) . . ?
O2 Cd1 O5 80.7(3) . . ?
O8 Cd1 O5 177.2(4) . . ?
O11 Cd1 C9 128.9(4) . . ?
O3 Cd1 C9 29.4(3) . . ?
O6 Cd1 