####################################################################### 
# 
# This file contains crystal structure data downloaded from the 
# Cambridge Structural Database (CSD) hosted by the Cambridge 
# Crystallographic Data Centre (CCDC).
# 
# Full information about CCDC data access policies and citation 
# guidelines are available at http://www.ccdc.cam.ac.uk/access/V1 
# 
# Audit and citation data items may have been added by the CCDC. 
# Please retain this information to preserve the provenance of 
# this file and to allow appropriate attribution of the data. 
# 
#######################################################################

data_[Ag(ClO4)L]0.5CH3CN1.5H2O
_audit_block_doi                 10.5517/ccw62w0
_database_code_depnum_ccdc_archive 'CCDC 810212'
loop_
_citation_id
_citation_doi
_citation_year
1 10.1021/ic4027865 2014
_audit_update_record             
;
2011-01-27 deposited with the CCDC.	2024-07-13 downloaded from the CCDC.
;
#TrackingRef 'CIF-1.cif'


_audit_creation_method           SHELXL-97

_chemical_name_systematic        
;
?
;
_chemical_name_common            ?
_chemical_melting_point          ?
_chemical_formula_moiety         ?
_chemical_formula_sum            'C53 H62.50 Ag Cl N4.50 O11.50'
_chemical_formula_weight         1089.90

loop_
_atom_type_symbol
_atom_type_description
_atom_type_scat_dispersion_real
_atom_type_scat_dispersion_imag
_atom_type_scat_source
C C 0.0181 0.0091 'International Tables Vol C Tables 4.2.6.8 and 6.1.1.4'
H H 0.0000 0.0000 'International Tables Vol C Tables 4.2.6.8 and 6.1.1.4'
Ag Ag 0.1306 4.2820 'International Tables Vol C Tables 4.2.6.8 and 6.1.1.4'
Cl Cl 0.3639 0.7018 'International Tables Vol C Tables 4.2.6.8 and 6.1.1.4'
N N 0.0311 0.0180 'International Tables Vol C Tables 4.2.6.8 and 6.1.1.4'
O O 0.0492 0.0322 'International Tables Vol C Tables 4.2.6.8 and 6.1.1.4'

_symmetry_cell_setting           monoclinic
_symmetry_space_group_name_H-M   C2

loop_
_symmetry_equiv_pos_as_xyz
'x, y, z'
'-x, y, -z'
'x+1/2, y+1/2, z'
'-x+1/2, y+1/2, -z'

_cell_length_a                   51.6398(14)
_cell_length_b                   13.6915(4)
_cell_length_c                   17.5930(5)
_cell_angle_alpha                90.00
_cell_angle_beta                 102.8280(10)
_cell_angle_gamma                90.00
_cell_volume                     12128.3(6)
_cell_formula_units_Z            8
_cell_measurement_temperature    123
_cell_measurement_reflns_used    8948
_cell_measurement_theta_min      3.42
_cell_measurement_theta_max      50

_exptl_crystal_description       block
_exptl_crystal_colour            'pale yellow'
_exptl_crystal_size_max          0.12
_exptl_crystal_size_mid          0.08
_exptl_crystal_size_min          0.08
_exptl_crystal_density_meas      ?
_exptl_crystal_density_diffrn    1.194
_exptl_crystal_density_method    'not measured'
_exptl_crystal_F_000             4543
_exptl_absorpt_coefficient_mu    3.530
_exptl_absorpt_correction_type   Multi-scan
_exptl_absorpt_correction_T_min  0.71
_exptl_absorpt_correction_T_max  0.76
_exptl_absorpt_process_details   'SADABS (Sheldrick, 1996)'

_exptl_special_details           
;
?
;

_diffrn_ambient_temperature      123
_diffrn_radiation_wavelength     1.54178
_diffrn_radiation_type           CuK\a
_diffrn_radiation_source         'fine-focus sealed tube'
_diffrn_radiation_monochromator  graphite
_diffrn_measurement_device_type  ?
_diffrn_measurement_method       ?
_diffrn_detector_area_resol_mean ?
_diffrn_standards_number         ?
_diffrn_standards_interval_count ?
_diffrn_standards_interval_time  ?
_diffrn_standards_decay_%        ?
_diffrn_reflns_number            28808
_diffrn_reflns_av_R_equivalents  0.0336
_diffrn_reflns_av_sigmaI/netI    0.0497
_diffrn_reflns_limit_h_min       -51
_diffrn_reflns_limit_h_max       49
_diffrn_reflns_limit_k_min       -13
_diffrn_reflns_limit_k_max       10
_diffrn_reflns_limit_l_min       -17
_diffrn_reflns_limit_l_max       17
_diffrn_reflns_theta_min         3.42
_diffrn_reflns_theta_max         50.00
_reflns_number_total             9509
_reflns_number_gt                8930
_reflns_threshold_expression     >2sigma(I)

_computing_data_collection       'SMART (Bruker, 1997)'
_computing_cell_refinement       'SAINT (Bruker, 1999)'
_computing_data_reduction        SAINT
_computing_structure_solution    'SHELXS-97 (Sheldrick, 1990)'
_computing_structure_refinement  'SHELXL-97 (Sheldrick, 1997)'
_computing_molecular_graphics    'SHELXTL-PLUS (Sheldrick, 1990)'
_computing_publication_material  SHELXL-97

_refine_special_details          
;
Refinement of F^2^ against ALL reflections. The weighted R-factor wR and
goodness of fit S are based on F^2^, conventional R-factors R are based
on F, with F set to zero for negative F^2^. The threshold expression of
F^2^ > 2sigma(F^2^) is used only for calculating R-factors(gt) etc. and is
not relevant to the choice of reflections for refinement. R-factors based
on F^2^ are statistically about twice as large as those based on F, and R-
factors based on ALL data will be even larger.
;

_refine_ls_structure_factor_coef Fsqd
_refine_ls_matrix_type           full
_refine_ls_weighting_scheme      calc
_refine_ls_weighting_details     
'calc w=1/[\s^2^(Fo^2^)+(0.1997P)^2^+27.0042P] where P=(Fo^2^+2Fc^2^)/3'
_atom_sites_solution_primary     direct
_atom_sites_solution_secondary   difmap
_atom_sites_solution_hydrogens   geom
_refine_ls_hydrogen_treatment    constr
_refine_ls_extinction_method     none
_refine_ls_extinction_coef       ?
_refine_ls_abs_structure_details 'Flack H D (1983), Acta Cryst. A39, 876-881'
_refine_ls_abs_structure_Flack   0.033(12)
_refine_ls_number_reflns         9509
_refine_ls_number_parameters     1049
_refine_ls_number_restraints     29
_refine_ls_R_factor_all          0.0899
_refine_ls_R_factor_gt           0.0871
_refine_ls_wR_factor_ref         0.2358
_refine_ls_wR_factor_gt          0.2301
_refine_ls_goodness_of_fit_ref   1.013
_refine_ls_restrained_S_all      1.019
_refine_ls_shift/su_max          0.000
_refine_ls_shift/su_mean         0.000

loop_
_atom_site_label
_atom_site_type_symbol
_atom_site_fract_x
_atom_site_fract_y
_atom_site_fract_z
_atom_site_U_iso_or_equiv
_atom_site_adp_type
_atom_site_occupancy
_atom_site_symmetry_multiplicity
_atom_site_calc_flag
_atom_site_refinement_flags
_atom_site_disorder_assembly
_atom_site_disorder_group
Ag1 Ag 0.0000 0.27093(14) 0.5000 0.1477(11) Uani 1 2 d S . .
Ag2 Ag 0.0000 0.04049(10) 0.5000 0.0738(5) Uani 1 2 d S . .
Ag3 Ag 0.5000 0.48107(12) 0.0000 0.1086(8) Uani 1 2 d S . .
Ag4 Ag 0.5000 0.24933(10) 0.0000 0.0617(4) Uani 1 2 d S . .
N1 N 0.03765(14) 0.2957(6) 0.4678(5) 0.086(4) Uani 1 1 d G . .
C1 C 0.03704(11) 0.2936(6) 0.3884(5) 0.074(4) Uani 1 1 d G . .
H1A H 0.0222 0.2692 0.3536 0.088 Uiso 1 1 calc R . .
C2 C 0.05862(13) 0.3278(6) 0.3610(3) 0.062(3) Uani 1 1 d G . .
H2A H 0.0582 0.3263 0.3079 0.075 Uiso 1 1 calc R . .
C3 C 0.08082(11) 0.3641(6) 0.4130(4) 0.049(3) Uani 1 1 d G . .
C4 C 0.08143(13) 0.3663(6) 0.4924(3) 0.051(3) Uani 1 1 d G . .
H4A H 0.0963 0.3906 0.5271 0.061 Uiso 1 1 calc R . .
C5 C 0.05985(16) 0.3321(6) 0.5198(4) 0.079(4) Uani 1 1 d G . .
H5A H 0.0603 0.3335 0.5729 0.094 Uiso 1 1 calc R . .
C12 C 0.1323(2) 0.3807(8) 0.2005(6) 0.043(3) Uani 1 1 d . . .
C6 C 0.10363(10) 0.4066(4) 0.3826(3) 0.031(2) Uani 1 1 d G . .
C7 C 0.11900(11) 0.4818(5) 0.4223(3) 0.036(2) Uani 1 1 d G . .
H7A H 0.1159 0.5042 0.4694 0.044 Uiso 1 1 calc R . .
C8 C 0.13895(11) 0.5237(4) 0.3915(3) 0.029(2) Uani 1 1 d G . .
C9 C 0.14354(10) 0.4903(4) 0.3210(3) 0.034(2) Uani 1 1 d G . .
C10 C 0.12816(12) 0.4151(4) 0.2814(3) 0.032(2) Uani 1 1 d G . .
C11 C 0.10821(11) 0.3732(4) 0.3122(3) 0.039(3) Uani 1 1 d G . .
H11A H 0.0979 0.3229 0.2856 0.046 Uiso 1 1 calc R . .
C13 C 0.1266(3) 0.4711(11) 0.1458(5) 0.068(4) Uani 1 1 d . . .
H13A H 0.1291 0.4538 0.0951 0.102 Uiso 1 1 calc R . .
H13B H 0.1386 0.5229 0.1669 0.102 Uiso 1 1 calc R . .
H13C H 0.1086 0.4924 0.1418 0.102 Uiso 1 1 calc R . .
C14 C 0.1133(2) 0.2993(10) 0.1674(6) 0.056(3) Uani 1 1 d . . .
H14A H 0.1165 0.2793 0.1180 0.083 Uiso 1 1 calc R . .
H14B H 0.0954 0.3222 0.1605 0.083 Uiso 1 1 calc R . .
H14C H 0.1160 0.2449 0.2027 0.083 Uiso 1 1 calc R . .
C15 C 0.1605(2) 0.3437(9) 0.2061(6) 0.053(3) Uani 1 1 d . . .
H15A H 0.1625 0.3233 0.1555 0.080 Uiso 1 1 calc R . .
H15B H 0.1639 0.2894 0.2414 0.080 Uiso 1 1 calc R . .
H15C H 0.1729 0.3952 0.2249 0.080 Uiso 1 1 calc R . .
C16 C 0.15234(18) 0.6095(7) 0.4314(5) 0.031(2) Uani 1 1 d . . .
H16A H 0.1472 0.6338 0.4752 0.038 Uiso 1 1 calc R . .
C17 C 0.18242(10) 0.7417(4) 0.4414(3) 0.030(2) Uani 1 1 d G . .
C18 C 0.20933(10) 0.7611(4) 0.4499(3) 0.026(2) Uani 1 1 d G . .
C19 C 0.22007(8) 0.8472(4) 0.4851(3) 0.032(2) Uani 1 1 d G . .
C20 C 0.20390(11) 0.9141(4) 0.5119(3) 0.037(3) Uani 1 1 d G . .
C21 C 0.17698(10) 0.8948(4) 0.5034(4) 0.037(3) Uani 1 1 d G . .
C22 C 0.16624(8) 0.8086(5) 0.4682(4) 0.041(3) Uani 1 1 d G . .
H22A H 0.1482 0.7957 0.4625 0.049 Uiso 1 1 calc R . .
C23 C 0.1587(2) 0.9643(9) 0.5326(7) 0.055(3) Uani 1 1 d . . .
H23A H 0.1686 1.0205 0.5552 0.083 Uiso 1 1 calc R . .
H23B H 0.1512 0.9322 0.5712 0.083 Uiso 1 1 calc R . .
H23C H 0.1447 0.9844 0.4898 0.083 Uiso 1 1 calc R . .
C24 C 0.2157(2) 1.0064(8) 0.5553(6) 0.043(3) Uani 1 1 d . . .
H24A H 0.2018 1.0444 0.5689 0.064 Uiso 1 1 calc R . .
H24B H 0.2244 1.0444 0.5223 0.064 Uiso 1 1 calc R . .
H24C H 0.2284 0.9884 0.6018 0.064 Uiso 1 1 calc R . .
C25 C 0.22240(18) 0.6882(7) 0.3414(5) 0.032(2) Uani 1 1 d D . .
H25A H 0.2036 0.6917 0.3171 0.038 Uiso 1 1 calc R . .
H25B H 0.2291 0.6260 0.3276 0.038 Uiso 1 1 calc R . .
C26 C 0.2640(2) 0.7514(8) 0.3263(6) 0.043(3) Uani 1 1 d . . .
H26A H 0.2722 0.8056 0.3060 0.065 Uiso 1 1 calc R . .
H26B H 0.2675 0.6924 0.3008 0.065 Uiso 1 1 calc R . .
H26C H 0.2712 0.7458 0.3813 0.065 Uiso 1 1 calc R . .
C27 C 0.24939(7) 0.8660(4) 0.4922(3) 0.026(2) Uani 1 1 d G . .
C28 C 0.26759(10) 0.8085(4) 0.5431(3) 0.024(2) Uani 1 1 d G . .
C29 C 0.29466(9) 0.8214(4) 0.5488(3) 0.026(2) Uani 1 1 d G . .
C30 C 0.30351(7) 0.8919(5) 0.5037(3) 0.036(3) Uani 1 1 d G . .
H30A H 0.3216 0.9005 0.5075 0.043 Uiso 1 1 calc R . .
C31 C 0.28531(10) 0.9494(4) 0.4528(3) 0.034(2) Uani 1 1 d G . .
C32 C 0.25824(9) 0.9365(4) 0.4471(3) 0.025(2) Uani 1 1 d G . .
C33 C 0.23846(19) 0.9980(7) 0.3882(5) 0.033(2) Uani 1 1 d . . .
H33A H 0.2207 0.9808 0.3909 0.049 Uiso 1 1 calc R . .
H33B H 0.2409 0.9856 0.3366 0.049 Uiso 1 1 calc R . .
H33C H 0.2414 1.0660 0.4003 0.049 Uiso 1 1 calc R . .
C34 C 0.2954(2) 1.0278(10) 0.4070(6) 0.057(3) Uani 1 1 d . . .
H34A H 0.3144 1.0260 0.4181 0.086 Uiso 1 1 calc R . .
H34B H 0.2896 1.0904 0.4213 0.086 Uiso 1 1 calc R . .
H34C H 0.2885 1.0169 0.3523 0.086 Uiso 1 1 calc R . .
C35 C 0.2639(2) 0.7596(8) 0.6689(5) 0.036(2) Uani 1 1 d . . .
H35A H 0.2643 0.6994 0.6983 0.043 Uiso 1 1 calc R . .
H35B H 0.2812 0.7899 0.6841 0.043 Uiso 1 1 calc R . .
C36 C 0.21923(19) 0.7789(9) 0.6790(5) 0.045(3) Uani 1 1 d . . .
H36A H 0.2072 0.8252 0.6933 0.068 Uiso 1 1 calc R . .
H36B H 0.2205 0.7226 0.7122 0.068 Uiso 1 1 calc R . .
H36C H 0.2127 0.7594 0.6257 0.068 Uiso 1 1 calc R . .
C37 C 0.3348(2) 0.7342(8) 0.5800(5) 0.042(3) Uani 1 1 d . . .
H37A H 0.3405 0.7714 0.5427 0.051 Uiso 1 1 calc R . .
C38 C 0.35288(10) 0.6584(4) 0.6222(3) 0.024(2) Uani 1 1 d G . .
C39 C 0.34638(9) 0.5984(5) 0.6789(3) 0.039(3) Uani 1 1 d G . .
C40 C 0.36430(11) 0.5281(4) 0.7155(3) 0.041(3) Uani 1 1 d G . .
C41 C 0.38871(11) 0.5178(4) 0.6954(4) 0.045(3) Uani 1 1 d G . .
H41A H 0.4007 0.4708 0.7199 0.054 Uiso 1 1 calc R . .
C42 C 0.39520(9) 0.5779(5) 0.6387(4) 0.044(3) Uani 1 1 d G . .
C43 C 0.37729(11) 0.6482(4) 0.6021(3) 0.035(2) Uani 1 1 d G . .
H43A H 0.3816 0.6884 0.5642 0.042 Uiso 1 1 calc R . .
C44 C 0.3567(2) 0.4582(9) 0.7765(6) 0.048(3) Uani 1 1 d . . .
C45 C 0.3320(2) 0.4006(9) 0.7417(6) 0.046(3) Uani 1 1 d . . .
H45A H 0.3352 0.3607 0.6999 0.069 Uiso 1 1 calc R . .
H45B H 0.3176 0.4447 0.7221 0.069 Uiso 1 1 calc R . .
H45C H 0.3274 0.3596 0.7811 0.069 Uiso 1 1 calc R . .
C46 C 0.3511(3) 0.5182(10) 0.8455(6) 0.064(4) Uani 1 1 d . . .
H46A H 0.3463 0.4749 0.8829 0.096 Uiso 1 1 calc R . .
H46B H 0.3369 0.5631 0.8268 0.096 Uiso 1 1 calc R . .
H46C H 0.3668 0.5538 0.8697 0.096 Uiso 1 1 calc R . .
C48 C 0.42062(10) 0.5644(6) 0.6089(3) 0.044(3) Uani 1 1 d G . .
C49 C 0.44475(12) 0.5433(7) 0.6593(3) 0.058(3) Uani 1 1 d G . .
H49A H 0.4456 0.5358 0.7124 0.069 Uiso 1 1 calc R . .
C50 C 0.46758(9) 0.5335(7) 0.6305(4) 0.074(4) Uani 1 1 d G . .
H50A H 0.4837 0.5194 0.6642 0.089 Uiso 1 1 calc R . .
N4 N 0.46629(9) 0.5448(6) 0.5512(4) 0.067(3) Uani 1 1 d G . .
C51 C 0.44216(12) 0.5659(6) 0.5008(3) 0.060(3) Uani 1 1 d G . .
H51A H 0.4413 0.5734 0.4477 0.072 Uiso 1 1 calc R . .
C52 C 0.41932(9) 0.5757(6) 0.5296(3) 0.055(3) Uani 1 1 d G . .
H52A H 0.4032 0.5898 0.4959 0.066 Uiso 1 1 calc R . .
C47 C 0.3794(2) 0.3879(11) 0.8115(8) 0.067(4) Uani 1 1 d . . .
H47A H 0.3835 0.3481 0.7709 0.101 Uiso 1 1 calc R . .
H47B H 0.3740 0.3468 0.8495 0.101 Uiso 1 1 calc R . .
H47C H 0.3948 0.4247 0.8360 0.101 Uiso 1 1 calc R . .
N5 N 0.46192(9) 0.5098(4) 0.0314(3) 0.066(3) Uani 1 1 d G . .
C53 C 0.44172(10) 0.5552(4) -0.0223(3) 0.058(3) Uani 1 1 d G . .
H53A H 0.4426 0.5584 -0.0745 0.069 Uiso 1 1 calc R . .
C54 C 0.42023(8) 0.5958(3) 0.0019(2) 0.047(3) Uani 1 1 d G . .
H54A H 0.4067 0.6262 -0.0341 0.057 Uiso 1 1 calc R . .
C55 C 0.41894(6) 0.5909(2) 0.07989(19) 0.033(2) Uani 1 1 d G . .
C56 C 0.43914(7) 0.5455(3) 0.1337(2) 0.048(3) Uani 1 1 d G . .
H56A H 0.4383 0.5423 0.1858 0.057 Uiso 1 1 calc R . .
C57 C 0.46063(8) 0.5049(4) 0.1094(3) 0.061(3) Uani 1 1 d G . .
H57A H 0.4742 0.4745 0.1454 0.073 Uiso 1 1 calc R . .
C58 C 0.39587(6) 0.6395(2) 0.10650(17) 0.041(3) Uani 1 1 d G . .
C59 C 0.38293(8) 0.7200(3) 0.0673(2) 0.032(2) Uani 1 1 d G . .
H59A H 0.3870 0.7408 0.0210 0.038 Uiso 1 1 calc R . .
C60 C 0.36389(9) 0.7694(3) 0.0973(3) 0.029(2) Uani 1 1 d G . .
C61 C 0.35780(8) 0.7383(4) 0.1665(3) 0.037(2) Uani 1 1 d G . .
C62 C 0.37074(9) 0.6578(4) 0.2057(2) 0.032(2) Uani 1 1 d G . .
C63 C 0.38978(8) 0.6084(3) 0.1757(2) 0.035(2) Uani 1 1 d G . .
H63A H 0.3984 0.5546 0.2019 0.042 Uiso 1 1 calc R . .
C64 C 0.36431(19) 0.6245(7) 0.2861(5) 0.030(2) Uani 1 1 d . . .
C65 C 0.3716(2) 0.7102(9) 0.3455(5) 0.048(3) Uani 1 1 d . . .
H65A H 0.3679 0.6914 0.3945 0.071 Uiso 1 1 calc R . .
H65B H 0.3613 0.7667 0.3259 0.071 Uiso 1 1 calc R . .
H65C H 0.3902 0.7251 0.3525 0.071 Uiso 1 1 calc R . .
C66 C 0.3802(2) 0.5336(9) 0.3162(5) 0.045(3) Uani 1 1 d . . .
H66A H 0.3754 0.4816 0.2791 0.068 Uiso 1 1 calc R . .
H66B H 0.3765 0.5145 0.3651 0.068 Uiso 1 1 calc R . .
H66C H 0.3988 0.5473 0.3233 0.068 Uiso 1 1 calc R . .
C67 C 0.33446(19) 0.6018(10) 0.2725(5) 0.048(3) Uani 1 1 d . . .
H67A H 0.3301 0.5494 0.2356 0.072 Uiso 1 1 calc R . .
H67B H 0.3244 0.6588 0.2526 0.072 Uiso 1 1 calc R . .
H67C H 0.3303 0.5829 0.3209 0.072 Uiso 1 1 calc R . .
C68 C 0.34975(18) 0.8516(8) 0.0550(5) 0.032(2) Uani 1 1 d . . .
H68A H 0.3534 0.8682 0.0072 0.038 Uiso 1 1 calc R . .
C69 C 0.32094(10) 0.9876(3) 0.0404(3) 0.028(2) Uani 1 1 d G . .
C70 C 0.29412(9) 1.0052(4) 0.0357(3) 0.026(2) Uani 1 1 d G . .
C71 C 0.28218(8) 1.0880(4) -0.0024(3) 0.027(2) Uani 1 1 d G . .
C72 C 0.29705(10) 1.1532(3) -0.0359(3) 0.030(2) Uani 1 1 d G . .
C73 C 0.32386(10) 1.1355(4) -0.0312(3) 0.029(2) Uani 1 1 d G . .
C74 C 0.33581(8) 1.0527(4) 0.0069(3) 0.035(2) Uani 1 1 d G . .
H74A H 0.3537 1.0409 0.0101 0.041 Uiso 1 1 calc R . .
C75 C 0.3408(2) 1.2072(8) -0.0666(6) 0.045(3) Uani 1 1 d . . .
H75A H 0.3588 1.1835 -0.0577 0.067 Uiso 1 1 calc R . .
H75B H 0.3407 1.2701 -0.0425 0.067 Uiso 1 1 calc R . .
H75C H 0.3337 1.2129 -0.1216 0.067 Uiso 1 1 calc R . .
C76 C 0.2843(2) 1.2433(7) -0.0776(6) 0.040(2) Uani 1 1 d . . .
H76A H 0.2658 1.2450 -0.0760 0.061 Uiso 1 1 calc R . .
H76B H 0.2859 1.2418 -0.1309 0.061 Uiso 1 1 calc R . .
H76C H 0.2930 1.3005 -0.0525 0.061 Uiso 1 1 calc R . .
C77 C 0.2826(2) 0.9350(8) 0.1499(5) 0.037(2) Uani 1 1 d . . .
H77A H 0.2779 0.8709 0.1660 0.044 Uiso 1 1 calc R . .
H77B H 0.3013 0.9456 0.1728 0.044 Uiso 1 1 calc R . .
C78 C 0.2403(2) 0.9818(9) 0.1604(5) 0.047(3) Uani 1 1 d . . .
H78A H 0.2309 1.0325 0.1805 0.071 Uiso 1 1 calc R . .
H78B H 0.2376 0.9207 0.1842 0.071 Uiso 1 1 calc R . .
H78C H 0.2339 0.9771 0.1050 0.071 Uiso 1 1 calc R . .
C79 C 0.25318(7) 1.1037(4) -0.0063(3) 0.023(2) Uani 1 1 d G . .
C80 C 0.23467(10) 1.0421(4) -0.0521(3) 0.024(2) Uani 1 1 d G . .
C81 C 0.20781(9) 1.0529(4) -0.0534(3) 0.031(2) Uani 1 1 d G . .
C82 C 0.19946(8) 1.1254(5) -0.0089(3) 0.031(2) Uani 1 1 d G . .
H82A H 0.1815 1.1326 -0.0098 0.037 Uiso 1 1 calc R . .
C83 C 0.21797(11) 1.1870(4) 0.0369(3) 0.035(2) Uani 1 1 d G . .
C84 C 0.24483(10) 1.1761(4) 0.0382(3) 0.030(2) Uani 1 1 d G . .
C85 C 0.26536(19) 1.2390(8) 0.0952(6) 0.044(3) Uani 1 1 d . . .
H85A H 0.2829 1.2229 0.0897 0.066 Uiso 1 1 calc R . .
H85B H 0.2639 1.2261 0.1477 0.066 Uiso 1 1 calc R . .
H85C H 0.2620 1.3069 0.0835 0.066 Uiso 1 1 calc R . .
C86 C 0.2087(3) 1.2665(9) 0.0816(6) 0.055(3) Uani 1 1 d . . .
H86A H 0.1897 1.2634 0.0740 0.083 Uiso 1 1 calc R . .
H86B H 0.2137 1.3285 0.0637 0.083 Uiso 1 1 calc R . .
H86C H 0.2167 1.2591 0.1360 0.083 Uiso 1 1 calc R . .
C87 C 0.23785(18) 0.9956(7) -0.1795(5) 0.031(2) Uani 1 1 d D . .
H87A H 0.2373 0.9356 -0.2091 0.037 Uiso 1 1 calc R . .
H87B H 0.2207 1.0274 -0.1955 0.037 Uiso 1 1 calc R . .
C88 C 0.28272(17) 1.0080(8) -0.1926(5) 0.029(2) Uani 1 1 d . . .
H88A H 0.2957 1.0536 -0.2027 0.044 Uiso 1 1 calc R . .
H88B H 0.2801 0.9572 -0.2311 0.044 Uiso 1 1 calc R . .
H88C H 0.2888 0.9801 -0.1417 0.044 Uiso 1 1 calc R . .
C89 C 0.1679(2) 0.9601(7) -0.0743(5) 0.034(2) Uani 1 1 d . . .
H89A H 0.1636 0.9954 -0.0336 0.041 Uiso 1 1 calc R . .
C90 C 0.14947(10) 0.8873(4) -0.1131(3) 0.032(2) Uani 1 1 d G . .
C91 C 0.15505(9) 0.8293(5) -0.1723(3) 0.033(2) Uani 1 1 d G . .
C