####################################################################### 
# 
# This file contains crystal structure data downloaded from the 
# Cambridge Structural Database (CSD) hosted by the Cambridge 
# Crystallographic Data Centre (CCDC).
# 
# Full information about CCDC data access policies and citation 
# guidelines are available at http://www.ccdc.cam.ac.uk/access/V1 
# 
# Audit and citation data items may have been added by the CCDC. 
# Please retain this information to preserve the provenance of 
# this file and to allow appropriate attribution of the data. 
# 
#######################################################################

data_[Ag(BF4)L]1.5THF0.5H2O
_audit_block_doi                 10.5517/ccw62x1
_database_code_depnum_ccdc_archive 'CCDC 810213'
loop_
_citation_id
_citation_doi
_citation_year
1 10.1021/ic4027865 2014
_audit_update_record             
;
2011-01-27 deposited with the CCDC.	2024-07-13 downloaded from the CCDC.
;
#TrackingRef 'CIF-2.cif'


_audit_creation_method           SHELXL-97

_chemical_name_systematic        
;
?
;
_chemical_name_common            ?
_chemical_melting_point          ?
_chemical_formula_moiety         ?
_chemical_formula_sum            'C58 H71 Ag B F4 N4 O8'
_chemical_formula_weight         1146.87

loop_
_atom_type_symbol
_atom_type_description
_atom_type_scat_dispersion_real
_atom_type_scat_dispersion_imag
_atom_type_scat_source
C C 0.0181 0.0091 'International Tables Vol C Tables 4.2.6.8 and 6.1.1.4'
H H 0.0000 0.0000 'International Tables Vol C Tables 4.2.6.8 and 6.1.1.4'
N N 0.0311 0.0180 'International Tables Vol C Tables 4.2.6.8 and 6.1.1.4'
O O 0.0492 0.0322 'International Tables Vol C Tables 4.2.6.8 and 6.1.1.4'
B B 0.0090 0.0039 'International Tables Vol C Tables 4.2.6.8 and 6.1.1.4'
F F 0.0727 0.0534 'International Tables Vol C Tables 4.2.6.8 and 6.1.1.4'
Ag Ag 0.1306 4.2820 'International Tables Vol C Tables 4.2.6.8 and 6.1.1.4'

_symmetry_cell_setting           Monoclinic
_symmetry_space_group_name_H-M   C2

loop_
_symmetry_equiv_pos_as_xyz
'x, y, z'
'-x, y, -z'
'x+1/2, y+1/2, z'
'-x+1/2, y+1/2, -z'

_cell_length_a                   31.6945(7)
_cell_length_b                   18.9206(5)
_cell_length_c                   23.8228(5)
_cell_angle_alpha                90.00
_cell_angle_beta                 109.8150(10)
_cell_angle_gamma                90.00
_cell_volume                     13440.2(5)
_cell_formula_units_Z            8
_cell_measurement_temperature    123
_cell_measurement_reflns_used    8206
_cell_measurement_theta_min      5.05
_cell_measurement_theta_max      52.50

_exptl_crystal_description       block
_exptl_crystal_colour            'Pale yellow'
_exptl_crystal_size_max          0.10
_exptl_crystal_size_mid          0.08
_exptl_crystal_size_min          0.08
_exptl_crystal_density_meas      ?
_exptl_crystal_density_diffrn    1.134
_exptl_crystal_density_method    'not measured'
_exptl_crystal_F_000             4792
_exptl_absorpt_coefficient_mu    2.894
_exptl_absorpt_correction_type   Multi-scan
_exptl_absorpt_correction_T_min  0.75
_exptl_absorpt_correction_T_max  0.80
_exptl_absorpt_process_details   'SADABS (Sheldrick, 1996)'

_exptl_special_details           
;
?
;

_diffrn_ambient_temperature      123
_diffrn_radiation_wavelength     1.54178
_diffrn_radiation_type           CuK\a
_diffrn_radiation_source         'fine-focus sealed tube'
_diffrn_radiation_monochromator  graphite
_diffrn_measurement_device_type  ?
_diffrn_measurement_method       ?
_diffrn_detector_area_resol_mean ?
_diffrn_standards_number         ?
_diffrn_standards_interval_count ?
_diffrn_standards_interval_time  ?
_diffrn_standards_decay_%        ?
_diffrn_reflns_number            16824
_diffrn_reflns_av_R_equivalents  0.0355
_diffrn_reflns_av_sigmaI/netI    0.0710
_diffrn_reflns_limit_h_min       -32
_diffrn_reflns_limit_h_max       32
_diffrn_reflns_limit_k_min       -17
_diffrn_reflns_limit_k_max       19
_diffrn_reflns_limit_l_min       -24
_diffrn_reflns_limit_l_max       24
_diffrn_reflns_theta_min         5.03
_diffrn_reflns_theta_max         52.50
_reflns_number_total             9706
_reflns_number_gt                8206
_reflns_threshold_expression     >2sigma(I)

_computing_data_collection       'SMART (Bruker, 1997)'
_computing_cell_refinement       'SAINT (Bruker, 1999)'
_computing_data_reduction        SAINT
_computing_structure_solution    'SHELXS-97 (Sheldrick, 1990)'
_computing_structure_refinement  'SHELXL-97 (Sheldrick, 1997)'
_computing_molecular_graphics    'SHELXTL-PLUS (Sheldrick, 1990)'
_computing_publication_material  SHELXL-97

_refine_special_details          
;
Refinement of F^2^ against ALL reflections. The weighted R-factor wR and
goodness of fit S are based on F^2^, conventional R-factors R are based
on F, with F set to zero for negative F^2^. The threshold expression of
F^2^ > 2sigma(F^2^) is used only for calculating R-factors(gt) etc. and is
not relevant to the choice of reflections for refinement. R-factors based
on F^2^ are statistically about twice as large as those based on F, and R-
factors based on ALL data will be even larger.
;

_refine_ls_structure_factor_coef Fsqd
_refine_ls_matrix_type           full
_refine_ls_weighting_scheme      calc
_refine_ls_weighting_details     
'calc w=1/[\s^2^(Fo^2^)+(0.1380P)^2^+0.0000P] where P=(Fo^2^+2Fc^2^)/3'
_atom_sites_solution_primary     direct
_atom_sites_solution_secondary   difmap
_atom_sites_solution_hydrogens   geom
_refine_ls_hydrogen_treatment    constr
_refine_ls_extinction_method     none
_refine_ls_extinction_coef       ?
_refine_ls_abs_structure_details 'Flack H D (1983), Acta Cryst. A39, 876-881'
_refine_ls_abs_structure_Flack   0.027(9)
_refine_ls_number_reflns         9706
_refine_ls_number_parameters     1136
_refine_ls_number_restraints     36
_refine_ls_R_factor_all          0.0781
_refine_ls_R_factor_gt           0.0643
_refine_ls_wR_factor_ref         0.1857
_refine_ls_wR_factor_gt          0.1739
_refine_ls_goodness_of_fit_ref   1.051
_refine_ls_restrained_S_all      1.064
_refine_ls_shift/su_max          0.001
_refine_ls_shift/su_mean         0.000

loop_
_atom_site_label
_atom_site_type_symbol
_atom_site_fract_x
_atom_site_fract_y
_atom_site_fract_z
_atom_site_U_iso_or_equiv
_atom_site_adp_type
_atom_site_occupancy
_atom_site_symmetry_multiplicity
_atom_site_calc_flag
_atom_site_refinement_flags
_atom_site_disorder_assembly
_atom_site_disorder_group
Ag1 Ag 0.64528(3) 0.86781(5) 0.99342(3) 0.0669(3) Uani 1 1 d . . .
Ag2 Ag 0.66931(3) 0.72246(5) 1.05614(3) 0.0703(3) Uani 1 1 d . . .
N2 N 0.6999(3) 0.8680(5) 0.5690(3) 0.059(2) Uani 1 1 d . . .
N3 N 0.6866(3) 0.9989(5) 0.2443(3) 0.059(2) Uani 1 1 d . . .
N6 N 0.6256(3) 0.6271(5) 1.4750(4) 0.066(3) Uani 1 1 d . . .
N7 N 0.5689(3) 0.7735(5) 1.7444(4) 0.059(2) Uani 1 1 d . . .
B1 B 0.7565(5) 0.8853(7) 0.1182(6) 0.070(4) Uani 1 1 d D . .
F1 F 0.7793(3) 0.9202(5) 0.1673(3) 0.108(3) Uani 1 1 d . . .
F2 F 0.7228(4) 0.9307(7) 0.0841(5) 0.145(4) Uani 1 1 d D . .
F3 F 0.7807(3) 0.8704(6) 0.0826(3) 0.108(2) Uani 1 1 d . . .
F4 F 0.7339(4) 0.8290(5) 0.1286(4) 0.125(3) Uani 1 1 d . . .
B2 B 0.5620(5) 0.6860(8) 0.9268(5) 0.066(4) Uani 1 1 d . . .
F5 F 0.5824(2) 0.7464(4) 0.9172(3) 0.086(2) Uani 1 1 d . . .
F6 F 0.5286(2) 0.7042(4) 0.9490(3) 0.092(2) Uani 1 1 d . . .
F7 F 0.5941(3) 0.6462(5) 0.9716(3) 0.104(2) Uani 1 1 d . . .
F8 F 0.5450(3) 0.6468(4) 0.8774(3) 0.102(2) Uani 1 1 d . . .
N1 N 0.6736(2) 0.8673(4) 0.9235(2) 0.063(2) Uani 1 1 d G . .
C1 C 0.64381(16) 0.8660(5) 0.8652(2) 0.078(3) Uani 1 1 d G . .
H1A H 0.6132 0.8622 0.8579 0.094 Uiso 1 1 calc R . .
C2 C 0.65987(19) 0.8703(5) 0.81775(18) 0.068(3) Uani 1 1 d G . .
H2A H 0.6400 0.8695 0.7787 0.082 Uiso 1 1 calc R . .
C3 C 0.7057(2) 0.8760(4) 0.8286(2) 0.059(3) Uani 1 1 d G . .
C4 C 0.73545(16) 0.8773(5) 0.8870(2) 0.064(3) Uani 1 1 d G . .
H4A H 0.7661 0.8810 0.8942 0.076 Uiso 1 1 calc R . .
C5 C 0.71940(18) 0.8729(5) 0.93439(18) 0.059(3) Uani 1 1 d G . .
H5A H 0.7393 0.8737 0.9734 0.071 Uiso 1 1 calc R . .
C12 C 0.8208(5) 0.9866(9) 0.7491(6) 0.093(5) Uani 1 1 d . . .
C6 C 0.7231(2) 0.8875(4) 0.7768(2) 0.059(3) Uani 1 1 d G . .
C7 C 0.69870(19) 0.8630(4) 0.7200(2) 0.061(3) Uani 1 1 d G . .
H7A H 0.6721 0.8383 0.7137 0.073 Uiso 1 1 calc R . .
C8 C 0.7141(2) 0.8754(4) 0.6728(2) 0.058(3) Uani 1 1 d G . .
C9 C 0.7538(2) 0.9123(5) 0.6823(2) 0.064(3) Uani 1 1 d G . .
C10 C 0.7782(2) 0.9368(5) 0.7390(3) 0.081(4) Uani 1 1 d G . .
C11 C 0.7628(2) 0.9244(4) 0.7863(2) 0.068(3) Uani 1 1 d G . .
H11A H 0.7791 0.9408 0.8243 0.082 Uiso 1 1 calc R . .
C13 C 0.8037(6) 1.0543(8) 0.7103(7) 0.113(5) Uani 1 1 d . . .
H13A H 0.8284 1.0858 0.7151 0.169 Uiso 1 1 calc R . .
H13B H 0.7814 1.0774 0.7229 0.169 Uiso 1 1 calc R . .
H13C H 0.7907 1.0410 0.6691 0.169 Uiso 1 1 calc R . .
C14 C 0.8573(4) 0.9501(9) 0.7353(7) 0.101(5) Uani 1 1 d . . .
H14A H 0.8820 0.9820 0.7413 0.152 Uiso 1 1 calc R . .
H14B H 0.8467 0.9345 0.6946 0.152 Uiso 1 1 calc R . .
H14C H 0.8671 0.9100 0.7612 0.152 Uiso 1 1 calc R . .
C15 C 0.8398(5) 1.0121(9) 0.8148(6) 0.102(5) Uani 1 1 d . . .
H15A H 0.8650 1.0427 0.8197 0.154 Uiso 1 1 calc R . .
H15B H 0.8493 0.9720 0.8407 0.154 Uiso 1 1 calc R . .
H15C H 0.8170 1.0375 0.8246 0.154 Uiso 1 1 calc R . .
C16 C 0.6877(3) 0.8538(5) 0.6140(4) 0.052(3) Uani 1 1 d . . .
H16A H 0.6612 0.8291 0.6081 0.062 Uiso 1 1 calc R . .
C17 C 0.6739(2) 0.8545(4) 0.50876(18) 0.052(3) Uani 1 1 d G . .
C18 C 0.69431(17) 0.8649(4) 0.4662(2) 0.057(3) Uani 1 1 d G . .
C19 C 0.6694(2) 0.8589(4) 0.4059(2) 0.055(3) Uani 1 1 d G . .
C20 C 0.6240(2) 0.8426(4) 0.38813(19) 0.050(2) Uani 1 1 d G . .
C21 C 0.60351(17) 0.8322(4) 0.4307(3) 0.061(3) Uani 1 1 d G . .
C22 C 0.6285(2) 0.8382(4) 0.4910(2) 0.058(3) Uani 1 1 d G . .
H22A H 0.6148 0.8312 0.5195 0.070 Uiso 1 1 calc R . .
C23 C 0.5535(4) 0.8134(7) 0.4124(5) 0.074(3) Uani 1 1 d . . .
H23A H 0.5454 0.8079 0.4475 0.111 Uiso 1 1 calc R . .
H23B H 0.5480 0.7699 0.3903 0.111 Uiso 1 1 calc R . .
H23C H 0.5359 0.8505 0.3881 0.111 Uiso 1 1 calc R . .
C24 C 0.5947(4) 0.8407(6) 0.3215(4) 0.062(3) Uani 1 1 d . . .
H24A H 0.6131 0.8487 0.2975 0.094 Uiso 1 1 calc R . .
H24B H 0.5721 0.8768 0.3136 0.094 Uiso 1 1 calc R . .
H24C H 0.5805 0.7953 0.3120 0.094 Uiso 1 1 calc R . .
C25 C 0.7549(5) 0.9489(8) 0.5011(6) 0.088(4) Uani 1 1 d D . .
H25A H 0.7344 0.9722 0.5175 0.106 Uiso 1 1 calc R . .
H25B H 0.7844 0.9484 0.5317 0.106 Uiso 1 1 calc R . .
C26 C 0.7946(6) 0.9647(11) 0.4322(8) 0.137(7) Uani 1 1 d D . .
H26A H 0.7949 0.9918 0.3983 0.205 Uiso 1 1 calc R . .
H26B H 0.7912 0.9155 0.4218 0.205 Uiso 1 1 calc R . .
H26C H 0.8223 0.9718 0.4645 0.205 Uiso 1 1 calc R . .
C27 C 0.6928(2) 0.8695(3) 0.3608(2) 0.052(2) Uani 1 1 d G . .
C28 C 0.6815(2) 0.9284(3) 0.3239(3) 0.057(3) Uani 1 1 d G . .
C29 C 0.7002(2) 0.9377(3) 0.2794(2) 0.055(3) Uani 1 1 d G . .
C30 C 0.7302(2) 0.8880(3) 0.2719(2) 0.056(3) Uani 1 1 d G . .
H30A H 0.7427 0.8943 0.2421 0.067 Uiso 1 1 calc R . .
C31 C 0.7415(2) 0.8291(3) 0.3088(3) 0.058(3) Uani 1 1 d GD . .
C32 C 0.7228(2) 0.8198(3) 0.3533(3) 0.057(3) Uani 1 1 d GD . .
C33 C 0.7349(4) 0.7540(6) 0.3937(5) 0.073(3) Uani 1 1 d D . .
H33A H 0.7556 0.7252 0.3824 0.109 Uiso 1 1 calc R . .
H33B H 0.7082 0.7274 0.3893 0.109 Uiso 1 1 calc R . .
H33C H 0.7484 0.7685 0.4345 0.109 Uiso 1 1 calc R . .
C34 C 0.7743(4) 0.7762(7) 0.2983(5) 0.083(4) Uani 1 1 d D . .
H34A H 0.7788 0.7379 0.3261 0.125 Uiso 1 1 calc R . .
H34B H 0.8024 0.7992 0.3038 0.125 Uiso 1 1 calc R . .
H34C H 0.7623 0.7583 0.2583 0.125 Uiso 1 1 calc R . .
C35 C 0.6653(5) 1.0443(7) 0.3551(5) 0.086(4) Uani 1 1 d D . .
H35A H 0.6442 1.0809 0.3350 0.103 Uiso 1 1 calc R . .
H35B H 0.6944 1.0555 0.3522 0.103 Uiso 1 1 calc R . .
C36 C 0.6334(7) 1.0383(11) 0.4333(9) 0.139(7) Uani 1 1 d D . .
H36A H 0.6414 1.0336 0.4758 0.208 Uiso 1 1 calc R . .
H36B H 0.6146 0.9996 0.4139 0.208 Uiso 1 1 calc R . .
H36C H 0.6176 1.0820 0.4207 0.208 Uiso 1 1 calc R . .
C37 C 0.7057(3) 1.0182(6) 0.2075(4) 0.052(3) Uani 1 1 d . . .
H37A H 0.7290 0.9909 0.2038 0.062 Uiso 1 1 calc R . .
C38 C 0.6924(2) 1.0815(3) 0.1709(3) 0.057(3) Uani 1 1 d G . .
C39 C 0.6568(2) 1.1233(4) 0.1727(3) 0.070(3) Uani 1 1 d G . .
C40 C 0.6470(2) 1.1860(4) 0.1404(4) 0.077(3) Uani 1 1 d G . .
C41 C 0.6728(3) 1.2068(3) 0.1063(3) 0.074(3) Uani 1 1 d G . .
H41A H 0.6662 1.2487 0.0847 0.089 Uiso 1 1 calc R . .
C42 C 0.7084(2) 1.1650(3) 0.1046(3) 0.058(3) Uani 1 1 d G . .
C43 C 0.7182(2) 1.1024(3) 0.1369(3) 0.053(3) Uani 1 1 d G . .
H43A H 0.7420 1.0744 0.1357 0.064 Uiso 1 1 calc R . .
C44 C 0.6068(6) 1.2341(9) 0.1449(8) 0.110(5) Uani 1 1 d . . .
C45 C 0.5641(6) 1.1950(13) 0.1232(10) 0.154(8) Uani 1 1 d . . .
H45A H 0.5582 1.1810 0.0825 0.230 Uiso 1 1 calc R . .
H45B H 0.5402 1.2249 0.1255 0.230 Uiso 1 1 calc R . .
H45C H 0.5660 1.1538 0.1474 0.230 Uiso 1 1 calc R . .
C46 C 0.6155(7) 1.2559(9) 0.2110(8) 0.130(6) Uani 1 1 d . . .
H46A H 0.6167 1.2143 0.2346 0.195 Uiso 1 1 calc R . .
H46B H 0.5917 1.2861 0.2130 0.195 Uiso 1 1 calc R . .
H46C H 0.6436 1.2807 0.2262 0.195 Uiso 1 1 calc R . .
C47 C 0.6035(7) 1.3026(11) 0.1071(11) 0.164(10) Uani 1 1 d . . .
H47A H 0.5981 1.2900 0.0662 0.246 Uiso 1 1 calc R . .
H47B H 0.6310 1.3286 0.1222 0.246 Uiso 1 1 calc R . .
H47C H 0.5792 1.3313 0.1096 0.246 Uiso 1 1 calc R . .
C48 C 0.7377(2) 1.1876(4) 0.0692(3) 0.059(3) Uani 1 1 d G . .
C49 C 0.71813(19) 1.2107(4) 0.0107(3) 0.070(3) Uani 1 1 d G . .
H49A H 0.6872 1.2163 -0.0055 0.084 Uiso 1 1 calc R . .
C50 C 0.7448(2) 1.2256(4) -0.0237(2) 0.069(3) Uani 1 1 d G . .
H50A H 0.7317 1.2410 -0.0628 0.083 Uiso 1 1 calc R . .
N4 N 0.7910(2) 1.2173(4) 0.0005(3) 0.062(2) Uani 1 1 d G . .
C51 C 0.81062(19) 1.1942(4) 0.0590(3) 0.069(3) Uani 1 1 d G . .
H51A H 0.8416 1.1887 0.0751 0.083 Uiso 1 1 calc R . .
C52 C 0.7840(2) 1.1794(4) 0.0933(2) 0.057(3) Uani 1 1 d G . .
H52A H 0.7970 1.1639 0.1325 0.068 Uiso 1 1 calc R . .
C64 C 0.5125(4) 0.5031(7) 1.2846(5) 0.073(3) Uani 1 1 d D . .
N5 N 0.6349(2) 0.7153(4) 1.1201(2) 0.062(2) Uani 1 1 d G . .
C53 C 0.65892(19) 0.7355(4) 1.1783(2) 0.066(3) Uani 1 1 d G . .
H53A H 0.6858 0.7600 1.1866 0.079 Uiso 1 1 calc R . .
C54 C 0.6428(2) 0.7191(4) 1.22423(18) 0.057(3) Uani 1 1 d G . .
H54A H 0.6589 0.7326 1.2632 0.069 Uiso 1 1 calc R . .
C55 C 0.6027(2) 0.6824(4) 1.2119(2) 0.058(3) Uani 1 1 d G . .
C56 C 0.5786(2) 0.6622(4) 1.1537(3) 0.071(3) Uani 1 1 d G . .
H56A H 0.5518 0.6377 1.1455 0.085 Uiso 1 1 calc R . .
C57 C 0.5948(2) 0.6787(4) 1.10783(19) 0.070(3) Uani 1 1 d G . .
H57A H 0.5787 0.6652 1.0689 0.084 Uiso 1 1 calc R . .
C65 C 0.4879(5) 0.4955(9) 1.2167(5) 0.098(5) Uani 1 1 d D . .
H65A H 0.5092 0.4842 1.1975 0.147 Uiso 1 1 calc R . .
H65B H 0.4732 0.5392 1.2011 0.147 Uiso 1 1 calc R . .
H65C H 0.4660 0.4585 1.2095 0.147 Uiso 1 1 calc R . .
C58 C 0.5893(2) 0.6505(4) 1.2638(2) 0.057(3) Uani 1 1 d G . .
C59 C 0.6136(2) 0.6694(3) 1.3222(3) 0.061(3) Uani 1 1 d G . .
H59A H 0.6354 0.7045 1.3297 0.073 Uiso 1 1 calc R . .
C60 C 0.6054(2) 0.6359(4) 1.36938(19) 0.066(3) Uani 1 1 d G . .
C61 C 0.5728(2) 0.5835(4) 1.3581(2) 0.067(3) Uani 1 1 d G . .
C62 C 0.5485(2) 0.5646(3) 1.2997(3) 0.063(3) Uani 1 1 d G . .
C63 C 0.5568(2) 0.5981(4) 1.2525(2) 0.060(3) Uani 1 1 d G . .
H63A H 0.5405 0.5854 1.2134 0.072 Uiso 1 1 calc R . .
C66 C 0.5350(5) 0.4366(8) 1.3127(7) 0.101(5) Uani 1 1 d . . .
H66A H 0.5578 0.4243 1.2963 0.151 Uiso 1 1 calc R . .
H66B H 0.5133 0.3992 1.3050 0.151 Uiso 1 1 calc R . .
H66C H 0.5485 0.4434 1.3550 0.151 Uiso 1 1 calc R . .
C67 C 0.4755(4) 0.5219(10) 1.3120(6) 0.100(5) Uani 1 1 d D . .
H67A H 0.4534 0.4849 1.3030 0.150 Uiso 1 1 calc R . .
H67B H 0.4614 0.5656 1.2953 0.150 Uiso 1 1 calc R . .
H67C H 0.4889 0.5266 1.3545 0.150 Uiso 1 1 calc R . .
C68 C 0.6309(4) 0.6554(7) 1.4312(5) 0.069(3) Uani 1 1 d . . .
H68A H 0.6523 0.6909 1.4377 0.082 Uiso 1 1 calc R . .
C69 C 0.6534(2) 0.6472(4) 1.5353(2) 0.064(3) Uani 1 1 d G . .
C70 C 0.63421(18) 0.6431(4) 1.5797(3) 0.063(3) Uani 1 1 d G . .
C71 C 0.6594(2) 0.6603(4) 1.6382(2) 0.054(3) Uani 1 1 d G . .
C72 C 0.7037(2) 0.6818(4) 1.6523(2) 0.063(3) Uani 1 1 d G . .
C73 C 0.72287(18) 0.6860(4) 1.6079(3) 0.068(3) Uani 1 1 d G . .
C74 C 0.6977(2) 0.6687(4) 1.5494(3) 0.068(3) Uani 1 1 d G . .
H74A H 0.7106 0.6715 1.5197 0.082 Uiso 1 1 calc R . .
C75 C 0.7715(4) 0.7087(8) 1.6220(6) 0.090(4) Uani 1 1 d . . .
H75A H 0.7787 0.7090 1.5860 0.135 Uiso 1 1 calc R . .
H75B H 0.7908 0.6762 1.6500 0.135 Uiso 1 1 calc R . .
H75C H 0.7755 0.7553 1.6390 0.135 Uiso 1 1 calc R . .
C76 C 0.7333(4) 0.6961(7) 1.7167(5) 0.073(3) Uani 1 1 d . . .
H76A H 0.7159 0.6909 1.7425 0.110 Uiso 1 1 calc R . .
H76B H 0.7450 0.7433 1.7199 0.110 Uiso 1 1 calc R . .
H76C H 0.7577 0.6630 1.7282 0.110 Uiso 1 1 calc R . .
C77 C 0.5837(7) 0.5516(12) 1.5833(8) 0.154(9) Uani 1 1 d D . .
H77A H 0.5553 0.5488 1.5903 0.184 Uiso 1 1 calc R . .
H77B H 0.6074 0.5415 1.6207 0.184 Uiso 1 1 calc R . .
C79 C 0.6378(2) 0.6566(3) 1.6860(2) 0.052(2) Uani 1 1 d G . .
C80 C 0.6116(2) 0.7130(3) 1.6921(2) 0.058(3) Uani 1 1 d G . .
C81 C 0.5942(2) 0.7136(3) 1.7384(3) 0.050(2) Uani 1 1 d G . .
C82 C 0.6031(2) 0.6578(3) 1.7787(2) 0.051(2) Uani 1 1 d G . .
H82A H 0.5915 0.6582 1.8097 0.061 Uiso 1 1 calc R . .
C83 C 0.6293(2) 0.6014(3) 1.7726(2) 0.055(3) Uani 1 1 d G . .
C84 C 0.6467(2) 0.6008(3) 1.7263(3) 0.052(3) Uani 1 1 d G . .
C85 C 0.6751(4) 0.5384(7) 1.7197(5) 0.073(3) Uani 1 1 d . . .
H85A H 0.6781 0.5051 1.7512 0.109 Uiso 1 1 calc R . .
H85B H 0.7042 0.5549 1.7218 0.109 Uiso 1 1 calc R . .
H85C H 0.6608 0.5159 1.6819 0.109 Uiso 1 1 calc R . .
C86 C 0.6370(4) 0.5393(6) 1.8169(5) 0.065(3) Uani 1 1 d . . .
H86A H 0.6556 0.5043 1.8076 0.097 Uiso 1 1 calc R . .
H86B H 0.6086 0.5186 1.8139 0.097 Uiso 1 1 calc R . .
H86C H 0.6515 0.5563 1.8568 0.097 Uiso 1 1 calc R . .
C87 C 0.5593(4) 0.7711(9) 1.6111(5) 0.093(5) Uani 1 1 d D . .
H87A H 0.5503 0.7252 1.5928 0.112 Uiso 1 1 calc R . .
H87B H 0.5384 0.7853 1.6307 0.112 Uiso 1 1 calc R . .
C88 C 0.5615(7) 0.8943(9) 1.5889(8) 0.137(8) Uani 1 1 d D . .
H88A H 0.5624 0.9264 1.558