
#######################################################################
#
#                 Cambridge Crystallographic Data Centre
#                                CCDC
#
#######################################################################
#
# If this CIF has been generated from an entry in the Cambridge
# Structural Database, then it will include bibliographic, chemical,
# crystal, experimental, refinement or atomic coordinate data resulting
# from the CCDC's data processing and validation procedures.
#
#######################################################################

data_CSD_CIF_WIZKEV
_audit_creation_date 2000-11-21
_audit_creation_method CSD-ConQuest-V1
_database_code_CSD WIZKEV
_database_code_depnum_ccdc_archive 'CCDC 137660'
_database_code_depnum_ccdc_journal 182/1552
_chemical_formula_sum 'C53 H55 Ir1 P2'
_chemical_formula_moiety
;
C39 H39 Ir1 P2,2(C7 H8)
;
_journal_coden_Cambridge 182
_journal_year 2000
_journal_page_first 581
_journal_name_full 'Chem.Commun. '
loop_
_publ_author_name
"K.D.John"
"K.V.Salazar"
"B.L.Scott"
"R.T.Baker"
"A.P.Sattelberger"
_chemical_name_systematic
;
(\h^3^-Allyl)-bis(allyl)-(1,2-bis(diphenylphosphino)benzene)-iridium toluene 
solvate
;
_chemical_name_common
;
Teaching Subset: Fundamental Chemistry
;
_cell_volume   1921.980
_exptl_crystal_colour 'colorless'
_exptl_crystal_description 'multifaceted block'
_exptl_crystal_preparation 'toluene'
_diffrn_ambient_temperature 203
_refine_special_details
;
The toluene molecules were disordered and the program PLATON/SQUEEZE was used 
to remove the corresponding electron density.
;
#These two values have been output from a single CSD field.
_refine_ls_R_factor_gt 0.0179
_refine_ls_wR_factor_gt 0.0179
_symmetry_cell_setting triclinic
_symmetry_space_group_name_H-M 'P -1'
_symmetry_Int_Tables_number 2
loop_
_symmetry_equiv_pos_site_id
_symmetry_equiv_pos_as_xyz
1 x,y,z
2 -x,-y,-z
_cell_length_a 10.7816(5)
_cell_length_b 13.5959(6)
_cell_length_c 13.9441(6)
_cell_angle_alpha 86.058(1)
_cell_angle_beta 71.302(1)
_cell_angle_gamma 83.341(1)
_cell_formula_units_Z 2
loop_
_atom_type_symbol
_atom_type_radius_bond
C 0.68
H 0.23
Ir 1.32
P 1.05
loop_
_atom_site_label
_atom_site_type_symbol
_atom_site_fract_x
_atom_site_fract_y
_atom_site_fract_z
Ir1 Ir 0.225694(8) 0.214667(6) -0.248860(7)
P1 P 0.02179(6) 0.23775(4) -0.13091(4)
P2 P 0.12989(6) 0.31069(4) -0.35051(4)
C1 C 0.2702(2) 0.34809(18) -0.19276(19)
H1 H 0.32060 0.38720 -0.24970
H2 H 0.18850 0.38760 -0.15960
C2 C 0.3453(3) 0.3253(2) -0.1207(2)
H3 H 0.30060 0.29810 -0.05770
C3 C 0.4690(3) 0.3395(3) -0.1365(3)
H4 H 0.51800 0.36650 -0.19820
H5 H 0.50740 0.32260 -0.08590
C4 C 0.4237(2) 0.2281(2) -0.3556(2)
H6 H 0.41960 0.29040 -0.39320
H7 H 0.48080 0.23440 -0.31540
C5 C 0.4900(3) 0.1532(3) -0.4292(2)
H8 H 0.45830 0.15140 -0.48370
C6 C 0.5897(3) 0.0875(3) -0.4281(3)
H9 H 0.62560 0.08580 -0.37550
H10 H 0.62420 0.04280 -0.47990
C7 C 0.3249(3) 0.1058(2) -0.1663(2)
H11 H 0.41660 0.08440 -0.20080
H12 H 0.30590 0.11590 -0.09460
C8 C 0.2306(3) 0.06010(18) -0.1942(2)
H13 H 0.15370 0.03770 -0.14110
C9 C 0.2372(3) 0.05648(18) -0.2960(2)
H14 H 0.16050 0.03710 -0.30910
H15 H 0.32010 0.02960 -0.34270
C10 C -0.0659(2) 0.34870(16) -0.16995(17)
C11 C -0.0160(2) 0.38309(17) -0.27041(17)
C12 C -0.0826(2) 0.46555(18) -0.30449(19)
H16 H -0.04980 0.48930 -0.37100
C13 C -0.1968(2) 0.5120(2) -0.2399(2)
H17 H -0.23990 0.56740 -0.26270
C14 C -0.2470(2) 0.4760(2) -0.1414(2)
H18 H -0.32420 0.50710 -0.09830
C15 C -0.1837(2) 0.39440(19) -0.10652(19)
H19 H -0.21940 0.36970 -0.04070
C16 C 0.0186(2) 0.25837(18) -0.00205(18)
C17 C 0.0451(3) 0.1775(2) 0.0577(2)
H20 H 0.05660 0.11380 0.03380
C18 C 0.0545(3) 0.1912(2) 0.1530(2)
H21 H 0.07130 0.13680 0.19280
C19 C 0.0388(3) 0.2856(2) 0.1884(2)
H22 H 0.04470 0.29470 0.25230
C20 C 0.0148(3) 0.3659(2) 0.1302(2)
H23 H 0.00520 0.42930 0.15430
C21 C 0.0046(2) 0.35330(19) 0.03498(19)
H24 H -0.01160 0.40840 -0.00430
C22 C -0.1061(2) 0.15311(17) -0.11199(18)
C23 C -0.1149(2) 0.11245(18) -0.19771(19)
H25 H -0.04920 0.11930 -0.25940
C24 C -0.2217(3) 0.0616(2) -0.1917(2)
H26 H -0.22750 0.03470 -0.24960
C25 C -0.3198(3) 0.0505(2) -0.1000(2)
H27 H -0.39170 0.01700 -0.09620
C26 C -0.3100(2) 0.0897(2) -0.0144(2)
H28 H -0.37490 0.08140 0.04750
C27 C -0.2045(2) 0.14126(19) -0.01981(19)
H29 H -0.19920 0.16800 0.03820
C28 C 0.0657(2) 0.24599(17) -0.43336(18)
C29 C -0.0587(3) 0.2696(2) -0.4428(2)
H30 H -0.11240 0.32320 -0.40880
C30 C -0.1037(3) 0.2142(2) -0.5023(3)
H31 H -0.18780 0.23020 -0.50690
C31 C -0.0251(3) 0.1360(2) -0.5543(2)
H32 H -0.05540 0.09930 -0.59450
C32 C 0.0988(3) 0.1121(2) -0.5467(2)
H33 H 0.15280 0.05960 -0.58260
C33 C 0.1437(3) 0.1657(2) -0.4860(2)
H34 H 0.22700 0.14800 -0.48030
C34 C 0.2223(2) 0.40434(17) -0.43569(18)
C35 C 0.2314(3) 0.49479(19) -0.3985(2)
H35 H 0.18450 0.50970 -0.33170
C36 C 0.3103(3) 0.5631(2) -0.4607(2)
H36 H 0.31510 0.62370 -0.43570
C37 C 0.3812(3) 0.5408(2) -0.5593(2)
H37 H 0.43290 0.58670 -0.60120
C38 C 0.3755(3) 0.4504(2) -0.5958(2)
H38 H 0.42540 0.43480 -0.66180
C39 C 0.2960(2) 0.3829(2) -0.53497(18)
H39 H 0.29180 0.32250 -0.56070
#END
