####################################################################### 
# 
# This file contains crystal structure data downloaded from the 
# Cambridge Structural Database (CSD) hosted by the Cambridge 
# Crystallographic Data Centre (CCDC).
# 
# Full information about CCDC data access policies and citation 
# guidelines are available at http://www.ccdc.cam.ac.uk/access/V1 
# 
# Audit and citation data items may have been added by the CCDC. 
# Please retain this information to preserve the provenance of 
# this file and to allow appropriate attribution of the data. 
# 
#######################################################################

data_3jcp
_audit_block_doi                 10.5517/cc11l7lg
_database_code_depnum_ccdc_archive 'CCDC 970845'
loop_
_citation_id
_citation_doi
_citation_year
1 10.1016/j.ica.2014.01.019 2014
_audit_update_record             
;
2013-11-08 deposited with the CCDC.	2024-07-13 downloaded from the CCDC.
;

_audit_creation_method           SHELXL-97
_chemical_name_systematic        
; 
 ? 
;
_chemical_name_common            5
_chemical_melting_point          ?
_chemical_formula_moiety         'C31 H32 Cl2 Cu I N2 O2'
_chemical_formula_sum            'C31 H32 Cl2 Cu I N2 O2'
_chemical_formula_weight         725.93

loop_
_atom_type_symbol
_atom_type_description
_atom_type_scat_dispersion_real
_atom_type_scat_dispersion_imag
_atom_type_scat_source
C C 0.0033 0.0016 'International Tables Vol C Tables 4.2.6.8 and 6.1.1.4'
H H 0.0000 0.0000 'International Tables Vol C Tables 4.2.6.8 and 6.1.1.4'
N N 0.0061 0.0033 'International Tables Vol C Tables 4.2.6.8 and 6.1.1.4'
O O 0.0106 0.0060 'International Tables Vol C Tables 4.2.6.8 and 6.1.1.4'
Cu Cu 0.3201 1.2651 'International Tables Vol C Tables 4.2.6.8 and 6.1.1.4'
I I -0.4742 1.8119 'International Tables Vol C Tables 4.2.6.8 and 6.1.1.4'
Cl Cl 0.1484 0.1585 'International Tables Vol C Tables 4.2.6.8 and 6.1.1.4'

_symmetry_cell_setting           Triclinic
_symmetry_space_group_name_H-M   P-1

loop_
_symmetry_equiv_pos_as_xyz
'x, y, z'
'-x, -y, -z'

_cell_length_a                   9.7293(3)
_cell_length_b                   11.7545(5)
_cell_length_c                   13.3384(5)
_cell_angle_alpha                86.1040(10)
_cell_angle_beta                 83.7670(10)
_cell_angle_gamma                78.1440(10)
_cell_volume                     1482.42(10)
_cell_formula_units_Z            2
_cell_measurement_temperature    93(2)
_cell_measurement_reflns_used    5589
_cell_measurement_theta_min      2.40
_cell_measurement_theta_max      30.51

_exptl_crystal_description       plate
_exptl_crystal_colour            yellow
_exptl_crystal_size_max          0.30
_exptl_crystal_size_mid          0.13
_exptl_crystal_size_min          0.02
_exptl_crystal_density_meas      ?
_exptl_crystal_density_diffrn    1.626
_exptl_crystal_density_method    'not measured'
_exptl_crystal_F_000             728
_exptl_absorpt_coefficient_mu    1.990
_exptl_absorpt_correction_type   multi-scan
_exptl_absorpt_correction_T_min  0.857937
_exptl_absorpt_correction_T_max  1.000000
_exptl_absorpt_process_details   SADABS

_exptl_special_details           
; 
 ? 
;

_diffrn_ambient_temperature      93(2)
_diffrn_radiation_wavelength     0.71073
_diffrn_radiation_type           MoK\a
_diffrn_radiation_source         'fine-focus sealed tube'
_diffrn_radiation_monochromator  graphite
_diffrn_measurement_device_type  'CCD area detector'
_diffrn_measurement_method       'phi and omega scans'
_diffrn_detector_area_resol_mean ?
_diffrn_standards_number         ?
_diffrn_standards_interval_count ?
_diffrn_standards_interval_time  ?
_diffrn_standards_decay_%        ?
_diffrn_reflns_number            15720
_diffrn_reflns_av_R_equivalents  0.0334
_diffrn_reflns_av_sigmaI/netI    0.0286
_diffrn_reflns_limit_h_min       -11
_diffrn_reflns_limit_h_max       11
_diffrn_reflns_limit_k_min       -13
_diffrn_reflns_limit_k_max       13
_diffrn_reflns_limit_l_min       -15
_diffrn_reflns_limit_l_max       15
_diffrn_reflns_theta_min         1.54
_diffrn_reflns_theta_max         25.04
_reflns_number_total             5181
_reflns_number_gt                4561
_reflns_threshold_expression     >2sigma(I)

_computing_data_collection       'Bruker SMART'
_computing_cell_refinement       'Bruker SMART'
_computing_data_reduction        'Bruker SAINT'
_computing_structure_solution    'SHELXS-97 (Sheldrick, 1990)'
_computing_structure_refinement  'SHELXL-97 (Sheldrick, 1997)'
_computing_molecular_graphics    'Bruker SHELXTL'
_computing_publication_material  'Bruker SHELXTL'

_refine_special_details          
; 
 Refinement of F^2^ against ALL reflections.  The weighted R-factor wR and 
 goodness of fit S are based on F^2^, conventional R-factors R are based 
 on F, with F set to zero for negative F^2^. The threshold expression of 
 F^2^ > 2sigma(F^2^) is used only for calculating R-factors(gt) etc. and is 
 not relevant to the choice of reflections for refinement.  R-factors based 
 on F^2^ are statistically about twice as large as those based on F, and R- 
 factors based on ALL data will be even larger. 
;

_refine_ls_structure_factor_coef Fsqd
_refine_ls_matrix_type           full
_refine_ls_weighting_scheme      calc
_refine_ls_weighting_details     
'calc w=1/[\s^2^(Fo^2^)+(0.0888P)^2^+5.6900P] where P=(Fo^2^+2Fc^2^)/3'
_atom_sites_solution_primary     direct
_atom_sites_solution_secondary   difmap
_atom_sites_solution_hydrogens   geom
_refine_ls_hydrogen_treatment    constr
_refine_ls_extinction_method     none
_refine_ls_extinction_coef       ?
_refine_ls_number_reflns         5181
_refine_ls_number_parameters     362
_refine_ls_number_restraints     0
_refine_ls_R_factor_all          0.0537
_refine_ls_R_factor_gt           0.0476
_refine_ls_wR_factor_ref         0.1420
_refine_ls_wR_factor_gt          0.1371
_refine_ls_goodness_of_fit_ref   1.088
_refine_ls_restrained_S_all      1.088
_refine_ls_shift/su_max          0.001
_refine_ls_shift/su_mean         0.000

loop_
_atom_site_label
_atom_site_type_symbol
_atom_site_fract_x
_atom_site_fract_y
_atom_site_fract_z
_atom_site_U_iso_or_equiv
_atom_site_adp_type
_atom_site_occupancy
_atom_site_symmetry_multiplicity
_atom_site_calc_flag
_atom_site_refinement_flags
_atom_site_disorder_assembly
_atom_site_disorder_group
I1 I -0.00339(3) 0.82339(3) 0.06395(2) 0.01898(14) Uani 1 1 d . . .
Cu1 Cu 0.06591(6) 1.02660(6) 0.09132(5) 0.01832(18) Uani 1 1 d . . .
C1 C 0.6976(5) 0.6698(4) 0.4055(4) 0.0144(10) Uani 1 1 d . . .
C2 C 0.7089(5) 0.5425(4) 0.3761(4) 0.0166(10) Uani 1 1 d . . .
H2A H 0.6379 0.5073 0.4195 0.020 Uiso 1 1 calc R . .
H2B H 0.6877 0.5424 0.3052 0.020 Uiso 1 1 calc R . .
C3 C 0.8565(6) 0.4688(5) 0.3878(4) 0.0217(11) Uani 1 1 d . . .
H3A H 0.8769 0.4671 0.4591 0.026 Uiso 1 1 calc R . .
H3B H 0.8591 0.3879 0.3701 0.026 Uiso 1 1 calc R . .
C4 C 0.9692(6) 0.5182(5) 0.3200(4) 0.0245(12) Uani 1 1 d . . .
H4A H 0.9546 0.5125 0.2483 0.029 Uiso 1 1 calc R . .
H4B H 1.0636 0.4720 0.3318 0.029 Uiso 1 1 calc R . .
C5 C 0.9624(5) 0.6457(5) 0.3415(4) 0.0191(11) Uani 1 1 d . . .
H5A H 1.0290 0.6783 0.2918 0.023 Uiso 1 1 calc R . .
H5B H 0.9921 0.6499 0.4096 0.023 Uiso 1 1 calc R . .
C6 C 0.8135(5) 0.7187(4) 0.3358(4) 0.0155(10) Uani 1 1 d . . .
H6A H 0.7898 0.7230 0.2651 0.019 Uiso 1 1 calc R . .
H6B H 0.8127 0.7989 0.3546 0.019 Uiso 1 1 calc R . .
C11 C 0.5533(5) 0.7470(4) 0.3866(4) 0.0132(10) Uani 1 1 d . . .
C12 C 0.5319(5) 0.8667(4) 0.3999(4) 0.0147(10) Uani 1 1 d . . .
H12A H 0.6071 0.8981 0.4191 0.018 Uiso 1 1 calc R . .
C13 C 0.4038(5) 0.9408(4) 0.3857(4) 0.0147(10) Uani 1 1 d . . .
H13A H 0.3928 1.0221 0.3932 0.018 Uiso 1 1 calc R . .
C14 C 0.2908(5) 0.8949(4) 0.3602(4) 0.0136(10) Uani 1 1 d . . .
C15 C 0.3089(5) 0.7763(4) 0.3482(4) 0.0155(10) Uani 1 1 d . . .
H15A H 0.2326 0.7442 0.3320 0.019 Uiso 1 1 calc R . .
C16 C 0.4405(5) 0.7042(4) 0.3603(4) 0.0153(10) Uani 1 1 d . . .
H16A H 0.4526 0.6235 0.3501 0.018 Uiso 1 1 calc R . .
O1 O 0.1680(3) 0.9747(3) 0.3508(3) 0.0145(7) Uani 1 1 d . . .
C21 C 0.7111(5) 0.6755(4) 0.5186(4) 0.0145(10) Uani 1 1 d . . .
C22 C 0.7822(5) 0.7506(4) 0.5583(4) 0.0160(10) Uani 1 1 d . . .
H22A H 0.8349 0.7952 0.5131 0.019 Uiso 1 1 calc R . .
C23 C 0.7792(5) 0.7630(4) 0.6621(4) 0.0176(10) Uani 1 1 d . . .
H23A H 0.8282 0.8160 0.6864 0.021 Uiso 1 1 calc R . .
C24 C 0.7044(5) 0.6978(4) 0.7292(4) 0.0158(10) Uani 1 1 d . . .
C25 C 0.6344(5) 0.6199(4) 0.6925(4) 0.0174(10) Uani 1 1 d . . .
H25A H 0.5845 0.5735 0.7381 0.021 Uiso 1 1 calc R . .
C26 C 0.6375(5) 0.6098(4) 0.5897(4) 0.0174(11) Uani 1 1 d . . .
H26A H 0.5881 0.5568 0.5659 0.021 Uiso 1 1 calc R . .
O2 O 0.6938(4) 0.7015(3) 0.8332(3) 0.0226(8) Uani 1 1 d . . .
C30 C 0.0491(5) 0.9307(4) 0.3254(4) 0.0149(10) Uani 1 1 d . . .
H30A H 0.0195 0.8775 0.3805 0.018 Uiso 1 1 calc R . .
H30B H 0.0745 0.8872 0.2628 0.018 Uiso 1 1 calc R . .
C31 C -0.0682(5) 1.0330(4) 0.3104(4) 0.0151(10) Uani 1 1 d . . .
C32 C -0.1694(5) 1.0707(5) 0.3890(4) 0.0184(11) Uani 1 1 d . . .
H32A H -0.1659 1.0307 0.4533 0.022 Uiso 1 1 calc R . .
C33 C -0.2753(6) 1.1667(5) 0.3734(4) 0.0218(11) Uani 1 1 d . . .
H33A H -0.3452 1.1935 0.4265 0.026 Uiso 1 1 calc R . .
C34 C -0.2772(6) 1.2228(5) 0.2790(4) 0.0210(11) Uani 1 1 d . . .
H34A H -0.3487 1.2887 0.2658 0.025 Uiso 1 1 calc R . .
C35 C -0.1726(5) 1.1807(5) 0.2037(4) 0.0182(11) Uani 1 1 d . . .
H35A H -0.1744 1.2200 0.1391 0.022 Uiso 1 1 calc R . .
N1 N -0.0695(4) 1.0880(4) 0.2170(3) 0.0161(9) Uani 1 1 d . . .
C40 C 0.7543(6) 0.7864(5) 0.8744(4) 0.0218(11) Uani 1 1 d . . .
H40A H 0.8468 0.7893 0.8362 0.026 Uiso 1 1 calc R . .
H40B H 0.7712 0.7624 0.9454 0.026 Uiso 1 1 calc R . .
C41 C 0.6616(6) 0.9072(5) 0.8713(4) 0.0199(11) Uani 1 1 d . . .
C42 C 0.5189(6) 0.9245(6) 0.8572(4) 0.0250(12) Uani 1 1 d . . .
H42A H 0.4785 0.8605 0.8446 0.030 Uiso 1 1 calc R . .
C43 C 0.4368(6) 1.0342(6) 0.8617(4) 0.0274(13) Uani 1 1 d . . .
H43A H 0.3391 1.0470 0.8529 0.033 Uiso 1 1 calc R . .
C44 C 0.4993(6) 1.1266(5) 0.8794(4) 0.0257(12) Uani 1 1 d . . .
H44A H 0.4457 1.2038 0.8826 0.031 Uiso 1 1 calc R . .
C45 C 0.6416(6) 1.1027(5) 0.8922(4) 0.0211(11) Uani 1 1 d . . .
H45A H 0.6839 1.1657 0.9047 0.025 Uiso 1 1 calc R . .
N2 N 0.7240(5) 0.9959(4) 0.8882(3) 0.0181(9) Uani 1 1 d . . .
Cl1 Cl 0.2360(6) 0.4703(5) 0.9283(4) 0.1434(17) Uani 1 1 d . . .
Cl2 Cl 0.4173(6) 0.6238(5) 0.9572(4) 0.1428(17) Uani 1 1 d . . .
C50 C 0.2995(19) 0.5406(12) 1.0176(11) 0.055(5) Uani 0.553(19) 1 d P A 1
H50A H 0.3484 0.4827 1.0660 0.066 Uiso 0.553(19) 1 calc PR A 1
H50B H 0.2202 0.5917 1.0556 0.066 Uiso 0.553(19) 1 calc PR A 1
C51 C 0.360(2) 0.536(2) 0.8750(16) 0.074(8) Uani 0.447(19) 1 d P A 2
H51A H 0.3243 0.5847 0.8163 0.089 Uiso 0.447(19) 1 calc PR A 2
H51B H 0.4416 0.4763 0.8496 0.089 Uiso 0.447(19) 1 calc PR A 2

loop_
_atom_site_aniso_label
_atom_site_aniso_U_11
_atom_site_aniso_U_22
_atom_site_aniso_U_33
_atom_site_aniso_U_23
_atom_site_aniso_U_13
_atom_site_aniso_U_12
I1 0.0235(2) 0.0208(2) 0.0135(2) 0.00170(13) -0.00435(13) -0.00614(14)
Cu1 0.0151(3) 0.0207(4) 0.0177(3) 0.0006(3) 0.0006(2) -0.0018(3)
C1 0.012(2) 0.014(2) 0.017(2) -0.0004(19) -0.0012(19) -0.0028(19)
C2 0.015(2) 0.016(3) 0.019(3) -0.002(2) -0.003(2) -0.004(2)
C3 0.020(3) 0.013(3) 0.031(3) -0.002(2) -0.006(2) 0.000(2)
C4 0.015(3) 0.025(3) 0.032(3) -0.007(2) -0.003(2) 0.002(2)
C5 0.014(2) 0.022(3) 0.021(3) 0.000(2) -0.001(2) -0.004(2)
C6 0.012(2) 0.017(3) 0.017(2) 0.000(2) -0.0014(19) -0.004(2)
C11 0.010(2) 0.017(3) 0.012(2) 0.0009(19) -0.0002(18) -0.0035(19)
C12 0.011(2) 0.018(3) 0.016(2) -0.001(2) -0.0018(18) -0.0060(19)
C13 0.015(2) 0.014(2) 0.015(2) -0.0018(19) -0.0025(19) -0.0030(19)
C14 0.009(2) 0.019(3) 0.011(2) 0.0019(19) -0.0002(18) -0.0015(19)
C15 0.014(2) 0.018(3) 0.016(2) 0.001(2) -0.0036(19) -0.007(2)
C16 0.015(2) 0.014(2) 0.016(2) 0.0005(19) -0.0024(19) -0.0034(19)
O1 0.0101(16) 0.0152(17) 0.0186(17) -0.0011(14) -0.0038(13) -0.0024(13)
C21 0.010(2) 0.013(2) 0.020(3) -0.0004(19) -0.0026(19) 0.0014(18)
C22 0.015(2) 0.015(2) 0.019(3) 0.003(2) -0.002(2) -0.0051(19)
C23 0.016(2) 0.015(2) 0.023(3) -0.003(2) -0.004(2) -0.003(2)
C24 0.018(2) 0.014(2) 0.015(2) 0.0002(19) -0.0034(19) -0.002(2)
C25 0.012(2) 0.019(3) 0.021(3) 0.005(2) 0.000(2) -0.005(2)
C26 0.015(2) 0.015(2) 0.023(3) 0.001(2) -0.008(2) -0.003(2)
O2 0.026(2) 0.024(2) 0.0198(19) 0.0009(16) -0.0041(15) -0.0092(16)
C30 0.012(2) 0.018(3) 0.016(2) 0.000(2) -0.0025(19) -0.006(2)
C31 0.012(2) 0.018(3) 0.016(2) 0.001(2) -0.0032(19) -0.006(2)
C32 0.018(3) 0.021(3) 0.015(2) -0.002(2) -0.001(2) -0.004(2)
C33 0.017(3) 0.026(3) 0.021(3) -0.004(2) 0.001(2) -0.002(2)
C34 0.016(3) 0.021(3) 0.025(3) 0.000(2) -0.002(2) 0.001(2)
C35 0.016(3) 0.021(3) 0.016(2) 0.002(2) -0.003(2) 0.000(2)
N1 0.013(2) 0.019(2) 0.016(2) 0.0007(17) -0.0021(16) -0.0029(17)
C40 0.025(3) 0.025(3) 0.017(3) -0.002(2) -0.007(2) -0.006(2)
C41 0.019(3) 0.028(3) 0.012(2) 0.000(2) 0.001(2) -0.004(2)
C42 0.019(3) 0.038(3) 0.019(3) -0.003(2) -0.001(2) -0.009(2)
C43 0.017(3) 0.047(4) 0.015(3) 0.000(2) -0.002(2) 0.000(3)
C44 0.022(3) 0.031(3) 0.019(3) 0.000(2) 0.001(2) 0.004(2)
C45 0.020(3) 0.025(3) 0.015(3) 0.001(2) 0.001(2) -0.001(2)
N2 0.017(2) 0.024(2) 0.012(2) -0.0003(17) 0.0010(17) -0.0023(18)
Cl1 0.172(5) 0.151(4) 0.114(3) -0.002(3) -0.045(3) -0.032(3)
Cl2 0.166(4) 0.141(4) 0.137(4) 0.035(3) -0.054(3) -0.061(3)
C50 0.083(12) 0.034(8) 0.049(9) 0.004(6) -0.002(8) -0.015(7)
C51 0.056(13) 0.12(2) 0.052(12) 0.014(12) -0.006(10) -0.032(13)

_geom_special_details            
; 
 All esds (except the esd in the dihedral angle between two l.s. planes) 
 are estimated using the full covariance matrix.  The cell esds are taken 
 into account individually in the estimation of esds in distances, angles 
 and torsion angles; correlations between esds in cell parameters are only 
 used when they are defined by crystal symmetry.  An approximate (isotropic) 
 treatment of cell esds is used for estimating esds involving l.s. planes. 
;

loop_
_geom_bond_atom_site_label_1
_geom_bond_atom_site_label_2
_geom_bond_distance
_geom_bond_site_symmetry_2
_geom_bond_publ_flag
I1 Cu1 2.6654(7) 2_575 ?
I1 Cu1 2.6697(7) . ?
Cu1 N2 2.053(4) 2_676 ?
Cu1 N1 2.089(4) . ?
Cu1 I1 2.6654(7) 2_575 ?
Cu1 Cu1 3.0306(13) 2_575 ?
C1 C21 1.535(7) . ?
C1 C11 1.543(6) . ?
C1 C2 1.552(7) . ?
C1 C6 1.560(7) . ?
C2 C3 1.535(7) . ?
C2 H2A 0.9900 . ?
C2 H2B 0.9900 . ?
C3 C4 1.528(8) . ?
C3 H3A 0.9900 . ?
C3 H3B 0.9900 . ?
C4 C5 1.532(8) . ?
C4 H4A 0.9900 . ?
C4 H4B 0.9900 . ?
C5 C6 1.532(7) . ?
C5 H5A 0.9900 . ?
C5 H5B 0.9900 . ?
C6 H6A 0.9900 . ?
C6 H6B 0.9900 . ?
C11 C16 1.385(7) . ?
C11 C12 1.399(7) . ?
C12 C13 1.390(7) . ?
C12 H12A 0.9500 . ?
C13 C14 1.402(7) . ?
C13 H13A 0.9500 . ?
C14 O1 1.371(6) . ?
C14 C15 1.386(7) . ?
C15 C16 1.401(7) . ?
C15 H15A 0.9500 . ?
C16 H16A 0.9500 . ?
O1 C30 1.441(6) . ?
C21 C22 1.390(7) . ?
C21 C26 1.410(7) . ?
C22 C23 1.399(7) . ?
C22 H22A 0.9500 . ?
C23 C24 1.383(7) . ?
C23 H23A 0.9500 . ?
C24 O2 1.382(6) . ?
C24 C25 1.390(8) . ?
C25 C26 1.381(8) . ?
C25 H25A 0.9500 . ?
C26 H26A 0.9500 . ?
O2 C40 1.425(7) . ?
C30 C31 1.497(7) . ?
C30 H30A 0.9900 . ?
C30 H30B 0.9900 . ?
C31 N1 1.363(7) . ?
C31 C32 1.387(7) . ?
C32 C33 1.384(8) . ?
C32 H32A 0.9500 . ?
C33 C34 1.381(8) . ?
C33 H33A 0.9500 . ?
C34 C35 1.388(7) . ?
C34 H34A 0.9500 . ?
C35 N1 1.337(7) . ?
C35 H35A 0.9500 . ?
C40 C41 1.518(8) . ?
C40 H40A 0.9900 . ?
C40 H40B 0.9900 . ?
C41 N2 1.352(7) . ?
C41 C42 1.393(8) . ?
C42 C43 1.372(9) . ?
C42 H42A 0.9500 . ?
C43 C44 1.394(9) . ?
C43 H43A 0.9500 . ?
C44 C45 1.381(8) . ?
C44 H44A 0.9500 . ?
C45 N2 1.344(7) . ?
C45 H45A 0.9500 . ?
N2 Cu1 2.053(4) 2_676 ?
Cl1 C51 1.64(2) . ?
Cl1 C50 1.728(16) . ?
Cl2 C50 1.752(16) . ?
Cl2 C51 1.76(2) . ?
C50 H50A 0.9900 . ?
C50 H50B 0.9900 . ?
C51 H51A 0.9900 . ?
C51 H51B 0.9900 . ?

loop_
_geom_angle_atom_site_label_1
_geom_angle_atom_site_label_2
_geom_angle_atom_site_label_3
_geom_angle
_geom_angle_site_symmetry_1
_geom_angle_site_symmetry_3
_geom_angle_publ_flag
Cu1 I1 Cu1 69.23(2) 2_575 . ?
N2 Cu1 N1 113.87(16) 2_676 . ?
N2 Cu1 I1 110.43(12) 2_676 2_575 ?
N1 Cu1 I1 107.57(12) . 2_575 ?
N2 Cu1 I1 110.87(13) 2_676 . ?
N1 Cu1 I1 103.09(12) . . ?
I1 Cu1 I1 110.77(2) 2_575 . ?
N2 Cu1 Cu1 128.37(12) 2_676 2_575 ?
N1 Cu1 Cu1 117.71(12) . 2_575 ?
I1 Cu1 Cu1 55.45(2) 2_575 2_575 ?
I1 Cu1 Cu1 55.32(2) . 2_575 ?
C21 C1 C11 105.7(4) . . ?
C21 C1 C2 111.1(4) . . ?
C11 C1 C2 112.2(4) . . ?
C21 C1 C6 113.6(4) . . ?
C11 C1 C6 107.9(4) . . ?
C2 C1 C6 106.4(4) . . ?
C3 C2 C1 111.7(4) . . ?
C3 C2 H2A 109.3 . . ?
C1 C2 H2A 109.3 . . ?
C3 C2 H2B 109.3 . . ?
C1 C2 H2B 109.3 . . ?
H2A C2 H2B 107.9 . . ?
C4 C3 C2 111.1(4) . . ?
C4 C3 H3A 109.4 . . ?
C2 C3 H3A 109.4 . . ?
C4 C3 H3B 109.4 . . ?
C2 C3 H3B 109.4 . . ?
H3A C3 H3B 108.0 . . ?
C3 C4 C5 110.7(4) . . ?
C3 C4 H4A 109.5 . . ?
C5 C4 H4A 109.5 . . ?
C3 C4 H4B 109.5 . . ?
C5 C4 H4B 109.5 . . ?
H4A C4 H4B 108.1 . . ?
C4 C5 C6 111.6(4) . . ?
C4 C5 H5A 109.3 . . ?
C6 C5 H5A 109.3 . . ?
C4 C5 H5B 109.3 . . ?
C6 C5 H5B 109.3 . . ?
H5A C5 H5B 108.0 . . ?
C5 C6 C1 113.7(4) . . ?
C5 C6 H6A 108.8 . . ?
C1 C6 H6A 108.8 . . ?
C5 C6 H6B 108.8 . . ?
C1 C6 H6B 108.8 . . ?
H6A C6 H6B 107.7 . . ?
C16 C11 C12 117.3(4) . . ?
C16 C11 C1 123.7(4) . . ?
C12 C11 C1 119.0(4) . . ?
C13 C12 C11 121.9(4) . . ?
C13 C12 H12A 119.1 . . ?
C11 C12 H12A 119.1 . . ?
C12 C13 C14 119.5(5) . . ?
C12 C13 H13A 120.2 . . ?
C14 C13 H13A 120.2 . . ?
O1 C14 C15 125.4(4) . . ?
O1 C14 C13 115.0(4) . . ?
C15 C14 C13 119.6(4) . . ?
C14 C15 C16 119.5(5) . . ?
C14 C15 H15A 120.2 . . ?
C16 C15 H15A 120.2 . . ?
C11 C16 C15 122.1(5) . . ?
C11 C16 H16A 119.0 . . ?
C15 C16 H16A 119.0 . . ?
C14 O1 C30 116.6(4) . . ?
C22 C21 C26 115.9(5) . . ?
C22 C21 C1 124.1(4) . . ?
C26 C21 C1 119.8(4) . . ?
C21 C22 C23 122.6(5) . . ?
C21 C22 H22A 118.7 . . ?
C23 C22 H22A 118.7 . . ?
C24 C23 C22 119.6(5) . . ?
C24 C23 H23A 120.2 . . ?
C22 C23 H23A 120.2 . . ?
O2 C24 C23 125.2(5) . . ?
O2 C24 C25 115.3(4) . . ?
C23 C24 C25 119.5(5) . . ?
C26 C25 C24 120.0(5) . . ?
C26 C25 H25A 120.0 . . ?
C24 C25 H25A 120.0 . . ?
C25 C26 C21 122.4(5) . . ?
C25 C26 H26A 118.8 . . ?
C21 C26 H26A 118.8 . . ?
C24 O2 C40 117.5(4) . . ?
O1 C30 C31 107.5(4) . . ?
O1 C30 H30A 110.2 . . ?
C