####################################################################### 
# 
# This file contains crystal structure data downloaded from the 
# Cambridge Structural Database (CSD) hosted by the Cambridge 
# Crystallographic Data Centre (CCDC).
# 
# Full information about CCDC data access policies and citation 
# guidelines are available at http://www.ccdc.cam.ac.uk/access/V1 
# 
# Audit and citation data items may have been added by the CCDC. 
# Please retain this information to preserve the provenance of 
# this file and to allow appropriate attribution of the data. 
# 
#######################################################################

data_n2229c
_audit_block_doi                 10.5517/cc11ng8f
_database_code_depnum_ccdc_archive 'CCDC 972974'
loop_
_citation_id
_citation_doi
_citation_year
1 10.1002/ejoc.201402018 2014
_audit_update_record             
;
2013-11-20 deposited with the CCDC.	2024-07-13 downloaded from the CCDC.
;
_audit_creation_date             2012-10-18
_audit_creation_method           
;
  Olex2 1.2
  (compiled May  9 2012 12:37:22, GUI svn.r4230)
;
_chemical_name_common            ?
_chemical_name_systematic        
;
 ?
;
_chemical_formula_moiety         
'2(C69 H63 N9 O10 Zn), 4(F6 P), 11(C2 H3 N), C6 H14 O'
_chemical_formula_sum            'C166 H173 F24 N29 O21 P4 Zn2'
_chemical_formula_weight         3620.94
_chemical_melting_point          ?
loop_
_atom_type_symbol
_atom_type_description
_atom_type_scat_dispersion_real
_atom_type_scat_dispersion_imag
_atom_type_scat_source
C C 0.0181 0.0091 'International Tables Vol C Tables 4.2.6.8 and 6.1.1.4'
H H 0.0000 0.0000 'International Tables Vol C Tables 4.2.6.8 and 6.1.1.4'
F F 0.0727 0.0534 'International Tables Vol C Tables 4.2.6.8 and 6.1.1.4'
N N 0.0311 0.0180 'International Tables Vol C Tables 4.2.6.8 and 6.1.1.4'
O O 0.0492 0.0322 'International Tables Vol C Tables 4.2.6.8 and 6.1.1.4'
P P 0.2955 0.4335 'International Tables Vol C Tables 4.2.6.8 and 6.1.1.4'
Zn Zn -1.5491 0.6778 'International Tables Vol C Tables 4.2.6.8 and 6.1.1.4'

_space_group_crystal_system      triclinic
_space_group_IT_number           2
_space_group_name_H-M_alt        'P -1'
_space_group_name_Hall           '-P 1'
loop_
_space_group_symop_operation_xyz
'x, y, z'
'-x, -y, -z'

_cell_length_a                   12.5529(4)
_cell_length_b                   17.2084(6)
_cell_length_c                   22.0910(7)
_cell_angle_alpha                69.984(2)
_cell_angle_beta                 82.111(2)
_cell_angle_gamma                87.395(2)
_cell_volume                     4441.3(3)
_cell_formula_units_Z            1
_cell_measurement_reflns_used    9900
_cell_measurement_temperature    100(2)
_cell_measurement_theta_max      64.13
_cell_measurement_theta_min      2.84
_exptl_absorpt_coefficient_mu    1.497
_exptl_absorpt_correction_T_max  0.7525
_exptl_absorpt_correction_T_min  0.6059
_exptl_absorpt_correction_type   multi-scan
_exptl_absorpt_process_details   
;
SADABS-2008/1 (Bruker,2008) was used for absorption correction.
wR2(int) was 0.0717 before and 0.0520 after correction.
The Ratio of minimum to maximum transmission is 0.8052.
The \l/2 correction factor is 0.0015.
;
_exptl_crystal_colour            colourless
_exptl_crystal_density_diffrn    1.354
_exptl_crystal_density_meas      .
_exptl_crystal_density_method    ?
_exptl_crystal_description       plate
_exptl_crystal_F_000             1876
_exptl_crystal_size_max          0.135
_exptl_crystal_size_mid          0.073
_exptl_crystal_size_min          0.016
_exptl_special_details           
;
 ?
;
_exptl_transmission_factor_max   ?
_exptl_transmission_factor_min   ?
_diffrn_reflns_av_R_equivalents  0.0468
_diffrn_reflns_Laue_measured_fraction_full 0.985
_diffrn_reflns_Laue_measured_fraction_max 0.985
_diffrn_reflns_limit_h_max       14
_diffrn_reflns_limit_h_min       -14
_diffrn_reflns_limit_k_max       19
_diffrn_reflns_limit_k_min       -19
_diffrn_reflns_limit_l_max       25
_diffrn_reflns_limit_l_min       -24
_diffrn_reflns_number            32278
_diffrn_reflns_point_group_measured_fraction_full 0.985
_diffrn_reflns_point_group_measured_fraction_max 0.985
_diffrn_reflns_sigmaI/netI       0.0563
_diffrn_reflns_theta_full        62.380
_diffrn_reflns_theta_max         62.380
_diffrn_reflns_theta_min         2.733
_diffrn_ambient_temperature      100.02
_diffrn_detector_area_resol_mean 8
_diffrn_measured_fraction_theta_full 0.985
_diffrn_measured_fraction_theta_max 0.985
_diffrn_measurement_device_type  'Bruker Kappa APEX CCD area detector'
_diffrn_measurement_method       '\w and \f scans'
_diffrn_radiation_monochromator  'Quazar optics'
_diffrn_radiation_type           CuK\a
_diffrn_radiation_wavelength     1.54178
_diffrn_source                   microsource
_diffrn_standards_number         0
_reflns_Friedel_coverage         0.000
_reflns_Friedel_fraction_full    .
_reflns_Friedel_fraction_max     .
_reflns_number_gt                10915
_reflns_number_total             13908
_reflns_special_details          
;
 The reflections were merged according to the crystal class
 for structure refinement and the calculation of statistics.
 _reflns_Friedel_fraction is defined as the number of unique 
 Friedel pairs measured divided by the number that would be
 possible theoretically, ignoring centric projections and
 systematic absences.
;
_reflns_threshold_expression     'I > 2\s(I)'
_computing_cell_refinement       'SAINT V7.23A (Bruker, 2005)'
_computing_data_collection       'APEX2 V2.1-4 (Bruker, 2007)'
_computing_data_reduction        'Bruker SAINT'
_computing_molecular_graphics    
;
O. V. Dolomanov, L. J. Bourhis, R. J. Gildea, J. A. K. Howard and H. Puschmann,
OLEX2: a complete structure solution, refinement and analysis program.
J. Appl. Cryst. (2009). 42, 339-341.
;
_computing_publication_material  
;
O. V. Dolomanov, L. J. Bourhis, R. J. Gildea, J. A. K. Howard and H. Puschmann,
OLEX2: a complete structure solution, refinement and analysis program.
J. Appl. Cryst. (2009). 42, 339-341.
;
_computing_structure_refinement  
;
XLMP, G.M. Sheldrick, Acta Cryst.
(2008). A64, 112-122
;
_computing_structure_solution    
;
XS, G.M. Sheldrick, Acta Cryst.
(2008). A64, 112-122
;
_refine_diff_density_max         1.141
_refine_diff_density_min         -0.873
_refine_diff_density_rms         0.099
_refine_ls_extinction_coef       .
_refine_ls_extinction_method     none
_refine_ls_goodness_of_fit_ref   1.038
_refine_ls_hydrogen_treatment    constr
_refine_ls_matrix_type           full
_refine_ls_number_parameters     1176
_refine_ls_number_reflns         13908
_refine_ls_number_restraints     90
_refine_ls_R_factor_all          0.0894
_refine_ls_R_factor_gt           0.0722
_refine_ls_restrained_S_all      1.039
_refine_ls_shift/su_max          0.008
_refine_ls_shift/su_mean         0.000
_refine_ls_structure_factor_coef Fsqd
_refine_ls_weighting_details     
;
 w=1/[\s^2^(Fo^2^)+(0.1394P)^2^+5.9363P]
 where P=(Fo^2^+2Fc^2^)/3
;
_refine_ls_weighting_scheme      calc
_refine_ls_wR_factor_gt          0.2036
_refine_ls_wR_factor_ref         0.2233
_refine_special_details          
;
 Distance restraints were refined for the disordered acetonitrile
 solvent molceules and the disordered fluorines on the PF6 molecule.
 Group anisotropic displacement parameters were refined for the disordered
 acetonitrile and Diisopropyl ether solvent molecules. Rigid bond restraints
 (esd 0.01) were imposed on the displacement parameters as well as 
 restraints on similar amplitudes (esd 0.05) separated by less than 
 1.7 Ang. on the disordered fluorines.
;
_refinement_special_details      
'Distance restraints were refined for the disordered acetonitrile solvent molceules and the disordered fluorines on the PF6 molecule. Group anisotropic displacement parameters were refined for the disordered acetonitrile and diethylether solvent molecules.'
_atom_sites_solution_hydrogens   geom
_atom_sites_solution_primary     direct
_atom_sites_solution_secondary   ?
loop_
_atom_site_label
_atom_site_type_symbol
_atom_site_fract_x
_atom_site_fract_y
_atom_site_fract_z
_atom_site_U_iso_or_equiv
_atom_site_adp_type
_atom_site_occupancy
_atom_site_site_symmetry_order
_atom_site_calc_flag
_atom_site_refinement_flags
_atom_site_disorder_assembly
_atom_site_disorder_group
Zn1 Zn 0.48772(3) 0.45348(3) 0.23015(2) 0.02937(17) Uani 1 1 d D . .
O1 O -0.2164(2) 0.3049(2) 0.34160(14) 0.0454(8) Uani 1 1 d D . .
O2 O 0.4499(2) 0.1916(2) -0.01661(15) 0.0439(7) Uani 1 1 d D . .
O3 O 0.5717(2) 0.06060(19) 0.03777(15) 0.0437(7) Uani 1 1 d D . .
O4 O 0.6848(2) 0.05696(18) 0.13388(14) 0.0407(7) Uani 1 1 d D . .
O5 O 1.0057(2) 0.65210(19) -0.03893(13) 0.0404(7) Uani 1 1 d D . .
O6 O 1.1473(2) 0.6775(2) 0.03237(15) 0.0466(8) Uani 1 1 d D . .
O7 O 1.0966(2) 0.6465(2) 0.15979(15) 0.0477(8) Uani 1 1 d D . .
O8 O 0.5059(2) 0.67533(19) 0.49447(14) 0.0437(7) Uani 1 1 d D . .
O9 O 0.3718(2) 0.80418(18) 0.46026(14) 0.0398(7) Uani 1 1 d D . .
O10 O 0.2790(2) 0.84192(18) 0.35152(15) 0.0438(7) Uani 1 1 d D . .
N1 N 0.3553(2) 0.4971(2) 0.27570(16) 0.0326(7) Uani 1 1 d D . .
N2 N 0.3864(2) 0.3855(2) 0.20086(15) 0.0310(7) Uani 1 1 d D . .
N3 N 0.6080(2) 0.4343(2) 0.16262(15) 0.0295(7) Uani 1 1 d D . .
N4 N 0.5760(2) 0.5521(2) 0.23014(15) 0.0302(7) Uani 1 1 d D . .
N5 N -0.4867(2) 0.3526(2) 0.31769(15) 0.0313(7) Uani 1 1 d D . .
N6 N -0.5713(2) 0.3185(2) 0.35945(16) 0.0343(7) Uani 1 1 d D . .
N7 N -0.5356(2) 0.2500(2) 0.40200(16) 0.0328(7) Uani 1 1 d D . .
N8 N -0.6636(2) 0.1227(2) 0.38669(16) 0.0357(8) Uani 1 1 d D . .
N9 N -0.4786(3) -0.0893(2) 0.17588(19) 0.0486(10) Uani 1 1 d D . .
C1 C 0.3595(3) 0.5490(3) 0.31047(19) 0.0343(9) Uani 1 1 d D . .
C2 C 0.2580(3) 0.5447(3) 0.3515(2) 0.0371(9) Uani 1 1 d D . .
H2 H 0.2399 0.5737 0.3812 0.045 Uiso 1 1 calc RD . .
C3 C 0.1941(3) 0.4922(3) 0.3398(2) 0.0389(10) Uani 1 1 d D . .
H3 H 0.1223 0.4775 0.3595 0.047 Uiso 1 1 calc RD . .
C4 C 0.2548(3) 0.4626(3) 0.29192(19) 0.0331(9) Uani 1 1 d D . .
C5 C 0.2175(3) 0.4074(3) 0.2654(2) 0.0337(9) Uani 1 1 d D . .
C6 C 0.2781(3) 0.3731(3) 0.22252(19) 0.0318(8) Uani 1 1 d D . .
C7 C 0.2391(3) 0.3120(3) 0.19964(19) 0.0342(9) Uani 1 1 d D . .
H7 H 0.1672 0.2924 0.2073 0.041 Uiso 1 1 calc RD . .
C8 C 0.3227(3) 0.2879(3) 0.16549(19) 0.0331(9) Uani 1 1 d D . .
H8 H 0.3208 0.2486 0.1442 0.040 Uiso 1 1 calc RD . .
C9 C 0.4164(3) 0.3327(2) 0.16712(18) 0.0308(8) Uani 1 1 d D . .
C10 C 0.5227(3) 0.3219(2) 0.14054(18) 0.0299(8) Uani 1 1 d D . .
C11 C 0.6118(3) 0.3702(2) 0.13901(18) 0.0295(8) Uani 1 1 d D . .
C12 C 0.7178(3) 0.3642(2) 0.10641(19) 0.0317(8) Uani 1 1 d D . .
H12 H 0.7420 0.3241 0.0869 0.038 Uiso 1 1 calc RD . .
C13 C 0.7760(3) 0.4266(2) 0.10897(19) 0.0315(8) Uani 1 1 d D . .
H13 H 0.8491 0.4387 0.0912 0.038 Uiso 1 1 calc RD . .
C14 C 0.7079(3) 0.4717(2) 0.14352(18) 0.0297(8) Uani 1 1 d D . .
C15 C 0.7372(3) 0.5425(2) 0.15538(18) 0.0289(8) Uani 1 1 d D . .
C16 C 0.6739(3) 0.5800(2) 0.19566(18) 0.0307(8) Uani 1 1 d D . .
C17 C 0.7032(3) 0.6532(2) 0.2074(2) 0.0339(9) Uani 1 1 d D . .
H17 H 0.7658 0.6861 0.1880 0.041 Uiso 1 1 calc RD . .
C18 C 0.6244(3) 0.6661(3) 0.2512(2) 0.0357(9) Uani 1 1 d D . .
H18 H 0.6224 0.7089 0.2694 0.043 Uiso 1 1 calc RD . .
C19 C 0.5444(3) 0.6035(2) 0.26516(19) 0.0313(8) Uani 1 1 d D . .
C20 C 0.4462(3) 0.5993(2) 0.30568(19) 0.0330(8) Uani 1 1 d D . .
C21 C 0.1015(3) 0.3815(3) 0.2849(2) 0.0339(9) Uani 1 1 d D . .
C22 C 0.0647(3) 0.3328(3) 0.3482(2) 0.0397(10) Uani 1 1 d D . .
H22 H 0.1129 0.3169 0.3799 0.048 Uiso 1 1 calc RD . .
C23 C -0.0412(3) 0.3074(3) 0.3656(2) 0.0408(10) Uani 1 1 d D . .
H23 H -0.0657 0.2735 0.4089 0.049 Uiso 1 1 calc RD . .
C24 C -0.1117(3) 0.3321(3) 0.3190(2) 0.0372(9) Uani 1 1 d D . .
C25 C -0.0772(3) 0.3803(3) 0.2563(2) 0.0356(9) Uani 1 1 d D . .
H25 H -0.1258 0.3968 0.2248 0.043 Uiso 1 1 calc RD . .
C26 C 0.0303(3) 0.4048(3) 0.2395(2) 0.0345(9) Uani 1 1 d D . .
H26 H 0.0548 0.4381 0.1960 0.041 Uiso 1 1 calc RD . .
C27 C -0.2904(3) 0.3310(3) 0.2954(2) 0.0450(11) Uani 1 1 d D . .
H27A H -0.2747 0.3038 0.2622 0.054 Uiso 1 1 calc RD . .
H27B H -0.2866 0.3917 0.2733 0.054 Uiso 1 1 calc RD . .
C28 C -0.3990(3) 0.3058(3) 0.33353(19) 0.0361(9) Uani 1 1 d D . .
C29 C -0.4294(3) 0.2391(3) 0.3875(2) 0.0414(10) Uani 1 1 d D . .
H29 H -0.3855 0.1950 0.4098 0.050 Uiso 1 1 calc RD . .
C30 C -0.6101(3) 0.1976(3) 0.4556(2) 0.0392(9) Uani 1 1 d D . .
H30A H -0.6383 0.2285 0.4848 0.047 Uiso 1 1 calc RD . .
H30B H -0.5715 0.1483 0.4810 0.047 Uiso 1 1 calc RD . .
C31 C -0.7026(3) 0.1704(3) 0.4302(2) 0.0398(10) Uani 1 1 d D . .
H31A H -0.7527 0.1357 0.4673 0.048 Uiso 1 1 calc RD . .
H31B H -0.7425 0.2197 0.4060 0.048 Uiso 1 1 calc RD . .
C32 C -0.6471(3) 0.1620(3) 0.3224(2) 0.0407(10) Uani 1 1 d D . .
H32 H -0.6600 0.2197 0.3049 0.049 Uiso 1 1 calc RD . .
C33 C -0.6112(4) 0.1181(3) 0.2819(2) 0.0430(10) Uani 1 1 d D . .
H33 H -0.6000 0.1458 0.2362 0.052 Uiso 1 1 calc RD . .
C34 C -0.5913(3) 0.0343(3) 0.3071(2) 0.0403(10) Uani 1 1 d D . .
C35 C -0.6081(3) -0.0041(3) 0.3739(2) 0.0416(10) Uani 1 1 d D . .
H35 H -0.5947 -0.0616 0.3928 0.050 Uiso 1 1 calc RD . .
C36 C -0.6446(3) 0.0421(3) 0.4126(2) 0.0389(9) Uani 1 1 d D . .
H36 H -0.6563 0.0161 0.4584 0.047 Uiso 1 1 calc RD . .
C37 C -0.5534(3) -0.0115(3) 0.2628(2) 0.0416(10) Uani 1 1 d D . .
C38 C -0.5989(4) 0.0043(3) 0.2058(2) 0.0464(11) Uani 1 1 d D . .
H38 H -0.6561 0.0429 0.1963 0.056 Uiso 1 1 calc RD . .
C39 C -0.5606(4) -0.0364(3) 0.1634(2) 0.0511(12) Uani 1 1 d D . .
H39 H -0.5927 -0.0268 0.1250 0.061 Uiso 1 1 calc RD . .
C40 C -0.4335(4) -0.1063(3) 0.2311(2) 0.0470(11) Uani 1 1 d D . .
H40 H -0.3753 -0.1441 0.2390 0.056 Uiso 1 1 calc RD . .
C41 C -0.4713(4) -0.0692(3) 0.2758(2) 0.0441(10) Uani 1 1 d D . .
H41 H -0.4415 -0.0831 0.3154 0.053 Uiso 1 1 calc RD . .
C42 C -0.4329(5) -0.1291(3) 0.1277(3) 0.0621(14) Uani 1 1 d D . .
H42A H -0.3572 -0.1132 0.1132 0.093 Uiso 1 1 calc RD . .
H42B H -0.4732 -0.1109 0.0903 0.093 Uiso 1 1 calc RD . .
H42C H -0.4382 -0.1894 0.1480 0.093 Uiso 1 1 calc RD . .
C43 C 0.5412(3) 0.2548(2) 0.11114(19) 0.0318(8) Uani 1 1 d D . .
C44 C 0.4888(3) 0.2574(3) 0.05896(19) 0.0336(9) Uani 1 1 d D . .
H44 H 0.4448 0.3034 0.0402 0.040 Uiso 1 1 calc RD . .
C45 C 0.5004(3) 0.1930(3) 0.0341(2) 0.0361(9) Uani 1 1 d D . .
C46 C 0.5670(3) 0.1267(3) 0.0599(2) 0.0353(9) Uani 1 1 d D . .
C47 C 0.6219(3) 0.1248(2) 0.1114(2) 0.0339(9) Uani 1 1 d D . .
C48 C 0.6085(3) 0.1885(2) 0.13762(19) 0.0324(8) Uani 1 1 d D . .
H48 H 0.6448 0.1867 0.1731 0.039 Uiso 1 1 calc RD . .
C49 C 0.3641(4) 0.2503(3) -0.0345(3) 0.0515(12) Uani 1 1 d D . .
H49A H 0.3277 0.2386 -0.0669 0.077 Uiso 1 1 calc RD . .
H49B H 0.3938 0.3064 -0.0527 0.077 Uiso 1 1 calc RD . .
H49C H 0.3124 0.2456 0.0041 0.077 Uiso 1 1 calc RD . .
C50 C 0.6697(4) 0.0537(3) -0.0020(2) 0.0506(11) Uani 1 1 d D . .
H50A H 0.6791 0.1031 -0.0411 0.076 Uiso 1 1 calc RD . .
H50B H 0.6664 0.0046 -0.0146 0.076 Uiso 1 1 calc RD . .
H50C H 0.7306 0.0488 0.0224 0.076 Uiso 1 1 calc RD . .
C51 C 0.7556(4) 0.0578(3) 0.1795(2) 0.0470(11) Uani 1 1 d D . .
H51A H 0.8044 0.1053 0.1601 0.070 Uiso 1 1 calc RD . .
H51B H 0.7975 0.0066 0.1907 0.070 Uiso 1 1 calc RD . .
H51C H 0.7131 0.0622 0.2189 0.070 Uiso 1 1 calc RD . .
C52 C 0.8446(3) 0.5801(2) 0.12286(19) 0.0299(8) Uani 1 1 d D . .
C53 C 0.8705(3) 0.6009(2) 0.05576(19) 0.0317(8) Uani 1 1 d D . .
H53 H 0.8188 0.5935 0.0306 0.038 Uiso 1 1 calc RD . .
C54 C 0.9720(3) 0.6326(3) 0.0255(2) 0.0345(9) Uani 1 1 d D . .
C55 C 1.0462(3) 0.6468(3) 0.0621(2) 0.0359(9) Uani 1 1 d D . .
C56 C 1.0195(3) 0.6286(3) 0.1282(2) 0.0359(9) Uani 1 1 d D . .
C57 C 0.9199(3) 0.5934(2) 0.15934(19) 0.0324(8) Uani 1 1 d D . .
H57 H 0.9035 0.5786 0.2051 0.039 Uiso 1 1 calc RD . .
C58 C 0.9306(4) 0.6421(4) -0.0785(2) 0.0497(12) Uani 1 1 d D . .
H58A H 0.9635 0.6602 -0.1240 0.075 Uiso 1 1 calc RD . .
H58B H 0.8665 0.6754 -0.0742 0.075 Uiso 1 1 calc RD . .
H58C H 0.9101 0.5837 -0.0646 0.075 Uiso 1 1 calc RD . .
C59 C 1.1506(5) 0.7641(4) 0.0026(3) 0.0760(19) Uani 1 1 d D . .
H59A H 1.0966 0.7815 -0.0275 0.114 Uiso 1 1 calc RD . .
H59B H 1.2222 0.7810 -0.0214 0.114 Uiso 1 1 calc RD . .
H59C H 1.1353 0.7902 0.0360 0.114 Uiso 1 1 calc RD . .
C60 C 1.0658(4) 0.6421(4) 0.2251(2) 0.0540(12) Uani 1 1 d D . .
H60A H 1.0025 0.6769 0.2274 0.081 Uiso 1 1 calc RD . .
H60B H 1.1252 0.6615 0.2408 0.081 Uiso 1 1 calc RD . .
H60C H 1.0484 0.5847 0.2522 0.081 Uiso 1 1 calc RD . .
C61 C 0.4314(3) 0.6562(3) 0.3447(2) 0.0353(9) Uani 1 1 d D . .
C62 C 0.4832(3) 0.6396(3) 0.3992(2) 0.0359(9) Uani 1 1 d D . .
H62 H 0.5325 0.5950 0.4100 0.043 Uiso 1 1 calc RD . .
C63 C 0.4626(3) 0.6891(3) 0.43840(19) 0.0363(9) Uani 1 1 d D . .
C64 C 0.3919(3) 0.7556(2) 0.4215(2) 0.0352(9) Uani 1 1 d D . .
C65 C 0.3436(3) 0.7732(3) 0.3653(2) 0.0358(9) Uani 1 1 d D . .
C66 C 0.3618(3) 0.7232(3) 0.3272(2) 0.035