####################################################################### 
# 
# This file contains crystal structure data downloaded from the 
# Cambridge Structural Database (CSD) hosted by the Cambridge 
# Crystallographic Data Centre (CCDC).
# 
# Full information about CCDC data access policies and citation 
# guidelines are available at http://www.ccdc.cam.ac.uk/access/V1 
# 
# Audit and citation data items may have been added by the CCDC. 
# Please retain this information to preserve the provenance of 
# this file and to allow appropriate attribution of the data. 
# 
#######################################################################

data_1
_audit_block_doi                 10.5517/cc11lmt2
_database_code_depnum_ccdc_archive 'CCDC 971224'
loop_
_citation_id
_citation_doi
_citation_year
1 10.1016/j.inoche.2014.01.017 2014
_audit_update_record             
;
2013-11-09 deposited with the CCDC.	2024-07-13 downloaded from the CCDC.
;

_audit_creation_method           SHELXL-97
_chemical_name_systematic        
; 
 ? 
;
_chemical_name_common            ?
_chemical_melting_point          ?
_chemical_formula_moiety         ?
_chemical_formula_sum            'C50 H46 Mn N8 O8'
_chemical_formula_weight         941.89

loop_
_atom_type_symbol
_atom_type_description
_atom_type_scat_dispersion_real
_atom_type_scat_dispersion_imag
_atom_type_scat_source
C C 0.0033 0.0016 'International Tables Vol C Tables 4.2.6.8 and 6.1.1.4'
H H 0.0000 0.0000 'International Tables Vol C Tables 4.2.6.8 and 6.1.1.4'
Mn Mn 0.3368 0.7283 'International Tables Vol C Tables 4.2.6.8 and 6.1.1.4'
N N 0.0061 0.0033 'International Tables Vol C Tables 4.2.6.8 and 6.1.1.4'
O O 0.0106 0.0060 'International Tables Vol C Tables 4.2.6.8 and 6.1.1.4'

_symmetry_cell_setting           Triclinic
_symmetry_space_group_name_H-M   P-1

loop_
_symmetry_equiv_pos_as_xyz
'x, y, z'
'-x, -y, -z'

_cell_length_a                   10.819(2)
_cell_length_b                   14.098(3)
_cell_length_c                   15.868(4)
_cell_angle_alpha                105.950(3)
_cell_angle_beta                 96.694(3)
_cell_angle_gamma                93.262(3)
_cell_volume                     2301.2(9)
_cell_formula_units_Z            2
_cell_measurement_temperature    293(2)
_cell_measurement_reflns_used    ?
_cell_measurement_theta_min      ?
_cell_measurement_theta_max      ?

_exptl_crystal_description       block
_exptl_crystal_colour            colorless
_exptl_crystal_size_max          0.12
_exptl_crystal_size_mid          0.06
_exptl_crystal_size_min          0.04
_exptl_crystal_density_meas      ?
_exptl_crystal_density_diffrn    1.359
_exptl_crystal_density_method    'not measured'
_exptl_crystal_F_000             982
_exptl_absorpt_coefficient_mu    0.351
_exptl_absorpt_correction_type   multi-scan
_exptl_absorpt_correction_T_min  0.9591
_exptl_absorpt_correction_T_max  0.9861
_exptl_absorpt_process_details   ?

_exptl_special_details           
; 
 ? 
;

_diffrn_ambient_temperature      293(2)
_diffrn_radiation_wavelength     0.71073
_diffrn_radiation_type           MoK\a
_diffrn_radiation_source         'fine-focus sealed tube'
_diffrn_radiation_monochromator  graphite
_diffrn_measurement_device_type  'CCD area detector'
_diffrn_measurement_method       'phi and omega scans'
_diffrn_detector_area_resol_mean ?
_diffrn_standards_number         ?
_diffrn_standards_interval_count ?
_diffrn_standards_interval_time  ?
_diffrn_standards_decay_%        ?
_diffrn_reflns_number            14582
_diffrn_reflns_av_R_equivalents  0.0278
_diffrn_reflns_av_sigmaI/netI    0.0720
_diffrn_reflns_limit_h_min       -14
_diffrn_reflns_limit_h_max       13
_diffrn_reflns_limit_k_min       -18
_diffrn_reflns_limit_k_max       18
_diffrn_reflns_limit_l_min       -20
_diffrn_reflns_limit_l_max       17
_diffrn_reflns_theta_min         1.71
_diffrn_reflns_theta_max         27.54
_reflns_number_total             10206
_reflns_number_gt                5877
_reflns_threshold_expression     >2sigma(I)

_computing_data_collection       'Bruker SMART'
_computing_cell_refinement       'Bruker SMART'
_computing_data_reduction        'Bruker SAINT'
_computing_structure_solution    'SHELXS-97 (Sheldrick, 1990)'
_computing_structure_refinement  'SHELXL-97 (Sheldrick, 1997)'
_computing_molecular_graphics    'Bruker SHELXTL'
_computing_publication_material  'Bruker SHELXTL'

_refine_special_details          
; 
 Refinement of F^2^ against ALL reflections.  The weighted R-factor wR and 
 goodness of fit S are based on F^2^, conventional R-factors R are based 
 on F, with F set to zero for negative F^2^. The threshold expression of 
 F^2^ > 2sigma(F^2^) is used only for calculating R-factors(gt) etc. and is 
 not relevant to the choice of reflections for refinement.  R-factors based 
 on F^2^ are statistically about twice as large as those based on F, and R- 
 factors based on ALL data will be even larger. 
;

_refine_ls_structure_factor_coef Fsqd
_refine_ls_matrix_type           full
_refine_ls_weighting_scheme      calc
_refine_ls_weighting_details     
'calc w=1/[\s^2^(Fo^2^)+(0.0643P)^2^+0.0000P] where P=(Fo^2^+2Fc^2^)/3'
_atom_sites_solution_primary     direct
_atom_sites_solution_secondary   difmap
_atom_sites_solution_hydrogens   geom
_refine_ls_hydrogen_treatment    mixed
_refine_ls_extinction_method     none
_refine_ls_extinction_coef       ?
_refine_ls_number_reflns         10206
_refine_ls_number_parameters     620
_refine_ls_number_restraints     6
_refine_ls_R_factor_all          0.1061
_refine_ls_R_factor_gt           0.0553
_refine_ls_wR_factor_ref         0.1532
_refine_ls_wR_factor_gt          0.1250
_refine_ls_goodness_of_fit_ref   1.014
_refine_ls_restrained_S_all      1.014
_refine_ls_shift/su_max          0.001
_refine_ls_shift/su_mean         0.000

loop_
_atom_site_label
_atom_site_type_symbol
_atom_site_fract_x
_atom_site_fract_y
_atom_site_fract_z
_atom_site_U_iso_or_equiv
_atom_site_adp_type
_atom_site_occupancy
_atom_site_symmetry_multiplicity
_atom_site_calc_flag
_atom_site_refinement_flags
_atom_site_disorder_assembly
_atom_site_disorder_group
Mn1 Mn 0.67142(4) 0.10175(3) -0.04204(3) 0.03799(14) Uani 1 1 d . . .
C1 C 0.9321(3) 0.0885(2) 0.74657(19) 0.0485(8) Uani 1 1 d . . .
H1 H 1.0121 0.0696 0.7396 0.058 Uiso 1 1 calc R . .
C2 C 0.8798(3) 0.0816(2) 0.81943(19) 0.0513(8) Uani 1 1 d . . .
H2 H 0.9266 0.0578 0.8609 0.062 Uiso 1 1 calc R . .
C3 C 0.7024(3) 0.1419(2) 0.77369(19) 0.0509(8) Uani 1 1 d . . .
H3 H 0.6229 0.1612 0.7823 0.061 Uiso 1 1 calc R . .
C4 C 0.7486(3) 0.1509(2) 0.69836(19) 0.0507(8) Uani 1 1 d . . .
H4 H 0.7005 0.1754 0.6580 0.061 Uiso 1 1 calc R . .
C5 C 0.8661(2) 0.1236(2) 0.68334(17) 0.0390(6) Uani 1 1 d . . .
C6 C 0.9169(2) 0.1286(2) 0.60167(17) 0.0375(6) Uani 1 1 d . . .
C7 C 0.8391(3) 0.1212(2) 0.52471(17) 0.0388(6) Uani 1 1 d . . .
H7 H 0.7529 0.1168 0.5244 0.047 Uiso 1 1 calc R . .
C8 C 0.8882(2) 0.1203(2) 0.44768(17) 0.0372(6) Uani 1 1 d . . .
C9 C 1.0172(3) 0.1286(2) 0.45241(18) 0.0396(7) Uani 1 1 d . . .
H9 H 1.0540 0.1286 0.4023 0.048 Uiso 1 1 calc R . .
C10 C 1.0909(2) 0.1370(2) 0.53159(18) 0.0369(6) Uani 1 1 d . . .
C11 C 1.2296(3) 0.1474(2) 0.54080(18) 0.0415(7) Uani 1 1 d . . .
C12 C 1.3002(3) 0.1959(2) 0.6212(2) 0.0554(8) Uani 1 1 d . . .
H12 H 1.2616 0.2255 0.6700 0.066 Uiso 1 1 calc R . .
C13 C 1.4288(3) 0.1995(3) 0.6277(3) 0.0687(10) Uani 1 1 d . . .
H13 H 1.4747 0.2333 0.6821 0.082 Uiso 1 1 calc R . .
C14 C 1.4225(3) 0.1127(3) 0.4861(3) 0.0640(10) Uani 1 1 d . . .
H14 H 1.4639 0.0827 0.4389 0.077 Uiso 1 1 calc R . .
C15 C 1.2935(3) 0.1059(2) 0.4712(2) 0.0506(8) Uani 1 1 d . . .
H15 H 1.2505 0.0741 0.4153 0.061 Uiso 1 1 calc R . .
C16 C 0.8020(2) 0.1073(2) 0.36416(17) 0.0369(6) Uani 1 1 d . . .
C17 C 0.8315(3) 0.1509(2) 0.29896(18) 0.0480(8) Uani 1 1 d . . .
H17 H 0.9083 0.1876 0.3066 0.058 Uiso 1 1 calc R . .
C18 C 0.7486(3) 0.1402(2) 0.22375(18) 0.0476(8) Uani 1 1 d . . .
H18 H 0.7698 0.1704 0.1815 0.057 Uiso 1 1 calc R . .
C19 C 0.6347(2) 0.0856(2) 0.20983(17) 0.0368(6) Uani 1 1 d . . .
C20 C 0.5420(3) 0.0726(2) 0.12734(17) 0.0383(6) Uani 1 1 d . . .
C21 C 0.6054(3) 0.0404(2) 0.27359(18) 0.0426(7) Uani 1 1 d . . .
H21 H 0.5294 0.0024 0.2650 0.051 Uiso 1 1 calc R . .
C22 C 0.6879(3) 0.0515(2) 0.34925(18) 0.0434(7) Uani 1 1 d . . .
H22 H 0.6666 0.0209 0.3912 0.052 Uiso 1 1 calc R . .
C23 C 0.1993(4) 0.2130(4) -0.0624(4) 0.134(2) Uani 1 1 d . . .
H23A H 0.1938 0.1517 -0.0470 0.201 Uiso 1 1 calc R . .
H23B H 0.1413 0.2074 -0.1145 0.201 Uiso 1 1 calc R . .
H23C H 0.1793 0.2655 -0.0144 0.201 Uiso 1 1 calc R . .
C24 C 0.3524(5) 0.3225(4) -0.1066(4) 0.127(2) Uani 1 1 d . . .
H24A H 0.3642 0.3795 -0.0557 0.190 Uiso 1 1 calc R . .
H24B H 0.2838 0.3297 -0.1479 0.190 Uiso 1 1 calc R . .
H24C H 0.4271 0.3168 -0.1342 0.190 Uiso 1 1 calc R . .
C25 C 0.4145(3) 0.1781(3) -0.0689(2) 0.0569(9) Uani 1 1 d . . .
H25 H 0.3942 0.1233 -0.0497 0.068 Uiso 1 1 calc R . .
C26 C 0.0522(3) 0.2017(2) 0.1438(2) 0.0454(7) Uani 1 1 d . . .
C27 C 0.1514(3) 0.2384(2) 0.22407(18) 0.0403(7) Uani 1 1 d . . .
C28 C 0.1348(3) 0.3228(2) 0.28824(18) 0.0433(7) Uani 1 1 d . . .
H28 H 0.0653 0.3569 0.2803 0.052 Uiso 1 1 calc R . .
C29 C 0.2200(3) 0.3580(2) 0.36474(19) 0.0430(7) Uani 1 1 d . . .
H29 H 0.2058 0.4145 0.4079 0.052 Uiso 1 1 calc R . .
C30 C 0.3261(2) 0.3100(2) 0.37767(18) 0.0385(6) Uani 1 1 d . . .
C31 C 0.3439(3) 0.2262(2) 0.31111(19) 0.0474(7) Uani 1 1 d . . .
H31 H 0.4153 0.1936 0.3171 0.057 Uiso 1 1 calc R . .
C32 C 0.2571(3) 0.1907(2) 0.23632(19) 0.0472(7) Uani 1 1 d . . .
H32 H 0.2700 0.1336 0.1934 0.057 Uiso 1 1 calc R . .
C33 C 0.4152(3) 0.3498(2) 0.45996(18) 0.0395(7) Uani 1 1 d . . .
C34 C 0.5426(3) 0.3420(2) 0.46292(19) 0.0426(7) Uani 1 1 d . . .
H34 H 0.5747 0.3094 0.4120 0.051 Uiso 1 1 calc R . .
C35 C 0.6225(3) 0.3824(2) 0.54102(18) 0.0399(7) Uani 1 1 d . . .
C36 C 0.4572(3) 0.4398(2) 0.61467(18) 0.0408(7) Uani 1 1 d . . .
C37 C 0.3730(3) 0.3998(2) 0.53884(18) 0.0427(7) Uani 1 1 d . . .
H37 H 0.2881 0.4061 0.5402 0.051 Uiso 1 1 calc R . .
C38 C 0.4167(3) 0.4989(2) 0.69816(19) 0.0464(7) Uani 1 1 d . . .
C39 C 0.4986(3) 0.5704(3) 0.7594(2) 0.0623(9) Uani 1 1 d . . .
H39 H 0.5812 0.5801 0.7503 0.075 Uiso 1 1 calc R . .
C40 C 0.4569(4) 0.6272(3) 0.8339(2) 0.0778(11) Uani 1 1 d . . .
H40 H 0.5130 0.6766 0.8731 0.093 Uiso 1 1 calc R . .
C41 C 0.2655(4) 0.5473(3) 0.7954(3) 0.0876(13) Uani 1 1 d . . .
H41 H 0.1845 0.5379 0.8078 0.105 Uiso 1 1 calc R . .
C42 C 0.2966(3) 0.4876(3) 0.7171(2) 0.0720(11) Uani 1 1 d . . .
H42 H 0.2374 0.4407 0.6780 0.086 Uiso 1 1 calc R . .
C43 C 0.7599(3) 0.3779(2) 0.5470(2) 0.0435(7) Uani 1 1 d . . .
C44 C 0.8313(3) 0.3808(2) 0.6261(2) 0.0565(8) Uani 1 1 d . . .
H44 H 0.7934 0.3821 0.6760 0.068 Uiso 1 1 calc R . .
C45 C 0.9587(3) 0.3817(3) 0.6300(3) 0.0671(10) Uani 1 1 d . . .
H45 H 1.0048 0.3835 0.6838 0.080 Uiso 1 1 calc R . .
C46 C 0.9511(3) 0.3765(3) 0.4871(3) 0.0737(11) Uani 1 1 d . . .
H46 H 0.9916 0.3746 0.4382 0.088 Uiso 1 1 calc R . .
C47 C 0.8223(3) 0.3753(2) 0.4759(2) 0.0562(8) Uani 1 1 d . . .
H47 H 0.7786 0.3728 0.4212 0.067 Uiso 1 1 calc R . .
C48 C 0.8855(6) 0.5348(4) 0.8757(4) 0.149(2) Uani 1 1 d . . .
H48A H 0.9707 0.5404 0.8647 0.223 Uiso 1 1 calc R . .
H48B H 0.8752 0.5849 0.9286 0.223 Uiso 1 1 calc R . .
H48C H 0.8311 0.5435 0.8266 0.223 Uiso 1 1 calc R . .
C49 C 0.7322(6) 0.4186(5) 0.9082(5) 0.164(3) Uani 1 1 d . . .
H49A H 0.6699 0.4204 0.8605 0.246 Uiso 1 1 calc R . .
H49B H 0.7194 0.4675 0.9611 0.246 Uiso 1 1 calc R . .
H49C H 0.7259 0.3541 0.9174 0.246 Uiso 1 1 calc R . .
C50 C 0.9367(6) 0.3723(4) 0.8793(4) 0.1123(17) Uani 1 1 d . . .
H50 H 0.9137 0.3121 0.8892 0.135 Uiso 1 1 calc R . .
N1 N 0.7646(2) 0.10710(17) 0.83472(14) 0.0418(6) Uani 1 1 d . . .
N2 N 1.4915(3) 0.1585(2) 0.5624(2) 0.0706(9) Uani 1 1 d . . .
N3 N 1.0420(2) 0.13612(17) 0.60627(15) 0.0421(6) Uani 1 1 d . . .
N4 N 0.3435(3) 0.6166(2) 0.8538(2) 0.0771(9) Uani 1 1 d . . .
N5 N 0.5807(2) 0.43104(17) 0.61659(15) 0.0443(6) Uani 1 1 d . . .
N6 N 1.0210(3) 0.3801(2) 0.5625(2) 0.0745(9) Uani 1 1 d . . .
N7 N 0.3255(3) 0.2345(2) -0.0794(2) 0.0670(8) Uani 1 1 d . . .
N8 N 0.8552(4) 0.4393(3) 0.8862(2) 0.0947(11) Uani 1 1 d . . .
O1 O 0.43727(17) 0.02768(15) 0.12394(12) 0.0483(5) Uani 1 1 d . . .
O2 O 0.57501(18) 0.10834(16) 0.06880(12) 0.0504(5) Uani 1 1 d . . .
O3 O 0.82542(18) 0.02698(16) 0.00272(14) 0.0476(5) Uani 1 1 d D . .
H3A H 0.8933(16) 0.0604(18) 0.0305(17) 0.057 Uiso 1 1 d D . .
H3B H 0.851(2) -0.0211(15) -0.0339(15) 0.057 Uiso 1 1 d D . .
O4 O 0.77152(19) 0.24405(16) 0.02286(13) 0.0481(5) Uani 1 1 d D . .
H4A H 0.733(2) 0.2865(18) 0.0571(15) 0.058 Uiso 1 1 d D . .
H4B H 0.8415(15) 0.249(2) 0.0564(15) 0.058 Uiso 1 1 d D . .
O5 O 0.5221(2) 0.19155(17) -0.08240(14) 0.0570(6) Uani 1 1 d . . .
O6 O 0.0509(2) 0.11514(17) 0.09541(14) 0.0644(6) Uani 1 1 d . . .
O7 O -0.0244(2) 0.26044(17) 0.13198(16) 0.0752(8) Uani 1 1 d . . .
O8 O 1.0435(4) 0.3865(4) 0.8599(3) 0.1656(19) Uani 1 1 d . . .

loop_
_atom_site_aniso_label
_atom_site_aniso_U_11
_atom_site_aniso_U_22
_atom_site_aniso_U_33
_atom_site_aniso_U_23
_atom_site_aniso_U_13
_atom_site_aniso_U_12
Mn1 0.0329(2) 0.0518(3) 0.0293(2) 0.01208(19) 0.00301(17) 0.00408(19)
C1 0.0395(17) 0.073(2) 0.0384(17) 0.0224(16) 0.0091(14) 0.0136(15)
C2 0.0485(19) 0.074(2) 0.0396(17) 0.0280(16) 0.0064(14) 0.0152(16)
C3 0.0400(18) 0.079(2) 0.0381(17) 0.0218(16) 0.0078(14) 0.0122(16)
C4 0.0384(17) 0.084(2) 0.0345(17) 0.0244(16) 0.0019(13) 0.0120(16)
C5 0.0344(16) 0.0511(18) 0.0310(15) 0.0117(13) 0.0039(12) 0.0018(13)
C6 0.0331(16) 0.0462(17) 0.0334(15) 0.0115(13) 0.0050(12) 0.0043(12)
C7 0.0320(15) 0.0513(18) 0.0340(15) 0.0138(13) 0.0037(12) 0.0031(13)
C8 0.0329(15) 0.0479(17) 0.0315(15) 0.0127(13) 0.0043(12) 0.0036(12)
C9 0.0394(16) 0.0482(17) 0.0318(15) 0.0118(13) 0.0062(12) 0.0034(13)
C10 0.0352(15) 0.0418(16) 0.0336(15) 0.0103(12) 0.0050(12) 0.0050(12)
C11 0.0390(17) 0.0496(18) 0.0399(17) 0.0195(14) 0.0036(13) 0.0058(13)
C12 0.0449(19) 0.068(2) 0.0487(19) 0.0148(17) -0.0079(15) 0.0059(16)
C13 0.047(2) 0.081(3) 0.074(3) 0.028(2) -0.0165(19) -0.0051(19)
C14 0.042(2) 0.089(3) 0.074(3) 0.038(2) 0.0175(18) 0.0163(19)
C15 0.0369(17) 0.067(2) 0.053(2) 0.0248(17) 0.0083(15) 0.0055(15)
C16 0.0345(15) 0.0455(17) 0.0320(15) 0.0126(13) 0.0063(12) 0.0022(12)
C17 0.0387(17) 0.067(2) 0.0352(16) 0.0139(15) 0.0033(13) -0.0136(14)
C18 0.0435(18) 0.069(2) 0.0328(16) 0.0224(15) 0.0015(13) -0.0087(15)
C19 0.0359(16) 0.0444(16) 0.0278(14) 0.0061(12) 0.0059(12) 0.0026(12)
C20 0.0357(16) 0.0455(17) 0.0291(15) 0.0015(12) 0.0075(12) 0.0055(13)
C21 0.0328(16) 0.0574(19) 0.0384(16) 0.0183(14) 0.0013(13) -0.0070(13)
C22 0.0407(17) 0.0581(19) 0.0360(16) 0.0222(14) 0.0053(13) -0.0020(14)
C23 0.053(3) 0.139(5) 0.240(7) 0.089(5) 0.046(4) 0.029(3)
C24 0.111(4) 0.128(4) 0.190(6) 0.102(4) 0.052(4) 0.061(3)
C25 0.050(2) 0.064(2) 0.061(2) 0.0226(18) 0.0058(17) 0.0143(17)
C26 0.0379(17) 0.0491(19) 0.0442(18) 0.0067(15) 0.0026(14) 0.0022(14)
C27 0.0388(17) 0.0419(17) 0.0364(16) 0.0052(13) 0.0035(13) 0.0049(13)
C28 0.0361(16) 0.0421(17) 0.0448(17) 0.0025(14) 0.0009(13) 0.0060(13)
C29 0.0400(17) 0.0405(17) 0.0423(17) 0.0008(13) 0.0075(13) 0.0045(13)
C30 0.0335(15) 0.0429(17) 0.0363(16) 0.0071(13) 0.0028(12) 0.0038(12)
C31 0.0428(18) 0.0504(19) 0.0447(18) 0.0042(15) 0.0062(14) 0.0144(14)
C32 0.0504(19) 0.0454(18) 0.0371(17) -0.0022(13) 0.0028(14) 0.0098(14)
C33 0.0356(16) 0.0426(17) 0.0381(16) 0.0086(13) 0.0026(12) 0.0046(13)
C34 0.0380(17) 0.0428(17) 0.0427(17) 0.0043(13) 0.0060(13) 0.0063(13)
C35 0.0372(16) 0.0413(17) 0.0397(16) 0.0092(13) 0.0035(13) 0.0052(13)
C36 0.0384(17) 0.0445(17) 0.0353(16) 0.0056(13) 0.0035(13) 0.0011(13)
C37 0.0324(15) 0.0507(18) 0.0420(17) 0.0083(14) 0.0029(13) 0.0078(13)
C38 0.0438(18) 0.0522(19) 0.0396(17) 0.0075(14) 0.0050(14) 0.0039(14)
C39 0.052(2) 0.074(2) 0.048(2) -0.0038(18) 0.0085(16) -0.0005(18)
C40 0.062(3) 0.090(3) 0.059(2) -0.014(2) 0.0099(19) -0.006(2)
C41 0.055(2) 0.119(4) 0.070(3) -0.009(3) 0.022(2) 0.004(2)
C42 0.054(2) 0.088(3) 0.053(2) -0.0143(19) 0.0112(17) -0.0008(19)
C43 0.0365(16) 0.0375(16) 0.0488(18) 0.0009(13) 0.0024(14) 0.0036(13)
C44 0.0415(19) 0.063(2) 0.060(2) 0.0129(17) -0.0018(16) 0.0055(16)
C45 0.050(2) 0.065(2) 0.075(3) 0.010(2) -0.008(2) 0.0049(18)
C46 0.048(2) 0.082(3) 0.080(3) 0.000(2) 0.022(2) 0.0041(19)
C47 0.0448(19) 0.065(2) 0.051(2) 0.0033(16) 0.0077(16) 0.0064(16)
C48 0.222(7) 0.084(4) 0.157(5) 0.058(4) 0.041(5) 0.004(4)
C49 0.152(6) 0.154(6) 0.239(8) 0.104(6) 0.106(6) 0.041(5)
C50 0.120(5) 0.099(4) 0.127(5) 0.050(3) 0.007(4) 0.025(4)
N1 0.0378(14) 0.0555(15) 0.0323(13) 0.0137(11) 0.0034(11) 0.0038(11)
N2 0.0409(17) 0.095(2) 0.086(2) 0.043(2) 0.0043(17) 0.0084(16)
N3 0.0419(14) 0.0502(15) 0.0348(13) 0.0132(11) 0.0053(11) 0.0040(11)
N4 0.070(2) 0.087(2) 0.0558(19) -0.0134(17) 0.0128(17) 0.0117(18)
N5 0.0394(14) 0.0453(15) 0.0432(14) 0.0059(11) 0.0031(11) 0.0022(11)
N6 0.0417(18) 0.078(2) 0.091(3) 0.0038(19) 0.0026(18) 0.0109(15)
N7 0.0494(18) 0.078(2) 0.083(2) 0.0311(18) 0.0146(15) 0.0259(16)
N8 0.118(3) 0.081(3) 0.099(3) 0.042(2) 0.025(2) 0.021(2)
O1 0.0349(11) 0.0647(14) 0.0387(11) 0.0055(10) 0.0044(9) -0.0020(10)
O2 0.0467(12) 0.0754(15) 0.0302(11) 0.0174(10) 0.0051(9) 0.0025(11)
O3 0.0431(12) 0.0500(14) 0.0426(13) 0.0047(10) -0.0044(10) 0.0077(10)
O4 0.0397(12) 0.0549(14) 0.0431(13) 0.0035(10) 0.0032(9) 0.0068(10)
O5 0.0450(13) 0.0816(17) 0.0526(14) 0.0282(12) 0.0121(11) 0.0178(12)
O6 0.0549(14) 0.0602(15) 0.0557(14) -0.0137(12) -0.0125(11) 0.0112(12)
O7 0.0649(16) 0.0603(15) 0.0816(18) 0.0025(13) -0.0279(13) 0.0156(13)
O8 0.110(3) 0.203(5) 0.226(5) 0.116(4) 0.041(3) 0.043(3)

_geom_special_details            
; 
 A