####################################################################### 
# 
# This file contains crystal structure data downloaded from the 
# Cambridge Structural Database (CSD) hosted by the Cambridge 
# Crystallographic Data Centre (CCDC).
# 
# Full information about CCDC data access policies and citation 
# guidelines are available at http://www.ccdc.cam.ac.uk/access/V1 
# 
# Audit and citation data items may have been added by the CCDC. 
# Please retain this information to preserve the provenance of 
# this file and to allow appropriate attribution of the data. 
# 
#######################################################################

data_Sm_ida
_audit_block_doi                 10.5517/ccqw19x
_database_code_depnum_ccdc_archive 'CCDC 681389'
loop_
_citation_id
_citation_doi
_citation_year
1 10.1016/j.inoche.2008.04.020 2008
_audit_update_record             
;
2008-03-14 deposited with the CCDC.	2024-07-13 downloaded from the CCDC.
;

_audit_creation_method           SHELXL-97
_chemical_name_systematic        
;
tris(hydrogeniminodiacetato)Samarium(III)
;
_chemical_name_common            ?
_chemical_melting_point          ?
_chemical_formula_moiety         'C12 H18 N3 O12 Sm'
_chemical_formula_sum            'C12 H18 N3 O12 Sm'
_chemical_formula_weight         546.65

loop_
_atom_type_symbol
_atom_type_description
_atom_type_scat_dispersion_real
_atom_type_scat_dispersion_imag
_atom_type_scat_source
C C 0.0033 0.0016 'International Tables Vol C Tables 4.2.6.8 and 6.1.1.4'
H H 0.0000 0.0000 'International Tables Vol C Tables 4.2.6.8 and 6.1.1.4'
N N 0.0061 0.0033 'International Tables Vol C Tables 4.2.6.8 and 6.1.1.4'
O O 0.0106 0.0060 'International Tables Vol C Tables 4.2.6.8 and 6.1.1.4'
Sm Sm -0.1638 3.4418 'International Tables Vol C Tables 4.2.6.8 and 6.1.1.4'

_symmetry_cell_setting           Trigonal
_symmetry_space_group_name_H-M   'P -3 c 1'

loop_
_symmetry_equiv_pos_as_xyz
'x, y, z'
'-y, x-y, z'
'-x+y, -x, z'
'y, x, -z+1/2'
'-x, -x+y, -z+1/2'
'x-y, -y, -z+1/2'
'-x, -y, -z'
'y, -x+y, -z'
'x-y, x, -z'
'-y, -x, z-1/2'
'x, x-y, z-1/2'
'-x+y, y, z-1/2'

_cell_length_a                   13.5470(10)
_cell_length_b                   13.5470(10)
_cell_length_c                   16.6177(10)
_cell_angle_alpha                90.00
_cell_angle_beta                 90.00
_cell_angle_gamma                120.00
_cell_volume                     2641.1(3)
_cell_formula_units_Z            4
_cell_measurement_temperature    293(2)
_cell_measurement_reflns_used    ?
_cell_measurement_theta_min      ?
_cell_measurement_theta_max      ?

_exptl_crystal_description       prism
_exptl_crystal_colour            ?
_exptl_crystal_size_max          0.11
_exptl_crystal_size_mid          0.08
_exptl_crystal_size_min          0.07
_exptl_crystal_density_meas      ?
_exptl_crystal_density_diffrn    1.375
_exptl_crystal_density_method    'not measured'
_exptl_crystal_F_000             1076
_exptl_absorpt_coefficient_mu    2.271
_exptl_absorpt_correction_type   multi-scan
_exptl_absorpt_correction_T_min  0.804
_exptl_absorpt_correction_T_max  0.853
_exptl_absorpt_process_details   ?

_exptl_special_details           
;
?
;

_diffrn_ambient_temperature      293(2)
_diffrn_radiation_wavelength     0.71073
_diffrn_radiation_type           MoK\a
_diffrn_radiation_source         'fine-focus sealed tube'
_diffrn_radiation_monochromator  graphite
_diffrn_measurement_device_type  KappaCCD
_diffrn_measurement_method       CCD
_diffrn_detector_area_resol_mean 9
_diffrn_standards_number         ?
_diffrn_standards_interval_count ?
_diffrn_standards_interval_time  ?
_diffrn_standards_decay_%        ?
_diffrn_reflns_number            20880
_diffrn_reflns_av_R_equivalents  0.0975
_diffrn_reflns_av_sigmaI/netI    0.0734
_diffrn_reflns_limit_h_min       -17
_diffrn_reflns_limit_h_max       18
_diffrn_reflns_limit_k_min       -18
_diffrn_reflns_limit_k_max       17
_diffrn_reflns_limit_l_min       -17
_diffrn_reflns_limit_l_max       22
_diffrn_reflns_theta_min         1.74
_diffrn_reflns_theta_max         28.58
_reflns_number_total             2252
_reflns_number_gt                1551
_reflns_threshold_expression     >2sigma(I)

_computing_data_collection       'Collect (Bruker AXS BV, 1997-2004)'
_computing_cell_refinement       'HKL Scalepack (Otwinowski & Minor 1997)'
_computing_data_reduction        
'HKL Denzo and Scalepack (Otwinowski & Minor 1997)'
_computing_structure_solution    'Sir2004 (Altomare et al., 2004)'
_computing_structure_refinement  'SHELXL-97 (Sheldrick, 1997)'
_computing_molecular_graphics    ?
_computing_publication_material  ?

_refine_special_details          
;
Refinement of F^2^ against ALL reflections. The weighted R-factor wR and
goodness of fit S are based on F^2^, conventional R-factors R are based
on F, with F set to zero for negative F^2^. The threshold expression of
F^2^ > 2sigma(F^2^) is used only for calculating R-factors(gt) etc. and is
not relevant to the choice of reflections for refinement. R-factors based
on F^2^ are statistically about twice as large as those based on F, and R-
factors based on ALL data will be even larger.
;

_refine_ls_structure_factor_coef Fsqd
_refine_ls_matrix_type           full
_refine_ls_weighting_scheme      calc
_refine_ls_weighting_details     
'calc w=1/[\s^2^(Fo^2^)+(0.0815P)^2^+5.3555P] where P=(Fo^2^+2Fc^2^)/3'
_atom_sites_solution_primary     direct
_atom_sites_solution_secondary   difmap
_atom_sites_solution_hydrogens   geom
_refine_ls_hydrogen_treatment    constr
_refine_ls_extinction_method     SHELXL
_refine_ls_extinction_coef       0.0042(6)
_refine_ls_extinction_expression Fc^*^=kFc[1+0.001xFc^2^\l^3^/sin(2\q)]^-1/4^
_refine_ls_number_reflns         2252
_refine_ls_number_parameters     86
_refine_ls_number_restraints     0
_refine_ls_R_factor_all          0.0856
_refine_ls_R_factor_gt           0.0528
_refine_ls_wR_factor_ref         0.1632
_refine_ls_wR_factor_gt          0.1472
_refine_ls_goodness_of_fit_ref   1.031
_refine_ls_restrained_S_all      1.031
_refine_ls_shift/su_max          0.000
_refine_ls_shift/su_mean         0.000

loop_
_atom_site_label
_atom_site_type_symbol
_atom_site_fract_x
_atom_site_fract_y
_atom_site_fract_z
_atom_site_U_iso_or_equiv
_atom_site_adp_type
_atom_site_occupancy
_atom_site_symmetry_multiplicity
_atom_site_calc_flag
_atom_site_refinement_flags
_atom_site_disorder_assembly
_atom_site_disorder_group
Sm1 Sm -0.3333 0.3333 0.21073(2) 0.0224(2) Uani 1 3 d S . .
O1 O -0.1161(3) 0.4197(3) 0.1838(2) 0.0287(9) Uani 1 1 d . . .
O2 O -0.2375(3) 0.2708(4) 0.1143(3) 0.0372(11) Uani 1 1 d . . .
O3 O 0.2711(4) 0.5164(4) 0.1947(3) 0.0397(11) Uani 1 1 d . . .
O4 O 0.3586(4) 0.4842(4) 0.0952(3) 0.0516(13) Uani 1 1 d . . .
H4 H 0.4131 0.5160 0.1259 0.077 Uiso 1 1 calc R . .
N1 N 0.0693(4) 0.4191(4) 0.1241(2) 0.0257(10) Uani 1 1 d . . .
H1 H 0.0776 0.4547 0.1687 0.031 Uiso 1 1 calc R . .
C1 C -0.1380(4) 0.3463(5) 0.1305(3) 0.0234(11) Uani 1 1 d . . .
C2 C -0.0432(4) 0.3460(5) 0.0836(3) 0.0283(12) Uani 1 1 d . . .
H2A H -0.0573 0.2686 0.0793 0.034 Uiso 1 1 calc R . .
H2B H -0.0410 0.3744 0.0297 0.034 Uiso 1 1 calc R . .
C3 C 0.1657(4) 0.4225(5) 0.0772(3) 0.0302(13) Uani 1 1 d . . .
H3A H 0.1757 0.4633 0.0271 0.036 Uiso 1 1 calc R . .
H3B H 0.1476 0.3454 0.0642 0.036 Uiso 1 1 calc R . .
C4 C 0.2757(5) 0.4812(5) 0.1256(3) 0.0273(12) Uani 1 1 d . . .

loop_
_atom_site_aniso_label
_atom_site_aniso_U_11
_atom_site_aniso_U_22
_atom_site_aniso_U_33
_atom_site_aniso_U_23
_atom_site_aniso_U_13
_atom_site_aniso_U_12
Sm1 0.0227(3) 0.0227(3) 0.0217(3) 0.000 0.000 0.01136(14)
O1 0.024(2) 0.026(2) 0.039(2) -0.0107(17) -0.0043(17) 0.0148(17)
O2 0.0144(19) 0.041(2) 0.042(2) -0.0145(19) -0.0011(16) 0.0035(19)
O3 0.032(2) 0.048(3) 0.037(2) -0.019(2) -0.0102(18) 0.020(2)
O4 0.027(2) 0.082(4) 0.048(3) -0.029(2) -0.012(2) 0.029(2)
N1 0.020(2) 0.038(3) 0.019(2) -0.0107(19) -0.0025(17) 0.015(2)
C1 0.026(3) 0.027(3) 0.021(2) 0.001(2) -0.003(2) 0.016(2)
C2 0.021(3) 0.033(3) 0.036(3) -0.006(2) -0.001(2) 0.017(2)
C3 0.018(3) 0.045(4) 0.024(3) -0.009(2) 0.002(2) 0.013(3)
C4 0.022(3) 0.026(3) 0.032(3) -0.009(2) -0.002(2) 0.011(2)

_geom_special_details            
;
All esds (except the esd in the dihedral angle between two l.s. planes)
are estimated using the full covariance matrix. The cell esds are taken
into account individually in the estimation of esds in distances, angles
and torsion angles; correlations between esds in cell parameters are only
used when they are defined by crystal symmetry. An approximate
(isotropic)
treatment of cell esds is used for estimating esds involving l.s. planes.
;

loop_
_geom_bond_atom_site_label_1
_geom_bond_atom_site_label_2
_geom_bond_distance
_geom_bond_site_symmetry_2
_geom_bond_publ_flag
Sm1 O3 2.368(4) 5 ?
Sm1 O3 2.368(4) 4_455 ?
Sm1 O3 2.368(4) 6_565 ?
Sm1 O2 2.464(4) . ?
Sm1 O2 2.464(4) 2_565 ?
Sm1 O2 2.464(4) 3_455 ?
Sm1 O1 2.606(4) . ?
Sm1 O1 2.606(4) 3_455 ?
Sm1 O1 2.606(4) 2_565 ?
Sm1 C1 2.889(5) 2_565 ?
Sm1 C1 2.889(5) . ?
Sm1 C1 2.889(5) 3_455 ?
O1 C1 1.251(6) . ?
O2 C1 1.248(6) . ?
O3 C4 1.257(7) . ?
O3 Sm1 2.368(4) 4_565 ?
O4 C4 1.213(7) . ?
O4 H4 0.8200 . ?
N1 C2 1.498(7) . ?
N1 C3 1.502(7) . ?
N1 H1 0.8600 . ?
C1 C2 1.504(7) . ?
C2 H2A 0.9700 . ?
C2 H2B 0.9700 . ?
C3 C4 1.522(8) . ?
C3 H3A 0.9700 . ?
C3 H3B 0.9700 . ?

loop_
_geom_angle_atom_site_label_1
_geom_angle_atom_site_label_2
_geom_angle_atom_site_label_3
_geom_angle
_geom_angle_site_symmetry_1
_geom_angle_site_symmetry_3
_geom_angle_publ_flag
O3 Sm1 O3 80.77(18) 5 4_455 ?
O3 Sm1 O3 80.77(18) 5 6_565 ?
O3 Sm1 O3 80.77(18) 4_455 6_565 ?
O3 Sm1 O2 82.93(16) 5 . ?
O3 Sm1 O2 144.70(14) 4_455 . ?
O3 Sm1 O2 126.98(13) 6_565 . ?
O3 Sm1 O2 144.71(14) 5 2_565 ?
O3 Sm1 O2 126.98(13) 4_455 2_565 ?
O3 Sm1 O2 82.93(16) 6_565 2_565 ?
O2 Sm1 O2 82.27(16) . 2_565 ?
O3 Sm1 O2 126.98(13) 5 3_455 ?
O3 Sm1 O2 82.93(16) 4_455 3_455 ?
O3 Sm1 O2 144.70(14) 6_565 3_455 ?
O2 Sm1 O2 82.26(16) . 3_455 ?
O2 Sm1 O2 82.26(16) 2_565 3_455 ?
O3 Sm1 O1 74.55(13) 5 . ?
O3 Sm1 O1 148.32(15) 4_455 . ?
O3 Sm1 O1 75.97(13) 6_565 . ?
O2 Sm1 O1 51.06(12) . . ?
O2 Sm1 O1 71.21(13) 2_565 . ?
O2 Sm1 O1 127.97(14) 3_455 . ?
O3 Sm1 O1 75.98(13) 5 3_455 ?
O3 Sm1 O1 74.55(13) 4_455 3_455 ?
O3 Sm1 O1 148.32(15) 6_565 3_455 ?
O2 Sm1 O1 71.21(13) . 3_455 ?
O2 Sm1 O1 127.97(14) 2_565 3_455 ?
O2 Sm1 O1 51.06(12) 3_455 3_455 ?
O1 Sm1 O1 117.11(5) . 3_455 ?
O3 Sm1 O1 148.32(15) 5 2_565 ?
O3 Sm1 O1 75.98(13) 4_455 2_565 ?
O3 Sm1 O1 74.55(13) 6_565 2_565 ?
O2 Sm1 O1 127.97(14) . 2_565 ?
O2 Sm1 O1 51.06(12) 2_565 2_565 ?
O2 Sm1 O1 71.21(13) 3_455 2_565 ?
O1 Sm1 O1 117.11(5) . 2_565 ?
O1 Sm1 O1 117.11(5) 3_455 2_565 ?
O3 Sm1 C1 157.84(14) 5 2_565 ?
O3 Sm1 C1 101.62(14) 4_455 2_565 ?
O3 Sm1 C1 77.92(15) 6_565 2_565 ?
O2 Sm1 C1 105.17(15) . 2_565 ?
O2 Sm1 C1 25.41(13) 2_565 2_565 ?
O2 Sm1 C1 75.01(13) 3_455 2_565 ?
O1 Sm1 C1 94.29(14) . 2_565 ?
O1 Sm1 C1 126.06(13) 3_455 2_565 ?
O1 Sm1 C1 25.65(13) 2_565 2_565 ?
O3 Sm1 C1 77.92(15) 5 . ?
O3 Sm1 C1 157.84(14) 4_455 . ?
O3 Sm1 C1 101.62(14) 6_565 . ?
O2 Sm1 C1 25.41(13) . . ?
O2 Sm1 C1 75.01(13) 2_565 . ?
O2 Sm1 C1 105.17(15) 3_455 . ?
O1 Sm1 C1 25.65(13) . . ?
O1 Sm1 C1 94.29(14) 3_455 . ?
O1 Sm1 C1 126.06(13) 2_565 . ?
C1 Sm1 C1 100.41(12) 2_565 . ?
O3 Sm1 C1 101.62(14) 5 3_455 ?
O3 Sm1 C1 77.92(15) 4_455 3_455 ?
O3 Sm1 C1 157.84(14) 6_565 3_455 ?
O2 Sm1 C1 75.01(13) . 3_455 ?
O2 Sm1 C1 105.17(15) 2_565 3_455 ?
O2 Sm1 C1 25.41(13) 3_455 3_455 ?
O1 Sm1 C1 126.06(13) . 3_455 ?
O1 Sm1 C1 25.65(13) 3_455 3_455 ?
O1 Sm1 C1 94.29(14) 2_565 3_455 ?
C1 Sm1 C1 100.41(12) 2_565 3_455 ?
C1 Sm1 C1 100.41(12) . 3_455 ?
C1 O1 Sm1 89.9(3) . . ?
C1 O2 Sm1 96.7(3) . . ?
C4 O3 Sm1 150.3(4) . 4_565 ?
C4 O4 H4 109.5 . . ?
C2 N1 C3 111.6(4) . . ?
C2 N1 H1 124.2 . . ?
C3 N1 H1 124.2 . . ?
O2 C1 O1 122.3(5) . . ?
O2 C1 C2 117.4(5) . . ?
O1 C1 C2 120.3(5) . . ?
O2 C1 Sm1 57.9(3) . . ?
O1 C1 Sm1 64.4(3) . . ?
C2 C1 Sm1 175.2(4) . . ?
N1 C2 C1 110.7(4) . . ?
N1 C2 H2A 109.5 . . ?
C1 C2 H2A 109.5 . . ?
N1 C2 H2B 109.5 . . ?
C1 C2 H2B 109.5 . . ?
H2A C2 H2B 108.1 . . ?
N1 C3 C4 110.6(4) . . ?
N1 C3 H3A 109.5 . . ?
C4 C3 H3A 109.5 . . ?
N1 C3 H3B 109.5 . . ?
C4 C3 H3B 109.5 . . ?
H3A C3 H3B 108.1 . . ?
O4 C4 O3 126.1(5) . . ?
O4 C4 C3 116.4(5) . . ?
O3 C4 C3 117.4(5) . . ?

_diffrn_measured_fraction_theta_max 0.991
_diffrn_reflns_theta_full        28.58
_diffrn_measured_fraction_theta_full 0.991
_refine_diff_density_max         1.565
_refine_diff_density_min         -0.816
_refine_diff_density_rms         0.214

# SQUEEZE RESULTS (APPEND TO CIF)
# Note: Data are Listed for all Voids in the P1 Unit Cell
# i.e. Centre of Gravity, Solvent Accessible Volume,
# Recovered number of Electrons in the Void and
# Details about the Squeezed Material
loop_
_platon_squeeze_void_nr
_platon_squeeze_void_average_x
_platon_squeeze_void_average_y
_platon_squeeze_void_average_z
_platon_squeeze_void_volume
_platon_squeeze_void_count_electrons
_platon_squeeze_void_content
1 0.000 0.000 -0.002 968 620 ' '
_platon_squeeze_details          
;
;
