####################################################################### 
# 
# This file contains crystal structure data downloaded from the 
# Cambridge Structural Database (CSD) hosted by the Cambridge 
# Crystallographic Data Centre (CCDC).
# 
# Full information about CCDC data access policies and citation 
# guidelines are available at http://www.ccdc.cam.ac.uk/access/V1 
# 
# Audit and citation data items may have been added by the CCDC. 
# Please retain this information to preserve the provenance of 
# this file and to allow appropriate attribution of the data. 
# 
#######################################################################

data_a
_audit_block_doi                 10.5517/cc11v4cd
_database_code_depnum_ccdc_archive 'CCDC 978433'
loop_
_citation_id
_citation_doi
_citation_year
1 10.1016/j.jorganchem.2014.05.011 2014
_audit_update_record             
;
2013-12-23 deposited with the CCDC.	2024-07-13 downloaded from the CCDC.
;

_audit_creation_method           SHELXL-97
_chemical_name_systematic        
; 
 ? 
;
_chemical_name_common            ?
_chemical_melting_point          ?
_chemical_formula_moiety         'C20 H20 O12 Pd4, C6 H6'
_chemical_formula_sum            'C26 H26 O12 Pd4'
_chemical_formula_weight         956.07

loop_
_atom_type_symbol
_atom_type_description
_atom_type_scat_dispersion_real
_atom_type_scat_dispersion_imag
_atom_type_scat_source
C C 0.0033 0.0016 'International Tables Vol C Tables 4.2.6.8 and 6.1.1.4'
H H 0.0000 0.0000 'International Tables Vol C Tables 4.2.6.8 and 6.1.1.4'
O O 0.0106 0.0060 'International Tables Vol C Tables 4.2.6.8 and 6.1.1.4'
Pd Pd -0.9988 1.0072 'International Tables Vol C Tables 4.2.6.8 and 6.1.1.4'

_symmetry_cell_setting           triclinic
_symmetry_space_group_name_H-M   'P -1'
_symmetry_space_group_name_Hall  '-P 1'

loop_
_symmetry_equiv_pos_as_xyz
'x, y, z'
'-x, -y, -z'

_cell_length_a                   6.2018(11)
_cell_length_b                   11.257(2)
_cell_length_c                   11.568(2)
_cell_angle_alpha                103.004(2)
_cell_angle_beta                 99.908(3)
_cell_angle_gamma                96.709(2)
_cell_volume                     764.9(2)
_cell_formula_units_Z            1
_cell_measurement_temperature    173(2)
_cell_measurement_reflns_used    3671
_cell_measurement_theta_min      2.282
_cell_measurement_theta_max      30.342

_exptl_crystal_description       needle
_exptl_crystal_colour            yellow
_exptl_crystal_size_max          0.18
_exptl_crystal_size_mid          0.03
_exptl_crystal_size_min          0.03
_exptl_crystal_density_meas      ?
_exptl_crystal_density_diffrn    2.075
_exptl_crystal_density_method    'not measured'
_exptl_crystal_F_000             462
_exptl_absorpt_coefficient_mu    2.372
_exptl_absorpt_correction_type   multi-scan
_exptl_absorpt_correction_T_min  0.6748
_exptl_absorpt_correction_T_max  0.9322
_exptl_absorpt_process_details   'SADABS (Bruker, 2004)'

_exptl_special_details           
; 
 ? 
;

_diffrn_ambient_temperature      173(2)
_diffrn_radiation_wavelength     0.71073
_diffrn_radiation_type           MoK\a
_diffrn_radiation_source         'fine-focus sealed tube'
_diffrn_radiation_monochromator  graphite
_diffrn_measurement_device_type  'Bruker SMART APEX II'
_diffrn_measurement_method       \w
_diffrn_detector_area_resol_mean ?
_diffrn_standards_number         0
_diffrn_standards_interval_count ?
_diffrn_standards_interval_time  0
_diffrn_standards_decay_%        0
_diffrn_reflns_number            7902
_diffrn_reflns_av_R_equivalents  0.0179
_diffrn_reflns_av_sigmaI/netI    0.0256
_diffrn_reflns_limit_h_min       -8
_diffrn_reflns_limit_h_max       8
_diffrn_reflns_limit_k_min       -14
_diffrn_reflns_limit_k_max       14
_diffrn_reflns_limit_l_min       -15
_diffrn_reflns_limit_l_max       15
_diffrn_reflns_theta_min         1.85
_diffrn_reflns_theta_max         28.00
_reflns_number_total             3681
_reflns_number_gt                3124
_reflns_threshold_expression     I>2\s(I)

_computing_data_collection       ?
_computing_cell_refinement       ?
_computing_data_reduction        ?
_computing_structure_solution    'SHELXS-97 (Sheldrick, 1990)'
_computing_structure_refinement  'SHELXL-97 (Sheldrick, 1997)'
_computing_molecular_graphics    ?
_computing_publication_material  ?

_refine_special_details          
; 
 Refinement of F^2^ against ALL reflections.  The weighted R-factor wR and 
 goodness of fit S are based on F^2^, conventional R-factors R are based 
 on F, with F set to zero for negative F^2^. The threshold expression of 
 F^2^ > 2sigma(F^2^) is used only for calculating R-factors(gt) etc. and is 
 not relevant to the choice of reflections for refinement.  R-factors based 
 on F^2^ are statistically about twice as large as those based on F, and R- 
 factors based on ALL data will be even larger. 
;

_refine_ls_structure_factor_coef Fsqd
_refine_ls_matrix_type           full
_refine_ls_weighting_scheme      calc
_refine_ls_weighting_details     
'calc w=1/[\s^2^(Fo^2^)+(0.0228P)^2^+0.0347P] where P=(Fo^2^+2Fc^2^)/3'
_atom_sites_solution_primary     direct
_atom_sites_solution_secondary   difmap
_atom_sites_solution_hydrogens   geom
_refine_ls_hydrogen_treatment    constr
_refine_ls_extinction_method     none
_refine_ls_extinction_coef       ?
_refine_ls_number_reflns         3681
_refine_ls_number_parameters     192
_refine_ls_number_restraints     0
_refine_ls_R_factor_all          0.0288
_refine_ls_R_factor_gt           0.0214
_refine_ls_wR_factor_ref         0.0482
_refine_ls_wR_factor_gt          0.0465
_refine_ls_goodness_of_fit_ref   1.021
_refine_ls_restrained_S_all      1.021
_refine_ls_shift/su_max          0.001
_refine_ls_shift/su_mean         0.000

loop_
_atom_site_label
_atom_site_type_symbol
_atom_site_fract_x
_atom_site_fract_y
_atom_site_fract_z
_atom_site_U_iso_or_equiv
_atom_site_adp_type
_atom_site_occupancy
_atom_site_symmetry_multiplicity
_atom_site_calc_flag
_atom_site_refinement_flags
_atom_site_disorder_assembly
_atom_site_disorder_group
Pd1 Pd 0.63491(3) 0.641467(16) 0.440498(15) 0.02343(6) Uani 1 1 d . . .
Pd2 Pd 0.21955(2) 0.543478(14) 0.478531(15) 0.02209(5) Uani 1 1 d . . .
C1 C 0.6899(4) 0.4785(2) 0.3541(2) 0.0267(5) Uani 1 1 d . . .
O1 O 0.6628(3) 0.41861(17) 0.25764(16) 0.0377(4) Uani 1 1 d . . .
C2 C 0.7976(4) 0.6346(2) 0.6019(2) 0.0249(5) Uani 1 1 d . . .
O2 O 0.8542(3) 0.69744(16) 0.69753(15) 0.0352(4) Uani 1 1 d . . .
O11 O 0.5563(3) 0.81003(15) 0.52604(17) 0.0361(4) Uani 1 1 d . . .
O12 O 0.2266(3) 0.73199(15) 0.55410(17) 0.0378(4) Uani 1 1 d . . .
C11 C 0.3749(4) 0.8203(2) 0.5593(2) 0.0269(5) Uani 1 1 d . . .
C12 C 0.3366(4) 0.9472(2) 0.6099(2) 0.0324(5) Uani 1 1 d . . .
H12 H 0.4531 1.0139 0.6205 0.039 Uiso 1 1 calc R . .
C13 C 0.1501(5) 0.9720(2) 0.6406(3) 0.0437(7) Uani 1 1 d . . .
H13 H 0.0337 0.9045 0.6270 0.052 Uiso 1 1 calc R . .
C14 C 0.1056(6) 1.0975(3) 0.6953(3) 0.0585(9) Uani 1 1 d . . .
H14A H 0.0635 1.0987 0.7733 0.088 Uiso 1 1 calc R . .
H14B H -0.0154 1.1182 0.6407 0.088 Uiso 1 1 calc R . .
H14C H 0.2396 1.1583 0.7078 0.088 Uiso 1 1 calc R . .
O21 O 0.4488(3) 0.65398(18) 0.27599(16) 0.0378(4) Uani 1 1 d . . .
O22 O 0.1219(3) 0.57641(17) 0.30732(16) 0.0367(4) Uani 1 1 d . . .
C21 C 0.2404(4) 0.6254(2) 0.2474(2) 0.0280(5) Uani 1 1 d . . .
C22 C 0.1291(4) 0.6505(2) 0.1342(2) 0.0363(6) Uani 1 1 d . . .
H22 H 0.2184 0.6816 0.0852 0.044 Uiso 1 1 calc R . .
C23 C -0.0868(5) 0.6321(2) 0.0979(2) 0.0404(6) Uani 1 1 d . . .
H23 H -0.1726 0.5990 0.1473 0.049 Uiso 1 1 calc R . .
C24 C -0.2110(6) 0.6583(3) -0.0137(3) 0.0596(9) Uani 1 1 d . . .
H24A H -0.3138 0.5840 -0.0618 0.089 Uiso 1 1 calc R . .
H24B H -0.1060 0.6827 -0.0618 0.089 Uiso 1 1 calc R . .
H24C H -0.2946 0.7255 0.0092 0.089 Uiso 1 1 calc R . .
C3 C 0.3807(10) 0.8962(4) -0.0771(5) 0.0927(15) Uani 1 1 d . . .
H3 H 0.2959 0.8233 -0.1319 0.111 Uiso 1 1 calc R . .
C4 C 0.2955(7) 0.9569(5) 0.0157(5) 0.0885(14) Uani 1 1 d . . .
H4 H 0.1532 0.9261 0.0267 0.106 Uiso 1 1 calc R . .
C5 C 0.4162(10) 1.0619(5) 0.0924(4) 0.0897(14) Uani 1 1 d . . .
H5 H 0.3577 1.1059 0.1569 0.108 Uiso 1 1 calc R . .

loop_
_atom_site_aniso_label
_atom_site_aniso_U_11
_atom_site_aniso_U_22
_atom_site_aniso_U_33
_atom_site_aniso_U_23
_atom_site_aniso_U_13
_atom_site_aniso_U_12
Pd1 0.01988(9) 0.02512(10) 0.02864(10) 0.01189(7) 0.00617(7) 0.00520(7)
Pd2 0.01836(9) 0.02174(9) 0.02727(10) 0.00883(7) 0.00408(7) 0.00323(6)
C1 0.0175(11) 0.0321(13) 0.0309(13) 0.0096(11) 0.0035(9) 0.0044(9)
O1 0.0370(10) 0.0434(11) 0.0278(10) 0.0015(8) 0.0027(8) 0.0070(8)
C2 0.0208(11) 0.0267(12) 0.0300(13) 0.0117(10) 0.0071(9) 0.0037(9)
O2 0.0406(10) 0.0345(10) 0.0276(9) 0.0037(8) 0.0058(8) 0.0038(8)
O11 0.0319(9) 0.0254(9) 0.0549(12) 0.0125(8) 0.0145(8) 0.0075(7)
O12 0.0375(10) 0.0222(9) 0.0565(12) 0.0075(8) 0.0206(9) 0.0047(7)
C11 0.0319(13) 0.0256(12) 0.0255(12) 0.0100(10) 0.0053(10) 0.0078(10)
C12 0.0413(14) 0.0223(12) 0.0349(14) 0.0084(10) 0.0097(11) 0.0055(10)
C13 0.0506(17) 0.0267(13) 0.0543(18) 0.0046(12) 0.0197(14) 0.0054(12)
C14 0.071(2) 0.0329(15) 0.075(2) 0.0058(15) 0.0296(18) 0.0197(15)
O21 0.0297(9) 0.0549(12) 0.0370(10) 0.0259(9) 0.0072(8) 0.0117(8)
O22 0.0297(9) 0.0454(11) 0.0368(10) 0.0238(9) -0.0027(8) 0.0013(8)
C21 0.0317(13) 0.0259(12) 0.0272(12) 0.0082(10) 0.0026(10) 0.0098(10)
C22 0.0447(15) 0.0402(15) 0.0294(13) 0.0157(11) 0.0071(11) 0.0160(12)
C23 0.0531(17) 0.0364(14) 0.0291(14) 0.0071(11) -0.0038(12) 0.0164(13)
C24 0.067(2) 0.067(2) 0.0409(17) 0.0135(16) -0.0125(15) 0.0301(17)
C3 0.115(4) 0.061(3) 0.083(3) 0.010(2) -0.023(3) 0.015(3)
C4 0.090(4) 0.084(3) 0.103(4) 0.045(3) 0.014(3) 0.026(3)
C5 0.130(4) 0.086(3) 0.064(3) 0.022(3) 0.019(3) 0.057(3)

_geom_special_details            
; 
 All esds (except the esd in the dihedral angle between two l.s. planes) 
 are estimated using the full covariance matrix.  The cell esds are taken 
 into account individually in the estimation of esds in distances, angles 
 and torsion angles; correlations between esds in cell parameters are only 
 used when they are defined by crystal symmetry.  An approximate (isotropic) 
 treatment of cell esds is used for estimating esds involving l.s. planes. 
;

loop_
_geom_bond_atom_site_label_1
_geom_bond_atom_site_label_2
_geom_bond_distance
_geom_bond_site_symmetry_2
_geom_bond_publ_flag
Pd1 C1 1.980(2) . ?
Pd1 C2 1.986(2) . ?
Pd1 O11 2.0868(17) . ?
Pd1 O21 2.0919(17) . ?
Pd1 Pd2 2.6557(4) 2_666 ?
Pd1 Pd2 2.8267(5) . ?
Pd2 C2 1.994(2) 2_666 ?
Pd2 C1 2.000(2) 2_666 ?
Pd2 O22 2.0968(17) . ?
Pd2 O12 2.0977(17) . ?
Pd2 Pd1 2.6557(4) 2_666 ?
Pd2 Pd2 2.9466(5) 2_566 ?
C1 O1 1.139(3) . ?
C1 Pd2 2.000(2) 2_666 ?
C2 O2 1.141(3) . ?
C2 Pd2 1.994(2) 2_666 ?
O11 C11 1.260(3) . ?
O12 C11 1.257(3) . ?
C11 C12 1.479(3) . ?
C12 C13 1.309(4) . ?
C12 H12 0.9500 . ?
C13 C14 1.491(4) . ?
C13 H13 0.9500 . ?
C14 H14A 0.9800 . ?
C14 H14B 0.9800 . ?
C14 H14C 0.9800 . ?
O21 C21 1.262(3) . ?
O22 C21 1.255(3) . ?
C21 C22 1.474(3) . ?
C22 C23 1.309(4) . ?
C22 H22 0.9500 . ?
C23 C24 1.493(4) . ?
C23 H23 0.9500 . ?
C24 H24A 0.9800 . ?
C24 H24B 0.9800 . ?
C24 H24C 0.9800 . ?
C3 C5 1.348(7) 2_675 ?
C3 C4 1.360(6) . ?
C3 H3 0.9500 . ?
C4 C5 1.355(6) . ?
C4 H4 0.9500 . ?
C5 C3 1.348(7) 2_675 ?
C5 H5 0.9500 . ?

loop_
_geom_angle_atom_site_label_1
_geom_angle_atom_site_label_2
_geom_angle_atom_site_label_3
_geom_angle
_geom_angle_site_symmetry_1
_geom_angle_site_symmetry_3
_geom_angle_publ_flag
C1 Pd1 C2 95.02(10) . . ?
C1 Pd1 O11 176.44(8) . . ?
C2 Pd1 O11 87.42(8) . . ?
C1 Pd1 O21 87.84(9) . . ?
C2 Pd1 O21 176.38(8) . . ?
O11 Pd1 O21 89.63(7) . . ?
C1 Pd1 Pd2 48.45(7) . 2_666 ?
C2 Pd1 Pd2 48.26(7) . 2_666 ?
O11 Pd1 Pd2 133.20(5) . 2_666 ?
O21 Pd1 Pd2 133.91(5) . 2_666 ?
C1 Pd1 Pd2 93.45(7) . . ?
C2 Pd1 Pd2 93.71(7) . . ?
O11 Pd1 Pd2 83.78(5) . . ?
O21 Pd1 Pd2 83.87(5) . . ?
Pd2 Pd1 Pd2 84.964(11) 2_666 . ?
C2 Pd2 C1 94.17(10) 2_666 2_666 ?
C2 Pd2 O22 88.94(8) 2_666 . ?
C1 Pd2 O22 176.83(8) 2_666 . ?
C2 Pd2 O12 176.75(8) 2_666 . ?
C1 Pd2 O12 88.91(9) 2_666 . ?
O22 Pd2 O12 87.97(8) . . ?
C2 Pd2 Pd1 48.02(7) 2_666 2_666 ?
C1 Pd2 Pd1 47.82(7) 2_666 2_666 ?
O22 Pd2 Pd1 135.34(5) . 2_666 ?
O12 Pd2 Pd1 135.22(5) . 2_666 ?
C2 Pd2 Pd1 100.46(6) 2_666 . ?
C1 Pd2 Pd1 100.15(7) 2_666 . ?
O22 Pd2 Pd1 79.82(5) . . ?
O12 Pd2 Pd1 79.97(5) . . ?
Pd1 Pd2 Pd1 95.036(12) 2_666 . ?
C2 Pd2 Pd2 82.84(6) 2_666 2_566 ?
C1 Pd2 Pd2 80.49(7) 2_666 2_566 ?
O22 Pd2 Pd2 99.34(5) . 2_566 ?
O12 Pd2 Pd2 96.69(5) . 2_566 ?
Pd1 Pd2 Pd2 87.897(12) 2_666 2_566 ?
Pd1 Pd2 Pd2 176.565(10) . 2_566 ?
O1 C1 Pd1 139.26(19) . . ?
O1 C1 Pd2 136.5(2) . 2_666 ?
Pd1 C1 Pd2 83.72(10) . 2_666 ?
O2 C2 Pd1 138.67(19) . . ?
O2 C2 Pd2 137.19(19) . 2_666 ?
Pd1 C2 Pd2 83.72(9) . 2_666 ?
C11 O11 Pd1 123.20(15) . . ?
C11 O12 Pd2 127.56(15) . . ?
O12 C11 O11 125.3(2) . . ?
O12 C11 C12 117.9(2) . . ?
O11 C11 C12 116.8(2) . . ?
C13 C12 C11 123.3(2) . . ?
C13 C12 H12 118.4 . . ?
C11 C12 H12 118.4 . . ?
C12 C13 C14 125.3(3) . . ?
C12 C13 H13 117.3 . . ?
C14 C13 H13 117.3 . . ?
C13 C14 H14A 109.5 . . ?
C13 C14 H14B 109.5 . . ?
H14A C14 H14B 109.5 . . ?
C13 C14 H14C 109.5 . . ?
H14A C14 H14C 109.5 . . ?
H14B C14 H14C 109.5 . . ?
C21 O21 Pd1 122.97(15) . . ?
C21 O22 Pd2 127.99(15) . . ?
O22 C21 O21 125.0(2) . . ?
O22 C21 C22 117.9(2) . . ?
O21 C21 C22 117.0(2) . . ?
C23 C22 C21 123.2(2) . . ?
C23 C22 H22 118.4 . . ?
C21 C22 H22 118.4 . . ?
C22 C23 C24 126.2(3) . . ?
C22 C23 H23 116.9 . . ?
C24 C23 H23 116.9 . . ?
C23 C24 H24A 109.5 . . ?
C23 C24 H24B 109.5 . . ?
H24A C24 H24B 109.5 . . ?
C23 C24 H24C 109.5 . . ?
H24A C24 H24C 109.5 . . ?
H24B C24 H24C 109.5 . . ?
C5 C3 C4 120.9(4) 2_675 . ?
C5 C3 H3 119.6 2_675 . ?
C4 C3 H3 119.6 . . ?
C5 C4 C3 119.2(5) . . ?
C5 C4 H4 120.4 . . ?
C3 C4 H4 120.4 . . ?
C3 C5 C4 119.9(4) 2_675 . ?
C3 C5 H5 120.0 2_675 . ?
C4 C5 H5 120.0 . . ?

_diffrn_measured_fraction_theta_max 0.995
_diffrn_reflns_theta_full        28.00
_diffrn_measured_fraction_theta_full 0.995
_refine_diff_density_max         0.538
_refine_diff_density_min         -0.314
_refine_diff_density_rms         0.080
