####################################################################### 
# 
# This file contains crystal structure data downloaded from the 
# Cambridge Structural Database (CSD) hosted by the Cambridge 
# Crystallographic Data Centre (CCDC).
# 
# Full information about CCDC data access policies and citation 
# guidelines are available at http://www.ccdc.cam.ac.uk/access/V1 
# 
# Audit and citation data items may have been added by the CCDC. 
# Please retain this information to preserve the provenance of 
# this file and to allow appropriate attribution of the data. 
# 
#######################################################################

data_Eu_ida
_audit_block_doi                 10.5517/ccqw1by
_database_code_depnum_ccdc_archive 'CCDC 681390'
loop_
_citation_id
_citation_doi
_citation_year
1 10.1016/j.inoche.2008.04.020 2008
_audit_update_record             
;
2008-03-14 deposited with the CCDC.	2024-07-13 downloaded from the CCDC.
;

_audit_creation_method           SHELXL-97
_chemical_name_systematic        
;
tris(hydrogeniminodiacetato)Europium(III)
;
_chemical_name_common            ?
_chemical_melting_point          ?
_chemical_formula_moiety         'C12 H18 Eu N3 O12'
_chemical_formula_sum            'C12 H18 Eu N3 O12'
_chemical_formula_weight         548.26

loop_
_atom_type_symbol
_atom_type_description
_atom_type_scat_dispersion_real
_atom_type_scat_dispersion_imag
_atom_type_scat_source
C C 0.0033 0.0016 'International Tables Vol C Tables 4.2.6.8 and 6.1.1.4'
H H 0.0000 0.0000 'International Tables Vol C Tables 4.2.6.8 and 6.1.1.4'
Eu Eu -0.1578 3.6682 'International Tables Vol C Tables 4.2.6.8 and 6.1.1.4'
N N 0.0061 0.0033 'International Tables Vol C Tables 4.2.6.8 and 6.1.1.4'
O O 0.0106 0.0060 'International Tables Vol C Tables 4.2.6.8 and 6.1.1.4'

_symmetry_cell_setting           Trigonal
_symmetry_space_group_name_H-M   'P -3 c 1'

loop_
_symmetry_equiv_pos_as_xyz
'x, y, z'
'-y, x-y, z'
'-x+y, -x, z'
'y, x, -z+1/2'
'-x, -x+y, -z+1/2'
'x-y, -y, -z+1/2'
'-x, -y, -z'
'y, -x+y, -z'
'x-y, x, -z'
'-y, -x, z-1/2'
'x, x-y, z-1/2'
'-x+y, y, z-1/2'

_cell_length_a                   13.481(2)
_cell_length_b                   13.481(2)
_cell_length_c                   16.566(3)
_cell_angle_alpha                90.00
_cell_angle_beta                 90.00
_cell_angle_gamma                120.00
_cell_volume                     2607.3(7)
_cell_formula_units_Z            4
_cell_measurement_temperature    173(2)
_cell_measurement_reflns_used    ?
_cell_measurement_theta_min      2.46
_cell_measurement_theta_max      35.00

_exptl_crystal_description       prism
_exptl_crystal_colour            ?
_exptl_crystal_size_max          0.50
_exptl_crystal_size_mid          0.38
_exptl_crystal_size_min          0.18
_exptl_crystal_density_meas      ?
_exptl_crystal_density_diffrn    1.397
_exptl_crystal_density_method    'not measured'
_exptl_crystal_F_000             1080
_exptl_absorpt_coefficient_mu    2.454
_exptl_absorpt_correction_type   multi-scan
_exptl_absorpt_correction_T_min  0.340
_exptl_absorpt_correction_T_max  0.643
_exptl_absorpt_process_details   'SADABS (Sheldrick,1996)'

_exptl_special_details           
;
?
;

_diffrn_ambient_temperature      173(2)
_diffrn_radiation_wavelength     0.71073
_diffrn_radiation_type           MoK\a
_diffrn_radiation_source         'fine-focus sealed tube'
_diffrn_radiation_monochromator  graphite
_diffrn_measurement_device_type  'Bruker P4'
_diffrn_measurement_method       '\w scans'
_diffrn_detector_area_resol_mean ?
_diffrn_standards_number         ?
_diffrn_standards_interval_count ?
_diffrn_standards_interval_time  ?
_diffrn_standards_decay_%        ?
_diffrn_reflns_number            30532
_diffrn_reflns_av_R_equivalents  0.0165
_diffrn_reflns_av_sigmaI/netI    0.0076
_diffrn_reflns_limit_h_min       -19
_diffrn_reflns_limit_h_max       19
_diffrn_reflns_limit_k_min       -19
_diffrn_reflns_limit_k_max       16
_diffrn_reflns_limit_l_min       -23
_diffrn_reflns_limit_l_max       23
_diffrn_reflns_theta_min         2.46
_diffrn_reflns_theta_max         30.52
_reflns_number_total             2672
_reflns_number_gt                2276
_reflns_threshold_expression     >2sigma(I)

_computing_data_collection       'Bruker XSCANS'
_computing_cell_refinement       'Bruker XSCANS'
_computing_data_reduction        'Bruker SHELXTL'
_computing_structure_solution    'SHELXS-97 (Sheldrick, 1990)'
_computing_structure_refinement  'SHELXL-97 (Sheldrick, 1997)'
_computing_molecular_graphics    ?
_computing_publication_material  ?

_refine_special_details          
;
Refinement of F^2^ against ALL reflections. The weighted R-factor wR and
goodness of fit S are based on F^2^, conventional R-factors R are based
on F, with F set to zero for negative F^2^. The threshold expression of
F^2^ > 2sigma(F^2^) is used only for calculating R-factors(gt) etc. and is
not relevant to the choice of reflections for refinement. R-factors based
on F^2^ are statistically about twice as large as those based on F, and R-
factors based on ALL data will be even larger.
;

_refine_ls_structure_factor_coef Fsqd
_refine_ls_matrix_type           full
_refine_ls_weighting_scheme      calc
_refine_ls_weighting_details     
'calc w=1/[\s^2^(Fo^2^)+(0.0378P)^2^+3.9155P] where P=(Fo^2^+2Fc^2^)/3'
_atom_sites_solution_primary     direct
_atom_sites_solution_secondary   difmap
_atom_sites_solution_hydrogens   geom
_refine_ls_hydrogen_treatment    constr
_refine_ls_extinction_method     none
_refine_ls_extinction_coef       ?
_refine_ls_number_reflns         2672
_refine_ls_number_parameters     85
_refine_ls_number_restraints     0
_refine_ls_R_factor_all          0.0282
_refine_ls_R_factor_gt           0.0248
_refine_ls_wR_factor_ref         0.0791
_refine_ls_wR_factor_gt          0.0768
_refine_ls_goodness_of_fit_ref   1.148
_refine_ls_restrained_S_all      1.148
_refine_ls_shift/su_max          0.000
_refine_ls_shift/su_mean         0.000

loop_
_atom_site_label
_atom_site_type_symbol
_atom_site_fract_x
_atom_site_fract_y
_atom_site_fract_z
_atom_site_U_iso_or_equiv
_atom_site_adp_type
_atom_site_occupancy
_atom_site_symmetry_multiplicity
_atom_site_calc_flag
_atom_site_refinement_flags
_atom_site_disorder_assembly
_atom_site_disorder_group
Eu1 Eu 0.3333 0.6667 0.211427(9) 0.01681(7) Uani 1 3 d S . .
O1 O 0.41819(16) 0.53524(15) 0.18519(11) 0.0270(3) Uani 1 1 d . . .
O2 O 0.26681(16) 0.50736(17) 0.11484(12) 0.0290(4) Uani 1 1 d . . .
O3 O 0.51675(19) 0.24615(17) 0.19472(11) 0.0333(4) Uani 1 1 d . . .
O4 O 0.4831(2) 0.12282(18) 0.09523(13) 0.0446(6) Uani 1 1 d . . .
H4 H 0.5175 0.1010 0.1264 0.067 Uiso 1 1 d R . .
N1 N 0.41821(16) 0.34913(16) 0.12349(11) 0.0208(3) Uani 1 1 d . . .
H1 H 0.4555 0.3777 0.1689 0.025 Uiso 1 1 d R . .
C1 C 0.3440(2) 0.48350(19) 0.13202(13) 0.0224(4) Uani 1 1 d . . .
C2 C 0.3445(2) 0.3878(2) 0.08427(14) 0.0253(4) Uani 1 1 d . . .
H2A H 0.2653 0.3224 0.0800 0.030 Uiso 1 1 calc R . .
H2B H 0.3729 0.4150 0.0290 0.030 Uiso 1 1 calc R . .
C3 C 0.4217(2) 0.2564(2) 0.07741(13) 0.0269(5) Uani 1 1 d . . .
H3A H 0.4637 0.2877 0.0262 0.032 Uiso 1 1 calc R . .
H3B H 0.3426 0.1959 0.0641 0.032 Uiso 1 1 calc R . .
C4 C 0.4804(2) 0.2047(2) 0.12629(14) 0.0255(4) Uani 1 1 d . . .

loop_
_atom_site_aniso_label
_atom_site_aniso_U_11
_atom_site_aniso_U_22
_atom_site_aniso_U_33
_atom_site_aniso_U_23
_atom_site_aniso_U_13
_atom_site_aniso_U_12
Eu1 0.01812(8) 0.01812(8) 0.01419(10) 0.000 0.000 0.00906(4)
O1 0.0305(8) 0.0260(8) 0.0283(8) -0.0047(6) -0.0070(7) 0.0170(7)
O2 0.0314(9) 0.0292(9) 0.0327(9) -0.0090(7) -0.0104(7) 0.0199(8)
O3 0.0389(11) 0.0389(10) 0.0270(8) -0.0097(7) -0.0154(8) 0.0233(9)
O4 0.0676(15) 0.0441(12) 0.0443(11) -0.0193(9) -0.0268(10) 0.0444(12)
N1 0.0258(9) 0.0224(8) 0.0184(7) -0.0034(6) -0.0035(7) 0.0152(7)
C1 0.0274(11) 0.0202(9) 0.0215(9) 0.0008(7) 0.0002(8) 0.0134(8)
C2 0.0322(11) 0.0263(11) 0.0233(10) -0.0053(8) -0.0072(8) 0.0191(9)
C3 0.0384(13) 0.0329(12) 0.0197(9) -0.0073(8) -0.0079(9) 0.0256(11)
C4 0.0285(11) 0.0248(11) 0.0265(10) -0.0032(8) -0.0077(9) 0.0157(9)

_geom_special_details            
;
All esds (except the esd in the dihedral angle between two l.s. planes)
are estimated using the full covariance matrix. The cell esds are taken
into account individually in the estimation of esds in distances, angles
and torsion angles; correlations between esds in cell parameters are only
used when they are defined by crystal symmetry. An approximate
(isotropic)
treatment of cell esds is used for estimating esds involving l.s. planes.
;

loop_
_geom_bond_atom_site_label_1
_geom_bond_atom_site_label_2
_geom_bond_distance
_geom_bond_site_symmetry_2
_geom_bond_publ_flag
Eu1 O3 2.3468(19) 4 ?
Eu1 O3 2.3468(19) 6_565 ?
Eu1 O3 2.3469(19) 5_665 ?
Eu1 O2 2.4598(19) 2_665 ?
Eu1 O2 2.4599(19) 3_565 ?
Eu1 O2 2.4598(19) . ?
Eu1 O1 2.5813(18) 2_665 ?
Eu1 O1 2.5813(18) 3_565 ?
Eu1 O1 2.5813(18) . ?
Eu1 C1 2.864(2) 3_565 ?
Eu1 C1 2.864(2) 2_665 ?
Eu1 C1 2.864(2) . ?
O1 C1 1.251(3) . ?
O2 C1 1.266(3) . ?
O3 C4 1.251(3) . ?
O3 Eu1 2.3469(19) 4 ?
O4 C4 1.235(3) . ?
O4 H4 0.8400 . ?
N1 C2 1.483(3) . ?
N1 C3 1.485(3) . ?
N1 H1 0.8801 . ?
C1 C2 1.516(3) . ?
C2 H2A 0.9900 . ?
C2 H2B 0.9900 . ?
C3 C4 1.522(3) . ?
C3 H3A 0.9900 . ?
C3 H3B 0.9900 . ?

loop_
_geom_angle_atom_site_label_1
_geom_angle_atom_site_label_2
_geom_angle_atom_site_label_3
_geom_angle
_geom_angle_site_symmetry_1
_geom_angle_site_symmetry_3
_geom_angle_publ_flag
O3 Eu1 O3 80.89(8) 4 6_565 ?
O3 Eu1 O3 80.89(8) 4 5_665 ?
O3 Eu1 O3 80.89(8) 6_565 5_665 ?
O3 Eu1 O2 143.40(6) 4 2_665 ?
O3 Eu1 O2 128.16(6) 6_565 2_665 ?
O3 Eu1 O2 82.65(8) 5_665 2_665 ?
O3 Eu1 O2 128.16(6) 4 3_565 ?
O3 Eu1 O2 82.65(8) 6_565 3_565 ?
O3 Eu1 O2 143.40(6) 5_665 3_565 ?
O2 Eu1 O2 82.26(7) 2_665 3_565 ?
O3 Eu1 O2 82.65(8) 4 . ?
O3 Eu1 O2 143.40(6) 6_565 . ?
O3 Eu1 O2 128.16(6) 5_665 . ?
O2 Eu1 O2 82.26(7) 2_665 . ?
O2 Eu1 O2 82.26(7) 3_565 . ?
O3 Eu1 O1 148.17(7) 4 2_665 ?
O3 Eu1 O1 76.21(6) 6_565 2_665 ?
O3 Eu1 O1 73.94(6) 5_665 2_665 ?
O2 Eu1 O1 52.01(5) 2_665 2_665 ?
O2 Eu1 O1 70.47(6) 3_565 2_665 ?
O2 Eu1 O1 128.41(6) . 2_665 ?
O3 Eu1 O1 76.21(6) 4 3_565 ?
O3 Eu1 O1 73.95(6) 6_565 3_565 ?
O3 Eu1 O1 148.17(7) 5_665 3_565 ?
O2 Eu1 O1 128.41(6) 2_665 3_565 ?
O2 Eu1 O1 52.01(6) 3_565 3_565 ?
O2 Eu1 O1 70.46(6) . 3_565 ?
O1 Eu1 O1 117.23(2) 2_665 3_565 ?
O3 Eu1 O1 73.95(6) 4 . ?
O3 Eu1 O1 148.17(7) 6_565 . ?
O3 Eu1 O1 76.21(6) 5_665 . ?
O2 Eu1 O1 70.47(6) 2_665 . ?
O2 Eu1 O1 128.41(6) 3_565 . ?
O2 Eu1 O1 52.01(5) . . ?
O1 Eu1 O1 117.22(2) 2_665 . ?
O1 Eu1 O1 117.22(2) 3_565 . ?
O3 Eu1 C1 102.09(7) 4 3_565 ?
O3 Eu1 C1 77.36(7) 6_565 3_565 ?
O3 Eu1 C1 157.22(7) 5_665 3_565 ?
O2 Eu1 C1 105.63(7) 2_665 3_565 ?
O2 Eu1 C1 26.12(6) 3_565 3_565 ?
O2 Eu1 C1 74.46(6) . 3_565 ?
O1 Eu1 C1 94.20(6) 2_665 3_565 ?
O1 Eu1 C1 25.90(6) 3_565 3_565 ?
O1 Eu1 C1 126.47(6) . 3_565 ?
O3 Eu1 C1 157.23(7) 4 2_665 ?
O3 Eu1 C1 102.09(7) 6_565 2_665 ?
O3 Eu1 C1 77.36(7) 5_665 2_665 ?
O2 Eu1 C1 26.12(6) 2_665 2_665 ?
O2 Eu1 C1 74.46(6) 3_565 2_665 ?
O2 Eu1 C1 105.63(7) . 2_665 ?
O1 Eu1 C1 25.89(6) 2_665 2_665 ?
O1 Eu1 C1 126.47(6) 3_565 2_665 ?
O1 Eu1 C1 94.20(6) . 2_665 ?
C1 Eu1 C1 100.58(5) 3_565 2_665 ?
O3 Eu1 C1 77.36(7) 4 . ?
O3 Eu1 C1 157.22(7) 6_565 . ?
O3 Eu1 C1 102.09(7) 5_665 . ?
O2 Eu1 C1 74.46(6) 2_665 . ?
O2 Eu1 C1 105.63(7) 3_565 . ?
O2 Eu1 C1 26.12(6) . . ?
O1 Eu1 C1 126.47(6) 2_665 . ?
O1 Eu1 C1 94.19(6) 3_565 . ?
O1 Eu1 C1 25.89(6) . . ?
C1 Eu1 C1 100.58(5) 3_565 . ?
C1 Eu1 C1 100.58(5) 2_665 . ?
C1 O1 Eu1 89.79(14) . . ?
C1 O2 Eu1 95.08(14) . . ?
C4 O3 Eu1 150.63(19) . 4 ?
C4 O4 H4 109.0 . . ?
C2 N1 C3 112.29(17) . . ?
C2 N1 H1 123.9 . . ?
C3 N1 H1 123.8 . . ?
O1 C1 O2 123.1(2) . . ?
O1 C1 C2 120.0(2) . . ?
O2 C1 C2 116.9(2) . . ?
O1 C1 Eu1 64.31(12) . . ?
O2 C1 Eu1 58.80(12) . . ?
C2 C1 Eu1 175.33(15) . . ?
N1 C2 C1 111.05(18) . . ?
N1 C2 H2A 109.4 . . ?
C1 C2 H2A 109.4 . . ?
N1 C2 H2B 109.4 . . ?
C1 C2 H2B 109.4 . . ?
H2A C2 H2B 108.0 . . ?
N1 C3 C4 110.73(18) . . ?
N1 C3 H3A 109.5 . . ?
C4 C3 H3A 109.5 . . ?
N1 C3 H3B 109.5 . . ?
C4 C3 H3B 109.5 . . ?
H3A C3 H3B 108.1 . . ?
O4 C4 O3 126.6(2) . . ?
O4 C4 C3 116.2(2) . . ?
O3 C4 C3 117.1(2) . . ?

_diffrn_measured_fraction_theta_max 0.999
_diffrn_reflns_theta_full        30.52
_diffrn_measured_fraction_theta_full 0.999
_refine_diff_density_max         0.784
_refine_diff_density_min         -0.759
_refine_diff_density_rms         0.105

# SQUEEZE RESULTS (APPEND TO CIF)
# Note: Data are Listed for all Voids in the P1 Unit Cell
# i.e. Centre of Gravity, Solvent Accessible Volume,
# Recovered number of Electrons in the Void and
# Details about the Squeezed Material
loop_
_platon_squeeze_void_nr
_platon_squeeze_void_average_x
_platon_squeeze_void_average_y
_platon_squeeze_void_average_z
_platon_squeeze_void_volume
_platon_squeeze_void_count_electrons
_platon_squeeze_void_content
1 0.000 0.000 -0.002 940 178 ' '
_platon_squeeze_details          
;
;
