####################################################################### 
# 
# This file contains crystal structure data downloaded from the 
# Cambridge Structural Database (CSD) hosted by the Cambridge 
# Crystallographic Data Centre (CCDC).
# 
# Full information about CCDC data access policies and citation 
# guidelines are available at http://www.ccdc.cam.ac.uk/access/V1 
# 
# Audit and citation data items may have been added by the CCDC. 
# Please retain this information to preserve the provenance of 
# this file and to allow appropriate attribution of the data. 
# 
#######################################################################

data_Er_ida
_audit_block_doi                 10.5517/ccqw1f1
_database_code_depnum_ccdc_archive 'CCDC 681393'
loop_
_citation_id
_citation_doi
_citation_year
1 10.1016/j.inoche.2008.04.020 2008
_audit_update_record             
;
2008-03-14 deposited with the CCDC.	2024-07-13 downloaded from the CCDC.
;

_audit_creation_method           SHELXL-97
_chemical_name_systematic        
;
tris(hydrogeniminodiacetato)Erbium(III)
;
_chemical_name_common            ?
_chemical_melting_point          ?
_chemical_formula_moiety         'C12 H18 Er N3 O12'
_chemical_formula_sum            'C12 H18 Er N3 O12'
_chemical_formula_weight         563.55

loop_
_atom_type_symbol
_atom_type_description
_atom_type_scat_dispersion_real
_atom_type_scat_dispersion_imag
_atom_type_scat_source
C C 0.0033 0.0016 'International Tables Vol C Tables 4.2.6.8 and 6.1.1.4'
H H 0.0000 0.0000 'International Tables Vol C Tables 4.2.6.8 and 6.1.1.4'
Er Er -0.2586 4.9576 'International Tables Vol C Tables 4.2.6.8 and 6.1.1.4'
N N 0.0061 0.0033 'International Tables Vol C Tables 4.2.6.8 and 6.1.1.4'
O O 0.0106 0.0060 'International Tables Vol C Tables 4.2.6.8 and 6.1.1.4'

_symmetry_cell_setting           Trigonal
_symmetry_space_group_name_H-M   'P -3 c 1'

loop_
_symmetry_equiv_pos_as_xyz
'x, y, z'
'-y, x-y, z'
'-x+y, -x, z'
'y, x, -z+1/2'
'-x, -x+y, -z+1/2'
'x-y, -y, -z+1/2'
'-x, -y, -z'
'y, -x+y, -z'
'x-y, x, -z'
'-y, -x, z-1/2'
'x, x-y, z-1/2'
'-x+y, y, z-1/2'

_cell_length_a                   13.3520(10)
_cell_length_b                   13.3520(10)
_cell_length_c                   16.4030(10)
_cell_angle_alpha                90.00
_cell_angle_beta                 90.00
_cell_angle_gamma                120.00
_cell_volume                     2532.5(3)
_cell_formula_units_Z            4
_cell_measurement_temperature    293(2)
_cell_measurement_reflns_used    ?
_cell_measurement_theta_min      ?
_cell_measurement_theta_max      ?

_exptl_crystal_description       prism
_exptl_crystal_colour            ?
_exptl_crystal_size_max          0.12
_exptl_crystal_size_mid          0.08
_exptl_crystal_size_min          0.04
_exptl_crystal_density_meas      ?
_exptl_crystal_density_diffrn    1.478
_exptl_crystal_density_method    'not measured'
_exptl_crystal_F_000             1100
_exptl_absorpt_coefficient_mu    3.364
_exptl_absorpt_correction_type   multi-scan
_exptl_absorpt_correction_T_min  0.731
_exptl_absorpt_correction_T_max  0.874
_exptl_absorpt_process_details   ?

_exptl_special_details           
;
?
;

_diffrn_ambient_temperature      293(2)
_diffrn_radiation_wavelength     0.71073
_diffrn_radiation_type           MoK\a
_diffrn_radiation_source         'fine-focus sealed tube'
_diffrn_radiation_monochromator  graphite
_diffrn_measurement_device_type  KappaCCD
_diffrn_measurement_method       CCD
_diffrn_detector_area_resol_mean 9
_diffrn_standards_number         ?
_diffrn_standards_interval_count ?
_diffrn_standards_interval_time  ?
_diffrn_standards_decay_%        ?
_diffrn_reflns_number            20175
_diffrn_reflns_av_R_equivalents  0.0823
_diffrn_reflns_av_sigmaI/netI    0.1014
_diffrn_reflns_limit_h_min       -16
_diffrn_reflns_limit_h_max       14
_diffrn_reflns_limit_k_min       -18
_diffrn_reflns_limit_k_max       17
_diffrn_reflns_limit_l_min       -21
_diffrn_reflns_limit_l_max       22
_diffrn_reflns_theta_min         1.76
_diffrn_reflns_theta_max         29.01
_reflns_number_total             2119
_reflns_number_gt                1305
_reflns_threshold_expression     >2sigma(I)

_computing_data_collection       'Collect (Bruker AXS BV, 1997-2004)'
_computing_cell_refinement       'HKL Scalepack (Otwinowski & Minor 1997)'
_computing_data_reduction        
'HKL Denzo and Scalepack (Otwinowski & Minor 1997)'
_computing_structure_solution    'Sir2004 (Altomare et al., 2004)'
_computing_structure_refinement  'SHELXL-97 (Sheldrick, 1997)'
_computing_molecular_graphics    ?
_computing_publication_material  ?

_refine_special_details          
;
Refinement of F^2^ against ALL reflections. The weighted R-factor wR and
goodness of fit S are based on F^2^, conventional R-factors R are based
on F, with F set to zero for negative F^2^. The threshold expression of
F^2^ > 2sigma(F^2^) is used only for calculating R-factors(gt) etc. and is
not relevant to the choice of reflections for refinement. R-factors based
on F^2^ are statistically about twice as large as those based on F, and R-
factors based on ALL data will be even larger.
;

_refine_ls_structure_factor_coef Fsqd
_refine_ls_matrix_type           full
_refine_ls_weighting_scheme      calc
_refine_ls_weighting_details     
'calc w=1/[\s^2^(Fo^2^)+(0.1443P)^2^+57.4108P] where P=(Fo^2^+2Fc^2^)/3'
_atom_sites_solution_primary     direct
_atom_sites_solution_secondary   difmap
_atom_sites_solution_hydrogens   geom
_refine_ls_hydrogen_treatment    constr
_refine_ls_extinction_method     SHELXL
_refine_ls_extinction_coef       0.0109(13)
_refine_ls_extinction_expression Fc^*^=kFc[1+0.001xFc^2^\l^3^/sin(2\q)]^-1/4^
_refine_ls_number_reflns         2119
_refine_ls_number_parameters     80
_refine_ls_number_restraints     60
_refine_ls_R_factor_all          0.1180
_refine_ls_R_factor_gt           0.0643
_refine_ls_wR_factor_ref         0.2289
_refine_ls_wR_factor_gt          0.1838
_refine_ls_goodness_of_fit_ref   1.188
_refine_ls_restrained_S_all      1.277
_refine_ls_shift/su_max          0.000
_refine_ls_shift/su_mean         0.000

loop_
_atom_site_label
_atom_site_type_symbol
_atom_site_fract_x
_atom_site_fract_y
_atom_site_fract_z
_atom_site_U_iso_or_equiv
_atom_site_adp_type
_atom_site_occupancy
_atom_site_symmetry_multiplicity
_atom_site_calc_flag
_atom_site_refinement_flags
_atom_site_disorder_assembly
_atom_site_disorder_group
Er1 Er 0.3333 0.6667 0.21167(4) 0.0259(4) Uani 1 3 d SU . .
O3 O 0.5201(7) 0.2520(6) 0.1968(5) 0.0411(19) Uani 1 1 d U . .
O4 O 0.4801(8) 0.1266(7) 0.0970(5) 0.055(2) Uani 1 1 d U . .
H4 H 0.5121 0.1032 0.1281 0.082 Uiso 1 1 calc R . .
O1 O 0.4203(5) 0.5396(5) 0.1853(4) 0.0264(11) Uani 1 1 d U . .
O2 O 0.2763(5) 0.5154(6) 0.1157(4) 0.0264(11) Uani 1 1 d U . .
N1 N 0.4207(7) 0.3531(6) 0.1263(4) 0.0259(18) Uani 1 1 d U . .
H1 H 0.4560 0.3799 0.1718 0.031 Uiso 1 1 calc R . .
C1 C 0.3501(7) 0.4903(8) 0.1332(5) 0.0200(18) Uani 1 1 d U . .
C2 C 0.3472(8) 0.3933(8) 0.0845(6) 0.024(2) Uani 1 1 d U . .
H2A H 0.2683 0.3297 0.0802 0.029 Uiso 1 1 calc R . .
H2B H 0.3763 0.4200 0.0299 0.029 Uiso 1 1 calc R . .
C3 C 0.4240(9) 0.2619(8) 0.0788(6) 0.030(2) Uani 1 1 d U . .
H3A H 0.4669 0.2943 0.0288 0.036 Uiso 1 1 calc R . .
H3B H 0.3459 0.2032 0.0643 0.036 Uiso 1 1 calc R . .
C4 C 0.4798(8) 0.2080(8) 0.1268(5) 0.0215(19) Uani 1 1 d U . .

loop_
_atom_site_aniso_label
_atom_site_aniso_U_11
_atom_site_aniso_U_22
_atom_site_aniso_U_33
_atom_site_aniso_U_23
_atom_site_aniso_U_13
_atom_site_aniso_U_12
Er1 0.0240(4) 0.0240(4) 0.0298(5) 0.000 0.000 0.0120(2)
O3 0.047(5) 0.042(5) 0.043(4) -0.011(3) -0.015(4) 0.028(4)
O4 0.093(7) 0.048(5) 0.051(5) -0.019(4) -0.026(5) 0.057(5)
O1 0.021(2) 0.024(3) 0.041(3) -0.0046(19) -0.0061(19) 0.015(2)
O2 0.021(2) 0.024(3) 0.041(3) -0.0046(19) -0.0061(19) 0.015(2)
N1 0.042(5) 0.022(4) 0.022(4) -0.011(3) -0.018(3) 0.022(4)
C1 0.024(5) 0.027(5) 0.010(3) 0.004(3) 0.004(3) 0.013(4)
C2 0.013(4) 0.018(5) 0.035(5) -0.006(4) 0.001(4) 0.003(4)
C3 0.044(6) 0.024(5) 0.033(5) -0.009(4) -0.007(4) 0.025(5)
C4 0.016(5) 0.030(5) 0.021(4) -0.006(3) -0.005(3) 0.013(4)

_geom_special_details            
;
All esds (except the esd in the dihedral angle between two l.s. planes)
are estimated using the full covariance matrix. The cell esds are taken
into account individually in the estimation of esds in distances, angles
and torsion angles; correlations between esds in cell parameters are only
used when they are defined by crystal symmetry. An approximate
(isotropic)
treatment of cell esds is used for estimating esds involving l.s. planes.
;

loop_
_geom_bond_atom_site_label_1
_geom_bond_atom_site_label_2
_geom_bond_distance
_geom_bond_site_symmetry_2
_geom_bond_publ_flag
Er1 O3 2.267(7) 4 ?
Er1 O3 2.267(7) 5_665 ?
Er1 O3 2.267(7) 6_565 ?
Er1 O2 2.367(7) 3_565 ?
Er1 O2 2.367(7) 2_665 ?
Er1 O2 2.367(7) . ?
Er1 O1 2.527(6) 3_565 ?
Er1 O1 2.527(6) 2_665 ?
Er1 O1 2.527(6) . ?
Er1 C1 2.789(9) 3_565 ?
Er1 C1 2.789(9) 2_665 ?
Er1 C1 2.789(9) . ?
O3 C4 1.279(11) . ?
O3 Er1 2.267(7) 4 ?
O4 C4 1.193(11) . ?
O4 H4 0.8200 . ?
O1 C1 1.194(10) . ?
O2 C1 1.223(10) . ?
N1 C3 1.465(11) . ?
N1 C2 1.499(12) . ?
N1 H1 0.8600 . ?
C1 C2 1.506(12) . ?
C2 H2A 0.9700 . ?
C2 H2B 0.9700 . ?
C3 C4 1.493(13) . ?
C3 H3A 0.9700 . ?
C3 H3B 0.9700 . ?

loop_
_geom_angle_atom_site_label_1
_geom_angle_atom_site_label_2
_geom_angle_atom_site_label_3
_geom_angle
_geom_angle_site_symmetry_1
_geom_angle_site_symmetry_3
_geom_angle_publ_flag
O3 Er1 O3 80.9(3) 4 5_665 ?
O3 Er1 O3 80.9(3) 4 6_565 ?
O3 Er1 O3 80.9(3) 5_665 6_565 ?
O3 Er1 O2 128.0(2) 4 3_565 ?
O3 Er1 O2 144.4(2) 5_665 3_565 ?
O3 Er1 O2 83.9(3) 6_565 3_565 ?
O3 Er1 O2 144.4(2) 4 2_665 ?
O3 Er1 O2 83.9(3) 5_665 2_665 ?
O3 Er1 O2 128.0(2) 6_565 2_665 ?
O2 Er1 O2 80.6(2) 3_565 2_665 ?
O3 Er1 O2 83.9(3) 4 . ?
O3 Er1 O2 128.0(2) 5_665 . ?
O3 Er1 O2 144.4(2) 6_565 . ?
O2 Er1 O2 80.6(3) 3_565 . ?
O2 Er1 O2 80.6(2) 2_665 . ?
O3 Er1 O1 76.9(2) 4 3_565 ?
O3 Er1 O1 148.3(3) 5_665 3_565 ?
O3 Er1 O1 73.5(2) 6_565 3_565 ?
O2 Er1 O1 51.2(2) 3_565 3_565 ?
O2 Er1 O1 126.8(2) 2_665 3_565 ?
O2 Er1 O1 71.7(2) . 3_565 ?
O3 Er1 O1 148.3(3) 4 2_665 ?
O3 Er1 O1 73.5(2) 5_665 2_665 ?
O3 Er1 O1 76.9(2) 6_565 2_665 ?
O2 Er1 O1 71.7(2) 3_565 2_665 ?
O2 Er1 O1 51.2(2) 2_665 2_665 ?
O2 Er1 O1 126.8(2) . 2_665 ?
O1 Er1 O1 117.14(9) 3_565 2_665 ?
O3 Er1 O1 73.5(2) 4 . ?
O3 Er1 O1 76.9(2) 5_665 . ?
O3 Er1 O1 148.3(3) 6_565 . ?
O2 Er1 O1 126.8(2) 3_565 . ?
O2 Er1 O1 71.7(2) 2_665 . ?
O2 Er1 O1 51.2(2) . . ?
O1 Er1 O1 117.14(9) 3_565 . ?
O1 Er1 O1 117.14(9) 2_665 . ?
O3 Er1 C1 102.2(3) 4 3_565 ?
O3 Er1 C1 157.3(3) 5_665 3_565 ?
O3 Er1 C1 77.4(3) 6_565 3_565 ?
O2 Er1 C1 25.8(2) 3_565 3_565 ?
O2 Er1 C1 104.2(2) 2_665 3_565 ?
O2 Er1 C1 74.6(2) . 3_565 ?
O1 Er1 C1 25.3(2) 3_565 3_565 ?
O1 Er1 C1 94.7(2) 2_665 3_565 ?
O1 Er1 C1 125.7(2) . 3_565 ?
O3 Er1 C1 157.3(3) 4 2_665 ?
O3 Er1 C1 77.4(3) 5_665 2_665 ?
O3 Er1 C1 102.2(3) 6_565 2_665 ?
O2 Er1 C1 74.6(2) 3_565 2_665 ?
O2 Er1 C1 25.8(2) 2_665 2_665 ?
O2 Er1 C1 104.2(2) . 2_665 ?
O1 Er1 C1 125.7(2) 3_565 2_665 ?
O1 Er1 C1 25.3(2) 2_665 2_665 ?
O1 Er1 C1 94.7(2) . 2_665 ?
C1 Er1 C1 100.4(2) 3_565 2_665 ?
O3 Er1 C1 77.5(3) 4 . ?
O3 Er1 C1 102.2(3) 5_665 . ?
O3 Er1 C1 157.3(3) 6_565 . ?
O2 Er1 C1 104.2(2) 3_565 . ?
O2 Er1 C1 74.6(2) 2_665 . ?
O2 Er1 C1 25.8(2) . . ?
O1 Er1 C1 94.7(2) 3_565 . ?
O1 Er1 C1 125.7(2) 2_665 . ?
O1 Er1 C1 25.4(2) . . ?
C1 Er1 C1 100.4(2) 3_565 . ?
C1 Er1 C1 100.4(2) 2_665 . ?
C4 O3 Er1 151.4(7) . 4 ?
C4 O4 H4 109.5 . . ?
C1 O1 Er1 89.7(5) . . ?
C1 O2 Er1 96.8(5) . . ?
C3 N1 C2 110.6(7) . . ?
C3 N1 H1 124.7 . . ?
C2 N1 H1 124.7 . . ?
O1 C1 O2 122.4(9) . . ?
O1 C1 C2 121.9(8) . . ?
O2 C1 C2 115.7(8) . . ?
O1 C1 Er1 65.0(5) . . ?
O2 C1 Er1 57.4(5) . . ?
C2 C1 Er1 173.1(6) . . ?
N1 C2 C1 109.0(7) . . ?
N1 C2 H2A 109.9 . . ?
C1 C2 H2A 109.9 . . ?
N1 C2 H2B 109.9 . . ?
C1 C2 H2B 109.9 . . ?
H2A C2 H2B 108.3 . . ?
N1 C3 C4 110.5(8) . . ?
N1 C3 H3A 109.5 . . ?
C4 C3 H3A 109.5 . . ?
N1 C3 H3B 109.5 . . ?
C4 C3 H3B 109.5 . . ?
H3A C3 H3B 108.1 . . ?
O4 C4 O3 126.4(9) . . ?
O4 C4 C3 116.9(8) . . ?
O3 C4 C3 116.6(8) . . ?

_diffrn_measured_fraction_theta_max 0.934
_diffrn_reflns_theta_full        29.01
_diffrn_measured_fraction_theta_full 0.934
_refine_diff_density_max         1.600
_refine_diff_density_min         -1.138
_refine_diff_density_rms         0.421

# SQUEEZE RESULTS (APPEND TO CIF)
# Note: Data are Listed for all Voids in the P1 Unit Cell
# i.e. Centre of Gravity, Solvent Accessible Volume,
# Recovered number of Electrons in the Void and
# Details about the Squeezed Material
loop_
_platon_squeeze_void_nr
_platon_squeeze_void_average_x
_platon_squeeze_void_average_y
_platon_squeeze_void_average_z
_platon_squeeze_void_volume
_platon_squeeze_void_count_electrons
_platon_squeeze_void_content
1 0.000 0.000 -0.002 918 636 ' '
_platon_squeeze_details          
;
;
