####################################################################### 
# 
# This file contains crystal structure data downloaded from the 
# Cambridge Structural Database (CSD) hosted by the Cambridge 
# Crystallographic Data Centre (CCDC).
# 
# Full information about CCDC data access policies and citation 
# guidelines are available at http://www.ccdc.cam.ac.uk/access/V1 
# 
# Audit and citation data items may have been added by the CCDC. 
# Please retain this information to preserve the provenance of 
# this file and to allow appropriate attribution of the data. 
# 
#######################################################################

data_Yb_ida
_audit_block_doi                 10.5517/ccqw1g2
_database_code_depnum_ccdc_archive 'CCDC 681394'
loop_
_citation_id
_citation_doi
_citation_year
1 10.1016/j.inoche.2008.04.020 2008
_audit_update_record             
;
2008-03-14 deposited with the CCDC.	2024-07-13 downloaded from the CCDC.
;

_audit_creation_method           SHELXL-97
_chemical_name_systematic        
;
tris(hydrogeniminodiacetato)Ytterbium(III)
;
_chemical_name_common            ?
_chemical_melting_point          ?
_chemical_formula_moiety         'C12 H18 N3 O12 Yb'
_chemical_formula_sum            'C12 H18 N3 O12 Yb'
_chemical_formula_weight         569.33

loop_
_atom_type_symbol
_atom_type_description
_atom_type_scat_dispersion_real
_atom_type_scat_dispersion_imag
_atom_type_scat_source
C C 0.0033 0.0016 'International Tables Vol C Tables 4.2.6.8 and 6.1.1.4'
H H 0.0000 0.0000 'International Tables Vol C Tables 4.2.6.8 and 6.1.1.4'
N N 0.0061 0.0033 'International Tables Vol C Tables 4.2.6.8 and 6.1.1.4'
O O 0.0106 0.0060 'International Tables Vol C Tables 4.2.6.8 and 6.1.1.4'
Yb Yb -0.3850 5.5486 'International Tables Vol C Tables 4.2.6.8 and 6.1.1.4'

_symmetry_cell_setting           Trigonal
_symmetry_space_group_name_H-M   'P -3 c 1'

loop_
_symmetry_equiv_pos_as_xyz
'x, y, z'
'-y, x-y, z'
'-x+y, -x, z'
'y, x, -z+1/2'
'-x, -x+y, -z+1/2'
'x-y, -y, -z+1/2'
'-x, -y, -z'
'y, -x+y, -z'
'x-y, x, -z'
'-y, -x, z-1/2'
'x, x-y, z-1/2'
'-x+y, y, z-1/2'

_cell_length_a                   13.5300(9)
_cell_length_b                   13.5300(9)
_cell_length_c                   16.3440(10)
_cell_angle_alpha                90.00
_cell_angle_beta                 90.00
_cell_angle_gamma                120.00
_cell_volume                     2591.1(3)
_cell_formula_units_Z            4
_cell_measurement_temperature    293(2)
_cell_measurement_reflns_used    ?
_cell_measurement_theta_min      ?
_cell_measurement_theta_max      ?

_exptl_crystal_description       prism
_exptl_crystal_colour            ?
_exptl_crystal_size_max          0.13
_exptl_crystal_size_mid          0.11
_exptl_crystal_size_min          0.08
_exptl_crystal_density_meas      ?
_exptl_crystal_density_diffrn    1.459
_exptl_crystal_density_method    'not measured'
_exptl_crystal_F_000             1108
_exptl_absorpt_coefficient_mu    3.658
_exptl_absorpt_correction_type   multi-scan
_exptl_absorpt_correction_T_min  0.628
_exptl_absorpt_correction_T_max  0.746
_exptl_absorpt_process_details   ?

_exptl_special_details           
;
?
;

_diffrn_ambient_temperature      293(2)
_diffrn_radiation_wavelength     0.71073
_diffrn_radiation_type           MoK\a
_diffrn_radiation_source         'fine-focus sealed tube'
_diffrn_radiation_monochromator  graphite
_diffrn_measurement_device_type  KappaCCD
_diffrn_measurement_method       CCD
_diffrn_detector_area_resol_mean 9
_diffrn_standards_number         ?
_diffrn_standards_interval_count ?
_diffrn_standards_interval_time  ?
_diffrn_standards_decay_%        ?
_diffrn_reflns_number            31275
_diffrn_reflns_av_R_equivalents  0.0801
_diffrn_reflns_av_sigmaI/netI    0.0548
_diffrn_reflns_limit_h_min       -17
_diffrn_reflns_limit_h_max       18
_diffrn_reflns_limit_k_min       -18
_diffrn_reflns_limit_k_max       17
_diffrn_reflns_limit_l_min       -21
_diffrn_reflns_limit_l_max       22
_diffrn_reflns_theta_min         1.74
_diffrn_reflns_theta_max         28.65
_reflns_number_total             2238
_reflns_number_gt                1589
_reflns_threshold_expression     >2sigma(I)

_computing_data_collection       'Collect (Bruker AXS BV, 1997-2004)'
_computing_cell_refinement       'HKL Scalepack (Otwinowski & Minor 1997)'
_computing_data_reduction        
'HKL Denzo and Scalepack (Otwinowski & Minor 1997)'
_computing_structure_solution    'Sir2004 (Altomare et al., 2004)'
_computing_structure_refinement  'SHELXL-97 (Sheldrick, 1997)'
_computing_molecular_graphics    ?
_computing_publication_material  ?

_refine_special_details          
;
Refinement of F^2^ against ALL reflections. The weighted R-factor wR and
goodness of fit S are based on F^2^, conventional R-factors R are based
on F, with F set to zero for negative F^2^. The threshold expression of
F^2^ > 2sigma(F^2^) is used only for calculating R-factors(gt) etc. and is
not relevant to the choice of reflections for refinement. R-factors based
on F^2^ are statistically about twice as large as those based on F, and R-
factors based on ALL data will be even larger.
;

_refine_ls_structure_factor_coef Fsqd
_refine_ls_matrix_type           full
_refine_ls_weighting_scheme      calc
_refine_ls_weighting_details     
'calc w=1/[\s^2^(Fo^2^)+(0.0647P)^2^+7.6950P] where P=(Fo^2^+2Fc^2^)/3'
_atom_sites_solution_primary     direct
_atom_sites_solution_secondary   difmap
_atom_sites_solution_hydrogens   geom
_refine_ls_hydrogen_treatment    constr
_refine_ls_extinction_method     none
_refine_ls_extinction_coef       ?
_refine_ls_number_reflns         2238
_refine_ls_number_parameters     85
_refine_ls_number_restraints     0
_refine_ls_R_factor_all          0.0774
_refine_ls_R_factor_gt           0.0434
_refine_ls_wR_factor_ref         0.1437
_refine_ls_wR_factor_gt          0.1176
_refine_ls_goodness_of_fit_ref   1.146
_refine_ls_restrained_S_all      1.146
_refine_ls_shift/su_max          0.000
_refine_ls_shift/su_mean         0.000

loop_
_atom_site_label
_atom_site_type_symbol
_atom_site_fract_x
_atom_site_fract_y
_atom_site_fract_z
_atom_site_U_iso_or_equiv
_atom_site_adp_type
_atom_site_occupancy
_atom_site_symmetry_multiplicity
_atom_site_calc_flag
_atom_site_refinement_flags
_atom_site_disorder_assembly
_atom_site_disorder_group
Yb1 Yb 0.6667 0.3333 0.21197(2) 0.01681(18) Uani 1 3 d S . .
O1 O 0.5411(3) 0.4236(4) 0.1857(3) 0.0251(10) Uani 1 1 d . . .
O2 O 0.5161(4) 0.2759(3) 0.1171(3) 0.0255(10) Uani 1 1 d . . .
O3 O 0.2544(4) 0.5220(4) 0.1970(3) 0.0317(11) Uani 1 1 d . . .
O4 O 0.1262(4) 0.4806(4) 0.0982(3) 0.0442(14) Uani 1 1 d . . .
H4 H 0.1039 0.5131 0.1291 0.066 Uiso 1 1 calc R . .
N1 N 0.3542(4) 0.4200(4) 0.1253(3) 0.0188(11) Uani 1 1 d . . .
H1 H 0.3808 0.4546 0.1710 0.023 Uiso 1 1 calc R . .
C1 C 0.4910(4) 0.3500(5) 0.1324(4) 0.0155(12) Uani 1 1 d . . .
C2 C 0.3952(5) 0.3490(5) 0.0841(4) 0.0179(12) Uani 1 1 d . . .
H2A H 0.4218 0.3783 0.0295 0.021 Uiso 1 1 calc R . .
H2B H 0.3326 0.2712 0.0791 0.021 Uiso 1 1 calc R . .
C3 C 0.2619(5) 0.4245(5) 0.0785(4) 0.0218(13) Uani 1 1 d . . .
H3A H 0.2032 0.3477 0.0643 0.026 Uiso 1 1 calc R . .
H3B H 0.2931 0.4667 0.0282 0.026 Uiso 1 1 calc R . .
C4 C 0.2094(5) 0.4813(5) 0.1280(4) 0.0222(13) Uani 1 1 d . . .

loop_
_atom_site_aniso_label
_atom_site_aniso_U_11
_atom_site_aniso_U_22
_atom_site_aniso_U_33
_atom_site_aniso_U_23
_atom_site_aniso_U_13
_atom_site_aniso_U_12
Yb1 0.0176(2) 0.0176(2) 0.0152(3) 0.000 0.000 0.00882(10)
O1 0.017(2) 0.030(2) 0.029(2) -0.0045(19) -0.0051(18) 0.0119(19)
O2 0.033(3) 0.024(2) 0.035(3) -0.0036(19) -0.005(2) 0.026(2)
O3 0.036(3) 0.035(3) 0.031(3) -0.016(2) -0.011(2) 0.023(2)
O4 0.042(3) 0.067(4) 0.048(3) -0.030(3) -0.022(3) 0.045(3)
N1 0.017(2) 0.029(3) 0.017(3) -0.009(2) -0.008(2) 0.016(2)
C1 0.011(3) 0.021(3) 0.014(3) 0.004(2) 0.002(2) 0.007(2)
C2 0.014(3) 0.022(3) 0.020(3) -0.001(2) -0.003(2) 0.010(2)
C3 0.030(3) 0.034(3) 0.014(3) -0.013(3) -0.010(3) 0.026(3)
C4 0.024(3) 0.017(3) 0.027(4) -0.001(3) -0.003(3) 0.012(3)

_geom_special_details            
;
All esds (except the esd in the dihedral angle between two l.s. planes)
are estimated using the full covariance matrix. The cell esds are taken
into account individually in the estimation of esds in distances, angles
and torsion angles; correlations between esds in cell parameters are only
used when they are defined by crystal symmetry. An approximate
(isotropic)
treatment of cell esds is used for estimating esds involving l.s. planes.
;

loop_
_geom_bond_atom_site_label_1
_geom_bond_atom_site_label_2
_geom_bond_distance
_geom_bond_site_symmetry_2
_geom_bond_publ_flag
Yb1 O3 2.258(4) 5_655 ?
Yb1 O3 2.258(4) 4 ?
Yb1 O3 2.258(4) 6_665 ?
Yb1 O2 2.361(4) 2_655 ?
Yb1 O2 2.361(4) . ?
Yb1 O2 2.361(4) 3_665 ?
Yb1 O1 2.575(4) . ?
Yb1 O1 2.575(4) 2_655 ?
Yb1 O1 2.575(4) 3_665 ?
Yb1 C1 2.816(5) 2_655 ?
Yb1 C1 2.816(5) 3_665 ?
Yb1 C1 2.816(5) . ?
O1 C1 1.239(7) . ?
O2 C1 1.235(6) . ?
O3 C4 1.268(8) . ?
O3 Yb1 2.258(4) 4 ?
O4 C4 1.223(7) . ?
O4 H4 0.8200 . ?
N1 C2 1.488(7) . ?
N1 C3 1.491(7) . ?
N1 H1 0.8600 . ?
C1 C2 1.511(7) . ?
C2 H2A 0.9700 . ?
C2 H2B 0.9700 . ?
C3 C4 1.514(8) . ?
C3 H3A 0.9700 . ?
C3 H3B 0.9700 . ?

loop_
_geom_angle_atom_site_label_1
_geom_angle_atom_site_label_2
_geom_angle_atom_site_label_3
_geom_angle
_geom_angle_site_symmetry_1
_geom_angle_site_symmetry_3
_geom_angle_publ_flag
O3 Yb1 O3 81.3(2) 5_655 4 ?
O3 Yb1 O3 81.3(2) 5_655 6_665 ?
O3 Yb1 O3 81.3(2) 4 6_665 ?
O3 Yb1 O2 82.90(17) 5_655 2_655 ?
O3 Yb1 O2 128.27(14) 4 2_655 ?
O3 Yb1 O2 143.49(14) 6_665 2_655 ?
O3 Yb1 O2 143.49(14) 5_655 . ?
O3 Yb1 O2 82.90(17) 4 . ?
O3 Yb1 O2 128.27(14) 6_665 . ?
O2 Yb1 O2 81.52(17) 2_655 . ?
O3 Yb1 O2 128.27(14) 5_655 3_665 ?
O3 Yb1 O2 143.49(14) 4 3_665 ?
O3 Yb1 O2 82.90(17) 6_665 3_665 ?
O2 Yb1 O2 81.52(17) 2_655 3_665 ?
O2 Yb1 O2 81.52(17) . 3_665 ?
O3 Yb1 O1 148.27(17) 5_655 . ?
O3 Yb1 O1 73.32(14) 4 . ?
O3 Yb1 O1 76.46(15) 6_665 . ?
O2 Yb1 O1 127.91(15) 2_655 . ?
O2 Yb1 O1 51.82(13) . . ?
O2 Yb1 O1 71.07(13) 3_665 . ?
O3 Yb1 O1 73.32(14) 5_655 2_655 ?
O3 Yb1 O1 76.46(15) 4 2_655 ?
O3 Yb1 O1 148.27(17) 6_665 2_655 ?
O2 Yb1 O1 51.82(13) 2_655 2_655 ?
O2 Yb1 O1 71.07(13) . 2_655 ?
O2 Yb1 O1 127.91(15) 3_665 2_655 ?
O1 Yb1 O1 117.28(6) . 2_655 ?
O3 Yb1 O1 76.46(15) 5_655 3_665 ?
O3 Yb1 O1 148.27(17) 4 3_665 ?
O3 Yb1 O1 73.32(14) 6_665 3_665 ?
O2 Yb1 O1 71.07(13) 2_655 3_665 ?
O2 Yb1 O1 127.91(15) . 3_665 ?
O2 Yb1 O1 51.82(13) 3_665 3_665 ?
O1 Yb1 O1 117.28(6) . 3_665 ?
O1 Yb1 O1 117.28(6) 2_655 3_665 ?
O3 Yb1 C1 77.04(17) 5_655 2_655 ?
O3 Yb1 C1 102.54(16) 4 2_655 ?
O3 Yb1 C1 157.04(16) 6_665 2_655 ?
O2 Yb1 C1 25.73(14) 2_655 2_655 ?
O2 Yb1 C1 74.63(14) . 2_655 ?
O2 Yb1 C1 104.80(16) 3_665 2_655 ?
O1 Yb1 C1 126.45(14) . 2_655 ?
O1 Yb1 C1 26.09(14) 2_655 2_655 ?
O1 Yb1 C1 94.20(14) 3_665 2_655 ?
O3 Yb1 C1 102.55(16) 5_655 3_665 ?
O3 Yb1 C1 157.04(16) 4 3_665 ?
O3 Yb1 C1 77.04(17) 6_665 3_665 ?
O2 Yb1 C1 74.63(14) 2_655 3_665 ?
O2 Yb1 C1 104.80(16) . 3_665 ?
O2 Yb1 C1 25.73(14) 3_665 3_665 ?
O1 Yb1 C1 94.20(14) . 3_665 ?
O1 Yb1 C1 126.45(14) 2_655 3_665 ?
O1 Yb1 C1 26.09(14) 3_665 3_665 ?
C1 Yb1 C1 100.36(14) 2_655 3_665 ?
O3 Yb1 C1 157.04(16) 5_655 . ?
O3 Yb1 C1 77.04(17) 4 . ?
O3 Yb1 C1 102.54(16) 6_665 . ?
O2 Yb1 C1 104.80(16) 2_655 . ?
O2 Yb1 C1 25.73(14) . . ?
O2 Yb1 C1 74.63(14) 3_665 . ?
O1 Yb1 C1 26.09(14) . . ?
O1 Yb1 C1 94.20(14) 2_655 . ?
O1 Yb1 C1 126.45(14) 3_665 . ?
C1 Yb1 C1 100.36(15) 2_655 . ?
C1 Yb1 C1 100.36(14) 3_665 . ?
C1 O1 Yb1 87.9(3) . . ?
C1 O2 Yb1 98.2(4) . . ?
C4 O3 Yb1 151.5(4) . 4 ?
C4 O4 H4 109.5 . . ?
C2 N1 C3 112.7(4) . . ?
C2 N1 H1 123.7 . . ?
C3 N1 H1 123.7 . . ?
O1 C1 O2 122.1(5) . . ?
O1 C1 C2 119.8(5) . . ?
O2 C1 C2 118.0(5) . . ?
O1 C1 Yb1 66.0(3) . . ?
O2 C1 Yb1 56.1(3) . . ?
C2 C1 Yb1 174.1(4) . . ?
N1 C2 C1 110.7(5) . . ?
N1 C2 H2A 109.5 . . ?
C1 C2 H2A 109.5 . . ?
N1 C2 H2B 109.5 . . ?
C1 C2 H2B 109.5 . . ?
H2A C2 H2B 108.1 . . ?
N1 C3 C4 111.2(5) . . ?
N1 C3 H3A 109.4 . . ?
C4 C3 H3A 109.4 . . ?
N1 C3 H3B 109.4 . . ?
C4 C3 H3B 109.4 . . ?
H3A C3 H3B 108.0 . . ?
O4 C4 O3 126.7(6) . . ?
O4 C4 C3 116.5(6) . . ?
O3 C4 C3 116.8(5) . . ?

_diffrn_measured_fraction_theta_max 0.997
_diffrn_reflns_theta_full        28.65
_diffrn_measured_fraction_theta_full 0.997
_refine_diff_density_max         1.116
_refine_diff_density_min         -1.432
_refine_diff_density_rms         0.214

# SQUEEZE RESULTS (APPEND TO CIF)
# Note: Data are Listed for all Voids in the P1 Unit Cell
# i.e. Centre of Gravity, Solvent Accessible Volume,
# Recovered number of Electrons in the Void and
# Details about the Squeezed Material
loop_
_platon_squeeze_void_nr
_platon_squeeze_void_average_x
_platon_squeeze_void_average_y
_platon_squeeze_void_average_z
_platon_squeeze_void_volume
_platon_squeeze_void_count_electrons
_platon_squeeze_void_content
1 0.000 0.000 -0.002 955 649 ' '
_platon_squeeze_details          
;
;

#===================================================================



