####################################################################### 
# 
# This file contains crystal structure data downloaded from the 
# Cambridge Structural Database (CSD) hosted by the Cambridge 
# Crystallographic Data Centre (CCDC).
# 
# Full information about CCDC data access policies and citation 
# guidelines are available at http://www.ccdc.cam.ac.uk/access/V1 
# 
# Audit and citation data items may have been added by the CCDC. 
# Please retain this information to preserve the provenance of 
# this file and to allow appropriate attribution of the data. 
# 
#######################################################################

data_Tb_ida
_audit_block_doi                 10.5517/ccqw1d0
_database_code_depnum_ccdc_archive 'CCDC 681392'
loop_
_citation_id
_citation_doi
_citation_year
1 10.1016/j.inoche.2008.04.020 2008
_audit_update_record             
;
2008-03-14 deposited with the CCDC.	2024-07-13 downloaded from the CCDC.
;

_audit_creation_method           SHELXL-97
_chemical_name_systematic        
;
tris(hydrogeniminodiacetato)Terbium(III)
;
_chemical_name_common            ?
_chemical_melting_point          ?
_chemical_formula_moiety         'C12 H18 N3 O12 Tb'
_chemical_formula_sum            'C12 H18 N3 O12 Tb'
_chemical_formula_weight         555.22

loop_
_atom_type_symbol
_atom_type_description
_atom_type_scat_dispersion_real
_atom_type_scat_dispersion_imag
_atom_type_scat_source
C C 0.0033 0.0016 'International Tables Vol C Tables 4.2.6.8 and 6.1.1.4'
H H 0.0000 0.0000 'International Tables Vol C Tables 4.2.6.8 and 6.1.1.4'
N N 0.0061 0.0033 'International Tables Vol C Tables 4.2.6.8 and 6.1.1.4'
O O 0.0106 0.0060 'International Tables Vol C Tables 4.2.6.8 and 6.1.1.4'
Tb Tb -0.1723 4.1537 'International Tables Vol C Tables 4.2.6.8 and 6.1.1.4'

_symmetry_cell_setting           Trigonal
_symmetry_space_group_name_H-M   'P -3 c 1'

loop_
_symmetry_equiv_pos_as_xyz
'x, y, z'
'-y, x-y, z'
'-x+y, -x, z'
'y, x, -z+1/2'
'-x, -x+y, -z+1/2'
'x-y, -y, -z+1/2'
'-x, -y, -z'
'y, -x+y, -z'
'x-y, x, -z'
'-y, -x, z-1/2'
'x, x-y, z-1/2'
'-x+y, y, z-1/2'

_cell_length_a                   13.5350(10)
_cell_length_b                   13.5350(10)
_cell_length_c                   16.5167(10)
_cell_angle_alpha                90.00
_cell_angle_beta                 90.00
_cell_angle_gamma                120.00
_cell_volume                     2620.4(3)
_cell_formula_units_Z            4
_cell_measurement_temperature    293(2)
_cell_measurement_reflns_used    ?
_cell_measurement_theta_min      ?
_cell_measurement_theta_max      ?

_exptl_crystal_description       prism
_exptl_crystal_colour            ?
_exptl_crystal_size_max          0.12
_exptl_crystal_size_mid          0.09
_exptl_crystal_size_min          0.07
_exptl_crystal_density_meas      ?
_exptl_crystal_density_diffrn    1.407
_exptl_crystal_density_method    'not measured'
_exptl_crystal_F_000             1088
_exptl_absorpt_coefficient_mu    2.747
_exptl_absorpt_correction_type   multi-scan
_exptl_absorpt_correction_T_min  0.743
_exptl_absorpt_correction_T_max  0.825
_exptl_absorpt_process_details   ?

_exptl_special_details           
;
?
;

_diffrn_ambient_temperature      293(2)
_diffrn_radiation_wavelength     0.71073
_diffrn_radiation_type           MoK\a
_diffrn_radiation_source         'fine-focus sealed tube'
_diffrn_radiation_monochromator  graphite
_diffrn_measurement_device_type  KappaCCD
_diffrn_measurement_method       CCD
_diffrn_detector_area_resol_mean 9
_diffrn_standards_number         ?
_diffrn_standards_interval_count ?
_diffrn_standards_interval_time  ?
_diffrn_standards_decay_%        ?
_diffrn_reflns_number            31588
_diffrn_reflns_av_R_equivalents  0.0550
_diffrn_reflns_av_sigmaI/netI    0.0349
_diffrn_reflns_limit_h_min       -18
_diffrn_reflns_limit_h_max       17
_diffrn_reflns_limit_k_min       -15
_diffrn_reflns_limit_k_max       17
_diffrn_reflns_limit_l_min       -21
_diffrn_reflns_limit_l_max       22
_diffrn_reflns_theta_min         1.74
_diffrn_reflns_theta_max         28.64
_reflns_number_total             2261
_reflns_number_gt                1767
_reflns_threshold_expression     >2sigma(I)

_computing_data_collection       'Collect (Bruker AXS BV, 1997-2004)'
_computing_cell_refinement       'HKL Scalepack (Otwinowski & Minor 1997)'
_computing_data_reduction        
'HKL Denzo and Scalepack (Otwinowski & Minor 1997)'
_computing_structure_solution    'Sir2004 (Altomare et al., 2004)'
_computing_structure_refinement  'SHELXL-97 (Sheldrick, 1997)'
_computing_molecular_graphics    ?
_computing_publication_material  ?

_refine_special_details          
;
Refinement of F^2^ against ALL reflections. The weighted R-factor wR and
goodness of fit S are based on F^2^, conventional R-factors R are based
on F, with F set to zero for negative F^2^. The threshold expression of
F^2^ > 2sigma(F^2^) is used only for calculating R-factors(gt) etc. and is
not relevant to the choice of reflections for refinement. R-factors based
on F^2^ are statistically about twice as large as those based on F, and R-
factors based on ALL data will be even larger.
;

_refine_ls_structure_factor_coef Fsqd
_refine_ls_matrix_type           full
_refine_ls_weighting_scheme      calc
_refine_ls_weighting_details     
'calc w=1/[\s^2^(Fo^2^)+(0.0713P)^2^+3.0742P] where P=(Fo^2^+2Fc^2^)/3'
_atom_sites_solution_primary     direct
_atom_sites_solution_secondary   difmap
_atom_sites_solution_hydrogens   geom
_refine_ls_hydrogen_treatment    constr
_refine_ls_extinction_method     SHELXL
_refine_ls_extinction_coef       0.0074(7)
_refine_ls_extinction_expression Fc^*^=kFc[1+0.001xFc^2^\l^3^/sin(2\q)]^-1/4^
_refine_ls_number_reflns         2261
_refine_ls_number_parameters     86
_refine_ls_number_restraints     0
_refine_ls_R_factor_all          0.0555
_refine_ls_R_factor_gt           0.0399
_refine_ls_wR_factor_ref         0.1348
_refine_ls_wR_factor_gt          0.1266
_refine_ls_goodness_of_fit_ref   1.169
_refine_ls_restrained_S_all      1.169
_refine_ls_shift/su_max          0.000
_refine_ls_shift/su_mean         0.000

loop_
_atom_site_label
_atom_site_type_symbol
_atom_site_fract_x
_atom_site_fract_y
_atom_site_fract_z
_atom_site_U_iso_or_equiv
_atom_site_adp_type
_atom_site_occupancy
_atom_site_symmetry_multiplicity
_atom_site_calc_flag
_atom_site_refinement_flags
_atom_site_disorder_assembly
_atom_site_disorder_group
Tb1 Tb 0.3333 0.6667 0.211314(18) 0.01956(19) Uani 1 3 d S . .
O1 O 0.4210(3) 0.5383(3) 0.1849(2) 0.0298(7) Uani 1 1 d . . .
O2 O 0.2719(3) 0.5111(3) 0.1150(2) 0.0323(8) Uani 1 1 d . . .
O3 O 0.5187(3) 0.2490(3) 0.1959(2) 0.0375(9) Uani 1 1 d . . .
O4 O 0.4821(3) 0.1250(3) 0.0968(2) 0.0516(11) Uani 1 1 d . . .
H4 H 0.5152 0.1031 0.1271 0.077 Uiso 1 1 calc R . .
N1 N 0.4197(3) 0.3514(3) 0.1248(2) 0.0237(7) Uani 1 1 d . . .
H1 H 0.4547 0.3782 0.1700 0.028 Uiso 1 1 calc R . .
C1 C 0.3475(3) 0.4874(3) 0.1313(3) 0.0238(8) Uani 1 1 d . . .
C2 C 0.3480(4) 0.3921(3) 0.0839(3) 0.0272(9) Uani 1 1 d . . .
H2A H 0.2704 0.3290 0.0788 0.033 Uiso 1 1 calc R . .
H2B H 0.3774 0.4189 0.0300 0.033 Uiso 1 1 calc R . .
C3 C 0.4234(4) 0.2591(4) 0.0782(3) 0.0301(10) Uani 1 1 d . . .
H3A H 0.4649 0.2900 0.0281 0.036 Uiso 1 1 calc R . .
H3B H 0.3463 0.2003 0.0646 0.036 Uiso 1 1 calc R . .
C4 C 0.4810(3) 0.2074(4) 0.1274(3) 0.0238(8) Uani 1 1 d . . .

loop_
_atom_site_aniso_label
_atom_site_aniso_U_11
_atom_site_aniso_U_22
_atom_site_aniso_U_33
_atom_site_aniso_U_23
_atom_site_aniso_U_13
_atom_site_aniso_U_12
Tb1 0.0203(2) 0.0203(2) 0.0181(3) 0.000 0.000 0.01013(11)
O1 0.0314(15) 0.0253(15) 0.0347(17) -0.0069(13) -0.0088(13) 0.0156(13)
O2 0.0334(16) 0.0359(18) 0.0413(19) -0.0099(15) -0.0095(14) 0.0275(15)
O3 0.044(2) 0.0404(18) 0.0355(19) -0.0098(14) -0.0190(16) 0.0266(16)
O4 0.080(3) 0.054(2) 0.048(2) -0.0223(18) -0.034(2) 0.054(2)
N1 0.0337(19) 0.0232(17) 0.0218(17) -0.0070(13) -0.0098(14) 0.0199(15)
C1 0.029(2) 0.0184(18) 0.026(2) 0.0006(15) 0.0010(16) 0.0134(17)
C2 0.032(2) 0.027(2) 0.029(2) -0.0084(17) -0.0097(17) 0.0196(18)
C3 0.047(3) 0.033(2) 0.023(2) -0.0105(17) -0.0093(19) 0.030(2)
C4 0.024(2) 0.025(2) 0.025(2) -0.0065(17) -0.0083(16) 0.0141(18)

_geom_special_details            
;
All esds (except the esd in the dihedral angle between two l.s. planes)
are estimated using the full covariance matrix. The cell esds are taken
into account individually in the estimation of esds in distances, angles
and torsion angles; correlations between esds in cell parameters are only
used when they are defined by crystal symmetry. An approximate
(isotropic)
treatment of cell esds is used for estimating esds involving l.s. planes.
;

loop_
_geom_bond_atom_site_label_1
_geom_bond_atom_site_label_2
_geom_bond_distance
_geom_bond_site_symmetry_2
_geom_bond_publ_flag
Tb1 O3 2.319(3) 6_565 ?
Tb1 O3 2.319(3) 4 ?
Tb1 O3 2.319(3) 5_665 ?
Tb1 O2 2.430(3) . ?
Tb1 O2 2.430(3) 2_665 ?
Tb1 O2 2.430(3) 3_565 ?
Tb1 O1 2.584(3) 3_565 ?
Tb1 O1 2.584(3) 2_665 ?
Tb1 O1 2.584(3) . ?
Tb1 C1 2.852(4) 3_565 ?
Tb1 C1 2.852(4) . ?
Tb1 C1 2.852(4) 2_665 ?
O1 C1 1.249(5) . ?
O2 C1 1.245(5) . ?
O3 C4 1.254(5) . ?
O3 Tb1 2.319(3) 4 ?
O4 C4 1.232(5) . ?
O4 H4 0.8200 . ?
N1 C3 1.490(5) . ?
N1 C2 1.495(5) . ?
N1 H1 0.8600 . ?
C1 C2 1.512(5) . ?
C2 H2A 0.9700 . ?
C2 H2B 0.9700 . ?
C3 C4 1.518(6) . ?
C3 H3A 0.9700 . ?
C3 H3B 0.9700 . ?

loop_
_geom_angle_atom_site_label_1
_geom_angle_atom_site_label_2
_geom_angle_atom_site_label_3
_geom_angle
_geom_angle_site_symmetry_1
_geom_angle_site_symmetry_3
_geom_angle_publ_flag
O3 Tb1 O3 81.09(15) 6_565 4 ?
O3 Tb1 O3 81.09(15) 6_565 5_665 ?
O3 Tb1 O3 81.09(16) 4 5_665 ?
O3 Tb1 O2 143.97(11) 6_565 . ?
O3 Tb1 O2 82.90(14) 4 . ?
O3 Tb1 O2 127.75(10) 5_665 . ?
O3 Tb1 O2 127.75(10) 6_565 2_665 ?
O3 Tb1 O2 143.97(11) 4 2_665 ?
O3 Tb1 O2 82.90(14) 5_665 2_665 ?
O2 Tb1 O2 81.81(13) . 2_665 ?
O3 Tb1 O2 82.90(14) 6_565 3_565 ?
O3 Tb1 O2 127.75(10) 4 3_565 ?
O3 Tb1 O2 143.97(11) 5_665 3_565 ?
O2 Tb1 O2 81.81(13) . 3_565 ?
O2 Tb1 O2 81.81(13) 2_665 3_565 ?
O3 Tb1 O1 73.99(11) 6_565 3_565 ?
O3 Tb1 O1 76.10(10) 4 3_565 ?
O3 Tb1 O1 148.35(13) 5_665 3_565 ?
O2 Tb1 O1 70.91(10) . 3_565 ?
O2 Tb1 O1 127.95(11) 2_665 3_565 ?
O2 Tb1 O1 51.68(10) 3_565 3_565 ?
O3 Tb1 O1 76.10(10) 6_565 2_665 ?
O3 Tb1 O1 148.35(13) 4 2_665 ?
O3 Tb1 O1 73.99(11) 5_665 2_665 ?
O2 Tb1 O1 127.95(11) . 2_665 ?
O2 Tb1 O1 51.68(10) 2_665 2_665 ?
O2 Tb1 O1 70.91(10) 3_565 2_665 ?
O1 Tb1 O1 117.20(4) 3_565 2_665 ?
O3 Tb1 O1 148.35(13) 6_565 . ?
O3 Tb1 O1 73.99(11) 4 . ?
O3 Tb1 O1 76.10(10) 5_665 . ?
O2 Tb1 O1 51.68(10) . . ?
O2 Tb1 O1 70.91(10) 2_665 . ?
O2 Tb1 O1 127.96(11) 3_565 . ?
O1 Tb1 O1 117.20(4) 3_565 . ?
O1 Tb1 O1 117.20(4) 2_665 . ?
O3 Tb1 C1 77.57(12) 6_565 3_565 ?
O3 Tb1 C1 102.07(11) 4 3_565 ?
O3 Tb1 C1 157.59(11) 5_665 3_565 ?
O2 Tb1 C1 74.55(10) . 3_565 ?
O2 Tb1 C1 104.94(12) 2_665 3_565 ?
O2 Tb1 C1 25.71(10) 3_565 3_565 ?
O1 Tb1 C1 25.97(10) 3_565 3_565 ?
O1 Tb1 C1 94.18(11) 2_665 3_565 ?
O1 Tb1 C1 126.23(10) . 3_565 ?
O3 Tb1 C1 157.59(11) 6_565 . ?
O3 Tb1 C1 77.57(12) 4 . ?
O3 Tb1 C1 102.07(11) 5_665 . ?
O2 Tb1 C1 25.71(10) . . ?
O2 Tb1 C1 74.55(10) 2_665 . ?
O2 Tb1 C1 104.94(12) 3_565 . ?
O1 Tb1 C1 94.18(11) 3_565 . ?
O1 Tb1 C1 126.23(10) 2_665 . ?
O1 Tb1 C1 25.97(10) . . ?
C1 Tb1 C1 100.26(10) 3_565 . ?
O3 Tb1 C1 102.07(11) 6_565 2_665 ?
O3 Tb1 C1 157.59(11) 4 2_665 ?
O3 Tb1 C1 77.57(12) 5_665 2_665 ?
O2 Tb1 C1 104.94(12) . 2_665 ?
O2 Tb1 C1 25.71(10) 2_665 2_665 ?
O2 Tb1 C1 74.55(10) 3_565 2_665 ?
O1 Tb1 C1 126.23(10) 3_565 2_665 ?
O1 Tb1 C1 25.97(10) 2_665 2_665 ?
O1 Tb1 C1 94.18(11) . 2_665 ?
C1 Tb1 C1 100.26(10) 3_565 2_665 ?
C1 Tb1 C1 100.26(10) . 2_665 ?
C1 O1 Tb1 89.1(2) . . ?
C1 O2 Tb1 96.4(3) . . ?
C4 O3 Tb1 151.0(3) . 4 ?
C4 O4 H4 109.5 . . ?
C3 N1 C2 112.0(3) . . ?
C3 N1 H1 124.0 . . ?
C2 N1 H1 124.0 . . ?
O2 C1 O1 122.8(4) . . ?
O2 C1 C2 117.6(4) . . ?
O1 C1 C2 119.6(3) . . ?
O2 C1 Tb1 57.8(2) . . ?
O1 C1 Tb1 65.0(2) . . ?
C2 C1 Tb1 175.3(3) . . ?
N1 C2 C1 111.2(3) . . ?
N1 C2 H2A 109.4 . . ?
C1 C2 H2A 109.4 . . ?
N1 C2 H2B 109.4 . . ?
C1 C2 H2B 109.4 . . ?
H2A C2 H2B 108.0 . . ?
N1 C3 C4 110.5(3) . . ?
N1 C3 H3A 109.5 . . ?
C4 C3 H3A 109.5 . . ?
N1 C3 H3B 109.5 . . ?
C4 C3 H3B 109.5 . . ?
H3A C3 H3B 108.1 . . ?
O4 C4 O3 126.2(4) . . ?
O4 C4 C3 116.1(4) . . ?
O3 C4 C3 117.6(4) . . ?

_diffrn_measured_fraction_theta_max 1.000
_diffrn_reflns_theta_full        28.64
_diffrn_measured_fraction_theta_full 1.000
_refine_diff_density_max         1.439
_refine_diff_density_min         -0.791
_refine_diff_density_rms         0.268

# SQUEEZE RESULTS (APPEND TO CIF)
# Note: Data are Listed for all Voids in the P1 Unit Cell
# i.e. Centre of Gravity, Solvent Accessible Volume,
# Recovered number of Electrons in the Void and
# Details about the Squeezed Material
loop_
_platon_squeeze_void_nr
_platon_squeeze_void_average_x
_platon_squeeze_void_average_y
_platon_squeeze_void_average_z
_platon_squeeze_void_volume
_platon_squeeze_void_count_electrons
_platon_squeeze_void_content
1 0.000 0.000 -0.002 959 633 ' '
_platon_squeeze_details          
;
;
