####################################################################### 
# 
# This file contains crystal structure data downloaded from the 
# Cambridge Structural Database (CSD) hosted by the Cambridge 
# Crystallographic Data Centre (CCDC).
# 
# Full information about CCDC data access policies and citation 
# guidelines are available at http://www.ccdc.cam.ac.uk/access/V1 
# 
# Audit and citation data items may have been added by the CCDC. 
# Please retain this information to preserve the provenance of 
# this file and to allow appropriate attribution of the data. 
# 
#######################################################################

data_global #  *** Added by check_cif
_audit_block_doi                 10.5517/cc4nk6j
_database_code_depnum_ccdc_archive 'CCDC 138917'
loop_
_citation_id
_citation_doi
_citation_year
1 10.1016/S0277-5387(00)00390-9 2000
_audit_update_record             
;
2000-01-11 deposited with the CCDC.	2024-07-13 downloaded from the CCDC.
;

_audit_creation_method           from_xtal_archive_file_using_CIFIO

_chemical_compound_source        'Synthesized in the laboratory' #ActaC
_chemical_name_systematic        ?
_chemical_name_common            ?
_chemical_formula_analytical     'Na1 Cu2 C38 H31 N6 O7'
_chemical_formula_moiety         '"Na1 1+, Cu2 C38 H27 N6 O5 1-" O2 H4' #ActaC
_chemical_formula_structural     '(Na (Cu1 C19 H13 N3 O2 (OH) Cu1 C19 H13 N3 O2'
#ActaC
_chemical_formula_sum            'Na1 Cu2 C38 H31 N6 O7'
_chemical_formula_weight         833.68
_chemical_melting_point          Decomposes

_computing_data_collection       ? #ActaC
_computing_cell_refinement       ? #ActaC
_computing_data_reduction        xtal_DIFDAT_SORTRF_ADDREF_ABSORB #ActaC
_computing_structure_solution    xtal_GENTAN #ActaC
_computing_structure_refinement  xtal_CRYLSQ #ActaC
_computing_molecular_graphics    xtal #ActaC
_computing_publication_material  xtal_BONDLA_CIFIO #ActaC

_cell_length_a                   8.975(9) #ActaC
_cell_length_b                   19.243(3) #ActaC
_cell_length_c                   21.130(7) #ActaC
_cell_angle_alpha                90.00(2) #ActaC
_cell_angle_beta                 90.00(5) #ActaC
_cell_angle_gamma                90.00(3) #ActaC
_cell_volume                     3649(4) #ActaC
_cell_formula_units_Z            4 #ActaC
_cell_measurement_temperature    293 #ActaC
_cell_measurement_reflns_used    25 #ActaC
_cell_measurement_theta_min      12.3 #ActaC
_cell_measurement_theta_max      22.2 #ActaC
_cell_special_details            #ActaC
;
?
;
_symmetry_cell_setting           orthorhombic #ActaC
_symmetry_space_group_name_H-M   P212121 #ActaC
_symmetry_space_group_name_Hall  P_2ac_2ab #ActaC
loop_
_symmetry_equiv_pos_as_xyz #ActaC
+x,+y,+z
1/2-x,-y,1/2+z
1/2+x,1/2-y,-z
-x,1/2+y,1/2-z

_exptl_crystal_description       Rectangular
#ActaC
_exptl_crystal_preparation       Ethylacetate
_exptl_crystal_colour            Green #ActaC
_exptl_crystal_size_max          .3 #ActaC
_exptl_crystal_size_mid          .2 #ActaC
_exptl_crystal_size_min          .1 #ActaC
_exptl_crystal_density_diffrn    1.518 #ActaC
_exptl_crystal_density_meas      1.512 #ActaC
_exptl_crystal_density_method    Flotation #ActaC
_exptl_crystal_F_000             1703.58 #ActaC

_exptl_absorpt_process_details   ?
_exptl_absorpt_coefficient_mu    1.24/mm #ActaC
_exptl_absorpt_correction_type   Analytical #ActaC
_exptl_absorpt_correction_T_min  0.6597 #ActaC
_exptl_absorpt_correction_T_max  0.6626 #ActaC
_exptl_special_details           #ActaC
;
?
;

_diffrn_special_details          
;
?
;
_diffrn_ambient_temperature      293 #ActaC
_diffrn_radiation_wavelength     0.71073 #ActaC
_diffrn_radiation_type           Mo
#ActaC
_diffrn_radiation_source         Sealed
#ActaC

_diffrn_radiation_monochromator  Graphite #ActaC
_diffrn_radiation_detector       Proportional
#ActaC
_diffrn_measurement_device       CAD4mach #ActaC
_diffrn_measurement_method       Theta-2theta #ActaC

_diffrn_standards_number         Three #ActaC
_diffrn_standards_interval_count ? #ActaC
_diffrn_standards_interval_time  Every
#ActaC
_diffrn_standards_decay_%        Less
#ActaC

loop_
_diffrn_standard_refln_index_h
-1
1
1
#ActaC
_diffrn_standard_refln_index_k   2
#ActaC
_diffrn_standard_refln_index_l   -6
#ActaC
loop_

_diffrn_attenuator_code
_diffrn_attenuator_scale
? ?

_diffrn_reflns_number            3648 #ActaC
_diffrn_reflns_av_R_equivalents  ? #ActaC
_diffrn_reflns_av_sigmaI/netI    .067 #ActaC
_diffrn_reflns_limit_h_min       0 #ActaC
_diffrn_reflns_limit_h_max       10 #ActaC
_diffrn_reflns_limit_k_min       0 #ActaC
_diffrn_reflns_limit_k_max       22 #ActaC
_diffrn_reflns_limit_l_min       0 #ActaC
_diffrn_reflns_limit_l_max       25 #ActaC
_diffrn_reflns_theta_min         1.43 #ActaC
_diffrn_reflns_theta_max         25. #ActaC
_diffrn_reflns_reduction_process No_monochr_Lp_applied #ActaC
loop_
_atom_type_symbol #ActaC
_atom_type_description #ActaC
_atom_type_oxidation_number
_atom_type_number_in_cell
_atom_type_scat_dispersion_real #ActaC
_atom_type_scat_dispersion_imag #ActaC
_atom_type_scat_source #ActaC
c ? 0 152 .002 .002 Int._Tables_Vol_IV_Tables_2.2B_and_2.3.1
h ? 0 124 0 0 Int._Tables_Vol_IV_Tables_2.2B_and_2.3.1
n ? 0 24 .004 .003 Int._Tables_Vol_IV_Tables_2.2B_and_2.3.1
o ? 0 28 .008 .006 Int._Tables_Vol_IV_Tables_2.2B_and_2.3.1
Na ? 0 4 .03 .025 Int._Tables_Vol_IV_Tables_2.2B_and_2.3.1
Cu ? 0 8 .263 1.266 Int._Tables_Vol_IV_Tables_2.2B_and_2.3.1

loop_
_atom_site_label #ActaC
_atom_site_fract_x #ActaC
_atom_site_fract_y #ActaC
_atom_site_fract_z #ActaC
_atom_site_U_iso_or_equiv #ActaC
_atom_site_thermal_displace_type #ActaC
_atom_site_calc_flag #ActaC
_atom_site_calc_attached_atom #ActaC
Cu1 .4916(3) .5799(1) .41019(9) .032(1) Uani ? ?
Cu2 .7963(2) .6746(1) .3625(1) .030(1) Uani ? ?
Na .3640(9) .5049(3) .6646(3) .038(4) Uani ? ?
O1 .648(1) .6456(5) .4193(5) .032(3) Uiso ? ?
O2 .343(1) .4649(7) .5607(6) .045(3) Uiso ? ?
O3 .178(2) .4630(7) .7362(6) .049(3) Uiso ? ?
O4 .532(2) .4603(7) .7332(6) .049(4) Uiso ? ?
O5 .357(2) .6204(6) .6678(6) .048(3) Uiso ? ?
N1 .482(2) .5420(7) .4993(6) .044(9) Uani ? ?
N2 .347(1) .5082(7) .3994(6) .031(8) Uani ? ?
N3 .438(2) .5959(7) .3182(6) .033(8) Uani ? ?
N4 .854(2) .5817(7) .3226(6) .035(8) Uani ? ?
N5 .925(2) .7071(8) .2958(6) .034(8) Uani ? ?
N6 .815(2) .7752(7) .3859(6) .035(8) Uani ? ?
C1 .593(2) .555(1) .5473(8) .04(1) Uani ? ?
C2 .674(3) .500(1) .575(1) .07(2) Uani ? ?
C3 .781(3) .515(1) .619(1) .08(2) Uani ? ?
C4 .807(3) .584(1) .637(1) .08(2) Uani ? ?
C5 .726(2) .635(1) .612(1) .05(1) Uani ? ?
C6 .622(2) .623(1) .5685(9) .04(1) Uani ? ?
C7 .379(2) .4939(8) .5095(9) .04(1) Uani ? ?
C8 .301(2) .4746(8) .4513(8) .04(1) Uani ? ?
C9 .192(2) .421(1) .4449(8) .04(1) Uani ? ?
C10 .134(3) .412(1) .386(1) .07(2) Uani ? ?
C11 .185(2) .445(1) .3342(9) .05(1) Uani ? ?
C12 .292(2) .4964(9) .3415(8) .04(1) Uani ? ?
C13 .353(2) .5455(9) .2929(7) .04(1) Uani ? ?
C14 .497(3) .6475(9) .2764(8) .04(1) Uani ? ?
C15 .556(3) .636(1) .218(1) .06(2) Uani ? ?
C16 .616(3) .688(1) .183(1) .08(2) Uani ? ?
C17 .618(3) .755(1) .206(1) .08(2) Uani ? ?
C18 .560(2) .768(1) .265(1) .05(1) Uani ? ?
C19 .503(3) .7157(9) .2998(8) .04(1) Uani ? ?
C20 .793(2) .5151(8) .3401(8) .034(9) Uani ? ?
C21 .719(3) .4732(9) .2977(9) .05(1) Uani ? ?
C22 .659(3) .412(1) .317(1) .06(1) Uani ? ?
C23 .665(3) .3899(9) .380(1) .06(1) Uani ? ?
C24 .733(3) .432(1) .4216(9) .06(1) Uani ? ?
C25 .792(3) .4940(9) .4020(8) .05(1) Uani ? ?
C26 .930(2) .585(1) .2702(8) .04(1) Uani ? ?
C27 .989(3) .6598(8) .2571(8) .04(1) Uani ? ?
C28 1.082(3) .681(1) .212(1) .06(1) Uani ? ?
C29 1.113(3) .750(1) .206(1) .07(2) Uani ? ?
C30 1.044(2) .7995(9) .247(1) .05(1) Uani ? ?
C31 .949(2) .7744(9) .2897(9) .04(1) Uani ? ?
C32 .868(2) .8154(8) .3402(9) .04(1) Uani ? ?
C33 .741(2) .8073(8) .4394(9) .04(1) Uani ? ?
C34 .774(2) .7827(8) .4974(9) .04(1) Uani ? ?
C35 .711(3) .813(1) .5518(9) .05(1) Uani ? ?
C36 .607(2) .865(1) .548(1) .05(1) Uani ? ?
C37 .572(3) .888(1) .487(1) .06(1) Uani ? ?
C38 .634(2) .861(1) .433(1) .05(1) Uani ? ?
O1w .918(8) .722(3) .030(3) .40(3) Uiso ? ?
O2w .606(6) .759(3) -.013(3) .32(3) Uiso ? ?
H1 .65204 .66923 .46059 .03500 Uiso ? ?
H2 .64903 .45344 .56245 .03500 Uiso ? ?
H3 .85191 .47897 .63442 .03500 Uiso ? ?
H4 .87271 .59339 .67177 .03500 Uiso ? ?
H5 .75180 .68449 .62603 .03500 Uiso ? ?
H6 .56527 .66418 .55168 .03500 Uiso ? ?
H9 .15949 .39288 .48083 .03500 Uiso ? ?
H10 .05629 .37400 .38010 .03500 Uiso ? ?
H11 .15425 .43058 .29092 .03500 Uiso ? ?
H15 .53497 .59191 .19782 .03500 Uiso ? ?
H16 .66100 .67921 .13986 .03500 Uiso ? ?
H17 .65800 .79271 .18022 .03500 Uiso ? ?
H18 .55986 .81626 .28001 .03500 Uiso ? ?
H19 .46501 .72732 .34109 .03500 Uiso ? ?
H21 1.12060 .64707 .17836 .03500 Uiso ? ?
H22 1.18867 .76711 .17501 .03500 Uiso ? ?
H23 1.05731 .84930 .24211 .03500 Uiso ? ?
H27 .71877 .48773 .25069 .03500 Uiso ? ?
H28 .61085 .37959 .28597 .03500 Uiso ? ?
H29 .61536 .34574 .39196 .03500 Uiso ? ?
H30 .73757 .41801 .46555 .03500 Uiso ? ?
H31 .84034 .52608 .43231 .03500 Uiso ? ?
H34 .83873 .74363 .50284 .03500 Uiso ? ?
H35 .73756 .79867 .59429 .03500 Uiso ? ?
H36 .56021 .88296 .58688 .03500 Uiso ? ?
H37 .49614 .92337 .48479 .03500 Uiso ? ?
H38 .60199 .87724 .39099 .03500 Uiso ? ?

loop_
_atom_site_aniso_label #ActaC
_atom_site_aniso_U_11 #ActaC
_atom_site_aniso_U_22 #ActaC
_atom_site_aniso_U_33 #ActaC
_atom_site_aniso_U_12 #ActaC
_atom_site_aniso_U_13 #ActaC
_atom_site_aniso_U_23 #ActaC
Cu1 .039(1) .031(1) .0257(9) -.007(1) -.000(1) .0009(9)
Cu2 .034(1) .0239(9) .033(1) -.001(1) .008(1) -.0026(9)
Na .056(5) .025(3) .034(4) -.001(3) .000(4) .005(3)
N1 .06(1) .039(8) .030(7) .006(9) .002(9) -.007(7)
N2 .022(8) .037(7) .035(8) -.006(7) -.007(6) .000(7)
N3 .06(1) .023(7) .016(7) -.011(7) .002(7) .008(5)
N4 .042(9) .031(8) .033(8) .009(8) .010(7) -.000(7)
N5 .036(9) .046(9) .020(7) -.014(8) .009(7) .005(7)
N6 .043(9) .034(7) .028(7) .010(8) -.001(7) -.016(6)
C1 .04(1) .05(1) .03(1) -.01(1) -.008(9) .011(9)
C2 .09(2) .04(1) .06(1) -.01(1) -.01(1) .01(1)
C3 .07(2) .11(2) .05(1) .00(2) -.02(1) .04(1)
C4 .08(2) .10(2) .05(1) -.03(2) -.04(1) -.00(2)
C5 .02(1) .05(1) .06(1) -.01(1) -.00(1) .01(1)
C6 .04(1) .06(1) .03(1) -.01(1) -.003(9) -.005(9)
C7 .05(1) .018(8) .06(1) -.023(9) .00(1) -.003(8)
C8 .05(1) .024(8) .05(1) -.014(9) .01(1) -.003(8)
C9 .05(1) .05(1) .027(9) .01(1) -.00(1) .001(9)
C10 .08(2) .06(1) .08(2) -.05(1) -.01(1) .02(1)
C11 .05(1) .06(1) .04(1) -.02(1) -.01(1) -.01(1)
C12 .03(1) .038(9) .04(1) .01(1) -.02(1) -.006(8)
C13 .04(1) .05(1) .013(8) .01(1) -.009(8) .002(8)
C14 .05(1) .04(1) .04(1) .01(1) -.02(1) .001(8)
C15 .11(2) .04(1) .04(1) -.00(1) .01(1) -.01(1)
C16 .11(2) .08(2) .04(1) -.01(2) .03(1) -.00(1)
C17 .09(2) .06(2) .09(2) -.01(1) -.00(2) .05(1)
C18 .05(1) .04(1) .07(1) -.01(1) .00(1) .01(1)
C19 .06(1) .034(9) .04(1) -.01(1) .02(1) .006(8)
C20 .04(1) .020(8) .04(1) .001(8) .02(1) .000(7)
C21 .09(2) .03(1) .04(1) -.01(1) -.01(1) -.016(8)
C22 .07(2) .04(1) .08(2) -.02(1) .01(1) -.02(1)
C23 .09(2) .023(9) .08(2) -.01(1) .02(1) -.02(1)
C24 .10(2) .05(1) .05(1) -.01(1) -.00(1) .01(1)
C25 .08(2) .04(1) .03(1) -.02(1) .01(1) .012(9)
C26 .06(1) .04(1) .022(8) .02(1) -.009(9) -.013(8)
C27 .07(1) .018(8) .034(9) .01(1) -.01(1) -.004(7)
C28 .08(2) .05(1) .05(1) -.00(1) .04(1) .01(1)
C29 .10(2) .06(1) .05(1) -.01(1) .05(1) .01(1)
C30 .06(1) .03(1) .06(1) -.01(1) .01(1) .004(9)
C31 .020(9) .024(9) .06(1) -.007(8) -.002(9) .004(9)
C32 .06(1) .019(8) .05(1) .008(9) .01(1) .001(8)
C33 .04(1) .022(9) .05(1) -.012(8) .013(9) -.001(8)
C34 .06(1) .018(8) .06(1) .005(9) .02(1) .011(8)
C35 .07(1) .05(1) .04(1) -.01(1) .01(1) -.009(9)
C36 .02(1) .05(1) .06(1) -.025(9) -.00(1) -.03(1)
C37 .07(2) .04(1) .06(1) .02(1) -.00(1) -.01(1)
C38 .05(1) .07(1) .05(1) .03(1) -.01(1) -.02(1)


_atom_sites_solution_primary     Cu,
_atom_sites_solution_secondary   Rest
_atom_sites_solution_hydrogens   Positions

_refine_special_details          sfls:_F_____unit_weight______full_matrix

_refine_ls_structure_factor_coef F #ActaC
_refine_ls_matrix_type           full #ActaC
_refine_ls_weighting_scheme      unit #ActaC
_refine_ls_hydrogen_treatment    none #ActaC
_refine_ls_extinction_method     none #ActaC
_refine_ls_extinction_coef       .00000 #ActaC
_refine_ls_extinction_expression ?
_refine_ls_abs_structure_details none #ActaC
_refine_ls_abs_structure_Flack   0 #ActaC
_refine_ls_number_reflns         2347 #ActaC
_refine_ls_number_parameters     452 #ActaC
_refine_ls_number_restraints     0 #ActaC
_refine_ls_number_constraints    0 #ActaC
_refine_ls_R_factor_all          .118 #ActaC
_refine_ls_R_factor_obs          .074 #ActaC
_refine_ls_wR_factor_all         .158 #ActaC
_refine_ls_wR_factor_obs         .082 #ActaC
_refine_ls_goodness_of_fit_all   6.692 #ActaC
_refine_ls_goodness_of_fit_obs   4.376 #ActaC
_refine_ls_shift/esd_max         .009 #ActaC
_refine_ls_shift/esd_mean        . #ActaC
_refine_diff_density_min         -.884 #ActaC
_refine_diff_density_max         1.22 #ActaC


_geom_special_details            ? #ActaC

loop_
_geom_bond_atom_site_label_1 #ActaC
_geom_bond_atom_site_label_2 #ActaC
_geom_bond_distance #ActaC
_geom_bond_site_symmetry_1 #ActaC
_geom_bond_site_symmetry_2 #ActaC
_geom_bond_publ_flag #ActaC
O1w O2w 3.03(9) . . ?
Cu1 Cu2 3.437(4) . . ?
Cu1 O1 1.899(1) . . ?
Cu1 N1 2.021(1) . . ?
Cu1 N2 1.909(1) . . ?
Cu1 N3 2.026(1) . . ?
Cu2 O1 1.876(1) . . ?
Cu2 N4 2.044(1) . . ?
Cu2 N5 1.929(1) . . ?
Cu2 N6 2.004(1) . . ?
Na O2 2.335(1) . . ?
Na O3 2.391(2) . . ?
Na O4 2.263(2) . . ?
Na O5 2.223(1) . . ?
O1 H1 .98(1) . . ?
O2 C7 1.26(2) . . ?
O3 C13 1.24(2) . 2_565 ?
O4 C26 1.22(2) . 2_665 ?
O5 C32 1.25(2) . 3_466 ?
N1 C1 1.44(2) . . ?
N1 C7 1.33(2) . . ?
N2 C8 1.34(2) . . ?
N2 C12 1.34(2) . . ?
N3 C13 1.34(2) . . ?
N3 C14 1.43(2) . . ?
N4 C20 1.44(2) . . ?
N4 C26 1.30(2) . . ?
N5 C27 1.35(2) . . ?
N5 C31 1.32(2) . . ?
N6 C32 1.33(2) . . ?
N6 C33 1.45(2) . . ?
C1 C2 1.40(3) . . ?
C1 C6 1.41(3) . . ?
C2 C3 1.37(4) . . ?
C2 H2 .97(2) . . ?
C3 C4 1.40(4) . . ?
C3 H3 1.00(3) . . ?
C4 C5 1.33(3) . . ?
C4 H4 .96(2) . . ?
C5 C6 1.34(3) . . ?
C5 H5 1.01(2) . . ?
C6 H6 1.00(2) . . ?
C7 C8 1.46(3) . . ?
C8 C9 1.43(3) . . ?
C9 C10 1.36(3) . . ?
C9 H9 .98(2) . . ?
C10 C11 1.35(3) . . ?
C10 H10 1.01(2) . . ?
C11 C12 1.40(3) . . ?
C11 H11 .99(2) . . ?
C12 C13 1.50(2) . . ?
C14 C15 1.37(3) . . ?
C14 C19 1.40(2) . . ?
C15 C16 1.36(3) . . ?
C15 H15 .96(2) . . ?
C16 C17 1.38(4) . . ?
C16 H16 1.01(2) . . ?
C17 C18 1.38(4) . . ?
C17 H17 .97(3) . . ?
C18 C19 1.33(3) . . ?
C18 H18 .99(2) . . ?
C19 H19 .97(2) . . ?
C20 C21 1.38(3) . . ?
C20 C25 1.37(2) . . ?
C21 C22 1.35(3) . . ?
C21 H27 1.03(2) . . ?
C22 C23 1.40(3) . . ?
C22 H28 1.00(2) . . ?
C23 C24 1.35(3) . . ?
C23 H29 .99(2) . . ?
C24 C25 1.37(3) . . ?
C24 H30 .97(2) . . ?
C25 H31 .99(2) . . ?
C26 C27 1.55(2) . . ?
C27 C28 1.33(3) . . ?
C28 C29 1.36(3) . . ?
C28 H21 1.03(2) . . ?
C29 C30 1.42(3) . . ?
C29 H22 1.00(3) . . ?
C30 C31 1.34(3) . . ?
C30 H23 .97(2) . . ?
C31 C32 1.51(3) . . ?
C33 C34 1.35(3) . . ?
C33 C38 1.42(3) . . ?
C34 C35 1.41(3) . . ?
C34 H34 .96(2) . . ?
C35 C36 1.37(3) . . ?
C35 H35 .97(2) . . ?
C36 C37 1.40(3) . . ?
C36 H36 .98(2) . . ?
C37 C38 1.38(3) . . ?
C37 H37 .97(2) . . ?
C38 H38 .98(2) . . ?

loop_
_geom_contact_atom_site_label_1 #ActaC
_geom_contact_atom_site_label_2 #ActaC
_geom_contact_distance #ActaC
_geom_contact_site_symmetry_1 #ActaC
_geom_contact_site_symmetry_2 #ActaC
_geom_contact_publ_flag
? ? ? ? ? ?

loop_
_geom_angle_atom_site_label_1 #ActaC
_geom_angle_atom_site_label_2 #ActaC
_geom_angle_atom_site_label_3 #ActaC
_geom_angle #ActaC
_geom_angle_site_symmetry_1 #ActaC
_geom_angle_site_symmetry_2 #ActaC
_geom_angle_site_symmetry_3 #ActaC
_geom_angle_publ_flag #ActaC
O1 Cu1 N1 100.1(6) . . . ?
O1 Cu1 N2 175.2(5) . . . ?
O1 Cu1 N3 99.9(5) . . . ?
N1 Cu1 N2 79.8(6) . . . ?
N1 Cu1 N3 159.9(6) . . . ?
N2 Cu1 N3 80.4(6) . . . ?
O1 Cu2 N4 100.6(5) . . . ?
O1 Cu2 N5 171.7(6) . . . ?
O1 Cu2 N6 100.9(5) . . . ?
N4 Cu2 N5 80.2(6) . . . ?
N4 Cu2 N6 157.7(6) . . . ?
N5 Cu2 N6 79.5(6) . . . ?
O2 Na O3 115.3(5) . . . ?
O2 Na O4 122.1(5) . . . ?
O2 Na O5 110.8(5) . . . ?
O3 Na O4 86.1(5) . . . ?
O3 Na O5 107.3(5) . . . ?
O4 Na O5 112.3(6) . . . ?
Cu1 O1 Cu2 131.1(6) . . . ?
Cu1 O1 H1 115.1(8) . . . ?
Cu2 O1 H1 113.8(8) . . . ?
Na O2 C7 130(1) . . . ?
Na O3 C13 144(1) . . 2_565 ?
Na O4 C26 150(1) . . 2_665 ?
Na O5 C32 169(1) . . 3_466 ?
Cu1 N1 C1 124(1) . . . ?
Cu1 N1 C7 115(1) . . . ?
C1 N1 C7 119(1) . . . ?
Cu1 N2 C8 117(1) . . . ?
Cu1 N2 C12 119(1) . . . ?
C8 N2 C12 124(2) . . . ?
Cu1 N3 C13 114(1) . . . ?
Cu1 N3 C14 128(1) . . . ?
C13 N3 C14 118(1) . . . ?
Cu2 N4 C20 125(1) . . . ?
Cu2 N4 C26 116(1) . . . ?
C20 N4 C26 118(1) . . . ?
Cu2 N5 C27 119(1) . . . ?
Cu2 N5 C31 119(1) . . . ?
C27 N5 C31 122(2) . . . ?
Cu2 N6 C32 114(1) . . . ?
Cu2 N6 C33 125(1) . . . ?
C32 N6 C33 119(1) . . . ?
N1 C1 C2 121(2) . . . ?
N1 C1 C6 121(2) . . . ?
C2 C1 C6 118(2) . . . ?
C1 C2 C3 119(2) . . . ?
C1 C2 H2 118(2) . . . ?
C3 C2 H2 123(2) . . . ?
C2 C3 C4 120(2) . . . ?
C2 C3 H3 121(2) . . . ?
C4 C3 H3 118(2) . . . ?
C3 C4 C5 120(2) . . . ?
C3 C4 H4 119(3) . . . ?
C5 C4 H4 120(3) . . . ?
C4 C5 C6 122(2) . . . ?
C4 C5 H5 117(2) . . . ?
C6 C5 H5 121(2) . . . ?
C1 C6 C5 121(2) . . . ?
C1 C6 H6 122(2) . . . ?
C5 C6 H6 118(2) . . . ?
O2 C7 N1 129(2) . . . ?
O2 C7 C8 119(2) . . . ?
N1 C7 C8 112(2) . . . ?
N2 C8 C7 115(2) . . . ?
N2 C8 C9 119(2) . . . ?
C7 C8 C9 126(2) . . . ?
C8 C9 C10 117(2) . . . ?
C8 C9 H9 122(2) . . . ?
C10 C9 H9 121(2) . . . ?
C9 C10 C11 123(2) . . . ?
C9 C10 H10 118(2) . . . ?
C11 C10 H10 118(2) . . . ?
C10 C11 C12 119(2) . . . ?
C10 C11 H11 122(2) . . . ?
C12 C11 H11 119(2) . . . ?
N2 C12 C11 118(2) . . . ?
N2 C12 C13 113(1) . . . ?
C11 C12 C13 129(2) . . . ?
N3 C13 C12 113(1) . . . ?
N3 C13 O3 128(2) . . 2_564 ?
C12 C13 O3 120(2) . . 2_564 ?
N3 C14 C15 126(2) . . . ?
N3 C14 C19 117(2) . . . ?
C15 C14 C19 117(2) . . . ?
C14 C15 C16 122(2) . . . ?
C14 C15 H15 118(2) . . . ?
C16 C15 H15 119(2) . . . ?
C15 C16 C17 120(2) . . . ?
C15 C16 H16 121(2) . . . ?
C17 C16 H16 118(2) . . . ?
C16 C17 C18 118(2) . . . ?
C16 C17 H17 120(3) . . . ?
C18 C17 H17 122(2) . . . ?
C17 C18 C19 121(2) . . . ?
C17 C18 H18 116(2) . . . ?
C19 C18 H18 123(2) . . . ?
C14 C19 C18 122(2) . . . ?
C14 C19 H19 121(2) . . . ?
C18 C19 H19 117(2) . . . ?
N4 C20 C21 123(2) . . . ?
N4 C20 C25 121(2) . . . ?
C21 C20 C25 116(2) . . . ?
C20 C21 C22 120(2) . . . ?
C20 C21 H27 118(2) . . . ?
C22 C21 H27 121(2) . . . ?
C21 C22 C23 122(2) . . . ?
C21 C22 H28 121(2) . . . ?
C23 C22 H28 116(2) . . . ?
C22 C23 C24 117(2) . . . ?
C22 C23 H29 120(2) . . . ?
C24 C23 H29 123(2) . . . ?
C23 C24 C25 120(2) . . . ?
C23 C24 H30 119(2) . . . ?
C25 C24 H30 121(2) . . . ?
C20 C25 C24 123(2) . . . ?
C20 C25 H31 116(2) . . . ?
C24 C25 H31 121(2) . . . ?
N4 C26 C27 112(2) . . . ?
N4 C26 O4 131(2) . . 2_664 ?
C27 C26 O4 117(2) . . 2_664 ?
N5 C27 C26 112(2) . . . ?
N5 C27 C28 119(2) . . . ?
C26 C27 C28 129(2) . . . ?
C27 C28 C29 120(2) . . . ?
C27 C28 H21 121(2) . . . ?
C29 C28 H21 120(2) . . . ?
C28 C29 C30 121(2) . . . ?
C28 C29 H22 121(2) . . . ?
C30 C29 H22 118(2) . . . ?
C29 C30 C31 116(2) . . . ?
C29 C30 H23 123(2) . . . ?
C31 C30 H23 120(2) . . . ?
N5 C31 C30 122(2) . . . ?
N5 C31 C32 111(2) . . . ?
C30 C31 C32 127(2) . . . ?
N6 C32 C31 113(1) . . . ?
N6 C32 O5 130(2) . . 3