####################################################################### 
# 
# This file contains crystal structure data downloaded from the 
# Cambridge Structural Database (CSD) hosted by the Cambridge 
# Crystallographic Data Centre (CCDC).
# 
# Full information about CCDC data access policies and citation 
# guidelines are available at http://www.ccdc.cam.ac.uk/access/V1 
# 
# Audit and citation data items may have been added by the CCDC. 
# Please retain this information to preserve the provenance of 
# this file and to allow appropriate attribution of the data. 
# 
#######################################################################

data_md93c
_audit_block_doi                 10.5517/ccr5c7h
_database_code_depnum_ccdc_archive 'CCDC 690346'
loop_
_citation_id
_citation_doi
_citation_year
1 10.1002/chem.200801336 2008
_audit_update_record             
;
2008-06-04 deposited with the CCDC.	2024-07-13 downloaded from the CCDC.
;

_audit_creation_method           SHELXL-97
_chemical_name_systematic        
;
?
;
_chemical_name_common            ?
_chemical_melting_point          ?
_chemical_formula_moiety         ?
_chemical_formula_sum            'C29 H16 Cl1.4 Cu2.35 N16'
_chemical_formula_weight         762.7
_chemical_compound_source        synthetic

loop_
_atom_type_symbol
_atom_type_description
_atom_type_scat_dispersion_real
_atom_type_scat_dispersion_imag
_atom_type_scat_source
C C 0.0033 0.0016 'International Tables Vol C Tables 4.2.6.8 and 6.1.1.4'
H H 0.0000 0.0000 'International Tables Vol C Tables 4.2.6.8 and 6.1.1.4'
N N 0.0061 0.0033 'International Tables Vol C Tables 4.2.6.8 and 6.1.1.4'
Cl Cl 0.1484 0.1585 'International Tables Vol C Tables 4.2.6.8 and 6.1.1.4'
Cu Cu 0.3201 1.2651 'International Tables Vol C Tables 4.2.6.8 and 6.1.1.4'

_symmetry_cell_setting           tetragonal
_symmetry_space_group_name_H-M   'I 4 / m m m'
_symmetry_space_group_name_Hall  '-I 4 2'

loop_
_symmetry_equiv_pos_as_xyz
'x, y, z'
'-x, -y, z'
'-y, x, z'
'y, -x, z'
'-x, y, -z'
'x, -y, -z'
'y, x, -z'
'-y, -x, -z'
'x+1/2, y+1/2, z+1/2'
'-x+1/2, -y+1/2, z+1/2'
'-y+1/2, x+1/2, z+1/2'
'y+1/2, -x+1/2, z+1/2'
'-x+1/2, y+1/2, -z+1/2'
'x+1/2, -y+1/2, -z+1/2'
'y+1/2, x+1/2, -z+1/2'
'-y+1/2, -x+1/2, -z+1/2'
'-x, -y, -z'
'x, y, -z'
'y, -x, -z'
'-y, x, -z'
'x, -y, z'
'-x, y, z'
'-y, -x, z'
'y, x, z'
'-x+1/2, -y+1/2, -z+1/2'
'x+1/2, y+1/2, -z+1/2'
'y+1/2, -x+1/2, -z+1/2'
'-y+1/2, x+1/2, -z+1/2'
'x+1/2, -y+1/2, z+1/2'
'-x+1/2, y+1/2, z+1/2'
'-y+1/2, -x+1/2, z+1/2'
'y+1/2, x+1/2, z+1/2'

_cell_length_a                   16.0914(9)
_cell_length_b                   16.0914(9)
_cell_length_c                   28.187(3)
_cell_angle_alpha                90.00
_cell_angle_beta                 90.00
_cell_angle_gamma                90.00
_cell_volume                     7298.5(10)
_cell_formula_units_Z            4
_cell_measurement_temperature    154(2)
_cell_measurement_reflns_used    2270
_cell_measurement_theta_min      4.601
_cell_measurement_theta_max      39.691

_exptl_crystal_description       block
_exptl_crystal_colour            red
_exptl_crystal_size_max          0.30
_exptl_crystal_size_mid          0.10
_exptl_crystal_size_min          0.10
_exptl_crystal_density_meas      ?
_exptl_crystal_density_diffrn    0.694
_exptl_crystal_density_method    'not measured'
_exptl_crystal_F_000             1528
_exptl_absorpt_coefficient_mu    0.729
_exptl_absorpt_correction_type   empirical
_exptl_absorpt_correction_T_min  0.916
_exptl_absorpt_correction_T_max  0.930
_exptl_absorpt_process_details   'Blessing, 1995'

_exptl_special_details           
;
?
;

_diffrn_ambient_temperature      154(2)
_diffrn_radiation_wavelength     0.71073
_diffrn_radiation_type           MoK\a
_diffrn_radiation_source         'fine-focus sealed tube'
_diffrn_radiation_monochromator  graphite
_diffrn_measurement_device_type  'Bruker SMART CCD'
_diffrn_measurement_method       \w/2\q-scans
_diffrn_detector_area_resol_mean ?
_diffrn_standards_number         ?
_diffrn_standards_interval_count ?
_diffrn_standards_interval_time  ?
_diffrn_standards_decay_%        ?
_diffrn_reflns_number            14360
_diffrn_reflns_av_R_equivalents  0.0970
_diffrn_reflns_av_sigmaI/netI    0.0584
_diffrn_reflns_limit_h_min       -14
_diffrn_reflns_limit_h_max       16
_diffrn_reflns_limit_k_min       -16
_diffrn_reflns_limit_k_max       16
_diffrn_reflns_limit_l_min       -25
_diffrn_reflns_limit_l_max       29
_diffrn_reflns_theta_min         2.30
_diffrn_reflns_theta_max         21.99
_reflns_number_total             1311
_reflns_number_gt                913
_reflns_threshold_expression     >2sigma(I)

_computing_data_collection       'Bruker SMART v5.054d'
_computing_cell_refinement       'Bruker SAINT v7.07b'
_computing_data_reduction        'Bruker SAINT v7.07b'
_computing_structure_solution    'SHELXS-97 (Sheldrick, 1990)'
_computing_structure_refinement  'SHELXL-97 (Sheldrick, 1997)'
_computing_molecular_graphics    ?
_computing_publication_material  ?

_refine_special_details          
;
Refinement of F^2^ against ALL reflections. The weighted R-factor wR and
goodness of fit S are based on F^2^, conventional R-factors R are based
on F, with F set to zero for negative F^2^. The threshold expression of
F^2^ > 2sigma(F^2^) is used only for calculating R-factors(gt) etc. and is
not relevant to the choice of reflections for refinement. R-factors based
on F^2^ are statistically about twice as large as those based on F, and R-
factors based on ALL data will be even larger.
;

_refine_ls_structure_factor_coef Fsqd
_refine_ls_matrix_type           full
_refine_ls_weighting_scheme      calc
_refine_ls_weighting_details     
'calc w=1/[\s^2^(Fo^2^)+(0.0717P)^2^+0.0000P] where P=(Fo^2^+2Fc^2^)/3'
_atom_sites_solution_primary     direct
_atom_sites_solution_secondary   difmap
_atom_sites_solution_hydrogens   geom
_refine_ls_hydrogen_treatment    constr
_refine_ls_extinction_method     none
_refine_ls_extinction_coef       ?
_refine_ls_number_reflns         1311
_refine_ls_number_parameters     71
_refine_ls_number_restraints     0
_refine_ls_R_factor_all          0.0612
_refine_ls_R_factor_gt           0.0400
_refine_ls_wR_factor_ref         0.1140
_refine_ls_wR_factor_gt          0.1084
_refine_ls_goodness_of_fit_ref   0.935
_refine_ls_restrained_S_all      0.935
_refine_ls_shift/su_max          0.000
_refine_ls_shift/su_mean         0.000

loop_
_atom_site_label
_atom_site_type_symbol
_atom_site_fract_x
_atom_site_fract_y
_atom_site_fract_z
_atom_site_U_iso_or_equiv
_atom_site_adp_type
_atom_site_occupancy
_atom_site_symmetry_multiplicity
_atom_site_calc_flag
_atom_site_refinement_flags
_atom_site_disorder_assembly
_atom_site_disorder_group
Cu1 Cu 0.10836(3) 0.10836(3) 0.5000 0.0317(3) Uani 1 4 d S . .
Cu2 Cu 0.1938(4) 0.1938(4) 0.4081(3) 0.061(4) Uiso 0.085(2) 2 d SP . .
C1 C 0.2466(3) 0.0000 0.39664(17) 0.0379(13) Uani 1 2 d S . .
C2 C 0.3055(3) 0.0000 0.35678(16) 0.0364(12) Uani 1 2 d S . .
C3 C 0.3359(3) -0.0725(2) 0.33885(13) 0.0592(12) Uani 1 1 d . . .
H3A H 0.3168 -0.1229 0.3509 0.071 Uiso 1 1 calc R . .
C4 C 0.3947(2) -0.0724(2) 0.30308(13) 0.0576(11) Uani 1 1 d . . .
H4A H 0.4138 -0.1229 0.2912 0.069 Uiso 1 1 calc R . .
C5 C 0.4256(3) 0.0000 0.28459(15) 0.0324(12) Uani 1 2 d S . .
C6 C 0.5000 0.0000 0.2500 0.031(2) Uani 1 8 d S . .
N1 N 0.16811(17) 0.04134(15) 0.45175(9) 0.0385(8) Uani 1 1 d . . .
N2 N 0.21672(17) 0.06902(18) 0.41717(10) 0.0414(8) Uani 1 1 d . . .
Cl1 Cl 0.0000 0.0000 0.4880(4) 0.056(5) Uiso 0.239(8) 8 d SP . .
Cl2 Cl 0.2292(16) 0.2292(16) 0.5000 0.334(17) Uiso 0.23 4 d SP . .

loop_
_atom_site_aniso_label
_atom_site_aniso_U_11
_atom_site_aniso_U_22
_atom_site_aniso_U_33
_atom_site_aniso_U_23
_atom_site_aniso_U_13
_atom_site_aniso_U_12
Cu1 0.0374(4) 0.0374(4) 0.0203(5) 0.000 0.000 0.0037(4)
C1 0.046(3) 0.034(3) 0.034(3) 0.000 0.007(3) 0.000
C2 0.045(3) 0.036(3) 0.029(3) 0.000 0.007(3) 0.000
C3 0.081(3) 0.040(2) 0.056(3) 0.002(2) 0.032(3) -0.008(2)
C4 0.079(3) 0.040(2) 0.053(2) -0.005(2) 0.033(2) 0.001(2)
C5 0.041(3) 0.037(3) 0.019(2) 0.000 0.002(2) 0.000
C6 0.035(3) 0.035(3) 0.025(5) 0.000 0.000 0.000
N1 0.0457(18) 0.0409(16) 0.0288(17) 0.0020(12) 0.0072(15) 0.0018(13)
N2 0.049(2) 0.0444(18) 0.0307(17) 0.0042(16) 0.0088(15) 0.0018(15)

_geom_special_details            
;
All esds (except the esd in the dihedral angle between two l.s. planes)
are estimated using the full covariance matrix. The cell esds are taken
into account individually in the estimation of esds in distances, angles
and torsion angles; correlations between esds in cell parameters are only
used when they are defined by crystal symmetry. An approximate (isotropic)
treatment of cell esds is used for estimating esds involving l.s. planes.
;

loop_
_geom_bond_atom_site_label_1
_geom_bond_atom_site_label_2
_geom_bond_distance
_geom_bond_site_symmetry_2
_geom_bond_publ_flag
Cu1 N1 1.984(3) 7_556 ?
Cu1 N1 1.984(3) 24 ?
Cu1 N1 1.984(3) . ?
Cu1 N1 1.984(3) 18_556 ?
Cu1 Cl1 2.4889(17) . ?
Cu1 Cl1 2.4889(17) 17_556 ?
Cu1 Cl2 2.75(4) . ?
Cu2 N2 2.058(6) 24 ?
Cu2 N2 2.058(6) . ?
Cu2 Cl2 2.712(14) . ?
C1 N2 1.342(4) . ?
C1 N2 1.342(4) 21 ?
C1 C2 1.470(6) . ?
C2 C3 1.362(4) 21 ?
C2 C3 1.362(4) . ?
C3 C4 1.383(5) . ?
C4 C5 1.370(4) . ?
C5 C4 1.370(4) 21 ?
C5 C6 1.544(4) . ?
C6 C5 1.544(4) 27 ?
C6 C5 1.544(4) 2_655 ?
C6 C5 1.544(4) 28_545 ?
N1 N2 1.327(3) . ?
N1 N1 1.330(5) 21 ?
Cl1 Cl1 0.67(2) 17_556 ?
Cl1 Cu1 2.4889(17) 3 ?
Cl1 Cu1 2.4889(17) 19_556 ?
Cl1 Cu1 2.4889(17) 17_556 ?
Cl2 Cu2 2.712(14) 18_556 ?

loop_
_geom_angle_atom_site_label_1
_geom_angle_atom_site_label_2
_geom_angle_atom_site_label_3
_geom_angle
_geom_angle_site_symmetry_1
_geom_angle_site_symmetry_3
_geom_angle_publ_flag
N1 Cu1 N1 86.53(15) 7_556 24 ?
N1 Cu1 N1 175.22(15) 7_556 . ?
N1 Cu1 N1 93.27(15) 24 . ?
N1 Cu1 N1 93.27(15) 7_556 18_556 ?
N1 Cu1 N1 175.22(15) 24 18_556 ?
N1 Cu1 N1 86.53(15) . 18_556 ?
N1 Cu1 Cl1 93.0(2) 7_556 . ?
N1 Cu1 Cl1 82.29(19) 24 . ?
N1 Cu1 Cl1 82.29(19) . . ?
N1 Cu1 Cl1 93.0(2) 18_556 . ?
N1 Cu1 Cl1 82.29(19) 7_556 17_556 ?
N1 Cu1 Cl1 93.0(2) 24 17_556 ?
N1 Cu1 Cl1 93.0(2) . 17_556 ?
N1 Cu1 Cl1 82.29(19) 18_556 17_556 ?
Cl1 Cu1 Cl1 15.6(5) . 17_556 ?
N1 Cu1 Cl2 92.39(8) 7_556 . ?
N1 Cu1 Cl2 92.39(8) 24 . ?
N1 Cu1 Cl2 92.39(8) . . ?
N1 Cu1 Cl2 92.39(8) 18_556 . ?
Cl1 Cu1 Cl2 172.2(3) . . ?
Cl1 Cu1 Cl2 172.2(3) 17_556 . ?
N2 Cu2 N2 109.5(4) 24 . ?
N2 Cu2 Cl2 92.8(5) 24 . ?
N2 Cu2 Cl2 92.8(5) . . ?
N2 C1 N2 111.8(4) . 21 ?
N2 C1 C2 124.1(2) . . ?
N2 C1 C2 124.1(2) 21 . ?
C3 C2 C3 117.9(5) 21 . ?
C3 C2 C1 121.0(2) 21 . ?
C3 C2 C1 121.0(2) . . ?
C2 C3 C4 121.0(4) . . ?
C5 C4 C3 121.8(4) . . ?
C4 C5 C4 116.6(4) 21 . ?
C4 C5 C6 121.4(2) 21 . ?
C4 C5 C6 121.4(2) . . ?
C5 C6 C5 113.50(17) 27 2_655 ?
C5 C6 C5 113.50(17) 27 . ?
C5 C6 C5 101.7(3) 2_655 . ?
C5 C6 C5 101.7(3) 27 28_545 ?
C5 C6 C5 113.50(17) 2_655 28_545 ?
C5 C6 C5 113.50(17) . 28_545 ?
N2 N1 N1 109.62(17) . 21 ?
N2 N1 Cu1 127.4(2) . . ?
N1 N1 Cu1 122.92(7) 21 . ?
N1 N2 C1 104.5(3) . . ?
N1 N2 Cu2 108.3(3) . . ?
C1 N2 Cu2 145.0(3) . . ?
Cl1 Cl1 Cu1 82.2(3) 17_556 . ?
Cl1 Cl1 Cu1 82.2(3) 17_556 3 ?
Cu1 Cl1 Cu1 88.95(7) . 3 ?
Cl1 Cl1 Cu1 82.2(3) 17_556 19_556 ?
Cu1 Cl1 Cu1 88.95(7) . 19_556 ?
Cu1 Cl1 Cu1 164.4(5) 3 19_556 ?
Cl1 Cl1 Cu1 82.2(3) 17_556 17_556 ?
Cu1 Cl1 Cu1 164.4(5) . 17_556 ?
Cu1 Cl1 Cu1 88.95(7) 3 17_556 ?
Cu1 Cl1 Cu1 88.95(7) 19_556 17_556 ?
Cu2 Cl2 Cu2 145.5(15) . 18_556 ?
Cu2 Cl2 Cu1 72.7(8) . . ?
Cu2 Cl2 Cu1 72.7(8) 18_556 . ?

_diffrn_measured_fraction_theta_max 0.996
_diffrn_reflns_theta_full        21.99
_diffrn_measured_fraction_theta_full 0.996
_refine_diff_density_max         0.722
_refine_diff_density_min         -0.275
_refine_diff_density_rms         0.050


