####################################################################### 
# 
# This file contains crystal structure data downloaded from the 
# Cambridge Structural Database (CSD) hosted by the Cambridge 
# Crystallographic Data Centre (CCDC).
# 
# Full information about CCDC data access policies and citation 
# guidelines are available at http://www.ccdc.cam.ac.uk/access/V1 
# 
# Audit and citation data items may have been added by the CCDC. 
# Please retain this information to preserve the provenance of 
# this file and to allow appropriate attribution of the data. 
# 
#######################################################################

data_complex12
_audit_block_doi                 10.5517/ccr7p3r
_database_code_depnum_ccdc_archive 'CCDC 692574'
loop_
_citation_id
_citation_doi
_citation_year
1 10.1002/chem.200801264 2008
_audit_update_record             
;
2008-06-23 deposited with the CCDC.	2024-07-13 downloaded from the CCDC.
;

_audit_creation_method           SHELXL-97
_chemical_name_systematic        
;
[tris[4-(2-pyridyl)benzyl}cyclotriguaiacylene]silver(I)
hexafluoroantimonate hydrate dimethylformamide solvate
;
_chemical_name_common            ?
_chemical_melting_point          ?
_chemical_formula_moiety         ?
_chemical_formula_sum            'C69 H74 Ag F6 N6 O10 Sb'
_chemical_formula_weight         1490.96

loop_
_atom_type_symbol
_atom_type_description
_atom_type_scat_dispersion_real
_atom_type_scat_dispersion_imag
_atom_type_scat_source
C C 0.0033 0.0016 'International Tables Vol C Tables 4.2.6.8 and 6.1.1.4'
H H 0.0000 0.0000 'International Tables Vol C Tables 4.2.6.8 and 6.1.1.4'
N N 0.0061 0.0033 'International Tables Vol C Tables 4.2.6.8 and 6.1.1.4'
O O 0.0106 0.0060 'International Tables Vol C Tables 4.2.6.8 and 6.1.1.4'
F F 0.0171 0.0103 'International Tables Vol C Tables 4.2.6.8 and 6.1.1.4'
Ag Ag -0.8971 1.1015 'International Tables Vol C Tables 4.2.6.8 and 6.1.1.4'
Sb Sb -0.5866 1.5461 'International Tables Vol C Tables 4.2.6.8 and 6.1.1.4'

_symmetry_cell_setting           Triclinic
_symmetry_space_group_name_H-M   P-1

loop_
_symmetry_equiv_pos_as_xyz
'x, y, z'
'-x, -y, -z'

_cell_length_a                   14.2674(11)
_cell_length_b                   15.0917(12)
_cell_length_c                   16.9138(13)
_cell_angle_alpha                111.868(4)
_cell_angle_beta                 100.442(4)
_cell_angle_gamma                90.440(4)
_cell_volume                     3312.5(4)
_cell_formula_units_Z            2
_cell_measurement_temperature    150(2)
_cell_measurement_reflns_used    ?
_cell_measurement_theta_min      ?
_cell_measurement_theta_max      ?

_exptl_crystal_description       needle
_exptl_crystal_colour            colourless
_exptl_crystal_size_max          0.48
_exptl_crystal_size_mid          0.03
_exptl_crystal_size_min          0.03
_exptl_crystal_density_meas      ?
_exptl_crystal_density_diffrn    1.495
_exptl_crystal_density_method    'not measured'
_exptl_crystal_F_000             1524
_exptl_absorpt_coefficient_mu    0.783
_exptl_absorpt_correction_type   multi-scan
_exptl_absorpt_correction_T_min  0.7049
_exptl_absorpt_correction_T_max  0.9769
_exptl_absorpt_process_details   SADABS

_exptl_special_details           
;
?
;

_diffrn_ambient_temperature      150(2)
_diffrn_radiation_wavelength     0.71073
_diffrn_radiation_type           MoK\a
_diffrn_radiation_source         'fine-focus sealed tube'
_diffrn_radiation_monochromator  graphite
_diffrn_measurement_device_type  'Bruker X8 diffractometer'
_diffrn_measurement_method       ?
_diffrn_detector_area_resol_mean ?
_diffrn_standards_number         ?
_diffrn_standards_interval_count ?
_diffrn_standards_interval_time  ?
_diffrn_standards_decay_%        ?
_diffrn_reflns_number            49406
_diffrn_reflns_av_R_equivalents  0.0595
_diffrn_reflns_av_sigmaI/netI    0.0588
_diffrn_reflns_limit_h_min       -16
_diffrn_reflns_limit_h_max       16
_diffrn_reflns_limit_k_min       -17
_diffrn_reflns_limit_k_max       17
_diffrn_reflns_limit_l_min       -20
_diffrn_reflns_limit_l_max       20
_diffrn_reflns_theta_min         2.03
_diffrn_reflns_theta_max         25.00
_reflns_number_total             11641
_reflns_number_gt                7443
_reflns_threshold_expression     >2sigma(I)

_computing_data_collection       'APEXII (Bruker, 2004)'
_computing_cell_refinement       'APEXII (Bruker, 2004)'
_computing_data_reduction        'APEXII (Bruker, 2004)'
_computing_structure_solution    'SHELXS-97 (Sheldrick, 1990)'
_computing_structure_refinement  'SHELXL-97 (Sheldrick, 1997)'
_computing_molecular_graphics    'XSeed (Barbour, 2001)'
_computing_publication_material  ?

_refine_special_details          
;
Refinement of F^2^ against ALL reflections. The weighted R-factor wR and
goodness of fit S are based on F^2^, conventional R-factors R are based
on F, with F set to zero for negative F^2^. The threshold expression of
F^2^ > 2sigma(F^2^) is used only for calculating R-factors(gt) etc. and is
not relevant to the choice of reflections for refinement. R-factors based
on F^2^ are statistically about twice as large as those based on F, and R-
factors based on ALL data will be even larger.
two C-O bond lengths of disordered DMF molecules were restrained
;

_refine_ls_structure_factor_coef Fsqd
_refine_ls_matrix_type           full
_refine_ls_weighting_scheme      calc
_refine_ls_weighting_details     
'calc w=1/[\s^2^(Fo^2^)+(0.1151P)^2^+11.7697P] where P=(Fo^2^+2Fc^2^)/3'
_atom_sites_solution_primary     direct
_atom_sites_solution_secondary   difmap
_atom_sites_solution_hydrogens   geom
_refine_ls_hydrogen_treatment    constr
_refine_ls_extinction_method     none
_refine_ls_extinction_coef       ?
_refine_ls_number_reflns         11641
_refine_ls_number_parameters     813
_refine_ls_number_restraints     2
_refine_ls_R_factor_all          0.1131
_refine_ls_R_factor_gt           0.0692
_refine_ls_wR_factor_ref         0.2216
_refine_ls_wR_factor_gt          0.1834
_refine_ls_goodness_of_fit_ref   1.013
_refine_ls_restrained_S_all      1.013
_refine_ls_shift/su_max          0.000
_refine_ls_shift/su_mean         0.000

loop_
_atom_site_label
_atom_site_type_symbol
_atom_site_fract_x
_atom_site_fract_y
_atom_site_fract_z
_atom_site_U_iso_or_equiv
_atom_site_adp_type
_atom_site_occupancy
_atom_site_symmetry_multiplicity
_atom_site_calc_flag
_atom_site_refinement_flags
_atom_site_disorder_assembly
_atom_site_disorder_group
Sb1 Sb 0.26821(4) 0.39085(4) 0.16834(4) 0.0558(2) Uani 1 1 d . . .
Ag1 Ag 0.68772(4) 0.27139(4) 0.28748(4) 0.0538(2) Uani 1 1 d . . .
F1 F 0.1950(5) 0.3161(5) 0.0651(4) 0.116(2) Uani 1 1 d . . .
O1 O 0.2671(3) -0.0037(3) -0.0009(3) 0.0415(11) Uani 1 1 d . . .
N1 N 0.7580(4) 0.1346(4) 0.2485(4) 0.0455(15) Uani 1 1 d . . .
C1 C 0.0226(4) 0.0517(5) -0.0830(4) 0.0339(15) Uani 1 1 d . . .
F2 F 0.1741(5) 0.4731(6) 0.2019(6) 0.134(3) Uani 1 1 d . . .
O2 O 0.1863(3) -0.1756(3) -0.0759(3) 0.0448(12) Uani 1 1 d . . .
N2 N 0.3209(5) -0.4238(5) -0.2982(4) 0.0566(17) Uani 1 1 d . . .
C2 C 0.1197(5) 0.0661(5) -0.0434(4) 0.0350(15) Uani 1 1 d . . .
H2A H 0.1498 0.1294 -0.0177 0.042 Uiso 1 1 calc R . .
F3 F 0.3106(6) 0.4686(5) 0.1168(5) 0.130(3) Uani 1 1 d . . .
O3 O -0.1463(4) -0.3160(5) -0.4607(4) 0.0634(16) Uani 1 1 d . . .
N3 N -0.4411(5) 0.2722(6) -0.6294(5) 0.074(2) Uani 1 1 d . . .
C3 C 0.1737(4) -0.0100(5) -0.0405(4) 0.0348(15) Uani 1 1 d . . .
F4 F 0.3505(7) 0.4689(5) 0.2724(5) 0.146(3) Uani 1 1 d . . .
O4 O -0.1824(5) -0.1952(5) -0.5369(4) 0.0763(19) Uani 1 1 d . . .
N4 N -0.4066(9) -0.0708(10) -0.4544(9) 0.137(4) Uiso 1 1 d . . .
C4 C 0.1289(5) -0.1046(5) -0.0808(4) 0.0373(15) Uani 1 1 d . . .
F5 F 0.3668(5) 0.3143(4) 0.1444(5) 0.115(2) Uani 1 1 d . . .
O5 O 0.0207(5) 0.2812(5) -0.3403(4) 0.086(2) Uani 1 1 d . . .
N5 N -0.2714(9) 0.2829(9) -0.1649(8) 0.050(3) Uiso 0.50 1 d P A 1
C5 C 0.0324(5) -0.1181(5) -0.1206(4) 0.0383(16) Uani 1 1 d . . .
H5 H 0.0024 -0.1814 -0.1478 0.046 Uiso 1 1 calc R . .
F6 F 0.2295(9) 0.3120(6) 0.2175(6) 0.173(4) Uani 1 1 d . . .
O6 O 0.1396(4) 0.3444(4) -0.1911(3) 0.0560(14) Uani 1 1 d . . .
N6 N -0.4753(10) 0.3594(10) -0.0277(9) 0.133(4) Uiso 1 1 d . . .
C6 C -0.0217(5) -0.0416(5) -0.1217(4) 0.0371(15) Uani 1 1 d . . .
O7 O -0.3783(8) -0.0130(8) -0.5538(8) 0.148(4) Uiso 1 1 d . . .
C7 C -0.1275(5) -0.0664(5) -0.1658(4) 0.0410(16) Uani 1 1 d . . .
H7A H -0.1639 -0.0105 -0.1407 0.049 Uiso 1 1 calc R . .
H7B H -0.1529 -0.1204 -0.1538 0.049 Uiso 1 1 calc R . .
O8 O -0.3899(10) 0.1679(10) -0.1944(9) 0.082(4) Uiso 0.50 1 d P A 1
C8 C -0.1421(5) -0.0939(6) -0.2643(5) 0.0429(18) Uani 1 1 d . . .
O9A O -0.3296(13) 0.4042(13) 0.0632(11) 0.110(5) Uiso 0.50 1 d P . .
C9 C -0.1338(5) -0.1904(6) -0.3162(5) 0.0479(18) Uani 1 1 d . . .
H9 H -0.1178 -0.2345 -0.2889 0.057 Uiso 1 1 calc R . .
C10 C -0.1482(5) -0.2222(7) -0.4050(5) 0.055(2) Uani 1 1 d . . .
C11 C -0.1674(6) -0.1558(7) -0.4456(5) 0.060(2) Uani 1 1 d . . .
C12 C -0.1737(5) -0.0615(8) -0.3961(6) 0.063(3) Uani 1 1 d . . .
H12 H -0.1851 -0.0167 -0.4234 0.075 Uiso 1 1 calc R . .
C13 C -0.1636(5) -0.0301(6) -0.3051(5) 0.050(2) Uani 1 1 d . . .
C14 C -0.1762(5) 0.0758(6) -0.2545(5) 0.055(2) Uani 1 1 d . . .
H14A H -0.2282 0.0964 -0.2895 0.066 Uiso 1 1 calc R . .
H14B H -0.1967 0.0815 -0.2001 0.066 Uiso 1 1 calc R . .
C15 C -0.0873(5) 0.1441(6) -0.2314(5) 0.0472(18) Uani 1 1 d . . .
C16 C -0.0724(6) 0.1796(7) -0.2954(6) 0.061(2) Uani 1 1 d . . .
H16 H -0.1158 0.1580 -0.3498 0.073 Uiso 1 1 calc R . .
C17 C 0.0038(5) 0.2449(6) -0.2805(5) 0.055(2) Uani 1 1 d . . .
C18 C 0.0677(5) 0.2777(5) -0.2004(5) 0.0425(17) Uani 1 1 d . . .
C19 C 0.0541(5) 0.2426(5) -0.1379(4) 0.0367(15) Uani 1 1 d . . .
H19 H 0.0978 0.2650 -0.0837 0.044 Uiso 1 1 calc R . .
C20 C -0.0218(5) 0.1753(5) -0.1518(4) 0.0384(16) Uani 1 1 d . . .
C21 C -0.0299(5) 0.1412(5) -0.0785(5) 0.0390(16) Uani 1 1 d . . .
H21A H -0.0984 0.1274 -0.0803 0.047 Uiso 1 1 calc R . .
H21B H -0.0039 0.1937 -0.0221 0.047 Uiso 1 1 calc R . .
C22 C 0.3163(5) 0.0900(5) 0.0403(5) 0.0401(16) Uani 1 1 d . . .
H22A H 0.2812 0.1326 0.0832 0.048 Uiso 1 1 calc R . .
H22B H 0.3209 0.1179 -0.0035 0.048 Uiso 1 1 calc R . .
C23 C 0.1466(6) -0.2717(5) -0.1272(5) 0.0516(19) Uani 1 1 d . . .
H23A H 0.0909 -0.2854 -0.1059 0.077 Uiso 1 1 calc R . .
H23B H 0.1947 -0.3165 -0.1227 0.077 Uiso 1 1 calc R . .
H23C H 0.1270 -0.2791 -0.1881 0.077 Uiso 1 1 calc R . .
C24 C -0.1386(6) -0.3872(7) -0.4223(5) 0.064(2) Uani 1 1 d . . .
H24A H -0.1696 -0.4491 -0.4664 0.077 Uiso 1 1 calc R . .
H24B H -0.1739 -0.3681 -0.3740 0.077 Uiso 1 1 calc R . .
C25 C -0.1916(9) -0.1302(9) -0.5808(6) 0.101(4) Uani 1 1 d . . .
H25A H -0.2486 -0.0954 -0.5699 0.151 Uiso 1 1 calc R . .
H25B H -0.1977 -0.1661 -0.6434 0.151 Uiso 1 1 calc R . .
H25C H -0.1348 -0.0846 -0.5592 0.151 Uiso 1 1 calc R . .
C26 C -0.0268(6) 0.2302(8) -0.4290(6) 0.071(3) Uani 1 1 d . . .
H26A H -0.0252 0.1606 -0.4423 0.085 Uiso 1 1 calc R . .
H26B H 0.0095 0.2459 -0.4674 0.085 Uiso 1 1 calc R . .
C27 C 0.2132(8) 0.3740(8) -0.1112(7) 0.091(4) Uani 1 1 d . . .
H27A H 0.1849 0.4109 -0.0614 0.137 Uiso 1 1 calc R . .
H27B H 0.2650 0.4138 -0.1157 0.137 Uiso 1 1 calc R . .
H27C H 0.2386 0.3171 -0.1033 0.137 Uiso 1 1 calc R . .
C28 C 0.4154(5) 0.0803(5) 0.0854(4) 0.0375(15) Uani 1 1 d . . .
C29 C 0.4293(5) 0.0208(5) 0.1328(4) 0.0391(16) Uani 1 1 d . . .
H29 H 0.3758 -0.0138 0.1370 0.047 Uiso 1 1 calc R . .
C30 C 0.5199(5) 0.0116(5) 0.1734(5) 0.0418(16) Uani 1 1 d . . .
H30 H 0.5279 -0.0292 0.2050 0.050 Uiso 1 1 calc R . .
C31 C 0.6001(5) 0.0622(5) 0.1684(5) 0.0393(16) Uani 1 1 d . . .
C32 C 0.5858(5) 0.1207(5) 0.1197(5) 0.0449(18) Uani 1 1 d . . .
H32 H 0.6392 0.1548 0.1146 0.054 Uiso 1 1 calc R . .
C33 C 0.4952(5) 0.1290(5) 0.0794(5) 0.0449(18) Uani 1 1 d . . .
H33 H 0.4871 0.1689 0.0469 0.054 Uiso 1 1 calc R . .
C34 C 0.6987(5) 0.0538(5) 0.2110(5) 0.0415(16) Uani 1 1 d . . .
C35 C 0.7303(5) -0.0333(5) 0.2115(5) 0.0433(17) Uani 1 1 d . . .
H35 H 0.6871 -0.0893 0.1879 0.052 Uiso 1 1 calc R . .
C36 C 0.8253(6) -0.0378(6) 0.2466(5) 0.0495(19) Uani 1 1 d . . .
H36 H 0.8475 -0.0969 0.2468 0.059 Uiso 1 1 calc R . .
C37 C 0.8871(5) 0.0441(6) 0.2812(5) 0.0491(19) Uani 1 1 d . . .
H37 H 0.9527 0.0431 0.3046 0.059 Uiso 1 1 calc R . .
C38 C 0.8489(5) 0.1273(6) 0.2801(5) 0.0502(19) Uani 1 1 d . . .
H38 H 0.8908 0.1841 0.3038 0.060 Uiso 1 1 calc R . .
C39 C -0.0372(6) -0.4010(6) -0.3881(5) 0.056(2) Uani 1 1 d . . .
C40 C -0.0192(7) -0.4452(6) -0.3291(5) 0.059(2) Uani 1 1 d . . .
H40 H -0.0698 -0.4567 -0.3036 0.071 Uiso 1 1 calc R . .
C41 C 0.0710(7) -0.4734(5) -0.3059(5) 0.054(2) Uani 1 1 d . . .
H41 H 0.0805 -0.5068 -0.2676 0.065 Uiso 1 1 calc R . .
C42 C 0.1473(6) -0.4526(5) -0.3391(5) 0.0481(18) Uani 1 1 d . . .
C43 C 0.1296(6) -0.4043(5) -0.3962(5) 0.053(2) Uani 1 1 d . . .
H43 H 0.1811 -0.3882 -0.4182 0.064 Uiso 1 1 calc R . .
C44 C 0.0399(6) -0.3798(6) -0.4212(5) 0.054(2) Uani 1 1 d . . .
H44 H 0.0298 -0.3483 -0.4609 0.065 Uiso 1 1 calc R . .
C45 C 0.2427(6) -0.4849(5) -0.3175(5) 0.052(2) Uani 1 1 d . . .
C46 C 0.2508(8) -0.5760(6) -0.3153(5) 0.062(2) Uani 1 1 d . . .
H46 H 0.1953 -0.6175 -0.3269 0.075 Uiso 1 1 calc R . .
C47 C 0.3406(9) -0.6051(7) -0.2961(6) 0.078(3) Uani 1 1 d . . .
H47 H 0.3470 -0.6675 -0.2957 0.094 Uiso 1 1 calc R . .
C48 C 0.4220(8) -0.5437(7) -0.2773(6) 0.076(3) Uani 1 1 d . . .
H48 H 0.4841 -0.5629 -0.2634 0.091 Uiso 1 1 calc R . .
C49 C 0.4088(7) -0.4519(6) -0.2795(6) 0.066(2) Uani 1 1 d . . .
H49 H 0.4632 -0.4089 -0.2674 0.079 Uiso 1 1 calc R . .
C50 C -0.1291(6) 0.2516(6) -0.4502(5) 0.051(2) Uani 1 1 d . . .
C51 C -0.1627(8) 0.3372(6) -0.4067(5) 0.067(3) Uani 1 1 d . . .
H51 H -0.1225 0.3837 -0.3574 0.080 Uiso 1 1 calc R . .
C52 C -0.2543(9) 0.3563(6) -0.4338(6) 0.074(3) Uani 1 1 d . . .
H52 H -0.2764 0.4158 -0.4019 0.089 Uiso 1 1 calc R . .
C53 C -0.3157(6) 0.2914(6) -0.5066(5) 0.054(2) Uani 1 1 d . C .
C54 C -0.2824(6) 0.2031(6) -0.5482(5) 0.057(2) Uani 1 1 d . . .
H54 H -0.3226 0.1555 -0.5968 0.069 Uiso 1 1 calc R . .
C55 C -0.1910(6) 0.1847(6) -0.5187(5) 0.055(2) Uani 1 1 d . . .
H55 H -0.1699 0.1234 -0.5470 0.067 Uiso 1 1 calc R . .
C56 C -0.4116(8) 0.3095(10) -0.5412(7) 0.095(4) Uani 1 1 d . . .
C60 C -0.5318(7) 0.2796(12) -0.6646(9) 0.123(6) Uani 1 1 d . . .
H60 H -0.5389 0.2900 -0.7173 0.147 Uiso 1 1 calc R B 1
C62 C -0.4230(12) -0.1745(12) -0.5151(11) 0.155(6) Uiso 1 1 d . . .
H62A H -0.3895 -0.2140 -0.4863 0.233 Uiso 1 1 calc R . .
H62B H -0.3986 -0.1827 -0.5678 0.233 Uiso 1 1 calc R . .
H62C H -0.4917 -0.1941 -0.5308 0.233 Uiso 1 1 calc R . .
C63 C -0.4219(10) -0.0421(10) -0.3672(9) 0.112(4) Uiso 1 1 d . . .
H63A H -0.4878 -0.0620 -0.3684 0.168 Uiso 1 1 calc R . .
H63B H -0.4108 0.0278 -0.3381 0.168 Uiso 1 1 calc R . .
H63C H -0.3775 -0.0723 -0.3355 0.168 Uiso 1 1 calc R . .
C64 C -0.3181(12) 0.2219(12) -0.1387(12) 0.059(4) Uiso 0.50 1 d P A 1
H64 H -0.2987 0.2196 -0.0827 0.071 Uiso 0.50 1 calc PR A 1
C65 C -0.3050(15) 0.2891(15) -0.2461(13) 0.079(6) Uiso 0.50 1 d P A 1
H65A H -0.3646 0.2479 -0.2748 0.118 Uiso 0.50 1 calc PR A 1
H65B H -0.2570 0.2680 -0.2825 0.118 Uiso 0.50 1 calc PR A 1
H65C H -0.3170 0.3556 -0.2376 0.118 Uiso 0.50 1 calc PR A 1
C66 C -0.1937(13) 0.3421(13) -0.1095(12) 0.063(4) Uiso 0.50 1 d P A 1
H66A H -0.2136 0.3863 -0.0573 0.094 Uiso 0.50 1 calc PR A 1
H66B H -0.1672 0.3787 -0.1387 0.094 Uiso 0.50 1 calc PR A 1
H66C H -0.1449 0.3034 -0.0930 0.094 Uiso 0.50 1 calc PR A 1
C67 C -0.4107(13) 0.3648(13) 0.0499(12) 0.144(6) Uiso 1 1 d . . .
C68 C -0.4640(16) 0.4042(16) -0.0929(15) 0.193(8) Uiso 1 1 d . . .
C69 C -0.565(2) 0.299(2) -0.0574(18) 0.220(10) Uiso 1 1 d D . .
C57A C -0.505(2) 0.3076(16) -0.5080(14) 0.060(7) Uani 0.35 1 d P C 1
H57A H -0.4983 0.3096 -0.4504 0.071 Uiso 0.35 1 calc PR C 1
C58A C -0.5927(17) 0.304(2) -0.5491(16) 0.062(7) Uani 0.35 1 d P C 1
H58A H -0.6427 0.3206 -0.5174 0.074 Uiso 0.35 1 calc PR C 1
C59A C -0.6133(18) 0.2749(19) -0.6379(18) 0.057(6) Uani 0.35 1 d P C 1
H59A H -0.6749 0.2550 -0.6740 0.068 Uiso 0.35 1 calc PR C 1
C57B C -0.4609(10) 0.3853(15) -0.4774(10) 0.081(5) Uani 0.65 1 d P C 2
H57B H -0.4309 0.4177 -0.4181 0.097 Uiso 0.65 1 calc PR C 2
O70 O -0.4251(8) -0.1696(8) -0.7247(7) 0.150(4) Uiso 1 1 d . . .
C58B C -0.5501(11) 0.4044(16) -0.5094(12) 0.095(6) Uani 0.65 1 d P C 2
H58B H -0.5864 0.4479 -0.4728 0.114 Uiso 0.65 1 calc PR C 2
C59B C -0.5865(12) 0.3560(18) -0.6003(13) 0.099(6) Uani 0.65 1 d P C 2
H59B H -0.6473 0.3706 -0.6238 0.118 Uiso 0.65 1 calc PR C 2
O9B O -0.576(2) 0.258(2) -0.1410(18) 0.188(10) Uiso 0.50 1 d PD . .
C57 C 0.0008(12) 0.4824(12) 0.0664(11) 0.133(5) Uiso 1 1 d . . 2
O58 O -0.1742(12) 0.3441(13) -0.0376(11) 0.104(5) Uiso 0.50 1 d P D 2
N59 N -0.0574(13) 0.4537(13) -0.0276(12) 0.088(5) Uiso 0.50 1 d P . 2
C61 C -0.3858(12) 0.0175(13) -0.4771(12) 0.142(6) Uiso 1 1 d . . .
H61 H -0.3800 0.0828 -0.4387 0.171 Uiso 1 1 calc R . .
C70 C -0.137(2) 0.387(2) -0.0754(18) 0.104(8) Uiso 0.50 1 d P D 2

loop_
_atom_site_aniso_label
_atom_site_aniso_U_11
_atom_site_aniso_U_22
_atom_site_aniso_U_33
_atom_site_aniso_U_23
_atom_site_aniso_U_13
_atom_site_aniso_U_12
Sb1 0.0729(4) 0.0573(4) 0.0521(3) 0.0301(3) 0.0277(3) 0.0259(3)
Ag1 0.0545(4) 0.0464(4) 0.0732(5) 0.0343(3) 0.0186(3) 0.0072(3)
F1 0.137(6) 0.099(5) 0.091(5) 0.038(4) -0.032(4) 0.012(4)
O1 0.027(2) 0.037(3) 0.063(3) 0.021(2) 0.010(2) 0.0044(19)
N1 0.033(3) 0.057(4) 0.063(4) 0.036(3) 0.020(3) 0.007(3)
C1 0.032(3) 0.048(4) 0.036(4) 0.028(3) 0.015(3) 0.007(3)
F2 0.113(5) 0.128(6) 0.178(8) 0.048(5) 0.092(5) 0.051(5)
O2 0.037(3) 0.033(2) 0.067(3) 0.021(2) 0.012(2) 0.006(2)
