
#######################################################################
#
#                 Cambridge Crystallographic Data Centre
#                                CCDC
#
#######################################################################
#
# If this CIF has been generated from an entry in the Cambridge
# Structural Database, then it will include bibliographic, chemical,
# crystal, experimental, refinement or atomic coordinate data resulting
# from the CCDC's data processing and validation procedures.
#
#######################################################################

data_CSD_CIF_WOMHEM
_audit_creation_date 2009-04-29
_audit_creation_method CSD-ConQuest-V1
_database_code_CSD WOMHEM
_database_code_depnum_ccdc_archive 'CCDC 687160'
_chemical_formula_sum 'C18 H26 N8 O8 S1'
_chemical_formula_moiety
;
C8 H11 N3 O3 S1,C10 H13 N5 O4,H2 O1
;
_journal_coden_Cambridge 1350
_journal_volume 10
_journal_year 2008
_journal_page_first 1747
_journal_name_full 'CrystEngComm '
loop_
_publ_author_name
"P.M.Bhatt"
"G.Desiraju"
_chemical_name_systematic
;
4-Amino-1-(2-(hydroxymethyl)-1,3-oxathiolan-5-yl)-2(1H)-pyrimidinone 
1-((2R,4S,5S)-4-azido-5-(hydroxymethyl)tetrahydro-2-furanyl)-5-methyl-2,4(1H,3
H)-pyrimidinedione monohydrate
;
_chemical_name_common
;
Lamivudine (2R,4S,5S)-zidovudine monohydrate; Teaching Subset: Fundamental 
Chemistry, Drug Molecules
;
_chemical_melting_point 373
_cell_volume   1164.686
_exptl_crystal_colour 'colorless'
_exptl_crystal_density_diffrn 1.467
_exptl_special_details
;
Absolute configuration
lamivudine and zidovudine are anti-HIV drugs

;
_exptl_crystal_description 'block'
_diffrn_ambient_temperature 298
#These two values have been output from a single CSD field.
_refine_ls_R_factor_gt 0.0374
_refine_ls_wR_factor_gt 0.0374
_symmetry_cell_setting monoclinic
_symmetry_space_group_name_H-M 'P 21'
_symmetry_Int_Tables_number 4
loop_
_symmetry_equiv_pos_site_id
_symmetry_equiv_pos_as_xyz
1 x,y,z
2 -x,1/2+y,-z
_cell_length_a 8.6899(10)
_cell_length_b 7.2501(9)
_cell_length_c 18.504(2)
_cell_angle_alpha 90
_cell_angle_beta 92.506(2)
_cell_angle_gamma 90
_cell_formula_units_Z 2
loop_
_atom_type_symbol
_atom_type_radius_bond
C 0.68
H 0.23
N 0.68
O 0.68
S 1.02
loop_
_atom_site_label
_atom_site_type_symbol
_atom_site_fract_x
_atom_site_fract_y
_atom_site_fract_z
S1 S 0.70005(6) 0.59785(9) 0.45289(3)
O1 O 0.25525(17) 0.3468(3) 0.34142(9)
C1 C 0.3605(2) 0.3707(3) 0.29945(11)
N1 N 0.33507(19) 0.4040(3) 0.22815(10)
O2 O 0.68386(16) 0.2481(2) 0.41854(7)
O3 O 0.96311(18) 0.4337(3) 0.36954(9)
N2 N 0.51126(18) 0.3583(2) 0.32744(8)
C2 C 0.5345(2) 0.3185(3) 0.40588(10)
C3 C 0.6319(2) 0.3815(3) 0.28356(10)
H1 H 0.73220 0.37360 0.30300
C4 C 0.4534(2) 0.4264(3) 0.18542(11)
N3 N 0.4252(3) 0.4592(4) 0.11591(11)
C5 C 0.6079(2) 0.4154(3) 0.21351(11)
H2 H 0.69010 0.43140 0.18360
C6 C 0.5135(2) 0.4887(4) 0.45148(12)
H3 H 0.48510 0.45600 0.50000
H4 H 0.43500 0.56890 0.42980
C7 C 0.9469(3) 0.3554(4) 0.43921(12)
H5 H 1.01410 0.41940 0.47410
H6 H 0.97780 0.22690 0.43850
C8 C 0.7833(2) 0.3689(4) 0.46181(11)
H7 H 0.461(2) 0.224(3) 0.4180(11)
H8 H 0.781(3) 0.319(3) 0.5141(13)
H9 H 0.502(4) 0.473(4) 0.0905(14)
H10 H 0.335(4) 0.474(4) 0.1006(15)
H11 H 1.049(4) 0.405(5) 0.3591(17)
N4 N 0.97612(19) 1.0053(3) 0.09772(8)
O4 O 0.92366(16) 1.0969(2) 0.21593(7)
N5 N 1.0365(2) 0.9829(3) -0.02242(9)
O5 O 1.2790(2) 0.9610(4) -0.05779(9)
O6 O 0.78702(18) 0.9924(4) 0.00890(8)
C9 C 0.8580(2) 1.0110(3) 0.15288(10)
N6 N 0.6135(2) 0.9335(4) 0.25719(12)
O7 O 1.0205(3) 0.8258(3) 0.3783(1)
N7 N 0.5350(2) 0.8894(3) 0.30447(13)
C10 C 1.1923(3) 0.9736(4) -0.00801(11)
C11 C 1.1306(2) 0.9961(4) 0.11594(11)
H12 H 1.16060 1.00040 0.16480
C12 C 0.9229(3) 0.9945(4) 0.02674(11)
C13 C 1.2412(2) 0.9813(4) 0.06787(11)
C14 C 0.8051(3) 0.8217(3) 0.17587(11)
H13 H 0.88540 0.73040 0.17070
H14 H 0.71360 0.78340 0.14790
C15 C 0.7710(2) 0.8506(3) 0.25465(11)
C16 C 1.4099(3) 0.9715(6) 0.08698(14)
H15 H 1.42600 0.97350 0.13860
H16 H 1.46080 1.07520 0.06640
H17 H 1.45130 0.85940 0.06820
C17 C 1.0409(3) 0.9004(4) 0.30910(12)
H18 H 1.07170 0.80340 0.27660
H19 H 1.12220 0.99210 0.31200
C18 C 0.8935(3) 0.9884(3) 0.27955(10)
N8 N 0.4524(4) 0.8672(6) 0.3490(2)
H20 H 0.776(2) 1.088(3) 0.1302(11)
H21 H 0.777(2) 0.746(4) 0.2814(12)
H22 H 0.860(2) 1.067(3) 0.3121(11)
H23 H 1.006(3) 0.980(4) -0.0675(14)
H24 H 0.984(6) 0.711(9) 0.380(3)
O8 O 0.0384(2) 0.4534(3) 0.17309(9)
H25 H 0.124(4) 0.432(4) 0.1914(14)
H26 H 0.005(4) 0.389(5) 0.1986(18)
#END
