####################################################################### 
# 
# This file contains crystal structure data downloaded from the 
# Cambridge Structural Database (CSD) hosted by the Cambridge 
# Crystallographic Data Centre (CCDC).
# 
# Full information about CCDC data access policies and citation 
# guidelines are available at http://www.ccdc.cam.ac.uk/access/V1 
# 
# Audit and citation data items may have been added by the CCDC. 
# Please retain this information to preserve the provenance of 
# this file and to allow appropriate attribution of the data. 
# 
#######################################################################

data_CPO-27-Fe_298K
_audit_block_doi                 10.5517/cc135j60
_database_code_depnum_ccdc_archive 'CCDC 1018201'
loop_
_citation_id
_citation_doi
_citation_year
1 10.1016/j.micromeso.2011.12.035 2012
_audit_update_record             
;
2014-08-06 deposited with the CCDC.	2024-07-13 downloaded from the CCDC.
;

_diffrn_ambient_temperature      298

_pd_meas_scan_method             step
_pd_meas_number_of_points        2298
_pd_meas_2theta_range_min        0.007
_pd_meas_2theta_range_max        30.267
_pd_meas_2theta_range_inc        0.013
_pd_proc_ls_profile_function     pseudo-Voigt
_pd_proc_ls_background_function  Chebyshev

_pd_proc_2theta_range_min        2.260
_pd_proc_2theta_range_max        29.991
_pd_proc_2theta_range_inc        0.013

_pd_proc_ls_prof_R_factor        0.0208
_pd_proc_ls_prof_wR_factor       0.0301
_pd_proc_ls_prof_wR_expected     0.0362

_refine_special_details          
;
 ? 
;

_refine_ls_structure_factor_coef Inet
_refine_ls_matrix_type           full
_refine_ls_weighting_scheme      sigma
_refine_ls_hydrogen_treatment    noref
_refine_ls_extinction_method     none
_refine_ls_extinction_coef       ?
_refine_ls_number_parameters     90
_refine_ls_number_restraints     47
_refine_ls_number_constraints    0
_refine_ls_goodness_of_fit_all   0.69
_refine_ls_shift/su_max          6.6950
_refine_ls_shift/su_mean         1.2290

_chemical_name_systematic        
'Diiron-2,5-dioxido-1,4-benzenedicarboxylate methanolate'

_chemical_name_common            'CPO-27-Fe, Fe-MOF-74, Fe2(dobdc), Fe2(dhtp)'
_chemical_melting_point          ?
_chemical_formula_moiety         'C4 H1 O3 Fe1, 2 (C1 H4 O1)'
_chemical_formula_sum            'C6 H9 O5 Fe1'
_chemical_formula_weight         3905.64


_symmetry_cell_setting           Hexagonal
_symmetry_space_group_name_H-M   R-3
_symmetry_int_tables_number      ?
_symmetry_space_group_name_Hall  ?

loop_
_symmetry_equiv_pos_as_xyz
x,y,z
x+1/3,y+2/3,z+2/3
x+2/3,y+1/3,z+1/3
-y,x-y,z
-x+y,-x,z
-y+1/3,x-y+2/3,z+2/3
-x+y+1/3,-x+2/3,z+2/3
-y+2/3,x-y+1/3,z+1/3
-x+y+2/3,-x+1/3,z+1/3
-x,-y,-z
-x+2/3,-y+1/3,-z+1/3
-x+1/3,-y+2/3,-z+2/3
y,-x+y,-z
x-y,x,-z
y+2/3,-x+y+1/3,-z+1/3
x-y+2/3,x+1/3,-z+1/3
y+1/3,-x+y+2/3,-z+2/3
x-y+1/3,x+2/3,-z+2/3

_cell_length_a                   26.2736(8)
_cell_length_b                   26.2736(8)
_cell_length_c                   6.7213(2)
_cell_angle_alpha                90.00000
_cell_angle_beta                 90.00000
_cell_angle_gamma                120.00000
_cell_volume                     4018.1(4)
_cell_formula_units_Z            18
_cell_measurement_temperature    298.00
_exptl_crystal_density_meas      ?
_exptl_crystal_density_diffrn    1.614
_exptl_crystal_density_method    ?
_exptl_crystal_F_000             1998.0
_exptl_absorpt_coefficient_mu    1.52
_exptl_absorpt_correction_type   cylinder
_exptl_absorpt_correction_T_min  0.657
_exptl_absorpt_correction_T_max  0.657


loop_
_atom_site_label
_atom_site_fract_x
_atom_site_fract_y
_atom_site_fract_z
_atom_site_occupancy
_atom_site_U_iso_or_equiv
_atom_site_adp_type
_atom_site_type_symbol
C1 .4218(2) .4083(2) .2533(7) 1.0000 .024(4) Uiso C
C2 .46110(18) .45280(19) .1233(5) 1.0000 .024(4) Uiso C
C3 .5573(2) .5422(3) .0698(6) 1.0000 .024(4) Uiso C
C4 .5183(2) .4968(3) .1958(6) 1.0000 .024(4) Uiso C
H4 .5291(7) .4955(9) .3329(16) 1.0000 .024(4) Uiso H
Fe1 .61356(12) .64838(11) .3442(4) 1.0000 .0130(9) Uiso Fe
O1 .4391(3) .4046(3) .4259(7) 1.0000 .011(2) Uiso O
O2 .37463(19) .3660(2) .1858(10) 1.0000 .011(2) Uiso O
O3 .61027(16) .5867(3) .1447(9) 1.0000 .011(2) Uiso O
O5 .1238(5) .6755(5) .136(2) 1.0000 .0740(18) Uiso O
HO5 .1034(11) .6973(12) .141(19) 1.0000 .0740(18) Uiso H
C5 .7184(6) .5368(7) -.111(2) 1.0000 .0740(18) Uiso C
H1C5 .708(3) .501(3) -.204(9) 1.0000 .0740(18) Uiso H
H2C5 .7588(4) .5732(13) -.152(14) 1.0000 .0740(18) Uiso H
H3C5 .719(3) .526(4) .039(6) 1.0000 .0740(18) Uiso H
O6 .8896(5) .3677(7) .5035(18) 1.0000 .095(4) Uiso O
HO6 .9236(10) .388(6) .419(5) 1.0000 .095(4) Uiso H
C6 .8439(5) .3592(8) .3816(18) 1.0000 .095(4) Uiso C
H1C6 .854(2) .401(2) .323(12) 1.0000 .095(4) Uiso H
H2C6 .841(3) .330(3) .266(11) 1.0000 .095(4) Uiso H
H3C6 .8052(17) .341(5) .470(3) 1.0000 .095(4) Uiso H
_chemical_properties_physical    Oxygen-sensitive
