####################################################################### 
# 
# This file contains crystal structure data downloaded from the 
# Cambridge Structural Database (CSD) hosted by the Cambridge 
# Crystallographic Data Centre (CCDC).
# 
# Full information about CCDC data access policies and citation 
# guidelines are available at http://www.ccdc.cam.ac.uk/access/V1 
# 
# Audit and citation data items may have been added by the CCDC. 
# Please retain this information to preserve the provenance of 
# this file and to allow appropriate attribution of the data. 
# 
#######################################################################

data_CPO-27-Fe_483K
_audit_block_doi                 10.5517/cc135j71
_database_code_depnum_ccdc_archive 'CCDC 1018202'
loop_
_citation_id
_citation_doi
_citation_year
1 10.1016/j.micromeso.2011.12.035 2012
_audit_update_record             
;
2014-08-06 deposited with the CCDC.	2024-07-13 downloaded from the CCDC.
;

_diffrn_ambient_temperature      483

_pd_meas_scan_method             step
_pd_meas_number_of_points        2298
_pd_meas_2theta_range_min        0.007
_pd_meas_2theta_range_max        30.267
_pd_meas_2theta_range_inc        0.013
_pd_proc_ls_profile_function     pseudo-Voigt
_pd_proc_ls_background_function  Chebyshev

_pd_proc_2theta_range_min        2.255
_pd_proc_2theta_range_max        29.986
_pd_proc_2theta_range_inc        0.013

_pd_proc_ls_prof_R_factor        0.0249
_pd_proc_ls_prof_wR_factor       0.0326
_pd_proc_ls_prof_wR_expected     0.0374

_refine_ls_structure_factor_coef Inet
_refine_ls_matrix_type           full
_refine_ls_weighting_scheme      sigma
_refine_ls_hydrogen_treatment    noref
_refine_ls_extinction_method     none
_refine_ls_extinction_coef       ?
_refine_ls_number_parameters     52
_refine_ls_number_restraints     23
_refine_ls_number_constraints    0
_refine_ls_goodness_of_fit_all   0.76
_refine_ls_shift/su_max          18.4650
_refine_ls_shift/su_mean         2.0910

_chemical_name_systematic        Diiron-2,5-dioxido-1,4-benzenedicarboxylate

_chemical_name_common            'CPO-27-Fe, Fe-MOF-74, Fe2(dobdc), Fe2(dhtp)'
_chemical_melting_point          ?
_chemical_formula_moiety         'C4 H1 O3 Fe1'
_chemical_formula_sum            'C4 H1 O3 Fe1'
_chemical_formula_weight         2752.15


_symmetry_cell_setting           Hexagonal
_symmetry_space_group_name_H-M   R-3
_symmetry_int_tables_number      ?
_symmetry_space_group_name_Hall  ?

loop_
_symmetry_equiv_pos_as_xyz
x,y,z
x+1/3,y+2/3,z+2/3
x+2/3,y+1/3,z+1/3
-y,x-y,z
-x+y,-x,z
-y+1/3,x-y+2/3,z+2/3
-x+y+1/3,-x+2/3,z+2/3
-y+2/3,x-y+1/3,z+1/3
-x+y+2/3,-x+1/3,z+1/3
-x,-y,-z
-x+2/3,-y+1/3,-z+1/3
-x+1/3,-y+2/3,-z+2/3
y,-x+y,-z
x-y,x,-z
y+2/3,-x+y+1/3,-z+1/3
x-y+2/3,x+1/3,-z+1/3
y+1/3,-x+y+2/3,-z+2/3
x-y+1/3,x+2/3,-z+2/3

_cell_length_a                   26.067(2)
_cell_length_b                   26.067(2)
_cell_length_c                   6.8721(7)
_cell_angle_alpha                90.00000
_cell_angle_beta                 90.00000
_cell_angle_gamma                120.00000
_cell_volume                     4044(1)
_cell_formula_units_Z            18
_cell_measurement_temperature    483.00
_exptl_crystal_density_meas      ?
_exptl_crystal_density_diffrn    1.130
_exptl_crystal_density_method    ?
_exptl_crystal_F_000             1350.0
_exptl_absorpt_coefficient_mu    1.48
_exptl_absorpt_correction_type   cylinder
_exptl_absorpt_correction_T_min  0.657
_exptl_absorpt_correction_T_max  0.657


loop_
_atom_site_label
_atom_site_fract_x
_atom_site_fract_y
_atom_site_fract_z
_atom_site_occupancy
_atom_site_U_iso_or_equiv
_atom_site_adp_type
_atom_site_type_symbol
C1 .4238(4) .4098(3) .2586(9) 1.00 .084(8) Uiso C
C2 .4601(2) .4567(3) .1318(5) 1.00 .084(8) Uiso C
C3 .55708(17) .5450(2) .0647(6) 1.00 .084(8) Uiso C
C4 .5186(4) .5013(4) .1949(6) 1.00 .084(8) Uiso C
Fe1 .6156(2) .6441(2) .3606(7) 1.00 .0557(19) Uiso Fe
O1 .4445(5) .4050(5) .4199(14) 1.00 .075(6) Uiso O
O2 .3754(4) .3674(4) .1970(16) 1.00 .075(6) Uiso O
O3 .6133(2) .5877(5) .1246(13) 1.00 .075(6) Uiso O


_chemical_properties_physical    Oxygen-sensitive
