####################################################################### 
# 
# This file contains crystal structure data downloaded from the 
# Cambridge Structural Database (CSD) hosted by the Cambridge 
# Crystallographic Data Centre (CCDC).
# 
# Full information about CCDC data access policies and citation 
# guidelines are available at http://www.ccdc.cam.ac.uk/access/V1 
# 
# Audit and citation data items may have been added by the CCDC. 
# Please retain this information to preserve the provenance of 
# this file and to allow appropriate attribution of the data. 
# 
#######################################################################

data_p7_114tr
_audit_block_doi                 10.5517/cc1143mx
_database_code_depnum_ccdc_archive 'CCDC 957268'
loop_
_citation_id
_citation_doi
_citation_year
1 10.5012/bkcs.2014.35.3.949 2014
_audit_update_record             
;
2013-08-24 deposited with the CCDC.	2024-07-13 downloaded from the CCDC.
;

_audit_creation_date             2008-04-14T02:53:09-00:00
_audit_creation_method           'WinGX routine CIF_UPDATE'
_audit_conform_dict_name         cif_core.dic
_audit_conform_dict_version      2.3
_audit_conform_dict_location     ftp://ftp.iucr.org/pub/cif_core.dic

#----------------------------------------------------------------------------#
#                   CHEMICAL INFORMATION                                     #
#----------------------------------------------------------------------------#

_chemical_name_systematic        
;
 ?
;
_chemical_formula_moiety         'C156 H108 N4 O60 Zn16'
_chemical_formula_sum            'C156 H108 N4 O60 Zn16'
_chemical_formula_weight         4044.38

#----------------------------------------------------------------------------#
#                   UNIT CELL INFORMATION                                    #
#----------------------------------------------------------------------------#

_symmetry_cell_setting           Triclini
_symmetry_space_group_name_H-M   P-1
loop_
_symmetry_equiv_pos_as_xyz
'x, y, z'
'-x, -y, -z'

_cell_length_a                   19.118(4)
_cell_length_b                   23.024(5)
_cell_length_c                   30.075(6)
_cell_angle_alpha                90.07(3)
_cell_angle_beta                 97.36(3)
_cell_angle_gamma                90.09(3)
_cell_volume                     13129(5)
_cell_formula_units_Z            2
_cell_measurement_temperature    100(2)
_cell_measurement_reflns_used    43355
_cell_measurement_theta_min      1.21
_cell_measurement_theta_max      27.5

#----------------------------------------------------------------------------#
#                   CRYSTAL INFORMATION                                      #
#----------------------------------------------------------------------------#

_exptl_crystal_description       block
_exptl_crystal_colour            colorless
_exptl_crystal_size_max          0.25
_exptl_crystal_size_mid          0.23
_exptl_crystal_size_min          0.16
_exptl_crystal_density_diffrn    1.023
_exptl_crystal_density_method    'not measured'
_exptl_crystal_F_000             4064
_exptl_special_details           
;
 ?
;

#----------------------------------------------------------------------------#
#                   ABSORPTION CORRECTION                                    #
#----------------------------------------------------------------------------#

_exptl_absorpt_coefficient_mu    1.488
_exptl_absorpt_correction_type   Empirical
_exptl_absorpt_process_details   HKL2000-Scalepack

#----------------------------------------------------------------------------#
#                   DATA COLLECTION                                          #
#----------------------------------------------------------------------------#

_diffrn_ambient_temperature      100(2)
_diffrn_radiation_wavelength     0.77
_diffrn_radiation_type           synchrotron
_diffrn_radiation_monochromator  'Pt coated Si double crystal'
_diffrn_measurement_device_type  'CCD area detector'
_diffrn_measurement_method       'phi scans'
_diffrn_reflns_av_R_equivalents  0.0886
_diffrn_reflns_av_unetI/netI     0.0895
_diffrn_reflns_number            82478
_diffrn_reflns_limit_h_min       -22
_diffrn_reflns_limit_h_max       22
_diffrn_reflns_limit_k_min       -25
_diffrn_reflns_limit_k_max       25
_diffrn_reflns_limit_l_min       -36
_diffrn_reflns_limit_l_max       36
_diffrn_reflns_theta_min         1.21
_diffrn_reflns_theta_max         27.5
_diffrn_reflns_theta_full        27.5
_diffrn_measured_fraction_theta_full 0.914
_diffrn_measured_fraction_theta_max 0.914
_reflns_number_total             43355
_reflns_number_gt                32820
_reflns_threshold_expression     >2sigma(I)

#----------------------------------------------------------------------------#
#                   COMPUTER PROGRAMS USED                                   #
#----------------------------------------------------------------------------#

_computing_data_collection       'PAL ADSC Quantum-210'
_computing_cell_refinement       HKL2000
_computing_data_reduction        HKL2000
_computing_structure_solution    'Bruker SHELXTL'
_computing_structure_refinement  'Bruker SHELXTL'
_computing_molecular_graphics    ORTEP3
_computing_publication_material  WinGX

#----------------------------------------------------------------------------#
#                   REFINEMENT INFORMATION                                   #
#----------------------------------------------------------------------------#

_refine_special_details          
;
 Refinement of F^2^ against ALL reflections.  The weighted R-factor wR and
 goodness of fit S are based on F^2^, conventional R-factors R are based
 on F, with F set to zero for negative F^2^. The threshold expression of
 F^2^ > 2sigma(F^2^) is used only for calculating R-factors(gt) etc. and is
 not relevant to the choice of reflections for refinement.  R-factors based
 on F^2^ are statistically about twice as large as those based on F, and R-
 factors based on ALL data will be even larger.
;
_refine_ls_structure_factor_coef Fsqd
_refine_ls_matrix_type           full
_refine_ls_weighting_scheme      calc
_refine_ls_weighting_details     
'calc w=1/[\s^2^(Fo^2^)+(0.1485P)^2^+12.4245P] where P=(Fo^2^+2Fc^2^)/3'
_atom_sites_solution_primary     direct
_atom_sites_solution_secondary   difmap
_atom_sites_solution_hydrogens   geom
_refine_ls_hydrogen_treatment    constr
_refine_ls_extinction_method     SHELXL
_refine_ls_extinction_expression Fc^*^=kFc[1+0.001xFc^2^\l^3^/sin(2\q)]^-1/4^
_refine_ls_extinction_coef       0.0042(2)
_refine_ls_number_reflns         43355
_refine_ls_number_parameters     2090
_refine_ls_number_restraints     0
_refine_ls_R_factor_all          0.1047
_refine_ls_R_factor_gt           0.093
_refine_ls_wR_factor_ref         0.2755
_refine_ls_wR_factor_gt          0.2666
_refine_ls_goodness_of_fit_ref   1.131
_refine_ls_restrained_S_all      1.131
_refine_ls_shift/su_max          0.001
_refine_ls_shift/su_mean         0
_refine_diff_density_max         0.952
_refine_diff_density_min         -1.224
_refine_diff_density_rms         0.104

#----------------------------------------------------------------------------#
#                   ATOMIC TYPES, COORDINATES AND THERMAL PARAMETERS         #
#----------------------------------------------------------------------------#

loop_
_atom_type_symbol
_atom_type_description
_atom_type_scat_dispersion_real
_atom_type_scat_dispersion_imag
_atom_type_scat_source
C C 0.0033 0.0016 'International Tables Vol C Tables 4.2.6.8 and 6.1.1.4'
H H 0 0 'International Tables Vol C Tables 4.2.6.8 and 6.1.1.4'
N N 0.0061 0.0033 'International Tables Vol C Tables 4.2.6.8 and 6.1.1.4'
O O 0.0106 0.006 'International Tables Vol C Tables 4.2.6.8 and 6.1.1.4'
Zn Zn 0.2839 1.4301 'International Tables Vol C Tables 4.2.6.8 and 6.1.1.4'

loop_
_atom_site_label
_atom_site_type_symbol
_atom_site_fract_x
_atom_site_fract_y
_atom_site_fract_z
_atom_site_U_iso_or_equiv
_atom_site_adp_type
_atom_site_occupancy
_atom_site_symmetry_multiplicity
_atom_site_calc_flag
_atom_site_refinement_flags
_atom_site_disorder_assembly
_atom_site_disorder_group
Zn1 Zn 0.88847(4) -0.16922(3) 0.10995(2) 0.05688(19) Uani 1 1 d . . .
Zn2 Zn 0.99396(4) -0.23744(3) 0.18433(2) 0.05131(18) Uani 1 1 d . . .
Zn3 Zn 0.98903(4) -0.10392(3) 0.18890(2) 0.05292(19) Uani 1 1 d . . .
Zn4 Zn 1.05955(4) -0.16265(3) 0.11266(2) 0.05140(18) Uani 1 1 d . . .
Zn5 Zn 1.01443(4) -0.22941(3) 0.60111(2) 0.05715(19) Uani 1 1 d . . .
Zn6 Zn 0.93010(3) -0.17097(3) 0.68021(2) 0.04859(17) Uani 1 1 d . . .
Zn7 Zn 1.00354(3) -0.09424(3) 0.61603(2) 0.04822(17) Uani 1 1 d . . .
Zn8 Zn 1.09601(3) -0.16544(3) 0.68938(2) 0.04643(17) Uani 1 1 d . . .
Zn9 Zn 0.50329(4) 0.25853(3) 0.68744(2) 0.05245(18) Uani 1 1 d . . .
Zn10 Zn 0.42270(3) 0.33467(3) 0.60608(2) 0.04855(17) Uani 1 1 d . . .
Zn11 Zn 0.58894(4) 0.33992(3) 0.62234(2) 0.04944(18) Uani 1 1 d . . .
Zn12 Zn 0.50322(3) 0.39722(3) 0.69040(2) 0.04838(17) Uani 1 1 d . . .
Zn13 Zn 0.38914(4) 0.32492(4) 0.17288(2) 0.0679(2) Uani 1 1 d . . .
Zn14 Zn 0.48831(4) 0.26939(3) 0.10539(2) 0.05547(19) Uani 1 1 d . . .
Zn15 Zn 0.56117(4) 0.33073(3) 0.19296(2) 0.05048(18) Uani 1 1 d . . .
Zn16 Zn 0.47987(4) 0.40163(3) 0.11433(2) 0.05020(18) Uani 1 1 d . . .
O1M O 0.9831(2) -0.16814(18) 0.14804(13) 0.0532(9) Uani 1 1 d . . .
O2M O 1.0107(2) -0.16658(16) 0.64814(11) 0.0457(8) Uani 1 1 d . . .
O3M O 0.5053(2) 0.33155(17) 0.65062(12) 0.0485(8) Uani 1 1 d . . .
O4M O 0.48092(19) 0.33053(17) 0.14738(12) 0.0467(8) Uani 1 1 d . . .
O1A O 0.9968(3) -0.1284(2) 0.25191(13) 0.0631(11) Uani 1 1 d . . .
O2A O 1.0039(3) -0.2252(2) 0.24924(14) 0.0660(12) Uani 1 1 d . . .
O3A O 0.9625(3) -0.1764(3) 0.54761(18) 0.0827(15) Uani 1 1 d . . .
O4A O 1.0024(3) -0.0863(2) 0.55160(14) 0.0704(13) Uani 1 1 d . . .
C1A C 0.9987(4) -0.1238(4) 0.3447(2) 0.077(2) Uani 1 1 d . . .
H1A H 0.997 -0.0875 0.3296 0.093 Uiso 1 1 calc R . .
C2A C 1.0001(4) -0.1815(3) 0.3198(2) 0.0648(17) Uani 1 1 d . . .
C3A C 0.9918(4) -0.2316(3) 0.34297(19) 0.0645(17) Uani 1 1 d . . .
H3A H 0.9914 -0.2666 0.3263 0.077 Uiso 1 1 calc R . .
C4A C 0.9842(6) -0.2371(4) 0.3857(3) 0.103(3) Uani 1 1 d . . .
H4A H 0.975 -0.2734 0.3987 0.123 Uiso 1 1 calc R . .
C5A C 0.9824(4) -0.1833(4) 0.4572(2) 0.078(2) Uani 1 1 d . . .
H5A H 0.9718 -0.2183 0.4717 0.094 Uiso 1 1 calc R . .
C6A C 0.9897(4) -0.1317(3) 0.4804(2) 0.0678(18) Uani 1 1 d . . .
C7A C 0.9993(3) -0.0803(3) 0.4584(2) 0.0582(15) Uani 1 1 d . . .
H7A H 1.004 -0.0457 0.4757 0.07 Uiso 1 1 calc R . .
C8A C 1.0023(4) -0.0760(3) 0.41500(19) 0.0598(16) Uani 1 1 d . . .
H8A H 1.0061 -0.0388 0.4019 0.072 Uiso 1 1 calc R . .
C9A C 0.9999(4) -0.1278(3) 0.3871(2) 0.0669(17) Uani 1 1 d . . .
C10A C 0.9911(5) -0.1830(4) 0.4117(2) 0.081(2) Uani 1 1 d . . .
C11A C 1.0010(4) -0.1768(3) 0.2698(2) 0.0568(15) Uani 1 1 d . . .
C12A C 0.9873(4) -0.1334(3) 0.5320(2) 0.0682(18) Uani 1 1 d . . .
O1B O 0.9221(2) -0.0493(2) 0.62839(17) 0.0690(12) Uani 1 1 d . . .
O2B O 0.8615(2) -0.10695(19) 0.66913(15) 0.0580(10) Uani 1 1 d . . .
O3B O 0.5915(2) 0.2213(2) 0.66785(16) 0.0641(11) Uani 1 1 d . . .
O4B O 0.6558(3) 0.2774(2) 0.62756(19) 0.0737(13) Uani 1 1 d . . .
C1B C 0.8306(4) 0.0405(4) 0.6332(3) 0.085(2) Uani 1 1 d . . .
H1B H 0.871 0.0453 0.6181 0.102 Uiso 1 1 calc R . .
C2B C 0.8189(3) -0.0124(3) 0.6534(2) 0.0575(15) Uani 1 1 d . . .
C3B C 0.7606(4) -0.0204(4) 0.6768(2) 0.0711(18) Uani 1 1 d . . .
H3B H 0.753 -0.0566 0.6906 0.085 Uiso 1 1 calc R . .
C4B C 0.7150(4) 0.0251(3) 0.6793(2) 0.0653(17) Uani 1 1 d . . .
H4B H 0.6751 0.0198 0.6947 0.078 Uiso 1 1 calc R . .
C5B C 0.6800(3) 0.1282(3) 0.6605(2) 0.0594(15) Uani 1 1 d . . .
H5B H 0.639 0.1234 0.675 0.071 Uiso 1 1 calc R . .
C6B C 0.6910(3) 0.1807(3) 0.6422(2) 0.0630(16) Uani 1 1 d . . .
C7B C 0.7505(5) 0.1880(4) 0.6193(4) 0.102(3) Uani 1 1 d . . .
H7B H 0.7587 0.2243 0.6059 0.122 Uiso 1 1 calc R . .
C8B C 0.7971(5) 0.1421(3) 0.6163(3) 0.087(3) Uani 1 1 d . . .
H8B H 0.838 0.1475 0.6019 0.104 Uiso 1 1 calc R . .
C9B C 0.7834(4) 0.0868(3) 0.6349(3) 0.0683(18) Uani 1 1 d . . .
C10B C 0.7255(3) 0.0803(3) 0.6595(2) 0.0566(14) Uani 1 1 d . . .
C11B C 0.8704(3) -0.0598(3) 0.6498(2) 0.0613(16) Uani 1 1 d . . .
C12B C 0.6412(3) 0.2297(3) 0.6461(2) 0.0565(14) Uani 1 1 d . . .
O1C O 0.5643(3) 0.3489(2) 0.55695(13) 0.0712(13) Uani 1 1 d . . .
O2C O 0.4482(2) 0.3333(2) 0.54488(13) 0.0586(10) Uani 1 1 d . . .
O3C O 0.4261(3) 0.3104(2) 0.23962(13) 0.0616(11) Uani 1 1 d . . .
O4C O 0.5404(2) 0.3359(2) 0.25395(13) 0.0622(11) Uani 1 1 d . . .
C1C C 0.5764(4) 0.3602(4) 0.4658(2) 0.089(3) Uani 1 1 d . . .
H1C H 0.6176 0.3681 0.4861 0.106 Uiso 1 1 calc R . .
C2C C 0.5112(4) 0.3428(4) 0.4830(2) 0.075(2) Uani 1 1 d . . .
C3C C 0.4552(5) 0.3259(4) 0.4521(3) 0.088(3) Uani 1 1 d . . .
H3C H 0.4116 0.316 0.4623 0.106 Uiso 1 1 calc R . .
C4C C 0.4071(5) 0.3025(6) 0.3748(2) 0.117(4) Uani 1 1 d . . .
H4C H 0.3683 0.2826 0.3846 0.141 Uiso 1 1 calc R . .
C5C C 0.4087(5) 0.3106(6) 0.3294(2) 0.142(6) Uani 1 1 d . . .
H5C H 0.3665 0.3082 0.309 0.171 Uiso 1 1 calc R . .
C6C C 0.4742(4) 0.3226(3) 0.3136(2) 0.0616(16) Uani 1 1 d . . .
C7C C 0.5289(4) 0.3432(3) 0.3455(2) 0.0688(18) Uani 1 1 d . . .
H7C H 0.5711 0.3563 0.3351 0.083 Uiso 1 1 calc R . .
C8C C 0.5781(4) 0.3648(4) 0.4228(2) 0.081(2) Uani 1 1 d . . .
H8C H 0.6183 0.3825 0.4129 0.098 Uiso 1 1 calc R . .
C9C C 0.5250(4) 0.3454(4) 0.3908(2) 0.0722(19) Uani 1 1 d . . .
C10C C 0.4606(4) 0.3228(4) 0.4066(2) 0.079(2) Uani 1 1 d . . .
C11C C 0.5101(4) 0.3418(3) 0.5315(2) 0.0630(16) Uani 1 1 d . . .
C12C C 0.4785(4) 0.3241(3) 0.2652(2) 0.0611(15) Uani 1 1 d . . .
O1D O 0.9161(3) -0.0458(2) 0.18031(19) 0.0922(19) Uani 1 1 d . . .
O2D O 0.8758(3) -0.0770(2) 0.11160(18) 0.0876(17) Uani 1 1 d . . .
O3D O 0.5776(3) 0.2292(3) 0.12074(15) 0.0879(18) Uani 1 1 d . . .
O4D O 0.6192(2) 0.2614(2) 0.19148(16) 0.0647(11) Uani 1 1 d . . .
C1D C 0.8153(4) 0.0387(3) 0.1773(3) 0.080(2) Uani 1 1 d . . .
H1D H 0.8419 0.0306 0.2055 0.096 Uiso 1 1 calc R . .
C2D C 0.8237(5) 0.0052(4) 0.1395(3) 0.087(3) Uani 1 1 d . . .
C3D C 0.7822(6) 0.0161(4) 0.0969(3) 0.114(4) Uani 1 1 d . . .
H3D H 0.7827 -0.0097 0.0723 0.137 Uiso 1 1 calc R . .
C4D C 0.7422(7) 0.0652(5) 0.0936(3) 0.140(6) Uani 1 1 d . . .
H4D H 0.7238 0.0788 0.0647 0.168 Uiso 1 1 calc R . .
C5D C 0.6813(5) 0.1463(4) 0.1270(3) 0.094(3) Uani 1 1 d . . .
H5D H 0.6576 0.1571 0.0985 0.113 Uiso 1 1 calc R . .
C6D C 0.6722(5) 0.1780(3) 0.1641(2) 0.076(2) Uani 1 1 d . . .
C7D C 0.7110(4) 0.1655(3) 0.2053(2) 0.0667(17) Uani 1 1 d . . .
H7D H 0.7063 0.1899 0.2303 0.08 Uiso 1 1 calc R . .
C8D C 0.7548(4) 0.1200(3) 0.2107(3) 0.0724(19) Uani 1 1 d . . .
H8D H 0.7786 0.1105 0.2394 0.087 Uiso 1 1 calc R . .
C9D C 0.7272(5) 0.0961(4) 0.1310(3) 0.089(3) Uani 1 1 d . . .
C10D C 0.7648(4) 0.0863(3) 0.1724(3) 0.076(2) Uani 1 1 d . . .
C11D C 0.8768(5) -0.0411(4) 0.1422(3) 0.087(3) Uani 1 1 d . . .
C12D C 0.6189(4) 0.2242(3) 0.1578(2) 0.0691(18) Uani 1 1 d . . .
O1E O 1.0823(3) -0.2764(2) 0.17647(17) 0.0738(13) Uani 1 1 d . . .
O2E O 1.1272(3) -0.2267(2) 0.12307(18) 0.0738(13) Uani 1 1 d . . .
O3E O 0.4176(4) 0.4630(3) 0.12746(18) 0.109(3) Uani 1 1 d . . .
O4E O 0.3822(6) 0.4149(4) 0.1833(3) 0.190(6) Uani 1 1 d . . .
C1E C 1.1776(5) -0.3639(4) 0.1713(3) 0.096(3) Uani 1 1 d . . .
H1E H 1.1415 -0.3674 0.1901 0.115 Uiso 1 1 calc R . .
C2E C 1.1810(4) -0.3149(3) 0.1456(2) 0.0656(17) Uani 1 1 d . . .
C3E C 1.2303(5) -0.3076(4) 0.1174(4) 0.101(3) Uani 1 1 d . . .
H3E H 1.2312 -0.2733 0.1 0.121 Uiso 1 1 calc R . .
C4E C 1.2784(5) -0.3504(4) 0.1147(4) 0.117(4) Uani 1 1 d . . .
H4E H 1.3135 -0.3451 0.0953 0.14 Uiso 1 1 calc R . .
C5E C 0.3274(5) 0.5506(4) 0.1366(3) 0.087(2) Uani 1 1 d . . .
H5E H 0.3598 0.5532 0.1153 0.104 Uiso 1 1 calc R . .
C6E C 0.3289(7) 0.5048(5) 0.1623(3) 0.128(5) Uani 1 1 d . . .
C7E C 0.2755(8) 0.4943(6) 0.1909(4) 0.164(7) Uani 1 1 d . . .
H7E H 0.275 0.4602 0.2085 0.197 Uiso 1 1 calc R . .
C8E C 0.2238(9) 0.5381(6) 0.1910(5) 0.189(9) Uani 1 1 d . . .
H8E H 0.1844 0.5306 0.2065 0.226 Uiso 1 1 calc R . .
C9E C 1.2271(6) -0.4092(4) 0.1701(3) 0.102(3) Uani 1 1 d . . .
C10E C 0.2785(4) 0.5970(4) 0.1396(3) 0.078(2) Uani 1 1 d . . .
C11E C 1.1254(4) -0.2683(3) 0.1480(2) 0.0626(16) Uani 1 1 d . . .
C12E C 0.3806(7) 0.4542(5) 0.1581(3) 0.129(5) Uani 1 1 d . . .
O1F O 0.9258(3) -0.2983(2) 0.17599(18) 0.0755(13) Uani 1 1 d . . .
O2F O 0.8830(3) -0.2637(2) 0.10884(15) 0.0761(14) Uani 1 1 d . . .
O3F O 0.5726(3) 0.4394(3) 0.12642(19) 0.0920(18) Uani 1 1 d . . .
O4F O 0.6284(2) 0.3945(2) 0.18776(14) 0.0612(10) Uani 1 1 d . . .
C1F C 0.8325(4) -0.3903(4) 0.1667(2) 0.0731(19) Uani 1 1 d . . .
H1F H 0.8688 -0.3884 0.1915 0.088 Uiso 1 1 calc R . .
C2F C 0.8306(4) -0.3481(3) 0.1355(2) 0.0693(18) Uani 1 1 d . . .
C3F C 0.7763(5) -0.3472(4) 0.0971(3) 0.097(3) Uani 1 1 d . . .
H3F H 0.7766 -0.3188 0.0742 0.117 Uiso 1 1 calc R . .
C4F C 0.7226(6) -0.3905(4) 0.0952(3) 0.108(4) Uani 1 1 d . . .
H4F H 0.6831 -0.3891 0.0726 0.13 Uiso 1 1 calc R . .
C5F C 0.6760(4) 0.5189(4) 0.1270(2) 0.079(2) Uani 1 1 d . . .
H5F H 0.6381 0.5181 0.1032 0.095 Uiso 1 1 calc R . .
C6F C 0.6791(4) 0.4779(3) 0.1590(2) 0.0608(15) Uani 1 1 d . . .
C7F C 0.7329(4) 0.4797(3) 0.1969(3) 0.079(2) Uani 1 1 d . . .
H7F H 0.7334 0.4527 0.2208 0.094 Uiso 1 1 calc R . .
C8F C 0.7834(4) 0.5221(3) 0.1971(3) 0.085(2) Uani 1 1 d . . .
H8F H 0.8205 0.5226 0.2214 0.102 Uiso 1 1 calc R . .
C9F C 0.7840(4) -0.4372(3) 0.1652(2) 0.0629(16) Uani 1 1 d . . .
C10F C 0.7288(4) 0.5640(3) 0.1278(2) 0.0692(18) Uani 1 1 d . . .
C11F C 0.8851(4) -0.3000(4) 0.1388(2) 0.074(2) Uani 1 1 d . . .
C12F C 0.6233(3) 0.4353(3) 0.1574(2) 0.0584(15) Uani 1 1 d . . .
O1G O 1.0333(3) -0.1627(2) 0.04849(13) 0.0681(12) Uani 1 1 d . . .
O2G O 0.9166(3) -0.1639(2) 0.04559(15) 0.0714(12) Uani 1 1 d . . .
O3G O 1.0739(2) -0.1583(2) 0.75149(14) 0.0652(12) Uani 1 1 d . . .
O4G O 0.9557(2) -0.1635(2) 0.74512(13) 0.0688(13) Uani 1 1 d . . .
C1G C 1.0267(4) -0.1622(3) -0.0426(2) 0.0678(17) Uani 1 1 d . . .
H1G H 1.0706 -0.1667 -0.0243 0.081 Uiso 1 1 calc R . .
C2G C 0.9667(3) -0.1592(3) -0.0227(2) 0.0557(14) Uani 1 1 d . . .
C3G C 0.9025(4) -0.1541(4) -0.0479(2) 0.091(3) Uani 1 1 d . . .
H3G H 0.8609 -0.1509 -0.0338 0.109 Uiso 1 1 calc R . .
C4G C 0.8984(4) -0.1536(4) -0.0944(2) 0.086(2) Uani 1 1 d . . .
H4G H 0.8534 -0.153 -0.1118 0.103 Uiso 1 1 calc R . .
C5G C 0.9558(4) -0.1543(4) 0.8387(2) 0.075(2) Uani 1 1 d . . .
H5G H 0.9108 -0.1514 0.8214 0.09 Uiso 1 1 calc R . .
C6G C 1.0184(3) -0.1590(3) 0.8163(2) 0.0557(14) Uani 1 1 d . . .
C7G C 1.0870(3) -0.1651(3) 0.84563(18) 0.0620(16) Uani 1 1 d . . .
H7G H 1.1293 -0.1684 0.8323 0.074 Uiso 1 1 calc R . .
C8G C 1.0900(5) -0.1661(4) 0.8906(3) 0.0