####################################################################### 
# 
# This file contains crystal structure data downloaded from the 
# Cambridge Structural Database (CSD) hosted by the Cambridge 
# Crystallographic Data Centre (CCDC).
# 
# Full information about CCDC data access policies and citation 
# guidelines are available at http://www.ccdc.cam.ac.uk/access/V1 
# 
# Audit and citation data items may have been added by the CCDC. 
# Please retain this information to preserve the provenance of 
# this file and to allow appropriate attribution of the data. 
# 
#######################################################################

data_p8_80tr
_audit_block_doi                 10.5517/cc1143ny
_database_code_depnum_ccdc_archive 'CCDC 957269'
loop_
_citation_id
_citation_doi
_citation_year
1 10.5012/bkcs.2014.35.3.949 2014
_audit_update_record             
;
2013-08-24 deposited with the CCDC.	2024-07-13 downloaded from the CCDC.
;

_audit_creation_date             2008-10-29T17:31:37-00:00
_audit_creation_method           'WinGX routine CIF_UPDATE'
_audit_conform_dict_name         cif_core.dic
_audit_conform_dict_version      2.3
_audit_conform_dict_location     ftp://ftp.iucr.org/pub/cif_core.dic

#----------------------------------------------------------------------------#
#                   CHEMICAL INFORMATION                                     #
#----------------------------------------------------------------------------#

_chemical_name_systematic        
;
 ?
;
_chemical_formula_moiety         'C72 H44 O30 Zn8'
_chemical_formula_sum            'C72 H44 O30 Zn8'
_chemical_formula_weight         1912.03

#----------------------------------------------------------------------------#
#                   UNIT CELL INFORMATION                                    #
#----------------------------------------------------------------------------#

_symmetry_cell_setting           Triclinic
_symmetry_space_group_name_H-M   P-1
loop_
_symmetry_equiv_pos_as_xyz
'x, y, z'
'-x, -y, -z'

_cell_length_a                   19.278(4)
_cell_length_b                   19.593(4)
_cell_length_c                   20.046(4)
_cell_angle_alpha                70.65(3)
_cell_angle_beta                 70.05(3)
_cell_angle_gamma                69.86(3)
_cell_volume                     6483(2)
_cell_formula_units_Z            2
_cell_measurement_temperature    100(2)
_cell_measurement_reflns_used    16998
_cell_measurement_theta_min      1.41
_cell_measurement_theta_max      30.41

#----------------------------------------------------------------------------#
#                   CRYSTAL INFORMATION                                      #
#----------------------------------------------------------------------------#

_exptl_crystal_description       block
_exptl_crystal_colour            colorless
_exptl_crystal_size_max          0.33
_exptl_crystal_size_mid          0.3
_exptl_crystal_size_min          0.28
_exptl_crystal_density_diffrn    0.979
_exptl_crystal_density_method    'not measured'
_exptl_crystal_F_000             1912
_exptl_special_details           
;
 ?
;

#----------------------------------------------------------------------------#
#                   ABSORPTION CORRECTION                                    #
#----------------------------------------------------------------------------#

_exptl_absorpt_coefficient_mu    1.503
_exptl_absorpt_correction_type   Empirical
_exptl_absorpt_process_details   HKL2000-Scalepack

#----------------------------------------------------------------------------#
#                   DATA COLLECTION                                          #
#----------------------------------------------------------------------------#

_diffrn_ambient_temperature      100(2)
_diffrn_radiation_wavelength     0.9
_diffrn_radiation_type           synchrotron
_diffrn_radiation_monochromator  'Pt coated Si double crystal'
_diffrn_measurement_device_type  'CCD area detector'
_diffrn_measurement_method       'phi scans'
_diffrn_reflns_av_R_equivalents  0.051
_diffrn_reflns_av_unetI/netI     0.0572
_diffrn_reflns_number            29848
_diffrn_reflns_limit_h_min       -21
_diffrn_reflns_limit_h_max       21
_diffrn_reflns_limit_k_min       -21
_diffrn_reflns_limit_k_max       21
_diffrn_reflns_limit_l_min       -22
_diffrn_reflns_limit_l_max       22
_diffrn_reflns_theta_min         1.41
_diffrn_reflns_theta_max         30.41
_diffrn_reflns_theta_full        30.41
_diffrn_measured_fraction_theta_full 0.879
_diffrn_measured_fraction_theta_max 0.879
_reflns_number_total             16998
_reflns_number_gt                11132
_reflns_threshold_expression     >2sigma(I)

#----------------------------------------------------------------------------#
#                   COMPUTER PROGRAMS USED                                   #
#----------------------------------------------------------------------------#

_computing_data_collection       'PAL ADSC Quantum-210'
_computing_cell_refinement       HKL2000
_computing_data_reduction        HKL2000
_computing_structure_solution    'Bruker SHELXTL'
_computing_structure_refinement  'Bruker SHELXTL'
_computing_molecular_graphics    ORTEP3
_computing_publication_material  WinGX

#----------------------------------------------------------------------------#
#                   REFINEMENT INFORMATION                                   #
#----------------------------------------------------------------------------#

_refine_special_details          
;
 Refinement of F^2^ against ALL reflections.  The weighted R-factor wR and
 goodness of fit S are based on F^2^, conventional R-factors R are based
 on F, with F set to zero for negative F^2^. The threshold expression of
 F^2^ > 2sigma(F^2^) is used only for calculating R-factors(gt) etc. and is
 not relevant to the choice of reflections for refinement.  R-factors based
 on F^2^ are statistically about twice as large as those based on F, and R-
 factors based on ALL data will be even larger.
;
_refine_ls_structure_factor_coef Fsqd
_refine_ls_matrix_type           full
_refine_ls_weighting_scheme      calc
_refine_ls_weighting_details     
'calc w=1/[\s^2^(Fo^2^)+(0.2000P)^2^+0.0000P] where P=(Fo^2^+2Fc^2^)/3'
_atom_sites_solution_primary     direct
_atom_sites_solution_secondary   difmap
_atom_sites_solution_hydrogens   geom
_refine_ls_hydrogen_treatment    constr
_refine_ls_extinction_method     none
_refine_ls_number_reflns         16998
_refine_ls_number_parameters     961
_refine_ls_number_restraints     18
_refine_ls_R_factor_all          0.1234
_refine_ls_R_factor_gt           0.1097
_refine_ls_wR_factor_ref         0.313
_refine_ls_wR_factor_gt          0.2975
_refine_ls_goodness_of_fit_ref   1.161
_refine_ls_restrained_S_all      1.164
_refine_ls_shift/su_max          0.001
_refine_ls_shift/su_mean         0
_refine_diff_density_max         1.082
_refine_diff_density_min         -1.164
_refine_diff_density_rms         0.106

#----------------------------------------------------------------------------#
#                   ATOMIC TYPES, COORDINATES AND THERMAL PARAMETERS         #
#----------------------------------------------------------------------------#

loop_
_atom_type_symbol
_atom_type_description
_atom_type_scat_dispersion_real
_atom_type_scat_dispersion_imag
_atom_type_scat_source
C C 0.0033 0.0016 'International Tables Vol C Tables 4.2.6.8 and 6.1.1.4'
H H 0 0 'International Tables Vol C Tables 4.2.6.8 and 6.1.1.4'
O O 0.0106 0.006 'International Tables Vol C Tables 4.2.6.8 and 6.1.1.4'
Zn Zn 0.2839 1.4301 'International Tables Vol C Tables 4.2.6.8 and 6.1.1.4'

loop_
_atom_site_label
_atom_site_type_symbol
_atom_site_fract_x
_atom_site_fract_y
_atom_site_fract_z
_atom_site_U_iso_or_equiv
_atom_site_adp_type
_atom_site_occupancy
_atom_site_symmetry_multiplicity
_atom_site_calc_flag
_atom_site_refinement_flags
_atom_site_disorder_assembly
_atom_site_disorder_group
Zn1 Zn 1.18755(6) 0.54172(5) 0.07652(6) 0.1201(4) Uani 1 1 d . . .
Zn2 Zn 1.20700(5) 0.39467(5) 0.20803(5) 0.1002(3) Uani 1 1 d . . .
Zn3 Zn 1.05795(6) 0.53071(5) 0.22475(6) 0.1134(3) Uani 1 1 d . . .
Zn4 Zn 1.21662(5) 0.54682(5) 0.22407(4) 0.0984(3) Uani 1 1 d . . .
Zn5 Zn 0.63617(7) 0.11752(5) 0.66458(6) 0.1232(4) Uani 1 1 d . . .
Zn6 Zn 0.77950(5) -0.02741(6) 0.65219(5) 0.1098(3) Uani 1 1 d . . .
Zn7 Zn 0.62542(5) -0.03748(5) 0.64227(4) 0.0943(3) Uani 1 1 d . . .
Zn8 Zn 0.64438(5) -0.03428(5) 0.78882(4) 0.0950(3) Uani 1 1 d . . .
O1M4 O 1.1689(3) 0.5037(3) 0.1837(3) 0.1036(13) Uani 1 1 d . . .
O2M4 O 0.6702(3) 0.0052(2) 0.6852(2) 0.0932(12) Uani 1 1 d . . .
O1A O 1.1269(4) 0.3429(3) 0.2628(3) 0.1216(17) Uani 1 1 d D . .
O2A O 1.0235(4) 0.4419(4) 0.2617(4) 0.148(2) Uani 1 1 d D . .
O3A O 0.8278(5) 0.0495(7) 0.5787(5) 0.210(4) Uani 1 1 d D . .
O4A O 0.7188(7) 0.1441(9) 0.5816(9) 0.353(14) Uani 1 1 d D . .
C1A C 1.0078(4) 0.1893(3) 0.3726(4) 0.279(13) Uani 1 1 d G . .
H1A H 1.0328 0.1376 0.3763 0.335 Uiso 1 1 calc R . .
C2A C 1.0452(3) 0.2431(4) 0.3247(4) 0.188(6) Uani 1 1 d GD . .
H2A H 1.0957 0.2282 0.2957 0.226 Uiso 1 1 calc R . .
C3A C 1.0087(4) 0.3187(4) 0.3193(4) 0.138(3) Uani 1 1 d GD . .
C4A C 0.9348(4) 0.3406(3) 0.3618(5) 0.212(7) Uani 1 1 d GD . .
H4A H 0.9098 0.3923 0.3581 0.255 Uiso 1 1 calc R . .
C5A C 0.8974(3) 0.2868(3) 0.4097(4) 0.265(9) Uani 1 1 d G . .
C6A C 0.9339(4) 0.2111(3) 0.4150(3) 0.206(7) Uani 1 1 d G . .
C7A C 0.8965(5) 0.1573(4) 0.4629(4) 0.270(11) Uani 1 1 d GD . .
H7A H 0.9215 0.1056 0.4666 0.324 Uiso 1 1 calc R . .
C8A C 0.8226(5) 0.1792(6) 0.5054(5) 0.243(9) Uani 1 1 d GD . .
C9A C 0.7861(5) 0.2548(6) 0.5000(6) 0.5 Uiso 1 1 d GD . .
H9A H 0.7356 0.2698 0.529 0.6 Uiso 1 1 calc R . .
C10A C 0.8235(4) 0.3086(5) 0.4521(6) 0.58(4) Uani 1 1 d G . .
H10A H 0.7985 0.3604 0.4485 0.694 Uiso 1 1 calc R . .
C11A C 1.0545(6) 0.3725(5) 0.2783(4) 0.128(3) Uani 1 1 d D . .
C12A C 0.7872(10) 0.1181(8) 0.5587(7) 0.288(14) Uani 1 1 d D . .
O1B O 1.2865(3) 0.6039(3) 0.1518(3) 0.1212(17) Uani 1 1 d . . .
O2B O 1.2603(4) 0.6000(4) 0.0506(3) 0.1338(19) Uani 1 1 d . . .
O3B O 0.6016(3) -0.1186(3) 0.8122(3) 0.1103(14) Uani 1 1 d . . .
O4B O 0.5583(3) -0.0987(3) 0.7162(3) 0.1027(13) Uani 1 1 d . . .
C1B C 1.4427(7) 0.7282(7) 0.0243(4) 0.161(4) Uani 1 1 d . . .
H1B H 1.4722 0.7402 0.0462 0.194 Uiso 1 1 calc R . .
C2B C 1.3935(6) 0.6850(6) 0.0662(5) 0.140(3) Uani 1 1 d . . .
H2B H 1.3903 0.6658 0.1171 0.168 Uiso 1 1 calc R . .
C3B C 1.3466(5) 0.6683(5) 0.0347(4) 0.121(3) Uani 1 1 d . . .
C4B C 1.3550(5) 0.6918(5) -0.0385(4) 0.120(2) Uani 1 1 d . . .
H4B H 1.3265 0.677 -0.0591 0.144 Uiso 1 1 calc R . .
C5B C 1.4021(5) 0.7357(5) -0.0840(4) 0.118(2) Uani 1 1 d . . .
C6B C 0.4497(5) -0.2448(5) 0.9473(4) 0.117(2) Uani 1 1 d . . .
C7B C 0.4986(5) -0.2004(5) 0.9012(4) 0.115(2) Uani 1 1 d . . .
H7B H 0.5289 -0.1875 0.9215 0.139 Uiso 1 1 calc R . .
C8B C 0.5044(4) -0.1748(4) 0.8285(4) 0.105(2) Uani 1 1 d . . .
C9B C 0.4587(5) -0.1930(5) 0.7969(4) 0.128(3) Uani 1 1 d . . .
H9B H 0.462 -0.1752 0.746 0.153 Uiso 1 1 calc R . .
C10B C 0.4111(6) -0.2356(5) 0.8406(5) 0.129(3) Uani 1 1 d . . .
H10B H 0.3814 -0.2472 0.8186 0.155 Uiso 1 1 calc R . .
C11B C 1.2934(6) 0.6221(5) 0.0815(5) 0.124(3) Uani 1 1 d . . .
C12B C 0.5585(4) -0.1267(4) 0.7811(4) 0.1010(19) Uani 1 1 d . . .
O1C O 1.1442(4) 0.6131(4) 0.2861(3) 0.1260(18) Uani 1 1 d . . .
O2C O 1.0396(5) 0.5882(9) 0.2890(8) 0.297(9) Uani 1 1 d . . .
O3C O 0.8070(4) -0.1055(5) 0.6019(4) 0.153(2) Uani 1 1 d . . .
O4C O 0.7000(4) -0.1036(3) 0.5818(3) 0.1160(16) Uani 1 1 d . . .
C1C C 1.0207(6) 0.7455(6) 0.4347(6) 0.157(4) Uani 1 1 d . . .
H1C H 1.0459 0.7628 0.4567 0.189 Uiso 1 1 calc R . .
C2C C 1.0639(6) 0.7045(6) 0.3859(6) 0.148(4) Uani 1 1 d . . .
H2C H 1.1178 0.6966 0.3711 0.177 Uiso 1 1 calc R . .
C3C C 1.0277(5) 0.6730(6) 0.3567(5) 0.144(4) Uani 1 1 d . . .
C4C C 0.9534(7) 0.6888(7) 0.3737(6) 0.163(4) Uani 1 1 d . . .
H4C H 0.9306 0.6691 0.3516 0.196 Uiso 1 1 calc R . .
C5C C 0.9036(6) 0.7345(6) 0.4241(6) 0.138(3) Uani 1 1 d . . .
C6C C 0.9414(5) -0.2359(6) 0.4549(5) 0.127(3) Uani 1 1 d . . .
C7C C 0.8952(5) -0.1914(6) 0.5018(5) 0.132(3) Uani 1 1 d . . .
H7C H 0.9189 -0.1701 0.5215 0.159 Uiso 1 1 calc R . .
C8C C 0.8178(5) -0.1757(5) 0.5220(4) 0.116(2) Uani 1 1 d . . .
C9C C 0.7803(5) -0.2031(6) 0.4887(6) 0.137(3) Uani 1 1 d . . .
H9C H 0.7262 -0.1887 0.4979 0.165 Uiso 1 1 calc R . .
C10C C 0.8223(6) -0.2479(6) 0.4457(6) 0.150(4) Uani 1 1 d . . .
H10C H 0.7974 -0.2698 0.428 0.18 Uiso 1 1 calc R . .
C11C C 1.0753(9) 0.6241(7) 0.3050(6) 0.160(4) Uani 1 1 d . . .
C12C C 0.7707(6) -0.1228(5) 0.5709(5) 0.122(3) Uani 1 1 d . . .
O1D O 1.2468(5) 0.4577(4) 0.0347(3) 0.174(3) Uani 1 1 d . . .
O2D O 1.2581(3) 0.3532(3) 0.1239(3) 0.1101(15) Uani 1 1 d . . .
O3D O 0.5477(6) 0.1237(5) 0.7546(3) 0.224(5) Uani 1 1 d . . .
O4D O 0.5664(3) 0.0267(3) 0.8501(3) 0.1248(17) Uani 1 1 d . . .
C1D C 1.3821(10) 0.3377(6) -0.1218(6) 0.217(8) Uani 1 1 d . . .
H1D H 1.4007 0.3625 -0.1712 0.26 Uiso 1 1 calc R . .
C2D C 1.3376(9) 0.3770(6) -0.0729(5) 0.199(7) Uani 1 1 d . . .
H2D H 1.3229 0.4301 -0.0885 0.239 Uiso 1 1 calc R . .
C3D C 1.3111(6) 0.3420(5) 0.0025(4) 0.129(3) Uani 1 1 d . . .
C4D C 1.3316(5) 0.2652(5) 0.0250(4) 0.111(2) Uani 1 1 d . . .
H4D H 1.3153 0.2417 0.0753 0.134 Uiso 1 1 calc R . .
C5D C 1.3758(5) 0.2214(5) -0.0245(4) 0.114(2) Uani 1 1 d . . .
C6D C 0.4016(6) 0.2576(5) 0.9003(5) 0.146(4) Uani 1 1 d . . .
C7D C 0.4498(8) 0.2142(6) 0.8507(5) 0.171(5) Uani 1 1 d . . .
H7D H 0.4643 0.2381 0.8003 0.206 Uiso 1 1 calc R . .
C8D C 0.4764(6) 0.1386(6) 0.8729(5) 0.143(4) Uani 1 1 d . . .
C9D C 0.4487(5) 0.1026(5) 0.9471(5) 0.122(3) Uani 1 1 d . . .
H9D H 0.4648 0.0495 0.9625 0.147 Uiso 1 1 calc R . .
C10D C 0.4000(5) 0.1423(4) 0.9965(5) 0.114(2) Uani 1 1 d . . .
H10D H 0.3819 0.1167 1.0456 0.137 Uiso 1 1 calc R . .
C11D C 1.2700(5) 0.3876(5) 0.0593(5) 0.118(2) Uani 1 1 d . . .
C12D C 0.5338(7) 0.0934(6) 0.8220(5) 0.143(4) Uani 1 1 d . . .
O1E O 1.2750(3) 0.4695(3) 0.2890(3) 0.1171(16) Uani 1 1 d . . .
O2E O 1.2778(3) 0.3623(3) 0.2684(3) 0.1118(14) Uani 1 1 d . . .
O3E O 0.5663(4) 0.1408(3) 0.6010(3) 0.1216(17) Uani 1 1 d . . .
O4E O 0.5655(3) 0.0357(3) 0.5786(3) 0.1051(13) Uani 1 1 d . . .
C1E C 1.3967(8) 0.3481(6) 0.4476(6) 0.162(4) Uani 1 1 d . . .
H1E H 1.4041 0.3723 0.4777 0.195 Uiso 1 1 calc R . .
C2E C 1.3547(8) 0.3904(5) 0.3976(6) 0.152(4) Uani 1 1 d . . .
H2E H 1.3335 0.4427 0.3934 0.183 Uiso 1 1 calc R . .
C3E C 1.3432(5) 0.3546(4) 0.3518(4) 0.103(2) Uani 1 1 d . . .
C4E C 1.3744(5) 0.2784(5) 0.3606(4) 0.106(2) Uani 1 1 d . . .
H4E H 1.366 0.2538 0.3315 0.127 Uiso 1 1 calc R . .
C5E C 1.4172(4) 0.2368(4) 0.4097(4) 0.102(2) Uani 1 1 d . . .
C6E C 0.4285(5) 0.2720(4) 0.4558(4) 0.113(2) Uani 1 1 d . . .
C7E C 0.4726(5) 0.2284(5) 0.5058(4) 0.118(2) Uani 1 1 d . . .
H7E H 0.4822 0.252 0.535 0.141 Uiso 1 1 calc R . .
C8E C 0.5022(5) 0.1524(4) 0.5134(4) 0.104(2) Uani 1 1 d . . .
C9E C 0.4918(5) 0.1181(4) 0.4695(4) 0.108(2) Uani 1 1 d . . .
H9E H 0.5121 0.0655 0.4751 0.13 Uiso 1 1 calc R . .
C10E C 0.4531(6) 0.1585(5) 0.4182(5) 0.123(3) Uani 1 1 d . . .
H10E H 0.4496 0.1338 0.3864 0.147 Uiso 1 1 calc R . .
C11E C 1.2961(5) 0.3982(5) 0.2991(4) 0.115(2) Uani 1 1 d . . .
C12E C 0.5488(5) 0.1075(5) 0.5688(4) 0.108(2) Uani 1 1 d . . .
O1F O 0.9963(4) 0.5967(4) 0.1607(4) 0.153(2) Uani 1 1 d . . .
O2F O 1.0952(6) 0.6236(7) 0.0691(6) 0.270(7) Uani 1 1 d . . .
O3F O 0.7291(3) -0.0809(3) 0.8316(3) 0.1090(14) Uani 1 1 d . . .
O4F O 0.8301(3) -0.0789(3) 0.7308(3) 0.1163(16) Uani 1 1 d . . .
C1F C 0.8445(7) 0.7496(7) 0.0406(5) 0.166(4) Uani 1 1 d . . .
H1F H 0.7915 0.7626 0.0641 0.199 Uiso 1 1 calc R . .
C2F C 0.8938(7) 0.6996(9) 0.0794(8) 0.196(6) Uani 1 1 d . . .
H2F H 0.873 0.6759 0.1285 0.235 Uiso 1 1 calc R . .
C3F C 0.9716(8) 0.6808(9) 0.0529(7) 0.188(6) Uani 1 1 d . . .
C4F C 1.0025(7) 0.7174(7) -0.0192(7) 0.175(5) Uani 1 1 d . . .
H4F H 1.0563 0.7085 -0.0385 0.21 Uiso 1 1 calc R . .
C5F C 0.9519(6) 0.7686(7) -0.0635(5) 0.147(3) Uani 1 1 d . . .
C6F C 0.8706(6) -0.2168(7) 0.9647(5) 0.140(3) Uani 1 1 d . . .
C7F C 0.8269(6) -0.1735(6) 0.9193(5) 0.133(3) Uani 1 1 d . . .
H7F H 0.773 -0.1623 0.9388 0.16 Uiso 1 1 calc R . .
C8F C 0.8544(5) -0.1442(5) 0.8470(5) 0.119(2) Uani 1 1 d . . .
C9F C 0.9373(6) -0.1592(6) 0.8154(5) 0.135(3) Uani 1 1 d . . .
H9F H 0.9577 -0.1385 0.7652 0.162 Uiso 1 1 calc R . .
C10F C 0.9833(7) -0.2023(8) 0.8587(8) 0.173(4) Uani 1 1 d . . .
H10F H 1.0371 -0.2142 0.8387 0.208 Uiso 1 1 calc R . .
C11F C 1.0268(9) 0.6288(8) 0.0986(9) 0.191(6) Uani 1 1 d . . .
C12F C 0.8028(5) -0.0973(5) 0.8001(4) 0.107(2) Uani 1 1 d . . .
O1S O 0.7128(8) 0.1011(4) 0.7365(7) 0.254(6) Uani 1 1 d . . .
O2S O 0.6073(10) 0.2341(5) 0.6580(9) 0.295(8) Uani 1 1 d . . .
O3S O 1.0924(13) 0.4970(11) 0.0665(12) 0.419(14) Uani 1 1 d . . .
O4S O 1.1963(10) 0.5970(8) -0.0478(8) 0.299(6) Uani 1 1 d . . .

loop_
_atom_site_aniso_label
_atom_site_aniso_U_11
_atom_site_aniso_U_22
_atom_site_aniso_U_33
_atom_site_aniso_U_23
_atom_site_aniso_U_13
_atom_site_aniso_U_12
Zn1 0.1281(8) 0.1062(6) 0.1276(7) -0.0378(5) -0.0233(6) -0.0327(6)
Zn2 0.1100(6) 0.0957(5) 0.0955(5) -0.0276(4) -0.0248(4) -0.0248(5)
Zn3 0.1109(7) 0.1047(6) 0.1241(7) -0.0226(5) -0.0339(5) -0.0289(5)
Zn4 0.1048(6) 0.0956(5) 0.0904(5) -0.0256(4) -0.0144(4) -0.0285(4)
Zn5 0.1737(10) 0.1046(6) 0.1147(7) -0.0129(5) -0.0633(6) -0.0512(7)
Zn6 0.1073(6) 0.1405(7) 0.0848(5) -0.0308(5) -0.0172(4) -0.0403(6)
Zn7 0.1051(6) 0.1003(5) 0.0794(5) -0.0236(4) -0.0190(4) -0.0320(5)
Zn8 0.1031(6) 0.1027(5) 0.0806(5) -0.0235(4) -0.0207(4) -0.0300(5)
O1M4 0.108(3) 0.093(3) 0.107(3) -0.028(2) -0.015(3) -0.031(2)
O2M4 0.107(3) 0.100(3) 0.078(2) -0.020(2) -0.016(2) -0.044(2)
O1A 0.153(5) 0.108(3) 0.107(4) -0.023(3) -0.026(4) -0.048(4)
O2A 0.132(4) 0.132(5) 0.170(6) -0.001(4) -0.040(4) -0.056(4)
O3A 0.201(8) 0.330(13) 0.136(6) -0.006(7) -0.016(5) -0.186(9)
O4A 0.287(15) 0.42(2) 0.323(18) 0.232(18) -0.172(14) -0.276(18)
C1A 0.195(14) 0.47(3) 0.214(16) -0.22(2) -0.100(13) 0.050(19)
C2A 0.290(16) 0.156(9) 0.156(10) 0.017(7) -0.064(10) -0.150(11)
C3A 0.142(7) 0.143(7) 0.135(7) -0.014(6) -0.025(6) -0.072(6)
C4A 0.185(12) 0.216(13) 0.222(14) -0.071(11) 0.029(11) -0.100(11)
C5A 0.215(15) 0.32(2) 0.202(14) -0.030(15) 0.058(12) -0.144(16)
C6A 0.36(2) 0.135(8) 0.172(11) -0.023(8) -0.076(13) -0.131(12)
C7A 0.36(2) 0.42(3) 0.110(8) -0.002(12) -0.060(11) -0.26(2)
C8A 0.192(13) 0.197(13) 0.33(3) -0.041(15) -0.050(15) -0.081(12)
C10A 0.208(18) 0.29(3) 1.17(11) -0.36(5) 0.14(4) -0.121(19)
C11A 0.150(8) 0.108(6) 0.103(5) -0.004(5) -0.024(6) -0.034(6)
C12A 0.33(3) 0.235(