####################################################################### 
# 
# This file contains crystal structure data downloaded from the 
# Cambridge Structural Database (CSD) hosted by the Cambridge 
# Crystallographic Data Centre (CCDC).
# 
# Full information about CCDC data access policies and citation 
# guidelines are available at http://www.ccdc.cam.ac.uk/access/V1 
# 
# Audit and citation data items may have been added by the CCDC. 
# Please retain this information to preserve the provenance of 
# this file and to allow appropriate attribution of the data. 
# 
#######################################################################

data_shelxl
_audit_block_doi                 10.5517/cc1143pz
_database_code_depnum_ccdc_archive 'CCDC 957270'
loop_
_citation_id
_citation_doi
_citation_year
1 10.5012/bkcs.2014.35.3.949 2014
_audit_update_record             
;
2013-08-24 deposited with the CCDC.	2024-07-13 downloaded from the CCDC.
;

_audit_creation_method           SHELXL-2013
_chemical_name_systematic        
;
 ?
;
_chemical_name_common            ?
_chemical_melting_point          ?
_chemical_formula_moiety         ?
_chemical_formula_sum            'C81 H59 N3 O30 Zn8'
_chemical_formula_weight         2077.27

loop_
_atom_type_symbol
_atom_type_description
_atom_type_scat_dispersion_real
_atom_type_scat_dispersion_imag
_atom_type_scat_source
C C 0.0033 0.0016 'International Tables Vol C Tables 4.2.6.8 and 6.1.1.4'
H H 0.0000 0.0000 'International Tables Vol C Tables 4.2.6.8 and 6.1.1.4'
N N 0.0061 0.0033 'International Tables Vol C Tables 4.2.6.8 and 6.1.1.4'
O O 0.0106 0.0060 'International Tables Vol C Tables 4.2.6.8 and 6.1.1.4'
Zn Zn 0.2839 1.4301 'International Tables Vol C Tables 4.2.6.8 and 6.1.1.4'

_space_group_crystal_system      triclinic
_space_group_IT_number           2
_space_group_name_H-M_alt        'P -1'
_space_group_name_Hall           '-P 1'

_shelx_space_group_comment       
;
The symmetry employed for this shelxl refinement is uniquely defined
by the following loop, which should always be used as a source of
symmetry information in preference to the above space-group names.
They are only intended as comments.
;

loop_
_space_group_symop_operation_xyz
'x, y, z'
'-x, -y, -z'

_cell_length_a                   17.9128(9)
_cell_length_b                   20.0002(9)
_cell_length_c                   20.8725(10)
_cell_angle_alpha                71.6450(10)
_cell_angle_beta                 70.3050(10)
_cell_angle_gamma                68.9810(10)
_cell_volume                     6409.7(5)
_cell_formula_units_Z            2
_cell_measurement_temperature    200(2)
_cell_measurement_reflns_used    3842
_cell_measurement_theta_min      2.29
_cell_measurement_theta_max      23.38

_exptl_crystal_description       block
_exptl_crystal_colour            colorless
_exptl_crystal_density_meas      ?
_exptl_crystal_density_method    ?
_exptl_crystal_density_diffrn    1.076
_exptl_crystal_F_000             2092
_exptl_transmission_factor_min   ?
_exptl_transmission_factor_max   ?
_exptl_crystal_size_max          0.280
_exptl_crystal_size_mid          0.210
_exptl_crystal_size_min          0.140
_exptl_absorpt_coefficient_mu    1.525
_shelx_estimated_absorpt_T_min   0.675
_shelx_estimated_absorpt_T_max   0.815
_exptl_absorpt_correction_type   none
_exptl_absorpt_correction_T_min  ?
_exptl_absorpt_correction_T_max  ?
_exptl_absorpt_process_details   ?

_exptl_special_details           
;
 ?
;

_diffrn_ambient_temperature      200(2)
_diffrn_radiation_wavelength     0.71073
_diffrn_radiation_type           MoK\a
_diffrn_source                   'sealed tube'
_diffrn_measurement_device_type  'CCD area detector'
_diffrn_measurement_method       'phi and omega scans'
_diffrn_detector_area_resol_mean ?
_diffrn_reflns_number            40787
_diffrn_reflns_av_unetI/netI     0.2484
_diffrn_reflns_av_R_equivalents  0.0815
_diffrn_reflns_limit_h_min       -22
_diffrn_reflns_limit_h_max       20
_diffrn_reflns_limit_k_min       -24
_diffrn_reflns_limit_k_max       14
_diffrn_reflns_limit_l_min       -25
_diffrn_reflns_limit_l_max       23
_diffrn_reflns_theta_min         1.062
_diffrn_reflns_theta_max         26.035
_diffrn_reflns_theta_full        25.242
_diffrn_measured_fraction_theta_max 0.991
_diffrn_measured_fraction_theta_full 0.997
_diffrn_reflns_Laue_measured_fraction_max 0.991
_diffrn_reflns_Laue_measured_fraction_full 0.997
_diffrn_reflns_point_group_measured_fraction_max 0.991
_diffrn_reflns_point_group_measured_fraction_full 0.997
_reflns_number_total             25057
_reflns_number_gt                7470
_reflns_threshold_expression     'I > 2\s(I)'
_reflns_Friedel_coverage         0.000
_reflns_Friedel_fraction_max     .
_reflns_Friedel_fraction_full    .

_reflns_special_details          
;
 Reflections were merged by SHELXL according to the crystal
 class for the calculation of statistics and refinement.
 
 _reflns_Friedel_fraction is defined as the number of unique
 Friedel pairs measured divided by the number that would be
 possible theoretically, ignoring centric projections and
 systematic absences.
;

_computing_data_collection       'Bruker SMART'
_computing_cell_refinement       'Bruker SMART'
_computing_data_reduction        'Bruker SAINT'
_computing_structure_solution    'SHELXS-2013 (Sheldrick, 2013)'
_computing_structure_refinement  'SHELXL-2013 (Sheldrick, 2013)'
_computing_molecular_graphics    ORTEP
_computing_publication_material  WINGX

_refine_special_details          
;
 ?
;
_refine_ls_structure_factor_coef Fsqd
_refine_ls_matrix_type           full
_refine_ls_weighting_scheme      calc
_refine_ls_weighting_details     
;
 w=1/[\s^2^(Fo^2^)+(0.0734P)^2^]
 where P=(Fo^2^+2Fc^2^)/3
;
_atom_sites_solution_primary     ?
_atom_sites_solution_secondary   ?
_atom_sites_solution_hydrogens   geom
_refine_ls_hydrogen_treatment    constr
_refine_ls_extinction_method     none
_refine_ls_extinction_coef       .
_refine_ls_number_reflns         25057
_refine_ls_number_parameters     1010
_refine_ls_number_restraints     1
_refine_ls_R_factor_all          0.1649
_refine_ls_R_factor_gt           0.0746
_refine_ls_wR_factor_ref         0.2050
_refine_ls_wR_factor_gt          0.1797
_refine_ls_goodness_of_fit_ref   0.750
_refine_ls_restrained_S_all      0.756
_refine_ls_shift/su_max          0.001
_refine_ls_shift/su_mean         0.000

loop_
_atom_site_label
_atom_site_type_symbol
_atom_site_fract_x
_atom_site_fract_y
_atom_site_fract_z
_atom_site_U_iso_or_equiv
_atom_site_adp_type
_atom_site_occupancy
_atom_site_site_symmetry_order
_atom_site_calc_flag
_atom_site_refinement_flags_posn
_atom_site_refinement_flags_adp
_atom_site_refinement_flags_occupancy
_atom_site_disorder_assembly
_atom_site_disorder_group
Zn1 Zn 0.13343(6) 0.15948(5) 0.11836(5) 0.0409(3) Uani 1 1 d . . . . .
Zn2 Zn 0.10895(6) 0.14140(5) -0.02352(5) 0.0400(3) Uani 1 1 d . . . . .
Zn3 Zn 0.13095(6) 0.28848(5) -0.01707(5) 0.0401(3) Uani 1 1 d . . . . .
Zn4 Zn 0.28048(6) 0.14835(5) -0.02233(5) 0.0384(3) Uani 1 1 d . . . . .
Zn5 Zn 0.54245(6) -0.27499(5) 0.54132(5) 0.0504(3) Uani 1 1 d . . . . .
Zn6 Zn 0.69367(6) -0.29236(5) 0.41061(5) 0.0474(3) Uani 1 1 d . . . . .
Zn7 Zn 0.72328(7) -0.27588(5) 0.54690(5) 0.0571(4) Uani 1 1 d . . . . .
Zn8 Zn 0.69018(6) -0.42072(5) 0.54067(5) 0.0478(3) Uani 1 1 d . . . . .
O1 O 0.1621(3) 0.1835(3) 0.0135(3) 0.0359(14) Uani 1 1 d . . . . .
O2 O 0.1074(5) 0.1351(5) 0.2285(5) 0.1391(12) Uani 1 1 d . . . . .
O3 O 0.0420(4) 0.1117(4) 0.1352(4) 0.082(2) Uani 1 1 d . . . . .
O4 O 0.0539(4) 0.0709(3) 0.0414(4) 0.0565(18) Uani 1 1 d . . . . .
C1 C 0.0327(5) 0.0673(5) 0.1067(6) 0.060(3) Uani 1 1 d . . . . .
C2 C -0.0119(5) 0.0126(5) 0.1543(5) 0.054(3) Uani 1 1 d . . . . .
C3 C -0.0463(6) 0.0169(5) 0.2224(5) 0.066(3) Uani 1 1 d . . . . .
H3 H -0.0412 0.0534 0.2394 0.079 Uiso 1 1 calc R U . . .
C4 C -0.0901(6) -0.0347(6) 0.2677(5) 0.059(3) Uani 1 1 d . . . . .
C5 C -0.1301(6) -0.0324(6) 0.3399(6) 0.081(4) Uani 1 1 d . . . . .
H5 H -0.1276 0.0040 0.3586 0.097 Uiso 1 1 calc R U . . .
C6 C -0.1713(7) -0.0822(6) 0.3810(6) 0.087(4) Uani 1 1 d . . . . .
H6 H -0.1988 -0.0794 0.4281 0.104 Uiso 1 1 calc R U . . .
C7 C -0.1738(6) -0.1386(5) 0.3547(5) 0.056(3) Uani 1 1 d . . . . .
C8 C -0.1326(5) -0.1428(5) 0.2862(5) 0.058(3) Uani 1 1 d . . . . .
H8 H -0.1327 -0.1815 0.2691 0.070 Uiso 1 1 calc R U . . .
C9 C -0.0908(5) -0.0918(5) 0.2415(5) 0.047(2) Uani 1 1 d . . . . .
C10 C -0.0515(5) -0.0947(5) 0.1699(5) 0.052(3) Uani 1 1 d . . . . .
H10 H -0.0520 -0.1324 0.1517 0.063 Uiso 1 1 calc R U . . .
C11 C -0.0133(5) -0.0422(5) 0.1283(5) 0.050(2) Uani 1 1 d . . . . .
H11 H 0.0128 -0.0435 0.0807 0.060 Uiso 1 1 calc R U . . .
C12 C -0.2234(7) -0.1908(6) 0.3994(7) 0.076(4) Uani 1 1 d . . . . .
O5 O -0.2514(5) -0.1924(4) 0.4597(4) 0.100(3) Uani 1 1 d . . . . .
O6 O -0.2328(4) -0.2315(3) 0.3674(3) 0.067(2) Uani 1 1 d . . . . .
O7 O 0.0288(4) 0.2144(3) -0.0728(3) 0.065(2) Uani 1 1 d . . . . .
O8 O 0.0599(4) 0.3165(3) -0.0810(4) 0.080(2) Uani 1 1 d . . . . .
C13 C 0.0227(6) 0.2810(6) -0.0958(5) 0.062(3) Uani 1 1 d . . . . .
C14 C -0.0372(6) 0.3302(5) -0.1407(5) 0.059(3) Uani 1 1 d . . . . .
C15 C -0.0800(7) 0.2967(6) -0.1601(6) 0.079(3) Uani 1 1 d . . . . .
H15 H -0.0738 0.2454 -0.1436 0.095 Uiso 1 1 calc R U . . .
C16 C -0.1304(6) 0.3381(6) -0.2029(5) 0.079(4) Uani 1 1 d . . . . .
H16 H -0.1601 0.3153 -0.2155 0.095 Uiso 1 1 calc R U . . .
C17 C -0.1396(6) 0.4126(6) -0.2287(5) 0.066(3) Uani 1 1 d . . . . .
C18 C -0.1874(6) 0.4552(6) -0.2754(5) 0.091(4) Uani 1 1 d . . . . .
H18 H -0.2158 0.4335 -0.2907 0.110 Uiso 1 1 calc R U . . .
C19 C -0.1935(7) 0.5281(7) -0.2993(5) 0.086(4) Uani 1 1 d . . . . .
C20 C -0.1431(10) 0.5620(7) -0.2798(7) 0.129(6) Uani 1 1 d . . . . .
H20 H -0.1428 0.6117 -0.3001 0.155 Uiso 1 1 calc R U . . .
C21 C -0.0988(9) 0.5200(7) -0.2330(7) 0.142(7) Uani 1 1 d . . . . .
H21 H -0.0702 0.5410 -0.2173 0.171 Uiso 1 1 calc R U . . .
C22 C -0.0949(8) 0.4457(6) -0.2075(6) 0.089(4) Uani 1 1 d . . . . .
C23 C -0.0435(7) 0.4019(6) -0.1628(6) 0.097(4) Uani 1 1 d . . . . .
H23 H -0.0135 0.4230 -0.1485 0.116 Uiso 1 1 calc R U . . .
C24 C -0.2426(8) 0.5736(8) -0.3548(7) 0.090(4) Uiso 1 1 d . . . . .
O9 O -0.2540(5) 0.5340(5) -0.3884(4) 0.117(3) Uani 1 1 d . . . . .
O10 O -0.2575(6) 0.6409(5) -0.3664(4) 0.150(5) Uani 1 1 d . . . . .
O11 O 0.2227(4) 0.3267(3) -0.0744(3) 0.063(2) Uani 1 1 d . . . . .
O12 O 0.3335(3) 0.2259(3) -0.0732(3) 0.0527(17) Uani 1 1 d . . . . .
C25 C 0.2962(6) 0.2945(5) -0.0939(5) 0.058(3) Uani 1 1 d . . . . .
C26 C 0.3534(6) 0.3399(6) -0.1444(5) 0.071(3) Uani 1 1 d . . . . .
C27 C 0.3182(6) 0.4155(5) -0.1740(5) 0.069(3) Uani 1 1 d . . . . .
H27 H 0.2604 0.4369 -0.1583 0.083 Uiso 1 1 calc R U . . .
C28 C 0.3644(6) 0.4576(5) -0.2234(4) 0.054(3) Uani 1 1 d . . . . .
C29 C 0.3287(6) 0.5317(5) -0.2478(5) 0.079(4) Uani 1 1 d . . . . .
H29 H 0.2718 0.5543 -0.2297 0.095 Uiso 1 1 calc R U . . .
C30 C 0.3778(6) 0.5705(5) -0.2983(6) 0.081(4) Uani 1 1 d . . . . .
H30 H 0.3542 0.6215 -0.3145 0.098 Uiso 1 1 calc R U . . .
C31 C 0.4615(6) 0.5396(5) -0.3279(5) 0.065(3) Uani 1 1 d . . . . .
C32 C 0.4957(6) 0.4676(5) -0.3046(5) 0.074(3) Uani 1 1 d . . . . .
H32 H 0.5517 0.4453 -0.3258 0.089 Uiso 1 1 calc R U . . .
C33 C 0.4504(6) 0.4254(5) -0.2501(5) 0.058(3) Uani 1 1 d . . . . .
C34 C 0.4835(6) 0.3506(5) -0.2221(6) 0.088(4) Uani 1 1 d . . . . .
H34 H 0.5408 0.3293 -0.2395 0.105 Uiso 1 1 calc R U . . .
C35 C 0.4407(6) 0.3076(6) -0.1731(6) 0.086(4) Uani 1 1 d . . . . .
H35 H 0.4665 0.2571 -0.1572 0.103 Uiso 1 1 calc R U . . .
C36 C 0.5157(7) 0.5834(5) -0.3836(5) 0.065(3) Uani 1 1 d . . . . .
O13 O 0.4817(4) 0.6541(3) -0.3984(3) 0.065(2) Uani 1 1 d . . . . .
O14 O 0.5875(4) 0.5512(3) -0.4114(3) 0.068(2) Uani 1 1 d . . . . .
O15 O 0.0424(4) 0.2592(3) 0.1342(3) 0.066(2) Uani 1 1 d . . . . .
O16 O 0.0673(3) 0.3532(3) 0.0444(3) 0.0472(16) Uani 1 1 d . . . . .
C37 C 0.0336(6) 0.3260(5) 0.1073(5) 0.054(3) Uani 1 1 d . . . . .
C38 C -0.0229(5) 0.3777(5) 0.1539(5) 0.054(3) Uani 1 1 d . . . . .
C39 C -0.0501(5) 0.3535(5) 0.2235(5) 0.059(3) Uani 1 1 d . . . . .
H39 H -0.0339 0.3023 0.2433 0.070 Uiso 1 1 calc R U . . .
C40 C -0.1016(6) 0.4021(4) 0.2674(4) 0.053(3) Uani 1 1 d . . . . .
C41 C -0.1271(6) 0.3790(4) 0.3396(5) 0.071(3) Uani 1 1 d . . . . .
H41 H -0.1091 0.3283 0.3603 0.086 Uiso 1 1 calc R U . . .
C42 C -0.1771(6) 0.4269(4) 0.3816(5) 0.080(4) Uani 1 1 d . . . . .
H42 H -0.1986 0.4093 0.4300 0.096 Uiso 1 1 calc R U . . .
C43 C -0.1962(5) 0.5027(4) 0.3519(5) 0.055(3) Uani 1 1 d . . . . .
C44 C -0.1713(5) 0.5273(4) 0.2825(4) 0.050(3) Uani 1 1 d . . . . .
H44 H -0.1879 0.5785 0.2631 0.060 Uiso 1 1 calc R U . . .
C45 C -0.1213(5) 0.4789(4) 0.2381(4) 0.043(2) Uani 1 1 d . . . . .
C46 C -0.0905(6) 0.5019(4) 0.1671(5) 0.068(3) Uani 1 1 d . . . . .
H46 H -0.1036 0.5531 0.1471 0.081 Uiso 1 1 calc R U . . .
C47 C -0.0420(6) 0.4544(5) 0.1241(4) 0.055(3) Uani 1 1 d . . . . .
H47 H -0.0217 0.4724 0.0756 0.067 Uiso 1 1 calc R U . . .
C48 C -0.2414(6) 0.5560(5) 0.3970(5) 0.065(3) Uani 1 1 d . . . . .
O17 O -0.2629(4) 0.5285(3) 0.4632(3) 0.082(2) Uani 1 1 d . . . . .
O18 O -0.2575(3) 0.6236(3) 0.3688(3) 0.0548(18) Uani 1 1 d . . . . .
O19 O 0.2264(4) 0.0588(3) 0.1219(3) 0.064(2) Uani 1 1 d . . . . .
O20 O 0.3431(4) 0.0725(3) 0.0385(3) 0.0597(18) Uani 1 1 d . . . . .
C49 C 0.3000(7) 0.0420(5) 0.1005(5) 0.059(3) Uani 1 1 d . . . . .
C50 C 0.3544(6) -0.0155(5) 0.1449(4) 0.052(3) Uani 1 1 d . . . . .
C51 C 0.3187(6) -0.0283(5) 0.2147(5) 0.073(3) Uani 1 1 d . . . . .
H51 H 0.2620 -0.0046 0.2321 0.087 Uiso 1 1 calc R U . . .
C52 C 0.3685(5) -0.0786(5) 0.2625(4) 0.061(3) Uani 1 1 d . . . . .
C53 C 0.3340(7) -0.0940(7) 0.3374(5) 0.118(6) Uani 1 1 d . . . . .
H53 H 0.2767 -0.0739 0.3564 0.142 Uiso 1 1 calc R U . . .
C54 C 0.3823(6) -0.1360(6) 0.3792(5) 0.106(5) Uani 1 1 d . . . . .
H54 H 0.3609 -0.1429 0.4284 0.127 Uiso 1 1 calc R U . . .
C55 C 0.4658(6) -0.1704(5) 0.3506(5) 0.079(4) Uani 1 1 d . . . . .
C56 C 0.4997(6) -0.1612(4) 0.2816(4) 0.061(3) Uani 1 1 d . . . . .
H56 H 0.5560 -0.1862 0.2642 0.073 Uiso 1 1 calc R U . . .
C57 C 0.4519(5) -0.1149(4) 0.2357(4) 0.048(3) Uani 1 1 d . . . . .
C58 C 0.4859(5) -0.0975(4) 0.1606(4) 0.048(3) Uani 1 1 d . . . . .
H58 H 0.5417 -0.1216 0.1409 0.058 Uiso 1 1 calc R U . . .
C59 C 0.4388(6) -0.0476(5) 0.1187(4) 0.055(3) Uani 1 1 d . . . . .
H59 H 0.4634 -0.0338 0.0703 0.066 Uiso 1 1 calc R U . . .
C60 C 0.5213(6) -0.2151(5) 0.4010(5) 0.066(3) Uani 1 1 d . . . . .
O21 O 0.4863(4) -0.2233(3) 0.4655(3) 0.078(2) Uani 1 1 d . . . . .
O22 O 0.5953(4) -0.2411(3) 0.3737(3) 0.078(2) Uani 1 1 d . . . . .
O23 O 0.6595(3) -0.3150(2) 0.5116(3) 0.0449(16) Uani 1 1 d . . . . .
O24 O 0.5091(4) -0.2053(3) 0.5988(4) 0.071(2) Uani 1 1 d . . . . .
O25 O 0.6321(4) -0.2033(3) 0.6024(3) 0.063(2) Uani 1 1 d . . . . .
C61 C 0.5538(8) -0.1859(5) 0.6203(5) 0.065(4) Uani 1 1 d . . . . .
C62 C 0.5105(7) -0.1341(5) 0.6699(5) 0.064(3) Uani 1 1 d . . . . .
C63 C 0.4294(7) -0.1223(5) 0.6973(5) 0.082(4) Uani 1 1 d . . . . .
H63 H 0.4006 -0.1471 0.6863 0.099 Uiso 1 1 calc R U . . .
C64 C 0.3848(7) -0.0728(5) 0.7432(5) 0.062(3) Uani 1 1 d . . . . .
C65 C 0.3006(6) -0.0616(5) 0.7763(6) 0.079(3) Uani 1 1 d . . . . .
H65 H 0.2704 -0.0869 0.7676 0.094 Uiso 1 1 calc R U . . .
C66 C 0.2615(6) -0.0155(5) 0.8206(5) 0.063(3) Uani 1 1 d . . . . .
H66 H 0.2042 -0.0083 0.8426 0.076 Uiso 1 1 calc R U . . .
C67 C 0.3070(7) 0.0220(5) 0.8339(5) 0.066(3) Uani 1 1 d . . . . .
C68 C 0.3916(7) 0.0105(5) 0.8070(5) 0.072(3) Uani 1 1 d . . . . .
H68 H 0.4207 0.0332 0.8202 0.087 Uiso 1 1 calc R U . . .
C69 C 0.4346(7) -0.0375(5) 0.7579(5) 0.074(4) Uani 1 1 d . . . . .
C70 C 0.5146(7) -0.0498(6) 0.7266(6) 0.103(5) Uani 1 1 d . . . . .
H70 H 0.5462 -0.0255 0.7349 0.124 Uiso 1 1 calc R U . . .
C71 C 0.5531(7) -0.0985(6) 0.6815(6) 0.085(4) Uani 1 1 d . . . . .
H71 H 0.6103 -0.1062 0.6589 0.102 Uiso 1 1 calc R U . . .
C72 C 0.2633(7) 0.0727(5) 0.8847(5) 0.051(3) Uani 1 1 d . . . . .
O26 O 0.1863(4) 0.0829(3) 0.9080(3) 0.0627(19) Uani 1 1 d . . . . .
O27 O 0.3093(4) 0.0975(3) 0.9005(3) 0.0610(19) Uani 1 1 d . . . . .
O28 O 0.2284(6) 0.2071(5) 0.1068(5) 0.1391(12) Uani 1 1 d . . . . .
N1 N 0.2942(8) 0.2399(6) 0.1622(7) 0.1391(12) Uani 1 1 d . . . . .
C73 C 0.2304(10) 0.2268(8) 0.1542(9) 0.1391(12) Uani 1 1 d . . . . .
H73 H 0.1810 0.2339 0.1904 0.167 Uiso 1 1 calc R U . . .
C74 C 0.2982(8) 0.2624(7) 0.2212(7) 0.1391(12) Uani 1 1 d . . . . .
H74A H 0.2615 0.3121 0.2228 0.209 Uiso 1 1 calc R U . . .
H74B H 0.3550 0.2616 0.2154 0.209 Uiso 1 1 calc R U . . .
H74C H 0.2806 0.2283 0.2647 0.209 Uiso 1 1 calc R U . . .
C75 C 0.3749(8) 0.2075(7) 0.1164(7) 0.1391(12) Uani 1 1 d . . . . .
H75A H 0.3809 0.1559 0.1202 0.209 Uiso 1 1 calc R U . . .
H75B H 0.4199 0.2109 0.1309 0.209 Uiso 1 1 calc R U . . .
H75C H 0.3773 0.2345 0.0679 0.209 Uiso 1 1 calc R U . . .
O29 O 0.8127(6) -0.2454(5) 0.5759(5) 0.1391(12) Uani 1 1 d . . . . .
N2 N 0.8595(8) -0.1592(7) 0.5946(7) 0.1391(12) Uani 1 1 d . . . . .
C76 C 0.8057(9) -0.1805(8) 0.5791(8) 0.1391(12) Uani 1 1 d . . . . .
H76 H 0.7573 -0.1434 0.5695 0.167 Uiso 1 1 calc R U . . .
C77 C 0.8419(8) -0.0837(7) 0.5995(7) 0.1391(12) Uani 1 1 d . . . . .
H77A H 0.8134 -0.0502 0.5639 0.209 Uiso 1 1 calc R U . . .
H77B H 0.8938 -0.0730 0.5920 0.209 Uiso 1 1 calc R U . . .
H77C H 0.8067 -0.0773 0.6458 0.209 Uiso 1 1 calc R U . . .
C78 C 0.9266(8) -0.2189(7) 0.6188(7) 0.1391(12) Uani 1 1 d . . . . .
H78A H 0.9037 -0.2555 0.6567 0.209 Uiso 1 1 calc R U . . .
H78B H 0.9575 -0.1994 0.6358 0.209 Uiso 1 1 calc R U . . .
H78C H 0.9637 -0.2421 0.5801 0.209 Uiso 1 1 calc R U . . .
O30 O 0.8357(6) -0.3509(5) 0.4869(5) 0.1391(12) Uani 1 1 d . . . . .
N3 N 0.9748(7) -0.3797(6) 0.4289(7) 0.1391(12) Uani 1 1 d D . . . .
C79 C 0.9068(9) -0.3504(8) 0.4824(8) 0.1391(12) Uani 1 1 d . . . . .
H79 H 0.9158 -0.3308 0.5143 0.167 Uiso 1 1 calc R U . . .
C80 C 1.0605(8) -0.3772(7) 0.4316(7) 0.1391(12) Uani 1 1 d D . . . .
H80A H 1.0907 -0.3576 0.3846 0.209 Uiso 1 1 calc R U . . .
H80B H 1.0929 -0.4270 0.4492 0.209 Uiso 1 1 calc R U . . .
H80C H 1.0513 -0.3456 0.4627 0.209 Uiso 1 1 calc R U . . .
C81 C 0.9533(8) -0.4154(7) 0.3869(7) 0.1391(12) Uani 1 1 d . . . . .
H81A H 0.9360 -0.4586 0.4172 0.209 Uiso 1 1 calc R U . . .
H81B H 1.0017 -0.4303 0.3494 0.209 Uiso 1 1 calc R U . . .
H81C H 0.9080 -0.3804 0.3668 0.209 Uiso 1 1 calc R U . . .

loop_
_atom_site_aniso_label
_atom_site_aniso_U_11
_atom_site_aniso_U_22
_atom_site_aniso_U_33
_atom_site_aniso_U_23
_atom_site_aniso_U_13
_atom_site_aniso_U_12
Zn1 0.0506(7) 0.0426(6) 0.0302(6) -0.0139(4) 0.0011(5) -0.0196(5)
Zn2 0.0383(6) 0.0404(6) 0.0392(6) -0.0208(5) -0.0082(5) 0.0002(5)
Zn3 0.0412(6) 0.0405(6) 0.0346(6) -0.0166(5) -0.0021(5) -0.0066(5)
Zn4 0.0372(6) 0.0402(6) 0.0286(5) -0.0089(4) -0.0035(5) -0.0037(5)
Zn5 0.0619(7) 0.0335(6) 0.0246(5) -0.0048(4) 0.0025(5) 0.0085(5)
Zn