####################################################################### 
# 
# This file contains crystal structure data downloaded from the 
# Cambridge Structural Database (CSD) hosted by the Cambridge 
# Crystallographic Data Centre (CCDC).
# 
# Full information about CCDC data access policies and citation 
# guidelines are available at http://www.ccdc.cam.ac.uk/access/V1 
# 
# Audit and citation data items may have been added by the CCDC. 
# Please retain this information to preserve the provenance of 
# this file and to allow appropriate attribution of the data. 
# 
#######################################################################

data_complex1
_audit_block_doi                 10.5517/cc14163h
_database_code_depnum_ccdc_archive 'CCDC 1043835'
_audit_update_record             
;
2015-01-16 deposited with the CCDC.	2024-07-13 downloaded from the CCDC.
;

_audit_creation_method           SHELXL-97
_chemical_name_systematic        
; 
 ? 
;
_chemical_name_common            ?
_chemical_melting_point          ?
_chemical_formula_moiety         ?
_chemical_formula_sum            'C35 H37 N3 O8 Zn'
_chemical_formula_weight         693.05

loop_
_atom_type_symbol
_atom_type_description
_atom_type_scat_dispersion_real
_atom_type_scat_dispersion_imag
_atom_type_scat_source
C C 0.0033 0.0016 'International Tables Vol C Tables 4.2.6.8 and 6.1.1.4'
H H 0.0000 0.0000 'International Tables Vol C Tables 4.2.6.8 and 6.1.1.4'
N N 0.0061 0.0033 'International Tables Vol C Tables 4.2.6.8 and 6.1.1.4'
O O 0.0106 0.0060 'International Tables Vol C Tables 4.2.6.8 and 6.1.1.4'
Zn Zn 0.2839 1.4301 'International Tables Vol C Tables 4.2.6.8 and 6.1.1.4'

_symmetry_cell_setting           Monoclinic
_symmetry_space_group_name_H-M   'P2(1)/n  '

loop_
_symmetry_equiv_pos_as_xyz
'x, y, z'
'-x+1/2, y+1/2, -z+1/2'
'-x, -y, -z'
'x-1/2, -y-1/2, z-1/2'

_cell_length_a                   14.0797(7)
_cell_length_b                   9.0269(3)
_cell_length_c                   27.4319(12)
_cell_angle_alpha                90.00
_cell_angle_beta                 91.187(5)
_cell_angle_gamma                90.00
_cell_volume                     3485.7(3)
_cell_formula_units_Z            4
_cell_measurement_temperature    301(2)
_cell_measurement_reflns_used    3111
_cell_measurement_theta_min      3.5120
_cell_measurement_theta_max      23.7880

_exptl_crystal_description       block
_exptl_crystal_colour            colorless
_exptl_crystal_size_max          0.20
_exptl_crystal_size_mid          0.15
_exptl_crystal_size_min          0.15
_exptl_crystal_density_meas      ?
_exptl_crystal_density_diffrn    1.321
_exptl_crystal_density_method    'not measured'
_exptl_crystal_F_000             1448
_exptl_absorpt_coefficient_mu    0.758
_exptl_absorpt_correction_type   ?
_exptl_absorpt_correction_T_min  0.8632
_exptl_absorpt_correction_T_max  0.8948
_exptl_absorpt_process_details   ?

_exptl_special_details           
; 
 ? 
;

_diffrn_ambient_temperature      301(2)
_diffrn_radiation_wavelength     0.71073
_diffrn_radiation_type           MoK\a
_diffrn_radiation_source         'fine-focus sealed tube'
_diffrn_radiation_monochromator  graphite
_diffrn_measurement_device_type  'Xcalibur, Eos, Gemini ultra'
_diffrn_measurement_method       ?
_diffrn_detector_area_resol_mean ?
_diffrn_standards_number         ?
_diffrn_standards_interval_count ?
_diffrn_standards_interval_time  ?
_diffrn_standards_decay_%        ?
_diffrn_reflns_number            16478
_diffrn_reflns_av_R_equivalents  0.0664
_diffrn_reflns_av_sigmaI/netI    0.0821
_diffrn_reflns_limit_h_min       -16
_diffrn_reflns_limit_h_max       15
_diffrn_reflns_limit_k_min       -10
_diffrn_reflns_limit_k_max       10
_diffrn_reflns_limit_l_min       -32
_diffrn_reflns_limit_l_max       32
_diffrn_reflns_theta_min         2.97
_diffrn_reflns_theta_max         25.00
_reflns_number_total             6128
_reflns_number_gt                4096
_reflns_threshold_expression     >2sigma(I)

_computing_data_collection       CrysAlisPro
_computing_cell_refinement       CrysAlisPro
_computing_data_reduction        CrysAlisPro
_computing_structure_solution    'SHELXS-97 (Sheldrick, 1990)'
_computing_structure_refinement  'SHELXL-97 (Sheldrick, 1997)'
_computing_molecular_graphics    'SHELXL-97 (Sheldrick, 1997)'
_computing_publication_material  'SHELXL-97 (Sheldrick, 1997)'

_refine_special_details          
; 
 Refinement of F^2^ against ALL reflections.  The weighted R-factor wR and 
 goodness of fit S are based on F^2^, conventional R-factors R are based 
 on F, with F set to zero for negative F^2^. The threshold expression of 
 F^2^ > 2sigma(F^2^) is used only for calculating R-factors(gt) etc. and is 
 not relevant to the choice of reflections for refinement.  R-factors based 
 on F^2^ are statistically about twice as large as those based on F, and R- 
 factors based on ALL data will be even larger. 
;

_refine_ls_structure_factor_coef Fsqd
_refine_ls_matrix_type           full
_refine_ls_weighting_scheme      calc
_refine_ls_weighting_details     
'calc w=1/[\s^2^(Fo^2^)+(0.0694P)^2^+0.0000P] where P=(Fo^2^+2Fc^2^)/3'
_atom_sites_solution_primary     direct
_atom_sites_solution_secondary   difmap
_atom_sites_solution_hydrogens   geom
_refine_ls_hydrogen_treatment    mixed
_refine_ls_extinction_method     none
_refine_ls_extinction_coef       ?
_refine_ls_number_reflns         6128
_refine_ls_number_parameters     424
_refine_ls_number_restraints     0
_refine_ls_R_factor_all          0.1024
_refine_ls_R_factor_gt           0.0613
_refine_ls_wR_factor_ref         0.1584
_refine_ls_wR_factor_gt          0.1362
_refine_ls_goodness_of_fit_ref   1.062
_refine_ls_restrained_S_all      1.062
_refine_ls_shift/su_max          0.001
_refine_ls_shift/su_mean         0.000

loop_
_atom_site_label
_atom_site_type_symbol
_atom_site_fract_x
_atom_site_fract_y
_atom_site_fract_z
_atom_site_U_iso_or_equiv
_atom_site_adp_type
_atom_site_occupancy
_atom_site_symmetry_multiplicity
_atom_site_calc_flag
_atom_site_refinement_flags
_atom_site_disorder_assembly
_atom_site_disorder_group
Zn1 Zn 1.91945(4) -0.77891(5) 0.161902(18) 0.03840(19) Uani 1 1 d . . .
C1 C 2.0002(4) -0.5794(5) 0.23561(17) 0.0488(12) Uani 1 1 d . . .
N1 N 1.8236(3) -1.1876(4) 0.21332(17) 0.0557(11) Uani 1 1 d . . .
O1 O 1.9384(3) -0.6725(4) 0.22304(12) 0.0605(9) Uani 1 1 d . . .
N2 N 1.8570(6) 0.0086(8) 0.7189(3) 0.130(3) Uani 1 1 d . . .
O2 O 2.0646(3) -0.5329(5) 0.21090(14) 0.0943(14) Uani 1 1 d . . .
C2 C 1.9910(3) -0.5221(5) 0.28765(15) 0.0415(11) Uani 1 1 d . . .
O3 O 2.4135(3) 0.0465(4) 0.59453(17) 0.0850(13) Uani 1 1 d . . .
C3 C 2.0426(4) -0.4018(5) 0.30412(16) 0.0512(12) Uani 1 1 d . . .
H3A H 2.0849 -0.3552 0.2835 0.061 Uiso 1 1 calc R . .
N3 N 2.6042(3) 0.0153(4) 0.60844(16) 0.0630(12) Uani 1 1 d . . .
H3B H 2.5452 0.0507 0.6128 0.076 Uiso 1 1 calc R . .
H3C H 2.6428 0.0582 0.6308 0.076 Uiso 1 1 calc R . .
C4 C 2.0318(3) -0.3496(5) 0.35130(16) 0.0468(12) Uani 1 1 d . . .
H4A H 2.0672 -0.2682 0.3618 0.056 Uiso 1 1 calc R . .
O4 O 2.3086(2) 0.1884(3) 0.62937(12) 0.0568(9) Uani 1 1 d . . .
C5 C 1.9697(3) -0.4157(4) 0.38318(15) 0.0377(10) Uani 1 1 d . . .
O5 O 1.5405(2) -0.6630(3) 0.63402(12) 0.0588(9) Uani 1 1 d . . .
C6 C 1.9204(4) -0.5398(5) 0.36649(16) 0.0501(12) Uani 1 1 d . . .
H6A H 1.8802 -0.5902 0.3873 0.060 Uiso 1 1 calc R . .
O6 O 1.4471(3) -0.5172(5) 0.58903(14) 0.0792(12) Uani 1 1 d . . .
C7 C 1.9307(4) -0.5888(5) 0.31898(17) 0.0519(13) Uani 1 1 d . . .
H7A H 1.8953 -0.6698 0.3082 0.062 Uiso 1 1 calc R . .
O7 O 1.8667(2) -0.9533(3) 0.19957(12) 0.0604(9) Uani 1 1 d . . .
O8 O 1.7818(5) 0.0814(9) 0.6511(3) 0.173(3) Uani 1 1 d . . .
C8 C 1.9602(3) -0.3628(4) 0.43452(14) 0.0361(10) Uani 1 1 d . . .
C9 C 2.0335(3) -0.2917(4) 0.45979(15) 0.0380(10) Uani 1 1 d . . .
H9A H 2.0905 -0.2744 0.4442 0.046 Uiso 1 1 calc R . .
C10 C 2.0236(3) -0.2458(4) 0.50774(15) 0.0364(10) Uani 1 1 d . . .
C11 C 1.9392(3) -0.2752(4) 0.53146(15) 0.0398(10) Uani 1 1 d . . .
H11A H 1.9322 -0.2458 0.5637 0.048 Uiso 1 1 calc R . .
C12 C 1.8646(3) -0.3489(4) 0.50697(15) 0.0381(10) Uani 1 1 d . . .
C13 C 1.8759(3) -0.3881(4) 0.45857(15) 0.0399(10) Uani 1 1 d . . .
H13A H 1.8255 -0.4328 0.4417 0.048 Uiso 1 1 calc R . .
C14 C 2.1025(3) -0.1653(4) 0.53342(15) 0.0380(10) Uani 1 1 d . . .
C15 C 2.0845(3) -0.0467(4) 0.56409(16) 0.0413(11) Uani 1 1 d . . .
H15A H 2.0219 -0.0191 0.5695 0.050 Uiso 1 1 calc R . .
C16 C 2.1573(3) 0.0313(4) 0.58672(16) 0.0433(11) Uani 1 1 d . . .
H16A H 2.1430 0.1090 0.6076 0.052 Uiso 1 1 calc R . .
C17 C 2.2509(3) -0.0044(4) 0.57883(16) 0.0425(11) Uani 1 1 d . . .
C18 C 2.2697(3) -0.1266(5) 0.54966(17) 0.0531(13) Uani 1 1 d . . .
H18A H 2.3323 -0.1562 0.5455 0.064 Uiso 1 1 calc R . .
C19 C 2.1967(3) -0.2052(5) 0.52669(17) 0.0506(12) Uani 1 1 d . . .
H19A H 2.2110 -0.2851 0.5067 0.061 Uiso 1 1 calc R . .
C20 C 2.3315(4) 0.0815(5) 0.60224(18) 0.0489(12) Uani 1 1 d . . .
C21 C 1.7762(3) -0.3921(4) 0.53261(15) 0.0386(10) Uani 1 1 d . . .
C22 C 1.7825(3) -0.4596(5) 0.57827(16) 0.0456(11) Uani 1 1 d . . .
H22A H 1.8411 -0.4657 0.5945 0.055 Uiso 1 1 calc R . .
C23 C 1.7022(3) -0.5179(5) 0.59979(17) 0.0468(12) Uani 1 1 d . . .
H23A H 1.7079 -0.5660 0.6297 0.056 Uiso 1 1 calc R . .
C24 C 1.6147(3) -0.5054(5) 0.57754(17) 0.0457(12) Uani 1 1 d . . .
C25 C 1.6068(4) -0.4324(5) 0.53319(17) 0.0529(13) Uani 1 1 d . . .
H25A H 1.5472 -0.4185 0.5186 0.064 Uiso 1 1 calc R . .
C26 C 1.6874(3) -0.3799(5) 0.51041(16) 0.0492(12) Uani 1 1 d . . .
H26A H 1.6816 -0.3360 0.4798 0.059 Uiso 1 1 calc R . .
C27 C 1.5265(4) -0.5640(5) 0.60085(17) 0.0515(13) Uani 1 1 d . . .
C28 C 1.8689(10) 0.0048(17) 0.7690(4) 0.262(8) Uani 1 1 d . . .
H28A H 1.8149 0.0492 0.7839 0.393 Uiso 1 1 calc R . .
H28B H 1.9253 0.0586 0.7782 0.393 Uiso 1 1 calc R . .
H28C H 1.8749 -0.0962 0.7796 0.393 Uiso 1 1 calc R . .
C29 C 1.9320(10) -0.0631(13) 0.6895(6) 0.247(8) Uani 1 1 d . . .
H29A H 1.9130 -0.0623 0.6557 0.371 Uiso 1 1 calc R . .
H29B H 1.9408 -0.1636 0.7002 0.371 Uiso 1 1 calc R . .
H29C H 1.9906 -0.0097 0.6937 0.371 Uiso 1 1 calc R . .
C30 C 1.7912(7) 0.0764(12) 0.6965(4) 0.149(4) Uani 1 1 d . . .
H30A H 1.7467 0.1262 0.7150 0.178 Uiso 1 1 calc R . .
C31 C 1.7988(5) -1.3327(6) 0.1922(3) 0.113(3) Uani 1 1 d . . .
H31A H 1.8047 -1.3288 0.1575 0.170 Uiso 1 1 calc R . .
H31B H 1.7345 -1.3571 0.2001 0.170 Uiso 1 1 calc R . .
H31C H 1.8409 -1.4068 0.2054 0.170 Uiso 1 1 calc R . .
C32 C 1.8197(5) -1.1761(6) 0.2654(2) 0.0809(18) Uani 1 1 d . . .
H32A H 1.8369 -1.0774 0.2752 0.121 Uiso 1 1 calc R . .
H32B H 1.8632 -1.2456 0.2800 0.121 Uiso 1 1 calc R . .
H32C H 1.7564 -1.1973 0.2757 0.121 Uiso 1 1 calc R . .
C33 C 1.8457(3) -1.0756(6) 0.1846(2) 0.0562(13) Uani 1 1 d . . .
H33A H 1.8451 -1.0915 0.1511 0.067 Uiso 1 1 calc R . .
C34 C 2.6347(6) 0.0582(9) 0.5604(3) 0.120(3) Uani 1 1 d . . .
H34A H 2.6333 0.1642 0.5576 0.180 Uiso 1 1 calc R . .
H34B H 2.5929 0.0156 0.5362 0.180 Uiso 1 1 calc R . .
H34C H 2.6983 0.0234 0.5556 0.180 Uiso 1 1 calc R . .
C35 C 2.6034(6) -0.1429(7) 0.6172(3) 0.121(3) Uani 1 1 d . . .
H35A H 2.5828 -0.1619 0.6497 0.182 Uiso 1 1 calc R . .
H35B H 2.6662 -0.1819 0.6133 0.182 Uiso 1 1 calc R . .
H35C H 2.5606 -0.1898 0.5943 0.182 Uiso 1 1 calc R . .

loop_
_atom_site_aniso_label
_atom_site_aniso_U_11
_atom_site_aniso_U_22
_atom_site_aniso_U_33
_atom_site_aniso_U_23
_atom_site_aniso_U_13
_atom_site_aniso_U_12
Zn1 0.0456(3) 0.0364(3) 0.0331(3) 0.0000(2) -0.0011(2) 0.0072(2)
C1 0.052(3) 0.056(3) 0.039(3) -0.006(2) 0.005(3) 0.002(3)
N1 0.058(3) 0.038(2) 0.071(3) 0.001(2) 0.013(2) -0.0010(19)
O1 0.066(2) 0.074(2) 0.0418(19) -0.0236(17) 0.0057(18) -0.010(2)
N2 0.117(6) 0.154(6) 0.119(6) 0.058(5) -0.042(5) -0.013(5)
O2 0.110(3) 0.124(3) 0.050(2) -0.028(2) 0.031(3) -0.052(3)
C2 0.047(3) 0.047(3) 0.031(2) -0.002(2) 0.002(2) 0.000(2)
O3 0.046(2) 0.093(3) 0.116(4) -0.033(3) -0.009(2) -0.014(2)
C3 0.061(3) 0.058(3) 0.035(2) 0.001(2) 0.011(2) -0.013(3)
N3 0.068(3) 0.066(3) 0.055(3) -0.011(2) 0.001(2) 0.012(2)
C4 0.058(3) 0.047(3) 0.035(2) -0.002(2) 0.001(2) -0.014(2)
O4 0.061(2) 0.063(2) 0.0463(19) -0.0082(17) -0.0065(18) -0.0190(17)
C5 0.043(3) 0.035(2) 0.035(2) -0.0025(19) 0.000(2) -0.007(2)
O5 0.071(2) 0.0534(19) 0.052(2) 0.0031(17) 0.0130(19) -0.0132(17)
C6 0.064(3) 0.051(3) 0.036(3) -0.005(2) 0.012(2) -0.022(2)
O6 0.054(3) 0.123(3) 0.060(2) 0.014(2) 0.001(2) -0.021(2)
C7 0.060(3) 0.053(3) 0.042(3) -0.016(2) 0.003(3) -0.014(2)
O7 0.077(3) 0.0446(19) 0.060(2) 0.0023(17) 0.006(2) -0.0078(18)
O8 0.125(5) 0.268(8) 0.124(5) 0.062(6) -0.049(5) -0.049(5)
C8 0.045(3) 0.035(2) 0.029(2) 0.0000(18) 0.004(2) -0.004(2)
C9 0.040(3) 0.036(2) 0.037(2) -0.0018(19) 0.005(2) -0.005(2)
C10 0.043(3) 0.033(2) 0.033(2) -0.0012(18) -0.002(2) -0.0081(19)
C11 0.049(3) 0.039(2) 0.031(2) -0.0037(19) 0.002(2) -0.006(2)
C12 0.042(3) 0.037(2) 0.035(2) -0.0008(19) -0.001(2) -0.008(2)
C13 0.044(3) 0.039(2) 0.036(2) -0.0040(19) -0.006(2) -0.013(2)
C14 0.046(3) 0.036(2) 0.032(2) 0.0000(19) 0.002(2) -0.007(2)
C15 0.036(3) 0.041(2) 0.047(3) -0.006(2) -0.003(2) 0.001(2)
C16 0.054(3) 0.036(2) 0.040(3) -0.009(2) -0.006(2) -0.002(2)
C17 0.047(3) 0.042(2) 0.038(2) 0.002(2) -0.002(2) -0.009(2)
C18 0.043(3) 0.065(3) 0.052(3) -0.009(3) 0.003(3) -0.010(2)
C19 0.050(3) 0.056(3) 0.045(3) -0.018(2) 0.006(2) -0.009(2)
C20 0.053(3) 0.049(3) 0.044(3) 0.005(2) -0.007(3) -0.016(2)
C21 0.049(3) 0.037(2) 0.030(2) -0.0050(18) 0.004(2) -0.009(2)
C22 0.047(3) 0.052(3) 0.038(2) 0.004(2) 0.002(2) 0.002(2)
C23 0.058(3) 0.046(3) 0.037(2) 0.010(2) 0.004(2) -0.005(2)
C24 0.052(3) 0.043(2) 0.042(3) -0.006(2) 0.004(2) -0.018(2)
C25 0.049(3) 0.071(3) 0.038(3) 0.002(2) -0.004(2) -0.024(3)
C26 0.057(3) 0.060(3) 0.030(2) 0.003(2) -0.002(2) -0.022(2)
C27 0.061(4) 0.057(3) 0.036(3) -0.008(2) 0.002(3) -0.024(3)
C28 0.284(17) 0.40(2) 0.095(8) 0.080(11) -0.051(10) 0.008(15)
C29 0.225(14) 0.188(11) 0.33(2) 0.050(13) 0.076(14) 0.096(11)
C30 0.105(7) 0.189(10) 0.150(10) 0.050(8) -0.044(7) -0.034(7)
C31 0.142(7) 0.048(3) 0.149(7) -0.025(4) -0.009(6) -0.014(4)
C32 0.101(5) 0.068(4) 0.075(4) 0.016(3) 0.018(4) 0.006(3)
C33 0.057(3) 0.058(3) 0.054(3) -0.005(3) 0.004(3) 0.000(3)
C34 0.143(7) 0.130(6) 0.089(5) 0.003(5) 0.050(5) 0.022(5)
C35 0.174(8) 0.062(4) 0.128(7) -0.002(4) 0.032(6) 0.026(5)

_geom_special_details            
; 
 All esds (except the esd in the dihedral angle between two l.s. planes) 
 are estimated using the full covariance matrix.  The cell esds are taken 
 into account individually in the estimation of esds in distances, angles 
 and torsion angles; correlations between esds in cell parameters are only 
 used when they are defined by crystal symmetry.  An approximate (isotropic) 
 treatment of cell esds is used for estimating esds involving l.s. planes. 
;

loop_
_geom_bond_atom_site_label_1
_geom_bond_atom_site_label_2
_geom_bond_distance
_geom_bond_site_symmetry_2
_geom_bond_publ_flag
Zn1 O1 1.946(3) . ?
Zn1 O5 1.954(3) 4_645 ?
Zn1 O4 1.960(3) 4 ?
Zn1 O7 2.032(3) . ?
C1 O2 1.218(6) . ?
C1 O1 1.253(5) . ?
C1 C2 1.527(6) . ?
N1 C33 1.323(6) . ?
N1 C32 1.433(7) . ?
N1 C31 1.470(7) . ?
N2 C30 1.259(10) . ?
N2 C28 1.379(11) . ?
N2 C29 1.491(13) . ?
C2 C7 1.361(6) . ?
C2 C3 1.377(6) . ?
O3 C20 1.219(6) . ?
C3 C4 1.389(6) . ?
N3 C34 1.448(7) . ?
N3 C35 1.448(7) . ?
C4 C5 1.384(6) . ?
O4 C20 1.265(6) . ?
O4 Zn1 1.960(3) 4_656 ?
C5 C6 1.390(6) . ?
C5 C8 1.496(6) . ?
O5 C27 1.288(6) . ?
O5 Zn1 1.954(3) 4_546 ?
C6 C7 1.387(6) . ?
O6 C27 1.232(6) . ?
O7 C33 1.212(5) . ?
O8 C30 1.252(11) . ?
C8 C9 1.388(6) . ?
C8 C13 1.389(6) . ?
C9 C10 1.389(6) . ?
C10 C11 1.392(6) . ?
C10 C14 1.492(6) . ?
C11 C12 1.403(6) . ?
C12 C13 1.386(6) . ?
C12 C21 1.495(6) . ?
C14 C15 1.388(6) . ?
C14 C19 1.391(6) . ?
C15 C16 1.381(6) . ?
C16 C17 1.378(6) . ?
C17 C18 1.392(6) . ?
C17 C20 1.507(6) . ?
C18 C19 1.389(6) . ?
C21 C26 1.383(6) . ?
C21 C22 1.394(6) . ?
C22 C23 1.391(6) . ?
C23 C24 1.367(6) . ?
C24 C25 1.386(6) . ?
C24 C27 1.505(6) . ?
C25 C26 1.391(6) . ?

loop_
_geom_angle_atom_site_label_1
_geom_angle_atom_site_label_2
_geom_angle_atom_site_label_3
_geom_angle
_geom_angle_site_symmetry_1
_geom_angle_site_symmetry_3
_geom_angle_publ_flag
O1 Zn1 O5 111.36(15) . 4_645 ?
O1 Zn1 O4 106.29(14) . 4 ?
O5 Zn1 O4 128.78(14) 4_645 4 ?
O1 Zn1 O7 89.38(14) . . ?
O5 Zn1 O7 108.80(13) 4_645 . ?
O4 Zn1 O7 104.97(15) 4 . ?
O2 C1 O1 126.8(5) . . ?
O2 C1 C2 118.8(5) . . ?
O1 C1 C2 114.4(4) . . ?
C33 N1 C32 123.5(4) . . ?
C33 N1 C31 120.2(5) . . ?
C32 N1 C31 116.3(5) . . ?
C1 O1 Zn1 130.6(3) . . ?
C30 N2 C28 124.8(12) . . ?
C30 N2 C29 117.9(10) . . ?
C28 N2 C29 117.1(10) . . ?
C7 C2 C3 118.2(4) . . ?
C7 C2 C1 120.4(4) . . ?
C3 C2 C1 121.3(4) . . ?
C2 C3 C4 120.4(4) . . ?
C34 N3 C35 114.7(5) . . ?
C5 C4 C3 121.7(4) . . ?
C20 O4 Zn1 112.1(3) . 4_656 ?
C4 C5 C6 117.2(4) . . ?
C4 C5 C8 121.8(4) . . ?
C6 C5 C8 120.9(4) . . ?
C27 O5 Zn1 109.9(3) . 4_546 ?
C7 C6 C5 120.3(4) . . ?
C2 C7 C6 122.1(4) . . ?
C33 O7 Zn1 128.5(3) . . ?
C9 C8 C13 118.2(4) . . ?
C9 C8 C5 122.5(4) . . ?
C13 C8 C5 119.3(4) . . ?
C8 C9 C10 121.5(4) . . ?
C9 C10 C11 119.3(4) . . ?
C9 C10 C14 120.3(4) . . ?
C11 C10 C14 120.4(4) . . ?
C10 C11 C12 120.3(4) . . ?
C13 C12 C11 118.7(4) . . ?
C13 C12 C21 119.8(4) . . ?
C11 C12 C21 121.4(4) . . ?
C12 C13 C8 121.9(4) . . ?
C15 C14 C19 117.9(4) . . ?
C15 C14 C10 121.2(4) . . ?
C19 C14 C10 120.9(4) . . ?
C16 C15 C14 121.5(4) . . ?
C17 C16 C15 120.9(4) . . ?
C16 C17 C18 118.0(4) . . ?
C16 C17 C20 121.8(4) . . ?
C18 C17 C20 120.1(4) . . ?
C19 C18 C17 121.2(4) . . ?
C18 C19 C14 120.4(4) . . ?
O3 C20 O4 123.6(5) . . ?
O3 C20 C17 120.0(5) . . ?
O4 C20 C17 116.4(5) . . ?
C26 C21 C22 118.1(4) . . ?
C26 C21 C12 121.7(4) . . ?
C22 C21 C12 119.9(4) . . ?
C23 C22 C21 120.6(4) . . ?
C24 C23 C22 120.8(4) . . ?
C23 C24 C25 119.2(4) . . ?
C23 C24 C27 121.6(4) . . ?
C25 C24 C27 119.2(5) . . ?
C24 C25 C26 120.3(5) . . ?
C21 C26 C25 120.9(4) . . ?
O6 C27 O5 123.3(5) . . ?
O6 C27 C24 121.3(5) . . ?
O5 C27 C24 115.4(5) . . ?
O8 C30 N2 124.4(12) . . ?
O7 C33 N1 123.6(5) . . ?

_diffrn_measured_fraction_theta_max 0.998
_diffrn_reflns_theta_full        25.00
_diffrn_measured_fraction_theta_full 0.998
_refine_diff_density_max         0.590
_refine_diff_density_min         -0.291
_refine_diff_density_rms         0.068
