####################################################################### 
# 
# This file contains crystal structure data downloaded from the 
# Cambridge Structural Database (CSD) hosted by the Cambridge 
# Crystallographic Data Centre (CCDC).
# 
# Full information about CCDC data access policies and citation 
# guidelines are available at http://www.ccdc.cam.ac.uk/access/V1 
# 
# Audit and citation data items may have been added by the CCDC. 
# Please retain this information to preserve the provenance of 
# this file and to allow appropriate attribution of the data. 
# 
#######################################################################

data_7
_audit_block_doi                 10.5517/cc11ndtx
_database_code_depnum_ccdc_archive 'CCDC 972929'
loop_
_citation_id
_citation_doi
_citation_year
1 10.1002/zaac.201400206 2014
_audit_update_record             
;
2013-11-20 deposited with the CCDC.	2024-07-13 downloaded from the CCDC.
;

_audit_creation_method           SHELXL-97
_chemical_name_systematic        
;
 ?
;
_chemical_name_common            ?
_chemical_melting_point          ?
_chemical_formula_moiety         ?
_chemical_formula_sum            'C66 H58 N12 Ni2 O13'
_chemical_formula_weight         1344.66

loop_
_atom_type_symbol
_atom_type_description
_atom_type_scat_dispersion_real
_atom_type_scat_dispersion_imag
_atom_type_scat_source
C C 0.0033 0.0016 'International Tables Vol C Tables 4.2.6.8 and 6.1.1.4'
H H 0.0000 0.0000 'International Tables Vol C Tables 4.2.6.8 and 6.1.1.4'
N N 0.0061 0.0033 'International Tables Vol C Tables 4.2.6.8 and 6.1.1.4'
O O 0.0106 0.0060 'International Tables Vol C Tables 4.2.6.8 and 6.1.1.4'
Ni Ni 0.3393 1.1124 'International Tables Vol C Tables 4.2.6.8 and 6.1.1.4'

_symmetry_cell_setting           Monoclinic
_symmetry_space_group_name_H-M   C2/c
_symmetry_space_group_name_Hall  '-C 2yc'

loop_
_symmetry_equiv_pos_as_xyz
'x, y, z'
'-x, y, -z+1/2'
'x+1/2, y+1/2, z'
'-x+1/2, y+1/2, -z+1/2'
'-x, -y, -z'
'x, -y, z-1/2'
'-x+1/2, -y+1/2, -z'
'x+1/2, -y+1/2, z-1/2'

_cell_length_a                   30.179(4)
_cell_length_b                   10.042(2)
_cell_length_c                   25.1780(15)
_cell_angle_alpha                90.00
_cell_angle_beta                 111.147(8)
_cell_angle_gamma                90.00
_cell_volume                     7117(2)
_cell_formula_units_Z            4
_cell_measurement_temperature    293(2)
_cell_measurement_reflns_used    ?
_cell_measurement_theta_min      ?
_cell_measurement_theta_max      ?

_exptl_crystal_description       ?
_exptl_crystal_colour            ?
_exptl_crystal_size_max          0.24
_exptl_crystal_size_mid          0.20
_exptl_crystal_size_min          0.18
_exptl_crystal_density_meas      ?
_exptl_crystal_density_diffrn    1.255
_exptl_crystal_density_method    'not measured'
_exptl_crystal_F_000             2792
_exptl_absorpt_coefficient_mu    0.595
_exptl_absorpt_correction_type   multi-scan
_exptl_absorpt_correction_T_min  0.8703
_exptl_absorpt_correction_T_max  0.9004
_exptl_absorpt_process_details   
;
CrysAlis (Oxford Diffraction, 2006)
;


_exptl_special_details           
;
 ?
;

_diffrn_ambient_temperature      293(2)
_diffrn_radiation_wavelength     0.71069
_diffrn_radiation_type           MoK\a
_diffrn_radiation_source         'fine-focus sealed tube'
_diffrn_radiation_monochromator  graphite
_diffrn_measurement_device_type  'Oxford Diffraction Gemini R Ultra'
_diffrn_measurement_method       '\w scan'
_diffrn_detector_area_resol_mean 10.0
_diffrn_standards_number         ?
_diffrn_standards_interval_count ?
_diffrn_standards_interval_time  ?
_diffrn_standards_decay_%        ?
_diffrn_reflns_number            13800
_diffrn_reflns_av_R_equivalents  0.0783
_diffrn_reflns_av_sigmaI/netI    0.1243
_diffrn_reflns_limit_h_min       -26
_diffrn_reflns_limit_h_max       35
_diffrn_reflns_limit_k_min       -11
_diffrn_reflns_limit_k_max       10
_diffrn_reflns_limit_l_min       -29
_diffrn_reflns_limit_l_max       29
_diffrn_reflns_theta_min         2.97
_diffrn_reflns_theta_max         25.02
_reflns_number_total             6177
_reflns_number_gt                3680
_reflns_threshold_expression     >2sigma(I)

_computing_data_collection       'CrysAlis (Oxford Diffraction, 2006)'
_computing_cell_refinement       CrysAlis
_computing_data_reduction        CrysAlis
_computing_structure_solution    'SHELXS-97 (Sheldrick, 1997)'
_computing_structure_refinement  'SHELXL-97 (Sheldrick, 1997)'
_computing_molecular_graphics    ?
_computing_publication_material  ?

_refine_special_details          
;
 Refinement of F^2^ against ALL reflections.  The weighted R-factor wR and
 goodness of fit S are based on F^2^, conventional R-factors R are based
 on F, with F set to zero for negative F^2^. The threshold expression of
 F^2^ > 2sigma(F^2^) is used only for calculating R-factors(gt) etc. and is
 not relevant to the choice of reflections for refinement.  R-factors based
 on F^2^ are statistically about twice as large as those based on F, and R-
 factors based on ALL data will be even larger.
;

_refine_ls_structure_factor_coef Fsqd
_refine_ls_matrix_type           full
_refine_ls_weighting_scheme      calc
_refine_ls_weighting_details     
'calc w=1/[\s^2^(Fo^2^)+(0.1035P)^2^+0.0000P] where P=(Fo^2^+2Fc^2^)/3'
_atom_sites_solution_primary     direct
_atom_sites_solution_secondary   difmap
_atom_sites_solution_hydrogens   geom
_refine_ls_hydrogen_treatment    mixed
_refine_ls_extinction_method     none
_refine_ls_extinction_coef       ?
_refine_ls_number_reflns         6177
_refine_ls_number_parameters     426
_refine_ls_number_restraints     4
_refine_ls_R_factor_all          0.1355
_refine_ls_R_factor_gt           0.0760
_refine_ls_wR_factor_ref         0.2101
_refine_ls_wR_factor_gt          0.1757
_refine_ls_goodness_of_fit_ref   0.997
_refine_ls_restrained_S_all      0.997
_refine_ls_shift/su_max          0.001
_refine_ls_shift/su_mean         0.000

loop_
_atom_site_label
_atom_site_type_symbol
_atom_site_fract_x
_atom_site_fract_y
_atom_site_fract_z
_atom_site_U_iso_or_equiv
_atom_site_adp_type
_atom_site_occupancy
_atom_site_symmetry_multiplicity
_atom_site_calc_flag
_atom_site_refinement_flags
_atom_site_disorder_assembly
_atom_site_disorder_group
Ni1 Ni 0.93817(2) 0.08902(6) 0.72877(3) 0.0296(2) Uani 1 1 d D . .
C1 C 0.9318(2) 0.7294(5) 0.3176(2) 0.0361(13) Uani 1 1 d . . .
C2 C 0.9007(2) 0.6681(5) 0.3465(2) 0.0374(14) Uani 1 1 d . . .
C3 C 0.8548(2) 0.7154(6) 0.3351(3) 0.0564(19) Uani 1 1 d . . .
H3 H 0.8439 0.7893 0.3118 0.068 Uiso 1 1 calc R . .
C4 C 0.8260(2) 0.6530(7) 0.3583(3) 0.066(2) Uani 1 1 d . . .
H4 H 0.7954 0.6852 0.3503 0.080 Uiso 1 1 calc R . .
C5 C 0.8407(2) 0.5456(7) 0.3927(3) 0.0573(18) Uani 1 1 d . . .
H5 H 0.8205 0.5044 0.4081 0.069 Uiso 1 1 calc R . .
C6 C 0.8867(2) 0.4978(6) 0.4047(2) 0.0411(14) Uani 1 1 d . . .
C7 C 0.9165(2) 0.5579(5) 0.3816(2) 0.0352(13) Uani 1 1 d . . .
H7 H 0.9470 0.5250 0.3895 0.042 Uiso 1 1 calc R . .
C8 C 0.9433(2) 0.3262(6) 0.4515(3) 0.0459(15) Uani 1 1 d . . .
H8A H 0.9684 0.3871 0.4725 0.055 Uiso 1 1 calc R . .
H8B H 0.9472 0.3041 0.4160 0.055 Uiso 1 1 calc R . .
C9 C 0.9458(2) 0.2015(5) 0.4860(2) 0.0394(14) Uani 1 1 d . . .
C10 C 0.9840(2) 0.1744(5) 0.5335(2) 0.0379(14) Uani 1 1 d . . .
H10 H 1.0084 0.2365 0.5466 0.045 Uiso 1 1 calc R . .
C11 C 0.9874(2) 0.0568(5) 0.5627(2) 0.0337(13) Uani 1 1 d . . .
H11 H 1.0142 0.0403 0.5949 0.040 Uiso 1 1 calc R . .
C12 C 0.95163(19) -0.0370(5) 0.5452(2) 0.0302(12) Uani 1 1 d . . .
C13 C 0.9121(2) -0.0073(6) 0.4984(2) 0.0442(15) Uani 1 1 d . . .
H13 H 0.8869 -0.0672 0.4869 0.053 Uiso 1 1 calc R . .
C14 C 0.9088(2) 0.1091(6) 0.4682(3) 0.0495(17) Uani 1 1 d . . .
H14 H 0.8820 0.1260 0.4361 0.059 Uiso 1 1 calc R . .
C15 C 0.95633(19) -0.1696(5) 0.5743(2) 0.0324(13) Uani 1 1 d . . .
C16 C 0.9392(2) -0.2821(5) 0.5410(2) 0.0383(14) Uani 1 1 d . . .
H16 H 0.9241 -0.2727 0.5018 0.046 Uiso 1 1 calc R . .
C17 C 0.9442(2) -0.4077(5) 0.5650(3) 0.0430(15) Uani 1 1 d . . .
H17 H 0.9314 -0.4813 0.5421 0.052 Uiso 1 1 calc R . .
C18 C 0.9678(2) -0.4241(6) 0.6224(3) 0.0490(16) Uani 1 1 d . . .
H18 H 0.9717 -0.5088 0.6383 0.059 Uiso 1 1 calc R . .
C19 C 0.9858(2) -0.3152(5) 0.6563(2) 0.0373(14) Uani 1 1 d . . .
H19 H 1.0026 -0.3268 0.6950 0.045 Uiso 1 1 calc R . .
C20 C 0.97914(18) -0.1868(5) 0.6330(2) 0.0283(12) Uani 1 1 d . . .
C21 C 0.99109(19) -0.0729(5) 0.6748(2) 0.0298(12) Uani 1 1 d . . .
C22 C 0.8693(2) -0.1399(6) 0.6721(2) 0.0414(15) Uani 1 1 d . . .
H22 H 0.8937 -0.1938 0.6704 0.050 Uiso 1 1 calc R . .
C23 C 0.8308(2) 0.0139(7) 0.6876(3) 0.0564(19) Uani 1 1 d . . .
H23 H 0.8236 0.0952 0.7002 0.068 Uiso 1 1 calc R . .
C24 C 0.8008(2) -0.2931(6) 0.6216(3) 0.0573(19) Uani 1 1 d . . .
H24A H 0.7788 -0.3248 0.6389 0.069 Uiso 1 1 calc R . .
H24B H 0.8246 -0.3618 0.6263 0.069 Uiso 1 1 calc R . .
C25 C 0.7742(2) -0.2688(6) 0.5585(3) 0.0466(16) Uani 1 1 d . . .
C26 C 0.7257(2) -0.2839(7) 0.5343(3) 0.0540(17) Uani 1 1 d . . .
H26 H 0.7087 -0.3075 0.5571 0.065 Uiso 1 1 calc R . .
C27 C 0.7978(2) -0.2348(7) 0.5223(3) 0.0573(19) Uani 1 1 d . . .
H27 H 0.8307 -0.2247 0.5373 0.069 Uiso 1 1 calc R . .
C28 C 0.8978(2) 0.2419(6) 0.6165(2) 0.0388(14) Uani 1 1 d . . .
H28 H 0.9095 0.1785 0.5981 0.047 Uiso 1 1 calc R . .
C29 C 0.8819(2) 0.3524(6) 0.6774(3) 0.0533(18) Uani 1 1 d . . .
H29 H 0.8810 0.3805 0.7122 0.064 Uiso 1 1 calc R . .
C30 C 0.8443(2) 0.3631(6) 0.5303(3) 0.0469(16) Uani 1 1 d . . .
H30A H 0.8611 0.3209 0.5084 0.056 Uiso 1 1 calc R . .
H30B H 0.8421 0.4576 0.5218 0.056 Uiso 1 1 calc R . .
C31 C 0.7954(2) 0.3048(6) 0.5140(2) 0.0391(14) Uani 1 1 d . . .
C32 C 0.7560(3) 0.3814(6) 0.4901(3) 0.059(2) Uani 1 1 d . . .
H32 H 0.7595 0.4708 0.4828 0.071 Uiso 1 1 calc R . .
C33 C 0.7890(2) 0.1710(6) 0.5236(3) 0.061(2) Uani 1 1 d . . .
H33 H 0.8154 0.1162 0.5394 0.074 Uiso 1 1 calc R . .
N1 N 0.87082(16) 0.3426(4) 0.5916(2) 0.0363(11) Uani 1 1 d . . .
N2 N 0.85971(19) 0.4151(5) 0.6298(2) 0.0538(15) Uani 1 1 d . . .
N3 N 0.90614(16) 0.2432(4) 0.67207(19) 0.0366(11) Uani 1 1 d . . .
N4 N 0.82419(17) -0.1713(5) 0.6509(2) 0.0429(12) Uani 1 1 d . . .
N5 N 0.79818(19) -0.0705(6) 0.6604(3) 0.0632(17) Uani 1 1 d . . .
N6 N 0.87537(16) -0.0225(4) 0.69627(19) 0.0366(11) Uani 1 1 d . . .
O1 O 0.97042(17) 0.6799(5) 0.3238(2) 0.0654(14) Uani 1 1 d . . .
O2 O 0.91476(14) 0.8301(4) 0.28724(16) 0.0394(10) Uani 1 1 d . . .
O3 O 0.89815(15) 0.3866(4) 0.44042(18) 0.0483(11) Uani 1 1 d . . .
O4 O 1.03143(13) -0.0665(3) 0.71318(15) 0.0352(9) Uani 1 1 d . . .
O5 O 0.95718(13) 0.0060(4) 0.66752(14) 0.0376(9) Uani 1 1 d . . .
O1W O 1.0000 0.2049(5) 0.7500 0.0335(12) Uani 1 2 d SD . .
H1B H 0.9856(17) 0.242(6) 0.771(3) 0.050 Uiso 0.50 1 d PD . .
H1A H 1.0285(18) 0.180(11) 0.772(3) 0.050 Uiso 0.50 1 d PD . .
O2W O 1.1095(4) -0.1422(15) 0.6798(4) 0.226(6) Uani 1 1 d . . .

loop_
_atom_site_aniso_label
_atom_site_aniso_U_11
_atom_site_aniso_U_22
_atom_site_aniso_U_33
_atom_site_aniso_U_23
_atom_site_aniso_U_13
_atom_site_aniso_U_12
Ni1 0.0276(4) 0.0334(4) 0.0250(4) -0.0049(3) 0.0062(3) 0.0005(3)
C1 0.038(3) 0.037(3) 0.034(3) 0.010(3) 0.014(3) 0.005(3)
C2 0.037(3) 0.040(3) 0.039(3) 0.005(3) 0.018(3) 0.000(3)
C3 0.053(4) 0.056(4) 0.070(5) 0.038(4) 0.034(4) 0.026(3)
C4 0.038(4) 0.086(5) 0.085(5) 0.038(5) 0.034(4) 0.022(4)
C5 0.047(4) 0.072(4) 0.064(5) 0.031(4) 0.034(4) 0.007(3)
C6 0.045(4) 0.044(3) 0.035(3) 0.005(3) 0.015(3) -0.001(3)
C7 0.037(3) 0.040(3) 0.033(3) 0.008(3) 0.017(3) 0.004(3)
C8 0.051(4) 0.048(4) 0.044(4) 0.017(3) 0.025(3) 0.006(3)
C9 0.050(4) 0.036(3) 0.039(3) 0.002(3) 0.023(3) 0.004(3)
C10 0.041(3) 0.039(3) 0.032(3) 0.000(3) 0.012(3) -0.005(3)
C11 0.039(3) 0.039(3) 0.023(3) 0.001(2) 0.010(2) 0.000(3)
C12 0.036(3) 0.034(3) 0.020(3) -0.006(2) 0.010(2) -0.001(3)
C13 0.042(4) 0.049(4) 0.038(3) 0.007(3) 0.010(3) -0.007(3)
C14 0.047(4) 0.052(4) 0.039(4) 0.016(3) 0.003(3) 0.005(3)
C15 0.033(3) 0.028(3) 0.039(3) 0.002(3) 0.016(3) 0.003(2)
C16 0.041(4) 0.040(3) 0.034(3) -0.012(3) 0.012(3) -0.007(3)
C17 0.046(4) 0.034(3) 0.053(4) -0.013(3) 0.023(3) -0.013(3)
C18 0.050(4) 0.030(3) 0.069(5) 0.008(3) 0.025(4) 0.000(3)
C19 0.043(4) 0.033(3) 0.036(3) 0.006(3) 0.014(3) 0.003(3)
C20 0.025(3) 0.029(3) 0.028(3) -0.002(2) 0.006(2) 0.001(2)
C21 0.033(3) 0.032(3) 0.026(3) 0.009(2) 0.012(3) 0.002(3)
C22 0.029(3) 0.041(3) 0.045(4) -0.015(3) 0.004(3) 0.003(3)
C23 0.029(4) 0.058(4) 0.072(5) -0.031(4) 0.007(3) -0.008(3)
C24 0.058(4) 0.047(4) 0.055(4) -0.015(3) 0.007(3) -0.007(3)
C25 0.045(4) 0.033(3) 0.055(4) -0.013(3) 0.010(3) -0.003(3)
C26 0.037(4) 0.068(4) 0.056(4) -0.016(4) 0.016(3) -0.016(3)
C27 0.035(4) 0.066(4) 0.062(5) -0.012(4) 0.007(4) -0.003(3)
C28 0.033(3) 0.043(3) 0.038(3) -0.002(3) 0.011(3) 0.002(3)
C29 0.062(4) 0.059(4) 0.032(3) 0.003(3) 0.009(3) 0.023(4)
C30 0.042(4) 0.052(4) 0.041(4) 0.008(3) 0.008(3) 0.007(3)
C31 0.031(3) 0.049(4) 0.031(3) 0.003(3) 0.004(3) 0.011(3)
C32 0.052(4) 0.040(4) 0.071(5) 0.017(3) 0.005(4) 0.001(3)
C33 0.041(4) 0.047(4) 0.086(5) 0.017(4) 0.009(4) 0.012(3)
N1 0.030(3) 0.037(3) 0.038(3) 0.003(2) 0.007(2) 0.007(2)
N2 0.056(3) 0.046(3) 0.049(3) -0.006(3) 0.006(3) 0.015(3)
N3 0.033(3) 0.037(3) 0.035(3) -0.002(2) 0.008(2) 0.010(2)
N4 0.040(3) 0.038(3) 0.045(3) -0.010(2) 0.008(2) 0.000(2)
N5 0.037(3) 0.060(3) 0.087(5) -0.022(3) 0.017(3) -0.002(3)
N6 0.031(3) 0.039(3) 0.035(3) -0.005(2) 0.005(2) 0.003(2)
O1 0.055(3) 0.074(3) 0.081(3) 0.047(3) 0.041(3) 0.024(3)
O2 0.042(2) 0.041(2) 0.040(2) 0.0134(19) 0.0196(19) 0.0083(19)
O3 0.050(3) 0.048(2) 0.055(3) 0.025(2) 0.028(2) 0.009(2)
O4 0.032(2) 0.040(2) 0.030(2) -0.0034(17) 0.0054(17) 0.0016(17)
O5 0.040(2) 0.043(2) 0.027(2) -0.0033(17) 0.0091(17) 0.0100(19)
O1W 0.027(3) 0.034(3) 0.038(3) 0.000 0.010(2) 0.000
O2W 0.134(8) 0.415(17) 0.114(7) -0.111(9) 0.027(6) 0.066(9)

_geom_special_details            
;
 All esds (except the esd in the dihedral angle between two l.s. planes)
 are estimated using the full covariance matrix.  The cell esds are taken
 into account individually in the estimation of esds in distances, angles
 and torsion angles; correlations between esds in cell parameters are only
 used when they are defined by crystal symmetry.  An approximate (isotropic)
 treatment of cell esds is used for estimating esds involving l.s. planes.
;

loop_
_geom_bond_atom_site_label_1
_geom_bond_atom_site_label_2
_geom_bond_distance
_geom_bond_site_symmetry_2
_geom_bond_publ_flag
Ni1 O5 2.010(4) . ?
Ni1 O2 2.019(4) 6_566 ?
Ni1 N3 2.091(4) . ?
Ni1 N6 2.096(5) . ?
Ni1 O1W 2.098(3) . ?
Ni1 O4 2.110(3) 2_756 ?
C1 O1 1.225(7) . ?
C1 O2 1.260(6) . ?
C1 C2 1.510(8) . ?
C2 C3 1.393(8) . ?
C2 C7 1.388(7) . ?
C3 C4 1.362(9) . ?
C3 H3 0.9300 . ?
C4 C5 1.354(9) . ?
C4 H4 0.9300 . ?
C5 C6 1.394(9) . ?
C5 H5 0.9300 . ?
C6 C7 1.375(8) . ?
C6 O3 1.397(7) . ?
C7 H7 0.9300 . ?
C8 O3 1.423(7) . ?
C8 C9 1.509(8) . ?
C8 H8A 0.9700 . ?
C8 H8B 0.9700 . ?
C9 C10 1.357(8) . ?
C9 C14 1.395(8) . ?
C10 C11 1.376(7) . ?
C10 H10 0.9300 . ?
C11 C12 1.378(7) . ?
C11 H11 0.9300 . ?
C12 C13 1.373(8) . ?
C12 C15 1.502(7) . ?
C13 C14 1.379(8) . ?
C13 H13 0.9300 . ?
C14 H14 0.9300 . ?
C15 C16 1.391(7) . ?
C15 C20 1.397(7) . ?
C16 C17 1.383(8) . ?
C16 H16 0.9300 . ?
C17 C18 1.371(9) . ?
C17 H17 0.9300 . ?
C18 C19 1.373(8) . ?
C18 H18 0.9300 . ?
C19 C20 1.401(7) . ?
C19 H19 0.9300 . ?
C20 C21 1.507(7) . ?
C21 O4 1.254(6) . ?
C21 O5 1.255(6) . ?
C22 N6 1.309(7) . ?
C22 N4 1.308(7) . ?
C22 H22 0.9300 . ?
C23 N5 1.292(8) . ?
C23 N6 1.333(7) . ?
C23 H23 0.9300 . ?
C24 N4 1.471(7) . ?
C24 C25 1.520(9) . ?
C24 H24A 0.9700 . ?
C24 H24B 0.9700 . ?
C25 C26 1.374(9) . ?
C25 C27 1.387(10) . ?
C26 C27 1.356(9) 7_646 ?
C26 H26 0.9300 . ?
C27 C26 1.356(9) 7_646 ?
C27 H27 0.9300 . ?
C28 N1 1.308(7) . ?
C28 N3 1.329(7) . ?
C28 H28 0.9300 . ?
C29 N2 1.306(8) . ?
C29 N3 1.352(7) . ?
C29 H29 0.9300 . ?
C30 N1 1.472(7) . ?
C30 C31 1.502(8) . ?
C30 H30A 0.9700 . ?
C30 H30B 0.9700 . ?
C31 C32 1.361(8) . ?
C31 C33 1.391(8) . ?
C32 C33 1.379(9) 7_656 ?
C32 H32 0.9300 . ?
C33 C32 1.379(9) 7_656 ?
C33 H33 0.9300 . ?
N1 N2 1.342(7) . ?
N4 N5 1.355(7) . ?
O2 Ni1 2.019(4) 6_565 ?
O4 Ni1 2.110(3) 2_756 ?
O1W Ni1 2.098(3) 2_756 ?
O1W H1B 0.88(2) . ?
O1W H1A 0.87(2) . ?

loop_
_geom_angle_atom_site_label_1
_geom_angle_atom_site_label_2
_geom_angle_atom_site_label_3
_geom_angle
_geom_angle_site_symmetry_1
_geom_angle_site_symmetry_3
_geom_angle_publ_flag
O5 Ni1 O2 176.38(15) . 6_566 ?
O5 Ni1 N3 88.45(16) . . ?
O2 Ni1 N3 90.16(17) 6_566 . ?
O5 Ni1 N6 86.97(17) . . ?
O2 Ni1 N6 89.69(17) 6_566 . ?
N3 Ni1 N6 89.93(17) . . ?
O5 Ni1 O1W 87.24(13) . . ?
O2 Ni1 O1W 95.97(13) 6_566 . ?
N3 Ni1 O1W 85.00(16) . . ?
N6 Ni1 O1W 172.40(13) . . ?
O5 Ni1 O4 92.94(15) . 2_756 ?
O2 Ni1 O4 88.39(15) 6_566 2_756 ?
N3 Ni1 O4 178.15(17) . 2_756 ?
N6 Ni1 O4 88.91(16) . 2_756 ?
O1W Ni1 O4 96.30(14) . 2_756 ?
O1 C1 O2 124.4(5) . . ?
O1 C1 C2 120.0(5) . . ?
O2 C1 C2 115.6(5) . . ?
C3 C2 C7 119.4(5) . . ?
C3 C2 C1 120.3(5) . . ?
C7 C2 C1 120.1(5) . . ?
C4 C3 C2 119.7(6) . . ?
C4 C3 H3 120.1 . . ?
C2 C3 H3 120.1 . . ?
C3 C4 C5 121.9(6) . . ?
C3 C4 H4 119.0 . . ?
C5 C4 H4 119.0 . . ?
C4 C5 C6 118.9(6) . . ?
C4 C5 H5 120.6 . . ?
C6 C5 H5 120.6 . . ?
C7 C6 C5 120.7(5) . . ?
C7 C6 O3 125.1(5) . . ?
C5 C6 O3 114.3(5) . . ?
C6 C7 C2 119.5(5) . . ?
C6 C7 H7 120.3 . . ?
C2 C7 H7 120.3 . . ?
O3 C8 C9 108.2(5) . . ?
O3 C8 H8A 110.0 . . ?
C9 C8 H8A 110.0 . . ?
O3 C8 H8B 110.0 . . ?
C9 C8 H8B 110.0 . . ?
H8A C8 H8B 108.4 . . ?
C10 C9 C14 118.5(5) . . ?
C10 C9 C8 121.6(6) . . ?
C14 C9 C8 119.9(5) . . ?
C9 C10 C11 121.3(5) . . ?
C9 C10 H10 119.4 . . ?
C11 C10 H10 119.4 . . ?
C1