####################################################################### 
# 
# This file contains crystal structure data downloaded from the 
# Cambridge Structural Database (CSD) hosted by the Cambridge 
# Crystallographic Data Centre (CCDC).
# 
# Full information about CCDC data access policies and citation 
# guidelines are available at http://www.ccdc.cam.ac.uk/access/V1 
# 
# Audit and citation data items may have been added by the CCDC. 
# Please retain this information to preserve the provenance of 
# this file and to allow appropriate attribution of the data. 
# 
#######################################################################

data_d
_audit_block_doi                 10.5517/cc141nzt
_database_code_depnum_ccdc_archive 'CCDC 1044296'
_audit_update_record             
;
2015-01-19 deposited with the CCDC.	2024-07-13 downloaded from the CCDC.
;

_audit_creation_method           SHELXL-97
_chemical_name_systematic        complex8
_chemical_name_common            ?
_chemical_melting_point          ?
_chemical_formula_moiety         ?
_chemical_formula_sum            'C17 H11 N5 Ni O4 S'
_chemical_formula_weight         440.08

loop_
_atom_type_symbol
_atom_type_description
_atom_type_scat_dispersion_real
_atom_type_scat_dispersion_imag
_atom_type_scat_source
C C 0.0033 0.0016 'International Tables Vol C Tables 4.2.6.8 and 6.1.1.4'
N N 0.0061 0.0033 'International Tables Vol C Tables 4.2.6.8 and 6.1.1.4'
Ni Ni 0.3393 1.1124 'International Tables Vol C Tables 4.2.6.8 and 6.1.1.4'
O O 0.0106 0.0060 'International Tables Vol C Tables 4.2.6.8 and 6.1.1.4'
S S 0.1246 0.1234 'International Tables Vol C Tables 4.2.6.8 and 6.1.1.4'
H H 0.0000 0.0000 'International Tables Vol C Tables 4.2.6.8 and 6.1.1.4'

_symmetry_cell_setting           Monoclinic
_symmetry_space_group_name_H-M   C2/c

loop_
_symmetry_equiv_pos_as_xyz
'x, y, z'
'-x, y, -z+1/2'
'x+1/2, y+1/2, z'
'-x+1/2, y+1/2, -z+1/2'
'-x, -y, -z'
'x, -y, z-1/2'
'-x+1/2, -y+1/2, -z'
'x+1/2, -y+1/2, z-1/2'

_cell_length_a                   24.6326(16)
_cell_length_b                   13.8299(6)
_cell_length_c                   12.7662(8)
_cell_angle_alpha                90.00
_cell_angle_beta                 107.784(4)
_cell_angle_gamma                90.00
_cell_volume                     4141.2(4)
_cell_formula_units_Z            8
_cell_measurement_temperature    293(2)
_cell_measurement_reflns_used    ?
_cell_measurement_theta_min      ?
_cell_measurement_theta_max      ?

_exptl_crystal_description       prism
_exptl_crystal_colour            green
_exptl_crystal_size_max          0.42
_exptl_crystal_size_mid          0.35
_exptl_crystal_size_min          0.16
_exptl_crystal_density_meas      ?
_exptl_crystal_density_diffrn    1.412
_exptl_crystal_density_method    'not measured'
_exptl_crystal_F_000             1792
_exptl_absorpt_coefficient_mu    1.069
_exptl_absorpt_correction_type   multi-scan
_exptl_absorpt_correction_T_min  0.6624
_exptl_absorpt_correction_T_max  0.8476
_exptl_absorpt_process_details   ?

_exptl_special_details           
; 
 ? 
;

_diffrn_ambient_temperature      293(2)
_diffrn_radiation_wavelength     0.71073
_diffrn_radiation_type           MoK\a
_diffrn_radiation_source         'fine-focus sealed tube'
_diffrn_radiation_monochromator  graphite
_diffrn_measurement_device_type  ?
_diffrn_measurement_method       ?
_diffrn_detector_area_resol_mean ?
_diffrn_reflns_number            15938
_diffrn_reflns_av_R_equivalents  0.0302
_diffrn_reflns_av_sigmaI/netI    0.0307
_diffrn_reflns_limit_h_min       -31
_diffrn_reflns_limit_h_max       31
_diffrn_reflns_limit_k_min       -17
_diffrn_reflns_limit_k_max       17
_diffrn_reflns_limit_l_min       -16
_diffrn_reflns_limit_l_max       16
_diffrn_reflns_theta_min         3.35
_diffrn_reflns_theta_max         27.49
_reflns_number_total             4684
_reflns_number_gt                4141
_reflns_threshold_expression     >2sigma(I)

_computing_data_collection       ?
_computing_cell_refinement       ?
_computing_data_reduction        ?
_computing_structure_solution    'SHELXS-97 (Sheldrick, 2008)'
_computing_structure_refinement  'SHELXL-97 (Sheldrick, 2008)'
_computing_molecular_graphics    ?
_computing_publication_material  ?

_refine_special_details          SQUEEZE

_refine_ls_structure_factor_coef Fsqd
_refine_ls_matrix_type           full
_refine_ls_weighting_scheme      calc
_refine_ls_weighting_details     
'calc w=1/[\s^2^(Fo^2^)+(0.0551P)^2^+4.6242P] where P=(Fo^2^+2Fc^2^)/3'
_atom_sites_solution_primary     direct
_atom_sites_solution_secondary   difmap
_atom_sites_solution_hydrogens   geom
_refine_ls_hydrogen_treatment    mixed
_refine_ls_extinction_method     none
_refine_ls_extinction_coef       ?
_refine_ls_number_reflns         4684
_refine_ls_number_parameters     253
_refine_ls_number_restraints     0
_refine_ls_R_factor_all          0.0417
_refine_ls_R_factor_gt           0.0353
_refine_ls_wR_factor_ref         0.1012
_refine_ls_wR_factor_gt          0.0965
_refine_ls_goodness_of_fit_ref   1.044
_refine_ls_restrained_S_all      1.044
_refine_ls_shift/su_max          0.001
_refine_ls_shift/su_mean         0.000

loop_
_atom_site_label
_atom_site_type_symbol
_atom_site_fract_x
_atom_site_fract_y
_atom_site_fract_z
_atom_site_U_iso_or_equiv
_atom_site_adp_type
_atom_site_occupancy
_atom_site_symmetry_multiplicity
_atom_site_calc_flag
_atom_site_refinement_flags
_atom_site_disorder_assembly
_atom_site_disorder_group
Ni1 Ni -0.234223(11) 0.115491(18) -0.60489(2) 0.01683(10) Uani 1 1 d . . .
S1 S 0.01152(3) 0.18302(4) -0.38485(5) 0.03139(15) Uani 1 1 d . . .
O1 O -0.31019(7) -0.37186(11) -0.77932(13) 0.0269(4) Uani 1 1 d . . .
O2 O -0.39332(8) -0.29586(14) -0.80701(19) 0.0496(5) Uani 1 1 d . . .
O3 O -0.30040(6) -0.25166(10) -0.95758(11) 0.0203(3) Uani 1 1 d . . .
O4 O -0.26934(7) -0.10302(10) -0.97492(12) 0.0226(3) Uani 1 1 d . . .
N1 N -0.26358(8) -0.02239(13) -0.66321(14) 0.0208(4) Uani 1 1 d . . .
N2 N -0.15908(8) 0.05368(13) -0.49948(15) 0.0218(4) Uani 1 1 d . . .
N3 N -0.06611(7) 0.03790(13) -0.42501(14) 0.0214(4) Uani 1 1 d . . .
N4 N 0.12485(8) 0.22357(15) -0.30946(15) 0.0286(4) Uani 1 1 d . . .
N5 N 0.19506(8) 0.32060(14) -0.22122(15) 0.0261(4) Uani 1 1 d . . .
C1 C -0.28455(9) -0.16836(14) -0.92176(16) 0.0170(4) Uani 1 1 d . . .
C2 C -0.28540(9) -0.14297(15) -0.80692(16) 0.0186(4) Uani 1 1 d . . .
C3 C -0.26140(9) -0.05569(15) -0.76034(17) 0.0197(4) Uani 1 1 d . . .
H3 H -0.2427 -0.0183 -0.7992 0.024 Uiso 1 1 calc R . .
C4 C -0.28905(12) -0.07892(17) -0.60686(19) 0.0308(5) Uani 1 1 d . . .
H4 H -0.2916 -0.0568 -0.5397 0.037 Uiso 1 1 calc R . .
C5 C -0.31144(12) -0.16739(18) -0.6436(2) 0.0357(6) Uani 1 1 d . . .
H5 H -0.3273 -0.2050 -0.6001 0.043 Uiso 1 1 calc R . .
C6 C -0.31079(10) -0.20181(15) -0.74579(18) 0.0229(4) Uani 1 1 d . . .
C7 C -0.34053(10) -0.29795(16) -0.78249(18) 0.0258(5) Uani 1 1 d . . .
C8 C -0.14699(10) -0.03867(17) -0.45896(19) 0.0282(5) Uani 1 1 d . . .
H8 H -0.1740 -0.0866 -0.4627 0.034 Uiso 1 1 calc R . .
C9 C -0.09006(10) -0.04974(17) -0.41285(19) 0.0291(5) Uani 1 1 d . . .
H9 H -0.0710 -0.1052 -0.3797 0.035 Uiso 1 1 calc R . .
C10 C -0.00772(9) 0.06274(16) -0.38723(17) 0.0219(4) Uani 1 1 d . . .
C11 C 0.03738(9) 0.00310(17) -0.34911(18) 0.0254(5) Uani 1 1 d . . .
H11 H 0.0344 -0.0637 -0.3449 0.030 Uiso 1 1 calc R . .
C12 C 0.08988(10) 0.05418(18) -0.31617(18) 0.0266(5) Uani 1 1 d . . .
H12 H 0.1253 0.0246 -0.2883 0.032 Uiso 1 1 calc R . .
C13 C 0.08253(10) 0.15031(18) -0.32996(17) 0.0257(5) Uani 1 1 d . . .
C14 C 0.16100(10) 0.25072(17) -0.21077(17) 0.0251(5) Uani 1 1 d . . .
H14 H 0.1616 0.2233 -0.1439 0.030 Uiso 1 1 calc R . .
C15 C 0.17989(14) 0.3390(2) -0.3323(2) 0.0530(9) Uani 1 1 d . . .
H15 H 0.1970 0.3851 -0.3650 0.064 Uiso 1 1 calc R . .
C16 C 0.13650(14) 0.2804(3) -0.3873(2) 0.0556(9) Uani 1 1 d . . .
H16 H 0.1183 0.2791 -0.4628 0.067 Uiso 1 1 calc R . .
C17 C -0.10938(10) 0.09748(16) -0.47719(18) 0.0243(5) Uani 1 1 d . . .
H17 H -0.1047 0.1614 -0.4951 0.029 Uiso 1 1 calc R . .

loop_
_atom_site_aniso_label
_atom_site_aniso_U_11
_atom_site_aniso_U_22
_atom_site_aniso_U_33
_atom_site_aniso_U_23
_atom_site_aniso_U_13
_atom_site_aniso_U_12
Ni1 0.02042(17) 0.01373(15) 0.01610(14) -0.00058(9) 0.00521(11) 0.00108(9)
S1 0.0251(3) 0.0233(3) 0.0407(3) -0.0012(2) 0.0025(3) -0.0006(2)
O1 0.0392(10) 0.0185(8) 0.0287(8) -0.0009(6) 0.0190(7) -0.0030(6)
O2 0.0333(11) 0.0371(11) 0.0839(16) -0.0215(10) 0.0262(11) -0.0099(8)
O3 0.0284(8) 0.0136(7) 0.0181(7) -0.0009(5) 0.0059(6) -0.0014(6)
O4 0.0338(9) 0.0167(7) 0.0208(7) 0.0013(5) 0.0133(7) -0.0016(6)
N1 0.0258(10) 0.0178(9) 0.0189(8) -0.0030(7) 0.0071(7) -0.0017(7)
N2 0.0202(9) 0.0207(9) 0.0234(9) 0.0011(7) 0.0052(7) 0.0007(7)
N3 0.0187(9) 0.0228(9) 0.0207(8) -0.0001(7) 0.0032(7) 0.0002(7)
N4 0.0274(10) 0.0347(11) 0.0214(9) -0.0018(8) 0.0041(8) -0.0092(8)
N5 0.0282(10) 0.0273(10) 0.0207(9) -0.0008(7) 0.0043(8) -0.0049(8)
C1 0.0174(10) 0.0157(9) 0.0175(9) 0.0002(7) 0.0047(8) 0.0010(8)
C2 0.0218(11) 0.0152(9) 0.0195(9) -0.0007(8) 0.0073(8) 0.0004(8)
C3 0.0234(11) 0.0159(10) 0.0211(9) -0.0003(8) 0.0088(8) -0.0004(8)
C4 0.0502(15) 0.0241(11) 0.0240(11) -0.0065(9) 0.0200(11) -0.0088(11)
C5 0.0608(18) 0.0246(12) 0.0322(12) -0.0064(10) 0.0299(13) -0.0156(11)
C6 0.0304(12) 0.0158(10) 0.0257(10) -0.0026(8) 0.0134(9) -0.0033(8)
C7 0.0355(13) 0.0208(11) 0.0266(11) -0.0041(8) 0.0177(10) -0.0070(9)
C8 0.0267(12) 0.0210(11) 0.0339(12) 0.0042(9) 0.0047(10) -0.0020(9)
C9 0.0291(13) 0.0195(11) 0.0334(12) 0.0044(9) 0.0017(10) 0.0014(9)
C10 0.0237(11) 0.0236(11) 0.0175(9) -0.0032(8) 0.0046(8) -0.0015(9)
C11 0.0244(12) 0.0250(11) 0.0248(10) 0.0021(9) 0.0044(9) 0.0031(9)
C12 0.0186(11) 0.0352(13) 0.0237(10) 0.0001(9) 0.0029(9) 0.0009(9)
C13 0.0221(11) 0.0332(12) 0.0202(10) -0.0008(9) 0.0043(9) -0.0028(9)
C14 0.0244(11) 0.0308(12) 0.0182(10) 0.0003(8) 0.0036(9) -0.0024(9)
C15 0.064(2) 0.063(2) 0.0247(12) 0.0087(13) 0.0020(13) -0.0390(17)
C16 0.066(2) 0.075(2) 0.0183(12) 0.0037(12) 0.0011(12) -0.0403(18)
C17 0.0237(11) 0.0210(11) 0.0261(11) 0.0031(8) 0.0045(9) 0.0003(9)

_geom_special_details            
; 
 All esds (except the esd in the dihedral angle between two l.s. planes) 
 are estimated using the full covariance matrix.  The cell esds are taken 
 into account individually in the estimation of esds in distances, angles 
 and torsion angles; correlations between esds in cell parameters are only 
 used when they are defined by crystal symmetry.  An approximate (isotropic) 
 treatment of cell esds is used for estimating esds involving l.s. planes. 
;

loop_
_geom_bond_atom_site_label_1
_geom_bond_atom_site_label_2
_geom_bond_distance
_geom_bond_site_symmetry_2
_geom_bond_publ_flag
Ni1 O3 2.0793(15) 4_453 ?
Ni1 N1 2.0938(18) . ?
Ni1 O1 2.0976(16) 4_453 ?
Ni1 O4 2.0995(15) 6_556 ?
Ni1 N5 2.1072(19) 8_455 ?
Ni1 N2 2.1086(18) . ?
S1 C10 1.727(2) . ?
S1 C13 1.734(2) . ?
O1 C7 1.259(3) . ?
O1 Ni1 2.0977(16) 4_443 ?
O2 C7 1.242(3) . ?
O3 C1 1.257(2) . ?
O3 Ni1 2.0793(14) 4_443 ?
O4 C1 1.254(2) . ?
O4 Ni1 2.0994(15) 6 ?
N1 C3 1.339(3) . ?
N1 C4 1.341(3) . ?
N2 C17 1.317(3) . ?
N2 C8 1.376(3) . ?
N3 C17 1.351(3) . ?
N3 C9 1.377(3) . ?
N3 C10 1.413(3) . ?
N4 C14 1.355(3) . ?
N4 C16 1.365(3) . ?
N4 C13 1.419(3) . ?
N5 C14 1.313(3) . ?
N5 C15 1.376(3) . ?
N5 Ni1 2.1072(19) 8_556 ?
C1 C2 1.514(3) . ?
C2 C3 1.395(3) . ?
C2 C6 1.400(3) . ?
C4 C5 1.365(3) . ?
C5 C6 1.393(3) . ?
C6 C7 1.521(3) . ?
C8 C9 1.354(3) . ?
C10 C11 1.349(3) . ?
C11 C12 1.420(3) . ?
C12 C13 1.346(3) . ?
C15 C16 1.354(4) . ?

loop_
_geom_angle_atom_site_label_1
_geom_angle_atom_site_label_2
_geom_angle_atom_site_label_3
_geom_angle
_geom_angle_site_symmetry_1
_geom_angle_site_symmetry_3
_geom_angle_publ_flag
O3 Ni1 N1 176.11(7) 4_453 . ?
O3 Ni1 O1 87.45(6) 4_453 4_453 ?
N1 Ni1 O1 91.33(6) . 4_453 ?
O3 Ni1 O4 89.38(6) 4_453 6_556 ?
N1 Ni1 O4 91.45(6) . 6_556 ?
O1 Ni1 O4 173.31(6) 4_453 6_556 ?
O3 Ni1 N5 93.08(7) 4_453 8_455 ?
N1 Ni1 N5 90.57(7) . 8_455 ?
O1 Ni1 N5 88.00(7) 4_453 8_455 ?
O4 Ni1 N5 98.05(7) 6_556 8_455 ?
O3 Ni1 N2 86.34(6) 4_453 . ?
N1 Ni1 N2 89.90(7) . . ?
O1 Ni1 N2 86.47(7) 4_453 . ?
O4 Ni1 N2 87.45(7) 6_556 . ?
N5 Ni1 N2 174.46(7) 8_455 . ?
C10 S1 C13 89.62(11) . . ?
C7 O1 Ni1 118.49(14) . 4_443 ?
C1 O3 Ni1 128.68(13) . 4_443 ?
C1 O4 Ni1 129.18(13) . 6 ?
C3 N1 C4 116.99(18) . . ?
C3 N1 Ni1 122.36(14) . . ?
C4 N1 Ni1 120.50(14) . . ?
C17 N2 C8 105.40(18) . . ?
C17 N2 Ni1 121.90(15) . . ?
C8 N2 Ni1 131.54(15) . . ?
C17 N3 C9 106.96(18) . . ?
C17 N3 C10 126.00(19) . . ?
C9 N3 C10 127.01(19) . . ?
C14 N4 C16 107.0(2) . . ?
C14 N4 C13 127.33(19) . . ?
C16 N4 C13 125.6(2) . . ?
C14 N5 C15 105.07(19) . . ?
C14 N5 Ni1 130.80(15) . 8_556 ?
C15 N5 Ni1 123.71(17) . 8_556 ?
O4 C1 O3 125.06(18) . . ?
O4 C1 C2 116.86(17) . . ?
O3 C1 C2 118.06(17) . . ?
C3 C2 C6 117.96(18) . . ?
C3 C2 C1 118.95(18) . . ?
C6 C2 C1 123.07(18) . . ?
N1 C3 C2 124.10(19) . . ?
N1 C4 C5 123.0(2) . . ?
C4 C5 C6 120.6(2) . . ?
C5 C6 C2 117.3(2) . . ?
C5 C6 C7 116.41(19) . . ?
C2 C6 C7 126.26(19) . . ?
O2 C7 O1 126.3(2) . . ?
O2 C7 C6 115.2(2) . . ?
O1 C7 C6 118.3(2) . . ?
C9 C8 N2 110.2(2) . . ?
C8 C9 N3 105.9(2) . . ?
C11 C10 N3 127.9(2) . . ?
C11 C10 S1 113.03(17) . . ?
N3 C10 S1 119.04(16) . . ?
C10 C11 C12 112.2(2) . . ?
C13 C12 C11 112.3(2) . . ?
C12 C13 N4 128.2(2) . . ?
C12 C13 S1 112.92(17) . . ?
N4 C13 S1 118.80(18) . . ?
N5 C14 N4 111.62(19) . . ?
C16 C15 N5 110.3(2) . . ?
C15 C16 N4 106.0(2) . . ?
N2 C17 N3 111.56(19) . . ?

_diffrn_measured_fraction_theta_max 0.985
_diffrn_reflns_theta_full        27.49
_diffrn_measured_fraction_theta_full 0.985
_refine_diff_density_max         0.387
_refine_diff_density_min         -0.361
_refine_diff_density_rms         0.069
