####################################################################### 
# 
# This file contains crystal structure data downloaded from the 
# Cambridge Structural Database (CSD) hosted by the Cambridge 
# Crystallographic Data Centre (CCDC).
# 
# Full information about CCDC data access policies and citation 
# guidelines are available at http://www.ccdc.cam.ac.uk/access/V1 
# 
# Audit and citation data items may have been added by the CCDC. 
# Please retain this information to preserve the provenance of 
# this file and to allow appropriate attribution of the data. 
# 
#######################################################################

data_1_MnCl2_EtOH
_audit_block_doi                 10.5517/cc13tb6g
_database_code_depnum_ccdc_archive 'CCDC 1037235'
loop_
_citation_id
_citation_doi
_citation_year
1 10.1039/C4CC09639H 2015
_audit_update_record             
;
2014-12-02 deposited with the CCDC.	2024-07-13 downloaded from the CCDC.
;

_audit_creation_method           SHELXL-2013
_chemical_name_systematic        
;
 ?
;
_chemical_name_common            ?
_chemical_melting_point          ?
_chemical_formula_moiety         ?
_chemical_formula_sum            'C37.50 H33 Cl Mn2 N6 O7.50'
_chemical_formula_weight         833.03

loop_
_atom_type_symbol
_atom_type_description
_atom_type_scat_dispersion_real
_atom_type_scat_dispersion_imag
_atom_type_scat_source
C C 0.0033 0.0016 'International Tables Vol C Tables 4.2.6.8 and 6.1.1.4'
H H 0.0000 0.0000 'International Tables Vol C Tables 4.2.6.8 and 6.1.1.4'
N N 0.0061 0.0033 'International Tables Vol C Tables 4.2.6.8 and 6.1.1.4'
O O 0.0106 0.0060 'International Tables Vol C Tables 4.2.6.8 and 6.1.1.4'
Cl Cl 0.1484 0.1585 'International Tables Vol C Tables 4.2.6.8 and 6.1.1.4'
Mn Mn 0.3368 0.7283 'International Tables Vol C Tables 4.2.6.8 and 6.1.1.4'

_space_group_crystal_system      monoclinic
_space_group_name                P21/m

loop_
_space_group_symop_operation_xyz
'x, y, z'
'-x, y+1/2, -z'
'-x, -y, -z'
'x, -y-1/2, z'

_cell_length_a                   12.355(3)
_cell_length_b                   33.452(7)
_cell_length_c                   12.952(3)
_cell_angle_alpha                90
_cell_angle_beta                 97.63(3)
_cell_angle_gamma                90
_cell_volume                     5305.6(19)
_cell_formula_units_Z            4
_cell_measurement_temperature    100(2)
_cell_measurement_reflns_used    ?
_cell_measurement_theta_min      ?
_cell_measurement_theta_max      ?

_exptl_crystal_description       plate
_exptl_crystal_colour            colourless
_exptl_crystal_density_meas      ?
_exptl_crystal_density_method    'not measured'
_exptl_crystal_density_diffrn    1.043
_exptl_crystal_F_000             1708
_exptl_transmission_factor_min   ?
_exptl_transmission_factor_max   ?
_exptl_crystal_size_max          0.29
_exptl_crystal_size_mid          0.09
_exptl_crystal_size_min          0.04
_exptl_absorpt_coefficient_mu    0.568
_shelx_estimated_absorpt_T_min   0.853
_shelx_estimated_absorpt_T_max   0.978
_exptl_absorpt_correction_type   Multi-scan
_exptl_absorpt_correction_T_min  0.853
_exptl_absorpt_correction_T_max  0.978
_exptl_absorpt_process_details   'XDS (Kabsch, 1993)'

_exptl_special_details           
;
 ?
;

_diffrn_ambient_temperature      100(2)
_diffrn_radiation_wavelength     0.71073
_diffrn_radiation_type           Synchrotron
_diffrn_radiation_source         'MX1 Beamline Australian Synchrotron'
_diffrn_radiation_monochromator  'Silicon Double Crystal'
_diffrn_measurement_device_type  'ADSC Quantum 210r'
_diffrn_measurement_method       'Phi Scan'
_diffrn_detector_area_resol_mean ?
_diffrn_reflns_number            85469
_diffrn_reflns_av_unetI/netI     0.0370
_diffrn_reflns_av_R_equivalents  0.0674
_diffrn_reflns_limit_h_min       -15
_diffrn_reflns_limit_h_max       15
_diffrn_reflns_limit_k_min       -43
_diffrn_reflns_limit_k_max       43
_diffrn_reflns_limit_l_min       -16
_diffrn_reflns_limit_l_max       16
_diffrn_reflns_theta_min         1.663
_diffrn_reflns_theta_max         27.284
_diffrn_reflns_theta_full        27.000
_diffrn_measured_fraction_theta_max 0.939
_diffrn_measured_fraction_theta_full 0.941
_diffrn_reflns_Laue_measured_fraction_max 0.939
_diffrn_reflns_Laue_measured_fraction_full 0.941
_diffrn_reflns_point_group_measured_fraction_max 0.939
_diffrn_reflns_point_group_measured_fraction_full 0.941
_reflns_number_total             11393
_reflns_number_gt                8389
_reflns_threshold_expression     'I > 2\s(I)'
_reflns_Friedel_coverage         0.000
_reflns_Friedel_fraction_max     .
_reflns_Friedel_fraction_full    .

_reflns_special_details          
;
 Reflections were merged by SHELXL according to the crystal
 class for the calculation of statistics and refinement.
 
 _reflns_Friedel_fraction is defined as the number of unique
 Friedel pairs measured divided by the number that would be
 possible theoretically, ignoring centric projections and
 systematic absences.
;

_computing_data_collection       'BluIce (McPhillips, 2002)'
_computing_cell_refinement       'XDS (Kabsch, 1993)'
_computing_data_reduction        'XDS (Kabsch, 1993)'
_computing_structure_solution    'SHELXS-2013 (Sheldrick, 2013)'
_computing_structure_refinement  'SHELXL-2013 (Sheldrick, 2013)'
_computing_molecular_graphics    'X-Seed (Barbour, 1999)'
_computing_publication_material  'CIFTAB (Sheldrick, 1997)'

_refine_special_details          
;
 ?
;
_refine_ls_structure_factor_coef Fsqd
_refine_ls_matrix_type           full
_refine_ls_weighting_scheme      calc
_refine_ls_weighting_details     
'w=1/[\s^2^(Fo^2^)+(0.2000P)^2^] where P=(Fo^2^+2Fc^2^)/3'
_atom_sites_solution_primary     ?
_atom_sites_solution_secondary   ?
_atom_sites_solution_hydrogens   geom
_refine_ls_hydrogen_treatment    constr
_refine_ls_extinction_method     SHELXL
_refine_ls_extinction_coef       0.032(2)
_refine_ls_extinction_expression Fc^*^=kFc[1+0.001xFc^2^\l^3^/sin(2\q)]^-1/4^
_refine_ls_number_reflns         11393
_refine_ls_number_parameters     575
_refine_ls_number_restraints     0
_refine_ls_R_factor_all          0.1099
_refine_ls_R_factor_gt           0.0890
_refine_ls_wR_factor_ref         0.2636
_refine_ls_wR_factor_gt          0.2462
_refine_ls_goodness_of_fit_ref   1.029
_refine_ls_restrained_S_all      1.029
_refine_ls_shift/su_max          0.000
_refine_ls_shift/su_mean         0.000

loop_
_atom_site_label
_atom_site_type_symbol
_atom_site_fract_x
_atom_site_fract_y
_atom_site_fract_z
_atom_site_U_iso_or_equiv
_atom_site_adp_type
_atom_site_occupancy
_atom_site_site_symmetry_order
_atom_site_calc_flag
_atom_site_refinement_flags_posn
_atom_site_refinement_flags_adp
_atom_site_refinement_flags_occupancy
_atom_site_disorder_assembly
_atom_site_disorder_group
Mn1 Mn 0.79230(4) 0.06795(2) 0.39752(4) 0.03056(19) Uani 1 1 d . . . . .
Mn2 Mn 1.0000 0.0000 0.5000 0.0335(2) Uani 1 2 d S . P . .
N32 N 0.6109(2) 0.13092(8) 0.3078(2) 0.0328(6) Uani 1 1 d . . . . .
O46 O -0.0336(2) 0.05510(7) 0.4029(2) 0.0369(5) Uani 1 1 d . . . . .
O65 O 0.7211(2) 0.01273(8) 0.3487(3) 0.0544(8) Uani 1 1 d . . . . .
N11 N 0.7929(3) 0.08652(8) 0.2279(2) 0.0372(7) Uani 1 1 d . . . . .
N31 N 0.6345(2) 0.10029(9) 0.3763(2) 0.0366(6) Uani 1 1 d . . . . .
N12 N 0.7406(3) 0.12017(8) 0.1894(2) 0.0355(6) Uani 1 1 d . . . . .
C15 C 0.8231(4) 0.06754(10) 0.1451(3) 0.0420(9) Uani 1 1 d . . . . .
O26 O 0.9206(3) 0.02624(10) -0.3822(2) 0.0703(11) Uani 1 1 d . . . . .
O25 O 0.7953(3) 0.06960(14) -0.4409(2) 0.0784(12) Uani 1 1 d . . . . .
O45 O -0.0620(2) 0.11949(8) 0.4126(3) 0.0548(8) Uani 1 1 d . . . . .
C1 C 0.7014(3) 0.14795(9) 0.2608(3) 0.0342(7) Uani 1 1 d . . . . .
H1A H 0.6770 0.1728 0.2232 0.041 Uiso 1 1 calc R U . . .
H1B H 0.7616 0.1549 0.3162 0.041 Uiso 1 1 calc R U . . .
C64 C 0.7643(3) -0.02039(11) 0.3716(3) 0.0406(8) Uani 1 1 d . . . . .
C44 C 0.0000(3) 0.09088(11) 0.4016(3) 0.0441(9) Uani 1 1 d . . . . .
C43 C 0.2853(3) 0.07079(11) 0.3436(4) 0.0506(10) Uani 1 1 d . . . . .
H43 H 0.3261 0.0485 0.3245 0.061 Uiso 1 1 calc R U . . .
C35 C 0.5375(3) 0.08850(12) 0.4014(3) 0.0428(8) Uani 1 1 d . . . . .
C33 C 0.5030(3) 0.13858(11) 0.2893(3) 0.0415(8) Uani 1 1 d . . . . .
C21 C 0.8347(4) 0.06039(12) -0.2590(3) 0.0459(9) Uani 1 1 d . . . . .
C34 C 0.4526(3) 0.11209(11) 0.3488(3) 0.0441(9) Uani 1 1 d . . . . .
C14 C 0.7887(4) 0.08900(12) 0.0536(3) 0.0476(10) Uani 1 1 d . . . . .
C38 C 0.3362(3) 0.10776(12) 0.3574(4) 0.0493(10) Uani 1 1 d . . . . .
C61 C 0.7032(4) -0.05741(11) 0.3342(3) 0.0461(9) Uani 1 1 d . . . . .
C13 C 0.7361(3) 0.12286(11) 0.0843(3) 0.0431(9) Uani 1 1 d . . . . .
C41 C 0.1164(3) 0.09769(11) 0.3846(4) 0.0486(10) Uani 1 1 d . . . . .
C24 C 0.8531(3) 0.05111(12) -0.3707(3) 0.0412(8) Uani 1 1 d . . . . .
C18 C 0.8055(4) 0.07887(12) -0.0540(3) 0.0462(9) Uani 1 1 d . . . . .
C40 C 0.1634(3) 0.13518(12) 0.3966(5) 0.0606(13) Uani 1 1 d . . . . .
H40 H 0.1215 0.1575 0.4134 0.073 Uiso 1 1 calc R U . . .
N51 N 0.4373(5) -0.21507(10) 0.1729(4) 0.0780(15) Uani 1 1 d . . . . .
C17 C 0.8827(5) 0.02849(13) 0.1574(3) 0.0606(13) Uani 1 1 d . . . . .
H17A H 0.9321 0.0263 0.1044 0.091 Uiso 1 1 calc R U . . .
H17B H 0.8300 0.0065 0.1489 0.091 Uiso 1 1 calc R U . . .
H17C H 0.9251 0.0271 0.2268 0.091 Uiso 1 1 calc R U . . .
C16 C 0.6817(4) 0.15645(14) 0.0221(4) 0.0625(13) Uani 1 1 d . . . . .
H16A H 0.7188 0.1816 0.0437 0.094 Uiso 1 1 calc R U . . .
H16B H 0.6051 0.1581 0.0338 0.094 Uiso 1 1 calc R U . . .
H16C H 0.6856 0.1518 -0.0520 0.094 Uiso 1 1 calc R U . . .
C54 C 0.5044(5) -0.16098(14) 0.2487(5) 0.0769(16) Uani 1 1 d . . . . .
C39 C 0.2727(3) 0.13997(13) 0.3837(5) 0.0620(13) Uani 1 1 d . . . . .
H39 H 0.3050 0.1657 0.3929 0.074 Uiso 1 1 calc R U . . .
C58 C 0.5768(5) -0.12527(14) 0.2752(4) 0.0694(14) Uani 1 1 d . . . . .
C37 C 0.5307(4) 0.05402(16) 0.4733(4) 0.0654(14) Uani 1 1 d . . . . .
H37A H 0.5261 0.0291 0.4333 0.098 Uiso 1 1 calc R U . . .
H37B H 0.4655 0.0568 0.5084 0.098 Uiso 1 1 calc R U . . .
H37C H 0.5959 0.0535 0.5253 0.098 Uiso 1 1 calc R U . . .
N52 N 0.3686(4) -0.20595(12) 0.2475(4) 0.0786(14) Uani 1 1 d . . . . .
C53 C 0.4140(5) -0.17377(14) 0.2930(5) 0.0769(17) Uani 1 1 d . . . . .
C55 C 0.5177(4) -0.18823(12) 0.1720(4) 0.0621(13) Uani 1 1 d . . . . .
C2 C 0.4123(8) -0.2500 0.1060(7) 0.087(3) Uani 1 2 d S T P . .
H2A H 0.3344 -0.2500 0.0759 0.105 Uiso 1 2 calc R U P . .
H2B H 0.4576 -0.2500 0.0484 0.105 Uiso 1 2 calc R U P . .
C20A C 0.7331(8) 0.0700(3) -0.2337(5) 0.085(3) Uani 0.65 1 d . . P A 2
H20A H 0.6712 0.0695 -0.2857 0.102 Uiso 0.65 1 calc R U P A 2
C59A C 0.6882(9) -0.1272(2) 0.3126(8) 0.083(3) Uani 0.7 1 d . . P B 1
H59A H 0.7221 -0.1527 0.3212 0.099 Uiso 0.7 1 calc R U P B 1
C36 C 0.4560(4) 0.16865(14) 0.2125(5) 0.0645(13) Uani 1 1 d . . . . .
H36A H 0.4907 0.1946 0.2291 0.097 Uiso 1 1 calc R U . . .
H36B H 0.3773 0.1709 0.2149 0.097 Uiso 1 1 calc R U . . .
H36C H 0.4687 0.1604 0.1425 0.097 Uiso 1 1 calc R U . . .
C63B C 0.5836(15) -0.0976(5) 0.2106(16) 0.062(4) Uani 0.3 1 d . . P B 2
H63B H 0.5465 -0.1001 0.1418 0.074 Uiso 0.3 1 calc R U P B 2
C22A C 0.9213(6) 0.0549(2) -0.1780(5) 0.0511(16) Uani 0.65 1 d . . P A 2
H22A H 0.9888 0.0441 -0.1925 0.061 Uiso 0.65 1 calc R U P A 2
C56 C 0.3693(7) -0.15495(19) 0.3844(6) 0.104(2) Uani 1 1 d . . . . .
H56A H 0.3718 -0.1258 0.3783 0.156 Uiso 1 1 calc R U . . .
H56B H 0.4134 -0.1633 0.4493 0.156 Uiso 1 1 calc R U . . .
H56C H 0.2935 -0.1635 0.3849 0.156 Uiso 1 1 calc R U . . .
C57 C 0.6065(5) -0.19067(15) 0.1000(5) 0.0825(18) Uani 1 1 d . . . . .
H57A H 0.6668 -0.2073 0.1326 0.124 Uiso 1 1 calc R U . . .
H57B H 0.6336 -0.1638 0.0882 0.124 Uiso 1 1 calc R U . . .
H57C H 0.5757 -0.2025 0.0333 0.124 Uiso 1 1 calc R U . . .
C60A C 0.7526(9) -0.0927(2) 0.3382(8) 0.074(2) Uani 0.7 1 d . . P B 1
H60A H 0.8293 -0.0947 0.3577 0.089 Uiso 0.7 1 calc R U P B 1
Mn3 Mn 0.23316(15) -0.2500 0.28068(14) 0.0963(5) Uani 1 2 d S T P . .
Cl1 Cl 0.3527(3) -0.2500 0.8283(2) 0.1098(10) Uani 1 2 d S T P . .
Cl74 Cl 0.1340(3) -0.2500 0.0983(4) 0.1590(15) Uani 1 2 d S T P . .
C42 C 0.1770(3) 0.06535(11) 0.3569(4) 0.0490(10) Uani 1 1 d . . . . .
H42 H 0.1443 0.0397 0.3471 0.059 Uiso 1 1 calc R U . . .
C23A C 0.9077(6) 0.06530(19) -0.0768(5) 0.0497(15) Uani 0.65 1 d . . P A 2
H23A H 0.9675 0.0633 -0.0228 0.060 Uiso 0.65 1 calc R U P A 2
O71 O 0.1177(5) -0.20319(15) 0.3226(6) 0.134(2) Uani 1 1 d . . . . .
C19A C 0.7215(8) 0.0804(4) -0.1319(6) 0.097(4) Uani 0.65 1 d . . P A 2
H19A H 0.6520 0.0889 -0.1166 0.116 Uiso 0.65 1 calc R U P A 2
C23B C 0.7928(10) 0.0402(3) -0.0918(9) 0.043(2) Uani 0.35 1 d . . P A 1
H23B H 0.7722 0.0193 -0.0489 0.051 Uiso 0.35 1 calc R U P A 1
C19B C 0.8193(10) 0.1108(3) -0.1276(8) 0.039(2) Uani 0.35 1 d . . P A 1
H19B H 0.8154 0.1380 -0.1072 0.047 Uiso 0.35 1 calc R U P A 1
O66 O 0.8557(3) -0.02580(10) 0.4238(3) 0.0699(10) Uani 1 1 d . . . . .
C62A C 0.5926(7) -0.05332(19) 0.2926(6) 0.0573(17) Uani 0.7 1 d . . P B 1
H62A H 0.5605 -0.0275 0.2850 0.069 Uiso 0.7 1 calc R U P B 1
C63A C 0.5298(8) -0.0874(2) 0.2623(7) 0.074(2) Uani 0.7 1 d . . P B 1
H63A H 0.4554 -0.0846 0.2331 0.089 Uiso 0.7 1 calc R U P B 1
O73 O 0.2979(14) -0.2500 0.4553(10) 0.206(6) Uani 1 2 d S T P . .
C20B C 0.8376(10) 0.1014(3) -0.2250(8) 0.044(2) Uani 0.35 1 d . . P A 1
H20B H 0.8525 0.1220 -0.2716 0.052 Uiso 0.35 1 calc R U P A 1
C22B C 0.8109(9) 0.0325(3) -0.1946(8) 0.039(2) Uani 0.35 1 d . . P A 1
H22B H 0.8057 0.0057 -0.2188 0.047 Uiso 0.35 1 calc R U P A 1
C60B C 0.7105(17) -0.0925(5) 0.3972(16) 0.068(6) Uani 0.3 1 d . . P B 2
H60B H 0.7673 -0.0945 0.4540 0.081 Uiso 0.3 1 calc R U P B 2
C59B C 0.6312(16) -0.1262(5) 0.3764(18) 0.070(5) Uani 0.3 1 d . . P B 2
H59B H 0.6194 -0.1459 0.4264 0.084 Uiso 0.3 1 calc R U P B 2
C62B C 0.6448(17) -0.0633(5) 0.2385(18) 0.076(6) Uani 0.3 1 d . . P B 2
H62B H 0.6458 -0.0428 0.1878 0.091 Uiso 0.3 1 calc R U P B 2

loop_
_atom_site_aniso_label
_atom_site_aniso_U_11
_atom_site_aniso_U_22
_atom_site_aniso_U_33
_atom_site_aniso_U_23
_atom_site_aniso_U_13
_atom_site_aniso_U_12
Mn1 0.0329(3) 0.0287(3) 0.0305(3) -0.00073(18) 0.00575(19) -0.00010(18)
Mn2 0.0353(4) 0.0344(4) 0.0313(4) -0.0024(3) 0.0067(3) 0.0042(3)
N32 0.0321(15) 0.0282(13) 0.0396(15) 0.0059(11) 0.0108(11) 0.0020(10)
O46 0.0338(13) 0.0336(12) 0.0445(14) 0.0040(10) 0.0092(10) -0.0012(9)
O65 0.0515(18) 0.0362(14) 0.073(2) 0.0056(13) 0.0007(14) -0.0118(12)
N11 0.0498(18) 0.0245(13) 0.0391(16) 0.0014(11) 0.0126(13) 0.0083(11)
N31 0.0397(17) 0.0378(15) 0.0337(15) 0.0100(12) 0.0104(12) 0.0015(12)
N12 0.0461(17) 0.0273(13) 0.0356(15) 0.0044(11) 0.0147(12) 0.0066(11)
C15 0.062(3) 0.0354(17) 0.0308(17) 0.0031(13) 0.0152(16) 0.0144(16)
O26 0.117(3) 0.0602(19) 0.0389(16) 0.0046(14) 0.0291(17) 0.0434(19)
O25 0.079(2) 0.121(3) 0.0335(16) -0.0036(17) 0.0039(15) 0.056(2)
O45 0.0311(14) 0.0442(15) 0.091(2) -0.0195(15) 0.0130(14) -0.0016(11)
C1 0.0383(19) 0.0278(14) 0.0393(18) 0.0012(13) 0.0160(14) 0.0004(12)
C64 0.048(2) 0.0338(17) 0.0401(19) 0.0002(14) 0.0058(15) -0.0069(15)
C44 0.0283(19) 0.0430(19) 0.062(2) -0.0070(17) 0.0108(16) -0.0041(14)
C43 0.042(2) 0.0366(19) 0.076(3) 0.0021(18) 0.017(2) 0.0066(15)
C35 0.034(2) 0.044(2) 0.052(2) 0.0120(16) 0.0156(16) -0.0023(14)
C33 0.0364(19) 0.0325(16) 0.056(2) 0.0045(15) 0.0083(16) -0.0011(14)
C21 0.055(2) 0.050(2) 0.0347(19) -0.0029(16) 0.0101(16) 0.0122(17)
C34 0.037(2) 0.0379(18) 0.059(2) 0.0061(16) 0.0118(17) -0.0001(14)
C14 0.068(3) 0.042(2) 0.0346(19) 0.0036(15) 0.0166(17) 0.0185(18)
C38 0.033(2) 0.0386(19) 0.079(3) 0.0044(19) 0.0155(19) -0.0016(14)
C61 0.057(3) 0.0365(18) 0.044(2) -0.0053(15) 0.0016(17) -0.0088(16)
C13 0.055(2) 0.0388(18) 0.0375(19) 0.0096(15) 0.0130(16) 0.0123(16)
C41 0.031(2) 0.0386(19) 0.078(3) -0.0034(18) 0.0144(18) -0.0039(14)
C24 0.043(2) 0.048(2) 0.0334(18) -0.0055(15) 0.0089(15) 0.0021(15)
C18 0.062(3) 0.045(2) 0.0344(19) 0.0022(15) 0.0156(17) 0.0143(17)
C40 0.035(2) 0.038(2) 0.113(4) -0.012(2) 0.026(2) -0.0024(16)
N51 0.111(4) 0.0233(16) 0.088(3) 0.0021(18) -0.030(3) -0.0077(18)
C17 0.104(4) 0.043(2) 0.036(2) 0.0009(16) 0.012(2) 0.030(2)
C16 0.088(4) 0.054(2) 0.048(2) 0.014(2) 0.018(2) 0.032(2)
C54 0.108(4) 0.038(2) 0.077(3) -0.009(2) -0.019(3) -0.008(3)
C39 0.030(2) 0.038(2) 0.121(4) -0.007(2) 0.019(2) -0.0025(15)
C58 0.085(4) 0.044(2) 0.072(3) -0.002(2) -0.016(3) -0.012(2)
C37 0.048(3) 0.074(3) 0.076(3) 0.040(3) 0.017(2) 0.002(2)
N52 0.107(4) 0.042(2) 0.084(3) -0.003(2) 0.000(3) -0.011(2)
C53 0.071(3) 0.042(2) 0.111(5) 0.009(3) -0.016(3) -0.019(2)
C55 0.087(3) 0.0293(18) 0.063(3) 0.0023(18) -0.017(2) 0.0025(19)
C2 0.140(7) 0.020(2) 0.083(5) 0.000 -0.052(5) 0.000
C20A 0.075(6) 0.1