####################################################################### 
# 
# This file contains crystal structure data downloaded from the 
# Cambridge Structural Database (CSD) hosted by the Cambridge 
# Crystallographic Data Centre (CCDC).
# 
# Full information about CCDC data access policies and citation 
# guidelines are available at http://www.ccdc.cam.ac.uk/access/V1 
# 
# Audit and citation data items may have been added by the CCDC. 
# Please retain this information to preserve the provenance of 
# this file and to allow appropriate attribution of the data. 
# 
#######################################################################

data_th8
_audit_block_doi                 10.5517/cc11csdl
_database_code_depnum_ccdc_archive 'CCDC 964639'
loop_
_citation_id
_citation_doi
_citation_year
1 10.1002/chem.201405825 2015
_audit_update_record             
;
2014-10-14 deposited with the CCDC.	2024-07-13 downloaded from the CCDC.
;

_audit_creation_method           SHELXL-97
_chemical_name_systematic        
; 
 ? 
;
_chemical_name_common            ?
_chemical_melting_point          ?
_chemical_formula_moiety         ?
_chemical_formula_sum            'C54 H97 Co Mo12 N18 O64 P'
_chemical_formula_weight         3263.68

loop_
_atom_type_symbol
_atom_type_description
_atom_type_scat_dispersion_real
_atom_type_scat_dispersion_imag
_atom_type_scat_source
C C 0.0033 0.0016 'International Tables Vol C Tables 4.2.6.8 and 6.1.1.4'
H H 0.0000 0.0000 'International Tables Vol C Tables 4.2.6.8 and 6.1.1.4'
N N 0.0061 0.0033 'International Tables Vol C Tables 4.2.6.8 and 6.1.1.4'
O O 0.0106 0.0060 'International Tables Vol C Tables 4.2.6.8 and 6.1.1.4'
P P 0.1023 0.0942 'International Tables Vol C Tables 4.2.6.8 and 6.1.1.4'
Mo Mo -1.6832 0.6857 'International Tables Vol C Tables 4.2.6.8 and 6.1.1.4'
Co Co 0.3494 0.9721 'International Tables Vol C Tables 4.2.6.8 and 6.1.1.4'

_symmetry_cell_setting           Monoclinic
_symmetry_space_group_name_H-M   C2/c

loop_
_symmetry_equiv_pos_as_xyz
'x, y, z'
'-x, y, -z+1/2'
'x+1/2, y+1/2, z'
'-x+1/2, y+1/2, -z+1/2'
'-x, -y, -z'
'x, -y, z-1/2'
'-x+1/2, -y+1/2, -z'
'x+1/2, -y+1/2, z-1/2'

_cell_length_a                   20.429(2)
_cell_length_b                   22.744(2)
_cell_length_c                   21.792(2)
_cell_angle_alpha                90.00
_cell_angle_beta                 108.783(2)
_cell_angle_gamma                90.00
_cell_volume                     9586.4(18)
_cell_formula_units_Z            4
_cell_measurement_temperature    150(2)
_cell_measurement_reflns_used    28614
_cell_measurement_theta_min      2.6658
_cell_measurement_theta_max      25.0258

_exptl_crystal_description       block
_exptl_crystal_colour            orange
_exptl_crystal_size_max          0.25
_exptl_crystal_size_mid          0.23
_exptl_crystal_size_min          0.21
_exptl_crystal_density_meas      ?
_exptl_crystal_density_diffrn    2.261
_exptl_crystal_density_method    'not measured'
_exptl_crystal_F_000             6420
_exptl_absorpt_coefficient_mu    1.817
_exptl_absorpt_correction_type   multi-scan
_exptl_absorpt_correction_T_min  0.6595
_exptl_absorpt_correction_T_max  0.7016
_exptl_absorpt_process_details   'SADABS (Sheldrick, 1996)'

_exptl_special_details           
; 
 ? 
;

_diffrn_ambient_temperature      150(2)
_diffrn_radiation_wavelength     0.71073
_diffrn_radiation_type           MoK\a
_diffrn_radiation_source         'fine-focus sealed tube'
_diffrn_radiation_monochromator  graphite
_diffrn_measurement_device_type  'Bruker APEX CCD area-detector'
_diffrn_measurement_method       '\w scans'
_diffrn_detector_area_resol_mean ?
_diffrn_standards_number         ?
_diffrn_standards_interval_count ?
_diffrn_standards_interval_time  ?
_diffrn_standards_decay_%        ?
_diffrn_reflns_number            27790
_diffrn_reflns_av_R_equivalents  0.0672
_diffrn_reflns_av_sigmaI/netI    0.0817
_diffrn_reflns_limit_h_min       -24
_diffrn_reflns_limit_h_max       22
_diffrn_reflns_limit_k_min       -27
_diffrn_reflns_limit_k_max       25
_diffrn_reflns_limit_l_min       -23
_diffrn_reflns_limit_l_max       25
_diffrn_reflns_theta_min         1.79
_diffrn_reflns_theta_max         25.00
_reflns_number_total             8430
_reflns_number_gt                4639
_reflns_threshold_expression     >2sigma(I)

_computing_data_collection       'SMART (Bruker, 1997)'
_computing_cell_refinement       'SAINT (Bruker, 1999)'
_computing_data_reduction        SAINT
_computing_structure_solution    'SHELXS-97 (Sheldrick, 1997)'
_computing_structure_refinement  'SHELXL-97 (Sheldrick, 1997)'
_computing_molecular_graphics    'SHELXTL-PLUS (Sheldrick, 1990)'
_computing_publication_material  SHELXL-97

_refine_special_details          
; 
 Refinement of F^2^ against ALL reflections.  The weighted R-factor wR and 
 goodness of fit S are based on F^2^, conventional R-factors R are based 
 on F, with F set to zero for negative F^2^. The threshold expression of 
 F^2^ > 2sigma(F^2^) is used only for calculating R-factors(gt) etc. and is 
 not relevant to the choice of reflections for refinement.  R-factors based 
 on F^2^ are statistically about twice as large as those based on F, and R- 
 factors based on ALL data will be even larger. 
 During the refinement, the command 'omit-3 50' was used to omit the weak 
 reflections above 50 degree.
 During the anisotropical refinement, some C atoms on the organic ligands
 display ADP problem. Thus, the restrained command 'ISOR' was used to 
 restrain such atoms so as to avoid the APD problems.
 The command is in the INS files as follows:
 ISOR 0.01 C4 C6 C21 C23 C24 C26
 Furthermore, the five-member triazole rings and the six-member benzene
 rings in the organic ligand are structurally unreasonable, thus, the
 restrained command 'AFIX 59/AFIX 0', 'AFIX 69 / AFIX 0' and 'DELU' were
 used to fix these five-member rings and six-member rings with 
 reasonable structural features.
 All above restrained refinement led to a restrained value of 102.
 
 In the final refinement, only one crystallographically independent water
 molecule can be assigned from the weak reflections.
 Thus, the SQUEEZE program was used to remove the contributions to 
 the scattering from rest lattice water molecules which were
 highly disordered. The SQUEEZE calculation results for compounds 1 is
 reasonable and the new 1*.hkl file can be further used to refine the crystal
 structures of 1. Finally, based on the SQUEEZE calculation result, elemental 
 analysis and TG analysis, another 22 H2O were directly included in the final
 molecular formula.
 The highest residual peak ( 2.875 eA^-3) is close to C20 and H20 with the
 distances of ca. 2.0 A and ca.1.0 A, respectively. It cannot be assigned to
 any reasonable element according to the chemical synthesis and molecular 
 structure. Thus, such a high residual peak  is probably ascribed to series 
 termination errors. 
;

loop_
_platon_squeeze_void_nr
_platon_squeeze_void_average_x
_platon_squeeze_void_average_y
_platon_squeeze_void_average_z
_platon_squeeze_void_volume
_platon_squeeze_void_count_electrons
1 0.000 0.500 0.017 875.7 126.4
2 0.185 0.150 0.050 11.6 1.3
3 0.185 0.850 0.550 11.6 1.2
4 0.500 1.000 0.331 875.7 126.4
5 0.315 0.650 0.450 11.6 1.3
6 0.315 0.350 0.950 11.6 1.6
7 0.685 0.650 0.050 11.6 1.3
8 0.685 0.350 0.550 11.6 1.2
9 0.815 0.150 0.450 11.6 1.3
10 0.815 0.850 0.950 11.6 1.6
_platon_squeeze_details          
;
;

_refine_ls_structure_factor_coef Fsqd
_refine_ls_matrix_type           full
_refine_ls_weighting_scheme      calc
_refine_ls_weighting_details     
'calc w=1/[\s^2^(Fo^2^)+(0.1067P)^2^+0.0000P] where P=(Fo^2^+2Fc^2^)/3'
_atom_sites_solution_primary     direct
_atom_sites_solution_secondary   difmap
_atom_sites_solution_hydrogens   geom
_refine_ls_hydrogen_treatment    constr
_refine_ls_extinction_method     none
_refine_ls_extinction_coef       ?
_refine_ls_number_reflns         8430
_refine_ls_number_parameters     517
_refine_ls_number_restraints     102
_refine_ls_R_factor_all          0.1204
_refine_ls_R_factor_gt           0.0702
_refine_ls_wR_factor_ref         0.2086
_refine_ls_wR_factor_gt          0.1872
_refine_ls_goodness_of_fit_ref   1.022
_refine_ls_restrained_S_all      1.030
_refine_ls_shift/su_max          0.000
_refine_ls_shift/su_mean         0.000

loop_
_atom_site_label
_atom_site_type_symbol
_atom_site_fract_x
_atom_site_fract_y
_atom_site_fract_z
_atom_site_U_iso_or_equiv
_atom_site_adp_type
_atom_site_occupancy
_atom_site_symmetry_multiplicity
_atom_site_calc_flag
_atom_site_refinement_flags
_atom_site_disorder_assembly
_atom_site_disorder_group
Mo1 Mo 0.90105(5) 0.05654(4) 0.15681(5) 0.0574(3) Uani 1 1 d . . .
Mo2 Mo 0.91846(5) -0.16363(4) 0.32373(5) 0.0570(3) Uani 1 1 d . . .
Mo3 Mo 0.81671(5) -0.05528(4) 0.20472(5) 0.0601(3) Uani 1 1 d . . .
Mo4 Mo 0.91151(6) 0.04424(4) 0.31599(5) 0.0583(3) Uani 1 1 d . . .
Mo5 Mo 0.96849(6) -0.06456(4) 0.07990(5) 0.0620(3) Uani 1 1 d . . .
Mo6 Mo 0.90760(5) -0.17660(4) 0.15059(5) 0.0586(3) Uani 1 1 d . . .
P1 P 1.0000 -0.05977(17) 0.2500 0.0488(10) Uani 1 2 d S . .
O1 O 0.9926(3) -0.0979(3) 0.1903(3) 0.0487(17) Uani 1 1 d . . .
O2 O 0.8308(4) 0.0045(3) 0.2759(4) 0.070(2) Uani 1 1 d . . .
O3 O 0.9544(4) -0.1235(3) 0.4005(4) 0.067(2) Uani 1 1 d . . .
O4 O 0.9108(4) -0.1280(3) 0.0762(3) 0.065(2) Uani 1 1 d . . .
O5 O 0.7316(4) -0.0668(3) 0.1889(4) 0.081(3) Uani 1 1 d . . .
O6 O 0.9162(4) -0.0096(3) 0.1004(3) 0.064(2) Uani 1 1 d . . .
O7 O 0.9928(4) 0.0712(3) 0.1750(3) 0.061(2) Uani 1 1 d . . .
O8 O 0.8845(4) 0.0960(3) 0.3560(4) 0.078(2) Uani 1 1 d . . .
O9 O 0.8567(4) -0.1078(3) 0.2810(3) 0.061(2) Uani 1 1 d . . .
O10 O 0.8180(4) 0.0075(3) 0.1520(3) 0.066(2) Uani 1 1 d . . .
O11 O 0.8501(4) -0.2278(3) 0.1126(4) 0.076(2) Uani 1 1 d . . .
O12 O 0.9911(4) -0.2072(3) 0.1510(3) 0.064(2) Uani 1 1 d . . .
O13 O 0.9368(4) -0.0212(3) 0.2375(3) 0.0530(18) Uani 1 1 d . . .
O14 O 0.9582(5) -0.0519(3) 0.0022(4) 0.080(3) Uani 1 1 d . . .
O15 O 0.8639(4) 0.1083(3) 0.1023(4) 0.073(2) Uani 1 1 d . . .
O16 O 0.9519(4) -0.0115(3) 0.3761(3) 0.062(2) Uani 1 1 d . . .
O17 O 0.8693(4) -0.2136(3) 0.3440(4) 0.073(2) Uani 1 1 d . . .
O18 O 0.8919(4) 0.0891(3) 0.2314(3) 0.063(2) Uani 1 1 d . . .
O19 O 0.8439(4) -0.1109(3) 0.1579(3) 0.062(2) Uani 1 1 d . . .
O20 O 0.9173(4) -0.1901(3) 0.2368(3) 0.0572(19) Uani 1 1 d . . .
Co1 Co 0.7500 0.2500 0.0000 0.0618(6) Uani 1 2 d S . .
N1 N 0.7722(4) 0.3113(3) -0.0649(4) 0.071(3) Uani 1 1 d GU . .
C1 C 0.7485(4) 0.3129(4) -0.1298(4) 0.086(4) Uani 1 1 d GU . .
H1 H 0.7183 0.2851 -0.1573 0.104 Uiso 1 1 calc R . .
N2 N 0.7749(4) 0.3607(4) -0.1491(4) 0.081(3) Uani 1 1 d GU . .
N3 N 0.8149(5) 0.3886(3) -0.0961(5) 0.101(4) Uani 1 1 d GU . .
C2 C 0.8132(5) 0.3581(4) -0.0441(4) 0.091(4) Uani 1 1 d GU . .
H2 H 0.8370 0.3678 -0.0001 0.110 Uiso 1 1 calc R . .
C3 C 0.7689(8) 0.3846(7) -0.2124(8) 0.117(6) Uani 1 1 d . . .
H3A H 0.7488 0.4246 -0.2165 0.140 Uiso 1 1 calc R . .
H3B H 0.7374 0.3596 -0.2465 0.140 Uiso 1 1 calc R . .
C4 C 0.8386(5) 0.3872(5) -0.2220(5) 0.101(4) Uani 1 1 d GU . .
C5 C 0.8642(6) 0.3360(5) -0.2404(6) 0.137(7) Uani 1 1 d GU . .
H5 H 0.8382 0.3006 -0.2460 0.165 Uiso 1 1 calc R . .
C6 C 0.9278(6) 0.3365(4) -0.2508(6) 0.122(5) Uani 1 1 d GU . .
H6 H 0.9453 0.3015 -0.2634 0.146 Uiso 1 1 calc R . .
C7 C 0.9657(6) 0.3882(5) -0.2427(6) 0.112(5) Uani 1 1 d GU . .
C8 C 0.9401(6) 0.4394(4) -0.2242(6) 0.122(6) Uani 1 1 d GU . .
H8 H 0.9661 0.4747 -0.2187 0.146 Uiso 1 1 calc R . .
C9 C 0.8766(6) 0.4389(4) -0.2139(6) 0.123(6) Uani 1 1 d GU . .
H9 H 0.8590 0.4739 -0.2012 0.147 Uiso 1 1 calc R . .
N4 N 0.6371(4) 0.2597(3) -0.0454(4) 0.065(2) Uani 1 1 d GU . .
C10 C 0.5956(4) 0.2731(3) -0.0099(4) 0.069(3) Uani 1 1 d GU . .
H10 H 0.6100 0.2783 0.0358 0.083 Uiso 1 1 calc R . .
N5 N 0.5301(4) 0.2778(3) -0.0509(4) 0.073(3) Uani 1 1 d GU . .
N6 N 0.5310(4) 0.2674(3) -0.1118(4) 0.086(3) Uani 1 1 d GU . .
C11 C 0.5972(4) 0.2562(4) -0.1084(4) 0.079(4) Uani 1 1 d GU . .
H11 H 0.6129 0.2474 -0.1439 0.095 Uiso 1 1 calc R . .
C12 C 0.4687(6) 0.2916(6) -0.0347(7) 0.082(4) Uani 1 1 d . . .
H12A H 0.4360 0.3129 -0.0716 0.099 Uiso 1 1 calc R . .
H12B H 0.4814 0.3184 0.0031 0.099 Uiso 1 1 calc R . .
C13 C 0.4318(5) 0.2376(4) -0.0189(5) 0.080(3) Uani 1 1 d GU . .
C14 C 0.3626(5) 0.2277(5) -0.0544(5) 0.138(7) Uani 1 1 d GU . .
H14 H 0.3399 0.2521 -0.0903 0.165 Uiso 1 1 calc R . .
C15 C 0.3266(5) 0.1819(5) -0.0370(5) 0.132(7) Uani 1 1 d GU . .
H15 H 0.2794 0.1752 -0.0612 0.158 Uiso 1 1 calc R . .
C16 C 0.3598(5) 0.1461(4) 0.0157(5) 0.088(4) Uani 1 1 d GU . .
C17 C 0.4290(5) 0.1560(4) 0.0512(5) 0.116(6) Uani 1 1 d GU . .
H17 H 0.4517 0.1316 0.0871 0.139 Uiso 1 1 calc R . .
C18 C 0.4650(5) 0.2018(4) 0.0338(5) 0.105(5) Uani 1 1 d GU . .
H18 H 0.5122 0.2085 0.0580 0.125 Uiso 1 1 calc R . .
N7 N 0.7501(4) 0.1775(3) -0.0647(4) 0.069(2) Uani 1 1 d GU . .
C19 C 0.7860(4) 0.1274(4) -0.0424(4) 0.078(3) Uani 1 1 d GU . .
H19 H 0.8142 0.1201 0.0010 0.094 Uiso 1 1 calc R . .
N8 N 0.7745(4) 0.0896(3) -0.0930(4) 0.077(3) Uani 1 1 d GU . .
N9 N 0.7316(5) 0.1163(4) -0.1466(4) 0.114(4) Uani 1 1 d GU . .
C20 C 0.7165(4) 0.1706(4) -0.1291(4) 0.074(3) Uani 1 1 d GU . .
H20 H 0.6875 0.1989 -0.1570 0.088 Uiso 1 1 calc R . .
C21 C 0.8021(7) 0.0320(6) -0.0909(7) 0.094(4) Uani 1 1 d U . .
H21A H 0.8494 0.0311 -0.0594 0.113 Uiso 1 1 calc R . .
H21B H 0.8051 0.0218 -0.1341 0.113 Uiso 1 1 calc R . .
C22 C 0.7578(6) -0.0135(5) -0.0715(6) 0.099(4) Uani 1 1 d GU . .
C23 C 0.7175(7) -0.0521(5) -0.1177(6) 0.150(6) Uani 1 1 d GU . .
H23 H 0.7167 -0.0493 -0.1614 0.180 Uiso 1 1 calc R . .
C24 C 0.6783(6) -0.0946(5) -0.0999(6) 0.156(6) Uani 1 1 d GU . .
H24 H 0.6507 -0.1210 -0.1315 0.187 Uiso 1 1 calc R . .
C25 C 0.6795(6) -0.0986(5) -0.0361(6) 0.112(5) Uani 1 1 d GU . .
C26 C 0.7199(7) -0.0601(5) 0.0101(5) 0.141(6) Uani 1 1 d GU . .
H26 H 0.7207 -0.0628 0.0538 0.169 Uiso 1 1 calc R . .
C27 C 0.7590(6) -0.0175(5) -0.0077(6) 0.141(7) Uani 1 1 d GU . .
H27 H 0.7867 0.0089 0.0239 0.169 Uiso 1 1 calc R . .
O1W O 0.9107(7) 0.2162(6) 0.2596(6) 0.148(4) Uiso 1 1 d . . .

loop_
_atom_site_aniso_label
_atom_site_aniso_U_11
_atom_site_aniso_U_22
_atom_site_aniso_U_33
_atom_site_aniso_U_23
_atom_site_aniso_U_13
_atom_site_aniso_U_12
Mo1 0.0688(7) 0.0567(6) 0.0564(6) 0.0095(5) 0.0335(5) 0.0154(5)
Mo2 0.0657(7) 0.0587(6) 0.0541(6) 0.0024(5) 0.0297(5) -0.0102(5)
Mo3 0.0540(6) 0.0643(7) 0.0670(7) -0.0010(5) 0.0264(5) 0.0031(5)
Mo4 0.0734(7) 0.0555(6) 0.0627(7) -0.0039(5) 0.0450(6) -0.0013(5)
Mo5 0.0847(8) 0.0643(7) 0.0439(6) 0.0016(5) 0.0302(5) 0.0122(6)
Mo6 0.0655(7) 0.0577(7) 0.0520(6) -0.0053(5) 0.0182(5) -0.0002(5)
P1 0.058(3) 0.048(2) 0.048(2) 0.000 0.0269(19) 0.000
O1 0.063(5) 0.042(4) 0.046(4) 0.003(3) 0.025(3) 0.007(3)
O2 0.076(6) 0.069(5) 0.083(6) 0.005(4) 0.052(5) 0.007(4)
O3 0.089(6) 0.062(5) 0.063(5) -0.001(4) 0.041(4) -0.008(4)
O4 0.085(6) 0.073(5) 0.033(4) -0.005(4) 0.013(4) 0.014(4)
O5 0.062(5) 0.083(6) 0.103(7) -0.002(5) 0.031(5) -0.014(4)
O6 0.069(5) 0.074(5) 0.054(4) -0.003(4) 0.027(4) 0.015(4)
O7 0.075(6) 0.056(5) 0.064(5) 0.005(4) 0.040(4) 0.009(4)
O8 0.103(7) 0.068(5) 0.095(6) -0.012(5) 0.074(5) -0.004(5)
O9 0.065(5) 0.067(5) 0.057(5) -0.007(4) 0.030(4) -0.012(4)
O10 0.075(5) 0.067(5) 0.058(5) -0.001(4) 0.024(4) 0.014(4)
O11 0.084(6) 0.066(5) 0.073(5) -0.014(4) 0.018(5) 0.008(4)
O12 0.070(5) 0.065(5) 0.059(5) -0.010(4) 0.024(4) 0.007(4)
O13 0.059(5) 0.062(5) 0.046(4) -0.002(3) 0.030(4) 0.014(4)
O14 0.122(8) 0.073(6) 0.051(5) 0.010(4) 0.037(5) 0.017(5)
O15 0.075(6) 0.071(5) 0.085(6) 0.021(4) 0.045(5) 0.018(4)
O16 0.082(6) 0.063(5) 0.050(4) 0.000(4) 0.035(4) -0.003(4)
O17 0.084(6) 0.071(5) 0.073(5) 0.005(4) 0.038(5) -0.003(5)
O18 0.069(5) 0.062(5) 0.070(5) -0.005(4) 0.040(4) 0.006(4)
O19 0.064(5) 0.064(5) 0.061(5) 0.008(4) 0.021(4) 0.001(4)
O20 0.066(5) 0.053(4) 0.055(4) -0.004(3) 0.023(4) -0.009(4)
Co1 0.0730(16) 0.0583(14) 0.0692(15) 0.0004(11) 0.0440(13) -0.0059(11)
N1 0.075(7) 0.063(6) 0.096(7) -0.001(5) 0.057(6) 0.008(5)
C1 0.120(11) 0.075(8) 0.098(8) 0.007(7) 0.081(8) 0.015(7)
N2 0.076(8) 0.083(8) 0.116(7) 0.024(6) 0.074(6) 0.017(6)
N3 0.112(10) 0.081(8) 0.143(10) 0.012(6) 0.087(9) 0.006(6)
C2 0.103(11) 0.079(9) 0.114(8) 0.007(7) 0.066(8) -0.004(7)
C3 0.113(13) 0.136(14) 0.145(15) 0.031(12) 0.101(12) 0.019(11)
C4 0.111(8) 0.115(8) 0.103(8) 0.027(7) 0.069(7) 0.003(6)
C5 0.120(13) 0.104(9) 0.23(2) 0.020(12) 0.110(15) 0.002(9)
C6 0.115(8) 0.121(8) 0.155(10) 0.015(7) 0.078(8) -0.006(6)
C7 0.115(12) 0.103(9) 0.171(15) 0.004(11) 0.118(12) 0.003(8)
C8 0.128(12) 0.104(9) 0.185(17) 0.028(10) 0.121(14) 0.018(9)
C9 0.107(12) 0.116(10) 0.181(17) -0.007(11) 0.097(13) 0.024(8)
N4 0.075(6) 0.059(6) 0.077(6) -0.002(5) 0.049(5) 0.000(5)
C10 0.076(7) 0.066(8) 0.083(7) -0.006(7) 0.048(5) -0.004(7)
N5 0.071(6) 0.059(6) 0.095(7) -0.001(6) 0.036(5) -0.007(5)
N6 0.093(7) 0.073(7) 0.097(7) -0.001(6) 0.039(6) 0.001(6)
C11 0.086(8) 0.090(9) 0.077(7) -0.003(7) 0.045(6) -0.029(8)
C12 0.068(9) 0.093(10) 0.099(10) -0.011(8) 0.046(8) 0.008(8)
C13 0.066(7) 0.090(9) 0.097(10) -0.020(6) 0.045(7) -0.005(7)
C14 0.076(9) 0.165(16) 0.157(16) 0.057(12) 0.015(9) -0.014(10)
C15 0.066(9) 0.192(19) 0.133(14) 0.048(11) 0.026(8) -0.023(9)
C16 0.075(8) 0.100