####################################################################### 
# 
# This file contains crystal structure data downloaded from the 
# Cambridge Structural Database (CSD) hosted by the Cambridge 
# Crystallographic Data Centre (CCDC).
# 
# Full information about CCDC data access policies and citation 
# guidelines are available at http://www.ccdc.cam.ac.uk/access/V1 
# 
# Audit and citation data items may have been added by the CCDC. 
# Please retain this information to preserve the provenance of 
# this file and to allow appropriate attribution of the data. 
# 
#######################################################################

data_c2
_audit_block_doi                 10.5517/cc14996y
_database_code_depnum_ccdc_archive 'CCDC 1051619'
loop_
_citation_id
_citation_doi
_citation_year
1 10.1002/anie.201502302 2015
2 10.1039/C5SC01681A 2015
_audit_update_record             
;
2015-03-11 deposited with the CCDC.	2024-07-13 downloaded from the CCDC.
;

_vrf_PLAT411_I                   
;
PROBLEM: Short Inter H...H Contact  H213   ..  H95C    ..       1.71 Ang.  
RESPONSE: Hydrogen atoms concerning with this alert are in the 
solvated cyclohexane molecule. Electron density concerning with 
cyclohexane molecules in the Fourier map are broadened and 
obtaining precise position and conformation of it, especially 
for hydrogen atoms, is impossible. However, to avoid 
misunderstanding about the bond order of it, hydrogen atoms of 
it were generated using the HFIX command.
;
_vrf_PLAT413_I                   
;
PROBLEM: Short Inter XH3 .. XHn     H253   ..  H439    ..       1.70 Ang.  
RESPONSE: Hydrogen atoms concerning with this alert are in the 
solvated cyclohexane molecule. Electron density concerning with 
cyclohexane molecules in the Fourier map are broadened and 
obtaining precise position and conformation of it, especially 
for hydrogen atoms, is impossible. However, to avoid 
misunderstanding about the bond order of it, hydrogen atoms of 
it were generated using the HFIX command.

;
_vrf_PLAT602_I                   
;
PROBLEM: VERY LARGE Solvent Accessible VOID(S) in Structure        ! Info 
RESPONSE: Highest peak of residual electron density in this 
crystal (1.874) was not sufficient to assign it to the heavy 
atom (sulfur) in the guest compound. Therefore, we consider that 
highly disordered solvent molecules would fill in this void space. 
We carefully checked residual electron densities in this void 
space to try to make molecular structures of possible solvents 
(cyclohexane or 1,2-dichloroethane). However, it was impossible 
to make a suitable disordered solvent model describing broad 
and weak electron densities in this void space. The SQUEEZE or 
other solvent masking procedures were not recommended to discuss 
about absolute structure because these rewrite the experimental 
reflection data list. Therefore, we left this void space as a 
vacant.
;

_audit_creation_method           SHELXL-2014/7
_shelx_SHELXL_version_number     2014/7
_chemical_name_systematic        ?
_chemical_name_common            ?
_chemical_melting_point          ?
_chemical_formula_moiety         ?
_chemical_formula_sum            'C87.64 H68.04 I12 N24 S0.62 Zn6'
_chemical_formula_weight         3392.41

loop_
_atom_type_symbol
_atom_type_description
_atom_type_scat_dispersion_real
_atom_type_scat_dispersion_imag
_atom_type_scat_source
C C 0.0181 0.0091 'International Tables Vol C Tables 4.2.6.8 and 6.1.1.4'
H H 0.0000 0.0000 'International Tables Vol C Tables 4.2.6.8 and 6.1.1.4'
N N 0.0311 0.0180 'International Tables Vol C Tables 4.2.6.8 and 6.1.1.4'
S S 0.3331 0.5567 'International Tables Vol C Tables 4.2.6.8 and 6.1.1.4'
Zn Zn -1.5491 0.6778 'International Tables Vol C Tables 4.2.6.8 and 6.1.1.4'
I I -0.3257 6.8362 'International Tables Vol C Tables 4.2.6.8 and 6.1.1.4'

_space_group_crystal_system      monoclinic
_space_group_IT_number           5
_space_group_name_H-M_alt        'C 2'
_space_group_name_Hall           'C 2y'

_shelx_space_group_comment       
;
The symmetry employed for this shelxl refinement is uniquely defined
by the following loop, which should always be used as a source of
symmetry information in preference to the above space-group names.
They are only intended as comments.
;

loop_
_space_group_symop_operation_xyz
'x, y, z'
'-x, y, -z'
'x+1/2, y+1/2, z'
'-x+1/2, y+1/2, -z'

_cell_length_a                   34.4391(11)
_cell_length_b                   15.0959(3)
_cell_length_c                   29.9556(10)
_cell_angle_alpha                90
_cell_angle_beta                 101.454(3)
_cell_angle_gamma                90
_cell_volume                     15263.4(8)
_cell_formula_units_Z            4
_cell_measurement_temperature    100(2)
_cell_measurement_reflns_used    13353
_cell_measurement_theta_min      4.1680
_cell_measurement_theta_max      72.8890

_exptl_crystal_description       block
_exptl_crystal_colour            yellow
_exptl_crystal_density_meas      ?
_exptl_crystal_density_method    ?
_exptl_crystal_density_diffrn    1.476
_exptl_crystal_F_000             6351
_exptl_transmission_factor_min   ?
_exptl_transmission_factor_max   ?
_exptl_crystal_size_max          0.110
_exptl_crystal_size_mid          0.070
_exptl_crystal_size_min          0.050
_exptl_absorpt_coefficient_mu    20.476
_shelx_estimated_absorpt_T_min   0.212
_shelx_estimated_absorpt_T_max   0.428
loop_
_exptl_crystal_face_index_h
_exptl_crystal_face_index_k
_exptl_crystal_face_index_l
_exptl_crystal_face_perp_dist
_exptl_oxdiff_crystal_face_indexfrac_h
_exptl_oxdiff_crystal_face_indexfrac_k
_exptl_oxdiff_crystal_face_indexfrac_l
_exptl_oxdiff_crystal_face_x
_exptl_oxdiff_crystal_face_y
_exptl_oxdiff_crystal_face_z
1 -8 12 0.0703 1.3294 -7.5373 11.8864 -0.6079 -0.7939 0.0091
13 1 13 0.0171 13.0165 1.0255 12.9856 0.4177 -0.9014 0.0362
-2 2 19 0.0256 -1.9746 2.0184 19.0032 0.1939 -0.7182 0.6751
13 0 14 0.0152 13.0190 0.0264 13.9915 0.3316 -0.9767 0.0261
15 0 -17 0.0281 14.9740 -0.0041 -17.0294 0.2786 0.3323 -0.9136
9 -9 2 0.0711 9.0121 -8.9914 2.0372 -0.5980 -0.6197 -0.5473
-1 10 2 0.0297 -1.0082 10.0031 1.9495 0.8768 0.2531 0.4705
-2 8 -9 0.0288 -2.0218 7.9903 -9.0451 0.6417 0.7023 0.1091
-19 0 13 0.0307 -18.9794 -0.0037 13.0322 -0.3796 -0.0453 0.9143
-4 -9 -5 0.0699 -3.6377 -9.2531 -4.7845 -0.9209 0.0242 -0.3891
-14 -2 -11 0.0437 -14.2944 -2.4377 -11.4045 -0.5672 0.8235 -0.0091
-9 0 -16 0.0328 -9.4860 -0.2639 -15.6161 -0.2798 0.9425 -0.1827
-4 2 -18 0.0300 -3.8498 1.8256 -17.7716 0.0246 0.9454 -0.3248
-3 0 19 0.0297 -3.3748 -0.0547 19.4230 -0.0208 -0.7621 0.6471
_exptl_absorpt_correction_T_min  0.219
_exptl_absorpt_correction_T_max  0.492
_exptl_absorpt_correction_type   gaussian
_exptl_absorpt_process_details   
;
CrysAlisPro, Agilent Technologies,
Version 1.171.37.35 (release 13-08-2014 CrysAlis171 .NET)
(compiled Aug 13 2014,18:06:01)
Numerical absorption correction based on gaussian integration over
			a multifaceted crystal model
Empirical absorption correction using spherical harmonics,
 implemented in SCALE3 ABSPACK scaling algorithm.
;
_diffrn_ambient_temperature      100(2)
_diffrn_ambient_environment      N~2~
_diffrn_source                   'sealed X-ray tube'
_diffrn_source_type              'SuperNova (Cu) X-ray Source'
_diffrn_radiation_probe          x-ray
_diffrn_radiation_type           'Cu K\a'
_diffrn_radiation_wavelength     1.54184
_diffrn_radiation_monochromator  mirror
_diffrn_measurement_device       'four-circle diffractometer'
_diffrn_measurement_device_type  'SuperNova, Dual, Cu at zero, AtlasS2'
_diffrn_detector                 'CCD plate'
_diffrn_detector_type            AtlasS2
_diffrn_detector_area_resol_mean 5.2332
_diffrn_measurement_method       '\w scans'
_diffrn_reflns_number            56083
_diffrn_reflns_av_unetI/netI     0.0424
_diffrn_reflns_av_R_equivalents  0.0301
_diffrn_reflns_limit_h_min       -42
_diffrn_reflns_limit_h_max       31
_diffrn_reflns_limit_k_min       -18
_diffrn_reflns_limit_k_max       18
_diffrn_reflns_limit_l_min       -32
_diffrn_reflns_limit_l_max       37
_diffrn_reflns_theta_min         3.431
_diffrn_reflns_theta_max         74.380
_diffrn_reflns_theta_full        67.684
_diffrn_measured_fraction_theta_max 0.985
_diffrn_measured_fraction_theta_full 0.999
_diffrn_reflns_Laue_measured_fraction_max 0.985
_diffrn_reflns_Laue_measured_fraction_full 0.999
_diffrn_reflns_point_group_measured_fraction_max 0.965
_diffrn_reflns_point_group_measured_fraction_full 0.997
_reflns_number_total             30123
_reflns_number_gt                20640
_reflns_threshold_expression     'I > 2\s(I)'
_reflns_Friedel_coverage         0.886
_reflns_Friedel_fraction_max     0.945
_reflns_Friedel_fraction_full    0.994

_reflns_special_details          
;
 Reflections were merged by SHELXL according to the crystal
 class for the calculation of statistics and refinement.
 
 _reflns_Friedel_fraction is defined as the number of unique
 Friedel pairs measured divided by the number that would be
 possible theoretically, ignoring centric projections and
 systematic absences.
;

_computing_data_collection       
;
CrysAlisPro, Agilent Technologies,
Version 1.171.37.35 (release 13-08-2014 CrysAlis171 .NET)
(compiled Aug 13 2014,18:06:01)
;
_computing_cell_refinement       
;
CrysAlisPro, Agilent Technologies,
Version 1.171.37.35 (release 13-08-2014 CrysAlis171 .NET)
(compiled Aug 13 2014,18:06:01)
;
_computing_data_reduction        
;
CrysAlisPro, Agilent Technologies,
Version 1.171.37.35 (release 13-08-2014 CrysAlis171 .NET)
(compiled Aug 13 2014,18:06:01)
;
_computing_structure_solution    'SHELXT-2014/5 (Sheldrick, 2014)'
_computing_structure_refinement  'SHELXL-2014/7 (Sheldrick, 2014)'
_computing_molecular_graphics    'shelXle (Hubschle et al., 2011)'
_computing_publication_material  'SHELXL-2014/7 (Sheldrick, 2014)'
_refine_special_details          ?
_refine_ls_structure_factor_coef Fsqd
_refine_ls_matrix_type           full
_refine_ls_weighting_scheme      calc
_refine_ls_weighting_details     
'w=1/[\s^2^(Fo^2^)+(0.1555P)^2^+38.5837P] where P=(Fo^2^+2Fc^2^)/3'
_atom_sites_solution_primary     iterative
_atom_sites_solution_secondary   difmap
_atom_sites_solution_hydrogens   geom
_refine_ls_hydrogen_treatment    constr
_refine_ls_extinction_method     none
_refine_ls_extinction_coef       .
_refine_ls_abs_structure_details 
;
 Flack x determined using 7144 quotients [(I+)-(I-)]/[(I+)+(I-)]
 (Parsons, Flack and Wagner, Acta Cryst. B69 (2013) 249-259).
;
_refine_ls_abs_structure_Flack   0.102(7)
_chemical_absolute_configuration ad
_refine_ls_number_reflns         30123
_refine_ls_number_parameters     1542
_refine_ls_number_restraints     438
_refine_ls_R_factor_all          0.1034
_refine_ls_R_factor_gt           0.0749
_refine_ls_wR_factor_ref         0.2612
_refine_ls_wR_factor_gt          0.2307
_refine_ls_goodness_of_fit_ref   1.036
_refine_ls_restrained_S_all      1.033
_refine_ls_shift/su_max          0.003
_refine_ls_shift/su_mean         0.000

loop_
_atom_site_label
_atom_site_type_symbol
_atom_site_fract_x
_atom_site_fract_y
_atom_site_fract_z
_atom_site_U_iso_or_equiv
_atom_site_adp_type
_atom_site_occupancy
_atom_site_site_symmetry_order
_atom_site_calc_flag
_atom_site_refinement_flags_posn
_atom_site_refinement_flags_adp
_atom_site_refinement_flags_occupancy
_atom_site_disorder_assembly
_atom_site_disorder_group
Zn1 Zn 0.57772(9) 0.2662(2) 0.84554(9) 0.0799(9) Uani 1 1 d . . . . .
Zn2 Zn 0.36566(9) 0.9727(2) 0.70934(15) 0.1077(14) Uani 1 1 d . . . . .
Zn4 Zn 0.08164(8) 1.00737(19) 0.34312(8) 0.0639(6) Uani 1 1 d . . . . .
Zn5 Zn -0.13160(9) 0.2929(2) 0.20486(15) 0.1135(15) Uani 1 1 d . . . . .
Zn6 Zn 0.17805(18) 0.5281(2) 0.0268(2) 0.139(2) Uani 1 1 d . . . . .
Zn3A Zn 0.1697(5) 0.2452(12) 0.5182(4) 0.063(3) Uani 0.47(3) 1 d . . P A 1
I11A I 0.61283(19) 0.1512(4) 0.8033(3) 0.0850(18) Uani 0.62(3) 1 d . . P B 1
I12A I 0.5242(3) 0.2377(5) 0.8899(4) 0.0877(17) Uani 0.62(3) 1 d . . P B 1
I21A I 0.3411(3) 0.9137(7) 0.7870(3) 0.099(2) Uani 0.386(18) 1 d . . P C 1
I22A I 0.3681(2) 1.1275(3) 0.6943(4) 0.088(3) Uani 0.386(18) 1 d . . P C 1
I31A I 0.2294(3) 0.1514(5) 0.5475(3) 0.083(2) Uani 0.47(3) 1 d . . P A 1
I32A I 0.1268(3) 0.2348(6) 0.43943(19) 0.089(2) Uani 0.47(3) 1 d . . P A 1
I41A I 0.02972(19) 1.0383(4) 0.3906(2) 0.0636(14) Uani 0.65(3) 1 d . . P D 1
I42A I 0.1198(5) 1.1176(7) 0.3026(3) 0.090(2) Uani 0.65(3) 1 d . . P D 1
I51A I -0.1612(8) 0.339(2) 0.2850(10) 0.149(7) Uani 0.28(5) 1 d . . P E 1
I52A I -0.1126(10) 0.1517(13) 0.1668(10) 0.138(8) Uani 0.28(5) 1 d . . P E 1
I61A I 0.1475(9) 0.5705(10) -0.0455(7) 0.175(7) Uani 0.56(3) 1 d . . P F 1
I62A I 0.2500(6) 0.6039(8) 0.0703(11) 0.183(8) Uani 0.56(3) 1 d . . P F 1
N101 N 0.5611(5) 0.3647(11) 0.7983(6) 0.070(4) Uani 1 1 d . . . . .
C102 C 0.5294(5) 0.4198(14) 0.8003(7) 0.066(5) Uani 1 1 d . . . . .
H102 H 0.5118 0.4065 0.8202 0.079 Uiso 1 1 calc R U . . .
C103 C 0.5233(6) 0.4958(14) 0.7726(7) 0.068(5) Uani 1 1 d . . . . .
H103 H 0.5017 0.5343 0.7740 0.082 Uiso 1 1 calc R U . . .
C104 C 0.5485(5) 0.5148(11) 0.7434(6) 0.057(4) Uani 1 1 d . . . . .
C105 C 0.5784(7) 0.4596(15) 0.7417(8) 0.079(6) Uani 1 1 d . . . . .
H105 H 0.5953 0.4704 0.7207 0.095 Uiso 1 1 calc R U . . .
C106 C 0.5849(8) 0.3891(19) 0.7692(9) 0.092(7) Uani 1 1 d . . . . .
H106 H 0.6076 0.3539 0.7684 0.111 Uiso 1 1 calc R U . . .
N111 N 0.4172(5) 0.8999(11) 0.7074(8) 0.094(7) Uani 1 1 d . . . . .
C112 C 0.4346(10) 0.898(3) 0.6669(12) 0.142(15) Uani 1 1 d . . . . .
H112 H 0.4244 0.9337 0.6413 0.170 Uiso 1 1 calc R U . . .
C113 C 0.4624(9) 0.8492(18) 0.6668(10) 0.105(9) Uani 1 1 d . . . . .
H113 H 0.4738 0.8526 0.6405 0.126 Uiso 1 1 calc R U . . .
C114 C 0.4796(5) 0.7905(12) 0.6989(6) 0.059(4) Uani 1 1 d . . . . .
C116 C 0.4315(7) 0.8431(16) 0.7407(9) 0.088(7) Uani 1 1 d . . . . .
H116 H 0.4195 0.8391 0.7667 0.105 Uiso 1 1 calc R U . . .
C115 C 0.4630(6) 0.7908(18) 0.7379(7) 0.080(6) Uani 1 1 d . . . . .
H115 H 0.4740 0.7538 0.7629 0.096 Uiso 1 1 calc R U . . .
N121 N 0.6355(5) 0.7279(12) 0.5662(7) 0.076(4) Uani 1 1 d . . . . .
C122 C 0.6410(11) 0.659(2) 0.5941(12) 0.143(16) Uani 1 1 d . . . . .
H122 H 0.6587 0.6144 0.5882 0.172 Uiso 1 1 calc R U . . .
C123 C 0.6212(11) 0.646(2) 0.6353(15) 0.156(18) Uani 1 1 d . . . . .
H123 H 0.6302 0.6078 0.6606 0.188 Uiso 1 1 calc R U . . .
C124 C 0.5858(6) 0.7019(13) 0.6281(9) 0.074(5) Uani 1 1 d . . . . .
C125 C 0.5775(7) 0.7621(18) 0.5946(8) 0.089(7) Uani 1 1 d . . . . .
H125 H 0.5531 0.7935 0.5902 0.106 Uiso 1 1 calc R U . . .
C126 C 0.6035(7) 0.7787(16) 0.5667(9) 0.088(7) Uani 1 1 d . . . . .
H126 H 0.5988 0.8283 0.5468 0.105 Uiso 1 1 calc R U . . .
C131 C 0.5438(5) 0.5981(12) 0.7150(6) 0.057(4) Uani 1 1 d . . . . .
N132 N 0.5151(5) 0.6571(11) 0.7235(5) 0.066(4) Uani 1 1 d . . . . .
C133 C 0.5118(5) 0.7265(12) 0.6958(5) 0.057(4) Uani 1 1 d . . . . .
N134 N 0.5328(4) 0.7438(11) 0.6630(5) 0.062(3) Uani 1 1 d . . . . .
C135 C 0.5589(5) 0.6829(12) 0.6593(6) 0.057(4) Uani 1 1 d . . . . .
N136 N 0.5663(4) 0.6099(9) 0.6857(5) 0.057(3) Uani 1 1 d . . . . .
N141 N 0.3264(5) 0.9120(11) 0.6580(7) 0.085(6) Uani 1 1 d . . . . .
C142 C 0.3199(6) 0.8230(14) 0.6628(9) 0.097(8) Uani 1 1 d . . . . .
H142 H 0.3331 0.7922 0.6892 0.116 Uiso 1 1 calc R U . . .
C143 C 0.2938(7) 0.7781(13) 0.6284(8) 0.089(7) Uani 1 1 d . . . . .
H143 H 0.2921 0.7153 0.6293 0.107 Uiso 1 1 calc R U . . .
C144 C 0.2703(4) 0.8244(12) 0.5928(6) 0.057(4) Uani 1 1 d . . . . .
C145 C 0.2765(6) 0.9139(12) 0.5917(8) 0.088(8) Uani 1 1 d . . . . .
H145 H 0.2619 0.9481 0.5674 0.106 Uiso 1 1 calc R U . . .
C146 C 0.3028(6) 0.9539(14) 0.6242(9) 0.102(9) Uani 1 1 d . . . . .
H146 H 0.3049 1.0166 0.6230 0.123 Uiso 1 1 calc R U . . .
N151 N 0.1856(6) 0.3799(10) 0.5267(6) 0.077(5) Uani 1 1 d . . . . .
C152 C 0.1655(9) 0.4335(16) 0.4980(10) 0.105(9) Uani 1 1 d . . . . .
H152 H 0.1446 0.4093 0.4759 0.126 Uiso 1 1 calc R U . . .
C153 C 0.1719(11) 0.5226(17) 0.4966(8) 0.111(10) Uani 1 1 d . . . . .
H153 H 0.1570 0.5572 0.4727 0.133 Uiso 1 1 calc R U . . .
C154 C 0.1995(6) 0.5621(13) 0.5296(7) 0.069(5) Uani 1 1 d . . . . .
C155 C 0.2222(9) 0.5064(16) 0.5629(13) 0.127(13) Uani 1 1 d . . . . .
H155 H 0.2437 0.5