####################################################################### 
# 
# This file contains crystal structure data downloaded from the 
# Cambridge Structural Database (CSD) hosted by the Cambridge 
# Crystallographic Data Centre (CCDC).
# 
# Full information about CCDC data access policies and citation 
# guidelines are available at http://www.ccdc.cam.ac.uk/access/V1 
# 
# Audit and citation data items may have been added by the CCDC. 
# Please retain this information to preserve the provenance of 
# this file and to allow appropriate attribution of the data. 
# 
#######################################################################

data_5
_audit_block_doi                 10.5517/cctbbt8
_database_code_depnum_ccdc_archive 'CCDC 754720'
loop_
_citation_id
_citation_doi
_citation_year
1 10.1021/ic900657w 2009
_audit_update_record             
;
2009-11-13 deposited with the CCDC.	2024-07-13 downloaded from the CCDC.
;


_audit_creation_method           SHELXL-97
_chemical_name_systematic        
;
?
;
_chemical_name_common            ?
_chemical_melting_point          ?
_chemical_formula_moiety         ?
_chemical_formula_sum            'C125 H98 Cl11 Cu2 F12 N8 P2'
_chemical_formula_weight         2519.08

loop_
_atom_type_symbol
_atom_type_description
_atom_type_scat_dispersion_real
_atom_type_scat_dispersion_imag
_atom_type_scat_source
C C 0.0033 0.0016 'International Tables Vol C Tables 4.2.6.8 and 6.1.1.4'
H H 0.0000 0.0000 'International Tables Vol C Tables 4.2.6.8 and 6.1.1.4'
Cu Cu 0.3201 1.2651 'International Tables Vol C Tables 4.2.6.8 and 6.1.1.4'
F F 0.0171 0.0103 'International Tables Vol C Tables 4.2.6.8 and 6.1.1.4'
N N 0.0061 0.0033 'International Tables Vol C Tables 4.2.6.8 and 6.1.1.4'
P P 0.1023 0.0942 'International Tables Vol C Tables 4.2.6.8 and 6.1.1.4'
Cl Cl 0.1484 0.1585 'International Tables Vol C Tables 4.2.6.8 and 6.1.1.4'

_symmetry_cell_setting           trigonal
_symmetry_space_group_name_H-M   R-3

loop_
_symmetry_equiv_pos_as_xyz
'x, y, z'
'-y, x-y, z'
'-x+y, -x, z'
'x+2/3, y+1/3, z+1/3'
'-y+2/3, x-y+1/3, z+1/3'
'-x+y+2/3, -x+1/3, z+1/3'
'x+1/3, y+2/3, z+2/3'
'-y+1/3, x-y+2/3, z+2/3'
'-x+y+1/3, -x+2/3, z+2/3'
'-x, -y, -z'
'y, -x+y, -z'
'x-y, x, -z'
'-x+2/3, -y+1/3, -z+1/3'
'y+2/3, -x+y+1/3, -z+1/3'
'x-y+2/3, x+1/3, -z+1/3'
'-x+1/3, -y+2/3, -z+2/3'
'y+1/3, -x+y+2/3, -z+2/3'
'x-y+1/3, x+2/3, -z+2/3'

_cell_length_a                   26.457(11)
_cell_length_b                   26.457(11)
_cell_length_c                   102.846(8)
_cell_angle_alpha                90.00
_cell_angle_beta                 90.00
_cell_angle_gamma                120.00
_cell_volume                     62345(37)
_cell_formula_units_Z            18
_cell_measurement_temperature    293(2)
_cell_measurement_reflns_used    7995
_cell_measurement_theta_min      1.8
_cell_measurement_theta_max      21.8

_exptl_crystal_description       block
_exptl_crystal_colour            colorless
_exptl_crystal_size_max          0.67
_exptl_crystal_size_mid          0.55
_exptl_crystal_size_min          0.47
_exptl_crystal_density_meas      ?
_exptl_crystal_density_diffrn    1.208
_exptl_crystal_density_method    'not measured'
_exptl_crystal_F_000             23166
_exptl_absorpt_coefficient_mu    0.604
_exptl_absorpt_correction_type   numerical
_exptl_absorpt_correction_T_min  0.7019
_exptl_absorpt_correction_T_max  0.7698
_exptl_absorpt_process_details   
;Crystal description with 8 faces,

X-SHAPE 1.06 (STOE & Cie, 1999)

;


_exptl_special_details           
;
The PLATON SQUEEZE procedure was used to treat regions of diffuse
solvent which could not be sensibly modelled in terms of atomic
sites. Their contribution to the diffraction pattern was removed
and modified F(obs)**2 written to a new HKL file. The number of
electrons thus located, 386 per unit cell, are included in the
formula, formula weight, calculated density, mu and F(000).
This was assigned as two thirds of PF6 ions and four and half
molecules of 1,2-dichloro-benzene.
;


_diffrn_ambient_temperature      293(2)
_diffrn_radiation_wavelength     0.71073
_diffrn_radiation_type           MoK\a
_diffrn_radiation_source         'fine-focus sealed tube'
_diffrn_radiation_monochromator  graphite
_diffrn_measurement_device_type  ?
_diffrn_measurement_method       ?
_diffrn_detector_area_resol_mean ?
_diffrn_standards_number         ?
_diffrn_standards_interval_count ?
_diffrn_standards_interval_time  ?
_diffrn_standards_decay_%        ?
_diffrn_reflns_number            151831
_diffrn_reflns_av_R_equivalents  0.1002
_diffrn_reflns_av_sigmaI/netI    0.1274
_diffrn_reflns_limit_h_min       -30
_diffrn_reflns_limit_h_max       30
_diffrn_reflns_limit_k_min       -30
_diffrn_reflns_limit_k_max       30
_diffrn_reflns_limit_l_min       -118
_diffrn_reflns_limit_l_max       118
_diffrn_reflns_theta_min         1.79
_diffrn_reflns_theta_max         24.20
_reflns_number_total             22134
_reflns_number_gt                6658
_reflns_threshold_expression     >2sigma(I)

_computing_data_collection       ?
_computing_cell_refinement       ?
_computing_data_reduction        ?
_computing_structure_solution    'SHELXS-97 (Sheldrick, 1990)'
_computing_structure_refinement  'SHELXL-97 (Sheldrick, 1997)'
_computing_molecular_graphics    ?
_computing_publication_material  ?

_refine_special_details          
;
Refinement of F^2^ against ALL reflections. The weighted R-factor wR and
goodness of fit S are based on F^2^, conventional R-factors R are based
on F, with F set to zero for negative F^2^. The threshold expression of
F^2^ > 2sigma(F^2^) is used only for calculating R-factors(gt) etc. and is
not relevant to the choice of reflections for refinement. R-factors based
on F^2^ are statistically about twice as large as those based on F, and R-
factors based on ALL data will be even larger.
;

_refine_ls_structure_factor_coef Fsqd
_refine_ls_matrix_type           full
_refine_ls_weighting_scheme      calc
_refine_ls_weighting_details     
'calc w=1/[\s^2^(Fo^2^)+(0.1000P)^2^+0.0000P] where P=(Fo^2^+2Fc^2^)/3'
_atom_sites_solution_primary     direct
_atom_sites_solution_secondary   difmap
_atom_sites_solution_hydrogens   geom
_refine_ls_hydrogen_treatment    constr
_refine_ls_extinction_method     none
_refine_ls_extinction_coef       ?
_refine_ls_number_reflns         22134
_refine_ls_number_parameters     1003
_refine_ls_number_restraints     146
_refine_ls_R_factor_all          0.1615
_refine_ls_R_factor_gt           0.0709
_refine_ls_wR_factor_ref         0.1997
_refine_ls_wR_factor_gt          0.1748
_refine_ls_goodness_of_fit_ref   0.741
_refine_ls_restrained_S_all      0.749
_refine_ls_shift/su_max          0.000
_refine_ls_shift/su_mean         0.000

loop_
_atom_site_label
_atom_site_type_symbol
_atom_site_fract_x
_atom_site_fract_y
_atom_site_fract_z
_atom_site_U_iso_or_equiv
_atom_site_adp_type
_atom_site_occupancy
_atom_site_symmetry_multiplicity
_atom_site_calc_flag
_atom_site_refinement_flags
_atom_site_disorder_assembly
_atom_site_disorder_group
Cu1 Cu 0.22456(3) -0.16681(3) 0.124378(7) 0.1002(3) Uani 1 1 d . . .
Cu2 Cu 0.08200(3) 0.27086(3) -0.042177(6) 0.0856(2) Uani 1 1 d . . .
C1 C 0.1101(3) -0.1668(3) 0.12911(7) 0.1088(19) Uani 1 1 d . . .
C2 C 0.0671(3) -0.1506(4) 0.12647(8) 0.142(3) Uani 1 1 d . . .
H2A H 0.0350 -0.1632 0.1319 0.171 Uiso 1 1 calc R . .
C3 C 0.0731(4) -0.1172(4) 0.11603(8) 0.134(3) Uani 1 1 d . . .
H3A H 0.0455 -0.1062 0.1142 0.161 Uiso 1 1 calc R . .
C4 C 0.1211(3) -0.0996(3) 0.10811(7) 0.116(2) Uani 1 1 d . . .
C5 C 0.1306(3) -0.0647(3) 0.09636(7) 0.122(2) Uani 1 1 d . . .
H5A H 0.1037 -0.0536 0.0940 0.146 Uiso 1 1 calc R . .
C6 C 0.1764(4) -0.0494(3) 0.08927(7) 0.122(2) Uani 1 1 d . . .
H6A H 0.1817 -0.0268 0.0819 0.146 Uiso 1 1 calc R . .
C7 C 0.2197(3) -0.0656(3) 0.09220(7) 0.1058(19) Uani 1 1 d . . .
C8 C 0.2691(4) -0.0502(3) 0.08508(7) 0.130(2) Uani 1 1 d . . .
H8A H 0.2756 -0.0283 0.0776 0.157 Uiso 1 1 calc R . .
C9 C 0.3094(3) -0.0660(3) 0.08867(8) 0.131(2) Uani 1 1 d . . .
H9A H 0.3428 -0.0549 0.0837 0.157 Uiso 1 1 calc R . .
C10 C 0.2986(3) -0.0989(3) 0.09981(6) 0.1011(18) Uani 1 1 d . . .
C11 C 0.1615(3) -0.1172(3) 0.11129(6) 0.0953(17) Uani 1 1 d . . .
C12 C 0.2117(3) -0.0997(2) 0.10362(6) 0.0900(16) Uani 1 1 d . . .
C13 C 0.0996(3) -0.2085(4) 0.14073(8) 0.111(2) Uani 1 1 d . . .
C14 C 0.0682(3) -0.2670(4) 0.13930(7) 0.118(2) Uani 1 1 d . . .
C15 C 0.0620(3) -0.3022(3) 0.15011(8) 0.119(2) Uani 1 1 d . . .
C16 C 0.0871(3) -0.2779(4) 0.16190(7) 0.115(2) Uani 1 1 d . . .
C17 C 0.1172(3) -0.2188(4) 0.16324(8) 0.129(2) Uani 1 1 d . . .
C18 C 0.1237(3) -0.1830(3) 0.15268(9) 0.124(2) Uani 1 1 d . . .
C19 C 0.0392(4) -0.2928(3) 0.12649(7) 0.147(3) Uani 1 1 d . . .
H19A H 0.0484 -0.2619 0.1204 0.220 Uiso 1 1 calc R . .
H19B H -0.0023 -0.3151 0.1277 0.220 Uiso 1 1 calc R . .
H19C H 0.0531 -0.3177 0.1232 0.220 Uiso 1 1 calc R . .
C20 C 0.0247(4) -0.3705(4) 0.14852(8) 0.172(3) Uani 1 1 d . . .
H20A H 0.0244 -0.3889 0.1566 0.258 Uiso 1 1 calc R . .
H20B H 0.0414 -0.3828 0.1418 0.258 Uiso 1 1 calc R . .
H20C H -0.0146 -0.3813 0.1462 0.258 Uiso 1 1 calc R . .
C21 C 0.1467(4) -0.1923(4) 0.17612(9) 0.185(4) Uani 1 1 d . . .
H21A H 0.1375 -0.2229 0.1823 0.277 Uiso 1 1 calc R . .
H21B H 0.1329 -0.1672 0.1793 0.277 Uiso 1 1 calc R . .
H21C H 0.1882 -0.1701 0.1749 0.277 Uiso 1 1 calc R . .
C22 C 0.1565(4) -0.1168(4) 0.15440(8) 0.159(3) Uani 1 1 d . . .
H22A H 0.1703 -0.1073 0.1632 0.238 Uiso 1 1 calc R . .
H22B H 0.1308 -0.1020 0.1525 0.238 Uiso 1 1 calc R . .
H22C H 0.1892 -0.0996 0.1486 0.238 Uiso 1 1 calc R . .
C23 C 0.0793(3) -0.3164(4) 0.17275(8) 0.1400(18) Uani 1 1 d U . .
C24 C 0.0383(3) -0.3325(3) 0.18194(7) 0.1367(17) Uani 1 1 d U . .
H24A H 0.0126 -0.3182 0.1816 0.164 Uiso 1 1 calc R . .
C25 C 0.0331(3) -0.3704(3) 0.19192(7) 0.1316(16) Uani 1 1 d U . .
H25A H 0.0014 -0.3827 0.1975 0.158 Uiso 1 1 calc R . .
C26 C 0.1080(3) -0.3756(4) 0.18475(8) 0.1544(18) Uani 1 1 d U . .
H26A H 0.1342 -0.3893 0.1854 0.185 Uiso 1 1 calc R . .
C27 C 0.1125(3) -0.3408(4) 0.17394(8) 0.1566(18) Uani 1 1 d U . .
H27A H 0.1395 -0.3347 0.1675 0.188 Uiso 1 1 calc R . .
C28 C 0.3411(3) -0.1166(4) 0.10396(7) 0.1056(19) Uani 1 1 d . . .
C29 C 0.3903(4) -0.0788(3) 0.11133(7) 0.118(2) Uani 1 1 d . . .
C30 C 0.4318(3) -0.0940(4) 0.11482(7) 0.123(2) Uani 1 1 d . . .
C31 C 0.4262(4) -0.1448(5) 0.11115(9) 0.126(2) Uani 1 1 d . . .
C32 C 0.3822(4) -0.1811(4) 0.10293(10) 0.147(3) Uani 1 1 d . . .
C33 C 0.3373(3) -0.1662(4) 0.09977(8) 0.135(2) Uani 1 1 d . . .
C34 C 0.3977(3) -0.0201(4) 0.11505(8) 0.162(3) Uani 1 1 d . . .
H34A H 0.4327 0.0014 0.1201 0.243 Uiso 1 1 calc R . .
H34B H 0.3647 -0.0258 0.1201 0.243 Uiso 1 1 calc R . .
H34C H 0.4003 0.0015 0.1073 0.243 Uiso 1 1 calc R . .
C35 C 0.4860(4) -0.0510(4) 0.12285(9) 0.188(4) Uani 1 1 d . . .
H35A H 0.5101 -0.0680 0.1244 0.282 Uiso 1 1 calc R . .
H35B H 0.4736 -0.0432 0.1310 0.282 Uiso 1 1 calc R . .
H35C H 0.5079 -0.0152 0.1181 0.282 Uiso 1 1 calc R . .
C36 C 0.3730(4) -0.2394(5) 0.09852(13) 0.238(6) Uani 1 1 d . . .
H36A H 0.4055 -0.2435 0.1012 0.358 Uiso 1 1 calc R . .
H36B H 0.3699 -0.2418 0.0892 0.358 Uiso 1 1 calc R . .
H36C H 0.3378 -0.2700 0.1023 0.358 Uiso 1 1 calc R . .
C37 C 0.2852(4) -0.2082(4) 0.09063(11) 0.202(4) Uani 1 1 d . . .
H37A H 0.2595 -0.1929 0.0894 0.304 Uiso 1 1 calc R . .
H37B H 0.2642 -0.2462 0.0945 0.304 Uiso 1 1 calc R . .
H37C H 0.3004 -0.2112 0.0824 0.304 Uiso 1 1 calc R . .
C38 C 0.4684(3) -0.1648(4) 0.11458(8) 0.1396(18) Uani 1 1 d U . .
C39 C 0.5177(3) -0.1482(3) 0.10763(7) 0.1367(17) Uani 1 1 d U . .
H39A H 0.5257 -0.1244 0.1004 0.164 Uiso 1 1 calc R . .
C40 C 0.5555(3) -0.1662(3) 0.11123(7) 0.1333(17) Uani 1 1 d U . .
H40A H 0.5888 -0.1530 0.1061 0.160 Uiso 1 1 calc R . .
C41 C 0.5036(3) -0.2130(4) 0.12751(8) 0.1508(18) Uani 1 1 d U . .
H41A H 0.4961 -0.2369 0.1347 0.181 Uiso 1 1 calc R . .
C42 C 0.4631(3) -0.1952(4) 0.12488(8) 0.1547(18) Uani 1 1 d U . .
H42A H 0.4321 -0.2053 0.1305 0.186 Uiso 1 1 calc R . .
C43 C 0.0339(3) 0.3553(2) -0.03787(6) 0.0904(16) Uani 1 1 d . . .
C44 C 0.0280(3) 0.4027(3) -0.04061(7) 0.131(2) Uani 1 1 d . . .
H44A H 0.0030 0.4099 -0.0356 0.157 Uiso 1 1 calc R . .
C45 C 0.0594(3) 0.4403(3) -0.05080(8) 0.130(2) Uani 1 1 d . . .
H45A H 0.0566 0.4732 -0.0526 0.155 Uiso 1 1 calc R . .
C46 C 0.0946(3) 0.4261(3) -0.05802(6) 0.1038(19) Uani 1 1 d . . .
C47 C 0.1296(4) 0.4612(3) -0.06905(8) 0.141(3) Uani 1 1 d . . .
H47A H 0.1269 0.4936 -0.0715 0.169 Uiso 1 1 calc R . .
C48 C 0.1650(4) 0.4488(3) -0.07569(7) 0.139(3) Uani 1 1 d . . .
H48A H 0.1871 0.4731 -0.0825 0.167 Uiso 1 1 calc R . .
C49 C 0.1699(3) 0.3967(3) -0.07244(6) 0.1025(18) Uani 1 1 d . . .
C50 C 0.2055(3) 0.3817(3) -0.07886(7) 0.130(2) Uani 1 1 d . . .
H50A H 0.2298 0.4052 -0.0855 0.156 Uiso 1 1 calc R . .
C51 C 0.2053(3) 0.3316(3) -0.07547(7) 0.122(2) Uani 1 1 d . . .
H51A H 0.2285 0.3203 -0.0800 0.147 Uiso 1 1 calc R . .
C52 C 0.1698(3) 0.2972(2) -0.06512(6) 0.0908(16) Uani 1 1 d . . .
C53 C 0.1348(2) 0.3608(2) -0.06222(5) 0.0842(15) Uani 1 1 d . . .
C54 C 0.0976(3) 0.3766(2) -0.05504(5) 0.0877(15) Uani 1 1 d . . .
C55 C 0.0002(3) 0.3160(3) -0.02668(7) 0.0977(17) Uani 1 1 d . . .
C56 C 0.0287(3) 0.3251(3) -0.01484(7) 0.1071(19) Uani 1 1 d . . .
C57 C -0.0005(3) 0.2875(3) -0.00431(6) 0.113(2) Uani 1 1 d . . .
C58 C -0.0581(3) 0.2449(3) -0.00581(6) 0.1031(18) Uani 1 1 d . . .
C59 C -0.0875(3) 0.2401(3) -0.01708(7) 0.0993(17) Uani 1 1 d . . .
C60 C -0.0567(3) 0.2759(3) -0.02792(6) 0.0972(17) Uani 1 1 d . . .
C61 C 0.0897(3) 0.3729(3) -0.01313(7) 0.142(3) Uani 1 1 d . . .
H61A H 0.1034 0.3946 -0.0211 0.212 Uiso 1 1 calc R . .
H61B H 0.1139 0.3567 -0.0109 0.212 Uiso 1 1 calc R . .
H61C H 0.0913 0.3983 -0.0063 0.212 Uiso 1 1 calc R . .
C62 C 0.0301(3) 0.2935(4) 0.00843(7) 0.180(4) Uani 1 1 d . . .
H62A H 0.0037 0.2642 0.0144 0.270 Uiso 1 1 calc R . .
H62B H 0.0428 0.3315 0.0120 0.270 Uiso 1 1 calc R . .
H62C H 0.0632 0.2886 0.0070 0.270 Uiso 1 1 calc R . .
C63 C -0.1518(4) 0.1938(3) -0.01826(7) 0.154(3) Uani 1 1 d . . .
H63A H -0.1654 0.1738 -0.0101 0.231 Uiso 1 1 calc R . .
H63B H -0.1564 0.1662 -0.0249 0.231 Uiso 1 1 calc R . .
H63C H -0.1741 0.2121 -0.0205 0.231 Uiso 1 1 calc R . .
C64 C -0.0874(3) 0.2694(3) -0.04040(6) 0.126(2) Uani 1 1 d . . .
H64A H -0.0606 0.2966 -0.0466 0.190 Uiso 1 1 calc R . .
H64B H -0.1189 0.2771 -0.0390 0.190 Uiso 1 1 calc R . .
H64C H -0.1028 0.2304 -0.0436 0.190 Uiso 1 1 calc R . .
C65 C -0.0907(3) 0.2056(3) 0.00543(7) 0.112(2) Uani 1 1 d . . .
C66 C -0.0953(4) 0.1521(4) 0.00675(8) 0.171(4) Uani 1 1 d . . .
H66A H -0.0798 0.1383 0.0005 0.205 Uiso 1 1 calc R . .
C67 C -0.1227(4) 0.1194(4) 0.01740(8) 0.164(4) Uani 1 1 d . . .
H67A H -0.1251 0.0832 0.0178 0.197 Uiso 1 1 calc R . .
C68 C -0.1414(3) 0.1851(3) 0.02559(6) 0.114(2) Uani 1 1 d . . .
H68A H -0.1573 0.1981 0.0319 0.137 Uiso 1 1 calc R . .
C69 C -0.1143(3) 0.2208(3) 0.01513(7) 0.114(2) Uani 1 1 d . . .
H69A H -0.1122 0.2569 0.0148 0.137 Uiso 1 1 calc R . .
C70 C 0.1729(3) 0.2451(3) -0.06120(6) 0.0886(15) Uani 1 1 d . . .
C71 C 0.1295(3) 0.1908(3) -0.06535(5) 0.0919(16) Uani 1 1 d . . .
C72 C 0.1317(3) 0.1407(2) -0.06166(6) 0.0884(16) Uani 1 1 d . . .
C73 C 0.1766(3) 0.1455(3) -0.05460(6) 0.0859(15) Uani 1 1 d . . .
C74 C 0.2200(3) 0.1989(3) -0.05063(6) 0.1055(19) Uani 1 1 d . . .
C75 C 0.2184(3) 0.2505(3) -0.05424(6) 0.0967(17) Uani 1 1 d . . .
C76 C 0.0824(3) 0.1858(3) -0.07455(7) 0.123(2) Uani 1 1 d . . .
H76A H 0.0872 0.2238 -0.0760 0.185 Uiso 1 1 calc R . .
H76B H 0.0448 0.1607 -0.0708 0.185 Uiso 1 1 calc R . .
H76C H 0.0855 0.1696 -0.0827 0.185 Uiso 1 1 calc R . .
C77 C 0.0839(3) 0.0804(3) -0.06637(7) 0.134(2) Uani 1 1 d . . .
H77A H 0.0916 0.0510 -0.0631 0.201 Uiso 1 1 calc R . .
H77B H 0.0836 0.0794 -0.0757 0.201 Uiso 1 1 calc R . .
H77C H 0.0466 0.0730 -0.0633 0.201 Uiso 1 1 calc R . .
C78 C 0.2709(4) 0.2044(3) -0.04235(7) 0.146(3) Uani 1 1 d . . .
H78A H 0.2655 0.1662 -0.0407 0.219 Uiso 1 1 calc R . .
H78B H 0.2722 0.2229 -0.0342 0.219 Uiso 1 1 calc R . .
H78C H 0.3070 0.2274 -0.0469 0.219 Uiso 1 1 calc R . .
C79 C 0.2684(3) 0.3111(3) -0.04997(7) 0.123(2) Uani 1 1 d . . .
H79A H 0.2611 0.3409 -0.0532 0.184 Uiso 1 1 calc R . .
H79B H 0.3047 0.3170 -0.0534 0.184 Uiso 1 1 calc R . .
H79C H 0.2706 0.3129 -0.0407 0.184 Uiso 1 1 calc R . .
C80 C 0.1798(3) 0.0922(3) -0.05142(6) 0.0973(17) Uani 1 1 d . . .
C81 C 0.1467(4) 0.0529(4) -0.04148(8) 0.172(4) Uani 1 1 d . . .
H81A H 0.1210 0.0597 -0.0366 0.206 Uiso 1 1 calc R . .
C82 C 0.1516(4) 0.0063(3) -0.03888(8) 0.159(3) Uani 1 1 d . . .
H82A H 0.1294 -0.0171 -0.0320 0.191 Uiso 1 1 calc R . .
C83 C 0.2144(3) 0.0261(3) -0.05497(6) 0.0962(17) Uani 1 1 d . . .
H83A H 0.2384 0.0175 -0.0600 0.115 Uiso 1 1 calc R . .
C84 C 0.2123(2) 0.0744(3) -0.05827(5) 0.0936(17) Uani 1 1 d . . .
H84A H 0.2335 0.0961 -0.0654 0.112 Uiso 1 1 calc R . .
C85 C 0.0926(8) -0.2925(7) 0.07758(16) 0.232(7) Uani 1 1 d D . .
C86 C 0.0470(13) -0.2957(8) 0.0841(2) 0.339(19) Uani 1 1 d D . .
C87 C 0.0056(9) -0.3491(13) 0.0875(2) 0.44(2) Uani 1 1 d D . .
H87A H -0.0248 -0.3537 0.0928 0.525 Uiso 1 1 calc R . .
C88 C 0.0069(10) -0.3965(9) 0.0835(4) 0.64(4) Uani 1 1 d D . .
H88A H -0.0249 -0.4337 0.0847 0.766 Uiso 1 1 calc R . .
C89 C 0.0547(12) -0.3886(9) 0.0776(2) 0.40(2) Uani 1 1 d D . .
H89A H 0.0599 -0.4205 0.0763 0.475 Uiso 1 1 calc R . .
C90 C 0.0956(8) -0.3367(11) 0.07350(13) 0.292(11) Uani 1 1 d D . .
H90A H 0.1251 -0.3324 0.0679 0.350 Uiso 1 1 calc R . .
N1 N 0.1557(2) -0.1513(2) 0.12215(5) 0.0906(13) Uani 1 1 d . . .
N2 N 0.2522(2) -0.11607(19) 0.10730(5) 0.0925(13) Uani 1 1 d . . .
N3 N 0.0684(2) -0.3899(3) 0.19419(5) 0.1252(14) Uani 1 1 d U . .
N4 N 0.5505(2) -0.1999(3) 0.12101(5) 0.1212(14) Uani 1 1 d U . .
N5 N 0.06720(19) 0.34093(17) -0.04453(4) 0.0816(12) Uani 1 1 d . . .
N6 N 0.13572(19) 0.31082(18) -0.05847(4) 0.0807(11) Uani 1 1 d 