####################################################################### 
# 
# This file contains crystal structure data downloaded from the 
# Cambridge Structural Database (CSD) hosted by the Cambridge 
# Crystallographic Data Centre (CCDC).
# 
# Full information about CCDC data access policies and citation 
# guidelines are available at http://www.ccdc.cam.ac.uk/access/V1 
# 
# Audit and citation data items may have been added by the CCDC. 
# Please retain this information to preserve the provenance of 
# this file and to allow appropriate attribution of the data. 
# 
#######################################################################

data_2
_audit_block_doi                 10.5517/ccs72z1
_database_code_depnum_ccdc_archive 'CCDC 721803'
loop_
_citation_id
_citation_doi
_citation_year
1 10.1002/chem.200901023 2009
_audit_update_record             
;
2009-02-23 deposited with the CCDC.	2024-07-13 downloaded from the CCDC.
;

_audit_creation_method           SHELXL-97
_chemical_name_systematic        
;
?
;
_chemical_name_common            ?
_chemical_melting_point          ?
_chemical_formula_moiety         ?
_chemical_formula_sum            'C48 H38 Cd Cl2 N12 O9'
_chemical_formula_weight         1110.20

loop_
_atom_type_symbol
_atom_type_description
_atom_type_scat_dispersion_real
_atom_type_scat_dispersion_imag
_atom_type_scat_source
C C 0.0033 0.0016 'International Tables Vol C Tables 4.2.6.8 and 6.1.1.4'
H H 0.0000 0.0000 'International Tables Vol C Tables 4.2.6.8 and 6.1.1.4'
N N 0.0061 0.0033 'International Tables Vol C Tables 4.2.6.8 and 6.1.1.4'
O O 0.0106 0.0060 'International Tables Vol C Tables 4.2.6.8 and 6.1.1.4'
Cl Cl 0.1484 0.1585 'International Tables Vol C Tables 4.2.6.8 and 6.1.1.4'
Cd Cd -0.8075 1.2024 'International Tables Vol C Tables 4.2.6.8 and 6.1.1.4'

_symmetry_cell_setting           Tetragonal
_symmetry_space_group_name_H-M   P4(1)2(1)2

loop_
_symmetry_equiv_pos_as_xyz
'x, y, z'
'-x, -y, z+1/2'
'-y+1/2, x+1/2, z+1/4'
'y+1/2, -x+1/2, z+3/4'
'-x+1/2, y+1/2, -z+1/4'
'x+1/2, -y+1/2, -z+3/4'
'y, x, -z'
'-y, -x, -z+1/2'

_cell_length_a                   15.916(3)
_cell_length_b                   15.916(3)
_cell_length_c                   21.495(7)
_cell_angle_alpha                90.00
_cell_angle_beta                 90.00
_cell_angle_gamma                90.00
_cell_volume                     5445(2)
_cell_formula_units_Z            4
_cell_measurement_temperature    123(2)
_cell_measurement_reflns_used    4773
_cell_measurement_theta_min      2.286
_cell_measurement_theta_max      27.012

_exptl_crystal_description       block
_exptl_crystal_colour            colourless
_exptl_crystal_size_max          0.24
_exptl_crystal_size_mid          0.20
_exptl_crystal_size_min          0.18
_exptl_crystal_density_meas      ?
_exptl_crystal_density_diffrn    1.354
_exptl_crystal_density_method    'not measured'
_exptl_crystal_F_000             2256
_exptl_absorpt_coefficient_mu    0.561
_exptl_absorpt_correction_type   multi-scan
_exptl_absorpt_correction_T_min  0.8771
_exptl_absorpt_correction_T_max  0.9057
_exptl_absorpt_process_details   sadabs

_exptl_special_details           
;
?
;

_diffrn_ambient_temperature      123(2)
_diffrn_radiation_wavelength     0.71073
_diffrn_radiation_type           MoK\a
_diffrn_radiation_source         'fine-focus sealed tube'
_diffrn_radiation_monochromator  graphite
_diffrn_measurement_device_type  'CCD area detector'
_diffrn_measurement_method       'phi and omega scans'
_diffrn_detector_area_resol_mean ?
_diffrn_standards_number         ?
_diffrn_standards_interval_count ?
_diffrn_standards_interval_time  ?
_diffrn_standards_decay_%        ?
_diffrn_reflns_number            27744
_diffrn_reflns_av_R_equivalents  0.0993
_diffrn_reflns_av_sigmaI/netI    0.0754
_diffrn_reflns_limit_h_min       -19
_diffrn_reflns_limit_h_max       19
_diffrn_reflns_limit_k_min       -19
_diffrn_reflns_limit_k_max       19
_diffrn_reflns_limit_l_min       -16
_diffrn_reflns_limit_l_max       25
_diffrn_reflns_theta_min         1.59
_diffrn_reflns_theta_max         25.50
_reflns_number_total             5069
_reflns_number_gt                4094
_reflns_threshold_expression     >2sigma(I)

_computing_data_collection       'Bruker SMART'
_computing_cell_refinement       'Bruker SMART'
_computing_data_reduction        'Bruker SAINT'
_computing_structure_solution    'SHELXS-97 (Sheldrick, 1990)'
_computing_structure_refinement  'SHELXL-97 (Sheldrick, 1997)'
_computing_molecular_graphics    'Bruker SHELXTL'
_computing_publication_material  'Bruker SHELXTL'

_refine_special_details          
;
Refinement of F^2^ against ALL reflections. The weighted R-factor wR and
goodness of fit S are based on F^2^, conventional R-factors R are based
on F, with F set to zero for negative F^2^. The threshold expression of
F^2^ > 2sigma(F^2^) is used only for calculating R-factors(gt) etc. and is
not relevant to the choice of reflections for refinement. R-factors based
on F^2^ are statistically about twice as large as those based on F, and R-
factors based on ALL data will be even larger.
;

_refine_ls_structure_factor_coef Fsqd
_refine_ls_matrix_type           full
_refine_ls_weighting_scheme      calc
_refine_ls_weighting_details     
'calc w=1/[\s^2^(Fo^2^)+(0.0972P)^2^+0.0000P] where P=(Fo^2^+2Fc^2^)/3'
_atom_sites_solution_primary     direct
_atom_sites_solution_secondary   difmap
_atom_sites_solution_hydrogens   geom
_refine_ls_hydrogen_treatment    constr
_refine_ls_extinction_method     none
_refine_ls_extinction_coef       ?
_refine_ls_abs_structure_details 'Flack H D (1983), Acta Cryst. A39, 876-881'
_refine_ls_abs_structure_Flack   -0.01(5)
_refine_ls_number_reflns         5069
_refine_ls_number_parameters     357
_refine_ls_number_restraints     82
_refine_ls_R_factor_all          0.0723
_refine_ls_R_factor_gt           0.0566
_refine_ls_wR_factor_ref         0.1680
_refine_ls_wR_factor_gt          0.1601
_refine_ls_goodness_of_fit_ref   1.104
_refine_ls_restrained_S_all      1.128
_refine_ls_shift/su_max          0.002
_refine_ls_shift/su_mean         0.000

loop_
_atom_site_label
_atom_site_type_symbol
_atom_site_fract_x
_atom_site_fract_y
_atom_site_fract_z
_atom_site_U_iso_or_equiv
_atom_site_adp_type
_atom_site_occupancy
_atom_site_symmetry_multiplicity
_atom_site_calc_flag
_atom_site_refinement_flags
_atom_site_disorder_assembly
_atom_site_disorder_group
C1 C 0.4638(5) 0.7449(5) -0.0347(4) 0.0377(19) Uani 1 1 d . . .
H1 H 0.4971 0.7421 -0.0713 0.045 Uiso 1 1 calc R . .
C2 C 0.4064(5) 0.8100(5) -0.0293(4) 0.0382(18) Uani 1 1 d . . .
H2 H 0.4011 0.8500 -0.0619 0.046 Uiso 1 1 calc R . .
C3 C 0.3572(5) 0.8168(5) 0.0230(3) 0.0327(17) Uani 1 1 d . . .
C4 C 0.3719(5) 0.7584(5) 0.0693(3) 0.0364(18) Uani 1 1 d . . .
H4 H 0.3422 0.7616 0.1076 0.044 Uiso 1 1 calc R . .
C5 C 0.4305(5) 0.6949(4) 0.0596(3) 0.0362(17) Uani 1 1 d . . .
H5 H 0.4391 0.6550 0.0919 0.043 Uiso 1 1 calc R . .
C6 C 0.2914(4) 0.8823(5) 0.0290(3) 0.0306(16) Uani 1 1 d . . .
C7 C 0.2924(5) 0.9560(5) -0.0081(4) 0.047(2) Uani 1 1 d . . .
H7 H 0.3362 0.9644 -0.0374 0.057 Uiso 1 1 calc R . .
C8 C 0.2292(5) 1.0161(5) -0.0017(5) 0.056(2) Uani 1 1 d . . .
H8 H 0.2317 1.0662 -0.0256 0.067 Uiso 1 1 calc R . .
C9 C 0.1636(5) 1.0041(5) 0.0386(4) 0.044(2) Uani 1 1 d . . .
H9 H 0.1207 1.0453 0.0421 0.053 Uiso 1 1 calc R . .
C10 C 0.1601(4) 0.9308(4) 0.0746(3) 0.0286(15) Uani 1 1 d . . .
C11 C 0.2240(4) 0.8718(4) 0.0699(3) 0.0285(16) Uani 1 1 d . . .
H11 H 0.2219 0.8229 0.0952 0.034 Uiso 1 1 calc R . .
C12 C 0.0913(4) 0.9233(4) 0.1183(3) 0.0266(14) Uani 1 1 d . . .
C13 C -0.0051(4) 0.8722(4) 0.1806(3) 0.0251(14) Uani 1 1 d . . .
C14 C -0.0591(5) 0.8101(4) 0.2114(3) 0.0257(14) Uani 1 1 d . . .
C15 C -0.0415(5) 0.7789(5) 0.2702(3) 0.0352(19) Uani 1 1 d . . .
H15 H 0.0066 0.7974 0.2926 0.042 Uiso 1 1 calc R . .
C16 C -0.0974(5) 0.7184(5) 0.2962(4) 0.0413(19) Uani 1 1 d . . .
H16 H -0.0877 0.6986 0.3372 0.050 Uiso 1 1 calc R . .
C17 C -0.1645(5) 0.6883(5) 0.2636(3) 0.0338(18) Uani 1 1 d . . .
H17 H -0.1991 0.6458 0.2810 0.041 Uiso 1 1 calc R . .
C18 C -0.1821(5) 0.7207(4) 0.2039(3) 0.0302(16) Uani 1 1 d . . .
C19 C -0.1292(5) 0.7819(4) 0.1793(3) 0.0301(16) Uani 1 1 d . . .
H19 H -0.1414 0.8049 0.1396 0.036 Uiso 1 1 calc R . .
C20 C -0.2548(4) 0.6903(4) 0.1666(3) 0.0306(16) Uani 1 1 d . . .
C21 C -0.2972(5) 0.6150(4) 0.1799(3) 0.0325(17) Uani 1 1 d . . .
H21 H -0.2839 0.5841 0.2164 0.039 Uiso 1 1 calc R . .
C22 C -0.3586(5) 0.5859(5) 0.1393(3) 0.0327(17) Uani 1 1 d . . .
H22 H -0.3867 0.5352 0.1497 0.039 Uiso 1 1 calc R . .
C23 C -0.3442(5) 0.6995(5) 0.0766(4) 0.0361(18) Uani 1 1 d . . .
H23 H -0.3617 0.7305 0.0411 0.043 Uiso 1 1 calc R . .
C24 C -0.2832(5) 0.7339(5) 0.1144(3) 0.0351(17) Uani 1 1 d . . .
H24 H -0.2604 0.7875 0.1048 0.042 Uiso 1 1 calc R . .
Cd1 Cd -0.05908(3) 1.05908(3) 0.2500 0.0231(2) Uani 1 2 d S . .
Cl1 Cl 0.26780(15) 0.26780(15) 0.0000 0.0862(14) Uani 1 2 d SD . .
Cl2 Cl 0.87736(16) 0.87736(16) 0.0000 0.0732(10) Uani 1 2 d SD . .
N1 N 0.0541(4) 0.9870(3) 0.1448(2) 0.0281(12) Uani 1 1 d . . .
N2 N -0.0075(3) 0.9551(3) 0.1838(3) 0.0283(13) Uani 1 1 d . . .
N3 N 0.0553(4) 0.8502(3) 0.1399(2) 0.0282(12) Uani 1 1 d . . .
N4 N 0.0743(5) 0.7692(4) 0.1189(3) 0.0467(19) Uani 1 1 d . . .
H4A H 0.0922 0.7378 0.1517 0.056 Uiso 1 1 d R . .
H4B H 0.0275 0.7453 0.1022 0.056 Uiso 1 1 d R . .
N5 N -0.3803(4) 0.6240(4) 0.0875(3) 0.0327(13) Uani 1 1 d . . .
N6 N 0.4748(4) 0.6868(3) 0.0082(3) 0.0307(14) Uani 1 1 d . . .
O1 O 0.3294(6) 0.3294(6) 0.0000 0.152(6) Uani 1 2 d SDU . .
O2 O 0.2213(15) 0.3450(11) 0.0199(9) 0.171(11) Uani 0.50 1 d PDU . .
H7A H 0.9391 0.5987 0.1321 0.205 Uiso 0.25 1 d PRD . .
H7B H 1.0053 0.5508 0.1050 0.205 Uiso 0.25 1 d PRD . .
H8A H 0.1247 0.4032 0.0812 0.205 Uiso 0.25 1 d PRD . .
H8B H 0.0619 0.4645 0.0967 0.205 Uiso 0.25 1 d PRD . .
O3 O 0.2451(7) 0.2244(6) 0.0525(3) 0.115(3) Uani 1 1 d DU . .
O5 O 0.8659(15) 0.7922(10) -0.0041(11) 0.197(12) Uani 0.50 1 d PDU . .
O6 O 0.8206(10) 0.9022(9) 0.0511(7) 0.084(5) Uani 0.50 1 d PDU . .
O7 O 0.9726(17) 0.5927(15) 0.1016(13) 0.126(9) Uani 0.25 1 d PDU . .
O8 O 0.0861(16) 0.4358(17) 0.0691(11) 0.126(9) Uani 0.25 1 d PDU . .
O9 O 0.9542(9) 0.8929(15) 0.0264(8) 0.150(9) Uani 0.50 1 d PDU . .
O4 O 0.8581(14) 0.9202(14) -0.0478(7) 0.168(12) Uani 0.50 1 d PDU . .

loop_
_atom_site_aniso_label
_atom_site_aniso_U_11
_atom_site_aniso_U_22
_atom_site_aniso_U_33
_atom_site_aniso_U_23
_atom_site_aniso_U_13
_atom_site_aniso_U_12
C1 0.038(5) 0.038(4) 0.037(4) -0.004(4) 0.008(3) 0.010(3)
C2 0.041(4) 0.034(4) 0.039(4) 0.003(4) 0.008(4) 0.006(3)
C3 0.029(4) 0.030(4) 0.039(4) 0.000(3) 0.004(3) -0.002(3)
C4 0.042(5) 0.033(4) 0.035(4) 0.006(3) 0.012(4) 0.006(3)
C5 0.043(5) 0.029(4) 0.037(4) 0.003(3) 0.011(4) 0.000(3)
C6 0.027(4) 0.029(4) 0.036(4) 0.000(3) 0.005(3) 0.001(3)
C7 0.048(5) 0.041(5) 0.053(5) 0.016(4) 0.029(4) 0.008(4)
C8 0.063(6) 0.039(4) 0.067(6) 0.019(5) 0.032(6) 0.017(4)
C9 0.044(5) 0.034(4) 0.055(5) 0.009(4) 0.013(4) 0.014(4)
C10 0.026(3) 0.030(4) 0.029(3) -0.003(3) 0.000(3) 0.003(3)
C11 0.031(4) 0.024(4) 0.031(4) 0.003(3) 0.001(3) -0.002(3)
C12 0.028(4) 0.026(4) 0.026(3) -0.001(3) -0.007(3) -0.002(3)
C13 0.020(4) 0.030(4) 0.025(3) -0.007(3) -0.001(3) 0.000(3)
C14 0.023(3) 0.022(3) 0.032(3) -0.002(3) 0.003(3) 0.002(3)
C15 0.043(5) 0.026(4) 0.037(4) -0.001(3) -0.010(3) -0.003(3)
C16 0.047(5) 0.046(5) 0.031(4) 0.006(4) -0.008(4) -0.008(4)
C17 0.038(4) 0.032(4) 0.031(4) 0.001(3) 0.001(3) -0.005(3)
C18 0.034(4) 0.023(4) 0.033(4) -0.008(3) 0.009(3) -0.004(3)
C19 0.036(4) 0.029(4) 0.025(3) 0.002(3) -0.001(3) -0.001(3)
C20 0.028(4) 0.029(4) 0.034(4) -0.005(3) 0.003(3) -0.005(3)
C21 0.039(4) 0.031(4) 0.027(4) 0.005(3) 0.000(3) -0.003(3)
C22 0.031(4) 0.029(4) 0.038(4) -0.004(3) 0.008(3) -0.005(3)
C23 0.037(4) 0.031(4) 0.041(4) 0.003(3) 0.001(4) -0.008(3)
C24 0.036(4) 0.036(4) 0.033(4) 0.005(3) 0.000(3) -0.008(3)
Cd1 0.0210(2) 0.0210(2) 0.0272(3) 0.0016(2) 0.0016(2) 0.0025(3)
Cl1 0.104(2) 0.104(2) 0.0500(19) 0.004(2) -0.004(2) -0.059(3)
Cl2 0.0856(16) 0.0856(16) 0.0485(19) 0.0052(18) -0.0052(18) -0.021(2)
N1 0.033(3) 0.020(3) 0.031(3) -0.002(2) -0.003(3) 0.005(3)
N2 0.023(3) 0.030(3) 0.031(3) 0.001(2) 0.004(2) 0.003(2)
N3 0.030(3) 0.021(3) 0.033(3) -0.004(2) 0.003(3) 0.000(3)
N4 0.060(5) 0.025(3) 0.055(4) -0.011(3) 0.026(4) -0.004(3)
N5 0.028(4) 0.033(4) 0.037(3) -0.006(3) -0.001(3) -0.004(2)
N6 0.029(3) 0.024(3) 0.039(3) -0.005(3) -0.003(3) -0.001(2)
O1 0.155(9) 0.155(9) 0.147(12) 0.037(10) -0.037(10) -0.058(12)
O2 0.25(2) 0.074(12) 0.19(2) -0.057(14) -0.003(18) 0.004(14)
O3 0.171(10) 0.107(7) 0.066(5) 0.006(5) 0.024(6) -0.012(6)
O5 0.27(3) 0.138(18) 0.18(2) -0.063(18) 0.05(2) 0.012(18)
O6 0.103(12) 0.071(9) 0.080(10) -0.007(8) 0.035(10) -0.036(9)
O7 0.115(14) 0.126(13) 0.139(14) -0.038(12) 0.031(11) -0.058(11)
O8 0.115(14) 0.126(13) 0.139(14) -0.038(12) 0.031(11) -0.058(11)
O9 0.064(11) 0.27(2) 0.116(15) -0.029(16) -0.035(11) -0.005(15)
O4 0.25(2) 0.16(2) 0.087(13) 0.055(14) -0.106(14) -0.099(18)

_geom_special_details            
;
All esds (except the esd in the dihedral angle between two l.s. planes)
are estimated using the full covariance matrix. The cell esds are taken
into account individually in the estimation of esds in distances, angles
and torsion angles; correlations between esds in cell parameters are only
used when they are defined by crystal symmetry. An approximate (isotropic)
treatment of cell esds is used for estimating esds involving l.s. planes.
;

loop_
_geom_bond_atom_site_label_1
_geom_bond_atom_site_label_2
_geom_bond_distance
_geom_bond_site_symmetry_2
_geom_bond_publ_flag
C1 N6 1.317(9) . ?
C1 C2 1.385(10) . ?
C1 H1 0.9500 . ?
C2 C3 1.375(10) . ?
C2 H2 0.9500 . ?
C3 C4 1.383(10) . ?
C3 C6 1.483(10) . ?
C4 C5 1.391(10) . ?
C4 H4 0.9500 . ?
C5 N6 1.317(9) . ?
C5 H5 0.9500 . ?
C6 C11 1.396(10) . ?
C6 C7 1.418(10) . ?
C7 C8 1.396(10) . ?
C7 H7 0.9500 . ?
C8 C9 1.370(11) . ?
C8 H8 0.9500 . ?
C9 C10 1.401(10) . ?
C9 H9 0.9500 . ?
C10 C11 1.388(9) . ?
C10 C12 1.447(9) . ?
C11 H11 0.9500 . ?
C12 N1 1.306(8) . ?
C12 N3 1.379(8) . ?
C13 N2 1.321(9) . ?
C13 N3 1.346(8) . ?
C13 C14 1.467(9) . ?
C14 C19 1.386(10) . ?
C14 C15 1.387(10) . ?
C15 C16 1.425(11) . ?
C15 H15 0.9500 . ?
C16 C17 1.364(11) . ?
C16 H16 0.9500 . ?
C17 C18 1.411(10) . ?
C17 H17 0.9500 . ?
C18 C19 1.392(9) . ?
C18 C20 1.486(10) . ?
C19 H19 0.9500 . ?
C20 C24 1.395(10) . ?
C20 C21 1.405(10) . ?
C21 C22 1.389(10) . ?
C21 H21 0.9500 . ?
C22 N5 1.314(10) . ?
C22 H22 0.9500 . ?
C23 N5 1.353(9) . ?
C23 C24 1.379(10) . ?
C23 H23 0.9500 . ?
C24 H24 0.9500 . ?
Cd1 N2 2.332(5) . ?
Cd1 N2 2.332(5) 8_665 ?
Cd1 N5 2.353(5) 3_565 ?
Cd1 N5 2.353(5) 5_455 ?
Cd1 N6 2.443(6) 3 ?
Cd1 N6 2.443(6) 5 ?
Cl1 O3 1.371(7) 7 ?
Cl1 O3 1.371(7) . ?
Cl1 O1 1.386(12) . ?
Cl1 O2 1.497(13) . ?
Cl1 O2 1.497(13) 7 ?
Cl2 O4 1.271(14) . ?
Cl2 O4 1.271(14) 7 ?
Cl2 O5 1.370(15) 7 ?
Cl2 O5 1.370(15) . ?
Cl2 O9 1.371(13) . ?
Cl2 O9 1.371(13) 7 ?
Cl2 O6 1.477(11) . ?
Cl2 O6 1.477(11) 7 ?
N1 N2 1.386(8) . ?
N3 N4 1.400(7) . ?
N4 H4A 0.9100 . ?
N4 H4B 0.9101 . ?
N5 Cd1 2.353(5) 4_354 ?
N6 Cd1 2.443(6) 4_454 ?
O1 O2 1.79(2) 7 ?
O5 O6 1.25(3) 7 ?
O5 O5 1.67(4) 7 ?
O5 O4 1.76(3) 7 ?
O6 O5 1.25(3) 7 ?
O6 O4 1.73(3) 7 ?
O7 H7A 0.8491 . ?
O7 H7B 0.8495 . ?
O8 H8A 0.8458 . ?
O8 H8B 0.8401 . ?
O9 O4 0.90(3) 7 ?
O9 O9 1.79(4) 7 ?
O4 O9 0.90(3) 7 ?
O4 O6 1.73(3) 7 ?
O4 O5 1.76(3) 7 ?

loop_
_geom_angle_atom_site_label_1
_geom_angle_atom_site_label_2
_geom_angle_atom_site_label_3
_geom_angle
_geom_angle_site_symmetry_1
_geom_angle_site_symmetry_3
_geom_angle_publ_flag
N6 C1 C2 123.7(7) . . ?
N6 C1 H1 118.2 . . ?
C2 C1 H1 118.2 . . ?
C3 C2 C1 120.2(7) . . ?
C3 C2 H2 119.9 . . ?
C1 C2 H2 119.9 . . ?
C2 C3 C4 116.1(7) . . ?
C2 C3 C6 122.0(7) . . ?
C4 C3 C6 121.9(7) . . ?
C3 C4 C5 119.6(7) . . ?
C3 C4 H4 120.2 . . ?
C5 C4 H4 120.2 . . ?
N6 C5 C4 123.7(7) . . ?
N6 C5 H5 118.1 . . ?
C4 C5 H5 118.1 . . ?
C11 C6 C7 117.5(6) . . ?
C11 C6 C3 120.9(7) . . ?
C7 C6 C3 121.6(6) . . ?
C8 C7 C6 120.3(7) . . ?
C8 C7 H7 119.9 . . ?
C6 C7 H7 119.9 . . ?
C9 C8 C7 121.0(8) . . ?
C9 C8 H8 119.5 . . ?
C7 C8 H8 119.5 . . ?
C8 C9 C10 119.8(7) . . ?
C8 C9 H9 120.1 . . ?
C10 C9 H9 120.1 . . ?
C11 C10 C9 119.6(6) . . ?
C11 C10 C12 123.1(6) . . ?
C9 C10 C12 117.2(6) . . ?
C10 C11 C6 121.9(6) . . ?
C10 C11 H11 119.1 . . ?
C6 C11 H11 119.1 . . ?
N1 C12 N3 108.6(6) . . ?
N1 C12 C10 124.3(6) . . ?
N3 C12 C10 127.1(6) . . ?
N2 C13 N3 108.3(6) . . ?
N2 C13 C14 129.2(6) . . ?
N3 C13 C14 122.4(6) . . ?
C19 C14 C15 119.9(6) . . ?
C19 C14 C13 117.8(6) . . ?
C15 C14 C13 122.2(7) . . ?
C14 C15 C16 118.2(7) . . ?
C14 C15 H15 120.9 . . ?
C16 C15 H15 120.9 . . ?
C17 C16 C15 121.7(7) . . ?
C17 C16 H16 119.2 . . ?
C15 C16 H16 119.2 . . ?
C16 C17 C18 119.7(7) . . ?
C16 C17 H17 120.2 . . ?
C18 C17 H17 120.2 . . ?
C19 C18 C17 118.6(7) . . ?
C19 C18 C20 119.6(6) . . ?
C17 C18 C20 121.8(6) . . ?
C14 C19 C18 121.8(6) . . ?
C14 C19 H19 119.1 . . ?
C18 C19 H19 119.1 . . ?
C24 C20 C21 115.6(6) . . ?
C24 C20 C18 121.6(6) . . ?
C21 C20 C18 122.8(7) . . ?
C22 C21 C20 119.7(7) . . ?
C22 C21 H21 120.2 . . ?
C20 C21 H21 120.2 . . ?
N5 C22 C21 124.3(7) . . ?
N5 C22 H22 117.9 . . ?
C21 C22 H22 117.9 . . ?
N5 C23 C24 123.3(7) . . ?
N5 C23 H23 118.4 . . ?
C24 C23 H23 118.4 . . ?
C23 C24 C20 120.4(7) . . ?
C23 C24 H24 119.8 . . ?
C20 C24 H24 119.8 . . ?
N2 Cd1 N2 82.7(3) . 8_665 ?
N2 Cd1 N5 158.99(19) . 3_565 ?
N2 Cd1 N5 88.15(19) 8_665 3_565 ?
N2 Cd1 N5 88.15(19) . 5_455 ?
N2 Cd1 N5 159.0(2) 8_665 5_455 ?
N5 Cd1 N5 106.2(3) 3_565 5_455 ?
N2 Cd1 N6 86.96(19) . 3 ?
N2 Cd1 N6 110.7(2) 8_665 3 ?
N5 Cd1 N6 78.6(2) 3_565 3 ?
N5 Cd1 N6 87.5(2) 5_455 3 ?
N2 Cd1 N6 110.7(2) . 5 ?
N2 Cd1 N6 86.96(19) 8_665 5 ?
N5 Cd1 N6 87.5(2) 3_565 5 ?
N5 Cd1 N6 78.6(2) 5_455 5 ?
N6 Cd1 N6 156.9(3) 3 5 ?
O3 Cl1 O3 114.3(9) 7 . ?
O3 Cl1 O1 122.9(4) 7 . ?
O3 Cl1 O1 122.9(4) . . ?
O3 Cl1 O2 101.7(10) 7 . ?
O3 Cl1 O2 92.8(10) . . ?
O1 Cl1 O2 76.6(