####################################################################### 
# 
# This file contains crystal structure data downloaded from the 
# Cambridge Structural Database (CSD) hosted by the Cambridge 
# Crystallographic Data Centre (CCDC).
# 
# Full information about CCDC data access policies and citation 
# guidelines are available at http://www.ccdc.cam.ac.uk/access/V1 
# 
# Audit and citation data items may have been added by the CCDC. 
# Please retain this information to preserve the provenance of 
# this file and to allow appropriate attribution of the data. 
# 
#######################################################################

data_5
_audit_block_doi                 10.5517/ccs7347
_database_code_depnum_ccdc_archive 'CCDC 721808'
loop_
_citation_id
_citation_doi
_citation_year
1 10.1002/chem.200901023 2009
_audit_update_record             
;
2009-02-23 deposited with the CCDC.	2024-07-13 downloaded from the CCDC.
;

_audit_creation_method           SHELXL-97
_chemical_name_systematic        
;
?
;
_chemical_name_common            ?
_chemical_melting_point          ?
_chemical_formula_moiety         ?
_chemical_formula_sum            'C56 H46 Cd Cl2 N12 O8'
_chemical_formula_weight         1198.35

loop_
_atom_type_symbol
_atom_type_description
_atom_type_scat_dispersion_real
_atom_type_scat_dispersion_imag
_atom_type_scat_source
C C 0.0033 0.0016 'International Tables Vol C Tables 4.2.6.8 and 6.1.1.4'
H H 0.0000 0.0000 'International Tables Vol C Tables 4.2.6.8 and 6.1.1.4'
N N 0.0061 0.0033 'International Tables Vol C Tables 4.2.6.8 and 6.1.1.4'
O O 0.0106 0.0060 'International Tables Vol C Tables 4.2.6.8 and 6.1.1.4'
Cl Cl 0.1484 0.1585 'International Tables Vol C Tables 4.2.6.8 and 6.1.1.4'
Cd Cd -0.8075 1.2024 'International Tables Vol C Tables 4.2.6.8 and 6.1.1.4'

_symmetry_cell_setting           Tetragonal
_symmetry_space_group_name_H-M   P4(3)2(1)2

loop_
_symmetry_equiv_pos_as_xyz
'x, y, z'
'-x, -y, z+1/2'
'-y+1/2, x+1/2, z+3/4'
'y+1/2, -x+1/2, z+1/4'
'-x+1/2, y+1/2, -z+3/4'
'x+1/2, -y+1/2, -z+1/4'
'y, x, -z'
'-y, -x, -z+1/2'

_cell_length_a                   15.884(3)
_cell_length_b                   15.884(3)
_cell_length_c                   21.440(7)
_cell_angle_alpha                90.00
_cell_angle_beta                 90.00
_cell_angle_gamma                90.00
_cell_volume                     5409(2)
_cell_formula_units_Z            4
_cell_measurement_temperature    123(2)
_cell_measurement_reflns_used    4463
_cell_measurement_theta_min      2.292
_cell_measurement_theta_max      22.751

_exptl_crystal_description       block
_exptl_crystal_colour            colourless
_exptl_crystal_size_max          0.20
_exptl_crystal_size_mid          0.17
_exptl_crystal_size_min          0.13
_exptl_crystal_density_meas      ?
_exptl_crystal_density_diffrn    1.472
_exptl_crystal_density_method    'not measured'
_exptl_crystal_F_000             2448
_exptl_absorpt_coefficient_mu    0.570
_exptl_absorpt_correction_type   multi-scan
_exptl_absorpt_correction_T_min  0.8946
_exptl_absorpt_correction_T_max  0.9296
_exptl_absorpt_process_details   sadabs

_exptl_special_details           
;
?
;

_diffrn_ambient_temperature      123(2)
_diffrn_radiation_wavelength     0.71073
_diffrn_radiation_type           MoK\a
_diffrn_radiation_source         'fine-focus sealed tube'
_diffrn_radiation_monochromator  graphite
_diffrn_measurement_device_type  'CCD area detector'
_diffrn_measurement_method       'phi and omega scans'
_diffrn_detector_area_resol_mean ?
_diffrn_standards_number         ?
_diffrn_standards_interval_count ?
_diffrn_standards_interval_time  ?
_diffrn_standards_decay_%        ?
_diffrn_reflns_number            27046
_diffrn_reflns_av_R_equivalents  0.0925
_diffrn_reflns_av_sigmaI/netI    0.0713
_diffrn_reflns_limit_h_min       -19
_diffrn_reflns_limit_h_max       19
_diffrn_reflns_limit_k_min       -17
_diffrn_reflns_limit_k_max       19
_diffrn_reflns_limit_l_min       -23
_diffrn_reflns_limit_l_max       25
_diffrn_reflns_theta_min         1.60
_diffrn_reflns_theta_max         25.49
_reflns_number_total             5031
_reflns_number_gt                4263
_reflns_threshold_expression     >2sigma(I)

_computing_data_collection       'Bruker SMART'
_computing_cell_refinement       'Bruker SMART'
_computing_data_reduction        'Bruker SAINT'
_computing_structure_solution    'SHELXS-97 (Sheldrick, 1990)'
_computing_structure_refinement  'SHELXL-97 (Sheldrick, 1997)'
_computing_molecular_graphics    'Bruker SHELXTL'
_computing_publication_material  'Bruker SHELXTL'

_refine_special_details          
;
Refinement of F^2^ against ALL reflections. The weighted R-factor wR and
goodness of fit S are based on F^2^, conventional R-factors R are based
on F, with F set to zero for negative F^2^. The threshold expression of
F^2^ > 2sigma(F^2^) is used only for calculating R-factors(gt) etc. and is
not relevant to the choice of reflections for refinement. R-factors based
on F^2^ are statistically about twice as large as those based on F, and R-
factors based on ALL data will be even larger.
;

_refine_ls_structure_factor_coef Fsqd
_refine_ls_matrix_type           full
_refine_ls_weighting_scheme      calc
_refine_ls_weighting_details     
'calc w=1/[\s^2^(Fo^2^)+(0.0611P)^2^+3.9568P] where P=(Fo^2^+2Fc^2^)/3'
_atom_sites_solution_primary     direct
_atom_sites_solution_secondary   difmap
_atom_sites_solution_hydrogens   geom
_refine_ls_hydrogen_treatment    constr
_refine_ls_extinction_method     none
_refine_ls_extinction_coef       ?
_refine_ls_abs_structure_details 'Flack H D (1983), Acta Cryst. A39, 876-881'
_refine_ls_abs_structure_Flack   0.02(4)
_refine_ls_number_reflns         5031
_refine_ls_number_parameters     413
_refine_ls_number_restraints     115
_refine_ls_R_factor_all          0.0680
_refine_ls_R_factor_gt           0.0534
_refine_ls_wR_factor_ref         0.1293
_refine_ls_wR_factor_gt          0.1228
_refine_ls_goodness_of_fit_ref   1.084
_refine_ls_restrained_S_all      1.108
_refine_ls_shift/su_max          0.000
_refine_ls_shift/su_mean         0.000

loop_
_atom_site_label
_atom_site_type_symbol
_atom_site_fract_x
_atom_site_fract_y
_atom_site_fract_z
_atom_site_U_iso_or_equiv
_atom_site_adp_type
_atom_site_occupancy
_atom_site_symmetry_multiplicity
_atom_site_calc_flag
_atom_site_refinement_flags
_atom_site_disorder_assembly
_atom_site_disorder_group
C1 C 0.8026(4) 0.9317(4) 0.1901(3) 0.0296(13) Uani 1 1 d . . .
H1 H 0.8414 0.9397 0.1581 0.036 Uiso 1 1 calc R . .
C2 C 0.7389(4) 0.8748(4) 0.1807(3) 0.0313(15) Uani 1 1 d . . .
H2 H 0.7351 0.8465 0.1428 0.038 Uiso 1 1 calc R . .
C3 C 0.6802(4) 0.8590(4) 0.2271(3) 0.0269(14) Uani 1 1 d . . .
C4 C 0.6887(4) 0.9075(4) 0.2806(3) 0.0323(15) Uani 1 1 d . . .
H4 H 0.6498 0.9022 0.3128 0.039 Uiso 1 1 calc R . .
C5 C 0.7553(4) 0.9641(4) 0.2861(3) 0.0306(15) Uani 1 1 d . . .
H5 H 0.7597 0.9951 0.3228 0.037 Uiso 1 1 calc R . .
C6 C 0.6144(4) 0.7938(4) 0.2214(3) 0.0253(13) Uani 1 1 d . . .
C7 C 0.5427(4) 0.7926(4) 0.2588(3) 0.0387(16) Uani 1 1 d . . .
H7 H 0.5352 0.8346 0.2885 0.046 Uiso 1 1 calc R . .
C8 C 0.4827(4) 0.7304(4) 0.2526(4) 0.0464(17) Uani 1 1 d . . .
H8 H 0.4334 0.7335 0.2758 0.056 Uiso 1 1 calc R . .
C9 C 0.4951(4) 0.6638(4) 0.2126(3) 0.0387(16) Uani 1 1 d . . .
H9 H 0.4556 0.6207 0.2100 0.046 Uiso 1 1 calc R . .
C10 C 0.5672(4) 0.6616(3) 0.1763(3) 0.0256(12) Uani 1 1 d . . .
C11 C 0.6258(4) 0.7258(4) 0.1806(3) 0.0252(13) Uani 1 1 d . . .
H11 H 0.6739 0.7237 0.1558 0.030 Uiso 1 1 calc R . .
C12 C 0.5756(3) 0.5921(3) 0.1319(2) 0.0225(12) Uani 1 1 d . . .
C13 C 0.6257(4) 0.4952(3) 0.0690(2) 0.0236(12) Uani 1 1 d . . .
C14 C 0.6883(3) 0.4400(4) 0.0388(2) 0.0247(12) Uani 1 1 d . . .
C15 C 0.7200(4) 0.4585(4) -0.0205(3) 0.0286(15) Uani 1 1 d . . .
H15 H 0.7026 0.5064 -0.0418 0.034 Uiso 1 1 calc R . .
C16 C 0.7783(4) 0.4036(4) -0.0469(3) 0.0362(15) Uani 1 1 d . . .
H16 H 0.7982 0.4136 -0.0870 0.043 Uiso 1 1 calc R . .
C17 C 0.8072(4) 0.3338(4) -0.0138(3) 0.0294(15) Uani 1 1 d . . .
H17 H 0.8467 0.2981 -0.0319 0.035 Uiso 1 1 calc R . .
C18 C 0.7784(4) 0.3170(4) 0.0450(3) 0.0266(13) Uani 1 1 d . . .
C19 C 0.7163(4) 0.3712(4) 0.0707(3) 0.0237(13) Uani 1 1 d . . .
H19 H 0.6943 0.3595 0.1099 0.028 Uiso 1 1 calc R . .
C20 C 0.8088(4) 0.2455(4) 0.0829(3) 0.0247(13) Uani 1 1 d . . .
C21 C 0.8831(4) 0.2018(4) 0.0696(3) 0.0265(13) Uani 1 1 d . . .
H21 H 0.9128 0.2142 0.0333 0.032 Uiso 1 1 calc R . .
C22 C 0.9129(4) 0.1408(4) 0.1094(3) 0.0281(14) Uani 1 1 d . . .
H22 H 0.9625 0.1129 0.0991 0.034 Uiso 1 1 calc R . .
C23 C 0.7998(4) 0.1563(4) 0.1731(3) 0.0292(14) Uani 1 1 d . . .
H23 H 0.7698 0.1396 0.2083 0.035 Uiso 1 1 calc R . .
C24 C 0.7653(4) 0.2166(4) 0.1359(3) 0.0321(14) Uani 1 1 d . . .
H24 H 0.7128 0.2389 0.1456 0.038 Uiso 1 1 calc R . .
C25 C 1.0221(8) 0.5501(8) 0.1737(8) 0.094(7) Uani 0.50 1 d PDU . .
H25A H 1.0664 0.5884 0.1717 0.113 Uiso 0.50 1 d PR . .
C26 C 0.9914(9) 0.5157(10) 0.1199(8) 0.100(7) Uani 0.50 1 d PDU . .
H26A H 1.0144 0.5304 0.0816 0.120 Uiso 0.50 1 d PR . .
C27 C 0.9272(9) 0.4601(9) 0.1232(7) 0.081(6) Uani 0.50 1 d PDU . .
H27A H 0.9061 0.4367 0.0866 0.097 Uiso 0.50 1 d PR . .
C28 C 0.8925(8) 0.4374(8) 0.1791(8) 0.082(6) Uani 0.50 1 d PDU . .
H28A H 0.8484 0.3989 0.1807 0.098 Uiso 0.50 1 d PR . .
C29 C 0.9236(8) 0.4721(8) 0.2323(6) 0.092(7) Uani 0.50 1 d PDU . .
C30 C 0.9889(8) 0.5291(7) 0.2305(7) 0.077(6) Uani 0.50 1 d PDU . .
C31 C 0.8900(10) 0.4517(11) 0.2955(7) 0.069(5) Uani 0.50 1 d PDU . .
H31A H 0.8451 0.4116 0.2917 0.083 Uiso 0.50 1 calc PR . .
H31B H 0.8691 0.5022 0.3147 0.083 Uiso 0.50 1 calc PR . .
H31C H 0.9342 0.4284 0.3207 0.083 Uiso 0.50 1 calc PR . .
C32 C 1.0231(14) 0.5672(14) 0.2906(10) 0.125(9) Uani 0.50 1 d PDU . .
H32A H 1.0680 0.6054 0.2809 0.150 Uiso 0.50 1 calc PR . .
H32B H 1.0439 0.5231 0.3170 0.150 Uiso 0.50 1 calc PR . .
H32C H 0.9789 0.5970 0.3116 0.150 Uiso 0.50 1 calc PR . .
Cd1 Cd 0.44041(2) 0.44041(2) 0.0000 0.02049(15) Uani 1 2 d S . .
Cl1 Cl 0.73207(11) 0.73207(11) 0.0000 0.0611(8) Uani 1 2 d SD . .
Cl2 Cl 0.62113(14) 0.37887(14) 0.2500 0.0673(8) Uani 1 2 d SD . .
N1 N 0.5442(3) 0.4931(3) 0.0665(2) 0.0230(11) Uani 1 1 d . . .
N2 N 0.5114(3) 0.5535(3) 0.1059(2) 0.0251(10) Uani 1 1 d . . .
N3 N 0.6490(3) 0.5567(3) 0.1098(2) 0.0260(10) Uani 1 1 d . . .
N4 N 0.7305(3) 0.5773(3) 0.1300(3) 0.0402(15) Uani 1 1 d . . .
H4A H 0.7531 0.5330 0.1491 0.048 Uiso 1 1 d R . .
H4B H 0.7619 0.5911 0.0971 0.048 Uiso 1 1 d R . .
N5 N 0.8124(3) 0.9763(3) 0.2423(2) 0.0276(11) Uani 1 1 d . . .
N6 N 0.8737(3) 0.1199(3) 0.1622(2) 0.0290(11) Uani 1 1 d . . .
O1 O 0.7717(5) 0.7609(6) 0.0532(2) 0.099(2) Uani 1 1 d DU . .
O2 O 0.6560(7) 0.7797(10) 0.0099(9) 0.122(6) Uani 0.50 1 d PDU . .
O3 O 0.6692(8) 0.4026(6) 0.3043(5) 0.070(4) Uani 0.50 1 d PDU . .
O4 O 0.5592(9) 0.3503(13) 0.2902(6) 0.138(7) Uani 0.50 1 d PDU . .
O5 O 0.5579(5) 0.4421(5) 0.2500 0.286(11) Uani 1 2 d SDU . .
O6 O 0.6704(6) 0.6704(6) 0.0000 0.171(6) Uani 1 2 d SU . .
O7 O 0.7064(7) 0.3569(15) 0.2592(15) 0.187(10) Uani 0.50 1 d PDU . .

loop_
_atom_site_aniso_label
_atom_site_aniso_U_11
_atom_site_aniso_U_22
_atom_site_aniso_U_33
_atom_site_aniso_U_23
_atom_site_aniso_U_13
_atom_site_aniso_U_12
C1 0.023(3) 0.039(4) 0.027(3) -0.007(3) 0.003(2) 0.002(3)
C2 0.032(3) 0.032(3) 0.030(3) -0.004(3) 0.003(3) -0.003(3)
C3 0.018(3) 0.026(3) 0.036(4) -0.002(3) -0.001(3) 0.001(2)
C4 0.033(3) 0.032(3) 0.032(4) -0.008(3) 0.007(3) -0.005(3)
C5 0.035(3) 0.033(3) 0.024(3) -0.008(3) 0.000(3) -0.005(3)
C6 0.026(3) 0.026(3) 0.023(3) -0.002(3) -0.003(3) 0.001(2)
C7 0.036(4) 0.044(4) 0.036(4) -0.015(3) 0.012(3) -0.006(3)
C8 0.034(3) 0.057(4) 0.048(4) -0.022(4) 0.012(4) -0.011(3)
C9 0.031(3) 0.042(4) 0.042(4) -0.016(3) 0.009(3) -0.012(3)
C10 0.026(3) 0.029(3) 0.022(3) -0.002(2) -0.001(3) 0.000(3)
C11 0.023(3) 0.027(3) 0.025(3) -0.002(3) 0.002(2) 0.002(2)
C12 0.021(3) 0.028(3) 0.018(3) 0.004(2) -0.002(2) 0.001(2)
C13 0.032(3) 0.021(3) 0.018(3) 0.002(2) -0.003(2) 0.000(2)
C14 0.022(3) 0.030(3) 0.022(3) -0.006(3) -0.001(2) 0.000(3)
C15 0.025(3) 0.040(4) 0.022(3) 0.011(3) -0.001(2) 0.004(3)
C16 0.037(4) 0.045(4) 0.027(4) 0.005(3) 0.006(3) 0.004(3)
C17 0.029(3) 0.038(3) 0.020(3) -0.001(3) -0.001(2) 0.000(3)
C18 0.023(3) 0.030(3) 0.027(3) -0.003(3) -0.005(3) 0.004(3)
C19 0.026(3) 0.027(3) 0.019(3) -0.003(2) 0.004(2) -0.001(3)
C20 0.031(3) 0.025(3) 0.018(3) -0.001(2) -0.001(3) 0.000(2)
C21 0.028(3) 0.032(3) 0.020(3) 0.000(3) -0.001(2) 0.003(3)
C22 0.023(3) 0.031(3) 0.031(4) -0.008(3) 0.001(3) 0.001(2)
C23 0.032(3) 0.031(3) 0.025(3) 0.003(3) -0.001(3) 0.000(3)
C24 0.028(3) 0.036(4) 0.032(3) -0.002(3) 0.003(3) 0.008(3)
C25 0.080(11) 0.083(12) 0.119(15) -0.013(12) 0.005(11) 0.023(11)
C26 0.113(15) 0.097(14) 0.091(13) 0.016(12) -0.006(12) 0.021(12)
C27 0.062(10) 0.103(13) 0.079(12) 0.021(10) -0.030(9) -0.007(10)
C28 0.066(10) 0.073(11) 0.107(13) -0.029(11) -0.043(10) 0.025(10)
C29 0.092(13) 0.057(10) 0.126(16) 0.010(10) 0.002(12) 0.018(10)
C30 0.086(12) 0.047(9) 0.097(14) 0.005(9) 0.002(10) 0.012(9)
C31 0.067(10) 0.086(11) 0.055(9) 0.005(9) 0.022(8) 0.008(9)
C32 0.128(16) 0.116(15) 0.131(16) -0.023(14) -0.017(14) 0.043(14)
Cd1 0.01922(18) 0.01922(18) 0.0230(3) -0.0017(2) 0.0017(2) -0.0025(2)
Cl1 0.0714(12) 0.0714(12) 0.0405(14) -0.0095(13) 0.0095(13) -0.0296(15)
Cl2 0.0773(12) 0.0773(12) 0.0473(16) -0.0031(14) -0.0031(14) 0.0191(16)
N1 0.021(3) 0.021(2) 0.027(3) -0.0047(19) -0.001(2) -0.0062(18)
N2 0.025(2) 0.026(2) 0.025(2) -0.002(2) -0.001(2) -0.001(2)
N3 0.024(2) 0.029(2) 0.026(2) -0.004(2) -0.0041(19) 0.006(2)
N4 0.025(3) 0.050(4) 0.046(3) -0.023(3) -0.013(2) 0.006(3)
N5 0.026(2) 0.026(2) 0.032(3) 0.003(2) -0.007(2) 0.0017(19)
N6 0.028(3) 0.023(3) 0.036(3) -0.003(2) -0.007(2) 0.000(2)
O1 0.104(6) 0.151(7) 0.043(3) -0.032(4) 0.010(4) -0.041(5)
O2 0.074(9) 0.155(13) 0.135(12) -0.014(11) 0.029(10) 0.015(9)
O3 0.115(10) 0.042(6) 0.051(7) 0.006(5) -0.019(7) 0.026(6)
O4 0.111(11) 0.248(17) 0.053(8) 0.053(10) 0.036(9) 0.023(13)
O5 0.261(12) 0.261(12) 0.34(2) -0.068(12) -0.068(12) 0.022(16)
O6 0.188(8) 0.188(8) 0.137(10) 0.048(9) -0.048(9) -0.086(11)
O7 0.089(11) 0.261(19) 0.211(18) -0.017(17) -0.031(13) -0.007(13)

_geom_special_details            
;
All esds (except the esd in the dihedral angle between two l.s. planes)
are estimated using the full covariance matrix. The cell esds are taken
into account individually in the estimation of esds in distances, angles
and torsion angles; correlations between esds in cell parameters are only
used when they are defined by crystal symmetry. An approximate (isotropic)
treatment of cell esds is used for estimating esds involving l.s. planes.
;

loop_
_geom_bond_atom_site_label_1
_geom_bond_atom_site_label_2
_geom_bond_distance
_geom_bond_site_symmetry_2
_geom_bond_publ_flag
C1 N5 1.333(8) . ?
C1 C2 1.372(8) . ?
C1 H1 0.9300 . ?
C2 C3 1.387(9) . ?
C2 H2 0.9300 . ?
C3 C4 1.388(8) . ?
C3 C6 1.477(8) . ?
C4 C5 1.394(8) . ?
C4 H4 0.9300 . ?
C5 N5 1.320(8) . ?
C5 H5 0.9300 . ?
C6 C7 1.392(9) . ?
C6 C11 1.402(8) . ?
C7 C8 1.379(8) . ?
C7 H7 0.9300 . ?
C8 C9 1.377(9) . ?
C8 H8 0.9300 . ?
C9 C10 1.385(9) . ?
C9 H9 0.9300 . ?
C10 C11 1.384(8) . ?
C10 C12 1.464(7) . ?
C11 H11 0.9300 . ?
C12 N2 1.313(7) . ?
C12 N3 1.379(7) . ?
C13 N1 1.297(7) . ?
C13 N3 1.362(7) . ?
C13 C14 1.476(8) . ?
C14 C19 1.364(8) . ?
C14 C15 1.397(8) . ?
C15 C16 1.392(9) . ?
C15 H15 0.9300 . ?
C16 C17 1.395(9) . ?
C16 H16 0.9300 . ?
C17 C18 1.367(8) . ?
C17 H17 0.9300 . ?
C18 C19 1.420(8) . ?
C18 C20 1.479(8) . ?
C19 H19 0.9300 . ?
C20 C21 1.398(8) . ?
C20 C24 1.407(8) . ?
C21 C22 1.376(9) . ?
C21 H21 0.9300 . ?
C22 N6 1.333(8) . ?
C22 H22 0.9300 . ?
C23 N6 1.329(8) . ?
C23 C24 1.361(8) . ?
C23 H23 0.9300 . ?
C24 H24 0.9300 . ?
C25 C26 1.366(9) . ?
C25 C30 1.369(9) . ?
C25 H25A 0.9300 . ?
C26 C27 1.350(9) . ?
C26 H26A 0.9300 . ?
C27 C28 1.369(9) . ?
C27 H27A 0.9300 . ?
C28 C29 1.360(9) . ?
C28 H28A 0.9300 . ?
C29 C30 1.377(9) . ?
C29 C31 1.491(9) . ?
C30 C32 1.523(10) . ?
C31 H31A 0.9600 . ?
C31 H31B 0.9600 . ?
C31 H31C 0.9600 . ?
C32 H32A 0.9600 . ?
C32 H32B 0.9600 . ?
C32 H32C 0.9600 . ?
Cd1 N1 2.335(4) . ?
Cd1 N1 2.335(4) 7 ?
Cd1 N6 2.363(5) 3_544 ?
Cd1 N6 2.363(5) 6_455 ?
Cd1 N5 2.432(5) 6_465 ?
Cd1 N5 2.432(5) 3_644 ?
Cl1 O1 1.381(5) . ?
Cl1 O1 1.381(5) 7 ?
Cl1 O6 1.385(14) . ?
Cl1 O2 1.441(9) . ?
Cl1 O2 1.441(9) 7 ?
Cl2 O4 1.384(9) 8_665 ?
Cl2 O4 1.384(9) . ?
Cl2 O7 1.413(9) . ?
Cl2 O7 1.413(9) 8_665 ?
Cl2 O5 1.421(10) . ?
Cl2 O3 1.442(8) 8_665 ?
Cl2 O3 1.442(8) . ?
N1 N2 1.380(6) . ?
N3 N4 1.405(6) . ?
N4 H4A 0.8900 . ?
N4 H4B 0.8900 . ?
N5 Cd1 2.432(5) 4_565 ?
N6 Cd1 2.363(5) 4 ?
O5 O4 1.694(18) 8_665 ?
O6 O2 1.763(17) 7 ?
O7 O7 1.47(4) 8_665 ?

loop_
_geom_angle_atom_site_label_1
_geom_angle_atom_site_label_2
_geom_angle_atom_site_label_3
_geom_angle
_geom_angle_site_symmetry_1
_geom_angle_site_symmetry_3
_geom_angle_publ_flag
N5 C1 C2 124.0(5) . . ?
N5 C1 H1 118.0 . . ?
C2 C1 H1 118.0 . . ?
C1 C2 C3 120.7(6) . . ?
C1 C2 H2 119.7 . . ?
C3 C2 H2 119.7 . . ?
C2 C3 C4 115.3(5) . . ?
C2 C3 C6 123.0(6) . . ?
C4 C3 C6 121.7(6) . . ?
C3 C4 C5 120.1(6) . . ?
C3 C4 H4 119.9 . . ?
C5 C4 H4 119.9 . . ?
N5 C5 C4 123.8(6) . . ?
N5 C5 H5 118.1 . . ?
C4 C5 H5 118.1 . . ?
C7 C6 C11 117.1(5) . . ?
C7 C6 C3 122.7(5) . . ?
C11 C6 C3 120.0(5) . . ?
C8 C7 C6 121.3(6) . . ?
C8 C7 H7 119.3 . . ?
C6 C7 H7 119.3 . . ?
C9 C8 C7 120.8(6) . . ?
C9 C8 H8 119.6 . . ?
C7 C8 H8 119.6 . . ?
C8 C9 C10 119.2(6) . . ?
C8 C9 H9 120.4 . . ?
C10 C9 H9 120.4 . . ?
C11 C10 C9 120.1(5) . . ?
C11 C10 C12 122.5(5) . . ?
C9 C10 C12 117.3(5) . . ?
C10 C11 C6 121.4(5) . . ?
C10 C11 H11 119.3 . . ?
C6 C11 H11 119.3 . . ?
N2 C12 N3 108.6(5) . . ?
N2 C12 C10 123.9(5) . . ?
N3 C