####################################################################### 
# 
# This file contains crystal structure data downloaded from the 
# Cambridge Structural Database (CSD) hosted by the Cambridge 
# Crystallographic Data Centre (CCDC).
# 
# Full information about CCDC data access policies and citation 
# guidelines are available at http://www.ccdc.cam.ac.uk/access/V1 
# 
# Audit and citation data items may have been added by the CCDC. 
# Please retain this information to preserve the provenance of 
# this file and to allow appropriate attribution of the data. 
# 
#######################################################################

data_11
_audit_block_doi                 10.5517/ccs73bf
_database_code_depnum_ccdc_archive 'CCDC 721814'
loop_
_citation_id
_citation_doi
_citation_year
1 10.1002/chem.200901023 2009
_audit_update_record             
;
2009-02-23 deposited with the CCDC.	2024-07-13 downloaded from the CCDC.
;

_audit_creation_method           SHELXL-97
_chemical_name_systematic        
;
?
;
_chemical_name_common            ?
_chemical_melting_point          ?
_chemical_formula_moiety         ?
_chemical_formula_sum            'C55 H44 Cd Cl2 N12 O8'
_chemical_formula_weight         1184.32

loop_
_atom_type_symbol
_atom_type_description
_atom_type_scat_dispersion_real
_atom_type_scat_dispersion_imag
_atom_type_scat_source
C C 0.0033 0.0016 'International Tables Vol C Tables 4.2.6.8 and 6.1.1.4'
H H 0.0000 0.0000 'International Tables Vol C Tables 4.2.6.8 and 6.1.1.4'
N N 0.0061 0.0033 'International Tables Vol C Tables 4.2.6.8 and 6.1.1.4'
O O 0.0106 0.0060 'International Tables Vol C Tables 4.2.6.8 and 6.1.1.4'
Cl Cl 0.1484 0.1585 'International Tables Vol C Tables 4.2.6.8 and 6.1.1.4'
Cd Cd -0.8075 1.2024 'International Tables Vol C Tables 4.2.6.8 and 6.1.1.4'

_symmetry_cell_setting           Tetragonal
_symmetry_space_group_name_H-M   P4(3)2(1)2

loop_
_symmetry_equiv_pos_as_xyz
'x, y, z'
'-x, -y, z+1/2'
'-y+1/2, x+1/2, z+3/4'
'y+1/2, -x+1/2, z+1/4'
'-x+1/2, y+1/2, -z+3/4'
'x+1/2, -y+1/2, -z+1/4'
'y, x, -z'
'-y, -x, -z+1/2'

_cell_length_a                   15.9030(12)
_cell_length_b                   15.9030(12)
_cell_length_c                   21.615(2)
_cell_angle_alpha                90.00
_cell_angle_beta                 90.00
_cell_angle_gamma                90.00
_cell_volume                     5466.5(8)
_cell_formula_units_Z            4
_cell_measurement_temperature    123(2)
_cell_measurement_reflns_used    7851
_cell_measurement_theta_min      2.278
_cell_measurement_theta_max      25.545

_exptl_crystal_description       block
_exptl_crystal_colour            courlorless
_exptl_crystal_size_max          0.34
_exptl_crystal_size_mid          0.20
_exptl_crystal_size_min          0.12
_exptl_crystal_density_meas      ?
_exptl_crystal_density_diffrn    1.439
_exptl_crystal_density_method    'not measured'
_exptl_crystal_F_000             2416
_exptl_absorpt_coefficient_mu    0.563
_exptl_absorpt_correction_type   multi-scan
_exptl_absorpt_correction_T_min  0.8317
_exptl_absorpt_correction_T_max  0.9355
_exptl_absorpt_process_details   sadabs

_exptl_special_details           
;
?
;

_diffrn_ambient_temperature      123(2)
_diffrn_radiation_wavelength     0.71073
_diffrn_radiation_type           MoK\a
_diffrn_radiation_source         'fine-focus sealed tube'
_diffrn_radiation_monochromator  graphite
_diffrn_measurement_device_type  'CCD area detector'
_diffrn_measurement_method       'phi and omega scans'
_diffrn_detector_area_resol_mean ?
_diffrn_standards_number         ?
_diffrn_standards_interval_count ?
_diffrn_standards_interval_time  ?
_diffrn_standards_decay_%        ?
_diffrn_reflns_number            28822
_diffrn_reflns_av_R_equivalents  0.0491
_diffrn_reflns_av_sigmaI/netI    0.0366
_diffrn_reflns_limit_h_min       -12
_diffrn_reflns_limit_h_max       19
_diffrn_reflns_limit_k_min       -19
_diffrn_reflns_limit_k_max       17
_diffrn_reflns_limit_l_min       -26
_diffrn_reflns_limit_l_max       20
_diffrn_reflns_theta_min         2.28
_diffrn_reflns_theta_max         25.50
_reflns_number_total             5090
_reflns_number_gt                4779
_reflns_threshold_expression     >2sigma(I)

_computing_data_collection       'Bruker SMART'
_computing_cell_refinement       'Bruker SMART'
_computing_data_reduction        'Bruker SAINT'
_computing_structure_solution    'SHELXS-97 (Sheldrick, 1990)'
_computing_structure_refinement  'SHELXL-97 (Sheldrick, 1997)'
_computing_molecular_graphics    'Bruker SHELXTL'
_computing_publication_material  'Bruker SHELXTL'

_refine_special_details          
;
Refinement of F^2^ against ALL reflections. The weighted R-factor wR and
goodness of fit S are based on F^2^, conventional R-factors R are based
on F, with F set to zero for negative F^2^. The threshold expression of
F^2^ > 2sigma(F^2^) is used only for calculating R-factors(gt) etc. and is
not relevant to the choice of reflections for refinement. R-factors based
on F^2^ are statistically about twice as large as those based on F, and R-
factors based on ALL data will be even larger.
;

_refine_ls_structure_factor_coef Fsqd
_refine_ls_matrix_type           full
_refine_ls_weighting_scheme      calc
_refine_ls_weighting_details     
'calc w=1/[\s^2^(Fo^2^)+(0.0546P)^2^+2.4170P] where P=(Fo^2^+2Fc^2^)/3'
_atom_sites_solution_primary     direct
_atom_sites_solution_secondary   difmap
_atom_sites_solution_hydrogens   geom
_refine_ls_hydrogen_treatment    constr
_refine_ls_extinction_method     none
_refine_ls_extinction_coef       ?
_refine_ls_abs_structure_details 'Flack H D (1983), Acta Cryst. A39, 876-881'
_chemical_absolute_configuration syn
_refine_ls_abs_structure_Flack   -0.02(3)
_refine_ls_number_reflns         5090
_refine_ls_number_parameters     430
_refine_ls_number_restraints     140
_refine_ls_R_factor_all          0.0422
_refine_ls_R_factor_gt           0.0387
_refine_ls_wR_factor_ref         0.0957
_refine_ls_wR_factor_gt          0.0938
_refine_ls_goodness_of_fit_ref   1.086
_refine_ls_restrained_S_all      1.121
_refine_ls_shift/su_max          0.001
_refine_ls_shift/su_mean         0.000

loop_
_atom_site_label
_atom_site_type_symbol
_atom_site_fract_x
_atom_site_fract_y
_atom_site_fract_z
_atom_site_U_iso_or_equiv
_atom_site_adp_type
_atom_site_occupancy
_atom_site_symmetry_multiplicity
_atom_site_calc_flag
_atom_site_refinement_flags
_atom_site_disorder_assembly
_atom_site_disorder_group
C1 C 0.2447(3) 0.9624(3) -0.0351(2) 0.0344(10) Uani 1 1 d . . .
H1 H 0.2405 0.9934 -0.0715 0.041 Uiso 1 1 calc R . .
C2 C 0.3106(3) 0.9057(3) -0.0297(2) 0.0347(10) Uani 1 1 d . . .
H2 H 0.3493 0.8999 -0.0617 0.042 Uiso 1 1 calc R . .
C3 C 0.3187(3) 0.8579(2) 0.02328(18) 0.0277(9) Uani 1 1 d . . .
C4 C 0.2600(3) 0.8738(3) 0.07002(19) 0.0326(10) Uani 1 1 d . . .
H4 H 0.2636 0.8454 0.1075 0.039 Uiso 1 1 calc R . .
C5 C 0.1970(2) 0.9314(3) 0.06050(19) 0.0318(9) Uani 1 1 d . . .
H5 H 0.1589 0.9404 0.0924 0.038 Uiso 1 1 calc R . .
C6 C 0.3842(2) 0.7916(2) 0.02934(19) 0.0270(8) Uani 1 1 d . . .
C7 C 0.4557(3) 0.7914(3) -0.0077(2) 0.0400(11) Uani 1 1 d . . .
H7 H 0.4636 0.8343 -0.0364 0.048 Uiso 1 1 calc R . .
C8 C 0.5149(3) 0.7289(3) -0.0026(3) 0.0489(12) Uani 1 1 d . . .
H8 H 0.5631 0.7309 -0.0269 0.059 Uiso 1 1 calc R . .
C9 C 0.5035(3) 0.6631(3) 0.0382(2) 0.0371(10) Uani 1 1 d . . .
H9 H 0.5436 0.6207 0.0413 0.045 Uiso 1 1 calc R . .
C10 C 0.4317(2) 0.6609(2) 0.07460(17) 0.0252(8) Uani 1 1 d . . .
C11 C 0.3721(2) 0.7251(2) 0.07072(18) 0.0257(8) Uani 1 1 d . . .
H11 H 0.3244 0.7237 0.0956 0.031 Uiso 1 1 calc R . .
C12 C 0.4237(2) 0.5909(2) 0.11904(16) 0.0222(7) Uani 1 1 d . . .
C13 C 0.3727(2) 0.4948(2) 0.18089(16) 0.0237(8) Uani 1 1 d . . .
C14 C 0.3107(2) 0.4392(2) 0.21113(16) 0.0219(7) Uani 1 1 d . . .
C15 C 0.2805(3) 0.4563(3) 0.26983(18) 0.0313(9) Uani 1 1 d . . .
H15 H 0.2986 0.5035 0.2914 0.038 Uiso 1 1 calc R . .
C16 C 0.2220(3) 0.4007(3) 0.2960(2) 0.0355(10) Uani 1 1 d . . .
H16 H 0.2026 0.4100 0.3360 0.043 Uiso 1 1 calc R . .
C17 C 0.1931(3) 0.3326(3) 0.26310(18) 0.0300(9) Uani 1 1 d . . .
H17 H 0.1536 0.2969 0.2810 0.036 Uiso 1 1 calc R . .
C18 C 0.2219(2) 0.3163(2) 0.20355(18) 0.0257(8) Uani 1 1 d . . .
C19 C 0.2818(2) 0.3702(2) 0.17856(18) 0.0263(8) Uani 1 1 d . . .
H19 H 0.3028 0.3597 0.1392 0.032 Uiso 1 1 calc R . .
C20 C 0.1912(2) 0.2446(2) 0.16644(17) 0.0268(8) Uani 1 1 d . . .
C21 C 0.1162(2) 0.2017(2) 0.17997(18) 0.0283(9) Uani 1 1 d . . .
H21 H 0.0868 0.2137 0.2161 0.034 Uiso 1 1 calc R . .
C22 C 0.0867(2) 0.1420(2) 0.13973(19) 0.0291(9) Uani 1 1 d . . .
H22 H 0.0366 0.1150 0.1496 0.035 Uiso 1 1 calc R . .
C23 C 0.1995(3) 0.1570(2) 0.07667(19) 0.0304(9) Uani 1 1 d . . .
H23 H 0.2293 0.1410 0.0416 0.036 Uiso 1 1 calc R . .
C24 C 0.2340(2) 0.2166(3) 0.11439(18) 0.0323(9) Uani 1 1 d . . .
H24 H 0.2867 0.2386 0.1051 0.039 Uiso 1 1 calc R . .
C25 C 0.4328(11) 0.1012(11) 0.9290(8) 0.080(7) Uani 0.361(8) 1 d PDU A 1
H25 H 0.3919 0.1427 0.9324 0.097 Uiso 0.361(8) 1 calc PR A 1
C26 C 0.4510(14) 0.0682(14) 0.8723(9) 0.155(13) Uani 0.361(8) 1 d PDU A 1
H26 H 0.4238 0.0883 0.8373 0.186 Uiso 0.361(8) 1 calc PR A 1
C27 C 0.5097(15) 0.0051(14) 0.8670(9) 0.117(9) Uani 0.361(8) 1 d PDU A 1
H27 H 0.5224 -0.0174 0.8285 0.141 Uiso 0.361(8) 1 calc PR A 1
C28 C 0.5493(17) -0.0242(16) 0.9188(11) 0.129(10) Uani 0.361(8) 1 d PDU A 1
H28 H 0.5889 -0.0670 0.9156 0.154 Uiso 0.361(8) 1 calc PR A 1
C29 C 0.531(2) 0.0095(19) 0.9755(10) 0.114(8) Uani 0.361(8) 1 d PDU A 1
H29 H 0.5571 -0.0113 1.0107 0.137 Uiso 0.361(8) 1 calc PR A 1
C30 C 0.4734(11) 0.0742(11) 0.9807(8) 0.116(9) Uani 0.361(8) 1 d PDU A 1
C31 C 0.4466(11) 0.1071(10) 1.0424(8) 0.105(8) Uani 0.361(8) 1 d PDU A 1
H31A H 0.4289 0.1645 1.0383 0.158 Uiso 0.361(8) 1 calc PR A 1
H31B H 0.4930 0.1041 1.0708 0.158 Uiso 0.361(8) 1 calc PR A 1
H31C H 0.4008 0.0739 1.0579 0.158 Uiso 0.361(8) 1 calc PR A 1
C25' C 0.4685(11) 0.0878(10) 1.0107(8) 0.116(9) Uani 0.139(8) 1 d PRDU A 2
H25' H 0.4588 0.1008 1.0520 0.139 Uiso 0.139(8) 1 calc PR A 2
C26' C 0.4302(11) 0.1337(10) 0.9649(8) 0.080(7) Uani 0.139(8) 1 d PRDU A 2
H26' H 0.4055 0.1853 0.9738 0.097 Uiso 0.139(8) 1 calc PR A 2
C27' C 0.429(5) 0.102(4) 0.9058(15) 0.155(13) Uani 0.139(8) 1 d PDU A 2
H27' H 0.3936 0.1263 0.8763 0.186 Uiso 0.139(8) 1 calc PR A 2
C28' C 0.479(3) 0.036(3) 0.8905(14) 0.117(9) Uani 0.139(8) 1 d PDU A 2
H28' H 0.4768 0.0126 0.8511 0.141 Uiso 0.139(8) 1 calc PR A 2
C29' C 0.534(5) 0.005(5) 0.9337(12) 0.129(10) Uani 0.139(8) 1 d PDU A 2
H29' H 0.5790 -0.0286 0.9216 0.154 Uiso 0.139(8) 1 calc PR A 2
C30' C 0.521(6) 0.023(5) 0.9953(11) 0.114(8) Uani 0.139(8) 1 d PDU A 2
C31' C 0.566(2) -0.0280(17) 1.0441(15) 0.056(11) Uani 0.139(8) 1 d PDU A 2
H31D H 0.5437 -0.0840 1.0450 0.085 Uiso 0.139(8) 1 calc PR A 2
H31E H 0.5581 -0.0020 1.0837 0.085 Uiso 0.139(8) 1 calc PR A 2
H31F H 0.6250 -0.0302 1.0347 0.085 Uiso 0.139(8) 1 calc PR A 2
Cd1 Cd 0.058968(14) 1.058968(14) 0.0000 0.01958(11) Uani 1 2 d S . .
Cl1 Cl 0.76826(8) 0.76826(8) 0.0000 0.0683(6) Uani 1 2 d SD . .
Cl2 Cl 0.37918(9) 0.37918(9) 0.0000 0.0647(5) Uani 1 2 d SD . .
N1 N 0.48733(18) 0.5538(2) 0.14531(14) 0.0252(7) Uani 1 1 d . . .
N2 N 0.45517(19) 0.49271(18) 0.18423(15) 0.0243(7) Uani 1 1 d . . .
N3 N 0.35061(17) 0.5557(2) 0.14007(14) 0.0242(6) Uani 1 1 d . . .
N4 N 0.2688(2) 0.5752(2) 0.11927(18) 0.0412(10) Uani 1 1 d D . .
N5 N 0.1871(2) 0.97525(19) 0.00857(16) 0.0279(7) Uani 1 1 d . . .
N6 N 0.1251(2) 0.1203(2) 0.08745(15) 0.0284(7) Uani 1 1 d . . .
O1 O 0.7277(4) 0.7423(5) 0.0529(2) 0.116(2) Uani 1 1 d D . .
O2 O 0.8298(3) 0.8298(3) 0.0000 0.168(5) Uani 1 2 d SD . .
O3 O 0.7183(6) 0.8446(4) -0.0121(5) 0.161(6) Uani 0.50 1 d PD . .
H4B H 0.2440 0.5996 0.1523 0.050 Uiso 1 1 d RD . .
H4A H 0.2444 0.5239 0.1133 0.050 Uiso 1 1 d RD . .
O4 O 0.3291(7) 0.4014(5) -0.0540(4) 0.084(3) Uani 0.50 1 d PD . .
O5 O 0.3548(11) 0.4294(8) 0.0459(5) 0.210(12) Uani 0.50 1 d PD . .
O6 O 0.4595(6) 0.4019(12) -0.0218(6) 0.207(11) Uani 0.50 1 d PD . .
O7 O 0.3708(12) 0.2953(6) 0.0084(8) 0.251(12) Uani 0.50 1 d PD . .

loop_
_atom_site_aniso_label
_atom_site_aniso_U_11
_atom_site_aniso_U_22
_atom_site_aniso_U_33
_atom_site_aniso_U_23
_atom_site_aniso_U_13
_atom_site_aniso_U_12
C1 0.038(2) 0.034(2) 0.032(2) 0.0102(17) 0.0014(18) 0.0081(18)
C2 0.033(2) 0.033(2) 0.038(2) 0.0118(19) 0.0092(19) 0.0054(18)
C3 0.027(2) 0.0222(19) 0.034(2) 0.0019(16) 0.0013(17) -0.0040(16)
C4 0.031(2) 0.036(2) 0.031(2) 0.0098(18) 0.0059(18) 0.0072(18)
C5 0.0236(19) 0.034(2) 0.038(2) 0.0025(19) 0.0040(16) 0.0035(17)
C6 0.025(2) 0.025(2) 0.032(2) 0.0037(17) -0.0009(17) 0.0021(16)
C7 0.029(2) 0.041(2) 0.050(3) 0.022(2) 0.015(2) 0.0039(17)
C8 0.033(2) 0.054(3) 0.060(3) 0.018(3) 0.019(3) 0.013(2)
C9 0.031(2) 0.033(2) 0.047(3) 0.011(2) 0.006(2) 0.0142(18)
C10 0.0250(19) 0.0216(18) 0.0289(19) 0.0013(14) -0.0023(16) 0.0013(15)
C11 0.0221(19) 0.0223(19) 0.033(2) 0.0023(17) 0.0000(16) -0.0040(15)
C12 0.021(2) 0.0202(17) 0.0251(17) -0.0026(14) -0.0013(14) -0.0003(13)
C13 0.028(2) 0.0188(18) 0.0248(18) -0.0001(15) -0.0057(15) 0.0031(14)
C14 0.0187(17) 0.0201(17) 0.0269(18) 0.0053(17) -0.0065(14) 0.0009(15)
C15 0.030(2) 0.034(2) 0.029(2) -0.0077(17) -0.0029(16) -0.0062(18)
C16 0.038(2) 0.040(2) 0.028(2) -0.0066(19) 0.0066(19) -0.004(2)
C17 0.028(2) 0.031(2) 0.031(2) 0.0017(16) 0.0017(16) -0.0060(16)
C18 0.0217(19) 0.028(2) 0.0278(19) 0.0021(16) -0.0016(16) -0.0051(16)
C19 0.029(2) 0.027(2) 0.0234(19) -0.0017(16) 0.0012(16) 0.0014(16)
C20 0.031(2) 0.0224(19) 0.028(2) 0.0049(16) -0.0023(17) -0.0012(15)
C21 0.031(2) 0.029(2) 0.025(2) 0.0016(16) 0.0018(16) -0.0065(17)
C22 0.0223(19) 0.028(2) 0.037(2) 0.0093(17) -0.0005(16) -0.0066(15)
C23 0.029(2) 0.029(2) 0.033(2) -0.0038(17) 0.0034(17) -0.0061(16)
C24 0.025(2) 0.036(2) 0.036(2) -0.0030(18) 0.0055(17) -0.0107(17)
C25 0.062(9) 0.086(13) 0.093(15) 0.041(11) -0.025(11) -0.039(10)
C26 0.15(2) 0.13(2) 0.18(3) 0.10(2) 0.01(2) 0.022(18)
C27 0.13(2) 0.123(19) 0.095(18) 0.002(15) 0.058(14) -0.032(16)
C28 0.099(16) 0.11(2) 0.17(2) 0.004(17) 0.042(17) -0.077(14)
C29 0.050(12) 0.070(14) 0.22(3) -0.001(17) 0.015(16) -0.031(8)
C30 0.079(12) 0.084(13) 0.18(3) -0.024(16) 0.028(15) -0.038(10)
C31 0.075(13) 0.071(12) 0.17(2) -0.045(14) 0.018(15) 0.017(11)
C25' 0.079(12) 0.084(13) 0.18(3) -0.024(16) 0.028(15) -0.038(10)
C26' 0.062(9) 0.086(13) 0.093(15) 0.041(11) -0.025(11) -0.039(10)
C27' 0.15(2) 0.13(2) 0.18(3) 0.10(2) 0.01(2) 0.022(18)
C28' 0.13(2) 0.123(19) 0.095(18) 0.002(15) 0.058(14) -0.032(16)
C29' 0.099(16) 0.11(2) 0.17(2) 0.004(17) 0.042(17) -0.077(14)
C30' 0.050(12) 0.070(14) 0.22(3) -0.001(17) 0.015(16) -0.031(8)
C31' 0.05(2) 0.042(18) 0.07(2) 0.020(16) -0.05(2) -0.010(16)
Cd1 0.01641(12) 0.01641(12) 0.02593(18) 0.00146(12) -0.00146(12) -0.00240(14)
Cl1 0.0798(9) 0.0798(9) 0.0452(10) 0.0076(9) -0.0076(9) -0.0377(11)
Cl2 0.0736(8) 0.0736(8) 0.0470(10) -0.0014(8) 0.0014(8) -0.0129(10)
N1 0.0233(15) 0.0208(15) 0.0313(16) 0.0006(14) -0.0010(13) 0.0020(14)
N2 0.0214(16) 0.0199(15) 0.0316(17) 0.0015(13) 0.0001(13) 0.0019(12)
N3 0.0210(14) 0.0215(15) 0.0300(16) 0.0037(14) -0.0069(12) 0.0016(14)
N4 0.0225(17) 0.045(2) 0.056(2) 0.0214(19) -0.0132(16) -0.0042(15)
N5 0.0273(17) 0.0234(15) 0.0332(19) 0.0002(14) -0.0046(15) -0.0012(13)
N6 0.0254(18) 0.0231(18) 0.0367(17) 0.0049(15) -0.0023(15) -0.0036(12)
O1 0.101(4) 0.186(6) 0.060(3) 0.032(4) -0.002(3) -0.042(4)
O2 0.177(7) 0.177(7) 0.149(9) -0.063(8) 0.063(8) -0.091(9)
O3 0.214(16) 0.074(7) 0.196(15) 0.076(9) -0.001(13) 0.010(8)
O4 0.136(10) 0.055(5) 0.061(6) -0.005(4) -0.028(6) -0.029(6)
O5 0.41(3) 0.128(15) 0.087(10) -0.067(10) 0.124(14) -0.123(18)
O6 0.061(7) 0.45(4) 0.113(14) 0.092(15) 0.023(8) -0.054(15)
O7 0.44(4) 0.081(9) 0.23(2) 0.039(13) -0.08(3) 0.021(15)

_geom_special_details            
;
All esds (except the esd in the dihedral angle between two l.s. planes)
are estimated using the full covariance matrix. The cell esds are taken
into account individually in the estimation of esds in distances, angles
and torsion angles; correlations between esds in cell parameters are only
used when they are defined by crystal symmetry. An approximate (isotropic)
treatment of cell esds is used for estimating esds involving l.s. planes.
;

loop_
_geom_bond_atom_site_label_1
_geom_bond_atom_site_label_2
_geom_bond_distance
_geom_bond_site_symmetry_2
_geom_bond_publ_flag
C1 N5 1.331(5) . ?
C1 C2 1.389(6) . ?
C1 H1 0.9300 . ?
C2 C3 1.380(6) . ?
C2 H2 0.9300 . ?
C3 C4 1.399(6) . ?
C3 C6 1.488(5) . ?
C4 C5 1.372(6) . ?
C4 H4 0.9300 . ?
C5 N5 1.331(5) . ?
C5 H5 0.9300 . ?
C6 C7 1.391(6) . ?
C6 C11 1.398(5) . ?
C7 C8 1.373(6) . ?
C7 H7 0.9300 . ?
C8 C9 1.381(6) . ?
C8 H8 0.9300 . ?
C9 C10 1.387(6) . ?
C9 H9 0.9300 . ?
C10 C11 1.395(5) . ?
C10 C12 1.476(5) . ?
C11 H11 0.9300 . ?
C12 N1 1.302(4) . ?
C12 N3 1.368(4) . ?
C13 N2 1.314(5) . ?
C13 N3 1.356(5) . ?
C13 C14 1.476(5) . ?
C14 C19 1.382(5) . ?
C14 C15 1.383(5) . ?
C15 C16 1.403(6) . ?
C15 H15 0.9300 . ?
C16 C17 1.375(6) . ?
C16 H16 0.9300 . ?
C17 C18 1.391(6) . ?
C17 H17 0.9300 . ?
C18 C19 1.392(5) . ?
C18 C20 1.476(5) . ?
C19 H19 0.9300 . ?
C20 C24 1.389(5) . ?
C20 C21 1.405(5) . ?
C21 C22 1.370(6) . ?
C21 H21 0.9300 . ?
C22 N6 1.330(5) . ?
C22 H22 0.9300 . ?
C23 N6 1.339(5) . ?
C23 C24 1.365(5) . ?
C23 H23 0.9300 . ?
C24 H24 0.9300 . ?
C25 C30 1.359(9) . ?
C25 C26 1.365(10) . ?
C25 H25 0.9300 . ?
C26 C27 1.374(10) . ?
C26 H26 0.9300 . ?
C27 C28 1.366(10) . ?
C27 H27 0.9300 . ?
C28 C29 1.368(1