
#######################################################################
#
#                 Cambridge Crystallographic Data Centre
#                                CCDC
#
#######################################################################
#
# If this CIF has been generated from an entry in the Cambridge
# Structural Database, then it will include bibliographic, chemical,
# crystal, experimental, refinement or atomic coordinate data resulting
# from the CCDC's data processing and validation procedures.
#
#######################################################################

data_CSD_CIF_WUPQEE
_audit_creation_date 2010-07-26
_audit_creation_method CSD-ConQuest-V1
_database_code_CSD WUPQEE
_database_code_depnum_ccdc_archive 'CCDC 747968'
_chemical_formula_sum 'C12 H8 Br1 Cu2 N2 O4'
_chemical_formula_moiety
;
(C12 H8 Br1 Cu2 N2 O4)n
;
_journal_coden_Cambridge 182
_journal_volume 46
_journal_year 2010
_journal_page_first 3262
_journal_name_full 'Chem.Commun. '
loop_
_publ_author_name
"P.Amo-Ochoa"
"L.Welte"
"R.Gonzalez-Prieto"
"P.J.S.Miguel"
"C.J.Gomez-Garcia"
"E.Mateo-Marti"
"S.Delgado"
"J.Gomez-Herrero"
"F.Zamora"
_chemical_name_systematic
;
catena-[bis(\m~2~-4-Pyridylcarboxylato)-(\m~2~-bromo)-copper(i)-copper(ii)]
;
_chemical_name_common
;
Teaching Subset: Fundamental Chemistry
;
_cell_volume   1312.238
_exptl_crystal_colour 'black'
_exptl_crystal_density_diffrn 2.284
_exptl_crystal_description 'prisms'
_diffrn_ambient_temperature 150
#These two values have been output from a single CSD field.
_refine_ls_R_factor_gt 0.036
_refine_ls_wR_factor_gt 0.036
_symmetry_cell_setting orthorhombic
_symmetry_space_group_name_H-M 'P b c n'
_symmetry_Int_Tables_number 60
loop_
_symmetry_equiv_pos_site_id
_symmetry_equiv_pos_as_xyz
1 x,y,z
2 1/2-x,1/2-y,1/2+z
3 -x,y,1/2-z
4 1/2+x,1/2-y,-z
5 -x,-y,-z
6 -1/2+x,-1/2+y,-1/2-z
7 x,-y,-1/2+z
8 -1/2-x,-1/2+y,z
_cell_length_a 14.1012(3)
_cell_length_b 6.7152(1)
_cell_length_c 13.8579(3)
_cell_angle_alpha 90
_cell_angle_beta 90
_cell_angle_gamma 90
_cell_formula_units_Z 4
loop_
_atom_type_symbol
_atom_type_radius_bond
C 0.68
H 0.23
Br 1.21
Cu 1.32
N 0.68
O 0.68
loop_
_atom_site_label
_atom_site_type_symbol
_atom_site_fract_x
_atom_site_fract_y
_atom_site_fract_z
Cu1 Cu 0.05855(4) 0.18613(10) 0.18761(4)
Br1 Br 0.00000 -0.15139(10) 0.25000
N1 N 0.1581(2) 0.1541(5) 0.0839(3)
C1 C 0.2045(3) 0.1839(6) -0.0811(3)
H1 H 0.18650 0.19480 -0.14700
C2 C 0.2505(3) 0.1428(7) 0.1089(3)
H2 H 0.26640 0.12520 0.17490
C3 C 0.1368(3) 0.1713(6) -0.0097(3)
H3 H 0.07190 0.17500 -0.02780
C4 C 0.3228(3) 0.1558(6) 0.0419(3)
H4 H 0.38720 0.14820 0.06170
C5 C 0.2999(3) 0.1803(6) -0.0549(3)
C6 C 0.3757(3) 0.2102(6) -0.1288(3)
O1 O 0.4599(2) 0.2256(5) -0.09870(19)
O2 O 0.35079(19) 0.2234(5) -0.2158(2)
Cu1B Cu -0.05855(4) 0.18613(10) 0.31239(4)
Cu1C Cu 0.55855(4) 0.31387(10) -0.18761(4)
Cu1A Cu 0.44145(4) 0.31387(10) -0.31239(4)
Cu1A* Cu 0.44145(4) 0.31387(10) 0.68761(4)
N1A N 0.3419(2) 0.3459(5) 0.5839(3)
N1B N -0.1581(2) 0.1541(5) 0.4161(3)
C1A C 0.2955(3) 0.3161(6) 0.4189(3)
H1A H 0.31350 0.30520 0.35300
C2A C 0.2495(3) 0.3572(7) 0.6089(3)
H2A H 0.23360 0.37480 0.67490
C3A C 0.3632(3) 0.3287(6) 0.4903(3)
H3A H 0.42810 0.32500 0.47220
C4A C 0.1772(3) 0.3442(6) 0.5419(3)
H4A H 0.11280 0.35180 0.56170
C5A C 0.2001(3) 0.3197(6) 0.4451(3)
C6A C 0.1243(3) 0.2898(6) 0.3712(3)
O1A O 0.0401(2) 0.2744(5) 0.40130(19)
O1C O -0.0401(2) 0.2744(5) 0.09870(19)
O2A O 0.14921(19) 0.2766(5) 0.2842(2)
O2C O -0.14921(19) 0.2766(5) 0.2158(2)
#END
