####################################################################### 
# 
# This file contains crystal structure data downloaded from the 
# Cambridge Structural Database (CSD) hosted by the Cambridge 
# Crystallographic Data Centre (CCDC).
# 
# Full information about CCDC data access policies and citation 
# guidelines are available at http://www.ccdc.cam.ac.uk/access/V1 
# 
# Audit and citation data items may have been added by the CCDC. 
# Please retain this information to preserve the provenance of 
# this file and to allow appropriate attribution of the data. 
# 
#######################################################################

data_1
_audit_block_doi                 10.5517/cc6c0p7
_database_code_depnum_ccdc_archive 'CCDC 189338'
loop_
_citation_id
_citation_doi
_citation_year
1 10.1002/anie.200290025 2002
_audit_update_record             
;
2002-07-07 deposited with the CCDC.	2024-07-13 downloaded from the CCDC.
;
#------------------------------------------------------------------------------
_computing_data_collection       'Rigaku/AFC Diffractometer Control'
_computing_cell_refinement       'Rigaku/AFC Diffractometer Control'
_computing_data_reduction        teXsan
_computing_structure_solution    SIR92
_computing_structure_refinement  SHELXL93
_computing_publication_material  teXsan
_computing_molecular_graphics    ?
#------------------------------------------------------------------------------
_chemical_compound_source        ?
_chemical_name_common            ?
_chemical_formula_weight         748.58
_chemical_formula_analytical     ?
_chemical_formula_sum            'C10 H34 Ag N2 O13 S2 Re '
_chemical_formula_moiety         ?
_chemical_formula_structural     ?
_chemical_melting_point          ?
#------------------------------------------------------------------------------
_cell_length_a                   13.636(3)
_cell_length_b                   22.586(4)
_cell_length_c                   15.486(3)
_cell_angle_alpha                90
_cell_angle_beta                 90
_cell_angle_gamma                90
_cell_volume                     4769(1)
_cell_formula_units_Z            8
_cell_measurement_temperature    296.2
_cell_measurement_reflns_used    25
_cell_measurement_theta_min      14.1
_cell_measurement_theta_max      14.9
#------------------------------------------------------------------------------
_symmetry_cell_setting           orthorhombic
_symmetry_space_group_name_H-M   'C 2 2 21     '
_symmetry_Int_Tables_number      20
_symmetry_space_group_name_Hall  ?
loop_
_symmetry_equiv_pos_as_xyz
x,y,z
x,-y,-z
-x,-y,1/2+z
-x,y,1/2-z
1/2+x,1/2+y,z
1/2+x,1/2-y,-z
1/2-x,1/2-y,1/2+z
1/2-x,1/2+y,1/2-z
_exptl_crystal_description       plate
_exptl_crystal_colour            dark-purple
_exptl_crystal_size_max          0.22
_exptl_crystal_size_mid          0.20
_exptl_crystal_size_min          0.07
_exptl_crystal_density_diffrn    2.085
_exptl_crystal_density_meas      'not measured'
_exptl_crystal_F_000             2928.00
_exptl_absorpt_coefficient_mu    6.126
_exptl_absorpt_correction_type   '\y scans(North,Phillips & Mathews,1968)'
_exptl_absorpt_correction_T_max  0.999
_exptl_absorpt_correction_T_min  0.550
_exptl_special_details           
;
?
;
#------------------------------------------------------------------------------
_diffrn_special_details          
;
?
;
_diffrn_ambient_temperature      296.2
_diffrn_radiation_wavelength     0.7107
_diffrn_radiation_type           'Mo K\a'
_diffrn_radiation_source         'Rigaku sealed tube'
_diffrn_radiation_monochromator  graphite
_diffrn_radiation_detector       'scintillation counter'
_diffrn_measurement_device       'Rigaku AFC7S'
_diffrn_measurement_method       \w-2\q

_diffrn_standards_number         3
_diffrn_standards_interval_count 150
_diffrn_standards_decay_%        -0.06
loop_
_diffrn_standard_refln_index_h
_diffrn_standard_refln_index_k
_diffrn_standard_refln_index_l
? ? ?
? ? ?
? ? ?

_diffrn_reflns_number            3039
_reflns_number_total             3030
_reflns_number_observed          2614
_reflns_observed_criterion       >4.0sigma(F)
_diffrn_reflns_av_R_equivalents  0.000
_diffrn_reflns_av_sigmaI/netI    0.050
_diffrn_reflns_limit_h_min       12
_diffrn_reflns_limit_h_max       17
_diffrn_reflns_limit_k_min       0
_diffrn_reflns_limit_k_max       29
_diffrn_reflns_limit_l_min       0
_diffrn_reflns_limit_l_max       20
_diffrn_reflns_theta_min         ?
_diffrn_reflns_theta_max         27.52
_diffrn_reflns_reduction_process 'Lp corrections applied'
_diffrn_orient_matrix_UB_11      -0.02168
_diffrn_orient_matrix_UB_12      0.04191
_diffrn_orient_matrix_UB_13      -0.00827
_diffrn_orient_matrix_UB_21      0.05060
_diffrn_orient_matrix_UB_22      0.00527
_diffrn_orient_matrix_UB_23      -0.04611
_diffrn_orient_matrix_UB_31      -0.04845
_diffrn_orient_matrix_UB_32      -0.01326
_diffrn_orient_matrix_UB_33      -0.04445
#------------------------------------------------------------------------------
loop_
_atom_type_symbol
_atom_type_oxidation_number
_atom_type_number_in_cell
_atom_type_scat_dispersion_real
_atom_type_scat_dispersion_imag
_atom_type_scat_source
C 0 80 0.003 0.002
;International Tables for Crystallography
(1992, Vol. C, Tables 4.2.6.8 and 6.1.1.4)
;
N 0 16 0.006 0.003
;International Tables for Crystallography
(1992, Vol. C, Tables 4.2.6.8 and 6.1.1.4)
;
O 0 104 0.011 0.006
;International Tables for Crystallography
(1992, Vol. C, Tables 4.2.6.8 and 6.1.1.4)
;
S 0 16 0.125 0.123
;International Tables for Crystallography
(1992, Vol. C, Tables 4.2.6.8 and 6.1.1.4)
;
Re 0 8 -1.018 7.231
;International Tables for Crystallography
(1992, Vol. C, Tables 4.2.6.8 and 6.1.1.4)
;
Ag 0 8 -0.897 1.101
;International Tables for Crystallography
(1992, Vol. C, Tables 4.2.6.8 and 6.1.1.4)
;
H 0 272 0.000 0.000
;International Tables for Crystallography
(1992, Vol. C, Table 6.1.1.4)
;
#------------------------------------------------------------------------------
loop_
_atom_site_label
_atom_site_fract_x
_atom_site_fract_y
_atom_site_fract_z
_atom_site_U_iso_or_equiv
_atom_site_thermal_displace_type
_atom_site_calc_flag
_atom_site_calc_attached_atom
_atom_site_occupancy
_atom_site_refinement_flags
Re1 0.18319(3) 0.11020(2) 0.65083(2) 0.0233(1) Uani d . 1.00 .
Ag1 0.09239(7) 0.17291(5) 0.86715(7) 0.0510(3) Uani d . 1.00 .
S1 0.1328(2) 0.0806(1) 0.7885(2) 0.0267(5) Uani d . 1.00 .
S2 0.0869(2) 0.1944(1) 0.6491(2) 0.0286(5) Uani d . 1.00 .
O1 0.1317(7) 0.0605(4) 0.5860(6) 0.041(2) Uani d . 1.00 .
O2 0.2934(5) 0.1598(4) 0.7197(5) 0.029(2) Uani d . 1.00 .
O3 0.4060(6) 0.1557(4) 0.8232(6) 0.040(2) Uani d . 1.00 .
O4 0.3322(7) 0.3066(4) 0.5003(6) 0.046(2) Uani d . 1.00 .
O5 0.3155(8) 0.2296(5) 0.4142(6) 0.054(3) Uani d . 1.00 .
O6W 0.0420(6) 0.3964(4) 0.0745(6) 0.046(2) Uani d . 1.00 .
O7W 0.7982(10) 0.3444(5) 0.7238(7) 0.067(3) Uani d . 1.00 .
O8W 0.5228(10) 0.4360(6) 0.651(1) 0.093(5) Uani d . 1.00 .
O9W 0.3765(10) 0.3394(5) 0.6692(8) 0.067(3) Uani d . 1.00 .
O10W 0.7764(9) 0.0752(5) 0.1090(7) 0.061(3) Uani d . 1.00 .
O11W 0.008(1) 0.4515(7) 0.5821(9) 0.084(4) Uani d . 1.00 .
O12W 0.827(1) 0.5000 0.5000 0.059(4) Uani d . 0.50 S
O13W 1.0000 0.2452(6) 0.2500 0.051(3) Uani d . 0.50 S
O14W 0.0000 0.396(1) 0.7500 0.111(8) Uani d . 0.50 S
O15W 0.959(1) 0.0000 0.5000 0.112(9) Uani d . 0.50 S
N1 0.3058(7) 0.0524(4) 0.6809(5) 0.027(2) Uani d . 1.00 .
N2 0.2627(6) 0.1581(4) 0.5526(5) 0.025(2) Uani d . 1.00 .
C1 0.2461(8) 0.0449(5) 0.8315(6) 0.029(2) Uani d . 1.00 .
C2 0.2644(9) 0.0660(6) 0.9228(7) 0.035(3) Uani d . 1.00 .
C3 0.2337(10) -0.0207(5) 0.8319(8) 0.039(3) Uani d . 1.00 .
C4 0.3334(8) 0.0642(5) 0.7726(6) 0.029(2) Uani d . 1.00 .
C5 0.3474(8) 0.1316(5) 0.7737(7) 0.030(2) Uani d . 1.00 .
C6 0.1347(8) 0.2346(5) 0.5526(7) 0.032(2) Uani d . 1.00 .
C7 0.0878(9) 0.2122(6) 0.4703(7) 0.038(3) Uani d . 1.00 .
C8 0.111(1) 0.3004(6) 0.566(1) 0.048(3) Uani d . 1.00 .
C9 0.2471(8) 0.2238(6) 0.5557(8) 0.032(2) Uani d . 1.00 .
C10 0.3033(7) 0.2556(5) 0.4840(7) 0.031(2) Uani d . 1.00 .
H1 0.2870 0.0122 0.6740 0.0320 Uiso calc . 1.00 .
H2 0.3595 0.0609 0.6439 0.0320 Uiso calc . 1.00 .
H3 0.3307 0.1504 0.5598 0.0297 Uiso calc . 1.00 .
H4 0.2420 0.1441 0.4977 0.0297 Uiso calc . 1.00 .
H5 0.3225 0.0480 0.9444 0.0425 Uiso calc . 1.00 .
H6 0.2719 0.1078 0.9230 0.0425 Uiso calc . 1.00 .
H7 0.2104 0.0553 0.9583 0.0425 Uiso calc . 1.00 .
H8 0.1797 -0.0310 0.8676 0.0464 Uiso calc . 1.00 .
H9 0.2219 -0.0342 0.7747 0.0464 Uiso calc . 1.00 .
H10 0.2916 -0.0387 0.8536 0.0464 Uiso calc . 1.00 .
H11 0.3921 0.0441 0.7879 0.0347 Uiso calc . 1.00 .
H12 0.0187 0.2167 0.4740 0.0453 Uiso calc . 1.00 .
H13 0.1119 0.2343 0.4226 0.0453 Uiso calc . 1.00 .
H14 0.1034 0.1715 0.4628 0.0453 Uiso calc . 1.00 .
H15 0.1412 0.3137 0.6183 0.0573 Uiso calc . 1.00 .
H16 0.1359 0.3228 0.5192 0.0573 Uiso calc . 1.00 .
H17 0.0423 0.3056 0.5703 0.0573 Uiso calc . 1.00 .
H18 0.2708 0.2379 0.6096 0.0378 Uiso calc . 1.00 .

loop_
_atom_site_aniso_label
_atom_site_aniso_U_11
_atom_site_aniso_U_22
_atom_site_aniso_U_33
_atom_site_aniso_U_12
_atom_site_aniso_U_13
_atom_site_aniso_U_23
Re1 0.0232(2) 0.0248(2) 0.0219(2) -0.0012(2) -0.0015(2) 0.0009(2)
Ag1 0.0351(5) 0.0604(7) 0.0576(6) 0.0101(5) -0.0106(4) -0.0300(5)
S1 0.028(1) 0.028(1) 0.025(1) -0.001(1) 0.002(1) 0.0024(10)
S2 0.023(1) 0.032(1) 0.031(1) 0.0040(10) 0.001(1) 0.006(1)
O1 0.044(5) 0.036(4) 0.042(4) -0.002(4) -0.010(4) -0.009(4)
O2 0.026(4) 0.033(4) 0.027(3) -0.006(3) -0.006(3) 0.007(3)
O3 0.039(4) 0.035(4) 0.045(5) -0.008(4) -0.022(4) 0.011(4)
O4 0.047(5) 0.042(5) 0.049(5) -0.012(4) 0.001(4) 0.009(4)
O5 0.062(6) 0.070(7) 0.029(4) -0.022(6) 0.013(5) 0.004(4)
O6W 0.033(4) 0.051(5) 0.053(5) -0.012(4) -0.010(4) 0.013(5)
O7W 0.092(9) 0.053(6) 0.055(6) 0.009(6) -0.009(6) -0.010(5)
O8W 0.067(8) 0.081(9) 0.13(1) 0.004(7) -0.006(10) 0.02(1)
O9W 0.090(8) 0.038(5) 0.073(8) 0.003(6) -0.014(7) -0.001(5)
O10W 0.077(7) 0.051(6) 0.055(6) 0.013(6) -0.003(6) -0.006(5)
O11W 0.087(9) 0.099(10) 0.065(8) 0.009(9) 0.004(8) -0.006(7)
O12W 0.043(8) 0.08(1) 0.051(8) 0.0000 0.0000 -0.022(8)
O13W 0.055(8) 0.035(7) 0.062(9) 0.0000 -0.021(7) 0.0000
O14W 0.13(2) 0.13(2) 0.07(1) 0.0000 0.03(1) 0.0000
O15W 0.06(1) 0.18(3) 0.09(2) 0.0000 0.0000 0.02(2)
N1 0.035(5) 0.023(4) 0.022(4) 0.003(4) 0.002(4) 0.004(3)
N2 0.024(4) 0.034(5) 0.016(3) 0.001(4) 0.002(3) 0.003(3)
C1 0.031(5) 0.036(6) 0.020(5) 0.004(4) 0.005(4) 0.007(4)
C2 0.037(6) 0.042(7) 0.027(5) 0.003(5) -0.004(5) -0.002(5)
C3 0.045(7) 0.033(6) 0.037(6) -0.001(5) -0.003(5) -0.003(5)
C4 0.027(5) 0.039(6) 0.021(4) 0.008(4) -0.003(4) 0.007(4)
C5 0.022(4) 0.034(5) 0.034(6) 0.005(4) 0.000(4) -0.001(4)
C6 0.030(5) 0.039(6) 0.027(5) -0.001(5) -0.001(5) 0.012(5)
C7 0.032(5) 0.053(7) 0.028(5) -0.009(5) -0.004(5) 0.009(5)
C8 0.041(7) 0.033(6) 0.070(9) 0.008(5) 0.003(7) 0.011(6)
C9 0.025(5) 0.037(6) 0.032(5) -0.011(4) 0.001(4) 0.010(5)
C10 0.019(5) 0.041(6) 0.033(5) -0.007(4) -0.011(4) 0.012(5)
#------------------------------------------------------------------------------
_refine_special_details          
;
?
;
_refine_ls_structure_factor_coef Fsqd
_refine_ls_matrix_type           full
_refine_ls_weighting_scheme      
'calc w = 1/[\s^2^(Fo^2^) + (0.1000P)^2^+0.0000P] where P=(Fo^2^+2Fc^2^)/3'
_refine_ls_hydrogen_treatment    noref
_refine_ls_extinction_method     SHELXL
_refine_ls_extinction_coef       0.0000
_refine_ls_extinction_expression Fc^*^=kFc[1+0.001xFc^2^\l^3^/sin(2\q)]^-1/4^
_refine_ls_abs_structure_details ?
_refine_ls_abs_structure_Flack   -0.01(1)
_refine_ls_number_reflns         0
_refine_ls_number_parameters     264
_refine_ls_number_restraints     0
_refine_ls_R_factor_all          0.0499
_refine_ls_R_factor_obs          0.0339
_refine_ls_wR_factor_all         0.1066
_refine_ls_wR_factor_obs         ?
_refine_ls_goodness_of_fit_all   0.817
_refine_ls_restrained_S_all      0.817
_refine_ls_goodness_of_fit_obs   ?
_refine_ls_shift/esd_max         -0.0080
_refine_ls_shift/esd_mean        0.0010
_refine_diff_density_min         -1.27
_refine_diff_density_max         1.19
_refine_diff_density_rms         0.20
#------------------------------------------------------------------------------
_geom_special_details            
;
?
;
loop_
_geom_bond_atom_site_label_1
_geom_bond_atom_site_label_2
_geom_bond_distance
_geom_bond_site_symmetry_1
_geom_bond_site_symmetry_2
_geom_bond_publ_flag
RE1 S1 2.338(3) 1_555 1_555 yes
RE1 S2 2.310(3) 1_555 1_555 yes
RE1 O1 1.661(9) 1_555 1_555 yes
RE1 O2 2.156(8) 1_555 1_555 yes
RE1 N1 2.171(9) 1_555 1_555 yes
RE1 N2 2.158(8) 1_555 1_555 yes
AG1 S1 2.477(3) 1_555 1_555 yes
AG1 S2 2.506(3) 1_555 4_556 yes
AG1 O4 2.351(10) 1_555 7_555 yes
S1 C1 1.86(1) 1_555 1_555 yes
S2 C6 1.87(1) 1_555 1_555 yes
O2 C5 1.28(1) 1_555 1_555 yes
O3 C5 1.23(1) 1_555 1_555 yes
O4 C10 1.24(1) 1_555 1_555 yes
O5 C10 1.24(1) 1_555 1_555 yes
N1 C4 1.49(1) 1_555 1_555 yes
N2 C9 1.50(2) 1_555 1_555 yes
C1 C2 1.51(2) 1_555 1_555 yes
C1 C3 1.49(2) 1_555 1_555 yes
C1 C4 1.56(1) 1_555 1_555 yes
C4 C5 1.53(2) 1_555 1_555 yes
C6 C7 1.51(2) 1_555 1_555 yes
C6 C8 1.54(2) 1_555 1_555 yes
C6 C9 1.55(2) 1_555 1_555 yes
C9 C10 1.53(2) 1_555 1_555 yes
#------------------------------------------------------------------------------
loop_
_geom_angle_atom_site_label_1
_geom_angle_atom_site_label_2
_geom_angle_atom_site_label_3
_geom_angle
_geom_angle_site_symmetry_1
_geom_angle_site_symmetry_2
_geom_angle_site_symmetry_3
_geom_angle_publ_flag
S1 RE1 S2 94.53(10) 1_555 1_555 1_555 yes
S1 RE1 O1 103.5(3) 1_555 1_555 1_555 yes
S1 RE1 O2 84.4(2) 1_555 1_555 1_555 yes
S1 RE1 N1 81.9(2) 1_555 1_555 1_555 yes
S1 RE1 N2 159.1(2) 1_555 1_555 1_555 yes
S2 RE1 O1 108.0(3) 1_555 1_555 1_555 yes
S2 RE1 O2 88.5(2) 1_555 1_555 1_555 yes
S2 RE1 N1 159.1(2) 1_555 1_555 1_555 yes
S2 RE1 N2 82.2(2) 1_555 1_555 1_555 yes
O1 RE1 O2 160.8(4) 1_555 1_555 1_555 yes
O1 RE1 N1 92.8(4) 1_555 1_555 1_555 yes
O1 RE1 N2 97.2(4) 1_555 1_555 1_555 yes
O2 RE1 N1 70.7(3) 1_555 1_555 1_555 yes
O2 RE1 N2 74.8(3) 1_555 1_555 1_555 yes
N1 RE1 N2 93.8(3) 1_555 1_555 1_555 yes
S1 AG1 S2 109.29(9) 1_555 1_555 4_556 yes
S1 AG1 O4 120.0(2) 1_555 1_555 7_555 yes
S2 AG1 O4 118.5(2) 4_556 1_555 7_555 yes
RE1 S1 AG1 105.8(1) 1_555 1_555 1_555 yes
RE1 S1 C1 101.8(3) 1_555 1_555 1_555 yes
AG1 S1 C1 111.8(4) 1_555 1_555 1_555 yes
RE1 S2 AG1 113.4(1) 1_555 1_555 4_556 yes
RE1 S2 C6 102.2(4) 1_555 1_555 1_555 yes
AG1 S2 C6 110.7(4) 4_556 1_555 1_555 yes
RE1 O2 C5 117.7(7) 1_555 1_555 1_555 yes
AG1 O4 C10 98.2(7) 7_554 1_555 1_555 yes
RE1 N1 C4 107.0(6) 1_555 1_555 1_555 yes
RE1 N1 H1 110.1(7) 1_555 1_555 1_555 no
RE1 N1 H2 110.1(6) 1_555 1_555 1_555 no
C4 N1 H1 110.1(8) 1_555 1_555 1_555 no
C4 N1 H2 110.1(9) 1_555 1_555 1_555 no
H1 N1 H2 109.5(9) 1_555 1_555 1_555 no
RE1 N2 C9 113.7(6) 1_555 1_555 1_555 yes
RE1 N2 H3 108.4(6) 1_555 1_555 1_555 no
RE1 N2 H4 108.4(6) 1_555 1_555 1_555 no
C9 N2 H3 108.4(8) 1_555 1_555 1_555 no
C9 N2 H4 108.4(8) 1_555 1_555 1_555 no
H3 N2 H4 109.5(8) 1_555 1_555 1_555 no
S1 C1 C2 109.6(8) 1_555 1_555 1_555 yes
S1 C1 C3 109.7(8) 1_555 1_555 1_555 yes
S1 C1 C4 107.7(7) 1_555 1_555 1_555 yes
C2 C1 C3 109.1(9) 1_555 1_555 1_555 yes
C2 C1 C4 109.4(9) 1_555 1_555 1_555 yes
C3 C1 C4 111.4(9) 1_555 1_555 1_555 yes
C1 C2 H5 109(1) 1_555 1_555 1_555 no
C1 C2 H6 109(1) 1_555 1_555 1_555 no
C1 C2 H7 109(1) 1_555 1_555 1_555 no
H5 C2 H6 109(1) 1_555 1_555 1_555 no
H5 C2 H7 109(1) 1_555 1_555 1_555 no
H6 C2 H7 109(1) 1_555 1_555 1_555 no
C1 C3 H8 109(1) 1_555 1_555 1_555 no
C1 C3 H9 109(1) 1_555 1_555 1_555 no
C1 C3 H10 109(1) 1_555 1_555 1_555 no
H8 C3 H9 109(1) 1_555 1_555 1_555 no
H8 C3 H10 109(1) 1_555 1_555 1_555 no
H9 C3 H10 109(1) 1_555 1_555 1_555 no
N1 C4 C1 108.3(8) 1_555 1_555 1_555 yes
N1 C4 C5 102.6(8) 1_555 1_555 1_555 yes
N1 C4 H11 111.4(9) 1_555 1_555 1_555 no
C1 C4 C5 111.3(9) 1_555 1_555 1_555 yes
C1 C4 H11 111.4(9) 1_555 1_555 1_555 no
C5 C4 H11 111.4(10) 1_555 1_555 1_555 no
O2 C5 O3 123(1) 1_555 1_555 1_555 yes
O2 C5 C4 114.4(9) 1_555 1_555 1_555 yes
O3 C5 C4 121.7(10) 1_555 1_555 1_555 yes
S2 C6 C7 111.3(8) 1_555 1_555 1_555 yes
S2 C6 C8 106.7(9) 1_555 1_555 1_555 yes
S2 C6 C9 104.0(8) 1_555 1_555 1_555 yes
C7 C6 C8 110(1) 1_555 1_555 1_555 yes
C7 C6 C9 113.0(10) 1_555 1_555 1_555 yes
C8 C6 C9 110.7(10) 1_555 1_555 1_555 yes
C6 C7 H12 109(1) 1_555 1_555 1_555 no
C6 C7 H13 109(1) 1_555 1_555 1_555 no
C6 C7 H14 109(1) 1_555 1_555 1_555 no
H12 C7 H13 109(1) 1_555 1_555 1_555 no
H12 C7 H14 109(1) 1_555 1_555 1_555 no
H13 C7 H14 109(1) 1_555 1_555 1_555 no
C6 C8 H15 109(1) 1_555 1_555 1_555 no
C6 C8 H16 109(1) 1_555 1_555 1_555 no
C6 C8 H17 109(1) 1_555 1_555 1_555 no
H15 C8 H16 109(1) 1_555 1_555 1_555 no
H15 C8 H17 109(1) 1_555 1_555 1_555 no
H16 C8 H17 109(1) 1_555 1_555 1_555 no
N2 C9 C6 107.2(9) 1_555 1_555 1_555 yes
N2 C9 C10 111.7(9) 1_555 1_555 1_555 yes
N2 C9 H18 108(1) 1_555 1_555 1_555 no
C6 C9 C10 113.4(9) 1_555 1_555 1_555 yes
C6 C9 H18 108(1) 1_555 1_555 1_555 no
C10 C9 H18 108(1) 1_555 1_555 1_555 no
O4 C10 O5 124(1) 1_555 1_555 1_555 yes
O4 C10 C9 116(1) 1_555 1_555 1_555 yes
O5 C10 C9 118(1) 1_555 1_555 1_555 yes
#------------------------------------------------------------------------------
loop_
_geom_contact_atom_site_label_1
_geom_contact_atom_site_label_2
_geom_contact_distance
_geom_contact_site_symmetry_1
_geom_contact_site_symmetry_2
_geom_contact_publ_flag
AG1 S2 2.506(3) 1_555 4_556 ?
O1 O15W 3.03(2) 1_555 1_455 ?
O1 O12W 3.27(2) 1_555 5_445 ?
O1 O10W 3.29(1) 1_555 4_655 ?
O1 O10W 3.33(1) 1_555 3_655 ?
O1 O8W 3.33(2) 1_555 5_445 ?
O2 O6W 3.42(1) 1_555 7_555 ?
O2 O13W 3.57(1) 1_555 6_456 ?
O3 O6W 2.71(1) 1_555 6_556 ?
O3 O13W 2.82(1) 1_555 6_456 ?
O3 O3 3.42(2) 1_555 4_656 ?
O4 O9W 2.78(2) 1_555 1_555 ?
O4 C2 3.39(2) 1_555 7_554 ?
O4 C7 3.54(2) 1_555 6_556 ?
O5 O7W 2.72(1) 1_555 6_456 ?
O6W O11W 2.81(2) 1_555 4_555 ?
O6W N1 2.89(1) 1_555 7_554 ?
O6W N2 2.95(1) 1_555 7_554 ?
O6W O12W 3.16(1) 1_555 3_664 ?
O6W C5 3.49(1) 1_555 7_554 ?
O6W O11W 3.50(2) 1_555 3_564 ?
O7W O10W 2.74(2) 1_555 7_655 ?
O7W O9W 2.90(2) 1_555 4_656 ?
O7W O14W 3.02(2) 1_555 1_655 ?
O7W C3 3.59(2) 1_555 5_555 ?
O8W O10W 2.82(2) 1_555 7_655 ?
O8W O15W 2.88(2) 1_555 5_455 ?
O8W O9W 2.97(2) 1_555 1_555 ?
O8W O8W 3.14(4) 1_555 4_656 ?
O9W O13W 2.84(1) 1_555 6_456 ?
O9W C3 3.50(2) 1_555 8_556 ?
O9W C10 3.58(2) 1_555 1_555 ?
O10W O12W 2.78(1) 1_555 7_654 ?
O10W N2 3.17(1) 1_555 4_655 ?
O10W N1 3.29(1) 1_555 3_654 ?
O11W O14W 2.89(2) 1_555 1_555 ?
O11W O12W 2.99(2) 1_555 1_455 ?
O11W O11W 3.35(3) 1_555 2_566 ?
O12W N1 3.055(9) 1_555 5_555 ?
O12W N1 3.055(9) 1_555 6_556 ?
O13W C5 3.49(2) 1_555 6_556 ?
O13W C5 3.49(2) 1_555 7_654 ?
AG1 O5 2.64(1) 1_555 7_555 ?
AG1 O2 3.580(7) 1_555 1_555 ?
