
#######################################################################
#
#                 Cambridge Crystallographic Data Centre
#                                CCDC
#
#######################################################################
#
# If this CIF has been generated from an entry in the Cambridge
# Structural Database, then it will include bibliographic, chemical,
# crystal, experimental, refinement or atomic coordinate data resulting
# from the CCDC's data processing and validation procedures.
#
#######################################################################

data_CSD_CIF_WURTOS
_audit_creation_date 2003-05-15
_audit_creation_method CSD-ConQuest-V1
_database_code_CSD WURTOS
_database_code_depnum_ccdc_archive 'CCDC 195181'
_chemical_formula_sum 'C6 H4 I1 N1 O2'
_chemical_formula_moiety
;
C6 H4 I1 N1 O2
;
_journal_coeditor_code "IUCr DN1017"
_journal_coden_Cambridge 591
_journal_volume 59
_journal_year 2003
_journal_page_first o65
_journal_name_full 'Acta Crystallogr.,Sect.C:Cryst.Struct.Commun. '
loop_
_publ_author_name
"K.Merz"
_chemical_name_systematic
;
3-Iodo-1-nitrobenzene
;
_chemical_name_common
;
Teaching Subset: Fundamental Chemistry, Symmetry
;
_cell_volume    362.095
_exptl_crystal_colour 'colorless'
_exptl_crystal_density_diffrn 2.284
_exptl_crystal_description 'needle'
_exptl_crystal_preparation 'acetone/heptane'
_diffrn_ambient_temperature 213
#These two values have been output from a single CSD field.
_refine_ls_R_factor_gt 0.046
_refine_ls_wR_factor_gt 0.046
_symmetry_cell_setting monoclinic
_symmetry_space_group_name_H-M 'P 21'
_symmetry_Int_Tables_number 4
loop_
_symmetry_equiv_pos_site_id
_symmetry_equiv_pos_as_xyz
1 x,y,z
2 -x,1/2+y,-z
_cell_length_a 5.977(3)
_cell_length_b 5.224(3)
_cell_length_c 11.972(6)
_cell_angle_alpha 90
_cell_angle_beta 104.383(10)
_cell_angle_gamma 90
_cell_formula_units_Z 2
loop_
_atom_type_symbol
_atom_type_radius_bond
C 0.68
H 0.23
I 1.40
N 0.68
O 0.68
loop_
_atom_site_label
_atom_site_type_symbol
_atom_site_fract_x
_atom_site_fract_y
_atom_site_fract_z
I1 I 0.25586(6) 0.50925(17) 0.05533(3)
C1 C 0.5878(8) 0.011(3) 0.3332(4)
C2 C 0.7230(12) 0.4138(14) 0.2194(6)
H1 H 0.76810 0.55310 0.18040
O1 O 0.3066(9) -0.2671(11) 0.3634(5)
N1 N 0.5096(10) -0.2027(11) 0.3933(5)
C3 C 0.4248(10) 0.1243(13) 0.2443(6)
H2 H 0.27110 0.06650 0.22370
O2 O 0.6537(10) -0.3080(11) 0.4727(5)
C4 C 0.4958(11) 0.3234(14) 0.1879(6)
C5 C 0.8808(11) 0.2949(15) 0.3091(7)
H3 H 1.03440 0.35320 0.33010
C6 C 0.8153(11) 0.0909(14) 0.3685(7)
H4 H 0.92080 0.01100 0.43000
#END
