####################################################################### 
# 
# This file contains crystal structure data downloaded from the 
# Cambridge Structural Database (CSD) hosted by the Cambridge 
# Crystallographic Data Centre (CCDC).
# 
# Full information about CCDC data access policies and citation 
# guidelines are available at http://www.ccdc.cam.ac.uk/access/V1 
# 
# Audit and citation data items may have been added by the CCDC. 
# Please retain this information to preserve the provenance of 
# this file and to allow appropriate attribution of the data. 
# 
#######################################################################

data_A_TEXRAY.INF_file_is_not_p
_audit_block_doi                 10.5517/cc6fmt1
_database_code_depnum_ccdc_archive 'CCDC 191853'
loop_
_citation_id
_citation_doi
_citation_year
1 10.1002/anie.200390130 2003
_audit_update_record             
;
2002-08-16 deposited with the CCDC.	2024-07-13 downloaded from the CCDC.
;
#------------------------------------------------------------------------------
# CHEMICAL DATA 
_chemical_formula_sum            'C24 H22 Cu N2 O10 '
_chemical_formula_moiety         ?
_chemical_formula_weight         561.99
_chemical_melting_point          ?
#------------------------------------------------------------------------------
# CRYSTAL DATA 
_symmetry_cell_setting           monoclinic
_symmetry_space_group_name_H-M   'P 1 2/c 1'
_symmetry_Int_Tables_number      13
loop_
_symmetry_equiv_pos_as_xyz
x,y,z
-x,y,1/2-z
-x,-y,-z
x,-y,1/2+z
_cell_length_a                   8.167(4)
_cell_length_b                   11.094(8)
_cell_length_c                   15.863(2)
_cell_angle_alpha                90
_cell_angle_beta                 99.703(4)
_cell_angle_gamma                90
_cell_volume                     1416(1)
_cell_formula_units_Z            2
_cell_measurement_reflns_used    10
_cell_measurement_theta_min      ?
_cell_measurement_theta_max      45.0
_cell_measurement_temperature    293.2
#------------------------------------------------------------------------------
_exptl_crystal_description       plate
_exptl_crystal_colour            green
_exptl_crystal_size_max          0.500
_exptl_crystal_size_mid          0.200
_exptl_crystal_size_min          0.020
_exptl_crystal_size_rad          ?
_exptl_crystal_density_diffrn    1.317
_exptl_crystal_density_meas      ?
_exptl_crystal_density_method    'not measured'
_exptl_absorpt_coefficient_mu    0.823
_exptl_absorpt_correction_type   multi-scan
_exptl_absorpt_process_details   '(Jacobson, 1998)'
_exptl_absorpt_correction_T_min  0.984
_exptl_absorpt_correction_T_max  0.984
#------------------------------------------------------------------------------
# EXPERIMENTAL DATA 
_diffrn_radiation_type           'Mo K\a'
_diffrn_radiation_wavelength     0.7107
_diffrn_measurement_device_type  'Rigaku/MSC Mercury CCD'
_diffrn_measurement_method       \w
_diffrn_detector_area_resol_mean ?
_diffrn_reflns_number            8955
_diffrn_reflns_av_R_equivalents  0.040
_diffrn_reflns_theta_max         27.10
_diffrn_measured_fraction_theta_max 0.5010
_diffrn_reflns_theta_full        27.10
_diffrn_measured_fraction_theta_full 0.5010
_diffrn_reflns_limit_h_min       -8
_diffrn_reflns_limit_h_max       10
_diffrn_reflns_limit_k_min       -14
_diffrn_reflns_limit_k_max       10
_diffrn_reflns_limit_l_min       -19
_diffrn_reflns_limit_l_max       19
#------------------------------------------------------------------------------
# REFINEMENT DATA 
_refine_special_details          
;
Refinement using reflections with F^2^ > 3.0 sigma(F^2^). The weighted R-factor
(wR), goodness of fit (S) and R-factor (gt) are based on F, with F set to zero 
for negative F. The threshold expression of F^2^ > 3.0 sigma(F^2^) is used only 
for calculating R-factor (gt).
;
_reflns_number_total             1014
_reflns_number_gt                2198
_reflns_threshold_expression     F^2^>3.0\s(F^2^)
_refine_ls_structure_factor_coef F
_refine_ls_R_factor_gt           0.0682
_refine_ls_wR_factor_ref         0.0878
_refine_ls_hydrogen_treatment    noref
_refine_ls_number_reflns         2198
_refine_ls_number_parameters     165
_refine_ls_goodness_of_fit_ref   2.529
_refine_ls_weighting_scheme      calc
_refine_ls_weighting_details     'w = 1/[\s^2^(Fo) + 0.00063|Fo|^2^]'
_refine_ls_shift/su_max          0.0000
_refine_diff_density_max         0.79
_refine_diff_density_min         -0.55
_refine_ls_extinction_method     none
_refine_ls_extinction_coef       ?
_refine_ls_abs_structure_details ?
_refine_ls_abs_structure_Flack   ?
loop_
_atom_type_symbol
_atom_type_description
_atom_type_scat_dispersion_real
_atom_type_scat_dispersion_imag
_atom_type_scat_source
Cu Cu 0.320 1.265
;International Tables for Crystallography
(1992, Vol. C, Tables 4.2.6.8 and 6.1.1.1)
;
C C 0.003 0.002
;International Tables for Crystallography
(1992, Vol. C, Tables 4.2.6.8 and 6.1.1.1)
;
H H 0.000 0.000
;International Tables for Crystallography
(1992, Vol. C, Table 6.1.1.2)
;
O O 0.011 0.006
;International Tables for Crystallography
(1992, Vol. C, Tables 4.2.6.8 and 6.1.1.1)
;
N N 0.006 0.003
;International Tables for Crystallography
(1992, Vol. C, Tables 4.2.6.8 and 6.1.1.1)
;
#------------------------------------------------------------------------------
# ATOMIC COORDINATES AND DISPLACEMENT PARAMETERS 
loop_
_atom_site_label
_atom_site_type_symbol
_atom_site_fract_x
_atom_site_fract_y
_atom_site_fract_z
_atom_site_U_iso_or_equiv
_atom_site_adp_type
_atom_site_occupancy
_atom_site_calc_flag
_atom_site_refinement_flags
_atom_site_disorder_assembly
_atom_site_disorder_group
Cu(1) Cu 1.0000 0.09793(7) 0.2500 0.0369(2) Uani 1.00 d S . .
O(1) O 0.7794(4) 0.0961(3) 0.1792(2) 0.0403(9) Uani 1.00 d . . .
O(2) O 0.8536(5) 0.1494(4) 0.0554(3) 0.062(1) Uani 1.00 d . . .
O(3) O 0.6372(5) 0.1975(4) -0.0752(3) 0.062(1) Uani 1.00 d . . .
O(4) O 0.1583(4) 0.0980(4) 0.1219(3) 0.052(1) Uani 1.00 d . . .
O(5) O 0.461(3) 0.566(2) 0.153(2) 0.36(1) Uiso 1.00 d . . .
N(1) N 1.0000 -0.0822(4) 0.2500 0.030(1) Uani 1.00 d S . .
N(2) N 1.0000 0.2777(4) 0.2500 0.040(2) Uani 1.00 d S . .
C(1) C 0.8815(6) -0.1443(4) 0.2803(3) 0.037(1) Uani 1.00 d . . .
C(2) C 0.8777(6) -0.2695(4) 0.2819(4) 0.038(1) Uani 1.00 d . . .
C(3) C 1.0000 -0.3349(5) 0.2500 0.034(2) Uani 1.00 d S . .
C(4) C 0.8606(6) 0.3414(4) 0.2535(4) 0.050(2) Uani 1.00 d . . .
C(5) C 0.8566(6) 0.4657(4) 0.2531(4) 0.046(2) Uani 1.00 d . . .
C(6) C 1.0000 0.5316(6) 0.2500 0.036(2) Uani 1.00 d S . .
C(7) C 0.7450(6) 0.1267(4) 0.1013(4) 0.038(1) Uani 1.00 d . . .
C(8) C 0.5676(5) 0.1381(4) 0.0622(3) 0.030(1) Uani 1.00 d . . .
C(9) C 0.5227(6) 0.1719(5) -0.0239(3) 0.038(1) Uani 1.00 d . . .
C(10) C 0.3572(7) 0.1810(6) -0.0597(3) 0.047(2) Uani 1.00 d . . .
C(11) C 0.2349(6) 0.1572(5) -0.0123(3) 0.042(1) Uani 1.00 d . . .
C(12) C 0.2771(5) 0.1234(4) 0.0734(3) 0.033(1) Uani 1.00 d . . .
C(13) C 0.4417(5) 0.1150(4) 0.1096(3) 0.030(1) Uani 1.00 d . . .
H(1) H 0.7967 -0.1010 0.3014 0.0444 Uiso 1.00 calc . . .
H(2) H 0.7926 -0.3103 0.3046 0.0459 Uiso 1.00 calc . . .
H(3) H 0.7607 0.2987 0.2563 0.0595 Uiso 1.00 calc . . .
H(4) H 0.7550 0.5065 0.2549 0.0555 Uiso 1.00 calc . . .
H(5) H 0.7371 0.1681 -0.0443 0.0360 Uiso 1.00 calc . . .
H(6) H 0.3273 0.2041 -0.1180 0.0569 Uiso 1.00 calc . . .
H(7) H 0.1213 0.1637 -0.0379 0.0501 Uiso 1.00 calc . . .
H(8) H 0.0710 0.1167 0.0973 0.0360 Uiso 1.00 calc . . .
H(9) H 0.4705 0.0930 0.1681 0.0363 Uiso 1.00 calc . . .

loop_
_atom_site_aniso_label
_atom_site_aniso_U_11
_atom_site_aniso_U_22
_atom_site_aniso_U_33
_atom_site_aniso_U_12
_atom_site_aniso_U_13
_atom_site_aniso_U_23
Cu(1) 0.0257(4) 0.0176(4) 0.0593(6) 0.0009 -0.0157(3) 0.0130
O(1) 0.025(2) 0.029(2) 0.059(2) 0.000(1) -0.014(1) 0.006(2)
O(2) 0.023(2) 0.082(3) 0.080(3) 0.000(2) 0.010(2) 0.014(2)
O(3) 0.046(2) 0.088(3) 0.056(3) 0.004(2) 0.023(2) 0.020(2)
O(4) 0.028(2) 0.071(3) 0.059(2) 0.007(2) 0.014(2) 0.018(2)
N(1) 0.027(3) 0.022(3) 0.037(3) 0.0009 -0.006(2) 0.0130
N(2) 0.026(3) 0.015(2) 0.072(4) 0.0009 -0.007(3) 0.0130
C(1) 0.039(3) 0.023(2) 0.049(3) 0.002(2) 0.008(2) -0.004(2)
C(2) 0.041(3) 0.024(2) 0.053(3) -0.004(2) 0.015(2) -0.002(2)
C(3) 0.036(4) 0.013(3) 0.048(4) 0.0009 -0.004(3) 0.0130
C(4) 0.029(3) 0.025(2) 0.092(5) -0.001(2) 0.002(3) 0.001(3)
C(5) 0.035(3) 0.026(2) 0.077(4) 0.001(2) 0.008(2) 0.000(2)
C(6) 0.033(4) 0.029(3) 0.044(4) 0.0009 0.003(3) 0.0130
C(7) 0.022(2) 0.032(2) 0.055(3) 0.002(2) -0.003(2) 0.001(2)
C(8) 0.020(2) 0.033(2) 0.037(3) 0.000(2) 0.001(2) 0.000(2)
C(9) 0.032(3) 0.046(3) 0.038(3) -0.001(2) 0.015(2) 0.003(2)
C(10) 0.043(3) 0.068(4) 0.029(3) 0.005(2) -0.001(2) 0.009(2)
C(11) 0.024(2) 0.059(3) 0.039(3) 0.004(2) -0.007(2) 0.006(2)
C(12) 0.023(2) 0.037(3) 0.040(3) 0.002(2) 0.006(2) 0.004(2)
C(13) 0.026(2) 0.037(2) 0.026(2) 0.004(2) 0.000(2) 0.000(2)
#------------------------------------------------------------------------------
_computing_data_collection       .
_computing_cell_refinement       .
_computing_data_reduction        'teXsan Ver. 1.11'
_computing_structure_solution    SIR92
_computing_structure_refinement  'teXsan Ver. 1.10'
_computing_publication_material  'teXsan Ver. 1.11'
_computing_molecular_graphics    ?
#------------------------------------------------------------------------------
_geom_special_details            
;
?
;
loop_
_geom_bond_atom_site_label_1
_geom_bond_atom_site_label_2
_geom_bond_distance
_geom_bond_site_symmetry_1
_geom_bond_site_symmetry_2
_geom_bond_publ_flag
Cu(1) O(1) 1.956(3) . . yes
Cu(1) O(1) 1.956(3) . 2_755 yes
Cu(1) O(4) 2.585(4) . 1_655 yes
Cu(1) O(4) 2.585(4) . 2_655 yes
Cu(1) N(1) 1.998(5) . . yes
Cu(1) N(2) 1.994(5) . . yes
O(1) O(2) 2.231(6) . . yes
O(1) C(7) 1.267(7) . . yes
O(1) C(8) 2.360(5) . . yes
O(2) O(3) 2.543(6) . . yes
O(2) O(4) 2.597(6) . 1_655 yes
O(2) C(7) 1.264(7) . . yes
O(2) C(8) 2.360(6) . . yes
O(3) C(8) 2.435(6) . . yes
O(3) C(9) 1.370(6) . . yes
O(3) C(10) 2.349(7) . . yes
O(4) C(11) 2.410(7) . . yes
O(4) C(12) 1.366(6) . . yes
O(4) C(13) 2.363(6) . . yes
N(1) C(1) 1.341(6) . . yes
N(1) C(1) 1.341(6) . 2_755 yes
N(1) C(2) 2.397(6) . . yes
N(1) C(2) 2.397(6) . 2_755 yes
N(2) C(4) 1.349(6) . . yes
N(2) C(4) 1.349(6) . 2_755 yes
N(2) C(5) 2.397(7) . . yes
N(2) C(5) 2.397(7) . 2_755 yes
C(1) C(1) 2.30(1) . 2_755 yes
C(1) C(2) 1.390(6) . . yes
C(1) C(3) 2.407(7) . . yes
C(2) C(2) 2.39(1) . 2_755 yes
C(2) C(3) 1.396(6) . . yes
C(2) C(6) 2.508(7) . 1_545 yes
C(3) C(5) 2.508(7) . 1_545 yes
C(3) C(5) 2.508(7) . 2_745 yes
C(3) C(6) 1.481(8) . 1_545 yes
C(4) C(4) 2.30(1) . 2_755 yes
C(4) C(5) 1.380(7) . . yes
C(4) C(6) 2.403(7) . . yes
C(5) C(5) 2.36(1) . 2_755 yes
C(5) C(6) 1.389(6) . . yes
C(7) C(8) 1.482(6) . . yes
C(7) C(9) 2.505(7) . . yes
C(7) C(13) 2.506(7) . . yes
C(8) C(9) 1.404(7) . . yes
C(8) C(10) 2.409(6) . . yes
C(8) C(12) 2.415(6) . . yes
C(8) C(13) 1.396(7) . . yes
C(9) C(10) 1.379(7) . . yes
C(9) C(11) 2.394(7) . . yes
C(9) C(13) 2.407(7) . . yes
C(10) C(11) 1.373(8) . . yes
C(10) C(12) 2.401(7) . . yes
C(11) C(12) 1.397(7) . . yes
C(11) C(13) 2.390(6) . . yes
C(12) C(13) 1.373(6) . . yes
#------------------------------------------------------------------------------
loop_
_geom_angle_atom_site_label_1
_geom_angle_atom_site_label_2
_geom_angle_atom_site_label_3
_geom_angle
_geom_angle_site_symmetry_1
_geom_angle_site_symmetry_2
_geom_angle_site_symmetry_3
_geom_angle_publ_flag
O(1) Cu(1) O(1) 178.8(2) . . 2_755 yes
O(1) Cu(1) O(4) 94.8(1) . . 1_655 yes
O(1) Cu(1) O(4) 85.2(1) . . 2_655 yes
O(1) Cu(1) N(1) 89.40(9) . . . yes
O(1) Cu(1) N(2) 90.60(9) . . . yes
O(1) Cu(1) O(4) 85.2(1) 2_755 . 1_655 yes
O(1) Cu(1) O(4) 94.8(1) 2_755 . 2_655 yes
O(1) Cu(1) N(1) 89.40(9) 2_755 . . yes
O(1) Cu(1) N(2) 90.60(9) 2_755 . . yes
O(4) Cu(1) O(4) 180.0(2) 1_655 . 2_655 yes
O(4) Cu(1) N(1) 90.02(10) 1_655 . . yes
O(4) Cu(1) N(2) 89.98(10) 1_655 . . yes
O(4) Cu(1) N(1) 90.02(10) 2_655 . . yes
O(4) Cu(1) N(2) 89.98(10) 2_655 . . yes
N(1) Cu(1) N(2) 180.0 . . . yes
Cu(1) O(1) O(2) 98.2(2) . . . yes
Cu(1) O(1) C(7) 126.1(3) . . . yes
Cu(1) O(1) C(8) 158.7(2) . . . yes
O(2) O(1) C(7) 28.2(3) . . . yes
O(2) O(1) C(8) 61.8(2) . . . yes
C(7) O(1) C(8) 33.6(3) . . . yes
O(1) O(2) O(3) 121.2(2) . . . yes
O(1) O(2) O(4) 88.2(2) . . 1_655 yes
O(1) O(2) C(7) 28.2(3) . . . yes
O(1) O(2) C(8) 61.8(2) . . . yes
O(3) O(2) O(4) 149.8(2) . . 1_655 yes
O(3) O(2) C(7) 93.0(3) . . . yes
O(3) O(2) C(8) 59.4(2) . . . yes
O(4) O(2) C(7) 116.0(4) 1_655 . . yes
O(4) O(2) C(8) 149.0(3) 1_655 . . yes
C(7) O(2) C(8) 33.6(3) . . . yes
O(2) O(3) C(8) 56.6(2) . . . yes
O(2) O(3) C(9) 85.6(3) . . . yes
O(2) O(3) C(10) 117.0(2) . . . yes
C(8) O(3) C(9) 29.0(3) . . . yes
C(8) O(3) C(10) 60.4(2) . . . yes
C(9) O(3) C(10) 31.4(3) . . . yes
Cu(1) O(4) O(2) 75.4(1) 1_455 . 1_455 yes
Cu(1) O(4) C(11) 158.9(2) 1_455 . . yes
Cu(1) O(4) C(12) 160.0(3) 1_455 . . yes
Cu(1) O(4) C(13) 133.7(2) 1_455 . . yes
O(2) O(4) C(11) 87.4(2) 1_455 . . yes
O(2) O(4) C(12) 116.6(3) 1_455 . . yes
O(2) O(4) C(13) 146.5(2) 1_455 . . yes
C(11) O(4) C(12) 29.6(2) . . . yes
C(11) O(4) C(13) 60.1(2) . . . yes
C(12) O(4) C(13) 30.5(2) . . . yes
Cu(1) N(1) C(1) 120.9(3) . . . yes
Cu(1) N(1) C(1) 120.9(3) . . 2_755 yes
Cu(1) N(1) C(2) 150.1(1) . . . yes
Cu(1) N(1) C(2) 150.1(1) . . 2_755 yes
C(1) N(1) C(1) 118.1(5) . . 2_755 yes
C(1) N(1) C(2) 29.2(3) . . . yes
C(1) N(1) C(2) 88.9(3) . . 2_755 yes
C(1) N(1) C(2) 88.9(3) 2_755 . . yes
C(1) N(1) C(2) 29.2(3) 2_755 . 2_755 yes
C(2) N(1) C(2) 59.7(3) . . 2_755 yes
Cu(1) N(2) C(4) 121.6(3) . . . yes
Cu(1) N(2) C(4) 121.6(3) . . 2_755 yes
Cu(1) N(2) C(5) 150.5(1) . . . yes
Cu(1) N(2) C(5) 150.5(1) . . 2_755 yes
C(4) N(2) C(4) 116.8(6) . . 2_755 yes
C(4) N(2) C(5) 28.9(3) . . . yes
C(4) N(2) C(5) 87.9(3) . . 2_755 yes
C(4) N(2) C(5) 87.9(3) 2_755 . . yes
C(4) N(2) C(5) 28.9(3) 2_755 . 2_755 yes
C(5) N(2) C(5) 59.0(3) . . 2_755 yes
N(1) C(1) C(1) 30.9(3) . . 2_755 yes
N(1) C(1) C(2) 122.7(5) . . . yes
N(1) C(1) C(3) 92.4(3) . . . yes
C(1) C(1) C(2) 91.8(3) 2_755 . . yes
C(1) C(1) C(3) 61.4(1) 2_755 . . yes
C(2) C(1) C(3) 30.3(3) . . . yes
N(1) C(2) C(1) 28.1(3) . . . yes
N(1) C(2) C(2) 60.1(1) . . 2_755 yes
N(1) C(2) C(3) 91.4(3) . . . yes
N(1) C(2) C(6) 121.7(2) . . 1_545 yes
C(1) C(2) C(2) 88.2(3) . . 2_755 yes
C(1) C(2) C(3) 119.5(5) . . . yes
C(1) C(2) C(6) 149.8(4) . . 1_545 yes
C(2) C(2) C(3) 31.3(3) 2_755 . . yes
C(2) C(2) C(6) 61.6(1) 2_755 . 1_545 yes
C(3) C(2) C(6) 30.3(2) . . 1_545 yes
C(1) C(3) C(1) 57.1(3) . . 2_755 yes
C(1) C(3) C(2) 30.2(3) . . . yes
C(1) C(3) C(2) 87.3(3) . . 2_755 yes
C(1) C(3) C(5) 124.5(2) . . 1_545 yes
C(1) C(3) C(5) 169.6(2) . . 2_745 yes
C(1) C(3) C(6) 151.4(1) . . 1_545 yes
C(1) C(3) C(2) 87.3(3) 2_755 . . yes
C(1) C(3) C(2) 30.2(3) 2_755 . 2_755 yes
C(1) C(3) C(5) 169.6(2) 2_755 . 1_545 yes
C(1) C(3) C(5) 124.5(2) 2_755 . 2_745 yes
C(1) C(3) C(6) 151.4(1) 2_755 . 1_545 yes
C(2) C(3) C(2) 117.4(5) . . 2_755 yes
C(2) C(3) C(5) 94.9(3) . . 1_545 yes
C(2) C(3) C(5) 146.1(3) . . 2_745 yes
C(2) C(3) C(6) 121.3(3) . . 1_545 yes
C(2) C(3) C(5) 146.1(3) 2_755 . 1_545 yes
C(2) C(3) C(5) 94.9(3) 2_755 . 2_745 yes
C(2) C(3) C(6) 121.3(3) 2_755 . 1_545 yes
C(5) C(3) C(5) 56.2(3) 1_545 . 2_745 yes
C(5) C(3) C(6) 28.1(1) 1_545 . 1_545 yes
C(5) C(3) C(6) 28.1(1) 2_745 . 1_545 yes
N(2) C(4) C(4) 31.6(3) . . 2_755 yes
N(2) C(4) C(5) 122.9(5) . . . yes
N(2) C(4) C(6) 93.0(3) . . . yes
C(4) C(4) C(5) 91.3(3) 2_755 . . yes
C(4) C(4) C(6) 61.4(1) 2_755 . . yes
C(5) C(4) C(6) 29.9(3) . . . yes
N(2) C(5) C(3) 122.4(2) . . 1_565 yes
N(2) C(5) C(4) 28.2(3) . . . yes
N(2) C(5) C(5) 60.5(1) . . 2_755 yes
N(2) C(5) C(6) 92.3(3) . . . yes
C(3) C(5) C(4) 150.6(4) 1_565 . . yes
C(3) C(5) C(5) 61.9(1) 1_565 . 2_755 yes
C(3) C(5) C(6) 30.1(3) 1_565 . . yes
C(4) C(5) C(5) 88.7(3) . . 2_755 yes
C(4) C(5) C(6) 120.5(5) . . . yes
C(5) C(5) C(6) 31.8(3) 2_755 . . yes
C(2) C(6) C(2) 56.8(3) 1_565 . 2_765 yes
C(2) C(6) C(3) 28.4(1) 1_565 . 1_565 yes
C(2) C(6) C(4) 124.2(2) 1_565 . . yes
C(2) C(6) C(4) 169.5(2) 1_565 . 2_755 yes
C(2) C(6) C(5) 95.1(3) 1_565 . . yes
C(2) C(6) C(5) 146.8(4) 1_565 . 2_755 yes
C(2) C(6) C(3) 28.4(1) 2_765 . 1_565 yes
C(2) C(6) C(4) 169.5(2) 2_765 . . yes
C(2) C(6) C(4) 124.2(2) 2_765 . 2_755 yes
C(2) C(6) C(5) 146.8(4) 2_765 . . yes
C(2) C(6) C(5) 95.1(3) 2_765 . 2_755 yes
C(3) C(6) C(4) 151.4(1) 1_565 . . yes
C(3) C(6) C(4) 151.4(1) 1_565 . 2_755 yes
C(3) C(6) C(5) 121.8(3) 1_565 . . yes
C(3) C(6) C(5) 121.8(3) 1_565 . 2_755 yes
C(4) C(6) C(4) 57.1(3) . . 2_755 yes
C(4) C(6) C(5) 29.6(3) . . . yes
C(4) C(6) C(5) 86.8(4) . . 2_755 yes
C(4) C(6) C(5) 86.8(4) 2_755 . . yes
C(4) C(6) C(5) 29.6(3) 2_755 . 2_755 yes
C(5) C(6) C(5) 116.4(6) . . 2_755 yes
O(1) C(7) O(2) 123.6(4) . . . yes
O(1) C(7) C(8) 118.1(5) . . . yes
O(1) C(7) C(9) 147.0(4) . . . yes
O(1) C(7) C(13) 89.6(3) . . . yes
O(2) C(7) C(8) 118.2(5) . . . yes
O(2) C(7) C(9) 89.3(4) . . . yes
O(2) C(7) C(13) 146.8(4) . . . yes
C(8) C(7) C(9) 28.9(2) . . . yes
C(8) C(7) C(13) 28.5(2) . . . yes
C(9) C(7) C(13) 57.4(2) . . . yes
O(1) C(8) O(2) 56.4(2) . . . yes
O(1) C(8) O(3) 120.4(2) . . . yes
O(1) C(8) C(7) 28.3(3) . . . yes
O(1) C(8) C(9) 148.7(3) . . . yes
O(1) C(8) C(10) 178.4(3) . . . yes
O(1) C(8) C(12) 121.9(2) . . . yes
O(1) C(8) C(13) 92.8(3) . . . yes
O(2) C(8) O(3) 64.0(2) . . . yes
O(2) C(8) C(7) 28.2(3) . . . yes
O(2) C(8) C(9) 92.3(3) . . . yes
O(2) C(8) C(10) 122.0(3) . . . yes
O(2) C(8) C(12) 178.2(3) . . . yes
O(2) C(8) C(13) 149.2(3) . . . yes
O(3) C(8) C(7) 92.2(3) . . . yes
O(3) C(8) C(9) 28.2(2) . . . yes
O(3) C(8) C(10) 58.0(2) . . . yes
O(3) C(8) C(12) 117.7(2) . . . yes
O(3) C(8) C(13) 146.8(3) . . . yes
C(7) C(8) C(9) 120.4(4) . . . yes
C(7) C(8) C(10) 150.2(4) . . . yes
C(7) C(8) C(12) 150.1(4) . . . yes
C(7) C(8) C(13) 121.0(4) . . . yes
C(9) C(8) C(10) 29.8(3) . . . yes
C(9) C(8) C(12) 89.5(3) . . . yes
C(9) C(8) C(13) 118.5(4) . . . yes
C(10) C(8) C(12) 59.7(2) . . . yes
C(10) C(8) C(13) 88.8(3) . . . yes
C(12) C(8) C(13) 29.1(2) . . . yes
O(3) C(9) C(7) 92.1(3) . . . yes
O(3) C(9) C(8) 122.8(4) . . . yes
O(3) C(9) C(10) 117.4(5) . . . yes
O(3) C(9) C(11) 146.9(4) . . . yes
O(3) C(9) C(13) 153.4(4) . . . yes
C(7) C(9) C(8) 30.7(2) . . . yes
C(7) C(9) C(10) 150.5(4) . . . yes
C(7) C(9) C(11) 121.0(3) . . . yes
C(7) C(9) C(13) 61.3(2) . . . yes
C(8) C(9) C(10) 119.9(5) . . . yes
C(8) C(9) C(11) 90.4(3) . . . yes
C(8) C(9) C(13) 30.6(2) . . . yes
C(10) C(9) C(11) 29.5(3) . . . yes
C(10) C(9) C(13) 89.2(3) . . . yes
C(11) C(9) C(13) 59.7(2) . . . yes
O(3) C(10) C(8) 61.6(2) . . . yes
O(3) C(10) C(9) 31.2(3) . . . yes
O(3) C(10) C(11) 152.0(4) . . . yes
O(3) C(10) C(12) 121.8(3) . . . yes
C(8) C(10) C(9) 30.4(3) . . . yes
C(8) C(10) C(11) 90.5(3) . . . yes
C(8) C(10) C(12) 60.3(2) . . . yes
C(9) C(10) C(11) 120.8(5) . . . yes
C(9) C(10) C(12) 90.6(3) . . . yes
C(11) C(10) C(12) 30.2(2) . . . yes
O(4) C(11) C(9) 119.4(2) . . . yes
O(4) C(11) C(10) 149.0(3) . . . yes
O(4) C(11) C(12) 28.9(2) . . . yes
O(4) C(11) C(13) 59.0(2) . . . yes
C(9) C(11) C(10) 29.6(3) . . . yes
C(9) C(11) C(12) 90.5(3) . . . yes
C(9) C(11) C(13) 60.4(2) . . . yes
C(10) C(11) C(12) 120.1(4) . . . yes
C(10) C(11) C(13) 90.1(3) . . . yes
C(12) C(11) C(13) 30.1(2) . . . yes
O(4) C(12) C(8) 148.8(3) . . . yes
O(4) C(12) C(10) 151.1(3) . . . yes
O(4) C(12) C(11) 121.5(4) . . . yes
O(4) C(12) C(13) 119.3(4) . . . yes
C(8) C(12) C(10) 60.0(2) . . . yes
C(8) C(12) C(11) 89.7(3) . . . yes
C(8) C(12) C(13) 29.6(3) . . . yes
C(10) C(12) C(11) 29.7(3) . . . yes
C(10) C(12) C(13) 89.6(3) . . . yes
C(11) C(12) C(13) 119.3(4) . . . yes
O(4) C(13) C(7) 177.7(3) . . . yes
O(4) C(13) C(8) 151.6(3) . . . yes
O(4) C(13) C(9) 120.8(2) . . . yes
O(4) C(13) C(11) 60.9(2) . . . yes
O(4) C(13) C(12) 30.3(3) . . . yes
C(7) C(13) C(8) 30.4(2) . . . yes
C(7) C(13) C(9) 61.3(2) . . . yes
C(7) C(13) C(11) 121.1(3) . . . yes
C(7) C(13) C(12) 151.8(4) . . . yes
C(8) C(13) C(9) 30.8(2) . . . yes
C(8) C(13) C(11) 90.7(3) . . . yes
C(8) C(13) C(12) 121.4(4) . . . yes
C(9) C(13) C(11) 59.9(2) . . . yes
C(9) C(13) C(12) 90.5(3) . . . yes
C(11) C(13) C(12) 30.6(3) . . . yes
#------------------------------------------------------------------------------
loop_
_geom_contact_atom_site_label_1
_geom_contact_atom_site_label_2
_geom_contact_distance
_geom_contact_site_symmetry_1
_geom_contact_site_symmetry_2
_geom_contact_publ_flag
Cu(1) O(4) 2.585(4) . 1_655 ?
Cu(1) O(4) 2.585(4) . 2_655 ?
O(2) O(3) 2.543(6) . . ?
O(2) O(4) 2.597(6) . 1_655 ?
C(2) C(6) 2.508(7) . 1_545 ?
C(3) C(5) 2.508(7) . 1_545 ?
C(3) C(5) 2.508(7) . 2_745 ?
C(7) C(9) 2.505(7) . . ?
C(7) C(13) 2.506(7) . . ?
O(2) C(11) 3.520(8) . 3_655 ?
O(3) O(5) 2.96(3) . 3_665 ?
O(3) C(1) 3.336(7) . 4_554 ?
O(3) C(2) 3.337(7) . 4_554 ?
O(3) C(13) 3.552(7) . 3_655 ?
O(4) N(2) 3.264(5) . 1_455 ?
O(4) N(1) 3.268(5) . 1_455 ?
O(4) C(7) 3.351(6) . 1_455 ?
O(5) O(5) 3.02(6) . 2_655 ?
O(5) C(5) 3.38(3) . 2_655 ?
O(5) C(5) 3.53(3) . . ?
O(5) C(9) 3.58(3) . 3_665 ?
C(3) C(5) 2.508(7) . 2_745 ?
C(7) C(11) 3.466(8) . 3_655 ?
C(7) C(10) 3.550(8) . 3_655 ?
C(8) C(9) 3.548(7) . 3_655 ?
C(8) C(10) 3.595(8) . 3_655 ?
C(9) C(13) 3.492(7) . 3_655 ?
#------------------------------------------------------------------------------
loop_
_geom_hbond_atom_site_label_D
_geom_hbond_atom_site_label_H
_geom_hbond_atom_site_label_A
_geom_hbond_site_symmetry_D
_geom_hbond_site_symmetry_H
_geom_hbond_site_symmetry_A
_geom_hbond_site_distance_dh
_geom_hbond_site_distance_ha
_geom_hbond_site_distance_da
_geom_hbond_angle_DHA
_geom_hbond_publ_flag
O(3) H(5) O(2) . . . 0.937 1.715 2.543(5) 145.435 no
O(4) H(8) N(2) . . 2_655 0.781 3.141 3.264 92.097 no
O(4) H(8) O(1) . . 1_455 0.781 2.908 3.369(5) 120.214 no
O(4) H(8) O(2) . . 1_455 0.781 1.824 2.597(5) 170.217 no
O(4) H(8) N(2) . . 1_455 0.781 3.141 3.264 92.097 no
#--------------------------------------------------------------------------

