
#######################################################################
#
#                 Cambridge Crystallographic Data Centre
#                                CCDC
#
#######################################################################
#
# If this CIF has been generated from an entry in the Cambridge
# Structural Database, then it will include bibliographic, chemical,
# crystal, experimental, refinement or atomic coordinate data resulting
# from the CCDC's data processing and validation procedures.
#
#######################################################################

data_CSD_CIF_XABROI
_audit_creation_date 2003-07-04
_audit_creation_method CSD-ConQuest-V1
_database_code_CSD XABROI
_database_code_depnum_ccdc_archive 'CCDC 164271'
_chemical_formula_sum 'C12 H22 Cl5 N2 O3 Tb1'
_chemical_formula_moiety
;
2(C6 H8 N1 1+),H6 Cl4 O3 Tb1 1-,Cl1 1-
;
_journal_coden_Cambridge 1183
_journal_volume 344
_journal_year 2002
_journal_page_first 161
_journal_name_full 'J.Alloys Compd. '
loop_
_publ_author_name
"J.Hallfeldt"
"W.Urland"
_chemical_name_systematic
;
bis(2-methylpyridinium) tetrachloro-triaqua-terbium chloride
;
_chemical_name_common
;
Teaching Subset: Fundamental Chemistry, Symmetry
;
_cell_volume   2165.956
_exptl_crystal_colour 'colorless'
_exptl_crystal_density_diffrn 1.774
_exptl_special_details
;
moisture-sensitive

;
_exptl_crystal_description 'plates'
_diffrn_ambient_temperature 300
#These two values have been output from a single CSD field.
_refine_ls_R_factor_gt 0.0208
_refine_ls_wR_factor_gt 0.0208
_symmetry_cell_setting monoclinic
_symmetry_space_group_name_H-M 'P 21/n'
_symmetry_Int_Tables_number 14
loop_
_symmetry_equiv_pos_site_id
_symmetry_equiv_pos_as_xyz
1 x,y,z
2 1/2-x,1/2+y,1/2-z
3 -x,-y,-z
4 -1/2+x,-1/2-y,-1/2+z
_cell_length_a 13.270(2)
_cell_length_b 8.8628(19)
_cell_length_c 19.113(3)
_cell_angle_alpha 90
_cell_angle_beta 105.515(19)
_cell_angle_gamma 90
_cell_formula_units_Z 4
loop_
_atom_type_symbol
_atom_type_radius_bond
C 0.68
H 0.23
Cl 0.99
N 0.68
O 0.68
Tb 1.76
loop_
_atom_site_label
_atom_site_type_symbol
_atom_site_fract_x
_atom_site_fract_y
_atom_site_fract_z
Tb1 Tb 0.03688(1) 0.878919(14) 0.253509(7)
Cl1 Cl -0.01894(10) 0.90271(13) 0.11224(5)
Cl2 Cl 0.08927(6) 0.58368(8) 0.24023(4)
Cl3 Cl 0.11057(7) 1.16343(9) 0.27063(5)
Cl4 Cl 0.06233(10) 0.84970(14) 0.39354(5)
O1 O 0.21848(19) 0.8696(3) 0.26529(16)
O2 O -0.1099(2) 1.0402(3) 0.24924(17)
O3 O -0.1156(2) 0.7306(3) 0.24625(17)
H1 H 0.252(3) 0.946(3) 0.2655(19)
H2 H 0.257(3) 0.789(3) 0.257(2)
H3 H -0.170(3) 0.998(4) 0.241(2)
H4 H -0.103(3) 1.143(3) 0.251(2)
H5 H -0.174(3) 0.775(5) 0.242(3)
H6 H -0.115(4) 0.630(3) 0.251(3)
Cl5 Cl -0.17065(7) 0.38759(9) 0.26527(5)
N1 N 0.1297(3) 0.4360(4) 0.40278(16)
H7 H 0.12460 0.45690 0.35800
C1 C 0.2089(3) 0.4935(4) 0.4528(2)
C2 C 0.2848(4) 0.5880(6) 0.4290(3)
H8 H 0.31560 0.53050 0.39750
H9 H 0.33860 0.62060 0.47060
H10 H 0.24980 0.67450 0.40340
C3 C 0.2162(4) 0.4584(5) 0.5244(2)
H11 H 0.27110 0.49490 0.56160
C4 C 0.1416(4) 0.3694(6) 0.5389(2)
H12 H 0.14490 0.34680 0.58700
C5 C 0.0579(4) 0.3482(6) 0.4176(3)
H13 H 0.00370 0.31130 0.37990
C6 C 0.0619(4) 0.3119(7) 0.4855(3)
H14 H 0.01190 0.24920 0.49620
N2 N -0.1260(3) 0.4126(4) 0.10534(18)
H15 H -0.12430 0.42740 0.15010
C7 C -0.0555(4) 0.2963(6) 0.0226(3)
H16 H -0.00610 0.23200 0.01220
C8 C -0.2014(4) 0.4815(5) 0.0546(2)
C9 C -0.2779(4) 0.5788(6) 0.0783(2)
H17 H -0.30490 0.52500 0.11300
H18 H -0.33430 0.60470 0.03700
H19 H -0.24360 0.66910 0.10020
C10 C -0.2031(4) 0.4552(5) -0.0161(2)
H20 H -0.25420 0.49960 -0.05340
C11 C -0.1283(4) 0.3620(5) -0.0322(2)
H21 H -0.12830 0.34490 -0.08020
C12 C -0.0540(4) 0.3231(5) 0.0911(3)
H22 H -0.00300 0.27950 0.12880
#END
