####################################################################### 
# 
# This file contains crystal structure data downloaded from the 
# Cambridge Structural Database (CSD) hosted by the Cambridge 
# Crystallographic Data Centre (CCDC).
# 
# Full information about CCDC data access policies and citation 
# guidelines are available at http://www.ccdc.cam.ac.uk/access/V1 
# 
# Audit and citation data items may have been added by the CCDC. 
# Please retain this information to preserve the provenance of 
# this file and to allow appropriate attribution of the data. 
# 
#######################################################################

data_sqz_a7557
_audit_block_doi                 10.5517/ccrqmcf
_database_code_depnum_ccdc_archive 'CCDC 706935'
loop_
_citation_id
_citation_doi
_citation_year
1 10.1021/ic900786b 2009
_audit_update_record             
;
2008-10-28 deposited with the CCDC.	2024-07-13 downloaded from the CCDC.
;

_audit_creation_method           SHELXL-97
_chemical_name_systematic        
;
?
;
_chemical_name_common            ?
_chemical_melting_point          ?
_chemical_formula_moiety         'C40 H38 Cu N4 O7'
_chemical_formula_sum            'C40 H38 Cu N4 O7'
_chemical_formula_weight         750.28

loop_
_atom_type_symbol
_atom_type_description
_atom_type_scat_dispersion_real
_atom_type_scat_dispersion_imag
_atom_type_scat_source
Cu Cu 0.3201 1.2651 'International Tables Vol C Tables 4.2.6.8 and 6.1.1.4'
C C 0.0033 0.0016 'International Tables Vol C Tables 4.2.6.8 and 6.1.1.4'
H H 0.0000 0.0000 'International Tables Vol C Tables 4.2.6.8 and 6.1.1.4'
O O 0.0106 0.0060 'International Tables Vol C Tables 4.2.6.8 and 6.1.1.4'
N N 0.0061 0.0033 'International Tables Vol C Tables 4.2.6.8 and 6.1.1.4'

_symmetry_cell_setting           monoclinic
_symmetry_space_group_name_H-M   'C 2/m'

loop_
_symmetry_equiv_pos_as_xyz
'x, y, z'
'-x, y, -z'
'x+1/2, y+1/2, z'
'-x+1/2, y+1/2, -z'
'-x, -y, -z'
'x, -y, z'
'-x+1/2, -y+1/2, -z'
'x+1/2, -y+1/2, z'

_cell_length_a                   17.2138(11)
_cell_length_b                   35.418(3)
_cell_length_c                   11.9728(10)
_cell_angle_alpha                90.00
_cell_angle_beta                 124.662(4)
_cell_angle_gamma                90.00
_cell_volume                     6004.0(8)
_cell_formula_units_Z            4
_cell_measurement_temperature    293(2)
_cell_measurement_reflns_used    ?
_cell_measurement_theta_min      ?
_cell_measurement_theta_max      ?

_exptl_crystal_description       prism
_exptl_crystal_colour            green
_exptl_crystal_size_max          0.26
_exptl_crystal_size_mid          0.11
_exptl_crystal_size_min          0.03
_exptl_crystal_density_meas      ?
_exptl_crystal_density_diffrn    0.830
_exptl_crystal_density_method    'not measured'
_exptl_crystal_F_000             1564
_exptl_absorpt_coefficient_mu    0.398
_exptl_absorpt_correction_type   multi-scan
_exptl_absorpt_correction_T_min  0.902
_exptl_absorpt_correction_T_max  0.988
_exptl_absorpt_process_details   SADABS

_exptl_special_details           
;
?
;

_diffrn_ambient_temperature      293(2)
_diffrn_radiation_wavelength     0.71073
_diffrn_radiation_type           MoK\a
_diffrn_radiation_source         'fine-focus sealed tube'
_diffrn_radiation_monochromator  graphite
_diffrn_measurement_device_type  ?
_diffrn_measurement_method       ?
_diffrn_detector_area_resol_mean ?
_diffrn_standards_number         ?
_diffrn_standards_interval_count ?
_diffrn_standards_interval_time  ?
_diffrn_standards_decay_%        ?
_diffrn_reflns_number            22147
_diffrn_reflns_av_R_equivalents  0.1027
_diffrn_reflns_av_sigmaI/netI    0.1382
_diffrn_reflns_limit_h_min       -20
_diffrn_reflns_limit_h_max       18
_diffrn_reflns_limit_k_min       -41
_diffrn_reflns_limit_k_max       42
_diffrn_reflns_limit_l_min       -13
_diffrn_reflns_limit_l_max       14
_diffrn_reflns_theta_min         1.15
_diffrn_reflns_theta_max         25.03
_reflns_number_total             5162
_reflns_number_gt                2603
_reflns_threshold_expression     >2sigma(I)

_computing_data_collection       ?
_computing_cell_refinement       ?
_computing_data_reduction        ?
_computing_structure_solution    ?
_computing_structure_refinement  'SHELXL-97 (Sheldrick, 1997)'
_computing_molecular_graphics    ?
_computing_publication_material  ?

_refine_special_details          
;
Refinement of F^2^ against ALL reflections. The weighted R-factor wR and
goodness of fit S are based on F^2^, conventional R-factors R are based
on F, with F set to zero for negative F^2^. The threshold expression of
F^2^ > 2sigma(F^2^) is used only for calculating R-factors(gt) etc. and is
not relevant to the choice of reflections for refinement. R-factors based
on F^2^ are statistically about twice as large as those based on F, and R-
factors based on ALL data will be even larger.
;

_refine_ls_structure_factor_coef Fsqd
_refine_ls_matrix_type           full
_refine_ls_weighting_scheme      calc
_refine_ls_weighting_details     
'calc w=1/[\s^2^(Fo^2^)+(0.0766P)^2^+0.0000P] where P=(Fo^2^+2Fc^2^)/3'
_atom_sites_solution_primary     direct
_atom_sites_solution_secondary   difmap
_atom_sites_solution_hydrogens   geom
_refine_ls_hydrogen_treatment    mixed
_refine_ls_extinction_method     SHELXL
_refine_ls_extinction_coef       0.00031(12)
_refine_ls_extinction_expression Fc^*^=kFc[1+0.001xFc^2^\l^3^/sin(2\q)]^-1/4^
_refine_ls_number_reflns         5162
_refine_ls_number_parameters     239
_refine_ls_number_restraints     0
_refine_ls_R_factor_all          0.1174
_refine_ls_R_factor_gt           0.0583
_refine_ls_wR_factor_ref         0.1541
_refine_ls_wR_factor_gt          0.1406
_refine_ls_goodness_of_fit_ref   0.870
_refine_ls_restrained_S_all      0.870
_refine_ls_shift/su_max          0.000
_refine_ls_shift/su_mean         0.000

loop_
_atom_site_label
_atom_site_type_symbol
_atom_site_fract_x
_atom_site_fract_y
_atom_site_fract_z
_atom_site_U_iso_or_equiv
_atom_site_adp_type
_atom_site_occupancy
_atom_site_symmetry_multiplicity
_atom_site_calc_flag
_atom_site_refinement_flags
_atom_site_disorder_assembly
_atom_site_disorder_group
Cu1 Cu 0.08616(5) 0.0000 0.61345(8) 0.0472(3) Uani 1 2 d S . .
N1 N -0.10370(19) -0.18638(7) 0.9194(3) 0.0406(8) Uani 1 1 d . . .
H1 H -0.0436 -0.1876 0.9586 0.049 Uiso 0.50 1 calc PR . .
N2 N -0.25273(19) -0.16795(7) 0.7833(3) 0.0463(9) Uani 1 1 d . . .
H2 H -0.3019 -0.1555 0.7227 0.056 Uiso 0.50 1 calc PR . .
O1 O 0.0338(2) -0.03886(7) 0.6670(3) 0.0690(9) Uani 1 1 d . . .
O2 O -0.1137(2) -0.03786(7) 0.4766(3) 0.0670(9) Uani 1 1 d . . .
C12 C -0.2979(2) -0.24377(8) 0.9563(4) 0.0388(10) Uani 1 1 d . . .
C11 C -0.1285(2) -0.23866(8) 1.0413(4) 0.0402(10) Uani 1 1 d . . .
C9 C -0.2495(3) -0.19696(9) 0.8602(4) 0.0422(10) Uani 1 1 d . . .
C10 C -0.1577(3) -0.20851(8) 0.9457(4) 0.0397(10) Uani 1 1 d . . .
C8 C -0.1636(3) -0.16281(9) 0.8210(4) 0.0474(10) Uani 1 1 d . . .
C13 C -0.3244(3) -0.21416(9) 0.8623(4) 0.0437(10) Uani 1 1 d . . .
C16 C -0.4640(3) -0.24866(10) 0.8725(5) 0.0550(12) Uani 1 1 d . . .
C5 C -0.1351(3) -0.13417(9) 0.7636(5) 0.0503(11) Uani 1 1 d . . .
O3 O 0.2229(3) 0.0000 0.7939(5) 0.127(2) Uani 1 2 d S . .
O4 O -0.4093(2) -0.11861(10) 0.6328(5) 0.1440(17) Uani 1 1 d . . .
C2 C -0.0816(3) -0.07937(10) 0.6513(5) 0.0603(12) Uani 1 1 d . . .
C1 C -0.0520(4) -0.04954(10) 0.5911(6) 0.0603(14) Uani 1 1 d . . .
C15 C -0.4884(3) -0.21921(11) 0.7852(5) 0.0636(13) Uani 1 1 d . . .
C6 C -0.2004(3) -0.11406(12) 0.6518(5) 0.0725(14) Uani 1 1 d . . .
H6 H -0.2642 -0.1185 0.6123 0.087 Uiso 1 1 calc R . .
C14 C -0.4173(3) -0.20230(10) 0.7799(5) 0.0621(13) Uani 1 1 d . . .
H14 H -0.4327 -0.1825 0.7195 0.075 Uiso 1 1 calc R . .
C7 C -0.1738(3) -0.08688(11) 0.5949(5) 0.0773(15) Uani 1 1 d . . .
H7 H -0.2200 -0.0738 0.5176 0.093 Uiso 1 1 calc R . .
C4 C -0.0433(3) -0.12622(12) 0.8168(6) 0.099(2) Uani 1 1 d . . .
H4 H 0.0028 -0.1402 0.8913 0.119 Uiso 1 1 calc R . .
C18 C -0.6595(3) -0.22755(18) 0.7028(7) 0.177(4) Uani 1 1 d . . .
H18A H -0.6414 -0.2274 0.7949 0.266 Uiso 1 1 calc R . .
H18B H -0.6604 -0.2531 0.6752 0.266 Uiso 1 1 calc R . .
H18C H -0.7212 -0.2167 0.6446 0.266 Uiso 1 1 calc R . .
C17 C -0.5896(3) -0.20491(16) 0.6934(8) 0.108(2) Uani 1 1 d . . .
C3 C -0.0146(3) -0.09867(14) 0.7670(6) 0.0979(19) Uani 1 1 d . . .
H3 H 0.0492 -0.0931 0.8107 0.118 Uiso 1 1 calc R . .
C19 C -0.6239(4) -0.2067(3) 0.5451(8) 0.206(5) Uani 1 1 d . . .
H19A H -0.5820 -0.1924 0.5326 0.309 Uiso 1 1 calc R . .
H19B H -0.6864 -0.1963 0.4894 0.309 Uiso 1 1 calc R . .
H19C H -0.6250 -0.2325 0.5198 0.309 Uiso 1 1 calc R . .
C20 C -0.5901(4) -0.1626(2) 0.7257(10) 0.209(5) Uani 1 1 d . . .
H20A H -0.5695 -0.1600 0.8186 0.314 Uiso 1 1 calc R . .
H20B H -0.6530 -0.1528 0.6670 0.314 Uiso 1 1 calc R . .
H20C H -0.5482 -0.1489 0.7117 0.314 Uiso 1 1 calc R . .
H1O3 H 0.2788 0.0000 0.8080 0.150 Uiso 1 2 d S . .
H2O3 H 0.2343 0.0000 0.8734 0.150 Uiso 1 2 d S . .
H16 H -0.5142 -0.2596 0.8849 0.100 Uiso 1 1 d . . .
H1O4 H -0.4108 -0.0952 0.6213 0.150 Uiso 1 1 d . . .
H2O4 H -0.4686 -0.1252 0.5936 0.150 Uiso 1 1 d . . .

loop_
_atom_site_aniso_label
_atom_site_aniso_U_11
_atom_site_aniso_U_22
_atom_site_aniso_U_33
_atom_site_aniso_U_23
_atom_site_aniso_U_13
_atom_site_aniso_U_12
Cu1 0.0751(6) 0.0280(3) 0.0752(6) 0.000 0.0646(6) 0.000
N1 0.0408(19) 0.0328(15) 0.068(3) 0.0096(16) 0.043(2) 0.0016(14)
N2 0.044(2) 0.0404(16) 0.067(3) 0.0198(16) 0.039(2) 0.0049(14)
O1 0.082(2) 0.0563(17) 0.102(3) 0.0178(17) 0.071(2) -0.0063(15)
O2 0.083(2) 0.0548(18) 0.085(3) 0.0210(18) 0.061(2) -0.0044(16)
C12 0.041(2) 0.0314(18) 0.060(3) 0.0096(19) 0.038(2) 0.0011(16)
C11 0.043(2) 0.0330(18) 0.060(3) 0.0105(19) 0.038(2) 0.0018(17)
C9 0.048(3) 0.0325(18) 0.062(3) 0.0100(19) 0.040(3) -0.0008(17)
C10 0.048(3) 0.0308(18) 0.063(3) 0.0048(19) 0.046(3) -0.0018(17)
C8 0.065(3) 0.0317(19) 0.069(3) 0.011(2) 0.053(3) 0.0038(19)
C13 0.040(3) 0.040(2) 0.062(3) 0.017(2) 0.035(2) 0.0049(18)
C16 0.047(3) 0.052(2) 0.082(4) 0.020(2) 0.046(3) 0.000(2)
C5 0.059(3) 0.041(2) 0.076(4) 0.019(2) 0.053(3) 0.0051(19)
O3 0.101(4) 0.189(6) 0.085(4) 0.000 0.049(4) 0.000
O4 0.109(3) 0.115(3) 0.207(5) 0.066(3) 0.090(3) 0.025(2)
C2 0.071(3) 0.043(2) 0.097(4) 0.021(2) 0.065(3) 0.006(2)
C1 0.096(4) 0.033(2) 0.098(5) 0.013(3) 0.083(4) 0.004(2)
C15 0.038(3) 0.068(3) 0.086(4) 0.032(3) 0.036(3) 0.006(2)
C6 0.066(3) 0.078(3) 0.090(4) 0.024(3) 0.054(3) -0.014(3)
C14 0.055(3) 0.058(2) 0.083(4) 0.033(2) 0.044(3) 0.005(2)
C7 0.072(3) 0.069(3) 0.104(4) 0.035(3) 0.057(3) 0.004(2)
C4 0.070(3) 0.097(4) 0.148(5) 0.080(4) 0.073(4) 0.022(3)
C18 0.054(4) 0.223(7) 0.232(8) 0.159(7) 0.067(5) 0.037(4)
C17 0.055(4) 0.117(4) 0.148(6) 0.084(4) 0.056(4) 0.018(3)
C3 0.075(4) 0.100(4) 0.141(5) 0.051(4) 0.075(4) -0.002(3)
C19 0.080(5) 0.349(13) 0.142(8) 0.130(9) 0.035(5) 0.012(6)
C20 0.090(5) 0.147(6) 0.350(14) 0.050(8) 0.102(7) 0.059(5)

_geom_special_details            
;
All esds (except the esd in the dihedral angle between two l.s. planes)
are estimated using the full covariance matrix. The cell esds are taken
into account individually in the estimation of esds in distances, angles
and torsion angles; correlations between esds in cell parameters are only
used when they are defined by crystal symmetry. An approximate (isotropic)
treatment of cell esds is used for estimating esds involving l.s. planes.
;

loop_
_geom_bond_atom_site_label_1
_geom_bond_atom_site_label_2
_geom_bond_distance
_geom_bond_site_symmetry_2
_geom_bond_publ_flag
Cu1 O2 1.941(3) 2_556 ?
Cu1 O2 1.941(3) 5_556 ?
Cu1 O1 1.942(2) . ?
Cu1 O1 1.942(2) 6 ?
Cu1 O3 2.103(5) . ?
Cu1 Cu1 2.6483(15) 5_556 ?
N1 C8 1.329(4) . ?
N1 C10 1.383(3) . ?
N2 C8 1.342(4) . ?
N2 C9 1.360(4) . ?
O1 C1 1.275(5) . ?
O2 C1 1.233(5) . ?
O2 Cu1 1.941(3) 5_556 ?
C12 C13 1.411(4) . ?
C12 C11 1.425(4) 7_447 ?
C12 C12 1.431(6) 7_447 ?
C11 C16 1.391(5) 7_447 ?
C11 C12 1.425(4) 7_447 ?
C11 C10 1.431(5) . ?
C9 C10 1.368(4) . ?
C9 C13 1.440(4) . ?
C8 C5 1.459(4) . ?
C13 C14 1.382(4) . ?
C16 C15 1.364(5) . ?
C16 C11 1.391(5) 7_447 ?
C5 C4 1.355(5) . ?
C5 C6 1.360(5) . ?
C2 C7 1.352(5) . ?
C2 C3 1.378(6) . ?
C2 C1 1.521(5) . ?
C15 C14 1.396(4) . ?
C15 C17 1.524(6) . ?
C6 C7 1.397(5) . ?
C4 C3 1.374(5) . ?
C18 C17 1.502(6) . ?
C17 C19 1.520(10) . ?
C17 C20 1.548(9) . ?

loop_
_geom_angle_atom_site_label_1
_geom_angle_atom_site_label_2
_geom_angle_atom_site_label_3
_geom_angle
_geom_angle_site_symmetry_1
_geom_angle_site_symmetry_3
_geom_angle_publ_flag
O2 Cu1 O2 87.41(17) 2_556 5_556 ?
O2 Cu1 O1 89.96(11) 2_556 . ?
O2 Cu1 O1 168.09(14) 5_556 . ?
O2 Cu1 O1 168.09(14) 2_556 6 ?
O2 Cu1 O1 89.96(11) 5_556 6 ?
O1 Cu1 O1 90.25(15) . 6 ?
O2 Cu1 O3 94.96(14) 2_556 . ?
O2 Cu1 O3 94.96(14) 5_556 . ?
O1 Cu1 O3 96.85(14) . . ?
O1 Cu1 O3 96.85(14) 6 . ?
O2 Cu1 Cu1 85.13(10) 2_556 5_556 ?
O2 Cu1 Cu1 85.13(10) 5_556 5_556 ?
O1 Cu1 Cu1 83.07(10) . 5_556 ?
O1 Cu1 Cu1 83.07(10) 6 5_556 ?
O3 Cu1 Cu1 179.88(14) . 5_556 ?
C8 N1 C10 105.9(3) . . ?
C8 N2 C9 106.0(3) . . ?
C1 O1 Cu1 122.8(3) . . ?
C1 O2 Cu1 121.4(3) . 5_556 ?
C13 C12 C11 116.9(3) . 7_447 ?
C13 C12 C12 121.8(3) . 7_447 ?
C11 C12 C12 121.2(4) 7_447 7_447 ?
C16 C11 C12 120.0(3) 7_447 7_447 ?
C16 C11 C10 124.5(3) 7_447 . ?
C12 C11 C10 115.5(3) 7_447 . ?
N2 C9 C10 108.5(3) . . ?
N2 C9 C13 129.8(3) . . ?
C10 C9 C13 121.7(3) . . ?
C9 C10 N1 107.4(3) . . ?
C9 C10 C11 123.5(3) . . ?
N1 C10 C11 129.0(3) . . ?
N1 C8 N2 112.1(3) . . ?
N1 C8 C5 123.7(3) . . ?
N2 C8 C5 124.2(4) . . ?
C14 C13 C12 120.9(3) . . ?
C14 C13 C9 122.9(3) . . ?
C12 C13 C9 116.3(3) . . ?
C15 C16 C11 122.6(3) . 7_447 ?
C4 C5 C6 116.3(3) . . ?
C4 C5 C8 122.5(4) . . ?
C6 C5 C8 121.1(4) . . ?
C7 C2 C3 118.5(4) . . ?
C7 C2 C1 121.0(4) . . ?
C3 C2 C1 120.5(4) . . ?
O2 C1 O1 127.5(4) . . ?
O2 C1 C2 116.8(5) . . ?
O1 C1 C2 115.7(5) . . ?
C16 C15 C14 117.9(3) . . ?
C16 C15 C17 122.2(3) . . ?
C14 C15 C17 119.8(4) . . ?
C5 C6 C7 121.6(4) . . ?
C13 C14 C15 121.7(3) . . ?
C2 C7 C6 120.6(4) . . ?
C5 C4 C3 123.7(4) . . ?
C18 C17 C19 105.6(6) . . ?
C18 C17 C15 113.9(4) . . ?
C19 C17 C15 110.7(5) . . ?
C18 C17 C20 112.2(6) . . ?
C19 C17 C20 106.2(5) . . ?
C15 C17 C20 107.9(5) . . ?
C4 C3 C2 119.2(4) . . ?

_diffrn_measured_fraction_theta_max 0.954
_diffrn_reflns_theta_full        25.03
_diffrn_measured_fraction_theta_full 0.954
_refine_diff_density_max         0.378
_refine_diff_density_min         -0.378
_refine_diff_density_rms         0.063


