####################################################################### 
# 
# This file contains crystal structure data downloaded from the 
# Cambridge Structural Database (CSD) hosted by the Cambridge 
# Crystallographic Data Centre (CCDC).
# 
# Full information about CCDC data access policies and citation 
# guidelines are available at http://www.ccdc.cam.ac.uk/access/V1 
# 
# Audit and citation data items may have been added by the CCDC. 
# Please retain this information to preserve the provenance of 
# this file and to allow appropriate attribution of the data. 
# 
#######################################################################

data_orthosa
_audit_block_doi                 10.5517/ccv4jt9
_database_code_depnum_ccdc_archive 'CCDC 778931'
loop_
_citation_id
_citation_doi
_citation_year
1 10.1002/ejic.201000486 2010
_audit_update_record             
;
2010-05-28 deposited with the CCDC.	2024-07-13 downloaded from the CCDC.
;

_audit_creation_method           SHELXL-97
_chemical_name_systematic        
;
?
;
_chemical_name_common            MIL-68(Fe)
_chemical_melting_point          ?
_chemical_formula_moiety         ?
_chemical_formula_sum            'C8 H5 Fe O5'
_chemical_formula_weight         236.97

loop_
_atom_type_symbol
_atom_type_description
_atom_type_scat_dispersion_real
_atom_type_scat_dispersion_imag
_atom_type_scat_source
C C 0.0033 0.0016 'International Tables Vol C Tables 4.2.6.8 and 6.1.1.4'
H H 0.0000 0.0000 'International Tables Vol C Tables 4.2.6.8 and 6.1.1.4'
O O 0.0106 0.0060 'International Tables Vol C Tables 4.2.6.8 and 6.1.1.4'
Fe Fe 0.3463 0.8444 'International Tables Vol C Tables 4.2.6.8 and 6.1.1.4'

_symmetry_cell_setting           Orthorhombic
_symmetry_space_group_name_H-M   Cmcm

loop_
_symmetry_equiv_pos_as_xyz
'x, y, z'
'-x, -y, z+1/2'
'-x, y, -z+1/2'
'x, -y, -z'
'x+1/2, y+1/2, z'
'-x+1/2, -y+1/2, z+1/2'
'-x+1/2, y+1/2, -z+1/2'
'x+1/2, -y+1/2, -z'
'-x, -y, -z'
'x, y, -z-1/2'
'x, -y, z-1/2'
'-x, y, z'
'-x+1/2, -y+1/2, -z'
'x+1/2, y+1/2, -z-1/2'
'x+1/2, -y+1/2, z-1/2'
'-x+1/2, y+1/2, z'

_cell_length_a                   21.3011(12)
_cell_length_b                   36.873(2)
_cell_length_c                   6.8883(3)
_cell_angle_alpha                90.00
_cell_angle_beta                 90.00
_cell_angle_gamma                90.00
_cell_volume                     5410.3(5)
_cell_formula_units_Z            12
_cell_measurement_temperature    293(2)
_cell_measurement_reflns_used    2092
_cell_measurement_theta_min      2.21
_cell_measurement_theta_max      19.86

_exptl_crystal_description       needle
_exptl_crystal_colour            yellow
_exptl_crystal_size_max          0.34
_exptl_crystal_size_mid          0.02
_exptl_crystal_size_min          0.02
_exptl_crystal_density_meas      ?
_exptl_crystal_density_diffrn    0.873
_exptl_crystal_density_method    'not measured'
_exptl_crystal_F_000             1428
_exptl_absorpt_coefficient_mu    0.831
_exptl_absorpt_correction_type   multi-scan
_exptl_absorpt_correction_T_min  0.7653
_exptl_absorpt_correction_T_max  0.9836
_exptl_absorpt_process_details   'SADABS (Sheldrick, V2.10)'

_exptl_special_details           
;
'Blessing, Acta Cryst. (1995) A51, 33-38'
;

_diffrn_ambient_temperature      293(2)
_diffrn_radiation_wavelength     0.71073
_diffrn_radiation_type           MoK\a
_diffrn_radiation_source         'fine-focus sealed tube'
_diffrn_radiation_monochromator  graphite
_diffrn_measurement_device_type  'Bruker APEX-II CCD'
_diffrn_measurement_method       '\f and \w scans'
_diffrn_detector_area_resol_mean 512x512
_diffrn_standards_number         ?
_diffrn_standards_interval_count ?
_diffrn_standards_interval_time  ?
_diffrn_standards_decay_%        ?
_diffrn_reflns_number            34594
_diffrn_reflns_av_R_equivalents  0.1290
_diffrn_reflns_av_sigmaI/netI    0.0678
_diffrn_reflns_limit_h_min       -25
_diffrn_reflns_limit_h_max       25
_diffrn_reflns_limit_k_min       -43
_diffrn_reflns_limit_k_max       43
_diffrn_reflns_limit_l_min       -7
_diffrn_reflns_limit_l_max       8
_diffrn_reflns_theta_min         1.10
_diffrn_reflns_theta_max         25.02
_reflns_number_total             2694
_reflns_number_gt                1653
_reflns_threshold_expression     >2sigma(I)

_computing_data_collection       'Bruker APEX2'
_computing_cell_refinement       'Bruker SAINT'
_computing_data_reduction        'Bruker SAINT'
_computing_structure_solution    'SHELXS-97 (Sheldrick, 1990)'
_computing_structure_refinement  'SHELXL-97 (Sheldrick, 1997)'
_computing_molecular_graphics    'Bruker SHELXTL'
_computing_publication_material  'Bruker SHELXTL'

_refine_special_details          
;
Refinement of F^2^ against ALL reflections. The weighted R-factor wR and
goodness of fit S are based on F^2^, conventional R-factors R are based
on F, with F set to zero for negative F^2^. The threshold expression of
F^2^ > 2sigma(F^2^) is used only for calculating R-factors(gt) etc. and is
not relevant to the choice of reflections for refinement. R-factors based
on F^2^ are statistically about twice as large as those based on F, and R-
factors based on ALL data will be even larger.
;

_refine_ls_structure_factor_coef Fsqd
_refine_ls_matrix_type           full
_refine_ls_weighting_scheme      calc
_refine_ls_weighting_details     
'calc w=1/[\s^2^(Fo^2^)+(0.1733P)^2^+0.0000P] where P=(Fo^2^+2Fc^2^)/3'
_atom_sites_solution_primary     direct
_atom_sites_solution_secondary   difmap
_atom_sites_solution_hydrogens   geom
_refine_ls_hydrogen_treatment    constr
_refine_ls_extinction_method     none
_refine_ls_extinction_coef       ?
_refine_ls_number_reflns         2694
_refine_ls_number_parameters     111
_refine_ls_number_restraints     0
_refine_ls_R_factor_all          0.1400
_refine_ls_R_factor_gt           0.0858
_refine_ls_wR_factor_ref         0.2805
_refine_ls_wR_factor_gt          0.2513
_refine_ls_goodness_of_fit_ref   1.084
_refine_ls_restrained_S_all      1.084
_refine_ls_shift/su_max          0.000
_refine_ls_shift/su_mean         0.000

loop_
_atom_site_label
_atom_site_type_symbol
_atom_site_fract_x
_atom_site_fract_y
_atom_site_fract_z
_atom_site_U_iso_or_equiv
_atom_site_adp_type
_atom_site_occupancy
_atom_site_symmetry_multiplicity
_atom_site_calc_flag
_atom_site_refinement_flags
_atom_site_disorder_assembly
_atom_site_disorder_group
Fe1 Fe 0.0000 0.0000 0.5000 0.0180(5) Uani 1 4 d S . .
Fe2 Fe 0.2500 0.2500 0.5000 0.0178(4) Uani 1 2 d S . .
O1 O 0.3380(2) 0.23803(16) 0.5878(7) 0.0396(13) Uani 1 1 d . . .
O2 O 0.0634(3) 0.03713(13) 0.5869(7) 0.0458(15) Uani 1 1 d . . .
O3 O 0.2229(3) 0.20022(14) 0.5867(7) 0.0413(14) Uani 1 1 d . . .
O4 O 0.0000 0.0199(4) 0.2500 0.098(6) Uani 1 4 d S . .
O5 O 0.2712(4) 0.2273(2) 0.2500 0.053(2) Uani 1 2 d S . .
C1 C 0.3638(5) 0.2370(3) 0.7500 0.026(2) Uani 1 2 d S . .
C2 C 0.4351(4) 0.2339(3) 0.7500 0.025(2) Uani 1 2 d S . .
C3 C 0.4680(3) 0.2337(3) 0.5780(12) 0.059(3) Uani 1 1 d . . .
H3 H 0.4464 0.2336 0.4607 0.071 Uiso 1 1 calc R . .
C4 C 0.0791(5) 0.0494(3) 0.7500 0.030(2) Uani 1 2 d S . .
C5 C 0.1177(5) 0.0840(3) 0.7500 0.037(3) Uani 1 2 d S . .
C6 C 0.1349(4) 0.0999(2) 0.9216(11) 0.046(2) Uani 1 1 d . . .
H6 H 0.1249 0.0886 1.0382 0.055 Uiso 1 1 calc R . .
C7 C 0.1667(5) 0.1325(2) 0.9239(11) 0.052(3) Uani 1 1 d . . .
H7 H 0.1784 0.1428 1.0415 0.063 Uiso 1 1 calc R . .
C8 C 0.1813(6) 0.1498(3) 0.7500 0.037(3) Uani 1 2 d S . .
C9 C 0.2107(5) 0.1873(3) 0.7500 0.037(3) Uani 1 2 d S . .

loop_
_atom_site_aniso_label
_atom_site_aniso_U_11
_atom_site_aniso_U_22
_atom_site_aniso_U_33
_atom_site_aniso_U_23
_atom_site_aniso_U_13
_atom_site_aniso_U_12
Fe1 0.0431(11) 0.0040(8) 0.0069(9) 0.0001(7) 0.000 0.000
Fe2 0.0169(7) 0.0288(8) 0.0077(7) -0.0012(5) 0.0000(6) -0.0128(5)
O1 0.022(2) 0.079(4) 0.018(3) -0.006(3) -0.001(2) 0.000(3)
O2 0.080(4) 0.032(3) 0.025(3) -0.003(2) -0.004(3) -0.036(3)
O3 0.057(3) 0.043(3) 0.024(3) 0.007(2) 0.002(3) -0.022(3)
O4 0.22(2) 0.067(10) 0.007(5) 0.000 0.000 0.000
O5 0.071(6) 0.072(6) 0.016(4) 0.000 0.000 -0.031(5)
C1 0.038(6) 0.027(6) 0.013(5) 0.000 0.000 -0.007(5)
C2 0.020(5) 0.039(6) 0.016(4) 0.000 0.000 -0.005(4)
C3 0.013(3) 0.141(9) 0.024(4) -0.004(5) 0.001(3) 0.008(5)
C4 0.048(7) 0.019(5) 0.023(5) 0.000 0.000 0.000(5)
C5 0.049(7) 0.023(6) 0.038(6) 0.000 0.000 -0.021(5)
C6 0.079(6) 0.039(5) 0.020(4) 0.009(3) -0.004(4) -0.035(4)
C7 0.096(7) 0.044(5) 0.017(4) -0.002(3) -0.005(4) -0.046(5)
C8 0.044(7) 0.029(6) 0.037(6) 0.000 0.000 -0.006(5)
C9 0.052(7) 0.034(6) 0.026(6) 0.000 0.000 -0.022(6)

_geom_special_details            
;
All esds (except the esd in the dihedral angle between two l.s. planes)
are estimated using the full covariance matrix. The cell esds are taken
into account individually in the estimation of esds in distances, angles
and torsion angles; correlations between esds in cell parameters are only
used when they are defined by crystal symmetry. An approximate (isotropic)
treatment of cell esds is used for estimating esds involving l.s. planes.
;

loop_
_geom_bond_atom_site_label_1
_geom_bond_atom_site_label_2
_geom_bond_distance
_geom_bond_site_symmetry_2
_geom_bond_publ_flag
Fe1 O4 1.872(6) 9_556 ?
Fe1 O4 1.872(6) . ?
Fe1 O2 2.014(5) . ?
Fe1 O2 2.014(5) 9_556 ?
Fe1 O2 2.014(5) 4_556 ?
Fe1 O2 2.014(5) 12 ?
Fe2 O5 1.968(5) . ?
Fe2 O5 1.968(5) 13_556 ?
Fe2 O3 2.015(5) 13_556 ?
Fe2 O3 2.015(5) . ?
Fe2 O1 2.019(5) . ?
Fe2 O1 2.019(5) 13_556 ?
O1 C1 1.245(7) . ?
O2 C4 1.256(6) . ?
O3 C9 1.248(6) . ?
O4 Fe1 1.872(6) 2_554 ?
O5 Fe2 1.968(5) 6_554 ?
C1 O1 1.245(7) 10_557 ?
C1 C2 1.522(14) . ?
C2 C3 1.377(9) 10_557 ?
C2 C3 1.377(9) . ?
C3 C3 1.364(14) 12_655 ?
C3 H3 0.9300 . ?
C4 O2 1.256(6) 10_557 ?
C4 C5 1.520(14) . ?
C5 C6 1.370(9) 10_557 ?
C5 C6 1.370(9) . ?
C6 C7 1.377(10) . ?
C6 H6 0.9300 . ?
C7 C8 1.393(9) . ?
C7 H7 0.9300 . ?
C8 C7 1.393(9) 10_557 ?
C8 C9 1.518(14) . ?
C9 O3 1.248(6) 10_557 ?

loop_
_geom_angle_atom_site_label_1
_geom_angle_atom_site_label_2
_geom_angle_atom_site_label_3
_geom_angle
_geom_angle_site_symmetry_1
_geom_angle_site_symmetry_3
_geom_angle_publ_flag
O4 Fe1 O4 179.996(2) 9_556 . ?
O4 Fe1 O2 89.6(3) 9_556 . ?
O4 Fe1 O2 90.4(3) . . ?
O4 Fe1 O2 90.4(3) 9_556 9_556 ?
O4 Fe1 O2 89.6(3) . 9_556 ?
O2 Fe1 O2 179.997(1) . 9_556 ?
O4 Fe1 O2 90.4(3) 9_556 4_556 ?
O4 Fe1 O2 89.6(3) . 4_556 ?
O2 Fe1 O2 95.7(3) . 4_556 ?
O2 Fe1 O2 84.2(3) 9_556 4_556 ?
O4 Fe1 O2 89.6(3) 9_556 12 ?
O4 Fe1 O2 90.4(3) . 12 ?
O2 Fe1 O2 84.3(3) . 12 ?
O2 Fe1 O2 95.8(3) 9_556 12 ?
O2 Fe1 O2 180.0(4) 4_556 12 ?
O5 Fe2 O5 180.0(5) . 13_556 ?
O5 Fe2 O3 93.6(3) . 13_556 ?
O5 Fe2 O3 86.4(3) 13_556 13_556 ?
O5 Fe2 O3 86.4(3) . . ?
O5 Fe2 O3 93.6(3) 13_556 . ?
O3 Fe2 O3 179.999(1) 13_556 . ?
O5 Fe2 O1 87.4(3) . . ?
O5 Fe2 O1 92.6(3) 13_556 . ?
O3 Fe2 O1 91.2(2) 13_556 . ?
O3 Fe2 O1 88.8(2) . . ?
O5 Fe2 O1 92.6(3) . 13_556 ?
O5 Fe2 O1 87.4(3) 13_556 13_556 ?
O3 Fe2 O1 88.8(2) 13_556 13_556 ?
O3 Fe2 O1 91.2(2) . 13_556 ?
O1 Fe2 O1 180.0 . 13_556 ?
C1 O1 Fe2 133.2(5) . . ?
C4 O2 Fe1 133.5(6) . . ?
C9 O3 Fe2 132.4(6) . . ?
Fe1 O4 Fe1 133.9(9) 2_554 . ?
Fe2 O5 Fe2 122.1(5) . 6_554 ?
O1 C1 O1 127.6(10) 10_557 . ?
O1 C1 C2 116.2(5) 10_557 . ?
O1 C1 C2 116.2(5) . . ?
C3 C2 C3 118.7(10) 10_557 . ?
C3 C2 C1 120.6(5) 10_557 . ?
C3 C2 C1 120.6(5) . . ?
C3 C3 C2 120.6(5) 12_655 . ?
C3 C3 H3 119.7 12_655 . ?
C2 C3 H3 119.7 . . ?
O2 C4 O2 126.9(9) 10_557 . ?
O2 C4 C5 116.5(5) 10_557 . ?
O2 C4 C5 116.5(5) . . ?
C6 C5 C6 119.3(9) 10_557 . ?
C6 C5 C4 120.4(5) 10_557 . ?
C6 C5 C4 120.4(5) . . ?
C5 C6 C7 121.0(7) . . ?
C5 C6 H6 119.5 . . ?
C7 C6 H6 119.5 . . ?
C6 C7 C8 120.0(7) . . ?
C6 C7 H7 120.0 . . ?
C8 C7 H7 120.0 . . ?
C7 C8 C7 118.6(10) . 10_557 ?
C7 C8 C9 120.7(5) . . ?
C7 C8 C9 120.7(5) 10_557 . ?
O3 C9 O3 128.5(10) . 10_557 ?
O3 C9 C8 115.7(5) . . ?
O3 C9 C8 115.7(5) 10_557 . ?

_diffrn_measured_fraction_theta_max 0.999
_diffrn_reflns_theta_full        25.02
_diffrn_measured_fraction_theta_full 0.999
_refine_diff_density_max         2.325
_refine_diff_density_min         -2.958
_refine_diff_density_rms         0.171
#===END


