####################################################################### 
# 
# This file contains crystal structure data downloaded from the 
# Cambridge Structural Database (CSD) hosted by the Cambridge 
# Crystallographic Data Centre (CCDC).
# 
# Full information about CCDC data access policies and citation 
# guidelines are available at http://www.ccdc.cam.ac.uk/access/V1 
# 
# Audit and citation data items may have been added by the CCDC. 
# Please retain this information to preserve the provenance of 
# this file and to allow appropriate attribution of the data. 
# 
#######################################################################

data_[(NiL3py)2TCM]
_audit_block_doi                 10.5517/ccv189f
_database_code_depnum_ccdc_archive 'CCDC 775784'
loop_
_citation_id
_citation_doi
_citation_year
1 10.1002/ejic.201000555 2010
_audit_update_record             
;
2010-05-03 deposited with the CCDC.	2024-07-13 downloaded from the CCDC.
;
#TrackingRef 'web_deposit_cif_file_0_HoiRiMOON_1272897511.cif'

#==============================================================================

_audit_creation_date             2008-09-12T17:44:52-00:00
_audit_creation_method           'WinGX routine CIF_UPDATE'

#----------------------------------------------------------------------------#
# CHEMICAL INFORMATION #
#----------------------------------------------------------------------------#

_chemical_name_systematic        
;
?
;
_chemical_formula_sum            'C88 H139 N21 Ni2 O25'
_chemical_formula_weight         666.23


#----------------------------------------------------------------------------#
# UNIT CELL INFORMATION #
#----------------------------------------------------------------------------#
_symmetry_cell_setting           orthorhombic
_symmetry_space_group_name_H-M   I212121
_symmetry_space_group_name_Hall  'I 2b 2c'
_symmetry_Int_Tables_number      24

loop_
_symmetry_equiv_pos_as_xyz
'x, y, z'
'-x, -y+1/2, z'
'x, -y, -z+1/2'
'-x, y+1/2, -z+1/2'
'x+1/2, y+1/2, z+1/2'
'-x+1/2, -y+1, z+1/2'
'x+1/2, -y+1/2, -z+1'
'-x+1/2, y+1, -z+1'

_cell_length_a                   15.525(3)
_cell_length_b                   18.764(4)
_cell_length_c                   34.496(7)
_cell_angle_alpha                90
_cell_angle_beta                 90
_cell_angle_gamma                90
_cell_volume                     10049(3)
_cell_formula_units_Z            4
_cell_measurement_temperature    100(2)

#----------------------------------------------------------------------------#
# CRYSTAL INFORMATION #
#----------------------------------------------------------------------------#

_exptl_crystal_description       needle
_exptl_crystal_colour            purple
_exptl_crystal_size_max          0.2
_exptl_crystal_size_mid          0.1
_exptl_crystal_size_min          0.1
_exptl_crystal_density_diffrn    1.327
_exptl_crystal_density_method    'not measured'
_exptl_crystal_F_000             3160
_exptl_special_details           
;
?
;

#----------------------------------------------------------------------------#
# ABSORPTION CORRECTION #
#----------------------------------------------------------------------------#

_exptl_absorpt_coefficient_mu    0.427
_exptl_absorpt_correction_type   none

#----------------------------------------------------------------------------#
# DATA COLLECTION #
#----------------------------------------------------------------------------#

_diffrn_ambient_temperature      100(2)
_diffrn_radiation_wavelength     0.75000
_diffrn_radiation_type           MoK\a
_diffrn_radiation_monochromator  graphite
_diffrn_reflns_av_R_equivalents  0.0534
_diffrn_reflns_av_unetI/netI     0.0553
_diffrn_reflns_number            19418
_diffrn_reflns_limit_h_min       -18
_diffrn_reflns_limit_h_max       0
_diffrn_reflns_limit_k_min       -24
_diffrn_reflns_limit_k_max       24
_diffrn_reflns_limit_l_min       -41
_diffrn_reflns_limit_l_max       38
_diffrn_reflns_theta_min         2.62
_diffrn_reflns_theta_max         28.57
_diffrn_reflns_theta_full        28.57
_diffrn_measured_fraction_theta_full 0.825
_diffrn_measured_fraction_theta_max 0.825
_reflns_number_total             10354
_reflns_number_gt                9221
_reflns_threshold_expression     >2sigma(I)

#----------------------------------------------------------------------------#
# COMPUTER PROGRAMS USED #
#----------------------------------------------------------------------------#
_computing_data_collection       'Collect (Nonius BV, 1997-2000)'
_computing_cell_refinement       'HKL Scalepack (Otwinowski & Minor 1997)'
_computing_data_reduction        
'HKL Denzo and Scalepack (Otwinowski & Minor 1997)'
_computing_structure_refinement  'SHELXL-97 (Sheldrick, 1997)'

#----------------------------------------------------------------------------#
# REFINEMENT INFORMATION #
#----------------------------------------------------------------------------#

_refine_special_details          
;
Refinement of F^2^ against ALL reflections. The weighted R-factor wR and
goodness of fit S are based on F^2^, conventional R-factors R are based
on F, with F set to zero for negative F^2^. The threshold expression of
F^2^ > 2sigma(F^2^) is used only for calculating R-factors(gt) etc. and is
not relevant to the choice of reflections for refinement. R-factors based
on F^2^ are statistically about twice as large as those based on F, and R-
factors based on ALL data will be even larger.

Due to the large void space in the structure, solvent molecules are
highly disordered. Complete assignment of all residual
electron density was therfore impossible.
The disordered solvent region was treated with SQUEEZE subroutine
in PLATON software package: Spek, A.L. (1990), Acta Crystallogr.A46, C-34.
;
_refine_ls_structure_factor_coef Fsqd
_refine_ls_matrix_type           full
_refine_ls_weighting_scheme      calc
_refine_ls_weighting_details     
'calc w=1/[\s^2^(Fo^2^)+(0.1619P)^2^+0.7403P] where P=(Fo^2^+2Fc^2^)/3'
_atom_sites_solution_primary     direct
_atom_sites_solution_secondary   difmap
_atom_sites_solution_hydrogens   geom
_refine_ls_hydrogen_treatment    'riding model'
_refine_ls_extinction_method     none
_refine_ls_number_reflns         10354
_refine_ls_number_parameters     466
_refine_ls_number_restraints     7
_refine_ls_R_factor_all          0.077
_refine_ls_R_factor_gt           0.0726
_refine_ls_wR_factor_ref         0.2143
_refine_ls_wR_factor_gt          0.2081
_refine_ls_goodness_of_fit_ref   1.089
_refine_ls_restrained_S_all      1.09
_refine_ls_shift/su_max          0.518
_refine_ls_shift/su_mean         0.051
_refine_diff_density_max         0.46
_refine_diff_density_min         -0.541
_refine_diff_density_rms         0.077

#----------------------------------------------------------------------------#
# ATOMIC TYPES, COORDINATES AND THERMAL PARAMETERS #
#----------------------------------------------------------------------------#

loop_
_atom_type_symbol
_atom_type_description
_atom_type_scat_dispersion_real
_atom_type_scat_dispersion_imag
_atom_type_scat_source
C C 0.0033 0.0016 'International Tables Vol C Tables 4.2.6.8 and 6.1.1.4'
H H 0 0 'International Tables Vol C Tables 4.2.6.8 and 6.1.1.4'
N N 0.0061 0.0033 'International Tables Vol C Tables 4.2.6.8 and 6.1.1.4'
Ni Ni 0.3393 1.1124 'International Tables Vol C Tables 4.2.6.8 and 6.1.1.4'
O O 0.0106 0.006 'International Tables Vol C Tables 4.2.6.8 and 6.1.1.4'

loop_
_atom_site_label
_atom_site_type_symbol
_atom_site_fract_x
_atom_site_fract_y
_atom_site_fract_z
_atom_site_U_iso_or_equiv
_atom_site_adp_type
_atom_site_occupancy
_atom_site_symmetry_multiplicity
_atom_site_calc_flag
_atom_site_refinement_flags
_atom_site_disorder_assembly
_atom_site_disorder_group
C1 C 1.0707(13) 1.1736(10) 0.1703(8) 0.348(19) Uani 1 1 d D . .
H1 H 1.054 1.1779 0.1446 0.417 Uiso 1 1 calc R . .
C2 C 1.116(2) 1.2384(14) 0.2286(6) 0.38(2) Uani 1 1 d D . .
H3 H 1.1395 1.2777 0.2411 0.45 Uiso 1 1 calc R . .
C3 C 1.0917(13) 1.1702(6) 0.2489(5) 0.221(7) Uani 1 1 d D . .
H3 H 1.0914 1.1698 0.2758 0.266 Uiso 1 1 calc R . .
C4 C 1.0666(10) 1.0999(8) 0.2270(3) 0.197(7) Uani 1 1 d D . .
H5 H 1.0553 1.06 0.2421 0.236 Uiso 1 1 calc R . .
C5 C 1.0598(7) 1.0919(12) 0.1870(3) 0.197(7) Uani 1 1 d D . .
C6 C 1.0120(11) 1.0513(5) 0.1677(3) 0.177(6) Uani 1 1 d . . .
H7A H 1.049 1.0176 0.1543 0.213 Uiso 1 1 calc R . .
H7B H 0.9845 1.0801 0.1479 0.213 Uiso 1 1 calc R . .
C7 C 0.9559(5) 0.9313(3) 0.18014(13) 0.0905(16) Uani 1 1 d . . .
H8A H 1.0158 0.9203 0.1856 0.109 Uiso 1 1 calc R . .
H8B H 0.9205 0.9027 0.1973 0.109 Uiso 1 1 calc R . .
C8 C 0.9483(3) 0.83601(19) 0.13133(12) 0.0635(9) Uani 1 1 d . . .
H9A H 0.9196 0.8074 0.1509 0.076 Uiso 1 1 calc R . .
H9B H 1.0091 0.8241 0.1314 0.076 Uiso 1 1 calc R . .
C9 C 0.9098(3) 0.8213(2) 0.09171(11) 0.0628(9) Uani 1 1 d . . .
H10A H 0.9414 0.8472 0.0719 0.075 Uiso 1 1 calc R . .
H10B H 0.9132 0.7708 0.0859 0.075 Uiso 1 1 calc R . .
C10 C 0.7775(3) 0.8485(3) 0.05371(14) 0.0771(12) Uani 1 1 d . . .
H11A H 0.8114 0.8795 0.0372 0.093 Uiso 1 1 calc R . .
H11B H 0.7779 0.8013 0.0422 0.093 Uiso 1 1 calc R . .
C11 C 0.6754(3) 0.9457(4) 0.0607(2) 0.107(2) Uani 1 1 d . . .
H12A H 0.6159 0.9568 0.0545 0.129 Uiso 1 1 calc R . .
H12B H 0.7118 0.9731 0.0434 0.129 Uiso 1 1 calc R . .
C12 C 0.6898(6) 1.0466(4) 0.1122(3) 0.150(4) Uani 1 1 d . . .
H13A H 0.7216 1.0736 0.0929 0.18 Uiso 1 1 calc R . .
H13B H 0.6304 1.0625 0.1117 0.18 Uiso 1 1 calc R . .
C13 C 0.7250(8) 1.0587(4) 0.1489(2) 0.175(6) Uani 1 1 d . . .
H14A H 0.6924 1.0326 0.1683 0.21 Uiso 1 1 calc R . .
H14B H 0.7218 1.109 0.1551 0.21 Uiso 1 1 calc R . .
C14 C 0.8539(9) 1.0341(3) 0.18830(17) 0.160(5) Uani 1 1 d . . .
H15A H 0.854 1.0819 0.1989 0.192 Uiso 1 1 calc R . .
H15B H 0.8194 1.0044 0.2053 0.192 Uiso 1 1 calc R . .
C15 C 0.6272(6) 0.8188(8) 0.0705(4) 0.187(7) Uani 1 1 d . . .
H16A H 0.645 0.8069 0.0967 0.224 Uiso 1 1 calc R . .
H16B H 0.5704 0.8401 0.0722 0.224 Uiso 1 1 calc R . .
C16 C 0.6205(11) 0.7531(10) 0.0483(10) 0.311(16) Uani 1 1 d D . .
C17 C 0.604(2) 0.7246(19) -0.0002(10) 0.44(3) Uani 1 1 d D . .
H17 H 0.5887 0.7542 -0.0207 0.534 Uiso 1 1 calc R . .
C18 C 0.6149(17) 0.6574(14) -0.0025(8) 0.304(15) Uani 1 1 d D . .
H18 H 0.6127 0.6294 -0.0247 0.365 Uiso 1 1 calc R . .
C19 C 0.6334(12) 0.6319(8) 0.0396(9) 0.285(14) Uani 1 1 d D . .
H19 H 0.6188 0.5841 0.0368 0.342 Uiso 1 1 calc R . .
C20 C 0.657(2) 0.695(2) 0.087(2) 0.64(6) Uani 1 1 d D . .
H20 H 0.6742 0.7099 0.1117 0.762 Uiso 1 1 calc R . .
C21 C 0.7425(4) 0.8354(3) 0.18178(16) 0.0941(19) Uani 1 1 d . . .
C22 C 0.6967(4) 0.8290(3) 0.22016(14) 0.0827(14) Uani 1 1 d . . .
C23 C 0.6525(3) 0.8837(2) 0.23461(13) 0.0712(11) Uani 1 1 d . . .
H25 H 0.6504 0.9263 0.2209 0.085 Uiso 1 1 calc R . .
C24 C 0.6091(3) 0.8784(2) 0.26999(13) 0.0695(10) Uani 1 1 d . . .
H26 H 0.5765 0.9164 0.2791 0.083 Uiso 1 1 calc R . .
C25 C 0.6149(3) 0.8156(2) 0.29146(12) 0.0669(10) Uani 1 1 d . . .
C26 C 0.6662(5) 0.7602(3) 0.27780(19) 0.118(3) Uani 1 1 d . . .
H28 H 0.6744 0.7197 0.2929 0.142 Uiso 1 1 calc R . .
C27 C 0.7057(5) 0.7654(3) 0.2411(2) 0.125(3) Uani 1 1 d . . .
H29 H 0.7372 0.7275 0.2311 0.149 Uiso 1 1 calc R . .
C28 C 0.5806(3) 0.7536(2) 0.34965(9) 0.0616(9) Uani 1 1 d . . .
H30A H 0.6318 0.7589 0.3655 0.074 Uiso 1 1 calc R . .
H30B H 0.5861 0.7105 0.3343 0.074 Uiso 1 1 calc R . .
C29 C 0.5 0.75 0.37520(12) 0.0495(10) Uani 1 2 d S . .
C30 C 0.4897(3) 0.81601(17) 0.39969(9) 0.0581(9) Uani 1 1 d . . .
H32A H 0.4882 0.8581 0.3834 0.07 Uiso 1 1 calc R . .
H32B H 0.4365 0.8137 0.4144 0.07 Uiso 1 1 calc R . .
C31 C 0.5560(2) 0.86319(17) 0.45686(9) 0.0522(7) Uani 1 1 d . . .
C32 C 0.6279(2) 0.86298(19) 0.48136(11) 0.0551(8) Uani 1 1 d . . .
H38 H 0.6745 0.8335 0.4758 0.066 Uiso 1 1 calc R . .
C33 C 0.6302(2) 0.90602(18) 0.51365(10) 0.0530(7) Uani 1 1 d . . .
H37 H 0.6787 0.9059 0.5295 0.064 Uiso 1 1 calc R . .
C34 C 0.5611(2) 0.94946(18) 0.52286(10) 0.0509(7) Uani 1 1 d . . .
C35 C 0.4901(2) 0.9496(2) 0.49759(12) 0.0631(8) Uani 1 1 d . . .
H35 H 0.4429 0.9783 0.5032 0.076 Uiso 1 1 calc R . .
C36 C 0.4889(2) 0.9078(2) 0.46452(11) 0.0603(8) Uani 1 1 d . . .
H34 H 0.4424 0.9101 0.4476 0.072 Uiso 1 1 calc R . .
C37 C 0.5631(3) 0.9960(2) 0.55779(11) 0.0605(9) Uani 1 1 d . . .
N1 N 1.0983(9) 1.2357(8) 0.1855(5) 0.216(5) Uani 1 1 d D . .
N2 N 0.9402(8) 1.0076(3) 0.18798(13) 0.161(4) Uani 1 1 d . . .
N3 N 0.9364(2) 0.91275(15) 0.13976(9) 0.0626(7) Uani 1 1 d . . .
H3A H 0.9746 0.9369 0.1247 0.075 Uiso 1 1 calc R . .
N4 N 0.8194(2) 0.84446(16) 0.09222(9) 0.0598(7) Uani 1 1 d . . .
H4A H 0.7893 0.8124 0.1067 0.072 Uiso 1 1 calc R . .
N5 N 0.6896(3) 0.8744(3) 0.05445(17) 0.112(2) Uani 1 1 d . . .
N6 N 0.6939(3) 0.9676(3) 0.10231(17) 0.120(2) Uani 1 1 d . . .
H6 H 0.6554 0.9447 0.1178 0.144 Uiso 1 1 calc R . .
N7 N 0.8132(6) 1.0358(2) 0.14943(13) 0.128(3) Uani 1 1 d . . .
H1A H 0.8436 1.0673 0.1348 0.153 Uiso 1 1 calc R . .
N8 N 0.654(3) 0.6311(16) 0.0749(12) 0.72(6) Uani 1 1 d D . .
Ni1 Ni 0.81551(3) 0.93962(2) 0.120725(14) 0.06355(19) Uani 1 1 d . . .
O1 O 0.7546(3) 0.89515(18) 0.16944(11) 0.0915(12) Uani 1 1 d . . .
O2 O 0.7556(4) 0.7777(2) 0.16196(13) 0.122(2) Uani 1 1 d . . .
O3 O 0.5695(2) 0.81483(15) 0.32485(8) 0.0683(7) Uani 1 1 d . . .
O4 O 0.56282(17) 0.81899(14) 0.42566(7) 0.0580(6) Uani 1 1 d . . .
O5 O 0.63725(17) 1.00603(14) 0.57247(8) 0.0599(6) Uani 1 1 d . . .
O6 O 0.4940(2) 1.0188(2) 0.57062(10) 0.0842(10) Uani 1 1 d . . .

loop_
_atom_site_aniso_label
_atom_site_aniso_U_11
_atom_site_aniso_U_22
_atom_site_aniso_U_33
_atom_site_aniso_U_23
_atom_site_aniso_U_13
_atom_site_aniso_U_12
C1 0.42(3) 0.187(16) 0.43(3) 0.17(2) -0.27(3) -0.112(19)
C2 0.73(7) 0.21(2) 0.181(18) -0.025(17) 0.15(3) -0.01(3)
C3 0.38(2) 0.102(6) 0.179(12) -0.028(7) 0.024(15) -0.056(10)
C4 0.297(15) 0.224(13) 0.069(6) 0.025(6) 0.019(6) -0.127(12)
C5 0.147(7) 0.38(2) 0.069(6) 0.049(9) 0.002(4) -0.044(10)
C6 0.339(17) 0.116(6) 0.077(5) 0.030(4) 0.014(8) -0.089(9)
C7 0.170(5) 0.068(2) 0.034(2) 0.0039(17) 0.001(2) -0.023(3)
C8 0.089(2) 0.0536(17) 0.048(2) 0.0033(14) -0.0001(16) 0.0241(16)
C9 0.085(2) 0.0595(19) 0.0434(19) 0.0011(14) 0.0028(16) 0.0250(17)
C10 0.088(3) 0.080(3) 0.064(3) 0.025(2) -0.0126(19) -0.015(2)
C11 0.072(3) 0.136(5) 0.114(5) 0.089(4) 0.016(2) 0.016(3)
C12 0.184(7) 0.119(5) 0.148(7) 0.084(5) 0.121(6) 0.101(5)
C13 0.319(12) 0.098(4) 0.107(5) 0.065(4) 0.145(7) 0.131(6)
C14 0.380(16) 0.054(2) 0.046(3) 0.003(2) 0.075(6) 0.034(5)
C15 0.117(5) 0.249(14) 0.195(11) 0.157(11) -0.037(6) -0.066(7)
C16 0.182(11) 0.167(12) 0.58(5) 0.16(2) 0.06(2) -0.066(11)
C17 0.69(8) 0.32(4) 0.33(3) -0.10(3) 0.27(4) -0.23(5)
C18 0.40(4) 0.24(2) 0.27(2) -0.04(2) -0.15(3) 0.11(2)
C19 0.244(16) 0.134(10) 0.48(4) 0.095(16) -0.21(2) -0.068(10)
C20 0.38(5) 0.39(5) 1.13(16) 0.47(8) -0.14(7) 0.00(4)
C21 0.132(4) 0.077(3) 0.073(3) 0.043(2) 0.057(3) 0.034(3)
C22 0.119(3) 0.072(2) 0.057(3) 0.033(2) 0.035(2) 0.005(2)
C23 0.099(3) 0.064(2) 0.051(2) 0.0249(17) 0.0171(18) -0.0051(18)
C24 0.091(3) 0.064(2) 0.053(2) 0.0201(17) 0.0130(19) -0.0014(18)
C25 0.099(3) 0.0568(19) 0.045(2) 0.0108(14) 0.0046(17) -0.0226(18)
C26 0.183(6) 0.091(3) 0.081(4) 0.060(3) 0.073(4) 0.033(4)
C27 0.184(6) 0.081(3) 0.109(5) 0.058(3) 0.093(5) 0.036(4)
C28 0.099(3) 0.0612(18) 0.0242(16) -0.0010(12) 0.0102(14) -0.0355(18)
C29 0.074(3) 0.052(2) 0.022(2) 0 0 -0.0304(19)
C30 0.094(2) 0.0502(15) 0.0298(16) -0.0039(11) -0.0156(14) -0.0325(16)
C31 0.0760(19) 0.0540(16) 0.0264(16) -0.0067(11) -0.0039(13) -0.0225(14)
C32 0.0644(18) 0.0552(16) 0.0458(19) -0.0201(14) -0.0065(13) -0.0086(13)
C33 0.0627(18) 0.0556(16) 0.0407(19) -0.0147(13) -0.0149(13) 0.0019(14)
C34 0.0624(16) 0.0566(16) 0.0336(16) -0.0116(12) -0.0102(12) -0.0019(13)
C35 0.0643(18) 0.069(2) 0.056(2) -0.0160(17) -0.0165(15) 0.0045(16)
C36 0.0672(19) 0.069(2) 0.045(2) -0.0061(15) -0.0177(15) -0.0110(16)
C37 0.081(2) 0.0625(19) 0.0378(19) -0.0197(14) -0.0164(15) 0.0151(17)
N1 0.221(11) 0.177(11) 0.250(14) -0.011(10) 0.018(11) -0.068(9)
N2 0.380(13) 0.065(3) 0.037(3) -0.0043(18) 0.028(4) -0.082(5)
N3 0.106(2) 0.0445(13) 0.0378(17) 0.0068(11) 0.0088(14) 0.0063(14)
N4 0.0730(17) 0.0543(14) 0.0522(17) 0.0152(12) 0.0042(14) 0.0102(14)
N5 0.069(2) 0.140(5) 0.125(4) 0.082(4) -0.013(2) -0.023(3)
N6 0.095(3) 0.121(3) 0.144(5) 0.100(3) 0.075(3) 0.059(3)
N7 0.269(7) 0.0511(17) 0.064(3) 0.0273(17) 0.085(4) 0.048(3)
N8 0.76(10) 0.33(4) 1.07(12) 0.40(6) -0.55(10) -0.17(5)
Ni1 0.0976(3) 0.0469(2) 0.0461(3) 0.02376(17) 0.0345(2) 0.0241(2)
O1 0.130(3) 0.0687(17) 0.076(2) 0.0406(16) 0.059(2) 0.0243(18)
O2 0.206(5) 0.077(2) 0.084(3) 0.0376(19) 0.082(3) 0.022(3)
O3 0.1048(19) 0.0597(14) 0.0404(14) 0.0088(10) 0.0110(12) -0.0294(13)
O4 0.0754(14) 0.0618(13) 0.0368(13) -0.0160(10) -0.0049(10) -0.0253(11)
O5 0.0767(14) 0.0605(13) 0.0426(14) -0.0208(10) -0.0251(11) 0.0132(11)
O6 0.0777(17) 0.110(3) 0.065(2) -0.0392(19) -0.0094(14) 0.0065(16)


#----------------------------------------------------------------------------#
# MOLECULAR GEOMETRY #
#----------------------------------------------------------------------------#

_geom_special_details            
;
All esds (except the esd in the dihedral angle between two l.s. planes)
are estimated using the full covariance matrix. The cell esds are taken
into account individually in the estimation of esds in distances, angles
and torsion angles; correlations between esds in cell parameters are only
used when they are defined by crystal symmetry. An approximate (isotropic)
treatment of cell esds is used for estimating esds involving l.s. planes.
;
