####################################################################### 
# 
# This file contains crystal structure data downloaded from the 
# Cambridge Structural Database (CSD) hosted by the Cambridge 
# Crystallographic Data Centre (CCDC).
# 
# Full information about CCDC data access policies and citation 
# guidelines are available at http://www.ccdc.cam.ac.uk/access/V1 
# 
# Audit and citation data items may have been added by the CCDC. 
# Please retain this information to preserve the provenance of 
# this file and to allow appropriate attribution of the data. 
# 
#######################################################################

data_compound3
_audit_block_doi                 10.5517/cctwqq3
_database_code_depnum_ccdc_archive 'CCDC 771426'
loop_
_citation_id
_citation_doi
_citation_year
1 10.1002/ejic.201000362 2010
_audit_update_record             
;
2010-03-27 deposited with the CCDC.	2024-07-13 downloaded from the CCDC.
;
#TrackingRef 'web_deposit_cif_file_2_TapasKumarMaji_1269717648.cif'


_audit_creation_method           SHELXL-97
_chemical_name_systematic        
;
?
;
_chemical_name_common            ?
_chemical_melting_point          ?
_chemical_formula_moiety         ?
_chemical_formula_sum            'C54 H40 N6 O10 Zn2'
_chemical_formula_weight         1063.66

loop_
_atom_type_symbol
_atom_type_description
_atom_type_scat_dispersion_real
_atom_type_scat_dispersion_imag
_atom_type_scat_source
C C 0.0033 0.0016 'International Tables Vol C Tables 4.2.6.8 and 6.1.1.4'
H H 0.0000 0.0000 'International Tables Vol C Tables 4.2.6.8 and 6.1.1.4'
N N 0.0061 0.0033 'International Tables Vol C Tables 4.2.6.8 and 6.1.1.4'
O O 0.0106 0.0060 'International Tables Vol C Tables 4.2.6.8 and 6.1.1.4'
Zn Zn 0.2839 1.4301 'International Tables Vol C Tables 4.2.6.8 and 6.1.1.4'

_symmetry_cell_setting           monoclinic
_symmetry_space_group_name_H-M   P21

loop_
_symmetry_equiv_pos_as_xyz
'x, y, z'
'-x, y+1/2, -z'

_cell_length_a                   19.0493(10)
_cell_length_b                   14.4336(6)
_cell_length_c                   10.9838(6)
_cell_angle_alpha                90.00
_cell_angle_beta                 122.294(3)
_cell_angle_gamma                90.00
_cell_volume                     2552.9(2)
_cell_formula_units_Z            2
_cell_measurement_temperature    100(2)
_cell_measurement_reflns_used    ?
_cell_measurement_theta_min      ?
_cell_measurement_theta_max      ?

_exptl_crystal_description       block
_exptl_crystal_colour            yellow
_exptl_crystal_size_max          0.4
_exptl_crystal_size_mid          0.24
_exptl_crystal_size_min          0.16
_exptl_crystal_density_meas      ?
_exptl_crystal_density_diffrn    1.384
_exptl_crystal_density_method    'not measured'
_exptl_crystal_F_000             1092
_exptl_absorpt_coefficient_mu    1.003
_exptl_absorpt_correction_type   empirical
_exptl_absorpt_correction_T_min  0.5946
_exptl_absorpt_correction_T_max  0.7964
_exptl_absorpt_process_details   SADABS

_exptl_special_details           
;
?
;

_diffrn_ambient_temperature      100(2)
_diffrn_radiation_wavelength     0.71073
_diffrn_radiation_type           MoK\a
_diffrn_radiation_source         'fine-focus sealed tube'
_diffrn_radiation_monochromator  graphite
_diffrn_measurement_device_type  ?
_diffrn_measurement_method       ?
_diffrn_detector_area_resol_mean ?
_diffrn_standards_number         ?
_diffrn_standards_interval_count ?
_diffrn_standards_interval_time  ?
_diffrn_standards_decay_%        ?
_diffrn_reflns_number            30342
_diffrn_reflns_av_R_equivalents  0.0831
_diffrn_reflns_av_sigmaI/netI    0.1512
_diffrn_reflns_limit_h_min       -24
_diffrn_reflns_limit_h_max       24
_diffrn_reflns_limit_k_min       -20
_diffrn_reflns_limit_k_max       18
_diffrn_reflns_limit_l_min       -13
_diffrn_reflns_limit_l_max       14
_diffrn_reflns_theta_min         1.86
_diffrn_reflns_theta_max         30.32
_reflns_number_total             12103
_reflns_number_gt                7098
_reflns_threshold_expression     >2sigma(I)

_computing_data_collection       'SMART (Bruker,2000)'
_computing_cell_refinement       SMART
_computing_data_reduction        'SAINT (Bruker,2000)'
_computing_structure_solution    'SIR-92 (Altomare et al. 1994)'
_computing_structure_refinement  'SHELXL-97 (Sheldrick, 1997)'
_computing_molecular_graphics    'Mercury 1.4.1'
_computing_publication_material  'PLATON (Spek, 2003)'

_refine_special_details          
;
Refinement of F^2^ against ALL reflections. The weighted R-factor wR and
goodness of fit S are based on F^2^, conventional R-factors R are based
on F, with F set to zero for negative F^2^. The threshold expression of
F^2^ > 2sigma(F^2^) is used only for calculating R-factors(gt) etc. and is
not relevant to the choice of reflections for refinement. R-factors based
on F^2^ are statistically about twice as large as those based on F, and R-
factors based on ALL data will be even larger.
;

_refine_ls_structure_factor_coef Fsqd
_refine_ls_matrix_type           full
_refine_ls_weighting_scheme      calc
_refine_ls_weighting_details     
'calc w=1/[\s^2^(Fo^2^)+(0.1903P)^2^+0.0000P] where P=(Fo^2^+2Fc^2^)/3'
_atom_sites_solution_primary     direct
_atom_sites_solution_secondary   difmap
_atom_sites_solution_hydrogens   geom
_refine_ls_hydrogen_treatment    noref
_refine_ls_extinction_method     none
_refine_ls_extinction_coef       ?
_refine_ls_abs_structure_details 'Flack H D (1983), Acta Cryst. A39, 876-881'
_refine_ls_abs_structure_Flack   0.10(2)
_refine_ls_number_reflns         12103
_refine_ls_number_parameters     625
_refine_ls_number_restraints     2
_refine_ls_R_factor_all          0.1716
_refine_ls_R_factor_gt           0.0988
_refine_ls_wR_factor_ref         0.3008
_refine_ls_wR_factor_gt          0.2567
_refine_ls_goodness_of_fit_ref   1.017
_refine_ls_restrained_S_all      1.017
_refine_ls_shift/su_max          0.007
_refine_ls_shift/su_mean         0.001

loop_
_atom_site_label
_atom_site_type_symbol
_atom_site_fract_x
_atom_site_fract_y
_atom_site_fract_z
_atom_site_U_iso_or_equiv
_atom_site_adp_type
_atom_site_occupancy
_atom_site_symmetry_multiplicity
_atom_site_calc_flag
_atom_site_refinement_flags
_atom_site_disorder_assembly
_atom_site_disorder_group
C1 C 0.8905(8) 1.2386(9) 0.049(2) 0.068(5) Uani 1 1 d . . .
C2 C 0.8337(7) 1.1683(8) 0.0516(17) 0.053(4) Uani 1 1 d . . .
C3 C 0.8626(7) 1.1036(10) 0.1565(15) 0.056(4) Uani 1 1 d . . .
H3 H 0.9194 1.1008 0.2239 0.068 Uiso 1 1 calc R . .
C4 C 0.8106(6) 1.0407(8) 0.1681(11) 0.036(2) Uani 1 1 d . . .
H4 H 0.8326 0.9997 0.2452 0.044 Uiso 1 1 calc R . .
C5 C 0.7264(6) 1.0396(7) 0.0649(9) 0.027(2) Uani 1 1 d . . .
C6 C 0.6069(6) 1.1078(7) -0.1566(10) 0.035(2) Uani 1 1 d . . .
H6 H 0.5725 1.0650 -0.1502 0.042 Uiso 1 1 calc R . .
C7 C 0.5731(7) 1.1716(9) -0.2673(11) 0.044(3) Uani 1 1 d . . .
H7 H 0.5163 1.1722 -0.3356 0.053 Uiso 1 1 calc R . .
C8 C 0.6277(7) 1.2372(8) -0.2748(11) 0.044(3) Uani 1 1 d . . .
H8 H 0.6058 1.2818 -0.3471 0.053 Uiso 1 1 calc R . .
C9 C 0.7090(8) 1.2345(8) -0.1795(16) 0.056(3) Uani 1 1 d . . .
H9 H 0.7434 1.2748 -0.1902 0.067 Uiso 1 1 calc R . .
C10 C 0.7453(7) 1.1711(8) -0.0601(13) 0.043(3) Uani 1 1 d . . .
C11 C 0.6922(6) 1.1067(9) -0.0539(10) 0.037(2) Uani 1 1 d . . .
C12 C 0.6732(6) 0.9694(8) 0.0847(11) 0.035(2) Uani 1 1 d . . .
C13 C 0.6763(5) 0.7313(6) 0.2879(10) 0.027(2) Uani 1 1 d . . .
C14 C 0.7345(5) 0.6658(6) 0.4073(10) 0.027(2) Uani 1 1 d . . .
C15 C 0.8168(6) 0.6849(6) 0.4846(11) 0.032(2) Uani 1 1 d . . .
H15 H 0.8366 0.7360 0.4602 0.038 Uiso 1 1 calc R . .
C16 C 0.8731(6) 0.6283(7) 0.6022(11) 0.036(2) Uani 1 1 d . . .
H16 H 0.9292 0.6438 0.6554 0.044 Uiso 1 1 calc R . .
C17 C 0.8465(5) 0.5504(7) 0.6395(10) 0.029(2) Uani 1 1 d . . .
C18 C 0.7293(6) 0.4430(7) 0.5788(11) 0.034(2) Uani 1 1 d . . .
H18 H 0.7641 0.4032 0.6539 0.041 Uiso 1 1 calc R . .
C19 C 0.6459(6) 0.4222(7) 0.4885(10) 0.039(2) Uani 1 1 d . . .
H19 H 0.6255 0.3676 0.5031 0.047 Uiso 1 1 calc R . .
C20 C 0.5924(6) 0.4800(7) 0.3779(11) 0.036(2) Uani 1 1 d . . .
H20 H 0.5365 0.4642 0.3199 0.043 Uiso 1 1 calc R . .
C21 C 0.6200(6) 0.5596(7) 0.3523(11) 0.034(2) Uani 1 1 d . . .
H21 H 0.5826 0.5982 0.2777 0.041 Uiso 1 1 calc R . .
C22 C 0.7045(6) 0.5851(7) 0.4372(10) 0.025(2) Uani 1 1 d . . .
C23 C 0.7615(6) 0.5249(6) 0.5563(10) 0.029(2) Uani 1 1 d . . .
C24 C 0.9127(6) 0.4990(7) 0.7698(11) 0.037(2) Uani 1 1 d . . .
C25 C 0.4624(6) 1.0015(7) 0.0338(11) 0.035(2) Uani 1 1 d . . .
H25 H 0.4773 1.0155 -0.0321 0.042 Uiso 1 1 calc R . .
C26 C 0.3973(6) 1.0508(7) 0.0246(12) 0.040(3) Uani 1 1 d . . .
H26 H 0.3673 1.0928 -0.0501 0.048 Uiso 1 1 calc R . .
C27 C 0.3780(6) 1.0381(7) 0.1215(12) 0.033(2) Uani 1 1 d . . .
C28 C 0.4243(8) 0.9736(9) 0.2317(13) 0.055(3) Uani 1 1 d . . .
H28 H 0.4132 0.9638 0.3035 0.065 Uiso 1 1 calc R . .
C29 C 0.4870(7) 0.9249(9) 0.2316(12) 0.049(3) Uani 1 1 d . . .
H29 H 0.5178 0.8827 0.3055 0.058 Uiso 1 1 calc R . .
C30 C 0.3086(7) 1.0839(7) 0.1243(13) 0.041(3) Uani 1 1 d . . .
C31 C 0.2690(6) 1.1573(8) 0.0348(14) 0.047(3) Uani 1 1 d . . .
C32 C 0.1958(7) 1.2033(7) 0.0207(15) 0.052(3) Uani 1 1 d . . .
C33 C 0.1739(8) 1.2933(9) -0.0431(18) 0.069(4) Uani 1 1 d . . .
H33 H 0.2044 1.3210 -0.0767 0.082 Uiso 1 1 calc R . .
C34 C 0.1077(8) 1.3379(9) -0.054(2) 0.085(5) Uani 1 1 d . . .
H34 H 0.0942 1.3968 -0.0949 0.102 Uiso 1 1 calc R . .
C35 C 0.0786(6) 1.2168(8) 0.0445(13) 0.042(3) Uani 1 1 d . . .
H35 H 0.0457 1.1908 0.0746 0.050 Uiso 1 1 calc R . .
C36 C 0.1433(6) 1.1629(8) 0.0598(12) 0.041(3) Uani 1 1 d . . .
H36 H 0.1516 1.1026 0.0945 0.049 Uiso 1 1 calc R . .
C37 C 0.4293(7) 0.7425(9) -0.0704(12) 0.051(3) Uani 1 1 d . . .
H37 H 0.4236 0.7519 0.0076 0.061 Uiso 1 1 calc R . .
C38 C 0.3664(7) 0.6978(10) -0.1919(11) 0.056(4) Uani 1 1 d . . .
H38 H 0.3199 0.6764 -0.1934 0.067 Uiso 1 1 calc R . .
C39 C 0.3727(7) 0.6846(8) -0.3140(11) 0.038(3) Uani 1 1 d . . .
C40 C 0.4453(6) 0.7159(7) -0.2992(11) 0.035(2) Uani 1 1 d . . .
H40 H 0.4533 0.7061 -0.3747 0.042 Uiso 1 1 calc R . .
C41 C 0.5052(5) 0.7601(7) -0.1805(11) 0.032(2) Uani 1 1 d . . .
H41 H 0.5516 0.7822 -0.1788 0.038 Uiso 1 1 calc R . .
C42 C 0.3064(7) 0.6464(10) -0.4491(14) 0.055(4) Uani 1 1 d . . .
C43 C 0.2450(7) 0.5962(11) -0.4532(13) 0.055(4) Uani 1 1 d . . .
C44 C 0.1785(6) 0.5489(10) -0.5900(12) 0.051(3) Uani 1 1 d . . .
C45 C 0.1309(6) 0.4793(9) -0.5755(11) 0.044(3) Uani 1 1 d . . .
H45 H 0.1402 0.4663 -0.4851 0.052 Uiso 1 1 calc R . .
C46 C 0.0708(6) 0.4304(9) -0.6946(12) 0.049(3) Uani 1 1 d . . .
H46 H 0.0434 0.3815 -0.6822 0.059 Uiso 1 1 calc R . .
C47 C 0.0923(7) 0.5242(10) -0.8455(12) 0.052(3) Uani 1 1 d . . .
H47 H 0.0765 0.5432 -0.9376 0.062 Uiso 1 1 calc R . .
C48 C 0.1579(8) 0.5690(10) -0.7247(12) 0.062(4) Uani 1 1 d . . .
H48 H 0.1880 0.6140 -0.7382 0.074 Uiso 1 1 calc R . .
C49 C 0.6065(7) 0.7859(9) 0.5911(12) 0.050(3) Uani 1 1 d . . .
C50 C 0.6546(15) 0.9535(13) 0.665(4) 0.188(16) Uani 1 1 d . . .
H50A H 0.7065 0.9844 0.6980 0.282 Uiso 1 1 calc R . .
H50B H 0.6414 0.9575 0.7377 0.282 Uiso 1 1 calc R . .
H50C H 0.6116 0.9826 0.5783 0.282 Uiso 1 1 calc R . .
C51 C 0.7440(8) 0.8351(12) 0.6510(16) 0.081(5) Uani 1 1 d . . .
H51A H 0.7757 0.8914 0.6847 0.121 Uiso 1 1 calc R . .
H51B H 0.7360 0.8183 0.5599 0.121 Uiso 1 1 calc R . .
H51C H 0.7734 0.7866 0.7196 0.121 Uiso 1 1 calc R . .
C52 C 0.0092(9) 0.3527(12) -0.4074(16) 0.077(4) Uiso 1 1 d . . .
C53 C -0.010(4) 0.230(5) -0.512(7) 0.48(4) Uiso 1 1 d D . .
H53A H -0.0371 0.1707 -0.5383 0.713 Uiso 1 1 calc R . .
H53B H 0.0493 0.2209 -0.4555 0.713 Uiso 1 1 calc R . .
H53C H -0.0247 0.2642 -0.5973 0.713 Uiso 1 1 calc R . .
C54 C -0.0975(12) 0.2762(16) -0.383(2) 0.111(6) Uiso 1 1 d . . .
H54A H -0.0948 0.3303 -0.3295 0.167 Uiso 1 1 calc R . .
H54B H -0.0859 0.2222 -0.3236 0.167 Uiso 1 1 calc R . .
H54C H -0.1521 0.2710 -0.4676 0.167 Uiso 1 1 calc R . .
N1 N 0.5053(5) 0.9353(6) 0.1307(9) 0.0324(19) Uani 1 1 d . . .
N2 N 0.0601(5) 1.2997(6) -0.0076(10) 0.041(2) Uani 1 1 d . . .
N3 N 0.4997(5) 0.7733(6) -0.0623(9) 0.037(2) Uani 1 1 d . . .
N4 N 0.0515(5) 0.4527(7) -0.8282(9) 0.040(2) Uani 1 1 d . . .
N5 N 0.6621(6) 0.8493(8) 0.6340(12) 0.067(3) Uani 1 1 d . . .
N6 N -0.0366(7) 0.2837(9) -0.4233(12) 0.067(3) Uiso 1 1 d D . .
O1 O 0.8834(6) 1.2605(6) -0.0683(15) 0.084(4) Uani 1 1 d . . .
O2 O 0.9515(9) 1.2635(13) 0.1695(18) 0.164(9) Uani 1 1 d . . .
O3 O 0.6137(4) 0.9309(5) -0.0223(7) 0.0382(17) Uani 1 1 d . . .
O4 O 0.6934(4) 0.9511(5) 0.2101(7) 0.0363(17) Uani 1 1 d . . .
O5 O 0.6886(4) 0.7441(5) 0.1853(8) 0.0389(17) Uani 1 1 d . . .
O6 O 0.6196(4) 0.7686(5) 0.2910(7) 0.0345(16) Uani 1 1 d . . .
O7 O 0.9846(5) 0.5090(7) 0.8114(9) 0.064(3) Uani 1 1 d . . .
O8 O 0.8870(5) 0.4478(7) 0.8328(10) 0.064(3) Uani 1 1 d . . .
O9 O 0.5350(6) 0.8044(7) 0.5627(9) 0.066(3) Uani 1 1 d . . .
O10 O 0.0646(7) 0.3573(10) -0.4244(12) 0.095(3) Uiso 1 1 d . . .
Zn1 Zn 0.96584(6) 1.37526(7) -0.00105(12) 0.0325(3) Uani 1 1 d . . .
Zn2 Zn 0.58883(6) 0.85240(6) 0.11246(11) 0.0285(3) Uani 1 1 d . . .

loop_
_atom_site_aniso_label
_atom_site_aniso_U_11
_atom_site_aniso_U_22
_atom_site_aniso_U_33
_atom_site_aniso_U_23
_atom_site_aniso_U_13
_atom_site_aniso_U_12
C1 0.040(7) 0.029(6) 0.153(16) -0.019(8) 0.064(10) -0.018(5)
C2 0.031(6) 0.038(6) 0.108(11) -0.019(7) 0.049(7) -0.013(5)
C3 0.022(6) 0.067(9) 0.070(9) -0.020(7) 0.018(6) -0.001(6)
C4 0.018(5) 0.055(7) 0.028(5) -0.013(5) 0.006(4) 0.002(4)
C5 0.024(5) 0.037(5) 0.020(5) -0.007(4) 0.012(4) 0.000(4)
C6 0.034(5) 0.042(6) 0.031(5) -0.009(5) 0.019(4) -0.005(5)
C7 0.036(6) 0.068(8) 0.028(6) 0.011(5) 0.017(5) -0.004(5)
C8 0.050(7) 0.043(6) 0.031(6) 0.000(5) 0.015(5) -0.007(5)
C9 0.053(7) 0.044(7) 0.106(11) 0.004(7) 0.065(8) -0.011(6)
C10 0.032(6) 0.047(7) 0.053(7) -0.003(6) 0.025(5) -0.007(5)
C11 0.027(5) 0.048(7) 0.033(6) 0.000(5) 0.015(5) -0.006(5)
C12 0.039(6) 0.040(6) 0.034(6) 0.001(5) 0.024(5) 0.004(5)
C13 0.021(4) 0.019(4) 0.028(5) -0.002(4) 0.004(4) -0.002(4)
C14 0.018(4) 0.023(4) 0.026(5) -0.001(4) 0.003(4) 0.005(3)
C15 0.033(5) 0.024(5) 0.039(6) 0.010(4) 0.020(5) -0.001(4)
C16 0.015(4) 0.039(6) 0.037(6) 0.007(5) 0.002(4) 0.005(4)
C17 0.015(4) 0.037(5) 0.032(5) -0.005(4) 0.012(4) 0.003(4)
C18 0.033(5) 0.034(5) 0.034(6) -0.001(4) 0.016(4) 0.003(4)
C19 0.037(6) 0.039(6) 0.034(6) 0.002(5) 0.013(5) -0.016(4)
C20 0.020(5) 0.042(6) 0.035(6) 0.004(4) 0.008(4) -0.007(4)
C21 0.023(5) 0.035(5) 0.032(6) -0.001(4) 0.006(4) 0.001(4)
C22 0.021(5) 0.031(5) 0.020(5) 0.003(4) 0.010(4) 0.003(4)
C23 0.029(5) 0.022(4) 0.028(5) -0.001(4) 0.011(4) -0.001(4)
C24 0.027(5) 0.025(5) 0.049(6) 0.006(4) 0.013(5) 0.006(4)
C25 0.034(5) 0.036(6) 0.032(5) 0.012(4) 0.015(5) 0.015(4)
C26 0.030(5) 0.032(5) 0.052(7) 0.014(5) 0.018(5) 0.013(4)
C27 0.020(5) 0.034(5) 0.047(6) -0.002(5) 0.019(5) 0.003(4)
C28 0.069(8) 0.051(7) 0.053(7) 0.027(6) 0.039(7) 0.030(6)
C29 0.041(6) 0.067(8) 0.045(7) 0.025(6) 0.028(5) 0.032(6)
C30 0.035(6) 0.031(5) 0.068(8) 0.001(5) 0.035(6) 0.009(4)
C31 0.024(5) 0.039(6) 0.079(9) 0.013(6) 0.028(6) 0.012(4)
C32 0.044(6) 0.025(5) 0.090(9) 0.028(6) 0.037(7) 0.005(5)
C33 0.058(8) 0.045(7) 0.144(14) 0.041(8) 0.081(9) 0.031(6)
C34 0.049(7) 0.033(7) 0.186(17) 0.023(9) 0.072(10) 0.017(6)
C35 0.026(5) 0.036(6) 0.063(8) 0.020(5) 0.024(5) 0.006(4)
C36 0.030(5) 0.041(6) 0.056(7) 0.012(5) 0.026(5) 0.009(4)
C37 0.039(6) 0.071(9) 0.030(6) -0.009(6) 0.009(5) -0.024(6)
C38 0.050(7) 0.092(10) 0.024(6) -0.017(6) 0.019(5) -0.041(7)
C39 0.034(6) 0.048(7) 0.024(5) -0.003(5) 0.011(5) -0.009(5)
C40 0.028(5) 0.036(6) 0.030(5) -0.003(4) 0.008(4) -0.003(4)
C41 0.015(4) 0.030(5) 0.039(6) 0.004(4) 0.007(4) -0.001(4)
C42 0.039(7) 0.056(8) 0.054(9) -0.011(6) 0.014(7) -0.018(6)
C43 0.038(7) 0.082(10) 0.036(7) 0.009(6) 0.013(5) -0.016(6)
C44 0.023(5) 0.086(10) 0.028(6) 0.009(6) 0.004(5) -0.012(6)
C45 0.020(5) 0.067(8) 0.026(5) 0.013(5) 0.000(4) -0.014(5)
C46 0.026(5) 0.055(7) 0.044(7) 0.010(6) 0.003(5) -0.006(5)
C47 0.034(6) 0.075(9) 0.030(6) 0.010(6) 0.006(5) -0.023(6)
C48 0.058(8) 0.079(10) 0.031(6) 0.000(6) 0.013(6) -0.028(7)
C49 0.037(6) 0.069(8) 0.040(6) -0.006(6) 0.017(5) -0.021(6)
C50 0.146(19) 0.083(14) 0.44(5) -0.13(2) 0.23(3) -0.050(13)
C51 0.051(7) 0.103(12) 0.101(11) -0.063(10) 0.049(8) -0.020(8)
N1 0.026(4) 0.038(5) 0.038(5) 0.011(4) 0.020(4) 0.009(4)
N2 0.030(4) 0.041(5) 0.055(6) 0.016(4) 0.025(4) 0.004(4)
N3 0.040(5) 0.034(5) 0.027(5) 0.002(4) 0.011(4) -0.008(4)
N4 0.028(4) 0.048(6) 0.030(5) 0.010(4) 0.007(4) -0.005(4)
N5 0.040(5) 0.066(7) 0.079(7) -0.037(6) 0.021(5) -0.003(5)
O1 0.050(6) 0.033(5) 0.185(12) 0.041(6) 0.074(7) 0.011(4)
O2 0.137(12) 0.239(19) 0.192(14) -0.174(15) 0.139(12) -0.151(13)
O3 0.030(4) 0.037(4) 0.038(4) 0.009(3) 0.011(3) -0.006(3)
O4 0.042(4) 0.034(4) 0.033(4) 0.006(3) 0.020(3) 0.009(3)
O5 0.028(4) 0.048(4) 0.037(4) 0.006(3) 0.014(3) 0.007(3)
O6 0.022(3) 0.034(4) 0.045(4) 0.010(3) 0.016(3) 0.011(3)
O7 0.027(4) 0.082(7) 0.060(5) 0.034(5) 0.007(4) 0.003(4)
O8 0.034(4) 0.062(6) 0.062(6) 0.036(5) 0.004(4) -0.007(4)
O9 0.063(6) 0.094(7) 0.058(6) -0.005(5) 0.044(5) -0.014(5)
Zn1 0.0229(5) 0.0262(6) 0.0381(6) 0.0054(5) 0.0093(5) 0.0010(4)
Zn2 0.0231(5) 0.0274(6) 0.0280(6) 0.0024(4) 0.0090(4) 0.0045(4)

_geom_special_details            
;
All esds (except the esd in the dihedral angle between two l.s. planes)
are estimated using the full covariance matrix. The cell esds are taken
into account individually in the estimation of esds in distances, angles
and torsion angles; correlations between esds in 