
#######################################################################
#
#                 Cambridge Crystallographic Data Centre
#                                CCDC
#
#######################################################################
#
# If this CIF has been generated from an entry in the Cambridge
# Structural Database, then it will include bibliographic, chemical,
# crystal, experimental, refinement or atomic coordinate data resulting
# from the CCDC's data processing and validation procedures.
#
#######################################################################

data_CSD_CIF_XADQUP
_audit_creation_date 2005-01-11
_audit_creation_method CSD-ConQuest-V1
_database_code_CSD XADQUP
_database_code_depnum_ccdc_archive 'CCDC 234058'
_chemical_formula_sum 'C28 H20 N4 Ni1'
_chemical_formula_moiety
;
C28 H20 N4 Ni1
;
_journal_coden_Cambridge 644
_journal_volume 59
_journal_year 2004
_journal_page_first 850
_journal_name_full 'Z.Naturforsch.,B:Chem.Sci. '
loop_
_publ_author_name
"F.E.Hahn"
"M.Munder"
"R.Frohlich"
_chemical_name_systematic
;
tetrakis(Phenylisocyanido)-nickel(0)
;
_chemical_name_common
;
Teaching Subset: Fundamental Chemistry, Symmetry
;
_cell_volume   1148.977
_exptl_crystal_colour 'yellow'
_exptl_crystal_density_diffrn 1.362
_exptl_crystal_description 'needle'
_diffrn_ambient_temperature 198
_diffrn_special_details
;
refined as a racemic twin with component contributions of 0.50

;
#These two values have been output from a single CSD field.
_refine_ls_R_factor_gt 0.0513
_refine_ls_wR_factor_gt 0.0513
_symmetry_cell_setting tetragonal
_symmetry_space_group_name_H-M 'I -4'
_symmetry_Int_Tables_number 82
loop_
_symmetry_equiv_pos_site_id
_symmetry_equiv_pos_as_xyz
1 x,y,z
2 -x,-y,z
3 y,-x,-z
4 -y,x,-z
5 1/2+x,1/2+y,1/2+z
6 1/2-x,1/2-y,1/2+z
7 1/2+y,1/2-x,1/2-z
8 1/2-y,1/2+x,1/2-z
_cell_length_a 12.575(2)
_cell_length_b 12.575(2)
_cell_length_c 7.266(1)
_cell_angle_alpha 90
_cell_angle_beta 90
_cell_angle_gamma 90
_cell_formula_units_Z 2
loop_
_atom_type_symbol
_atom_type_radius_bond
C 0.68
H 0.23
N 0.68
Ni 1.50
loop_
_atom_site_label
_atom_site_type_symbol
_atom_site_fract_x
_atom_site_fract_y
_atom_site_fract_z
Ni1 Ni 0.00000 0.00000 0.00000
C1 C 0.0445(3) 0.1069(3) 0.1521(4)
N1 N 0.0691(2) 0.1736(2) 0.2542(4)
C2 C 0.0985(3) 0.2367(3) 0.4024(5)
C3 C 0.1175(3) 0.3445(3) 0.3770(5)
H1 H 0.11050 0.37560 0.25850
C4 C 0.1466(3) 0.4055(3) 0.5248(7)
H2 H 0.15990 0.47930 0.50840
C5 C 0.1568(3) 0.3608(3) 0.6978(5)
H3 H 0.17770 0.40360 0.79920
C6 C 0.1366(3) 0.2541(3) 0.7229(5)
H4 H 0.14370 0.22290 0.84130
C7 C 0.1058(4) 0.1931(3) 0.5744(5)
H5 H 0.08970 0.12000 0.59170
C1A C -0.0445(3) -0.1069(3) 0.1521(4)
N1A N -0.0691(2) -0.1736(2) 0.2542(4)
C2A C -0.0985(3) -0.2367(3) 0.4024(5)
C3A C -0.1175(3) -0.3445(3) 0.3770(5)
H1A H -0.11050 -0.37560 0.25850
C4A C -0.1466(3) -0.4055(3) 0.5248(7)
H2A H -0.15990 -0.47930 0.50840
C5A C -0.1568(3) -0.3608(3) 0.6978(5)
H3A H -0.17770 -0.40360 0.79920
C6A C -0.1366(3) -0.2541(3) 0.7229(5)
H4A H -0.14370 -0.22290 0.84130
C7A C -0.1058(4) -0.1931(3) 0.5744(5)
H5A H -0.08970 -0.12000 0.59170
C1B C 0.1069(3) -0.0445(3) -0.1521(4)
N1B N 0.1736(2) -0.0691(2) -0.2542(4)
C2B C 0.2367(3) -0.0985(3) -0.4024(5)
C3B C 0.3445(3) -0.1175(3) -0.3770(5)
H1B H 0.37560 -0.11050 -0.25850
C4B C 0.4055(3) -0.1466(3) -0.5248(7)
H2B H 0.47930 -0.15990 -0.50840
C5B C 0.3608(3) -0.1568(3) -0.6978(5)
H3B H 0.40360 -0.17770 -0.79920
C6B C 0.2541(3) -0.1366(3) -0.7229(5)
H4B H 0.22290 -0.14370 -0.84130
C7B C 0.1931(4) -0.1058(3) -0.5744(5)
H5B H 0.12000 -0.08970 -0.59170
C1C C -0.1069(3) 0.0445(3) -0.1521(4)
N1C N -0.1736(2) 0.0691(2) -0.2542(4)
C2C C -0.2367(3) 0.0985(3) -0.4024(5)
C3C C -0.3445(3) 0.1175(3) -0.3770(5)
H1C H -0.37560 0.11050 -0.25850
C4C C -0.4055(3) 0.1466(3) -0.5248(7)
H2C H -0.47930 0.15990 -0.50840
C5C C -0.3608(3) 0.1568(3) -0.6978(5)
H3C H -0.40360 0.17770 -0.79920
C6C C -0.2541(3) 0.1366(3) -0.7229(5)
H4C H -0.22290 0.14370 -0.84130
C7C C -0.1931(4) 0.1058(3) -0.5744(5)
H5C H -0.12000 0.08970 -0.59170
#END
