####################################################################### 
# 
# This file contains crystal structure data downloaded from the 
# Cambridge Structural Database (CSD) hosted by the Cambridge 
# Crystallographic Data Centre (CCDC).
# 
# Full information about CCDC data access policies and citation 
# guidelines are available at http://www.ccdc.cam.ac.uk/access/V1 
# 
# Audit and citation data items may have been added by the CCDC. 
# Please retain this information to preserve the provenance of 
# this file and to allow appropriate attribution of the data. 
# 
#######################################################################

data_3
_audit_block_doi                 10.5517/ccv279f
_database_code_depnum_ccdc_archive 'CCDC 776714'
loop_
_citation_id
_citation_doi
_citation_year
1 10.1002/ejic.201000535 2010
_audit_update_record             
;
2010-05-11 deposited with the CCDC.	2024-07-13 downloaded from the CCDC.
;
#TrackingRef '3.CIF'


_audit_creation_method           SHELXL-97
_chemical_name_systematic        
;
?
;
_chemical_name_common            ?
_chemical_melting_point          ?
_chemical_formula_moiety         ?
_chemical_formula_sum            'C36 H33 Bi2 N4 O15'
_chemical_formula_weight         1179.62

loop_
_atom_type_symbol
_atom_type_description
_atom_type_scat_dispersion_real
_atom_type_scat_dispersion_imag
_atom_type_scat_source
C C 0.0033 0.0016 'International Tables Vol C Tables 4.2.6.8 and 6.1.1.4'
H H 0.0000 0.0000 'International Tables Vol C Tables 4.2.6.8 and 6.1.1.4'
N N 0.0061 0.0033 'International Tables Vol C Tables 4.2.6.8 and 6.1.1.4'
O O 0.0106 0.0060 'International Tables Vol C Tables 4.2.6.8 and 6.1.1.4'
Bi Bi -4.1077 10.2566 'International Tables Vol C Tables 4.2.6.8 and 6.1.1.4'

_symmetry_cell_setting           Triclinic
_symmetry_space_group_name_H-M   P-1


loop_
_symmetry_equiv_pos_as_xyz
'x, y, z'
'-x, -y, -z'

_cell_length_a                   13.6855(3)
_cell_length_b                   13.7530(3)
_cell_length_c                   15.3046(3)
_cell_angle_alpha                73.0350(10)
_cell_angle_beta                 75.0470(10)
_cell_angle_gamma                82.0480(10)
_cell_volume                     2655.73(10)
_cell_formula_units_Z            2
_cell_measurement_temperature    120(2)
_cell_measurement_reflns_used    82942
_cell_measurement_theta_min      2.91
_cell_measurement_theta_max      27.48


_exptl_crystal_description       Block
_exptl_crystal_colour            Colourless
_exptl_crystal_size_max          0.24
_exptl_crystal_size_mid          0.18
_exptl_crystal_size_min          0.08
_exptl_crystal_density_meas      ?
_exptl_crystal_density_diffrn    1.475
_exptl_crystal_density_method    'not measured'
_exptl_crystal_F_000             1126
_exptl_absorpt_coefficient_mu    6.672
_exptl_absorpt_correction_type   empirical
_exptl_absorpt_correction_T_min  0.4994
_exptl_absorpt_correction_T_max  0.7456
_exptl_absorpt_process_details   'SADABS 2007/2 (Sheldrick, G.M., 2007)'


_exptl_special_details           
;
?
;

_diffrn_ambient_temperature      120(2)
_diffrn_radiation_wavelength     0.71073
_diffrn_radiation_type           MoK\a
_diffrn_radiation_source         'Bruker-Nonius FR591 rotating anode'
_diffrn_radiation_monochromator  graphite
_diffrn_measurement_device_type  
'Bruker-Nonius Roper CCD camera on \k-goniostat'
_diffrn_measurement_method       '\f & \w scans'
_diffrn_detector_area_resol_mean 9.091
_diffrn_standards_number         ?
_diffrn_standards_interval_count ?
_diffrn_standards_interval_time  ?
_diffrn_standards_decay_%        ?
_diffrn_reflns_number            62588
_diffrn_reflns_av_R_equivalents  0.0608
_diffrn_reflns_av_sigmaI/netI    0.0510
_diffrn_reflns_limit_h_min       -17
_diffrn_reflns_limit_h_max       17
_diffrn_reflns_limit_k_min       -17
_diffrn_reflns_limit_k_max       17
_diffrn_reflns_limit_l_min       -19
_diffrn_reflns_limit_l_max       19
_diffrn_reflns_theta_min         3.05
_diffrn_reflns_theta_max         27.54
_reflns_number_total             12184
_reflns_number_gt                9538
_reflns_threshold_expression     >2sigma(I)

_computing_data_collection       'COLLECT (Hooft, R.W.W., 1998)'
_computing_cell_refinement       
'DENZO (Otwinowski & Minor, 1997) & COLLECT (Hooft, R.W.W., 1998)'
#Although determined using DirAx, the cell is refined in the HKL
#package during data reduction
_computing_data_reduction        
'DENZO (Otwinowski & Minor, 1997) & COLLECT (Hooft, R.W.W., 1998)'
_computing_structure_solution    'SHELXL-97 (Sheldrick, 1997)'
_computing_structure_refinement  'SHELXL-97 (Sheldrick, 1997)'
_computing_molecular_graphics    ?
_computing_publication_material  ?



_refine_special_details          
;
Refinement of F^2^ against ALL reflections. The weighted R-factor wR and
goodness of fit S are based on F^2^, conventional R-factors R are based
on F, with F set to zero for negative F^2^. The threshold expression of
F^2^ > 2sigma(F^2^) is used only for calculating R-factors(gt) etc. and is
not relevant to the choice of reflections for refinement. R-factors based
on F^2^ are statistically about twice as large as those based on F, and R-
factors based on ALL data will be even larger.
;

_refine_ls_structure_factor_coef Fsqd
_refine_ls_matrix_type           full
_refine_ls_weighting_scheme      calc
_refine_ls_weighting_details     
'calc w=1/[\s^2^(Fo^2^)+(0.0643P)^2^+26.7687P] where P=(Fo^2^+2Fc^2^)/3'
_atom_sites_solution_primary     direct
_atom_sites_solution_secondary   difmap
_atom_sites_solution_hydrogens   geom
_refine_ls_hydrogen_treatment    constr
_refine_ls_extinction_method     SHELXL
_refine_ls_extinction_coef       0.00053(18)
_refine_ls_extinction_expression Fc^*^=kFc[1+0.001xFc^2^\l^3^/sin(2\q)]^-1/4^
_refine_ls_number_reflns         12184
_refine_ls_number_parameters     507
_refine_ls_number_restraints     0
_refine_ls_R_factor_all          0.0668
_refine_ls_R_factor_gt           0.0481
_refine_ls_wR_factor_ref         0.1377
_refine_ls_wR_factor_gt          0.1282
_refine_ls_goodness_of_fit_ref   1.037
_refine_ls_restrained_S_all      1.037
_refine_ls_shift/su_max          0.002
_refine_ls_shift/su_mean         0.000

loop_
_atom_site_label
_atom_site_type_symbol
_atom_site_fract_x
_atom_site_fract_y
_atom_site_fract_z
_atom_site_U_iso_or_equiv
_atom_site_adp_type
_atom_site_occupancy
_atom_site_symmetry_multiplicity
_atom_site_calc_flag
_atom_site_refinement_flags
_atom_site_disorder_assembly
_atom_site_disorder_group
C1 C 0.0345(6) 0.7823(6) 0.3651(5) 0.0227(16) Uani 1 1 d . . .
C2 C -0.0279(6) 0.8434(6) 0.4280(5) 0.0251(16) Uani 1 1 d . . .
C3 C -0.1077(6) 0.9113(7) 0.3994(6) 0.036(2) Uani 1 1 d . . .
H3 H -0.1233 0.9152 0.3428 0.043 Uiso 1 1 calc R . .
C4 C -0.1622(7) 0.9717(8) 0.4545(7) 0.039(2) Uani 1 1 d . . .
H4 H -0.2139 1.0172 0.4345 0.047 Uiso 1 1 calc R . .
C5 C -0.0086(6) 0.8364(6) 0.5154(6) 0.0277(17) Uani 1 1 d . . .
H5 H 0.0427 0.7905 0.5360 0.033 Uiso 1 1 calc R . .
C6 C -0.0642(6) 0.8963(6) 0.5706(6) 0.0291(18) Uani 1 1 d . . .
H6 H -0.0507 0.8908 0.6285 0.035 Uiso 1 1 calc R . .
C7 C -0.1414(6) 0.9659(6) 0.5402(6) 0.0283(17) Uani 1 1 d . . .
C8 C -0.1958(6) 1.0371(6) 0.5968(6) 0.0271(17) Uani 1 1 d . . .
C11 C 0.3103(6) 0.5434(6) 0.3225(6) 0.0260(17) Uani 1 1 d . . .
C12 C 0.3899(6) 0.4785(6) 0.3692(6) 0.0258(17) Uani 1 1 d . . .
C13 C 0.4850(6) 0.5127(7) 0.3522(6) 0.0290(18) Uani 1 1 d . . .
H13 H 0.5019 0.5737 0.3073 0.035 Uiso 1 1 calc R . .
C14 C 0.5549(6) 0.4572(7) 0.4011(6) 0.0295(18) Uani 1 1 d . . .
H14 H 0.6192 0.4802 0.3885 0.035 Uiso 1 1 calc R . .
C15 C 0.3649(6) 0.3852(6) 0.4328(6) 0.0301(18) Uani 1 1 d . . .
H15 H 0.3026 0.3598 0.4411 0.036 Uiso 1 1 calc R . .
C16 C 0.4350(6) 0.3302(6) 0.4837(6) 0.0307(18) Uani 1 1 d . . .
H16 H 0.4187 0.2686 0.5278 0.037 Uiso 1 1 calc R . .
C17 C -0.4705(6) 1.3668(6) 0.4691(6) 0.0247(16) Uani 1 1 d . . .
C18 C -0.3989(6) 1.3118(6) 0.5307(6) 0.0258(17) Uani 1 1 d . . .
C21 C -0.4659(6) 1.0925(6) 0.8100(6) 0.0259(17) Uani 1 1 d . . .
C22 C -0.5413(6) 1.0247(7) 0.8808(5) 0.0273(17) Uani 1 1 d . . .
C23 C -0.6023(6) 1.0564(7) 0.9560(6) 0.0285(18) Uani 1 1 d . . .
H23 H -0.6007 1.1224 0.9596 0.034 Uiso 1 1 calc R . .
C24 C -0.6660(6) 0.9895(7) 1.0260(6) 0.0294(18) Uani 1 1 d . . .
H24 H -0.7058 1.0103 1.0774 0.035 Uiso 1 1 calc R . .
C25 C -0.5465(8) 0.9284(8) 0.8736(7) 0.045(2) Uani 1 1 d . . .
H25 H -0.5060 0.9079 0.8223 0.053 Uiso 1 1 calc R . .
C26 C -0.6120(8) 0.8611(8) 0.9427(7) 0.047(3) Uani 1 1 d . . .
H26 H -0.6163 0.7964 0.9370 0.056 Uiso 1 1 calc R . .
C27 C -0.6705(6) 0.8917(7) 1.0199(6) 0.0305(19) Uani 1 1 d . . .
C28 C -0.7369(6) 0.8166(7) 1.0972(6) 0.0309(19) Uani 1 1 d . . .
C31 C 0.0736(6) 0.5834(6) 0.1207(6) 0.0287(18) Uani 1 1 d . . .
C32 C 0.0370(7) 0.5403(7) 0.0582(6) 0.035(2) Uani 1 1 d . . .
C33 C 0.0862(8) 0.4534(8) 0.0328(8) 0.047(3) Uani 1 1 d . . .
H33 H 0.1432 0.4223 0.0548 0.056 Uiso 1 1 calc R . .
C34 C -0.0499(8) 0.5867(8) 0.0255(8) 0.049(3) Uani 1 1 d . . .
H34 H -0.0831 0.6443 0.0429 0.059 Uiso 1 1 calc R . .
C41 C 0.0058(6) 0.4645(6) 0.4056(5) 0.0251(16) Uani 1 1 d . . .
H41 H 0.0649 0.4254 0.4160 0.030 Uiso 1 1 calc R . .
C42 C -0.0998(6) 0.5845(7) 0.3516(7) 0.039(2) Uani 1 1 d . . .
H42 H -0.1258 0.6451 0.3165 0.047 Uiso 1 1 calc R . .
C43 C -0.1561(7) 0.5114(7) 0.4166(7) 0.039(2) Uani 1 1 d . . .
H43 H -0.2265 0.5124 0.4347 0.047 Uiso 1 1 calc R . .
C51 C 0.0024(14) 0.9769(14) 0.9631(12) 0.096(5) Uiso 1 1 d . . .
C52A C -0.0331(18) 0.9614(18) 0.8344(16) 0.053(5) Uiso 0.50 1 d P . .
C52B C 0.0382(18) 0.8711(18) 0.8569(17) 0.055(6) Uiso 0.50 1 d P . .
C61 C 0.8161(14) 0.8410(15) 0.1552(13) 0.037(4) Uiso 0.50 1 d P . .
H61A H 0.8755 0.8089 0.1770 0.056 Uiso 0.50 1 calc PR . .
H61B H 0.8176 0.9136 0.1405 0.056 Uiso 0.50 1 calc PR . .
H61C H 0.8146 0.8219 0.1001 0.056 Uiso 0.50 1 calc PR . .
C62 C 0.686(2) 0.867(2) 0.2830(18) 0.066(7) Uiso 0.50 1 d P . .
H62A H 0.6152 0.8798 0.2835 0.099 Uiso 0.50 1 calc PR . .
H62B H 0.7172 0.9312 0.2621 0.099 Uiso 0.50 1 calc PR . .
H62C H 0.6942 0.8328 0.3453 0.099 Uiso 0.50 1 calc PR . .
C63 C 0.6815(19) 0.7319(19) 0.2426(18) 0.058(6) Uiso 0.50 1 d P . .
H63 H 0.6311 0.7105 0.2966 0.070 Uiso 0.50 1 calc PR . .
C71 C 0.651(3) 0.817(3) 0.695(3) 0.113(12) Uiso 0.50 1 d P . .
H71A H 0.6956 0.8198 0.6350 0.170 Uiso 0.50 1 calc PR . .
H71B H 0.6314 0.8857 0.7006 0.170 Uiso 0.50 1 calc PR . .
H71C H 0.5924 0.7830 0.7025 0.170 Uiso 0.50 1 calc PR . .
C72 C 0.771(3) 0.689(3) 0.744(3) 0.106(11) Uiso 0.50 1 d P . .
H72A H 0.8356 0.6922 0.7560 0.159 Uiso 0.50 1 calc PR . .
H72B H 0.7780 0.7000 0.6777 0.159 Uiso 0.50 1 calc PR . .
H72C H 0.7454 0.6236 0.7769 0.159 Uiso 0.50 1 calc PR . .
C73 C 0.729(2) 0.814(3) 0.822(2) 0.078(8) Uiso 0.50 1 d P . .
H73 H 0.7016 0.8810 0.8163 0.094 Uiso 0.50 1 calc PR . .
N1 N 0.0032(5) 0.5556(5) 0.3451(5) 0.0260(15) Uani 1 1 d . . .
N2 N -0.0886(5) 0.4358(5) 0.4501(5) 0.0275(15) Uani 1 1 d . . .
H2 H -0.1037 0.3797 0.4923 0.033 Uiso 1 1 calc R . .
N3A N -0.0465(18) 1.0091(18) 0.8829(17) 0.073(6) Uiso 0.50 1 d P . .
N3B N 0.063(2) 0.871(2) 0.947(2) 0.103(9) Uiso 0.50 1 d P . .
N4 N 0.7302(12) 0.8098(12) 0.2249(11) 0.037(3) Uiso 0.50 1 d P . .
N5 N 0.707(3) 0.760(3) 0.772(2) 0.120(11) Uiso 0.50 1 d P . .
O1 O 0.0093(4) 0.7844(4) 0.2914(4) 0.0267(12) Uani 1 1 d . . .
O2 O 0.1130(4) 0.7290(4) 0.3888(4) 0.0235(11) Uani 1 1 d . . .
O3 O -0.2593(4) 1.1052(5) 0.5611(4) 0.0296(13) Uani 1 1 d . . .
O11 O 0.3296(4) 0.6322(4) 0.2725(4) 0.0307(13) Uani 1 1 d . . .
O12 O 0.2267(4) 0.5067(4) 0.3345(4) 0.0331(14) Uani 1 1 d . . .
O13 O -0.3115(4) 1.3375(4) 0.5166(4) 0.0287(12) Uani 1 1 d . . .
O14 O -0.4365(4) 1.2397(4) 0.6028(4) 0.0292(13) Uani 1 1 d . . .
O21 O -0.4632(4) 1.1823(4) 0.8102(4) 0.0310(13) Uani 1 1 d . . .
O22 O -0.4013(4) 1.0552(5) 0.7488(4) 0.0309(13) Uani 1 1 d . . .
O23 O 0.2282(4) 0.8376(5) 0.1749(4) 0.0308(13) Uani 1 1 d . . .
O24 O 0.2449(6) 0.7368(6) 0.0834(5) 0.051(2) Uani 1 1 d . . .
O31 O 0.1476(5) 0.5351(5) 0.1554(4) 0.0353(14) Uani 1 1 d . . .
O32 O 0.0326(4) 0.6644(5) 0.1398(4) 0.0303(13) Uani 1 1 d . . .
O41 O 0.709(3) 0.688(3) 0.180(3) 0.165(13) Uiso 0.50 1 d P . .
O51 O 0.776(2) 0.783(2) 0.868(2) 0.133(10) Uiso 0.50 1 d P . .
04 O -0.1782(4) 1.0326(5) 0.6741(4) 0.0310(13) Uani 1 1 d . . .
Bi1 Bi 0.14235(2) 0.65517(2) 0.241778(19) 0.02074(10) Uani 1 1 d . . .
Bi2 Bi -0.30676(2) 1.19022(2) 0.675529(19) 0.02130(10) Uani 1 1 d . . .

loop_
_atom_site_aniso_label
_atom_site_aniso_U_11
_atom_site_aniso_U_22
_atom_site_aniso_U_33
_atom_site_aniso_U_23
_atom_site_aniso_U_13
_atom_site_aniso_U_12
C1 0.020(4) 0.024(4) 0.023(4) -0.002(3) -0.006(3) -0.004(3)
C2 0.022(4) 0.029(4) 0.024(4) -0.005(3) -0.004(3) -0.006(3)
C3 0.029(4) 0.050(6) 0.036(5) -0.020(4) -0.019(4) 0.012(4)
C4 0.034(5) 0.051(6) 0.044(5) -0.026(5) -0.024(4) 0.014(4)
C5 0.025(4) 0.029(4) 0.030(4) -0.007(3) -0.012(3) 0.002(3)
C6 0.028(4) 0.030(4) 0.031(4) -0.010(4) -0.009(3) -0.001(3)
C7 0.023(4) 0.029(4) 0.035(4) -0.011(4) -0.008(3) -0.001(3)
C8 0.020(4) 0.030(4) 0.032(4) -0.011(3) -0.003(3) -0.002(3)
C11 0.025(4) 0.028(4) 0.030(4) -0.009(3) -0.013(3) -0.002(3)
C12 0.023(4) 0.030(4) 0.027(4) -0.007(3) -0.013(3) 0.001(3)
C13 0.022(4) 0.032(4) 0.029(4) 0.001(3) -0.006(3) -0.004(3)
C14 0.020(4) 0.037(5) 0.030(4) -0.003(4) -0.008(3) -0.006(3)
C15 0.026(4) 0.025(4) 0.040(5) -0.003(4) -0.013(4) -0.004(3)
C16 0.031(4) 0.024(4) 0.037(5) -0.002(4) -0.014(4) -0.004(3)
C17 0.025(4) 0.022(4) 0.028(4) -0.007(3) -0.008(3) 0.001(3)
C18 0.021(4) 0.029(4) 0.030(4) -0.007(3) -0.014(3) 0.006(3)
C21 0.020(4) 0.031(4) 0.025(4) -0.001(3) -0.007(3) -0.009(3)
C22 0.024(4) 0.038(5) 0.018(4) -0.004(3) -0.001(3) -0.010(3)
C23 0.027(4) 0.031(4) 0.027(4) -0.002(3) -0.009(3) -0.007(3)
C24 0.023(4) 0.034(5) 0.027(4) 0.001(3) -0.008(3) -0.003(3)
C25 0.044(5) 0.060(7) 0.029(5) -0.015(5) 0.008(4) -0.023(5)
C26 0.062(7) 0.043(6) 0.035(5) -0.014(4) 0.003(5) -0.025(5)
C27 0.028(4) 0.047(5) 0.020(4) -0.007(4) -0.007(3) -0.011(4)
C28 0.031(4) 0.037(5) 0.025(4) -0.002(4) -0.011(3) -0.012(4)
C31 0.032(4) 0.028(4) 0.028(4) -0.006(3) -0.012(3) -0.003(3)
C32 0.038(5) 0.043(5) 0.031(4) -0.014(4) -0.019(4) -0.002(4)
C33 0.043(6) 0.054(6) 0.058(6) -0.029(5) -0.030(5) 0.012(5)
C34 0.050(6) 0.047(6) 0.069(7) -0.035(6) -0.033(6) 0.015(5)
C41 0.028(4) 0.028(4) 0.021(4) -0.004(3) -0.006(3) -0.007(3)
C42 0.022(4) 0.037(5) 0.050(6) 0.003(4) -0.015(4) 0.000(4)
C43 0.025(4) 0.046(6) 0.043(5) -0.004(4) -0.009(4) -0.010(4)
N1 0.019(3) 0.026(3) 0.030(4) 0.001(3) -0.009(3) -0.003(3)
N2 0.031(4) 0.027(4) 0.025(3) -0.003(3) -0.009(3) -0.005(3)
O1 0.026(3) 0.029(3) 0.029(3) -0.011(2) -0.012(2) 0.002(2)
O2 0.021(3) 0.024(3) 0.023(3) -0.004(2) -0.005(2) -0.001(2)
O3 0.025(3) 0.036(3) 0.028(3) -0.011(3) -0.006(2) 0.002(2)
O11 0.028(3) 0.026(3) 0.038(3) -0.003(3) -0.012(3) -0.004(2)
O12 0.026(3) 0.029(3) 0.043(4) -0.001(3) -0.014(3) -0.007(2)
O13 0.021(3) 0.030(3) 0.033(3) -0.003(2) -0.010(2) 0.000(2)
O14 0.020(3) 0.035(3) 0.030(3) -0.001(3) -0.009(2) -0.003(2)
O21 0.025(3) 0.032(3) 0.032(3) -0.004(3) -0.006(2) -0.001(2)
O22 0.027(3) 0.037(3) 0.025(3) -0.002(3) -0.004(2) -0.006(2)
O23 0.025(3) 0.034(3) 0.029(3) 0.000(3) -0.005(2) -0.004(2)
O24 0.062(5) 0.057(5) 0.042(4) -0.019(3) 0.004(3) -0.045(4)
O31 0.034(3) 0.038(4) 0.042(4) -0.016(3) -0.021(3) 0.005(3)
O32 0.029(3) 0.036(3) 0.030(3) -0.011(3) -0.014(2) 0.003(3)
04 0.029(3) 0.035(3) 0.030(3) -0.011(3) -0.008(2) 0.000(2)
Bi1 0.01923(15) 0.02329(17) 0.02081(16) -0.00425(11) -0.00744(11) -0.00330(11)
Bi2 0.01761(15) 0.02411(17) 0.02142(16) -0.00337(11) -0.00548(11) -0.00294(11)

_geom_special_details            
;
All esds (except the esd in the dihedral angle between two l.s. planes)
are estimated using the full covariance matrix. The cell esds are taken
into account individually in the estimation of esds in distances, angles
and torsion angles; correlations between esds in cell parameters are only
used when they are defined by crystal symmetry. An approximate (isotropic)
treatment of cell esds is used for estimating esds involving l.s. planes.
;

loop_
_geom_bond_atom_site_label_1
_geom_bond_atom_site_label_2
_geom_bond_distance
_geom_bond_site_symmetry_2
_geom_bond_publ_flag
C1 O1 1.254(9) . ?
C1 O2 1.284(9) . ?
C1 C2 1.487(11) . ?
C2 C5 1.402(11) . ?
C2 C3 1.408(11) . ?
C3 C4 1.368(13) . ?
C4 C7 1.390(12) . ?
C5 C6 1.369(12) . ?
C6 C7 1.401(11) . ?
C7 C8 1.491(12) . ?
C8 04 1.250(10) . ?
C8 O3 1.285(10) . ?
C8 Bi2 2.801(8) . ?
C11 O11 1.260(10) . ?
C11 O12 1.263(9) . ?
C11 C12 1.502(10) . ?
C12 C13 1.381(11) . ?
C12 C15 1.390(11) . ?
C13 C14 1.376(11) . ?
C14 C17 1.388(11) 1_645 ?
C15 C16 1.393(11) . ?
C16 C17 1.393(11) 1_645 ?
C17 C14 1.388(11) 1_465 ?
C17 C16 1.393(11) 1_465 ?
C17 C18 1.509(10) . ?
C18 O13 1.242(9) . ?
C18 O14 1.294(10) . ?
C18 Bi2 2.828(7) . ?
C21 O21 1.242(10) . ?
C21 O22 1.284(10) . ?
C21 C22 1.486(11) . ?
C21 Bi2 2.769(8) . ?
C22 C25 1.373(14) . ?
C22 C23 1.381(12) . ?
C23 C24 1.385(11) . ?
C24 C27 1.386(13) . ?
C25 C26 1.395(13) . ?
C26 C27 1.386(13) . ?
C27 C28 1.511(12) . ?
C28 O24 1.245(11) 1_456 ?
C28 O23 1.263(11) 1_456 ?
C31 O32 1.255(10) . ?
C31 O31 1.279(10) . ?
C31 C32 1.476(11) . ?
C31 Bi1 2.742(8) . ?
C32 C33 1.395(14) . ?
C32 C34 1.407(13) . ?
C33 C34 1.393(13) 2_565 ?
C34 C33 1.393(13) 2_565 ?
C41 N1 1.326(10) . ?
C41 N2 1.349(10) . ?
C42 C43 1.353(13) . ?
C42 N1 1.397(10) . ?
C43 N2 1.366(11) . ?
C51 C51 1.43(3) 2_577 ?
C51 N3A 1.48(3) . ?
C51 N3B 1.62(3) . ?
C52A N3A 1.09(3) . ?
C52A C52B 1.48(3) . ?
C52B N3B 1.51(4) . ?
C61 