####################################################################### 
# 
# This file contains crystal structure data downloaded from the 
# Cambridge Structural Database (CSD) hosted by the Cambridge 
# Crystallographic Data Centre (CCDC).
# 
# Full information about CCDC data access policies and citation 
# guidelines are available at http://www.ccdc.cam.ac.uk/access/V1 
# 
# Audit and citation data items may have been added by the CCDC. 
# Please retain this information to preserve the provenance of 
# this file and to allow appropriate attribution of the data. 
# 
#######################################################################

data_1
_audit_block_doi                 10.5517/ccv277c
_database_code_depnum_ccdc_archive 'CCDC 776712'
loop_
_citation_id
_citation_doi
_citation_year
1 10.1002/ejic.201000535 2010
_audit_update_record             
;
2010-05-11 deposited with the CCDC.	2024-07-13 downloaded from the CCDC.
;
#TrackingRef '1.CIF'


_audit_creation_method           SHELXL-97
_chemical_name_systematic        
;
?
;
_chemical_name_common            ?
_chemical_melting_point          ?
_chemical_formula_moiety         ?
_chemical_formula_sum            'C27 H37 Bi N4 O11'
_chemical_formula_weight         802.59

loop_
_atom_type_symbol
_atom_type_description
_atom_type_scat_dispersion_real
_atom_type_scat_dispersion_imag
_atom_type_scat_source
C C 0.0033 0.0016 'International Tables Vol C Tables 4.2.6.8 and 6.1.1.4'
H H 0.0000 0.0000 'International Tables Vol C Tables 4.2.6.8 and 6.1.1.4'
N N 0.0061 0.0033 'International Tables Vol C Tables 4.2.6.8 and 6.1.1.4'
O O 0.0106 0.0060 'International Tables Vol C Tables 4.2.6.8 and 6.1.1.4'
Bi Bi -4.1077 10.2566 'International Tables Vol C Tables 4.2.6.8 and 6.1.1.4'

_symmetry_cell_setting           Triclinic
_symmetry_space_group_name_H-M   P-1


loop_
_symmetry_equiv_pos_as_xyz
'x, y, z'
'-x, -y, -z'

_cell_length_a                   9.1381(1)
_cell_length_b                   10.0961(2)
_cell_length_c                   18.7143(3)
_cell_angle_alpha                99.5467(11)
_cell_angle_beta                 101.9611(10)
_cell_angle_gamma                105.9549(11)
_cell_volume                     1577.79(05)
_cell_formula_units_Z            2
_cell_measurement_temperature    120(2)
_cell_measurement_reflns_used    57514
_cell_measurement_theta_min      2.91
_cell_measurement_theta_max      27.48

_exptl_crystal_description       Block
_exptl_crystal_colour            Colourless
_exptl_crystal_size_max          0.11
_exptl_crystal_size_mid          0.07
_exptl_crystal_size_min          0.05
_exptl_crystal_density_meas      ?
_exptl_crystal_density_diffrn    1.689
_exptl_crystal_density_method    'not measured'
_exptl_crystal_F_000             796
_exptl_absorpt_coefficient_mu    5.650
_exptl_absorpt_correction_type   empirical
_exptl_absorpt_correction_T_min  0.597
_exptl_absorpt_correction_T_max  0.754
_exptl_absorpt_process_details   'SADABS 2007/2 (Sheldrick, G.M., 2007)'


_exptl_special_details           
;
?
;

_diffrn_ambient_temperature      120(2)
_diffrn_radiation_wavelength     0.71073
_diffrn_radiation_type           MoK\a
_diffrn_radiation_source         'Bruker-Nonius FR591 rotating anode'
_diffrn_radiation_monochromator  graphite
_diffrn_measurement_device_type  
'Bruker-Nonius Roper CCD camera on \k-goniostat'
_diffrn_measurement_method       '\f & \w scans'
_diffrn_detector_area_resol_mean 9.091
_diffrn_standards_number         ?
_diffrn_standards_interval_count ?
_diffrn_standards_interval_time  ?
_diffrn_standards_decay_%        ?
_diffrn_reflns_number            32736
_diffrn_reflns_av_R_equivalents  0.0460
_diffrn_reflns_av_sigmaI/netI    0.0402
_diffrn_reflns_limit_h_min       -11
_diffrn_reflns_limit_h_max       11
_diffrn_reflns_limit_k_min       -12
_diffrn_reflns_limit_k_max       13
_diffrn_reflns_limit_l_min       -24
_diffrn_reflns_limit_l_max       24
_diffrn_reflns_theta_min         2.93
_diffrn_reflns_theta_max         27.50
_reflns_number_total             7216
_reflns_number_gt                6661
_reflns_threshold_expression     >2sigma(I)

_computing_data_collection       'COLLECT (Hooft, R.W.W., 1998)'
_computing_cell_refinement       
'DENZO (Otwinowski & Minor, 1997) & COLLECT (Hooft, R.W.W., 1998)'
#Although determined using DirAx, the cell is refined in the HKL
#package during data reduction
_computing_data_reduction        
'DENZO (Otwinowski & Minor, 1997) & COLLECT (Hooft, R.W.W., 1998)'
_computing_structure_solution    'SHELXL-97 (Sheldrick, 1997)'
_computing_structure_refinement  'SHELXL-97 (Sheldrick, 1997)'
_computing_molecular_graphics    ?
_computing_publication_material  ?


_refine_special_details          
;
Refinement of F^2^ against ALL reflections. The weighted R-factor wR and
goodness of fit S are based on F^2^, conventional R-factors R are based
on F, with F set to zero for negative F^2^. The threshold expression of
F^2^ > 2sigma(F^2^) is used only for calculating R-factors(gt) etc. and is
not relevant to the choice of reflections for refinement. R-factors based
on F^2^ are statistically about twice as large as those based on F, and R-
factors based on ALL data will be even larger.
;

_refine_ls_structure_factor_coef Fsqd
_refine_ls_matrix_type           full
_refine_ls_weighting_scheme      calc
_refine_ls_weighting_details     
'calc w=1/[\s^2^(Fo^2^)+(0.0000P)^2^+6.6680P] where P=(Fo^2^+2Fc^2^)/3'
_atom_sites_solution_primary     direct
_atom_sites_solution_secondary   difmap
_atom_sites_solution_hydrogens   geom
_refine_ls_hydrogen_treatment    constr
_refine_ls_extinction_method     none
_refine_ls_extinction_coef       ?
_refine_ls_number_reflns         7216
_refine_ls_number_parameters     388
_refine_ls_number_restraints     0
_refine_ls_R_factor_all          0.0367
_refine_ls_R_factor_gt           0.0314
_refine_ls_wR_factor_ref         0.0651
_refine_ls_wR_factor_gt          0.0628
_refine_ls_goodness_of_fit_ref   1.100
_refine_ls_restrained_S_all      1.100
_refine_ls_shift/su_max          0.003
_refine_ls_shift/su_mean         0.000

loop_
_atom_site_label
_atom_site_type_symbol
_atom_site_fract_x
_atom_site_fract_y
_atom_site_fract_z
_atom_site_U_iso_or_equiv
_atom_site_adp_type
_atom_site_occupancy
_atom_site_symmetry_multiplicity
_atom_site_calc_flag
_atom_site_refinement_flags
_atom_site_disorder_assembly
_atom_site_disorder_group
C1 C 0.5763(5) -0.0409(4) 0.8055(2) 0.0183(8) Uani 1 1 d . . .
C2 C 0.4417(5) -0.1676(4) 0.8036(2) 0.0170(8) Uani 1 1 d . . .
C3 C 0.3433(5) -0.1583(4) 0.8507(2) 0.0219(9) Uani 1 1 d . . .
H3 H 0.3602 -0.0726 0.8837 0.026 Uiso 1 1 calc R . .
C4 C 0.4154(5) -0.2962(4) 0.7547(2) 0.0235(9) Uani 1 1 d . . .
H4 H 0.4796 -0.3028 0.7226 0.028 Uiso 1 1 calc R . .
C5 C 0.2945(5) -0.4147(4) 0.7535(2) 0.0234(9) Uani 1 1 d . . .
H5 H 0.2792 -0.5010 0.7214 0.028 Uiso 1 1 calc R . .
C6 C 0.2204(5) -0.2769(4) 0.8484(3) 0.0222(9) Uani 1 1 d . . .
H6 H 0.1540 -0.2701 0.8794 0.027 Uiso 1 1 calc R . .
C7 C 0.1958(4) -0.4055(4) 0.8001(2) 0.0160(8) Uani 1 1 d . . .
C8 C 0.0691(5) -0.5386(4) 0.7999(2) 0.0170(8) Uani 1 1 d . . .
C11 C 0.6888(5) 0.1308(4) 0.6530(2) 0.0165(8) Uani 1 1 d . . .
C12 C 0.5903(4) 0.0646(4) 0.5737(2) 0.0156(8) Uani 1 1 d . . .
C13 C 0.4472(5) 0.0876(4) 0.5470(2) 0.0182(8) Uani 1 1 d . . .
H13 H 0.4120 0.1460 0.5784 0.022 Uiso 1 1 calc R . .
C14 C 0.3575(5) 0.0235(4) 0.4737(2) 0.0172(8) Uani 1 1 d . . .
H14 H 0.2623 0.0391 0.4560 0.021 Uiso 1 1 calc R . .
C21 C 0.6764(5) 0.3862(4) 0.9091(2) 0.0170(8) Uani 1 1 d . . .
C22 C 0.5849(5) 0.4471(4) 0.9555(2) 0.0160(8) Uani 1 1 d . . .
C23 C 0.4345(5) 0.4498(4) 0.9228(2) 0.0198(9) Uani 1 1 d . . .
H23 H 0.3911 0.4164 0.8711 0.024 Uiso 1 1 calc R . .
C24 C 0.3498(5) 0.5019(4) 0.9671(2) 0.0196(9) Uani 1 1 d . . .
H24 H 0.2491 0.5031 0.9453 0.024 Uiso 1 1 calc R . .
C31 C 0.2857(5) 0.1402(6) 0.7197(3) 0.0383(13) Uani 1 1 d . . .
H31A H 0.3096 0.2008 0.6863 0.057 Uiso 1 1 calc R . .
H31B H 0.3201 0.0595 0.7078 0.057 Uiso 1 1 calc R . .
H31C H 0.3393 0.1916 0.7706 0.057 Uiso 1 1 calc R . .
C32 C 0.0648(6) -0.0025(6) 0.7599(3) 0.0348(12) Uani 1 1 d . . .
H32A H -0.0478 -0.0299 0.7516 0.052 Uiso 1 1 calc R . .
H32B H 0.1149 0.0465 0.8116 0.052 Uiso 1 1 calc R . .
H32C H 0.0955 -0.0856 0.7487 0.052 Uiso 1 1 calc R . .
C41 C -0.0068(6) -0.1907(6) 0.5161(3) 0.0368(12) Uani 1 1 d . . .
H41 H -0.0870 -0.1991 0.4742 0.044 Uiso 1 1 calc R . .
C42 C 0.0629(10) -0.3652(6) 0.4365(4) 0.075(3) Uani 1 1 d . . .
H42A H 0.1381 -0.4156 0.4420 0.112 Uiso 1 1 calc R . .
H42B H 0.0797 -0.3097 0.4002 0.112 Uiso 1 1 calc R . .
H42C H -0.0421 -0.4318 0.4198 0.112 Uiso 1 1 calc R . .
C43 C 0.2133(7) -0.2603(7) 0.5713(4) 0.0618(19) Uani 1 1 d . . .
H43A H 0.2664 -0.3261 0.5568 0.093 Uiso 1 1 calc R . .
H43B H 0.1736 -0.2813 0.6132 0.093 Uiso 1 1 calc R . .
H43C H 0.2862 -0.1655 0.5854 0.093 Uiso 1 1 calc R . .
C51 C 0.5048(7) -0.5473(5) 0.6375(3) 0.0334(11) Uani 1 1 d . . .
H51 H 0.5314 -0.5988 0.6721 0.040 Uiso 1 1 calc R . .
C52 C 0.5905(7) -0.3458(6) 0.5837(3) 0.0418(13) Uani 1 1 d . . .
H52A H 0.6872 -0.2726 0.5885 0.063 Uiso 1 1 calc R . .
H52B H 0.5148 -0.3035 0.5971 0.063 Uiso 1 1 calc R . .
H52C H 0.5497 -0.4009 0.5327 0.063 Uiso 1 1 calc R . .
C53 C 0.7760(6) -0.3910(6) 0.6855(3) 0.0440(13) Uani 1 1 d . . .
H53A H 0.8423 -0.3105 0.6737 0.066 Uiso 1 1 calc R . .
H53B H 0.8208 -0.4665 0.6813 0.066 Uiso 1 1 calc R . .
H53C H 0.7680 -0.3650 0.7359 0.066 Uiso 1 1 calc R . .
C61 C 0.9544(5) -0.2191(5) 1.0167(3) 0.0272(10) Uani 1 1 d . . .
H61 H 1.0017 -0.2826 0.9977 0.033 Uiso 1 1 calc R . .
C62 C 0.7541(7) -0.1054(6) 0.9946(3) 0.0393(13) Uani 1 1 d . . .
H62A H 0.6783 -0.0997 0.9522 0.059 Uiso 1 1 calc R . .
H62B H 0.8254 -0.0121 1.0197 0.059 Uiso 1 1 calc R . .
H62C H 0.7004 -0.1453 1.0288 0.059 Uiso 1 1 calc R . .
C63 C 0.7943(6) -0.2632(5) 0.8887(2) 0.0289(10) Uani 1 1 d . . .
H63A H 0.7118 -0.2324 0.8632 0.043 Uiso 1 1 calc R . .
H63B H 0.7564 -0.3642 0.8822 0.043 Uiso 1 1 calc R . .
H63C H 0.8833 -0.2380 0.8682 0.043 Uiso 1 1 calc R . .
N1 N 0.1135(4) 0.0919(4) 0.7107(2) 0.0219(8) Uani 1 1 d . . .
H1A H 0.0819 0.1683 0.7208 0.026 Uiso 1 1 calc R . .
H1B H 0.0641 0.0458 0.6625 0.026 Uiso 1 1 calc R . .
N2 N 0.0826(5) -0.2723(5) 0.5085(3) 0.0374(10) Uani 1 1 d . . .
N3 N 0.6203(5) -0.4375(4) 0.6337(2) 0.0288(9) Uani 1 1 d . . .
N4 N 0.8421(4) -0.1943(4) 0.9691(2) 0.0229(8) Uani 1 1 d . . .
O1 O 0.5855(3) 0.0786(3) 0.84558(17) 0.0226(6) Uani 1 1 d . . .
O2 O 0.6721(4) -0.0547(3) 0.76834(18) 0.0255(7) Uani 1 1 d . . .
O3 O -0.0505(3) -0.5249(3) 0.82029(19) 0.0261(7) Uani 1 1 d . . .
O4 O 0.0906(4) -0.6544(3) 0.78136(19) 0.0281(7) Uani 1 1 d . . .
O11 O 0.6293(3) 0.1966(3) 0.69810(15) 0.0185(6) Uani 1 1 d . . .
O12 O 0.8224(3) 0.1206(3) 0.67283(16) 0.0254(7) Uani 1 1 d . . .
O21 O 0.6284(3) 0.3587(3) 0.83730(15) 0.0160(6) Uani 1 1 d . . .
O22 O 0.7961(3) 0.3593(3) 0.94084(15) 0.0208(6) Uani 1 1 d . . .
O31 O 0.0067(5) -0.1054(4) 0.5735(2) 0.0522(11) Uani 1 1 d . . .
O32 O 0.3672(4) -0.5878(4) 0.6003(2) 0.0415(9) Uani 1 1 d . . .
O33 O 1.0008(4) -0.1636(4) 1.08499(18) 0.0359(8) Uani 1 1 d . . .
Bi01 Bi 0.796670(16) 0.233065(15) 0.815970(8) 0.01258(5) Uani 1 1 d . . .

loop_
_atom_site_aniso_label
_atom_site_aniso_U_11
_atom_site_aniso_U_22
_atom_site_aniso_U_33
_atom_site_aniso_U_23
_atom_site_aniso_U_13
_atom_site_aniso_U_12
C1 0.016(2) 0.018(2) 0.021(2) 0.0086(17) 0.0042(16) 0.0043(16)
C2 0.017(2) 0.017(2) 0.019(2) 0.0087(16) 0.0051(16) 0.0060(16)
C3 0.021(2) 0.016(2) 0.028(2) 0.0019(17) 0.0098(18) 0.0042(17)
C4 0.024(2) 0.020(2) 0.024(2) 0.0010(17) 0.0119(18) 0.0016(18)
C5 0.026(2) 0.016(2) 0.021(2) -0.0012(17) 0.0076(18) -0.0015(17)
C6 0.020(2) 0.017(2) 0.032(2) 0.0049(18) 0.0137(18) 0.0047(17)
C7 0.0116(18) 0.0156(19) 0.019(2) 0.0051(16) 0.0036(15) 0.0010(15)
C8 0.017(2) 0.017(2) 0.0152(19) 0.0048(16) 0.0032(16) 0.0025(16)
C11 0.019(2) 0.0142(19) 0.0163(19) 0.0053(15) 0.0058(16) 0.0036(16)
C12 0.0141(19) 0.0120(18) 0.019(2) 0.0019(15) 0.0047(15) 0.0020(15)
C13 0.0141(19) 0.017(2) 0.020(2) -0.0001(16) 0.0023(16) 0.0045(16)
C14 0.0130(19) 0.021(2) 0.017(2) 0.0033(16) 0.0040(15) 0.0050(16)
C21 0.0145(19) 0.0138(19) 0.021(2) 0.0048(16) 0.0037(16) 0.0019(15)
C22 0.0161(19) 0.0140(19) 0.017(2) 0.0039(15) 0.0048(16) 0.0037(15)
C23 0.019(2) 0.025(2) 0.0145(19) 0.0025(16) 0.0021(16) 0.0079(17)
C24 0.0147(19) 0.026(2) 0.017(2) 0.0013(17) 0.0012(16) 0.0083(17)
C31 0.017(2) 0.042(3) 0.051(3) -0.003(2) 0.009(2) 0.011(2)
C32 0.041(3) 0.041(3) 0.035(3) 0.019(2) 0.017(2) 0.024(2)
C41 0.030(3) 0.040(3) 0.029(3) -0.003(2) -0.004(2) 0.009(2)
C42 0.129(7) 0.024(3) 0.083(5) 0.005(3) 0.078(5) 0.011(4)
C43 0.038(3) 0.046(4) 0.102(6) 0.033(4) 0.005(3) 0.016(3)
C51 0.048(3) 0.024(2) 0.034(3) 0.003(2) 0.019(2) 0.018(2)
C52 0.055(4) 0.048(3) 0.040(3) 0.027(3) 0.023(3) 0.026(3)
C53 0.039(3) 0.048(3) 0.041(3) 0.003(3) 0.006(2) 0.015(3)
C61 0.024(2) 0.037(3) 0.025(2) 0.008(2) 0.0075(19) 0.017(2)
C62 0.047(3) 0.052(3) 0.031(3) 0.010(2) 0.010(2) 0.035(3)
C63 0.031(3) 0.031(3) 0.023(2) 0.0054(19) 0.0028(19) 0.011(2)
N1 0.0165(18) 0.0227(19) 0.0248(19) 0.0017(15) 0.0042(15) 0.0069(15)
N2 0.041(3) 0.031(2) 0.041(3) 0.0050(19) 0.019(2) 0.009(2)
N3 0.034(2) 0.025(2) 0.030(2) 0.0067(17) 0.0096(17) 0.0130(17)
N4 0.0245(19) 0.026(2) 0.0220(19) 0.0098(15) 0.0064(15) 0.0120(16)
O1 0.0219(16) 0.0157(15) 0.0301(17) 0.0049(12) 0.0130(13) 0.0017(12)
O2 0.0244(16) 0.0192(15) 0.0357(18) 0.0069(13) 0.0186(14) 0.0031(13)
O3 0.0190(15) 0.0206(16) 0.0429(19) 0.0106(14) 0.0155(14) 0.0059(12)
O4 0.0236(16) 0.0144(15) 0.045(2) 0.0015(14) 0.0171(15) 0.0015(12)
O11 0.0223(15) 0.0214(15) 0.0112(13) -0.0017(11) 0.0024(11) 0.0108(12)
O12 0.0160(15) 0.0387(19) 0.0186(15) 0.0001(13) 0.0011(12) 0.0109(13)
O21 0.0178(14) 0.0169(14) 0.0129(13) 0.0012(11) 0.0044(11) 0.0059(11)
O22 0.0184(15) 0.0283(16) 0.0169(14) 0.0021(12) 0.0032(12) 0.0124(13)
O31 0.051(3) 0.055(3) 0.041(2) -0.0154(19) 0.0050(19) 0.023(2)
O32 0.035(2) 0.043(2) 0.041(2) -0.0042(17) 0.0166(17) 0.0077(17)
O33 0.039(2) 0.054(2) 0.0192(17) 0.0047(15) 0.0025(14) 0.0274(18)
Bi01 0.01106(7) 0.01277(8) 0.01271(8) 0.00219(5) 0.00307(5) 0.00247(5)

_geom_special_details            
;
All esds (except the esd in the dihedral angle between two l.s. planes)
are estimated using the full covariance matrix. The cell esds are taken
into account individually in the estimation of esds in distances, angles
and torsion angles; correlations between esds in cell parameters are only
used when they are defined by crystal symmetry. An approximate (isotropic)
treatment of cell esds is used for estimating esds involving l.s. planes.
;

loop_
_geom_bond_atom_site_label_1
_geom_bond_atom_site_label_2
_geom_bond_distance
_geom_bond_site_symmetry_2
_geom_bond_publ_flag
C1 O2 1.248(5) . ?
C1 O1 1.282(5) . ?
C1 C2 1.500(5) . ?
C2 C4 1.387(6) . ?
C2 C3 1.395(6) . ?
C3 C6 1.386(6) . ?
C4 C5 1.380(6) . ?
C5 C7 1.389(6) . ?
C6 C7 1.386(6) . ?
C7 C8 1.512(5) . ?
C8 O4 1.243(5) . ?
C8 O3 1.264(5) . ?
C11 O12 1.238(5) . ?
C11 O11 1.285(5) . ?
C11 C12 1.499(5) . ?
C12 C13 1.396(6) . ?
C12 C14 1.397(6) 2_656 ?
C13 C14 1.386(6) . ?
C14 C12 1.397(6) 2_656 ?
C21 O22 1.253(5) . ?
C21 O21 1.280(5) . ?
C21 C22 1.497(6) . ?
C21 Bi01 2.733(4) . ?
C22 C23 1.393(6) . ?
C22 C24 1.394(6) 2_667 ?
C23 C24 1.382(6) . ?
C24 C22 1.394(6) 2_667 ?
C31 N1 1.478(6) . ?
C32 N1 1.478(6) . ?
C41 O31 1.220(6) . ?
C41 N2 1.321(7) . ?
C42 N2 1.454(7) . ?
C43 N2 1.455(8) . ?
C51 O32 1.222(6) . ?
C51 N3 1.328(6) . ?
C52 N3 1.457(6) . ?
C53 N3 1.447(7) . ?
C61 O33 1.239(5) . ?
C61 N4 1.322(6) . ?
C62 N4 1.446(6) . ?
C63 N4 1.466(6) . ?
O1 Bi01 2.353(3) . ?
O2 Bi01 2.727(3) . ?
O3 Bi01 2.437(3) 1_445 ?
O11 Bi01 2.316(3) . ?
O21 Bi01 2.300(3) . ?
O22 Bi01 2.471(3) . ?
O33 Bi01 2.660(3) 2_757 ?
Bi01 O3 2.437(3) 1_665 ?
Bi01 O33 2.660(3) 2_757 ?

loop_
_geom_angle_atom_site_label_1
_geom_angle_atom_site_label_2
_geom_angle_atom_site_label_3
_geom_angle
_geom_angle_site_symmetry_1
_geom_angle_site_symmetry_3
_geom_angle_publ_flag
O2 C1 O1 123.0(4) . . ?
O2 C1 C2 119.8(4) . . ?
O1 C1 C2 117.2(4) . . ?
C4 C2 C3 119.4(4) . . ?
C4 C2 C1 119.7(4) . . ?
C3 C2 C1 121.0(4) . . ?
C6 C3 C2 120.0(4) . . ?
C5 C4 C2 120.4(4) . . ?
C4 C5 C7 120.3(4) . . ?
C3 C6 C7 120.3(4) . . ?
C6 C7 C5 119.5(4) . . ?
C6 C7 C8 121.4(4) . . ?
C5 C7 C8 119.0(4) . . ?
O4 C8 O3 124.1(4) . . ?
O4 C8 C7 118.0(4) . . ?
O3 C8 C7 117.9(4) . . ?
O12 C11 O11 122.6(4) . . ?
O12 C11 C12 119.8(4) . . ?
O11 C11 C12 117.7(4) . . ?
C13 C12 C14 119.8(4) . 2_656 ?
C13 C12 C11 121.3(4) . . ?
C14 C12 C11 118.9(4) 2_656 . ?
C14 C13 C12 120.0(4) . . ?
C13 C14 C12 120.2(4) . 2_656 ?
O22 C21 O21 121.0(4) . . ?
O22 C21 C22 119.7(4) . . ?
O21 C21 C22 119.3(4) . . ?
O22 C21 Bi01 64.7(2) . . ?
O21 C21 Bi01 57.0(2) . . ?
C22 C21 Bi01 169.8(3) . . ?
C23 C22 C24 120.0(4) . 2_667 ?
C23 C22 C21 120.9(4) . . ?
C24 C22 C21 119.1(4) 2_667 . ?
C24 C23 C22 120.0(4) . . ?
C23 C24 C22 120.0(4) . 2_667 ?
O31 C41 N2 125.6(5) . . ?
O32 C51 N3 126.8(5) . . ?
O33 C61 N4 124.4(4) . . ?
C32 N1 C31 113.5(4) . . ?
C41 N2 C42 121.6(6) . . ?
C41 N2 C43 119.6(5) . . ?
C42 N2 C43 118.6(6) . . ?
C51 N3 C53 122.0(4) . . ?
C51 N3 C52 121.2(5) . . ?
C53 N3 C52 116.2(4) . . ?
C61 N4 C62 121.5(4) . . ?
C61 N4 C63 121.3(4) . . ?
C62 N4 C63 117.1(4) . . ?
C1 O1 Bi01 101.0(2) . . ?
C1 O2 Bi01 84.5(2) . . ?
C8 O3 Bi01 103.6(2) . 1_445 ?
C11 O11 Bi01 104.3(2) . . ?
C21 O21 Bi01 95.2(2) . . ?
C21 O22 Bi01 88.1(2) . . ?
C61 O33 Bi01 124.8(3) . 2_757 ?
O21 Bi01 O11 75.94(10) . . ?
O21 Bi01 O1 73.41(11) . . ?
O11 Bi01 O1 87