####################################################################### 
# 
# This file contains crystal structure data downloaded from the 
# Cambridge Structural Database (CSD) hosted by the Cambridge 
# Crystallographic Data Centre (CCDC).
# 
# Full information about CCDC data access policies and citation 
# guidelines are available at http://www.ccdc.cam.ac.uk/access/V1 
# 
# Audit and citation data items may have been added by the CCDC. 
# Please retain this information to preserve the provenance of 
# this file and to allow appropriate attribution of the data. 
# 
#######################################################################

data_Zn2(BenzTB)(H2O)2_staggered
_audit_block_doi                 10.5517/ccty6jg
_database_code_depnum_ccdc_archive 'CCDC 772846'
loop_
_citation_id
_citation_doi
_citation_year
1 10.1002/ejic.201000415 2010
_audit_update_record             
;
2010-04-12 deposited with the CCDC.	2024-07-13 downloaded from the CCDC.
;
#TrackingRef '882_web_deposit_cif_file_1_RalfBiedermann_1271084193.cif'


_audit_creation_method           SHELXL-97
_chemical_name_systematic        
;
Zn2(BenzTB)(H2O)2_staggered
;
_chemical_name_common            Zn2(BenzTB)(H2O)2
_chemical_melting_point          ?
_chemical_formula_moiety         ?
_chemical_formula_sum            'C20 H14 N O5 Zn'
_chemical_formula_weight         413.69

loop_
_atom_type_symbol
_atom_type_description
_atom_type_scat_dispersion_real
_atom_type_scat_dispersion_imag
_atom_type_scat_source
C C 0.0033 0.0016 'International Tables Vol C Tables 4.2.6.8 and 6.1.1.4'
H H 0.0000 0.0000 'International Tables Vol C Tables 4.2.6.8 and 6.1.1.4'
N N 0.0061 0.0033 'International Tables Vol C Tables 4.2.6.8 and 6.1.1.4'
O O 0.0106 0.0060 'International Tables Vol C Tables 4.2.6.8 and 6.1.1.4'
Zn Zn 0.2839 1.4301 'International Tables Vol C Tables 4.2.6.8 and 6.1.1.4'

_symmetry_cell_setting           orthorhombic
_symmetry_space_group_name_H-M   Cccm

loop_
_symmetry_equiv_pos_as_xyz
'x, y, z'
'-x, -y, z'
'-x, y, -z+1/2'
'x, -y, -z+1/2'
'x+1/2, y+1/2, z'
'-x+1/2, -y+1/2, z'
'-x+1/2, y+1/2, -z+1/2'
'x+1/2, -y+1/2, -z+1/2'
'-x, -y, -z'
'x, y, -z'
'x, -y, z-1/2'
'-x, y, z-1/2'
'-x+1/2, -y+1/2, -z'
'x+1/2, y+1/2, -z'
'x+1/2, -y+1/2, z-1/2'
'-x+1/2, y+1/2, z-1/2'

_cell_length_a                   17.953(4)
_cell_length_b                   35.340(7)
_cell_length_c                   23.023(5)
_cell_angle_alpha                90.00
_cell_angle_beta                 90.00
_cell_angle_gamma                90.00
_cell_volume                     14607(5)
_cell_formula_units_Z            8
_cell_measurement_temperature    293(2)
_cell_measurement_reflns_used    1063
_cell_measurement_theta_min      1.44
_cell_measurement_theta_max      32.00

_exptl_crystal_description       needle
_exptl_crystal_colour            colorless
_exptl_crystal_size_max          0.3
_exptl_crystal_size_mid          0.1
_exptl_crystal_size_min          0.1
_exptl_crystal_density_meas      ?
_exptl_crystal_density_diffrn    0.376
_exptl_crystal_density_method    'not measured'
_exptl_crystal_F_000             1688
_exptl_absorpt_coefficient_mu    0.344
_exptl_absorpt_correction_type   none
_exptl_absorpt_correction_T_min  ?
_exptl_absorpt_correction_T_max  ?
_exptl_absorpt_process_details   ?

_exptl_special_details           
;
Absorption cooefficient is given for the solvent free framework,
data is partially incomplete because the diffractometer is for protein
cystals. Detector distance was at machine minimum for measurement. Resolution
could not be increased any further.
;

_diffrn_ambient_temperature      293(2)
_diffrn_radiation_wavelength     0.88561
_diffrn_radiation_type           synchrotron
_diffrn_radiation_source         'BESSY BL MX-14.1'
_diffrn_radiation_monochromator  'Si 111'
_diffrn_measurement_device_type  'MX-225 CCD'
_diffrn_measurement_method       '\D\f scans'
_diffrn_detector_area_resol_mean ?
_diffrn_standards_number         ?
_diffrn_standards_interval_count ?
_diffrn_standards_interval_time  ?
_diffrn_standards_decay_%        ?
_diffrn_reflns_number            28926
_diffrn_reflns_av_R_equivalents  0.0691
_diffrn_reflns_av_sigmaI/netI    0.0587
_diffrn_reflns_limit_h_min       -19
_diffrn_reflns_limit_h_max       21
_diffrn_reflns_limit_k_min       -41
_diffrn_reflns_limit_k_max       42
_diffrn_reflns_limit_l_min       -26
_diffrn_reflns_limit_l_max       24
_diffrn_reflns_theta_min         1.44
_diffrn_reflns_theta_max         32.00
_reflns_number_total             6461
_reflns_number_gt                3259
_reflns_threshold_expression     >2\s(I)

_computing_data_collection       'marCCD 1994-2002'
_computing_cell_refinement       XDS
_computing_data_reduction        XDSCONV
_computing_structure_solution    'SUPERFLIP (Palatinus, 2007)'
_computing_structure_refinement  'SHELXL-97 (Sheldrick, 1997)'
_computing_molecular_graphics    'Diamond 3.1'
_computing_publication_material  WinGX



_refine_special_details          
;
Refinement of F^2^ against ALL reflections. The weighted R-factor wR and
goodness of fit S are based on F^2^, conventional R-factors R are based
on F, with F set to zero for negative F^2^. The threshold expression of
F^2^ > 2\s(F^2^) is used only for calculating R-factors(gt) etc. and is
not relevant to the choice of reflections for refinement. R-factors based
on F^2^ are statistically about twice as large as those based on F, and R-
factors based on ALL data will be even larger.
;

_refine_ls_structure_factor_coef Fsqd
_refine_ls_matrix_type           full
_refine_ls_weighting_scheme      calc
_refine_ls_weighting_details     
'calc w=1/[\s^2^(Fo^2^)+(0.0722P)^2^+0.0000P] where P=(Fo^2^+2Fc^2^)/3'
_atom_sites_solution_primary     'charge flipping'
_atom_sites_solution_secondary   difmap
_atom_sites_solution_hydrogens   geom
_refine_ls_hydrogen_treatment    constr
_refine_ls_extinction_method     none
_refine_ls_extinction_coef       ?
_refine_ls_number_reflns         6461
_refine_ls_number_parameters     127
_refine_ls_number_restraints     0
_refine_ls_R_factor_all          0.0933
_refine_ls_R_factor_gt           0.0539
_refine_ls_wR_factor_ref         0.1327
_refine_ls_wR_factor_gt          0.1241
_refine_ls_goodness_of_fit_ref   0.868
_refine_ls_restrained_S_all      0.868
_refine_ls_shift/su_max          0.001
_refine_ls_shift/su_mean         0.000

loop_
_atom_site_label
_atom_site_type_symbol
_atom_site_fract_x
_atom_site_fract_y
_atom_site_fract_z
_atom_site_U_iso_or_equiv
_atom_site_adp_type
_atom_site_occupancy
_atom_site_symmetry_multiplicity
_atom_site_calc_flag
_atom_site_refinement_flags
_atom_site_disorder_assembly
_atom_site_disorder_group
C1 C 0.67105(17) 0.28267(8) 0.07848(10) 0.1159(8) Uani 1 1 d . . .
C2 C 0.62687(17) 0.30239(7) 0.12303(10) 0.1190(7) Uani 1 1 d . . .
C3 C 0.55977(19) 0.28819(6) 0.14279(11) 0.1338(9) Uani 1 1 d . . .
H3 H 0.5428 0.2654 0.1277 0.161 Uiso 1 1 calc R . .
C4 C 0.54249(18) 0.34020(7) 0.20807(10) 0.1292(9) Uani 1 1 d . . .
C5 C 0.6084(2) 0.35435(7) 0.18934(12) 0.1490(10) Uani 1 1 d . . .
H5 H 0.6260 0.3768 0.2055 0.179 Uiso 1 1 calc R . .
C6 C 0.65061(17) 0.33642(7) 0.14667(11) 0.1344(8) Uani 1 1 d . . .
H6 H 0.6949 0.3473 0.1340 0.161 Uiso 1 1 calc R . .
C7 C 0.51740(17) 0.30619(7) 0.18348(12) 0.1450(10) Uani 1 1 d . . .
H7 H 0.4720 0.2959 0.1949 0.174 Uiso 1 1 calc R . .
C8 C 0.5000 0.40011(9) 0.2500 0.1374(13) Uani 1 2 d S . .
C9 C 0.48617(18) 0.41987(7) 0.20005(11) 0.1523(11) Uani 1 1 d . . .
H9 H 0.4765 0.4069 0.1657 0.183 Uiso 1 1 calc R . .
C10 C 0.48648(18) 0.45852(7) 0.20014(11) 0.1516(10) Uani 1 1 d . . .
H10 H 0.4773 0.4714 0.1657 0.182 Uiso 1 1 calc R . .
C11 C 0.5000 0.47882(8) 0.2500 0.1256(11) Uani 1 2 d S . .
N1 N 0.5000 0.35946(7) 0.2500 0.1562(13) Uani 1 2 d S . .
O1 O 0.64757(10) 0.25103(5) 0.06143(6) 0.1317(6) Uani 1 1 d . . .
O2 O 0.72981(12) 0.29888(5) 0.06115(8) 0.1359(6) Uani 1 1 d . . .
O3 O 0.62837(18) 0.17371(7) 0.0000 0.1828(11) Uani 1 2 d S . .
Zn1 Zn 0.69637(2) 0.218282(8) 0.0000 0.10166(19) Uani 1 2 d S . .

loop_
_atom_site_aniso_label
_atom_site_aniso_U_11
_atom_site_aniso_U_22
_atom_site_aniso_U_33
_atom_site_aniso_U_23
_atom_site_aniso_U_13
_atom_site_aniso_U_12
C1 0.147(2) 0.1119(19) 0.0883(16) 0.0067(15) 0.0087(15) 0.0303(19)
C2 0.156(2) 0.0970(16) 0.1042(17) 0.0050(13) 0.0197(16) 0.0074(16)
C3 0.185(3) 0.0976(15) 0.1189(18) -0.0121(13) 0.0410(19) -0.0012(17)
C4 0.170(3) 0.0907(15) 0.1267(18) 0.0055(14) 0.0553(18) -0.0023(16)
C5 0.203(3) 0.1019(16) 0.142(2) -0.0140(15) 0.056(2) -0.0160(19)
C6 0.159(2) 0.1148(18) 0.1297(19) -0.0040(15) 0.0385(18) -0.0131(17)
C7 0.175(3) 0.1066(17) 0.153(2) -0.0055(16) 0.054(2) -0.0197(17)
C8 0.208(4) 0.086(2) 0.118(3) 0.000 0.051(3) 0.000
C9 0.239(3) 0.0974(17) 0.1210(19) -0.0145(14) 0.0254(19) 0.0060(18)
C10 0.248(3) 0.0924(16) 0.1142(18) -0.0026(13) 0.0040(19) 0.0101(18)
C11 0.187(3) 0.0875(16) 0.102(2) 0.000 0.008(2) 0.000
N1 0.239(4) 0.0861(17) 0.144(2) 0.000 0.092(2) 0.000
O1 0.1707(17) 0.1081(11) 0.1163(11) -0.0126(9) 0.0220(10) 0.0134(11)
O2 0.1582(16) 0.1204(12) 0.1292(13) -0.0077(10) 0.0310(12) 0.0088(12)
O3 0.200(3) 0.1217(18) 0.227(3) 0.000 0.000 -0.0518(19)
Zn1 0.1303(4) 0.0800(2) 0.0946(3) 0.000 0.000 -0.00911(19)

_geom_special_details            
;
All s.u.'s (except the s.u. in the dihedral angle between two l.s. planes)
are estimated using the full covariance matrix. The cell s.u.'s are taken
into account individually in the estimation of s.u.'s in distances, angles
and torsion angles; correlations between s.u.'s in cell parameters are only
used when they are defined by crystal symmetry. An approximate (isotropic)
treatment of cell s.u.'s is used for estimating s.u.'s involving l.s. planes.
;

loop_
_geom_bond_atom_site_label_1
_geom_bond_atom_site_label_2
_geom_bond_distance
_geom_bond_site_symmetry_2
_geom_bond_publ_flag
C1 O1 1.258(3) . ?
C1 O2 1.265(3) . ?
C1 C2 1.472(3) . ?
C2 C3 1.382(3) . ?
C2 C6 1.387(3) . ?
C3 C7 1.364(3) . ?
C4 C5 1.355(3) . ?
C4 C7 1.403(3) . ?
C4 N1 1.406(3) . ?
C5 C6 1.393(3) . ?
C8 C9 1.368(3) 3_655 ?
C8 C9 1.368(3) . ?
C8 N1 1.437(4) . ?
C9 C10 1.366(3) . ?
C10 C11 1.375(3) . ?
C11 C10 1.375(3) 3_655 ?
C11 C11 1.497(6) 2_665 ?
N1 C4 1.406(3) 3_655 ?
O1 Zn1 2.0266(16) . ?
O2 Zn1 2.026(2) 13_655 ?
O3 Zn1 1.993(2) . ?
Zn1 O1 2.0266(16) 10 ?
Zn1 O2 2.026(2) 13_655 ?
Zn1 O2 2.026(2) 6_655 ?
Zn1 Zn1 2.9554(8) 13_655 ?

loop_
_geom_angle_atom_site_label_1
_geom_angle_atom_site_label_2
_geom_angle_atom_site_label_3
_geom_angle
_geom_angle_site_symmetry_1
_geom_angle_site_symmetry_3
_geom_angle_publ_flag
O1 C1 O2 125.7(2) . . ?
O1 C1 C2 117.2(3) . . ?
O2 C1 C2 117.1(3) . . ?
C3 C2 C6 117.0(2) . . ?
C3 C2 C1 121.8(3) . . ?
C6 C2 C1 121.2(3) . . ?
C7 C3 C2 122.9(2) . . ?
C5 C4 C7 117.9(2) . . ?
C5 C4 N1 120.9(2) . . ?
C7 C4 N1 121.2(3) . . ?
C4 C5 C6 122.1(2) . . ?
C2 C6 C5 120.3(3) . . ?
C3 C7 C4 119.8(3) . . ?
C9 C8 C9 118.6(3) 3_655 . ?
C9 C8 N1 120.68(15) 3_655 . ?
C9 C8 N1 120.68(15) . . ?
C10 C9 C8 120.5(2) . . ?
C9 C10 C11 121.6(2) . . ?
C10 C11 C10 117.1(3) . 3_655 ?
C10 C11 C11 121.45(15) . 2_665 ?
C10 C11 C11 121.45(15) 3_655 2_665 ?
C4 N1 C4 122.1(3) . 3_655 ?
C4 N1 C8 118.94(13) . . ?
C4 N1 C8 118.94(13) 3_655 . ?
C1 O1 Zn1 125.49(18) . . ?
C1 O2 Zn1 128.98(17) . 13_655 ?
O3 Zn1 O1 100.75(8) . 10 ?
O3 Zn1 O1 100.75(8) . . ?
O1 Zn1 O1 88.51(9) 10 . ?
O3 Zn1 O2 99.44(9) . 13_655 ?
O1 Zn1 O2 88.21(7) 10 13_655 ?
O1 Zn1 O2 159.80(8) . 13_655 ?
O3 Zn1 O2 99.44(9) . 6_655 ?
O1 Zn1 O2 159.80(8) 10 6_655 ?
O1 Zn1 O2 88.21(7) . 6_655 ?
O2 Zn1 O2 88.02(10) 13_655 6_655 ?
O3 Zn1 Zn1 177.12(9) . 13_655 ?
O1 Zn1 Zn1 81.28(6) 10 13_655 ?
O1 Zn1 Zn1 81.28(6) . 13_655 ?
O2 Zn1 Zn1 78.51(6) 13_655 13_655 ?
O2 Zn1 Zn1 78.51(6) 6_655 13_655 ?

_diffrn_measured_fraction_theta_max 0.957
_diffrn_reflns_theta_full        32.00
_diffrn_measured_fraction_theta_full 0.957
_refine_diff_density_max         0.222
_refine_diff_density_min         -0.421
_refine_diff_density_rms         0.040
loop_
_platon_squeeze_void_nr
_platon_squeeze_void_average_x
_platon_squeeze_void_average_y
_platon_squeeze_void_average_z
_platon_squeeze_void_volume
_platon_squeeze_void_count_electrons
_platon_squeeze_void_content
1 -0.011 -0.004 -0.005 11974 4276 ' '
# start Validation Reply Form
_vrf_PUBL024_GLOBAL              
;
PROBLEM: The number of authors is greater than 5.
RESPONSE: All authors accounted important content to this paper. The variety
of analytical methods demanded the contribution from several authors.
;
_vrf_PLAT242_Zn2BenzTBH2O2_staggered 
;
PROBLEM: Check Low Ueq as Compared to Neighbors for Zn1
RESPONSE: Room temperature measurement. Metal atom is coordinated and therefore
fixed in thermal motion. The oxygen atom (water) in axial position of metal has
freedom in motion.
;
_vrf_PLAT761_Zn2BenzTBH2O2_staggered 
;
PROBLEM: CIF Contains no X-H Bonds ...................... ?
RESPONSE: H-positions are constrained. Bond lengths would be useless.
;
_vrf_PLAT762_Zn2BenzTBH2O2_staggered 
;
PROBLEM: CIF Contains no X-Y-H or H-Y-H Angles .......... ?
RESPONSE: H-positions are constrained. Angles would be useless.
;
