####################################################################### 
# 
# This file contains crystal structure data downloaded from the 
# Cambridge Structural Database (CSD) hosted by the Cambridge 
# Crystallographic Data Centre (CCDC).
# 
# Full information about CCDC data access policies and citation 
# guidelines are available at http://www.ccdc.cam.ac.uk/access/V1 
# 
# Audit and citation data items may have been added by the CCDC. 
# Please retain this information to preserve the provenance of 
# this file and to allow appropriate attribution of the data. 
# 
#######################################################################

data_Co2(BenzTB)(H2O)2
_audit_block_doi                 10.5517/ccty6kh
_database_code_depnum_ccdc_archive 'CCDC 772847'
loop_
_citation_id
_citation_doi
_citation_year
1 10.1002/ejic.201000415 2010
_audit_update_record             
;
2010-04-12 deposited with the CCDC.	2024-07-13 downloaded from the CCDC.
;
#TrackingRef '883_web_deposit_cif_file_2_RalfBiedermann_1271084193.cif'


_audit_creation_method           SHELXL-97
_chemical_name_systematic        
;
?
;
_chemical_name_common            Co2(BenzTB)(H2O)2
_chemical_melting_point          ?
_chemical_formula_moiety         ?
_chemical_formula_sum            'C20 H14 Co N O5'
_chemical_formula_weight         407.27

loop_
_atom_type_symbol
_atom_type_description
_atom_type_scat_dispersion_real
_atom_type_scat_dispersion_imag
_atom_type_scat_source
C C 0.0030 0.0020 'International Tables Vol C Tables 4.2.6.8 and 6.1.1.4'
H H 0.0000 0.0000 'International Tables Vol C Tables 4.2.6.8 and 6.1.1.4'
N N 0.0060 0.0030 'International Tables Vol C Tables 4.2.6.8 and 6.1.1.4'
O O 0.0110 0.0060 'International Tables Vol C Tables 4.2.6.8 and 6.1.1.4'
Co Co 0.3490 0.9720 'International Tables Vol C Tables 4.2.6.8 and 6.1.1.4'

_symmetry_cell_setting           orthorhombic
_symmetry_space_group_name_H-M   Imma

loop_
_symmetry_equiv_pos_as_xyz
'x, y, z'
'-x, -y+1/2, z'
'-x, y+1/2, -z'
'x, -y, -z'
'x+1/2, y+1/2, z+1/2'
'-x+1/2, -y+1, z+1/2'
'-x+1/2, y+1, -z+1/2'
'x+1/2, -y+1/2, -z+1/2'
'-x, -y, -z'
'x, y-1/2, -z'
'x, -y-1/2, z'
'-x, y, z'
'-x+1/2, -y+1/2, -z+1/2'
'x+1/2, y, -z+1/2'
'x+1/2, -y, z+1/2'
'-x+1/2, y+1/2, z+1/2'

_cell_length_a                   23.415(5)
_cell_length_b                   35.948(7)
_cell_length_c                   17.141(3)
_cell_angle_alpha                90.00
_cell_angle_beta                 90.00
_cell_angle_gamma                90.00
_cell_volume                     14428(5)
_cell_formula_units_Z            8
_cell_measurement_temperature    293(2)
_cell_measurement_reflns_used    753
_cell_measurement_theta_min      1.83
_cell_measurement_theta_max      32.00

_exptl_crystal_description       needles
_exptl_crystal_colour            purple
_exptl_crystal_size_max          0.15
_exptl_crystal_size_mid          0.08
_exptl_crystal_size_min          0.06
_exptl_crystal_density_meas      ?
_exptl_crystal_density_diffrn    0.375
_exptl_crystal_density_method    'not measured'
_exptl_crystal_F_000             1664
_exptl_absorpt_coefficient_mu    0.246
_exptl_absorpt_correction_type   none
_exptl_absorpt_correction_T_min  ?
_exptl_absorpt_correction_T_max  ?
_exptl_absorpt_process_details   ?

_exptl_special_details           
;
Absorption cooefficient is given for the solvent free framework,
;

_diffrn_ambient_temperature      293(2)
_diffrn_radiation_wavelength     0.88561
_diffrn_radiation_type           synchrotron
_diffrn_radiation_source         'BESSY BL MX-14.1'
_diffrn_radiation_monochromator  'Si 111'
_diffrn_measurement_device_type  'MX-225 CCD'
_diffrn_measurement_method       '\D\f scans'
_diffrn_detector_area_resol_mean ?
_diffrn_standards_number         ?
_diffrn_standards_interval_count ?
_diffrn_standards_interval_time  ?
_diffrn_standards_decay_%        ?
_diffrn_reflns_number            47357
_diffrn_reflns_av_R_equivalents  0.1612
_diffrn_reflns_av_sigmaI/netI    0.0991
_diffrn_reflns_limit_h_min       -24
_diffrn_reflns_limit_h_max       25
_diffrn_reflns_limit_k_min       -42
_diffrn_reflns_limit_k_max       42
_diffrn_reflns_limit_l_min       -20
_diffrn_reflns_limit_l_max       20
_diffrn_reflns_theta_min         1.64
_diffrn_reflns_theta_max         32.00
_reflns_number_total             6216
_reflns_number_gt                2854
_reflns_threshold_expression     >2\s(I)

_computing_data_collection       'marCCD 1994-2002'
_computing_cell_refinement       XDS
_computing_data_reduction        XDSCONV
_computing_structure_solution    'SUPERFLIP (Palatinus, 2007)'
_computing_structure_refinement  'SHELXL-97 (Sheldrick, 1997)'
_computing_molecular_graphics    'Diamond 3.1'
_computing_publication_material  WinGX

_refine_special_details          
;
Refinement of F^2^ against ALL reflections. The weighted R-factor wR and
goodness of fit S are based on F^2^, conventional R-factors R are based
on F, with F set to zero for negative F^2^. The threshold expression of
F^2^ > 2\s(F^2^) is used only for calculating R-factors(gt) etc. and is
not relevant to the choice of reflections for refinement. R-factors based
on F^2^ are statistically about twice as large as those based on F, and R-
factors based on ALL data will be even larger.
;

_refine_ls_structure_factor_coef Fsqd
_refine_ls_matrix_type           full
_refine_ls_weighting_scheme      calc
_refine_ls_weighting_details     
'calc w=1/[\s^2^(Fo^2^)+(0.0400P)^2^+0.0100P] where P=(Fo^2^+2Fc^2^)/3'
_atom_sites_solution_primary     'charge flipping'
_atom_sites_solution_secondary   difmap
_atom_sites_solution_hydrogens   geom
_refine_ls_hydrogen_treatment    constr
_refine_ls_extinction_method     none
_refine_ls_extinction_coef       ?
_refine_ls_number_reflns         6216
_refine_ls_number_parameters     127
_refine_ls_number_restraints     0
_refine_ls_R_factor_all          0.1423
_refine_ls_R_factor_gt           0.0617
_refine_ls_wR_factor_ref         0.1336
_refine_ls_wR_factor_gt          0.1187
_refine_ls_goodness_of_fit_ref   0.967
_refine_ls_restrained_S_all      0.967
_refine_ls_shift/su_max          0.001
_refine_ls_shift/su_mean         0.000

loop_
_atom_site_label
_atom_site_type_symbol
_atom_site_fract_x
_atom_site_fract_y
_atom_site_fract_z
_atom_site_U_iso_or_equiv
_atom_site_adp_type
_atom_site_occupancy
_atom_site_symmetry_multiplicity
_atom_site_calc_flag
_atom_site_refinement_flags
_atom_site_disorder_assembly
_atom_site_disorder_group
C1 C 0.57738(13) 0.46659(12) 0.5785(2) 0.0925(10) Uani 1 1 d . . .
C2 C 0.64273(13) 0.45890(8) 0.6935(2) 0.1024(10) Uani 1 1 d . . .
H2 H 0.6278 0.4811 0.7122 0.123 Uiso 1 1 calc R . .
C3 C 0.68803(14) 0.39404(9) 0.6353(2) 0.1193(12) Uani 1 1 d . . .
H3 H 0.7042 0.3725 0.6149 0.143 Uiso 1 1 calc R . .
C4 C 0.62329(12) 0.44472(9) 0.6230(2) 0.0858(9) Uani 1 1 d . . .
C5 C 0.68418(14) 0.44041(9) 0.73642(19) 0.1077(11) Uani 1 1 d . . .
H5 H 0.6964 0.4499 0.7841 0.129 Uiso 1 1 calc R . .
C6 C 0.64577(13) 0.41221(9) 0.59471(19) 0.1034(10) Uani 1 1 d . . .
H6 H 0.6324 0.4024 0.5479 0.124 Uiso 1 1 calc R . .
C7 C 0.70702(13) 0.40791(9) 0.7078(2) 0.1029(10) Uani 1 1 d . . .
C8 C 0.7500 0.34907(13) 0.7500 0.1034(15) Uani 1 2 d S . .
C9 C 0.70147(15) 0.32983(10) 0.7646(2) 0.1387(14) Uani 1 1 d . . .
H9 H 0.6679 0.3425 0.7759 0.166 Uiso 1 1 calc R . .
C10 C 0.70166(15) 0.29059(10) 0.7626(2) 0.1371(14) Uani 1 1 d . . .
H10 H 0.6675 0.2780 0.7703 0.165 Uiso 1 1 calc R . .
C11 C 0.7500 0.27063(11) 0.7500 0.0998(15) Uani 1 2 d S . .
N1 N 0.7500 0.38840(9) 0.7500 0.1199(14) Uani 1 2 d S . .
O2 O 0.43947(8) 0.50345(6) 0.39361(13) 0.1015(7) Uani 1 1 d . . .
O1 O 0.5000 0.42998(11) 0.3681(2) 0.1797(15) Uani 1 2 d S . .
O3 O 0.56068(8) 0.45070(6) 0.51587(14) 0.1032(7) Uani 1 1 d . . .
Co1 Co 0.5000 0.471422(14) 0.44394(3) 0.0754(2) Uani 1 2 d S . .

loop_
_atom_site_aniso_label
_atom_site_aniso_U_11
_atom_site_aniso_U_22
_atom_site_aniso_U_33
_atom_site_aniso_U_23
_atom_site_aniso_U_13
_atom_site_aniso_U_12
C1 0.054(2) 0.102(3) 0.121(3) 0.046(3) -0.0069(19) -0.009(2)
C2 0.086(2) 0.068(2) 0.153(3) 0.002(2) -0.031(2) 0.0087(17)
C3 0.114(3) 0.066(2) 0.178(3) -0.014(2) -0.069(2) 0.009(2)
C4 0.067(2) 0.076(2) 0.115(3) 0.017(2) -0.0242(18) -0.0059(18)
C5 0.112(3) 0.066(2) 0.144(3) -0.016(2) -0.060(2) 0.009(2)
C6 0.100(2) 0.077(2) 0.133(3) -0.008(2) -0.048(2) 0.017(2)
C7 0.089(2) 0.052(2) 0.168(3) 0.000(2) -0.054(2) -0.0009(17)
C8 0.082(4) 0.061(3) 0.167(4) 0.000 -0.065(3) 0.000
C9 0.093(3) 0.067(3) 0.257(4) 0.007(3) -0.050(3) 0.009(2)
C10 0.090(3) 0.071(3) 0.250(4) 0.018(3) -0.043(3) -0.012(2)
C11 0.056(3) 0.062(3) 0.181(4) 0.000 -0.061(3) 0.000
N1 0.118(3) 0.046(2) 0.196(4) 0.000 -0.108(3) 0.000
O2 0.0805(15) 0.0811(17) 0.1427(18) 0.0204(14) -0.0095(11) 0.0178(13)
O1 0.215(4) 0.150(4) 0.174(3) -0.031(3) 0.000 0.000
O3 0.0835(16) 0.1027(18) 0.1234(17) 0.0294(15) -0.0274(13) 0.0030(11)
Co1 0.0604(4) 0.0679(4) 0.0978(4) 0.0172(3) 0.000 0.000

_geom_special_details            
;
All s.u.'s (except the s.u. in the dihedral angle between two l.s. planes)
are estimated using the full covariance matrix. The cell s.u.'s are taken
into account individually in the estimation of s.u.'s in distances, angles
and torsion angles; correlations between s.u.'s in cell parameters are only
used when they are defined by crystal symmetry. An approximate (isotropic)
treatment of cell s.u.'s is used for estimating s.u.'s involving l.s. planes.
;

loop_
_geom_bond_atom_site_label_1
_geom_bond_atom_site_label_2
_geom_bond_distance
_geom_bond_site_symmetry_2
_geom_bond_publ_flag
C1 O2 1.243(4) 9_666 ?
C1 O3 1.277(4) . ?
C1 C4 1.535(4) . ?
C2 C5 1.388(4) . ?
C2 C4 1.388(4) . ?
C3 C6 1.375(4) . ?
C3 C7 1.411(4) . ?
C4 C6 1.370(4) . ?
C5 C7 1.375(4) . ?
C7 N1 1.424(3) . ?
C8 C9 1.353(4) . ?
C8 C9 1.353(4) 7_646 ?
C8 N1 1.414(5) . ?
C9 C10 1.411(4) . ?
C10 C11 1.358(4) . ?
C11 C10 1.358(4) 7_646 ?
C11 C11 1.483(8) 13_656 ?
N1 C7 1.424(3) 7_646 ?
O2 C1 1.243(4) 9_666 ?
O2 Co1 2.020(2) . ?
O1 Co1 1.977(4) . ?
O3 Co1 2.023(2) . ?
Co1 O2 2.020(2) 12_655 ?
Co1 O3 2.023(2) 12_655 ?
Co1 Co1 2.8134(11) 9_666 ?

loop_
_geom_angle_atom_site_label_1
_geom_angle_atom_site_label_2
_geom_angle_atom_site_label_3
_geom_angle
_geom_angle_site_symmetry_1
_geom_angle_site_symmetry_3
_geom_angle_publ_flag
O2 C1 O3 127.9(3) 9_666 . ?
O2 C1 C4 118.4(4) 9_666 . ?
O3 C1 C4 113.8(4) . . ?
C5 C2 C4 121.0(3) . . ?
C6 C3 C7 120.3(3) . . ?
C6 C4 C2 119.7(3) . . ?
C6 C4 C1 122.0(3) . . ?
C2 C4 C1 118.3(3) . . ?
C7 C5 C2 119.3(3) . . ?
C4 C6 C3 120.2(3) . . ?
C5 C7 C3 119.5(3) . . ?
C5 C7 N1 120.8(3) . . ?
C3 C7 N1 119.7(3) . . ?
C9 C8 C9 118.5(5) . 7_646 ?
C9 C8 N1 120.7(2) . . ?
C9 C8 N1 120.7(2) 7_646 . ?
C8 C9 C10 120.3(4) . . ?
C11 C10 C9 122.3(3) . . ?
C10 C11 C10 116.2(4) . 7_646 ?
C10 C11 C11 121.9(2) . 13_656 ?
C10 C11 C11 121.9(2) 7_646 13_656 ?
C8 N1 C7 119.50(18) . 7_646 ?
C8 N1 C7 119.50(18) . . ?
C7 N1 C7 121.0(4) 7_646 . ?
C1 O2 Co1 123.5(2) 9_666 . ?
C1 O3 Co1 124.2(2) . . ?
O1 Co1 O2 98.56(11) . . ?
O1 Co1 O2 98.56(11) . 12_655 ?
O2 Co1 O2 89.14(12) . 12_655 ?
O1 Co1 O3 97.07(11) . 12_655 ?
O2 Co1 O3 88.71(8) . 12_655 ?
O2 Co1 O3 164.37(10) 12_655 12_655 ?
O1 Co1 O3 97.07(11) . . ?
O2 Co1 O3 164.37(10) . . ?
O2 Co1 O3 88.71(8) 12_655 . ?
O3 Co1 O3 89.21(11) 12_655 . ?
O1 Co1 Co1 178.00(12) . 9_666 ?
O2 Co1 Co1 82.85(7) . 9_666 ?
O2 Co1 Co1 82.85(7) 12_655 9_666 ?
O3 Co1 Co1 81.53(8) 12_655 9_666 ?
O3 Co1 Co1 81.53(8) . 9_666 ?

_diffrn_measured_fraction_theta_max 0.916
_diffrn_reflns_theta_full        32.00
_diffrn_measured_fraction_theta_full 0.916
_refine_diff_density_max         0.575
_refine_diff_density_min         -0.299
_refine_diff_density_rms         0.034
loop_
_platon_squeeze_void_nr
_platon_squeeze_void_average_x
_platon_squeeze_void_average_y
_platon_squeeze_void_average_z
_platon_squeeze_void_volume
_platon_squeeze_void_count_electrons
_platon_squeeze_void_content
1 0.213 -0.004 -0.013 11853 3383 ' '
# start Validation Reply Form
_vrf_PUBL024_GLOBAL              
;
PROBLEM: The number of authors is greater than 5.
RESPONSE: All authors accounted important content to this paper. The variety
of analytical methods demanded the contribution from several authors.
;
_vrf_PLAT029_Co2BenzTBH2O2       
;
PROBLEM: _diffrn_measured_fraction_theta_full Low ....... 0.92
RESPONSE: The missing data is from high resolution. Diffractometer has only
one cycle. The detector distance was already switched to machine limit.
The diffractometer is intended to measure protein crystals with another demand
for resolution. Cutting of high resolution data would increase completeness and
significantly improve R(int) and R(sigma). Due to the domination of lightweight
atoms in the structure and its high porosity the data beyond 25 deg in theta
becomes very noisy. We decided not to apply this "cut off - cosmetics" and
to provide as much data as possible.
;
_vrf_PLAT023_Co2BenzTBH2O2       
;
PROBLEM: Resolution (too) Low [sin(theta)/Lambda < 0.6].. 28.77 Deg.
RESPONSE: see _vrf_THETM01_Zn2BenzTBH2O2
;

_vrf_PLAT242_Co2BenzTBH2O2       
;
PROBLEM: Check Low Ueq as Compared to Neighbors for Zn1
RESPONSE: Room temperature measurement. Metal atom is coordinated and therefore
fixed in thermal motion. The oxygen atom (water) in axial position of metal has
freedom in motion.
;
_vrf_PLAT761_Co2BenzTBH2O2       
;
PROBLEM: CIF Contains no X-H Bonds ...................... ?
RESPONSE: H-positions are constrained. Bond lengths would be useless.
;
_vrf_PLAT762_Co2BenzTBH2O2       
;
PROBLEM: CIF Contains no X-Y-H or H-Y-H Angles .......... ?
RESPONSE: H-positions are constrained. Angles would be useless.
;
_vrf_FORMU01_ALERT_2_G           
;
PROBLEM: H atoms missing
RESPONSE: Positions of Hydrogen atoms from water, were neither located
nor contrained because this could pretend informations that might be
wrongly interpreted.

;
