####################################################################### 
# 
# This file contains crystal structure data downloaded from the 
# Cambridge Structural Database (CSD) hosted by the Cambridge 
# Crystallographic Data Centre (CCDC).
# 
# Full information about CCDC data access policies and citation 
# guidelines are available at http://www.ccdc.cam.ac.uk/access/V1 
# 
# Audit and citation data items may have been added by the CCDC. 
# Please retain this information to preserve the provenance of 
# this file and to allow appropriate attribution of the data. 
# 
#######################################################################

data_Zn2(BenzTB)(H2O)2
_audit_block_doi                 10.5517/ccty6hf
_database_code_depnum_ccdc_archive 'CCDC 772845'
loop_
_citation_id
_citation_doi
_citation_year
1 10.1002/ejic.201000415 2010
_audit_update_record             
;
2010-04-12 deposited with the CCDC.	2024-07-13 downloaded from the CCDC.
;
#TrackingRef '881_web_deposit_cif_file_0_RalfBiedermann_1271084193.cif'


_audit_creation_method           SHELXL-97
_chemical_name_systematic        
;
?
;
_chemical_name_common            Zn2(BenzTB)(H2O)2-eclip
_chemical_melting_point          ?
_chemical_formula_moiety         ?
_chemical_formula_sum            'C20 H14 N O5 Zn'
_chemical_formula_weight         413.69

loop_
_atom_type_symbol
_atom_type_description
_atom_type_scat_dispersion_real
_atom_type_scat_dispersion_imag
_atom_type_scat_source
C C 0.0033 0.0016 'International Tables Vol C Tables 4.2.6.8 and 6.1.1.4'
H H 0.0000 0.0000 'International Tables Vol C Tables 4.2.6.8 and 6.1.1.4'
N N 0.0061 0.0033 'International Tables Vol C Tables 4.2.6.8 and 6.1.1.4'
O O 0.0106 0.0060 'International Tables Vol C Tables 4.2.6.8 and 6.1.1.4'
Zn Zn 0.2839 1.4301 'International Tables Vol C Tables 4.2.6.8 and 6.1.1.4'

_symmetry_cell_setting           orthorhombic
_symmetry_space_group_name_H-M   Imma

loop_
_symmetry_equiv_pos_as_xyz
'x, y, z'
'-x, -y+1/2, z'
'-x, y+1/2, -z'
'x, -y, -z'
'x+1/2, y+1/2, z+1/2'
'-x+1/2, -y+1, z+1/2'
'-x+1/2, y+1, -z+1/2'
'x+1/2, -y+1/2, -z+1/2'
'-x, -y, -z'
'x, y-1/2, -z'
'x, -y-1/2, z'
'-x, y, z'
'-x+1/2, -y+1/2, -z+1/2'
'x+1/2, y, -z+1/2'
'x+1/2, -y, z+1/2'
'-x+1/2, y+1/2, z+1/2'

_cell_length_a                   23.353(5)
_cell_length_b                   35.883(7)
_cell_length_c                   17.178(3)
_cell_angle_alpha                90.00
_cell_angle_beta                 90.00
_cell_angle_gamma                90.00
_cell_volume                     14395(5)
_cell_formula_units_Z            8
_cell_measurement_temperature    293(2)
_cell_measurement_reflns_used    1167
_cell_measurement_theta_min      1.44
_cell_measurement_theta_max      32.00

_exptl_crystal_description       needles
_exptl_crystal_colour            colorless
_exptl_crystal_size_max          0.2
_exptl_crystal_size_mid          0.08
_exptl_crystal_size_min          0.07
_exptl_crystal_density_meas      ?
_exptl_crystal_density_diffrn    0.382
_exptl_crystal_density_method    'not measured'
_exptl_crystal_F_000             1688
_exptl_absorpt_coefficient_mu    0.349
_exptl_absorpt_correction_type   none
_exptl_absorpt_correction_T_min  ?
_exptl_absorpt_correction_T_max  ?
_exptl_absorpt_process_details   ?

_exptl_special_details           
;
Absorption cooefficient is given for the solvent free framework,
data is partially incomplete because the diffractometer is for protein
cystals. Detector distance was at machine minimum for measurement. Resolution
could not be increased any further.
;

_diffrn_ambient_temperature      293(2)
_diffrn_radiation_wavelength     0.88561
_diffrn_radiation_type           synchrotron
_diffrn_radiation_source         'BESSY BL MX-14.1'
_diffrn_radiation_monochromator  'Si 111'
_diffrn_measurement_device_type  'MX-225 CCD'
_diffrn_measurement_method       '\D\f scans'
_diffrn_detector_area_resol_mean ?
_diffrn_standards_number         ?
_diffrn_standards_interval_count ?
_diffrn_standards_interval_time  ?
_diffrn_standards_decay_%        ?
_diffrn_reflns_number            40987
_diffrn_reflns_av_R_equivalents  0.0559
_diffrn_reflns_av_sigmaI/netI    0.0366
_diffrn_reflns_limit_h_min       -26
_diffrn_reflns_limit_h_max       26
_diffrn_reflns_limit_k_min       -42
_diffrn_reflns_limit_k_max       42
_diffrn_reflns_limit_l_min       -20
_diffrn_reflns_limit_l_max       16
_diffrn_reflns_theta_min         1.64
_diffrn_reflns_theta_max         32.00
_reflns_number_total             6589
_reflns_number_gt                4623
_reflns_threshold_expression     >2\s(I)

_computing_data_collection       'marCCD 1994-2002'
_computing_cell_refinement       XDS
_computing_data_reduction        XDSCONV
_computing_structure_solution    'SUPERFLIP (Palatinus, 2007)'
_computing_structure_refinement  'SHELXL-97 (Sheldrick, 1997)'
_computing_molecular_graphics    'Diamond 3.1'
_computing_publication_material  WinGX

_refine_special_details          
;
Refinement of F^2^ against ALL reflections. The weighted R-factor wR and
goodness of fit S are based on F^2^, conventional R-factors R are based
on F, with F set to zero for negative F^2^. The threshold expression of
F^2^ > 2\s(F^2^) is used only for calculating R-factors(gt) etc. and is
not relevant to the choice of reflections for refinement. R-factors based
on F^2^ are statistically about twice as large as those based on F, and R-
factors based on ALL data will be even larger.
;

_refine_ls_structure_factor_coef Fsqd
_refine_ls_matrix_type           full
_refine_ls_weighting_scheme      calc
_refine_ls_weighting_details     
'calc w=1/[\s^2^(Fo^2^)+(0.0804P)^2^+0.0000P] where P=(Fo^2^+2Fc^2^)/3'
_atom_sites_solution_primary     'charge flipping'
_atom_sites_solution_secondary   difmap
_atom_sites_solution_hydrogens   geom
_refine_ls_hydrogen_treatment    constr
_refine_ls_extinction_method     none
_refine_ls_extinction_coef       ?
_refine_ls_number_reflns         6589
_refine_ls_number_parameters     127
_refine_ls_number_restraints     0
_refine_ls_R_factor_all          0.0622
_refine_ls_R_factor_gt           0.0440
_refine_ls_wR_factor_ref         0.1271
_refine_ls_wR_factor_gt          0.1209
_refine_ls_goodness_of_fit_ref   0.981
_refine_ls_restrained_S_all      0.981
_refine_ls_shift/su_max          0.002
_refine_ls_shift/su_mean         0.000

loop_
_atom_site_label
_atom_site_type_symbol
_atom_site_fract_x
_atom_site_fract_y
_atom_site_fract_z
_atom_site_U_iso_or_equiv
_atom_site_adp_type
_atom_site_occupancy
_atom_site_symmetry_multiplicity
_atom_site_calc_flag
_atom_site_refinement_flags
_atom_site_disorder_assembly
_atom_site_disorder_group
C1 C 0.57781(9) 0.96560(6) 0.07790(14) 0.0893(6) Uani 1 1 d . . .
C2 C 0.7500 0.84872(7) 0.2500 0.1164(12) Uani 1 2 d S . .
C3 C 0.64311(9) 0.95959(5) 0.19290(15) 0.1062(7) Uani 1 1 d . . .
H3 H 0.6284 0.9819 0.2119 0.127 Uiso 1 1 calc R . .
C4 C 0.68429(10) 0.94085(6) 0.23526(15) 0.1180(8) Uani 1 1 d . . .
H4 H 0.6963 0.9502 0.2830 0.142 Uiso 1 1 calc R . .
C5 C 0.68827(10) 0.89439(6) 0.13693(16) 0.1206(9) Uani 1 1 d . . .
H5 H 0.7038 0.8725 0.1169 0.145 Uiso 1 1 calc R . .
C6 C 0.64577(9) 0.91256(6) 0.09581(15) 0.1062(7) Uani 1 1 d . . .
H6 H 0.6322 0.9023 0.0496 0.127 Uiso 1 1 calc R . .
C7 C 0.70795(9) 0.90791(5) 0.20668(16) 0.1099(8) Uani 1 1 d . . .
C8 C 0.79902(10) 0.82948(6) 0.2363(2) 0.1457(12) Uani 1 1 d . . .
H8 H 0.8328 0.8422 0.2256 0.175 Uiso 1 1 calc R . .
C9 C 0.79869(10) 0.79072(6) 0.2384(2) 0.1459(12) Uani 1 1 d . . .
H9 H 0.8330 0.7780 0.2315 0.175 Uiso 1 1 calc R . .
C10 C 0.7500 0.77077(7) 0.2500 0.1072(10) Uani 1 2 d S . .
C11 C 0.62329(8) 0.94571(5) 0.12243(13) 0.0911(6) Uani 1 1 d . . .
N1 N 0.7500 0.88886(6) 0.2500 0.1291(11) Uani 1 2 d S . .
O1 O 0.56056(6) 0.95054(4) 0.01624(10) 0.1017(4) Uani 1 1 d . . .
O2 O 0.56065(5) 0.99642(4) 0.10528(10) 0.1009(4) Uani 1 1 d . . .
O3 O 0.5000 0.92886(6) -0.13614(16) 0.1393(9) Uani 1 2 d S . .
Zn1 Zn 0.5000 0.969968(7) -0.058255(16) 0.07030(13) Uani 1 2 d S . .

loop_
_atom_site_aniso_label
_atom_site_aniso_U_11
_atom_site_aniso_U_22
_atom_site_aniso_U_33
_atom_site_aniso_U_23
_atom_site_aniso_U_13
_atom_site_aniso_U_12
C1 0.0720(13) 0.0830(14) 0.1130(17) 0.0292(12) -0.0146(11) -0.0023(10)
C2 0.104(2) 0.0588(14) 0.186(3) 0.000 -0.078(2) 0.000
C3 0.1002(15) 0.0705(11) 0.148(2) 0.0000(12) -0.0402(14) 0.0095(10)
C4 0.1207(17) 0.0820(13) 0.151(2) -0.0132(13) -0.0655(16) 0.0067(12)
C5 0.1256(18) 0.0730(12) 0.163(2) -0.0196(13) -0.0660(17) 0.0169(12)
C6 0.1056(15) 0.0826(13) 0.1302(17) -0.0123(12) -0.0453(14) 0.0150(11)
C7 0.1019(15) 0.0608(10) 0.167(2) 0.0021(12) -0.0639(15) -0.0034(10)
C8 0.1033(17) 0.0711(13) 0.263(4) -0.0019(17) -0.049(2) -0.0117(12)
C9 0.1011(17) 0.0689(12) 0.268(4) -0.0170(16) -0.044(2) 0.0062(11)
C10 0.090(2) 0.0636(14) 0.168(3) 0.000 -0.0590(19) 0.000
C11 0.0795(12) 0.0744(11) 0.1195(16) 0.0151(11) -0.0254(11) -0.0013(9)
N1 0.124(2) 0.0602(12) 0.203(3) 0.000 -0.101(2) 0.000
O1 0.0926(10) 0.0946(9) 0.1180(12) 0.0184(9) -0.0309(9) 0.0100(8)
O2 0.0836(9) 0.0861(9) 0.1330(13) 0.0187(8) -0.0172(8) 0.0153(7)
O3 0.171(2) 0.1005(15) 0.146(2) -0.0384(15) 0.000 0.000
Zn1 0.0655(2) 0.05792(17) 0.0875(2) 0.00382(13) 0.000 0.000

_geom_special_details            
;
All s.u.'s (except the s.u. in the dihedral angle between two l.s. planes)
are estimated using the full covariance matrix. The cell s.u.'s are taken
into account individually in the estimation of s.u.'s in distances, angles
and torsion angles; correlations between s.u.'s in cell parameters are only
used when they are defined by crystal symmetry. An approximate (isotropic)
treatment of cell s.u.'s is used for estimating s.u.'s involving l.s. planes.
;

loop_
_geom_bond_atom_site_label_1
_geom_bond_atom_site_label_2
_geom_bond_distance
_geom_bond_site_symmetry_2
_geom_bond_publ_flag
C1 O1 1.256(3) . ?
C1 O2 1.267(2) . ?
C1 C11 1.491(3) . ?
C2 C8 1.357(3) 7_645 ?
C2 C8 1.357(3) . ?
C2 N1 1.440(3) . ?
C3 C4 1.381(3) . ?
C3 C11 1.388(3) . ?
C4 C7 1.394(3) . ?
C5 C6 1.382(3) . ?
C5 C7 1.372(3) . ?
C6 C11 1.378(3) . ?
C7 N1 1.409(2) . ?
C8 C9 1.391(3) . ?
C9 C10 1.359(3) . ?
C10 C9 1.359(3) 7_645 ?
C10 C10 1.491(5) 13_665 ?
N1 C7 1.409(2) 7_645 ?
O1 Zn1 2.0308(14) . ?
O2 Zn1 2.0282(13) 9_675 ?
O3 Zn1 1.991(2) . ?
Zn1 O2 2.0282(13) 4_575 ?
Zn1 O2 2.0282(13) 9_675 ?
Zn1 O1 2.0308(14) 12_655 ?
Zn1 Zn1 2.9412(7) 9_675 ?

loop_
_geom_angle_atom_site_label_1
_geom_angle_atom_site_label_2
_geom_angle_atom_site_label_3
_geom_angle
_geom_angle_site_symmetry_1
_geom_angle_site_symmetry_3
_geom_angle_publ_flag
O1 C1 O2 125.99(19) . . ?
O1 C1 C11 117.1(2) . . ?
O2 C1 C11 116.9(2) . . ?
C8 C2 C8 118.8(3) 7_645 . ?
C8 C2 N1 120.58(13) 7_645 . ?
C8 C2 N1 120.58(13) . . ?
C4 C3 C11 121.1(2) . . ?
C3 C4 C7 120.2(2) . . ?
C6 C5 C7 121.3(2) . . ?
C5 C6 C11 120.8(2) . . ?
C5 C7 C4 118.35(18) . . ?
C5 C7 N1 121.54(19) . . ?
C4 C7 N1 120.1(2) . . ?
C2 C8 C9 120.0(2) . . ?
C10 C9 C8 122.3(2) . . ?
C9 C10 C9 116.4(3) 7_645 . ?
C9 C10 C10 121.80(13) 7_645 13_665 ?
C9 C10 C10 121.80(13) . 13_665 ?
C6 C11 C3 118.15(18) . . ?
C6 C11 C1 121.0(2) . . ?
C3 C11 C1 120.9(2) . . ?
C7 N1 C7 122.0(2) 7_645 . ?
C7 N1 C2 119.02(11) 7_645 . ?
C7 N1 C2 119.02(11) . . ?
C1 O1 Zn1 127.39(14) . . ?
C1 O2 Zn1 126.31(15) . 9_675 ?
O3 Zn1 O2 99.95(8) . 4_575 ?
O3 Zn1 O2 99.95(8) . 9_675 ?
O2 Zn1 O2 88.59(8) 4_575 9_675 ?
O3 Zn1 O1 99.73(8) . . ?
O2 Zn1 O1 88.21(6) 4_575 . ?
O2 Zn1 O1 160.31(7) 9_675 . ?
O3 Zn1 O1 99.73(8) . 12_655 ?
O2 Zn1 O1 160.31(7) 4_575 12_655 ?
O2 Zn1 O1 88.21(6) 9_675 12_655 ?
O1 Zn1 O1 88.29(9) . 12_655 ?
O3 Zn1 Zn1 179.33(8) . 9_675 ?
O2 Zn1 Zn1 80.52(5) 4_575 9_675 ?
O2 Zn1 Zn1 80.52(5) 9_675 9_675 ?
O1 Zn1 Zn1 79.79(5) . 9_675 ?
O1 Zn1 Zn1 79.79(5) 12_655 9_675 ?

_diffrn_measured_fraction_theta_max 0.974
_diffrn_reflns_theta_full        32.00
_diffrn_measured_fraction_theta_full 0.974
_refine_diff_density_max         0.268
_refine_diff_density_min         -0.351
_refine_diff_density_rms         0.037
loop_
_platon_squeeze_void_nr
_platon_squeeze_void_average_x
_platon_squeeze_void_average_y
_platon_squeeze_void_average_z
_platon_squeeze_void_volume
_platon_squeeze_void_count_electrons
_platon_squeeze_void_content
1 -0.005 -0.002 -0.021 11811 4140 ' '

# start Validation Reply Form
_vrf_PUBL024_GLOBAL              
;
PROBLEM: The number of authors is greater than 5.
RESPONSE: All authors accounted important content to this paper. The variety
of analytical methods demanded the contribution from several authors.
;
_vrf_PLAT029_Zn2BenzTBH2O2       
;
PROBLEM: _diffrn_measured_fraction_theta_full Low ....... 0.97
RESPONSE: The missing data is from high resolution. Diffractometer has only
one cycle. The detector distance was already switched to machine limit.
The diffractometer is intended to measure protein crystals with another demand
for resolution. Cutting of high resolution data would increase completeness and
significantly improve R(int) and R(sigma). Due to the domination of lightweight
atoms in the structure and its high porosity the data beyond 25 deg in theta
becomes very noisy. We decided not to apply this "cut off - cosmetics" and
to provide as much data as possible.
;
_vrf_PLAT023_Zn2BenzTBH2O2       
;
PROBLEM: Resolution (too) Low [sin(theta)/Lambda < 0.6].. 28.77 Deg.
RESPONSE: see _vrf_THETM01_Zn2BenzTBH2O2
;

_vrf_PLAT242_Zn2BenzTBH2O2       
;
PROBLEM: Check Low Ueq as Compared to Neighbors for Zn1
RESPONSE: Room temperature measurement. Metal atom is coordinated and therefore
fixed in thermal motion. The oxygen atom (water) in axial position of metal has
freedom in motion.
;
_vrf_PLAT761_Zn2BenzTBH2O2       
;
PROBLEM: CIF Contains no X-H Bonds ...................... ?
RESPONSE: H-positions are constrained. Bond lengths would be useless.
;
_vrf_PLAT762_Zn2BenzTBH2O2       
;
PROBLEM: CIF Contains no X-Y-H or H-Y-H Angles .......... ?
RESPONSE: H-positions are constrained. Angles would be useless.
;
_vrf_FORMU01_ALERT_2_G_Zn2BenzTBH2O2 
;
PROBLEM: H atoms missing
RESPONSE: Positions of Hydrogen atoms from water, were neither located
nor contrained because this could pretend informations that might be
wrongly interpreted.

;
