####################################################################### 
# 
# This file contains crystal structure data downloaded from the 
# Cambridge Structural Database (CSD) hosted by the Cambridge 
# Crystallographic Data Centre (CCDC).
# 
# Full information about CCDC data access policies and citation 
# guidelines are available at http://www.ccdc.cam.ac.uk/access/V1 
# 
# Audit and citation data items may have been added by the CCDC. 
# Please retain this information to preserve the provenance of 
# this file and to allow appropriate attribution of the data. 
# 
#######################################################################

data_compound2
_audit_block_doi                 10.5517/cc4rcqy
_database_code_depnum_ccdc_archive 'CCDC 141630'
loop_
_citation_id
_citation_doi
_citation_year
1 10.1002/1521-3773(20000901)39:17<3130::AID-ANIE3130>3.0.CO;2-I 2000
_audit_update_record             
;
2000-03-08 deposited with the CCDC.	2024-07-13 downloaded from the CCDC.
;



# CHEMICAL DATA

_audit_creation_method           SHELXL-97
_chemical_name_systematic        
;
?
;
_chemical_name_common            ?
_chemical_melting_point          ?
_chemical_formula_moiety         ?
_chemical_formula_sum            'C79.50 H84.50 Cl17.50 Fe2 N18 Ni3 O41'
_chemical_formula_weight         2856.36

# CRYSTAL DATA
_cell_length_a                   32.999(2)
_cell_length_b                   17.1473(11)
_cell_length_c                   20.9802(13)
_cell_angle_alpha                90.00
_cell_angle_beta                 90.00
_cell_angle_gamma                90.00
_cell_volume                     11871.4(13)
_cell_formula_units_Z            4
_cell_measurement_temperature    200(2)
_cell_measurement_reflns_used    5842
_cell_measurement_theta_min      1.53
_cell_measurement_theta_max      27.59


loop_
_atom_type_symbol
_atom_type_description
_atom_type_scat_dispersion_real
_atom_type_scat_dispersion_imag
_atom_type_scat_source
C C 0.0033 0.0016 'International Tables Vol C Tables 4.2.6.8 and 6.1.1.4'
H H 0.0000 0.0000 'International Tables Vol C Tables 4.2.6.8 and 6.1.1.4'
N N 0.0061 0.0033 'International Tables Vol C Tables 4.2.6.8 and 6.1.1.4'
O O 0.0106 0.0060 'International Tables Vol C Tables 4.2.6.8 and 6.1.1.4'
Cl Cl 0.1484 0.1585 'International Tables Vol C Tables 4.2.6.8 and 6.1.1.4'
Fe Fe 0.3463 0.8444 'International Tables Vol C Tables 4.2.6.8 and 6.1.1.4'
Ni Ni 0.3393 1.1124 'International Tables Vol C Tables 4.2.6.8 and 6.1.1.4'

_symmetry_cell_setting           Orthorhombic
_symmetry_space_group_name_H-M   Pnnm

loop_
_symmetry_equiv_pos_as_xyz
'x, y, z'
'-x, -y, z'
'-x+1/2, y+1/2, -z+1/2'
'x+1/2, -y+1/2, -z+1/2'
'-x, -y, -z'
'x, y, -z'
'x-1/2, -y-1/2, z-1/2'
'-x-1/2, y-1/2, z-1/2'


_exptl_crystal_description       prism
_exptl_crystal_colour            black
_exptl_crystal_size_max          0.18
_exptl_crystal_size_mid          0.18
_exptl_crystal_size_min          0.26
_exptl_crystal_density_meas      ?
_exptl_crystal_density_diffrn    1.598
_exptl_crystal_density_method    'not measured'
_exptl_crystal_F_000             5796
_exptl_absorpt_coefficient_mu    1.186
_exptl_absorpt_correction_type   multi-scan
_exptl_absorpt_correction_T_min  0.715744
_exptl_absorpt_correction_T_max  0.862075
_exptl_absorpt_process_details   'SADABS; Sheldrick, 1996'


_diffrn_ambient_temperature      200(2)
_diffrn_radiation_wavelength     0.71073
_diffrn_radiation_type           MoK\a
_diffrn_radiation_source         'fine-focus sealed tube'
_diffrn_radiation_monochromator  graphite
_diffrn_measurement_device_type  'CCD area detector'
_diffrn_measurement_method       'omega scans'
_diffrn_detector_area_resol_mean ?
_diffrn_standards_number         ?
_diffrn_standards_interval_count ?
_diffrn_standards_interval_time  ?
_diffrn_standards_decay_%        ?
_diffrn_reflns_number            76878
_diffrn_reflns_av_R_equivalents  0.0847
_diffrn_reflns_av_sigmaI/netI    0.0748
_diffrn_reflns_limit_h_min       -42
_diffrn_reflns_limit_h_max       42
_diffrn_reflns_limit_k_min       -22
_diffrn_reflns_limit_k_max       15
_diffrn_reflns_limit_l_min       -27
_diffrn_reflns_limit_l_max       26
_diffrn_reflns_theta_min         1.53
_diffrn_reflns_theta_max         27.59
_reflns_number_total             14045
_reflns_number_gt                7052
_reflns_threshold_expression     >2sigma(I)

_computing_data_collection       'SMART(Bruker, 1998)'
_computing_cell_refinement       'SMART & SAINT(Bruker, 1998)'
_computing_data_reduction        'SAINT(Bruker, 1998)'
_computing_structure_solution    'SIR-92 (Altomare et al., 1994)'
_computing_structure_refinement  'SHELXL-97 (Sheldrick, 1997)'
_computing_molecular_graphics    
;teXsan (Molecular Structure Corporation, Rigaku Corporation, 1998)
;
_computing_publication_material  'SHELXL-97 (Sheldrick, 1997)'

_refine_special_details          
;
Refinement of F^2^ against ALL reflections.  The weighted R-factor wR and
goodness of fit S are based on F^2^, conventional R-factors R are based
on F, with F set to zero for negative F^2^. The threshold expression of
F^2^ > 2sigma(F^2^) is used only for calculating R-factors(gt) etc. and is
not relevant to the choice of reflections for refinement.  R-factors based
on F^2^ are statistically about twice as large as those based on F, and R-
factors based on ALL data will be even larger.
;

_refine_ls_structure_factor_coef Fsqd
_refine_ls_matrix_type           full
_refine_ls_weighting_scheme      calc
_refine_ls_weighting_details     
'calc w=1/[\s^2^(Fo^2^)+(0.1808P)^2^+0.0000P] where P=(Fo^2^+2Fc^2^)/3'
_atom_sites_solution_primary     direct
_atom_sites_solution_secondary   difmap
_atom_sites_solution_hydrogens   geom
_refine_ls_hydrogen_treatment    refall
_refine_ls_extinction_method     none
_refine_ls_extinction_coef       ?
_refine_ls_number_reflns         14045
_refine_ls_number_parameters     792
_refine_ls_number_restraints     0
_refine_ls_R_factor_all          0.1594
_refine_ls_R_factor_gt           0.0873
_refine_ls_wR_factor_ref         0.3015
_refine_ls_wR_factor_gt          0.2532
_refine_ls_goodness_of_fit_ref   1.030
_refine_ls_restrained_S_all      1.030
_refine_ls_shift/su_max          9.625
_refine_ls_shift/su_mean         0.253
_refine_diff_density_max         1.675
_refine_diff_density_min         -0.943
_refine_diff_density_rms         0.139

loop_
_atom_site_label
_atom_site_type_symbol
_atom_site_fract_x
_atom_site_fract_y
_atom_site_fract_z
_atom_site_U_iso_or_equiv
_atom_site_adp_type
_atom_site_occupancy
_atom_site_symmetry_multiplicity
_atom_site_calc_flag
_atom_site_refinement_flags
_atom_site_disorder_assembly
_atom_site_disorder_group
Ni1 Ni 0.23994(2) 0.88154(4) 0.25136(4) 0.0348(2) Uani 1 1 d . . .
Ni2 Ni 0.5000 1.0000 0.24507(6) 0.0380(3) Uani 1 2 d S . .
Fe1 Fe 0.34880(2) 1.11820(5) 0.24129(5) 0.0367(3) Uani 1 1 d . . .
O1 O 0.29539(12) 1.0850(2) 0.1932(2) 0.0419(11) Uani 1 1 d . . .
O2 O 0.34055(12) 1.0138(2) 0.2922(2) 0.0402(10) Uani 1 1 d . . .
O3 O 0.19055(13) 0.6710(2) 0.1961(2) 0.0453(11) Uani 1 1 d . . .
O4 O 0.14968(12) 0.7270(2) 0.3026(2) 0.0424(11) Uani 1 1 d . . .
O5 O 0.38447(12) 1.0487(3) 0.1832(2) 0.0416(10) Uani 1 1 d . . .
O6 O 0.40341(11) 1.1434(2) 0.2867(2) 0.0414(10) Uani 1 1 d . . .
N1 N 0.21312(16) 0.9532(3) 0.1829(3) 0.0432(13) Uani 1 1 d . . .
N2 N 0.27965(14) 0.9712(3) 0.2499(2) 0.0329(11) Uani 1 1 d . . .
N3 N 0.28093(15) 0.8477(3) 0.3225(3) 0.0413(12) Uani 1 1 d . . .
N4 N 0.26742(15) 0.8133(3) 0.1795(2) 0.0379(12) Uani 1 1 d . . .
N5 N 0.20349(14) 0.7874(3) 0.2496(2) 0.0344(11) Uani 1 1 d . . .
N6 N 0.19705(16) 0.9114(3) 0.3215(3) 0.0425(13) Uani 1 1 d . . .
N7 N 0.47215(15) 0.9297(3) 0.1754(3) 0.0429(13) Uani 1 1 d . . .
N8 N 0.44409(14) 1.0474(3) 0.2422(2) 0.0375(12) Uani 1 1 d . . .
N9 N 0.50566(15) 1.0883(3) 0.3134(3) 0.0497(15) Uani 1 1 d . . .
C1 C 0.1784(2) 0.9411(5) 0.1509(5) 0.069(2) Uani 1 1 d . . .
H1 H 0.1619 0.8978 0.1623 0.083 Uiso 1 1 calc R . .
C2 C 0.1659(3) 0.9889(5) 0.1027(5) 0.094(4) Uani 1 1 d . . .
H2 H 0.1419 0.9777 0.0796 0.113 Uiso 1 1 calc R . .
C3 C 0.1885(3) 1.0528(5) 0.0883(5) 0.096(4) Uani 1 1 d . . .
H3 H 0.1793 1.0887 0.0570 0.115 Uiso 1 1 calc R . .
C4 C 0.2248(2) 1.0658(4) 0.1188(4) 0.058(2) Uani 1 1 d . . .
H4 H 0.2419 1.1079 0.1068 0.069 Uiso 1 1 calc R . .
C5 C 0.23562(18) 1.0157(4) 0.1673(3) 0.0398(14) Uani 1 1 d . . .
C6 C 0.27392(17) 1.0281(3) 0.2051(3) 0.0359(13) Uani 1 1 d . . .
C7 C 0.31163(17) 0.9681(3) 0.2879(3) 0.0334(13) Uani 1 1 d . . .
C8 C 0.31193(17) 0.8977(3) 0.3305(3) 0.0353(13) Uani 1 1 d . . .
C9 C 0.3417(2) 0.8855(4) 0.3753(3) 0.0439(15) Uani 1 1 d . . .
H9 H 0.3630 0.9222 0.3806 0.053 Uiso 1 1 calc R . .
C10 C 0.3403(2) 0.8199(4) 0.4119(3) 0.0521(18) Uani 1 1 d . . .
H10 H 0.3615 0.8083 0.4410 0.062 Uiso 1 1 calc R . .
C11 C 0.3079(2) 0.7714(5) 0.4060(4) 0.062(2) Uani 1 1 d . . .
H11 H 0.3049 0.7283 0.4341 0.074 Uiso 1 1 calc R . .
C12 C 0.2795(2) 0.7848(4) 0.3595(3) 0.0526(18) Uani 1 1 d . . .
H12 H 0.2583 0.7481 0.3535 0.063 Uiso 1 1 calc R . .
C13 C 0.3001(2) 0.8289(4) 0.1450(4) 0.0529(19) Uani 1 1 d . . .
H13 H 0.3137 0.8771 0.1517 0.064 Uiso 1 1 calc R . .
C14 C 0.3150(2) 0.7786(5) 0.1005(3) 0.0531(18) Uani 1 1 d . . .
H14 H 0.3391 0.7909 0.0780 0.064 Uiso 1 1 calc R . .
C15 C 0.2946(2) 0.7092(4) 0.0882(3) 0.0495(17) Uani 1 1 d . . .
H15 H 0.3042 0.6739 0.0567 0.059 Uiso 1 1 calc R . .
C16 C 0.2601(2) 0.6931(4) 0.1229(3) 0.0445(15) Uani 1 1 d . . .
H16 H 0.2452 0.6463 0.1160 0.053 Uiso 1 1 calc R . .
C17 C 0.24792(18) 0.7456(3) 0.1668(3) 0.0359(13) Uani 1 1 d . . .
C18 C 0.21045(16) 0.7313(3) 0.2070(3) 0.0337(13) Uani 1 1 d . . .
C19 C 0.17247(17) 0.7827(3) 0.2928(3) 0.0351(13) Uani 1 1 d . . .
C20 C 0.16831(19) 0.8557(4) 0.3314(3) 0.0408(15) Uani 1 1 d . . .
C21 C 0.1375(2) 0.8641(5) 0.3744(4) 0.067(2) Uani 1 1 d . . .
H21 H 0.1186 0.8234 0.3816 0.080 Uiso 1 1 calc R . .
C22 C 0.1348(3) 0.9354(5) 0.4078(5) 0.077(3) Uani 1 1 d . . .
H22 H 0.1128 0.9452 0.4359 0.092 Uiso 1 1 calc R . .
C23 C 0.1644(3) 0.9900(5) 0.3987(5) 0.075(3) Uani 1 1 d . . .
H23 H 0.1639 1.0370 0.4226 0.090 Uiso 1 1 calc R . .
C24 C 0.1944(2) 0.9772(4) 0.3557(4) 0.060(2) Uani 1 1 d . . .
H24 H 0.2143 1.0166 0.3496 0.072 Uiso 1 1 calc R . .
C25 C 0.4865(2) 0.8684(5) 0.1449(4) 0.067(2) Uani 1 1 d . . .
H25 H 0.5134 0.8517 0.1542 0.080 Uiso 1 1 calc R . .
C26 C 0.4646(2) 0.8273(5) 0.1004(5) 0.080(3) Uani 1 1 d . . .
H26 H 0.4761 0.7836 0.0794 0.096 Uiso 1 1 calc R . .
C27 C 0.4263(2) 0.8503(6) 0.0871(5) 0.080(3) Uani 1 1 d . . .
H27 H 0.4103 0.8216 0.0577 0.097 Uiso 1 1 calc R . .
C28 C 0.4106(2) 0.9153(5) 0.1162(3) 0.0525(18) Uani 1 1 d . . .
H28 H 0.3843 0.9339 0.1059 0.063 Uiso 1 1 calc R . .
C29 C 0.43432(17) 0.9526(4) 0.1610(3) 0.0378(14) Uani 1 1 d . . .
C30 C 0.41849(16) 1.0216(3) 0.1975(3) 0.0348(13) Uani 1 1 d . . .
C31 C 0.43621(17) 1.1074(4) 0.2809(3) 0.0372(14) Uani 1 1 d . . .
C32 C 0.47090(19) 1.1318(4) 0.3220(4) 0.0500(18) Uani 1 1 d . . .
C33 C 0.4691(2) 1.1949(5) 0.3624(4) 0.070(2) Uani 1 1 d . . .
H33 H 0.4446 1.2233 0.3675 0.084 Uiso 1 1 calc R . .
C34 C 0.5036(3) 1.2162(7) 0.3955(6) 0.102(4) Uani 1 1 d . . .
H34 H 0.5035 1.2611 0.4221 0.123 Uiso 1 1 calc R . .
C35 C 0.5381(3) 1.1715(7) 0.3895(6) 0.099(4) Uani 1 1 d . . .
H35 H 0.5616 1.1831 0.4139 0.119 Uiso 1 1 calc R . .
C36 C 0.5381(2) 1.1095(6) 0.3475(5) 0.074(3) Uani 1 1 d . . .
H36 H 0.5624 1.0804 0.3425 0.089 Uiso 1 1 calc R . .
Cl40 Cl 0.40877(11) 0.6485(2) 0.48160(15) 0.0531(11) Uani 0.50 1 d P . .
O41 O 0.4151(5) 0.6396(10) 0.4178(8) 0.121(6) Uani 0.50 1 d P . .
O42 O 0.4339(5) 0.7051(10) 0.5000 0.182(8) Uani 1 2 d S . .
O43 O 0.3663(3) 0.6747(6) 0.5000 0.107(3) Uani 1 2 d S . .
O44 O 0.4097(4) 0.5753(8) 0.5000 0.158(6) Uani 1 2 d S . .
C45 C 0.3899(5) 0.6716(13) 0.2471(8) 0.152(7) Uani 1 1 d . . .
Cl46 Cl 0.33782(17) 0.6485(4) 0.25077(19) 0.1598(18) Uani 1 1 d . . .
Cl47 Cl 0.4080(4) 0.6341(10) 0.1848(11) 0.309(11) Uani 0.50 1 d P . .
Cl48 Cl 0.39152(17) 0.7748(3) 0.2457(2) 0.1637(18) Uani 1 1 d . . .
Cl49 Cl 0.4146(4) 0.6462(8) 0.3106(8) 0.245(8) Uani 0.50 1 d P . .
Cl50 Cl 0.40809(10) 0.6455(2) 0.01793(14) 0.0474(10) Uani 0.50 1 d P . .
O51 O 0.4030(6) 0.5712(7) 0.0000 0.165(7) Uani 1 2 d S . .
O52 O 0.3774(3) 0.6984(9) 0.0000 0.125(5) Uani 1 2 d S . .
O53 O 0.4438(3) 0.6772(6) 0.0000 0.106(4) Uani 1 2 d S . .
O54 O 0.4108(5) 0.6425(10) 0.0850(6) 0.101(5) Uani 0.50 1 d P . .
Cl55 Cl 0.22890(11) 0.51391(19) 0.0000 0.0775(9) Uani 1 2 d S . .
O56 O 0.2627(4) 0.5636(7) 0.0000 0.130(5) Uani 1 2 d S . .
O57 O 0.2109(5) 0.5227(9) 0.0581(7) 0.286(10) Uani 1 1 d . . .
O58 O 0.2398(5) 0.4373(8) 0.0000 0.191(8) Uani 1 2 d S . .
C60 C 0.4087(4) 0.1137(9) 0.0000 0.118(6) Uani 1 2 d S . .
Cl61 Cl 0.45469(13) 0.0576(3) 0.0000 0.1159(15) Uani 1 2 d S . .
Cl62 Cl 0.40537(18) 0.1663(3) 0.06616(17) 0.200(3) Uani 1 1 d . . .
C65 C 0.4125(15) 0.0157(19) 0.5000 0.139(17) Uani 0.50 2 d SP . .
Cl66 Cl 0.4130(2) -0.0634(5) 0.5000 0.0779(18) Uani 0.50 2 d SP . .
Cl67 Cl 0.3970(4) 0.0720(5) 0.4298(4) 0.169(4) Uani 0.50 1 d P . .
C70 C 0.1724(6) 0.7419(13) 0.0000 0.137(7) Uani 1 2 d S . .
Cl71 Cl 0.14457(19) 0.7474(5) 0.0676(2) 0.257(4) Uani 1 1 d . . .
Cl72 Cl 0.20934(14) 0.8189(3) 0.0000 0.1246(16) Uani 1 2 d S . .
C75 C 0.0671(13) 0.953(2) 0.214(5) 0.72(9) Uani 1 1 d . . .
O76 O 0.0677(9) 0.901(2) 0.174(3) 0.69(5) Uani 1 1 d . . .
C77 C 0.2919(5) 0.2414(10) 0.0000 0.101(5) Uani 1 2 d S . .
O78 O 0.2652(3) 0.1795(7) 0.0000 0.118(4) Uani 1 2 d S . .
Cl80 Cl 0.31236(7) 0.97649(15) 0.0000 0.0520(6) Uani 1 2 d S . .
O81 O 0.3466(3) 0.9274(7) 0.0000 0.109(4) Uani 1 2 d S . .
O82 O 0.2767(3) 0.9404(9) 0.0000 0.246(12) Uani 1 2 d S . .
O83 O 0.3140(4) 1.0168(11) 0.0525(7) 0.314(12) Uani 1 1 d . . .
O90 O 0.9976(4) 0.9403(8) 0.0799(11) 0.253(8) Uani 1 1 d . . .
O91 O 0.5236(7) 0.6446(16) 0.8287(17) 0.34(3) Uani 1 1 d . . .
O92 O 0.5362(3) 0.6585(9) 0.9446(10) 0.289(11) Uani 1 1 d . . .
O93 O 0.5239(4) 0.5113(10) 0.9119(10) 0.274(8) Uani 1 1 d . . .
O94 O 0.0726(4) 0.8846(8) 0.0626(15) 0.39(2) Uani 1 1 d . . .

loop_
_atom_site_aniso_label
_atom_site_aniso_U_11
_atom_site_aniso_U_22
_atom_site_aniso_U_33
_atom_site_aniso_U_23
_atom_site_aniso_U_13
_atom_site_aniso_U_12
Ni1 0.0297(4) 0.0228(4) 0.0517(5) 0.0005(4) -0.0019(3) -0.0051(3)
Ni2 0.0197(5) 0.0300(6) 0.0643(8) 0.000 0.000 0.0021(4)
Fe1 0.0219(4) 0.0209(4) 0.0672(6) 0.0046(4) 0.0026(4) 0.0019(3)
O1 0.029(2) 0.029(2) 0.068(3) 0.013(2) -0.005(2) -0.0007(18)
O2 0.028(2) 0.026(2) 0.066(3) 0.011(2) -0.0036(19) -0.0027(17)
O3 0.037(2) 0.031(2) 0.068(3) -0.014(2) 0.010(2) -0.0128(19)
O4 0.029(2) 0.029(2) 0.069(3) -0.006(2) 0.010(2) -0.0036(18)
O5 0.028(2) 0.039(2) 0.058(3) -0.003(2) -0.0070(19) 0.0084(18)
O6 0.0231(19) 0.032(2) 0.069(3) -0.006(2) 0.0001(19) -0.0001(17)
N1 0.040(3) 0.029(3) 0.060(4) -0.001(3) -0.012(3) -0.004(2)
N2 0.028(2) 0.023(2) 0.048(3) 0.007(2) -0.007(2) -0.0014(19)
N3 0.038(3) 0.031(3) 0.055(3) 0.005(2) -0.005(2) -0.004(2)
N4 0.033(3) 0.030(3) 0.050(3) 0.002(2) 0.003(2) -0.004(2)
N5 0.028(2) 0.023(2) 0.053(3) -0.003(2) 0.003(2) -0.0057(19)
N6 0.040(3) 0.025(3) 0.062(4) -0.007(2) -0.001(3) -0.005(2)
N7 0.027(3) 0.035(3) 0.066(4) -0.010(3) 0.008(2) 0.002(2)
N8 0.021(2) 0.031(3) 0.060(3) -0.005(2) -0.002(2) 0.001(2)
N9 0.028(3) 0.045(3) 0.077(4) -0.009(3) -0.012(3) 0.003(2)
C1 0.052(4) 0.045(4) 0.110(7) 0.002(5) -0.037(5) -0.007(4)
C2 0.105(7) 0.048(5) 0.128(8) 0.008(5) -0.082(7) -0.011(5)
C3 0.129(8) 0.048(5) 0.110(7) 0.030(5) -0.082(7) -0.024(5)
C4 0.073(5) 0.036(4) 0.065(5) 0.011(3) -0.020(4) -0.008(4)
C5 0.036(3) 0.027(3) 0.056(4) -0.003(3) -0.007(3) 0.006(3)
C6 0.030(3) 0.025(3) 0.053(4) 0.006(3) -0.001(3) 0.000(2)
C7 0.031(3) 0.022(3) 0.047(4) -0.003(3) 0.003(3) 0.004(2)
C8 0.030(3) 0.029(3) 0.047(3) 0.005(3) 0.004(3) 0.000(2)
C9 0.041(3) 0.042(4) 0.048(4) 0.004(3) -0.002(3) 0.001(3)
C10 0.051(4) 0.054(4) 0.052(4) 0.013(3) -0.013(3) -0.006(3)
C11 0.078(5) 0.045(4) 0.062(5) 0.022(4) -0.010(4) -0.012(4)
C12 0.052(4) 0.038(4) 0.068(5) 0.015(3) -0.009(4) -0.014(3)
C13 0.050(4) 0.045(4) 0.064(5) 0.007(4) 0.014(4) -0.017(3)
C14 0.044(4) 0.059(5) 0.056(4) 0.003(4) 0.019(3) -0.009(3)
C15 0.051(4) 0.043(4) 0.054(4) -0.002(3) 0.014(3) 0.000(3)
C16 0.043(4) 0.038(4) 0.052(4) -0.003(3) 0.002(3) -0.001(3)
C17 0.036(3) 0.031(3) 0.041(3) 0.003(3) 0.004(3) -0.003(3)
C18 0.026(3) 0.026(3) 0.050(4) -0.001(3) -0.002(3) -0.003(2)
C19 0.031(3) 0.028(3) 0.046(3) -0.001(3) 0.001(3) 0.003(2)
C20 0.036(3) 0.027(3) 0.060(4) -0.003(3) 0.006(3) 0.002(3)
C21 0.057(5) 0.043(4) 0.100(6) -0.025(4) 0.029(4) -0.007(4)
C22 0.073(6) 0.054(5) 0.103(7) -0.035(5) 0.033(5) -0.004(4)
C23 0.074(6) 0.048(5) 0.104(7) -0.042(5) 0.023(5) -0.013(4)
C24 0.056(4) 0.034(4) 0.090(6) -0.021(4) 0.003(4) -0.007(3)
C25 0.037(4) 0.051(5) 0.111(7) -0.029(5) 0.010(4) 0.000(3)
C26 0.052(5) 0.065(6) 0.122(8) -0.051(6) 0.020(5) -0.007(4)
C27 0.049(5) 0.089(7) 0.104(7) -0.062(6) 0.012(5) -0.019(4)
C28 0.038(4) 0.058(5) 0.061(4) -0.017(4) 0.009(3) -0.005(3)
C29 0.028(3) 0.035(3) 0.050(4) -0.004(3) 0.009(3) -0.002(3)
C30 0.024(3) 0.031(3) 0.050(3) 0.003(3) -0.003(2) -0.003(2)
C31 0.023(3) 0.028(3) 0.061(4) -0.005(3) 0.001(3) 0.001(2)
C32 0.028(3) 0.045(4) 0.077(5) -0.015(4) -0.006(3) -0.002(3)
C33 0.045(4) 0.062(5) 0.102(7) -0.033(5) -0.018(4) 0.006(4)
C34 0.066(6) 0.089(8) 0.152(10) -0.066(7) -0.041(6) 0.003(5)
C35 0.056(5) 0.095(8) 0.147(10) -0.042(7) -0.039(6) -0.004(5)
C36 0.036(4) 0.074(6) 0.111(7) -0.026(6) -0.024(4) 0.005(4)
Cl40 0.0521(18) 0.0476(18) 0.060(3) 0.0052(15) 0.0016(14) -0.0062(15)
O41 0.149(15) 0.119(13) 0.094(