
#######################################################################
#
#                 Cambridge Crystallographic Data Centre
#                                CCDC
#
#######################################################################
#
# If this CIF has been generated from an entry in the Cambridge
# Structural Database, then it will include bibliographic, chemical,
# crystal, experimental, refinement or atomic coordinate data resulting
# from the CCDC's data processing and validation procedures.
#
#######################################################################

data_CSD_CIF_XAHVIM
_audit_creation_date 2005-01-11
_audit_creation_method CSD-ConQuest-V1
_database_code_CSD XAHVIM
_database_code_depnum_ccdc_archive 'CCDC 250287'
_chemical_formula_sum 'C20 H40 I5 O5 Yb1'
_chemical_formula_moiety
;
C20 H40 I2 O5 Yb1 1+,I3 1-
;
_journal_coden_Cambridge 9
_journal_volume 43
_journal_year 2004
_journal_page_first 5659
_journal_name_full 'Inorg.Chem. '
loop_
_publ_author_name
"L.Huebner"
"A.Kornienko"
"T.J.Emge"
"J.G.Brennan"
_chemical_name_systematic
;
Di-iodo-pentakis(tetrahydrofuran)-ytterbium tri-iodide
;
_chemical_name_common
;
Teaching Subset: Fundamental Chemistry, Symmetry
;
_chemical_melting_point 569.15
_cell_volume   3182.716
_exptl_crystal_colour 'yellow'
_exptl_crystal_density_diffrn 2.438
_exptl_special_details
;
Melts above 569.15K

;
_exptl_crystal_description 'lath'
_diffrn_ambient_temperature 100
_refine_special_details
;
One independent tetrahydrofuran ring is disordered over two positions with 
occupancy 0.554:0.446.
;
#These two values have been output from a single CSD field.
_refine_ls_R_factor_gt 0.0368
_refine_ls_wR_factor_gt 0.0368
_symmetry_cell_setting orthorhombic
_symmetry_space_group_name_H-M 'P b c n'
_symmetry_Int_Tables_number 60
loop_
_symmetry_equiv_pos_site_id
_symmetry_equiv_pos_as_xyz
1 x,y,z
2 1/2-x,1/2-y,1/2+z
3 -x,y,1/2-z
4 1/2+x,1/2-y,-z
5 -x,-y,-z
6 -1/2+x,-1/2+y,-1/2-z
7 x,-y,-1/2+z
8 -1/2-x,-1/2+y,z
_cell_length_a 12.3056(13)
_cell_length_b 21.741(2)
_cell_length_c 11.8964(12)
_cell_angle_alpha 90
_cell_angle_beta 90
_cell_angle_gamma 90
_cell_formula_units_Z 4
loop_
_atom_type_symbol
_atom_type_radius_bond
C 0.68
H 0.23
I 1.40
O 0.68
Yb 1.94
loop_
_atom_site_label
_atom_site_type_symbol
_atom_site_fract_x
_atom_site_fract_y
_atom_site_fract_z
Yb1 Yb 0.00000 0.298504(16) 0.25000
I1 I 0.01667(3) 0.29901(2) 0.49742(3)
O1 O 0.00000 0.4066(3) 0.25000
C1 C 0.0289(5) 0.4462(3) 0.1541(6)
H1 H -0.02910 0.44530 0.09640
H2 H 0.09780 0.43230 0.11930
C2 C 0.0412(6) 0.5100(3) 0.2018(6)
H3 H 0.02330 0.54180 0.14510
H4 H 0.11590 0.51710 0.22990
O2 O 0.1802(3) 0.33159(18) 0.2321(3)
C3 C 0.2565(4) 0.3175(3) 0.1405(4)
H5 H 0.23570 0.33980 0.07120
H6 H 0.25660 0.27280 0.12430
C4 C 0.3661(4) 0.3378(3) 0.1801(5)
H7 H 0.39420 0.37140 0.13190
H8 H 0.41820 0.30310 0.17780
C5 C 0.3513(6) 0.3602(6) 0.2995(8)
H9 H 0.37200 0.32780 0.35400
H10 H 0.39590 0.39720 0.31370
C6 C 0.2347(5) 0.3746(3) 0.3084(5)
H11 H 0.20890 0.36870 0.38650
H12 H 0.22060 0.41760 0.28550
O3 O 0.1119(3) 0.21095(18) 0.2432(3)
C7 C 0.1995(5) 0.1958(3) 0.3210(5)
H13 H 0.17090 0.17270 0.38650
H14 H 0.23550 0.23360 0.34830
C8 C 0.2773(5) 0.1571(3) 0.2559(5)
H15 H 0.31710 0.12840 0.30570
H16 H 0.33020 0.18290 0.21450
C9 C 0.2033(6) 0.1227(4) 0.1761(7)
H17 H 0.24140 0.11400 0.10450
H18 H 0.17980 0.08330 0.20970
C10 C 0.1102(6) 0.1625(3) 0.1565(7)
H19 H 0.04200 0.13850 0.16170
H20 H 0.11460 0.18100 0.08070
I2 I 0.00000 0.00000 0.50000
I3 I -0.22978(3) -0.02291(2) 0.53767(4)
O4? O 0.1802(3) 0.33159(18) 0.2321(3)
C11? C 0.2565(4) 0.3175(3) 0.1405(4)
H21? H 0.23570 0.33980 0.07120
H22? H 0.25660 0.27280 0.12430
C12? C 0.3661(4) 0.3378(3) 0.1801(5)
H23? H 0.41220 0.35100 0.11630
H24? H 0.40360 0.30450 0.22150
C13? C 0.3403(8) 0.3911(5) 0.2566(10)
H25? H 0.39720 0.39610 0.31470
H26? H 0.33410 0.42990 0.21330
C14? C 0.2347(5) 0.3746(3) 0.3084(5)
H27? H 0.24660 0.35500 0.38250
H28? H 0.18970 0.41180 0.31920
I1B I -0.01667(3) 0.29901(2) 0.00258(3)
C2B C -0.0412(6) 0.5100(3) 0.2982(6)
C1B C -0.0289(5) 0.4462(3) 0.3459(6)
H1B H 0.02910 0.44530 0.40360
H2B H -0.09780 0.43230 0.38070
H3B H -0.02330 0.54180 0.35490
H4B H -0.11590 0.51710 0.27010
O2B O -0.1802(3) 0.33159(18) 0.2679(3)
C3B C -0.2565(4) 0.3175(3) 0.3595(4)
H5B H -0.23570 0.33980 0.42880
H6B H -0.25660 0.27280 0.37570
C4B C -0.3661(4) 0.3378(3) 0.3199(5)
H7B H -0.39420 0.37140 0.36810
H8B H -0.41820 0.30310 0.32220
C5B C -0.3513(6) 0.3602(6) 0.2005(8)
H9B H -0.37200 0.32780 0.14600
H10B H -0.39590 0.39720 0.18630
C6B C -0.2347(5) 0.3746(3) 0.1916(5)
H11B H -0.20890 0.36870 0.11350
H12B H -0.22060 0.41760 0.21450
O3B O -0.1119(3) 0.21095(18) 0.2568(3)
C7B C -0.1995(5) 0.1958(3) 0.1790(5)
H13B H -0.17090 0.17270 0.11350
H14B H -0.23550 0.23360 0.15170
C8B C -0.2773(5) 0.1571(3) 0.2441(5)
H15B H -0.31710 0.12840 0.19430
H16B H -0.33020 0.18290 0.28550
C9B C -0.2033(6) 0.1227(4) 0.3239(7)
H17B H -0.24140 0.11400 0.39550
H18B H -0.17980 0.08330 0.29030
C10B C -0.1102(6) 0.1625(3) 0.3435(7)
H19B H -0.04200 0.13850 0.33830
H20B H -0.11460 0.18100 0.41930
I3D I 0.22978(3) 0.02291(2) 0.46233(4)
#END
