####################################################################### 
# 
# This file contains crystal structure data downloaded from the 
# Cambridge Structural Database (CSD) hosted by the Cambridge 
# Crystallographic Data Centre (CCDC).
# 
# Full information about CCDC data access policies and citation 
# guidelines are available at http://www.ccdc.cam.ac.uk/access/V1 
# 
# Audit and citation data items may have been added by the CCDC. 
# Please retain this information to preserve the provenance of 
# this file and to allow appropriate attribution of the data. 
# 
#######################################################################

data_complex2
_audit_block_doi                 10.5517/cc7zhc1
_database_code_depnum_ccdc_archive 'CCDC 237843'
loop_
_citation_id
_citation_doi
_citation_year
1 10.1021/ic0486872 2005
_audit_update_record             
;
2004-05-05 deposited with the CCDC.	2024-07-13 downloaded from the CCDC.
;


_audit_creation_method           SHELXL-97
_chemical_name_systematic        
;
?
;
_chemical_name_common            ?
_chemical_melting_point          ?
_chemical_formula_moiety         ?
_chemical_formula_sum            'C45 H45 Mn3 N9 O10'
_chemical_formula_weight         1036.72

loop_
_atom_type_symbol
_atom_type_description
_atom_type_scat_dispersion_real
_atom_type_scat_dispersion_imag
_atom_type_scat_source
C C 0.0033 0.0016 'International Tables Vol C Tables 4.2.6.8 and 6.1.1.4'
H H 0.0000 0.0000 'International Tables Vol C Tables 4.2.6.8 and 6.1.1.4'
N N 0.0061 0.0033 'International Tables Vol C Tables 4.2.6.8 and 6.1.1.4'
O O 0.0106 0.0060 'International Tables Vol C Tables 4.2.6.8 and 6.1.1.4'
Mn Mn 0.3368 0.7283 'International Tables Vol C Tables 4.2.6.8 and 6.1.1.4'

_symmetry_cell_setting           Tetragonal
_symmetry_space_group_name_H-M   I41/a

loop_
_symmetry_equiv_pos_as_xyz
'x, y, z'
'-x+1/2, -y, z+1/2'
'-y+3/4, x+1/4, z+1/4'
'y+3/4, -x+3/4, z+3/4'
'x+1/2, y+1/2, z+1/2'
'-x+1, -y+1/2, z+1'
'-y+5/4, x+3/4, z+3/4'
'y+5/4, -x+5/4, z+5/4'
'-x, -y, -z'
'x-1/2, y, -z-1/2'
'y-3/4, -x-1/4, -z-1/4'
'-y-3/4, x-3/4, -z-3/4'
'-x+1/2, -y+1/2, -z+1/2'
'x, y+1/2, -z'
'y-1/4, -x+1/4, -z+1/4'
'-y-1/4, x-1/4, -z-1/4'

_cell_length_a                   40.6327(3)
_cell_length_b                   40.6327(3)
_cell_length_c                   17.6171(2)
_cell_angle_alpha                90.00
_cell_angle_beta                 90.00
_cell_angle_gamma                90.00
_cell_volume                     29086.1(4)
_cell_formula_units_Z            16
_cell_measurement_temperature    173(2)
_cell_measurement_reflns_used    1024
_cell_measurement_theta_min      1.90
_cell_measurement_theta_max      24.21

_exptl_crystal_description       prism
_exptl_crystal_colour            'dark brown'
_exptl_crystal_size_max          1.00
_exptl_crystal_size_mid          0.60
_exptl_crystal_size_min          0.45
_exptl_crystal_density_meas      ?
_exptl_crystal_density_diffrn    0.947
_exptl_crystal_density_method    'not measured'
_exptl_crystal_F_000             8528
_exptl_absorpt_coefficient_mu    0.556
_exptl_absorpt_correction_type   Multi-scan
_exptl_absorpt_correction_T_min  0.6063
_exptl_absorpt_correction_T_max  0.7880
_exptl_absorpt_process_details   'Bruker SADABS'

_exptl_special_details           
;
?
;

_diffrn_ambient_temperature      173(2)
_diffrn_radiation_wavelength     0.71073
_diffrn_radiation_type           MoK\a
_diffrn_radiation_source         'fine-focus sealed tube'
_diffrn_radiation_monochromator  graphite
_diffrn_measurement_device_type  'CCD area detector'
_diffrn_measurement_method       'phi and omega scans'
_diffrn_detector_area_resol_mean ?
_diffrn_standards_number         ?
_diffrn_standards_interval_count ?
_diffrn_standards_interval_time  ?
_diffrn_standards_decay_%        <2.0
_diffrn_reflns_number            55063
_diffrn_reflns_av_R_equivalents  0.0580
_diffrn_reflns_av_sigmaI/netI    0.0315
_diffrn_reflns_limit_h_min       -46
_diffrn_reflns_limit_h_max       45
_diffrn_reflns_limit_k_min       -32
_diffrn_reflns_limit_k_max       46
_diffrn_reflns_limit_l_min       -20
_diffrn_reflns_limit_l_max       19
_diffrn_reflns_theta_min         1.90
_diffrn_reflns_theta_max         24.21
_reflns_number_total             11471
_reflns_number_gt                9570
_reflns_threshold_expression     >2sigma(I)

_computing_data_collection       'Bruker SMART'
_computing_cell_refinement       'Bruker SAINT'
_computing_data_reduction        'Bruker SAINT'
_computing_structure_solution    'Bruker SHELXTL'
_computing_structure_refinement  'Bruker SHELXTL'
_computing_molecular_graphics    ORTEP3
_computing_publication_material  WinGX

_refine_special_details          
;
Refinement of F^2^ against ALL reflections. The weighted R-factor wR and
goodness of fit S are based on F^2^, conventional R-factors R are based
on F, with F set to zero for negative F^2^. The threshold expression of
F^2^ > 2sigma(F^2^) is used only for calculating R-factors(gt) etc. and is
not relevant to the choice of reflections for refinement. R-factors based
on F^2^ are statistically about twice as large as those based on F, and R-
factors based on ALL data will be even larger.
;

_refine_ls_structure_factor_coef Fsqd
_refine_ls_matrix_type           full
_refine_ls_weighting_scheme      calc
_refine_ls_weighting_details     
'calc w=1/[\s^2^(Fo^2^)+(0.2000P)^2^+0.0000P] where P=(Fo^2^+2Fc^2^)/3'
_atom_sites_solution_primary     direct
_atom_sites_solution_secondary   difmap
_atom_sites_solution_hydrogens   geom
_refine_ls_hydrogen_treatment    mixed
_refine_ls_extinction_method     none
_refine_ls_extinction_coef       ?
_refine_ls_number_reflns         11471
_refine_ls_number_parameters     609
_refine_ls_number_restraints     0
_refine_ls_R_factor_all          0.1470
_refine_ls_R_factor_gt           0.1315
_refine_ls_wR_factor_ref         0.4447
_refine_ls_wR_factor_gt          0.4173
_refine_ls_goodness_of_fit_ref   2.052
_refine_ls_restrained_S_all      2.052
_refine_ls_shift/su_max          0.007
_refine_ls_shift/su_mean         0.001

loop_
_atom_site_label
_atom_site_type_symbol
_atom_site_fract_x
_atom_site_fract_y
_atom_site_fract_z
_atom_site_U_iso_or_equiv
_atom_site_adp_type
_atom_site_occupancy
_atom_site_symmetry_multiplicity
_atom_site_calc_flag
_atom_site_refinement_flags
_atom_site_disorder_assembly
_atom_site_disorder_group
Mn1A Mn 0.88577(2) 1.02857(2) 1.03374(6) 0.0352(4) Uani 1 1 d . . .
O1A O 0.84772(13) 1.00876(13) 1.0695(3) 0.0473(13) Uani 1 1 d . . .
O2A O 0.88373(12) 0.94634(12) 0.8935(3) 0.0439(12) Uani 1 1 d . A .
O3A O 0.92600(11) 1.04352(12) 0.9865(3) 0.0424(12) Uani 1 1 d . A .
N1A N 0.89247(13) 0.99279(14) 0.9617(3) 0.0370(13) Uani 1 1 d . . .
N2A N 0.92293(13) 0.99524(15) 0.9209(4) 0.0408(14) Uani 1 1 d . A .
N3A N 0.85754(16) 1.05960(15) 0.9474(4) 0.0452(15) Uani 1 1 d . . .
C1A C 0.83040(17) 0.98358(18) 1.0399(4) 0.0391(16) Uani 1 1 d . . .
C2A C 0.84194(16) 0.96285(17) 0.9802(4) 0.0359(15) Uani 1 1 d . . .
C3A C 0.82170(17) 0.93790(18) 0.9534(4) 0.0406(16) Uani 1 1 d . . .
H3A H 0.8292 0.9244 0.9129 0.049 Uiso 1 1 calc R . .
C4A C 0.79045(18) 0.9322(2) 0.9848(5) 0.0486(19) Uani 1 1 d . . .
H4A H 0.7771 0.9147 0.9667 0.058 Uiso 1 1 calc R . .
C5A C 0.7793(2) 0.9526(2) 1.0428(5) 0.057(2) Uani 1 1 d . . .
H5A H 0.7579 0.9494 1.0632 0.069 Uiso 1 1 calc R . .
C6A C 0.7993(2) 0.9779(2) 1.0718(5) 0.0501(19) Uani 1 1 d . . .
H6A H 0.7918 0.9911 1.1128 0.060 Uiso 1 1 calc R . .
C7A C 0.87425(16) 0.96740(16) 0.9418(4) 0.0360(15) Uani 1 1 d . . .
C8A C 0.93801(18) 1.02232(18) 0.9372(5) 0.0469(18) Uani 1 1 d . . .
C9A C 0.9698(3) 1.0301(3) 0.9009(8) 0.095(5) Uani 1 1 d . A 1
H9A1 H 0.9790 1.0104 0.8756 0.115 Uiso 1 1 calc R A 1
H9A2 H 0.9858 1.0381 0.9390 0.115 Uiso 1 1 calc R A 1
C10A C 0.9618(6) 1.0582(5) 0.8401(14) 0.185(11) Uani 1 1 d . A 1
H10A H 0.9554 1.0480 0.7919 0.221 Uiso 1 1 calc R A 1
H10B H 0.9813 1.0719 0.8323 0.221 Uiso 1 1 calc R A 1
H10C H 0.9437 1.0719 0.8588 0.221 Uiso 1 1 calc R A 1
C11A C 0.8653(2) 1.0576(2) 0.8746(5) 0.063(2) Uani 1 1 d . . .
H11A H 0.8811 1.0418 0.8589 0.076 Uiso 1 1 calc R . .
C12A C 0.8505(3) 1.0786(3) 0.8187(6) 0.080(3) Uani 1 1 d . . .
H12A H 0.8559 1.0760 0.7666 0.096 Uiso 1 1 calc R . .
C13A C 0.8287(3) 1.1026(3) 0.8406(7) 0.089(4) Uani 1 1 d . . .
C14A C 0.8203(3) 1.1036(3) 0.9171(6) 0.082(4) Uani 1 1 d . . .
H14A H 0.8043 1.1189 0.9346 0.098 Uiso 1 1 calc R . .
C15A C 0.8357(2) 1.0818(2) 0.9687(5) 0.060(2) Uani 1 1 d . . .
H15A H 0.8301 1.0832 1.0210 0.072 Uiso 1 1 calc R . .
C16A C 0.8155(4) 1.1265(4) 0.7869(7) 0.108(5) Uani 1 1 d . . .
H16A H 0.8032 1.1435 0.8155 0.129 Uiso 1 1 calc R . .
H16B H 0.8341 1.1376 0.7612 0.129 Uiso 1 1 calc R . .
Mn1B Mn 0.92429(2) 0.95450(3) 0.83446(7) 0.0386(4) Uani 1 1 d . . .
O1B O 0.90217(12) 0.97998(14) 0.7632(3) 0.0527(14) Uani 1 1 d . A .
O2B O 1.00095(13) 0.97690(15) 0.6859(3) 0.0496(13) Uani 1 1 d . A .
O3B O 0.95420(12) 0.92973(12) 0.8991(3) 0.0433(12) Uani 1 1 d . A .
O4B O 0.91310(13) 0.90660(15) 0.7766(4) 0.0557(15) Uani 1 1 d . A .
N1B N 0.96540(14) 0.96145(15) 0.7800(4) 0.0396(14) Uani 1 1 d . A .
N2B N 0.99342(13) 0.94661(14) 0.8138(4) 0.0381(13) Uani 1 1 d . . .
N3B N 0.9112(2) 0.8508(2) 0.7755(7) 0.091(3) Uani 1 1 d . A .
C1B C 0.91356(19) 0.9956(2) 0.7006(5) 0.052(2) Uani 1 1 d . . .
C2B C 0.9459(2) 0.9941(2) 0.6759(5) 0.0520(19) Uani 1 1 d . A .
C3B C 0.9548(3) 1.0096(3) 0.6058(7) 0.081(3) Uani 1 1 d . . .
H3B H 0.9765 1.0082 0.5864 0.097 Uiso 1 1 calc R A .
C4B C 0.9295(3) 1.0274(4) 0.5657(9) 0.111(5) Uani 1 1 d . A .
H4B H 0.9344 1.0376 0.5185 0.133 Uiso 1 1 calc R . .
C5B C 0.8996(3) 1.0295(4) 0.5944(11) 0.115(5) Uani 1 1 d . . .
H5B H 0.8837 1.0420 0.5674 0.138 Uiso 1 1 calc R A .
C6B C 0.8901(3) 1.0147(3) 0.6616(6) 0.070(3) Uani 1 1 d . A .
H6B H 0.8684 1.0173 0.6809 0.084 Uiso 1 1 calc R . .
C7B C 0.97213(17) 0.9769(2) 0.7158(4) 0.0449(18) Uani 1 1 d . . .
C8B C 0.98435(15) 0.93018(16) 0.8763(4) 0.0343(15) Uani 1 1 d . A .
C9B C 1.0102(2) 0.9116(2) 0.9188(5) 0.0486(18) Uani 1 1 d . . .
H9B1 H 1.0228 0.8981 0.8823 0.058 Uiso 1 1 calc R A .
H9B2 H 1.0256 0.9276 0.9418 0.058 Uiso 1 1 calc R . .
C10B C 0.9975(2) 0.8898(3) 0.9796(7) 0.077(3) Uani 1 1 d . A .
H10D H 0.9899 0.9032 1.0225 0.092 Uiso 1 1 calc R . .
H10E H 1.0152 0.8751 0.9966 0.092 Uiso 1 1 calc R . .
H10F H 0.9792 0.8767 0.9600 0.092 Uiso 1 1 calc R . .
C11B C 0.9221(3) 0.8786(3) 0.8029(7) 0.076(3) Uani 1 1 d . . .
C12B C 0.8856(4) 0.8477(4) 0.7199(10) 0.118(6) Uani 1 1 d . . .
H12B H 0.8643 0.8455 0.7456 0.141 Uiso 1 1 calc R A .
H12C H 0.8896 0.8282 0.6886 0.141 Uiso 1 1 calc R . .
H12D H 0.8853 0.8673 0.6875 0.141 Uiso 1 1 calc R . .
C13B C 0.9208(4) 0.8189(3) 0.8131(15) 0.161(9) Uani 1 1 d . . .
H13A H 0.9356 0.8235 0.8557 0.194 Uiso 1 1 calc R A .
H13B H 0.9319 0.8047 0.7762 0.194 Uiso 1 1 calc R . .
H13C H 0.9010 0.8079 0.8320 0.194 Uiso 1 1 calc R . .
Mn1C Mn 1.03896(2) 0.96423(3) 0.75281(6) 0.0380(4) Uani 1 1 d . A .
O1C O 1.04791(13) 0.92346(15) 0.7106(3) 0.0543(14) Uani 1 1 d . . .
O2C O 1.11570(12) 0.93392(12) 0.8940(3) 0.0422(12) Uani 1 1 d . . .
O3C O 1.03669(11) 1.00616(12) 0.8051(3) 0.0409(12) Uani 1 1 d . . .
N1C N 1.07519(14) 0.95892(15) 0.8238(3) 0.0374(13) Uani 1 1 d . . .
N2C N 1.08134(14) 0.98713(14) 0.8690(3) 0.0385(13) Uani 1 1 d . . .
N3C N 1.07059(18) 0.9913(2) 0.6645(4) 0.0591(19) Uani 1 1 d . . .
C1C C 1.07067(18) 0.9017(2) 0.7286(5) 0.0484(19) Uani 1 1 d . A .
C2C C 1.09317(17) 0.90382(17) 0.7910(4) 0.0405(17) Uani 1 1 d . . .
C3C C 1.1162(2) 0.87938(19) 0.8019(5) 0.0501(19) Uani 1 1 d . A .
H3C H 1.1319 0.8819 0.8415 0.060 Uiso 1 1 calc R . .
C4C C 1.1174(2) 0.8509(2) 0.7566(7) 0.073(3) Uani 1 1 d . . .
H4C H 1.1332 0.8342 0.7658 0.087 Uiso 1 1 calc R A .
C5C C 1.0951(2) 0.8481(2) 0.6993(7) 0.077(3) Uani 1 1 d . A .
H5C H 1.0955 0.8287 0.6692 0.092 Uiso 1 1 calc R . .
C6C C 1.0721(2) 0.8717(3) 0.6825(7) 0.074(3) Uani 1 1 d . . .
H6C H 1.0572 0.8687 0.6415 0.089 Uiso 1 1 calc R A .
C7C C 1.09446(15) 0.93330(17) 0.8385(4) 0.0382(16) Uani 1 1 d . A .
C8C C 1.06090(17) 1.01038(18) 0.8536(4) 0.0395(16) Uani 1 1 d . A .
C9C C 1.0639(2) 1.04309(18) 0.8900(6) 0.056(2) Uani 1 1 d . . .
H9C1 H 1.0471 1.0446 0.9305 0.068 Uiso 1 1 calc R A .
H9C2 H 1.0858 1.0443 0.9147 0.068 Uiso 1 1 calc R . .
C10C C 1.0604(3) 1.0718(3) 0.8404(9) 0.097(4) Uani 1 1 d . A .
H10G H 1.0791 1.0729 0.8054 0.116 Uiso 1 1 calc R . .
H10H H 1.0597 1.0918 0.8713 0.116 Uiso 1 1 calc R . .
H10I H 1.0399 1.0699 0.8113 0.116 Uiso 1 1 calc R . .
C11C C 1.0622(3) 1.0205(3) 0.6386(7) 0.085(3) Uani 1 1 d . A .
H11C H 1.0415 1.0296 0.6524 0.102 Uiso 1 1 calc R . .
C12C C 1.0831(4) 1.0380(4) 0.5916(8) 0.109(5) Uani 1 1 d . . .
H12E H 1.0765 1.0593 0.5748 0.131 Uiso 1 1 calc R A .
C13C C 1.1128(3) 1.0259(5) 0.5685(7) 0.113(6) Uani 1 1 d . A .
C14C C 1.1217(3) 0.9985(5) 0.5985(9) 0.109(5) Uani 1 1 d . . .
H14C H 1.1432 0.9905 0.5888 0.131 Uiso 1 1 calc R A .
C15C C 1.1002(3) 0.9798(4) 0.6461(6) 0.087(4) Uani 1 1 d . A .
H15C H 1.1072 0.9590 0.6648 0.105 Uiso 1 1 calc R . .
C16C C 1.1372(4) 1.0442(7) 0.5198(11) 0.170(10) Uani 1 1 d . . .
H16C H 1.1515 1.0575 0.5534 0.204 Uiso 1 1 calc R A .
H16D H 1.1515 1.0279 0.4941 0.204 Uiso 1 1 calc R . .

loop_
_atom_site_aniso_label
_atom_site_aniso_U_11
_atom_site_aniso_U_22
_atom_site_aniso_U_33
_atom_site_aniso_U_23
_atom_site_aniso_U_13
_atom_site_aniso_U_12
Mn1A 0.0313(6) 0.0357(6) 0.0385(7) -0.0055(4) -0.0025(4) 0.0015(4)
O1A 0.048(3) 0.048(3) 0.045(3) -0.015(2) 0.008(2) -0.010(2)
O2A 0.037(3) 0.038(3) 0.057(3) -0.010(2) 0.008(2) -0.002(2)
O3A 0.033(2) 0.046(3) 0.049(3) -0.009(2) 0.001(2) -0.002(2)
N1A 0.028(3) 0.039(3) 0.044(3) -0.002(3) -0.002(2) 0.003(2)
N2A 0.024(3) 0.047(3) 0.051(4) -0.014(3) 0.003(2) 0.000(2)
N3A 0.048(4) 0.042(3) 0.046(4) 0.000(3) -0.005(3) 0.008(3)
C1A 0.034(4) 0.046(4) 0.038(4) -0.007(3) -0.002(3) -0.001(3)
C2A 0.025(3) 0.041(4) 0.041(4) -0.001(3) -0.004(3) 0.001(3)
C3A 0.036(4) 0.044(4) 0.042(4) -0.001(3) 0.002(3) 0.000(3)
C4A 0.035(4) 0.055(5) 0.056(5) -0.006(4) 0.005(3) -0.010(3)
C5A 0.040(4) 0.068(5) 0.063(5) -0.015(4) 0.010(4) -0.013(4)
C6A 0.046(4) 0.054(5) 0.050(4) -0.008(4) 0.007(4) -0.006(3)
C7A 0.034(3) 0.035(3) 0.039(4) -0.006(3) -0.009(3) 0.003(3)
C8A 0.040(4) 0.042(4) 0.059(5) -0.011(4) 0.009(4) -0.006(3)
C9A 0.067(6) 0.090(8) 0.129(11) -0.069(8) 0.052(7) -0.038(6)
C10A 0.22(2) 0.131(15) 0.20(2) -0.002(15) 0.13(2) -0.063(15)
C11A 0.073(6) 0.069(6) 0.046(5) 0.000(4) -0.008(4) 0.037(5)
C12A 0.110(9) 0.084(7) 0.044(5) 0.004(5) -0.019(5) 0.034(6)
C13A 0.111(9) 0.079(7) 0.076(7) -0.014(6) -0.027(6) 0.050(7)
C14A 0.103(8) 0.078(7) 0.064(6) -0.024(5) -0.031(6) 0.060(6)
C15A 0.062(5) 0.069(6) 0.050(5) -0.004(4) -0.004(4) 0.036(4)
C16A 0.143(12) 0.114(10) 0.066(7) -0.005(7) -0.027(8) 0.046(9)
Mn1B 0.0290(6) 0.0419(7) 0.0448(7) -0.0074(5) 0.0008(4) -0.0012(4)
O1B 0.033(3) 0.064(3) 0.060(4) 0.000(3) -0.007(2) 0.007(2)
O2B 0.041(3) 0.073(4) 0.035(3) 0.004(3) -0.004(2) -0.007(2)
O3B 0.039(3) 0.040(3) 0.051(3) 0.000(2) 0.007(2) -0.008(2)
O4B 0.043(3) 0.055(4) 0.069(4) -0.019(3) 0.002(3) -0.004(2)
N1B 0.032(3) 0.045(3) 0.042(3) 0.000(3) -0.010(3) 0.001(2)
N2B 0.028(3) 0.041(3) 0.045(3) -0.003(3) -0.005(2) 0.000(2)
N3B 0.073(6) 0.057(5) 0.143(9) -0.030(6) 0.018(6) -0.014(4)
C1B 0.039(4) 0.059(5) 0.058(5) 0.001(4) -0.012(4) -0.001(3)
C2B 0.056(5) 0.059(5) 0.042(4) 0.005(4) -0.015(4) 0.000(4)
C3B 0.054(5) 0.109(9) 0.079(7) 0.030(7) -0.008(5) 0.000(5)
C4B 0.088(9) 0.141(12) 0.104(10) 0.069(9) -0.016(8) 0.007(8)
C5B 0.067(8) 0.106(10) 0.171(15) 0.053(10) -0.041(9) 0.012(7)
C6B 0.065(6) 0.073(6) 0.072(7) 0.014(5) -0.024(5) 0.016(5)
C7B 0.034(4) 0.065(5) 0.036(4) -0.009(4) -0.005(3) -0.003(3)
C8B 0.031(3) 0.034(3) 0.038(4) -0.007(3) -0.001(3) -0.005(3)
C9B 0.048(4) 0.050(4) 0.048(4) 0.006(4) 0.000(3) 0.002(3)
C10B 0.049(5) 0.084(7) 0.097(8) 0.044(6) 0.008(5) 0.013(5)
C11B 0.079(7) 0.059(6) 0.091(8) -0.023(6) 0.022(6) -0.020(5)
C12B 0.105(10) 0.099(10) 0.149(14) -0.074(10) 0.001(9) -0.020(8)
C13B 0.117(12) 0.050(7) 0.32(3) 0.016(11) -0.004(15) -0.009(7)
Mn1C 0.0302(6) 0.0500(7) 0.0337(7) -0.0020(5) 0.0017(4) -0.0022(4)
O1C 0.042(3) 0.069(4) 0.052(3) -0.020(3) -0.004(2) 0.007(3)
O2C 0.044(3) 0.040(3) 0.042(3) -0.008(2) -0.002(2) 0.010(2)
O3C 0.031(2) 0.048(3) 0.044(3) 0.004(2) -0.004(2) -0.001(2)
N1C 0.033(3) 0.045(3) 0.034(3) -0.003(3) -0.005(2) -0.001(2)
N2C 0.043(3) 0.036(3) 0.037(3) -0.007(2) -0.002(3) -0.002(2)
N3C 0.053(4) 0.083(5) 0.042(4) 0.015(4) 0.009(3) -0.009(4)
C1C 0.038(4) 0.063(5) 0.044(4) -0.027(4) 0.007(3) 0.000(3)
C2C 0.033(3) 0.038(4) 0.051(4) -0.011(3) 0.005(3) -0.009(3)
C3C 0.051(4) 0.041(4) 0.058(5) -0.013(4) 0.002(4) 0.000(3)
C4C 0.049(5) 0.054(5) 0.115(9) -0.027(5) 0.011(5) 0.002(4)
C5C 0.063(6) 0.063(6) 0.106(9) -0.049(6) -0.003(6) -0.002(5)
C6C 0.048(5) 0.079(6) 0.095(7) -0.058(6) -0.014(5) 0.007(4)
C7C 0.025(3) 0.041(4) 0.049(4) -0.009(3) 0.005(3) -0.002(3)
C8C 0.039(4) 0.044(4) 0.036(4) -0.001(3) 0.003(3) 0.003(3)
C9C 0.058(5) 0.034(4) 0.077(6) -0.004(4) -0.005(4) -0.006(3)
C10C 0.109(9) 0.055(6) 0.128(11) 0.010(6) -0.051(8) 0.003(6)
C11C 0.076(7) 0.105(9) 0.074(7) 0.019(7) 0.015(6) 0.016(6)
C12C 0.100(10) 0.123(11) 0.103(10) 0.067(9) 0.018(8) -0.013(8)
C13C 0.062(7) 0.205(17) 0.072(8) 0.073(10) -0.013(6) -0.025(8)
C14C 0.061(7) 0.172(15) 0.095(9) 0.025(10) 0.025(7) -0.024(8)
C15C 0.057(6) 0.145(11) 0.059(6) 0.034(7) 0.023(5) 0.007(6)
C16C 0.080(9) 0.29(3) 0.137(14) 0.