####################################################################### 
# 
# This file contains crystal structure data downloaded from the 
# Cambridge Structural Database (CSD) hosted by the Cambridge 
# Crystallographic Data Centre (CCDC).
# 
# Full information about CCDC data access policies and citation 
# guidelines are available at http://www.ccdc.cam.ac.uk/access/V1 
# 
# Audit and citation data items may have been added by the CCDC. 
# Please retain this information to preserve the provenance of 
# this file and to allow appropriate attribution of the data. 
# 
#######################################################################

data_4
_audit_block_doi                 10.5517/ccx3vtn
_database_code_depnum_ccdc_archive 'CCDC 837862'
loop_
_citation_id
_citation_doi
_citation_year
1 10.1016/j.poly.2011.11.037 2012
_audit_update_record             
;
2011-08-03 deposited with the CCDC.	2024-07-13 downloaded from the CCDC.
;
#TrackingRef 'all cif.cif'


_audit_creation_method           SHELXL-97
_chemical_name_systematic        
;
?
;
_chemical_name_common            ?
_chemical_melting_point          ?
_chemical_formula_moiety         ?
_chemical_formula_sum            'C18 H24 Br2 N6 O4 Zn'
_chemical_formula_weight         613.62

loop_
_atom_type_symbol
_atom_type_description
_atom_type_scat_dispersion_real
_atom_type_scat_dispersion_imag
_atom_type_scat_source
C C 0.0033 0.0016 'International Tables Vol C Tables 4.2.6.8 and 6.1.1.4'
H H 0.0000 0.0000 'International Tables Vol C Tables 4.2.6.8 and 6.1.1.4'
N N 0.0061 0.0033 'International Tables Vol C Tables 4.2.6.8 and 6.1.1.4'
O O 0.0106 0.0060 'International Tables Vol C Tables 4.2.6.8 and 6.1.1.4'
Zn Zn 0.2839 1.4301 'International Tables Vol C Tables 4.2.6.8 and 6.1.1.4'
Br Br -0.2901 2.4595 'International Tables Vol C Tables 4.2.6.8 and 6.1.1.4'

_symmetry_cell_setting           Triclinic
_symmetry_space_group_name_H-M   P-1

loop_
_symmetry_equiv_pos_as_xyz
'x, y, z'
'-x, -y, -z'

_cell_length_a                   6.7647(3)
_cell_length_b                   10.7517(5)
_cell_length_c                   16.9994(7)
_cell_angle_alpha                82.987(3)
_cell_angle_beta                 80.640(2)
_cell_angle_gamma                83.961(2)
_cell_volume                     1206.21(9)
_cell_formula_units_Z            2
_cell_measurement_temperature    296(2)
_cell_measurement_reflns_used    5000
_cell_measurement_theta_min      2.379
_cell_measurement_theta_max      21.904

_exptl_crystal_description       columnar
_exptl_crystal_colour            colorless
_exptl_crystal_size_max          0.19
_exptl_crystal_size_mid          0.15
_exptl_crystal_size_min          0.08
_exptl_crystal_density_meas      ?
_exptl_crystal_density_diffrn    1.690
_exptl_crystal_density_method    'not measured'
_exptl_crystal_F_000             612
_exptl_absorpt_coefficient_mu    4.366
_exptl_absorpt_correction_type   empirical
_exptl_absorpt_correction_T_min  0.6513
_exptl_absorpt_correction_T_max  0.9893
_exptl_absorpt_process_details   'SADABS (Bruker, 2009)'

_exptl_special_details           
;
?
;

_diffrn_ambient_temperature      296(2)
_diffrn_radiation_wavelength     0.71073
_diffrn_radiation_type           MoK\a
_diffrn_radiation_source         'fine-focus sealed tube'
_diffrn_radiation_monochromator  graphite
_diffrn_measurement_device_type  'Bruker APEX II area detector diffractometer'
_diffrn_measurement_method       'phi and omega scans'
_diffrn_detector_area_resol_mean ?
_diffrn_standards_number         ?
_diffrn_standards_interval_count ?
_diffrn_standards_interval_time  ?
_diffrn_standards_decay_%        ?
_diffrn_reflns_number            22978
_diffrn_reflns_av_R_equivalents  0.0820
_diffrn_reflns_av_sigmaI/netI    0.0759
_diffrn_reflns_limit_h_min       -8
_diffrn_reflns_limit_h_max       6
_diffrn_reflns_limit_k_min       -12
_diffrn_reflns_limit_k_max       12
_diffrn_reflns_limit_l_min       -20
_diffrn_reflns_limit_l_max       20
_diffrn_reflns_theta_min         1.22
_diffrn_reflns_theta_max         25.00
_reflns_number_total             4225
_reflns_number_gt                2625
_reflns_threshold_expression     >2sigma(I)

_computing_data_collection       'Bruker APEX2 (Bruker, 2009)'
_computing_cell_refinement       'Bruker APEX2'
_computing_data_reduction        'Bruker APEX2'
_computing_structure_solution    'SHELXS-97 (Sheldrick, 2008)'
_computing_structure_refinement  'SHELXL-97 (Sheldrick, 2008)'
_computing_molecular_graphics    'SHELXL-97 (Sheldrick, 2008)'
_computing_publication_material  'SHELXL-97 (Sheldrick, 2008)'

_refine_special_details          
;
Refinement of F^2^ against ALL reflections. The weighted R-factor wR and
goodness of fit S are based on F^2^, conventional R-factors R are based
on F, with F set to zero for negative F^2^. The threshold expression of
F^2^ > 2sigma(F^2^) is used only for calculating R-factors(gt) etc. and is
not relevant to the choice of reflections for refinement. R-factors based
on F^2^ are statistically about twice as large as those based on F, and R-
factors based on ALL data will be even larger.
;

_refine_ls_structure_factor_coef Fsqd
_refine_ls_matrix_type           full
_refine_ls_weighting_scheme      calc
_refine_ls_weighting_details     
'calc w=1/[\s^2^(Fo^2^)+(0.0000P)^2^+0.0000P] where P=(Fo^2^+2Fc^2^)/3'
_atom_sites_solution_primary     direct
_atom_sites_solution_secondary   difmap
_atom_sites_solution_hydrogens   geom
_refine_ls_hydrogen_treatment    constr
_refine_ls_extinction_method     none
_refine_ls_extinction_coef       ?
_refine_ls_number_reflns         4225
_refine_ls_number_parameters     284
_refine_ls_number_restraints     0
_refine_ls_R_factor_all          0.0686
_refine_ls_R_factor_gt           0.0317
_refine_ls_wR_factor_ref         0.0456
_refine_ls_wR_factor_gt          0.0429
_refine_ls_goodness_of_fit_ref   0.907
_refine_ls_restrained_S_all      0.907
_refine_ls_shift/su_max          0.001
_refine_ls_shift/su_mean         0.000

loop_
_atom_site_label
_atom_site_type_symbol
_atom_site_fract_x
_atom_site_fract_y
_atom_site_fract_z
_atom_site_U_iso_or_equiv
_atom_site_adp_type
_atom_site_occupancy
_atom_site_symmetry_multiplicity
_atom_site_calc_flag
_atom_site_refinement_flags
_atom_site_disorder_assembly
_atom_site_disorder_group
Zn Zn 0.59234(6) 0.95475(3) 0.19047(2) 0.03982(12) Uani 1 1 d . . .
Br1 Br 0.35942(6) 1.08033(3) 0.27324(2) 0.06343(13) Uani 1 1 d . . .
Br2 Br 0.47202(6) 0.82146(3) 0.11334(2) 0.05622(12) Uani 1 1 d . . .
O1 O 0.3954(4) 1.38949(19) 0.07448(15) 0.0595(7) Uani 1 1 d . . .
O2 O 0.8009(4) 1.0497(2) 0.44738(15) 0.0815(9) Uani 1 1 d . . .
N1 N 0.7769(4) 1.0774(2) 0.11883(14) 0.0350(7) Uani 1 1 d . . .
N2 N 0.7130(4) 1.3878(2) 0.00322(14) 0.0371(7) Uani 1 1 d . . .
H2A H 0.7871 1.4313 -0.0338 0.044 Uiso 1 1 calc R . .
N3 N 0.7969(4) 0.8529(2) 0.25598(15) 0.0375(7) Uani 1 1 d . . .
N4 N 1.0500(4) 0.8931(2) 0.42550(15) 0.0446(8) Uani 1 1 d . . .
H4A H 1.1545 0.8563 0.4441 0.054 Uiso 1 1 calc R . .
C1 C 0.9765(5) 1.0533(3) 0.10120(19) 0.0449(9) Uani 1 1 d . . .
H1A H 1.0370 0.9785 0.1235 0.054 Uiso 1 1 calc R . .
C2 C 1.0951(5) 1.1355(3) 0.0513(2) 0.0473(9) Uani 1 1 d . . .
H2B H 1.2333 1.1163 0.0399 0.057 Uiso 1 1 calc R . .
C3 C 1.0057(5) 1.2473(3) 0.01844(18) 0.0415(9) Uani 1 1 d . . .
H3A H 1.0837 1.3040 -0.0154 0.050 Uiso 1 1 calc R . .
C4 C 0.8019(5) 1.2739(3) 0.03593(18) 0.0325(8) Uani 1 1 d . . .
C5 C 0.6925(5) 1.1858(3) 0.08694(18) 0.0364(8) Uani 1 1 d . . .
H5A H 0.5541 1.2033 0.0995 0.044 Uiso 1 1 calc R . .
C6 C 0.5218(6) 1.4359(3) 0.0243(2) 0.0411(9) Uani 1 1 d . . .
C7 C 0.9130(5) 0.7553(3) 0.22653(19) 0.0445(9) Uani 1 1 d . . .
H7A H 0.8824 0.7235 0.1819 0.053 Uiso 1 1 calc R . .
C8 C 1.0759(5) 0.7014(3) 0.2607(2) 0.0499(10) Uani 1 1 d . . .
H8A H 1.1541 0.6333 0.2397 0.060 Uiso 1 1 calc R . .
C9 C 1.1224(5) 0.7485(3) 0.3261(2) 0.0477(10) Uani 1 1 d . . .
H9A H 1.2346 0.7140 0.3489 0.057 Uiso 1 1 calc R . .
C10 C 1.0019(5) 0.8476(3) 0.35783(19) 0.0361(8) Uani 1 1 d . . .
C11 C 0.8390(5) 0.8986(3) 0.32067(19) 0.0396(9) Uani 1 1 d . . .
H11A H 0.7573 0.9659 0.3411 0.047 Uiso 1 1 calc R . .
C12 C 0.9508(6) 0.9877(3) 0.46440(19) 0.0474(10) Uani 1 1 d . . .
O3 O 0.9631(4) 1.5205(2) 0.12071(14) 0.0620(7) Uani 1 1 d . . .
N5 N 0.8128(5) 1.3960(2) 0.22614(17) 0.0506(8) Uani 1 1 d . . .
C13 C 0.9665(6) 1.4284(3) 0.1702(2) 0.0500(10) Uani 1 1 d . . .
H13A H 1.0858 1.3766 0.1689 0.060 Uiso 1 1 calc R . .
C14 C 0.8274(6) 1.2828(3) 0.2824(2) 0.0765(13) Uani 1 1 d . . .
H14A H 0.9565 1.2373 0.2698 0.115 Uiso 1 1 calc R . .
H14B H 0.7235 1.2306 0.2784 0.115 Uiso 1 1 calc R . .
H14C H 0.8119 1.3058 0.3360 0.115 Uiso 1 1 calc R . .
C15 C 0.6214(6) 1.4690(3) 0.2308(2) 0.0767(12) Uani 1 1 d . . .
H15A H 0.6304 1.5409 0.1913 0.115 Uiso 1 1 calc R . .
H15B H 0.5848 1.4966 0.2832 0.115 Uiso 1 1 calc R . .
H15C H 0.5213 1.4183 0.2209 0.115 Uiso 1 1 calc R . .
O4 O 1.4102(4) 0.7370(2) 0.45426(17) 0.0868(10) Uani 1 1 d . . .
N6 N 1.6815(4) 0.6668(2) 0.51302(18) 0.0562(8) Uani 1 1 d . . .
C16 C 1.5197(6) 0.7448(3) 0.5030(2) 0.0664(12) Uani 1 1 d . . .
H16A H 1.4882 0.8097 0.5356 0.080 Uiso 1 1 calc R . .
C17 C 1.8020(6) 0.6777(3) 0.5747(2) 0.0782(13) Uani 1 1 d . . .
H17A H 1.7503 0.7500 0.6021 0.117 Uiso 1 1 calc R . .
H17B H 1.9389 0.6868 0.5505 0.117 Uiso 1 1 calc R . .
H17C H 1.7965 0.6035 0.6124 0.117 Uiso 1 1 calc R . .
C18 C 1.7425(5) 0.5672(3) 0.4620(2) 0.0787(13) Uani 1 1 d . . .
H18A H 1.6640 0.5781 0.4191 0.118 Uiso 1 1 calc R . .
H18B H 1.7217 0.4874 0.4928 0.118 Uiso 1 1 calc R . .
H18C H 1.8823 0.5698 0.4403 0.118 Uiso 1 1 calc R . .

loop_
_atom_site_aniso_label
_atom_site_aniso_U_11
_atom_site_aniso_U_22
_atom_site_aniso_U_33
_atom_site_aniso_U_23
_atom_site_aniso_U_13
_atom_site_aniso_U_12
Zn 0.0410(3) 0.0408(2) 0.0377(3) -0.00013(19) -0.0094(2) -0.00359(18)
Br1 0.0544(3) 0.0633(3) 0.0679(3) -0.0149(2) 0.0074(2) -0.0002(2)
Br2 0.0516(3) 0.0690(3) 0.0532(3) -0.0157(2) -0.0104(2) -0.01442(19)
O1 0.0390(18) 0.0522(15) 0.072(2) 0.0235(14) 0.0076(14) 0.0040(12)
O2 0.081(2) 0.096(2) 0.079(2) -0.0502(16) -0.0521(17) 0.0517(16)
N1 0.031(2) 0.0370(16) 0.0358(18) 0.0010(13) -0.0057(14) -0.0011(13)
N2 0.034(2) 0.0345(15) 0.0390(18) 0.0066(13) -0.0004(14) -0.0045(13)
N3 0.044(2) 0.0327(15) 0.0366(18) -0.0008(13) -0.0099(14) -0.0047(13)
N4 0.051(2) 0.0424(17) 0.0427(19) -0.0062(15) -0.0207(16) 0.0098(14)
C1 0.043(3) 0.044(2) 0.045(3) -0.0002(18) -0.011(2) 0.0076(19)
C2 0.028(2) 0.055(2) 0.054(3) 0.003(2) -0.0034(19) 0.0001(19)
C3 0.043(3) 0.043(2) 0.037(2) 0.0043(17) -0.0018(18) -0.0103(18)
C4 0.033(2) 0.0335(19) 0.032(2) -0.0011(16) -0.0076(17) -0.0064(17)
C5 0.031(2) 0.040(2) 0.038(2) -0.0043(17) -0.0085(17) 0.0040(17)
C6 0.042(3) 0.037(2) 0.044(3) 0.0016(18) -0.005(2) -0.006(2)
C7 0.054(3) 0.041(2) 0.041(2) -0.0098(18) -0.008(2) -0.0054(18)
C8 0.046(3) 0.046(2) 0.057(3) -0.0121(19) -0.010(2) 0.0081(18)
C9 0.047(3) 0.047(2) 0.051(3) -0.0096(19) -0.017(2) 0.0064(18)
C10 0.036(2) 0.0359(19) 0.036(2) -0.0030(17) -0.0089(18) -0.0010(16)
C11 0.040(3) 0.0362(19) 0.042(2) -0.0050(17) -0.0088(19) 0.0036(16)
C12 0.053(3) 0.048(2) 0.043(3) -0.0111(19) -0.015(2) 0.0054(19)
O3 0.075(2) 0.0468(15) 0.0573(19) 0.0012(13) 0.0079(14) -0.0073(13)
N5 0.046(2) 0.056(2) 0.049(2) -0.0029(17) -0.0054(17) -0.0060(17)
C13 0.044(3) 0.052(3) 0.055(3) -0.017(2) 0.001(2) -0.011(2)
C14 0.077(3) 0.085(3) 0.065(3) 0.017(2) -0.010(2) -0.023(2)
C15 0.058(3) 0.089(3) 0.079(3) -0.007(2) -0.001(2) -0.007(2)
O4 0.079(2) 0.088(2) 0.104(3) -0.0309(17) -0.0546(19) 0.0315(16)
N6 0.045(2) 0.059(2) 0.065(2) -0.0136(17) -0.0128(18) 0.0117(16)
C16 0.059(3) 0.060(3) 0.077(3) -0.013(2) -0.016(3) 0.020(2)
C17 0.065(3) 0.088(3) 0.082(3) -0.011(2) -0.026(3) 0.017(2)
C18 0.070(3) 0.070(3) 0.097(4) -0.024(3) -0.020(3) 0.018(2)

_geom_special_details            
;
All esds (except the esd in the dihedral angle between two l.s. planes)
are estimated using the full covariance matrix. The cell esds are taken
into account individually in the estimation of esds in distances, angles
and torsion angles; correlations between esds in cell parameters are only
used when they are defined by crystal symmetry. An approximate (isotropic)
treatment of cell esds is used for estimating esds involving l.s. planes.
;

loop_
_geom_bond_atom_site_label_1
_geom_bond_atom_site_label_2
_geom_bond_distance
_geom_bond_site_symmetry_2
_geom_bond_publ_flag
Zn N3 2.059(2) . ?
Zn N1 2.059(2) . ?
Zn Br2 2.3423(5) . ?
Zn Br1 2.3624(5) . ?
O1 C6 1.207(3) . ?
O2 C12 1.209(3) . ?
N1 C5 1.336(3) . ?
N1 C1 1.339(4) . ?
N2 C6 1.350(4) . ?
N2 C4 1.400(3) . ?
N2 H2A 0.8600 . ?
N3 C7 1.340(3) . ?
N3 C11 1.340(3) . ?
N4 C12 1.341(4) . ?
N4 C10 1.400(3) . ?
N4 H4A 0.8600 . ?
C1 C2 1.373(4) . ?
C1 H1A 0.9300 . ?
C2 C3 1.384(4) . ?
C2 H2B 0.9300 . ?
C3 C4 1.370(4) . ?
C3 H3A 0.9300 . ?
C4 C5 1.390(4) . ?
C5 H5A 0.9300 . ?
C6 C6 1.544(6) 2_685 ?
C7 C8 1.371(4) . ?
C7 H7A 0.9300 . ?
C8 C9 1.369(4) . ?
C8 H8A 0.9300 . ?
C9 C10 1.380(4) . ?
C9 H9A 0.9300 . ?
C10 C11 1.389(4) . ?
C11 H11A 0.9300 . ?
C12 C12 1.535(6) 2_776 ?
O3 C13 1.220(3) . ?
N5 C13 1.334(4) . ?
N5 C15 1.437(4) . ?
N5 C14 1.459(4) . ?
C13 H13A 0.9300 . ?
C14 H14A 0.9600 . ?
C14 H14B 0.9600 . ?
C14 H14C 0.9600 . ?
C15 H15A 0.9600 . ?
C15 H15B 0.9600 . ?
C15 H15C 0.9600 . ?
O4 C16 1.214(4) . ?
N6 C16 1.327(4) . ?
N6 C18 1.445(4) . ?
N6 C17 1.452(4) . ?
C16 H16A 0.9300 . ?
C17 H17A 0.9600 . ?
C17 H17B 0.9600 . ?
C17 H17C 0.9600 . ?
C18 H18A 0.9600 . ?
C18 H18B 0.9600 . ?
C18 H18C 0.9600 . ?

loop_
_geom_angle_atom_site_label_1
_geom_angle_atom_site_label_2
_geom_angle_atom_site_label_3
_geom_angle
_geom_angle_site_symmetry_1
_geom_angle_site_symmetry_3
_geom_angle_publ_flag
N3 Zn N1 99.92(10) . . ?
N3 Zn Br2 109.30(7) . . ?
N1 Zn Br2 110.81(7) . . ?
N3 Zn Br1 110.29(8) . . ?
N1 Zn Br1 105.72(7) . . ?
Br2 Zn Br1 119.06(2) . . ?
C5 N1 C1 118.2(3) . . ?
C5 N1 Zn 118.2(2) . . ?
C1 N1 Zn 123.6(2) . . ?
C6 N2 C4 126.1(3) . . ?
C6 N2 H2A 117.0 . . ?
C4 N2 H2A 117.0 . . ?
C7 N3 C11 119.6(3) . . ?
C7 N3 Zn 120.2(2) . . ?
C11 N3 Zn 119.0(2) . . ?
C12 N4 C10 127.1(3) . . ?
C12 N4 H4A 116.5 . . ?
C10 N4 H4A 116.5 . . ?
N1 C1 C2 122.2(3) . . ?
N1 C1 H1A 118.9 . . ?
C2 C1 H1A 118.9 . . ?
C1 C2 C3 119.0(3) . . ?
C1 C2 H2B 120.5 . . ?
C3 C2 H2B 120.5 . . ?
C4 C3 C2 119.7(3) . . ?
C4 C3 H3A 120.2 . . ?
C2 C3 H3A 120.2 . . ?
C3 C4 C5 117.8(3) . . ?
C3 C4 N2 119.3(3) . . ?
C5 C4 N2 122.9(3) . . ?
N1 C5 C4 123.1(3) . . ?
N1 C5 H5A 118.5 . . ?
C4 C5 H5A 118.5 . . ?
O1 C6 N2 126.9(3) . . ?
O1 C6 C6 121.8(4) . 2_685 ?
N2 C6 C6 111.3(4) . 2_685 ?
N3 C7 C8 121.4(3) . . ?
N3 C7 H7A 119.3 . . ?
C8 C7 H7A 119.3 . . ?
C9 C8 C7 119.5(3) . . ?
C9 C8 H8A 120.2 . . ?
C7 C8 H8A 120.2 . . ?
C8 C9 C10 119.6(3) . . ?
C8 C9 H9A 120.2 . . ?
C10 C9 H9A 120.2 . . ?
C9 C10 C11 118.4(3) . . ?
C9 C10 N4 118.7(3) . . ?
C11 C10 N4 122.9(3) . . ?
N3 C11 C10 121.4(3) . . ?
N3 C11 H11A 119.3 . . ?
C10 C11 H11A 119.3 . . ?
O2 C12 N4 125.9(3) . . ?
O2 C12 C12 121.6(4) . 2_776 ?
N4 C12 C12 112.5(4) . 2_776 ?
C13 N5 C15 120.9(3) . . ?
C13 N5 C14 122.0(3) . . ?
C15 N5 C14 117.1(3) . . ?
O3 C13 N5 125.2(4) . . ?
O3 C13 H13A 117.4 . . ?
N5 C13 H13A 117.4 . . ?
N5 C14 H14A 109.5 . . ?
N5 C14 H14B 109.5 . . ?
H14A C14 H14B 109.5 . . ?
N5 C14 H14C 109.5 . . ?
H14A C14 H14C 109.5 . . ?
H14B C14 H14C 109.5 . . ?
N5 C15 H15A 109.5 . . ?
N5 C15 H15B 109.5 . . ?
H15A C15 H15B 109.5 . . ?
N5 C15 H15C 109.5 . . ?
H15A C15 H15C 109.5 . . ?
H15B C15 H15C 109.5 . . ?
C16 N6 C18 120.2(3) . . ?
C16 N6 C17 121.9(3) . . ?
C18 N6 C17 117.9(3) . . ?
O4 C16 N6 124.5(4) . . ?
O4 C16 H16A 117.8 . . ?
N6 C16 H16A 117.8 . . ?
N6 C17 H17A 109.5 . . ?
N6 C17 H17B 109.5 . . ?
H17A C17 H17B 109.5 . . ?
N6 C17 H17C 109.5 . . ?
H17A C17 H17C 109.5 . . ?
H17B C17 H17C 109.5 . . ?
N6 C18 H18A 109.5 . . ?
N6 C18 H18B 109.5 . . ?
H18A C18 H18B 109.5 . . ?
N6 C18 H18C 109.5 . . ?
H18A C18 H18C 109.5 . . ?
H18B C18 H18C 109.5 . . ?

_diffrn_measured_fraction_theta_max 0.997
_diffrn_reflns_theta_full        25.00
_diffrn_measured_fraction_theta_full 0.997
_refine_diff_density_max         0.303
_refine_diff_density_min         -0.316
_refine_diff_density_rms         0.069
