####################################################################### 
# 
# This file contains crystal structure data downloaded from the 
# Cambridge Structural Database (CSD) hosted by the Cambridge 
# Crystallographic Data Centre (CCDC).
# 
# Full information about CCDC data access policies and citation 
# guidelines are available at http://www.ccdc.cam.ac.uk/access/V1 
# 
# Audit and citation data items may have been added by the CCDC. 
# Please retain this information to preserve the provenance of 
# this file and to allow appropriate attribution of the data. 
# 
#######################################################################

data_3
_audit_block_doi                 10.5517/ccx3vsm
_database_code_depnum_ccdc_archive 'CCDC 837861'
loop_
_citation_id
_citation_doi
_citation_year
1 10.1016/j.poly.2011.11.037 2012
_audit_update_record             
;
2011-08-03 deposited with the CCDC.	2024-07-13 downloaded from the CCDC.
;
#TrackingRef 'all cif.cif'


_audit_creation_method           SHELXL-97
_chemical_name_systematic        
;
?
;
_chemical_name_common            ?
_chemical_melting_point          ?
_chemical_formula_moiety         ?
_chemical_formula_sum            'C22 H34 Cl2 N6 O5 Zn'
_chemical_formula_weight         598.82

loop_
_atom_type_symbol
_atom_type_description
_atom_type_scat_dispersion_real
_atom_type_scat_dispersion_imag
_atom_type_scat_source
C C 0.0033 0.0016 'International Tables Vol C Tables 4.2.6.8 and 6.1.1.4'
H H 0.0000 0.0000 'International Tables Vol C Tables 4.2.6.8 and 6.1.1.4'
N N 0.0061 0.0033 'International Tables Vol C Tables 4.2.6.8 and 6.1.1.4'
O O 0.0106 0.0060 'International Tables Vol C Tables 4.2.6.8 and 6.1.1.4'
Cl Cl 0.1484 0.1585 'International Tables Vol C Tables 4.2.6.8 and 6.1.1.4'
Zn Zn 0.2839 1.4301 'International Tables Vol C Tables 4.2.6.8 and 6.1.1.4'

_symmetry_cell_setting           Monoclinic
_symmetry_space_group_name_H-M   C2/c

loop_
_symmetry_equiv_pos_as_xyz
'x, y, z'
'-x, y, -z+1/2'
'x+1/2, y+1/2, z'
'-x+1/2, y+1/2, -z+1/2'
'-x, -y, -z'
'x, -y, z-1/2'
'-x+1/2, -y+1/2, -z'
'x+1/2, -y+1/2, z-1/2'

_cell_length_a                   19.709(3)
_cell_length_b                   6.3640(9)
_cell_length_c                   24.531(3)
_cell_angle_alpha                90.00
_cell_angle_beta                 111.776(2)
_cell_angle_gamma                90.00
_cell_volume                     2857.3(7)
_cell_formula_units_Z            4
_cell_measurement_temperature    293(2)
_exptl_crystal_description       plate
_exptl_crystal_colour            colorless
_exptl_crystal_size_max          0.38
_exptl_crystal_size_mid          0.26
_exptl_crystal_size_min          0.08
_exptl_crystal_density_meas      ?
_exptl_crystal_density_diffrn    1.392
_exptl_crystal_density_method    'not measured'
_exptl_crystal_F_000             1248
_exptl_absorpt_coefficient_mu    1.088
_exptl_absorpt_correction_type   empirical
_exptl_absorpt_correction_T_min  0.597
_exptl_absorpt_correction_T_max  1.000

_exptl_special_details           
;
?
;

_diffrn_ambient_temperature      293(2)
_diffrn_radiation_wavelength     0.71073
_diffrn_radiation_type           MoK\a
_diffrn_radiation_source         'fine-focus sealed tube'
_diffrn_radiation_monochromator  graphite
_diffrn_measurement_device_type  'CCD area detector'
_diffrn_measurement_method       'phi and omega scans'
_diffrn_detector_area_resol_mean ?
_diffrn_reflns_number            7707
_diffrn_reflns_av_R_equivalents  0.0367
_diffrn_reflns_av_sigmaI/netI    0.0341
_diffrn_reflns_limit_h_min       -24
_diffrn_reflns_limit_h_max       23
_diffrn_reflns_limit_k_min       -7
_diffrn_reflns_limit_k_max       7
_diffrn_reflns_limit_l_min       -16
_diffrn_reflns_limit_l_max       30
_diffrn_reflns_theta_min         2.23
_diffrn_reflns_theta_max         26.04
_reflns_number_total             2798
_reflns_number_gt                2150
_reflns_threshold_expression     >2sigma(I)

_computing_data_collection       'Bruker SMART'
_computing_cell_refinement       'Bruker SMART'
_computing_data_reduction        'Bruker SHELXTL'
_computing_structure_solution    'SHELXS-97 (Sheldrick, 2008)'
_computing_structure_refinement  'SHELXL-97 (Sheldrick, 2008)'
_computing_molecular_graphics    'Bruker SHELXTL'
_computing_publication_material  'Bruker SHELXTL'

_refine_special_details          
;
Refinement of F^2^ against ALL reflections. The weighted R-factor wR and
goodness of fit S are based on F^2^, conventional R-factors R are based
on F, with F set to zero for negative F^2^. The threshold expression of
F^2^ > 2sigma(F^2^) is used only for calculating R-factors(gt) etc. and is
not relevant to the choice of reflections for refinement. R-factors based
on F^2^ are statistically about twice as large as those based on F, and R-
factors based on ALL data will be even larger.
;

_refine_ls_structure_factor_coef Fsqd
_refine_ls_matrix_type           full
_refine_ls_weighting_scheme      calc
_refine_ls_weighting_details     
'calc w=1/[\s^2^(Fo^2^)+(0.1139P)^2^+1.0044P] where P=(Fo^2^+2Fc^2^)/3'
_atom_sites_solution_primary     direct
_atom_sites_solution_secondary   difmap
_atom_sites_solution_hydrogens   geom
_refine_ls_hydrogen_treatment    constr
_refine_ls_extinction_method     none
_refine_ls_extinction_coef       ?
_refine_ls_number_reflns         2798
_refine_ls_number_parameters     164
_refine_ls_number_restraints     4
_refine_ls_R_factor_all          0.0758
_refine_ls_R_factor_gt           0.0607
_refine_ls_wR_factor_ref         0.1871
_refine_ls_wR_factor_gt          0.1773
_refine_ls_goodness_of_fit_ref   1.142
_refine_ls_restrained_S_all      1.141
_refine_ls_shift/su_max          0.000
_refine_ls_shift/su_mean         0.000

loop_
_atom_site_label
_atom_site_type_symbol
_atom_site_fract_x
_atom_site_fract_y
_atom_site_fract_z
_atom_site_U_iso_or_equiv
_atom_site_adp_type
_atom_site_occupancy
_atom_site_symmetry_multiplicity
_atom_site_calc_flag
_atom_site_refinement_flags
_atom_site_disorder_assembly
_atom_site_disorder_group
Zn Zn 0.0000 0.33701(9) 0.7500 0.0445(3) Uani 1 2 d S . .
Cl Cl -0.09233(6) 0.15296(18) 0.75719(6) 0.0701(4) Uani 1 1 d . . .
O1 O 0.2083(2) 0.1536(5) 0.92919(14) 0.0739(11) Uani 1 1 d . . .
N1 N 0.04425(17) 0.5240(5) 0.82241(13) 0.0464(8) Uani 1 1 d . . .
N2 N 0.18523(17) 0.4545(5) 0.96972(13) 0.0486(8) Uani 1 1 d . . .
H2A H 0.1984 0.5236 1.0021 0.058 Uiso 1 1 calc R . .
C1 C 0.0185(2) 0.7133(7) 0.82847(19) 0.0554(11) Uani 1 1 d . . .
H1A H -0.0197 0.7713 0.7971 0.067 Uiso 1 1 calc R . .
C2 C 0.0471(3) 0.8233(7) 0.8799(2) 0.0621(12) Uani 1 1 d . . .
H2B H 0.0289 0.9560 0.8827 0.075 Uiso 1 1 calc R . .
C3 C 0.1022(2) 0.7404(7) 0.92701(19) 0.0530(10) Uani 1 1 d . . .
H3A H 0.1213 0.8142 0.9622 0.064 Uiso 1 1 calc R . .
C4 C 0.1294(2) 0.5417(6) 0.92133(16) 0.0431(8) Uani 1 1 d . . .
C5 C 0.0993(2) 0.4393(6) 0.86782(15) 0.0447(9) Uani 1 1 d . . .
H5A H 0.1176 0.3086 0.8632 0.054 Uiso 1 1 calc R . .
C6 C 0.2197(2) 0.2746(7) 0.97016(17) 0.0484(10) Uani 1 1 d . . .
O2 O 0.2984(2) 0.7509(7) 0.93846(16) 0.0902(13) Uani 1 1 d . . .
N3 N 0.2643(2) 0.6236(6) 0.84643(16) 0.0590(9) Uani 1 1 d . . .
C7 C 0.3122(4) 0.4473(9) 0.8631(2) 0.0895(18) Uani 1 1 d . . .
H7A H 0.3392 0.4507 0.9047 0.134 Uiso 1 1 calc R . .
H7B H 0.3456 0.4526 0.8429 0.134 Uiso 1 1 calc R . .
H7C H 0.2842 0.3200 0.8529 0.134 Uiso 1 1 calc R . .
C8 C 0.2194(3) 0.6453(8) 0.7853(2) 0.0750(15) Uani 1 1 d . . .
H8A H 0.1897 0.7691 0.7797 0.112 Uiso 1 1 calc R . .
H8B H 0.1885 0.5242 0.7725 0.112 Uiso 1 1 calc R . .
H8C H 0.2500 0.6571 0.7628 0.112 Uiso 1 1 calc R . .
C9 C 0.2610(3) 0.7616(8) 0.8860(2) 0.0642(12) Uani 1 1 d . . .
H9A H 0.2285 0.8731 0.8731 0.077 Uiso 1 1 calc R . .
O3 O 0.0000 0.5000 1.0000 0.268(9) Uani 1 2 d SD . .
C10 C 0.0535(8) 0.3366(19) 1.0261(6) 0.138(6) Uiso 0.50 1 d PD A 1
C10' C -0.0169(9) 0.318(2) 0.9619(8) 0.152(8) Uiso 0.50 1 d PD A 2
C11 C 0.0437(9) 0.1712(17) 0.9832(7) 0.200(6) Uani 1 1 d D . .

loop_
_atom_site_aniso_label
_atom_site_aniso_U_11
_atom_site_aniso_U_22
_atom_site_aniso_U_33
_atom_site_aniso_U_23
_atom_site_aniso_U_13
_atom_site_aniso_U_12
Zn 0.0417(4) 0.0442(4) 0.0338(4) 0.000 -0.0019(3) 0.000
Cl 0.0536(7) 0.0624(7) 0.0860(9) 0.0227(6) 0.0164(6) -0.0016(5)
O1 0.079(2) 0.071(2) 0.0390(17) -0.0161(14) -0.0167(15) 0.0251(16)
N1 0.0445(16) 0.0473(18) 0.0334(16) -0.0004(13) -0.0019(13) 0.0049(13)
N2 0.0503(18) 0.0524(19) 0.0295(16) -0.0070(14) -0.0010(14) 0.0044(15)
C1 0.060(2) 0.049(2) 0.043(2) 0.0013(18) 0.0027(19) 0.0100(18)
C2 0.076(3) 0.046(2) 0.051(3) 0.0001(19) 0.007(2) 0.015(2)
C3 0.064(3) 0.047(2) 0.042(2) -0.0062(17) 0.013(2) 0.0003(19)
C4 0.0452(19) 0.044(2) 0.0334(18) 0.0001(15) 0.0073(15) 0.0003(15)
C5 0.0444(19) 0.046(2) 0.0324(19) -0.0014(16) 0.0015(15) 0.0064(16)
C6 0.044(2) 0.054(2) 0.034(2) -0.0033(18) 0.0007(17) 0.0015(17)
O2 0.099(3) 0.106(3) 0.050(2) -0.022(2) 0.009(2) 0.023(2)
N3 0.071(2) 0.059(2) 0.047(2) -0.0047(16) 0.0214(18) 0.0004(18)
C7 0.125(5) 0.077(4) 0.064(3) -0.002(3) 0.033(3) 0.029(4)
C8 0.091(4) 0.078(3) 0.048(3) -0.012(2) 0.017(3) -0.008(3)
C9 0.068(3) 0.066(3) 0.052(3) -0.016(2) 0.015(2) 0.000(2)
O3 0.289(13) 0.083(5) 0.60(3) 0.080(10) 0.364(17) 0.036(7)
C11 0.255(16) 0.125(9) 0.264(16) 0.018(9) 0.149(13) -0.009(9)

_geom_special_details            
;
All esds (except the esd in the dihedral angle between two l.s. planes)
are estimated using the full covariance matrix. The cell esds are taken
into account individually in the estimation of esds in distances, angles
and torsion angles; correlations between esds in cell parameters are only
used when they are defined by crystal symmetry. An approximate (isotropic)
treatment of cell esds is used for estimating esds involving l.s. planes.
;

loop_
_geom_bond_atom_site_label_1
_geom_bond_atom_site_label_2
_geom_bond_distance
_geom_bond_site_symmetry_2
_geom_bond_publ_flag
Zn N1 2.045(3) . ?
Zn N1 2.045(3) 2_556 ?
Zn Cl 2.2254(12) 2_556 ?
Zn Cl 2.2254(12) . ?
O1 C6 1.219(5) . ?
N1 C1 1.337(5) . ?
N1 C5 1.346(4) . ?
N2 C6 1.329(5) . ?
N2 C4 1.400(4) . ?
N2 H2A 0.8600 . ?
C1 C2 1.368(6) . ?
C1 H1A 0.9300 . ?
C2 C3 1.365(6) . ?
C2 H2B 0.9300 . ?
C3 C4 1.400(6) . ?
C3 H3A 0.9300 . ?
C4 C5 1.386(5) . ?
C5 H5A 0.9300 . ?
C6 C6 1.540(7) 7_557 ?
O2 C9 1.225(6) . ?
N3 C9 1.328(6) . ?
N3 C7 1.426(7) . ?
N3 C8 1.438(6) . ?
C7 H7A 0.9600 . ?
C7 H7B 0.9600 . ?
C7 H7C 0.9600 . ?
C8 H8A 0.9600 . ?
C8 H8B 0.9600 . ?
C8 H8C 0.9600 . ?
C9 H9A 0.9300 . ?
O3 C10 1.4498(10) 5_567 ?
O3 C10 1.4498(10) . ?
O3 C10' 1.4498(11) 5_567 ?
O3 C10' 1.4498(11) . ?
C10 C11 1.4496(11) . ?
C10' C11 1.4497(10) . ?

loop_
_geom_angle_atom_site_label_1
_geom_angle_atom_site_label_2
_geom_angle_atom_site_label_3
_geom_angle
_geom_angle_site_symmetry_1
_geom_angle_site_symmetry_3
_geom_angle_publ_flag
N1 Zn N1 108.83(18) . 2_556 ?
N1 Zn Cl 106.10(10) . 2_556 ?
N1 Zn Cl 109.59(11) 2_556 2_556 ?
N1 Zn Cl 109.58(11) . . ?
N1 Zn Cl 106.10(10) 2_556 . ?
Cl Zn Cl 116.49(7) 2_556 . ?
C1 N1 C5 119.5(3) . . ?
C1 N1 Zn 124.3(3) . . ?
C5 N1 Zn 116.0(3) . . ?
C6 N2 C4 125.9(3) . . ?
C6 N2 H2A 117.0 . . ?
C4 N2 H2A 117.0 . . ?
N1 C1 C2 121.3(4) . . ?
N1 C1 H1A 119.3 . . ?
C2 C1 H1A 119.3 . . ?
C3 C2 C1 120.6(4) . . ?
C3 C2 H2B 119.7 . . ?
C1 C2 H2B 119.7 . . ?
C2 C3 C4 118.6(4) . . ?
C2 C3 H3A 120.7 . . ?
C4 C3 H3A 120.7 . . ?
C5 C4 N2 122.9(3) . . ?
C5 C4 C3 118.2(3) . . ?
N2 C4 C3 118.9(3) . . ?
N1 C5 C4 121.7(4) . . ?
N1 C5 H5A 119.1 . . ?
C4 C5 H5A 119.1 . . ?
O1 C6 N2 126.9(3) . . ?
O1 C6 C6 119.7(5) . 7_557 ?
N2 C6 C6 113.4(4) . 7_557 ?
C9 N3 C7 121.2(4) . . ?
C9 N3 C8 121.4(4) . . ?
C7 N3 C8 117.4(4) . . ?
N3 C7 H7A 109.5 . . ?
N3 C7 H7B 109.5 . . ?
H7A C7 H7B 109.5 . . ?
N3 C7 H7C 109.5 . . ?
H7A C7 H7C 109.5 . . ?
H7B C7 H7C 109.5 . . ?
N3 C8 H8A 109.5 . . ?
N3 C8 H8B 109.5 . . ?
H8A C8 H8B 109.5 . . ?
N3 C8 H8C 109.5 . . ?
H8A C8 H8C 109.5 . . ?
H8B C8 H8C 109.5 . . ?
O2 C9 N3 123.9(5) . . ?
O2 C9 H9A 118.0 . . ?
N3 C9 H9A 118.0 . . ?
C10 O3 C10 180.000(15) 5_567 . ?
C10 O3 C10' 70.5(9) 5_567 5_567 ?
C10 O3 C10' 109.5(9) . 5_567 ?
C10 O3 C10' 109.5(9) 5_567 . ?
C10 O3 C10' 70.5(9) . . ?
C10' O3 C10' 179.997(5) 5_567 . ?
C11 C10 O3 108.7(8) . . ?
C11 C10' O3 108.7(8) . . ?
C10 C11 C10' 70.5(9) . . ?

_diffrn_measured_fraction_theta_max 0.994
_diffrn_reflns_theta_full        26.04
_diffrn_measured_fraction_theta_full 0.994
_refine_diff_density_max         1.193
_refine_diff_density_min         -0.483
_refine_diff_density_rms         0.104
