####################################################################### 
# 
# This file contains crystal structure data downloaded from the 
# Cambridge Structural Database (CSD) hosted by the Cambridge 
# Crystallographic Data Centre (CCDC).
# 
# Full information about CCDC data access policies and citation 
# guidelines are available at http://www.ccdc.cam.ac.uk/access/V1 
# 
# Audit and citation data items may have been added by the CCDC. 
# Please retain this information to preserve the provenance of 
# this file and to allow appropriate attribution of the data. 
# 
#######################################################################

data_5
_audit_block_doi                 10.5517/ccx3vvp
_database_code_depnum_ccdc_archive 'CCDC 837863'
loop_
_citation_id
_citation_doi
_citation_year
1 10.1016/j.poly.2011.11.037 2012
_audit_update_record             
;
2011-08-03 deposited with the CCDC.	2024-07-13 downloaded from the CCDC.
;
#TrackingRef 'all cif.cif'




_audit_creation_method           SHELXL-97
_chemical_name_systematic        
;
?
;
_chemical_name_common            ?
_chemical_melting_point          ?
_chemical_formula_moiety         ?
_chemical_formula_sum            'C18 H24 I2 N6 O4 Zn'
_chemical_formula_weight         707.60

loop_
_atom_type_symbol
_atom_type_description
_atom_type_scat_dispersion_real
_atom_type_scat_dispersion_imag
_atom_type_scat_source
C C 0.0033 0.0016 'International Tables Vol C Tables 4.2.6.8 and 6.1.1.4'
H H 0.0000 0.0000 'International Tables Vol C Tables 4.2.6.8 and 6.1.1.4'
N N 0.0061 0.0033 'International Tables Vol C Tables 4.2.6.8 and 6.1.1.4'
O O 0.0106 0.0060 'International Tables Vol C Tables 4.2.6.8 and 6.1.1.4'
Zn Zn 0.2839 1.4301 'International Tables Vol C Tables 4.2.6.8 and 6.1.1.4'
I I -0.4742 1.8119 'International Tables Vol C Tables 4.2.6.8 and 6.1.1.4'

_symmetry_cell_setting           Monoclinic
_symmetry_space_group_name_H-M   P2(1)/n

loop_
_symmetry_equiv_pos_as_xyz
'x, y, z'
'-x+1/2, y+1/2, -z+1/2'
'-x, -y, -z'
'x-1/2, -y-1/2, z-1/2'

_cell_length_a                   8.0495(5)
_cell_length_b                   14.3082(9)
_cell_length_c                   22.4805(13)
_cell_angle_alpha                90.00
_cell_angle_beta                 91.7920(10)
_cell_angle_gamma                90.00
_cell_volume                     2587.9(3)
_cell_formula_units_Z            4
_cell_measurement_temperature    293(2)
_cell_measurement_reflns_used    6653
_cell_measurement_theta_min      2.7155
_cell_measurement_theta_max      25.958

_exptl_crystal_description       parallelepiped
_exptl_crystal_colour            colorless
_exptl_crystal_size_max          0.34
_exptl_crystal_size_mid          0.23
_exptl_crystal_size_min          0.23
_exptl_crystal_density_meas      ?
_exptl_crystal_density_diffrn    1.816
_exptl_crystal_density_method    'not measured'
_exptl_crystal_F_000             1368
_exptl_absorpt_coefficient_mu    3.368
_exptl_absorpt_correction_type   empirical
_exptl_absorpt_correction_T_min  0.6216
_exptl_absorpt_correction_T_max  0.9985
_exptl_absorpt_process_details   ?

_exptl_special_details           
;
?
;

_diffrn_ambient_temperature      293(2)
_diffrn_radiation_wavelength     0.71073
_diffrn_radiation_type           MoK\a
_diffrn_radiation_source         'fine-focus sealed tube'
_diffrn_radiation_monochromator  graphite
_diffrn_measurement_device_type  'CCD area detector'
_diffrn_measurement_method       'phi and omega scans'
_diffrn_detector_area_resol_mean ?
_diffrn_standards_number         ?
_diffrn_standards_interval_count ?
_diffrn_standards_interval_time  ?
_diffrn_standards_decay_%        ?
_diffrn_reflns_number            14344
_diffrn_reflns_av_R_equivalents  0.0273
_diffrn_reflns_av_sigmaI/netI    0.0242
_diffrn_reflns_limit_h_min       -9
_diffrn_reflns_limit_h_max       9
_diffrn_reflns_limit_k_min       -15
_diffrn_reflns_limit_k_max       17
_diffrn_reflns_limit_l_min       -27
_diffrn_reflns_limit_l_max       25
_diffrn_reflns_theta_min         1.69
_diffrn_reflns_theta_max         26.03
_reflns_number_total             5086
_reflns_number_gt                4054
_reflns_threshold_expression     >2sigma(I)

_computing_data_collection       'Bruker SMART'
_computing_cell_refinement       'Bruker SMART'
_computing_data_reduction        'Bruker SHELXTL'
_computing_structure_solution    'SHELXS-97 (Sheldrick, 1990)'
_computing_structure_refinement  'SHELXL-97 (Sheldrick, 1997)'
_computing_molecular_graphics    'Bruker SHELXTL'
_computing_publication_material  'Bruker SHELXTL'

_refine_special_details          
;
Refinement of F^2^ against ALL reflections. The weighted R-factor wR and
goodness of fit S are based on F^2^, conventional R-factors R are based
on F, with F set to zero for negative F^2^. The threshold expression of
F^2^ > 2sigma(F^2^) is used only for calculating R-factors(gt) etc. and is
not relevant to the choice of reflections for refinement. R-factors based
on F^2^ are statistically about twice as large as those based on F, and R-
factors based on ALL data will be even larger.
;

_refine_ls_structure_factor_coef Fsqd
_refine_ls_matrix_type           full
_refine_ls_weighting_scheme      calc
_refine_ls_weighting_details     
'calc w=1/[\s^2^(Fo^2^)+(0.0554P)^2^+4.3642P] where P=(Fo^2^+2Fc^2^)/3'
_atom_sites_solution_primary     direct
_atom_sites_solution_secondary   difmap
_atom_sites_solution_hydrogens   geom
_refine_ls_hydrogen_treatment    constr
_refine_ls_extinction_method     none
_refine_ls_extinction_coef       ?
_refine_ls_number_reflns         5086
_refine_ls_number_parameters     280
_refine_ls_number_restraints     0
_refine_ls_R_factor_all          0.0516
_refine_ls_R_factor_gt           0.0405
_refine_ls_wR_factor_ref         0.1154
_refine_ls_wR_factor_gt          0.1084
_refine_ls_goodness_of_fit_ref   1.043
_refine_ls_restrained_S_all      1.043
_refine_ls_shift/su_max          0.000
_refine_ls_shift/su_mean         0.000

loop_
_atom_site_label
_atom_site_type_symbol
_atom_site_fract_x
_atom_site_fract_y
_atom_site_fract_z
_atom_site_U_iso_or_equiv
_atom_site_adp_type
_atom_site_occupancy
_atom_site_symmetry_multiplicity
_atom_site_calc_flag
_atom_site_refinement_flags
_atom_site_disorder_assembly
_atom_site_disorder_group
Zn Zn 0.64448(7) 0.14887(4) 0.20686(2) 0.04927(16) Uani 1 1 d . . .
I1 I 0.36801(6) 0.21165(4) 0.24101(2) 0.09197(19) Uani 1 1 d . . .
I2 I 0.64385(5) 0.01859(3) 0.129757(15) 0.07066(15) Uani 1 1 d . . .
O1 O 1.1662(5) 0.4739(3) 0.05397(14) 0.0637(10) Uani 1 1 d . . .
O2 O 1.0828(6) 0.3230(3) -0.06450(15) 0.0713(11) Uani 1 1 d . . .
O3 O 0.8952(6) 0.1654(3) -0.00099(16) 0.0769(12) Uani 1 1 d . . .
O4 O 0.6243(6) 0.3756(3) 0.01697(17) 0.0745(11) Uani 1 1 d . . .
N1 N 0.8037(5) 0.2536(3) 0.18222(15) 0.0472(9) Uani 1 1 d . . .
N2 N 1.0233(5) 0.3357(3) 0.05229(15) 0.0438(8) Uani 1 1 d . . .
H2A H 0.9940 0.2899 0.0295 0.053 Uiso 1 1 calc R . .
N3 N 1.2392(5) 0.4557(3) -0.06098(15) 0.0431(8) Uani 1 1 d . . .
H3A H 1.2679 0.5015 -0.0381 0.052 Uiso 1 1 calc R . .
N4 N 1.2772(5) 0.4069(3) -0.22069(15) 0.0470(9) Uani 1 1 d . . .
N5 N 0.8571(6) 0.0598(3) -0.07473(18) 0.0586(10) Uani 1 1 d . . .
N6 N 0.5380(6) 0.2689(3) -0.0519(2) 0.0638(12) Uani 1 1 d . . .
C1 C 0.8547(6) 0.3153(4) 0.22357(18) 0.0511(11) Uani 1 1 d . . .
H1A H 0.8131 0.3106 0.2616 0.061 Uiso 1 1 calc R . .
C2 C 0.9653(6) 0.3849(4) 0.21226(19) 0.0522(11) Uani 1 1 d . . .
H2B H 1.0000 0.4258 0.2423 0.063 Uiso 1 1 calc R . .
C3 C 1.0250(6) 0.3940(3) 0.15565(18) 0.0470(10) Uani 1 1 d . . .
H3B H 1.0995 0.4415 0.1471 0.056 Uiso 1 1 calc R . .
C4 C 0.9737(5) 0.3323(3) 0.11197(17) 0.0396(9) Uani 1 1 d . . .
C5 C 0.8625(6) 0.2615(3) 0.12685(17) 0.0444(10) Uani 1 1 d . . .
H5A H 0.8281 0.2188 0.0978 0.053 Uiso 1 1 calc R . .
C6 C 1.1123(6) 0.4045(3) 0.02842(18) 0.0450(10) Uani 1 1 d . . .
C7 C 1.1414(6) 0.3894(3) -0.03838(18) 0.0455(10) Uani 1 1 d . . .
C8 C 1.2982(5) 0.4559(3) -0.11908(18) 0.0410(9) Uani 1 1 d . . .
C9 C 1.4383(6) 0.5083(4) -0.1312(2) 0.0567(12) Uani 1 1 d . . .
H9A H 1.4917 0.5436 -0.1016 0.068 Uiso 1 1 calc R . .
C10 C 1.4963(7) 0.5066(5) -0.1881(2) 0.0703(16) Uani 1 1 d . . .
H10A H 1.5909 0.5403 -0.1972 0.084 Uiso 1 1 calc R . .
C11 C 1.4153(7) 0.4557(5) -0.2310(2) 0.0663(15) Uani 1 1 d . . .
H11A H 1.4575 0.4547 -0.2690 0.080 Uiso 1 1 calc R . .
C12 C 1.2192(5) 0.4071(3) -0.16572(17) 0.0402(9) Uani 1 1 d . . .
H12A H 1.1229 0.3737 -0.1582 0.048 Uiso 1 1 calc R . .
C13 C 0.9034(9) 0.1415(5) -0.0526(3) 0.089(2) Uani 1 1 d . . .
H13A H 0.9460 0.1847 -0.0790 0.107 Uiso 1 1 calc R . .
C14 C 0.8613(11) 0.0314(9) -0.1337(4) 0.150(5) Uani 1 1 d . . .
H14A H 0.9102 0.0798 -0.1570 0.224 Uiso 1 1 calc R . .
H14B H 0.7502 0.0194 -0.1485 0.224 Uiso 1 1 calc R . .
H14C H 0.9265 -0.0245 -0.1364 0.224 Uiso 1 1 calc R . .
C15 C 0.7842(11) -0.0089(6) -0.0338(4) 0.108(3) Uani 1 1 d . . .
H15A H 0.7869 0.0160 0.0058 0.161 Uiso 1 1 calc R . .
H15B H 0.8472 -0.0658 -0.0346 0.161 Uiso 1 1 calc R . .
H15C H 0.6712 -0.0214 -0.0463 0.161 Uiso 1 1 calc R . .
C16 C 0.6181(7) 0.3449(4) -0.0334(3) 0.0620(13) Uani 1 1 d . . .
H16A H 0.6753 0.3780 -0.0619 0.074 Uiso 1 1 calc R . .
C17 C 0.4540(10) 0.2124(5) -0.0098(4) 0.095(2) Uani 1 1 d . . .
H17A H 0.4670 0.2397 0.0291 0.143 Uiso 1 1 calc R . .
H17B H 0.5008 0.1507 -0.0093 0.143 Uiso 1 1 calc R . .
H17C H 0.3380 0.2090 -0.0208 0.143 Uiso 1 1 calc R . .
C18 C 0.5347(11) 0.2405(5) -0.1134(3) 0.092(2) Uani 1 1 d . . .
H18A H 0.5944 0.2852 -0.1364 0.137 Uiso 1 1 calc R . .
H18B H 0.4216 0.2372 -0.1282 0.137 Uiso 1 1 calc R . .
H18C H 0.5859 0.1802 -0.1168 0.137 Uiso 1 1 calc R . .

loop_
_atom_site_aniso_label
_atom_site_aniso_U_11
_atom_site_aniso_U_22
_atom_site_aniso_U_33
_atom_site_aniso_U_23
_atom_site_aniso_U_13
_atom_site_aniso_U_12
Zn 0.0568(3) 0.0579(3) 0.0336(3) 0.0049(2) 0.0101(2) -0.0018(2)
I1 0.0663(3) 0.1174(4) 0.0935(3) 0.0096(3) 0.0223(2) 0.0249(2)
I2 0.0912(3) 0.0736(3) 0.0476(2) -0.00998(16) 0.00750(17) -0.0229(2)
O1 0.089(3) 0.064(2) 0.0391(17) -0.0092(16) 0.0154(16) -0.032(2)
O2 0.117(3) 0.061(2) 0.0377(17) -0.0088(16) 0.0221(19) -0.038(2)
O3 0.121(4) 0.066(2) 0.044(2) -0.0137(18) 0.013(2) -0.009(2)
O4 0.101(3) 0.062(2) 0.060(2) -0.0115(19) 0.003(2) -0.020(2)
N1 0.062(2) 0.050(2) 0.0299(17) 0.0028(16) 0.0095(16) -0.0007(18)
N2 0.060(2) 0.044(2) 0.0286(16) -0.0040(15) 0.0071(15) -0.0069(17)
N3 0.052(2) 0.045(2) 0.0323(17) -0.0036(15) 0.0064(15) -0.0067(16)
N4 0.051(2) 0.056(2) 0.0337(17) 0.0030(16) 0.0103(15) -0.0002(18)
N5 0.068(3) 0.058(3) 0.050(2) -0.013(2) 0.0033(19) -0.010(2)
N6 0.075(3) 0.040(2) 0.075(3) -0.003(2) -0.014(2) -0.005(2)
C1 0.068(3) 0.058(3) 0.027(2) -0.0006(19) 0.0089(19) 0.004(2)
C2 0.072(3) 0.053(3) 0.031(2) -0.0076(19) 0.001(2) 0.001(2)
C3 0.058(3) 0.048(3) 0.036(2) -0.0025(19) 0.0045(19) -0.006(2)
C4 0.049(2) 0.042(2) 0.0285(19) -0.0007(16) 0.0073(16) 0.0009(18)
C5 0.061(3) 0.044(2) 0.0278(19) -0.0018(17) 0.0051(18) 0.000(2)
C6 0.055(3) 0.051(3) 0.0302(19) -0.0022(19) 0.0063(18) -0.009(2)
C7 0.058(3) 0.046(2) 0.033(2) -0.0010(19) 0.0090(18) -0.004(2)
C8 0.045(2) 0.045(2) 0.034(2) 0.0016(17) 0.0078(17) 0.0004(18)
C9 0.057(3) 0.070(3) 0.042(2) 0.001(2) 0.006(2) -0.015(2)
C10 0.056(3) 0.104(5) 0.052(3) 0.005(3) 0.013(2) -0.025(3)
C11 0.063(3) 0.099(4) 0.038(2) 0.002(3) 0.017(2) -0.014(3)
C12 0.046(2) 0.042(2) 0.0327(19) -0.0012(17) 0.0087(17) -0.0026(18)
C13 0.097(5) 0.089(5) 0.081(5) -0.012(4) 0.004(4) -0.018(4)
C14 0.101(6) 0.246(13) 0.103(6) -0.106(8) 0.026(5) -0.018(7)
C15 0.115(6) 0.093(5) 0.114(6) 0.026(5) -0.017(5) -0.016(5)
C16 0.068(3) 0.048(3) 0.070(3) -0.003(3) -0.008(3) -0.005(2)
C17 0.091(5) 0.069(4) 0.124(6) 0.017(4) -0.002(4) -0.019(4)
C18 0.123(6) 0.068(4) 0.082(4) -0.024(3) -0.025(4) 0.014(4)

_geom_special_details            
;
All esds (except the esd in the dihedral angle between two l.s. planes)
are estimated using the full covariance matrix. The cell esds are taken
into account individually in the estimation of esds in distances, angles
and torsion angles; correlations between esds in cell parameters are only
used when they are defined by crystal symmetry. An approximate (isotropic)
treatment of cell esds is used for estimating esds involving l.s. planes.
;

loop_
_geom_bond_atom_site_label_1
_geom_bond_atom_site_label_2
_geom_bond_distance
_geom_bond_site_symmetry_2
_geom_bond_publ_flag
Zn N1 2.060(4) . ?
Zn N4 2.079(4) 4_566 ?
Zn I1 2.5408(7) . ?
Zn I2 2.5453(7) . ?
O1 C6 1.220(5) . ?
O2 C7 1.205(6) . ?
O3 C13 1.214(8) . ?
O4 C16 1.214(7) . ?
N1 C1 1.337(6) . ?
N1 C5 1.350(5) . ?
N2 C6 1.340(6) . ?
N2 C4 1.412(5) . ?
N2 H2A 0.8600 . ?
N3 C7 1.343(6) . ?
N3 C8 1.404(5) . ?
N3 H3A 0.8600 . ?
N4 C12 1.335(5) . ?
N4 C11 1.339(6) . ?
N4 Zn 2.079(4) 4_665 ?
N5 C13 1.319(8) . ?
N5 C14 1.388(8) . ?
N5 C15 1.480(9) . ?
N6 C16 1.325(7) . ?
N6 C17 1.430(8) . ?
N6 C18 1.442(8) . ?
C1 C2 1.365(7) . ?
C1 H1A 0.9300 . ?
C2 C3 1.381(6) . ?
C2 H2B 0.9300 . ?
C3 C4 1.374(6) . ?
C3 H3B 0.9300 . ?
C4 C5 1.399(6) . ?
C5 H5A 0.9300 . ?
C6 C7 1.542(6) . ?
C8 C9 1.388(7) . ?
C8 C12 1.396(6) . ?
C9 C10 1.375(7) . ?
C9 H9A 0.9300 . ?
C10 C11 1.360(8) . ?
C10 H10A 0.9300 . ?
C11 H11A 0.9300 . ?
C12 H12A 0.9300 . ?
C13 H13A 0.9300 . ?
C14 H14A 0.9600 . ?
C14 H14B 0.9600 . ?
C14 H14C 0.9600 . ?
C15 H15A 0.9600 . ?
C15 H15B 0.9600 . ?
C15 H15C 0.9600 . ?
C16 H16A 0.9300 . ?
C17 H17A 0.9600 . ?
C17 H17B 0.9600 . ?
C17 H17C 0.9600 . ?
C18 H18A 0.9600 . ?
C18 H18B 0.9600 . ?
C18 H18C 0.9600 . ?

loop_
_geom_angle_atom_site_label_1
_geom_angle_atom_site_label_2
_geom_angle_atom_site_label_3
_geom_angle
_geom_angle_site_symmetry_1
_geom_angle_site_symmetry_3
_geom_angle_publ_flag
N1 Zn N4 100.43(15) . 4_566 ?
N1 Zn I1 112.48(11) . . ?
N4 Zn I1 109.43(10) 4_566 . ?
N1 Zn I2 109.75(10) . . ?
N4 Zn I2 104.03(11) 4_566 . ?
I1 Zn I2 118.79(3) . . ?
C1 N1 C5 118.5(4) . . ?
C1 N1 Zn 118.3(3) . . ?
C5 N1 Zn 123.2(3) . . ?
C6 N2 C4 125.1(4) . . ?
C6 N2 H2A 117.4 . . ?
C4 N2 H2A 117.4 . . ?
C7 N3 C8 124.9(4) . . ?
C7 N3 H3A 117.5 . . ?
C8 N3 H3A 117.5 . . ?
C12 N4 C11 118.4(4) . . ?
C12 N4 Zn 122.7(3) . 4_665 ?
C11 N4 Zn 118.3(3) . 4_665 ?
C13 N5 C14 127.1(7) . . ?
C13 N5 C15 117.9(6) . . ?
C14 N5 C15 114.9(7) . . ?
C16 N6 C17 119.4(6) . . ?
C16 N6 C18 121.8(6) . . ?
C17 N6 C18 118.8(6) . . ?
N1 C1 C2 122.7(4) . . ?
N1 C1 H1A 118.7 . . ?
C2 C1 H1A 118.7 . . ?
C1 C2 C3 119.2(4) . . ?
C1 C2 H2B 120.4 . . ?
C3 C2 H2B 120.4 . . ?
C4 C3 C2 119.5(4) . . ?
C4 C3 H3B 120.2 . . ?
C2 C3 H3B 120.2 . . ?
C3 C4 C5 118.3(4) . . ?
C3 C4 N2 124.7(4) . . ?
C5 C4 N2 117.0(4) . . ?
N1 C5 C4 121.7(4) . . ?
N1 C5 H5A 119.1 . . ?
C4 C5 H5A 119.1 . . ?
O1 C6 N2 126.6(4) . . ?
O1 C6 C7 120.7(4) . . ?
N2 C6 C7 112.7(4) . . ?
O2 C7 N3 126.7(4) . . ?
O2 C7 C6 121.1(4) . . ?
N3 C7 C6 112.2(4) . . ?
C9 C8 C12 118.5(4) . . ?
C9 C8 N3 118.9(4) . . ?
C12 C8 N3 122.6(4) . . ?
C10 C9 C8 118.3(5) . . ?
C10 C9 H9A 120.9 . . ?
C8 C9 H9A 120.9 . . ?
C11 C10 C9 120.1(5) . . ?
C11 C10 H10A 120.0 . . ?
C9 C10 H10A 120.0 . . ?
N4 C11 C10 122.6(4) . . ?
N4 C11 H11A 118.7 . . ?
C10 C11 H11A 118.7 . . ?
N4 C12 C8 122.1(4) . . ?
N4 C12 H12A 118.9 . . ?
C8 C12 H12A 118.9 . . ?
O3 C13 N5 125.9(7) . . ?
O3 C13 H13A 117.0 . . ?
N5 C13 H13A 117.0 . . ?
N5 C14 H14A 109.5 . . ?
N5 C14 H14B 109.5 . . ?
H14A C14 H14B 109.5 . . ?
N5 C14 H14C 109.5 . . ?
H14A C14 H14C 109.5 . . ?
H14B C14 H14C 109.5 . . ?
N5 C15 H15A 109.5 . . ?
N5 C15 H15B 109.5 . . ?
H15A C15 H15B 109.5 . . ?
N5 C15 H15C 109.5 . . ?
H15A C15 H15C 109.5 . . ?
H15B C15 H15C 109.5 . . ?
O4 C16 N6 126.5(6) . . ?
O4 C16 H16A 116.7 . . ?
N6 C16 H16A 116.7 . . ?
N6 C17 H17A 109.5 . . ?
N6 C17 H17B 109.5 . . ?
H17A C17 H17B 109.5 . . ?
N6 C17 H17C 109.5 . . ?
H17A C17 H17C 109.5 . . ?
H17B C17 H17C 109.5 . . ?
N6 C18 H18A 109.5 . . ?
N6 C18 H18B 109.5 . . ?
H18A C18 H18B 109.5 . . ?
N6 C18 H18C 109.5 . . ?
H18A C18 H18C 109.5 . . ?
H18B C18 H18C 109.5 . . ?

_diffrn_measured_fraction_theta_max 0.997
_diffrn_reflns_theta_full        26.03
_diffrn_measured_fraction_theta_full 0.997
_refine_diff_density_max         1.580
_refine_diff_density_min         -1.306
_refine_diff_density_rms         0.092
