####################################################################### 
# 
# This file contains crystal structure data downloaded from the 
# Cambridge Structural Database (CSD) hosted by the Cambridge 
# Crystallographic Data Centre (CCDC).
# 
# Full information about CCDC data access policies and citation 
# guidelines are available at http://www.ccdc.cam.ac.uk/access/V1 
# 
# Audit and citation data items may have been added by the CCDC. 
# Please retain this information to preserve the provenance of 
# this file and to allow appropriate attribution of the data. 
# 
#######################################################################

data_complex17
_audit_block_doi                 10.5517/cc7zhm9
_database_code_depnum_ccdc_archive 'CCDC 237851'
loop_
_citation_id
_citation_doi
_citation_year
1 10.1021/ic0486872 2005
_audit_update_record             
;
2004-05-05 deposited with the CCDC.	2024-07-13 downloaded from the CCDC.
;


_audit_creation_method           SHELXL-97
_chemical_name_systematic        
;
?
;
_chemical_name_common            ?
_chemical_melting_point          ?
_chemical_formula_moiety         ?
_chemical_formula_sum            'C51 H60 Mn3 N11 O12'
_chemical_formula_weight         1183.92

loop_
_atom_type_symbol
_atom_type_description
_atom_type_scat_dispersion_real
_atom_type_scat_dispersion_imag
_atom_type_scat_source
C C 0.0033 0.0016 'International Tables Vol C Tables 4.2.6.8 and 6.1.1.4'
H H 0.0000 0.0000 'International Tables Vol C Tables 4.2.6.8 and 6.1.1.4'
N N 0.0061 0.0033 'International Tables Vol C Tables 4.2.6.8 and 6.1.1.4'
O O 0.0106 0.0060 'International Tables Vol C Tables 4.2.6.8 and 6.1.1.4'
Mn Mn 0.3368 0.7283 'International Tables Vol C Tables 4.2.6.8 and 6.1.1.4'

_symmetry_cell_setting           Tetragonal
_symmetry_space_group_name_H-M   I41/a

loop_
_symmetry_equiv_pos_as_xyz
'x, y, z'
'-x+1/2, -y, z+1/2'
'-y+3/4, x+1/4, z+1/4'
'y+3/4, -x+3/4, z+3/4'
'x+1/2, y+1/2, z+1/2'
'-x+1, -y+1/2, z+1'
'-y+5/4, x+3/4, z+3/4'
'y+5/4, -x+5/4, z+5/4'
'-x, -y, -z'
'x-1/2, y, -z-1/2'
'y-3/4, -x-1/4, -z-1/4'
'-y-3/4, x-3/4, -z-3/4'
'-x+1/2, -y+1/2, -z+1/2'
'x, y+1/2, -z'
'y-1/4, -x+1/4, -z+1/4'
'-y-1/4, x-1/4, -z-1/4'

_cell_length_a                   40.6479(16)
_cell_length_b                   40.6479(16)
_cell_length_c                   17.5642(10)
_cell_angle_alpha                90.00
_cell_angle_beta                 90.00
_cell_angle_gamma                90.00
_cell_volume                     29020(2)
_cell_formula_units_Z            16
_cell_measurement_temperature    173(2)
_cell_measurement_reflns_used    1024
_cell_measurement_theta_min      1.61
_cell_measurement_theta_max      28.29

_exptl_crystal_description       prism
_exptl_crystal_colour            'dark brown'
_exptl_crystal_size_max          0.60
_exptl_crystal_size_mid          0.45
_exptl_crystal_size_min          0.23
_exptl_crystal_density_meas      ?
_exptl_crystal_density_diffrn    1.084
_exptl_crystal_density_method    'not measured'
_exptl_crystal_F_000             9824
_exptl_absorpt_coefficient_mu    0.567
_exptl_absorpt_correction_type   Multi-scan?
_exptl_absorpt_correction_T_min  0.7271
_exptl_absorpt_correction_T_max  0.8806
_exptl_absorpt_process_details   'Bruker SADABS'

_exptl_special_details           
;
?
;

_diffrn_ambient_temperature      173(2)
_diffrn_radiation_wavelength     0.71073
_diffrn_radiation_type           MoK\a
_diffrn_radiation_source         'fine-focus sealed tube'
_diffrn_radiation_monochromator  graphite
_diffrn_measurement_device_type  'CCD area detector'
_diffrn_measurement_method       'phi and omega scans'
_diffrn_detector_area_resol_mean ?
_diffrn_standards_number         ?
_diffrn_standards_interval_count ?
_diffrn_standards_interval_time  ?
_diffrn_standards_decay_%        <2.0
_diffrn_reflns_number            90159
_diffrn_reflns_av_R_equivalents  0.0468
_diffrn_reflns_av_sigmaI/netI    0.0535
_diffrn_reflns_limit_h_min       -53
_diffrn_reflns_limit_h_max       44
_diffrn_reflns_limit_k_min       -52
_diffrn_reflns_limit_k_max       51
_diffrn_reflns_limit_l_min       -23
_diffrn_reflns_limit_l_max       21
_diffrn_reflns_theta_min         1.61
_diffrn_reflns_theta_max         28.29
_reflns_number_total             17696
_reflns_number_gt                10127
_reflns_threshold_expression     >2sigma(I)

_computing_data_collection       'Bruker SMART'
_computing_cell_refinement       'Bruker SAINT'
_computing_data_reduction        'Bruker SAINT'
_computing_structure_solution    'Bruker SHELXTL'
_computing_structure_refinement  'Bruker SHELXTL'
_computing_molecular_graphics    ORTEP3
_computing_publication_material  WinGX

_refine_special_details          
;
Refinement of F^2^ against ALL reflections. The weighted R-factor wR and
goodness of fit S are based on F^2^, conventional R-factors R are based
on F, with F set to zero for negative F^2^. The threshold expression of
F^2^ > 2sigma(F^2^) is used only for calculating R-factors(gt) etc. and is
not relevant to the choice of reflections for refinement. R-factors based
on F^2^ are statistically about twice as large as those based on F, and R-
factors based on ALL data will be even larger.
;

_refine_ls_structure_factor_coef Fsqd
_refine_ls_matrix_type           full
_refine_ls_weighting_scheme      calc
_refine_ls_weighting_details     
'calc w=1/[\s^2^(Fo^2^)+(0.1397P)^2^+0.0000P] where P=(Fo^2^+2Fc^2^)/3'
_atom_sites_solution_primary     direct
_atom_sites_solution_secondary   difmap
_atom_sites_solution_hydrogens   geom
_refine_ls_hydrogen_treatment    mixed
_refine_ls_extinction_method     none
_refine_ls_extinction_coef       ?
_refine_ls_number_reflns         17696
_refine_ls_number_parameters     703
_refine_ls_number_restraints     2
_refine_ls_R_factor_all          0.1089
_refine_ls_R_factor_gt           0.0709
_refine_ls_wR_factor_ref         0.2255
_refine_ls_wR_factor_gt          0.2082
_refine_ls_goodness_of_fit_ref   1.013
_refine_ls_restrained_S_all      1.015
_refine_ls_shift/su_max          10.075
_refine_ls_shift/su_mean         0.081

loop_
_atom_site_label
_atom_site_type_symbol
_atom_site_fract_x
_atom_site_fract_y
_atom_site_fract_z
_atom_site_U_iso_or_equiv
_atom_site_adp_type
_atom_site_occupancy
_atom_site_symmetry_multiplicity
_atom_site_calc_flag
_atom_site_refinement_flags
_atom_site_disorder_assembly
_atom_site_disorder_group
Mn1A Mn 0.795732(13) 0.325349(12) 0.08284(3) 0.03975(15) Uani 1 1 d . . .
O1A O 0.77014(7) 0.34713(6) 0.01096(16) 0.0542(7) Uani 1 1 d . . .
O2A O 0.77447(7) 0.24769(6) -0.06376(14) 0.0521(6) Uani 1 1 d . . .
O3A O 0.82060(6) 0.29606(5) 0.14836(13) 0.0407(5) Uani 1 1 d . . .
O4A O 0.84379(7) 0.33754(6) 0.02509(16) 0.0557(7) Uani 1 1 d . . .
N1A N 0.78902(7) 0.28382(6) 0.02932(16) 0.0384(6) Uani 1 1 d . . .
N2A N 0.80400(7) 0.25644(6) 0.06416(16) 0.0372(6) Uani 1 1 d . . .
N3A N 0.90001(11) 0.33980(11) 0.0257(3) 0.0874(14) Uani 1 1 d . . .
C1A C 0.75484(10) 0.33612(10) -0.0490(2) 0.0555(10) Uani 1 1 d . . .
C2A C 0.73579(14) 0.35855(13) -0.0909(3) 0.0790(15) Uani 1 1 d . . .
H2A H 0.7333 0.3803 -0.0723 0.095 Uiso 1 1 calc R . .
C3A C 0.72087(16) 0.35001(15) -0.1573(4) 0.101(2) Uani 1 1 d . . .
H3A H 0.7080 0.3658 -0.1836 0.122 Uiso 1 1 calc R . .
C4A C 0.72419(17) 0.31833(17) -0.1874(4) 0.105(2) Uani 1 1 d . . .
H4A H 0.7146 0.3128 -0.2350 0.126 Uiso 1 1 calc R . .
C5A C 0.74214(15) 0.29474(14) -0.1456(3) 0.0850(16) Uani 1 1 d . . .
H5A H 0.7440 0.2729 -0.1644 0.102 Uiso 1 1 calc R . .
C6A C 0.75706(11) 0.30319(11) -0.0773(2) 0.0576(10) Uani 1 1 d . . .
C7A C 0.77426(9) 0.27723(9) -0.0354(2) 0.0443(8) Uani 1 1 d . . .
C8A C 0.81975(8) 0.26528(8) 0.12573(18) 0.0365(7) Uani 1 1 d . . .
C9A C 0.83773(9) 0.23982(9) 0.1708(2) 0.0463(8) Uani 1 1 d . . .
H9A1 H 0.8513 0.2266 0.1354 0.056 Uiso 1 1 calc R . .
H9A2 H 0.8213 0.2249 0.1940 0.056 Uiso 1 1 calc R . .
C10A C 0.85989(12) 0.25270(11) 0.2334(3) 0.0716(13) Uani 1 1 d . . .
H10A H 0.8761 0.2678 0.2116 0.107 Uiso 1 1 calc R . .
H10B H 0.8713 0.2342 0.2578 0.107 Uiso 1 1 calc R . .
H10C H 0.8466 0.2643 0.2714 0.107 Uiso 1 1 calc R . .
C11A C 0.87098(13) 0.32883(13) 0.0503(3) 0.0799(15) Uani 1 1 d . . .
H11A H 0.8711 0.3131 0.0902 0.096 Uiso 1 1 calc R . .
C12A C 0.90304(14) 0.36447(15) -0.0290(4) 0.101(2) Uani 1 1 d . . .
H12A H 0.8856 0.3620 -0.0671 0.151 Uiso 1 1 calc R . .
H12B H 0.9246 0.3627 -0.0538 0.151 Uiso 1 1 calc R . .
H12C H 0.9011 0.3860 -0.0045 0.151 Uiso 1 1 calc R . .
C13A C 0.93016(15) 0.3286(2) 0.0620(5) 0.138(3) Uani 1 1 d . . .
H13A H 0.9382 0.3456 0.0969 0.207 Uiso 1 1 calc R . .
H13B H 0.9469 0.3243 0.0230 0.207 Uiso 1 1 calc R . .
H13C H 0.9258 0.3083 0.0905 0.207 Uiso 1 1 calc R . .
Mn2B Mn 0.786836(13) 0.210478(12) 0.00360(3) 0.03982(15) Uani 1 1 d . . .
O1B O 0.82812(7) 0.20146(6) -0.03770(15) 0.0544(7) Uani 1 1 d . . .
O2B O 0.81642(6) 0.13420(6) 0.14585(13) 0.0418(5) Uani 1 1 d . . .
O3B O 0.74477(6) 0.21297(6) 0.05525(13) 0.0424(5) Uani 1 1 d . . .
N1B N 0.79196(7) 0.17442(6) 0.07597(15) 0.0374(6) Uani 1 1 d . . .
N2B N 0.76351(7) 0.16828(7) 0.12072(16) 0.0412(7) Uani 1 1 d . . .
N3B N 0.76073(10) 0.17792(9) -0.08360(18) 0.0624(9) Uani 1 1 d . . .
C1B C 0.85019(10) 0.17855(9) -0.0189(2) 0.0481(9) Uani 1 1 d . . .
C2B C 0.87883(12) 0.17654(11) -0.0639(3) 0.0669(12) Uani 1 1 d . . .
H2B H 0.8817 0.1916 -0.1048 0.080 Uiso 1 1 calc R . .
C3B C 0.90227(12) 0.15382(12) -0.0505(3) 0.0743(14) Uani 1 1 d . . .
H3B H 0.9211 0.1529 -0.0825 0.089 Uiso 1 1 calc R . .
C4B C 0.89929(11) 0.13137(11) 0.0104(3) 0.0667(12) Uani 1 1 d . . .
H4B H 0.9159 0.1155 0.0201 0.080 Uiso 1 1 calc R . .
C5B C 0.87143(9) 0.13318(9) 0.0555(2) 0.0505(9) Uani 1 1 d . . .
H5B H 0.8691 0.1183 0.0969 0.061 Uiso 1 1 calc R . .
C6B C 0.84675(9) 0.15624(8) 0.0418(2) 0.0420(8) Uani 1 1 d . . .
C7B C 0.81691(8) 0.15483(8) 0.09086(19) 0.0376(7) Uani 1 1 d . . .
C8B C 0.74054(9) 0.18933(8) 0.1047(2) 0.0432(8) Uani 1 1 d . . .
C9B C 0.70752(9) 0.18619(10) 0.1420(3) 0.0545(10) Uani 1 1 d . . .
H9B1 H 0.7055 0.2032 0.1820 0.065 Uiso 1 1 calc R . .
H9B2 H 0.7061 0.1644 0.1671 0.065 Uiso 1 1 calc R . .
C10B C 0.67894(14) 0.18974(18) 0.0869(4) 0.106(2) Uani 1 1 d . . .
H10D H 0.6805 0.2110 0.0607 0.159 Uiso 1 1 calc R . .
H10E H 0.6582 0.1886 0.1151 0.159 Uiso 1 1 calc R . .
H10F H 0.6797 0.1719 0.0494 0.159 Uiso 1 1 calc R . .
C11B C 0.77077(18) 0.14862(13) -0.1017(3) 0.095(2) Uani 1 1 d . . .
H11B H 0.7908 0.1414 -0.0794 0.114 Uiso 1 1 calc R . .
C12B C 0.7551(2) 0.12676(13) -0.1502(3) 0.112(3) Uani 1 1 d . . .
H12D H 0.7647 0.1060 -0.1618 0.135 Uiso 1 1 calc R . .
C13B C 0.7270(2) 0.13533(14) -0.1795(3) 0.113(3) Uani 1 1 d . . .
C14B C 0.71184(18) 0.16659(16) -0.1559(4) 0.110(2) Uani 1 1 d . . .
H14B H 0.6903 0.1725 -0.1714 0.132 Uiso 1 1 calc R . .
C15B C 0.73079(15) 0.18697(13) -0.1096(3) 0.0860(16) Uani 1 1 d . . .
H15B H 0.7224 0.2079 -0.0958 0.103 Uiso 1 1 calc R . .
C16B C 0.7070(3) 0.11193(16) -0.2321(5) 0.177(5) Uani 1 1 d . . .
H16A H 0.7227 0.0984 -0.2615 0.212 Uiso 1 1 calc R . .
H16B H 0.6942 0.0968 -0.1994 0.212 Uiso 1 1 calc R . .
Mn3C Mn 0.778816(12) 0.135834(12) 0.21846(3) 0.03725(15) Uani 1 1 d . . .
O1C O 0.75882(6) 0.09763(6) 0.18259(14) 0.0466(6) Uani 1 1 d . . .
O2C O 0.69647(6) 0.13391(5) 0.35880(14) 0.0444(6) Uani 1 1 d . . .
O3C O 0.79385(6) 0.17609(6) 0.26597(14) 0.0442(6) Uani 1 1 d . . .
N1C N 0.74310(7) 0.14286(6) 0.29035(16) 0.0384(6) Uani 1 1 d . . .
N2C N 0.74514(7) 0.17293(7) 0.33149(17) 0.0426(7) Uani 1 1 d . . .
N3C N 0.80951(7) 0.10752(7) 0.30541(17) 0.0455(7) Uani 1 1 d . . .
C1C C 0.73373(9) 0.08078(8) 0.2127(2) 0.0418(8) Uani 1 1 d . . .
C2C C 0.72772(10) 0.04958(9) 0.1821(2) 0.0493(9) Uani 1 1 d . . .
H2C H 0.7412 0.0417 0.1419 0.059 Uiso 1 1 calc R . .
C3C C 0.70244(10) 0.02999(9) 0.2092(2) 0.0537(10) Uani 1 1 d . . .
H3C H 0.6988 0.0089 0.1874 0.064 Uiso 1 1 calc R . .
C4C C 0.68272(10) 0.04072(9) 0.2671(2) 0.0495(9) Uani 1 1 d . . .
H4C H 0.6655 0.0271 0.2856 0.059 Uiso 1 1 calc R . .
C5C C 0.68788(9) 0.07138(8) 0.2986(2) 0.0419(8) Uani 1 1 d . . .
H5C H 0.6740 0.0787 0.3387 0.050 Uiso 1 1 calc R . .
C6C C 0.71343(8) 0.09200(8) 0.27238(19) 0.0392(7) Uani 1 1 d . . .
C7C C 0.71751(8) 0.12433(8) 0.30872(19) 0.0375(7) Uani 1 1 d . . .
C8C C 0.77260(9) 0.18799(9) 0.3142(2) 0.0499(9) Uani 1 1 d . . .
C9C C 0.78063(15) 0.21964(13) 0.3505(4) 0.107(3) Uani 1 1 d . . .
H9C1 H 0.7608 0.2294 0.3743 0.128 Uiso 1 1 calc R . .
H9C2 H 0.7894 0.2353 0.3125 0.128 Uiso 1 1 calc R . .
C10C C 0.8094(2) 0.2110(2) 0.4173(6) 0.178(5) Uani 1 1 d . . .
H10G H 0.7989 0.2003 0.4610 0.268 Uiso 1 1 calc R . .
H10H H 0.8200 0.2314 0.4338 0.268 Uiso 1 1 calc R . .
H10I H 0.8260 0.1962 0.3956 0.268 Uiso 1 1 calc R . .
C11C C 0.80821(11) 0.11447(11) 0.3794(2) 0.0598(11) Uani 1 1 d . . .
H11C H 0.7923 0.1299 0.3964 0.072 Uiso 1 1 calc R . .
C12C C 0.82866(13) 0.10056(13) 0.4326(3) 0.0768(15) Uani 1 1 d . . .
H12E H 0.8263 0.1061 0.4849 0.092 Uiso 1 1 calc R . .
C13C C 0.85226(12) 0.07891(14) 0.4105(3) 0.0754(14) Uani 1 1 d . . .
C14C C 0.85338(12) 0.07034(13) 0.3340(3) 0.0736(14) Uani 1 1 d . . .
H14C H 0.8686 0.0544 0.3163 0.088 Uiso 1 1 calc R . .
C15C C 0.83187(11) 0.08546(10) 0.2841(2) 0.0588(11) Uani 1 1 d . . .
H15C H 0.8331 0.0798 0.2317 0.071 Uiso 1 1 calc R . .
C16C C 0.87659(15) 0.06432(17) 0.4673(3) 0.099(2) Uani 1 1 d . . .
H16C H 0.8940 0.0525 0.4391 0.119 Uiso 1 1 calc R . .
H16D H 0.8872 0.0824 0.4961 0.119 Uiso 1 1 calc R . .
O1D O 0.6473(3) 0.6076(4) 1.0964(6) 0.324(8) Uani 1 1 d . . .
N1D N 0.6653(2) 0.59723(19) 0.9743(5) 0.141(2) Uani 1 1 d . . .
C1D C 0.6427(3) 0.6064(2) 1.0259(7) 0.157(4) Uani 1 1 d . . .
H1D H 0.6216 0.6125 1.0075 0.188 Uiso 1 1 calc R . .
C2D C 0.6958(4) 0.5893(6) 0.9930(7) 0.444(19) Uani 1 1 d . . .
H2D1 H 0.6960 0.5796 1.0440 0.666 Uiso 1 1 calc R . .
H2D2 H 0.7096 0.6090 0.9925 0.666 Uiso 1 1 calc R . .
H2D3 H 0.7044 0.5733 0.9562 0.666 Uiso 1 1 calc R . .
C3D C 0.6544(2) 0.5965(2) 0.8985(6) 0.153(3) Uani 1 1 d . . .
H3D1 H 0.6326 0.6067 0.8952 0.229 Uiso 1 1 calc R . .
H3D2 H 0.6530 0.5736 0.8811 0.229 Uiso 1 1 calc R . .
H3D3 H 0.6698 0.6087 0.8663 0.229 Uiso 1 1 calc R . .
O2D O 0.839(2) 0.244(2) 0.712(2) 1.55(10) Uani 1 1 d D . .
N2D N 0.8529(4) 0.2692(4) 0.8128(6) 0.245(6) Uani 1 1 d D . .
C4D C 0.8337(5) 0.2489(4) 0.7827(7) 0.237(7) Uani 1 1 d D . .
H4D H 0.8167 0.2382 0.8102 0.284 Uiso 1 1 calc R . .
C5D C 0.8860(11) 0.2610(17) 0.741(3) 1.06(5) Uani 1 1 d . . .
H5D1 H 0.8979 0.2410 0.7551 1.597 Uiso 1 1 calc R . .
H5D2 H 0.9012 0.2797 0.7395 1.597 Uiso 1 1 calc R . .
H5D3 H 0.8760 0.2581 0.6905 1.597 Uiso 1 1 calc R . .
C6D C 0.8557(4) 0.2793(3) 0.8818(7) 0.291(9) Uani 1 1 d . . .
H6D1 H 0.8527 0.3032 0.8835 0.437 Uiso 1 1 calc R . .
H6D2 H 0.8776 0.2737 0.9011 0.437 Uiso 1 1 calc R . .
H6D3 H 0.8389 0.2687 0.9135 0.437 Uiso 1 1 calc R . .

loop_
_atom_site_aniso_label
_atom_site_aniso_U_11
_atom_site_aniso_U_22
_atom_site_aniso_U_33
_atom_site_aniso_U_23
_atom_site_aniso_U_13
_atom_site_aniso_U_12
Mn1A 0.0397(3) 0.0275(3) 0.0521(3) 0.0012(2) 0.0081(2) -0.0002(2)
O1A 0.0587(17) 0.0338(13) 0.0702(18) 0.0085(12) -0.0008(14) 0.0038(12)
O2A 0.0723(18) 0.0443(15) 0.0396(13) 0.0033(11) -0.0048(12) -0.0004(13)
O3A 0.0426(13) 0.0286(11) 0.0509(13) -0.0041(10) 0.0036(11) -0.0024(10)
O4A 0.0488(16) 0.0445(15) 0.0739(18) -0.0015(13) 0.0168(14) -0.0018(12)
N1A 0.0420(16) 0.0305(14) 0.0425(15) 0.0067(12) 0.0020(12) -0.0025(11)
N2A 0.0402(15) 0.0274(13) 0.0440(15) 0.0024(11) 0.0037(12) 0.0030(11)
N3A 0.063(3) 0.075(3) 0.124(4) -0.011(3) 0.027(3) -0.011(2)
C1A 0.057(2) 0.044(2) 0.066(3) 0.0152(19) 0.005(2) 0.0055(18)
C2A 0.092(4) 0.063(3) 0.082(3) 0.019(3) -0.018(3) 0.016(3)
C3A 0.104(5) 0.069(4) 0.131(5) 0.036(4) -0.030(4) 0.006(3)
C4A 0.116(5) 0.107(5) 0.092(4) 0.034(4) -0.037(4) -0.009(4)
C5A 0.110(4) 0.073(3) 0.072(3) 0.016(3) -0.025(3) -0.006(3)
C6A 0.064(3) 0.059(3) 0.050(2) 0.0185(19) -0.0078(19) -0.005(2)
C7A 0.051(2) 0.0374(19) 0.0441(19) 0.0040(15) 0.0052(16) -0.0022(16)
C8A 0.0353(17) 0.0331(17) 0.0412(17) -0.0021(14) 0.0072(14) 0.0006(13)
C9A 0.047(2) 0.0392(19) 0.053(2) 0.0037(16) -0.0013(17) 0.0012(15)
C10A 0.074(3) 0.055(3) 0.086(3) 0.002(2) -0.025(3) 0.004(2)
C11A 0.068(3) 0.075(3) 0.097(4) -0.008(3) 0.025(3) -0.017(3)
C12A 0.086(4) 0.082(4) 0.134(5) 0.026(4) 0.052(4) 0.006(3)
C13A 0.059(4) 0.166(7) 0.190(8) 0.017(6) -0.014(4) -0.016(4)
Mn2B 0.0504(3) 0.0317(3) 0.0374(3) -0.0017(2) 0.0027(2) -0.0014(2)
O1B 0.0666(18) 0.0448(15) 0.0517(15) 0.0025(12) 0.0213(13) 0.0064(13)
O2B 0.0360(12) 0.0379(13) 0.0515(13) 0.0021(11) 0.0078(10) 0.0068(10)
O3B 0.0425(13) 0.0379(13) 0.0467(13) 0.0035(10) -0.0020(11) 0.0020(10)
N1B 0.0375(15) 0.0328(14) 0.0419(15) 0.0009(12) 0.0089(12) -0.0001(11)
N2B 0.0369(15) 0.0375(15) 0.0491(16) 0.0048(13) 0.0078(13) 0.0032(12)
N3B 0.091(3) 0.051(2) 0.0457(18) -0.0097(15) -0.0146(18) -0.0060(19)
C1B 0.059(2) 0.0375(19) 0.048(2) -0.0042(16) 0.0171(17) -0.0048(17)
C2B 0.075(3) 0.048(2) 0.077(3) 0.005(2) 0.036(2) -0.002(2)
C3B 0.061(3) 0.063(3) 0.099(4) 0.004(3) 0.040(3) 0.001(2)
C4B 0.049(2) 0.054(3) 0.097(3) 0.000(2) 0.023(2) 0.0069(19)
C5B 0.043(2) 0.042(2) 0.066(2) -0.0007(18) 0.0111(18) -0.0023(16)
C6B 0.0413(19) 0.0346(18) 0.050(2) -0.0062(15) 0.0071(16) -0.0038(14)
C7B 0.0402(18) 0.0302(16) 0.0425(18) -0.0027(14) 0.0045(14) -0.0031(13)
C8B 0.0415(19) 0.0364(18) 0.052(2) -0.0042(15) -0.0016(16) 0.0002(15)
C9B 0.040(2) 0.049(2) 0.074(3) 0.011(2) 0.0084