####################################################################### 
# 
# This file contains crystal structure data downloaded from the 
# Cambridge Structural Database (CSD) hosted by the Cambridge 
# Crystallographic Data Centre (CCDC).
# 
# Full information about CCDC data access policies and citation 
# guidelines are available at http://www.ccdc.cam.ac.uk/access/V1 
# 
# Audit and citation data items may have been added by the CCDC. 
# Please retain this information to preserve the provenance of 
# this file and to allow appropriate attribution of the data. 
# 
#######################################################################

data_complex16
_audit_block_doi                 10.5517/cc7zhl8
_database_code_depnum_ccdc_archive 'CCDC 237850'
loop_
_citation_id
_citation_doi
_citation_year
1 10.1021/ic0486872 2005
_audit_update_record             
;
2004-05-05 deposited with the CCDC.	2024-07-13 downloaded from the CCDC.
;


_audit_creation_method           SHELXL-97
_chemical_name_systematic        
;
?
;
_chemical_name_common            ?
_chemical_melting_point          ?
_chemical_formula_moiety         ?
_chemical_formula_sum            'C48 H56.13 Mn3 N10 O11'
_chemical_formula_weight         1113.97

loop_
_atom_type_symbol
_atom_type_description
_atom_type_scat_dispersion_real
_atom_type_scat_dispersion_imag
_atom_type_scat_source
C C 0.0033 0.0016 'International Tables Vol C Tables 4.2.6.8 and 6.1.1.4'
H H 0.0000 0.0000 'International Tables Vol C Tables 4.2.6.8 and 6.1.1.4'
N N 0.0061 0.0033 'International Tables Vol C Tables 4.2.6.8 and 6.1.1.4'
O O 0.0106 0.0060 'International Tables Vol C Tables 4.2.6.8 and 6.1.1.4'
Mn Mn 0.3368 0.7283 'International Tables Vol C Tables 4.2.6.8 and 6.1.1.4'

_symmetry_cell_setting           Tetragonal
_symmetry_space_group_name_H-M   I41/a

loop_
_symmetry_equiv_pos_as_xyz
'x, y, z'
'-x+1/2, -y, z+1/2'
'-y+3/4, x+1/4, z+1/4'
'y+3/4, -x+3/4, z+3/4'
'x+1/2, y+1/2, z+1/2'
'-x+1, -y+1/2, z+1'
'-y+5/4, x+3/4, z+3/4'
'y+5/4, -x+5/4, z+5/4'
'-x, -y, -z'
'x-1/2, y, -z-1/2'
'y-3/4, -x-1/4, -z-1/4'
'-y-3/4, x-3/4, -z-3/4'
'-x+1/2, -y+1/2, -z+1/2'
'x, y+1/2, -z'
'y-1/4, -x+1/4, -z+1/4'
'-y-1/4, x-1/4, -z-1/4'

_cell_length_a                   40.320(4)
_cell_length_b                   40.320(4)
_cell_length_c                   17.588(3)
_cell_angle_alpha                90.00
_cell_angle_beta                 90.00
_cell_angle_gamma                90.00
_cell_volume                     28593(6)
_cell_formula_units_Z            16
_cell_measurement_temperature    173(2)
_cell_measurement_reflns_used    1024
_cell_measurement_theta_min      1.01
_cell_measurement_theta_max      28.35

_exptl_crystal_description       prism
_exptl_crystal_colour            'dark brown'
_exptl_crystal_size_max          0.70
_exptl_crystal_size_mid          0.52
_exptl_crystal_size_min          0.30
_exptl_crystal_density_meas      ?
_exptl_crystal_density_diffrn    1.035
_exptl_crystal_density_method    'not measured'
_exptl_crystal_F_000             9234
_exptl_absorpt_coefficient_mu    0.571
_exptl_absorpt_correction_type   Multi-scan
_exptl_absorpt_correction_T_min  0.6907
_exptl_absorpt_correction_T_max  0.8474
_exptl_absorpt_process_details   'Bruker SADABS'

_exptl_special_details           
;
?
;

_diffrn_ambient_temperature      173(2)
_diffrn_radiation_wavelength     0.71073
_diffrn_radiation_type           MoK\a
_diffrn_radiation_source         'fine-focus sealed tube'
_diffrn_radiation_monochromator  graphite
_diffrn_measurement_device_type  'CCD area detector'
_diffrn_measurement_method       'phi and omega scans'
_diffrn_detector_area_resol_mean ?
_diffrn_standards_number         ?
_diffrn_standards_interval_count ?
_diffrn_standards_interval_time  ?
_diffrn_standards_decay_%        <2.0
_diffrn_reflns_number            87700
_diffrn_reflns_av_R_equivalents  0.1364
_diffrn_reflns_av_sigmaI/netI    0.1381
_diffrn_reflns_limit_h_min       -38
_diffrn_reflns_limit_h_max       53
_diffrn_reflns_limit_k_min       -51
_diffrn_reflns_limit_k_max       53
_diffrn_reflns_limit_l_min       -23
_diffrn_reflns_limit_l_max       22
_diffrn_reflns_theta_min         1.01
_diffrn_reflns_theta_max         28.35
_reflns_number_total             17375
_reflns_number_gt                7896
_reflns_threshold_expression     >2sigma(I)

_computing_data_collection       'Bruker SMART'
_computing_cell_refinement       'Bruker SAINT'
_computing_data_reduction        'Bruker SAINT'
_computing_structure_solution    'Bruker SHELXTL'
_computing_structure_refinement  'Bruker SHELXTL'
_computing_molecular_graphics    ORTEP3
_computing_publication_material  WinGX

_refine_special_details          
;
Refinement of F^2^ against ALL reflections. The weighted R-factor wR and
goodness of fit S are based on F^2^, conventional R-factors R are based
on F, with F set to zero for negative F^2^. The threshold expression of
F^2^ > 2sigma(F^2^) is used only for calculating R-factors(gt) etc. and is
not relevant to the choice of reflections for refinement. R-factors based
on F^2^ are statistically about twice as large as those based on F, and R-
factors based on ALL data will be even larger.
;

_refine_ls_structure_factor_coef Fsqd
_refine_ls_matrix_type           full
_refine_ls_weighting_scheme      calc
_refine_ls_weighting_details     
'calc w=1/[\s^2^(Fo^2^)+(0.1290P)^2^+0.0000P] where P=(Fo^2^+2Fc^2^)/3'
_atom_sites_solution_primary     direct
_atom_sites_solution_secondary   difmap
_atom_sites_solution_hydrogens   geom
_refine_ls_hydrogen_treatment    mixed
_refine_ls_extinction_method     none
_refine_ls_extinction_coef       ?
_refine_ls_number_reflns         17375
_refine_ls_number_parameters     664
_refine_ls_number_restraints     0
_refine_ls_R_factor_all          0.1737
_refine_ls_R_factor_gt           0.0914
_refine_ls_wR_factor_ref         0.2476
_refine_ls_wR_factor_gt          0.2194
_refine_ls_goodness_of_fit_ref   0.940
_refine_ls_restrained_S_all      0.940
_refine_ls_shift/su_max          1.628
_refine_ls_shift/su_mean         0.024

loop_
_atom_site_label
_atom_site_type_symbol
_atom_site_fract_x
_atom_site_fract_y
_atom_site_fract_z
_atom_site_U_iso_or_equiv
_atom_site_adp_type
_atom_site_occupancy
_atom_site_symmetry_multiplicity
_atom_site_calc_flag
_atom_site_refinement_flags
_atom_site_disorder_assembly
_atom_site_disorder_group
Mn1A Mn 0.778928(19) 0.135435(18) 0.21987(4) 0.0386(2) Uani 1 1 d . . .
O1A O 0.75858(9) 0.09725(8) 0.1842(2) 0.0456(9) Uani 1 1 d . . .
O2A O 0.69618(8) 0.13343(8) 0.3597(2) 0.0402(8) Uani 1 1 d . . .
O3A O 0.79378(8) 0.17585(8) 0.2660(2) 0.0434(9) Uani 1 1 d . . .
N1A N 0.74299(10) 0.14249(10) 0.2912(2) 0.0368(9) Uani 1 1 d . . .
N2A N 0.74508(10) 0.17260(9) 0.3317(2) 0.0391(10) Uani 1 1 d . . .
N3A N 0.80960(11) 0.10717(11) 0.3070(2) 0.0487(11) Uani 1 1 d . . .
C1A C 0.73354(13) 0.08010(12) 0.2134(3) 0.0415(12) Uani 1 1 d . . .
C2A C 0.72689(14) 0.04911(13) 0.1831(3) 0.0490(14) Uani 1 1 d . . .
H2A H 0.7402 0.0412 0.1424 0.059 Uiso 1 1 calc R . .
C3A C 0.70219(14) 0.02968(14) 0.2094(3) 0.0523(14) Uani 1 1 d . . .
H3A H 0.6986 0.0085 0.1873 0.063 Uiso 1 1 calc R . .
C4A C 0.68166(15) 0.04050(13) 0.2690(3) 0.0507(14) Uani 1 1 d . . .
H4A H 0.6640 0.0272 0.2876 0.061 Uiso 1 1 calc R . .
C5A C 0.68811(12) 0.07054(12) 0.2987(3) 0.0392(11) Uani 1 1 d . . .
H5A H 0.6745 0.0779 0.3394 0.047 Uiso 1 1 calc R . .
C6A C 0.71326(12) 0.09157(11) 0.2741(3) 0.0353(11) Uani 1 1 d . . .
C7A C 0.71747(12) 0.12353(12) 0.3095(3) 0.0364(11) Uani 1 1 d . . .
C8A C 0.77264(13) 0.18777(12) 0.3156(3) 0.0437(13) Uani 1 1 d . . .
C9A C 0.78082(18) 0.21930(15) 0.3533(5) 0.082(3) Uani 1 1 d . . .
H9A1 H 0.7610 0.2286 0.3787 0.099 Uiso 1 1 calc R . .
H9A2 H 0.7890 0.2356 0.3158 0.099 Uiso 1 1 calc R . .
C10A C 0.8109(3) 0.2105(3) 0.4187(7) 0.154(5) Uani 1 1 d . . .
H10A H 0.8092 0.1872 0.4342 0.231 Uiso 1 1 calc R . .
H10B H 0.8081 0.2248 0.4633 0.231 Uiso 1 1 calc R . .
H10C H 0.8328 0.2145 0.3962 0.231 Uiso 1 1 calc R . .
C11A C 0.83240(15) 0.08509(14) 0.2855(3) 0.0615(17) Uani 1 1 d . . .
H11A H 0.8338 0.0794 0.2331 0.074 Uiso 1 1 calc R . .
C12A C 0.85393(17) 0.07019(18) 0.3350(4) 0.077(2) Uani 1 1 d . . .
H12A H 0.8694 0.0541 0.3173 0.092 Uiso 1 1 calc R . .
C13A C 0.85286(16) 0.07904(18) 0.4128(4) 0.072(2) Uani 1 1 d . . .
C14A C 0.82891(18) 0.10104(17) 0.4330(4) 0.077(2) Uani 1 1 d . . .
H14A H 0.8266 0.1071 0.4849 0.093 Uiso 1 1 calc R . .
C15A C 0.80816(15) 0.11463(15) 0.3804(3) 0.0600(16) Uani 1 1 d . . .
H15A H 0.7920 0.1301 0.3970 0.072 Uiso 1 1 calc R . .
C16A C 0.87636(19) 0.0631(2) 0.4681(5) 0.107(3) Uani 1 1 d . . .
H16A H 0.8943 0.0521 0.4393 0.129 Uiso 1 1 calc R . .
H16B H 0.8866 0.0806 0.4998 0.129 Uiso 1 1 calc R . .
Mn1B Mn 0.703953(18) 0.174438(17) 0.41701(4) 0.0372(2) Uani 1 1 d . A .
O1B O 0.72940(9) 0.15237(8) 0.4888(2) 0.0534(10) Uani 1 1 d . . .
O2B O 0.72519(9) 0.25282(8) 0.56197(19) 0.0490(9) Uani 1 1 d . A .
O3B O 0.67904(8) 0.20392(7) 0.35088(18) 0.0370(8) Uani 1 1 d . A .
O4B O 0.65568(10) 0.16265(9) 0.4738(2) 0.0485(9) Uani 1 1 d . . .
N1B N 0.71138(9) 0.21612(9) 0.4687(2) 0.0342(9) Uani 1 1 d . . .
N2B N 0.69558(10) 0.24375(9) 0.4343(2) 0.0375(9) Uani 1 1 d . A .
N3B N 0.59818(18) 0.1613(2) 0.4736(5) 0.086(3) Uani 0.739(8) 1 d P A 1
N13B N 0.6188(5) 0.1530(5) 0.5652(12) 0.060(6) Uiso 0.261(8) 1 d P A 2
C1B C 0.74556(14) 0.16437(14) 0.5504(4) 0.0523(14) Uani 1 1 d . A .
C2B C 0.76523(19) 0.14126(19) 0.5905(5) 0.087(2) Uani 1 1 d . . .
H2B H 0.7688 0.1196 0.5709 0.104 Uiso 1 1 calc R . .
C3B C 0.7790(3) 0.1508(2) 0.6583(6) 0.126(4) Uani 1 1 d . . .
H3B H 0.7911 0.1349 0.6869 0.151 Uiso 1 1 calc R . .
C4B C 0.7761(2) 0.1820(2) 0.6864(5) 0.104(3) Uani 1 1 d . . .
H4B H 0.7857 0.1878 0.7338 0.125 Uiso 1 1 calc R . .
C5B C 0.7584(2) 0.20551(18) 0.6429(4) 0.092(3) Uani 1 1 d . A .
H5B H 0.7566 0.2276 0.6611 0.110 Uiso 1 1 calc R . .
C6B C 0.74358(14) 0.19726(14) 0.5751(3) 0.0519(14) Uani 1 1 d . . .
C7B C 0.72598(13) 0.22331(12) 0.5345(3) 0.0399(12) Uani 1 1 d . A .
C8B C 0.67996(11) 0.23453(11) 0.3729(3) 0.0338(11) Uani 1 1 d . . .
C9B C 0.66265(13) 0.26075(12) 0.3272(3) 0.0424(12) Uani 1 1 d . A .
H9B1 H 0.6795 0.2738 0.2992 0.051 Uiso 1 1 calc R . .
H9B2 H 0.6510 0.2760 0.3624 0.051 Uiso 1 1 calc R . .
C10B C 0.6378(2) 0.2471(2) 0.2708(6) 0.131(4) Uani 1 1 d . . .
H10D H 0.6489 0.2315 0.2366 0.197 Uiso 1 1 calc R A .
H10E H 0.6284 0.2654 0.2411 0.197 Uiso 1 1 calc R . .
H10F H 0.6200 0.2357 0.2983 0.197 Uiso 1 1 calc R . .
C11B C 0.6293(3) 0.1731(3) 0.4508(6) 0.086(3) Uani 0.739(8) 1 d P A 1
H11B H 0.6298 0.1906 0.4146 0.103 Uiso 0.739(8) 1 calc PR A 1
C21B C 0.6469(5) 0.1681(5) 0.5358(13) 0.046(6) Uiso 0.261(8) 1 d P A 2
H21B H 0.6591 0.1831 0.5665 0.056 Uiso 0.261(8) 1 calc PR A 2
C12B C 0.59659(18) 0.13464(19) 0.5277(5) 0.088(2) Uani 1 1 d . . .
C13B C 0.5694(3) 0.1747(4) 0.4369(9) 0.137(6) Uani 0.739(8) 1 d P . .
H13A H 0.5592 0.1577 0.4049 0.205 Uiso 0.739(8) 1 calc PR A 1
H13B H 0.5758 0.1937 0.4053 0.205 Uiso 0.739(8) 1 calc PR A 1
H13C H 0.5534 0.1821 0.4755 0.205 Uiso 0.739(8) 1 calc PR A 1
Mn1C Mn 0.71262(2) 0.289921(18) 0.49453(4) 0.0407(2) Uani 1 1 d . . .
O1C O 0.67091(10) 0.29884(9) 0.5337(2) 0.0539(10) Uani 1 1 d . A .
O2C O 0.68352(8) 0.36644(8) 0.35194(19) 0.0411(8) Uani 1 1 d . . .
O3C O 0.75495(8) 0.28742(8) 0.44460(19) 0.0420(8) Uani 1 1 d . A .
N1C N 0.70765(10) 0.32630(9) 0.4218(2) 0.0375(9) Uani 1 1 d . A .
N2C N 0.73637(10) 0.33193(10) 0.3785(2) 0.0382(9) Uani 1 1 d . . .
N3C N 0.73791(15) 0.32252(12) 0.5831(3) 0.0618(14) Uani 1 1 d . A .
C1C C 0.64856(14) 0.32078(13) 0.5146(3) 0.0470(13) Uani 1 1 d . . .
C2C C 0.61872(18) 0.32232(17) 0.5560(4) 0.077(2) Uani 1 1 d . A .
H2C H 0.6153 0.3067 0.5957 0.092 Uiso 1 1 calc R . .
C3C C 0.59429(17) 0.34507(17) 0.5421(5) 0.084(2) Uani 1 1 d . . .
H3C H 0.5748 0.3456 0.5726 0.100 Uiso 1 1 calc R A .
C4C C 0.59847(15) 0.36728(16) 0.4827(4) 0.071(2) Uani 1 1 d . A .
H4C H 0.5817 0.3832 0.4717 0.085 Uiso 1 1 calc R . .
C5C C 0.62753(13) 0.36621(13) 0.4390(3) 0.0484(13) Uani 1 1 d . . .
H5C H 0.6300 0.3814 0.3982 0.058 Uiso 1 1 calc R A .
C6C C 0.65237(12) 0.34395(12) 0.4532(3) 0.0405(12) Uani 1 1 d . A .
C7C C 0.68236(13) 0.34541(11) 0.4076(3) 0.0387(11) Uani 1 1 d . . .
C8C C 0.75899(13) 0.31100(13) 0.3938(3) 0.0440(12) Uani 1 1 d . A .
C9C C 0.79240(13) 0.31363(15) 0.3587(4) 0.0533(15) Uani 1 1 d . . .
H9C1 H 0.7942 0.2960 0.3197 0.064 Uiso 1 1 calc R A .
H9C2 H 0.7936 0.3352 0.3318 0.064 Uiso 1 1 calc R . .
C10C C 0.82189(18) 0.3112(2) 0.4089(6) 0.112(3) Uani 1 1 d . A .
H10G H 0.8214 0.3292 0.4462 0.168 Uiso 1 1 calc R . .
H10H H 0.8421 0.3129 0.3781 0.168 Uiso 1 1 calc R . .
H10I H 0.8216 0.2898 0.4354 0.168 Uiso 1 1 calc R . .
C11C C 0.7296(3) 0.35141(19) 0.6003(5) 0.109(3) Uani 1 1 d . . .
H11C H 0.7098 0.3592 0.5768 0.131 Uiso 1 1 calc R A .
C12C C 0.7447(3) 0.37337(19) 0.6477(5) 0.119(4) Uani 1 1 d . A .
H12E H 0.7352 0.3946 0.6570 0.143 Uiso 1 1 calc R . .
C13C C 0.7722(3) 0.36485(19) 0.6800(5) 0.111(3) Uani 1 1 d . . .
C14C C 0.7870(2) 0.3338(2) 0.6548(5) 0.111(3) Uani 1 1 d . A .
H14C H 0.8089 0.3276 0.6691 0.133 Uiso 1 1 calc R . .
C15C C 0.7675(2) 0.3137(2) 0.6087(5) 0.095(3) Uani 1 1 d . . .
H15C H 0.7758 0.2925 0.5948 0.114 Uiso 1 1 calc R A .
C16C C 0.7896(3) 0.3888(2) 0.7339(5) 0.135(4) Uani 1 1 d . A .
H16C H 0.8009 0.4061 0.7035 0.162 Uiso 1 1 calc R . .
H16D H 0.7727 0.3999 0.7658 0.162 Uiso 1 1 calc R . .
O1D O 0.8554(9) 0.3916(8) 0.5837(18) 0.659(18) Uani 1 1 d . . .
N1D N 0.8364(3) 0.4013(2) 0.4728(7) 0.150(4) Uani 1 1 d . . .
C2D C 0.8049(5) 0.4074(5) 0.4876(10) 0.315(14) Uani 1 1 d . . .
H2D1 H 0.8029 0.4285 0.5148 0.472 Uiso 1 1 calc R . .
H2D2 H 0.7959 0.3895 0.5192 0.472 Uiso 1 1 calc R . .
H2D3 H 0.7924 0.4086 0.4398 0.472 Uiso 1 1 calc R . .
C3D C 0.8470(3) 0.4033(3) 0.3940(8) 0.163(5) Uani 1 1 d . . .
H3D1 H 0.8458 0.3812 0.3708 0.244 Uiso 1 1 calc R . .
H3D2 H 0.8699 0.4114 0.3918 0.244 Uiso 1 1 calc R . .
H3D3 H 0.8325 0.4186 0.3663 0.244 Uiso 1 1 calc R . .
C1D C 0.8596(5) 0.3926(4) 0.5271(16) 0.261(15) Uani 1 1 d . . .
H1D H 0.8812 0.3871 0.5099 0.313 Uiso 1 1 calc R . .

loop_
_atom_site_aniso_label
_atom_site_aniso_U_11
_atom_site_aniso_U_22
_atom_site_aniso_U_33
_atom_site_aniso_U_23
_atom_site_aniso_U_13
_atom_site_aniso_U_12
Mn1A 0.0462(5) 0.0394(4) 0.0303(4) 0.0032(3) 0.0067(3) 0.0044(3)
O1A 0.056(2) 0.0399(19) 0.041(2) -0.0029(16) 0.0140(17) -0.0032(16)
O2A 0.0359(18) 0.0403(19) 0.044(2) -0.0003(16) 0.0099(16) -0.0038(14)
O3A 0.048(2) 0.0393(19) 0.043(2) -0.0031(16) 0.0136(17) 0.0035(16)
N1A 0.041(2) 0.041(2) 0.029(2) 0.0004(18) 0.0075(18) 0.0036(18)
N2A 0.049(2) 0.027(2) 0.042(3) -0.0065(18) 0.008(2) 0.0012(18)
N3A 0.058(3) 0.058(3) 0.029(2) 0.008(2) 0.012(2) 0.020(2)
C1A 0.051(3) 0.039(3) 0.035(3) 0.005(2) 0.003(2) 0.003(2)
C2A 0.065(4) 0.045(3) 0.037(3) -0.009(2) 0.009(3) -0.003(3)
C3A 0.067(4) 0.044(3) 0.046(4) -0.012(3) 0.014(3) -0.009(3)
C4A 0.071(4) 0.037(3) 0.044(3) 0.000(2) 0.002(3) -0.006(3)
C5A 0.045(3) 0.042(3) 0.030(3) 0.003(2) 0.001(2) 0.003(2)
C6A 0.045(3) 0.034(3) 0.027(3) 0.005(2) 0.002(2) 0.002(2)
C7A 0.040(3) 0.039(3) 0.031(3) 0.008(2) -0.002(2) 0.003(2)
C8A 0.053(3) 0.036(3) 0.043(3) -0.002(2) 0.013(3) 0.002(2)
C9A 0.088(5) 0.045(4) 0.114(7) -0.025(4) 0.052(5) -0.028(3)
C10A 0.154(10) 0.161(10) 0.147(11) -0.090(9) 0.011(8) -0.047(8)
C11A 0.083(4) 0.069(4) 0.033(3) 0.015(3) 0.014(3) 0.039(3)
C12A 0.077(4) 0.108(5) 0.045(4) 0.024(4) 0.018(3) 0.044(4)
C13A 0.070(4) 0.095(5) 0.052(4) 0.027(4) 0.005(3) 0.036(4)
C14A 0.098(5) 0.097(5) 0.037(4) 0.009(3) -0.003(3) 0.053(4)
C15A 0.074(4) 0.075(4) 0.031(3) 0.009(3) 0.009(3) 0.024(3)
C16A 0.080(5) 0.181(9) 0.061(5) 0.049(6) 0.005(4) 0.049(6)
Mn1B 0.0446(4) 0.0333(4) 0.0337(4) -0.0003(3) 0.0040(3) -0.0001(3)
O1B 0.066(3) 0.038(2) 0.056(3) 0.0060(18) 0.000(2) 0.0047(18)
O2B 0.081(3) 0.041(2) 0.0244(19) 0.0014(16) -0.0050(18) -0.0087(18)
O3B 0.0470(19) 0.0321(18) 0.0319(19) -0.0050(14) -0.0043(15) -0.0042(15)
O4B 0.050(2) 0.052(2) 0.043(2) 0.0006(18) 0.0084(19) 0.0002(19)
N1B 0.040(2) 0.032(2) 0.030(2) 0.0038(17) -0.0021(18) -0.0044(17)
N2B 0.051(2) 0.031(2) 0.031(2) 0.0020(17) -0.0029(19) 0.0019(18)
N3B 0.048(5) 0.129(8) 0.082(6) -0.008(5) 0.012(4) -0.013(5)
C1B 0.052(3) 0.052(3) 0.053(4) 0.010(3) -0.008(3) 0.004(3)
C2B 0.104(6) 0.076(5) 0.081(6) 0.014(4) -0.032(5) 0.016(4)
C3B 0.172(10) 0.079(6) 0.126(9) 0.012(6) -0.088(8) 0.023(6)
C4B 0.137(8) 0.100(6) 0.076(6) 0.005(5) -0.050(5) 0.006(6)
C5B 0.126(7) 0.074(5) 0.075(5) 0.008(4) -0.053(5) -0.018(4)
C6B 0.065(4) 0.055(3) 0.036(3) 0.008(3) -0.011(3) -0.003(3)
C7B 0.056(3) 0.040(3) 0.024(3) 0.005(2) 0.009(2) 0.003(2)
C8B 0.038(3) 0.037(3) 0.027(3) 0.002(2) 0.004(2) 0.001(2)
C9B 0.050(3) 0.041(3) 0.037(3) 0.001(2) -0.001(2) 0.003(2)
C10B 0.116(7) 0.114(7) 0.163(10) 0.030(7) -0.078(7) 0.004(6)
C11B 0.093(8) 0.096(8) 0.069(7) 0.001(6) 0.032(6) -0.012(6)
C12B 0.077(5) 0.092(5) 0.097(6) 0.028(5) 0.020(4) -0.023(4)
C13B 0.052(7) 0.216(16) 0.143(13) 0.017(12) 0.016(7) -0.039(8)
Mn1C 0.0620(5) 0.0368(4) 0.0234(4) -0.0015(3) -0.0010(4) -0.0007(4)
O1C 0.083(3) 0.046(2) 0.034(2) 0.0076(17) 0.0223(19) 0.010(2)
O2C 0.048(2) 0.045(2) 0.0294(19) 0.0055(16) 0.0078(15) 0.0088(16)
O3C 0.053(2) 0.0401(19) 0.034(2) 0.0039(16) -0.0085(16) 0.0015(16)
N1C 0.046(2) 0.038(2) 0.028(2) 0.0033(18) 0.0061(19) 0.0035(19)
N