####################################################################### 
# 
# This file contains crystal structure data downloaded from the 
# Cambridge Structural Database (CSD) hosted by the Cambridge 
# Crystallographic Data Centre (CCDC).
# 
# Full information about CCDC data access policies and citation 
# guidelines are available at http://www.ccdc.cam.ac.uk/access/V1 
# 
# Audit and citation data items may have been added by the CCDC. 
# Please retain this information to preserve the provenance of 
# this file and to allow appropriate attribution of the data. 
# 
#######################################################################

data_complex22
_audit_block_doi                 10.5517/cc7zhsg
_database_code_depnum_ccdc_archive 'CCDC 237856'
loop_
_citation_id
_citation_doi
_citation_year
1 10.1021/ic0486872 2005
_audit_update_record             
;
2004-05-05 deposited with the CCDC.	2024-07-13 downloaded from the CCDC.
;


_audit_creation_method           SHELXL-97
_chemical_name_systematic        
;
?
;
_chemical_name_common            ?
_chemical_melting_point          ?
_chemical_formula_moiety         ?
_chemical_formula_sum            'C61 H75 Mn3 N10 O12'
_chemical_formula_weight         1305.13

loop_
_atom_type_symbol
_atom_type_description
_atom_type_scat_dispersion_real
_atom_type_scat_dispersion_imag
_atom_type_scat_source
C C 0.0033 0.0016 'International Tables Vol C Tables 4.2.6.8 and 6.1.1.4'
H H 0.0000 0.0000 'International Tables Vol C Tables 4.2.6.8 and 6.1.1.4'
N N 0.0061 0.0033 'International Tables Vol C Tables 4.2.6.8 and 6.1.1.4'
O O 0.0106 0.0060 'International Tables Vol C Tables 4.2.6.8 and 6.1.1.4'
Mn Mn 0.3368 0.7283 'International Tables Vol C Tables 4.2.6.8 and 6.1.1.4'

_symmetry_cell_setting           Tetragonal
_symmetry_space_group_name_H-M   I41/a

loop_
_symmetry_equiv_pos_as_xyz
'x, y, z'
'-x+1/2, -y, z+1/2'
'-y+3/4, x+1/4, z+1/4'
'y+3/4, -x+3/4, z+3/4'
'x+1/2, y+1/2, z+1/2'
'-x+1, -y+1/2, z+1'
'-y+5/4, x+3/4, z+3/4'
'y+5/4, -x+5/4, z+5/4'
'-x, -y, -z'
'x-1/2, y, -z-1/2'
'y-3/4, -x-1/4, -z-1/4'
'-y-3/4, x-3/4, -z-3/4'
'-x+1/2, -y+1/2, -z+1/2'
'x, y+1/2, -z'
'y-1/4, -x+1/4, -z+1/4'
'-y-1/4, x-1/4, -z-1/4'

_cell_length_a                   40.906(5)
_cell_length_b                   40.906(5)
_cell_length_c                   17.295(3)
_cell_angle_alpha                90.00
_cell_angle_beta                 90.00
_cell_angle_gamma                90.00
_cell_volume                     28940(7)
_cell_formula_units_Z            16
_cell_measurement_temperature    173(2)
_cell_measurement_reflns_used    1024
_cell_measurement_theta_min      1.62
_cell_measurement_theta_max      28.35

_exptl_crystal_description       prism
_exptl_crystal_colour            'dark brown'
_exptl_crystal_size_max          0.55
_exptl_crystal_size_mid          0.54
_exptl_crystal_size_min          0.24
_exptl_crystal_density_meas      ?
_exptl_crystal_density_diffrn    1.198
_exptl_crystal_density_method    'not measured'
_exptl_crystal_F_000             10912
_exptl_absorpt_coefficient_mu    0.575
_exptl_absorpt_correction_type   Multi-scan
_exptl_absorpt_correction_T_min  0.7428
_exptl_absorpt_correction_T_max  0.8744
_exptl_absorpt_process_details   'Bruker SADABS'

_exptl_special_details           
;
?
;

_diffrn_ambient_temperature      173(2)
_diffrn_radiation_wavelength     0.71073
_diffrn_radiation_type           MoK\a
_diffrn_radiation_source         'fine-focus sealed tube'
_diffrn_radiation_monochromator  graphite
_diffrn_measurement_device_type  'CCD area detector'
_diffrn_measurement_method       'phi and omega scans'
_diffrn_detector_area_resol_mean ?
_diffrn_standards_number         ?
_diffrn_standards_interval_count ?
_diffrn_standards_interval_time  ?
_diffrn_standards_decay_%        <2.0
_diffrn_reflns_number            88521
_diffrn_reflns_av_R_equivalents  0.0675
_diffrn_reflns_av_sigmaI/netI    0.0649
_diffrn_reflns_limit_h_min       -47
_diffrn_reflns_limit_h_max       53
_diffrn_reflns_limit_k_min       -43
_diffrn_reflns_limit_k_max       53
_diffrn_reflns_limit_l_min       -19
_diffrn_reflns_limit_l_max       23
_diffrn_reflns_theta_min         1.62
_diffrn_reflns_theta_max         28.35
_reflns_number_total             17702
_reflns_number_gt                9978
_reflns_threshold_expression     >2sigma(I)

_computing_data_collection       'Bruker SMART'
_computing_cell_refinement       'Bruker SAINT'
_computing_data_reduction        'Bruker SAINT'
_computing_structure_solution    'Bruker SHELXTL'
_computing_structure_refinement  'Bruker SHELXTL'
_computing_molecular_graphics    ORTEP3
_computing_publication_material  WinGX

_refine_special_details          
;
Refinement of F^2^ against ALL reflections. The weighted R-factor wR and
goodness of fit S are based on F^2^, conventional R-factors R are based
on F, with F set to zero for negative F^2^. The threshold expression of
F^2^ > 2sigma(F^2^) is used only for calculating R-factors(gt) etc. and is
not relevant to the choice of reflections for refinement. R-factors based
on F^2^ are statistically about twice as large as those based on F, and R-
factors based on ALL data will be even larger.
;

_refine_ls_structure_factor_coef Fsqd
_refine_ls_matrix_type           full
_refine_ls_weighting_scheme      calc
_refine_ls_weighting_details     
'calc w=1/[\s^2^(Fo^2^)+(0.1555P)^2^+0.0000P] where P=(Fo^2^+2Fc^2^)/3'
_atom_sites_solution_primary     direct
_atom_sites_solution_secondary   difmap
_atom_sites_solution_hydrogens   geom
_refine_ls_hydrogen_treatment    mixed
_refine_ls_extinction_method     none
_refine_ls_extinction_coef       ?
_refine_ls_number_reflns         17702
_refine_ls_number_parameters     829
_refine_ls_number_restraints     0
_refine_ls_R_factor_all          0.1407
_refine_ls_R_factor_gt           0.0881
_refine_ls_wR_factor_ref         0.2622
_refine_ls_wR_factor_gt          0.2314
_refine_ls_goodness_of_fit_ref   1.045
_refine_ls_restrained_S_all      1.045
_refine_ls_shift/su_max          2.217
_refine_ls_shift/su_mean         0.103

loop_
_atom_site_label
_atom_site_type_symbol
_atom_site_fract_x
_atom_site_fract_y
_atom_site_fract_z
_atom_site_U_iso_or_equiv
_atom_site_adp_type
_atom_site_occupancy
_atom_site_symmetry_multiplicity
_atom_site_calc_flag
_atom_site_refinement_flags
_atom_site_disorder_assembly
_atom_site_disorder_group
Mn1A Mn 0.576457(14) 0.541150(16) 0.18184(4) 0.03645(18) Uani 1 1 d . . .
O1A O 0.59498(7) 0.51400(8) 0.2567(2) 0.0486(8) Uani 1 1 d . . .
O2A O 0.49550(7) 0.52560(8) 0.32103(17) 0.0446(7) Uani 1 1 d . . .
O3A O 0.55058(7) 0.56736(7) 0.11152(18) 0.0394(7) Uani 1 1 d . . .
O4A O 0.58784(8) 0.58633(8) 0.2499(2) 0.0523(8) Uani 1 1 d . . .
N1A N 0.53403(8) 0.53665(8) 0.2300(2) 0.0345(8) Uani 1 1 d . . .
N2A N 0.50820(8) 0.55219(8) 0.1894(2) 0.0363(8) Uani 1 1 d . . .
N3A N 0.59854(13) 0.64036(12) 0.2586(4) 0.0752(15) Uani 1 1 d . . .
C1A C 0.58182(11) 0.50088(11) 0.3195(3) 0.0450(11) Uani 1 1 d . . .
C2A C 0.60176(14) 0.48022(14) 0.3649(3) 0.0607(14) Uani 1 1 d . . .
H2A H 0.6234 0.4753 0.3485 0.073 Uiso 1 1 calc R . .
C3A C 0.59013(15) 0.46732(15) 0.4323(4) 0.0708(17) Uani 1 1 d . . .
H3A H 0.6042 0.4540 0.4626 0.085 Uiso 1 1 calc R . .
C4A C 0.55885(16) 0.47284(16) 0.4578(4) 0.0727(17) Uani 1 1 d . . .
H4A H 0.5514 0.4639 0.5053 0.087 Uiso 1 1 calc R . .
C5A C 0.53839(13) 0.49192(15) 0.4122(3) 0.0594(14) Uani 1 1 d . . .
H5A H 0.5166 0.4959 0.4291 0.071 Uiso 1 1 calc R . .
C6A C 0.54877(11) 0.50544(11) 0.3425(3) 0.0421(10) Uani 1 1 d . . .
C7A C 0.52482(10) 0.52348(10) 0.2960(3) 0.0380(10) Uani 1 1 d . . .
C8A C 0.51948(10) 0.56693(10) 0.1283(3) 0.0373(9) Uani 1 1 d . . .
C9A C 0.49659(11) 0.58442(12) 0.0750(3) 0.0491(12) Uani 1 1 d . . .
H9A1 H 0.4740 0.5822 0.0947 0.059 Uiso 1 1 calc R . .
H9A2 H 0.4975 0.5741 0.0232 0.059 Uiso 1 1 calc R . .
C10A C 0.50493(14) 0.62024(15) 0.0675(4) 0.0731(19) Uani 1 1 d . . .
H10A H 0.4911 0.6302 0.0269 0.088 Uiso 1 1 calc R . .
H10B H 0.5280 0.6225 0.0515 0.088 Uiso 1 1 calc R . .
C11A C 0.49967(18) 0.63848(16) 0.1435(6) 0.097(2) Uani 1 1 d . . .
H11A H 0.4771 0.6345 0.1619 0.116 Uiso 1 1 calc R . .
H11B H 0.5149 0.6297 0.1828 0.116 Uiso 1 1 calc R . .
C12A C 0.5050(3) 0.6750(2) 0.1358(8) 0.146(4) Uani 1 1 d . . .
H12A H 0.5277 0.6790 0.1185 0.175 Uiso 1 1 calc R . .
H12B H 0.4901 0.6836 0.0956 0.175 Uiso 1 1 calc R . .
C13A C 0.4992(4) 0.6930(3) 0.2094(9) 0.203(7) Uani 1 1 d . . .
H13A H 0.4760 0.6988 0.2133 0.305 Uiso 1 1 calc R . .
H13B H 0.5125 0.7129 0.2101 0.305 Uiso 1 1 calc R . .
H13C H 0.5053 0.6790 0.2532 0.305 Uiso 1 1 calc R . .
C14A C 0.58859(13) 0.61326(14) 0.2227(4) 0.0597(14) Uani 1 1 d . . .
H14A H 0.5814 0.6155 0.1707 0.072 Uiso 1 1 calc R . .
C15A C 0.6016(3) 0.67091(18) 0.2197(6) 0.138(4) Uani 1 1 d . . .
H15A H 0.5930 0.6689 0.1670 0.207 Uiso 1 1 calc R . .
H15B H 0.6247 0.6772 0.2174 0.207 Uiso 1 1 calc R . .
H15C H 0.5893 0.6877 0.2478 0.207 Uiso 1 1 calc R . .
C16A C 0.6101(2) 0.6401(2) 0.3341(6) 0.127(4) Uani 1 1 d . . .
H16A H 0.5952 0.6528 0.3671 0.191 Uiso 1 1 calc R . .
H16B H 0.6319 0.6499 0.3357 0.191 Uiso 1 1 calc R . .
H16C H 0.6112 0.6176 0.3529 0.191 Uiso 1 1 calc R . .
Mn2B Mn 0.460603(15) 0.538067(16) 0.24670(4) 0.03657(18) Uani 1 1 d . . .
O1B O 0.45228(8) 0.57945(8) 0.2867(2) 0.0520(8) Uani 1 1 d . . .
O2B O 0.38526(7) 0.56698(7) 0.10026(18) 0.0394(7) Uani 1 1 d . . .
O3B O 0.46339(7) 0.49633(7) 0.19429(17) 0.0397(7) Uani 1 1 d . . .
N1B N 0.42627(8) 0.54364(8) 0.1706(2) 0.0331(7) Uani 1 1 d . . .
N2B N 0.42153(8) 0.51611(8) 0.1218(2) 0.0361(8) Uani 1 1 d . . .
N3B N 0.42650(10) 0.51173(11) 0.3312(2) 0.0525(10) Uani 1 1 d . . .
C1B C 0.42844(11) 0.60023(11) 0.2697(3) 0.0458(11) Uani 1 1 d . . .
C2B C 0.42626(14) 0.62860(13) 0.3158(3) 0.0619(15) Uani 1 1 d . . .
H2B H 0.4418 0.6322 0.3558 0.074 Uiso 1 1 calc R . .
C3B C 0.40155(15) 0.65129(13) 0.3031(4) 0.0722(18) Uani 1 1 d . . .
H3B H 0.4002 0.6701 0.3351 0.087 Uiso 1 1 calc R . .
C4B C 0.37898(14) 0.64694(13) 0.2450(4) 0.0656(16) Uani 1 1 d . . .
H4B H 0.3620 0.6624 0.2370 0.079 Uiso 1 1 calc R . .
C5B C 0.38158(12) 0.62005(11) 0.1990(3) 0.0496(12) Uani 1 1 d . . .
H5B H 0.3662 0.6172 0.1585 0.059 Uiso 1 1 calc R . .
C6B C 0.40602(10) 0.59632(10) 0.2089(3) 0.0408(10) Uani 1 1 d . . .
C7B C 0.40567(9) 0.56772(10) 0.1562(3) 0.0345(9) Uani 1 1 d . . .
C8B C 0.44192(10) 0.49288(10) 0.1404(3) 0.0352(9) Uani 1 1 d . . .
C9B C 0.43910(12) 0.46015(10) 0.1020(3) 0.0474(12) Uani 1 1 d . . .
H9B1 H 0.4611 0.4528 0.0853 0.057 Uiso 1 1 calc R . .
H9B2 H 0.4252 0.4622 0.0553 0.057 Uiso 1 1 calc R . .
C10B C 0.42426(15) 0.43464(13) 0.1563(4) 0.0662(16) Uani 1 1 d . . .
H10C H 0.4265 0.4127 0.1326 0.079 Uiso 1 1 calc R . .
H10D H 0.4366 0.4346 0.2055 0.079 Uiso 1 1 calc R . .
C11B C 0.38835(16) 0.44119(16) 0.1734(4) 0.081(2) Uani 1 1 d . . .
H11C H 0.3760 0.4415 0.1242 0.097 Uiso 1 1 calc R . .
H11D H 0.3862 0.4630 0.1976 0.097 Uiso 1 1 calc R . .
C12B C 0.3731(2) 0.41545(19) 0.2273(6) 0.111(3) Uani 1 1 d . . .
H12C H 0.3753 0.3935 0.2035 0.133 Uiso 1 1 calc R . .
H12D H 0.3851 0.4153 0.2771 0.133 Uiso 1 1 calc R . .
C13B C 0.3369(2) 0.4228(3) 0.2421(7) 0.167(5) Uani 1 1 d . . .
H13D H 0.3342 0.4463 0.2521 0.251 Uiso 1 1 calc R . .
H13E H 0.3294 0.4104 0.2870 0.251 Uiso 1 1 calc R . .
H13F H 0.3241 0.4166 0.1966 0.251 Uiso 1 1 calc R . .
C14B C 0.43515(14) 0.48272(15) 0.3561(3) 0.0645(15) Uani 1 1 d . . .
H14C H 0.4568 0.4754 0.3460 0.077 Uiso 1 1 calc R . .
C15B C 0.41430(16) 0.46240(17) 0.3965(4) 0.0757(18) Uani 1 1 d . . .
H15D H 0.4216 0.4416 0.4139 0.091 Uiso 1 1 calc R . .
C16B C 0.38242(15) 0.4728(2) 0.4115(4) 0.084(2) Uani 1 1 d . . .
C17B C 0.37461(14) 0.50295(19) 0.3866(4) 0.079(2) Uani 1 1 d . . .
H17B H 0.3534 0.5113 0.3976 0.094 Uiso 1 1 calc R . .
C18B C 0.39600(12) 0.52219(17) 0.3459(3) 0.0643(15) Uani 1 1 d . . .
H18B H 0.3892 0.5431 0.3280 0.077 Uiso 1 1 calc R . .
C19B C 0.35979(17) 0.4511(3) 0.4577(5) 0.115(3) Uani 1 1 d . . .
H19A H 0.3371 0.4590 0.4512 0.138 Uiso 1 1 calc R . .
H19B H 0.3609 0.4286 0.4368 0.138 Uiso 1 1 calc R . .
Mn3C Mn 0.387100(14) 0.529869(15) 0.02725(4) 0.03419(18) Uani 1 1 d . . .
O1C O 0.35081(7) 0.50831(8) 0.06712(18) 0.0427(7) Uani 1 1 d . . .
O2C O 0.38241(7) 0.45155(7) -0.12546(17) 0.0386(7) Uani 1 1 d . . .
O3C O 0.42503(7) 0.54674(7) -0.02602(18) 0.0389(7) Uani 1 1 d . . .
N1C N 0.39378(8) 0.49495(8) -0.0483(2) 0.0335(7) Uani 1 1 d . . .
N2C N 0.42187(8) 0.49935(8) -0.0946(2) 0.0363(8) Uani 1 1 d . . .
N3C N 0.35568(9) 0.55859(9) -0.0569(2) 0.0435(9) Uani 1 1 d . . .
C1C C 0.33412(10) 0.48405(10) 0.0367(3) 0.0376(9) Uani 1 1 d . . .
C2C C 0.30363(12) 0.47708(12) 0.0711(3) 0.0505(12) Uani 1 1 d . . .
H2C H 0.2965 0.4896 0.1141 0.061 Uiso 1 1 calc R . .
C3C C 0.28402(11) 0.45235(13) 0.0431(3) 0.0530(13) Uani 1 1 d . . .
H3C H 0.2634 0.4483 0.0664 0.064 Uiso 1 1 calc R . .
C4C C 0.29410(12) 0.43334(12) -0.0185(3) 0.0518(12) Uani 1 1 d . . .
H4C H 0.2807 0.4161 -0.0369 0.062 Uiso 1 1 calc R . .
C5C C 0.32346(11) 0.43956(11) -0.0526(3) 0.0421(10) Uani 1 1 d . . .
H5C H 0.3303 0.4263 -0.0947 0.050 Uiso 1 1 calc R . .
C6C C 0.34383(10) 0.46495(10) -0.0272(2) 0.0347(9) Uani 1 1 d . . .
C7C C 0.37479(9) 0.47038(10) -0.0681(2) 0.0349(9) Uani 1 1 d . . .
C8C C 0.43603(10) 0.52686(10) -0.0778(3) 0.0396(10) Uani 1 1 d . . .
C9C C 0.46509(13) 0.53779(13) -0.1235(3) 0.0589(14) Uani 1 1 d . . .
H9C1 H 0.4741 0.5190 -0.1525 0.071 Uiso 1 1 calc R . .
H9C2 H 0.4822 0.5458 -0.0877 0.071 Uiso 1 1 calc R . .
C10C C 0.4556(2) 0.5661(2) -0.1823(6) 0.135(4) Uani 1 1 d . . .
H10E H 0.4482 0.5854 -0.1526 0.163 Uiso 1 1 calc R . .
H10F H 0.4370 0.5587 -0.2145 0.163 Uiso 1 1 calc R . .
C11C C 0.4854(3) 0.5771(4) -0.2390(11) 0.235(9) Uani 1 1 d . . .
H11E H 0.5028 0.5878 -0.2082 0.282 Uiso 1 1 calc R . .
H11F H 0.4950 0.5575 -0.2640 0.282 Uiso 1 1 calc R . .
C12C C 0.4748(7) 0.5974(7) -0.2924(14) 0.365(17) Uani 1 1 d . . .
H12E H 0.4662 0.6181 -0.2706 0.438 Uiso 1 1 calc R . .
H12F H 0.4584 0.5874 -0.3273 0.438 Uiso 1 1 calc R . .
C13C C 0.5113(6) 0.6018(6) -0.3338(11) 0.337(15) Uani 1 1 d . . .
H13G H 0.5223 0.5806 -0.3365 0.506 Uiso 1 1 calc R . .
H13H H 0.5246 0.6169 -0.3030 0.506 Uiso 1 1 calc R . .
H13I H 0.5086 0.6106 -0.3861 0.506 Uiso 1 1 calc R . .
C14C C 0.36059(13) 0.55641(13) -0.1333(3) 0.0560(13) Uani 1 1 d . . .
H14D H 0.3768 0.5416 -0.1516 0.067 Uiso 1 1 calc R . .
C15C C 0.34345(15) 0.57436(15) -0.1866(3) 0.0676(16) Uani 1 1 d . . .
H15E H 0.3479 0.5721 -0.2402 0.081 Uiso 1 1 calc R . .
C16C C 0.31939(16) 0.59593(14) -0.1609(3) 0.0662(16) Uani 1 1 d . . .
C17C C 0.31399(13) 0.59749(13) -0.0827(3) 0.0579(14) Uani 1 1 d . . .
H17C H 0.2976 0.6116 -0.0626 0.069 Uiso 1 1 calc R . .
C18C C 0.33227(12) 0.57862(12) -0.0336(3) 0.0515(12) Uani 1 1 d . . .
H18C H 0.3279 0.5800 0.0203 0.062 Uiso 1 1 calc R . .
C19C C 0.2997(2) 0.61703(19) -0.2158(4) 0.100(3) Uani 1 1 d . . .
H19C H 0.2769 0.6171 -0.1970 0.120 Uiso 1 1 calc R . .
H19D H 0.3080 0.6397 -0.2108 0.120 Uiso 1 1 calc R . .
O1M O 0.2240(2) 0.5612(3) 0.9031(7) 0.105(4) Uani 0.50 1 d P A -1
O2M O 0.2604(3) 0.5357(3) 0.9769(8) 0.087(4) Uani 0.50 1 d P A -1
C1M C 0.2655(3) 0.5287(3) 0.8411(10) 0.080(4) Uani 0.50 1 d P A -1
C2M C 0.2534(4) 0.5346(3) 0.7665(9) 0.077(4) Uani 0.50 1 d P A -1
H2M H 0.2348 0.5481 0.7583 0.093 Uiso 0.50 1 calc PR A -1
C3M C 0.2695(4) 0.5202(4) 0.7059(11) 0.103(6) Uani 0.50 1 d P A -1
H3M H 0.2617 0.5220 0.6544 0.124 Uiso 0.50 1 calc PR A -1
C4M C 0.2951(8) 0.5045(6) 0.722(2) 0.124(10) Uani 0.50 1 d P A -1
H4M H 0.3082 0.4974 0.6794 0.149 Uiso 0.50 1 calc PR A -1
C5M C 0.3057(6) 0.4966(5) 0.7952(18) 0.068(6) Uani 0.50 1 d P A -1
H5M H 0.3237 0.4822 0.8014 0.081 Uiso 0.50 1 calc PR A -1
C6M C 0.2918(4) 0.5084(3) 0.8549(10) 0.079(4) Uani 0.50 1 d P A -1
H6M H 0.2991 0.5035 0.9057 0.095 Uiso 0.50 1 calc PR A -1
C7M C 0.2478(4) 0.5431(4) 0.9083(14) 0.094(6) Uani 0.50 1 d P A -1
C8M C 0.2479(11) 0.5541(12) 1.045(3) 0.18(2) Uani 0.50 1 d P A -1
H8M1 H 0.2571 0.5762 1.0445 0.276 Uiso 0.50 1 calc PR A -1
H8M2 H 0.2544 0.5428 1.0923 0.276 Uiso 0.50 1 calc PR A -1
H8M3 H 0.2240 0.5554 1.0421 0.276 Uiso 0.50 1 calc PR A -1
O1D O 0.4989(6) 0.6503(4) 0.4904(12) 0.333(9) Uani 1 1 d . . .
N1D N 0.5117(4) 0.6145(5) 0.4281(10) 0.218(7) Uani 1 1 d . . .
C1D C 0.5268(10) 0.6464(14) 0.456(3) 0.50(3) Uani 1 1 d . . .
H1D H 0.5468 0.6579 0.4510 0.606 Uiso 1 1 calc R . .
C2D C 0.4985(6) 0.5847(5) 0.4605(10) 0.283(12) Uani 1 1 d . . .
H2D1 H 0.4762 0.5813 0.4415 0.425 Uiso 1 1 calc R . .
H2D2 H 0.4983 0.5863 0.5170 0.425 Uiso 1 1 calc R . .
H2D3 H 0.5122 0.5661 0.4449 0.425 Uiso 1 1 calc R . .
C3D C 0.5244(5) 0.6058(5) 0.3709(12) 0.254(10) Uani 1 1 d . . .
H3D1 H 0.5475 0.6120 0.3719 0.381 Uiso 1 1 calc R . .
H3D2 H 0.5137 0.6160 0.3264 0.381 Uiso 1 1 calc R . .
H3D3 H 0.5225 0.5819 0.3667 0.381 Uiso 1 1 calc R . .

loop_
_atom_site_aniso_label
_atom_site_aniso_U_11
_atom_site_aniso_U_22
_atom_site_aniso_U_33
_atom_site_aniso_U_23
_atom_site_aniso_U_13
_atom_site_aniso_U_12
Mn1A 0.0255(3) 0.0363(3) 0.0475(4) -0.0042(3) 0.0016(3) -0.0015(2)
O1A 0.0293(15) 0.0518(19) 0.065(2) 0.0018(16) -0.0011(15) 0.0011(13)
O2A 0.0346(16) 0.059(2) 0.0406(17) -0.0029(15) 0.0052(13) -0.0032(14)
O3A 0.0309(15) 0.0354(15) 0.0519(18) 0.0008(13) 0.0051(13) -0.0049(12)
O4A 0.0464(19) 0.045(2) 0.066(2) -0.0116(17) -0.0007(16) -0.0030(15)
N1A 0.0312(17) 0.0302(17) 0.042(2) -0.0017(15) -0.0009(15) 0.0012(13)
N2A 0.0273(17) 0.0364(18) 0.045(2) -0.0048(16) -0.0048(15) 0.0036(14)
N3A 0.067(3) 0.050(3) 0.108(4) -0.026(3) 0.017(3) -0.013(2)
C1A 0.038(2) 0.044(3) 0.053(3) -0.007(2) -0.009(2) -0.0027(19)
C2A 0.049(3) 0.05