####################################################################### 
# 
# This file contains crystal structure data downloaded from the 
# Cambridge Structural Database (CSD) hosted by the Cambridge 
# Crystallographic Data Centre (CCDC).
# 
# Full information about CCDC data access policies and citation 
# guidelines are available at http://www.ccdc.cam.ac.uk/access/V1 
# 
# Audit and citation data items may have been added by the CCDC. 
# Please retain this information to preserve the provenance of 
# this file and to allow appropriate attribution of the data. 
# 
#######################################################################

data_complex30
_audit_block_doi                 10.5517/cc7zhzn
_database_code_depnum_ccdc_archive 'CCDC 237862'
loop_
_citation_id
_citation_doi
_citation_year
1 10.1021/ic0486872 2005
_audit_update_record             
;
2004-05-05 deposited with the CCDC.	2024-07-13 downloaded from the CCDC.
;


_audit_creation_method           SHELXL-97
_chemical_name_systematic        
;
?
;
_chemical_name_common            ?
_chemical_melting_point          ?
_chemical_formula_moiety         ?
_chemical_formula_sum            'C54 H64 Mn3 N9 O10'
_chemical_formula_weight         1163.96

loop_
_atom_type_symbol
_atom_type_description
_atom_type_scat_dispersion_real
_atom_type_scat_dispersion_imag
_atom_type_scat_source
C C 0.0033 0.0016 'International Tables Vol C Tables 4.2.6.8 and 6.1.1.4'
H H 0.0000 0.0000 'International Tables Vol C Tables 4.2.6.8 and 6.1.1.4'
N N 0.0061 0.0033 'International Tables Vol C Tables 4.2.6.8 and 6.1.1.4'
O O 0.0106 0.0060 'International Tables Vol C Tables 4.2.6.8 and 6.1.1.4'
Mn Mn 0.3368 0.7283 'International Tables Vol C Tables 4.2.6.8 and 6.1.1.4'

_symmetry_cell_setting           Tetragonal
_symmetry_space_group_name_H-M   I41/a

loop_
_symmetry_equiv_pos_as_xyz
'x, y, z'
'-x+1/2, -y, z+1/2'
'-y+3/4, x+1/4, z+1/4'
'y+3/4, -x+3/4, z+3/4'
'x+1/2, y+1/2, z+1/2'
'-x+1, -y+1/2, z+1'
'-y+5/4, x+3/4, z+3/4'
'y+5/4, -x+5/4, z+5/4'
'-x, -y, -z'
'x-1/2, y, -z-1/2'
'y-3/4, -x-1/4, -z-1/4'
'-y-3/4, x-3/4, -z-3/4'
'-x+1/2, -y+1/2, -z+1/2'
'x, y+1/2, -z'
'y-1/4, -x+1/4, -z+1/4'
'-y-1/4, x-1/4, -z-1/4'

_cell_length_a                   40.873(2)
_cell_length_b                   40.873(2)
_cell_length_c                   17.4993(13)
_cell_angle_alpha                90.00
_cell_angle_beta                 90.00
_cell_angle_gamma                90.00
_cell_volume                     29235(3)
_cell_formula_units_Z            16
_cell_measurement_temperature    173(2)
_cell_measurement_reflns_used    1024
_cell_measurement_theta_min      1.00
_cell_measurement_theta_max      28.32

_exptl_crystal_description       prism
_exptl_crystal_colour            'dark brown'
_exptl_crystal_size_max          0.66
_exptl_crystal_size_mid          0.25
_exptl_crystal_size_min          0.20
_exptl_crystal_density_meas      ?
_exptl_crystal_density_diffrn    1.058
_exptl_crystal_density_method    'not measured'
_exptl_crystal_F_000             9696
_exptl_absorpt_coefficient_mu    0.559
_exptl_absorpt_correction_type   Multi-scan
_exptl_absorpt_correction_T_min  0.7090
_exptl_absorpt_correction_T_max  0.8963
_exptl_absorpt_process_details   'Bruker SADABS'

_exptl_special_details           
;
?
;

_diffrn_ambient_temperature      173(2)
_diffrn_radiation_wavelength     0.71073
_diffrn_radiation_type           MoK\a
_diffrn_radiation_source         'fine-focus sealed tube'
_diffrn_radiation_monochromator  graphite
_diffrn_measurement_device_type  'CCD area detector'
_diffrn_measurement_method       'phi and omega scans'
_diffrn_detector_area_resol_mean ?
_diffrn_standards_number         ?
_diffrn_standards_interval_count ?
_diffrn_standards_interval_time  ?
_diffrn_standards_decay_%        <2.0
_diffrn_reflns_number            89889
_diffrn_reflns_av_R_equivalents  0.1003
_diffrn_reflns_av_sigmaI/netI    0.1265
_diffrn_reflns_limit_h_min       -53
_diffrn_reflns_limit_h_max       50
_diffrn_reflns_limit_k_min       -54
_diffrn_reflns_limit_k_max       45
_diffrn_reflns_limit_l_min       -21
_diffrn_reflns_limit_l_max       23
_diffrn_reflns_theta_min         1.00
_diffrn_reflns_theta_max         28.32
_reflns_number_total             17802
_reflns_number_gt                7884
_reflns_threshold_expression     >2sigma(I)

_computing_data_collection       'Bruker SMART'
_computing_cell_refinement       'Bruker SAINT'
_computing_data_reduction        'Bruker SAINT'
_computing_structure_solution    'Bruker SHELXTL'
_computing_structure_refinement  'Bruker SHELXTL'
_computing_molecular_graphics    ORTEP3
_computing_publication_material  WinGX

_refine_special_details          
;
Refinement of F^2^ against ALL reflections. The weighted R-factor wR and
goodness of fit S are based on F^2^, conventional R-factors R are based
on F, with F set to zero for negative F^2^. The threshold expression of
F^2^ > 2sigma(F^2^) is used only for calculating R-factors(gt) etc. and is
not relevant to the choice of reflections for refinement. R-factors based
on F^2^ are statistically about twice as large as those based on F, and R-
factors based on ALL data will be even larger.
;

_refine_ls_structure_factor_coef Fsqd
_refine_ls_matrix_type           full
_refine_ls_weighting_scheme      calc
_refine_ls_weighting_details     
'calc w=1/[\s^2^(Fo^2^)+(0.0650P)^2^+0.0000P] where P=(Fo^2^+2Fc^2^)/3'
_atom_sites_solution_primary     direct
_atom_sites_solution_secondary   difmap
_atom_sites_solution_hydrogens   geom
_refine_ls_hydrogen_treatment    mixed
_refine_ls_extinction_method     none
_refine_ls_extinction_coef       ?
_refine_ls_number_reflns         17802
_refine_ls_number_parameters     690
_refine_ls_number_restraints     0
_refine_ls_R_factor_all          0.1402
_refine_ls_R_factor_gt           0.0605
_refine_ls_wR_factor_ref         0.1413
_refine_ls_wR_factor_gt          0.1245
_refine_ls_goodness_of_fit_ref   0.839
_refine_ls_restrained_S_all      0.839
_refine_ls_shift/su_max          2.139
_refine_ls_shift/su_mean         0.019

loop_
_atom_site_label
_atom_site_type_symbol
_atom_site_fract_x
_atom_site_fract_y
_atom_site_fract_z
_atom_site_U_iso_or_equiv
_atom_site_adp_type
_atom_site_occupancy
_atom_site_symmetry_multiplicity
_atom_site_calc_flag
_atom_site_refinement_flags
_atom_site_disorder_assembly
_atom_site_disorder_group
Mn1A Mn 1.075986(11) 0.041325(12) 0.18867(3) 0.03972(14) Uani 1 1 d . . .
O1A O 1.09292(5) 0.01468(6) 0.26578(15) 0.0511(6) Uani 1 1 d . . .
O2A O 0.99197(5) 0.02572(6) 0.31698(12) 0.0433(6) Uani 1 1 d . . .
O3A O 1.05152(5) 0.06749(5) 0.11606(13) 0.0392(5) Uani 1 1 d . . .
O4A O 1.08748(6) 0.08696(6) 0.25551(15) 0.0559(7) Uani 1 1 d . . .
N1A N 1.03246(6) 0.03722(6) 0.23232(15) 0.0353(6) Uani 1 1 d . . .
N2A N 1.00740(6) 0.05225(6) 0.18813(15) 0.0347(6) Uani 1 1 d . . .
N3A N 1.09764(9) 0.14113(8) 0.2645(2) 0.0761(11) Uani 1 1 d . . .
C1A C 1.07836(9) 0.00218(8) 0.3276(2) 0.0486(9) Uani 1 1 d . . .
C2A C 1.09760(10) -0.01762(9) 0.3765(3) 0.0669(12) Uani 1 1 d . . .
H2A H 1.1197 -0.0222 0.3636 0.080 Uiso 1 1 calc R . .
C3A C 1.08460(12) -0.03011(11) 0.4421(3) 0.0797(15) Uani 1 1 d . . .
H3A H 1.0980 -0.0431 0.4744 0.096 Uiso 1 1 calc R . .
C4A C 1.05236(12) -0.02434(11) 0.4629(3) 0.0779(14) Uani 1 1 d . . .
H4A H 1.0439 -0.0326 0.5096 0.093 Uiso 1 1 calc R . .
C5A C 1.03305(10) -0.00636(9) 0.4143(2) 0.0595(11) Uani 1 1 d . . .
H5A H 1.0108 -0.0029 0.4272 0.071 Uiso 1 1 calc R . .
C6A C 1.04501(8) 0.00684(8) 0.3470(2) 0.0445(9) Uani 1 1 d . . .
C7A C 1.02202(8) 0.02408(8) 0.29709(19) 0.0379(8) Uani 1 1 d . . .
C8A C 1.01993(8) 0.06690(8) 0.12897(19) 0.0379(8) Uani 1 1 d . . .
C9A C 0.99782(8) 0.08366(9) 0.0728(2) 0.0488(9) Uani 1 1 d . . .
H9A1 H 0.9748 0.0808 0.0893 0.059 Uiso 1 1 calc R . .
H9A2 H 1.0003 0.0732 0.0221 0.059 Uiso 1 1 calc R . .
C10A C 1.00516(9) 0.12009(10) 0.0656(3) 0.0688(13) Uani 1 1 d . . .
H10A H 1.0284 0.1229 0.0514 0.083 Uiso 1 1 calc R . .
H10B H 0.9917 0.1293 0.0239 0.083 Uiso 1 1 calc R . .
C11A C 0.99845(12) 0.13903(10) 0.1387(3) 0.0834(15) Uani 1 1 d . . .
H11A H 0.9754 0.1355 0.1536 0.100 Uiso 1 1 calc R . .
H11B H 1.0124 0.1301 0.1799 0.100 Uiso 1 1 calc R . .
C12A C 1.00465(14) 0.17548(12) 0.1320(5) 0.133(3) Uani 1 1 d . . .
H12A H 0.9904 0.1846 0.0916 0.159 Uiso 1 1 calc R . .
H12B H 1.0276 0.1791 0.1163 0.159 Uiso 1 1 calc R . .
C13A C 0.99829(19) 0.19394(14) 0.2067(5) 0.188(4) Uani 1 1 d . . .
H13A H 1.0117 0.1845 0.2475 0.283 Uiso 1 1 calc R . .
H13B H 0.9751 0.1921 0.2202 0.283 Uiso 1 1 calc R . .
H13C H 1.0040 0.2170 0.2000 0.283 Uiso 1 1 calc R . .
C14A C 1.08704(10) 0.11411(10) 0.2293(3) 0.0662(12) Uani 1 1 d . . .
H14A H 1.0784 0.1166 0.1792 0.079 Uiso 1 1 calc R . .
C15A C 1.11192(14) 0.14101(13) 0.3371(4) 0.129(3) Uani 1 1 d . . .
H15A H 1.1005 0.1567 0.3700 0.194 Uiso 1 1 calc R . .
H15B H 1.1350 0.1472 0.3329 0.194 Uiso 1 1 calc R . .
H15C H 1.1102 0.1191 0.3593 0.194 Uiso 1 1 calc R . .
C16A C 1.09768(16) 0.17228(11) 0.2254(4) 0.135(2) Uani 1 1 d . . .
H16A H 1.1184 0.1836 0.2354 0.202 Uiso 1 1 calc R . .
H16B H 1.0795 0.1857 0.2441 0.202 Uiso 1 1 calc R . .
H16C H 1.0952 0.1687 0.1704 0.202 Uiso 1 1 calc R . .
Mn1B Mn 0.958592(11) 0.038331(12) 0.23989(3) 0.03692(14) Uani 1 1 d . . .
O1B O 0.94947(5) 0.07987(5) 0.27784(14) 0.0491(6) Uani 1 1 d . . .
O2B O 0.88443(5) 0.06672(5) 0.09100(13) 0.0397(5) Uani 1 1 d . . .
O3B O 0.96239(5) -0.00316(5) 0.18821(12) 0.0380(5) Uani 1 1 d . . .
N1B N 0.92515(6) 0.04403(6) 0.16145(14) 0.0335(6) Uani 1 1 d . . .
N2B N 0.92168(6) 0.01636(6) 0.11300(15) 0.0372(6) Uani 1 1 d . . .
N3B N 0.92351(7) 0.01249(8) 0.32165(17) 0.0509(8) Uani 1 1 d . . .
C1B C 0.92603(8) 0.10103(8) 0.2592(2) 0.0452(9) Uani 1 1 d . . .
C2B C 0.92363(9) 0.12938(9) 0.3034(2) 0.0598(11) Uani 1 1 d . . .
H2B H 0.9386 0.1328 0.3441 0.072 Uiso 1 1 calc R . .
C3B C 0.89990(10) 0.15243(10) 0.2889(3) 0.0676(12) Uani 1 1 d . . .
H3B H 0.8988 0.1717 0.3191 0.081 Uiso 1 1 calc R . .
C4B C 0.87778(9) 0.14772(9) 0.2310(3) 0.0623(11) Uani 1 1 d . . .
H4B H 0.8608 0.1632 0.2224 0.075 Uiso 1 1 calc R . .
C5B C 0.88028(8) 0.12049(8) 0.1855(2) 0.0518(10) Uani 1 1 d . . .
H5B H 0.8654 0.1178 0.1444 0.062 Uiso 1 1 calc R . .
C6B C 0.90401(8) 0.09672(8) 0.1979(2) 0.0387(8) Uani 1 1 d . . .
C7B C 0.90460(7) 0.06810(7) 0.14707(19) 0.0346(8) Uani 1 1 d . . .
C8B C 0.94181(8) -0.00656(8) 0.13223(19) 0.0366(8) Uani 1 1 d . . .
C9B C 0.94088(9) -0.03912(8) 0.0924(2) 0.0524(10) Uani 1 1 d . . .
H9B1 H 0.9634 -0.0455 0.0775 0.063 Uiso 1 1 calc R . .
H9B2 H 0.9276 -0.0373 0.0453 0.063 Uiso 1 1 calc R . .
C10B C 0.92625(12) -0.06545(9) 0.1441(3) 0.0776(14) Uani 1 1 d . . .
H10C H 0.9295 -0.0871 0.1201 0.093 Uiso 1 1 calc R . .
H10D H 0.9380 -0.0654 0.1935 0.093 Uiso 1 1 calc R . .
C11B C 0.89002(12) -0.06030(11) 0.1587(3) 0.0932(17) Uani 1 1 d . . .
H11C H 0.8785 -0.0598 0.1091 0.112 Uiso 1 1 calc R . .
H11D H 0.8870 -0.0387 0.1834 0.112 Uiso 1 1 calc R . .
C12B C 0.87422(15) -0.08672(13) 0.2094(4) 0.121(2) Uani 1 1 d . . .
H12C H 0.8769 -0.1083 0.1843 0.145 Uiso 1 1 calc R . .
H12D H 0.8860 -0.0875 0.2588 0.145 Uiso 1 1 calc R . .
C13B C 0.83934(16) -0.08121(19) 0.2243(5) 0.197(4) Uani 1 1 d . . .
H13D H 0.8362 -0.0589 0.2436 0.296 Uiso 1 1 calc R . .
H13E H 0.8316 -0.0970 0.2624 0.296 Uiso 1 1 calc R . .
H13F H 0.8270 -0.0840 0.1768 0.296 Uiso 1 1 calc R . .
C14B C 0.93133(11) -0.01810(11) 0.3422(2) 0.0720(13) Uani 1 1 d . . .
H14B H 0.9521 -0.0265 0.3282 0.086 Uiso 1 1 calc R . .
C15B C 0.91012(12) -0.03783(12) 0.3832(3) 0.0850(15) Uani 1 1 d . . .
H15D H 0.9164 -0.0594 0.3968 0.102 Uiso 1 1 calc R . .
C16B C 0.87996(11) -0.02618(15) 0.4041(3) 0.0941(18) Uani 1 1 d . . .
C17B C 0.87292(10) 0.00545(14) 0.3836(3) 0.0950(18) Uani 1 1 d . . .
H17B H 0.8527 0.0149 0.3985 0.114 Uiso 1 1 calc R . .
C18B C 0.89485(9) 0.02351(11) 0.3419(2) 0.0642(12) Uani 1 1 d . . .
H18B H 0.8889 0.0451 0.3270 0.077 Uiso 1 1 calc R . .
C19B C 0.85716(12) -0.04728(18) 0.4507(4) 0.141(3) Uani 1 1 d . . .
H19A H 0.8345 -0.0390 0.4447 0.170 Uiso 1 1 calc R . .
H19B H 0.8578 -0.0699 0.4305 0.170 Uiso 1 1 calc R . .
Mn1C Mn 0.886978(12) 0.029517(11) 0.01862(3) 0.03773(14) Uani 1 1 d . . .
O1C O 0.85153(5) 0.00739(5) 0.05899(13) 0.0448(6) Uani 1 1 d . . .
O2C O 0.88213(5) -0.04792(5) -0.13472(14) 0.0428(6) Uani 1 1 d . . .
O3C O 0.92446(5) 0.04712(5) -0.03472(13) 0.0415(6) Uani 1 1 d . . .
N1C N 0.89375(6) -0.00500(6) -0.05589(16) 0.0370(6) Uani 1 1 d . . .
N2C N 0.92185(6) -0.00056(6) -0.10246(16) 0.0402(7) Uani 1 1 d . . .
N3C N 0.85450(7) 0.05770(6) -0.06531(17) 0.0439(7) Uani 1 1 d . . .
C1C C 0.83444(8) -0.01702(8) 0.0287(2) 0.0403(8) Uani 1 1 d . . .
C2C C 0.80467(9) -0.02491(9) 0.0637(2) 0.0498(9) Uani 1 1 d . . .
H2C H 0.7979 -0.0130 0.1076 0.060 Uiso 1 1 calc R . .
C3C C 0.78483(9) -0.04972(9) 0.0356(2) 0.0562(10) Uani 1 1 d . . .
H3C H 0.7647 -0.0545 0.0603 0.067 Uiso 1 1 calc R . .
C4C C 0.79402(8) -0.06751(8) -0.0276(2) 0.0471(9) Uani 1 1 d . . .
H4C H 0.7804 -0.0845 -0.0469 0.057 Uiso 1 1 calc R . .
C5C C 0.82318(8) -0.06025(8) -0.0622(2) 0.0423(8) Uani 1 1 d . . .
H5C H 0.8296 -0.0727 -0.1055 0.051 Uiso 1 1 calc R . .
C6C C 0.84395(7) -0.03521(8) -0.03633(19) 0.0372(8) Uani 1 1 d . . .
C7C C 0.87469(7) -0.02945(8) -0.0773(2) 0.0365(8) Uani 1 1 d . . .
C8C C 0.93577(8) 0.02739(8) -0.0862(2) 0.0416(8) Uani 1 1 d . . .
C9C C 0.96474(9) 0.03853(9) -0.1319(2) 0.0580(11) Uani 1 1 d . . .
H9C1 H 0.9745 0.0196 -0.1587 0.070 Uiso 1 1 calc R . .
H9C2 H 0.9815 0.0477 -0.0971 0.070 Uiso 1 1 calc R . .
C10C C 0.95446(12) 0.06528(13) -0.1922(3) 0.1076(19) Uani 1 1 d . . .
H10E H 0.9455 0.0847 -0.1655 0.129 Uiso 1 1 calc R . .
H10F H 0.9372 0.0564 -0.2261 0.129 Uiso 1 1 calc R . .
C11C C 0.98520(16) 0.0756(2) -0.2412(5) 0.176(4) Uani 1 1 d . . .
H11E H 0.9999 0.0889 -0.2087 0.211 Uiso 1 1 calc R . .
H11F H 0.9973 0.0556 -0.2560 0.211 Uiso 1 1 calc R . .
C12C C 0.9781(3) 0.0931(3) -0.3064(7) 0.275(6) Uani 1 1 d . . .
H12E H 0.9674 0.1141 -0.2926 0.330 Uiso 1 1 calc R . .
H12F H 0.9629 0.0805 -0.3391 0.330 Uiso 1 1 calc R . .
C13C C 1.0123(3) 0.1002(3) -0.3526(7) 0.322(8) Uani 1 1 d . . .
H13G H 1.0310 0.0956 -0.3190 0.483 Uiso 1 1 calc R . .
H13H H 1.0130 0.1232 -0.3685 0.483 Uiso 1 1 calc R . .
H13I H 1.0135 0.0861 -0.3978 0.483 Uiso 1 1 calc R . .
C14C C 0.83135(9) 0.07814(9) -0.0422(2) 0.0496(9) Uani 1 1 d . . .
H14C H 0.8274 0.0802 0.0111 0.059 Uiso 1 1 calc R . .
C15C C 0.81271(10) 0.09655(10) -0.0917(2) 0.0620(12) Uani 1 1 d . . .
H15E H 0.7960 0.1105 -0.0728 0.074 Uiso 1 1 calc R . .
C16C C 0.81864(12) 0.09454(11) -0.1690(2) 0.0788(14) Uani 1 1 d . . .
C17C C 0.84259(11) 0.07296(11) -0.1931(2) 0.0789(14) Uani 1 1 d . . .
H17C H 0.8470 0.0703 -0.2460 0.095 Uiso 1 1 calc R . .
C18C C 0.85988(10) 0.05552(9) -0.1401(2) 0.0578(11) Uani 1 1 d . . .
H18C H 0.8765 0.0411 -0.1575 0.069 Uiso 1 1 calc R . .
C19C C 0.79788(17) 0.11476(15) -0.2246(3) 0.139(3) Uani 1 1 d . . .
H19C H 0.7750 0.1141 -0.2060 0.166 Uiso 1 1 calc R . .
H19D H 0.8052 0.1378 -0.2205 0.166 Uiso 1 1 calc R . .

loop_
_atom_site_aniso_label
_atom_site_aniso_U_11
_atom_site_aniso_U_22
_atom_site_aniso_U_33
_atom_site_aniso_U_23
_atom_site_aniso_U_13
_atom_site_aniso_U_12
Mn1A 0.0320(3) 0.0399(3) 0.0473(3) -0.0041(2) -0.0026(2) -0.0005(2)
O1A 0.0362(13) 0.0575(15) 0.0596(17) 0.0050(13) -0.0134(12) 0.0014(12)
O2A 0.0366(13) 0.0627(15) 0.0305(13) 0.0057(11) 0.0014(10) 0.0001(11)
O3A 0.0299(12) 0.0408(13) 0.0468(15) -0.0006(11) 0.0056(10) -0.0021(10)
O4A 0.0514(15) 0.0495(16) 0.0668(19) -0.0152(14) -0.0064(13) -0.0023(13)
N1A 0.0311(14) 0.0366(15) 0.0383(17) 0.0011(13) -0.0075(13) 0.0018(12)
N2A 0.0318(14) 0.0371(15) 0.0351(17) 0.0021(13) -0.0078(12) 0.0013(12)
N3A 0.077(3) 0.051(2) 0.100(3) -0.026(2) 0.007(2) -0.0106(19)
C1A 0.048(2) 0.045(2) 0.053(3) 0.0049(18) -0.0181(19) -0.0065(18)
C2A 0.052(2) 0.058(3) 0.090(4) 0.012(2) -0.023(2) 0.000(2)
C3A 0.079(3) 0.074(3) 0.086(4) 0.038(3) -0.035(3) -0.006(3)
C4A 0.083(3) 0.086(3) 0.064(3) 0.029(3) -0.017(3) -0.004(3)
C5A 0.060(3) 0.070(3) 0.049(3) 0.013(2) -0.013(2) 0.003(2)
C6A 0.044(2) 0.046(2) 0.044(2) 0.0061(17) -0.0132(17) -0.0040(17)
C7A 0.044(2) 0.0371(19) 0.032(2) -0.0034(15) -0.0100(16) -0.0033(16)
C8A 0.042(2) 0.0409(19) 0.031(2) -0.0017(16) -0.0008(16) -0.0027(16)
C9A 0.039(2) 0.064(2) 0.043(2) 0.0072(19) -0.0022(17) 0.0007(18)
C10A 0.041(2) 0.070(3) 0.096(4) 0.041(3) 0.003(2) 0.008(2)
C11A 0.079(3) 0.051(3) 0.120(5) 0.006(3) -0.005(3) 0.004(2)
C12A 0.109(5) 0.052(3) 0.236(9) 0.011(4) -0.007(5) 0.001(3)
C13A 0.201(8) 0.063(4) 0.301(12) -0.049(6) -0.005(8) 0.014(5)
C14A 0.069(3) 0.049(3) 0.081(3) -0.011(2) 0.000(2) -0.008(2)
C15A 0.125(5) 0.105(4) 0.156(6) -0.070(4) -0.069(5) 0.017(4)
C16A 0.183(6) 0.055(3) 0.166(6) -0.021(4) 0.034(5) -0.031(4)
Mn1B 0.0342(3) 0.0435(3) 0.0330(3) -0.0003(2) -0.0001(2) -0.0008(2)
O1B 0.0497(14) 0.0495(14) 0.0481(16) -0.0152(12) -0.0080(12) 0.0045(12)
O2B 0.0415(13) 0.0354(12) 0.0421(15) -0.0012(11) -0.0056(11) 0.0026(10)
O3B 0.0375(12) 0.0397(13) 0.0368(14) 0.0026(10) -0.0042(11) 0.0021(10)
N1B 0.0374(15) 0.0312(14) 0.0320(16) -0.0012(12) 0.0014(12) -0.0023(12)
N2B 0.0355(15) 0.0359(15) 0.0402(17) -0.0049(13) -0.0059(13) 0.0034(13)
N3B 0.0441(18) 0.069(2) 0.0392(19) 0.0086(16) 0.0043(14) -0.0039(16)
C1B 0.0371(19) 0.040(2) 0.058(3) -0.0057(18) 0.0119(18) 0.0017(16)
C2B 0.051(2) 0.061(3) 0.067(3) -0.028(2) -0.006(2) 0.007(2)
C3B 0.059(3) 0.060(3) 0.083(3) -0.032(2) 0.000(2) 0.011(2)
C4B 0.048(2) 0.049(2) 0.090(3) -0.019(2) -0.009(2) 0.0048(19)
C5B 0.04