####################################################################### 
# 
# This file contains crystal structure data downloaded from the 
# Cambridge Structural Database (CSD) hosted by the Cambridge 
# Crystallographic Data Centre (CCDC).
# 
# Full information about CCDC data access policies and citation 
# guidelines are available at http://www.ccdc.cam.ac.uk/access/V1 
# 
# Audit and citation data items may have been added by the CCDC. 
# Please retain this information to preserve the provenance of 
# this file and to allow appropriate attribution of the data. 
# 
#######################################################################

data_face1
_audit_block_doi                 10.5517/cc8fwfz
_database_code_depnum_ccdc_archive 'CCDC 251671'
loop_
_citation_id
_citation_doi
_citation_year
1 10.1002/anie.200462201 2005
2 10.1039/B501928A 2005
_audit_update_record             
;
2004-09-30 deposited with the CCDC.	2024-07-13 downloaded from the CCDC.
;
_audit_creation_method           SHELXL-97
_chemical_name_systematic        
;
?
;
_chemical_name_common            ?
_chemical_melting_point          ?
_chemical_formula_moiety         ?
_chemical_formula_sum            'C79.33 H55.56 I6 N15.91 O9.68 Zn3'
_chemical_formula_weight         2344.00

loop_
_atom_type_symbol
_atom_type_description
_atom_type_scat_dispersion_real
_atom_type_scat_dispersion_imag
_atom_type_scat_source
C C 0.0033 0.0016 'International Tables Vol C Tables 4.2.6.8 and 6.1.1.4'
H H 0.0000 0.0000 'International Tables Vol C Tables 4.2.6.8 and 6.1.1.4'
N N 0.0061 0.0033 'International Tables Vol C Tables 4.2.6.8 and 6.1.1.4'
O O 0.0106 0.0060 'International Tables Vol C Tables 4.2.6.8 and 6.1.1.4'
Zn Zn 0.2839 1.4301 'International Tables Vol C Tables 4.2.6.8 and 6.1.1.4'
I I -0.4742 1.8119 'International Tables Vol C Tables 4.2.6.8 and 6.1.1.4'

_symmetry_cell_setting           orthorhombic
_symmetry_space_group_name_H-M   Pbca

loop_
_symmetry_equiv_pos_as_xyz
'x, y, z'
'-x+1/2, -y, z+1/2'
'-x, y+1/2, -z+1/2'
'x+1/2, -y+1/2, -z'
'-x, -y, -z'
'x-1/2, y, -z-1/2'
'x, -y-1/2, z-1/2'
'-x-1/2, y-1/2, z'

_cell_length_a                   27.268(3)
_cell_length_b                   13.6992(16)
_cell_length_c                   45.888(5)
_cell_angle_alpha                90.00
_cell_angle_beta                 90.00
_cell_angle_gamma                90.00
_cell_volume                     17141(3)
_cell_formula_units_Z            8
_cell_measurement_temperature    80(2)
_cell_measurement_reflns_used    9792
_cell_measurement_theta_min      2.29
_cell_measurement_theta_max      28.68

_exptl_crystal_description       block
_exptl_crystal_colour            yellow
_exptl_crystal_size_max          0.17
_exptl_crystal_size_mid          0.11
_exptl_crystal_size_min          0.06
_exptl_crystal_density_meas      ?
_exptl_crystal_density_diffrn    1.817
_exptl_crystal_density_method    'not measured'
_exptl_crystal_F_000             9027
_exptl_absorpt_coefficient_mu    3.058
_exptl_absorpt_correction_type   analytical
_exptl_absorpt_correction_T_min  0.6307
_exptl_absorpt_correction_T_max  0.8378
_exptl_absorpt_process_details   SADABS

_exptl_special_details           
;
?
;

_diffrn_ambient_temperature      80(2)
_diffrn_radiation_wavelength     0.71073
_diffrn_radiation_type           MoK\a
_diffrn_radiation_source         'fine-focus sealed tube'
_diffrn_radiation_monochromator  graphite
_diffrn_measurement_device_type  'Bruker SMART CCD area detector system'
_diffrn_measurement_method       omega_scan
_diffrn_detector_area_resol_mean ?
_diffrn_standards_number         ?
_diffrn_standards_interval_count ?
_diffrn_standards_interval_time  ?
_diffrn_standards_decay_%        ?
_diffrn_reflns_number            192701
_diffrn_reflns_av_R_equivalents  0.0668
_diffrn_reflns_av_sigmaI/netI    0.0480
_diffrn_reflns_limit_h_min       -34
_diffrn_reflns_limit_h_max       35
_diffrn_reflns_limit_k_min       -18
_diffrn_reflns_limit_k_max       18
_diffrn_reflns_limit_l_min       -60
_diffrn_reflns_limit_l_max       58
_diffrn_reflns_theta_min         1.72
_diffrn_reflns_theta_max         28.92
_reflns_number_total             21251
_reflns_number_gt                15876
_reflns_threshold_expression     >2sigma(I)

_computing_data_collection       'Bruker SMART'
_computing_cell_refinement       'Bruker SMART'
_computing_data_reduction        'Bruker SHELXTL'
_computing_structure_solution    'SHELXS-97 (Sheldrick, 1990)'
_computing_structure_refinement  'SHELXL-97 (Sheldrick, 1997)'
_computing_molecular_graphics    'Bruker XSHELL'
_computing_publication_material  'Bruker SHELXTL'

_refine_special_details          
;
Refinement of F^2^ against ALL reflections. The weighted R-factor wR and
goodness of fit S are based on F^2^, conventional R-factors R are based
on F, with F set to zero for negative F^2^. The threshold expression of
F^2^ > 2sigma(F^2^) is used only for calculating R-factors(gt) etc. and is
not relevant to the choice of reflections for refinement. R-factors based
on F^2^ are statistically about twice as large as those based on F, and R-
factors based on ALL data will be even larger.
The occupancy of the disordered triphenylene molecule
(C1G to C18G and C1H to C18H) converged to 84% and 16%,respectively.
The occupancy of the disordered nitrobenzene and methanol
(C1N to O2N, C1O to O2O, C7N to O4N, C7O to O4O,
C13N to O6N, C19N to O8N, C25N to O10N, C31N to O12N, C1M to O1M,
O2M to C1M, O3M to C3M, O4M to C4M and C5M to O5M) converged to
51%, 49%, 64%, 36%, 63%, 31%, 39%, 58%, 33%, 23%, 52%, and 27%,
respectively.
The thermal temperature factors of nitrobenzene and methanol
were isotropically refined because of severe disoder.
Several restraints and constraints were applied to severely disordered
molecules on a basis of chemical symmetry of the molecules.
Large residual electron density peaks sit around iodide atoms.
;

_refine_ls_structure_factor_coef Fsqd
_refine_ls_matrix_type           full
_refine_ls_weighting_scheme      calc
_refine_ls_weighting_details     
'calc w=1/[\s^2^(Fo^2^)+(0.0075P)^2^+335.6453P] where P=(Fo^2^+2Fc^2^)/3'
_atom_sites_solution_primary     direct
_atom_sites_solution_secondary   difmap
_atom_sites_solution_hydrogens   geom
_refine_ls_hydrogen_treatment    constr
_refine_ls_extinction_method     none
_refine_ls_extinction_coef       ?
_refine_ls_number_reflns         21251
_refine_ls_number_parameters     1025
_refine_ls_number_restraints     371
_refine_ls_R_factor_all          0.1121
_refine_ls_R_factor_gt           0.0821
_refine_ls_wR_factor_ref         0.1581
_refine_ls_wR_factor_gt          0.1478
_refine_ls_goodness_of_fit_ref   1.142
_refine_ls_restrained_S_all      1.135
_refine_ls_shift/su_max          0.002
_refine_ls_shift/su_mean         0.000

loop_
_atom_site_label
_atom_site_type_symbol
_atom_site_fract_x
_atom_site_fract_y
_atom_site_fract_z
_atom_site_U_iso_or_equiv
_atom_site_adp_type
_atom_site_occupancy
_atom_site_symmetry_multiplicity
_atom_site_calc_flag
_atom_site_refinement_flags
_atom_site_disorder_assembly
_atom_site_disorder_group
C1 C 0.0520(3) 0.0239(6) 0.52785(18) 0.0262(17) Uani 1 1 d . . .
H1 H 0.0314 0.0557 0.5416 0.031 Uiso 1 1 calc R . .
C2 C 0.0680(3) 0.0748(6) 0.50434(18) 0.0239(17) Uani 1 1 d . . .
H2 H 0.0593 0.1415 0.5021 0.029 Uiso 1 1 calc R . .
C3 C 0.0972(3) 0.0298(6) 0.48356(17) 0.0210(16) Uani 1 1 d . . .
C4 C 0.1091(3) -0.0683(6) 0.48752(18) 0.0286(19) Uani 1 1 d . . .
H4 H 0.1287 -0.1022 0.4737 0.034 Uiso 1 1 calc R . .
C5 C 0.0916(3) -0.1143(6) 0.51207(18) 0.0271(18) Uani 1 1 d . . .
H5 H 0.0995 -0.1813 0.5148 0.033 Uiso 1 1 calc R . .
C6 C 0.1139(3) 0.0824(6) 0.45695(16) 0.0196(15) Uani 1 1 d . . .
C7 C 0.1139(3) 0.2187(5) 0.42961(16) 0.0200(15) Uani 1 1 d . . .
C8 C 0.1481(3) 0.0807(6) 0.41272(16) 0.0199(15) Uani 1 1 d . . .
C9 C 0.0981(3) 0.3213(6) 0.42458(17) 0.0218(16) Uani 1 1 d . . .
C10 C 0.0886(4) 0.3819(7) 0.4477(2) 0.039(2) Uani 1 1 d . . .
H10 H 0.0939 0.3598 0.4671 0.046 Uiso 1 1 calc R . .
C11 C 0.0710(3) 0.4763(6) 0.44262(19) 0.032(2) Uani 1 1 d . . .
H11 H 0.0655 0.5184 0.4587 0.039 Uiso 1 1 calc R . .
C12 C 0.0720(4) 0.4492(6) 0.3936(2) 0.038(2) Uani 1 1 d . . .
H12 H 0.0668 0.4732 0.3744 0.046 Uiso 1 1 calc R . .
C13 C 0.0895(3) 0.3557(6) 0.39684(19) 0.031(2) Uani 1 1 d . . .
H13 H 0.0955 0.3157 0.3803 0.037 Uiso 1 1 calc R . .
C14 C 0.1708(3) 0.0265(6) 0.38839(16) 0.0205(16) Uani 1 1 d . . .
C15 C 0.1925(3) 0.0738(6) 0.36545(19) 0.0290(18) Uani 1 1 d . . .
H15 H 0.1934 0.1431 0.3648 0.035 Uiso 1 1 calc R . .
C16 C 0.2131(3) 0.0194(6) 0.34317(18) 0.0281(19) Uani 1 1 d . . .
H16 H 0.2282 0.0526 0.3274 0.034 Uiso 1 1 calc R . .
C17 C 0.1908(3) -0.1242(6) 0.36550(18) 0.0288(19) Uani 1 1 d . . .
H17 H 0.1898 -0.1936 0.3656 0.035 Uiso 1 1 calc R . .
C18 C 0.1700(3) -0.0746(6) 0.38836(17) 0.0256(18) Uani 1 1 d . . .
H18 H 0.1553 -0.1092 0.4040 0.031 Uiso 1 1 calc R . .
C19 C 0.1944(3) -0.0690(7) 0.26170(19) 0.031(2) Uani 1 1 d . . .
H19 H 0.1665 -0.0888 0.2726 0.038 Uiso 1 1 calc R . .
C20 C 0.1872(3) -0.0330(6) 0.23347(17) 0.0270(18) Uani 1 1 d . . .
H20 H 0.1552 -0.0282 0.2254 0.032 Uiso 1 1 calc R . .
C21 C 0.2279(3) -0.0047(5) 0.21780(16) 0.0205(16) Uani 1 1 d . . .
C22 C 0.2743(3) -0.0081(5) 0.23093(16) 0.0198(15) Uani 1 1 d . . .
H22 H 0.3027 0.0135 0.2208 0.024 Uiso 1 1 calc R . .
C23 C 0.2774(3) -0.0436(6) 0.25879(16) 0.0196(15) Uani 1 1 d . . .
H23 H 0.3087 -0.0450 0.2679 0.024 Uiso 1 1 calc R . .
C24 C 0.2226(3) 0.0257(6) 0.18658(15) 0.0195(15) Uani 1 1 d . . .
C25 C 0.1764(3) 0.0594(5) 0.14792(16) 0.0186(15) Uani 1 1 d . . .
C26 C 0.2584(3) 0.0613(5) 0.14388(15) 0.0175(15) Uani 1 1 d . . .
C27 C 0.1276(3) 0.0712(5) 0.13459(16) 0.0185(15) Uani 1 1 d . . .
C28 C 0.0853(3) 0.0704(7) 0.15117(19) 0.031(2) Uani 1 1 d . . .
H28 H 0.0873 0.0578 0.1715 0.038 Uiso 1 1 calc R . .
C29 C 0.0406(3) 0.0878(7) 0.13852(19) 0.032(2) Uani 1 1 d . . .
H29 H 0.0122 0.0884 0.1505 0.038 Uiso 1 1 calc R . .
C30 C 0.0759(3) 0.1013(6) 0.09314(17) 0.0226(16) Uani 1 1 d . . .
H30 H 0.0726 0.1104 0.0727 0.027 Uiso 1 1 calc R . .
C31 C 0.1221(3) 0.0856(6) 0.10483(17) 0.0219(16) Uani 1 1 d . . .
H31 H 0.1500 0.0847 0.0924 0.026 Uiso 1 1 calc R . .
C32 C 0.3035(3) 0.0764(5) 0.12635(16) 0.0194(15) Uani 1 1 d . . .
C33 C 0.3013(3) 0.1032(6) 0.09744(17) 0.0248(17) Uani 1 1 d . . .
H33 H 0.2704 0.1108 0.0882 0.030 Uiso 1 1 calc R . .
C34 C 0.3436(3) 0.1189(6) 0.08200(17) 0.0259(18) Uani 1 1 d . . .
H34 H 0.3413 0.1379 0.0621 0.031 Uiso 1 1 calc R . .
C35 C 0.3904(3) 0.0808(6) 0.12226(17) 0.0241(17) Uani 1 1 d . . .
H35 H 0.4217 0.0717 0.1310 0.029 Uiso 1 1 calc R . .
C36 C 0.3495(3) 0.0653(6) 0.13888(17) 0.0214(16) Uani 1 1 d . . .
H36 H 0.3525 0.0471 0.1588 0.026 Uiso 1 1 calc R . .
I1 I -0.01807(2) -0.04135(5) 0.597309(14) 0.03957(16) Uani 1 1 d . . .
I2 I 0.04743(2) -0.32302(5) 0.563539(16) 0.04136(16) Uani 1 1 d . . .
I3 I 0.19445(2) -0.31162(4) 0.303583(13) 0.03574(14) Uani 1 1 d . . .
I4 I 0.33753(2) -0.17277(6) 0.322241(14) 0.04434(18) Uani 1 1 d . . .
I5 I -0.07766(3) 0.22526(5) 0.13233(2) 0.0563(2) Uani 1 1 d . . .
I6 I -0.01664(3) 0.22364(5) 0.042288(17) 0.0506(2) Uani 1 1 d . . .
N1 N 0.0641(2) -0.0701(5) 0.53240(14) 0.0213(14) Uani 1 1 d . . .
N2 N 0.1025(2) 0.1783(5) 0.45522(14) 0.0228(14) Uani 1 1 d . . .
N3 N 0.1366(2) 0.1734(5) 0.40756(14) 0.0211(13) Uani 1 1 d . . .
N4 N 0.1377(2) 0.0305(5) 0.43707(13) 0.0210(13) Uani 1 1 d . . .
N5 N 0.0621(2) 0.5083(5) 0.41615(15) 0.0243(14) Uani 1 1 d . . .
N6 N 0.2125(2) -0.0791(5) 0.34303(14) 0.0230(14) Uani 1 1 d . . .
N7 N 0.2383(2) -0.0766(5) 0.27390(14) 0.0233(14) Uani 1 1 d . . .
N8 N 0.1778(2) 0.0345(5) 0.17606(13) 0.0199(13) Uani 1 1 d . . .
N9 N 0.2154(2) 0.0723(4) 0.13065(13) 0.0181(13) Uani 1 1 d . . .
N10 N 0.2646(2) 0.0388(4) 0.17184(13) 0.0167(12) Uani 1 1 d . . .
N11 N 0.0357(2) 0.1039(5) 0.10989(15) 0.0237(14) Uani 1 1 d . . .
N12 N 0.3885(2) 0.1084(5) 0.09402(13) 0.0202(13) Uani 1 1 d . . .
Zn1 Zn 0.04807(3) -0.13921(7) 0.57140(2) 0.0236(2) Uani 1 1 d . . .
Zn2 Zn 0.24641(4) -0.15819(7) 0.311076(19) 0.0247(2) Uani 1 1 d . . .
Zn3 Zn -0.03116(4) 0.14266(7) 0.09148(2) 0.0283(2) Uani 1 1 d . . .
C1G C 0.2352(4) 0.2832(8) 0.1751(2) 0.028(2) Uani 0.842(7) 1 d PD A 1
C2G C 0.2587(6) 0.2553(9) 0.2013(3) 0.052(4) Uani 0.842(7) 1 d PD A 1
H2G H 0.2934 0.2498 0.2013 0.062 Uiso 0.842(7) 1 calc PR A 1
C3G C 0.2347(8) 0.2363(11) 0.2259(3) 0.067(6) Uani 0.842(7) 1 d PD A 1
H3G H 0.2524 0.2206 0.2431 0.080 Uiso 0.842(7) 1 calc PR A 1
C4G C 0.1853(9) 0.2394(12) 0.2264(3) 0.067(6) Uani 0.842(7) 1 d PD A 1
H4G H 0.1688 0.2243 0.2441 0.080 Uiso 0.842(7) 1 calc PR A 1
C5G C 0.1575(6) 0.2645(11) 0.2017(3) 0.048(4) Uani 0.842(7) 1 d PD A 1
H5G H 0.1226 0.2666 0.2023 0.057 Uiso 0.842(7) 1 calc PR A 1
C6G C 0.1842(5) 0.287(4) 0.1755(4) 0.036(4) Uani 0.842(7) 1 d PD A 1
C7G C 0.1575(4) 0.3098(8) 0.1483(2) 0.030(2) Uani 0.842(7) 1 d PD A 1
C8G C 0.1050(5) 0.3150(8) 0.1480(3) 0.041(3) Uani 0.842(7) 1 d PD A 1
H8G H 0.0873 0.3060 0.1656 0.049 Uiso 0.842(7) 1 calc PR A 1
C9G C 0.0801(5) 0.3328(8) 0.1225(3) 0.047(3) Uani 0.842(7) 1 d PD A 1
H9G H 0.0453 0.3358 0.1226 0.056 Uiso 0.842(7) 1 calc PR A 1
C10G C 0.1057(5) 0.3465(10) 0.0967(3) 0.051(4) Uani 0.842(7) 1 d PD A 1
H10G H 0.0885 0.3583 0.0790 0.061 Uiso 0.842(7) 1 calc PR A 1
C11G C 0.1561(5) 0.3431(8) 0.0968(3) 0.039(3) Uani 0.842(7) 1 d PD A 1
H11G H 0.1735 0.3517 0.0790 0.047 Uiso 0.842(7) 1 calc PR A 1
C12G C 0.1827(4) 0.3269(6) 0.1228(2) 0.028(2) Uani 0.842(7) 1 d PD A 1
C13G C 0.2373(4) 0.3265(9) 0.1228(2) 0.030(2) Uani 0.842(7) 1 d PD A 1
C14G C 0.2638(5) 0.3480(8) 0.0976(3) 0.045(3) Uani 0.842(7) 1 d PD A 1
H14G H 0.2466 0.3612 0.0800 0.054 Uiso 0.842(7) 1 calc PR A 1
C15G C 0.3144(5) 0.3505(8) 0.0976(3) 0.051(4) Uani 0.842(7) 1 d PD A 1
H15G H 0.3319 0.3664 0.0804 0.061 Uiso 0.842(7) 1 calc PR A 1
C16G C 0.3394(5) 0.3295(9) 0.1232(3) 0.044(3) Uani 0.842(7) 1 d PD A 1
H16G H 0.3742 0.3297 0.1235 0.053 Uiso 0.842(7) 1 calc PR A 1
C17G C 0.3136(5) 0.3086(9) 0.1480(3) 0.049(3) Uani 0.842(7) 1 d PD A 1
H17G H 0.3312 0.2958 0.1655 0.059 Uiso 0.842(7) 1 calc PR A 1
C18G C 0.2621(4) 0.3054(8) 0.1487(3) 0.033(3) Uani 0.842(7) 1 d PD A 1
C1H C 0.2366(12) 0.285(5) 0.1851(9) 0.036(4) Uani 0.158(7) 1 d PD A 2
C2H C 0.241(2) 0.255(7) 0.2144(10) 0.052(4) Uani 0.158(7) 1 d PD A 2
H2H H 0.2732 0.2457 0.2220 0.062 Uiso 0.158(7) 1 calc PR A 2
C3H C 0.203(2) 0.240(10) 0.2322(12) 0.067(6) Uani 0.158(7) 1 d PD A 2
H3H H 0.2087 0.2180 0.2515 0.080 Uiso 0.158(7) 1 calc PR A 2
C4H C 0.157(2) 0.256(6) 0.2224(10) 0.067(6) Uani 0.158(7) 1 d PD A 2
H4H H 0.1307 0.2479 0.2355 0.080 Uiso 0.158(7) 1 calc PR A 2
C5H C 0.1478(15) 0.283(7) 0.1933(11) 0.048(4) Uani 0.158(7) 1 d PD A 2
H5H H 0.1153 0.2935 0.1866 0.057 Uiso 0.158(7) 1 calc PR A 2
C6H C 0.1893(12) 0.29(3) 0.174(2) 0.036(4) Uani 0.158(7) 1 d PD A 2
C7H C 0.1817(12) 0.323(4) 0.1434(7) 0.030(2) Uani 0.158(7) 1 d PD A 2
C8H C 0.1323(13) 0.335(4) 0.1330(9) 0.041(3) Uani 0.158(7) 1 d PD A 2
H8H H 0.1052 0.3305 0.1460 0.049 Uiso 0.158(7) 1 calc PR A 2
C9H C 0.1251(16) 0.353(5) 0.1038(10) 0.047(3) Uani 0.158(7) 1 d PD A 2
H9H H 0.0927 0.3543 0.0962 0.056 Uiso 0.158(7) 1 calc PR A 2
C10H C 0.1644(16) 0.369(5) 0.0853(9) 0.051(4) Uani 0.158(7) 1 d PD A 2
H10H H 0.1587 0.3888 0.0658 0.061 Uiso 0.158(7) 1 calc PR A 2
C11H C 0.2119(15) 0.356(4) 0.0951(7) 0.039(3) Uani 0.158(7) 1 d PD A 2
H11H H 0.2386 0.3623 0.0819 0.047 Uiso 0.158(7) 1 calc PR A 2
C12H C 0.2207(12) 0.334(5) 0.1249(8) 0.028(2) Uani 0.158(7) 1 d PD A 2
C13H C 0.2713(11) 0.326(4) 0.1372(7) 0.030(2) Uani 0.158(7) 1 d PD A 2
C14H C 0.3120(14) 0.347(4) 0.1199(9) 0.045(3) Uani 0.158(7) 1 d PD A 2
H14H H 0.3072 0.3692 0.1004 0.054 Uiso 0.158(7) 1 calc PR A 2
C15H C 0.3592(14) 0.337(5) 0.1303(11) 0.051(4) Uani 0.158(7) 1 d PD A 2
H15H H 0.3864 0.3498 0.1180 0.061 Uiso 0.158(7) 1 calc PR A 2
C16H C 0.3667(13) 0.307(4) 0.1590(10) 0.044(3) Uani 0.158(7) 1 d PD A 2
H16H H 0.3990 0.2976 0.1662 0.053 Uiso 0.158(7) 1 calc PR A 2
C17H C 0.3270(13) 0.292(4) 0.1765(9) 0.049(3) Uani 0.158(7) 1 d PD A 2
H17H H 0.3322 0.2731 0.1962 0.059 Uiso 0.158(7) 1 calc PR A 2
C18H C 0.2786(11) 0.304(4) 0.1666(8) 0.033(3) Uani 0.158(7) 1 d PD A 2
C1N C 0.1947(7) 0.1677(10) 0.0255(6) 0.069(9) Uiso 0.51(2) 1 d PGD B 3
C2N C 0.1439(7) 0.1673(12) 0.0229(5) 0.063(7) Uiso 0.51(2) 1 d PGD B 3
H2N H 0.1265 0.2273 0.0217 0.076 Uiso 0.51(2) 1 calc PR B 3
C3N C 0.1186(5) 0.0793(16) 0.0221(5) 0.068(8) Uiso 0.51(2) 1 d PGD B 3
H3N H 0.0838 0.0791 0.0203 0.082 Uiso 0.51(2) 1 calc PR B 3
C4N C 0.1440(7) -0.0084(12) 0.0239(4) 0.053(6) Uiso 0.51(2) 1 d PGD B 3
H4N H 0.1267 -0.0685 0.0233 0.063 Uiso 0.51(2) 1 calc PR B 3
C5N C 0.1948(7) -0.0080(10) 0.0265(5) 0.075(9) Uiso 0.51(2) 1 d PGD B 3
H5N H 0.2122 -0.0680 0.0277 0.089 Uiso 0.51(2) 1 calc PR B 3
C6N C 0.2201(5) 0.0800(13) 0.0273(6) 0.071(4) Uiso 0.51(2) 1 d PGD B 3
H6N H 0.2549 0.0802 0.0290 0.086 Uiso 0.51(2) 1 calc PR B 3
N1N N 0.2265(9) 0.2529(14) 0.0265(7) 0.087(9) Uiso 0.51(2) 1 d PD B 3
O1N O 0.2057(11) 0.3295(16) 0.0211(6) 0.118(10) Uiso 0.51(2) 1 d PD B 3
O2N O 0.2715(9) 0.2454(19) 0.0298(6) 0.098(8) Uiso 0.51(2) 1 d PD B 3
C1O C 0.2092(6) 0.1635(12) 0.0237(6) 0.044(6) Uiso 0.49(2) 1 d PD B 4
C2O C 0.1622(6) 0.2035(13) 0.0218(5) 0.042(6) Uiso 0.49(2) 1 d PD B 4
H2O H 0.1579 0.2721 0.0200 0.051 Uiso 0.49(2) 1 calc PR B 4
C3O C 0.1217(6) 0.1418(14) 0.0225(4) 0.036(5) Uiso 0.49(2) 1 d PD B 4
H3O H 0.0895 0.1680 0.0223 0.043 Uiso 0.49(2) 1 calc PR B 4
C4O C 0.1288(7) 0.0416(15) 0.0236(6) 0.053(7) Uiso 0.49(2) 1 d PD B 4
H4O H 0.1015 -0.0012 0.0222 0.063 Uiso 0.49(2) 1 calc PR B 4
C5O C 0.1751(8) 0.0039(14) 0.0267(7) 0.062(7) Uiso 0.49(2) 1 d PD B 4
H5O H 0.1793 -0.0643 0.0294 0.075 Uiso 0.49(2) 1 calc PR B 4
C6O C 0.2157(8) 0.0641(13) 0.0259(9) 0.071(4) Uiso 0.