####################################################################### 
# 
# This file contains crystal structure data downloaded from the 
# Cambridge Structural Database (CSD) hosted by the Cambridge 
# Crystallographic Data Centre (CCDC).
# 
# Full information about CCDC data access policies and citation 
# guidelines are available at http://www.ccdc.cam.ac.uk/access/V1 
# 
# Audit and citation data items may have been added by the CCDC. 
# Please retain this information to preserve the provenance of 
# this file and to allow appropriate attribution of the data. 
# 
#######################################################################

data_sad1_c
_audit_block_doi                 10.5517/cc8fwj2
_database_code_depnum_ccdc_archive 'CCDC 251674'
loop_
_citation_id
_citation_doi
_citation_year
1 10.1002/anie.200462201 2005
2 10.1039/B501928A 2005
_audit_update_record             
;
2004-09-30 deposited with the CCDC.	2024-07-13 downloaded from the CCDC.
;

_audit_creation_method           SHELXL-97
_chemical_name_systematic        
;
?
;
_chemical_name_common            ?
_chemical_melting_point          ?
_chemical_formula_moiety         ?
_chemical_formula_sum            'C77.13 H77.65 I6 N12.66 O1.32 Zn3'
_chemical_formula_weight         2160.47

loop_
_atom_type_symbol
_atom_type_description
_atom_type_scat_dispersion_real
_atom_type_scat_dispersion_imag
_atom_type_scat_source
C C 0.0033 0.0016 'International Tables Vol C Tables 4.2.6.8 and 6.1.1.4'
H H 0.0000 0.0000 'International Tables Vol C Tables 4.2.6.8 and 6.1.1.4'
N N 0.0061 0.0033 'International Tables Vol C Tables 4.2.6.8 and 6.1.1.4'
O O 0.0106 0.0060 'International Tables Vol C Tables 4.2.6.8 and 6.1.1.4'
Zn Zn 0.2839 1.4301 'International Tables Vol C Tables 4.2.6.8 and 6.1.1.4'
I I -0.4742 1.8119 'International Tables Vol C Tables 4.2.6.8 and 6.1.1.4'

_symmetry_cell_setting           orthorhombic
_symmetry_space_group_name_H-M   Pbca

loop_
_symmetry_equiv_pos_as_xyz
'x, y, z'
'-x+1/2, -y, z+1/2'
'-x, y+1/2, -z+1/2'
'x+1/2, -y+1/2, -z'
'-x, -y, -z'
'x-1/2, y, -z-1/2'
'x, -y-1/2, z-1/2'
'-x-1/2, y-1/2, z'

_cell_length_a                   27.873(2)
_cell_length_b                   13.7073(10)
_cell_length_c                   45.852(3)
_cell_angle_alpha                90.00
_cell_angle_beta                 90.00
_cell_angle_gamma                90.00
_cell_volume                     17518(2)
_cell_formula_units_Z            8
_cell_measurement_temperature    80(2)
_cell_measurement_reflns_used    9300
_cell_measurement_theta_min      2.37
_cell_measurement_theta_max      28.69

_exptl_crystal_description       block
_exptl_crystal_colour            yellow
_exptl_crystal_size_max          0.13
_exptl_crystal_size_mid          0.09
_exptl_crystal_size_min          0.08
_exptl_crystal_density_meas      ?
_exptl_crystal_density_diffrn    1.638
_exptl_crystal_density_method    'not measured'
_exptl_crystal_F_000             8380
_exptl_absorpt_coefficient_mu    2.977
_exptl_absorpt_correction_type   semi_empirical
_exptl_absorpt_correction_T_min  0.6982
_exptl_absorpt_correction_T_max  0.7967
_exptl_absorpt_process_details   SADABS

_exptl_special_details           
;
?
;

_diffrn_ambient_temperature      80(2)
_diffrn_radiation_wavelength     0.71073
_diffrn_radiation_type           MoK\a
_diffrn_radiation_source         'fine-focus sealed tube'
_diffrn_radiation_monochromator  graphite
_diffrn_measurement_device_type  'Bruker SMART CCD area detector system'
_diffrn_measurement_method       omega_scan
_diffrn_detector_area_resol_mean ?
_diffrn_standards_number         ?
_diffrn_standards_interval_count ?
_diffrn_standards_interval_time  ?
_diffrn_standards_decay_%        ?
_diffrn_reflns_number            196635
_diffrn_reflns_av_R_equivalents  0.0738
_diffrn_reflns_av_sigmaI/netI    0.0511
_diffrn_reflns_limit_h_min       -37
_diffrn_reflns_limit_h_max       36
_diffrn_reflns_limit_k_min       -18
_diffrn_reflns_limit_k_max       17
_diffrn_reflns_limit_l_min       -62
_diffrn_reflns_limit_l_max       61
_diffrn_reflns_theta_min         1.71
_diffrn_reflns_theta_max         28.84
_reflns_number_total             21619
_reflns_number_gt                15437
_reflns_threshold_expression     >2sigma(I)

_computing_data_collection       'Bruker SMART'
_computing_cell_refinement       'Bruker SMART'
_computing_data_reduction        'Bruker SHELXTL'
_computing_structure_solution    'SHELXS-97 (Sheldrick, 1990)'
_computing_structure_refinement  'SHELXL-97 (Sheldrick, 1997)'
_computing_molecular_graphics    'Bruker XSHELL'
_computing_publication_material  'Bruker SHELXTL'

_refine_special_details          
;
Refinement of F^2^ against ALL reflections. The weighted R-factor wR and
goodness of fit S are based on F^2^, conventional R-factors R are based
on F, with F set to zero for negative F^2^. The threshold expression of
F^2^ > 2sigma(F^2^) is used only for calculating R-factors(gt) etc. and is
not relevant to the choice of reflections for refinement. R-factors based
on F^2^ are statistically about twice as large as those based on F, and R-
factors based on ALL data will be even larger.
Several restraints and constraints were applied to severely
disordered molecules on a basis of chemical symmetry of the molecules.
The occupancy factors of the disordered triphenylene (C1G to C18G and
C1H to C18H), cyclohexane (C13S to C18S, C19S to C24S, and C25S to C30S),
and nitrobenzene (C25S to C30S) converged to 79%, 21%, 52%, 41%,
25% and 65%, respectively.
Large residual electron density peaks sit around iodide atoms.
;

_refine_ls_structure_factor_coef Fsqd
_refine_ls_matrix_type           full
_refine_ls_weighting_scheme      calc
_refine_ls_weighting_details     
'calc w=1/[\s^2^(Fo^2^)+(0.0319P)^2^+157.1618P] where P=(Fo^2^+2Fc^2^)/3'
_atom_sites_solution_primary     direct
_atom_sites_solution_secondary   difmap
_atom_sites_solution_hydrogens   geom
_refine_ls_hydrogen_treatment    constr
_refine_ls_extinction_method     none
_refine_ls_extinction_coef       ?
_refine_ls_number_reflns         21619
_refine_ls_number_parameters     1086
_refine_ls_number_restraints     321
_refine_ls_R_factor_all          0.1125
_refine_ls_R_factor_gt           0.0739
_refine_ls_wR_factor_ref         0.1443
_refine_ls_wR_factor_gt          0.1321
_refine_ls_goodness_of_fit_ref   1.168
_refine_ls_restrained_S_all      1.162
_refine_ls_shift/su_max          0.002
_refine_ls_shift/su_mean         0.000

loop_
_atom_site_label
_atom_site_type_symbol
_atom_site_fract_x
_atom_site_fract_y
_atom_site_fract_z
_atom_site_U_iso_or_equiv
_atom_site_adp_type
_atom_site_occupancy
_atom_site_symmetry_multiplicity
_atom_site_calc_flag
_atom_site_refinement_flags
_atom_site_disorder_assembly
_atom_site_disorder_group
C1 C 0.0574(3) 0.0094(6) 0.52966(17) 0.0366(18) Uani 1 1 d . . .
H1 H 0.0393 0.0382 0.5450 0.044 Uiso 1 1 calc R . .
C2 C 0.0695(3) 0.0660(6) 0.50582(16) 0.0378(18) Uani 1 1 d . . .
H2 H 0.0590 0.1319 0.5046 0.045 Uiso 1 1 calc R . .
C3 C 0.0967(2) 0.0258(5) 0.48391(13) 0.0220(14) Uani 1 1 d . . .
C4 C 0.1091(3) -0.0726(5) 0.48587(15) 0.0311(16) Uani 1 1 d . . .
H4 H 0.1267 -0.1032 0.4707 0.037 Uiso 1 1 calc R . .
C5 C 0.0953(3) -0.1244(5) 0.51010(14) 0.0307(16) Uani 1 1 d . . .
H5 H 0.1038 -0.1914 0.5113 0.037 Uiso 1 1 calc R . .
C6 C 0.1104(2) 0.0830(5) 0.45748(13) 0.0226(14) Uani 1 1 d . . .
C7 C 0.1095(2) 0.2235(5) 0.43190(14) 0.0216(13) Uani 1 1 d . . .
C8 C 0.1424(2) 0.0881(5) 0.41227(13) 0.0200(13) Uani 1 1 d . . .
C9 C 0.0934(2) 0.3254(5) 0.42879(14) 0.0242(14) Uani 1 1 d . . .
C10 C 0.0695(3) 0.3735(5) 0.45092(16) 0.0291(15) Uani 1 1 d . . .
H10 H 0.0649 0.3426 0.4693 0.035 Uiso 1 1 calc R . .
C11 C 0.0521(2) 0.4671(5) 0.44626(15) 0.0277(15) Uani 1 1 d . . .
H11 H 0.0360 0.4996 0.4617 0.033 Uiso 1 1 calc R . .
C12 C 0.0816(3) 0.4672(6) 0.39904(17) 0.0350(17) Uani 1 1 d . . .
H12 H 0.0864 0.5000 0.3810 0.042 Uiso 1 1 calc R . .
C13 C 0.0994(3) 0.3745(5) 0.40229(16) 0.0349(18) Uani 1 1 d . . .
H13 H 0.1158 0.3437 0.3866 0.042 Uiso 1 1 calc R . .
C14 C 0.1650(2) 0.0360(5) 0.38757(14) 0.0227(14) Uani 1 1 d . . .
C15 C 0.1835(3) 0.0860(5) 0.36361(15) 0.0315(17) Uani 1 1 d . . .
H15 H 0.1815 0.1551 0.3625 0.038 Uiso 1 1 calc R . .
C16 C 0.2048(3) 0.0333(5) 0.34166(16) 0.0353(18) Uani 1 1 d . . .
H16 H 0.2180 0.0679 0.3256 0.042 Uiso 1 1 calc R . .
C17 C 0.1888(3) -0.1116(5) 0.36419(15) 0.0327(17) Uani 1 1 d . . .
H17 H 0.1901 -0.1808 0.3642 0.039 Uiso 1 1 calc R . .
C18 C 0.1671(3) -0.0648(5) 0.38752(14) 0.0295(16) Uani 1 1 d . . .
H18 H 0.1540 -0.1013 0.4032 0.035 Uiso 1 1 calc R . .
C19 C 0.1920(3) -0.0580(5) 0.26113(15) 0.0289(16) Uani 1 1 d . . .
H19 H 0.1650 -0.0808 0.2718 0.035 Uiso 1 1 calc R . .
C20 C 0.1850(2) -0.0215(5) 0.23318(14) 0.0250(14) Uani 1 1 d . . .
H20 H 0.1537 -0.0188 0.2250 0.030 Uiso 1 1 calc R . .
C21 C 0.2238(2) 0.0108(4) 0.21741(13) 0.0199(13) Uani 1 1 d . . .
C22 C 0.2687(2) 0.0086(4) 0.23056(13) 0.0207(13) Uani 1 1 d . . .
H22 H 0.2962 0.0313 0.2204 0.025 Uiso 1 1 calc R . .
C23 C 0.2726(2) -0.0274(4) 0.25885(14) 0.0216(13) Uani 1 1 d . . .
H23 H 0.3032 -0.0272 0.2681 0.026 Uiso 1 1 calc R . .
C24 C 0.2191(2) 0.0413(4) 0.18657(13) 0.0185(13) Uani 1 1 d . . .
C25 C 0.1734(2) 0.0746(4) 0.14692(13) 0.0167(12) Uani 1 1 d . . .
C26 C 0.2542(2) 0.0774(4) 0.14344(13) 0.0171(12) Uani 1 1 d . . .
C27 C 0.1257(2) 0.0867(4) 0.13295(14) 0.0203(13) Uani 1 1 d . . .
C28 C 0.0841(3) 0.0885(7) 0.14952(16) 0.0387(19) Uani 1 1 d . . .
H28 H 0.0852 0.0792 0.1700 0.046 Uiso 1 1 calc R . .
C29 C 0.0408(3) 0.1043(7) 0.13538(17) 0.044(2) Uani 1 1 d . . .
H29 H 0.0124 0.1076 0.1468 0.053 Uiso 1 1 calc R . .
C30 C 0.0774(2) 0.1108(5) 0.09064(14) 0.0257(15) Uani 1 1 d . . .
H30 H 0.0753 0.1172 0.0701 0.031 Uiso 1 1 calc R . .
C31 C 0.1221(2) 0.0971(5) 0.10319(14) 0.0245(14) Uani 1 1 d . . .
H31 H 0.1500 0.0948 0.0913 0.029 Uiso 1 1 calc R . .
C32 C 0.2980(2) 0.0920(4) 0.12572(13) 0.0175(12) Uani 1 1 d . . .
C33 C 0.2954(2) 0.1187(4) 0.09675(13) 0.0204(13) Uani 1 1 d . . .
H33 H 0.2651 0.1252 0.0874 0.024 Uiso 1 1 calc R . .
C34 C 0.3372(2) 0.1358(5) 0.08157(13) 0.0225(14) Uani 1 1 d . . .
H34 H 0.3351 0.1566 0.0618 0.027 Uiso 1 1 calc R . .
C35 C 0.3835(2) 0.0961(5) 0.12136(14) 0.0218(13) Uani 1 1 d . . .
H35 H 0.4142 0.0871 0.1298 0.026 Uiso 1 1 calc R . .
C36 C 0.3433(2) 0.0794(4) 0.13845(13) 0.0194(13) Uani 1 1 d . . .
H36 H 0.3463 0.0599 0.1582 0.023 Uiso 1 1 calc R . .
I1 I -0.010769(18) -0.08052(5) 0.597388(11) 0.04424(15) Uani 1 1 d . . .
I2 I 0.06761(2) -0.34261(4) 0.558681(13) 0.04569(15) Uani 1 1 d . . .
I3 I 0.19728(2) -0.30086(4) 0.303622(12) 0.03994(13) Uani 1 1 d . . .
I4 I 0.33341(2) -0.15082(5) 0.323386(12) 0.04565(15) Uani 1 1 d . . .
I5 I -0.07733(2) 0.23350(4) 0.125986(16) 0.05396(17) Uani 1 1 d . . .
I6 I -0.00996(2) 0.22498(4) 0.037113(13) 0.04837(16) Uani 1 1 d . . .
N1 N 0.0703(2) -0.0849(4) 0.53212(11) 0.0245(12) Uani 1 1 d . . .
N2 N 0.0983(2) 0.1778(4) 0.45669(12) 0.0240(12) Uani 1 1 d . . .
N3 N 0.13216(19) 0.1829(4) 0.40919(11) 0.0201(11) Uani 1 1 d . . .
N4 N 0.1324(2) 0.0347(4) 0.43598(11) 0.0225(12) Uani 1 1 d . . .
N5 N 0.0574(2) 0.5134(4) 0.42048(12) 0.0245(12) Uani 1 1 d . . .
N6 N 0.2078(2) -0.0639(4) 0.34168(12) 0.0281(13) Uani 1 1 d . . .
N7 N 0.2352(2) -0.0620(4) 0.27334(11) 0.0231(12) Uani 1 1 d . . .
N8 N 0.17464(19) 0.0510(4) 0.17548(11) 0.0192(11) Uani 1 1 d . . .
N9 N 0.21191(18) 0.0881(4) 0.13008(11) 0.0162(10) Uani 1 1 d . . .
N10 N 0.25994(18) 0.0538(4) 0.17150(11) 0.0181(11) Uani 1 1 d . . .
N11 N 0.03704(19) 0.1152(4) 0.10637(12) 0.0240(12) Uani 1 1 d . . .
N12 N 0.3809(2) 0.1244(4) 0.09350(11) 0.0221(12) Uani 1 1 d . . .
Zn1 Zn 0.05765(3) -0.16187(6) 0.570167(17) 0.02631(18) Uani 1 1 d . . .
Zn2 Zn 0.24448(3) -0.14267(6) 0.310923(16) 0.02613(18) Uani 1 1 d . . .
Zn3 Zn -0.02786(3) 0.14926(6) 0.086742(19) 0.02904(18) Uani 1 1 d . . .
C1G C 0.1821(4) 0.3049(11) 0.1764(2) 0.040(3) Uani 0.792(6) 1 d PD A 1
C2G C 0.1594(6) 0.2859(9) 0.2024(3) 0.068(4) Uani 0.792(6) 1 d PD A 1
H2G H 0.1256 0.2925 0.2042 0.081 Uiso 0.792(6) 1 calc PR A 1
C3G C 0.1874(8) 0.2561(14) 0.2266(4) 0.080(6) Uani 0.792(6) 1 d PD A 1
H3G H 0.1719 0.2375 0.2442 0.096 Uiso 0.792(6) 1 calc PR A 1
C4G C 0.2385(8) 0.2536(10) 0.2251(3) 0.073(6) Uani 0.792(6) 1 d PD A 1
H4G H 0.2572 0.2386 0.2419 0.087 Uiso 0.792(6) 1 calc PR A 1
C5G C 0.2599(5) 0.2737(7) 0.1986(3) 0.056(4) Uani 0.792(6) 1 d PD A 1
H5G H 0.2938 0.2683 0.1968 0.067 Uiso 0.792(6) 1 calc PR A 1
C6G C 0.2324(4) 0.3022(7) 0.1740(2) 0.034(2) Uani 0.792(6) 1 d PD A 1
C7G C 0.2560(4) 0.3250(6) 0.1462(2) 0.037(2) Uani 0.792(6) 1 d PD A 1
C8G C 0.3074(4) 0.3277(8) 0.1441(3) 0.048(3) Uani 0.792(6) 1 d PD A 1
H8G H 0.3263 0.3136 0.1609 0.057 Uiso 0.792(6) 1 calc PR A 1
C9G C 0.3290(5) 0.3499(10) 0.1188(4) 0.063(4) Uani 0.792(6) 1 d PD A 1
H9G H 0.3631 0.3520 0.1178 0.075 Uiso 0.792(6) 1 calc PR A 1
C10G C 0.3023(5) 0.3694(7) 0.0945(3) 0.056(3) Uani 0.792(6) 1 d PD A 1
H10G H 0.3178 0.3841 0.0766 0.067 Uiso 0.792(6) 1 calc PR A 1
C11G C 0.2550(6) 0.3678(15) 0.0959(3) 0.053(4) Uani 0.792(6) 1 d PD A 1
H11G H 0.2377 0.3835 0.0786 0.064 Uiso 0.792(6) 1 calc PR A 1
C12G C 0.2275(4) 0.3441(9) 0.1216(2) 0.036(2) Uani 0.792(6) 1 d PD A 1
C13G C 0.1778(4) 0.3433(8) 0.1231(2) 0.040(3) Uani 0.792(6) 1 d PD A 1
C14G C 0.1475(6) 0.3578(13) 0.0979(3) 0.062(5) Uani 0.792(6) 1 d PD A 1
H14G H 0.1619 0.3643 0.0793 0.075 Uiso 0.792(6) 1 calc PR A 1
C15G C 0.0994(6) 0.3625(9) 0.1002(4) 0.070(4) Uani 0.792(6) 1 d PD A 1
H15G H 0.0809 0.3745 0.0832 0.084 Uiso 0.792(6) 1 calc PR A 1
C16G C 0.0768(6) 0.3507(8) 0.1261(4) 0.078(5) Uani 0.792(6) 1 d PD A 1
H16G H 0.0429 0.3552 0.1272 0.094 Uiso 0.792(6) 1 calc PR A 1
C17G C 0.1038(5) 0.3321(8) 0.1507(4) 0.067(4) Uani 0.792(6) 1 d PD A 1
H17G H 0.0877 0.3227 0.1688 0.080 Uiso 0.792(6) 1 calc PR A 1
C18G C 0.1539(4) 0.3266(7) 0.1499(3) 0.044(3) Uani 0.792(6) 1 d PD A 1
C1H C 0.1968(11) 0.311(5) 0.1714(7) 0.040(3) Uani 0.208(6) 1 d PD A 2
C2H C 0.1528(12) 0.307(3) 0.1848(9) 0.068(4) Uani 0.208(6) 1 d PD A 2
H2H H 0.1242 0.3205 0.1744 0.081 Uiso 0.208(6) 1 calc PR A 2
C3H C 0.1514(17) 0.280(4) 0.2148(9) 0.080(6) Uani 0.208(6) 1 d PD A 2
H3H H 0.1212 0.2705 0.2239 0.096 Uiso 0.208(6) 1 calc PR A 2
C4H C 0.1942(18) 0.267(6) 0.2314(8) 0.073(6) Uani 0.208(6) 1 d PD A 2
H4H H 0.1933 0.2600 0.2520 0.087 Uiso 0.208(6) 1 calc PR A 2
C5H C 0.2369(17) 0.264(5) 0.2162(8) 0.056(4) Uani 0.208(6) 1 d PD A 2
H5H H 0.2655 0.2460 0.2261 0.067 Uiso 0.208(6) 1 calc PR A 2
C6H C 0.2391(9) 0.288(3) 0.1861(7) 0.034(2) Uani 0.208(6) 1 d PD A 2
C7H C 0.2855(9) 0.303(2) 0.1718(5) 0.037(2) Uani 0.208(6) 1 d PD A 2
C8H C 0.3291(10) 0.289(2) 0.1874(7) 0.048(3) Uani 0.208(6) 1 d PD A 2
H8H H 0.3280 0.2638 0.2067 0.057 Uiso 0.208(6) 1 calc PR A 2
C9H C 0.3718(11) 0.309(3) 0.1752(8) 0.063(4) Uani 0.208(6) 1 d PD A 2
H9H H 0.4003 0.3058 0.1865 0.075 Uiso 0.208(6) 1 calc PR A 2
C10H C 0.3739(11) 0.334(3) 0.1463(8) 0.056(3) Uani 0.208(6) 1 d PD A 2
H10H H 0.4039 0.3485 0.1375 0.067 Uiso 0.208(6) 1 calc PR A 2
C11H C 0.3341(11) 0.338(5) 0.1310(8) 0.053(4) Uani 0.208(6) 1 d PD A 2
H11H H 0.3375 0.3465 0.1105 0.064 Uiso 0.208(6) 1 calc PR A 2
C12H C 0.2858(10) 0.332(4) 0.1421(6) 0.036(2) Uani 0.208(6) 1 d PD A 2
C13H C 0.2442(10) 0.342(4) 0.1259(6) 0.040(3) Uani 0.208(6) 1 d PD A 2
C14H C 0.2420(14) 0.359(8) 0.0949(7) 0.062(5) Uani 0.208(6) 1 d PD A 2
H14H H 0.2709 0.3618 0.0839 0.075 Uiso 0.208(6) 1 calc PR A 2
C15H C 0.1998(15) 0.371(3) 0.0813(8) 0.070(4) Uani 0.208(6) 1 d PD A 2
H15H H 0.1997 0.3791 0.0607 0.084 Uiso 0.208(6) 1 calc PR A 2
C16H C 0.1575(16) 0.372(7) 0.0956(11) 0.078(5) Uani 0.208(6) 1 d PD A 2
H16H H 0.1292 0.3941 0.0863 0.094 Uiso 0.208(6) 1 calc PR A 2
C17H C 0.1564(12) 0.340(5) 0.1242(9) 0.067(4) Uani 0.208(6) 1 d PD A 2
H17H H 0.1267 0.3230 0.1331 0.080 Uiso 0.208(6) 1 calc PR A 2
C18H C 0.1994(10) 0.332(3) 0.1400(6) 0.044(3) Uani 0.208(6) 1 d PD A 2
C1S C 0.3161(4) 0.0495(10) 0.4427(2) 0.074(3) Uani 1 1 d D . .
H1SA H 0.3097 -0.0155 0.4512 0.088 Uiso 1 1 calc R . .
H1SB H 0.3480 0.0473 0.4332 0.088 Uiso 1 1 calc R . .
C2S C 0.3169(7) 0.1241(12) 0.4666(3) 0.129(7) Uani 1 1 d D . .
H2SA H 0.2897 0.1116 0.4800 0.155 Uiso 1 1 calc R . .
H2SB H 0.3470 0.1167 0.4779 0.155 Uiso 1 1 calc R . .
C3S C 0.3136(7) 0.2253(14) 0.4556(4) 0.138(8) Uani 1 1 d D . .
H3SA H 0.3106 0.2698 0.4725 0.165 Uiso 1 1 calc R . .
H3SB H 0.3440 0.2415 0.4455 0.165 Uiso 1 1 calc R . .
C4S C 0.2752(7) 0.2437(11) 0.4363(4) 0.132(8) Uani 1 1 d D . .
H4SA H 0.2775 0.3114 0.4289 0.158 Uiso 1 1 calc R . .
H4SB H 0.2444 0.2374 0.4470 0.158 Uiso 1 1 calc R . .
C5S C 0.2754(5) 0.1741(10) 0.4110(3) 0.095(5) Uani 1 1 d D . .
H5SA H 0.2458 0.1837 0.3995 0.114 Uiso 1 1 calc R . .
H5SB H 0.3030 0.1897 0.3982 0.114 Uiso 1 1 calc R . .
C6S C 0.2786(4) 0.0709(9) 0.4198(3) 0.087(4) Uani 1 1 d D . .
H6SA H 0.2856 0.0311 0.4023 0.104 Uiso 1 1 calc R . .
H6SB H 0.2469 0.0502 0.4273 0.104 Uiso 1 1 calc R . .
C7S C 0.1937(4) 0.2457(11) 0.5128(2) 0.082(4) Uani 1 1 d . . .
H7SA H 0.1931 0.2483 0.4913 0.098 Uiso 1 1 calc R . .
H7SB H 0.1911 0.1765 0.5187 0.098 Uiso 1 1 calc R . .
C8S C 0.2411(4) 0.2862(10) 0.5236(2) 0.070(3) Uani 1 1 d . . .
H8SA H 0.2679 0.2514 0.5139 0.085 Uiso 1 1 calc R . .
H8SB H 0.2440 0.2753 0.5448 0.085 Uiso 1 1 calc R . .
C9S C 0.2449(4) 0.3948(11) 0.5171(2) 0.076(4) Uani 1 1 d . . .
H9SA H 0.2750 0.4205 0.5256 0.091 Uiso 1 1 calc R . .
H9SB H 0.2460 0.4049 0.4958 0.091 Uiso 1 1 calc R . .
C10S C 0.2028(4) 0.4504(9) 0.5297(2) 0.065(3) Uani 1 1 d . . .
H10A H 0.2054 0.5198 0.5240 0.078 Uiso 1 1 calc R . .
H10B H 0.2040 0.4470 0.5512 0.078 Uiso 1 1 calc R . .
C11S C 0.1549(4) 0.4101(10) 0.5192(2) 0.070(3) Uani 1 1 d . . .
H11A H 0.1285 0.4440 0.5294 0.085 Uiso 1 1 calc R . .
H11B H 0.1