####################################################################### 
# 
# This file contains crystal structure data downloaded from the 
# Cambridge Structural Database (CSD) hosted by the Cambridge 
# Crystallographic Data Centre (CCDC).
# 
# Full information about CCDC data access policies and citation 
# guidelines are available at http://www.ccdc.cam.ac.uk/access/V1 
# 
# Audit and citation data items may have been added by the CCDC. 
# Please retain this information to preserve the provenance of 
# this file and to allow appropriate attribution of the data. 
# 
#######################################################################

data_0
_audit_block_doi                 10.5517/ccwzv0p
_database_code_depnum_ccdc_archive 'CCDC 833993'
loop_
_citation_id
_citation_doi
_citation_year
1 10.1007/s10876-011-0428-9 2012
_audit_update_record             
;
2011-07-13 deposited with the CCDC.	2024-07-13 downloaded from the CCDC.
;
#TrackingRef '1.CIF'


_audit_creation_method           SHELXL-97
_chemical_name_systematic        
;
?
;
_chemical_name_common            ?
_chemical_melting_point          ?
_chemical_formula_moiety         ?
_chemical_formula_sum            'C28 H23.50 Cd N6 O7.75'
_chemical_formula_weight         680.44

loop_
_atom_type_symbol
_atom_type_description
_atom_type_scat_dispersion_real
_atom_type_scat_dispersion_imag
_atom_type_scat_source
C C 0.0033 0.0016 'International Tables Vol C Tables 4.2.6.8 and 6.1.1.4'
H H 0.0000 0.0000 'International Tables Vol C Tables 4.2.6.8 and 6.1.1.4'
Cd Cd -0.8075 1.2024 'International Tables Vol C Tables 4.2.6.8 and 6.1.1.4'
N N 0.0061 0.0033 'International Tables Vol C Tables 4.2.6.8 and 6.1.1.4'
O O 0.0106 0.0060 'International Tables Vol C Tables 4.2.6.8 and 6.1.1.4'

_symmetry_cell_setting           ?
_symmetry_space_group_name_H-M   ?

loop_
_symmetry_equiv_pos_as_xyz
'x, y, z'
'-x, -y, -z'

_cell_length_a                   10.9016(8)
_cell_length_b                   11.4566(12)
_cell_length_c                   12.3662(10)
_cell_angle_alpha                107.672(6)
_cell_angle_beta                 99.208(5)
_cell_angle_gamma                99.291(6)
_cell_volume                     1416.0(2)
_cell_formula_units_Z            2
_cell_measurement_temperature    293(2)
_cell_measurement_reflns_used    ?
_cell_measurement_theta_min      ?
_cell_measurement_theta_max      ?

_exptl_crystal_description       ?
_exptl_crystal_colour            ?
_exptl_crystal_size_max          ?
_exptl_crystal_size_mid          ?
_exptl_crystal_size_min          ?
_exptl_crystal_density_meas      ?
_exptl_crystal_density_diffrn    1.596
_exptl_crystal_density_method    'not measured'
_exptl_crystal_F_000             687
_exptl_absorpt_coefficient_mu    0.831
_exptl_absorpt_correction_type   ?
_exptl_absorpt_correction_T_min  ?
_exptl_absorpt_correction_T_max  ?
_exptl_absorpt_process_details   ?

_exptl_special_details           
;
?
;

_diffrn_ambient_temperature      293(2)
_diffrn_radiation_wavelength     0.71073
_diffrn_radiation_type           MoK\a
_diffrn_radiation_source         'fine-focus sealed tube'
_diffrn_radiation_monochromator  graphite
_diffrn_measurement_device_type  ?
_diffrn_measurement_method       ?
_diffrn_detector_area_resol_mean ?
_diffrn_standards_number         ?
_diffrn_standards_interval_count ?
_diffrn_standards_interval_time  ?
_diffrn_standards_decay_%        ?
_diffrn_reflns_number            10513
_diffrn_reflns_av_R_equivalents  0.0453
_diffrn_reflns_av_sigmaI/netI    0.0957
_diffrn_reflns_limit_h_min       -14
_diffrn_reflns_limit_h_max       14
_diffrn_reflns_limit_k_min       -15
_diffrn_reflns_limit_k_max       10
_diffrn_reflns_limit_l_min       -16
_diffrn_reflns_limit_l_max       15
_diffrn_reflns_theta_min         1.77
_diffrn_reflns_theta_max         28.33
_reflns_number_total             7024
_reflns_number_gt                4662
_reflns_threshold_expression     >2sigma(I)

_computing_data_collection       ?
_computing_cell_refinement       ?
_computing_data_reduction        ?
_computing_structure_solution    'SHELXS-97 (Sheldrick, 1990)'
_computing_structure_refinement  'SHELXL-97 (Sheldrick, 1997)'
_computing_molecular_graphics    ?
_computing_publication_material  ?

_refine_special_details          
;
Refinement of F^2^ against ALL reflections. The weighted R-factor wR and
goodness of fit S are based on F^2^, conventional R-factors R are based
on F, with F set to zero for negative F^2^. The threshold expression of
F^2^ > 2sigma(F^2^) is used only for calculating R-factors(gt) etc. and is
not relevant to the choice of reflections for refinement. R-factors based
on F^2^ are statistically about twice as large as those based on F, and R-
factors based on ALL data will be even larger.
;

_refine_ls_structure_factor_coef Fsqd
_refine_ls_matrix_type           full
_refine_ls_weighting_scheme      calc
_refine_ls_weighting_details     
'calc w=1/[\s^2^(Fo^2^)+(0.0696P)^2^+0.0000P] where P=(Fo^2^+2Fc^2^)/3'
_atom_sites_solution_primary     direct
_atom_sites_solution_secondary   difmap
_atom_sites_solution_hydrogens   geom
_refine_ls_hydrogen_treatment    mixed
_refine_ls_extinction_method     none
_refine_ls_extinction_coef       ?
_refine_ls_number_reflns         7024
_refine_ls_number_parameters     377
_refine_ls_number_restraints     0
_refine_ls_R_factor_all          0.0854
_refine_ls_R_factor_gt           0.0532
_refine_ls_wR_factor_ref         0.1444
_refine_ls_wR_factor_gt          0.1314
_refine_ls_goodness_of_fit_ref   0.965
_refine_ls_restrained_S_all      0.965
_refine_ls_shift/su_max          0.001
_refine_ls_shift/su_mean         0.000

loop_
_atom_site_label
_atom_site_type_symbol
_atom_site_fract_x
_atom_site_fract_y
_atom_site_fract_z
_atom_site_U_iso_or_equiv
_atom_site_adp_type
_atom_site_occupancy
_atom_site_symmetry_multiplicity
_atom_site_calc_flag
_atom_site_refinement_flags
_atom_site_disorder_assembly
_atom_site_disorder_group
Cd1 Cd 0.66234(3) 0.01098(3) 0.08046(3) 0.03360(13) Uani 1 1 d . . .
O1 O 0.6527(4) -0.3553(3) 0.3162(3) 0.0505(10) Uani 1 1 d . . .
O2 O 0.6813(4) 0.1026(3) 0.2832(3) 0.0453(9) Uani 1 1 d . . .
O3 O 0.5325(3) 0.1217(3) 1.0106(3) 0.0326(7) Uani 1 1 d . . .
O4 O 0.6993(3) 0.5960(3) 1.0282(3) 0.0404(8) Uani 1 1 d . . .
N1 N 0.6788(4) -0.2147(3) 0.2226(3) 0.0322(9) Uani 1 1 d . . .
H1A H 0.6870 -0.2740 0.1637 0.039 Uiso 1 1 calc R . .
N2 N 0.6847(4) -0.0978(4) 0.2115(3) 0.0316(9) Uani 1 1 d . . .
N3 N 0.5722(4) 0.3303(3) 1.1027(3) 0.0326(9) Uani 1 1 d . . .
N4 N 0.6180(4) 0.4503(3) 1.1019(3) 0.0338(9) Uani 1 1 d . . .
H4A H 0.6189 0.5111 1.1635 0.041 Uiso 1 1 calc R . .
N5 N 0.8318(4) 0.1661(4) 0.0811(4) 0.0404(10) Uani 1 1 d . . .
N6 N 0.7645(4) -0.0806(4) -0.0631(3) 0.0386(10) Uani 1 1 d . . .
C1 C 0.6620(4) 0.0656(4) 0.6153(4) 0.0280(9) Uani 1 1 d . . .
C2 C 0.6722(4) 0.0834(4) 0.5110(3) 0.0273(9) Uani 1 1 d . . .
H2A H 0.6795 0.1635 0.5059 0.033 Uiso 1 1 calc R . .
C3 C 0.6714(4) -0.0185(4) 0.4128(3) 0.0268(9) Uani 1 1 d . . .
C4 C 0.6601(4) -0.1394(4) 0.4205(3) 0.0278(9) Uani 1 1 d . . .
C5 C 0.6465(5) -0.1578(4) 0.5245(4) 0.0351(11) Uani 1 1 d . . .
H5A H 0.6376 -0.2378 0.5298 0.042 Uiso 1 1 calc R . .
C6 C 0.6463(5) -0.0578(4) 0.6186(4) 0.0328(10) Uani 1 1 d . . .
H6A H 0.6355 -0.0715 0.6872 0.039 Uiso 1 1 calc R . .
C7 C 0.6614(5) -0.2445(4) 0.3178(4) 0.0316(10) Uani 1 1 d . . .
C8 C 0.6799(4) -0.0025(4) 0.3006(4) 0.0305(10) Uani 1 1 d . . .
C9 C 0.6623(4) 0.1736(4) 0.7190(4) 0.0279(9) Uani 1 1 d . . .
C10 C 0.6189(4) 0.1540(4) 0.8146(3) 0.0268(9) Uani 1 1 d . . .
H10A H 0.5914 0.0725 0.8138 0.032 Uiso 1 1 calc R . .
C11 C 0.6168(4) 0.2557(4) 0.9108(3) 0.0249(9) Uani 1 1 d . . .
C12 C 0.6598(4) 0.3786(4) 0.9139(3) 0.0270(9) Uani 1 1 d . . .
C13 C 0.7026(5) 0.3986(4) 0.8191(4) 0.0390(12) Uani 1 1 d . . .
H13A H 0.7291 0.4801 0.8196 0.047 Uiso 1 1 calc R . .
C14 C 0.7056(5) 0.2986(4) 0.7254(4) 0.0387(12) Uani 1 1 d . . .
H14A H 0.7371 0.3137 0.6641 0.046 Uiso 1 1 calc R . .
C15 C 0.5722(4) 0.2364(4) 1.0114(4) 0.0267(9) Uani 1 1 d . . .
C16 C 0.6610(4) 0.4835(4) 1.0172(4) 0.0299(10) Uani 1 1 d . . .
C17 C 0.8622(5) 0.2845(5) 0.1489(5) 0.0491(14) Uani 1 1 d . . .
H17A H 0.8269 0.3077 0.2137 0.059 Uiso 1 1 calc R . .
C18 C 0.9460(6) 0.3774(6) 0.1273(6) 0.0635(18) Uani 1 1 d . . .
H18A H 0.9649 0.4604 0.1767 0.076 Uiso 1 1 calc R . .
C19 C 0.9995(6) 0.3439(7) 0.0322(6) 0.0622(17) Uani 1 1 d . . .
H19A H 1.0551 0.4042 0.0166 0.075 Uiso 1 1 calc R . .
C20 C 0.9698(5) 0.2187(6) -0.0407(5) 0.0525(15) Uani 1 1 d . . .
C21 C 1.0231(6) 0.1747(8) -0.1402(6) 0.070(2) Uani 1 1 d . . .
H21A H 1.0784 0.2325 -0.1588 0.084 Uiso 1 1 calc R . .
C22 C 0.9961(6) 0.0534(8) -0.2074(6) 0.0657(19) Uani 1 1 d . . .
H22A H 1.0331 0.0284 -0.2709 0.079 Uiso 1 1 calc R . .
C23 C 0.9100(5) -0.0381(6) -0.1811(4) 0.0474(14) Uani 1 1 d . . .
C24 C 0.8777(5) -0.1667(6) -0.2475(5) 0.0534(15) Uani 1 1 d . . .
H24A H 0.9155 -0.1965 -0.3097 0.064 Uiso 1 1 calc R . .
C25 C 0.7933(6) -0.2465(6) -0.2221(5) 0.0543(15) Uani 1 1 d . . .
H25A H 0.7723 -0.3317 -0.2659 0.065 Uiso 1 1 calc R . .
C26 C 0.7366(6) -0.2006(5) -0.1288(5) 0.0489(13) Uani 1 1 d . . .
H26A H 0.6769 -0.2566 -0.1123 0.059 Uiso 1 1 calc R . .
C27 C 0.8833(4) 0.1313(5) -0.0134(4) 0.0412(12) Uani 1 1 d . . .
C28 C 0.8520(4) 0.0012(5) -0.0873(4) 0.0367(11) Uani 1 1 d . . .
OW7 O 0.5477(6) 0.2896(7) 0.3198(6) 0.117(2) Uiso 1 1 d . . .
OW6 O 0.8981(16) 0.3063(18) 0.4463(15) 0.165(6) Uiso 0.50 1 d P . .
OW5 O 0.552(2) -0.502(2) -0.4016(18) 0.216(9) Uiso 0.50 1 d P . .
OW4 O 0.928(3) 0.636(3) 0.374(3) 0.336(16) Uiso 0.50 1 d P . .
OW3 O 1.0000 0.0000 -0.5000 0.229(13) Uiso 0.50 2 d SP . .
OW2 O 0.711(2) -0.498(3) 0.489(2) 0.261(12) Uiso 0.50 1 d P . .
OW1 O 1.109(3) 0.518(3) 0.428(3) 0.300(14) Uiso 0.50 1 d P . .

loop_
_atom_site_aniso_label
_atom_site_aniso_U_11
_atom_site_aniso_U_22
_atom_site_aniso_U_33
_atom_site_aniso_U_23
_atom_site_aniso_U_13
_atom_site_aniso_U_12
Cd1 0.0474(2) 0.02848(19) 0.02674(18) 0.01177(14) 0.01283(14) 0.00433(15)
O1 0.100(3) 0.0237(18) 0.0307(18) 0.0060(15) 0.0254(19) 0.0183(19)
O2 0.084(3) 0.0278(18) 0.0301(18) 0.0116(15) 0.0209(17) 0.0184(18)
O3 0.0486(19) 0.0192(15) 0.0301(16) 0.0091(13) 0.0113(14) 0.0037(14)
O4 0.073(2) 0.0164(15) 0.0282(17) 0.0009(13) 0.0220(16) 0.0012(16)
N1 0.049(2) 0.0226(19) 0.0196(18) -0.0012(15) 0.0117(16) 0.0063(17)
N2 0.045(2) 0.027(2) 0.0215(18) 0.0059(16) 0.0113(16) 0.0068(17)
N3 0.053(2) 0.0197(18) 0.0247(19) 0.0055(15) 0.0148(17) 0.0057(17)
N4 0.056(2) 0.0173(18) 0.0243(19) -0.0003(15) 0.0178(18) 0.0025(18)
N5 0.039(2) 0.040(2) 0.042(2) 0.017(2) 0.0068(19) 0.004(2)
N6 0.046(2) 0.040(2) 0.036(2) 0.018(2) 0.0136(19) 0.014(2)
C1 0.037(2) 0.023(2) 0.022(2) 0.0036(18) 0.0087(18) 0.0071(19)
C2 0.041(3) 0.018(2) 0.022(2) 0.0040(17) 0.0096(18) 0.0067(19)
C3 0.035(2) 0.025(2) 0.020(2) 0.0038(17) 0.0096(17) 0.0090(19)
C4 0.041(3) 0.023(2) 0.018(2) 0.0034(17) 0.0100(18) 0.0085(19)
C5 0.060(3) 0.026(2) 0.022(2) 0.0077(19) 0.012(2) 0.015(2)
C6 0.054(3) 0.029(2) 0.021(2) 0.0101(19) 0.015(2) 0.015(2)
C7 0.050(3) 0.022(2) 0.024(2) 0.0049(18) 0.014(2) 0.010(2)
C8 0.046(3) 0.026(2) 0.020(2) 0.0068(18) 0.0099(19) 0.009(2)
C9 0.036(2) 0.020(2) 0.024(2) 0.0037(18) 0.0093(18) 0.0031(19)
C10 0.041(3) 0.015(2) 0.021(2) 0.0021(16) 0.0077(18) 0.0045(18)
C11 0.035(2) 0.018(2) 0.020(2) 0.0036(16) 0.0066(17) 0.0051(18)
C12 0.037(2) 0.020(2) 0.020(2) 0.0026(17) 0.0088(18) 0.0030(18)
C13 0.064(3) 0.020(2) 0.029(2) 0.0032(19) 0.019(2) -0.001(2)
C14 0.067(3) 0.025(2) 0.022(2) 0.0054(19) 0.019(2) -0.002(2)
C15 0.034(2) 0.022(2) 0.023(2) 0.0067(17) 0.0065(18) 0.0034(18)
C16 0.041(3) 0.020(2) 0.026(2) 0.0045(18) 0.0116(19) 0.0032(19)
C17 0.044(3) 0.043(3) 0.054(3) 0.014(3) 0.006(3) 0.003(3)
C18 0.056(4) 0.038(3) 0.083(5) 0.017(3) -0.002(3) 0.001(3)
C19 0.042(3) 0.063(4) 0.079(5) 0.033(4) 0.006(3) -0.005(3)
C20 0.041(3) 0.062(4) 0.058(4) 0.031(3) 0.007(3) 0.001(3)
C21 0.049(4) 0.098(6) 0.070(4) 0.043(4) 0.024(3) -0.005(4)
C22 0.048(4) 0.099(6) 0.054(4) 0.028(4) 0.027(3) 0.007(4)
C23 0.036(3) 0.073(4) 0.036(3) 0.021(3) 0.010(2) 0.015(3)
C24 0.058(4) 0.073(4) 0.037(3) 0.017(3) 0.019(3) 0.031(3)
C25 0.074(4) 0.048(3) 0.047(3) 0.013(3) 0.021(3) 0.027(3)
C26 0.063(4) 0.041(3) 0.046(3) 0.015(3) 0.018(3) 0.018(3)
C27 0.030(3) 0.056(3) 0.043(3) 0.026(3) 0.007(2) 0.006(2)
C28 0.035(3) 0.048(3) 0.035(3) 0.024(2) 0.007(2) 0.012(2)

_geom_special_details            
;
All esds (except the esd in the dihedral angle between two l.s. planes)
are estimated using the full covariance matrix. The cell esds are taken
into account individually in the estimation of esds in distances, angles
and torsion angles; correlations between esds in cell parameters are only
used when they are defined by crystal symmetry. An approximate (isotropic)
treatment of cell esds is used for estimating esds involving l.s. planes.
;

loop_
_geom_bond_atom_site_label_1
_geom_bond_atom_site_label_2
_geom_bond_distance
_geom_bond_site_symmetry_2
_geom_bond_publ_flag
Cd1 O3 2.283(3) 1_554 ?
Cd1 O3 2.289(3) 2_656 ?
Cd1 N6 2.318(4) . ?
Cd1 N2 2.332(4) . ?
Cd1 N5 2.345(4) . ?
Cd1 O2 2.366(3) . ?
Cd1 C8 2.752(4) . ?
Cd1 Cd1 3.7022(8) 2_655 ?
O1 C7 1.251(5) . ?
O2 C8 1.285(5) . ?
O3 C15 1.313(5) . ?
O3 Cd1 2.283(3) 1_556 ?
O3 Cd1 2.289(3) 2_656 ?
O4 C16 1.247(5) . ?
N1 C7 1.354(5) . ?
N1 N2 1.380(5) . ?
N1 H1A 0.8600 . ?
N2 C8 1.310(5) . ?
N3 C15 1.302(5) . ?
N3 N4 1.388(5) . ?
N4 C16 1.342(5) . ?
N4 H4A 0.8600 . ?
N5 C17 1.314(7) . ?
N5 C27 1.356(6) . ?
N6 C26 1.323(7) . ?
N6 C28 1.361(6) . ?
C1 C2 1.384(6) . ?
C1 C6 1.410(6) . ?
C1 C9 1.487(6) . ?
C2 C3 1.404(6) . ?
C2 H2A 0.9300 . ?
C3 C4 1.403(6) . ?
C3 C8 1.468(6) . ?
C4 C5 1.392(6) . ?
C4 C7 1.465(6) . ?
C5 C6 1.363(6) . ?
C5 H5A 0.9300 . ?
C6 H6A 0.9300 . ?
C9 C10 1.406(6) . ?
C9 C14 1.407(6) . ?
C10 C11 1.396(5) . ?
C10 H10A 0.9300 . ?
C11 C12 1.396(6) . ?
C11 C15 1.469(5) . ?
C12 C13 1.396(6) . ?
C12 C16 1.462(6) . ?
C13 C14 1.370(6) . ?
C13 H13A 0.9300 . ?
C14 H14A 0.9300 . ?
C17 C18 1.404(8) . ?
C17 H17A 0.9300 . ?
C18 C19 1.374(9) . ?
C18 H18A 0.9300 . ?
C19 C20 1.396(9) . ?
C19 H19A 0.9300 . ?
C20 C27 1.417(7) . ?
C20 C21 1.432(9) . ?
C21 C22 1.340(10) . ?
C21 H21A 0.9300 . ?
C22 C23 1.440(8) . ?
C22 H22A 0.9300 . ?
C23 C28 1.400(7) . ?
C23 C24 1.405(8) . ?
C24 C25 1.332(8) . ?
C24 H24A 0.9300 . ?
C25 C26 1.398(7) . ?
C25 H25A 0.9300 . ?
C26 H26A 0.9300 . ?
C27 C28 1.442(7) . ?

loop_
_geom_angle_atom_site_label_1
_geom_angle_atom_site_label_2
_geom_angle_atom_site_label_3
_geom_angle
_geom_angle_site_symmetry_1
_geom_angle_site_symmetry_3
_geom_angle_publ_flag
O3 Cd1 O3 71.89(12) 1_554 2_656 ?
O3 Cd1 N6 108.54(12) 1_554 . ?
O3 Cd1 N6 94.75(13) 2_656 . ?
O3 Cd1 N2 142.28(12) 1_554 . ?
O3 Cd1 N2 88.93(12) 2_656 . ?
N6 Cd1 N2 105.09(13) . . ?
O3 Cd1 N5 85.94(13) 1_554 . ?
O3 Cd1 N5 149.49(13) 2_656 . ?
N6 Cd1 N5 72.26(15) . . ?
N2 Cd1 N5 120.79(14) . . ?
O3 Cd1 O2 100.91(12) 1_554 . ?
O3 Cd1 O2 112.15(12) 2_656 . ?
N6 Cd1 O2 145.14(14) . . ?
N2 Cd1 O2 55.99(12) . . ?
N5 Cd1 O2 92.07(13) . . ?
O3 Cd1 C8 122.11(12) 1_554 . ?
O3 Cd1 C8 99.87(12) 2_656 . ?
N6 Cd1 C8 129.35(14) . . ?
N2 Cd1 C8 28.35(13) . . ?
N5 Cd1 C8 109.76(14) . . ?
O2 Cd1 C8 27.80(12) . . ?
O3 Cd1 Cd1 36.00(7) 1_554 2_655 ?
O3 Cd1 Cd1 35.89(8) 2_656 2_655 ?
N6 Cd1 Cd1 104.32(10) . 2_655 ?
N2 Cd1 Cd1 118.44(9) . 2_655 ?
N5 Cd1 Cd1 119.28(10) . 2_655 ?
O2 Cd1 Cd1 110.48(10) . 2_655 ?
C8 Cd1 Cd1 115.71(10) . 2_655 ?
C8 O2 Cd1 93.0(2) . . ?
C15 O3 Cd1 123.7(3) . 1_556 ?
C15 O3 Cd1 127.7(3) . 2_656 ?
Cd1 O3 Cd1 108.11(12) 1_556 2_656 ?
C7 N1 N2 125.9(4) . . ?
C7 N1 H1A 117.0 . . ?
N2 N1 H1A 117.0 . . ?
C8 N2 N1 119.6(4) . . ?
C8 N2 Cd1 93.9(3) . . ?
N1 N2 Cd1 145.1(3) . . ?
C15 N3 N4 117.0(3) . . ?
C16 N4 N3 128.3(4) . . ?
C16 N4 H4A 115.8 . . ?
N3 N4 H4A 115.8 . . ?
C17 N5 C27 119.1(5) . . ?
C17 N5 Cd1 126.4(4) . . ?
C27 N5 Cd1 113.2(3) . . ?
C26 N6 C28 118.6(4) . . ?
C26 N6 Cd1 126.0(4) . . ?
C28 N6 Cd1 115.1(3) . . ?
C2 C1 C6 118.2(4) . . ?
C2 C1 C9 120.4(4) . . ?
C6 C1 C9 121.4(4) . . ?
C1 C2 C3 120.5(4) . . ?
C1 C2 H2A 119.8 . . ?
C3 C2 H2A 119.8 . . ?
C4 C3 C2 119.7(4) . . ?
C4 C3 C8 118.7(4) . . ?
C2 C3 C8 121.6(4) . . ?
C5 C4 C3 119.7(4) . . ?
C5 C4 C7 121.1(4) . . ?
C3 C4 C7 119.1(4) . . ?
C6 C5 C4 119.7(4) . . ?
C6 C5 H5A 120.2 . . ?
C4 C5 H5A 120.2 . . ?
C5 C6 C1 122.1(4) . . ?
C5 C6 H6A 118.9 . . ?
C1 C6 H6A 118.9 . . ?
O1 C7 N1 120.2(4) . . ?
O1 C7 C4 123.9(4) . . ?
N1 C7 C4 115.8(4) . . ?
O2 C8 N2 116.4(4) . . ?
O2 C8 C3 123.0(4) . . ?
N2 C8 C3 120.6(4) . . ?
O2 C8 Cd1 59.2(2) . . ?
N2 C8 Cd1 57.7(2) . . ?
C3 C8 Cd1 172.4(3) . . ?
C10 C9 C14 117.6(4) . . ?
C10 C9 C1 120.8(4) . . ?
C14 C9 C1 121.5(4) . . ?
C11 C10 C9 120.6(4) . . ?
C11 C10 H10A 119.7 . . ?
C9 C10 H10A 119.7 . . ?
C12 C11 C10 120.2(4) . . ?
C12 C11 C15 118.7(4) . . ?
C10 C11 C15 121.1(4) . . ?
C13 C12 C11 119.4(4) . . ?
C13 C12 C16 121.3(4) . . ?
C11 C12 C16 119.3(4) . . ?
C14 C13 C12 120.2(4) . . ?
C14 C13 H13A 119.9 . . ?
C12 C13 H13A 119.9 . . ?
C13 C14 C9 121.9(4) . . ?
C13 C14 H14A 119.1 . . ?
C9 C14 H14A 119.1 . . ?
N3 C15 O3 118.6(4) . . ?
N3 C15 C11 121.8(4) . . ?
O3 C15 C11 119.6(4) . . ?
O4 C16 N4 121.5(4) . . ?
O4 C16 C12 123.6(4) . . ?
N4 C16 C12 114.9(4) . . ?
N5 C17 C18 122.7(6) . . ?
N5 C17 H17A 118.7 . . ?
C18 C17 H17A 118.7 . . ?
C19 C18 C17 119.1(6) . . ?
C19 C18 H18A 120.4 . . ?
C17 C18 H18A 120.4 . . ?
C18 C19 C20 119.4(6) . . ?
C18 C19 H19A 120.3 . . ?
C20 C19 H19A 120.3 . . ?
C19 C20 C27 117.8(5) . . ?
C19 C20 C21 123.3(6) . . ?
C27 C20 C21 118.9(6) . . ?
C22 C21 C20 122.5(6) . . ?
C22 C21 H21A 118.8 . . ?
C20 C21 H21A 118.8 . . ?
C21 C22 C23 120.0(6) . . ?
C21 C22 H22A 120.0 . . ?
C23 C22 H22A 120.0 . . ?
C28 C23 C24 117.4(5) . . ?
C28 C23 C22 119.4(6) . . ?
C24 C23 C22 123.2(5) . . ?
C25 C24 C23 120.6(5) . . ?
C25 C24 H24A 119.7 . . ?
C23 C24 H24A 119.7 . . ?
C24 C25 C26 119.1(6) . . ?
C24 C25 H25A 120.4 . . ?
C26 C25 H25A 120.4 . . ?
N6 C26 C25 122.7(5) . . ?
N6 C26 H26A 118.7 . . ?
C25 C26 H26A 118.7 . . ?
N5 C27 C20 121.9(5) . . ?
N5 C27 C28 119.5(4) . . ?
C20 C27 C28 118.6(5) . . ?
N6 C28 C23 121.6(5) . . ?
N6 C28 C27 118.0(4) . . ?
C23 C28 C27 120.4(5) . . ?

_diffrn_measured_fraction_theta_max 0.993
_diffrn_reflns_theta_full        28.33
_diffrn_measured_fraction_theta_full 0.993
_refine_diff_density_max         1.019
_refine_diff_density_min         -0.815
_refine_diff_density_rms         0.126


