
#######################################################################
#
#                 Cambridge Crystallographic Data Centre
#                                CCDC
#
#######################################################################
#
# If this CIF has been generated from an entry in the Cambridge
# Structural Database, then it will include bibliographic, chemical,
# crystal, experimental, refinement or atomic coordinate data resulting
# from the CCDC's data processing and validation procedures.
#
#######################################################################

data_CSD_CIF_XEBBUC
_audit_creation_date 2006-03-08
_audit_creation_method CSD-ConQuest-V1
_database_code_CSD XEBBUC
_database_code_depnum_ccdc_archive 'CCDC 267317'
_chemical_formula_sum 'C6 H24 Cd1 I4 N6 Ni1'
_chemical_formula_moiety
;
C6 H24 N6 Ni1,Cd1 I4
;
_journal_coeditor_code "IUCr SJ6176"
_journal_coden_Cambridge 1370
_journal_volume 62
_journal_year 2006
_journal_page_first m394
_journal_name_full 'Acta Crystallogr.,Sect.E:Struct.Rep.Online '
loop_
_publ_author_name
"M.Sohail"
"K.C.Molloy"
"M.Mazhar"
"G.Kociok-Kohn"
"M.K.Khosa"
_chemical_name_systematic
;
tris(Ethylenediamine)-nickel(ii) tetrakis(iodo)-cadmium(ii)
;
_chemical_name_common
;
Teaching Subset: Fundamental Chemistry
;
_cell_volume   1001.412
_exptl_crystal_colour 'colorless'
_exptl_crystal_density_diffrn 2.849
_exptl_crystal_description 'block'
_exptl_crystal_preparation 'ethylene glycol'
_diffrn_ambient_temperature 150
_refine_special_details
;
The Cd atom is disordered over two sites, with occupancies 0.972:0.028.

;
#These two values have been output from a single CSD field.
_refine_ls_R_factor_gt 0.0176
_refine_ls_wR_factor_gt 0.0176
_symmetry_cell_setting hexagonal
_symmetry_space_group_name_H-M 'P 3 c 1'
_symmetry_Int_Tables_number 158
loop_
_symmetry_equiv_pos_site_id
_symmetry_equiv_pos_as_xyz
1 x,y,z
2 -y,x-y,z
3 -y,-x,1/2+z
4 -x+y,-x,z
5 x,x-y,1/2+z
6 -x+y,y,1/2+z
_cell_length_a 9.023(5)
_cell_length_b 9.023(5)
_cell_length_c 14.203(5)
_cell_angle_alpha 90
_cell_angle_beta 90
_cell_angle_gamma 120
_cell_formula_units_Z 2
loop_
_atom_type_symbol
_atom_type_radius_bond
C 0.68
H 0.23
Cd 1.69
I 1.40
N 0.68
Ni 1.50
loop_
_atom_site_label
_atom_site_type_symbol
_atom_site_fract_x
_atom_site_fract_y
_atom_site_fract_z
Cd1 Cd 0.33330 0.66670 0.29989(3)
I1 I 0.27173(3) 0.34346(3) 0.24797(2)
I2 I 0.33330 0.66670 0.49626(2)
Ni1 Ni 0.66670 0.33330 0.50028(5)
N1 N 0.8571(4) 0.5390(4) 0.5815(2)
H1 H 0.815(6) 0.555(6) 0.633(3)
H2 H 0.935(7) 0.520(6) 0.598(4)
N2 N 0.6844(4) 0.5391(3) 0.4181(2)
H3 H 0.731(7) 0.546(6) 0.367(3)
H4 H 0.589(7) 0.523(6) 0.407(3)
C1 C 0.9232(4) 0.6989(4) 0.5266(2)
H5 H 1.01090 0.70790 0.48150
H6 H 0.97730 0.79860 0.56950
C2 C 0.7773(4) 0.6991(4) 0.4738(2)
H7 H 0.69790 0.70700 0.51900
H8 H 0.82280 0.79940 0.43130
Cd2? Cd 0.33330 0.66670 0.1989(10)
I1A I 0.65654(3) 0.92827(3) 0.24797(2)
I1C I 0.07173(3) 0.72827(3) 0.24797(2)
N1A N 0.4610(4) 0.3181(4) 0.5815(2)
N1C N 0.6819(4) 0.1429(4) 0.5815(2)
H1A H 0.445(6) 0.260(6) 0.633(3)
H1C H 0.740(6) 0.185(6) 0.633(3)
H2A H 0.480(7) 0.415(6) 0.598(4)
H2C H 0.585(7) 0.065(6) 0.598(4)
N2A N 0.4609(4) 0.1453(3) 0.4181(2)
N2C N 0.8547(4) 0.3156(3) 0.4181(2)
H3C H 0.815(7) 0.269(6) 0.367(3)
H3A H 0.454(7) 0.185(6) 0.367(3)
H4C H 0.934(7) 0.411(6) 0.407(3)
H4A H 0.477(7) 0.066(6) 0.407(3)
C1A C 0.3011(4) 0.2243(4) 0.5266(2)
C1C C 0.7757(4) 0.0768(4) 0.5266(2)
H5A H 0.29210 0.30300 0.48150
H5C H 0.69700 -0.01090 0.48150
H6A H 0.20140 0.17870 0.56950
H6C H 0.82130 0.02270 0.56950
C2A C 0.3009(4) 0.0782(4) 0.4738(2)
C2C C 0.9218(4) 0.2227(4) 0.4738(2)
H7C H 1.00910 0.30210 0.51900
H7A H 0.29300 -0.00910 0.51900
H8C H 0.97660 0.17720 0.43130
H8A H 0.20060 0.02340 0.43130
#END
