####################################################################### 
# 
# This file contains crystal structure data downloaded from the 
# Cambridge Structural Database (CSD) hosted by the Cambridge 
# Crystallographic Data Centre (CCDC).
# 
# Full information about CCDC data access policies and citation 
# guidelines are available at http://www.ccdc.cam.ac.uk/access/V1 
# 
# Audit and citation data items may have been added by the CCDC. 
# Please retain this information to preserve the provenance of 
# this file and to allow appropriate attribution of the data. 
# 
#######################################################################

data_5
_audit_block_doi                 10.5517/cc9rqpf
_database_code_depnum_ccdc_archive 'CCDC 290925'
loop_
_citation_id
_citation_doi
_citation_year
1 10.1071/CH05325 2006
_audit_update_record             
;
2005-11-27 deposited with the CCDC.	2024-07-13 downloaded from the CCDC.
;

_audit_creation_method           SHELXL-97
_chemical_name_systematic        
;
(4,4'-bipyridine)bis(dimethylsulfoxide)silver(I) cobalt(III)
bis(dicarbollide) dimethylsulfoxide clathrate
;


_chemical_name_common            ?
_chemical_melting_point          ?
_chemical_formula_moiety         ?
_chemical_formula_sum            'C20 H48 Ag B18 Co N2 O3 S3'
_chemical_formula_weight         822.16

loop_
_atom_type_symbol
_atom_type_description
_atom_type_scat_dispersion_real
_atom_type_scat_dispersion_imag
_atom_type_scat_source
C C 0.0033 0.0016 'International Tables Vol C Tables 4.2.6.8 and 6.1.1.4'
H H 0.0000 0.0000 'International Tables Vol C Tables 4.2.6.8 and 6.1.1.4'
B B 0.0013 0.0007 'International Tables Vol C Tables 4.2.6.8 and 6.1.1.4'
N N 0.0061 0.0033 'International Tables Vol C Tables 4.2.6.8 and 6.1.1.4'
O O 0.0106 0.0060 'International Tables Vol C Tables 4.2.6.8 and 6.1.1.4'
S S 0.1246 0.1234 'International Tables Vol C Tables 4.2.6.8 and 6.1.1.4'
Co Co 0.3494 0.9721 'International Tables Vol C Tables 4.2.6.8 and 6.1.1.4'
Ag Ag -0.8971 1.1015 'International Tables Vol C Tables 4.2.6.8 and 6.1.1.4'

_symmetry_cell_setting           Monoclinic
_symmetry_space_group_name_H-M   P2(1)/c

loop_
_symmetry_equiv_pos_as_xyz
'x, y, z'
'-x, y+1/2, -z+1/2'
'-x, -y, -z'
'x, -y-1/2, z-1/2'

_cell_length_a                   11.4296(3)
_cell_length_b                   24.4512(7)
_cell_length_c                   13.3378(5)
_cell_angle_alpha                90.00
_cell_angle_beta                 91.5850(10)
_cell_angle_gamma                90.00
_cell_volume                     3726.1(2)
_cell_formula_units_Z            4
_cell_measurement_temperature    150(2)
_cell_measurement_reflns_used    ?
_cell_measurement_theta_min      ?
_cell_measurement_theta_max      ?

_exptl_crystal_description       prism
_exptl_crystal_colour            yellow-orange
_exptl_crystal_size_max          0.20
_exptl_crystal_size_mid          0.12
_exptl_crystal_size_min          0.08
_exptl_crystal_density_meas      ?
_exptl_crystal_density_diffrn    1.466
_exptl_crystal_density_method    'not measured'
_exptl_crystal_F_000             1672
_exptl_absorpt_coefficient_mu    1.168
_exptl_absorpt_correction_type   multi-scan
_exptl_absorpt_correction_T_min  ?
_exptl_absorpt_correction_T_max  ?
_exptl_absorpt_process_details   ?

_exptl_special_details           
;
?
;

_diffrn_ambient_temperature      150(2)
_diffrn_radiation_wavelength     0.71073
_diffrn_radiation_type           MoK\a
_diffrn_radiation_source         'fine-focus sealed tube'
_diffrn_radiation_monochromator  graphite
_diffrn_measurement_device_type  'Nonius KappaCCD area detector diffractometer'
_diffrn_measurement_method       ?
_diffrn_detector_area_resol_mean ?
_diffrn_standards_number         ?
_diffrn_standards_interval_count ?
_diffrn_standards_interval_time  ?
_diffrn_standards_decay_%        ?
_diffrn_reflns_number            27392
_diffrn_reflns_av_R_equivalents  0.1536
_diffrn_reflns_av_sigmaI/netI    0.1475
_diffrn_reflns_limit_h_min       -15
_diffrn_reflns_limit_h_max       15
_diffrn_reflns_limit_k_min       -32
_diffrn_reflns_limit_k_max       32
_diffrn_reflns_limit_l_min       -17
_diffrn_reflns_limit_l_max       17
_diffrn_reflns_theta_min         1.97
_diffrn_reflns_theta_max         28.51
_reflns_number_total             8678
_reflns_number_gt                4653
_reflns_threshold_expression     >2sigma(I)

_computing_data_collection       'COLLECT (Nonius, 1999)'
_computing_cell_refinement       'DENZO-SMN (Otwinowski & Minor, 1996)'
_computing_data_reduction        'DENZO-SMN (Otwinowski & Minor, 1996)'
_computing_structure_solution    'SHELXS-97 (Sheldrick, 1990)'
_computing_structure_refinement  'SHELXL-97 (Sheldrick, 1997)'
_computing_molecular_graphics    
;
XSeed (Barbour, 2001)
;
_computing_publication_material  ?

_refine_special_details          
;
Refinement of F^2^ against ALL reflections. The weighted R-factor wR and
goodness of fit S are based on F^2^, conventional R-factors R are based
on F, with F set to zero for negative F^2^. The threshold expression of
F^2^ > 2sigma(F^2^) is used only for calculating R-factors(gt) etc. and is
not relevant to the choice of reflections for refinement. R-factors based
on F^2^ are statistically about twice as large as those based on F, and R-
factors based on ALL data will be even larger.
;

_refine_ls_structure_factor_coef Fsqd
_refine_ls_matrix_type           full
_refine_ls_weighting_scheme      calc
_refine_ls_weighting_details     
'calc w=1/[\s^2^(Fo^2^)+(0.1000P)^2^+0.0000P] where P=(Fo^2^+2Fc^2^)/3'
_atom_sites_solution_primary     direct
_atom_sites_solution_secondary   difmap
_atom_sites_solution_hydrogens   geom
_refine_ls_hydrogen_treatment    mixed
_refine_ls_extinction_method     none
_refine_ls_extinction_coef       ?
_refine_ls_number_reflns         8678
_refine_ls_number_parameters     434
_refine_ls_number_restraints     0
_refine_ls_R_factor_all          0.2098
_refine_ls_R_factor_gt           0.1334
_refine_ls_wR_factor_ref         0.3320
_refine_ls_wR_factor_gt          0.3037
_refine_ls_goodness_of_fit_ref   1.641
_refine_ls_restrained_S_all      1.641
_refine_ls_shift/su_max          0.000
_refine_ls_shift/su_mean         0.000

loop_
_atom_site_label
_atom_site_type_symbol
_atom_site_fract_x
_atom_site_fract_y
_atom_site_fract_z
_atom_site_U_iso_or_equiv
_atom_site_adp_type
_atom_site_occupancy
_atom_site_symmetry_multiplicity
_atom_site_calc_flag
_atom_site_refinement_flags
_atom_site_disorder_assembly
_atom_site_disorder_group
Ag1 Ag 0.18636(7) 0.57068(4) 0.08182(7) 0.0358(3) Uani 1 1 d . . .
Co1 Co 0.27062(11) 0.33760(5) 0.34017(9) 0.0194(4) Uani 1 1 d . . .
S1 S 0.1722(3) 0.69055(14) -0.0885(2) 0.0429(8) Uani 1 1 d . . .
O1 O 0.1806(7) 0.6290(4) -0.0841(5) 0.042(2) Uani 1 1 d . . .
N1 N -0.0032(7) 0.5587(4) 0.0815(7) 0.032(2) Uani 1 1 d . . .
C1 C -0.4422(8) 0.5385(4) 0.1599(8) 0.027(2) Uani 1 1 d . . .
H1 H -0.4023 0.5236 0.2171 0.032 Uiso 1 1 calc R . .
S2 S 0.2276(3) 0.67025(14) 0.2973(2) 0.0502(9) Uani 1 1 d . . .
O2 O 0.2099(10) 0.6538(4) 0.1880(6) 0.063(3) Uani 1 1 d . . .
N2 N 0.3739(7) 0.5603(4) 0.0761(7) 0.030(2) Uani 1 1 d . . .
C2 C -0.4431(9) 0.5792(5) -0.0005(8) 0.028(2) Uani 1 1 d . . .
H2 H -0.4045 0.5936 -0.0568 0.033 Uiso 1 1 calc R . .
S3 S 0.3028(2) 0.65036(13) 0.6859(2) 0.0343(7) Uani 1 1 d . . .
O3 O 0.1519(13) 0.6464(8) 0.6576(11) 0.150(7) Uani 1 1 d . . .
C3 C -0.3782(8) 0.5583(4) 0.0795(7) 0.021(2) Uani 1 1 d . . .
C4 C -0.2495(8) 0.5583(4) 0.0819(7) 0.023(2) Uani 1 1 d . . .
C5 C -0.1823(9) 0.5481(5) 0.1671(8) 0.036(3) Uani 1 1 d . . .
H5 H -0.2202 0.5411 0.2282 0.043 Uiso 1 1 calc R . .
C6 C -0.0639(9) 0.5476(5) 0.1665(8) 0.033(3) Uani 1 1 d . . .
H6 H -0.0215 0.5394 0.2269 0.040 Uiso 1 1 calc R . .
C7 C -0.1845(8) 0.5674(4) -0.0057(7) 0.022(2) Uani 1 1 d . . .
H7 H -0.2255 0.5730 -0.0678 0.026 Uiso 1 1 calc R . .
C8 C -0.0682(8) 0.5683(4) -0.0039(8) 0.026(2) Uani 1 1 d . . .
H8 H -0.0290 0.5759 -0.0642 0.031 Uiso 1 1 calc R . .
C9 C 0.4397(9) 0.5405(5) 0.1565(8) 0.030(3) Uani 1 1 d . . .
H9 H 0.3993 0.5274 0.2130 0.036 Uiso 1 1 calc R . .
C10 C 0.4354(9) 0.5791(5) 0.0010(8) 0.038(3) Uani 1 1 d . . .
H10 H 0.3937 0.5935 -0.0557 0.046 Uiso 1 1 calc R . .
C11 C 0.0605(13) 0.7102(6) -0.0009(10) 0.059(4) Uani 1 1 d . . .
H11A H -0.0154 0.6956 -0.0239 0.089 Uiso 1 1 calc R . .
H11B H 0.0561 0.7502 0.0028 0.089 Uiso 1 1 calc R . .
H11C H 0.0806 0.6954 0.0657 0.089 Uiso 1 1 calc R . .
C12 C 0.2957(14) 0.7163(6) -0.0208(11) 0.068(5) Uani 1 1 d . . .
H12A H 0.2973 0.7014 0.0473 0.102 Uiso 1 1 calc R . .
H12B H 0.2910 0.7563 -0.0177 0.102 Uiso 1 1 calc R . .
H12C H 0.3672 0.7056 -0.0547 0.102 Uiso 1 1 calc R . .
C13 C 0.1125(15) 0.6400(8) 0.3594(12) 0.086(6) Uani 1 1 d . . .
H13A H 0.0382 0.6500 0.3258 0.129 Uiso 1 1 calc R . .
H13B H 0.1127 0.6527 0.4290 0.129 Uiso 1 1 calc R . .
H13C H 0.1217 0.6001 0.3583 0.129 Uiso 1 1 calc R . .
C14 C 0.3393(12) 0.6295(6) 0.3483(10) 0.053(4) Uani 1 1 d . . .
H14A H 0.3265 0.5914 0.3278 0.080 Uiso 1 1 calc R . .
H14B H 0.3394 0.6320 0.4216 0.080 Uiso 1 1 calc R . .
H14C H 0.4148 0.6421 0.3240 0.080 Uiso 1 1 calc R . .
C15 C 0.3294(13) 0.5807(5) 0.7136(10) 0.049(3) Uani 1 1 d . . .
H15A H 0.3180 0.5588 0.6525 0.073 Uiso 1 1 calc R . .
H15B H 0.2749 0.5683 0.7643 0.073 Uiso 1 1 calc R . .
H15C H 0.4100 0.5763 0.7393 0.073 Uiso 1 1 calc R . .
C16 C 0.3598(7) 0.6600(4) 0.5861(6) 0.0152(19) Uiso 1 1 d . . .
H16A H 0.3333 0.6320 0.5380 0.023 Uiso 1 1 calc R . .
H16B H 0.4451 0.6579 0.5952 0.023 Uiso 1 1 calc R . .
H16C H 0.3379 0.6962 0.5605 0.023 Uiso 1 1 calc R . .
C17 C 0.2743(8) 0.3738(4) 0.4806(7) 0.021(2) Uani 1 1 d . . .
H17 H 0.2977 0.3412 0.5365 0.025 Uiso 1 1 calc R . .
C18 C 0.3709(9) 0.3976(4) 0.4070(7) 0.023(2) Uani 1 1 d . . .
H18 H 0.4636 0.3827 0.4104 0.028 Uiso 1 1 calc R . .
C19 C 0.2514(10) 0.2587(4) 0.3849(8) 0.031(3) Uani 1 1 d . . .
H19 H 0.2159 0.2605 0.4623 0.037 Uiso 1 1 calc R . .
C20 C 0.3844(9) 0.2753(4) 0.3650(8) 0.029(3) Uani 1 1 d . . .
H20 H 0.4464 0.2893 0.4263 0.035 Uiso 1 1 calc R . .
B101 B 0.1370(10) 0.3737(5) 0.4235(9) 0.025(3) Uani 1 1 d . . .
H101 H 0.0654 0.3436 0.4376 0.030 Uiso 1 1 calc R . .
B102 B 0.1551(10) 0.4024(6) 0.3032(8) 0.027(3) Uani 1 1 d . . .
H102 H 0.0952 0.3931 0.2376 0.033 Uiso 1 1 calc R . .
B103 B 0.3086(10) 0.4158(5) 0.2900(9) 0.027(3) Uani 1 1 d . . .
H103 H 0.3521 0.4148 0.2157 0.032 Uiso 1 1 calc R . .
B104 B 0.1773(11) 0.4233(5) 0.5204(8) 0.029(3) Uani 1 1 d . . .
H104 H 0.1346 0.4246 0.5949 0.035 Uiso 1 1 calc R . .
B105 B 0.1061(12) 0.4434(5) 0.4067(10) 0.033(3) Uani 1 1 d . . .
H105 H 0.0142 0.4593 0.4077 0.040 Uiso 1 1 calc R . .
B106 B 0.2120(10) 0.4705(5) 0.3242(9) 0.029(3) Uani 1 1 d . . .
H106 H 0.1914 0.5044 0.2702 0.035 Uiso 1 1 calc R . .
B107 B 0.3496(10) 0.4662(5) 0.3875(9) 0.027(3) Uani 1 1 d . . .
H107 H 0.4213 0.4965 0.3753 0.032 Uiso 1 1 calc R . .
B108 B 0.3293(12) 0.4372(5) 0.5084(10) 0.033(3) Uani 1 1 d . . .
H108 H 0.3865 0.4476 0.5752 0.039 Uiso 1 1 calc R . .
B109 B 0.2245(11) 0.4827(6) 0.4554(11) 0.037(3) Uani 1 1 d . . .
H109 H 0.2116 0.5246 0.4870 0.044 Uiso 1 1 calc R . .
B110 B 0.3995(9) 0.3031(5) 0.2511(9) 0.026(3) Uani 1 1 d . . .
H110 H 0.4670 0.3340 0.2301 0.032 Uiso 1 1 calc R . .
B111 B 0.2542(10) 0.3039(5) 0.1939(9) 0.025(3) Uani 1 1 d . . .
H111 H 0.2238 0.3339 0.1353 0.030 Uiso 1 1 calc R . .
B112 B 0.1605(11) 0.2757(5) 0.2889(10) 0.031(3) Uani 1 1 d . . .
H112 H 0.0665 0.2880 0.2943 0.037 Uiso 1 1 calc R . .
B113 B 0.3438(12) 0.2064(6) 0.3682(10) 0.036(3) Uani 1 1 d . . .
H113 H 0.3707 0.1758 0.4269 0.044 Uiso 1 1 calc R . .
B114 B 0.2058(13) 0.2057(5) 0.3126(9) 0.035(3) Uani 1 1 d . . .
H114 H 0.1410 0.1737 0.3339 0.042 Uiso 1 1 calc R . .
B115 B 0.2102(11) 0.2312(5) 0.1887(9) 0.031(3) Uani 1 1 d . . .
H115 H 0.1498 0.2158 0.1275 0.037 Uiso 1 1 calc R . .
B116 B 0.3590(11) 0.2498(5) 0.1667(8) 0.025(3) Uani 1 1 d . . .
H116 H 0.3973 0.2466 0.0906 0.030 Uiso 1 1 calc R . .
B117 B 0.4431(10) 0.2345(6) 0.2783(9) 0.033(3) Uani 1 1 d . . .
H117 H 0.5371 0.2217 0.2776 0.040 Uiso 1 1 calc R . .
B118 B 0.3257(12) 0.1898(6) 0.2386(9) 0.038(3) Uani 1 1 d . . .
H118 H 0.3424 0.1477 0.2095 0.045 Uiso 1 1 calc R . .

loop_
_atom_site_aniso_label
_atom_site_aniso_U_11
_atom_site_aniso_U_22
_atom_site_aniso_U_33
_atom_site_aniso_U_23
_atom_site_aniso_U_13
_atom_site_aniso_U_12
Ag1 0.0196(4) 0.0451(6) 0.0427(6) 0.0006(4) 0.0020(3) -0.0007(4)
Co1 0.0251(7) 0.0170(7) 0.0161(7) 0.0010(6) 0.0001(5) 0.0005(5)
S1 0.061(2) 0.038(2) 0.0299(16) 0.0103(14) 0.0049(14) 0.0017(15)
O1 0.051(5) 0.063(6) 0.013(4) -0.004(4) 0.013(3) 0.001(4)
N1 0.024(5) 0.027(5) 0.045(6) 0.004(4) 0.003(4) 0.001(4)
C1 0.023(5) 0.025(6) 0.033(6) 0.010(5) 0.004(4) -0.001(4)
S2 0.084(3) 0.040(2) 0.0269(16) -0.0075(15) 0.0022(16) 0.0040(18)
O2 0.124(9) 0.052(7) 0.013(4) -0.009(4) 0.005(5) 0.002(6)
N2 0.031(5) 0.023(5) 0.037(5) -0.009(4) 0.016(4) -0.002(4)
C2 0.025(5) 0.040(7) 0.019(5) -0.002(5) 0.002(4) -0.007(5)
S3 0.0323(15) 0.0424(19) 0.0279(15) -0.0020(13) -0.0026(12) 0.0041(13)
O3 0.089(10) 0.27(2) 0.092(10) -0.036(12) 0.007(8) 0.013(12)
C3 0.023(5) 0.015(5) 0.027(6) -0.004(4) 0.008(4) 0.000(4)
C4 0.016(5) 0.029(6) 0.025(6) -0.004(5) -0.004(4) -0.005(4)
C5 0.034(6) 0.048(8) 0.024(6) 0.010(5) -0.005(5) -0.012(5)
C6 0.020(5) 0.047(8) 0.033(6) 0.008(6) -0.004(4) -0.001(5)
C7 0.017(5) 0.027(6) 0.021(5) 0.001(4) 0.005(4) -0.004(4)
C8 0.016(5) 0.038(7) 0.024(6) 0.004(5) 0.001(4) 0.001(4)
C9 0.026(5) 0.038(7) 0.026(6) 0.011(5) 0.003(4) -0.005(5)
C10 0.030(6) 0.066(9) 0.018(6) 0.004(6) -0.014(5) 0.006(6)
C11 0.078(10) 0.066(11) 0.037(7) -0.007(7) 0.032(7) 0.015(8)
C12 0.106(13) 0.039(9) 0.061(10) -0.009(8) 0.026(9) -0.012(8)
C13 0.086(12) 0.118(17) 0.056(10) 0.007(10) 0.036(9) 0.026(11)
C14 0.068(9) 0.046(9) 0.046(8) 0.013(7) 0.007(7) -0.012(7)
C15 0.071(9) 0.024(7) 0.051(8) 0.004(6) 0.011(7) 0.004(6)
C17 0.018(5) 0.028(6) 0.017(5) -0.004(4) -0.007(4) -0.006(4)
C18 0.028(5) 0.020(6) 0.022(5) -0.002(4) -0.009(4) -0.005(4)
C19 0.045(6) 0.009(5) 0.037(6) 0.004(5) -0.006(5) 0.009(5)
C20 0.033(6) 0.030(6) 0.024(6) -0.012(5) -0.007(4) 0.012(5)
B101 0.034(7) 0.019(6) 0.023(6) 0.000(5) -0.004(5) -0.007(5)
B102 0.024(6) 0.043(8) 0.014(6) -0.001(5) -0.001(4) 0.007(5)
B103 0.034(7) 0.017(6) 0.029(7) 0.002(5) 0.005(5) 0.006(5)
B104 0.048(8) 0.031(8) 0.010(6) -0.002(5) 0.016(5) 0.005(6)
B105 0.050(8) 0.016(7) 0.034(8) -0.002(5) 0.011(6) 0.003(6)
B106 0.032(6) 0.020(7) 0.035(7) -0.005(5) 0.001(5) 0.015(5)
B107 0.029(6) 0.026(7) 0.026(6) 0.000(5) 0.009(5) -0.004(5)
B108 0.053(8) 0.021(7) 0.024(7) -0.008(5) -0.010(6) 0.001(6)
B109 0.039(7) 0.023(7) 0.049(8) -0.011(6) -0.001(6) -0.007(6)
B110 0.018(5) 0.030(7) 0.032(7) -0.005(6) 0.006(5) 0.000(5)
B111 0.036(7) 0.019(7) 0.020(6) 0.005(5) -0.011(5) -0.006(5)
B112 0.035(7) 0.018(7) 0.040(8) -0.001(6) 0.007(6) -0.001(5)
B113 0.060(9) 0.023(7) 0.027(7) 0.003(6) 0.012(6) 0.007(6)
B114 0.059(9) 0.021(7) 0.026(7) 0.003(6) 0.007(6) -0.009(6)
B115 0.040(7) 0.027(7) 0.026(7) -0.004(5) -0.007(5) 0.004(6)
B116 0.036(6) 0.025(7) 0.012(6) -0.004(5) -0.005(5) 0.006(5)
B117 0.024(6) 0.043(9) 0.032(7) -0.007(6) -0.013(5) 0.016(6)
B118 0.060(9) 0.029(8) 0.024(7) -0.015(6) -0.004(6) 0.027(7)

_geom_special_details            
;
All esds (except the esd in the dihedral angle between two l.s. planes)
are estimated using the full covariance matrix. The cell esds are taken
into account individually in the estimation of esds in distances, angles
and torsion angles; correlations between esds in cell parameters are only
used when they are defined by crystal symmetry. An approximate (isotropic)
treatment of cell esds is used for estimating esds involving l.s. planes.
;

loop_
_geom_bond_atom_site_label_1
_geom_bond_atom_site_label_2
_geom_bond_distance
_geom_bond_site_symmetry_2
_geom_bond_publ_flag
Ag1 N2 2.161(8) . ?
Ag1 N1 2.187(8) . ?
Ag1 O2 2.487(9) . ?
Co1 C20 2.024(10) . ?
Co1 C19 2.033(10) . ?
Co1 C18 2.050(9) . ?
Co1 C17 2.071(9) . ?
Co1 B112 2.073(13) . ?
Co1 B103 2.076(12) . ?
Co1 B110 2.095(11) . ?
Co1 B101 2.107(12) . ?
Co1 B102 2.112(12) . ?
Co1 B111 2.121(12) . ?
S1 O1 1.510(10) . ?
S1 C12 1.771(16) . ?
S1 C11 1.820(12) . ?
N1 C8 1.362(13) . ?
N1 C6 1.373(14) . ?
C1 C9 1.350(14) 1_455 ?
C1 C3 1.402(13) . ?
S2 O2 1.521(8) . ?
S2 C14 1.742(14) . ?
S2 C13 1.739(16) . ?
N2 C10 1.322(14) . ?
N2 C9 1.381(14) . ?
C2 C3 1.379(14) . ?
C2 C10 1.390(14) 1_455 ?
S3 C16 1.517(9) . ?
S3 O3 1.758(15) . ?
S3 C15 1.768(12) . ?
C3 C4 1.470(13) . ?
C4 C5 1.377(14) . ?
C4 C7 1.420(13) . ?
C5 C6 1.353(15) . ?
C7 C8 1.328(13) . ?
C9 C1 1.350(14) 1_655 ?
C10 C2 1.390(14) 1_655 ?
C17 C18 1.607(14) . ?
C17 B108 1.710(16) . ?
C17 B101 1.725(14) . ?
C17 B104 1.734(15) . ?
C18 B107 1.714(16) . ?
C18 B108 1.741(16) . ?
C18 B103 1.755(15) . ?
C19 C20 1.603(16) . ?
C19 B112 1.679(17) . ?
C19 B113 1.678(16) . ?
C19 B114 1.689(17) . ?
C20 B117 1.681(16) . ?
C20 B110 1.677(16) . ?
C20 B113 1.749(17) . ?
B101 B105 1.755(17) . ?
B101 B102 1.769(16) . ?
B101 B104 1.822(17) . ?
B102 B103 1.798(17) . ?
B102 B105 1.808(17) . ?
B102 B106 1.806(19) . ?
B103 B106 1.801(16) . ?
B103 B107 1.843(17) . ?
B104 B105 1.771(18) . ?
B104 B108 1.782(19) . ?
B104 B109 1.782(18) . ?
B105 B109 1.768(18) . ?
B105 B106 1.785(18) . ?
B106 B107 1.768(17) . ?
B106 B109 1.777(18) . ?
B107 B109 1.760(18) . ?
B107 B108 1.782(18) . ?
B108 B109 1.767(19) . ?
B110 B116 1.775(16) . ?
B110 B117 1.785(18) . ?
B110 B111 1.808(15) . ?
B111 B116 1.829(17) . ?
B111 B112 1.817(17) . ?
B111 B115 1.848(17) . ?
B112 B115 1.826(18) . ?
B112 B114 1.812(18) . ?
B113 B114 1.72(2) 