####################################################################### 
# 
# This file contains crystal structure data downloaded from the 
# Cambridge Structural Database (CSD) hosted by the Cambridge 
# Crystallographic Data Centre (CCDC).
# 
# Full information about CCDC data access policies and citation 
# guidelines are available at http://www.ccdc.cam.ac.uk/access/V1 
# 
# Audit and citation data items may have been added by the CCDC. 
# Please retain this information to preserve the provenance of 
# this file and to allow appropriate attribution of the data. 
# 
#######################################################################

data_compound1
_audit_block_doi                 10.5517/ccx9mwp
_database_code_depnum_ccdc_archive 'CCDC 843413'
loop_
_citation_id
_citation_doi
_citation_year
1 10.1039/C4QI00193A 2015
2 10.1002/chem.201200046 2012
_audit_update_record             
;
2011-09-07 deposited with the CCDC.	2024-07-13 downloaded from the CCDC.
;
#TrackingRef '- compound1.txt'


_audit_creation_method           SHELXL-97
_chemical_name_systematic        
;
?
;
_chemical_name_common            ?
_chemical_melting_point          ?
_chemical_formula_moiety         'C66 H74 Gd2 N20 O47'
_chemical_formula_sum            'C66 H74 Gd2 N20 O47'
_chemical_formula_weight         2213.95

loop_
_atom_type_symbol
_atom_type_description
_atom_type_scat_dispersion_real
_atom_type_scat_dispersion_imag
_atom_type_scat_source
C C 0.0033 0.0016 'International Tables Vol C Tables 4.2.6.8 and 6.1.1.4'
H H 0.0000 0.0000 'International Tables Vol C Tables 4.2.6.8 and 6.1.1.4'
N N 0.0061 0.0033 'International Tables Vol C Tables 4.2.6.8 and 6.1.1.4'
O O 0.0106 0.0060 'International Tables Vol C Tables 4.2.6.8 and 6.1.1.4'
Gd Gd -0.1653 3.9035 'International Tables Vol C Tables 4.2.6.8 and 6.1.1.4'

_symmetry_cell_setting           Monoclinic
_symmetry_space_group_name_H-M   P21/n

loop_
_symmetry_equiv_pos_as_xyz
'x, y, z'
'-x+1/2, y+1/2, -z+1/2'
'-x, -y, -z'
'x-1/2, -y-1/2, z-1/2'

_cell_length_a                   13.103(4)
_cell_length_b                   30.424(6)
_cell_length_c                   23.434(5)
_cell_angle_alpha                90.000
_cell_angle_beta                 101.392(5)
_cell_angle_gamma                90.000
_cell_volume                     9158(4)
_cell_formula_units_Z            4
_cell_measurement_temperature    100(2)
_cell_measurement_reflns_used    999
_cell_measurement_theta_min      2.07
_cell_measurement_theta_max      25.00

_exptl_crystal_description       block
_exptl_crystal_colour            colorless
_exptl_crystal_size_max          0.24
_exptl_crystal_size_mid          0.18
_exptl_crystal_size_min          0.14
_exptl_crystal_density_meas      ?
_exptl_crystal_density_diffrn    1.601
_exptl_crystal_density_method    'not measured'
_exptl_crystal_F_000             4432
_exptl_absorpt_coefficient_mu    1.543
_exptl_absorpt_correction_type   empirical
_exptl_absorpt_correction_T_min  0.7084
_exptl_absorpt_correction_T_max  0.8130
_exptl_absorpt_process_details   'SADABS v2.10(Sheldrick, 2002)'

_exptl_special_details           
;
We have carried out absorption correction using empirical method in the SADABS
v2.10 package. Although the hygrogen atoms of the lattice waters OW1, OW2 and
OW3 could not be located, however its contribution have been given in both
the formula as well as in the formula weight.
;


_diffrn_ambient_temperature      100(2)
_diffrn_radiation_wavelength     0.71073
_diffrn_radiation_type           MoK\a
_diffrn_radiation_source         'fine-focus sealed tube'
_diffrn_radiation_monochromator  graphite
_diffrn_measurement_device_type  'BRUKER SMART APEX'
_diffrn_measurement_method       /w-scans
_diffrn_detector_area_resol_mean ?
_diffrn_standards_number         ?
_diffrn_standards_interval_count ?
_diffrn_standards_interval_time  ?
_diffrn_standards_decay_%        ?
_diffrn_reflns_number            46632
_diffrn_reflns_av_R_equivalents  0.0583
_diffrn_reflns_av_sigmaI/netI    0.0634
_diffrn_reflns_limit_h_min       -15
_diffrn_reflns_limit_h_max       10
_diffrn_reflns_limit_k_min       -36
_diffrn_reflns_limit_k_max       36
_diffrn_reflns_limit_l_min       -23
_diffrn_reflns_limit_l_max       27
_diffrn_reflns_theta_min         2.07
_diffrn_reflns_theta_max         25.00
_reflns_number_total             16077
_reflns_number_gt                12737
_reflns_threshold_expression     >2sigma(I)

_computing_data_collection       'SMART 5.628 (Bruker, 2003)'
_computing_cell_refinement       'SAINT 6.45 ( Bruker, 2003)'
_computing_data_reduction        'SAINT 6.45 ( Bruker, 2003)'
_computing_structure_solution    SIR-97
_computing_structure_refinement  'SHELXL-97 (Sheldrick, 1997)'
_computing_molecular_graphics    'DIAMOND 2.1e'
_computing_publication_material  ?

_refine_special_details          
;
Refinement of F^2^ against ALL reflections. The weighted R-factor wR and
goodness of fit S are based on F^2^, conventional R-factors R are based
on F, with F set to zero for negative F^2^. The threshold expression of
F^2^ > 2sigma(F^2^) is used only for calculating R-factors(gt) etc. and is
not relevant to the choice of reflections for refinement. R-factors based
on F^2^ are statistically about twice as large as those based on F, and R-
factors based on ALL data will be even larger.
;

_refine_ls_structure_factor_coef Fsqd
_refine_ls_matrix_type           full
_refine_ls_weighting_scheme      calc
_refine_ls_weighting_details     
'calc w=1/[\s^2^(Fo^2^)+(0.0698P)^2^+20.0399P] where P=(Fo^2^+2Fc^2^)/3'
_atom_sites_solution_primary     direct
_atom_sites_solution_secondary   difmap
_atom_sites_solution_hydrogens   geom
_refine_ls_hydrogen_treatment    refU
_refine_ls_extinction_method     none
_refine_ls_extinction_coef       ?
_refine_ls_number_reflns         16077
_refine_ls_number_parameters     1232
_refine_ls_number_restraints     0
_refine_ls_R_factor_all          0.0659
_refine_ls_R_factor_gt           0.0502
_refine_ls_wR_factor_ref         0.1387
_refine_ls_wR_factor_gt          0.1256
_refine_ls_goodness_of_fit_ref   1.056
_refine_ls_restrained_S_all      1.056
_refine_ls_shift/su_max          0.002
_refine_ls_shift/su_mean         0.000

loop_
_atom_site_label
_atom_site_type_symbol
_atom_site_fract_x
_atom_site_fract_y
_atom_site_fract_z
_atom_site_U_iso_or_equiv
_atom_site_adp_type
_atom_site_occupancy
_atom_site_symmetry_multiplicity
_atom_site_calc_flag
_atom_site_refinement_flags
_atom_site_disorder_assembly
_atom_site_disorder_group
Gd1 Gd 0.14953(2) 0.230671(8) 0.271487(12) 0.01650(9) Uani 1 1 d . . .
Gd2 Gd -0.15218(2) 0.258308(8) 0.203412(12) 0.01652(9) Uani 1 1 d . . .
O1 O 0.0923(3) 0.22773(12) 0.36266(17) 0.0227(9) Uani 1 1 d . . .
O2 O -0.0434(3) 0.24378(12) 0.29406(17) 0.0203(8) Uani 1 1 d . . .
O3 O -0.4660(3) 0.25868(11) 0.68147(16) 0.0179(8) Uani 1 1 d . . .
O4 O -0.5812(3) 0.22641(13) 0.61350(17) 0.0249(9) Uani 1 1 d . . .
O5 O -0.3639(5) 0.2872(3) 0.3582(3) 0.084(2) Uani 1 1 d . . .
O6 O -0.3633(5) 0.2960(2) 0.4478(2) 0.0632(17) Uani 1 1 d . . .
O7 O -0.1231(4) 0.1756(2) 0.5649(2) 0.0614(16) Uani 1 1 d . . .
O8 O 0.0320(4) 0.1859(2) 0.5542(2) 0.0587(16) Uani 1 1 d . . .
O9 O -0.3022(4) 0.16125(15) 0.4452(2) 0.0439(13) Uani 1 1 d . . .
O10 O -0.4664(4) 0.17538(16) 0.4353(2) 0.0459(13) Uani 1 1 d . . .
O11 O -0.0822(4) 0.2807(2) 0.5741(3) 0.0632(16) Uani 1 1 d . . .
O12 O -0.1818(4) 0.33084(17) 0.5959(3) 0.0586(16) Uani 1 1 d . . .
O13 O 0.1113(3) 0.30693(12) 0.28463(18) 0.0251(9) Uani 1 1 d . . .
O14 O -0.0394(3) 0.32137(11) 0.22301(17) 0.0226(9) Uani 1 1 d . . .
O15 O 0.2524(3) 0.66398(12) 0.18296(17) 0.0244(9) Uani 1 1 d . . .
O16 O 0.2507(3) 0.67867(12) 0.27497(18) 0.0254(9) Uani 1 1 d . . .
O17 O -0.1295(3) 0.46841(13) 0.16616(19) 0.0315(10) Uani 1 1 d . . .
O18 O -0.0619(3) 0.52316(13) 0.2185(2) 0.0389(12) Uani 1 1 d . . .
O19 O 0.3594(4) 0.42344(15) 0.3255(3) 0.0525(15) Uani 1 1 d . . .
O20 O 0.3124(4) 0.49068(16) 0.3279(4) 0.088(3) Uani 1 1 d . . .
O21 O 0.0790(4) 0.50355(14) 0.3604(2) 0.0392(11) Uani 1 1 d . . .
O22 O 0.1308(6) 0.56685(18) 0.3935(2) 0.084(2) Uani 1 1 d . . .
O23 O 0.1810(4) 0.46549(14) 0.1630(2) 0.0396(11) Uani 1 1 d . . .
O24 O 0.1354(4) 0.51979(15) 0.1054(2) 0.0411(12) Uani 1 1 d . . .
O25 O 0.0429(3) 0.16615(11) 0.25259(18) 0.0227(9) Uani 1 1 d . . .
O26 O -0.1198(3) 0.18005(12) 0.20505(18) 0.0236(9) Uani 1 1 d . . .
O27 O -0.2414(3) -0.17612(12) 0.33111(17) 0.0239(9) Uani 1 1 d . . .
O28 O -0.2764(3) -0.18666(12) 0.23549(18) 0.0275(10) Uani 1 1 d . . .
O29 O 0.1226(4) 0.02020(15) 0.3329(2) 0.0441(12) Uani 1 1 d . . .
O30 O 0.0635(4) -0.03295(15) 0.2753(3) 0.0586(16) Uani 1 1 d . . .
O31 O -0.3673(4) 0.06384(15) 0.1744(3) 0.0552(16) Uani 1 1 d . . .
O32 O -0.3260(4) -0.00414(14) 0.1884(3) 0.0589(17) Uani 1 1 d . . .
O33 O -0.1709(4) 0.02350(13) 0.3452(2) 0.0376(11) Uani 1 1 d . . .
O34 O -0.1068(4) -0.02998(16) 0.4018(2) 0.0520(14) Uani 1 1 d . . .
O35 O -0.1039(6) -0.01754(16) 0.1390(3) 0.075(2) Uani 1 1 d . . .
O36 O -0.1420(10) -0.0812(2) 0.1138(3) 0.146(5) Uani 1 1 d . . .
O37 O 0.2981(3) 0.25735(13) 0.33503(19) 0.0276(10) Uani 1 1 d . . .
O38 O 0.2446(4) 0.27460(13) 0.21423(19) 0.0326(11) Uani 1 1 d . . .
O39 O -0.2733(4) 0.22828(14) 0.1258(2) 0.0356(11) Uani 1 1 d . . .
O40 O -0.2863(3) 0.22662(13) 0.2451(2) 0.0295(10) Uani 1 1 d . . .
O41 O -1.3791(4) 0.10723(16) 0.5363(2) 0.0487(13) Uani 1 1 d . . .
O42 O -1.1291(4) 0.13331(16) 0.3505(2) 0.0471(13) Uani 1 1 d . . .
O43 O -0.1608(7) 0.3450(3) 0.4495(5) 0.128(3) Uani 1 1 d . . .
O44 O -0.7632(3) 0.19280(15) 0.48612(19) 0.0357(11) Uani 1 1 d . . .
N1 N -0.3256(4) 0.28208(18) 0.4080(2) 0.0322(12) Uani 1 1 d . . .
N2 N -0.0604(4) 0.19162(19) 0.5387(2) 0.0335(13) Uani 1 1 d . . .
N3 N -0.3751(4) 0.17922(17) 0.4604(2) 0.0321(13) Uani 1 1 d . . .
N4 N -0.1686(4) 0.29550(19) 0.5777(2) 0.0353(13) Uani 1 1 d . . .
N5 N -0.0636(4) 0.48460(15) 0.2048(2) 0.0238(11) Uani 1 1 d . . .
N6 N 0.2933(4) 0.45264(17) 0.3156(3) 0.0395(15) Uani 1 1 d . . .
N7 N 0.1165(5) 0.53953(16) 0.3550(2) 0.0352(13) Uani 1 1 d . . .
N8 N 0.1607(4) 0.50407(15) 0.1541(2) 0.0256(11) Uani 1 1 d . . .
N9 N 0.0607(4) 0.00466(16) 0.2908(3) 0.0314(13) Uani 1 1 d . . .
N10 N -0.3040(4) 0.03469(17) 0.1896(3) 0.0379(14) Uani 1 1 d . . .
N11 N -0.1445(4) -0.01454(17) 0.3539(3) 0.0329(13) Uani 1 1 d . . .
N12 N -0.1348(5) -0.05281(17) 0.1482(2) 0.0386(14) Uani 1 1 d . . .
N13 N 0.3670(4) 0.29008(17) 0.4204(2) 0.0299(12) Uani 1 1 d . . .
N14 N 0.3553(5) 0.3300(2) 0.2045(3) 0.0442(16) Uani 1 1 d . . .
N15 N -0.3530(4) 0.19070(17) 0.0461(2) 0.0358(13) Uani 1 1 d . . .
N16 N -0.3899(4) 0.17315(18) 0.2682(3) 0.0437(15) Uani 1 1 d . . .
N17 N -1.3011(5) 0.0502(2) 0.4981(3) 0.0506(17) Uani 1 1 d . . .
N18 N -1.0091(4) 0.10745(17) 0.4267(3) 0.0385(14) Uani 1 1 d . . .
N19 N -0.0777(7) 0.4085(3) 0.4396(3) 0.070(2) Uani 1 1 d . . .
N20 N -0.6684(4) 0.13351(17) 0.5241(2) 0.0323(12) Uani 1 1 d . . .
C1 C -0.0027(4) 0.23583(16) 0.3466(2) 0.0183(12) Uani 1 1 d . . .
C2 C -0.0700(4) 0.23714(17) 0.3912(3) 0.0204(12) Uani 1 1 d . . .
C3 C -0.1660(4) 0.25757(17) 0.3798(3) 0.0208(12) Uani 1 1 d . . .
H3 H -0.1898 0.2711 0.3441 0.025 Uiso 1 1 calc R . .
C4 C -0.2266(5) 0.25774(19) 0.4220(3) 0.0231(13) Uani 1 1 d . . .
C5 C -0.1963(5) 0.23643(18) 0.4759(3) 0.0247(13) Uani 1 1 d . . .
C6 C -0.0991(5) 0.21663(19) 0.4856(3) 0.0251(13) Uani 1 1 d . . .
C7 C -0.0345(4) 0.21750(17) 0.4450(2) 0.0211(12) Uani 1 1 d . . .
H7 H 0.0316 0.2051 0.4538 0.025 Uiso 1 1 calc R . .
C8 C -0.2672(5) 0.23548(19) 0.5191(3) 0.0242(13) Uani 1 1 d . . .
C9 C -0.3546(5) 0.20884(19) 0.5108(3) 0.0256(13) Uani 1 1 d . . .
C10 C -0.4277(5) 0.21018(18) 0.5460(2) 0.0237(13) Uani 1 1 d . . .
H10 H -0.4858 0.1920 0.5386 0.028 Uiso 1 1 calc R . .
C11 C -0.4127(4) 0.23931(17) 0.5929(2) 0.0199(12) Uani 1 1 d . . .
C12 C -0.3285(5) 0.26683(18) 0.6023(3) 0.0254(13) Uani 1 1 d . . .
H12 H -0.3194 0.2869 0.6328 0.031 Uiso 1 1 calc R . .
C13 C -0.2567(5) 0.26464(19) 0.5660(3) 0.0269(14) Uani 1 1 d . . .
C14 C -0.4928(4) 0.24132(16) 0.6317(2) 0.0186(12) Uani 1 1 d . . .
C15 C 0.0439(4) 0.33192(17) 0.2564(2) 0.0187(12) Uani 1 1 d . . .
C16 C 0.0675(4) 0.38084(17) 0.2612(2) 0.0199(12) Uani 1 1 d . . .
C17 C -0.0067(5) 0.41082(17) 0.2343(2) 0.0217(12) Uani 1 1 d . . .
H17 H -0.0720 0.4013 0.2153 0.026 Uiso 1 1 calc R . .
C18 C 0.0178(4) 0.45498(17) 0.2362(3) 0.0202(12) Uani 1 1 d . . .
C19 C 0.1138(5) 0.47167(17) 0.2628(3) 0.0238(13) Uani 1 1 d . . .
C20 C 0.1860(5) 0.43998(18) 0.2893(3) 0.0256(13) Uani 1 1 d . . .
C21 C 0.1627(4) 0.39523(18) 0.2892(3) 0.0231(13) Uani 1 1 d . . .
H21 H 0.2119 0.3754 0.3082 0.028 Uiso 1 1 calc R . .
C22 C 0.1419(4) 0.51901(17) 0.2554(3) 0.0209(12) Uani 1 1 d . . .
C23 C 0.1443(4) 0.55128(18) 0.2991(3) 0.0233(13) Uani 1 1 d . . .
C24 C 0.1723(4) 0.59413(18) 0.2918(3) 0.0237(13) Uani 1 1 d . . .
H24 H 0.1746 0.6143 0.3219 0.028 Uiso 1 1 calc R . .
C25 C 0.1970(4) 0.60735(17) 0.2397(2) 0.0196(12) Uani 1 1 d . . .
C26 C 0.1903(4) 0.57756(18) 0.1947(3) 0.0220(12) Uani 1 1 d . . .
H26 H 0.2034 0.5864 0.1589 0.026 Uiso 1 1 calc R . .
C27 C 0.1640(4) 0.53413(18) 0.2035(3) 0.0210(12) Uani 1 1 d . . .
C28 C 0.2342(4) 0.65317(17) 0.2319(3) 0.0211(13) Uani 1 1 d . . .
C29 C -0.0473(5) 0.15556(17) 0.2296(3) 0.0224(13) Uani 1 1 d . . .
C30 C -0.0733(4) 0.10665(18) 0.2305(3) 0.0214(12) Uani 1 1 d . . .
C31 C 0.0022(5) 0.07764(17) 0.2568(3) 0.0240(13) Uani 1 1 d . . .
H31 H 0.0692 0.0875 0.2720 0.029 Uiso 1 1 calc R . .
C32 C -0.0225(5) 0.03356(18) 0.2604(3) 0.0251(13) Uani 1 1 d . . .
C33 C -0.1217(4) 0.01642(17) 0.2390(3) 0.0216(12) Uani 1 1 d . . .
C34 C -0.1950(4) 0.04753(18) 0.2137(3) 0.0258(13) Uani 1 1 d . . .
C35 C -0.1718(5) 0.09185(19) 0.2091(3) 0.0266(14) Uani 1 1 d . . .
H35 H -0.2232 0.1113 0.1916 0.032 Uiso 1 1 calc R . .
C36 C -0.1461(5) -0.03066(18) 0.2491(3) 0.0247(13) Uani 1 1 d . . .
C37 C -0.1584(4) -0.04528(18) 0.3033(3) 0.0239(13) Uani 1 1 d . . .
C38 C -0.1833(4) -0.08811(18) 0.3146(3) 0.0246(13) Uani 1 1 d . . .
H38 H -0.1876 -0.0965 0.3522 0.029 Uiso 1 1 calc R . .
C39 C -0.2017(4) -0.11838(17) 0.2699(3) 0.0218(13) Uani 1 1 d . . .
C40 C -0.1857(5) -0.10609(18) 0.2152(3) 0.0264(13) Uani 1 1 d . . .
H40 H -0.1953 -0.1263 0.1849 0.032 Uiso 1 1 calc R . .
C41 C -0.1554(5) -0.06369(19) 0.2063(3) 0.0282(14) Uani 1 1 d . . .
C42 C -0.2418(4) -0.16374(17) 0.2794(3) 0.0209(13) Uani 1 1 d . . .
C43 C 0.3224(5) 0.2571(2) 0.3888(3) 0.0297(15) Uani 1 1 d . . .
H43 H 0.3080 0.2318 0.4081 0.036 Uiso 1 1 calc R . .
C44 C 0.3888(5) 0.3311(2) 0.3926(3) 0.0374(16) Uani 1 1 d . . .
H44A H 0.3703 0.3279 0.3511 0.056 Uiso 1 1 calc R . .
H44B H 0.4617 0.3378 0.4036 0.056 Uiso 1 1 calc R . .
H44C H 0.3489 0.3545 0.4048 0.056 Uiso 1 1 calc R . .
C45 C 0.3921(6) 0.2886(3) 0.4837(3) 0.0426(17) Uani 1 1 d . . .
H45A H 0.3745 0.2602 0.4968 0.064 Uiso 1 1 calc R . .
H45B H 0.3531 0.3108 0.4992 0.064 Uiso 1 1 calc R . .
H45C H 0.4652 0.2938 0.4969 0.064 Uiso 1 1 calc R . .
C46 C 0.3256(6) 0.2934(3) 0.2232(3) 0.049(2) Uani 1 1 d . . .
H46 H 0.3778 0.2787 0.2489 0.058 Uiso 1 1 calc R . .
C47 C 0.2706(7) 0.3567(3) 0.1683(4) 0.067(3) Uani 1 1 d . . .
H47A H 0.2710 0.3522 0.1278 0.100 Uiso 1 1 calc R . .
H47B H 0.2818 0.3873 0.1776 0.100 Uiso 1 1 calc R . .
H47C H 0.2045 0.3478 0.1763 0.100 Uiso 1 1 calc R . .
C48 C 0.4508(10) 0.3494(4) 0.2146(5) 0.119(6) Uani 1 1 d . . .
H48A H 0.5025 0.3285 0.2319 0.179 Uiso 1 1 calc R . .
H48B H 0.4510 0.3738 0.2406 0.179 Uiso 1 1 calc R . .
H48C H 0.4662 0.3597 0.1785 0.179 Uiso 1 1 calc R . .
C49 C -0.3043(5) 0.2258(2) 0.0727(3) 0.0327(15) Uani 1 1 d . . .
H49 H -0.2933 0.2497 0.0500 0.039 Uiso 1 1 calc R . .
C50 C -0.3759(6) 0.1532(2) 0.0800(4) 0.053(2) Uani 1 1 d . . .
H50A H -0.3347 0.1285 0.0726 0.080 Uiso 1 1 calc R . .
H50B H -0.4484 0.1459 0.0690 0.080 Uiso 1 1 calc R . .
H50C H -0.3596 0.1604 0.1206 0.080 Uiso 1 1 calc R . .
C51 C -0.3842(6) 0.1894(3) -0.0171(3) 0.050(2) Uani 1 1 d . . .
H51A H -0.3704 0.2173 -0.0330 0.074 Uiso 1 1 calc R . .
H51B H -0.4572 0.1830 -0.0277 0.074 Uiso 1 1 calc R . .
H51C H -0.3454 0.1669 -0.0323 0.074 Uiso 1 1 calc R . .
C52 C -0.3001(5) 0.1913(2) 0.2685(3) 0.0284(14) Uani 1 1 d . . .
H52 H -0.2413 0.1765 0.2879 0.034 Uiso 1 1 calc R . .
C53 C -0.4018(6) 0.1319(2) 0.2978(3) 0.0436(18) Uani 1 1 d . . .
H53A H -0.3344 0.1209 0.3157 0.065 Uiso 1 1 calc R . .
H53B H -0.4364 0.1109 0.2700 0.065 Uiso 1 1 calc R . .
H53C H -0.4424 0.1368 0.3271 0.065 Uiso 1 1 calc R . .
C54 C -0.4831(8) 0.1929(5) 0.2356(9) 0.201(11) Uani 1 1 d . . .
H54A H -0.4649 0.2172 0.2134 0.201 Uiso 1 1 calc R . .
H54B H -0.5255 0.2032 0.2619 0.201 Uiso 1 1 calc R . .
H54C H -0.5212 0.1715 0.2097 0.201 Uiso 1 1 calc R . .
C55 C -1.3097(6) 0.0798(2) 0.5398(3) 0.0444(18) Uani 1 1 d . . .
H55 H -1.2591 0.0793 0.5737 0.053 Uiso 1 1 calc R . .
C56 C -1.3757(7) 0.0487(4) 0.4444(5) 0.090(4) Uani 1 1 d . . .
H56A H -1.4216 0.0242 0.4450 0.105 Uiso 1 1 calc R . .
H56B H -1.3400 0.0453 0.4126 0.105 Uiso 1 1 calc R . .
H56C H -1.4153 0.0754 0.4396 0.105 Uiso 1 1 calc R . .
C57 C -1.2221(8) 0.0165(3) 0.5088(4) 0.070(3) Uani 1 1 d . . .
H57A H -1.1795 0.0206 0.5467 0.105 Uiso 1 1 calc R . .
H57B H -1.1797 0.0183 0.4798 0.105 Uiso 1 1 calc R . .
H57C H -1.2548 -0.0119 0.5068 0.105 Uiso 1 1 calc R . .
C58 C -1.1057(6) 0.1155(2) 0.3978(3) 0.0408(18) Uani 1 1 d . . .
H58 H -1.1600 0.1067 0.4154 0.049 Uiso 1 1 calc R . .
C59 C -0.9897(9) 0.0850(3) 0.4821(4) 0.0