####################################################################### 
# 
# This file contains crystal structure data downloaded from the 
# Cambridge Structural Database (CSD) hosted by the Cambridge 
# Crystallographic Data Centre (CCDC).
# 
# Full information about CCDC data access policies and citation 
# guidelines are available at http://www.ccdc.cam.ac.uk/access/V1 
# 
# Audit and citation data items may have been added by the CCDC. 
# Please retain this information to preserve the provenance of 
# this file and to allow appropriate attribution of the data. 
# 
#######################################################################

data_compond2
_audit_block_doi                 10.5517/ccx9mxq
_database_code_depnum_ccdc_archive 'CCDC 843414'
loop_
_citation_id
_citation_doi
_citation_year
1 10.1002/chem.201200046 2012
_audit_update_record             
;
2011-09-07 deposited with the CCDC.	2024-07-13 downloaded from the CCDC.
;
#TrackingRef 'compound2.txt'


_audit_creation_method           SHELXL-97
_chemical_name_systematic        
;
?
;
_chemical_name_common            ?
_chemical_melting_point          ?
_chemical_formula_moiety         'C68 H52 Gd2 N16 O45'
_chemical_formula_sum            'C68 H52 Gd2 N16 O45'
_chemical_formula_weight         2127.76

loop_
_atom_type_symbol
_atom_type_description
_atom_type_scat_dispersion_real
_atom_type_scat_dispersion_imag
_atom_type_scat_source
C C 0.0033 0.0016 'International Tables Vol C Tables 4.2.6.8 and 6.1.1.4'
H H 0.0000 0.0000 'International Tables Vol C Tables 4.2.6.8 and 6.1.1.4'
N N 0.0061 0.0033 'International Tables Vol C Tables 4.2.6.8 and 6.1.1.4'
O O 0.0106 0.0060 'International Tables Vol C Tables 4.2.6.8 and 6.1.1.4'
Gd Gd -0.1653 3.9035 'International Tables Vol C Tables 4.2.6.8 and 6.1.1.4'

_symmetry_cell_setting           Monoclinic
_symmetry_space_group_name_H-M   C2/c

loop_
_symmetry_equiv_pos_as_xyz
'x, y, z'
'-x, y, -z+1/2'
'x+1/2, y+1/2, z'
'-x+1/2, y+1/2, -z+1/2'
'-x, -y, -z'
'x, -y, z-1/2'
'-x+1/2, -y+1/2, -z'
'x+1/2, -y+1/2, z-1/2'

_cell_length_a                   24.428(7)
_cell_length_b                   30.251(7)
_cell_length_c                   13.356(3)
_cell_angle_alpha                90.00
_cell_angle_beta                 96.131(6)
_cell_angle_gamma                90.00
_cell_volume                     9813(4)
_cell_formula_units_Z            4
_cell_measurement_temperature    100(2)
_cell_measurement_reflns_used    999
_cell_measurement_theta_min      1.94
_cell_measurement_theta_max      25.00

_exptl_crystal_description       block
_exptl_crystal_colour            colorless
_exptl_crystal_size_max          0.22
_exptl_crystal_size_mid          0.16
_exptl_crystal_size_min          0.12
_exptl_crystal_density_meas      ?
_exptl_crystal_density_diffrn    1.440
_exptl_crystal_density_method    'not measured'
_exptl_crystal_F_000             4240
_exptl_absorpt_coefficient_mu    1.434
_exptl_absorpt_correction_type   empirical
_exptl_absorpt_correction_T_min  0.7432
_exptl_absorpt_correction_T_max  0.8467
_exptl_absorpt_process_details   SADABS

_exptl_special_details           
;
?
;

_diffrn_ambient_temperature      100(2)
_diffrn_radiation_wavelength     0.71073
_diffrn_radiation_type           MoK\a
_diffrn_radiation_source         'fine-focus sealed tube'
_diffrn_radiation_monochromator  graphite
_diffrn_measurement_device_type  'BRUKER SMART APEX'
_diffrn_measurement_method       /w-scans
_diffrn_detector_area_resol_mean ?
_diffrn_standards_number         ?
_diffrn_standards_interval_count ?
_diffrn_standards_interval_time  ?
_diffrn_standards_decay_%        ?
_diffrn_reflns_number            23559
_diffrn_reflns_av_R_equivalents  0.1170
_diffrn_reflns_av_sigmaI/netI    0.1471
_diffrn_reflns_limit_h_min       -24
_diffrn_reflns_limit_h_max       29
_diffrn_reflns_limit_k_min       -35
_diffrn_reflns_limit_k_max       34
_diffrn_reflns_limit_l_min       -15
_diffrn_reflns_limit_l_max       14
_diffrn_reflns_theta_min         1.94
_diffrn_reflns_theta_max         25.00
_reflns_number_total             8569
_reflns_number_gt                4392
_reflns_threshold_expression     >2sigma(I)

_computing_data_collection       'SMART 5.628 (Bruker, 2003)'
_computing_cell_refinement       'SAINT 6.45 ( Bruker, 2003)'
_computing_data_reduction        'SAINT 6.45 ( Bruker, 2003)'
_computing_structure_solution    SIR-97
_computing_structure_refinement  'SHELXL-97 (Sheldrick, 1997)'
_computing_molecular_graphics    'DIAMOND 2.1e'
_computing_publication_material  ?

_refine_special_details          
;
Refinement of F^2^ against ALL reflections. The weighted R-factor wR and
goodness of fit S are based on F^2^, conventional R-factors R are based
on F, with F set to zero for negative F^2^. The threshold expression of
F^2^ > 2sigma(F^2^) is used only for calculating R-factors(gt) etc. and is
not relevant to the choice of reflections for refinement. R-factors based
on F^2^ are statistically about twice as large as those based on F, and R-
factors based on ALL data will be even larger.
;

_refine_ls_structure_factor_coef Fsqd
_refine_ls_matrix_type           full
_refine_ls_weighting_scheme      calc
_refine_ls_weighting_details     
'calc w=1/[\s^2^(Fo^2^)+(0.1605P)^2^+0.0000P] where P=(Fo^2^+2Fc^2^)/3'
_atom_sites_solution_primary     direct
_atom_sites_solution_secondary   difmap
_atom_sites_solution_hydrogens   geom
_refine_ls_hydrogen_treatment    refU
_refine_ls_extinction_method     none
_refine_ls_extinction_coef       ?
_refine_ls_number_reflns         8569
_refine_ls_number_parameters     555
_refine_ls_number_restraints     40
_refine_ls_R_factor_all          0.1738
_refine_ls_R_factor_gt           0.0905
_refine_ls_wR_factor_ref         0.2866
_refine_ls_wR_factor_gt          0.2307
_refine_ls_goodness_of_fit_ref   1.012
_refine_ls_restrained_S_all      1.017
_refine_ls_shift/su_max          0.000
_refine_ls_shift/su_mean         0.000

loop_
_atom_site_label
_atom_site_type_symbol
_atom_site_fract_x
_atom_site_fract_y
_atom_site_fract_z
_atom_site_U_iso_or_equiv
_atom_site_adp_type
_atom_site_occupancy
_atom_site_symmetry_multiplicity
_atom_site_calc_flag
_atom_site_refinement_flags
_atom_site_disorder_assembly
_atom_site_disorder_group
Gd1 Gd 0.77698(3) 0.761765(18) 0.64753(5) 0.0461(3) Uani 1 1 d . . .
O1 O 0.7754(4) 0.6857(3) 0.6084(7) 0.060(3) Uani 1 1 d . . .
O2 O 0.7296(4) 0.6728(2) 0.4555(7) 0.051(2) Uani 1 1 d . . .
O3 O 0.7714(5) 0.3189(3) 0.7612(8) 0.070(3) Uani 1 1 d . . .
O4 O 0.6813(5) 0.3231(3) 0.7512(8) 0.070(3) Uani 1 1 d . . .
O5 O 0.7991(7) 0.5671(5) 0.8429(10) 0.128(6) Uani 1 1 d . . .
O6 O 0.7913(9) 0.5024(4) 0.8038(12) 0.169(9) Uani 1 1 d . . .
O7 O 0.6576(8) 0.5282(5) 0.3808(12) 0.124(6) Uani 1 1 d . . .
O8 O 0.6974(8) 0.4720(3) 0.4446(9) 0.127(6) Uani 1 1 d . . .
O9 O 0.8378(7) 0.4933(4) 0.5624(14) 0.138(7) Uani 1 1 d . . .
O10 O 0.8651(7) 0.4280(5) 0.5796(13) 0.126(6) Uani 1 1 d . . .
O11 O 0.6507(6) 0.5251(4) 0.6855(13) 0.122(6) Uani 1 1 d . . .
O12 O 0.5978(7) 0.4680(5) 0.6683(13) 0.120(5) Uani 1 1 d . . .
O13 O 0.6947(4) 0.7544(3) 0.5403(7) 0.051(2) Uani 1 1 d . . .
O14 O 0.6325(4) 0.7350(3) 0.4178(8) 0.057(2) Uani 1 1 d . . .
O15 O 0.5574(13) 0.7936(13) 0.890(2) 0.42(3) Uani 1 1 d D . .
O16 O 0.6200(10) 0.8191(9) 0.8410(17) 0.266(18) Uani 1 1 d D . .
O17 O 0.4414(7) 0.6807(5) 0.6618(13) 0.130(6) Uani 1 1 d . . .
O18 O 0.4521(8) 0.6915(8) 0.5101(16) 0.183(10) Uani 1 1 d . . .
O19 O 0.7212(5) 0.7281(4) 0.7644(10) 0.090(4) Uani 1 1 d D . .
O20 O 0.8365(6) 0.7268(3) 0.7725(9) 0.078(3) Uani 1 1 d D . .
O21 O 0.563(3) 0.611(2) 0.299(4) 0.87(9) Uiso 1 1 d DU . .
N1 N 0.7880(8) 0.5401(4) 0.7795(11) 0.088(5) Uani 1 1 d . . .
N2 N 0.6948(7) 0.5093(4) 0.4427(11) 0.077(4) Uani 1 1 d . . .
N3 N 0.8336(7) 0.4564(4) 0.5929(12) 0.085(5) Uani 1 1 d . . .
N4 N 0.6441(8) 0.4855(5) 0.6716(12) 0.083(5) Uani 1 1 d . . .
N5 N 0.5788(7) 0.7986(6) 0.8163(12) 0.096(5) Uani 1 1 d D . .
N6 N 0.4671(7) 0.6960(7) 0.6003(17) 0.117(7) Uani 1 1 d . . .
N7 N 0.6982(8) 0.6812(6) 0.8905(14) 0.132(8) Uani 1 1 d D . .
N8 N 0.9135(12) 0.6955(9) 0.8533(18) 0.211(15) Uani 1 1 d D . .
C1 C 0.7530(7) 0.6618(4) 0.5419(13) 0.056(4) Uani 1 1 d . . .
C2 C 0.7507(7) 0.6126(4) 0.5625(10) 0.055(4) Uani 1 1 d . . .
C3 C 0.7702(6) 0.5966(4) 0.6556(10) 0.055(4) Uani 1 1 d . . .
H3 H 0.7856 0.6163 0.7041 0.066 Uiso 1 1 calc R . .
C4 C 0.7678(7) 0.5533(4) 0.6796(11) 0.059(4) Uani 1 1 d . . .
C5 C 0.7452(7) 0.5220(4) 0.6114(10) 0.055(4) Uani 1 1 d . . .
C6 C 0.7241(7) 0.5387(4) 0.5196(11) 0.059(4) Uani 1 1 d . . .
C7 C 0.7255(7) 0.5838(4) 0.4926(11) 0.055(4) Uani 1 1 d . . .
H7 H 0.7100 0.5936 0.4299 0.066 Uiso 1 1 calc R . .
C8 C 0.7397(7) 0.4732(4) 0.6352(11) 0.060(4) Uani 1 1 d . . .
C9 C 0.7817(7) 0.4426(4) 0.6322(11) 0.060(4) Uani 1 1 d . . .
C10 C 0.7779(7) 0.4000(4) 0.6625(10) 0.063(4) Uani 1 1 d . . .
H10 H 0.8074 0.3808 0.6598 0.075 Uiso 1 1 calc R . .
C11 C 0.7302(6) 0.3857(4) 0.6970(9) 0.047(4) Uani 1 1 d . . .
C12 C 0.6866(6) 0.4132(4) 0.6962(10) 0.050(4) Uani 1 1 d . . .
H12 H 0.6534 0.4029 0.7153 0.060 Uiso 1 1 calc R . .
C13 C 0.6913(6) 0.4569(4) 0.6668(11) 0.056(4) Uani 1 1 d . . .
C14 C 0.7268(9) 0.3388(5) 0.7374(11) 0.061(4) Uani 1 1 d . . .
C15 C 0.6463(7) 0.7452(4) 0.5046(12) 0.051(4) Uani 1 1 d . . .
C16 C 0.6038(6) 0.7456(4) 0.5795(11) 0.049(3) Uani 1 1 d . . .
C17 C 0.6103(6) 0.7711(5) 0.6643(11) 0.056(4) Uani 1 1 d . . .
H17 H 0.6418 0.7884 0.6777 0.067 Uiso 1 1 calc R . .
C18 C 0.5702(6) 0.7715(5) 0.7306(11) 0.054(4) Uani 1 1 d . . .
C19 C 0.5231(7) 0.7462(6) 0.7152(14) 0.075(5) Uani 1 1 d . . .
C20 C 0.5149(7) 0.7228(5) 0.6240(12) 0.065(4) Uani 1 1 d . . .
C21 C 0.5541(7) 0.7239(5) 0.5558(12) 0.070(5) Uani 1 1 d . . .
H21 H 0.5468 0.7101 0.4936 0.083 Uiso 1 1 calc R . .
C22 C 0.7106(10) 0.6933(6) 0.7946(17) 0.126(9) Uani 1 1 d D . .
H22 H 0.7104 0.6703 0.7483 0.152 Uiso 1 1 calc R . .
C23 C 0.6872(13) 0.6358(7) 0.911(2) 0.174(13) Uani 1 1 d D . .
H23A H 0.6587 0.6250 0.8618 0.262 Uiso 1 1 calc R . .
H23B H 0.6755 0.6332 0.9769 0.262 Uiso 1 1 calc R . .
H23C H 0.7201 0.6187 0.9073 0.262 Uiso 1 1 calc R . .
C24 C 0.6920(17) 0.7113(12) 0.975(3) 0.25(2) Uani 1 1 d D . .
H24A H 0.6538 0.7135 0.9849 0.381 Uiso 1 1 calc R . .
H24B H 0.7057 0.7401 0.9593 0.381 Uiso 1 1 calc R . .
H24C H 0.7126 0.7002 1.0346 0.381 Uiso 1 1 calc R . .
C25 C 0.8855(9) 0.7273(12) 0.789(2) 0.24(3) Uani 1 1 d D . .
H25 H 0.9056 0.7487 0.7589 0.283 Uiso 1 1 calc R . .
C26 C 0.971(2) 0.680(4) 0.849(5) 0.82(14) Uani 1 1 d D . .
H26A H 0.9962 0.7031 0.8745 1.224 Uiso 1 1 calc R . .
H26B H 0.9769 0.6740 0.7802 1.224 Uiso 1 1 calc R . .
H26C H 0.9777 0.6541 0.8888 1.224 Uiso 1 1 calc R . .
C27 C 0.8901(19) 0.6529(11) 0.881(4) 0.32(3) Uani 1 1 d D . .
H27A H 0.8700 0.6398 0.8231 0.481 Uiso 1 1 calc R . .
H27B H 0.8658 0.6577 0.9322 0.481 Uiso 1 1 calc R . .
H27C H 0.9194 0.6334 0.9070 0.481 Uiso 1 1 calc R . .
C28 C 0.600(2) 0.6249(19) 0.356(3) 0.48(5) Uiso 1 1 d DU . .
H28 H 0.6300 0.6391 0.3329 0.579 Uiso 1 1 calc R . .
C29 C 0.5964(17) 0.6193(12) 0.459(2) 0.36(3) Uiso 1 1 d DU . .
C30 C 0.630(2) 0.635(2) 0.537(3) 0.82(12) Uiso 1 1 d DU . .
H30 H 0.6604 0.6519 0.5252 0.979 Uiso 1 1 calc R . .
C31 C 0.6197(13) 0.6271(11) 0.633(2) 0.178(12) Uiso 1 1 d DU . .
H31 H 0.6421 0.6385 0.6881 0.213 Uiso 1 1 calc R . .
C32 C 0.5755(19) 0.6017(17) 0.646(3) 0.57(7) Uiso 1 1 d DU . .
H32 H 0.5680 0.5950 0.7111 0.682 Uiso 1 1 calc R . .
C33 C 0.5415(17) 0.5854(15) 0.567(4) 0.35(3) Uiso 1 1 d DU . .
H33 H 0.5115 0.5681 0.5796 0.426 Uiso 1 1 calc R . .
C34 C 0.5509(18) 0.5941(13) 0.471(4) 0.72(10) Uiso 1 1 d DU . .
H34 H 0.5279 0.5836 0.4167 0.866 Uiso 1 1 calc R . .
OW1 O 0.5000 0.697(2) 0.2500 0.38(3) Uani 1 2 d SD . .
OW2 O 0.597(2) 0.883(2) 0.560(5) 0.69(6) Uani 1 1 d . . .

loop_
_atom_site_aniso_label
_atom_site_aniso_U_11
_atom_site_aniso_U_22
_atom_site_aniso_U_33
_atom_site_aniso_U_23
_atom_site_aniso_U_13
_atom_site_aniso_U_12
Gd1 0.0727(6) 0.0139(3) 0.0564(4) -0.0026(3) 0.0284(3) -0.0022(3)
O1 0.112(9) 0.016(4) 0.062(6) -0.005(4) 0.016(5) 0.007(5)
O2 0.087(8) 0.009(4) 0.063(6) 0.005(4) 0.030(5) -0.005(4)
O3 0.092(9) 0.038(5) 0.090(7) 0.038(5) 0.063(6) 0.018(6)
O4 0.086(9) 0.027(5) 0.097(8) 0.013(5) 0.012(7) -0.010(5)
O5 0.219(19) 0.075(10) 0.076(9) 0.016(8) -0.046(10) -0.029(10)
O6 0.31(3) 0.042(8) 0.128(13) 0.006(8) -0.072(14) 0.018(12)
O7 0.169(17) 0.080(10) 0.125(12) -0.007(9) 0.021(11) -0.057(11)
O8 0.28(2) 0.023(6) 0.079(8) -0.001(5) 0.002(10) -0.036(8)
O9 0.152(14) 0.037(7) 0.248(19) 0.022(9) 0.132(13) 0.000(8)
O10 0.134(14) 0.065(9) 0.193(15) 0.037(10) 0.085(11) 0.021(9)
O11 0.138(13) 0.032(7) 0.210(16) 0.041(8) 0.073(11) 0.024(7)
O12 0.088(12) 0.074(10) 0.197(16) 0.018(10) 0.004(11) 0.017(8)
O13 0.058(7) 0.027(5) 0.075(6) -0.015(4) 0.035(5) 0.001(4)
O14 0.059(7) 0.049(6) 0.065(6) -0.012(5) 0.012(5) 0.002(5)
O15 0.28(3) 0.70(7) 0.32(3) -0.38(5) 0.22(3) -0.31(4)
O16 0.33(3) 0.34(3) 0.20(2) -0.20(3) 0.19(2) -0.17(3)
O17 0.130(14) 0.123(13) 0.150(13) -0.043(11) 0.072(11) -0.068(11)
O18 0.109(15) 0.27(3) 0.172(18) -0.080(18) 0.041(12) -0.095(15)
O19 0.100(10) 0.052(7) 0.129(10) 0.032(7) 0.072(8) 0.000(6)
O20 0.111(11) 0.039(6) 0.086(8) 0.003(5) 0.013(7) 0.017(6)
N1 0.158(16) 0.027(7) 0.073(10) 0.003(7) -0.018(9) -0.012(8)
N2 0.134(15) 0.031(8) 0.066(9) 0.008(7) 0.007(9) -0.006(8)
N3 0.109(13) 0.034(8) 0.123(12) 0.013(8) 0.067(10) 0.020(8)
N4 0.095(14) 0.053(10) 0.103(11) 0.027(8) 0.019(10) 0.024(9)
N5 0.082(12) 0.121(14) 0.092(11) -0.043(10) 0.044(9) -0.029(10)
N6 0.062(12) 0.167(19) 0.126(16) -0.062(15) 0.034(11) -0.050(12)
N7 0.109(15) 0.127(17) 0.165(18) 0.086(16) 0.032(13) -0.016(12)
N8 0.27(4) 0.23(3) 0.15(2) 0.04(2) 0.06(2) 0.14(3)
C1 0.085(12) 0.016(6) 0.073(10) -0.004(7) 0.036(9) 0.006(7)
C2 0.087(12) 0.036(8) 0.044(8) -0.002(6) 0.018(7) 0.007(7)
C3 0.084(12) 0.031(7) 0.048(8) -0.011(6) 0.003(7) -0.005(7)
C4 0.085(12) 0.030(7) 0.064(9) 0.004(7) 0.011(8) -0.007(7)
C5 0.107(13) 0.019(6) 0.041(7) 0.006(6) 0.014(8) -0.002(7)
C6 0.103(13) 0.016(6) 0.064(9) -0.003(6) 0.031(9) -0.005(7)
C7 0.099(12) 0.010(6) 0.059(9) -0.003(6) 0.021(8) -0.011(7)
C8 0.097(14) 0.022(7) 0.063(9) 0.003(6) 0.014(8) -0.012(8)
C9 0.097(13) 0.020(7) 0.071(10) 0.006(6) 0.044(9) -0.003(7)
C10 0.104(13) 0.023(7) 0.067(10) 0.007(6) 0.033(9) 0.006(8)
C11 0.084(12) 0.020(6) 0.040(7) 0.001(5) 0.016(7) 0.002(7)
C12 0.064(10) 0.032(7) 0.055(8) 0.008(6) 0.011(7) 0.002(7)
C13 0.064(11) 0.027(7) 0.082(10) 0.010(7) 0.028(8) 0.015(7)
C14 0.103(15) 0.029(8) 0.052(9) 0.003(6) 0.010(9) 0.008(9)
C15 0.061(11) 0.023(7) 0.067(10) 0.004(6) -0.002(8) -0.005(7)
C16 0.051(9) 0.036(7) 0.064(9) -0.007(6) 0.025(7) -0.012(6)
C17 0.051(10) 0.054(9) 0.066(9) 0.002(7) 0.017(7) -0.009(7)
C18 0.052(10) 0.049(9) 0.065(9) -0.019(7) 0.025(7) -0.010(7)
C19 0.069(12) 0.069(11) 0.094(13) -0.002(9) 0.048(10) -0.001(9)
C20 0.056(11) 0.061(10) 0.083(11) 0.002(8) 0.036(9) -0.007(8)
C21 0.102(14) 0.041(8) 0.074(10) -0.020(7) 0.044(10) -0.009(8)
C22 0.15(2) 0.085(16) 0.16(2) 0.044(16) 0.081(17) 0.028(15)
C23 0.24(4) 0.13(2) 0.16(2) 0.08(2) 0.04(2) -0.02(2)
C24 0.32(6) 0.26(5) 0.19(3) -0.15(4) 0.06(3) -0.06(4)
C25 0.17(3) 0.40(6) 0.16(3) 0.12(3) 0.10(3) 0.17(4)
C26 0.75(16) 1.40(3) 0.51(9) 0.63(15) 0.45(11) 0.8(2)
C27 0.33(7) 0.20(3) 0.44(7) -0.01(4) -0.07(5) -0.20(4)
OW1 0.52(9) 0.46(9) 0.19(4) 0.000 0.17(5) 0.000
OW2 0.62(9) 0.60(10) 0.84(12) 0.62(10) 0.10(8) 0.21(8)

_geom_special_details            
;
All esds (except the esd in the dihedral angle between two l.s. planes)
are estimated using the full covariance matrix. The cell esds are taken
into account individually in the estimation of esds in distances, angles
and torsion angles; correlations between esds in cell parameters are only
used when they are defined by crystal symmetry. An approximate (isotropic)
treatment of cell esds is used for estimating esds involving l.s. planes.
;

loop_
_geom_bond_atom_site_label_1
_geom_bond_atom_site_label_2
_geom_bond_distance
_geom_bond_site_symmetry_2
_geom_bond_publ_flag
Gd1 O20 2.346(12) . ?
Gd1 O13 2.350(11) . ?
Gd1 O1 2.359(8) . ?
Gd1 O19 2.404(10) . ?
Gd1 O2 2.407(8) 7_666 ?
Gd1 O4 2.452(10) 4_656 ?
Gd1 O14 2.464(10) 7_666 ?
Gd1 O3 2.485(8) 4_656 ?
Gd1 O13 2.716(9) 7_666 ?
Gd1 C14 2.798(14) 4_656 ?
Gd1 C15 2.915(17) 7_666 ?
O1 C1 1.228(17) . ?
O2 C1 1.275(18) . ?
O2 Gd1 2.407(8) 7_666 ?
O3 C14 1.256(19) . ?
O3 Gd1 2.485(8) 4_646 ?
O4 C14 1.24(2) . ?
O4 Gd1 2.452(10) 4_646 ?
O5 N1 1.188(16) . ?
O6 N1 1.184(16) . ?
O7 N2 1.30(2) . ?
O8 N2 1.129(15) . ?
O9 N3 1.197(16) . ?
O10 N3 1.180(16) . ?
O11 N4 1.220(19) . ?
O12 N4 1.246(19) . ?
O13 C15 1.259(17) . ?
O13 Gd1 2.716(9) 7_666 ?
O14 C15 1.212(17) . ?
O14 Gd1 2.464(10) 7_666 ?
O15 N5 1.177(17) . ?
O16 N5 1.198(15) . ?
O17 N6 1.18(2) . ?
O18 N6 1.23(2) . ?
O19 C22 1.168(15) . ?
O20 C25 1.193(18) . ?
O21 C28 1.21(2) . ?
N1 C4 1.429(19) . ?
N2 C6 1.48(2) . ?
N3 C9 1.481(19) . ?
N4 C13 1.45(2) . ?
N5 C18 