####################################################################### 
# 
# This file contains crystal structure data downloaded from the 
# Cambridge Structural Database (CSD) hosted by the Cambridge 
# Crystallographic Data Centre (CCDC).
# 
# Full information about CCDC data access policies and citation 
# guidelines are available at http://www.ccdc.cam.ac.uk/access/V1 
# 
# Audit and citation data items may have been added by the CCDC. 
# Please retain this information to preserve the provenance of 
# this file and to allow appropriate attribution of the data. 
# 
#######################################################################

data_compond3
_audit_block_doi                 10.5517/ccx9myr
_database_code_depnum_ccdc_archive 'CCDC 843415'
loop_
_citation_id
_citation_doi
_citation_year
1 10.1002/chem.201200046 2012
_audit_update_record             
;
2011-09-07 deposited with the CCDC.	2024-07-13 downloaded from the CCDC.
;
#TrackingRef 'compound3.txt'


_audit_creation_method           SHELXL-97
_chemical_name_systematic        
;
?
;
_chemical_name_common            ?
_chemical_melting_point          ?
_chemical_formula_moiety         'C62 H47 Gd2 N17 O44'
_chemical_formula_sum            'C62 H47 Gd2 N17 O44'
_chemical_formula_weight         2048.67

loop_
_atom_type_symbol
_atom_type_description
_atom_type_scat_dispersion_real
_atom_type_scat_dispersion_imag
_atom_type_scat_source
C C 0.0033 0.0016 'International Tables Vol C Tables 4.2.6.8 and 6.1.1.4'
H H 0.0000 0.0000 'International Tables Vol C Tables 4.2.6.8 and 6.1.1.4'
Gd Gd -0.1653 3.9035 'International Tables Vol C Tables 4.2.6.8 and 6.1.1.4'
N N 0.0061 0.0033 'International Tables Vol C Tables 4.2.6.8 and 6.1.1.4'
O O 0.0106 0.0060 'International Tables Vol C Tables 4.2.6.8 and 6.1.1.4'

_symmetry_cell_setting           Monoclinic
_symmetry_space_group_name_H-M   P21/n

loop_
_symmetry_equiv_pos_as_xyz
'x, y, z'
'-x+1/2, y+1/2, -z+1/2'
'-x, -y, -z'
'x-1/2, -y-1/2, z-1/2'

_cell_length_a                   13.307(6)
_cell_length_b                   30.217(5)
_cell_length_c                   23.947(7)
_cell_angle_alpha                90.000
_cell_angle_beta                 98.155(5)
_cell_angle_gamma                90.000
_cell_volume                     9532(4)
_cell_formula_units_Z            4
_cell_measurement_temperature    100(2)
_cell_measurement_reflns_used    999
_cell_measurement_theta_min      2.14
_cell_measurement_theta_max      25.00

_exptl_crystal_description       block
_exptl_crystal_colour            red
_exptl_crystal_size_max          0.19
_exptl_crystal_size_mid          0.15
_exptl_crystal_size_min          0.13
_exptl_crystal_density_meas      ?
_exptl_crystal_density_diffrn    1.428
_exptl_crystal_density_method    'not measured'
_exptl_crystal_F_000             4072
_exptl_absorpt_coefficient_mu    1.473
_exptl_absorpt_correction_type   empirical
_exptl_absorpt_correction_T_min  0.7672
_exptl_absorpt_correction_T_max  0.8316
_exptl_absorpt_process_details   SADABS

_exptl_special_details           
;
?
;

_diffrn_ambient_temperature      100(2)
_diffrn_radiation_wavelength     0.71073
_diffrn_radiation_type           MoK\a
_diffrn_radiation_source         'fine-focus sealed tube'
_diffrn_radiation_monochromator  graphite
_diffrn_measurement_device_type  'BRUKER SMART APEX'
_diffrn_measurement_method       /w-scans
_diffrn_detector_area_resol_mean ?
_diffrn_standards_number         ?
_diffrn_standards_interval_count ?
_diffrn_standards_interval_time  ?
_diffrn_standards_decay_%        ?
_diffrn_reflns_number            47201
_diffrn_reflns_av_R_equivalents  0.1171
_diffrn_reflns_av_sigmaI/netI    0.1550
_diffrn_reflns_limit_h_min       -15
_diffrn_reflns_limit_h_max       10
_diffrn_reflns_limit_k_min       -35
_diffrn_reflns_limit_k_max       30
_diffrn_reflns_limit_l_min       -28
_diffrn_reflns_limit_l_max       24
_diffrn_reflns_theta_min         2.14
_diffrn_reflns_theta_max         25.00
_reflns_number_total             16667
_reflns_number_gt                8891
_reflns_threshold_expression     >2sigma(I)

_computing_data_collection       'SMART 5.628 (Bruker, 2003)'
_computing_cell_refinement       'SAINT 6.45 ( Bruker, 2003)'
_computing_data_reduction        'SAINT 6.45 ( Bruker, 2003)'
_computing_structure_solution    SIR-97
_computing_structure_refinement  'SHELXL-97 (Sheldrick, 1997)'
_computing_molecular_graphics    'DIAMOND 2.1e'
_computing_publication_material  ?

_refine_special_details          
;
Refinement of F^2^ against ALL reflections. The weighted R-factor wR and
goodness of fit S are based on F^2^, conventional R-factors R are based
on F, with F set to zero for negative F^2^. The threshold expression of
F^2^ > 2sigma(F^2^) is used only for calculating R-factors(gt) etc. and is
not relevant to the choice of reflections for refinement. R-factors based
on F^2^ are statistically about twice as large as those based on F, and R-
factors based on ALL data will be even larger.
;

_refine_ls_structure_factor_coef Fsqd
_refine_ls_matrix_type           full
_refine_ls_weighting_scheme      calc
_refine_ls_weighting_details     
'calc w=1/[\s^2^(Fo^2^)+(0.1149P)^2^+83.5233P] where P=(Fo^2^+2Fc^2^)/3'
_atom_sites_solution_primary     direct
_atom_sites_solution_secondary   difmap
_atom_sites_solution_hydrogens   geom
_refine_ls_hydrogen_treatment    refU
_refine_ls_extinction_method     none
_refine_ls_extinction_coef       ?
_refine_ls_number_reflns         16667
_refine_ls_number_parameters     1107
_refine_ls_number_restraints     38
_refine_ls_R_factor_all          0.1759
_refine_ls_R_factor_gt           0.0989
_refine_ls_wR_factor_ref         0.2762
_refine_ls_wR_factor_gt          0.2292
_refine_ls_goodness_of_fit_ref   1.014
_refine_ls_restrained_S_all      1.018
_refine_ls_shift/su_max          0.000
_refine_ls_shift/su_mean         0.000

loop_
_atom_site_label
_atom_site_type_symbol
_atom_site_fract_x
_atom_site_fract_y
_atom_site_fract_z
_atom_site_U_iso_or_equiv
_atom_site_adp_type
_atom_site_occupancy
_atom_site_symmetry_multiplicity
_atom_site_calc_flag
_atom_site_refinement_flags
_atom_site_disorder_assembly
_atom_site_disorder_group
Gd1 Gd 0.14519(5) 0.22873(2) 0.27035(3) 0.0397(2) Uani 1 1 d . . .
Gd2 Gd -0.15186(5) 0.25145(2) 0.20980(3) 0.0420(2) Uani 1 1 d . . .
O1 O 0.0830(8) 0.2248(3) 0.3617(4) 0.052(3) Uani 1 1 d . . .
O2 O -0.0460(8) 0.2420(3) 0.2961(4) 0.051(3) Uani 1 1 d . . .
O3 O -0.5876(9) 0.2411(3) 0.6187(4) 0.054(3) Uani 1 1 d . . .
O4 O -0.4648(7) 0.2620(3) 0.6851(4) 0.046(3) Uani 1 1 d . . .
O5 O -0.3586(15) 0.2965(7) 0.3649(9) 0.163(9) Uani 1 1 d . . .
O6 O -0.3538(13) 0.3111(6) 0.4477(7) 0.128(6) Uani 1 1 d . . .
O7 O -0.0003(17) 0.1877(9) 0.5487(7) 0.183(11) Uani 1 1 d . . .
O8 O -0.1510(14) 0.1826(6) 0.5620(6) 0.129(7) Uani 1 1 d . . .
O9 O -0.3308(15) 0.1747(6) 0.4405(7) 0.150(9) Uani 1 1 d . . .
O10 O -0.4827(19) 0.1884(10) 0.4418(9) 0.214(14) Uani 1 1 d . . .
O11 O -0.0993(18) 0.2883(9) 0.5649(10) 0.235(16) Uani 1 1 d . . .
O12 O -0.1754(15) 0.3320(7) 0.6008(8) 0.159(10) Uani 1 1 d . . .
O13 O 0.2381(8) 0.1739(3) 0.2216(4) 0.059(3) Uani 1 1 d . . .
O14 O 0.2482(8) 0.1661(3) 0.3138(5) 0.058(3) Uani 1 1 d . . .
O15 O 0.3986(7) -0.1957(3) 0.2264(4) 0.053(3) Uani 1 1 d . . .
O16 O 0.5522(8) -0.1812(3) 0.2763(5) 0.052(3) Uani 1 1 d . . .
O17 O 0.4038(16) 0.0619(5) 0.1200(7) 0.146(8) Uani 1 1 d . . .
O18 O 0.4354(13) -0.0020(4) 0.1518(6) 0.114(6) Uani 1 1 d . . .
O19 O 0.3366(15) -0.0322(5) 0.3491(7) 0.139(7) Uani 1 1 d . . .
O20 O 0.3516(19) 0.0227(7) 0.3954(9) 0.163(9) Uani 1 1 d . . .
O21 O 0.2007(15) -0.0135(5) 0.1969(14) 0.270(19) Uani 1 1 d . . .
O22 O 0.1584(11) -0.0784(5) 0.1919(8) 0.114(6) Uani 1 1 d . . .
O23 O 0.5623(9) 0.0215(4) 0.2952(7) 0.108(5) Uani 1 1 d . . .
O24 O 0.6275(11) -0.0345(5) 0.3406(7) 0.099(5) Uani 1 1 d . . .
O25 O 0.0437(8) 0.1632(3) 0.2574(5) 0.053(3) Uani 1 1 d . . .
O26 O -0.1100(8) 0.1750(3) 0.2085(4) 0.054(3) Uani 1 1 d . . .
O27 O -0.2533(8) -0.1943(3) 0.2422(5) 0.063(3) Uani 1 1 d . . .
O28 O -0.2480(9) -0.1836(3) 0.3324(4) 0.061(3) Uani 1 1 d . . .
O29 O 0.1232(14) 0.0203(6) 0.3378(9) 0.133(6) Uani 1 1 d . . .
O30 O 0.0606(10) -0.0373(4) 0.2975(9) 0.142(8) Uani 1 1 d . . .
O31 O -0.3494(12) 0.0565(5) 0.1863(8) 0.131(7) Uani 1 1 d . . .
O32 O -0.3104(11) -0.0113(4) 0.2067(8) 0.116(6) Uani 1 1 d . . .
O33 O -0.1691(13) 0.0186(4) 0.3496(6) 0.118(6) Uani 1 1 d . . .
O34 O -0.1500(15) -0.0357(5) 0.4048(7) 0.124(6) Uani 1 1 d . . .
O35 O -0.0845(15) -0.0226(4) 0.1521(6) 0.130(7) Uani 1 1 d . . .
O36 O -0.0784(17) -0.0903(5) 0.1376(7) 0.156(9) Uani 1 1 d . . .
O37 O 0.2760(9) 0.2613(3) 0.3335(6) 0.064(3) Uani 1 1 d . . .
O38 O 0.2572(9) 0.2662(4) 0.2149(5) 0.075(4) Uani 1 1 d D . .
O39 O -0.2667(11) 0.2141(4) 0.2621(6) 0.096(5) Uani 1 1 d D . .
O40 O -0.2807(10) 0.2196(4) 0.1461(7) 0.081(4) Uani 1 1 d . . .
O41 O 0.5769(11) 0.0869(4) 0.4825(7) 0.94(18) Uiso 1 1 d D . .
N1 N -0.3226(13) 0.2912(6) 0.4114(6) 0.083(5) Uani 1 1 d . . .
N2 N -0.0895(17) 0.1956(7) 0.5344(7) 0.103(7) Uani 1 1 d . . .
N3 N -0.3962(19) 0.1919(8) 0.4594(8) 0.118(8) Uani 1 1 d . . .
N4 N -0.1763(13) 0.3002(6) 0.5762(7) 0.087(6) Uani 1 1 d . . .
N5 N 0.4028(14) 0.0343(6) 0.1558(7) 0.090(5) Uani 1 1 d . . .
N6 N 0.3407(14) 0.0067(6) 0.3516(8) 0.086(5) Uani 1 1 d . . .
N7 N 0.2220(14) -0.0509(5) 0.2012(9) 0.101(6) Uani 1 1 d . . .
N8 N 0.5651(11) -0.0181(5) 0.3038(8) 0.075(5) Uani 1 1 d . . .
N9 N 0.0618(12) -0.0006(5) 0.2979(9) 0.089(6) Uani 1 1 d . . .
N10 N -0.2859(13) 0.0268(5) 0.2032(8) 0.088(5) Uani 1 1 d . . .
N11 N -0.1587(12) -0.0207(5) 0.3582(7) 0.074(5) Uani 1 1 d . . .
N12 N -0.1024(15) -0.0591(5) 0.1643(8) 0.100(6) Uani 1 1 d . . .
N13 N 0.3532(11) 0.2940(6) 0.4112(7) 0.077(4) Uani 1 1 d . . .
N14 N 0.3673(15) 0.3184(6) 0.1995(7) 0.093(5) Uani 1 1 d D . .
N15 N -0.382(2) 0.1679(9) 0.2864(12) 0.159(13) Uani 1 1 d D . .
N16 N -0.3573(14) 0.1905(8) 0.0635(10) 0.117(7) Uani 1 1 d . . .
N17 N 0.6227(14) 0.1402(8) 0.6304(12) 0.76(11) Uani 1 1 d . . .
C1 C -0.0068(14) 0.2342(4) 0.3474(6) 0.046(4) Uani 1 1 d . . .
C2 C -0.0753(12) 0.2388(4) 0.3911(6) 0.048(4) Uani 1 1 d . . .
C3 C -0.1630(11) 0.2627(5) 0.3809(6) 0.049(4) Uani 1 1 d . . .
H3 H -0.1800 0.2774 0.3467 0.058 Uiso 1 1 calc R . .
C4 C -0.2281(12) 0.2650(4) 0.4229(6) 0.049(4) Uani 1 1 d . . .
C5 C -0.2047(13) 0.2437(5) 0.4741(6) 0.055(4) Uani 1 1 d . . .
C6 C -0.1177(13) 0.2201(6) 0.4816(6) 0.060(5) Uani 1 1 d . . .
C7 C -0.0513(13) 0.2180(5) 0.4425(6) 0.058(4) Uani 1 1 d . . .
H7 H 0.0094 0.2025 0.4507 0.069 Uiso 1 1 calc R . .
C8 C -0.2782(12) 0.2455(6) 0.5180(6) 0.055(4) Uani 1 1 d . . .
C9 C -0.3706(14) 0.2217(6) 0.5103(7) 0.067(5) Uani 1 1 d . . .
C10 C -0.4418(13) 0.2228(6) 0.5459(7) 0.065(5) Uani 1 1 d . . .
H10 H -0.5012 0.2063 0.5384 0.078 Uiso 1 1 calc R . .
C11 C -0.4230(11) 0.2496(5) 0.5942(6) 0.044(4) Uani 1 1 d . . .
C12 C -0.3351(11) 0.2748(5) 0.6030(6) 0.051(4) Uani 1 1 d . . .
H12 H -0.3221 0.2932 0.6343 0.061 Uiso 1 1 calc R . .
C13 C -0.2663(11) 0.2722(5) 0.5641(5) 0.047(4) Uani 1 1 d . . .
C14 C -0.4954(13) 0.2507(5) 0.6346(6) 0.046(4) Uani 1 1 d . . .
C15 C 0.2626(11) 0.1525(4) 0.2665(7) 0.045(4) Uani 1 1 d . . .
C16 C 0.3023(11) 0.1072(4) 0.2617(6) 0.045(4) Uani 1 1 d . . .
C17 C 0.3348(12) 0.0913(5) 0.2127(7) 0.064(5) Uani 1 1 d . . .
H17 H 0.3346 0.1098 0.1817 0.077 Uiso 1 1 calc R . .
C18 C 0.3680(12) 0.0470(5) 0.2103(7) 0.060(4) Uani 1 1 d . . .
C19 C 0.3670(12) 0.0174(5) 0.2529(7) 0.055(4) Uani 1 1 d . . .
C20 C 0.3371(11) 0.0343(4) 0.3021(7) 0.052(4) Uani 1 1 d . . .
C21 C 0.3060(11) 0.0780(5) 0.3060(7) 0.054(4) Uani 1 1 d . . .
H21 H 0.2871 0.0879 0.3398 0.064 Uiso 1 1 calc R . .
C22 C 0.3970(12) -0.0312(5) 0.2492(7) 0.058(4) Uani 1 1 d . . .
C23 C 0.3264(13) -0.0627(5) 0.2259(8) 0.064(5) Uani 1 1 d . . .
C24 C 0.3509(12) -0.1066(5) 0.2242(7) 0.057(4) Uani 1 1 d . . .
H24 H 0.3031 -0.1265 0.2070 0.068 Uiso 1 1 calc R . .
C25 C 0.4444(14) -0.1215(5) 0.2473(7) 0.060(5) Uani 1 1 d . . .
C26 C 0.5128(11) -0.0912(4) 0.2721(7) 0.050(4) Uani 1 1 d . . .
H26 H 0.5766 -0.1004 0.2891 0.060 Uiso 1 1 calc R . .
C27 C 0.4872(10) -0.0472(4) 0.2719(7) 0.050(4) Uani 1 1 d . . .
C28 C 0.4721(12) -0.1704(4) 0.2511(7) 0.043(4) Uani 1 1 d . . .
C29 C -0.0418(13) 0.1508(4) 0.2326(6) 0.042(4) Uani 1 1 d . . .
C30 C -0.0647(11) 0.1020(4) 0.2361(7) 0.046(4) Uani 1 1 d . . .
C31 C 0.0075(12) 0.0727(5) 0.2617(7) 0.056(4) Uani 1 1 d . . .
H31 H 0.0726 0.0826 0.2752 0.067 Uiso 1 1 calc R . .
C32 C -0.0167(12) 0.0296(4) 0.2669(7) 0.058(5) Uani 1 1 d . . .
C33 C -0.1114(13) 0.0107(5) 0.2493(8) 0.063(5) Uani 1 1 d . . .
C34 C -0.1809(13) 0.0419(5) 0.2247(7) 0.061(5) Uani 1 1 d . . .
C35 C -0.1594(12) 0.0866(5) 0.2181(7) 0.055(4) Uani 1 1 d . . .
H35 H -0.2097 0.1057 0.2014 0.065 Uiso 1 1 calc R . .
C36 C -0.1367(11) -0.0367(4) 0.2591(7) 0.054(4) Uani 1 1 d . . .
C37 C -0.1617(11) -0.0509(4) 0.3098(6) 0.045(4) Uani 1 1 d . . .
C38 C -0.1901(12) -0.0943(4) 0.3203(7) 0.053(4) Uani 1 1 d . . .
H38 H -0.2063 -0.1022 0.3555 0.064 Uiso 1 1 calc R . .
C39 C -0.1935(10) -0.1247(4) 0.2779(7) 0.047(4) Uani 1 1 d . . .
C40 C -0.1656(12) -0.1123(4) 0.2272(7) 0.055(4) Uani 1 1 d . . .
H40 H -0.1670 -0.1329 0.1982 0.066 Uiso 1 1 calc R . .
C41 C -0.1356(13) -0.0699(5) 0.2192(7) 0.064(5) Uani 1 1 d . . .
C42 C -0.2306(11) -0.1704(4) 0.2859(7) 0.045(4) Uani 1 1 d . . .
C43 C 0.2996(15) 0.2627(6) 0.3840(10) 0.079(6) Uani 1 1 d . . .
H43 H 0.2778 0.2397 0.4051 0.094 Uiso 1 1 calc R . .
C44 C 0.3765(19) 0.2948(9) 0.4731(10) 0.121(8) Uani 1 1 d . . .
H44A H 0.3297 0.2760 0.4889 0.182 Uiso 1 1 calc R . .
H44B H 0.3706 0.3245 0.4864 0.182 Uiso 1 1 calc R . .
H44C H 0.4445 0.2843 0.4844 0.182 Uiso 1 1 calc R . .
C45 C 0.3903(19) 0.3312(6) 0.3825(10) 0.111(8) Uani 1 1 d . . .
H45A H 0.3759 0.3267 0.3424 0.167 Uiso 1 1 calc R . .
H45B H 0.4622 0.3340 0.3934 0.167 Uiso 1 1 calc R . .
H45C H 0.3573 0.3578 0.3924 0.167 Uiso 1 1 calc R . .
C46 C 0.292(2) 0.2966(10) 0.2078(9) 0.155(15) Uani 1 1 d . . .
H46 H 0.2401 0.3174 0.2075 0.186 Uiso 1 1 calc R . .
C47 C 0.459(3) 0.2887(11) 0.2034(14) 0.193(18) Uani 1 1 d . . .
H47A H 0.4419 0.2599 0.2162 0.289 Uiso 1 1 calc R . .
H47B H 0.5131 0.3010 0.2295 0.289 Uiso 1 1 calc R . .
H47C H 0.4805 0.2861 0.1669 0.289 Uiso 1 1 calc R . .
C48 C 0.395(3) 0.3637(9) 0.1914(13) 0.180(16) Uani 1 1 d . . .
H48A H 0.3476 0.3828 0.2066 0.269 Uiso 1 1 calc R . .
H48B H 0.3922 0.3694 0.1518 0.269 Uiso 1 1 calc R . .
H48C H 0.4619 0.3690 0.2104 0.269 Uiso 1 1 calc R . .
C49 C -0.298(3) 0.1849(9) 0.2824(11) 0.180(17) Uani 1 1 d D . .
H49 H -0.2457 0.1683 0.3022 0.216 Uiso 1 1 calc R . .
C50 C -0.472(3) 0.1930(11) 0.2921(17) 0.25(3) Uani 1 1 d D . .
H50A H -0.4530 0.2218 0.3072 0.372 Uiso 1 1 calc R . .
H50B H -0.5105 0.1778 0.3171 0.372 Uiso 1 1 calc R . .
H50C H -0.5123 0.1962 0.2558 0.372 Uiso 1 1 calc R . .
C51 C -0.394(3) 0.1248(9) 0.310(2) 0.34(4) Uani 1 1 d D . .
H51A H -0.4308 0.1275 0.3415 0.514 Uiso 1 1 calc R . .
H51B H -0.3289 0.1120 0.3221 0.514 Uiso 1 1 calc R . .
H51C H -0.4316 0.1062 0.2818 0.514 Uiso 1 1 calc R . .
C52 C -0.3041(19) 0.2228(8) 0.0976(13) 0.102(8) Uani 1 1 d . . .
H52 H -0.2863 0.2486 0.0803 0.122 Uiso 1 1 calc R . .
C53 C -0.380(2) 0.1462(9) 0.0899(13) 0.148(11) Uani 1 1 d . . .
H53A H -0.3542 0.1226 0.0692 0.222 Uiso 1 1 calc R . .
H53B H -0.4519 0.1429 0.0887 0.222 Uiso 1 1 calc R . .
H53C H -0.3477 0.1454 0.1284 0.222 Uiso 1 1 calc R . .
C54 C -0.389(2) 0.1978(11) -0.0016(12) 0.156(12) Uani 1 1 d . . .
H54A H -0.4608 0.2020 -0.0095 0.234 Uiso 1 1 calc R . .
H54B H -0.3696 0.1724 -0.0217 0.234 Uiso 1 1 calc R . .
H54C H -0.3548 0.2236 -0.0132 0.234 Uiso 1 1 calc R . .
C55 C 0.249(3) 0.1659(13) 0.476(2) 0.46(6) Uani 1 1 d DU . .
H55 H 0.1904 0.1808 0.4599 0.548 Uiso 1 1 calc R . .
C56 C 0.273(2) 0.1604(10) 0.532(2) 0.47(6) Uani 1 1 d DU . .
H56 H 0.2303 0.1720 0.5562 0.567 Uiso 1 1 calc R . .
C57 C 0.360(2) 0.1378(10) 0.5544(14) 0.45(5) Uani 1 1 d DU . .
H57 H 0.3777 0.1369 0.5934 0.540 Uiso 1 1 calc R . .
C58 C 0.4205(3) 0.1161(10) 0.5205(2) 2.0(6) Uiso 1 1 d DU . .
C59 C 0.398(4) 0.1241(15) 0.4635(8) 0.48(5) Uani 1 1 d DU . .
H59 H 0.4401 0.1128 0.4390 0.576 Uiso 1 1 calc R . .
C60 C 0.315(3) 0.1486(18) 0.4427(17) 0.69(11) Uiso 1 1 d DU . .
H60 H 0.3027 0.1537 0.4040 0.831 Uiso 1 1 calc R . .
C61 C 0.5291(14) 0.0969(6) 0.5345(7) 0.51(6) Uani 1 1 d DU . .
C62 C 0.5807(10) 0.1224(16) 0.5879(9) 0.32(4) Uani 1 1 d D . .
OW1 O -0.558(4) 0.1023(18) -0.091(3) 0.55(5) Uani 1 1 d . . .
OW2 O -0.075(4) 0.1167(16) 0.391(3) 0.70(7) Uani 1 1 d . . .
OW3 O 0.545(5) 0.411(2) 0.567(3) 0.48(3) Uiso 1 1 d . . .
H61C H 0.5256 0.0698 0.5428 2(4) Uiso 1 1 d D . .
H1O H 0.629(5) 0.071(3) 0.479(5) 0.95(3) Uiso 1 1 d D . .

loop_
_atom_site_aniso_label
_atom_site_aniso_U_11
_atom_site_aniso_U_22
_atom_site_aniso_U_33
_atom_site_aniso_U_23
_atom_site_aniso_U_13
_atom_site_aniso_U_12
Gd1 0.0493(5) 0.0194(3) 0.0571(5) 0.0023(3) 0.0304(3) 0.0021(3)
Gd2 0.0496(5) 0.0206(4) 0.0625(5) 0.0013(3) 0.0308(4) 0.0013(3)
O1 0.049(7) 0.052(7) 0.058(7) -0.005(5) 0.018(5) 0.008(5)
O2 0.074(8) 0.028(5) 0.060(7) 0.003(4) 0.039(6) 0.001(5)
O3 0.063(8) 0.044(6) 0.059(7) 0.000(5) 0.024(6) -0.003(5)
O4 0.065(7) 0.018(5) 0.062(7) 0.003(4) 0.030(5) 0.002(4)
O5 0.140(17) 0.22(2) 0.156(18) 0.071(16) 0.104(15) 0.092(15)
O6 0.124(14) 0.162(16) 0.114(13) 0.025(11) 0.067(11) 0.073(12)
O7 0.148(19) 0.