####################################################################### 
# 
# This file contains crystal structure data downloaded from the 
# Cambridge Structural Database (CSD) hosted by the Cambridge 
# Crystallographic Data Centre (CCDC).
# 
# Full information about CCDC data access policies and citation 
# guidelines are available at http://www.ccdc.cam.ac.uk/access/V1 
# 
# Audit and citation data items may have been added by the CCDC. 
# Please retain this information to preserve the provenance of 
# this file and to allow appropriate attribution of the data. 
# 
#######################################################################

data_compound5
_audit_block_doi                 10.5517/ccx9n0v
_database_code_depnum_ccdc_archive 'CCDC 843417'
loop_
_citation_id
_citation_doi
_citation_year
1 10.1002/chem.201200046 2012
_audit_update_record             
;
2011-09-07 deposited with the CCDC.	2024-07-13 downloaded from the CCDC.
;
#TrackingRef 'compound5.txt'


_audit_creation_method           SHELXL-97
_chemical_name_systematic        
;
?
;
_chemical_name_common            ?
_chemical_melting_point          ?
_chemical_formula_moiety         'C33 H25 Gd N9 O24'
_chemical_formula_sum            'C33 H25 Gd N9 O24'
_chemical_formula_weight         1088.87

loop_
_atom_type_symbol
_atom_type_description
_atom_type_scat_dispersion_real
_atom_type_scat_dispersion_imag
_atom_type_scat_source
C C 0.0033 0.0016 'International Tables Vol C Tables 4.2.6.8 and 6.1.1.4'
H H 0.0000 0.0000 'International Tables Vol C Tables 4.2.6.8 and 6.1.1.4'
N N 0.0061 0.0033 'International Tables Vol C Tables 4.2.6.8 and 6.1.1.4'
O O 0.0106 0.0060 'International Tables Vol C Tables 4.2.6.8 and 6.1.1.4'
Gd Gd -0.1653 3.9035 'International Tables Vol C Tables 4.2.6.8 and 6.1.1.4'

_symmetry_cell_setting           Monoclinic
_symmetry_space_group_name_H-M   C2/c

loop_
_symmetry_equiv_pos_as_xyz
'x, y, z'
'-x, y, -z+1/2'
'x+1/2, y+1/2, z'
'-x+1/2, y+1/2, -z+1/2'
'-x, -y, -z'
'x, -y, z-1/2'
'-x+1/2, -y+1/2, -z'
'x+1/2, -y+1/2, z-1/2'

_cell_length_a                   24.553(4)
_cell_length_b                   30.267(7)
_cell_length_c                   13.362(5)
_cell_angle_alpha                90.000
_cell_angle_beta                 94.828(5)
_cell_angle_gamma                90.000
_cell_volume                     9895(5)
_cell_formula_units_Z            8
_cell_measurement_temperature    100(2)
_cell_measurement_reflns_used    999
_cell_measurement_theta_min      1.92
_cell_measurement_theta_max      25.00

_exptl_crystal_description       block
_exptl_crystal_colour            colorless
_exptl_crystal_size_max          0.24
_exptl_crystal_size_mid          0.18
_exptl_crystal_size_min          0.14
_exptl_crystal_density_meas      ?
_exptl_crystal_density_diffrn    1.462
_exptl_crystal_density_method    'not measured'
_exptl_crystal_F_000             4336
_exptl_absorpt_coefficient_mu    1.427
_exptl_absorpt_correction_type   empirical
_exptl_absorpt_correction_T_min  0.7257
_exptl_absorpt_correction_T_max  0.8252
_exptl_absorpt_process_details   SADABS

_exptl_special_details           
;
?
;

_diffrn_ambient_temperature      100(2)
_diffrn_radiation_wavelength     0.71073
_diffrn_radiation_type           MoK\a
_diffrn_radiation_source         'fine-focus sealed tube'
_diffrn_radiation_monochromator  graphite
_diffrn_measurement_device_type  'BRUKER SMART APEX'
_diffrn_measurement_method       /w-scans
_diffrn_detector_area_resol_mean ?
_diffrn_standards_number         ?
_diffrn_standards_interval_count ?
_diffrn_standards_interval_time  ?
_diffrn_standards_decay_%        ?
_diffrn_reflns_number            24470
_diffrn_reflns_av_R_equivalents  0.0743
_diffrn_reflns_av_sigmaI/netI    0.0911
_diffrn_reflns_limit_h_min       -29
_diffrn_reflns_limit_h_max       23
_diffrn_reflns_limit_k_min       -30
_diffrn_reflns_limit_k_max       35
_diffrn_reflns_limit_l_min       -15
_diffrn_reflns_limit_l_max       15
_diffrn_reflns_theta_min         1.92
_diffrn_reflns_theta_max         25.00
_reflns_number_total             8637
_reflns_number_gt                4800
_reflns_threshold_expression     >2sigma(I)

_computing_data_collection       'SMART 5.628 (Bruker, 2003)'
_computing_cell_refinement       'SAINT 6.45 ( Bruker, 2003)'
_computing_data_reduction        'SAINT 6.45 ( Bruker, 2003)'
_computing_structure_solution    SIR-97
_computing_structure_refinement  'SHELXL-97 (Sheldrick, 1997)'
_computing_molecular_graphics    'DIAMOND 2.1e'
_computing_publication_material  ?

_refine_special_details          
;
Refinement of F^2^ against ALL reflections. The weighted R-factor wR and
goodness of fit S are based on F^2^, conventional R-factors R are based
on F, with F set to zero for negative F^2^. The threshold expression of
F^2^ > 2sigma(F^2^) is used only for calculating R-factors(gt) etc. and is
not relevant to the choice of reflections for refinement. R-factors based
on F^2^ are statistically about twice as large as those based on F, and R-
factors based on ALL data will be even larger.
;

_refine_ls_structure_factor_coef Fsqd
_refine_ls_matrix_type           full
_refine_ls_weighting_scheme      calc
_refine_ls_weighting_details     
'calc w=1/[\s^2^(Fo^2^)+(0.1862P)^2^+0.0000P] where P=(Fo^2^+2Fc^2^)/3'
_atom_sites_solution_primary     direct
_atom_sites_solution_secondary   difmap
_atom_sites_solution_hydrogens   geom
_refine_ls_hydrogen_treatment    refU
_refine_ls_extinction_method     none
_refine_ls_extinction_coef       ?
_refine_ls_number_reflns         8637
_refine_ls_number_parameters     572
_refine_ls_number_restraints     111
_refine_ls_R_factor_all          0.1420
_refine_ls_R_factor_gt           0.0876
_refine_ls_wR_factor_ref         0.2861
_refine_ls_wR_factor_gt          0.2358
_refine_ls_goodness_of_fit_ref   0.996
_refine_ls_restrained_S_all      2.002
_refine_ls_shift/su_max          0.000
_refine_ls_shift/su_mean         0.000

loop_
_atom_site_label
_atom_site_type_symbol
_atom_site_fract_x
_atom_site_fract_y
_atom_site_fract_z
_atom_site_U_iso_or_equiv
_atom_site_adp_type
_atom_site_occupancy
_atom_site_symmetry_multiplicity
_atom_site_calc_flag
_atom_site_refinement_flags
_atom_site_disorder_assembly
_atom_site_disorder_group
Gd1 Gd 0.77464(5) 0.26210(3) 0.64748(7) 0.0536(6) Uani 1 1 d . . .
O1 O 0.7690(8) 0.1859(4) 0.6102(12) 0.074(5) Uani 1 1 d . . .
O2 O 0.7289(8) 0.1729(4) 0.4546(11) 0.065(5) Uani 1 1 d . . .
O3 O 0.6833(9) -0.1775(6) 0.7492(14) 0.078(5) Uani 1 1 d . . .
O4 O 0.7725(8) -0.1796(5) 0.7639(13) 0.074(5) Uani 1 1 d . . .
O5 O 0.662(2) 0.0277(10) 0.381(2) 0.25(3) Uani 1 1 d . . .
O6 O 0.6891(13) -0.0257(6) 0.4478(15) 0.133(11) Uani 1 1 d . . .
O7 O 0.7929(12) 0.0666(8) 0.8413(16) 0.120(9) Uani 1 1 d . . .
O8 O 0.792(2) 0.0009(8) 0.797(2) 0.30(4) Uani 1 1 d . . .
O9 O 0.6472(11) 0.0229(7) 0.682(2) 0.133(10) Uani 1 1 d . . .
O10 O 0.5970(12) -0.0361(9) 0.665(2) 0.135(10) Uani 1 1 d . . .
O11 O 0.8356(13) -0.0070(7) 0.548(2) 0.144(11) Uani 1 1 d . . .
O12 O 0.8655(12) -0.0702(9) 0.575(2) 0.148(12) Uani 1 1 d . . .
O13 O 0.8654(7) 0.2645(5) 0.5841(13) 0.068(5) Uani 1 1 d . . .
O14 O 0.8043(8) 0.2436(5) 0.4612(13) 0.062(4) Uani 1 1 d . . .
O15 O 0.8942(19) 0.1688(14) 0.182(3) 0.27(3) Uani 1 1 d D . .
O16 O 0.9380(19) 0.2098(17) 0.108(3) 0.36(5) Uani 1 1 d D . .
O17 O 1.0574(12) 0.3190(8) 0.330(2) 0.131(10) Uani 1 1 d . . .
O18 O 1.0452(13) 0.3135(16) 0.483(3) 0.21(2) Uani 1 1 d . . .
O19 O 0.7174(9) 0.2304(6) 0.7671(15) 0.087(6) Uani 1 1 d . . .
O20 O 0.8329(8) 0.2267(6) 0.7728(13) 0.089(6) Uani 1 1 d D . .
O21 O 0.9720(7) 0.1724(5) 0.6584(6) 0.58(11) Uani 1 1 d DU . .
N1 N 0.6939(14) 0.0102(7) 0.4406(16) 0.102(10) Uani 1 1 d . . .
N2 N 0.7869(14) 0.0397(8) 0.777(2) 0.110(11) Uani 1 1 d . . .
N3 N 0.6408(13) -0.0163(9) 0.6707(18) 0.087(7) Uani 1 1 d . . .
N4 N 0.8305(12) -0.0423(8) 0.5853(19) 0.091(8) Uani 1 1 d . . .
N5 N 0.9237(11) 0.1979(10) 0.1831(19) 0.094(8) Uani 1 1 d D . .
N6 N 1.0325(12) 0.3047(11) 0.398(2) 0.109(10) Uani 1 1 d . . .
N7 N 0.6956(13) 0.1804(11) 0.886(2) 0.119(11) Uani 1 1 d . . .
N8 N 0.8963(6) 0.1859(5) 0.8201(10) 0.42(4) Uani 1 1 d DU . .
N9 N 0.9711(5) 0.1297(6) 0.4628(13) 0.34(3) Uani 1 1 d DU . .
C1 C 0.7499(13) 0.1624(8) 0.540(2) 0.077(8) Uani 1 1 d . . .
C2 C 0.7481(13) 0.1127(7) 0.5619(17) 0.070(8) Uani 1 1 d . . .
C3 C 0.7238(13) 0.0842(7) 0.4926(17) 0.070(7) Uani 1 1 d . . .
H3 H 0.7085 0.0945 0.4310 0.084 Uiso 1 1 calc R . .
C4 C 0.7226(13) 0.0397(7) 0.5163(18) 0.070(7) Uani 1 1 d . . .
C5 C 0.7445(12) 0.0212(7) 0.6067(17) 0.067(7) Uani 1 1 d . . .
C6 C 0.7653(13) 0.0533(7) 0.6783(19) 0.076(8) Uani 1 1 d . . .
C7 C 0.7684(11) 0.0971(7) 0.6536(17) 0.071(8) Uani 1 1 d . . .
H7 H 0.7847 0.1167 0.7005 0.085 Uiso 1 1 calc R . .
C8 C 0.7390(12) -0.0267(7) 0.6325(17) 0.062(7) Uani 1 1 d . . .
C9 C 0.6923(13) -0.0439(8) 0.6668(18) 0.072(8) Uani 1 1 d . . .
C10 C 0.6872(12) -0.0875(8) 0.6951(16) 0.064(7) Uani 1 1 d . . .
H10 H 0.6538 -0.0980 0.7135 0.076 Uiso 1 1 calc R . .
C11 C 0.7316(12) -0.1153(7) 0.6960(17) 0.064(7) Uani 1 1 d . . .
C12 C 0.7786(13) -0.0997(8) 0.6604(18) 0.078(8) Uani 1 1 d . . .
H12 H 0.8091 -0.1179 0.6599 0.094 Uiso 1 1 calc R . .
C13 C 0.7806(12) -0.0564(8) 0.6248(18) 0.068(7) Uani 1 1 d . . .
C14 C 0.7284(15) -0.1617(8) 0.7374(16) 0.066(8) Uani 1 1 d . . .
C15 C 0.8521(15) 0.2525(8) 0.494(2) 0.071(8) Uani 1 1 d . . .
C16 C 0.8964(10) 0.2518(8) 0.4235(18) 0.058(6) Uani 1 1 d . . .
C17 C 0.8904(11) 0.2259(8) 0.3394(19) 0.067(7) Uani 1 1 d . . .
H17 H 0.8592 0.2086 0.3267 0.080 Uiso 1 1 calc R . .
C18 C 0.9312(12) 0.2254(9) 0.2724(19) 0.070(7) Uani 1 1 d . . .
C19 C 0.9773(12) 0.2521(10) 0.287(2) 0.078(8) Uani 1 1 d . . .
C20 C 0.9832(12) 0.2750(9) 0.377(2) 0.073(7) Uani 1 1 d . . .
C21 C 0.9450(11) 0.2744(9) 0.445(2) 0.070(7) Uani 1 1 d . . .
H21 H 0.9516 0.2890 0.5062 0.084 Uiso 1 1 calc R . .
C22 C 0.7083(16) 0.1948(12) 0.797(3) 0.113(12) Uani 1 1 d . . .
H22 H 0.7106 0.1726 0.7500 0.136 Uiso 1 1 calc R . .
C23 C 0.691(3) 0.210(2) 0.967(3) 0.19(3) Uani 1 1 d . . .
H23A H 0.7019 0.2394 0.9477 0.285 Uiso 1 1 calc R . .
H23B H 0.7133 0.2007 1.0247 0.285 Uiso 1 1 calc R . .
H23C H 0.6532 0.2115 0.9828 0.285 Uiso 1 1 calc R . .
C24 C 0.6812(19) 0.1358(13) 0.904(3) 0.145(17) Uani 1 1 d . . .
H24A H 0.6586 0.1246 0.8480 0.217 Uiso 1 1 calc R . .
H24B H 0.6616 0.1344 0.9635 0.217 Uiso 1 1 calc R . .
H24C H 0.7138 0.1183 0.9142 0.217 Uiso 1 1 calc R . .
C25 C 0.8816(10) 0.2298(5) 0.7762(11) 0.40(4) Uani 1 1 d DU . .
H25 H 0.9036 0.2528 0.7572 0.482 Uiso 1 1 calc R . .
C26 C 0.8726(12) 0.1620(6) 0.9070(13) 0.27(3) Uani 1 1 d DU . .
H26A H 0.8826 0.1776 0.9684 0.408 Uiso 1 1 calc R . .
H26B H 0.8868 0.1325 0.9119 0.408 Uiso 1 1 calc R . .
H26C H 0.8335 0.1610 0.8954 0.408 Uiso 1 1 calc R . .
C27 C 0.9512(11) 0.2059(8) 0.8524(10) 0.41(4) Uani 1 1 d DU . .
H27A H 0.9705 0.2118 0.7943 0.620 Uiso 1 1 calc R . .
H27B H 0.9720 0.1857 0.8958 0.620 Uiso 1 1 calc R . .
H27C H 0.9461 0.2330 0.8877 0.620 Uiso 1 1 calc R . .
C28 C 0.9303(10) 0.1543(7) 0.6178(15) 1.5(7) Uani 1 1 d DU . .
H28 H 0.9005 0.1510 0.6558 1.799 Uiso 1 1 calc R . .
C29 C 0.9250(9) 0.1378(8) 0.5156(13) 0.29(3) Uani 1 1 d DU . .
C30 C 0.8732(8) 0.1238(5) 0.4758(10) 0.33(3) Uani 1 1 d DU . .
H30 H 0.8420 0.1302 0.5080 0.392 Uiso 1 1 calc R . .
C31 C 0.8703(9) 0.0996(4) 0.3850(11) 0.34(3) Uani 1 1 d DU . .
H31 H 0.8364 0.0946 0.3508 0.404 Uiso 1 1 calc R . .
C32 C 0.9166(10) 0.0832(7) 0.3458(16) 0.35(3) Uani 1 1 d DU . .
H32 H 0.9138 0.0613 0.2969 0.417 Uiso 1 1 calc R . .
C33 C 0.9686(12) 0.1004(9) 0.3813(18) 0.35(3) Uani 1 1 d DU . .
H33 H 1.0000 0.0924 0.3513 0.416 Uiso 1 1 calc R . .
OW1 O 0.630(3) 0.1344(18) 0.643(5) 0.34(4) Uani 1 1 d . . .
OW2 O 0.935(7) -0.054(7) 0.239(12) 0.68(10) Uani 1 1 d U . .
OW3 O 0.954(5) 0.320(7) 0.739(9) 1.1(2) Uani 1 1 d . . .

loop_
_atom_site_aniso_label
_atom_site_aniso_U_11
_atom_site_aniso_U_22
_atom_site_aniso_U_33
_atom_site_aniso_U_23
_atom_site_aniso_U_13
_atom_site_aniso_U_12
Gd1 0.0987(11) 0.0203(7) 0.0440(7) -0.0021(4) 0.0200(6) 0.0010(5)
O1 0.150(17) 0.019(7) 0.055(9) -0.016(7) 0.020(9) -0.003(8)
O2 0.138(16) 0.016(7) 0.044(8) 0.002(6) 0.023(9) -0.008(8)
O3 0.096(15) 0.046(10) 0.091(13) 0.025(9) -0.004(11) -0.012(10)
O4 0.117(16) 0.036(9) 0.076(11) 0.016(8) 0.039(10) 0.011(9)
O5 0.52(8) 0.09(2) 0.11(2) 0.024(18) -0.11(3) -0.10(3)
O6 0.29(3) 0.024(10) 0.075(13) 0.011(9) -0.037(16) -0.028(14)
O7 0.21(3) 0.067(14) 0.077(14) 0.012(12) -0.036(15) -0.008(15)
O8 0.63(9) 0.064(13) 0.18(3) -0.027(16) -0.25(5) 0.08(3)
O9 0.15(2) 0.047(13) 0.21(3) 0.044(15) 0.066(19) 0.027(13)
O10 0.11(2) 0.096(19) 0.19(3) 0.021(18) 0.002(19) 0.019(16)
O11 0.18(3) 0.046(13) 0.21(3) 0.040(16) 0.07(2) 0.006(14)
O12 0.17(3) 0.091(18) 0.20(3) 0.060(18) 0.10(2) 0.043(17)
O13 0.086(13) 0.060(11) 0.057(10) -0.005(8) 0.010(9) 0.012(8)
O14 0.067(12) 0.044(9) 0.079(12) -0.003(8) 0.022(9) -0.010(8)
O15 0.30(5) 0.25(4) 0.29(5) -0.21(4) 0.22(4) -0.17(4)
O16 0.27(5) 0.55(9) 0.28(5) -0.33(6) 0.21(4) -0.30(6)
O17 0.16(3) 0.085(17) 0.15(2) -0.036(16) 0.07(2) -0.039(16)
O18 0.12(2) 0.34(6) 0.18(3) -0.10(4) 0.01(2) -0.10(3)
O19 0.122(17) 0.054(11) 0.093(14) 0.019(10) 0.061(12) -0.005(10)
O20 0.138(19) 0.066(12) 0.060(11) 0.002(9) -0.008(11) 0.009(11)
O21 0.7(2) 0.7(2) 0.41(8) -0.19(12) 0.23(10) -0.44(18)
N1 0.23(3) 0.026(12) 0.043(12) 0.013(9) -0.016(15) -0.013(14)
N2 0.20(3) 0.037(13) 0.085(18) 0.008(13) -0.050(19) -0.010(15)
N3 0.12(2) 0.063(17) 0.084(16) 0.031(13) 0.022(15) 0.014(15)
N4 0.13(2) 0.055(15) 0.095(18) 0.012(13) 0.041(16) 0.010(15)
N5 0.084(19) 0.11(2) 0.088(17) -0.040(16) 0.044(14) -0.031(15)
N6 0.09(2) 0.14(3) 0.09(2) -0.05(2) 0.017(17) -0.023(19)
N7 0.15(3) 0.11(2) 0.11(2) 0.07(2) 0.039(19) -0.001(19)
N8 0.41(4) 0.41(4) 0.42(4) 0.001(10) 0.036(10) 0.002(10)
N9 0.33(4) 0.32(9) 0.37(9) 0.00(6) 0.03(5) 0.02(7)
C1 0.15(3) 0.029(12) 0.062(16) 0.011(12) 0.043(16) 0.011(14)
C2 0.14(2) 0.018(10) 0.053(14) 0.003(10) 0.018(14) 0.010(12)
C3 0.14(2) 0.022(10) 0.046(13) 0.003(10) 0.010(13) -0.001(12)
C4 0.13(2) 0.030(12) 0.052(14) 0.002(10) 0.016(14) 0.005(12)
C5 0.14(2) 0.017(10) 0.049(13) 0.001(9) 0.016(14) -0.009(12)
C6 0.14(3) 0.027(12) 0.058(14) 0.006(11) -0.004(15) 0.006(13)
C7 0.13(2) 0.023(11) 0.055(15) -0.001(10) -0.005(14) 0.006(12)
C8 0.11(2) 0.025(11) 0.056(14) 0.009(10) 0.014(13) 0.000(12)
C9 0.12(2) 0.035(13) 0.056(15) 0.001(11) 0.004(15) 0.006(14)
C10 0.10(2) 0.041(13) 0.048(13) 0.003(10) 0.004(12) 0.003(13)
C11 0.11(2) 0.028(11) 0.055(13) 0.012(10) 0.028(14) 0.002(13)
C12 0.14(3) 0.032(13) 0.065(16) 0.004(11) 0.017(17) 0.010(14)
C13 0.11(2) 0.040(13) 0.063(15) 0.007(11) 0.026(14) -0.003(13)
C14 0.13(3) 0.036(13) 0.035(12) -0.002(10) 0.009(14) 0.021(16)
C15 0.10(3) 0.039(13) 0.074(19) 0.004(12) 0.025(17) 0.026(14)
C16 0.071(18) 0.043(12) 0.060(14) 0.001(11) 0.014(12) 0.008(11)
C17 0.077(18) 0.052(14) 0.074(16) -0.004(12) 0.022(13) -0.007(12)
C18 0.078(19) 0.072(17) 0.063(15) -0.007(13) 0.015(13) -0.012(14)
C19 0.066(19) 0.085(18) 0.08(2) -0.007(16) 0.019(14) 0.008(14)
C20 0.072(19) 0.068(16) 0.076(18) -0.005(14) 0.002(14) -0.005(13)
C21 0.076(19) 0.068(16) 0.069(16) -0.003(13) 0.027(14) 0.001(13)
C22 0.16(4) 0.08(2) 0.11(3) 0.02(2) 0.06(2) 0.03(2)
C23 0.28(7) 0.18(5) 0.11(3) -0.01(4) 0.02(4) -0.08(5)
C24 0.19(4) 0.10(3) 0.16(4) 0.07(3) 0.05(3) 0.04(3)
C25 0.40(4) 0.40(4) 0.40(4) 0.001(10) 0.036(11) -0.002(10)
C26 0.23(4) 0.30(6) 0.28(5) -0.06(4) -0.05(4) 0.12(4)
C27 0.41(4) 0.41(4) 0.41(4) 0.000(10) 0.033(11) 0.002(10)
C28 1.0(4) 1.5(13) 2.0(8) -1.0(12) 0.4(3) -0.3(5)
C29 0.32(5) 0.25(9) 0.30(7) 0.07(5) 0.02(4) 0.00(6)
C30 0.33(3) 0.33(3) 0.33(3) 0.004(10) 0.024(10) -0.004(10)
C31 0.34(3) 0.34(3) 0.34(3) 0.001(10) 0.030(10) -0.001(10)
C32 0.35(3) 0.35(3) 0.35(3) -0.001(10) 0.032(10) 0.002(10)
C33 0.35(3) 0.35(3) 0.35(3) 0.001(10) 0.027(10) -0.001(10)
OW1 0.34(7) 0.23(5) 0.46(9) -0.09(6) 0.06(6) 0.17(5)
OW2 0.68(10) 0.68(10) 0.68(10) 0.000(10) 0.058(13) 0.001(10)
OW3 0.74(19) 1.8(5) 0.63(16) -0.8(3) 0.44(16) -1.0(3)

_geom_special_details            
;
All esds (except the esd in the dihedral angle between two l.s. planes)
are estimated using the full covariance matrix. The cell esds are taken
into account individually in the estimation of esds in distances, angles
and torsion angles; correlations between esds in cell parameters are only
used when they are defined by crystal symmetry. An approximate (isotropic)
treatment of cell esds is used for estimating esds involving l.s. planes.
;

loop_
_geom_bond_atom_site_label_1
_geom_bond_atom_site_label_2
_geom_bond_distance
_geom_bond_site_symmetry_2
_geom_bond_publ_flag
Gd1 O14 2.33(2) 7_656 ?
Gd1 O1 2.361(13) . ?
Gd1 O20 2.365(17) . ?
Gd1 O2 2.391(14) 7_656 ?
Gd1 O19 2.416(17) . ?
Gd1 O13 2.451(18) . ?
Gd1 O3 2.465(16) 4_656 ?
Gd1 O4 2.468(15) 4_656 ?
Gd1 O14 2.710(17) . ?
Gd1 C14 2.78(2) 4_656 ?
Gd1 C15 2.93(3) . ?
O1 C1 1.24(3) . ?
O2 C1 1.25(3) . ?
O2 Gd1 2.391(14) 7_656 ?
O3 C14 1.23(3) . ?
O3 Gd1 2.465(16) 4_646 ?
O4 C14 1.24(3) . ?
O4