####################################################################### 
# 
# This file contains crystal structure data downloaded from the 
# Cambridge Structural Database (CSD) hosted by the Cambridge 
# Crystallographic Data Centre (CCDC).
# 
# Full information about CCDC data access policies and citation 
# guidelines are available at http://www.ccdc.cam.ac.uk/access/V1 
# 
# Audit and citation data items may have been added by the CCDC. 
# Please retain this information to preserve the provenance of 
# this file and to allow appropriate attribution of the data. 
# 
#######################################################################

data_squeezed
_audit_block_doi                 10.5517/ccy6p1v
_database_code_depnum_ccdc_archive 'CCDC 870357'
loop_
_citation_id
_citation_doi
_citation_year
1 10.1080/10610278.2012.688128 2012
_audit_update_record             
;
2012-03-06 deposited with the CCDC.	2024-07-13 downloaded from the CCDC.
;
#TrackingRef 'combined.CIF'


_audit_creation_method           SHELXL-97
_chemical_name_systematic        
;
?
;
_chemical_name_common            ?
_chemical_melting_point          ?
_chemical_formula_moiety         
;
C66 H65 N9 O6 P2 Pd S3, (C O3 F3 S), Cl, 3(C H4 O), 3(C4 H10 O)
;
_chemical_formula_sum            'C82 H107 Cl F3 N9 O15 P2 Pd S4'
_chemical_formula_weight         1847.80

loop_
_atom_type_symbol
_atom_type_description
_atom_type_scat_dispersion_real
_atom_type_scat_dispersion_imag
_atom_type_scat_source
C C 0.0033 0.0016 'International Tables Vol C Tables 4.2.6.8 and 6.1.1.4'
H H 0.0000 0.0000 'International Tables Vol C Tables 4.2.6.8 and 6.1.1.4'
N N 0.0061 0.0033 'International Tables Vol C Tables 4.2.6.8 and 6.1.1.4'
O O 0.0106 0.0060 'International Tables Vol C Tables 4.2.6.8 and 6.1.1.4'
F F 0.0171 0.0103 'International Tables Vol C Tables 4.2.6.8 and 6.1.1.4'
P P 0.1023 0.0942 'International Tables Vol C Tables 4.2.6.8 and 6.1.1.4'
Cl Cl 0.1484 0.1585 'International Tables Vol C Tables 4.2.6.8 and 6.1.1.4'
Pd Pd -0.9988 1.0072 'International Tables Vol C Tables 4.2.6.8 and 6.1.1.4'
S S 0.1246 0.1234 'International Tables Vol C Tables 4.2.6.8 and 6.1.1.4'

_symmetry_cell_setting           trigonal
_symmetry_space_group_name_H-M   P3121
_symmetry_space_group_name_Hall  
;
P 31 2"
;
_symmetry_Int_Tables_number      152

loop_
_symmetry_equiv_pos_as_xyz
'x, y, z'
'-y, x-y, z+1/3'
'-x+y, -x, z+2/3'
'x-y, -y, -z+2/3'
'-x, -x+y, -z+1/3'
'y, x, -z'

_cell_length_a                   19.3608(3)
_cell_length_b                   19.3608(3)
_cell_length_c                   36.6284(13)
_cell_angle_alpha                90.00
_cell_angle_beta                 90.00
_cell_angle_gamma                120.00
_cell_volume                     11890.4(5)
_cell_formula_units_Z            6
_cell_measurement_temperature    150(2)
_cell_measurement_reflns_used    19973
_cell_measurement_theta_min      2.38
_cell_measurement_theta_max      23.315

_exptl_crystal_description       plate
_exptl_crystal_colour            colourless
_exptl_crystal_size_max          0.3
_exptl_crystal_size_mid          0.3
_exptl_crystal_size_min          0.01
_exptl_crystal_density_meas      ?
_exptl_crystal_density_diffrn    1.548
_exptl_crystal_density_method    'not measured'
_exptl_crystal_F_000             5796
_exptl_absorpt_coefficient_mu    0.495
_exptl_absorpt_correction_type   Multi-scan
_exptl_absorpt_correction_T_min  0.710509
_exptl_absorpt_correction_T_max  1.000000
_exptl_absorpt_process_details   'SADABS (Sheldrick, 2003)'

_exptl_special_details           
;
The crystal was coated in Exxon Paratone N hydrocarbon
oil and mounted on a thin mohair fibre attached to a copper pin.
Upon mounting on the diffractometer,
the crystal was quenched to 150(K) under a cold nitrogen gas stream
supplied by an Oxford Cryosystems Cryostream and data were
collected at this temperature.
;

_diffrn_ambient_temperature      150(2)
_diffrn_radiation_wavelength     0.71073
_diffrn_radiation_type           MoK\a
_diffrn_radiation_source         'rotating anode'
_diffrn_radiation_monochromator  graphite
_diffrn_measurement_device_type  APEXII-FR591
_diffrn_measurement_method       \w+\f
_diffrn_detector_area_resol_mean ?
_diffrn_standards_number         0
_diffrn_standards_interval_count 0
_diffrn_standards_interval_time  0
_diffrn_standards_decay_%        0
_diffrn_reflns_number            110846
_diffrn_reflns_av_R_equivalents  0.0704
_diffrn_reflns_av_sigmaI/netI    0.0777
_diffrn_reflns_limit_h_min       -25
_diffrn_reflns_limit_h_max       25
_diffrn_reflns_limit_k_min       -24
_diffrn_reflns_limit_k_max       24
_diffrn_reflns_limit_l_min       -41
_diffrn_reflns_limit_l_max       48
_diffrn_reflns_theta_min         2.49
_diffrn_reflns_theta_max         28.25
_reflns_number_total             19480
_reflns_number_gt                12009
_reflns_threshold_expression     >2sigma(I)

_computing_data_collection       'APEX (Bruker-Nonius, 2003)'
_computing_cell_refinement       'SAINT (Bruker-Nonius, 2003)'
_computing_data_reduction        
'SAINT (Bruker-Nonius, 2003), XPREP (Bruker-Nonius, 2003)'
_computing_structure_solution    'SIR97 (Altomare, et. al. 1999)'
_computing_structure_refinement  'SHELXL-97 (Sheldrick, 1997)'
_computing_molecular_graphics    
;ORTEP-3 (Farrugia, 1997)
WINGX-32 (Farrugia, 1999)
;
_computing_publication_material  'enCIFer 1.1 (CCDC, 2005)'

_refine_special_details          
;
Refinement of F^2^ against ALL reflections. The weighted R-factor wR and
goodness of fit S are based on F^2^, conventional R-factors R are based
on F, with F set to zero for negative F^2^. The threshold expression of
F^2^ > 2sigma(F^2^) is used only for calculating R-factors(gt) etc. and is
not relevant to the choice of reflections for refinement. R-factors based
on F^2^ are statistically about twice as large as those based on F, and R-
factors based on ALL data will be even larger.
;

_refine_ls_structure_factor_coef Fsqd
_chemical_absolute_configuration rmad
_refine_ls_matrix_type           full
_refine_ls_weighting_scheme      calc
_refine_ls_weighting_details     
'calc w=1/[\s^2^(Fo^2^)+(0.1628P)^2^+0.0000P] where P=(Fo^2^+2Fc^2^)/3'
_atom_sites_solution_primary     direct
_atom_sites_solution_secondary   difmap
_atom_sites_solution_hydrogens   geom
_refine_ls_hydrogen_treatment    constr
_refine_ls_extinction_method     none
_refine_ls_extinction_coef       ?
_refine_ls_abs_structure_details 'Flack H D (1983), Acta Cryst. A39, 876-881'
_refine_ls_abs_structure_Flack   0.02(5)
_refine_ls_number_reflns         19480
_refine_ls_number_parameters     736
_refine_ls_number_restraints     67
_refine_ls_R_factor_all          0.1195
_refine_ls_R_factor_gt           0.0821
_refine_ls_wR_factor_ref         0.2431
_refine_ls_wR_factor_gt          0.2236
_refine_ls_goodness_of_fit_ref   0.982
_refine_ls_restrained_S_all      1.424
_refine_ls_shift/su_max          0.001
_refine_ls_shift/su_mean         0.000

loop_
_platon_squeeze_void_nr
_platon_squeeze_void_average_x
_platon_squeeze_void_average_y
_platon_squeeze_void_average_z
_platon_squeeze_void_volume
_platon_squeeze_void_count_electrons
_platon_squeeze_void_content
1 0.000 0.000 0.108 2335 1115 ' '
2 0.000 0.790 0.167 20 0 ' '
3 0.210 0.210 0.500 21 0 ' '
4 0.790 1.000 0.833 20 0 ' '
_platon_squeeze_details          
;
electrons removed accounted for as 3 MeOH and 3 Et2O per macrocycle
;

loop_
_atom_site_label
_atom_site_type_symbol
_atom_site_fract_x
_atom_site_fract_y
_atom_site_fract_z
_atom_site_U_iso_or_equiv
_atom_site_adp_type
_atom_site_occupancy
_atom_site_symmetry_multiplicity
_atom_site_calc_flag
_atom_site_refinement_flags
_atom_site_disorder_assembly
_atom_site_disorder_group
C1 C 0.7297(10) 0.9200(9) 0.9445(3) 0.101(5) Uani 1 1 d D . .
H1 H 0.7390 0.9649 0.9610 0.121 Uiso 1 1 calc R . .
C2 C 0.6254(8) 0.9273(7) 0.9124(3) 0.071(3) Uani 1 1 d . . .
C3 C 0.5827(6) 0.9162(5) 0.8759(3) 0.055(2) Uani 1 1 d . . .
C4 C 0.5172(7) 0.9197(6) 0.8669(3) 0.063(3) Uani 1 1 d . . .
C5 C 0.5648(6) 0.8875(6) 0.8206(2) 0.050(2) Uani 1 1 d . . .
C6 C 0.4587(10) 0.9340(10) 0.8861(4) 0.100(5) Uani 1 1 d . . .
H6A H 0.4055 0.8870 0.8836 0.150 Uiso 1 1 calc R . .
H6B H 0.4588 0.9804 0.8753 0.150 Uiso 1 1 calc R . .
H6C H 0.4729 0.9441 0.9120 0.150 Uiso 1 1 calc R . .
C7 C 0.5629(6) 0.8577(5) 0.7808(2) 0.048(2) Uani 1 1 d . . .
H7 H 0.5660 0.8993 0.7637 0.058 Uiso 1 1 calc R . .
C8 C 0.6724(6) 0.8630(5) 0.7459(2) 0.047(2) Uani 1 1 d . . .
C9 C 0.7500(6) 0.8630(5) 0.7486(2) 0.050(2) Uani 1 1 d . C .
C10 C 0.7966(6) 0.8618(6) 0.7220(2) 0.050(2) Uani 1 1 d . C .
C11 C 0.8479(6) 0.8656(6) 0.7751(3) 0.055(2) Uani 1 1 d . . .
C12 C 0.7908(7) 0.8582(7) 0.6807(3) 0.069(3) Uani 1 1 d . . .
H12A H 0.7754 0.8042 0.6725 0.103 Uiso 1 1 calc R . .
H12B H 0.8426 0.8964 0.6702 0.103 Uiso 1 1 calc R . .
H12C H 0.7505 0.8716 0.6728 0.103 Uiso 1 1 calc R . .
C13 C 0.9093(7) 0.8691(7) 0.8003(4) 0.077(4) Uani 1 1 d D . .
H13 H 0.9598 0.9193 0.7942 0.093 Uiso 1 1 calc R A 1
C14 C 0.9349(9) 0.9121(8) 0.8654(4) 0.080(4) Uani 1 1 d . . .
C15 C 0.8966(8) 0.9243(7) 0.8977(3) 0.078(4) Uani 1 1 d D C .
C16 C 0.9250(10) 0.9461(7) 0.9325(4) 0.081(4) Uani 1 1 d . . .
C17 C 0.8058(7) 0.9263(8) 0.9285(3) 0.078(3) Uani 1 1 d D . .
C18 C 1.0012(12) 0.9670(10) 0.9496(4) 0.113(6) Uani 1 1 d . . .
H18A H 1.0315 0.9514 0.9335 0.170 Uiso 1 1 calc R . .
H18B H 0.9915 0.9390 0.9729 0.170 Uiso 1 1 calc R . .
H18C H 1.0317 1.0247 0.9538 0.170 Uiso 1 1 calc R . .
C19 C 0.6990(15) 0.8385(11) 0.9640(6) 0.165(2) Uani 1 1 d D . .
H19A H 0.6941 0.7990 0.9455 0.198 Uiso 1 1 calc R C .
H19B H 0.7403 0.8442 0.9817 0.198 Uiso 1 1 calc R . .
C20 C 0.6203(16) 0.8042(11) 0.9842(6) 0.165(2) Uani 1 1 d D . .
H20A H 0.5769 0.7935 0.9667 0.198 Uiso 1 1 calc R . .
H20B H 0.6229 0.8430 1.0025 0.198 Uiso 1 1 calc R . .
N7 N 0.3481(7) 0.6225(8) 1.05183(18) 0.165(2) Uani 1 1 d GD . .
C21 C 0.3887(9) 0.6987(8) 1.03699(17) 0.165(2) Uani 1 1 d GD . .
H21 H 0.3639 0.7304 1.0360 0.198 Uiso 1 1 calc R . .
C22 C 0.4656(8) 0.7286(5) 1.02355(16) 0.165(2) Uani 1 1 d GD . .
H22 H 0.4934 0.7807 1.0134 0.198 Uiso 1 1 calc R . .
C23 C 0.5019(6) 0.6822(8) 1.02495(19) 0.165(2) Uani 1 1 d GD C .
C24 C 0.4613(9) 0.6060(8) 1.0398(2) 0.165(2) Uani 1 1 d GD . .
H24 H 0.4861 0.5743 1.0408 0.198 Uiso 1 1 calc R . .
C25 C 0.3844(9) 0.5761(6) 1.05323(18) 0.165(2) Uani 1 1 d GD . .
H25 H 0.3566 0.5240 1.0634 0.198 Uiso 1 1 calc R . .
C26 C 0.4867(6) 0.7789(6) 0.77198(17) 0.051(2) Uani 1 1 d G . .
H26A H 0.4399 0.7865 0.7739 0.062 Uiso 1 1 calc R . .
H26B H 0.4894 0.7628 0.7466 0.062 Uiso 1 1 calc R . .
C27 C 0.4767(7) 0.7131(6) 0.7984(3) 0.062(3) Uani 1 1 d . . .
H27A H 0.4749 0.7301 0.8237 0.074 Uiso 1 1 calc R . .
H27B H 0.5238 0.7061 0.7963 0.074 Uiso 1 1 calc R . .
C28 C 0.3142(7) 0.6224(7) 0.8163(2) 0.060(3) Uani 1 1 d . . .
C29 C 0.2437(7) 0.5514(7) 0.8223(3) 0.069(3) Uani 1 1 d . . .
H29 H 0.2343 0.5043 0.8100 0.082 Uiso 1 1 calc R . .
C30 C 0.1875(7) 0.5489(6) 0.8460(2) 0.060(3) Uani 1 1 d . . .
H30 H 0.1393 0.5001 0.8499 0.072 Uiso 1 1 calc R . .
C31 C 0.2652(6) 0.6848(6) 0.8565(2) 0.053(2) Uani 1 1 d . . .
H31 H 0.2714 0.7321 0.8674 0.064 Uiso 1 1 calc R . .
C32 C 0.3237(6) 0.6900(6) 0.8333(2) 0.057(3) Uani 1 1 d . . .
H32 H 0.3705 0.7399 0.8292 0.068 Uiso 1 1 calc R . .
C35 C 0.9443(9) 0.6392(8) 0.8222(5) 0.0972(19) Uani 1 1 d . . .
C36 C 1.0100(9) 0.7050(8) 0.8401(5) 0.0972(19) Uani 1 1 d . C .
H36 H 1.0176 0.7570 0.8367 0.117 Uiso 1 1 calc R . .
C37 C 1.0619(9) 0.6958(8) 0.8618(5) 0.0972(19) Uani 1 1 d . . .
H37 H 1.1053 0.7408 0.8731 0.117 Uiso 1 1 calc R C .
C38 C 0.9920(9) 0.5607(8) 0.8493(5) 0.0972(19) Uani 1 1 d . . .
H38 H 0.9856 0.5092 0.8529 0.117 Uiso 1 1 calc R C .
C39 C 0.9421(9) 0.5667(8) 0.8268(5) 0.0972(19) Uani 1 1 d . C .
H39 H 0.9042 0.5211 0.8136 0.117 Uiso 1 1 calc R . .
C40 C -0.0129(10) 0.3469(12) 0.5489(4) 0.154(2) Uani 1 1 d D . .
C41 C 0.3005(5) 0.6322(6) 0.9321(3) 0.049(2) Uani 1 1 d . . .
C42 C 0.3310(6) 0.5850(7) 0.9151(3) 0.062(3) Uani 1 1 d . . .
H42 H 0.2974 0.5291 0.9121 0.075 Uiso 1 1 calc R . .
C43 C 0.4089(8) 0.6221(9) 0.9035(4) 0.081(4) Uani 1 1 d . . .
H43 H 0.4285 0.5912 0.8922 0.098 Uiso 1 1 calc R . .
C44 C 0.4592(7) 0.7025(8) 0.9079(4) 0.081(4) Uani 1 1 d . . .
H44 H 0.5124 0.7266 0.8991 0.097 Uiso 1 1 calc R . .
C45 C 0.4331(7) 0.7477(7) 0.9248(3) 0.066(3) Uani 1 1 d . . .
H45 H 0.4683 0.8031 0.9283 0.080 Uiso 1 1 calc R . .
C46 C 0.3541(6) 0.7118(6) 0.9369(3) 0.058(2) Uani 1 1 d . . .
H46 H 0.3368 0.7440 0.9489 0.069 Uiso 1 1 calc R . .
C47 C 0.1664(6) 0.4825(7) 0.9563(3) 0.058(2) Uani 1 1 d . . .
C48 C 0.1136(5) 0.4230(6) 0.9328(2) 0.045(2) Uani 1 1 d . . .
H48 H 0.0914 0.4364 0.9127 0.054 Uiso 1 1 calc R . .
C49 C 0.0926(7) 0.3425(6) 0.9387(3) 0.058(3) Uani 1 1 d . . .
H49 H 0.0558 0.3014 0.9231 0.070 Uiso 1 1 calc R . .
C50 C 0.1257(8) 0.3261(7) 0.9667(4) 0.079(4) Uani 1 1 d . . .
H50 H 0.1109 0.2719 0.9705 0.095 Uiso 1 1 calc R . .
C51 C 0.1797(11) 0.3817(9) 0.9906(5) 0.106(5) Uani 1 1 d . . .
H51 H 0.2019 0.3671 1.0102 0.127 Uiso 1 1 calc R . .
C52 C 0.2003(9) 0.4611(8) 0.9844(4) 0.091(4) Uani 1 1 d . . .
H52 H 0.2386 0.5015 0.9998 0.109 Uiso 1 1 calc R . .
C53 C 0.2083(7) 0.6323(7) 0.9927(3) 0.070(3) Uani 1 1 d . . .
H53A H 0.2414 0.6186 1.0083 0.084 Uiso 1 1 calc R . .
H53B H 0.2370 0.6910 0.9898 0.084 Uiso 1 1 calc R . .
C54 C 0.1279(7) 0.6061(8) 1.0124(2) 0.074(3) Uani 1 1 d . . .
H54A H 0.0973 0.5471 1.0134 0.089 Uiso 1 1 calc R . .
H54B H 0.1393 0.6258 1.0378 0.089 Uiso 1 1 calc R . .
C55 C 0.0749(7) 0.6359(7) 0.9943(3) 0.070(3) Uani 1 1 d . . .
H55A H 0.1073 0.6943 0.9910 0.084 Uiso 1 1 calc R . .
H55B H 0.0308 0.6253 1.0112 0.084 Uiso 1 1 calc R . .
C56 C -0.0272(7) 0.6373(7) 0.9404(4) 0.075(3) Uani 1 1 d U . .
C57 C 0.0073(10) 0.7201(9) 0.9431(7) 0.132(7) Uani 1 1 d U . .
H57 H 0.0599 0.7511 0.9524 0.158 Uiso 1 1 calc R . .
C58 C -0.0323(10) 0.7552(9) 0.9329(7) 0.136(7) Uani 1 1 d U . .
H58 H -0.0074 0.8117 0.9338 0.163 Uiso 1 1 calc R . .
C59 C -0.1158(12) 0.7075(10) 0.9199(6) 0.131(7) Uani 1 1 d U . .
H59 H -0.1460 0.7322 0.9138 0.157 Uiso 1 1 calc R . .
C60 C -0.1475(9) 0.6277(9) 0.9171(4) 0.085(4) Uani 1 1 d U . .
H60 H -0.2006 0.5951 0.9088 0.102 Uiso 1 1 calc R . .
C61 C -0.1001(7) 0.5932(7) 0.9269(3) 0.070(3) Uani 1 1 d U . .
H61 H -0.1212 0.5375 0.9238 0.084 Uiso 1 1 calc R . .
C62 C -0.0373(5) 0.4863(5) 0.9609(2) 0.045(2) Uani 1 1 d . . .
C63 C -0.0706(6) 0.4634(7) 0.9955(3) 0.064(3) Uani 1 1 d . . .
H63 H -0.0623 0.5026 1.0132 0.077 Uiso 1 1 calc R . .
C64 C -0.1154(7) 0.3843(6) 1.0039(3) 0.067(3) Uani 1 1 d . . .
H64 H -0.1370 0.3691 1.0277 0.080 Uiso 1 1 calc R . .
C65 C -0.1303(6) 0.3240(6) 0.9777(3) 0.060(3) Uani 1 1 d . . .
H65 H -0.1608 0.2689 0.9836 0.072 Uiso 1 1 calc R . .
C66 C -0.0986(6) 0.3490(5) 0.9432(3) 0.055(2) Uani 1 1 d . . .
H66 H -0.1097 0.3104 0.9248 0.066 Uiso 1 1 calc R . .
C67 C -0.0514(6) 0.4285(7) 0.9350(3) 0.057(2) Uani 1 1 d . . .
H67 H -0.0282 0.4439 0.9114 0.069 Uiso 1 1 calc R . .
N1 N 0.6776(6) 0.9094(7) 0.9119(2) 0.080(3) Uani 1 1 d . . .
H1A H 0.6851 0.8896 0.8916 0.096 Uiso 1 1 calc R C .
N2 N 0.6119(5) 0.8959(5) 0.8456(2) 0.0493(18) Uani 1 1 d . . .
N3 N 0.6372(5) 0.8554(5) 0.7775(2) 0.0495(18) Uani 1 1 d . . .
H3 H 0.6588 0.8486 0.7973 0.059 Uiso 1 1 calc R . .
N4 N 0.7830(5) 0.8672(4) 0.7820(2) 0.0495(18) Uani 1 1 d . . .
N5 N 0.8828(6) 0.8833(6) 0.8369(3) 0.071(3) Uani 1 1 d . . .
H5 H 0.8334 0.8728 0.8398 0.085 Uiso 1 1 calc R . .
N6 N 0.8172(7) 0.9135(5) 0.8974(2) 0.068(2) Uani 1 1 d . C .
N8 N 0.2002(4) 0.6154(4) 0.86385(19) 0.0448(17) Uani 1 1 d . . .
N9 N 1.0506(8) 0.6211(6) 0.8673(4) 0.0972(19) Uani 1 1 d . . .
O1 O 0.5980(5) 0.9484(6) 0.9394(2) 0.096(3) Uani 1 1 d . . .
O2 O 0.5036(4) 0.8995(4) 0.83027(18) 0.0573(16) Uani 1 1 d . . .
O3 O 0.6470(4) 0.8721(4) 0.71672(16) 0.0573(16) Uani 1 1 d . . .
O4 O 0.8598(4) 0.8631(4) 0.73785(19) 0.0596(17) Uani 1 1 d . . .
O5 O 0.9998(7) 0.9238(7) 0.8667(3) 0.106(3) Uani 1 1 d . . .
O6 O 0.8660(7) 0.9469(5) 0.9529(2) 0.086(3) Uani 1 1 d . . .
O7 O 0.0791(8) 0.4635(7) 0.5110(4) 0.154(2) Uani 1 1 d D . .
O8 O -0.0084(7) 0.3532(8) 0.4796(3) 0.154(2) Uani 1 1 d D . .
O9 O 0.0948(7) 0.3551(8) 0.5098(3) 0.154(2) Uani 1 1 d D . .
F1 F -0.0756(7) 0.3548(9) 0.5519(3) 0.154(2) Uani 1 1 d D . .
F2 F -0.0312(7) 0.2665(9) 0.5530(3) 0.154(2) Uani 1 1 d D . .
F3 F 0.0340(7) 0.3813(9) 0.5776(3) 0.154(2) Uani 1 1 d D . .
P1 P 0.19830(15) 0.58690(15) 0.94764(6) 0.0470(6) Uani 1 1 d . . .
P2 P 0.03357(15) 0.59109(14) 0.95134(7) 0.0510(6) Uani 1 1 d . . .
Cl1 Cl 0.22085(18) 0.78723(17) 0.92721(8) 0.0720(7) Uani 1 1 d . B 1
Pd1 Pd 0.12124(4) 0.60610(4) 0.906403(17) 0.0442(2) Uani 1 1 d . . .
S1 S 0.5998(5) 0.7135(4) 1.00627(18) 0.165(2) Uani 1 1 d D . .
S2 S 0.38829(19) 0.61899(19) 0.78999(9) 0.0776(9) Uani 1 1 d . . .
S3 S 0.8592(4) 0.6409(3) 0.80465(19) 0.1010(16) Uani 0.70 1 d PD C 1
C33 C 0.9256(12) 0.8004(9) 0.7931(7) 0.1010(16) Uani 0.70 1 d PD C 1
H33A H 0.9187 0.7857 0.7669 0.121 Uiso 0.70 1 calc PR C 1
H33B H 0.9802 0.8148 0.8008 0.121 Uiso 0.70 1 calc PR C 1
C34 C 0.8644 0.7338(7) 0.8159(6) 0.1010(16) Uani 0.70 1 d PD C 1
H34A H 0.8116 0.7290 0.8118 0.121 Uiso 0.70 1 calc PR C 1
H34B H 0.8781 0.7460 0.8420 0.