####################################################################### 
# 
# This file contains crystal structure data downloaded from the 
# Cambridge Structural Database (CSD) hosted by the Cambridge 
# Crystallographic Data Centre (CCDC).
# 
# Full information about CCDC data access policies and citation 
# guidelines are available at http://www.ccdc.cam.ac.uk/access/V1 
# 
# Audit and citation data items may have been added by the CCDC. 
# Please retain this information to preserve the provenance of 
# this file and to allow appropriate attribution of the data. 
# 
#######################################################################

data_abs
_audit_block_doi                 10.5517/ccx7mtk
_database_code_depnum_ccdc_archive 'CCDC 841489'
_audit_update_record             
;
2011-08-24 deposited with the CCDC.	2024-07-13 downloaded from the CCDC.
;
#TrackingRef 'K-158.CIF'


_audit_creation_method           SHELXL-97
_chemical_name_systematic        
;
?
;
_chemical_name_common            ?
_chemical_melting_point          ?
_chemical_formula_moiety         'C23 H15 Br2 F N4 O3 Zn, 2(C3 H7 N O)'
_chemical_formula_sum            'C29 H29 Br2 F N6 O5 Zn'
_chemical_formula_weight         785.77

loop_
_atom_type_symbol
_atom_type_description
_atom_type_scat_dispersion_real
_atom_type_scat_dispersion_imag
_atom_type_scat_source
C C 0.0033 0.0016 'International Tables Vol C Tables 4.2.6.8 and 6.1.1.4'
H H 0.0000 0.0000 'International Tables Vol C Tables 4.2.6.8 and 6.1.1.4'
N N 0.0061 0.0033 'International Tables Vol C Tables 4.2.6.8 and 6.1.1.4'
O O 0.0106 0.0060 'International Tables Vol C Tables 4.2.6.8 and 6.1.1.4'
Zn Zn 0.2839 1.4301 'International Tables Vol C Tables 4.2.6.8 and 6.1.1.4'
Br Br -0.2901 2.4595 'International Tables Vol C Tables 4.2.6.8 and 6.1.1.4'
F F 0.0171 0.0103 'International Tables Vol C Tables 4.2.6.8 and 6.1.1.4'

_symmetry_cell_setting           Monoclinic
_symmetry_space_group_name_H-M   Cc
_symmetry_space_group_name_Hall  C-2yc
loop_
_symmetry_equiv_pos_as_xyz
'x, y, z'
'x, -y, z+1/2'
'x+1/2, y+1/2, z'
'x+1/2, -y+1/2, z+1/2'

_cell_length_a                   11.4604(8)
_cell_length_b                   31.4795(19)
_cell_length_c                   9.5863(5)
_cell_angle_alpha                90.00
_cell_angle_beta                 107.754(5)
_cell_angle_gamma                90.00
_cell_volume                     3293.7(3)
_cell_formula_units_Z            4
_cell_measurement_temperature    295(2)
_cell_measurement_reflns_used    2698
_cell_measurement_theta_min      3.11
_cell_measurement_theta_max      26.37

_exptl_crystal_description       prism
_exptl_crystal_colour            yellow
_exptl_crystal_size_max          0.2917
_exptl_crystal_size_mid          0.1571
_exptl_crystal_size_min          0.0929
_exptl_crystal_density_meas      ?
_exptl_crystal_density_diffrn    1.585
_exptl_crystal_density_method    'not measured'
_exptl_crystal_F_000             1576
_exptl_absorpt_coefficient_mu    3.223
_exptl_absorpt_correction_T_min  0.414
_exptl_absorpt_correction_T_max  0.593
_exptl_absorpt_correction_type   analytical
_exptl_absorpt_process_details   
;
CrysAlis RED, Oxford Diffraction Ltd.,
Version 1.171.29.9 (release 23-03-2006 CrysAlis171 .NET)
(compiled Mar 23 2006,23:39:28)
Analytical numeric absorption correction using a multifaceted crystal
model based on expressions derived by R.C. Clark & J.S. Reid.
(Clark, R. C. & Reid, J. S. (1995). Acta Cryst. A51, 887-897)
;

_exptl_special_details           
;
?
;

_diffrn_ambient_temperature      295(2)
_diffrn_radiation_wavelength     0.71073
_diffrn_radiation_type           MoK\a
_diffrn_radiation_source         'fine-focus sealed tube'
_diffrn_radiation_monochromator  graphite
_diffrn_measurement_device_type  'Xcalibur 3 CCD'
_diffrn_measurement_method       'omega scans'
_diffrn_detector_area_resol_mean ?
_diffrn_standards_number         0
_diffrn_standards_interval_count 0
_diffrn_standards_interval_time  0
_diffrn_standards_decay_%        0
_diffrn_reflns_number            6914
_diffrn_reflns_av_R_equivalents  0.0357
_diffrn_reflns_av_sigmaI/netI    0.0863
_diffrn_reflns_limit_h_min       -13
_diffrn_reflns_limit_h_max       14
_diffrn_reflns_limit_k_min       -39
_diffrn_reflns_limit_k_max       36
_diffrn_reflns_limit_l_min       -11
_diffrn_reflns_limit_l_max       7
_diffrn_reflns_theta_min         3.11
_diffrn_reflns_theta_max         26.37
_reflns_number_total             4666
_reflns_number_gt                2698
_reflns_threshold_expression     >2sigma(I)

_computing_data_collection       
;
CrysAlis CCD, Oxford Diffraction Ltd.,
Version 1.171.29.9 (release 23-03-2006 CrysAlis171 .NET)
(compiled Mar 23 2006,23:39:28)
;
_computing_cell_refinement       
;
CrysAlis RED, Oxford Diffraction Ltd.,
Version 1.171.29.9 (release 23-03-2006 CrysAlis171 .NET)
(compiled Mar 23 2006,23:39:28)
;
_computing_data_reduction        
;
CrysAlis RED, Oxford Diffraction Ltd.,
Version 1.171.29.9 (release 23-03-2006 CrysAlis171 .NET)
(compiled Mar 23 2006,23:39:28)
;
_computing_structure_solution    'SHELXS-97 (Sheldrick, 1990)'
_computing_structure_refinement  'SHELXL-97 (Sheldrick, 1997)'
_computing_molecular_graphics    'Bruker SHELXTL'
_computing_publication_material  'Bruker SHELXTL'

_refine_special_details          
;
Refinement of F^2^ against ALL reflections. The weighted R-factor wR and
goodness of fit S are based on F^2^, conventional R-factors R are based
on F, with F set to zero for negative F^2^. The threshold expression of
F^2^ > 2sigma(F^2^) is used only for calculating R-factors(gt) etc. and is
not relevant to the choice of reflections for refinement. R-factors based
on F^2^ are statistically about twice as large as those based on F, and R-
factors based on ALL data will be even larger.
;

_refine_ls_structure_factor_coef Fsqd
_refine_ls_matrix_type           full
_refine_ls_weighting_scheme      calc
_refine_ls_weighting_details     
'calc w=1/[\s^2^(Fo^2^)+(0.0070P)^2^+0.0000P] where P=(Fo^2^+2Fc^2^)/3'
_atom_sites_solution_primary     direct
_atom_sites_solution_secondary   difmap
_atom_sites_solution_hydrogens   geom
_refine_ls_hydrogen_treatment    constr
_refine_ls_extinction_method     none
_refine_ls_extinction_coef       ?
_refine_ls_abs_structure_details 'Flack H D (1983), Acta Cryst. A39, 876-881'
_refine_ls_abs_structure_Flack   0.059(9)
_refine_ls_number_reflns         4666
_refine_ls_number_parameters     425
_refine_ls_number_restraints     38
_refine_ls_R_factor_all          0.0762
_refine_ls_R_factor_gt           0.0366
_refine_ls_wR_factor_ref         0.0420
_refine_ls_wR_factor_gt          0.0400
_refine_ls_goodness_of_fit_ref   1.001
_refine_ls_restrained_S_all      1.003
_refine_ls_shift/su_max          0.001
_refine_ls_shift/su_mean         0.000

loop_
_atom_site_label
_atom_site_type_symbol
_atom_site_fract_x
_atom_site_fract_y
_atom_site_fract_z
_atom_site_U_iso_or_equiv
_atom_site_adp_type
_atom_site_occupancy
_atom_site_symmetry_multiplicity
_atom_site_calc_flag
_atom_site_refinement_flags
_atom_site_disorder_assembly
_atom_site_disorder_group
Zn1 Zn 0.99058(5) 0.976270(18) 0.49068(5) 0.04584(16) Uani 1 1 d . . 1
Br1 Br 0.73397(5) 0.84710(2) 0.34037(7) 0.0836(2) Uani 1 1 d . . 1
Br2 Br 1.15605(8) 0.74282(2) 0.54558(10) 0.1407(4) Uani 1 1 d . . 1
O2 O 0.9589(3) 0.99050(9) 0.2806(3) 0.0477(9) Uani 1 1 d . . 1
C9 C 0.9796(5) 1.08938(14) 0.5009(6) 0.0431(13) Uani 1 1 d . . 1
N1 N 1.1190(3) 1.03024(13) 0.5846(4) 0.0442(10) Uani 1 1 d . . 1
O4 O 0.9207(3) 0.91612(11) 0.4502(3) 0.0550(10) Uani 1 1 d . . 1
N2 N 1.1552(4) 0.94852(14) 0.5982(4) 0.0507(11) Uani 1 1 d . . 1
N3 N 1.1665(4) 1.09672(14) 0.6958(5) 0.0581(13) Uani 1 1 d . . 1
H3B H 1.1412 1.1220 0.7043 0.070 Uiso 1 1 calc R . 1
O1 O 0.8531(3) 0.99634(10) 0.5506(3) 0.0550(10) Uani 1 1 d . . 1
C19 C 0.9750(6) 0.88006(17) 0.4728(6) 0.0496(14) Uani 1 1 d . . 1
N4 N 1.2529(3) 0.97303(15) 0.6833(4) 0.0560(11) Uani 1 1 d . . 1
C1 C 1.0930(5) 1.06975(17) 0.5987(5) 0.0464(14) Uani 1 1 d . . 1
C8 C 1.2293(5) 1.01380(19) 0.6765(6) 0.0512(14) Uani 1 1 d . . 1
C22 C 1.0832(7) 0.7976(2) 0.5125(7) 0.085(2) Uani 1 1 d . . 1
C16 C 0.8567(5) 0.99136(14) 0.1767(6) 0.0418(13) Uani 1 1 d . . 1
C17 C 1.1826(5) 0.90877(19) 0.6031(5) 0.0612(16) Uani 1 1 d . . 1
H17A H 1.2638 0.9019 0.6518 0.073 Uiso 1 1 calc R . 1
F1 F 1.4847(3) 0.99374(11) 0.8351(4) 0.1225(15) Uani 1 1 d . . 1
C2 C 1.2818(5) 1.08442(19) 0.7819(5) 0.0539(15) Uani 1 1 d . . 1
C10 C 0.9502(5) 1.08650(15) 0.3500(6) 0.0534(15) Uani 1 1 d . . 1
H10A H 1.0010 1.0711 0.3094 0.064 Uiso 1 1 calc R . 1
C3 C 1.3598(6) 1.11453(18) 0.8703(6) 0.0725(18) Uani 1 1 d . . 1
H3A H 1.3335 1.1422 0.8763 0.087 Uiso 1 1 calc R . 1
C23 C 1.1530(6) 0.83303(17) 0.5594(6) 0.0718(18) Uani 1 1 d . . 1
H23A H 1.2368 0.8299 0.6041 0.086 Uiso 1 1 calc R . 1
C7 C 1.3188(5) 1.04271(18) 0.7687(5) 0.0559(15) Uani 1 1 d . . 1
C20 C 0.9051(5) 0.84115(19) 0.4262(5) 0.0590(15) Uani 1 1 d . . 1
C14 C 0.9021(6) 1.1123(2) 0.5593(6) 0.0720(18) Uani 1 1 d . . 1
H14A H 0.9199 1.1146 0.6604 0.086 Uiso 1 1 calc R . 1
C21 C 0.9575(7) 0.8018(2) 0.4477(6) 0.075(2) Uani 1 1 d . . 1
H21A H 0.9090 0.7777 0.4190 0.090 Uiso 1 1 calc R . 1
C13 C 0.7978(5) 1.13202(19) 0.4678(7) 0.084(2) Uani 1 1 d . . 1
H13A H 0.7450 1.1470 0.5069 0.101 Uiso 1 1 calc R . 1
C12 C 0.7744(5) 1.1289(2) 0.3192(7) 0.081(2) Uani 1 1 d . . 1
H12A H 0.7069 1.1429 0.2572 0.097 Uiso 1 1 calc R . 1
C18 C 1.1026(5) 0.87363(17) 0.5424(5) 0.0533(15) Uani 1 1 d . . 1
C15 C 0.7430(5) 0.97812(19) 0.2054(5) 0.0733(18) Uani 1 1 d . . 1
H15A H 0.6755 0.9807 0.1172 0.110 Uiso 1 1 calc R . 1
H15B H 0.7289 0.9959 0.2799 0.110 Uiso 1 1 calc R . 1
H15C H 0.7504 0.9491 0.2378 0.110 Uiso 1 1 calc R . 1
C11 C 0.8493(6) 1.10555(18) 0.2603(6) 0.0678(18) Uani 1 1 d . . 1
H11A H 0.8306 1.1028 0.1592 0.081 Uiso 1 1 calc R . 1
C4 C 1.4754(6) 1.1022(2) 0.9474(6) 0.0688(18) Uani 1 1 d . . 1
H4A H 1.5262 1.1216 1.0108 0.083 Uiso 1 1 calc R . 1
C6 C 1.4407(6) 1.0333(2) 0.8489(7) 0.0767(17) Uani 1 1 d . . 1
C5 C 1.5206(6) 1.0617(2) 0.9352(7) 0.097(2) Uani 1 1 d . . 1
H5A H 1.6014 1.0544 0.9837 0.116 Uiso 1 1 calc R . 1
N1S N 1.4306(6) 1.1324(3) 1.4385(8) 0.130(3) Uani 1 1 d . A 1
O1S O 1.4655(6) 1.1650(2) 1.2466(8) 0.155(3) Uani 1 1 d . A 1
C2S C 1.4416(8) 1.0931(3) 1.5146(9) 0.179(4) Uani 1 1 d . A 1
H2SA H 1.4806 1.0726 1.4694 0.269 Uiso 1 1 calc R A 1
H2SB H 1.3616 1.0830 1.5109 0.269 Uiso 1 1 calc R A 1
H2SC H 1.4899 1.0970 1.6149 0.269 Uiso 1 1 calc R A 1
C3S C 1.3647(10) 1.1640(3) 1.4815(13) 0.226(6) Uani 1 1 d . A 1
H3SA H 1.3643 1.1892 1.4250 0.338 Uiso 1 1 calc R A 1
H3SB H 1.4021 1.1701 1.5836 0.338 Uiso 1 1 calc R A 1
H3SC H 1.2821 1.1545 1.4660 0.338 Uiso 1 1 calc R A 1
C1S C 1.4758(7) 1.1358(4) 1.3255(12) 0.141(4) Uani 1 1 d . A 1
H1SA H 1.5198 1.1126 1.3077 0.170 Uiso 1 1 calc R A 1
O2S O 0.1422(5) 0.81525(17) 0.1620(7) 0.1225(19) Uani 1 1 d . B 1
N2S N 0.0418(6) 0.7665(2) 0.0028(9) 0.118(2) Uani 1 1 d . B 1
C5S C -0.0247(13) 0.7318(4) -0.0269(19) 0.161(5) Uani 0.70 1 d PU B 1
H5SA H -0.0280 0.7190 0.0628 0.241 Uiso 0.70 1 calc PR B 1
H5SB H 0.0115 0.7122 -0.0785 0.241 Uiso 0.70 1 calc PR B 1
H5SC H -0.1061 0.7388 -0.0866 0.241 Uiso 0.70 1 calc PR B 1
C6S C 0.0432(12) 0.7919(5) -0.1194(15) 0.195(6) Uani 0.70 1 d PU B 1
H6SA H 0.0993 0.8151 -0.0867 0.292 Uiso 0.70 1 calc PR B 1
H6SB H -0.0375 0.8028 -0.1660 0.292 Uiso 0.70 1 calc PR B 1
H6SC H 0.0688 0.7749 -0.1880 0.292 Uiso 0.70 1 calc PR B 1
C4S C 0.0834(13) 0.7836(5) 0.1323(17) 0.136(5) Uani 0.70 1 d PU B 1
H4SA H 0.0653 0.7696 0.2088 0.163 Uiso 0.70 1 calc PR B 1
C4SA C 0.065(3) 0.8052(10) 0.034(4) 0.103(9) Uani 0.30 1 d PU C 2
H4SB H 0.0337 0.8258 -0.0416 0.123 Uiso 0.30 1 d PR C 2
C6SA C 0.115(3) 0.7345(9) 0.102(3) 0.144(10) Uani 0.30 1 d PU D 2
H6SD H 0.1606 0.7468 0.1947 0.216 Uiso 0.30 1 d PR D 2
H6SE H 0.0539 0.7157 0.1166 0.216 Uiso 0.30 1 d PR D 2
H6SF H 0.1700 0.7189 0.0632 0.216 Uiso 0.30 1 d PR D 2
C5SA C -0.038(2) 0.7476(9) -0.137(2) 0.108(9) Uani 0.30 1 d PU E 2
H5SD H -0.0764 0.7698 -0.2034 0.161 Uiso 0.30 1 d PR E 2
H5SE H 0.0167 0.7320 -0.1764 0.161 Uiso 0.30 1 d PR E 2
H5SF H -0.0994 0.7288 -0.1230 0.161 Uiso 0.30 1 d PR E 2

loop_
_atom_site_aniso_label
_atom_site_aniso_U_11
_atom_site_aniso_U_22
_atom_site_aniso_U_33
_atom_site_aniso_U_23
_atom_site_aniso_U_13
_atom_site_aniso_U_12
Zn1 0.0520(4) 0.0474(4) 0.0333(3) 0.0005(4) 0.0057(3) 0.0024(4)
Br1 0.0740(4) 0.0764(5) 0.0916(5) -0.0144(4) 0.0123(4) -0.0216(4)
Br2 0.1630(8) 0.0476(4) 0.1807(9) 0.0013(5) 0.0066(6) 0.0239(5)
O2 0.048(2) 0.051(2) 0.043(2) -0.0060(16) 0.0126(18) -0.0109(18)
C9 0.050(4) 0.041(3) 0.036(4) -0.001(3) 0.009(3) 0.001(3)
N1 0.040(3) 0.049(3) 0.036(2) 0.003(2) 0.000(2) 0.013(2)
O4 0.054(2) 0.043(2) 0.059(2) 0.0052(19) 0.0037(19) 0.001(2)
N2 0.056(3) 0.036(3) 0.058(3) -0.004(2) 0.014(3) -0.003(3)
N3 0.049(3) 0.056(3) 0.059(3) -0.018(3) 0.001(3) 0.003(3)
O1 0.062(2) 0.070(2) 0.030(2) -0.0125(18) 0.0096(19) -0.0087(19)
C19 0.071(5) 0.043(4) 0.037(3) -0.001(3) 0.019(3) -0.001(4)
N4 0.045(3) 0.046(3) 0.061(3) -0.002(3) -0.009(2) -0.005(3)
C1 0.045(4) 0.046(4) 0.039(3) -0.001(3) -0.002(3) 0.005(3)
C8 0.042(4) 0.050(4) 0.056(4) 0.001(3) 0.006(3) -0.003(3)
C22 0.110(6) 0.058(5) 0.080(5) -0.001(4) 0.019(4) 0.013(5)
C16 0.028(3) 0.046(3) 0.049(4) -0.009(3) 0.008(3) 0.004(3)
C17 0.051(4) 0.053(4) 0.068(4) 0.001(3) 0.001(3) -0.004(3)
F1 0.065(2) 0.069(3) 0.180(4) 0.008(3) -0.042(2) -0.002(2)
C2 0.056(4) 0.057(4) 0.040(3) 0.000(3) 0.003(3) -0.006(4)
C10 0.069(4) 0.042(4) 0.047(4) -0.004(3) 0.014(3) 0.010(3)
C3 0.078(5) 0.067(4) 0.055(4) -0.011(3) -0.006(3) -0.022(4)
C23 0.085(5) 0.046(4) 0.075(4) -0.005(4) 0.009(4) 0.007(4)
C7 0.045(4) 0.057(4) 0.051(3) 0.011(3) -0.007(3) -0.007(3)
C20 0.075(4) 0.046(4) 0.056(4) 0.001(3) 0.021(3) -0.008(4)
C14 0.082(5) 0.087(5) 0.041(4) -0.002(3) 0.009(4) 0.011(4)
C21 0.112(6) 0.039(4) 0.069(5) -0.003(3) 0.020(4) -0.005(4)
C13 0.072(5) 0.105(6) 0.068(5) -0.022(4) 0.011(4) 0.043(4)
C12 0.079(5) 0.092(5) 0.057(5) 0.000(4) -0.001(4) 0.032(4)
C18 0.056(4) 0.050(4) 0.048(4) 0.005(3) 0.008(3) 0.005(3)
C15 0.054(4) 0.099(5) 0.058(4) 0.012(4) 0.004(3) 0.000(4)
C11 0.090(5) 0.068(5) 0.039(4) 0.000(3) 0.010(4) 0.011(4)
C4 0.076(5) 0.066(5) 0.051(4) -0.011(3) 0.000(4) -0.026(4)
C6 0.062(5) 0.054(5) 0.091(5) 0.015(4) -0.011(4) 0.008(4)
C5 0.072(5) 0.091(6) 0.084(5) 0.010(4) -0.041(4) -0.019(5)
N1S 0.107(6) 0.197(9) 0.089(5) 0.014(5) 0.034(4) -0.039(6)
O1S 0.134(5) 0.160(6) 0.144(6) 0.048(4) 0.003(4) -0.023(4)
C2S 0.251(12) 0.187(11) 0.111(7) 0.006(8) 0.071(7) -0.001(9)
C3S 0.238(13) 0.203(12) 0.278(14) -0.030(10) 0.142(10) 0.066(10)
C1S 0.070(6) 0.210(13) 0.125(9) -0.015(8) 0.002(6) -0.033(7)
O2S 0.136(5) 0.068(4) 0.147(5) 0.008(3) 0.020(4) -0.011(3)
N2S 0.153(7) 0.076(5) 0.129(7) -0.014(5) 0.052(6) -0.030(5)
C5S 0.168(9) 0.137(9) 0.186(9) -0.018(8) 0.066(8) -0.008(8)
C6S 0.204(10) 0.197(10) 0.193(9) 0.012(9) 0.073(8) -0.012(8)
C4S 0.151(9) 0.138(9) 0.119(8) -0.001(8) 0.042(7) 0.003(8)
C4SA 0.114(12) 0.094(12) 0.095(12) -0.007(9) 0.024(9) 0.005(9)
C6SA 0.163(13) 0.120(13) 0.135(13) -0.003(9) 0.025(9) 0.010(9)
C5SA 0.112(12) 0.096(12) 0.102(12) -0.027(9) 0.015(9) -0.014(9)

_geom_special_details            
;
All esds (except the esd in the dihedral angle between two l.s. planes)
are estimated using the full covariance matrix. The cell esds are taken
into account individually in the estimation of esds in distances, angles
and torsion angles; correlations between esds in cell parameters are only
used when they are defined by crystal symmetry. An approximate (isotropic)
treatment of cell esds is used for estimating esds involving l.s. planes.
;

loop_
_geom_bond_atom_site_label_1
_geom_bond_atom_site_label_2
_geom_bond_distance
_geom_bond_site_symmetry_2
_geom_bond_publ_flag
Zn1 O1 1.940(3) . ?
Zn1 O2 1.986(3) . ?
Zn1 O4 2.046(3) . ?
Zn1 N2 2.049(4) . ?
Zn1 N1 2.248(4) . ?
Br1 C20 1.891(5) . ?
Br2 C22 1.899(6) . ?
O2 C16 1.286(5) . ?
C9 C10 1.384(6) . ?
C9 C14 1.389(7) . ?
C9 C1 1.485(6) . ?
N1 C1 1.296(5) . ?
N1 C8 1.401(6) . ?
O4 C19 1.281(5) . ?
N2 C17 1.287(5) . ?
N2 N4 1.400(5) . ?
N3 C1 1.349(5) . ?
N3 C2 1.383(6) . ?
N3 H3B 0.8600 . ?
O1 C16 1.258(5) 2_575 ?
C19 C18 1.425(7) . ?
C19 C20 1.457(6) . ?
N4 C8 1.309(6) . ?
C8 C7 1.452(6) . ?
C22 C23 1.367(7) . ?
C22 C21 1.391(8) . ?
C16 O1 1.258(5) 2_574 ?
C16 C15 1.472(6) . ?
C17 C18 1.441(6) . ?
C17 H17A 0.9300 . ?
F1 C6 1.366(6) . ?
C2 C7 1.398(6) . ?
C2 C3 1.398(6) . ?
C10 C11 1.353(6) . ?
C10 H10A 0.9300 . ?
C3 C4 1.362(7) . ?
C3 H3A 0.9300 . ?
C23 C18 1.391(6) . ?
C23 H23A 0.9300 . ?
C7 C6 1.405(7) . ?
C20 C21 1.365(7) . ?
C14 C13 1.393(6) . ?
C14 H14A 0.9300 . ?
C21 H21A 0.9300 . ?
C13 C12 1.370(7) . ?
C13 H13A 0.9300 . ?
C12 C11 1.376(7) . ?
C12 H12A 0.9300 . ?
C15 H15A 0.9600 . ?
C15 H15B 0.9600 . ?
C15 H15C 0.9600 . ?
C11 H11A 0.9300 . ?
C4 C5 1.395(7) . ?
C4 H4A 0.9300 . ?
C6 C5 1.363(7) . ?
C5 H5A 0.9300 . ?
N1S C1S 1.340(10) . ?
N1S C3S 1.385(10) . ?
N1S C2S 1.424(9) . ?
O1S C1S 1.175(10) . ?
