####################################################################### 
# 
# This file contains crystal structure data downloaded from the 
# Cambridge Structural Database (CSD) hosted by the Cambridge 
# Crystallographic Data Centre (CCDC).
# 
# Full information about CCDC data access policies and citation 
# guidelines are available at http://www.ccdc.cam.ac.uk/access/V1 
# 
# Audit and citation data items may have been added by the CCDC. 
# Please retain this information to preserve the provenance of 
# this file and to allow appropriate attribution of the data. 
# 
#######################################################################

data_STA12MG-AP
_audit_block_doi                 10.5517/cczrqv8
_database_code_depnum_ccdc_archive 'CCDC 916541'
loop_
_citation_id
_citation_doi
_citation_year
1 10.1016/j.micromeso.2011.12.003 2012
_audit_update_record             
;
2012-12-20 deposited with the CCDC.	2024-07-13 downloaded from the CCDC.
;
# 2. Crystal data
_audit_creation_method           SHELXL-97
_chemical_name_systematic        
;
?
;
_chemical_name_common            ?
_chemical_melting_point          ?
_chemical_formula_moiety         'C3 H8 Mg N O4 P, 1.99(O)'
_chemical_formula_sum            'C3 H8 Mg N O5.99 P'
_chemical_formula_weight         209.17

loop_
_atom_type_symbol
_atom_type_description
_atom_type_scat_dispersion_real
_atom_type_scat_dispersion_imag
_atom_type_scat_source
C C 0.0033 0.0016 'International Tables Vol C Tables 4.2.6.8 and 6.1.1.4'
H H 0.0000 0.0000 'International Tables Vol C Tables 4.2.6.8 and 6.1.1.4'
N N 0.0061 0.0033 'International Tables Vol C Tables 4.2.6.8 and 6.1.1.4'
O O 0.0106 0.0060 'International Tables Vol C Tables 4.2.6.8 and 6.1.1.4'
Mg Mg 0.0486 0.0363 'International Tables Vol C Tables 4.2.6.8 and 6.1.1.4'
P P 0.1023 0.0942 'International Tables Vol C Tables 4.2.6.8 and 6.1.1.4'

_symmetry_cell_setting           trigonal
_symmetry_space_group_name_H-M   'R -3'
_symmetry_space_group_name_Hall  '-R 3'

loop_
_symmetry_equiv_pos_as_xyz
'x, y, z'
'-y, x-y, z'
'-x+y, -x, z'
'x+2/3, y+1/3, z+1/3'
'-y+2/3, x-y+1/3, z+1/3'
'-x+y+2/3, -x+1/3, z+1/3'
'x+1/3, y+2/3, z+2/3'
'-y+1/3, x-y+2/3, z+2/3'
'-x+y+1/3, -x+2/3, z+2/3'
'-x, -y, -z'
'y, -x+y, -z'
'x-y, x, -z'
'-x+2/3, -y+1/3, -z+1/3'
'y+2/3, -x+y+1/3, -z+1/3'
'x-y+2/3, x+1/3, -z+1/3'
'-x+1/3, -y+2/3, -z+2/3'
'y+1/3, -x+y+2/3, -z+2/3'
'x-y+1/3, x+2/3, -z+2/3'

_cell_length_a                   28.1046(8)
_cell_length_b                   28.1046(8)
_cell_length_c                   6.2967(3)
_cell_angle_alpha                90.00
_cell_angle_beta                 90.00
_cell_angle_gamma                120.00
_cell_volume                     4307.2(3)
_cell_formula_units_Z            18
_cell_measurement_temperature    120(2)
_cell_measurement_reflns_used    11289
_cell_measurement_theta_min      2.91
_cell_measurement_theta_max      30.0

_exptl_crystal_description       needle
_exptl_crystal_colour            colourless
_exptl_crystal_size_max          0.14
_exptl_crystal_size_mid          0.04
_exptl_crystal_size_min          0.04
_exptl_crystal_density_meas      1.705
_exptl_crystal_density_diffrn    1.452
_exptl_crystal_density_method    'He pycnometry'
_exptl_crystal_F_000             1942.4
_exptl_absorpt_coefficient_mu    0.346
_exptl_absorpt_correction_type   multi-scan
_exptl_absorpt_correction_T_min  0.983
_exptl_absorpt_correction_T_max  0.986
_exptl_absorpt_process_details   'SADABS 2007/2 (Sheldrick, G.M., 2007)'

_exptl_special_details           
;
?
;

_diffrn_ambient_temperature      120(2)
_diffrn_radiation_wavelength     0.71073
_diffrn_radiation_type           MoK\a
_diffrn_radiation_source         'Bruker-Nonius FR591 rotating anode'
_diffrn_radiation_monochromator  '10cm confocal mirrors'
_diffrn_measurement_device_type  'Bruker-Nonius APEX II CCD camera \k-goniostat'
_diffrn_measurement_method       '\f & \w scans'
_diffrn_detector_area_resol_mean '4096x4096pixels / 62x62mm'
_diffrn_reflns_number            15254
_diffrn_reflns_av_R_equivalents  0.0625
_diffrn_reflns_av_sigmaI/netI    0.0459
_diffrn_reflns_limit_h_min       -37
_diffrn_reflns_limit_h_max       39
_diffrn_reflns_limit_k_min       -39
_diffrn_reflns_limit_k_max       39
_diffrn_reflns_limit_l_min       -8
_diffrn_reflns_limit_l_max       5
_diffrn_reflns_theta_min         3.34
_diffrn_reflns_theta_max         29.98
_reflns_number_total             2794
_reflns_number_gt                2278
_reflns_threshold_expression     >2sigma(I)

_computing_data_collection       'COLLECT (Hooft, R.W.W., 1998)'
_computing_cell_refinement       
'DENZO (Otwinowski & Minor, 1997) & COLLECT (Hooft, R.W.W., 1998)'
_computing_data_reduction        
'DENZO (Otwinowski & Minor, 1997) & COLLECT (Hooft, R.W.W., 1998)'
_computing_structure_solution    'SHELXS-97 (Sheldrick, 1990)'
_computing_structure_refinement  'SHELXL-97 (Sheldrick, 1997)'

_refine_special_details          
;
Refinement of F^2^ against ALL reflections. The weighted R-factor wR and
goodness of fit S are based on F^2^, conventional R-factors R are based
on F, with F set to zero for negative F^2^. The threshold expression of
F^2^ > 2sigma(F^2^) is used only for calculating R-factors(gt) etc. and is
not relevant to the choice of reflections for refinement. R-factors based
on F^2^ are statistically about twice as large as those based on F, and R-
factors based on ALL data will be even larger.
;

_refine_ls_structure_factor_coef Fsqd
_refine_ls_matrix_type           full
_refine_ls_weighting_scheme      calc
_refine_ls_weighting_details     
'calc w=1/[\s^2^(Fo^2^)+(0.1204P)^2^+54.9266P] where P=(Fo^2^+2Fc^2^)/3'
_atom_sites_solution_primary     direct
_atom_sites_solution_secondary   difmap
_atom_sites_solution_hydrogens   geom
_refine_ls_hydrogen_treatment    constr
_refine_ls_extinction_method     none
_refine_ls_extinction_coef       ?
_refine_ls_number_reflns         2794
_refine_ls_number_parameters     130
_refine_ls_number_restraints     0
_refine_ls_R_factor_all          0.0943
_refine_ls_R_factor_gt           0.0783
_refine_ls_wR_factor_ref         0.2345
_refine_ls_wR_factor_gt          0.2250
_refine_ls_goodness_of_fit_ref   1.095
_refine_ls_restrained_S_all      1.095
_refine_ls_shift/su_max          0.001
_refine_ls_shift/su_mean         0.000

loop_
_atom_site_label
_atom_site_type_symbol
_atom_site_fract_x
_atom_site_fract_y
_atom_site_fract_z
_atom_site_U_iso_or_equiv
_atom_site_adp_type
_atom_site_occupancy
_atom_site_symmetry_multiplicity
_atom_site_calc_flag
_atom_site_refinement_flags
_atom_site_disorder_assembly
_atom_site_disorder_group
Mg1 Mg 0.03070(5) 0.64192(5) -0.06645(18) 0.0101(3) Uani 1 1 d . . .
P1 P 0.04165(4) 0.61889(4) 0.41403(14) 0.0104(2) Uani 1 1 d . . .
O1 O 0.09501(12) 0.62121(13) 0.4684(4) 0.0189(6) Uani 1 1 d . . .
O2 O 0.01155(10) 0.62170(10) 0.6131(4) 0.0117(5) Uani 1 1 d . . .
O3 O 0.04772(10) 0.66238(10) 0.2526(4) 0.0112(5) Uani 1 1 d . . .
N1 N 0.00818(13) 0.55615(13) 0.0489(5) 0.0153(6) Uani 1 1 d . . .
C1 C -0.00545(16) 0.55464(15) 0.2799(6) 0.0164(7) Uani 1 1 d . . .
H1A H -0.0037 0.5246 0.3479 0.020 Uiso 1 1 calc R . .
H1B H -0.0427 0.5478 0.2940 0.020 Uiso 1 1 calc R . .
C2 C 0.05432(16) 0.54545(15) 0.0149(6) 0.0174(7) Uani 1 1 d . . .
H2A H 0.0852 0.5708 0.1017 0.021 Uiso 1 1 calc R . .
H2B H 0.0657 0.5529 -0.1325 0.021 Uiso 1 1 calc R . .
C3 C -0.04054(16) 0.51313(15) -0.0679(6) 0.0171(7) Uani 1 1 d . . .
H3A H -0.0337 0.5191 -0.2192 0.021 Uiso 1 1 calc R . .
H3B H -0.0721 0.5171 -0.0347 0.021 Uiso 1 1 calc R . .
O100 O 0.11026(11) 0.66405(11) -0.1382(4) 0.0171(5) Uani 1 1 d . . .
H10A H 0.1134 0.6514 -0.2662 0.020 Uiso 1 1 d R . .
H10B H 0.1435 0.6877 -0.1109 0.020 Uiso 1 1 d R . .
O101 O 0.2185(2) 0.7475(2) -0.1103(12) 0.0794(19) Uani 1 1 d . . .
O102 O 0.2669(4) 0.7083(4) -0.3821(15) 0.060(3) Uani 0.577(19) 1 d P . .
O103 O 0.2678(7) 0.7136(6) -0.804(3) 0.051(7) Uani 0.258(18) 1 d P . .
O104 O 0.2995(11) 0.7753(9) -0.044(4) 0.034(8) Uani 0.152(16) 1 d P . .

loop_
_atom_site_aniso_label
_atom_site_aniso_U_11
_atom_site_aniso_U_22
_atom_site_aniso_U_33
_atom_site_aniso_U_23
_atom_site_aniso_U_13
_atom_site_aniso_U_12
Mg1 0.0122(6) 0.0115(5) 0.0070(5) -0.0006(4) -0.0004(4) 0.0062(4)
P1 0.0134(4) 0.0125(4) 0.0076(4) 0.0001(3) 0.0008(3) 0.0082(3)
O1 0.0197(13) 0.0327(15) 0.0129(12) -0.0009(11) -0.0025(10) 0.0196(12)
O2 0.0147(11) 0.0143(11) 0.0076(11) 0.0002(9) 0.0013(8) 0.0083(9)
O3 0.0145(11) 0.0113(11) 0.0082(11) 0.0004(8) 0.0005(8) 0.0067(9)
N1 0.0159(14) 0.0138(13) 0.0173(15) -0.0035(11) -0.0028(11) 0.0083(11)
C1 0.0219(17) 0.0136(15) 0.0136(16) -0.0005(12) 0.0013(13) 0.0087(13)
C2 0.0201(17) 0.0166(16) 0.0173(17) -0.0012(13) 0.0007(13) 0.0106(14)
C3 0.0187(16) 0.0159(16) 0.0173(17) -0.0029(13) -0.0049(13) 0.0091(14)
O100 0.0123(11) 0.0196(12) 0.0184(13) -0.0021(10) -0.0007(10) 0.0072(10)
O101 0.058(3) 0.045(3) 0.125(6) -0.015(3) 0.001(3) 0.018(2)
O102 0.067(6) 0.060(6) 0.072(7) -0.011(4) 0.004(5) 0.046(5)
O103 0.038(9) 0.026(8) 0.079(14) 0.012(8) 0.001(8) 0.009(7)
O104 0.049(15) 0.024(11) 0.038(14) 0.005(9) 0.002(10) 0.025(11)

_geom_special_details            
;
All esds (except the esd in the dihedral angle between two l.s. planes)
are estimated using the full covariance matrix. The cell esds are taken
into account individually in the estimation of esds in distances, angles
and torsion angles; correlations between esds in cell parameters are only
used when they are defined by crystal symmetry. An approximate (isotropic)
treatment of cell esds is used for estimating esds involving l.s. planes.
;

loop_
_geom_bond_atom_site_label_1
_geom_bond_atom_site_label_2
_geom_bond_distance
_geom_bond_site_symmetry_2
_geom_bond_publ_flag
Mg1 O100 2.049(3) . ?
Mg1 O3 2.079(3) . ?
Mg1 O3 2.080(3) 9_454 ?
Mg1 O2 2.093(3) 1_554 ?
Mg1 O2 2.114(3) 5_564 ?
Mg1 N1 2.283(3) . ?
Mg1 P1 3.1411(14) . ?
Mg1 Mg1 3.1447(15) 9_454 ?
Mg1 Mg1 3.1449(15) 5_565 ?
P1 O1 1.507(3) . ?
P1 O3 1.532(3) . ?
P1 O2 1.536(3) . ?
P1 C1 1.826(4) . ?
O2 Mg1 2.093(3) 1_556 ?
O2 Mg1 2.114(3) 9_455 ?
O3 Mg1 2.080(3) 5_565 ?
N1 C2 1.485(5) . ?
N1 C3 1.491(5) . ?
N1 C1 1.499(5) . ?
C1 H1A 0.9700 . ?
C1 H1B 0.9700 . ?
C2 C3 1.528(5) 10_565 ?
C2 H2A 0.9700 . ?
C2 H2B 0.9700 . ?
C3 C2 1.528(5) 10_565 ?
C3 H3A 0.9700 . ?
C3 H3B 0.9700 . ?
O100 H10A 0.9025 . ?
O100 H10B 0.8503 . ?

loop_
_geom_angle_atom_site_label_1
_geom_angle_atom_site_label_2
_geom_angle_atom_site_label_3
_geom_angle
_geom_angle_site_symmetry_1
_geom_angle_site_symmetry_3
_geom_angle_publ_flag
O100 Mg1 O3 93.65(11) . . ?
O100 Mg1 O3 164.80(12) . 9_454 ?
O3 Mg1 O3 101.22(12) . 9_454 ?
O100 Mg1 O2 87.90(11) . 1_554 ?
O3 Mg1 O2 178.29(11) . 1_554 ?
O3 Mg1 O2 77.19(10) 9_454 1_554 ?
O100 Mg1 O2 95.27(11) . 5_564 ?
O3 Mg1 O2 76.76(10) . 5_564 ?
O3 Mg1 O2 85.18(11) 9_454 5_564 ?
O2 Mg1 O2 102.39(12) 1_554 5_564 ?
O100 Mg1 N1 94.29(12) . . ?
O3 Mg1 N1 83.60(11) . . ?
O3 Mg1 N1 90.53(11) 9_454 . ?
O2 Mg1 N1 97.01(11) 1_554 . ?
O2 Mg1 N1 158.64(12) 5_564 . ?
O100 Mg1 P1 94.03(9) . . ?
O3 Mg1 P1 24.95(7) . . ?
O3 Mg1 P1 100.78(8) 9_454 . ?
O2 Mg1 P1 155.68(9) 1_554 . ?
O2 Mg1 P1 101.57(8) 5_564 . ?
N1 Mg1 P1 58.67(9) . . ?
O100 Mg1 Mg1 124.28(9) . 9_454 ?
O3 Mg1 Mg1 136.42(9) . 9_454 ?
O3 Mg1 Mg1 40.86(8) 9_454 9_454 ?
O2 Mg1 Mg1 41.87(7) 1_554 9_454 ?
O2 Mg1 Mg1 78.94(8) 5_564 9_454 ?
N1 Mg1 Mg1 110.89(10) . 9_454 ?
P1 Mg1 Mg1 141.64(5) . 9_454 ?
O100 Mg1 Mg1 111.75(10) . 5_565 ?
O3 Mg1 Mg1 40.89(7) . 5_565 ?
O3 Mg1 Mg1 78.44(8) 9_454 5_565 ?
O2 Mg1 Mg1 137.70(8) 1_554 5_565 ?
O2 Mg1 Mg1 41.35(8) 5_564 5_565 ?
N1 Mg1 Mg1 117.28(9) . 5_565 ?
P1 Mg1 Mg1 63.30(2) . 5_565 ?
Mg1 Mg1 Mg1 99.68(4) 9_454 5_565 ?
O1 P1 O3 113.86(15) . . ?
O1 P1 O2 111.96(15) . . ?
O3 P1 O2 110.16(14) . . ?
O1 P1 C1 111.18(17) . . ?
O3 P1 C1 102.62(16) . . ?
O2 P1 C1 106.42(16) . . ?
O1 P1 Mg1 114.06(11) . . ?
O3 P1 Mg1 34.92(10) . . ?
O2 P1 Mg1 131.46(10) . . ?
C1 P1 Mg1 70.19(12) . . ?
P1 O2 Mg1 136.66(15) . 1_556 ?
P1 O2 Mg1 122.97(15) . 9_455 ?
Mg1 O2 Mg1 96.77(11) 1_556 9_455 ?
P1 O3 Mg1 120.13(14) . . ?
P1 O3 Mg1 131.27(15) . 5_565 ?
Mg1 O3 Mg1 98.25(11) . 5_565 ?
C2 N1 C3 107.8(3) . . ?
C2 N1 C1 111.7(3) . . ?
C3 N1 C1 109.7(3) . . ?
C2 N1 Mg1 111.0(2) . . ?
C3 N1 Mg1 110.9(2) . . ?
C1 N1 Mg1 105.7(2) . . ?
N1 C2 C3 114.2(3) . 10_565 ?
N1 C2 H2A 108.7 . . ?
C3 C2 H2A 108.7 10_565 . ?
N1 C2 H2B 108.7 . . ?
C3 C2 H2B 108.7 10_565 . ?
H2A C2 H2B 107.6 . . ?
N1 C3 C2 113.7(3) . 10_565 ?
N1 C3 H3A 108.8 . . ?
C2 C3 H3A 108.8 10_565 . ?
N1 C3 H3B 108.8 . . ?
C2 C3 H3B 108.8 10_565 . ?
H3A C3 H3B 107.7 . . ?
N1 C1 P1 111.8(2) . . ?
N1 C1 H1A 109.2 . . ?
P1 C1 H1A 109.2 . . ?
N1 C1 H1B 109.2 . . ?
P1 C1 H1B 109.2 . . ?
H1A C1 H1B 107.9 . . ?
Mg1 O100 H10A 112.5 . . ?
Mg1 O100 H10B 142.9 . . ?
H10A O100 H10B 101.7 . . ?

_diffrn_measured_fraction_theta_max 0.999
_diffrn_reflns_theta_full        29.98
_diffrn_measured_fraction_theta_full 0.999
_refine_diff_density_max         2.131
_refine_diff_density_min         -1.113
_refine_diff_density_rms         0.180


# start Validation Reply Form
_vrf_PLAT306_STA12MG-AP          
;
PROBLEM: Isolated Oxygen Atom (H-atoms Missing ?) ....... O101
RESPONSE: Solvent water molecule in pore; unable to locate H due to disorder
;
_vrf_PLAT430_STA12MG-AP          
;
PROBLEM: Short Inter D...A Contact O101 .. O104 .. 2.05 Ang.
RESPONSE: Disordered solvent water molecules; hard to locate satisfactorily
;

