####################################################################### 
# 
# This file contains crystal structure data downloaded from the 
# Cambridge Structural Database (CSD) hosted by the Cambridge 
# Crystallographic Data Centre (CCDC).
# 
# Full information about CCDC data access policies and citation 
# guidelines are available at http://www.ccdc.cam.ac.uk/access/V1 
# 
# Audit and citation data items may have been added by the CCDC. 
# Please retain this information to preserve the provenance of 
# this file and to allow appropriate attribution of the data. 
# 
#######################################################################

data_sad
_audit_block_doi                 10.5517/cc5f2g3
_database_code_depnum_ccdc_archive 'CCDC 161524'
loop_
_citation_id
_citation_doi
_citation_year
1 10.1016/S1387-7003(00)00125-8 2000
_audit_update_record             
;
2001-04-03 deposited with the CCDC.	2024-07-13 downloaded from the CCDC.
;

_audit_creation_method           SHELXL-97
_chemical_name_systematic        
; 
? 
;
_chemical_name_common            ?
_chemical_melting_point          ?
_chemical_formula_moiety         ?
_chemical_formula_sum            'C48 H60 Cd N10 O10 S4'
_chemical_formula_weight         1177.70

loop_
_atom_type_symbol
_atom_type_description
_atom_type_scat_dispersion_real
_atom_type_scat_dispersion_imag
_atom_type_scat_source
C C 0.0033 0.0016 'International Tables Vol C Tables 4.2.6.8 and 6.1.1.4'
H H 0.0000 0.0000 'International Tables Vol C Tables 4.2.6.8 and 6.1.1.4'
N N 0.0061 0.0033 'International Tables Vol C Tables 4.2.6.8 and 6.1.1.4'
O O 0.0106 0.0060 'International Tables Vol C Tables 4.2.6.8 and 6.1.1.4'
S S 0.1246 0.1234 'International Tables Vol C Tables 4.2.6.8 and 6.1.1.4'
Cd Cd -0.8075 1.2024 'International Tables Vol C Tables 4.2.6.8 and 6.1.1.4'

_symmetry_cell_setting           triclinic
_symmetry_space_group_name_H-M   P-1

loop_
_symmetry_equiv_pos_as_xyz
'x, y, z'
'-x, -y, -z'

_cell_length_a                   10.5520(2)
_cell_length_b                   12.18490(10)
_cell_length_c                   12.8571(2)
_cell_angle_alpha                65.9950(10)
_cell_angle_beta                 72.07
_cell_angle_gamma                77.4770(10)
_cell_volume                     1428.78(4)
_cell_formula_units_Z            1
_cell_measurement_temperature    293(2)
_cell_measurement_reflns_used    ?
_cell_measurement_theta_min      ?
_cell_measurement_theta_max      ?

_exptl_crystal_description       ?
_exptl_crystal_colour            ?
_exptl_crystal_size_max          ?
_exptl_crystal_size_mid          ?
_exptl_crystal_size_min          ?
_exptl_crystal_density_meas      ?
_exptl_crystal_density_diffrn    1.369
_exptl_crystal_density_method    'not measured'
_exptl_crystal_F_000             1220
_exptl_absorpt_coefficient_mu    1.178
_exptl_absorpt_correction_type   ?
_exptl_absorpt_correction_T_min  ?
_exptl_absorpt_correction_T_max  ?
_exptl_absorpt_process_details   ?

_exptl_special_details           
; 
? 
;

_diffrn_ambient_temperature      293(2)
_diffrn_radiation_wavelength     0.71073
_diffrn_radiation_type           MoK\a
_diffrn_radiation_source         'fine-focus sealed tube'
_diffrn_radiation_monochromator  graphite
_diffrn_measurement_device_type  ?
_diffrn_measurement_method       ?
_diffrn_detector_area_resol_mean ?
_diffrn_standards_number         ?
_diffrn_standards_interval_count ?
_diffrn_standards_interval_time  ?
_diffrn_standards_decay_%        ?
_diffrn_reflns_number            7353
_diffrn_reflns_av_R_equivalents  0.0280
_diffrn_reflns_av_sigmaI/netI    0.0506
_diffrn_reflns_limit_h_min       -12
_diffrn_reflns_limit_h_max       6
_diffrn_reflns_limit_k_min       -14
_diffrn_reflns_limit_k_max       12
_diffrn_reflns_limit_l_min       -15
_diffrn_reflns_limit_l_max       15
_diffrn_reflns_theta_min         1.79
_diffrn_reflns_theta_max         25.25
_reflns_number_total             4925
_reflns_number_gt                4168
_reflns_threshold_expression     >2sigma(I)

_computing_data_collection       ?
_computing_cell_refinement       ?
_computing_data_reduction        ?
_computing_structure_solution    'SHELXS-97 (Sheldrick, 1990)'
_computing_structure_refinement  'SHELXL-97 (Sheldrick, 1997)'
_computing_molecular_graphics    ?
_computing_publication_material  ?

_refine_special_details          
; 
Refinement of F^2^ against ALL reflections.  The weighted R-factor wR
and 
goodness of fit S are based on F^2^, conventional R-factors R are based 
on F, with F set to zero for negative F^2^. The threshold expression of 
F^2^ > 2sigma(F^2^) is used only for calculating R-factors(gt) etc. and
is 
not relevant to the choice of reflections for refinement.  R-factors
based 
on F^2^ are statistically about twice as large as those based on F, and
R- 
factors based on ALL data will be even larger. 
;

_refine_ls_structure_factor_coef Fsqd
_refine_ls_matrix_type           full
_refine_ls_weighting_scheme      calc
_refine_ls_weighting_details     
'calc w=1/[\s^2^(Fo^2^)+(0.1665P)^2^+1.0993P] where P=(Fo^2^+2Fc^2^)/3'
_atom_sites_solution_primary     direct
_atom_sites_solution_secondary   difmap
_atom_sites_solution_hydrogens   geom
_refine_ls_hydrogen_treatment    mixed
_refine_ls_extinction_method     none
_refine_ls_extinction_coef       ?
_refine_ls_number_reflns         4925
_refine_ls_number_parameters     335
_refine_ls_number_restraints     0
_refine_ls_R_factor_all          0.0668
_refine_ls_R_factor_gt           0.0579
_refine_ls_wR_factor_ref         0.1813
_refine_ls_wR_factor_gt          0.1649
_refine_ls_goodness_of_fit_ref   0.823
_refine_ls_restrained_S_all      0.823
_refine_ls_shift/su_max          0.113
_refine_ls_shift/su_mean         0.015

loop_
_atom_site_label
_atom_site_type_symbol
_atom_site_fract_x
_atom_site_fract_y
_atom_site_fract_z
_atom_site_U_iso_or_equiv
_atom_site_adp_type
_atom_site_occupancy
_atom_site_symmetry_multiplicity
_atom_site_calc_flag
_atom_site_refinement_flags
_atom_site_disorder_assembly
_atom_site_disorder_group
Cd1 Cd 0.0000 0.0000 0.0000 0.0545(2) Uani 1 2 d S . .
S1 S -0.22023(12) -0.42624(11) 0.55270(10) 0.0626(3) Uani 1 1 d . . .
S2 S -0.52347(13) -0.42650(12) 0.83729(13) 0.0714(4) Uani 1 1 d . . .
N1 N 0.1985(5) 0.1103(6) 0.0785(6) 0.1025(18) Uani 1 1 d . . .
O1 O 0.1668(5) 0.0288(4) 0.0692(4) 0.0929(12) Uani 1 1 d . . .
O2 O 0.1417(7) 0.2188(5) 0.0111(6) 0.145(2) Uani 1 1 d . . .
O3 O 0.2977(6) 0.1194(5) 0.1020(5) 0.1235(18) Uani 1 1 d . . .
C10 C -0.5937(5) -0.4715(4) 0.7502(4) 0.0609(10) Uani 1 1 d . . .
H10A H -0.6866 -0.4858 0.7885 0.073 Uiso 1 1 calc R . .
H10B H -0.5898 -0.4084 0.6732 0.073 Uiso 1 1 calc R . .
C11 C -0.5119(4) -0.5857(4) 0.7386(3) 0.0498(9) Uani 1 1 d . . .
C12 C -0.5451(5) -0.6965(4) 0.8290(4) 0.0622(11) Uani 1 1 d . . .
H12A H -0.6164 -0.6969 0.8934 0.075 Uiso 1 1 calc R . .
C13 C -0.4749(6) -0.8038(4) 0.8246(5) 0.0698(13) Uani 1 1 d . . .
H13A H -0.4981 -0.8760 0.8858 0.084 Uiso 1 1 calc R . .
C14 C -0.3693(5) -0.8045(4) 0.7287(5) 0.0697(13) Uani 1 1 d . . .
H14A H -0.3207 -0.8770 0.7256 0.084 Uiso 1 1 calc R . .
C15 C -0.3366(4) -0.6966(4) 0.6376(4) 0.0608(11) Uani 1 1 d . . .
H15A H -0.2670 -0.6978 0.5726 0.073 Uiso 1 1 calc R . .
C16 C -0.4052(4) -0.5865(4) 0.6408(3) 0.0484(8) Uani 1 1 d . . .
C17 C -0.3651(4) -0.4712(4) 0.5384(4) 0.0599(10) Uani 1 1 d . . .
H17A H -0.4388 -0.4078 0.5376 0.072 Uiso 1 1 calc R . .
H17B H -0.3438 -0.4843 0.4651 0.072 Uiso 1 1 calc R . .
N21 N -0.0736(4) -0.1372(3) 0.1930(3) 0.0576(8) Uani 1 1 d . . .
C22 C 0.0004(5) -0.1892(5) 0.2729(4) 0.0652(12) Uani 1 1 d . . .
H22A H 0.0859 -0.1664 0.2529 0.078 Uiso 1 1 calc R . .
C23 C -0.0439(5) -0.2744(4) 0.3825(4) 0.0639(12) Uani 1 1 d . . .
H23A H 0.0107 -0.3064 0.4349 0.077 Uiso 1 1 calc R . .
C24 C -0.1695(4) -0.3122(4) 0.4148(4) 0.0521(9) Uani 1 1 d . . .
C25 C -0.2487(4) -0.2558(4) 0.3339(4) 0.0616(11) Uani 1 1 d . . .
H25A H -0.3354 -0.2752 0.3526 0.074 Uiso 1 1 calc R . .
C26 C -0.1968(4) -0.1712(5) 0.2265(4) 0.0641(11) Uani 1 1 d . . .
H26A H -0.2508 -0.1352 0.1737 0.077 Uiso 1 1 calc R . .
N31 N -0.8313(4) -0.1397(3) 0.9402(3) 0.0598(9) Uani 1 1 d . . .
C32 C -0.7231(5) -0.1874(5) 0.9839(5) 0.0706(13) Uani 1 1 d . . .
H32A H -0.7115 -0.1613 1.0388 0.085 Uiso 1 1 calc R . .
C33 C -0.6290(5) -0.2722(5) 0.9522(5) 0.0754(14) Uani 1 1 d . . .
H33A H -0.5553 -0.3020 0.9847 0.090 Uiso 1 1 calc R . .
C34 C -0.6441(4) -0.3135(4) 0.8709(4) 0.0582(10) Uani 1 1 d . . .
C35 C -0.8416(5) -0.1770(5) 0.8597(4) 0.0651(12) Uani 1 1 d . . .
H35A H -0.9139 -0.1429 0.8258 0.078 Uiso 1 1 calc R . .
C36 C -0.7524(5) -0.2626(5) 0.8230(4) 0.0626(11) Uani 1 1 d . . .
H36A H -0.7654 -0.2855 0.7666 0.075 Uiso 1 1 calc R . .
O4 O 0.1094(9) -0.3524(12) 0.6453(7) 0.222(5) Uani 1 1 d . . .
N2 N -0.0530(5) -0.4364(5) 0.7993(5) 0.0896(14) Uani 1 1 d . . .
C1 C -0.006(2) -0.5522(14) 0.808(2) 0.350(14) Uani 1 1 d . . .
H1A H 0.0764 -0.5524 0.7487 0.526 Uiso 1 1 calc R . .
H1B H -0.0707 -0.5876 0.7960 0.526 Uiso 1 1 calc R . .
H1C H 0.0103 -0.5982 0.8841 0.526 Uiso 1 1 calc R . .
C2 C -0.1749(14) -0.4252(17) 0.8826(17) 0.249(9) Uani 1 1 d . . .
H2B H -0.2011 -0.3415 0.8717 0.374 Uiso 1 1 calc R . .
H2C H -0.1625 -0.4692 0.9606 0.374 Uiso 1 1 calc R . .
H2D H -0.2433 -0.4573 0.8719 0.374 Uiso 1 1 calc R . .
C3 C -0.0012(14) -0.3408(15) 0.7144(11) 0.187(6) Uani 1 1 d . . .
O5 O -0.5601(8) -0.1954(6) 0.5273(6) 0.136(2) Uani 1 1 d . . .
N3 N -0.6490(11) -0.0074(6) 0.4349(7) 0.129(2) Uani 1 1 d . . .
C4 C -0.611(3) 0.0897(18) 0.3529(17) 0.41(2) Uani 1 1 d . . .
H4A H -0.5167 0.0789 0.3206 0.608 Uiso 1 1 calc R . .
H4B H -0.6316 0.1533 0.3833 0.608 Uiso 1 1 calc R . .
H4C H -0.6576 0.1106 0.2926 0.608 Uiso 1 1 calc R . .
C5 C -0.791(2) -0.002(2) 0.4876(19) 0.325(14) Uani 1 1 d . . .
H5A H -0.8121 -0.0785 0.5485 0.487 Uiso 1 1 calc R . .
H5B H -0.8385 0.0165 0.4289 0.487 Uiso 1 1 calc R . .
H5C H -0.8164 0.0598 0.5207 0.487 Uiso 1 1 calc R . .
C6 C -0.591(2) -0.1051(11) 0.4792(15) 0.273(13) Uani 1 1 d . . .

loop_
_atom_site_aniso_label
_atom_site_aniso_U_11
_atom_site_aniso_U_22
_atom_site_aniso_U_33
_atom_site_aniso_U_23
_atom_site_aniso_U_13
_atom_site_aniso_U_12
Cd1 0.0575(3) 0.0453(3) 0.0471(3) -0.01464(19) -0.00375(18) 0.00366(18)
S1 0.0647(7) 0.0670(7) 0.0502(6) -0.0031(5) -0.0215(5) -0.0217(5)
S2 0.0653(7) 0.0760(8) 0.0945(9) -0.0557(7) -0.0367(6) 0.0239(6)
N1 0.075(3) 0.108(4) 0.141(5) -0.078(4) -0.002(3) -0.015(3)
O1 0.105(3) 0.082(3) 0.119(3) -0.054(2) -0.042(3) -0.009(2)
O2 0.156(5) 0.092(4) 0.154(5) -0.025(4) -0.035(4) 0.004(4)
O3 0.135(4) 0.130(4) 0.125(4) -0.035(3) -0.049(4) -0.051(4)
C10 0.062(2) 0.065(3) 0.063(3) -0.033(2) -0.021(2) 0.007(2)
C11 0.050(2) 0.052(2) 0.050(2) -0.0194(17) -0.0152(16) -0.0051(16)
C12 0.065(3) 0.068(3) 0.053(2) -0.020(2) -0.010(2) -0.019(2)
C13 0.090(3) 0.051(2) 0.071(3) -0.009(2) -0.033(3) -0.018(2)
C14 0.073(3) 0.052(2) 0.095(4) -0.034(3) -0.033(3) 0.003(2)
C15 0.050(2) 0.069(3) 0.070(3) -0.035(2) -0.015(2) -0.001(2)
C16 0.0463(19) 0.053(2) 0.049(2) -0.0181(17) -0.0150(16) -0.0062(16)
C17 0.056(2) 0.066(3) 0.051(2) -0.012(2) -0.0138(18) -0.0113(19)
N21 0.0528(19) 0.057(2) 0.0516(19) -0.0128(16) -0.0099(15) -0.0012(15)
C22 0.050(2) 0.070(3) 0.071(3) -0.017(2) -0.016(2) -0.012(2)
C23 0.059(2) 0.068(3) 0.057(2) -0.002(2) -0.025(2) -0.016(2)
C24 0.051(2) 0.051(2) 0.052(2) -0.0163(18) -0.0123(17) -0.0060(17)
C25 0.046(2) 0.071(3) 0.056(2) -0.008(2) -0.0156(18) -0.0094(19)
C26 0.051(2) 0.075(3) 0.053(2) -0.008(2) -0.0161(19) -0.006(2)
N31 0.062(2) 0.056(2) 0.057(2) -0.0239(17) -0.0152(17) 0.0094(16)
C32 0.083(3) 0.068(3) 0.077(3) -0.044(3) -0.038(3) 0.021(2)
C33 0.080(3) 0.076(3) 0.092(4) -0.049(3) -0.051(3) 0.028(3)
C34 0.055(2) 0.056(2) 0.065(3) -0.029(2) -0.0166(19) 0.0083(18)
C35 0.055(2) 0.078(3) 0.064(3) -0.034(2) -0.022(2) 0.016(2)
C36 0.061(2) 0.075(3) 0.059(2) -0.036(2) -0.021(2) 0.012(2)
O4 0.161(7) 0.396(16) 0.113(5) -0.089(7) 0.031(5) -0.139(9)
N2 0.081(3) 0.087(3) 0.095(4) -0.036(3) -0.011(3) -0.008(3)
C1 0.40(3) 0.169(14) 0.55(4) -0.22(2) -0.20(3) 0.126(17)
C2 0.142(11) 0.27(2) 0.29(2) -0.133(18) 0.040(12) -0.026(12)
C3 0.165(10) 0.270(16) 0.114(7) -0.008(9) -0.050(7) -0.099(11)
O5 0.185(6) 0.098(4) 0.132(5) -0.040(4) -0.069(5) 0.009(4)
N3 0.196(8) 0.090(4) 0.114(5) -0.041(4) -0.060(5) 0.001(5)
C4 0.80(6) 0.29(2) 0.228(18) 0.094(16) -0.32(3) -0.35(3)
C5 0.26(2) 0.45(4) 0.29(3) -0.23(3) 0.03(2) -0.02(2)
C6 0.55(3) 0.120(8) 0.265(16) -0.115(10) -0.32(2) 0.135(14)

_geom_special_details            
; 
All esds (except the esd in the dihedral angle between two l.s. planes) 
are estimated using the full covariance matrix.  The cell esds are
taken 
into account individually in the estimation of esds in distances,
angles 
and torsion angles; correlations between esds in cell parameters are
only 
used when they are defined by crystal symmetry.  An approximate
(isotropic) 
treatment of cell esds is used for estimating esds involving l.s.
planes. 
;

loop_
_geom_bond_atom_site_label_1
_geom_bond_atom_site_label_2
_geom_bond_distance
_geom_bond_site_symmetry_2
_geom_bond_publ_flag
Cd1 O1 2.345(4) 2 ?
Cd1 O1 2.345(4) . ?
Cd1 N31 2.359(3) 2_456 ?
Cd1 N31 2.359(3) 1_654 ?
Cd1 N21 2.357(3) 2 ?
Cd1 N21 2.357(3) . ?
S1 C24 1.759(4) . ?
S1 C17 1.814(4) . ?
S2 C34 1.757(4) . ?
S2 C10 1.814(4) . ?
N1 O1 1.173(6) . ?
N1 O3 1.213(7) . ?
N1 O2 1.379(9) . ?
C10 C11 1.508(6) . ?
C11 C12 1.405(6) . ?
C11 C16 1.408(6) . ?
C12 C13 1.370(7) . ?
C13 C14 1.386(8) . ?
C14 C15 1.384(7) . ?
C15 C16 1.389(6) . ?
C16 C17 1.515(6) . ?
N21 C26 1.337(6) . ?
N21 C22 1.348(6) . ?
C22 C23 1.377(7) . ?
C23 C24 1.383(6) . ?
C24 C25 1.399(6) . ?
C25 C26 1.375(6) . ?
N31 C35 1.327(6) . ?
N31 C32 1.342(6) . ?
N31 Cd1 2.359(3) 1_456 ?
C32 C33 1.367(7) . ?
C33 C34 1.392(7) . ?
C34 C36 1.374(6) . ?
C35 C36 1.377(6) . ?
O4 C3 1.250(16) . ?
N2 C3 1.312(13) . ?
N2 C1 1.362(14) . ?
N2 C2 1.419(13) . ?
O5 C6 1.054(11) . ?
N3 C6 1.211(12) . ?
N3 C4 1.265(16) . ?
N3 C5 1.44(2) . ?

loop_
_geom_angle_atom_site_label_1
_geom_angle_atom_site_label_2
_geom_angle_atom_site_label_3
_geom_angle
_geom_angle_site_symmetry_1
_geom_angle_site_symmetry_3
_geom_angle_publ_flag
O1 Cd1 O1 180.00(18) 2 . ?
O1 Cd1 N31 82.94(14) 2 2_456 ?
O1 Cd1 N31 97.06(14) . 2_456 ?
O1 Cd1 N31 97.06(14) 2 1_654 ?
O1 Cd1 N31 82.94(14) . 1_654 ?
N31 Cd1 N31 180.0(3) 2_456 1_654 ?
O1 Cd1 N21 85.48(15) 2 2 ?
O1 Cd1 N21 94.52(15) . 2 ?
N31 Cd1 N21 94.69(13) 2_456 2 ?
N31 Cd1 N21 85.31(13) 1_654 2 ?
O1 Cd1 N21 94.52(15) 2 . ?
O1 Cd1 N21 85.48(15) . . ?
N31 Cd1 N21 85.31(13) 2_456 . ?
N31 Cd1 N21 94.69(13) 1_654 . ?
N21 Cd1 N21 180.0(3) 2 . ?
C24 S1 C17 102.4(2) . . ?
C34 S2 C10 103.6(2) . . ?
O1 N1 O3 130.6(7) . . ?
O1 N1 O2 110.9(7) . . ?
O3 N1 O2 113.6(6) . . ?
N1 O1 Cd1 136.0(5) . . ?
C11 C10 S2 107.3(3) . . ?
C12 C11 C16 118.6(4) . . ?
C12 C11 C10 118.3(4) . . ?
C16 C11 C10 123.1(4) . . ?
C13 C12 C11 121.5(4) . . ?
C12 C13 C14 119.9(4) . . ?
C13 C14 C15 119.6(4) . . ?
C16 C15 C14 121.6(4) . . ?
C15 C16 C11 118.9(4) . . ?
C15 C16 C17 119.3(4) . . ?
C11 C16 C17 121.8(4) . . ?
C16 C17 S1 109.2(3) . . ?
C26 N21 C22 116.1(4) . . ?
C26 N21 Cd1 118.5(3) . . ?
C22 N21 Cd1 125.3(3) . . ?
N21 C22 C23 123.5(4) . . ?
C24 C23 C22 120.0(4) . . ?
C23 C24 C25 116.8(4) . . ?
C23 C24 S1 119.0(3) . . ?
C25 C24 S1 124.1(3) . . ?
C26 C25 C24 119.3(4) . . ?
N21 C26 C25 124.2(4) . . ?
C35 N31 C32 116.1(4) . . ?
C35 N31 Cd1 119.9(3) . 1_456 ?
C32 N31 Cd1 124.0(3) . 1_456 ?
N31 C32 C33 123.5(4) . . ?
C32 C33 C34 119.6(4) . . ?
C36 C34 C33 117.3(4) . . ?
C36 C34 S2 125.0(4) . . ?
C33 C34 S2 117.7(3) . . ?
N31 C35 C36 124.5(4) . . ?
C34 C36 C35 119.0(4) . . ?
C3 N2 C1 124.1(15) . . ?
C3 N2 C2 121.1(12) . . ?
C1 N2 C2 114.4(15) . . ?
O4 C3 N2 120.1(16) . . ?
C6 N3 C4 134(2) . . ?
C6 N3 C5 112.5(17) . . ?
C4 N3 C5 114(2) . . ?
O5 C6 N3 168(3) . . ?

_diffrn_measured_fraction_theta_max 0.949
_diffrn_reflns_theta_full        25.25
_diffrn_measured_fraction_theta_full 0.949
_refine_diff_density_max         0.904
_refine_diff_density_min         -0.887
_refine_diff_density_rms         0.093

