####################################################################### 
# 
# This file contains crystal structure data downloaded from the 
# Cambridge Structural Database (CSD) hosted by the Cambridge 
# Crystallographic Data Centre (CCDC).
# 
# Full information about CCDC data access policies and citation 
# guidelines are available at http://www.ccdc.cam.ac.uk/access/V1 
# 
# Audit and citation data items may have been added by the CCDC. 
# Please retain this information to preserve the provenance of 
# this file and to allow appropriate attribution of the data. 
# 
#######################################################################

data_ZXD-Gd,Cu
_audit_block_doi                 10.5517/ccz0n1n
_database_code_depnum_ccdc_archive 'CCDC 894351'
loop_
_citation_id
_citation_doi
_citation_year
1 10.1021/cg300848f 2012
_audit_update_record             
;
2012-07-31 deposited with the CCDC.	2024-07-13 downloaded from the CCDC.
;
#TrackingRef 'ZXD-Gd,Cu.CIF'


_audit_creation_method           SHELXL-97
_chemical_name_systematic        
;
?
;
_chemical_name_common            ?
_chemical_melting_point          ?
_chemical_formula_moiety         ?
_chemical_formula_sum            'C54 H84 Cu3 Gd2 N12 O26'
_chemical_formula_weight         1822.45

loop_
_atom_type_symbol
_atom_type_description
_atom_type_scat_dispersion_real
_atom_type_scat_dispersion_imag
_atom_type_scat_source
C C 0.0033 0.0016 'International Tables Vol C Tables 4.2.6.8 and 6.1.1.4'
H H 0.0000 0.0000 'International Tables Vol C Tables 4.2.6.8 and 6.1.1.4'
N N 0.0061 0.0033 'International Tables Vol C Tables 4.2.6.8 and 6.1.1.4'
O O 0.0106 0.0060 'International Tables Vol C Tables 4.2.6.8 and 6.1.1.4'
Cu Cu 0.3201 1.2651 'International Tables Vol C Tables 4.2.6.8 and 6.1.1.4'
Gd Gd -0.1653 3.9035 'International Tables Vol C Tables 4.2.6.8 and 6.1.1.4'

_symmetry_cell_setting           ?
_symmetry_space_group_name_H-M   ?

loop_
_symmetry_equiv_pos_as_xyz
'x, y, z'
'-x, -y, -z'

_cell_length_a                   8.8492(9)
_cell_length_b                   17.245(2)
_cell_length_c                   17.791(2)
_cell_angle_alpha                115.275(3)
_cell_angle_beta                 95.662(3)
_cell_angle_gamma                103.865(3)
_cell_volume                     2320.2(5)
_cell_formula_units_Z            1
_cell_measurement_temperature    293(2)
_cell_measurement_reflns_used    ?
_cell_measurement_theta_min      ?
_cell_measurement_theta_max      ?

_exptl_crystal_description       ?
_exptl_crystal_colour            ?
_exptl_crystal_size_max          0.18
_exptl_crystal_size_mid          0.14
_exptl_crystal_size_min          0.10
_exptl_crystal_density_meas      ?
_exptl_crystal_density_diffrn    1.304
_exptl_crystal_density_method    'not measured'
_exptl_crystal_F_000             915
_exptl_absorpt_coefficient_mu    2.150
_exptl_absorpt_correction_type   ?
_exptl_absorpt_correction_T_min  0.6982
_exptl_absorpt_correction_T_max  0.8137
_exptl_absorpt_process_details   ?

_exptl_special_details           
;
?
;

_diffrn_ambient_temperature      293(2)
_diffrn_radiation_wavelength     0.71073
_diffrn_radiation_type           MoK\a
_diffrn_radiation_source         'fine-focus sealed tube'
_diffrn_radiation_monochromator  graphite
_diffrn_measurement_device_type  ?
_diffrn_measurement_method       ?
_diffrn_detector_area_resol_mean ?
_diffrn_standards_number         ?
_diffrn_standards_interval_count ?
_diffrn_standards_interval_time  ?
_diffrn_standards_decay_%        ?
_diffrn_reflns_number            18198
_diffrn_reflns_av_R_equivalents  0.0437
_diffrn_reflns_av_sigmaI/netI    0.0985
_diffrn_reflns_limit_h_min       -11
_diffrn_reflns_limit_h_max       11
_diffrn_reflns_limit_k_min       -22
_diffrn_reflns_limit_k_max       22
_diffrn_reflns_limit_l_min       -23
_diffrn_reflns_limit_l_max       22
_diffrn_reflns_theta_min         2.29
_diffrn_reflns_theta_max         27.48
_reflns_number_total             10529
_reflns_number_gt                7454
_reflns_threshold_expression     >2sigma(I)

_computing_data_collection       ?
_computing_cell_refinement       ?
_computing_data_reduction        ?
_computing_structure_solution    'SHELXS-97 (Sheldrick, 1990)'
_computing_structure_refinement  'SHELXL-97 (Sheldrick, 1997)'
_computing_molecular_graphics    ?
_computing_publication_material  ?

_refine_special_details          
;
Refinement of F^2^ against ALL reflections. The weighted R-factor wR and
goodness of fit S are based on F^2^, conventional R-factors R are based
on F, with F set to zero for negative F^2^. The threshold expression of
F^2^ > 2sigma(F^2^) is used only for calculating R-factors(gt) etc. and is
not relevant to the choice of reflections for refinement. R-factors based
on F^2^ are statistically about twice as large as those based on F, and R-
factors based on ALL data will be even larger.
;

_refine_ls_structure_factor_coef Fsqd
_refine_ls_matrix_type           full
_refine_ls_weighting_scheme      calc
_refine_ls_weighting_details     
'calc w=1/[\s^2^(Fo^2^)+(0.0791P)^2^+0.0000P] where P=(Fo^2^+2Fc^2^)/3'
_atom_sites_solution_primary     direct
_atom_sites_solution_secondary   difmap
_atom_sites_solution_hydrogens   geom
_refine_ls_hydrogen_treatment    mixed
_refine_ls_extinction_method     none
_refine_ls_extinction_coef       ?
_refine_ls_number_reflns         10529
_refine_ls_number_parameters     424
_refine_ls_number_restraints     12
_refine_ls_R_factor_all          0.0866
_refine_ls_R_factor_gt           0.0618
_refine_ls_wR_factor_ref         0.1698
_refine_ls_wR_factor_gt          0.1518
_refine_ls_goodness_of_fit_ref   1.053
_refine_ls_restrained_S_all      1.055
_refine_ls_shift/su_max          0.001
_refine_ls_shift/su_mean         0.000

loop_
_atom_site_label
_atom_site_type_symbol
_atom_site_fract_x
_atom_site_fract_y
_atom_site_fract_z
_atom_site_U_iso_or_equiv
_atom_site_adp_type
_atom_site_occupancy
_atom_site_symmetry_multiplicity
_atom_site_calc_flag
_atom_site_refinement_flags
_atom_site_disorder_assembly
_atom_site_disorder_group
Gd1 Gd 0.81422(4) 0.78035(2) 0.62472(2) 0.03328(12) Uani 1 1 d . . .
Cu1 Cu 1.0000 0.5000 0.5000 0.0286(2) Uani 1 2 d S . .
Cu2 Cu 1.5000 1.0000 0.5000 0.0305(2) Uani 1 2 d S . .
Cu3 Cu 0.5000 1.0000 1.0000 0.0386(3) Uani 1 2 d S . .
O1 O 0.9143(5) 0.6299(3) 0.5402(3) 0.0330(10) Uani 1 1 d . . .
O2 O 0.8481(6) 0.7092(3) 0.4793(3) 0.0448(12) Uani 1 1 d . . .
O3 O 0.3995(5) 0.3511(3) 0.4212(3) 0.0386(11) Uani 1 1 d . . .
O4 O 0.4136(6) 0.3903(4) 0.3176(4) 0.0629(15) Uani 1 1 d . . .
O5 O 1.1033(5) 0.8289(3) 0.6475(3) 0.0421(11) Uani 1 1 d . . .
O6 O 0.9851(5) 0.9040(3) 0.6021(3) 0.0463(12) Uani 1 1 d . . .
O7 O 1.3670(7) 1.1834(4) 0.4469(4) 0.0695(12) Uani 1 1 d . . .
O8 O 1.4716(7) 1.1235(4) 0.5139(4) 0.0695(12) Uani 1 1 d . . .
O9 O 0.8566(6) 0.9198(3) 0.7604(3) 0.0467(12) Uani 1 1 d . . .
O10 O 0.6220(6) 0.8174(3) 0.7161(3) 0.0527(13) Uani 1 1 d . . .
O11 O 0.7260(6) 1.1105(3) 1.0242(3) 0.0493(13) Uani 1 1 d . . .
O12 O 0.9815(6) 1.1648(4) 1.0959(4) 0.0701(17) Uani 1 1 d . . .
N1 N 1.0341(6) 0.5282(3) 0.4015(3) 0.0326(12) Uani 1 1 d . . .
N2 N 0.7676(6) 0.4084(3) 0.4342(3) 0.0277(11) Uani 1 1 d . . .
N3 N 1.3455(8) 0.9456(5) 0.3875(5) 0.069(2) Uani 1 1 d . . .
N4 N 1.2726(7) 0.9691(4) 0.5501(4) 0.0442(15) Uani 1 1 d . . .
N5 N 0.6581(6) 0.9720(4) 1.0686(3) 0.0418(14) Uani 1 1 d . . .
N6 N 0.5374(7) 0.9096(4) 0.8768(4) 0.0446(14) Uani 1 1 d . . .
C1 C 0.9026(7) 0.6455(4) 0.4787(4) 0.0335(14) Uani 1 1 d . . .
C2 C 0.9501(8) 0.5926(4) 0.3983(4) 0.0370(15) Uani 1 1 d . . .
H2A H 1.0191 0.6347 0.3841 0.044 Uiso 1 1 calc R . .
H2B H 0.8546 0.5588 0.3525 0.044 Uiso 1 1 calc R . .
C3 C 0.9908(8) 0.4465(4) 0.3170(4) 0.0396(16) Uani 1 1 d . . .
H3A H 1.0600 0.4110 0.3184 0.048 Uiso 1 1 calc R . .
H3B H 1.0121 0.4656 0.2741 0.048 Uiso 1 1 calc R . .
C4 C 0.8201(9) 0.3869(5) 0.2899(4) 0.0441(17) Uani 1 1 d . . .
H4A H 0.8028 0.3395 0.2320 0.053 Uiso 1 1 calc R . .
H4B H 0.7513 0.4226 0.2884 0.053 Uiso 1 1 calc R . .
C5 C 0.7661(9) 0.3419(4) 0.3460(4) 0.0436(17) Uani 1 1 d . . .
H5A H 0.6588 0.3000 0.3187 0.052 Uiso 1 1 calc R . .
H5B H 0.8364 0.3076 0.3496 0.052 Uiso 1 1 calc R . .
C6 C 0.6465(7) 0.4552(4) 0.4309(4) 0.0340(14) Uani 1 1 d . . .
H6A H 0.6799 0.4914 0.4025 0.041 Uiso 1 1 calc R . .
H6B H 0.6467 0.4962 0.4889 0.041 Uiso 1 1 calc R . .
C7 C 0.4734(8) 0.3926(4) 0.3847(5) 0.0394(16) Uani 1 1 d . . .
C8 C 1.2092(7) 0.5722(5) 0.4211(4) 0.0396(16) Uani 1 1 d . . .
H8A H 1.2335 0.6024 0.3865 0.048 Uiso 1 1 calc R . .
H8B H 1.2639 0.5271 0.4079 0.048 Uiso 1 1 calc R . .
C9 C 1.2656(7) 0.6402(4) 0.5149(4) 0.0363(15) Uani 1 1 d . . .
H9A H 1.3793 0.6711 0.5283 0.044 Uiso 1 1 calc R . .
H9B H 1.2099 0.6848 0.5283 0.044 Uiso 1 1 calc R . .
C10 C 1.1024(8) 0.8770(4) 0.6122(5) 0.0408(16) Uani 1 1 d . . .
C11 C 1.2481(8) 0.8975(5) 0.5753(5) 0.0435(17) Uani 1 1 d . . .
H11A H 1.3430 0.9121 0.6173 0.052 Uiso 1 1 calc R . .
H11B H 1.2420 0.8422 0.5255 0.052 Uiso 1 1 calc R . .
C12 C 1.1505(9) 0.9463(7) 0.4769(6) 0.067(3) Uani 1 1 d . . .
H12A H 1.0477 0.9153 0.4815 0.080 Uiso 1 1 calc R . .
H12B H 1.1436 1.0013 0.4760 0.080 Uiso 1 1 calc R . .
C13 C 1.1872(10) 0.8887(8) 0.3975(6) 0.088(3) Uani 1 1 d . . .
H13A H 1.1000 0.8691 0.3494 0.105 Uiso 1 1 calc R . .
H13B H 1.2024 0.8356 0.3995 0.105 Uiso 1 1 calc R . .
C14 C 1.3316(12) 1.0263(6) 0.3769(7) 0.080(3) Uani 1 1 d U . .
H14A H 1.3866 1.0290 0.3331 0.096 Uiso 1 1 calc R . .
H14B H 1.2195 1.0161 0.3560 0.096 Uiso 1 1 calc R . .
C15 C 1.3953(8) 1.1156(7) 0.4540(6) 0.059(2) Uani 1 1 d . . .
C16 C 1.6139(12) 1.1213(6) 0.6820(7) 0.0819(17) Uani 1 1 d . . .
H16A H 1.6196 1.1726 0.6715 0.098 Uiso 1 1 calc R . .
H16B H 1.6930 1.1421 0.7340 0.098 Uiso 1 1 calc R . .
C17 C 1.4423(11) 1.0872(6) 0.6967(7) 0.0819(17) Uani 1 1 d U . .
H17A H 1.4378 1.0355 0.7064 0.098 Uiso 1 1 calc R . .
H17B H 1.4318 1.1345 0.7488 0.098 Uiso 1 1 calc R . .
C18 C 1.2898(12) 1.0588(6) 0.6230(6) 0.0819(17) Uani 1 1 d . . .
H18A H 1.1942 1.0557 0.6454 0.098 Uiso 1 1 calc R . .
H18B H 1.3026 1.1039 0.6032 0.098 Uiso 1 1 calc R . .
C19 C 0.7242(8) 0.8906(5) 0.7731(4) 0.0405(16) Uani 1 1 d . . .
C20 C 0.6897(8) 0.9457(5) 0.8585(4) 0.0455(17) Uani 1 1 d . . .
H20A H 0.7756 0.9555 0.9030 0.055 Uiso 1 1 calc R . .
H20B H 0.6943 1.0045 0.8632 0.055 Uiso 1 1 calc R . .
C21 C 0.3978(9) 0.9030(5) 0.8162(5) 0.0501(18) Uani 1 1 d . . .
H21A H 0.4167 0.8811 0.7591 0.060 Uiso 1 1 calc R . .
H21B H 0.3014 0.8607 0.8148 0.060 Uiso 1 1 calc R . .
C22 C 0.5249(9) 0.8221(5) 0.8761(5) 0.053(2) Uani 1 1 d . . .
H22A H 0.5314 0.7799 0.8200 0.064 Uiso 1 1 calc R . .
H22B H 0.4198 0.7990 0.8841 0.064 Uiso 1 1 calc R . .
C23 C 0.6489(9) 0.8232(5) 0.9424(5) 0.054(2) Uani 1 1 d . . .
H23A H 0.6401 0.7613 0.9288 0.065 Uiso 1 1 calc R . .
H23B H 0.7543 0.8509 0.9376 0.065 Uiso 1 1 calc R . .
C24 C 0.6364(10) 0.8728(5) 1.0346(5) 0.058(2) Uani 1 1 d . . .
H24A H 0.5322 0.8439 1.0397 0.070 Uiso 1 1 calc R . .
H24B H 0.7162 0.8658 1.0706 0.070 Uiso 1 1 calc R . .
C25 C 0.6228(9) 1.0056(5) 1.1543(4) 0.0499(18) Uani 1 1 d . . .
H25A H 0.7096 1.0089 1.1946 0.060 Uiso 1 1 calc R . .
H25B H 0.5259 0.9636 1.1527 0.060 Uiso 1 1 calc R . .
C26 C 0.8279(8) 1.0232(5) 1.0762(5) 0.0488(18) Uani 1 1 d . . .
H26A H 0.8908 1.0412 1.1322 0.059 Uiso 1 1 calc R . .
H26B H 0.8721 0.9829 1.0341 0.059 Uiso 1 1 calc R . .
C27 C 0.8447(9) 1.1053(6) 1.0643(5) 0.053(2) Uani 1 1 d . . .
OW1 O 0.8751(5) 0.7359(3) 0.7328(3) 0.0425(11) Uani 1 1 d . . .

loop_
_atom_site_aniso_label
_atom_site_aniso_U_11
_atom_site_aniso_U_22
_atom_site_aniso_U_33
_atom_site_aniso_U_23
_atom_site_aniso_U_13
_atom_site_aniso_U_12
Gd1 0.02260(19) 0.02903(18) 0.0438(2) 0.01165(14) 0.01118(14) 0.00933(13)
Cu1 0.0196(5) 0.0265(5) 0.0342(6) 0.0099(4) 0.0064(4) 0.0060(4)
Cu2 0.0228(6) 0.0293(5) 0.0431(6) 0.0184(5) 0.0088(5) 0.0110(4)
Cu3 0.0218(6) 0.0387(6) 0.0381(6) 0.0027(5) 0.0060(5) 0.0096(5)
O1 0.022(2) 0.034(2) 0.038(2) 0.013(2) 0.0060(19) 0.0094(19)
O2 0.056(3) 0.037(3) 0.045(3) 0.015(2) 0.013(2) 0.026(2)
O3 0.025(2) 0.032(2) 0.052(3) 0.014(2) 0.015(2) 0.007(2)
O4 0.040(3) 0.071(4) 0.079(4) 0.047(3) -0.007(3) 0.003(3)
O5 0.027(3) 0.036(3) 0.067(3) 0.027(2) 0.014(2) 0.009(2)
O6 0.028(3) 0.048(3) 0.083(4) 0.039(3) 0.028(3) 0.023(2)
O7 0.042(2) 0.092(3) 0.111(4) 0.073(3) 0.028(2) 0.030(2)
O8 0.042(2) 0.092(3) 0.111(4) 0.073(3) 0.028(2) 0.030(2)
O9 0.036(3) 0.041(3) 0.052(3) 0.009(2) 0.021(2) 0.013(2)
O10 0.038(3) 0.046(3) 0.044(3) -0.003(2) 0.015(2) 0.007(2)
O11 0.026(3) 0.049(3) 0.049(3) 0.004(2) 0.006(2) 0.010(2)
O12 0.027(3) 0.090(4) 0.058(4) 0.023(3) -0.003(3) -0.012(3)
N1 0.023(3) 0.032(3) 0.043(3) 0.015(2) 0.009(2) 0.012(2)
N2 0.024(3) 0.023(2) 0.033(3) 0.011(2) 0.009(2) 0.006(2)
N3 0.052(5) 0.078(5) 0.087(6) 0.039(5) 0.031(4) 0.029(4)
N4 0.037(4) 0.039(3) 0.068(4) 0.028(3) 0.027(3) 0.021(3)
N5 0.023(3) 0.047(3) 0.039(3) 0.006(3) 0.005(2) 0.011(3)
N6 0.032(3) 0.040(3) 0.042(3) 0.002(3) 0.007(3) 0.011(3)
C1 0.023(3) 0.033(3) 0.038(4) 0.011(3) 0.002(3) 0.008(3)
C2 0.028(4) 0.040(4) 0.047(4) 0.020(3) 0.016(3) 0.014(3)
C3 0.036(4) 0.038(4) 0.041(4) 0.010(3) 0.015(3) 0.018(3)
C4 0.047(5) 0.048(4) 0.034(4) 0.017(3) 0.006(3) 0.017(4)
C5 0.039(4) 0.032(4) 0.040(4) 0.000(3) 0.007(3) 0.010(3)
C6 0.017(3) 0.025(3) 0.049(4) 0.010(3) 0.003(3) 0.004(2)
C7 0.024(4) 0.031(3) 0.050(4) 0.007(3) 0.003(3) 0.012(3)
C8 0.026(4) 0.044(4) 0.055(4) 0.027(3) 0.011(3) 0.013(3)
C9 0.018(3) 0.038(4) 0.046(4) 0.016(3) 0.006(3) 0.005(3)
C10 0.032(4) 0.029(3) 0.059(5) 0.020(3) 0.017(3) 0.004(3)
C11 0.029(4) 0.041(4) 0.070(5) 0.029(4) 0.021(3) 0.018(3)
C12 0.026(4) 0.110(8) 0.097(7) 0.068(6) 0.035(5) 0.032(5)
C13 0.037(5) 0.165(11) 0.059(6) 0.046(7) 0.005(4) 0.041(6)
C14 0.074(6) 0.072(5) 0.126(7) 0.057(5) 0.050(5) 0.045(5)
C15 0.016(4) 0.102(7) 0.092(7) 0.073(6) 0.019(4) 0.018(4)
C16 0.073(4) 0.061(3) 0.098(4) 0.018(3) 0.033(3) 0.029(3)
C17 0.073(4) 0.061(3) 0.098(4) 0.018(3) 0.033(3) 0.029(3)
C18 0.073(4) 0.061(3) 0.098(4) 0.018(3) 0.033(3) 0.029(3)
C19 0.023(4) 0.041(4) 0.038(4) 0.000(3) 0.009(3) 0.012(3)
C20 0.028(4) 0.045(4) 0.047(4) 0.006(3) 0.015(3) 0.010(3)
C21 0.034(4) 0.048(4) 0.040(4) 0.000(3) 0.001(3) 0.006(3)
C22 0.036(4) 0.040(4) 0.057(5) 0.001(3) 0.012(4) 0.009(3)
C23 0.048(5) 0.046(4) 0.067(5) 0.019(4) 0.028(4) 0.021(4)
C24 0.046(5) 0.057(5) 0.058(5) 0.010(4) 0.014(4) 0.026(4)
C25 0.038(4) 0.057(5) 0.040(4) 0.009(3) 0.012(3) 0.013(4)
C26 0.022(4) 0.051(4) 0.051(4) 0.005(4) 0.008(3) 0.010(3)
C27 0.031(4) 0.067(5) 0.036(4) 0.003(4) 0.012(3) 0.014(4)
OW1 0.032(3) 0.044(3) 0.046(3) 0.016(2) 0.009(2) 0.012(2)

_geom_special_details            
;
All esds (except the esd in the dihedral angle between two l.s. planes)
are estimated using the full covariance matrix. The cell esds are taken
into account individually in the estimation of esds in distances, angles
and torsion angles; correlations between esds in cell parameters are only
used when they are defined by crystal symmetry. An approximate (isotropic)
treatment of cell esds is used for estimating esds involving l.s. planes.
;

loop_
_geom_bond_atom_site_label_1
_geom_bond_atom_site_label_2
_geom_bond_distance
_geom_bond_site_symmetry_2
_geom_bond_publ_flag
Gd1 O7 2.311(5) 2_776 ?
Gd1 O3 2.332(4) 2_666 ?
Gd1 OW1 2.413(5) . ?
Gd1 O5 2.427(4) . ?
Gd1 O2 2.430(4) . ?
Gd1 O10 2.475(4) . ?
Gd1 O9 2.486(4) . ?
Gd1 O6 2.510(4) . ?
Gd1 C10 2.779(6) . ?
Gd1 O1 2.794(4) . ?
Gd1 C19 2.841(6) . ?
Gd1 C1 2.980(6) . ?
Cu1 N1 2.040(5) 2_766 ?
Cu1 N1 2.040(5) . ?
Cu1 N2 2.118(5) 2_766 ?
Cu1 N2 2.118(5) . ?
Cu1 O1 2.379(4) . ?
Cu1 O1 2.379(4) 2_766 ?
Cu2 N3 1.999(8) 2_876 ?
Cu2 N3 1.999(8) . ?
Cu2 O8 2.116(5) . ?
Cu2 O8 2.116(5) 2_876 ?
Cu2 N4 2.319(5) 2_876 ?
Cu2 N4 2.319(5) . ?
Cu3 N5 2.042(6) 2_677 ?
Cu3 N5 2.042(6) . ?
Cu3 N6 2.195(5) 2_677 ?
Cu3 N6 2.195(5) . ?
Cu3 O11 2.262(5) . ?
Cu3 O11 2.262(5) 2_677 ?
O1 C1 1.234(7) . ?
O2 C1 1.297(7) . ?
O3 C7 1.271(8) . ?
O3 Gd1 2.332(4) 2_666 ?
O4 C7 1.238(8) . ?
O5 C10 1.237(7) . ?
O6 C10 1.262(8) . ?
O7 C15 1.307(9) . ?
O7 Gd1 2.311(5) 2_776 ?
O8 C15 1.141(9) . ?
O9 C19 1.242(8) . ?
O10 C19 1.272(8) . ?
O11 C27 1.255(9) . ?
O12 C27 1.270(9) . ?
N1 C3 1.487(8) . ?
N1 C8 1.484(8) . ?
N1 C2 1.492(7) . ?
N2 C9 1.479(7) 2_766 ?
N2 C5 1.493(7) . ?
N2 C6 1.499(7) . ?
N3 C16 1.435(10) 2_876 ?
N3 C14 1.513(10) . ?
N3 C13 1.580(12) . ?
N4 C11 1.460(8) . ?
N4 C12 1.450(10) . ?
N4 C18 1.494(10) . ?
N5 C25 1.479(8) . ?
N5 C24 1.505(9) . ?
N5 C26 1.509(8) . ?
N6 C20 1.473(8) . ?
N6 C22 1.481(9) . ?
N6 C21 1.504(9) . ?
C1 C2 1.498(8) . ?
C2 H2A 0.9700 . ?
C2 H2B 0.9700 . ?
C3 C4 1.503(9) . ?
C3 H3A 0.9700 . ?
C3 H3B 0.9700 . ?
C4 C5 1.551(9) . ?
C4 H4A 0.9700 . ?
C4 H4B 0.9700 . ?
C5 H5A 0.9700 . ?
C5 H5B 0.9700 . ?
C6 C7 1.546(9) . ?
C6 H6A 0.9700 . ?
C6 H6B 0.9700 . ?
C8 C9 1.515(9) . ?
C8 H8A 0.9700 . ?
C8 H8B 0.9700 . ?
C9 N2 1.479(7) 2_766 ?
C9 H9A 0.9700 . ?
C9 H9B 0.9700 . ?
C10 C11 1.538(9) . ?
C11 H11A 0.9700 . ?
C11 H11B 0.9700 . ?
C12 C13 1.461(12) . ?
C12 H12A 0.9700 . ?
C12 H12B 0.9700 . ?
C13 H13A 0.9700 . ?
C13 H13B 0.9700 . ?
C14 C15 1.482(13) . ?
C14 H14A 0.9700 . ?
C14 H14B 0.9700 . ?
C16 N3 1.435(10) 2_876 ?
C16 C17 1.582(12) . ?
C16 H16A 0.9700 . ?
C16 H16B 0.9700 . ?
C17 C18 1.602(14) . ?
C17 H17A 0.9700 . ?
C17 H17B 0.9700 . ?
C18 H18A 0.9700 . ?
C18 H18B 0.9700 . ?
C19 C20 1.517(9) . ?
C20 H20A 0.9700 . ?
C20 H20B 0.9700 . ?
C21 C25 1.499(10) 2_677 ?
C21 H21A 0.9700 . ?
C21 H21B 0.9700 . ?
C22 C23 1.519(10) . ?
C22 H22A 0.9700 . ?
C22 H22B 0.9700 . ?
C23 C24 1.523(10) . ?
C23 H23A 0.9700 . ?
C23 H23B 0.9700 . ?
C24 H24A 0.9700 . ?
C24 H24B 0.9700 . ?
C25 C21 1.499(10) 2_677 ?
C25 H25A 0.9700 . ?
C25 H25B 0.9700 . ?
C26 C27 1.495(11) . ?
C26 H26A 0.9700 . ?
C26 H26B 0.9700 . ?

loop_
_geom_angle_atom_site_label_1
_geom_angle_atom_site_label_2
_geom_angle_atom_site_label_3
_geom_angle
_geom_angle