
#######################################################################
#
#                 Cambridge Crystallographic Data Centre
#                                CCDC
#
#######################################################################
#
# If this CIF has been generated from an entry in the Cambridge
# Structural Database, then it will include bibliographic, chemical,
# crystal, experimental, refinement or atomic coordinate data resulting
# from the CCDC's data processing and validation procedures.
#
#######################################################################

data_CSD_CIF_XEWVIE
_audit_creation_date 2001-09-06
_audit_creation_method CSD-ConQuest-V1
_database_code_CSD XEWVIE
_database_code_depnum_ccdc_archive 'CCDC 1296219'
_chemical_formula_sum 'C10 H20 Cl3 Ho1 N2 O6'
_chemical_formula_moiety
;
C10 H20 Ho1 N2 O6 3+,3(Cl1 1-)
;
_journal_coden_Cambridge 154
_journal_volume 52
_journal_year 1999
_journal_page_first 551
_journal_name_full 'Aust.J.Chem. '
loop_
_publ_author_name
"L.I.Semenova"
"B.W.Skelton"
"A.H.White"
_chemical_name_systematic
;
hexaaqua-(2,2'-bipyridine)-holmium(iii) chloride
;
_chemical_name_common
;
Teaching Subset: Fundamental Chemistry
;
_cell_volume   1924.274
_exptl_crystal_density_diffrn 1.85
_exptl_special_details
;
Data relating to the disorder model are available from the CCDC

;
_diffrn_ambient_temperature ?
_diffrn_special_details
;
The study was carried out at room temperature,in the range 283-303K

;
#These two values have been output from a single CSD field.
_refine_ls_R_factor_gt 0.043
_refine_ls_wR_factor_gt 0.043
_symmetry_cell_setting monoclinic
_symmetry_space_group_name_H-M 'P 21/n'
_symmetry_Int_Tables_number 14
loop_
_symmetry_equiv_pos_site_id
_symmetry_equiv_pos_as_xyz
1 x,y,z
2 1/2-x,1/2+y,1/2-z
3 -x,-y,-z
4 -1/2+x,-1/2-y,-1/2+z
_cell_length_a 14.29(1)
_cell_length_b 7.732(2)
_cell_length_c 17.417(8)
_cell_angle_alpha 90
_cell_angle_beta 90.68(5)
_cell_angle_gamma 90
_cell_formula_units_Z 4
loop_
_atom_type_symbol
_atom_type_radius_bond
C 0.68
H 0.23
Cl 0.99
Ho 1.74
N 0.68
O 0.68
loop_
_atom_site_label
_atom_site_type_symbol
_atom_site_fract_x
_atom_site_fract_y
_atom_site_fract_z
Ho1 Ho 0.30678(3) 0.75497(8) 0.43287(2)
O1 O 0.2485(5) 1.035(1) 0.4592(4)
O2 O 0.4604(5) 0.665(1) 0.3937(5)
O3 O 0.3414(5) 0.936(1) 0.3295(4)
O4 O 0.4116(4) 0.886(1) 0.5160(4)
O5 O 0.2818(4) 0.586(1) 0.3222(4)
O6 O 0.3215(5) 0.470(1) 0.4717(4)
N1 N 0.1323(5) 0.740(1) 0.4192(4)
C1 C 0.0786(7) 0.739(2) 0.4828(5)
C2 C -0.0165(7) 0.758(2) 0.4763(6)
C3 C -0.0580(8) 0.778(3) 0.4070(7)
C4 C -0.0041(8) 0.787(2) 0.3426(6)
C5 C 0.0918(7) 0.764(2) 0.3519(5)
N2 N 0.2220(5) 0.714(1) 0.5564(4)
C6 C 0.1284(7) 0.717(2) 0.5578(6)
C7 C 0.0802(8) 0.698(3) 0.6245(6)
C8 C 0.127(1) 0.675(3) 0.6911(7)
C9 C 0.2244(9) 0.669(2) 0.6916(6)
C10 C 0.2681(7) 0.692(2) 0.6231(6)
H1 H -0.05630 0.75640 0.52090
H2 H -0.12490 0.78880 0.40400
H3 H -0.03370 0.80800 0.29280
H4 H 0.13000 0.77210 0.30660
H5 H 0.01280 0.68960 0.62520
H6 H 0.09580 0.66580 0.73980
H7 H 0.26070 0.65970 0.73970
H8 H 0.33540 0.69390 0.62230
H9 H 0.25930 1.09180 0.51680
H10 H 0.19020 1.00750 0.46760
H11 H 0.51160 0.72670 0.40880
H12 H 0.46970 0.54900 0.41580
H13 H 0.38170 0.89040 0.29170
H14 H 0.32430 1.03390 0.34720
H15 H 0.46700 0.85320 0.54540
H16 H 0.36950 0.94500 0.56530
H17 H 0.31310 0.45640 0.31420
H18 H 0.22860 0.59270 0.31920
H19 H 0.39240 0.40690 0.45930
H20 H 0.30070 0.41880 0.52460
Cl1 Cl 0.1579(2) 0.2584(5) 0.3294(1)
Cl2 Cl 0.4550(2) 0.2671(4) 0.3634(1)
Cl3 Cl 0.3312(2) 1.2060(4) 0.6036(1)
#END
