####################################################################### 
# 
# This file contains crystal structure data downloaded from the 
# Cambridge Structural Database (CSD) hosted by the Cambridge 
# Crystallographic Data Centre (CCDC).
# 
# Full information about CCDC data access policies and citation 
# guidelines are available at http://www.ccdc.cam.ac.uk/access/V1 
# 
# Audit and citation data items may have been added by the CCDC. 
# Please retain this information to preserve the provenance of 
# this file and to allow appropriate attribution of the data. 
# 
#######################################################################

data_compound2
_audit_block_doi                 10.5517/ccz00vt
_database_code_depnum_ccdc_archive 'CCDC 893756'
loop_
_citation_id
_citation_doi
_citation_year
1 10.1021/ic302334x 2013
_audit_update_record             
;
2012-07-26 deposited with the CCDC.	2024-07-13 downloaded from the CCDC.
;
#TrackingRef 'RagavDaram.cif'


#data_b287jj

_audit_creation_method           SHELXL-97
_chemical_name_systematic        
;
?
;
_chemical_name_common            ?
_chemical_melting_point          ?
_chemical_formula_moiety         ?
_chemical_formula_sum            'C42 H45 Cd2 N5 O23'
_chemical_formula_weight         1212.63

loop_
_atom_type_symbol
_atom_type_description
_atom_type_scat_dispersion_real
_atom_type_scat_dispersion_imag
_atom_type_scat_source
C C 0.0033 0.0016 'International Tables Vol C Tables 4.2.6.8 and 6.1.1.4'
H H 0.0000 0.0000 'International Tables Vol C Tables 4.2.6.8 and 6.1.1.4'
N N 0.0061 0.0033 'International Tables Vol C Tables 4.2.6.8 and 6.1.1.4'
O O 0.0106 0.0060 'International Tables Vol C Tables 4.2.6.8 and 6.1.1.4'
Cd Cd -0.8075 1.2024 'International Tables Vol C Tables 4.2.6.8 and 6.1.1.4'

_symmetry_cell_setting           Monoclinic
_symmetry_space_group_name_H-M   P2(1)/n

loop_
_symmetry_equiv_pos_as_xyz
'x, y, z'
'-x+1/2, y+1/2, -z+1/2'
'-x, -y, -z'
'x-1/2, -y-1/2, z-1/2'

_cell_length_a                   4.9738(5)
_cell_length_b                   24.836(3)
_cell_length_c                   20.663(2)
_cell_angle_alpha                90.00
_cell_angle_beta                 95.903(3)
_cell_angle_gamma                90.00
_cell_volume                     2538.9(4)
_cell_formula_units_Z            2
_cell_measurement_temperature    100(2)
_cell_measurement_reflns_used    716
_cell_measurement_theta_min      2.57
_cell_measurement_theta_max      21.60

_exptl_crystal_description       Block
_exptl_crystal_colour            Yellow
_exptl_crystal_size_max          0.26
_exptl_crystal_size_mid          0.10
_exptl_crystal_size_min          0.10
_exptl_crystal_density_meas      'Not Measured'
_exptl_crystal_density_diffrn    1.586
_exptl_crystal_density_method    'not measured'
_exptl_crystal_F_000             1224
_exptl_absorpt_coefficient_mu    0.923
_exptl_absorpt_correction_type   Multi-scan
_exptl_absorpt_correction_T_min  0.7953
_exptl_absorpt_correction_T_max  0.9134
_exptl_absorpt_process_details   'SADABS (Sheldrick, 2001)'

_exptl_special_details           
;
?
;

_diffrn_ambient_temperature      100(2)
_diffrn_radiation_wavelength     0.71073
_diffrn_radiation_type           MoK\a
_diffrn_radiation_source         'fine-focus sealed tube'
_diffrn_radiation_monochromator  graphite
_diffrn_measurement_device_type  'CCD area detector'
_diffrn_measurement_method       'phi and omega scans'
_diffrn_detector_area_resol_mean ?
_diffrn_standards_number         ?
_diffrn_standards_interval_count ?
_diffrn_standards_interval_time  ?
_diffrn_standards_decay_%        ?
_diffrn_reflns_number            18156
_diffrn_reflns_av_R_equivalents  0.0656
_diffrn_reflns_av_sigmaI/netI    0.0722
_diffrn_reflns_limit_h_min       -6
_diffrn_reflns_limit_h_max       6
_diffrn_reflns_limit_k_min       -32
_diffrn_reflns_limit_k_max       32
_diffrn_reflns_limit_l_min       -26
_diffrn_reflns_limit_l_max       17
_diffrn_reflns_theta_min         1.92
_diffrn_reflns_theta_max         27.49
_reflns_number_total             5838
_reflns_number_gt                4615
_reflns_threshold_expression     >2sigma(I)

_computing_data_collection       'Bruker SMART'
_computing_cell_refinement       'Bruker SMART'
_computing_data_reduction        'Bruker SAINT'
_computing_structure_solution    'SHELXS-97 (Sheldrick, 1990)'
_computing_structure_refinement  'SHELXL-97 (Sheldrick, 1997)'
_computing_molecular_graphics    'Bruker SHELXTL'
_computing_publication_material  'Bruker SHELXTL'

_refine_special_details          
;
Refinement of F^2^ against ALL reflections. The weighted R-factor wR and
goodness of fit S are based on F^2^, conventional R-factors R are based
on F, with F set to zero for negative F^2^. The threshold expression of
F^2^ > 2sigma(F^2^) is used only for calculating R-factors(gt) etc. and is
not relevant to the choice of reflections for refinement. R-factors based
on F^2^ are statistically about twice as large as those based on F, and R-
factors based on ALL data will be even larger.
;

_refine_ls_structure_factor_coef Fsqd
_refine_ls_matrix_type           full
_refine_ls_weighting_scheme      calc
_refine_ls_weighting_details     
'calc w=1/[\s^2^(Fo^2^)+(0.0603P)^2^+8.5979P] where P=(Fo^2^+2Fc^2^)/3'
_atom_sites_solution_primary     direct
_atom_sites_solution_secondary   difmap
_atom_sites_solution_hydrogens   geom
_refine_ls_hydrogen_treatment    constr
_refine_ls_extinction_method     none
_refine_ls_extinction_coef       ?
_refine_ls_number_reflns         5838
_refine_ls_number_parameters     311
_refine_ls_number_restraints     13
_refine_ls_R_factor_all          0.0774
_refine_ls_R_factor_gt           0.0574
_refine_ls_wR_factor_ref         0.1451
_refine_ls_wR_factor_gt          0.1362
_refine_ls_goodness_of_fit_ref   1.068
_refine_ls_restrained_S_all      1.070
_refine_ls_shift/su_max          0.000
_refine_ls_shift/su_mean         0.000

loop_
_atom_site_label
_atom_site_type_symbol
_atom_site_fract_x
_atom_site_fract_y
_atom_site_fract_z
_atom_site_U_iso_or_equiv
_atom_site_adp_type
_atom_site_occupancy
_atom_site_symmetry_multiplicity
_atom_site_calc_flag
_atom_site_refinement_flags
_atom_site_disorder_assembly
_atom_site_disorder_group
Cd1 Cd 0.32280(7) -0.042362(13) 0.440505(17) 0.01221(12) Uani 1 1 d . . .
O1 O -0.0568(7) -0.01743(14) 0.37813(18) 0.0192(8) Uani 1 1 d . . .
O2 O -0.4974(7) 0.00155(14) 0.36211(18) 0.0188(8) Uani 1 1 d . . .
O3 O 0.2822(7) 0.04105(13) 0.48795(16) 0.0144(7) Uani 1 1 d . . .
O4 O -0.1286(7) 0.07872(14) 0.47595(17) 0.0167(7) Uani 1 1 d . . .
O5 O -0.2363(9) 0.19706(17) 0.1366(2) 0.0318(10) Uani 1 1 d . . .
O6 O 0.4831(9) 0.25722(17) 0.2697(2) 0.0356(11) Uani 1 1 d . . .
N1 N 0.1278(9) 0.37373(17) 0.1013(2) 0.0200(9) Uani 1 1 d . . .
C1 C -0.0400(15) 0.3666(3) 0.1464(4) 0.0439(18) Uani 1 1 d . . .
H1 H -0.1566 0.3953 0.1554 0.053 Uiso 1 1 calc R . .
C2 C -0.0529(15) 0.3193(3) 0.1810(4) 0.0451(19) Uani 1 1 d . . .
H2 H -0.1756 0.3156 0.2130 0.054 Uiso 1 1 calc R . .
C3 C 0.1139(11) 0.2781(2) 0.1682(3) 0.0236(12) Uani 1 1 d . . .
C4 C 0.2773(15) 0.2830(3) 0.1199(4) 0.047(2) Uani 1 1 d . . .
H4 H 0.3865 0.2540 0.1081 0.056 Uiso 1 1 calc R . .
C5 C 0.2785(15) 0.3324(2) 0.0883(3) 0.0407(17) Uani 1 1 d . . .
H5 H 0.3959 0.3365 0.0551 0.049 Uiso 1 1 calc R . .
N2 N 0.1094(9) 0.22919(18) 0.2059(2) 0.0246(10) Uani 1 1 d . . .
C6 C -0.0923(11) 0.1913(2) 0.1873(3) 0.0230(12) Uani 1 1 d . . .
C7 C -0.1188(11) 0.1460(2) 0.2328(3) 0.0204(11) Uani 1 1 d . . .
C8 C 0.0476(10) 0.14263(19) 0.2923(3) 0.0172(10) Uani 1 1 d . . .
C9 C 0.2578(10) 0.1808(2) 0.3067(3) 0.0192(11) Uani 1 1 d . . .
C10 C 0.2993(11) 0.2244(2) 0.2611(3) 0.0244(12) Uani 1 1 d . . .
C11 C -0.3192(12) 0.1090(2) 0.2173(3) 0.0238(12) Uani 1 1 d . . .
H11 H -0.4311 0.1118 0.1773 0.029 Uiso 1 1 calc R . .
C12 C -0.3590(11) 0.0669(2) 0.2606(3) 0.0240(12) Uani 1 1 d . . .
H12 H -0.4977 0.0412 0.2494 0.029 Uiso 1 1 calc R . .
C13 C -0.2001(10) 0.0620(2) 0.3196(3) 0.0165(10) Uani 1 1 d . . .
C14 C 0.0049(10) 0.10150(19) 0.3384(2) 0.0154(10) Uani 1 1 d . . .
C15 C 0.1665(9) 0.10281(19) 0.3997(2) 0.0137(10) Uani 1 1 d . . .
C16 C 0.3724(10) 0.1399(2) 0.4113(3) 0.0182(11) Uani 1 1 d . . .
H16 H 0.4821 0.1395 0.4518 0.022 Uiso 1 1 calc R . .
C17 C 0.4214(11) 0.1783(2) 0.3641(3) 0.0226(12) Uani 1 1 d . . .
H17 H 0.5686 0.2026 0.3720 0.027 Uiso 1 1 calc R . .
C18 C -0.2528(10) 0.01195(19) 0.3576(2) 0.0141(10) Uani 1 1 d . . .
C19 C 0.1012(9) 0.07073(19) 0.4580(2) 0.0137(10) Uani 1 1 d . . .
O1S O 0.854(5) 0.2614(10) 0.4646(11) 0.186(6) Uiso 0.50 1 d PD A 1
N1S N 0.474(4) 0.3115(9) 0.4210(10) 0.186(6) Uiso 0.50 1 d PD A 1
C1S C 0.914(8) 0.3204(13) 0.3752(13) 0.186(6) Uiso 0.50 1 d PD A 1
H1S1 H 1.0700 0.3399 0.3967 0.279 Uiso 0.50 1 calc PR A 1
H1S2 H 0.7982 0.3455 0.3485 0.279 Uiso 0.50 1 calc PR A 1
H1S3 H 0.9778 0.2921 0.3475 0.279 Uiso 0.50 1 calc PR A 1
C2S C 0.759(4) 0.2958(9) 0.4251(11) 0.186(6) Uiso 0.50 1 d PD A 1
C3S C 0.296(6) 0.2885(13) 0.4666(14) 0.186(6) Uiso 0.50 1 d PD A 1
H3S1 H 0.2446 0.3166 0.4961 0.279 Uiso 0.50 1 calc PR A 1
H3S2 H 0.3924 0.2597 0.4919 0.279 Uiso 0.50 1 calc PR A 1
H3S3 H 0.1339 0.2737 0.4421 0.279 Uiso 0.50 1 calc PR A 1
C4S C 0.367(6) 0.3510(11) 0.3726(13) 0.186(6) Uiso 0.50 1 d PD A 1
H4S1 H 0.3351 0.3852 0.3942 0.279 Uiso 0.50 1 calc PR A 1
H4S2 H 0.1967 0.3378 0.3502 0.279 Uiso 0.50 1 calc PR A 1
H4S3 H 0.4979 0.3566 0.3408 0.279 Uiso 0.50 1 calc PR A 1
O1W O 0.146(5) 0.5678(8) 0.7000(9) 0.302(11) Uani 1 1 d . B 1
O2W O 0.638(10) 0.486(2) 0.609(2) 0.344(16) Uiso 0.50 1 d P C 1
O3W O 0.090(11) 0.410(2) 0.525(2) 0.344(16) Uiso 0.50 1 d P D 1
O4W O 0.633(3) 0.5527(6) 0.7412(6) 0.197(6) Uani 1 1 d . E 2
O5W O 0.110(10) 0.502(2) 0.587(2) 0.346(17) Uiso 0.50 1 d P F 2
O6W O 0.717(10) 0.393(2) 0.539(2) 0.346(17) Uiso 0.50 1 d P G 2
O7W O 0.298(7) 0.2436(15) 0.5161(17) 0.239(10) Uiso 0.50 1 d P H 2
O8W O 0.109(8) 0.3004(15) 0.4139(18) 0.239(10) Uiso 0.50 1 d P I 2

loop_
_atom_site_aniso_label
_atom_site_aniso_U_11
_atom_site_aniso_U_22
_atom_site_aniso_U_33
_atom_site_aniso_U_23
_atom_site_aniso_U_13
_atom_site_aniso_U_12
Cd1 0.01187(18) 0.01048(18) 0.01471(19) -0.00067(14) 0.00341(12) 0.00008(14)
O1 0.0138(17) 0.0185(18) 0.025(2) 0.0027(15) 0.0028(15) -0.0006(14)
O2 0.0120(17) 0.0221(19) 0.0227(19) 0.0059(15) 0.0036(14) -0.0025(14)
O3 0.0145(16) 0.0142(16) 0.0144(17) 0.0002(14) 0.0007(13) 0.0026(14)
O4 0.0153(17) 0.0152(17) 0.0200(19) 0.0012(14) 0.0039(14) 0.0017(14)
O5 0.041(3) 0.029(2) 0.025(2) 0.0119(18) 0.0003(19) -0.0050(19)
O6 0.032(2) 0.032(2) 0.042(3) 0.014(2) 0.000(2) -0.0140(19)
N1 0.021(2) 0.017(2) 0.023(2) 0.0070(18) 0.0061(18) -0.0007(18)
C1 0.061(5) 0.020(3) 0.058(5) 0.010(3) 0.039(4) 0.010(3)
C2 0.055(4) 0.032(4) 0.057(5) 0.015(3) 0.046(4) 0.012(3)
C3 0.027(3) 0.018(3) 0.025(3) 0.009(2) 0.002(2) -0.005(2)
C4 0.057(5) 0.031(4) 0.059(5) 0.025(3) 0.038(4) 0.026(3)
C5 0.055(4) 0.024(3) 0.050(4) 0.019(3) 0.037(4) 0.014(3)
N2 0.025(2) 0.020(2) 0.030(3) 0.013(2) 0.007(2) 0.0002(19)
C6 0.027(3) 0.019(3) 0.024(3) 0.005(2) 0.009(2) -0.002(2)
C7 0.025(3) 0.017(3) 0.019(3) 0.004(2) 0.006(2) 0.000(2)
C8 0.016(2) 0.012(2) 0.024(3) 0.002(2) 0.008(2) 0.0013(19)
C9 0.018(3) 0.018(3) 0.022(3) 0.005(2) 0.008(2) 0.000(2)
C10 0.023(3) 0.022(3) 0.030(3) 0.007(2) 0.005(2) -0.004(2)
C11 0.032(3) 0.023(3) 0.016(3) 0.008(2) 0.001(2) -0.005(2)
C12 0.023(3) 0.025(3) 0.023(3) 0.002(2) 0.001(2) -0.007(2)
C13 0.014(2) 0.014(2) 0.022(3) 0.003(2) 0.004(2) -0.0007(19)
C14 0.014(2) 0.012(2) 0.022(3) 0.0018(19) 0.009(2) 0.0012(19)
C15 0.011(2) 0.010(2) 0.021(3) 0.0034(19) 0.0080(19) 0.0031(18)
C16 0.015(2) 0.016(2) 0.024(3) 0.007(2) 0.005(2) -0.0009(19)
C17 0.017(3) 0.021(3) 0.030(3) 0.003(2) 0.003(2) -0.003(2)
C18 0.017(2) 0.014(2) 0.012(2) -0.0012(18) 0.0035(19) -0.0026(19)
C19 0.012(2) 0.011(2) 0.019(2) -0.0038(18) 0.0038(19) -0.0026(18)
O1W 0.46(4) 0.228(18) 0.222(18) 0.010(15) 0.05(2) 0.00(2)
O4W 0.181(13) 0.265(17) 0.150(11) -0.026(10) 0.049(10) -0.083(12)

_geom_special_details            
;
All esds (except the esd in the dihedral angle between two l.s. planes)
are estimated using the full covariance matrix. The cell esds are taken
into account individually in the estimation of esds in distances, angles
and torsion angles; correlations between esds in cell parameters are only
used when they are defined by crystal symmetry. An approximate (isotropic)
treatment of cell esds is used for estimating esds involving l.s. planes.
;

loop_
_geom_bond_atom_site_label_1
_geom_bond_atom_site_label_2
_geom_bond_distance
_geom_bond_site_symmetry_2
_geom_bond_publ_flag
Cd1 O2 2.216(3) 1_655 ?
Cd1 O4 2.252(3) 3_556 ?
Cd1 O1 2.260(4) . ?
Cd1 N1 2.278(4) 2_545 ?
Cd1 O3 2.310(3) . ?
Cd1 O3 2.334(3) 3_656 ?
O1 C18 1.256(6) . ?
O2 C18 1.256(6) . ?
O2 Cd1 2.216(3) 1_455 ?
O3 C19 1.274(6) . ?
O3 Cd1 2.334(3) 3_656 ?
O4 C19 1.253(6) . ?
O4 Cd1 2.252(3) 3_556 ?
O5 C6 1.215(7) . ?
O6 C10 1.224(7) . ?
N1 C5 1.316(7) . ?
N1 C1 1.327(8) . ?
N1 Cd1 2.278(4) 2 ?
C1 C2 1.379(9) . ?
C2 C3 1.361(8) . ?
C3 C4 1.357(8) . ?
C3 N2 1.443(7) . ?
C4 C5 1.388(8) . ?
N2 C6 1.400(7) . ?
N2 C10 1.409(7) . ?
C6 C7 1.481(7) . ?
C7 C11 1.370(8) . ?
C7 C8 1.413(7) . ?
C8 C9 1.420(7) . ?
C8 C14 1.427(7) . ?
C9 C17 1.370(8) . ?
C9 C10 1.464(7) . ?
C11 C12 1.403(7) . ?
C12 C13 1.387(7) . ?
C13 C14 1.440(7) . ?
C13 C18 1.507(7) . ?
C14 C15 1.429(7) . ?
C15 C16 1.381(7) . ?
C15 C19 1.508(7) . ?
C16 C17 1.402(7) . ?
O1S C2S 1.243(9) . ?
N1S C4S 1.462(9) . ?
N1S C2S 1.462(9) . ?
N1S C3S 1.473(9) . ?
C1S C2S 1.483(10) . ?

loop_
_geom_angle_atom_site_label_1
_geom_angle_atom_site_label_2
_geom_angle_atom_site_label_3
_geom_angle
_geom_angle_site_symmetry_1
_geom_angle_site_symmetry_3
_geom_angle_publ_flag
O2 Cd1 O4 174.15(13) 1_655 3_556 ?
O2 Cd1 O1 79.90(13) 1_655 . ?
O4 Cd1 O1 98.51(13) 3_556 . ?
O2 Cd1 N1 96.08(15) 1_655 2_545 ?
O4 Cd1 N1 89.72(14) 3_556 2_545 ?
O1 Cd1 N1 98.68(15) . 2_545 ?
O2 Cd1 O3 85.89(13) 1_655 . ?
O4 Cd1 O3 88.35(12) 3_556 . ?
O1 Cd1 O3 83.80(12) . . ?
N1 Cd1 O3 177.06(14) 2_545 . ?
O2 Cd1 O3 94.55(12) 1_655 3_656 ?
O4 Cd1 O3 85.38(12) 3_556 3_656 ?
O1 Cd1 O3 163.06(13) . 3_656 ?
N1 Cd1 O3 97.82(14) 2_545 3_656 ?
O3 Cd1 O3 79.82(12) . 3_656 ?
C18 O1 Cd1 157.7(3) . . ?
C18 O2 Cd1 128.4(3) . 1_455 ?
C19 O3 Cd1 113.7(3) . . ?
C19 O3 Cd1 143.7(3) . 3_656 ?
Cd1 O3 Cd1 100.18(12) . 3_656 ?
C19 O4 Cd1 129.7(3) . 3_556 ?
C5 N1 C1 116.8(5) . . ?
C5 N1 Cd1 123.4(4) . 2 ?
C1 N1 Cd1 119.3(4) . 2 ?
N1 C1 C2 123.0(6) . . ?
C3 C2 C1 118.6(6) . . ?
C4 C3 C2 119.9(5) . . ?
C4 C3 N2 121.2(5) . . ?
C2 C3 N2 119.0(5) . . ?
C3 C4 C5 117.3(6) . . ?
N1 C5 C4 124.3(6) . . ?
C6 N2 C10 124.6(4) . . ?
C6 N2 C3 117.9(5) . . ?
C10 N2 C3 117.5(5) . . ?
O5 C6 N2 120.0(5) . . ?
O5 C6 C7 123.6(5) . . ?
N2 C6 C7 116.4(5) . . ?
C11 C7 C8 120.7(5) . . ?
C11 C7 C6 118.2(5) . . ?
C8 C7 C6 121.0(5) . . ?
C7 C8 C9 119.7(5) . . ?
C7 C8 C14 120.6(5) . . ?
C9 C8 C14 119.7(5) . . ?
C17 C9 C8 120.6(5) . . ?
C17 C9 C10 118.8(5) . . ?
C8 C9 C10 120.6(5) . . ?
O6 C10 N2 119.4(5) . . ?
O6 C10 C9 123.5(5) . . ?
N2 C10 C9 117.1(5) . . ?
C7 C11 C12 119.9(5) . . ?
C13 C12 C11 121.4(5) . . ?
C12 C13 C14 120.0(5) . . ?
C12 C13 C18 114.6(4) . . ?
C14 C13 C18 125.3(4) . . ?
C8 C14 C15 117.8(4) . . ?
C8 C14 C13 117.3(5) . . ?
C15 C14 C13 125.0(4) . . ?
C16 C15 C14 120.6(4) . . ?
C16 C15 C19 115.5(4) . . ?
C14 C15 C19 123.3(4) . . ?
C15 C16 C17 120.7(5) . . ?
C9 C17 C16 120.2(5) . . ?
O2 C18 O1 125.4(5) . . ?
O2 C18 C13 115.4(4) . . ?
O1 C18 C13 118.9(4) . . ?
O4 C19 O3 124.7(5) . . ?
O4 C19 C15 115.5(4) . . ?
O3 C19 C15 119.6(4) . . ?
C4S N1S C2S 120.1(13) . . ?
C4S N1S C3S 119.9(13) . . ?
C2S N1S C3S 120.0(13) . . ?
O1S C2S N1S 121.7(15) . . ?
O1S C2S C1S 123.2(16) . . ?
N1S C2S C1S 115(2) . . ?

_diffrn_measured_fraction_theta_max 0.998
_diffrn_reflns_theta_full        27.49
_diffrn_measured_fraction_theta_full 0.998
_refine_diff_density_max         1.226
_refine_diff_density_min         -1.283
_refine_diff_density_rms         0.150
