####################################################################### 
# 
# This file contains crystal structure data downloaded from the 
# Cambridge Structural Database (CSD) hosted by the Cambridge 
# Crystallographic Data Centre (CCDC).
# 
# Full information about CCDC data access policies and citation 
# guidelines are available at http://www.ccdc.cam.ac.uk/access/V1 
# 
# Audit and citation data items may have been added by the CCDC. 
# Please retain this information to preserve the provenance of 
# this file and to allow appropriate attribution of the data. 
# 
#######################################################################

data_compound1e
_audit_block_doi                 10.5517/ccz00ts
_database_code_depnum_ccdc_archive 'CCDC 893755'
loop_
_citation_id
_citation_doi
_citation_year
1 10.1021/ic302334x 2013
_audit_update_record             
;
2012-07-26 deposited with the CCDC.	2024-07-13 downloaded from the CCDC.
;
#TrackingRef 'RagavDaram.cif'


#data_c107

_audit_creation_method           SHELXL-97
_chemical_name_systematic        
;
?
;
_chemical_name_common            ?
_chemical_melting_point          ?
_chemical_formula_moiety         ?
_chemical_formula_sum            'C47 H38 N4 O17 Zn2'
_chemical_formula_weight         1061.55

loop_
_atom_type_symbol
_atom_type_description
_atom_type_scat_dispersion_real
_atom_type_scat_dispersion_imag
_atom_type_scat_source
C C 0.0033 0.0016 'International Tables Vol C Tables 4.2.6.8 and 6.1.1.4'
H H 0.0000 0.0000 'International Tables Vol C Tables 4.2.6.8 and 6.1.1.4'
N N 0.0061 0.0033 'International Tables Vol C Tables 4.2.6.8 and 6.1.1.4'
O O 0.0106 0.0060 'International Tables Vol C Tables 4.2.6.8 and 6.1.1.4'
Zn Zn 0.2839 1.4301 'International Tables Vol C Tables 4.2.6.8 and 6.1.1.4'

_symmetry_cell_setting           Monoclinic
_symmetry_space_group_name_H-M   P2(1)/n

loop_
_symmetry_equiv_pos_as_xyz
'x, y, z'
'-x+1/2, y+1/2, -z+1/2'
'-x, -y, -z'
'x-1/2, -y-1/2, z-1/2'

_cell_length_a                   5.6415(14)
_cell_length_b                   27.633(7)
_cell_length_c                   14.847(4)
_cell_angle_alpha                90.00
_cell_angle_beta                 100.149(4)
_cell_angle_gamma                90.00
_cell_volume                     2278.3(10)
_cell_formula_units_Z            2
_cell_measurement_temperature    173(2)
_cell_measurement_reflns_used    2025
_cell_measurement_theta_min      2.61
_cell_measurement_theta_max      27.04

_exptl_crystal_description       Rod
_exptl_crystal_colour            Yellow
_exptl_crystal_size_max          0.50
_exptl_crystal_size_mid          0.09
_exptl_crystal_size_min          0.09
_exptl_crystal_density_meas      'Not Measured'
_exptl_crystal_density_diffrn    1.547
_exptl_crystal_density_method    'not measured'
_exptl_crystal_F_000             1088
_exptl_absorpt_coefficient_mu    1.134
_exptl_absorpt_correction_type   Multi-scan
_exptl_absorpt_correction_T_min  0.4350
_exptl_absorpt_correction_T_max  0.5633
_exptl_absorpt_process_details   'SADABS (Sheldrick, 2001)'

_exptl_special_details           
;
?
;

_diffrn_ambient_temperature      173(2)
_diffrn_radiation_wavelength     0.71073
_diffrn_radiation_type           MoK\a
_diffrn_radiation_source         'fine-focus sealed tube'
_diffrn_radiation_monochromator  graphite
_diffrn_measurement_device_type  'CCD area detector'
_diffrn_measurement_method       'phi and omega scans'
_diffrn_detector_area_resol_mean ?
_diffrn_standards_number         ?
_diffrn_standards_interval_count ?
_diffrn_standards_interval_time  ?
_diffrn_standards_decay_%        ?
_diffrn_reflns_number            14995
_diffrn_reflns_av_R_equivalents  0.0789
_diffrn_reflns_av_sigmaI/netI    0.0900
_diffrn_reflns_limit_h_min       -7
_diffrn_reflns_limit_h_max       6
_diffrn_reflns_limit_k_min       -35
_diffrn_reflns_limit_k_max       34
_diffrn_reflns_limit_l_min       -18
_diffrn_reflns_limit_l_max       16
_diffrn_reflns_theta_min         1.47
_diffrn_reflns_theta_max         27.00
_reflns_number_total             4969
_reflns_number_gt                3382
_reflns_threshold_expression     >2sigma(I)

_computing_data_collection       'Bruker SMART'
_computing_cell_refinement       'Bruker SMART'
_computing_data_reduction        'Bruker SAINT'
_computing_structure_solution    'SHELXS-97 (Sheldrick, 1990)'
_computing_structure_refinement  'SHELXL-97 (Sheldrick, 1997)'
_computing_molecular_graphics    'Bruker SHELXTL'
_computing_publication_material  'Bruker SHELXTL'

_refine_special_details          
;
Refinement of F^2^ against ALL reflections. The weighted R-factor wR and
goodness of fit S are based on F^2^, conventional R-factors R are based
on F, with F set to zero for negative F^2^. The threshold expression of
F^2^ > 2sigma(F^2^) is used only for calculating R-factors(gt) etc. and is
not relevant to the choice of reflections for refinement. R-factors based
on F^2^ are statistically about twice as large as those based on F, and R-
factors based on ALL data will be even larger.
;

_refine_ls_structure_factor_coef Fsqd
_refine_ls_matrix_type           full
_refine_ls_weighting_scheme      calc
_refine_ls_weighting_details     
'calc w=1/[\s^2^(Fo^2^)+(0.1116P)^2^+0.0000P] where P=(Fo^2^+2Fc^2^)/3'
_atom_sites_solution_primary     direct
_atom_sites_solution_secondary   difmap
_atom_sites_solution_hydrogens   geom
_refine_ls_hydrogen_treatment    constr
_refine_ls_extinction_method     SHELXL
_refine_ls_extinction_coef       0.031(3)
_refine_ls_extinction_expression Fc^*^=kFc[1+0.001xFc^2^\l^3^/sin(2\q)]^-1/4^
_refine_ls_number_reflns         4969
_refine_ls_number_parameters     343
_refine_ls_number_restraints     22
_refine_ls_R_factor_all          0.1074
_refine_ls_R_factor_gt           0.0656
_refine_ls_wR_factor_ref         0.1945
_refine_ls_wR_factor_gt          0.1677
_refine_ls_goodness_of_fit_ref   1.076
_refine_ls_restrained_S_all      1.076
_refine_ls_shift/su_max          0.001
_refine_ls_shift/su_mean         0.000

loop_
_atom_site_label
_atom_site_type_symbol
_atom_site_fract_x
_atom_site_fract_y
_atom_site_fract_z
_atom_site_U_iso_or_equiv
_atom_site_adp_type
_atom_site_occupancy
_atom_site_symmetry_multiplicity
_atom_site_calc_flag
_atom_site_refinement_flags
_atom_site_disorder_assembly
_atom_site_disorder_group
Zn1 Zn 0.03925(10) 1.023721(18) 0.41077(4) 0.0150(2) Uani 1 1 d . . .
O1 O 0.2434(6) 0.96427(11) 0.3985(2) 0.0187(8) Uani 1 1 d . . .
O2 O 0.2377(6) 0.93907(12) 0.5426(2) 0.0196(8) Uani 1 1 d . . .
O3 O 0.7679(6) 0.98186(11) 0.3382(2) 0.0193(8) Uani 1 1 d . . .
O4 O 0.7522(6) 0.94604(12) 0.4741(2) 0.0185(8) Uani 1 1 d . . .
O5 O 0.7291(8) 0.73895(13) 0.1908(3) 0.0342(10) Uani 1 1 d . . .
O6 O 0.1610(7) 0.70401(13) 0.3647(3) 0.0326(10) Uani 1 1 d . . .
N1 N 0.4238(8) 0.58022(14) 0.1735(3) 0.0194(9) Uani 1 1 d . . .
C1 C 0.6221(9) 0.59740(18) 0.2269(4) 0.0222(11) Uani 1 1 d . . .
H1 H 0.7602 0.5772 0.2395 0.027 Uiso 1 1 calc R . .
C2 C 0.6346(9) 0.64334(18) 0.2643(4) 0.0227(11) Uani 1 1 d . . .
H2 H 0.7773 0.6544 0.3026 0.027 Uiso 1 1 calc R . .
C3 C 0.4349(10) 0.67270(18) 0.2448(4) 0.0224(11) Uani 1 1 d . . .
C4 C 0.2237(9) 0.65553(18) 0.1917(4) 0.0222(11) Uani 1 1 d . . .
H4 H 0.0833 0.6751 0.1794 0.027 Uiso 1 1 calc R . .
C5 C 0.2247(9) 0.60871(17) 0.1571(4) 0.0211(11) Uani 1 1 d . . .
H5 H 0.0818 0.5963 0.1210 0.025 Uiso 1 1 calc R . .
N2 N 0.4443(8) 0.72224(15) 0.2773(3) 0.0223(10) Uani 1 1 d . . .
C6 C 0.2931(9) 0.73448(18) 0.3399(4) 0.0222(11) Uani 1 1 d . . .
C7 C 0.3065(9) 0.78537(17) 0.3725(4) 0.0207(11) Uani 1 1 d . . .
C8 C 0.4592(9) 0.81932(17) 0.3394(3) 0.0170(10) Uani 1 1 d . . .
C9 C 0.6015(9) 0.80498(17) 0.2742(4) 0.0196(11) Uani 1 1 d . . .
C10 C 0.6037(10) 0.75370(18) 0.2433(4) 0.0231(11) Uani 1 1 d . . .
C11 C 0.1739(10) 0.79847(19) 0.4383(4) 0.0246(12) Uani 1 1 d . . .
H11 H 0.0792 0.7750 0.4626 0.030 Uiso 1 1 calc R . .
C12 C 0.1793(10) 0.84634(18) 0.4691(4) 0.0243(12) Uani 1 1 d . . .
H12 H 0.0862 0.8551 0.5140 0.029 Uiso 1 1 calc R . .
C13 C 0.3159(8) 0.88098(17) 0.4361(4) 0.0187(11) Uani 1 1 d . . .
C14 C 0.4699(8) 0.86808(16) 0.3716(3) 0.0156(10) Uani 1 1 d . . .
C15 C 0.6344(8) 0.90064(17) 0.3398(4) 0.0174(10) Uani 1 1 d . . .
C16 C 0.7612(10) 0.88570(18) 0.2728(4) 0.0235(12) Uani 1 1 d . . .
H16 H 0.8598 0.9083 0.2483 0.028 Uiso 1 1 calc R . .
C17 C 0.7466(10) 0.83769(19) 0.2403(4) 0.0271(12) Uani 1 1 d . . .
H17 H 0.8369 0.8280 0.1951 0.032 Uiso 1 1 calc R . .
C18 C 0.2708(8) 0.93292(17) 0.4613(4) 0.0180(10) Uani 1 1 d . . .
C19 C 0.7157(8) 0.94768(16) 0.3879(4) 0.0175(10) Uani 1 1 d . . .
O1S O 0.1720(16) 0.7712(4) 0.0550(7) 0.132(3) Uani 1 1 d . . .
H1S H 0.0223 0.7756 0.0452 0.199 Uiso 1 1 calc R . .
C1S C 0.2817(17) 0.8108(3) 0.0299(6) 0.065(2) Uani 1 1 d . . .
H1S1 H 0.2764 0.8070 -0.0367 0.078 Uiso 1 1 calc R . .
H1S2 H 0.4529 0.8069 0.0585 0.078 Uiso 1 1 calc R . .
C2S C 0.231(3) 0.8613(4) 0.0417(8) 0.105(4) Uani 1 1 d . . .
H2S H 0.3144 0.8869 0.0183 0.126 Uiso 1 1 calc R . .
C3S C 0.056(3) 0.8681(4) 0.0881(10) 0.186(10) Uani 1 1 d . . .
H3S1 H -0.0214 0.8411 0.1099 0.223 Uiso 1 1 calc R . .
H3S2 H 0.0071 0.9000 0.1000 0.223 Uiso 1 1 calc R . .
O2S O 0.678(9) 0.9634(11) -0.132(3) 0.149(15) Uiso 0.25 1 d PDU A 1
H2S1 H 0.7377 0.9549 -0.1777 0.223 Uiso 0.25 1 calc PR A 1
C4S C 0.601(9) 1.013(2) -0.143(5) 0.15(2) Uiso 0.25 1 d PDU A 1
H4SA H 0.6009 1.0286 -0.0824 0.183 Uiso 0.25 1 calc PR A 1
H4SB H 0.4380 1.0159 -0.1799 0.183 Uiso 0.25 1 calc PR A 1
C5S C 0.789(4) 1.0378(9) -0.1921(16) 0.034(5) Uiso 0.25 1 d PDU A 1
H5SA H 0.7837 1.0621 -0.2378 0.041 Uiso 0.25 1 calc PR A 1
C6S C 0.977(5) 1.0085(11) -0.140(2) 0.053(8) Uiso 0.25 1 d PDU A 1
H6SA H 0.9393 0.9859 -0.0963 0.063 Uiso 0.25 1 calc PR A 1
H6SB H 1.1391 1.0119 -0.1489 0.063 Uiso 0.25 1 calc PR A 1
O3S O 0.441(6) 0.9982(15) -0.130(3) 0.127(12) Uiso 0.25 1 d PDU B 2
H3SA H 0.3459 1.0177 -0.1617 0.190 Uiso 0.25 1 calc PR B 2
C7S C 0.631(8) 0.990(2) -0.172(3) 0.136(17) Uiso 0.25 1 d PDU B 2
H7SA H 0.7041 1.0208 -0.1860 0.163 Uiso 0.25 1 calc PR B 2
H7SB H 0.5778 0.9722 -0.2301 0.163 Uiso 0.25 1 calc PR B 2
C8S C 0.818(5) 0.9592(12) -0.108(2) 0.061(9) Uiso 0.25 1 d PDU B 2
H8SA H 0.9891 0.9575 -0.0955 0.073 Uiso 0.25 1 calc PR B 2
C9S C 0.626(9) 0.9341(18) -0.075(4) 0.12(2) Uiso 0.25 1 d PDU B 2
H9SA H 0.4626 0.9422 -0.0980 0.148 Uiso 0.25 1 calc PR B 2
H9SB H 0.6620 0.9096 -0.0296 0.148 Uiso 0.25 1 calc PR B 2
O4S O 0.748(4) 1.0073(8) -0.1604(15) 0.084(6) Uiso 0.35 1 d PD C 3
O5S O 0.985(8) 1.0309(17) -0.106(3) 0.088(13) Uiso 0.18 1 d P C 3
O6S O 0.721(10) 0.883(2) -0.047(4) 0.089(17) Uiso 0.13 1 d P D 3
O7S O 0.692(6) 0.9228(11) -0.098(2) 0.084(9) Uiso 0.25 1 d P D 3
O8S O 0.513(14) 0.961(3) -0.069(5) 0.09(2) Uiso 0.10 1 d P D 3

loop_
_atom_site_aniso_label
_atom_site_aniso_U_11
_atom_site_aniso_U_22
_atom_site_aniso_U_33
_atom_site_aniso_U_23
_atom_site_aniso_U_13
_atom_site_aniso_U_12
Zn1 0.0177(3) 0.0050(3) 0.0236(4) 0.0005(2) 0.0070(2) 0.0001(2)
O1 0.0231(18) 0.0063(16) 0.027(2) -0.0011(14) 0.0061(15) 0.0027(13)
O2 0.0203(17) 0.0111(17) 0.028(2) -0.0045(14) 0.0060(15) 0.0024(13)
O3 0.0214(17) 0.0100(17) 0.026(2) -0.0018(14) 0.0033(15) -0.0015(13)
O4 0.0192(17) 0.0108(17) 0.026(2) -0.0019(14) 0.0036(15) -0.0017(13)
O5 0.042(2) 0.016(2) 0.051(3) -0.0142(18) 0.024(2) -0.0063(17)
O6 0.039(2) 0.0133(18) 0.053(3) -0.0093(18) 0.028(2) -0.0100(17)
N1 0.024(2) 0.013(2) 0.024(2) -0.0028(17) 0.0099(18) -0.0038(16)
C1 0.022(2) 0.015(2) 0.031(3) -0.002(2) 0.007(2) 0.002(2)
C2 0.022(3) 0.015(3) 0.031(3) -0.007(2) 0.004(2) -0.003(2)
C3 0.029(3) 0.010(2) 0.031(3) -0.006(2) 0.015(2) -0.004(2)
C4 0.021(3) 0.012(2) 0.034(3) -0.004(2) 0.008(2) 0.0000(19)
C5 0.017(2) 0.011(2) 0.037(3) -0.005(2) 0.008(2) 0.0002(18)
N2 0.023(2) 0.011(2) 0.036(3) -0.0061(18) 0.014(2) -0.0035(17)
C6 0.022(3) 0.013(2) 0.033(3) -0.008(2) 0.007(2) -0.001(2)
C7 0.022(3) 0.009(2) 0.031(3) -0.001(2) 0.006(2) 0.0015(19)
C8 0.020(2) 0.008(2) 0.023(3) -0.0010(19) 0.004(2) 0.0012(18)
C9 0.019(2) 0.009(2) 0.030(3) -0.004(2) 0.003(2) -0.0052(18)
C10 0.023(3) 0.015(2) 0.034(3) -0.006(2) 0.012(2) -0.003(2)
C11 0.027(3) 0.014(3) 0.035(3) -0.005(2) 0.012(2) -0.002(2)
C12 0.027(3) 0.012(2) 0.036(3) -0.003(2) 0.014(2) -0.001(2)
C13 0.015(2) 0.012(2) 0.029(3) -0.004(2) 0.003(2) -0.0013(18)
C14 0.017(2) 0.007(2) 0.023(3) 0.0007(19) 0.002(2) 0.0000(17)
C15 0.017(2) 0.009(2) 0.026(3) -0.0002(19) 0.001(2) 0.0000(18)
C16 0.028(3) 0.010(2) 0.034(3) -0.003(2) 0.012(2) -0.008(2)
C17 0.034(3) 0.016(3) 0.036(3) -0.007(2) 0.018(3) -0.003(2)
C18 0.012(2) 0.011(2) 0.031(3) -0.007(2) 0.004(2) -0.0021(18)
C19 0.013(2) 0.007(2) 0.034(3) -0.002(2) 0.007(2) 0.0007(17)
O1S 0.094(6) 0.185(10) 0.114(7) 0.006(7) 0.009(6) -0.023(7)
C1S 0.072(6) 0.073(6) 0.051(5) 0.002(4) 0.011(4) 0.001(5)
C2S 0.182(13) 0.062(7) 0.086(8) 0.007(6) 0.065(8) 0.024(8)
C3S 0.32(2) 0.063(7) 0.251(18) 0.030(9) 0.261(19) 0.047(10)

_geom_special_details            
;
All esds (except the esd in the dihedral angle between two l.s. planes)
are estimated using the full covariance matrix. The cell esds are taken
into account individually in the estimation of esds in distances, angles
and torsion angles; correlations between esds in cell parameters are only
used when they are defined by crystal symmetry. An approximate (isotropic)
treatment of cell esds is used for estimating esds involving l.s. planes.
;

loop_
_geom_bond_atom_site_label_1
_geom_bond_atom_site_label_2
_geom_bond_distance
_geom_bond_site_symmetry_2
_geom_bond_publ_flag
Zn1 O1 2.033(3) . ?
Zn1 N1 2.034(4) 2 ?
Zn1 O3 2.064(3) 1_455 ?
Zn1 O4 2.073(3) 3_676 ?
Zn1 O2 2.088(3) 3_576 ?
Zn1 Zn1 3.0577(13) 3_576 ?
O1 C18 1.262(6) . ?
O2 C18 1.265(6) . ?
O2 Zn1 2.088(3) 3_576 ?
O3 C19 1.265(6) . ?
O3 Zn1 2.064(3) 1_655 ?
O4 C19 1.260(6) . ?
O4 Zn1 2.073(3) 3_676 ?
O5 C10 1.211(6) . ?
O6 C6 1.224(6) . ?
N1 C1 1.339(7) . ?
N1 C5 1.358(6) . ?
N1 Zn1 2.034(4) 2_545 ?
C1 C2 1.383(7) . ?
C2 C3 1.377(7) . ?
C3 C4 1.391(7) . ?
C3 N2 1.450(6) . ?
C4 C5 1.392(7) . ?
N2 C10 1.407(7) . ?
N2 C6 1.409(7) . ?
C6 C7 1.485(7) . ?
C7 C11 1.379(7) . ?
C7 C8 1.419(7) . ?
C8 C9 1.418(7) . ?
C8 C14 1.427(6) . ?
C9 C17 1.374(7) . ?
C9 C10 1.490(7) . ?
C11 C12 1.398(7) . ?
C12 C13 1.372(7) . ?
C13 C14 1.446(7) . ?
C13 C18 1.516(6) . ?
C14 C15 1.431(7) . ?
C15 C16 1.386(7) . ?
C15 C19 1.515(6) . ?
C16 C17 1.409(7) . ?
O1S C1S 1.342(12) . ?
C1S C2S 1.441(13) . ?
C2S C3S 1.311(15) . ?
O2S C4S 1.45(7) . ?
C4S C5S 1.545(10) . ?
C5S C6S 1.447(10) . ?
O3S C7S 1.354(10) . ?
C7S C8S 1.541(10) . ?
C8S C9S 1.448(10) . ?
O4S O5S 1.58(5) . ?
O6S O7S 1.33(6) . ?
O7S O8S 1.56(9) . ?

loop_
_geom_angle_atom_site_label_1
_geom_angle_atom_site_label_2
_geom_angle_atom_site_label_3
_geom_angle
_geom_angle_site_symmetry_1
_geom_angle_site_symmetry_3
_geom_angle_publ_flag
O1 Zn1 N1 116.37(15) . 2 ?
O1 Zn1 O3 83.12(14) . 1_455 ?
N1 Zn1 O3 104.84(16) 2 1_455 ?
O1 Zn1 O4 98.70(14) . 3_676 ?
N1 Zn1 O4 95.35(16) 2 3_676 ?
O3 Zn1 O4 156.52(14) 1_455 3_676 ?
O1 Zn1 O2 153.70(14) . 3_576 ?
N1 Zn1 O2 89.42(15) 2 3_576 ?
O3 Zn1 O2 85.38(14) 1_455 3_576 ?
O4 Zn1 O2 82.94(14) 3_676 3_576 ?
O1 Zn1 Zn1 84.36(10) . 3_576 ?
N1 Zn1 Zn1 155.26(12) 2 3_576 ?
O3 Zn1 Zn1 90.26(10) 1_455 3_576 ?
O4 Zn1 Zn1 66.79(10) 3_676 3_576 ?
O2 Zn1 Zn1 72.10(10) 3_576 3_576 ?
C18 O1 Zn1 119.1(3) . . ?
C18 O2 Zn1 128.9(3) . 3_576 ?
C19 O3 Zn1 110.0(3) . 1_655 ?
C19 O4 Zn1 142.2(3) . 3_676 ?
C1 N1 C5 118.6(4) . . ?
C1 N1 Zn1 118.1(3) . 2_545 ?
C5 N1 Zn1 120.4(3) . 2_545 ?
N1 C1 C2 122.8(5) . . ?
C3 C2 C1 118.3(5) . . ?
C2 C3 C4 120.4(5) . . ?
C2 C3 N2 120.4(5) . . ?
C4 C3 N2 119.2(5) . . ?
C3 C4 C5 117.8(5) . . ?
N1 C5 C4 122.0(5) . . ?
C10 N2 C6 126.0(4) . . ?
C10 N2 C3 116.9(4) . . ?
C6 N2 C3 117.1(4) . . ?
O6 C6 N2 120.3(4) . . ?
O6 C6 C7 123.5(5) . . ?
N2 C6 C7 116.2(4) . . ?
C11 C7 C8 120.7(4) . . ?
C11 C7 C6 118.5(5) . . ?
C8 C7 C6 120.8(5) . . ?
C9 C8 C7 120.2(4) . . ?
C9 C8 C14 119.8(4) . . ?
C7 C8 C14 120.0(4) . . ?
C17 C9 C8 120.8(4) . . ?
C17 C9 C10 118.4(5) . . ?
C8 C9 C10 120.8(4) . . ?
O5 C10 N2 120.4(4) . . ?
O5 C10 C9 123.8(5) . . ?
N2 C10 C9 115.9(4) . . ?
C7 C11 C12 119.8(5) . . ?
C13 C12 C11 121.6(5) . . ?
C12 C13 C14 120.4(4) . . ?
C12 C13 C18 116.3(4) . . ?
C14 C13 C18 122.9(4) . . ?
C8 C14 C15 118.3(4) . . ?
C8 C14 C13 117.3(4) . . ?
C15 C14 C13 124.3(4) . . ?
C16 C15 C14 119.7(4) . . ?
C16 C15 C19 116.3(4) . . ?
C14 C15 C19 122.9(4) . . ?
C15 C16 C17 121.3(5) . . ?
C9 C17 C16 119.8(5) . . ?
O1 C18 O2 126.4(4) . . ?
O1 C18 C13 118.2(4) . . ?
O2 C18 C13 115.0(4) . . ?
O4 C19 O3 127.3(4) . . ?
O4 C19 C15 115.4(4) . . ?
O3 C19 C15 116.6(4) . . ?
O1S C1S C2S 130.1(10) . . ?
C3S C2S C1S 112.7(11) . . ?
O2S C4S C5S 105(3) . . ?
C6S C5S C4S 90(3) . . ?
O3S C7S C8S 109(2) . . ?
C9S C8S C7S 90(3) . . ?
O6S O7S O8S 115(5) . . ?

_diffrn_measured_fraction_theta_max 0.999
_diffrn_reflns_theta_full        27.00
_diffrn_measured_fraction_theta_full 0.999
_refine_diff_density_max         1.066
_refine_diff_density_min         -0.912
_refine_diff_density_rms         0.261
