####################################################################### 
# 
# This file contains crystal structure data downloaded from the 
# Cambridge Structural Database (CSD) hosted by the Cambridge 
# Crystallographic Data Centre (CCDC).
# 
# Full information about CCDC data access policies and citation 
# guidelines are available at http://www.ccdc.cam.ac.uk/access/V1 
# 
# Audit and citation data items may have been added by the CCDC. 
# Please retain this information to preserve the provenance of 
# this file and to allow appropriate attribution of the data. 
# 
#######################################################################

data_compound1c
_audit_block_doi                 10.5517/ccz00rq
_database_code_depnum_ccdc_archive 'CCDC 893753'
loop_
_citation_id
_citation_doi
_citation_year
1 10.1021/ic302334x 2013
_audit_update_record             
;
2012-07-26 deposited with the CCDC.	2024-07-13 downloaded from the CCDC.
;
#TrackingRef 'RagavDaram.cif'


#data_daram3

_audit_creation_method           SHELXL-97
_chemical_name_systematic        
;
?
;
_chemical_name_common            ?
_chemical_melting_point          ?
_chemical_formula_moiety         ?
_chemical_formula_sum            'C44 H43 N4 O22.50 Zn2'
_chemical_formula_weight         1118.56

loop_
_atom_type_symbol
_atom_type_description
_atom_type_scat_dispersion_real
_atom_type_scat_dispersion_imag
_atom_type_scat_source
C C 0.0033 0.0016 'International Tables Vol C Tables 4.2.6.8 and 6.1.1.4'
H H 0.0000 0.0000 'International Tables Vol C Tables 4.2.6.8 and 6.1.1.4'
N N 0.0061 0.0033 'International Tables Vol C Tables 4.2.6.8 and 6.1.1.4'
O O 0.0106 0.0060 'International Tables Vol C Tables 4.2.6.8 and 6.1.1.4'
Zn Zn 0.2839 1.4301 'International Tables Vol C Tables 4.2.6.8 and 6.1.1.4'

_symmetry_cell_setting           Monoclinic
_symmetry_space_group_name_H-M   P2(1)/c

loop_
_symmetry_equiv_pos_as_xyz
'x, y, z'
'-x, y+1/2, -z+1/2'
'-x, -y, -z'
'x, -y-1/2, z-1/2'

_cell_length_a                   5.6137(2)
_cell_length_b                   26.3769(9)
_cell_length_c                   17.1499(6)
_cell_angle_alpha                90.00
_cell_angle_beta                 96.820(2)
_cell_angle_gamma                90.00
_cell_volume                     2521.45(15)
_cell_formula_units_Z            2
_cell_measurement_temperature    173(2)
_cell_measurement_reflns_used    6196
_cell_measurement_theta_min      2.39
_cell_measurement_theta_max      27.76

_exptl_crystal_description       needle
_exptl_crystal_colour            yellow
_exptl_crystal_size_max          0.26
_exptl_crystal_size_mid          0.09
_exptl_crystal_size_min          0.07
_exptl_crystal_density_meas      'not measured'
_exptl_crystal_density_diffrn    1.473
_exptl_crystal_density_method    'not measured'
_exptl_crystal_F_000             1150
_exptl_absorpt_coefficient_mu    1.036
_exptl_absorpt_correction_type   multi-scan
_exptl_absorpt_correction_T_min  0.7744
_exptl_absorpt_correction_T_max  0.9310
_exptl_absorpt_process_details   'SADABS (Sheldrick, 2001)'

_exptl_special_details           
;
?
;

_diffrn_ambient_temperature      173(2)
_diffrn_radiation_wavelength     0.71073
_diffrn_radiation_type           MoK\a
_diffrn_radiation_source         'fine-focus sealed tube'
_diffrn_radiation_monochromator  graphite
_diffrn_measurement_device_type  'Bruker APEX-II CCD'
_diffrn_measurement_method       '\f and \w scans'
_diffrn_detector_area_resol_mean ?
_diffrn_standards_number         0
_diffrn_standards_interval_count ?
_diffrn_standards_interval_time  ?
_diffrn_standards_decay_%        ?
_diffrn_reflns_number            22320
_diffrn_reflns_av_R_equivalents  0.0608
_diffrn_reflns_av_sigmaI/netI    0.0564
_diffrn_reflns_limit_h_min       -7
_diffrn_reflns_limit_h_max       7
_diffrn_reflns_limit_k_min       -29
_diffrn_reflns_limit_k_max       33
_diffrn_reflns_limit_l_min       -18
_diffrn_reflns_limit_l_max       21
_diffrn_reflns_theta_min         1.42
_diffrn_reflns_theta_max         26.50
_reflns_number_total             5207
_reflns_number_gt                3961
_reflns_threshold_expression     >2sigma(I)

_computing_data_collection       'Bruker APEX2'
_computing_cell_refinement       'Bruker SAINT'
_computing_data_reduction        'Bruker SAINT'
_computing_structure_solution    'SHELXS-97 (Sheldrick, 1990)'
_computing_structure_refinement  'SHELXL-97 (Sheldrick, 1997)'
_computing_molecular_graphics    'Bruker SHELXTL'
_computing_publication_material  'Bruker SHELXTL'

_refine_special_details          
;
Refinement of F^2^ against ALL reflections. The weighted R-factor wR and
goodness of fit S are based on F^2^, conventional R-factors R are based
on F, with F set to zero for negative F^2^. The threshold expression of
F^2^ > 2sigma(F^2^) is used only for calculating R-factors(gt) etc. and is
not relevant to the choice of reflections for refinement. R-factors based
on F^2^ are statistically about twice as large as those based on F, and R-
factors based on ALL data will be even larger.
;

_refine_ls_structure_factor_coef Fsqd
_refine_ls_matrix_type           full
_refine_ls_weighting_scheme      calc
_refine_ls_weighting_details     
'calc w=1/[\s^2^(Fo^2^)+(0.0898P)^2^+4.4567P] where P=(Fo^2^+2Fc^2^)/3'
_atom_sites_solution_primary     direct
_atom_sites_solution_secondary   difmap
_atom_sites_solution_hydrogens   geom
_refine_ls_hydrogen_treatment    constr
_refine_ls_extinction_method     SHELXL
_refine_ls_extinction_coef       0.0018(6)
_refine_ls_extinction_expression Fc^*^=kFc[1+0.001xFc^2^\l^3^/sin(2\q)]^-1/4^
_refine_ls_number_reflns         5207
_refine_ls_number_parameters     398
_refine_ls_number_restraints     68
_refine_ls_R_factor_all          0.0737
_refine_ls_R_factor_gt           0.0530
_refine_ls_wR_factor_ref         0.1691
_refine_ls_wR_factor_gt          0.1584
_refine_ls_goodness_of_fit_ref   1.090
_refine_ls_restrained_S_all      1.089
_refine_ls_shift/su_max          0.001
_refine_ls_shift/su_mean         0.000

loop_
_atom_site_label
_atom_site_type_symbol
_atom_site_fract_x
_atom_site_fract_y
_atom_site_fract_z
_atom_site_U_iso_or_equiv
_atom_site_adp_type
_atom_site_occupancy
_atom_site_symmetry_multiplicity
_atom_site_calc_flag
_atom_site_refinement_flags
_atom_site_disorder_assembly
_atom_site_disorder_group
Zn1 Zn 0.89051(8) 0.471703(15) 0.42758(3) 0.01463(17) Uani 1 1 d . . .
O1 O 0.6979(5) 0.53621(10) 0.41097(17) 0.0200(6) Uani 1 1 d . . .
O2 O 0.8184(5) 0.57146(10) 0.52835(17) 0.0207(6) Uani 1 1 d . . .
O3 O 0.2514(5) 0.55491(10) 0.47455(17) 0.0214(6) Uani 1 1 d . . .
O4 O 0.1313(5) 0.51022(10) 0.36653(17) 0.0219(6) Uani 1 1 d . . .
O5 O 0.6888(6) 0.80383(11) 0.3335(2) 0.0330(8) Uani 1 1 d . . .
O6 O -0.0031(6) 0.75101(12) 0.1955(2) 0.0409(9) Uani 1 1 d . . .
N1 N 0.2310(6) 0.91654(12) 0.1491(2) 0.0193(7) Uani 1 1 d . . .
N2 N 0.3432(6) 0.77688(13) 0.2641(2) 0.0241(8) Uani 1 1 d . . .
C1 C 0.4213(8) 0.88828(16) 0.1381(3) 0.0248(9) Uani 1 1 d . . .
H1 H 0.5283 0.8999 0.1031 0.030 Uiso 1 1 calc R . .
C2 C 0.4673(8) 0.84239(16) 0.1765(3) 0.0269(10) Uani 1 1 d . . .
H2 H 0.6037 0.8228 0.1678 0.032 Uiso 1 1 calc R . .
C3 C 0.3114(7) 0.82568(15) 0.2274(3) 0.0230(9) Uani 1 1 d . . .
C4 C 0.1190(8) 0.85585(16) 0.2412(3) 0.0267(9) Uani 1 1 d . . .
H4 H 0.0133 0.8459 0.2777 0.032 Uiso 1 1 calc R . .
C5 C 0.0853(8) 0.90068(15) 0.2005(3) 0.0246(9) Uani 1 1 d . . .
H5 H -0.0475 0.9214 0.2092 0.030 Uiso 1 1 calc R . .
C6 C 0.5478(7) 0.76969(15) 0.3189(3) 0.0224(9) Uani 1 1 d . . .
C7 C 0.5738(7) 0.71925(15) 0.3558(2) 0.0205(9) Uani 1 1 d . . .
C8 C 0.4042(7) 0.68081(14) 0.3356(2) 0.0184(8) Uani 1 1 d . . .
C9 C 0.2046(7) 0.69018(14) 0.2789(2) 0.0206(8) Uani 1 1 d . . .
C10 C 0.1675(8) 0.74061(16) 0.2427(3) 0.0269(10) Uani 1 1 d . . .
C11 C 0.7656(8) 0.71098(15) 0.4115(3) 0.0255(9) Uani 1 1 d . . .
H11 H 0.8770 0.7375 0.4257 0.031 Uiso 1 1 calc R . .
C12 C 0.7977(7) 0.66321(15) 0.4475(3) 0.0239(9) Uani 1 1 d . . .
H12 H 0.9313 0.6577 0.4860 0.029 Uiso 1 1 calc R . .
C13 C 0.6376(7) 0.62416(14) 0.4278(2) 0.0175(8) Uani 1 1 d . . .
C14 C 0.4316(7) 0.63217(14) 0.3729(2) 0.0165(8) Uani 1 1 d . . .
C15 C 0.2484(7) 0.59539(14) 0.3527(2) 0.0179(8) Uani 1 1 d . . .
C16 C 0.0634(8) 0.60519(15) 0.2945(3) 0.0227(9) Uani 1 1 d . . .
H16 H -0.0509 0.5794 0.2795 0.027 Uiso 1 1 calc R . .
C17 C 0.0404(8) 0.65217(15) 0.2572(3) 0.0262(10) Uani 1 1 d . . .
H17 H -0.0879 0.6581 0.2169 0.031 Uiso 1 1 calc R . .
C18 C 0.7182(7) 0.57293(14) 0.4592(2) 0.0173(8) Uani 1 1 d . . .
C19 C 0.2156(7) 0.54906(15) 0.4016(2) 0.0186(8) Uani 1 1 d . . .
O1S O -0.2496(10) 1.2124(2) 0.5507(3) 0.0273(13) Uani 0.50 1 d PDU A 1
H1S H -0.2239 1.1811 0.5486 0.041 Uiso 0.50 1 calc PR A 1
C1S C -0.3031(16) 1.2322(4) 0.4724(4) 0.045(3) Uani 0.50 1 d PDU A 1
H1S1 H -0.1685 1.2249 0.4418 0.054 Uiso 0.50 1 calc PR A 1
H1S2 H -0.3235 1.2694 0.4746 0.054 Uiso 0.50 1 calc PR A 1
C2S C -0.5331(19) 1.2079(4) 0.4325(7) 0.051(3) Uani 0.50 1 d PDU A 1
H2S1 H -0.6491 1.1994 0.4696 0.062 Uiso 0.50 1 calc PR A 1
H2S2 H -0.6117 1.2283 0.3882 0.062 Uiso 0.50 1 calc PR A 1
O2S O -0.407(3) 1.1641(6) 0.4072(7) 0.176(9) Uani 0.50 1 d PDU A 1
H2S H -0.3697 1.1448 0.4457 0.263 Uiso 0.50 1 calc PR A 1
O3S O -0.343(2) 1.0412(7) 0.4041(8) 0.173(9) Uani 0.50 1 d PDU B 2
H3S H -0.3102 1.0694 0.4255 0.260 Uiso 0.50 1 calc PR B 2
C3S C -0.493(2) 1.0489(5) 0.3307(8) 0.063(4) Uani 0.50 1 d PDU B 2
H3S1 H -0.4128 1.0723 0.2971 0.075 Uiso 0.50 1 calc PR B 2
H3S2 H -0.6472 1.0644 0.3408 0.075 Uiso 0.50 1 calc PR B 2
C4S C -0.542(2) 0.9981(5) 0.2882(10) 0.081(5) Uani 0.50 1 d PDU B 2
H4S1 H -0.6067 0.9727 0.3226 0.097 Uiso 0.50 1 calc PR B 2
H4S2 H -0.6548 1.0021 0.2397 0.097 Uiso 0.50 1 calc PR B 2
O4S O -0.304(2) 0.9837(5) 0.2702(8) 0.128(6) Uani 0.50 1 d PDU B 2
H4S H -0.2530 1.0058 0.2412 0.192 Uiso 0.50 1 calc PR B 2
O5S O 0.352(3) 1.0575(6) 0.5301(9) 0.052(4) Uiso 0.25 1 d PDU C 3
H5SC H 0.4939 1.0680 0.5368 0.078 Uiso 0.25 1 calc PR C 3
C5S C 0.203(4) 1.0892(10) 0.5736(15) 0.060(7) Uiso 0.25 1 d PDU C 3
H5SA H 0.2673 1.1242 0.5756 0.071 Uiso 0.25 1 calc PR C 3
H5SB H 0.2115 1.0766 0.6282 0.071 Uiso 0.25 1 calc PR C 3
C6S C -0.061(5) 1.0902(15) 0.537(2) 0.095(11) Uiso 0.25 1 d PDU C 3
H6SA H -0.1174 1.0571 0.5146 0.114 Uiso 0.25 1 calc PR C 3
H6SB H -0.1713 1.1031 0.5731 0.114 Uiso 0.25 1 calc PR C 3
O6S O -0.013(4) 1.1268(9) 0.4776(16) 0.110(8) Uiso 0.25 1 d PDU C 3
H6SC H -0.1429 1.1362 0.4526 0.166 Uiso 0.25 1 calc PR C 3
O7S O -0.199(4) 1.1026(9) 0.5583(12) 0.061(6) Uiso 0.25 1 d PDU D 4
H7SC H -0.3111 1.0821 0.5448 0.091 Uiso 0.25 1 calc PR D 4
C7S C 0.024(5) 1.0750(16) 0.5769(16) 0.092(11) Uiso 0.25 1 d PDU D 4
H7SA H -0.0087 1.0398 0.5927 0.110 Uiso 0.25 1 calc PR D 4
H7SB H 0.1258 1.0918 0.6204 0.110 Uiso 0.25 1 calc PR D 4
C8S C 0.148(5) 1.0753(10) 0.5015(13) 0.068(7) Uiso 0.25 1 d PDU D 4
H8SB H 0.3220 1.0787 0.5190 0.082 Uiso 0.25 1 calc PR D 4
H8SC H 0.1249 1.0410 0.4787 0.082 Uiso 0.25 1 calc PR D 4
O8S O 0.097(3) 1.1104(7) 0.4368(10) 0.067(5) Uiso 0.25 1 d PDU D 4
H8SA H 0.1639 1.1003 0.3983 0.101 Uiso 0.25 1 calc PR D 4
O9 O -0.649(6) 1.0060(12) 0.3314(18) 0.104(8) Uiso 0.25 1 d P E 5
O10 O -0.607(8) 0.9797(16) 0.401(3) 0.074(11) Uiso 0.13 1 d P E 5
O11 O -0.779(9) 0.9815(17) 0.350(3) 0.080(12) Uiso 0.13 1 d P E 5
O12 O -0.831(4) 1.0374(8) 0.3747(13) 0.082(6) Uiso 0.25 1 d P E 5
O13 O -0.615(5) 1.0805(11) 0.3539(16) 0.106(8) Uiso 0.25 1 d P E 5
O14 O -0.464(6) 1.0285(13) 0.3159(19) 0.091(9) Uiso 0.25 1 d P E 5
O15 O -0.137(5) 1.1095(9) 0.5772(15) 0.070(8) Uiso 0.25 1 d P F 5
O16 O 0.073(6) 1.0932(12) 0.5623(18) 0.095(9) Uiso 0.25 1 d P F 5
O17 O -0.575(4) 1.1551(8) 0.4196(13) 0.065(6) Uiso 0.25 1 d P G 5
O18 O -0.526(4) 1.2145(9) 0.3602(14) 0.084(6) Uiso 0.25 1 d P H 5

loop_
_atom_site_aniso_label
_atom_site_aniso_U_11
_atom_site_aniso_U_22
_atom_site_aniso_U_33
_atom_site_aniso_U_23
_atom_site_aniso_U_13
_atom_site_aniso_U_12
Zn1 0.0156(3) 0.0099(2) 0.0178(3) -0.00047(17) -0.00047(17) -0.00012(15)
O1 0.0205(14) 0.0147(14) 0.0247(16) 0.0023(11) 0.0029(12) 0.0041(10)
O2 0.0206(14) 0.0188(14) 0.0225(16) 0.0056(11) 0.0014(12) 0.0061(11)
O3 0.0217(15) 0.0206(15) 0.0222(16) 0.0045(12) 0.0039(12) 0.0003(11)
O4 0.0214(15) 0.0146(14) 0.0304(17) 0.0024(12) 0.0057(12) -0.0016(11)
O5 0.0315(17) 0.0199(15) 0.045(2) 0.0123(14) -0.0054(15) -0.0074(13)
O6 0.040(2) 0.0256(17) 0.050(2) 0.0188(15) -0.0219(17) -0.0048(14)
N1 0.0193(17) 0.0163(16) 0.0211(18) 0.0055(14) -0.0022(14) 0.0014(13)
N2 0.0245(18) 0.0154(17) 0.031(2) 0.0094(15) -0.0012(15) 0.0013(13)
C1 0.022(2) 0.025(2) 0.028(2) 0.0094(18) 0.0066(18) 0.0017(16)
C2 0.023(2) 0.023(2) 0.035(3) 0.0102(19) 0.0023(19) 0.0077(17)
C3 0.023(2) 0.019(2) 0.027(2) 0.0074(17) -0.0006(17) 0.0003(16)
C4 0.026(2) 0.025(2) 0.030(2) 0.0073(18) 0.0061(19) -0.0003(17)
C5 0.024(2) 0.019(2) 0.032(2) 0.0057(18) 0.0077(18) 0.0059(16)
C6 0.021(2) 0.019(2) 0.027(2) 0.0049(17) 0.0013(17) -0.0010(16)
C7 0.020(2) 0.0148(19) 0.027(2) 0.0051(16) 0.0032(17) 0.0022(15)
C8 0.019(2) 0.0147(18) 0.022(2) 0.0035(16) 0.0053(16) 0.0023(14)
C9 0.024(2) 0.0149(19) 0.022(2) 0.0040(16) 0.0003(17) 0.0014(15)
C10 0.027(2) 0.021(2) 0.032(3) 0.0068(18) -0.0020(19) -0.0009(17)
C11 0.021(2) 0.017(2) 0.038(3) 0.0028(18) -0.0001(18) -0.0018(15)
C12 0.020(2) 0.019(2) 0.031(2) 0.0042(18) -0.0024(18) 0.0013(16)
C13 0.0179(19) 0.0142(18) 0.021(2) 0.0041(15) 0.0054(16) 0.0033(14)
C14 0.0162(18) 0.0139(18) 0.020(2) 0.0032(15) 0.0042(15) 0.0034(14)
C15 0.0196(19) 0.0123(18) 0.022(2) 0.0011(15) 0.0052(16) 0.0020(14)
C16 0.026(2) 0.0147(19) 0.026(2) 0.0016(16) -0.0020(17) -0.0037(16)
C17 0.028(2) 0.021(2) 0.027(2) 0.0058(18) -0.0064(19) -0.0014(17)
C18 0.0122(18) 0.016(2) 0.024(2) 0.0029(16) 0.0053(16) 0.0018(14)
C19 0.0121(18) 0.0169(19) 0.028(2) 0.0044(17) 0.0051(16) 0.0025(14)
O1S 0.025(3) 0.030(3) 0.025(3) 0.001(3) -0.002(3) 0.008(2)
C1S 0.023(5) 0.078(8) 0.031(5) 0.015(5) -0.006(4) -0.010(5)
C2S 0.073(8) 0.031(6) 0.041(7) 0.002(5) -0.030(6) -0.011(5)
O2S 0.27(3) 0.178(17) 0.060(9) 0.019(10) -0.055(13) -0.083(18)
O3S 0.068(9) 0.29(2) 0.162(15) -0.144(15) -0.001(10) -0.009(11)
C3S 0.044(7) 0.047(8) 0.100(12) -0.034(8) 0.020(7) -0.008(6)
C4S 0.099(12) 0.075(10) 0.066(10) -0.037(8) -0.008(9) 0.024(9)
O4S 0.151(13) 0.118(10) 0.129(11) 0.061(9) 0.071(10) 0.077(10)

_geom_special_details            
;
All esds (except the esd in the dihedral angle between two l.s. planes)
are estimated using the full covariance matrix. The cell esds are taken
into account individually in the estimation of esds in distances, angles
and torsion angles; correlations between esds in cell parameters are only
used when they are defined by crystal symmetry. An approximate (isotropic)
treatment of cell esds is used for estimating esds involving l.s. planes.
;

loop_
_geom_bond_atom_site_label_1
_geom_bond_atom_site_label_2
_geom_bond_distance
_geom_bond_site_symmetry_2
_geom_bond_publ_flag
Zn1 O1 2.018(3) . ?
Zn1 N1 2.025(3) 2_645 ?
Zn1 O2 2.060(3) 3_766 ?
Zn1 O3 2.065(3) 3_666 ?
Zn1 O4 2.072(3) 1_655 ?
Zn1 Zn1 3.0307(8) 3_766 ?
O1 C18 1.270(5) . ?
O2 C18 1.251(5) . ?
O2 Zn1 2.060(3) 3_766 ?
O3 C19 1.253(5) . ?
O3 Zn1 2.065(3) 3_666 ?
O4 C19 1.252(5) . ?
O4 Zn1 2.072(3) 1_455 ?
O5 C6 1.205(5) . ?
O6 C10 1.210(5) . ?
N1 C1 1.334(5) . ?
N1 C5 1.338(5) . ?
N1 Zn1 2.025(3) 2_655 ?
N2 C10 1.392(5) . ?
N2 C6 1.408(5) . ?
N2 C3 1.435(5) . ?
C1 C2 1.387(6) . ?
C2 C3 1.379(6) . ?
C3 C4 1.385(6) . ?
C4 C5 1.375(6) . ?
C6 C7 1.473(5) . ?
C7 C11 1.369(6) . ?
C7 C8 1.406(6) . ?
C8 C9 1.416(6) . ?
C8 C14 1.433(5) . ?
C9 C17 1.382(6) . ?
C9 C10 1.472(6) . ?
C11 C12 1.406(6) . ?
C12 C13 1.382(6) . ?
C13 C14 1.417(5) . ?
C13 C18 1.504(5) . ?
C14 C15 1.426(5) . ?
C15 C16 1.377(6) . ?
C15 C19 1.506(5) . ?
C16 C17 1.393(6) . ?
O1S C1S 1.439(4) . ?
C1S C2S 1.529(5) . ?
C2S O2S 1.448(4) . ?
O3S C3S 1.443(4) . ?
C3S C4S 1.534(5) . ?
C4S O4S 1.452(4) . ?
O5S C5S 1.450(4) . ?
C5S C6S 1.540(5) . ?
C6S O6S 1.450(4) . ?
O7S C7S 1.450(4) . ?
C7S C8S 1.541(5) . ?
C8S O8S 1.448(4) . ?
O9 O11 1.05(5) . ?
O9 O14 1.25(4) . ?
O9 O10 1.37(5) . ?
O9 O12 1.57(4) . ?
O10 O11 1.22(6) . ?
O11 O12 1.57(5) . ?
O12 O13 1.73(4) . ?
O13 O14 1.78(4) . ?
O15 O16 1.31(4) . ?

loop_
_geom_angle_atom_site_label_1
_geom_angle_atom_site_label_2
_geom_angle_atom_site_label_3
_geom_angle
_geom_angle_site_symmetry_1
_geom_angle_site_symmetry_3
_geom_angle_publ_flag
O1 Zn1 N1 112.38(13) . 2_645 ?
O1 Zn1 O2 154.97(12) . 3_766 ?
N1 Zn1 O2 91.86(12) 2_645 3_766 ?
O1 Zn1 O3 98.60(11) . 3_666 ?
N1 Zn1 O3 98.69(13) 2_645 3_666 ?
O2 Zn1 O3 83.08(11) 3_766 3_666 ?
O1 Zn1 O4 83.44(11) . 1_655 ?
N1 Zn1 O4 102.34(13) 2_645 1_655 ?
O2 Zn1 O4 85.40(11) 3_766 1_655 ?
O3 Zn1 O4 156.29(12) 3_666 1_655 ?
O1 Zn1 Zn1 81.88(8) . 3_766 ?
N1 Zn1 Zn1 163.55(10) 2_645 3_766 ?
O2 Zn1 Zn1 75.21(8) 3_766 3_766 ?
O3 Zn1 Zn1 70.08(8) 3_666 3_766 ?
O4 Zn1 Zn1 86.97(8) 1_655 3_766 ?
C18 O1 Zn1 123.1(3) . . ?
C18 O2 Zn1 127.8(2) . 3_766 ?
C19 O3 Zn1 137.6(3) . 3_666 ?
C19 O4 Zn1 113.0(3) . 1_455 ?
C1 N1 C5 118.7(3) . . ?
C1