####################################################################### 
# 
# This file contains crystal structure data downloaded from the 
# Cambridge Structural Database (CSD) hosted by the Cambridge 
# Crystallographic Data Centre (CCDC).
# 
# Full information about CCDC data access policies and citation 
# guidelines are available at http://www.ccdc.cam.ac.uk/access/V1 
# 
# Audit and citation data items may have been added by the CCDC. 
# Please retain this information to preserve the provenance of 
# this file and to allow appropriate attribution of the data. 
# 
#######################################################################

data_Compound1a
_audit_block_doi                 10.5517/ccz00pn
_database_code_depnum_ccdc_archive 'CCDC 893751'
loop_
_citation_id
_citation_doi
_citation_year
1 10.1021/ic302334x 2013
_audit_update_record             
;
2012-07-26 deposited with the CCDC.	2024-07-13 downloaded from the CCDC.
;
#TrackingRef 'RagavDaram.cif'


#data_daram2

_audit_creation_method           SHELXL-97
_chemical_name_systematic        
;
?
;
_chemical_name_common            ?
_chemical_melting_point          ?
_chemical_formula_moiety         ?
_chemical_formula_sum            'C27 H26 N4 O8 Zn'
_chemical_formula_weight         599.89

loop_
_atom_type_symbol
_atom_type_description
_atom_type_scat_dispersion_real
_atom_type_scat_dispersion_imag
_atom_type_scat_source
C C 0.0033 0.0016 'International Tables Vol C Tables 4.2.6.8 and 6.1.1.4'
H H 0.0000 0.0000 'International Tables Vol C Tables 4.2.6.8 and 6.1.1.4'
N N 0.0061 0.0033 'International Tables Vol C Tables 4.2.6.8 and 6.1.1.4'
O O 0.0106 0.0060 'International Tables Vol C Tables 4.2.6.8 and 6.1.1.4'
Zn Zn 0.2839 1.4301 'International Tables Vol C Tables 4.2.6.8 and 6.1.1.4'

_symmetry_cell_setting           Monoclinic
_symmetry_space_group_name_H-M   P2(1)/c

loop_
_symmetry_equiv_pos_as_xyz
'x, y, z'
'-x, y+1/2, -z+1/2'
'-x, -y, -z'
'x, -y-1/2, z-1/2'

_cell_length_a                   5.6364(6)
_cell_length_b                   25.301(3)
_cell_length_c                   18.8863(19)
_cell_angle_alpha                90.00
_cell_angle_beta                 95.470(2)
_cell_angle_gamma                90.00
_cell_volume                     2681.0(5)
_cell_formula_units_Z            4
_cell_measurement_temperature    173(2)
_cell_measurement_reflns_used    3805
_cell_measurement_theta_min      2.31
_cell_measurement_theta_max      27.87

_exptl_crystal_description       needle
_exptl_crystal_colour            yellow
_exptl_crystal_size_max          0.56
_exptl_crystal_size_mid          0.10
_exptl_crystal_size_min          0.07
_exptl_crystal_density_meas      'not measured'
_exptl_crystal_density_diffrn    1.486
_exptl_crystal_density_method    'not measured'
_exptl_crystal_F_000             1240
_exptl_absorpt_coefficient_mu    0.974
_exptl_absorpt_correction_type   multi-scan
_exptl_absorpt_correction_T_min  0.876
_exptl_absorpt_correction_T_max  0.941
_exptl_absorpt_process_details   'SADABS (Sheldrick, 2008)'

_exptl_special_details           
;
?
;

_diffrn_ambient_temperature      173(2)
_diffrn_radiation_wavelength     0.71073
_diffrn_radiation_type           MoK\a
_diffrn_radiation_source         'fine-focus sealed tube'
_diffrn_radiation_monochromator  graphite
_diffrn_measurement_device_type  'Bruker APEX-II CCD'
_diffrn_measurement_method       '\f and \w scans'
_diffrn_detector_area_resol_mean ?
_diffrn_standards_number         0
_diffrn_standards_interval_count ?
_diffrn_standards_interval_time  ?
_diffrn_standards_decay_%        ?
_diffrn_reflns_number            11299
_diffrn_reflns_av_R_equivalents  0.1495
_diffrn_reflns_av_sigmaI/netI    0.1205
_diffrn_reflns_limit_h_min       -7
_diffrn_reflns_limit_h_max       7
_diffrn_reflns_limit_k_min       -25
_diffrn_reflns_limit_k_max       30
_diffrn_reflns_limit_l_min       -14
_diffrn_reflns_limit_l_max       23
_diffrn_reflns_theta_min         1.35
_diffrn_reflns_theta_max         26.50
_reflns_number_total             5394
_reflns_number_gt                3974
_reflns_threshold_expression     >2sigma(I)

_computing_data_collection       'Bruker APEX2'
_computing_cell_refinement       'Bruker SAINT'
_computing_data_reduction        'Bruker SAINT'
_computing_structure_solution    'SHELXS-97 (Sheldrick, 1990)'
_computing_structure_refinement  'SHELXL-97 (Sheldrick, 1997)'
_computing_molecular_graphics    'Bruker SHELXTL'
_computing_publication_material  'Bruker SHELXTL'

_refine_special_details          
;
Refinement of F^2^ against ALL reflections. The weighted R-factor wR and
goodness of fit S are based on F^2^, conventional R-factors R are based
on F, with F set to zero for negative F^2^. The threshold expression of
F^2^ > 2sigma(F^2^) is used only for calculating R-factors(gt) etc. and is
not relevant to the choice of reflections for refinement. R-factors based
on F^2^ are statistically about twice as large as those based on F, and R-
factors based on ALL data will be even larger.
;

_refine_ls_structure_factor_coef Fsqd
_refine_ls_matrix_type           full
_refine_ls_weighting_scheme      calc
_refine_ls_weighting_details     
'calc w=1/[\s^2^(Fo^2^)+(0.0880P)^2^+0.0000P] where P=(Fo^2^+2Fc^2^)/3'
_atom_sites_solution_primary     direct
_atom_sites_solution_secondary   difmap
_atom_sites_solution_hydrogens   geom
_refine_ls_hydrogen_treatment    constr
_refine_ls_extinction_method     none
_refine_ls_extinction_coef       ?
_refine_ls_number_reflns         5394
_refine_ls_number_parameters     367
_refine_ls_number_restraints     26
_refine_ls_R_factor_all          0.0792
_refine_ls_R_factor_gt           0.0607
_refine_ls_wR_factor_ref         0.1682
_refine_ls_wR_factor_gt          0.1578
_refine_ls_goodness_of_fit_ref   1.036
_refine_ls_restrained_S_all      1.091
_refine_ls_shift/su_max          0.001
_refine_ls_shift/su_mean         0.000

loop_
_atom_site_label
_atom_site_type_symbol
_atom_site_fract_x
_atom_site_fract_y
_atom_site_fract_z
_atom_site_U_iso_or_equiv
_atom_site_adp_type
_atom_site_occupancy
_atom_site_symmetry_multiplicity
_atom_site_calc_flag
_atom_site_refinement_flags
_atom_site_disorder_assembly
_atom_site_disorder_group
Zn1 Zn 0.89700(7) 0.466681(17) 0.43975(2) 0.01378(17) Uani 1 1 d . . .
O1 O 0.7098(5) 0.53365(10) 0.41800(16) 0.0202(6) Uani 1 1 d . . .
O2 O 0.8214(5) 0.57916(11) 0.51768(14) 0.0207(6) Uani 1 1 d . . .
O3 O 0.2588(5) 0.55707(12) 0.47230(14) 0.0205(6) Uani 1 1 d . . .
O4 O 0.1451(5) 0.50285(11) 0.38170(15) 0.0222(7) Uani 1 1 d . . .
O5 O 0.6846(5) 0.80517(12) 0.30578(18) 0.0334(8) Uani 1 1 d . . .
O6 O 0.0126(7) 0.73812(14) 0.1881(2) 0.0485(10) Uani 1 1 d . . .
N1 N 0.2241(6) 0.91048(13) 0.13055(18) 0.0199(7) Uani 1 1 d . . .
N2 N 0.3488(6) 0.77097(15) 0.2471(2) 0.0280(9) Uani 1 1 d . . .
C1 C 0.4187(7) 0.88139(18) 0.1226(2) 0.0257(10) Uani 1 1 d . . .
H1 H 0.5247 0.8926 0.0894 0.031 Uiso 1 1 calc R . .
C2 C 0.4701(7) 0.83587(18) 0.1610(2) 0.0282(10) Uani 1 1 d . . .
H2 H 0.6092 0.8158 0.1547 0.034 Uiso 1 1 calc R . .
C3 C 0.3127(7) 0.82024(18) 0.2089(2) 0.0257(10) Uani 1 1 d . . .
C4 C 0.1170(7) 0.85091(18) 0.2198(2) 0.0299(11) Uani 1 1 d . . .
H4 H 0.0130 0.8417 0.2546 0.036 Uiso 1 1 calc R . .
C5 C 0.0788(7) 0.89490(17) 0.1787(2) 0.0257(10) Uani 1 1 d . . .
H5 H -0.0584 0.9157 0.1845 0.031 Uiso 1 1 calc R . .
C6 C 0.5491(7) 0.76791(18) 0.2978(2) 0.0250(9) Uani 1 1 d . . .
C7 C 0.5761(7) 0.71830(16) 0.3389(2) 0.0210(9) Uani 1 1 d . . .
C8 C 0.4113(7) 0.67678(16) 0.3266(2) 0.0188(8) Uani 1 1 d . . .
C9 C 0.2153(7) 0.68183(17) 0.2732(2) 0.0230(9) Uani 1 1 d . . .
C10 C 0.1794(8) 0.73119(19) 0.2328(3) 0.0309(10) Uani 1 1 d . . .
C11 C 0.7653(7) 0.71441(17) 0.3905(2) 0.0246(9) Uani 1 1 d . . .
H11 H 0.8730 0.7431 0.3992 0.029 Uiso 1 1 calc R . .
C12 C 0.7966(7) 0.66790(17) 0.4300(2) 0.0238(9) Uani 1 1 d . . .
H12 H 0.9272 0.6652 0.4656 0.029 Uiso 1 1 calc R . .
C13 C 0.6427(7) 0.62572(16) 0.4187(2) 0.0190(8) Uani 1 1 d . . .
C14 C 0.4388(7) 0.62974(16) 0.3678(2) 0.0176(8) Uani 1 1 d . . .
C15 C 0.2615(6) 0.59002(16) 0.3560(2) 0.0172(8) Uani 1 1 d . . .
C16 C 0.0815(7) 0.59549(17) 0.3020(2) 0.0234(9) Uani 1 1 d . . .
H16 H -0.0295 0.5675 0.2926 0.028 Uiso 1 1 calc R . .
C17 C 0.0589(8) 0.64129(18) 0.2609(2) 0.0278(10) Uani 1 1 d . . .
H17 H -0.0671 0.6442 0.2239 0.033 Uiso 1 1 calc R . .
C18 C 0.7248(6) 0.57517(17) 0.4552(2) 0.0193(9) Uani 1 1 d . . .
C19 C 0.2256(6) 0.54539(16) 0.4071(2) 0.0180(9) Uani 1 1 d . . .
O1S O 1.2182(10) 0.8139(3) 0.4113(3) 0.122(2) Uani 1 1 d D . .
N1S N 1.4861(15) 0.8054(4) 0.4977(4) 0.127(4) Uani 1 1 d D . .
C1S C 1.3536(18) 0.7526(4) 0.5174(5) 0.121(4) Uani 1 1 d D . .
H1S1 H 1.2899 0.7570 0.5636 0.181 Uiso 1 1 calc R . .
H1S2 H 1.4666 0.7231 0.5200 0.181 Uiso 1 1 calc R . .
H1S3 H 1.2225 0.7453 0.4808 0.181 Uiso 1 1 calc R . .
C2S C 1.6895(16) 0.8151(5) 0.5473(5) 0.191(7) Uani 1 1 d D . .
H2S1 H 1.8027 0.8377 0.5250 0.287 Uiso 1 1 calc R . .
H2S2 H 1.7663 0.7815 0.5614 0.287 Uiso 1 1 calc R . .
H2S3 H 1.6389 0.8329 0.5894 0.287 Uiso 1 1 calc R . .
C3S C 1.541(2) 0.8801(4) 0.4353(7) 0.183(8) Uani 1 1 d D . .
H3S1 H 1.6078 0.8943 0.4813 0.274 Uiso 1 1 calc R . .
H3S2 H 1.4375 0.9067 0.4105 0.274 Uiso 1 1 calc R . .
H3S3 H 1.6705 0.8712 0.4064 0.274 Uiso 1 1 calc R . .
C4S C 1.3965(16) 0.8309(5) 0.4474(5) 0.114(4) Uani 1 1 d D . .
O2S O -0.4117(11) 0.5748(3) 0.1709(4) 0.116(2) Uani 1 1 d D . .
N2S N -0.6814(18) 0.5168(4) 0.1710(6) 0.146(5) Uani 1 1 d D . .
C5S C -0.5030(13) 0.4889(3) 0.2369(4) 0.079(2) Uani 1 1 d D . .
H5S1 H -0.4820 0.4513 0.2264 0.119 Uiso 1 1 calc R . .
H5S2 H -0.5755 0.4925 0.2818 0.119 Uiso 1 1 calc R . .
H5S3 H -0.3476 0.5065 0.2410 0.119 Uiso 1 1 calc R . .
C6S C -0.9022(14) 0.4868(4) 0.1585(6) 0.123(4) Uani 1 1 d D . .
H6S1 H -1.0318 0.5105 0.1407 0.185 Uiso 1 1 calc R . .
H6S2 H -0.9404 0.4705 0.2031 0.185 Uiso 1 1 calc R . .
H6S3 H -0.8827 0.4591 0.1232 0.185 Uiso 1 1 calc R . .
C7S C -0.7986(19) 0.5745(7) 0.0918(6) 0.182(8) Uani 1 1 d D . .
H7S1 H -0.7742 0.5565 0.0472 0.274 Uiso 1 1 calc R . .
H7S2 H -0.7847 0.6128 0.0854 0.274 Uiso 1 1 calc R . .
H7S3 H -0.9578 0.5661 0.1055 0.274 Uiso 1 1 calc R . .
C8S C -0.607(2) 0.5557(5) 0.1514(7) 0.218(12) Uani 1 1 d D . .

loop_
_atom_site_aniso_label
_atom_site_aniso_U_11
_atom_site_aniso_U_22
_atom_site_aniso_U_33
_atom_site_aniso_U_23
_atom_site_aniso_U_13
_atom_site_aniso_U_12
Zn1 0.0183(3) 0.0079(3) 0.0151(3) -0.00065(19) 0.00142(17) -0.00056(17)
O1 0.0237(14) 0.0095(14) 0.0278(16) 0.0003(13) 0.0040(12) 0.0047(11)
O2 0.0227(14) 0.0178(15) 0.0216(14) 0.0059(13) 0.0029(11) 0.0043(12)
O3 0.0236(14) 0.0180(16) 0.0206(15) 0.0023(13) 0.0061(11) 0.0013(12)
O4 0.0235(14) 0.0140(15) 0.0306(16) 0.0002(13) 0.0100(12) -0.0026(12)
O5 0.0316(16) 0.0215(18) 0.046(2) 0.0159(16) -0.0036(15) -0.0076(14)
O6 0.052(2) 0.029(2) 0.059(2) 0.0195(19) -0.0215(18) -0.0107(17)
N1 0.0229(16) 0.0152(18) 0.0218(17) 0.0046(15) 0.0024(13) -0.0002(14)
N2 0.0296(18) 0.018(2) 0.036(2) 0.0154(18) 0.0022(16) -0.0006(16)
C1 0.025(2) 0.024(2) 0.028(2) 0.007(2) 0.0062(17) 0.0010(18)
C2 0.023(2) 0.025(3) 0.036(3) 0.008(2) 0.0045(18) 0.0074(18)
C3 0.030(2) 0.019(2) 0.028(2) 0.010(2) -0.0004(17) -0.0018(18)
C4 0.028(2) 0.029(3) 0.034(2) 0.015(2) 0.0092(19) 0.0024(19)
C5 0.025(2) 0.020(2) 0.034(2) 0.012(2) 0.0105(18) 0.0080(18)
C6 0.027(2) 0.019(2) 0.030(2) 0.008(2) 0.0052(17) 0.0033(18)
C7 0.0208(19) 0.015(2) 0.028(2) 0.0090(19) 0.0051(16) 0.0029(16)
C8 0.0204(18) 0.014(2) 0.023(2) 0.0053(18) 0.0048(15) 0.0032(16)
C9 0.025(2) 0.017(2) 0.027(2) 0.0106(19) 0.0018(17) 0.0006(17)
C10 0.035(2) 0.022(3) 0.034(3) 0.012(2) -0.0009(19) 0.000(2)
C11 0.023(2) 0.015(2) 0.035(2) 0.003(2) 0.0005(18) -0.0038(17)
C12 0.0199(19) 0.021(2) 0.029(2) 0.005(2) -0.0030(16) 0.0018(17)
C13 0.0217(18) 0.013(2) 0.023(2) 0.0029(18) 0.0079(16) 0.0046(16)
C14 0.0219(18) 0.013(2) 0.0188(19) 0.0040(17) 0.0068(15) 0.0045(16)
C15 0.0203(18) 0.013(2) 0.0191(19) 0.0029(17) 0.0033(15) 0.0029(15)
C16 0.023(2) 0.018(2) 0.029(2) 0.0045(19) -0.0008(17) -0.0029(17)
C17 0.032(2) 0.023(2) 0.026(2) 0.010(2) -0.0040(18) -0.0011(19)
C18 0.0144(18) 0.020(2) 0.024(2) 0.0074(19) 0.0077(15) 0.0029(16)
C19 0.0151(17) 0.014(2) 0.026(2) 0.0067(18) 0.0075(16) 0.0035(15)
O1S 0.076(4) 0.161(7) 0.122(5) 0.000(5) -0.023(4) -0.006(4)
N1S 0.129(7) 0.176(10) 0.075(5) -0.036(7) -0.005(5) 0.064(8)
C1S 0.131(8) 0.127(9) 0.109(8) 0.038(7) 0.039(6) 0.002(8)
C2S 0.142(10) 0.261(18) 0.151(11) -0.091(13) -0.090(8) 0.083(12)
C3S 0.32(2) 0.073(7) 0.172(13) -0.042(8) 0.130(14) -0.072(11)
C4S 0.103(7) 0.166(12) 0.070(6) -0.032(7) -0.006(5) 0.049(8)
O2S 0.086(4) 0.137(6) 0.123(5) 0.025(5) -0.004(4) -0.030(4)
N2S 0.129(8) 0.139(9) 0.185(11) -0.070(8) 0.097(9) -0.046(7)
C5S 0.071(5) 0.092(6) 0.077(5) 0.020(5) 0.020(4) 0.025(5)
C6S 0.068(6) 0.136(9) 0.168(11) -0.015(9) 0.023(7) -0.016(6)
C7S 0.086(7) 0.34(2) 0.119(9) 0.097(13) -0.018(7) 0.016(11)
C8S 0.179(14) 0.221(17) 0.28(2) -0.163(17) 0.179(16) -0.147(14)

_geom_special_details            
;
All esds (except the esd in the dihedral angle between two l.s. planes)
are estimated using the full covariance matrix. The cell esds are taken
into account individually in the estimation of esds in distances, angles
and torsion angles; correlations between esds in cell parameters are only
used when they are defined by crystal symmetry. An approximate (isotropic)
treatment of cell esds is used for estimating esds involving l.s. planes.
;

loop_
_geom_bond_atom_site_label_1
_geom_bond_atom_site_label_2
_geom_bond_distance
_geom_bond_site_symmetry_2
_geom_bond_publ_flag
Zn1 O1 2.017(3) . ?
Zn1 N1 2.019(3) 2_645 ?
Zn1 O3 2.042(3) 3_666 ?
Zn1 O2 2.066(3) 3_766 ?
Zn1 O4 2.070(3) 1_655 ?
Zn1 Zn1 2.9775(9) 3_766 ?
O1 C18 1.263(5) . ?
O2 C18 1.255(5) . ?
O2 Zn1 2.066(3) 3_766 ?
O3 C19 1.264(5) . ?
O3 Zn1 2.042(3) 3_666 ?
O4 C19 1.246(5) . ?
O4 Zn1 2.070(2) 1_455 ?
O5 C6 1.214(5) . ?
O6 C10 1.214(6) . ?
N1 C5 1.340(5) . ?
N1 C1 1.341(5) . ?
N1 Zn1 2.019(3) 2_655 ?
N2 C10 1.396(6) . ?
N2 C6 1.412(6) . ?
N2 C3 1.445(5) . ?
C1 C2 1.376(6) . ?
C2 C3 1.384(6) . ?
C3 C4 1.380(6) . ?
C4 C5 1.363(6) . ?
C6 C7 1.475(6) . ?
C7 C11 1.379(6) . ?
C7 C8 1.406(6) . ?
C8 C14 1.423(5) . ?
C8 C9 1.429(6) . ?
C9 C17 1.358(6) . ?
C9 C10 1.468(6) . ?
C11 C12 1.395(6) . ?
C12 C13 1.379(6) . ?
C13 C14 1.429(6) . ?
C13 C18 1.505(6) . ?
C14 C15 1.420(6) . ?
C15 C16 1.375(6) . ?
C15 C19 1.511(5) . ?
C16 C17 1.395(6) . ?
O1S C4S 1.237(10) . ?
N1S C4S 1.218(12) . ?
N1S C2S 1.431(12) . ?
N1S C1S 1.590(13) . ?
C3S C4S 1.517(14) . ?
O2S C8S 1.224(11) . ?
N2S C8S 1.145(14) . ?
N2S C6S 1.458(11) . ?
N2S C5S 1.680(15) . ?
C7S C8S 1.560(18) . ?

loop_
_geom_angle_atom_site_label_1
_geom_angle_atom_site_label_2
_geom_angle_atom_site_label_3
_geom_angle
_geom_angle_site_symmetry_1
_geom_angle_site_symmetry_3
_geom_angle_publ_flag
O1 Zn1 N1 108.67(13) . 2_645 ?
O1 Zn1 O3 98.95(11) . 3_666 ?
N1 Zn1 O3 100.53(12) 2_645 3_666 ?
O1 Zn1 O2 156.68(12) . 3_766 ?
N1 Zn1 O2 93.41(13) 2_645 3_766 ?
O3 Zn1 O2 83.82(11) 3_666 3_766 ?
O1 Zn1 O4 83.53(11) . 1_655 ?
N1 Zn1 O4 99.57(12) 2_645 1_655 ?
O3 Zn1 O4 157.73(12) 3_666 1_655 ?
O2 Zn1 O4 85.51(11) 3_766 1_655 ?
O1 Zn1 Zn1 80.70(9) . 3_766 ?
N1 Zn1 Zn1 169.73(10) 2_645 3_766 ?
O3 Zn1 Zn1 73.24(8) 3_666 3_766 ?
O2 Zn1 Zn1 77.96(8) 3_766 3_766 ?
O4 Zn1 Zn1 85.45(8) 1_655 3_766 ?
C18 O1 Zn1 125.4(3) . . ?
C18 O2 Zn1 124.7(3) . 3_766 ?
C19 O3 Zn1 133.5(3) . 3_666 ?
C19 O4 Zn1 114.7(2) . 1_455 ?
C5 N1 C1 118.3(4) . . ?
C5 N1 Zn1 117.6(3) . 2_655 ?
C1 N1 Zn1 122.8(3) . 2_655 ?
C10 N2 C6 125.5(4) . . ?
C10 N2 C3 117.6(4) . . ?
C6 N2 C3 116.9(4) . . ?
N1 C1 C2 122.3(4) . . ?
C1 C2 C3 117.8(4) . . ?
C4 C3 C2 120.6(4) . . ?
C4 C3 N2 119.2(4) . . ?
C2 C3 N2 120.3(4) . . ?
C5 C4 C3 117.3(4) . . ?
N1 C5 C4 123.6(4) . . ?
O5 C6 N2 119.6(4) . . ?
O5 C6 C7 124.3(4) . . ?
N2 C6 C7 116.0(4) . . ?
C11 C7 C8 121.1(4) . . ?
C11 C7 C6 117.8(4) . . ?
C8 C7 C6 121.0(4) . . ?
C7 C8 C14 119.9(4) . . ?
C7 C8 C9 120.2(4) . . ?
C14 C8 C9 119.8(4) . . ?
C17 C9 C8 119.9(4) . . ?
C17 C9 C10 119.9(4) . . ?
C8 C9 C10 120.1(4) . . ?
O6 C10 N2 120.0(4) . . ?
O6 C10 C9 122.9(4) . . ?
N2 C10 C9 117.1(4) . . ?
C7 C11 C12 119.2(4) . . ?
C13 C12 C11 121.6(4) . . ?
C12 C13 C14 120.2(4) . . ?
C12 C13 C18 115.1(4) . . ?
C14 C13 C18 124.1(4) . . ?
C15 C14 C8 117.9(4) . . ?
C15 C14 C13 124.3(4) . . ?
C8 C14 C13 117.8(4) . . ?
C16 C15 C14 120.3(4) . . ?
C16 C15 C19 114.4(3) . . ?
C14 C15 C19 124.3(4) . . ?
C15 C16 C17 121.3(4) . . ?
C9 C17 C16 120.6(4) . . ?
O2 C18 O1 126.2(4) . . ?
O2 C18 C13 116.7(4) . . ?
O1 C18 C13 116.8(4) . . ?
O4 C19 O3 126.3(4) . . ?
O4 C19 C15 117.8(4) . . ?
O3 C19 C15 115.5(4) . . ?
C4S N1S C2S 131.7(12) . . ?
C4S N1S C1S 117.3(10) . . ?
C2S N1S C1S 110.9(9) . . ?
N1S C4S O1S 120.0(12) . . ?
N1S C4S C3S 111.4(10) . . ?
O1S C4S C3S 128.5(11) . . ?
C8S N2S C6S 136.9(14) . . ?
C8S N2S C5S 112.8(11) . . ?
C6S N2S C5S 110.0(8) . . ?
N2S C8S O2S 126.1(16) . . ?
N2S C8S C7S 104.1(11) . . ?
O2S C8S C7S 129.6(14) . . ?

_diffrn_measured_fraction_theta_max 0.972
_diffrn_reflns_theta_full        26.50
_diffrn_measured_fraction_theta_full 0.972
_refine_diff_density_max         0.910
_refine_diff_density_min         -1.042
_refine_diff_density_rms         0.114
