####################################################################### 
# 
# This file contains crystal structure data downloaded from the 
# Cambridge Structural Database (CSD) hosted by the Cambridge 
# Crystallographic Data Centre (CCDC).
# 
# Full information about CCDC data access policies and citation 
# guidelines are available at http://www.ccdc.cam.ac.uk/access/V1 
# 
# Audit and citation data items may have been added by the CCDC. 
# Please retain this information to preserve the provenance of 
# this file and to allow appropriate attribution of the data. 
# 
#######################################################################

data_z5
_audit_block_doi                 10.5517/ccyytth
_database_code_depnum_ccdc_archive 'CCDC 892608'
loop_
_citation_id
_citation_doi
_citation_year
1 10.1016/j.poly.2013.03.029 2013
_audit_update_record             
;
2012-07-18 deposited with the CCDC.	2024-07-13 downloaded from the CCDC.
;
#TrackingRef 'z_5.cif.cif'


_audit_creation_method           SHELXL-97
_chemical_name_systematic        
;
?
;
_chemical_name_common            ?
_chemical_melting_point          ?
_chemical_formula_moiety         ?
_chemical_formula_sum            'C34 H33 Cd Cl N4 O7'
_chemical_formula_weight         757.49

loop_
_atom_type_symbol
_atom_type_description
_atom_type_scat_dispersion_real
_atom_type_scat_dispersion_imag
_atom_type_scat_source
C C 0.0033 0.0016 'International Tables Vol C Tables 4.2.6.8 and 6.1.1.4'
H H 0.0000 0.0000 'International Tables Vol C Tables 4.2.6.8 and 6.1.1.4'
Cd Cd -0.8075 1.2024 'International Tables Vol C Tables 4.2.6.8 and 6.1.1.4'
N N 0.0061 0.0033 'International Tables Vol C Tables 4.2.6.8 and 6.1.1.4'
O O 0.0106 0.0060 'International Tables Vol C Tables 4.2.6.8 and 6.1.1.4'
Cl Cl 0.1484 0.1585 'International Tables Vol C Tables 4.2.6.8 and 6.1.1.4'

_symmetry_cell_setting           ?
_symmetry_space_group_name_H-M   ?

loop_
_symmetry_equiv_pos_as_xyz
'x, y, z'
'-x, y, -z+1/2'
'x+1/2, y+1/2, z'
'-x+1/2, y+1/2, -z+1/2'
'-x, -y, -z'
'x, -y, z-1/2'
'-x+1/2, -y+1/2, -z'
'x+1/2, -y+1/2, z-1/2'

_cell_length_a                   34.9517(13)
_cell_length_b                   6.1056(2)
_cell_length_c                   33.9177(12)
_cell_angle_alpha                90.00
_cell_angle_beta                 114.6340(10)
_cell_angle_gamma                90.00
_cell_volume                     6579.3(4)
_cell_formula_units_Z            8
_cell_measurement_temperature    123(2)
_cell_measurement_reflns_used    ?
_cell_measurement_theta_min      ?
_cell_measurement_theta_max      ?

_exptl_crystal_description       ?
_exptl_crystal_colour            ?
_exptl_crystal_size_max          0.39
_exptl_crystal_size_mid          0.32
_exptl_crystal_size_min          0.18
_exptl_crystal_density_meas      ?
_exptl_crystal_density_diffrn    1.529
_exptl_crystal_density_method    'not measured'
_exptl_crystal_F_000             3088
_exptl_absorpt_coefficient_mu    0.800
_exptl_absorpt_correction_type   ?
_exptl_absorpt_correction_T_min  0.7456
_exptl_absorpt_correction_T_max  0.8695
_exptl_absorpt_process_details   ?

_exptl_special_details           
;
?
;

_diffrn_ambient_temperature      123(2)
_diffrn_radiation_wavelength     0.71073
_diffrn_radiation_type           MoK\a
_diffrn_radiation_source         'fine-focus sealed tube'
_diffrn_radiation_monochromator  graphite
_diffrn_measurement_device_type  ?
_diffrn_measurement_method       ?
_diffrn_detector_area_resol_mean ?
_diffrn_reflns_number            36168
_diffrn_reflns_av_R_equivalents  0.0258
_diffrn_reflns_av_sigmaI/netI    0.0168
_diffrn_reflns_limit_h_min       -36
_diffrn_reflns_limit_h_max       41
_diffrn_reflns_limit_k_min       -7
_diffrn_reflns_limit_k_max       7
_diffrn_reflns_limit_l_min       -40
_diffrn_reflns_limit_l_max       40
_diffrn_reflns_theta_min         1.32
_diffrn_reflns_theta_max         25.01
_reflns_number_total             5777
_reflns_number_gt                5604
_reflns_threshold_expression     >2sigma(I)

_computing_data_collection       ?
_computing_cell_refinement       ?
_computing_data_reduction        ?
_computing_structure_solution    'SHELXS-97 (Sheldrick, 2008)'
_computing_structure_refinement  'SHELXL-97 (Sheldrick, 2008)'
_computing_molecular_graphics    ?
_computing_publication_material  ?

_refine_special_details          
;
Refinement of F^2^ against ALL reflections. The weighted R-factor wR and
goodness of fit S are based on F^2^, conventional R-factors R are based
on F, with F set to zero for negative F^2^. The threshold expression of
F^2^ > 2sigma(F^2^) is used only for calculating R-factors(gt) etc. and is
not relevant to the choice of reflections for refinement. R-factors based
on F^2^ are statistically about twice as large as those based on F, and R-
factors based on ALL data will be even larger.
;

_refine_ls_structure_factor_coef Fsqd
_refine_ls_matrix_type           full
_refine_ls_weighting_scheme      calc
_refine_ls_weighting_details     
'calc w=1/[\s^2^(Fo^2^)+(0.0555P)^2^+242.9424P] where P=(Fo^2^+2Fc^2^)/3'
_atom_sites_solution_primary     direct
_atom_sites_solution_secondary   difmap
_atom_sites_solution_hydrogens   geom
_refine_ls_hydrogen_treatment    mixed
_refine_ls_extinction_method     none
_refine_ls_extinction_coef       ?
_refine_ls_number_reflns         5777
_refine_ls_number_parameters     413
_refine_ls_number_restraints     38
_refine_ls_R_factor_all          0.0911
_refine_ls_R_factor_gt           0.0896
_refine_ls_wR_factor_ref         0.2119
_refine_ls_wR_factor_gt          0.2111
_refine_ls_goodness_of_fit_ref   1.175
_refine_ls_restrained_S_all      1.224
_refine_ls_shift/su_max          0.001
_refine_ls_shift/su_mean         0.000

loop_
_atom_site_label
_atom_site_type_symbol
_atom_site_fract_x
_atom_site_fract_y
_atom_site_fract_z
_atom_site_U_iso_or_equiv
_atom_site_adp_type
_atom_site_occupancy
_atom_site_symmetry_multiplicity
_atom_site_calc_flag
_atom_site_refinement_flags
_atom_site_disorder_assembly
_atom_site_disorder_group
N1 N 0.1099(4) -0.019(2) -0.0179(4) 0.075(4) Uani 1 1 d . . .
H1A H 0.0993 0.1125 -0.0190 0.091 Uiso 1 1 calc R . .
N2 N 0.2014(2) 0.3550(13) 0.2823(2) 0.0271(16) Uani 1 1 d . . .
N3 N 0.0557(2) 0.4933(12) 0.2194(2) 0.0331(18) Uani 1 1 d GU . .
C21 C 0.0299(2) 0.3178(12) 0.2102(4) 0.111(8) Uani 1 1 d G . .
H21A H 0.0414 0.1743 0.2163 0.133 Uiso 1 1 calc R . .
C22 C -0.0123(2) 0.3463(16) 0.1925(5) 0.125(9) Uani 1 1 d G . .
H22A H -0.0304 0.2228 0.1860 0.151 Uiso 1 1 calc R . .
C23 C -0.0286(3) 0.5503(18) 0.1839(4) 0.074(5) Uani 1 1 d GU . .
H23A H -0.0583 0.5703 0.1714 0.089 Uiso 1 1 calc R . .
C24 C -0.0028(3) 0.7258(16) 0.1931(4) 0.120(6) Uani 1 1 d GU . .
H24A H -0.0143 0.8692 0.1870 0.144 Uiso 1 1 calc R . .
C25 C 0.0393(3) 0.6973(13) 0.2108(4) 0.100(5) Uani 1 1 d GU . .
H25A H 0.0575 0.8207 0.2172 0.121 Uiso 1 1 calc R . .
N4 N 0.0087(7) 0.653(4) -0.0663(14) 0.28(2) Uani 1 1 d D . .
Cd1 Cd 0.129095(18) 0.42352(10) 0.251907(19) 0.0195(2) Uani 1 1 d . . .
C1 C 0.1241(3) -0.2695(16) -0.1739(3) 0.0271(19) Uani 1 1 d . . .
C2 C 0.1224(3) -0.2006(16) -0.1327(3) 0.032(2) Uani 1 1 d . . .
C3 C 0.1099(4) 0.006(2) -0.1274(4) 0.044(3) Uani 1 1 d . . .
H3A H 0.1044 0.1125 -0.1495 0.053 Uiso 1 1 calc R . .
C4 C 0.1054(4) 0.062(2) -0.0898(4) 0.059(3) Uani 1 1 d . . .
H4A H 0.0958 0.2041 -0.0869 0.070 Uiso 1 1 calc R . .
C5 C 0.1145(5) -0.089(3) -0.0565(4) 0.067(4) Uani 1 1 d . . .
C6 C 0.1270(5) -0.295(3) -0.0615(4) 0.068(4) Uani 1 1 d . . .
H6A H 0.1332 -0.4003 -0.0391 0.081 Uiso 1 1 calc R . .
C7 C 0.1306(4) -0.348(2) -0.0995(3) 0.052(3) Uani 1 1 d . . .
H7A H 0.1390 -0.4921 -0.1028 0.062 Uiso 1 1 calc R . .
C8 C 0.1189(5) -0.122(3) 0.0168(4) 0.071(4) Uani 1 1 d . . .
C9 C 0.1163(4) -0.005(2) 0.0549(4) 0.053(3) Uani 1 1 d . . .
C10 C 0.1293(4) 0.210(2) 0.0656(3) 0.057(3) Uani 1 1 d . . .
H10A H 0.1370 0.2967 0.0467 0.068 Uiso 1 1 calc R . .
C11 C 0.1312(4) 0.299(2) 0.1040(3) 0.042(3) Uani 1 1 d . . .
H11A H 0.1403 0.4458 0.1113 0.051 Uiso 1 1 calc R . .
C12 C 0.1200(3) 0.1770(16) 0.1317(3) 0.031(2) Uani 1 1 d . . .
C13 C 0.1053(3) -0.0370(18) 0.1189(3) 0.042(3) Uani 1 1 d . . .
H13A H 0.0963 -0.1231 0.1368 0.050 Uiso 1 1 calc R . .
C14 C 0.1039(4) -0.124(2) 0.0811(4) 0.053(3) Uani 1 1 d . . .
H14A H 0.0941 -0.2690 0.0731 0.064 Uiso 1 1 calc R . .
C15 C 0.1225(3) 0.2656(17) 0.1734(3) 0.030(2) Uani 1 1 d . . .
C16 C 0.2271(3) 0.5010(17) 0.3095(3) 0.037(2) Uani 1 1 d . . .
H16A H 0.2154 0.6271 0.3166 0.044 Uiso 1 1 calc R . .
C17 C 0.2709(3) 0.476(2) 0.3280(4) 0.049(3) Uani 1 1 d . . .
H17A H 0.2886 0.5840 0.3472 0.059 Uiso 1 1 calc R . .
C18 C 0.2879(3) 0.2911(19) 0.3177(4) 0.044(3) Uani 1 1 d . . .
H18A H 0.3175 0.2716 0.3290 0.053 Uiso 1 1 calc R . .
C19 C 0.2618(3) 0.1407(19) 0.2915(4) 0.042(3) Uani 1 1 d . . .
H19A H 0.2728 0.0090 0.2855 0.051 Uiso 1 1 calc R . .
C20 C 0.2184(3) 0.1764(16) 0.2731(3) 0.031(2) Uani 1 1 d . . .
H20A H 0.2005 0.0712 0.2534 0.037 Uiso 1 1 calc R . .
C26 C 0.2565(7) 0.326(4) 0.0830(7) 0.104(6) Uani 1 1 d . . .
C27 C 0.2194(5) 0.393(4) 0.0474(6) 0.099(6) Uani 1 1 d U . .
H27A H 0.2062 0.5311 0.0461 0.118 Uiso 1 1 calc R . .
C28 C 0.2039(9) 0.236(5) 0.0142(11) 0.149(10) Uani 1 1 d U . .
H28A H 0.1798 0.2768 -0.0110 0.179 Uiso 1 1 calc R . .
C29 C 0.2198(7) 0.027(3) 0.0139(6) 0.093(6) Uani 1 1 d . . .
H29A H 0.2075 -0.0741 -0.0093 0.112 Uiso 1 1 calc R . .
C30 C 0.2563(11) -0.018(5) 0.0522(8) 0.162(12) Uani 1 1 d . . .
H30A H 0.2685 -0.1592 0.0553 0.194 Uiso 1 1 calc R . .
C31 C 0.2755(6) 0.132(3) 0.0858(7) 0.091(6) Uani 1 1 d . . .
H31A H 0.3011 0.0982 0.1099 0.109 Uiso 1 1 calc R . .
C32 C -0.0196(11) 0.495(6) -0.0960(11) 0.226(17) Uani 1 1 d DU . .
H32A H -0.0434 0.5715 -0.1182 0.339 Uiso 1 1 calc R . .
H32B H -0.0298 0.3942 -0.0800 0.339 Uiso 1 1 calc R . .
H32C H -0.0045 0.4115 -0.1099 0.339 Uiso 1 1 calc R . .
C33 C 0.0036(13) 0.797(7) -0.0349(11) 0.245(18) Uani 1 1 d DU . .
H33A H 0.0301 0.8048 -0.0088 0.368 Uiso 1 1 calc R . .
H33B H -0.0187 0.7408 -0.0273 0.368 Uiso 1 1 calc R . .
H33C H -0.0040 0.9440 -0.0475 0.368 Uiso 1 1 calc R . .
C34 C 0.0411(7) 0.495(3) -0.0303(8) 0.112(7) Uani 1 1 d . . .
H34A H 0.0536 0.5295 -0.0003 0.134 Uiso 1 1 calc R . .
O1 O 0.1318(5) -0.3234(19) 0.0230(4) 0.102(4) Uani 1 1 d . . .
O1W O 0.14153(17) 0.8003(10) 0.25799(18) 0.0230(12) Uani 1 1 d DU . .
H1WA H 0.1249 0.8225 0.2318 0.028 Uiso 1 1 d RD . .
H1WB H 0.1440 0.9383 0.2614 0.028 Uiso 1 1 d RD . .
O2 O 0.1168(2) 0.1375(11) 0.1998(2) 0.0326(15) Uani 1 1 d . . .
O3 O 0.1309(2) 0.4648(11) 0.1817(2) 0.0325(15) Uani 1 1 d . . .
O4 O 0.1166(2) -0.1331(11) -0.2039(2) 0.0311(14) Uani 1 1 d . . .
O5 O 0.1330(2) -0.4672(11) -0.1778(2) 0.0301(14) Uani 1 1 d . . .
O6 O 0.0484(5) 0.325(2) -0.0456(5) 0.112(4) Uani 1 1 d . . .
Cl1 Cl 0.2756(2) 0.5044(11) 0.1252(2) 0.1240(19) Uani 1 1 d . . .

loop_
_atom_site_aniso_label
_atom_site_aniso_U_11
_atom_site_aniso_U_22
_atom_site_aniso_U_33
_atom_site_aniso_U_23
_atom_site_aniso_U_13
_atom_site_aniso_U_12
N1 0.107(10) 0.070(8) 0.059(7) 0.000(6) 0.044(7) 0.023(7)
N2 0.025(4) 0.029(4) 0.031(4) -0.003(3) 0.015(3) -0.001(3)
N3 0.029(4) 0.034(4) 0.039(4) 0.005(4) 0.017(4) -0.004(3)
C21 0.029(7) 0.043(8) 0.22(2) -0.007(11) 0.013(10) -0.007(6)
C22 0.024(7) 0.055(9) 0.25(3) -0.017(13) 0.015(10) -0.005(7)
C23 0.025(6) 0.086(10) 0.098(11) 0.045(9) 0.013(6) 0.015(6)
C24 0.118(7) 0.118(7) 0.123(7) 0.001(2) 0.048(3) -0.002(2)
C25 0.098(6) 0.097(5) 0.104(6) 0.001(2) 0.039(3) 0.002(2)
N4 0.128(18) 0.110(17) 0.64(7) -0.11(3) 0.21(3) 0.007(15)
Cd1 0.0218(3) 0.0197(3) 0.0189(3) 0.0013(2) 0.0104(2) 0.0004(2)
C1 0.022(4) 0.033(5) 0.025(4) 0.000(4) 0.008(3) 0.001(4)
C2 0.036(5) 0.028(5) 0.034(5) -0.008(4) 0.019(4) 0.004(4)
C3 0.049(6) 0.043(6) 0.040(6) -0.007(5) 0.020(5) -0.001(5)
C4 0.073(8) 0.050(7) 0.059(8) -0.023(6) 0.034(7) 0.011(7)
C5 0.079(9) 0.091(11) 0.031(6) -0.009(7) 0.023(6) 0.026(9)
C6 0.106(11) 0.072(10) 0.039(6) 0.015(7) 0.044(7) 0.030(9)
C7 0.074(8) 0.056(7) 0.032(6) 0.008(5) 0.028(6) 0.024(6)
C8 0.083(10) 0.103(13) 0.031(6) 0.003(7) 0.028(6) 0.031(9)
C9 0.058(7) 0.057(8) 0.030(6) -0.012(5) 0.003(5) 0.021(6)
C10 0.072(8) 0.080(10) 0.027(5) 0.013(6) 0.029(6) 0.021(7)
C11 0.057(7) 0.045(6) 0.028(5) 0.006(5) 0.022(5) 0.016(5)
C12 0.035(5) 0.034(5) 0.019(4) 0.004(4) 0.006(4) 0.014(4)
C13 0.048(6) 0.036(6) 0.031(5) 0.000(5) 0.006(5) 0.011(5)
C14 0.070(8) 0.047(7) 0.036(6) -0.009(5) 0.015(6) 0.012(6)
C15 0.031(5) 0.041(6) 0.021(4) 0.007(4) 0.013(4) 0.006(4)
C16 0.032(5) 0.030(5) 0.045(6) -0.011(5) 0.013(4) -0.001(4)
C17 0.031(5) 0.046(7) 0.058(7) -0.010(6) 0.008(5) -0.010(5)
C18 0.028(5) 0.044(6) 0.059(7) 0.002(6) 0.018(5) 0.004(5)
C19 0.040(6) 0.038(6) 0.060(7) -0.001(5) 0.032(5) 0.006(5)
C20 0.035(5) 0.027(5) 0.038(5) -0.004(4) 0.022(4) -0.006(4)
C26 0.134(18) 0.104(16) 0.099(14) 0.001(13) 0.073(14) -0.008(14)
C27 0.066(10) 0.134(17) 0.099(13) 0.058(11) 0.037(10) 0.021(11)
C28 0.14(2) 0.102(19) 0.23(3) 0.010(16) 0.10(2) -0.019(16)
C29 0.124(16) 0.082(13) 0.078(11) -0.013(10) 0.046(11) -0.020(12)
C30 0.25(4) 0.101(19) 0.098(17) 0.000(15) 0.04(2) 0.01(2)
C31 0.089(12) 0.100(14) 0.097(13) 0.038(12) 0.051(11) 0.040(11)
C32 0.226(17) 0.226(17) 0.226(17) 0.000(2) 0.094(7) 0.000(2)
C33 0.245(19) 0.245(19) 0.245(19) 0.000(2) 0.102(8) 0.000(2)
C34 0.119(17) 0.082(13) 0.137(18) -0.015(13) 0.056(15) 0.030(12)
O1 0.178(13) 0.066(7) 0.075(7) 0.009(6) 0.065(8) 0.051(8)
O1W 0.0260(19) 0.018(2) 0.0239(19) -0.0024(16) 0.0094(15) -0.0087(16)
O2 0.042(4) 0.029(3) 0.026(3) 0.000(3) 0.013(3) -0.002(3)
O3 0.047(4) 0.033(4) 0.028(3) -0.002(3) 0.025(3) -0.003(3)
O4 0.038(4) 0.027(3) 0.028(3) -0.002(3) 0.013(3) -0.001(3)
O5 0.035(4) 0.032(4) 0.029(3) -0.001(3) 0.019(3) -0.001(3)
O6 0.126(11) 0.106(11) 0.120(11) -0.001(9) 0.066(9) 0.031(9)
Cl1 0.153(5) 0.104(4) 0.125(4) -0.005(4) 0.068(4) -0.006(4)

_geom_special_details            
;
All esds (except the esd in the dihedral angle between two l.s. planes)
are estimated using the full covariance matrix. The cell esds are taken
into account individually in the estimation of esds in distances, angles
and torsion angles; correlations between esds in cell parameters are only
used when they are defined by crystal symmetry. An approximate (isotropic)
treatment of cell esds is used for estimating esds involving l.s. planes.
;

loop_
_geom_bond_atom_site_label_1
_geom_bond_atom_site_label_2
_geom_bond_distance
_geom_bond_site_symmetry_2
_geom_bond_publ_flag
N1 C8 1.254(18) . ?
N1 C5 1.448(15) . ?
N1 H1A 0.8800 . ?
N2 C16 1.328(12) . ?
N2 C20 1.341(12) . ?
N2 Cd1 2.334(7) . ?
N3 C25 1.351(5) . ?
N3 C21 1.351(5) . ?
N3 Cd1 2.371(7) . ?
C21 C22 1.350(5) . ?
C21 H21A 0.9500 . ?
C22 C23 1.351(5) . ?
C22 H22A 0.9500 . ?
C23 C24 1.351(5) . ?
C23 H23A 0.9500 . ?
C24 C25 1.351(5) . ?
C24 H24A 0.9500 . ?
C25 H25A 0.9500 . ?
N4 C32 1.446(19) . ?
N4 C33 1.45(2) . ?
N4 C34 1.59(4) . ?
Cd1 O1W 2.334(6) . ?
Cd1 O5 2.345(6) 6_556 ?
Cd1 O2 2.393(6) . ?
Cd1 O3 2.422(6) . ?
Cd1 O4 2.475(6) 6_556 ?
Cd1 C15 2.751(9) . ?
Cd1 C1 2.759(9) 6_556 ?
C1 O4 1.256(11) . ?
C1 O5 1.268(12) . ?
C1 C2 1.486(12) . ?
C1 Cd1 2.759(9) 6 ?
C2 C3 1.371(15) . ?
C2 C7 1.373(15) . ?
C3 C4 1.391(16) . ?
C3 H3A 0.9500 . ?
C4 C5 1.39(2) . ?
C4 H4A 0.9500 . ?
C5 C6 1.37(2) . ?
C6 C7 1.386(15) . ?
C6 H6A 0.9500 . ?
C7 H7A 0.9500 . ?
C8 O1 1.296(19) . ?
C8 C9 1.512(17) . ?
C9 C14 1.346(19) . ?
C9 C10 1.39(2) . ?
C10 C11 1.386(15) . ?
C10 H10A 0.9500 . ?
C11 C12 1.377(14) . ?
C11 H11A 0.9500 . ?
C12 C13 1.404(15) . ?
C12 C15 1.480(12) . ?
C13 C14 1.371(15) . ?
C13 H13A 0.9500 . ?
C14 H14A 0.9500 . ?
C15 O3 1.255(12) . ?
C15 O2 1.266(11) . ?
C16 C17 1.398(14) . ?
C16 H16A 0.9500 . ?
C17 C18 1.390(16) . ?
C17 H17A 0.9500 . ?
C18 C19 1.337(16) . ?
C18 H18A 0.9500 . ?
C19 C20 1.396(14) . ?
C19 H19A 0.9500 . ?
C20 H20A 0.9500 . ?
C26 C31 1.34(3) . ?
C26 C27 1.42(3) . ?
C26 Cl1 1.70(2) . ?
C27 C28 1.41(3) . ?
C27 H27A 0.9500 . ?
C28 C29 1.39(3) . ?
C28 H28A 0.9500 . ?
C29 C30 1.42(3) . ?
C29 H29A 0.9500 . ?
C30 C31 1.40(3) . ?
C30 H30A 0.9500 . ?
C31 H31A 0.9500 . ?
C32 H32A 0.9800 . ?
C32 H32B 0.9800 . ?
C32 H32C 0.9800 . ?
C33 H33A 0.9800 . ?
C33 H33B 0.9800 . ?
C33 H33C 0.9800 . ?
C34 O6 1.24(2) . ?
C34 H34A 0.9500 . ?
O1W H1WA 0.8464 . ?
O1W H1WB 0.8500 . ?
O4 Cd1 2.475(6) 6 ?
O5 Cd1 2.345(6) 6 ?

loop_
_geom_angle_atom_site_label_1
_geom_angle_atom_site_label_2
_geom_angle_atom_site_label_3
_geom_angle
_geom_angle_site_symmetry_1
_geom_angle_site_symmetry_3
_geom_angle_publ_flag
C8 N1 C5 128.6(14) . . ?
C8 N1 H1A 115.7 . . ?
C5 N1 H1A 115.7 . . ?
C16 N2 C20 118.0(8) . . ?
C16 N2 Cd1 118.8(6) . . ?
C20 N2 Cd1 123.1(6) . . ?
C25 N3 C21 120.0 . . ?
C25 N3 Cd1 123.0(4) . . ?
C21 N3 Cd1 117.0(4) . . ?
C22 C21 N3 120.0 . . ?
C22 C21 H21A 120.0 . . ?
N3 C21 H21A 120.0 . . ?
C21 C22 C23 120.0 . . ?
C21 C22 H22A 120.0 . . ?
C23 C22 H22A 120.0 . . ?
C22 C23 C24 120.0 . . ?
C22 C23 H23A 120.0 . . ?
C24 C23 H23A 120.0 . . ?
C23 C24 C25 120.0 . . ?
C23 C24 H24A 120.0 . . ?
C25 C24 H24A 120.0 . . ?
N3 C25 C24 120.0 . . ?
N3 C25 H25A 120.0 . . ?
C24 C25 H25A 120.0 . . ?
C32 N4 C33 131(3) . . ?
C32 N4 C34 101(2) . . ?
C33 N4 C34 94(3) . . ?
O1W Cd1 N2 90.6(2) . . ?
O1W Cd1 O5 82.4(2) . 6_556 ?
N2 Cd1 O5 88.7(2) . 6_556 ?
O1W Cd1 N3 89.4(2) . . ?
N2 Cd1 N3 178.7(2) . . ?
O5 Cd1 N3 92.6(2) 6_556 . ?
O1W Cd1 O2 138.9(2) . . ?
N2 Cd1 O2 91.4(2) . . ?
O5 Cd1 O2 138.6(2) 6_556 . ?
N3 Cd1 O2 87.8(2) . . ?
O1W Cd1 O3 84.5(2) . . ?
N2 Cd1 O3 89.2(2) . . ?
O5 Cd1 O3 166.7(2) 6_556 . ?
N3 Cd1 O3 89.5(2) . . ?
