
#######################################################################
#
#                 Cambridge Crystallographic Data Centre
#                                CCDC
#
#######################################################################
#
# If this CIF has been generated from an entry in the Cambridge
# Structural Database, then it will include bibliographic, chemical,
# crystal, experimental, refinement or atomic coordinate data resulting
# from the CCDC's data processing and validation procedures.
#
#######################################################################

data_CSD_CIF_XIBTUY
_audit_creation_date 2007-08-03
_audit_creation_method CSD-ConQuest-V1
_database_code_CSD XIBTUY
_database_code_depnum_ccdc_archive 'CCDC 647299'
_chemical_formula_sum 'C5 H15 N3 O3'
_chemical_formula_moiety
;
C5 H9 N3,3(H2 O1)
;
_journal_coeditor_code "IUCr PR2005"
_journal_coden_Cambridge 1370
_journal_volume 63
_journal_year 2007
_journal_page_first o2739
_journal_name_full 'Acta Crystallogr.,Sect.E:Struct.Rep.Online '
loop_
_publ_author_name
"A.D.Beitelman"
"N.A.Sieracki"
"M.Zeller"
"G.M.Ferrence"
_chemical_name_systematic
;
3,4,5-Trimethyl-1,2,4-triazole trihydrate
;
_chemical_name_common
;
Teaching Subset: Fundamental Chemistry, Symmetry
;
_cell_volume    889.750
_exptl_crystal_colour 'colorless'
_exptl_crystal_density_diffrn 1.233
_exptl_crystal_description 'block'
_diffrn_ambient_temperature 100
_diffrn_special_details
;
twin

;
#These two values have been output from a single CSD field.
_refine_ls_R_factor_gt 0.049
_refine_ls_wR_factor_gt 0.049
_symmetry_cell_setting monoclinic
_symmetry_space_group_name_H-M 'P 21/n'
_symmetry_Int_Tables_number 14
loop_
_symmetry_equiv_pos_site_id
_symmetry_equiv_pos_as_xyz
1 x,y,z
2 1/2-x,1/2+y,1/2-z
3 -x,-y,-z
4 -1/2+x,-1/2-y,-1/2+z
_cell_length_a 10.0587(4)
_cell_length_b 6.5923(2)
_cell_length_c 13.4209(5)
_cell_angle_alpha 90
_cell_angle_beta 91.183(1)
_cell_angle_gamma 90
_cell_formula_units_Z 4
loop_
_atom_type_symbol
_atom_type_radius_bond
C 0.68
H 0.23
N 0.68
O 0.68
loop_
_atom_site_label
_atom_site_type_symbol
_atom_site_fract_x
_atom_site_fract_y
_atom_site_fract_z
N1 N 0.63048(7) 0.15687(10) 0.23095(5)
N2 N 0.73510(7) 0.15563(10) 0.16438(5)
C1 C 0.84600(8) 0.15397(11) 0.21729(6)
N3 N 0.81871(6) 0.15437(10) 0.31612(5)
C2 C 0.68335(8) 0.15592(11) 0.32118(6)
C3 C 0.98224(9) 0.15140(13) 0.17707(7)
H1 H 0.97710 0.14620 0.10410
H2 H 1.03000 0.03180 0.20230
H3 H 1.02970 0.27450 0.19820
C4 C 0.91311(9) 0.15041(14) 0.39952(7)
H4 H 0.89250 0.03630 0.44340
H5 H 0.90720 0.27770 0.43690
H6 H 1.00340 0.13460 0.37450
C5 C 0.61061(9) 0.15678(13) 0.41608(6)
H7 H 0.51470 0.15090 0.40180
H8 H 0.63160 0.28130 0.45310
H9 H 0.63740 0.03880 0.45610
O1 O 0.76661(7) 0.44373(11) 0.85164(5)
H10 H 0.7994(13) 0.406(2) 0.7918(11)
H11 H 0.7267(13) 0.546(2) 0.839(1)
O2 O 0.63598(6) 0.81171(9) 0.83098(5)
H12 H 0.5460(13) 0.8271(17) 0.8170(9)
H13 H 0.6582(11) 0.9033(18) 0.8786(9)
O3 O 0.72608(8) 0.09621(11) 0.95808(5)
H14 H 0.7407(13) 0.221(2) 0.9294(9)
H15 H 0.7076(17) 0.118(2) 1.0237(14)
#END
