####################################################################### 
# 
# This file contains crystal structure data downloaded from the 
# Cambridge Structural Database (CSD) hosted by the Cambridge 
# Crystallographic Data Centre (CCDC).
# 
# Full information about CCDC data access policies and citation 
# guidelines are available at http://www.ccdc.cam.ac.uk/access/V1 
# 
# Audit and citation data items may have been added by the CCDC. 
# Please retain this information to preserve the provenance of 
# this file and to allow appropriate attribution of the data. 
# 
#######################################################################

data_DUT-67(Zr)_soaked_in_water
_audit_block_doi                 10.5517/cczy1fc
_database_code_depnum_ccdc_archive 'CCDC 921643'
loop_
_citation_id
_citation_doi
_citation_year
1 10.1021/cg301691d 2013
_audit_update_record             
;
2013-01-24 deposited with the CCDC.	2024-07-13 downloaded from the CCDC.
;
#TrackingRef '17176_web_deposit_cif_file_0_VolodymyrBon_1359036079.DUT-67(Zr)_water.cif'


_audit_creation_method           SHELXL-97
_chemical_name_systematic        
;
?
;
_chemical_name_common            ?
_chemical_melting_point          ?
_chemical_formula_moiety         ?
_chemical_formula_sum            'C24 H8 O32 S4 Zr6'
_chemical_formula_weight         1483.86

loop_
_atom_type_symbol
_atom_type_description
_atom_type_scat_dispersion_real
_atom_type_scat_dispersion_imag
_atom_type_scat_source
C C 0.0060 0.0030 'International Tables Vol C Tables 4.2.6.8 and 6.1.1.4'
H H 0.0000 0.0000 'International Tables Vol C Tables 4.2.6.8 and 6.1.1.4'
O O 0.0180 0.0100 'International Tables Vol C Tables 4.2.6.8 and 6.1.1.4'
S S 0.1740 0.1930 'International Tables Vol C Tables 4.2.6.8 and 6.1.1.4'
Zr Zr -1.2060 0.8400 'International Tables Vol C Tables 4.2.6.8 and 6.1.1.4'

_symmetry_cell_setting           cubic
_symmetry_space_group_name_H-M   Fm-3m

loop_
_symmetry_equiv_pos_as_xyz
'x, y, z'
'-x, -y, z'
'-x, y, -z'
'x, -y, -z'
'z, x, y'
'z, -x, -y'
'-z, -x, y'
'-z, x, -y'
'y, z, x'
'-y, z, -x'
'y, -z, -x'
'-y, -z, x'
'y, x, -z'
'-y, -x, -z'
'y, -x, z'
'-y, x, z'
'x, z, -y'
'-x, z, y'
'-x, -z, -y'
'x, -z, y'
'z, y, -x'
'z, -y, x'
'-z, y, x'
'-z, -y, -x'
'x, y+1/2, z+1/2'
'-x, -y+1/2, z+1/2'
'-x, y+1/2, -z+1/2'
'x, -y+1/2, -z+1/2'
'z, x+1/2, y+1/2'
'z, -x+1/2, -y+1/2'
'-z, -x+1/2, y+1/2'
'-z, x+1/2, -y+1/2'
'y, z+1/2, x+1/2'
'-y, z+1/2, -x+1/2'
'y, -z+1/2, -x+1/2'
'-y, -z+1/2, x+1/2'
'y, x+1/2, -z+1/2'
'-y, -x+1/2, -z+1/2'
'y, -x+1/2, z+1/2'
'-y, x+1/2, z+1/2'
'x, z+1/2, -y+1/2'
'-x, z+1/2, y+1/2'
'-x, -z+1/2, -y+1/2'
'x, -z+1/2, y+1/2'
'z, y+1/2, -x+1/2'
'z, -y+1/2, x+1/2'
'-z, y+1/2, x+1/2'
'-z, -y+1/2, -x+1/2'
'x+1/2, y, z+1/2'
'-x+1/2, -y, z+1/2'
'-x+1/2, y, -z+1/2'
'x+1/2, -y, -z+1/2'
'z+1/2, x, y+1/2'
'z+1/2, -x, -y+1/2'
'-z+1/2, -x, y+1/2'
'-z+1/2, x, -y+1/2'
'y+1/2, z, x+1/2'
'-y+1/2, z, -x+1/2'
'y+1/2, -z, -x+1/2'
'-y+1/2, -z, x+1/2'
'y+1/2, x, -z+1/2'
'-y+1/2, -x, -z+1/2'
'y+1/2, -x, z+1/2'
'-y+1/2, x, z+1/2'
'x+1/2, z, -y+1/2'
'-x+1/2, z, y+1/2'
'-x+1/2, -z, -y+1/2'
'x+1/2, -z, y+1/2'
'z+1/2, y, -x+1/2'
'z+1/2, -y, x+1/2'
'-z+1/2, y, x+1/2'
'-z+1/2, -y, -x+1/2'
'x+1/2, y+1/2, z'
'-x+1/2, -y+1/2, z'
'-x+1/2, y+1/2, -z'
'x+1/2, -y+1/2, -z'
'z+1/2, x+1/2, y'
'z+1/2, -x+1/2, -y'
'-z+1/2, -x+1/2, y'
'-z+1/2, x+1/2, -y'
'y+1/2, z+1/2, x'
'-y+1/2, z+1/2, -x'
'y+1/2, -z+1/2, -x'
'-y+1/2, -z+1/2, x'
'y+1/2, x+1/2, -z'
'-y+1/2, -x+1/2, -z'
'y+1/2, -x+1/2, z'
'-y+1/2, x+1/2, z'
'x+1/2, z+1/2, -y'
'-x+1/2, z+1/2, y'
'-x+1/2, -z+1/2, -y'
'x+1/2, -z+1/2, y'
'z+1/2, y+1/2, -x'
'z+1/2, -y+1/2, x'
'-z+1/2, y+1/2, x'
'-z+1/2, -y+1/2, -x'
'-x, -y, -z'
'x, y, -z'
'x, -y, z'
'-x, y, z'
'-z, -x, -y'
'-z, x, y'
'z, x, -y'
'z, -x, y'
'-y, -z, -x'
'y, -z, x'
'-y, z, x'
'y, z, -x'
'-y, -x, z'
'y, x, z'
'-y, x, -z'
'y, -x, -z'
'-x, -z, y'
'x, -z, -y'
'x, z, y'
'-x, z, -y'
'-z, -y, x'
'-z, y, -x'
'z, -y, -x'
'z, y, x'
'-x, -y+1/2, -z+1/2'
'x, y+1/2, -z+1/2'
'x, -y+1/2, z+1/2'
'-x, y+1/2, z+1/2'
'-z, -x+1/2, -y+1/2'
'-z, x+1/2, y+1/2'
'z, x+1/2, -y+1/2'
'z, -x+1/2, y+1/2'
'-y, -z+1/2, -x+1/2'
'y, -z+1/2, x+1/2'
'-y, z+1/2, x+1/2'
'y, z+1/2, -x+1/2'
'-y, -x+1/2, z+1/2'
'y, x+1/2, z+1/2'
'-y, x+1/2, -z+1/2'
'y, -x+1/2, -z+1/2'
'-x, -z+1/2, y+1/2'
'x, -z+1/2, -y+1/2'
'x, z+1/2, y+1/2'
'-x, z+1/2, -y+1/2'
'-z, -y+1/2, x+1/2'
'-z, y+1/2, -x+1/2'
'z, -y+1/2, -x+1/2'
'z, y+1/2, x+1/2'
'-x+1/2, -y, -z+1/2'
'x+1/2, y, -z+1/2'
'x+1/2, -y, z+1/2'
'-x+1/2, y, z+1/2'
'-z+1/2, -x, -y+1/2'
'-z+1/2, x, y+1/2'
'z+1/2, x, -y+1/2'
'z+1/2, -x, y+1/2'
'-y+1/2, -z, -x+1/2'
'y+1/2, -z, x+1/2'
'-y+1/2, z, x+1/2'
'y+1/2, z, -x+1/2'
'-y+1/2, -x, z+1/2'
'y+1/2, x, z+1/2'
'-y+1/2, x, -z+1/2'
'y+1/2, -x, -z+1/2'
'-x+1/2, -z, y+1/2'
'x+1/2, -z, -y+1/2'
'x+1/2, z, y+1/2'
'-x+1/2, z, -y+1/2'
'-z+1/2, -y, x+1/2'
'-z+1/2, y, -x+1/2'
'z+1/2, -y, -x+1/2'
'z+1/2, y, x+1/2'
'-x+1/2, -y+1/2, -z'
'x+1/2, y+1/2, -z'
'x+1/2, -y+1/2, z'
'-x+1/2, y+1/2, z'
'-z+1/2, -x+1/2, -y'
'-z+1/2, x+1/2, y'
'z+1/2, x+1/2, -y'
'z+1/2, -x+1/2, y'
'-y+1/2, -z+1/2, -x'
'y+1/2, -z+1/2, x'
'-y+1/2, z+1/2, x'
'y+1/2, z+1/2, -x'
'-y+1/2, -x+1/2, z'
'y+1/2, x+1/2, z'
'-y+1/2, x+1/2, -z'
'y+1/2, -x+1/2, -z'
'-x+1/2, -z+1/2, y'
'x+1/2, -z+1/2, -y'
'x+1/2, z+1/2, y'
'-x+1/2, z+1/2, -y'
'-z+1/2, -y+1/2, x'
'-z+1/2, y+1/2, -x'
'z+1/2, -y+1/2, -x'
'z+1/2, y+1/2, x'

_cell_length_a                   39.030(5)
_cell_length_b                   39.030(5)
_cell_length_c                   39.030(5)
_cell_angle_alpha                90.00
_cell_angle_beta                 90.00
_cell_angle_gamma                90.00
_cell_volume                     59456(12)
_cell_formula_units_Z            24
_cell_measurement_temperature    296(2)
_cell_measurement_reflns_used    452
_cell_measurement_theta_min      2.98
_cell_measurement_theta_max      28.65

_exptl_crystal_description       cuboctahedron
_exptl_crystal_colour            colorless
_exptl_crystal_size_max          0.05
_exptl_crystal_size_mid          0.05
_exptl_crystal_size_min          0.05
_exptl_crystal_density_meas      ?
_exptl_crystal_density_diffrn    0.995
_exptl_crystal_density_method    'not measured'
_exptl_crystal_F_000             17088
_exptl_absorpt_coefficient_mu    1.326
_exptl_absorpt_correction_type   multi-scan
_exptl_absorpt_correction_T_min  0.9367
_exptl_absorpt_correction_T_max  0.9367
_exptl_absorpt_process_details   Scala

_exptl_special_details           
;
?
;

_diffrn_ambient_temperature      296(2)
_diffrn_radiation_probe          x-ray
_diffrn_radiation_type           synchrotron
_diffrn_radiation_wavelength     0.88561
_diffrn_source                   synchrotron
_diffrn_source_type              'BESSY BL MX-14.2'
_diffrn_radiation_monochromator  'Si 111'
_diffrn_measurement_device_type  'MX-225 CCD'
_diffrn_measurement_method       '\D\f scans'
_diffrn_reflns_number            5476
_diffrn_reflns_av_R_equivalents  0.0186
_diffrn_reflns_av_sigmaI/netI    0.0356
_diffrn_reflns_limit_h_min       0
_diffrn_reflns_limit_h_max       28
_diffrn_reflns_limit_k_min       2
_diffrn_reflns_limit_k_max       48
_diffrn_reflns_limit_l_min       0
_diffrn_reflns_limit_l_max       49
_diffrn_reflns_theta_min         3.19
_diffrn_reflns_theta_max         34.12
_reflns_number_total             3080
_reflns_number_gt                2934
_reflns_threshold_expression     >2sigma(I)

_computing_data_collection       'marCCD 1994-2002'
_computing_cell_refinement       'mosflm 1.0.5'
_computing_data_reduction        scala
_computing_structure_solution    'SHELXS-97 (Sheldrick, 1997)'
_computing_structure_refinement  'SHELXL-97 (Sheldrick, 1997)'
_computing_molecular_graphics    'Diamond 3.1'
_computing_publication_material  WinGX

_refine_special_details          
;
Refinement of F^2^ against ALL reflections. The weighted R-factor wR and
goodness of fit S are based on F^2^, conventional R-factors R are based
on F, with F set to zero for negative F^2^. The threshold expression of
F^2^ > 2sigma(F^2^) is used only for calculating R-factors(gt) etc. and is
not relevant to the choice of reflections for refinement. R-factors based
on F^2^ are statistically about twice as large as those based on F, and R-
factors based on ALL data will be even larger.
;

_refine_ls_structure_factor_coef Fsqd
_refine_ls_matrix_type           full
_refine_ls_weighting_scheme      calc
_refine_ls_weighting_details     
'calc w=1/[\s^2^(Fo^2^)+(0.1421P)^2^+1344.4695P] where P=(Fo^2^+2Fc^2^)/3'
_atom_sites_solution_primary     direct
_atom_sites_solution_secondary   difmap
_atom_sites_solution_hydrogens   geom
_refine_ls_hydrogen_treatment    constr
_refine_ls_extinction_method     none
_refine_ls_extinction_coef       ?
_refine_ls_number_reflns         3080
_refine_ls_number_parameters     86
_refine_ls_number_restraints     0
_refine_ls_R_factor_all          0.0682
_refine_ls_R_factor_gt           0.0666
_refine_ls_wR_factor_ref         0.2289
_refine_ls_wR_factor_gt          0.2272
_refine_ls_goodness_of_fit_ref   1.094
_refine_ls_restrained_S_all      1.094
_refine_ls_shift/su_max          0.000
_refine_ls_shift/su_mean         0.000

loop_
_atom_site_label
_atom_site_type_symbol
_atom_site_fract_x
_atom_site_fract_y
_atom_site_fract_z
_atom_site_U_iso_or_equiv
_atom_site_adp_type
_atom_site_occupancy
_atom_site_symmetry_multiplicity
_atom_site_calc_flag
_atom_site_refinement_flags
_atom_site_disorder_assembly
_atom_site_disorder_group
Zr1 Zr 0.217965(13) 0.282035(13) 0.045343(18) 0.0311(3) Uani 1 2 d S . .
Zr2 Zr 0.205533(13) 0.205533(13) 0.0000 0.0132(3) Uani 1 4 d S . .
S1 S 0.24891(7) 0.11092(7) 0.11092(7) 0.0698(10) Uani 1 2 d S . .
C1 C 0.23006(17) 0.15311(17) 0.05738(16) 0.0452(16) Uani 1 1 d . . .
C2 C 0.22103(19) 0.12401(18) 0.07992(19) 0.055(2) Uani 1 1 d . . .
C3 C 0.1923(2) 0.1045(2) 0.0793(2) 0.077(3) Uani 1 1 d . . .
H3A H 0.1746 0.1076 0.0637 0.092 Uiso 1 1 calc R . .
O1 O 0.20887(10) 0.16071(10) 0.03417(10) 0.0323(8) Uani 1 1 d . . .
O2 O 0.22866(16) 0.22866(16) 0.0444(3) 0.083(3) Uani 1 2 d S . .
O3 O 0.16863(14) 0.25758(13) 0.06383(15) 0.0689(18) Uani 1 1 d . . .
O4 O 0.2206(2) 0.2794(2) 0.10099(19) 0.096(4) Uani 1 2 d S . .
O5 O 0.17860(13) 0.32140(13) 0.0446(3) 0.080(3) Uani 1 2 d S . .
O6 O 0.24008(17) 0.3032(3) 0.0000 0.066(2) Uani 1 2 d S . .

loop_
_atom_site_aniso_label
_atom_site_aniso_U_11
_atom_site_aniso_U_22
_atom_site_aniso_U_33
_atom_site_aniso_U_23
_atom_site_aniso_U_13
_atom_site_aniso_U_12
Zr1 0.0290(3) 0.0290(3) 0.0354(4) -0.0195(2) 0.0195(2) -0.0120(2)
Zr2 0.0154(3) 0.0154(3) 0.0087(4) 0.000 0.000 -0.0014(2)
S1 0.0611(15) 0.0742(13) 0.0742(13) 0.0614(15) -0.0455(12) -0.0455(12)
C1 0.044(3) 0.045(3) 0.046(3) 0.030(3) -0.022(3) -0.020(3)
C2 0.056(4) 0.054(4) 0.055(4) 0.040(3) -0.032(3) -0.026(3)
C3 0.069(5) 0.082(5) 0.080(6) 0.063(5) -0.047(4) -0.042(5)
O1 0.037(2) 0.0293(19) 0.0305(18) 0.0182(15) -0.0124(16) -0.0099(15)
O2 0.056(3) 0.056(3) 0.136(8) -0.062(4) -0.062(4) 0.018(4)
O3 0.065(3) 0.057(3) 0.085(4) -0.042(3) 0.060(3) -0.034(3)
O4 0.129(6) 0.129(6) 0.030(4) -0.039(4) 0.039(4) -0.069(7)
O5 0.038(2) 0.038(2) 0.164(9) -0.039(3) 0.039(3) 0.000(3)
O6 0.040(4) 0.128(7) 0.031(3) 0.000 0.000 -0.055(4)

_geom_special_details            
;
All esds (except the esd in the dihedral angle between two l.s. planes)
are estimated using the full covariance matrix. The cell esds are taken
into account individually in the estimation of esds in distances, angles
and torsion angles; correlations between esds in cell parameters are only
used when they are defined by crystal symmetry. An approximate (isotropic)
treatment of cell esds is used for estimating esds involving l.s. planes.
;

loop_
_geom_bond_atom_site_label_1
_geom_bond_atom_site_label_2
_geom_bond_distance
_geom_bond_site_symmetry_2
_geom_bond_publ_flag
Zr1 O2 2.125(5) 74 ?
Zr1 O2 2.125(5) . ?
Zr1 O6 2.136(4) . ?
Zr1 O6 2.136(4) 181 ?
Zr1 O5 2.173(7) . ?
Zr1 O4 2.177(8) . ?
Zr1 O3 2.267(4) . ?
Zr1 O3 2.267(4) 181 ?
Zr2 O6 2.150(8) 181 ?
Zr2 O6 2.150(8) 169 ?
Zr2 O2 2.152(7) . ?
Zr2 O2 2.152(7) 98 ?
Zr2 O1 2.204(3) . ?
Zr2 O1 2.204(3) 13 ?
Zr2 O1 2.204(3) 98 ?
Zr2 O1 2.204(3) 110 ?
S1 C2 1.706(6) . ?
S1 C2 1.706(6) 115 ?
C1 O3 1.259(7) 110 ?
C1 O1 1.262(7) . ?
C1 C2 1.479(8) . ?
C2 C3 1.356(9) . ?
C3 C3 1.390(12) 115 ?
C3 H3A 0.9300 . ?
O2 Zr1 2.125(5) 74 ?
O3 C1 1.259(7) 110 ?
O6 Zr1 2.136(4) 98 ?
O6 Zr2 2.150(8) 169 ?

loop_
_geom_angle_atom_site_label_1
_geom_angle_atom_site_label_2
_geom_angle_atom_site_label_3
_geom_angle
_geom_angle_site_symmetry_1
_geom_angle_site_symmetry_3
_geom_angle_publ_flag
O2 Zr1 O2 67.3(4) 74 . ?
O2 Zr1 O6 70.5(3) 74 . ?
O2 Zr1 O6 106.6(4) . . ?
O2 Zr1 O6 106.6(4) 74 181 ?
O2 Zr1 O6 70.5(3) . 181 ?
O6 Zr1 O6 68.1(3) . 181 ?
O2 Zr1 O5 146.28(19) 74 . ?
O2 Zr1 O5 146.28(19) . . ?
O6 Zr1 O5 90.0(4) . . ?
O6 Zr1 O5 90.0(4) 181 . ?
O2 Zr1 O4 87.8(4) 74 . ?
O2 Zr1 O4 87.8(4) . . ?
O6 Zr1 O4 145.70(14) . . ?
O6 Zr1 O4 145.70(14) 181 . ?
O5 Zr1 O4 94.6(5) . . ?
O2 Zr1 O3 139.1(2) 74 . ?
O2 Zr1 O3 76.1(3) . . ?
O6 Zr1 O3 140.4(2) . . ?
O6 Zr1 O3 76.4(2) 181 . ?
O5 Zr1 O3 72.64(19) . . ?
O4 Zr1 O3 72.7(2) . . ?
O2 Zr1 O3 76.1(3) 74 181 ?
O2 Zr1 O3 139.1(2) . 181 ?
O6 Zr1 O3 76.4(2) . 181 ?
O6 Zr1 O3 140.4(2) 181 181 ?
O5 Zr1 O3 72.63(19) . 181 ?
O4 Zr1 O3 72.7(2) . 181 ?
O3 Zr1 O3 127.9(2) . 181 ?
O6 Zr2 O6 108.3(5) 181 169 ?
O6 Zr2 O2 69.7(2) 181 . ?
O6 Zr2 O2 69.7(2) 169 . ?
O6 Zr2 O2 69.7(2) 181 98 ?
O6 Zr2 O2 69.7(2) 169 98 ?
O2 Zr2 O2 107.2(7) . 98 ?
O6 Zr2 O1 142.48(12) 181 . ?
O6 Zr2 O1 79.4(2) 169 . ?
O2 Zr2 O1 79.7(3) . . ?
O2 Zr2 O1 142.69(12) 98 . ?
O6 Zr2 O1 79.4(2) 181 13 ?
O6 Zr2 O1 142.48(12) 169 13 ?
O2 Zr2 O1 142.70(12) . 13 ?
O2 Zr2 O1 79.7(3) 98 13 ?
O1 Zr2 O1 117.40(19) . 13 ?
O6 Zr2 O1 142.48(12) 181 98 ?
O6 Zr2 O1 79.4(2) 169 98 ?
O2 Zr2 O1 142.70(12) . 98 ?
O2 Zr2 O1 79.7(3) 98 98 ?
O1 Zr2 O1 74.5(2) . 98 ?
O1 Zr2 O1 74.2(2) 13 98 ?
O6 Zr2 O1 79.4(2) 181 110 ?
O6 Zr2 O1 142.48(12) 169 110 ?
O2 Zr2 O1 79.7(3) . 110 ?
O2 Zr2 O1 142.70(12) 98 110 ?
O1 Zr2 O1 74.2(2) . 110 ?
O1 Zr2 O1 74.5(2) 13 110 ?
O1 Zr2 O1 117.40(19) 98 110 ?
C2 S1 C2 91.0(4) . 115 ?
O3 C1 O1 126.1(5) 110 . ?
O3 C1 C2 117.0(5) 110 . ?
O1 C1 C2 116.8(5) . . ?
C3 C2 C1 128.2(5) . . ?
C3 C2 S1 111.8(4) . . ?
C1 C2 S1 120.0(4) . . ?
C2 C3 C3 112.6(4) . 115 ?
C2 C3 H3A 123.7 . . ?
C3 C3 H3A 123.7 115 . ?
C1 O1 Zr2 131.3(3) . . ?
Zr1 O2 Zr1 112.6(4) . 74 ?
Zr1 O2 Zr2 110.0(3) . . ?
Zr1 O2 Zr2 110.0(3) 74 . ?
C1 O3 Zr1 134.8(4) 110 . ?
Zr1 O6 Zr1 111.9(3) 98 . ?
Zr1 O6 Zr2 109.7(3) 98 169 ?
Zr1 O6 Zr2 109.7(3) . 169 ?

_diffrn_measured_fraction_theta_max 0.987
_diffrn_reflns_theta_full        34.12
_diffrn_measured_fraction_theta_full 0.987
_refine_diff_density_max         1.766
_refine_diff_density_min         -0.784
_refine_diff_density_rms         0.189
