####################################################################### 
# 
# This file contains crystal structure data downloaded from the 
# Cambridge Structural Database (CSD) hosted by the Cambridge 
# Crystallographic Data Centre (CCDC).
# 
# Full information about CCDC data access policies and citation 
# guidelines are available at http://www.ccdc.cam.ac.uk/access/V1 
# 
# Audit and citation data items may have been added by the CCDC. 
# Please retain this information to preserve the provenance of 
# this file and to allow appropriate attribution of the data. 
# 
#######################################################################

data_shelxl7
_audit_block_doi                 10.5517/ccyx0nh
_database_code_depnum_ccdc_archive 'CCDC 890867'
loop_
_citation_id
_citation_doi
_citation_year
1 10.1002/zaac.201200372 2013
_audit_update_record             
;
2012-07-07 deposited with the CCDC.	2024-07-13 downloaded from the CCDC.
;
#TrackingRef '7.cif'


_audit_creation_method           SHELXL-97
_chemical_name_systematic        
;
?
;
_chemical_name_common            ?
_chemical_melting_point          ?
_chemical_formula_moiety         '2(C11 H14 Cu I3 N4),(C2 N H3)'
_chemical_formula_sum            'C24 H31 Cu2 I6 N9'
_chemical_formula_weight         1334.08

loop_
_atom_type_symbol
_atom_type_description
_atom_type_scat_dispersion_real
_atom_type_scat_dispersion_imag
_atom_type_scat_source
C C 0.0033 0.0016 'International Tables Vol C Tables 4.2.6.8 and 6.1.1.4'
H H 0.0000 0.0000 'International Tables Vol C Tables 4.2.6.8 and 6.1.1.4'
Cu Cu 0.3201 1.2651 'International Tables Vol C Tables 4.2.6.8 and 6.1.1.4'
I I -0.4742 1.8119 'International Tables Vol C Tables 4.2.6.8 and 6.1.1.4'
N N 0.0061 0.0033 'International Tables Vol C Tables 4.2.6.8 and 6.1.1.4'

_symmetry_cell_setting           Orthorhombic
_symmetry_space_group_name_H-M   'P m n 21'
_symmetry_space_group_name_Hall  'P 2ac -2'

loop_
_symmetry_equiv_pos_as_xyz
'x, y, z'
'-x+1/2, -y, z+1/2'
'-x, y, z'
'x+1/2, -y, z+1/2'

_cell_length_a                   16.203(5)
_cell_length_b                   4.3188(14)
_cell_length_c                   14.161(5)
_cell_angle_alpha                90.00
_cell_angle_beta                 90.00
_cell_angle_gamma                90.00
_cell_volume                     991.0(6)
_cell_formula_units_Z            1
_cell_measurement_temperature    293(2)
_cell_measurement_reflns_used    2933
_cell_measurement_theta_min      3.1
_cell_measurement_theta_max      25.3

_exptl_crystal_description       block
_exptl_crystal_colour            colorless
_exptl_crystal_size_max          0.28
_exptl_crystal_size_mid          0.22
_exptl_crystal_size_min          0.10
_exptl_crystal_density_meas      ?
_exptl_crystal_density_diffrn    2.235
_exptl_crystal_density_method    'not measured'
_exptl_crystal_F_000             614
_exptl_absorpt_coefficient_mu    5.773
_exptl_absorpt_correction_type   multi-scan
_exptl_absorpt_correction_T_min  0.347
_exptl_absorpt_correction_T_max  0.562
_exptl_absorpt_process_details   'Jacobson, R. (1998) Private communication'

_exptl_special_details           
;
?
;

_diffrn_ambient_temperature      293(2)
_diffrn_radiation_wavelength     0.71070
_diffrn_radiation_type           MoK\a
_diffrn_radiation_source         'fine-focus sealed tube'
_diffrn_radiation_monochromator  graphite
_diffrn_measurement_device_type  'Rigaku Mercury'
_diffrn_measurement_method       \w
_diffrn_detector_area_resol_mean 7.31
_diffrn_standards_number         ?
_diffrn_standards_interval_count ?
_diffrn_standards_interval_time  ?
_diffrn_standards_decay_%        ?
_diffrn_reflns_number            8218
_diffrn_reflns_av_R_equivalents  0.0543
_diffrn_reflns_av_sigmaI/netI    0.0455
_diffrn_reflns_limit_h_min       -19
_diffrn_reflns_limit_h_max       19
_diffrn_reflns_limit_k_min       -5
_diffrn_reflns_limit_k_max       4
_diffrn_reflns_limit_l_min       -16
_diffrn_reflns_limit_l_max       16
_diffrn_reflns_theta_min         3.82
_diffrn_reflns_theta_max         25.35
_reflns_number_total             1844
_reflns_number_gt                1665
_reflns_threshold_expression     >2sigma(I)

_computing_data_collection       CrystalClear
_computing_cell_refinement       CrystalClear
_computing_data_reduction        CrystalStructure
_computing_structure_solution    'SHELXS-97 (Sheldrick, 1990)'
_computing_structure_refinement  'SHELXL-97 (Sheldrick, 1997)'
_computing_molecular_graphics    ?
_computing_publication_material  ?

_refine_special_details          
;
Refinement of F^2^ against ALL reflections. The weighted R-factor wR and
goodness of fit S are based on F^2^, conventional R-factors R are based
on F, with F set to zero for negative F^2^. The threshold expression of
F^2^ > 2sigma(F^2^) is used only for calculating R-factors(gt) etc. and is
not relevant to the choice of reflections for refinement. R-factors based
on F^2^ are statistically about twice as large as those based on F, and R-
factors based on ALL data will be even larger.
;

_refine_ls_structure_factor_coef Fsqd
_refine_ls_matrix_type           full
_refine_ls_weighting_scheme      calc
_refine_ls_weighting_details     
'calc w=1/[\s^2^(Fo^2^)+(0.0563P)^2^+3.6643P] where P=(Fo^2^+2Fc^2^)/3'
_atom_sites_solution_primary     direct
_atom_sites_solution_secondary   difmap
_atom_sites_solution_hydrogens   geom
_refine_ls_hydrogen_treatment    constr
_refine_ls_extinction_method     none
_refine_ls_extinction_coef       ?
_refine_ls_abs_structure_details 'Flack H D (1983), Acta Cryst. A39, 876-881'
_refine_ls_abs_structure_Flack   0.04(8)
_refine_ls_number_reflns         1844
_refine_ls_number_parameters     112
_refine_ls_number_restraints     1
_refine_ls_R_factor_all          0.0540
_refine_ls_R_factor_gt           0.0476
_refine_ls_wR_factor_ref         0.1173
_refine_ls_wR_factor_gt          0.1129
_refine_ls_goodness_of_fit_ref   1.076
_refine_ls_restrained_S_all      1.076
_refine_ls_shift/su_max          0.000
_refine_ls_shift/su_mean         0.000

loop_
_atom_site_label
_atom_site_type_symbol
_atom_site_fract_x
_atom_site_fract_y
_atom_site_fract_z
_atom_site_U_iso_or_equiv
_atom_site_adp_type
_atom_site_occupancy
_atom_site_symmetry_multiplicity
_atom_site_calc_flag
_atom_site_refinement_flags
_atom_site_disorder_assembly
_atom_site_disorder_group
Cu1 Cu 0.5000 0.5649(5) 0.23823(13) 0.0483(6) Uani 1 2 d S . .
I1 I 0.5000 0.0565(2) 0.34135(6) 0.0441(3) Uani 1 2 d S . .
I2 I 0.19858(5) 0.7733(2) -0.03574(8) 0.0619(3) Uani 1 1 d . . .
N1 N 0.4053(5) 0.543(2) 0.1345(6) 0.039(2) Uani 1 1 d . . .
N2 N 0.4268(5) 0.418(2) 0.0515(6) 0.039(2) Uani 1 1 d . . .
C1 C 0.2919(8) 0.857(4) 0.1982(11) 0.062(4) Uani 1 1 d . . .
H1A H 0.3055 0.7614 0.2573 0.093 Uiso 1 1 calc R . .
H1B H 0.2331 0.8526 0.1894 0.093 Uiso 1 1 calc R . .
H1C H 0.3107 1.0677 0.1982 0.093 Uiso 1 1 calc R . .
C2 C 0.3333(7) 0.682(3) 0.1185(8) 0.043(3) Uani 1 1 d . . .
C3 C 0.3100(6) 0.634(3) 0.0263(8) 0.042(3) Uani 1 1 d . . .
C4 C 0.3670(6) 0.463(3) -0.0155(9) 0.046(3) Uani 1 1 d . . .
C5 C 0.3754(9) 0.342(4) -0.1135(10) 0.070(4) Uani 1 1 d . . .
H5A H 0.3463 0.4755 -0.1563 0.104 Uiso 1 1 calc R . .
H5B H 0.3525 0.1373 -0.1167 0.104 Uiso 1 1 calc R . .
H5C H 0.4327 0.3355 -0.1306 0.104 Uiso 1 1 calc R . .
C6 C 0.5000 0.230(4) 0.0478(12) 0.044(4) Uani 1 2 d S . .
H6A H 0.5000 0.0871 0.1005 0.053 Uiso 1 2 calc SR . .
H6B H 0.5000 0.1104 -0.0101 0.053 Uiso 1 2 calc SR . .
N3 N 0.0000 0.107(8) 0.244(2) 0.065(9) Uani 0.50 2 d SP . .
C7 C 0.0000 0.211(8) 0.178(2) 0.041(8) Uani 0.50 2 d SP . .
C8 C 0.0000 0.398(7) 0.085(3) 0.055(10) Uani 0.50 2 d SP . .
H8A H -0.0234 0.5989 0.0962 0.082 Uiso 0.25 1 calc PR . .
H8B H -0.0322 0.2904 0.0387 0.082 Uiso 0.25 1 calc PR . .
H8C H 0.0556 0.4204 0.0629 0.082 Uiso 0.25 1 calc PR . .

loop_
_atom_site_aniso_label
_atom_site_aniso_U_11
_atom_site_aniso_U_22
_atom_site_aniso_U_33
_atom_site_aniso_U_23
_atom_site_aniso_U_13
_atom_site_aniso_U_12
Cu1 0.0506(13) 0.0541(14) 0.0403(12) 0.0017(11) 0.000 0.000
I1 0.0459(6) 0.0443(6) 0.0420(5) 0.0012(6) 0.000 0.000
I2 0.0430(4) 0.0724(6) 0.0704(6) 0.0114(5) -0.0116(4) 0.0031(4)
N1 0.038(5) 0.039(5) 0.042(5) 0.005(4) -0.001(4) -0.003(4)
N2 0.028(5) 0.054(6) 0.035(5) -0.001(4) -0.004(4) 0.001(4)
C1 0.042(7) 0.078(10) 0.065(9) 0.002(8) 0.011(6) 0.007(7)
C2 0.034(6) 0.051(7) 0.044(7) 0.003(5) 0.008(5) 0.001(5)
C3 0.027(6) 0.057(7) 0.043(7) 0.010(6) -0.008(5) -0.010(5)
C4 0.028(6) 0.057(7) 0.052(7) 0.005(6) 0.006(5) -0.007(5)
C5 0.055(8) 0.104(12) 0.050(8) -0.024(8) -0.006(6) -0.005(8)
C6 0.043(9) 0.045(10) 0.044(9) 0.000(7) 0.000 0.000
N3 0.09(2) 0.06(2) 0.05(2) 0.030(18) 0.000 0.000
C7 0.05(2) 0.04(2) 0.024(16) -0.004(15) 0.000 0.000
C8 0.10(3) 0.020(16) 0.05(2) -0.002(15) 0.000 0.000

_geom_special_details            
;
All esds (except the esd in the dihedral angle between two l.s. planes)
are estimated using the full covariance matrix. The cell esds are taken
into account individually in the estimation of esds in distances, angles
and torsion angles; correlations between esds in cell parameters are only
used when they are defined by crystal symmetry. An approximate (isotropic)
treatment of cell esds is used for estimating esds involving l.s. planes.
;

loop_
_geom_bond_atom_site_label_1
_geom_bond_atom_site_label_2
_geom_bond_distance
_geom_bond_site_symmetry_2
_geom_bond_publ_flag
Cu1 N1 2.127(9) 3_655 ?
Cu1 N1 2.127(9) . ?
Cu1 I1 2.577(3) 1_565 ?
Cu1 I1 2.637(3) . ?
I1 Cu1 2.577(3) 1_545 ?
I2 C3 2.096(11) . ?
N1 C2 1.331(14) . ?
N1 N2 1.340(13) . ?
N2 C4 1.371(14) . ?
N2 C6 1.437(13) . ?
C1 C2 1.514(18) . ?
C1 H1A 0.9600 . ?
C1 H1B 0.9600 . ?
C1 H1C 0.9600 . ?
C2 C3 1.375(16) . ?
C3 C4 1.322(16) . ?
C4 C5 1.489(18) . ?
C5 H5A 0.9600 . ?
C5 H5B 0.9600 . ?
C5 H5C 0.9600 . ?
C6 N2 1.437(13) 3_655 ?
C6 H6A 0.9700 . ?
C6 H6B 0.9700 . ?
N3 C7 1.03(4) . ?
C7 C8 1.54(5) . ?
C8 H8A 0.9600 . ?
C8 H8B 0.9600 . ?
C8 H8C 0.9600 . ?

loop_
_geom_angle_atom_site_label_1
_geom_angle_atom_site_label_2
_geom_angle_atom_site_label_3
_geom_angle
_geom_angle_site_symmetry_1
_geom_angle_site_symmetry_3
_geom_angle_publ_flag
N1 Cu1 N1 92.4(5) 3_655 . ?
N1 Cu1 I1 115.3(3) 3_655 1_565 ?
N1 Cu1 I1 115.3(3) . 1_565 ?
N1 Cu1 I1 110.2(3) 3_655 . ?
N1 Cu1 I1 110.2(3) . . ?
I1 Cu1 I1 111.85(8) 1_565 . ?
Cu1 I1 Cu1 111.85(8) 1_545 . ?
C2 N1 N2 105.1(9) . . ?
C2 N1 Cu1 136.9(8) . . ?
N2 N1 Cu1 115.8(6) . . ?
N1 N2 C4 111.4(9) . . ?
N1 N2 C6 118.3(10) . . ?
C4 N2 C6 129.7(11) . . ?
C2 C1 H1A 109.5 . . ?
C2 C1 H1B 109.5 . . ?
H1A C1 H1B 109.5 . . ?
C2 C1 H1C 109.5 . . ?
H1A C1 H1C 109.5 . . ?
H1B C1 H1C 109.5 . . ?
N1 C2 C3 109.5(10) . . ?
N1 C2 C1 119.1(11) . . ?
C3 C2 C1 131.3(11) . . ?
C4 C3 C2 108.5(10) . . ?
C4 C3 I2 125.0(9) . . ?
C2 C3 I2 126.3(9) . . ?
C3 C4 N2 105.3(10) . . ?
C3 C4 C5 132.6(11) . . ?
N2 C4 C5 122.1(11) . . ?
C4 C5 H5A 109.5 . . ?
C4 C5 H5B 109.5 . . ?
H5A C5 H5B 109.5 . . ?
C4 C5 H5C 109.5 . . ?
H5A C5 H5C 109.5 . . ?
H5B C5 H5C 109.5 . . ?
N2 C6 N2 111.3(13) 3_655 . ?
N2 C6 H6A 109.4 3_655 . ?
N2 C6 H6A 109.4 . . ?
N2 C6 H6B 109.4 3_655 . ?
N2 C6 H6B 109.4 . . ?
H6A C6 H6B 108.0 . . ?
N3 C7 C8 175(4) . . ?
C7 C8 H8A 109.5 . . ?
C7 C8 H8B 109.5 . . ?
H8A C8 H8B 109.5 . . ?
C7 C8 H8C 109.5 . . ?
H8A C8 H8C 109.5 . . ?
H8B C8 H8C 109.5 . . ?

loop_
_geom_torsion_atom_site_label_1
_geom_torsion_atom_site_label_2
_geom_torsion_atom_site_label_3
_geom_torsion_atom_site_label_4
_geom_torsion
_geom_torsion_site_symmetry_1
_geom_torsion_site_symmetry_2
_geom_torsion_site_symmetry_3
_geom_torsion_site_symmetry_4
_geom_torsion_publ_flag
N1 Cu1 I1 Cu1 -50.3(3) 3_655 . . 1_545 ?
N1 Cu1 I1 Cu1 50.3(3) . . . 1_545 ?
I1 Cu1 I1 Cu1 180.0 1_565 . . 1_545 ?
N1 Cu1 N1 C2 -137.7(10) 3_655 . . . ?
I1 Cu1 N1 C2 -18.1(12) 1_565 . . . ?
I1 Cu1 N1 C2 109.7(11) . . . . ?
N1 Cu1 N1 N2 22.6(9) 3_655 . . . ?
I1 Cu1 N1 N2 142.2(7) 1_565 . . . ?
I1 Cu1 N1 N2 -89.9(7) . . . . ?
C2 N1 N2 C4 -3.0(12) . . . . ?
Cu1 N1 N2 C4 -169.2(7) . . . . ?
C2 N1 N2 C6 -175.5(10) . . . . ?
Cu1 N1 N2 C6 18.3(13) . . . . ?
N2 N1 C2 C3 1.6(13) . . . . ?
Cu1 N1 C2 C3 163.3(9) . . . . ?
N2 N1 C2 C1 -178.3(11) . . . . ?
Cu1 N1 C2 C1 -16.6(18) . . . . ?
N1 C2 C3 C4 0.4(14) . . . . ?
C1 C2 C3 C4 -179.7(13) . . . . ?
N1 C2 C3 I2 175.7(8) . . . . ?
C1 C2 C3 I2 -4(2) . . . . ?
C2 C3 C4 N2 -2.2(13) . . . . ?
I2 C3 C4 N2 -177.5(8) . . . . ?
C2 C3 C4 C5 -179.5(14) . . . . ?
I2 C3 C4 C5 5(2) . . . . ?
N1 N2 C4 C3 3.3(13) . . . . ?
C6 N2 C4 C3 174.6(12) . . . . ?
N1 N2 C4 C5 -179.0(11) . . . . ?
C6 N2 C4 C5 -7.7(19) . . . . ?
N1 N2 C6 N2 -74.7(16) . . . 3_655 ?
C4 N2 C6 N2 114.4(13) . . . 3_655 ?

_diffrn_measured_fraction_theta_max 0.994
_diffrn_reflns_theta_full        25.35
_diffrn_measured_fraction_theta_full 0.994
_refine_diff_density_max         1.472
_refine_diff_density_min         -0.627
_refine_diff_density_rms         0.156
