####################################################################### 
# 
# This file contains crystal structure data downloaded from the 
# Cambridge Structural Database (CSD) hosted by the Cambridge 
# Crystallographic Data Centre (CCDC).
# 
# Full information about CCDC data access policies and citation 
# guidelines are available at http://www.ccdc.cam.ac.uk/access/V1 
# 
# Audit and citation data items may have been added by the CCDC. 
# Please retain this information to preserve the provenance of 
# this file and to allow appropriate attribution of the data. 
# 
#######################################################################

data_a
_audit_block_doi                 10.5517/ccnx27v
_database_code_depnum_ccdc_archive 'CCDC 622797'
loop_
_citation_id
_citation_doi
_citation_year
1 10.1002/anie.200700537 2007
_audit_update_record             
;
2006-10-03 deposited with the CCDC.	2024-07-13 downloaded from the CCDC.
;

_audit_creation_method           SHELXL-97
_chemical_name_systematic        
;
?
;
_chemical_name_common            ?
_chemical_melting_point          'not measured'
_chemical_formula_moiety         'C45 H31 Cd3 N O13'
_chemical_formula_sum            'C45 H31 Cd3 N O13'
_chemical_formula_weight         1130.91

loop_
_atom_type_symbol
_atom_type_description
_atom_type_scat_dispersion_real
_atom_type_scat_dispersion_imag
_atom_type_scat_source
C C 0.0033 0.0016 'International Tables Vol C Tables 4.2.6.8 and 6.1.1.4'
H H 0.0000 0.0000 'International Tables Vol C Tables 4.2.6.8 and 6.1.1.4'
N N 0.0061 0.0033 'International Tables Vol C Tables 4.2.6.8 and 6.1.1.4'
O O 0.0106 0.0060 'International Tables Vol C Tables 4.2.6.8 and 6.1.1.4'
Cd Cd -0.8075 1.2024 'International Tables Vol C Tables 4.2.6.8 and 6.1.1.4'

_symmetry_cell_setting           orthorhombic
_symmetry_space_group_name_H-M   Pbcn

loop_
_symmetry_equiv_pos_as_xyz
'x, y, z'
'-x+1/2, -y+1/2, z+1/2'
'-x, y, -z+1/2'
'x+1/2, -y+1/2, -z'
'-x, -y, -z'
'x-1/2, y-1/2, -z-1/2'
'x, -y, z-1/2'
'-x-1/2, y-1/2, z'

_cell_length_a                   24.498(5)
_cell_length_b                   45.853(9)
_cell_length_c                   9.0389(18)
_cell_angle_alpha                90.00
_cell_angle_beta                 90.00
_cell_angle_gamma                90.00
_cell_volume                     10154(4)
_cell_formula_units_Z            4
_cell_measurement_temperature    293(2)
_cell_measurement_reflns_used    ?
_cell_measurement_theta_min      ?
_cell_measurement_theta_max      ?

_exptl_crystal_description       rod
_exptl_crystal_colour            colorless
_exptl_crystal_size_max          0.45
_exptl_crystal_size_mid          0.20
_exptl_crystal_size_min          0.16
_exptl_crystal_density_meas      ?
_exptl_crystal_density_diffrn    0.740
_exptl_crystal_density_method    'not measured'
_exptl_crystal_F_000             2224
_exptl_absorpt_coefficient_mu    0.651
_exptl_absorpt_correction_type   none
_exptl_absorpt_correction_T_min  ?
_exptl_absorpt_correction_T_max  ?
_exptl_absorpt_process_details   ?

_exptl_special_details           
;
?
;

_diffrn_ambient_temperature      293(2)
_diffrn_radiation_wavelength     0.71073
_diffrn_radiation_type           MoK\a
_diffrn_radiation_source         'fine-focus sealed tube'
_diffrn_radiation_monochromator  graphite
_diffrn_measurement_device_type  'CCD area detector'
_diffrn_measurement_method       'phi and omega scans'
_diffrn_detector_area_resol_mean 6.00cm
_diffrn_standards_number         none
_diffrn_standards_interval_count none
_diffrn_standards_interval_time  none
_diffrn_standards_decay_%        none
_diffrn_reflns_number            49999
_diffrn_reflns_av_R_equivalents  0.0493
_diffrn_reflns_av_sigmaI/netI    0.0369
_diffrn_reflns_limit_h_min       -29
_diffrn_reflns_limit_h_max       27
_diffrn_reflns_limit_k_min       -47
_diffrn_reflns_limit_k_max       54
_diffrn_reflns_limit_l_min       -10
_diffrn_reflns_limit_l_max       10
_diffrn_reflns_theta_min         2.37
_diffrn_reflns_theta_max         25.00
_reflns_number_total             8704
_reflns_number_gt                6608
_reflns_threshold_expression     >2sigma(I)

_computing_data_collection       'Bruker SMART'
_computing_cell_refinement       'Bruker SMART'
_computing_data_reduction        'Bruker SAINT'
_computing_structure_solution    'SHELXS-97 (Sheldrick, 1990)'
_computing_structure_refinement  'SHELXL-97 (Sheldrick, 1997)'
_computing_molecular_graphics    SHELXP-97
_computing_publication_material  SHELXTL

_refine_special_details          
;
Refinement of F^2^ against ALL reflections. The weighted R-factor wR and
goodness of fit S are based on F^2^, conventional R-factors R are based
on F, with F set to zero for negative F^2^. The threshold expression of
F^2^ > 2sigma(F^2^) is used only for calculating R-factors(gt) etc. and is
not relevant to the choice of reflections for refinement. R-factors based
on F^2^ are statistically about twice as large as those based on F, and R-
factors based on ALL data will be even larger.
;

_refine_ls_structure_factor_coef Fsqd
_refine_ls_matrix_type           full
_refine_ls_weighting_scheme      calc
_refine_ls_weighting_details     
'calc w=1/[\s^2^(Fo^2^)+(0.2029P)^2^+0.0000P] where P=(Fo^2^+2Fc^2^)/3'
_atom_sites_solution_primary     direct
_atom_sites_solution_secondary   difmap
_atom_sites_solution_hydrogens   geom
_refine_ls_hydrogen_treatment    constr
_refine_ls_extinction_method     none
_refine_ls_extinction_coef       ?
_refine_ls_number_reflns         8704
_refine_ls_number_parameters     308
_refine_ls_number_restraints     67
_refine_ls_R_factor_all          0.0945
_refine_ls_R_factor_gt           0.0727
_refine_ls_wR_factor_ref         0.2621
_refine_ls_wR_factor_gt          0.2326
_refine_ls_goodness_of_fit_ref   1.027
_refine_ls_restrained_S_all      1.046
_refine_ls_shift/su_max          0.094
_refine_ls_shift/su_mean         0.002

loop_
_atom_site_label
_atom_site_type_symbol
_atom_site_fract_x
_atom_site_fract_y
_atom_site_fract_z
_atom_site_U_iso_or_equiv
_atom_site_adp_type
_atom_site_occupancy
_atom_site_symmetry_multiplicity
_atom_site_calc_flag
_atom_site_refinement_flags
_atom_site_disorder_assembly
_atom_site_disorder_group
Cd1 Cd 0.462872(9) 0.149153(5) 1.08588(2) 0.04344(7) Uani 1 1 d . . .
Cd2 Cd 0.5000 0.186753(6) 0.7500 0.04124(8) Uani 1 2 d S . .
N1 N 0.4180(5) 0.2683(2) 0.8951(11) 0.119(3) Uani 0.50 1 d PU . .
O1 O 0.50731(9) 0.19546(5) 1.0172(2) 0.0484(6) Uani 1 1 d . . .
O2 O 0.55144(9) 0.16607(5) 1.1704(2) 0.0476(6) Uani 1 1 d . . .
O3 O 0.88629(10) 0.33396(6) 1.0039(3) 0.0679(8) Uani 1 1 d . . .
O4 O 0.91052(10) 0.31491(7) 1.2185(3) 0.0773(9) Uani 1 1 d . . .
O5 O 0.50869(10) 0.13838(4) 0.8686(2) 0.0507(6) Uani 1 1 d . . .
O6 O 0.5400(2) -0.10520(10) 0.8239(6) 0.1584(17) Uani 1 1 d DU . .
O7 O 0.4798(2) 0.23559(10) 0.7734(5) 0.0651(16) Uani 0.50 1 d P . .
C1 C 0.54897(16) 0.18988(7) 1.0992(3) 0.0503(9) Uani 1 1 d . . .
C2 C 0.59225(14) 0.21144(7) 1.1136(3) 0.0474(9) Uani 1 1 d . . .
C3 C 0.58760(15) 0.23964(8) 1.0613(4) 0.0548(10) Uani 1 1 d . . .
H3 H 0.5546 0.2454 1.0195 0.066 Uiso 1 1 calc R . .
C4 C 0.62967(15) 0.25972(8) 1.0681(4) 0.0555(10) Uani 1 1 d . . .
H4 H 0.6252 0.2784 1.0301 0.067 Uiso 1 1 calc R . .
C5 C 0.67862(13) 0.25143(8) 1.1328(4) 0.0514(9) Uani 1 1 d . . .
C6 C 0.68383(14) 0.22358(8) 1.1854(4) 0.0616(10) Uani 1 1 d . . .
H6 H 0.7166 0.2181 1.2293 0.074 Uiso 1 1 calc R . .
C7 C 0.64259(15) 0.20361(8) 1.1757(4) 0.0620(11) Uani 1 1 d . . .
H7 H 0.6479 0.1847 1.2105 0.074 Uiso 1 1 calc R . .
C8 C 0.72615(14) 0.27208(7) 1.1371(4) 0.0513(9) Uani 1 1 d . . .
C9 C 0.73550(14) 0.29329(7) 1.0299(4) 0.0514(9) Uani 1 1 d . . .
H9 H 0.7091 0.2966 0.9579 0.062 Uiso 1 1 calc R . .
C10 C 0.78215(15) 0.30923(8) 1.0279(4) 0.0540(10) Uani 1 1 d . . .
H10 H 0.7869 0.3233 0.9549 0.065 Uiso 1 1 calc R . .
C11 C 0.82265(14) 0.30499(7) 1.1318(4) 0.0512(9) Uani 1 1 d . . .
C12 C 0.81295(15) 0.28507(9) 1.2460(4) 0.0693(11) Uani 1 1 d . . .
H12 H 0.8389 0.2826 1.3201 0.083 Uiso 1 1 calc R . .
C13 C 0.76628(16) 0.26934(9) 1.2499(4) 0.0672(11) Uani 1 1 d . . .
H13 H 0.7603 0.2565 1.3278 0.081 Uiso 1 1 calc R . .
C14 C 0.87815(14) 0.31911(8) 1.1182(4) 0.0537(10) Uani 1 1 d . . .
C15 C 0.5000 0.12489(10) 0.7500 0.0540(14) Uani 1 2 d S . .
C16 C 0.5000 0.09194(9) 0.7500 0.0637(17) Uani 1 2 d S . .
C17 C 0.47882(19) 0.07674(8) 0.6333(4) 0.0666(12) Uani 1 1 d . . .
H17 H 0.4658 0.0868 0.5514 0.080 Uiso 1 1 calc R . .
C18 C 0.4765(2) 0.04670(8) 0.6351(5) 0.0886(17) Uani 1 1 d . . .
H18 H 0.4591 0.0367 0.5589 0.106 Uiso 1 1 calc R . .
C19 C 0.5000 0.03143(14) 0.7500 0.091(2) Uani 1 2 d SU . .
C20 C 0.5000 -0.00122(14) 0.7500 0.092(2) Uani 1 2 d SDU . .
C21 C 0.5438(3) -0.01628(10) 0.7967(7) 0.1168(19) Uani 1 1 d DU . .
H21 H 0.5749 -0.0069 0.8316 0.140 Uiso 1 1 calc R . .
C22 C 0.5400(3) -0.04935(11) 0.7896(7) 0.141(2) Uani 1 1 d DU . .
H22 H 0.5719 -0.0587 0.8187 0.169 Uiso 1 1 calc R . .
C23 C 0.5000 -0.06799(13) 0.7500 0.1554(4) Uani 1 2 d SDU . .
C24 C 0.5000 -0.10201(13) 0.7500 0.105(2) Uani 1 2 d SDU . .
C25 C 0.4494(4) 0.24272(16) 0.8636(13) 0.094(3) Uani 0.50 1 d P . .
H25 H 0.4437 0.2282 0.9336 0.113 Uiso 0.50 1 calc PR . .
C26 C 0.4198(6) 0.2889(3) 0.7797(11) 0.152(4) Uani 0.50 1 d PDU . .
H26A H 0.3866 0.3000 0.7790 0.228 Uiso 0.50 1 calc PR . .
H26B H 0.4239 0.2790 0.6869 0.228 Uiso 0.50 1 calc PR . .
H26C H 0.4502 0.3018 0.7946 0.228 Uiso 0.50 1 calc PR . .
C27 C 0.3810(6) 0.2759(3) 0.9966(13) 0.152(4) Uani 0.50 1 d PDU . .
H27A H 0.3459 0.2777 0.9503 0.228 Uiso 0.50 1 calc PR . .
H27B H 0.3911 0.2941 1.0404 0.228 Uiso 0.50 1 calc PR . .
H27C H 0.3793 0.2611 1.0719 0.228 Uiso 0.50 1 calc PR . .

loop_
_atom_site_aniso_label
_atom_site_aniso_U_11
_atom_site_aniso_U_22
_atom_site_aniso_U_33
_atom_site_aniso_U_23
_atom_site_aniso_U_13
_atom_site_aniso_U_12
Cd1 0.04449(13) 0.05200(13) 0.03383(12) 0.00090(9) -0.00339(9) 0.00159(9)
Cd2 0.04261(16) 0.04415(15) 0.03697(15) 0.000 0.00180(13) 0.000
N1 0.130(5) 0.115(5) 0.113(5) -0.010(4) 0.002(4) -0.002(4)
O1 0.0470(12) 0.0591(12) 0.0393(11) -0.0028(10) -0.0004(10) -0.0041(10)
O2 0.0495(11) 0.0529(11) 0.0403(11) 0.0041(10) 0.0075(10) -0.0007(10)
O3 0.0435(12) 0.0864(16) 0.0739(15) 0.0076(15) 0.0155(12) -0.0170(12)
O4 0.0397(12) 0.134(2) 0.0582(14) -0.0092(15) -0.0145(11) -0.0225(14)
O5 0.0668(14) 0.0447(10) 0.0405(11) -0.0106(9) 0.0088(11) -0.0017(11)
O6 0.184(3) 0.140(3) 0.151(3) -0.007(2) 0.074(3) 0.004(2)
O7 0.090(4) 0.056(2) 0.049(3) -0.011(2) 0.020(3) 0.006(2)
C1 0.075(2) 0.0453(16) 0.0308(15) -0.0088(13) 0.0000(15) -0.0098(16)
C2 0.0561(18) 0.0502(17) 0.0359(15) 0.0048(13) -0.0032(14) -0.0075(15)
C3 0.0511(18) 0.0564(18) 0.0569(19) 0.0061(16) -0.0151(16) -0.0045(15)
C4 0.0527(19) 0.0476(17) 0.066(2) 0.0025(16) -0.0101(17) 0.0017(15)
C5 0.0470(17) 0.0628(18) 0.0445(16) -0.0006(15) -0.0033(15) -0.0150(15)
C6 0.0439(18) 0.076(2) 0.065(2) 0.0221(18) -0.0152(17) -0.0081(16)
C7 0.055(2) 0.062(2) 0.069(2) 0.0139(18) -0.0146(18) -0.0025(17)
C8 0.0459(17) 0.0664(19) 0.0416(16) 0.0030(15) -0.0017(14) -0.0123(15)
C9 0.0471(18) 0.0637(19) 0.0433(16) 0.0030(15) -0.0052(15) -0.0085(15)
C10 0.062(2) 0.0625(19) 0.0379(16) 0.0028(15) 0.0029(16) -0.0108(17)
C11 0.0452(17) 0.0608(18) 0.0476(17) -0.0074(15) 0.0059(14) -0.0117(15)
C12 0.0533(18) 0.099(3) 0.056(2) 0.0148(19) -0.0268(16) -0.0234(18)
C13 0.060(2) 0.083(2) 0.058(2) 0.0183(19) -0.0114(18) -0.0175(19)
C14 0.0451(17) 0.0677(19) 0.0481(17) -0.0150(15) 0.0130(14) -0.0167(15)
C15 0.075(3) 0.043(2) 0.043(2) 0.000 0.015(2) 0.000
C16 0.115(4) 0.032(2) 0.044(2) 0.000 0.004(3) 0.000
C17 0.100(3) 0.057(2) 0.0434(18) 0.0082(16) -0.009(2) -0.005(2)
C18 0.171(5) 0.0473(19) 0.048(2) -0.0087(17) 0.002(3) -0.004(3)
C19 0.132(4) 0.069(3) 0.071(3) 0.000 0.012(3) 0.000
C20 0.129(4) 0.074(3) 0.072(3) 0.000 0.026(3) 0.000
C21 0.168(4) 0.077(3) 0.104(3) 0.003(3) 0.014(3) 0.000(3)
C22 0.193(4) 0.122(3) 0.107(3) 0.023(3) 0.039(3) 0.050(3)
C23 0.1555(6) 0.1555(7) 0.1551(7) 0.000 0.0001(5) 0.000
C24 0.099(4) 0.141(4) 0.076(4) 0.000 0.015(3) 0.000
C25 0.109(6) 0.035(4) 0.139(7) 0.008(4) -0.068(5) -0.008(4)
C26 0.165(6) 0.151(6) 0.141(6) -0.008(5) 0.011(5) 0.016(5)
C27 0.150(6) 0.144(6) 0.162(6) -0.003(5) 0.003(5) 0.003(5)

_geom_special_details            
;
All esds (except the esd in the dihedral angle between two l.s. planes)
are estimated using the full covariance matrix. The cell esds are taken
into account individually in the estimation of esds in distances, angles
and torsion angles; correlations between esds in cell parameters are only
used when they are defined by crystal symmetry. An approximate (isotropic)
treatment of cell esds is used for estimating esds involving l.s. planes.
;

loop_
_geom_bond_atom_site_label_1
_geom_bond_atom_site_label_2
_geom_bond_distance
_geom_bond_site_symmetry_2
_geom_bond_publ_flag
Cd1 O6 2.175(5) 5_657 ?
Cd1 O3 2.186(2) 4_457 ?
Cd1 O5 2.315(2) . ?
Cd1 O2 2.361(2) 3_657 ?
Cd1 O2 2.428(2) . ?
Cd1 O1 2.466(2) . ?
Cd2 O4 2.212(2) 4_457 ?
Cd2 O4 2.212(2) 2_654 ?
Cd2 O7 2.303(5) 3_656 ?
Cd2 O7 2.303(5) . ?
Cd2 O1 2.455(2) 3_656 ?
Cd2 O1 2.455(2) . ?
Cd2 O5 2.473(2) . ?
Cd2 O5 2.473(2) 3_656 ?
N1 C27 1.336(16) . ?
N1 C25 1.431(14) . ?
N1 C26 1.408(15) . ?
O1 C1 1.287(4) . ?
O2 C1 1.269(4) . ?
O2 Cd1 2.361(2) 3_657 ?
O3 C14 1.254(4) . ?
O3 Cd1 2.186(2) 4_557 ?
O4 C14 1.220(4) . ?
O4 Cd2 2.212(2) 2_655 ?
O5 C15 1.256(3) . ?
O6 C24 1.196(5) . ?
O6 Cd1 2.175(5) 5_657 ?
O7 O7 1.077(10) 3_656 ?
O7 C25 1.152(12) . ?
C1 C2 1.455(5) . ?
C2 C3 1.381(5) . ?
C2 C7 1.402(5) . ?
C3 C4 1.383(5) . ?
C4 C5 1.387(5) . ?
C5 C6 1.369(5) . ?
C5 C8 1.501(5) . ?
C6 C7 1.366(5) . ?
C8 C9 1.392(5) . ?
C8 C13 1.422(5) . ?
C9 C10 1.357(5) . ?
C10 C11 1.380(5) . ?
C11 C12 1.398(5) . ?
C11 C14 1.511(5) . ?
C12 C13 1.352(5) . ?
C15 O5 1.256(3) 3_656 ?
C15 C16 1.511(6) . ?
C16 C17 1.366(4) . ?
C16 C17 1.366(4) 3_656 ?
C17 C18 1.379(5) . ?
C18 C19 1.378(6) . ?
C19 C18 1.378(6) 3_656 ?
C19 C20 1.497(9) . ?
C20 C21 1.344(6) . ?
C20 C21 1.344(6) 3_656 ?
C21 C22 1.520(7) . ?
C22 C23 1.348(7) . ?
C23 C22 1.348(7) 3_656 ?
C23 C24 1.560(8) . ?
C24 O6 1.196(5) 3_656 ?

loop_
_geom_angle_atom_site_label_1
_geom_angle_atom_site_label_2
_geom_angle_atom_site_label_3
_geom_angle
_geom_angle_site_symmetry_1
_geom_angle_site_symmetry_3
_geom_angle_publ_flag
O6 Cd1 O3 116.04(15) 5_657 4_457 ?
O6 Cd1 O5 97.82(14) 5_657 . ?
O3 Cd1 O5 100.19(9) 4_457 . ?
O6 Cd1 O2 87.13(15) 5_657 3_657 ?
O3 Cd1 O2 95.89(9) 4_457 3_657 ?
O5 Cd1 O2 158.95(8) . 3_657 ?
O6 Cd1 O2 101.97(14) 5_657 . ?
O3 Cd1 O2 140.44(9) 4_457 . ?
O5 Cd1 O2 84.37(8) . . ?
O2 Cd1 O2 74.58(9) 3_657 . ?
O6 Cd1 O1 155.06(14) 5_657 . ?
O3 Cd1 O1 88.89(9) 4_457 . ?
O5 Cd1 O1 75.89(7) . . ?
O2 Cd1 O1 91.00(7) 3_657 . ?
O2 Cd1 O1 53.80(7) . . ?
O4 Cd2 O4 176.05(16) 4_457 2_654 ?
O4 Cd2 O7 104.98(15) 4_457 3_656 ?
O4 Cd2 O7 78.97(15) 2_654 3_656 ?
O4 Cd2 O7 78.97(15) 4_457 . ?
O4 Cd2 O7 104.98(15) 2_654 . ?
O7 Cd2 O7 27.0(2) 3_656 . ?
O4 Cd2 O1 93.44(9) 4_457 3_656 ?
O4 Cd2 O1 87.20(8) 2_654 3_656 ?
O7 Cd2 O1 76.54(13) 3_656 3_656 ?
O7 Cd2 O1 85.20(13) . 3_656 ?
O4 Cd2 O1 87.20(9) 4_457 . ?
O4 Cd2 O1 93.44(9) 2_654 . ?
O7 Cd2 O1 85.20(13) 3_656 . ?
O7 Cd2 O1 76.54(13) . . ?
O1 Cd2 O1 161.28(11) 3_656 . ?
O4 Cd2 O5 89.91(10) 4_457 . ?
O4 Cd2 O5 86.54(10) 2_654 . ?
O7 Cd2 O5 153.30(14) 3_656 . ?
O7 Cd2 O5 148.30(13) . . ?
O1 Cd2 O5 125.37(7) 3_656 . ?
O1 Cd2 O5 73.32(7) . . ?
O4 Cd2 O5 86.54(10) 4_457 3_656 ?
O4 Cd2 O5 89.91(10) 2_654 3_656 ?
O7 Cd2 O5 148.30(13) 3_656 3_656 ?
O7 Cd2 O5 153.30(14) . 3_656 ?
O1 Cd2 O5 73.32(7) 3_656 3_656 ?
O1 Cd2 O5 125.37(7) . 3_656 ?
O5 Cd2 O5 52.48(10) . 3_656 ?
C27 N1 C25 135.6(11) . . ?
C27 N1 C26 110.9(11) . . ?
C25 N1 C26 112.7(10) . . ?
C1 O1 Cd2 126.3(2) . . ?
C1 O1 Cd1 91.95(19) . . ?
Cd2 O1 Cd1 94.32(8) . . ?
C1 O2 Cd1 138.50(19) . 3_657 ?
C1 O2 Cd1 94.2(2) . . ?
Cd1 O2 Cd1 93.21(8) 3_657 . ?
C14 O3 Cd1 129.4(2) . 4_557 ?
C14 O4 Cd2 138.2(2) . 2_655 ?
C15 O5 Cd1 138.34(16) . . ?
C15 O5 Cd2 93.3(2) . . ?
Cd1 O5 Cd2 97.74(8) . . ?
C24 O6 Cd1 107.2(4) . 5_657 ?
O7 O7 C25 150.8(8) 3_656 . ?
O7 O7 Cd2 76.48(12) 3_656 . ?
C25 O7 Cd2 118.7(5) . . ?
O2 C1 O1 120.1(3) . . ?
O2 C1 C2 120.3(3) . . ?
O1 C1 C2 119.6(3) . . ?
C3 C2 C7 116.7(3) . . ?
C3 C2 C1 123.0(3) . . ?
C7 C2 C1 120.2(3) . . ?
C2 C3 C4 123.1(3) . . ?
C5 C4 C3 118.7(3) . . ?
C4 C5 C6 118.9(3) . . ?
C4 C5 C8 120.6(3) . . ?
C6 C5 C8 120.5(3) . . ?
C7 C6 C5 122.3(3) . . ?
C6 C7 C2 120.3(3) . . ?
C9 C8 C13 116.5(3) . . ?
C9 C8 C5 123.4(3) . . ?
C13 C8 C5 120.0(3) . . ?
C10 C9 C8 121.7(3) . . ?
C9 C10 C11 121.4(3) . . ?
C12 C11 C10 118.2(3) . . ?
C12 C11 C14 119.5(3) . . ?
C10 C11 C14 122.1(3) . . ?
C11 C12 C13 120.8(3) . . ?
C12 C13 C8 121.3(3) . . ?
O4 C14 O3 126.5(3) . . ?
O4 C14 C11 117.2(3) . . ?
O3 C14 C11 116.3(3) . . ?
O5 C15 O5 121.0(4) 3_656 . ?
O5 C15 C16 119.5(2) 3_656 . ?
O5 C15 C16 119.5(2) . . ?
C17 C16 C17 118.7(4) . 3_656 ?
C17 C16 C15 120.7(2) . . ?
C17 C16 C15 120.7(2) 3_656 . ?
C18 C17 C16 121.1(4) . . ?
C17 C18 C19 119.9(4) . . ?
C18 C19 C18 119.0(6) 3_656 . ?
C18 C19 C20 120.5(3) 3_656 . ?
C18 C19 C20 120.5(3) . . ?
C21 C20 C21 118.1(6) . 3_656 ?
C21 C20 C19 120.9(3) . . ?
C21 C20 C19 120.9(3) 3_656 . ?
C20 C21 C22 116.8(6) . . ?
C23 C22 C21 133.5(6) . . ?
C22 C23 C22 101.3(7) 3_656 . ?
C22 C23 C24 129.3(3) 3_656 . ?
C22 C23 C24 129.3(3) . . ?
O6 C24 O6 165.9(8) 3_656 . ?
O6 C24 C23 97.0(4) 3_656 . ?
O6 C24 C23 97.0(4) . . ?
N1 C25 O7 136.1(9) . . ?

_diffrn_measured_fraction_theta_max 0.972
_diffrn_reflns_theta_full        25.00
_diffrn_measured_fraction_theta_full 0.972
_refine_diff_density_max         1.549
_refine_diff_density_min         -1.018
_refine_diff_density_rms         0.120


