####################################################################### 
# 
# This file contains crystal structure data downloaded from the 
# Cambridge Structural Database (CSD) hosted by the Cambridge 
# Crystallographic Data Centre (CCDC).
# 
# Full information about CCDC data access policies and citation 
# guidelines are available at http://www.ccdc.cam.ac.uk/access/V1 
# 
# Audit and citation data items may have been added by the CCDC. 
# Please retain this information to preserve the provenance of 
# this file and to allow appropriate attribution of the data. 
# 
#######################################################################

data_rap067f
_audit_block_doi                 10.5517/ccx6qng
_database_code_depnum_ccdc_archive 'CCDC 840616'
loop_
_citation_id
_citation_doi
_citation_year
1 10.1351/pac200678040855 2006
_audit_update_record             
;
2011-08-19 deposited with the CCDC.	2024-07-13 downloaded from the CCDC.
;
#TrackingRef 'XIHCEX_rap067f.cif'


_audit_creation_method           SHELXL
_chemical_name_systematic        
;
1,3,5-Tris(cyanomethyl)-2,4,6-trimethylbenzenesilver Trifluoromethanesulfonate
Benzene Solvate
;
_chemical_name_common            ?
_chemical_formula_moiety         'C15 H15 N3 Ag 1+, C F3 O3 S 1-, 1.5(C6 H6)'
_chemical_formula_structural     '((C15 H15 N3) (C6 H6)1.5 Ag)n (C F3 O3 S)n'
_chemical_formula_analytical     ?
_chemical_formula_sum            'C25 H24 Ag F3 N3 O3 S'
_chemical_formula_weight         611.40
_chemical_melting_point          ?
_chemical_compound_source        ?

loop_
_atom_type_symbol
_atom_type_description
_atom_type_scat_dispersion_real
_atom_type_scat_dispersion_imag
_atom_type_scat_source
C C 0.0033 0.0016 'International Tables Vol C Tables 4.2.6.8 and 6.1.1.4'
H H 0.0000 0.0000 'International Tables Vol C Tables 4.2.6.8 and 6.1.1.4'
N N 0.0061 0.0033 'International Tables Vol C Tables 4.2.6.8 and 6.1.1.4'
O O 0.0106 0.0060 'International Tables Vol C Tables 4.2.6.8 and 6.1.1.4'
F F 0.0171 0.0103 'International Tables Vol C Tables 4.2.6.8 and 6.1.1.4'
S S 0.1246 0.1234 'International Tables Vol C Tables 4.2.6.8 and 6.1.1.4'
Ag Ag -0.8971 1.1015 'International Tables Vol C Tables 4.2.6.8 and 6.1.1.4'

_symmetry_cell_setting           Monoclinic
_symmetry_space_group_name_H-M   'P 1 21/n 1'

loop_
_symmetry_equiv_pos_as_xyz
'x, y, z'
'-x+1/2, y+1/2, -z+1/2'
'-x, -y, -z'
'x-1/2, -y-1/2, z-1/2'

_cell_length_a                   15.1133(5)
_cell_length_b                   10.6803(3)
_cell_length_c                   17.2704(6)
_cell_angle_alpha                90.00
_cell_angle_beta                 108.896(1)
_cell_angle_gamma                90.00
_cell_volume                     2637.46(15)
_cell_formula_units_Z            4
_cell_measurement_temperature    200(2)
_cell_measurement_reflns_used    14954
_cell_measurement_theta_min      1.56
_cell_measurement_theta_max      27.46

_exptl_crystal_description       Plate
_exptl_crystal_colour            Colorless
_exptl_crystal_size_max          0.25
_exptl_crystal_size_mid          0.23
_exptl_crystal_size_min          0.12
_exptl_crystal_density_diffrn    1.540
_exptl_crystal_density_method    'not measured'
_exptl_crystal_density_meas      ?
_exptl_crystal_F_000             1236
_exptl_absorpt_coefficient_mu    0.896
_exptl_absorpt_correction_type   none
_exptl_absorpt_correction_T_min  ?
_exptl_absorpt_correction_T_max  ?

_exptl_special_details           
;
?
;

_diffrn_ambient_temperature      200(2)
_diffrn_radiation_wavelength     0.71073
_diffrn_radiation_type           'Mo K\a'
_diffrn_radiation_source         'fine-focus sealed tube'
_diffrn_radiation_monochromator  graphite
_diffrn_measurement_device       'Nonius KappaCCD'
_diffrn_measurement_method       '\w scans; 600 0.5\% rotations'
_diffrn_standards_number         0
_diffrn_standards_interval_count ?
_diffrn_standards_interval_time  ?
_diffrn_standards_decay_%        0
_diffrn_reflns_number            14954
_diffrn_reflns_av_R_equivalents  0.0380
_diffrn_reflns_av_sigmaI/netI    0.0413
_diffrn_reflns_limit_h_min       0
_diffrn_reflns_limit_h_max       19
_diffrn_reflns_limit_k_min       0
_diffrn_reflns_limit_k_max       13
_diffrn_reflns_limit_l_min       -22
_diffrn_reflns_limit_l_max       21
_diffrn_reflns_theta_min         1.56
_diffrn_reflns_theta_max         27.46
_reflns_number_total             6016
_reflns_number_observed          3978
_reflns_observed_criterion       I>2\s(I)

_computing_data_collection       'Nonius COLLECT'
_computing_cell_refinement       DENZO-SMN
_computing_data_reduction        DENZO-SMN
_computing_structure_solution    'Siemens SHELXTL'
_computing_structure_refinement  'Siemens SHELXTL'
_computing_molecular_graphics    'Siemens SHELXTL'
_computing_publication_material  'Siemens SHELXTL'

_refine_special_details          
;
Refinement on F^2^ for ALL reflections except for 0 with very negative F^2^
or flagged by the user for potential systematic errors. Weighted R-factors
wR and all goodnesses of fit S are based on F^2^, conventional R-factors R
are based on F, with F set to zero for negative F^2^. The observed criterion
of F^2^ > 2sigma(F^2^) is used only for calculating _R_factor_obs etc. and is
not relevant to the choice of reflections for refinement. R-factors based
on F^2^ are statistically about twice as large as those based on F, and R-
factors based on ALL data will be even larger.
;

_refine_ls_structure_factor_coef Fsqd
_refine_ls_matrix_type           full
_refine_ls_weighting_scheme      calc
_refine_ls_weighting_details     
'w=1/[\s^2^(Fo^2^)+(0.0513P)^2^+1.5058P] where P=(Fo^2^+2Fc^2^)/3'
_atom_sites_solution_primary     direct
_atom_sites_solution_secondary   difmap
_atom_sites_solution_hydrogens   geom
_refine_ls_hydrogen_treatment    constr
_refine_ls_extinction_method     none
_refine_ls_extinction_coef       ?
_refine_ls_number_reflns         6016
_refine_ls_number_parameters     328
_refine_ls_number_restraints     0
_refine_ls_R_factor_all          0.0714
_refine_ls_R_factor_obs          0.0404
_refine_ls_wR_factor_all         0.1153
_refine_ls_wR_factor_obs         0.0981
_refine_ls_goodness_of_fit_all   1.021
_refine_ls_goodness_of_fit_obs   1.084
_refine_ls_restrained_S_all      1.021
_refine_ls_restrained_S_obs      1.084
_refine_ls_shift/esd_max         0.001
_refine_ls_shift/esd_mean        0.000

loop_
_atom_site_label
_atom_site_type_symbol
_atom_site_fract_x
_atom_site_fract_y
_atom_site_fract_z
_atom_site_U_iso_or_equiv
_atom_site_thermal_displace_type
_atom_site_occupancy
_atom_site_calc_flag
_atom_site_refinement_flags
_atom_site_disorder_group
Ag1 Ag 0.02830(2) 0.74565(2) 0.62151(2) 0.05845(12) Uani 1 d . .
N1 N 0.1583(2) 0.7190(2) 0.5986(2) 0.0495(7) Uani 1 d . .
N2 N 0.4906(2) 1.1644(3) 0.7627(2) 0.0583(7) Uani 1 d . .
N3 N 0.1099(2) 1.1573(2) 0.4104(2) 0.0525(7) Uani 1 d . .
C1 C 0.3449(2) 0.8153(2) 0.5476(2) 0.0395(7) Uani 1 d . .
C2 C 0.4233(2) 0.8696(2) 0.6052(2) 0.0368(6) Uani 1 d . .
C3 C 0.4496(2) 0.9906(2) 0.5902(2) 0.0333(6) Uani 1 d . .
C4 C 0.3963(2) 1.0603(2) 0.5233(2) 0.0333(6) Uani 1 d . .
C5 C 0.3196(2) 1.0030(3) 0.4654(2) 0.0361(6) Uani 1 d . .
C6 C 0.2938(2) 0.8796(3) 0.4769(2) 0.0390(6) Uani 1 d . .
C7 C 0.3119(2) 0.6864(3) 0.5643(2) 0.0506(8) Uani 1 d . .
H7A H 0.3004(2) 0.6325(3) 0.5153(2) 0.061 Uiso 1 calc R .
H7B H 0.3604(2) 0.6462(3) 0.6105(2) 0.061 Uiso 1 calc R .
C8 C 0.2249(2) 0.7013(3) 0.5844(2) 0.0436(7) Uani 1 d . .
C9 C 0.4773(3) 0.8014(3) 0.6830(2) 0.0533(8) Uani 1 d . .
H9A H 0.5110(13) 0.8623(3) 0.7245(5) 0.080 Uiso 1 calc R .
H9B H 0.5220(11) 0.7438(16) 0.6717(4) 0.080 Uiso 1 calc R .
H9C H 0.4337(3) 0.7540(17) 0.7032(8) 0.080 Uiso 1 calc R .
C10 C 0.5372(2) 1.0498(3) 0.6497(2) 0.0404(6) Uani 1 d . .
H10A H 0.5839(2) 0.9838(3) 0.6741(2) 0.049 Uiso 1 calc R .
H10B H 0.5649(2) 1.1091(3) 0.6200(2) 0.049 Uiso 1 calc R .
C11 C 0.5137(2) 1.1158(3) 0.7143(2) 0.0426(7) Uani 1 d . .
C12 C 0.4190(2) 1.1967(3) 0.5154(2) 0.0460(7) Uani 1 d . .
H12A H 0.4417(16) 1.2349(6) 0.5698(2) 0.069 Uiso 1 calc R .
H12B H 0.3626(4) 1.2405(5) 0.4820(12) 0.069 Uiso 1 calc R .
H12C H 0.4674(12) 1.2030(3) 0.4891(13) 0.069 Uiso 1 calc R .
C13 C 0.2626(2) 1.0746(3) 0.3898(2) 0.0474(7) Uani 1 d . .
H13A H 0.3001(2) 1.1452(3) 0.3800(2) 0.057 Uiso 1 calc R .
H13B H 0.2468(2) 1.0186(3) 0.3416(2) 0.057 Uiso 1 calc R .
C14 C 0.1763(2) 1.1230(3) 0.4002(2) 0.0436(7) Uani 1 d . .
C15 C 0.2096(2) 0.8210(3) 0.4142(2) 0.0531(8) Uani 1 d . .
H15A H 0.2114(8) 0.8386(18) 0.3591(2) 0.080 Uiso 1 calc R .
H15B H 0.1523(2) 0.8561(16) 0.4202(9) 0.080 Uiso 1 calc R .
H15C H 0.2106(9) 0.7302(4) 0.4228(9) 0.080 Uiso 1 calc R .
S1 S 0.27127(6) 0.45903(7) 0.34656(5) 0.0438(2) Uani 1 d . .
O1 O 0.2046(2) 0.5483(2) 0.3003(2) 0.0698(7) Uani 1 d . .
O2 O 0.2797(2) 0.3482(2) 0.3038(2) 0.0902(10) Uani 1 d . .
O3 O 0.2700(2) 0.4411(2) 0.42778(14) 0.0619(6) Uani 1 d . .
C16 C 0.3828(2) 0.5375(3) 0.3623(2) 0.0504(8) Uani 1 d . .
F1 F 0.45426(15) 0.4684(2) 0.4059(2) 0.0843(7) Uani 1 d . .
F2 F 0.38686(14) 0.6440(2) 0.4022(2) 0.0804(7) Uani 1 d . .
F3 F 0.3973(2) 0.5633(3) 0.29263(14) 0.0896(8) Uani 1 d . .
C1S C 0.1103(5) 0.9770(5) 0.7382(5) 0.109(2) Uani 1 d . .
H1S H 0.0683(5) 0.9510(5) 0.7658(5) 0.131 Uiso 1 calc R .
C2S C 0.0799(4) 1.0410(6) 0.6665(6) 0.118(3) Uani 1 d . .
H2S H 0.0157(4) 1.0622(6) 0.6428(6) 0.142 Uiso 1 calc R .
C3S C 0.1434(6) 1.0745(5) 0.6286(4) 0.111(2) Uani 1 d . .
H3S H 0.1232(6) 1.1182(5) 0.5780(4) 0.133 Uiso 1 calc R .
C4S C 0.2325(5) 1.0457(5) 0.6628(5) 0.099(2) Uani 1 d . .
H4S H 0.2758(5) 1.0693(5) 0.6360(5) 0.119 Uiso 1 calc R .
C5S C 0.2623(4) 0.9868(5) 0.7313(4) 0.097(2) Uani 1 d . .
H5S H 0.3271(4) 0.9688(5) 0.7545(4) 0.116 Uiso 1 calc R .
C6S C 0.2046(6) 0.9513(5) 0.7695(3) 0.107(2) Uani 1 d . .
H6S H 0.2281(6) 0.9070(5) 0.8197(3) 0.128 Uiso 1 calc R .
C7S C -0.0473(4) 0.4858(5) 0.5548(3) 0.0850(15) Uani 1 d . .
H7S H -0.0798(4) 0.4757(5) 0.5931(3) 0.102 Uiso 1 calc R .
C8S C -0.0785(3) 0.5672(5) 0.4926(4) 0.0855(15) Uani 1 d . .
H8S H -0.1335(3) 0.6145(5) 0.4869(4) 0.103 Uiso 1 calc R .
C9S C -0.0317(4) 0.5826(4) 0.4377(3) 0.0898(15) Uani 1 d . .
H9S H -0.0541(4) 0.6408(4) 0.3941(3) 0.108 Uiso 1 calc R .

loop_
_atom_site_aniso_label
_atom_site_aniso_U_11
_atom_site_aniso_U_22
_atom_site_aniso_U_33
_atom_site_aniso_U_23
_atom_site_aniso_U_13
_atom_site_aniso_U_12
Ag1 0.0483(2) 0.0749(2) 0.0622(2) 0.01562(13) 0.03180(14) 0.01181(13)
N1 0.047(2) 0.0524(15) 0.057(2) -0.0039(12) 0.0276(14) -0.0076(12)
N2 0.057(2) 0.070(2) 0.050(2) -0.0179(14) 0.0208(14) -0.0048(14)
N3 0.042(2) 0.057(2) 0.055(2) 0.0021(13) 0.0114(13) 0.0053(13)
C1 0.040(2) 0.0336(14) 0.053(2) -0.0065(13) 0.0256(14) -0.0009(12)
C2 0.037(2) 0.0392(14) 0.039(2) 0.0009(12) 0.0179(13) 0.0062(12)
C3 0.0278(13) 0.0396(14) 0.0350(15) -0.0058(11) 0.0135(11) 0.0005(11)
C4 0.0290(14) 0.0389(14) 0.0349(15) 0.0000(11) 0.0145(11) 0.0008(11)
C5 0.0302(14) 0.048(2) 0.0319(14) -0.0032(12) 0.0132(12) 0.0016(12)
C6 0.0331(15) 0.0450(15) 0.043(2) -0.0126(13) 0.0180(13) -0.0028(12)
C7 0.052(2) 0.040(2) 0.070(2) -0.005(2) 0.034(2) -0.0042(14)
C8 0.049(2) 0.0352(14) 0.051(2) -0.0049(13) 0.023(2) -0.0096(13)
C9 0.060(2) 0.048(2) 0.054(2) 0.009(2) 0.021(2) 0.008(2)
C10 0.0290(14) 0.052(2) 0.039(2) -0.0062(13) 0.0096(12) -0.0001(12)
C11 0.035(2) 0.051(2) 0.039(2) -0.0059(14) 0.0080(13) -0.0068(13)
C12 0.048(2) 0.0414(15) 0.053(2) 0.0029(14) 0.022(2) -0.0044(14)
C13 0.037(2) 0.064(2) 0.041(2) 0.0053(14) 0.0111(13) -0.0006(14)
C14 0.037(2) 0.052(2) 0.036(2) 0.0016(13) 0.0038(13) -0.0011(14)
C15 0.040(2) 0.064(2) 0.054(2) -0.020(2) 0.014(2) -0.013(2)
S1 0.0497(5) 0.0394(4) 0.0414(4) -0.0044(3) 0.0134(3) -0.0097(3)
O1 0.0492(14) 0.069(2) 0.072(2) 0.0192(13) -0.0079(12) -0.0135(12)
O2 0.117(2) 0.064(2) 0.110(2) -0.049(2) 0.066(2) -0.035(2)
O3 0.0568(15) 0.076(2) 0.0536(15) 0.0094(12) 0.0198(12) -0.0014(12)
C16 0.046(2) 0.060(2) 0.045(2) -0.007(2) 0.015(2) -0.005(2)
F1 0.0491(13) 0.109(2) 0.089(2) 0.0061(14) 0.0139(12) 0.0184(12)
F2 0.0602(13) 0.0708(13) 0.111(2) -0.0413(13) 0.0294(13) -0.0295(11)
F3 0.076(2) 0.137(2) 0.0631(14) 0.0031(14) 0.0317(12) -0.0396(15)
C1S 0.129(5) 0.079(3) 0.165(6) -0.065(4) 0.110(5) -0.052(4)
C2S 0.050(3) 0.090(4) 0.191(7) -0.057(4) 0.006(4) 0.011(3)
C3S 0.145(6) 0.081(3) 0.094(4) 0.003(3) 0.021(4) 0.021(4)
C4S 0.103(4) 0.089(3) 0.135(5) -0.026(4) 0.078(4) -0.018(3)
C5S 0.069(3) 0.106(4) 0.106(4) -0.020(3) 0.017(3) 0.000(3)
C6S 0.158(6) 0.090(4) 0.066(3) -0.011(3) 0.026(4) -0.011(4)
C7S 0.076(3) 0.107(4) 0.083(3) -0.053(3) 0.042(3) -0.046(3)
C8S 0.050(2) 0.081(3) 0.118(4) -0.055(3) 0.018(3) -0.009(2)
C9S 0.096(4) 0.073(3) 0.082(3) -0.014(2) 0.003(3) -0.029(3)

_geom_special_details            
;
All esds (except the esd in the dihedral angle between two l.s. planes)
are estimated using the full covariance matrix. The cell esds are taken
into account individually in the estimation of esds in distances, angles
and torsion angles; correlations between esds in cell parameters are only
used when they are defined by crystal symmetry. An approximate (isotropic)
treatment of cell esds is used for estimating esds involving l.s. planes.
;

loop_
_geom_bond_atom_site_label_1
_geom_bond_atom_site_label_2
_geom_bond_distance
_geom_bond_site_symmetry_2
_geom_bond_publ_flag
Ag1 N1 2.144(3) . yes
Ag1 N3 2.234(3) 3_576 yes
Ag1 N2 2.280(3) 2_546 yes
N1 C8 1.127(4) . yes
N2 C11 1.133(4) . yes
N2 Ag1 2.280(3) 2_556 yes
N3 C14 1.136(4) . yes
N3 Ag1 2.234(3) 3_576 yes
C1 C6 1.396(4) . yes
C1 C2 1.402(4) . yes
C1 C7 1.523(4) . yes
C2 C3 1.401(4) . yes
C2 C9 1.515(4) . yes
C3 C4 1.391(4) . yes
C3 C10 1.525(4) . yes
C4 C5 1.402(4) . yes
C4 C12 1.513(4) . yes
C5 C6 1.405(4) . yes
C5 C13 1.519(4) . yes
C6 C15 1.514(4) . yes
C7 C8 1.473(4) . yes
C7 H7A 0.99 . ?
C7 H7B 0.99 . ?
C9 H9A 0.98 . ?
C9 H9B 0.98 . ?
C9 H9C 0.98 . ?
C10 C11 1.456(4) . yes
C10 H10A 0.99 . ?
C10 H10B 0.99 . ?
C12 H12A 0.98 . ?
C12 H12B 0.98 . ?
C12 H12C 0.98 . ?
C13 C14 1.466(4) . yes
C13 H13A 0.99 . ?
C13 H13B 0.99 . ?
C15 H15A 0.98 . ?
C15 H15B 0.98 . ?
C15 H15C 0.98 . ?
S1 O3 1.422(2) . yes
S1 O2 1.423(2) . yes
S1 O1 1.428(2) . yes
S1 C16 1.822(3) . yes
C16 F3 1.321(4) . yes
C16 F2 1.321(4) . yes
C16 F1 1.323(4) . yes
C1S C2S 1.359(9) . yes
C1S C6S 1.378(8) . yes
C1S H1S 0.95 . ?
C2S C3S 1.371(9) . yes
C2S H2S 0.95 . ?
C3S C4S 1.320(8) . yes
C3S H3S 0.95 . ?
C4S C5S 1.286(7) . yes
C4S H4S 0.95 . ?
C5S C6S 1.309(8) . yes
C5S H5S 0.95 . ?
C6S H6S 0.95 . ?
C7S C8S 1.342(7) . yes
C7S C9S 1.371(7) 3_566 yes
C7S H7S 0.95 . ?
C8S C9S 1.363(7) . yes
C8S H8S 0.95 . ?
C9S C7S 1.371(7) 3_566 yes
C9S H9S 0.95 . ?

loop_
_geom_angle_atom_site_label_1
_geom_angle_atom_site_label_2
_geom_angle_atom_site_label_3
_geom_angle
_geom_angle_site_symmetry_1
_geom_angle_site_symmetry_3
_geom_angle_publ_flag
N1 Ag1 N3 148.69(11) . 3_576 yes
N1 Ag1 N2 119.57(11) . 2_546 yes
N3 Ag1 N2 91.19(10) 3_576 2_546 yes
C8 N1 Ag1 177.2(3) . . yes
C11 N2 Ag1 168.2(3) . 2_556 yes
C14 N3 Ag1 156.1(3) . 3_576 yes
C6 C1 C2 121.2(2) . . yes
C6 C1 C7 119.2(3) . . yes
C2 C1 C7 119.6(3) . . yes
C3 C2 C1 118.5(3) . . yes
C3 C2 C9 120.3(3) . . yes
C1 C2 C9 121.3(3) . . yes
C4 C3 C2 121.6(2) . . yes
C4 C3 C10 118.8(2) . . yes
C2 C3 C10 119.6(2) . . yes
C3 C4 C5 118.7(2) . . yes
C3 C4 C12 120.2(2) . . yes
C5 C4 C12 121.0(2) . . yes
C4 C5 C6 120.8(3) . . yes
C4 C5 C13 120.0(2) . . yes
C6 C5 C13 119.2(3) . . yes
C1 C6 C5 119.0(2) . . yes
C1 C6 C15 121.3(3) . . yes
C5 C6 C15 119.7(3) . . yes
C8 C7 C1 108.6(2) . . yes
C8 C7 H7A 110.0(2) . . ?
C1 C7 H7A 110.0(2) . . ?
C8 C7 H7B 110.0(2) . . ?
C1 C7 H7B 110.0(2) . . ?
H7A C7 H7B 108.4 . . ?
N1 C8 C7 176.4(3) . . yes
C2 C9 H9A 109.5(2) . . ?
C2 C9 H9B 109.5(2) . . ?
H9A C9 H9B 109.5 . . ?
C2 C9 H9C 109.5(2) . . ?
H9A C9 H9C 109.5 . . ?
H9B C9 H9C 109.5 . . ?
C11 C10 C3 110.1(2) . . yes
C11 C10 H10A 109.6(2) . . ?
C3 C10 H10A 109.64(15) . . ?
C11 C10 H10B 109.6(2) . . ?
C3 C10 H10B 109.6(2) . . ?
H10A C10 H10B 108.2 . . ?
N2 C11 C10 176.2(3) . . yes
C4 C12 H12A 109.5(2) . . ?
C4 C12 H12B 109.5(2) . . ?
H12A C12 H12B 109.5 . . ?
C4 C12 H12C 109.5(2) . . ?
H12A C12 H12C 109.5 . . ?
H12B C12 H12C 109.5 . . ?
C14 C13 C5 110.6(3) . . yes
C14 C13 H13A 109.5(2) . . ?
C5 C13 H13A 109.5(2) . . ?
C14 C13 H13B 109.5(2) . . ?
C5 C13 H13B 109.5(2) . . ?
H13A C13 H13B 108.1 . . ?
N3 C14 C13 177.5(3) . . yes
C6 C15 H15A 109.5(2) . . ?
C6 C15 H15B 109.5(2) . . ?
H15A C15 H15B 109.5 . . ?
C6 C15 H15C 109.5(2) . . ?
H15A C15 H15C 109.5 . . ?
H15B C15 H15C 109.5 . . ?
O3 S1 O2 115.6(2) . . yes
O3 S1 O1 114.2(2) . . yes
O2 S1 O1 115.5(2) . . yes
O3 S1 C16 102.80(15) . . yes
O2 S1 C16 103.1(2) . . yes
O1 S1 C16 103.14(15) . . yes
F3 C16 F2 107.6(3) . . yes
F3 C16 F1 106.8(3) . . yes
F2 C16 F1 107.0(3) . . yes
F3 C16 S1 112.2(2) . . yes
F2 C16 S1 111.0(2) . . yes
F1 C16 S1 112.0(2) . . yes
C2S C1S C6S 117.3(5) . . yes
C2S C1S H1S 121.4(4) . . ?
C6S C1S H1S 121.4(4) . . ?
C1S C2S C3S 119.0(5) . . yes
C1S C2S H2S 120.5(4) . . ?
C3S C2S H2S 120.5(4) . . ?
C4S C3S C2S 119.7(6) . . yes
C4S C3S H3S 120.1(4) . . ?
C2S C3S H3S 120.1(4) . . ?
C5S C4S C3S 121.9(6) . . yes
C5S C4S H4S 119.0(4) . . ?
C3S C4S H4S 119.0(4) . . ?
C4S C5S C6S 120.9(6) . . yes
C4S C5S H5S 119.6(4) . . ?
C6S C5S H5S 119.6(4) . . ?
C5S C6S C1S 121.3(6) . . yes
C5S C6S H6S 119.4(4) . . ?
C1S C6S H6S 119.4(4) . . ?
C8S C7S C9S 119.3(5) . 3_566 yes
C8S C7S H7S 120.3(3) . . ?
C9S C7S H7S 120.3(4) 3_566 . ?
C7S C8S C9S 120.5(4) . . yes
C7S C8S H8S 119.7(3) . . ?
C9S C8S H8S 119.7(4) . . ?
C8S C9S C7S 120.1(5) . 3_566 yes
C8S C9S H9S 119.9(4) . . ?
C7S C9S H9S 119.9(4) 3_566 . ?

loop_
_geom_torsion_atom_site_label_1
_geom_torsion_atom_site_label_2
_geom_torsion_atom_site_label_3
_geom_torsion_atom_site_label_4
_geom_torsion
_geom_torsion_site_symmetry_1
_geom_torsion_site_symmetry_2
_geom_torsion_site_symmetry_3
_geom_torsion_site_symmetry_4
_geom_torsion_publ_flag
N3 Ag1 N1 C8 -90.