####################################################################### 
# 
# This file contains crystal structure data downloaded from the 
# Cambridge Structural Database (CSD) hosted by the Cambridge 
# Crystallographic Data Centre (CCDC).
# 
# Full information about CCDC data access policies and citation 
# guidelines are available at http://www.ccdc.cam.ac.uk/access/V1 
# 
# Audit and citation data items may have been added by the CCDC. 
# Please retain this information to preserve the provenance of 
# this file and to allow appropriate attribution of the data. 
# 
#######################################################################

data_CZJ_1_Ti
_audit_block_doi                 10.5517/cc1008s2
_database_code_depnum_ccdc_archive 'CCDC 923793'
loop_
_citation_id
_citation_doi
_citation_year
1 10.1002/chem.201302025 2013
_audit_update_record             
;
2013-02-07 deposited with the CCDC.	2024-07-13 downloaded from the CCDC.
;
#TrackingRef 'CZJ_1_Ti.cif'


_audit_creation_method           SHELXL-97
_chemical_name_systematic        
;
?
;
_chemical_name_common            ?
_chemical_melting_point          ?
_chemical_formula_moiety         ?
_chemical_formula_sum            'C72 H37.50 Mn N8 O14.50 Ti0.50 Zn2'
_chemical_formula_weight         1456.23

loop_
_atom_type_symbol
_atom_type_description
_atom_type_scat_dispersion_real
_atom_type_scat_dispersion_imag
_atom_type_scat_source
C C 0.0181 0.0091 'International Tables Vol C Tables 4.2.6.8 and 6.1.1.4'
H H 0.0000 0.0000 'International Tables Vol C Tables 4.2.6.8 and 6.1.1.4'
N N 0.0311 0.0180 'International Tables Vol C Tables 4.2.6.8 and 6.1.1.4'
O O 0.0492 0.0322 'International Tables Vol C Tables 4.2.6.8 and 6.1.1.4'
Ti Ti 0.2191 1.8069 'International Tables Vol C Tables 4.2.6.8 and 6.1.1.4'
Mn Mn -0.5299 2.8052 'International Tables Vol C Tables 4.2.6.8 and 6.1.1.4'
Zn Zn -1.5491 0.6778 'International Tables Vol C Tables 4.2.6.8 and 6.1.1.4'

_symmetry_cell_setting           Monoclinic
_symmetry_space_group_name_H-M   C2/m

loop_
_symmetry_equiv_pos_as_xyz
'x, y, z'
'-x, y, -z'
'x+1/2, y+1/2, z'
'-x+1/2, y+1/2, -z'
'-x, -y, -z'
'x, -y, z'
'-x+1/2, -y+1/2, -z'
'x+1/2, -y+1/2, z'

_cell_length_a                   22.136(4)
_cell_length_b                   16.647(4)
_cell_length_c                   16.551(3)
_cell_angle_alpha                90.00
_cell_angle_beta                 114.63(2)
_cell_angle_gamma                90.00
_cell_volume                     5543.9(19)
_cell_formula_units_Z            2
_cell_measurement_temperature    293(2)
_cell_measurement_reflns_used    9544
_cell_measurement_theta_min      3.45
_cell_measurement_theta_max      51.50

_exptl_crystal_description       block
_exptl_crystal_colour            brown
_exptl_crystal_size_max          0.46
_exptl_crystal_size_mid          0.17
_exptl_crystal_size_min          0.09
_exptl_crystal_density_meas      ?
_exptl_crystal_density_diffrn    0.872
_exptl_crystal_density_method    'not measured'
_exptl_crystal_F_000             1475
_exptl_absorpt_coefficient_mu    2.071
_exptl_absorpt_correction_type   empirical
_exptl_absorpt_correction_T_min  0.688
_exptl_absorpt_correction_T_max  0.830
_exptl_absorpt_process_details   CrysAlisPro

_exptl_special_details           
;
?
;

_diffrn_ambient_temperature      293(2)
_diffrn_radiation_wavelength     1.54178
_diffrn_radiation_type           CuK\a
_diffrn_radiation_source         'fine-focus sealed tube'
_diffrn_radiation_monochromator  graphite
_diffrn_measurement_device_type  'Xcalibur, Atlas, Gemini ultra'
_diffrn_measurement_method       '\w scans'
_diffrn_detector_area_resol_mean 10.3592
_diffrn_standards_number         none
_diffrn_standards_interval_count none
_diffrn_standards_interval_time  none
_diffrn_standards_decay_%        ?
_diffrn_reflns_number            9544
_diffrn_reflns_av_R_equivalents  0.1343
_diffrn_reflns_av_sigmaI/netI    0.0957
_diffrn_reflns_limit_h_min       -22
_diffrn_reflns_limit_h_max       21
_diffrn_reflns_limit_k_min       -16
_diffrn_reflns_limit_k_max       16
_diffrn_reflns_limit_l_min       -16
_diffrn_reflns_limit_l_max       16
_diffrn_reflns_theta_min         3.45
_diffrn_reflns_theta_max         51.50
_reflns_number_total             3112
_reflns_number_gt                1745
_reflns_threshold_expression     >2sigma(I)

_computing_data_collection       'CrysAlisPro (Oxford Diffraction Ltd., 2010)'
_computing_cell_refinement       'CrysAlisPro (Oxford Diffraction Ltd., 2010)'
_computing_data_reduction        'CrysAlisPro (Oxford Diffraction Ltd., 2010)'
_computing_structure_solution    'SHELXS-97 (Sheldrick, 1990)'
_computing_structure_refinement  'SHELXL-97 (Sheldrick, 1997)'
_computing_molecular_graphics    ?
_computing_publication_material  ?

_refine_special_details          
;
Refinement of F^2^ against ALL reflections. The weighted R-factor wR and
goodness of fit S are based on F^2^, conventional R-factors R are based
on F, with F set to zero for negative F^2^. The threshold expression of
F^2^ > 2sigma(F^2^) is used only for calculating R-factors(gt) etc. and is
not relevant to the choice of reflections for refinement. R-factors based
on F^2^ are statistically about twice as large as those based on F, and R-
factors based on ALL data will be even larger.
;

# SQUEEZE RESULTS (APPEND TO CIF)
# Note: Data are Listed for all Voids in the P1 Unit Cell
# i.e. Centre of Gravity, Solvent Accessible Volume,
# Recovered number of Electrons in the Void and
# Details about the Squeezed Material
loop_
_platon_squeeze_void_nr
_platon_squeeze_void_average_x
_platon_squeeze_void_average_y
_platon_squeeze_void_average_z
_platon_squeeze_void_volume
_platon_squeeze_void_count_electrons
_platon_squeeze_void_content
1 -0.001 -0.015 -0.003 2556 451 ' '
_platon_squeeze_details          
;
;

_refine_ls_structure_factor_coef Fsqd
_refine_ls_matrix_type           full
_refine_ls_weighting_scheme      calc
_refine_ls_weighting_details     
'calc w=1/[\s^2^(Fo^2^)+(0.0671P)^2^+15.3100P] where P=(Fo^2^+2Fc^2^)/3'
_atom_sites_solution_primary     direct
_atom_sites_solution_secondary   difmap
_atom_sites_solution_hydrogens   geom
_refine_ls_hydrogen_treatment    constr
_refine_ls_extinction_method     none
_refine_ls_extinction_coef       ?
_refine_ls_number_reflns         3112
_refine_ls_number_parameters     245
_refine_ls_number_restraints     2
_refine_ls_R_factor_all          0.1298
_refine_ls_R_factor_gt           0.0997
_refine_ls_wR_factor_ref         0.2455
_refine_ls_wR_factor_gt          0.2220
_refine_ls_goodness_of_fit_ref   1.060
_refine_ls_restrained_S_all      1.060
_refine_ls_shift/su_max          0.000
_refine_ls_shift/su_mean         0.000

loop_
_atom_site_label
_atom_site_type_symbol
_atom_site_fract_x
_atom_site_fract_y
_atom_site_fract_z
_atom_site_U_iso_or_equiv
_atom_site_adp_type
_atom_site_occupancy
_atom_site_symmetry_multiplicity
_atom_site_calc_flag
_atom_site_refinement_flags
_atom_site_disorder_assembly
_atom_site_disorder_group
Zn1 Zn 0.07332(7) 0.0000 -0.46376(9) 0.0908(7) Uani 1 2 d S . .
Mn1 Mn 0.0000 0.5000 0.0000 0.171(2) Uani 1 4 d SD . .
O1 O 0.0739(4) 0.0846(3) -0.3775(4) 0.1135(18) Uani 1 1 d . . .
O2 O -0.0400(4) 0.0853(4) -0.4390(4) 0.116(2) Uani 1 1 d . . .
O3 O 0.3583(4) 0.1356(6) -0.4546(7) 0.199(4) Uani 1 1 d . . .
O4 O 0.1105(5) 0.5000 0.0715(14) 0.222(13) Uani 0.50 2 d SPD . .
N1 N 0.0000 0.3817(5) 0.0000 0.131(4) Uani 1 2 d S . .
N2 N 0.0121(6) 0.5000 -0.1107(7) 0.128(4) Uani 1 2 d S . .
N3 N 0.1659(5) 0.0000 -0.4559(8) 0.120(4) Uani 1 2 d S . .
N4 N 0.3558(6) 0.0000 -0.4608(9) 0.143(4) Uani 1 2 d S . .
C1 C 0.0025(6) 0.2482(5) -0.0392(6) 0.156(5) Uani 1 1 d . . .
H1A H 0.0040 0.2034 -0.0719 0.187 Uiso 1 1 calc R . .
C2 C 0.0051(6) 0.3307(4) -0.0626(7) 0.136(4) Uani 1 1 d . . .
C3 C 0.0133(6) 0.3549(5) -0.1391(6) 0.137(4) Uani 1 1 d . . .
C4 C 0.0143(6) 0.4347(5) -0.1619(6) 0.126(3) Uani 1 1 d . . .
C5 C 0.0195(6) 0.4594(5) -0.2412(6) 0.145(4) Uani 1 1 d . . .
H5A H 0.0224 0.4261 -0.2845 0.174 Uiso 1 1 calc R . .
C6 C 0.0155(8) 0.2915(5) -0.2016(7) 0.119(3) Uani 1 1 d . . .
C7 C -0.0403(7) 0.2669(7) -0.2652(9) 0.152(4) Uani 1 1 d . . .
H7A H -0.0798 0.2904 -0.2699 0.182 Uiso 1 1 calc R . .
C8 C -0.0437(6) 0.2049(6) -0.3289(7) 0.142(4) Uani 1 1 d . . .
H8A H -0.0837 0.1877 -0.3733 0.170 Uiso 1 1 calc R . .
C9 C 0.0160(7) 0.1740(5) -0.3186(7) 0.113(3) Uani 1 1 d . . .
C10 C 0.0738(7) 0.1953(6) -0.2531(8) 0.145(4) Uani 1 1 d . . .
H10A H 0.1130 0.1701 -0.2470 0.175 Uiso 1 1 calc R . .
C11 C 0.0751(7) 0.2579(7) -0.1919(8) 0.162(4) Uani 1 1 d . . .
H11A H 0.1150 0.2750 -0.1471 0.194 Uiso 1 1 calc R . .
C12 C 0.0160(7) 0.1061(5) -0.3847(7) 0.111(3) Uani 1 1 d . . .
C13 C 0.2184(10) 0.0000 -0.3912(13) 0.149(6) Uani 1 2 d S . .
H13A H 0.2145 0.0000 -0.3374 0.179 Uiso 1 2 calc SR . .
C14 C 0.2860(8) 0.0000 -0.3825(12) 0.199(9) Uani 1 2 d S . .
H14A H 0.3227 0.0000 -0.3279 0.239 Uiso 1 2 calc SR . .
C15 C 0.2908(7) 0.0000 -0.4589(12) 0.136(5) Uani 1 2 d S . .
C16 C 0.2381(10) 0.0000 -0.5325(13) 0.223(11) Uani 1 2 d S . .
H16A H 0.2425 0.0000 -0.5859 0.268 Uiso 1 2 calc SR . .
C17 C 0.1720(8) 0.0000 -0.5341(10) 0.211(10) Uani 1 2 d S . .
H17A H 0.1345 0.0000 -0.5879 0.253 Uiso 1 2 calc SR . .
C18 C 0.3810(7) 0.0732(9) -0.4680(9) 0.158(5) Uani 1 1 d . . .
C19 C 0.4708(5) 0.1457(8) -0.4921(9) 0.179(5) Uani 1 1 d . . .
H19A H 0.4513 0.1940 -0.4877 0.215 Uiso 1 1 calc R . .
C20 C 0.4434(5) 0.0748(8) -0.4835(8) 0.146(4) Uani 1 1 d . . .
C21 C 0.4689(7) 0.0000 -0.4928(9) 0.128(4) Uani 1 2 d S . .
Ti1 Ti 0.2025(12) 0.5000 0.168(2) 0.145(2) Uiso 0.25 2 d SPD . .
O5 O 0.2973 0.5000 0.1497 0.223(7) Uiso 0.13 2 d SP . .
O6 O 0.1612 0.4429 0.2396 0.211(4) Uiso 0.13 1 d P . .
O7 O 0.2702 0.4245 0.2795 0.160(15) Uiso 0.13 1 d P . .
O8 O 0.1868 0.4066 0.0797 0.217(9) Uiso 0.06 1 d P . .

loop_
_atom_site_aniso_label
_atom_site_aniso_U_11
_atom_site_aniso_U_22
_atom_site_aniso_U_33
_atom_site_aniso_U_23
_atom_site_aniso_U_13
_atom_site_aniso_U_12
Zn1 0.1137(13) 0.0841(10) 0.0996(12) 0.000 0.0694(9) 0.000
Mn1 0.377(7) 0.0669(17) 0.143(3) 0.000 0.182(4) 0.000
O1 0.148(5) 0.100(4) 0.108(4) -0.015(3) 0.068(4) 0.002(4)
O2 0.149(6) 0.109(4) 0.117(5) -0.030(4) 0.082(4) -0.004(4)
O3 0.143(7) 0.207(9) 0.302(11) -0.063(8) 0.148(7) -0.033(6)
O4 0.36(4) 0.100(14) 0.30(3) 0.000 0.23(3) 0.000
N1 0.261(13) 0.071(6) 0.105(7) 0.000 0.120(9) 0.000
N2 0.256(13) 0.058(5) 0.113(8) 0.000 0.119(9) 0.000
N3 0.060(6) 0.197(11) 0.102(8) 0.000 0.031(6) 0.000
N4 0.112(10) 0.170(13) 0.182(12) 0.000 0.095(9) 0.000
C1 0.303(14) 0.074(5) 0.145(9) 0.003(5) 0.148(10) -0.001(7)
C2 0.251(12) 0.063(5) 0.134(8) 0.011(5) 0.119(8) 0.020(6)
C3 0.281(13) 0.072(6) 0.101(7) -0.003(5) 0.122(8) 0.010(6)
C4 0.237(11) 0.080(6) 0.099(7) 0.006(5) 0.106(7) -0.003(6)
C5 0.270(13) 0.085(5) 0.113(7) -0.002(5) 0.112(8) -0.006(6)
C6 0.196(12) 0.084(6) 0.104(8) -0.001(6) 0.090(8) 0.000(7)
C7 0.198(13) 0.126(9) 0.161(11) -0.039(8) 0.104(10) 0.007(8)
C8 0.150(9) 0.137(8) 0.156(9) -0.043(7) 0.082(8) 0.012(7)
C9 0.177(10) 0.089(6) 0.104(7) -0.012(5) 0.092(7) -0.003(7)
C10 0.183(11) 0.107(7) 0.149(10) -0.039(7) 0.072(9) 0.010(7)
C11 0.187(12) 0.155(10) 0.148(10) -0.059(8) 0.075(9) -0.023(9)
C12 0.165(10) 0.086(6) 0.111(8) 0.008(6) 0.084(8) -0.002(7)
C13 0.150(15) 0.182(15) 0.161(16) 0.000 0.110(13) 0.000
C14 0.103(12) 0.39(3) 0.120(13) 0.000 0.060(10) 0.000
C15 0.082(10) 0.224(16) 0.119(12) 0.000 0.061(10) 0.000
C16 0.111(13) 0.45(4) 0.142(16) 0.000 0.081(13) 0.000
C17 0.122(13) 0.44(3) 0.095(11) 0.000 0.072(10) 0.000
C18 0.135(10) 0.187(14) 0.178(11) -0.022(10) 0.090(9) 0.006(9)
C19 0.120(9) 0.164(10) 0.289(16) 0.005(11) 0.120(10) 0.002(8)
C20 0.113(8) 0.169(11) 0.190(11) 0.003(9) 0.097(8) 0.013(7)
C21 0.107(10) 0.171(14) 0.126(11) 0.000 0.068(9) 0.000

_geom_special_details            
;
All esds (except the esd in the dihedral angle between two l.s. planes)
are estimated using the full covariance matrix. The cell esds are taken
into account individually in the estimation of esds in distances, angles
and torsion angles; correlations between esds in cell parameters are only
used when they are defined by crystal symmetry. An approximate (isotropic)
treatment of cell esds is used for estimating esds involving l.s. planes.
;

loop_
_geom_bond_atom_site_label_1
_geom_bond_atom_site_label_2
_geom_bond_distance
_geom_bond_site_symmetry_2
_geom_bond_publ_flag
Zn1 N3 1.999(10) . ?
Zn1 O1 2.002(5) 6 ?
Zn1 O1 2.002(5) . ?
Zn1 O2 2.040(6) 5_554 ?
Zn1 O2 2.040(6) 2_554 ?
Zn1 Zn1 2.955(3) 5_554 ?
Mn1 N2 1.958(8) . ?
Mn1 N2 1.958(8) 5_565 ?
Mn1 N1 1.969(8) 5_565 ?
Mn1 N1 1.969(8) . ?
Mn1 O4 2.230(10) 5_565 ?
Mn1 O4 2.230(10) . ?
O1 C12 1.289(12) . ?
O2 C12 1.238(12) . ?
O2 Zn1 2.040(6) 5_554 ?
O3 C18 1.214(12) . ?
O4 Ti1 1.995(10) . ?
N1 C2 1.380(9) 2 ?
N1 C2 1.380(9) . ?
N2 C4 1.392(9) 6_565 ?
N2 C4 1.392(9) . ?
N3 C13 1.207(18) . ?
N3 C17 1.357(15) . ?
N4 C18 1.366(15) 6 ?
N4 C18 1.366(15) . ?
N4 C15 1.454(16) . ?
C1 C1 1.348(15) 2 ?
C1 C2 1.434(10) . ?
C2 C3 1.411(10) . ?
C3 C4 1.383(10) . ?
C3 C6 1.492(11) . ?
C4 C5 1.425(10) . ?
C5 C5 1.353(15) 6_565 ?
C6 C7 1.310(14) . ?
C6 C11 1.380(14) . ?
C7 C8 1.454(13) . ?
C8 C9 1.361(13) . ?
C9 C10 1.335(13) . ?
C9 C12 1.574(12) . ?
C10 C11 1.446(13) . ?
C13 C14 1.44(2) . ?
C14 C15 1.312(18) . ?
C15 C16 1.288(19) . ?
C16 C17 1.45(2) . ?
C18 C20 1.507(15) . ?
C19 C20 1.362(13) . ?
C19 C19 1.422(19) 2_654 ?
C20 C21 1.401(12) . ?
C21 C20 1.401(12) 6 ?
C21 C21 1.49(2) 5_654 ?
Ti1 O6 2.02(4) . ?
Ti1 O6 2.02(4) 6_565 ?
Ti1 O8 2.06(3) . ?
Ti1 O8 2.06(3) 6_565 ?
Ti1 O7 2.222(19) 6_565 ?
Ti1 O7 2.222(19) . ?
Ti1 O5 2.24(4) . ?

loop_
_geom_angle_atom_site_label_1
_geom_angle_atom_site_label_2
_geom_angle_atom_site_label_3
_geom_angle
_geom_angle_site_symmetry_1
_geom_angle_site_symmetry_3
_geom_angle_publ_flag
N3 Zn1 O1 104.6(3) . 6 ?
N3 Zn1 O1 104.6(3) . . ?
O1 Zn1 O1 89.5(3) 6 . ?
N3 Zn1 O2 94.3(3) . 5_554 ?
O1 Zn1 O2 88.0(2) 6 5_554 ?
O1 Zn1 O2 161.0(3) . 5_554 ?
N3 Zn1 O2 94.3(3) . 2_554 ?
O1 Zn1 O2 161.0(3) 6 2_554 ?
O1 Zn1 O2 88.0(2) . 2_554 ?
O2 Zn1 O2 88.2(4) 5_554 2_554 ?
N3 Zn1 Zn1 161.7(4) . 5_554 ?
O1 Zn1 Zn1 88.3(2) 6 5_554 ?
O1 Zn1 Zn1 88.3(2) . 5_554 ?
O2 Zn1 Zn1 72.8(2) 5_554 5_554 ?
O2 Zn1 Zn1 72.8(2) 2_554 5_554 ?
N2 Mn1 N2 179.999(2) . 5_565 ?
N2 Mn1 N1 90.0 . 5_565 ?
N2 Mn1 N1 90.0 5_565 5_565 ?
N2 Mn1 N1 90.0 . . ?
N2 Mn1 N1 90.0 5_565 . ?
N1 Mn1 N1 180.0 5_565 . ?
N2 Mn1 O4 92.9(7) . 5_565 ?
N2 Mn1 O4 87.1(7) 5_565 5_565 ?
N1 Mn1 O4 89.998(1) 5_565 5_565 ?
N1 Mn1 O4 90.000(1) . 5_565 ?
N2 Mn1 O4 87.1(7) . . ?
N2 Mn1 O4 92.9(7) 5_565 . ?
N1 Mn1 O4 90.002(1) 5_565 . ?
N1 Mn1 O4 90.000(1) . . ?
O4 Mn1 O4 179.999(1) 5_565 . ?
C12 O1 Zn1 114.7(6) . . ?
C12 O2 Zn1 133.7(7) . 5_554 ?
Ti1 O4 Mn1 162(2) . . ?
C2 N1 C2 104.0(9) 2 . ?
C2 N1 Mn1 128.0(4) 2 . ?
C2 N1 Mn1 128.0(4) . . ?
C4 N2 C4 102.7(8) 6_565 . ?
C4 N2 Mn1 128.5(4) 6_565 . ?
C4 N2 Mn1 128.5(4) . . ?
C13 N3 C17 113.9(13) . . ?
C13 N3 Zn1 129.7(11) . . ?
C17 N3 Zn1 116.4(10) . . ?
C18 N4 C18 126.4(15) 6 . ?
C18 N4 C15 116.5(8) 6 . ?
C18 N4 C15 116.5(8) . . ?
C1 C1 C2 106.7(5) 2 . ?
N1 C2 C3 125.4(7) . . ?
N1 C2 C1 111.2(7) . . ?
C3 C2 C1 123.3(7) . . ?
C4 C3 C2 122.8(7) . . ?
C4 C3 C6 118.7(7) . . ?
C2 C3 C6 118.3(7) . . ?
C3 C4 N2 125.1(7) . . ?
C3 C4 C5 123.0(7) . . ?
N2 C4 C5 111.8(7) . . ?
C5 C5 C4 106.8(5) 6_565 . ?
C7 C6 C11 120.2(11) . . ?
C7 C6 C3 119.1(12) . . ?
C11 C6 C3 120.7(12) . . ?
C6 C7 C8 123.4(12) . . ?
C9 C8 C7 115.0(10) . . ?
C10 C9 C8 123.6(9) . . ?
C10 C9 C12 118.5(11) . . ?
C8 C9 C12 117.8(11) . . ?
C9 C10 C11 119.5(11) . . ?
C6 C11 C10 118.2(11) . . ?
O2 C12 O1 130.2(10) . . ?
O2 C12 C9 114.6(11) . . ?
O1 C12 C9 115.1(11) . . ?
N3 C13 C14 131.6(16) . . ?
C15 C14 C13 113.6(15) . . ?
C16 C15 C14 120.4(14) . . ?
C16 C15 N4 119.6(15) . . ?
C14 C15 N4 119.9(16) . . ?
C15 C16 C17 121.8(15) . . ?
N3 C17 C16 118.8(14) . . ?
O3 C18 N4 122.2(12) . . ?
O3 C18 C20 119.7(13) . . ?
N4 C18 C20 117.8(13) . . ?
C20 C19 C19 119.8(6) . 2_654 ?
C19 C20 C21 122.8(10) . . ?
C19 C20 C18 120.8(11) . . ?
C21 C20 C18 116.3(12) . . ?
C20 C21 C20 125.3(14) 6 . ?
C20 C21 C21 117.3(7) 6 5_654 ?
C20 C21 C21 117.3(7) . 5_654 ?
O4 Ti1 O6 84.7(15) . . ?
O4 Ti1 O6 84.7(15) . 6_565 ?
O6 Ti1 O6 56.3(14) . 6_565 ?
O4 Ti1 O8 67.7(7) . . ?
O6 Ti1 O8 94.4(6) . . ?
O6 Ti1 O8 142.1(16) 6_565 . ?
O4 Ti1 O8 67.7(7) . 6_565 ?
O6 Ti1 O8 142.1(16) . 6_565 ?
O6 Ti1 O8 94.4(6) 6_565 6_565 ?
O8 Ti1 O8 98.1(18) . 6_565 ?
O4 Ti1 O7 140.7(12) . 6_565 ?
O6 Ti1 O7 95.1(17) . 6_565 ?
O6 Ti1 O7 63.6(9) 6_565 6_565 ?
O8 Ti1 O7 150.8(15) . 6_565 ?
O8 Ti1 O7 91.1(4) 6_565 6_565 ?
O4 Ti1 O7 140.7(12) . . ?
O6 Ti1 O7 63.6(9) . . ?
O6 Ti1 O7 95.1(17) 6_565 . ?
O8 Ti1 O7 91.1(4) . . ?
O8 Ti1 O7 150.8(15) 6_565 . ?
O7 Ti1 O7 68.9(7) 6_565 . ?
O4 Ti1 O5 127(2) . . ?
O6 Ti1 O5 139.4(6) . . ?
O6 Ti1 O5 139.4(6) 6_565 . ?
O8 Ti1 O5 78.3(15) . . ?
O8 Ti1 O5 78.3(15) 6_565 . ?
O7 Ti1 O5 76.5(7) 6_565 . ?
O7 Ti1 O5 76.5(7) . . ?

_diffrn_measured_fraction_theta_max 0.982
_diffrn_reflns_theta_full        51.50
_diffrn_measured_fraction_theta_full 0.982
_refine_diff_density_max         0.796
_refine_diff_density_min         -0.641
_refine_diff_density_rms         0.064


