####################################################################### 
# 
# This file contains crystal structure data downloaded from the 
# Cambridge Structural Database (CSD) hosted by the Cambridge 
# Crystallographic Data Centre (CCDC).
# 
# Full information about CCDC data access policies and citation 
# guidelines are available at http://www.ccdc.cam.ac.uk/access/V1 
# 
# Audit and citation data items may have been added by the CCDC. 
# Please retain this information to preserve the provenance of 
# this file and to allow appropriate attribution of the data. 
# 
#######################################################################

data_3
_audit_block_doi                 10.5517/ccz28gr
_database_code_depnum_ccdc_archive 'CCDC 895914'
loop_
_citation_id
_citation_doi
_citation_year
1 10.1002/cphc.201300564 2013
_audit_update_record             
;
2013-05-29 deposited with the CCDC.	2024-07-13 downloaded from the CCDC.
;

_audit_creation_method           SHELXL-97
_chemical_name_systematic        
; 
 ? 
;
_chemical_name_common            ?
_chemical_melting_point          ?
_chemical_formula_moiety         ?
_chemical_formula_sum            'C32 H22 N4 O6 Zn'
_chemical_formula_weight         623.91

loop_
_atom_type_symbol
_atom_type_description
_atom_type_scat_dispersion_real
_atom_type_scat_dispersion_imag
_atom_type_scat_source
C C 0.0033 0.0016 'International Tables Vol C Tables 4.2.6.8 and 6.1.1.4'
H H 0.0000 0.0000 'International Tables Vol C Tables 4.2.6.8 and 6.1.1.4'
N N 0.0061 0.0033 'International Tables Vol C Tables 4.2.6.8 and 6.1.1.4'
O O 0.0106 0.0060 'International Tables Vol C Tables 4.2.6.8 and 6.1.1.4'
Zn Zn 0.2839 1.4301 'International Tables Vol C Tables 4.2.6.8 and 6.1.1.4'

_symmetry_cell_setting           Monoclinic
_symmetry_space_group_name_H-M   P2(1)/c

loop_
_symmetry_equiv_pos_as_xyz
'x, y, z'
'-x, y+1/2, -z+1/2'
'-x, -y, -z'
'x, -y-1/2, z-1/2'

_cell_length_a                   9.8634(19)
_cell_length_b                   29.122(5)
_cell_length_c                   14.701(3)
_cell_angle_alpha                90.00
_cell_angle_beta                 95.053(8)
_cell_angle_gamma                90.00
_cell_volume                     4206.4(14)
_cell_formula_units_Z            4
_cell_measurement_temperature    296(2)
_cell_measurement_reflns_used    9401
_cell_measurement_theta_min      2.39
_cell_measurement_theta_max      26.40

_exptl_crystal_description       ?
_exptl_crystal_colour            ?
_exptl_crystal_size_max          0.25
_exptl_crystal_size_mid          0.23
_exptl_crystal_size_min          0.12
_exptl_crystal_density_meas      ?
_exptl_crystal_density_diffrn    0.985
_exptl_crystal_density_method    'not measured'
_exptl_crystal_F_000             1280
_exptl_absorpt_coefficient_mu    0.620
_exptl_absorpt_correction_type   multi-scan
_exptl_absorpt_correction_T_min  0.8605
_exptl_absorpt_correction_T_max  0.9294
_exptl_absorpt_process_details   ?

_exptl_special_details           
; 
 ? 
;

_diffrn_ambient_temperature      296(2)
_diffrn_radiation_wavelength     0.71073
_diffrn_radiation_type           MoK\a
_diffrn_radiation_source         'fine-focus sealed tube'
_diffrn_radiation_monochromator  graphite
_diffrn_measurement_device_type  'CCD area detector'
_diffrn_measurement_method       'phi and omega scans'
_diffrn_detector_area_resol_mean ?
_diffrn_standards_number         ?
_diffrn_standards_interval_count ?
_diffrn_standards_interval_time  ?
_diffrn_standards_decay_%        ?
_diffrn_reflns_number            32756
_diffrn_reflns_av_R_equivalents  0.0521
_diffrn_reflns_av_sigmaI/netI    0.0497
_diffrn_reflns_limit_h_min       -11
_diffrn_reflns_limit_h_max       11
_diffrn_reflns_limit_k_min       -29
_diffrn_reflns_limit_k_max       34
_diffrn_reflns_limit_l_min       -17
_diffrn_reflns_limit_l_max       16
_diffrn_reflns_theta_min         1.40
_diffrn_reflns_theta_max         25.00
_reflns_number_total             7406
_reflns_number_gt                5316
_reflns_threshold_expression     >2sigma(I)

_computing_data_collection       'Bruker SMART'
_computing_cell_refinement       'Bruker SMART'
_computing_data_reduction        'Bruker SAINT'
_computing_structure_solution    'SHELXS-97 (Sheldrick, 1990)'
_computing_structure_refinement  'SHELXL-97 (Sheldrick, 1997)'
_computing_molecular_graphics    'Bruker SHELXTL'
_computing_publication_material  'Bruker SHELXTL'

_refine_special_details          
; 
 Refinement of F^2^ against ALL reflections.  The weighted R-factor wR and 
 goodness of fit S are based on F^2^, conventional R-factors R are based 
 on F, with F set to zero for negative F^2^. The threshold expression of 
 F^2^ > 2sigma(F^2^) is used only for calculating R-factors(gt) etc. and is 
 not relevant to the choice of reflections for refinement.  R-factors based 
 on F^2^ are statistically about twice as large as those based on F, and R- 
 factors based on ALL data will be even larger. 
;

_refine_ls_structure_factor_coef Fsqd
_refine_ls_matrix_type           full
_refine_ls_weighting_scheme      calc
_refine_ls_weighting_details     
'calc w=1/[\s^2^(Fo^2^)+(0.0621P)^2^+0.0000P] where P=(Fo^2^+2Fc^2^)/3'
_atom_sites_solution_primary     direct
_atom_sites_solution_secondary   difmap
_atom_sites_solution_hydrogens   geom
_refine_ls_hydrogen_treatment    mixed
_refine_ls_extinction_method     none
_refine_ls_extinction_coef       ?
_refine_ls_number_reflns         7406
_refine_ls_number_parameters     397
_refine_ls_number_restraints     2
_refine_ls_R_factor_all          0.0609
_refine_ls_R_factor_gt           0.0424
_refine_ls_wR_factor_ref         0.1129
_refine_ls_wR_factor_gt          0.1063
_refine_ls_goodness_of_fit_ref   0.969
_refine_ls_restrained_S_all      0.969
_refine_ls_shift/su_max          0.001
_refine_ls_shift/su_mean         0.000

loop_
_atom_site_label
_atom_site_type_symbol
_atom_site_fract_x
_atom_site_fract_y
_atom_site_fract_z
_atom_site_U_iso_or_equiv
_atom_site_adp_type
_atom_site_occupancy
_atom_site_symmetry_multiplicity
_atom_site_calc_flag
_atom_site_refinement_flags
_atom_site_disorder_assembly
_atom_site_disorder_group
C1 C -0.2926(3) 0.68618(10) 0.7549(2) 0.0561(7) Uani 1 1 d . . .
C2 C -0.2069(2) 0.71645(9) 0.69859(19) 0.0524(7) Uani 1 1 d . . .
C3 C -0.2217(3) 0.71600(10) 0.60621(19) 0.0618(8) Uani 1 1 d . . .
H3 H -0.2869 0.6970 0.5761 0.074 Uiso 1 1 calc R . .
C4 C -0.1107(3) 0.74553(11) 0.74255(19) 0.0695(9) Uani 1 1 d . . .
H4 H -0.1013 0.7470 0.8060 0.083 Uiso 1 1 calc R . .
C5 C 0.2250(2) 0.84964(9) 0.44493(17) 0.0449(6) Uani 1 1 d . . .
C6 C 0.3212(2) 0.87688(10) 0.39210(17) 0.0444(6) Uani 1 1 d . . .
C7 C 0.7906(2) 0.97535(9) 0.51383(16) 0.0443(6) Uani 1 1 d . . .
C8 C 0.6846(2) 0.99382(9) 0.45672(19) 0.0546(7) Uani 1 1 d . . .
H8 H 0.6578 1.0241 0.4642 0.066 Uiso 1 1 calc R . .
C9 C 0.6202(3) 0.96744(10) 0.38983(19) 0.0568(7) Uani 1 1 d . . .
H9 H 0.5506 0.9808 0.3519 0.068 Uiso 1 1 calc R . .
C10 C 1.3199(3) 0.97107(10) 1.03145(19) 0.0577(7) Uani 1 1 d . . .
C11 C 0.1759(2) 0.86794(9) 0.52225(18) 0.0514(7) Uani 1 1 d . . .
H11 H 0.2009 0.8975 0.5407 0.062 Uiso 1 1 calc R . .
C12 C -0.0416(3) 0.77175(10) 0.59906(18) 0.0540(7) Uani 1 1 d . . .
C13 C 0.0481(2) 0.79926(9) 0.54484(18) 0.0498(6) Uani 1 1 d . . .
C14 C 1.1117(3) 1.04411(10) 0.86131(19) 0.0580(7) Uani 1 1 d . . .
C15 C -0.1412(3) 0.74333(11) 0.5558(2) 0.0674(8) Uani 1 1 d . . .
H15 H -0.1537 0.7427 0.4924 0.081 Uiso 1 1 calc R . .
C16 C 0.1859(3) 0.80572(10) 0.41736(18) 0.0568(7) Uani 1 1 d . . .
H16 H 0.2187 0.7928 0.3657 0.068 Uiso 1 1 calc R . .
C17 C 0.9612(3) 0.99176(10) 0.64356(19) 0.0547(7) Uani 1 1 d . . .
C18 C 0.9864(3) 1.07374(10) 0.69624(19) 0.0542(7) Uani 1 1 d . . .
H18 H 0.9451 1.0839 0.6405 0.065 Uiso 1 1 calc R . .
C19 C 1.0044(2) 1.02729(10) 0.71177(17) 0.0497(7) Uani 1 1 d . . .
C20 C 1.0287(3) 1.10474(11) 0.7622(2) 0.0674(8) Uani 1 1 d . . .
H20 H 1.0152 1.1359 0.7514 0.081 Uiso 1 1 calc R . .
C21 C 0.0897(2) 0.84263(9) 0.57262(18) 0.0531(7) Uani 1 1 d . . .
H21 H 0.0597 0.8550 0.6256 0.064 Uiso 1 1 calc R . .
C22 C 1.0917(3) 1.09025(12) 0.8451(2) 0.0714(9) Uani 1 1 d . . .
H22 H 1.1204 1.1116 0.8897 0.086 Uiso 1 1 calc R . .
C23 C 1.0696(3) 1.01327(10) 0.79423(18) 0.0586(7) Uani 1 1 d . . .
H23 H 1.0854 0.9821 0.8044 0.070 Uiso 1 1 calc R . .
C24 C 1.3486(3) 0.95373(11) 1.18925(19) 0.0649(8) Uani 1 1 d . . .
H24 H 1.3217 0.9585 1.2476 0.078 Uiso 1 1 calc R . .
C25 C 0.0988(3) 0.78140(10) 0.46666(19) 0.0595(7) Uani 1 1 d . . .
H25 H 0.0726 0.7520 0.4474 0.071 Uiso 1 1 calc R . .
C26 C -0.0297(3) 0.77205(11) 0.6929(2) 0.0670(8) Uani 1 1 d . . .
H26 H 0.0354 0.7909 0.7236 0.080 Uiso 1 1 calc R . .
C27 C 0.8241(3) 0.93043(10) 0.4980(2) 0.0652(8) Uani 1 1 d . . .
H27 H 0.8955 0.9166 0.5334 0.078 Uiso 1 1 calc R . .
C28 C 1.2815(3) 0.97719(11) 1.11874(19) 0.0686(9) Uani 1 1 d . . .
H28 H 1.2107 0.9971 1.1293 0.082 Uiso 1 1 calc R . .
C29 C 1.4264(3) 0.94132(12) 1.0218(2) 0.0735(9) Uani 1 1 d . . .
H29 H 1.4570 0.9367 0.9644 0.088 Uiso 1 1 calc R . .
C30 C 0.7530(3) 0.90623(10) 0.43057(19) 0.0614(8) Uani 1 1 d . . .
H30 H 0.7769 0.8757 0.4224 0.074 Uiso 1 1 calc R . .
C31 C 1.4874(3) 0.91855(11) 1.09564(18) 0.0639(8) Uani 1 1 d . . .
H31 H 1.5576 0.8982 1.0866 0.077 Uiso 1 1 calc R . .
C32 C 1.1743(4) 1.02969(12) 0.9531(2) 0.0772(9) Uani 1 1 d . . .
N1 N 0.65092(18) 0.92362(7) 0.37542(13) 0.0451(5) Uani 1 1 d . . .
N2 N 0.8531(2) 1.00316(8) 0.58225(15) 0.0488(5) Uani 1 1 d D . .
H2M H 0.825(3) 1.0321(5) 0.592(2) 0.090(11) Uiso 1 1 d D . .
N3 N 1.2554(3) 0.99219(10) 0.95404(17) 0.0669(7) Uani 1 1 d D . .
H3M H 1.283(4) 0.9754(12) 0.9085(19) 0.127(15) Uiso 1 1 d D . .
N4 N 1.45095(19) 0.92411(8) 1.18015(14) 0.0498(5) Uani 1 1 d . . .
O1 O 0.32738(16) 0.91920(6) 0.40060(11) 0.0498(4) Uani 1 1 d . . .
O2 O 0.39272(17) 0.85342(6) 0.34150(12) 0.0558(5) Uani 1 1 d . . .
O3 O -0.2858(2) 0.69111(8) 0.83837(15) 0.0811(7) Uani 1 1 d . . .
O4 O -0.36439(18) 0.65661(7) 0.71105(13) 0.0610(5) Uani 1 1 d . . .
O5 O 1.1560(4) 1.05116(11) 1.02060(18) 0.1428(14) Uani 1 1 d . . .
O6 O 1.0185(2) 0.95457(8) 0.64202(16) 0.0881(7) Uani 1 1 d . . .
Zn1 Zn 0.53712(3) 0.884685(10) 0.284139(19) 0.04333(12) Uani 1 1 d . . .

loop_
_atom_site_aniso_label
_atom_site_aniso_U_11
_atom_site_aniso_U_22
_atom_site_aniso_U_33
_atom_site_aniso_U_23
_atom_site_aniso_U_13
_atom_site_aniso_U_12
C1 0.0542(15) 0.0519(19) 0.063(2) 0.0162(16) 0.0114(14) 0.0001(13)
C2 0.0542(14) 0.0501(18) 0.0526(18) 0.0141(14) 0.0037(13) -0.0043(12)
C3 0.0642(16) 0.066(2) 0.0547(19) 0.0045(15) 0.0016(14) -0.0207(14)
C4 0.0776(19) 0.085(2) 0.0450(18) 0.0146(16) 0.0029(15) -0.0240(17)
C5 0.0463(12) 0.0421(16) 0.0466(16) 0.0051(12) 0.0050(11) 0.0022(11)
C6 0.0418(12) 0.0493(19) 0.0416(15) 0.0081(13) 0.0008(11) -0.0009(11)
C7 0.0409(12) 0.0492(17) 0.0416(15) -0.0017(13) -0.0035(11) 0.0037(11)
C8 0.0586(15) 0.0391(17) 0.0627(19) -0.0043(14) -0.0136(13) 0.0045(12)
C9 0.0571(15) 0.0500(19) 0.0583(18) 0.0019(15) -0.0217(13) 0.0029(13)
C10 0.0623(16) 0.062(2) 0.0465(17) 0.0087(15) -0.0096(13) 0.0057(14)
C11 0.0589(15) 0.0368(15) 0.0593(17) 0.0027(13) 0.0104(13) 0.0017(12)
C12 0.0558(15) 0.0575(19) 0.0485(18) 0.0085(14) 0.0044(12) -0.0073(13)
C13 0.0466(13) 0.0490(18) 0.0532(17) 0.0097(14) 0.0010(12) -0.0050(11)
C14 0.0674(16) 0.0499(19) 0.0518(18) -0.0001(15) -0.0232(13) -0.0010(13)
C15 0.0738(18) 0.083(2) 0.0445(17) 0.0097(16) 0.0016(14) -0.0252(16)
C16 0.0641(16) 0.0523(19) 0.0558(18) -0.0043(14) 0.0146(14) -0.0113(13)
C17 0.0557(15) 0.056(2) 0.0496(17) 0.0008(15) -0.0144(12) 0.0046(13)
C18 0.0580(15) 0.0511(19) 0.0500(17) 0.0047(14) -0.0150(12) -0.0061(13)
C19 0.0457(13) 0.0575(19) 0.0432(16) 0.0012(14) -0.0102(11) 0.0002(12)
C20 0.0727(19) 0.049(2) 0.074(2) 0.0059(16) -0.0293(16) -0.0042(14)
C21 0.0610(15) 0.0492(18) 0.0508(17) 0.0039(14) 0.0137(13) 0.0030(13)
C22 0.088(2) 0.063(2) 0.058(2) -0.0038(17) -0.0266(16) -0.0057(17)
C23 0.0719(17) 0.0483(18) 0.0515(18) 0.0031(14) -0.0182(14) -0.0021(13)
C24 0.0653(17) 0.084(2) 0.0447(17) 0.0011(16) 0.0036(14) 0.0215(16)
C25 0.0744(18) 0.0459(18) 0.0591(18) -0.0050(14) 0.0102(15) -0.0176(14)
C26 0.0706(18) 0.076(2) 0.0528(19) 0.0075(16) -0.0041(14) -0.0281(15)
C27 0.0650(17) 0.061(2) 0.064(2) -0.0155(16) -0.0245(14) 0.0243(14)
C28 0.0709(18) 0.087(2) 0.0474(18) 0.0083(17) -0.0005(14) 0.0281(16)
C29 0.086(2) 0.089(3) 0.0464(19) 0.0063(17) 0.0107(16) 0.0206(18)
C30 0.0656(17) 0.0546(19) 0.0605(19) -0.0169(15) -0.0143(14) 0.0239(14)
C31 0.0681(17) 0.080(2) 0.0439(18) 0.0052(16) 0.0061(14) 0.0208(15)
C32 0.106(3) 0.066(2) 0.054(2) -0.0033(18) -0.0228(18) 0.0070(19)
N1 0.0453(11) 0.0438(14) 0.0456(13) -0.0064(10) -0.0002(9) 0.0025(9)
N2 0.0520(12) 0.0460(15) 0.0459(13) -0.0044(11) -0.0096(10) 0.0035(10)
N3 0.0804(16) 0.073(2) 0.0438(16) 0.0021(14) -0.0163(13) 0.0095(14)
N4 0.0498(11) 0.0584(15) 0.0404(12) 0.0003(11) -0.0004(9) 0.0019(10)
O1 0.0526(10) 0.0409(12) 0.0562(12) 0.0056(9) 0.0058(8) -0.0025(8)
O2 0.0586(10) 0.0508(12) 0.0606(12) -0.0038(9) 0.0201(9) -0.0041(8)
O3 0.1061(16) 0.0836(17) 0.0561(14) 0.0146(12) 0.0215(12) -0.0178(12)
O4 0.0638(11) 0.0566(13) 0.0640(13) 0.0063(10) 0.0136(10) -0.0120(10)
O5 0.244(4) 0.114(2) 0.0590(17) -0.0214(17) -0.048(2) 0.088(2)
O6 0.0963(15) 0.0709(16) 0.0877(17) -0.0159(13) -0.0458(13) 0.0324(13)
Zn1 0.04363(16) 0.0456(2) 0.04050(19) -0.00290(14) 0.00229(12) 0.00161(12)

_geom_special_details            
; 
 All esds (except the esd in the dihedral angle between two l.s. planes) 
 are estimated using the full covariance matrix.  The cell esds are taken 
 into account individually in the estimation of esds in distances, angles 
 and torsion angles; correlations between esds in cell parameters are only 
 used when they are defined by crystal symmetry.  An approximate (isotropic) 
 treatment of cell esds is used for estimating esds involving l.s. planes. 
;

loop_
_geom_bond_atom_site_label_1
_geom_bond_atom_site_label_2
_geom_bond_distance
_geom_bond_site_symmetry_2
_geom_bond_publ_flag
C1 O3 1.232(3) . ?
C1 O4 1.256(3) . ?
C1 C2 1.516(3) . ?
C2 C3 1.353(4) . ?
C2 C4 1.388(4) . ?
C3 C15 1.384(4) . ?
C3 H3 0.9300 . ?
C4 C26 1.367(4) . ?
C4 H4 0.9300 . ?
C5 C11 1.381(3) . ?
C5 C16 1.386(4) . ?
C5 C6 1.504(3) . ?
C6 O1 1.240(3) . ?
C6 O2 1.269(3) . ?
C7 C27 1.374(4) . ?
C7 C8 1.390(3) . ?
C7 N2 1.392(3) . ?
C8 C9 1.360(4) . ?
C8 H8 0.9300 . ?
C9 N1 1.333(3) . ?
C9 H9 0.9300 . ?
C10 C29 1.378(4) . ?
C10 C28 1.382(4) . ?
C10 N3 1.397(3) . ?
C11 C21 1.388(3) . ?
C11 H11 0.9300 . ?
C12 C26 1.374(4) . ?
C12 C15 1.394(4) . ?
C12 C13 1.478(3) . ?
C13 C21 1.378(4) . ?
C13 C25 1.394(4) . ?
C14 C23 1.371(4) . ?
C14 C22 1.376(4) . ?
C14 C32 1.495(4) . ?
C15 H15 0.9300 . ?
C16 C25 1.370(3) . ?
C16 H16 0.9300 . ?
C17 O6 1.223(3) . ?
C17 N2 1.375(3) . ?
C17 C19 1.477(4) . ?
C18 C20 1.363(4) . ?
C18 C19 1.381(4) . ?
C18 H18 0.9300 . ?
C19 C23 1.383(3) . ?
C20 C22 1.384(4) . ?
C20 H20 0.9300 . ?
C21 H21 0.9300 . ?
C22 H22 0.9300 . ?
C23 H23 0.9300 . ?
C24 N4 1.344(3) . ?
C24 C28 1.363(4) . ?
C24 H24 0.9300 . ?
C25 H25 0.9300 . ?
C26 H26 0.9300 . ?
C27 C30 1.360(4) . ?
C27 H27 0.9300 . ?
C28 H28 0.9300 . ?
C29 C31 1.366(4) . ?
C29 H29 0.9300 . ?
C30 N1 1.336(3) . ?
C30 H30 0.9300 . ?
C31 N4 1.333(3) . ?
C31 H31 0.9300 . ?
C32 O5 1.199(4) . ?
C32 N3 1.353(4) . ?
N1 Zn1 2.020(2) . ?
N2 H2M 0.900(10) . ?
N3 H3M 0.890(10) . ?
N4 Zn1 2.037(2) 1_656 ?
O2 Zn1 1.9442(16) . ?
O4 Zn1 1.9310(17) 4_476 ?
Zn1 O4 1.9309(17) 4_675 ?
Zn1 N4 2.037(2) 1_454 ?

loop_
_geom_angle_atom_site_label_1
_geom_angle_atom_site_label_2
_geom_angle_atom_site_label_3
_geom_angle
_geom_angle_site_symmetry_1
_geom_angle_site_symmetry_3
_geom_angle_publ_flag
O3 C1 O4 124.7(2) . . ?
O3 C1 C2 119.4(3) . . ?
O4 C1 C2 115.8(3) . . ?
C3 C2 C4 118.8(2) . . ?
C3 C2 C1 121.7(3) . . ?
C4 C2 C1 119.5(3) . . ?
C2 C3 C15 121.0(3) . . ?
C2 C3 H3 119.5 . . ?
C15 C3 H3 119.5 . . ?
C26 C4 C2 120.2(3) . . ?
C26 C4 H4 119.9 . . ?
C2 C4 H4 119.9 . . ?
C11 C5 C16 119.2(2) . . ?
C11 C5 C6 120.3(2) . . ?
C16 C5 C6 120.5(2) . . ?
O1 C6 O2 124.7(2) . . ?
O1 C6 C5 120.0(2) . . ?
O2 C6 C5 115.3(2) . . ?
C27 C7 C8 116.5(2) . . ?
C27 C7 N2 125.3(2) . . ?
C8 C7 N2 118.2(2) . . ?
C9 C8 C7 119.8(3) . . ?
C9 C8 H8 120.1 . . ?
C7 C8 H8 120.1 . . ?
N1 C9 C8 123.9(2) . . ?
N1 C9 H9 118.1 . . ?
C8 C9 H9 118.1 . . ?
C29 C10 C28 116.8(3) . . ?
C29 C10 N3 119.3(3) . . ?
C28 C10 N3 123.9(3) . . ?
C5 C11 C21 120.6(3) . . ?
C5 C11 H11 119.7 . . ?
C21 C11 H11 119.7 . . ?
C26 C12 C15 117.1(2) . . ?
C26 C12 C13 122.4(2) . . ?
C15 C12 C13 120.5(2) . . ?
C21 C13 C25 117.9(2) . . ?
C21 C13 C12 120.9(2) . . ?
C25 C13 C12 121.2(2) . . ?
C23 C14 C22 119.0(3) . . ?
C23 C14 C32 122.7(3) . . ?
C22 C14 C32 118.2(3) . . ?
C3 C15 C12 120.8(3) . . ?
C3 C15 H15 119.6 . . ?
C12 C15 H15 119.6 . . ?
C25 C16 C5 119.6(2) . . ?
C25 C16 H16 120.2 . . ?
C5 C16 H16 120.2 . . ?
O6 C17 N2 122.3(3) . . ?
O6 C17 C19 121.8(2) . . ?
N2 C17 C19 115.9(2) . . ?
C20 C18 C19 120.3(3) . . ?
C20 C18 H18 119.9 . . ?
C19 C18 H18 119.9 . . ?
C18 C19 C23 118.5(3) . . ?
C18 C19 C17 123.3(2) . . ?
C23 C19 C17 118.2(3) . . ?
C18 C20 C22 120.7(3) . . ?
C18 C20 H20 119.7 . . ?
C22 C20 H20 119.7 . . ?
C13 C21 C11 120.