####################################################################### 
# 
# This file contains crystal structure data downloaded from the 
# Cambridge Structural Database (CSD) hosted by the Cambridge 
# Crystallographic Data Centre (CCDC).
# 
# Full information about CCDC data access policies and citation 
# guidelines are available at http://www.ccdc.cam.ac.uk/access/V1 
# 
# Audit and citation data items may have been added by the CCDC. 
# Please retain this information to preserve the provenance of 
# this file and to allow appropriate attribution of the data. 
# 
#######################################################################

data_2
_audit_block_doi                 10.5517/ccz28fq
_database_code_depnum_ccdc_archive 'CCDC 895913'
loop_
_citation_id
_citation_doi
_citation_year
1 10.1002/cphc.201300564 2013
_audit_update_record             
;
2013-05-29 deposited with the CCDC.	2024-07-13 downloaded from the CCDC.
;

_audit_creation_method           SHELXL-97
_chemical_name_systematic        
; 
 ? 
;
_chemical_name_common            ?
_chemical_melting_point          ?
_chemical_formula_moiety         ?
_chemical_formula_sum            'C32 H22 N4 O6 Zn'
_chemical_formula_weight         623.91

loop_
_atom_type_symbol
_atom_type_description
_atom_type_scat_dispersion_real
_atom_type_scat_dispersion_imag
_atom_type_scat_source
C C 0.0033 0.0016 'International Tables Vol C Tables 4.2.6.8 and 6.1.1.4'
H H 0.0000 0.0000 'International Tables Vol C Tables 4.2.6.8 and 6.1.1.4'
N N 0.0061 0.0033 'International Tables Vol C Tables 4.2.6.8 and 6.1.1.4'
O O 0.0106 0.0060 'International Tables Vol C Tables 4.2.6.8 and 6.1.1.4'
Zn Zn 0.2839 1.4301 'International Tables Vol C Tables 4.2.6.8 and 6.1.1.4'

_symmetry_cell_setting           Monoclinic
_symmetry_space_group_name_H-M   P2/c

loop_
_symmetry_equiv_pos_as_xyz
'x, y, z'
'-x, y, -z+1/2'
'-x, -y, -z'
'x, -y, z-1/2'

_cell_length_a                   13.6749(5)
_cell_length_b                   18.4956(6)
_cell_length_c                   15.6954(6)
_cell_angle_alpha                90.00
_cell_angle_beta                 93.152(2)
_cell_angle_gamma                90.00
_cell_volume                     3963.8(2)
_cell_formula_units_Z            4
_cell_measurement_temperature    296(2)
_cell_measurement_reflns_used    28840
_cell_measurement_theta_min      1.10
_cell_measurement_theta_max      25.00

_exptl_crystal_description       ?
_exptl_crystal_colour            ?
_exptl_crystal_size_max          0.20
_exptl_crystal_size_mid          0.15
_exptl_crystal_size_min          0.13
_exptl_crystal_density_meas      ?
_exptl_crystal_density_diffrn    1.045
_exptl_crystal_density_method    'not measured'
_exptl_crystal_F_000             1280
_exptl_absorpt_coefficient_mu    0.657
_exptl_absorpt_correction_type   Multi-scan
_exptl_absorpt_correction_T_min  0.8797
_exptl_absorpt_correction_T_max  0.9194
_exptl_absorpt_process_details   ?

_exptl_special_details           
; 
 ? 
;

_diffrn_ambient_temperature      296(2)
_diffrn_radiation_wavelength     0.71073
_diffrn_radiation_type           MoK\a
_diffrn_radiation_source         'fine-focus sealed tube'
_diffrn_radiation_monochromator  graphite
_diffrn_measurement_device_type  ?
_diffrn_measurement_method       ?
_diffrn_detector_area_resol_mean ?
_diffrn_standards_number         ?
_diffrn_standards_interval_count ?
_diffrn_standards_interval_time  ?
_diffrn_standards_decay_%        ?
_diffrn_reflns_number            28840
_diffrn_reflns_av_R_equivalents  0.0753
_diffrn_reflns_av_sigmaI/netI    0.0735
_diffrn_reflns_limit_h_min       -16
_diffrn_reflns_limit_h_max       16
_diffrn_reflns_limit_k_min       -21
_diffrn_reflns_limit_k_max       21
_diffrn_reflns_limit_l_min       -18
_diffrn_reflns_limit_l_max       18
_diffrn_reflns_theta_min         1.10
_diffrn_reflns_theta_max         25.00
_reflns_number_total             6967
_reflns_number_gt                4395
_reflns_threshold_expression     >2sigma(I)

_computing_data_collection       ?
_computing_cell_refinement       ?
_computing_data_reduction        ?
_computing_structure_solution    'SHELXS-97 (Sheldrick, 1990)'
_computing_structure_refinement  'SHELXL-97 (Sheldrick, 1997)'
_computing_molecular_graphics    ?
_computing_publication_material  ?

_refine_special_details          
; 
 Refinement of F^2^ against ALL reflections.  The weighted R-factor wR and 
 goodness of fit S are based on F^2^, conventional R-factors R are based 
 on F, with F set to zero for negative F^2^. The threshold expression of 
 F^2^ > 2sigma(F^2^) is used only for calculating R-factors(gt) etc. and is 
 not relevant to the choice of reflections for refinement.  R-factors based 
 on F^2^ are statistically about twice as large as those based on F, and R- 
 factors based on ALL data will be even larger. 
;

_refine_ls_structure_factor_coef Fsqd
_refine_ls_matrix_type           full
_refine_ls_weighting_scheme      calc
_refine_ls_weighting_details     
'calc w=1/[\s^2^(Fo^2^)+(0.0850P)^2^+0.0000P] where P=(Fo^2^+2Fc^2^)/3'
_atom_sites_solution_primary     direct
_atom_sites_solution_secondary   difmap
_atom_sites_solution_hydrogens   geom
_refine_ls_hydrogen_treatment    mixed
_refine_ls_extinction_method     none
_refine_ls_extinction_coef       ?
_refine_ls_number_reflns         6967
_refine_ls_number_parameters     394
_refine_ls_number_restraints     2
_refine_ls_R_factor_all          0.0936
_refine_ls_R_factor_gt           0.0609
_refine_ls_wR_factor_ref         0.1561
_refine_ls_wR_factor_gt          0.1439
_refine_ls_goodness_of_fit_ref   0.939
_refine_ls_restrained_S_all      0.938
_refine_ls_shift/su_max          0.001
_refine_ls_shift/su_mean         0.000

loop_
_atom_site_label
_atom_site_type_symbol
_atom_site_fract_x
_atom_site_fract_y
_atom_site_fract_z
_atom_site_U_iso_or_equiv
_atom_site_adp_type
_atom_site_occupancy
_atom_site_symmetry_multiplicity
_atom_site_calc_flag
_atom_site_refinement_flags
_atom_site_disorder_assembly
_atom_site_disorder_group
C1 C 0.6634(3) 0.7935(2) 0.8281(3) 0.0771(16) Uani 1 1 d . . .
H1 H 0.7276 0.7863 0.8134 0.092 Uiso 1 1 calc R . .
C2 C 0.5183(3) 0.7484(2) 0.8639(3) 0.0615(13) Uani 1 1 d . . .
H2 H 0.4788 0.7088 0.8741 0.074 Uiso 1 1 calc R . .
C3 C 0.4796(3) 0.8152(2) 0.8739(3) 0.0706(14) Uani 1 1 d . . .
H3 H 0.4156 0.8202 0.8902 0.085 Uiso 1 1 calc R . .
C4 C 0.6309(3) 0.8637(2) 0.8356(4) 0.093(2) Uani 1 1 d . . .
H4 H 0.6717 0.9024 0.8248 0.112 Uiso 1 1 calc R . .
C5 C 0.5354(3) 0.8754(2) 0.8600(3) 0.0633(13) Uani 1 1 d . . .
C6 C 0.5381(4) 1.0082(2) 0.8617(4) 0.0913(19) Uani 1 1 d . . .
C7 C 0.4811(3) 1.0750(2) 0.8784(3) 0.0743(14) Uani 1 1 d . . .
C8 C 0.3887(4) 1.0757(2) 0.9078(4) 0.101(2) Uani 1 1 d . . .
H8 H 0.3576 1.0324 0.9195 0.121 Uiso 1 1 calc R . .
C9 C 0.3418(4) 1.1400(3) 0.9201(5) 0.126(3) Uani 1 1 d . . .
H9 H 0.2790 1.1397 0.9399 0.151 Uiso 1 1 calc R . .
C10 C 0.5269(3) 1.1400(2) 0.8648(3) 0.0725(14) Uani 1 1 d . . .
H10 H 0.5906 1.1399 0.8468 0.087 Uiso 1 1 calc R . .
C11 C 0.6574(3) 0.4853(2) 0.8173(3) 0.0542(11) Uani 1 1 d . . .
H11 H 0.7157 0.4921 0.7905 0.065 Uiso 1 1 calc R . .
C12 C 0.5253(3) 0.5324(2) 0.8798(3) 0.0560(11) Uani 1 1 d . . .
H12 H 0.4899 0.5720 0.8978 0.067 Uiso 1 1 calc R . .
C13 C 0.4883(3) 0.4648(2) 0.8920(3) 0.0540(11) Uani 1 1 d . . .
H13 H 0.4293 0.4593 0.9181 0.065 Uiso 1 1 calc R . .
C14 C 0.6266(3) 0.4164(2) 0.8276(3) 0.0567(12) Uani 1 1 d . . .
H14 H 0.6636 0.3777 0.8096 0.068 Uiso 1 1 calc R . .
C15 C 0.5380(3) 0.40485(19) 0.8659(2) 0.0437(9) Uani 1 1 d . . .
C16 C 0.5375(3) 0.2714(2) 0.8570(3) 0.0667(13) Uani 1 1 d . . .
C17 C 0.4809(3) 0.2054(2) 0.8769(3) 0.0616(12) Uani 1 1 d . . .
C18 C 0.3859(4) 0.2050(2) 0.9037(4) 0.099(2) Uani 1 1 d . . .
H18 H 0.3524 0.2482 0.9106 0.119 Uiso 1 1 calc R . .
C19 C 0.7423(3) 0.6199(2) 0.6727(3) 0.0470(10) Uani 1 1 d . . .
C20 C 0.8189(2) 0.5864(2) 0.6176(3) 0.0450(10) Uani 1 1 d . . .
C21 C 0.9110(3) 0.5729(3) 0.6548(3) 0.0937(19) Uani 1 1 d . . .
H21 H 0.9261 0.5852 0.7115 0.112 Uiso 1 1 calc R . .
C22 C 0.7986(3) 0.5633(3) 0.5368(3) 0.0683(14) Uani 1 1 d . . .
H22 H 0.7361 0.5705 0.5118 0.082 Uiso 1 1 calc R . .
C23 C 0.8687(3) 0.5291(3) 0.4903(3) 0.0642(13) Uani 1 1 d . . .
H23 H 0.8522 0.5130 0.4353 0.077 Uiso 1 1 calc R . .
C24 C 0.9810(3) 0.5403(4) 0.6058(3) 0.107(2) Uani 1 1 d . . .
H24 H 1.0436 0.5332 0.6306 0.128 Uiso 1 1 calc R . .
C25 C 0.9628(2) 0.5188(2) 0.5250(3) 0.0467(10) Uani 1 1 d . . .
C26 C 0.7512(3) 0.64530(18) 1.0029(3) 0.0429(9) Uani 1 1 d . . .
C27 C 0.8231(2) 0.65020(19) 1.0757(2) 0.0432(9) Uani 1 1 d . . .
C28 C 0.9188(3) 0.6697(2) 1.0643(3) 0.0608(12) Uani 1 1 d . . .
H28 H 0.9376 0.6811 1.0099 0.073 Uiso 1 1 calc R . .
C29 C 0.7990(3) 0.6318(2) 1.1579(3) 0.0606(12) Uani 1 1 d . . .
H29 H 0.7352 0.6177 1.1673 0.073 Uiso 1 1 calc R . .
C30 C 0.8662(3) 0.6339(3) 1.2247(3) 0.0674(13) Uani 1 1 d . . .
H30 H 0.8474 0.6211 1.2787 0.081 Uiso 1 1 calc R . .
C31 C 0.9875(3) 0.6725(3) 1.1324(3) 0.0662(13) Uani 1 1 d . . .
H31 H 1.0512 0.6867 1.1228 0.079 Uiso 1 1 calc R . .
C32 C 0.9639(3) 0.6549(2) 1.2141(2) 0.0488(10) Uani 1 1 d . . .
H1M H 0.4351(17) 0.941(2) 0.888(2) 0.059 Uiso 1 1 d D . .
H2M H 0.450(2) 0.339(2) 0.912(2) 0.059 Uiso 1 1 d D . .
N1 N 0.6088(2) 0.73562(16) 0.8404(2) 0.0513(9) Uani 1 1 d . . .
N2 N 0.6103(2) 0.54465(16) 0.8428(2) 0.0449(8) Uani 1 1 d . . .
N3 N 0.4941(3) 0.94315(18) 0.8704(3) 0.0789(13) Uani 1 1 d D . .
N4 N 0.4988(2) 0.33658(17) 0.8803(2) 0.0525(9) Uani 1 1 d D . .
O1 O 0.66209(17) 0.63630(13) 1.01458(18) 0.0534(7) Uani 1 1 d . . .
O2 O 0.78290(17) 0.64927(14) 0.92762(17) 0.0505(7) Uani 1 1 d . . .
O3 O 0.7685(2) 0.63114(16) 0.7485(2) 0.0625(8) Uani 1 1 d . . .
O4 O 0.6605(2) 0.63263(19) 0.6379(2) 0.0860(11) Uani 1 1 d . . .
O5 O 0.6228(3) 1.01264(19) 0.8427(4) 0.173(3) Uani 1 1 d . . .
O6 O 0.6138(3) 0.26736(16) 0.8208(3) 0.1074(15) Uani 1 1 d . . .
Zn1 Zn 0.67821(3) 0.64099(2) 0.83797(3) 0.04202(17) Uani 1 1 d . . .

loop_
_atom_site_aniso_label
_atom_site_aniso_U_11
_atom_site_aniso_U_22
_atom_site_aniso_U_33
_atom_site_aniso_U_23
_atom_site_aniso_U_13
_atom_site_aniso_U_12
C1 0.046(2) 0.042(3) 0.147(5) 0.005(3) 0.034(3) 0.0026(19)
C2 0.046(2) 0.030(2) 0.110(4) 0.002(2) 0.022(2) -0.0024(17)
C3 0.048(2) 0.033(2) 0.134(4) 0.000(3) 0.027(3) 0.0049(18)
C4 0.062(3) 0.040(3) 0.182(6) 0.003(3) 0.045(3) 0.001(2)
C5 0.055(2) 0.024(2) 0.112(4) 0.003(2) 0.012(2) -0.0007(17)
C6 0.069(3) 0.036(3) 0.171(6) 0.000(3) 0.032(3) 0.001(2)
C7 0.076(3) 0.034(2) 0.116(4) -0.006(3) 0.028(3) 0.000(2)
C8 0.086(3) 0.036(3) 0.184(6) -0.009(3) 0.048(4) -0.008(3)
C9 0.092(4) 0.043(3) 0.251(9) -0.026(4) 0.085(5) 0.003(3)
C10 0.070(3) 0.029(2) 0.122(4) -0.005(2) 0.036(3) 0.001(2)
C11 0.051(2) 0.036(2) 0.079(3) -0.005(2) 0.029(2) 0.0015(18)
C12 0.043(2) 0.035(2) 0.092(3) -0.006(2) 0.026(2) 0.0030(17)
C13 0.041(2) 0.040(2) 0.083(3) -0.010(2) 0.020(2) 0.0016(17)
C14 0.060(2) 0.027(2) 0.086(3) -0.007(2) 0.033(2) 0.0053(18)
C15 0.046(2) 0.037(2) 0.050(3) -0.0005(18) 0.0108(18) -0.0034(17)
C16 0.065(3) 0.033(2) 0.106(4) -0.005(2) 0.034(3) -0.003(2)
C17 0.063(2) 0.029(2) 0.096(4) -0.003(2) 0.027(2) 0.0040(19)
C18 0.086(3) 0.033(2) 0.185(6) -0.008(3) 0.072(4) -0.002(2)
C19 0.039(2) 0.040(2) 0.063(3) -0.001(2) 0.020(2) 0.0009(16)
C20 0.0383(19) 0.046(2) 0.052(3) -0.006(2) 0.0159(18) 0.0028(16)
C21 0.053(3) 0.163(6) 0.065(4) -0.034(4) -0.001(2) 0.034(3)
C22 0.037(2) 0.099(4) 0.070(3) -0.020(3) 0.008(2) 0.015(2)
C23 0.048(2) 0.096(4) 0.049(3) -0.020(2) 0.005(2) 0.013(2)
C24 0.042(2) 0.213(7) 0.065(4) -0.048(4) 0.000(2) 0.043(3)
C25 0.0345(18) 0.063(3) 0.043(3) -0.006(2) 0.0070(17) 0.0081(18)
C26 0.045(2) 0.0294(19) 0.055(3) -0.0007(19) 0.0057(18) 0.0053(16)
C27 0.0413(18) 0.041(2) 0.048(3) 0.0015(19) 0.0083(17) -0.0021(16)
C28 0.048(2) 0.084(3) 0.052(3) 0.009(2) 0.011(2) -0.012(2)
C29 0.037(2) 0.096(4) 0.050(3) 0.003(2) 0.009(2) -0.007(2)
C30 0.047(2) 0.105(4) 0.051(3) 0.014(3) 0.011(2) -0.004(2)
C31 0.042(2) 0.097(4) 0.061(3) 0.006(3) 0.007(2) -0.021(2)
C32 0.0425(19) 0.062(3) 0.043(3) 0.0050(19) 0.0078(16) 0.0010(18)
N1 0.0405(16) 0.0370(18) 0.077(3) 0.0011(17) 0.0124(16) 0.0023(14)
N2 0.0434(16) 0.0369(18) 0.055(2) -0.0032(15) 0.0103(15) 0.0018(14)
N3 0.061(2) 0.0267(19) 0.151(4) -0.005(2) 0.030(3) 0.0005(17)
N4 0.0497(19) 0.0335(18) 0.077(3) -0.0056(17) 0.0274(18) 0.0005(14)
O1 0.0403(13) 0.0518(17) 0.069(2) -0.0095(14) 0.0116(13) -0.0069(12)
O2 0.0419(13) 0.0682(19) 0.0420(17) 0.0015(14) 0.0078(12) -0.0023(13)
O3 0.0582(17) 0.084(2) 0.047(2) -0.0118(16) 0.0180(14) 0.0095(15)
O4 0.0509(17) 0.120(3) 0.088(3) -0.025(2) 0.0123(17) 0.0314(18)
O5 0.097(3) 0.035(2) 0.396(9) -0.002(3) 0.093(4) 0.000(2)
O6 0.100(2) 0.0349(18) 0.197(4) -0.010(2) 0.090(3) 0.0063(17)
Zn1 0.0373(2) 0.0319(2) 0.0580(3) -0.0029(2) 0.01284(19) 0.00300(19)

_geom_special_details            
; 
 All esds (except the esd in the dihedral angle between two l.s. planes) 
 are estimated using the full covariance matrix.  The cell esds are taken 
 into account individually in the estimation of esds in distances, angles 
 and torsion angles; correlations between esds in cell parameters are only 
 used when they are defined by crystal symmetry.  An approximate (isotropic) 
 treatment of cell esds is used for estimating esds involving l.s. planes. 
;

loop_
_geom_bond_atom_site_label_1
_geom_bond_atom_site_label_2
_geom_bond_distance
_geom_bond_site_symmetry_2
_geom_bond_publ_flag
C1 N1 1.325(5) . ?
C1 C4 1.379(6) . ?
C1 H1 0.9300 . ?
C2 N1 1.332(4) . ?
C2 C3 1.356(5) . ?
C2 H2 0.9300 . ?
C3 C5 1.374(5) . ?
C3 H3 0.9300 . ?
C4 C5 1.397(6) . ?
C4 H4 0.9300 . ?
C5 N3 1.388(5) . ?
C6 O5 1.214(6) . ?
C6 N3 1.355(5) . ?
C6 C7 1.492(6) . ?
C7 C8 1.370(6) . ?
C7 C10 1.378(5) . ?
C8 C9 1.369(6) . ?
C8 H8 0.9300 . ?
C9 C18 1.375(6) 1_565 ?
C9 H9 0.9300 . ?
C10 C17 1.380(5) 1_565 ?
C10 H10 0.9300 . ?
C11 N2 1.345(4) . ?
C11 C14 1.353(5) . ?
C11 H11 0.9300 . ?
C12 N2 1.347(4) . ?
C12 C13 1.366(5) . ?
C12 H12 0.9300 . ?
C13 C15 1.374(5) . ?
C13 H13 0.9300 . ?
C14 C15 1.398(5) . ?
C14 H14 0.9300 . ?
C15 N4 1.395(5) . ?
C16 O6 1.217(5) . ?
C16 N4 1.374(5) . ?
C16 C17 1.488(5) . ?
C17 C10 1.380(5) 1_545 ?
C17 C18 1.389(6) . ?
C18 C9 1.375(6) 1_545 ?
C18 H18 0.9300 . ?
C19 O3 1.241(5) . ?
C19 O4 1.241(5) . ?
C19 C20 1.527(5) . ?
C20 C22 1.352(5) . ?
C20 C21 1.382(6) . ?
C21 C24 1.397(6) . ?
C21 H21 0.9300 . ?
C22 C23 1.388(5) . ?
C22 H22 0.9300 . ?
C23 C25 1.382(5) . ?
C23 H23 0.9300 . ?
C24 C25 1.339(6) . ?
C24 H24 0.9300 . ?
C25 C25 1.492(6) 3_766 ?
C26 O1 1.254(4) . ?
C26 O2 1.283(4) . ?
C26 C27 1.469(5) . ?
C27 C28 1.378(5) . ?
C27 C29 1.392(5) . ?
C28 C31 1.384(6) . ?
C28 H28 0.9300 . ?
C29 C30 1.356(6) . ?
C29 H29 0.9300 . ?
C30 C32 1.410(5) . ?
C30 H30 0.9300 . ?
C31 C32 1.378(5) . ?
C31 H31 0.9300 . ?
C32 C32 1.457(8) 2_757 ?
N1 Zn1 1.992(3) . ?
N2 Zn1 2.013(3) . ?
N3 H1M 0.869(18) . ?
N4 H2M 0.849(18) . ?
O2 Zn1 1.957(3) . ?
O3 Zn1 1.928(3) . ?

loop_
_geom_angle_atom_site_label_1
_geom_angle_atom_site_label_2
_geom_angle_atom_site_label_3
_geom_angle
_geom_angle_site_symmetry_1
_geom_angle_site_symmetry_3
_geom_angle_publ_flag
N1 C1 C4 124.1(4) . . ?
N1 C1 H1 117.9 . . ?
C4 C1 H1 117.9 . . ?
N1 C2 C3 124.7(4) . . ?
N1 C2 H2 117.7 . . ?
C3 C2 H2 117.7 . . ?
C2 C3 C5 119.7(4) . . ?
C2 C3 H3 120.1 . . ?
C5 C3 H3 120.1 . . ?
C1 C4 C5 118.7(4) . . ?
C1 C4 H4 120.6 . . ?
C5 C4 H4 120.6 . . ?
C3 C5 N3 118.6(4) . . ?
C3 C5 C4 116.9(4) . . ?
N3 C5 C4 124.4(4) . . ?
O5 C6 N3 121.3(4) . . ?
O5 C6 C7 120.1(4) . . ?
N3 C6 C7 118.6(4) . . ?
C8 C7 C10 118.6(4) . . ?
C8 C7 C6 124.6(4) . . ?
C10 C7 C6 116.7(4) . . ?
C9 C8 C7 120.2(4) . . ?
C9 C8 H8 119.9 . . ?
C7 C8 H8 119.9 . . ?
C8 C9 C18 121.3(5) . 1_565 ?
C8 C9 H9 119.4 . . ?
C18 C9 H9 119.4 1_565 . ?
C7 C10 C17 121.9(4) . 1_565 ?
C7 C10 H10 119.0 . . ?
C17 C10 H10 119.0 1_565 . ?
N2 C11 C14 125.2(3) . . ?
N2 C11 H11 117.4 . . ?
C14 C11 H11 117.4 . . ?
N2 C12 C13 123.3(3) . . ?
N2 C12 H12 118.3 . . ?
C13 C12 H12 118.3 . . ?
C12 C13 C15 120.2(3) . . ?
C12 C13 H13 119.9 . . ?
C15 C13 H13 119.9 . . ?
C11 C14 C15 118.5(3) . . ?
C11 C14 H14 120.7 . . ?
C15 C14 H14 120.7 . . ?
C13 C15 N4 118.7(3) . . ?
C13 C15 C14 117.3(3) . . ?
N4 C15 C14 123.9(3) . . ?
O6 C16 N4 122.1(4) . . ?
O6 C16 C17 121.1(4) . . ?
N4 C16 C17 116.9(3) . . ?
C10 C17 C18 118.5(4) 1_545 . ?
C10 C17 C16 116.4(4) 1_545 . ?
C18 C17 C16 125.1(4) . . ?
C9 C18 C17 119.3(4) 1_545 . ?
C9 C18 H18 120.4 1_545 . ?
C17 C18 H18 120.4 . . ?
O3 C19 O4 126.6(4) . . ?
O3 C19 C20 116.1(4) . . ?
O4 C19 C20 117.3(4) . . ?
C22 C20 C21 118.4(4) . . ?
C22 C20 C19 123.2(4) . . ?
C21 C20 C19 118.2(4) . . ?
C20 C21 C24 118.8(4) . . ?
C20 C21 H21 120.6 . . ?
C24 C21 H21 120.6 . . ?
C20 C22 C23 121.6(4) . . ?
C20 C22 H22 119.2 . . ?
C23 C22 H22 119.2 . . ?
C25 C23 C22 120.7(4) . . ?
C25 C23 H23 119.7 . . ?
C22 C23 H23 119.7 . . ?
C25 C24 C21 123.5(4) . . ?
C25 C24 H24 118.2 . . ?
C21 C24 H24 118.2 . . ?
C24 C25 C23 116.9(4) . . ?
C24 C25 C25 122.7(4) . 3_766 ?
C23 C25 C25 120.2(5) . 3_766 ?
O1 C26 O2 121.5(4) . . ?
O1 C26 C27 120.6(4) . . ?
O2 C26 C27 117.9(3) . . ?
C28 C27 C29 117.3(4) . . ?
C28 C27 C26 121.0(4) . . ?
C29 C27 C26 121.6(3) . . ?
C27 C28 C31 121.3(4) . . ?
C27 C28 H28 119.4 . . ?
C31 C28 H28 119.4 . . ?
C30 C29 C27 121.6(4) . . ?
C30 C29 H29 119.2 . . ?
C27 C29 H29 119.2 . . ?
C29 C30 C32 121.6(4) . . ?
C29 C30 H30 119.2 . . ?
C32 C30 H30 119.2 . . ?
C32 C31 C28 121.7(4) . . ?
C32 C31 H31 119.2 . . ?
C28 C31 H31 119.2 . . ?
C31 C32 C30 116.6(4) . . ?
C31 C32 C32 122.3(4) . 2_757 ?
C30 C32 C32 121.0(4) . 2_757 ?
C1 N1 C2 115.9(3) . . ?
C1 N1 Zn1 115.7(2) . . ?
C2 N1 Zn1 127.8(3) . . ?
C11 N2 C12 115.4(3) . . ?
C11 N2 Zn1 118.8(2) . . ?
C12 N2 Zn1 125.2(