####################################################################### 
# 
# This file contains crystal structure data downloaded from the 
# Cambridge Structural Database (CSD) hosted by the Cambridge 
# Crystallographic Data Centre (CCDC).
# 
# Full information about CCDC data access policies and citation 
# guidelines are available at http://www.ccdc.cam.ac.uk/access/V1 
# 
# Audit and citation data items may have been added by the CCDC. 
# Please retain this information to preserve the provenance of 
# this file and to allow appropriate attribution of the data. 
# 
#######################################################################

data_CZJ-1
_audit_block_doi                 10.5517/cc1008r1
_database_code_depnum_ccdc_archive 'CCDC 923792'
loop_
_citation_id
_citation_doi
_citation_year
1 10.1002/chem.201302025 2013
_audit_update_record             
;
2013-02-07 deposited with the CCDC.	2024-07-13 downloaded from the CCDC.
;
#TrackingRef 'CZJ_1.cif'


_audit_creation_method           SHELXL-97
_chemical_name_systematic        
;
?
;
_chemical_name_common            ?
_chemical_melting_point          ?
_chemical_formula_moiety         ?
_chemical_formula_sum            'C72 H37 Mn N8 O13 Zn2'
_chemical_formula_weight         1407.78

loop_
_atom_type_symbol
_atom_type_description
_atom_type_scat_dispersion_real
_atom_type_scat_dispersion_imag
_atom_type_scat_source
C C 0.0181 0.0091 'International Tables Vol C Tables 4.2.6.8 and 6.1.1.4'
H H 0.0000 0.0000 'International Tables Vol C Tables 4.2.6.8 and 6.1.1.4'
Mn Mn -0.5299 2.8052 'International Tables Vol C Tables 4.2.6.8 and 6.1.1.4'
N N 0.0311 0.0180 'International Tables Vol C Tables 4.2.6.8 and 6.1.1.4'
O O 0.0492 0.0322 'International Tables Vol C Tables 4.2.6.8 and 6.1.1.4'
Zn Zn -1.5491 0.6778 'International Tables Vol C Tables 4.2.6.8 and 6.1.1.4'

_symmetry_cell_setting           monoclinic
_symmetry_space_group_name_H-M   C2/m

loop_
_symmetry_equiv_pos_as_xyz
'x, y, z'
'-x, y, -z'
'x+1/2, y+1/2, z'
'-x+1/2, y+1/2, -z'
'-x, -y, -z'
'x, -y, z'
'-x+1/2, -y+1/2, -z'
'x+1/2, -y+1/2, z'

_cell_length_a                   22.058(7)
_cell_length_b                   16.9068(16)
_cell_length_c                   16.240(4)
_cell_angle_alpha                90.00
_cell_angle_beta                 121.36(4)
_cell_angle_gamma                90.00
_cell_volume                     5172(2)
_cell_formula_units_Z            2
_cell_measurement_temperature    293(2)
_cell_measurement_reflns_used    6790
_cell_measurement_theta_min      3.84
_cell_measurement_theta_max      58.93

_exptl_crystal_description       block
_exptl_crystal_colour            brown
_exptl_crystal_size_max          0.46
_exptl_crystal_size_mid          0.21
_exptl_crystal_size_min          0.06
_exptl_crystal_density_meas      ?
_exptl_crystal_density_diffrn    0.904
_exptl_crystal_density_method    'not measured'
_exptl_crystal_F_000             1428
_exptl_absorpt_coefficient_mu    1.895
_exptl_absorpt_correction_type   empirical
_exptl_absorpt_correction_T_min  0.651
_exptl_absorpt_correction_T_max  0.893
_exptl_absorpt_process_details   CrysAlisPro

_exptl_special_details           
;
?
;

_diffrn_ambient_temperature      293(2)
_diffrn_radiation_wavelength     1.54178
_diffrn_radiation_type           CuK\a
_diffrn_radiation_source         'fine-focus sealed tube'
_diffrn_radiation_monochromator  graphite
_diffrn_measurement_device_type  'Xcalibur, Atlas, Gemini ultra'
_diffrn_measurement_method       '\w scans'
_diffrn_detector_area_resol_mean 10.3592
_diffrn_standards_number         none
_diffrn_standards_interval_count none
_diffrn_standards_interval_time  none
_diffrn_standards_decay_%        ?
_diffrn_reflns_number            6790
_diffrn_reflns_av_R_equivalents  0.1031
_diffrn_reflns_av_sigmaI/netI    0.1318
_diffrn_reflns_limit_h_min       -24
_diffrn_reflns_limit_h_max       22
_diffrn_reflns_limit_k_min       -18
_diffrn_reflns_limit_k_max       18
_diffrn_reflns_limit_l_min       -8
_diffrn_reflns_limit_l_max       18
_diffrn_reflns_theta_min         3.84
_diffrn_reflns_theta_max         58.93
_reflns_number_total             3760
_reflns_number_gt                1543
_reflns_threshold_expression     >2sigma(I)

_computing_data_collection       'CrysAlisPro (Oxford Diffraction Ltd., 2010)'
_computing_cell_refinement       'CrysAlisPro (Oxford Diffraction Ltd., 2010)'
_computing_data_reduction        'CrysAlisPro (Oxford Diffraction Ltd., 2010)'
_computing_structure_solution    'SHELXS-97 (Sheldrick, 1990)'
_computing_structure_refinement  'SHELXL-97 (Sheldrick, 1997)'
_computing_molecular_graphics    ?
_computing_publication_material  ?

_refine_special_details          
;
Refinement of F^2^ against ALL reflections. The weighted R-factor wR and
goodness of fit S are based on F^2^, conventional R-factors R are based
on F, with F set to zero for negative F^2^. The threshold expression of
F^2^ > 2sigma(F^2^) is used only for calculating R-factors(gt) etc. and is
not relevant to the choice of reflections for refinement. R-factors based
on F^2^ are statistically about twice as large as those based on F, and R-
factors based on ALL data will be even larger.
;

# SQUEEZE RESULTS (APPEND TO CIF)
# Note: Data are Listed for all Voids in the P1 Unit Cell
# i.e. Centre of Gravity, Solvent Accessible Volume,
# Recovered number of Electrons in the Void and
# Details about the Squeezed Material
loop_
_platon_squeeze_void_nr
_platon_squeeze_void_average_x
_platon_squeeze_void_average_y
_platon_squeeze_void_average_z
_platon_squeeze_void_volume
_platon_squeeze_void_count_electrons
_platon_squeeze_void_content
1 -0.001 -0.006 -0.014 2674 691 ' '
_platon_squeeze_details          
;
;

_refine_ls_structure_factor_coef Fsqd
_refine_ls_matrix_type           full
_refine_ls_weighting_scheme      calc
_refine_ls_weighting_details     
'calc w=1/[\s^2^(Fo^2^)+(0.0202P)^2^+16.0100P] where P=(Fo^2^+2Fc^2^)/3'
_atom_sites_solution_primary     direct
_atom_sites_solution_secondary   difmap
_atom_sites_solution_hydrogens   geom
_refine_ls_hydrogen_treatment    constr
_refine_ls_extinction_method     none
_refine_ls_extinction_coef       ?
_refine_ls_number_reflns         3760
_refine_ls_number_parameters     238
_refine_ls_number_restraints     0
_refine_ls_R_factor_all          0.1436
_refine_ls_R_factor_gt           0.0882
_refine_ls_wR_factor_ref         0.2054
_refine_ls_wR_factor_gt          0.1757
_refine_ls_goodness_of_fit_ref   0.891
_refine_ls_restrained_S_all      0.891
_refine_ls_shift/su_max          0.000
_refine_ls_shift/su_mean         0.000

loop_
_atom_site_label
_atom_site_type_symbol
_atom_site_fract_x
_atom_site_fract_y
_atom_site_fract_z
_atom_site_U_iso_or_equiv
_atom_site_adp_type
_atom_site_occupancy
_atom_site_symmetry_multiplicity
_atom_site_calc_flag
_atom_site_refinement_flags
_atom_site_disorder_assembly
_atom_site_disorder_group
Zn1 Zn 0.07820(9) 0.0000 0.54794(10) 0.0932(5) Uani 1 2 d S . .
Mn1 Mn 0.0000 0.5000 1.0000 0.1007(9) Uani 1 4 d S . .
O1 O -0.0358(4) 0.0827(4) 0.5589(5) 0.118(2) Uani 1 1 d . . .
O2 O 0.0813(4) 0.0844(3) 0.6351(4) 0.1080(17) Uani 1 1 d . . .
O3 O 0.3518(4) 0.1345(4) 0.5293(5) 0.138(2) Uani 1 1 d . . .
O4 O -0.1212(6) 0.5000 0.8893(6) 0.063(3) Uani 0.50 2 d SP . .
N1 N 0.0000 0.3807(5) 1.0000 0.096(3) Uani 1 2 d S . .
N2 N 0.0179(5) 0.5000 0.8914(6) 0.102(3) Uani 1 2 d S . .
N3 N 0.1722(6) 0.0000 0.5524(7) 0.095(3) Uani 1 2 d S . .
N4 N 0.3563(6) 0.0000 0.5362(7) 0.117(3) Uani 1 2 d S . .
C1 C 0.0033(5) 0.2547(5) 0.9617(5) 0.120(3) Uani 1 1 d . . .
H1A H 0.0061 0.2098 0.9307 0.144 Uiso 1 1 calc R . .
C2 C 0.0052(5) 0.3310(4) 0.9353(5) 0.098(2) Uani 1 1 d . . .
C3 C 0.0199(5) 0.3552(5) 0.8666(5) 0.103(3) Uani 1 1 d . . .
C4 C 0.0251(5) 0.4337(4) 0.8432(5) 0.096(2) Uani 1 1 d . . .
C5 C 0.0386(4) 0.4621(4) 0.7720(5) 0.097(2) Uani 1 1 d . . .
H5A H 0.0464 0.4305 0.7314 0.117 Uiso 1 1 calc R . .
C6 C 0.0205(6) 0.2936(5) 0.8018(6) 0.098(2) Uani 1 1 d . . .
C7 C -0.0370(6) 0.2630(6) 0.7285(7) 0.126(3) Uani 1 1 d . . .
H7A H -0.0806 0.2831 0.7146 0.151 Uiso 1 1 calc R . .
C8 C -0.0373(5) 0.2035(6) 0.6708(6) 0.116(3) Uani 1 1 d . . .
H8A H -0.0801 0.1837 0.6209 0.139 Uiso 1 1 calc R . .
C9 C 0.0253(7) 0.1735(5) 0.6867(7) 0.105(3) Uani 1 1 d . . .
C10 C 0.0823(6) 0.2015(7) 0.7583(8) 0.140(4) Uani 1 1 d . . .
H10A H 0.1253 0.1795 0.7723 0.168 Uiso 1 1 calc R . .
C11 C 0.0839(7) 0.2634(6) 0.8171(7) 0.141(4) Uani 1 1 d . . .
H11A H 0.1270 0.2838 0.8657 0.170 Uiso 1 1 calc R . .
C12 C 0.0228(8) 0.1075(5) 0.6225(8) 0.112(3) Uani 1 1 d . . .
C13 C 0.2332(8) 0.0000 0.6278(9) 0.109(4) Uani 1 2 d S . .
H13A H 0.2359 0.0000 0.6869 0.131 Uiso 1 2 calc SR . .
C14 C 0.3008(8) 0.0000 0.6290(9) 0.129(5) Uani 1 2 d S . .
H14A H 0.3445 0.0000 0.6865 0.155 Uiso 1 2 calc SR . .
C15 C 0.2961(8) 0.0000 0.5468(10) 0.107(4) Uani 1 2 d S . .
C16 C 0.2302(9) 0.0000 0.4627(11) 0.133(5) Uani 1 2 d S . .
H16A H 0.2277 0.0000 0.4038 0.159 Uiso 1 2 calc SR . .
C17 C 0.1641(8) 0.0000 0.4638(9) 0.133(5) Uani 1 2 d S . .
H17A H 0.1196 0.0000 0.4075 0.159 Uiso 1 2 calc SR . .
C18 C 0.3796(6) 0.0749(7) 0.5265(7) 0.127(3) Uani 1 1 d . . .
C19 C 0.4681(6) 0.1408(7) 0.5058(7) 0.138(3) Uani 1 1 d . . .
H19A H 0.4469 0.1877 0.5078 0.166 Uiso 1 1 calc R . .
C20 C 0.4436(5) 0.0714(6) 0.5129(6) 0.113(3) Uani 1 1 d . . .
C21 C 0.4677(6) 0.0000 0.5038(7) 0.095(3) Uani 1 2 d S . .

loop_
_atom_site_aniso_label
_atom_site_aniso_U_11
_atom_site_aniso_U_22
_atom_site_aniso_U_33
_atom_site_aniso_U_23
_atom_site_aniso_U_13
_atom_site_aniso_U_12
Zn1 0.1374(13) 0.0832(9) 0.0955(10) 0.000 0.0861(10) 0.000
Mn1 0.176(3) 0.0717(14) 0.0888(16) 0.000 0.0933(18) 0.000
O1 0.154(6) 0.114(4) 0.118(5) -0.004(4) 0.094(4) -0.003(4)
O2 0.127(5) 0.108(4) 0.106(4) 0.006(3) 0.073(4) 0.010(4)
O3 0.136(6) 0.126(5) 0.186(6) -0.010(5) 0.108(5) 0.003(4)
O4 0.068(7) 0.065(6) 0.048(6) 0.000 0.025(5) 0.000
N1 0.127(8) 0.091(6) 0.093(6) 0.000 0.074(6) 0.000
N2 0.154(9) 0.079(5) 0.092(6) 0.000 0.079(6) 0.000
N3 0.117(8) 0.110(6) 0.087(6) 0.000 0.073(6) 0.000
N4 0.128(9) 0.127(9) 0.123(8) 0.000 0.083(7) 0.000
C1 0.192(9) 0.096(6) 0.094(6) -0.008(4) 0.091(6) 0.000(6)
C2 0.166(8) 0.064(4) 0.090(5) -0.001(4) 0.086(5) -0.005(4)
C3 0.149(8) 0.091(5) 0.085(5) -0.002(4) 0.072(5) 0.004(5)
C4 0.146(7) 0.081(5) 0.081(4) -0.004(4) 0.074(5) 0.001(5)
C5 0.144(7) 0.090(5) 0.082(4) 0.003(3) 0.076(5) 0.007(4)
C6 0.139(8) 0.082(5) 0.094(6) -0.006(4) 0.076(6) 0.005(5)
C7 0.151(10) 0.123(7) 0.119(7) -0.009(6) 0.081(7) 0.008(7)
C8 0.126(8) 0.127(7) 0.102(6) -0.022(5) 0.065(6) 0.009(6)
C9 0.163(9) 0.088(5) 0.098(6) -0.007(5) 0.091(7) -0.001(6)
C10 0.141(9) 0.148(9) 0.132(8) -0.051(7) 0.071(7) 0.006(7)
C11 0.155(10) 0.134(8) 0.137(8) -0.042(7) 0.076(7) -0.015(7)
C12 0.175(12) 0.096(6) 0.105(7) 0.012(5) 0.101(8) 0.016(7)
C13 0.134(12) 0.119(9) 0.093(8) 0.000 0.073(9) 0.000
C14 0.119(11) 0.188(14) 0.098(8) 0.000 0.068(8) 0.000
C15 0.114(11) 0.129(10) 0.104(9) 0.000 0.074(9) 0.000
C16 0.138(13) 0.189(14) 0.122(10) 0.000 0.104(11) 0.000
C17 0.130(12) 0.186(13) 0.111(9) 0.000 0.083(9) 0.000
C18 0.136(9) 0.132(9) 0.141(8) 0.005(7) 0.093(7) 0.002(7)
C19 0.155(11) 0.131(8) 0.158(8) 0.005(7) 0.102(8) 0.010(7)
C20 0.118(7) 0.132(8) 0.122(7) 0.001(6) 0.085(6) -0.004(6)
C21 0.104(10) 0.099(8) 0.097(7) 0.000 0.063(7) 0.000

_geom_special_details            
;
All esds (except the esd in the dihedral angle between two l.s. planes)
are estimated using the full covariance matrix. The cell esds are taken
into account individually in the estimation of esds in distances, angles
and torsion angles; correlations between esds in cell parameters are only
used when they are defined by crystal symmetry. An approximate (isotropic)
treatment of cell esds is used for estimating esds involving l.s. planes.
;

loop_
_geom_bond_atom_site_label_1
_geom_bond_atom_site_label_2
_geom_bond_distance
_geom_bond_site_symmetry_2
_geom_bond_publ_flag
Zn1 O2 1.987(6) 6 ?
Zn1 O2 1.987(6) . ?
Zn1 O1 2.038(7) 5_556 ?
Zn1 O1 2.038(7) 2_556 ?
Zn1 N3 2.038(10) . ?
Zn1 Zn1 2.955(4) 5_556 ?
Mn1 N2 1.998(8) 5_567 ?
Mn1 N2 1.998(8) . ?
Mn1 N1 2.016(8) . ?
Mn1 N1 2.016(8) 5_567 ?
Mn1 O4 2.318(11) 5_567 ?
Mn1 O4 2.318(11) . ?
O1 C12 1.234(12) . ?
O1 Zn1 2.038(7) 5_556 ?
O2 C12 1.259(12) . ?
O3 C18 1.193(11) . ?
N1 C2 1.397(8) 2_557 ?
N1 C2 1.397(8) . ?
N2 C4 1.422(8) . ?
N2 C4 1.422(8) 6_565 ?
N3 C13 1.263(14) . ?
N3 C17 1.354(13) . ?
N4 C18 1.405(12) . ?
N4 C18 1.405(11) 6 ?
N4 C15 1.426(15) . ?
C1 C1 1.325(13) 2_557 ?
C1 C2 1.367(10) . ?
C1 H1A 0.9300 . ?
C2 C3 1.376(9) . ?
C3 C4 1.402(10) . ?
C3 C6 1.486(10) . ?
C4 C5 1.421(8) . ?
C5 C5 1.281(14) 6_565 ?
C5 H5A 0.9300 . ?
C6 C7 1.312(12) . ?
C6 C11 1.385(13) . ?
C7 C8 1.372(12) . ?
C7 H7A 0.9300 . ?
C8 C9 1.364(12) . ?
C8 H8A 0.9300 . ?
C9 C10 1.279(12) . ?
C9 C12 1.509(12) . ?
C10 C11 1.405(13) . ?
C10 H10A 0.9300 . ?
C11 H11A 0.9300 . ?
C13 C14 1.480(17) . ?
C13 H13A 0.9300 . ?
C14 C15 1.283(14) . ?
C14 H14A 0.9300 . ?
C15 C16 1.382(17) . ?
C16 C17 1.467(18) . ?
C16 H16A 0.9300 . ?
C17 H17A 0.9300 . ?
C18 C20 1.540(13) . ?
C19 C20 1.321(12) . ?
C19 C19 1.515(19) 2_656 ?
C19 H19A 0.9300 . ?
C20 C21 1.356(11) . ?
C21 C20 1.356(11) 6 ?
C21 C21 1.50(2) 5_656 ?

loop_
_geom_angle_atom_site_label_1
_geom_angle_atom_site_label_2
_geom_angle_atom_site_label_3
_geom_angle
_geom_angle_site_symmetry_1
_geom_angle_site_symmetry_3
_geom_angle_publ_flag
O2 Zn1 O2 91.9(3) 6 . ?
O2 Zn1 O1 86.8(2) 6 5_556 ?
O2 Zn1 O1 158.5(3) . 5_556 ?
O2 Zn1 O1 158.5(3) 6 2_556 ?
O2 Zn1 O1 86.8(2) . 2_556 ?
O1 Zn1 O1 86.6(3) 5_556 2_556 ?
O2 Zn1 N3 108.5(3) 6 . ?
O2 Zn1 N3 108.5(3) . . ?
O1 Zn1 N3 92.2(3) 5_556 . ?
O1 Zn1 N3 92.2(3) 2_556 . ?
O2 Zn1 Zn1 88.5(2) 6 5_556 ?
O2 Zn1 Zn1 88.5(2) . 5_556 ?
O1 Zn1 Zn1 70.0(2) 5_556 5_556 ?
O1 Zn1 Zn1 70.0(2) 2_556 5_556 ?
N3 Zn1 Zn1 155.0(3) . 5_556 ?
N2 Mn1 N2 179.999(2) 5_567 . ?
N2 Mn1 N1 90.000(3) 5_567 . ?
N2 Mn1 N1 90.000(2) . . ?
N2 Mn1 N1 90.001(3) 5_567 5_567 ?
N2 Mn1 N1 89.999(3) . 5_567 ?
N1 Mn1 N1 179.998(2) . 5_567 ?
N2 Mn1 O4 89.6(4) 5_567 5_567 ?
N2 Mn1 O4 90.4(4) . 5_567 ?
N1 Mn1 O4 90.000(1) . 5_567 ?
N1 Mn1 O4 89.999(5) 5_567 5_567 ?
N2 Mn1 O4 90.4(4) 5_567 . ?
N2 Mn1 O4 89.6(4) . . ?
N1 Mn1 O4 90.000(5) . . ?
N1 Mn1 O4 90.001(1) 5_567 . ?
O4 Mn1 O4 179.998(1) 5_567 . ?
C12 O1 Zn1 139.7(7) . 5_556 ?
C12 O2 Zn1 117.0(7) . . ?
C2 N1 C2 106.0(8) 2_557 . ?
C2 N1 Mn1 127.0(4) 2_557 . ?
C2 N1 Mn1 127.0(4) . . ?
C4 N2 C4 104.0(7) . 6_565 ?
C4 N2 Mn1 128.0(4) . . ?
C4 N2 Mn1 128.0(4) 6_565 . ?
C13 N3 C17 121.0(11) . . ?
C13 N3 Zn1 125.8(8) . . ?
C17 N3 Zn1 113.1(9) . . ?
C18 N4 C18 128.5(12) . 6 ?
C18 N4 C15 115.6(6) . . ?
C18 N4 C15 115.6(6) 6 . ?
C1 C1 C2 109.3(4) 2_557 . ?
C1 C1 H1A 125.3 2_557 . ?
C2 C1 H1A 125.3 . . ?
C1 C2 C3 126.4(7) . . ?
C1 C2 N1 107.7(6) . . ?
C3 C2 N1 125.3(7) . . ?
C2 C3 C4 126.0(7) . . ?
C2 C3 C6 117.3(7) . . ?
C4 C3 C6 116.1(6) . . ?
C3 C4 C5 128.5(6) . . ?
C3 C4 N2 123.3(6) . . ?
C5 C4 N2 108.2(6) . . ?
C5 C5 C4 109.8(4) 6_565 . ?
C5 C5 H5A 125.1 6_565 . ?
C4 C5 H5A 125.1 . . ?
C7 C6 C11 115.3(8) . . ?
C7 C6 C3 124.0(10) . . ?
C11 C6 C3 120.8(9) . . ?
C6 C7 C8 124.6(10) . . ?
C6 C7 H7A 117.7 . . ?
C8 C7 H7A 117.7 . . ?
C9 C8 C7 119.9(9) . . ?
C9 C8 H8A 120.0 . . ?
C7 C8 H8A 120.0 . . ?
C10 C9 C8 117.0(8) . . ?
C10 C9 C12 124.6(11) . . ?
C8 C9 C12 118.3(11) . . ?
C9 C10 C11 124.0(11) . . ?
C9 C10 H10A 118.0 . . ?
C11 C10 H10A 118.0 . . ?
C6 C11 C10 119.1(10) . . ?
C6 C11 H11A 120.4 . . ?
C10 C11 H11A 120.4 . . ?
O1 C12 O2 124.8(9) . . ?
O1 C12 C9 118.4(11) . . ?
O2 C12 C9 116.8(12) . . ?
N3 C13 C14 124.7(11) . . ?
N3 C13 H13A 117.6 . . ?
C14 C13 H13A 117.6 . . ?
C15 C14 C13 116.7(13) . . ?
C15 C14 H14A 121.6 . . ?
C13 C14 H14A 121.6 . . ?
C14 C15 C16 120.2(13) . . ?
C14 C15 N4 123.3(14) . . ?
C16 C15 N4 116.5(11) . . ?
C15 C16 C17 121.9(11) . . ?
C15 C16 H16A 119.1 . . ?
C17 C16 H16A 119.1 . . ?
N3 C17 C16 115.4(12) . . ?
N3 C17 H17A 122.3 . . ?
C16 C17 H17A 122.3 . . ?
O3 C18 N4 122.1(10) . . ?
O3 C18 C20 124.4(10) . . ?
N4 C18 C20 113.4(10) . . ?
C20 C19 C19 117.3(6) . 2_656 ?
C20 C19 H19A 121.4 . . ?
C19 C19 H19A 121.4 2_656 . ?
C19 C20 C21 125.5(9) . . ?
C19 C20 C18 115.1(9) . . ?
C21 C20 C18 119.3(10) . . ?
C20 C21 C20 125.6(11) 6 . ?
C20 C21 C21 116.9(6) 6 5_656 ?
C20 C21 C21 116.9(6) . 5_656 ?

_diffrn_measured_fraction_theta_max 0.971
_diffrn_reflns_theta_full        58.93
_diffrn_measured_fraction_theta_full 0.971
_refine_diff_density_max         0.503
_refine_diff_density_min         -0.487
_refine_diff_density_rms         0.061
