####################################################################### 
# 
# This file contains crystal structure data downloaded from the 
# Cambridge Structural Database (CSD) hosted by the Cambridge 
# Crystallographic Data Centre (CCDC).
# 
# Full information about CCDC data access policies and citation 
# guidelines are available at http://www.ccdc.cam.ac.uk/access/V1 
# 
# Audit and citation data items may have been added by the CCDC. 
# Please retain this information to preserve the provenance of 
# this file and to allow appropriate attribution of the data. 
# 
#######################################################################

data_ZJU-16-Mn-Styrene
_audit_block_doi                 10.5517/ccym0yh
_database_code_depnum_ccdc_archive 'CCDC 882227'
loop_
_citation_id
_citation_doi
_citation_year
1 10.1002/chem.201302025 2013
_audit_update_record             
;
2012-05-15 deposited with the CCDC.	2024-07-13 downloaded from the CCDC.
;
#TrackingRef 'ZJU-16_Mn_Styrene.cif'


_audit_creation_method           SHELXL-97
_chemical_name_systematic        
;
?
;
_chemical_name_common            ?
_chemical_melting_point          ?
_chemical_formula_moiety         ?
_chemical_formula_sum            'C88 H52 Mn N8 O12 Zn2'
_chemical_formula_weight         1599.06

loop_
_atom_type_symbol
_atom_type_description
_atom_type_scat_dispersion_real
_atom_type_scat_dispersion_imag
_atom_type_scat_source
C C 0.0181 0.0091 'International Tables Vol C Tables 4.2.6.8 and 6.1.1.4'
H H 0.0000 0.0000 'International Tables Vol C Tables 4.2.6.8 and 6.1.1.4'
Mn Mn -0.5299 2.8052 'International Tables Vol C Tables 4.2.6.8 and 6.1.1.4'
N N 0.0311 0.0180 'International Tables Vol C Tables 4.2.6.8 and 6.1.1.4'
O O 0.0492 0.0322 'International Tables Vol C Tables 4.2.6.8 and 6.1.1.4'
Zn Zn -1.5491 0.6778 'International Tables Vol C Tables 4.2.6.8 and 6.1.1.4'

_symmetry_cell_setting           triclinic
_symmetry_space_group_name_H-M   P-1

loop_
_symmetry_equiv_pos_as_xyz
'x, y, z'
'-x, -y, -z'

_cell_length_a                   13.372(3)
_cell_length_b                   14.164(3)
_cell_length_c                   16.713(3)
_cell_angle_alpha                69.626(16)
_cell_angle_beta                 68.786(17)
_cell_angle_gamma                73.544(17)
_cell_volume                     2721.1(9)
_cell_formula_units_Z            1
_cell_measurement_temperature    293(2)
_cell_measurement_reflns_used    8872
_cell_measurement_theta_min      3.60
_cell_measurement_theta_max      50.77

_exptl_crystal_description       block
_exptl_crystal_colour            brown
_exptl_crystal_size_max          0.46
_exptl_crystal_size_mid          0.13
_exptl_crystal_size_min          0.07
_exptl_crystal_density_meas      ?
_exptl_crystal_density_diffrn    0.976
_exptl_crystal_density_method    'not measured'
_exptl_crystal_F_000             817
_exptl_absorpt_coefficient_mu    1.843
_exptl_absorpt_correction_type   empirical
_exptl_absorpt_correction_T_min  0.750
_exptl_absorpt_correction_T_max  0.879
_exptl_absorpt_process_details   CrysAlisPro

_exptl_special_details           
;
?
;

_diffrn_ambient_temperature      293(2)
_diffrn_radiation_wavelength     1.54178
_diffrn_radiation_type           CuK\a
_diffrn_radiation_source         'fine-focus sealed tube'
_diffrn_radiation_monochromator  graphite
_diffrn_measurement_device_type  'Xcalibur, Atlas, Gemini ultra'
_diffrn_measurement_method       '\w scans'
_diffrn_detector_area_resol_mean 10.3592
_diffrn_standards_number         none
_diffrn_standards_interval_count none
_diffrn_standards_interval_time  none
_diffrn_standards_decay_%        ?
_diffrn_reflns_number            8872
_diffrn_reflns_av_R_equivalents  0.1054
_diffrn_reflns_av_sigmaI/netI    0.1697
_diffrn_reflns_limit_h_min       -13
_diffrn_reflns_limit_h_max       13
_diffrn_reflns_limit_k_min       -13
_diffrn_reflns_limit_k_max       14
_diffrn_reflns_limit_l_min       -16
_diffrn_reflns_limit_l_max       16
_diffrn_reflns_theta_min         3.60
_diffrn_reflns_theta_max         50.77
_reflns_number_total             5598
_reflns_number_gt                2378
_reflns_threshold_expression     >2sigma(I)

_computing_data_collection       'CrysAlisPro (Oxford Diffraction Ltd., 2010)'
_computing_cell_refinement       'CrysAlisPro (Oxford Diffraction Ltd., 2010)'
_computing_data_reduction        'CrysAlisPro (Oxford Diffraction Ltd., 2010)'
_computing_structure_solution    'SHELXS-97 (Sheldrick, 1990)'
_computing_structure_refinement  'SHELXL-97 (Sheldrick, 1997)'
_computing_molecular_graphics    ?
_computing_publication_material  ?

_refine_special_details          
;
Refinement of F^2^ against ALL reflections. The weighted R-factor wR and
goodness of fit S are based on F^2^, conventional R-factors R are based
on F, with F set to zero for negative F^2^. The threshold expression of
F^2^ > 2sigma(F^2^) is used only for calculating R-factors(gt) etc. and is
not relevant to the choice of reflections for refinement. R-factors based
on F^2^ are statistically about twice as large as those based on F, and R-
factors based on ALL data will be even larger.
;

_refine_ls_structure_factor_coef Fsqd
_refine_ls_matrix_type           full
_refine_ls_weighting_scheme      calc
_refine_ls_weighting_details     
'calc w=1/[\s^2^(Fo^2^)+(0.0616P)^2^+9.8370P] where P=(Fo^2^+2Fc^2^)/3'
_atom_sites_solution_primary     direct
_atom_sites_solution_secondary   difmap
_atom_sites_solution_hydrogens   geom
_refine_ls_hydrogen_treatment    constr
_refine_ls_extinction_method     none
_refine_ls_extinction_coef       ?
_refine_ls_number_reflns         5598
_refine_ls_number_parameters     465
_refine_ls_number_restraints     23
_refine_ls_R_factor_all          0.2044
_refine_ls_R_factor_gt           0.1339
_refine_ls_wR_factor_ref         0.3226
_refine_ls_wR_factor_gt          0.2799
_refine_ls_goodness_of_fit_ref   1.013
_refine_ls_restrained_S_all      1.013
_refine_ls_shift/su_max          0.000
_refine_ls_shift/su_mean         0.000

loop_
_atom_site_label
_atom_site_type_symbol
_atom_site_fract_x
_atom_site_fract_y
_atom_site_fract_z
_atom_site_U_iso_or_equiv
_atom_site_adp_type
_atom_site_occupancy
_atom_site_symmetry_multiplicity
_atom_site_calc_flag
_atom_site_refinement_flags
_atom_site_disorder_assembly
_atom_site_disorder_group
Zn1 Zn 0.91777(15) 0.43290(13) 0.04068(10) 0.1049(8) Uani 1 1 d . . .
Mn1 Mn 0.5000 1.0000 0.5000 0.192(2) Uani 1 2 d S . .
O1 O 0.0015(8) 1.3411(7) 0.1251(5) 0.119(3) Uani 1 1 d . . .
O2 O 0.1316(8) 1.4455(7) 0.0585(6) 0.128(3) Uani 1 1 d . . .
O3 O 0.9669(11) 0.6245(10) 0.0600(8) 0.142(4) Uani 1 1 d . . .
O4 O 0.8382(9) 0.5162(9) 0.1260(6) 0.129(4) Uani 1 1 d . . .
O5 O 0.7630(12) 0.0212(10) 0.0673(11) 0.196(6) Uani 1 1 d . . .
O6 O 0.4967(11) 0.2918(12) 0.0116(10) 0.192(6) Uani 1 1 d . . .
N1 N 0.4945(10) 0.9894(9) 0.3881(8) 0.136(4) Uani 1 1 d . . .
N2 N 0.6248(10) 0.8881(10) 0.4954(7) 0.149(5) Uani 1 1 d . . .
N3 N 0.8304(10) 0.3499(7) 0.0621(8) 0.137(6) Uani 1 1 d . . .
N4 N 0.6355(17) 0.1471(16) 0.0406(8) 0.157(7) Uani 1 1 d . . .
C1 C 0.0859(15) 1.3672(14) 0.1160(12) 0.126(6) Uiso 1 1 d . . .
C2 C 0.1582(17) 1.3095(12) 0.1795(11) 0.121(5) Uani 1 1 d . . .
C3 C 0.1099(13) 1.2371(15) 0.2497(13) 0.147(6) Uani 1 1 d . . .
H3A H 0.0415 1.2259 0.2570 0.177 Uiso 1 1 calc R . .
C4 C 0.1740(18) 1.1753(15) 0.3160(11) 0.167(8) Uani 1 1 d . . .
H4A H 0.1460 1.1266 0.3680 0.200 Uiso 1 1 calc R . .
C5 C 0.2771(16) 1.1969(14) 0.2930(12) 0.124(5) Uani 1 1 d . . .
C6 C 0.3148(14) 1.2668(15) 0.2237(13) 0.166(8) Uani 1 1 d . . .
H6A H 0.3845 1.2781 0.2121 0.199 Uiso 1 1 calc R . .
C7 C 0.2556(15) 1.3246(15) 0.1672(10) 0.153(7) Uani 1 1 d . . .
H7A H 0.2846 1.3761 0.1185 0.184 Uiso 1 1 calc R . .
C8 C 0.3434(13) 1.1349(12) 0.3590(10) 0.146(6) Uani 1 1 d . . .
C9 C 0.4191(13) 1.0535(13) 0.3399(9) 0.134(5) Uani 1 1 d . . .
C10 C 0.4425(17) 1.0198(14) 0.2618(9) 0.167(7) Uani 1 1 d . . .
H10A H 0.4056 1.0491 0.2188 0.201 Uiso 1 1 calc R . .
C11 C 0.5256(13) 0.9396(14) 0.2605(9) 0.146(6) Uani 1 1 d . . .
H11A H 0.5565 0.9029 0.2182 0.175 Uiso 1 1 calc R . .
C12 C 0.5558(14) 0.9235(11) 0.3385(9) 0.134(5) Uani 1 1 d . . .
C13 C 0.6468(13) 0.8458(12) 0.3600(10) 0.149(6) Uani 1 1 d . . .
C14 C 0.6706(14) 0.8283(13) 0.4376(11) 0.169(8) Uani 1 1 d . . .
C15 C 0.7647(15) 0.7513(13) 0.4601(12) 0.198(9) Uani 1 1 d . . .
H15A H 0.8120 0.7070 0.4269 0.238 Uiso 1 1 calc R . .
C16 C 0.7692(15) 0.7569(13) 0.5348(11) 0.200(10) Uani 1 1 d . . .
H16A H 0.8195 0.7169 0.5654 0.240 Uiso 1 1 calc R . .
C17 C 0.6798(15) 0.8382(12) 0.5615(12) 0.157(6) Uani 1 1 d . . .
C18 C 0.7008(16) 0.7812(14) 0.3013(11) 0.126(6) Uani 1 1 d . . .
C19 C 0.6636(17) 0.6928(16) 0.3109(10) 0.163(7) Uani 1 1 d . . .
H19A H 0.6036 0.6735 0.3587 0.195 Uiso 1 1 calc R . .
C20 C 0.7178(18) 0.6299(16) 0.2465(15) 0.192(9) Uani 1 1 d . . .
H20A H 0.6899 0.5762 0.2474 0.230 Uiso 1 1 calc R . .
C21 C 0.8128(15) 0.6585(12) 0.1856(11) 0.115(5) Uani 1 1 d . . .
C22 C 0.8551(14) 0.7452(13) 0.1718(11) 0.138(5) Uani 1 1 d . . .
H22A H 0.9163 0.7654 0.1259 0.166 Uiso 1 1 calc R . .
C23 C 0.789(2) 0.7994(15) 0.2398(14) 0.180(9) Uani 1 1 d . . .
H23A H 0.8158 0.8545 0.2379 0.216 Uiso 1 1 calc R . .
C24 C 0.8807(19) 0.5917(14) 0.1112(12) 0.128(6) Uani 1 1 d . . .
C25 C 0.7968(18) 0.3543(17) -0.0274(12) 0.213(10) Uani 1 1 d . . .
H25A H 0.8231 0.4012 -0.0814 0.255 Uiso 1 1 calc R . .
C26 C 0.7287(15) 0.2884(17) -0.0240(13) 0.194(9) Uani 1 1 d . . .
H26A H 0.7092 0.3033 -0.0757 0.232 Uiso 1 1 calc R . .
C27 C 0.6891(16) 0.2085(13) 0.0428(11) 0.162(7) Uani 1 1 d . . .
C28 C 0.7150(15) 0.2119(13) 0.1306(10) 0.153(7) Uani 1 1 d . . .
H28A H 0.6888 0.1697 0.1874 0.184 Uiso 1 1 calc R . .
C29 C 0.7792(9) 0.2828(11) 0.1132(10) 0.097(5) Uani 1 1 d . . .
H29A H 0.7868 0.2751 0.1684 0.117 Uiso 1 1 calc R . .
C30 C 0.673(2) 0.0477(17) 0.0475(13) 0.187(11) Uani 1 1 d . . .
C31 C 0.533(2) 0.198(2) 0.0169(14) 0.162(8) Uani 1 1 d . . .
C32 C 0.6704(15) -0.1061(16) 0.0333(10) 0.150(7) Uani 1 1 d . . .
H32A H 0.7367 -0.1331 0.0459 0.181 Uiso 1 1 calc R . .
C33 C 0.631(2) -0.0080(17) 0.0288(12) 0.168(9) Uani 1 1 d . . .
C34 C 0.5228(18) 0.0361(18) 0.0072(10) 0.142(7) Uani 1 1 d . . .
C35 C 0.478(2) 0.1384(16) 0.0020(11) 0.162(9) Uani 1 1 d . . .
C36 C 0.3782(18) 0.1719(16) -0.0209(15) 0.183(9) Uani 1 1 d . . .
H36A H 0.3448 0.2402 -0.0278 0.219 Uiso 1 1 calc R . .
C41 C 0.918(3) 0.119(2) -0.162(2) 0.180(13) Uiso 0.50 1 d PGD . .
H41A H 0.9241 0.1855 -0.1699 0.215 Uiso 0.50 1 calc PR . .
C42 C 0.983(2) 0.037(3) -0.118(2) 0.33(3) Uiso 0.50 1 d PGD . .
H42A H 1.0329 0.0486 -0.0976 0.391 Uiso 0.50 1 calc PR . .
C43 C 0.974(3) -0.063(3) -0.106(2) 0.28(2) Uiso 0.50 1 d PGD . .
H43A H 1.0173 -0.1179 -0.0771 0.340 Uiso 0.50 1 calc PR . .
C44 C 0.899(3) -0.081(2) -0.137(2) 0.29(2) Uiso 0.50 1 d PGD . .
H44A H 0.8928 -0.1474 -0.1289 0.344 Uiso 0.50 1 calc PR . .
C45 C 0.834(3) 0.001(3) -0.180(2) 0.215(17) Uiso 0.50 1 d PGD . .
H45A H 0.7839 -0.0104 -0.2011 0.258 Uiso 0.50 1 calc PR . .
C46 C 0.843(3) 0.101(2) -0.193(2) 0.32(4) Uiso 0.50 1 d PGD . .
C47 C 0.778(5) 0.198(3) -0.233(6) 0.35(5) Uiso 0.50 1 d PD . .
H47A H 0.7995 0.2610 -0.2541 0.417 Uiso 0.50 1 calc PR . .
C48 C 0.684(5) 0.183(5) -0.235(6) 0.31(4) Uiso 0.50 1 d PD . .
H48A H 0.6652 0.1145 -0.2103 0.372 Uiso 0.50 1 d P . .
H48B H 0.6337 0.2384 -0.2598 0.372 Uiso 0.50 1 d P . .
C51 C 0.577(5) 1.313(2) 0.412(4) 0.30(5) Uiso 0.50 1 d PGD . .
H51A H 0.5678 1.3670 0.4353 0.361 Uiso 0.50 1 calc PR . .
C52 C 0.625(4) 1.215(2) 0.452(3) 0.35(7) Uiso 0.50 1 d PGD . .
H52A H 0.6475 1.2040 0.5020 0.415 Uiso 0.50 1 calc PR . .
C53 C 0.6391(16) 1.1343(15) 0.4182(14) 0.202(8) Uiso 0.50 1 d PGD . .
H53A H 0.6711 1.0689 0.4449 0.242 Uiso 0.50 1 calc PR . .
C54 C 0.605(5) 1.151(3) 0.344(3) 0.19(16) Uiso 0.50 1 d PGD . .
H54A H 0.6149 1.0968 0.3212 0.228 Uiso 0.50 1 calc PR . .
C55 C 0.558(6) 1.249(4) 0.304(4) 0.16(10) Uiso 0.50 1 d PGD . .
H55A H 0.5352 1.2598 0.2545 0.189 Uiso 0.50 1 calc PR . .
C56 C 0.544(5) 1.330(2) 0.338(4) 0.18(3) Uiso 0.50 1 d PGD . .
C57 C 0.496(7) 1.438(3) 0.304(4) 0.29(6) Uiso 0.50 1 d PD . .
H57A H 0.5137 1.4742 0.2436 0.349 Uiso 0.50 1 calc PR . .
C58 C 0.423(6) 1.478(4) 0.370(6) 0.23(4) Uiso 0.50 1 d PD . .
H58A H 0.4037 1.4465 0.4356 0.277 Uiso 0.50 1 d P . .
H58B H 0.3800 1.5526 0.3562 0.277 Uiso 0.50 1 d P . .

loop_
_atom_site_aniso_label
_atom_site_aniso_U_11
_atom_site_aniso_U_22
_atom_site_aniso_U_33
_atom_site_aniso_U_23
_atom_site_aniso_U_13
_atom_site_aniso_U_12
Zn1 0.1242(16) 0.1151(14) 0.0865(12) -0.0443(10) -0.0544(10) 0.0139(10)
Mn1 0.224(4) 0.232(4) 0.127(3) -0.124(3) -0.121(3) 0.134(4)
O1 0.124(8) 0.143(7) 0.075(5) -0.019(5) -0.057(5) 0.023(6)
O2 0.149(8) 0.125(7) 0.134(7) -0.041(6) -0.108(7) 0.033(6)
O3 0.165(11) 0.178(11) 0.122(9) -0.087(8) -0.076(8) 0.014(9)
O4 0.162(10) 0.144(9) 0.098(7) -0.051(7) -0.051(6) -0.011(7)
O5 0.193(14) 0.182(13) 0.273(17) -0.035(10) -0.138(12) -0.063(10)
O6 0.179(13) 0.181(11) 0.258(15) -0.119(12) -0.072(10) -0.009(10)
N1 0.144(10) 0.150(10) 0.123(9) -0.061(8) -0.079(8) 0.042(8)
N2 0.171(12) 0.200(12) 0.097(8) -0.072(8) -0.096(8) 0.049(9)
N3 0.171(11) 0.061(6) 0.130(10) -0.047(6) 0.076(9) -0.076(7)
N4 0.204(17) 0.201(17) 0.123(10) -0.028(10) -0.016(10) -0.187(16)
C2 0.134(15) 0.121(12) 0.094(11) -0.012(9) -0.052(11) -0.002(11)
C3 0.093(12) 0.191(17) 0.150(15) -0.056(13) -0.059(11) 0.030(11)
C4 0.161(17) 0.231(19) 0.107(12) -0.077(12) -0.075(13) 0.051(16)
C5 0.115(13) 0.160(14) 0.104(12) -0.036(10) -0.074(11) 0.020(11)
C6 0.131(15) 0.216(19) 0.115(13) 0.030(13) -0.054(12) -0.050(14)
C7 0.102(13) 0.232(19) 0.104(11) -0.016(11) -0.066(10) 0.010(13)
C8 0.166(14) 0.158(13) 0.118(11) -0.093(11) -0.085(11) 0.088(11)
C9 0.140(14) 0.169(14) 0.105(11) -0.058(10) -0.060(10) 0.012(12)
C10 0.22(2) 0.202(17) 0.083(10) -0.078(11) -0.069(12) 0.029(15)
C11 0.157(15) 0.203(16) 0.083(10) -0.085(10) -0.061(10) 0.049(12)
C12 0.160(15) 0.133(12) 0.099(10) -0.066(9) -0.042(10) 0.037(11)
C13 0.168(15) 0.161(13) 0.110(11) -0.093(11) -0.061(10) 0.078(12)
C14 0.189(16) 0.211(16) 0.125(12) -0.124(12) -0.093(12) 0.097(13)
C15 0.226(19) 0.202(16) 0.167(15) -0.125(13) -0.133(14) 0.153(15)
C16 0.234(19) 0.240(18) 0.147(13) -0.145(14) -0.140(14) 0.151(16)
C17 0.182(17) 0.139(13) 0.144(14) -0.059(11) -0.074(13) 0.041(12)
C18 0.129(14) 0.139(14) 0.096(12) -0.061(11) -0.021(10) 0.019(12)
C19 0.21(2) 0.170(16) 0.100(12) -0.074(12) -0.019(12) -0.012(15)
C20 0.149(18) 0.22(2) 0.18(2) -0.067(17) 0.003(15) -0.053(16)
C21 0.138(14) 0.107(11) 0.130(13) -0.054(10) -0.071(11) 0.004(10)
C22 0.138(14) 0.134(13) 0.142(13) -0.062(11) -0.036(10) -0.002(11)
C23 0.22(2) 0.192(18) 0.160(18) -0.127(16) -0.085(16) 0.061(17)
C24 0.17(2) 0.106(13) 0.107(14) -0.028(12) -0.074(13) 0.019(14)
C25 0.27(3) 0.30(3) 0.100(13) 0.008(14) -0.055(14) -0.17(2)
C26 0.22(2) 0.31(2) 0.175(17) -0.129(17) -0.031(14) -0.177(19)
C27 0.187(17) 0.140(14) 0.123(14) 0.037(11) -0.008(12) -0.117(13)
C28 0.178(18) 0.154(15) 0.093(11) -0.047(10) -0.044(11) 0.041(13)
C29 0.076(9) 0.124(11) 0.157(13) -0.088(10) -0.057(8) -0.023(8)
C30 0.35(4) 0.105(14) 0.177(17) -0.006(12) -0.13(2) -0.120(19)
C31 0.17(2) 0.19(2) 0.178(17) -0.098(16) -0.029(14) -0.075(19)
C32 0.181(17) 0.169(17) 0.168(15) -0.061(12) -0.063(12) -0.096(15)
C33 0.26(3) 0.138(15) 0.158(15) -0.074(13) -0.040(15) -0.104(18)
C34 0.182(18) 0.19(2) 0.095(10) 0.001(11) -0.056(11) -0.126(16)
C35 0.29(3) 0.097(13) 0.132(14) -0.022(11) -0.079(16) -0.068(17)
C36 0.167(19) 0.159(18) 0.25(2) -0.037(15) -0.111(18) -0.024(14)

_geom_special_details            
;
All esds (except the esd in the dihedral angle between two l.s. planes)
are estimated using the full covariance matrix. The cell esds are taken
into account individually in the estimation of esds in distances, angles
and torsion angles; correlations between esds in cell parameters are only
used when they are defined by crystal symmetry. An approximate (isotropic)
treatment of cell esds is used for estimating esds involving l.s. planes.
;

loop_
_geom_bond_atom_site_label_1
_geom_bond_atom_site_label_2
_geom_bond_distance
_geom_bond_site_symmetry_2
_geom_bond_publ_flag
Zn1 N3 1.749(11) . ?
Zn1 O4 1.980(10) . ?
Zn1 O1 1.993(7) 1_645 ?
Zn1 O3 2.058(11) 2_765 ?
Zn1 O2 2.076(8) 2_675 ?
Zn1 Zn1 2.950(4) 2_765 ?
Mn1 N2 1.949(12) 2_676 ?
Mn1 N2 1.949(12) . ?
Mn1 N1 1.956(11) . ?
Mn1 N1 1.956(11) 2_676 ?
O1 C1 1.228(16) . ?
O1 Zn1 1.993(7) 1_465 ?
O2 C1 1.320(16) . ?
O2 Zn1 2.076(8) 2_675 ?
O3 C24 1.26(2) . ?
O3 Zn1 2.058(11) 2_765 ?
O4 C24 1.259(19) . ?
O5 C30 1.28(3) . ?
O6 C31 1.27(2) . ?
N1 C12 1.358(15) . ?
N1 C9 1.432(16) . ?
N2 C14 1.370(15) . ?
N2 C17 1.417(18) . ?
N3 C29 1.217(14) . ?
N3 C25 1.69(2) . ?
N4 C27 1.29(2) . ?
N4 C30 1.33(2) . ?
N4 C31 1.48(3) . ?
C1 C2 1.56(2) . ?
C2 C7 1.310(19) . ?
C2 C3 1.355(19) . ?
C3 C4 1.52(2) . ?
C4 C5 1.38(2) . ?
C5 C6 1.279(18) . ?
C5 C8 1.539(18) . ?
C6 C7 1.350(19) . ?
C8 C9 1.348(17) . ?
C8 C17 1.411(18) 2_676 ?
