####################################################################### 
# 
# This file contains crystal structure data downloaded from the 
# Cambridge Structural Database (CSD) hosted by the Cambridge 
# Crystallographic Data Centre (CCDC).
# 
# Full information about CCDC data access policies and citation 
# guidelines are available at http://www.ccdc.cam.ac.uk/access/V1 
# 
# Audit and citation data items may have been added by the CCDC. 
# Please retain this information to preserve the provenance of 
# this file and to allow appropriate attribution of the data. 
# 
#######################################################################

data_2
_audit_block_doi                 10.5517/cc10nnlx
_database_code_depnum_ccdc_archive 'CCDC 943379'
loop_
_citation_id
_citation_doi
_citation_year
1 10.1039/C3CE41080C 2013
_audit_update_record             
;
2013-08-02 deposited with the CCDC.	2024-07-13 downloaded from the CCDC.
;

_audit_creation_method           SHELXL-97
_chemical_name_systematic        
;
 ?
;
_chemical_name_common            ?
_chemical_melting_point          ?
_chemical_formula_moiety         'C26 H28 Cd2 N4 O18, 3(C3 H7 N O), 2(H2 O), O'
_chemical_formula_sum            'C35 H53 Cd2 N7 O24'
_chemical_formula_weight         1180.64

loop_
_atom_type_symbol
_atom_type_description
_atom_type_scat_dispersion_real
_atom_type_scat_dispersion_imag
_atom_type_scat_source
C C 0.0033 0.0016 'International Tables Vol C Tables 4.2.6.8 and 6.1.1.4'
H H 0.0000 0.0000 'International Tables Vol C Tables 4.2.6.8 and 6.1.1.4'
N N 0.0061 0.0033 'International Tables Vol C Tables 4.2.6.8 and 6.1.1.4'
O O 0.0106 0.0060 'International Tables Vol C Tables 4.2.6.8 and 6.1.1.4'
Cd Cd -0.8075 1.2024 'International Tables Vol C Tables 4.2.6.8 and 6.1.1.4'

_symmetry_cell_setting           monoclinic
_symmetry_space_group_name_H-M   'P 21/c'
_symmetry_space_group_name_Hall  '-P 2ybc'

loop_
_symmetry_equiv_pos_as_xyz
'x, y, z'
'-x, y+1/2, -z+1/2'
'-x, -y, -z'
'x, -y-1/2, z-1/2'

_cell_length_a                   18.775(4)
_cell_length_b                   11.423(2)
_cell_length_c                   22.206(5)
_cell_angle_alpha                90.00
_cell_angle_beta                 90.663(6)
_cell_angle_gamma                90.00
_cell_volume                     4762.1(17)
_cell_formula_units_Z            4
_cell_measurement_temperature    100(2)
_cell_measurement_reflns_used    ?
_cell_measurement_theta_min      2.77
_cell_measurement_theta_max      30.70

_exptl_crystal_description       rectangular
_exptl_crystal_colour            colorless
_exptl_crystal_size_max          0.30
_exptl_crystal_size_mid          0.28
_exptl_crystal_size_min          0.20
_exptl_crystal_density_meas      ?
_exptl_crystal_density_diffrn    1.647
_exptl_crystal_density_method    'not measured'
_exptl_crystal_F_000             2400
_exptl_absorpt_coefficient_mu    0.984
_exptl_absorpt_correction_type   empirical
_exptl_absorpt_correction_T_min  0.752
_exptl_absorpt_correction_T_max  0.821
_exptl_absorpt_process_details   SADABS

_exptl_special_details           
;
 ?
;

_diffrn_ambient_temperature      100(2)
_diffrn_radiation_wavelength     0.71073
_diffrn_radiation_type           MoK\a
_diffrn_radiation_source         'fine-focus sealed tube'
_diffrn_radiation_monochromator  graphite
_diffrn_measurement_device_type  'CCD area detector'
_diffrn_measurement_method       'phi and omega scans'
_diffrn_detector_area_resol_mean ?
_diffrn_standards_number         ?
_diffrn_standards_interval_count ?
_diffrn_standards_interval_time  ?
_diffrn_standards_decay_%        ?
_diffrn_reflns_number            135468
_diffrn_reflns_av_R_equivalents  0.0799
_diffrn_reflns_av_unetI/netI     0.0462
_diffrn_reflns_limit_h_min       -23
_diffrn_reflns_limit_h_max       23
_diffrn_reflns_limit_k_min       -14
_diffrn_reflns_limit_k_max       14
_diffrn_reflns_limit_l_min       -27
_diffrn_reflns_limit_l_max       27
_diffrn_reflns_theta_min         2.77
_diffrn_reflns_theta_max         26.00
_reflns_number_total             9310
_reflns_number_gt                6945
_reflns_threshold_expression     >2\s(I)

_computing_data_collection       'Bruker SMART'
_computing_cell_refinement       'Bruker SMART'
_computing_data_reduction        'Bruker SAINT'
_computing_structure_solution    'SHELXS97 (Sheldrick, 2008)'
_computing_structure_refinement  'SHELXL97 (Sheldrick, 2008)'
_computing_molecular_graphics    'ORTEP-3 for Windows (Farrugia, 1999)'
_computing_publication_material  WinGX

_refine_special_details          
;
 Refinement of F^2^ against ALL reflections.  The weighted R-factor wR and
 goodness of fit S are based on F^2^, conventional R-factors R are based
 on F, with F set to zero for negative F^2^. The threshold expression of
 F^2^ > 2\s(F^2^) is used only for calculating R-factors(gt) etc. and is
 not relevant to the choice of reflections for refinement.  R-factors based
 on F^2^ are statistically about twice as large as those based on F, and R-
 factors based on ALL data will be even larger.
All non-hydrogen atoms were refined with anisotropic displacement parameters.
The C-bound H atoms were introduced at calculated positions; all were treated 
as riding atoms with an isotropic displacement parameter equal to 1.2 times 
that of the parent atom. The H atoms bound to O9W could not be found. Other 
O-bound hydrogen atoms were located on a Fourier-difference map. 
Five restraints were used to maintain chemically sensible bond lengths for 
oxygen-hydrogen bonds.
This complex was weakly diffracting and as such the data was omitted above 
the two-theta angle of 52 degrees to provide a reasonable completeness for 
the data.
 
;

_refine_ls_structure_factor_coef Fsqd
_refine_ls_matrix_type           full
_refine_ls_weighting_scheme      calc
_refine_ls_weighting_details     
'calc w=1/[\s^2^(Fo^2^)+(0.0294P)^2^+15.8007P] where P=(Fo^2^+2Fc^2^)/3'
_atom_sites_solution_primary     direct
_atom_sites_solution_secondary   difmap
_atom_sites_solution_hydrogens   geom
_refine_ls_hydrogen_treatment    mixed
_refine_ls_extinction_method     none
_refine_ls_extinction_coef       ?
_refine_ls_number_reflns         9310
_refine_ls_number_parameters     697
_refine_ls_number_restraints     5
_refine_ls_R_factor_all          0.0739
_refine_ls_R_factor_gt           0.0432
_refine_ls_wR_factor_ref         0.0925
_refine_ls_wR_factor_gt          0.0841
_refine_ls_goodness_of_fit_ref   1.062
_refine_ls_restrained_S_all      1.062
_refine_ls_shift/su_max          0.000
_refine_ls_shift/su_mean         0.000

loop_
_atom_site_label
_atom_site_type_symbol
_atom_site_fract_x
_atom_site_fract_y
_atom_site_fract_z
_atom_site_U_iso_or_equiv
_atom_site_adp_type
_atom_site_occupancy
_atom_site_symmetry_multiplicity
_atom_site_calc_flag
_atom_site_refinement_flags
_atom_site_disorder_assembly
_atom_site_disorder_group
C1 C -0.14073(18) 0.9537(3) 0.3080(2) 0.0129(10) Uani 1 1 d . . .
C2 C -0.06914(19) 0.9471(3) 0.3237(2) 0.0148(11) Uani 1 1 d . . .
H2 H -0.0500 1.0013 0.3507 0.018 Uiso 1 1 calc R . .
C3 C -0.02588(19) 0.8614(3) 0.3001(2) 0.0182(11) Uani 1 1 d . . .
H3 H 0.0222 0.8593 0.3105 0.022 Uiso 1 1 calc R . .
C4 C -0.05374(18) 0.7783(3) 0.2610(2) 0.0129(10) Uani 1 1 d . . .
C5 C -0.1258(2) 0.7820(4) 0.2466(2) 0.0217(12) Uani 1 1 d . . .
H5 H -0.1454 0.7254 0.2213 0.026 Uiso 1 1 calc R . .
C6 C -0.1687(2) 0.8698(4) 0.2697(2) 0.0232(12) Uani 1 1 d . . .
H6 H -0.2168 0.8721 0.2593 0.028 Uiso 1 1 calc R . .
C7 C -0.18526(19) 1.0531(3) 0.3310(2) 0.0150(11) Uani 1 1 d . . .
C8 C -0.00644(18) 0.6855(3) 0.2339(2) 0.0147(11) Uani 1 1 d . . .
H8A H -0.0356 0.6219 0.2184 0.018 Uiso 1 1 calc R . .
H8B H 0.0199 0.7186 0.2007 0.018 Uiso 1 1 calc R . .
C9 C 0.09275(18) 0.5726(3) 0.3624(2) 0.0157(11) Uani 1 1 d . . .
C10 C 0.03005(18) 0.5713(3) 0.3288(2) 0.0122(10) Uani 1 1 d . . .
C11 C 0.11178(18) 0.6780(3) 0.2846(2) 0.0140(11) Uani 1 1 d . . .
H11 H 0.1338 0.7265 0.2568 0.017 Uiso 1 1 calc R . .
C12 C 0.1113(2) 0.5233(4) 0.4219(2) 0.0216(12) Uani 1 1 d . . .
C13 C -0.03827(19) 0.5077(3) 0.3386(2) 0.0193(12) Uani 1 1 d . . .
C14 C -0.63290(18) 0.9488(3) 0.3020(2) 0.0134(10) Uani 1 1 d . . .
C15 C -0.56868(18) 0.9744(3) 0.3308(2) 0.0165(11) Uani 1 1 d . . .
H15 H -0.5537 0.9292 0.3634 0.020 Uiso 1 1 calc R . .
C16 C -0.52670(19) 1.0665(3) 0.3115(2) 0.0175(11) Uani 1 1 d . . .
H16 H -0.4838 1.0824 0.3312 0.021 Uiso 1 1 calc R . .
C17 C -0.54817(18) 1.1350(3) 0.2633(2) 0.0138(11) Uani 1 1 d . . .
C18 C -0.61277(19) 1.1107(3) 0.2348(2) 0.0166(11) Uani 1 1 d . . .
H18 H -0.6280 1.1569 0.2027 0.020 Uiso 1 1 calc R . .
C19 C -0.65464(19) 1.0184(3) 0.2537(2) 0.0185(11) Uani 1 1 d . . .
H19 H -0.6976 1.0028 0.2340 0.022 Uiso 1 1 calc R . .
C20 C -0.67595(18) 0.8461(3) 0.3232(2) 0.0169(11) Uani 1 1 d . . .
C21 C -0.50211(19) 1.2327(3) 0.2394(2) 0.0150(10) Uani 1 1 d . . .
H21A H -0.4752 1.2044 0.2053 0.018 Uiso 1 1 calc R . .
H21B H -0.5322 1.2966 0.2256 0.018 Uiso 1 1 calc R . .
C22 C -0.40443(18) 1.3476(3) 0.3684(2) 0.0132(11) Uani 1 1 d . . .
C23 C -0.46642(18) 1.3470(3) 0.3345(2) 0.0135(11) Uani 1 1 d . . .
C24 C -0.38567(17) 1.2360(3) 0.2922(2) 0.0128(10) Uani 1 1 d . . .
H24 H -0.3640 1.1850 0.2653 0.015 Uiso 1 1 calc R . .
C25 C -0.38439(19) 1.4030(3) 0.4257(2) 0.0187(11) Uani 1 1 d . . .
C26 C -0.53572(19) 1.4081(3) 0.3442(2) 0.0178(12) Uani 1 1 d . . .
C27 C 0.1308(3) 0.1933(5) 0.4102(3) 0.0373(15) Uani 1 1 d . . .
C28 C 0.2491(3) 0.2796(5) 0.4133(3) 0.062(2) Uani 1 1 d . . .
H28A H 0.2964 0.2557 0.4030 0.093 Uiso 1 1 calc R . .
H28B H 0.2476 0.2984 0.4554 0.093 Uiso 1 1 calc R . .
H28C H 0.2359 0.3473 0.3901 0.093 Uiso 1 1 calc R . .
C29 C 0.2300(3) 0.0759(5) 0.3795(3) 0.075(2) Uani 1 1 d . . .
H29A H 0.2804 0.0864 0.3749 0.113 Uiso 1 1 calc R . .
H29B H 0.2091 0.0546 0.3414 0.113 Uiso 1 1 calc R . .
H29C H 0.2215 0.0150 0.4083 0.113 Uiso 1 1 calc R . .
C30 C -0.1921(3) 0.8677(4) 0.4486(2) 0.0266(13) Uani 1 1 d . . .
C31 C -0.0918(3) 0.7375(5) 0.4370(3) 0.0553(19) Uani 1 1 d . . .
H31A H -0.0840 0.6566 0.4274 0.083 Uiso 1 1 calc R . .
H31B H -0.0723 0.7540 0.4762 0.083 Uiso 1 1 calc R . .
H31C H -0.0689 0.7859 0.4077 0.083 Uiso 1 1 calc R . .
C32 C -0.2149(4) 0.6701(5) 0.4165(3) 0.065(2) Uani 1 1 d . . .
H32A H -0.1881 0.5997 0.4100 0.097 Uiso 1 1 calc R . .
H32B H -0.2379 0.6932 0.3796 0.097 Uiso 1 1 calc R . .
H32C H -0.2502 0.6560 0.4466 0.097 Uiso 1 1 calc R . .
C33 C -0.4485(3) 1.1795(4) 0.5058(3) 0.0321(16) Uani 1 1 d . . .
C34 C -0.5388(4) 1.2503(6) 0.5741(3) 0.071(2) Uani 1 1 d . . .
H34A H -0.5899 1.2527 0.5755 0.107 Uiso 1 1 calc R . .
H34B H -0.5203 1.3286 0.5755 0.107 Uiso 1 1 calc R . .
H34C H -0.5208 1.2068 0.6080 0.107 Uiso 1 1 calc R . .
C35 C -0.5721(2) 1.1592(6) 0.4763(3) 0.0560(19) Uani 1 1 d . . .
H35A H -0.6180 1.1757 0.4929 0.084 Uiso 1 1 calc R . .
H35B H -0.5682 1.0769 0.4684 0.084 Uiso 1 1 calc R . .
H35C H -0.5666 1.2020 0.4394 0.084 Uiso 1 1 calc R . .
N1 N 0.04373(14) 0.6401(3) 0.27959(17) 0.0124(9) Uani 1 1 d . . .
N2 N 0.14264(15) 0.6379(3) 0.33342(17) 0.0140(9) Uani 1 1 d . . .
N3 N -0.45288(14) 1.2754(3) 0.28604(16) 0.0118(8) Uani 1 1 d . . .
N4 N -0.35451(15) 1.2783(3) 0.34052(17) 0.0123(9) Uani 1 1 d . . .
N5 N 0.1987(2) 0.1834(3) 0.4002(2) 0.0393(12) Uani 1 1 d . . .
N6 N -0.1679(2) 0.7615(3) 0.4366(2) 0.0363(11) Uani 1 1 d . . .
N7 N -0.5169(2) 1.1941(3) 0.5188(2) 0.0308(11) Uani 1 1 d . . .
O1 O -0.24677(13) 1.0693(2) 0.31016(14) 0.0189(7) Uani 1 1 d . . .
O2 O -0.15764(13) 1.1208(2) 0.37008(14) 0.0186(8) Uani 1 1 d . . .
O3 O 0.17167(14) 0.5415(3) 0.44301(15) 0.0269(8) Uani 1 1 d . . .
O4 O 0.06360(14) 0.4647(3) 0.45055(16) 0.0315(9) Uani 1 1 d . . .
O5 O -0.04263(14) 0.4485(3) 0.38713(17) 0.0284(9) Uani 1 1 d D . .
O6 O -0.08597(14) 0.5138(3) 0.30000(15) 0.0243(8) Uani 1 1 d . . .
O7 O -0.73706(12) 0.8283(2) 0.30134(14) 0.0166(7) Uani 1 1 d . . .
O8 O -0.64800(13) 0.7797(2) 0.36194(14) 0.0203(8) Uani 1 1 d . . .
O9 O -0.32296(13) 1.3900(2) 0.44581(14) 0.0199(8) Uani 1 1 d . . .
O10 O -0.43217(14) 1.4614(3) 0.45427(15) 0.0294(9) Uani 1 1 d . . .
O11 O -0.54057(14) 1.4669(3) 0.39273(17) 0.0319(9) Uani 1 1 d D . .
O12 O -0.58313(14) 1.4001(3) 0.30604(15) 0.0289(9) Uani 1 1 d . . .
O13 O 0.08633(18) 0.1153(3) 0.40126(18) 0.0440(10) Uani 1 1 d . . .
O14 O -0.25519(17) 0.8971(3) 0.44736(17) 0.0350(9) Uani 1 1 d . . .
O15 O -0.42664(16) 1.1352(4) 0.4595(2) 0.0429(11) Uani 1 1 d . . .
O1W O -0.19968(17) 1.3648(3) 0.30581(19) 0.0214(9) Uani 1 1 d . . .
O2W O -0.16614(17) 1.3581(3) 0.4389(2) 0.0266(11) Uani 1 1 d . . .
O3W O -0.28663(16) 1.1269(3) 0.45577(15) 0.0198(8) Uani 1 1 d . . .
O4W O 0.29750(15) 0.5361(3) 0.30227(19) 0.0248(10) Uani 1 1 d D . .
O5W O 0.32432(16) 0.5412(3) 0.4339(2) 0.0224(10) Uani 1 1 d . . .
O6W O 0.21978(18) 0.7930(3) 0.44233(18) 0.0382(11) Uani 1 1 d D . .
O7W O -0.0450(3) 1.1377(6) 0.4552(2) 0.081(2) Uani 1 1 d . . .
O8W O 0.08709(18) 0.8718(4) 0.4300(2) 0.0413(11) Uani 1 1 d D . .
O9W O -0.6491(4) 1.1194(6) 0.6561(4) 0.151(3) Uani 1 1 d . . .
Cd1 Cd -0.245357(12) 1.25534(2) 0.383229(15) 0.01233(10) Uani 1 1 d . . .
Cd2 Cd 0.254512(13) 0.65819(2) 0.374742(15) 0.01282(10) Uani 1 1 d . . .
H1D H 0.117(2) 0.279(5) 0.422(2) 0.042(14) Uiso 1 1 d . . .
H2D H -0.153(2) 0.924(4) 0.4576(19) 0.020(11) Uiso 1 1 d . . .
H3D H -0.415(2) 1.204(4) 0.540(2) 0.023(12) Uiso 1 1 d . . .
H1W H -0.220(3) 1.364(5) 0.275(3) 0.05(2) Uiso 1 1 d . . .
H2W H -0.169(3) 1.402(4) 0.306(2) 0.030(15) Uiso 1 1 d . . .
H3W H -0.129(3) 1.386(4) 0.428(2) 0.035(15) Uiso 1 1 d . . .
H4W H -0.169(3) 1.381(5) 0.470(3) 0.03(2) Uiso 1 1 d . . .
H5W H -0.272(3) 1.049(6) 0.451(3) 0.08(2) Uiso 1 1 d . . .
H6W H -0.327(3) 1.131(4) 0.456(2) 0.038(16) Uiso 1 1 d . . .
H7W H 0.283(2) 0.540(4) 0.267(2) 0.019(15) Uiso 1 1 d . . .
H8W H 0.3377(17) 0.489(3) 0.305(2) 0.038(14) Uiso 1 1 d D . .
H9W H 0.361(3) 0.521(5) 0.424(2) 0.042(17) Uiso 1 1 d . . .
H10W H 0.328(3) 0.571(6) 0.464(3) 0.06(3) Uiso 1 1 d . . .
H11W H 0.241(3) 0.817(6) 0.4789(18) 0.09(3) Uiso 1 1 d D . .
H12W H 0.179(3) 0.815(4) 0.439(2) 0.038(15) Uiso 1 1 d . . .
H13W H -0.073(4) 1.153(7) 0.435(4) 0.08(3) Uiso 1 1 d . . .
H14W H -0.010(3) 1.139(5) 0.437(3) 0.06(2) Uiso 1 1 d . . .
H15W H 0.086(5) 0.947(4) 0.410(4) 0.17(5) Uiso 1 1 d D . .
H16W H 0.073(3) 0.861(5) 0.469(3) 0.05(2) Uiso 1 1 d . . .
H1C H 0.002(2) 0.448(6) 0.411(3) 0.10(2) Uiso 1 1 d D . .
H2C H -0.499(3) 1.473(7) 0.419(3) 0.12(3) Uiso 1 1 d D . .

loop_
_atom_site_aniso_label
_atom_site_aniso_U_11
_atom_site_aniso_U_22
_atom_site_aniso_U_33
_atom_site_aniso_U_23
_atom_site_aniso_U_13
_atom_site_aniso_U_12
C1 0.0159(16) 0.0106(17) 0.012(4) 0.0047(17) 0.0016(17) 0.0015(13)
C2 0.0192(18) 0.0120(18) 0.013(4) -0.0018(17) -0.0004(17) -0.0022(14)
C3 0.0131(16) 0.0141(18) 0.027(4) 0.0031(18) 0.0009(17) 0.0007(13)
C4 0.0163(17) 0.0154(18) 0.007(3) 0.0046(17) 0.0024(17) 0.0030(13)
C5 0.0199(19) 0.025(2) 0.020(4) -0.010(2) -0.0046(19) 0.0050(16)
C6 0.0147(18) 0.029(2) 0.026(4) -0.003(2) -0.0063(18) 0.0077(15)
C7 0.0156(17) 0.0135(18) 0.016(4) 0.0049(18) 0.0046(17) 0.0028(14)
C8 0.0143(17) 0.0177(19) 0.012(4) -0.0014(18) -0.0019(17) 0.0033(14)
C9 0.0130(16) 0.0155(18) 0.019(4) 0.0011(19) 0.0000(17) 0.0033(14)
C10 0.0142(16) 0.0133(17) 0.009(4) 0.0028(18) -0.0002(16) 0.0006(13)
C11 0.0131(16) 0.0113(17) 0.018(4) -0.0003(18) 0.0038(17) 0.0013(13)
C12 0.0154(18) 0.025(2) 0.024(4) 0.006(2) -0.0005(19) 0.0009(15)
C13 0.0155(18) 0.019(2) 0.024(4) 0.000(2) 0.0038(19) -0.0014(14)
C14 0.0136(16) 0.0116(17) 0.015(4) -0.0030(17) 0.0036(17) -0.0008(13)
C15 0.0155(17) 0.0177(19) 0.016(4) 0.0020(18) -0.0013(17) 0.0008(14)
C16 0.0142(17) 0.021(2) 0.017(4) -0.001(2) -0.0030(17) -0.0030(15)
C17 0.0122(16) 0.0161(18) 0.013(4) -0.0026(18) 0.0020(17) 0.0011(13)
C18 0.0171(17) 0.0206(19) 0.012(4) 0.0034(19) -0.0033(17) -0.0004(14)
C19 0.0136(17) 0.020(2) 0.022(4) 0.000(2) -0.0043(18) -0.0040(14)
C20 0.0149(17) 0.0124(18) 0.023(4) -0.0033(18) 0.0015(17) 0.0012(14)
C21 0.0171(17) 0.0203(19) 0.008(4) -0.0014(18) -0.0023(17) -0.0023(14)
C22 0.0118(16) 0.0145(18) 0.013(4) -0.0028(18) 0.0004(16) -0.0002(13)
C23 0.0120(16) 0.0165(18) 0.012(4) 0.0021(18) 0.0020(16) 0.0011(13)
C24 0.0093(15) 0.0144(17) 0.015(4) -0.0008(18) 0.0011(16) -0.0029(13)
C25 0.0177(18) 0.021(2) 0.017(4) -0.003(2) -0.0008(18) 0.0042(15)
C26 0.0125(17) 0.022(2) 0.018(4) -0.004(2) -0.0018(18) 0.0036(14)
C27 0.037(3) 0.044(3) 0.030(5) -0.001(3) -0.004(2) 0.021(2)
C28 0.051(3) 0.040(3) 0.095(6) 0.009(3) -0.001(3) 0.011(3)
C29 0.072(4) 0.042(3) 0.113(7) 0.006(4) 0.058(4) 0.032(3)
C30 0.044(3) 0.021(2) 0.016(4) 0.007(2) 0.004(2) 0.0012(19)
C31 0.072(4) 0.057(4) 0.038(5) 0.028(3) 0.019(3) 0.037(3)
C32 0.096(5) 0.024(3) 0.073(6) -0.002(3) -0.002(4) 0.002(3)
C33 0.031(2) 0.031(3) 0.034(6) 0.013(3) -0.016(3) -0.008(2)
C34 0.107(5) 0.064(4) 0.043(6) -0.012(4) -0.004(4) 0.054(4)
C35 0.024(2) 0.094(5) 0.050(5) -0.006(4) 0.002(3) -0.011(3)
N1 0.0111(14) 0.0138(15) 0.012(3) -0.0016(15) -0.0002(14) 0.0014(11)
N2 0.0109(14) 0.0161(16) 0.015(3) -0.0041(15) 0.0020(15) 0.0016(11)
N3 0.0105(13) 0.0153(15) 0.010(3) -0.0023(15) -0.0013(13) -0.0017(11)
N4 0.0115(14) 0.0150(15) 0.011(3) 0.0020(14) 0.0016(14) -0.0005(11)
N5 0.041(2) 0.032(2) 0.046(4) 0.010(2) 0.013(2) 0.0204(18)
N6 0.059(3) 0.028(2) 0.023(3) 0.007(2) 0.008(2) 0.0133(19)
N7 0.038(2) 0.035(2) 0.019(4) 0.001(2) -0.0002(19) 0.0021(17)
O1 0.0152(12) 0.0215(14) 0.020(2) -0.0009(13) -0.0035(12) 0.0069