####################################################################### 
# 
# This file contains crystal structure data downloaded from the 
# Cambridge Structural Database (CSD) hosted by the Cambridge 
# Crystallographic Data Centre (CCDC).
# 
# Full information about CCDC data access policies and citation 
# guidelines are available at http://www.ccdc.cam.ac.uk/access/V1 
# 
# Audit and citation data items may have been added by the CCDC. 
# Please retain this information to preserve the provenance of 
# this file and to allow appropriate attribution of the data. 
# 
#######################################################################

data_tz19
_audit_block_doi                 10.5517/ccp96gm
_database_code_depnum_ccdc_archive 'CCDC 634460'
loop_
_citation_id
_citation_doi
_citation_year
1 10.1002/aoc.1325 2007
_audit_update_record             
;
2007-01-22 deposited with the CCDC.	2024-07-13 downloaded from the CCDC.
;

_audit_creation_method           SHELXL-97
_chemical_name_systematic        
;
?
;
_chemical_name_common            ?
_chemical_formula_moiety         ?
_chemical_formula_sum            'C26 H40 O14 S5 Zn2'
_chemical_formula_weight         867.62

loop_
_atom_type_symbol
_atom_type_description
_atom_type_scat_dispersion_real
_atom_type_scat_dispersion_imag
_atom_type_scat_source
C C 0.0033 0.0016 'International Tables Vol C Tables 4.2.6.8 and 6.1.1.4'
H H 0.0000 0.0000 'International Tables Vol C Tables 4.2.6.8 and 6.1.1.4'
O O 0.0106 0.0060 'International Tables Vol C Tables 4.2.6.8 and 6.1.1.4'
Zn Zn 0.2839 1.4301 'International Tables Vol C Tables 4.2.6.8 and 6.1.1.4'
S S 0.1246 0.1234 'International Tables Vol C Tables 4.2.6.8 and 6.1.1.4'

_symmetry_cell_setting           ?
_symmetry_space_group_name_H-M   ?

loop_
_symmetry_equiv_pos_as_xyz
'x, y, z'
'-x+1/2, -y, z+1/2'
'-x, y+1/2, -z+1/2'
'x+1/2, -y+1/2, -z'

_cell_length_a                   12.6977(16)
_cell_length_b                   15.1033(19)
_cell_length_c                   18.903(2)
_cell_angle_alpha                90.00
_cell_angle_beta                 90.00
_cell_angle_gamma                90.00
_cell_volume                     3625.2(8)
_cell_formula_units_Z            4
_cell_measurement_temperature    200(2)
_cell_measurement_reflns_used    ?
_cell_measurement_theta_min      ?
_cell_measurement_theta_max      ?

_exptl_crystal_description       ?
_exptl_crystal_colour            ?
_exptl_crystal_size_max          ?
_exptl_crystal_size_mid          ?
_exptl_crystal_size_min          ?
_exptl_crystal_density_meas      ?
_exptl_crystal_density_diffrn    1.590
_exptl_crystal_density_method    'not measured'
_exptl_crystal_F_000             1792
_exptl_absorpt_coefficient_mu    1.673
_exptl_absorpt_correction_type   ?
_exptl_absorpt_correction_T_min  ?
_exptl_absorpt_correction_T_max  ?

_exptl_special_details           
;
?
;

_diffrn_ambient_temperature      200(2)
_diffrn_radiation_wavelength     0.71073
_diffrn_radiation_type           MoK\a
_diffrn_radiation_source         'fine-focus sealed tube'
_diffrn_radiation_monochromator  graphite
_diffrn_measurement_device_type  ?
_diffrn_measurement_method       ?
_diffrn_detector_area_resol_mean ?
_diffrn_standards_number         ?
_diffrn_standards_interval_count ?
_diffrn_standards_interval_time  ?
_diffrn_standards_decay_%        ?
_diffrn_reflns_number            42703
_diffrn_reflns_av_R_equivalents  0.0351
_diffrn_reflns_av_sigmaI/netI    0.0209
_diffrn_reflns_limit_h_min       -16
_diffrn_reflns_limit_h_max       16
_diffrn_reflns_limit_k_min       -20
_diffrn_reflns_limit_k_max       19
_diffrn_reflns_limit_l_min       -25
_diffrn_reflns_limit_l_max       25
_diffrn_reflns_theta_min         1.73
_diffrn_reflns_theta_max         28.32
_reflns_number_total             8857
_reflns_number_gt                8525
_reflns_threshold_expression     >2sigma(I)

_computing_data_collection       ?
_computing_cell_refinement       ?
_computing_data_reduction        ?
_computing_structure_solution    'SHELXS-97 (Sheldrick, 1990)'
_computing_structure_refinement  'SHELXL-97 (Sheldrick, 1997)'
_computing_molecular_graphics    ?
_computing_publication_material  ?

_refine_special_details          
;
Refinement of F^2^ against ALL reflections. The weighted R-factor wR and
goodness of fit S are based on F^2^, conventional R-factors R are based
on F, with F set to zero for negative F^2^. The threshold expression of
F^2^ > 2sigma(F^2^) is used only for calculating R-factors(gt) etc. and is
not relevant to the choice of reflections for refinement. R-factors based
on F^2^ are statistically about twice as large as those based on F, and R-
factors based on ALL data will be even larger.
;

_refine_ls_structure_factor_coef Fsqd
_refine_ls_matrix_type           full
_refine_ls_weighting_scheme      
'calc w=1/[\s^2^(Fo^2^)+(0.0441P)^2^+2.4463P] where P=(Fo^2^+2Fc^2^)/3'
_atom_sites_solution_primary     direct
_atom_sites_solution_secondary   difmap
_atom_sites_solution_hydrogens   geom
_refine_ls_hydrogen_treatment    mixed
_refine_ls_extinction_method     none
_refine_ls_extinction_coef       ?
_refine_ls_abs_structure_details 'Flack H D (1983), Acta Cryst. A39, 876-881'
_refine_ls_abs_structure_Flack   0.004(7)
_refine_ls_number_reflns         8857
_refine_ls_number_parameters     453
_refine_ls_number_restraints     7
_refine_ls_R_factor_all          0.0315
_refine_ls_R_factor_gt           0.0293
_refine_ls_wR_factor_ref         0.0786
_refine_ls_wR_factor_gt          0.0767
_refine_ls_goodness_of_fit_ref   1.071
_refine_ls_restrained_S_all      1.108
_refine_ls_shift/su_max          0.002
_refine_ls_shift/su_mean         0.000

loop_
_atom_site_label
_atom_site_type_symbol
_atom_site_fract_x
_atom_site_fract_y
_atom_site_fract_z
_atom_site_U_iso_or_equiv
_atom_site_adp_type
_atom_site_occupancy
_atom_site_calc_flag
_atom_site_refinement_flags
_atom_site_disorder_assembly
_atom_site_disorder_group
Zn1 Zn 0.80121(2) 0.951718(19) 0.774252(15) 0.01843(7) Uani 1 d . . .
Zn2 Zn 0.87233(2) 0.808768(18) 0.618006(15) 0.01714(6) Uani 1 d . . .
O1 O 0.72165(15) 0.96438(13) 0.67906(10) 0.0252(4) Uani 1 d . . .
O2 O 0.73029(15) 0.85078(14) 0.60298(11) 0.0272(4) Uani 1 d . . .
O3 O 0.43398(16) 0.75882(13) 0.45987(11) 0.0258(4) Uani 1 d . . .
O4 O 0.2872(2) 0.83783(18) 0.46024(15) 0.0478(7) Uani 1 d . . .
O5 O 0.78776(15) 0.81341(12) 0.77669(11) 0.0235(4) Uani 1 d . . .
O6 O 0.88984(16) 0.73610(13) 0.70198(10) 0.0264(4) Uani 1 d . . .
O7 O 0.95354(14) 0.95223(13) 0.72813(10) 0.0232(4) Uani 1 d . . .
O8 O 0.96897(15) 0.91046(12) 0.61529(11) 0.0246(4) Uani 1 d . . .
O11 O 0.65832(17) 0.97149(15) 0.82577(12) 0.0300(4) Uani 1 d . . .
C1 C 0.6828(2) 0.91245(17) 0.63435(13) 0.0200(5) Uani 1 d . . .
C2 C 0.5688(2) 0.92355(16) 0.61357(14) 0.0196(5) Uani 1 d . . .
C3 C 0.5060(2) 0.98685(19) 0.64624(16) 0.0271(6) Uani 1 d . . .
H3 H 0.5340 1.0235 0.6810 0.025(3) Uiso 1 calc R . .
C4 C 0.4005(2) 0.9951(2) 0.62646(17) 0.0329(7) Uani 1 d . . .
H4 H 0.3578 1.0367 0.6486 0.025(3) Uiso 1 calc R . .
C5 C 0.3591(2) 0.9414(2) 0.57402(16) 0.0291(6) Uani 1 d . . .
H5 H 0.2891 0.9479 0.5605 0.025(3) Uiso 1 calc R . .
C6 C 0.4215(2) 0.87781(18) 0.54141(14) 0.0221(5) Uani 1 d . . .
C7 C 0.5264(2) 0.86857(16) 0.56151(13) 0.0200(5) Uani 1 d . . .
H7 H 0.5683 0.8257 0.5402 0.025(3) Uiso 1 calc R . .
C8 C 0.3755(2) 0.82152(17) 0.48283(14) 0.0241(5) Uani 1 d . . .
C9 C 0.8443(2) 0.74852(17) 0.76063(13) 0.0194(5) Uani 1 d . . .
C11 C 1.1799(2) 1.18621(17) 0.61701(14) 0.0227(5) Uani 1 d . . .
H11 H 1.2194 1.2361 0.6056 0.025(3) Uiso 1 calc R . .
C12 C 1.1627(2) 1.12145(19) 0.56641(15) 0.0258(5) Uani 1 d . . .
H12 H 1.1913 1.1274 0.5214 0.025(3) Uiso 1 calc R . .
C13 C 1.1024(2) 1.04758(19) 0.58329(14) 0.0232(5) Uani 1 d . . .
H13 H 1.0902 1.0043 0.5493 0.025(3) Uiso 1 calc R . .
C14 C 1.06032(19) 1.03797(16) 0.65074(14) 0.0193(5) Uani 1 d . . .
C15 C 1.0787(2) 1.10255(17) 0.70174(13) 0.0199(5) Uani 1 d . . .
H15 H 1.0512 1.0960 0.7470 0.025(3) Uiso 1 calc R . .
C10 C 1.1385(2) 1.17721(16) 0.68488(13) 0.0200(5) Uani 1 d . . .
C16 C 0.98846(19) 0.96074(17) 0.66717(14) 0.0198(5) Uani 1 d . . .
S1 S 0.86412(6) 1.13643(5) 0.84892(4) 0.02812(14) Uani 1 d . . .
C17 C 0.7669(3) 1.1364(3) 0.91704(18) 0.0437(8) Uani 1 d . . .
H17A H 0.7015 1.1581 0.8984 0.068(4) Uiso 1 calc R . .
H17B H 0.7895 1.1739 0.9551 0.068(4) Uiso 1 calc R . .
H17C H 0.7573 1.0771 0.9343 0.068(4) Uiso 1 calc R . .
C18 C 0.8577(3) 1.2514(2) 0.8286(2) 0.0418(8) Uani 1 d . . .
H18A H 0.9033 1.2641 0.7894 0.068(4) Uiso 1 calc R . .
H18B H 0.8797 1.2852 0.8691 0.068(4) Uiso 1 calc R . .
H18C H 0.7867 1.2670 0.8165 0.068(4) Uiso 1 calc R . .
O9 O 0.81343(17) 1.09171(13) 0.78591(10) 0.0262(4) Uani 1 d . . .
S2 S 0.97386(6) 0.88604(5) 0.88561(4) 0.03074(15) Uani 1 d . . .
C19 C 0.9723(4) 0.8674(3) 0.9782(2) 0.0610(12) Uani 1 d . . .
H19A H 0.9684 0.9232 1.0025 0.068(4) Uiso 1 calc R . .
H19B H 1.0355 0.8371 0.9919 0.068(4) Uiso 1 calc R . .
H19C H 0.9122 0.8320 0.9903 0.068(4) Uiso 1 calc R . .
C20 C 1.0851(3) 0.9568(3) 0.8807(3) 0.0539(10) Uani 1 d . . .
H20A H 1.0940 0.9769 0.8329 0.068(4) Uiso 1 calc R . .
H20B H 1.1468 0.9249 0.8954 0.068(4) Uiso 1 calc R . .
H20C H 1.0747 1.0068 0.9113 0.068(4) Uiso 1 calc R . .
O10 O 0.87788(17) 0.94351(14) 0.87288(10) 0.0286(4) Uani 1 d . . .
S3 S 0.44098(6) 0.80539(6) 0.86140(5) 0.03857(18) Uani 1 d . . .
C21 C 0.5515(3) 0.7357(2) 0.8463(2) 0.0451(8) Uani 1 d . . .
H21A H 0.5967 0.7624 0.8116 0.066(6) Uiso 1 calc R . .
H21B H 0.5279 0.6791 0.8294 0.066(6) Uiso 1 calc R . .
H21C H 0.5897 0.7279 0.8897 0.066(6) Uiso 1 calc R . .
C22 C 0.4001(4) 0.8146(3) 0.7720(3) 0.0702(14) Uani 1 d . . .
H22A H 0.3348 0.8466 0.7698 0.066(6) Uiso 1 calc R . .
H22B H 0.3904 0.7566 0.7524 0.066(6) Uiso 1 calc R . .
H22C H 0.4528 0.8457 0.7454 0.066(6) Uiso 1 calc R . .
O12 O 0.4839(2) 0.89425(17) 0.88211(17) 0.0498(7) Uani 1 d . . .
S4 S 0.12848(12) 0.67315(9) 0.94851(8) 0.0352(4) Uani 0.556(3) d PD A 1
S4X S 0.22822(16) 0.67425(15) 0.94695(12) 0.0451(6) Uani 0.444(3) d PD A 2
C23 C 0.1695(3) 0.5749(3) 0.9850(2) 0.0506(9) Uani 1 d D . .
H23A H 0.1441 0.5706 1.0327 0.093(11) Uiso 0.556(3) calc PR A 1
H23B H 0.2451 0.5726 0.9850 0.093(11) Uiso 0.556(3) calc PR A 1
H23C H 0.1423 0.5264 0.9577 0.093(11) Uiso 0.556(3) calc PR A 1
H23D H 0.1914 0.5690 1.0334 0.093(11) Uiso 0.444(3) calc PR A 2
H23E H 0.1921 0.5239 0.9587 0.093(11) Uiso 0.444(3) calc PR A 2
H23F H 0.0941 0.5794 0.9829 0.093(11) Uiso 0.444(3) calc PR A 2
C24 C 0.1807(6) 0.6704(4) 0.8654(2) 0.087(2) Uani 1 d D . .
H24A H 0.1611 0.7232 0.8403 0.093(11) Uiso 0.556(3) calc PR A 1
H24B H 0.1542 0.6195 0.8406 0.093(11) Uiso 0.556(3) calc PR A 1
H24C H 0.2560 0.6668 0.8684 0.093(11) Uiso 0.556(3) calc PR A 1
H24D H 0.2061 0.7203 0.8390 0.093(11) Uiso 0.444(3) calc PR A 2
H24E H 0.1051 0.6720 0.8670 0.093(11) Uiso 0.444(3) calc PR A 2
H24F H 0.2032 0.6166 0.8429 0.093(11) Uiso 0.444(3) calc PR A 2
O13 O 0.1841(3) 0.7472(2) 0.98814(16) 0.0599(8) Uani 1 d D . .
S5 S 0.44301(6) 0.15418(5) 0.84313(4) 0.03285(16) Uani 1 d . . .
C25 C 0.3357(3) 0.0867(3) 0.8176(2) 0.0484(9) Uani 1 d . . .
H25A H 0.3210 0.0957 0.7683 0.129(11) Uiso 1 calc R . .
H25B H 0.2747 0.1022 0.8450 0.129(11) Uiso 1 calc R . .
H25C H 0.3530 0.0257 0.8256 0.129(11) Uiso 1 calc R . .
C26 C 0.5374(2) 0.12210(17) 0.80188(13) 0.0203(5) Uani 1 d . . .
H26A H 0.6000 0.1304 0.8296 0.129(11) Uiso 1 calc R . .
H26B H 0.5432 0.1551 0.7587 0.129(11) Uiso 1 calc R . .
H26C H 0.5291 0.0604 0.7912 0.129(11) Uiso 1 calc R . .
O14 O 0.4579(3) 0.1123(3) 0.93102(17) 0.0669(9) Uani 1 d . . .
H111 H 0.614(3) 0.938(3) 0.839(2) 0.038(11) Uiso 1 d . . .
H112 H 0.629(3) 1.025(3) 0.827(2) 0.047(11) Uiso 1 d . . .

loop_
_atom_site_aniso_label
_atom_site_aniso_U_11
_atom_site_aniso_U_22
_atom_site_aniso_U_33
_atom_site_aniso_U_23
_atom_site_aniso_U_13
_atom_site_aniso_U_12
Zn1 0.01915(13) 0.01878(13) 0.01734(13) -0.00104(11) -0.00131(10) 0.00056(11)
Zn2 0.01742(13) 0.01725(12) 0.01677(13) -0.00123(10) 0.00055(10) 0.00046(11)
O1 0.0261(9) 0.0247(9) 0.0247(9) -0.0036(7) -0.0105(7) 0.0002(7)
O2 0.0198(9) 0.0319(10) 0.0299(10) -0.0109(8) -0.0063(7) 0.0065(8)
O3 0.0268(10) 0.0252(9) 0.0255(10) -0.0102(8) -0.0067(8) 0.0033(8)
O4 0.0326(13) 0.0486(14) 0.0623(16) -0.0247(13) -0.0269(12) 0.0126(11)
O5 0.0220(9) 0.0181(8) 0.0303(9) 0.0027(8) 0.0038(8) 0.0026(7)
O6 0.0312(11) 0.0239(9) 0.0239(9) 0.0040(7) 0.0044(8) 0.0063(8)
O7 0.0205(8) 0.0267(9) 0.0223(9) 0.0004(8) 0.0018(7) -0.0035(7)
O8 0.0282(9) 0.0221(9) 0.0234(9) -0.0044(8) 0.0014(8) -0.0072(7)
O11 0.0249(10) 0.0261(11) 0.0391(12) 0.0049(9) 0.0081(9) 0.0031(8)
C1 0.0209(12) 0.0217(12) 0.0175(11) 0.0020(9) -0.0020(9) 0.0009(9)
C2 0.0203(11) 0.0200(11) 0.0185(11) -0.0015(9) -0.0023(9) 0.0014(9)
C3 0.0279(14) 0.0264(13) 0.0270(14) -0.0108(11) -0.0056(11) 0.0053(11)
C4 0.0261(14) 0.0357(16) 0.0369(16) -0.0146(13) -0.0038(12) 0.0109(11)
C5 0.0206(13) 0.0322(14) 0.0343(14) -0.0103(12) -0.0055(11) 0.0066(11)
C6 0.0210(12) 0.0228(12) 0.0225(12) -0.0042(10) -0.0038(10) 0.0035(10)
C7 0.0216(12) 0.0195(11) 0.0190(12) -0.0015(9) -0.0016(9) 0.0017(10)
C8 0.0257(12) 0.0214(12) 0.0253(12) -0.0020(9) -0.0069(10) 0.0001(10)
C9 0.0185(11) 0.0192(11) 0.0205(12) 0.0018(9) -0.0014(9) 0.0004(9)
C11 0.0211(12) 0.0209(11) 0.0259(12) 0.0015(11) 0.0032(10) -0.0031(9)
C12 0.0265(13) 0.0294(14) 0.0216(12) -0.0001(10) 0.0043(10) -0.0033(11)
C13 0.0211(12) 0.0225(12) 0.0259(13) -0.0062(10) 0.0013(9) -0.0016(10)
C14 0.0178(11) 0.0175(11) 0.0226(12) -0.0016(9) 0.0002(9) -0.0028(9)
C15 0.0204(12) 0.0217(12) 0.0176(11) -0.0016(9) 0.0015(9) -0.0031(9)
C10 0.0206(11) 0.0184(11) 0.0210(11) -0.0027(9) -0.0012(9) -0.0017(9)
C16 0.0180(11) 0.0174(11) 0.0241(12) -0.0019(9) -0.0012(9) 0.0005(9)
S1 0.0243(3) 0.0252(3) 0.0349(4) -0.0060(3) -0.0060(3) 0.0007(3)
C17 0.049(2) 0.054(2) 0.0281(16) -0.0120(15) 0.0006(14) -0.0018(17)
C18 0.0336(17) 0.0247(14) 0.067(2) -0.0033(15) -0.0123(16) -0.0021(13)
O9 0.0328(11) 0.0238(9) 0.0220(9) -0.0016(7) -0.0006(8) -0.0004(8)
S2 0.0337(4) 0.0302(3) 0.0283(3) -0.0018(3) -0.0082(3) 0.0074(3)
C19 0.072(3) 0.076(3) 0.035(2) 0.0121(19) -0.0112(19) 0.025(3)
C20 0.0368(18) 0.064(2) 0.061(2) -0.002(2) -0.0177(18) -0.0073(18)
O10 0.0327(10) 0.0305(10) 0.0224(9) -0.0012(8) -0.0061(8) 0.0081(9)
S3 0.0319(4) 0.0342(4) 0.0496(5) -0.0027(3) 0.0091(3) -0.0074(3)
C21 0.044(2) 0.0393(18) 0.051(2) -0.0008(16) -0.0028(17) 0.0051(16)
C22 0.080(3) 0.061(3) 0.070(3) -0.006(2) -0.035(3) 0.020(2)
O12 0.0481(15) 0.0373(12) 0.0640(17) -0.0149(13) 0.0119(14) -0.0103(11)
S4 0.0307(7) 0.0365(8) 0.0382(8) -0.0107(6) -0.0065(6) -0.0024(6)
S4X 0.0291(10) 0.0538(13) 0.0523(13) 0.0075(10) -0.0086(8) -0.0057(8)
C23 0.062(2) 0.051(2) 0.0393(19) 0.0042(16) -0.0051(17) -0.0041(19)
C24 0.169(7) 0.059(3) 0.034(2) -0.0094(19) 0.009(3) -0.035(4)
O13 0.079(2) 0.0520(16) 0.0489(16) -0.0232(13) -0.0124(15) -0.0097(15)
S5 0.0343(4) 0.0318(4) 0.0324(4) 0.0008(3) 0.0055(3) 0.0119(3)
C25 0.0345(17) 0.069(3) 0.0412(19) -0.0169(18) -0.0095(15) 0.0109(17)
C26 0.0197(12) 0.0226(12) 0.0185(11) 0.0071(9) 0.0095(9) 0.0124(10)
O14 0.064(2) 0.088(2) 0.0485(17) -0.0009(17) -0.0002(15) 0.0045(19)

_geom_special_details            
;
All esds (except the esd in the dihedral angle between two l.s. planes)
are estimated using the full covariance matrix. The cell esds are taken
into account individually in the estimation of esds in distances, angles
and torsion angles; correlations between esds in cell parameters are only
used when they are defined by crystal symmetry. An approximate (isotropic)
treatment of cell esds is used for estimating esds involving l.s. planes.
;

loop_
_geom_bond_atom_site_label_1
_geom_bond_atom_site_label_2
_geom_bond_distance
_geom_bond_site_symmetry_2
_geom_bond_publ_flag
Zn1 O1 2.0725(19) . ?
Zn1 O11 2.081(2) . ?
Zn1 O5 2.0963(19) . ?
Zn1 O10 2.1069(19) . ?
Zn1 O7 2.1216(19) . ?
Zn1 O9 2.131(2) . ?
Zn2 O2 1.9329(19) . ?
Zn2 O6 1.9427(19) . ?
Zn2 O3 1.9550(19) 4_566 ?
Zn2 O8 1.9666(18) . ?
O1 C1 1.254(3) . ?
O2 C1 1.258(3) . ?
O3 C8 1.279(3) . ?
O3 Zn2 1.9550(19) 4_466 ?
O4 C8 1.224(4) . ?
O5 C9 1.252(3) . ?
O6 C9 1.265(3) . ?
O7 C16 1.241(3) . ?
O8 C16 1.265(3) . ?
C1 C2 1.509(3) . ?
C2 C3 1.390(4) . ?
C2 C7 1.396(3) . ?
C3 C4 1.397(4) . ?
C4 C5 1.384(4) . ?
C5 C6 1.389(4) . ?
C6 C7 1.392(4) . ?
C6 C8 1.513(4) . ?
C9 C10 1.506(3) 3_746 ?
C11 C12 1.385(4) . ?
C11 C10 1.393(4) . ?
C12 C13 1.390(4) . ?
C13 C14 1.390(4) . ?
C14 C15 1.391(3) . ?
C14 C16 1.513(3) . ?
C15 C10 1.396(3) . ?
C10 C9 1.506(3) 3_756 ?
S1 O9 1.513(2) . ?
S1 C18 1.780(3) . ?
S1 C17 1.784(4) . ?
S2 O10 1.515(2) . ?
S2 C19 1.773(4) . ?
S2 C20 1.773(4) . ?
S3 O12 1.501(3) . ?
S3 C22 1.773(5) . ?
S3 C21 1.778(4) . ?
S4 O13 1.520(3) . ?
S4 C24 1.706(5) . ?
S4 C23 1.718(4) . ?
S4X O13 1.461(4) . ?
S4X C24 1.657(5) . ?
S4X C23 1.824(4) . ?
S5 C26 1.510(2) . ?
S5 C25 1.769(4) . ?
S5 O14 1.788(3) . ?

loop_
_geom_angle_atom_site_label_1
_geom_angle_atom_site_label_2
_geom_angle_atom_site_label_3
_geom_angle
_geom_angle_site_symmetry_1
_geom_angle_site_symmetry_3
_geom_angle_publ_flag
O1 Zn1 O11 88.17(9) . . ?
O1 Zn1 O5 94.09(8) . . ?
O11 Zn1 O5 93.53(8) . . ?
O1 Zn1 O10 177.42(8) . . ?
O11 Zn1 O10 89.84(9) . . ?
O5 Zn1 O10 87.6