####################################################################### 
# 
# This file contains crystal structure data downloaded from the 
# Cambridge Structural Database (CSD) hosted by the Cambridge 
# Crystallographic Data Centre (CCDC).
# 
# Full information about CCDC data access policies and citation 
# guidelines are available at http://www.ccdc.cam.ac.uk/access/V1 
# 
# Audit and citation data items may have been added by the CCDC. 
# Please retain this information to preserve the provenance of 
# this file and to allow appropriate attribution of the data. 
# 
#######################################################################

data_jc87
_audit_block_doi                 10.5517/cc11677q
_database_code_depnum_ccdc_archive 'CCDC 959302'
_audit_update_record             
;
2013-09-05 deposited with the CCDC.	2024-07-13 downloaded from the CCDC.
;

_audit_creation_method           SHELXL-97
_chemical_name_systematic        ?
_chemical_name_common            ?
_chemical_melting_point          ?
_chemical_formula_moiety         ?
_chemical_formula_sum            'C52 H76 Ce3 I3 Mg N4 O7'
_chemical_formula_weight         1694.54

loop_
_atom_type_symbol
_atom_type_description
_atom_type_scat_dispersion_real
_atom_type_scat_dispersion_imag
_atom_type_scat_source
C C 0.0033 0.0016 'International Tables Vol C Tables 4.2.6.8 and 6.1.1.4'
H H 0.0000 0.0000 'International Tables Vol C Tables 4.2.6.8 and 6.1.1.4'
N N 0.0061 0.0033 'International Tables Vol C Tables 4.2.6.8 and 6.1.1.4'
O O 0.0106 0.0060 'International Tables Vol C Tables 4.2.6.8 and 6.1.1.4'
I I -0.4742 1.8119 'International Tables Vol C Tables 4.2.6.8 and 6.1.1.4'
Ce Ce -0.2486 2.6331 'International Tables Vol C Tables 4.2.6.8 and 6.1.1.4'
Mg Mg 0.0486 0.0363 'International Tables Vol C Tables 4.2.6.8 and 6.1.1.4'

_symmetry_cell_setting           orthorhombic
_symmetry_space_group_name_H-M   'P c a 21'

loop_
_symmetry_equiv_pos_as_xyz
'x, y, z'
'-x, -y, z+1/2'
'x+1/2, -y, z'
'-x+1/2, y, z+1/2'

_cell_length_a                   15.6706(14)
_cell_length_b                   24.649(2)
_cell_length_c                   16.1080(14)
_cell_angle_alpha                90.00
_cell_angle_beta                 90.00
_cell_angle_gamma                90.00
_cell_volume                     6222.0(9)
_cell_formula_units_Z            4
_cell_measurement_temperature    100(2)
_cell_measurement_reflns_used    91819
_cell_measurement_theta_min      2.96
_cell_measurement_theta_max      25.68

_exptl_crystal_description       platelet
_exptl_crystal_colour            'translucent light orange'
_exptl_crystal_size_max          0.17
_exptl_crystal_size_mid          0.15
_exptl_crystal_size_min          0.03
_exptl_crystal_density_meas      ?
_exptl_crystal_density_diffrn    1.809
_exptl_crystal_density_method    'not measured'
_exptl_crystal_F_000             3268
_exptl_absorpt_coefficient_mu    3.703
_exptl_absorpt_correction_type   multi-scan
_exptl_absorpt_correction_T_min  0.571
_exptl_absorpt_correction_T_max  0.895
_exptl_absorpt_process_details   'SCALEPACK (Otwinowski & Minor, 1997)'
_exptl_special_details           'crystal-to-detector distance 40 mm'
_diffrn_ambient_temperature      100(2)
_diffrn_radiation_wavelength     0.71073
_diffrn_radiation_type           MoK\a
_diffrn_radiation_source         'fine-focus sealed tube'
_diffrn_radiation_monochromator  graphite
_diffrn_measurement_device_type  'Nonius Kappa-CCD area-detector diffractometer'
_diffrn_measurement_method       'two \f and three \w scans with 2\% steps'
_diffrn_standards_interval_time  0
_diffrn_standards_number         0
_diffrn_standards_decay_%        0
_diffrn_reflns_number            91819
_diffrn_reflns_av_R_equivalents  0.0633
_diffrn_reflns_av_sigmaI/netI    0.1052
_diffrn_reflns_limit_h_min       -19
_diffrn_reflns_limit_h_max       19
_diffrn_reflns_limit_k_min       -29
_diffrn_reflns_limit_k_max       30
_diffrn_reflns_limit_l_min       -19
_diffrn_reflns_limit_l_max       19
_diffrn_reflns_theta_min         2.96
_diffrn_reflns_theta_max         25.68
_reflns_number_total             11434
_reflns_number_gt                7717
_reflns_threshold_expression     >2sigma(I)

_computing_data_collection       'COLLECT (Hooft, 1998)'
_computing_cell_refinement       'HKL2000 (Otwinowski & Minor, 1997)'
_computing_data_reduction        'HKL2000 (Otwinowski & Minor, 1997)'
_computing_structure_solution    'SHELXS-97 (Sheldrick, 1997)'
_computing_structure_refinement  'SHELXL-97 (Sheldrick, 1997)'
_computing_molecular_graphics    'SHELXTL (Sheldrick, 1999)'
_computing_publication_material  
'SHELXTL (Sheldrick, 1999); PLATON (Spek, 2003)'

_refine_special_details          
;
 Structure solved by direct methods and subsequent Fourier-difference
 synthesis. All non-hydrogen atoms were refined with anisotropic
 displacement parameters, with restraints on bond lengths and/or
 displacement parameters for some badly behaving atoms. The H atoms 
 bound to N atoms were introduced at calculated positions and were 
 treated as riding atoms with an isotropic displacement parameter equal 
 to 1.2 times that of the parent atom. Some voids in the lattice likely 
 indicate the presence of other, unresolved solvent molecules.
 Refinement of F^2^ against ALL reflections.  The weighted R-factor wR and 
 goodness of fit S are based on F^2^, conventional R-factors R are based 
 on F, with F set to zero for negative F^2^. The threshold expression of 
 F^2^ > 2sigma(F^2^) is used only for calculating R-factors(gt) etc. and is 
 not relevant to the choice of reflections for refinement.  R-factors based 
 on F^2^ are statistically about twice as large as those based on F, and R- 
 factors based on ALL data will be even larger. 
;
_refine_ls_structure_factor_coef Fsqd
_refine_ls_matrix_type           full
_refine_ls_weighting_scheme      calc
_refine_ls_weighting_details     
'calc w=1/[\s^2^(Fo^2^)+(0.1116P)^2^] where P=(Fo^2^+2Fc^2^)/3'
_atom_sites_solution_primary     direct
_atom_sites_solution_secondary   difmap
_atom_sites_solution_hydrogens   geom
_refine_ls_hydrogen_treatment    constr
_refine_ls_extinction_method     none
_refine_ls_extinction_coef       ?
_refine_ls_abs_structure_details 'Flack H D (1983), Acta Cryst. A39, 876-881'
_refine_ls_abs_structure_Flack   0.48(4)
_refine_ls_number_reflns         11434
_refine_ls_number_parameters     632
_refine_ls_number_restraints     78
_refine_ls_R_factor_all          0.1155
_refine_ls_R_factor_gt           0.0727
_refine_ls_wR_factor_ref         0.1856
_refine_ls_wR_factor_gt          0.1703
_refine_ls_goodness_of_fit_ref   1.005
_refine_ls_restrained_S_all      1.005
_refine_ls_shift/su_max          0.000
_refine_ls_shift/su_mean         0.000
_diffrn_measured_fraction_theta_max 0.997
_diffrn_reflns_theta_full        25.68
_diffrn_measured_fraction_theta_full 0.997
_refine_diff_density_max         2.149
_refine_diff_density_min         -0.930
_refine_diff_density_rms         0.215

loop_
_atom_site_label
_atom_site_type_symbol
_atom_site_fract_x
_atom_site_fract_y
_atom_site_fract_z
_atom_site_U_iso_or_equiv
_atom_site_adp_type
_atom_site_occupancy
_atom_site_symmetry_multiplicity
_atom_site_calc_flag
_atom_site_refinement_flags
_atom_site_disorder_assembly
_atom_site_disorder_group
Ce1 Ce 0.39043(6) 0.23672(5) 0.42635(6) 0.0413(3) Uani 1 1 d . . .
Ce2 Ce 0.52840(6) 0.35802(5) 0.47715(6) 0.0394(3) Uani 1 1 d . . .
Ce3 Ce 0.42459(6) 0.27821(4) 0.64782(6) 0.0395(3) Uani 1 1 d . . .
Mg Mg 0.5738(4) 0.2302(3) 0.5234(4) 0.0403(14) Uani 1 1 d . . .
I1 I 0.24813(8) 0.27427(5) 0.28249(8) 0.0469(3) Uani 1 1 d . . .
I2 I 0.48132(8) 0.48626(5) 0.50804(7) 0.0479(3) Uani 1 1 d . . .
I3 I 0.71116(7) 0.16225(6) 0.52711(8) 0.0511(3) Uani 1 1 d . . .
N1 N 0.3951(8) 0.3181(7) 0.5166(9) 0.049(4) Uani 1 1 d . . .
N2 N 0.5348(9) 0.2678(7) 0.4122(9) 0.046(4) Uani 1 1 d . . .
N3 N 0.4494(8) 0.2016(8) 0.5542(8) 0.054(5) Uani 1 1 d . . .
N4 N 0.5628(8) 0.2974(7) 0.5978(9) 0.046(4) Uani 1 1 d . . .
O1 O 0.4352(8) 0.1514(5) 0.3544(9) 0.055(4) Uani 1 1 d . . .
O2 O 0.2717(9) 0.1587(6) 0.4511(11) 0.072(5) Uani 1 1 d . . .
O3 O 0.4824(7) 0.3880(6) 0.3313(8) 0.051(4) Uani 1 1 d . . .
O4 O 0.6748(7) 0.3848(5) 0.4222(8) 0.047(3) Uani 1 1 d . . .
O5 O 0.5160(8) 0.2566(7) 0.7768(10) 0.063(4) Uani 1 1 d . . .
O6 O 0.4112(8) 0.3734(6) 0.7110(9) 0.057(4) Uani 1 1 d . . .
C1 C 0.3052(9) 0.3306(6) 0.5127(10) 0.035(4) Uani 1 1 d D . .
C2 C 0.2748(11) 0.3826(6) 0.4924(12) 0.051(5) Uani 1 1 d D . .
H2 H 0.3127 0.4104 0.4798 0.061 Uiso 1 1 calc R . .
C3 C 0.1857(11) 0.3921(9) 0.4914(12) 0.056(6) Uani 1 1 d D . .
H3 H 0.1655 0.4265 0.4778 0.067 Uiso 1 1 calc R . .
C4 C 0.1273(13) 0.3510(10) 0.5103(11) 0.073(8) Uani 1 1 d D . .
H4 H 0.0691 0.3580 0.5074 0.087 Uiso 1 1 calc R . .
C5 C 0.1566(13) 0.2980(11) 0.5343(13) 0.064(6) Uani 1 1 d . . .
H5 H 0.1190 0.2708 0.5505 0.077 Uiso 1 1 calc R . .
C6 C 0.2471(10) 0.2893(8) 0.5320(12) 0.053(5) Uani 1 1 d D . .
H6 H 0.2681 0.2548 0.5438 0.064 Uiso 1 1 calc R . .
C7 C 0.5535(11) 0.2559(9) 0.3305(11) 0.046(5) Uani 1 1 d . . .
C8 C 0.6337(12) 0.2271(8) 0.3131(11) 0.049(5) Uani 1 1 d . . .
H8 H 0.6725 0.2190 0.3550 0.059 Uiso 1 1 calc R . .
C9 C 0.6491(12) 0.2126(9) 0.2306(12) 0.052(5) Uani 1 1 d . . .
H9 H 0.7000 0.1950 0.2182 0.062 Uiso 1 1 calc R . .
C10 C 0.5943(12) 0.2227(7) 0.1678(10) 0.044(5) Uani 1 1 d . . .
H10 H 0.6068 0.2119 0.1138 0.053 Uiso 1 1 calc R . .
C11 C 0.5188(11) 0.2494(8) 0.1861(11) 0.042(5) Uani 1 1 d . . .
H11 H 0.4797 0.2581 0.1447 0.051 Uiso 1 1 calc R . .
C12 C 0.5036(12) 0.2629(9) 0.2696(12) 0.047(5) Uani 1 1 d U . .
H12 H 0.4511 0.2788 0.2814 0.057 Uiso 1 1 calc R . .
C13 C 0.4360(10) 0.1645(7) 0.6151(10) 0.031(4) Uani 1 1 d . . .
C14 C 0.4989(14) 0.1255(9) 0.6429(13) 0.056(5) Uani 1 1 d . . .
H14 H 0.5515 0.1245 0.6161 0.068 Uiso 1 1 calc R . .
C15 C 0.4852(12) 0.0904(9) 0.7057(13) 0.054(6) Uani 1 1 d . . .
H15 H 0.5276 0.0659 0.7207 0.064 Uiso 1 1 calc R . .
C16 C 0.4069(13) 0.0908(9) 0.7487(14) 0.055(5) Uani 1 1 d . . .
H16 H 0.3951 0.0653 0.7897 0.066 Uiso 1 1 calc R . .
C17 C 0.3502(13) 0.1290(9) 0.7282(11) 0.057(6) Uani 1 1 d . . .
H17 H 0.3023 0.1339 0.7614 0.068 Uiso 1 1 calc R . .
C18 C 0.3607(13) 0.1613(8) 0.6597(11) 0.050(5) Uani 1 1 d . . .
H18 H 0.3147 0.1822 0.6422 0.060 Uiso 1 1 calc R . .
C19 C 0.6304(12) 0.3304(10) 0.6224(11) 0.053(6) Uani 1 1 d . . .
C20 C 0.6189(10) 0.3895(7) 0.6358(10) 0.037(4) Uani 1 1 d . . .
H20 H 0.5634 0.4026 0.6400 0.044 Uiso 1 1 calc R . .
C21 C 0.6808(11) 0.4241(9) 0.6421(11) 0.046(5) Uani 1 1 d . . .
H21 H 0.6691 0.4610 0.6461 0.055 Uiso 1 1 calc R . .
C22 C 0.7666(12) 0.4054(9) 0.6429(13) 0.054(5) Uani 1 1 d . . .
H22 H 0.8113 0.4298 0.6497 0.065 Uiso 1 1 calc R . .
C23 C 0.7829(14) 0.3509(9) 0.6335(10) 0.053(5) Uani 1 1 d . . .
H23 H 0.8388 0.3381 0.6339 0.064 Uiso 1 1 calc R . .
C24 C 0.7162(12) 0.3159(8) 0.6236(10) 0.042(4) Uani 1 1 d . . .
H24 H 0.7291 0.2793 0.6172 0.051 Uiso 1 1 calc R . .
C25 C 0.5054(14) 0.1134(10) 0.3800(16) 0.070(7) Uani 1 1 d . . .
H25A H 0.4942 0.0998 0.4354 0.084 Uiso 1 1 calc R . .
H25B H 0.5593 0.1328 0.3811 0.084 Uiso 1 1 calc R . .
C26 C 0.512(2) 0.0666(11) 0.3205(19) 0.097(9) Uani 1 1 d . . .
H26A H 0.4753 0.0366 0.3370 0.116 Uiso 1 1 calc R . .
H26B H 0.5698 0.0540 0.3141 0.116 Uiso 1 1 calc R . .
C27 C 0.4774(16) 0.0957(11) 0.2386(16) 0.079(7) Uani 1 1 d U . .
H27A H 0.5225 0.1164 0.2122 0.095 Uiso 1 1 calc R . .
H27B H 0.4558 0.0692 0.1993 0.095 Uiso 1 1 calc R . .
C28 C 0.4067(12) 0.1325(9) 0.2683(12) 0.053(5) Uani 1 1 d U . .
H28A H 0.3531 0.1130 0.2716 0.063 Uiso 1 1 calc R . .
H28B H 0.3998 0.1631 0.2311 0.063 Uiso 1 1 calc R . .
C29 C 0.3022(14) 0.1031(9) 0.4766(16) 0.070(6) Uani 1 1 d . . .
H29A H 0.3556 0.1050 0.5069 0.084 Uiso 1 1 calc R . .
H29B H 0.3091 0.0794 0.4290 0.084 Uiso 1 1 calc R . .
C30 C 0.2259(14) 0.0837(10) 0.5346(16) 0.076(6) Uani 1 1 d U . .
H30A H 0.2461 0.0761 0.5903 0.091 Uiso 1 1 calc R . .
H30B H 0.1991 0.0513 0.5123 0.091 Uiso 1 1 calc R . .
C31 C 0.1598(15) 0.1341(11) 0.5348(14) 0.080(8) Uani 1 1 d . . .
H31A H 0.1013 0.1213 0.5353 0.096 Uiso 1 1 calc R . .
H31B H 0.1690 0.1570 0.5829 0.096 Uiso 1 1 calc R . .
C32 C 0.1796(15) 0.1663(11) 0.4514(13) 0.078(8) Uani 1 1 d . . .
H32A H 0.1525 0.1499 0.4035 0.093 Uiso 1 1 calc R . .
H32B H 0.1638 0.2043 0.4552 0.093 Uiso 1 1 calc R . .
C33 C 0.4005(12) 0.4139(8) 0.3066(10) 0.045(5) Uani 1 1 d . . .
H33A H 0.3932 0.4487 0.3338 0.054 Uiso 1 1 calc R . .
H33B H 0.3523 0.3908 0.3201 0.054 Uiso 1 1 calc R . .
C34 C 0.4093(17) 0.4207(12) 0.2148(17) 0.089(8) Uani 1 1 d U . .
H34A H 0.4010 0.4584 0.1995 0.107 Uiso 1 1 calc R . .
H34B H 0.3669 0.3989 0.1862 0.107 Uiso 1 1 calc R . .
C35 C 0.4984(12) 0.4023(8) 0.1908(12) 0.052(5) Uani 1 1 d . . .
H35A H 0.4965 0.3671 0.1640 0.062 Uiso 1 1 calc R . .
H35B H 0.5246 0.4281 0.1533 0.062 Uiso 1 1 calc R . .
C36 C 0.5454(12) 0.3993(8) 0.2677(9) 0.044(5) Uani 1 1 d . . .
H36A H 0.5742 0.4333 0.2789 0.053 Uiso 1 1 calc R . .
H36B H 0.5876 0.3705 0.2654 0.053 Uiso 1 1 calc R . .
C37 C 0.7137(12) 0.4352(9) 0.4207(12) 0.054(5) Uani 1 1 d . . .
H37A H 0.7206 0.4487 0.4768 0.065 Uiso 1 1 calc R . .
H37B H 0.6786 0.4607 0.3900 0.065 Uiso 1 1 calc R . .
C38 C 0.8005(13) 0.4295(10) 0.3790(17) 0.077(8) Uani 1 1 d . . .
H38A H 0.7969 0.4365 0.3199 0.092 Uiso 1 1 calc R . .
H38B H 0.8421 0.4539 0.4035 0.092 Uiso 1 1 calc R . .
C39 C 0.8222(12) 0.3724(9) 0.3958(15) 0.063(6) Uani 1 1 d . . .
H39A H 0.8500 0.3686 0.4493 0.076 Uiso 1 1 calc R . .
H39B H 0.8595 0.3580 0.3530 0.076 Uiso 1 1 calc R . .
C40 C 0.7380(12) 0.3441(7) 0.3952(16) 0.056(6) Uani 1 1 d . . .
H40A H 0.7247 0.3311 0.3399 0.067 Uiso 1 1 calc R . .
H40B H 0.7386 0.3135 0.4330 0.067 Uiso 1 1 calc R . .
C41 C 0.6057(11) 0.2397(10) 0.7743(13) 0.057(6) Uani 1 1 d . . .
H41A H 0.6433 0.2709 0.7770 0.069 Uiso 1 1 calc R . .
H41B H 0.6177 0.2197 0.7237 0.069 Uiso 1 1 calc R . .
C42 C 0.618(2) 0.2034(14) 0.851(2) 0.106(10) Uani 1 1 d U . .
H42A H 0.6758 0.2050 0.8712 0.127 Uiso 1 1 calc R . .
H42B H 0.6030 0.1660 0.8385 0.127 Uiso 1 1 calc R . .
C43 C 0.5517(16) 0.2302(11) 0.9148(18) 0.082(7) Uani 1 1 d U . .
H43A H 0.5374 0.2062 0.9604 0.098 Uiso 1 1 calc R . .
H43B H 0.5715 0.2648 0.9361 0.098 Uiso 1 1 calc R . .
C44 C 0.4798(13) 0.2363(11) 0.8537(13) 0.068(7) Uani 1 1 d . . .
H44A H 0.4524 0.2015 0.8444 0.082 Uiso 1 1 calc R . .
H44B H 0.4376 0.2615 0.8749 0.082 Uiso 1 1 calc R . .
C45 C 0.4548(14) 0.3907(8) 0.7840(11) 0.059(6) Uani 1 1 d D . .
H45A H 0.5162 0.3881 0.7769 0.071 Uiso 1 1 calc R . .
H45B H 0.4380 0.3691 0.8316 0.071 Uiso 1 1 calc R . .
C46 C 0.4274(11) 0.4490(7) 0.7943(13) 0.057(6) Uani 1 1 d D . .
H46A H 0.4623 0.4730 0.7608 0.069 Uiso 1 1 calc R . .
H46B H 0.4313 0.4602 0.8519 0.069 Uiso 1 1 calc R . .
C47 C 0.3348(12) 0.4493(8) 0.7645(12) 0.050(5) Uani 1 1 d . . .
H47A H 0.3175 0.4853 0.7469 0.060 Uiso 1 1 calc R . .
H47B H 0.2964 0.4369 0.8078 0.060 Uiso 1 1 calc R . .
C48 C 0.3362(11) 0.4091(10) 0.6902(11) 0.060(6) Uani 1 1 d . . .
H48A H 0.2838 0.3882 0.6872 0.072 Uiso 1 1 calc R . .
H48B H 0.3448 0.4279 0.6380 0.072 Uiso 1 1 calc R . .
O7 O 0.0459(13) 0.0346(9) 0.4526(13) 0.106(6) Uani 1 1 d U . .
C49 C -0.0253(18) 0.0629(14) 0.4384(19) 0.100(9) Uani 1 1 d U . .
H49A H -0.0615 0.0441 0.3989 0.120 Uiso 1 1 calc R . .
H49B H -0.0118 0.0985 0.4163 0.120 Uiso 1 1 calc R . .
C50 C -0.071(3) 0.0680(17) 0.523(3) 0.143(13) Uani 1 1 d U . .
H50A H -0.0434 0.0944 0.5595 0.172 Uiso 1 1 calc R . .
H50B H -0.1309 0.0760 0.5182 0.172 Uiso 1 1 calc R . .
C51 C -0.0540(14) 0.0113(12) 0.550(2) 0.096(9) Uani 1 1 d DU . .
H51A H -0.0922 -0.0137 0.5215 0.115 Uiso 1 1 calc R . .
H51B H -0.0611 0.0072 0.6091 0.115 Uiso 1 1 calc R . .
C52 C 0.0375(13) 0.0016(12) 0.5243(19) 0.089(8) Uani 1 1 d DU . .
H52A H 0.0767 0.0128 0.5676 0.107 Uiso 1 1 calc R . .
H52B H 0.0474 -0.0363 0.5113 0.107 Uiso 1 1 calc R . .

loop_
_atom_site_aniso_label
_atom_site_aniso_U_11
_atom_site_aniso_U_22
_atom_site_aniso_U_33
_atom_site_aniso_U_23
_atom_site_aniso_U_13
_atom_site_aniso_U_12
Ce1 0.0410(5) 0.0546(7) 0.0284(5) 0.0003(5) -0.0038(5) -0.0023(5)
Ce2 0.0350(5) 0.0552(7) 0.0280(5) 0.0017(5) -0.0016(4) 0.0004(5)
Ce3 0.0352(5) 0.0564(7) 0.0267(5) -0.0002(5) 0.0018(4) 0.0015(5)
Mg 0.041(3) 0.057(4) 0.022(3) 0.000(3) -0.008(3) 0.001(3)
I1 0.0392(6) 0.0692(9) 0.0323(6) 0.0016(6) -0.0076(5) 0.0012(6)
I2 0.0525(7) 0.0564(8) 0.0349(6) -0.0007(5) -0.0038(5) 0.0035(6)
I3 0.0455(6) 0.0704(9) 0.0374(6) -0.0021(6) -0.0042(6) 0.0131(6)
N1 0.027(7) 0.097(14) 0.024(8) 0.013(8) 0.004(6) 0.000(7)
N2 0.047(9) 0.056(11) 0.036(9) 0.013(8) 0.006(7) 0.024(8)
N3 0.014(6) 0.127(16) 0.022(8) -0.009(9) 0.007(6) -0.005(8)
N4 0.029(8) 0.066(11) 0.042(9) 0.000(8) 0.006(7) 0.001(8)
O1 0.045(7) 0.050(9) 0.070(10) 0.001(7) -0.038(7) -0.003(6)
O2 0.060(9) 0.055(10) 0.101(13) -0.030(9) -0.038(8) -0.003(7)
O3 0.023(6) 0.092(11) 0.038(7) 0.026(7) 0.010(5) 0.020(6)
O4 0.043(7) 0.057(9) 0.041(7) 0.010(7) 0.006(6) -0.006(6)
O5 0.039(7) 0.092(12) 0.058(9) 0.009(8) -0.006(7) 0.023(7)
O6 0.038(7) 0.071(10) 0.061(9) -0.018(8) 0.011(7) 0.001(7)
C1 0.028(8) 0.050(12) 0.028(9) -0.006(8) 0.003(7) 0.009(8)
C2 0.040(10) 0.066(14) 0.047(12) -0.012(10) -0.008(8) -0.007(9)
C3 0.037(10) 0.085(17) 0.046(12) -0.026(11) 0.002(9) -0.007(10)
C4 0.055(13) 0.14(3) 0.022(10) -0.029(13) -0.017(9) 0.015(15)
C5 0.055(12) 0.101(19) 0.036(11) -0.021(12) 0.029(10) -0.028(12)
C6 0.029(9) 0.099(17) 0.031(10) 0.007(11) 0.004(8) -0.011(10)
C7 0.032(9) 0.074(15) 0.032(10) 0.009(9) 0.018(8) 0.006(9)
C8 0.057(1