####################################################################### 
# 
# This file contains crystal structure data downloaded from the 
# Cambridge Structural Database (CSD) hosted by the Cambridge 
# Crystallographic Data Centre (CCDC).
# 
# Full information about CCDC data access policies and citation 
# guidelines are available at http://www.ccdc.cam.ac.uk/access/V1 
# 
# Audit and citation data items may have been added by the CCDC. 
# Please retain this information to preserve the provenance of 
# this file and to allow appropriate attribution of the data. 
# 
#######################################################################

data_c2c
_audit_block_doi                 10.5517/ccz07sz
_database_code_depnum_ccdc_archive 'CCDC 893971'
loop_
_citation_id
_citation_doi
_citation_year
1 10.1016/j.inoche.2012.12.034 2013
_audit_update_record             
;
2013-09-05 deposited with the CCDC.	2024-07-13 downloaded from the CCDC.
;

_audit_creation_method           SHELXL-97
_chemical_name_systematic        
; 
 ? 
;
_chemical_name_common            ?
_chemical_melting_point          ?
_chemical_formula_moiety         ?
_chemical_formula_sum            'C4 H7 Co N3 O3'
_chemical_formula_weight         204.06

loop_
_atom_type_symbol
_atom_type_description
_atom_type_scat_dispersion_real
_atom_type_scat_dispersion_imag
_atom_type_scat_source
C C 0.0033 0.0016 'International Tables Vol C Tables 4.2.6.8 and 6.1.1.4'
H H 0.0000 0.0000 'International Tables Vol C Tables 4.2.6.8 and 6.1.1.4'
Co Co 0.3494 0.9721 'International Tables Vol C Tables 4.2.6.8 and 6.1.1.4'
N N 0.0061 0.0033 'International Tables Vol C Tables 4.2.6.8 and 6.1.1.4'
O O 0.0106 0.0060 'International Tables Vol C Tables 4.2.6.8 and 6.1.1.4'

_symmetry_cell_setting           Tetragonal
_symmetry_space_group_name_H-M   I41/a

loop_
_symmetry_equiv_pos_as_xyz
'x, y, z'
'-y+3/4, x+1/4, z+1/4'
'-x+1/2, -y, z+1/2'
'y+3/4, -x+3/4, z+3/4'
'x+1/2, y+1/2, z+1/2'
'-y+5/4, x+3/4, z+3/4'
'-x+1, -y+1/2, z+1'
'y+5/4, -x+5/4, z+5/4'
'-x, -y, -z'
'y-3/4, -x-1/4, -z-1/4'
'x-1/2, y, -z-1/2'
'-y-3/4, x-3/4, -z-3/4'
'-x+1/2, -y+1/2, -z+1/2'
'y-1/4, -x+1/4, -z+1/4'
'x, y+1/2, -z'
'-y-1/4, x-1/4, -z-1/4'

_cell_length_a                   16.515(6)
_cell_length_b                   16.515(6)
_cell_length_c                   18.161(7)
_cell_angle_alpha                90.00
_cell_angle_beta                 90.00
_cell_angle_gamma                90.00
_cell_volume                     4953(3)
_cell_formula_units_Z            16
_cell_measurement_temperature    293(2)
_cell_measurement_reflns_used    1910
_cell_measurement_theta_min      2.47
_cell_measurement_theta_max      20.50

_exptl_crystal_description       block
_exptl_crystal_colour            purple
_exptl_crystal_size_max          0.25
_exptl_crystal_size_mid          0.23
_exptl_crystal_size_min          0.21
_exptl_crystal_density_meas      ?
_exptl_crystal_density_diffrn    1.095
_exptl_crystal_density_method    'not measured'
_exptl_crystal_F_000             1648
_exptl_absorpt_coefficient_mu    1.362
_exptl_absorpt_correction_type   multi-scan
_exptl_absorpt_correction_T_min  0.7271
_exptl_absorpt_correction_T_max  0.7820
_exptl_absorpt_process_details   SADABS

_exptl_special_details           
; 
 ? 
;

_diffrn_ambient_temperature      293(2)
_diffrn_radiation_wavelength     0.71073
_diffrn_radiation_type           MoK\a
_diffrn_radiation_source         'fine-focus sealed tube'
_diffrn_radiation_monochromator  graphite
_diffrn_measurement_device_type  ?
_diffrn_measurement_method       ?
_diffrn_detector_area_resol_mean ?
_diffrn_standards_number         ?
_diffrn_standards_interval_count ?
_diffrn_standards_interval_time  ?
_diffrn_standards_decay_%        ?
_diffrn_reflns_number            12218
_diffrn_reflns_av_R_equivalents  0.0915
_diffrn_reflns_av_sigmaI/netI    0.0840
_diffrn_reflns_limit_h_min       -19
_diffrn_reflns_limit_h_max       19
_diffrn_reflns_limit_k_min       -15
_diffrn_reflns_limit_k_max       19
_diffrn_reflns_limit_l_min       -21
_diffrn_reflns_limit_l_max       21
_diffrn_reflns_theta_min         1.67
_diffrn_reflns_theta_max         25.11
_reflns_number_total             2201
_reflns_number_gt                1177
_reflns_threshold_expression     >2sigma(I)

_computing_data_collection       'Bruker APEX2'
_computing_cell_refinement       'Bruker SAINT'
_computing_data_reduction        'Bruker SAINT'
_computing_structure_solution    'SHELXS-97 (Sheldrick, 2008)'
_computing_structure_refinement  'SHELXL-97 (Sheldrick, 2008)'
_computing_molecular_graphics    'Bruker SHELXTL'
_computing_publication_material  'Bruker SHELXTL'

_refine_special_details          
; 
 Refinement of F^2^ against ALL reflections.  The weighted R-factor wR and 
 goodness of fit S are based on F^2^, conventional R-factors R are based 
 on F, with F set to zero for negative F^2^. The threshold expression of 
 F^2^ > 2sigma(F^2^) is used only for calculating R-factors(gt) etc. and is 
 not relevant to the choice of reflections for refinement.  R-factors based 
 on F^2^ are statistically about twice as large as those based on F, and R- 
 factors based on ALL data will be even larger. 
;

_refine_ls_structure_factor_coef Fsqd
_refine_ls_matrix_type           full
_refine_ls_weighting_scheme      calc
_refine_ls_weighting_details     
'calc w=1/[\s^2^(Fo^2^)+(0.0783P)^2^+0.0000P] where P=(Fo^2^+2Fc^2^)/3'
_atom_sites_solution_primary     direct
_atom_sites_solution_secondary   difmap
_atom_sites_solution_hydrogens   geom
_refine_ls_hydrogen_treatment    mixed
_refine_ls_extinction_method     none
_refine_ls_extinction_coef       ?
_refine_ls_number_reflns         2201
_refine_ls_number_parameters     104
_refine_ls_number_restraints     6
_refine_ls_R_factor_all          0.0807
_refine_ls_R_factor_gt           0.0482
_refine_ls_wR_factor_ref         0.1341
_refine_ls_wR_factor_gt          0.1262
_refine_ls_goodness_of_fit_ref   0.847
_refine_ls_restrained_S_all      0.864
_refine_ls_shift/su_max          0.000
_refine_ls_shift/su_mean         0.000

loop_
_atom_site_label
_atom_site_type_symbol
_atom_site_fract_x
_atom_site_fract_y
_atom_site_fract_z
_atom_site_U_iso_or_equiv
_atom_site_adp_type
_atom_site_occupancy
_atom_site_symmetry_multiplicity
_atom_site_calc_flag
_atom_site_refinement_flags
_atom_site_disorder_assembly
_atom_site_disorder_group
Co1 Co 0.92367(4) 0.50966(4) 0.41684(4) 0.0451(3) Uani 1 1 d . . .
O1 O 0.8829(3) 0.6144(2) 0.4904(2) 0.0606(10) Uani 1 1 d D . .
O2 O 0.7991(3) 0.5505(2) 0.1618(2) 0.0785(13) Uani 1 1 d . . .
O5 O 0.9573(2) 0.4248(2) 0.3387(2) 0.0768(12) Uani 1 1 d . . .
N1 N 0.8734(2) 0.5943(2) 0.3471(2) 0.0420(10) Uani 1 1 d . . .
N2 N 0.8095(2) 0.7113(2) 0.3266(2) 0.0431(10) Uani 1 1 d . . .
N3 N 0.8055(2) 0.6652(2) 0.2624(2) 0.0456(10) Uani 1 1 d . . .
C1 C 0.8501(3) 0.6669(3) 0.3743(3) 0.0425(12) Uani 1 1 d . . .
C2 C 0.8441(3) 0.5970(3) 0.2773(3) 0.0463(13) Uani 1 1 d . . .
C3 C 0.8691(4) 0.6874(3) 0.4526(3) 0.0617(16) Uani 1 1 d . . .
H3A H 0.9168 0.7216 0.4550 0.074 Uiso 1 1 calc R . .
H3B H 0.8241 0.7163 0.4747 0.074 Uiso 1 1 calc R . .
C4 C 0.8493(4) 0.5306(3) 0.2218(3) 0.0663(17) Uani 1 1 d . . .
H4A H 0.9048 0.5242 0.2053 0.080 Uiso 1 1 calc R . .
H4B H 0.8318 0.4799 0.2436 0.080 Uiso 1 1 calc R . .
H1W H 0.842(5) 0.586(7) 0.480(7) 0.27(7) Uiso 1 1 d D . .

loop_
_atom_site_aniso_label
_atom_site_aniso_U_11
_atom_site_aniso_U_22
_atom_site_aniso_U_33
_atom_site_aniso_U_23
_atom_site_aniso_U_13
_atom_site_aniso_U_12
Co1 0.0408(4) 0.0454(4) 0.0489(4) 0.0136(3) -0.0057(3) -0.0032(3)
O1 0.077(3) 0.051(2) 0.055(2) 0.0096(19) -0.004(2) 0.018(2)
O2 0.108(3) 0.057(2) 0.070(3) -0.023(2) -0.045(3) 0.033(2)
O5 0.092(3) 0.067(3) 0.071(3) -0.012(2) -0.008(2) 0.004(2)
N1 0.040(2) 0.040(2) 0.046(3) 0.0001(19) -0.005(2) 0.0060(18)
N2 0.045(2) 0.039(2) 0.046(2) -0.003(2) -0.013(2) 0.0013(19)
N3 0.045(2) 0.041(2) 0.050(3) -0.003(2) -0.012(2) 0.0009(19)
C1 0.042(3) 0.040(3) 0.045(3) 0.006(2) -0.005(2) 0.000(2)
C2 0.039(3) 0.038(3) 0.062(4) 0.001(3) -0.012(3) 0.001(2)
C3 0.068(4) 0.063(4) 0.054(3) -0.002(3) -0.015(3) 0.011(3)
C4 0.082(4) 0.055(4) 0.062(4) -0.001(3) -0.024(3) 0.017(3)

_geom_special_details            
; 
 All esds (except the esd in the dihedral angle between two l.s. planes) 
 are estimated using the full covariance matrix.  The cell esds are taken 
 into account individually in the estimation of esds in distances, angles 
 and torsion angles; correlations between esds in cell parameters are only 
 used when they are defined by crystal symmetry.  An approximate (isotropic) 
 treatment of cell esds is used for estimating esds involving l.s. planes. 
;

loop_
_geom_bond_atom_site_label_1
_geom_bond_atom_site_label_2
_geom_bond_distance
_geom_bond_site_symmetry_2
_geom_bond_publ_flag
Co1 N3 2.046(4) 8_454 ?
Co1 N1 2.061(4) . ?
Co1 O5 2.071(4) . ?
Co1 N2 2.074(4) 16_756 ?
Co1 O2 2.255(4) 8_454 ?
Co1 O1 2.287(4) . ?
O1 C3 1.407(6) . ?
O1 H1W 0.847(5) . ?
O2 C4 1.409(6) . ?
O2 Co1 2.255(4) 6_544 ?
N1 C1 1.353(6) . ?
N1 C2 1.357(6) . ?
N2 C1 1.318(6) . ?
N2 N3 1.395(5) . ?
N2 Co1 2.074(4) 10_676 ?
N3 C2 1.322(6) . ?
N3 Co1 2.046(4) 6_544 ?
C1 C3 1.495(7) . ?
C2 C4 1.492(7) . ?
C3 H3A 0.9700 . ?
C3 H3B 0.9700 . ?
C4 H4A 0.9700 . ?
C4 H4B 0.9700 . ?

loop_
_platon_squeeze_void_nr
_platon_squeeze_void_average_x
_platon_squeeze_void_average_y
_platon_squeeze_void_average_z
_platon_squeeze_void_volume
_platon_squeeze_void_count_electrons
_platon_squeeze_void_content
1 -0.015 -0.003 -0.006 2543 732 ' '
_platon_squeeze_details          
;
;

loop_
_geom_angle_atom_site_label_1
_geom_angle_atom_site_label_2
_geom_angle_atom_site_label_3
_geom_angle
_geom_angle_site_symmetry_1
_geom_angle_site_symmetry_3
_geom_angle_publ_flag
N3 Co1 N1 148.21(16) 8_454 . ?
N3 Co1 O5 104.12(16) 8_454 . ?
N1 Co1 O5 98.37(16) . . ?
N3 Co1 N2 102.86(14) 8_454 16_756 ?
N1 Co1 N2 97.79(15) . 16_756 ?
O5 Co1 N2 93.58(16) . 16_756 ?
N3 Co1 O2 75.32(14) 8_454 8_454 ?
N1 Co1 O2 84.46(14) . 8_454 ?
O5 Co1 O2 85.55(17) . 8_454 ?
N2 Co1 O2 177.69(14) 16_756 8_454 ?
N3 Co1 O1 83.20(15) 8_454 . ?
N1 Co1 O1 74.22(14) . . ?
O5 Co1 O1 172.49(15) . . ?
N2 Co1 O1 86.32(15) 16_756 . ?
O2 Co1 O1 94.82(17) 8_454 . ?
C3 O1 Co1 114.2(3) . . ?
C3 O1 H1W 103(9) . . ?
Co1 O1 H1W 72(9) . . ?
C4 O2 Co1 115.7(3) . 6_544 ?
C1 N1 C2 102.1(4) . . ?
C1 N1 Co1 119.4(3) . . ?
C2 N1 Co1 137.7(3) . . ?
C1 N2 N3 105.7(4) . . ?
C1 N2 Co1 132.4(3) . 10_676 ?
N3 N2 Co1 122.0(3) . 10_676 ?
C2 N3 N2 105.7(4) . . ?
C2 N3 Co1 119.1(3) . 6_544 ?
N2 N3 Co1 134.2(3) . 6_544 ?
N2 C1 N1 113.4(4) . . ?
N2 C1 C3 127.3(5) . . ?
N1 C1 C3 119.3(4) . . ?
N3 C2 N1 113.1(4) . . ?
N3 C2 C4 121.0(4) . . ?
N1 C2 C4 125.8(4) . . ?
O1 C3 C1 107.7(4) . . ?
O1 C3 H3A 110.2 . . ?
C1 C3 H3A 110.2 . . ?
O1 C3 H3B 110.2 . . ?
C1 C3 H3B 110.2 . . ?
H3A C3 H3B 108.5 . . ?
O2 C4 C2 108.4(4) . . ?
O2 C4 H4A 110.0 . . ?
C2 C4 H4A 110.0 . . ?
O2 C4 H4B 110.0 . . ?
C2 C4 H4B 110.0 . . ?
H4A C4 H4B 108.4 . . ?

loop_
_geom_torsion_atom_site_label_1
_geom_torsion_atom_site_label_2
_geom_torsion_atom_site_label_3
_geom_torsion_atom_site_label_4
_geom_torsion
_geom_torsion_site_symmetry_1
_geom_torsion_site_symmetry_2
_geom_torsion_site_symmetry_3
_geom_torsion_site_symmetry_4
_geom_torsion_publ_flag
N3 Co1 O1 C3 -175.2(4) 8_454 . . . ?
N1 Co1 O1 C3 -17.8(4) . . . . ?
O5 Co1 O1 C3 -8.1(15) . . . . ?
N2 Co1 O1 C3 81.4(4) 16_756 . . . ?
O2 Co1 O1 C3 -100.6(4) 8_454 . . . ?
N3 Co1 N1 C1 52.3(5) 8_454 . . . ?
O5 Co1 N1 C1 -172.8(3) . . . . ?
N2 Co1 N1 C1 -78.0(3) 16_756 . . . ?
O2 Co1 N1 C1 102.5(3) 8_454 . . . ?
O1 Co1 N1 C1 5.9(3) . . . . ?
N3 Co1 N1 C2 -116.1(5) 8_454 . . . ?
O5 Co1 N1 C2 18.8(5) . . . . ?
N2 Co1 N1 C2 113.6(5) 16_756 . . . ?
O2 Co1 N1 C2 -65.9(5) 8_454 . . . ?
O1 Co1 N1 C2 -162.5(5) . . . . ?
C1 N2 N3 C2 0.1(5) . . . . ?
Co1 N2 N3 C2 178.9(3) 10_676 . . . ?
C1 N2 N3 Co1 167.6(3) . . . 6_544 ?
Co1 N2 N3 Co1 -13.6(6) 10_676 . . 6_544 ?
N3 N2 C1 N1 -0.3(5) . . . . ?
Co1 N2 C1 N1 -178.9(3) 10_676 . . . ?
N3 N2 C1 C3 -177.9(5) . . . . ?
Co1 N2 C1 C3 3.4(8) 10_676 . . . ?
C2 N1 C1 N2 0.4(5) . . . . ?
Co1 N1 C1 N2 -171.6(3) . . . . ?
C2 N1 C1 C3 178.2(5) . . . . ?
Co1 N1 C1 C3 6.2(6) . . . . ?
N2 N3 C2 N1 0.2(5) . . . . ?
Co1 N3 C2 N1 -169.6(3) 6_544 . . . ?
N2 N3 C2 C4 177.4(4) . . . . ?
Co1 N3 C2 C4 7.6(6) 6_544 . . . ?
C1 N1 C2 N3 -0.4(5) . . . . ?
Co1 N1 C2 N3 169.3(3) . . . . ?
C1 N1 C2 C4 -177.4(5) . . . . ?
Co1 N1 C2 C4 -7.8(8) . . . . ?
Co1 O1 C3 C1 24.4(5) . . . . ?
N2 C1 C3 O1 156.7(5) . . . . ?
N1 C1 C3 O1 -20.8(7) . . . . ?
Co1 O2 C4 C2 4.6(6) 6_544 . . . ?
N3 C2 C4 O2 -7.9(7) . . . . ?
N1 C2 C4 O2 169.0(5) . . . . ?

_diffrn_measured_fraction_theta_max 0.998
_diffrn_reflns_theta_full        25.11
_diffrn_measured_fraction_theta_full 0.998
_refine_diff_density_max         0.787
_refine_diff_density_min         -0.300
_refine_diff_density_rms         0.080
