####################################################################### 
# 
# This file contains crystal structure data downloaded from the 
# Cambridge Structural Database (CSD) hosted by the Cambridge 
# Crystallographic Data Centre (CCDC).
# 
# Full information about CCDC data access policies and citation 
# guidelines are available at http://www.ccdc.cam.ac.uk/access/V1 
# 
# Audit and citation data items may have been added by the CCDC. 
# Please retain this information to preserve the provenance of 
# this file and to allow appropriate attribution of the data. 
# 
#######################################################################

data_2
_audit_block_doi                 10.5517/cc11jss4
_database_code_depnum_ccdc_archive 'CCDC 969456'
loop_
_citation_id
_citation_doi
_citation_year
1 10.1039/C3DT53109K 2014
_audit_update_record             
;
2013-12-11 deposited with the CCDC.	2024-07-13 downloaded from the CCDC.
;

_audit_creation_method           SHELXL-97
_chemical_name_systematic        
; 
 ? 
;
_chemical_name_common            ?
_chemical_melting_point          ?
_chemical_formula_moiety         ?
_chemical_formula_sum            'C65 H63 Cd3 N7 O25'
_chemical_formula_weight         1679.42

loop_
_atom_type_symbol
_atom_type_description
_atom_type_scat_dispersion_real
_atom_type_scat_dispersion_imag
_atom_type_scat_source
C C 0.0033 0.0016 'International Tables Vol C Tables 4.2.6.8 and 6.1.1.4'
H H 0.0000 0.0000 'International Tables Vol C Tables 4.2.6.8 and 6.1.1.4'
N N 0.0061 0.0033 'International Tables Vol C Tables 4.2.6.8 and 6.1.1.4'
O O 0.0106 0.0060 'International Tables Vol C Tables 4.2.6.8 and 6.1.1.4'
Cd Cd -0.8075 1.2024 'International Tables Vol C Tables 4.2.6.8 and 6.1.1.4'

_symmetry_cell_setting           triclinic
_symmetry_space_group_name_H-M   P-1

loop_
_symmetry_equiv_pos_as_xyz
'x, y, z'
'-x, -y, -z'

_cell_length_a                   22.115(14)
_cell_length_b                   22.212(14)
_cell_length_c                   22.50(2)
_cell_angle_alpha                107.732(11)
_cell_angle_beta                 107.417(11)
_cell_angle_gamma                101.832(8)
_cell_volume                     9497(13)
_cell_formula_units_Z            4
_cell_measurement_temperature    296(2)
_cell_measurement_reflns_used    920
_cell_measurement_theta_min      2.543
_cell_measurement_theta_max      24.822

_exptl_crystal_description       block
_exptl_crystal_colour            yellow
_exptl_crystal_size_max          0.15
_exptl_crystal_size_mid          0.12
_exptl_crystal_size_min          0.08
_exptl_crystal_density_meas      ?
_exptl_crystal_density_diffrn    1.175
_exptl_crystal_density_method    'not measured'
_exptl_crystal_F_000             3384
_exptl_absorpt_coefficient_mu    0.728
_exptl_absorpt_correction_type   ?
_exptl_absorpt_correction_T_min  0.8987
_exptl_absorpt_correction_T_max  0.9441
_exptl_absorpt_process_details   'SADABS (Bruker, 1999)'

_exptl_special_details           
; 
 ? 
;

_diffrn_ambient_temperature      296(2)
_diffrn_radiation_wavelength     0.71073
_diffrn_radiation_type           MoK\a
_diffrn_radiation_source         'fine-focus sealed tube'
_diffrn_radiation_monochromator  graphite
_diffrn_measurement_device_type  'CCD area detector'
_diffrn_measurement_method       'phi and omega scans'
_diffrn_detector_area_resol_mean ?
_diffrn_standards_number         ?
_diffrn_standards_interval_count ?
_diffrn_standards_interval_time  ?
_diffrn_standards_decay_%        ?
_diffrn_reflns_number            49708
_diffrn_reflns_av_R_equivalents  0.0390
_diffrn_reflns_av_unetI/netI     0.1107
_diffrn_reflns_limit_h_min       -26
_diffrn_reflns_limit_h_max       26
_diffrn_reflns_limit_k_min       -24
_diffrn_reflns_limit_k_max       26
_diffrn_reflns_limit_l_min       -20
_diffrn_reflns_limit_l_max       26
_diffrn_reflns_theta_min         1.89
_diffrn_reflns_theta_max         25.01
_reflns_number_total             32998
_reflns_number_gt                15104
_reflns_threshold_expression     >2sigma(I)

_computing_data_collection       'Bruker SMART'
_computing_cell_refinement       'Bruker SMART'
_computing_data_reduction        'Bruker SMART'
_computing_structure_solution    'SHELXS-97 (Sheldrick, 1990)'
_computing_structure_refinement  'SHELXL-97 (Sheldrick, 1997)'
_computing_molecular_graphics    'Bruker SMART'
_computing_publication_material  'Bruker SMART'

_refine_special_details          
; 
 Refinement of F^2^ against ALL reflections.  The weighted R-factor wR and 
 goodness of fit S are based on F^2^, conventional R-factors R are based 
 on F, with F set to zero for negative F^2^. The threshold expression of 
 F^2^ > 2sigma(F^2^) is used only for calculating R-factors(gt) etc. and is 
 not relevant to the choice of reflections for refinement.  R-factors based 
 on F^2^ are statistically about twice as large as those based on F, and R- 
 factors based on ALL data will be even larger. 
;

_refine_ls_structure_factor_coef Fsqd
_refine_ls_matrix_type           full
_refine_ls_weighting_scheme      calc
_refine_ls_weighting_details     
'calc w=1/[\s^2^(Fo^2^)+(0.0443P)^2^+0.0000P] where P=(Fo^2^+2Fc^2^)/3'
_atom_sites_solution_primary     direct
_atom_sites_solution_secondary   difmap
_atom_sites_solution_hydrogens   geom
_refine_ls_hydrogen_treatment    mixed
_refine_ls_extinction_method     none
_refine_ls_extinction_coef       ?
_refine_ls_number_reflns         32998
_refine_ls_number_parameters     1411
_refine_ls_number_restraints     3379
_refine_ls_R_factor_all          0.0947
_refine_ls_R_factor_gt           0.0474
_refine_ls_wR_factor_ref         0.1160
_refine_ls_wR_factor_gt          0.1047
_refine_ls_goodness_of_fit_ref   0.799
_refine_ls_restrained_S_all      0.786
_refine_ls_shift/su_max          0.001
_refine_ls_shift/su_mean         0.000

loop_
_platon_squeeze_void_nr
_platon_squeeze_void_average_x
_platon_squeeze_void_average_y
_platon_squeeze_void_average_z
_platon_squeeze_void_volume
_platon_squeeze_void_count_electrons
_platon_squeeze_void_content
1 -0.015 -0.015 -0.010 5508 1521 ' '
_platon_squeeze_details          
;
;


loop_
_atom_site_label
_atom_site_type_symbol
_atom_site_fract_x
_atom_site_fract_y
_atom_site_fract_z
_atom_site_U_iso_or_equiv
_atom_site_adp_type
_atom_site_occupancy
_atom_site_symmetry_multiplicity
_atom_site_calc_flag
_atom_site_refinement_flags
_atom_site_disorder_assembly
_atom_site_disorder_group
Cd1 Cd 0.04029(2) 0.83146(2) 0.36670(2) 0.04816(12) Uani 1 1 d . . .
N1 N 0.3940(2) 0.9456(2) 0.6294(2) 0.0630(15) Uani 1 1 d . . .
H1A H 0.3896 0.9119 0.6409 0.076 Uiso 1 1 calc R . .
N2 N 0.1371(2) 0.7468(2) 0.5279(2) 0.0682(16) Uani 1 1 d . . .
H2A H 0.1408 0.7809 0.5171 0.082 Uiso 1 1 calc R . .
N3 N -0.3727(3) 0.7111(3) 0.5128(3) 0.106(2) Uani 1 1 d . . .
H3A H -0.3913 0.6699 0.5049 0.127 Uiso 1 1 calc R . .
N4 N -0.3387(2) 0.2191(2) 0.0174(3) 0.0825(18) Uani 1 1 d . . .
H4A H -0.3080 0.2247 0.0016 0.099 Uiso 1 1 calc R . .
N5 N 0.6348(2) 0.7093(3) 1.0192(3) 0.091(2) Uani 1 1 d . . .
H5A H 0.5941 0.6948 1.0155 0.110 Uiso 1 1 calc R . .
N6 N -0.0995(2) 0.9841(3) 0.1367(3) 0.090(2) Uani 1 1 d . . .
H6A H -0.0587 0.9999 0.1415 0.108 Uiso 1 1 calc R . .
N7 N 0.9021(2) 0.9817(2) 0.6308(2) 0.0693(16) Uani 1 1 d . . .
H7A H 0.9147 1.0220 0.6333 0.083 Uiso 1 1 calc R . .
N8 N 0.8711(2) 1.4730(2) 1.1279(2) 0.0729(16) Uani 1 1 d . . .
H8A H 0.8391 1.4682 1.1421 0.087 Uiso 1 1 calc R . .
C1 C 0.1710(3) 0.8894(3) 0.4496(3) 0.0551(13) Uani 1 1 d U . .
C2 C 0.2421(3) 0.9319(3) 0.4936(3) 0.0543(13) Uani 1 1 d U . .
C3 C 0.2680(3) 0.9914(3) 0.4889(3) 0.0633(14) Uani 1 1 d U . .
H3B H 0.2415 1.0037 0.4571 0.076 Uiso 1 1 calc R . .
C4 C 0.3317(3) 1.0325(3) 0.5303(3) 0.0652(14) Uani 1 1 d U . .
H4B H 0.3485 1.0728 0.5270 0.078 Uiso 1 1 calc R . .
C5 C 0.3708(3) 1.0140(3) 0.5766(3) 0.0582(13) Uani 1 1 d U . .
C6 C 0.3451(3) 0.9539(3) 0.5810(3) 0.0556(12) Uani 1 1 d U . .
C7 C 0.2806(3) 0.9131(3) 0.5400(3) 0.0583(12) Uani 1 1 d U . .
H7B H 0.2633 0.8731 0.5437 0.070 Uiso 1 1 calc R . .
C8 C 0.4393(3) 1.0438(3) 0.6254(3) 0.0584(13) Uani 1 1 d U . .
C9 C 0.4887(3) 1.1028(3) 0.6442(3) 0.0661(14) Uani 1 1 d U . .
H9A H 0.4812 1.1330 0.6242 0.079 Uiso 1 1 calc R . .
C10 C 0.5486(3) 1.1152(3) 0.6926(3) 0.0664(14) Uani 1 1 d U . .
H10A H 0.5820 1.1554 0.7063 0.080 Uiso 1 1 calc R . .
C11 C 0.5629(3) 1.0715(3) 0.7230(3) 0.0575(14) Uani 1 1 d U . .
C12 C 0.5126(3) 1.0121(3) 0.7038(3) 0.0566(13) Uani 1 1 d U . .
H12A H 0.5205 0.9812 0.7226 0.068 Uiso 1 1 calc R . .
C13 C 0.4515(3) 1.0004(3) 0.6568(3) 0.0566(12) Uani 1 1 d U . .
C14 C 0.6309(3) 1.0874(3) 0.7746(3) 0.0542(13) Uani 1 1 d U . .
C15 C -0.0966(3) 0.6029(4) 0.3794(4) 0.0745(16) Uani 1 1 d U . .
C16 C -0.0302(3) 0.6205(3) 0.4327(3) 0.0809(16) Uani 1 1 d U . .
C17 C 0.0189(3) 0.6791(3) 0.4512(3) 0.0722(15) Uani 1 1 d U . .
H17A H 0.0110 0.7091 0.4311 0.087 Uiso 1 1 calc R . .
C18 C 0.0803(3) 0.6923(3) 0.5004(3) 0.0759(14) Uani 1 1 d U . .
C19 C 0.0940(3) 0.6496(3) 0.5320(3) 0.0887(16) Uani 1 1 d U . .
C20 C 0.0424(3) 0.5911(3) 0.5154(4) 0.1075(18) Uani 1 1 d U . .
H20A H 0.0493 0.5625 0.5376 0.129 Uiso 1 1 calc R . .
C21 C -0.0202(3) 0.5771(3) 0.4640(4) 0.1079(19) Uani 1 1 d U . .
H21A H -0.0549 0.5381 0.4514 0.130 Uiso 1 1 calc R . .
C22 C 0.1605(3) 0.6790(3) 0.5798(3) 0.0881(16) Uani 1 1 d U . .
C23 C 0.1870(3) 0.7388(3) 0.5749(3) 0.0724(14) Uani 1 1 d U . .
C24 C 0.2526(3) 0.7789(3) 0.6144(3) 0.0734(14) Uani 1 1 d U . .
H24A H 0.2692 0.8191 0.6107 0.088 Uiso 1 1 calc R . .
C25 C 0.2931(3) 0.7600(3) 0.6589(3) 0.0745(15) Uani 1 1 d U . .
C26 C 0.2670(3) 0.7013(3) 0.6664(3) 0.0973(18) Uani 1 1 d U . .
H26A H 0.2938 0.6897 0.6987 0.117 Uiso 1 1 calc R . .
C27 C 0.2006(3) 0.6594(3) 0.6256(4) 0.1063(17) Uani 1 1 d U . .
H27A H 0.1839 0.6193 0.6292 0.128 Uiso 1 1 calc R . .
C28 C 0.3641(3) 0.8002(3) 0.7007(3) 0.0640(14) Uani 1 1 d U . .
C29 C -0.2395(3) 0.6939(3) 0.3687(3) 0.0627(14) Uani 1 1 d U . .
C30 C -0.2668(3) 0.7307(3) 0.4164(3) 0.0582(14) Uani 1 1 d U . .
C31 C -0.2470(3) 0.7987(3) 0.4421(3) 0.0604(14) Uani 1 1 d U . .
H31A H -0.2180 0.8215 0.4277 0.072 Uiso 1 1 calc R . .
C32 C -0.2678(3) 0.8349(3) 0.4884(3) 0.0633(14) Uani 1 1 d U . .
H32A H -0.2528 0.8814 0.5051 0.076 Uiso 1 1 calc R . .
C33 C -0.3106(3) 0.8025(3) 0.5097(3) 0.0588(13) Uani 1 1 d U . .
C34 C -0.3308(3) 0.7346(3) 0.4831(3) 0.0616(13) Uani 1 1 d U . .
C35 C -0.3104(3) 0.6973(3) 0.4374(3) 0.0699(15) Uani 1 1 d U . .
H35A H -0.3254 0.6508 0.4210 0.084 Uiso 1 1 calc R . .
C36 C -0.3790(3) 0.7668(3) 0.5576(3) 0.0649(13) Uani 1 1 d U . .
C37 C -0.4131(3) 0.7694(3) 0.6000(3) 0.0677(14) Uani 1 1 d U . .
H37A H -0.4374 0.7304 0.6007 0.081 Uiso 1 1 calc R . .
C38 C -0.4106(3) 0.8308(3) 0.6412(3) 0.0591(14) Uani 1 1 d U . .
C39 C -0.3736(3) 0.8885(3) 0.6395(3) 0.0559(13) Uani 1 1 d U . .
H39A H -0.3718 0.9301 0.6674 0.067 Uiso 1 1 calc R . .
C40 C -0.3402(3) 0.8850(3) 0.5974(3) 0.0591(13) Uani 1 1 d U . .
H40A H -0.3158 0.9242 0.5970 0.071 Uiso 1 1 calc R . .
C41 C -0.3417(3) 0.8252(3) 0.5561(3) 0.0533(12) Uani 1 1 d U . .
C42 C -0.4461(3) 0.8350(3) 0.6886(3) 0.0587(15) Uani 1 1 d U . .
C43 C -0.2768(3) 0.4410(3) 0.2004(3) 0.0560(14) Uani 1 1 d U . .
C44 C -0.3178(3) 0.3705(3) 0.1587(3) 0.0531(13) Uani 1 1 d U . .
C45 C -0.3033(3) 0.3327(3) 0.1076(3) 0.0637(14) Uani 1 1 d U . .
H45A H -0.2668 0.3509 0.0988 0.076 Uiso 1 1 calc R . .
C46 C -0.3443(3) 0.2668(3) 0.0691(3) 0.0600(13) Uani 1 1 d U . .
C47 C -0.4010(3) 0.2400(3) 0.0802(3) 0.0503(12) Uani 1 1 d U . .
C48 C -0.4148(3) 0.2784(3) 0.1314(3) 0.0578(13) Uani 1 1 d U . .
H48A H -0.4519 0.2608 0.1397 0.069 Uiso 1 1 calc R . .
C49 C -0.3739(3) 0.3426(3) 0.1702(3) 0.0575(14) Uani 1 1 d U . .
H49A H -0.3834 0.3685 0.2051 0.069 Uiso 1 1 calc R . .
C50 C -0.4312(3) 0.1719(3) 0.0314(3) 0.0552(13) Uani 1 1 d U . .
C51 C -0.3906(3) 0.1606(3) -0.0052(3) 0.0589(13) Uani 1 1 d U . .
C52 C -0.4054(3) 0.0986(3) -0.0553(3) 0.0596(14) Uani 1 1 d U . .
H52A H -0.3779 0.0913 -0.0792 0.072 Uiso 1 1 calc R . .
C53 C -0.4607(3) 0.0490(3) -0.0686(3) 0.0524(13) Uani 1 1 d U . .
C54 C -0.5005(3) 0.0606(3) -0.0320(3) 0.0636(14) Uani 1 1 d U . .
H54A H -0.5385 0.0257 -0.0425 0.076 Uiso 1 1 calc R . .
C55 C -0.4871(3) 0.1196(3) 0.0179(3) 0.0592(13) Uani 1 1 d U . .
H55A H -0.5142 0.1252 0.0425 0.071 Uiso 1 1 calc R . .
C56 C -0.4757(3) -0.0168(3) -0.1205(3) 0.0537(14) Uani 1 1 d U . .
C57 C 0.6185(3) 0.8392(3) 0.8732(3) 0.0531(13) Uani 1 1 d U . .
C59 C 0.7231(3) 0.8252(3) 0.9383(3) 0.0720(15) Uani 1 1 d U . .
H59A H 0.7456 0.8521 0.9219 0.086 Uiso 1 1 calc R . .
C58 C 0.6542(3) 0.8108(3) 0.9192(3) 0.0601(14) Uani 1 1 d U . .
C60 C 0.6212(3) 0.7712(3) 0.9435(3) 0.0623(13) Uani 1 1 d U . .
H60A H 0.5750 0.7605 0.9305 0.075 Uiso 1 1 calc R . .
C61 C 0.6566(3) 0.7472(3) 0.9874(3) 0.0613(13) Uani 1 1 d U . .
C62 C 0.7254(3) 0.7620(3) 1.0067(3) 0.0603(13) Uani 1 1 d U . .
C63 C 0.7581(3) 0.8008(3) 0.9809(3) 0.0711(14) Uani 1 1 d U . .
H63A H 0.8040 0.8102 0.9925 0.085 Uiso 1 1 calc R . .
C64 C 0.6885(3) 0.6984(3) 1.0579(3) 0.0640(13) Uani 1 1 d U . .
C65 C 0.7465(3) 0.7309(3) 1.0537(3) 0.0635(13) Uani 1 1 d U . .
C66 C 0.8080(3) 0.7291(3) 1.0905(3) 0.0681(14) Uani 1 1 d U . .
H66A H 0.8470 0.7504 1.0873 0.082 Uiso 1 1 calc R . .
C67 C 0.8094(3) 0.6952(3) 1.1317(3) 0.0658(14) Uani 1 1 d U . .
H67A H 0.8503 0.6927 1.1564 0.079 Uiso 1 1 calc R . .
C68 C 0.7531(3) 0.6646(3) 1.1380(3) 0.0620(14) Uani 1 1 d U . .
C69 C 0.6916(3) 0.6658(3) 1.1015(3) 0.0703(14) Uani 1 1 d U . .
H69A H 0.6531 0.6452 1.1061 0.084 Uiso 1 1 calc R . .
C70 C 0.7568(3) 0.6298(3) 1.1863(3) 0.0607(15) Uani 1 1 d U . .
C71 C -0.2215(3) 1.0601(3) -0.0328(3) 0.0561(14) Uani 1 1 d U . .
C72 C -0.2189(3) 1.0263(3) 0.0149(3) 0.0621(14) Uani 1 1 d U . .
C73 C -0.1564(3) 1.0268(3) 0.0533(3) 0.0667(14) Uani 1 1 d U . .
H73A H -0.1176 1.0490 0.0504 0.080 Uiso 1 1 calc R . .
C74 C -0.1539(3) 0.9933(3) 0.0960(3) 0.0651(14) Uani 1 1 d U . .
C75 C -0.2125(3) 0.9605(3) 0.1016(3) 0.0637(13) Uani 1 1 d U . .
C76 C -0.2731(3) 0.9627(3) 0.0627(3) 0.0675(14) Uani 1 1 d U . .
H76A H -0.3123 0.9423 0.0663 0.081 Uiso 1 1 calc R . .
C77 C -0.2759(3) 0.9941(3) 0.0196(3) 0.0647(14) Uani 1 1 d U . .
H77A H -0.3172 0.9939 -0.0072 0.078 Uiso 1 1 calc R . .
C78 C -0.1902(3) 0.9298(3) 0.1486(3) 0.0615(13) Uani 1 1 d U . .
C79 C -0.1215(3) 0.9447(3) 0.1690(3) 0.0677(14) Uani 1 1 d U . .
C80 C -0.0838(3) 0.9222(3) 0.2119(3) 0.0674(14) Uani 1 1 d U . .
H80A H -0.0376 0.9330 0.2245 0.081 Uiso 1 1 calc R . .
C81 C -0.1187(3) 0.8823(3) 0.2354(3) 0.0626(14) Uani 1 1 d U . .
C82 C -0.1863(3) 0.8661(3) 0.2140(3) 0.0709(15) Uani 1 1 d U . .
H82A H -0.2088 0.8377 0.2291 0.085 Uiso 1 1 calc R . .
C83 C -0.2224(3) 0.8893(3) 0.1719(3) 0.0705(14) Uani 1 1 d U . .
H83A H -0.2686 0.8778 0.1590 0.085 Uiso 1 1 calc R . .
C84 C -0.0821(4) 0.8523(3) 0.2795(3) 0.0675(16) Uani 1 1 d U . .
C85 C 0.7780(3) 0.9957(3) 0.7831(3) 0.0534(13) Uani 1 1 d U . .
C86 C 0.8080(3) 0.9620(3) 0.7388(3) 0.0537(13) Uani 1 1 d U . .
C87 C 0.8426(3) 0.9956(3) 0.7111(3) 0.0563(13) Uani 1 1 d U . .
H87A H 0.8493 1.0410 0.7219 0.068 Uiso 1 1 calc R . .
C88 C 0.8674(3) 0.9615(3) 0.6668(3) 0.0554(13) Uani 1 1 d U . .
C89 C 0.8583(3) 0.8941(3) 0.6516(3) 0.0534(12) Uani 1 1 d U . .
C90 C 0.8223(3) 0.8609(3) 0.6804(3) 0.0657(14) Uani 1 1 d U . .
H90A H 0.8150 0.8155 0.6701 0.079 Uiso 1 1 calc R . .
C92 C 0.8886(3) 0.8728(3) 0.6030(3) 0.0558(13) Uani 1 1 d U . .
C97 C 0.9137(3) 0.9289(3) 0.5903(3) 0.0508(12) Uani 1 1 d U . .
C96 C 0.9445(3) 0.9258(3) 0.5456(3) 0.0573(13) Uani 1 1 d U . .
H96A H 0.9620 0.9640 0.5391 0.069 Uiso 1 1 calc R . .
C95 C 0.9494(3) 0.8654(3) 0.5105(3) 0.0494(12) Uani 1 1 d U . .
C94 C 0.9225(3) 0.8092(3) 0.5207(3) 0.0605(14) Uani 1 1 d U . .
H94A H 0.9251 0.7684 0.4962 0.073 Uiso 1 1 calc R . .
C93 C 0.8928(3) 0.8118(3) 0.5652(3) 0.0630(13) Uani 1 1 d U . .
H93A H 0.8750 0.7732 0.5708 0.076 Uiso 1 1 calc R . .
C98 C 0.9814(3) 0.8613(3) 0.4623(3) 0.0515(13) Uani 1 1 d U . .
C99 C 0.8146(3) 1.2495(3) 0.9500(3) 0.0702(16) Uani 1 1 d U . .
C100 C 0.85537(19) 1.32056(14) 0.9903(2) 0.0717(16) Uani 1 1 d GU . .
C101 C 0.9131(2) 1.34704(18) 0.9814(2) 0.0904(17) Uani 1 1 d GU . .
H10B H 0.9248 1.3207 0.9487 0.109 Uiso 1 1 calc R . .
C102 C 0.95352(17) 1.41294(19) 1.0216(2) 0.0936(17) Uani 1 1 d GU . .
H10C H 0.9922 1.4307 1.0157 0.112 Uiso 1 1 calc R . .
C103 C 0.93615(19) 1.45238(14) 1.0705(2) 0.0812(15) Uani 1 1 d GU . .
C104 C 0.8784(2) 1.42590(17) 1.07935(19) 0.0676(14) Uani 1 1 d GU . .
C105 C 0.83799(16) 1.35999(18) 1.0392(2) 0.0711(15) Uani 1 1 d GU . .
H10D H 0.7993 1.3423 1.0451 0.085 Uiso 1 1 calc R . .
C106 C 0.9644(3) 1.5194(3) 1.1160(3) 0.0771(15) Uani 1 1 d U . .
C111 C 0.9245(3) 1.5310(3) 1.1513(3) 0.0705(14) Uani 1 1 d U . .
C110 C 0.9381(3) 1.5908(3) 1.2008(3) 0.0704(15) Uani 1 1 d U . .
H11A H 0.9105 1.5977 1.2245 0.084 Uiso 1 1 calc R . .
C109 C 0.9952(3) 1.6414(3) 1.2145(3) 0.0682(15) Uani 1 1 d U . .
C108 C 1.0367(3) 1.6309(3) 1.1809(3) 0.0887(17) Uani 1 1 d U . .
H10E H 1.0743 1.6660 1.1908 0.106 Uiso 1 1 calc R . .
C107 C 1.0237(3) 1.5700(3) 1.1332(3) 0.0927(17) Uani 1 1 d U . .
H10F H 1.0534 1.5620 1.1125 0.111 Uiso 1 1 calc R . .
C112 C 1.0130(3) 1.7085(3) 1.2682(3) 0.0659(15) Uani 1 1 d U . .
C91 C 0.7981(3) 0.8956(3) 0.7237(3) 0.0627(14) Uani 1 1 d U . .
H91A H 0.7745 0.8737 0.7433 0.075 Uiso 1 1 calc R . .
O1 O 0.14335(17) 0.84095(18) 0.45892(18) 0.0610(11) Uani 1 1 d . . .
O2 O 0.14007(17) 0.90626(17) 0.40421(18) 0.0578(11) Uani 1 1 d . . .
O3 O 0.6428(2) 1.0482(2) 0.7987(2) 0.1019(18) Uani 1 1 d . . .
O4 O 0.67547(19) 1.1415(2) 0.7927(2) 0.0885(15) Uani 1 1 d . . .
O5 O 0.38938(18) 0.85097(19) 0.69215(18) 0.0704(13) Uani 1 1 d . . .
O6 O 0.39635(18) 0.78138(19) 0.74261(19) 0.0679(12) Uani 1 1 d . . .
O7 O -0.1388(2) 0.5500(3) 0.3601(3) 0.142(2) Uani 1 1 d . . .
O8 O -0.1076(2) 0.6426(2) 0.3555(2) 0.0915(16) Uani 1 1 d . . .
O9 O -0.2573(2) 0.6316(2) 0.3487(2) 0.0710(12) Uani 1 1 d . . .
O10 O -0.2024(2) 0.7