####################################################################### 
# 
# This file contains crystal structure data downloaded from the 
# Cambridge Structural Database (CSD) hosted by the Cambridge 
# Crystallographic Data Centre (CCDC).
# 
# Full information about CCDC data access policies and citation 
# guidelines are available at http://www.ccdc.cam.ac.uk/access/V1 
# 
# Audit and citation data items may have been added by the CCDC. 
# Please retain this information to preserve the provenance of 
# this file and to allow appropriate attribution of the data. 
# 
#######################################################################

data_3_bcphfp_BPE_Co5
_audit_block_doi                 10.5517/cc10mz7v
_database_code_depnum_ccdc_archive 'CCDC 942717'
loop_
_citation_id
_citation_doi
_citation_year
1 10.1039/C3CE42110D 2014
_audit_update_record             
;
2013-11-22 deposited with the CCDC.	2024-07-13 downloaded from the CCDC.
;


_reflns_special_details          
;
SQUEEZE has been used to remove all the disordered and
undefined solvent (DMA) molecules in the pore channels.
The squeezed contents are defined as four DMA molecules 
per formula unit.
;

# start Validation Reply Form
_vrf_CHEMW03_3_bcphfp_BPE_Co5    
;
PROBLEM: ALERT: The ratio of given/expected molecular weight as
RESPONSE: the solvent DMF molecule is missing from the structural 
data by using SQUEEZE but are included in the CIF file which makes
the difference
;
_vrf_PLAT043_3_bcphfp_BPE_Co5    
;
PROBLEM: Calculated and Reported Mol. Weight Differ by ..     350.50 Check 
RESPONSE: the same reason as for the problem above
;
_vrf_PLAT602_3_bcphfp_BPE_Co5    
;
PROBLEM: VERY LARGE Solvent Accessible VOID(S) in Structure        ! Info 
RESPONSE: the same reason as for the problem above
;
# end Validation Reply Form

_audit_creation_date             2013-11-22
_audit_creation_method           
;
Olex2 1.2
(compiled 2013.11.15 svn.r2834 for OlexSys, GUI svn.r4715)
;
_shelxl_version_number           2013-4
_chemical_name_common            ?
_chemical_name_systematic        
;
 ?
;
_chemical_formula_moiety         'C92 H56 Co5 F24 N4 O18, 4 (C4 H9 N O)'
_chemical_formula_sum            'C108 H94 Co5 F24 N8 O22'
_chemical_formula_weight         2606.56
_chemical_melting_point          ?
loop_
_atom_type_symbol
_atom_type_description
_atom_type_scat_dispersion_real
_atom_type_scat_dispersion_imag
_atom_type_scat_source
C C 0.0033 0.0016 'International Tables Vol C Tables 4.2.6.8 and 6.1.1.4'
H H 0.0000 0.0000 'International Tables Vol C Tables 4.2.6.8 and 6.1.1.4'
N N 0.0061 0.0033 'International Tables Vol C Tables 4.2.6.8 and 6.1.1.4'
O O 0.0106 0.0060 'International Tables Vol C Tables 4.2.6.8 and 6.1.1.4'
F F 0.0171 0.0103 'International Tables Vol C Tables 4.2.6.8 and 6.1.1.4'
Co Co 0.3494 0.9721 'International Tables Vol C Tables 4.2.6.8 and 6.1.1.4'

_shelx_space_group_comment       
;
The symmetry employed for this shelxl refinement is uniquely defined
by the following loop, which should always be used as a source of
symmetry information in preference to the above space-group names.
They are only intended as comments.
;
_space_group_crystal_system      triclinic
_space_group_IT_number           2
_space_group_name_H-M_alt        'P -1'
_space_group_name_Hall           '-P 1'
loop_
_space_group_symop_operation_xyz
'x, y, z'
'-x, -y, -z'

_cell_length_a                   15.792(5)
_cell_length_b                   15.821(5)
_cell_length_c                   18.031(6)
_cell_angle_alpha                100.763(4)
_cell_angle_beta                 100.701(2)
_cell_angle_gamma                100.779(3)
_cell_volume                     4233(2)
_cell_formula_units_Z            1
_cell_measurement_reflns_used    ?
_cell_measurement_temperature    293(2)
_cell_measurement_theta_max      ?
_cell_measurement_theta_min      ?
_shelx_estimated_absorpt_T_max   ?
_shelx_estimated_absorpt_T_min   ?
_exptl_absorpt_coefficient_mu    0.554
_exptl_absorpt_correction_T_max  ?
_exptl_absorpt_correction_T_min  ?
_exptl_absorpt_correction_type   ?
_exptl_absorpt_process_details   ?
_exptl_crystal_colour            ?
_exptl_crystal_density_diffrn    1.023
_exptl_crystal_density_meas      ?
_exptl_crystal_density_method    ?
_exptl_crystal_description       ?
_exptl_crystal_F_000             1325
_exptl_crystal_size_max          ?
_exptl_crystal_size_mid          ?
_exptl_crystal_size_min          ?
_exptl_special_details           
;
 ?
;
_exptl_transmission_factor_max   ?
_exptl_transmission_factor_min   ?
_diffrn_reflns_av_R_equivalents  0.0455
_diffrn_reflns_av_unetI/netI     0.0890
_diffrn_reflns_Laue_measured_fraction_full 0.965
_diffrn_reflns_Laue_measured_fraction_max 0.942
_diffrn_reflns_limit_h_max       20
_diffrn_reflns_limit_h_min       -20
_diffrn_reflns_limit_k_max       20
_diffrn_reflns_limit_k_min       -20
_diffrn_reflns_limit_l_max       23
_diffrn_reflns_limit_l_min       -23
_diffrn_reflns_number            33743
_diffrn_reflns_point_group_measured_fraction_full 0.965
_diffrn_reflns_point_group_measured_fraction_max 0.942
_diffrn_reflns_theta_full        25.242
_diffrn_reflns_theta_max         27.515
_diffrn_reflns_theta_min         2.047
_diffrn_ambient_temperature      293(2)
_diffrn_detector_area_resol_mean ?
_diffrn_measured_fraction_theta_full 0.965
_diffrn_measured_fraction_theta_max 0.942
_diffrn_measurement_device_type  ?
_diffrn_measurement_method       ?
_diffrn_radiation_type           MoK\a
_diffrn_radiation_wavelength     0.71073
_diffrn_source                   ?
_reflns_Friedel_coverage         0.000
_reflns_Friedel_fraction_full    .
_reflns_Friedel_fraction_max     .
_reflns_number_gt                9439
_reflns_number_total             18371
_reflns_threshold_expression     'I > 2\s(I)'
_computing_cell_refinement       ?
_computing_data_collection       ?
_computing_data_reduction        ?
_computing_molecular_graphics    'Olex2 (Dolomanov et al., 2009)'
_computing_publication_material  'Olex2 (Dolomanov et al., 2009)'
_computing_structure_refinement  'ShelXL (Sheldrick, 2008)'
_computing_structure_solution    
;
Superflip (Palatinus & Chapuis, 2007;Palatinus & van der Lee, 2008;
Palatinus et al., 2012)
;
_refine_diff_density_max         0.578
_refine_diff_density_min         -0.662
_refine_diff_density_rms         0.087
_refine_ls_extinction_coef       .
_refine_ls_extinction_method     none
_refine_ls_goodness_of_fit_ref   0.930
_refine_ls_hydrogen_treatment    constr
_refine_ls_matrix_type           full
_refine_ls_number_parameters     646
_refine_ls_number_reflns         18371
_refine_ls_number_restraints     56
_refine_ls_R_factor_all          0.0902
_refine_ls_R_factor_gt           0.0702
_refine_ls_restrained_S_all      0.931
_refine_ls_shift/su_max          0.001
_refine_ls_shift/su_mean         0.000
_refine_ls_structure_factor_coef Fsqd
_refine_ls_weighting_details     
'w=1/[\s^2^(Fo^2^)+(0.1114P)^2^] where P=(Fo^2^+2Fc^2^)/3'
_refine_ls_weighting_scheme      calc
_refine_ls_wR_factor_gt          0.1948
_refine_ls_wR_factor_ref         0.2067
_refine_special_details          
;
 ?
;
_olex2_refinement_description    
;
1. Fixed Uiso
 At 1.2 times of:
  All C(H) groups, All C(H,H) groups
2. Rigid bond restraints
 C6, C2, C3, C4, C5
 with sigma for 1-2 distances of 0.01 and sigma for 1-3 distances of 0.01
 C8, C12, C11, C10, C9
 with sigma for 1-2 distances of 0.01 and sigma for 1-3 distances of 0.01
 C13, C18, C17, C7, C15, C14
 with sigma for 1-2 distances of 0.01 and sigma for 1-3 distances of 0.01
 C22, C21, C26, C25, C24, C23
 with sigma for 1-2 distances of 0.01 and sigma for 1-3 distances of 0.01
 C31, C30, C35, C34, C33, C32
 with sigma for 1-2 distances of 0.01 and sigma for 1-3 distances of 0.01
 C38, C39, C40, C43, C42, C41
 with sigma for 1-2 distances of 0.01 and sigma for 1-3 distances of 0.01
3.a Secondary CH2 refined with riding coordinates:
 C1(H1A,H1B), C16(H16A,H16B)
3.b Aromatic/amide H refined with riding coordinates:
 C26(H26), C31(H31), C34(H34), C39(H39), C22(H22), C9(H9), C41(H41), C11(H11),
 C18(H18), C35(H35), C42(H42), C23(H23), C32(H32), C15(H15), C25(H25), C14(H14),
  C8(H8), C4(H4), C12(H12), C5(H5), C2(H2), C17(H17), C40(H40), C6(H6)
;
_atom_sites_solution_hydrogens   geom
_atom_sites_solution_primary     iterative
_atom_sites_solution_secondary   ?
loop_
_atom_site_label
_atom_site_type_symbol
_atom_site_fract_x
_atom_site_fract_y
_atom_site_fract_z
_atom_site_U_iso_or_equiv
_atom_site_adp_type
_atom_site_occupancy
_atom_site_site_symmetry_order
_atom_site_calc_flag
_atom_site_refinement_flags_posn
_atom_site_refinement_flags_adp
_atom_site_refinement_flags_occupancy
_atom_site_disorder_assembly
_atom_site_disorder_group
Co1 Co 0.31541(3) 0.32224(3) 0.45151(3) 0.04558(15) Uani 1 1 d . . . . .
Co3 Co 0.5000 -0.5000 0.5000 0.03573(16) Uani 1 2 d S T P . .
Co2 Co 0.36773(3) 0.37306(3) 0.30024(3) 0.04988(15) Uani 1 1 d . . . . .
O3 O 0.20383(16) 0.33636(19) 0.37141(15) 0.0642(7) Uani 1 1 d . . . . .
O4 O 0.2427(2) 0.3757(3) 0.26907(19) 0.0920(11) Uani 1 1 d . . . . .
F10 F 0.1801(2) 0.7922(3) 0.9030(2) 0.168(2) Uani 1 1 d . . . . .
F12 F 0.2286(2) 0.8021(3) 0.7987(3) 0.1338(14) Uani 1 1 d . . . . .
O7 O 0.41387(18) 0.29656(19) 0.52945(18) 0.0737(9) Uani 1 1 d . . . . .
O9 O 0.3944(2) 0.4177(2) 0.41033(15) 0.0937(12) Uani 1 1 d . . . . .
O5 O 0.29370(17) 0.42343(19) 0.53230(16) 0.0649(7) Uani 1 1 d . . . . .
O2 O 0.3904(3) 0.2544(2) 0.2756(2) 0.0913(11) Uani 1 1 d . . . . .
F11 F 0.3090(2) 0.7693(3) 0.8975(2) 0.167(2) Uani 1 1 d . . . . .
N2 N 0.22350(19) 0.2283(2) 0.48474(17) 0.0556(8) Uani 1 1 d . . . . .
C30 C 0.3023(2) 0.5381(3) 0.6378(2) 0.0555(9) Uani 1 1 d . U . . .
C21 C 0.3895(4) -0.2183(3) 0.2546(3) 0.0783(13) Uani 1 1 d . U . . .
O1 O 0.3296(2) 0.21329(18) 0.36847(18) 0.0747(9) Uani 1 1 d . . . . .
C26 C 0.3505(4) -0.3025(3) 0.2609(3) 0.0825(14) Uani 1 1 d . U . . .
H26 H 0.2983 -0.3344 0.2258 0.099 Uiso 1 1 calc R . . . .
C31 C 0.2158(3) 0.4970(3) 0.6447(3) 0.0715(12) Uani 1 1 d . U . . .
H31 H 0.1840 0.4436 0.6116 0.086 Uiso 1 1 calc R . . . .
C34 C 0.3120(3) 0.6573(3) 0.7472(3) 0.0805(13) Uani 1 1 d . U . . .
H34 H 0.3443 0.7103 0.7808 0.097 Uiso 1 1 calc R . . . .
C39 C 0.0606(3) 0.6689(4) 0.7177(3) 0.0847(15) Uani 1 1 d . U . . .
H39 H 0.1040 0.6828 0.6906 0.102 Uiso 1 1 calc R . . . .
C33 C 0.2277(3) 0.6183(3) 0.7547(3) 0.0703(12) Uani 1 1 d . U . . .
C43 C 0.0913(3) 0.3549(3) 0.2744(2) 0.0721(13) Uani 1 1 d . U . . .
C22 C 0.4719(4) -0.1727(3) 0.3082(3) 0.0848(14) Uani 1 1 d . U . . .
H22 H 0.5003 -0.1170 0.3046 0.102 Uiso 1 1 calc R . . . .
N14 N 0.4139(3) 0.4290(3) 0.2183(2) 0.0905(14) Uani 1 1 d . . . . .
C24 C 0.4703(3) -0.2935(2) 0.3719(2) 0.0573(9) Uani 1 1 d . U . . .
C9 C 0.1749(4) 0.0852(3) 0.5079(3) 0.0948(16) Uani 1 1 d . U . . .
H9 H 0.1872 0.0307 0.5116 0.114 Uiso 1 1 calc R . . . .
C41 C 0.0284(3) 0.3302(3) 0.3154(3) 0.0733(12) Uani 1 1 d . U . . .
H41 H 0.0435 0.3138 0.3621 0.088 Uiso 1 1 calc R . . . .
C11 C 0.0764(3) 0.1820(4) 0.5079(3) 0.0962(16) Uani 1 1 d . U . . .
H11 H 0.0213 0.1933 0.5108 0.115 Uiso 1 1 calc R . . . .
C7 C 0.3635(4) -0.0741(3) 0.2208(3) 0.0892(16) Uani 1 1 d . U . . .
C36 C 0.3396(2) 0.4924(2) 0.5744(2) 0.0514(9) Uani 1 1 d . . . . .
O8 O 0.41434(19) -0.47256(19) 0.5703(2) 0.0853(11) Uani 1 1 d . . . . .
O6 O 0.46714(18) -0.40330(19) 0.4440(2) 0.0869(11) Uani 1 1 d . . . . .
C3 C 0.4640(5) 0.4889(6) 0.0926(3) 0.154(4) Uani 1 1 d . U . . .
C18 C 0.3882(4) 0.0779(3) 0.2111(3) 0.106(2) Uani 1 1 d . U . . .
H18 H 0.4079 0.1207 0.1852 0.127 Uiso 1 1 calc R . . . .
C44 C 0.1870(3) 0.3541(3) 0.3079(2) 0.0612(10) Uani 1 1 d . . . . .
C35 C 0.3469(3) 0.6156(3) 0.6886(3) 0.0670(11) Uani 1 1 d . U . . .
H35 H 0.4029 0.6418 0.6841 0.080 Uiso 1 1 calc R . . . .
C42 C 0.0677(3) 0.3728(5) 0.2036(3) 0.112(2) Uani 1 1 d . U . . .
H42 H 0.1102 0.3858 0.1754 0.134 Uiso 1 1 calc R . . . .
C13 C 0.3623(3) 0.1035(3) 0.2799(2) 0.0703(12) Uani 1 1 d . U . . .
C23 C 0.5088(3) -0.2112(3) 0.3648(3) 0.0714(12) Uani 1 1 d . U . . .
H23 H 0.5616 -0.1803 0.3994 0.086 Uiso 1 1 calc R . . . .
C32 C 0.1813(3) 0.5400(4) 0.7027(3) 0.0823(14) Uani 1 1 d . U . . .
H32 H 0.1247 0.5150 0.7068 0.099 Uiso 1 1 calc R . . . .
C10 C 0.0971(4) 0.0986(4) 0.5176(3) 0.0990(18) Uani 1 1 d . U . . .
C15 C 0.3393(3) -0.0477(3) 0.2903(3) 0.0763(13) Uani 1 1 d . U . . .
H15 H 0.3236 -0.0898 0.3181 0.092 Uiso 1 1 calc R . . . .
C25 C 0.3889(3) -0.3391(3) 0.3194(3) 0.0754(12) Uani 1 1 d . U . . .
H25 H 0.3608 -0.3944 0.3241 0.090 Uiso 1 1 calc R . . . .
C14 C 0.3378(3) 0.0377(3) 0.3188(3) 0.0814(13) Uani 1 1 d . U . . .
H14 H 0.3202 0.0525 0.3650 0.098 Uiso 1 1 calc R . . . .
C8 C 0.2405(3) 0.1493(3) 0.4922(3) 0.0714(12) Uani 1 1 d . U . . .
H8 H 0.2948 0.1372 0.4870 0.086 Uiso 1 1 calc R . . . .
C4 C 0.5113(4) 0.5119(5) 0.1602(4) 0.116(2) Uani 1 1 d . U . . .
H4 H 0.5669 0.5494 0.1692 0.139 Uiso 1 1 calc R . . . .
C20 C 0.3531(5) -0.1756(4) 0.1884(3) 0.103(2) Uani 1 1 d . . . . .
C12 C 0.1451(3) 0.2462(3) 0.4937(2) 0.0688(12) Uani 1 1 d . U . . .
H12 H 0.1353 0.3017 0.4906 0.083 Uiso 1 1 calc R . . . .
C27 C 0.5105(2) -0.3342(2) 0.4339(2) 0.0521(9) Uani 1 1 d . . . . .
C1 C 0.0273(4) 0.0297(4) 0.5341(3) 0.127(2) Uani 1 1 d . . . . .
H1A H 0.0561 -0.0035 0.5669 0.153 Uiso 1 1 calc R . . . .
H1B H -0.0096 0.0593 0.5623 0.153 Uiso 1 1 calc R . . . .
C37 C 0.1848(3) 0.6580(5) 0.8193(3) 0.103(2) Uani 1 1 d . . . . .
C38 C 0.0839(3) 0.6485(4) 0.7867(3) 0.0804(14) Uani 1 1 d . U . . .
C46 C 0.2289(4) 0.7557(5) 0.8567(4) 0.112(2) Uani 1 1 d . . . . .
C5 C 0.4832(4) 0.4828(5) 0.2248(4) 0.126(3) Uani 1 1 d . U . . .
H5 H 0.5197 0.5061 0.2741 0.151 Uiso 1 1 calc R . . . .
C19 C 0.3593(3) 0.1977(3) 0.3112(2) 0.0640(11) Uani 1 1 d . . . . .
C2 C 0.3804(8) 0.4573(10) 0.0899(5) 0.323(10) Uani 1 1 d . U . . .
H2 H 0.3380 0.4574 0.0467 0.388 Uiso 1 1 calc R . . . .
C17 C 0.3854(5) -0.0102(4) 0.1801(3) 0.122(3) Uani 1 1 d . U . . .
H17 H 0.3982 -0.0264 0.1319 0.147 Uiso 1 1 calc R . . . .
C40 C 0.0201(4) 0.6286(5) 0.8264(3) 0.125(3) Uani 1 1 d . U . . .
H40 H 0.0359 0.6156 0.8746 0.150 Uiso 1 1 calc R . . . .
F8 F 0.2854(2) 0.6007(4) 0.9008(2) 0.191(2) Uani 1 1 d . . . . .
F2 F 0.4912(5) -0.1421(4) 0.1513(3) 0.173(3) Uani 1 1 d . . . . .
F7 F 0.1489(3) 0.5182(4) 0.8591(3) 0.146(2) Uani 1 1 d . . . . .
F4 F 0.2084(3) -0.2196(3) 0.2031(3) 0.1382(15) Uani 1 1 d . . . . .
F9 F 0.1823(3) 0.6424(4) 0.9489(2) 0.189(2) Uani 1 1 d . . . . .
F5 F 0.2408(4) -0.3032(2) 0.1108(2) 0.169(2) Uani 1 1 d . . . . .
F3 F 0.4138(5) -0.2759(3) 0.1087(2) 0.219(3) Uani 1 1 d . . . . .
F6 F 0.2226(3) -0.1698(3) 0.1025(2) 0.178(2) Uani 1 1 d . . . . .
C29 C 0.2559(6) -0.2156(5) 0.1528(4) 0.114(2) Uani 1 1 d . . . . .
C45 C 0.1943(5) 0.5931(9) 0.8779(4) 0.160(5) Uani 1 1 d . . . . .
F1 F 0.3767(5) -0.1706(3) 0.0611(2) 0.214(3) Uani 1 1 d . . . . .
C6 C 0.3514(7) 0.4212(7) 0.1539(4) 0.218(5) Uani 1 1 d . U . . .
H6 H 0.2925 0.3944 0.1496 0.261 Uiso 1 1 calc R . . . .
C28 C 0.4094(10) -0.1899(7) 0.1273(5) 0.181(6) Uani 1 1 d . . . . .
C16 C 0.4853(8) 0.5295(7) 0.0195(7) 0.215(5) Uani 1 1 d . . . . .
H16A H 0.4320 0.5390 -0.0112 0.258 Uiso 1 1 calc R . . . .
H16B H 0.5292 0.5850 0.0372 0.258 Uiso 1 1 calc R . . . .

loop_
_atom_site_aniso_label
_atom_site_aniso_U_11
_atom_site_aniso_U_22
_atom_site_aniso_U_33
_atom_site_aniso_U_23
_atom_site_aniso_U_13
_atom_site_aniso_U_12
Co1 0.0420(3) 0.0469(3) 0.0433(3) 0.0140(2) 0.01368(19) -0.0084(2)
Co3 0.0305(3) 0.0341(3) 0.0444(3) 0.0152(3) 0.0129(2) 0.0014(2)
Co2 0.0541(3) 0.0547(3) 0.0487(3) 0.0231(2) 0.0242(2) 0.0082(2)
O3 0.0464(15) 0.088(2) 0.0603(17) 0.0323(16) 0.0086(12) 0.0074(14)
O4 0.072(2) 0.162(3) 0.084(2) 0.069(2) 0.0451(17) 0.062(2)
F10 0.116(3) 0.234(5) 0.127(3) -0.065(3) 0.039(2) 0.065(3)
F12 0.102(3) 0.127(3) 0.156(4) -0.017(3) 0.027(3) 0.039(2)
O7 0.0529(17) 0.073(2) 0.090(2) 0.0484(17) -0.0007(15) -0.0092(14)
O9 0.098(2) 0.102(2) 0.0449(15) 0.0177(17) 0.0123(15) -0.0624(19)
O5 0.0499(15) 0.0741(19) 0.0617(17) -0.0013(15) 0.0279(13) -0.0061(14)
O2 0.151(3) 0.079(2) 0.085(2) 0.0443(18) 0.064(2) 0.064(2)
F11 0.086(2) 0.254(5) 0.107(3) -0.067(3) -0.009(2) 0.047(3)
N2 0.0462(18) 0.063(2) 0.0461(17) 0.0164(15) 0.0109(13) -0.0205(15)
C30 0.043(2) 0.066(2) 0.065(2) 0.017(2) 0.0264(17) 0.0160(18)
C21 0.111(4) 0.076(3) 0.062(3) 0.033(2) 0.016(2) 0.041(3)
O1 0.094(2) 0.0497(16) 0.084(2) 0.0096(15) 0.0481(18) 0.0