####################################################################### 
# 
# This file contains crystal structure data downloaded from the 
# Cambridge Structural Database (CSD) hosted by the Cambridge 
# Crystallographic Data Centre (CCDC).
# 
# Full information about CCDC data access policies and citation 
# guidelines are available at http://www.ccdc.cam.ac.uk/access/V1 
# 
# Audit and citation data items may have been added by the CCDC. 
# Please retain this information to preserve the provenance of 
# this file and to allow appropriate attribution of the data. 
# 
#######################################################################

data_ic15465-1
_audit_block_doi                 10.5517/cc12x8r0
_database_code_depnum_ccdc_archive 'CCDC 1010282'
loop_
_citation_id
_citation_doi
_citation_year
1 10.1039/C4DT02169J 2015
_audit_update_record             
;
2014-10-23 deposited with the CCDC.	2024-07-13 downloaded from the CCDC.
;

_audit_creation_method           SHELXL-97
_chemical_name_systematic        
; 
 ? 
;
_chemical_name_common            'compound 2'
_chemical_melting_point          ?
_chemical_formula_moiety         
'Zn O4 N6 C26 H16, C6 H6, 0.5C 2H 0.5O, 15H 7.5O'
_chemical_formula_sum            'C32.50 H36 N6 O12 Zn'
_chemical_formula_weight         768.04

loop_
_atom_type_symbol
_atom_type_description
_atom_type_scat_dispersion_real
_atom_type_scat_dispersion_imag
_atom_type_scat_source
C C 0.0033 0.0016 'International Tables Vol C Tables 4.2.6.8 and 6.1.1.4'
H H 0.0000 0.0000 'International Tables Vol C Tables 4.2.6.8 and 6.1.1.4'
N N 0.0061 0.0033 'International Tables Vol C Tables 4.2.6.8 and 6.1.1.4'
O O 0.0106 0.0060 'International Tables Vol C Tables 4.2.6.8 and 6.1.1.4'
Zn Zn 0.2839 1.4301 'International Tables Vol C Tables 4.2.6.8 and 6.1.1.4'

_symmetry_cell_setting           Triclinic
_symmetry_space_group_name_H-M   P-1

loop_
_symmetry_equiv_pos_as_xyz
'x, y, z'
'-x, -y, -z'

_cell_length_a                   12.5650(8)
_cell_length_b                   13.2721(9)
_cell_length_c                   13.2881(9)
_cell_angle_alpha                111.9938(14)
_cell_angle_beta                 107.5534(14)
_cell_angle_gamma                97.9667(15)
_cell_volume                     1878.1(2)
_cell_formula_units_Z            2
_cell_measurement_temperature    150(2)
_cell_measurement_reflns_used    3008
_cell_measurement_theta_min      2.43
_cell_measurement_theta_max      22.16

_exptl_crystal_description       plate
_exptl_crystal_colour            light-brown
_exptl_crystal_size_max          0.35
_exptl_crystal_size_mid          0.35
_exptl_crystal_size_min          0.14
_exptl_crystal_density_meas      not_measured
_exptl_crystal_density_diffrn    1.358
_exptl_crystal_density_method    'not measured'
_exptl_crystal_F_000             798
_exptl_absorpt_coefficient_mu    0.720
_exptl_absorpt_correction_type   multi-scan
_exptl_absorpt_correction_T_min  0.7866
_exptl_absorpt_correction_T_max  0.9059
_exptl_absorpt_process_details   'SADABS (Bruker, 2001)'

_exptl_special_details           
; 
 ? 
;

_diffrn_ambient_temperature      150(2)
_diffrn_radiation_wavelength     0.71073
_diffrn_radiation_type           MoK\a
_diffrn_radiation_source         'fine-focus sealed tube'
_diffrn_radiation_monochromator  graphite
_diffrn_measurement_device_type  'BRUKER SMART APEXCCD area detector'
_diffrn_measurement_method       'omega scans'
_diffrn_detector_area_resol_mean ?
_diffrn_reflns_number            22071
_diffrn_reflns_av_R_equivalents  0.0499
_diffrn_reflns_av_unetI/netI     0.0693
_diffrn_reflns_limit_h_min       -16
_diffrn_reflns_limit_h_max       16
_diffrn_reflns_limit_k_min       -17
_diffrn_reflns_limit_k_max       17
_diffrn_reflns_limit_l_min       -17
_diffrn_reflns_limit_l_max       17
_diffrn_reflns_theta_min         1.77
_diffrn_reflns_theta_max         27.50
_reflns_number_total             8591
_reflns_number_gt                6474
_reflns_threshold_expression     >2sigma(I)

_computing_data_collection       'Bruker SMART'
_computing_cell_refinement       'Bruker SAINT'
_computing_data_reduction        'Bruker SAINT'
_computing_structure_solution    'SHELXS-97 (Sheldrick, 2008)'
_computing_structure_refinement  'SHELXL-97 (Sheldrick, 2008)'
_computing_molecular_graphics    'Bruker SHELXTL'
_computing_publication_material  'Bruker SHELXTL'

_refine_special_details          
; 
 Refinement of F^2^ against ALL reflections.  The weighted R-factor wR and 
 goodness of fit S are based on F^2^, conventional R-factors R are based 
 on F, with F set to zero for negative F^2^. The threshold expression of 
 F^2^ > 2sigma(F^2^) is used only for calculating R-factors(gt) etc. and is 
 not relevant to the choice of reflections for refinement.  R-factors based 
 on F^2^ are statistically about twice as large as those based on F, and R- 
 factors based on ALL data will be even larger. 
;

_refine_ls_structure_factor_coef Fsqd
_refine_ls_matrix_type           full
_refine_ls_weighting_scheme      calc
_refine_ls_weighting_details     
'calc w=1/[\s^2^(Fo^2^)+(0.1168P)^2^+3.3746P] where P=(Fo^2^+2Fc^2^)/3'
_atom_sites_solution_primary     direct
_atom_sites_solution_secondary   difmap
_atom_sites_solution_hydrogens   geom
_refine_ls_hydrogen_treatment    mixed
_refine_ls_extinction_method     none
_refine_ls_extinction_coef       ?
_refine_ls_number_reflns         8591
_refine_ls_number_parameters     466
_refine_ls_number_restraints     60
_refine_ls_R_factor_all          0.1007
_refine_ls_R_factor_gt           0.0768
_refine_ls_wR_factor_ref         0.2267
_refine_ls_wR_factor_gt          0.2112
_refine_ls_goodness_of_fit_ref   1.059
_refine_ls_restrained_S_all      1.153
_refine_ls_shift/su_max          0.001
_refine_ls_shift/su_mean         0.000

loop_
_atom_site_label
_atom_site_type_symbol
_atom_site_fract_x
_atom_site_fract_y
_atom_site_fract_z
_atom_site_U_iso_or_equiv
_atom_site_adp_type
_atom_site_occupancy
_atom_site_symmetry_multiplicity
_atom_site_calc_flag
_atom_site_refinement_flags
_atom_site_disorder_assembly
_atom_site_disorder_group
Zn Zn 0.77785(5) 0.51842(4) 0.51027(5) 0.02649(19) Uani 1 1 d . . .
O1 O 0.8618(3) 1.4283(3) 0.5741(3) 0.0329(8) Uani 1 1 d . . .
O2 O 0.7000(3) 1.2886(3) 0.4993(3) 0.0377(8) Uani 1 1 d . . .
O3 O 0.7369(3) 0.4473(3) 0.3404(3) 0.0338(8) Uani 1 1 d . . .
O4 O 0.6837(3) 0.6039(3) 0.3654(3) 0.0343(8) Uani 1 1 d . . .
N1 N 0.9183(4) 0.6610(3) 0.5884(4) 0.0319(9) Uani 1 1 d . . .
N2 N 0.8789(4) 0.9810(3) 0.5928(4) 0.0361(10) Uani 1 1 d . . .
H2 H 0.8098 0.9331 0.5658 0.043 Uiso 1 1 calc R . .
N3 N 1.0716(4) 1.0505(3) 0.6692(4) 0.0340(10) Uani 1 1 d . . .
N4 N 0.6705(4) 0.5644(3) -0.4049(4) 0.0291(9) Uani 1 1 d . . .
N5 N 0.6214(4) 0.5974(3) -0.0486(4) 0.0290(9) Uani 1 1 d D . .
H5 H 0.6074 0.6638 -0.0276 0.035 Uiso 1 1 calc R . .
N6 N 0.6436(5) 0.4360(4) -0.1611(4) 0.0462(12) Uani 1 1 d . . .
C1 C 1.0271(5) 0.6555(4) 0.6361(5) 0.0370(12) Uani 1 1 d . . .
H1 H 1.0374 0.5849 0.6329 0.044 Uiso 1 1 calc R . .
C2 C 1.1231(5) 0.7464(5) 0.6886(5) 0.0419(13) Uani 1 1 d . . .
H2A H 1.1982 0.7392 0.7225 0.050 Uiso 1 1 calc R . .
C3 C 1.1101(5) 0.8497(4) 0.6922(5) 0.0408(13) Uani 1 1 d . . .
H3 H 1.1757 0.9144 0.7291 0.049 Uiso 1 1 calc R . .
C4 C 0.9977(5) 0.8563(4) 0.6401(5) 0.0319(11) Uani 1 1 d . . .
C5 C 0.9053(4) 0.7610(4) 0.5903(5) 0.0310(10) Uani 1 1 d . . .
H5A H 0.8291 0.7656 0.5559 0.037 Uiso 1 1 calc R . .
C6 C 0.9829(5) 0.9631(4) 0.6357(5) 0.0318(11) Uani 1 1 d . . .
C7 C 0.9012(4) 1.0883(4) 0.5995(5) 0.0296(10) Uani 1 1 d . . .
C8 C 0.8281(5) 1.1502(4) 0.5665(5) 0.0323(11) Uani 1 1 d . . .
H8 H 0.7458 1.1198 0.5320 0.039 Uiso 1 1 calc R . .
C9 C 0.8816(4) 1.2583(4) 0.5866(4) 0.0270(10) Uani 1 1 d . . .
C10 C 1.0035(5) 1.3019(4) 0.6360(5) 0.0349(11) Uani 1 1 d . . .
H10 H 1.0375 1.3766 0.6492 0.042 Uiso 1 1 calc R . .
C11 C 1.0747(5) 1.2393(4) 0.6655(5) 0.0407(13) Uani 1 1 d . . .
H11 H 1.1570 1.2686 0.6973 0.049 Uiso 1 1 calc R . .
C12 C 1.0216(4) 1.1309(4) 0.6473(4) 0.0294(10) Uani 1 1 d . . .
C13 C 0.8083(5) 1.3287(4) 0.5504(4) 0.0290(10) Uani 1 1 d . . .
C14 C 0.6066(5) 0.6347(4) -0.4198(5) 0.0351(11) Uani 1 1 d . . .
H14 H 0.6029 0.6564 -0.4809 0.042 Uiso 1 1 calc R . .
C15 C 0.5461(5) 0.6764(5) -0.3502(5) 0.0417(13) Uani 1 1 d . . .
H15 H 0.5013 0.7255 -0.3639 0.050 Uiso 1 1 calc R . .
C16 C 0.5512(5) 0.6465(5) -0.2602(5) 0.0371(12) Uani 1 1 d . . .
H16 H 0.5121 0.6764 -0.2097 0.045 Uiso 1 1 calc R . .
C17 C 0.6147(5) 0.5715(4) -0.2448(4) 0.0324(11) Uani 1 1 d . . .
C18 C 0.6740(5) 0.5336(4) -0.3180(4) 0.0310(10) Uani 1 1 d . . .
H18 H 0.7189 0.4840 -0.3066 0.037 Uiso 1 1 calc R . .
C19 C 0.6264(5) 0.5343(4) -0.1519(4) 0.0329(11) Uani 1 1 d . . .
C20 C 0.6421(4) 0.5391(4) 0.0188(4) 0.0295(10) Uani 1 1 d . . .
C21 C 0.6517(4) 0.5654(4) 0.1328(4) 0.0284(10) Uani 1 1 d . . .
H21 H 0.6397 0.6336 0.1796 0.034 Uiso 1 1 calc R . .
C22 C 0.6795(4) 0.4881(4) 0.1759(4) 0.0301(10) Uani 1 1 d . . .
C23 C 0.6912(6) 0.3852(5) 0.1037(5) 0.0475(15) Uani 1 1 d . . .
H23 H 0.7085 0.3330 0.1349 0.057 Uiso 1 1 calc R . .
C24 C 0.6784(7) 0.3576(5) -0.0102(6) 0.0569(19) Uani 1 1 d . . .
H24 H 0.6844 0.2867 -0.0587 0.068 Uiso 1 1 calc R . .
C25 C 0.6559(6) 0.4379(5) -0.0528(5) 0.0409(13) Uani 1 1 d . . .
C26 C 0.7001(4) 0.5162(4) 0.3011(4) 0.0309(10) Uani 1 1 d . . .
O5 O 0.4212(4) 0.7662(4) 0.3694(5) 0.0670(14) Uani 1 1 d . . .
H5B H 0.3921 0.7642 0.4194 0.101 Uiso 1 1 d R . .
H5C H 0.4015 0.6995 0.3130 0.101 Uiso 1 1 d R . .
O6 O 0.6032(6) 0.8183(5) 0.0280(5) 0.0868(19) Uani 1 1 d D . .
H6A H 0.6440 0.8374 0.0978 0.130 Uiso 1 1 d R . .
H6B H 0.5337 0.8012 0.0183 0.130 Uiso 1 1 d R . .
O7 O 0.6879(4) 0.9104(3) 0.2708(4) 0.0465(10) Uani 1 1 d D . .
H7A H 0.6695 0.8808 0.3125 0.070 Uiso 1 1 d R . .
H7B H 0.7625 0.9347 0.2965 0.070 Uiso 1 1 d R . .
O8 O 0.6545(4) 0.8142(4) 0.4214(5) 0.0672(14) Uani 1 1 d D . .
H8A H 0.5795 0.8020 0.3866 0.101 Uiso 1 1 d R . .
H8B H 0.6650 0.7467 0.4078 0.101 Uiso 1 1 d R . .
O9 O 0.4168(6) 0.9173(5) 0.7038(5) 0.091(2) Uani 1 1 d . . .
H9A H 0.3874 0.8585 0.6352 0.137 Uiso 1 1 d R . .
H9B H 0.3794 0.9048 0.7448 0.137 Uiso 1 1 d R . .
O10 O 0.6233(11) 1.0421(10) 0.6854(14) 0.228(7) Uani 1 1 d . . .
H10A H 0.6841 1.0796 0.7382 0.342 Uiso 1 1 d R . .
H10B H 0.5731 1.0349 0.7200 0.342 Uiso 1 1 d R . .
O11 O 0.4193(9) 0.8689(8) 0.8982(9) 0.159(4) Uani 1 1 d D . .
H11A H 0.4132 0.8911 0.9611 0.239 Uiso 1 1 d RD . .
H11B H 0.4828 0.8932 0.9001 0.239 Uiso 1 1 d RD . .
O12 O 0.733(3) 1.012(3) 1.001(3) 0.269(15) Uani 0.50 1 d PU A 1
C27 C 0.624(2) 0.973(3) 0.903(3) 0.158(11) Uani 0.50 1 d PDU A 1
O13 O 0.795(2) 1.035(2) 0.846(2) 0.180(9) Uani 0.50 1 d PU B 2
C28 C 1.0016(13) 0.6730(14) 0.8911(12) 0.244(11) Uani 1 1 d GU . .
H28 H 1.0393 0.6431 0.8392 0.293 Uiso 1 1 calc R . .
C29 C 0.9529(13) 0.7602(13) 0.8883(11) 0.210(9) Uani 1 1 d GU . .
H29 H 0.9573 0.7900 0.8343 0.252 Uiso 1 1 calc R . .
C30 C 0.8978(11) 0.8040(10) 0.9643(12) 0.175(7) Uani 1 1 d GU . .
H30 H 0.8645 0.8636 0.9623 0.210 Uiso 1 1 calc R . .
C31 C 0.8913(10) 0.7604(12) 1.0432(10) 0.162(6) Uani 1 1 d GU . .
H31 H 0.8537 0.7903 1.0952 0.195 Uiso 1 1 calc R . .
C32 C 0.9401(12) 0.6732(13) 1.0461(11) 0.208(8) Uani 1 1 d GU . .
H32 H 0.9357 0.6434 1.1000 0.250 Uiso 1 1 calc R . .
C33 C 0.9952(13) 0.6295(11) 0.9701(15) 0.220(9) Uani 1 1 d GU . .
H33 H 1.0285 0.5699 0.9720 0.264 Uiso 1 1 calc R . .

loop_
_atom_site_aniso_label
_atom_site_aniso_U_11
_atom_site_aniso_U_22
_atom_site_aniso_U_33
_atom_site_aniso_U_23
_atom_site_aniso_U_13
_atom_site_aniso_U_12
Zn 0.0401(3) 0.0217(3) 0.0341(3) 0.0212(2) 0.0200(3) 0.0184(2)
O1 0.046(2) 0.0238(16) 0.043(2) 0.0256(15) 0.0188(17) 0.0181(15)
O2 0.038(2) 0.0296(18) 0.054(2) 0.0261(17) 0.0141(18) 0.0189(16)
O3 0.050(2) 0.0336(18) 0.0357(19) 0.0252(16) 0.0218(17) 0.0239(16)
O4 0.048(2) 0.0353(19) 0.0351(19) 0.0234(16) 0.0210(17) 0.0233(16)
N1 0.043(2) 0.0212(18) 0.046(2) 0.0228(18) 0.021(2) 0.0187(17)
N2 0.035(2) 0.024(2) 0.061(3) 0.029(2) 0.018(2) 0.0135(17)
N3 0.035(2) 0.0223(19) 0.050(3) 0.0243(19) 0.011(2) 0.0130(17)
N4 0.040(2) 0.0241(19) 0.031(2) 0.0178(17) 0.0159(19) 0.0140(17)
N5 0.040(2) 0.028(2) 0.034(2) 0.0215(17) 0.0191(19) 0.0194(18)
N6 0.085(4) 0.034(2) 0.036(2) 0.021(2) 0.032(3) 0.027(2)
C1 0.049(3) 0.028(2) 0.052(3) 0.030(2) 0.023(3) 0.022(2)
C2 0.043(3) 0.034(3) 0.063(4) 0.032(3) 0.018(3) 0.024(2)
C3 0.041(3) 0.027(3) 0.060(4) 0.027(3) 0.015(3) 0.014(2)
C4 0.039(3) 0.024(2) 0.046(3) 0.025(2) 0.018(2) 0.017(2)
C5 0.036(3) 0.026(2) 0.045(3) 0.023(2) 0.019(2) 0.020(2)
C6 0.040(3) 0.023(2) 0.045(3) 0.023(2) 0.019(2) 0.017(2)
C7 0.036(3) 0.021(2) 0.043(3) 0.022(2) 0.017(2) 0.0142(19)
C8 0.036(3) 0.024(2) 0.049(3) 0.025(2) 0.018(2) 0.015(2)
C9 0.037(3) 0.022(2) 0.036(3) 0.0208(19) 0.017(2) 0.0162(19)
C10 0.041(3) 0.020(2) 0.046(3) 0.020(2) 0.012(2) 0.009(2)
C11 0.033(3) 0.028(3) 0.062(4) 0.028(3) 0.009(3) 0.008(2)
C12 0.034(3) 0.021(2) 0.040(3) 0.021(2) 0.012(2) 0.0146(19)
C13 0.044(3) 0.022(2) 0.035(3) 0.019(2) 0.020(2) 0.019(2)
C14 0.046(3) 0.041(3) 0.037(3) 0.030(2) 0.020(2) 0.024(2)
C15 0.056(4) 0.052(3) 0.048(3) 0.037(3) 0.030(3) 0.039(3)
C16 0.048(3) 0.043(3) 0.039(3) 0.026(2) 0.025(3) 0.026(2)
C17 0.042(3) 0.032(2) 0.033(3) 0.022(2) 0.017(2) 0.015(2)
C18 0.044(3) 0.028(2) 0.036(3) 0.023(2) 0.021(2) 0.018(2)
C19 0.043(3) 0.034(3) 0.035(3) 0.023(2) 0.018(2) 0.018(2)
C20 0.035(3) 0.027(2) 0.035(3) 0.020(2) 0.015(2) 0.013(2)
C21 0.034(3) 0.030(2) 0.032(2) 0.019(2) 0.016(2) 0.016(2)
C22 0.040(3) 0.029(2) 0.034(3) 0.021(2) 0.019(2) 0.016(2)
C23 0.089(5) 0.037(3) 0.043(3) 0.031(3) 0.035(3) 0.035(3)
C24 0.118(6) 0.037(3) 0.046(3) 0.029(3) 0.046(4) 0.046(4)
C25 0.069(4) 0.035(3) 0.037(3) 0.024(2) 0.027(3) 0.028(3)
C26 0.037(3) 0.031(2) 0.037(3) 0.024(2) 0.018(2) 0.014(2)
O5 0.074(3) 0.051(3) 0.076(3) 0.017(2) 0.044(3) 0.010(2)
O6 0.135(6) 0.065(3) 0.066(3) 0.032(3) 0.031(4) 0.051(4)
O7 0.042(2) 0.044(2) 0.059(3) 0.029(2) 0.015(2) 0.0171(18)
O8 0.059(3) 0.062(3) 0.098(4) 0.052(3) 0.031(3) 0.024(2)
O9 0.098(5) 0.070(4) 0.082(4) 0.020(3) 0.011(3) 0.046(3)
O10 0.165(11) 0.149(10) 0.40(2) 0.135(12) 0.120(12) 0.054(8)
O11 0.184(10) 0.126(7) 0.167(9) 0.082(7) 0.035(7) 0.066(7)
O12 0.265(18) 0.265(18) 0.266(18) 0.119(12) 0.087(11) 0.074(11)
C27 0.159(14) 0.159(14) 0.151(14) 0.056(10) 0.060(10) 0.063(10)
O13 0.177(12) 0.192(12) 0.177(12) 0.100(9) 0.062(9) 0.031(9)
C28 0.259(14) 0.263(14) 0.234(14) 0.121(10) 0.111(10) 0.077(10)
C29 0.217(12) 0.235(13) 0.193(11) 0.080(9) 0.117(10) 0.067(9)
C30 0.160(10) 0.194(11) 0.167(10) 0.061(8) 0.071(8) 0.068(8)
C31 0.172(10) 0.181(10) 0.130(9) 0.053(7) 0.076(8) 0.041(8)
C32 0.212(12) 0.226(13) 0.203(12) 0.079(9) 0.121(10) 0.059(9)
C33 0.243(13) 0.246(13) 0.208(12) 0.119(10) 0.117(10) 0.057(9)

_geom_special_details            
; 
 All esds (except the esd in the dihedral angle between two l.s. planes) 
 are estimated using the full covariance matrix.  The cell esds are taken 
 into account individually in the estimation of esds in distances, angles 
 and torsion angles; correlations between esds in cell parameters are only 
 used when they are defined by crystal symmetry.  An approximate (isotropic) 
 treatment of cell esds is used for estimating esds involving l.s. planes. 
;

loop_
_geom_bond_atom_site_label_1
_geom_bond_atom_site_label_2
_geom_bond_distance
_geom_bond_site_symmetry_2
_geom_bond_publ_flag
Zn O3 1.955(3) . ?
Zn O1 1.958(3) 1_545 ?
Zn N4 2.023(4) 1_556 ?
Zn N1 2.067(4) . ?
O1 C13 1.270(6) . ?
O1 Zn 1.958(3) 1_565 ?
O2 C13 1.252(6) . ?
O3 C26 1.285(6) . ?
O4 C26 1.247(6) . ?
N1 C1 1.348(7) . ?
N1 C5 1.351(5) . ?
N2 C6 1.352(6) . ?
N2 C7 1.376(6) . ?
N3 C6 1.318(6) . ?
N3 C12 1.388(5) . ?
N4 C14 1.343(6) . ?
N4 C18 1.352(6) . ?
N4 Zn 2.023(4) 1_554 ?
N5 C19 1.340(6) . ?
N5 C20 1.379(6) . ?
N6 C19 1.319(6) . ?
N6 C25 1.390(7) . ?
C1 C2 1.363(8) . ?
C2 C3 1.388(7) . ?
C3 C4 1.405(7) . ?
C4 C5 1.374(7) . ?
C4 C6 1.475(6) . ?
C7 C12 1.387(7) . ?
C7 C8 1.396(6) . ?
C8 C9 1.385(6) . ?
C9 C10 1.405(7) . ?
C9 C13 1.503(6) . ?
C10 C11 1.372(7) . ?
C11 C12 1.396(7) . ?
C14 C15 1.377(7) . ?
C15 C16 1.382(7) . ?
C16 C17 1.394(7) . ?
C17 C18 1.388(7) . ?
C17 C19 1.468(6) . ?
C20 C21 1.384(7) . ?
C20 C25 1.395(7) . ?
C21 C22 1.386(6) . ?
C22 C23 1.402(7) . ?
C22 C26 1.491(7) . ?
C23 C24 1.369(8) . ?
C24 C25 1.405(7) . ?
O12 C27 1.43(4) . ?
C28 C29 1.3900 . ?
C28 C33 1.3900 . ?
C29 C30 1.3900 . ?
C30 C31 1.3900 . ?
C31 C32 1.3900 . ?
C32 C33 1.3900 . ?

loop_
_geom_angle_atom_site_label_1
_geom_angle_atom_site_label_2
_geom_angle_atom_site_label_3
_geom_angle
_geom_angle_site_symmetry_1
_geom_angle_site_symmetry_3
_geom_angle_publ_flag
O3 Zn O1 107.30(14) . 1_545 ?
O3 Zn N4 127.18(16) . 1_556 ?
O1 Zn N4 107.79(15) 1_545 1_556 ?
O3 Zn N1 109.42(16) . . ?
O1 Zn N1 96.01(15) 1_545 . ?
N4 Zn N1 104.74(16) 1_556 . ?
C13 O1 Zn 119.9(3) . 1_565 ?
C26 O3 Zn 107.4(3) . . ?
C1 N1 C5 117.9(4) . . ?
C1 N1 Zn 120.3(3) . . ?
C5 N1 Zn 121.8(4) . . ?
C6 N2 C7 107.1(4) . . ?
C6 N3 C12 105.0(4) . . ?
C14 N4 C18 117.8(4) . . ?
C14 N4 Zn 123.9(3) . 1_554 ?
C18 N4 Zn 117.8(3) . 1_554 ?
C19 N5 C20 107.4(4) . . ?
C19 N6 C25 104.8(4) . . ?
N1 C1 C2 123.0(4) . . ?
C1 C2 C3 119.4(5) . . ?
C2 C3 C4 118.4(5) . . ?
C5 C4 C3 118.6(4) . . ?
C5 C4 C6 122.1(5) . . ?
C3 C4 C6 119.