####################################################################### 
# 
# This file contains crystal structure data downloaded from the 
# Cambridge Structural Database (CSD) hosted by the Cambridge 
# Crystallographic Data Centre (CCDC).
# 
# Full information about CCDC data access policies and citation 
# guidelines are available at http://www.ccdc.cam.ac.uk/access/V1 
# 
# Audit and citation data items may have been added by the CCDC. 
# Please retain this information to preserve the provenance of 
# this file and to allow appropriate attribution of the data. 
# 
#######################################################################

data_{[Rh2(O2CCF3)4]3,(OH)C(NC5H4)3,C6H6},0.5C6H6_(4,0.5C6H6)
_audit_block_doi                 10.5517/cc69xyb
_database_code_depnum_ccdc_archive 'CCDC 188292'
loop_
_citation_id
_citation_doi
_citation_year
1 10.1021/ic020051s 2002
_audit_update_record             
;
2002-06-21 deposited with the CCDC.	2024-07-13 downloaded from the CCDC.
;

_audit_creation_method           SHELXL-97
_chemical_name_systematic        
;
Catena-{tris[tetrakis(trifluoroacetato)dirhodium(II,II)]-tris
(4'-pyridyl)methanol-(\h1-benzene)}, benzene solvate
;
_chemical_melting_point          'not measured'
_chemical_formula_moiety         
;
{[Rh2 (O2 C C F3)4]3, [(O H) C (N C5 H4)3], (C6 H6)}, (C6 H6)0.5
;
_chemical_formula_structural     
;
{[Rh2(O2CCF3)4]3((OH)C(C5H4N)3)(\h1-C6H6)},0.5(C6H6)
;
_chemical_formula_sum            'C49 H22 F36 N3 O25 Rh6'
_chemical_formula_weight         2354.16

loop_
_atom_type_symbol
_atom_type_description
_atom_type_scat_dispersion_real
_atom_type_scat_dispersion_imag
_atom_type_scat_source
C C 0.0033 0.0016 'International Tables Vol C Tables 4.2.6.8 and 6.1.1.4'
H H 0.0000 0.0000 'International Tables Vol C Tables 4.2.6.8 and 6.1.1.4'
N N 0.0061 0.0033 'International Tables Vol C Tables 4.2.6.8 and 6.1.1.4'
O O 0.0106 0.0060 'International Tables Vol C Tables 4.2.6.8 and 6.1.1.4'
F F 0.0171 0.0103 'International Tables Vol C Tables 4.2.6.8 and 6.1.1.4'
Rh Rh -1.1178 0.9187 'International Tables Vol C Tables 4.2.6.8 and 6.1.1.4'

_symmetry_cell_setting           monoclinic
_symmetry_space_group_name_H-M   'P 1 2(1)/c 1'

loop_
_symmetry_equiv_pos_as_xyz
'x, y, z'
'-x, y+1/2, -z+1/2'
'-x, -y, -z'
'x, -y-1/2, z-1/2'

_cell_length_a                   23.175(2)
_cell_length_b                   16.1746(7)
_cell_length_c                   23.782(4)
_cell_angle_alpha                90.00
_cell_angle_beta                 93.101(7)
_cell_angle_gamma                90.00
_cell_volume                     8902(2)
_cell_formula_units_Z            4
_cell_measurement_temperature    213(2)
_cell_measurement_reflns_used    250
_cell_measurement_theta_min      9.05
_cell_measurement_theta_max      20.8

_exptl_crystal_description       block
_exptl_crystal_colour            purple
_exptl_crystal_size_max          0.73
_exptl_crystal_size_mid          0.35
_exptl_crystal_size_min          0.30
_exptl_crystal_density_meas      'not measured'
_exptl_crystal_density_diffrn    1.757
_exptl_crystal_density_method    'not measured'
_exptl_crystal_F_000             4524
_exptl_absorpt_coefficient_mu    1.224
_exptl_absorpt_correction_type   none
_exptl_absorpt_correction_T_min  ?
_exptl_absorpt_correction_T_max  ?
_exptl_absorpt_process_details   ?

_exptl_special_details           
;
?
;

_diffrn_ambient_temperature      213(2)
_diffrn_radiation_wavelength     0.71073
_diffrn_radiation_type           MoK\a
_diffrn_radiation_source         'fine-focus sealed tube'
_diffrn_radiation_monochromator  graphite
_diffrn_measurement_device_type  'Nonius FAST area detector'
_diffrn_measurement_method       'Ellipsoid-mask fitting'
_diffrn_standards_number         'none (area detector data)'
_diffrn_standards_interval_count ?
_diffrn_standards_interval_time  ?
_diffrn_standards_decay_%        ?
_diffrn_reflns_number            46593
_diffrn_reflns_av_R_equivalents  0.0542
_diffrn_reflns_av_sigmaI/netI    0.0373
_diffrn_reflns_limit_h_min       -27
_diffrn_reflns_limit_h_max       27
_diffrn_reflns_limit_k_min       -19
_diffrn_reflns_limit_k_max       14
_diffrn_reflns_limit_l_min       -28
_diffrn_reflns_limit_l_max       27
_diffrn_reflns_theta_min         2.27
_diffrn_reflns_theta_max         25.10
_reflns_number_total             15590
_reflns_number_gt                12839
_reflns_threshold_expression     >2sigma(I)

_computing_data_collection       'MADNES (Enraf-Nonius, 1989)'
_computing_cell_refinement       'MADNES (Enraf-Nonius, 1989)'
_computing_data_reduction        'PROCOR (Kabsch, 1988)'
_computing_structure_solution    'SHELXTL V.5 (Siemens, 1994)'
_computing_structure_refinement  'SHELXL-97 (Sheldrick, 1997)'
_computing_molecular_graphics    'SHELXTL V.5 (Siemens, 1994)'
_computing_publication_material  CIFTAB

_refine_special_details          
;
?
;

_refine_ls_structure_factor_coef Fsqd
_refine_ls_matrix_type           full
_refine_ls_weighting_scheme      calc
_refine_ls_weighting_details     
'calc w=1/[\s^2^(Fo^2^)+(0.1065P)^2^+156.4058P] where P=(Fo^2^+2Fc^2^)/3'
_atom_sites_solution_primary     direct
_atom_sites_solution_secondary   difmap
_atom_sites_solution_hydrogens   geom
_refine_ls_hydrogen_treatment    mixed
_refine_ls_extinction_method     none
_refine_ls_extinction_coef       noref
_refine_ls_number_reflns         15590
_refine_ls_number_parameters     972
_refine_ls_number_restraints     216
_refine_ls_R_factor_all          0.0980
_refine_ls_R_factor_gt           0.0800
_refine_ls_wR_factor_ref         0.2309
_refine_ls_wR_factor_gt          0.2093
_refine_ls_goodness_of_fit_ref   1.048
_refine_ls_restrained_S_all      1.051
_refine_ls_shift/su_max          0.001
_refine_ls_shift/su_mean         0.000

loop_
_atom_site_label
_atom_site_type_symbol
_atom_site_fract_x
_atom_site_fract_y
_atom_site_fract_z
_atom_site_U_iso_or_equiv
_atom_site_adp_type
_atom_site_occupancy
_atom_site_symetry_multiplicity
_atom_site_calc_flag
_atom_site_refinement_flags
_atom_site_disorder_assembly
_atom_site_disorder_group
Rh1 Rh 0.03299(3) 0.06792(4) 0.30018(3) 0.02878(19) Uani 1 1 d . . .
Rh2 Rh 0.11882(3) 0.15126(5) 0.31398(3) 0.03140(19) Uani 1 1 d . . .
Rh3 Rh -0.20760(3) -0.24857(5) -0.01523(3) 0.03029(19) Uani 1 1 d . . .
Rh4 Rh -0.19863(3) -0.27958(5) -0.11362(3) 0.03022(19) Uani 1 1 d . . .
Rh5 Rh -0.44392(3) 0.02066(5) 0.30261(3) 0.0345(2) Uani 1 1 d . . .
Rh6 Rh -0.53554(3) 0.08107(6) 0.32337(4) 0.0457(2) Uani 1 1 d . . .
O1 O 0.0071(3) 0.1434(4) 0.2358(3) 0.0350(15) Uani 1 1 d . A .
O2 O -0.0061(3) 0.1456(4) 0.3536(3) 0.0371(15) Uani 1 1 d . B .
O3 O 0.0636(3) -0.0048(5) 0.3643(3) 0.0447(18) Uani 1 1 d . C .
O4 O 0.0776(3) -0.0055(4) 0.2479(3) 0.0439(17) Uani 1 1 d . D .
O5 O 0.0870(3) 0.2211(4) 0.2469(3) 0.0351(15) Uani 1 1 d . A .
O6 O 0.0746(3) 0.2251(4) 0.3655(3) 0.0377(15) Uani 1 1 d . B .
O7 O 0.1437(3) 0.0728(5) 0.3773(3) 0.0477(19) Uani 1 1 d . C .
O8 O 0.1582(3) 0.0743(5) 0.2609(4) 0.0466(18) Uani 1 1 d . D .
O9 O -0.1556(4) -0.1491(5) -0.0266(3) 0.0472(19) Uani 1 1 d . E .
O10 O -0.1356(3) -0.3176(5) 0.0027(3) 0.0434(17) Uani 1 1 d . F .
O11 O -0.2571(3) -0.3526(5) -0.0096(3) 0.0467(18) Uani 1 1 d . G .
O12 O -0.2788(3) -0.1796(6) -0.0381(3) 0.052(2) Uani 1 1 d . H .
O13 O -0.1449(3) -0.1809(5) -0.1186(3) 0.0430(17) Uani 1 1 d . E .
O14 O -0.1289(3) -0.3500(5) -0.0891(3) 0.0430(17) Uani 1 1 d . F .
O15 O -0.2486(3) -0.3792(5) -0.1025(3) 0.0437(17) Uani 1 1 d . G .
O16 O -0.2696(3) -0.2067(5) -0.1304(3) 0.0442(18) Uani 1 1 d . H .
O17 O -0.4869(3) -0.0597(4) 0.2503(3) 0.0428(17) Uani 1 1 d . I .
O18 O -0.4388(3) 0.1019(5) 0.2392(3) 0.0493(19) Uani 1 1 d . J .
O19 O -0.4057(3) 0.1047(4) 0.3557(3) 0.0431(17) Uani 1 1 d . K .
O20 O -0.4535(3) -0.0581(4) 0.3679(3) 0.0422(16) Uani 1 1 d . L .
O21 O -0.5726(3) -0.0025(5) 0.2687(4) 0.059(2) Uani 1 1 d . I .
O22 O -0.5240(3) 0.1596(5) 0.2578(4) 0.052(2) Uani 1 1 d . J .
O23 O -0.4903(3) 0.1601(5) 0.3764(4) 0.0488(19) Uani 1 1 d . K .
O24 O -0.5391(4) -0.0020(5) 0.3872(4) 0.059(2) Uani 1 1 d . L .
C1 C 0.0387(4) 0.2025(6) 0.2245(4) 0.034(2) Uani 1 1 d . . .
C2 C 0.0220(4) 0.2080(6) 0.3726(4) 0.037(2) Uani 1 1 d . . .
C3 C 0.1124(5) 0.0123(7) 0.3862(5) 0.047(3) Uani 1 1 d . . .
C4 C 0.1304(5) 0.0141(6) 0.2412(5) 0.044(2) Uani 1 1 d . . .
C5 C 0.0131(5) 0.2612(7) 0.1798(5) 0.046(3) Uiso 1 1 d D A 1
F1 F 0.0408(9) 0.3272(11) 0.1709(10) 0.078(8) Uiso 0.50 1 d PD A 1
F2 F -0.0421(8) 0.2831(16) 0.1869(11) 0.113(8) Uiso 0.50 1 d PD A 1
F3 F 0.0032(9) 0.2159(10) 0.1318(6) 0.073(5) Uiso 0.50 1 d PD A 1
F1X F 0.0500(5) 0.3120(8) 0.1618(6) 0.037(4) Uiso 0.50 1 d PD A 2
F2X F -0.0279(6) 0.3096(9) 0.2062(6) 0.049(3) Uiso 0.50 1 d PD A 2
F3X F -0.0230(8) 0.2280(11) 0.1412(7) 0.071(5) Uiso 0.50 1 d PD A 2
C6 C -0.0109(6) 0.2704(9) 0.4069(6) 0.062(3) Uiso 1 1 d D B 1
F4 F 0.0230(7) 0.3133(12) 0.4418(8) 0.072(5) Uiso 0.50 1 d PD B 1
F5 F -0.0521(7) 0.2310(11) 0.4323(8) 0.074(5) Uiso 0.50 1 d PD B 1
F6 F -0.0346(10) 0.3237(14) 0.3688(8) 0.099(7) Uiso 0.50 1 d PD B 1
F4X F 0.0172(7) 0.2814(12) 0.4568(6) 0.070(5) Uiso 0.50 1 d PD B 2
F5X F -0.0651(6) 0.2545(12) 0.4103(9) 0.079(5) Uiso 0.50 1 d PD B 2
F6X F -0.0105(9) 0.3438(10) 0.3781(8) 0.080(5) Uiso 0.50 1 d PD B 2
C7 C 0.1372(7) -0.0489(10) 0.4299(6) 0.070(4) Uiso 1 1 d D C 1
F7 F 0.1065(6) -0.1179(8) 0.4345(7) 0.055(3) Uiso 0.50 1 d PD C 1
F8 F 0.1491(8) -0.0076(10) 0.4799(6) 0.070(4) Uiso 0.50 1 d PD C 1
F9 F 0.1895(8) -0.0709(15) 0.4189(10) 0.099(7) Uiso 0.50 1 d PD C 1
F7X F 0.0968(6) -0.0920(10) 0.4551(7) 0.064(4) Uiso 0.50 1 d PD C 2
F8X F 0.1755(10) -0.0169(14) 0.4677(9) 0.103(7) Uiso 0.50 1 d PD C 2
F9X F 0.1734(9) -0.0949(14) 0.4020(9) 0.094(7) Uiso 0.50 1 d PD C 2
C8 C 0.1625(6) -0.0459(9) 0.2054(6) 0.068(4) Uiso 1 1 d D D 1
F10 F 0.1290(5) -0.0905(9) 0.1700(6) 0.046(3) Uiso 0.50 1 d PD D 1
F11 F 0.2070(8) -0.0135(13) 0.1813(9) 0.088(6) Uiso 0.50 1 d PD D 1
F12 F 0.1895(9) -0.0964(11) 0.2456(7) 0.080(5) Uiso 0.50 1 d PD D 1
F10X F 0.1325(7) -0.1104(9) 0.1893(8) 0.062(4) Uiso 0.50 1 d PD D 2
F11X F 0.1877(7) -0.0012(9) 0.1631(6) 0.058(4) Uiso 0.50 1 d PD D 2
F12X F 0.2101(8) -0.0764(13) 0.2323(9) 0.085(6) Uiso 0.50 1 d PD D 2
C9 C -0.1353(5) -0.1403(7) -0.0737(4) 0.047(3) Uani 1 1 d . . .
C10 C -0.1130(5) -0.3507(7) -0.0389(4) 0.045(3) Uani 1 1 d . . .
C11 C -0.2664(5) -0.3950(8) -0.0546(4) 0.047(3) Uani 1 1 d . . .
C12 C -0.2922(5) -0.1758(8) -0.0892(4) 0.050(3) Uani 1 1 d . . .
C13 C -0.0888(6) -0.0736(9) -0.0762(6) 0.068(4) Uiso 1 1 d D E 1
F13 F -0.0821(8) -0.0473(11) -0.1291(5) 0.060(5) Uiso 0.50 1 d PD E 1
F14 F -0.0943(10) -0.0071(12) -0.0449(9) 0.097(7) Uiso 0.50 1 d PD E 1
F15 F -0.0399(6) -0.1027(11) -0.0475(7) 0.062(4) Uiso 0.50 1 d PD E 1
F13X F -0.0658(6) -0.0672(9) -0.1265(5) 0.043(3) Uiso 0.50 1 d PD E 2
F14X F -0.1163(7) 0.0004(9) -0.0643(7) 0.063(4) Uiso 0.50 1 d PD E 2
F15X F -0.0503(8) -0.0695(13) -0.0347(7) 0.081(5) Uiso 0.50 1 d PD E 2
C14 C -0.0563(6) -0.3935(9) -0.0248(6) 0.068(4) Uiso 1 1 d D F 1
F16 F -0.0371(6) -0.3949(9) 0.0285(4) 0.040(3) Uiso 0.50 1 d PD F 1
F17 F -0.0136(8) -0.3857(15) -0.0563(8) 0.096(6) Uiso 0.50 1 d PD F 1
F18 F -0.0646(8) -0.4757(9) -0.0437(7) 0.072(4) Uiso 0.50 1 d PD F 1
F16X F -0.0516(6) -0.4218(9) 0.0285(4) 0.044(3) Uiso 0.50 1 d PD F 2
F17X F -0.0130(5) -0.3394(9) -0.0404(6) 0.050(3) Uiso 0.50 1 d PD F 2
F18X F -0.0398(7) -0.4515(9) -0.0578(6) 0.058(4) Uiso 0.50 1 d PD F 2
C15 C -0.2983(6) -0.4759(9) -0.0472(6) 0.064(3) Uiso 1 1 d D G 1
F19 F -0.2755(7) -0.5257(10) -0.0106(7) 0.068(5) Uiso 0.50 1 d PD G 1
F20 F -0.3525(7) -0.4541(12) -0.0316(9) 0.087(5) Uiso 0.50 1 d PD G 1
F21 F -0.3159(9) -0.5099(12) -0.0958(7) 0.087(5) Uiso 0.50 1 d PD G 1
F19X F -0.2919(8) -0.5053(11) 0.0026(6) 0.063(4) Uiso 0.50 1 d PD G 2
F20X F -0.3515(8) -0.4695(16) -0.0670(11) 0.114(7) Uiso 0.50 1 d PD G 2
F21X F -0.2780(8) -0.5326(11) -0.0841(7) 0.081(5) Uiso 0.50 1 d PD G 2
C16 C -0.3469(8) -0.1231(12) -0.1058(8) 0.091(5) Uiso 1 1 d D H 1
F22 F -0.3800(8) -0.1589(12) -0.1428(8) 0.085(5) Uiso 0.50 1 d PD H 1
F23 F -0.3646(9) -0.0766(12) -0.0668(8) 0.090(5) Uiso 0.50 1 d PD H 1
F24 F -0.3256(11) -0.0580(16) -0.1393(12) 0.124(8) Uiso 0.50 1 d PD H 1
F22X F -0.3638(9) -0.1136(13) -0.1562(7) 0.087(5) Uiso 0.50 1 d PD H 2
F23X F -0.3860(8) -0.1306(13) -0.0684(8) 0.087(5) Uiso 0.50 1 d PD H 2
F24X F -0.3305(13) -0.0415(15) -0.0936(14) 0.142(10) Uiso 0.50 1 d PD H 2
C17 C -0.5415(5) -0.0521(7) 0.2450(6) 0.055(3) Uani 1 1 d . . .
C18 C -0.4809(5) 0.1525(7) 0.2312(5) 0.046(3) Uani 1 1 d . . .
C19 C -0.4374(5) 0.1537(7) 0.3803(5) 0.046(3) Uani 1 1 d . . .
C20 C -0.4984(6) -0.0517(7) 0.3948(5) 0.052(3) Uani 1 1 d . . .
C21 C -0.5701(6) -0.1089(9) 0.2015(6) 0.066(4) Uiso 1 1 d D I 1
F25 F -0.5507(6) -0.1856(7) 0.2025(6) 0.046(3) Uiso 0.50 1 d PD I 1
F26 F -0.5680(8) -0.0736(9) 0.1509(6) 0.064(4) Uiso 0.50 1 d PD I 1
F27 F -0.6276(6) -0.1110(12) 0.2049(8) 0.074(5) Uiso 0.50 1 d PD I 1
F25X F -0.5359(7) -0.1691(10) 0.1857(7) 0.064(4) Uiso 0.50 1 d PD I 2
F26X F -0.5967(11) -0.0734(13) 0.1593(9) 0.104(7) Uiso 0.50 1 d PD I 2
F27X F -0.6173(8) -0.1444(14) 0.2244(9) 0.098(6) Uiso 0.50 1 d PD I 2
C22 C -0.4749(6) 0.2098(9) 0.1797(6) 0.062(3) Uiso 1 1 d D J 1
F28 F -0.4965(9) 0.1669(11) 0.1362(7) 0.073(6) Uiso 0.50 1 d PD J 1
F29 F -0.5010(8) 0.2812(9) 0.1825(7) 0.062(4) Uiso 0.50 1 d PD J 1
F30 F -0.4189(6) 0.2262(12) 0.1689(8) 0.077(5) Uiso 0.50 1 d PD J 1
F28X F -0.4742(9) 0.1713(11) 0.1320(6) 0.071(5) Uiso 0.50 1 d PD J 2
F29X F -0.5216(7) 0.2593(11) 0.1764(8) 0.075(5) Uiso 0.50 1 d PD J 2
F30X F -0.4272(7) 0.2559(12) 0.1886(9) 0.085(6) Uiso 0.50 1 d PD J 2
C23 C -0.4050(5) 0.2120(8) 0.4216(5) 0.053(3) Uiso 1 1 d D K 1
F31 F -0.3602(7) 0.2475(11) 0.3961(7) 0.063(5) Uiso 0.50 1 d PD K 1
F32 F -0.4375(7) 0.2727(10) 0.4376(8) 0.065(5) Uiso 0.50 1 d PD K 1
F33 F -0.3832(9) 0.1683(11) 0.4643(7) 0.071(6) Uiso 0.50 1 d PD K 1
F31X F -0.3752(7) 0.2673(10) 0.3932(6) 0.056(5) Uiso 0.50 1 d PD K 2
F32X F -0.4395(6) 0.2519(11) 0.4554(7) 0.061(5) Uiso 0.50 1 d PD K 2
F33X F -0.3669(8) 0.1717(11) 0.4566(7) 0.062(5) Uiso 0.50 1 d PD K 2
C24 C -0.5063(7) -0.1133(11) 0.4418(7) 0.080(4) Uiso 1 1 d D L 1
F34 F -0.5530(7) -0.1567(10) 0.4293(7) 0.064(4) Uiso 0.50 1 d PD L 1
F35 F -0.5029(11) -0.0829(13) 0.4928(7) 0.096(6) Uiso 0.50 1 d PD L 1
F36 F -0.4629(7) -0.1722(10) 0.4438(7) 0.073(4) Uiso 0.50 1 d PD L 1
F34X F -0.5283(11) -0.1831(12) 0.4320(10) 0.107(7) Uiso 0.50 1 d PD L 2
F35X F -0.5369(8) -0.0761(11) 0.4828(7) 0.077(5) Uiso 0.50 1 d PD L 2
F36X F -0.4562(10) -0.1201(19) 0.4747(12) 0.143(10) Uiso 0.50 1 d PD L 2
O25 O -0.1920(2) -0.2110(3) 0.2833(2) 0.0223(11) Uani 1 1 d . . .
H25 H -0.1575 -0.2251 0.2851 0.033 Uiso 1 1 calc R . .
N1 N -0.0441(3) -0.0012(5) 0.2842(3) 0.0287(16) Uani 1 1 d . . .
N2 N -0.2151(3) -0.2158(5) 0.0724(3) 0.0280(16) Uani 1 1 d . . .
N3 N -0.3628(3) -0.0324(5) 0.2838(3) 0.0314(17) Uani 1 1 d . . .
C25 C -0.1994(3) -0.1407(5) 0.2471(3) 0.0198(16) Uani 1 1 d . . .
C26 C -0.1465(3) -0.0854(5) 0.2569(3) 0.0226(16) Uani 1 1 d . . .
C27 C -0.1394(4) -0.0391(6) 0.3057(3) 0.0274(18) Uani 1 1 d . . .
H27 H -0.1697 -0.0354 0.3303 0.033 Uiso 1 1 calc R . .
C28 C -0.0885(4) 0.0012(6) 0.3183(4) 0.0307(19) Uani 1 1 d . . .
H28 H -0.0844 0.0317 0.3519 0.037 Uiso 1 1 calc R . .
C29 C -0.0502(4) -0.0462(6) 0.2371(4) 0.034(2) Uani 1 1 d . . .
H29 H -0.0193 -0.0488 0.2133 0.041 Uiso 1 1 calc R . .
C30 C -0.0998(4) -0.0887(6) 0.2223(4) 0.0297(19) Uani 1 1 d . . .
H30 H -0.1024 -0.1200 0.1890 0.036 Uiso 1 1 calc R . .
C31 C -0.2065(3) -0.1689(5) 0.1857(3) 0.0199(16) Uani 1 1 d . . .
C32 C -0.2168(3) -0.2506(5) 0.1698(3) 0.0216(16) Uani 1 1 d . . .
H32 H -0.2210 -0.2913 0.1975 0.026 Uiso 1 1 calc R . .
C33 C -0.2210(4) -0.2722(6) 0.1132(4) 0.0268(18) Uani 1 1 d . . .
H33 H -0.2280 -0.3276 0.1032 0.032 Uiso 1 1 calc R . .
C34 C -0.2091(5) -0.1364(6) 0.0872(4) 0.037(2) Uani 1 1 d . . .
H34 H -0.2072 -0.0965 0.0587 0.044 Uiso 1 1 calc R . .
C35 C -0.2053(4) -0.1104(6) 0.1424(3) 0.0306(19) Uani 1 1 d . . .
H35 H -0.2021 -0.0538 0.1510 0.037 Uiso 1 1 calc R . .
C36 C -0.2564(3) -0.0998(5) 0.2610(3) 0.0221(16) Uani 1 1 d . . .
C37 C -0.3016(4) -0.1495(5) 0.2765(4) 0.0255(17) Uani 1 1 d . . .
H37 H -0.2967 -0.2070 0.2796 0.031 Uiso 1 1 calc R . .
C38 C -0.3543(4) -0.1137(6) 0.2875(4) 0.0313(19) Uani 1 1 d . . .
H38 H -0.3848 -0.1478 0.2978 0.038 Uiso 1 1 calc R . .
C39 C -0.3199(4) 0.0159(6) 0.2681(4) 0.036(2) Uani 1 1 d . . .
H39 H -0.3263 0.0732 0.2649 0.043 Uiso 1 1 calc R . .
C40 C -0.2663(4) -0.0152(6) 0.2563(4) 0.0302(19) Uani 1 1 d . . .
H40 H -0.2370 0.0204 0.2452 0.036 Uiso 1 1 calc R . .
C41 C 0.3436(13) 0.1488(17) 0.2877(10) 0.083(3) Uiso 0.618(18) 1 d PD N 1
H41 H 0.3515 0.1805 0.2559 0.100 Uiso 0.618(18) 1 calc PR N 1
C42 C 0.3695(13) 0.1690(17) 0.3390(11) 0.083(3) Uiso 0.618(18) 1 d PD N 1
H42 H 0.3960 0.2130 0.3426 0.100 Uiso 0.618(18) 1 calc PR N 1
C43 C 0.3558(12) 0.1228(18) 0.3854(11) 0.083(3) Uiso 0.618(18) 1 d PD N 1
H43 H 0.3725 0.1356 0.4212 0.100 Uiso 0.618(18) 1 calc PR N 1
C44 C 0.3176(13) 0.0581(17) 0.3790(11) 0.083(3) Uiso 0.618(18) 1 d PD N 1
H44 H 0.3066 0.0302 0.4114 0.100 Uiso 0.618(18) 1 calc PR N 1
C45 C 0.2947(13) 0.0321(19) 0.3274(10) 0.083(3) Uiso 0.618(18) 1 d PD N 1
H45 H 0.2729 -0.0167 0.3233 0.100 Uiso 0.618(18) 1 calc PR N 1
C46 C 0.3056(12) 0.0819(17) 0.2818(10) 0.083(3) Uiso 0.618(18) 1 d PD N 1
H46 H 0.2872 0.0705 0.2464 0.100 Uiso 0.618(18) 1 calc PR N 1
C41X C 0.324(2) 0.121(3) 0.2862(14) 0.083(3) Uiso 0.382(18) 1 d PD N 2
H41X H 0.3158 0.1294 0.2474 0.100 Uiso 0.382(18) 1 calc PR N 2
C42X C 0.363(2) 0.172(3) 0.3155(17) 0.083(3) Uiso 0.382(18) 1 d PD N 2
H42X H 0.3837 0.2138 0.2972 0.100 Uiso 0.382(18) 1 calc PR N 2
C43X C 0.371(2) 0.160(2) 0.3728(16) 0.083(3) Uiso 0.382(18) 1 d PD N 2
H43X H 0.3892 0.2002 0.3954 0.100 Uiso 0.382(18) 1 calc PR N 2
C44X C 0.351(2) 0.088(3) 0.3979(15) 0.083(3) Uiso 0.382(18) 1 d PD N 2
H44X H 0.3613 0.0781 0.4360 0.100 Uiso 0.382(18) 1 calc PR N 2
C45X C 0.317(2) 0.032(2) 0.3674(17) 0.083(3) Uiso 0.382(18) 1 d PD N 2
H45X H 0.3079 -0.0201 0.38