####################################################################### 
# 
# This file contains crystal structure data downloaded from the 
# Cambridge Structural Database (CSD) hosted by the Cambridge 
# Crystallographic Data Centre (CCDC).
# 
# Full information about CCDC data access policies and citation 
# guidelines are available at http://www.ccdc.cam.ac.uk/access/V1 
# 
# Audit and citation data items may have been added by the CCDC. 
# Please retain this information to preserve the provenance of 
# this file and to allow appropriate attribution of the data. 
# 
#######################################################################

data_MMTI-1
_audit_block_doi                 10.5517/cc11pf9g
_database_code_depnum_ccdc_archive 'CCDC 973905'
loop_
_citation_id
_citation_doi
_citation_year
1 10.1021/cg500033b 2014
_audit_update_record             
;
2014-03-14 deposited with the CCDC.	2024-07-13 downloaded from the CCDC.
;

_audit_creation_method           SHELXL-97
_chemical_name_systematic        
; 
 ? 
;
_chemical_name_common            ?
_chemical_melting_point          ?
_chemical_formula_moiety         'C40 H26 N4 O10 Zn2, 4.5 (C3 H7 N O)'
_chemical_formula_sum            'C53.50 H57.50 N8.50 O14.50 Zn2'
_chemical_formula_weight         1182.32


loop_
_atom_type_symbol
_atom_type_description
_atom_type_scat_dispersion_real
_atom_type_scat_dispersion_imag
_atom_type_scat_source
C C 0.0033 0.0016 'International Tables Vol C Tables 4.2.6.8 and 6.1.1.4'
H H 0.0000 0.0000 'International Tables Vol C Tables 4.2.6.8 and 6.1.1.4'
O O 0.0106 0.0060 'International Tables Vol C Tables 4.2.6.8 and 6.1.1.4'
Zn Zn 0.2839 1.4301 'International Tables Vol C Tables 4.2.6.8 and 6.1.1.4'
N N 0.0061 0.0033 'International Tables Vol C Tables 4.2.6.8 and 6.1.1.4'

_symmetry_cell_setting           monoclinic
_symmetry_space_group_name_H-M   'P 21/c'
_symmetry_space_group_name_Hall  ?

loop_
_symmetry_equiv_pos_as_xyz
'x, y, z'
'-x, y+1/2, -z+1/2'
'-x, -y, -z'
'x, -y-1/2, z-1/2'

_cell_length_a                   12.546(4)
_cell_length_b                   26.633(7)
_cell_length_c                   15.734(6)
_cell_angle_alpha                90.00
_cell_angle_beta                 97.869(4)
_cell_angle_gamma                90.00
_cell_volume                     5208(3)
_cell_formula_units_Z            4
_cell_measurement_temperature    293(2)
_cell_measurement_reflns_used    8806
_cell_measurement_theta_min      0.407
_cell_measurement_theta_max      25.028


_exptl_crystal_description       prism
_exptl_crystal_colour            yellow
_exptl_crystal_size_max          0.44
_exptl_crystal_size_mid          0.14
_exptl_crystal_size_min          0.05
_exptl_crystal_density_meas      ?
_exptl_crystal_density_diffrn    1.088
_exptl_crystal_density_method    'not measured'
_exptl_crystal_F_000             2456
_exptl_absorpt_coefficient_mu    0.999
_exptl_absorpt_correction_type   multi-scan
_exptl_absorpt_correction_T_min  0.860
_exptl_absorpt_correction_T_max  0.950
_exptl_absorpt_process_details   'Scalepack (Otwinowski & Minor, 1997)'

_exptl_special_details           
; 
 ? 
;

_diffrn_ambient_temperature      293(2)
_diffrn_radiation_wavelength     0.71073
_diffrn_radiation_type           MoK\a
_diffrn_source                   'fine-focus sealed tube'
_diffrn_source_type              'Nonius Kappa CCD'
_diffrn_radiation_monochromator  graphite
_diffrn_measurement_device_type  'Nonius kappa-CCD diffractometer'
_diffrn_measurement_method       'phi and omega scans'
_diffrn_detector_area_resol_mean 9
_diffrn_standards_number         0
_diffrn_standards_interval_count .
_diffrn_standards_interval_time  .
_diffrn_standards_decay_%        ?
_diffrn_reflns_number            43882
_diffrn_reflns_av_R_equivalents  0.0334
_diffrn_reflns_av_sigmaI/netI    0.0506
_diffrn_reflns_limit_h_min       -14
_diffrn_reflns_limit_h_max       14
_diffrn_reflns_limit_k_min       -31
_diffrn_reflns_limit_k_max       29
_diffrn_reflns_limit_l_min       -18
_diffrn_reflns_limit_l_max       18
_diffrn_reflns_theta_min         1.51
_diffrn_reflns_theta_max         25.05
_reflns_number_total             8998
_reflns_number_gt                5765
_reflns_threshold_expression     >2sigma(I)

_computing_data_collection       
'DENZO (Otwinowski & Minor, 1997); COLLECT (Nonius B.V., 1999)'
_computing_cell_refinement       
'DENZO (Otwinowski & Minor, 1997); COLLECT (Nonius B.V., 1999)'
_computing_data_reduction        'SCALEPACK (Otwinowski & Minor, 1997)'
_computing_structure_solution    'SHELXS97 (Sheldrick, 2008)'
_computing_structure_refinement  
'SHELXL97 (Sheldrick, 2008); CRYSTALBUILDER (Welter, 2006)'
_computing_molecular_graphics    'PLATON (Spek, 2003)'
_computing_publication_material  'SHELXL97 (Sheldrick, 2008)'

_refine_special_details          
; 
 Refinement of F^2^ against ALL reflections.  The weighted R-factor wR and 
 goodness of fit S are based on F^2^, conventional R-factors R are based 
 on F, with F set to zero for negative F^2^. The threshold expression of 
 F^2^ > 2sigma(F^2^) is used only for calculating R-factors(gt) etc. and is 
 not relevant to the choice of reflections for refinement.  R-factors based 
 on F^2^ are statistically about twice as large as those based on F, and R- 
 factors based on ALL data will be even larger. 
 
 ALERT_CHECKCIF PLATON  VERY LARGE Solvent Accessible VOID(S) in Structure    
 
Density found in difference maps was attributed to disordered DMF solvent.
Attempts to adequately model the disordered DMF molecules (40 electrons) were
unsatisfactory so we resorted to use the SQUEEZE option in the PLATON
program package (Spek, 1990). The contribution of the diffuse solvent to the 
diffraction pattern was removed and modified Fo^2^ written to a new HKL file.
The refinement was completed with this corrected ('solvent-removed') data set.
The number of electrons thus located, 732 per unit cell, was included 
in the formula, formula weight, calculated density, \m and F(000).  
This residual electron density was assigned to four and half molecules of DMF.

# SQUEEZE RESULTS (APPEND TO CIF)
# Note: Data are Listed for all Voids in the P1 Unit Cell
# i.e. Centre of Gravity, Solvent Accessible Volume,
# Recovered number of Electrons in the Void and
# Details about the Squeezed Material
loop_
  _platon_squeeze_void_nr             
  _platon_squeeze_void_average_x      
  _platon_squeeze_void_average_y      
  _platon_squeeze_void_average_z      
  _platon_squeeze_void_volume         
  _platon_squeeze_void_count_electrons
  _platon_squeeze_void_content        
   1 -0.137  0.000  0.363      1010       366 ' '
   2 -0.050  0.500  0.950      1010       366 ' '
_platon_squeeze_details             

;

_refine_ls_structure_factor_coef Fsqd
_refine_ls_matrix_type           full
_refine_ls_weighting_scheme      calc
_refine_ls_weighting_details     
'calc w=1/[\s^2^(Fo^2^)+(0.1602P)^2^+0.0000P] where P=(Fo^2^+2Fc^2^)/3'
_atom_sites_solution_primary     direct
_atom_sites_solution_secondary   difmap
_atom_sites_solution_hydrogens   geom
_refine_ls_hydrogen_treatment    constr
_refine_ls_extinction_method     none
_refine_ls_extinction_coef       ?
_refine_ls_number_reflns         8998
_refine_ls_number_parameters     505
_refine_ls_number_restraints     0
_refine_ls_R_factor_all          0.0917
_refine_ls_R_factor_gt           0.0702
_refine_ls_wR_factor_ref         0.2239
_refine_ls_wR_factor_gt          0.2074
_refine_ls_goodness_of_fit_ref   0.969
_refine_ls_restrained_S_all      0.969
_refine_ls_shift/su_max          0.001
_refine_ls_shift/su_mean         0.000

loop_
_atom_site_label
_atom_site_type_symbol
_atom_site_fract_x
_atom_site_fract_y
_atom_site_fract_z
_atom_site_U_iso_or_equiv
_atom_site_adp_type
_atom_site_occupancy
_atom_site_symmetry_multiplicity
_atom_site_calc_flag
_atom_site_refinement_flags
_atom_site_disorder_assembly
_atom_site_disorder_group
Zn1 Zn 0.69156(4) 0.251977(17) 0.18256(3) 0.0453(2) Uani 1 1 d . . .
Zn2 Zn 0.85217(4) 0.243937(19) 0.37769(3) 0.0457(2) Uani 1 1 d . . .
O1 O 0.7409(2) 0.32059(11) 0.1699(2) 0.0569(8) Uani 1 1 d . . .
O2 O 0.5805(3) 0.32718(13) 0.2101(2) 0.0686(9) Uani 1 1 d . . .
O3 O 0.6691(3) 0.55270(14) 0.1053(4) 0.1108(17) Uani 1 1 d . . .
O4 O 0.6311(2) 0.21831(13) 0.2744(2) 0.0627(9) Uani 1 1 d . . .
O5 O 0.7331(2) 0.19755(11) 0.3947(2) 0.0580(8) Uani 1 1 d . . .
O6 O 0.7968(2) 0.31175(11) 0.3813(2) 0.0575(8) Uani 1 1 d . . .
O7 O 0.9581(3) 0.31989(12) 0.3431(2) 0.0641(9) Uani 1 1 d . . .
O8 O 1.1737(4) 0.04809(14) 0.1116(4) 0.128(2) Uani 1 1 d . . .
O9 O 0.9143(2) 0.21004(14) 0.2866(2) 0.0707(10) Uani 1 1 d . . .
O10 O 0.8090(2) 0.20528(12) 0.1614(2) 0.0591(8) Uani 1 1 d . . .
N1 N 0.5872(3) 0.23496(15) 0.0742(3) 0.0530(9) Uani 1 1 d . . .
N2 N 0.2945(4) 0.2387(2) -0.1750(3) 0.0754(14) Uani 1 1 d . . .
N3 N 0.2456(4) 0.2384(2) -0.2627(3) 0.0782(15) Uani 1 1 d . . .
N4 N 0.9552(3) 0.23094(14) 0.4872(2) 0.0462(8) Uani 1 1 d . . .
C1 C 0.6590(4) 0.34674(17) 0.1853(3) 0.0513(11) Uani 1 1 d . . .
C2 C 0.6621(3) 0.40153(16) 0.1686(3) 0.0515(11) Uani 1 1 d . . .
C3 C 0.7480(4) 0.42370(18) 0.1355(4) 0.0673(14) Uani 1 1 d . . .
H3 H 0.8073 0.4043 0.1272 0.081 Uiso 1 1 calc R . .
C4 C 0.7464(4) 0.47377(19) 0.1149(4) 0.0811(17) Uani 1 1 d . . .
H4 H 0.8030 0.4881 0.0909 0.097 Uiso 1 1 calc R . .
C5 C 0.6619(4) 0.50198(18) 0.1298(4) 0.0723(15) Uani 1 1 d . . .
C6 C 0.5779(4) 0.48290(19) 0.1635(4) 0.0787(16) Uani 1 1 d . . .
H6 H 0.5210 0.5034 0.1739 0.094 Uiso 1 1 calc R . .
C7 C 0.5778(4) 0.43178(19) 0.1825(3) 0.0683(14) Uani 1 1 d . . .
H7 H 0.5195 0.4180 0.2050 0.082 Uiso 1 1 calc R . .
C8 C 0.4140(5) 0.0859(2) 0.3805(5) 0.0858(19) Uani 1 1 d . . .
C9 C 0.4075(5) 0.1116(3) 0.3022(5) 0.101(2) Uani 1 1 d . . .
H9 H 0.3521 0.1050 0.2580 0.121 Uiso 1 1 calc R . .
C10 C 0.4839(4) 0.1461(2) 0.2928(4) 0.0817(17) Uani 1 1 d . . .
H10 H 0.4795 0.1640 0.2417 0.098 Uiso 1 1 calc R . .
C11 C 0.5687(3) 0.15552(15) 0.3569(3) 0.0496(10) Uani 1 1 d . . .
C12 C 0.5742(4) 0.1291(2) 0.4318(4) 0.0757(15) Uani 1 1 d . . .
H12 H 0.6317 0.1346 0.4747 0.091 Uiso 1 1 calc R . .
C13 C 0.4963(5) 0.0945(2) 0.4452(4) 0.0894(18) Uani 1 1 d . . .
H13 H 0.4998 0.0775 0.4971 0.107 Uiso 1 1 calc R . .
C14 C 0.6505(3) 0.19330(15) 0.3409(3) 0.0455(10) Uani 1 1 d . . .
C15 C 0.4852(4) 0.25221(19) 0.0635(3) 0.0633(15) Uani 1 1 d . . .
H15 H 0.4584 0.2669 0.1098 0.076 Uiso 1 1 calc R . .
C16 C 0.4211(4) 0.24876(19) -0.0121(4) 0.0670(16) Uani 1 1 d . . .
H16 H 0.3516 0.2617 -0.0175 0.080 Uiso 1 1 calc R . .
C17 C 0.4574(3) 0.22615(19) -0.0823(3) 0.0516(11) Uani 1 1 d . . .
C18 C 0.5595(3) 0.20700(18) -0.0709(3) 0.0536(11) Uani 1 1 d . . .
H18 H 0.5869 0.1911 -0.1159 0.064 Uiso 1 1 calc R . .
C19 C 0.6215(3) 0.21164(17) 0.0085(3) 0.0515(11) Uani 1 1 d . . .
H19 H 0.6903 0.1978 0.0161 0.062 Uiso 1 1 calc R . .
C20 C 0.3925(4) 0.2239(2) -0.1670(3) 0.0615(13) Uani 1 1 d . . .
H20 H 0.4219 0.2119 -0.2142 0.074 Uiso 1 1 calc R . .
C21 C 0.1482(4) 0.2243(2) -0.2699(3) 0.0622(13) Uani 1 1 d . . .
H21 H 0.1175 0.2138 -0.2224 0.075 Uiso 1 1 calc R . .
C22 C 0.0855(4) 0.2251(2) -0.3558(3) 0.0569(12) Uani 1 1 d . . .
C23 C 0.1223(4) 0.24850(19) -0.4265(4) 0.0650(15) Uani 1 1 d . . .
H23 H 0.1911 0.2621 -0.4223 0.078 Uiso 1 1 calc R . .
C24 C 0.0534(4) 0.25044(18) -0.5012(4) 0.0624(14) Uani 1 1 d . . .
H24 H 0.0769 0.2667 -0.5476 0.075 Uiso 1 1 calc R . .
C25 C -0.0770(3) 0.20768(17) -0.4466(3) 0.0505(11) Uani 1 1 d . . .
H25 H -0.1450 0.1931 -0.4542 0.061 Uiso 1 1 calc R . .
C26 C -0.0169(3) 0.20385(19) -0.3684(3) 0.0580(12) Uani 1 1 d . . .
H26 H -0.0436 0.1873 -0.3238 0.070 Uiso 1 1 calc R . .
C27 C 0.8747(4) 0.33959(17) 0.3622(3) 0.0501(10) Uani 1 1 d . . .
C28 C 0.8613(3) 0.39354(16) 0.3643(3) 0.0480(10) Uani 1 1 d . . .
C29 C 1.0591(4) -0.07471(18) 0.1574(4) 0.0671(14) Uani 1 1 d . . .
H29 H 0.9979 -0.0882 0.1759 0.081 Uiso 1 1 calc R . .
C30 C 1.0697(4) -0.02311(19) 0.1518(4) 0.0806(17) Uani 1 1 d . . .
H30 H 1.0170 -0.0021 0.1683 0.097 Uiso 1 1 calc R . .
C31 C 1.1565(4) -0.00336(18) 0.1223(4) 0.0795(17) Uani 1 1 d . . .
C32 C 1.2377(4) -0.03362(19) 0.1007(4) 0.0855(19) Uani 1 1 d . . .
H32 H 1.2982 -0.0195 0.0819 0.103 Uiso 1 1 calc R . .
C33 C 0.7715(4) 0.41584(18) 0.3928(4) 0.0694(14) Uani 1 1 d . . .
H33 H 0.7168 0.3954 0.4077 0.083 Uiso 1 1 calc R . .
C34 C 1.0989(5) 0.0820(2) 0.1367(5) 0.088(2) Uani 1 1 d . . .
C35 C 1.1105(5) 0.0975(2) 0.2186(5) 0.095(2) Uani 1 1 d . . .
H35 H 1.1635 0.0835 0.2588 0.114 Uiso 1 1 calc R . .
C36 C 1.0435(4) 0.1341(2) 0.2427(4) 0.0823(17) Uani 1 1 d . . .
H36 H 1.0533 0.1454 0.2991 0.099 Uiso 1 1 calc R . .
C37 C 0.9635(3) 0.15411(16) 0.1861(3) 0.0497(10) Uani 1 1 d . . .
C38 C 0.9505(4) 0.1359(2) 0.1030(4) 0.0743(15) Uani 1 1 d . . .
H38 H 0.8947 0.1477 0.0631 0.089 Uiso 1 1 calc R . .
C39 C 1.0205(5) 0.1000(2) 0.0790(5) 0.096(2) Uani 1 1 d . . .
H39 H 1.0128 0.0885 0.0227 0.115 Uiso 1 1 calc R . .
C40 C 0.8893(3) 0.19252(14) 0.2131(3) 0.0459(10) Uani 1 1 d . . .

loop_
_atom_site_aniso_label
_atom_site_aniso_U_11
_atom_site_aniso_U_22
_atom_site_aniso_U_33
_atom_site_aniso_U_23
_atom_site_aniso_U_13
_atom_site_aniso_U_12
Zn1 0.0471(3) 0.0443(3) 0.0416(4) 0.00636(19) -0.0049(2) 0.00355(19)
Zn2 0.0467(3) 0.0468(3) 0.0402(3) -0.0051(2) -0.0068(2) -0.0021(2)
O1 0.0618(18) 0.0424(18) 0.064(2) -0.0006(15) 0.0008(15) 0.0103(15)
O2 0.075(2) 0.056(2) 0.075(2) 0.0103(18) 0.0148(18) 0.0005(17)
O3 0.093(3) 0.050(2) 0.205(5) 0.030(3) 0.077(3) 0.029(2)
O4 0.0630(19) 0.065(2) 0.058(2) 0.0228(17) 0.0020(15) -0.0036(16)
O5 0.0588(18) 0.0519(19) 0.058(2) 0.0023(15) -0.0090(16) -0.0164(15)
O6 0.0606(19) 0.0484(18) 0.061(2) 0.0065(15) -0.0017(15) -0.0097(15)
O7 0.072(2) 0.055(2) 0.066(2) 0.0029(16) 0.0104(17) 0.0074(17)
O8 0.109(3) 0.047(2) 0.252(6) 0.010(3) 0.111(4) 0.019(2)
O9 0.062(2) 0.082(2) 0.064(2) -0.0246(19) -0.0038(16) 0.0075(17)
O10 0.0591(18) 0.0501(19) 0.063(2) -0.0015(15) -0.0089(16) 0.0208(15)
N1 0.054(2) 0.056(2) 0.048(2) 0.0065(19) 0.0053(18) 0.0028(19)
N2 0.050(3) 0.126(4) 0.044(3) -0.002(2) -0.0163(19) 0.002(2)
N3 0.063(3) 0.120(4) 0.046(3) 0.004(2) -0.010(2) -0.002(3)
N4 0.0396(19) 0.058(2) 0.036(2) 0.0036(17) -0.0124(14) -0.0044(17)
C1 0.064(3) 0.047(3) 0.040(2) -0.001(2) -0.001(2) 0.009(2)
C2 0.050(2) 0.044(3) 0.060(3) 0.001(2) 0.004(2) 0.011(2)
C3 0.057(3) 0.046(3) 0.102(4) -0.003(3) 0.021(3) 0.014(2)
C4 0.061(3) 0.048(3) 0.140(5) 0.010(3) 0.036(3) 0.013(2)
C5 0.073(3) 0.036(3) 0.111(5) 0.014(3) 0.026(3) 0.021(2)
C6 0.073(3) 0.048(3) 0.122(5) 0.015(3) 0.040(3) 0.019(3)
C7 0.059(3) 0.056(3) 0.091(4) 0.007(3) 0.015(3) 0.014(2)
C8 0.078(4) 0.037(3) 0.148(6) -0.018(3) 0.033(4) -0.025(3)
C9 0.076(4) 0.104(5) 0.114(5) -0.005(4) -0.012(4) -0.044(4)
C10 0.081(4) 0.096(4) 0.063(3) 0.006(3) -0.008(3) -0.028(3)
C11 0.055(2) 0.035(2) 0.059(3) 0.000(2) 0.005(2) -0.0059(19)
C12 0.074(3) 0.067(3) 0.084(4) 0.016(3) 0.005(3) -0.020(3)
C13 0.093(4) 0.065(4) 0.111(5) 0.028(3) 0.015(4) -0.020(3)
C14 0.052(2) 0.035(2) 0.047(3) 0.0005(19) -0.002(2) -0.0045(18)
C15 0.056(3) 0.093(4) 0.037(3) -0.010(2) -0.004(2) 0.012(2)
C16 0.042(3) 0.100(4) 0.057(3) -0.009(3) -0.002(2) 0.008(2)
C17 0.040(2) 0.069(3) 0.042(3) 0.004(2) -0.0055(18) -0.002(2)
C18 0.048(2) 0.066(3) 0.045(3) 0.001(2) 0.002(2) 0.000(2)
C19 0.050(2) 0.057(3) 0.045(3) 0.006(2) -0.003(2) 0.006(2)
C20 0.050(3) 0.080(4) 0.050(3) 0.005(3) -0.007(2) -0.012(3)
C21 0.046(3) 0.096(4) 0.041(3) -0.003(3) -0.0072(19) 0.006(3)
C22 0.056(3) 0.070(3) 0.042(3) -0.001(2) -0.004(2) 0.010(2)
C23 0.043(3) 0.097(4) 0.050(3) 0.009(2) -0.010(2) -0.014(2)
C24 0.054(3) 0.077(4) 0.053(3) 0.018(2) -0.002(2) -0.010(2)
C25 0.039(2) 0.061(3) 0.050(3) -0.001(2) -0.0032(19) -0.001(2)
C26 0.053(3) 0.074(3) 0.045(3) 0.005(2) 0.000(2) -0.005(2)
C27 0.057(3) 0.049(3) 0.042(2) 0.000(2) -0.003(2) -0.005(2)
C28 0.044(2) 0.045(3) 0.053(3) 0.004(2) 0.0024(19) -0.0079(19)
C29 0.060(3) 0.051(3) 0.092(4) -0.003(3) 0.017(3) 0.003(2)
C30 0.074(3) 0.046(3) 0.128(5) -0.002(3) 0.037(3) 0.017(3)
C31 0.072(3) 0.040(3) 0.134(5) 0.010(3) 0.042(3) 0.013(2)
C32 0.063(3) 0.046(3) 0.156(6) -0.003(3) 0.043(3) 0.010(2)
C33 0.060(3) 0.045(3) 0.107(4) 0.003(3) 0.027(3) -0.015(2)
C34 0.085(4) 0.041(3) 0.149(6) 0.000(4) 0.051(4) 0.015(3)
C35 0.068(3) 0.085(5) 0.130(6) 0.035(4) 0.009(4) 0.035(3)
C36 0.076(3) 0.094(4) 0.073(4) 0.006(3) -0.006(3) 0.029(3)
C37 0.052(2) 0.042(2) 0.054(3) 0.002(2) 0.003(2) 0.0059(19)
C38 0.080(3) 0.071(4) 0.069(4) -0.020(3) 0.002(3) 0.013(3)
C39 0.106(5) 0.083(5) 0.100(5) -0.041(4) 0.015(4) 0.023(4)
C40 0.060(3) 0.028(2) 0.048(3) -0.0080(18) 0.000(2) 0.0051(19)

_geom_special_details            
; 
 All esds (except the esd in the dihedral angle between two l.s. planes) 
 are estimated using the full covariance matrix.  The cell esds are taken 
 into account individually in the estimation of esds in distances, angles 
 and torsion angles; correlations between esds in cell parameters are only 
 