####################################################################### 
# 
# This file contains crystal structure data downloaded from the 
# Cambridge Structural Database (CSD) hosted by the Cambridge 
# Crystallographic Data Centre (CCDC).
# 
# Full information about CCDC data access policies and citation 
# guidelines are available at http://www.ccdc.cam.ac.uk/access/V1 
# 
# Audit and citation data items may have been added by the CCDC. 
# Please retain this information to preserve the provenance of 
# this file and to allow appropriate attribution of the data. 
# 
#######################################################################

data_Co_JGHX_3313
_audit_block_doi                 10.5517/ccrxjrx
_database_code_depnum_ccdc_archive 'CCDC 712620'
_audit_update_record             
;
2008-12-04 deposited with the CCDC.	2024-07-13 downloaded from the CCDC.
;

_audit_creation_method           SHELXL-97
_chemical_name_systematic        
;
?
;
_chemical_name_common            ?
_chemical_melting_point          ?
_chemical_formula_moiety         'C5 H9 Co O8, 2(H2 O)'
_chemical_formula_sum            'C5 H13 Co O10'
_chemical_formula_weight         292.08

loop_
_atom_type_symbol
_atom_type_description
_atom_type_scat_dispersion_real
_atom_type_scat_dispersion_imag
_atom_type_scat_source
C C 0.0033 0.0016 'International Tables Vol C Tables 4.2.6.8 and 6.1.1.4'
H H 0.0000 0.0000 'International Tables Vol C Tables 4.2.6.8 and 6.1.1.4'
O O 0.0106 0.0060 'International Tables Vol C Tables 4.2.6.8 and 6.1.1.4'
Co Co 0.3494 0.9721 'International Tables Vol C Tables 4.2.6.8 and 6.1.1.4'

_symmetry_cell_setting           Triclinic
_symmetry_space_group_name_H-M   P-1
_symmetry_space_group_name_Hall  '-P 1'

loop_
_symmetry_equiv_pos_as_xyz
'x, y, z'
'-x, -y, -z'

_cell_length_a                   10.8762(2)
_cell_length_b                   11.1411(1)
_cell_length_c                   11.5084(3)
_cell_angle_alpha                82.8950(10)
_cell_angle_beta                 63.0050(10)
_cell_angle_gamma                62.1500(10)
_cell_volume                     1091.72(4)
_cell_formula_units_Z            4
_cell_measurement_temperature    173(2)
_cell_measurement_reflns_used    3588
_cell_measurement_theta_min      2.00
_cell_measurement_theta_max      25.67

_exptl_crystal_description       prism
_exptl_crystal_colour            brown
_exptl_crystal_size_max          .38
_exptl_crystal_size_mid          .36
_exptl_crystal_size_min          .20
_exptl_crystal_density_meas      ?
_exptl_crystal_density_diffrn    1.777
_exptl_crystal_density_method    'not measured'
_exptl_crystal_F_000             600
_exptl_absorpt_coefficient_mu    1.612
_exptl_absorpt_correction_type   empirical
_exptl_absorpt_process_details   'SADABS (Sheldrick, 1996)'
_exptl_absorpt_correction_T_min  .55
_exptl_absorpt_correction_T_max  .72

_exptl_special_details           
;
?
;

_diffrn_ambient_temperature      173(2)
_diffrn_radiation_wavelength     0.71073
_diffrn_radiation_type           MoK\a
_diffrn_radiation_source         'fine-focus sealed tube'
_diffrn_radiation_monochromator  graphite
_diffrn_measurement_device_type  'Bruker SMART CCD area detector'
_diffrn_measurement_method       'phi and omega scans'
_diffrn_detector_area_resol_mean ?
_diffrn_standards_number         none
_diffrn_standards_interval_count none
_diffrn_standards_interval_time  none
_diffrn_standards_decay_%        none
_diffrn_reflns_number            5967
_diffrn_reflns_av_R_equivalents  0.0244
_diffrn_reflns_av_sigmaI/netI    0.0294
_diffrn_reflns_limit_h_min       -13
_diffrn_reflns_limit_h_max       10
_diffrn_reflns_limit_k_min       -13
_diffrn_reflns_limit_k_max       12
_diffrn_reflns_limit_l_min       -13
_diffrn_reflns_limit_l_max       14
_diffrn_reflns_theta_min         2.00
_diffrn_reflns_theta_max         25.67
_reflns_number_total             4057
_reflns_number_gt                3576
_reflns_threshold_expression     >2sigma(I)

_computing_data_collection       'SMART (Siemens, 1996)'
_computing_cell_refinement       'SMART and SAINT (Siemens, 1994)'
_computing_data_reduction        'XPREP in SHELXTL (Siemens, 1994)'
_computing_structure_solution    SHELXTL
_computing_structure_refinement  SHELXTL
_computing_molecular_graphics    SHELXTL
_computing_publication_material  SHELXTL

_refine_special_details          
;
Refinement of F^2^ against ALL reflections. The weighted R-factor wR and
goodness of fit S are based on F^2^, conventional R-factors R are based
on F, with F set to zero for negative F^2^. The threshold expression of
F^2^ > 2sigma(F^2^) is used only for calculating R-factors(gt) etc. and is
not relevant to the choice of reflections for refinement. R-factors based
on F^2^ are statistically about twice as large as those based on F, and R-
factors based on ALL data will be even larger.
;

_refine_ls_structure_factor_coef Fsqd
_refine_ls_matrix_type           full
_refine_ls_weighting_scheme      calc
_refine_ls_weighting_details     
'calc w=1/[\s^2^(Fo^2^)+(0.1368P)^2^+2.9344P] where P=(Fo^2^+2Fc^2^)/3'
_atom_sites_solution_primary     direct
_atom_sites_solution_secondary   difmap
_atom_sites_solution_hydrogens   geom
_refine_ls_hydrogen_treatment    constr
_refine_ls_extinction_method     SHELXL
_refine_ls_extinction_coef       0.002(2)
_refine_ls_extinction_expression Fc^*^=kFc[1+0.001xFc^2^\l^3^/sin(2\q)]^-1/4^
_refine_ls_number_reflns         4057
_refine_ls_number_parameters     296
_refine_ls_number_restraints     0
_refine_ls_R_factor_ref          0.0646
_refine_ls_R_factor_gt           0.0578
_refine_ls_wR_factor_ref         0.2273
_refine_ls_wR_factor_gt          0.2162
_refine_ls_goodness_of_fit_ref   1.071
_refine_ls_restrained_S_all      1.071
_refine_ls_shift/su_max          0.000
_refine_ls_shift/su_mean         0.000

loop_
_atom_site_label
_atom_site_type_symbol
_atom_site_fract_x
_atom_site_fract_y
_atom_site_fract_z
_atom_site_U_iso_or_equiv
_atom_site_adp_type
_atom_site_occupancy
_atom_site_symmetry_multiplicity
_atom_site_calc_flag
_atom_site_refinement_flags
_atom_site_disorder_assembly
_atom_site_disorder_group
Co1 Co -0.5000 1.0000 0.5000 0.0188(3) Uani 1 2 d S . .
Co2 Co 0.0000 0.5000 1.0000 0.0170(3) Uani 1 2 d S . .
Co3 Co -0.5000 0.5000 1.0000 0.0179(3) Uani 1 2 d S . .
Co4 Co 0.0000 0.0000 0.5000 0.0187(3) Uani 1 2 d S . .
O1 O -0.4444(4) 0.7928(3) 0.5087(3) 0.0310(8) Uani 1 1 d . . .
H1B H -0.4571 0.7817 0.5870 0.037 Uiso 1 1 d R . .
H1A H -0.5013 0.7646 0.5017 0.037 Uiso 1 1 d R . .
O1W O -0.1257(5) 0.4274(4) 0.6150(4) 0.0488(10) Uani 1 1 d . . .
H1D H -0.0563 0.4343 0.6248 0.059 Uiso 1 1 d R . .
H1C H -0.1111 0.4562 0.5403 0.059 Uiso 1 1 d R . .
O2 O -0.7320(4) 1.0639(4) 0.6341(3) 0.0397(9) Uani 1 1 d . . .
H2D H -0.7982 1.0410 0.6383 0.048 Uiso 1 1 d R . .
H2C H -0.7713 1.0977 0.7126 0.048 Uiso 1 1 d R . .
O2W O 0.3984(4) 0.5452(4) 0.6979(4) 0.0460(10) Uani 1 1 d . . .
H2A H 0.4236 0.5511 0.7561 0.055 Uiso 1 1 d R . .
H2B H 0.4100 0.6059 0.6479 0.055 Uiso 1 1 d R . .
O3 O -0.4564(3) 1.0014(3) 0.6630(3) 0.0211(7) Uani 1 1 d . . .
O3W O -0.1357(5) 0.5705(4) 0.3990(4) 0.0530(11) Uani 1 1 d . . .
H3B H -0.2162 0.6476 0.4183 0.064 Uiso 1 1 d R . .
H3A H -0.1309 0.5299 0.3380 0.064 Uiso 1 1 d R . .
O4 O -0.4934(5) 0.8233(3) 0.7498(3) 0.0346(8) Uani 1 1 d . . .
O4W O -0.6110(5) 0.6849(4) 0.4826(4) 0.0504(10) Uani 1 1 d . . .
H4B H -0.6911 0.7612 0.4963 0.061 Uiso 1 1 d R . .
H4A H -0.5499 0.6421 0.4060 0.061 Uiso 1 1 d R . .
O5 O -0.2126(4) 0.8359(3) 1.1314(3) 0.0266(7) Uani 1 1 d . . .
O6 O -0.2118(3) 0.6732(3) 1.0346(3) 0.0222(7) Uani 1 1 d . . .
O7 O 0.1056(4) 0.5649(3) 0.8186(3) 0.0276(7) Uani 1 1 d . . .
H7B H 0.0557 0.6501 0.8160 0.033 Uiso 1 1 d R . .
H7A H 0.1993 0.5516 0.7776 0.033 Uiso 1 1 d R . .
O8 O -0.0467(4) 0.3931(3) 0.9021(3) 0.0266(7) Uani 1 1 d . . .
H8A H -0.1256 0.3795 0.9290 0.032 Uiso 1 1 d R . .
H8B H 0.0277 0.3123 0.8855 0.032 Uiso 1 1 d R . .
O9 O -0.4173(4) 0.5662(3) 0.8156(3) 0.0377(9) Uani 1 1 d . . .
H9B H -0.4418 0.6506 0.8145 0.045 Uiso 1 1 d R . .
H9A H -0.3219 0.5281 0.7594 0.045 Uiso 1 1 d R . .
O10 O -0.5527(4) 0.3864(3) 0.9162(4) 0.0322(8) Uani 1 1 d . . .
H10B H -0.4728 0.3111 0.9057 0.039 Uiso 1 1 d R . .
H10A H -0.6260 0.3658 0.9395 0.039 Uiso 1 1 d R . .
O11 O -0.2825(3) 0.3274(3) 0.9588(3) 0.0221(7) Uani 1 1 d . . .
O12 O -0.2877(4) 0.1623(3) 0.8711(3) 0.0243(7) Uani 1 1 d . . .
O13 O -0.0118(4) -0.1752(3) 0.7592(3) 0.0310(8) Uani 1 1 d . . .
O14 O 0.0386(4) -0.0053(3) 0.6654(3) 0.0223(7) Uani 1 1 d . . .
O15 O -0.2428(4) 0.0912(4) 0.6324(3) 0.0310(8) Uani 1 1 d . . .
H15A H -0.3045 0.0583 0.6479 0.037 Uiso 1 1 d R . .
H15B H -0.2652 0.1169 0.7092 0.037 Uiso 1 1 d R . .
O16 O -0.0010(6) 0.1843(4) 0.4746(4) 0.0518(12) Uani 1 1 d . . .
H16B H -0.0198 0.2486 0.5230 0.062 Uiso 1 1 d R . .
H16A H -0.0383 0.2185 0.4205 0.062 Uiso 1 1 d R . .
C1 C -0.4840(5) 0.9299(4) 0.7561(4) 0.0197(9) Uani 1 1 d . . .
C2 C -0.4969(5) 0.9709(4) 0.8831(4) 0.0180(8) Uani 1 1 d . . .
C3 C -0.3896(5) 0.8756(4) 0.9252(4) 0.0179(8) Uani 1 1 d . . .
H3 H -0.3138 0.7900 0.8736 0.021 Uiso 1 1 calc R . .
C4 C -0.3909(5) 0.9027(4) 1.0406(4) 0.0165(8) Uani 1 1 d . . .
C5 C -0.2635(4) 0.7976(4) 1.0740(4) 0.0160(8) Uani 1 1 d . . .
C6 C -0.2339(5) 0.2029(4) 0.9240(4) 0.0180(8) Uani 1 1 d . . .
C7 C -0.1071(4) 0.0967(4) 0.9581(4) 0.0170(8) Uani 1 1 d . . .
C8 C -0.0011(5) -0.0319(4) 0.8863(4) 0.0155(8) Uani 1 1 d . . .
C9 C 0.1047(5) -0.1267(4) 0.9290(4) 0.0176(8) Uani 1 1 d . . .
H9 H 0.1772 -0.2142 0.8801 0.021 Uiso 1 1 calc R . .
C10 C 0.0080(4) -0.0742(4) 0.7612(4) 0.0162(8) Uani 1 1 d . . .

loop_
_atom_site_aniso_label
_atom_site_aniso_U_11
_atom_site_aniso_U_22
_atom_site_aniso_U_33
_atom_site_aniso_U_23
_atom_site_aniso_U_13
_atom_site_aniso_U_12
Co1 0.0246(5) 0.0205(5) 0.0153(5) 0.0043(3) -0.0124(4) -0.0108(4)
Co2 0.0175(5) 0.0123(5) 0.0221(5) 0.0040(3) -0.0126(4) -0.0045(3)
Co3 0.0173(5) 0.0125(5) 0.0239(5) 0.0045(3) -0.0125(4) -0.0044(4)
Co4 0.0271(5) 0.0193(5) 0.0161(5) 0.0046(3) -0.0145(4) -0.0116(4)
O1 0.048(2) 0.0287(17) 0.0240(16) 0.0074(13) -0.0230(15) -0.0181(15)
O1W 0.054(2) 0.044(2) 0.038(2) -0.0054(17) -0.0092(18) -0.0235(19)
O2 0.0317(18) 0.068(3) 0.0239(17) -0.0085(17) -0.0081(15) -0.0281(19)
O2W 0.046(2) 0.068(3) 0.035(2) 0.0206(18) -0.0260(18) -0.030(2)
O3 0.0298(16) 0.0266(16) 0.0154(14) 0.0064(12) -0.0146(12) -0.0161(13)
O3W 0.054(2) 0.054(2) 0.038(2) -0.0052(18) -0.0268(19) -0.007(2)
O4 0.066(2) 0.0263(17) 0.0285(18) 0.0091(14) -0.0322(18) -0.0247(17)
O4W 0.055(2) 0.033(2) 0.060(3) 0.0057(18) -0.033(2) -0.0110(18)
O5 0.0248(16) 0.0221(16) 0.0322(18) -0.0057(13) -0.0178(14) -0.0035(13)
O6 0.0204(14) 0.0149(14) 0.0354(17) 0.0054(12) -0.0198(13) -0.0051(12)
O7 0.0268(16) 0.0222(16) 0.0302(17) 0.0093(13) -0.0126(14) -0.0103(13)
O8 0.0248(16) 0.0190(15) 0.0409(19) 0.0027(13) -0.0201(14) -0.0085(13)
O9 0.042(2) 0.0196(16) 0.0301(19) 0.0056(14) -0.0054(15) -0.0096(15)
O10 0.0226(16) 0.0193(16) 0.058(2) 0.0007(15) -0.0242(16) -0.0060(13)
O11 0.0193(14) 0.0104(14) 0.0344(17) -0.0030(12) -0.0160(13) -0.0001(12)
O12 0.0262(16) 0.0206(15) 0.0287(17) -0.0017(12) -0.0191(14) -0.0052(13)
O13 0.058(2) 0.0225(16) 0.0293(18) 0.0124(13) -0.0307(17) -0.0230(16)
O14 0.0310(16) 0.0275(16) 0.0165(15) 0.0059(12) -0.0148(13) -0.0165(14)
O15 0.0273(16) 0.044(2) 0.0223(16) -0.0013(14) -0.0121(13) -0.0151(15)
O16 0.109(4) 0.037(2) 0.039(2) 0.0141(17) -0.046(2) -0.046(2)
C1 0.025(2) 0.0140(19) 0.022(2) 0.0013(16) -0.0160(17) -0.0048(16)
C2 0.0195(19) 0.018(2) 0.0152(19) 0.0041(15) -0.0092(16) -0.0073(16)
C3 0.0198(19) 0.0120(18) 0.018(2) 0.0005(15) -0.0092(16) -0.0034(15)
C4 0.023(2) 0.0132(19) 0.0179(19) 0.0033(15) -0.0120(16) -0.0091(16)
C5 0.0138(18) 0.0149(19) 0.0173(19) 0.0010(15) -0.0090(15) -0.0031(15)
C6 0.0175(19) 0.017(2) 0.0172(19) 0.0018(15) -0.0073(16) -0.0069(16)
C7 0.0158(18) 0.019(2) 0.0175(19) 0.0063(15) -0.0105(16) -0.0073(16)
C8 0.0200(19) 0.0111(18) 0.0167(19) 0.0027(14) -0.0117(16) -0.0051(15)
C9 0.0191(19) 0.0133(18) 0.018(2) 0.0013(15) -0.0099(16) -0.0039(16)
C10 0.0162(18) 0.0140(19) 0.019(2) 0.0008(15) -0.0119(16) -0.0030(15)

_geom_special_details            
;
All esds (except the esd in the dihedral angle between two l.s. planes)
are estimated using the full covariance matrix. The cell esds are taken
into account individually in the estimation of esds in distances, angles
and torsion angles; correlations between esds in cell parameters are only
used when they are defined by crystal symmetry. An approximate (isotropic)
treatment of cell esds is used for estimating esds involving l.s. planes.
;

loop_
_geom_bond_atom_site_label_1
_geom_bond_atom_site_label_2
_geom_bond_distance
_geom_bond_site_symmetry_2
_geom_bond_publ_flag
Co1 O2 2.077(3) 2_476 ?
Co1 O2 2.077(3) . ?
Co1 O1 2.097(3) . ?
Co1 O1 2.097(3) 2_476 ?
Co1 O3 2.137(3) . ?
Co1 O3 2.137(3) 2_476 ?
Co2 O8 2.089(3) . ?
Co2 O8 2.089(3) 2_567 ?
Co2 O6 2.096(3) . ?
Co2 O6 2.096(3) 2_567 ?
Co2 O7 2.104(3) 2_567 ?
Co2 O7 2.104(3) . ?
Co3 O10 2.083(3) . ?
Co3 O10 2.083(3) 2_467 ?
Co3 O9 2.087(3) 2_467 ?
Co3 O9 2.087(3) . ?
Co3 O11 2.116(3) . ?
Co3 O11 2.116(3) 2_467 ?
Co4 O16 2.034(4) 2_556 ?
Co4 O16 2.034(4) . ?
Co4 O14 2.116(3) . ?
Co4 O14 2.116(3) 2_556 ?
Co4 O15 2.133(3) . ?
Co4 O15 2.133(3) 2_556 ?
O1 H1B 0.8499 . ?
O1 H1A 0.8501 . ?
O1W H1D 0.8500 . ?
O1W H1C 0.8501 . ?
O2 H2D 0.8499 . ?
O2 H2C 0.8501 . ?
O2W H2A 0.8499 . ?
O2W H2B 0.8499 . ?
O3 C1 1.263(5) . ?
O3W H3B 0.8500 . ?
O3W H3A 0.8500 . ?
O4 C1 1.253(5) . ?
O4W H4B 0.8500 . ?
O4W H4A 0.8500 . ?
O5 C5 1.244(5) . ?
O6 C5 1.280(5) . ?
O7 H7B 0.8501 . ?
O7 H7A 0.8500 . ?
O8 H8A 0.8501 . ?
O8 H8B 0.8500 . ?
O9 H9B 0.8500 . ?
O9 H9A 0.8500 . ?
O10 H10B 0.8499 . ?
O10 H10A 0.8501 . ?
O11 C6 1.275(5) . ?
O12 C6 1.247(5) . ?
O13 C10 1.244(5) . ?
O14 C10 1.270(5) . ?
O15 H15A 0.8500 . ?
O15 H15B 0.8502 . ?
O16 H16B 0.8500 . ?
O16 H16A 0.8500 . ?
C1 C2 1.511(6) . ?
C2 C3 1.397(6) . ?
C2 C4 1.405(6) 2_477 ?
C3 C4 1.391(6) . ?
C3 H3 0.9500 . ?
C4 C2 1.405(6) 2_477 ?
C4 C5 1.514(5) . ?
C6 C7 1.519(5) . ?
C7 C9 1.396(6) 2_557 ?
C7 C8 1.397(6) . ?
C8 C9 1.389(5) . ?
C8 C10 1.516(5) . ?
C9 C7 1.396(6) 2_557 ?
C9 H9 0.9500 . ?

loop_
_geom_angle_atom_site_label_1
_geom_angle_atom_site_label_2
_geom_angle_atom_site_label_3
_geom_angle
_geom_angle_site_symmetry_1
_geom_angle_site_symmetry_3
_geom_angle_publ_flag
O2 Co1 O2 180.0 2_476 . ?
O2 Co1 O1 87.15(15) 2_476 . ?
O2 Co1 O1 92.85(15) . . ?
O2 Co1 O1 92.85(15) 2_476 2_476 ?
O2 Co1 O1 87.15(15) . 2_476 ?
O1 Co1 O1 180.0 . 2_476 ?
O2 Co1 O3 92.59(12) 2_476 . ?
O2 Co1 O3 87.41(12) . . ?
O1 Co1 O3 90.87(12) . . ?
O1 Co1 O3 89.13(12) 2_476 . ?
O2 Co1 O3 87.41(12) 2_476 2_476 ?
O2 Co1 O3 92.59(12) . 2_476 ?
O1 Co1 O3 89.13(12) . 2_476 ?
O1 Co1 O3 90.87(12) 2_476 2_476 ?
O3 Co1 O3 180.000(1) . 2_476 ?
O8 Co2 O8 180.000(1) . 2_567 ?
O8 Co2 O6 89.93(12) . . ?
O8 Co2 O6 90.07(12) 2_567 . ?
O8 Co2 O6 90.07(12) . 2_567 ?
O8 Co2 O6 89.93(12) 2_567 2_567 ?
O6 Co2 O6 180.00(19) . 2_567 ?
O8 Co2 O7 92.54(13) . 2_567 ?
O8 Co2 O7 87.46(13) 2_567 2_567 ?
O6 Co2 O7 91.34(12) . 2_567 ?
O6 Co2 O7 88.66(12) 2_567 2_567 ?
O8 Co2 O7 87.46(13) . . ?
O8 Co2 O7 92.54(13) 2_567 . ?
O6 Co2 O7 88.66(12) . . ?
O6 Co2 O7 91.34(12) 2_567 . ?
O7 Co2 O7 180.000(1) 2_567 . ?
O10 Co3 O10 180.000(1) . 2_467 ?
O10 Co3 O9 93.59(15) . 2_467 ?
O10 Co3 O9 86.41(15) 2_467 2_467 ?
O10 Co3 O9 86.41(15) . . ?
O10 Co3 O9 93.59(15) 2_467 . ?
O9 Co3 O9 180.000(1) 2_467 . ?
O10 Co3 O11 89.46(12) . . ?
O10 Co3 O11 90.54(12) 2_467 . ?
O9 Co3 O11 86.26(13) 2_467 . ?
O9 Co3 O11 93.74(13) . . ?
O10 Co3 O11 90.54(12) . 2_467 ?
O10 Co3 O11 89.46(12) 2_467 2_467 ?
O9 Co3 O11 93.74(13) 2_467 2_467 ?
O9 Co3 O11 86.26(13) . 2_467 ?
O11 Co3 O11 180.000(1) . 2_467 ?
O16 Co4 O16 180.0(2) 2_556 . ?
O16 Co4 O14 91.87(13) 2_556 . ?
O16 Co4 O14 88.13(13) . . ?
O16 Co4 O14 88.13(13) 2_556 2_556 ?
O16 Co4 O14 91.87(13) . 2_556 ?
O14 Co4 O14 180.0 . 2_556 ?
O16 Co4 O15 87.69(17) 2_556 . ?
O16 Co4 O15 92.31(17) . . ?
O14 Co4 O15 86.92(12) . . ?
O14 Co4 O15 93.08(12) 2_556 . ?
O16 Co4 O15 92.31(17) 2_556 2_556 ?
O16 Co4 O15 87.69(17) . 2_556 ?
O14 Co4 O15 93.08(12) . 2_556 ?
O14 Co4 O15 86.92(12) 2_556 2_556 ?
O15 Co4 O15 180.0 . 2_556 ?
Co1 O1 H1B 102.6 . . ?
Co1 O1 H1A 120.0 . . ?
H1B O1 H1A 103.9 . . ?
H1D O1W H1C 99.9 . . ?
Co1 O2 H2D 131.3 . . ?
Co1 O2 H2C 123.4 . . ?
H2D O2 H2C 102.1 . . ?
H2A O2W H2B 105.9 . . ?
C1 O3 Co1 123.0(3) . . ?
H3B O3W H3A 105.0 . . ?
H4B O4W H4A 120.9 . . ?
C5 O6 Co2 130.8(3) . . ?
Co2 O7 H7B 113.1 . . ?
Co2 O7 H7A 127.9 . . ?
H7B O7 H7A 101.4 . . ?
Co2 O8 H8A 129.2 . . ?
Co2 O8 H8B 103.7 . . ?
H8A O8 H8B 102.6 . . ?
Co3 O9 H9B 116.3 . . ?
Co3 O9 H9A 122.8 . . ?
H9B O9 H9A 102.9 . . ?
Co3 O10 H10B 95.2 . . ?
Co3 O10 H10A 136.6 . . ?
H10B O10 H10A 105.1 . . ?
C6 O11 Co3 129.9(3) . . ?
C10 O14 Co4 126.5(3) . . ?
Co4 O15 H15A 126.6 . . ?
Co4 O15 H15B 114.4 . . ?
H15A O15 H15B 102.3 . . ?
Co4 O16 H16B 136.3 . . ?
Co4 O16 H16A 105.5 . . ?
H16B O16 H16A 109.1 . . ?
O4 C1 O3 125.3(4) . . ?
O4 C1 C2 117.0(4) . . ?
O3 C1 C2 117.6(4) . . ?
C3 C2 C4 119.2(4) . 2_477 ?
C3 C2 C1 117.0(4) . . ?
C4 C2 C1 123.9(4) 2_477 . ?
C4 C3 C2 121.8(4) . . ?
C4 C3 H3 119.1 . . ?
C2 C3 H3 119.1 . . ?
C3 C4 C2 119.1(4) . 2_477 ?
C3 C4 C5 118.2(4) . . ?
C2 C4 C5 122.6(4) 2_477 . ?
O5 C5 O6 124.8(4) . . ?
O5 C5 C4 119.6(4) . . ?
O6 C5 C4 115.6(3) . . ?
O12 C6 O11 125.2(4) . . ?
O12 C6 C7 118.3(4) . . ?
O11 C6 C7 116.4(4) . . ?
C9 C7 C8 119.3(4) 2_557 . ?
C9 C7 C6 118.0(4) 2_557 . ?
C8 C7 C6 122.5(4) . . ?
C9 C8 C7 119.0(4) . . ?
C9 C8 C10 117.4(3) . . ?
C7 C8 C10 123.6(3) . . ?
C8 C9 C7 121.6(4) . 2_557 ?
C8 C9 H9 119.2 . . ?
C7 C9 H9 119.2 2_557 . ?
O13 C10 O14 125.0(4) . . ?
O13 C10 C8 117.7(4) . . ?
O14 C10 C8 117.2(3) . . ?

loop_
_geom_torsion_atom_site_label_1
_geom_torsion_atom_site_label_2
_geom_torsion_atom_site_label_3
_geom_torsion_atom_site_label_4
_geom_torsion
_geom_torsion_site_symmetry_1
_geom_torsion_site_symmetry_2
_geom_torsion_site_symmetry_3
_geom_torsion_site_symmetry_4
_geom_torsion_publ_flag
O2 Co1 O3 C1 -120.8(3) 2_476 . . . ?
O2 Co1 O3 C1 59.2(3) . . . . ?
O1 Co1 O3 C1 -33.6(3) . . . . ?
O1 Co1 O3 C1 146.4(3) 2_476 . . . ?
O8 Co2 O6 C5 -166.9(4) . . . . ?
O8 Co2 O6 C5 13.1(4) 2_567 . . . ?
O7 Co2 O6 C5 100.6(4) 2_567 . . . ?
O7 Co2 O6 C5 -79.4(4) . . . . ?
O10 Co3 O11 C6 -13.0(4) . . . . ?
O10 Co3 O11 C6 167.0(4) 2_467 . . . ?
O9 Co3 O11 C6 80.6(4) 2_467 . . . ?
O9 Co3 O11 C6 -99.4(4) . . . . ?
O16 Co4 O14 C10 -22.7(3) 2_556 . . . ?
O16 Co4 O14 C10 157.3(3) . . . . ?
O15 Co4 O14 C10 64.9(3) . . . . ?
O15 Co4 O14 C10 -115.1(3) 2_556 . . . ?
Co1 O3 C1 O4 22.8(6) . . . . ?
Co1 O3 C1 C2 -161.2(3) . . . . ?
O4 C1 C2 C3 57.4(5) . . . . ?
O3 C1 C2 C3 -118.9(4) . . . . ?
O4 C1 C2 C4 -122.5(5) . . . 2_477 ?
O3 C1 C2 C4 61.2(6) . . . 2_477 ?
C4 C2 C3 C4 -0.1(7) 2_477 . . . ?
C1 C2 C3 C4 180.0(4) . . . . ?
C2 C3 C4 C2 0.1(7) . . . 2_477 ?
C2 C3 C4 C5 -175.8(4) . . . . ?
Co2 O6 C5 O5 -19.0(6) . . . . ?
Co2 O6 C5 C4 158.1(3) . . . . ?
C3 C4 C5 O5 145.7(4) . . . . ?
C2 C4 C5 O5 -30.1(6) 2_477 . . . ?
C3 C4 C5 O6 -31.6(5) . . . . ?
C2 C4 C5 O6 152.6(4) 2_477 . . . ?
Co3 O11 C6 O12 21.8(6) . . . . ?
Co3 O11 C6 C7 -154.3(3) . . . . ?
O12 C6 C7 C9 -145.7(4) . . . 2_557 ?
O11 C6 C7 C9 30.7(5) . . . 2_557 ?
O12 C6 C7 C8 29.8(6) . . . . ?
O11 C6 C7 C8 -153.8(4) . . . . ?
C9 C7 C8 C9 -0.2(7) 2_557 . . . ?
C6 C7 C8 C9 -175.6(4) . . . . ?
C9 C7 C8 C10 -179.0(4) 2_557 . . . ?
C6 C7 C8 C10 5.6(6) . . . . ?
C7 C8 C9 C7 0.2(7) . . . 2_557 ?
C10 C8 C9 C7 179.0(4) . . . 2_557 ?
Co4 O14 C10 O13 19.5(6) . . . . ?
Co4 O14 C10 C8 -162.1(3) . . . . ?
C9 C8 C10 O13 60.2(5) . . . . ?
C7 C8 C10 O13 -121.0(4) . . . . ?
C9 C8 C10 O14 -118.4(4) . . . . ?
C7 C8 C10 O14 60.4(5) . . . . ?

loop_
_geom_hbond_atom_site_label_D
_geom_hbond_atom_site_label_H
_geom_hbond_atom_site_label_A
_geom_hbond_distance_DH
_geom_hbond_distance_HA
_geom_hbond_distance_DA
_geom_hbond_angle_DHA
_geom_hbond_site_symmetry_A
O1 H1B O4 0.85 1.80 2.611(4) 158.1 .
O1 H1A O4W 0.85 1.88 2.728(5) 174.4 .
O1W H1D O3W 0.85 1.95 2.784(6) 165.4 2_566
O3W H3A O7 0.85 2.05 2.896(5) 175.6 2_566
O4W H4A O2W 0.85 2.03 2.766(6) 144.7 2_566
O1W H1C O3W 0.85 1.98 2.799(6) 163.0 .
O2 H2D O14 0.85 1.96 2.804(5) 174.6 1_465
O2 H2C O5 0.85 1.93 2.744(5) 160.0 2_477
O2W H2A O9 0.85 2.21 2.981(5) 151.6 1_655
O2W H2A O10 0.85 2.45 2.993(5) 122.8 1_655
O2W H2B O4W 0.85 2.06 2.775(5) 141.6 1_655
O3W H3B O1 0.85 2.04 2.856(5) 159.6 .
O4W H4B O15 0.85 2.16 2.809(5) 132.7 2_466
O7 H7B O13 0.85 1.88 2.707(4) 163.5 1_565
O7 H7A O2W 0.85 1.90 2.743(5) 172.1 .
O8 H8A O11 0.85 1.93 2.765(4) 169.2 .
O8 H8B O5 0.85 1.85 2.673(4) 161.8 2_567
O9 H9B O4 0.85 1.89 2.698(5) 157.4 .
O9 H9A O1W 0.85 1.89 2.726(5) 167.0 .
O10 H10B O12 0.85 1.81 2.655(4) 172.4 .
O10 H10B O11 0.85 2.49 2.955(4) 115.0 .
O10 H10A O6 0.85 1.90 2.739(4) 171.1 2_467
O15 H15A O3 0.85 1.96 2.805(4) 170.7 1_545
O15 H15B O12 0.85 1.87 2.715(4) 172.9 .
O16 H16B O1W 0.85 1.92 2.729(5) 158.4 .
O16 H16A O13 0.85 1.95 2.642(5) 138.4 2_556

_diffrn_measured_fraction_theta_max 0.979
_diffrn_reflns_theta_full        25.67
_diffrn_measured_fraction_theta_full 0.979
_refine_diff_density_max         0.388
_refine_diff_density_min         -0.716
_refine_diff_density_rms         0.099
