####################################################################### 
# 
# This file contains crystal structure data downloaded from the 
# Cambridge Structural Database (CSD) hosted by the Cambridge 
# Crystallographic Data Centre (CCDC).
# 
# Full information about CCDC data access policies and citation 
# guidelines are available at http://www.ccdc.cam.ac.uk/access/V1 
# 
# Audit and citation data items may have been added by the CCDC. 
# Please retain this information to preserve the provenance of 
# this file and to allow appropriate attribution of the data. 
# 
#######################################################################

data_Zn3Py
_audit_block_doi                 10.5517/cc12dd40
_database_code_depnum_ccdc_archive 'CCDC 995011'
loop_
_citation_id
_citation_doi
_citation_year
1 10.1039/C4CE00861H 2014
_audit_update_record             
;
2014-05-27 deposited with the CCDC.	2024-07-13 downloaded from the CCDC.
;

_audit_creation_method           SHELXL-2013
_chemical_name_systematic        
;
 ?
;
_chemical_name_common            ?
_chemical_melting_point          ?
_chemical_formula_moiety         '2(C45 H39 N5 O3 Zn), 2(C4 H10 O), C4 H8 O'
_chemical_formula_sum            'C102 H106 N10 O9 Zn2'
_chemical_formula_weight         1746.70

loop_
_atom_type_symbol
_atom_type_description
_atom_type_scat_dispersion_real
_atom_type_scat_dispersion_imag
_atom_type_scat_source
C C 0.0033 0.0016 'International Tables Vol C Tables 4.2.6.8 and 6.1.1.4'
H H 0.0000 0.0000 'International Tables Vol C Tables 4.2.6.8 and 6.1.1.4'
N N 0.0061 0.0033 'International Tables Vol C Tables 4.2.6.8 and 6.1.1.4'
O O 0.0106 0.0060 'International Tables Vol C Tables 4.2.6.8 and 6.1.1.4'
Zn Zn 0.2839 1.4301 'International Tables Vol C Tables 4.2.6.8 and 6.1.1.4'

_space_group_crystal_system      monoclinic
_space_group_IT_number           4
_space_group_name_H-M_alt        'P 21'
_space_group_name_Hall           'P 2yb'

_shelx_space_group_comment       
;
The symmetry employed for this shelxl refinement is uniquely defined
by the following loop, which should always be used as a source of
symmetry information in preference to the above space-group names.
They are only intended as comments.
;

loop_
_space_group_symop_operation_xyz
'x, y, z'
'-x, y+1/2, -z'

_cell_length_a                   14.904(4)
_cell_length_b                   14.159(3)
_cell_length_c                   21.949(5)
_cell_angle_alpha                90
_cell_angle_beta                 99.879(3)
_cell_angle_gamma                90
_cell_volume                     4563.1(19)
_cell_formula_units_Z            2
_cell_measurement_temperature    93(2)
_cell_measurement_reflns_used    12201
_cell_measurement_theta_min      3.00
_cell_measurement_theta_max      27.50

_exptl_crystal_description       rhombic
_exptl_crystal_colour            black
_exptl_crystal_density_meas      ?
_exptl_crystal_density_method    ?
_exptl_crystal_density_diffrn    1.271
_exptl_crystal_F_000             1840
_exptl_transmission_factor_min   ?
_exptl_transmission_factor_max   ?
_exptl_crystal_size_max          0.250
_exptl_crystal_size_mid          0.160
_exptl_crystal_size_min          0.130
_exptl_absorpt_coefficient_mu    0.589
_shelx_estimated_absorpt_T_min   0.867
_shelx_estimated_absorpt_T_max   0.927
_exptl_absorpt_correction_type   numerical
_exptl_absorpt_process_details   'NUMABS (Rigaku, 1999)'
_exptl_absorpt_correction_T_min  0.888
_exptl_absorpt_correction_T_max  0.926

_exptl_special_details           
;
 ?
;

_diffrn_ambient_temperature      93(2)
_diffrn_radiation_wavelength     0.71075
_diffrn_radiation_type           MoK\a
_diffrn_radiation_source         'fine-focus sealed tube'
_diffrn_measurement_device_type  'Rigaku Saturn724'
_diffrn_measurement_method       \w
_diffrn_detector_area_resol_mean 7.111
_diffrn_reflns_number            37583
_diffrn_reflns_av_unetI/netI     0.1064
_diffrn_reflns_av_R_equivalents  0.0795
_diffrn_reflns_limit_h_min       -17
_diffrn_reflns_limit_h_max       19
_diffrn_reflns_limit_k_min       -18
_diffrn_reflns_limit_k_max       18
_diffrn_reflns_limit_l_min       -24
_diffrn_reflns_limit_l_max       27
_diffrn_reflns_theta_min         3.028
_diffrn_reflns_theta_max         27.484
_diffrn_reflns_theta_full        25.242
_diffrn_measured_fraction_theta_max 0.975
_diffrn_measured_fraction_theta_full 0.987
_diffrn_reflns_Laue_measured_fraction_max 0.975
_diffrn_reflns_Laue_measured_fraction_full 0.987
_diffrn_reflns_point_group_measured_fraction_max 0.935
_diffrn_reflns_point_group_measured_fraction_full 0.961
_reflns_number_total             19583
_reflns_number_gt                14216
_reflns_threshold_expression     'I > 2\s(I)'
_reflns_Friedel_coverage         0.842
_reflns_Friedel_fraction_max     0.891
_reflns_Friedel_fraction_full    0.932

_reflns_special_details          
;
 Reflections were merged by SHELXL according to the crystal
 class for the calculation of statistics and refinement.
 
 _reflns_Friedel_fraction is defined as the number of unique
 Friedel pairs measured divided by the number that would be
 possible theoretically, ignoring centric projections and
 systematic absences.
;

_computing_data_collection       'CrystalClear-SM Expert 2.0 r3 (Rigaku, 2009)'
_computing_cell_refinement       'CrystalClear-SM Expert 2.0 r3'
_computing_data_reduction        'CrystalClear-SM Expert 2.0 r3'
_computing_structure_solution    'SIR2004 (Burla, et al., 2005)'
_computing_structure_refinement  'SHELXL-2013 (Sheldrick, 2013)'
_computing_publication_material  'CrystalStructure 4.0 (Rigaku, 2010)'
_computing_molecular_graphics    'CrystalStructure 4.0'

_refine_special_details          
;
 Rigid bond restraints with DELU command were applied to the Uij values.
 Bond length and angle restrains by SAME command were applied to one ester moiety.
 Solvent molecules and part of the ester atoms were solved isotropically. 
 Contributions of disordered solvents on the reflection data were removed
 by the SQUEEZE command in the program PLATON (Spek, 2009). 
;
_refine_ls_structure_factor_coef Fsqd
_refine_ls_matrix_type           full
_refine_ls_weighting_scheme      calc
_refine_ls_weighting_details     
'w=1/[\s^2^(Fo^2^)+(0.1236P)^2^] where P=(Fo^2^+2Fc^2^)/3'
_atom_sites_solution_primary     ?
_atom_sites_solution_secondary   ?
_atom_sites_solution_hydrogens   geom
_refine_ls_hydrogen_treatment    constr
_refine_ls_extinction_method     none
_refine_ls_extinction_coef       .
_refine_ls_abs_structure_details 
;
 Flack x determined using 4168 quotients [(I+)-(I-)]/[(I+)+(I-)]
 (Parsons and Flack (2004), Acta Cryst. A60, s61).
;
_refine_ls_abs_structure_Flack   0.061(11)
_chemical_absolute_configuration ?
_refine_ls_number_reflns         19583
_refine_ls_number_parameters     999
_refine_ls_number_restraints     341
_refine_ls_R_factor_all          0.1002
_refine_ls_R_factor_gt           0.0787
_refine_ls_wR_factor_ref         0.2271
_refine_ls_wR_factor_gt          0.2032
_refine_ls_goodness_of_fit_ref   1.021
_refine_ls_restrained_S_all      1.022
_refine_ls_shift/su_max          0.000
_refine_ls_shift/su_mean         0.000

# SQUEEZE RESULTS (APPEND TO CIF)
# Note: Data are Listed for all Voids in the P1 Unit Cell
# i.e. Centre of Gravity, Solvent Accessible Volume,
# Recovered number of Electrons in the Void and
# Details about the Squeezed Material
loop_
_platon_squeeze_void_nr
_platon_squeeze_void_average_x
_platon_squeeze_void_average_y
_platon_squeeze_void_average_z
_platon_squeeze_void_volume
_platon_squeeze_void_count_electrons
_platon_squeeze_void_content
1 0.303 0.056 0.128 234 24 ' '
2 0.309 0.155 0.530 32 3 ' '
3 0.757 0.333 0.019 8 0 ' '
4 0.696 0.556 0.871 234 24 ' '
5 0.691 0.655 0.470 32 3 ' '
6 0.245 0.830 0.980 7 0 ' '
_platon_squeeze_details          
;
 The asymmetric unit contains a highly disordered tetrahydrofuran molecule,
 and the contribution on the diffraction data was subtracted 
 by the SQUEEZE command in the program PLATON (Spek, 2009).
;

# start Validation Reply Form
_vrf_PLAT222_Zn3Py               
;
PROBLEM: Large Non-Solvent H Uiso(max)/Uiso(min) .. 10.0 Ratio
RESPONSE: One ester moiety showed especially large Uiso value.
 The ester moiety might disorder, though refinement with ester disorder was failed.
;
# end Validation Reply Form

loop_
_atom_site_label
_atom_site_type_symbol
_atom_site_fract_x
_atom_site_fract_y
_atom_site_fract_z
_atom_site_U_iso_or_equiv
_atom_site_adp_type
_atom_site_occupancy
_atom_site_site_symmetry_order
_atom_site_calc_flag
_atom_site_refinement_flags_posn
_atom_site_refinement_flags_adp
_atom_site_refinement_flags_occupancy
_atom_site_disorder_assembly
_atom_site_disorder_group
Zn1 Zn 0.22180(5) 0.32095(5) 0.28706(3) 0.0312(2) Uani 1 1 d . U . . .
N1 N 0.3195(4) 0.3261(5) 0.3613(3) 0.0337(13) Uani 1 1 d . U . . .
C1 C 0.3691(5) 0.2541(6) 0.3972(4) 0.0348(16) Uani 1 1 d . U . . .
C2 C 0.4380(5) 0.2960(6) 0.4436(3) 0.0368(17) Uani 1 1 d . U . . .
C3 C 0.4277(5) 0.3938(6) 0.4352(4) 0.0369(16) Uani 1 1 d . U . . .
C4 C 0.4572(5) 0.4848(6) 0.4593(4) 0.0417(18) Uani 1 1 d . U . . .
C5 C 0.4006(6) 0.5606(5) 0.4202(4) 0.0409(18) Uani 1 1 d . U . . .
H1 H 0.3671 0.6001 0.4459 0.049 Uiso 1 1 calc R U . . .
H2 H 0.4397 0.6017 0.3993 0.049 Uiso 1 1 calc R U . . .
C6 C 0.3351(5) 0.5035(6) 0.3732(4) 0.0386(18) Uani 1 1 d . U . . .
C7 C 0.3553(5) 0.4080(6) 0.3857(4) 0.0331(16) Uani 1 1 d . U . . .
C8 C 0.5032(6) 0.2426(7) 0.4901(4) 0.053(2) Uani 1 1 d . U . . .
H3 H 0.4943 0.2603 0.5318 0.063 Uiso 1 1 calc R U . . .
H4 H 0.5657 0.2577 0.4851 0.063 Uiso 1 1 calc R U . . .
H5 H 0.4926 0.1747 0.4840 0.063 Uiso 1 1 calc R U . . .
O1 O 0.5153(4) 0.5043(5) 0.5064(3) 0.0500(15) Uani 1 1 d . U . . .
C9 C 0.2629(6) 0.5357(6) 0.3306(4) 0.0380(17) Uani 1 1 d . U . . .
C10 C 0.2395(6) 0.6397(6) 0.3115(4) 0.0439(19) Uani 1 1 d . U . . .
H6 H 0.2370 0.6780 0.3494 0.053 Uiso 1 1 calc R U . . .
C11 C 0.1444(6) 0.6297(6) 0.2749(4) 0.0425(17) Uani 1 1 d . U . . .
H7 H 0.1404 0.6666 0.2357 0.051 Uiso 1 1 calc R U . . .
C12 C 0.1370(5) 0.5251(6) 0.2591(4) 0.0389(17) Uani 1 1 d . U . . .
N2 N 0.2039(5) 0.4753(5) 0.2938(3) 0.0350(14) Uani 1 1 d . U . . .
C13 C 0.3091(6) 0.6823(6) 0.2771(4) 0.058(2) Uani 1 1 d D U . . .
H8 H 0.2901 0.7474 0.2644 0.069 Uiso 1 1 calc R U . . .
H9 H 0.3683 0.6862 0.3053 0.069 Uiso 1 1 calc R U . . .
C14 C 0.3209(9) 0.6282(8) 0.2219(5) 0.081(3) Uani 1 1 d D U . . .
H10 H 0.2600 0.6127 0.1982 0.097 Uiso 1 1 calc R U . . .
H11 H 0.3516 0.5678 0.2354 0.097 Uiso 1 1 calc R U . . .
C15 C 0.3768(12) 0.6794(11) 0.1779(9) 0.127(7) Uani 1 1 d D U . . .
O2 O 0.3253(7) 0.7508(7) 0.1469(5) 0.122(4) Uani 1 1 d D U . . .
C16 C 0.3692(14) 0.8101(14) 0.1050(8) 0.159(8) Uani 1 1 d D U . . .
H12 H 0.3873 0.7705 0.0726 0.191 Uiso 1 1 calc R U . . .
H13 H 0.4232 0.8407 0.1286 0.191 Uiso 1 1 calc R U . . .
H14 H 0.3262 0.8584 0.0861 0.191 Uiso 1 1 calc R U . . .
O3 O 0.4492(7) 0.6566(8) 0.1664(5) 0.117(3) Uani 1 1 d D U . . .
C17 C 0.0691(6) 0.6631(7) 0.3091(5) 0.065(3) Uani 1 1 d . U . . .
H15 H 0.0728 0.6279 0.3479 0.078 Uiso 1 1 calc R U . . .
H16 H 0.0097 0.6521 0.2832 0.078 Uiso 1 1 calc R U . . .
H17 H 0.0767 0.7307 0.3182 0.078 Uiso 1 1 calc R U . . .
C18 C 0.0683(5) 0.4851(6) 0.2148(4) 0.0389(17) Uani 1 1 d . U . . .
H18 H 0.0274 0.5285 0.1916 0.047 Uiso 1 1 calc R U . . .
C19 C 0.0524(5) 0.3920(6) 0.2007(3) 0.0324(15) Uani 1 1 d . U . . .
C20 C -0.0193(5) 0.3568(6) 0.1527(3) 0.0373(17) Uani 1 1 d . U . . .
C21 C -0.0102(5) 0.2594(7) 0.1521(3) 0.0375(17) Uani 1 1 d . U . . .
C22 C 0.0653(5) 0.2348(6) 0.2015(4) 0.0346(16) Uani 1 1 d . U . . .
N3 N 0.1025(4) 0.3161(5) 0.2298(3) 0.0351(12) Uani 1 1 d . U . . .
C23 C -0.0841(6) 0.4158(7) 0.1083(4) 0.048(2) Uani 1 1 d . U . . .
H19 H -0.1469 0.3976 0.1106 0.058 Uiso 1 1 calc R U . . .
H20 H -0.0726 0.4054 0.0661 0.058 Uiso 1 1 calc R U . . .
H21 H -0.0750 0.4826 0.1191 0.058 Uiso 1 1 calc R U . . .
C24 C -0.0627(5) 0.1946(7) 0.1119(3) 0.0413(18) Uani 1 1 d . U . . .
C25 C -0.1064(6) 0.1409(7) 0.0750(4) 0.047(2) Uani 1 1 d . U . . .
C26 C -0.1566(6) 0.0842(7) 0.0287(4) 0.046(2) Uani 1 1 d . U . . .
C27 C -0.1230(7) 0.0008(8) 0.0077(4) 0.060(3) Uani 1 1 d . U . . .
H22 H -0.0656 -0.0224 0.0276 0.072 Uiso 1 1 calc R U . . .
C28 C -0.1707(6) -0.0492(7) -0.0413(4) 0.053(2) Uani 1 1 d . U . . .
H23 H -0.1422 -0.1008 -0.0579 0.063 Uiso 1 1 calc R U . . .
C29 C -0.2580(5) -0.0260(6) -0.0665(3) 0.0396(17) Uani 1 1 d . U . . .
C30 C -0.2954(6) 0.0566(7) -0.0444(4) 0.045(2) Uani 1 1 d . U . . .
H24 H -0.3555 0.0757 -0.0617 0.054 Uiso 1 1 calc R U . . .
C31 C -0.2452(5) 0.1094(7) 0.0021(4) 0.046(2) Uani 1 1 d . U . . .
H25 H -0.2717 0.1643 0.0165 0.055 Uiso 1 1 calc R U . . .
C32 C -0.3111(5) -0.0776(6) -0.1199(4) 0.0387(17) Uani 1 1 d . U . . .
C33 C -0.2653(5) -0.1131(5) -0.1640(3) 0.0340(15) Uani 1 1 d . U . . .
H26 H -0.2008 -0.1079 -0.1567 0.041 Uiso 1 1 calc R U . . .
N4 N -0.3051(4) -0.1549(4) -0.2171(3) 0.0341(14) Uani 1 1 d . U . . .
C34 C -0.3982(6) -0.1623(7) -0.2266(4) 0.047(2) Uani 1 1 d . U . . .
H27 H -0.4279 -0.1926 -0.2632 0.056 Uiso 1 1 calc R U . . .
C35 C -0.4499(6) -0.1281(7) -0.1863(4) 0.052(2) Uani 1 1 d . U . . .
H28 H -0.5145 -0.1329 -0.1946 0.063 Uiso 1 1 calc R U . . .
C36 C -0.4046(6) -0.0853(7) -0.1316(4) 0.052(2) Uani 1 1 d . U . . .
H29 H -0.4391 -0.0614 -0.1023 0.062 Uiso 1 1 calc R U . . .
C37 C 0.0937(5) 0.1433(6) 0.2165(4) 0.0387(18) Uani 1 1 d . U . . .
H30 H 0.0599 0.0943 0.1936 0.046 Uiso 1 1 calc R U . . .
C38 C 0.1679(5) 0.1148(5) 0.2624(4) 0.0329(16) Uani 1 1 d . U . . .
C39 C 0.1927(6) 0.0170(6) 0.2779(4) 0.0398(18) Uani 1 1 d . U . . .
C40 C 0.2652(5) 0.0233(6) 0.3251(4) 0.0383(17) Uani 1 1 d . U . . .
C41 C 0.2841(5) 0.1225(6) 0.3383(4) 0.0363(17) Uani 1 1 d . U . . .
N5 N 0.2226(4) 0.1768(6) 0.2983(3) 0.0355(14) Uani 1 1 d . U . . .
C42 C 0.1453(6) -0.0679(6) 0.2467(4) 0.051(2) Uani 1 1 d . U . . .
H31 H 0.1198 -0.1056 0.2771 0.062 Uiso 1 1 calc R U . . .
H32 H 0.1890 -0.1062 0.2288 0.062 Uiso 1 1 calc R U . . .
H33 H 0.0961 -0.0475 0.2139 0.062 Uiso 1 1 calc R U . . .
C43 C 0.3174(7) -0.0590(6) 0.3612(4) 0.053(2) Uani 1 1 d . U . . .
H34 H 0.3232 -0.1115 0.3323 0.063 Uiso 1 1 calc R U . . .
H35 H 0.3795 -0.0377 0.3794 0.063 Uiso 1 1 calc R U . . .
C44 C 0.2690(8) -0.0943(10) 0.4125(7) 0.096(4) Uani 1 1 d . U . . .
H36 H 0.2090 -0.1193 0.3943 0.115 Uiso 1 1 calc R U . . .
H37 H 0.2615 -0.0419 0.4404 0.115 Uiso 1 1 calc R U . . .
H38 H 0.3053 -0.1443 0.4357 0.115 Uiso 1 1 calc R U . . .
C45 C 0.3494(6) 0.1589(6) 0.3847(4) 0.0371(17) Uani 1 1 d . U . . .
H39 H 0.3846 0.1143 0.4109 0.045 Uiso 1 1 calc R U . . .
Zn2 Zn 0.76894(6) 0.18678(6) 0.21747(4) 0.0350(2) Uani 1 1 d . U . . .
N6 N 0.6777(4) 0.1701(5) 0.1393(3) 0.0367(15) Uani 1 1 d . U . . .
C46 C 0.6232(5) 0.2359(6) 0.1050(4) 0.0318(15) Uani 1 1 d . U . . .
C47 C 0.5590(5) 0.1898(6) 0.0585(3) 0.0343(15) Uani 1 1 d . U . . .
C48 C 0.5754(5) 0.0944(6) 0.0686(4) 0.0385(17) Uani 1 1 d . U . . .
C49 C 0.5506(6) -0.0009(6) 0.0440(4) 0.0430(19) Uani 1 1 d . U . . .
C50 C 0.6155(7) -0.0706(6) 0.0838(4) 0.054(2) Uani 1 1 d . U . . .
H40 H 0.6521 -0.1061 0.0579 0.065 Uiso 1 1 calc R U . . .
H41 H 0.5807 -0.1161 0.1049 0.065 Uiso 1 1 calc R U . . .
C51 C 0.6777(5) -0.0085(6) 0.1317(3) 0.0348(16) Uani 1 1 d . U . . .
C52 C 0.6478(5) 0.0859(6) 0.1178(4) 0.0331(16) Uani 1 1 d . U . . .
C53 C 0.4871(6) 0.2375(7) 0.0104(4) 0.048(2) Uani 1 1 d . U . . .
H42 H 0.4263 0.2170 0.0163 0.057 Uiso 1 1 calc R U . . .
H43 H 0.4968 0.2198 -0.0311 0.057 Uiso 1 1 calc R U . . .
H44 H 0.4920 0.3062 0.0153 0.057 Uiso 1 1 calc R U . . .
O4 O 0.4931(5) -0.0238(5) 0.0009(3) 0.0586(17) Uani 1 1 d . U . . .
C54 C 0.7476(6) -0.0323(7) 0.1759(4) 0.0441(19) Uani 1 1 d . U . . .
C55 C 0.7851(8) -0.1283(7) 0.1915(4) 0.059(3) Uani 1 1 d . U . . .
H45 H 0.7317 -0.1678 0.1973 0.071 Uiso 1 1 calc R U . . .
C56 C 0.8412(8) -0.1145(7) 0.2576(4) 0.067(3) Uani 1 1 d . U . . .
H46 H 0.8996 -0.1507 0.2635 0.081 Uiso 1 1 calc R U . . .
C57 C 0.8570(6) -0.0103(7) 0.2576(4) 0.047(2) Uani 1 1 d . U . . .
N7 N 0.7968(5) 0.0354(6) 0.2144(3) 0.0422(15) Uani 1 1 d . U . . .
C58 C 0.8319(10) -0.1825(12) 0.1465(7) 0.111(5) Uiso 1 1 d D . . . .
H47 H 0.8457 -0.2478 0.1613 0.133 Uiso 1 1 calc R U . . .
H48 H 0.7928 -0.1852 0.1052 0.133 Uiso 1 1 calc R U . . .
C59 C 0.9066(10) -0.1363(12) 0.1438(7) 0.110(5) Uiso 1 1 d D . . . .
H49 H 0.9355 -0.1143 0.1854 0.132 Uiso 1 1 calc R U . . .
H50 H 0.8944 -0.0810 0.1160 0.132 Uiso 1 1 calc R U . . .
C60 C 0.9741(15) -0.2158(19) 0.1155(10) 0.203(14) Uani 1 1 d D U . . .
O5 O 1.0333(8) -0.1580(10) 0.0916(5) 0.139(5) Uani 1 1 d D U . . .
C61 C 1.1075(16) -0.219(3) 0.0717(11) 0.29(2) Uani 1 1 d D U . . .
H51 H 1.1003 -0.2847 0.0847 0.432 Uiso 1 1 calc R U . . .
H52 H 1.1675 