####################################################################### 
# 
# This file contains crystal structure data downloaded from the 
# Cambridge Structural Database (CSD) hosted by the Cambridge 
# Crystallographic Data Centre (CCDC).
# 
# Full information about CCDC data access policies and citation 
# guidelines are available at http://www.ccdc.cam.ac.uk/access/V1 
# 
# Audit and citation data items may have been added by the CCDC. 
# Please retain this information to preserve the provenance of 
# this file and to allow appropriate attribution of the data. 
# 
#######################################################################

data_sad
_audit_block_doi                 10.5517/cc12k683
_database_code_depnum_ccdc_archive 'CCDC 999634'
loop_
_citation_id
_citation_doi
_citation_year
1 10.1039/C4CC03308F 2014
_audit_update_record             
;
2014-06-25 deposited with the CCDC.	2024-07-13 downloaded from the CCDC.
;
_audit_creation_date             2014-06-02
_audit_creation_method           
;
Olex2 1.2
(compiled 2014.03.20 svn.r2914 for OlexSys, GUI svn.r4816)
;
_shelxl_version_number           2014-3
_chemical_name_common            ?
_chemical_name_systematic        
;
 ?
;
_chemical_formula_moiety         'C104 H100 Cd2 Fe2 N8 O13'
_chemical_formula_sum            'C104 H100 Cd2 Fe2 N8 O13'
_chemical_formula_weight         2006.41
_chemical_absolute_configuration rmad
_chemical_melting_point          ?
loop_
_atom_type_symbol
_atom_type_description
_atom_type_scat_dispersion_real
_atom_type_scat_dispersion_imag
_atom_type_scat_source
C C 0.0181 0.0091 'International Tables Vol C Tables 4.2.6.8 and 6.1.1.4'
H H 0.0000 0.0000 'International Tables Vol C Tables 4.2.6.8 and 6.1.1.4'
Cd Cd 0.1185 4.6533 'International Tables Vol C Tables 4.2.6.8 and 6.1.1.4'
Fe Fe -1.1336 3.1974 'International Tables Vol C Tables 4.2.6.8 and 6.1.1.4'
N N 0.0311 0.0180 'International Tables Vol C Tables 4.2.6.8 and 6.1.1.4'
O O 0.0492 0.0322 'International Tables Vol C Tables 4.2.6.8 and 6.1.1.4'

_shelx_space_group_comment       
;
The symmetry employed for this shelxl refinement is uniquely defined
by the following loop, which should always be used as a source of
symmetry information in preference to the above space-group names.
They are only intended as comments.
;
_space_group_crystal_system      orthorhombic
_space_group_IT_number           22
_space_group_name_H-M_alt        'F 2 2 2'
_space_group_name_Hall           'F 2 2'
loop_
_space_group_symop_operation_xyz
'x, y, z'
'-x, -y, z'
'x, -y, -z'
'-x, y, -z'
'x, y+1/2, z+1/2'
'-x, -y+1/2, z+1/2'
'x, -y+1/2, -z+1/2'
'-x, y+1/2, -z+1/2'
'x+1/2, y, z+1/2'
'-x+1/2, -y, z+1/2'
'x+1/2, -y, -z+1/2'
'-x+1/2, y, -z+1/2'
'x+1/2, y+1/2, z'
'-x+1/2, -y+1/2, z'
'x+1/2, -y+1/2, -z'
'-x+1/2, y+1/2, -z'

_cell_length_a                   19.2468(5)
_cell_length_b                   54.9054(13)
_cell_length_c                   64.1439(16)
_cell_angle_alpha                90
_cell_angle_beta                 90
_cell_angle_gamma                90
_cell_volume                     67784(3)
_cell_formula_units_Z            16
_cell_measurement_reflns_used    9644
_cell_measurement_temperature    296(2)
_cell_measurement_theta_max      67.43
_cell_measurement_theta_min      2.76
_shelx_estimated_absorpt_T_max   ?
_shelx_estimated_absorpt_T_min   ?
_exptl_absorpt_coefficient_mu    3.629
_exptl_absorpt_correction_T_max  ?
_exptl_absorpt_correction_T_min  ?
_exptl_absorpt_correction_type   none
_exptl_absorpt_process_details   ?
_exptl_crystal_colour            ?
_exptl_crystal_density_diffrn    0.786
_exptl_crystal_density_meas      .
_exptl_crystal_density_method    ?
_exptl_crystal_description       ?
_exptl_crystal_F_000             16512
_exptl_crystal_size_max          ?
_exptl_crystal_size_mid          ?
_exptl_crystal_size_min          ?
_exptl_special_details           
;
 ?
;
_exptl_transmission_factor_max   ?
_exptl_transmission_factor_min   ?
_diffrn_reflns_av_R_equivalents  0.0401
_diffrn_reflns_av_unetI/netI     0.0490
_diffrn_reflns_Laue_measured_fraction_full 0.944
_diffrn_reflns_Laue_measured_fraction_max 0.941
_diffrn_reflns_limit_h_max       23
_diffrn_reflns_limit_h_min       -21
_diffrn_reflns_limit_k_max       63
_diffrn_reflns_limit_k_min       -61
_diffrn_reflns_limit_l_max       74
_diffrn_reflns_limit_l_min       -64
_diffrn_reflns_number            83697
_diffrn_reflns_point_group_measured_fraction_full 0.931
_diffrn_reflns_point_group_measured_fraction_max 0.929
_diffrn_reflns_theta_full        67.679
_diffrn_reflns_theta_max         67.893
_diffrn_reflns_theta_min         1.609
_diffrn_ambient_temperature      296.15
_diffrn_detector_area_resol_mean ?
_diffrn_measured_fraction_theta_full 0.944
_diffrn_measured_fraction_theta_max 0.941
_diffrn_measurement_device_type  'CCD area detector'
_diffrn_measurement_method       'phi and omega scans'
_diffrn_radiation_monochromator  graphite
_diffrn_radiation_type           CuK\a
_diffrn_radiation_wavelength     1.54178
_diffrn_source                   ?
_reflns_Friedel_coverage         0.873
_reflns_Friedel_fraction_full    0.918
_reflns_Friedel_fraction_max     0.915
_reflns_number_gt                24133
_reflns_number_total             28626
_reflns_special_details          
;
 Reflections were merged by SHELXL according to the crystal
 class for the calculation of statistics and refinement.
 
 _reflns_Friedel_fraction is defined as the number of unique
 Friedel pairs measured divided by the number that would be
 possible theoretically, ignoring centric projections and
 systematic absences.
;
_reflns_threshold_expression     'I > 2\s(I)'
_computing_cell_refinement       ?
_computing_data_collection       ?
_computing_data_reduction        ?
_computing_molecular_graphics    'Olex2 (Dolomanov et al., 2009)'
_computing_publication_material  'Olex2 (Dolomanov et al., 2009)'
_computing_structure_refinement  'ShelXL (Sheldrick, 2008)'
_computing_structure_solution    ?
_refine_diff_density_max         1.502
_refine_diff_density_min         -1.148
_refine_diff_density_rms         0.235
_refine_ls_abs_structure_details 
;
 Flack x determined using 10058 quotients [(I+)-(I-)]/[(I+)+(I-)]
 (Parsons, Flack and Wagner, Acta Cryst. B69 (2013) 249-259).
;
_refine_ls_abs_structure_Flack   0.080(5)
_refine_ls_extinction_coef       .
_refine_ls_extinction_method     none
_refine_ls_goodness_of_fit_ref   1.070
_refine_ls_hydrogen_treatment    constr
_refine_ls_matrix_type           full
_refine_ls_number_parameters     1079
_refine_ls_number_reflns         28626
_refine_ls_number_restraints     50
_refine_ls_R_factor_all          0.0897
_refine_ls_R_factor_gt           0.0778
_refine_ls_restrained_S_all      1.072
_refine_ls_shift/su_max          0.009
_refine_ls_shift/su_mean         0.001
_refine_ls_structure_factor_coef Fsqd
_refine_ls_weighting_details     
'w=1/[\s^2^(Fo^2^)+(0.1880P)^2^+264.1430P] where P=(Fo^2^+2Fc^2^)/3'
_refine_ls_weighting_scheme      calc
_refine_ls_wR_factor_gt          0.2490
_refine_ls_wR_factor_ref         0.2628
_refine_special_details          
;
 ?
;
_olex2_refinement_description    
;
1. Fixed Uiso
 At 1.2 times of:
  All C(H) groups, All C(H,H) groups
 At 1.5 times of:
  All C(H,H,H) groups
2. Restrained distances
 C101-C101_$1
 1.4 with sigma of 0.02
 C31-C30
 1.53 with sigma of 0.02
3. Rigid bond restraints
 C68, C69
 with sigma for 1-2 distances of 0.01 and sigma for 1-3 distances of 0.01
 C68, C70
 with sigma for 1-2 distances of 0.01 and sigma for 1-3 distances of 0.01
 C98, C104, C99
 with sigma for 1-2 distances of 0.01 and sigma for 1-3 distances of 0.01
 C98, C104, C99
 with sigma for 1-2 distances of 0.01 and sigma for 1-3 distances of 0.01
 C98, C104
 with sigma for 1-2 distances of 0.01 and sigma for 1-3 distances of 0.01
 C100, C99
 with sigma for 1-2 distances of 0.01 and sigma for 1-3 distances of 0.01
4. Uiso/Uaniso restraints and constraints
C97 \\sim C92: within 1.7A with sigma of 0.04 and sigma for terminal atoms of
0.08
C100 \\sim C99: within 1.7A with sigma of 0.01 and sigma for terminal atoms of
0.02
C99 \\sim C98: within 1.7A with sigma of 0.01 and sigma for terminal atoms of
0.02
C104 \\sim C98: within 1.7A with sigma of 0.01 and sigma for terminal atoms of
0.02
C104 \\sim C102: within 1.7A with sigma of 0.01 and sigma for terminal atoms of
0.02
Uanis(O11) = Uanis(O12)
Uanis(C96) = Uanis(C91) = Uanis(C93) = Uanis(C94)
Uanis(C71) = Uanis(C69) = Uanis(C70) = Uanis(C47) = Uanis(C45) = Uanis(C46)
Uanis(C102) = Uanis(C100)
Uanis(C32) = Uanis(C31) = Uanis(C33)
5. Rigid body (RIGU) restrains
 C45, C44
 with sigma for 1-2 distances of 0.004 and sigma for 1-3 distances of 0.004
 C100, C99
 with sigma for 1-2 distances of 0.004 and sigma for 1-3 distances of 0.004
 C98, C105
 with sigma for 1-2 distances of 0.004 and sigma for 1-3 distances of 0.004
 C98, C104
 with sigma for 1-2 distances of 0.004 and sigma for 1-3 distances of 0.004
6.a Ternary CH refined with riding coordinates:
 C17(H17), C22(H22), C55(H55), C60(H60)
6.b Secondary CH2 refined with riding coordinates:
 C18(H18A,H18B), C19(H19A,H19B), C20(H20A,H20B), C21(H21A,H21B), C56(H56A,
 H56B), C57(H57A,H57B), C58(H58A,H58B), C59(H59A,H59B)
6.c Aromatic/amide H refined with riding coordinates:
 C1(H1), C2(H2), C3(H3), C5(H5), C11(H11), C13(H13), C16(H16), C23(H23),
 C25(H25), C27(H27), C34(H34), C36(H36), C37(H37), C38(H38), C39(H39), C40(H40),
  C41(H41), C43(H43), C49(H49), C51(H51), C54(H54), C61(H61), C63(H63),
 C65(H65), C72(H72), C74(H74), C75(H75), C76(H76), C78(H78), C79(H79), C81(H81),
  C82(H82), C85(H85), C86(H86), C88(H88), C89(H89), C91(H91), C93(H93),
 C94(H94), C96(H96), C99(H99), C100(H100), C102(H102), C104(H104)
6.d Fitted hexagon refined as free rotating group:
 C91(C92,C93,C94,C95,C96), C98(C99,C100,C101,C102,C104)
6.e Idealised Me refined as rotating group:
 C7(H7A,H7B,H7C), C8(H8A,H8B,H8C), C9(H9A,H9B,H9C), C31(H31A,H31B,H31C),
 C32(H32A,H32B,H32C), C33(H33A,H33B,H33C), C45(H45A,H45B,H45C), C46(H46A,H46B,
 H46C), C47(H47A,H47B,H47C), C69(H69A,H69B,H69C), C70(H70A,H70B,H70C), C71(H71A,
 H71B,H71C)
;
_atom_sites_solution_hydrogens   geom
_atom_sites_solution_primary     ?
_atom_sites_solution_secondary   ?
loop_
_atom_site_label
_atom_site_type_symbol
_atom_site_fract_x
_atom_site_fract_y
_atom_site_fract_z
_atom_site_U_iso_or_equiv
_atom_site_adp_type
_atom_site_occupancy
_atom_site_site_symmetry_order
_atom_site_calc_flag
_atom_site_refinement_flags_posn
_atom_site_refinement_flags_adp
_atom_site_refinement_flags_occupancy
_atom_site_disorder_assembly
_atom_site_disorder_group
Cd1 Cd 0.90140(4) -0.00692(2) 0.86819(2) 0.02918(19) Uani 1 1 d . . . . .
Cd2 Cd 0.65066(4) 0.24403(2) 0.87963(2) 0.0415(2) Uani 1 1 d . . . . .
Fe1 Fe 0.91541(16) -0.13458(4) 0.98910(3) 0.0642(7) Uani 1 1 d . . . . .
Fe2 Fe 0.83253(18) 0.11650(4) 0.73906(3) 0.0721(9) Uani 1 1 d . . . . .
O1 O 0.8519(8) -0.14560(16) 1.01074(14) 0.084(4) Uani 1 1 d . . . . .
O2 O 0.8687(7) -0.10412(16) 0.98722(13) 0.072(3) Uani 1 1 d . . . . .
O3 O 1.0000 -0.1329(3) 1.0000 0.074(4) Uani 1 2 d S T P . .
O4 O 0.8938(7) 0.10320(15) 0.75954(14) 0.078(4) Uani 1 1 d . . . . .
O5 O 0.8845(7) 0.14685(15) 0.73887(13) 0.079(4) Uani 1 1 d . . . . .
O6 O 0.7500 0.1229(2) 0.7500 0.077(5) Uani 1 2 d S T P . .
O7 O 0.9753(4) 0.02635(12) 0.86548(11) 0.0317(15) Uani 1 1 d . . . . .
O8 O 1.0686(4) 0.04713(13) 0.87303(13) 0.045(2) Uani 1 1 d . . . . .
O9 O 0.6757(5) 0.20298(15) 0.87550(15) 0.053(2) Uani 1 1 d . . . . .
O10 O 0.7725(4) 0.22343(13) 0.88157(14) 0.044(2) Uani 1 1 d . . . . .
O11 O 0.5400(5) 0.22796(17) 0.8770(2) 0.084(3) Uani 1 1 d . . . . .
O12 O 0.5460(5) 0.26798(18) 0.8812(2) 0.084(3) Uani 1 1 d . . . . .
O13 O 0.7892(5) -0.02381(17) 0.8698(2) 0.077(3) Uani 1 1 d . . . . .
O14 O 0.7963(3) 0.01627(12) 0.86714(13) 0.0382(16) Uani 1 1 d . . . . .
N1 N 0.8452(6) -0.25734(16) 1.08448(17) 0.052(3) Uani 1 1 d . . . . .
N2 N 0.9071(8) -0.16966(19) 0.97703(17) 0.070(4) Uani 1 1 d . . . . .
N3 N 0.9373(7) -0.12988(19) 0.95702(15) 0.058(3) Uani 1 1 d . . . . .
N4 N 0.9058(5) -0.00164(17) 0.90406(13) 0.040(2) Uani 1 1 d . . . . .
N5 N 0.9046(5) -0.00922(15) 0.83247(13) 0.0393(19) Uani 1 1 d . . . . .
N6 N 0.8174(8) 0.08048(19) 0.72887(15) 0.069(4) Uani 1 1 d . . . . .
N7 N 0.8342(8) 0.12039(19) 0.70618(16) 0.067(4) Uani 1 1 d . . . . .
N8 N 0.8425(9) 0.2493(2) 0.6559(2) 0.084(5) Uani 1 1 d . . . . .
C1 C 0.8424(10) -0.2790(2) 1.0741(2) 0.065(4) Uani 1 1 d . . . . .
H1 H 0.8408 -0.2934 1.0817 0.078 Uiso 1 1 calc R . . . .
C2 C 0.8420(12) -0.2796(2) 1.0531(2) 0.080(6) Uani 1 1 d . . . . .
H2 H 0.8409 -0.2945 1.0462 0.096 Uiso 1 1 calc R . . . .
C3 C 0.8431(11) -0.2579(2) 1.0418(2) 0.076(5) Uani 1 1 d . . . . .
H3 H 0.8403 -0.2582 1.0273 0.092 Uiso 1 1 calc R . . . .
C4 C 0.8487(11) -0.2355(2) 1.0525(2) 0.071(5) Uani 1 1 d . . . . .
C5 C 0.8482(9) -0.2364(2) 1.0741(2) 0.054(3) Uani 1 1 d . . . . .
H5 H 0.8499 -0.2219 1.0815 0.065 Uiso 1 1 calc R . . . .
C6 C 0.7888(9) -0.1458(2) 1.0515(2) 0.059(4) Uani 1 1 d . . . . .
C7 C 0.8475(10) -0.1262(2) 1.0545(2) 0.070(4) Uani 1 1 d . . . . .
H7A H 0.8688 -0.1227 1.0413 0.104 Uiso 1 1 calc GR . . . .
H7B H 0.8820 -0.1323 1.0640 0.104 Uiso 1 1 calc GR . . . .
H7C H 0.8276 -0.1115 1.0601 0.104 Uiso 1 1 calc GR . . . .
C8 C 0.7313(9) -0.1358(3) 1.0379(2) 0.076(4) Uani 1 1 d . . . . .
H8A H 0.7162 -0.1204 1.0433 0.114 Uiso 1 1 calc GR . . . .
H8B H 0.6930 -0.1470 1.0378 0.114 Uiso 1 1 calc GR . . . .
H8C H 0.7483 -0.1337 1.0239 0.114 Uiso 1 1 calc GR . . . .
C9 C 0.7582(9) -0.1520(2) 1.07281(19) 0.061(4) Uani 1 1 d . . . . .
H9A H 0.7924 -0.1604 1.0810 0.092 Uiso 1 1 calc GR . . . .
H9B H 0.7183 -0.1624 1.0710 0.092 Uiso 1 1 calc GR . . . .
H9C H 0.7445 -0.1373 1.0798 0.092 Uiso 1 1 calc GR . . . .
C10 C 0.8230(9) -0.1686(2) 1.0406(2) 0.062(4) Uani 1 1 d . . . . .
C11 C 0.8242(9) -0.1914(2) 1.0502(2) 0.062(4) Uani 1 1 d . . . . .
H11 H 0.8071 -0.1925 1.0637 0.074 Uiso 1 1 calc R . . . .
C12 C 0.8491(10) -0.2123(2) 1.0410(2) 0.066(4) Uani 1 1 d . . . . .
C13 C 0.8740(10) -0.2108(2) 1.0210(2) 0.074(5) Uani 1 1 d . . . . .
H13 H 0.8903 -0.2247 1.0144 0.088 Uiso 1 1 calc R . . . .
C14 C 0.8749(10) -0.1880(2) 1.0104(2) 0.069(5) Uani 1 1 d . . . . .
C15 C 0.8502(12) -0.1665(2) 1.0205(2) 0.079(5) Uani 1 1 d . . . . .
C16 C 0.8977(10) -0.1884(2) 0.9890(2) 0.069(4) Uani 1 1 d . . . . .
H16 H 0.9064 -0.2036 0.9832 0.082 Uiso 1 1 calc R . . . .
C17 C 0.9185(10) -0.1729(2) 0.95462(19) 0.070(4) Uani 1 1 d . . . . .
H17 H 0.8737 -0.1707 0.9476 0.084 Uiso 1 1 calc R . . . .
C18 C 0.9482(11) -0.1975(3) 0.9477(2) 0.082(5) Uani 1 1 d . . . . .
H18A H 0.9934 -0.2000 0.9540 0.099 Uiso 1 1 calc R . . . .
H18B H 0.9178 -0.2105 0.9522 0.099 Uiso 1 1 calc R . . . .
C19 C 0.9548(11) -0.1980(3) 0.9245(2) 0.088(5) Uani 1 1 d . . . . .
H19A H 0.9094 -0.1960 0.9182 0.105 Uiso 1 1 calc R . . . .
H19B H 0.9738 -0.2135 0.9201 0.105 Uiso 1 1 calc R . . . .
C20 C 1.0055(11) -0.1761(3) 0.9171(2) 0.081(5) Uani 1 1 d . . . . .
H20A H 1.0512 -0.1782 0.9232 0.097 Uiso 1 1 calc R . . . .
H20B H 1.0104 -0.1764 0.9020 0.097 Uiso 1 1 calc R . . . .
C21 C 0.9747(10) -0.1520(3) 0.92393(19) 0.073(5) Uani 1 1 d . . . . .
H21A H 0.9295 -0.1497 0.9175 0.088 Uiso 1 1 calc R . . . .
H21B H 1.0047 -0.1388 0.9196 0.088 Uiso 1 1 calc R . . . .
C22 C 0.9670(9) -0.1518(2) 0.94785(19) 0.064(4) Uani 1 1 d . . . . .
H22 H 1.0129 -0.1545 0.9540 0.076 Uiso 1 1 calc R . . . .
C23 C 0.9362(8) -0.1098(3) 0.94727(19) 0.059(4) Uani 1 1 d . . . . .
H23 H 0.9531 -0.1097 0.9337 0.071 Uiso 1 1 calc R . . . .
C24 C 0.9099(10) -0.0862(2) 0.95590(18) 0.061(4) Uani 1 1 d . . . . .
C25 C 0.9170(9) -0.0656(3) 0.94317(19) 0.063(4) Uani 1 1 d . . . . .
H25 H 0.9366 -0.0671 0.9300 0.076 Uiso 1 1 calc R . . . .
C26 C 0.8940(8) -0.0424(2) 0.95039(19) 0.058(3) Uani 1 1 d . . . . .
C27 C 0.8647(9) -0.0416(2) 0.97038(19) 0.064(4) Uani 1 1 d . . . . .
H27 H 0.8507 -0.0265 0.9754 0.077 Uiso 1 1 calc R . . . .
C28 C 0.8550(11) -0.0614(2) 0.9831(2) 0.070(5) Uani 1 1 d . . . . .
C29 C 0.8765(9) -0.0844(2) 0.97590(18) 0.062(4) Uani 1 1 d . . . . .
C30 C 0.8222(13) -0.0595(3) 1.0048(2) 0.110(9) Uani 1 1 d D . . . .
C31 C 0.8798(13) -0.0672(3) 1.0211(2) 0.131(6) Uani 1 1 d D . . . .
H31A H 0.8715 -0.0836 1.0257 0.196 Uiso 1 1 calc GR . . . .
H31B H 0.8782 -0.0564 1.0329 0.196 Uiso 1 1 calc GR . . . .
H31C H 0.9248 -0.0662 1.0147 0.196 Uiso 1 1 calc GR . . . .
C32 C 0.7578(18) -0.0746(3) 1.0065(3) 0.131(6) Uani 1 1 d . . . . .
H32A H 0.7356 -0.0755 0.9932 0.196 Uiso 1 1 calc GR . . . .
H32B H 0.7267 -0.0673 1.0164 0.196 Uiso 1 1 calc GR . . . .
H32C H 0.7698 -0.0907 1.0111 0.196 Uiso 1 1 calc GR . . . .
C33 C 0.8040(15) -0.0329(3) 1.0097(3) 0.131(6) Uani 1 1 d . . . . .
H33A H 0.8380 -0.0224 1.0034 0.196 Uiso 1 1 calc GR . . . .
H33B H 0.8038 -0.0305 1.0245 0.196 Uiso 1 1 calc GR . . . .
H33C H 0.7589 -0.0292 1.0041 0.196 Uiso 1 1 calc GR . . . .
C34 C 0.8969(7) -0.0212(2) 0.91590(17) 0.043(3) Uani 1 1 d . . . . .
H34 H 0.8869 -0.0360 0.9095 0.052 Uiso 1 1 calc R . . . .
C35 C 0.9020(8) -0.0203(2) 0.93787(19) 0.055(3) Uani 1 1 d . . . . .
C36 C 0.9136(10) 0.0019(3) 0.9469(2) 0.071(4) Uani 1 1 d . . . . .
H36 H 0.9181 0.0031 0.9613 0.085 Uiso 1 1 calc R . . . .
C37 C 0.9187(8) 0.0231(2) 0.9344(2) 0.060(4) Uani 1 1 d . . . . .
H37 H 0.9242 0.0384 0.9405 0.073 Uiso 1 1 calc R . . . .
C38 C 0.9152(8) 0.0207(2) 0.91299(18) 0.052(3) Uani 1 1 d . . . . .
H38 H 0.9194 0.0344 0.9046 0.063 Uiso 1 1 calc R . . . .
C39 C 0.9025(9) -0.0302(2) 0.82231(18) 0.051(3) Uani 1 1 d . . . . .
H39 H 0.9028 -0.0446 0.8299 0.061 Uiso 1 1 calc R . . . .
C40 C 0.8998(11) -0.0313(2) 0.80039(19) 0.068(4) Uani 1 1 d . . . . .
H40 H 0.8969 -0.0462 0.7935 0.081 Uiso 1 1 calc R . . . .
C41 C 0.9017(11) -0.0097(2) 0.78939(18) 0.071(5) Uani 1 1 d . . . . .
H41 H 0.9010 -0.0100 0.7749 0.085 Uiso 1 1 calc R . . . .
C42 C 0.9045(8) 0.01235(19) 0.79970(16) 0.046(3) Uani 1 1 d . . . . .
C43 C 0.9042(7) 0.01147(17) 0.82121(16) 0.038(2) Uani 1 1 d . . . . .
H43 H 0.9038 0.0262 0.8284 0.045 Uiso 1 1 calc R . . . .
C44 C 0.9634(10) 0.1022(2) 0.7988(2) 0.070(4) Uani 1 1 d . . . . .
C45 C 1.0187(13) 0.1134(3) 0.7844(3) 0.096(3) Uani 1 1 d . . . . .
H45A H 0.9975 0.1183 0.7715 0.145 Uiso 1 1 calc GR . . . .
H45B H 1.0543 0.1016 0.7817 0.145 Uiso 1 1 calc GR . . . .
H45C H 1.0389 0.1274 0.7911 0.145 Uiso 1 1 calc GR . . . .
C46 C 0.9045(13) 0.1219(3) 0.8033(3) 0.096(3) Uani 1 1 d . . . . .
H46A H 0.9249 0.1359 0.8098 0.145 Uiso 1 1 calc GR . . . .
H46B H 0.8703 0.1150 0.8125 0.145 Uiso 1 1 calc GR . . . .
H46C H 0.8827 0.1265 0.7905 0.145 Uiso 1 1 calc GR . . . .
C47 C 0.9981(14) 0.0953(3) 0.8192(3) 0.096(3) Uani 1 1 d . . . . .
H47A H 1.0358 0.0843 0.8165 0.145 Uiso 1 1 calc GR . . . .
H47B H 0.9649 0.0876 0.8282 0.145 Uiso 1 1 calc GR . . . .
H47C H 1.0157 0.1097 0.8259 0.145 Uiso 1 1 calc GR . . . .
C48 C 0.9302(8) 0.0797(2) 0.78865(17) 0.056(4) Uani 1 1 d . . . . .
C49 C 0.9319(8) 0.0575(2) 0.79746(18) 0.051(3) Uani 1 1 d . . . . .
H49 H 0.9545 0.0559 0.8102 0.061 Uiso 1 1 calc R . . . .
C50 C 0.9018(9) 0.0362(2) 0.78876(17) 0.055(3) Uani 1 1 d . . . . .
C51 C 0.8698(9) 0.0385(2) 0.76962(19) 0.061(4) Uani 1 1 d . . . . .
H51 H 0.8516 0.0248 0.7631 0.073 Uiso 1 1 calc R . . . .
C52 C 0.8643(10) 0.0614(2) 0.75967(19) 0.066(4) Uani 1 1 d . . . . .
C53 C 0.8961(9) 0.0820(2) 0.76883(18) 0.056(3) Uani 1 1 d . . . . .
C54 C 0.8312(10) 0.0612(2) 0.73969(19) 0.069(5) Uani 1 1 d . . . . .
H54 H 0.8188 0.0462 0.7341 0.083 Uiso 1 1 calc R . . . .
C55 C 0.7859(9) 0.0800(2) 0.70792(17) 0.059(4) Uani 1 1 d . . . . .
H55 H 0.7387 0.0866 0.7089 0.071 Uiso 1 1 calc R . . . .
C56 C 0.7817(8) 0.0537(2) 0.69807(19) 0.058(4) Uani 1 1 d . . . . .
H56A H 0.8273 0.0461 0.6981 0.069 Uiso 1 1 calc R . . . .
H56B H 0.7503 0.0436 0.7061 0.069 Uiso 1 1 calc R . . . .
C57 C 0.7555(8) 0.0563(2) 0.67582(17) 0.056(3) Uani 1 1 d . . . . .
H57A H 0.7084 0.0626 0.6761 0.068 Uiso 1 1 calc R . . . .
H57B H 0.7541 0.0404 0.6693 0.068 Uiso 1 1 calc R . . . .
C58 C 0.8004(8) 0.0731(2) 0.66262(17) 0.056(3) Uani 1 1 d . . . . .
H58A H 0.7820 0.0739 0.6486 0.068 Uiso 1 1 calc R . . . .
H58B H 0.8473 0.0667 0.6619 0.068 Uiso 1 1 calc R . . . .
C59 C 0.8021(9) 0.0987(2) 0.67193(18) 0.060(4) Uani 1 1 d . . . . .
H59A H 0.7558 0.1056 0.6718 0.072 Uiso 1 1 calc R . . . .
H59B H 0.8322 0.1090 0.6637 0.072 Uiso 1 1 calc R . . . .
C60 C 0.8296(9) 0.0972(2) 0.69466(17) 0.063(4) Uani 1 1 d . . . . .
H60 H 0.8766 0.0904 0.6940 0.076 Uiso 1 1 calc R . . . .
C61 C 0.8380(10) 0.1405(2) 0.6965(2) 0.068(4) Uani 1 1 d . . . . .
H61 H 0.8321 0.1403 0.6821 0.081 Uiso 1 1 calc R . . . .
C62 C 0.8512(11) 0.1643(2) 0.7067(2) 0.069(4) Uani 1 1 d . . . . .
C63 C 0.8443(13) 0.1847(2) 0.6944(2) 0.086(6) Uani 1 1 d . . . . .
H63 H 0.8262 0.1832 0.6810 0.103 Uiso 1 1 calc R . . . .
C64 C 0.8637(13) 0.2071(3) 0.7017(2) 0.088(7) Uani 1 1 d . . . . .
C65 C 0.8927(13) 0.2096(3) 0.7217(2) 0.095(7) Uani 1 1 d . . . . .
H65 H 0.9069 0.2248 0.7264 0.114 Uiso 1 1 calc R . . . .
C66 C 0.9002(13) 0.1888(3) 0.7349(2) 0.086(6) Uani 1 1 d . . . . .
C67 C 0.8761(12) 0.1654(2) 0.7274(2) 0.081(6) Uani 1 1 d . . . . .
C68 C 0.9302(13) 0.1920(3) 0.7563(2) 0.096(5) Uani 1 1 d . U . . .
C69 C 0.9910(13) 0.1771(3) 0.7600(3) 0.096(3) Uani 1 1 d . U . . .
H69A H 0.9818 0.1607 0.7555 0.145 Uiso 1 1 calc GR . . . .
H69B H 1.0019 0.1771 0.7746 0.145 Uiso 1 1 calc GR . . . .
H69C H 1.0297 0.1835 0.7523 0.145 Uiso 1 1 calc GR . . . .
C70 C 0.8846(12) 0.1827(3) 0.7726(3) 0.096(3) Uani 1 1 d . U . . .
H70A H 0.8412 0.1912 0.7723 0.145 Uiso 1 1 calc GR . . . .
H70B H 0.9061 0.1849 0.7860 0.145 Uiso 1 1 calc GR . . . .
H70C H 0.8764 0.1656 0.7704 0.145 Uiso 1 1 calc GR . . . .
C71 C 0.9490(12) 0.2182(3) 0.7612(3) 0.096(3) Uani 1 1 d . . . . .
H71A H 0.9797 0.2243 0.7506 0.145 Uiso 1 1 calc GR . . . .
H71B H 0.9715 0.2190 0.7745 0.145 Uiso 1 1 calc GR . . . .
H71C H 0.9075 0.2279 0.7615 0.145 Uiso 1 1 calc GR . . . .
C72 C 0.8534(11) 0.2296(2) 0.6681(2) 0.073(5) Uani 1 1 d . . . . .
H72 H 0.8637 0.2149 0.6617 0.088 Uiso 1 1 calc R . . . .
C73 C 0.8501(14) 0.2300(2) 0.6896(3) 0.096(7) Uani 1 1 d . . . . .
C74 C 0.8329(17) 0.2520(4) 0.6989(3) 0.143(12) Uani 1 1 d . . . . .
H74 H 0.8288 0.2524 0.7134 0.171 Uiso 1 1 calc R . . . .
C75 C 0.8207(19) 0.2744(4) 0.6873(3) 0.155(14) Uani 1 1 d . . . . .
H75 H 0.8109 0.2893 0.6935 0.186 Uiso 1 1 calc R . . . .
C76 C 0.8258(13) 0.2705(3) 0.6658(3) 0.103(8) Uani 1 1 d . . . . .
H76 H 0.8168 0.2839 0.6573 0.124 Uiso 1 1 calc R . . . .
C77 C 0.9645(5) 0.06890(16) 0.87140(13) 0.028(2) Uani 1 1 d . . . . .
C78 C 0.8940(6) 0.06941(18) 0.86704(19) 0.044(3) Uani 1 1 d . . . . .
H78 H 0.8704 0.0550 0.8643 0.053 Uiso 1 1 calc R . . . .
C79 C 0.8585(6) 0.09142(18) 0.8668(2) 0.048(3) Uani 1 1 d . . . . .
H79 H 0.8119 0.0916 0.8630 0.058 Uiso 1 1 calc R . . . .
C80 C 0.8912(6) 0.11323(17) 0.87202(14) 0.033(2) Uani 1 1 d . . . . .
C81 C 0.9622(6) 0.11240(19) 0.87667(18) 0.039(2) Uani 1 1 d . . . . .
H81 H 0.9860 0.1267 0.8797 0.046 Uiso 1 1 calc R . . . .
C82 C 0.9969(6) 0.09037(19) 0.87683(18) 0.041(3) Uani 1 1 d . . . . .
H82 H 1.0435 0.0900 0.8807 0.049 Uiso 1 1 calc R . . . .
C83 C 1.0054(5) 0.04600(16) 0.86999(14) 0.027(2) Uani 1 1 d . . . . .
C84 C 0.8530(6) 0.13683(17) 0.87226(14) 0.033(2) Uani 1 1 d . . . . .
C85 C 0.7805(6) 0.13721(19) 0.87135(17) 0.041(3) Uani 1 1 d . . . . .
H85 H 0.7562 0.1227 0.8698 0.049 Uiso 1 1 calc R . . . .
C86 C 0.7447(6) 0.15890(19) 0.87271(17) 0.039(3) Uani 1 1 d . . . . .
H86 H 0.6964 0.1590 0.8722 0.047 Uiso 1 1 calc R . . . .
C87 C 0.7809(5) 0.18046(18) 0.87490(16) 0.032(2) Uani 1 1 d . . . . .
C88 C 0.8521(6) 0.18039(19) 0.8756(2) 0.050(3) Uani 1 1 d . . . . .
H88 H 0.8764 0.1949 0.8773 0.060 Uiso 1 1 calc R . . . .
C89 C 0.8877(6) 0.15844(19) 0.8736(2) 0.053(3) Uani 1 1 d . . . . .
H89 H 0.9360 0.1585 0.8733 0.063 Uiso 1 1 calc R . . . .
C90 C 0.7420(7) 0.20424(19) 0.87746(17) 0.040(3) Uani 1 1 d . . . . .
C91 C 0.6453(4) -0.02357(13) 0.8714(2) 0.082(3) Uani 1 1 d . . . . .
H91 H 0.6678 -0.0385 0.8729 0.098 Uiso 1 1 calc R . . . .
C92 C 0.6837(3) -0.00233(15) 0.86901(19) 0.055(3) Uani 1 1 d G . . . .
C93 C 0.6500(4) 0.01991(13) 0.8668(2) 0.082(3) Uani 1 1 d G . . . .
H93 H 0.6757 0.0341 0.8652 0.098 Uiso 1 1 calc R . . . .
C94 C 0.5779(4) 0.02091(13) 0.8670(2) 0.082(3) Uani 1 1 d G . . . .
H94 H 0.5553 0.0358 0.8655 0.098 Uiso 1 1 calc R . . . .
C95 C 0.5394(3) -0.00034(17) 0.8694(2) 0.073(4) Uani 1 1 d G . . . .
C96 C 0.5731(4) -0.02258(14) 0.8716(2) 0.082(3) Uani 1 1 d G . . . .
H96 H 0.5474 -0.0368 0.8732 0.098 Uiso 1 1 calc R . . . .
C97 C 0.7623(6) -0.0033(2) 0.8686(2) 0.050(3) Uani 1 1 d . . . . .
C98 C 0.4340(3) 0.24978(19) 0.8775(2) 0.094(4) Uani 1 1 d . U . . .
C99 C 0.3974(5) 0.22804(16) 0.8758(3) 0.114(4) Uani 1 1 d G U . . .
H99 H 0.4212 0.2134 0.8747 0.137 Uiso 1 1 calc R . . . .
C100 C 0.3252(5) 0.22824(16) 0.8760(3) 0.104(4) Uani 1 1 d G U . . .
H100 H 0.3007 0.2137 0.8749 0.125 Uiso 1 1 calc R . . . .
C101 C 0.2896(3) 0.2502(2) 0.8777(3) 0.117(9) Uani 1 1 d DG . . . .
C102 C 0.3262(4) 0.27191(17) 0.8793(3) 0.104(4) Uani 1 1 d G . . . .
H102 H 0.3023 0.2866 0.8805 0.125 Uiso 1 1 calc R . . . .
C104 C 0.3984(4) 0.27171(16) 0.8792(2) 0.076(3) Uani 1 1 d G U . . .
H104 H 0.4229 0.2863 0.8803 0.091 Uiso 1 1 calc R . . . .
C105 C 0.5097(8) 0.2489(3) 0.8784(3) 0.083(5) Uani 1 1 d . . . . .

loop_
_atom_site_aniso_label
_atom_site_aniso_U_11
_atom_site_aniso_U_22
_atom_site_aniso_U_33
_atom_site_aniso_U_23
_atom_site_aniso_U_13
_atom_site_aniso_U_12
Cd1 0.0238(3) 0.0256(4) 0.0381(4) 0.0095(3) 0.0027(3) 0.0077(3)
Cd2 0.0297(4) 0.0296(4) 0.0651(6) -0.0164(3) -0.0047(3) 0.0114(3)
Fe1 0.124(2) 0.0373(11) 0.0308(10) 0.0038(7) 0.0208(11) -0.0039(12)
Fe2 0.153(3) 0.0309(10) 0.0322(10) 0.0066(8) -0.0267(13) -0.0018(13)
O1 0.165(12) 0.039(5) 0.047(5) 0.009(4) 0.042(7) 0.005(6)
O2 0.137(11) 0.043(5) 0.037(5) 0.011(4) 0.023(5) 0.001(6)
O3 0.130(14) 0.055(8) 0.036(6) 0.000 0.008(7) 0.000
O4 0.144(11) 0.035(5) 0.055(5) 0.012(4) -0.041(6) -0.008(6)
O5 0.162(12) 0.032(4) 0.043(5) 0.005(4) -0.038(6) -0.007(6)
O6 0.151(15) 0.041(7) 0.040(7) 0.000 -0.008(8) 0.000
O7 0.036(4) 0.021(3) 0.038(4) 0.001(3) 0.006(3) 0.007(3)
O8 0.037(5) 0.029(4) 0.069(5) -0.016(3) -0.011(3) 0.017(3)
O9 0.037(5) 0.042(4) 0.079(6) -0.017(4) -0.005(4) 0.017(4)
O10 0.044(5) 0.020(4) 0.069(5) 0.001(3) 0.015(4) 0.007(3)
O11 0.029(3) 0.045(4) 0.178(8) -0.029(4) -0.001(4) 0.011(3)
O12 0.029(3) 0.045(4) 0.178(8) -0.029(4) -0.001(4) 0.011(3)
O13 0.035(5) 0.042(5) 0.154(10) 0.014(6) 0.011(5) 0.002(4)
O14 0.020(3) 0.036(4) 0.058(4) 0.015(3) 0.008(3) 0.013(3)
N1 0.059(7) 0.030(5) 0.066(6) 0.008(4) 0.022(5) -0.007(5)
N2 0.117(11) 0.043(6) 0.050(6) -0.002(5) 0.034(7) -0.008(6)
N3 0.102(9) 0.039(5) 0.033(5) 0.006(4) 0.013(5) 0.000(5)
N4 0.034(4) 0.048(5) 0.038(4) 0.009(4) 0.008(4) 0.007(4)
N5 0.049(5) 0.030(4) 0.039(5) 0.005(4) -0.002(4) 0.004(5)
N6 0.138(12) 0.037(5) 0.030(5) 0.003(4) -0.028(6) -0.012(6)
N7 0.125(11) 0.041(6) 0.033(5) 0.009(4) -0.023(6) -0.006(6)
N8 0.129(12) 0.042(6) 0.080(8) 0.035(6) -0.047(8) -0.035(7)
C1 0.090(12) 0.033(7) 0.072(9) 0.010(6) 0.021(8) -0.005(7)
C2 0.142(17) 0.034(7) 0.065(9) -0.012(6) 0.031(10) -0.018(9)
C3 0.135(15) 0.039(8) 0.055(8) -0.002(6) 0.026(9) -0.020(9)
C4 0.106(13) 0.035(7) 0.074(9) 0.012(6) 0.037(9) -0.004(8)
C5 0.071(9) 0.034(6) 0.057(7) 0.008(5) 0.021(7) -0.002(6)
C6 0.090(10) 0.033(6) 0.054(7) 0.002(5) 0.020(7) 0.007(6)
C7 0.104(12) 0.034(6) 0.071(9) -0.005(6) 0.030(8) -0.003(7)
C8 0.096(12) 0.071(9) 0.060(9) 0.024(7) 0.020(7) 0.019(8)
C9 0.097(10) 0.034(6) 0.052(7) 0.006(5) 0.028(7) 0.007(6)
C10 0.101(12) 0.033(6) 0.051(7) 0.006(5) 0.027(7) -0.008(7)
C11 0.107(12) 0.036(7) 0.042(7) 0.004(5) 0.022(7) -0.005(7)
C12 0.119(13) 0.026(6) 0.052(7) 0.006(5) 0.016(8) -0.015(7)
C13 0.131(16) 0.024(6) 0.066(9) -0.003(6) 0.024(9) -0.002(7)
C14 0.116(14) 0.037(7) 0.052(8) 0.004(6) 0.019(8) -0.012(7)
C15 0.149(17) 0.043(8) 0.046(8) -0.001(6) 0.029(9) -0.006(10)
C16 0.116(13) 0.042(7) 0.047(7) -0.001(5) 0.021(8) -0.001(8)
C17 0.127(14) 0.050(7) 0.034(6) -0.002(5) 0.020(7) -0.010(8)
C18 0.127(15) 0.060(9) 0.060(9) -0.012(7) 0.036(9) -0.008(9)
C19 0.137(16) 0.076(10) 0.050(8) -0.025(7) 0.026(9) -0.016(10)
C20 0.122(14) 0.078(10) 0.042(7) -0.012(7) 0.023(8) 0.003(9)
C21 0.119(14) 0.070(9) 0.030(6) 0.003(6) 0.021(7) -0.006(9)
C22 0.100(11) 0.055(7) 0.035(6) -0.002(5) 0.017(6) -0.002(7)
C23 0.081(10) 0.062(8) 0.035(6) 0.003(6) 0.012(6) -0.003(7)
C24 0.108(12) 0.046(7) 0.030(6) 0.006(5) 0.011(7) 0.002(8)
C25 0.091(11) 0.062(8) 0.036(6) 0.017(6) 0.004(6) -0.015(8)
C26 0.071(9) 0.059(8) 0.045(7) 0.020(6) 0.002(6) -0.003(7)
C27 0.113(13) 0.040(7) 0.038(6) 0.007(5) 0.012(7) 0.019(7)
C28 0.128(14) 0.047(8) 0.037(7) 0.003(5) 0.022(8) -0.013(9)
C29 0.108(12) 0.046(7) 0.031(6) 0.014(5) 0.012(6) -0.009(7)
C30 0.24(3) 0.042(8) 0.043(9) 0.015(6) 0.057(12) -0.005(11)
C31 0.278(19) 0.058(5) 0.056(6) 0.009(4) 0.064(8) 0.011(8)
C32 0.278(19) 0.058(5) 0.056(6) 0.009(4) 0.064(8) 0.011(8)
C33 0.278(19) 0.058(5) 0.056(6) 0.009(4) 0.064(8) 0.011(8)
C34 0.047(6) 0.043(6) 0.039(6) 0.015(5) 0.008(5) -0.001(6)
C35 0.060(8) 0.058(8) 0.046(7) 0.013(6) 0.004(6) -0.005(7)
C36 0.103(12) 0.069(9) 0.040(7) 0.021(6) -0.003(7) -0.017(9)
C37 0.089(10) 0.030(6) 0.062(8) 0.001(5) 0.013(7) -0.009(6)
C38 0.068(9) 0.050(7) 0.039(6) 0.015(5) 0.015(5) 0.018(6)
C39 0.079(9) 0.029(6) 0.045(6) 0.008(5) -0.009(7) 0.009(6)
C40 0.130(14) 0.028(6) 0.045(7) -0.005(5) -0.026(8) 0.006(8)
C41 0.142(15) 0.040(7) 0.031(6) 0.001(5) -0.021(7) -0.001(9)
C42 0.075(8) 0.027(5) 0.035(5) 0.000(4) -0.010(6) 0.001(6)
C43 0.053(6) 0.018(5) 0.042(6) 0.004(4) -0.007(5) 0.006(5)
C44 0.132(12) 0.035(7) 0.042(6) 0.007(5) -0.035(7) -0.004(7)
C45 0.165(8) 0.053(4) 0.071(4) 0.006(3) -0.037(4) -0.013(4)
C46 0.165(8) 0.053(4) 0.071(4) 0.006(3) -0.037(4) -0.013(4)
C47 0.165(8) 0.053(4) 0.071(4) 0.006(3) -0.037(4) -0.013(4)
C48 0.099(11) 0.043(7) 0.027(6) 0.004(5) -0.009(6) -0.007(7)
C49 0.082(9) 0.036(6) 0.035(6) 0.009(5) -0.011(5) -0.001(6)
C50 0.093(10) 0.040(6) 0.033(6) 0.004(5) -0.015(6) 0.001(7)
C51 0.108(12) 0.036(6) 0.039(6) 0.007(5) -0.028(7) 0.003(7)
C52 0.125(14) 0.039(7) 0.034(6) 0.006(5) -0.020(7) -0.004(7)
C53 0.103(11) 0.027(6) 0.039(6) 0.011(4) -0.013(7) 0.001(7)
C54 0.137(15) 0.033(6) 0.037(7) 0.003(5) -0.032(8) -0.007(7)
C55 0.106(11) 0.039(6) 0.033(6) -0.003(5) -0.025(6) 0.005(6)
C56 0.095(10) 0.032(6) 0.046(7) -0.008(5) -0.024(6) 0.000(6)
C57 0.086(9) 0.048(7) 0.036(6) -0.007(5) -0.016(6) 0.006(6)
C58 0.089(9) 0.047(6) 0.033(6) -0.002(5) -0.022(6) 0.011(6)
C59 0.109(12) 0.040(6) 0.032(6) 0.000(5) -0.019(6) 0.012(6)
C60 0.118(12) 0.039(6) 0.033(6) 0.000(5) -0.029(7) 0.008(7)
C61 0.126(14) 0.039(7) 0.038(6) 0.006(5) -0.021(7) -0.008(7)
C62 0.118(13) 0.040(7) 0.050(8) 0.013(6) -0.016(8) -0.003(8)
C63 0.18(2) 0.037(7) 0.038(7) 0.006(5) -0.019(9) -0.011(9)
C64 0.17(2) 0.043(8) 0.049(8) 0.010(6) -0.029(10) 0.001(10)
C65 0.18(2) 0.048(8) 0.058(9) 0.011(7) -0.030(11) 0.027(11)
C66 0.165(19) 0.043(8) 0.051(8) 0.013(6) -0.029(10) -0.008(10)
C67 0.17(2) 0.031(7) 0.044(7) 0.000(5) -0.023(9) 0.003(8)
C68 0.190(16) 0.045(8) 0.054(9) 0.003(6) -0.045(8) -0.005(9)
C69 0.165(8) 0.053(4) 0.071(4) 0.006(3) -0.037(4) -0.013(4)
C70 0.165(8) 0.053(4) 0.071(4) 0.006(3) -0.037(4) -0.013(4)
C71 0.165(8) 0.053(4) 0.071(4) 0.006(3) -0.037(4) -0.013(4)
C72 0.126(15) 0.037(7) 0.055(8) 0.018(6) -0.029(9) -0.014(9)
C73 0.18(2) 0.028(7) 0.078(11) 0.012(7) -0.032(12) -0.008(10)
C74 0.26(4) 0.075(12) 0.088(14) 0.003(11) -0.073(18) -0.001(18)
C75 0.30(4) 0.087(14) 0.076(13) 0.021(11) -0.088(19) 0.010(19)
C76 0.18(2) 0.041(8) 0.092(13) 0.022(8) -0.065(13) -0.005(10)
C77 0.033(5) 0.022(4) 0.028(5) -0.002(3) -0.001(3) 0.006(4)
C78 0.041(6) 0.025(5) 0.066(7) -0.004(5) -0.012(5) 0.004(4)
C79 0.030(5) 0.027(5) 0.088(8) -0.003(5) -0.015(5) 0.002(4)
C80 0.037(6) 0.026(5) 0.035(5) 0.001(3) -0.008(4) 0.007(4)
C81 0.032(6) 0.029(5) 0.055(6) -0.013(5) -0.014(5) 0.009(4)
C82 0.039(6) 0.035(5) 0.049(6) -0.009(5) -0.017(5) 0.011(5)
C83 0.024(5) 0.027(5) 0.030(5) 0.004(4) 0.005(4) 0.009(4)
C84 0.034(5) 0.028(5) 0.037(6) 0.001(4) -0.006(4) 0.008(4)
C85 0.042(7) 0.026(5) 0.055(7) -0.007(4) -0.018(5) 0.005(4)
C86 0.028(5) 0.030(5) 0.059(7) -0.011(5) -0.008(4) 0.011(4)
C87 0.034(6) 0.027(5) 0.036(5) 0.004(4) -0.003(4) 0.012(4)
C88 0.036(6) 0.021(5) 0.094(9) 0.002(5) 0.003(6) 0.008(4)
C89 0.030(6) 0.024(5) 0.104(10) 0.000(5) -0.011(5) 0.010(4)
C90 0.054(7) 0.032(6) 0.036(5) -0.004(5) -0.003(5) 0.014(5)
C91 0.030(4) 0.049(4) 0.167(8) 0.016(4) -0.008(4) 0.005(3)
C92 0.027(6) 0.037(6) 0.102(10) 0.018(6) -0.005(5) 0.002(5)
C93 0.030(4) 0.049(4) 0.167(8) 0.016(4) -0.008(4) 0.005(3)
C94 0.030(4) 0.049(4) 0.167(8) 0.016(4) -0.008(4) 0.005(3)
C95 0.038(8) 0.052(8) 0.130(14) 0.006(8) -0.007(7) 0.000(6)
C96 0.030(4) 0.049(4) 0.167(8) 0.016(4) -0.008(4) 0.005(3)
C97 0.032(6) 0.032(6) 0.087(8) 0.011(6) 0.027(5) 0.012(4)
C98 0.024(6) 0.056(6) 0.200(12) -0.023(7) -0.011(6) 0.016(5)
C99 0.037(6) 0.064(6) 0.242(12) -0.019(9) -0.011(7) 0.011(5)
C100 0.039(5) 0.058(5) 0.214(11) -0.024(7) -0.008(6) 0.011(5)
C101 0.031(9) 0.064(10) 0.26(3) -0.002(14) -0.009(11) 0.011(8)
C102 0.039(5) 0.058(5) 0.214(11) -0.024(7) -0.008(6) 0.011(5)
C104 0.023(5) 0.052(5) 0.153(10) -0.027(6) -0.016(6) 0.015(5)
C105 0.027(7) 0.062(8) 0.161(16) -0.040(10) 0.019(7) 0.006(6)

_geom_special_details            
;
 All esds (except the esd in the dihedral angle between two l.s. planes)
 are estimated using the full covariance matrix.  The cell esds are taken
 into account individually in the estimation of esds in distances, angles
 and torsion angles; correlations between esds in cell parameters are only
 used when they are defined by crystal symmetry.  An approximate (isotropic)
 treatment of cell esds is used for estimating esds involving l.s. planes.
;
loop_
_geom_bond_atom_site_label_1
_geom_bond_atom_site_label_2
_geom_bond_distance
_geom_bond_site_symmetry_2
_geom_bond_publ_flag
Cd1 O7 2.322(7) . ?
Cd1 O7 2.607(7) 2_755 ?
Cd1 O8 2.303(7) 2_755 ?
Cd1 O13 2.352(10) . ?
Cd1 O14 2.390(6) . ?
Cd1 N4 2.321(8) . ?
Cd1 N5 2.295(8) . ?
Cd1 C97 2.684(12) . ?
Cd2 O9 2.320(8) . ?
Cd2 O10 2.607(8) . ?
Cd2 O10 2.322(8) 14_655 ?
Cd2 O11 2.312(10) . ?
Cd2 O12 2.408(9) . ?
Cd2 N1 2.305(11) 16_657 ?
Cd2 N8 2.300(14) 12_656 ?
Cd2 C105 2.727(15) . ?
Fe1 O1 1.946(11) . ?
Fe1 O2 1.903(10) . ?
Fe1 O3 1.774(3) . ?
Fe1 N2 2.082(11) . ?
Fe1 N3 2.116(10) . ?
Fe2 O4 1.910(10) . ?
Fe2 O5 1.943(10) . ?
Fe2 O6 1.772(4) . ?
Fe2 N6 2.103(10) . ?
Fe2 N7 2.120(10) . ?
O1 C15 1.306(16) . ?
O2 C29 1.313(14) . ?
O3 Fe1 1.774(3) 4_757 ?
O4 C53 1.308(13) . ?
O5 C67 1.267(15) . ?
O6 Fe2 1.772(4) 12_656 ?
O7 Cd1 2.607(7) 2_755 ?
O7 C83 1.258(12) . ?
O8 Cd1 2.303(7) 2_755 ?
O8 C83 1.234(12) . ?
O9 C90 1.283(15) . ?
O10 Cd2 2.322(8) 14_655 ?
O10 C90 1.235(14) . ?
O11 C105 1.291(19) . ?
O12 C105 1.27(2) . ?
O13 C97 1.244(14) . ?
O14 C97 1.260(15) . ?
N1 Cd2 2.305(11) 16_647 ?
N1 C1 1.361(17) . ?
N1 C5 1.330(15) . ?
N2 C16 1.296(17) . ?
N2 C17 1.465(16) . ?
N3 C22 1.455(17) . ?
N3 C23 1.268(17) . ?
N4 C34 1.327(13) . ?
N4 C38 1.364(16) . ?
N5 C39 1.323(14) . ?
N5 C43 1.347(12) . ?
N6 C54 1.293(16) . ?
N6 C55 1.475(14) . ?
N7 C60 1.475(15) . ?
N7 C61 1.271(16) . ?
N8 Cd2 2.299(14) 12_656 ?
N8 C72 1.351(16) . ?
N8 C76 1.37(2) . ?
C1 C2 1.35(2) . ?
C2 C3 1.395(19) . ?
C3 C4 1.415(19) . ?
C4 C5 1.39(2) . ?
C4 C12 1.469(17) . ?
C6 C7 1.58(2) . ?
C6 C8 1.51(2) . ?
C6 C9 1.525(17) . ?
C6 C10 1.576(18) . ?
C10 C11 1.398(17) . ?
C10 C15 1.395(19) . ?
C11 C12 1.373(18) . ?
C12 C13 1.372(19) . ?
C13 C14 1.427(18) . ?
C14 C15 1.43(2) . ?
C14 C16 1.441(18) . ?
C17 C18 1.53(2) . ?
C17 C22 1.553(19) . ?
C18 C19 1.49(2) . ?
C19 C20 1.62(2) . ?
C20 C21 1.52(2) . ?
C21 C22 1.542(16) . ?
C23 C24 1.498(19) . ?
C24 C25 1.398(17) . ?
C24 C29 1.438(18) . ?
C25 C26 1.43(2) . ?
C26 C27 1.401(19) . ?
C26 C35 1.461(17) . ?
C27 C28 1.372(18) . ?
C28 C29 1.404(19) . ?
C28 C30 1.537(19) . ?
C30 C31 1.58(2) . ?
C30 C32 1.49(4) . ?
C30 C33 1.53(2) . ?
C34 C35 1.414(17) . ?
C35 C36 1.37(2) . ?
C36 C37 1.416(18) . ?
C37 C38 1.381(18) . ?
C39 C40 1.408(17) . ?
C40 C41 1.381(17) . ?
C41 C42 1.381(15) . ?
C42 C43 1.380(15) . ?
C42 C50 1.489(15) . ?
C44 C45 1.54(3) . ?
C44 C46 1.59(3) . ?
C44 C47 1.52(2) . ?
C44 C48 1.535(18) . ?
C48 C49 1.346(17) . ?
C48 C53 1.436(17) . ?
C49 C50 1.415(17) . ?
C50 C51 1.379(17) . ?
C51 C52 1.414(17) . ?
C52 C53 1.412(18) . ?
C52 C54 1.431(17) . ?
C55 C56 1.580(15) . ?
C55 C60 1.52(2) . ?
C56 C57 1.521(15) . ?
C57 C58 1.522(19) . ?
C58 C59 1.524(16) . ?
C59 C60 1.553(15) . ?
C61 C62 1.482(18) . ?
C62 C63 1.376(18) . ?
C62 C67 1.41(2) . ?
C63 C64 1.37(2) . ?
C64 C65 1.41(2) . ?
C64 C73 1.501(19) . ?
C65 C66 1.425(19) . ?
C66 C67 1.45(2) . ?
C66 C68 1.50(2) . ?
C68 C69 1.45(3) . ?
C68 C70 1.46(3) . ?
C68 C71 1.51(2) . ?
C72 C73 1.38(2) . ?
C73 C74 1.38(3) . ?
C74 C75 1.46(3) . ?
C75 C76 1.40(3) . ?
C77 C78 1.386(15) . ?
C77 C82 1.379(15) . ?
C77 C83 1.486(12) . ?
C78 C79 1.388(14) . ?
C79 C80 1.395(14) . ?
C80 C81 1.399(15) . ?
C80 C84 1.491(11) . ?
C81 C82 1.382(14) . ?
C84 C85 1.396(16) . ?
C84 C89 1.364(15) . ?
C85 C86 1.379(14) . ?
C86 C87 1.381(15) . ?
C87 C88 1.371(16) . ?
C87 C90 1.514(13) . ?
C88 C89 1.392(14) . ?
C91 C92 1.3900 . ?
C91 C96 1.3900 . ?
C92 C93 1.3900 . ?
C92 C97 1.514(13) . ?
C93 C94 1.3900 . ?
C94 C95 1.3900 . ?
C95 C95 1.517(11) 2_655 ?
C95 C96 1.3900 . ?
C98 C99 1.3900 . ?
C98 C104 1.3900 . ?
C98 C105 1.460(16) . ?
C99 C100 1.3900 . ?
C100 C101 1.3900 . ?
C101 C101 1.523(12) 14 ?
C101 C102 1.3900 . ?
C102 C104 1.3900 . ?

loop_
_geom_angle_atom_site_label_1
_geom_angle_atom_site_label_2
_geom_angle_atom_site_label_3
_geom_angle
_geom_angle_site_symmetry_1
_geom_angle_site_symmetry_3
_geom_angle_publ_flag
O7 Cd1 O7 76.1(2) . 2_755 ?
O7 Cd1 O13 151.2(3) . . ?
O7 Cd1 O14 95.6(2) . . ?
O7 Cd1 C97 159.8(3) 2_755 . ?
O7 Cd1 C97 123.6(3) . . ?
O8 Cd1 O7 52.3(3) 2_755 2_755 ?
O8 Cd1 O7 127.6(3) 2_755 . ?
O8 Cd1 O13 81.2(3) 2_755 . ?
O8 Cd1 O14 136.6(3) 2_755 . ?
O8 Cd1 N4 88.7(3) 2_755 . ?
O8 Cd1 C97 108.7(3) 2_755 . ?
O13 Cd1 O7 132.6(3) . 2_755 ?
O13 Cd1 O14 55.6(3) . . ?
O13 Cd1 C97 27.6(3) . . ?
O14 Cd1 O7 170.3(2) . 2_755 ?
O14 Cd1 C97 28.0(3) . . ?
N4 Cd1 O7 87.3(3) . . ?
N4 Cd1 O7 94.8(3) . 2_755 ?
N4 Cd1 O13 92.2(4) . . ?
N4 Cd1 O14 89.6(3) . . ?
N4 Cd1 C97 90.9(4) . . ?
N5 Cd1 O7 83.5(3) . 2_755 ?
N5 Cd1 O7 87.3(3) . . ?
N5 Cd1 O8 94.3(3) . 2_755 ?
N5 Cd1 O13 92.7(4) . . ?
N5 Cd1 O14 91.4(3) . . ?
N5 Cd1 N4 174.6(3) . . ?
N5 Cd1 C97 92.4(4) . . ?
O9 Cd2 O10 52.9(3) . . ?
O9 Cd2 O10 128.4(3) . 14_655 ?
O9 Cd2 O12 135.2(3) . . ?
O9 Cd2 C105 107.4(4) . . ?
O10 Cd2 O10 76.0(3) 14_655 . ?
O10 Cd2 O12 96.3(3) 14_655 . ?
O10 Cd2 C105 124.0(4) 14_655 . ?
O10 Cd2 C105 159.8(4) . . ?
O11 Cd2 O9 79.2(3) . . ?
O11 Cd2 O10 152.1(3) . 14_655 ?
O11 Cd2 O10 131.8(3) . . ?
O11 Cd2 O12 56.0(3) . . ?
O11 Cd2 C105 28.2(4) . . ?
O12 Cd2 O10 171.0(3) . . ?
O12 Cd2 C105 27.8(4) . . ?
N1 Cd2 O9 94.3(3) 16_657 . ?
N1 Cd2 O10 84.7(3) 16_657 . ?
N1 Cd2 O10 87.1(3) 16_657 14_655 ?
N1 Cd2 O11 95.3(5) 16_657 . ?
N1 Cd2 O12 90.3(4) 16_657 . ?
N1 Cd2 C105 93.7(5) 16_657 . ?
N8 Cd2 O9 89.8(4) 12_656 . ?
N8 Cd2 O10 85.4(4) 12_656 14_655 ?
N8 Cd2 O10 92.9(4) 12_656 . ?
N8 Cd2 O11 91.6(6) 12_656 . ?
N8 Cd2 O12 91.2(5) 12_656 . ?
N8 Cd2 N1 172.5(5) 12_656 16_657 ?
N8 Cd2 C105 91.0(6) 12_656 . ?
O1 Fe1 N2 86.0(4) . . ?
O1 Fe1 N3 148.9(6) . . ?
O2 Fe1 O1 91.2(4) . . ?
O2 Fe1 N2 138.9(6) . . ?
O2 Fe1 N3 85.7(4) . . ?
O3 Fe1 O1 108.1(5) . . ?
O3 Fe1 O2 114.4(6) . . ?
O3 Fe1 N2 105.3(6) . . ?
O3 Fe1 N3 101.2(4) . . ?
N2 Fe1 N3 76.5(4) . . ?
O4 Fe2 O5 90.8(4) . . ?
O4 Fe2 N6 86.5(4) . . ?
O4 Fe2 N7 135.5(6) . . ?
O5 Fe2 N6 151.1(6) . . ?
O5 Fe2 N7 84.2(4) . . ?
O6 Fe2 O4 110.9(5) . . ?
O6 Fe2 O5 107.0(6) . . ?
O6 Fe2 N6 100.7(6) . . ?
O6 Fe2 N7 112.8(4) . . ?
N6 Fe2 N7 77.7(4) . . ?
C15 O1 Fe1 129.1(12) . . ?
C29 O2 Fe1 134.9(10) . . ?
Fe1 O3 Fe1 174.2(9) . 4_757 ?
C53 O4 Fe2 132.4(10) . . ?
C67 O5 Fe2 128.9(11) . . ?
Fe2 O6 Fe2 157.0(8) 12_656 . ?
Cd1 O7 Cd1 103.3(2) . 2_755 ?
C83 O7 Cd1 85.3(5) . 2_755 ?
C83 O7 Cd1 159.9(6) . . ?
C83 O8 Cd1 100.2(6) . 2_755 ?
C90 O9 Cd2 98.2(7) . . ?
Cd2 O10 Cd2 103.7(3) 14_655 . ?
C90 O10 Cd2 86.1(7) . . ?
C90 O10 Cd2 161.4(8) . 14_655 ?
C105 O11 Cd2 94.1(9) . . ?
C105 O12 Cd2 90.2(8) . . ?
C97 O13 Cd1 91.2(8) . . ?
C97 O14 Cd1 89.1(6) . . ?
C1 N1 Cd2 121.1(8) . 16_647 ?
C5 N1 Cd2 118.1(8) . 16_647 ?
C5 N1 C1 120.7(11) . . ?
C16 N2 Fe1 121.7(9) . . ?
C16 N2 C17 120.2(11) . . ?
C17 N2 Fe1 117.8(8) . . ?
C22 N3 Fe1 111.7(7) . . ?
C23 N3 Fe1 125.6(9) . . ?
C23 N3 C22 121.7(11) . . ?
C34 N4 Cd1 117.5(8) . . ?
C34 N4 C38 120.2(9) . . ?
C38 N4 Cd1 122.2(7) . . ?
C39 N5 Cd1 122.6(7) . . ?
C39 N5 C43 118.0(9) . . ?
C43 N5 Cd1 119.3(7) . . ?
C54 N6 Fe2 125.0(8) . . ?
C54 N6 C55 124.1(10) . . ?
C55 N6 Fe2 110.8(7) . . ?
C60 N7 Fe2 114.2(7) . . ?
C61 N7 Fe2 125.2(9) . . ?
C61 N7 C60 120.6(10) . . ?
C72 N8 Cd2 117.9(12) . 12_656 ?
C72 N8 C76 116.6(14) . . ?
C76 N8 Cd2 125.5(9) . 12_656 ?
C2 C1 N1 120.7(12) . . ?
C1 C2 C3 119.7(12) . . ?
C2 C3 C4 119.7(13) . . ?
C3 C4 C12 121.0(13) . . ?
C5 C4 C3 116.6(12) . . ?
C5 C4 C12 122.1(12) . . ?
N1 C5 C4 122.3(12) . . ?
C7 C6 C10 107.3(12) . . ?
C8 C6 C7 110.2(12) . . ?
C8 C6 C9 108.4(13) . . ?
C8 C6 C10 109.5(12) . . ?
C9 C6 C7 108.8(12) . . ?
C9 C6 C10 112.6(10) . . ?
C11 C10 C6 121.3(11) . . ?
C15 C10 C6 120.2(11) . . ?
C15 C10 C11 118.4(12) . . ?
C12 C11 C10 124.4(12) . . ?
C11 C12 C4 120.5(12) . . ?
C13 C12 C4 121.3(12) . . ?
C13 C12 C11 118.2(11) . . ?
C12 C13 C14 120.3(12) . . ?
C13 C14 C15 120.2(12) . . ?
C13 C14 C16 116.5(13) . . ?
C15 C14 C16 123.2(13) . . ?
O1 C15 C10 121.6(13) . . ?
O1 C15 C14 119.9(12) . . ?
C10 C15 C14 118.4(12) . . ?
N2 C16 C14 126.3(13) . . ?
N2 C17 C18 116.7(12) . . ?
N2 C17 C22 105.8(11) . . ?
C18 C17 C22 110.6(13) . . ?
C19 C18 C17 109.8(14) . . ?
C18 C19 C20 109.4(13) . . ?
C21 C20 C19 109.1(13) . . ?
C20 C21 C22 109.4(12) . . ?
N3 C22 C17 105.6(11) . . ?
N3 C22 C21 116.5(12) . . ?
C21 C22 C17 109.2(12) . . ?
N3 C23 C24 125.2(11) . . ?
C25 C24 C23 116.7(11) . . ?
C25 C24 C29 120.7(12) . . ?
C29 C24 C23 122.6(11) . . ?
C24 C25 C26 120.0(12) . . ?
C25 C26 C35 122.0(12) . . ?
C27 C26 C25 116.7(11) . . ?
C27 C26 C35 121.3(13) . . ?
C28 C