####################################################################### 
# 
# This file contains crystal structure data downloaded from the 
# Cambridge Structural Database (CSD) hosted by the Cambridge 
# Crystallographic Data Centre (CCDC).
# 
# Full information about CCDC data access policies and citation 
# guidelines are available at http://www.ccdc.cam.ac.uk/access/V1 
# 
# Audit and citation data items may have been added by the CCDC. 
# Please retain this information to preserve the provenance of 
# this file and to allow appropriate attribution of the data. 
# 
#######################################################################

data_71120csp_0m
_audit_block_doi                 10.5517/ccqhfm7
_database_code_depnum_ccdc_archive 'CCDC 670239'
loop_
_citation_id
_citation_doi
_citation_year
1 10.1007/s10904-008-9215-y 2008
_audit_update_record             
;
2007-12-07 deposited with the CCDC.	2024-07-13 downloaded from the CCDC.
;
_audit_creation_method           SHELXL-97
_chemical_name_systematic        
;
?
;
_chemical_name_common            ?
_chemical_melting_point          ?
_chemical_formula_moiety         ?
_chemical_formula_sum            'C58 H84 N8 O38 P8 Zn3'
_chemical_formula_weight         1945.20

loop_
_atom_type_symbol
_atom_type_description
_atom_type_scat_dispersion_real
_atom_type_scat_dispersion_imag
_atom_type_scat_source
C C 0.0033 0.0016 'International Tables Vol C Tables 4.2.6.8 and 6.1.1.4'
H H 0.0000 0.0000 'International Tables Vol C Tables 4.2.6.8 and 6.1.1.4'
N N 0.0061 0.0033 'International Tables Vol C Tables 4.2.6.8 and 6.1.1.4'
O O 0.0106 0.0060 'International Tables Vol C Tables 4.2.6.8 and 6.1.1.4'
P P 0.1023 0.0942 'International Tables Vol C Tables 4.2.6.8 and 6.1.1.4'
Zn Zn 0.2839 1.4301 'International Tables Vol C Tables 4.2.6.8 and 6.1.1.4'

_symmetry_cell_setting           Monoclinic
_symmetry_space_group_name_H-M   C2/c

loop_
_symmetry_equiv_pos_as_xyz
'x, y, z'
'-x, y, -z+1/2'
'x+1/2, y+1/2, z'
'-x+1/2, y+1/2, -z+1/2'
'-x, -y, -z'
'x, -y, z-1/2'
'-x+1/2, -y+1/2, -z'
'x+1/2, -y+1/2, z-1/2'

_cell_length_a                   32.978(3)
_cell_length_b                   20.0957(15)
_cell_length_c                   13.0079(10)
_cell_angle_alpha                90.00
_cell_angle_beta                 112.0310(10)
_cell_angle_gamma                90.00
_cell_volume                     7991.1(10)
_cell_formula_units_Z            4
_cell_measurement_temperature    273(2)
_cell_measurement_reflns_used    9127
_cell_measurement_theta_min      2.24
_cell_measurement_theta_max      28.91

_exptl_crystal_description       block
_exptl_crystal_colour            colorless
_exptl_crystal_size_max          0.39
_exptl_crystal_size_mid          0.35
_exptl_crystal_size_min          0.24
_exptl_crystal_density_meas      ?
_exptl_crystal_density_diffrn    1.617
_exptl_crystal_density_method    'not measured'
_exptl_crystal_F_000             4008
_exptl_absorpt_coefficient_mu    1.150
_exptl_absorpt_correction_type   Multi-scan
_exptl_absorpt_correction_T_min  0.6626
_exptl_absorpt_correction_T_max  0.7699
_exptl_absorpt_process_details   SADABS

_exptl_special_details           
;
?
;

_diffrn_ambient_temperature      273(2)
_diffrn_radiation_wavelength     0.71073
_diffrn_radiation_type           MoK\a
_diffrn_radiation_source         'fine-focus sealed tube'
_diffrn_radiation_monochromator  graphite
_diffrn_measurement_device_type  'CCD area detector'
_diffrn_measurement_method       'phi and omega scans'
_diffrn_detector_area_resol_mean ?
_diffrn_standards_number         ?
_diffrn_standards_interval_count ?
_diffrn_standards_interval_time  ?
_diffrn_standards_decay_%        ?
_diffrn_reflns_number            26128
_diffrn_reflns_av_R_equivalents  0.0217
_diffrn_reflns_av_sigmaI/netI    0.0287
_diffrn_reflns_limit_h_min       -42
_diffrn_reflns_limit_h_max       43
_diffrn_reflns_limit_k_min       -26
_diffrn_reflns_limit_k_max       18
_diffrn_reflns_limit_l_min       -17
_diffrn_reflns_limit_l_max       17
_diffrn_reflns_theta_min         2.03
_diffrn_reflns_theta_max         28.00
_reflns_number_total             9621
_reflns_number_gt                7474
_reflns_threshold_expression     >2sigma(I)

_computing_data_collection       'Bruker SMART'
_computing_cell_refinement       'Bruker SMART'
_computing_data_reduction        'Bruker SAINT'
_computing_structure_solution    'SHELXS-97 (Sheldrick, 1990)'
_computing_structure_refinement  'SHELXL-97 (Sheldrick, 1997)'
_computing_molecular_graphics    'Bruker SHELXTL'
_computing_publication_material  'Bruker SHELXTL'

_refine_special_details          
;
Refinement of F^2^ against ALL reflections. The weighted R-factor wR and
goodness of fit S are based on F^2^, conventional R-factors R are based
on F, with F set to zero for negative F^2^. The threshold expression of
F^2^ > 2sigma(F^2^) is used only for calculating R-factors(gt) etc. and is
not relevant to the choice of reflections for refinement. R-factors based
on F^2^ are statistically about twice as large as those based on F, and R-
factors based on ALL data will be even larger.
;

_refine_ls_structure_factor_coef Fsqd
_refine_ls_matrix_type           full
_refine_ls_weighting_scheme      calc
_refine_ls_weighting_details     
'calc w=1/[\s^2^(Fo^2^)+(0.0764P)^2^+7.4146P] where P=(Fo^2^+2Fc^2^)/3'
_atom_sites_solution_primary     direct
_atom_sites_solution_secondary   difmap
_atom_sites_solution_hydrogens   geom
_refine_ls_hydrogen_treatment    mixed
_refine_ls_extinction_method     none
_refine_ls_extinction_coef       ?
_refine_ls_number_reflns         9621
_refine_ls_number_parameters     599
_refine_ls_number_restraints     60
_refine_ls_R_factor_all          0.0583
_refine_ls_R_factor_gt           0.0420
_refine_ls_wR_factor_ref         0.1373
_refine_ls_wR_factor_gt          0.1300
_refine_ls_goodness_of_fit_ref   1.108
_refine_ls_restrained_S_all      1.143
_refine_ls_shift/su_max          0.000
_refine_ls_shift/su_mean         0.000

loop_
_atom_site_label
_atom_site_type_symbol
_atom_site_fract_x
_atom_site_fract_y
_atom_site_fract_z
_atom_site_U_iso_or_equiv
_atom_site_adp_type
_atom_site_occupancy
_atom_site_symmetry_multiplicity
_atom_site_calc_flag
_atom_site_refinement_flags
_atom_site_disorder_assembly
_atom_site_disorder_group
C1 C 0.13983(8) 0.33220(14) 0.8984(2) 0.0245(5) Uani 1 1 d . . .
C2 C 0.15217(8) 0.40371(15) 0.9378(2) 0.0291(6) Uani 1 1 d . . .
C3 C 0.16351(11) 0.41877(19) 1.0499(3) 0.0440(8) Uani 1 1 d . . .
H3 H 0.1626 0.3857 1.0989 0.053 Uiso 1 1 calc R . .
C4 C 0.17607(13) 0.4821(2) 1.0884(3) 0.0558(10) Uani 1 1 d . . .
H4 H 0.1834 0.4914 1.1633 0.067 Uiso 1 1 calc R . .
C5 C 0.17790(14) 0.5315(2) 1.0186(4) 0.0613(11) Uani 1 1 d . . .
H5 H 0.1867 0.5741 1.0456 0.074 Uiso 1 1 calc R . .
C6 C 0.16652(15) 0.5177(2) 0.9076(4) 0.0616(11) Uani 1 1 d . . .
H6 H 0.1675 0.5513 0.8593 0.074 Uiso 1 1 calc R . .
C7 C 0.15366(12) 0.45405(17) 0.8674(3) 0.0456(8) Uani 1 1 d . . .
H7 H 0.1460 0.4453 0.7922 0.055 Uiso 1 1 calc R . .
C8 C 0.11362(8) 0.26468(14) 0.7139(2) 0.0261(5) Uani 1 1 d . . .
C9 C 0.10302(9) 0.27555(16) 0.5901(2) 0.0308(6) Uani 1 1 d . . .
C10 C 0.10938(10) 0.33609(18) 0.5472(2) 0.0381(7) Uani 1 1 d . . .
H10 H 0.1218 0.3714 0.5948 0.046 Uiso 1 1 calc R . .
C11 C 0.09722(13) 0.3443(2) 0.4332(3) 0.0518(9) Uani 1 1 d . . .
H11 H 0.1006 0.3855 0.4051 0.062 Uiso 1 1 calc R . .
C12 C 0.08025(14) 0.2917(2) 0.3618(3) 0.0598(11) Uani 1 1 d . . .
H12 H 0.0725 0.2972 0.2858 0.072 Uiso 1 1 calc R . .
C13 C 0.07489(14) 0.2314(2) 0.4039(3) 0.0586(11) Uani 1 1 d . . .
H13 H 0.0637 0.1957 0.3561 0.070 Uiso 1 1 calc R . .
C14 C 0.08589(12) 0.22291(19) 0.5167(3) 0.0458(8) Uani 1 1 d . . .
H14 H 0.0818 0.1817 0.5439 0.055 Uiso 1 1 calc R . .
C15 C 0.28405(15) 0.2215(3) 0.6532(4) 0.0674(12) Uani 1 1 d . . .
H15 H 0.2756 0.1822 0.6774 0.081 Uiso 1 1 calc R . .
C16 C 0.30290(17) 0.2174(3) 0.5760(4) 0.0843(17) Uani 1 1 d U . .
H16 H 0.3077 0.1765 0.5489 0.101 Uiso 1 1 calc R . .
C17 C 0.31431(16) 0.2753(4) 0.5405(4) 0.0855(17) Uani 1 1 d U . .
H17 H 0.3263 0.2743 0.4863 0.103 Uiso 1 1 calc R . .
C18 C 0.30836(15) 0.3356(3) 0.5834(4) 0.0807(16) Uani 1 1 d U . .
H18 H 0.3167 0.3752 0.5598 0.097 Uiso 1 1 calc R . .
C19 C 0.28944(11) 0.3358(3) 0.6637(3) 0.0558(11) Uani 1 1 d . . .
C20 C 0.28299(11) 0.3961(2) 0.7213(3) 0.0569(11) Uani 1 1 d . . .
C21 C 0.29582(15) 0.4586(3) 0.7035(5) 0.0807(15) Uani 1 1 d U . .
H21 H 0.3082 0.4655 0.6508 0.097 Uiso 1 1 calc R . .
C22 C 0.29007(17) 0.5103(3) 0.7646(6) 0.0948(19) Uani 1 1 d U . .
H22 H 0.2985 0.5529 0.7531 0.114 Uiso 1 1 calc R . .
C23 C 0.27193(17) 0.5003(3) 0.8431(5) 0.0868(16) Uani 1 1 d U . .
H23 H 0.2683 0.5355 0.8854 0.104 Uiso 1 1 calc R . .
C24 C 0.25919(13) 0.4361(2) 0.8571(4) 0.0611(10) Uani 1 1 d . . .
H24 H 0.2467 0.4283 0.9093 0.073 Uiso 1 1 calc R . .
C25 C 0.04218(9) 0.44320(17) 0.6117(3) 0.0364(7) Uani 1 1 d . . .
H25 H 0.0468 0.4016 0.5866 0.044 Uiso 1 1 calc R . .
C26 C 0.05806(11) 0.4984(2) 0.5762(3) 0.0465(8) Uani 1 1 d . . .
H26 H 0.0736 0.4941 0.5300 0.056 Uiso 1 1 calc R . .
C27 C 0.05034(13) 0.5598(2) 0.6107(3) 0.0519(9) Uani 1 1 d . . .
H27 H 0.0608 0.5980 0.5885 0.062 Uiso 1 1 calc R . .
C28 C 0.02690(12) 0.56460(18) 0.6787(3) 0.0476(8) Uani 1 1 d . . .
H28 H 0.0208 0.6060 0.7014 0.057 Uiso 1 1 calc R . .
C29 C 0.01243(9) 0.50677(15) 0.7132(2) 0.0316(6) Uani 1 1 d . . .
N1 N 0.12723(8) 0.32882(13) 0.77536(19) 0.0247(5) Uani 1 1 d . . .
N2 N 0.27724(9) 0.27881(17) 0.6956(2) 0.0477(7) Uani 1 1 d . . .
N3 N 0.26451(9) 0.38556(16) 0.7972(2) 0.0449(7) Uani 1 1 d . . .
N4 N 0.02060(7) 0.44628(12) 0.68010(18) 0.0291(5) Uani 1 1 d . . .
O1 O 0.14735(8) 0.13652(12) 0.7346(2) 0.0564(7) Uani 1 1 d . . .
O2 O 0.19627(7) 0.23424(13) 0.73079(18) 0.0399(5) Uani 1 1 d . . .
O3 O 0.17513(7) 0.21327(10) 0.89635(18) 0.0340(5) Uani 1 1 d . . .
O4 O 0.22476(6) 0.31405(11) 0.93053(16) 0.0325(4) Uani 1 1 d . . .
O5 O 0.20053(7) 0.26887(12) 1.08113(17) 0.0396(5) Uani 1 1 d . . .
O6 O 0.10397(7) 0.28970(12) 1.05198(17) 0.0382(5) Uani 1 1 d . . .
O7 O 0.05846(6) 0.36071(10) 0.88641(16) 0.0308(4) Uani 1 1 d . . .
O8 O 0.07722(6) 0.24086(10) 0.86191(16) 0.0304(4) Uani 1 1 d . . .
O9 O 0.02914(6) 0.29082(10) 0.67611(16) 0.0308(4) Uani 1 1 d . . .
O10 O 0.04945(7) 0.16741(11) 0.6966(2) 0.0429(5) Uani 1 1 d . . .
O1W O 0.0963(2) 0.9197(3) 0.7411(6) 0.1160(18) Uani 1 1 d . . .
O2W O 0.1274(3) 0.0530(6) 0.4702(14) 0.186(4) Uani 1 1 d U . .
O3W O 0.9645(2) 0.1100(4) 0.6003(8) 0.130(2) Uani 1 1 d . . .
O4W O 0.98449(18) 0.1380(4) 0.3430(5) 0.1117(17) Uani 1 1 d . . .
O5W O 0.02272(12) 0.2601(2) 0.0647(3) 0.0819(11) Uani 1 1 d . . .
O6W O 0.1213(2) 0.8463(2) 0.5916(5) 0.1036(15) Uani 1 1 d . . .
O7W O 0.0270(9) 0.0281(10) 0.4441(19) 0.314(8) Uani 1 1 d U . .
O8W O 0.0866(5) 0.0425(5) 0.6314(9) 0.184(4) Uani 1 1 d U . .
O9W O 0.1363(3) 0.0742(6) 0.9306(8) 0.176(3) Uani 1 1 d U . .
P1 P 0.16049(2) 0.20636(4) 0.76307(7) 0.03381(18) Uani 1 1 d . . .
P2 P 0.19003(2) 0.28245(4) 0.96145(6) 0.02817(17) Uani 1 1 d . . .
P3 P 0.09249(2) 0.30852(4) 0.93435(6) 0.02674(16) Uani 1 1 d . . .
P4 P 0.06233(2) 0.23738(4) 0.72876(6) 0.02815(16) Uani 1 1 d . . .
Zn1 Zn 0.250296(10) 0.286046(18) 0.81802(3) 0.03083(11) Uani 1 1 d . . .
Zn2 Zn 0.0000 0.36135(2) 0.7500 0.02550(12) Uani 1 2 d S . .
H1 H 0.1106(14) 0.355(2) 0.747(3) 0.053(13) Uiso 1 1 d . . .
H2 H 0.1428(14) 0.350(2) 0.756(3) 0.051(12) Uiso 1 1 d . . .
H1W1 H 0.070(3) 0.918(4) 0.697(7) 0.14(3) Uiso 1 1 d . . .
H2W1 H 0.109(3) 0.909(4) 0.700(7) 0.14(4) Uiso 1 1 d . . .
H1W2 H 0.116(4) 0.076(6) 0.407(10) 0.23(6) Uiso 1 1 d . . .
H2W2 H 0.119(5) 0.070(7) 0.512(12) 0.23(9) Uiso 1 1 d . . .
H1W3 H 0.949(3) 0.114(5) 0.639(7) 0.16(5) Uiso 1 1 d . . .
H2W3 H 0.965(3) 0.147(5) 0.570(8) 0.16(5) Uiso 1 1 d . . .
H1W4 H 0.998(3) 0.104(5) 0.375(7) 0.14(3) Uiso 1 1 d . . .
H2W4 H 0.982(3) 0.175(4) 0.373(7) 0.14(4) Uiso 1 1 d . . .
H1W5 H 0.047(2) 0.269(3) 0.061(5) 0.10(2) Uiso 1 1 d . . .
H2W5 H -0.002(2) 0.261(3) -0.007(5) 0.098(18) Uiso 1 1 d . . .
H1W6 H 0.117(2) 0.809(4) 0.557(6) 0.12(3) Uiso 1 1 d . . .
H2W6 H 0.146(2) 0.844(4) 0.643(6) 0.12(3) Uiso 1 1 d . . .
H1W7 H 0.013(8) -0.003(11) 0.399(18) 0.38(14) Uiso 1 1 d . . .
H2W7 H 0.053(8) 0.035(12) 0.45(2) 0.38(15) Uiso 1 1 d . . .
H1W8 H 0.092(5) 0.010(7) 0.662(11) 0.23(7) Uiso 1 1 d . . .
H2W8 H 0.062(5) 0.036(8) 0.617(13) 0.23(7) Uiso 1 1 d . . .
H1W9 H 0.135(4) 0.032(7) 0.943(10) 0.21(5) Uiso 1 1 d . . .
H2W9 H 0.133(4) 0.099(6) 0.978(10) 0.21(7) Uiso 1 1 d . . .

loop_
_atom_site_aniso_label
_atom_site_aniso_U_11
_atom_site_aniso_U_22
_atom_site_aniso_U_33
_atom_site_aniso_U_23
_atom_site_aniso_U_13
_atom_site_aniso_U_12
C1 0.0186(11) 0.0308(14) 0.0239(12) 0.0009(10) 0.0077(9) 0.0041(10)
C2 0.0210(12) 0.0338(15) 0.0311(13) -0.0053(11) 0.0081(10) 0.0011(11)
C3 0.0435(18) 0.053(2) 0.0319(15) -0.0077(14) 0.0100(13) -0.0011(15)
C4 0.055(2) 0.063(3) 0.0435(19) -0.0234(18) 0.0114(16) -0.0045(19)
C5 0.060(2) 0.046(2) 0.071(3) -0.023(2) 0.017(2) -0.0077(19)
C6 0.083(3) 0.037(2) 0.065(3) -0.0056(18) 0.029(2) -0.011(2)
C7 0.059(2) 0.0386(19) 0.0382(17) -0.0041(14) 0.0171(15) -0.0051(16)
C8 0.0207(12) 0.0282(14) 0.0298(13) -0.0032(11) 0.0098(10) 0.0006(10)
C9 0.0219(12) 0.0410(17) 0.0294(14) -0.0057(12) 0.0096(10) 0.0033(11)
C10 0.0390(16) 0.0449(19) 0.0321(15) -0.0027(13) 0.0151(12) 0.0027(14)
C11 0.059(2) 0.062(2) 0.0366(17) 0.0048(17) 0.0213(16) 0.0087(19)
C12 0.059(2) 0.089(3) 0.0286(16) -0.0058(19) 0.0127(16) 0.009(2)
C13 0.057(2) 0.077(3) 0.0400(19) -0.024(2) 0.0157(17) -0.005(2)
C14 0.0459(19) 0.051(2) 0.0414(18) -0.0143(15) 0.0178(15) -0.0058(16)
C15 0.059(3) 0.095(4) 0.052(2) -0.010(2) 0.026(2) 0.021(2)
C16 0.065(3) 0.132(5) 0.065(3) -0.013(3) 0.034(2) 0.025(3)
C17 0.055(3) 0.158(5) 0.053(2) -0.008(3) 0.032(2) 0.013(3)
C18 0.053(2) 0.140(5) 0.053(2) 0.022(3) 0.025(2) -0.009(3)
C19 0.0294(16) 0.101(3) 0.0369(17) 0.015(2) 0.0124(13) 0.0007(19)
C20 0.0305(16) 0.079(3) 0.057(2) 0.033(2) 0.0116(15) -0.0049(17)
C21 0.056(2) 0.082(4) 0.102(4) 0.034(3) 0.027(2) -0.013(2)
C22 0.067(3) 0.070(3) 0.131(5) 0.037(3) 0.019(3) -0.025(3)
C23 0.070(3) 0.055(3) 0.119(4) -0.005(3) 0.017(3) -0.013(2)
C24 0.050(2) 0.050(2) 0.077(3) 0.004(2) 0.017(2) -0.0042(18)
C25 0.0290(14) 0.0437(18) 0.0372(15) 0.0054(13) 0.0131(12) 0.0033(13)
C26 0.0402(17) 0.060(2) 0.0426(18) 0.0107(16) 0.0192(14) -0.0053(16)
C27 0.057(2) 0.049(2) 0.050(2) 0.0126(17) 0.0196(17) -0.0143(18)
C28 0.061(2) 0.0338(18) 0.0463(19) 0.0033(14) 0.0180(17) -0.0092(16)
C29 0.0322(14) 0.0294(15) 0.0287(13) 0.0023(11) 0.0061(11) -0.0018(12)
N1 0.0228(11) 0.0277(13) 0.0239(11) -0.0020(9) 0.0092(9) 0.0015(10)
N2 0.0374(15) 0.075(2) 0.0338(14) 0.0069(14) 0.0171(12) 0.0091(14)
N3 0.0337(13) 0.0511(18) 0.0486(16) 0.0110(14) 0.0139(12) -0.0007(13)
N4 0.0234(10) 0.0340(13) 0.0284(11) 0.0013(10) 0.0080(9) -0.0032(10)
O1 0.0422(13) 0.0349(14) 0.085(2) -0.0157(13) 0.0161(13) 0.0060(11)
O2 0.0249(10) 0.0599(15) 0.0369(11) -0.0103(10) 0.0139(9) 0.0031(10)
O3 0.0284(10) 0.0333(11) 0.0414(11) 0.0079(9) 0.0142(9) 0.0087(8)
O4 0.0228(9) 0.0444(12) 0.0327(10) -0.0004(9) 0.0132(8) 0.0026(8)
O5 0.0303(10) 0.0605(15) 0.0314(10) 0.0124(10) 0.0155(9) 0.0186(10)
O6 0.0319(11) 0.0557(15) 0.0293(10) 0.0071(10) 0.0141(9) 0.0037(10)
O7 0.0195(9) 0.0371(12) 0.0339(10) -0.0027(8) 0.0077(8) 0.0055(8)
O8 0.0278(10) 0.0309(11) 0.0349(10) 0.0027(8) 0.0144(8) 0.0004(8)
O9 0.0224(9) 0.0360(12) 0.0331(10) -0.0033(8) 0.0094(8) 0.0037(8)
O10 0.0379(12) 0.0324(12) 0.0601(14) -0.0104(10) 0.0201(11) -0.0064(10)
O1W 0.094(4) 0.100(4) 0.153(5) -0.021(3) 0.045(4) -0.014(3)
O2W 0.166(6) 0.154(6) 0.224(8) 0.073(6) 0.057(6) -0.005(5)
O3W 0.107(4) 0.109(5) 0.150(5) -0.034(4) 0.019(4) -0.017(3)
O4W 0.085(3) 0.101(4) 0.137(5) 0.000(4) 0.028(3) -0.004(3)
O5W 0.0505(18) 0.132(3) 0.065(2) 0.019(2) 0.0238(16) -0.016(2)
O6W 0.117(4) 0.078(3) 0.115(4) -0.035(3) 0.042(3) -0.021(3)
O7W 0.335(12) 0.218(10) 0.324(11) 0.007(8) 0.048(9) 0.044(8)
O8W 0.198(8) 0.106(5) 0.198(7) -0.029(5) 0.017(6) -0.022(5)
O9W 0.222(7) 0.136(6) 0.178(6) 0.012(5) 0.084(5) -0.048(5)
P1 0.0246(4) 0.0324(4) 0.0442(4) -0.0061(3) 0.0127(3) 0.0057(3)
P2 0.0190(3) 0.0391(4) 0.0271(3) 0.0054(3) 0.0094(3) 0.0078(3)
P3 0.0197(3) 0.0346(4) 0.0273(3) 0.0022(3) 0.0104(3) 0.0031(3)
P4 0.0213(3) 0.0282(4) 0.0354(4) -0.0035(3) 0.0112(3) -0.0012(3)
Zn1 0.02332(17) 0.0429(2) 0.02751(17) 0.00512(14) 0.01099(13) 0.00596(13)
Zn2 0.0187(2) 0.0283(2) 0.0292(2) 0.000 0.00874(16) 0.000

_geom_special_details            
;
All esds (except the esd in the dihedral angle between two l.s. planes)
are estimated using the full covariance matrix. The cell esds are taken
into account individually in the estimation of esds in distances, angles
and torsion angles; correlations between esds in cell parameters are only
used when they are defined by crystal symmetry. An approximate (isotropic)
treatment of cell esds is used for estimating esds involving l.s. planes.
;

loop_
_geom_bond_atom_site_label