####################################################################### 
# 
# This file contains crystal structure data downloaded from the 
# Cambridge Structural Database (CSD) hosted by the Cambridge 
# Crystallographic Data Centre (CCDC).
# 
# Full information about CCDC data access policies and citation 
# guidelines are available at http://www.ccdc.cam.ac.uk/access/V1 
# 
# Audit and citation data items may have been added by the CCDC. 
# Please retain this information to preserve the provenance of 
# this file and to allow appropriate attribution of the data. 
# 
#######################################################################

data_qq
_audit_block_doi                 10.5517/cc123mvn
_database_code_depnum_ccdc_archive 'CCDC 986601'
loop_
_citation_id
_citation_doi
_citation_year
1 10.1021/cg500235j 2014
_audit_update_record             
;
2014-02-13 deposited with the CCDC.	2024-07-14 downloaded from the CCDC.
;
_audit_creation_date             2014-02-09
_audit_creation_method           
;
  Olex2 1.1
  (compiled 2011.11.01 svn.r2039, GUI svn.r3906)
;
_chemical_name_common            ?
_chemical_name_systematic        
;
 ? 
;
_chemical_formula_moiety         'C50 H36 N2 O10 Zn2, 4(C3 H7 N O), 2(O)'
_chemical_formula_sum            'C62 H64 N6 O16 Zn2'
_chemical_formula_weight         1279.93
_chemical_melting_point          ?
loop_
_atom_type_symbol
_atom_type_description
_atom_type_scat_dispersion_real
_atom_type_scat_dispersion_imag
_atom_type_scat_source
C C 0.0033 0.0016 'International Tables Vol C Tables 4.2.6.8 and 6.1.1.4'
H H 0.0000 0.0000 'International Tables Vol C Tables 4.2.6.8 and 6.1.1.4'
N N 0.0061 0.0033 'International Tables Vol C Tables 4.2.6.8 and 6.1.1.4'
O O 0.0106 0.0060 'International Tables Vol C Tables 4.2.6.8 and 6.1.1.4'
Zn Zn 0.2839 1.4301 'International Tables Vol C Tables 4.2.6.8 and 6.1.1.4'

_space_group_crystal_system      monoclinic
_space_group_IT_number           13
_space_group_name_H-M_alt        'P 1 2/c 1'
_space_group_name_Hall           '-P 2yc'
loop_
_space_group_symop_id
_space_group_symop_operation_xyz
1 'x, y, z'
2 '-x, y, -z+1/2'
3 '-x, -y, -z'
4 'x, -y, z-1/2'

_cell_length_a                   17.053(6)
_cell_length_b                   11.363(4)
_cell_length_c                   18.518(6)
_cell_angle_alpha                90.00
_cell_angle_beta                 116.226(4)
_cell_angle_gamma                90.00
_cell_volume                     3219.0(18)
_cell_formula_units_Z            2
_cell_measurement_reflns_used    ?
_cell_measurement_temperature    371(2)
_cell_measurement_theta_max      ?
_cell_measurement_theta_min      ?
_exptl_absorpt_coefficient_mu    0.815
_exptl_absorpt_correction_T_max  ?
_exptl_absorpt_correction_T_min  ?
_exptl_absorpt_correction_type   ?
_exptl_absorpt_process_details   ?
_exptl_crystal_colour            ?
_exptl_crystal_density_diffrn    1.321
_exptl_crystal_density_meas      ?
_exptl_crystal_density_method    'not measured'
_exptl_crystal_description       ?
_exptl_crystal_F_000             1332
_exptl_crystal_size_max          ?
_exptl_crystal_size_mid          ?
_exptl_crystal_size_min          ?
_exptl_special_details           
;
 ? 
;
_diffrn_reflns_av_R_equivalents  0.0459
_diffrn_reflns_av_unetI/netI     0.0373
_diffrn_reflns_limit_h_max       17
_diffrn_reflns_limit_h_min       -20
_diffrn_reflns_limit_k_max       13
_diffrn_reflns_limit_k_min       -13
_diffrn_reflns_limit_l_max       22
_diffrn_reflns_limit_l_min       -14
_diffrn_reflns_number            19822
_diffrn_reflns_theta_full        25.00
_diffrn_reflns_theta_max         25.00
_diffrn_reflns_theta_min         1.79
_diffrn_ambient_temperature      371.15
_diffrn_detector_area_resol_mean ?
_diffrn_measured_fraction_theta_full 0.991
_diffrn_measured_fraction_theta_max 0.991
_diffrn_measurement_device_type  ?
_diffrn_measurement_method       ?
_diffrn_radiation_monochromator  graphite
_diffrn_radiation_type           'Mo K\a'
_diffrn_radiation_wavelength     0.710747
_diffrn_source                   'fine-focus sealed tube'
_diffrn_source_current           40.0
_diffrn_source_power             2.0
_diffrn_source_voltage           50.0
_diffrn_standards_decay_%        ?
_diffrn_standards_interval_count ?
_diffrn_standards_interval_time  ?
_diffrn_standards_number         ?
_reflns_number_gt                5200
_reflns_number_total             5630
_reflns_threshold_expression     >2sigma(I)
_computing_cell_refinement       ?
_computing_data_collection       ?
_computing_data_reduction        ?
_computing_molecular_graphics    
;
O. V. Dolomanov, L. J. Bourhis, R. J. Gildea, J. A. K. Howard and H. Puschmann,
OLEX2: a complete structure solution, refinement and analysis program.
J. Appl. Cryst. (2009). 42, 339-341.
;
_computing_publication_material  
;
O. V. Dolomanov, L. J. Bourhis, R. J. Gildea, J. A. K. Howard and H. Puschmann,
OLEX2: a complete structure solution, refinement and analysis program.
J. Appl. Cryst. (2009). 42, 339-341.
;
_computing_structure_refinement  
;
XL, G.M. Sheldrick, Acta Cryst.
(2008). A64, 112-122
;
_computing_structure_solution    
;
XS, G.M. Sheldrick, Acta Cryst.
(2008). A64, 112-122
;
_refine_diff_density_max         2.153
_refine_diff_density_min         -1.255
_refine_diff_density_rms         0.226
_refine_ls_extinction_coef       ?
_refine_ls_extinction_method     none
_refine_ls_goodness_of_fit_ref   1.723
_refine_ls_hydrogen_treatment    mixed
_refine_ls_matrix_type           full
_refine_ls_number_parameters     389
_refine_ls_number_reflns         5630
_refine_ls_number_restraints     73
_refine_ls_R_factor_all          0.1222
_refine_ls_R_factor_gt           0.1171
_refine_ls_restrained_S_all      3.073
_refine_ls_shift/su_max          0.014
_refine_ls_shift/su_mean         0.002
_refine_ls_structure_factor_coef Fsqd
_refine_ls_weighting_details     
'calc w=1/[\s^2^(Fo^2^)+(0.2000P)^2^+0.0000P] where P=(Fo^2^+2Fc^2^)/3'
_refine_ls_weighting_scheme      calc
_refine_ls_wR_factor_gt          0.3614
_refine_ls_wR_factor_ref         0.3736
_refine_special_details          
;
 Refinement of F^2^ against ALL reflections.  The weighted R-factor wR and 
 goodness of fit S are based on F^2^, conventional R-factors R are based 
 on F, with F set to zero for negative F^2^. The threshold expression of 
 F^2^ > 2sigma(F^2^) is used only for calculating R-factors(gt) etc. and is 
 not relevant to the choice of reflections for refinement.  R-factors based 
 on F^2^ are statistically about twice as large as those based on F, and R- 
 factors based on ALL data will be even larger. 
;
_atom_sites_solution_hydrogens   geom
_atom_sites_solution_primary     direct
_atom_sites_solution_secondary   difmap
loop_
_atom_site_label
_atom_site_type_symbol
_atom_site_fract_x
_atom_site_fract_y
_atom_site_fract_z
_atom_site_U_iso_or_equiv
_atom_site_adp_type
_atom_site_occupancy
_atom_site_symmetry_multiplicity
_atom_site_calc_flag
_atom_site_refinement_flags
_atom_site_disorder_assembly
_atom_site_disorder_group
C1 C 0.1399(6) 0.6238(9) 0.5638(6) 0.028(2) Uani 1 1 d . . .
C2 C 0.2273(6) 0.6874(8) 0.6008(6) 0.027(2) Uani 1 1 d . . .
C3 C 0.2884(7) 0.6594(9) 0.6779(6) 0.032(2) Uani 1 1 d . . .
H3 H 0.2754 0.6030 0.7073 0.039 Uiso 1 1 calc R . .
C4 C 0.3690(7) 0.7153(11) 0.7114(6) 0.038(2) Uani 1 1 d . . .
H4 H 0.4097 0.6983 0.7638 0.045 Uiso 1 1 calc R . .
C5 C 0.3881(7) 0.7975(10) 0.6651(6) 0.036(2) Uani 1 1 d . . .
H5 H 0.4421 0.8349 0.6875 0.043 Uiso 1 1 calc R . .
C6 C 0.3288(6) 0.8246(9) 0.5870(6) 0.027(2) Uani 1 1 d . . .
C7 C 0.2467(6) 0.7714(9) 0.5558(6) 0.026(2) Uani 1 1 d . . .
H7 H 0.2045 0.7920 0.5047 0.032 Uiso 1 1 calc R . .
C8 C 0.2437(6) 1.1769(10) 0.4089(7) 0.035(2) Uani 1 1 d . . .
C9 C 0.2269(7) 1.2058(12) 0.3307(7) 0.043(3) Uani 1 1 d . . .
H9 H 0.2576 1.1678 0.3066 0.052 Uiso 1 1 calc R . .
C10 C 0.1645(8) 1.2916(15) 0.2872(8) 0.056(4) Uani 1 1 d . . .
H10 H 0.1563 1.3129 0.2359 0.067 Uiso 1 1 calc R . .
C11 C 0.1153(8) 1.3444(13) 0.3210(9) 0.050(3) Uani 1 1 d . . .
H11 H 0.0728 1.3998 0.2921 0.060 Uiso 1 1 calc R . .
C12 C 0.1303(7) 1.3132(10) 0.3991(7) 0.036(2) Uani 1 1 d . . .
C13 C 0.1933(7) 1.2282(10) 0.4425(7) 0.033(2) Uani 1 1 d . . .
H13 H 0.2013 1.2062 0.4937 0.040 Uiso 1 1 calc R . .
C14 C 0.0799(7) 1.3743(10) 0.4384(7) 0.033(2) Uani 1 1 d . . .
C15 C 0.4279(7) 1.1922(9) 0.4316(7) 0.031(2) Uani 1 1 d . . .
H15 H 0.3913 1.2569 0.4106 0.037 Uiso 1 1 calc R . .
C16 C 0.3981(7) 1.0935(8) 0.4609(7) 0.027(2) Uani 1 1 d . . .
C17 C 0.3124(7) 1.0888(9) 0.4558(7) 0.030(2) Uani 1 1 d . . .
C18 C 0.2921(6) 0.9989(9) 0.4967(6) 0.027(2) Uani 1 1 d . . .
H18 H 0.2370 0.9980 0.4954 0.033 Uiso 1 1 calc R . .
C19 C 0.3509(7) 0.9116(8) 0.5389(7) 0.028(2) Uani 1 1 d . . .
C20 C 0.4329(6) 0.9075(8) 0.5358(6) 0.027(2) Uani 1 1 d . . .
C21 C 0.4567(6) 0.9998(8) 0.4988(6) 0.0249(19) Uani 1 1 d . . .
C22 C 0.4904(7) 0.8072(9) 0.5661(6) 0.031(2) Uani 1 1 d . . .
H22 H 0.4718 0.7414 0.5842 0.037 Uiso 1 1 calc R . .
C23 C 0.1226(12) 0.216(3) 0.8137(18) 0.131(12) Uani 1 1 d . . .
H23A H 0.1696 0.1631 0.8437 0.197 Uiso 1 1 calc R . .
H23B H 0.0862 0.1827 0.7620 0.197 Uiso 1 1 calc R . .
H23C H 0.0885 0.2295 0.8426 0.197 Uiso 1 1 calc R . .
C24 C 0.2208(16) 0.383(2) 0.8734(12) 0.095(6) Uani 1 1 d . . .
H24A H 0.2047 0.3762 0.9167 0.143 Uiso 1 1 calc R . .
H24B H 0.2229 0.4651 0.8612 0.143 Uiso 1 1 calc R . .
H24C H 0.2772 0.3486 0.8890 0.143 Uiso 1 1 calc R . .
C25 C 0.1314(11) 0.3710(13) 0.7309(8) 0.059(4) Uani 1 1 d . . .
H25 H 0.1555 0.4428 0.7272 0.070 Uiso 1 1 calc R . .
O7 O 0.0828(11) 0.0482(17) 0.9372(12) 0.116(5) Uani 1 1 d DU . .
O8 O 0.545(3) 0.505(4) 0.609(3) 0.135(13) Uiso 0.50 1 d P . .
N1 N 0.1571(9) 0.3239(13) 0.8033(7) 0.065(3) Uani 1 1 d . . .
N3 N -0.0631(11) 0.0187(16) 0.8881(11) 0.096(5) Uani 1 1 d DU . .
O1 O 0.1319(5) 0.5375(7) 0.6032(5) 0.0385(18) Uani 1 1 d . . .
O2 O 0.0838(5) 0.6600(7) 0.4977(5) 0.0395(18) Uani 1 1 d . . .
O3 O 0.0881(5) 1.3369(8) 0.5039(5) 0.0420(19) Uani 1 1 d . . .
O4 O 0.0332(5) 1.4597(8) 0.3983(5) 0.045(2) Uani 1 1 d . . .
O5 O 0.0789(5) 0.3267(7) 0.6698(5) 0.042(2) Uani 1 1 d . . .
Zn1 Zn 0.03282(6) 0.41830(9) 0.56829(6) 0.0250(7) Uani 1 1 d . . .
C29 C -0.1441(17) 0.066(3) 0.885(3) 0.179(16) Uani 1 1 d DU . .
H29A H -0.1885 0.0575 0.8302 0.269 Uiso 1 1 d R . .
H29B H -0.1377 0.1475 0.8994 0.269 Uiso 1 1 d R . .
H29C H -0.1604 0.0221 0.9201 0.269 Uiso 1 1 d R . .
C30 C -0.069(3) -0.093(2) 0.848(3) 0.170(15) Uani 1 1 d DU . .
H30A H -0.0576 -0.1562 0.8860 0.255 Uiso 1 1 d R . .
H30B H -0.0276 -0.0965 0.8260 0.255 Uiso 1 1 d R . .
H30C H -0.1271 -0.1004 0.8057 0.255 Uiso 1 1 d R . .
C31 C 0.0132(11) 0.0742(18) 0.9326(15) 0.093(6) Uani 1 1 d DU . .
H31 H 0.0111 0.1388 0.9626 0.112 Uiso 1 1 calc R . .
N2 N 0.5730(17) 1.141(3) 0.6858(18) 0.149(9) Uani 1 1 d DU . .
C28 C 0.620(2) 1.187(3) 0.6604(19) 0.126(9) Uani 1 1 d DU . .
H28 H 0.6019 1.2547 0.6287 0.151 Uiso 1 1 calc R . .
O6 O 0.695(3) 1.144(3) 0.677(3) 0.239(15) Uani 1 1 d U . .
C27 C 0.592(2) 1.040(3) 0.739(2) 0.151(12) Uani 1 1 d DU . .
H27A H 0.5938 0.9704 0.7110 0.227 Uiso 1 1 d R . .
H27B H 0.5463 1.0329 0.7561 0.227 Uiso 1 1 d R . .
H27C H 0.6469 1.0514 0.7853 0.227 Uiso 1 1 d R . .
C26 C 0.483(2) 1.171(4) 0.667(3) 0.199(18) Uani 1 1 d DU . .
H26A H 0.4801 1.2544 0.6741 0.299 Uiso 1 1 d R . .
H26B H 0.4650 1.1300 0.7024 0.299 Uiso 1 1 d R . .
H26C H 0.4443 1.1508 0.6121 0.299 Uiso 1 1 d R . .
O9 O 0.360(4) 0.481(5) 0.551(3) 0.171(17) Uiso 0.50 1 d P . .

loop_
_atom_site_aniso_label
_atom_site_aniso_U_11
_atom_site_aniso_U_22
_atom_site_aniso_U_33
_atom_site_aniso_U_23
_atom_site_aniso_U_13
_atom_site_aniso_U_12
C1 0.020(4) 0.034(5) 0.039(6) -0.004(4) 0.021(4) -0.002(4)
C2 0.028(5) 0.031(5) 0.029(5) -0.003(4) 0.019(4) -0.001(4)
C3 0.032(5) 0.037(5) 0.031(5) -0.004(4) 0.017(4) -0.005(4)
C4 0.034(5) 0.051(6) 0.028(5) -0.003(5) 0.013(4) -0.005(5)
C5 0.028(5) 0.049(6) 0.030(5) -0.008(5) 0.012(4) -0.018(5)
C6 0.024(4) 0.032(5) 0.029(5) -0.003(4) 0.016(4) -0.004(4)
C7 0.018(4) 0.032(5) 0.033(5) -0.006(4) 0.015(4) -0.005(4)
C8 0.024(5) 0.044(6) 0.043(6) 0.005(5) 0.022(5) 0.002(4)
C9 0.033(5) 0.064(8) 0.045(6) 0.008(6) 0.029(5) 0.009(5)
C10 0.036(6) 0.099(11) 0.046(7) 0.027(7) 0.030(6) 0.023(7)
C11 0.028(5) 0.063(8) 0.068(8) 0.029(7) 0.028(6) 0.018(5)
C12 0.030(5) 0.040(5) 0.046(6) 0.002(5) 0.025(5) 0.003(4)
C13 0.027(5) 0.037(5) 0.040(6) 0.002(5) 0.019(4) 0.003(4)
C14 0.020(4) 0.031(5) 0.055(7) 0.002(5) 0.023(5) -0.001(4)
C15 0.029(5) 0.024(5) 0.041(6) 0.001(4) 0.018(5) 0.001(4)
C16 0.024(5) 0.029(5) 0.039(6) -0.003(4) 0.024(5) 0.000(4)
C17 0.023(5) 0.038(6) 0.034(6) -0.002(4) 0.017(5) 0.002(4)
C18 0.017(4) 0.034(5) 0.036(5) -0.004(4) 0.017(4) -0.001(4)
C19 0.025(5) 0.033(5) 0.030(5) -0.005(4) 0.017(4) -0.006(4)
C20 0.021(5) 0.032(5) 0.031(5) -0.005(4) 0.014(4) -0.003(4)
C21 0.020(4) 0.028(4) 0.030(5) -0.002(4) 0.014(4) -0.001(4)
C22 0.034(5) 0.026(5) 0.039(6) 0.003(4) 0.022(5) -0.002(4)
C23 0.047(9) 0.16(2) 0.17(2) 0.13(2) 0.037(12) 0.019(12)
C24 0.115(16) 0.110(15) 0.051(10) -0.020(11) 0.028(11) -0.005(14)
C25 0.076(9) 0.060(8) 0.040(7) 0.011(7) 0.026(7) 0.024(8)
O7 0.103(10) 0.097(9) 0.146(13) -0.004(10) 0.052(9) -0.011(9)
N1 0.073(8) 0.087(9) 0.039(6) 0.015(6) 0.028(6) 0.015(7)
N3 0.095(8) 0.090(8) 0.100(8) -0.005(7) 0.038(7) 0.001(7)
O1 0.030(4) 0.038(4) 0.045(4) 0.002(4) 0.014(3) -0.007(3)
O2 0.027(4) 0.049(4) 0.043(4) 0.007(4) 0.016(3) -0.010(3)
O3 0.031(4) 0.054(5) 0.048(5) 0.000(4) 0.023(4) 0.008(3)
O4 0.045(4) 0.043(4) 0.059(5) 0.010(4) 0.034(4) 0.013(4)
O5 0.037(4) 0.050(5) 0.037(4) 0.022(4) 0.014(4) 0.004(4)
Zn1 0.0193(10) 0.0273(10) 0.0312(10) 0.0077(4) 0.0136(7) 0.0016(3)
C29 0.17(2) 0.17(2) 0.19(2) 0.000(16) 0.076(16) 0.003(16)
C30 0.18(2) 0.15(2) 0.16(2) -0.017(15) 0.053(15) 0.001(15)
C31 0.085(9) 0.090(9) 0.102(10) -0.003(7) 0.038(7) -0.006(7)
N2 0.154(12) 0.148(12) 0.147(12) 0.005(8) 0.067(9) -0.011(8)
C28 0.126(12) 0.132(12) 0.124(12) -0.004(8) 0.060(9) -0.006(8)
O6 0.24(2) 0.22(2) 0.24(2) -0.005(15) 0.096(16) 0.015(16)
C27 0.151(18) 0.140(17) 0.145(18) 0.008(15) 0.049(14) -0.010(15)
C26 0.21(2) 0.20(2) 0.19(2) -0.009(16) 0.087(17) 0.015(16)

_geom_special_details            
;
 All esds (except the esd in the dihedral angle between two l.s. planes) 
 are estimated using the full covariance matrix.  The cell esds are taken 
 into account individually in the estimation of esds in distances, angles 
 and torsion angles; correlations between esds in cell parameters are only 
 used when they are defined by crystal symmetry.  An approximate (isotropic) 
 treatment of cell esds is used for estimating esds involving l.s. planes. 
;
loop_
_geom_bond_atom_site_label_1
_geom_bond_atom_site_label_2
_geom_bond_distance
_geom_bond_site_symmetry_2
_geom_bond_publ_flag
C1 C2 1.520(14) . ?
C1 O1 1.265(14) . ?
C1 O2 1.244(14) . ?
C2 C3 1.382(15) . ?
C2 C7 1.399(14) . ?
C3 H3 0.9300 . ?
C3 C4 1.387(15) . ?
C4 H4 0.9300 . ?
C4 C5 1.400(16) . ?
C5 H5 0.9300 . ?
C5 C6 1.384(15) . ?
C6 C7 1.395(13) . ?
C6 C19 1.486(14) . ?
C7 H7 0.9300 . ?
C8 C9 1.387(16) . ?
C8 C13 1.391(15) . ?
C8 C17 1.493(15) . ?
C9 H9 0.9300 . ?
C9 C10 1.405(18) . ?
C10 H10 0.9300 . ?
C10 C11 1.386(18) . ?
C11 H11 0.9300 . ?
C11 C12 1.398(18) . ?
C12 C13 1.403(16) . ?
C12 C14 1.517(14) . ?
C13 H13 0.9300 . ?
C14 O3 1.235(14) . ?
C14 O4 1.268(14) . ?
C15 H15 0.9300 . ?
C15 C16 1.433(14) . ?
C15 C22 1.375(16) 3_676 ?
C16 C17 1.424(13) . ?
C16 C21 1.416(14) . ?
C17 C18 1.402(15) . ?
C18 H18 0.9300 . ?
C18 C19 1.381(15) . ?
C19 C20 1.426(14) . ?
C20 C21 1.406(14) . ?
C20 C22 1.445(14) . ?
C21 C21 1.459(17) 3_676 ?
C22 C15 1.375(16) 3_676 ?
C22 H22 0.9300 . ?
C23 H23A 0.9600 . ?
C23 H23B 0.9600 . ?
C23 H23C 0.9600 . ?
C23 N1 1.41(3) . ?
C24 H24A 0.9600 . ?
C24 H24B 0.9600 . ?
C24 H24C 0.9600 . ?
C24 N1 1.44(2) . ?
C25 H25 0.9300 . ?
C25 N1 1.325(18) . ?
C25 O5 1.200(18) . ?
O7 C31 1.189(15) . ?
N3 C29 1.455(16) . ?
N3 C30 1.450(16) . ?
N3 C31 1.349(15) . ?
O1 Zn1 2.035(7) . ?
O2 Zn1 2.023(8) 3_566 ?
O3 Zn1 2.039(8) 1_565 ?
O4 Zn1 2.046(8) 3_576 ?
O5 Zn1 1.983(8) . ?
Zn1 O2 2.023(8) 3_566 ?
Zn1 O3 2.039(8) 1_545 ?
Zn1 O4 2.046(8) 3_576 ?
Zn1 Zn1 2.932(2) 3_566 ?
C29 H29A 0.9600 . ?
C29 H29B 0.9600 . ?
C29 H29C 0.9599 . ?
C30 H30A 0.9600 . ?
C30 H30B 0.9600 . ?
C30 H30C 0.9600 . ?
C31 H31 0.9300 . ?
N2 C28 1.219(16) . ?
N2 C27 1.452(17) . ?
N2 C26 1.460(17) . ?
C28 H28 0.9300 . ?
C28 O6 1.26(4) . ?
C27 H27A 0.9600 . ?
C27 H27B 0.9599 . ?
C27 H27C 0.9600 . ?
C26 H26A 0.9600 . ?
C26 H26B 0.9600 . ?
C26 H26C 0.9601 . ?

loop_
_geom_angle_atom_site_label_1
_geom_angle_atom_site_label_2
_geom_angle_atom_site_label_3
_geom_angle
_geom_angle_site_symmetry_1
_geom_angle_site_symmetry_3
_geom_angle_publ_flag
O1 C1 C2 116.3(9) . . ?
O2 C1 C2 117.4(9) . . ?
O2 C1 O1 126.3(9) . . ?
C3 C2 C1 119.8(9) . . ?
C3 C2 C7 120.2(9) . . ?
C7 C2 C1 120.0(9) . . ?
C2 C3 H3 119.9 . . ?
C2 C3 C4 120.2(10) . . ?
C4 C3 H3 119.9 . . ?
C3 C4 H4 120.5 . . ?
C3 C4 C5 119.0(10) . . ?
C5 C4 H4 120.5 . . ?
C4 C5 H5 119.1 . . ?
C6 C5 C4 121.9(9) . . ?
C6 C5 H5 119.1 . . ?
C5 C6 C7 118.2(9) . . ?
C5 C6 C19 120.9(9) . . ?
C7 C6 C19 120.9(9) . . ?
C2 C7 H7 119.8 . . ?
C6 C7 C2 120.5(10) . . ?
C6 C7 H7 119.8 . . ?
C9 C8 C13 119.0(10) . . ?
C9 C8 C17 120.8(9) . . ?
C13 C8 C17 120.1(10) . . ?
C8 C9 H9 119.4 . . ?
C8 C9 C10 121.2(10) . . ?
C10 C9 H9 119.4 . . ?
C9 C10 H10 120.1 . . ?
C11 C10 C9 119.9(11) . . ?
C11 C10 H10 120.1 . . ?
C10 C11 H11 120.5 . . ?
C10 C11 C12 119.1(11) . . ?
C12 C11 H11 120.5 . . ?
C1