
#######################################################################
#
#                 Cambridge Crystallographic Data Centre
#                                CCDC
#
#######################################################################
#
# If this CIF has been generated from an entry in the Cambridge
# Structural Database, then it will include bibliographic, chemical,
# crystal, experimental, refinement or atomic coordinate data resulting
# from the CCDC's data processing and validation procedures.
#
#######################################################################

data_CSD_CIF_XOPCAJ
_audit_creation_date 2019-06-05
_audit_creation_method CSD-ConQuest-V1
_database_code_CSD XOPCAJ
_database_code_depnum_ccdc_archive 'CCDC 1872415'
_chemical_formula_sum 'C21 H21 N1 O3'
_chemical_formula_moiety
;
C21 H21 N1 O3
;
_journal_coden_Cambridge 4
_journal_volume 141
_journal_year 2019
_journal_page_first 9175
_journal_name_full 'J.Am.Chem.Soc. '
loop_
_publ_author_name
"Wei Wang"
"Haofu Zhu"
"Shuya Liu"
"Zhiguo Zhao"
"Liang Zhang"
"Jingcheng Hao"
"Yao Wang"
_chemical_name_systematic
;
1-(7,9-diacetyl-11-methyl-6H-azepino[1,2-a]indol-6-yl)propan-2-one
;
_chemical_name_common
;
1,1'-(11-methyl-6-(2-oxopropyl)-6H-azepino[1,2-a]indole-7,9-diyl)bis(ethan-1-o
ne); Teaching Subset: Fundamental Chemistry
;
_cell_volume   1805.959
_exptl_crystal_colour 'red'
_exptl_crystal_density_diffrn 1.233
_exptl_crystal_description 'plate'
_diffrn_ambient_temperature 296.1
#These two values have been output from a single CSD field.
_refine_ls_R_factor_gt 0.0454
_refine_ls_wR_factor_gt 0.0454
_symmetry_cell_setting monoclinic
_symmetry_space_group_name_H-M 'P 21/c'
_symmetry_Int_Tables_number 14
loop_
_symmetry_equiv_pos_site_id
_symmetry_equiv_pos_as_xyz
1 x,y,z
2 -x,1/2+y,1/2-z
3 -x,-y,-z
4 x,-1/2-y,-1/2+z
_cell_length_a 13.521(9)
_cell_length_b 8.727(6)
_cell_length_c 16.583(11)
_cell_angle_alpha 90
_cell_angle_beta 112.641(7)
_cell_angle_gamma 90
_cell_formula_units_Z 4
loop_
_atom_type_symbol
_atom_type_radius_bond
C 0.68
H 0.23
N 0.68
O 0.68
loop_
_atom_site_label
_atom_site_type_symbol
_atom_site_fract_x
_atom_site_fract_y
_atom_site_fract_z
N1 N 0.32606(9) 0.39933(12) 0.43611(7)
O1 O 0.07590(11) 0.57769(15) 0.60447(9)
O2 O 0.33344(14) 0.03701(16) 0.56052(9)
C1 C 0.40203(10) 0.38643(15) 0.40043(8)
O3 O 0.11101(13) 0.02546(15) 0.37887(11)
C2 C 0.29827(10) 0.55410(14) 0.43445(8)
C3 C 0.17744(11) 0.54293(15) 0.51845(9)
C4 C 0.42602(10) 0.53444(16) 0.37908(8)
C5 C 0.35925(11) 0.63981(15) 0.40002(8)
C6 C 0.22274(10) 0.61181(15) 0.46736(8)
H1 H 0.20090 0.71220 0.45150
C7 C 0.24218(11) 0.27089(15) 0.52512(8)
C8 C 0.25598(11) 0.27325(14) 0.43915(8)
H2 H 0.29070 0.17710 0.43430
C9 C 0.20336(10) 0.38996(16) 0.55491(9)
H3 H 0.19150 0.37210 0.60570
C10 C 0.14952(12) 0.28402(15) 0.36000(8)
H4 H 0.10650 0.36380 0.37130
H5 H 0.16460 0.31590 0.30990
C11 C 0.10553(12) 0.63181(18) 0.55006(10)
C12 C 0.45239(12) 0.25638(17) 0.38510(9)
H6 H 0.43580 0.15880 0.39860
C13 C 0.08427(14) 0.14079(18) 0.33644(10)
C14 C 0.52771(13) 0.2785(2) 0.34908(10)
H7 H 0.56310 0.19400 0.33880
C15 C 0.50387(11) 0.55236(19) 0.34290(9)
H8 H 0.52200 0.64920 0.32960
C16 C 0.27974(13) 0.13029(18) 0.57880(9)
C17 C 0.55226(12) 0.4243(2) 0.32767(10)
H9 H 0.60260 0.43460 0.30250
C18 C 0.35977(15) 0.80964(17) 0.39001(12)
H10 H 0.31880 0.83670 0.33030
H11 H 0.43220 0.84470 0.40630
H12 H 0.32870 0.85680 0.42700
C19 C 0.06660(16) 0.78689(19) 0.51251(15)
H13 H 0.03030 0.77890 0.45020
H14 H 0.12650 0.85510 0.52610
H15 H 0.01800 0.82610 0.53710
C20 C 0.25293(16) 0.1060(2) 0.65804(11)
H16 H 0.17720 0.11820 0.64210
H17 H 0.29060 0.17980 0.70210
H18 H 0.27390 0.00450 0.68050
C21 C -0.01743(18) 0.1501(2) 0.25707(14)
H19 H -0.00280 0.12780 0.20600
H20 H -0.04680 0.25130 0.25230
H21 H -0.06790 0.07700 0.26190
#END
