####################################################################### 
# 
# This file contains crystal structure data downloaded from the 
# Cambridge Structural Database (CSD) hosted by the Cambridge 
# Crystallographic Data Centre (CCDC).
# 
# Full information about CCDC data access policies and citation 
# guidelines are available at http://www.ccdc.cam.ac.uk/access/V1 
# 
# Audit and citation data items may have been added by the CCDC. 
# Please retain this information to preserve the provenance of 
# this file and to allow appropriate attribution of the data. 
# 
#######################################################################

data_s85o
_audit_block_doi                 10.5517/ccrbqyq
_database_code_depnum_ccdc_archive 'CCDC 695514'
loop_
_citation_id
_citation_doi
_citation_year
1 10.1021/om800678g 2009
_audit_update_record             
;
2008-07-17 deposited with the CCDC.	2024-07-14 downloaded from the CCDC.
;

_audit_creation_method           SHELXL-97
_chemical_name_systematic        
;
?
;
_chemical_name_common            ?
_chemical_melting_point          ?
_chemical_formula_moiety         ?
_chemical_formula_sum            'C30.75 H25.75 N1.25 O10.25 Si Zn2'
_chemical_formula_weight         735.61

loop_
_atom_type_symbol
_atom_type_description
_atom_type_scat_dispersion_real
_atom_type_scat_dispersion_imag
_atom_type_scat_source
C C 0.0033 0.0016 'International Tables Vol C Tables 4.2.6.8 and 6.1.1.4'
H H 0.0000 0.0000 'International Tables Vol C Tables 4.2.6.8 and 6.1.1.4'
O O 0.0106 0.0060 'International Tables Vol C Tables 4.2.6.8 and 6.1.1.4'
Si Si 0.0817 0.0704 'International Tables Vol C Tables 4.2.6.8 and 6.1.1.4'
Zn Zn 0.2839 1.4301 'International Tables Vol C Tables 4.2.6.8 and 6.1.1.4'
N N 0.0061 0.0033 'International Tables Vol C Tables 4.2.6.8 and 6.1.1.4'

_symmetry_cell_setting           Triclinic
_symmetry_space_group_name_H-M   P-1

loop_
_symmetry_equiv_pos_as_xyz
'x, y, z'
'-x, -y, -z'

_cell_length_a                   9.9644(8)
_cell_length_b                   17.1080(13)
_cell_length_c                   24.0173(18)
_cell_angle_alpha                87.8180(10)
_cell_angle_beta                 79.6890(10)
_cell_angle_gamma                75.4550(10)
_cell_volume                     3898.9(5)
_cell_formula_units_Z            4
_cell_measurement_temperature    153(2)
_cell_measurement_reflns_used    6617
_cell_measurement_theta_min      2.49
_cell_measurement_theta_max      28.58

_exptl_crystal_description       block
_exptl_crystal_colour            colorless
_exptl_crystal_size_max          0.554
_exptl_crystal_size_mid          0.386
_exptl_crystal_size_min          0.252
_exptl_crystal_density_meas      ?
_exptl_crystal_density_diffrn    1.253
_exptl_crystal_density_method    'not measured'
_exptl_crystal_F_000             1500
_exptl_absorpt_coefficient_mu    1.309
_exptl_absorpt_correction_type   analytical
_exptl_absorpt_correction_T_min  0.5517
_exptl_absorpt_correction_T_max  0.7404
_exptl_absorpt_process_details   face-indexed

_exptl_special_details           
;
?
;

_diffrn_ambient_temperature      153(2)
_diffrn_radiation_wavelength     0.71073
_diffrn_radiation_type           MoK\a
_diffrn_radiation_source         'fine-focus sealed tube'
_diffrn_radiation_monochromator  graphite
_diffrn_measurement_device_type  'CCD area detector'
_diffrn_measurement_method       'omega scans'
_diffrn_detector_area_resol_mean ?
_diffrn_standards_number         ?
_diffrn_standards_interval_count ?
_diffrn_standards_interval_time  ?
_diffrn_standards_decay_%        ?
_diffrn_reflns_number            36285
_diffrn_reflns_av_R_equivalents  0.0555
_diffrn_reflns_av_sigmaI/netI    0.0559
_diffrn_reflns_limit_h_min       -13
_diffrn_reflns_limit_h_max       12
_diffrn_reflns_limit_k_min       -23
_diffrn_reflns_limit_k_max       22
_diffrn_reflns_limit_l_min       -31
_diffrn_reflns_limit_l_max       32
_diffrn_reflns_theta_min         0.86
_diffrn_reflns_theta_max         28.93
_reflns_number_total             18256
_reflns_number_gt                13893
_reflns_threshold_expression     >2sigma(I)

_computing_data_collection       'Bruker SMART'
_computing_cell_refinement       'Bruker SMART'
_computing_data_reduction        'Bruker SAINT'
_computing_structure_solution    'SHELXS-97 (Sheldrick, 1990)'
_computing_structure_refinement  'SHELXL-97 (Sheldrick, 1997)'
_computing_molecular_graphics    'Bruker SHELXTL'
_computing_publication_material  'Bruker SHELXTL'

_refine_special_details          
;
Refinement of F^2^ against ALL reflections. The weighted R-factor wR and
goodness of fit S are based on F^2^, conventional R-factors R are based
on F, with F set to zero for negative F^2^. The threshold expression of
F^2^ > 2sigma(F^2^) is used only for calculating R-factors(gt) etc. and is
not relevant to the choice of reflections for refinement. R-factors based
on F^2^ are statistically about twice as large as those based on F, and R-
factors based on ALL data will be even larger.

The proposed structural model was refined with contributions from the
solvate molecules removed from the diffraction data using the bypass
procedure in PLATON (Spek, 1990). The "squeezed" data are reported here.
Total Potential Solvent Accessible Area Vol 1643.0 Ang^3 and
Electron Count / Cell = 369

;

_refine_ls_structure_factor_coef Fsqd
_refine_ls_matrix_type           full
_refine_ls_weighting_scheme      calc
_refine_ls_weighting_details     
'calc w=1/[\s^2^(Fo^2^)+(0.0952P)^2^+7.8572P] where P=(Fo^2^+2Fc^2^)/3'
_atom_sites_solution_primary     direct
_atom_sites_solution_secondary   difmap
_atom_sites_solution_hydrogens   geom
_refine_ls_hydrogen_treatment    constr
_refine_ls_extinction_method     none
_refine_ls_extinction_coef       ?
_refine_ls_number_reflns         18256
_refine_ls_number_parameters     703
_refine_ls_number_restraints     0
_refine_ls_R_factor_all          0.0772
_refine_ls_R_factor_gt           0.0656
_refine_ls_wR_factor_ref         0.1988
_refine_ls_wR_factor_gt          0.1926
_refine_ls_goodness_of_fit_ref   1.066
_refine_ls_restrained_S_all      1.066
_refine_ls_shift/su_max          0.002
_refine_ls_shift/su_mean         0.000

loop_
_atom_site_label
_atom_site_type_symbol
_atom_site_fract_x
_atom_site_fract_y
_atom_site_fract_z
_atom_site_U_iso_or_equiv
_atom_site_adp_type
_atom_site_occupancy
_atom_site_symmetry_multiplicity
_atom_site_calc_flag
_atom_site_refinement_flags
_atom_site_disorder_assembly
_atom_site_disorder_group
Zn1 Zn 0.34326(5) 0.61349(2) 0.780870(18) 0.02516(11) Uani 1 1 d . . .
Zn2 Zn 0.60783(5) 0.87690(3) 0.723650(19) 0.02934(12) Uani 1 1 d . . .
Zn3 Zn 0.62697(5) 0.68539(3) 0.75123(2) 0.03375(13) Uani 1 1 d . . .
Zn4 Zn 0.32778(5) 0.80390(3) 0.744472(19) 0.02868(12) Uani 1 1 d . . .
Si1 Si 0.97731(11) 0.20303(6) 0.88098(4) 0.0242(2) Uani 1 1 d . . .
Si2 Si -0.00851(10) 1.28808(5) 0.61339(4) 0.02064(19) Uani 1 1 d . . .
O1 O 0.4890(3) 0.53139(17) 0.81021(13) 0.0384(7) Uani 1 1 d . . .
O2 O 0.6846(3) 0.56662(16) 0.76703(13) 0.0332(6) Uani 1 1 d . . .
O3 O 0.8722(3) -0.15228(16) 0.78846(13) 0.0369(7) Uani 1 1 d . . .
O4 O 0.6945(3) -0.05822(18) 0.76235(14) 0.0434(8) Uani 1 1 d . . .
O5 O 0.7589(3) 0.19838(15) 1.17029(11) 0.0293(6) Uani 1 1 d . . .
O6 O 0.7789(3) 0.32556(16) 1.15558(11) 0.0318(6) Uani 1 1 d . . .
O7 O 0.2695(3) 0.92634(17) 0.73434(13) 0.0398(7) Uani 1 1 d . . .
O8 O 0.4681(3) 0.96228(17) 0.69463(13) 0.0383(7) Uani 1 1 d . . .
O9 O 0.2608(3) 1.18249(16) 0.33943(11) 0.0330(6) Uani 1 1 d . . .
O10 O 0.2840(3) 1.31013(16) 0.33297(12) 0.0316(6) Uani 1 1 d . . .
O11 O 0.2587(3) 1.54554(17) 0.74321(13) 0.0360(7) Uani 1 1 d . . .
O12 O 0.0852(3) 1.64043(17) 0.71496(14) 0.0389(7) Uani 1 1 d . . .
O13 O 0.4316(3) 0.68275(16) 0.73010(11) 0.0285(6) Uani 1 1 d . . .
O14 O 0.5198(3) 0.80212(17) 0.76995(11) 0.0325(6) Uani 1 1 d . . .
O15 O 0.5429(8) 0.6824(3) 0.8486(2) 0.111(2) Uani 1 1 d . . .
O16 O 0.8117(3) 0.70216(15) 0.77440(12) 0.0350(6) Uani 1 1 d . . .
O17 O 0.1406(3) 0.78752(16) 0.72403(12) 0.0319(6) Uani 1 1 d . . .
O18 O 0.4144(4) 0.8089(2) 0.65176(15) 0.0525(9) Uani 1 1 d . . .
C1 C 0.8702(4) 0.2985(2) 0.85398(15) 0.0272(8) Uani 1 1 d . . .
C2 C 0.7254(5) 0.3250(2) 0.87445(18) 0.0353(9) Uani 1 1 d . . .
H2 H 0.6822 0.2937 0.9023 0.042 Uiso 1 1 calc R . .
C3 C 0.6431(4) 0.3951(2) 0.85544(17) 0.0327(9) Uani 1 1 d . . .
H3 H 0.5446 0.4106 0.8693 0.039 Uiso 1 1 calc R . .
C4 C 0.7057(4) 0.4428(2) 0.81593(16) 0.0282(8) Uani 1 1 d . . .
C5 C 0.8487(4) 0.4179(2) 0.79525(17) 0.0320(9) Uani 1 1 d . . .
H5 H 0.8919 0.4501 0.7682 0.038 Uiso 1 1 calc R . .
C6 C 0.9299(4) 0.3465(2) 0.81345(16) 0.0294(8) Uani 1 1 d . . .
H6 H 1.0275 0.3300 0.7981 0.035 Uiso 1 1 calc R . .
C7 C 0.6204(4) 0.5197(2) 0.79600(16) 0.0252(7) Uani 1 1 d . . .
C8 C 0.9289(4) 0.1148(2) 0.85332(16) 0.0292(8) Uani 1 1 d . . .
C9 C 0.9975(4) 0.0340(2) 0.86128(17) 0.0301(8) Uani 1 1 d . . .
H9 H 1.0719 0.0224 0.8825 0.036 Uiso 1 1 calc R . .
C10 C 0.9602(4) -0.0295(2) 0.83917(16) 0.0301(8) Uani 1 1 d . . .
H10 H 1.0107 -0.0835 0.8444 0.036 Uiso 1 1 calc R . .
C11 C 0.8483(4) -0.0143(2) 0.80926(16) 0.0297(8) Uani 1 1 d . . .
C12 C 0.7799(5) 0.0662(2) 0.8009(2) 0.0423(11) Uani 1 1 d . . .
H12 H 0.7046 0.0778 0.7801 0.051 Uiso 1 1 calc R . .
C13 C 0.8200(5) 0.1292(2) 0.82245(19) 0.0385(10) Uani 1 1 d . . .
H13 H 0.7720 0.1833 0.8160 0.046 Uiso 1 1 calc R . .
C14 C 0.8029(4) -0.0810(2) 0.78544(17) 0.0318(8) Uani 1 1 d . . .
C15 C 0.9293(4) 0.2113(2) 0.96008(15) 0.0247(7) Uani 1 1 d . . .
C16 C 0.9171(5) 0.2863(2) 0.98465(17) 0.0381(10) Uani 1 1 d . . .
H16 H 0.9371 0.3294 0.9612 0.046 Uiso 1 1 calc R . .
C17 C 0.8763(4) 0.2986(2) 1.04252(17) 0.0320(9) Uani 1 1 d . . .
H17 H 0.8709 0.3496 1.0583 0.038 Uiso 1 1 calc R . .
C18 C 0.8434(3) 0.2375(2) 1.07769(15) 0.0216(7) Uani 1 1 d . . .
C19 C 0.8532(4) 0.1634(2) 1.05430(16) 0.0286(8) Uani 1 1 d . . .
H19 H 0.8305 0.1211 1.0779 0.034 Uiso 1 1 calc R . .
C20 C 0.8964(4) 0.1502(2) 0.99610(15) 0.0252(7) Uani 1 1 d . . .
H20 H 0.9035 0.0987 0.9807 0.030 Uiso 1 1 calc R . .
C21 C 0.7903(4) 0.2543(2) 1.13954(15) 0.0256(7) Uani 1 1 d . . .
C22 C 1.1681(4) 0.1996(2) 0.85575(17) 0.0329(9) Uani 1 1 d . . .
C23 C 1.2268(6) 0.2548(3) 0.8751(3) 0.0571(14) Uani 1 1 d . . .
H23 H 1.1724 0.2919 0.9039 0.068 Uiso 1 1 calc R . .
C24 C 1.3641(6) 0.2580(3) 0.8536(3) 0.0658(17) Uani 1 1 d . . .
H24 H 1.4037 0.2959 0.8685 0.079 Uiso 1 1 calc R . .
C25 C 1.4428(6) 0.2062(4) 0.8108(3) 0.0690(18) Uani 1 1 d . . .
H25 H 1.5360 0.2091 0.7951 0.083 Uiso 1 1 calc R . .
C26 C 1.3860(6) 0.1509(5) 0.7913(3) 0.088(3) Uani 1 1 d . . .
H26 H 1.4404 0.1147 0.7619 0.106 Uiso 1 1 calc R . .
C27 C 1.2483(5) 0.1461(4) 0.8136(3) 0.0611(16) Uani 1 1 d . . .
H27 H 1.2104 0.1064 0.7999 0.073 Uiso 1 1 calc R . .
C28 C 0.0926(4) 1.1912(2) 0.64119(15) 0.0230(7) Uani 1 1 d . . .
C29 C 0.0289(4) 1.1456(2) 0.68204(16) 0.0314(8) Uani 1 1 d . . .
H29 H -0.0692 1.1636 0.6960 0.038 Uiso 1 1 calc R . .
C30 C 0.1055(4) 1.0741(2) 0.70297(17) 0.0316(8) Uani 1 1 d . . .
H30 H 0.0593 1.0433 0.7301 0.038 Uiso 1 1 calc R . .
C31 C 0.2500(4) 1.0483(2) 0.68376(16) 0.0258(7) Uani 1 1 d . . .
C32 C 0.3161(4) 1.0941(2) 0.64345(18) 0.0333(9) Uani 1 1 d . . .
H32 H 0.4148 1.0773 0.6305 0.040 Uiso 1 1 calc R . .
C33 C 0.2379(4) 1.1637(2) 0.62250(17) 0.0307(8) Uani 1 1 d . . .
H33 H 0.2838 1.1937 0.5947 0.037 Uiso 1 1 calc R . .
C34 C 0.3345(5) 0.9725(2) 0.70625(17) 0.0331(9) Uani 1 1 d . . .
C35 C 0.0567(4) 1.2852(2) 0.53483(15) 0.0272(7) Uani 1 1 d . . .
C36 C 0.0634(7) 1.2150(3) 0.50530(19) 0.0551(15) Uani 1 1 d . . .
H36 H 0.0280 1.1729 0.5247 0.066 Uiso 1 1 calc R . .
C37 C 0.1208(6) 1.2059(3) 0.44823(19) 0.0530(15) Uani 1 1 d . . .
H37 H 0.1249 1.1576 0.4290 0.064 Uiso 1 1 calc R . .
C38 C 0.1718(4) 1.2661(2) 0.41936(16) 0.0271(8) Uani 1 1 d . . .
C39 C 0.1663(5) 1.3361(2) 0.44786(16) 0.0317(8) Uani 1 1 d . . .
H39 H 0.2020 1.3779 0.4283 0.038 Uiso 1 1 calc R . .
C40 C 0.1089(4) 1.3451(2) 0.50497(16) 0.0287(8) Uani 1 1 d . . .
H40 H 0.1053 1.3935 0.5240 0.034 Uiso 1 1 calc R . .
C41 C 0.2460(4) 1.2525(2) 0.35849(16) 0.0267(7) Uani 1 1 d . . .
C42 C 0.0339(4) 1.3745(2) 0.64568(14) 0.0208(7) Uani 1 1 d . . .
C43 C 0.1376(4) 1.3595(2) 0.68006(16) 0.0274(8) Uani 1 1 d . . .
H43 H 0.1830 1.3053 0.6874 0.033 Uiso 1 1 calc R . .
C44 C 0.1752(4) 1.4220(2) 0.70354(16) 0.0275(8) Uani 1 1 d . . .
H44 H 0.2464 1.4102 0.7263 0.033 Uiso 1 1 calc R . .
C45 C 0.1090(4) 1.5020(2) 0.69387(15) 0.0259(7) Uani 1 1 d . . .
C46 C 0.0033(4) 1.5190(2) 0.66130(16) 0.0282(8) Uani 1 1 d . . .
H46 H -0.0442 1.5734 0.6554 0.034 Uiso 1 1 calc R . .
C47 C -0.0324(4) 1.4556(2) 0.63736(16) 0.0289(8) Uani 1 1 d . . .
H47 H -0.1039 1.4678 0.6147 0.035 Uiso 1 1 calc R . .
C48 C 0.1514(4) 1.5686(2) 0.71884(16) 0.0306(8) Uani 1 1 d . . .
C49 C -0.2001(4) 1.2931(2) 0.63297(19) 0.0317(8) Uani 1 1 d . . .
C50 C -0.2828(7) 1.3369(6) 0.6781(3) 0.090(3) Uani 1 1 d . . .
H50 H -0.2438 1.3714 0.6970 0.108 Uiso 1 1 calc R . .
C51 C -0.4214(8) 1.3341(7) 0.6982(4) 0.121(4) Uani 1 1 d . . .
H51 H -0.4754 1.3662 0.7298 0.146 Uiso 1 1 calc R . .
C52 C -0.4769(7) 1.2854(5) 0.6724(4) 0.103(3) Uani 1 1 d . . .
H52 H -0.5700 1.2807 0.6861 0.124 Uiso 1 1 calc R . .
C53 C -0.3989(7) 1.2427(5) 0.6263(5) 0.129(4) Uani 1 1 d . . .
H53 H -0.4402 1.2099 0.6069 0.155 Uiso 1 1 calc R . .
C54 C -0.2638(6) 1.2452(4) 0.6070(4) 0.103(3) Uani 1 1 d . . .
H54 H -0.2119 1.2135 0.5750 0.124 Uiso 1 1 calc R . .

loop_
_atom_site_aniso_label
_atom_site_aniso_U_11
_atom_site_aniso_U_22
_atom_site_aniso_U_33
_atom_site_aniso_U_23
_atom_site_aniso_U_13
_atom_site_aniso_U_12
Zn1 0.0286(2) 0.01635(19) 0.0276(2) -0.00198(15) -0.00595(17) 0.00077(16)
Zn2 0.0321(3) 0.0201(2) 0.0320(2) -0.00486(16) -0.01027(18) 0.00447(17)
Zn3 0.0250(2) 0.0167(2) 0.0513(3) 0.01094(18) 0.0033(2) 0.00140(17)
Zn4 0.0287(2) 0.0189(2) 0.0335(2) 0.00367(16) -0.00561(18) 0.00284(17)
Si1 0.0293(5) 0.0154(4) 0.0233(5) 0.0017(3) -0.0014(4) 0.0006(4)
Si2 0.0200(5) 0.0176(4) 0.0225(4) 0.0013(3) -0.0019(3) -0.0028(3)
O1 0.0319(16) 0.0308(15) 0.0516(18) 0.0175(13) -0.0097(13) -0.0072(12)
O2 0.0309(15) 0.0202(12) 0.0468(17) 0.0118(11) -0.0062(12) -0.0049(11)
O3 0.0374(16) 0.0217(13) 0.0483(17) -0.0085(12) -0.0091(13) 0.0010(12)
O4 0.0412(18) 0.0334(16) 0.0528(19) -0.0157(14) -0.0212(15) 0.0072(13)
O5 0.0308(14) 0.0226(12) 0.0278(13) 0.0048(10) 0.0018(11) 0.0004(11)
O6 0.0354(15) 0.0239(13) 0.0313(14) -0.0069(10) 0.0029(11) -0.0038(11)
O7 0.0425(18) 0.0256(14) 0.0433(17) 0.0121(12) -0.0061(14) 0.0034(13)
O8 0.0310(16) 0.0286(14) 0.0507(18) 0.0071(13) -0.0125(13) 0.0035(12)
O9 0.0464(17) 0.0221(13) 0.0264(13) -0.0037(10) -0.0009(12) -0.0044(12)
O10 0.0327(15) 0.0214(12) 0.0342(14) 0.0059(10) 0.0044(11) -0.0031(11)
O11 0.0318(16) 0.0296(14) 0.0467(17) -0.0125(12) -0.0105(13) -0.0033(12)
O12 0.0306(16) 0.0249(14) 0.0570(19) -0.0125(13) -0.0046(14) 0.0004(12)
O13 0.0264(14) 0.0279(13) 0.0258(13) 0.0011(10) -0.0017(10) 0.0013(11)
O14 0.0317(15) 0.0336(14) 0.0238(13) 0.0002(11) -0.0039(11) 0.0062(12)
O15 0.143(6) 0.085(4) 0.087(4) 0.014(3) -0.007(4) -0.004(4)
O16 0.0389(16) 0.0180(12) 0.0403(16) 0.0039(11) 0.0001(13) 0.0015(11)
O17 0.0230(13) 0.0264(13) 0.0449(16) -0.0029(11) -0.0111(12) 0.0004(11)
O18 0.055(2) 0.054(2) 0.0451(19) 0.0135(16) -0.0077(16) -0.0106(17)
C1 0.033(2) 0.0165(16) 0.0241(17) 0.0045(13) 0.0034(14) 0.0013(14)
C2 0.037(2) 0.0226(18) 0.037(2) 0.0105(15) 0.0031(17) 0.0008(16)
C3 0.0244(19) 0.0254(18) 0.041(2) 0.0093(16) 0.0030(16) -0.0003(15)
C4 0.038(2) 0.0159(16) 0.0282(18) 0.0044(13) -0.0068(16) -0.0021(15)
C5 0.032(2) 0.0259(18) 0.0315(19) 0.0123(15) 0.0019(16) -0.0011(16)
C6 0.0241(18) 0.0278(19) 0.0317(19) 0.0075(15) 0.0001(15) -0.0024(15)
C7 0.0186(17) 0.0237(17) 0.0348(19) 0.0102(14) -0.0068(14) -0.0083(14)
C8 0.034(2) 0.0201(17) 0.0262(18) -0.0011(13) -0.0001(15) 0.0046(15)
C9 0.034(2) 0.0219(17) 0.034(2) 0.0015(14) -0.0147(16) -0.0013(15)
C10 0.038(2) 0.0170(16) 0.0314(19) -0.0002(14) -0.0087(16) 0.0017(15)
C11 0.031(2) 0.0231(18) 0.0295(19) -0.0035(14) -0.0052(15) 0.0038(15)
C12 0.046(3) 0.025(2) 0.053(3) -0.0093(18) -0.025(2) 0.0100(18)
C13 0.042(2) 0.0232(19) 0.046(2) -0.0044(17) -0.017(2) 0.0064(17)
C14 0.035(2) 0.0241(18) 0.0318(19) -0.0092(15) -0.0034(16) 0.0015(16)
C15 0.0259(18) 0.0202(16) 0.0276(17) 0.0019(13) -0.0019(14) -0.0069(14)
C16 0.055(3) 0.0259(19) 0.031(2) -0.0001(15) 0.0089(18) -0.0184(19)
C17 0.040(2) 0.0236(18) 0.036(2) -0.0067(15) 0.0041(17) -0.0214(17)
C18 0.0136(15) 0.0228(16) 0.0289(17) 0.0026(13) -0.0007(13) -0.0081(13)
C19 0.039(2) 0.0193(16) 0.0267(18) 0.0067(13) -0.0029(15) -0.0080(15)
C20 0.033(2) 0.0174(15) 0.0294(18) -0.0009(13) -0.0065(15) -0.0123(14)
C21 0.0272(19) 0.0208(16) 0.0263(17) 0.0008(13) -0.0054(14) -0.0007(14)
C22 0.032(2) 0.0251(18) 0.034(2) 0.0012(15) -0.0007(16) 0.0038(15)
C23 0.058(3) 0.039(3) 0.070(4) -0.022(2) 0.011(3) -0.016(2)
C24 0.042(3) 0.044(3) 0.109(5) -0.021(3) 0.002(3) -0.014(2)
C25 0.027(3) 0.067(4) 0.103(5) -0.015(3) 0.011(3) -0.005(2)
C26 0.038(3) 0.115(6) 0.103(5) -0.065(5) 0.014(3) -0.014(3)
C27 0.027(2) 0.079(4) 0.077(4) -0.044(3) 0.007(2) -0.017(2)
C28 0.0221(17) 0.0206(16) 0.0248(17) -0.0001(