####################################################################### 
# 
# This file contains crystal structure data downloaded from the 
# Cambridge Structural Database (CSD) hosted by the Cambridge 
# Crystallographic Data Centre (CCDC).
# 
# Full information about CCDC data access policies and citation 
# guidelines are available at http://www.ccdc.cam.ac.uk/access/V1 
# 
# Audit and citation data items may have been added by the CCDC. 
# Please retain this information to preserve the provenance of 
# this file and to allow appropriate attribution of the data. 
# 
#######################################################################

data_p
_audit_block_doi                 10.5517/cc12wdfs
_database_code_depnum_ccdc_archive 'CCDC 1009435'
loop_
_citation_id
_citation_doi
_citation_year
1 10.1021/cg501425x 2014
_audit_update_record             
;
2014-06-20 deposited with the CCDC.	2024-07-14 downloaded from the CCDC.
;
_audit_creation_date             2014-05-13
_audit_creation_method           
;
Olex2 1.2
(compiled 2014.03.20 svn.r2914 for OlexSys, GUI svn.r4816)
;
_chemical_name_common            ?
_chemical_name_systematic        
;
 ? 
;
_chemical_formula_moiety         'C81 H64 Cd3 N3 O15, C78 H58 Cd3 N2 O15'
_chemical_formula_sum            'C159 H122 Cd6 N5 O30'
_chemical_formula_weight         3257.02
_chemical_absolute_configuration ad
_chemical_melting_point          ?
loop_
_atom_type_symbol
_atom_type_description
_atom_type_scat_dispersion_real
_atom_type_scat_dispersion_imag
_atom_type_scat_source
C C 0.0033 0.0016 'International Tables Vol C Tables 4.2.6.8 and 6.1.1.4'
H H 0.0000 0.0000 'International Tables Vol C Tables 4.2.6.8 and 6.1.1.4'
O O 0.0106 0.0060 'International Tables Vol C Tables 4.2.6.8 and 6.1.1.4'
Cd Cd -0.8075 1.2024 'International Tables Vol C Tables 4.2.6.8 and 6.1.1.4'
N N 0.0061 0.0033 'International Tables Vol C Tables 4.2.6.8 and 6.1.1.4'

_space_group_crystal_system      orthorhombic
_space_group_IT_number           33
_space_group_name_H-M_alt        'P n a 21'
_space_group_name_Hall           'P 2c -2n'
loop_
_space_group_symop_id
_space_group_symop_operation_xyz
1 'x, y, z'
2 '-x, -y, z+1/2'
3 '-x+1/2, y+1/2, z+1/2'
4 'x+1/2, -y+1/2, z'

_cell_length_a                   42.439(10)
_cell_length_b                   13.969(4)
_cell_length_c                   33.470(8)
_cell_angle_alpha                90.00
_cell_angle_beta                 90.00
_cell_angle_gamma                90.00
_cell_volume                     19842(9)
_cell_formula_units_Z            4
_cell_measurement_reflns_used    5509
_cell_measurement_temperature    273(2)
_cell_measurement_theta_max      17.71
_cell_measurement_theta_min      2.34
_exptl_absorpt_coefficient_mu    0.687
_exptl_absorpt_correction_T_max  ?
_exptl_absorpt_correction_T_min  ?
_exptl_absorpt_correction_type   none
_exptl_absorpt_process_details   ?
_exptl_crystal_colour            ?
_exptl_crystal_density_diffrn    1.090
_exptl_crystal_density_meas      .
_exptl_crystal_density_method    'not measured'
_exptl_crystal_description       ?
_exptl_crystal_F_000             6556
_exptl_crystal_size_max          ?
_exptl_crystal_size_mid          ?
_exptl_crystal_size_min          ?
_exptl_special_details           
;
 ? 
;
_diffrn_reflns_av_R_equivalents  0.1261
_diffrn_reflns_av_unetI/netI     0.1758
_diffrn_reflns_limit_h_max       49
_diffrn_reflns_limit_h_min       -47
_diffrn_reflns_limit_k_max       16
_diffrn_reflns_limit_k_min       -10
_diffrn_reflns_limit_l_max       39
_diffrn_reflns_limit_l_min       -39
_diffrn_reflns_number            92436
_diffrn_reflns_theta_full        24.75
_diffrn_reflns_theta_max         24.75
_diffrn_reflns_theta_min         1.14
_diffrn_ambient_temperature      273.15
_diffrn_detector_area_resol_mean ?
_diffrn_measured_fraction_theta_full 0.990
_diffrn_measured_fraction_theta_max 0.990
_diffrn_measurement_device_type  'CCD area detector'
_diffrn_measurement_method       'phi and omega scans'
_diffrn_radiation_monochromator  graphite
_diffrn_radiation_type           MoK\a
_diffrn_radiation_wavelength     0.71073
_diffrn_source                   'fine-focus sealed tube'
_diffrn_standards_decay_%        ?
_diffrn_standards_interval_count ?
_diffrn_standards_interval_time  ?
_diffrn_standards_number         ?
_reflns_number_gt                17899
_reflns_number_total             33438
_reflns_threshold_expression     >2sigma(I)
_computing_cell_refinement       ?
_computing_data_collection       ?
_computing_data_reduction        'SAINT v7.23A (Bruker, 2003)'
_computing_molecular_graphics    'Olex2 (Dolomanov et al., 2009)'
_computing_publication_material  'Olex2 (Dolomanov et al., 2009)'
_computing_structure_refinement  'XL (Sheldrick, 2008)'
_computing_structure_solution    'SHELXS-97 (Sheldrick, 1990)'
_refine_diff_density_max         4.323
_refine_diff_density_min         -1.972
_refine_diff_density_rms         0.144
_refine_ls_abs_structure_details 'Flack H D (1983), Acta Cryst. A39, 876-881'
_refine_ls_abs_structure_Flack   0.48(3)
_refine_ls_extinction_coef       ?
_refine_ls_extinction_method     none
_refine_ls_goodness_of_fit_ref   0.925
_refine_ls_hydrogen_treatment    constr
_refine_ls_matrix_type           fullcycle
_refine_ls_number_parameters     1823
_refine_ls_number_reflns         33438
_refine_ls_number_restraints     1
_refine_ls_R_factor_all          0.1391
_refine_ls_R_factor_gt           0.0866
_refine_ls_restrained_S_all      0.925
_refine_ls_shift/su_max          0.000
_refine_ls_shift/su_mean         0.000
_refine_ls_structure_factor_coef Fsqd
_refine_ls_weighting_details     
'calc w=1/[\s^2^(Fo^2^)+(0.1126P)^2^+0.0000P] where P=(Fo^2^+2Fc^2^)/3'
_refine_ls_weighting_scheme      calc
_refine_ls_wR_factor_gt          0.1932
_refine_ls_wR_factor_ref         0.2167
_refine_special_details          
;
 Refinement of F^2^ against ALL reflections.  The weighted R-factor wR and 
 goodness of fit S are based on F^2^, conventional R-factors R are based 
 on F, with F set to zero for negative F^2^. The threshold expression of 
 F^2^ > 2sigma(F^2^) is used only for calculating R-factors(gt) etc. and is 
 not relevant to the choice of reflections for refinement.  R-factors based 
 on F^2^ are statistically about twice as large as those based on F, and R- 
 factors based on ALL data will be even larger. 
;
_olex2_refinement_description    
;
1. Fixed Uiso
 At 1.2 times of:
  All C(H) groups, All C(H,H) groups
 At 1.5 times of:
  All C(H,H,H) groups, All O(H,H) groups
2.a Rotating group:
 O1W(H1WA,H1WB)
2.b Secondary CH2 refined with riding coordinates:
 C11(H11A,H11B)
2.c Aromatic/amide H refined with riding coordinates:
 C151(H151), C116(H116), C102(H102), C115(H115), C15(H15), C68(H68),
 C152(H152), C103(H103), C65(H65), C124(H124), C24(H24), C58(H58), C42(H42),
 C30(H30), C22(H22), C149(H149), C12(H12), C148(H148), C25(H25), C121(H121),
 C59(H59), C105(H105), C69(H69), C84(H84), C66(H66), C41(H41), C56(H56),
 C38(H38), C113(H113), C85(H85), C14(H14), C21(H21), C31(H31), C39(H39),
 C55(H55), C123(H123), C106(H106), C120(H120), C139(H139), C87(H87), C88(H88),
 C143(H143), C112(H112), C142(H142), C140(H140), C33(H33), C34(H34), C77(H77),
 C156(H156), C79(H79), C159(H159), C73(H73)
2.d Idealised Me refined with riding coordinates:
 C81(H81A,H81B,H81C)
2.e Idealised Me refined as rotating group:
 C98(H98A,H98B,H98C), C133(H13A,H13B,H13C), C51(H51A,H51B,H51C), C134(H13D,
 H13E,H13F), C135(H13G,H13H,H13I), C17(H17A,H17B,H17C), C97(H97A,H97B,H97C),
 C99(H99A,H99B,H99C), C1(H1A,H1B,H1C), C61(H61A,H61B,H61C), C26(H26A,H26B,H26C),
  C70(H70A,H70B,H70C), C154(H15A,H15B,H15C), C76(H76A,H76B,H76C), C78(H78A,H78B,
 H78C), C80(H80A,H80B,H80C), C160(H16A,H16B,H16C), C158(H15D,H15E,H15F),
 C74(H74A,H74B,H74C), C75(H75A,H75B,H75C), C155(H15G,H15H,H15I)
;
_atom_sites_solution_hydrogens   geom
_atom_sites_solution_primary     direct
_atom_sites_solution_secondary   difmap
loop_
_atom_site_label
_atom_site_type_symbol
_atom_site_fract_x
_atom_site_fract_y
_atom_site_fract_z
_atom_site_U_iso_or_equiv
_atom_site_adp_type
_atom_site_occupancy
_atom_site_calc_flag
_atom_site_disorder_assembly
_atom_site_disorder_group
_atom_site_refinement_flags_posn
Cd3 Cd 0.82900(2) -0.37876(7) 0.97737(3) 0.035 Uani 1 d . . .
Cd5 Cd 0.862560(19) 0.69399(7) 0.69966(3) 0.033 Uani 1 d . . .
Cd2 Cd 0.86479(2) -0.14881(7) 1.01097(3) 0.036 Uani 1 d . . .
Cd6 Cd 0.81723(2) 0.46485(7) 0.69420(3) 0.036 Uani 1 d . . .
Cd4 Cd 0.83897(2) 0.91583(7) 0.74666(3) 0.039 Uani 1 d . . .
Cd1 Cd 0.82083(2) 0.07601(7) 1.00371(3) 0.040 Uani 1 d . . .
O8 O 0.82218(17) -0.2151(6) 0.9708(2) 0.036 Uani 1 d . . .
O12 O 0.7662(2) 0.1151(8) 1.0212(3) 0.059 Uani 1 d . . .
O29 O 0.3702(2) -0.0923(7) 0.7518(3) 0.051 Uani 1 d . . .
O21 O 0.8682(2) 0.5744(7) 0.6561(3) 0.055 Uani 1 d . . .
O10 O 0.8662(2) -0.0254(7) 0.9656(3) 0.049 Uani 1 d . . .
O9 O 0.81055(18) -0.0912(6) 1.0086(3) 0.043 Uani 1 d . . .
O23 O 0.8471(2) 0.9399(7) 0.6822(3) 0.056 Uani 1 d . . .
O11 O 0.8645(2) 0.1293(8) 0.9745(3) 0.059 Uani 1 d . . .
C48 C 0.8988(3) -0.5884(10) 1.3777(4) 0.038 Uani 1 d . . .
O20 O 0.8258(2) 0.5044(7) 0.6314(3) 0.046 Uani 1 d . . .
O13 O 0.7983(2) 0.2323(7) 1.0008(3) 0.054 Uani 1 d . . .
C82 C 0.3747(3) -0.0081(12) 0.7502(5) 0.055 Uani 1 d . . .
C3 C 1.1004(3) 0.0676(9) 0.8177(4) 0.035 Uani 1 d . . .
C95 C 0.5866(3) 0.1550(9) 0.8962(3) 0.028 Uani 1 d . . .
C71 C 0.8025(3) -0.1499(10) 0.9834(4) 0.037 Uani 1 d . . .
O7 O 0.8606(2) -0.2471(8) 1.0645(3) 0.058 Uani 1 d . . .
O6 O 0.8362(2) -0.3810(7) 1.0441(3) 0.046 Uani 1 d . . .
C151 C 0.7528(3) 1.1272(10) 0.2410(4) 0.040 Uani 1 d . . .
H151 H 0.7480 1.0788 0.2229 0.048 Uiso 1 calc . . R
C108 C 0.7632(3) 0.3901(10) 0.7208(4) 0.043 Uani 1 d . . .
C92 C 0.5705(3) 0.1867(9) 0.8148(3) 0.032 Uani 1 d . . .
C93 C 0.6032(3) 0.1835(9) 0.8264(3) 0.032 Uani 1 d . . .
C49 C 0.8675(3) -0.5786(9) 1.3606(3) 0.028 Uani 1 d . . .
C67 C 0.7273(2) -0.6471(9) 1.4638(3) 0.026 Uani 1 d . . .
C104 C 0.7343(3) 0.3424(10) 0.7354(4) 0.042 Uani 1 d . . .
C2 C 1.0691(3) 0.0736(10) 0.8289(4) 0.038 Uani 1 d . . .
C127 C 0.8869(3) 1.1330(9) 0.4277(3) 0.031 Uani 1 d . . .
C47 C 0.9246(3) -0.5831(9) 1.3528(3) 0.028 Uani 1 d . . .
C52 C 0.9554(3) -0.5901(10) 1.3689(4) 0.039 Uani 1 d . . .
C150 C 0.7316(3) 1.1984(9) 0.2483(4) 0.033 Uani 1 d . . .
C131 C 0.9218(3) 1.1549(10) 0.3729(4) 0.034 Uani 1 d . . .
C62 C 0.8401(3) -0.5944(10) 1.3863(4) 0.038 Uani 1 d . . .
C7 C 1.0617(3) 0.0903(10) 0.8707(4) 0.037 Uani 1 d . . .
C40 C 0.8714(3) -0.4588(10) 1.1829(4) 0.040 Uani 1 d . . .
C5 C 1.1167(3) 0.0882(10) 0.8884(4) 0.035 Uani 1 d . . .
C6 C 1.0864(3) 0.1015(9) 0.9004(4) 0.033 Uani 1 d . . .
C116 C 0.9008(4) 0.6430(11) 0.5427(4) 0.057 Uani 1 d . . .
H116 H 0.9188 0.6800 0.5388 0.068 Uiso 1 calc . . R
C132 C 0.9164(3) 1.1377(10) 0.4121(4) 0.036 Uani 1 d . . .
C36 C 0.8508(3) -0.3306(10) 1.0707(4) 0.038 Uani 1 d . . .
C98 C 0.6453(3) 0.1533(10) 0.8811(4) 0.041 Uani 1 d . . .
H98A H 0.6502 0.2030 0.8999 0.061 Uiso 1 calc . . GR
H98B H 0.6586 0.1595 0.8580 0.061 Uiso 1 calc . . GR
H98C H 0.6487 0.0920 0.8933 0.061 Uiso 1 calc . . GR
C45 C 0.8892(3) -0.5483(9) 1.2965(3) 0.031 Uani 1 d . . .
C129 C 0.8640(3) 1.1723(9) 0.3615(3) 0.028 Uani 1 d . . .
C133 C 0.9450(3) 1.1249(10) 0.4399(4) 0.043 Uani 1 d . . .
H13A H 0.9564 1.1841 0.4414 0.064 Uiso 1 calc . . GR
H13B H 0.9584 1.0758 0.4294 0.064 Uiso 1 calc . . GR
H13C H 0.9378 1.1070 0.4660 0.064 Uiso 1 calc . . GR
C27 C 1.1074(3) 0.0503(10) 0.7786(4) 0.044 Uani 1 d . . .
C102 C 0.6792(3) 0.2996(11) 0.7282(4) 0.047 Uani 1 d . . .
H102 H 0.6607 0.3013 0.7133 0.056 Uiso 1 calc . . R
C57 C 1.0687(3) -0.6547(11) 1.4397(4) 0.046 Uani 1 d . . .
C90 C 0.5143(3) 0.1580(10) 0.8294(4) 0.037 Uani 1 d . . .
C94 C 0.6097(3) 0.1623(10) 0.8680(4) 0.040 Uani 1 d . . .
C44 C 0.8858(3) -0.5252(10) 1.2544(4) 0.042 Uani 1 d . . .
C51 C 0.9491(3) -0.5527(11) 1.2852(4) 0.050 Uani 1 d . . .
H51A H 0.9570 -0.6160 1.2806 0.075 Uiso 1 calc . . GR
H51B H 0.9651 -0.5144 1.2976 0.075 Uiso 1 calc . . GR
H51C H 0.9431 -0.5242 1.2602 0.075 Uiso 1 calc . . GR
C115 C 0.8899(4) 0.6312(12) 0.5810(5) 0.067 Uani 1 d . . .
H115 H 0.8996 0.6615 0.6024 0.080 Uiso 1 calc . . R
C15 C 0.9605(3) -0.0037(10) 0.9252(4) 0.041 Uani 1 d . . .
H15 H 0.9737 -0.0566 0.9232 0.049 Uiso 1 calc . . R
C68 C 0.7359(3) -0.6948(10) 1.4297(4) 0.043 Uani 1 d . . .
H68 H 0.7217 -0.7370 1.4180 0.052 Uiso 1 calc . . R
C136 C 0.9519(3) 1.1623(9) 0.3555(3) 0.028 Uani 1 d . . .
C63 C 0.8163(3) -0.6111(10) 1.4057(4) 0.035 Uani 1 d . . .
C89 C 0.4876(3) 0.1406(9) 0.8186(3) 0.032 Uani 1 d . . .
C138 C 1.0064(3) 1.1737(10) 0.3133(4) 0.043 Uani 1 d . . .
C128 C 0.8608(3) 1.1499(10) 0.4029(4) 0.037 Uani 1 d . . .
C107 C 0.6781(3) 0.2561(10) 0.7603(4) 0.039 Uani 1 d . . .
C152 C 0.7812(3) 1.1273(10) 0.2603(3) 0.037 Uani 1 d . . .
H152 H 0.7962 1.0814 0.2540 0.044 Uiso 1 calc . . R
C103 C 0.7055(3) 0.3470(10) 0.7117(4) 0.038 Uani 1 d . . .
H103 H 0.7046 0.3791 0.6874 0.045 Uiso 1 calc . . R
C4 C 1.1240(3) 0.0753(9) 0.8466(4) 0.034 Uani 1 d . . .
C126 C 0.8805(3) 1.1078(10) 0.4697(4) 0.040 Uani 1 d . . .
C134 C 0.8278(3) 1.1414(10) 0.4197(4) 0.042 Uani 1 d . . .
H13D H 0.8230 1.0752 0.4244 0.063 Uiso 1 calc . . GR
H13E H 0.8130 1.1674 0.4009 0.063 Uiso 1 calc . . GR
H13F H 0.8265 1.1762 0.4443 0.063 Uiso 1 calc . . GR
C135 C 0.9007(3) 1.1900(11) 0.3006(4) 0.047 Uani 1 d . . .
H13G H 0.9139 1.2448 0.2964 0.070 Uiso 1 calc . . GR
H13H H 0.8807 1.2000 0.2876 0.070 Uiso 1 calc . . GR
H13I H 0.9107 1.1343 0.2895 0.070 Uiso 1 calc . . GR
C91 C 0.5483(3) 0.1679(10) 0.8421(4) 0.042 Uani 1 d . . .
C64 C 0.7872(3) -0.6199(10) 1.4259(4) 0.041 Uani 1 d . . .
C65 C 0.7804(3) -0.5750(11) 1.4631(4) 0.051 Uani 1 d . . .
H65 H 0.7959 -0.5372 1.4750 0.061 Uiso 1 calc . . R
C124 C 0.8630(3) 0.8868(10) 0.5752(4) 0.039 Uani 1 d . . .
H124 H 0.8638 0.8203 0.5755 0.046 Uiso 1 calc . . R
C54 C 1.0106(3) -0.6160(11) 1.4037(4) 0.046 Uani 1 d . . .
C130 C 0.8953(3) 1.1749(10) 0.3462(4) 0.038 Uani 1 d . . .
C17 C 1.0785(3) 0.1172(10) 0.9428(3) 0.034 Uani 1 d . . .
H17A H 1.0576 0.0938 0.9479 0.051 Uiso 1 calc . . GR
H17B H 1.0794 0.1844 0.9486 0.051 Uiso 1 calc . . GR
H17C H 1.0933 0.0837 0.9593 0.051 Uiso 1 calc . . GR
C147 C 0.7879(3) 1.1994(9) 0.2906(3) 0.029 Uani 1 d . . .
C100 C 0.6497(3) 0.2188(10) 0.7791(4) 0.040 Uani 1 d . . .
C46 C 0.9200(3) -0.5581(11) 1.3130(4) 0.047 Uani 1 d . . .
C96 C 0.5547(3) 0.1574(10) 0.8828(4) 0.039 Uani 1 d . . .
C24 C 1.2458(3) 0.1654(10) 0.9777(4) 0.049 Uani 1 d . . .
H24 H 1.2656 0.1364 0.9770 0.059 Uiso 1 calc . . R
C117 C 0.8512(3) 0.5484(10) 0.6276(4) 0.040 Uani 1 d . . .
C114 C 0.8637(3) 0.5722(10) 0.5865(4) 0.043 Uani 1 d . . .
C58 C 1.0639(3) -0.5762(11) 1.4238(4) 0.043 Uani 1 d . . .
H58 H 1.0795 -0.5296 1.4255 0.051 Uiso 1 calc . . R
C97 C 0.5278(3) 0.1497(10) 0.9149(4) 0.039 Uani 1 d . . .
H97A H 0.5368 0.1552 0.9411 0.059 Uiso 1 calc . . GR
H97B H 0.5175 0.0889 0.9124 0.059 Uiso 1 calc . . GR
H97C H 0.5128 0.2002 0.9108 0.059 Uiso 1 calc . . GR
C109 C 0.5932(3) 0.1352(11) 0.9366(4) 0.045 Uani 1 d . . .
C42 C 0.8466(3) -0.4633(11) 1.1192(4) 0.048 Uani 1 d . . .
H42 H 0.8339 -0.4948 1.1007 0.057 Uiso 1 calc . . R
C30 C 1.1439(4) -0.0493(14) 0.6904(6) 0.083 Uani 1 d . . .
H30 H 1.1533 -0.0868 0.7100 0.099 Uiso 1 calc . . R
C22 C 1.2128(3) 0.2838(10) 0.9993(4) 0.040 Uani 1 d . . .
H22 H 1.2099 0.3378 1.0151 0.048 Uiso 1 calc . . R
C53 C 0.9817(3) -0.5965(10) 1.3823(4) 0.041 Uani 1 d . . .
C119 C 0.8575(3) 0.9400(11) 0.6127(4) 0.048 Uani 1 d . . .
C149 C 0.7377(3) 1.2672(11) 0.2756(4) 0.043 Uani 1 d . . .
H149 H 0.7230 1.3153 0.2798 0.052 Uiso 1 calc . . R
C20 C 1.1893(3) 0.1606(10) 0.9597(4) 0.036 Uani 1 d . . .
C137 C 0.9757(3) 1.1676(10) 0.3387(4) 0.043 Uani 1 d . . .
C12 C 0.9203(4) 0.1484(14) 0.9238(5) 0.077 Uani 1 d . . .
H12 H 0.9058 0.1983 0.9243 0.092 Uiso 1 calc . . R
C148 C 0.7645(3) 1.2679(10) 0.2967(4) 0.037 Uani 1 d . . .
H148 H 0.7676 1.3152 0.3158 0.044 Uiso 1 calc . . R
C25 C 1.2188(3) 0.1178(12) 0.9599(4) 0.059 Uani 1 d . . .
H25 H 1.2213 0.0577 0.9484 0.070 Uiso 1 calc . . R
C10 C 0.9707(4) 0.0817(12) 0.9116(5) 0.059 Uani 1 d . . .
C145 C 0.8394(3) 1.1837(10) 0.3362(4) 0.039 Uani 1 d . . .
C13 C 0.9123(3) 0.0655(12) 0.9437(4) 0.054 Uani 1 d . . .
C121 C 0.8641(3) 1.0832(11) 0.5743(4) 0.049 Uani 1 d . . .
H121 H 0.8647 1.1498 0.5737 0.059 Uiso 1 calc . . R
C118 C 0.8518(3) 0.8908(11) 0.6533(4) 0.044 Uani 1 d . . .
C59 C 1.0361(3) -0.5541(12) 1.4032(4) 0.054 Uani 1 d . . .
H59 H 1.0347 -0.4971 1.3890 0.065 Uiso 1 calc . . R
C122 C 0.8686(3) 1.0328(10) 0.5397(4) 0.036 Uani 1 d . . .
C1