####################################################################### 
# 
# This file contains crystal structure data downloaded from the 
# Cambridge Structural Database (CSD) hosted by the Cambridge 
# Crystallographic Data Centre (CCDC).
# 
# Full information about CCDC data access policies and citation 
# guidelines are available at http://www.ccdc.cam.ac.uk/access/V1 
# 
# Audit and citation data items may have been added by the CCDC. 
# Please retain this information to preserve the provenance of 
# this file and to allow appropriate attribution of the data. 
# 
#######################################################################

data_yj-1441
_audit_block_doi                 10.5517/cc12wddr
_database_code_depnum_ccdc_archive 'CCDC 1009434'
loop_
_citation_id
_citation_doi
_citation_year
1 10.1021/cg501425x 2014
_audit_update_record             
;
2014-06-20 deposited with the CCDC.	2024-07-14 downloaded from the CCDC.
;
_audit_creation_date             2014-05-13
_audit_creation_method           
;
Olex2 1.2
(compiled 2014.03.20 svn.r2914 for OlexSys, GUI svn.r4816)
;
_chemical_name_common            ?
_chemical_name_systematic        
;
 ? 
;
_chemical_formula_moiety         'C83.5 H72 Mn3 N3.5 O17'
_chemical_formula_sum            'C84 H72 Mn3 N4 O17'
_chemical_formula_weight         1574.28
_chemical_melting_point          ?
_chemical_oxdiff_formula         'C H O Mn'
loop_
_atom_type_symbol
_atom_type_description
_atom_type_scat_dispersion_real
_atom_type_scat_dispersion_imag
_atom_type_scat_source
C C 0.0033 0.0016 'International Tables Vol C Tables 4.2.6.8 and 6.1.1.4'
H H 0.0000 0.0000 'International Tables Vol C Tables 4.2.6.8 and 6.1.1.4'
Mn Mn 0.3368 0.7283 'International Tables Vol C Tables 4.2.6.8 and 6.1.1.4'
N N 0.0061 0.0033 'International Tables Vol C Tables 4.2.6.8 and 6.1.1.4'
O O 0.0106 0.0060 'International Tables Vol C Tables 4.2.6.8 and 6.1.1.4'

_space_group_crystal_system      triclinic
_space_group_IT_number           2
_space_group_name_H-M_alt        'P -1'
_space_group_name_Hall           '-P 1'
loop_
_space_group_symop_id
_space_group_symop_operation_xyz
1 'x, y, z'
2 '-x, -y, -z'

_cell_length_a                   13.8783(5)
_cell_length_b                   20.3674(8)
_cell_length_c                   21.0344(5)
_cell_angle_alpha                62.572(3)
_cell_angle_beta                 82.489(3)
_cell_angle_gamma                73.850(3)
_cell_volume                     5069.1(3)
_cell_formula_units_Z            2
_cell_measurement_reflns_used    8130
_cell_measurement_temperature    150.00(10)
_cell_measurement_theta_max      69.8320
_cell_measurement_theta_min      3.6660
_exptl_absorpt_coefficient_mu    0.422
_exptl_absorpt_correction_T_max  1.00000
_exptl_absorpt_correction_T_min  0.66715
_exptl_absorpt_correction_type   multi-scan
_exptl_absorpt_process_details   
;
CrysAlisPro, Agilent Technologies,
Version 1.171.36.32 (release 02-08-2013 CrysAlis171 .NET)
(compiled Aug  2 2013,16:46:58)
Empirical absorption correction using spherical harmonics,
 implemented in SCALE3 ABSPACK scaling algorithm.
;
_exptl_crystal_density_diffrn    1.031
_exptl_crystal_density_meas      ?
_exptl_crystal_density_method    'not measured'
_exptl_crystal_F_000             1630
_exptl_crystal_size_max          ?
_exptl_crystal_size_mid          ?
_exptl_crystal_size_min          ?
_exptl_special_details           
;
 ? 
;
_diffrn_reflns_av_R_equivalents  0.0515
_diffrn_reflns_av_unetI/netI     0.0758
_diffrn_reflns_limit_h_max       16
_diffrn_reflns_limit_h_min       -14
_diffrn_reflns_limit_k_max       24
_diffrn_reflns_limit_k_min       -23
_diffrn_reflns_limit_l_max       25
_diffrn_reflns_limit_l_min       -23
_diffrn_reflns_number            37565
_diffrn_reflns_theta_full        25.70
_diffrn_reflns_theta_max         25.70
_diffrn_reflns_theta_min         1.53
_diffrn_ambient_temperature      150.00(10)
_diffrn_detector_area_resol_mean 16.0450
_diffrn_measured_fraction_theta_full 0.978
_diffrn_measured_fraction_theta_max 0.978
_diffrn_measurement_device_type  'SuperNova, Dual, Cu at zero, Eos'
_diffrn_measurement_method       '\w scans'
_diffrn_orient_matrix_UB_11      0.0972386000
_diffrn_orient_matrix_UB_12      -0.0035534000
_diffrn_orient_matrix_UB_13      -0.0442884000
_diffrn_orient_matrix_UB_21      -0.0041872000
_diffrn_orient_matrix_UB_22      0.0828621000
_diffrn_orient_matrix_UB_23      -0.0170631000
_diffrn_orient_matrix_UB_31      0.0623122000
_diffrn_orient_matrix_UB_32      -0.0292896000
_diffrn_orient_matrix_UB_33      0.0674999000
_diffrn_radiation_monochromator  mirror
_diffrn_radiation_type           MoK\a
_diffrn_radiation_wavelength     0.71000
_diffrn_source                   'SuperNova (Cu) X-ray Source'
_diffrn_standards_decay_%        ?
_diffrn_standards_interval_count ?
_diffrn_standards_interval_time  ?
_diffrn_standards_number         ?
_reflns_number_gt                11491
_reflns_number_total             18916
_reflns_odcompleteness_completeness 99.78
_reflns_odcompleteness_iscentric 1
_reflns_odcompleteness_theta     66.97
_reflns_threshold_expression     >2sigma(I)
_computing_cell_refinement       
;
CrysAlisPro, Agilent Technologies,
Version 1.171.36.32 (release 02-08-2013 CrysAlis171 .NET)
(compiled Aug  2 2013,16:46:58)
;
_computing_data_collection       
;
CrysAlisPro, Agilent Technologies,
Version 1.171.36.32 (release 02-08-2013 CrysAlis171 .NET)
(compiled Aug  2 2013,16:46:58)
;
_computing_data_reduction        
;
CrysAlisPro, Agilent Technologies,
Version 1.171.36.32 (release 02-08-2013 CrysAlis171 .NET)
(compiled Aug  2 2013,16:46:58)
;
_computing_molecular_graphics    'Olex2 (Dolomanov et al., 2009)'
_computing_publication_material  'Olex2 (Dolomanov et al., 2009)'
_computing_structure_refinement  'XL (Sheldrick, 2008)'
_computing_structure_solution    'SHELXS-97 (Sheldrick, 1990)'
_refine_diff_density_max         1.572
_refine_diff_density_min         -0.908
_refine_diff_density_rms         0.111
_refine_ls_extinction_coef       ?
_refine_ls_extinction_method     none
_refine_ls_goodness_of_fit_ref   1.214
_refine_ls_hydrogen_treatment    constr
_refine_ls_matrix_type           full
_refine_ls_number_parameters     987
_refine_ls_number_reflns         18916
_refine_ls_number_restraints     4
_refine_ls_R_factor_all          0.1505
_refine_ls_R_factor_gt           0.1150
_refine_ls_restrained_S_all      1.234
_refine_ls_shift/su_max          0.000
_refine_ls_shift/su_mean         0.000
_refine_ls_structure_factor_coef Fsqd
_refine_ls_weighting_details     
'calc w=1/[\s^2^(Fo^2^)+(0.2000P)^2^+0.0000P] where P=(Fo^2^+2Fc^2^)/3'
_refine_ls_weighting_scheme      calc
_refine_ls_wR_factor_gt          0.3341
_refine_ls_wR_factor_ref         0.3594
_refine_special_details          
;
 Refinement of F^2^ against ALL reflections.  The weighted R-factor wR and 
 goodness of fit S are based on F^2^, conventional R-factors R are based 
 on F, with F set to zero for negative F^2^. The threshold expression of 
 F^2^ > 2sigma(F^2^) is used only for calculating R-factors(gt) etc. and is 
 not relevant to the choice of reflections for refinement.  R-factors based 
 on F^2^ are statistically about twice as large as those based on F, and R- 
 factors based on ALL data will be even larger. 
;
_olex2_refinement_description    
;
1. Fixed Uiso
 At 1.2 times of:
  All C(H) groups
 At 1.5 times of:
  All C(H,H,H) groups, All O(H,H) groups
2. Restrained distances
 H84A-H85B
 2.16 with sigma of 0.01
 C1-C79
 1.5 with sigma of 0.02
 C2-C3
 1.5 with sigma of 0.02
3. Rigid bond restraints
 N1, C85
 with sigma for 1-2 distances of 0.01 and sigma for 1-3 distances of 0.01
4. Others
 Fixed Sof: N1(0.5) C82(0.5)
5.a Riding coordinates:
 O1W(H1WA,H1WB), C86(H86)
5.b Aromatic/amide H refined with riding coordinates:
 C2(H2), C3(H3), C5(H5), C6(H6), C22(H22), C23(H23), C25(H25), C26(H26),
 C31(H31), C32(H32), C34(H34), C35(H35), C39(H39), C40(H40), C42(H42), C43(H43),
  C59(H59), C60(H60), C62(H62), C63(H63), C67(H67), C68(H68), C70(H70),
 C71(H71), C75(H75), C78(H78), C83(H83)
5.c Idealised Me refined as rotating group:
 C15(H15A,H15B,H15C), C17(H17A,H17B,H17C), C18(H18A,H18B,H18C), C52(H52A,H52B,
 H52C), C53(H53A,H53B,H53C), C55(H55A,H55B,H55C), C73(H73A,H73B,H73C), C74(H74A,
 H74B,H74C), C76(H76A,H76B,H76C), C77(H77A,H77B,H77C), C81(H81A,H81B,H81C),
 C82(H82A,H82B,H82C), C84(H84A,H84B,H84C), C85(H85A,H85B,H85C)
;
_atom_sites_solution_hydrogens   geom
_atom_sites_solution_primary     direct
_atom_sites_solution_secondary   difmap
loop_
_atom_site_label
_atom_site_type_symbol
_atom_site_fract_x
_atom_site_fract_y
_atom_site_fract_z
_atom_site_U_iso_or_equiv
_atom_site_adp_type
_atom_site_occupancy
_atom_site_calc_flag
_atom_site_disorder_assembly
_atom_site_disorder_group
_atom_site_refinement_flags_posn
_atom_site_refinement_flags_adp
Mn1 Mn 0.31424(8) 0.29190(6) 0.42329(5) 0.0602(3) Uani 1 d . . . .
Mn2 Mn 0.08736(7) 0.31757(5) 0.33984(4) 0.0496(3) Uani 1 d . . . .
Mn3 Mn 0.87694(8) -0.75092(6) 0.44151(5) 0.0623(3) Uani 1 d . . . .
O11 O 0.3423(4) 0.2442(3) 0.3504(3) 0.0668(12) Uani 1 d . . . .
O12 O 0.2012(4) 0.2325(3) 0.3246(3) 0.0645(12) Uani 1 d . . . .
O10 O 0.1498(4) 0.4098(3) 0.2742(2) 0.0733(14) Uani 1 d . . . .
O14 O 0.1557(3) 0.2867(2) 0.4458(2) 0.0509(9) Uani 1 d . . . .
O13 O 0.0424(3) 0.2266(2) 0.45120(19) 0.0517(9) Uani 1 d . . . .
O5 O 0.9628(4) -0.6079(3) 0.3637(2) 0.0674(12) Uani 1 d . . . .
O16 O -0.0097(3) 1.3042(2) 0.2802(2) 0.0533(10) Uani 1 d . . . .
O15 O -0.0994(4) 1.2217(2) 0.3534(2) 0.0594(11) Uani 1 d . . . .
O6 O 0.8134(4) -0.6311(3) 0.3701(3) 0.0749(14) Uani 1 d . . . .
O8 O 0.7258(5) 0.2306(4) -0.5213(3) 0.0860(16) Uani 1 d . . . .
O7 O 0.5823(9) 0.3022(10) -0.5054(5) 0.247(8) Uani 1 d . . . .
O3 O 0.9069(5) -0.8795(3) 0.5103(3) 0.0940(19) Uani 1 d . . . .
O4 O 0.8699(4) -0.7232(4) 0.5304(3) 0.0829(16) Uani 1 d . . . .
O2 O 0.3116(4) 0.3355(4) 0.5006(3) 0.0863(17) Uani 1 d . . . .
O1 O 0.3563(5) 0.1806(4) 0.5123(3) 0.097(2) Uani 1 d . . . .
O1W O 0.4741(4) 0.2936(4) 0.4040(3) 0.0951(18) Uani 1 d . . . .
H1WA H 0.5069 0.2581 0.3918 0.143 Uiso 1 d . . R .
H1WB H 0.4802 0.3375 0.3699 0.143 Uiso 1 d . . R .
O9 O 0.2623(4) 0.4054(3) 0.3432(2) 0.0662(12) Uani 1 d . . . .
N1 N 0.4391(11) 0.0749(6) 0.6062(11) 0.108(6) Uani 0.50 d . . . U
N2 N 0.3556(8) 0.3859(7) 0.5629(6) 0.135(4) Uani 1 d . . . .
N3 N 0.8715(8) -0.9950(5) 0.5364(5) 0.111(3) Uani 1 d . . . .
N4 N 0.7952(7) -0.6663(5) 0.5972(4) 0.100(2) Uani 1 d . . . .
C1 C 0.6658(8) 0.1936(8) -0.3984(6) 0.109(3) Uani 1 d . . D .
C2 C 0.7395(8) 0.1306(7) -0.3742(5) 0.104(3) Uani 1 d . . D .
H2 H 0.7893 0.1200 -0.4046 0.125 Uiso 1 calc . . R .
C3 C 0.7395(9) 0.0751(8) -0.2929(4) 0.127(4) Uani 1 d . . D .
H3 H 0.7853 0.0277 -0.2736 0.152 Uiso 1 calc . . R .
C4 C 0.6705(6) 0.0983(6) -0.2517(4) 0.091(3) Uani 1 d . . . .
C5 C 0.6007(8) 0.1756(7) -0.2871(5) 0.122(4) Uani 1 d . . . .
H5 H 0.5545 0.1933 -0.2588 0.146 Uiso 1 calc . . R .
C6 C 0.6015(9) 0.2214(7) -0.3588(5) 0.113(3) Uani 1 d . . . .
H6 H 0.5589 0.2700 -0.3793 0.135 Uiso 1 calc . . R .
C7 C 0.6633(4) 0.0582(5) -0.1756(3) 0.069(2) Uani 1 d . . . .
C8 C 0.6565(4) 0.0272(4) -0.1123(3) 0.0517(14) Uani 1 d . . . .
C9 C 0.6449(4) -0.0077(3) -0.0361(3) 0.0464(12) Uani 1 d . . . .
C10 C 0.6745(4) -0.0878(3) 0.0043(3) 0.0470(12) Uani 1 d . . . .
C11 C 0.6647(4) -0.1201(3) 0.0785(3) 0.0454(12) Uani 1 d . . . .
C12 C 0.6254(4) -0.0745(3) 0.1140(3) 0.0458(12) Uani 1 d . . . .
C13 C 0.5930(4) 0.0038(3) 0.0745(3) 0.0473(12) Uani 1 d . . . .
C14 C 0.6041(4) 0.0389(3) -0.0019(3) 0.0472(12) Uani 1 d . . . .
C15 C 0.5735(5) 0.1243(3) -0.0435(3) 0.0575(15) Uani 1 d . . . .
H15A H 0.6309 0.1428 -0.0678 0.086 Uiso 1 calc . . GR .
H15B H 0.5464 0.1464 -0.0113 0.086 Uiso 1 calc . . GR .
H15C H 0.5235 0.1384 -0.0781 0.086 Uiso 1 calc . . GR .
C17 C 0.7160(5) -0.1379(4) -0.0329(3) 0.0557(14) Uani 1 d . . . .
H17A H 0.6638 -0.1578 -0.0379 0.084 Uiso 1 calc . . GR .
H17B H 0.7697 -0.1794 -0.0050 0.084 Uiso 1 calc . . GR .
H17C H 0.7408 -0.1084 -0.0794 0.084 Uiso 1 calc . . GR .
C18 C 0.6146(5) -0.1106(4) 0.1948(3) 0.0586(15) Uani 1 d . . . .
H18A H 0.5450 -0.0994 0.2074 0.088 Uiso 1 calc . . GR .
H18B H 0.6511 -0.0902 0.2143 0.088 Uiso 1 calc . . GR .
H18C H 0.6409 -0.1648 0.2140 0.088 Uiso 1 calc . . GR .
C19 C 0.6954(4) -0.2017(3) 0.1199(3) 0.0501(13) Uani 1 d . . . .
C20 C 0.7218(5) -0.2700(4) 0.1561(3) 0.0589(15) Uani 1 d . . . .
C21 C 0.7609(5) -0.3502(3) 0.2015(3) 0.0557(14) Uani 1 d . . . .
C22 C 0.8586(5) -0.3785(4) 0.2251(4) 0.0645(16) Uani 1 d . . . .
H22 H 0.9010 -0.3457 0.2103 0.077 Uiso 1 calc . . R .
C23 C 0.8941(5) -0.4540(4) 0.2699(4) 0.0616(16) Uani 1 d . . . .
H23 H 0.9608 -0.4721 0.2844 0.074 Uiso 1 calc . . R .
C24 C 0.8318(5) -0.5050(4) 0.2947(3) 0.0567(15) Uani 1 d . . . .
C25 C 0.7330(6) -0.4767(4) 0.2706(4) 0.0687(18) Uani 1 d . . . .
H25 H 0.6913 -0.5099 0.2853 0.082 Uiso 1 calc . . R .
C26 C 0.6959(6) -0.4008(4) 0.2257(4) 0.0678(17) Uani 1 d . . . .
H26 H 0.6292 -0.3825 0.2111 0.081 Uiso 1 calc . . R .
C27 C 0.8730(6) -0.5889(4) 0.3463(3) 0.0610(16) Uani 1 d . . . .
C28 C 0.5490(4) 0.0492(4) 0.1101(3) 0.0506(13) Uani 1 d . . . .
C29 C 0.5096(5) 0.0824(4) 0.1459(3) 0.0568(14) Uani 1 d . . . .
C30 C 0.4568(5) 0.1184(4) 0.1890(3) 0.0572(15) Uani 1 d . . . .
C31 C 0.5046(5) 0.1502(4) 0.2164(4) 0.0641(16) Uani 1 d . . . .
H31 H 0.5722 0.1491 0.2065 0.077 Uiso 1 calc . . R .
C32 C 0.4514(5) 0.1845(4) 0.2595(4) 0.0641(16) Uani 1 d . . . .
H32 H 0.4841 0.2064 0.2776 0.077 Uiso 1 calc . . R .
C33 C 0.3523(5) 0.1860(4) 0.2752(3) 0.0570(15) Uani 1 d . . . .
C34 C 0.3041(5) 0.1520(4) 0.2483(3) 0.0609(16) Uani 1 d . . . .
H34 H 0.2371 0.1514 0.2592 0.073 Uiso 1 calc . . R .
C35 C 0.3577(5) 0.1193(4) 0.2052(3) 0.0594(15) Uani 1 d . . . .
H35 H 0.3254 0.0973 0.1869 0.071 Uiso 1 calc . . R .
C36 C 0.2922(6) 0.2243(4) 0.3208(3) 0.0581(15) Uani 1 d . . . .
C37 C 0.2068(5) 0.4380(4) 0.2898(3) 0.0603(16) Uani 1 d . . . .
C38 C 0.2064(5) 0.5204(3) 0.2398(3) 0.0556(15) Uani 1 d . . . .
C39 C 0.1419(6) 0.5632(4) 0.1830(4) 0.074(2) Uani 1 d . . . .
H39 H 0.0972 0.5415 0.1746 0.089 Uiso 1 calc . . R .
C40 C 0.1426(7) 0.6368(4) 0.1388(4) 0.079(2) Uani 1 d . . . .
H40 H 0.0987 0.6649 0.1002 0.095 Uiso 1 calc . . R .
C41 C 0.2089(5) 0.6715(4) 0.1504(3) 0.0594(15) Uani 1 d . . . .
C42 C 0.2735(6) 0.6282(4) 0.2079(4) 0.0627(16) Uani 1 d . . . .
H42 H 0.3181 0.6499 0.2165 0.075 Uiso 1 calc . . R .
C43 C 0.2727(6) 0.5531(4) 0.2529(4) 0.0669(18) Uani 1 d . . . .
H43 H 0.3162 0.5245 0.2917 0.080 Uiso 1 calc . . R .
C44 C 0.2045(5) 0.7507(4) 0.1070(3) 0.0610(16) Uani 1 d . . . .
C45 C 0.1918(4) 0.8190(3) 0.0726(3) 0.0510(13) Uani 1 d . . . .
C46 C 0.1643(4) 0.9011(3) 0.0365(3) 0.0434(12) Uani 1 d . . . .
C47 C 0.1725(4) 0.9382(3) -0.0383(3) 0.0444(12) Uani 1 d . . . .
C48 C 0.1401(4) 1.0174(3) -0.0727(3) 0.0460(12) Uani 1 d . . . .
C49 C 0.1060(4) 1.0604(3) -0.0340(3) 0.0433(11) Uani 1 d . . . .
C50 C 0.1013(4) 1.0200(3) 0.0412(3) 0.0441(12) Uani 1 d . . . .
C51 C 0.1285(4) 0.9414(3) 0.0762(3) 0.0412(11) Uani 1 d . . . .
C52 C 0.1222(5) 0.8990(4) 0.1568(3) 0.0534(14) Uani 1 d . . . .
H52A H 0.0778 0.8661 0.1696 0.080 Uiso 1 calc . . GR .
H52B H 0.0971 0.9349 0.1763 0.080 Uiso 1 calc . . GR .
H52C H 0.1878 0.8689 0.1758 0.080 Uiso 1 calc . . GR .
C53 C 0.2137(5) 0.8930(4) -0.0804(3) 0.0575(15) Uani 1 d . . . .
H53A H 0.1793 0.8535 -0.0665 0.086 Uiso 1 calc . . GR .
H53B H 0.2841 0.8704 -0.0707 0.086 Uiso 1 calc . . GR .
H53C H 0.2040 0.9264 -0.1306 0.086 Uiso 1 calc . . GR .
C55 C 0.0728(5) 1.1458(3) -0.0706(3) 0.0577(15) Uani 1 d . . . .
H55A H 0.0680 1.1652 -0.0362 0.087 Uiso 1 calc . . GR .
H55B H 0.0083 1.1612 -0.0922 0.087 Uiso 1 calc . . GR .
H55C H 0.1206 1.1657 -0.1070 0.087 Uiso 1 calc . . GR .
C56 C 0.1401(5) 1.0572(4) -0.1495(3) 0.0537(14) Uani 1 d . . . .
C57 C 0.1359(5) 1.0886(4) -0.2119(3) 0.0584(15) Uani 1 d . . . .
C58 C 0.1268(5) 1.1275(4) -0.2886(3) 0.0577(15) Uani 1 d . . . .
C59 C 0.0735(6) 1.1051(4) -0.3251(3) 0.0648(17) Uani 1 d . . . .
H59 H 0.0425 1.0655 -0.2986 0.078 Uiso 1 calc . . R .
C60 C 0.0662(5) 1.1402(4) -0.3984(3) 0.0595(15) Uani 1 d . . . .
H60 H 0.0329 1.1230 -0.4210 0.071 Uiso 1 calc . . R .
C61 C 0.1083(5) 1.2011(3) -0.4384(3) 0.0537(14) Uani 1 d . . . .
C62 C 0.1591(5) 1.2266(4) -0.4046(3) 0.0581(15) Uani 1 d . . . .
H62 H 0.1872 1.2678 -0.4318 0.070 Uiso 1 calc . . R .
C63 C 0.1682(5) 1.1904(4) -0.3297(3) 0.0586(15) Uani 1 d . . . .
H63 H 0.2014 1.2080 -0.3074 0.070 Uiso 1 calc . . R .
C64 C 0.0637(5) 1.0629(3) 0.0830(3) 0.0506(13) Uani 1 d . . . .
C65 C 0.0383(5) 1.0972(4) 0.1163(3) 0.0564(15) Uani 1 d . . . .
C66 C 0.0092(5) 1.1402(3) 0.1588(3) 0.0526(14) Uani 1 d . . . .
C67 C -0.0567(7) 1.1177(4) 0.2175(4) 0.076(2) Uani 1 d . . . .
H67 H -0.0851 1.0777 0.2275 0.091 Uiso 1 calc . . R .
C68 C -0.0792(7) 1.1554(4) 0.2604(3) 0.073(2) Uani 1 d . . . .
H68 H -0.1243 1.1417 0.2982 0.088 Uiso 1 calc . . R .
C69 C -0.0342(5) 1.2134(3) 0.2468(3) 0.0502(13) Uani 1 d . . . .
C70 C 0.0291(5) 1.2350(4) 0.1884(3) 0.0568(15) Uani 1 d . . . .
H70 H 0.0575 1.2751 0.1782 0.068 Uiso 1 calc . . R .
C71 C 0.0513(5) 1.1989(4) 0.1449(4) 0.0588(15) Uani 1 d . . . .
H71 H 0.0947 1.2143 0.1062 0.071 Uiso 1 calc . . R .
C72 C -0.0481(5) 1.2488(3) 0.2980(3) 0.0471(12) Uani 1 d . . . .
C73 C 0.9198(10) -1.0420(8) 0.6014(6) 0.145(5) Uani 1 d . . . .
H73A H 0.9341 -1.0113 0.6209 0.218 Uiso 1 calc . . GR .
H73B H 0.9814 -1.0740 0.5945 0.218 Uiso 1 calc . . GR .
H73C H 0.8775 -1.07