####################################################################### 
# 
# This file contains crystal structure data downloaded from the 
# Cambridge Structural Database (CSD) hosted by the Cambridge 
# Crystallographic Data Centre (CCDC).
# 
# Full information about CCDC data access policies and citation 
# guidelines are available at http://www.ccdc.cam.ac.uk/access/V1 
# 
# Audit and citation data items may have been added by the CCDC. 
# Please retain this information to preserve the provenance of 
# this file and to allow appropriate attribution of the data. 
# 
#######################################################################

data_2
_audit_block_doi                 10.5517/ccsfrgd
_database_code_depnum_ccdc_archive 'CCDC 728204'
loop_
_citation_id
_citation_doi
_citation_year
1 10.1021/ja808210z 2009
_audit_update_record             
;
2009-04-17 deposited with the CCDC.	2024-07-14 downloaded from the CCDC.
;

_audit_creation_method           SHELXL-97
_chemical_name_systematic        
;
?
;
_chemical_name_common            ?
_chemical_formula_moiety         ?
_chemical_formula_sum            'C55 H68 F6 N8 O16 S2 Zn'
_chemical_formula_weight         1340.67

loop_
_atom_type_symbol
_atom_type_description
_atom_type_scat_dispersion_real
_atom_type_scat_dispersion_imag
_atom_type_scat_source
C C 0.0033 0.0016 'International Tables Vol C Tables 4.2.6.8 and 6.1.1.4'
H H 0.0000 0.0000 'International Tables Vol C Tables 4.2.6.8 and 6.1.1.4'
N N 0.0061 0.0033 'International Tables Vol C Tables 4.2.6.8 and 6.1.1.4'
O O 0.0106 0.0060 'International Tables Vol C Tables 4.2.6.8 and 6.1.1.4'
F F 0.0171 0.0103 'International Tables Vol C Tables 4.2.6.8 and 6.1.1.4'
S S 0.1246 0.1234 'International Tables Vol C Tables 4.2.6.8 and 6.1.1.4'
Zn Zn 0.2220 1.4310 'International Tables Vol C Tables 4.2.6.8 and 6.1.1.4'

_symmetry_cell_setting           Monoclinic
_symmetry_space_group_name_H-M   'C 2'

loop_
_symmetry_equiv_pos_as_xyz
'x, y, z'
'-x, y, -z'
'x+1/2, y+1/2, z'
'-x+1/2, y+1/2, -z'

_cell_length_a                   21.111(3)
_cell_length_b                   17.542(3)
_cell_length_c                   21.355(3)
_cell_angle_alpha                90.00
_cell_angle_beta                 97.37(3)
_cell_angle_gamma                90.00
_cell_volume                     7843(2)
_cell_formula_units_Z            4
_cell_measurement_temperature    294(2)
_cell_measurement_reflns_used    26
_cell_measurement_theta_min      4.36
_cell_measurement_theta_max      7.76

_exptl_crystal_description       block
_exptl_crystal_colour            colourless
_exptl_crystal_size_max          0.52
_exptl_crystal_size_mid          0.44
_exptl_crystal_size_min          0.42
_exptl_crystal_density_meas      ?
_exptl_crystal_density_diffrn    1.146
_exptl_crystal_density_method    'not measured'
_exptl_crystal_F_000             2816
_exptl_absorpt_coefficient_mu    0.142
_exptl_absorpt_correction_type   none
_exptl_absorpt_correction_T_min  0.9296
_exptl_absorpt_correction_T_max  0.9426

_exptl_special_details           
;
?
;

_diffrn_ambient_temperature      294(2)
_diffrn_radiation_wavelength     0.71073
_diffrn_radiation_type           MoK\a
_diffrn_radiation_source         'fine-focus sealed tube'
_diffrn_radiation_monochromator  graphite
_diffrn_measurement_device_type  CAD4
_diffrn_measurement_method       Omega/2-Theta
_diffrn_detector_area_resol_mean ?
_diffrn_standards_number         3
_diffrn_standards_interval_count 300
_diffrn_standards_interval_time  ?
_diffrn_standards_decay_%        14.282
_diffrn_reflns_number            7907
_diffrn_reflns_av_R_equivalents  0.0031
_diffrn_reflns_av_sigmaI/netI    0.1445
_diffrn_reflns_limit_h_min       -25
_diffrn_reflns_limit_h_max       25
_diffrn_reflns_limit_k_min       0
_diffrn_reflns_limit_k_max       20
_diffrn_reflns_limit_l_min       -8
_diffrn_reflns_limit_l_max       25
_diffrn_reflns_theta_min         1.73
_diffrn_reflns_theta_max         25.18
_reflns_number_total             7213
_reflns_number_gt                2769
_reflns_threshold_expression     >2sigma(I)

_computing_data_collection       ?
_computing_cell_refinement       ?
_computing_data_reduction        ?
_computing_structure_solution    'SHELXS-97 (Sheldrick, 1990)'
_computing_structure_refinement  'SHELXL-97 (Sheldrick, 1997)'
_computing_molecular_graphics    ?
_computing_publication_material  ?

_refine_special_details          
;
Refinement of F^2^ against ALL reflections. The weighted R-factor wR and
goodness of fit S are based on F^2^, conventional R-factors R are based
on F, with F set to zero for negative F^2^. The threshold expression of
F^2^ > 2sigma(F^2^) is used only for calculating R-factors(gt) etc. and is
not relevant to the choice of reflections for refinement. R-factors based
on F^2^ are statistically about twice as large as those based on F, and R-
factors based on ALL data will be even larger.
;

_refine_ls_structure_factor_coef Fsqd
_refine_ls_matrix_type           full
_refine_ls_weighting_scheme      
'calc w=1/[\s^2^(Fo^2^)+(0.2000P)^2^+0.0000P] where P=(Fo^2^+2Fc^2^)/3'
_atom_sites_solution_primary     direct
_atom_sites_solution_secondary   difmap
_atom_sites_solution_hydrogens   geom
_refine_ls_hydrogen_treatment    constr
_refine_ls_extinction_method     none
_refine_ls_extinction_coef       ?
_refine_ls_abs_structure_details 'Flack H D (1983), Acta Cryst. A39, 876-881'
_refine_ls_abs_structure_Flack   -0.06(5)
_refine_ls_number_reflns         7213
_refine_ls_number_parameters     636
_refine_ls_number_restraints     28
_refine_ls_R_factor_all          0.2714
_refine_ls_R_factor_gt           0.0989
_refine_ls_wR_factor_ref         0.3209
_refine_ls_wR_factor_gt          0.2457
_refine_ls_goodness_of_fit_ref   0.948
_refine_ls_restrained_S_all      0.946
_refine_ls_shift/su_max          0.870
_refine_ls_shift/su_mean         0.013

loop_
_atom_site_label
_atom_site_type_symbol
_atom_site_fract_x
_atom_site_fract_y
_atom_site_fract_z
_atom_site_U_iso_or_equiv
_atom_site_adp_type
_atom_site_occupancy
_atom_site_calc_flag
_atom_site_refinement_flags
_atom_site_disorder_assembly
_atom_site_disorder_group
Zn1 Zn 0.34281(5) 0.4067(6) 0.29525(7) 0.0416(5) Uani 1 d . . .
N1 N 0.3980(6) 0.5039(8) 0.2976(6) 0.028(4) Uani 1 d D . .
N2 N 0.4229(7) 0.6275(11) 0.2904(7) 0.038(4) Uani 1 d D . .
N3 N 0.3942(10) 0.3155(14) 0.2980(8) 0.083(8) Uani 1 d D . .
N4 N 0.4229(10) 0.1951(12) 0.2911(8) 0.059(6) Uani 1 d D . .
N5 N 0.2903(4) 0.4040(13) 0.2101(5) 0.058(3) Uani 1 d D . .
N6 N 0.2134(4) 0.4061(15) 0.1313(6) 0.069(3) Uani 1 d D . .
N7 N 0.2922(5) 0.3987(13) 0.3651(6) 0.067(4) Uani 1 d D . .
N8 N 0.2142(5) 0.3936(15) 0.4243(6) 0.108(9) Uani 1 d D . .
C1 C 0.3741(11) 0.5734(13) 0.2890(7) 0.048(6) Uani 1 d D . .
H1 H 0.3307 0.5848 0.2829 0.097(11) Uiso 1 calc R . .
C2 C 0.4580(11) 0.5012(18) 0.3050(9) 0.149(16) Uani 1 d D . .
H2 H 0.4835 0.4581 0.3117 0.097(11) Uiso 1 calc R . .
C3 C 0.4801(10) 0.5845(10) 0.3009(9) 0.071(9) Uani 1 d D . .
H3 H 0.5218 0.6025 0.3045 0.097(11) Uiso 1 calc R . .
C4 C 0.4163(10) 0.7038(14) 0.2866(7) 0.041(5) Uani 1 d D . .
C5 C 0.4725(11) 0.7438(13) 0.2703(9) 0.089(11) Uani 1 d D . .
H5 H 0.5088 0.7173 0.2625 0.097(11) Uiso 1 calc R . .
C6 C 0.4699(10) 0.8248(14) 0.2669(10) 0.092(11) Uani 1 d D . .
H6 H 0.5057 0.8504 0.2566 0.097(11) Uiso 1 calc R . .
C7 C 0.4159(10) 0.8689(13) 0.2782(9) 0.058(7) Uani 1 d D . .
C8 C 0.3626(7) 0.8226(12) 0.2942(8) 0.061(8) Uani 1 d D . .
H8 H 0.3258 0.8478 0.3024 0.097(11) Uiso 1 calc R . .
C9 C 0.3633(12) 0.7397(16) 0.2982(8) 0.077(9) Uani 1 d D . .
H9 H 0.3281 0.7128 0.3085 0.097(11) Uiso 1 calc R . .
C10 C 0.4156(8) 0.9525(13) 0.2807(6) 0.045(6) Uani 1 d D . .
C11 C 0.4652(13) 0.9892(13) 0.2684(11) 0.089(10) Uani 1 d D . .
H11 H 0.5004 0.9625 0.2577 0.097(11) Uiso 1 calc R . .
C12 C 0.4669(13) 0.0681(18) 0.2707(11) 0.109(12) Uani 1 d D . .
H12 H 0.5044 0.0925 0.2635 0.097(11) Uiso 1 calc R . .
C13 C 0.4192(11) 0.1096(12) 0.2824(10) 0.059(7) Uani 1 d D . .
C14 C 0.3655(10) 1.0695(15) 0.2927(9) 0.080(9) Uani 1 d D . .
H14 H 0.3287 1.0955 0.2997 0.097(11) Uiso 1 calc R . .
C15 C 0.3661(14) 0.9909(14) 0.2928(8) 0.088(10) Uani 1 d D . .
H15 H 0.3301 0.9648 0.3018 0.097(11) Uiso 1 calc R . .
C16 C 0.3755(9) 0.2414(13) 0.2898(8) 0.046(6) Uani 1 d D . .
H16 H 0.3330 0.2260 0.2840 0.097(11) Uiso 1 calc R . .
C17 C 0.4641(8) 0.3064(9) 0.3047(10) 0.071(8) Uani 1 d D . .
H17 H 0.4941 0.3453 0.3111 0.097(11) Uiso 1 calc R . .
C18 C 0.4760(13) 0.235(2) 0.3001(10) 0.118(14) Uani 1 d D . .
H18 H 0.5168 0.2141 0.3029 0.097(11) Uiso 1 calc R . .
C19 C 0.2287(5) 0.4107(13) 0.1918(6) 0.045(3) Uani 1 d D . .
H19 H 0.1989 0.4181 0.2197 0.097(11) Uiso 1 calc R . .
C20 C 0.3159(7) 0.394(2) 0.1566(8) 0.142(15) Uani 1 d D . .
H20 H 0.3591 0.3877 0.1534 0.097(11) Uiso 1 calc R . .
C21 C 0.2692(9) 0.396(2) 0.1090(9) 0.22(3) Uani 1 d D . .
H21 H 0.2744 0.3903 0.0666 0.097(11) Uiso 1 calc R . .
C22 C 0.1516(6) 0.4001(12) 0.0922(8) 0.068(5) Uani 1 d D . .
C23 C 0.0975(7) 0.4007(15) 0.1214(8) 0.170(17) Uani 1 d D . .
H23 H 0.0992 0.3979 0.1651 0.097(11) Uiso 1 calc R . .
C24 C 0.0407(9) 0.4059(15) 0.0828(10) 0.172(15) Uani 1 d D . .
H24 H 0.0042 0.4063 0.1028 0.097(11) Uiso 1 calc R . .
C25 C 0.0310(6) 0.4104(16) 0.0185(7) 0.068(4) Uani 1 d D . .
C26 C 0.0877(8) 0.409(2) -0.0052(8) 0.150(11) Uani 1 d D . .
H26 H 0.0864 0.4123 -0.0488 0.097(11) Uiso 1 calc R . .
C27 C 0.1473(8) 0.404(2) 0.0302(8) 0.148(13) Uani 1 d D . .
H27 H 0.1840 0.4037 0.0103 0.097(11) Uiso 1 calc R . .
C28 C 0.2306(6) 0.4147(13) 0.3714(7) 0.055(4) Uani 1 d D . .
H28 H 0.2028 0.4387 0.3402 0.066 Uiso 1 calc R . .
C29 C 0.3153(10) 0.3631(14) 0.4224(9) 0.121(10) Uani 1 d D . .
H29 H 0.3568 0.3451 0.4327 0.15(4) Uiso 1 calc R . .
C30 C 0.2681(10) 0.3587(14) 0.4609(13) 0.138(11) Uani 1 d D . .
H30 H 0.2706 0.3379 0.5013 0.15(4) Uiso 1 calc R . .
C31 C 0.1518(6) 0.4182(13) 0.4501(7) 0.072(6) Uani 1 d D . .
C32 C 0.1472(7) 0.4099(12) 0.5079(6) 0.103(8) Uani 1 d D . .
H32 H 0.1842 0.4057 0.5364 0.15(4) Uiso 1 calc R . .
C33 C 0.0869(6) 0.4066(14) 0.5307(7) 0.095(7) Uani 1 d D . .
H33 H 0.0839 0.4006 0.5734 0.15(4) Uiso 1 calc R . .
C34 C 0.0325(6) 0.4129(17) 0.4865(8) 0.086(6) Uani 1 d D . .
C35 C 0.0378(7) 0.422(2) 0.4282(8) 0.171(17) Uani 1 d D . .
H35 H 0.0010 0.4261 0.3994 0.15(4) Uiso 1 calc R . .
C36 C 0.0997(8) 0.425(2) 0.4054(9) 0.21(2) Uani 1 d D . .
H36 H 0.1036 0.4307 0.3628 0.15(4) Uiso 1 calc R . .
S1 S 0.6639(4) 0.7140(7) 0.2706(4) 0.074(2) Uani 1 d . . .
O1 O 0.6204(10) 0.6697(15) 0.2963(13) 0.138(10) Uani 1 d . . .
O2 O 0.6338(10) 0.7907(15) 0.2618(13) 0.136(9) Uani 1 d . . .
O3 O 0.7258(10) 0.699(2) 0.2911(14) 0.213(17) Uani 1 d . . .
F1 F 0.6733(14) 0.6133(9) 0.1892(10) 0.223(13) Uani 1 d D . .
F2 F 0.6914(13) 0.7267(10) 0.1571(9) 0.237(17) Uani 1 d D . .
F3 F 0.5952(10) 0.6912(19) 0.1644(10) 0.32(2) Uani 1 d D . .
C37 C 0.6553(12) 0.6862(12) 0.1913(13) 0.096(9) Uani 1 d . . .
S2 S 0.1629(4) 0.6005(7) 0.2716(5) 0.086(3) Uani 1 d D . .
O4 O 0.1236(7) 0.6525(12) 0.3007(9) 0.088(6) Uani 1 d . . .
O5 O 0.1441(12) 0.5231(11) 0.2686(10) 0.118(8) Uani 1 d . . .
O6 O 0.2273(10) 0.602(2) 0.2901(13) 0.178(13) Uani 1 d . . .
F4 F 0.1868(12) 0.5896(18) 0.1543(13) 0.201(11) Uiso 1 d D . .
F5 F 0.0962(15) 0.6223(17) 0.1670(15) 0.228(13) Uiso 1 d D . .
F6 F 0.186(3) 0.709(3) 0.185(3) 0.48(4) Uiso 1 d D . .
C38 C 0.1575(16) 0.640(3) 0.1889(18) 0.27(3) Uiso 1 d D . .
O7 O 0.2334(6) 0.9022(17) 0.3619(6) 0.111(4) Uiso 1 d . . .
O8 O 0.1013(6) 0.9149(16) 0.3185(6) 0.113(4) Uiso 1 d . . .
C39 C 0.2011(18) 0.976(2) 0.3516(17) 0.146(14) Uiso 1 d . . .
C40 C 0.1981(16) 0.8370(19) 0.3333(15) 0.112(10) Uiso 1 d . . .
C41 C 0.1371(16) 0.841(2) 0.3125(15) 0.139(10) Uiso 1 d . . .
C42 C 0.1337(11) 0.9772(15) 0.3534(11) 0.092(6) Uiso 1 d . . .
O9 O 0.4811(12) 0.415(3) 0.1622(12) 0.217(10) Uiso 1 d . . .
O10 O 0.549(2) 0.371(2) 0.0768(19) 0.285(19) Uiso 1 d . . .
C43 C 0.524(2) 0.337(3) 0.152(2) 0.185(15) Uiso 1 d . . .
C44 C 0.481(3) 0.496(5) 0.157(3) 0.30(3) Uiso 1 d . . .
C45 C 0.508(3) 0.317(3) 0.074(3) 0.23(2) Uiso 1 d . . .
C46 C 0.423(4) 0.353(5) 0.057(4) 0.40(5) Uiso 1 d . . .
O11 O 0.2504(10) 0.903(3) 0.1809(10) 0.181(7) Uiso 1 d . . .
O12 O 0.2228(13) 0.9377(17) 0.0518(13) 0.203(11) Uiso 1 d . . .
C47 C 0.259(3) 0.814(4) 0.158(3) 0.25(2) Uiso 1 d . . .
C48 C 0.228(3) 1.010(4) 0.082(3) 0.25(2) Uiso 1 d . . .
C49 C 0.211(2) 0.845(3) 0.090(2) 0.202(17) Uiso 1 d . . .
C50 C 0.2636(19) 0.969(3) 0.141(2) 0.171(14) Uiso 1 d . . .
O13 O 0.4665(8) 0.3975(18) 0.4369(8) 0.139(6) Uiso 1 d . . .
C51 C 0.497(2) 0.339(3) 0.4630(17) 0.198(16) Uiso 1 d . . .
O14 O 0.342(2) 0.196(3) 0.125(2) 0.33(2) Uiso 1 d . . .
O15 O 0.444(2) 0.115(3) 0.062(2) 0.35(2) Uiso 1 d . . .
C52 C 0.407(2) 0.180(3) 0.1205(19) 0.181(14) Uiso 1 d . . .
C53 C 0.437(3) 0.207(4) 0.045(3) 0.25(2) Uiso 1 d . . .
C54 C 0.338(3) 0.100(4) 0.076(3) 0.29(3) Uiso 1 d . . .
C55 C 0.324(3) 0.206(4) 0.047(3) 0.29(3) Uiso 1 d . . .

loop_
_atom_site_aniso_label
_atom_site_aniso_U_11
_atom_site_aniso_U_22
_atom_site_aniso_U_33
_atom_site_aniso_U_23
_atom_site_aniso_U_13
_atom_site_aniso_U_12
Zn1 0.0328(7) 0.0308(6) 0.0628(9) -0.0002(17) 0.0120(6) -0.0006(16)
N1 0.025(8) 0.000(5) 0.057(10) 0.019(5) -0.002(7) 0.000(5)
N2 0.012(8) 0.031(9) 0.073(13) -0.007(8) 0.010(8) -0.009(7)
N3 0.046(13) 0.109(17) 0.100(17) 0.066(12) 0.028(11) 0.005(11)
N4 0.056(13) 0.015(8) 0.107(17) -0.010(9) 0.016(12) -0.006(8)
N5 0.036(5) 0.084(8) 0.053(6) 0.001(14) -0.001(5) -0.023(13)
N6 0.037(5) 0.095(9) 0.073(8) -0.030(16) 0.001(5) -0.003(15)
N7 0.036(5) 0.096(12) 0.074(8) 0.025(12) 0.025(5) 0.006(10)
N8 0.026(5) 0.24(3) 0.063(8) 0.069(17) 0.020(5) 0.004(13)
C1 0.054(15) 0.029(11) 0.057(14) 0.001(11) -0.004(11) 0.013(11)
C2 0.053(15) 0.12(2) 0.25(4) 0.08(2) -0.079(19) -0.002(15)
C3 0.038(12) 0.001(7) 0.17(3) 0.020(10) 0.013(14) -0.008(7)
C4 0.042(13) 0.041(12) 0.039(11) -0.013(10) 0.004(9) 0.003(10)
C5 0.053(15) 0.016(11) 0.21(3) 0.000(14) 0.067(18) -0.005(10)
C6 0.040(13) 0.054(16) 0.20(3) 0.024(16) 0.069(17) 0.024(11)
C7 0.059(15) 0.016(8) 0.091(18) -0.019(10) -0.024(12) -0.008(10)
C8 0.008(7) 0.028(11) 0.15(2) 0.018(11) 0.035(11) -0.004(7)
C9 0.081(18) 0.048(14) 0.11(2) 0.026(13) 0.047(16) 0.026(13)
C10 0.046(13) 0.031(10) 0.067(15) -0.018(10) 0.037(11) -0.007(10)
C11 0.11(2) 0.019(11) 0.15(3) 0.016(13) 0.06(2) 0.027(12)
C12 0.065(19) 0.049(16) 0.22(4) 0.00(2) 0.06(2) -0.022(14)
C13 0.035(13) 0.016(10) 0.13(2) -0.009(12) 0.017(13) 0.005(9)
C14 0.020(10) 0.034(12) 0.18(3) -0.009(14) 0.011(13) 0.016(9)
C15 0.12(2) 0.034(14) 0.12(2) 0.006(13) 0.055(19) -0.041(14)
C16 0.014(11) 0.031(12) 0.096(19) 0.006(12) 0.015(11) 0.015(9)
C17 0.030(9) 0.000(6) 0.19(2) 0.013(9) 0.058(12) 0.014(6)
C18 0.030(15) 0.12(3) 0.20(4) 0.01(2) -0.006(18) -0.027(15)
C19 0.040(6) 0.056(7) 0.038(7) 0.020(14) -0.001(5) 0.004(14)
C20 0.033(8) 0.33(5) 0.066(11) -0.06(3) 0.002(8) 0.03(2)
C21 0.057(11) 0.54(8) 0.063(12) -0.09(4) -0.005(10) 0.08(3)
C22 0.043(7) 0.079(13) 0.077(11) 0.037(15) -0.011(7) 0.016(12)
C23 0.042(9) 0.41(5) 0.060(11) -0.09(3) -0.002(8) -0.04(3)
C24 0.064(12) 0.36(5) 0.091(15) 0.02(4) -0.001(11) -0.10(3)
C25 0.049(7) 0.093(10) 0.060(9) -0.02(2) -0.002(6) -0.016(17)
C26 0.062(10) 0.34(3) 0.045(9) 0.00(4) -0.015(8) 0.01(5)
C27 0.059(10) 0.32(4) 0.060(12) -0.08(3) 0.002(8) -0.03(3)
C28 0.042(6) 0.054(9) 0.068(9) 0.001(13) 0.006(6) 0.008(12)
C29 0.062(12) 0.24(3) 0.065(13) 0.063(15) 0.016(10) 0.038(14)
C30 0.061(13) 0.20(3) 0.16(2) 0.08(2) 0.050(15) 0.023(15)
C31 0.036(7) 0.102(16) 0.076(11) 0.034(14) 0.002(6) 0.006(12)
C32 0.064(10) 0.22(2) 0.027(7) 0.041(18) 0.021(7) 0.084(19)
C33 0.044(7) 0.173(19) 0.066(10) 0.074(19) 0.003(7) 0.00(2)
C34 0.041(7) 0.138(16) 0.084(11) -0.05(2) 0.035(8) -0.022(18)
C35 0.045(8) 0.42(5) 0.047(10) 0.08(3) 0.015(7) 0.01(3)
C36 0.044(9) 0.54(7) 0.066(12) 0.07(4) 0.016(9) -0.01(3)
S1 0.055(5) 0.087(6) 0.082(6) 0.005(4) 0.017(4) -0.029(4)
O1 0.112(18) 0.115(17) 0.21(2) 0.047(16) 0.097(17) -0.022(14)
O2 0.104(15) 0.124(18) 0.19(2) -0.041(16) 0.061(15) 0.026(13)
O3 0.052(13) 0.36(5) 0.22(3) 0.14(3) 0.016(16) 0.067(19)
F1 0.38(3) 0.073(9) 0.25(2) -0.067(12) 0.16(2) 0.019(14)
F2 0.48(4) 0.137(14) 0.150(17) -0.024(12) 0.24(2) -0.054(19)
F3 0.24(3) 0.60(7) 0.098(14) -0.14(2) -0.040(15) -0.09(3)
C37 0.12(2) 0.041(9) 0.13(2) -0.024(11) 0.042(16) -0.022(11)
S2 0.046(5) 0.083(6) 0.129(8) -0.003(5) 0.017(5) 0.011(4)
O4 0.056(11) 0.082(12) 0.123(15) -0.019(11) 0.006(10) 0.005(9)
O5 0.20(2) 0.058(11) 0.112(15) 0.000(9) 0.065(14) 0.060(12)
O6 0.056(13) 0.28(4) 0.20(3) -0.01(2) -0.003(15) 0.078(17)

_geom_special_details            
;
All esds (except the esd in the dihedral angle between two l.s. planes)
are estimated using the full covariance matrix. The cell esds are taken
into account individually in the estimation of esds in distances, angles
and torsion angles; correlations between esds in cell parameters are only
used when they are defined by crystal symmetry. An approximate (isotropic)
treatment of cell esds is used for estimating esds involving l.s. planes.
;

loop_
_geom_bond_atom_site_label_1
_geom_bond_atom_site_label_2
_geom_bond_distance
_geom_bond_site_symmetry_2
_geom_bond_publ_flag
Zn1 N3 1.93(2) . ?
