####################################################################### 
# 
# This file contains crystal structure data downloaded from the 
# Cambridge Structural Database (CSD) hosted by the Cambridge 
# Crystallographic Data Centre (CCDC).
# 
# Full information about CCDC data access policies and citation 
# guidelines are available at http://www.ccdc.cam.ac.uk/access/V1 
# 
# Audit and citation data items may have been added by the CCDC. 
# Please retain this information to preserve the provenance of 
# this file and to allow appropriate attribution of the data. 
# 
#######################################################################

data_c2c
_audit_block_doi                 10.5517/cc13b0v9
_database_code_depnum_ccdc_archive 'CCDC 1022530'
loop_
_citation_id
_citation_doi
_citation_year
1 10.1039/C4DT03029J 2015
_audit_update_record             
;
2014-11-09 deposited with the CCDC.	2024-07-14 downloaded from the CCDC.
;

_audit_creation_method           SHELXL-97
_chemical_name_systematic        
; 
 ? 
;
_chemical_name_common            ?
_chemical_melting_point          ?
_chemical_formula_moiety         
'C50 H39.33 N8.67 O9.33 Zn, Mo6 O19, 2.5(C H4 O), 2(C5 H9 N O)'
_chemical_formula_sum            'C62.50 H67.33 Mo6 N10.67 O32.83 Zn'
_chemical_formula_weight         2134.28

loop_
_atom_type_symbol
_atom_type_description
_atom_type_scat_dispersion_real
_atom_type_scat_dispersion_imag
_atom_type_scat_source
C C 0.0033 0.0016 'International Tables Vol C Tables 4.2.6.8 and 6.1.1.4'
H H 0.0000 0.0000 'International Tables Vol C Tables 4.2.6.8 and 6.1.1.4'
N N 0.0061 0.0033 'International Tables Vol C Tables 4.2.6.8 and 6.1.1.4'
O O 0.0106 0.0060 'International Tables Vol C Tables 4.2.6.8 and 6.1.1.4'
Mo Mo -1.6832 0.6857 'International Tables Vol C Tables 4.2.6.8 and 6.1.1.4'
Zn Zn 0.2839 1.4301 'International Tables Vol C Tables 4.2.6.8 and 6.1.1.4'

_symmetry_cell_setting           monoclinic
_symmetry_space_group_name_H-M   C2/c
_symmetry_space_group_name_Hall  '-C 2yc'

loop_
_symmetry_equiv_pos_as_xyz
'x, y, z'
'-x, y, -z+1/2'
'x+1/2, y+1/2, z'
'-x+1/2, y+1/2, -z+1/2'
'-x, -y, -z'
'x, -y, z-1/2'
'-x+1/2, -y+1/2, -z'
'x+1/2, -y+1/2, z-1/2'

_cell_length_a                   18.484(4)
_cell_length_b                   54.534(11)
_cell_length_c                   18.076(4)
_cell_angle_alpha                90.00
_cell_angle_beta                 103.40(3)
_cell_angle_gamma                90.00
_cell_volume                     17725(6)
_cell_formula_units_Z            8
_cell_measurement_temperature    113(2)
_cell_measurement_reflns_used    ?
_cell_measurement_theta_min      ?
_cell_measurement_theta_max      ?

_exptl_crystal_description       block
_exptl_crystal_colour            yellow
_exptl_crystal_size_max          0.38
_exptl_crystal_size_mid          0.25
_exptl_crystal_size_min          0.17
_exptl_crystal_density_meas      ?
_exptl_crystal_density_diffrn    1.600
_exptl_crystal_density_method    'not measured'
_exptl_crystal_F_000             8493
_exptl_absorpt_coefficient_mu    1.169
_exptl_absorpt_correction_type   Multi-scan
_exptl_absorpt_correction_T_min  0.6820
_exptl_absorpt_correction_T_max  1.0000
_exptl_absorpt_process_details   'CrystalClear; Rigaku Inc., 2007'

_exptl_special_details           
; 
 ? 
;

_diffrn_ambient_temperature      113(2)
_diffrn_radiation_wavelength     0.71073
_diffrn_radiation_type           MoK\a
_diffrn_radiation_source         'fine-focus sealed tube'
_diffrn_radiation_monochromator  graphite
_diffrn_measurement_device_type  ?
_diffrn_measurement_method       ?
_diffrn_detector_area_resol_mean ?
_diffrn_standards_number         ?
_diffrn_standards_interval_count ?
_diffrn_standards_interval_time  ?
_diffrn_standards_decay_%        ?
_diffrn_reflns_number            47236
_diffrn_reflns_av_R_equivalents  0.0616
_diffrn_reflns_av_sigmaI/netI    0.0542
_diffrn_reflns_limit_h_min       -20
_diffrn_reflns_limit_h_max       15
_diffrn_reflns_limit_k_min       -60
_diffrn_reflns_limit_k_max       60
_diffrn_reflns_limit_l_min       -19
_diffrn_reflns_limit_l_max       19
_diffrn_reflns_theta_min         3.15
_diffrn_reflns_theta_max         23.26
_reflns_number_total             12656
_reflns_number_gt                9870
_reflns_threshold_expression     >2sigma(I)

_computing_data_collection       'CrystalClear (Rigaku Inc., 2007)'
_computing_cell_refinement       'CrystalClear (Rigaku Inc., 2007)'
_computing_data_reduction        'CrystalClear (Rigaku Inc., 2007)'
_computing_structure_solution    'SHELXS-97 (Sheldrick, 2008)'
_computing_structure_refinement  'SHELXL-97 (Sheldrick, 2008)'
_computing_molecular_graphics    'DIAMOND (Brandenburg, 2004)'
_computing_publication_material  'SHELXL97 and publCIF (Westrip, 2010)'

_refine_special_details          
; 
 Refinement of F^2^ against ALL reflections.  The weighted R-factor wR and 
 goodness of fit S are based on F^2^, conventional R-factors R are based 
 on F, with F set to zero for negative F^2^. The threshold expression of 
 F^2^ > 2sigma(F^2^) is used only for calculating R-factors(gt) etc. and is 
 not relevant to the choice of reflections for refinement.  R-factors based 
 on F^2^ are statistically about twice as large as those based on F, and R- 
 factors based on ALL data will be even larger. 
;
loop_
_platon_squeeze_void_nr
_platon_squeeze_void_average_x
_platon_squeeze_void_average_y
_platon_squeeze_void_average_z
_platon_squeeze_void_volume
_platon_squeeze_void_count_electrons
_platon_squeeze_void_content
1 0.397 0.129 0.250 1607 350 ' '
2 0.562 0.371 -0.250 1607 344 ' '
3 0.897 0.629 0.250 1607 350 ' '
4 0.062 0.871 -0.250 1607 344 ' '
_platon_squeeze_details          
;
The mixed solvent was used when synthesis, 
so content of the solvent is unable to provide precise.
Combined with TGA data and volume/count_electrons analysis, 
there are approximately 16 NMP molecules and 20 MeOH molecules per unit cell was squeezed
;

_refine_ls_structure_factor_coef Fsqd
_refine_ls_matrix_type           full
_refine_ls_weighting_scheme      calc
_refine_ls_weighting_details     
'calc w=1/[\s^2^(Fo^2^)+(0.1914P)^2^+83.6724P] where P=(Fo^2^+2Fc^2^)/3'
_atom_sites_solution_primary     direct
_atom_sites_solution_secondary   difmap
_atom_sites_solution_hydrogens   geom
_refine_ls_hydrogen_treatment    constr
_refine_ls_extinction_method     none
_refine_ls_extinction_coef       ?
_refine_ls_number_reflns         12656
_refine_ls_number_parameters     870
_refine_ls_number_restraints     29
_refine_ls_R_factor_all          0.1150
_refine_ls_R_factor_gt           0.1003
_refine_ls_wR_factor_ref         0.3179
_refine_ls_wR_factor_gt          0.2996
_refine_ls_goodness_of_fit_ref   1.135
_refine_ls_restrained_S_all      1.142
_refine_ls_shift/su_max          0.010
_refine_ls_shift/su_mean         0.000

loop_
_atom_site_label
_atom_site_type_symbol
_atom_site_fract_x
_atom_site_fract_y
_atom_site_fract_z
_atom_site_U_iso_or_equiv
_atom_site_adp_type
_atom_site_occupancy
_atom_site_symmetry_multiplicity
_atom_site_calc_flag
_atom_site_refinement_flags
_atom_site_disorder_assembly
_atom_site_disorder_group
Zn1 Zn 0.24831(4) 0.125223(12) 0.75291(4) 0.0272(3) Uani 1 1 d . . .
Mo1 Mo -0.06623(7) 0.31979(3) 0.84434(6) 0.0852(4) Uani 1 1 d . . .
Mo2 Mo 0.0000 0.36286(4) 0.7500 0.0976(6) Uani 1 2 d S . .
Mo3 Mo -0.10986(6) 0.32006(3) 0.65886(6) 0.0881(4) Uani 1 1 d . . .
Mo4 Mo 0.0000 0.10051(3) 0.2500 0.1159(8) Uani 1 2 d S . .
Mo5 Mo 0.06989(7) 0.058145(19) 0.15754(5) 0.0792(4) Uani 1 1 d . . .
Mo6 Mo 0.0000 0.01556(2) 0.2500 0.0547(4) Uani 1 2 d S . .
Mo7 Mo 0.10815(7) 0.05793(2) 0.34428(6) 0.0883(4) Uani 1 1 d . . .
Mo8 Mo 0.0000 0.27693(3) 0.7500 0.0793(5) Uani 1 2 d S . .
N1 N 0.2012(3) 0.15605(11) 0.8059(3) 0.0310(14) Uani 1 1 d . A .
N2 N 0.0917(4) 0.21128(13) 0.9024(4) 0.0464(17) Uani 1 1 d . A .
N3 N 0.3003(3) 0.15141(11) 0.6947(3) 0.0338(14) Uani 1 1 d . A .
N4 N 0.4132(3) 0.20153(13) 0.5850(4) 0.0457(18) Uani 1 1 d . A .
N5 N 0.1976(3) 0.09727(10) 0.8077(3) 0.0328(14) Uani 1 1 d . A .
N6 N 0.0912(3) 0.04345(11) 0.9096(4) 0.0353(15) Uani 1 1 d . A .
N9 N 0.0645(5) 0.1170(2) 0.5553(6) 0.086(3) Uani 1 1 d . A .
N10 N 0.4418(5) 0.12223(19) 0.9437(6) 0.080(3) Uani 1 1 d . A .
C1 C 0.1525(4) 0.17175(14) 0.7620(4) 0.0367(17) Uani 1 1 d . . .
H1 H 0.1431 0.1700 0.7084 0.055 Uiso 1 1 calc R A .
C2 C 0.1162(4) 0.18989(15) 0.7905(5) 0.0418(19) Uani 1 1 d . A .
H2 H 0.0822 0.2005 0.7582 0.063 Uiso 1 1 calc R . .
C3 C 0.1317(4) 0.19217(15) 0.8705(5) 0.043(2) Uani 1 1 d . . .
C4 C 0.1836(5) 0.17755(17) 0.9161(5) 0.049(2) Uani 1 1 d . A .
H4 H 0.1963 0.1797 0.9698 0.073 Uiso 1 1 calc R . .
C5 C 0.2162(5) 0.16005(16) 0.8823(5) 0.046(2) Uani 1 1 d . . .
H5 H 0.2520 0.1498 0.9140 0.068 Uiso 1 1 calc R A .
C6 C 0.1312(4) 0.23255(16) 0.9327(5) 0.045(2) Uani 1 1 d . . .
C7 C 0.0191(4) 0.20683(18) 0.9056(5) 0.055(2) Uani 1 1 d . . .
C8 C 0.0948(4) 0.25005(16) 0.9709(5) 0.044(2) Uani 1 1 d . A .
C9 C 0.1315(4) 0.27040(18) 1.0040(6) 0.056(2) Uani 1 1 d . . .
H9 H 0.1821 0.2726 1.0026 0.084 Uiso 1 1 calc R A .
C10 C 0.0965(4) 0.28813(17) 1.0399(6) 0.054(2) Uani 1 1 d . A .
H10 H 0.1224 0.3026 1.0600 0.081 Uiso 1 1 calc R . .
C11 C 0.0234(4) 0.28434(16) 1.0458(5) 0.044(2) Uani 1 1 d . . .
C12 C -0.0164(4) 0.26381(15) 1.0103(5) 0.043(2) Uani 1 1 d . A .
C13 C 0.0192(4) 0.24661(16) 0.9731(5) 0.0432(19) Uani 1 1 d . . .
C14 C -0.0201(4) 0.22546(19) 0.9409(6) 0.060(3) Uani 1 1 d . A .
C15 C -0.0941(6) 0.2223(2) 0.9434(9) 0.097(5) Uani 1 1 d . . .
H15 H -0.1207 0.2083 0.9209 0.146 Uiso 1 1 calc R A .
C16 C -0.1284(6) 0.2395(3) 0.9781(8) 0.105(6) Uani 1 1 d . A .
H16 H -0.1795 0.2376 0.9781 0.158 Uiso 1 1 calc R . .
C17 C -0.0897(5) 0.2600(2) 1.0138(6) 0.065(3) Uani 1 1 d . . .
C18 C 0.3682(5) 0.2219(2) 0.5512(6) 0.068(3) Uani 1 1 d U . .
C19 C 0.4886(5) 0.19677(17) 0.5830(5) 0.049(2) Uani 1 1 d . . .
C20 C 0.3895(4) 0.18349(15) 0.7013(5) 0.0424(19) Uani 1 1 d . A .
H20 H 0.4254 0.1941 0.7315 0.064 Uiso 1 1 calc R . .
C21 C 0.3505(5) 0.16723(14) 0.7340(4) 0.0417(19) Uani 1 1 d . . .
H21 H 0.3592 0.1671 0.7879 0.063 Uiso 1 1 calc R A .
C22 C 0.2893(5) 0.15184(19) 0.6191(5) 0.059(3) Uani 1 1 d . . .
H22 H 0.2554 0.1404 0.5904 0.089 Uiso 1 1 calc R A .
C23 C 0.3251(5) 0.16823(19) 0.5797(5) 0.058(3) Uani 1 1 d . A .
H23 H 0.3150 0.1684 0.5257 0.087 Uiso 1 1 calc R . .
C24 C 0.3755(5) 0.18412(17) 0.6229(5) 0.048(2) Uani 1 1 d . . .
C25 C 0.2096(5) 0.09527(15) 0.8837(5) 0.045(2) Uani 1 1 d . . .
H25 H 0.2419 0.1067 0.9146 0.068 Uiso 1 1 calc R A .
C26 C 0.1770(5) 0.07729(16) 0.9185(5) 0.046(2) Uani 1 1 d . A .
H26 H 0.1887 0.0758 0.9723 0.070 Uiso 1 1 calc R . .
C27 C 0.1276(4) 0.06161(13) 0.8745(4) 0.0341(17) Uani 1 1 d . . .
C28 C 0.1154(5) 0.06313(15) 0.7966(5) 0.0418(19) Uani 1 1 d . A .
H28 H 0.0832 0.0518 0.7649 0.063 Uiso 1 1 calc R . .
C29 C 0.1504(4) 0.08127(13) 0.7655(4) 0.0376(18) Uani 1 1 d . . .
H29 H 0.1409 0.0825 0.7117 0.056 Uiso 1 1 calc R A .
C30 C 0.1353(5) 0.02400(16) 0.9495(5) 0.044(2) Uani 1 1 d . . .
C31 C 0.0955(4) 0.00565(13) 0.9869(4) 0.0340(17) Uani 1 1 d . A .
C32 C 0.0182(4) 0.00880(14) 0.9822(4) 0.0332(16) Uani 1 1 d . . .
C33 C -0.0231(5) 0.02859(14) 0.9436(4) 0.0390(18) Uani 1 1 d . A .
C34 C 0.0125(4) 0.04712(13) 0.9051(4) 0.0327(16) Uani 1 1 d . . .
C35 C -0.0976(5) 0.03027(15) 0.9382(6) 0.049(2) Uani 1 1 d . . .
H35 H -0.1253 0.0432 0.9097 0.073 Uiso 1 1 calc R A .
C36 C 0.1334(3) -0.01313(8) 1.0257(3) 0.048(2) Uani 1 1 d . . .
H36 H 0.1851 -0.0147 1.0285 0.072 Uiso 1 1 calc R A .
N7 N 0.2976(3) 0.09597(8) 0.7004(3) 0.0432(14) Uani 0.33 1 d PR A 1
OWA O 0.2976(3) 0.09597(8) 0.7004(3) 0.0432(14) Uani 0.67 1 d PR A 2
C37 C 0.3492(3) 0.08183(8) 0.7395(3) 0.052(7) Uiso 0.33 1 d PRU . .
H37 H 0.3642 0.0832 0.7933 0.062 Uiso 0.33 1 calc PR B 1
C38 C 0.3828(17) 0.0641(6) 0.6995(19) 0.067(8) Uiso 0.33 1 d PU A .
H38 H 0.4170 0.0529 0.7292 0.080 Uiso 0.33 1 calc PR . .
C39 C 0.3710(15) 0.0620(5) 0.6287(16) 0.053(7) Uiso 0.33 1 d PU . .
C40 C 0.3142(16) 0.0778(5) 0.5755(18) 0.058(7) Uiso 0.33 1 d PU A .
H40 H 0.3026 0.0762 0.5217 0.070 Uiso 0.33 1 calc PR . .
C41 C 0.285(2) 0.0929(7) 0.609(2) 0.085(10) Uiso 0.33 1 d PU . .
H41 H 0.2509 0.1040 0.5790 0.102 Uiso 0.33 1 calc PRD A 1
N8 N 0.4086(8) 0.0438(3) 0.5911(9) 0.046(5) Uiso 0.33 1 d PGU A .
C42 C 0.4818(8) 0.0478(3) 0.5870(10) 0.049(6) Uiso 0.33 1 d PGU . .
C43 C 0.5190(7) 0.0302(3) 0.5540(11) 0.068(8) Uiso 0.33 1 d PG A .
C44 C 0.4829(9) 0.0087(3) 0.5251(10) 0.049(6) Uiso 0.33 1 d PG . .
C45 C 0.4097(9) 0.0048(3) 0.5291(11) 0.073(9) Uiso 0.33 1 d PG A .
C46 C 0.3725(7) 0.0223(3) 0.5622(11) 0.054(7) Uiso 0.33 1 d PG . .
C47 C 0.376(2) -0.0191(8) 0.504(2) 0.093(12) Uiso 0.33 1 d P . .
H47 H 0.3354 -0.0246 0.5238 0.112 Uiso 0.33 1 calc PR A .
C48 C 0.5975(19) 0.0346(7) 0.550(2) 0.076(9) Uiso 0.33 1 d P . .
H48 H 0.6280 0.0466 0.5798 0.091 Uiso 0.33 1 calc PR A .
C49 C 0.4037(6) 0.12273(15) 0.8745(6) 0.052(2) Uani 1 1 d . . .
C50 C 0.4589(6) 0.1191(3) 0.8235(7) 0.084(4) Uani 1 1 d . A .
H50A H 0.4386 0.1075 0.7815 0.125 Uiso 1 1 calc R C 1
H50B H 0.4702 0.1349 0.8017 0.125 Uiso 1 1 calc R C 1
C51A C 0.5286(19) 0.1084(6) 0.8768(18) 0.082(9) Uani 0.50 1 d P A 1
H51A H 0.5747 0.1140 0.8629 0.123 Uiso 1 1 calc R A 1
H51B H 0.5275 0.0903 0.8778 0.123 Uiso 1 1 calc R A 1
C51B C 0.534(2) 0.1225(8) 0.882(3) 0.114(13) Uani 0.50 1 d P A 2
C52 C 0.5207(7) 0.1197(3) 0.9543(9) 0.100(4) Uani 1 1 d U . .
H52A H 0.5415 0.1086 0.9973 0.150 Uiso 1 1 calc R A 1
H52B H 0.5459 0.1358 0.9635 0.150 Uiso 1 1 calc R A 1
C53 C 0.4112(10) 0.1284(3) 1.0059(8) 0.121(7) Uani 1 1 d . . .
H53A H 0.3820 0.1435 0.9945 0.182 Uiso 1 1 calc R A .
H53B H 0.4514 0.1309 1.0513 0.182 Uiso 1 1 calc R . .
H53C H 0.3789 0.1150 1.0152 0.182 Uiso 1 1 calc R . .
C54 C 0.0900(5) 0.12370(13) 0.6228(5) 0.043(2) Uani 1 1 d . . .
C55 C 0.0280(7) 0.1283(2) 0.6623(11) 0.101(4) Uani 1 1 d DU A .
H55A H 0.0258 0.1153 0.6998 0.151 Uiso 1 1 calc R . .
H55B H 0.0342 0.1444 0.6885 0.151 Uiso 1 1 calc R . .
C56 C -0.0401(12) 0.1281(4) 0.5982(13) 0.164(8) Uani 1 1 d DU . .
H56A H -0.0804 0.1187 0.6130 0.246 Uiso 1 1 calc R A .
H56B H -0.0578 0.1450 0.5853 0.246 Uiso 1 1 calc R . .
C57 C -0.0203(8) 0.1167(4) 0.5338(9) 0.126(5) Uani 1 1 d DU A .
H57A H -0.0397 0.1262 0.4867 0.190 Uiso 1 1 calc R . .
H57B H -0.0395 0.0997 0.5265 0.190 Uiso 1 1 calc R . .
C58 C 0.1108(10) 0.1074(4) 0.5063(9) 0.149(8) Uani 1 1 d . . .
H58A H 0.1477 0.1198 0.5009 0.223 Uiso 1 1 calc R A .
H58B H 0.0795 0.1035 0.4562 0.223 Uiso 1 1 calc R . .
H58C H 0.1365 0.0926 0.5291 0.223 Uiso 1 1 calc RD . .
O1 O 0.1954(4) 0.23435(13) 0.9255(5) 0.075(2) Uani 1 1 d . A .
O2 O -0.0132(3) 0.18833(13) 0.8742(4) 0.0670(19) Uani 1 1 d . A .
O3 O 0.3057(4) 0.22351(16) 0.5537(5) 0.091(3) Uani 1 1 d U . .
O4 O 0.5176(3) 0.17891(11) 0.6148(3) 0.0508(15) Uani 1 1 d . . .
O5 O 0.3107(15) 0.0192(5) 0.5754(17) 0.104(10) Uani 0.33 1 d P A .
O6 O 0.5140(10) 0.0666(5) 0.6203(13) 0.075(7) Uani 0.33 1 d PU A .
O7 O -0.0167(3) 0.06480(10) 0.8721(3) 0.0421(13) Uani 1 1 d . A .
O8 O 0.2000(3) 0.02341(11) 0.9514(4) 0.0594(18) Uani 1 1 d . A .
O9 O 0.3375(3) 0.12581(8) 0.8525(3) 0.0348(12) Uani 1 1 d . A .
O10 O 0.1565(3) 0.12530(9) 0.6541(3) 0.0421(14) Uani 1 1 d . A .
O11 O 0.0000 0.2459(2) 0.7500 0.107(4) Uani 1 2 d S . .
O12 O -0.0508(5) 0.28547(16) 0.8280(4) 0.082(2) Uani 1 1 d . . .
O13 O -0.0891(5) 0.28478(18) 0.6781(5) 0.092(3) Uani 1 1 d . . .
O14 O 0.0000 0.32006(19) 0.7500 0.068(3) Uani 1 2 d S . .
O15 O -0.1412(4) 0.32023(16) 0.7542(5) 0.084(2) Uani 1 1 d . . .
O16 O -0.0901(5) 0.3547(2) 0.6794(5) 0.104(3) Uani 1 1 d . . .
O17 O -0.1909(5) 0.3205(2) 0.5921(5) 0.113(4) Uani 1 1 d . . .
O18 O 0.0000 0.3914(2) 0.7500 0.102(4) Uani 1 2 d S . .
O19 O -0.0513(6) 0.35418(18) 0.8275(5) 0.102(3) Uani 1 1 d . . .
O20 O -0.1116(6) 0.3199(2) 0.9163(5) 0.116(4) Uani 1 1 d . . .
O21 O 0.0351(5) 0.32017(18) 0.8999(4) 0.097(3) Uani 1 1 d . . .
O22 O 0.0000 0.1339(4) 0.2500 0.181(10) Uani 1 2 d S . .
O23 O 0.0886(7) 0.09237(16) 0.3255(4) 0.112(4) Uani 1 1 d . . .
O24 O 0.1895(7) 0.0570(2) 0.4116(5) 0.142(5) Uani 1 1 d . . .
O25 O 0.0888(4) 0.02347(14) 0.3254(4) 0.0681(19) Uani 1 1 d . . .
O26 O 0.1445(5) 0.05783(16) 0.2497(5) 0.097(3) Uani 1 1 d . . .
O27 O 0.0000 0.05790(16) 0.2500 0.065(3) Uani 1 2 d S . .
O28 O 0.0551(7) 0.09298(14) 0.1745(4) 0.111(4) Uani 1 1 d . . .
O29 O -0.0320(5) 0.05744(14) 0.0999(4) 0.081(2) Uani 1 1 d . . .
O30 O 0.1183(6) 0.05807(15) 0.0887(5) 0.103(3) Uani 1 1 d . . .
O31 O 0.0556(4) 0.02398(12) 0.1747(4) 0.0649(18) Uani 1 1 d . . .
O32 O 0.0000 -0.01606(16) 0.2500 0.058(2) Uani 1 2 d S . .

loop_
_atom_site_aniso_label
_atom_site_aniso_U_11
_atom_site_aniso_U_22
_atom_site_aniso_U_33
_atom_site_aniso_U_23
_atom_site_aniso_U_13
_atom_site_aniso_U_12
Zn1 0.0336(5) 0.0191(5) 0.0337(5) -0.0007(3) 0.0177(4) -0.0049(3)
Mo1 0.0922(8) 0.1169(10) 0.0523(6) 0.0072(5) 0.0286(6) 0.0161(6)
Mo2 0.1292(16) 0.0928(12) 0.0741(11) 0.000 0.0302(11) 0.000
Mo3 0.0791(8) 0.1276(11) 0.0525(6) 0.0071(6) 0.0046(5) 0.0056(6)
Mo4 0.248(3) 0.0459(8) 0.0614(10) 0.000 0.0505(13) 0.000
Mo5 0.1295(10) 0.0622(