####################################################################### 
# 
# This file contains crystal structure data downloaded from the 
# Cambridge Structural Database (CSD) hosted by the Cambridge 
# Crystallographic Data Centre (CCDC).
# 
# Full information about CCDC data access policies and citation 
# guidelines are available at http://www.ccdc.cam.ac.uk/access/V1 
# 
# Audit and citation data items may have been added by the CCDC. 
# Please retain this information to preserve the provenance of 
# this file and to allow appropriate attribution of the data. 
# 
#######################################################################

data_061128f
_audit_block_doi                 10.5517/ccqgkqf
_database_code_depnum_ccdc_archive 'CCDC 669405'
loop_
_citation_id
_citation_doi
_citation_year
1 10.1016/j.ica.2008.12.017 2009
_audit_update_record             
;
2007-11-30 deposited with the CCDC.	2024-07-14 downloaded from the CCDC.
;

_audit_creation_method           SHELXL-97
_chemical_name_systematic        
;
?
;
_chemical_name_common            ?
_chemical_melting_point          ?
_chemical_formula_moiety         ?
_chemical_formula_sum            'C30 H34 N8 S2 Sn2'
_chemical_formula_weight         808.15

loop_
_atom_type_symbol
_atom_type_description
_atom_type_scat_dispersion_real
_atom_type_scat_dispersion_imag
_atom_type_scat_source
C C 0.0033 0.0016 'International Tables Vol C Tables 4.2.6.8 and 6.1.1.4'
H H 0.0000 0.0000 'International Tables Vol C Tables 4.2.6.8 and 6.1.1.4'
N N 0.0061 0.0033 'International Tables Vol C Tables 4.2.6.8 and 6.1.1.4'
S S 0.1246 0.1234 'International Tables Vol C Tables 4.2.6.8 and 6.1.1.4'
Sn Sn -0.6537 1.4246 'International Tables Vol C Tables 4.2.6.8 and 6.1.1.4'

_symmetry_cell_setting           Triclinic
_symmetry_space_group_name_H-M   P-1

loop_
_symmetry_equiv_pos_as_xyz
'x, y, z'
'-x, -y, -z'

_cell_length_a                   10.8228(19)
_cell_length_b                   12.053(2)
_cell_length_c                   16.622(3)
_cell_angle_alpha                83.067(7)
_cell_angle_beta                 82.897(7)
_cell_angle_gamma                79.111(7)
_cell_volume                     2102.3(7)
_cell_formula_units_Z            2
_cell_measurement_temperature    273(2)
_cell_measurement_reflns_used    3963
_cell_measurement_theta_min      2.215
_cell_measurement_theta_max      21.107

_exptl_crystal_description       block
_exptl_crystal_colour            yellow
_exptl_crystal_size_max          0.45
_exptl_crystal_size_mid          0.40
_exptl_crystal_size_min          0.23
_exptl_crystal_density_meas      ?
_exptl_crystal_density_diffrn    1.277
_exptl_crystal_density_method    'not measured'
_exptl_crystal_F_000             804
_exptl_absorpt_coefficient_mu    1.314
_exptl_absorpt_correction_type   multi-scan
_exptl_absorpt_correction_T_min  0.5894
_exptl_absorpt_correction_T_max  0.7521
_exptl_absorpt_process_details   sadabs

_exptl_special_details           
;
?
;

_diffrn_ambient_temperature      273(2)
_diffrn_radiation_wavelength     0.71073
_diffrn_radiation_type           MoK\a
_diffrn_radiation_source         'fine-focus sealed tube'
_diffrn_radiation_monochromator  graphite
_diffrn_measurement_device_type  'CCD area detector'
_diffrn_measurement_method       'phi and omega scans'
_diffrn_detector_area_resol_mean ?
_diffrn_standards_number         ?
_diffrn_standards_interval_count ?
_diffrn_standards_interval_time  ?
_diffrn_standards_decay_%        ?
_diffrn_reflns_number            23504
_diffrn_reflns_av_R_equivalents  0.0736
_diffrn_reflns_av_sigmaI/netI    0.0843
_diffrn_reflns_limit_h_min       -12
_diffrn_reflns_limit_h_max       12
_diffrn_reflns_limit_k_min       -14
_diffrn_reflns_limit_k_max       13
_diffrn_reflns_limit_l_min       -19
_diffrn_reflns_limit_l_max       19
_diffrn_reflns_theta_min         1.24
_diffrn_reflns_theta_max         25.00
_reflns_number_total             7359
_reflns_number_gt                4072
_reflns_threshold_expression     >2sigma(I)

_computing_data_collection       'Bruker SMART'
_computing_cell_refinement       'Bruker SMART'
_computing_data_reduction        'Bruker SAINT'
_computing_structure_solution    'SHELXS-97 (Sheldrick, 1990)'
_computing_structure_refinement  'SHELXL-97 (Sheldrick, 1997)'
_computing_molecular_graphics    'Bruker SHELXTL'
_computing_publication_material  'Bruker SHELXTL'

_refine_special_details          
;
Refinement of F^2^ against ALL reflections. The weighted R-factor wR and
goodness of fit S are based on F^2^, conventional R-factors R are based
on F, with F set to zero for negative F^2^. The threshold expression of
F^2^ > 2sigma(F^2^) is used only for calculating R-factors(gt) etc. and is
not relevant to the choice of reflections for refinement. R-factors based
on F^2^ are statistically about twice as large as those based on F, and R-
factors based on ALL data will be even larger.
;

_refine_ls_structure_factor_coef Fsqd
_refine_ls_matrix_type           full
_refine_ls_weighting_scheme      calc
_refine_ls_weighting_details     
'calc w=1/[\s^2^(Fo^2^)+(0.1759P)^2^+1.9337P] where P=(Fo^2^+2Fc^2^)/3'
_atom_sites_solution_primary     direct
_atom_sites_solution_secondary   difmap
_atom_sites_solution_hydrogens   geom
_refine_ls_hydrogen_treatment    constr
_refine_ls_extinction_method     none
_refine_ls_extinction_coef       ?
_refine_ls_number_reflns         7359
_refine_ls_number_parameters     385
_refine_ls_number_restraints     0
_refine_ls_R_factor_all          0.1330
_refine_ls_R_factor_gt           0.0696
_refine_ls_wR_factor_ref         0.2796
_refine_ls_wR_factor_gt          0.2087
_refine_ls_goodness_of_fit_ref   1.000
_refine_ls_restrained_S_all      1.000
_refine_ls_shift/su_max          0.002
_refine_ls_shift/su_mean         0.000

loop_
_atom_site_label
_atom_site_type_symbol
_atom_site_fract_x
_atom_site_fract_y
_atom_site_fract_z
_atom_site_U_iso_or_equiv
_atom_site_adp_type
_atom_site_occupancy
_atom_site_symmetry_multiplicity
_atom_site_calc_flag
_atom_site_refinement_flags
_atom_site_disorder_assembly
_atom_site_disorder_group
Sn1 Sn 0.77280(7) 0.79758(7) 0.21695(5) 0.0569(3) Uani 1 1 d . . .
Sn2 Sn 0.27113(7) 0.78304(7) 0.27195(5) 0.0621(3) Uani 1 1 d . . .
S1 S 1.0576(3) 0.9365(3) 0.1858(2) 0.0666(9) Uani 1 1 d . . .
S2 S 0.6020(3) 0.7816(3) 0.3638(2) 0.0631(8) Uani 1 1 d . . .
N1 N 1.0974(8) 0.8458(8) 0.0379(6) 0.054(2) Uani 1 1 d . . .
N2 N 0.9323(8) 0.7637(9) 0.0408(6) 0.061(3) Uani 1 1 d . . .
N3 N 0.9221(8) 0.8203(8) 0.1093(6) 0.056(2) Uani 1 1 d . . .
N4 N 1.2241(8) 0.8593(8) 0.0160(6) 0.057(2) Uani 1 1 d . . .
N5 N 0.5853(7) 0.5557(8) 0.3866(5) 0.051(2) Uani 1 1 d . . .
N6 N 0.4054(9) 0.5517(9) 0.3418(7) 0.064(3) Uani 1 1 d . . .
N7 N 0.4260(8) 0.6612(9) 0.3353(6) 0.062(3) Uani 1 1 d . . .
N8 N 0.7093(8) 0.5127(8) 0.4055(6) 0.056(2) Uani 1 1 d . . .
C1 C 0.7146(14) 0.9742(13) 0.2273(9) 0.094(5) Uani 1 1 d . . .
H1A H 0.7617 0.9970 0.2658 0.141 Uiso 1 1 calc R . .
H1B H 0.6260 0.9895 0.2456 0.141 Uiso 1 1 calc R . .
H1C H 0.7299 1.0158 0.1751 0.141 Uiso 1 1 calc R . .
C2 C 0.9093(12) 0.6849(13) 0.2807(9) 0.080(4) Uani 1 1 d . . .
H2A H 0.9904 0.6806 0.2493 0.120 Uiso 1 1 calc R . .
H2B H 0.8864 0.6109 0.2896 0.120 Uiso 1 1 calc R . .
H2C H 0.9134 0.7119 0.3321 0.120 Uiso 1 1 calc R . .
C3 C 0.6621(12) 0.7177(14) 0.1524(10) 0.085(4) Uani 1 1 d . . .
H3A H 0.5744 0.7500 0.1633 0.127 Uiso 1 1 calc R . .
H3B H 0.6747 0.6378 0.1696 0.127 Uiso 1 1 calc R . .
H3C H 0.6874 0.7293 0.0950 0.127 Uiso 1 1 calc R . .
C4 C 1.0242(10) 0.8677(10) 0.1107(7) 0.057(3) Uani 1 1 d . . .
C5 C 1.0414(10) 0.7784(10) -0.0021(7) 0.056(3) Uani 1 1 d . . .
C6 C 1.0891(12) 0.7233(12) -0.0735(8) 0.074(4) Uani 1 1 d . . .
C7 C 1.1673(17) 0.7668(16) -0.1350(9) 0.106(6) Uani 1 1 d . . .
H7 H 1.1902 0.8368 -0.1324 0.127 Uiso 1 1 calc R . .
C8 C 1.2140(17) 0.7041(16) -0.2035(11) 0.109(6) Uani 1 1 d . . .
H8 H 1.2655 0.7351 -0.2460 0.131 Uiso 1 1 calc R . .
C9 C 1.1869(18) 0.608(2) -0.2078(13) 0.125(7) Uani 1 1 d . . .
H9 H 1.2209 0.5690 -0.2529 0.151 Uiso 1 1 calc R . .
C10 C 1.108(3) 0.5568(19) -0.1479(14) 0.172(12) Uani 1 1 d . . .
H10 H 1.0908 0.4848 -0.1509 0.206 Uiso 1 1 calc R . .
C11 C 1.056(2) 0.6213(15) -0.0819(12) 0.135(8) Uani 1 1 d . . .
H11 H 0.9979 0.5931 -0.0428 0.162 Uiso 1 1 calc R . .
C12 C 1.2466(10) 0.9555(12) 0.0250(7) 0.060(3) Uani 1 1 d . . .
H12 H 1.1807 1.0129 0.0407 0.073 Uiso 1 1 calc R . .
C13 C 1.3749(10) 0.9766(10) 0.0109(7) 0.054(3) Uani 1 1 d . . .
C14 C 1.4766(11) 0.8966(11) -0.0145(9) 0.072(4) Uani 1 1 d . . .
H14 H 1.4628 0.8263 -0.0254 0.087 Uiso 1 1 calc R . .
C15 C 1.6015(11) 0.9192(12) -0.0242(9) 0.075(4) Uani 1 1 d . . .
H15 H 1.6686 0.8629 -0.0399 0.089 Uiso 1 1 calc R . .
C16 C 0.3551(13) 0.9274(11) 0.2483(11) 0.090(5) Uani 1 1 d . . .
H16A H 0.3661 0.9535 0.2988 0.135 Uiso 1 1 calc R . .
H16B H 0.3019 0.9860 0.2177 0.135 Uiso 1 1 calc R . .
H16C H 0.4360 0.9092 0.2174 0.135 Uiso 1 1 calc R . .
C17 C 0.2812(14) 0.6718(13) 0.1833(9) 0.085(4) Uani 1 1 d . . .
H17A H 0.3206 0.7026 0.1327 0.128 Uiso 1 1 calc R . .
H17B H 0.1974 0.6622 0.1759 0.128 Uiso 1 1 calc R . .
H17C H 0.3301 0.5997 0.2004 0.128 Uiso 1 1 calc R . .
C18 C 0.1433(13) 0.7781(13) 0.3803(8) 0.081(4) Uani 1 1 d . . .
H18A H 0.0615 0.8198 0.3691 0.122 Uiso 1 1 calc R . .
H18B H 0.1742 0.8116 0.4217 0.122 Uiso 1 1 calc R . .
H18C H 0.1367 0.7007 0.3990 0.122 Uiso 1 1 calc R . .
C19 C 0.5366(9) 0.6661(10) 0.3618(6) 0.050(3) Uani 1 1 d . . .
C20 C 0.5054(10) 0.4864(12) 0.3715(7) 0.062(3) Uani 1 1 d . . .
C21 C 0.5201(11) 0.3645(10) 0.3861(7) 0.059(3) Uani 1 1 d . . .
C22 C 0.4483(14) 0.3129(15) 0.3474(10) 0.096(5) Uani 1 1 d . . .
H22 H 0.3886 0.3548 0.3146 0.115 Uiso 1 1 calc R . .
C23 C 0.467(2) 0.1871(17) 0.3585(15) 0.133(8) Uani 1 1 d . . .
H23 H 0.4225 0.1500 0.3292 0.159 Uiso 1 1 calc R . .
C24 C 0.5480(18) 0.1236(17) 0.4104(12) 0.106(5) Uani 1 1 d . . .
H24 H 0.5617 0.0447 0.4173 0.127 Uiso 1 1 calc R . .
C25 C 0.6084(18) 0.1891(14) 0.4525(12) 0.104(5) Uani 1 1 d . . .
H25 H 0.6581 0.1519 0.4928 0.124 Uiso 1 1 calc R . .
C26 C 0.5987(14) 0.2970(12) 0.4385(9) 0.080(4) Uani 1 1 d . . .
H26 H 0.6483 0.3323 0.4656 0.096 Uiso 1 1 calc R . .
C27 C 0.7454(10) 0.5601(11) 0.4594(7) 0.054(3) Uani 1 1 d . . .
H27 H 0.6894 0.6158 0.4860 0.065 Uiso 1 1 calc R . .
C28 C 0.8774(9) 0.5273(10) 0.4806(7) 0.053(3) Uani 1 1 d . . .
C29 C 0.9677(11) 0.4481(11) 0.4395(7) 0.062(3) Uani 1 1 d . . .
H29 H 0.9436 0.4133 0.3985 0.075 Uiso 1 1 calc R . .
C30 C 1.0873(10) 0.4213(10) 0.4577(7) 0.057(3) Uani 1 1 d . . .
H30 H 1.1458 0.3691 0.4294 0.068 Uiso 1 1 calc R . .

loop_
_atom_site_aniso_label
_atom_site_aniso_U_11
_atom_site_aniso_U_22
_atom_site_aniso_U_33
_atom_site_aniso_U_23
_atom_site_aniso_U_13
_atom_site_aniso_U_12
Sn1 0.0461(4) 0.0623(6) 0.0634(6) -0.0025(4) -0.0052(4) -0.0152(4)
Sn2 0.0498(5) 0.0694(6) 0.0688(6) -0.0068(4) -0.0070(4) -0.0145(4)
S1 0.0559(17) 0.076(2) 0.071(2) -0.0125(17) -0.0068(15) -0.0154(15)
S2 0.0527(16) 0.072(2) 0.065(2) -0.0051(16) -0.0053(14) -0.0140(14)
N1 0.045(5) 0.064(6) 0.054(6) 0.000(5) 0.001(4) -0.018(4)
N2 0.052(5) 0.080(7) 0.054(6) -0.008(5) -0.002(5) -0.019(5)
N3 0.048(5) 0.071(6) 0.053(6) -0.004(5) 0.002(4) -0.022(5)
N4 0.044(5) 0.067(6) 0.059(6) -0.001(5) 0.002(4) -0.019(5)
N5 0.040(5) 0.065(6) 0.045(5) 0.003(4) -0.005(4) -0.007(4)
N6 0.050(5) 0.073(7) 0.071(7) 0.006(5) -0.016(5) -0.017(5)
N7 0.040(5) 0.073(7) 0.074(7) 0.010(5) -0.015(5) -0.016(4)
N8 0.035(4) 0.074(6) 0.058(6) 0.002(5) -0.013(4) -0.002(4)
C1 0.095(10) 0.099(11) 0.081(10) 0.007(9) 0.021(9) -0.031(9)
C2 0.063(8) 0.102(11) 0.073(9) 0.010(8) 0.003(7) -0.027(7)
C3 0.062(8) 0.113(12) 0.089(10) -0.032(9) -0.006(7) -0.028(8)
C4 0.047(6) 0.066(7) 0.057(7) 0.001(6) -0.001(5) -0.014(5)
C5 0.052(6) 0.059(7) 0.058(7) -0.003(6) 0.001(5) -0.020(5)
C6 0.063(7) 0.081(9) 0.071(9) -0.002(7) 0.008(7) -0.005(7)
C7 0.133(14) 0.122(14) 0.073(10) -0.022(10) 0.026(10) -0.066(12)
C8 0.133(15) 0.098(13) 0.090(12) -0.028(11) 0.038(11) -0.027(11)
C9 0.117(14) 0.134(18) 0.117(16) -0.050(14) 0.039(12) -0.010(13)
C10 0.27(3) 0.130(18) 0.126(18) -0.075(15) 0.07(2) -0.09(2)
C11 0.186(19) 0.107(14) 0.126(16) -0.047(12) 0.071(14) -0.092(14)
C12 0.044(6) 0.075(8) 0.060(8) 0.014(6) -0.009(5) -0.015(6)
C13 0.047(6) 0.061(7) 0.055(7) 0.002(5) 0.004(5) -0.022(5)
C14 0.059(7) 0.062(8) 0.100(10) -0.008(7) -0.001(7) -0.023(6)
C15 0.042(6) 0.075(9) 0.099(10) 0.000(8) 0.013(6) -0.008(6)
C16 0.084(9) 0.068(9) 0.125(13) 0.024(9) -0.050(9) -0.026(7)
C17 0.094(10) 0.096(11) 0.061(9) -0.017(8) -0.017(8) 0.006(8)
C18 0.083(9) 0.100(11) 0.059(8) -0.004(8) -0.015(7) -0.008(8)
C19 0.040(5) 0.070(8) 0.042(6) 0.001(5) -0.003(5) -0.017(5)
C20 0.040(6) 0.090(9) 0.057(7) -0.013(7) 0.002(5) -0.016(6)
C21 0.056(7) 0.065(8) 0.056(7) 0.003(6) -0.006(6) -0.020(6)
C22 0.082(10) 0.115(13) 0.099(12) 0.006(10) -0.036(9) -0.032(9)
C23 0.165(19) 0.102(15) 0.16(2) -0.027(14) -0.016(17) -0.076(14)
C24 0.107(13) 0.107(14) 0.095(13) 0.016(11) -0.004(10) -0.019(11)
C25 0.129(14) 0.072(11) 0.112(14) 0.016(10) -0.032(11) -0.024(10)
C26 0.104(11) 0.071(10) 0.072(9) 0.006(7) -0.024(8) -0.031(8)
C27 0.047(6) 0.067(7) 0.045(7) 0.002(6) -0.009(5) -0.005(5)
C28 0.041(5) 0.072(8) 0.042(6) 0.006(6) -0.009(5) -0.009(5)
C29 0.056(7) 0.077(8) 0.054(7) -0.014(6) -0.017(6) -0.003(6)
C30 0.053(6) 0.056(7) 0.060(8) -0.014(6) -0.015(6) 0.009(5)

_geom_special_details            
;
All esds (except the esd in the dihedral angle between two l.s. planes)
are estimated using the full covariance matrix. The cell esds are taken
into account individually in the estimation of esds in distances, angles
and torsion angles; correlations between esds in cell parameters are only
used when they are defined by crystal symmetry. An approximate (isotropic)
treatment of cell esds is used for estimating esds involving l.s. planes.
;

loop_
_geom_bond_atom_site_label_1
_geom_bond_atom_site_label_2
_geom_bond_distance
_geom_bond_site_symmetry_2
_geom_bond_publ_flag
Sn1 C2 2.104(14) . ?
Sn1 C1 2.124(15) . ?
Sn1 C3 2.125(12) . ?
Sn1 N3 2.285(9) . ?
Sn1 S2 2.883(3) . ?
Sn2 C16 2.086(12) . ?
Sn2 C17 2.089(13) . ?
Sn2 C18 2.133(13) . ?
Sn2 N7 2.281(9) . ?
S1 C4 1.689(12) . ?
S2 C19 1.681(11) . ?
N1 C5 1.373(14) . ?
N1 C4 1.386(14) . ?
N1 N4 1.410(11) . ?
N2 C5 1.332(13) . ?
N2 N3 1.379(13) . ?
N3 C4 1.339(13) . ?
N4 C12 1.259(15) . ?
N5 C19 1.370(14) . ?
N5 C20 1.373(14) . ?
N5 N8 1.404(11) . ?
N6 C20 1.323(16) . ?
N6 N7 1.369(13) . ?
N7 C19 1.340(13) . ?
N8 C27 1.255(14) . ?
C1 H1A 0.9600 . ?
C1 H1B 0.9600 . ?
C1 H1C 0.9600 . ?
C2 H2A 0.9600 . ?
C2 H2B 0.9600 . ?
C2 H2C 0.9600 . ?
C3 H3A 0.9600 . ?
C3 H3B 0.9600 . ?
C3 H3C 0.9600 . ?
C5 C6 1.424(17) . ?
C6 C7 1.364(18) . ?
C6 C11 1.369(19) . ?
C7 C8 1.43(2) . ?
C7 H7 0.9300 . ?
C8 C9 1.26(2) . ?
C8 H8 0.9300 . ?
C9 C10 1.39(3) . ?
C9 H9 0.9300 . ?
C10 C11 1.42(2) . ?
C10 H10 0.9300 . ?
C11 H11 0.9300 . ?
C12 C13 1.445(14) . ?
C12 H12 0.9300 . ?
C13 C15 1.376(17) 2_875 ?
C13 C14 1.379(16) . ?
C14 C15 1.415(16) . ?
C14 H14 0.9300 . ?
C15 C13 1.376(17) 2_875 ?
C15 H15 0.9300 . ?
C16 H16A 0.9600 . ?
C16 H16B 0.9600 . ?
C16 H16C 0.9600 . ?
C17 H17A 0.9600 . ?
C17 H17B 0.9600 . ?
C17 H17C 0.9600 . ?
C18 H18A 0.9600 . ?
C18 H18B 0.9600 . ?
C18 H18C 0.9600 . ?
C20 C21 1.442(17) . ?
C21 C22 1.345(18) . ?
C21 C26 1.377(18) . ?
C22 C23 1.48(2) . ?
C22 H22 0.9300 . ?
C23 C24 1.37(3) . ?
C23 H23 0.9300 . ?
C24 C25 1.41(2) . ?
C24 H24 0.9300 . ?
C25 C26 1.279(19) . ?
C25 H25 0.9300 . ?
C26 H26 0.9300 . ?
C27 C28 1.484(15) . ?
C27 H27 0.9300 . ?
C28 C30 1.386(15) 2_766 ?
C28 C29 1.404(16) . ?
C29 C30 1.336(15) . ?
C29 H29 0.9300 . ?
C30 C28 1.386(15) 2_766 ?
C30 H30 0.9300 . ?

loop_
_geom_angle_atom_site_label_1
_geom_angle_atom_site_label_2
_geom_angle_atom_site_label_3
_geom_angle
_geom_angle_site_symmetry_1
_geom_angle_site_symmetry_3
_geom_angle_publ_flag
C2 Sn1 C1 127.0(6) . . ?
C2 Sn1 C3 114.6(6) . . ?
C1 Sn1 C3 117.5(6) . . ?
C2 Sn1 N3 90.1(4) . . ?
C1 Sn1 N3 94.8(4) . . ?
C3 Sn1 N3 94.9(5) . . ?
C2 Sn1 S2 87.0(4) . . ?
C1 Sn1 S2 82.1(4) . . ?
C3 Sn1 S2 92.0(4) . . ?
N3 Sn1 S2 173.1(2) . . ?
C16 Sn2 C17 121.3(7) . . ?
C16 Sn2 C18 115.0(7) . . ?
C17 Sn2 C18 122.3(6) . . ?
C16 Sn2 N7 99.9(4) . . ?
C17 Sn2 N7 90.7(5) . . ?
C18 Sn2 N7 91.2(5) . . ?
C19 S2 Sn1 106.7(4) . . ?
C5 N1 C4 108.8(8) . . ?
C5 N1 N4 121.5(9) . . ?
C4 N1 N4 127.4(9) . . ?
C5 N2 N3 106.8(9) . . ?
C4 N3 N2 110.9(9) . . ?
C4 N3 Sn1 125.3(8) . . ?
N2 N3 Sn1 122.3(6) . . ?
C12 N4 N1 114.7(9) . . ?
C19 N5 C20 109.4(9) . . ?
C19 N5 N8 126.7(8) . . ?
C20 N5 N8 122.2(9) . . ?
C20 N6 N7 106.9(9) . . ?
C19 N7 N6 111.2(10) . . ?
C19 N7 Sn2 137.3(8) . . ?
N6 N7 Sn2 111.2(6) . . ?
C27 N8 N5 115.0(9) . . ?
Sn1 C1 H1A 109.5 . . ?
Sn1 C1 H1B 109.5 . . ?
H1A C1 H1B 109.5 . . ?
Sn1 C1 H1C 109.5 . . ?
H1A C1 H1C 109.5 . . ?
H1B C1 H1C 109.5 . . ?
Sn1 C2 H2A 109.5 . . ?
Sn1 C2 H2B 109.5 . . ?
H2A C2 H2B 109.5 . . ?
Sn1 C2 H2C 109.5 . . ?
H2A C2 H2C 109.5 . . ?
H2B C2 H2C 109.5 . . ?
Sn1 C3 H3A 109.5 . . ?
Sn1 C3 H3B 109.5 . . ?
H3A C3 H3B 109.5 . . ?
Sn1 C3 H3C 109.5 . . ?
H3A C3 H3C 109.5 . . ?
H3B C3 H3C 109.5 . . ?
N3 C4 N1 105.0(10) . . ?
N3 C4 S1 127.4(9) . . ?
N1 C4 S1 127.6(8) . . ?
N2 C5 N1 108.3(10) . . ?
N2 C5 C6 122.6(10) . . ?
N1 C5 C6 129.0(10) . . ?
C7 C6 C11 117.4(14) . . ?
C7 C6 C5 123.2(13) . . ?
C11 C6 C5 119.3(12) . . ?
C6 C7 C8 119.5(15) . . ?
C6 C7 H7 120.2 . . ?
C8 C7 H7 120.2 . . ?
C9 C8 C7 121.6(17) . . ?
C9 C8 H8 119.2 . . ?
C7 C8 H8 119.2 . . ?
C8 C9 C10 122.7(18) . . ?
C8 C9 H9 118.6 . . ?
C10 C9 H9 118.6 . . ?
C9 C10 