####################################################################### 
# 
# This file contains crystal structure data downloaded from the 
# Cambridge Structural Database (CSD) hosted by the Cambridge 
# Crystallographic Data Centre (CCDC).
# 
# Full information about CCDC data access policies and citation 
# guidelines are available at http://www.ccdc.cam.ac.uk/access/V1 
# 
# Audit and citation data items may have been added by the CCDC. 
# Please retain this information to preserve the provenance of 
# this file and to allow appropriate attribution of the data. 
# 
#######################################################################

data_Compound1
_audit_block_doi                 10.5517/cc12fndk
_database_code_depnum_ccdc_archive 'CCDC 996228'
loop_
_citation_id
_citation_doi
_citation_year
1 10.1007/s12039-014-0704-y 2014
_audit_update_record             
;
2014-04-09 deposited with the CCDC.	2024-07-14 downloaded from the CCDC.
;

_audit_creation_method           SHELXL-97
_chemical_name_systematic        
;
 ?
;
_chemical_name_common            ?
_chemical_melting_point          ?
_chemical_formula_moiety         ?
_chemical_formula_sum            'C26 H20 F6 N8 O6 S2 Zn'
_chemical_formula_weight         783.99

loop_
_atom_type_symbol
_atom_type_description
_atom_type_scat_dispersion_real
_atom_type_scat_dispersion_imag
_atom_type_scat_source
C C 0.0033 0.0016 'International Tables Vol C Tables 4.2.6.8 and 6.1.1.4'
H H 0.0000 0.0000 'International Tables Vol C Tables 4.2.6.8 and 6.1.1.4'
N N 0.0061 0.0033 'International Tables Vol C Tables 4.2.6.8 and 6.1.1.4'
O O 0.0106 0.0060 'International Tables Vol C Tables 4.2.6.8 and 6.1.1.4'
F F 0.0171 0.0103 'International Tables Vol C Tables 4.2.6.8 and 6.1.1.4'
S S 0.1246 0.1234 'International Tables Vol C Tables 4.2.6.8 and 6.1.1.4'
Zn Zn 0.2839 1.4301 'International Tables Vol C Tables 4.2.6.8 and 6.1.1.4'

_symmetry_cell_setting           Orthorhombic
_symmetry_space_group_name_H-M   I222

loop_
_symmetry_equiv_pos_as_xyz
'x, y, z'
'x, -y, -z'
'-x, y, -z'
'-x, -y, z'
'x+1/2, y+1/2, z+1/2'
'x+1/2, -y+1/2, -z+1/2'
'-x+1/2, y+1/2, -z+1/2'
'-x+1/2, -y+1/2, z+1/2'

_cell_length_a                   9.0511(11)
_cell_length_b                   17.789(3)
_cell_length_c                   24.112(3)
_cell_angle_alpha                90.00
_cell_angle_beta                 90.00
_cell_angle_gamma                90.00
_cell_volume                     3882.3(9)
_cell_formula_units_Z            4
_cell_measurement_temperature    100(2)
_cell_measurement_reflns_used    ?
_cell_measurement_theta_min      ?
_cell_measurement_theta_max      ?

_exptl_crystal_description       ?
_exptl_crystal_colour            ?
_exptl_crystal_size_max          ?
_exptl_crystal_size_mid          ?
_exptl_crystal_size_min          ?
_exptl_crystal_density_meas      ?
_exptl_crystal_density_diffrn    1.341
_exptl_crystal_density_method    'not measured'
_exptl_crystal_F_000             1584
_exptl_absorpt_coefficient_mu    0.814
_exptl_absorpt_correction_type   ?
_exptl_absorpt_correction_T_min  ?
_exptl_absorpt_correction_T_max  ?
_exptl_absorpt_process_details   ?

_exptl_special_details           
;
 ?
;

_diffrn_ambient_temperature      100(2)
_diffrn_radiation_wavelength     0.71073
_diffrn_radiation_type           MoK\a
_diffrn_radiation_source         'fine-focus sealed tube'
_diffrn_radiation_monochromator  graphite
_diffrn_measurement_device_type  ?
_diffrn_measurement_method       ?
_diffrn_detector_area_resol_mean ?
_diffrn_standards_number         ?
_diffrn_standards_interval_count ?
_diffrn_standards_interval_time  ?
_diffrn_standards_decay_%        ?
_diffrn_reflns_number            34931
_diffrn_reflns_av_R_equivalents  0.0329
_diffrn_reflns_av_sigmaI/netI    0.0207
_diffrn_reflns_limit_h_min       -12
_diffrn_reflns_limit_h_max       12
_diffrn_reflns_limit_k_min       -23
_diffrn_reflns_limit_k_max       23
_diffrn_reflns_limit_l_min       -32
_diffrn_reflns_limit_l_max       30
_diffrn_reflns_theta_min         1.42
_diffrn_reflns_theta_max         28.29
_reflns_number_total             4828
_reflns_number_gt                4583
_reflns_threshold_expression     >2\s(I)

_computing_data_collection       ?
_computing_cell_refinement       ?
_computing_data_reduction        ?
_computing_structure_solution    ?
_computing_structure_refinement  'SHELXL-97 (Sheldrick, 2008)'
_computing_molecular_graphics    ?
_computing_publication_material  ?

_refine_special_details          
;
 Refinement of F^2^ against ALL reflections.  The weighted R-factor wR and
 goodness of fit S are based on F^2^, conventional R-factors R are based
 on F, with F set to zero for negative F^2^. The threshold expression of
 F^2^ > 2\s(F^2^) is used only for calculating R-factors(gt) etc. and is
 not relevant to the choice of reflections for refinement.  R-factors based
 on F^2^ are statistically about twice as large as those based on F, and R-
 factors based on ALL data will be even larger.
;

_refine_ls_structure_factor_coef Fsqd
_refine_ls_matrix_type           full
_refine_ls_weighting_scheme      calc
_refine_ls_weighting_details     
'calc w=1/[\s^2^(Fo^2^)+(0.1000P)^2^+0.0000P] where P=(Fo^2^+2Fc^2^)/3'
_atom_sites_solution_primary     direct
_atom_sites_solution_secondary   difmap
_atom_sites_solution_hydrogens   geom
_refine_ls_hydrogen_treatment    mixed
_refine_ls_extinction_method     none
_refine_ls_extinction_coef       ?
_refine_ls_abs_structure_details 'Flack H D (1983), Acta Cryst. A39, 876-881'
_refine_ls_abs_structure_Flack   0.49(4)
_refine_ls_number_reflns         4828
_refine_ls_number_parameters     222
_refine_ls_number_restraints     37
_refine_ls_R_factor_all          0.1077
_refine_ls_R_factor_gt           0.1047
_refine_ls_wR_factor_ref         0.3109
_refine_ls_wR_factor_gt          0.3083
_refine_ls_goodness_of_fit_ref   2.739
_refine_ls_restrained_S_all      2.835
_refine_ls_shift/su_max          0.000
_refine_ls_shift/su_mean         0.000

loop_
_atom_site_label
_atom_site_type_symbol
_atom_site_fract_x
_atom_site_fract_y
_atom_site_fract_z
_atom_site_U_iso_or_equiv
_atom_site_adp_type
_atom_site_occupancy
_atom_site_symmetry_multiplicity
_atom_site_calc_flag
_atom_site_refinement_flags
_atom_site_disorder_assembly
_atom_site_disorder_group
C1 C 0.7487(8) 0.4233(6) 0.1754(4) 0.044(2) Uani 1 1 d . . .
H34E H 0.8107 0.4442 0.2020 0.053 Uiso 1 1 calc R . .
C1A C 0.212(2) 0.2866(10) 0.2597(11) 0.114(5) Uani 1 1 d DU . .
C2 C 0.8109(9) 0.3805(7) 0.1324(4) 0.053(3) Uani 1 1 d . . .
H38E H 0.9128 0.3750 0.1297 0.064 Uiso 1 1 calc R . .
C3 C 0.7184(10) 0.3464(5) 0.0939(3) 0.0360(17) Uani 1 1 d . . .
C4 C 0.5736(10) 0.3597(5) 0.0975(3) 0.0384(18) Uani 1 1 d . . .
H37E H 0.5093 0.3401 0.0711 0.046 Uiso 1 1 calc R . .
C5 C 0.5200(9) 0.4024(4) 0.1406(3) 0.0313(16) Uani 1 1 d . . .
H100 H 0.4183 0.4090 0.1429 0.038 Uiso 1 1 calc R . .
C6 C 0.7883(11) 0.3031(6) 0.0486(4) 0.052(3) Uani 1 1 d . . .
H00 H 0.8905 0.2984 0.0468 0.063 Uiso 1 1 calc R . .
C7 C 0.2111(10) 0.6975(6) 0.4393(3) 0.045(2) Uani 1 1 d . . .
H01 H 0.1092 0.7001 0.4438 0.054 Uiso 1 1 calc R . .
C8 C 0.2699(10) 0.6485(5) 0.3954(4) 0.042(2) Uani 1 1 d . . .
C9 C 0.4313(10) 0.6428(6) 0.3892(4) 0.054(3) Uani 1 1 d . . .
H0B H 0.4950 0.6668 0.4137 0.065 Uiso 1 1 calc R . .
C10 C 0.4836(12) 0.6011(5) 0.3462(3) 0.042(2) Uani 1 1 d . . .
H35E H 0.5854 0.5966 0.3421 0.051 Uiso 1 1 calc R . .
C11 C 0.2494(8) 0.5706(5) 0.3172(4) 0.0393(19) Uani 1 1 d . . .
H33E H 0.1864 0.5436 0.2941 0.047 Uiso 1 1 calc R . .
C12 C 0.1879(10) 0.6140(6) 0.3582(4) 0.049(2) Uani 1 1 d . . .
H06 H 0.0858 0.6191 0.3598 0.058 Uiso 1 1 calc R . .
N1 N 0.6034(7) 0.4348(3) 0.1793(2) 0.0263(12) Uani 1 1 d . . .
N2 N 0.7091(9) 0.2733(5) 0.0133(3) 0.057(3) Uani 1 1 d . . .
N3 N 0.2929(11) 0.7368(7) 0.4716(4) 0.068(3) Uani 1 1 d . . .
N4 N 0.3944(7) 0.5651(3) 0.3086(2) 0.0250(12) Uani 1 1 d . . .
O1 O 0.3163(5) 0.4216(3) 0.2445(2) 0.0290(10) Uani 1 1 d . . .
O2 O 0.0510(7) 0.4106(5) 0.2484(5) 0.080(3) Uani 1 1 d . . .
O3 O 0.1578(17) 0.3771(10) 0.1676(6) 0.143(6) Uani 1 1 d U . .
F1 F 0.184(3) 0.2976(13) 0.3167(9) 0.239(8) Uani 1 1 d DU . .
F2 F 0.3183(18) 0.2603(7) 0.2744(6) 0.149(5) Uani 1 1 d DU . .
F3 F 0.0963(15) 0.2455(6) 0.2615(7) 0.157(5) Uani 1 1 d DU . .
S1 S 0.1782(2) 0.38601(15) 0.2342(2) 0.0948(16) Uani 1 1 d D . .
Zn1 Zn 0.5000 0.5000 0.24402(3) 0.0175(3) Uani 1 2 d S . .

loop_
_atom_site_aniso_label
_atom_site_aniso_U_11
_atom_site_aniso_U_22
_atom_site_aniso_U_33
_atom_site_aniso_U_23
_atom_site_aniso_U_13
_atom_site_aniso_U_12
C1 0.022(4) 0.066(6) 0.044(5) -0.032(4) -0.008(3) 0.012(4)
C1A 0.081(7) 0.076(7) 0.185(10) -0.008(8) -0.026(8) -0.034(6)
C2 0.020(4) 0.094(8) 0.045(5) -0.038(5) -0.013(3) 0.027(4)
C3 0.038(4) 0.036(4) 0.034(4) -0.013(3) 0.005(3) 0.007(3)
C4 0.043(5) 0.037(4) 0.035(4) -0.021(3) 0.000(3) -0.001(4)
C5 0.015(4) 0.036(3) 0.044(4) -0.021(3) 0.005(3) 0.000(3)
C6 0.046(5) 0.061(6) 0.051(5) -0.038(5) -0.008(4) 0.022(5)
C7 0.039(4) 0.061(6) 0.034(4) -0.022(4) 0.002(3) 0.015(4)
C8 0.036(4) 0.053(5) 0.037(4) -0.022(4) -0.002(3) 0.018(4)
C9 0.033(4) 0.083(7) 0.046(5) -0.048(5) 0.005(4) -0.006(5)
C10 0.030(5) 0.065(5) 0.032(3) -0.027(3) -0.004(4) -0.009(4)
C11 0.027(4) 0.050(5) 0.041(4) -0.022(4) 0.000(3) 0.009(3)
C12 0.025(4) 0.058(6) 0.063(6) -0.030(5) -0.002(4) 0.003(4)
N1 0.023(3) 0.027(3) 0.029(3) -0.005(2) 0.000(2) 0.009(2)
N2 0.035(4) 0.081(6) 0.055(6) -0.049(4) -0.003(3) 0.025(4)
N3 0.065(6) 0.099(8) 0.042(5) -0.052(5) 0.004(4) 0.006(6)
N4 0.022(3) 0.033(3) 0.020(3) -0.007(2) 0.000(2) -0.003(2)
O1 0.023(2) 0.039(2) 0.025(2) 0.0005(19) 0.0014(19) -0.0058(18)
O2 0.027(3) 0.071(5) 0.142(9) 0.003(6) -0.009(4) 0.001(3)
O3 0.130(9) 0.186(10) 0.114(8) -0.003(7) -0.031(7) -0.042(8)
F1 0.230(12) 0.265(12) 0.223(10) 0.022(9) 0.001(9) -0.004(10)
F2 0.161(8) 0.107(7) 0.178(9) 0.025(7) -0.015(8) 0.029(6)
F3 0.143(7) 0.090(6) 0.238(10) -0.016(7) 0.020(8) -0.059(6)
S1 0.0191(9) 0.0419(13) 0.223(5) -0.011(2) 0.0068(19) -0.0092(8)
Zn1 0.0154(4) 0.0223(5) 0.0149(4) 0.000 0.000 0.0025(4)

_geom_special_details            
;
 All s.u.'s (except the s.u. in the dihedral angle between two l.s. planes)
 are estimated using the full covariance matrix.  The cell s.u.'s are taken
 into account individually in the estimation of s.u.'s in distances, angles
 and torsion angles; correlations between s.u.'s in cell parameters are only
 used when they are defined by crystal symmetry.  An approximate (isotropic)
 treatment of cell s.u.'s is used for estimating s.u.'s involving l.s. planes.
;

loop_
_geom_bond_atom_site_label_1
_geom_bond_atom_site_label_2
_geom_bond_distance
_geom_bond_site_symmetry_2
_geom_bond_publ_flag
C1 N1 1.334(9) . ?
C1 C2 1.406(10) . ?
C1 H34E 0.9300 . ?
C1A F2 1.13(2) . ?
C1A F3 1.276(17) . ?
C1A F1 1.41(3) . ?
C1A S1 1.90(2) . ?
C2 C3 1.389(11) . ?
C2 H38E 0.9300 . ?
C3 C4 1.335(12) . ?
C3 C6 1.478(10) . ?
C4 C5 1.376(9) . ?
C4 H37E 0.9300 . ?
C5 N1 1.331(9) . ?
C5 H100 0.9300 . ?
C6 N2 1.234(12) . ?
C6 H00 0.9300 . ?
C7 N3 1.282(12) . ?
C7 C8 1.471(10) . ?
C7 H01 0.9300 . ?
C8 C12 1.316(12) . ?
C8 C9 1.472(12) . ?
C9 C10 1.359(10) . ?
C9 H0B 0.9300 . ?
C10 N4 1.373(9) . ?
C10 H35E 0.9300 . ?
C11 N4 1.333(10) . ?
C11 C12 1.372(11) . ?
C11 H33E 0.9300 . ?
C12 H06 0.9300 . ?
N1 Zn1 2.158(6) . ?
N2 N3 1.416(9) 5_544 ?
N3 N2 1.416(9) 5_455 ?
N4 Zn1 2.163(6) . ?
O1 S1 1.423(5) . ?
O1 Zn1 2.171(4) . ?
O2 S1 1.278(8) . ?
O3 S1 1.623(15) . ?
Zn1 N4 2.163(6) 4_665 ?
Zn1 N1 2.158(6) 4_665 ?
Zn1 O1 2.171(5) 4_665 ?

loop_
_geom_angle_atom_site_label_1
_geom_angle_atom_site_label_2
_geom_angle_atom_site_label_3
_geom_angle
_geom_angle_site_symmetry_1
_geom_angle_site_symmetry_3
_geom_angle_publ_flag
N1 C1 C2 122.0(7) . . ?
N1 C1 H34E 119.0 . . ?
C2 C1 H34E 119.0 . . ?
F2 C1A F3 116.8(18) . . ?
F2 C1A F1 84(2) . . ?
F3 C1A F1 84.3(18) . . ?
F2 C1A S1 128.6(12) . . ?
F3 C1A S1 114.5(15) . . ?
F1 C1A S1 99.1(15) . . ?
C3 C2 C1 119.2(7) . . ?
C3 C2 H38E 120.4 . . ?
C1 C2 H38E 120.4 . . ?
C2 C3 C4 118.1(7) . . ?
C2 C3 C6 117.6(8) . . ?
C4 C3 C6 124.1(8) . . ?
C3 C4 C5 119.6(8) . . ?
C3 C4 H37E 120.2 . . ?
C5 C4 H37E 120.2 . . ?
N1 C5 C4 124.6(8) . . ?
N1 C5 H100 117.7 . . ?
C4 C5 H100 117.7 . . ?
N2 C6 C3 119.1(9) . . ?
N2 C6 H00 120.5 . . ?
C3 C6 H00 120.5 . . ?
N3 C7 C8 123.5(9) . . ?
N3 C7 H01 118.3 . . ?
C8 C7 H01 118.3 . . ?
C12 C8 C9 117.2(7) . . ?
C12 C8 C7 124.2(8) . . ?
C9 C8 C7 118.3(8) . . ?
C10 C9 C8 117.5(8) . . ?
C10 C9 H0B 121.2 . . ?
C8 C9 H0B 121.2 . . ?
C9 C10 N4 123.6(10) . . ?
C9 C10 H35E 118.2 . . ?
N4 C10 H35E 118.2 . . ?
N4 C11 C12 123.5(8) . . ?
N4 C11 H33E 118.2 . . ?
C12 C11 H33E 118.2 . . ?
C8 C12 C11 121.7(8) . . ?
C8 C12 H06 119.2 . . ?
C11 C12 H06 119.2 . . ?
C1 N1 C5 116.3(6) . . ?
C1 N1 Zn1 124.1(5) . . ?
C5 N1 Zn1 119.6(5) . . ?
C6 N2 N3 112.1(8) . 5_544 ?
C7 N3 N2 111.8(9) . 5_455 ?
C11 N4 C10 116.3(7) . . ?
C11 N4 Zn1 125.9(5) . . ?
C10 N4 Zn1 117.7(6) . . ?
S1 O1 Zn1 163.3(4) . . ?
O2 S1 O1 126.3(5) . . ?
O2 S1 O3 101.3(8) . . ?
O1 S1 O3 108.5(6) . . ?
O2 S1 C1A 112.1(8) . . ?
O1 S1 C1A 102.5(6) . . ?
O3 S1 C1A 104.3(10) . . ?
N4 Zn1 N4 87.9(3) 4_665 . ?
N4 Zn1 N1 92.4(2) 4_665 . ?
N4 Zn1 N1 179.5(3) . . ?
N4 Zn1 N1 179.5(3) 4_665 4_665 ?
N4 Zn1 N1 92.4(2) . 4_665 ?
N1 Zn1 N1 87.4(3) . 4_665 ?
N4 Zn1 O1 90.1(2) 4_665 4_665 ?
N4 Zn1 O1 89.4(2) . 4_665 ?
N1 Zn1 O1 91.0(2) . 4_665 ?
N1 Zn1 O1 89.5(2) 4_665 4_665 ?
N4 Zn1 O1 89.4(2) 4_665 . ?
N4 Zn1 O1 90.1(2) . . ?
N1 Zn1 O1 89.5(2) . . ?
N1 Zn1 O1 91.0(2) 4_665 . ?
O1 Zn1 O1 179.3(3) 4_665 . ?

_diffrn_measured_fraction_theta_max 0.999
_diffrn_reflns_theta_full        28.29
_diffrn_measured_fraction_theta_full 0.999
_refine_diff_density_max         2.702
_refine_diff_density_min         -2.059
_refine_diff_density_rms         0.184
# SQUEEZE RESULTS (APPEND TO CIF)
# Note: Data are Listed for all Voids in the P1 Unit Cell
# i.e. Centre of Gravity, Solvent Accessible Volume,
# Recovered number of Electrons in the Void and
# Details about the Squeezed Material
loop_
_platon_squeeze_void_nr
_platon_squeeze_void_average_x
_platon_squeeze_void_average_y
_platon_squeeze_void_average_z
_platon_squeeze_void_volume
_platon_squeeze_void_count_electrons
_platon_squeeze_void_content
1 -0.021 0.000 0.000 255 60 ' '
2 -0.029 0.000 0.500 206 44 ' '
3 -0.011 0.500 0.500 255 60 ' '
4 -0.010 0.500 0.000 206 44 ' '
_platon_squeeze_details          
;
The SQUEEZE routine of the program PLATON was used

in order to eliminate the contribution of disordered solvents molecules,

thereby a final model based only on the ordered part of the crystal structure

was obtained.



The SQUEEZE routine suggested that

a total potential solvent area volume of 923.1Ang^3^

and a void electron population of 207 per cell.



Refinement after the SQUEEZE routine gave significantly improved R values.

[R values before SQUEEZE]

R1 = 0.1136, wR2 = 0.3390 for >2sigma(I) data

R1 = 0.1188, wR2 = 0.3453, GooF = S = 3.081 for all data

( 4828 data and 2 restraint / 222 parameters)

;
