####################################################################### 
# 
# This file contains crystal structure data downloaded from the 
# Cambridge Structural Database (CSD) hosted by the Cambridge 
# Crystallographic Data Centre (CCDC).
# 
# Full information about CCDC data access policies and citation 
# guidelines are available at http://www.ccdc.cam.ac.uk/access/V1 
# 
# Audit and citation data items may have been added by the CCDC. 
# Please retain this information to preserve the provenance of 
# this file and to allow appropriate attribution of the data. 
# 
#######################################################################

data_DUT-73_b
_audit_block_doi                 10.5517/cc13p2zv
_database_code_depnum_ccdc_archive 'CCDC 1033167'
loop_
_citation_id
_citation_doi
_citation_year
1 10.1021/cm5045732 2015
_audit_update_record             
;
2014-11-07 deposited with the CCDC.	2024-07-14 downloaded from the CCDC.
;

_audit_creation_method           SHELXL-2013
_chemical_name_systematic        
;
 ?
;
_chemical_name_common            DUT-73b
_chemical_melting_point          ?
_chemical_formula_moiety         ?
_chemical_formula_sum            'C81 H55 Cu4 N9 O18'
_chemical_formula_weight         1696.50

# start Validation Reply Form
_vrf_PLAT029_pccn                
;
PROBLEM: _diffrn_measured_fraction_theta_full Low .......      0.927 Note  
RESPONSE: The dataset was measured using phi scan on the 1-axis goniometer.
Obviously, the crystal orientation does not allowed to collect all
reflections using phi scan
;
_vrf_PLAT234_pccn                
;
PROBLEM: Large Hirshfeld Difference C79    --  C82_h   ..       0.37 Ang.  
RESPONSE: Large Hirshfeld difference could be explained by disorder of
phenyl ring that involves these atoms
;
_vrf_PLAT602_pccn                
;
PROBLEM: VERY LARGE Solvent Accessible VOID(S) in Structure        ! Info 
RESPONSE: The disordered lattice solvent molecules as well as a fraction of
monodentate coodrinated 1,4-bib molecules could not be localized 
;
# end Validation Reply Form

loop_
_atom_type_symbol
_atom_type_description
_atom_type_scat_dispersion_real
_atom_type_scat_dispersion_imag
_atom_type_scat_source
C C 0.0060 0.0030 'International Tables Vol C Tables 4.2.6.8 and 6.1.1.4'
H H 0.0000 0.0000 'International Tables Vol C Tables 4.2.6.8 and 6.1.1.4'
Cu Cu 0.1640 1.8640 'International Tables Vol C Tables 4.2.6.8 and 6.1.1.4'
N N 0.0100 0.0050 'International Tables Vol C Tables 4.2.6.8 and 6.1.1.4'
O O 0.0180 0.0100 'International Tables Vol C Tables 4.2.6.8 and 6.1.1.4'

_space_group_crystal_system      orthorhombic
_space_group_IT_number           56
_space_group_name_H-M_alt        'P c c n'
_space_group_name_Hall           '-P 2ab 2ac'

_shelx_space_group_comment       
;
The symmetry employed for this shelxl refinement is uniquely defined
by the following loop, which should always be used as a source of
symmetry information in preference to the above space-group names.
They are only intended as comments.
;

loop_
_space_group_symop_operation_xyz
'x, y, z'
'-x+1/2, -y+1/2, z'
'x+1/2, -y, -z+1/2'
'-x, y+1/2, -z+1/2'
'-x, -y, -z'
'x-1/2, y-1/2, -z'
'-x-1/2, y, z-1/2'
'x, -y-1/2, z-1/2'

_cell_length_a                   37.441(7)
_cell_length_b                   37.449(7)
_cell_length_c                   27.250(5)
_cell_angle_alpha                90
_cell_angle_beta                 90
_cell_angle_gamma                90
_cell_volume                     38198(12)
_cell_formula_units_Z            8
_cell_measurement_temperature    296(2)
_cell_measurement_reflns_used    385
_cell_measurement_theta_min      3.97
_cell_measurement_theta_max      23.54

_exptl_crystal_description       block
_exptl_crystal_colour            green
_exptl_crystal_density_meas      ?
_exptl_crystal_density_method    ?
_exptl_crystal_density_diffrn    0.590
_exptl_crystal_F_000             6912
_exptl_transmission_factor_min   ?
_exptl_transmission_factor_max   ?
_exptl_crystal_size_max          0.200
_exptl_crystal_size_mid          0.120
_exptl_crystal_size_min          0.120
_exptl_absorpt_coefficient_mu    0.850
_shelx_estimated_absorpt_T_min   0.848
_shelx_estimated_absorpt_T_max   0.905
_exptl_absorpt_correction_type   ?
_exptl_absorpt_correction_T_min  ?
_exptl_absorpt_correction_T_max  ?
_exptl_absorpt_process_details   ?

_exptl_special_details           
;
 ?
;

_diffrn_ambient_temperature      293(2)
_diffrn_radiation_probe          x-ray
_diffrn_radiation_type           synchrotron
_diffrn_radiation_wavelength     0.88561
_diffrn_source                   synchrotron
_diffrn_source_type              'BESSY BL MX-14.2'
_diffrn_radiation_monochromator  'Si 111'
_diffrn_measurement_device_type  'MX-225 CCD'
_diffrn_measurement_method       '\D\f scans'
_diffrn_reflns_number            38807
_diffrn_reflns_av_unetI/netI     0.0473
_diffrn_reflns_av_R_equivalents  0.0426
_diffrn_reflns_limit_h_min       0
_diffrn_reflns_limit_h_max       47
_diffrn_reflns_limit_k_min       0
_diffrn_reflns_limit_k_max       47
_diffrn_reflns_limit_l_min       0
_diffrn_reflns_limit_l_max       29
_diffrn_reflns_theta_min         3.172
_diffrn_reflns_theta_max         34.139
_diffrn_reflns_theta_full        32.098
_diffrn_measured_fraction_theta_max 0.916
_diffrn_measured_fraction_theta_full 0.927
_diffrn_reflns_Laue_measured_fraction_max 0.916
_diffrn_reflns_Laue_measured_fraction_full 0.927
_diffrn_reflns_point_group_measured_fraction_max 0.916
_diffrn_reflns_point_group_measured_fraction_full 0.927
_reflns_number_total             36949
_reflns_number_gt                26283
_reflns_threshold_expression     'I > 2\s(I)'
_reflns_Friedel_coverage         0.000
_reflns_Friedel_fraction_max     .
_reflns_Friedel_fraction_full    .

_reflns_special_details          
;
 Data were apparently pre-merged, so _diffrn_reflns_number
 etc. will have to be added later.
 
 Reflections were merged by SHELXL according to the crystal
 class for the calculation of statistics and refinement.
 
 _reflns_Friedel_fraction is defined as the number of unique
 Friedel pairs measured divided by the number that would be
 possible theoretically, ignoring centric projections and
 systematic absences.
;

_computing_data_collection       'marCCD 1994-2002'
_computing_cell_refinement       'Mosflm 1.0.5'
_computing_data_reduction        Scala
_computing_structure_solution    'SHELXS-97 (Sheldrick, 2008)'
_computing_structure_refinement  'SHELXL-97 (Sheldrick, 2008)'
_computing_molecular_graphics    'Diamond 3.1'
_computing_publication_material  enCIFer

_refine_special_details          
;
 Refined as a 2-component twin.
;
_refine_ls_structure_factor_coef Fsqd
_refine_ls_matrix_type           full
_refine_ls_weighting_scheme      calc
_refine_ls_weighting_details     
'w=1/[\s^2^(Fo^2^)+(0.1000P)^2^] where P=(Fo^2^+2Fc^2^)/3'
_atom_sites_solution_primary     ?
_atom_sites_solution_secondary   ?
_atom_sites_solution_hydrogens   geom
_refine_ls_hydrogen_treatment    constr
_refine_ls_extinction_method     none
_refine_ls_extinction_coef       .
_refine_ls_number_reflns         36949
_refine_ls_number_parameters     986
_refine_ls_number_restraints     167
_refine_ls_R_factor_all          0.1249
_refine_ls_R_factor_gt           0.0975
_refine_ls_wR_factor_ref         0.2779
_refine_ls_wR_factor_gt          0.2628
_refine_ls_goodness_of_fit_ref   1.744
_refine_ls_restrained_S_all      1.759
_refine_ls_shift/su_max          0.019
_refine_ls_shift/su_mean         0.001

loop_
_atom_site_label
_atom_site_type_symbol
_atom_site_fract_x
_atom_site_fract_y
_atom_site_fract_z
_atom_site_U_iso_or_equiv
_atom_site_adp_type
_atom_site_occupancy
_atom_site_site_symmetry_order
_atom_site_calc_flag
_atom_site_refinement_flags_posn
_atom_site_refinement_flags_adp
_atom_site_refinement_flags_occupancy
_atom_site_disorder_assembly
_atom_site_disorder_group
Cu1 Cu 0.00102(2) 0.00335(2) 0.14958(2) 0.05383(16) Uani 1 1 d . . . . .
Cu2 Cu -0.00911(2) -0.00205(2) 0.24613(2) 0.05314(16) Uani 1 1 d . . . . .
Cu3 Cu -0.28340(2) 0.23891(3) -0.03072(4) 0.0891(3) Uani 1 1 d . . . . .
Cu4 Cu 0.23856(2) 0.28367(2) 0.03999(3) 0.0757(3) Uani 1 1 d . . . . .
N1 N 0.09341(17) 0.30135(14) 0.3418(2) 0.0856(17) Uani 1 1 d . . . . .
N2 N 0.09182(16) 0.19675(14) 0.2360(2) 0.0866(18) Uani 1 1 d . . . . .
N3 N 0.19445(15) -0.09112(19) 0.2246(3) 0.102(2) Uani 1 1 d . . . . .
O18 O -0.33891(17) 0.2216(2) -0.0295(3) 0.148(3) Uani 1 1 d . . . . .
O1 O 0.02520(12) 0.04760(11) 0.17054(18) 0.0749(12) Uani 1 1 d . . . . .
O2 O 0.04497(12) -0.02399(12) 0.1647(2) 0.0802(13) Uani 1 1 d . . . . .
O3 O 0.26616(14) -0.20508(16) 0.0812(2) 0.1005(17) Uani 1 1 d . . . . .
O4 O 0.20991(17) -0.22449(18) 0.0817(2) 0.114(2) Uani 1 1 d . . . . .
O5 O 0.03889(11) -0.02430(13) 0.24578(19) 0.0782(12) Uani 1 1 d . . . . .
O6 O 0.01457(12) 0.04553(11) 0.25101(18) 0.0766(12) Uani 1 1 d . . . . .
O7 O -0.05450(11) 0.02189(13) 0.22816(18) 0.0739(12) Uani 1 1 d . . . . .
O8 O -0.26728(14) 0.20557(18) 0.0198(2) 0.1026(17) Uani 1 1 d . . . . .
O9 O -0.21113(16) 0.22354(18) 0.0211(2) 0.1059(18) Uani 1 1 d . . . . .
O10 O -0.04467(11) 0.02889(12) 0.14796(17) 0.0742(12) Uani 1 1 d . . . . .
O11 O 0.01461(18) 0.0120(2) 0.0740(2) 0.117(2) Uani 1 1 d D U . . .
O12 O 0.20498(15) 0.26665(14) 0.0891(2) 0.0976(16) Uani 1 1 d . . . . .
O13 O 0.22513(14) 0.21020(14) 0.0903(2) 0.0913(15) Uani 1 1 d . . . . .
O14 O 0.02528(12) 0.45707(10) 0.35680(17) 0.0734(11) Uani 1 1 d . . . . .
O15 O 0.02990(12) 0.45143(11) 0.27513(17) 0.0702(11) Uani 1 1 d . . . . .
O16 O 0.22472(14) 0.29159(14) 0.4905(2) 0.0901(14) Uani 1 1 d . . . . .
O17 O 0.20582(14) 0.23482(14) 0.4902(2) 0.0896(15) Uani 1 1 d . . . . .
C1 C 0.07391(19) 0.27466(17) 0.3147(3) 0.083(2) Uani 1 1 d . . . . .
C2 C 0.09156(18) 0.24868(16) 0.2884(3) 0.0749(17) Uani 1 1 d . . . . .
H2A H 0.1164 0.2487 0.2873 0.090 Uiso 1 1 calc R U . . .
C3 C 0.07297(18) 0.22308(17) 0.2639(3) 0.0794(18) Uani 1 1 d . . . . .
C4 C 0.07597(19) 0.16252(17) 0.2290(3) 0.0808(19) Uani 1 1 d . . . . .
C5 C 0.0731(2) 0.1463(2) 0.1843(3) 0.095(2) Uani 1 1 d . . . . .
H5A H 0.0822 0.1579 0.1568 0.114 Uiso 1 1 calc R U . . .
C6 C 0.0574(2) 0.11355(19) 0.1784(3) 0.090(2) Uani 1 1 d . . . . .
H6A H 0.0556 0.1035 0.1473 0.108 Uiso 1 1 calc R U . . .
C7 C 0.04399(17) 0.09513(16) 0.2189(3) 0.0739(17) Uani 1 1 d . . . . .
C8 C 0.02714(16) 0.06006(15) 0.2129(3) 0.0637(15) Uani 1 1 d . . . . .
C9 C 0.05558(17) -0.03076(16) 0.2071(3) 0.0683(16) Uani 1 1 d . . . . .
C10 C 0.09080(16) -0.04836(17) 0.2125(3) 0.0747(17) Uani 1 1 d . . . . .
C11 C 0.1101(2) -0.0577(2) 0.1720(3) 0.100(3) Uani 1 1 d . . . . .
H11A H 0.0997 -0.0547 0.1413 0.120 Uiso 1 1 calc R U . . .
C12 C 0.1445(2) -0.0716(3) 0.1743(4) 0.114(3) Uani 1 1 d . . . . .
H12A H 0.1575 -0.0764 0.1461 0.137 Uiso 1 1 calc R U . . .
C13 C 0.15858(18) -0.0779(2) 0.2212(3) 0.097(3) Uani 1 1 d . . . . .
C14 C 0.21886(17) -0.0730(2) 0.2534(3) 0.093(2) Uani 1 1 d . . . . .
C15 C 0.24538(16) -0.0913(2) 0.2797(3) 0.083(2) Uani 1 1 d . . . . .
H15A H 0.2461 -0.1161 0.2790 0.100 Uiso 1 1 calc R U . . .
C16 C 0.27000(18) -0.0728(2) 0.3063(3) 0.095(2) Uani 1 1 d . . . . .
C17 C 0.2685(2) -0.0356(2) 0.3091(4) 0.129(4) Uani 1 1 d . . . . .
H17A H 0.2852 -0.0231 0.3275 0.154 Uiso 1 1 calc R U . . .
C18 C 0.2425(3) -0.0180(3) 0.2848(5) 0.151(5) Uani 1 1 d . . . . .
H18A H 0.2407 0.0067 0.2875 0.181 Uiso 1 1 calc R U . . .
C19 C 0.2182(2) -0.0370(3) 0.2554(5) 0.136(4) Uani 1 1 d . . . . .
H19A H 0.2014 -0.0245 0.2370 0.164 Uiso 1 1 calc R U . . .
C20 C 0.2043(2) -0.1198(2) 0.1933(3) 0.104(3) Uani 1 1 d . . . . .
C21 C 0.2376(2) -0.1210(2) 0.1728(4) 0.106(3) Uani 1 1 d . . . . .
H21A H 0.2536 -0.1027 0.1801 0.127 Uiso 1 1 calc R U . . .
C22 C 0.2487(2) -0.1479(3) 0.1420(4) 0.109(3) Uani 1 1 d . . . . .
H22A H 0.2716 -0.1480 0.1289 0.131 Uiso 1 1 calc R U . . .
C23 C 0.2240(2) -0.1760(2) 0.1306(3) 0.093(2) Uani 1 1 d . . . . .
C24 C 0.2358(2) -0.2042(2) 0.0957(4) 0.103(3) Uani 1 1 d . . . . .
C25 C 0.1899(2) -0.1749(2) 0.1508(4) 0.107(3) Uani 1 1 d . . . . .
H25A H 0.1735 -0.1926 0.1431 0.128 Uiso 1 1 calc R U . . .
C26 C 0.1803(2) -0.1473(2) 0.1827(3) 0.102(3) Uani 1 1 d . . . . .
H26A H 0.1578 -0.1472 0.1969 0.123 Uiso 1 1 calc R U . . .
C27 C 0.13975(18) -0.0693(2) 0.2618(4) 0.104(3) Uani 1 1 d . . . . .
H27A H 0.1495 -0.0733 0.2927 0.125 Uiso 1 1 calc R U . . .
C28 C 0.10594(19) -0.0543(2) 0.2575(3) 0.093(2) Uani 1 1 d . . . . .
H28A H 0.0934 -0.0482 0.2857 0.112 Uiso 1 1 calc R U . . .
C29 C -0.06345(15) 0.03176(16) 0.1865(3) 0.0687(16) Uani 1 1 d . . . . .
C30 C -0.09906(16) 0.04929(17) 0.1808(3) 0.0733(17) Uani 1 1 d . . . . .
C31 C -0.11191(18) 0.0595(2) 0.1358(3) 0.089(2) Uani 1 1 d . . . . .
H31A H -0.0976 0.0569 0.1081 0.107 Uiso 1 1 calc R U . . .
C32 C -0.14581(19) 0.0734(2) 0.1313(3) 0.099(3) Uani 1 1 d . . . . .
H32A H -0.1543 0.0800 0.1006 0.119 Uiso 1 1 calc R U . . .
C33 C -0.16710(17) 0.0777(2) 0.1719(3) 0.086(2) Uani 1 1 d . . . . .
C34 C -0.15419(18) 0.0677(2) 0.2176(3) 0.094(2) Uani 1 1 d . . . . .
H34A H -0.1686 0.0704 0.2451 0.112 Uiso 1 1 calc R U . . .
C35 C -0.12091(18) 0.0540(2) 0.2225(3) 0.089(2) Uani 1 1 d . . . . .
H35A H -0.1124 0.0477 0.2534 0.107 Uiso 1 1 calc R U . . .
N9 N -0.20234(15) 0.0918(2) 0.1676(3) 0.101(2) Uani 1 1 d . . . . .
C37 C -0.21071(18) 0.1206(2) 0.1354(3) 0.094(2) Uani 1 1 d . . . . .
C38 C -0.24412(19) 0.1223(2) 0.1124(4) 0.118(3) Uani 1 1 d . . . . .
H38A H -0.2608 0.1046 0.1191 0.142 Uiso 1 1 calc R U . . .
C39 C -0.2528(2) 0.1475(2) 0.0822(4) 0.101(2) Uani 1 1 d . . . . .
H39A H -0.2757 0.1480 0.0689 0.122 Uiso 1 1 calc R U . . .
C40 C -0.2274(2) 0.1746(2) 0.0690(3) 0.097(2) Uani 1 1 d . . . . .
C41 C -0.2364(2) 0.2034(2) 0.0332(3) 0.091(2) Uani 1 1 d . . . . .
C42 C -0.19384(19) 0.1733(2) 0.0915(4) 0.102(3) Uani 1 1 d . . . . .
H42A H -0.1766 0.1903 0.0839 0.122 Uiso 1 1 calc R U . . .
C43 C -0.1861(2) 0.1462(2) 0.1254(3) 0.102(3) Uani 1 1 d . . . . .
H43A H -0.1641 0.1459 0.1412 0.122 Uiso 1 1 calc R U . . .
C46 C 0.0486(2) 0.11005(19) 0.2652(3) 0.089(2) Uani 1 1 d . . . . .
H46A H 0.0412 0.0976 0.2930 0.107 Uiso 1 1 calc R U . . .
C47 C 0.0644(2) 0.1438(2) 0.2702(3) 0.099(3) Uani 1 1 d . . . . .
H47A H 0.0672 0.1537 0.3012 0.119 Uiso 1 1 calc R U . . .
C48 C 0.11954(19) 0.20724(17) 0.2043(3) 0.0806(19) Uani 1 1 d . . . . .
C49 C 0.1476(2) 0.18339(19) 0.1939(3) 0.090(2) Uani 1 1 d . . . . .
H49A H 0.1479 0.1610 0.2087 0.108 Uiso 1 1 calc R U . . .
C50 C 0.1745(2) 0.19279(19) 0.1623(3) 0.090(2) Uani 1 1 d . . . . .
H50A H 0.1924 0.1765 0.1550 0.108 Uiso 1 1 calc R U . . .
C51 C 0.1751(2) 0.2253(2) 0.1418(3) 0.087(2) Uani 1 1 d . . . . .
C52 C 0.2045(2) 0.2343(2) 0.1045(3) 0.083(2) Uani 1 1 d . . . . .
C53 C 0.1482(2) 0.2494(2) 0.1520(3) 0.092(2) Uani 1 1 d . . . . .
H53A H 0.1491 0.2722 0.1383 0.110 Uiso 1 1 calc R U . . .
C54 C 0.1206(2) 0.24055(17) 0.1816(3) 0.090(2) Uani 1 1 d . . . . .
H54A H 0.1023 0.2568 0.1869 0.108 Uiso 1 1 calc R U . . .
C55 C 0.0364(2) 0.2232(2) 0.2655(4) 0.119(3) Uani 1 1 d . . . . .
H55A H 0.0234 0.2057 0.2491 0.142 Uiso 1 1 calc R U . . .
C56 C 0.0189(2) 0.2498(3) 0.2917(5) 0.142(5) Uani 1 1 d . . . . .
H56A H -0.0059 0.2502 0.2919 0.171 Uiso 1 1 calc R U . . .
C57 C 0.0366(2) 0.2745(2) 0.3165(4) 0.122(3) Uani 1 1 d . . . . .
H57A H 0.0244 0.2915 0.3349 0.146 Uiso 1 1 calc R U . . .
C58 C 0.08075(19) 0.33753(16) 0.3369(3) 0.0783(18) Uani 1 1 d . . . . .
C59 C 0.0736(2) 0.35106(18) 0.2897(3) 0.089(2) Uani 1 1 d . . . . .
H59A H 0.0792 0.3374 0.2622 0.107 Uiso 1 1 calc R U . . .
C60 C 0.0586(2) 0.38445(17) 0.2837(3) 0.084(2) Uani 1 1 d . . . . .
H60A H 0.0533 0.3929 0.2524 0.101 Uiso 1 1 calc R U . . .
C61 C 0.05126(16) 0.40527(16) 0.3244(2) 0.0679(16) Uani 1 1 d . . . . .
C62 C 0.03444(15) 0.44074(15) 0.3170(3) 0.0620(15) Uani 1 1 d . . . . .
C63 C 0.0592(2) 0.39259(18) 0.3717(3) 0.084(2) Uani 1 1 d . . . . .
H63A H 0.0544 0.4066 0.3991 0.100 Uiso 1 1 calc R U . . .
C64 C 0.0745(2) 0.35848(18) 0.3772(3) 0.087(2) Uani 1 1 d . . . . .
H64A H 0.0803 0.3501 0.4083 0.104 Uiso 1 1 calc R U . . .
C65 C 0.12078(19) 0.29301(16) 0.3746(3) 0.0785(18) Uani 1 1 d . . . . .
C66 C 0.1472(2) 0.31775(17) 0.3864(3) 0.091(2) Uani 1 1 d . . . . .
H66A H 0.1462 0.3405 0.3729 0.109 Uiso 1 1 calc R U . . .
C67 C 0.1741(2) 0.30925(18) 0.4170(3) 0.085(2) Uani 1 1 d . . . . .
H67A H 0.1919 0.3259 0.4234 0.102 Uiso 1 1 calc R U . . .
C68 C 0.17526(19) 0.27578(18) 0.4390(3) 0.0814(19) Uani 1 1 d . . . . .
C69 C 0.2042(2) 0.2668(2) 0.4757(3) 0.0806(19) Uani 1 1 d . . . . .
C70 C 0.1506(2) 0.2520(2) 0.4279(3) 0.087(2) Uani 1 1 d . . . . .
H70A H 0.1521 0.2292 0.4415 0.104 Uiso 1 1 calc R U . . .
C71 C 0.1222(2) 0.26006(17) 0.3962(3) 0.089(2) Uani 1 1 d . . . . .
H71A H 0.1046 0.2432 0.3900 0.107 Uiso 1 1 calc R U . . .
N5 N -0.02457(18) -0.01039(19) 0.3180(2) 0.114(2) Uani 1 1 d G U . . .
C44 C -0.0077(2) 0.0004(3) 0.3622(3) 0.157(4) Uani 1 1 d G U . . .
H44A H 0.0131 0.0140 0.3646 0.188 Uiso 1 1 calc R U . . .
N7 N -0.0280(4) -0.0130(4) 0.40206(19) 0.269(7) Uani 1 1 d DG U . . .
C72 C -0.0575(3) -0.0322(4) 0.3825(3) 0.261(8) Uani 1 1 d 