####################################################################### 
# 
# This file contains crystal structure data downloaded from the 
# Cambridge Structural Database (CSD) hosted by the Cambridge 
# Crystallographic Data Centre (CCDC).
# 
# Full information about CCDC data access policies and citation 
# guidelines are available at http://www.ccdc.cam.ac.uk/access/V1 
# 
# Audit and citation data items may have been added by the CCDC. 
# Please retain this information to preserve the provenance of 
# this file and to allow appropriate attribution of the data. 
# 
#######################################################################

data_tya_c
_audit_block_doi                 10.5517/cc13wh8r
_database_code_depnum_ccdc_archive 'CCDC 1039314'
loop_
_citation_id
_citation_doi
_citation_year
1 10.1016/j.inoche.2015.02.015 2015
_audit_update_record             
;
2014-12-15 deposited with the CCDC.	2024-07-14 downloaded from the CCDC.
;

_audit_creation_method           SHELXL-97
_chemical_name_systematic        
; 
 ? 
;
_chemical_name_common            ?
_chemical_melting_point          ?
_chemical_formula_moiety         'C10 H3 In2 N2 O14, C3 H7 N O, C2 H8 N, O'
_chemical_formula_sum            'C15 H18 In2 N4 O16'
_chemical_formula_weight         739.97

loop_
_atom_type_symbol
_atom_type_description
_atom_type_scat_dispersion_real
_atom_type_scat_dispersion_imag
_atom_type_scat_source
C C 0.0033 0.0016 'International Tables Vol C Tables 4.2.6.8 and 6.1.1.4'
H H 0.0000 0.0000 'International Tables Vol C Tables 4.2.6.8 and 6.1.1.4'
In In -0.7276 1.3100 'International Tables Vol C Tables 4.2.6.8 and 6.1.1.4'
N N 0.0061 0.0033 'International Tables Vol C Tables 4.2.6.8 and 6.1.1.4'
O O 0.0106 0.0060 'International Tables Vol C Tables 4.2.6.8 and 6.1.1.4'

_symmetry_cell_setting           orthorhombic
_symmetry_space_group_name_H-M   'P b c a'
_symmetry_space_group_name_Hall  '-P 2ac 2ab'

loop_
_symmetry_equiv_pos_as_xyz
'x, y, z'
'-x+1/2, -y, z+1/2'
'x+1/2, -y+1/2, -z'
'-x, y+1/2, -z+1/2'
'-x, -y, -z'
'x-1/2, y, -z-1/2'
'-x-1/2, y-1/2, z'
'x, -y-1/2, z-1/2'

_cell_length_a                   9.3366(14)
_cell_length_b                   21.917(3)
_cell_length_c                   24.057(4)
_cell_angle_alpha                90.00
_cell_angle_beta                 90.00
_cell_angle_gamma                90.00
_cell_volume                     4922.8(13)
_cell_formula_units_Z            8
_cell_measurement_temperature    293(2)
_cell_measurement_reflns_used    124
_cell_measurement_theta_min      2.56
_cell_measurement_theta_max      27.68

_exptl_crystal_description       needle
_exptl_crystal_colour            colorless
_exptl_crystal_size_max          0.21
_exptl_crystal_size_mid          0.17
_exptl_crystal_size_min          0.12
_exptl_crystal_density_meas      ?
_exptl_crystal_density_diffrn    1.997
_exptl_crystal_density_method    'not measured'
_exptl_crystal_F_000             2896
_exptl_absorpt_coefficient_mu    1.957
_exptl_absorpt_correction_type   multi-scan
_exptl_absorpt_correction_T_min  0.678
_exptl_absorpt_correction_T_max  0.791
_exptl_absorpt_process_details   '(SADABS; Bruker, 2000)'

_exptl_special_details           
; 
 ? 
;

_diffrn_ambient_temperature      293(2)
_diffrn_radiation_wavelength     0.71073
_diffrn_radiation_type           MoK\a
_diffrn_radiation_source         'fine-focus sealed tube'
_diffrn_radiation_monochromator  graphite
_diffrn_measurement_device_type  'CCD area detector'
_diffrn_measurement_method       'phi omega scans'
_diffrn_detector_area_resol_mean ?
_diffrn_reflns_number            4751
_diffrn_reflns_av_R_equivalents  0.0332
_diffrn_reflns_av_sigmaI/netI    0.0385
_diffrn_reflns_limit_h_min       -7
_diffrn_reflns_limit_h_max       7
_diffrn_reflns_limit_k_min       -21
_diffrn_reflns_limit_k_max       21
_diffrn_reflns_limit_l_min       -23
_diffrn_reflns_limit_l_max       0
_diffrn_reflns_theta_min         1.86
_diffrn_reflns_theta_max         27.52
_reflns_number_total             1909
_reflns_number_gt                1625
_reflns_threshold_expression     >2sigma(I)

_computing_data_collection       'Bruker Kappa Apex'
_computing_cell_refinement       'Bruker Kappa Apex'
_computing_data_reduction        'Bruker SAINT'
_computing_structure_solution    'SHELXS-97 (Sheldrick, 2008)'
_computing_structure_refinement  'SHELXL-97 (Sheldrick, 2008)'
_computing_molecular_graphics    'Bruker SHELXTL'
_computing_publication_material  'Bruker SHELXTL'

_refine_special_details          
; 
 Refinement of F^2^ against ALL reflections.  The weighted R-factor wR and 
 goodness of fit S are based on F^2^, conventional R-factors R are based 
 on F, with F set to zero for negative F^2^. The threshold expression of 
 F^2^ > 2sigma(F^2^) is used only for calculating R-factors(gt) etc. and is 
 not relevant to the choice of reflections for refinement.  R-factors based 
 on F^2^ are statistically about twice as large as those based on F, and R- 
 factors based on ALL data will be even larger. 
;

_refine_ls_structure_factor_coef Fsqd
_refine_ls_matrix_type           full
_refine_ls_weighting_scheme      calc
_refine_ls_weighting_details     
'calc w=1/[\s^2^(Fo^2^)+(0.0499P)^2^+18.2363P] where P=(Fo^2^+2Fc^2^)/3'
_atom_sites_solution_primary     direct
_atom_sites_solution_secondary   difmap
_atom_sites_solution_hydrogens   geom
_refine_ls_hydrogen_treatment    constr
_refine_ls_extinction_method     none
_refine_ls_extinction_coef       ?
_refine_ls_number_reflns         1909
_refine_ls_number_parameters     338
_refine_ls_number_restraints     102
_refine_ls_R_factor_all          0.0405
_refine_ls_R_factor_gt           0.0336
_refine_ls_wR_factor_ref         0.0933
_refine_ls_wR_factor_gt          0.0886
_refine_ls_goodness_of_fit_ref   1.075
_refine_ls_restrained_S_all      1.049
_refine_ls_shift/su_max          0.001
_refine_ls_shift/su_mean         0.000

loop_
_atom_site_label
_atom_site_type_symbol
_atom_site_fract_x
_atom_site_fract_y
_atom_site_fract_z
_atom_site_U_iso_or_equiv
_atom_site_adp_type
_atom_site_occupancy
_atom_site_symmetry_multiplicity
_atom_site_calc_flag
_atom_site_refinement_flags
_atom_site_disorder_assembly
_atom_site_disorder_group
In1 In 0.15952(7) 0.10985(3) 0.02502(2) 0.0194(3) Uani 1 1 d U . .
In2 In -0.17554(7) 0.26398(3) 0.17820(2) 0.0185(3) Uani 1 1 d U . .
O1 O -0.0343(6) 0.1125(2) 0.0767(2) 0.0271(16) Uani 1 1 d U . .
O2 O 0.1756(7) 0.1959(2) 0.0798(2) 0.0295(16) Uani 1 1 d U . .
O3 O 0.0374(6) 0.2546(2) 0.1335(2) 0.0279(15) Uani 1 1 d U . .
O4 O -0.1624(6) 0.1693(2) 0.1348(2) 0.0221(15) Uani 1 1 d U . .
O5 O 0.1452(6) 0.0112(2) 0.0443(2) 0.0223(15) Uani 1 1 d U . .
O6 O -0.0078(6) 0.0707(2) -0.0331(2) 0.0240(15) Uani 1 1 d U . .
O7 O -0.0653(7) 0.2096(2) 0.2426(2) 0.0248(16) Uani 1 1 d U . .
O8 O -0.0167(6) 0.3284(2) 0.2237(2) 0.0225(15) Uani 1 1 d U . .
O9 O 0.1844(6) 0.3240(2) 0.2743(2) 0.0210(16) Uani 1 1 d U . .
O10 O 0.1402(7) 0.2045(2) 0.2909(2) 0.0261(16) Uani 1 1 d U . .
O11 O -0.3364(6) 0.2653(2) 0.1078(2) 0.0296(16) Uani 1 1 d U . .
O12 O -0.1443(6) 0.3522(2) 0.1284(2) 0.0263(16) Uani 1 1 d U . .
O13 O -0.2055(6) 0.4008(2) 0.0505(2) 0.0212(15) Uani 1 1 d U . .
O14 O -0.3962(7) 0.3115(2) 0.0280(2) 0.0266(16) Uani 1 1 d U . .
O15 O 0.1836(14) 0.4764(4) 0.1724(4) 0.130(5) Uani 1 1 d U . .
O17 O 0.384(2) 0.2464(11) -0.0075(10) 0.337(12) Uani 1 1 d . . .
N1 N 0.3681(8) 0.0983(3) 0.0644(3) 0.0241(18) Uani 1 1 d U . .
N2 N 0.5827(10) 0.1152(3) 0.0999(3) 0.041(2) Uani 1 1 d U . .
N3 N 0.1829(9) 0.3707(3) 0.1172(3) 0.043(2) Uani 1 1 d U . .
H3A H 0.1795 0.4097 0.1290 0.052 Uiso 1 1 calc R . .
H3B H 0.1101 0.3505 0.1334 0.052 Uiso 1 1 calc R . .
N4 N 0.137(3) 0.5130(6) 0.2624(7) 0.258(11) Uani 1 1 d U . .
C1 C -0.0554(11) 0.1589(4) 0.1058(3) 0.017(2) Uani 1 1 d U . .
C2 C 0.0652(11) 0.2070(4) 0.1060(4) 0.023(2) Uani 1 1 d U . .
C3 C -0.0428(11) 0.0171(4) -0.0218(3) 0.015(2) Uani 1 1 d U . .
C4 C 0.0474(12) 0.2316(4) 0.2632(3) 0.016(2) Uani 1 1 d U . .
C5 C 0.0732(11) 0.3010(4) 0.2519(3) 0.016(2) Uani 1 1 d U . .
C6 C -0.3258(10) 0.3074(4) 0.0723(4) 0.022(2) Uani 1 1 d U . .
C7 C -0.2155(10) 0.3581(4) 0.0847(4) 0.018(2) Uani 1 1 d U . .
C8 C 0.4510(11) 0.0466(4) 0.0584(4) 0.034(2) Uani 1 1 d U . .
H8 H 0.4213 0.0101 0.0424 0.041 Uiso 1 1 calc R . .
C9 C 0.4541(12) 0.1379(4) 0.0896(4) 0.039(3) Uani 1 1 d U . .
H9 H 0.4269 0.1774 0.0990 0.046 Uiso 1 1 calc R . .
C10 C 0.5826(12) 0.0576(4) 0.0796(4) 0.040(3) Uani 1 1 d U . .
H10 H 0.6593 0.0305 0.0802 0.048 Uiso 1 1 calc R . .
C11 C 0.1629(11) 0.3694(5) 0.0552(4) 0.052(3) Uani 1 1 d U . .
H11A H 0.2414 0.3901 0.0376 0.079 Uiso 1 1 calc R . .
H11B H 0.0748 0.3894 0.0457 0.079 Uiso 1 1 calc R . .
H11C H 0.1597 0.3278 0.0427 0.079 Uiso 1 1 calc R . .
C13 C 0.3203(11) 0.3431(5) 0.1352(4) 0.054(3) Uani 1 1 d U . .
H13A H 0.3249 0.3016 0.1225 0.081 Uiso 1 1 calc R . .
H13B H 0.3263 0.3440 0.1750 0.081 Uiso 1 1 calc R . .
H13C H 0.3985 0.3658 0.1196 0.081 Uiso 1 1 calc R . .
C14 C 0.154(2) 0.4704(6) 0.2208(7) 0.154(9) Uani 1 1 d U . .
H14 H 0.1417 0.4302 0.2321 0.185 Uiso 1 1 calc R . .
C15 C 0.089(4) 0.4942(9) 0.3212(7) 0.289(15) Uani 1 1 d U . .
H15A H 0.0421 0.4553 0.3196 0.433 Uiso 1 1 calc R . .
H15B H 0.0246 0.5242 0.3357 0.433 Uiso 1 1 calc R . .
H15C H 0.1718 0.4913 0.3449 0.433 Uiso 1 1 calc R . .
C16 C 0.233(7) 0.5724(8) 0.2383(15) 0.59(4) Uani 1 1 d U . .
H16A H 0.3287 0.5594 0.2306 0.885 Uiso 1 1 calc R . .
H16B H 0.2341 0.6042 0.2657 0.885 Uiso 1 1 calc R . .
H16C H 0.1893 0.5875 0.2048 0.885 Uiso 1 1 calc R . .

loop_
_atom_site_aniso_label
_atom_site_aniso_U_11
_atom_site_aniso_U_22
_atom_site_aniso_U_33
_atom_site_aniso_U_23
_atom_site_aniso_U_13
_atom_site_aniso_U_12
In1 0.0190(6) 0.0198(4) 0.0194(5) -0.0017(3) 0.0025(3) -0.0027(3)
In2 0.0166(6) 0.0232(5) 0.0158(5) -0.0008(3) -0.0002(3) -0.0010(3)
O1 0.026(4) 0.024(3) 0.031(4) -0.012(3) 0.011(3) -0.007(3)
O2 0.024(5) 0.032(4) 0.032(4) -0.008(3) 0.013(3) -0.007(3)
O3 0.028(4) 0.025(3) 0.031(4) -0.004(3) 0.010(3) -0.007(3)
O4 0.020(5) 0.028(3) 0.018(3) -0.009(3) 0.006(3) -0.001(3)
O5 0.012(5) 0.025(3) 0.030(4) 0.004(3) -0.008(3) -0.002(3)
O6 0.024(4) 0.022(3) 0.026(3) 0.004(3) -0.007(3) -0.004(3)
O7 0.020(5) 0.031(3) 0.023(3) 0.005(3) -0.009(3) -0.006(3)
O8 0.019(4) 0.022(3) 0.027(3) 0.000(3) -0.011(3) 0.005(3)
O9 0.022(5) 0.020(3) 0.021(4) -0.003(3) -0.009(3) -0.006(3)
O10 0.024(5) 0.025(3) 0.029(4) 0.006(3) -0.012(3) -0.002(3)
O11 0.035(5) 0.028(4) 0.026(4) 0.005(3) -0.014(3) -0.006(3)
O12 0.019(5) 0.037(3) 0.023(3) 0.008(3) -0.004(3) -0.005(3)
O13 0.021(4) 0.026(3) 0.017(3) 0.002(3) -0.004(3) -0.003(3)
O14 0.031(5) 0.027(4) 0.022(4) -0.001(3) -0.015(3) -0.007(3)
O15 0.236(15) 0.077(7) 0.079(6) 0.007(6) -0.042(8) -0.029(7)
O17 0.30(3) 0.41(3) 0.30(2) -0.05(2) -0.02(2) -0.06(2)
N1 0.022(4) 0.024(4) 0.027(5) -0.002(4) 0.002(4) -0.006(3)
N2 0.031(6) 0.035(5) 0.056(6) -0.008(4) -0.011(5) 0.001(4)
N3 0.038(6) 0.044(5) 0.046(5) 0.011(4) 0.000(5) -0.017(4)
N4 0.58(4) 0.099(11) 0.097(9) -0.056(8) -0.113(14) 0.056(14)
C1 0.015(6) 0.027(5) 0.007(5) 0.003(4) -0.003(4) 0.001(4)
C2 0.023(7) 0.027(5) 0.019(6) -0.001(4) 0.003(5) -0.002(4)
C3 0.012(7) 0.026(6) 0.007(5) -0.003(4) -0.004(5) 0.005(4)
C4 0.014(7) 0.023(5) 0.010(5) -0.005(4) 0.007(4) 0.002(4)
C5 0.010(7) 0.028(5) 0.009(5) -0.003(4) 0.003(4) 0.002(4)
C6 0.027(7) 0.016(5) 0.023(6) -0.007(4) -0.003(5) 0.005(4)
C7 0.011(7) 0.027(5) 0.017(5) -0.004(4) -0.002(5) 0.003(4)
C8 0.015(6) 0.039(5) 0.047(7) -0.010(5) 0.002(5) 0.006(4)
C9 0.029(7) 0.032(5) 0.055(7) -0.014(5) -0.006(6) -0.010(5)
C10 0.024(7) 0.041(6) 0.055(7) 0.001(5) -0.004(6) 0.005(5)
C11 0.049(9) 0.063(7) 0.046(6) 0.016(6) -0.005(6) -0.016(6)
C13 0.036(8) 0.074(8) 0.052(7) 0.013(6) -0.004(6) -0.012(6)
C14 0.33(3) 0.044(8) 0.088(9) 0.007(8) -0.039(15) 0.008(11)
C15 0.60(5) 0.19(2) 0.082(10) -0.064(12) -0.098(17) 0.10(2)
C16 1.39(13) 0.049(13) 0.33(3) -0.06(2) 0.03(5) -0.16(3)

_geom_special_details            
; 
 All esds (except the esd in the dihedral angle between two l.s. planes) 
 are estimated using the full covariance matrix.  The cell esds are taken 
 into account individually in the estimation of esds in distances, angles 
 and torsion angles; correlations between esds in cell parameters are only 
 used when they are defined by crystal symmetry.  An approximate (isotropic) 
 treatment of cell esds is used for estimating esds involving l.s. planes. 
;

loop_
_geom_bond_atom_site_label_1
_geom_bond_atom_site_label_2
_geom_bond_distance
_geom_bond_site_symmetry_2
_geom_bond_publ_flag
In1 N1 2.180(8) . ?
In1 O1 2.196(6) . ?
In1 O14 2.207(5) 3 ?
In1 O5 2.215(5) . ?
In1 O13 2.223(5) 3 ?
In1 O6 2.266(5) . ?
In1 O2 2.305(5) . ?
In2 O9 2.178(5) 6_556 ?
In2 O7 2.210(5) . ?
In2 O11 2.263(5) . ?
In2 O3 2.269(6) . ?
In2 O10 2.283(6) 6_556 ?
In2 O12 2.293(5) . ?
In2 O8 2.322(5) . ?
In2 O4 2.325(5) . ?
O1 C1 1.251(9) . ?
O2 C2 1.234(10) . ?
O3 C2 1.262(10) . ?
O4 C1 1.240(9) . ?
O5 C3 1.261(10) 5 ?
O6 C3 1.249(9) . ?
O7 C4 1.258(10) . ?
O8 C5 1.236(9) . ?
O9 C5 1.273(10) . ?
O9 In2 2.178(5) 6_656 ?
O10 C4 1.245(10) . ?
O10 In2 2.283(6) 6_656 ?
O11 C6 1.262(10) . ?
O12 C7 1.251(9) . ?
O13 C7 1.250(9) . ?
O13 In1 2.223(5) 3_455 ?
O14 C6 1.254(10) . ?
O14 In1 2.207(5) 3_455 ?
O15 C14 1.204(17) . ?
N1 C9 1.330(11) . ?
N1 C8 1.379(10) . ?
N2 C9 1.323(11) . ?
N2 C10 1.352(11) . ?
N3 C13 1.483(11) . ?
N3 C11 1.503(12) . ?
N3 H3A 0.9000 . ?
N3 H3B 0.9000 . ?
N4 C14 1.379(19) . ?
N4 C15 1.54(3) . ?
N4 C16 1.68(4) . ?
C1 C2 1.542(13) . ?
C3 O5 1.261(10) 5 ?
C3 C3 1.518(16) 5 ?
C4 C5 1.564(12) . ?
C6 C7 1.544(12) . ?
C8 C10 1.352(12) . ?
C8 H8 0.9300 . ?
C9 H9 0.9300 . ?
C10 H10 0.9300 . ?
C11 H11A 0.9600 . ?
C11 H11B 0.9600 . ?
C11 H11C 0.9600 . ?
C13 H13A 0.9600 . ?
C13 H13B 0.9600 . ?
C13 H13C 0.9600 . ?
C14 H14 0.9300 . ?
C15 H15A 0.9600 . ?
C15 H15B 0.9600 . ?
C15 H15C 0.9600 . ?
C16 H16A 0.9600 . ?
C16 H16B 0.9600 . ?
C16 H16C 0.9600 . ?

loop_
_geom_angle_atom_site_label_1
_geom_angle_atom_site_label_2
_geom_angle_atom_site_label_3
_geom_angle
_geom_angle_site_symmetry_1
_geom_angle_site_symmetry_3
_geom_angle_publ_flag
N1 In1 O1 119.6(2) . . ?
N1 In1 O14 123.5(2) . 3 ?
O1 In1 O14 96.5(2) . 3 ?
N1 In1 O5 81.3(2) . . ?
O1 In1 O5 81.8(2) . . ?
O14 In1 O5 150.4(2) 3 . ?
N1 In1 O13 80.6(2) . 3 ?
O1 In1 O13 158.8(2) . 3 ?
O14 In1 O13 75.1(2) 3 3 ?
O5 In1 O13 95.9(2) . 3 ?
N1 In1 O6 147.1(2) . . ?
O1 In1 O6 77.9(2) . . ?
O14 In1 O6 77.1(2) 3 . ?
O5 In1 O6 73.6(2) . . ?
O13 In1 O6 81.2(2) 3 . ?
N1 In1 O2 77.8(2) . . ?
O1 In1 O2 73.1(2) . . ?
O14 In1 O2 72.9(2) 3 . ?
O5 In1 O2 133.1(2) . . ?
O13 In1 O2 121.0(2) 3 . ?
O6 In1 O2 135.0(2) . . ?
O9 In2 O7 103.7(2) 6_556 . ?
O9 In2 O11 89.2(2) 6_556 . ?
O7 In2 O11 147.2(2) . . ?
O9 In2 O3 146.0(2) 6_556 . ?
O7 In2 O3 82.8(2) . . ?
O11 In2 O3 103.2(2) . . ?
O9 In2 O10 73.8(2) 6_556 6_556 ?
O7 In2 O10 79.3(2) . 6_556 ?
O11 In2 O10 75.5(2) . 6_556 ?
O3 In2 O10 139.7(2) . 6_556 ?
O9 In2 O12 80.8(2) 6_556 . ?
O7 In2 O12 139.6(2) . . ?
O11 In2 O12 71.5(2) . . ?
O3 In2 O12 73.64(19) . . ?
O10 In2 O12 138.3(2) 6_556 . ?
O9 In2 O8 76.7(2) 6_556 . ?
O7 In2 O8 72.5(2) . . ?
O11 In2 O8 140.3(2) . . ?
O3 In2 O8 73.69(19) . . ?
O10 In2 O8 132.46(19) 6_556 . ?
O12 In2 O8 69.7(2) . . ?
O9 In2 O4 143.6(2) 6_556 . ?
O7 In2 O4 78.99(19) . . ?
O11 In2 O4 73.17(19) . . ?
O3 In2 O4 70.1(2) . . ?
O10 In2 O4 71.1(2) 6_556 . ?
O12 In2 O4 120.8(2) . . ?
O8 In2 O4 136.1(2) . . ?
C1 O1 In1 118.0(5) . . ?
C2 O2 In1 113.5(6) . . ?
C2 O3 In2 120.2(6) . . ?
C1 O4 In2 117.4(5) . . ?
C3 O5 In1 115.8(5) 5 . ?
C3 O6 In1 113.8(5) . . ?
C4 O7 In2 117.3(5) . . ?
C5 O8 In2 113.4(5) . . ?
C5 O9 In2 118.2(5) . 6_656 ?
C4 O10 In2 115.3(6) . 6_656 ?
C6 O11 In2 117.7(5) . . ?
C7 O12 In2 117.3(5) . . ?
C7 O13 In1 114.6(5) . 3_455 ?
C6 O14 In1 115.1(5) . 3_455 ?
C9 N1 C8 104.2(9) . . ?
C9 N1 In1 131.4(7) . . ?
C8 N1 In1 123.5(6) . . ?
C9 N2 C10 106.5(8) . . ?
C13 N3 C11 112.9(8) . . ?
C13 N3 H3A 109.0 . . ?
C11 N3 H3A 109.0 . . ?
C13 N3 H3B 109.0 . . ?
C11 N3 H3B 109.0 . . ?
H3A N3 H3B 107.8 . . ?
C14 N4 C15 121.4(16) . . ?
C14 N4 C16 102.1(18) . . ?
C15 N4 C16 132.7(18) . . ?
O4 C1 O1 126.4(8) . . ?
O4 C1 C2 117.4(8) . . ?
O1 C1 C2 116.2(9) . . ?
O2 C2 O3 127.0(8) . . ?
O2 C2 C1 118.3(8) . . ?
O3 C2 C1 114.6(9) . . ?
O6 C3 O5 124.6(8) . 5 ?
O6 C3 C3 118.4(11) . 5 ?
O5 C3 C3 117.0(11) 5 5 ?
O10 C4 O7 127.6(8) . . ?
O10 C4 C5 116.7(9) . . ?
O7 C4 C5 115.7(8) . . ?
O8 C5 O9 126.5(8) . . ?
O8 C5 C4 117.6(9) . . ?
O9 C5 C4 115.9(8) . . ?
O14 C6 O11 125.9(8) . . ?
O14 C6 C7 117.5(8) . . ?
O11 C6 C7 116.5(8) . . ?
O12 C7 O13 126.2(8) . . ?
O12 C7 C6 116.3(8) . . ?
O13 C7 C6 117.5(8) . . ?
C10 C8 N1 108.9(8) . . ?
C10 C8 H8 125.5 . . ?
N1 C8 H8 125.5 . . ?
N2 C9 N1 112.8(9) . . ?
N2 C9 H9 123.6 . . ?
N1 C9 H9 123.6 . . ?
C8 C10 N2 107.6(9) . . ?
C8 C10 H10 126.2 . . ?
N2 C10 H10 126.2 . . ?
N3 C11 H11A 109.5 . . ?
N3 C11 H11B 109.5 . . ?
H11A C11 H11B 109.5 . . ?
N3 C11 H11C 109.5 . . ?
H11A C11 H11C 109.5 . . ?
H11B C11 H11C 109.5 . . ?
N3 C13 H13A 109.5 . . ?
N3 C13 H13B 109.5 . . ?
H13A C13 H13B 109.5 . . ?
N3 C13 H13C 109.5 . . ?
H13A C13 H13C 109.5 . . ?
H13B C13 H13C 109.5 . . ?
O15 C14 N4 130.9(16) . . ?
O15 C14 H14 114.5 . . ?
N4 C14 H14 114.5 . . ?
N4 C15 H15A 109.5 . . ?
N4 C15 H15B 109.5 . . ?
H15A C15 H15B 109.5 . . ?
N4 C15 H15C 109.5 . . ?
H15A C15 H15C 109.5 . . ?
H15B C15 H15C 109.5 . . ?
N4 C16 H16A 109.5 . . ?
N4 C16 H16B 109.5 . . ?
H16A C16 H16B 109.5 . . ?
N4 C16 H16C 109.5 . . ?
H16A C16 H16C 109.5 . . ?
H16B C16 H16C 109.5 . . ?

loop_
_geom_torsion_atom_site_label_1
_geom_torsion_atom_site_label_2
_geom_torsion_atom_site_label_3
_geom_torsion_atom_site_label_4
_geom_torsion
_geom_torsion_site_symmetry_1
_geom_torsion_site_symmetry_2
_geom_torsion_site_symmetry_3
_geom_torsion_site_symmetry_4
_geom_torsion_publ_flag
N1 In1 O1 C1 71.8(6) . . . . ?
O14 In1 O1 C1 -62.9(5) 3 . . . ?
O5 In1 O1 C1 146.9(6) . . . . ?
O13 In1 O1 C1 -127.9(6) 3 . . . ?
O6 In1 O1 C1 -138.2(6) . . . . ?
O