####################################################################### 
# 
# This file contains crystal structure data downloaded from the 
# Cambridge Structural Database (CSD) hosted by the Cambridge 
# Crystallographic Data Centre (CCDC).
# 
# Full information about CCDC data access policies and citation 
# guidelines are available at http://www.ccdc.cam.ac.uk/access/V1 
# 
# Audit and citation data items may have been added by the CCDC. 
# Please retain this information to preserve the provenance of 
# this file and to allow appropriate attribution of the data. 
# 
#######################################################################

data_[Ag2L1](ClO4)2.4CH3CN
_audit_block_doi                 10.5517/cc67fc6
_database_code_depnum_ccdc_archive 'CCDC 185887'
loop_
_citation_id
_citation_doi
_citation_year
1 10.1039/b204694f 2002
_audit_update_record             
;
2002-05-15 deposited with the CCDC.	2024-07-14 downloaded from the CCDC.
;


_audit_creation_method           SHELXL-97
_chemical_name_systematic        
;
?
;
_chemical_name_common            ?
_chemical_melting_point          ?
_chemical_formula_moiety         ?
_chemical_formula_sum            'C34 H42 Ag2 Cl2 N14 O8'
_chemical_formula_weight         1061.46

loop_
_atom_type_symbol
_atom_type_description
_atom_type_scat_dispersion_real
_atom_type_scat_dispersion_imag
_atom_type_scat_source
C C 0.0033 0.0016 'International Tables Vol C Tables 4.2.6.8 and 6.1.1.4'
H H 0.0000 0.0000 'International Tables Vol C Tables 4.2.6.8 and 6.1.1.4'
N N 0.0061 0.0033 'International Tables Vol C Tables 4.2.6.8 and 6.1.1.4'
O O 0.0106 0.0060 'International Tables Vol C Tables 4.2.6.8 and 6.1.1.4'
Cl Cl 0.1484 0.1585 'International Tables Vol C Tables 4.2.6.8 and 6.1.1.4'
Ag Ag -0.8971 1.1015 'International Tables Vol C Tables 4.2.6.8 and 6.1.1.4'

_symmetry_cell_setting           Monoclinic
_symmetry_space_group_name_H-M   P21/c

loop_
_symmetry_equiv_pos_as_xyz
'x, y, z'
'-x, y+1/2, -z+1/2'
'-x, -y, -z'
'x, -y-1/2, z-1/2'

_cell_length_a                   11.423(4)
_cell_length_b                   18.521(7)
_cell_length_c                   11.133(4)
_cell_angle_alpha                90.00
_cell_angle_beta                 112.304(6)
_cell_angle_gamma                90.00
_cell_volume                     2179.2(14)
_cell_formula_units_Z            2
_cell_measurement_temperature    293(2)
_cell_measurement_reflns_used    897
_cell_measurement_theta_min      2.96
_cell_measurement_theta_max      26.37

_exptl_crystal_description       prism
_exptl_crystal_colour            colourless
_exptl_crystal_size_max          0.55
_exptl_crystal_size_mid          0.22
_exptl_crystal_size_min          0.17
_exptl_crystal_density_meas      ?
_exptl_crystal_density_diffrn    1.618
_exptl_crystal_density_method    'not measured'
_exptl_crystal_F_000             1072
_exptl_absorpt_coefficient_mu    1.086
_exptl_absorpt_correction_type   empirical
_exptl_absorpt_correction_T_min  0.5866
_exptl_absorpt_correction_T_max  0.8370
_exptl_absorpt_process_details   Sadabs

_exptl_special_details           
;
?
;

_diffrn_ambient_temperature      293(2)
_diffrn_radiation_wavelength     0.71073
_diffrn_radiation_type           MoK\a
_diffrn_radiation_source         'fine-focus sealed tube'
_diffrn_radiation_monochromator  graphite
_diffrn_measurement_device_type  Smart-CCD-1000-Bruker
_diffrn_measurement_method       'omega scans'
_diffrn_detector_area_resol_mean ?
_diffrn_standards_number         ?
_diffrn_standards_interval_count ?
_diffrn_standards_interval_time  ?
_diffrn_standards_decay_%        ?
_diffrn_reflns_number            11781
_diffrn_reflns_av_R_equivalents  0.0238
_diffrn_reflns_av_sigmaI/netI    0.0288
_diffrn_reflns_limit_h_min       -14
_diffrn_reflns_limit_h_max       13
_diffrn_reflns_limit_k_min       0
_diffrn_reflns_limit_k_max       23
_diffrn_reflns_limit_l_min       0
_diffrn_reflns_limit_l_max       13
_diffrn_reflns_theta_min         1.93
_diffrn_reflns_theta_max         26.47
_reflns_number_total             4420
_reflns_number_gt                3697
_reflns_threshold_expression     >2sigma(I)

_computing_data_collection       'Bruker Smart'
_computing_cell_refinement       'Bruker Smart'
_computing_data_reduction        'Bruker Shelxtl'
_computing_structure_solution    SIR-92
_computing_structure_refinement  'SHELXL-97 (Sheldrick, 1997)'
_computing_molecular_graphics    'ORTEP-3 for Windows (Farrugia, 1997)'
_computing_publication_material  'WinGX publication routines (Farrugia, 1999)'

_refine_special_details          
;
Refinement of F^2^ against ALL reflections.  The weighted R-factor wR and
goodness of fit S are based on F^2^, conventional R-factors R are based
on F, with F set to zero for negative F^2^. The threshold expression of
F^2^ > 2sigma(F^2^) is used only for calculating R-factors(gt) etc. and is
not relevant to the choice of reflections for refinement.  R-factors based
on F^2^ are statistically about twice as large as those based on F, and R-
factors based on ALL data will be even larger.
;

_refine_ls_structure_factor_coef Fsqd
_refine_ls_matrix_type           full
_refine_ls_weighting_scheme      calc
_refine_ls_weighting_details     
'calc w=1/[\s^2^(Fo^2^)+(0.0285P)^2^+2.2469P] where P=(Fo^2^+2Fc^2^)/3'
_atom_sites_solution_primary     direct
_atom_sites_solution_secondary   difmap
_atom_sites_solution_hydrogens   geom
_refine_ls_hydrogen_treatment    mixed
_refine_ls_extinction_method     none
_refine_ls_extinction_coef       ?
_refine_ls_number_reflns         4420
_refine_ls_number_parameters     273
_refine_ls_number_restraints     0
_refine_ls_R_factor_all          0.0394
_refine_ls_R_factor_gt           0.0276
_refine_ls_wR_factor_ref         0.0702
_refine_ls_wR_factor_gt          0.0646
_refine_ls_goodness_of_fit_ref   1.076
_refine_ls_restrained_S_all      1.076
_refine_ls_shift/su_max          0.001
_refine_ls_shift/su_mean         0.000

loop_
_atom_site_label
_atom_site_type_symbol
_atom_site_fract_x
_atom_site_fract_y
_atom_site_fract_z
_atom_site_U_iso_or_equiv
_atom_site_adp_type
_atom_site_occupancy
_atom_site_symmetry_multiplicity
_atom_site_calc_flag
_atom_site_refinement_flags
_atom_site_disorder_assembly
_atom_site_disorder_group
C1 C 0.1909(2) 0.01723(14) 0.4978(2) 0.0176(5) Uani 1 1 d . . .
C1S C 0.7582(3) 0.08324(15) 0.8146(3) 0.0273(6) Uani 1 1 d . . .
C2 C 0.0862(2) -0.00909(15) 0.3976(3) 0.0212(5) Uani 1 1 d . . .
H2 H 0.0422 -0.0488 0.4100 0.025 Uiso 1 1 calc R . .
C2S C 0.8748(3) 0.09717(18) 0.9236(3) 0.0360(7) Uani 1 1 d . . .
H2S1 H 0.8619 0.1355 0.9754 0.054 Uiso 1 1 calc R . .
H2S2 H 0.9392 0.1110 0.8924 0.054 Uiso 1 1 calc R . .
H2S3 H 0.9008 0.0543 0.9754 0.054 Uiso 1 1 calc R . .
C3 C 0.0478(3) 0.02479(15) 0.2780(3) 0.0246(6) Uani 1 1 d . . .
H3 H -0.0233 0.0085 0.2092 0.030 Uiso 1 1 calc R . .
C3S C 0.1130(4) 0.7732(2) 0.3656(5) 0.0605(11) Uani 1 1 d . . .
C4 C 0.1158(3) 0.08277(15) 0.2617(2) 0.0230(6) Uani 1 1 d . . .
H4 H 0.0920 0.1058 0.1817 0.028 Uiso 1 1 calc R . .
C4S C 0.0765(5) 0.7402(2) 0.2371(4) 0.0708(13) Uani 1 1 d . . .
H4S1 H 0.0646 0.6892 0.2435 0.106 Uiso 1 1 calc R . .
H4S2 H 0.1419 0.7482 0.2042 0.106 Uiso 1 1 calc R . .
H4S3 H -0.0010 0.7615 0.1791 0.106 Uiso 1 1 calc R . .
C5 C 0.2201(2) 0.10611(13) 0.3662(2) 0.0170(5) Uani 1 1 d . . .
C6 C 0.2952(2) 0.17181(14) 0.3601(2) 0.0190(5) Uani 1 1 d . . .
H6A H 0.2686 0.1878 0.2707 0.023 Uiso 1 1 calc R . .
H6B H 0.2785 0.2105 0.4101 0.023 Uiso 1 1 calc R . .
C7 C 0.4630(2) 0.11043(13) 0.3191(2) 0.0169(5) Uani 1 1 d . . .
H7A H 0.4404 0.1355 0.2369 0.020 Uiso 1 1 calc R . .
H7B H 0.4140 0.0662 0.3038 0.020 Uiso 1 1 calc R . .
C8 C 0.6026(2) 0.09208(14) 0.3709(2) 0.0177(5) Uani 1 1 d . . .
H8A H 0.6489 0.1323 0.3546 0.021 Uiso 1 1 calc R . .
H8B H 0.6323 0.0852 0.4641 0.021 Uiso 1 1 calc R . .
C9 C 0.7659(2) 0.01218(14) 0.3656(2) 0.0197(5) Uani 1 1 d . . .
H9A H 0.8111 0.0566 0.3661 0.024 Uiso 1 1 calc R . .
H9B H 0.7864 -0.0223 0.3109 0.024 Uiso 1 1 calc R . .
C10 C 0.5058(2) 0.22257(13) 0.4456(2) 0.0191(5) Uani 1 1 d . . .
H10A H 0.5945 0.2102 0.4895 0.023 Uiso 1 1 calc R . .
H10B H 0.4803 0.2501 0.5057 0.023 Uiso 1 1 calc R . .
C11 C 0.4911(3) 0.26815(15) 0.3320(3) 0.0260(6) Uani 1 1 d . . .
C12 C 0.5811(2) 0.03021(14) 0.1691(2) 0.0196(5) Uani 1 1 d . . .
H12A H 0.4900 0.0364 0.1363 0.024 Uiso 1 1 calc R . .
H12B H 0.5984 -0.0152 0.1358 0.024 Uiso 1 1 calc R . .
C13 C 0.6369(3) 0.08985(16) 0.1192(3) 0.0271(6) Uani 1 1 d . . .
N1 N 0.25669(19) 0.07345(11) 0.48187(19) 0.0174(4) Uani 1 1 d . . .
N1S N 0.6670(2) 0.07247(15) 0.7300(3) 0.0366(6) Uani 1 1 d . . .
N2 N 0.43175(19) 0.15633(11) 0.41148(19) 0.0156(4) Uani 1 1 d . . .
N2S N 0.1402(4) 0.7978(2) 0.4637(5) 0.0909(14) Uani 1 1 d . . .
N3 N 0.62922(19) 0.02642(11) 0.31078(19) 0.0164(4) Uani 1 1 d . . .
N4 N 0.4764(3) 0.20030(14) 0.7404(3) 0.0399(7) Uani 1 1 d . . .
N5 N 0.6815(3) 0.13625(16) 0.0857(3) 0.0391(6) Uani 1 1 d . . .
O1 O 0.1840(2) 0.17418(13) 1.0112(2) 0.0458(6) Uani 1 1 d . . .
O2 O 0.1413(2) 0.12064(14) 0.8100(2) 0.0454(6) Uani 1 1 d . . .
O3 O 0.2151(3) 0.05026(13) 0.9969(3) 0.0538(7) Uani 1 1 d . . .
O4 O 0.3504(2) 0.13207(13) 0.9583(2) 0.0426(6) Uani 1 1 d . . .
Cl1 Cl 0.22285(6) 0.11954(4) 0.94402(6) 0.02285(14) Uani 1 1 d . . .
Ag1 Ag 0.458683(19) 0.092083(11) 0.624928(18) 0.02143(7) Uani 1 1 d . . .

loop_
_atom_site_aniso_label
_atom_site_aniso_U_11
_atom_site_aniso_U_22
_atom_site_aniso_U_33
_atom_site_aniso_U_23
_atom_site_aniso_U_13
_atom_site_aniso_U_12
C1 0.0153(12) 0.0193(13) 0.0204(12) 0.0002(10) 0.0092(10) 0.0040(10)
C1S 0.0220(15) 0.0275(16) 0.0335(16) 0.0023(12) 0.0117(13) 0.0030(12)
C2 0.0160(12) 0.0249(14) 0.0256(13) -0.0023(10) 0.0113(10) -0.0017(11)
C2S 0.0249(16) 0.0413(19) 0.0366(17) -0.0002(14) 0.0059(13) -0.0083(14)
C3 0.0164(13) 0.0335(16) 0.0225(13) -0.0066(11) 0.0058(11) -0.0016(11)
C3S 0.049(2) 0.039(2) 0.077(3) 0.007(2) 0.006(2) -0.0052(19)
C4 0.0207(13) 0.0304(15) 0.0171(12) 0.0013(10) 0.0061(10) 0.0037(11)
C4S 0.075(3) 0.054(3) 0.073(3) 0.018(2) 0.017(2) 0.003(2)
C5 0.0144(12) 0.0204(13) 0.0177(12) 0.0004(9) 0.0080(10) 0.0041(10)
C6 0.0179(13) 0.0187(13) 0.0205(12) 0.0021(10) 0.0074(10) 0.0051(10)
C7 0.0177(13) 0.0171(13) 0.0154(11) -0.0014(9) 0.0058(10) 0.0008(10)
C8 0.0171(13) 0.0196(13) 0.0164(11) -0.0027(9) 0.0065(10) -0.0016(10)
C9 0.0174(13) 0.0226(14) 0.0210(13) 0.0018(10) 0.0094(10) 0.0006(10)
C10 0.0229(13) 0.0163(13) 0.0197(12) -0.0007(10) 0.0098(10) -0.0020(10)
C11 0.0311(15) 0.0172(14) 0.0346(15) 0.0014(12) 0.0181(13) -0.0015(12)
C12 0.0217(13) 0.0237(14) 0.0144(12) -0.0012(9) 0.0078(10) 0.0004(11)
C13 0.0295(15) 0.0348(16) 0.0169(12) 0.0023(11) 0.0087(11) 0.0066(13)
N1 0.0143(11) 0.0204(11) 0.0182(10) -0.0009(8) 0.0069(9) 0.0032(8)
N1S 0.0215(14) 0.0398(16) 0.0406(15) 0.0010(12) 0.0030(12) 0.0047(11)
N2 0.0179(11) 0.0136(10) 0.0160(10) -0.0009(8) 0.0072(8) 0.0002(8)
N2S 0.087(3) 0.077(3) 0.084(3) -0.018(2) 0.004(3) -0.014(3)
N3 0.0169(11) 0.0191(11) 0.0142(10) 0.0001(8) 0.0069(8) 0.0009(8)
N4 0.0527(18) 0.0303(15) 0.0427(16) -0.0123(12) 0.0247(14) -0.0003(13)
N5 0.0405(16) 0.0433(17) 0.0370(15) 0.0113(12) 0.0186(13) -0.0001(13)
O1 0.0539(15) 0.0490(15) 0.0358(12) -0.0095(10) 0.0184(11) 0.0122(12)
O2 0.0448(14) 0.0560(15) 0.0239(11) -0.0082(10) 0.0001(10) 0.0042(12)
O3 0.0627(17) 0.0328(14) 0.0656(17) 0.0158(12) 0.0239(14) -0.0107(12)
O4 0.0228(11) 0.0439(14) 0.0628(15) 0.0035(11) 0.0181(11) -0.0063(10)
Cl1 0.0215(3) 0.0221(3) 0.0239(3) -0.0002(2) 0.0075(3) -0.0025(3)
Ag1 0.01984(11) 0.02240(11) 0.01815(10) 0.00022(8) 0.00283(7) -0.00294(8)

_geom_special_details            
;
All esds (except the esd in the dihedral angle between two l.s. planes)
are estimated using the full covariance matrix.  The cell esds are taken
into account individually in the estimation of esds in distances, angles
and torsion angles; correlations between esds in cell parameters are only
used when they are defined by crystal symmetry.  An approximate (isotropic)
treatment of cell esds is used for estimating esds involving l.s. planes.
;

loop_
_geom_bond_atom_site_label_1
_geom_bond_atom_site_label_2
_geom_bond_distance
_geom_bond_site_symmetry_2
_geom_bond_publ_flag
C1 N1 1.335(3) . ?
C1 C2 1.379(4) . ?
C1 C9 1.511(3) 3_656 ?
C1S N1S 1.126(4) . ?
C1S C2S 1.444(4) . ?
C2 C3 1.383(4) . ?
C2 H2 0.9300 . ?
C2S H2S1 0.9600 . ?
C2S H2S2 0.9600 . ?
C2S H2S3 0.9600 . ?
C3 C4 1.377(4) . ?
C3 H3 0.9300 . ?
C3S N2S 1.113(6) . ?
C3S C4S 1.464(7) . ?
C4 C5 1.381(4) . ?
C4 H4 0.9300 . ?
C4S H4S1 0.9600 . ?
C4S H4S2 0.9600 . ?
C4S H4S3 0.9600 . ?
C5 N1 1.338(3) . ?
C5 C6 1.505(4) . ?
C6 N2 1.472(3) . ?
C6 H6A 0.9700 . ?
C6 H6B 0.9700 . ?
C7 N2 1.479(3) . ?
C7 C8 1.513(4) . ?
C7 H7A 0.9700 . ?
C7 H7B 0.9700 . ?
C8 N3 1.474(3) . ?
C8 H8A 0.9700 . ?
C8 H8B 0.9700 . ?
C9 N3 1.468(3) . ?
C9 C1 1.511(3) 3_656 ?
C9 H9A 0.9700 . ?
C9 H9B 0.9700 . ?
C10 N2 1.456(3) . ?
C10 C11 1.476(4) . ?
C10 H10A 0.9700 . ?
C10 H10B 0.9700 . ?
C11 N4 1.131(4) 4_565 ?
C12 N3 1.462(3) . ?
C12 C13 1.485(4) . ?
C12 H12A 0.9700 . ?
C12 H12B 0.9700 . ?
C13 N5 1.132(4) . ?
N1 Ag1 2.278(2) . ?
N1S Ag1 2.248(3) . ?
N2 Ag1 2.569(2) . ?
N3 Ag1 2.624(2) 3_656 ?
N4 C11 1.131(4) 4_566 ?
N4 Ag1 2.348(3) . ?
O1 Cl1 1.426(2) . ?
O2 Cl1 1.428(2) . ?
O3 Cl1 1.429(2) . ?
O4 Cl1 1.424(2) . ?
Ag1 N3 2.624(2) 3_656 ?

loop_
_geom_angle_atom_site_label_1
_geom_angle_atom_site_label_2
_geom_angle_atom_site_label_3
_geom_angle
_geom_angle_site_symmetry_1
_geom_angle_site_symmetry_3
_geom_angle_publ_flag
N1 C1 C2 121.8(2) . . ?
N1 C1 C9 115.5(2) . 3_656 ?
C2 C1 C9 122.6(2) . 3_656 ?
N1S C1S C2S 179.7(4) . . ?
C1 C2 C3 118.6(2) . . ?
C1 C2 H2 120.7 . . ?
C3 C2 H2 120.7 . . ?
C1S C2S H2S1 109.5 . . ?
C1S C2S H2S2 109.5 . . ?
H2S1 C2S H2S2 109.5 . . ?
C1S C2S H2S3 109.5 . . ?
H2S1 C2S H2S3 109.5 . . ?
H2S2 C2S H2S3 109.5 . . ?
C4 C3 C2 119.5(2) . . ?
C4 C3 H3 120.3 . . ?
C2 C3 H3 120.3 . . ?
N2S C3S C4S 179.3(5) . . ?
C3 C4 C5 118.8(2) . . ?
C3 C4 H4 120.6 . . ?
C5 C4 H4 120.6 . . ?
C3S C4S H4S1 109.5 . . ?
C3S C4S H4S2 109.5 . . ?
H4S1 C4S H4S2 109.5 . . ?
C3S C4S H4S3 109.5 . . ?
H4S1 C4S H4S3 109.5 . . ?
H4S2 C4S H4S3 109.5 . . ?
N1 C5 C4 121.6(2) . . ?
N1 C5 C6 115.7(2) . . ?
C4 C5 C6 122.6(2) . . ?
N2 C6 C5 111.3(2) . . ?
N2 C6 H6A 109.4 . . ?
C5 C6 H6A 109.4 . . ?
N2 C6 H6B 109.4 . . ?
C5 C6 H6B 109.4 . . ?
H6A C6 H6B 108.0 . . ?
N2 C7 C8 111.2(2) . . ?
N2 C7 H7A 109.4 . . ?
C8 C7 H7A 109.4 . . ?
N2 C7 H7B 109.4 . . ?
C8 C7 H7B 109.4 . . ?
H7A C7 H7B 108.0 . . ?
N3 C8 C7 112.4(2) . . ?
N3 C8 H8A 109.1 . . ?
C7 C8 H8A 109.1 . . ?
N3 C8 H8B 109.1 . . ?
C7 C8 H8B 109.1 . . ?
H8A C8 H8B 107.8 . . ?
N3 C9 C1 111.9(2) . 3_656 ?
N3 C9 H9A 109.2 . . ?
C1 C9 H9A 109.2 3_656 . ?
N3 C9 H9B 109.2 . . ?
C1 C9 H9B 109.2 3_656 . ?
H9A C9 H9B 107.9 . . ?
N2 C10 C11 113.1(2) . . ?
N2 C10 H10A 109.0 . . ?
C11 C10 H10A 109.0 . . ?
N2 C10 H10B 109.0 . . ?
C11 C10 H10B 109.0 . . ?
H10A C10 H10B 107.8 . . ?
N4 C11 C10 175.9(3) 4_565 . ?
N3 C12 C13 113.6(2) . . ?
N3 C12 H12A 108.9 . . ?
C13 C12 H12A 108.9 . . ?
N3 C12 H12B 108.9 . . ?
C13 C12 H12B 108.9 . . ?
H12A C12 H12B 107.7 . . ?
N5 C13 C12 177.5(3) . . ?
C1 N1 C5 119.6(2) . . ?
C1 N1 Ag1 119.81(16) . . ?
C5 N1 Ag1 117.91(16) . . ?
C1S N1S Ag1 150.1(3) . . ?
C10 N2 C6 111.3(2) . . ?
C10 N2 C7 113.31(19) . . ?
C6 N2 C7 110.01(19) . . ?
C10 N2 Ag1 107.17(14) . . ?
C6 N2 Ag1 100.77(14) . . ?
C7 N2 Ag1 113.64(14) . . ?
C12 N3 C9 111.25(19) . . ?
C12 N3 C8 113.08(19) . . ?
C9 N3 C8 109.25(19) . . ?
C12 N3 Ag1 107.95(15) . 3_656 ?
C9 N3 Ag1 101.13(14) . 3_656 ?
C8 N3 Ag1 113.57(14) . 3_656 ?
C11 N4 Ag1 152.5(3) 4_566 . ?
O4 Cl1 O1 109.56(15) . . ?
O4 Cl1 O3 108.76(15) . . ?
O1 Cl1 O3 109.92(16) . . ?
O4 Cl1 O2 110.38(15) . . ?
O1 Cl1 O2 109.20(14) . . ?
O3 Cl1 O2 109.00(16) . . ?
N1S Ag1 N1 158.56(9) . . ?
N1S Ag1 N4 89.95(10) . . ?
N1 Ag1 N4 111.46(9) . . ?
N1S Ag1 N2 106.70(9) . . ?
N1 Ag1 N2 71.92(7) . . ?
N4 Ag1 N2 93.79(9) . . ?
N1S Ag1 N3 99.34(9) . 3_656 ?
N1 Ag1 N3 70.91(7) . 3_656 ?
N4 Ag1 N3 121.81(8) . 3_656 ?
N2 Ag1 N3 135.71(6) . 3_656 ?

loop_
_geom_torsion_atom_site_label_1
_geom_torsion_atom_site_label_2
_geom_torsion_atom_site_label_3
_geom_torsion_atom_site_label_4
_geom_torsion
_geom_torsion_site_symmetry_1
_geom_torsion_site_symmetry_2
_geom_torsion_site_symmetry_3
_geom_torsion_site_symmetry_4
_geom_torsion_publ_flag
N1 C1 C2 C3 -1.0(4) . . . . ?
C9 C1 C2 C3 175.0(2) 3_656 . . . ?
C1 C2 C3 C4 1.0(4) . . . . ?
C2 C3 C4 C5 -0.8(4) . . . . ?
C3 C4 C5 N1 0.6(4) . . . . ?
C3 C4 C5 C6 -176.0(2) . . . . ?
N1 C5 C6 N2 51.9(3) . . . . ?
C4 C5 C6 N2 -131.4(2) . . . . ?
N2 C7 C8 N3 157.78(19) . . . . ?
N2 C10 C11 N4 -12(5) . . . 4_565 ?
N3 C12 C13 N5 -9(7) . . . . ?
C2 C1 N1 C5 0.8(4) . . . . ?
C9 C1 N1 C5 -175.5(2) 3_656 . . . ?
C2 C1 N1 Ag1 -160.46(19) . . . . ?
C9 C1 N1 Ag1 23.2(3) 3_656 . . . ?
C4 C5 N1 C1 -0.5(4) . . . . ?
C6 C5 N1 C1 176.3(2) . . . . ?
C4 C5 N1 Ag1 161.04(19) . . . . ?
C6 C5 N1 Ag1 -22.2(3) . . . . ?
C2S C1S N1S Ag1 21(92) . . . . ?
C11 C10 N2 C6 -66.2(3) . . . . ?
C11 C10 N2 C7 58.4(3) . . . . ?
C11 C10 N2 Ag1 -175.46(17) . . . . ?
C5 C6 N2 C10 -161.2(2) . . . . ?
C5 C6 N2 C7 72.4(2) . . . . ?
C5 C6 N2 Ag1 -47.9(2) . . . . ?
C8 C7 N2 C10 56.1(3) . . . . ?
C8 C7 N2 C6 -178.6(2) . . . . ?
C8 C7 N2 Ag1 -66.5(2) . . . . ?
C13 C12 N3 C9 -62.4(3) . . . . ?
C13 C12 N3 C8 61.0(3) . . . . ?
C13 C12 N3 Ag1 -172.48(18) . . . 3_656 ?
C1 C9 N3 C12 -160.2(2) 3_656 . . . ?
C1 C9 N3 C8 74.3(3) 3_656 . . . ?
C1 C9 N3 Ag1 -45.7(2) 3_656 . . 3_656 ?
C7 C8 N3 C12 55.5(3) . . . . ?
C7 C8 N3 C9 180.0(2) . . . . ?
C7 C8 N3 Ag1 -68.0(2) . . . 3_656 ?
C1S N1S Ag1 N1 -163.4(4) . . . . ?
C1S N1S Ag1 N4 19.7(5) . . . . ?
C1S N1S Ag1 N2 113.6(5) . . . . ?
C1S N1S Ag1 N3 -102.6(5) . . . 3_656 ?
C1 N1 Ag1 N1S 67.9(3) . . . . ?
C5 N1 Ag1 N1S -93.7(3) . . . . ?
C1 N1 Ag1 N4 -115.46(19) . . . . ?
C5 N1 Ag1 N4 83.01(19) . . . . ?
C1 N1 Ag1 N2 157.62(19) . . . . ?
C5 N1 Ag1 N2 -3.91(17) . . . . ?
C1 N1 Ag1 N3 2.15(17) . . . 3_656 ?
C5 N1 Ag1 N3 -159.39(1