####################################################################### 
# 
# This file contains crystal structure data downloaded from the 
# Cambridge Structural Database (CSD) hosted by the Cambridge 
# Crystallographic Data Centre (CCDC).
# 
# Full information about CCDC data access policies and citation 
# guidelines are available at http://www.ccdc.cam.ac.uk/access/V1 
# 
# Audit and citation data items may have been added by the CCDC. 
# Please retain this information to preserve the provenance of 
# this file and to allow appropriate attribution of the data. 
# 
#######################################################################

data_2
_audit_block_doi                 10.5517/cc131fp8
_database_code_depnum_ccdc_archive 'CCDC 1014279'
loop_
_citation_id
_citation_doi
_citation_year
1 10.1016/j.inoche.2014.12.001 2015
_audit_update_record             
;
2014-07-16 deposited with the CCDC.	2024-07-14 downloaded from the CCDC.
;



_audit_creation_method           SHELXL-97

_chemical_name_systematic        
; 

 ? 

;

_chemical_name_common            ?

_chemical_melting_point          ?

_chemical_formula_moiety         ?

_chemical_formula_sum            
'C70 H38 N2 O56 Zn7'

_chemical_formula_weight         2260.61



loop_

_atom_type_symbol

_atom_type_description

_atom_type_scat_dispersion_real

_atom_type_scat_dispersion_imag

_atom_type_scat_source










C C 0.0033 0.0016 'International Tables Vol C Tables 4.2.6.8 and 6.1.1.4'
H H 0.0000 0.0000 'International Tables Vol C Tables 4.2.6.8 and 6.1.1.4'
N N 0.0061 0.0033 'International Tables Vol C Tables 4.2.6.8 and 6.1.1.4'
O O 0.0106 0.0060 'International Tables Vol C Tables 4.2.6.8 and 6.1.1.4'
Zn Zn 0.2839 1.4301 'International Tables Vol C Tables 4.2.6.8 and 6.1.1.4'





_symmetry_cell_setting           Monoclinic

_symmetry_space_group_name_H-M   C2/c



loop_

_symmetry_equiv_pos_as_xyz








'x, y, z'
'-x, y, -z+1/2'
'x+1/2, y+1/2, z'
'-x+1/2, y+1/2, -z+1/2'
'-x, -y, -z'
'x, -y, z-1/2'
'-x+1/2, -y+1/2, -z'
'x+1/2, -y+1/2, z-1/2'



_cell_length_a                   38.027(4)

_cell_length_b                   19.030(2)

_cell_length_c                   19.7515(19)

_cell_angle_alpha                90.00

_cell_angle_beta                 104.123(2)

_cell_angle_gamma                90.00

_cell_volume                     13862(2)

_cell_formula_units_Z            4

_cell_measurement_temperature    296(2)

_cell_measurement_reflns_used    ?

_cell_measurement_theta_min      ?

_cell_measurement_theta_max      ?



_exptl_crystal_description       ?

_exptl_crystal_colour            ?

_exptl_crystal_size_max          0.37

_exptl_crystal_size_mid          0.32

_exptl_crystal_size_min          0.27

_exptl_crystal_density_meas      ?

_exptl_crystal_density_diffrn    1.083

_exptl_crystal_density_method    'not measured'

_exptl_crystal_F_000             4520

_exptl_absorpt_coefficient_mu    1.261

_exptl_absorpt_correction_type   ?

_exptl_absorpt_correction_T_min  0.6540

_exptl_absorpt_correction_T_max  0.7286

_exptl_absorpt_process_details   ?



_exptl_special_details           
; 

 ? 

;



_diffrn_ambient_temperature      296(2)

_diffrn_radiation_wavelength     0.71073

_diffrn_radiation_type           MoK\a

_diffrn_radiation_source         'fine-focus sealed tube'

_diffrn_radiation_monochromator  graphite

_diffrn_measurement_device_type  ?

_diffrn_measurement_method       ?

_diffrn_detector_area_resol_mean ?

_diffrn_standards_number         ?

_diffrn_standards_interval_count ?

_diffrn_standards_interval_time  ?

_diffrn_standards_decay_%        ?

_diffrn_reflns_number            30046

_diffrn_reflns_av_R_equivalents  0.0787

_diffrn_reflns_av_sigmaI/netI    0.1709

_diffrn_reflns_limit_h_min       -46

_diffrn_reflns_limit_h_max       40

_diffrn_reflns_limit_k_min       -23

_diffrn_reflns_limit_k_max       10

_diffrn_reflns_limit_l_min       -24

_diffrn_reflns_limit_l_max       17

_diffrn_reflns_theta_min         1.10

_diffrn_reflns_theta_max         26.00

_reflns_number_total             13221

_reflns_number_gt                5759

_reflns_threshold_expression     >2sigma(I)



_computing_data_collection       ?

_computing_cell_refinement       ?

_computing_data_reduction        ?

_computing_structure_solution    'SHELXS-97 (Sheldrick, 1990)'

_computing_structure_refinement  'SHELXL-97 (Sheldrick, 1997)'

_computing_molecular_graphics    ?

_computing_publication_material  ?



_refine_special_details          
; 

 Refinement of F^2^ against ALL reflections.  The weighted R-factor wR and 

 goodness of fit S are based on F^2^, conventional R-factors R are based 

 on F, with F set to zero for negative F^2^. The threshold expression of 

 F^2^ > 2sigma(F^2^) is used only for calculating R-factors(gt) etc. and is 

 not relevant to the choice of reflections for refinement.  R-factors based 

 on F^2^ are statistically about twice as large as those based on F, and R- 

 factors based on ALL data will be even larger. 

;



_refine_ls_structure_factor_coef Fsqd

_refine_ls_matrix_type           full

_refine_ls_weighting_scheme      calc

_refine_ls_weighting_details     
'calc w=1/[\s^2^(Fo^2^)+(0.1340P)^2^+0.0000P] where P=(Fo^2^+2Fc^2^)/3'

_atom_sites_solution_primary     direct

_atom_sites_solution_secondary   difmap

_atom_sites_solution_hydrogens   geom

_refine_ls_hydrogen_treatment    mixed

_refine_ls_extinction_method     none

_refine_ls_extinction_coef       ?

_refine_ls_number_reflns         13221

_refine_ls_number_parameters     611

_refine_ls_number_restraints     0

_refine_ls_R_factor_all          0.1515

_refine_ls_R_factor_gt           0.0786

_refine_ls_wR_factor_ref         0.2397

_refine_ls_wR_factor_gt          0.2153

_refine_ls_goodness_of_fit_ref   0.884

_refine_ls_restrained_S_all      0.884

_refine_ls_shift/su_max          0.001

_refine_ls_shift/su_mean         0.000



loop_

_atom_site_label

_atom_site_type_symbol

_atom_site_fract_x

_atom_site_fract_y

_atom_site_fract_z

_atom_site_U_iso_or_equiv

_atom_site_adp_type

_atom_site_occupancy

_atom_site_symmetry_multiplicity

_atom_site_calc_flag

_atom_site_refinement_flags

_atom_site_disorder_assembly

_atom_site_disorder_group
























































































Zn1 Zn -0.09884(2) 0.38890(4) 0.08891(4) 0.0278(2) Uani 1 1 d . . .
Zn2 Zn -0.10697(2) 0.10900(4) 0.20344(4) 0.0292(2) Uani 1 1 d . . .
Zn3 Zn -0.18900(2) 0.41066(4) 0.05121(5) 0.0325(3) Uani 1 1 d . . .
Zn4 Zn 0.0000 0.08954(11) 0.2500 0.0840(6) Uani 1 2 d S . .
C1 C -0.0696(2) 0.0567(5) 0.1040(5) 0.054(3) Uani 1 1 d . . .
C2 C -0.0717(2) 0.0319(5) 0.0324(4) 0.043(2) Uani 1 1 d . . .
C3 C -0.0436(2) -0.0085(5) 0.0220(5) 0.063(3) Uani 1 1 d . . .
H3A H -0.0244 -0.0189 0.0598 0.075 Uiso 1 1 calc R . .
C4 C -0.0432(2) -0.0340(5) -0.0432(5) 0.068(3) Uani 1 1 d . . .
H4A H -0.0236 -0.0605 -0.0490 0.081 Uiso 1 1 calc R . .
C5 C -0.0719(2) -0.0203(5) -0.1002(4) 0.045(2) Uani 1 1 d . . .
C6 C -0.10123(18) 0.0205(4) -0.0895(4) 0.036(2) Uani 1 1 d . . .
H6A H -0.1208 0.0295 -0.1271 0.043 Uiso 1 1 calc R . .
C7 C -0.10149(18) 0.0470(4) -0.0251(4) 0.0325(19) Uani 1 1 d . . .
C8 C -0.0722(2) -0.0469(5) -0.1716(4) 0.048(2) Uani 1 1 d . . .
C9 C -0.13297(18) 0.0900(4) -0.0185(4) 0.0301(18) Uani 1 1 d . . .
C10 C -0.12742(18) 0.1588(4) 0.0079(4) 0.0290(18) Uani 1 1 d . . .
H10A H -0.1040 0.1766 0.0219 0.035 Uiso 1 1 calc R . .
C11 C -0.15678(17) 0.2004(4) 0.0133(3) 0.0266(17) Uani 1 1 d . . .
C12 C -0.19168(18) 0.1718(4) -0.0052(3) 0.0273(17) Uani 1 1 d . . .
H12A H -0.2113 0.1986 0.0001 0.033 Uiso 1 1 calc R . .
C13 C -0.19746(17) 0.1049(4) -0.0312(4) 0.0269(17) Uani 1 1 d . . .
C14 C -0.16736(18) 0.0640(4) -0.0388(4) 0.0325(19) Uani 1 1 d . . .
H14A H -0.1712 0.0192 -0.0579 0.039 Uiso 1 1 calc R . .
C15 C -0.15159(18) 0.2741(4) 0.0413(3) 0.0224(16) Uani 1 1 d . . .
C16 C -0.2344(2) 0.0733(4) -0.0480(4) 0.040(2) Uani 1 1 d . . .
C17 C -0.06392(19) 0.2243(4) 0.2480(4) 0.0314(18) Uani 1 1 d . . .
C18 C -0.05611(18) 0.2955(4) 0.2813(4) 0.0258(16) Uani 1 1 d . . .
C19 C -0.02045(19) 0.3156(4) 0.3104(4) 0.0314(18) Uani 1 1 d . . .
H19A H -0.0015 0.2845 0.3107 0.038 Uiso 1 1 calc R . .
C20 C -0.01309(17) 0.3830(4) 0.3394(4) 0.0313(18) Uani 1 1 d . . .
C21 C -0.04248(19) 0.4284(4) 0.3388(4) 0.036(2) Uani 1 1 d . . .
H21A H -0.0378 0.4738 0.3562 0.043 Uiso 1 1 calc R . .
C22 C -0.07786(17) 0.4072(4) 0.3131(4) 0.0287(17) Uani 1 1 d . . .
C23 C -0.08504(17) 0.3408(4) 0.2827(4) 0.0278(17) Uani 1 1 d . . .
H23A H -0.1088 0.3268 0.2635 0.033 Uiso 1 1 calc R . .
C24 C 0.02464(19) 0.4060(4) 0.3689(4) 0.0331(19) Uani 1 1 d . . .
C25 C -0.10905(18) 0.4539(4) 0.3166(4) 0.0325(19) Uani 1 1 d . . .
C26 C -0.10989(19) 0.4829(4) 0.3796(4) 0.040(2) Uani 1 1 d . . .
H26A H -0.0904 0.4756 0.4179 0.048 Uiso 1 1 calc R . .
C27 C -0.1390(2) 0.5229(4) 0.3880(4) 0.047(2) Uani 1 1 d . . .
C28 C -0.1681(2) 0.5338(6) 0.3314(5) 0.076(4) Uani 1 1 d . . .
H28A H -0.1876 0.5609 0.3363 0.091 Uiso 1 1 calc R . .
C29 C -0.1679(2) 0.5041(6) 0.2670(5) 0.075(4) Uani 1 1 d . . .
H29A H -0.1875 0.5111 0.2289 0.090 Uiso 1 1 calc R . .
C30 C -0.13868(19) 0.4640(5) 0.2597(4) 0.046(2) Uani 1 1 d . . .
C31 C -0.1396(2) 0.5521(5) 0.4600(5) 0.048(2) Uani 1 1 d . . .
C32 C -0.1397(2) 0.4363(4) 0.1875(4) 0.041(2) Uani 1 1 d . . .
C33 C -0.2362(4) 0.2338(9) 0.1341(9) 0.198(11) Uani 1 1 d . . .
H33A H -0.2196 0.2727 0.1404 0.297 Uiso 1 1 calc R . .
H33B H -0.2522 0.2392 0.1646 0.297 Uiso 1 1 calc R . .
H33C H -0.2501 0.2325 0.0865 0.297 Uiso 1 1 calc R . .
C34 C -0.2353(3) 0.0988(8) 0.1452(6) 0.105(5) Uani 1 1 d . . .
H34A H -0.2181 0.0612 0.1579 0.158 Uiso 1 1 calc R . .
H34B H -0.2491 0.0922 0.0980 0.158 Uiso 1 1 calc R . .
H34C H -0.2513 0.0989 0.1759 0.158 Uiso 1 1 calc R . .
C35 C -0.1803(2) 0.1694(5) 0.1669(5) 0.055(3) Uani 1 1 d . . .
H35A H -0.1686 0.2126 0.1701 0.066 Uiso 1 1 calc R . .
N1 N -0.2155(2) 0.1676(6) 0.1510(4) 0.081(3) Uani 1 1 d . . .
O1 O -0.10012(14) 0.0589(3) 0.1232(3) 0.0438(14) Uani 1 1 d . . .
O2 O -0.04032(16) 0.0708(5) 0.1415(4) 0.101(3) Uani 1 1 d . . .
O3 O -0.10217(14) -0.0502(3) -0.2145(3) 0.0476(15) Uani 1 1 d . . .
O4 O -0.04337(18) -0.0653(5) -0.1830(4) 0.106(3) Uani 1 1 d . . .
O5 O -0.17915(13) 0.3066(3) 0.0461(3) 0.0373(13) Uani 1 1 d . . .
O6 O -0.11969(12) 0.2978(3) 0.0569(3) 0.0337(13) Uani 1 1 d . . .
O7 O -0.25945(12) 0.1099(3) -0.0345(3) 0.0348(13) Uani 1 1 d . . .
O8 O -0.23908(15) 0.0129(3) -0.0744(4) 0.073(2) Uani 1 1 d . . .
O9 O -0.09685(12) 0.2062(3) 0.2279(3) 0.0329(12) Uani 1 1 d . . .
O10 O -0.03855(15) 0.1889(3) 0.2401(4) 0.0630(19) Uani 1 1 d . . .
O11 O 0.03122(16) 0.4692(4) 0.3800(5) 0.092(3) Uani 1 1 d . . .
O12 O 0.04920(12) 0.3591(3) 0.3793(3) 0.0358(13) Uani 1 1 d . . .
O13 O -0.16959(15) 0.4136(4) 0.1534(3) 0.0632(19) Uani 1 1 d . . .
O14 O -0.11234(14) 0.4406(3) 0.1653(3) 0.0392(13) Uani 1 1 d . . .
O15 O -0.16986(14) 0.5747(4) 0.4655(3) 0.0606(19) Uani 1 1 d . . .
O16 O -0.11035(13) 0.5511(3) 0.5053(3) 0.0398(14) Uani 1 1 d . . .
O17 O -0.16165(13) 0.1140(3) 0.1780(3) 0.0466(15) Uani 1 1 d . . .
O1W O 0.0000 -0.0392(7) 0.2500 0.231(11) Uani 1 2 d S . .
O2W O -0.19597(18) 0.5213(3) 0.0531(6) 0.138(4) Uani 1 1 d . . .
O3W O 0.0794(7) 0.5939(7) 0.3747(13) 0.364(14) Uani 1 1 d . . .
O4W O -0.1747(7) 0.0517(18) -0.273(2) 0.71(4) Uani 1 1 d . . .
O5W O -0.2081(6) 0.4069(8) 0.4020(14) 0.336(13) Uani 1 1 d . . .
O6W O -0.2336(16) 0.4020(17) 0.236(3) 0.85(6) Uani 1 1 d . . .
O7W O -0.2128(11) -0.0755(17) -0.1748(12) 0.67(4) Uani 1 1 d . . .
O8W O -0.2002(12) 0.338(2) 0.3200(17) 0.64(4) Uani 1 1 d . . .
O9W O 0.0000 0.5000 0.5000 0.64(5) Uani 1 2 d S . .
O10W O -0.2758(6) 0.1837(10) 0.2824(11) 0.313(10) Uani 1 1 d . . .
O11W O -0.3475(8) 0.2376(14) 0.1818(14) 0.426(15) Uani 1 1 d . . .
O12W O -0.1443(8) 0.215(3) 0.3880(15) 0.57(3) Uani 1 1 d . . .



loop_

_atom_site_aniso_label

_atom_site_aniso_U_11

_atom_site_aniso_U_22

_atom_site_aniso_U_33

_atom_site_aniso_U_23

_atom_site_aniso_U_13

_atom_site_aniso_U_12





































































Zn1 0.0141(4) 0.0365(5) 0.0290(5) 0.0025(4) -0.0022(4) -0.0015(4)
Zn2 0.0214(5) 0.0395(5) 0.0241(5) 0.0017(4) 0.0003(4) 0.0008(4)
Zn3 0.0125(4) 0.0348(5) 0.0458(6) 0.0020(4) -0.0014(4) -0.0019(4)
Zn4 0.0651(13) 0.0894(14) 0.0880(15) 0.000 0.0003(11) 0.000
C1 0.027(5) 0.078(7) 0.045(6) -0.023(5) -0.017(4) 0.019(4)
C2 0.022(4) 0.069(6) 0.032(5) -0.025(4) -0.005(4) 0.004(4)
C3 0.014(4) 0.108(8) 0.055(6) -0.044(6) -0.015(4) 0.018(5)
C4 0.028(5) 0.102(8) 0.063(7) -0.039(6) -0.009(5) 0.026(5)
C5 0.022(4) 0.070(6) 0.043(5) -0.029(5) 0.006(4) 0.007(4)
C6 0.016(4) 0.058(5) 0.028(5) -0.020(4) -0.004(3) 0.000(3)
C7 0.017(4) 0.040(5) 0.038(5) -0.020(4) 0.000(3) -0.005(3)
C8 0.035(5) 0.067(6) 0.040(5) -0.031(5) 0.007(4) 0.008(4)
C9 0.019(4) 0.048(5) 0.027(4) -0.011(4) 0.013(3) 0.001(3)
C10 0.013(4) 0.041(4) 0.035(5) -0.008(4) 0.009(3) 0.000(3)
C11 0.011(3) 0.048(5) 0.017(4) 0.000(3) -0.005(3) -0.003(3)
C12 0.015(4) 0.042(5) 0.022(4) 0.006(3) 0.000(3) 0.007(3)
C13 0.008(3) 0.035(4) 0.032(4) -0.002(3) -0.006(3) -0.001(3)
C14 0.020(4) 0.038(4) 0.033(5) -0.017(4) -0.006(3) 0.001(3)
C15 0.019(4) 0.031(4) 0.018(4) -0.003(3) 0.005(3) -0.003(3)
C16 0.024(4) 0.048(5) 0.043(5) -0.005(4) 0.000(4) -0.006(4)
C17 0.024(4) 0.044(5) 0.027(5) -0.006(4) 0.008(3) 0.001(4)
C18 0.019(4) 0.035(4) 0.024(4) -0.003(3) 0.007(3) 0.003(3)
C19 0.023(4) 0.032(4) 0.042(5) 0.005(4) 0.014(4) 0.009(3)
C20 0.007(3) 0.046(5) 0.044(5) -0.008(4) 0.011(3) 0.000(3)
C21 0.028(4) 0.046(5) 0.031(5) -0.016(4) 0.001(4) 0.005(4)
C22 0.011(3) 0.046(5) 0.027(4) -0.010(3) 0.000(3) 0.005(3)
C23 0.008(3) 0.044(4) 0.030(4) -0.007(3) 0.002(3) -0.003(3)
C24 0.016(4) 0.046(5) 0.034(5) -0.010(4) 0.000(3) -0.003(3)
C25 0.015(4) 0.044(5) 0.038(5) -0.016(4) 0.005(3) 0.003(3)
C26 0.015(4) 0.056(5) 0.040(5) -0.025(4) -0.009(3) 0.009(4)
C27 0.021(4) 0.063(6) 0.048(6) -0.036(5) -0.009(4) 0.011(4)
C28 0.030(5) 0.115(9) 0.071(7) -0.053(7) -0.011(5) 0.028(5)
C29 0.029(5) 0.130(10) 0.049(6) -0.056(6) -0.022(4) 0.025(5)
C30 0.011(4) 0.070(6) 0.047(6) -0.034(5) -0.010(4) 0.011(4)
C31 0.018(4) 0.060(6) 0.060(6) -0.027(5) -0.005(4) 0.012(4)
C32 0.017(4) 0.053(5) 0.047(6) -0.022(4) -0.003(4) 0.012(4)
C33 0.129(13) 0.29(2) 0.224(18) 0.209(17) 0.136(13) 0.165(14)
C34 0.031(6) 0.210(16) 0.067(8) 0.016(9) -0.003(5) -0.033(8)
C35 0.041(6) 0.076(7) 0.049(6) 0.016(5) 0.015(5) 0.019(5)
N1 0.034(5) 0.159(9) 0.057(6) 0.063(6) 0.024(4) 0.045(5)
O1 0.032(3) 0.059(4) 0.035(3) -0.015(3) -0.003(3) 0.004(3)
O2 0.023(3) 0.194(9) 0.071(5) -0.078(5) -0.017(3) 0.012(4)
O3 0.030(3) 0.066(4) 0.040(4) -0.021(3) -0.003(3) 0.004(3)
O4 0.037(4) 0.199(9) 0.082(6) -0.084(6) 0.012(4) 0.028(5)
O5 0.027(3) 0.041(3) 0.051(4) -0.004(3) 0.022(3) -0.001(2)
O6 0.015(3) 0.043(3) 0.040(3) -0.006(2) 0.000(2) -0.003(2)
O7 0.015(3) 0.041(3) 0.046(3) -0.003(3) 0.004(2) 0.003(2)
O8 0.023(3) 0.063(4) 0.128(6) -0.049(4) 0.009(4) -0.006(3)
O9 0.017(3) 0.043(3) 0.037(3) -0.004(2) 0.004(2) -0.004(2)
O10 0.029(3) 0.054(4) 0.107(6) -0.026(4) 0.019(4) 0.006(3)
O11 0.025(4) 0.067(5) 0.171(8) -0.047(5) -0.004(4) -0.006(3)
O12 0.013(3) 0.052(3) 0.037(3) -0.003(3) -0.003(2) 0.007(2)
O13 0.032(3) 0.102(5) 0.055(4) -0.045(4) 0.008(3) -0.010(3)
O14 0.026(3) 0.062(4) 0.027(3) -0.005(3) 0.001(2) 0.006(3)
O15 0.025(3) 0.105(5) 0.048(4) -0.050(4) 0.001(3) 0.010(3)
O16 0.027(3) 0.048(3) 0.036(3) -0.017(3) -0.007(3) 0.007(2)
O17 0.017(3) 0.070(4) 0.048(4) 0.002(3) -0.002(3) 0.004(3)
O1W 0.164(17) 0.073(10) 0.42(3) 0.000 -0.008(18) 0.000
O2W 0.046(5) 0.032(4) 0.342(15) -0.006(6) 0.059(7) -0.003(3)
O3W 0.51(3) 0.114(12) 0.55(4) 0.067(16) 0.29(3) 0.093(15)
O4W 0.32(3) 0.64(5) 0.99(8) -0.62(6) -0.19(4) 0.18(3)
O5W 0.35(3) 0.176(15) 0.56(4) -0.066(19) 0.27(3) -0.127(15)
O6W 1.20(14) 0.25(3) 0.94(11) -0.22(5) -0.07(9) -0.25(5)
O7W 1.18(9) 0.66(5) 0.29(3) -0.35(3) 0.42(4) -0.69(6)
O8W 0.84(8) 0.75(7) 0.44(4) -0.26(5) 0.35(5) -0.73(7)
O9W 0.23(3) 1.32(13) 0.30(3) -0.52(6) -0.10(2) 0.20(5)
O10W 0.36(3) 0.241(19) 0.33(2) -0.029(17) 0.06(2) -0.071(18)
O11W 0.50(4) 0.40(3) 0.37(3) 0.04(3) 0.08(3) -0.01(3)
O12W 0.43(4) 1.01(8) 0.38(4) 0.27(5) 0.27(3) 0.03(5)



_geom_special_details            
; 

 All esds (except the esd in the dihedral angle between two l.s. planes) 

 are estimated using the full covariance matrix.  The cell esds are taken 

 into account individually in the estimation of esds in distances, angles 

 and torsion angles; correlations between esds in cell parameters are only 

 used when they are defined by crystal symmetry.  An approximate (isotropic) 

 treatment of cell esds is used for estimating esds involving l.s. planes. 

;



loop_

_geom_bond_atom_site_label_1

_geom_bond_atom_site_label_2

_geom_bond_distance

_geom_bond_site_symmetry_2

_geom_bond_publ_flag
















































































Zn1 O12 1.924(5) 2 ?
Zn1 O6 1.947(5) . ?
Zn1 O16 1.967(5) 6_565 ?
Zn1 O14 1.971(5) . ?
Zn2 O1 1.921(5) . ?
Zn2 O9 1.926(5) . ?
Zn2 O3 1.941(5) 6_556 ?
Zn2 O17 2.019(5) . ?
Zn3 O7 1.947(5) 7_455 ?
Zn3 O13 1.973(6) . ?
Zn3 O15 2.018(6) 6_565 ?
Zn3 O5 2.023(5) . ?
Zn3 O2W 2.124(6) . ?
Zn4 O2 2.338(6) 2 ?
Zn4 O2 2.338(6) . ?
Zn4 O10 2.371(6) 2 ?
Zn4 O10 2.371(6) . ?
Zn4 O4 2.397(6) 6_556 ?
Zn4 O4 2.397(6) 5 ?
Zn4 O1W 2.450(14) . ?
C1 O2 1.207(9) . ?
C1 O1 1.307(10) . ?
C1 C2 1.475(11) . ?
C2 C3 1.372(10) . ?
C2 C7 1.423(10) . ?
C3 C4 1.381(12) . ?
C4 C5 1.388(11) . ?
C5 C6 1.417(10) . ?
C5 C8 1.494(11) . ?
C6 C7 1.371(10) . ?
C7 C9 1.481(9) . ?
C8 O4 1.224(9) . ?
C8 O3 1.244(9) . ?
C9 C14 1.363(9) . ?
C9 C10 1.406(10) . ?
C10 C11 1.394(9) . ?
C11 C12 1.398(9) . ?
C11 C15 1.502(9) . ?
C12 C13 1.370(9) . ?
C13 C14 1.422(9) . ?
C13 C16 1.489(9) . ?
C1