####################################################################### 
# 
# This file contains crystal structure data downloaded from the 
# Cambridge Structural Database (CSD) hosted by the Cambridge 
# Crystallographic Data Centre (CCDC).
# 
# Full information about CCDC data access policies and citation 
# guidelines are available at http://www.ccdc.cam.ac.uk/access/V1 
# 
# Audit and citation data items may have been added by the CCDC. 
# Please retain this information to preserve the provenance of 
# this file and to allow appropriate attribution of the data. 
# 
#######################################################################

data_z
_audit_block_doi                 10.5517/cc135gj8
_database_code_depnum_ccdc_archive 'CCDC 1018149'
loop_
_citation_id
_citation_doi
_citation_year
1 10.1016/j.inoche.2014.10.032 2015
_audit_update_record             
;
2014-08-06 deposited with the CCDC.	2024-07-14 downloaded from the CCDC.
;

_audit_creation_method           SHELXL-97
_chemical_name_systematic        
; 
 ? 
;
_chemical_name_common            ?
_chemical_melting_point          ?
_chemical_formula_moiety         ?
_chemical_formula_sum            'C54 H34 N4 O13 Zn2'
_chemical_formula_weight         1077.59

loop_
_atom_type_symbol
_atom_type_description
_atom_type_scat_dispersion_real
_atom_type_scat_dispersion_imag
_atom_type_scat_source
C C 0.0033 0.0016 'International Tables Vol C Tables 4.2.6.8 and 6.1.1.4'
H H 0.0000 0.0000 'International Tables Vol C Tables 4.2.6.8 and 6.1.1.4'
N N 0.0061 0.0033 'International Tables Vol C Tables 4.2.6.8 and 6.1.1.4'
O O 0.0106 0.0060 'International Tables Vol C Tables 4.2.6.8 and 6.1.1.4'
Zn Zn 0.2839 1.4301 'International Tables Vol C Tables 4.2.6.8 and 6.1.1.4'

_symmetry_cell_setting           Monoclinic
_symmetry_space_group_name_H-M   C2/c

loop_
_symmetry_equiv_pos_as_xyz
'x, y, z'
'-x, y, -z+1/2'
'x+1/2, y+1/2, z'
'-x+1/2, y+1/2, -z+1/2'
'-x, -y, -z'
'x, -y, z-1/2'
'-x+1/2, -y+1/2, -z'
'x+1/2, -y+1/2, z-1/2'

_cell_length_a                   22.784(12)
_cell_length_b                   18.282(11)
_cell_length_c                   13.071(8)
_cell_angle_alpha                90.00
_cell_angle_beta                 94.292(7)
_cell_angle_gamma                90.00
_cell_volume                     5429(5)
_cell_formula_units_Z            4
_cell_measurement_temperature    296(2)
_cell_measurement_reflns_used    ?
_cell_measurement_theta_min      ?
_cell_measurement_theta_max      ?

_exptl_crystal_description       prism
_exptl_crystal_colour            colorless
_exptl_crystal_size_max          0.20
_exptl_crystal_size_mid          0.19
_exptl_crystal_size_min          0.16
_exptl_crystal_density_meas      ?
_exptl_crystal_density_diffrn    1.318
_exptl_crystal_density_method    'not measured'
_exptl_crystal_F_000             2200
_exptl_absorpt_coefficient_mu    0.948
_exptl_absorpt_correction_type   multi-scan
_exptl_absorpt_correction_T_min  0.827
_exptl_absorpt_correction_T_max  0.859
_exptl_absorpt_process_details   ?

_exptl_special_details           
; 
 ? 
;

_diffrn_ambient_temperature      296(2)
_diffrn_radiation_wavelength     0.71073
_diffrn_radiation_type           MoK\a
_diffrn_radiation_source         'fine-focus sealed tube'
_diffrn_radiation_monochromator  graphite
_diffrn_measurement_device_type  ?
_diffrn_measurement_method       ?
_diffrn_detector_area_resol_mean ?
_diffrn_standards_number         ?
_diffrn_standards_interval_count ?
_diffrn_standards_interval_time  ?
_diffrn_standards_decay_%        ?
_diffrn_reflns_number            28359
_diffrn_reflns_av_R_equivalents  0.0630
_diffrn_reflns_av_sigmaI/netI    0.0366
_diffrn_reflns_limit_h_min       -29
_diffrn_reflns_limit_h_max       29
_diffrn_reflns_limit_k_min       -23
_diffrn_reflns_limit_k_max       23
_diffrn_reflns_limit_l_min       -16
_diffrn_reflns_limit_l_max       16
_diffrn_reflns_theta_min         2.07
_diffrn_reflns_theta_max         27.53
_reflns_number_total             6211
_reflns_number_gt                5237
_reflns_threshold_expression     >2sigma(I)

_computing_data_collection       ?
_computing_cell_refinement       ?
_computing_data_reduction        ?
_computing_structure_solution    'SHELXS-97 (Sheldrick, 1990)'
_computing_structure_refinement  'SHELXL-97 (Sheldrick, 1997)'
_computing_molecular_graphics    ?
_computing_publication_material  ?

_refine_special_details          
; 
 Refinement of F^2^ against ALL reflections.  The weighted R-factor wR and 
 goodness of fit S are based on F^2^, conventional R-factors R are based 
 on F, with F set to zero for negative F^2^. The threshold expression of 
 F^2^ > 2sigma(F^2^) is used only for calculating R-factors(gt) etc. and is 
 not relevant to the choice of reflections for refinement.  R-factors based 
 on F^2^ are statistically about twice as large as those based on F, and R- 
 factors based on ALL data will be even larger. 
;

_refine_ls_structure_factor_coef Fsqd
_refine_ls_matrix_type           full
_refine_ls_weighting_scheme      calc
_refine_ls_weighting_details     
'calc w=1/[\s^2^(Fo^2^)+(0.1389P)^2^+2.2473P] where P=(Fo^2^+2Fc^2^)/3'
_atom_sites_solution_primary     direct
_atom_sites_solution_secondary   difmap
_atom_sites_solution_hydrogens   geom
_refine_ls_hydrogen_treatment    mixed
_refine_ls_extinction_method     none
_refine_ls_extinction_coef       ?
_refine_ls_number_reflns         6211
_refine_ls_number_parameters     349
_refine_ls_number_restraints     3
_refine_ls_R_factor_all          0.0686
_refine_ls_R_factor_gt           0.0598
_refine_ls_wR_factor_ref         0.1967
_refine_ls_wR_factor_gt          0.1830
_refine_ls_goodness_of_fit_ref   1.033
_refine_ls_restrained_S_all      1.033
_refine_ls_shift/su_max          0.022
_refine_ls_shift/su_mean         0.001

loop_
_atom_site_label
_atom_site_type_symbol
_atom_site_fract_x
_atom_site_fract_y
_atom_site_fract_z
_atom_site_U_iso_or_equiv
_atom_site_adp_type
_atom_site_occupancy
_atom_site_symmetry_multiplicity
_atom_site_calc_flag
_atom_site_refinement_flags
_atom_site_disorder_assembly
_atom_site_disorder_group
Zn1 Zn 0.257683(14) 0.198699(18) 0.83384(3) 0.04991(17) Uani 1 1 d . . .
O1 O 0.28108(11) 0.30538(12) 0.85973(19) 0.0606(6) Uani 1 1 d . . .
C10 C 0.47978(10) 0.55911(14) 0.87472(17) 0.0386(5) Uani 1 1 d . . .
O6 O 0.29197(10) 0.16027(12) 0.98043(18) 0.0569(5) Uani 1 1 d D . .
O3 O 0.56708(10) 0.39982(13) 0.88485(18) 0.0579(5) Uani 1 1 d . . .
C8 C 0.52854(11) 0.44556(15) 0.87888(17) 0.0412(5) Uani 1 1 d . . .
C5 C 0.43469(10) 0.50032(14) 0.86632(17) 0.0389(5) Uani 1 1 d . . .
C9 C 0.53528(11) 0.52657(15) 0.87992(17) 0.0400(5) Uani 1 1 d . . .
C4 C 0.46299(11) 0.43281(14) 0.86833(17) 0.0391(5) Uani 1 1 d . . .
O4 O 0.68224(10) 0.65813(15) 0.8774(2) 0.0690(7) Uani 1 1 d . . .
C13 C 0.58069(12) 0.64399(17) 0.88519(19) 0.0469(6) Uani 1 1 d . . .
C1 C 0.33486(16) 0.30284(17) 0.8436(2) 0.0556(8) Uani 1 1 d . . .
C14 C 0.58607(11) 0.56855(17) 0.88403(18) 0.0446(6) Uani 1 1 d . . .
H14 H 0.6229 0.5465 0.8860 0.053 Uiso 1 1 calc R . .
C3 C 0.43230(12) 0.36758(16) 0.86112(19) 0.0449(5) Uani 1 1 d . . .
H3 H 0.4517 0.3228 0.8621 0.054 Uiso 1 1 calc R . .
C2 C 0.37048(12) 0.37164(15) 0.85215(19) 0.0458(6) Uani 1 1 d . . .
C6 C 0.37426(11) 0.50442(15) 0.8575(2) 0.0458(6) Uani 1 1 d . . .
H6 H 0.3550 0.5493 0.8554 0.055 Uiso 1 1 calc R . .
C15 C 0.63473(14) 0.6913(2) 0.8862(2) 0.0586(8) Uani 1 1 d . . .
N1 N 0.28792(13) 0.11282(16) 0.7464(2) 0.0634(7) Uani 1 1 d . . .
C7 C 0.34260(12) 0.43844(17) 0.8517(2) 0.0501(6) Uani 1 1 d . . .
H7 H 0.3017 0.4399 0.8476 0.060 Uiso 1 1 calc R . .
C11 C 0.47425(12) 0.63397(15) 0.8771(2) 0.0455(6) Uani 1 1 d . . .
H11 H 0.4373 0.6559 0.8749 0.055 Uiso 1 1 calc R . .
O2 O 0.35858(14) 0.24461(14) 0.8204(3) 0.0860(9) Uani 1 1 d . . .
N2 N 0.21567(14) 0.22196(18) 0.6803(2) 0.0644(7) Uani 1 1 d . . .
C12 C 0.52502(13) 0.67606(17) 0.8829(2) 0.0499(6) Uani 1 1 d . . .
H12 H 0.5219 0.7267 0.8852 0.060 Uiso 1 1 calc R . .
O5 O 0.63005(13) 0.75901(15) 0.8962(3) 0.0857(9) Uani 1 1 d . . .
C27 C 0.26456(17) 0.1112(2) 0.6467(3) 0.0691(10) Uani 1 1 d . . .
C24 C 0.1507(3) 0.2788(4) 0.5496(5) 0.1029(17) Uani 1 1 d . . .
H24 H 0.1251 0.3170 0.5311 0.123 Uiso 1 1 calc R . .
C26 C 0.22546(17) 0.1688(2) 0.6130(3) 0.0679(10) Uani 1 1 d . . .
C16 C 0.3252(2) 0.0623(2) 0.7790(4) 0.0850(12) Uani 1 1 d . . .
H16 H 0.3413 0.0641 0.8464 0.102 Uiso 1 1 calc R . .
C25 C 0.1799(2) 0.2763(3) 0.6498(4) 0.0802(11) Uani 1 1 d . . .
H25 H 0.1736 0.3140 0.6955 0.096 Uiso 1 1 calc R . .
C19 C 0.2774(2) 0.0556(3) 0.5784(4) 0.0895(14) Uani 1 1 d . . .
C17 C 0.3420(3) 0.0039(3) 0.7136(6) 0.1101(19) Uani 1 1 d . . .
H17 H 0.3693 -0.0312 0.7370 0.132 Uiso 1 1 calc R . .
C18 C 0.3162(3) 0.0020(3) 0.6151(5) 0.113(2) Uani 1 1 d . . .
H18 H 0.3252 -0.0364 0.5722 0.135 Uiso 1 1 calc R . .
C23 C 0.1602(3) 0.2263(4) 0.4826(4) 0.1061(18) Uani 1 1 d . . .
H23 H 0.1414 0.2277 0.4170 0.127 Uiso 1 1 calc R . .
C22 C 0.1990(2) 0.1684(3) 0.5110(3) 0.0864(14) Uani 1 1 d . . .
C21 C 0.2113(3) 0.1086(4) 0.4452(4) 0.108(2) Uani 1 1 d . . .
H21 H 0.1926 0.1063 0.3795 0.129 Uiso 1 1 calc R . .
C20 C 0.2482(3) 0.0576(4) 0.4762(5) 0.118(2) Uani 1 1 d . . .
H20 H 0.2562 0.0205 0.4304 0.141 Uiso 1 1 calc R . .
O1W O 0.5547(7) 0.8698(6) 0.832(2) 0.179(11) Uani 0.25 1 d P . .
O2W O 0.4473(5) 0.2443(6) 0.6788(10) 0.082(3) Uani 0.25 1 d P . .
H6B H 0.3156(19) 0.194(2) 1.000(4) 0.123 Uiso 1 1 d D . .
H6A H 0.2624(17) 0.160(3) 1.014(4) 0.123 Uiso 1 1 d D . .

loop_
_atom_site_aniso_label
_atom_site_aniso_U_11
_atom_site_aniso_U_22
_atom_site_aniso_U_33
_atom_site_aniso_U_23
_atom_site_aniso_U_13
_atom_site_aniso_U_12
Zn1 0.0462(2) 0.0464(2) 0.0583(3) -0.00887(13) 0.01086(16) -0.01977(12)
O1 0.0548(13) 0.0633(13) 0.0641(13) -0.0030(10) 0.0078(10) -0.0333(10)
C10 0.0357(11) 0.0485(13) 0.0318(10) -0.0006(9) 0.0026(8) -0.0125(9)
O6 0.0499(11) 0.0545(12) 0.0660(13) -0.0010(10) 0.0038(9) -0.0152(9)
O3 0.0473(11) 0.0626(13) 0.0636(12) 0.0046(10) 0.0030(9) 0.0018(9)
C8 0.0383(12) 0.0522(14) 0.0330(10) -0.0003(9) 0.0028(8) -0.0098(10)
C5 0.0358(11) 0.0474(13) 0.0335(10) 0.0011(9) 0.0029(8) -0.0131(9)
C9 0.0374(11) 0.0521(13) 0.0305(10) -0.0020(9) 0.0018(8) -0.0112(10)
C4 0.0362(11) 0.0468(13) 0.0344(10) 0.0003(9) 0.0039(8) -0.0104(9)
O4 0.0453(12) 0.0856(17) 0.0761(14) 0.0084(13) 0.0045(10) -0.0319(11)
C13 0.0396(12) 0.0620(16) 0.0385(11) -0.0010(11) 0.0002(9) -0.0242(12)
C1 0.0638(18) 0.0544(17) 0.0489(14) -0.0037(12) 0.0068(13) -0.0286(14)
C14 0.0349(12) 0.0617(16) 0.0370(11) -0.0021(10) 0.0018(9) -0.0134(11)
C3 0.0450(13) 0.0474(13) 0.0427(12) -0.0005(10) 0.0066(10) -0.0106(11)
C2 0.0461(14) 0.0496(14) 0.0420(12) -0.0009(10) 0.0056(10) -0.0214(11)
C6 0.0359(12) 0.0453(13) 0.0562(14) -0.0019(11) 0.0033(10) -0.0106(10)
C15 0.0470(17) 0.077(2) 0.0512(15) 0.0026(14) 0.0003(12) -0.0339(15)
N1 0.0592(16) 0.0569(15) 0.0759(17) -0.0139(13) 0.0172(13) -0.0186(12)
C7 0.0360(12) 0.0583(16) 0.0558(14) -0.0020(12) 0.0027(10) -0.0190(11)
C11 0.0405(13) 0.0466(13) 0.0496(13) -0.0027(11) 0.0039(10) -0.0110(10)
O2 0.0877(19) 0.0556(15) 0.118(2) -0.0198(14) 0.0297(17) -0.0327(13)
N2 0.0661(17) 0.0621(16) 0.0656(16) -0.0020(13) 0.0096(13) -0.0276(14)
C12 0.0508(15) 0.0486(14) 0.0501(14) -0.0026(12) 0.0021(11) -0.0162(12)
O5 0.0665(15) 0.0682(16) 0.120(2) -0.0030(15) -0.0083(15) -0.0389(13)
C27 0.068(2) 0.074(2) 0.0689(19) -0.0245(17) 0.0277(16) -0.0365(18)
C24 0.093(3) 0.108(4) 0.105(4) 0.036(3) -0.011(3) -0.028(3)
C26 0.072(2) 0.074(2) 0.0595(18) -0.0101(16) 0.0147(15) -0.0374(19)
C16 0.081(3) 0.070(2) 0.107(3) -0.015(2) 0.025(2) -0.012(2)
C25 0.084(3) 0.073(2) 0.083(3) 0.012(2) -0.001(2) -0.020(2)
C19 0.084(3) 0.092(3) 0.097(3) -0.043(3) 0.034(2) -0.035(2)
C17 0.101(4) 0.073(3) 0.161(6) -0.030(3) 0.042(4) -0.002(3)
C18 0.116(4) 0.093(4) 0.135(5) -0.057(3) 0.044(4) -0.019(3)
C23 0.116(4) 0.125(4) 0.075(3) 0.014(3) -0.008(3) -0.054(4)
C22 0.089(3) 0.108(3) 0.063(2) -0.008(2) 0.009(2) -0.048(3)
C21 0.106(4) 0.151(6) 0.068(3) -0.035(3) 0.017(3) -0.052(4)
C20 0.118(4) 0.147(6) 0.094(4) -0.070(4) 0.043(3) -0.055(4)
O1W 0.083(9) 0.029(5) 0.42(3) 0.055(10) -0.040(14) -0.006(5)
O2W 0.063(6) 0.078(7) 0.107(9) -0.002(6) 0.021(6) 0.001(5)

_geom_special_details            
; 
 All esds (except the esd in the dihedral angle between two l.s. planes) 
 are estimated using the full covariance matrix.  The cell esds are taken 
 into account individually in the estimation of esds in distances, angles 
 and torsion angles; correlations between esds in cell parameters are only 
 used when they are defined by crystal symmetry.  An approximate (isotropic) 
 treatment of cell esds is used for estimating esds involving l.s. planes. 
;

loop_
_geom_bond_atom_site_label_1
_geom_bond_atom_site_label_2
_geom_bond_distance
_geom_bond_site_symmetry_2
_geom_bond_publ_flag
Zn1 O4 1.994(2) 3_445 ?
Zn1 O1 2.043(2) . ?
Zn1 N1 2.089(3) . ?
Zn1 O6 2.133(3) . ?
Zn1 N2 2.199(3) . ?
Zn1 O2 2.466(3) . ?
O1 C1 1.260(4) . ?
C10 C11 1.375(4) . ?
C10 C9 1.395(4) . ?
C10 C5 1.485(3) . ?
O6 H6B 0.840(19) . ?
O6 H6A 0.828(19) . ?
O3 C8 1.211(4) . ?
C8 C9 1.489(4) . ?
C8 C4 1.508(3) . ?
C5 C6 1.375(4) . ?
C5 C4 1.392(4) . ?
C9 C14 1.386(3) . ?
C4 C3 1.382(4) . ?
O4 C15 1.253(5) . ?
O4 Zn1 1.994(2) 3 ?
C13 C14 1.385(5) . ?
C13 C12 1.396(5) . ?
C13 C15 1.504(3) . ?
C1 O2 1.242(5) . ?
C1 C2 1.497(3) . ?
C14 H14 0.9300 . ?
C3 C2 1.407(4) . ?
C3 H3 0.9300 . ?
C2 C7 1.376(4) . ?
C6 C7 1.404(4) . ?
C6 H6 0.9300 . ?
C15 O5 1.251(5) . ?
N1 C16 1.305(6) . ?
N1 C27 1.371(5) . ?
C7 H7 0.9300 . ?
C11 C12 1.387(4) . ?
C11 H11 0.9300 . ?
N2 C25 1.327(6) . ?
N2 C26 1.341(5) . ?
C12 H12 0.9300 . ?
C27 C19 1.398(6) . ?
C27 C26 1.427(6) . ?
C24 C23 1.328(9) . ?
C24 C25 1.426(7) . ?
C24 H24 0.9300 . ?
C26 C22 1.421(6) . ?
C16 C17 1.437(7) . ?
C16 H16 0.9300 . ?
C25 H25 0.9300 . ?
C19 C18 1.383(9) . ?
C19 C20 1.449(9) . ?
C17 C18 1.374(10) . ?
C17 H17 0.9300 . ?
C18 H18 0.9300 . ?
C23 C22 1.410(9) . ?
C23 H23 0.9300 . ?
C22 C21 1.432(8) . ?
C21 C20 1.301(10) . ?
C21 H21 0.9300 . ?
C20 H20 0.9300 . ?

loop_
_geom_angle_atom_site_label_1
_geom_angle_atom_site_label_2
_geom_angle_atom_site_label_3
_geom_angle
_geom_angle_site_symmetry_1
_geom_angle_site_symmetry_3
_geom_angle_publ_flag
O4 Zn1 O1 121.83(11) 3_445 . ?
O4 Zn1 N1 101.74(11) 3_445 . ?
O1 Zn1 N1 135.67(10) . . ?
O4 Zn1 O6 83.48(10) 3_445 . ?
O1 Zn1 O6 95.28(9) . . ?
N1 Zn1 O6 97.49(12) . . ?
O4 Zn1 N2 90.40(11) 3_445 . ?
O1 Zn1 N2 93.26(11) . . ?
N1 Zn1 N2 77.58(14) . . ?
O6 Zn1 N2 171.24(9) . . ?
O4 Zn1 O2 167.21(11) 3_445 . ?
O1 Zn1 O2 56.90(10) . . ?
N1 Zn1 O2 82.50(10) . . ?
O6 Zn1 O2 84.00(11) . . ?
N2 Zn1 O2 102.33(11) . . ?
C1 O1 Zn1 100.5(2) . . ?
C11 C10 C9 120.5(2) . . ?
C11 C10 C5 131.1(2) . . ?
C9 C10 C5 108.3(2) . . ?
Zn1 O6 H6B 103(4) . . ?
Zn1 O6 H6A 103(4) . . ?
H6B O6 H6A 112(3) . . ?
O3 C8 C9 127.8(2) . . ?
O3 C8 C4 127.4(2) . . ?
C9 C8 C4 104.8(2) . . ?
C6 C5 C4 120.6(2) . . ?
C6 C5 C10 130.5(3) . . ?
C4 C5 C10 108.9(2) . . ?
C14 C9 C10 121.1(3) . . ?
C14 C9 C8 129.5(3) . . ?
C10 C9 C8 109.3(2) . . ?
C3 C4 C5 122.2(2) . . ?
C3 C4 C8 129.2(3) . . ?
C5 C4 C8 108.6(2) . . ?
C15 O4 Zn1 128.0(2) . 3 ?
C14 C13 C12 119.9(2) . . ?
C14 C13 C15 120.0(3) . . ?
C12 C13 C15 120.1(3) . . ?
O2 C1 O1 121.3(3) . . ?
O2 C1 C2 119.7(3) . . ?
O1 C1 C2 119.0(3) . . ?
C9 C14 C13 118.5(3) . . ?
C9 C14 H14 120.7 . . ?
C13 C14 H14 120.7 . . ?
C4 C3 C2 117.3(3) . . ?
C4 C3 H3 121.4 . . ?
C2 C3 H3 121.4 . . ?
C7 C2 C3 120.4(2) . . ?
C7 C2 C1 119.9(3) . . ?
C3 C2 C1 119.7(3) . . ?
C5 C6 C7 117.7(3) . . ?
C5 C6 H6 121.2 . . ?
C7 C6 H6 121.2 . . ?
O5 C15 O4 124.7(3) . . ?
O5 C15 C13 119.6(3) . . ?
O4 C15 C13 115.7(3) . . ?
C16 N1 C27 119.5(4) . . ?
C16 N1 Zn1 125.9(3) . . ?
C27 N1 Zn1 114.6(3) . . ?
C2 C7 C6 121.8(3) . . ?
C2 C7 H7 119.1 . . ?
C6 C7 H7 119.1 . . ?
C10 C11 C12 118.4(3) . . ?
C10 C11 H11 120.8 . . ?
C12 C11 H11 120.8 . . ?
C1 O2 Zn1 81.3(2) . . ?
C25 N2 C26 118.3(4) . . ?
C25 N2 Zn1 129.4(3) . . ?
C26 N2 Zn1 112.1(3) . . ?
C11 C12 C13 121.4(3) . . ?
C11 C12 H12 119.3 . . ?
C13 C12 H12 119.3 . . ?
N1 C27 C19 122.5(5) . . ?
N1 C27 C26 117.8(3) . . ?
C19 C27 C26 119.7(4) . . ?
C23 C24 C25 119.6(6) . . ?
C23 C24 H24 120.2 . . ?
C25 C24 H24 120.2 . . ?
N2 C26 C22 122.7(5) . . ?
N2 C26 C27 117.5(3) . . ?
C22 C26 C27 119.8(4) . . ?
N1 C16 C17 121.8(5) . . ?
N1 C16 H16 119.1 . . ?
C17 C16 H16 119.1 . . ?
N2 C25 C24 122.3(5) . . ?
N2 C25 H25 118.8 . . ?
C24 C25 H25 118.8 . . ?
C18 C19 C27 117.0(5) . . ?
C18 C19 C20 125.2(5) . . ?
C27 C19 C20 117.8(6) . . ?
C18 C17 C16 117.6(6) . . ?
C18 C17 H17 121.2 . . ?
C16 C17 H17 121.2 . . ?
C17 C18 C19 121.6(5) . . ?
C17 C18 H18 119.2 . . ?
C19 C18 H18 119.2 . . ?
C24 C23 C22 119.9(5) . . ?
C24 C23 H23 120.0 . . ?
C22 C23 H23 120.0 . . ?
C23 C22 C26 117.2(5) . . ?
C23 C22 C21 124.1(5) . . ?
C26 C22 C21 118.6(6) . . ?
C20 C21 C22 120.8(5) . . ?
C20 C21 H21 119.6 . . ?
C22 C21 H21 119.6 . . ?
C21 C20 C19 123.1(5) . . ?
C21 C20 H20 118.4 . . ?
C19 C20 H20 118.4 . . ?

loop_
_geom_torsion_atom_site_label_1
_geom_torsion_atom_site_label_2
_geom_torsion_atom_site_label_3
_geom_torsion_atom_site_label_4
_geom_torsion
_geom_torsion_site_symmetry_1
_geom_torsion_site_symmetry_2
_geom_torsion_site_symmetry_3
_geom_torsion_site_symmetry_4
_geom_torsion_publ_flag
O4 Zn1 O1 C1 165.38(19) 3_445 . 