####################################################################### 
# 
# This file contains crystal structure data downloaded from the 
# Cambridge Structural Database (CSD) hosted by the Cambridge 
# Crystallographic Data Centre (CCDC).
# 
# Full information about CCDC data access policies and citation 
# guidelines are available at http://www.ccdc.cam.ac.uk/access/V1 
# 
# Audit and citation data items may have been added by the CCDC. 
# Please retain this information to preserve the provenance of 
# this file and to allow appropriate attribution of the data. 
# 
#######################################################################

data_99jb01
_audit_block_doi                 10.5517/cc5mtsc
_database_code_depnum_ccdc_archive 'CCDC 168013'
loop_
_citation_id
_citation_doi
_citation_year
1 10.1002/1099-0682(200208)2002:8<2094::AID-EJIC2094>3.0.CO;2-Z 2002
_audit_update_record             
;
2001-07-25 deposited with the CCDC.	2024-07-14 downloaded from the CCDC.
;

_audit_creation_method           SHELXL-97
_chemical_name_systematic        
; 
? 
;
_chemical_name_common            ?
_chemical_melting_point          ?
_chemical_formula_moiety         ?
_chemical_formula_sum            'C36 H34 Cu3 N4 O10 S2'
_chemical_formula_weight         937.41

loop_
_atom_type_symbol
_atom_type_description
_atom_type_scat_dispersion_real
_atom_type_scat_dispersion_imag
_atom_type_scat_source
Cu Cu -1.9646 0.5888 'International Tables Vol C Tables 4.2.6.8 and 6.1.1.4'
S S 0.3331 0.5567 'International Tables Vol C Tables 4.2.6.8 and 6.1.1.4'
O O 0.0492 0.0322 'International Tables Vol C Tables 4.2.6.8 and 6.1.1.4'
N N 0.0311 0.0180 'International Tables Vol C Tables 4.2.6.8 and 6.1.1.4'
C C 0.0181 0.0091 'International Tables Vol C Tables 4.2.6.8 and 6.1.1.4'
H H 0.0000 0.0000 'International Tables Vol C Tables 4.2.6.8 and 6.1.1.4'

_symmetry_cell_setting           Monoclinic
_symmetry_space_group_name_H-M   C2/c

loop_
_symmetry_equiv_pos_as_xyz
'x, y, z'
'-x, y, -z+1/2'
'x+1/2, y+1/2, z'
'-x+1/2, y+1/2, -z+1/2'
'-x, -y, -z'
'x, -y, z-1/2'
'-x+1/2, -y+1/2, -z'
'x+1/2, -y+1/2, z-1/2'

_cell_length_a                   29.3948(11)
_cell_length_b                   14.4396(7)
_cell_length_c                   10.7455(6)
_cell_angle_alpha                90.00
_cell_angle_beta                 108.826(4)
_cell_angle_gamma                90.00
_cell_volume                     4316.9(4)
_cell_formula_units_Z            4
_cell_measurement_temperature    293(2)
_cell_measurement_reflns_used    25
_cell_measurement_theta_min      16.039
_cell_measurement_theta_max      45.208

_exptl_crystal_description       plate
_exptl_crystal_colour            blue
_exptl_crystal_size_max          0.25
_exptl_crystal_size_mid          0.15
_exptl_crystal_size_min          0.10
_exptl_crystal_density_meas      ?
_exptl_crystal_density_diffrn    1.442
_exptl_crystal_density_method    'not measured'
_exptl_crystal_F_000             1908
_exptl_absorpt_coefficient_mu    3.089
_exptl_absorpt_correction_type   Psi-scans
_exptl_absorpt_correction_T_min  0.802
_exptl_absorpt_correction_T_max  0.979
_exptl_absorpt_process_details   North,

_exptl_special_details           
; 
? 
;

_diffrn_ambient_temperature      293(2)
_diffrn_radiation_wavelength     1.54184
_diffrn_radiation_type           CuK\a
_diffrn_radiation_source         'fine-focus sealed tube'
_diffrn_radiation_monochromator  graphite
_diffrn_measurement_device_type  CAD4
_diffrn_measurement_method       omega
_diffrn_detector_area_resol_mean ?
_diffrn_standards_number         3
_diffrn_standards_interval_count ?
_diffrn_standards_interval_time  120
_diffrn_standards_decay_%        none
_diffrn_reflns_number            5099
_diffrn_reflns_av_R_equivalents  0.1316
_diffrn_reflns_av_sigmaI/netI    0.1187
_diffrn_reflns_limit_h_min       -33
_diffrn_reflns_limit_h_max       37
_diffrn_reflns_limit_k_min       -17
_diffrn_reflns_limit_k_max       0
_diffrn_reflns_limit_l_min       -13
_diffrn_reflns_limit_l_max       9
_diffrn_reflns_theta_min         3.18
_diffrn_reflns_theta_max         77.78
_reflns_number_total             4056
_reflns_number_gt                2297
_reflns_threshold_expression     >2sigma(I)

_computing_data_collection       'CAD4-Express Software (Nonius, 1994)'
_computing_cell_refinement       'CAD4-Express Software (Nonius, 1994)'
_computing_data_reduction        'GENHKL (Kretschmar, 1997)'
_computing_structure_solution    'SHELXS-97 (Sheldrick, 1990)'
_computing_structure_refinement  'SHELXL-97 (Sheldrick, 1997)'
_computing_molecular_graphics    'ZORTEP (Zsolnai, 1997)'
_computing_publication_material  'SHELXL-97 (Sheldrick, 1997)'

_refine_special_details          
; 
Refinement of F^2^ against ALL reflections.  The weighted R-factor wR and 
goodness of fit S are based on F^2^, conventional R-factors R are based 
on F, with F set to zero for negative F^2^. The threshold expression of 
F^2^ > 2sigma(F^2^) is used only for calculating R-factors(gt) etc. and is 
not relevant to the choice of reflections for refinement.  R-factors based 
on F^2^ are statistically about twice as large as those based on F, and R- 
factors based on ALL data will be even larger. 
;

_refine_ls_structure_factor_coef Fsqd
_refine_ls_matrix_type           full
_refine_ls_weighting_scheme      calc
_refine_ls_weighting_details     
'calc w=1/[\s^2^(Fo^2^)+(0.2000P)^2^+0.0000P] where P=(Fo^2^+2Fc^2^)/3'
_atom_sites_solution_primary     direct
_atom_sites_solution_secondary   difmap
_atom_sites_solution_hydrogens   geom
_refine_ls_hydrogen_treatment    noref
_refine_ls_extinction_method     none
_refine_ls_extinction_coef       ?
_refine_ls_number_reflns         4056
_refine_ls_number_parameters     251
_refine_ls_number_restraints     0
_refine_ls_R_factor_all          0.1242
_refine_ls_R_factor_gt           0.0515
_refine_ls_wR_factor_ref         0.2162
_refine_ls_wR_factor_gt          0.1715
_refine_ls_goodness_of_fit_ref   0.970
_refine_ls_restrained_S_all      0.970
_refine_ls_shift/su_max          0.000
_refine_ls_shift/su_mean         0.000

loop_
_atom_site_label
_atom_site_type_symbol
_atom_site_fract_x
_atom_site_fract_y
_atom_site_fract_z
_atom_site_U_iso_or_equiv
_atom_site_adp_type
_atom_site_occupancy
_atom_site_symmetry_multiplicity
_atom_site_calc_flag
_atom_site_refinement_flags
_atom_site_disorder_assembly
_atom_site_disorder_group
Cu1 Cu 0.29926(6) 0.56252(10) 0.12524(17) 0.0403(5) Uani 1 1 d . . .
Cu2 Cu 0.2500 0.7500 0.0000 0.0405(6) Uani 1 2 d S . .
S1 S 0.23062(10) 0.49864(19) 0.2953(3) 0.0412(7) Uani 1 1 d . . .
O1 O 0.2756(3) 0.6810(5) 0.1557(8) 0.0446(18) Uani 1 1 d . . .
H1' H 0.2767 0.7022 0.2384 0.054 Uiso 1 1 calc R . .
O11 O 0.2387(3) 0.4351(5) 0.4050(7) 0.049(2) Uani 1 1 d . . .
O12 O 0.2332(3) 0.5955(5) 0.3261(8) 0.0471(19) Uani 1 1 d . . .
O21 O 0.3494(3) 0.6252(6) 0.0693(11) 0.061(2) Uani 1 1 d . . .
O22 O 0.3138(3) 0.7535(6) -0.0304(9) 0.053(2) Uani 1 1 d . . .
N1 N 0.3258(4) 0.4410(6) 0.0851(10) 0.047(2) Uani 1 1 d . . .
N2 N 0.2656(4) 0.4770(6) 0.2118(9) 0.046(2) Uani 1 1 d . . .
C1 C 0.3568(6) 0.4287(10) 0.0206(18) 0.074(5) Uani 1 1 d . . .
H1 H 0.3699 0.4809 -0.0056 0.089 Uiso 1 1 calc R . .
C2 C 0.3704(6) 0.3457(12) -0.009(2) 0.096(6) Uani 1 1 d . . .
H2 H 0.3918 0.3410 -0.0564 0.116 Uiso 1 1 calc R . .
C3 C 0.3532(7) 0.2695(12) 0.029(2) 0.090(6) Uani 1 1 d . . .
H3 H 0.3640 0.2115 0.0140 0.108 Uiso 1 1 calc R . .
C4 C 0.3198(6) 0.2772(9) 0.0913(16) 0.069(4) Uani 1 1 d . . .
H4 H 0.3068 0.2244 0.1161 0.083 Uiso 1 1 calc R . .
C5 C 0.3052(4) 0.3644(8) 0.1171(11) 0.046(3) Uani 1 1 d . . .
C6 C 0.2666(5) 0.3808(9) 0.1776(14) 0.059(3) Uani 1 1 d . . .
H6A H 0.2357 0.3633 0.1159 0.071 Uiso 1 1 calc R . .
H6B H 0.2725 0.3429 0.2557 0.071 Uiso 1 1 calc R . .
C7 C 0.1705(4) 0.4728(8) 0.1920(11) 0.044(2) Uani 1 1 d . . .
C8 C 0.1446(4) 0.4057(9) 0.2249(11) 0.048(3) Uani 1 1 d . . .
H8 H 0.1577 0.3719 0.3019 0.058 Uiso 1 1 calc R . .
C9 C 0.0975(4) 0.3873(8) 0.1412(12) 0.047(3) Uani 1 1 d . . .
C10 C 0.0694(5) 0.3159(11) 0.1698(16) 0.068(4) Uani 1 1 d . . .
H10 H 0.0824 0.2798 0.2446 0.081 Uiso 1 1 calc R . .
C11 C 0.0238(6) 0.2991(15) 0.090(2) 0.092(6) Uani 1 1 d . . .
H11 H 0.0049 0.2547 0.1120 0.110 Uiso 1 1 calc R . .
C12 C 0.0058(6) 0.3497(14) -0.027(2) 0.090(6) Uani 1 1 d . . .
H12 H -0.0244 0.3353 -0.0851 0.108 Uiso 1 1 calc R . .
C13 C 0.0315(5) 0.4191(12) -0.0563(18) 0.076(4) Uani 1 1 d . . .
H13 H 0.0181 0.4544 -0.1317 0.091 Uiso 1 1 calc R . .
C14 C 0.0785(5) 0.4381(9) 0.0269(14) 0.056(3) Uani 1 1 d . . .
C15 C 0.1064(5) 0.5080(12) -0.0025(16) 0.074(4) Uani 1 1 d . . .
H15 H 0.0932 0.5437 -0.0776 0.089 Uiso 1 1 calc R . .
C16 C 0.1530(5) 0.5255(9) 0.0770(14) 0.060(4) Uani 1 1 d . . .
H16 H 0.1718 0.5703 0.0550 0.072 Uiso 1 1 calc R . .
C20 C 0.3477(4) 0.6977(9) 0.0070(14) 0.055(3) Uani 1 1 d . . .
C21 C 0.3898(5) 0.7202(12) -0.0361(19) 0.083(5) Uani 1 1 d . . .
H21A H 0.4187 0.7181 0.0384 0.125 Uiso 1 1 calc R . .
H21B H 0.3859 0.7811 -0.0738 0.125 Uiso 1 1 calc R . .
H21C H 0.3920 0.6758 -0.1005 0.125 Uiso 1 1 calc R . .

loop_
_atom_site_aniso_label
_atom_site_aniso_U_11
_atom_site_aniso_U_22
_atom_site_aniso_U_33
_atom_site_aniso_U_23
_atom_site_aniso_U_13
_atom_site_aniso_U_12
Cu1 0.0404(9) 0.0301(8) 0.0526(10) 0.0040(7) 0.0182(7) 0.0010(6)
Cu2 0.0435(13) 0.0325(12) 0.0461(13) 0.0028(9) 0.0152(10) -0.0006(9)
S1 0.0503(15) 0.0367(13) 0.0373(13) 0.0009(11) 0.0149(12) -0.0030(11)
O1 0.055(5) 0.027(4) 0.054(4) -0.003(3) 0.021(4) 0.001(3)
O11 0.055(5) 0.048(5) 0.039(4) 0.005(4) 0.009(4) -0.007(4)
O12 0.056(5) 0.039(4) 0.050(4) -0.012(4) 0.022(4) 0.005(4)
O21 0.045(5) 0.039(4) 0.105(8) 0.016(5) 0.031(5) 0.000(4)
O22 0.037(4) 0.058(5) 0.070(6) 0.012(4) 0.027(4) 0.005(4)
N1 0.054(6) 0.034(5) 0.060(6) 0.005(4) 0.026(5) 0.001(4)
N2 0.054(6) 0.037(5) 0.045(5) -0.001(4) 0.015(5) -0.005(4)
C1 0.091(11) 0.047(8) 0.107(13) 0.002(8) 0.062(10) 0.016(7)
C2 0.090(13) 0.073(11) 0.157(19) -0.008(12) 0.084(13) 0.022(9)
C3 0.096(13) 0.068(11) 0.128(16) -0.011(11) 0.068(12) 0.008(9)
C4 0.088(11) 0.034(6) 0.085(10) 0.010(7) 0.027(9) 0.003(7)
C5 0.049(6) 0.039(6) 0.045(6) 0.004(5) 0.009(5) -0.007(5)
C6 0.072(9) 0.050(7) 0.059(8) 0.008(6) 0.027(7) -0.012(6)
C7 0.049(6) 0.046(6) 0.038(6) -0.002(5) 0.017(5) 0.003(5)
C8 0.055(7) 0.053(7) 0.036(6) 0.001(5) 0.016(5) -0.007(5)
C9 0.044(6) 0.050(7) 0.059(7) -0.004(6) 0.031(5) 0.000(5)
C10 0.047(7) 0.070(9) 0.088(10) 0.008(8) 0.024(7) -0.025(7)
C11 0.057(9) 0.107(15) 0.112(14) -0.018(12) 0.029(10) -0.034(9)
C12 0.045(8) 0.118(16) 0.105(14) -0.023(13) 0.020(9) -0.009(9)
C13 0.041(7) 0.093(12) 0.089(11) 0.002(10) 0.013(7) 0.007(7)
C14 0.052(7) 0.048(7) 0.062(8) -0.005(6) 0.009(6) 0.004(6)
C15 0.065(9) 0.088(11) 0.065(9) 0.026(9) 0.014(8) 0.016(8)
C16 0.052(7) 0.050(7) 0.074(9) 0.024(7) 0.014(7) -0.001(6)
C20 0.042(6) 0.054(8) 0.066(8) -0.011(6) 0.013(6) -0.012(6)
C21 0.062(9) 0.077(11) 0.109(14) 0.006(10) 0.026(9) -0.004(8)

_geom_special_details            
; 
All esds (except the esd in the dihedral angle between two l.s. planes) 
are estimated using the full covariance matrix.  The cell esds are taken 
into account individually in the estimation of esds in distances, angles 
and torsion angles; correlations between esds in cell parameters are only 
used when they are defined by crystal symmetry.  An approximate (isotropic) 
treatment of cell esds is used for estimating esds involving l.s. planes. 
;

loop_
_geom_bond_atom_site_label_1
_geom_bond_atom_site_label_2
_geom_bond_distance
_geom_bond_site_symmetry_2
_geom_bond_publ_flag
Cu1 O1 1.914(7) . y
Cu1 O21 1.981(8) . y
Cu1 N2 1.991(9) . y
Cu1 N1 2.022(10) . y
Cu1 O11 2.460(8) 6_565 y
Cu1 Cu2 3.1589(15) . y
Cu1 Cu1 6.318(3) 7_565 ?
Cu2 O1 1.883(8) 7_565 y
Cu2 O1 1.883(8) . y
Cu2 O22 2.005(7) 7_565 y
Cu2 O22 2.005(7) . y
Cu2 Cu1 3.1589(15) 7_565 ?
S1 O12 1.434(8) . ?
S1 O11 1.452(8) . ?
S1 N2 1.599(10) . ?
S1 C7 1.798(12) . ?
O1 H1' 0.9300 . ?
O21 C20 1.235(15) . ?
O22 C20 1.243(15) . ?
N1 C1 1.324(17) . ?
N1 C5 1.357(14) . ?
N2 C6 1.439(15) . ?
C1 C2 1.334(18) . ?
C1 H1 0.9300 . ?
C2 C3 1.33(2) . ?
C2 H2 0.9300 . ?
C3 C4 1.36(2) . ?
C3 H3 0.9300 . ?
C4 C5 1.386(17) . ?
C4 H4 0.9300 . ?
C5 C6 1.499(17) . ?
C6 H6A 0.9700 . ?
C6 H6B 0.9700 . ?
C7 C8 1.346(16) . ?
C7 C16 1.401(16) . ?
C8 C9 1.412(17) . ?
C8 H8 0.9300 . ?
C9 C14 1.384(18) . ?
C9 C10 1.415(16) . ?
C10 C11 1.36(2) . ?
C10 H10 0.9300 . ?
C11 C12 1.40(3) . ?
C11 H11 0.9300 . ?
C12 C13 1.35(2) . ?
C12 H12 0.9300 . ?
C13 C14 1.411(19) . ?
C13 H13 0.9300 . ?
C14 C15 1.40(2) . ?
C15 C16 1.383(19) . ?
C15 H15 0.9300 . ?
C16 H16 0.9300 . ?
C20 C21 1.491(19) . ?
C21 H21A 0.9600 . ?
C21 H21B 0.9600 . ?
C21 H21C 0.9600 . ?

loop_
_geom_angle_atom_site_label_1
_geom_angle_atom_site_label_2
_geom_angle_atom_site_label_3
_geom_angle
_geom_angle_site_symmetry_1
_geom_angle_site_symmetry_3
_geom_angle_publ_flag
O1 Cu1 O21 89.4(3) . . y
O1 Cu1 N2 102.3(4) . . y
O21 Cu1 N2 162.9(4) . . y
O1 Cu1 N1 176.6(4) . . y
O21 Cu1 N1 87.5(4) . . y
N2 Cu1 N1 81.1(4) . . y
O1 Cu1 O11 87.8(3) . 6_565 y
O21 Cu1 O11 94.6(4) . 6_565 y
N2 Cu1 O11 98.3(3) . 6_565 y
N1 Cu1 O11 90.9(4) . 6_565 y
O1 Cu2 O1 180.0(4) 7_565 . y
O1 Cu2 O22 91.8(3) 7_565 7_565 y
O1 Cu2 O22 88.2(3) . 7_565 y
O1 Cu2 O22 88.2(3) 7_565 . y
O1 Cu2 O22 91.8(3) . . y
O22 Cu2 O22 180.00(7) 7_565 . y
Cu1 Cu2 Cu1 180.0 7_565 . y
O12 S1 O11 116.5(5) . . ?
O12 S1 N2 108.9(5) . . ?
O11 S1 N2 111.5(5) . . ?
O12 S1 C7 108.3(5) . . ?
O11 S1 C7 103.9(5) . . ?
N2 S1 C7 107.2(5) . . ?
Cu2 O1 Cu1 112.6(4) . . ?
Cu2 O1 H1 123.7 . . ?
Cu1 O1 H1 123.7 . . ?
C20 O21 Cu1 130.3(8) . . ?
C20 O22 Cu2 128.7(8) . . ?
C1 N1 C5 117.4(11) . . ?
C1 N1 Cu1 127.3(9) . . ?
C5 N1 Cu1 114.8(8) . . ?
C6 N2 S1 113.7(8) . . ?
C6 N2 Cu1 115.1(8) . . ?
S1 N2 Cu1 130.3(6) . . ?
N1 C1 C2 123.7(15) . . ?
N1 C1 H1 118.1 . . ?
C2 C1 H1 118.1 . . ?
C3 C2 C1 119.7(16) . . ?
C3 C2 H2 120.2 . . ?
C1 C2 H2 120.2 . . ?
C2 C3 C4 119.6(16) . . ?
C2 C3 H3 120.2 . . ?
C4 C3 H3 120.2 . . ?
C3 C4 C5 119.4(14) . . ?
C3 C4 H4 120.3 . . ?
C5 C4 H4 120.3 . . ?
N1 C5 C4 119.9(12) . . ?
N1 C5 C6 116.2(11) . . ?
C4 C5 C6 123.9(12) . . ?
N2 C6 C5 110.2(10) . . ?
N2 C6 H6A 109.6 . . ?
C5 C6 H6A 109.6 . . ?
N2 C6 H6B 109.6 . . ?
C5 C6 H6B 109.6 . . ?
H6A C6 H6B 108.1 . . ?
C8 C7 C16 123.0(11) . . ?
C8 C7 S1 120.9(9) . . ?
C16 C7 S1 116.1(9) . . ?
C7 C8 C9 119.2(12) . . ?
C7 C8 H8 120.4 . . ?
C9 C8 H8 120.4 . . ?
C14 C9 C8 119.8(11) . . ?
C14 C9 C10 118.8(12) . . ?
C8 C9 C10 121.3(12) . . ?
C11 C10 C9 121.1(16) . . ?
C11 C10 H10 119.4 . . ?
C9 C10 H10 119.4 . . ?
C10 C11 C12 119.0(17) . . ?
C10 C11 H11 120.5 . . ?
C12 C11 H11 120.5 . . ?
C13 C12 C11 121.3(17) . . ?
C13 C12 H12 119.3 . . ?
C11 C12 H12 119.3 . . ?
C12 C13 C14 120.1(17) . . ?
C12 C13 H13 119.9 . . ?
C14 C13 H13 119.9 . . ?
C9 C14 C15 119.0(12) . . ?
C9 C14 C13 119.5(14) . . ?
C15 C14 C13 121.5(14) . . ?
C16 C15 C14 121.8(13) . . ?
C16 C15 H15 119.1 . . ?
C14 C15 H15 119.1 . . ?
C15 C16 C7 117.0(12) . . ?
C15 C16 H16 121.5 . . ?
C7 C16 H16 121.5 . . ?
O21 C20 O22 127.8(12) . . ?
O21 C20 C21 117.4(13) . . ?
O22 C20 C21 114.7(13) . . ?
C20 C21 H21A 109.5 . . ?
C20 C21 H21B 109.5 . . ?
H21A C21 H21B 109.5 . . ?
C20 C21 H21C 109.5 . . ?
H21A C21 H21C 109.5 . . ?
H21B C21 H21C 109.5 . . ?

loop_
_geom_torsion_atom_site_label_1
_geom_torsion_atom_site_label_2
_geom_torsion_atom_site_label_3
_geom_torsion_atom_site_label_4
_geom_torsion
_geom_torsion_site_symmetry_1
_geom_torsion_site_symmetry_2
_geom_torsion_site_symmetry_3
_geom_torsion_site_symmetry_4
_geom_torsion_publ_flag
O1 Cu1 Cu2 O1 180.000(1) . . . 7_565 ?
O21 Cu1 Cu2 O1 69.4(5) . . . 7_565 ?
N2 Cu1 Cu2 O1 -115.8(5) . . . 7_565 ?
N1 Cu1 Cu2 O1 3.7(6) . . . 7_565 ?
O11 Cu1 Cu2 O1 -34.6(5) 6_565 . . 7_565 ?
Cu1 Cu1 Cu2 O1 -78(100) 7_565 . . 7_565 ?
O21 Cu1 Cu2 O1 -110.6(5) . . . . ?
N2 Cu1 Cu2 O1 64.2(5) . . . . ?
N1 Cu1 Cu2 O1 -176.3(6) . . . . ?
O11 Cu1 Cu2 O1 145.4(5) 6_565 . . . ?
Cu1 Cu1 Cu2 O1 102(100) 7_565 . . . ?
O1 Cu1 Cu2 O22 -65.7(5) . . . 7_565 ?
O21 Cu1 Cu2 O22 -176.3(4) . . . 7_565 ?
N2 Cu1 Cu2 O22 -1.5(4) . . . 7_565 ?
N1 Cu1 Cu2 O22 118.1(6) . . . 7_565 ?
O11 Cu1 Cu2 O22 79.8(4) 6_565 . . 7_565 ?
Cu1 Cu1 Cu2 O22 37(100) 7_565 . . 7_565 ?
O1 Cu1 Cu2 O22 114.3(5) . . . . ?
O21 Cu1 Cu2 O22 3.7(4) . . . . ?
N2 Cu1 Cu2 O22 178.5(4) . . . . ?
N1 Cu1 Cu2 O22 -61.9(6) . . . . ?
O11 Cu1 Cu2 O22 -100.2(4) 6_565 . . . ?
Cu1 Cu1 Cu2 O22 -143(100) 7_565 . . . ?
O1 Cu1 Cu2 Cu1 -102(100) . . . 7_565 ?
O21 Cu1 Cu2 Cu1 147(100) . . . 7_565 ?
N2 Cu1 Cu2 Cu1 -38(100) . . . 7_565 ?
N1 Cu1 Cu2 Cu1 81(100) . . . 7_565 ?
O11 Cu1 Cu2 Cu1 43(100) 6_565 . . 7_565 ?
O1 Cu2 O1 Cu1 28(100) 7_565 . . . ?
O22 Cu2 O1 Cu1 117.6(4) 7_565 . . . ?
O22 Cu2 O1 Cu1 -62.4(4) . . . . ?
Cu1 Cu2 O1 Cu1 180.000(1) 7_565 . . . ?
O21 Cu1 O1 Cu2 65.4(5) . . . . ?
N2 Cu1 O1 Cu2 -127.2(4) . . . . ?
N1 Cu1 O1 Cu2 40(7) . . . . ?
O11 Cu1 O1 Cu2 -29.2(4) 6_565 . . . ?
Cu1 Cu1 O1 Cu2 0.000(1) 7_565 . . . ?
O1 Cu1 O21 C20 -36.5(12) . . . . ?
N2 Cu1 O21 C20 -170.1(13) . . . . ?
N1 Cu1 O21 C20 142.0(13) . . . . ?
O11 Cu1 O21 C20 51.2(12) 6_565 . . . ?
Cu2 Cu1 O21 C20 -5.5(12) . . . . ?
Cu1 Cu1 O21 C20 -5.5(12) 7_565 . . . ?
O1 Cu2 O22 C20 -153.6(11) 7_565 . . . ?
O1 Cu2 O22 C20 26.4(11) . . . . ?
O22 Cu2 O22 C20 0(100) 7_565 . . . ?
Cu1 Cu2 O22 C20 175.8(11) 7_565 . . . ?
Cu1 Cu2 O22 C20 -4.2(11) . . . . ?
O1 Cu1 N1 C1 14(7) . . . . ?
O21 Cu1 N1 C1 -12.1(14) . . . . ?
N2 Cu1 N1 C1 -179.3(14) . . . . ?
O11 Cu1 N1 C1 82.4(14) 6_565 . . . ?
Cu2 Cu1 N1 C1 50.3(15) . . . . ?
Cu1 Cu1 N1 C1 50.3(15) 7_565 . . . ?
O1 Cu1 N1 C5 -159(6) . . . . ?
O21 Cu1 N1 C5 175.1(9) . . . . ?
N2 Cu1 N1 C5 7.9(9) . . . . ?
O11 Cu1 N1 C5 -90.4(9) 6_565 . . . ?
Cu2 Cu1 N1 C5 -122.5(7) . . . . ?
Cu1 Cu1 N1 C5 -122.5(7) 7_565 . . . ?
O12 S1 N2 C6 178.8(9) . . . . ?
O11 S1 N2 C6 48.8(10) . . . . ?
C7 S1 N2 C6 -64.2(10) . . . . ?
O12 S1 N2 Cu1 -12.1(9) . . . . ?
O11 S1 N2 Cu1 -142.1(7) . . . . ?
C7 S1 N2 Cu1 104.9(8) . . . . ?
O1 Cu1 N2 C6 165.0(9) . . . . ?
O21 Cu1 N2 C6 -62.9(18) . . . . ?
N1 Cu1 N2 C6 -14.2(9) . . . . ?
O11 Cu1 N2 C6 75.4(9) 6_565 . . . ?
Cu2 Cu1 N2 C6 134.5(8) . . . . ?
Cu1 Cu1 N2 C6 134.5(8) 7_565 . . . ?
O1 Cu1 N2 S1 -4.0(8) . . . . ?
O21 Cu1 N2 S1 