####################################################################### 
# 
# This file contains crystal structure data downloaded from the 
# Cambridge Structural Database (CSD) hosted by the Cambridge 
# Crystallographic Data Centre (CCDC).
# 
# Full information about CCDC data access policies and citation 
# guidelines are available at http://www.ccdc.cam.ac.uk/access/V1 
# 
# Audit and citation data items may have been added by the CCDC. 
# Please retain this information to preserve the provenance of 
# this file and to allow appropriate attribution of the data. 
# 
#######################################################################

data_c2c
_audit_block_doi                 10.5517/cc12wt0s
_database_code_depnum_ccdc_archive 'CCDC 1009825'
loop_
_citation_id
_citation_doi
_citation_year
1 10.1016/j.inoche.2014.09.010 2014
_audit_update_record             
;
2014-06-23 deposited with the CCDC.	2024-07-14 downloaded from the CCDC.
;

_audit_creation_method           SHELXL-2014
_chemical_name_systematic        Cu-m-TCPB
_chemical_name_common            ?
_chemical_melting_point          'not measured'
_chemical_formula_sum            'C17 H11 Cu O5'
_chemical_formula_weight         358.80

loop_
_atom_type_symbol
_atom_type_description
_atom_type_scat_dispersion_real
_atom_type_scat_dispersion_imag
_atom_type_scat_source
C C 0.0015 0.0009 'International Tables Vol C Tables 4.2.6.8 and 6.1.1.4'
H H 0.0000 0.0000 'International Tables Vol C Tables 4.2.6.8 and 6.1.1.4'
O O 0.0056 0.0036 'International Tables Vol C Tables 4.2.6.8 and 6.1.1.4'
Cu Cu 0.3240 0.8257 'International Tables Vol C Tables 4.2.6.8 and 6.1.1.4'

_space_group_crystal_system      monoclinic
_space_group_IT_number           15
_space_group_name_H-M_alt        'C 2/c'
_space_group_name_Hall           '-C 2yc'

_shelx_space_group_comment       
;
The symmetry employed for this shelxl refinement is uniquely defined
by the following loop, which should always be used as a source of
symmetry information in preference to the above space-group names.
They are only intended as comments.
;

loop_
_space_group_symop_operation_xyz
'x, y, z'
'-x, y, -z+1/2'
'x+1/2, y+1/2, z'
'-x+1/2, y+1/2, -z+1/2'
'-x, -y, -z'
'x, -y, z-1/2'
'-x+1/2, -y+1/2, -z'
'x+1/2, -y+1/2, z-1/2'

_cell_length_a                   17.714(7)
_cell_length_b                   12.567(5)
_cell_length_c                   25.643(9)
_cell_angle_alpha                90
_cell_angle_beta                 93.440(6)
_cell_angle_gamma                90
_cell_volume                     5698(4)
_cell_formula_units_Z            8
_cell_measurement_temperature    100(2)
_cell_measurement_reflns_used    9554
_cell_measurement_theta_min      2.18
_cell_measurement_theta_max      10.96

_exptl_crystal_description       block
_exptl_crystal_colour            blue
_exptl_crystal_density_meas      ?
_exptl_crystal_density_method    'not measured'
_exptl_crystal_density_diffrn    0.836
_exptl_crystal_F_000             1456
_exptl_transmission_factor_min   ?
_exptl_transmission_factor_max   ?
_exptl_crystal_size_max          0.08
_exptl_crystal_size_mid          0.06
_exptl_crystal_size_min          0.05
_exptl_absorpt_coefficient_mu    0.172
_shelx_estimated_absorpt_T_min   ?
_shelx_estimated_absorpt_T_max   ?
_exptl_absorpt_correction_type   multi-scan
_exptl_absorpt_correction_T_min  0.9850
_exptl_absorpt_correction_T_max  0.9902
_exptl_absorpt_process_details   sadabs

_exptl_special_details           
;
 ?
;

_diffrn_ambient_temperature      100(2)
_diffrn_radiation_wavelength     0.40663
_diffrn_radiation_type           'synchrotron radiation'
_diffrn_source                   15ID-C
_diffrn_measurement_device_type  'SMART APEXII CCD area detector'
_diffrn_measurement_method       omega
_diffrn_detector_area_resol_mean ?
_diffrn_reflns_number            33107
_diffrn_reflns_av_unetI/netI     0.0843
_diffrn_reflns_av_R_equivalents  0.3000
_diffrn_reflns_limit_h_min       -16
_diffrn_reflns_limit_h_max       16
_diffrn_reflns_limit_k_min       -11
_diffrn_reflns_limit_k_max       11
_diffrn_reflns_limit_l_min       -23
_diffrn_reflns_limit_l_max       23
_diffrn_reflns_theta_min         1.137
_diffrn_reflns_theta_max         11.011
_diffrn_reflns_theta_full        11.011
_diffrn_measured_fraction_theta_max 0.994
_diffrn_measured_fraction_theta_full 0.995
_diffrn_reflns_Laue_measured_fraction_max 0.994
_diffrn_reflns_Laue_measured_fraction_full 0.995
_diffrn_reflns_point_group_measured_fraction_max 0.994
_diffrn_reflns_point_group_measured_fraction_full 0.995
_reflns_number_total             2465
_reflns_number_gt                2113
_reflns_threshold_expression     'I > 2\s(I)'
_reflns_Friedel_coverage         0.000
_reflns_Friedel_fraction_max     .
_reflns_Friedel_fraction_full    .

_reflns_special_details          
;
 Reflections were merged by SHELXL according to the crystal
 class for the calculation of statistics and refinement.
 
 _reflns_Friedel_fraction is defined as the number of unique
 Friedel pairs measured divided by the number that would be
 possible theoretically, ignoring centric projections and
 systematic absences.
;

_computing_data_collection       'Bruker APEX2 Version 1.0-27 (Bruker, 2004)'
_computing_cell_refinement       'Bruker SAINT version 7.12A (Bruker, 2004)'
_computing_data_reduction        'Bruker SAINT'
_computing_structure_refinement  'SHELXL-2014 (Sheldrick, 2014)'
_computing_molecular_graphics    ?
_computing_publication_material  ?

_refine_special_details          SQUEEZE
_refine_ls_structure_factor_coef Fsqd
_refine_ls_matrix_type           full
_refine_ls_weighting_scheme      calc
_refine_ls_weighting_details     
'w=1/[\s^2^(Fo^2^)+(0.1079P)^2^+155.2611P] where P=(Fo^2^+2Fc^2^)/3'
_atom_sites_solution_primary     direct
_atom_sites_solution_secondary   difmap
_atom_sites_solution_hydrogens   geom
_refine_ls_hydrogen_treatment    mixed
_refine_ls_extinction_method     none
_refine_ls_extinction_coef       .
_refine_ls_number_reflns         2465
_refine_ls_number_parameters     212
_refine_ls_number_restraints     36
_refine_ls_R_factor_all          0.1297
_refine_ls_R_factor_gt           0.1194
_refine_ls_wR_factor_ref         0.2953
_refine_ls_wR_factor_gt          0.2890
_refine_ls_goodness_of_fit_ref   1.074
_refine_ls_restrained_S_all      1.079
_refine_ls_shift/su_max          0.000
_refine_ls_shift/su_mean         0.000

loop_
_atom_site_label
_atom_site_type_symbol
_atom_site_fract_x
_atom_site_fract_y
_atom_site_fract_z
_atom_site_U_iso_or_equiv
_atom_site_adp_type
_atom_site_occupancy
_atom_site_site_symmetry_order
_atom_site_calc_flag
_atom_site_refinement_flags_posn
_atom_site_refinement_flags_adp
_atom_site_refinement_flags_occupancy
_atom_site_disorder_assembly
_atom_site_disorder_group
Cu1 Cu 0.82189(9) 0.22490(15) 0.50327(6) 0.0544(8) Uani 1 1 d . . . . .
O1 O 0.8354(5) 0.3451(7) 0.5514(3) 0.046(2) Uani 1 1 d . U . . .
O2 O 0.7059(5) 0.3904(7) 0.5462(3) 0.055(2) Uani 1 1 d . U . . .
O3 O 0.8286(4) 0.6773(7) 0.9428(3) 0.053(3) Uani 1 1 d . . . . .
O4 O 0.7004(5) 0.6328(7) 0.9383(3) 0.053(2) Uani 1 1 d . U . . .
O5 O 0.9447(6) 0.1910(8) 0.5074(5) 0.086(3) Uani 1 1 d . . . . .
C1 C 0.9342(7) 0.5377(13) 0.7180(5) 0.060(4) Uani 1 1 d . . . . .
C2 C 0.9328(8) 0.5388(12) 0.7744(5) 0.060(4) Uani 1 1 d . . . . .
C3 C 1.0012(9) 0.5380(13) 0.6949(5) 0.067(5) Uani 1 1 d . . . . .
H3 H 1.0023 0.5376 0.6586 0.080 Uiso 1 1 calc R U . . .
C4 C 0.8634(10) 0.5504(14) 0.6821(5) 0.074(5) Uani 1 1 d . . . . .
C5 C 0.8520(9) 0.4742(13) 0.6389(5) 0.065(4) Uani 1 1 d . . . . .
H5 H 0.8882 0.4226 0.6332 0.080 Uiso 1 1 calc R U . . .
C6 C 0.7869(9) 0.4806(14) 0.6073(5) 0.064(4) Uani 1 1 d . . . . .
C7 C 0.7363(9) 0.5676(18) 0.6144(6) 0.089(6) Uani 1 1 d . . . . .
H7 H 0.6945 0.5745 0.5910 0.080 Uiso 1 1 calc R U . . .
C8 C 0.7457(10) 0.6393(16) 0.6526(7) 0.078(5) Uani 1 1 d . U . . .
H8 H 0.711(5) 0.691(7) 0.645(3) 0.01(3) Uiso 1 1 d . . . . .
C9 C 0.8084(9) 0.6307(15) 0.6888(6) 0.076(5) Uani 1 1 d . . . . .
H9 H 0.8137 0.6773 0.7169 0.080 Uiso 1 1 calc R U . . .
C10 C 0.8545(8) 0.5282(13) 0.8011(5) 0.057(4) Uani 1 1 d . . . . .
C11 C 0.8473(8) 0.5752(13) 0.8445(6) 0.068(5) Uani 1 1 d . . . . .
H11 H 0.8872 0.6163 0.8587 0.080 Uiso 1 1 calc R U . . .
C12 C 0.7800(9) 0.5670(14) 0.8723(6) 0.075(5) Uani 1 1 d . . . . .
C13 C 0.7230(9) 0.4984(14) 0.8523(5) 0.069(5) Uani 1 1 d . . . . .
H13 H 0.6777 0.4923 0.8685 0.080 Uiso 1 1 calc R U . . .
C14 C 0.7352(9) 0.4422(14) 0.8096(6) 0.078(5) Uani 1 1 d . U . . .
H14 H 0.6981 0.3947 0.7972 0.080 Uiso 1 1 calc R U . . .
C15 C 0.8017(9) 0.4514(14) 0.7823(7) 0.085(6) Uani 1 1 d . . . . .
H15 H 0.8102 0.4091 0.7535 0.080 Uiso 1 1 calc R U . . .
C16 C 0.7729(10) 0.3976(15) 0.5648(5) 0.074(5) Uani 1 1 d . . . . .
C17 C 0.7685(9) 0.6313(12) 0.9245(5) 0.061(4) Uani 1 1 d . U . . .

loop_
_atom_site_aniso_label
_atom_site_aniso_U_11
_atom_site_aniso_U_22
_atom_site_aniso_U_33
_atom_site_aniso_U_23
_atom_site_aniso_U_13
_atom_site_aniso_U_12
Cu1 0.0454(11) 0.0860(15) 0.0329(11) -0.0126(9) 0.0101(7) -0.0067(9)
O1 0.034(5) 0.076(6) 0.027(4) -0.012(4) -0.005(4) -0.027(4)
O2 0.029(5) 0.079(6) 0.057(5) -0.011(5) 0.003(4) -0.013(4)
O3 0.015(5) 0.077(7) 0.069(6) -0.010(5) 0.018(4) -0.019(4)
O4 0.032(5) 0.061(5) 0.067(5) -0.011(4) 0.021(4) -0.005(4)
O5 0.068(7) 0.064(7) 0.126(9) -0.001(6) 0.016(6) -0.030(6)
C1 0.035(9) 0.111(13) 0.030(9) 0.018(8) -0.027(8) -0.017(8)
C2 0.064(11) 0.086(11) 0.028(9) -0.006(7) -0.017(8) 0.008(9)
C3 0.070(12) 0.106(13) 0.026(8) -0.019(8) 0.013(9) -0.025(9)
C4 0.092(13) 0.092(13) 0.042(10) -0.014(9) 0.045(9) -0.048(11)
C5 0.075(11) 0.100(13) 0.021(8) -0.023(8) 0.017(8) -0.013(9)
C6 0.068(11) 0.101(13) 0.023(8) -0.022(8) 0.008(8) -0.022(10)
C7 0.054(11) 0.165(19) 0.046(10) -0.025(12) -0.015(8) 0.007(12)
C8 0.074(9) 0.085(9) 0.074(9) -0.009(8) -0.002(7) 0.016(8)
C9 0.057(10) 0.108(14) 0.062(10) -0.011(10) 0.001(9) 0.032(10)
C10 0.046(9) 0.092(12) 0.035(9) 0.007(8) 0.016(7) 0.003(9)
C11 0.052(10) 0.113(14) 0.039(9) -0.022(9) 0.017(8) 0.003(9)
C12 0.076(12) 0.104(14) 0.046(9) -0.020(9) 0.011(9) -0.034(10)
C13 0.061(10) 0.109(14) 0.038(9) -0.011(9) 0.010(8) -0.006(10)
C14 0.065(8) 0.092(9) 0.075(8) -0.006(7) -0.003(7) -0.006(7)
C15 0.065(11) 0.103(14) 0.093(13) -0.024(11) 0.053(10) -0.030(11)
C16 0.054(12) 0.126(15) 0.045(9) -0.026(10) 0.017(8) -0.053(11)
C17 0.068(8) 0.064(8) 0.049(7) -0.006(6) -0.009(7) -0.009(7)

_geom_special_details            
;
 All esds (except the esd in the dihedral angle between two l.s. planes)
 are estimated using the full covariance matrix.  The cell esds are taken
 into account individually in the estimation of esds in distances, angles
 and torsion angles; correlations between esds in cell parameters are only
 used when they are defined by crystal symmetry.  An approximate (isotropic)
 treatment of cell esds is used for estimating esds involving l.s. planes.
;

loop_
_geom_bond_atom_site_label_1
_geom_bond_atom_site_label_2
_geom_bond_distance
_geom_bond_site_symmetry_2
_geom_bond_publ_flag
Cu1 O4 1.953(8) 4_646 ?
Cu1 O1 1.956(8) . ?
Cu1 O2 1.969(9) 7_656 ?
Cu1 O3 1.986(9) 6_565 ?
Cu1 O5 2.213(11) . ?
Cu1 Cu1 2.620(3) 7_656 ?
O1 C16 1.350(19) . ?
O2 C16 1.256(17) . ?
O2 Cu1 1.969(9) 7_656 ?
O3 C17 1.275(16) . ?
O3 Cu1 1.986(9) 6_566 ?
O4 C17 1.277(17) . ?
O4 Cu1 1.953(8) 4_656 ?
C1 C3 1.358(19) . ?
C1 C2 1.449(18) . ?
C1 C4 1.52(2) . ?
C2 C3 1.370(19) 2_756 ?
C2 C10 1.59(2) . ?
C3 C2 1.370(19) 2_756 ?
C3 H3 0.9300 . ?
C4 C9 1.42(2) . ?
C4 C5 1.469(19) . ?
C5 C6 1.37(2) . ?
C5 H5 0.9300 . ?
C6 C7 1.43(2) . ?
C6 C16 1.52(2) . ?
C7 C8 1.33(2) . ?
C7 H7 0.9300 . ?
C8 C9 1.41(2) . ?
C8 H8 0.91(9) . ?
C9 H9 0.9300 . ?
C10 C11 1.274(18) . ?
C10 C15 1.41(2) . ?
C11 C12 1.43(2) . ?
C11 H11 0.9300 . ?
C12 C13 1.40(2) . ?
C12 C17 1.59(2) . ?
C13 C14 1.33(2) . ?
C13 H13 0.9300 . ?
C14 C15 1.41(2) . ?
C14 H14 0.9300 . ?
C15 H15 0.9300 . ?

loop_
_geom_angle_atom_site_label_1
_geom_angle_atom_site_label_2
_geom_angle_atom_site_label_3
_geom_angle
_geom_angle_site_symmetry_1
_geom_angle_site_symmetry_3
_geom_angle_publ_flag
O4 Cu1 O1 89.8(4) 4_646 . ?
O4 Cu1 O2 90.2(4) 4_646 7_656 ?
O1 Cu1 O2 172.4(4) . 7_656 ?
O4 Cu1 O3 171.7(3) 4_646 6_565 ?
O1 Cu1 O3 90.2(4) . 6_565 ?
O2 Cu1 O3 88.7(4) 7_656 6_565 ?
O4 Cu1 O5 95.3(4) 4_646 . ?
O1 Cu1 O5 92.0(4) . . ?
O2 Cu1 O5 95.6(4) 7_656 . ?
O3 Cu1 O5 93.0(4) 6_565 . ?
O4 Cu1 Cu1 87.2(3) 4_646 7_656 ?
O1 Cu1 Cu1 86.3(3) . 7_656 ?
O2 Cu1 Cu1 86.1(3) 7_656 7_656 ?
O3 Cu1 Cu1 84.5(2) 6_565 7_656 ?
O5 Cu1 Cu1 177.0(3) . 7_656 ?
C16 O1 Cu1 117.8(8) . . ?
C16 O2 Cu1 119.5(10) . 7_656 ?
C17 O3 Cu1 118.7(8) . 6_566 ?
C17 O4 Cu1 117.3(8) . 4_656 ?
C3 C1 C2 120.3(11) . . ?
C3 C1 C4 116.5(12) . . ?
C2 C1 C4 122.8(13) . . ?
C3 C2 C1 120.6(13) 2_756 . ?
C3 C2 C10 119.3(12) 2_756 . ?
C1 C2 C10 119.9(12) . . ?
C1 C3 C2 119.1(12) . 2_756 ?
C1 C3 H3 120.4 . . ?
C2 C3 H3 120.4 2_756 . ?
C9 C4 C5 119.4(16) . . ?
C9 C4 C1 123.3(13) . . ?
C5 C4 C1 117.3(16) . . ?
C6 C5 C4 118.7(15) . . ?
C6 C5 H5 120.7 . . ?
C4 C5 H5 120.7 . . ?
C5 C6 C7 118.6(13) . . ?
C5 C6 C16 118.6(16) . . ?
C7 C6 C16 122.7(15) . . ?
C8 C7 C6 124.0(15) . . ?
C8 C7 H7 118.0 . . ?
C6 C7 H7 118.0 . . ?
C7 C8 C9 119.3(18) . . ?
C7 C8 H8 106(6) . . ?
C9 C8 H8 134(6) . . ?
C8 C9 C4 119.7(16) . . ?
C8 C9 H9 120.2 . . ?
C4 C9 H9 120.2 . . ?
C11 C10 C15 121.1(13) . . ?
C11 C10 C2 118.3(14) . . ?
C15 C10 C2 119.3(13) . . ?
C10 C11 C12 122.1(15) . . ?
C10 C11 H11 118.9 . . ?
C12 C11 H11 118.9 . . ?
C13 C12 C11 117.9(13) . . ?
C13 C12 C17 119.7(14) . . ?
C11 C12 C17 122.4(14) . . ?
C14 C13 C12 118.6(15) . . ?
C14 C13 H13 120.7 . . ?
C12 C13 H13 120.7 . . ?
C13 C14 C15 123.0(16) . . ?
C13 C14 H14 118.5 . . ?
C15 C14 H14 118.5 . . ?
C10 C15 C14 116.4(15) . . ?
C10 C15 H15 121.8 . . ?
C14 C15 H15 121.8 . . ?
O2 C16 O1 129.7(13) . . ?
O2 C16 C6 115.5(15) . . ?
O1 C16 C6 114.7(13) . . ?
O3 C17 O4 132.3(13) . . ?
O3 C17 C12 113.3(13) . . ?
O4 C17 C12 114.2(12) . . ?

_refine_diff_density_max         0.987
_refine_diff_density_min         -0.738
_refine_diff_density_rms         0.111
# SQUEEZE RESULTS (APPEND TO CIF)
loop_
_platon_squeeze_void_nr
_platon_squeeze_void_average_x
_platon_squeeze_void_average_y
_platon_squeeze_void_average_z
_platon_squeeze_void_volume
_platon_squeeze_void_count_electrons
1 0.012 -0.004 0.074 3401.2 816.2
_platon_squeeze_details          
;
;


_shelxl_version_number           2014-1

_shelx_res_file                  
;
TITL c2c in C2/c
CELL 0.40663  17.7139  12.5672  25.6430  90.000  93.440  90.000
ZERR   8.00   0.0066   0.0047   0.0094   0.000   0.006   0.000
LATT  7
SYMM -X, Y, 0.5-Z
SFAC C H O CU
UNIT 136 88 40 8
TEMP 23.000

L.S. 20
BOND
Bond $h
HTAB
Acta
isor 0.01 o1 o2 o4 c8 c14 c17
FMAP 2
PLAN -20

WGHT    0.107900  155.261108
FVAR       1.64064
CU1   4    0.821892    0.224900    0.503267    11.00000    0.04537    0.08601 =
         0.03290   -0.01261    0.01007   -0.00671
O1    3    0.835415    0.345138    0.551359    11.00000    0.03449    0.07625 =
         0.02682   -0.01208   -0.00508   -0.02729
O2    3    0.705933    0.390398    0.546209    11.00000    0.02895    0.07888 =
         0.05666   -0.01106    0.00349   -0.01337
O3    3    0.828575    0.677337    0.942850    11.00000    0.01536    0.07705 =
         0.06868   -0.01020    0.01790   -0.01891
O4    3    0.700426    0.632777    0.938270    11.00000    0.03168    0.06142 =
         0.06669   -0.01060    0.02116   -0.00455
O5    3    0.944727    0.191007    0.50743