####################################################################### 
# 
# This file contains crystal structure data downloaded from the 
# Cambridge Structural Database (CSD) hosted by the Cambridge 
# Crystallographic Data Centre (CCDC).
# 
# Full information about CCDC data access policies and citation 
# guidelines are available at http://www.ccdc.cam.ac.uk/access/V1 
# 
# Audit and citation data items may have been added by the CCDC. 
# Please retain this information to preserve the provenance of 
# this file and to allow appropriate attribution of the data. 
# 
#######################################################################

data_[Ni2(C26H52N10)]3[BTC]46C5H5N36H2O
_audit_block_doi                 10.5517/cc6l845
_database_code_depnum_ccdc_archive 'CCDC 196296'
loop_
_citation_id
_citation_doi
_citation_year
1 10.1021/ja0466715 2004
2 10.1021/ja017560y 2002
_audit_update_record             
;
2002-10-29 deposited with the CCDC.	2024-07-14 downloaded from the CCDC.
;

_audit_creation_method           SHELXL-97
_chemical_name_systematic        
; 
? 
;
_chemical_name_common            ?
_chemical_melting_point          ?
_chemical_formula_moiety         ?
_chemical_formula_sum            'C72 H135 N18 Ni3 O30'
_chemical_formula_weight         1909.11

loop_
_atom_type_symbol
_atom_type_description
_atom_type_scat_dispersion_real
_atom_type_scat_dispersion_imag
_atom_type_scat_source
C C 0.0033 0.0016 'International Tables Vol C Tables 4.2.6.8 and 6.1.1.4'
H H 0.0000 0.0000 'International Tables Vol C Tables 4.2.6.8 and 6.1.1.4'
N N 0.0061 0.0033 'International Tables Vol C Tables 4.2.6.8 and 6.1.1.4'
O O 0.0106 0.0060 'International Tables Vol C Tables 4.2.6.8 and 6.1.1.4'
Ni Ni 0.3393 1.1124 'International Tables Vol C Tables 4.2.6.8 and 6.1.1.4'

_symmetry_cell_setting           ?
_symmetry_space_group_name_H-M   ?

loop_
_symmetry_equiv_pos_as_xyz
'x, y, z'
'-x, -y, -z'

_cell_length_a                   16.505
_cell_length_b                   19.9450(10)
_cell_length_c                   20.6640(10)
_cell_angle_alpha                73.0030(10)
_cell_angle_beta                 68.2400(10)
_cell_angle_gamma                76.073(3)
_cell_volume                     5974.3(4)
_cell_formula_units_Z            2
_cell_measurement_temperature    293(2)
_cell_measurement_reflns_used    ?
_cell_measurement_theta_min      ?
_cell_measurement_theta_max      ?

_exptl_crystal_description       ?
_exptl_crystal_colour            ?
_exptl_crystal_size_max          ?
_exptl_crystal_size_mid          ?
_exptl_crystal_size_min          ?
_exptl_crystal_density_meas      ?
_exptl_crystal_density_diffrn    1.061
_exptl_crystal_density_method    'not measured'
_exptl_crystal_F_000             2034
_exptl_absorpt_coefficient_mu    0.534
_exptl_absorpt_correction_type   ?
_exptl_absorpt_correction_T_min  ?
_exptl_absorpt_correction_T_max  ?
_exptl_absorpt_process_details   ?

_exptl_special_details           
; 
? 
;

_diffrn_ambient_temperature      293(2)
_diffrn_radiation_wavelength     0.71073
_diffrn_radiation_type           MoK\a
_diffrn_radiation_source         'fine-focus sealed tube'
_diffrn_radiation_monochromator  graphite
_diffrn_measurement_device_type  ?
_diffrn_measurement_method       ?
_diffrn_detector_area_resol_mean ?
_diffrn_standards_number         ?
_diffrn_standards_interval_count ?
_diffrn_standards_interval_time  ?
_diffrn_standards_decay_%        ?
_diffrn_reflns_number            28415
_diffrn_reflns_av_R_equivalents  0.0404
_diffrn_reflns_av_sigmaI/netI    0.1644
_diffrn_reflns_limit_h_min       -14
_diffrn_reflns_limit_h_max       15
_diffrn_reflns_limit_k_min       -25
_diffrn_reflns_limit_k_max       17
_diffrn_reflns_limit_l_min       -26
_diffrn_reflns_limit_l_max       25
_diffrn_reflns_theta_min         1.34
_diffrn_reflns_theta_max         27.42
_reflns_number_total             22511
_reflns_number_gt                8789
_reflns_threshold_expression     >2sigma(I)

_computing_data_collection       ?
_computing_cell_refinement       ?
_computing_data_reduction        ?
_computing_structure_solution    'SHELXS-97 (Sheldrick, 1990)'
_computing_structure_refinement  'SHELXL-97 (Sheldrick, 1997)'
_computing_molecular_graphics    ?
_computing_publication_material  ?

_refine_special_details          
; 
Refinement of F^2^ against ALL reflections.  The weighted R-factor wR and 
goodness of fit S are based on F^2^, conventional R-factors R are based 
on F, with F set to zero for negative F^2^. The threshold expression of 
F^2^ > 2sigma(F^2^) is used only for calculating R-factors(gt) etc. and is 
not relevant to the choice of reflections for refinement.  R-factors based 
on F^2^ are statistically about twice as large as those based on F, and R- 
factors based on ALL data will be even larger. 
;

_refine_ls_structure_factor_coef Fsqd
_refine_ls_matrix_type           full
_refine_ls_weighting_scheme      calc
_refine_ls_weighting_details     
'calc w=1/[\s^2^(Fo^2^)+(0.1708P)^2^+0.0000P] where P=(Fo^2^+2Fc^2^)/3'
_atom_sites_solution_primary     direct
_atom_sites_solution_secondary   difmap
_atom_sites_solution_hydrogens   geom
_refine_ls_hydrogen_treatment    mixed
_refine_ls_extinction_method     none
_refine_ls_extinction_coef       ?
_refine_ls_number_reflns         22511
_refine_ls_number_parameters     1005
_refine_ls_number_restraints     56
_refine_ls_R_factor_all          0.2077
_refine_ls_R_factor_gt           0.0899
_refine_ls_wR_factor_ref         0.3034
_refine_ls_wR_factor_gt          0.2488
_refine_ls_goodness_of_fit_ref   0.943
_refine_ls_restrained_S_all      0.944
_refine_ls_shift/su_max          0.672
_refine_ls_shift/su_mean         0.055

loop_
_atom_site_label
_atom_site_type_symbol
_atom_site_fract_x
_atom_site_fract_y
_atom_site_fract_z
_atom_site_U_iso_or_equiv
_atom_site_adp_type
_atom_site_occupancy
_atom_site_symmetry_multiplicity
_atom_site_calc_flag
_atom_site_refinement_flags
_atom_site_disorder_assembly
_atom_site_disorder_group
NiA Ni 0.23566(4) 0.91525(4) 0.32260(4) 0.0518(3) Uani 1 1 d . . .
N1A N 0.1918(4) 0.8887(3) 0.1890(4) 0.0782(17) Uani 1 1 d . . .
N2A N 0.2888(3) 0.9477(3) 0.2128(3) 0.0792(17) Uani 1 1 d . . .
H2A H 0.3361 0.9150 0.1974 0.095 Uiso 1 1 calc R . .
N3A N 0.3002(3) 0.9887(3) 0.3269(4) 0.0730(17) Uani 1 1 d . . .
H3A H 0.2592 1.0278 0.3341 0.088 Uiso 1 1 calc R . .
N4A N 0.1806(3) 0.8825(3) 0.4305(3) 0.0737(16) Uani 1 1 d . . .
H4A H 0.1324 0.9151 0.4443 0.088 Uiso 1 1 calc R . .
N5A N 0.1697(3) 0.8438(2) 0.3159(3) 0.0553(13) Uani 1 1 d . . .
H5A H 0.2097 0.8043 0.3079 0.066 Uiso 1 1 calc R . .
C1A C 0.3555(6) 0.8678(6) 0.0259(6) 0.129(4) Uani 1 1 d . . .
H1A H 0.4011 0.8637 0.0436 0.155 Uiso 1 1 calc R . .
C2A C 0.2111(6) 0.8617(6) 0.0433(6) 0.118(3) Uani 1 1 d . . .
H2A1 H 0.1547 0.8528 0.0730 0.142 Uiso 1 1 calc R . .
C3A C 0.2727(5) 0.8552(4) 0.0734(5) 0.085(2) Uani 1 1 d . . .
C4A C 0.2524(5) 0.8343(4) 0.1528(4) 0.094(2) Uani 1 1 d . . .
H4A1 H 0.2267 0.7908 0.1712 0.113 Uiso 1 1 calc R . .
H4A2 H 0.3070 0.8248 0.1637 0.113 Uiso 1 1 calc R . .
C5A C 0.2259(5) 0.9537(4) 0.1743(4) 0.081(2) Uani 1 1 d . . .
H5A1 H 0.1769 0.9907 0.1879 0.098 Uiso 1 1 calc R . .
H5A2 H 0.2555 0.9679 0.1233 0.098 Uiso 1 1 calc R . .
C6A C 0.3222(5) 1.0163(4) 0.1993(5) 0.096(3) Uani 1 1 d . . .
H6A1 H 0.3655 1.0258 0.1520 0.115 Uiso 1 1 calc R . .
H6A2 H 0.2738 1.0554 0.2021 0.115 Uiso 1 1 calc R . .
C7A C 0.3628(5) 1.0088(4) 0.2549(6) 0.108(3) Uani 1 1 d . . .
H7A1 H 0.4148 0.9730 0.2484 0.129 Uiso 1 1 calc R . .
H7A2 H 0.3811 1.0534 0.2495 0.129 Uiso 1 1 calc R . .
C8A C 0.3388(5) 0.9693(4) 0.3858(5) 0.087(3) Uani 1 1 d . . .
H8A1 H 0.3622 1.0095 0.3857 0.104 Uiso 1 1 calc R . .
H8A2 H 0.3873 0.9306 0.3777 0.104 Uiso 1 1 calc R . .
C9A C 0.2709(7) 0.9472(5) 0.4575(6) 0.125(4) Uani 1 1 d . . .
H9A1 H 0.2208 0.9848 0.4624 0.150 Uiso 1 1 calc R . .
H9A2 H 0.2960 0.9441 0.4942 0.150 Uiso 1 1 calc R . .
C10A C 0.2368(5) 0.8783(5) 0.4732(4) 0.096(3) Uani 1 1 d . . .
H10A H 0.2864 0.8409 0.4632 0.115 Uiso 1 1 calc R . .
H10B H 0.2031 0.8660 0.5236 0.115 Uiso 1 1 calc R . .
C11A C 0.1477(5) 0.8159(4) 0.4424(4) 0.081(2) Uani 1 1 d . . .
H11A H 0.1050 0.8056 0.4899 0.097 Uiso 1 1 calc R . .
H11B H 0.1962 0.7769 0.4387 0.097 Uiso 1 1 calc R . .
C12A C 0.1058(4) 0.8239(4) 0.3878(4) 0.071(2) Uani 1 1 d . . .
H12A H 0.0868 0.7797 0.3930 0.085 Uiso 1 1 calc R . .
H12B H 0.0544 0.8603 0.3943 0.085 Uiso 1 1 calc R . .
C13A C 0.1322(4) 0.8675(3) 0.2564(4) 0.0630(18) Uani 1 1 d . . .
H13A H 0.1061 0.8290 0.2559 0.076 Uiso 1 1 calc R . .
H13B H 0.0851 0.9068 0.2662 0.076 Uiso 1 1 calc R . .
NiB Ni 0.73532(4) 0.41578(4) 0.33170(4) 0.0525(3) Uani 1 1 d . . .
N1B N 0.8713(4) 0.5074(3) 0.1896(4) 0.094(2) Uani 1 1 d . . .
N2B N 0.8456(3) 0.4557(3) 0.3166(3) 0.0654(15) Uani 1 1 d . . .
H2B H 0.8922 0.4207 0.3069 0.079 Uiso 1 1 calc R . .
N3B N 0.7134(3) 0.4018(3) 0.4390(3) 0.0686(15) Uani 1 1 d . . .
H3B H 0.6731 0.4389 0.4537 0.082 Uiso 1 1 calc R . .
N4B N 0.6239(3) 0.3778(3) 0.3463(3) 0.0610(14) Uani 1 1 d . . .
H4B H 0.5786 0.4141 0.3546 0.073 Uiso 1 1 calc R . .
N5B N 0.7568(4) 0.4313(3) 0.2239(3) 0.0837(18) Uani 1 1 d . . .
H5B H 0.7987 0.3956 0.2077 0.100 Uiso 1 1 calc R . .
C1B C 0.9708(8) 0.5496(7) 0.0363(8) 0.165(5) Uani 1 1 d . . .
H1B H 0.9502 0.5862 0.0604 0.198 Uiso 1 1 calc R . .
C2B C 1.0017(9) 0.4341(7) 0.0363(8) 0.164(5) Uani 1 1 d . . .
H2B1 H 1.0038 0.3865 0.0597 0.196 Uiso 1 1 calc R . .
C3B C 0.9723(5) 0.4815(6) 0.0749(6) 0.112(3) Uani 1 1 d . . .
C4B C 0.9491(5) 0.4618(5) 0.1550(5) 0.109(3) Uani 1 1 d . . .
H4B1 H 0.9384 0.4130 0.1724 0.130 Uiso 1 1 calc R . .
H4B2 H 0.9987 0.4653 0.1678 0.130 Uiso 1 1 calc R . .
C5B C 0.8646(4) 0.5182(4) 0.2558(5) 0.083(2) Uani 1 1 d . . .
H5B1 H 0.8183 0.5576 0.2668 0.100 Uiso 1 1 calc R . .
H5B2 H 0.9195 0.5315 0.2513 0.100 Uiso 1 1 calc R . .
C6B C 0.8369(5) 0.4686(4) 0.3860(5) 0.088(2) Uani 1 1 d . . .
H6B1 H 0.7995 0.5134 0.3925 0.105 Uiso 1 1 calc R . .
H6B2 H 0.8944 0.4707 0.3872 0.105 Uiso 1 1 calc R . .
C7B C 0.7968(5) 0.4085(4) 0.4446(5) 0.088(2) Uani 1 1 d . . .
H7B1 H 0.8373 0.3646 0.4406 0.106 Uiso 1 1 calc R . .
H7B2 H 0.7864 0.4176 0.4909 0.106 Uiso 1 1 calc R . .
C8B C 0.6776(4) 0.3352(4) 0.4855(4) 0.092(2) Uani 1 1 d . . .
H8B1 H 0.7204 0.2945 0.4726 0.110 Uiso 1 1 calc R . .
H8B2 H 0.6684 0.3338 0.5350 0.110 Uiso 1 1 calc R . .
C9B C 0.5943(5) 0.3308(5) 0.4783(5) 0.102(3) Uani 1 1 d . . .
H9B1 H 0.5548 0.3747 0.4851 0.123 Uiso 1 1 calc R . .
H9B2 H 0.5678 0.2929 0.5166 0.123 Uiso 1 1 calc R . .
C10B C 0.5997(4) 0.3176(4) 0.4075(5) 0.090(3) Uani 1 1 d . . .
H10C H 0.6430 0.2761 0.3980 0.108 Uiso 1 1 calc R . .
H10D H 0.5430 0.3075 0.4119 0.108 Uiso 1 1 calc R . .
C11B C 0.6327(5) 0.3655(4) 0.2769(5) 0.085(2) Uani 1 1 d . . .
H11C H 0.5751 0.3634 0.2758 0.102 Uiso 1 1 calc R . .
H11D H 0.6697 0.3205 0.2707 0.102 Uiso 1 1 calc R . .
C12B C 0.6732(5) 0.4245(5) 0.2168(5) 0.097(3) Uani 1 1 d . . .
H12C H 0.6846 0.4139 0.1710 0.116 Uiso 1 1 calc R . .
H12D H 0.6329 0.4687 0.2192 0.116 Uiso 1 1 calc R . .
C13B C 0.7895(5) 0.5000(4) 0.1819(4) 0.096(3) Uani 1 1 d . . .
H13C H 0.7991 0.5042 0.1317 0.116 Uiso 1 1 calc R . .
H13D H 0.7443 0.5387 0.1972 0.116 Uiso 1 1 calc R . .
NiC Ni 0.74010(4) -0.07920(4) 0.31163(5) 0.0564(3) Uani 1 1 d . . .
N1C N 0.6503(4) 0.0114(3) 0.1856(4) 0.0796(17) Uani 1 1 d . . .
N2C N 0.6272(3) -0.0065(3) 0.3135(3) 0.0574(14) Uani 1 1 d . . .
H2C H 0.6414 0.0368 0.3073 0.069 Uiso 1 1 calc R . .
N3C N 0.6888(3) -0.1015(3) 0.4204(3) 0.0744(17) Uani 1 1 d . . .
H3C H 0.6646 -0.1419 0.4338 0.089 Uiso 1 1 calc R . .
N4C N 0.8524(3) -0.1536(3) 0.3088(3) 0.0693(16) Uani 1 1 d . . .
H4C H 0.8364 -0.1964 0.3157 0.083 Uiso 1 1 calc R . .
N5C N 0.7905(3) -0.0577(3) 0.2008(3) 0.0707(16) Uani 1 1 d . . .
H5C H 0.8164 -0.0180 0.1857 0.085 Uiso 1 1 calc R . .
C1C C 0.6282(6) 0.1133(6) 0.0477(5) 0.120(3) Uani 1 1 d . . .
H1C H 0.5717 0.1056 0.0779 0.144 Uiso 1 1 calc R . .
C2C C 0.7723(7) 0.1187(5) 0.0306(6) 0.111(3) Uani 1 1 d . . .
H2C1 H 0.8177 0.1144 0.0487 0.133 Uiso 1 1 calc R . .
C3C C 0.6913(6) 0.1060(4) 0.0764(5) 0.081(2) Uani 1 1 d . . .
C4C C 0.6731(5) 0.0843(4) 0.1555(4) 0.082(2) Uani 1 1 d . . .
H4C1 H 0.7248 0.0866 0.1660 0.098 Uiso 1 1 calc R . .
H4C2 H 0.6247 0.1173 0.1782 0.098 Uiso 1 1 calc R . .
C5C C 0.5899(4) -0.0012(3) 0.2565(4) 0.070(2) Uani 1 1 d . . .
H5C1 H 0.5674 -0.0449 0.2656 0.084 Uiso 1 1 calc R . .
H5C2 H 0.5403 0.0369 0.2596 0.084 Uiso 1 1 calc R . .
C6C C 0.5670(4) -0.0248(4) 0.3872(4) 0.076(2) Uani 1 1 d . . .
H6C1 H 0.5394 -0.0647 0.3923 0.091 Uiso 1 1 calc R . .
H6C2 H 0.5209 0.0151 0.3967 0.091 Uiso 1 1 calc R . .
C7C C 0.6149(4) -0.0435(4) 0.4403(4) 0.0750(19) Uani 1 1 d . . .
H7C1 H 0.6376 -0.0025 0.4393 0.090 Uiso 1 1 calc R . .
H7C2 H 0.5753 -0.0593 0.4882 0.090 Uiso 1 1 calc R . .
C8C C 0.7546(5) -0.1151(4) 0.4592(4) 0.085(2) Uani 1 1 d . . .
H8C1 H 0.7245 -0.1263 0.5104 0.102 Uiso 1 1 calc R . .
H8C2 H 0.7805 -0.0725 0.4475 0.102 Uiso 1 1 calc R . .
C9C C 0.8273(6) -0.1761(4) 0.4387(5) 0.098(3) Uani 1 1 d . . .
H9C1 H 0.8001 -0.2167 0.4454 0.118 Uiso 1 1 calc R . .
H9C2 H 0.8613 -0.1890 0.4713 0.118 Uiso 1 1 calc R . .
C10C C 0.8911(5) -0.1605(4) 0.3615(5) 0.086(2) Uani 1 1 d . . .
H10E H 0.9137 -0.1170 0.3530 0.103 Uiso 1 1 calc R . .
H10F H 0.9408 -0.1985 0.3565 0.103 Uiso 1 1 calc R . .
C11C C 0.9130(4) -0.1376(4) 0.2349(5) 0.093(3) Uani 1 1 d . . .
H11E H 0.9574 -0.1786 0.2256 0.112 Uiso 1 1 calc R . .
H11F H 0.9427 -0.0984 0.2283 0.112 Uiso 1 1 calc R . .
C12C C 0.8602(5) -0.1179(4) 0.1823(4) 0.089(2) Uani 1 1 d . . .
H12E H 0.8990 -0.1046 0.1336 0.107 Uiso 1 1 calc R . .
H12F H 0.8340 -0.1581 0.1862 0.107 Uiso 1 1 calc R . .
C13C C 0.7227(5) -0.0450(4) 0.1659(4) 0.076(2) Uani 1 1 d . . .
H13E H 0.7509 -0.0334 0.1144 0.091 Uiso 1 1 calc R . .
H13F H 0.6986 -0.0885 0.1779 0.091 Uiso 1 1 calc R . .
O1 O 0.6661(2) -0.1559(2) 0.3114(2) 0.0644(12) Uani 1 1 d . . .
O2 O 0.7392(3) -0.2597(3) 0.3484(4) 0.132(3) Uani 1 1 d . . .
O3 O 0.3550(2) 0.8405(2) 0.3220(2) 0.0622(12) Uani 1 1 d . . .
O4 O 0.3316(3) 0.7460(2) 0.3012(3) 0.1000(19) Uani 1 1 d . . .
O5 O 0.6652(2) 0.52210(18) 0.3318(2) 0.0610(11) Uani 1 1 d . . .
O6 O 0.5244(3) 0.5183(2) 0.3487(3) 0.0862(16) Uani 1 1 d . . .
C1 C 0.6760(4) -0.2224(3) 0.3304(4) 0.0675(19) Uani 1 1 d . . .
C2 C 0.3773(3) 0.7786(3) 0.3136(3) 0.0533(16) Uani 1 1 d . . .
C3 C 0.5865(4) 0.5509(3) 0.3388(4) 0.0585(16) Uani 1 1 d . . .
C4 C 0.6086(3) 0.7400(3) 0.3275(3) 0.0495(15) Uani 1 1 d . . .
C5 C 0.5262(3) 0.7757(3) 0.3217(3) 0.0469(14) Uani 1 1 d . . .
H5 H 0.5128 0.8245 0.3180 0.056 Uiso 1 1 calc R . .
C6 C 0.4660(3) 0.7401(3) 0.3213(3) 0.0481(14) Uani 1 1 d . . .
C7 C 0.4859(3) 0.6672(3) 0.3265(3) 0.0461(14) Uani 1 1 d . . .
H7 H 0.4446 0.6432 0.3258 0.055 Uiso 1 1 calc R . .
C8 C 0.5655(3) 0.6300(3) 0.3327(3) 0.0497(15) Uani 1 1 d . . .
C9 C 0.6266(3) 0.6674(3) 0.3334(3) 0.0538(16) Uani 1 1 d . . .
H9 H 0.6806 0.6429 0.3379 0.065 Uiso 1 1 calc R . .
O7 O 0.1145(2) 0.9919(2) 0.3229(2) 0.0615(11) Uani 1 1 d . . .
O8 O 0.1415(4) 1.0868(3) 0.3387(5) 0.190(4) Uani 1 1 d . . .
O9 O 0.8038(2) 0.31058(19) 0.3299(2) 0.0668(12) Uani 1 1 d . . .
O10 O 0.9429(3) 0.3124(2) 0.3150(3) 0.104(2) Uani 1 1 d . . .
O11 O 0.8127(2) -0.0026(2) 0.3123(2) 0.0651(12) Uani 1 1 d . . .
O12 O 0.7246(3) 0.0996(2) 0.3037(3) 0.0928(17) Uani 1 1 d . . .
C10 C 0.0926(4) 1.0539(3) 0.3300(4) 0.073(2) Uani 1 1 d . . .
C11 C 0.8816(4) 0.2817(3) 0.3235(4) 0.0586(17) Uani 1 1 d . . .
C12 C 0.7940(4) 0.0617(3) 0.3124(4) 0.0574(17) Uani 1 1 d . . .
C13 C 1.0048(3) 0.0935(3) 0.3260(4) 0.0580(17) Uani 1 1 d . . .
C14 C 0.9837(3) 0.1659(3) 0.3266(3) 0.0547(16) Uani 1 1 d . . .
H14 H 1.0248 0.1891 0.3289 0.066 Uiso 1 1 calc R . .
C15 C 0.9025(3) 0.2029(3) 0.3239(3) 0.0505(15) Uani 1 1 d . . .
C16 C 0.8414(3) 0.1686(3) 0.3203(3) 0.0483(15) Uani 1 1 d . . .
H16 H 0.7865 0.1938 0.3190 0.058 Uiso 1 1 calc R . .
C17 C 0.8604(3) 0.0967(3) 0.3187(3) 0.0486(15) Uani 1 1 d . . .
C18 C 0.9434(3) 0.0594(3) 0.3212(3) 0.0485(15) Uani 1 1 d . . .
H18 H 0.9575 0.0117 0.3197 0.058 Uiso 1 1 calc R . .
N1 N 0.1042(11) 0.0455(9) 0.0551(7) 0.267(7) Uiso 1 1 d D . .
C19 C 0.0944(12) 0.1032(9) 0.0857(8) 0.243(7) Uiso 1 1 d D . .
H19 H 0.1429 0.1240 0.0781 0.292 Uiso 1 1 calc R . .
C20 C 0.0145(12) 0.1268(8) 0.1257(8) 0.231(7) Uiso 1 1 d D . .
H20 H 0.0055 0.1635 0.1480 0.277 Uiso 1 1 calc R . .
C21 C -0.0519(9) 0.0964(7) 0.1324(6) 0.179(5) Uiso 1 1 d D . .
H21 H -0.1079 0.1164 0.1570 0.215 Uiso 1 1 calc R . .
C22 C -0.0482(9) 0.0422(7) 0.1089(6) 0.159(4) Uiso 1 1 d D . .
H22 H -0.0983 0.0224 0.1189 0.191 Uiso 1 1 calc R . .
C23 C 0.0295(12) 0.0163(9) 0.0704(8) 0.244(8) Uiso 1 1 d D . .
H23 H 0.0346 -0.0229 0.0527 0.293 Uiso 1 1 calc R . .
N2 N 0.5297(17) 0.8228(17) 0.1170(18) 0.394(13) Uiso 1 1 d D . .
C24 C 0.584(3) 0.816(3) 0.054(3) 0.64(5) Uiso 1 1 d D . .
H24 H 0.5925 0.7738 0.0406 0.773 Uiso 1 1 calc R . .
C25 C 0.6264(18) 0.868(2) 0.0081(19) 0.391(16) Uiso 1 1 d D . .
H25 H 0.6633 0.8628 -0.0374 0.470 Uiso 1 1 calc R . .
C26 C 0.6147(15) 0.9270(15) 0.0294(16) 0.299(11) Uiso 1 1 d D . .
H26 H 0.6482 0.9626 0.0000 0.359 Uiso 1 1 calc R . .
C27 C 0.5578(15) 0.9365(15) 0.0904(15) 0.313(11) Uiso 1 1 d D . .
H27 H 0.5455 0.9798 0.1031 0.376 Uiso 1 1 calc R . .
C28 C 0.5181(10) 0.8827(12) 0.1336(10) 0.212(6) Uiso 1 1 d D . .
H28 H 0.4795 0.8881 0.1785 0.254 Uiso 1 1 calc R . .
N3 N 0.8307(18) 0.7102(14) 0.148(2) 0.464(15) Uiso 1 1 d D . .
C29 C 0.900(3) 0.6959(11) 0.1771(14) 0.391(15) Uiso 1 1 d D . .
H29 H 0.8852 0.6792 0.2264 0.470 Uiso 1 1 calc R . .
C30 C 0.984(2) 0.7038(13) 0.142(2) 0.439(18) Uiso 1 1 d D . .
H30 H 1.0261 0.6929 0.1655 0.526 Uiso 1 1 calc R . .
C31 C 1.0053(19) 0.7284(14) 0.071(2) 0.452(19) Uiso 1 1 d D . .
H31 H 1.0630 0.7357 0.0444 0.542 Uiso 1 1 calc R . .
C32 C 0.946(3) 0.7427(12) 0.0381(14) 0.393(15) Uiso 1 1 d D . .
H32 H 0.9648 0.7583 -0.0114 0.472 Uiso 1 1 calc R . .
C33 C 0.862(3) 0.