####################################################################### 
# 
# This file contains crystal structure data downloaded from the 
# Cambridge Structural Database (CSD) hosted by the Cambridge 
# Crystallographic Data Centre (CCDC).
# 
# Full information about CCDC data access policies and citation 
# guidelines are available at http://www.ccdc.cam.ac.uk/access/V1 
# 
# Audit and citation data items may have been added by the CCDC. 
# Please retain this information to preserve the provenance of 
# this file and to allow appropriate attribution of the data. 
# 
#######################################################################

data_[Ni2(C26H52N10)]3[BTC]4.30H2O
_audit_block_doi                 10.5517/cc6l856
_database_code_depnum_ccdc_archive 'CCDC 196297'
loop_
_citation_id
_citation_doi
_citation_year
1 10.1021/ja0466715 2004
2 10.1021/ja017560y 2002
_audit_update_record             
;
2002-10-29 deposited with the CCDC.	2024-07-14 downloaded from the CCDC.
;

_audit_creation_method           SHELXL-97
_chemical_name_systematic        
; 
? 
;
_chemical_name_common            ?
_chemical_melting_point          ?
_chemical_formula_moiety         ?
_chemical_formula_sum            'C57 H114 N15 Ni3 O27'
_chemical_formula_weight         1617.76

loop_
_atom_type_symbol
_atom_type_description
_atom_type_scat_dispersion_real
_atom_type_scat_dispersion_imag
_atom_type_scat_source
C C 0.0033 0.0016 'International Tables Vol C Tables 4.2.6.8 and 6.1.1.4'
H H 0.0000 0.0000 'International Tables Vol C Tables 4.2.6.8 and 6.1.1.4'
N N 0.0061 0.0033 'International Tables Vol C Tables 4.2.6.8 and 6.1.1.4'
O O 0.0106 0.0060 'International Tables Vol C Tables 4.2.6.8 and 6.1.1.4'
Ni Ni 0.3393 1.1124 'International Tables Vol C Tables 4.2.6.8 and 6.1.1.4'

_symmetry_cell_setting           ?
_symmetry_space_group_name_H-M   ?

loop_
_symmetry_equiv_pos_as_xyz
'x, y, z'
'-x, -y, -z'

_cell_length_a                   16.4200(10)
_cell_length_b                   19.817(2)
_cell_length_c                   20.439(2)
_cell_angle_alpha                70.322(4)
_cell_angle_beta                 68.554(5)
_cell_angle_gamma                76.193(5)
_cell_volume                     5777.9(9)
_cell_formula_units_Z            2
_cell_measurement_temperature    293(2)
_cell_measurement_reflns_used    ?
_cell_measurement_theta_min      ?
_cell_measurement_theta_max      ?

_exptl_crystal_description       ?
_exptl_crystal_colour            ?
_exptl_crystal_size_max          ?
_exptl_crystal_size_mid          ?
_exptl_crystal_size_min          ?
_exptl_crystal_density_meas      ?
_exptl_crystal_density_diffrn    0.930
_exptl_crystal_density_method    'not measured'
_exptl_crystal_F_000             1722
_exptl_absorpt_coefficient_mu    0.540
_exptl_absorpt_correction_type   ?
_exptl_absorpt_correction_T_min  ?
_exptl_absorpt_correction_T_max  ?
_exptl_absorpt_process_details   ?

_exptl_special_details           
; 
? 
;

_diffrn_ambient_temperature      293(2)
_diffrn_radiation_wavelength     0.71073
_diffrn_radiation_type           MoK\a
_diffrn_radiation_source         'fine-focus sealed tube'
_diffrn_radiation_monochromator  graphite
_diffrn_measurement_device_type  ?
_diffrn_measurement_method       ?
_diffrn_detector_area_resol_mean ?
_diffrn_standards_number         ?
_diffrn_standards_interval_count ?
_diffrn_standards_interval_time  ?
_diffrn_standards_decay_%        ?
_diffrn_reflns_number            33000
_diffrn_reflns_av_R_equivalents  0.1661
_diffrn_reflns_av_sigmaI/netI    0.2444
_diffrn_reflns_limit_h_min       -20
_diffrn_reflns_limit_h_max       18
_diffrn_reflns_limit_k_min       -24
_diffrn_reflns_limit_k_max       25
_diffrn_reflns_limit_l_min       -23
_diffrn_reflns_limit_l_max       25
_diffrn_reflns_theta_min         4.67
_diffrn_reflns_theta_max         27.95
_reflns_number_total             23278
_reflns_number_gt                8092
_reflns_threshold_expression     >2sigma(I)

_computing_data_collection       ?
_computing_cell_refinement       ?
_computing_data_reduction        ?
_computing_structure_solution    'SHELXS-97 (Sheldrick, 1990)'
_computing_structure_refinement  'SHELXL-97 (Sheldrick, 1997)'
_computing_molecular_graphics    ?
_computing_publication_material  ?

_refine_special_details          
; 
Refinement of F^2^ against ALL reflections.  The weighted R-factor wR and 
goodness of fit S are based on F^2^, conventional R-factors R are based 
on F, with F set to zero for negative F^2^. The threshold expression of 
F^2^ > 2sigma(F^2^) is used only for calculating R-factors(gt) etc. and is 
not relevant to the choice of reflections for refinement.  R-factors based 
on F^2^ are statistically about twice as large as those based on F, and R- 
factors based on ALL data will be even larger. 
;

_refine_ls_structure_factor_coef Fsqd
_refine_ls_matrix_type           full
_refine_ls_weighting_scheme      calc
_refine_ls_weighting_details     
'calc w=1/[\s^2^(Fo^2^)+(0.2000P)^2^+0.0000P] where P=(Fo^2^+2Fc^2^)/3'
_atom_sites_solution_primary     direct
_atom_sites_solution_secondary   difmap
_atom_sites_solution_hydrogens   geom
_refine_ls_hydrogen_treatment    mixed
_refine_ls_extinction_method     SHELXL
_refine_ls_extinction_coef       0.010(2)
_refine_ls_extinction_expression Fc^*^=kFc[1+0.001xFc^2^\l^3^/sin(2\q)]^-1/4^
_refine_ls_number_reflns         23278
_refine_ls_number_parameters     845
_refine_ls_number_restraints     0
_refine_ls_R_factor_all          0.3566
_refine_ls_R_factor_gt           0.1839
_refine_ls_wR_factor_ref         0.5211
_refine_ls_wR_factor_gt          0.4194
_refine_ls_goodness_of_fit_ref   1.304
_refine_ls_restrained_S_all      1.304
_refine_ls_shift/su_max          0.080
_refine_ls_shift/su_mean         0.006

loop_
_atom_site_label
_atom_site_type_symbol
_atom_site_fract_x
_atom_site_fract_y
_atom_site_fract_z
_atom_site_U_iso_or_equiv
_atom_site_adp_type
_atom_site_occupancy
_atom_site_symmetry_multiplicity
_atom_site_calc_flag
_atom_site_refinement_flags
_atom_site_disorder_assembly
_atom_site_disorder_group
NiA Ni 0.23187(8) 0.92074(8) 0.32191(9) 0.0681(5) Uani 1 1 d . . .
N1A N 0.1825(8) 0.8901(7) 0.1916(7) 0.093(3) Uani 1 1 d . . .
N2A N 0.2797(6) 0.9537(6) 0.2114(7) 0.092(3) Uani 1 1 d . . .
H2A H 0.3264 0.9206 0.1972 0.110 Uiso 1 1 calc R . .
N3A N 0.2981(6) 0.9965(6) 0.3190(7) 0.094(4) Uani 1 1 d . . .
H3A H 0.2584 1.0368 0.3236 0.113 Uiso 1 1 calc R . .
N4A N 0.1783(6) 0.8894(6) 0.4335(6) 0.088(3) Uani 1 1 d . . .
H4A H 0.1320 0.9236 0.4455 0.105 Uiso 1 1 calc R . .
N5A N 0.1648(6) 0.8470(6) 0.3213(6) 0.078(3) Uani 1 1 d . . .
H5A H 0.2034 0.8063 0.3158 0.093 Uiso 1 1 calc R . .
C1A C 0.3543(9) 0.8652(12) 0.0324(12) 0.134(7) Uani 1 1 d . . .
H1A H 0.3989 0.8612 0.0518 0.161 Uiso 1 1 calc R . .
C2A C 0.2060(11) 0.8539(13) 0.0505(11) 0.140(8) Uani 1 1 d . . .
H2A1 H 0.1505 0.8416 0.0806 0.168 Uiso 1 1 calc R . .
C3A C 0.2660(10) 0.8498(8) 0.0831(9) 0.101(4) Uani 1 1 d . . .
C4A C 0.2418(10) 0.8307(9) 0.1656(7) 0.104(5) Uani 1 1 d . . .
H4A1 H 0.2134 0.7872 0.1878 0.125 Uiso 1 1 calc R . .
H4A2 H 0.2948 0.8216 0.1795 0.125 Uiso 1 1 calc R . .
C5A C 0.2162(9) 0.9581(10) 0.1738(7) 0.102(5) Uani 1 1 d . . .
H5A1 H 0.1668 0.9946 0.1866 0.122 Uiso 1 1 calc R . .
H5A2 H 0.2447 0.9738 0.1214 0.122 Uiso 1 1 calc R . .
C6A C 0.3145(10) 1.0233(9) 0.1910(10) 0.121(6) Uani 1 1 d . . .
H6A1 H 0.2664 1.0628 0.1939 0.146 Uiso 1 1 calc R . .
H6A2 H 0.3548 1.0331 0.1414 0.146 Uiso 1 1 calc R . .
C7A C 0.3630(8) 1.0154(8) 0.2455(9) 0.104(5) Uani 1 1 d . . .
H7A1 H 0.4130 0.9776 0.2408 0.125 Uiso 1 1 calc R . .
H7A2 H 0.3842 1.0604 0.2366 0.125 Uiso 1 1 calc R . .
C8A C 0.3411(9) 0.9784(8) 0.3771(12) 0.120(7) Uani 1 1 d . . .
H8A1 H 0.3647 1.0203 0.3736 0.144 Uiso 1 1 calc R . .
H8A2 H 0.3896 0.9397 0.3700 0.144 Uiso 1 1 calc R . .
C9A C 0.2735(10) 0.9546(11) 0.4531(10) 0.118(6) Uani 1 1 d . . .
H9A1 H 0.3002 0.9521 0.4893 0.142 Uiso 1 1 calc R . .
H9A2 H 0.2234 0.9923 0.4569 0.142 Uiso 1 1 calc R . .
C10A C 0.2406(9) 0.8869(10) 0.4730(8) 0.103(5) Uani 1 1 d . . .
H10A H 0.2104 0.8733 0.5252 0.123 Uiso 1 1 calc R . .
H10B H 0.2901 0.8498 0.4626 0.123 Uiso 1 1 calc R . .
C11A C 0.1404(9) 0.8205(9) 0.4537(8) 0.097(4) Uani 1 1 d . . .
H11A H 0.0971 0.8127 0.5020 0.116 Uiso 1 1 calc R . .
H11B H 0.1867 0.7796 0.4538 0.116 Uiso 1 1 calc R . .
C12A C 0.0971(7) 0.8286(9) 0.3963(8) 0.094(4) Uani 1 1 d . . .
H12A H 0.0755 0.7839 0.4049 0.113 Uiso 1 1 calc R . .
H12B H 0.0473 0.8667 0.3995 0.113 Uiso 1 1 calc R . .
C13A C 0.1235(7) 0.8692(8) 0.2653(8) 0.078(4) Uani 1 1 d . . .
H13A H 0.0781 0.9096 0.2736 0.094 Uiso 1 1 calc R . .
H13B H 0.0946 0.8297 0.2697 0.094 Uiso 1 1 calc R . .
NiB Ni 0.73117(8) 0.42156(8) 0.32491(10) 0.0717(5) Uani 1 1 d . . .
N1B N 0.8711(8) 0.5211(8) 0.1850(10) 0.123(5) Uani 1 1 d . . .
N2B N 0.8426(6) 0.4603(6) 0.3166(7) 0.079(3) Uani 1 1 d . . .
H2B H 0.8902 0.4260 0.3087 0.095 Uiso 1 1 calc R . .
N3B N 0.7065(7) 0.3983(7) 0.4348(6) 0.098(4) Uani 1 1 d . . .
H3B H 0.6648 0.4342 0.4497 0.118 Uiso 1 1 calc R . .
N4B N 0.6200(6) 0.3841(6) 0.3379(7) 0.082(3) Uani 1 1 d . . .
H4B H 0.5740 0.4188 0.3490 0.098 Uiso 1 1 calc R . .
N5B N 0.7559(8) 0.4468(8) 0.2135(8) 0.112(4) Uani 1 1 d . . .
H5B H 0.7976 0.4115 0.1974 0.134 Uiso 1 1 calc R . .
C1B C 0.994(2) 0.5514(18) 0.023(2) 0.249(18) Uani 1 1 d . . .
H1B H 0.9883 0.5931 0.0367 0.298 Uiso 1 1 calc R . .
C2B C 0.9786(17) 0.4414(19) 0.051(2) 0.252(19) Uani 1 1 d . . .
H2B1 H 0.9614 0.3976 0.0834 0.303 Uiso 1 1 calc R . .
C3B C 0.9764(19) 0.492(2) 0.077(2) 0.223(19) Uani 1 1 d . . .
C4B C 0.9516(11) 0.4700(12) 0.1553(12) 0.136(7) Uani 1 1 d . . .
H4B1 H 1.0001 0.4718 0.1708 0.164 Uiso 1 1 calc R . .
H4B2 H 0.9377 0.4208 0.1741 0.164 Uiso 1 1 calc R . .
C5B C 0.8600(8) 0.5269(9) 0.2576(11) 0.104(5) Uani 1 1 d . . .
H5B1 H 0.9130 0.5419 0.2559 0.124 Uiso 1 1 calc R . .
H5B2 H 0.8115 0.5645 0.2689 0.124 Uiso 1 1 calc R . .
C6B C 0.8254(9) 0.4707(9) 0.3847(11) 0.103(5) Uani 1 1 d . . .
H6B1 H 0.7827 0.5135 0.3894 0.124 Uiso 1 1 calc R . .
H6B2 H 0.8793 0.4781 0.3890 0.124 Uiso 1 1 calc R . .
C7B C 0.7904(10) 0.4072(10) 0.4437(9) 0.106(5) Uani 1 1 d . . .
H7B1 H 0.7782 0.4146 0.4911 0.127 Uiso 1 1 calc R . .
H7B2 H 0.8331 0.3643 0.4401 0.127 Uiso 1 1 calc R . .
C8B C 0.6690(10) 0.3293(10) 0.4777(10) 0.130(7) Uani 1 1 d . . .
H8B1 H 0.7126 0.2893 0.4649 0.156 Uiso 1 1 calc R . .
H8B2 H 0.6567 0.3234 0.5294 0.156 Uiso 1 1 calc R . .
C9B C 0.5895(8) 0.3266(10) 0.4652(11) 0.137(8) Uani 1 1 d . . .
H9B1 H 0.5496 0.3702 0.4719 0.165 Uiso 1 1 calc R . .
H9B2 H 0.5618 0.2861 0.5026 0.165 Uiso 1 1 calc R . .
C10B C 0.5990(9) 0.3192(9) 0.3913(11) 0.101(5) Uani 1 1 d . . .
H10C H 0.6452 0.2801 0.3800 0.122 Uiso 1 1 calc R . .
H10D H 0.5442 0.3080 0.3922 0.122 Uiso 1 1 calc R . .
C11B C 0.6272(8) 0.3783(9) 0.2670(12) 0.115(6) Uani 1 1 d . . .
H11C H 0.5687 0.3794 0.2651 0.138 Uiso 1 1 calc R . .
H11D H 0.6611 0.3323 0.2606 0.138 Uiso 1 1 calc R . .
C12B C 0.6705(10) 0.4382(13) 0.2067(10) 0.133(8) Uani 1 1 d . . .
H12C H 0.6306 0.4830 0.2071 0.160 Uiso 1 1 calc R . .
H12D H 0.6825 0.4287 0.1602 0.160 Uiso 1 1 calc R . .
C13B C 0.7922(12) 0.5174(12) 0.1722(11) 0.152(8) Uani 1 1 d . . .
H13C H 0.8046 0.5248 0.1203 0.182 Uiso 1 1 calc R . .
H13D H 0.7475 0.5564 0.1863 0.182 Uiso 1 1 calc R . .
NiC Ni 0.73543(8) -0.07650(8) 0.31448(9) 0.0693(5) Uani 1 1 d . . .
N1C N 0.6459(7) 0.0153(6) 0.1841(7) 0.080(3) Uani 1 1 d . . .
N2C N 0.6245(5) -0.0031(6) 0.3129(5) 0.071(3) Uani 1 1 d . . .
H2C H 0.6394 0.0408 0.3058 0.085 Uiso 1 1 calc R . .
N3C N 0.6854(6) -0.1030(6) 0.4256(6) 0.080(3) Uani 1 1 d . . .
H3C H 0.6600 -0.1440 0.4407 0.096 Uiso 1 1 calc R . .
N4C N 0.8453(6) -0.1538(6) 0.3155(6) 0.080(3) Uani 1 1 d . . .
H4C H 0.8287 -0.1976 0.3247 0.096 Uiso 1 1 calc R . .
N5C N 0.7842(5) -0.0549(5) 0.2031(6) 0.084(3) Uani 1 1 d . . .
H5C H 0.8088 -0.0132 0.1858 0.101 Uiso 1 1 calc R . .
C1C C 0.6271(11) 0.1154(14) 0.0405(10) 0.142(8) Uani 1 1 d . . .
H1C H 0.5711 0.1044 0.0707 0.170 Uiso 1 1 calc R . .
C2C C 0.7785(11) 0.1243(12) 0.0266(9) 0.121(6) Uani 1 1 d . . .
H2C1 H 0.8238 0.1186 0.0459 0.146 Uiso 1 1 calc R . .
C3C C 0.6943(11) 0.1118(8) 0.0718(11) 0.109(5) Uani 1 1 d . . .
C4C C 0.6669(11) 0.0877(10) 0.1521(8) 0.102(5) Uani 1 1 d . . .
H4C1 H 0.7139 0.0920 0.1680 0.123 Uiso 1 1 calc R . .
H4C2 H 0.6155 0.1202 0.1707 0.123 Uiso 1 1 calc R . .
C5C C 0.5884(7) 0.0045(8) 0.2539(8) 0.085(4) Uani 1 1 d . . .
H5C1 H 0.5622 -0.0388 0.2656 0.103 Uiso 1 1 calc R . .
H5C2 H 0.5412 0.0447 0.2544 0.103 Uiso 1 1 calc R . .
C6C C 0.5598(7) -0.0238(9) 0.3908(8) 0.096(5) Uani 1 1 d . . .
H6C1 H 0.5141 0.0164 0.3995 0.116 Uiso 1 1 calc R . .
H6C2 H 0.5320 -0.0649 0.3978 0.116 Uiso 1 1 calc R . .
C7C C 0.6135(8) -0.0427(8) 0.4417(7) 0.088(4) Uani 1 1 d . . .
H7C1 H 0.6391 -0.0007 0.4355 0.106 Uiso 1 1 calc R . .
H7C2 H 0.5760 -0.0573 0.4919 0.106 Uiso 1 1 calc R . .
C8C C 0.7447(10) -0.1147(10) 0.4637(8) 0.106(5) Uani 1 1 d . . .
H8C1 H 0.7139 -0.1265 0.5159 0.127 Uiso 1 1 calc R . .
H8C2 H 0.7713 -0.0712 0.4501 0.127 Uiso 1 1 calc R . .
C9C C 0.8204(10) -0.1802(10) 0.4449(11) 0.123(6) Uani 1 1 d . . .
H9C1 H 0.8519 -0.1965 0.4805 0.147 Uiso 1 1 calc R . .
H9C2 H 0.7927 -0.2203 0.4491 0.147 Uiso 1 1 calc R . .
C10C C 0.8869(8) -0.1592(8) 0.3676(10) 0.101(5) Uani 1 1 d . . .
H10E H 0.9057 -0.1132 0.3588 0.122 Uiso 1 1 calc R . .
H10F H 0.9385 -0.1955 0.3632 0.122 Uiso 1 1 calc R . .
C11C C 0.9070(8) -0.1350(9) 0.2394(10) 0.106(5) Uani 1 1 d . . .
H11E H 0.9363 -0.0948 0.2322 0.127 Uiso 1 1 calc R . .
H11F H 0.9517 -0.1759 0.2316 0.127 Uiso 1 1 calc R . .
C12C C 0.8583(8) -0.1154(10) 0.1870(9) 0.110(5) Uani 1 1 d . . .
H12E H 0.8340 -0.1571 0.1906 0.132 Uiso 1 1 calc R . .
H12F H 0.8977 -0.0997 0.1376 0.132 Uiso 1 1 calc R . .
C13C C 0.7134(8) -0.0431(8) 0.1677(7) 0.084(4) Uani 1 1 d . . .
H13E H 0.7405 -0.0328 0.1151 0.101 Uiso 1 1 calc R . .
H13F H 0.6868 -0.0871 0.1845 0.101 Uiso 1 1 calc R . .
O1 O 0.6598(4) -0.1538(4) 0.3174(5) 0.073(2) Uani 1 1 d . . .
O2 O 0.7323(6) -0.2601(6) 0.3559(9) 0.164(6) Uani 1 1 d . . .
O3 O 0.3485(4) 0.8455(4) 0.3244(5) 0.081(2) Uani 1 1 d . . .
O4 O 0.3197(5) 0.7457(5) 0.3136(6) 0.105(3) Uani 1 1 d . . .
O5 O 0.6611(4) 0.5274(4) 0.3254(5) 0.072(2) Uani 1 1 d . . .
O6 O 0.5212(5) 0.5212(5) 0.3459(6) 0.104(3) Uani 1 1 d . . .
O7 O 0.1123(4) 0.9979(5) 0.3196(5) 0.078(2) Uani 1 1 d . . .
O8 O 0.1431(7) 1.0916(6) 0.3335(11) 0.192(8) Uani 1 1 d . . .
O9 O 0.8021(4) 0.3182(4) 0.3188(6) 0.095(3) Uani 1 1 d . . .
O10 O 0.9356(6) 0.3178(5) 0.3162(7) 0.119(4) Uani 1 1 d . . .
O11 O 0.8116(5) 0.0019(5) 0.3102(5) 0.085(3) Uani 1 1 d . . .
O12 O 0.7190(5) 0.1047(5) 0.3027(7) 0.110(4) Uani 1 1 d . . .
C1 C 0.6704(6) -0.2198(8) 0.3306(7) 0.071(3) Uani 1 1 d . . .
C2 C 0.3680(7) 0.7800(6) 0.3218(8) 0.077(3) Uani 1 1 d . . .
C3 C 0.5819(5) 0.5536(6) 0.3367(7) 0.074(4) Uani 1 1 d . . .
C4 C 0.6041(6) 0.7421(6) 0.3315(6) 0.064(3) Uani 1 1 d . . .
C5 C 0.5197(6) 0.7781(6) 0.3274(6) 0.060(3) Uani 1 1 d . . .
H5 H 0.5056 0.8269 0.3256 0.072 Uiso 1 1 calc R . .
C6 C 0.4596(6) 0.7431(6) 0.3260(6) 0.058(3) Uani 1 1 d . . .
C7 C 0.4798(5) 0.6718(6) 0.3282(6) 0.063(3) Uani 1 1 d . . .
H7 H 0.4375 0.6488 0.3266 0.075 Uiso 1 1 calc R . .
C8 C 0.5587(6) 0.6324(6) 0.3324(7) 0.069(3) Uani 1 1 d . . .
C9 C 0.6240(7) 0.6702(6) 0.3342(7) 0.068(3) Uani 1 1 d . . .
H9 H 0.6788 0.6455 0.3372 0.081 Uiso 1 1 calc R . .
C10 C 0.0907(7) 1.0609(8) 0.3275(8) 0.084(4) Uani 1 1 d . . .
C11 C 0.8768(7) 0.2869(6) 0.3183(8) 0.083(4) Uani 1 1 d . . .
C12 C 0.7897(7) 0.0655(6) 0.3097(7) 0.070(3) Uani 1 1 d . . .
C13 C 0.8984(6) 0.2100(5) 0.3176(7) 0.066(3) Uani 1 1 d . . .
C14 C 0.8408(6) 0.1744(6) 0.3140(6) 0.060(3) Uani 1 1 d . . .
H14 H 0.7856 0.1991 0.3122 0.072 Uiso 1 1 calc R . .
C15 C 0.8593(5) 0.1034(6) 0.3128(6) 0.061(3) Uani 1 1 d . . .
C16 C 0.9407(6) 0.0660(6) 0.3173(7) 0.068(3) Uani 1 1 d . . .
H16 H 0.9549 0.0182 0.3153 0.081 Uiso 1 1 calc R . .
C17 C 1.0013(6) 0.0987(6) 0.3249(7) 0.073(3) Uani 1 1 d . . .
C18 C 0.9807(4) 0.1720(4) 0.3205(4) 0.067(3) Uani 1 1 d . . .
H18 H 1.0233 0.1964 0.3195 0.081 Uiso 1 1 calc R . .
OW1 O 0.4192(4) 0.4908(4) 0.4917(4) 0.38(2) Uani 1 1 d R . .
OW2 O -0.0008(4) 0.0589(4) 0.1252(4) 0.36(2) Uani 1 1 d R . .
OW3 O 0.5392(4) 0.8793(4) 0.1377(4) 0.282(12) Uani 1 1 d R . .
OW4 O 0.0192(4) 0.2938(4) 0.4159(4) 0.306(13) Uani 1 1 d R . .
OW5 O 0.6778(4) 0.6314(4) 0.4933(4) 0.289(12) Uani 1 1 d R . .
OW6 O 0.5378(4) 0.1744(4) 0.3536(4) 0.64(5) Uani 1 1 d R . .
OW7 O 0.2578(4) 0.6197(4) 0.3469(4) 0.82(8) Uani 1 1 d R . .
OW8 O 0.7378(4) 0.2347(4) 0.1685(4) 0.45(2) Uiso 1 1 d R . .
OW9 O 0.3984(4) 0.2388(4) 0.4567(4) 0.59(4) Uani 1 1 d R . .
OW10 O 0.8587(4) 0.3178(4) 0.1384(4) 0.64(5) Uani 1 1 d R . .
OW11 O 0.4187(4) 0.5337(4) 0.2501(4) 0.64(4) Uiso 1 1 d R . .
OW12 O 0.2387(4) 0.4212(4) 0.3195(4) 0.51(3) Uiso 1 1 d R . .
OW13 O 0.0187(4) 0.6380(4) 0.4782(4) 0.64(4) Uiso 1 1 d R . .
OW14 O 0.9187(4) 0.6950(4) 0.2233(4) 0.61(4) Uiso 1 1 d R . .
OW15 O 0.1782(4) 0.1984(4) 0.3688(4) 0.43(2) Uiso 1 1 d R . .

loop_
_atom_site_aniso_label
_atom_site_aniso_U_11
_atom_site_aniso_U_22
_atom_site_aniso_U_33
_atom_site_aniso_U_23
_atom_site_aniso_U_13
_atom_site_aniso_U_12
NiA 0.0505(7) 0.0537(9) 0.1097(12) -0.0291(8) -0.0382(7) 0.0068(6)
N1A 0.116(8) 0.072(8) 0.109(10) -0.036(7) -0.058(7) 0.005(7)
N2A 0.067(6) 0.064(7) 0.143(10) -0.019(7) -0.042(6) -0.004(5)
N3A 0.072(6) 0.070(7) 0.171(12) -0.055(8) -0.071(7) 0.023(5)
N4A 0.060(5) 0.094(9) 0.120(9) -0.051(7) -0.042(5) 0.025(5)
N5A 0.076(6) 0.063(7) 0.114(8) -0.031(6) -0.061(6) 0.015(5)
C1A 0.063(8) 0.19(2) 0.149(17) -0.058(15) -0.033(9) 0.010(10)
C2A 0.109(12) 0.21(2) 0.130(16) -0.066(16) -0.032(11) -0.047(13)
C3A 0.127(11) 0.071(10) 0.122(13) -0.035(9) -0.067(10) 0.008(8)
C4A 0.140(11) 0.113(12) 0.074(9) -0.068(9) -0.051(8) 0.047(9)
C5A 0.100(9) 0.136(16) 0.069(9) -0.046(10) -0.024(7) 0.006(9)
C6A 0.101(10) 0.092(13) 0.164(16) -0.003(11) -0.059(11) -0.021(9)
C7A 0.053(6) 0.076(10) 0.167(15) -0.024(10) -0.019(7) -0.015(6)
C8A 0.087(9) 0.077(10) 0.