####################################################################### 
# 
# This file contains crystal structure data downloaded from the 
# Cambridge Structural Database (CSD) hosted by the Cambridge 
# Crystallographic Data Centre (CCDC).
# 
# Full information about CCDC data access policies and citation 
# guidelines are available at http://www.ccdc.cam.ac.uk/access/V1 
# 
# Audit and citation data items may have been added by the CCDC. 
# Please retain this information to preserve the provenance of 
# this file and to allow appropriate attribution of the data. 
# 
#######################################################################

data_[Ni2(C26H52N10)]3[BTC]4.20C5H5N.6H2O
_audit_block_doi                 10.5517/cc6l878
_database_code_depnum_ccdc_archive 'CCDC 196299'
loop_
_citation_id
_citation_doi
_citation_year
1 10.1021/ja0466715 2004
2 10.1021/ja017560y 2002
_audit_update_record             
;
2002-10-29 deposited with the CCDC.	2024-07-14 downloaded from the CCDC.
;

_audit_creation_method           SHELXL-97
_chemical_name_systematic        
; 
? 
;
_chemical_name_common            ?
_chemical_melting_point          ?
_chemical_formula_moiety         ?
_chemical_formula_sum            'C107 H141 N25 Ni3 O15'
_chemical_formula_weight         2193.58

loop_
_atom_type_symbol
_atom_type_description
_atom_type_scat_dispersion_real
_atom_type_scat_dispersion_imag
_atom_type_scat_source
C C 0.0033 0.0016 'International Tables Vol C Tables 4.2.6.8 and 6.1.1.4'
H H 0.0000 0.0000 'International Tables Vol C Tables 4.2.6.8 and 6.1.1.4'
N N 0.0061 0.0033 'International Tables Vol C Tables 4.2.6.8 and 6.1.1.4'
O O 0.0106 0.0060 'International Tables Vol C Tables 4.2.6.8 and 6.1.1.4'
Ni Ni 0.3393 1.1124 'International Tables Vol C Tables 4.2.6.8 and 6.1.1.4'

_symmetry_cell_setting           ?
_symmetry_space_group_name_H-M   ?

loop_
_symmetry_equiv_pos_as_xyz
'x, y, z'
'-x, -y, -z'

_cell_length_a                   16.467
_cell_length_b                   20.1340(10)
_cell_length_c                   20.7200(10)
_cell_angle_alpha                72.5320(10)
_cell_angle_beta                 67.9390(10)
_cell_angle_gamma                75.042(2)
_cell_volume                     5990.4(4)
_cell_formula_units_Z            2
_cell_measurement_temperature    293(2)
_cell_measurement_reflns_used    ?
_cell_measurement_theta_min      ?
_cell_measurement_theta_max      ?

_exptl_crystal_description       ?
_exptl_crystal_colour            ?
_exptl_crystal_size_max          ?
_exptl_crystal_size_mid          ?
_exptl_crystal_size_min          ?
_exptl_crystal_density_meas      ?
_exptl_crystal_density_diffrn    1.216
_exptl_crystal_density_method    'not measured'
_exptl_crystal_F_000             2324
_exptl_absorpt_coefficient_mu    0.534
_exptl_absorpt_correction_type   ?
_exptl_absorpt_correction_T_min  ?
_exptl_absorpt_correction_T_max  ?
_exptl_absorpt_process_details   ?

_exptl_special_details           
; 
? 
;

_diffrn_ambient_temperature      293(2)
_diffrn_radiation_wavelength     0.71073
_diffrn_radiation_type           MoK\a
_diffrn_radiation_source         'fine-focus sealed tube'
_diffrn_radiation_monochromator  graphite
_diffrn_measurement_device_type  ?
_diffrn_measurement_method       ?
_diffrn_detector_area_resol_mean ?
_diffrn_standards_number         ?
_diffrn_standards_interval_count ?
_diffrn_standards_interval_time  ?
_diffrn_standards_decay_%        ?
_diffrn_reflns_number            27387
_diffrn_reflns_av_R_equivalents  0.0774
_diffrn_reflns_av_sigmaI/netI    0.2673
_diffrn_reflns_limit_h_min       -20
_diffrn_reflns_limit_h_max       20
_diffrn_reflns_limit_k_min       -24
_diffrn_reflns_limit_k_max       24
_diffrn_reflns_limit_l_min       -23
_diffrn_reflns_limit_l_max       24
_diffrn_reflns_theta_min         1.07
_diffrn_reflns_theta_max         25.71
_reflns_number_total             19716
_reflns_number_gt                6866
_reflns_threshold_expression     >2sigma(I)

_computing_data_collection       ?
_computing_cell_refinement       ?
_computing_data_reduction        ?
_computing_structure_solution    'SHELXS-97 (Sheldrick, 1990)'
_computing_structure_refinement  'SHELXL-97 (Sheldrick, 1997)'
_computing_molecular_graphics    ?
_computing_publication_material  ?

_refine_special_details          
; 
Refinement of F^2^ against ALL reflections.  The weighted R-factor wR and 
goodness of fit S are based on F^2^, conventional R-factors R are based 
on F, with F set to zero for negative F^2^. The threshold expression of 
F^2^ > 2sigma(F^2^) is used only for calculating R-factors(gt) etc. and is 
not relevant to the choice of reflections for refinement.  R-factors based 
on F^2^ are statistically about twice as large as those based on F, and R- 
factors based on ALL data will be even larger. 
;

_refine_ls_structure_factor_coef Fsqd
_refine_ls_matrix_type           full
_refine_ls_weighting_scheme      calc
_refine_ls_weighting_details     
'calc w=1/[\s^2^(Fo^2^)+(0.2000P)^2^+0.0000P] where P=(Fo^2^+2Fc^2^)/3'
_atom_sites_solution_primary     direct
_atom_sites_solution_secondary   difmap
_atom_sites_solution_hydrogens   geom
_refine_ls_hydrogen_treatment    mixed
_refine_ls_extinction_method     none
_refine_ls_extinction_coef       ?
_refine_ls_number_reflns         19716
_refine_ls_number_parameters     1053
_refine_ls_number_restraints     567
_refine_ls_R_factor_all          0.2819
_refine_ls_R_factor_gt           0.1279
_refine_ls_wR_factor_ref         0.4201
_refine_ls_wR_factor_gt          0.3551
_refine_ls_goodness_of_fit_ref   1.108
_refine_ls_restrained_S_all      1.111
_refine_ls_shift/su_max          2.996
_refine_ls_shift/su_mean         0.090

loop_
_atom_site_label
_atom_site_type_symbol
_atom_site_fract_x
_atom_site_fract_y
_atom_site_fract_z
_atom_site_U_iso_or_equiv
_atom_site_adp_type
_atom_site_occupancy
_atom_site_symmetry_multiplicity
_atom_site_calc_flag
_atom_site_refinement_flags
_atom_site_disorder_assembly
_atom_site_disorder_group
NiA Ni 0.23721(7) 0.92262(7) 0.32528(9) 0.0654(6) Uani 1 1 d . . .
N1A N 0.1958(7) 0.8913(5) 0.1934(6) 0.070(3) Uani 1 1 d . . .
N2A N 0.2918(6) 0.9534(5) 0.2151(6) 0.084(3) Uani 1 1 d . . .
H2A H 0.3410 0.9211 0.2010 0.101 Uiso 1 1 calc R . .
N3A N 0.3012(8) 0.9960(5) 0.3262(8) 0.099(4) Uani 1 1 d . . .
H3A H 0.2589 1.0351 0.3318 0.119 Uiso 1 1 calc R . .
N4A N 0.1811(6) 0.8929(6) 0.4341(5) 0.082(3) Uani 1 1 d . . .
H4A H 0.1324 0.9259 0.4472 0.098 Uiso 1 1 calc R . .
N5A N 0.1706(5) 0.8500(4) 0.3230(5) 0.056(2) Uani 1 1 d . . .
H5A H 0.2109 0.8098 0.3180 0.067 Uiso 1 1 calc R . .
C1A C 0.3613(10) 0.8640(8) 0.0300(11) 0.108(5) Uani 1 1 d . . .
H1A H 0.4092 0.8604 0.0450 0.129 Uiso 1 1 calc R . .
C2A C 0.2147(10) 0.8577(8) 0.0559(9) 0.100(4) Uani 1 1 d . . .
H2A1 H 0.1584 0.8501 0.0872 0.120 Uiso 1 1 calc R . .
C3A C 0.2775(9) 0.8518(6) 0.0838(9) 0.079(4) Uani 1 1 d . . .
C4A C 0.2586(8) 0.8363(7) 0.1609(8) 0.085(4) Uani 1 1 d . . .
H4A1 H 0.2353 0.7923 0.1824 0.102 Uiso 1 1 calc R . .
H4A2 H 0.3136 0.8300 0.1707 0.102 Uiso 1 1 calc R . .
C5A C 0.2282(9) 0.9543(8) 0.1758(8) 0.104(5) Uani 1 1 d . . .
H5A1 H 0.1782 0.9919 0.1862 0.125 Uiso 1 1 calc R . .
H5A2 H 0.2591 0.9655 0.1247 0.125 Uiso 1 1 calc R . .
C6A C 0.3208(8) 1.0186(7) 0.2015(8) 0.103(5) Uani 1 1 d . . .
H6A1 H 0.2702 1.0565 0.2052 0.123 Uiso 1 1 calc R . .
H6A2 H 0.3621 1.0286 0.1532 0.123 Uiso 1 1 calc R . .
C7A C 0.3639(9) 1.0155(7) 0.2523(13) 0.134(8) Uani 1 1 d . . .
H7A1 H 0.3799 1.0610 0.2447 0.161 Uiso 1 1 calc R . .
H7A2 H 0.4177 0.9806 0.2458 0.161 Uiso 1 1 calc R . .
C8A C 0.3314(14) 0.9744(8) 0.3947(15) 0.155(9) Uani 1 1 d . . .
H8A1 H 0.3813 0.9360 0.3886 0.186 Uiso 1 1 calc R . .
H8A2 H 0.3528 1.0142 0.3965 0.186 Uiso 1 1 calc R . .
C9A C 0.2633(15) 0.9521(14) 0.4651(11) 0.162(11) Uani 1 1 d . . .
H9A1 H 0.2874 0.9466 0.5029 0.195 Uiso 1 1 calc R . .
H9A2 H 0.2118 0.9891 0.4708 0.195 Uiso 1 1 calc R . .
C10A C 0.2368(10) 0.8900(9) 0.4727(10) 0.121(6) Uani 1 1 d . . .
H10A H 0.2062 0.8727 0.5230 0.145 Uiso 1 1 calc R . .
H10B H 0.2895 0.8556 0.4586 0.145 Uiso 1 1 calc R . .
C11A C 0.1488(7) 0.8258(7) 0.4475(7) 0.084(4) Uani 1 1 d . . .
H11A H 0.1066 0.8160 0.4953 0.101 Uiso 1 1 calc R . .
H11B H 0.1982 0.7870 0.4435 0.101 Uiso 1 1 calc R . .
C12A C 0.1047(7) 0.8337(6) 0.3925(7) 0.070(3) Uani 1 1 d . . .
H12A H 0.0847 0.7901 0.3989 0.084 Uiso 1 1 calc R . .
H12B H 0.0538 0.8713 0.3974 0.084 Uiso 1 1 calc R . .
C13A C 0.1369(8) 0.8707(6) 0.2609(8) 0.071(3) Uani 1 1 d . . .
H13A H 0.1135 0.8311 0.2611 0.085 Uiso 1 1 calc R . .
H13B H 0.0875 0.9092 0.2689 0.085 Uiso 1 1 calc R . .
NiB Ni 0.73814(7) 0.42479(6) 0.33010(8) 0.0622(6) Uani 1 1 d . . .
N1B N 0.8751(7) 0.5122(6) 0.1896(8) 0.096(4) Uani 1 1 d . . .
N2B N 0.8523(5) 0.4587(5) 0.3147(7) 0.075(3) Uani 1 1 d . . .
H2B H 0.8979 0.4224 0.3049 0.090 Uiso 1 1 calc R . .
N3B N 0.7185(6) 0.4062(5) 0.4380(6) 0.083(3) Uani 1 1 d . . .
H3B H 0.6792 0.4437 0.4534 0.100 Uiso 1 1 calc R . .
N4B N 0.6206(5) 0.3932(5) 0.3477(7) 0.073(3) Uani 1 1 d . . .
H4B H 0.5759 0.4298 0.3582 0.088 Uiso 1 1 calc R . .
N5B N 0.7564(6) 0.4468(5) 0.2226(5) 0.080(3) Uani 1 1 d . . .
H5B H 0.7933 0.4096 0.2049 0.096 Uiso 1 1 calc R . .
C1B C 0.989(2) 0.559(2) 0.0461(16) 0.262(19) Uani 1 1 d . . .
H1B H 0.9849 0.5895 0.0736 0.315 Uiso 1 1 calc R . .
C2B C 0.996(2) 0.4336(13) 0.020(3) 0.26(2) Uani 1 1 d . . .
H2B1 H 0.9958 0.3862 0.0431 0.316 Uiso 1 1 calc R . .
C3B C 0.9813(10) 0.4719(16) 0.0658(12) 0.174(12) Uani 1 1 d . . .
C4B C 0.9570(9) 0.4661(8) 0.1447(14) 0.166(10) Uani 1 1 d . . .
H4B1 H 1.0089 0.4733 0.1517 0.199 Uiso 1 1 calc R . .
H4B2 H 0.9502 0.4173 0.1677 0.199 Uiso 1 1 calc R . .
C5B C 0.8717(8) 0.5193(8) 0.2539(12) 0.099(5) Uani 1 1 d . . .
H5B1 H 0.8269 0.5597 0.2658 0.119 Uiso 1 1 calc R . .
H5B2 H 0.9284 0.5302 0.2483 0.119 Uiso 1 1 calc R . .
C6B C 0.8438(9) 0.4697(8) 0.3864(11) 0.107(6) Uani 1 1 d . . .
H6B1 H 0.9018 0.4704 0.3877 0.129 Uiso 1 1 calc R . .
H6B2 H 0.8063 0.5144 0.3938 0.129 Uiso 1 1 calc R . .
C7B C 0.8036(10) 0.4099(9) 0.4439(9) 0.106(5) Uani 1 1 d . . .
H7B1 H 0.8439 0.3658 0.4389 0.128 Uiso 1 1 calc R . .
H7B2 H 0.7938 0.4175 0.4905 0.128 Uiso 1 1 calc R . .
C8B C 0.6796(9) 0.3422(7) 0.4838(8) 0.106(5) Uani 1 1 d . . .
H8B1 H 0.6712 0.3395 0.5333 0.127 Uiso 1 1 calc R . .
H8B2 H 0.7207 0.3005 0.4705 0.127 Uiso 1 1 calc R . .
C9B C 0.5920(8) 0.3428(8) 0.4764(9) 0.105(5) Uani 1 1 d . . .
H9B1 H 0.5542 0.3875 0.4836 0.126 Uiso 1 1 calc R . .
H9B2 H 0.5636 0.3057 0.5140 0.126 Uiso 1 1 calc R . .
C10B C 0.5986(7) 0.3323(6) 0.4028(10) 0.088(5) Uani 1 1 d . . .
H10C H 0.6435 0.2919 0.3913 0.106 Uiso 1 1 calc R . .
H10D H 0.5422 0.3229 0.4059 0.106 Uiso 1 1 calc R . .
C11B C 0.6292(8) 0.3844(8) 0.2762(10) 0.109(5) Uani 1 1 d . . .
H11C H 0.5718 0.3812 0.2753 0.131 Uiso 1 1 calc R . .
H11D H 0.6699 0.3415 0.2663 0.131 Uiso 1 1 calc R . .
C12B C 0.6649(9) 0.4495(9) 0.2195(9) 0.119(5) Uani 1 1 d . . .
H12C H 0.6689 0.4471 0.1723 0.142 Uiso 1 1 calc R . .
H12D H 0.6261 0.4928 0.2305 0.142 Uiso 1 1 calc R . .
C13B C 0.7922(8) 0.5111(7) 0.1783(7) 0.098(5) Uani 1 1 d . . .
H13C H 0.7489 0.5522 0.1906 0.117 Uiso 1 1 calc R . .
H13D H 0.8039 0.5131 0.1283 0.117 Uiso 1 1 calc R . .
NiC Ni 0.74806(7) -0.06843(6) 0.30076(8) 0.0528(5) Uani 1 1 d . . .
N1C N 0.6522(7) 0.0204(5) 0.1779(6) 0.065(3) Uani 1 1 d . . .
N2C N 0.6339(4) 0.0051(4) 0.3030(5) 0.051(2) Uani 1 1 d . . .
H2C H 0.6483 0.0481 0.2959 0.061 Uiso 1 1 calc R . .
N3C N 0.6988(5) -0.0906(5) 0.4103(5) 0.068(3) Uani 1 1 d . . .
H3C H 0.6733 -0.1299 0.4236 0.081 Uiso 1 1 calc R . .
N4C N 0.8604(5) -0.1427(4) 0.2964(5) 0.061(3) Uani 1 1 d . . .
H4C H 0.8452 -0.1850 0.3021 0.073 Uiso 1 1 calc R . .
N5C N 0.7967(5) -0.0469(4) 0.1894(5) 0.066(3) Uani 1 1 d . . .
H5C H 0.8208 -0.0067 0.1737 0.079 Uiso 1 1 calc R . .
C1C C 0.6247(10) 0.1196(9) 0.0416(9) 0.112(5) Uani 1 1 d . . .
H1C H 0.5689 0.1112 0.0732 0.135 Uiso 1 1 calc R . .
C2C C 0.7725(10) 0.1259(8) 0.0156(9) 0.103(5) Uani 1 1 d . . .
H2C1 H 0.8203 0.1214 0.0311 0.124 Uiso 1 1 calc R . .
C3C C 0.6886(10) 0.1155(6) 0.0669(8) 0.071(3) Uani 1 1 d . . .
C4C C 0.6761(8) 0.0951(6) 0.1441(7) 0.081(4) Uani 1 1 d . . .
H4C1 H 0.6291 0.1287 0.1678 0.098 Uiso 1 1 calc R . .
H4C2 H 0.7304 0.0967 0.1515 0.098 Uiso 1 1 calc R . .
C5C C 0.5953(7) 0.0103(5) 0.2478(7) 0.064(3) Uani 1 1 d . . .
H5C1 H 0.5715 -0.0326 0.2588 0.077 Uiso 1 1 calc R . .
H5C2 H 0.5458 0.0491 0.2508 0.077 Uiso 1 1 calc R . .
C6C C 0.5716(6) -0.0120(6) 0.3787(6) 0.066(3) Uani 1 1 d . . .
H6C1 H 0.5430 -0.0510 0.3850 0.080 Uiso 1 1 calc R . .
H6C2 H 0.5260 0.0285 0.3884 0.080 Uiso 1 1 calc R . .
C7C C 0.6242(6) -0.0317(6) 0.4302(6) 0.070(3) Uani 1 1 d . . .
H7C1 H 0.6478 0.0088 0.4276 0.084 Uiso 1 1 calc R . .
H7C2 H 0.5859 -0.0466 0.4788 0.084 Uiso 1 1 calc R . .
C8C C 0.7651(8) -0.1080(7) 0.4468(7) 0.082(4) Uani 1 1 d . . .
H8C1 H 0.7359 -0.1218 0.4980 0.098 Uiso 1 1 calc R . .
H8C2 H 0.7902 -0.0662 0.4376 0.098 Uiso 1 1 calc R . .
C9C C 0.8388(9) -0.1663(7) 0.4236(9) 0.093(4) Uani 1 1 d . . .
H9C1 H 0.8730 -0.1807 0.4562 0.112 Uiso 1 1 calc R . .
H9C2 H 0.8122 -0.2063 0.4292 0.112 Uiso 1 1 calc R . .
C10C C 0.9009(7) -0.1513(6) 0.3501(8) 0.074(4) Uani 1 1 d . . .
H10E H 0.9235 -0.1085 0.3421 0.089 Uiso 1 1 calc R . .
H10F H 0.9509 -0.1897 0.3449 0.089 Uiso 1 1 calc R . .
C11C C 0.9227(7) -0.1242(7) 0.2212(8) 0.087(4) Uani 1 1 d . . .
H11E H 0.9699 -0.1637 0.2111 0.104 Uiso 1 1 calc R . .
H11F H 0.9493 -0.0840 0.2152 0.104 Uiso 1 1 calc R . .
C12C C 0.8698(6) -0.1065(7) 0.1712(6) 0.082(4) Uani 1 1 d . . .
H12E H 0.9078 -0.0933 0.1222 0.099 Uiso 1 1 calc R . .
H12F H 0.8454 -0.1473 0.1759 0.099 Uiso 1 1 calc R . .
C13C C 0.7272(8) -0.0353(6) 0.1577(7) 0.079(4) Uani 1 1 d . . .
H13E H 0.7046 -0.0792 0.1710 0.094 Uiso 1 1 calc R . .
H13F H 0.7537 -0.0241 0.1061 0.094 Uiso 1 1 calc R . .
O1 O 0.6722(4) -0.1436(4) 0.3052(4) 0.066(2) Uani 1 1 d . . .
O2 O 0.7581(5) -0.2483(4) 0.3266(6) 0.109(3) Uani 1 1 d . . .
O3 O 0.3556(4) 0.8487(4) 0.3279(4) 0.071(2) Uani 1 1 d . . .
O4 O 0.3327(5) 0.7520(4) 0.3140(6) 0.109(3) Uani 1 1 d . . .
O5 O 0.6731(4) 0.5316(4) 0.3349(4) 0.080(2) Uani 1 1 d . . .
O6 O 0.5311(5) 0.5290(4) 0.3625(7) 0.154(5) Uani 1 1 d . . .
O7 O 0.1173(4) 0.9995(4) 0.3211(4) 0.074(2) Uani 1 1 d . . .
O8 O 0.1414(6) 1.0931(5) 0.3396(8) 0.179(6) Uani 1 1 d . . .
O9 O 0.8026(4) 0.3193(3) 0.3218(4) 0.073(2) Uani 1 1 d . . .
O10 O 0.9410(5) 0.3160(4) 0.3178(6) 0.125(4) Uani 1 1 d . . .
O11 O 0.8203(4) 0.0046(4) 0.3023(4) 0.0587(19) Uani 1 1 d . . .
O12 O 0.7348(4) 0.1103(4) 0.2831(5) 0.085(3) Uani 1 1 d . . .
C1 C 0.6897(7) -0.2119(7) 0.3153(7) 0.073(4) Uani 1 1 d . . .
C2 C 0.3795(6) 0.7868(6) 0.3212(6) 0.065(3) Uani 1 1 d . . .
C3 C 0.5923(7) 0.5616(7) 0.3448(8) 0.087(4) Uani 1 1 d . . .
C4 C 0.6189(5) 0.7493(5) 0.3210(5) 0.046(3) Uani 1 1 d . . .
C5 C 0.5313(5) 0.7876(5) 0.3210(5) 0.053(3) Uani 1 1 d . . .
H5 H 0.5169 0.8360 0.3178 0.063 Uiso 1 1 calc R . .
C6 C 0.4694(5) 0.7485(6) 0.3258(6) 0.054(3) Uani 1 1 d . . .
C7 C 0.4906(6) 0.6766(6) 0.3328(6) 0.062(3) Uani 1 1 d . . .
H7 H 0.4483 0.6518 0.3357 0.074 Uiso 1 1 calc R . .
C8 C 0.5726(6) 0.6407(5) 0.3354(6) 0.060(3) Uani 1 1 d . . .
C9 C 0.6360(6) 0.6786(5) 0.3276(6) 0.061(3) Uani 1 1 d . . .
H9 H 0.6926 0.6545 0.3269 0.073 Uiso 1 1 calc R . .
C10 C 0.0944(7) 1.0588(7) 0.3290(7) 0.082(4) Uani 1 1 d . . .
C11 C 0.8788(7) 0.2875(5) 0.3211(6) 0.067(3) Uani 1 1 d . . .
C12 C 0.8008(6) 0.0697(6) 0.2976(5) 0.052(3) Uani 1 1 d . . .
C13 C 1.0018(6) 0.1001(5) 0.3246(6) 0.059(3) Uani 1 1 d . . .
C14 C 0.9828(6) 0.1711(5) 0.3254(6) 0.061(3) Uani 1 1 d . . .
H14 H 1.0236 0.1928 0.3293 0.073 Uiso 1 1 calc R . .
C15 C 0.8999(6) 0.2096(5) 0.3201(6) 0.060(3) Uani 1 1 d . . .
C16 C 0.8416(5) 0.1759(5) 0.3111(5) 0.044(3) Uani 1 1 d . . .
H16 H 0.7875 0.2014 0.3065 0.053 Uiso 1 1 calc R . .
C17 C 0.8637(5) 0.1042(5) 0.3090(5) 0.048(3) Uani 1 1 d . . .
C18 C 0.9437(5) 0.0678(5) 0.3164(6) 0.058(3) Uani 1 1 d . . .
H18 H 0.9588 0.0201 0.3159 0.069 Uiso 1 1 calc R . .
N1 N 0.9504(7) 0.0574(7) 0.0945(7) 0.119(4) Uiso 1 1 d D . .
C19 C 1.0345(9) 0.0322(8) 0.0657(9) 0.132(5) Uiso 1 1 d D . .
H19 H 1.0432 -0.0072 0.0478 0.159 Uiso 1 1 calc R . .
C20 C 1.1079(9) 0.0516(8) 0.0575(8) 0.124(5) Uiso 1 1 d D . .
H20 H 1.1637 0.0317 0.0314 0.149 Uiso 1 1 calc R . .
C21 C 1.0941(10) 0.1058(9) 0.0924(9) 0.142(6) Uiso 1 1 d D . .
H21 H 1.1421 0.1203 0.0945 0.170 Uiso 1 1 calc R . .
C22 C 1.0098(9) 0.1366(8) 0.1228(8) 0.123(5) Uiso 1 1 d D . .
H22 H 0.9990 0.1747 0.1431 0.147 Uiso 1 1 calc R . .
C23 C 0.9432(8) 0.1110(7) 0.1227(7) 0.106(4) Uiso 1 1 d D . .
H23 H 0.8860 0.1325 0.1445 0.127 Uiso 1 1 calc R . .
N2 N 0.4216(11) 0.2134(9) 0.4972(10) 0.201(7) Uiso 1 1 d D . .
C24 C 0.4131(12) 0.2248(8) 0.4331(12) 0.192(8) Uiso 1 1 d D . .
H24 H 0.3564 0.2476 0.4329 0.231 Uiso 1 1 calc R . .
C25 C 0.4630(14) 0.2127(10) 0.3703(11) 0.214(10) Uiso 1 1 d D . .
H25 H 0.4455 0.2253 0.3298 0.257 Uiso 1 1 calc R . .
C26 C 0.5480(11) 0.1772(9) 0.3739(9) 0.151(6) Uiso 1 1 d D . .
H26 H 0.5908 0.1645 0.3331 0.182 Uiso 1 1 calc R . .
C27 C 0.5685(11) 0.1618(10) 0.4319(10) 0.156(7) Uiso 1 1 d D . .
H27 H 0.6259 0.1407 0.4319 0.188 Uiso 1 1 calc R . .
C28 C 0.5059(13) 0.1766(10) 0.4920(10) 0.175(8) Uiso 1 1 d D . .
H28 H 0.5208 0.1606 0.5338 0.211 Uiso 1 1 calc R . .
N3 N 0.5293(13) 0.8291(11) 0.1415(9) 0.210(7) Uiso 1 1 d D . .
C29 C 0.5086(12) 0.8987(12) 0.1223(9) 0.191(8) Uiso 1 1 d D . .
H29 H 0.4501 0.9130 0.1485 0.229 Uiso 1 1 calc R . .
C30 C 0.5427(13) 0.9536(10) 0.0789(11) 0.187(8) Uiso 1 1 d D . .
H30 H 0.5161 1.0006 0.0769 0.225 Uiso 1 1 calc R . .
C31 C 0.6265(14) 0.9287(12) 0.0361(11) 0.208(9) Uiso 1 1 d D . .
H31 H 0.6555 0.9565 -0.0073 0.250 Uiso 1 1 calc R . .
C32 C 0.6624(13) 0.8647(13) 0.0597(13) 0.205(9) Uiso 1 1 d D . .
H32 H 0.7239 0.8533 0.0414 0.246 Uiso 1 1 calc R . .
C33 C 0.6179(16) 0.8