####################################################################### 
# 
# This file contains crystal structure data downloaded from the 
# Cambridge Structural Database (CSD) hosted by the Cambridge 
# Crystallographic Data Centre (CCDC).
# 
# Full information about CCDC data access policies and citation 
# guidelines are available at http://www.ccdc.cam.ac.uk/access/V1 
# 
# Audit and citation data items may have been added by the CCDC. 
# Please retain this information to preserve the provenance of 
# this file and to allow appropriate attribution of the data. 
# 
#######################################################################

data_Ni2(C26H52N10)]3[BTC]4.14C6H6.19H2O
_audit_block_doi                 10.5517/cc6l889
_database_code_depnum_ccdc_archive 'CCDC 196300'
loop_
_citation_id
_citation_doi
_citation_year
1 10.1021/ja0466715 2004
2 10.1021/ja017560y 2002
_audit_update_record             
;
2002-10-29 deposited with the CCDC.	2024-07-14 downloaded from the CCDC.
;

_audit_creation_method           SHELXL-97
_chemical_name_systematic        
; 
? 
;
_chemical_name_common            ?
_chemical_melting_point          ?
_chemical_formula_moiety         ?
_chemical_formula_sum            'C99 H145 N15 Ni3 O21.50'
_chemical_formula_weight         2065.43

loop_
_atom_type_symbol
_atom_type_description
_atom_type_scat_dispersion_real
_atom_type_scat_dispersion_imag
_atom_type_scat_source
C C 0.0033 0.0016 'International Tables Vol C Tables 4.2.6.8 and 6.1.1.4'
H H 0.0000 0.0000 'International Tables Vol C Tables 4.2.6.8 and 6.1.1.4'
N N 0.0061 0.0033 'International Tables Vol C Tables 4.2.6.8 and 6.1.1.4'
O O 0.0106 0.0060 'International Tables Vol C Tables 4.2.6.8 and 6.1.1.4'
Ni Ni 0.3393 1.1124 'International Tables Vol C Tables 4.2.6.8 and 6.1.1.4'

_symmetry_cell_setting           ?
_symmetry_space_group_name_H-M   ?

loop_
_symmetry_equiv_pos_as_xyz
'x, y, z'
'-x, -y, -z'

_cell_length_a                   16.460(5)
_cell_length_b                   19.849(5)
_cell_length_c                   20.419(5)
_cell_angle_alpha                70.498(5)
_cell_angle_beta                 71.084(5)
_cell_angle_gamma                76.297(5)
_cell_volume                     5887(3)
_cell_formula_units_Z            2
_cell_measurement_temperature    293(2)
_cell_measurement_reflns_used    ?
_cell_measurement_theta_min      ?
_cell_measurement_theta_max      ?

_exptl_crystal_description       ?
_exptl_crystal_colour            ?
_exptl_crystal_size_max          ?
_exptl_crystal_size_mid          ?
_exptl_crystal_size_min          ?
_exptl_crystal_density_meas      ?
_exptl_crystal_density_diffrn    1.165
_exptl_crystal_density_method    'not measured'
_exptl_crystal_F_000             2200
_exptl_absorpt_coefficient_mu    0.541
_exptl_absorpt_correction_type   ?
_exptl_absorpt_correction_T_min  ?
_exptl_absorpt_correction_T_max  ?
_exptl_absorpt_process_details   ?

_exptl_special_details           
; 
? 
;

_diffrn_ambient_temperature      293(2)
_diffrn_radiation_wavelength     0.71073
_diffrn_radiation_type           MoK\a
_diffrn_radiation_source         'fine-focus sealed tube'
_diffrn_radiation_monochromator  graphite
_diffrn_measurement_device_type  ?
_diffrn_measurement_method       ?
_diffrn_detector_area_resol_mean ?
_diffrn_standards_number         ?
_diffrn_standards_interval_count ?
_diffrn_standards_interval_time  ?
_diffrn_standards_decay_%        ?
_diffrn_reflns_number            22387
_diffrn_reflns_av_R_equivalents  0.1444
_diffrn_reflns_av_sigmaI/netI    0.6290
_diffrn_reflns_limit_h_min       -19
_diffrn_reflns_limit_h_max       19
_diffrn_reflns_limit_k_min       -21
_diffrn_reflns_limit_k_max       24
_diffrn_reflns_limit_l_min       -23
_diffrn_reflns_limit_l_max       19
_diffrn_reflns_theta_min         1.10
_diffrn_reflns_theta_max         25.75
_reflns_number_total             15661
_reflns_number_gt                3439
_reflns_threshold_expression     >2sigma(I)

_computing_data_collection       ?
_computing_cell_refinement       ?
_computing_data_reduction        ?
_computing_structure_solution    'SHELXS-97 (Sheldrick, 1990)'
_computing_structure_refinement  'SHELXL-97 (Sheldrick, 1997)'
_computing_molecular_graphics    ?
_computing_publication_material  ?

_refine_special_details          
; 
Refinement of F^2^ against ALL reflections.  The weighted R-factor wR and 
goodness of fit S are based on F^2^, conventional R-factors R are based 
on F, with F set to zero for negative F^2^. The threshold expression of 
F^2^ > 2sigma(F^2^) is used only for calculating R-factors(gt) etc. and is 
not relevant to the choice of reflections for refinement.  R-factors based 
on F^2^ are statistically about twice as large as those based on F, and R- 
factors based on ALL data will be even larger. 
;

_refine_ls_structure_factor_coef Fsqd
_refine_ls_matrix_type           full
_refine_ls_weighting_scheme      calc
_refine_ls_weighting_details     
'calc w=1/[\s^2^(Fo^2^)+(0.2000P)^2^+0.0000P] where P=(Fo^2^+2Fc^2^)/3'
_atom_sites_solution_primary     direct
_atom_sites_solution_secondary   difmap
_atom_sites_solution_hydrogens   geom
_refine_ls_hydrogen_treatment    mixed
_refine_ls_extinction_method     none
_refine_ls_extinction_coef       ?
_refine_ls_number_reflns         15661
_refine_ls_number_parameters     1031
_refine_ls_number_restraints     1008
_refine_ls_R_factor_all          0.4091
_refine_ls_R_factor_gt           0.1299
_refine_ls_wR_factor_ref         0.4543
_refine_ls_wR_factor_gt          0.3464
_refine_ls_goodness_of_fit_ref   0.943
_refine_ls_restrained_S_all      0.920
_refine_ls_shift/su_max          6.933
_refine_ls_shift/su_mean         0.122

loop_
_atom_site_label
_atom_site_type_symbol
_atom_site_fract_x
_atom_site_fract_y
_atom_site_fract_z
_atom_site_U_iso_or_equiv
_atom_site_adp_type
_atom_site_occupancy
_atom_site_symmetry_multiplicity
_atom_site_calc_flag
_atom_site_refinement_flags
_atom_site_disorder_assembly
_atom_site_disorder_group
NiA Ni 0.22345(14) 0.92042(13) 0.31834(16) 0.0739(10) Uani 1 1 d . . .
N1A N 0.1733(14) 0.8880(12) 0.1855(13) 0.092(6) Uani 1 1 d . . .
N2A N 0.2660(11) 0.9498(9) 0.2091(10) 0.084(6) Uani 1 1 d . . .
H2A H 0.3119 0.9162 0.1968 0.101 Uiso 1 1 calc R . .
N3A N 0.2963(10) 0.9955(7) 0.3117(13) 0.098(7) Uani 1 1 d . . .
H3A H 0.2571 1.0362 0.3137 0.117 Uiso 1 1 calc R . .
N4A N 0.1752(10) 0.8878(9) 0.4295(9) 0.088(6) Uani 1 1 d . . .
H4A H 0.1296 0.9215 0.4421 0.106 Uiso 1 1 calc R . .
N5A N 0.1599(9) 0.8474(8) 0.3160(10) 0.073(5) Uani 1 1 d . . .
H5A H 0.1988 0.8067 0.3127 0.087 Uiso 1 1 calc R . .
C1A C 0.345(2) 0.8572(15) 0.046(2) 0.128(11) Uani 1 1 d . . .
H1A H 0.3854 0.8497 0.0722 0.153 Uiso 1 1 calc R . .
C2A C 0.2048(17) 0.8603(12) 0.0429(18) 0.106(8) Uani 1 1 d . . .
H2A1 H 0.1466 0.8564 0.0663 0.128 Uiso 1 1 calc R . .
C3A C 0.263(3) 0.8499(12) 0.0794(19) 0.101(9) Uani 1 1 d . . .
C4A C 0.2337(14) 0.8322(11) 0.1596(16) 0.101(8) Uani 1 1 d . . .
H4A1 H 0.2074 0.7884 0.1785 0.122 Uiso 1 1 calc R . .
H4A2 H 0.2841 0.8229 0.1779 0.122 Uiso 1 1 calc R . .
C5A C 0.2050(13) 0.9543(14) 0.1698(11) 0.092(7) Uani 1 1 d . . .
H5A1 H 0.1561 0.9909 0.1809 0.110 Uiso 1 1 calc R . .
H5A2 H 0.2329 0.9699 0.1185 0.110 Uiso 1 1 calc R . .
C6A C 0.3007(15) 1.0188(14) 0.1895(12) 0.115(9) Uani 1 1 d . . .
H6A1 H 0.2528 1.0579 0.1933 0.138 Uiso 1 1 calc R . .
H6A2 H 0.3358 1.0292 0.1398 0.138 Uiso 1 1 calc R . .
C7A C 0.3553(15) 1.0147(13) 0.2384(14) 0.109(8) Uani 1 1 d . . .
H7A1 H 0.4059 0.9781 0.2331 0.131 Uiso 1 1 calc R . .
H7A2 H 0.3743 1.0609 0.2277 0.131 Uiso 1 1 calc R . .
C8A C 0.3273(15) 0.9751(11) 0.3831(19) 0.127(11) Uani 1 1 d . . .
H8A1 H 0.3774 0.9378 0.3790 0.152 Uiso 1 1 calc R . .
H8A2 H 0.3475 1.0173 0.3829 0.152 Uiso 1 1 calc R . .
C9A C 0.2656(17) 0.9492(19) 0.4565(14) 0.125(12) Uani 1 1 d . . .
H9A1 H 0.2937 0.9456 0.4928 0.150 Uiso 1 1 calc R . .
H9A2 H 0.2149 0.9858 0.4612 0.150 Uiso 1 1 calc R . .
C10A C 0.2353(16) 0.8782(15) 0.4731(15) 0.122(10) Uani 1 1 d . . .
H10A H 0.2845 0.8420 0.4618 0.146 Uiso 1 1 calc R . .
H10B H 0.2060 0.8620 0.5240 0.146 Uiso 1 1 calc R . .
C11A C 0.1407(13) 0.8226(13) 0.4419(12) 0.104(7) Uani 1 1 d . . .
H11A H 0.0997 0.8122 0.4892 0.124 Uiso 1 1 calc R . .
H11B H 0.1876 0.7824 0.4414 0.124 Uiso 1 1 calc R . .
C12A C 0.0957(12) 0.8295(10) 0.3852(16) 0.094(8) Uani 1 1 d . . .
H12A H 0.0759 0.7845 0.3931 0.112 Uiso 1 1 calc R . .
H12B H 0.0461 0.8674 0.3871 0.112 Uiso 1 1 calc R . .
C13A C 0.1198(14) 0.8695(13) 0.2532(18) 0.106(9) Uani 1 1 d . . .
H13A H 0.0920 0.8298 0.2570 0.127 Uiso 1 1 calc R . .
H13B H 0.0745 0.9101 0.2587 0.127 Uiso 1 1 calc R . .
NiB Ni 0.72557(15) 0.42206(12) 0.32073(16) 0.0771(10) Uani 1 1 d . . .
N1B N 0.8626(16) 0.5170(11) 0.1792(14) 0.123(8) Uani 1 1 d . . .
N2B N 0.8330(9) 0.4629(10) 0.3102(14) 0.097(7) Uani 1 1 d . . .
H2B H 0.8788 0.4276 0.3028 0.116 Uiso 1 1 calc R . .
N3B N 0.7023(12) 0.3962(10) 0.4329(10) 0.101(6) Uani 1 1 d . . .
H3B H 0.6608 0.4318 0.4471 0.121 Uiso 1 1 calc R . .
N4B N 0.6167(11) 0.3868(12) 0.3321(14) 0.100(7) Uani 1 1 d . . .
H4B H 0.5722 0.4229 0.3399 0.120 Uiso 1 1 calc R . .
N5B N 0.7456(12) 0.4450(10) 0.2128(10) 0.089(6) Uani 1 1 d . . .
H5B H 0.7844 0.4081 0.1986 0.107 Uiso 1 1 calc R . .
C1B C 0.958(2) 0.553(4) 0.042(3) 0.28(4) Uani 1 1 d . . .
H1B H 0.9332 0.5865 0.0684 0.337 Uiso 1 1 calc R . .
C2B C 1.018(2) 0.4264(19) 0.029(4) 0.23(3) Uani 1 1 d . . .
H2B1 H 1.0291 0.3776 0.0529 0.271 Uiso 1 1 calc R . .
C3B C 0.971(3) 0.480(4) 0.075(3) 0.23(3) Uani 1 1 d . . .
C4B C 0.9366(16) 0.4699(12) 0.1554(17) 0.137(9) Uani 1 1 d . . .
H4B1 H 0.9234 0.4209 0.1777 0.165 Uiso 1 1 calc R . .
H4B2 H 0.9826 0.4742 0.1731 0.165 Uiso 1 1 calc R . .
C5B C 0.8508(14) 0.5273(12) 0.245(2) 0.113(10) Uani 1 1 d . . .
H5B1 H 0.8028 0.5659 0.2513 0.136 Uiso 1 1 calc R . .
H5B2 H 0.9023 0.5439 0.2437 0.136 Uiso 1 1 calc R . .
C6B C 0.8214(15) 0.4689(16) 0.3835(18) 0.124(11) Uani 1 1 d . . .
H6B1 H 0.7828 0.5130 0.3890 0.149 Uiso 1 1 calc R . .
H6B2 H 0.8772 0.4726 0.3876 0.149 Uiso 1 1 calc R . .
C7B C 0.7849(16) 0.4058(15) 0.4442(13) 0.108(9) Uani 1 1 d . . .
H7B1 H 0.8267 0.3622 0.4440 0.129 Uiso 1 1 calc R . .
H7B2 H 0.7726 0.4154 0.4903 0.129 Uiso 1 1 calc R . .
C8B C 0.669(2) 0.3300(12) 0.4732(13) 0.146(13) Uani 1 1 d . . .
H8B1 H 0.6511 0.3268 0.5242 0.175 Uiso 1 1 calc R . .
H8B2 H 0.7140 0.2897 0.4656 0.175 Uiso 1 1 calc R . .
C9B C 0.5890(15) 0.3262(15) 0.449(2) 0.185(19) Uani 1 1 d . . .
H9B1 H 0.5610 0.2871 0.4857 0.222 Uiso 1 1 calc R . .
H9B2 H 0.5495 0.3702 0.4533 0.222 Uiso 1 1 calc R . .
C10B C 0.588(2) 0.3179(19) 0.384(2) 0.144(13) Uani 1 1 d . . .
H10C H 0.5304 0.3136 0.3846 0.172 Uiso 1 1 calc R . .
H10D H 0.6283 0.2762 0.3731 0.172 Uiso 1 1 calc R . .
C11B C 0.6186(17) 0.3735(12) 0.267(2) 0.130(12) Uani 1 1 d . . .
H11C H 0.5606 0.3732 0.2655 0.156 Uiso 1 1 calc R . .
H11D H 0.6538 0.3277 0.2628 0.156 Uiso 1 1 calc R . .
C12B C 0.660(2) 0.438(2) 0.2064(17) 0.162(15) Uani 1 1 d . . .
H12C H 0.6683 0.4318 0.1597 0.194 Uiso 1 1 calc R . .
H12D H 0.6210 0.4830 0.2091 0.194 Uiso 1 1 calc R . .
C13B C 0.7812(19) 0.5102(17) 0.1704(13) 0.124(10) Uani 1 1 d . . .
H13C H 0.7386 0.5506 0.1818 0.149 Uiso 1 1 calc R . .
H13D H 0.7896 0.5145 0.1200 0.149 Uiso 1 1 calc R . .
NiC Ni 0.72475(15) -0.07650(13) 0.31517(16) 0.0795(11) Uani 1 1 d . . .
N1C N 0.6285(13) 0.0225(11) 0.1825(13) 0.089(6) Uani 1 1 d . . .
N2C N 0.6141(9) -0.0033(7) 0.3165(10) 0.065(4) Uani 1 1 d . . .
H2C H 0.6292 0.0401 0.3101 0.079 Uiso 1 1 calc R . .
N3C N 0.6813(10) -0.1034(8) 0.4256(8) 0.086(5) Uani 1 1 d . . .
H3C H 0.6584 -0.1450 0.4395 0.103 Uiso 1 1 calc R . .
N4C N 0.8384(11) -0.1514(8) 0.3118(14) 0.107(7) Uani 1 1 d . . .
H4C H 0.8229 -0.1948 0.3185 0.128 Uiso 1 1 calc R . .
N5C N 0.7648(10) -0.0532(7) 0.2054(9) 0.081(5) Uani 1 1 d . . .
H5C H 0.7892 -0.0121 0.1899 0.097 Uiso 1 1 calc R . .
C1C C 0.6316(18) 0.1243(13) 0.025(2) 0.135(11) Uani 1 1 d . . .
H1C H 0.5735 0.1190 0.0472 0.161 Uiso 1 1 calc R . .
C2C C 0.7658(19) 0.1232(11) 0.030(2) 0.096(8) Uani 1 1 d . . .
H2C1 H 0.8064 0.1191 0.0540 0.115 Uiso 1 1 calc R . .
C3C C 0.683(2) 0.1116(12) 0.0726(17) 0.101(8) Uani 1 1 d . . .
C4C C 0.6569(15) 0.0943(14) 0.1501(17) 0.109(8) Uani 1 1 d . . .
H4C1 H 0.6097 0.1305 0.1651 0.131 Uiso 1 1 calc R . .
H4C2 H 0.7051 0.0951 0.1672 0.131 Uiso 1 1 calc R . .
C5C C 0.5765(14) 0.0057(11) 0.2544(17) 0.099(8) Uani 1 1 d . . .
H5C1 H 0.5548 -0.0389 0.2634 0.119 Uiso 1 1 calc R . .
H5C2 H 0.5266 0.0432 0.2572 0.119 Uiso 1 1 calc R . .
C6C C 0.5574(13) -0.0232(12) 0.3892(15) 0.098(7) Uani 1 1 d . . .
H6C1 H 0.5281 -0.0625 0.3943 0.118 Uiso 1 1 calc R . .
H6C2 H 0.5134 0.0177 0.3970 0.118 Uiso 1 1 calc R . .
C7C C 0.6061(14) -0.0457(11) 0.4444(13) 0.116(8) Uani 1 1 d . . .
H7C1 H 0.5684 -0.0648 0.4918 0.139 Uiso 1 1 calc R . .
H7C2 H 0.6276 -0.0046 0.4452 0.139 Uiso 1 1 calc R . .
C8C C 0.7491(16) -0.1186(12) 0.4635(13) 0.128(10) Uani 1 1 d . . .
H8C1 H 0.7229 -0.1333 0.5151 0.153 Uiso 1 1 calc R . .
H8C2 H 0.7731 -0.0746 0.4522 0.153 Uiso 1 1 calc R . .
C9C C 0.8232(15) -0.1780(12) 0.4429(14) 0.106(8) Uani 1 1 d . . .
H9C1 H 0.8593 -0.1909 0.4758 0.127 Uiso 1 1 calc R . .
H9C2 H 0.7977 -0.2204 0.4510 0.127 Uiso 1 1 calc R . .
C10C C 0.8792(12) -0.1612(10) 0.3695(14) 0.080(7) Uani 1 1 d . . .
H10E H 0.9278 -0.1998 0.3663 0.096 Uiso 1 1 calc R . .
H10F H 0.9023 -0.1173 0.3604 0.096 Uiso 1 1 calc R . .
C11C C 0.8937(14) -0.1290(12) 0.2339(17) 0.117(9) Uani 1 1 d . . .
H11E H 0.9211 -0.0879 0.2264 0.141 Uiso 1 1 calc R . .
H11F H 0.9389 -0.1685 0.2238 0.141 Uiso 1 1 calc R . .
C12C C 0.8352(14) -0.1095(10) 0.1840(12) 0.098(7) Uani 1 1 d . . .
H12E H 0.8679 -0.0916 0.1343 0.117 Uiso 1 1 calc R . .
H12F H 0.8116 -0.1516 0.1884 0.117 Uiso 1 1 calc R . .
C13C C 0.6948(12) -0.0369(11) 0.1685(11) 0.084(6) Uani 1 1 d . . .
H13E H 0.7212 -0.0263 0.1169 0.100 Uiso 1 1 calc R . .
H13F H 0.6674 -0.0798 0.1832 0.100 Uiso 1 1 calc R . .
O1 O 0.6494(6) -0.1542(7) 0.3167(7) 0.077(4) Uani 1 1 d . . .
O2 O 0.7219(9) -0.2585(8) 0.3568(10) 0.143(7) Uani 1 1 d . . .
O3 O 0.3405(7) 0.8436(7) 0.3206(7) 0.082(4) Uani 1 1 d . . .
O4 O 0.3095(9) 0.7425(8) 0.3204(9) 0.111(6) Uani 1 1 d . . .
O5 O 0.6566(8) 0.5294(6) 0.3175(7) 0.084(4) Uani 1 1 d . . .
O6 O 0.5150(9) 0.5185(8) 0.3455(10) 0.126(7) Uani 1 1 d . . .
O7 O 0.1041(7) 0.9974(7) 0.3134(7) 0.083(4) Uani 1 1 d . . .
O8 O 0.1347(9) 1.0925(8) 0.3280(10) 0.141(7) Uani 1 1 d . . .
O9 O 0.7952(8) 0.3168(6) 0.3161(7) 0.094(5) Uani 1 1 d . . .
O10 O 0.9255(9) 0.3139(7) 0.3236(9) 0.124(6) Uani 1 1 d . . .
O11 O 0.7995(7) 0.0029(7) 0.3087(7) 0.093(5) Uani 1 1 d . . .
O12 O 0.7035(8) 0.1037(7) 0.3117(9) 0.117(6) Uani 1 1 d . . .
C1 C 0.6589(14) -0.2222(13) 0.3343(12) 0.093(8) Uani 1 1 d . . .
C2 C 0.3595(13) 0.7786(12) 0.3223(10) 0.067(6) Uani 1 1 d . . .
C3 C 0.5732(17) 0.5520(12) 0.3350(12) 0.086(7) Uani 1 1 d . . .
C4 C 0.5927(11) 0.7417(11) 0.3317(10) 0.070(6) Uani 1 1 d . . .
C5 C 0.5120(11) 0.7770(9) 0.3270(8) 0.053(5) Uani 1 1 d . . .
H5 H 0.4995 0.8262 0.3231 0.064 Uiso 1 1 calc R . .
C6 C 0.4479(12) 0.7418(10) 0.3280(9) 0.060(5) Uani 1 1 d . . .
C7 C 0.4699(11) 0.6713(11) 0.3288(9) 0.075(6) Uani 1 1 d . . .
H7 H 0.4291 0.6471 0.3268 0.090 Uiso 1 1 calc R . .
C8 C 0.5560(13) 0.6324(10) 0.3328(11) 0.080(6) Uani 1 1 d . . .
C9 C 0.6162(12) 0.6701(11) 0.3342(9) 0.069(6) Uani 1 1 d . . .
H9 H 0.6717 0.6471 0.3368 0.083 Uiso 1 1 calc R . .
C10 C 0.0846(13) 1.0608(12) 0.3197(11) 0.080(7) Uani 1 1 d . . .
C11 C 0.8665(16) 0.2850(11) 0.3200(11) 0.079(7) Uani 1 1 d . . .
C12 C 0.7748(16) 0.0694(11) 0.3109(11) 0.084(7) Uani 1 1 d . . .
C13 C 0.9923(12) 0.0984(10) 0.3218(10) 0.066(6) Uani 1 1 d . . .
C14 C 0.9699(13) 0.1702(10) 0.3219(10) 0.079(6) Uani 1 1 d . . .
H14 H 1.0116 0.1933 0.3240 0.095 Uiso 1 1 calc R . .
C15 C 0.8889(12) 0.2093(11) 0.3191(9) 0.061(6) Uani 1 1 d . . .
C16 C 0.8315(12) 0.1744(10) 0.3167(10) 0.072(6) Uani 1 1 d . . .
H16 H 0.7764 0.1996 0.3155 0.086 Uiso 1 1 calc R . .
C17 C 0.8472(12) 0.1010(10) 0.3159(9) 0.065(5) Uani 1 1 d . . .
C18 C 0.9308(12) 0.0637(10) 0.3179(10) 0.081(6) Uani 1 1 d . . .
H18 H 0.9449 0.0159 0.3165 0.097 Uiso 1 1 calc R . .
C19 C 0.0200(15) 0.0221(14) 0.0951(17) 0.171(10) Uiso 1 1 d D . .
H19 H 0.0279 -0.0280 0.1077 0.205 Uiso 1 1 calc R . .
C20 C -0.0307(14) 0.0583(17) 0.1411(13) 0.163(10) Uiso 1 1 d D . .
H20 H -0.0588 0.0327 0.1871 0.195 Uiso 1 1 calc R . .
C21 C -0.0428(17) 0.1292(18) 0.124(2) 0.244(16) Uiso 1 1 d D . .
H21 H -0.0791 0.1514 0.1591 0.293 Uiso 1 1 calc R . .
C22 C -0.007(3) 0.1703(19) 0.061(2) 0.45(4) Uiso 1 1 d D . .
H22 H -0.0151 0.2205 0.0488 0.541 Uiso 1 1 calc R . .
C23 C 0.043(3) 0.131(2) 0.018(2) 0.77(9) Uiso 1 1 d D . .
H23 H 0.0710 0.1573 -0.0275 0.927 Uiso 1 1 calc R . .
C24 C 0.0585(18) 0.061(2) 0.0310(17) 0.278(19) Uiso 1 1 d D . .
H24 H 0.0953 0.0388 -0.0039 0.333 Uiso 1 1 calc R . .
C25 C 0.6902(19) 0.294(2) 0.083(2) 0.31(2) Uiso 1 1 d D . .
H25 H 0.6436 0.2700 0.0940 0.368 Uiso 1 1 calc R . .
C26 C 0.744(2) 0.2716(14) 0.1242(15) 0.233(15) Uiso 1 1 d D . .
H26 H 0.7360 0.2311 0.1636 0.279 Uiso 1 1 calc R . .
C27 C 0.810(2) 0.3060(19) 0.1097(17) 0.206(13) Uiso 1 1 d D . .
H27 H 0.8480 0.2892 0.1391 0.247 Uiso 1 1 calc R . .
C28 C 0.8240(19) 0.3637(19) 0.054(2) 0.236(15) Uiso 1 1 d D . .
H28 H 0.8702 0.3885 0.0435 0.284 Uiso 1 1 calc R . .
C29 C 0.768(3) 0.3842(17) 0.0150(17) 0.34(2) Uiso 1 1 d D . .
H29 H 0.7760 0.4252 -0.0240 0.408 Uiso 1 1 calc R . .
C30 C 0.701(2) 0.351(2) 0.026(2) 0.267(17) Uiso 1 1 d D . .
H30 H 0.6645 0.3675 -0.0036 0.320 Uiso 1 1 calc R . .
C31 C 0.5372(18) 0.9334(16) 0.096(2) 0.213(13) Uiso 1 1 d D . .
H31 H 0.5141 0.9781 0.1044 0.256 Uiso 1 1 calc R . .
C32 C 0.5899(19) 0.9284(19) 0.0334(1