####################################################################### 
# 
# This file contains crystal structure data downloaded from the 
# Cambridge Structural Database (CSD) hosted by the Cambridge 
# Crystallographic Data Centre (CCDC).
# 
# Full information about CCDC data access policies and citation 
# guidelines are available at http://www.ccdc.cam.ac.uk/access/V1 
# 
# Audit and citation data items may have been added by the CCDC. 
# Please retain this information to preserve the provenance of 
# this file and to allow appropriate attribution of the data. 
# 
#######################################################################

data_[Ni2(C26H52N10)]3[BTC]4.4H2O
_audit_block_doi                 10.5517/cc6l867
_database_code_depnum_ccdc_archive 'CCDC 196298'
loop_
_citation_id
_citation_doi
_citation_year
1 10.1021/ja0466715 2004
2 10.1021/ja017560y 2002
_audit_update_record             
;
2002-10-29 deposited with the CCDC.	2024-07-14 downloaded from the CCDC.
;

_audit_creation_method           SHELXL-97
_chemical_name_systematic        
; 
? 
;
_chemical_name_common            ?
_chemical_melting_point          ?
_chemical_formula_moiety         ?
_chemical_formula_sum            'C114 H184 N30 Ni6 O28'
_chemical_formula_weight         2775.17

loop_
_atom_type_symbol
_atom_type_description
_atom_type_scat_dispersion_real
_atom_type_scat_dispersion_imag
_atom_type_scat_source
Ni Ni 0.3393 1.1124 'International Tables Vol C Tables 4.2.6.8 and 6.1.1.4'
C C 0.0033 0.0016 'International Tables Vol C Tables 4.2.6.8 and 6.1.1.4'
H H 0.0000 0.0000 'International Tables Vol C Tables 4.2.6.8 and 6.1.1.4'
N N 0.0061 0.0033 'International Tables Vol C Tables 4.2.6.8 and 6.1.1.4'
O O 0.0106 0.0060 'International Tables Vol C Tables 4.2.6.8 and 6.1.1.4'

_symmetry_cell_setting           ?
_symmetry_space_group_name_H-M   ?

loop_
_symmetry_equiv_pos_as_xyz
'x, y, z'

_cell_length_a                   12.382(2)
_cell_length_b                   16.375(3)
_cell_length_c                   19.952(4)
_cell_angle_alpha                74.505(7)
_cell_angle_beta                 89.255(9)
_cell_angle_gamma                84.184(5)
_cell_volume                     3877.9(12)
_cell_formula_units_Z            1
_cell_measurement_temperature    293(2)
_cell_measurement_reflns_used    ?
_cell_measurement_theta_min      ?
_cell_measurement_theta_max      ?

_exptl_crystal_description       ?
_exptl_crystal_colour            ?
_exptl_crystal_size_max          ?
_exptl_crystal_size_mid          ?
_exptl_crystal_size_min          ?
_exptl_crystal_density_meas      ?
_exptl_crystal_density_diffrn    1.188
_exptl_crystal_density_method    'not measured'
_exptl_crystal_F_000             1470
_exptl_absorpt_coefficient_mu    0.782
_exptl_absorpt_correction_type   ?
_exptl_absorpt_correction_T_min  ?
_exptl_absorpt_correction_T_max  ?
_exptl_absorpt_process_details   ?

_exptl_special_details           
; 
? 
;

_diffrn_ambient_temperature      293(2)
_diffrn_radiation_wavelength     0.71073
_diffrn_radiation_type           MoK\a
_diffrn_radiation_source         'fine-focus sealed tube'
_diffrn_radiation_monochromator  graphite
_diffrn_measurement_device_type  ?
_diffrn_measurement_method       ?
_diffrn_detector_area_resol_mean ?
_diffrn_standards_number         ?
_diffrn_standards_interval_count ?
_diffrn_standards_interval_time  ?
_diffrn_standards_decay_%        ?
_diffrn_reflns_number            11527
_diffrn_reflns_av_R_equivalents  0.0000
_diffrn_reflns_av_sigmaI/netI    0.2588
_diffrn_reflns_limit_h_min       -11
_diffrn_reflns_limit_h_max       13
_diffrn_reflns_limit_k_min       -14
_diffrn_reflns_limit_k_max       18
_diffrn_reflns_limit_l_min       -22
_diffrn_reflns_limit_l_max       23
_diffrn_reflns_theta_min         1.06
_diffrn_reflns_theta_max         24.40
_reflns_number_total             11527
_reflns_number_gt                4353
_reflns_threshold_expression     >2sigma(I)

_computing_data_collection       ?
_computing_cell_refinement       ?
_computing_data_reduction        ?
_computing_structure_solution    'SHELXS-97 (Sheldrick, 1990)'
_computing_structure_refinement  'SHELXL-97 (Sheldrick, 1997)'
_computing_molecular_graphics    ?
_computing_publication_material  ?

_refine_special_details          
; 
Refinement of F^2^ against ALL reflections.  The weighted R-factor wR and 
goodness of fit S are based on F^2^, conventional R-factors R are based 
on F, with F set to zero for negative F^2^. The threshold expression of 
F^2^ > 2sigma(F^2^) is used only for calculating R-factors(gt) etc. and is 
not relevant to the choice of reflections for refinement.  R-factors based 
on F^2^ are statistically about twice as large as those based on F, and R- 
factors based on ALL data will be even larger. 
;

_refine_ls_structure_factor_coef Fsqd
_refine_ls_matrix_type           full
_refine_ls_weighting_scheme      calc
_refine_ls_weighting_details     
'calc w=1/[\s^2^(Fo^2^)+(0.2000P)^2^+0.0000P] where P=(Fo^2^+2Fc^2^)/3'
_atom_sites_solution_primary     direct
_atom_sites_solution_secondary   difmap
_atom_sites_solution_hydrogens   geom
_refine_ls_hydrogen_treatment    mixed
_refine_ls_extinction_method     none
_refine_ls_extinction_coef       ?
_refine_ls_abs_structure_details 'Flack H D (1983), Acta Cryst. A39, 876-881'
_refine_ls_abs_structure_Flack   0.00
_refine_ls_number_reflns         11527
_refine_ls_number_parameters     742
_refine_ls_number_restraints     81
_refine_ls_R_factor_all          0.2965
_refine_ls_R_factor_gt           0.1491
_refine_ls_wR_factor_ref         0.4548
_refine_ls_wR_factor_gt          0.3791
_refine_ls_goodness_of_fit_ref   1.299
_refine_ls_restrained_S_all      1.298
_refine_ls_shift/su_max          0.989
_refine_ls_shift/su_mean         0.131

loop_
_atom_site_label
_atom_site_type_symbol
_atom_site_fract_x
_atom_site_fract_y
_atom_site_fract_z
_atom_site_U_iso_or_equiv
_atom_site_adp_type
_atom_site_occupancy
_atom_site_symmetry_multiplicity
_atom_site_calc_flag
_atom_site_refinement_flags
_atom_site_disorder_assembly
_atom_site_disorder_group
NiA Ni 0.7999(7) -0.5930(3) 0.1491(3) 0.080(3) Uani 1 1 d D . .
N1A N 0.634(4) -0.4203(18) 0.0639(16) 0.057(10) Uiso 1 1 d D . .
N2A N 0.821(3) -0.4787(12) 0.0765(11) 0.027(7) Uiso 1 1 d D . .
H2A H 0.8233 -0.4907 0.0345 0.033 Uiso 1 1 calc R . .
N3A N 0.967(2) -0.605(2) 0.166(2) 0.107(15) Uiso 1 1 d D . .
H3A H 0.9756 -0.5893 0.2057 0.128 Uiso 1 1 calc R . .
N4A N 0.769(5) -0.7046(18) 0.2231(18) 0.100(15) Uiso 1 1 d D . .
H4A H 0.7754 -0.6939 0.2653 0.120 Uiso 1 1 calc R . .
N5A N 0.6341(19) -0.575(2) 0.1277(17) 0.083(13) Uiso 1 1 d D . .
H5A H 0.6255 -0.6014 0.0935 0.099 Uiso 1 1 calc R . .
C1A C 0.600(4) -0.426(2) -0.002(2) 0.105(16) Uiso 1 1 d D . .
H1A1 H 0.5287 -0.4464 0.0020 0.126 Uiso 1 1 calc R . .
H1A2 H 0.6501 -0.4672 -0.0170 0.126 Uiso 1 1 calc R . .
C2A C 0.739(5) -0.414(3) 0.071(3) 0.12(2) Uiso 1 1 d D . .
H2A1 H 0.7461 -0.3928 0.1112 0.147 Uiso 1 1 calc R . .
H2A2 H 0.7571 -0.3686 0.0309 0.147 Uiso 1 1 calc R . .
C3A C 0.938(3) -0.4649(18) 0.0924(16) 0.043(10) Uiso 1 1 d D . .
H3A1 H 0.9358 -0.4390 0.1308 0.051 Uiso 1 1 calc R . .
H3A2 H 0.9634 -0.4237 0.0522 0.051 Uiso 1 1 calc R . .
C4A C 1.025(4) -0.543(3) 0.111(2) 0.12(2) Uiso 1 1 d D . .
H4A1 H 1.0426 -0.5645 0.0706 0.147 Uiso 1 1 calc R . .
H4A2 H 1.0914 -0.5290 0.1290 0.147 Uiso 1 1 calc R . .
C5A C 1.016(4) -0.705(2) 0.1831(18) 0.075(13) Uiso 1 1 d D . .
H5A1 H 1.0184 -0.7222 0.1401 0.090 Uiso 1 1 calc R . .
H5A2 H 1.0901 -0.7100 0.2001 0.090 Uiso 1 1 calc R . .
C6A C 0.951(4) -0.768(2) 0.2378(19) 0.077(13) Uiso 1 1 d D . .
H6A1 H 0.9565 -0.7532 0.2813 0.092 Uiso 1 1 calc R . .
H6A2 H 0.9900 -0.8243 0.2446 0.092 Uiso 1 1 calc R . .
C7A C 0.826(4) -0.780(2) 0.2283(19) 0.067(12) Uiso 1 1 d . . .
H7A1 H 0.8153 -0.7983 0.1867 0.081 Uiso 1 1 calc R . .
H7A2 H 0.8017 -0.8224 0.2680 0.081 Uiso 1 1 calc R . .
C8A C 0.666(5) -0.711(3) 0.214(2) 0.085(16) Uiso 1 1 d . . .
H8A1 H 0.6401 -0.7461 0.2576 0.103 Uiso 1 1 calc R . .
H8A2 H 0.6601 -0.7419 0.1796 0.103 Uiso 1 1 calc R . .
C9A C 0.592(4) -0.636(2) 0.1945(18) 0.068(13) Uiso 1 1 d . . .
H9A1 H 0.5860 -0.6081 0.2317 0.081 Uiso 1 1 calc R . .
H9A2 H 0.5205 -0.6508 0.1856 0.081 Uiso 1 1 calc R . .
C10A C 0.584(8) -0.485(4) 0.098(4) 0.24(4) Uiso 1 1 d D . .
H10A H 0.5249 -0.4889 0.0682 0.284 Uiso 1 1 calc R . .
H10B H 0.5505 -0.4682 0.1375 0.284 Uiso 1 1 calc R . .
NiB Ni 0.7474(6) -1.0903(3) 0.1489(3) 0.067(2) Uani 1 1 d D . .
N1B N 0.520(4) -0.976(2) 0.184(2) 0.117(15) Uiso 1 1 d . . .
N2B N 0.719(3) -1.019(2) 0.2204(15) 0.097(13) Uiso 1 1 d D . .
H2B H 0.6981 -1.0574 0.2590 0.116 Uiso 1 1 calc R . .
N3B N 0.9073(16) -1.091(3) 0.174(2) 0.124(16) Uiso 1 1 d D . .
H3B H 0.9293 -1.0448 0.1427 0.148 Uiso 1 1 calc R . .
N4B N 0.759(3) -1.1601(18) 0.0753(13) 0.070(10) Uiso 1 1 d D . .
H4B H 0.7648 -1.1203 0.0341 0.084 Uiso 1 1 calc R . .
N5B N 0.5879(17) -1.0828(18) 0.1206(15) 0.068(10) Uiso 1 1 d D . .
H5B H 0.5647 -1.1241 0.1565 0.081 Uiso 1 1 calc R . .
C1B C 0.416(3) -0.9202(16) 0.1886(15) 0.084(14) Uiso 1 1 d D . .
H1B1 H 0.4025 -0.9194 0.2365 0.100 Uiso 1 1 calc R . .
H1B2 H 0.3545 -0.9420 0.1717 0.100 Uiso 1 1 calc R . .
C2B C 0.609(3) -0.9507(16) 0.1982(15) 0.086(15) Uiso 1 1 d RD . .
H2B1 H 0.5952 -0.9237 0.2356 0.104 Uiso 1 1 calc R . .
H2B2 H 0.6271 -0.9066 0.1576 0.104 Uiso 1 1 calc R . .
C3B C 0.831(4) -0.993(3) 0.245(3) 0.120(18) Uiso 1 1 d D . .
H3B1 H 0.8521 -0.9423 0.2125 0.144 Uiso 1 1 calc R . .
H3B2 H 0.8234 -0.9833 0.2907 0.144 Uiso 1 1 calc R . .
C4B C 0.915(4) -1.071(2) 0.247(2) 0.087(15) Uiso 1 1 d D . .
H4B1 H 0.8987 -1.1195 0.2842 0.105 Uiso 1 1 calc R . .
H4B2 H 0.9874 -1.0572 0.2546 0.105 Uiso 1 1 calc R . .
C5B C 0.977(6) -1.164(4) 0.160(3) 0.17(3) Uiso 1 1 d . . .
H5B1 H 1.0516 -1.1531 0.1640 0.208 Uiso 1 1 calc R . .
H5B2 H 0.9655 -1.2140 0.1974 0.208 Uiso 1 1 calc R . .
C6B C 0.971(3) -1.191(2) 0.0956(18) 0.074(13) Uiso 1 1 d D . .
H6B1 H 1.0230 -1.2396 0.0982 0.089 Uiso 1 1 calc R . .
H6B2 H 0.9898 -1.1448 0.0568 0.089 Uiso 1 1 calc R . .
C7B C 0.855(3) -1.214(2) 0.0815(18) 0.060(12) Uiso 1 1 d D . .
H7B1 H 0.8605 -1.2319 0.0389 0.072 Uiso 1 1 calc R . .
H7B2 H 0.8432 -1.2645 0.1184 0.072 Uiso 1 1 calc R . .
C8B C 0.665(4) -1.196(2) 0.0673(18) 0.057(11) Uiso 1 1 d . . .
H8B1 H 0.6559 -1.2469 0.1046 0.069 Uiso 1 1 calc R . .
H8B2 H 0.6608 -1.2087 0.0225 0.069 Uiso 1 1 calc R . .
C9B C 0.592(4) -1.122(2) 0.072(2) 0.082(15) Uiso 1 1 d . . .
H9B1 H 0.6025 -1.0786 0.0295 0.099 Uiso 1 1 calc R . .
H9B2 H 0.5198 -1.1383 0.0691 0.099 Uiso 1 1 calc R . .
C10B C 0.496(4) -1.005(3) 0.121(2) 0.110(17) Uiso 1 1 d D . .
H10C H 0.4997 -0.9582 0.0795 0.132 Uiso 1 1 calc R . .
H10D H 0.4237 -1.0236 0.1237 0.132 Uiso 1 1 calc R . .
NiC Ni 0.7492(7) -0.5838(4) -0.3510(3) 0.083(3) Uani 1 1 d D . .
N1C N 0.679(4) -0.404(3) -0.2988(18) 0.113(13) Uiso 1 1 d . . .
N2C N 0.836(3) -0.5055(19) -0.3102(15) 0.092(11) Uiso 1 1 d D . .
H2C H 0.8569 -0.4701 -0.3507 0.110 Uiso 1 1 calc R . .
N3C N 0.9026(18) -0.649(2) -0.3382(17) 0.103(11) Uiso 1 1 d D . .
H3C H 0.8979 -0.6893 -0.2970 0.123 Uiso 1 1 calc R . .
N4C N 0.666(3) -0.668(2) -0.3873(17) 0.112(13) Uiso 1 1 d D . .
H4C H 0.6456 -0.7022 -0.3460 0.134 Uiso 1 1 calc R . .
N5C N 0.601(2) -0.508(2) -0.369(2) 0.133(14) Uiso 1 1 d D . .
H5C H 0.6065 -0.4684 -0.4097 0.160 Uiso 1 1 calc R . .
C1C C 0.631(4) -0.321(2) -0.317(2) 0.100(14) Uiso 1 1 d . . .
H1C1 H 0.6890 -0.2866 -0.3139 0.120 Uiso 1 1 calc R . .
H1C2 H 0.5826 -0.3174 -0.2792 0.120 Uiso 1 1 calc R . .
C2C C 0.799(4) -0.451(2) -0.2803(19) 0.077(12) Uiso 1 1 d . . .
H2C1 H 0.8491 -0.4075 -0.2887 0.092 Uiso 1 1 calc R . .
H2C2 H 0.8021 -0.4785 -0.2308 0.092 Uiso 1 1 calc R . .
C3C C 0.934(6) -0.540(3) -0.283(3) 0.12(2) Uiso 1 1 d . . .
H3C1 H 0.9286 -0.5694 -0.2347 0.147 Uiso 1 1 calc R . .
H3C2 H 0.9822 -0.4952 -0.2871 0.147 Uiso 1 1 calc R . .
C4C C 0.980(5) -0.602(3) -0.325(3) 0.14(2) Uiso 1 1 d . . .
H4C1 H 1.0087 -0.5700 -0.3684 0.173 Uiso 1 1 calc R . .
H4C2 H 1.0395 -0.6395 -0.2985 0.173 Uiso 1 1 calc R . .
C5C C 0.937(4) -0.700(3) -0.385(2) 0.088(14) Uiso 1 1 d D . .
H5C1 H 1.0006 -0.7389 -0.3667 0.106 Uiso 1 1 calc R . .
H5C2 H 0.9556 -0.6634 -0.4301 0.106 Uiso 1 1 calc R . .
C6C C 0.839(4) -0.751(3) -0.394(3) 0.16(2) Uiso 1 1 d D . .
H6C1 H 0.8339 -0.7880 -0.3472 0.187 Uiso 1 1 calc R . .
H6C2 H 0.8705 -0.7877 -0.4211 0.187 Uiso 1 1 calc R . .
C7C C 0.716(5) -0.734(3) -0.419(3) 0.15(2) Uiso 1 1 d D . .
H7C1 H 0.7116 -0.7141 -0.4698 0.177 Uiso 1 1 calc R . .
H7C2 H 0.6805 -0.7860 -0.4045 0.177 Uiso 1 1 calc R . .
C8C C 0.551(4) -0.630(2) -0.420(2) 0.089(14) Uiso 1 1 d D . .
H8C1 H 0.5042 -0.6750 -0.4156 0.107 Uiso 1 1 calc R . .
H8C2 H 0.5575 -0.6010 -0.4685 0.107 Uiso 1 1 calc R . .
C9C C 0.501(4) -0.564(2) -0.379(2) 0.099(15) Uiso 1 1 d D . .
H9C1 H 0.4743 -0.5944 -0.3337 0.119 Uiso 1 1 calc R . .
H9C2 H 0.4410 -0.5273 -0.4049 0.119 Uiso 1 1 calc R . .
C10C C 0.628(5) -0.465(3) -0.309(3) 0.132(19) Uiso 1 1 d . . .
H10E H 0.5559 -0.4516 -0.2921 0.159 Uiso 1 1 calc R . .
H10F H 0.6595 -0.5133 -0.2727 0.159 Uiso 1 1 calc R . .
C1D C 0.550(4) -0.084(2) -0.1885(19) 0.085(14) Uiso 1 1 d D . .
H1D1 H 0.6161 -0.0558 -0.1970 0.102 Uiso 1 1 calc R . .
H1D2 H 0.5352 -0.1006 -0.2303 0.102 Uiso 1 1 calc R . .
NiD Ni 0.2541(6) 0.0953(4) -0.1532(3) 0.079(3) Uani 1 1 d D . .
N1D N 0.466(3) -0.0193(18) -0.1852(15) 0.060(10) Uiso 1 1 d D . .
N2D N 0.4143(16) 0.0983(15) -0.1374(14) 0.054(9) Uiso 1 1 d D . .
H2D H 0.4462 0.1329 -0.1741 0.065 Uiso 1 1 calc R . .
N3D N 0.203(4) 0.162(2) -0.0809(17) 0.094(13) Uiso 1 1 d . . .
H3D H 0.1863 0.1224 -0.0413 0.113 Uiso 1 1 calc R . .
N4D N 0.098(3) 0.0940(17) -0.1769(14) 0.047(9) Uiso 1 1 d D . .
H4D H 0.0717 0.0505 -0.1444 0.057 Uiso 1 1 calc R . .
N5D N 0.293(3) 0.0272(17) -0.2244(13) 0.052(9) Uiso 1 1 d D . .
H5D H 0.3183 0.0625 -0.2634 0.062 Uiso 1 1 calc R . .
C2D C 0.466(3) 0.0077(15) -0.1196(15) 0.050(10) Uiso 1 1 d D . .
H2D1 H 0.5391 0.0041 -0.1021 0.060 Uiso 1 1 calc R . .
H2D2 H 0.4239 -0.0285 -0.0844 0.060 Uiso 1 1 calc R . .
C3D C 0.429(4) 0.123(3) -0.067(2) 0.100(16) Uiso 1 1 d D . .
H3D1 H 0.4335 0.0740 -0.0262 0.120 Uiso 1 1 calc R . .
H3D2 H 0.4910 0.1552 -0.0669 0.120 Uiso 1 1 calc R . .
C4D C 0.318(4) 0.179(3) -0.074(3) 0.115(18) Uiso 1 1 d D . .
H4D1 H 0.3166 0.2019 -0.0334 0.138 Uiso 1 1 calc R . .
H4D2 H 0.3271 0.2272 -0.1133 0.138 Uiso 1 1 calc R . .
C5D C 0.113(4) 0.233(3) -0.094(2) 0.089(15) Uiso 1 1 d . . .
H5D1 H 0.0988 0.2561 -0.0547 0.107 Uiso 1 1 calc R . .
H5D2 H 0.1239 0.2783 -0.1357 0.107 Uiso 1 1 calc R . .
C6D C 0.032(5) 0.181(3) -0.1041(16) 0.095(16) Uiso 1 1 d D . .
H6D1 H -0.0384 0.2045 -0.0918 0.115 Uiso 1 1 calc R . .
H6D2 H 0.0472 0.1243 -0.0727 0.115 Uiso 1 1 calc R . .
C7D C 0.024(3) 0.1723(18) -0.1799(14) 0.051(10) Uiso 1 1 d D . .
H7D1 H -0.0494 0.1658 -0.1920 0.062 Uiso 1 1 calc R . .
H7D2 H 0.0492 0.2214 -0.2131 0.062 Uiso 1 1 calc R . .
C8D C 0.101(5) 0.072(3) -0.242(2) 0.101(17) Uiso 1 1 d D . .
C9D C 0.185(3) 0.008(2) -0.2389(18) 0.055(11) Uiso 1 1 d D . .
H9D1 H 0.1871 -0.0068 -0.2829 0.066 Uiso 1 1 calc R . .
H9D2 H 0.1684 -0.0421 -0.2032 0.066 Uiso 1 1 calc R . .
C10D C 0.365(4) -0.045(2) -0.2039(19) 0.068(13) Uiso 1 1 d . . .
H10G H 0.3759 -0.0722 -0.2417 0.081 Uiso 1 1 calc R . .
H10H H 0.3366 -0.0858 -0.1644 0.081 Uiso 1 1 calc R . .
NiE Ni 0.1968(7) -0.3996(4) -0.1503(3) 0.074(3) Uani 1 1 d D . .
N1E N 0.346(4) -0.571(2) -0.0702(18) 0.095(12) Uiso 1 1 d . . .
N2E N 0.361(3) -0.4212(15) -0.1319(14) 0.046(9) Uiso 1 1 d . . .
H2E H 0.3731 -0.4058 -0.0924 0.055 Uiso 1 1 calc R . .
N3E N 0.226(3) -0.2882(15) -0.2230(13) 0.052(9) Uiso 1 1 d D . .
H3E H 0.2303 -0.3014 -0.2645 0.062 Uiso 1 1 calc R . .
N4E N 0.036(3) -0.376(2) -0.1735(18) 0.087(12) Uiso 1 1 d . . .
H4E H 0.0218 -0.3904 -0.2133 0.105 Uiso 1 1 calc R . .
N5E N 0.151(4) -0.5008(16) -0.0816(16) 0.092(13) Uiso 1 1 d D . .
H5E H 0.1465 -0.4895 -0.0394 0.110 Uiso 1 1 calc R . .
C1E C 0.380(4) -0.572(2) 0.0097(17) 0.069(13) Uiso 1 1 d D . .
H1E1 H 0.4493 -0.5495 0.0097 0.083 Uiso 1 1 calc R . .
H1E2 H 0.3258 -0.5372 0.0279 0.083 Uiso 1 1 calc R . .
C2E C 0.418(3) -0.5101(15) -0.1221(14) 0.032(8) Uiso 1 1 d . . .
H2E1 H 0.4904 -0.5139 -0.1030 0.039 Uiso 1 1 calc R . .
H2E2 H 0.4232 -0.5248 -0.1661 0.039 Uiso 1 1 calc R . .
C3E C 0.415(5) -0.365(3) -0.187(2) 0.111(17) Uiso 1 1 d . . .
H3E1 H 0.4237 -0.3884 -0.2266 0.133 Uiso 1 1 calc R . .
H3E2 H 0.4862 -0.3576 -0.1709 0.133 Uiso 1 1 calc R . .
C4E C 0.339(3) -0.2777(19) -0.2056(17) 0.051(11) Uiso 1 1 d D . .
H4E1 H 0.3384 -0.2530 -0.1665 0.061 Uiso 1 1 calc R . .
H4E2 H 0.3696 -0.2385 -0.2449 0.061 Uiso 1 1 calc R . .
C5E C 0.122(4) -0.217(2) -0.230(2) 0.086(14) Uiso 1 1 d . . .
H5E1 H 0.1178 -0.2012 -0.1870 0.103 Uiso 1 1 calc R . .
H5E2 H 0.1392 -0.1676 -0.2660 0.103 Uiso 1 1 calc R . .
C6E C 0.007(4) -0.233(2) -0.247(2) 0.078(13) Uiso 1 1 d . . .
H6E1 H -0.0428 -0.1808 -0.2570 0.094 Uiso 1 1 calc R . .
H6E2 H 0.0042 -0.2601 -0.2841 0.094 Uiso 1 1 calc R . .
C7E C -0.012(6) -0.290(3) -0.179(3) 0.15(2) Uiso 1 1 d . . .
H7E1 H 0.0197 -0.2693 -0.1427 0.183 Uiso 1 1 calc R . .
H7E2 H -0.0892 -0.2901 -0.1707 0.183 Uiso 1 1 calc R . .
C8E C -0.006(4) -0.444(2) -0.108(2) 0.091(15) Uiso 1 1 d . . .
H8E1 H 0.0088 -0.4271 -0.0667 0.109 Uiso 1 1 calc R . .
H8E2 H -0.0843 -0.4425 -0.1126 0.109 Uiso 1 1 calc R . .
C9E C 0.039(5) -0.529(3) -0.099(3) 0.13(2) Uiso 1 1 d . . .
H9E1 H 0.0397 -0.5476 -0.1413 0.158 Uiso 1 1 calc R . .
H9E2 H 0.0091 -0.5692 -0.0608 0.158 Uiso 1 1 calc R . .
C10E C 0.238(3) -0.5865(18) -0.0746(16) 0.040(9) Uiso 1 1 d . . .
H10I H 0.2217 -0.6302 -0.0334 0.048 Uiso 1 1 calc R . .
H10J H 0.22