####################################################################### 
# 
# This file contains crystal structure data downloaded from the 
# Cambridge Structural Database (CSD) hosted by the Cambridge 
# Crystallographic Data Centre (CCDC).
# 
# Full information about CCDC data access policies and citation 
# guidelines are available at http://www.ccdc.cam.ac.uk/access/V1 
# 
# Audit and citation data items may have been added by the CCDC. 
# Please retain this information to preserve the provenance of 
# this file and to allow appropriate attribution of the data. 
# 
#######################################################################

data_a-sr
_audit_block_doi                 10.5517/cc139mqr
_database_code_depnum_ccdc_archive 'CCDC 1022154'
loop_
_citation_id
_citation_doi
_citation_year
1 10.1016/j.ica.2015.03.032 2015
_audit_update_record             
;
2014-11-26 deposited with the CCDC.	2024-07-14 downloaded from the CCDC.
;

_audit_creation_method           SHELXL-97
_chemical_name_systematic        
; 
 ? 
;
_chemical_name_common            ?
_chemical_melting_point          ?
_chemical_formula_moiety         'C85 H68 Mn3 N7 O11'
_chemical_formula_sum            'C85 H68 Mn3 N7 O11'
_chemical_formula_weight         1528.28

loop_
_atom_type_symbol
_atom_type_description
_atom_type_scat_dispersion_real
_atom_type_scat_dispersion_imag
_atom_type_scat_source
C C 0.0033 0.0016 'International Tables Vol C Tables 4.2.6.8 and 6.1.1.4'
H H 0.0000 0.0000 'International Tables Vol C Tables 4.2.6.8 and 6.1.1.4'
N N 0.0061 0.0033 'International Tables Vol C Tables 4.2.6.8 and 6.1.1.4'
O O 0.0106 0.0060 'International Tables Vol C Tables 4.2.6.8 and 6.1.1.4'
Mn Mn 0.3368 0.7283 'International Tables Vol C Tables 4.2.6.8 and 6.1.1.4'

_symmetry_cell_setting           Monoclinic
_symmetry_space_group_name_H-M   'C2/c  '
_symmetry_space_group_name_Hall  '-C 2yc'

loop_
_symmetry_equiv_pos_as_xyz
'x, y, z'
'-x, y, -z+1/2'
'x+1/2, y+1/2, z'
'-x+1/2, y+1/2, -z+1/2'
'-x, -y, -z'
'x, -y, z-1/2'
'-x+1/2, -y+1/2, -z'
'x+1/2, -y+1/2, z-1/2'

_cell_length_a                   43.211(9)
_cell_length_b                   17.597(4)
_cell_length_c                   33.718(7)
_cell_angle_alpha                90.00
_cell_angle_beta                 129.74(3)
_cell_angle_gamma                90.00
_cell_volume                     19716(7)
_cell_formula_units_Z            8
_cell_measurement_temperature    293(2)
_cell_measurement_reflns_used    4028
_cell_measurement_theta_min      2.3
_cell_measurement_theta_max      19.7

_exptl_crystal_description       block
_exptl_crystal_colour            brown
_exptl_crystal_size_max          0.28
_exptl_crystal_size_mid          0.25
_exptl_crystal_size_min          0.22
_exptl_crystal_density_meas      ?
_exptl_crystal_density_diffrn    1.030
_exptl_crystal_density_method    'not measured'
_exptl_crystal_F_000             6320
_exptl_absorpt_coefficient_mu    0.429
_exptl_absorpt_correction_type   multi-scan
_exptl_absorpt_correction_T_min  0.8893
_exptl_absorpt_correction_T_max  0.9115
_exptl_absorpt_process_details   'CrystalClear (Rigaku, 2005)'

_exptl_special_details           
; 
 ? 
;

_diffrn_ambient_temperature      293(2)
_diffrn_radiation_wavelength     0.71073
_diffrn_radiation_type           MoK\a
_diffrn_radiation_source         'fine-focus sealed tube'
_diffrn_radiation_monochromator  graphite
_diffrn_measurement_device_type  'CCD aera detector'
_diffrn_measurement_method       '\w scans'
_diffrn_detector_area_resol_mean ?
_diffrn_reflns_number            63859
_diffrn_reflns_av_R_equivalents  0.0300
_diffrn_reflns_av_sigmaI/netI    0.0286
_diffrn_reflns_limit_h_min       -51
_diffrn_reflns_limit_h_max       49
_diffrn_reflns_limit_k_min       -20
_diffrn_reflns_limit_k_max       20
_diffrn_reflns_limit_l_min       -29
_diffrn_reflns_limit_l_max       40
_diffrn_reflns_theta_min         2.18
_diffrn_reflns_theta_max         25.00
_reflns_number_total             17244
_reflns_number_gt                14647
_reflns_threshold_expression     >2sigma(I)

_computing_data_collection       'CrystalClear (Rigaku, 2005)'
_computing_cell_refinement       CrystalClear
_computing_data_reduction        CrystalClear
_computing_structure_solution    'SHELXS-2013 (Sheldrick, 2013)'
_computing_structure_refinement  'SHELXL-2013 (Sheldrick, 2013)'
_computing_molecular_graphics    'Bruker SHELXTL/PC (Sheldrick, 1999)'
_computing_publication_material  'Bruker SHELXTL/PC and PLATON (Spek, 2003)'

_refine_special_details          
; 
 Refinement of F^2^ against ALL reflections.  The weighted R-factor wR and 
 goodness of fit S are based on F^2^, conventional R-factors R are based 
 on F, with F set to zero for negative F^2^. The threshold expression of 
 F^2^ > 2sigma(F^2^) is used only for calculating R-factors(gt) etc. and is 
 not relevant to the choice of reflections for refinement.  R-factors based 
 on F^2^ are statistically about twice as large as those based on F, and R- 
 factors based on ALL data will be even larger. 
;

loop_
_platon_squeeze_void_nr
_platon_squeeze_void_average_x
_platon_squeeze_void_average_y
_platon_squeeze_void_average_z
_platon_squeeze_void_volume
_platon_squeeze_void_count_electrons
_platon_squeeze_void_content
1 0.186 -0.128 0.076 7184 1119 ' '
_platon_squeeze_details          
;
 The unit cell contains 32 DMF and 8 H2O molecules which have been 
 treated as a diffuse contribution to the overall scatting without
 specific atom positions by squeeze/platon. 
;

_refine_ls_structure_factor_coef Fsqd
_refine_ls_matrix_type           full
_refine_ls_weighting_scheme      calc
_refine_ls_weighting_details     
'calc w=1/[\s^2^(Fo^2^)+(0.0112P)^2^+110.0000P] where P=(Fo^2^+2Fc^2^)/3'
_atom_sites_solution_primary     direct
_atom_sites_solution_secondary   difmap
_atom_sites_solution_hydrogens   geom
_refine_ls_hydrogen_treatment    constr
_refine_ls_extinction_method     none
_refine_ls_extinction_coef       ?
_refine_ls_number_reflns         17244
_refine_ls_number_parameters     950
_refine_ls_number_restraints     0
_refine_ls_R_factor_all          0.0592
_refine_ls_R_factor_gt           0.0528
_refine_ls_wR_factor_ref         0.1411
_refine_ls_wR_factor_gt          0.1389
_refine_ls_goodness_of_fit_ref   1.168
_refine_ls_restrained_S_all      1.168
_refine_ls_shift/su_max          0.000
_refine_ls_shift/su_mean         0.000

loop_
_atom_site_label
_atom_site_type_symbol
_atom_site_fract_x
_atom_site_fract_y
_atom_site_fract_z
_atom_site_U_iso_or_equiv
_atom_site_adp_type
_atom_site_occupancy
_atom_site_symmetry_multiplicity
_atom_site_calc_flag
_atom_site_refinement_flags
_atom_site_disorder_assembly
_atom_site_disorder_group
Mn1 Mn 1.0000 0.95218(4) 0.2500 0.01803(15) Uani 1 2 d S . .
Mn2 Mn 1.0000 0.79296(4) 0.2500 0.01896(15) Uani 1 2 d S . .
Mn3 Mn 0.981430(14) 0.89964(3) 0.321550(17) 0.02012(12) Uani 1 1 d . . .
Mn4 Mn 0.909305(14) 0.84560(3) 0.181224(18) 0.02279(12) Uani 1 1 d . . .
O1 O 1.02909(6) 0.87277(12) 0.24924(8) 0.0195(4) Uani 1 1 d . . .
O2 O 0.90319(7) 0.94138(13) 0.13631(8) 0.0274(5) Uani 1 1 d . . .
O3 O 0.96599(6) 0.95640(12) 0.16558(8) 0.0224(5) Uani 1 1 d . . .
O4 O 1.03669(6) 1.03312(12) 0.26388(8) 0.0237(5) Uani 1 1 d . . .
O5 O 1.05019(7) 1.00698(13) 0.21138(9) 0.0276(5) Uani 1 1 d . . .
O6 O 0.88327(7) 0.89138(14) 0.21226(9) 0.0295(5) Uani 1 1 d . . .
O7 O 0.92526(7) 0.85549(13) 0.29550(8) 0.0271(5) Uani 1 1 d . . .
O8 O 0.91313(7) 0.73908(13) 0.21910(9) 0.0297(5) Uani 1 1 d . . .
O9 O 0.97841(7) 0.71267(13) 0.26567(8) 0.0263(5) Uani 1 1 d . . .
O10 O 1.02310(7) 0.80957(13) 0.36794(8) 0.0243(5) Uani 1 1 d . . .
O11 O 1.05315(7) 0.78800(12) 0.33416(8) 0.0233(5) Uani 1 1 d . . .
N1 N 0.93062(10) 1.17249(17) 0.09371(12) 0.0374(7) Uani 1 1 d . . .
N2 N 1.15659(12) 1.1360(2) 0.30300(16) 0.0565(10) Uani 1 1 d . . .
N3 N 0.82975(10) 0.8376(2) 0.29792(13) 0.0408(8) Uani 1 1 d . . .
N4 N 0.92444(10) 0.62560(19) 0.34074(13) 0.0405(8) Uani 1 1 d . . .
N5 N 1.11004(10) 0.68815(19) 0.50104(12) 0.0406(8) Uani 1 1 d . . .
N6 N 0.84816(9) 0.80605(18) 0.10966(11) 0.0330(7) Uani 1 1 d . . .
N7 N 0.99233(8) 0.94276(16) 0.39277(10) 0.0233(6) Uani 1 1 d . . .
C1 C 0.89563(19) 1.2409(3) 0.1206(2) 0.0707(16) Uani 1 1 d . . .
H1 H 0.9060 1.2109 0.1494 0.085 Uiso 1 1 calc R . .
C2 C 0.8704(2) 1.2996(4) 0.1082(3) 0.096(2) Uani 1 1 d . . .
H2 H 0.8631 1.3090 0.1284 0.115 Uiso 1 1 calc R . .
C3 C 0.8553(2) 1.3462(4) 0.0656(3) 0.099(2) Uani 1 1 d . . .
H3 H 0.8386 1.3867 0.0583 0.119 Uiso 1 1 calc R . .
C4 C 0.86474(18) 1.3328(3) 0.0348(2) 0.0719(17) Uani 1 1 d . . .
H4 H 0.8547 1.3642 0.0067 0.086 Uiso 1 1 calc R . .
C5 C 0.90059(14) 1.2613(2) -0.02228(17) 0.0488(11) Uani 1 1 d . . .
H5 H 0.8837 1.3009 -0.0437 0.059 Uiso 1 1 calc R . .
C6 C 0.92159(16) 1.2210(3) -0.03305(18) 0.0538(12) Uani 1 1 d . . .
H6 H 0.9190 1.2338 -0.0618 0.065 Uiso 1 1 calc R . .
C7 C 0.94631(16) 1.1619(3) -0.0021(2) 0.0581(13) Uani 1 1 d . . .
H7 H 0.9604 1.1360 -0.0102 0.070 Uiso 1 1 calc R . .
C8 C 0.95091(14) 1.1397(2) 0.04091(18) 0.0482(11) Uani 1 1 d . . .
H8 H 0.9673 1.0990 0.0612 0.058 Uiso 1 1 calc R . .
C9 C 0.90552(14) 1.2268(2) 0.08941(18) 0.0465(11) Uani 1 1 d . . .
C10 C 0.88954(14) 1.2717(2) 0.04547(18) 0.0491(11) Uani 1 1 d . . .
C11 C 0.90498(12) 1.2419(2) 0.02159(16) 0.0392(9) Uani 1 1 d . . .
C12 C 0.93003(12) 1.1808(2) 0.05249(15) 0.0362(9) Uani 1 1 d . . .
C13 C 0.94614(12) 1.1061(2) 0.12730(14) 0.0357(9) Uani 1 1 d . . .
H13A H 0.9510 1.1189 0.1589 0.043 Uiso 1 1 calc R . .
H13B H 0.9715 1.0907 0.1363 0.043 Uiso 1 1 calc R . .
C14 C 0.91607(11) 1.0403(2) 0.10032(13) 0.0327(8) Uani 1 1 d . . .
H14A H 0.8898 1.0580 0.0874 0.039 Uiso 1 1 calc R . .
H14B H 0.9138 1.0236 0.0711 0.039 Uiso 1 1 calc R . .
C15 C 0.92881(10) 0.97409(18) 0.13629(12) 0.0231(7) Uani 1 1 d . . .
C16 C 1.13351(18) 1.2701(3) 0.2792(2) 0.0656(14) Uani 1 1 d . . .
H16 H 1.1069 1.2584 0.2514 0.079 Uiso 1 1 calc R . .
C17 C 1.1466(2) 1.3471(3) 0.2937(3) 0.0834(19) Uani 1 1 d . . .
H17 H 1.1283 1.3866 0.2758 0.100 Uiso 1 1 calc R . .
C18 C 1.1864(2) 1.3630(3) 0.3343(3) 0.0817(19) Uani 1 1 d . . .
H18 H 1.1947 1.4132 0.3438 0.098 Uiso 1 1 calc R . .
C19 C 1.2134(2) 1.3065(3) 0.3604(3) 0.0757(17) Uani 1 1 d . . .
H19 H 1.2404 1.3182 0.3865 0.091 Uiso 1 1 calc R . .
C20 C 1.26022(17) 1.1368(4) 0.4147(3) 0.0781(17) Uani 1 1 d . . .
H20 H 1.2805 1.1729 0.4339 0.094 Uiso 1 1 calc R . .
C21 C 1.26808(18) 1.0612(4) 0.4282(3) 0.0852(19) Uani 1 1 d . . .
H21 H 1.2939 1.0467 0.4569 0.102 Uiso 1 1 calc R . .
C22 C 1.23828(19) 1.0058(4) 0.3999(3) 0.0857(19) Uani 1 1 d . . .
H22 H 1.2444 0.9553 0.4104 0.103 Uiso 1 1 calc R . .
C23 C 1.19981(17) 1.0251(3) 0.3566(2) 0.0668(15) Uani 1 1 d . . .
H23 H 1.1799 0.9885 0.3371 0.080 Uiso 1 1 calc R . .
C24 C 1.16187(15) 1.2141(3) 0.3079(2) 0.0560(13) Uani 1 1 d . . .
C25 C 1.20149(16) 1.2308(3) 0.3489(2) 0.0599(14) Uani 1 1 d . . .
C26 C 1.22118(16) 1.1586(3) 0.3716(2) 0.0623(14) Uani 1 1 d . . .
C27 C 1.19221(15) 1.1008(3) 0.3433(2) 0.0560(12) Uani 1 1 d . . .
C28 C 1.11808(14) 1.0968(3) 0.26532(19) 0.0548(12) Uani 1 1 d . . .
H28A H 1.1232 1.0466 0.2588 0.066 Uiso 1 1 calc R . .
H28B H 1.1023 1.1248 0.2331 0.066 Uiso 1 1 calc R . .
C29 C 1.09435(12) 1.0894(2) 0.28366(16) 0.0417(10) Uani 1 1 d . . .
H29A H 1.0861 1.1396 0.2856 0.050 Uiso 1 1 calc R . .
H29B H 1.1116 1.0680 0.3181 0.050 Uiso 1 1 calc R . .
C30 C 1.05737(10) 1.03983(19) 0.24895(13) 0.0263(7) Uani 1 1 d . . .
C31 C 1.17742(16) 0.7461(3) 0.5583(2) 0.0769(17) Uani 1 1 d . . .
H31 H 1.1697 0.7934 0.5422 0.092 Uiso 1 1 calc R . .
C32 C 1.21777(18) 0.7302(4) 0.6016(3) 0.118(3) Uani 1 1 d . . .
H32 H 1.2374 0.7674 0.6143 0.142 Uiso 1 1 calc R . .
C33 C 1.22872(19) 0.6581(4) 0.6261(3) 0.114(3) Uani 1 1 d . . .
H33 H 1.2552 0.6499 0.6555 0.137 Uiso 1 1 calc R . .
C34 C 1.20158(18) 0.6006(4) 0.6078(2) 0.086(2) Uani 1 1 d . . .
H34 H 1.2095 0.5537 0.6242 0.103 Uiso 1 1 calc R . .
C35 C 1.11904(18) 0.4901(3) 0.5335(2) 0.0635(14) Uani 1 1 d . . .
H35 H 1.1395 0.4580 0.5588 0.076 Uiso 1 1 calc R . .
C36 C 1.08037(19) 0.4626(3) 0.4952(3) 0.0744(16) Uani 1 1 d . . .
H36 H 1.0752 0.4109 0.4939 0.089 Uiso 1 1 calc R . .
C37 C 1.04961(17) 0.5107(3) 0.4592(2) 0.0692(15) Uani 1 1 d . . .
H37 H 1.0237 0.4914 0.4353 0.083 Uiso 1 1 calc R . .
C38 C 1.05644(14) 0.5872(3) 0.45775(19) 0.0511(11) Uani 1 1 d . . .
H38 H 1.0357 0.6192 0.4328 0.061 Uiso 1 1 calc R . .
C39 C 1.15014(13) 0.6878(3) 0.54104(16) 0.0500(11) Uani 1 1 d . . .
C40 C 1.16125(15) 0.6134(3) 0.56354(16) 0.0539(12) Uani 1 1 d . . .
C41 C 1.12630(14) 0.5669(3) 0.53282(17) 0.0491(11) Uani 1 1 d . . .
C42 C 1.09493(13) 0.6143(2) 0.49452(15) 0.0414(10) Uani 1 1 d . . .
C43 C 1.08666(12) 0.7490(2) 0.46409(13) 0.0352(9) Uani 1 1 d . . .
H43A H 1.0992 0.7975 0.4803 0.042 Uiso 1 1 calc R . .
H43B H 1.0598 0.7492 0.4533 0.042 Uiso 1 1 calc R . .
C44 C 1.08403(12) 0.7387(3) 0.41706(14) 0.0410(10) Uani 1 1 d . . .
H44A H 1.1096 0.7534 0.4264 0.049 Uiso 1 1 calc R . .
H44B H 1.0799 0.6852 0.4081 0.049 Uiso 1 1 calc R . .
C45 C 1.05093(10) 0.78369(18) 0.36996(12) 0.0235(7) Uani 1 1 d . . .
C46 C 0.97188(14) 0.7231(2) 0.40657(18) 0.0458(10) Uani 1 1 d . . .
H46 H 0.9676 0.7589 0.3832 0.055 Uiso 1 1 calc R . .
C47 C 0.99873(15) 0.7367(3) 0.45991(19) 0.0528(12) Uani 1 1 d . . .
H47 H 1.0126 0.7826 0.4721 0.063 Uiso 1 1 calc R . .
C48 C 1.00515(15) 0.6834(3) 0.49505(19) 0.0529(12) Uani 1 1 d . . .
H48 H 1.0239 0.6933 0.5302 0.063 Uiso 1 1 calc R . .
C49 C 0.98401(14) 0.6164(2) 0.47810(17) 0.0464(10) Uani 1 1 d . . .
H49 H 0.9876 0.5818 0.5016 0.056 Uiso 1 1 calc R . .
C50 C 0.92287(13) 0.4683(2) 0.40688(17) 0.0459(10) Uani 1 1 d . . .
H50 H 0.9347 0.4566 0.4408 0.055 Uiso 1 1 calc R . .
C51 C 0.89663(15) 0.4189(3) 0.36797(19) 0.0606(13) Uani 1 1 d . . .
H51 H 0.8910 0.3728 0.3756 0.073 Uiso 1 1 calc R . .
C52 C 0.87823(15) 0.4369(3) 0.3170(2) 0.0665(15) Uani 1 1 d . . .
H52 H 0.8602 0.4024 0.2912 0.080 Uiso 1 1 calc R . .
C53 C 0.88576(13) 0.5037(3) 0.30337(18) 0.0548(12) Uani 1 1 d . . .
H53 H 0.8736 0.5146 0.2692 0.066 Uiso 1 1 calc R . .
C54 C 0.95204(12) 0.6536(2) 0.39039(15) 0.0368(9) Uani 1 1 d . . .
C55 C 0.95714(12) 0.6002(2) 0.42546(15) 0.0365(9) Uani 1 1 d . . .
C56 C 0.93168(11) 0.5367(2) 0.39493(15) 0.0361(9) Uani 1 1 d . . .
C57 C 0.91253(12) 0.5542(2) 0.34315(16) 0.0403(9) Uani 1 1 d . . .
C58 C 0.91411(13) 0.6629(3) 0.29497(16) 0.0443(10) Uani 1 1 d . . .
H58A H 0.9126 0.7173 0.2980 0.053 Uiso 1 1 calc R . .
H58B H 0.8878 0.6456 0.2648 0.053 Uiso 1 1 calc R . .
C59 C 0.94432(12) 0.6468(2) 0.28771(16) 0.0381(9) Uani 1 1 d . . .
H59A H 0.9389 0.5969 0.2722 0.046 Uiso 1 1 calc R . .
H59B H 0.9710 0.6453 0.3213 0.046 Uiso 1 1 calc R . .
C60 C 0.94432(10) 0.70445(19) 0.25425(13) 0.0259(7) Uani 1 1 d . . .
C61 C 0.84863(13) 0.7070(3) 0.33725(16) 0.0483(11) Uani 1 1 d . . .
H61 H 0.8718 0.7028 0.3410 0.058 Uiso 1 1 calc R . .
C62 C 0.83671(14) 0.6491(3) 0.35243(17) 0.0529(11) Uani 1 1 d . . .
H62 H 0.8520 0.6049 0.3664 0.063 Uiso 1 1 calc R . .
C63 C 0.80197(14) 0.6555(3) 0.34722(18) 0.0532(11) Uani 1 1 d . . .
H63 H 0.7949 0.6161 0.3584 0.064 Uiso 1 1 calc R . .
C64 C 0.77813(13) 0.7197(3) 0.32561(17) 0.0469(10) Uani 1 1 d . . .
H64 H 0.7550 0.7235 0.3221 0.056 Uiso 1 1 calc R . .
C65 C 0.73668(14) 0.8901(3) 0.2681(2) 0.0582(13) Uani 1 1 d . . .
H65 H 0.7193 0.8689 0.2724 0.070 Uiso 1 1 calc R . .
C66 C 0.72859(16) 0.9598(3) 0.2452(2) 0.0689(15) Uani 1 1 d . . .
H66 H 0.7054 0.9856 0.2336 0.083 Uiso 1 1 calc R . .
C67 C 0.75465(17) 0.9929(3) 0.2389(2) 0.0679(15) Uani 1 1 d . . .
H67 H 0.7486 1.0404 0.2234 0.081 Uiso 1 1 calc R . .
C68 C 0.78906(14) 0.9560(3) 0.25540(19) 0.0535(11) Uani 1 1 d . . .
H68 H 0.8065 0.9780 0.2513 0.064 Uiso 1 1 calc R . .
C69 C 0.82469(12) 0.7723(2) 0.31610(15) 0.0392(9) Uani 1 1 d . . .
C70 C 0.78887(12) 0.7785(2) 0.30922(16) 0.0413(10) Uani 1 1 d . . .
C71 C 0.77156(12) 0.8513(2) 0.28498(16) 0.0427(10) Uani 1 1 d . . .
C72 C 0.79721(12) 0.8858(2) 0.27810(16) 0.0414(9) Uani 1 1 d . . .
C73 C 0.86424(11) 0.8568(3) 0.30159(15) 0.0410(9) Uani 1 1 d . . .
H73A H 0.8866 0.8238 0.3267 0.049 Uiso 1 1 calc R . .
H73B H 0.8723 0.9087 0.3136 0.049 Uiso 1 1 calc R . .
C74 C 0.85494(10) 0.8486(2) 0.24972(14) 0.0322(8) Uani 1 1 d . . .
H74A H 0.8465 0.7968 0.2375 0.039 Uiso 1 1 calc R . .
H74B H 0.8328 0.8820 0.2248 0.039 Uiso 1 1 calc R . .
C75 C 0.89076(10) 0.86735(19) 0.25294(12) 0.0254(7) Uani 1 1 d . . .
C76 C 1.02519(10) 0.92861(19) 0.44097(12) 0.0245(7) Uani 1 1 d . . .
H76 H 1.0464 0.9031 0.4462 0.029 Uiso 1 1 calc R . .
C77 C 1.02949(10) 0.94993(19) 0.48391(12) 0.0252(7) Uani 1 1 d . . .
H77 H 1.0531 0.9387 0.5168 0.030 Uiso 1 1 calc R . .
C78 C 0.99847(9) 0.98814(18) 0.47754(12) 0.0209(7) Uani 1 1 d . . .
C79 C 0.96442(11) 1.0043(2) 0.42709(13) 0.0339(9) Uani 1 1 d . . .
H79 H 0.9430 1.0309 0.4207 0.041 Uiso 1 1 calc R . .
C80 C 0.96261(11) 0.9807(2) 0.38669(13) 0.0350(9) Uani 1 1 d . . .
H80 H 0.9395 0.9918 0.3533 0.042 Uiso 1 1 calc R . .
C81 C 0.82655(15) 0.8451(4) 0.06669(18) 0.088(2) Uani 1 1 d . . .
H81 H 0.8376 0.8897 0.0656 0.106 Uiso 1 1 calc R . .
C82 C 0.78839(16) 0.8247(4) 0.02281(19) 0.091(2) Uani 1 1 d . . .
H82 H 0.7750 0.8543 -0.0068