####################################################################### 
# 
# This file contains crystal structure data downloaded from the 
# Cambridge Structural Database (CSD) hosted by the Cambridge 
# Crystallographic Data Centre (CCDC).
# 
# Full information about CCDC data access policies and citation 
# guidelines are available at http://www.ccdc.cam.ac.uk/access/V1 
# 
# Audit and citation data items may have been added by the CCDC. 
# Please retain this information to preserve the provenance of 
# this file and to allow appropriate attribution of the data. 
# 
#######################################################################

data_cmpd_000906a
_audit_block_doi                 10.5517/cc57l76
_database_code_depnum_ccdc_archive 'CCDC 156247'
loop_
_citation_id
_citation_doi
_citation_year
1 10.1023/A:1015691608076 2002
_audit_update_record             
;
2002-10-25 deposited with the CCDC.	2024-07-14 downloaded from the CCDC.
;

_audit_creation_method           'manually at CCDC'

_chemical_name_systematic        
;  
?
;
_chemical_name_common            ?
_chemical_formula_sum            'C28 H28 Br2 Cu2 N4 O10 '
_chemical_formula_moiety         ?

_chemical_formula_weight         867.44

_symmetry_cell_setting           Triclinic
_symmetry_space_group_name_H-M   P-1
_symmetry_Int_Tables_number      ?

loop_
_symmetry_equiv_pos_as_xyz
?
?
?

_cell_length_a                   12.0727(13)
_cell_length_b                   13.0312(14)
_cell_length_c                   13.1699(14)
_cell_angle_alpha                90.269(2)
_cell_angle_beta                 104.349(2)
_cell_angle_gamma                108.637(2)
_cell_volume                     1894.1(4)
_cell_formula_units_Z            2

_exptl_crystal_density_diffrn    1.521

_diffrn_ambient_temperature      298

_diffrn_source                   ?

_diffrn_radiation_probe          x-ray
_diffrn_radiation_type           ?
_chemical_melting_point          ?


_exptl_crystal_description       ?
_exptl_crystal_colour            ?

_exptl_special_details           
;
Wavelength                        0.71073 A 
Absorption coefficient            3.284 mm^-1 
F(000)  			  864 
Crystal size			  0.15 x 0.20 x 0.20 mm 
Theta range for data collection   2.41 to 25.03 deg. 
Limiting indices		  -12<=h<=14, -15<=k<=8, -14<=l<=15 
Reflections collected		  7822 
Independent reflections 	  6607 [R(int) =  
Obersved reflections		  4683 
Observed Criterion		  >2sigma(I) 
Absorption correction             None 
;


_refine_special_details          
; 
Refinement method                 Full-matrix least-squares on F^2 
Data / restraints / parameters    6607 / 0 / 429 
Weighing scheme 		  calc w=1/[\s^2^(Fo^2^)+(0.0900P)^2^+0.0000P] 
where P=(Fo^2^+2Fc^2^)/3 
Goodness-of-fit on F^2  	  0.898 
Final R indices [I>2sigma(I)]	  R1 = 0.0437, wR2 = 0.1155 
R indices (all data)		  R1 = 0.0666, wR2 = 0.1307 
Largest diff. peak and hole	  0.738 and -0.363 e.A^-3 
Data collection 		  Bruker SMART 
Cell refinement 		  Bruker SMART 
Data reduction  		  Bruker SHELXTL 
Structure solution		  SHELXS-97 (Sheldrick, 1990) 
Structure refinement		  SHELXL-97 (Sheldrick, 1997) 
Molecular graphics		  Bruker SHELXTL 
Publication material		  Bruker SHELXTL 

Refinement on F^2^ for ALL reflections except for 3 with very negative F^2 
or flagged by the user for potential systematic errors.  Weighted R-factors 
wR and all goodnesses of fit S are based on F^2^, conventional R-factors R 
are based on F, with F set to zero for negative F^2^. The observed criterion 
of F^2^ > 2sigma(F^2^) is used only for calculating R-factors etc. and is 
not relevant to the choice of reflections for refinement.  R-factors based 
on F^2^ are statistically about twice as large as those based on F, and R- 
factors based on ALL data will be even larger. 
;


_refine_ls_R_factor_gt           0.0437


loop_
_atom_site_label
_atom_site_fract_x
_atom_site_fract_y
_atom_site_fract_z
_atom_site_U_iso_or_equiv
Cu(1) 0.8984(1) 0.9166(1) 0.9815(1) 0.057(1)
Br(1) 0.9637(1) 1.0359(1) 0.8412(1) 0.057(1)
O(1) 0.8472(4) 0.4202(4) 0.7245(3) 0.091(1)
O(2) 0.8308(3) 0.3738(3) 0.8851(3) 0.064(1)
O(3) 0.6776(3) 0.1808(3) 0.9505(3) 0.066(1)
O(4) 0.7204(4) 0.1598(4) 1.1214(3) 0.090(1)
N(1) 0.8838(3) 0.7636(3) 0.9265(3) 0.051(1)
N(2) 0.2718(3) 0.0891(3) 1.0149(3) 0.052(1)
C(1) 0.8583(4) 0.5549(4) 0.8537(4) 0.052(1)
C(2) 0.8743(5) 0.6392(5) 0.7898(4) 0.062(1)
C(3) 0.8870(5) 0.7405(4) 0.8286(4) 0.060(1)
C(4) 0.8668(5) 0.6823(4) 0.9865(4) 0.063(1)
C(5) 0.8540(5) 0.5779(4) 0.9544(4) 0.066(1)
C(6) 0.8436(5) 0.4437(4) 0.8117(4) 0.060(1)
C(7) 0.8207(5) 0.2630(4) 0.8574(5) 0.069(2)
C(8) 0.8029(5) 0.2018(5) 0.9493(5) 0.071(2)
C(9) 0.6495(5) 0.1605(4) 1.0409(4) 0.056(1)
C(10) 0.5170(4) 0.1355(4) 1.0287(4) 0.049(1)
C(11) 0.4334(5) 0.1276(5) 0.9329(4) 0.062(1)
C(12) 0.3141(4) 0.1057(5) 0.9289(4) 0.061(1)
C(13) 0.3519(4) 0.0936(4) 1.1064(4) 0.059(1)
C(14) 0.4741(5) 0.1156(5) 1.1155(4) 0.064(1)
Cu(2) -0.4145(1) 0.1008(1) 0.4853(1) 0.059(1)
Br(2) -0.5573(1) -0.0445(1) 0.3415(1) 0.053(1)
O(5) 0.1652(4) 0.2029(5) 0.4107(3) 0.111(2)
O(6) 0.1954(3) 0.1582(3) 0.5758(3) 0.057(1)
O(7) 0.3959(3) 0.3677(3) 0.6173(3) 0.058(1)
O(8) 0.5684(4) 0.4583(3) 0.7349(4) 0.101(2)
N(3) -0.2426(3) 0.1110(3) 0.4830(3) 0.051(1)
N(4) 0.4419(3) 0.7549(3) 0.5524(3) 0.049(1)
C(21) -0.0011(4) 0.1474(4) 0.4854(4) 0.050(1)
C(22) -0.0408(4) 0.1215(4) 0.5742(4) 0.055(1)
C(23) -0.1604(4) 0.1064(5) 0.5700(4) 0.059(1)
C(24) -0.2033(5) 0.1312(5) 0.3966(4) 0.066(2)
C(25) -0.0867(5) 0.1492(5) 0.3934(4) 0.066(2)
C(26) 0.1279(4) 0.1720(4) 0.4850(4) 0.056(1)
C(27) 0.3219(4) 0.1744(4) 0.5851(5) 0.064(1)
C(28) 0.4030(5) 0.2673(4) 0.6607(5) 0.062(1)
C(29) 0.4839(5) 0.4582(4) 0.6652(4) 0.059(1)
C(30) 0.4675(4) 0.5595(4) 0.6216(4) 0.052(1)
C(31) 0.3732(4) 0.5614(4) 0.5362(4) 0.057(1)
C(32) 0.3655(4) 0.6594(4) 0.5052(4) 0.058(1)
C(33) 0.5344(5) 0.7524(4) 0.6320(4) 0.060(1)
C(34) 0.5490(5) 0.6581(4) 0.6686(4) 0.062(1)
O(31) 0.1790(40) 0.5480(50) 0.7530(40) 0.176(16)
O(32) 0.1695(18) 0.4730(19) 0.7567(16) 0.118(6)
O(33) 0.1080(17) 0.3989(16) 0.6693(15) 0.120(6)
O(34) 0.1570(30) 0.5970(30) 0.7120(20) 0.109(8)
O(11) 0.4700(20) 0.4070(20) 1.0460(20) 0.127(7)
O(12) 0.3480(20) 0.4180(20) 0.8602(19) 0.121(7)
O(13) 0.5230(30) 0.4140(20) 0.9860(20) 0.133(8)
O(14) 0.4440(30) 0.4430(20) 0.9490(20) 0.148(9)
H(2A) 0.8762 0.6268 0.7208 0.074
H(3A) 0.8986 0.7965 0.7847 0.072
H(4A) 0.8632 0.6965 1.0546 0.076
H(5A) 0.8426 0.5235 1.0000 0.080
H(7A) 0.8938 0.2612 0.8404 0.083
H(7B) 0.7525 0.2314 0.7967 0.083
H(8A) 0.8188 0.1339 0.9432 0.085
H(8B) 0.8574 0.2440 1.0136 0.085
H(11A) 0.4587 0.1371 0.8713 0.074
H(12A) 0.2597 0.1020 0.8640 0.073
H(13A) 0.3244 0.0815 1.1668 0.071
H(14A) 0.5267 0.1167 1.1807 0.077
H(22A) 0.0122 0.1143 0.6363 0.066
H(23A) -0.1852 0.0920 0.6314 0.071
H(24A) -0.2593 0.1331 0.3343 0.079
H(25A) -0.0647 0.1625 0.3306 0.079
H(27A) 0.3376 0.1864 0.5166 0.077
H(27B) 0.3393 0.1091 0.6074 0.077
H(28A) 0.3795 0.2617 0.7263 0.074
H(28B) 0.4856 0.2669 0.6752 0.074
H(31A) 0.3163 0.4968 0.5008 0.069
H(32A) 0.3028 0.6592 0.4475 0.070
H(33A) 0.5918 0.8182 0.6642 0.071
H(34A) 0.6141 0.6608 0.7252 0.075


loop_
_geom_bond_atom_site_label_1
_geom_bond_atom_site_label_2
_geom_bond_distance
Cu(1) N(1) 2.057(4)
Cu(1) Br(1) 2.4511(8)
Cu(1) Br(1) 2.5328(8)
Cu(1) Cu(1) 2.6399(13)
O(1) C(6) 1.202(6)
O(2) C(6) 1.335(6)
O(2) C(7) 1.446(6)
O(3) C(9) 1.322(6)
O(3) C(8) 1.453(6)
O(4) C(9) 1.188(6)
N(1) C(4) 1.318(6)
N(1) C(3) 1.336(6)
N(2) C(13) 1.333(6)
N(2) C(12) 1.345(6)
N(2) Cu(1) 2.044(4)
C(1) C(5) 1.375(7)
C(1) C(2) 1.380(7)
C(1) C(6) 1.489(7)
C(2) C(3) 1.361(7)
C(4) C(5) 1.371(7)
C(7) C(8) 1.475(8)
C(9) C(10) 1.493(7)
C(10) C(14) 1.362(7)
C(10) C(11) 1.387(7)
C(11) C(12) 1.363(7)
C(13) C(14) 1.384(7)
Cu(2) N(3) 2.044(4)
Cu(2) N(4) 2.054(4)
Cu(2) Br(2) 2.4688(8)
Cu(2) Br(2) 2.5307(8)
Cu(2) Cu(2) 2.8721(13)
O(5) C(26) 1.196(6)
O(6) C(26) 1.318(6)
O(6) C(27) 1.447(6)
O(7) C(29) 1.333(6)
O(7) C(28) 1.449(5)
O(8) C(29) 1.192(6)
N(3) C(24) 1.334(6)
N(3) C(23) 1.333(6)
N(4) C(32) 1.326(6)
N(4) C(33) 1.339(6)
C(21) C(22) 1.375(6)
C(21) C(25) 1.390(7)
C(21) C(26) 1.488(7)
C(22) C(23) 1.381(6)
C(24) C(25) 1.364(7)
C(27) C(28) 1.471(8)
C(29) C(30) 1.492(7)
C(30) C(34) 1.373(7)
C(30) C(31) 1.395(7)
C(31) C(32) 1.368(7)
C(33) C(34) 1.370(7)
O(31) O(34) 0.92(5)
O(31) O(32) 0.94(5)
O(32) O(33) 1.38(3)
O(32) O(34) 1.77(4)
O(11) O(13) 1.13(3)
O(11) O(14) 1.36(4)
O(12) O(14) 1.38(3)
O(13) O(14) 1.13(3)



loop_
_atom_site_aniso_label
_atom_site_aniso_U_11
_atom_site_aniso_U_22
_atom_site_aniso_U_33
_atom_site_aniso_U_12
_atom_site_aniso_U_13
_atom_site_aniso_U_23
# U11 U22 U33 U23 U13 U12 
Cu(1) 0.053(1) 0.059(1) 0.063(1) 0.008(1) 0.019(1) 0.022(1)
Br(1) 0.065(1) 0.066(1) 0.044(1) 0.016(1) 0.015(1) 0.025(1)
O(1) 0.125(4) 0.075(3) 0.070(3) -0.005(2) 0.037(3) 0.021(3)
O(2) 0.071(2) 0.049(2) 0.074(2) -0.002(2) 0.028(2) 0.017(2)
O(3) 0.046(2) 0.069(2) 0.084(3) 0.007(2) 0.022(2) 0.018(2)
O(4) 0.053(2) 0.131(4) 0.083(3) 0.026(3) 0.012(2) 0.032(3)
N(1) 0.048(2) 0.051(2) 0.052(2) 0.006(2) 0.013(2) 0.015(2)
N(2) 0.047(2) 0.056(2) 0.052(2) 0.011(2) 0.012(2) 0.018(2)
C(1) 0.045(3) 0.055(3) 0.053(3) 0.002(2) 0.007(2) 0.016(2)
C(2) 0.070(3) 0.071(4) 0.048(3) 0.008(3) 0.019(2) 0.024(3)
C(3) 0.065(3) 0.057(3) 0.059(3) 0.011(3) 0.018(3) 0.021(3)
C(4) 0.082(4) 0.057(3) 0.051(3) 0.004(3) 0.022(3) 0.020(3)
C(5) 0.087(4) 0.053(3) 0.055(3) 0.010(3) 0.021(3) 0.017(3)
C(6) 0.058(3) 0.056(3) 0.057(3) -0.004(3) 0.010(2) 0.012(3)
C(7) 0.061(3) 0.051(3) 0.099(4) -0.002(3) 0.037(3) 0.012(3)
C(8) 0.050(3) 0.061(3) 0.109(5) 0.011(3) 0.038(3) 0.016(3)
C(9) 0.048(3) 0.055(3) 0.067(3) 0.010(3) 0.020(3) 0.015(2)
C(10) 0.046(3) 0.043(3) 0.062(3) 0.009(2) 0.017(2) 0.018(2)
C(11) 0.059(3) 0.078(4) 0.057(3) 0.017(3) 0.022(3) 0.029(3)
C(12) 0.048(3) 0.087(4) 0.050(3) 0.019(3) 0.014(2) 0.028(3)
C(13) 0.050(3) 0.077(4) 0.053(3) 0.010(3) 0.018(2) 0.021(3)
C(14) 0.054(3) 0.089(4) 0.050(3) 0.017(3) 0.011(2) 0.024(3)
Cu(2) 0.048(1) 0.062(1) 0.068(1) 0.018(1) 0.011(1) 0.022(1)
Br(2) 0.048(1) 0.056(1) 0.051(1) 0.010(1) 0.008(1) 0.017(1)
O(5) 0.064(3) 0.195(6) 0.077(3) 0.056(3) 0.035(2) 0.035(3)
O(6) 0.039(2) 0.065(2) 0.069(2) 0.020(2) 0.014(2) 0.017(2)
O(7) 0.047(2) 0.049(2) 0.075(2) 0.017(2) 0.006(2) 0.018(2)
O(8) 0.080(3) 0.063(3) 0.120(4) 0.017(3) -0.034(3) 0.018(2)
N(3) 0.044(2) 0.057(2) 0.051(2) 0.014(2) 0.007(2) 0.018(2)
N(4) 0.047(2) 0.053(2) 0.049(2) 0.012(2) 0.012(2) 0.020(2)
C(21) 0.043(2) 0.050(3) 0.055(3) 0.014(2) 0.013(2) 0.013(2)
C(22) 0.041(3) 0.077(3) 0.049(3) 0.017(3) 0.014(2) 0.022(3)
C(23) 0.049(3) 0.079(4) 0.053(3) 0.022(3) 0.015(2) 0.025(3)
C(24) 0.050(3) 0.088(4) 0.055(3) 0.025(3) 0.007(2) 0.021(3)
C(25) 0.052(3) 0.090(4) 0.049(3) 0.023(3) 0.012(2) 0.015(3)
C(26) 0.050(3) 0.061(3) 0.059(3) 0.015(3) 0.020(3) 0.018(3)
C(27) 0.046(3) 0.056(3) 0.096(4) 0.013(3) 0.021(3) 0.023(3)
C(28) 0.048(3) 0.053(3) 0.084(4) 0.023(3) 0.009(3) 0.024(3)
C(29) 0.050(3) 0.052(3) 0.069(3) 0.013(3) 0.003(3) 0.020(3)
C(30) 0.042(2) 0.053(3) 0.059(3) 0.011(2) 0.008(2) 0.018(2)
C(31) 0.052(3) 0.053(3) 0.060(3) 0.006(2) 0.007(2) 0.012(2)
C(32) 0.050(3) 0.062(3) 0.055(3) 0.011(3) -0.002(2) 0.020(3)
C(33) 0.055(3) 0.050(3) 0.069(3) 0.011(3) 0.010(3) 0.016(3)
C(34) 0.051(3) 0.056(3) 0.070(3) 0.015(3) -0.004(2) 0.020(3)

loop_
_geom_angle_atom_site_label_1
_geom_angle_atom_site_label_2
_geom_angle_atom_site_label_3
_geom_angle
N(2) Cu(1) N(1) 106.63(16)
N(2) Cu(1) Br(1) 110.30(11)
N(1) Cu(1) Br(1) 109.65(11)
N(2) Cu(1) Br(1) 109.60(11)
N(1) Cu(1) Br(1) 104.05(11)
Br(1) Cu(1) Br(1) 116.06(3)
N(2) Cu(1) Cu(1) 130.09(12)
N(1) Cu(1) Cu(1) 123.03(11)
Br(1) Cu(1) Cu(1) 59.53(3)
Br(1) Cu(1) Cu(1) 56.52(3)
Cu(1) Br(1) Cu(1) 63.94(3)
C(6) O(2) C(7) 117.6(4)
C(9) O(3) C(8) 117.8(4)
C(4) N(1) C(3) 116.8(4)
C(4) N(1) Cu(1) 120.8(3)
C(3) N(1) Cu(1) 122.4(3)
C(13) N(2) C(12) 117.1(4)
C(13) N(2) Cu(1) 117.7(3)
C(12) N(2) Cu(1) 124.3(3)
C(5) C(1) C(2) 117.5(5)
C(5) C(1) C(6) 122.6(5)
C(2) C(1) C(6) 119.8(5)
C(3) C(2) C(1) 119.5(5)
N(1) C(3) C(2) 123.3(5)
N(1) C(4) C(5) 123.9(5)
C(4) C(5) C(1) 119.0(5)
O(1) C(6) O(2) 124.1(5)
O(1) C(6) C(1) 124.8(5)
O(2) C(6) C(1) 111.1(4)
O(2) C(7) C(8) 107.2(4)
O(3) C(8) C(7) 106.6(5)
O(4) C(9) O(3) 124.2(5)
O(4) C(9) C(10) 124.1(5)
O(3) C(9) C(10) 111.6(5)
C(14) C(10) C(11) 117.4(4)
C(14) C(10) C(9) 118.7(5)
C(11) C(10) C(9) 123.8(5)
C(12) C(11) C(10) 120.0(5)
N(2) C(12) C(11) 122.7(5)
N(2) C(13) C(14) 122.8(5)
C(10) C(14) C(13) 119.8(5)
N(3) Cu(2) N(4) 109.45(15)
N(3) Cu(2) Br(2) 107.89(11)
N(4) Cu(2) Br(2) 115.09(11)
N(3) Cu(2) Br(2) 106.66(12)
N(4) Cu(2) Br(2) 107.55(11)
Br(2) Cu(2) Br(2) 109.89(3)
N(3) Cu(2) Cu(2) 121.10(11)
N(4) Cu(2) Cu(2) 129.07(11)
Br(2) Cu(2) Cu(2) 55.96(2)
Br(2) Cu(2) Cu(2) 53.93(2)
Cu(2) Br(2) Cu(2) 70.11(3)
C(26) O(6) C(27) 118.4(4)
C(29) O(7) C(28) 115.9(4)
C(24) N(3) C(23) 116.0(4)
C(24) N(3) Cu(2) 122.1(3)
C(23) N(3) Cu(2) 121.7(3)
C(32) N(4) C(33) 116.4(4)
C(32) N(4) Cu(2) 122.6(3)
C(33) N(4) Cu(2) 120.9(3)
C(22) C(21) C(25) 117.6(4)
C(22) C(21) C(26) 122.4(4)
C(25) C(21) C(26) 120.0(4)
C(21) C(22) C(23) 119.0(5)
N(3) C(23) C(22) 123.9(5)
N(3) C(24) C(25) 124.4(5)
C(24) C(25) C(21) 119.0(5)
O(5) C(26) O(6) 124.6(5)
O(5) C(26) C(21) 123.0(5)
O(6) C(26) C(21) 112.5(4)
O(6) C(27) C(28) 112.3(4)
O(7) C(28) C(27) 109.5(4)
O(8) C(29) O(7) 123.3(5)
O(8) C(29) C(30) 123.2(5)
O(7) C(29) C(30) 113.5(4)
C(34) C(30) C(31) 117.0(4)
C(34) C(30) C(29) 118.6(4)
C(31) C(30) C(29) 124.4(5)
C(32) C(31) C(30) 119.1(5)
N(4) C(32) C(31) 124.2(4)
N(4) C(33) C(34) 123.4(5)
C(30) C(34) C(33) 119.9(5)
O(34) O(31) O(32) 144(7)
O(31) O(32) O(33) 121(4)
O(31) O(32) O(34) 18(4)
O(33) O(32) O(34) 103.7(17)
O(31) O(34) O(32) 18(4)
O(13) O(11) O(14) 53.2(19)
O(11) O(13) O(14) 74(2)
O(13) O(14) O(12) 139(3)
O(13) O(14) O(11) 53(2)
O(12) O(14) O(11) 138(3)


#END 



