####################################################################### 
# 
# This file contains crystal structure data downloaded from the 
# Cambridge Structural Database (CSD) hosted by the Cambridge 
# Crystallographic Data Centre (CCDC).
# 
# Full information about CCDC data access policies and citation 
# guidelines are available at http://www.ccdc.cam.ac.uk/access/V1 
# 
# Audit and citation data items may have been added by the CCDC. 
# Please retain this information to preserve the provenance of 
# this file and to allow appropriate attribution of the data. 
# 
#######################################################################

data_cmpd_001013c(ZWX)
_audit_block_doi                 10.5517/cc5jhjp
_database_code_depnum_ccdc_archive 'CCDC 164812'
loop_
_citation_id
_citation_doi
_citation_year
1 10.1023/A:1015691608076 2002
_audit_update_record             
;
2002-10-25 deposited with the CCDC.	2024-07-14 downloaded from the CCDC.
;

_audit_creation_method           'manually at CCDC'

_chemical_name_systematic        
;  
?
;
_chemical_name_common            ?
_chemical_formula_sum            'C30 H29 Br2 Cu2 N4 O9'
_chemical_formula_moiety         ?

_chemical_formula_weight         876.47

_symmetry_cell_setting           Triclinic
_symmetry_space_group_name_H-M   P-1
_symmetry_Int_Tables_number      ?

loop_
_symmetry_equiv_pos_as_xyz
?
?
?

_cell_length_a                   12.1414(14)
_cell_length_b                   12.9598(16)
_cell_length_c                   13.3376(15)
_cell_angle_alpha                88.858(3)
_cell_angle_beta                 75.120(2)
_cell_angle_gamma                70.777(2)
_cell_volume                     1910.4(4)
_cell_formula_units_Z            2

_exptl_crystal_density_diffrn    1.524

_diffrn_ambient_temperature      298

_diffrn_source                   ?

_diffrn_radiation_probe          x-ray
_diffrn_radiation_type           ?
_chemical_melting_point          ?


_exptl_crystal_description       ?
_exptl_crystal_colour            ?

_exptl_special_details           
;
Wavelength                        0.71073 A
Absorption coefficient            3.255 mm^-1 
F(000)                            874 
Crystal size                      0.35 x 0.25 x 0.25 mm 
Theta range for data collection   1.84 to 25.03 deg. 
Limiting indices                  -13<=h<=14, -13<=k<=15, -13<=l<=15 
Reflections collected / unique    7948 / 6667 [R(int) = 0.0307] 
Completeness to theta = 25.03     98.8 % 
Absorption correction             None 
Max. and min. transmission        0.4966 and 0.3954 
;

_refine_special_details          
; 
Refinement method                 Full-matrix least-squares on F^2 
Data / restraints / parameters    6667 / 4 / 421 
Goodness-of-fit on F^2            0.965 
Final R indices [I>2sigma(I)]     R1 = 0.0538, wR2 = 0.1125 
R indices (all data)              R1 = 0.1205, wR2 = 0.1348 
Largest diff. peak and hole       0.654 and -0.406 e.A^-3  ?
;

_refine_ls_R_factor_gt           0.0538
#This value may have been taken from more than one field 

loop_
_atom_site_label
_atom_site_fract_x
_atom_site_fract_y
_atom_site_fract_z
_atom_site_U_iso_or_equiv
Cu(1) 0.0856(1) 0.8978(1) 0.0140(1) 0.063(1)
Cu(2) 0.6007(1) 0.9152(1) 0.4792(1) 0.059(1)
Br(1) 0.0559(1) 0.9590(1) -0.1567(1) 0.057(1)
Br(2) 0.5336(1) 1.0411(1) 0.3431(1) 0.059(1)
O(1) 0.6644(5) 0.7932(6) 0.0866(5) 0.109(2)
O(2) 0.6938(4) 0.8455(4) -0.0753(4) 0.058(1)
O(3) -0.0686(5) 0.4498(5) 0.2306(5) 0.097(2)
O(4) 0.1048(4) 0.3630(4) 0.1148(4) 0.061(1)
O(5) 0.6665(6) 0.4199(5) 0.2218(5) 0.088(2)
O(6) 0.6722(4) 0.3712(4) 0.3833(4) 0.066(1)
O(7) 1.2195(5) 0.8371(6) 0.3800(5) 0.098(2)
O(8) 1.1704(4) 0.8241(4) 0.5510(5) 0.074(2)
N(1) 0.2593(5) 0.8837(4) 0.0155(5) 0.052(2)
N(2) 0.0573(5) 0.7525(5) 0.0507(4) 0.050(1)
N(3) 0.6121(5) 0.7652(5) 0.4252(4) 0.052(1)
N(4) 0.7710(5) 0.9060(5) 0.4818(5) 0.053(2)
C(1) 0.3396(6) 0.8924(6) -0.0712(6) 0.057(2)
C(2) 0.4584(6) 0.8758(6) -0.0754(5) 0.056(2)
C(3) 0.4970(6) 0.8485(6) 0.0134(5) 0.053(2)
C(4) 0.4154(7) 0.8424(7) 0.1019(6) 0.071(2)
C(5) 0.2980(7) 0.8608(7) 0.1006(6) 0.069(2)
C(6) 0.6272(6) 0.8248(6) 0.0131(6) 0.059(2)
C(7) 0.8183(6) 0.8317(6) -0.0808(7) 0.071(2)
C(8) -0.0333(7) 0.7505(6) 0.1332(6) 0.065(2)
C(9) -0.0478(6) 0.6522(6) 0.1681(6) 0.063(2)
C(10) 0.0330(6) 0.5547(6) 0.1201(5) 0.049(2)
C(11) 0.1226(6) 0.5576(6) 0.0345(5) 0.056(2)
C(12) 0.1315(6) 0.6581(6) 0.0030(6) 0.057(2)
C(13) 0.0162(7) 0.4518(6) 0.1624(6) 0.061(2)
C(14) 0.0984(6) 0.2606(6) 0.1573(6) 0.067(2)
C(15) 0.6240(7) 0.6812(6) 0.4871(6) 0.063(2)
C(16) 0.6376(7) 0.5763(6) 0.4544(6) 0.063(2)
C(17) 0.6436(6) 0.5522(6) 0.3520(5) 0.052(2)
C(18) 0.6320(7) 0.6393(7) 0.2873(6) 0.063(2)
C(19) 0.6159(6) 0.7418(6) 0.3262(5) 0.057(2)
C(20) 0.6634(6) 0.4437(7) 0.3107(7) 0.059(2)
C(21) 0.6849(7) 0.2598(6) 0.3548(6) 0.068(2)
C(22) 0.8102(7) 0.8941(6) 0.5672(6) 0.065(2)
C(23) 0.9294(7) 0.8740(6) 0.5656(6) 0.064(2)
C(24) 1.0144(6) 0.8635(5) 0.4709(6) 0.052(2)
C(25) 0.9731(7) 0.8806(6) 0.3840(6) 0.065(2)
C(26) 0.8528(7) 0.9010(6) 0.3922(6) 0.066(2)
C(27) 1.1468(7) 0.8395(6) 0.4582(7) 0.058(2)
C(28) 1.2966(7) 0.8043(7) 0.5540(7) 0.079(3)
O(11) 0.3626(15) 0.4693(14) 0.2913(13) 0.146(6)
C(31) 0.3698(17) 0.3933(15) 0.2203(15) 0.098(6)
C(32) 0.4110(18) 0.4309(16) 0.1290(15) 0.098(6)
C(33) 0.3950(20) 0.5400(17) 0.1466(17) 0.137(8)
C(34) 0.3327(18) 0.5672(15) 0.2479(16) 0.110(7)
O(12) 0.9500(20) 0.5780(20) 0.5240(20) 0.254(12)
H(1A) 0.3138 0.9104 -0.1311 0.068
H(2A) 0.5118 0.8829 -0.1369 0.067
H(4A) 0.4387 0.8258 0.1631 0.085
H(5A) 0.2427 0.8572 0.1623 0.083
H(7A) 0.8324 0.8171 -0.0127 0.086
H(7B) 0.8343 0.8987 -0.1012 0.086
H(8A) -0.0877 0.8164 0.1678 0.078
H(9A) -0.1124 0.6532 0.2240 0.076
H(11A) 0.1769 0.4929 -0.0023 0.067
H(12A) 0.1933 0.6585 -0.0549 0.069
H(14A) 0.0163 0.2598 0.1712 0.081
H(14B) 0.1216 0.2529 0.2221 0.081
H(15A) 0.6229 0.6945 0.5557 0.076
H(16A) 0.6428 0.5217 0.5011 0.075
H(18A) 0.6351 0.6276 0.2179 0.076
H(19A) 0.6070 0.7984 0.2817 0.069
H(21A) 0.7536 0.2298 0.2950 0.081
H(21B) 0.6127 0.2577 0.3376 0.081
H(22A) 0.7544 0.8996 0.6312 0.078
H(23A) 0.9527 0.8676 0.6273 0.077
H(25A) 1.0264 0.8785 0.3193 0.078
H(26A) 0.8269 0.9120 0.3318 0.079
H(28A) 1.3100 0.8733 0.5608 0.094
H(28B) 1.3526 0.7637 0.4906 0.094
H(1) 0.9795 0.5765 0.4341 0.050
H(2) 1.0149 0.5655 0.5451 0.050



loop_
_geom_bond_atom_site_label_1
_geom_bond_atom_site_label_2
_geom_bond_distance
Cu(1) N(2) 2.051(5)
Cu(1) N(1) 2.062(5)
Cu(1) Br(1) 2.4693(12)
Cu(1) Br(1) 2.5257(13)
Cu(1) Cu(1) 2.8643(18)
Cu(2) N(3) 2.035(6)
Cu(2) N(4) 2.041(6)
Cu(2) Br(2) 2.4616(12)
Cu(2) Br(2) 2.5272(11)
Cu(2) Cu(2) 2.6335(18)
O(1) C(6) 1.193(8)
O(2) C(6) 1.326(8)
O(2) C(7) 1.446(7)
O(3) C(13) 1.193(8)
O(4) C(13) 1.322(8)
O(4) C(14) 1.451(8)
O(5) C(20) 1.219(8)
O(6) C(20) 1.335(9)
O(6) C(21) 1.449(8)
O(7) C(27) 1.174(9)
O(8) C(27) 1.337(9)
O(8) C(28) 1.478(8)
N(1) C(5) 1.328(8)
N(1) C(1) 1.337(8)
N(2) C(12) 1.313(8)
N(2) C(8) 1.348(8)
N(3) C(15) 1.346(8)
N(3) C(19) 1.347(8)
N(4) C(26) 1.330(9)
N(4) C(22) 1.331(8)
C(1) C(2) 1.373(9)
C(2) C(3) 1.382(9)
C(3) C(4) 1.352(9)
C(3) C(6) 1.506(9)
C(4) C(5) 1.370(10)
C(7) C(14) 1.489(10)
C(8) C(9) 1.398(9)
C(9) C(10) 1.365(9)
C(10) C(11) 1.369(9)
C(10) C(13) 1.493(9)
C(11) C(12) 1.389(9)
C(15) C(16) 1.380(10)
C(16) C(17) 1.385(9)
C(17) C(18) 1.399(9)
C(17) C(20) 1.443(10)
C(18) C(19) 1.370(10)
C(21) C(28) 1.481(10)
C(22) C(23) 1.379(9)
C(23) C(24) 1.386(10)
C(24) C(25) 1.364(9)
C(24) C(27) 1.498(9)
C(25) C(26) 1.371(9)
O(11) C(31) 1.346(9)
O(11) C(34) 1.361(9)
C(31) C(32) 1.34(2)
C(32) C(33) 1.379(10)
C(33) C(34) 1.357(10)



loop_
_atom_site_aniso_label
_atom_site_aniso_U_11
_atom_site_aniso_U_22
_atom_site_aniso_U_33
_atom_site_aniso_U_23
_atom_site_aniso_U_13
_atom_site_aniso_U_12
# U11 U22 U33 U23 U13 U12 
Cu(1) 0.050(1) 0.060(1) 0.076(1) 0.015(1) -0.010(1) -0.020(1)
Cu(2) 0.054(1) 0.057(1) 0.067(1) 0.006(1) -0.019(1) -0.019(1)
Br(1) 0.051(1) 0.056(1) 0.057(1) 0.008(1) -0.007(1) -0.016(1)
Br(2) 0.064(1) 0.064(1) 0.049(1) 0.015(1) -0.016(1) -0.022(1)
O(1) 0.067(4) 0.181(7) 0.088(4) 0.055(5) -0.040(4) -0.041(4)
O(2) 0.036(3) 0.069(3) 0.070(3) 0.020(3) -0.016(3) -0.017(2)
O(3) 0.088(4) 0.060(4) 0.105(5) 0.006(3) 0.032(4) -0.019(3)
O(4) 0.050(3) 0.047(3) 0.080(4) 0.015(3) -0.002(3) -0.019(3)
O(5) 0.112(5) 0.071(4) 0.074(4) -0.005(3) -0.032(4) -0.017(3)
O(6) 0.073(3) 0.053(3) 0.073(4) -0.001(3) -0.026(3) -0.017(3)
O(7) 0.052(3) 0.139(6) 0.093(5) 0.012(4) -0.006(4) -0.027(4)
O(8) 0.048(3) 0.080(4) 0.096(4) 0.012(3) -0.034(3) -0.015(3)
N(1) 0.041(3) 0.051(4) 0.060(4) 0.008(3) -0.010(3) -0.012(3)
N(2) 0.047(3) 0.048(4) 0.052(3) 0.010(3) -0.009(3) -0.017(3)
N(3) 0.054(4) 0.047(4) 0.048(4) 0.001(3) -0.012(3) -0.010(3)
N(4) 0.047(3) 0.053(4) 0.058(4) 0.008(3) -0.016(3) -0.014(3)
C(1) 0.039(4) 0.076(6) 0.054(5) 0.019(4) -0.012(4) -0.019(4)
C(2) 0.046(4) 0.072(5) 0.049(4) 0.011(4) -0.011(4) -0.021(4)
C(3) 0.050(4) 0.054(5) 0.055(5) 0.014(4) -0.019(4) -0.015(4)
C(4) 0.059(5) 0.093(7) 0.052(5) 0.027(4) -0.012(4) -0.019(4)
C(5) 0.052(5) 0.086(6) 0.057(5) 0.018(4) -0.007(4) -0.015(4)
C(6) 0.053(5) 0.063(5) 0.060(5) 0.012(4) -0.024(4) -0.012(4)
C(7) 0.039(4) 0.061(6) 0.115(7) 0.016(5) -0.021(5) -0.018(4)
C(8) 0.059(5) 0.059(5) 0.069(5) 0.010(4) -0.005(4) -0.018(4)
C(9) 0.056(4) 0.048(5) 0.069(5) 0.005(4) 0.011(4) -0.018(4)
C(10) 0.040(4) 0.042(4) 0.061(5) 0.010(4) -0.008(4) -0.013(3)
C(11) 0.047(4) 0.051(5) 0.059(5) -0.001(4) -0.006(4) -0.008(4)
C(12) 0.051(4) 0.055(5) 0.058(5) 0.010(4) -0.005(4) -0.015(4)
C(13) 0.047(4) 0.051(5) 0.074(5) 0.009(4) -0.004(4) -0.012(4)
C(14) 0.047(4) 0.054(5) 0.095(6) 0.019(5) -0.009(4) -0.019(4)
C(15) 0.092(6) 0.053(5) 0.045(4) 0.005(4) -0.022(4) -0.021(4)
C(16) 0.088(6) 0.046(5) 0.050(5) 0.008(4) -0.016(4) -0.020(4)
C(17) 0.045(4) 0.052(5) 0.053(5) 0.004(4) -0.008(4) -0.011(3)
C(18) 0.073(5) 0.068(6) 0.051(5) -0.002(4) -0.020(4) -0.023(4)
C(19) 0.066(5) 0.058(5) 0.049(5) 0.014(4) -0.015(4) -0.023(4)
C(20) 0.046(4) 0.061(6) 0.059(5) -0.006(4) -0.006(4) -0.008(4)
C(21) 0.063(5) 0.048(5) 0.095(6) -0.006(5) -0.034(5) -0.012(4)
C(22) 0.056(5) 0.080(6) 0.063(5) 0.015(4) -0.020(4) -0.023(4)
C(23) 0.054(5) 0.082(6) 0.061(5) 0.015(4) -0.024(4) -0.021(4)
C(24) 0.048(4) 0.042(4) 0.071(5) 0.007(4) -0.027(4) -0.014(3)
C(25) 0.049(5) 0.087(6) 0.050(5) 0.005(4) -0.006(4) -0.016(4)
C(26) 0.055(5) 0.083(6) 0.058(5) 0.006(4) -0.018(4) -0.020(4)
C(27) 0.051(5) 0.048(5) 0.075(6) 0.005(4) -0.021(5) -0.012(4)
C(28) 0.061(5) 0.063(6) 0.127(8) 0.022(5) -0.048(5) -0.024(4)

loop_
_geom_angle_atom_site_label_1
_geom_angle_atom_site_label_2
_geom_angle_atom_site_label_3
_geom_angle
N(2) Cu(1) N(1) 109.3(2)
N(2) Cu(1) Br(1) 114.54(16)
N(1) Cu(1) Br(1) 108.38(16)
N(2) Cu(1) Br(1) 107.45(17)
N(1) Cu(1) Br(1) 106.92(17)
Br(1) Cu(1) Br(1) 110.03(4)
N(2) Cu(1) Cu(1) 128.49(16)
N(1) Cu(1) Cu(1) 121.90(16)
Br(1) Cu(1) Cu(1) 55.94(4)
Br(1) Cu(1) Cu(1) 54.09(4)
N(3) Cu(2) N(4) 107.0(2)
N(3) Cu(2) Br(2) 109.59(16)
N(4) Cu(2) Br(2) 109.42(17)
N(3) Cu(2) Br(2) 104.04(16)
N(4) Cu(2) Br(2) 110.00(16)
Br(2) Cu(2) Br(2) 116.29(4)
N(3) Cu(2) Cu(2) 123.11(16)
N(4) Cu(2) Cu(2) 129.71(17)
Br(2) Cu(2) Cu(2) 59.36(4)
Br(2) Cu(2) Cu(2) 56.93(4)
Cu(1) Br(1) Cu(1) 69.97(4)
Cu(2) Br(2) Cu(2) 63.71(4)
C(6) O(2) C(7) 117.2(6)
C(13) O(4) C(14) 115.3(5)
C(20) O(6) C(21) 118.2(6)
C(27) O(8) C(28) 117.0(6)
C(5) N(1) C(1) 117.2(6)
C(5) N(1) Cu(1) 121.9(5)
C(1) N(1) Cu(1) 120.8(5)
C(12) N(2) C(8) 117.4(6)
C(12) N(2) Cu(1) 122.4(5)
C(8) N(2) Cu(1) 119.8(5)
C(15) N(3) C(19) 116.2(6)
C(15) N(3) Cu(2) 120.4(5)
C(19) N(3) Cu(2) 123.3(5)
C(26) N(4) C(22) 116.6(6)
C(26) N(4) Cu(2) 119.0(5)
C(22) N(4) Cu(2) 124.1(5)
N(1) C(1) C(2) 122.8(6)
C(1) C(2) C(3) 118.7(6)
C(4) C(3) C(2) 118.6(6)
C(4) C(3) C(6) 119.9(7)
C(2) C(3) C(6) 121.4(6)
C(3) C(4) C(5) 119.5(7)
N(1) C(5) C(4) 123.1(7)
O(1) C(6) O(2) 124.2(7)
O(1) C(6) C(3) 122.6(7)
O(2) C(6) C(3) 113.2(6)
O(2) C(7) C(14) 110.5(6)
N(2) C(8) C(9) 121.8(7)
C(10) C(9) C(8) 119.9(7)
C(9) C(10) C(11) 117.8(6)
C(9) C(10) C(13) 118.0(6)
C(11) C(10) C(13) 124.2(7)
C(10) C(11) C(12) 119.4(7)
N(2) C(12) C(11) 123.5(6)
O(3) C(13) O(4) 123.7(7)
O(3) C(13) C(10) 123.8(7)
O(4) C(13) C(10) 112.5(6)
O(4) C(14) C(7) 109.0(6)
N(3) C(15) C(16) 123.5(7)
C(15) C(16) C(17) 120.0(7)
C(16) C(17) C(18) 116.6(7)
C(16) C(17) C(20) 123.3(7)
C(18) C(17) C(20) 120.1(7)
C(19) C(18) C(17) 120.0(7)
N(3) C(19) C(18) 123.7(7)
O(5) C(20) O(6) 122.9(7)
O(5) C(20) C(17) 125.1(8)
O(6) C(20) C(17) 111.9(7)
O(6) C(21) C(28) 106.8(6)
N(4) C(22) C(23) 123.2(7)
C(22) C(23) C(24) 119.3(7)
C(25) C(24) C(23) 117.3(6)
C(25) C(24) C(27) 118.0(7)
C(23) C(24) C(27) 124.6(7)
C(24) C(25) C(26) 119.7(7)
N(4) C(26) C(25) 123.7(7)
O(7) C(27) O(8) 124.4(7)
O(7) C(27) C(24) 126.1(8)
O(8) C(27) C(24) 109.5(7)
O(8) C(28) C(21) 107.1(6)
C(31) O(11) C(34) 106.3(17)
C(32) C(31) O(11) 103.9(17)
C(31) C(32) C(33) 107.9(19)
C(34) C(33) C(32) 105.9(19)
C(33) C(34) O(11) 102.6(18)

#END 




