
#######################################################################
#
#                 Cambridge Crystallographic Data Centre
#                                CCDC
#
#######################################################################
#
# If this CIF has been generated from an entry in the Cambridge
# Structural Database, then it will include bibliographic, chemical,
# crystal, experimental, refinement or atomic coordinate data resulting
# from the CCDC's data processing and validation procedures.
#
#######################################################################

data_CSD_CIF_XUKFIS
_audit_creation_date 2003-02-25
_audit_creation_method CSD-ConQuest-V1
_database_code_CSD XUKFIS
_database_code_depnum_ccdc_archive 'CCDC 185398'
_chemical_formula_sum 'C10 H12 Br1 Cl1 F1 I1'
_chemical_formula_moiety
;
C10 H12 Br1 Cl1 F1 I1
;
_journal_coden_Cambridge 4
_journal_volume 124
_journal_year 2002
_journal_page_first 13348
_journal_name_full 'J.Am.Chem.Soc. '
loop_
_publ_author_name
"P.R.Schreiner"
"A.A.Fokin"
"O.Lauenstein"
"Y.Okamoto"
"T.Wakita"
"C.Rinderspacher"
"G.H.Robinson"
"J.K.Vohs"
"C.F.Campana"
_chemical_name_systematic
;
(R,S)-1-bromo-3-chloro-5-fluoro-7-iodoadamantane
;
_chemical_name_common
;
Teaching Subset: Fundamental Chemistry
;
_cell_volume   1213.167
_exptl_crystal_colour 'colorless'
_exptl_crystal_density_diffrn 2.154
_exptl_crystal_description 'Cubic'
_diffrn_ambient_temperature 301
#These two values have been output from a single CSD field.
_refine_ls_R_factor_gt 0.0879
_refine_ls_wR_factor_gt 0.0879
_symmetry_cell_setting monoclinic
_symmetry_space_group_name_H-M 'P 21/c'
_symmetry_Int_Tables_number 14
loop_
_symmetry_equiv_pos_site_id
_symmetry_equiv_pos_as_xyz
1 x,y,z
2 -x,1/2+y,1/2-z
3 -x,-y,-z
4 x,-1/2-y,-1/2+z
_cell_length_a 12.4234(6)
_cell_length_b 12.3944(6)
_cell_length_c 7.8787(3)
_cell_angle_alpha 90
_cell_angle_beta 90.012(1)
_cell_angle_gamma 90
_cell_formula_units_Z 4
loop_
_atom_type_symbol
_atom_type_radius_bond
C 0.68
H 0.23
Br 1.21
Cl 0.99
F 0.64
I 1.40
loop_
_atom_site_label
_atom_site_type_symbol
_atom_site_fract_x
_atom_site_fract_y
_atom_site_fract_z
I1 I 0.55375(8) 0.18094(9) 0.05412(14)
Br1 Br 0.96661(10) 0.19454(12) 0.40003(19)
Cl1 Cl 0.6568(2) -0.1158(2) 0.5834(3)
F1 F 0.8564(7) -0.1297(8) 0.0074(12)
C1 C 0.6767(8) 0.0854(10) 0.1671(14)
C2 C 0.8501(8) 0.0943(9) 0.3171(14)
C3 C 0.7158(9) -0.0438(9) 0.3982(14)
C4 C 0.8104(10) -0.0576(10) 0.1268(18)
C5 C 0.7247(10) 0.0058(11) 0.0376(15)
H1 H 0.66910 -0.04210 -0.00480
H2 H 0.75530 0.04480 -0.05770
C6 C 0.7615(10) -0.1223(9) 0.2712(18)
H3 H 0.70500 -0.16900 0.22840
H4 H 0.81610 -0.16690 0.32440
C7 C 0.8994(9) 0.0166(11) 0.1889(16)
H5 H 0.92990 0.05630 0.09440
H6 H 0.95620 -0.02530 0.24190
C8 C 0.8002(9) 0.0285(10) 0.4692(14)
H7 H 0.85560 -0.01370 0.52500
H8 H 0.76900 0.07730 0.55180
C9 C 0.7632(8) 0.1627(9) 0.2275(14)
H9 H 0.73300 0.21500 0.30570
H10 H 0.79420 0.20110 0.13190
C10 C 0.6264(8) 0.0236(9) 0.3125(14)
H11 H 0.57000 -0.02340 0.27040
H12 H 0.59510 0.07330 0.39370
#END
