####################################################################### 
# 
# This file contains crystal structure data downloaded from the 
# Cambridge Structural Database (CSD) hosted by the Cambridge 
# Crystallographic Data Centre (CCDC).
# 
# Full information about CCDC data access policies and citation 
# guidelines are available at http://www.ccdc.cam.ac.uk/access/V1 
# 
# Audit and citation data items may have been added by the CCDC. 
# Please retain this information to preserve the provenance of 
# this file and to allow appropriate attribution of the data. 
# 
#######################################################################

data_130511f
_audit_block_doi                 10.5517/cc134gh6
_database_code_depnum_ccdc_archive 'CCDC 1017187'
loop_
_citation_id
_citation_doi
_citation_year
1 10.1016/j.inoche.2014.08.022 2014
_audit_update_record             
;
2014-07-31 deposited with the CCDC.	2024-07-14 downloaded from the CCDC.
;

_audit_creation_method           SHELXL-97
_chemical_name_systematic        
; 
 ? 
;
_chemical_name_common            ?
_chemical_melting_point          ?
_chemical_formula_moiety         ?
_chemical_formula_sum            'C46 H30 N6 O6 Zn'
_chemical_formula_weight         828.13

loop_
_atom_type_symbol
_atom_type_description
_atom_type_scat_dispersion_real
_atom_type_scat_dispersion_imag
_atom_type_scat_source
C C 0.0033 0.0016 'International Tables Vol C Tables 4.2.6.8 and 6.1.1.4'
H H 0.0000 0.0000 'International Tables Vol C Tables 4.2.6.8 and 6.1.1.4'
O O 0.0106 0.0060 'International Tables Vol C Tables 4.2.6.8 and 6.1.1.4'
N N 0.0061 0.0033 'International Tables Vol C Tables 4.2.6.8 and 6.1.1.4'
Zn Zn 0.2839 1.4301 'International Tables Vol C Tables 4.2.6.8 and 6.1.1.4'

_symmetry_cell_setting           Monoclinic
_symmetry_space_group_name_H-M   C2/c

loop_
_symmetry_equiv_pos_as_xyz
'x, y, z'
'-x, y, -z+1/2'
'x+1/2, y+1/2, z'
'-x+1/2, y+1/2, -z+1/2'
'-x, -y, -z'
'x, -y, z-1/2'
'-x+1/2, -y+1/2, -z'
'x+1/2, -y+1/2, z-1/2'

_cell_length_a                   37.590(3)
_cell_length_b                   13.6440(11)
_cell_length_c                   22.9201(19)
_cell_angle_alpha                90.00
_cell_angle_beta                 119.635(2)
_cell_angle_gamma                90.00
_cell_volume                     10217.6(14)
_cell_formula_units_Z            8
_cell_measurement_temperature    298(2)
_cell_measurement_reflns_used    2600
_cell_measurement_theta_min      2.475
_cell_measurement_theta_max      20.529

_exptl_crystal_description       block
_exptl_crystal_colour            red
_exptl_crystal_size_max          0.43
_exptl_crystal_size_mid          0.21
_exptl_crystal_size_min          0.12
_exptl_crystal_density_meas      ?
_exptl_crystal_density_diffrn    1.077
_exptl_crystal_density_method    'not measured'
_exptl_crystal_F_000             3408
_exptl_absorpt_coefficient_mu    0.526
_exptl_absorpt_correction_type   multi-scan
_exptl_absorpt_correction_T_min  0.8054
_exptl_absorpt_correction_T_max  0.9396
_exptl_absorpt_process_details   sadabs

_exptl_special_details           
; 
 ? 
;

_diffrn_ambient_temperature      298(2)
_diffrn_radiation_wavelength     0.71073
_diffrn_radiation_type           MoK\a
_diffrn_radiation_source         'fine-focus sealed tube'
_diffrn_radiation_monochromator  graphite
_diffrn_measurement_device_type  'CCD area detector'
_diffrn_measurement_method       'phi and omega scans'
_diffrn_detector_area_resol_mean ?
_diffrn_standards_number         ?
_diffrn_standards_interval_count ?
_diffrn_standards_interval_time  ?
_diffrn_standards_decay_%        ?
_diffrn_reflns_number            25554
_diffrn_reflns_av_R_equivalents  0.0954
_diffrn_reflns_av_sigmaI/netI    0.1395
_diffrn_reflns_limit_h_min       -37
_diffrn_reflns_limit_h_max       44
_diffrn_reflns_limit_k_min       -16
_diffrn_reflns_limit_k_max       16
_diffrn_reflns_limit_l_min       -27
_diffrn_reflns_limit_l_max       27
_diffrn_reflns_theta_min         2.21
_diffrn_reflns_theta_max         25.02
_reflns_number_total             8981
_reflns_number_gt                4166
_reflns_threshold_expression     >2sigma(I)

_computing_data_collection       'Bruker SMART'
_computing_cell_refinement       'Bruker SMART'
_computing_data_reduction        'Bruker SHELXTL'
_computing_structure_solution    'SHELXS-97 (Sheldrick, 1990)'
_computing_structure_refinement  'SHELXL-97 (Sheldrick, 1997)'
_computing_molecular_graphics    'Bruker SHELXTL'
_computing_publication_material  'Bruker SHELXTL'

_refine_special_details          
; 
 Refinement of F^2^ against ALL reflections.  The weighted R-factor wR and 
 goodness of fit S are based on F^2^, conventional R-factors R are based 
 on F, with F set to zero for negative F^2^. The threshold expression of 
 F^2^ > 2sigma(F^2^) is used only for calculating R-factors(gt) etc. and is 
 not relevant to the choice of reflections for refinement.  R-factors based 
 on F^2^ are statistically about twice as large as those based on F, and R- 
 factors based on ALL data will be even larger. 
;

_refine_ls_structure_factor_coef Fsqd
_refine_ls_matrix_type           full
_refine_ls_weighting_scheme      calc
_refine_ls_weighting_details     
'calc w=1/[\s^2^(Fo^2^)+(0.0187P)^2^+0.0000P] where P=(Fo^2^+2Fc^2^)/3'
_atom_sites_solution_primary     direct
_atom_sites_solution_secondary   difmap
_atom_sites_solution_hydrogens   geom
_refine_ls_hydrogen_treatment    constr
_refine_ls_extinction_method     none
_refine_ls_extinction_coef       ?
_refine_ls_number_reflns         8981
_refine_ls_number_parameters     533
_refine_ls_number_restraints     0
_refine_ls_R_factor_all          0.1084
_refine_ls_R_factor_gt           0.0534
_refine_ls_wR_factor_ref         0.1233
_refine_ls_wR_factor_gt          0.1175
_refine_ls_goodness_of_fit_ref   1.059
_refine_ls_restrained_S_all      1.059
_refine_ls_shift/su_max          0.001
_refine_ls_shift/su_mean         0.000

loop_
_atom_site_label
_atom_site_type_symbol
_atom_site_fract_x
_atom_site_fract_y
_atom_site_fract_z
_atom_site_U_iso_or_equiv
_atom_site_adp_type
_atom_site_occupancy
_atom_site_symmetry_multiplicity
_atom_site_calc_flag
_atom_site_refinement_flags
_atom_site_disorder_assembly
_atom_site_disorder_group
Zn1 Zn 0.702996(16) 0.52182(4) 0.35365(3) 0.04188(17) Uani 1 1 d . . .
N1 N 0.74624(10) 0.4096(3) 0.38586(17) 0.0426(10) Uani 1 1 d . . .
N2 N 0.67528(10) 0.4624(3) 0.25732(16) 0.0415(9) Uani 1 1 d . . .
N3 N 0.64945(10) 0.5994(3) 0.32579(17) 0.0441(10) Uani 1 1 d . . .
N4 N 0.72007(10) 0.5462(3) 0.45350(16) 0.0454(10) Uani 1 1 d . . .
N5 N 0.76838(12) 0.1351(3) 0.17546(18) 0.0465(10) Uani 1 1 d . . .
N6 N 0.62713(18) 0.8635(4) 0.5417(2) 0.0832(16) Uani 1 1 d . . .
O1 O 0.89656(11) 0.2365(3) 0.79833(19) 0.1098(15) Uani 1 1 d . . .
H1 H 0.9165 0.2231 0.8347 0.165 Uiso 1 1 calc R . .
O2 O 0.94158(13) 0.3422(4) 0.7965(2) 0.1346(19) Uani 1 1 d . . .
O3 O 0.45309(12) 0.6828(3) -0.07998(18) 0.0952(14) Uani 1 1 d . . .
O4 O 0.49888(13) 0.7778(4) -0.0851(2) 0.153(2) Uani 1 1 d . . .
H4 H 0.4789 0.7929 -0.1210 0.229 Uiso 1 1 calc R . .
O5 O 0.66337(18) 0.9841(4) 0.1776(3) 0.171(3) Uani 1 1 d . . .
O6 O 0.60110(16) 1.0242(4) 0.1116(3) 0.159(2) Uani 1 1 d . . .
H6 H 0.6115 1.0539 0.0927 0.239 Uiso 1 1 calc R . .
C1 C 0.75299(14) 0.3467(3) 0.3449(2) 0.0473(13) Uani 1 1 d . . .
C2 C 0.78900(14) 0.2874(3) 0.3862(3) 0.0583(14) Uani 1 1 d . . .
H2 H 0.8005 0.2407 0.3709 0.070 Uiso 1 1 calc R . .
C3 C 0.80253(15) 0.3127(4) 0.4507(3) 0.0602(15) Uani 1 1 d . . .
H3 H 0.8249 0.2860 0.4882 0.072 Uiso 1 1 calc R . .
C4 C 0.77569(14) 0.3891(3) 0.4510(2) 0.0464(12) Uani 1 1 d . . .
C5 C 0.77916(14) 0.4329(3) 0.5086(2) 0.0486(13) Uani 1 1 d . . .
C6 C 0.75312(14) 0.5057(3) 0.5094(2) 0.0472(13) Uani 1 1 d . . .
C7 C 0.75555(15) 0.5475(4) 0.5690(2) 0.0649(15) Uani 1 1 d . . .
H7 H 0.7749 0.5323 0.6130 0.078 Uiso 1 1 calc R . .
C8 C 0.72448(15) 0.6135(4) 0.5493(2) 0.0650(15) Uani 1 1 d . . .
H8 H 0.7187 0.6517 0.5773 0.078 Uiso 1 1 calc R . .
C9 C 0.70221(14) 0.6128(3) 0.4770(2) 0.0481(13) Uani 1 1 d . . .
C10 C 0.66598(14) 0.6668(3) 0.4366(2) 0.0485(12) Uani 1 1 d . . .
C11 C 0.64160(14) 0.6612(3) 0.3661(2) 0.0482(12) Uani 1 1 d . . .
C12 C 0.60617(14) 0.7202(3) 0.3249(2) 0.0564(14) Uani 1 1 d . . .
H12 H 0.5947 0.7673 0.3400 0.068 Uiso 1 1 calc R . .
C13 C 0.59271(15) 0.6947(4) 0.2604(3) 0.0606(14) Uani 1 1 d . . .
H13 H 0.5703 0.7214 0.2228 0.073 Uiso 1 1 calc R . .
C14 C 0.61940(14) 0.6186(3) 0.2600(2) 0.0489(13) Uani 1 1 d . . .
C15 C 0.61625(14) 0.5737(3) 0.2021(2) 0.0498(13) Uani 1 1 d . . .
C16 C 0.64207(14) 0.4989(3) 0.2014(2) 0.0472(13) Uani 1 1 d . . .
C17 C 0.63748(15) 0.4513(3) 0.1423(2) 0.0573(14) Uani 1 1 d . . .
H17 H 0.6170 0.4634 0.0984 0.069 Uiso 1 1 calc R . .
C18 C 0.66743(15) 0.3873(3) 0.1612(2) 0.0553(14) Uani 1 1 d . . .
H18 H 0.6720 0.3458 0.1334 0.066 Uiso 1 1 calc R . .
C19 C 0.69205(14) 0.3937(3) 0.2340(2) 0.0449(12) Uani 1 1 d . . .
C20 C 0.72824(14) 0.3405(3) 0.2741(2) 0.0459(12) Uani 1 1 d . . .
C21 C 0.9062(2) 0.3021(5) 0.7696(3) 0.0839(19) Uani 1 1 d . . .
C22 C 0.87422(16) 0.3343(4) 0.7025(3) 0.0674(16) Uani 1 1 d . . .
C23 C 0.88126(17) 0.4116(4) 0.6703(3) 0.094(2) Uani 1 1 d . . .
H23 H 0.9066 0.4428 0.6910 0.113 Uiso 1 1 calc R . .
C24 C 0.85095(16) 0.4432(4) 0.6073(3) 0.0831(19) Uani 1 1 d . . .
H24 H 0.8563 0.4946 0.5861 0.100 Uiso 1 1 calc R . .
C25 C 0.81304(14) 0.3987(4) 0.5762(2) 0.0501(13) Uani 1 1 d . . .
C26 C 0.80683(15) 0.3208(4) 0.6083(3) 0.0716(16) Uani 1 1 d . . .
H26 H 0.7818 0.2884 0.5876 0.086 Uiso 1 1 calc R . .
C27 C 0.83743(16) 0.2898(4) 0.6712(3) 0.0722(17) Uani 1 1 d . . .
H27 H 0.8324 0.2375 0.6920 0.087 Uiso 1 1 calc R . .
C28 C 0.4883(2) 0.7132(5) -0.0553(3) 0.083(2) Uani 1 1 d . . .
C29 C 0.52154(17) 0.6793(4) 0.0110(3) 0.0655(16) Uani 1 1 d . . .
C30 C 0.56097(18) 0.7113(5) 0.0374(3) 0.095(2) Uani 1 1 d . . .
H30 H 0.5676 0.7563 0.0139 0.114 Uiso 1 1 calc R . .
C31 C 0.59131(16) 0.6767(4) 0.0996(3) 0.0839(19) Uani 1 1 d . . .
H31 H 0.6180 0.6992 0.1170 0.101 Uiso 1 1 calc R . .
C32 C 0.58252(15) 0.6100(4) 0.1356(2) 0.0522(13) Uani 1 1 d . . .
C33 C 0.54290(17) 0.5796(4) 0.1088(3) 0.0701(16) Uani 1 1 d . . .
H33 H 0.5360 0.5354 0.1325 0.084 Uiso 1 1 calc R . .
C34 C 0.51254(16) 0.6139(4) 0.0465(3) 0.0736(17) Uani 1 1 d . . .
H34 H 0.4858 0.5917 0.0290 0.088 Uiso 1 1 calc R . .
C35 C 0.6589(2) 0.8829(4) 0.5353(3) 0.0790(18) Uani 1 1 d . . .
H35 H 0.6728 0.9410 0.5540 0.095 Uiso 1 1 calc R . .
C36 C 0.67353(17) 0.8229(4) 0.5025(3) 0.0688(16) Uani 1 1 d . . .
H36 H 0.6969 0.8402 0.5007 0.083 Uiso 1 1 calc R . .
C37 C 0.65265(16) 0.7369(4) 0.4726(2) 0.0515(13) Uani 1 1 d . . .
C38 C 0.61860(16) 0.7155(4) 0.4788(3) 0.0663(15) Uani 1 1 d . . .
H38 H 0.6035 0.6589 0.4599 0.080 Uiso 1 1 calc R . .
C39 C 0.60752(18) 0.7805(5) 0.5139(3) 0.0841(19) Uani 1 1 d . . .
H39 H 0.5848 0.7647 0.5181 0.101 Uiso 1 1 calc R . .
C40 C 0.78378(14) 0.2262(4) 0.1908(2) 0.0531(13) Uani 1 1 d . . .
H40 H 0.8035 0.2446 0.1797 0.064 Uiso 1 1 calc R . .
C41 C 0.77173(15) 0.2945(3) 0.2227(2) 0.0544(14) Uani 1 1 d . . .
H41 H 0.7835 0.3566 0.2329 0.065 Uiso 1 1 calc R . .
C42 C 0.74197(14) 0.2688(4) 0.2390(2) 0.0443(12) Uani 1 1 d . . .
C43 C 0.72584(14) 0.1751(4) 0.2226(2) 0.0601(14) Uani 1 1 d . . .
H43 H 0.7056 0.1552 0.2320 0.072 Uiso 1 1 calc R . .
C44 C 0.74036(15) 0.1110(4) 0.1918(2) 0.0594(14) Uani 1 1 d . . .
H44 H 0.7297 0.0478 0.1822 0.071 Uiso 1 1 calc R . .
C45 C 0.6287(3) 0.9759(6) 0.1610(5) 0.107(2) Uani 1 1 d . . .
C46 C 0.6122(2) 0.9176(5) 0.1978(4) 0.148(3) Uani 1 1 d . . .
H46A H 0.5981 0.8609 0.1718 0.222 Uiso 1 1 calc R . .
H46B H 0.5935 0.9573 0.2047 0.222 Uiso 1 1 calc R . .
H46C H 0.6344 0.8972 0.2404 0.222 Uiso 1 1 calc R . .

loop_
_atom_site_aniso_label
_atom_site_aniso_U_11
_atom_site_aniso_U_22
_atom_site_aniso_U_33
_atom_site_aniso_U_23
_atom_site_aniso_U_13
_atom_site_aniso_U_12
Zn1 0.0420(3) 0.0495(3) 0.0269(3) 0.0046(3) 0.0115(2) 0.0063(3)
N1 0.038(2) 0.052(2) 0.027(2) 0.0057(19) 0.008(2) 0.0098(19)
N2 0.039(2) 0.051(2) 0.025(2) 0.005(2) 0.0076(18) 0.009(2)
N3 0.042(2) 0.057(2) 0.025(2) 0.004(2) 0.010(2) 0.005(2)
N4 0.040(2) 0.063(3) 0.023(2) 0.003(2) 0.0077(19) 0.006(2)
N5 0.050(3) 0.050(3) 0.041(3) -0.002(2) 0.023(2) -0.003(2)
N6 0.089(4) 0.092(4) 0.068(4) -0.018(3) 0.038(3) 0.016(3)
O1 0.079(3) 0.142(4) 0.053(3) 0.051(3) -0.009(2) -0.010(3)
O2 0.073(3) 0.184(5) 0.080(3) 0.065(3) -0.013(3) -0.026(3)
O3 0.055(3) 0.141(4) 0.053(3) 0.035(2) -0.002(2) 0.006(3)
O4 0.087(3) 0.206(5) 0.088(4) 0.084(4) -0.017(3) -0.019(3)
O5 0.117(4) 0.160(5) 0.233(7) 0.090(5) 0.084(5) 0.006(4)
O6 0.116(4) 0.200(5) 0.160(5) 0.090(4) 0.067(4) -0.002(4)
C1 0.049(3) 0.053(3) 0.035(3) 0.007(3) 0.016(3) 0.012(3)
C2 0.058(4) 0.060(3) 0.049(4) 0.004(3) 0.020(3) 0.023(3)
C3 0.054(3) 0.074(4) 0.037(3) 0.008(3) 0.011(3) 0.016(3)
C4 0.041(3) 0.056(3) 0.034(3) 0.007(3) 0.012(3) 0.007(3)
C5 0.045(3) 0.064(3) 0.030(3) 0.008(3) 0.013(3) 0.005(3)
C6 0.044(3) 0.063(4) 0.024(3) 0.004(2) 0.008(2) 0.006(3)
C7 0.059(3) 0.093(4) 0.029(3) 0.007(3) 0.011(3) 0.019(3)
C8 0.061(4) 0.094(4) 0.033(3) -0.006(3) 0.018(3) 0.014(3)
C9 0.043(3) 0.066(3) 0.030(3) 0.003(3) 0.014(3) 0.010(3)
C10 0.050(3) 0.060(3) 0.033(3) -0.001(3) 0.018(3) 0.005(3)
C11 0.046(3) 0.060(3) 0.035(3) 0.001(3) 0.018(3) 0.004(3)
C12 0.055(3) 0.068(4) 0.040(3) -0.001(3) 0.019(3) 0.020(3)
C13 0.052(3) 0.077(4) 0.040(3) 0.006(3) 0.013(3) 0.024(3)
C14 0.043(3) 0.060(3) 0.034(3) 0.007(3) 0.012(3) 0.011(3)
C15 0.049(3) 0.060(3) 0.029(3) 0.006(3) 0.010(3) 0.006(3)
C16 0.049(3) 0.056(4) 0.025(3) 0.000(2) 0.009(2) 0.008(3)
C17 0.057(3) 0.072(4) 0.026(3) 0.002(3) 0.008(3) 0.014(3)
C18 0.062(4) 0.065(3) 0.029(3) -0.002(3) 0.015(3) 0.011(3)
C19 0.045(3) 0.054(3) 0.030(3) 0.003(2) 0.014(3) 0.004(3)
C20 0.050(3) 0.047(3) 0.038(3) 0.000(3) 0.019(3) 0.000(3)
C21 0.068(5) 0.105(5) 0.049(4) 0.040(4) 0.007(4) 0.000(4)
C22 0.049(4) 0.090(4) 0.037(3) 0.020(3) 0.002(3) 0.001(3)
C23 0.058(4) 0.116(5) 0.059(4) 0.038(4) -0.009(3) -0.021(4)
C24 0.061(4) 0.101(5) 0.047(4) 0.033(3) -0.004(3) -0.020(3)
C25 0.043(3) 0.064(3) 0.032(3) 0.015(3) 0.010(3) 0.009(3)
C26 0.050(3) 0.096(4) 0.046(4) 0.023(3) 0.006(3) -0.008(3)
C27 0.057(4) 0.094(4) 0.043(4) 0.034(3) 0.007(3) -0.004(3)
C28 0.068(5) 0.107(5) 0.046(4) 0.033(4) 0.007(4) 0.013(4)
C29 0.051(4) 0.091(4) 0.034(3) 0.018(3) 0.005(3) 0.013(3)
C30 0.066(4) 0.126(5) 0.058(4) 0.040(4) 0.004(4) 0.001(4)
C31 0.057(4) 0.111(5) 0.052(4) 0.030(4) 0.002(3) 0.001(3)
C32 0.050(3) 0.063(3) 0.030(3) 0.007(3) 0.009(3) 0.013(3)
C33 0.061(4) 0.088(4) 0.042(4) 0.020(3) 0.011(3) 0.003(3)
C34 0.052(4) 0.098(5) 0.045(4) 0.016(3) 0.004(3) 0.007(3)
C35 0.085(5) 0.081(4) 0.055(4) -0.016(3) 0.023(4) 0.003(4)
C36 0.072(4) 0.079(4) 0.053(4) -0.010(3) 0.029(3) -0.006(3)
C37 0.051(3) 0.064(4) 0.035(3) 0.000(3) 0.018(3) 0.010(3)
C38 0.064(4) 0.079(4) 0.060(4) -0.012(3) 0.033(3) 0.001(3)
C39 0.072(4) 0.112(5) 0.080(5) -0.006(4) 0.046(4) 0.008(4)
C40 0.061(4) 0.052(3) 0.054(4) -0.004(3) 0.035(3) -0.009(3)
C41 0.069(4) 0.046(3) 0.053(4) -0.008(3) 0.035(3) -0.008(3)
C42 0.048(3) 0.047(3) 0.032(3) 0.001(2) 0.016(3) 0.004(3)
C43 0.060(4) 0.060(4) 0.074(4) -0.011(3) 0.044(3) -0.004(3)
C44 0.066(4) 0.050(3) 0.068(4) -0.012(3) 0.038(3) -0.009(3)
C45 0.103(6) 0.091(5) 0.135(8) 0.035(5) 0.066(6) 0.005(6)
C46 0.185(8) 0.135(6) 0.152(8) 0.062(6) 0.104(7) 0.003(6)

_geom_special_details            
; 
 All esds (except the esd in the dihedral angle between two l.s. planes) 
 are estimated using the full covariance matrix.  The cell esds are taken 
 into account individually in the estimation of esds in distances, angles 
 and torsion angles; correlations between esds in cell parameters are only 
 used when they are defined by crystal symmetry.  An approximate (isotropic) 
 treatment of cell esds is used for estimating esds involving l.s. planes. 
;

loop_
_geom_bond_atom_site_label_1
_geom_bond_atom_site_label_2
_geom_bond_distance
_geom_bond_site_symmetry_2
_geom_bond_publ_flag
Zn1 N3 2.075(3) . ?
Zn1 N4 2.076(3) . ?
Zn1 N2 2.084(3) . ?
Zn1 N1 2.085(3) . ?
Zn1 N5 2.168(4) 4_655 ?
N1 C4 1.378(5) . ?
N1 C1 1.385(5) . ?
N2 C16 1.366(5) . ?
N2 C19 1.376(5) . ?
N3 C11 1.386(5) . ?
N3 C14 1.391(5) . ?
N4 C6 1.384(5) . ?
N4 C9 1.387(5) . ?
N5 C44 1.322(5) . ?
N5 C40 1.343(5) . ?
N5 Zn1 2.168(4) 4_645 ?
N6 C35 1.298(6) . ?
N6 C39 1.330(6) . ?
O1 C21 1.267(6) . ?
O1 H1 0.8200 . ?
O2 C21 1.278(6) . ?
O3 C28 1.227(6) . ?
O4 C28 1.293(6) . ?
O4 H4 0.8200 . ?
O5 C45 1.169(7) . ?
O6 C45 1.276(8) . ?
O6 H6 0.8200 . ?
C1 C20 1.418(6) . ?
C1 C2 1.454(6) . ?
C2 C3 1.350(6) . ?
C2 H2 0.9300 . ?
C3 C4 1.453(6) . ?
C3 H3 0.9300 . ?
C4 C5 1.395(6) . ?
C5 C6 1.401(6) . ?
C5 C25 1.513(6) . ?
C6 C7 1.440(6) . ?
C7 C8 1.363(6) . ?
C7 H7 0.9300 . ?
C8 C9 1.442(6) . ?
C8 H8 0.9300 . ?
C9 C10 1.416(6) . ?
C10 C11 1.412(6) . ?
C10 C37 1.502(6) . ?
C11 C12 1.439(6) . ?
C12 C13 1.352(6) . ?
C12 H12 0.9300 . ?
C13 C14 1.447(6) . ?
C13 H13 0.9300 . ?
C14 C15 1.413(6) . ?
C15 C16 1.414(6) . ?
C15 C32 1.505(6) . ?
C16 C17 1.434(6) . ?
C17 C18 1.317(5) . ?
C17 H17 0.9300 . ?
C18 C19 1.456(6) . ?
C18 H18 0.9300 . ?
C19 C20 1.409(6) . ?
C20 C42 1.511(6) . ?
C21 C22 1.475(7) . ?
C22 C27 1.347(6) . ?
C22 C23 1.385(6) . ?
C23 C24 1.393(6) . ?
C23 H23 0.9300 . ?
C24 C25 1.379(6) . ?
C24 H24 0.9300 . ?
C25 C26 1.376(6) . ?
C26 C27 1.394(6) . ?
C26 H26 0.9300 . ?
C27 H27 0.9300 . ?
C28 C29 1.485(7) . ?
C29 C34 1.358(6) . ?
C29 C30 1.366(7) . ?
C30 C31 1.395(6) . ?
C30 H30 0.9300 . ?
C31 C32 1.374(6) . ?
C31 H31 