####################################################################### 
# 
# This file contains crystal structure data downloaded from the 
# Cambridge Structural Database (CSD) hosted by the Cambridge 
# Crystallographic Data Centre (CCDC).
# 
# Full information about CCDC data access policies and citation 
# guidelines are available at http://www.ccdc.cam.ac.uk/access/V1 
# 
# Audit and citation data items may have been added by the CCDC. 
# Please retain this information to preserve the provenance of 
# this file and to allow appropriate attribution of the data. 
# 
#######################################################################

data_a
_audit_block_doi                 10.5517/cc12zthc
_database_code_depnum_ccdc_archive 'CCDC 1012723'
loop_
_citation_id
_citation_doi
_citation_year
1 10.1016/j.inoche.2014.08.017 2014
_audit_update_record             
;
2014-07-08 deposited with the CCDC.	2024-07-14 downloaded from the CCDC.
;

_audit_creation_method           SHELXL-97
_chemical_name_systematic        
; 
 ? 
;
_chemical_name_common            ?
_chemical_melting_point          ?
_chemical_formula_moiety         'C30 H20 O16 Zn4 '
_chemical_formula_sum            'C30 H20 O16 Zn4 '
_chemical_formula_weight         898.02

loop_
_atom_type_symbol
_atom_type_description
_atom_type_scat_dispersion_real
_atom_type_scat_dispersion_imag
_atom_type_scat_source
C C 0.0033 0.0016 'International Tables Vol C Tables 4.2.6.8 and 6.1.1.4'
H H 0.0000 0.0000 'International Tables Vol C Tables 4.2.6.8 and 6.1.1.4'
N N 0.0061 0.0033 'International Tables Vol C Tables 4.2.6.8 and 6.1.1.4'
O O 0.0106 0.0060 'International Tables Vol C Tables 4.2.6.8 and 6.1.1.4'
Zn Zn 0.2839 1.4301 'International Tables Vol C Tables 4.2.6.8 and 6.1.1.4'

_symmetry_cell_setting           Orthorhombic
_symmetry_space_group_name_H-M   Pna2(1)
_symmetry_space_group_name_Hall  'P 2c -2n'

loop_
_symmetry_equiv_pos_as_xyz
'x, y, z'
'-x, -y, z+1/2'
'-x+1/2, y+1/2, z+1/2'
'x+1/2, -y+1/2, z'

_cell_length_a                   21.169(3)
_cell_length_b                   11.2196(4)
_cell_length_c                   23.5169(13)
_cell_angle_alpha                90.00
_cell_angle_beta                 90.00
_cell_angle_gamma                90.00
_cell_volume                     5585.4(9)
_cell_formula_units_Z            4
_cell_measurement_temperature    293(2)
_cell_measurement_reflns_used    2479
_cell_measurement_theta_min      2.5041
_cell_measurement_theta_max      28.9977

_exptl_crystal_description       block
_exptl_crystal_colour            colorless
_exptl_crystal_size_max          0.20
_exptl_crystal_size_mid          0.18
_exptl_crystal_size_min          0.16
_exptl_crystal_density_meas      ?
_exptl_crystal_density_diffrn    1.068
_exptl_crystal_density_method    'not measured'
_exptl_crystal_F_000             1792
_exptl_absorpt_coefficient_mu    1.741
_exptl_absorpt_correction_type   multi-scan
_exptl_absorpt_correction_T_min  0.87645
_exptl_absorpt_correction_T_max  1.00000
_exptl_absorpt_process_details   crystalclear

_exptl_special_details           
; 
 ? 
;

_diffrn_ambient_temperature      293(2)
_diffrn_radiation_wavelength     0.71073
_diffrn_radiation_type           MoK\a
_diffrn_radiation_source         'fine-focus sealed tube'
_diffrn_radiation_monochromator  graphite
_diffrn_measurement_device_type  'multiwire proportional'
_diffrn_measurement_method       'phi and omega scans'
_diffrn_detector_area_resol_mean ?
_diffrn_standards_number         none
_diffrn_standards_interval_count 0
_diffrn_standards_interval_time  none
_diffrn_standards_decay_%        none
_diffrn_reflns_number            9044
_diffrn_reflns_av_R_equivalents  0.0693
_diffrn_reflns_av_sigmaI/netI    0.0919
_diffrn_reflns_limit_h_min       -20
_diffrn_reflns_limit_h_max       14
_diffrn_reflns_limit_k_min       -12
_diffrn_reflns_limit_k_max       13
_diffrn_reflns_limit_l_min       -20
_diffrn_reflns_limit_l_max       27
_diffrn_reflns_theta_min         2.65
_diffrn_reflns_theta_max         25.00
_reflns_number_total             5495
_reflns_number_gt                4117
_reflns_threshold_expression     >2sigma(I)

_computing_data_collection       'Bruker FRAMBO'
_computing_cell_refinement       'Bruker FRAMBO'
_computing_data_reduction        'Bruker SAINT'
_computing_structure_solution    'SHELXS-97 (Sheldrick, 1990)'
_computing_structure_refinement  'SHELXL-97 (Sheldrick, 1997)'
_computing_molecular_graphics    'Bruker SHELXTL'
_computing_publication_material  'Bruker SHELXTL'

_refine_special_details          
; 
 Refinement of F^2^ against ALL reflections.  The weighted R-factor wR and 
 goodness of fit S are based on F^2^, conventional R-factors R are based 
 on F, with F set to zero for negative F^2^. The threshold expression of 
 F^2^ > 2sigma(F^2^) is used only for calculating R-factors(gt) etc. and is 
 not relevant to the choice of reflections for refinement.  R-factors based 
 on F^2^ are statistically about twice as large as those based on F, and R- 
 factors based on ALL data will be even larger. 
;

_refine_ls_structure_factor_coef Fsqd
_refine_ls_matrix_type           full
_refine_ls_weighting_scheme      calc
_refine_ls_weighting_details     
'calc w=1/[\s^2^(Fo^2^)+(0.0874P)^2^+0.0000P] where P=(Fo^2^+2Fc^2^)/3'
_atom_sites_solution_primary     direct
_atom_sites_solution_secondary   difmap
_atom_sites_solution_hydrogens   geom
_refine_ls_hydrogen_treatment    mixed
_refine_ls_extinction_method     none
_refine_ls_extinction_coef       ?
_refine_ls_abs_structure_details 'Flack H D (1983), Acta Cryst. A39, 876-881'
_refine_ls_abs_structure_Flack   0.00
_refine_ls_number_reflns         5495
_refine_ls_number_parameters     451
_refine_ls_number_restraints     1
_refine_ls_R_factor_all          0.0848
_refine_ls_R_factor_gt           0.0679
_refine_ls_wR_factor_ref         0.1808
_refine_ls_wR_factor_gt          0.1664
_refine_ls_goodness_of_fit_ref   1.038
_refine_ls_restrained_S_all      1.038
_refine_ls_shift/su_max          0.000
_refine_ls_shift/su_mean         0.000

loop_
_atom_site_label
_atom_site_type_symbol
_atom_site_fract_x
_atom_site_fract_y
_atom_site_fract_z
_atom_site_U_iso_or_equiv
_atom_site_adp_type
_atom_site_occupancy
_atom_site_symmetry_multiplicity
_atom_site_calc_flag
_atom_site_refinement_flags
_atom_site_disorder_assembly
_atom_site_disorder_group
Zn1 Zn -0.59829(7) -0.27063(10) -0.14142(5) 0.0384(4) Uani 1 1 d . . .
Zn2 Zn -0.60081(8) 0.00592(10) -0.14283(5) 0.0428(4) Uani 1 1 d . . .
Zn3 Zn -0.66041(8) -0.12431(9) -0.03784(5) 0.0419(5) Uani 1 1 d . . .
Zn4 Zn -0.51315(8) -0.16854(11) -0.05055(6) 0.0501(5) Uani 1 1 d . . .
O1 O -0.5884(4) -0.1333(5) -0.0930(3) 0.035(2) Uani 1 1 d . . .
O1W O -0.5210(9) 0.0733(11) -0.1725(6) 0.159(8) Uani 1 1 d . . .
H1WA H -0.4861 0.0689 -0.1509 0.190 Uiso 1 1 d R . .
H1WB H -0.5193 0.1077 -0.2070 0.190 Uiso 1 1 d R . .
O2 O -0.5156(6) -0.3271(8) -0.1671(4) 0.062(3) Uani 1 1 d . . .
O2W O -0.4577(7) -0.0396(10) -0.0209(5) 0.116(5) Uani 1 1 d . . .
H2WA H -0.4519 0.0274 -0.0413 0.139 Uiso 1 1 d R . .
H2WB H -0.4386 -0.0480 0.0131 0.139 Uiso 1 1 d R . .
O3 O -0.4547(5) -0.2594(8) -0.0959(3) 0.061(3) Uani 1 1 d . . .
O3W O -0.7490(10) -0.1370(12) 0.0269(4) 0.185(10) Uani 1 1 d . . .
H3WA H -0.7817 -0.0865 0.0232 0.222 Uiso 1 1 d R . .
H3WB H -0.7491 -0.1922 0.0546 0.222 Uiso 1 1 d R . .
O4 O -0.2306(5) -0.3799(8) -0.0981(3) 0.057(3) Uani 1 1 d . . .
O5 O -0.1949(5) -0.5087(7) -0.1617(4) 0.055(3) Uani 1 1 d . . .
O6 O -0.6004(4) -0.0847(9) -0.2263(3) 0.053(3) Uani 1 1 d . . .
O7 O -0.6494(4) -0.2557(7) -0.2090(4) 0.052(3) Uani 1 1 d . . .
O8 O -0.8253(5) 0.1884(6) -0.5320(4) 0.058(3) Uani 1 1 d . . .
O9 O -0.8736(6) 0.0882(7) -0.6005(3) 0.070(3) Uani 1 1 d . . .
O10 O -0.8917(6) -0.3495(7) -0.5919(4) 0.068(3) Uani 1 1 d . . .
O11 O -0.8387(5) -0.4456(5) -0.5229(3) 0.064(3) Uani 1 1 d . . .
O12 O -0.3960(6) -0.8549(8) -0.4648(3) 0.070(4) Uani 1 1 d . . .
O13 O -0.4684(6) -0.7190(9) -0.4849(4) 0.084(4) Uani 1 1 d . . .
C1 C -0.4652(8) -0.3205(9) -0.1428(5) 0.050(4) Uani 1 1 d . . .
C2 C -0.4074(7) -0.3779(10) -0.1711(5) 0.046(4) Uani 1 1 d . . .
C3 C -0.3483(6) -0.3785(8) -0.1453(5) 0.037(3) Uani 1 1 d . . .
H3A H -0.3413 -0.3351 -0.1122 0.044 Uiso 1 1 calc R . .
C4 C -0.2985(8) -0.4462(10) -0.1701(5) 0.061(5) Uani 1 1 d . . .
C5 C -0.3108(8) -0.4936(11) -0.2239(5) 0.059(4) Uani 1 1 d . . .
H5A H -0.2776 -0.5282 -0.2439 0.071 Uiso 1 1 calc R . .
C6 C -0.3698(8) -0.4920(11) -0.2489(5) 0.049(4) Uani 1 1 d . . .
C7 C -0.4164(7) -0.4312(10) -0.2238(5) 0.051(4) Uani 1 1 d . . .
H7A H -0.4553 -0.4246 -0.2418 0.061 Uiso 1 1 calc R . .
C8 C -0.2390(8) -0.4467(10) -0.1405(5) 0.058(4) Uani 1 1 d . . .
C9 C -0.3811(8) -0.5557(11) -0.3035(5) 0.056(4) Uani 1 1 d . . .
C10 C -0.3478(8) -0.6654(18) -0.3141(6) 0.089(7) Uani 1 1 d . . .
H10A H -0.3190 -0.6951 -0.2878 0.107 Uiso 1 1 calc R . .
C11 C -0.3601(10) -0.7291(15) -0.3671(6) 0.099(7) Uani 1 1 d . . .
H11A H -0.3363 -0.7959 -0.3764 0.119 Uiso 1 1 calc R . .
C12 C -0.4087(9) -0.6892(12) -0.4047(5) 0.065(5) Uani 1 1 d . . .
C13 C -0.4257(11) -0.5174(15) -0.3423(7) 0.102(7) Uani 1 1 d . . .
H13A H -0.4462 -0.4452 -0.3362 0.123 Uiso 1 1 calc R . .
C14 C -0.6380(10) -0.1601(12) -0.2395(5) 0.070(5) Uani 1 1 d . . .
C15 C -0.6734(8) -0.1496(10) -0.2919(4) 0.055(4) Uani 1 1 d . . .
C16 C -0.6665(9) -0.0581(12) -0.3285(6) 0.089(7) Uani 1 1 d . . .
H16A H -0.6360 -0.0006 -0.3209 0.106 Uiso 1 1 calc R . .
C17 C -0.7476(9) -0.1308(10) -0.3918(5) 0.063(5) Uani 1 1 d . . .
C18 C -0.7547(10) -0.2171(13) -0.3531(6) 0.095(7) Uani 1 1 d . . .
H18A H -0.7853 -0.2740 -0.3615 0.114 Uiso 1 1 calc R . .
C19 C -0.7242(11) -0.2327(12) -0.3045(5) 0.109(8) Uani 1 1 d . . .
H19A H -0.7347 -0.2939 -0.2797 0.130 Uiso 1 1 calc R . .
C20 C -0.7814(8) -0.1304(7) -0.4478(5) 0.059(5) Uani 1 1 d . . .
C21 C -0.7944(7) -0.0259(9) -0.4741(4) 0.048(4) Uani 1 1 d . . .
H21A H -0.7782 0.0448 -0.4595 0.058 Uiso 1 1 calc R . .
C22 C -0.8338(8) -0.0230(8) -0.5256(5) 0.058(5) Uani 1 1 d . . .
C23 C -0.8483(7) -0.1326(9) -0.5464(5) 0.054(4) Uani 1 1 d . . .
H23A H -0.8680 -0.1336 -0.5818 0.064 Uiso 1 1 calc R . .
C24 C -0.8074(8) -0.2374(9) -0.4724(4) 0.070(5) Uani 1 1 d . . .
H24A H -0.8031 -0.3087 -0.4527 0.084 Uiso 1 1 calc R . .
C25 C -0.8379(6) -0.2383(7) -0.5229(5) 0.035(3) Uani 1 1 d . . .
C26 C -0.8440(5) 0.0965(8) -0.5497(5) 0.031(3) Uani 1 1 d . . .
C27 C -0.8527(7) -0.3531(8) -0.5452(5) 0.045(4) Uani 1 1 d . . .
C28 C -0.7035(9) -0.0462(11) -0.3778(5) 0.094(7) Uani 1 1 d . . .
H28A H -0.6980 0.0199 -0.4012 0.113 Uiso 1 1 calc R . .
C29 C -0.4409(9) -0.5844(15) -0.3906(6) 0.088(6) Uani 1 1 d . . .
H29A H -0.4734 -0.5584 -0.4140 0.106 Uiso 1 1 calc R . .
C30 C -0.4263(9) -0.7595(13) -0.4549(5) 0.060(4) Uani 1 1 d . . .

loop_
_atom_site_aniso_label
_atom_site_aniso_U_11
_atom_site_aniso_U_22
_atom_site_aniso_U_33
_atom_site_aniso_U_23
_atom_site_aniso_U_13
_atom_site_aniso_U_12
Zn1 0.0497(13) 0.0377(5) 0.0277(6) 0.0005(6) -0.0008(6) 0.0003(6)
Zn2 0.0545(13) 0.0372(5) 0.0368(6) 0.0014(6) 0.0024(7) -0.0004(6)
Zn3 0.0518(14) 0.0323(6) 0.0415(8) 0.0028(5) 0.0029(7) 0.0059(6)
Zn4 0.0642(14) 0.0565(7) 0.0296(6) -0.0052(6) 0.0004(8) 0.0056(7)
O1 0.051(8) 0.040(4) 0.015(3) 0.002(3) -0.004(3) 0.013(3)
O1W 0.20(2) 0.123(10) 0.154(12) -0.053(9) 0.120(13) -0.076(12)
O2 0.071(11) 0.071(6) 0.045(5) -0.004(4) -0.003(6) 0.000(5)
O2W 0.130(15) 0.108(8) 0.111(9) -0.018(7) -0.041(9) -0.055(8)
O3 0.033(9) 0.105(6) 0.044(4) -0.032(4) 0.007(4) 0.017(5)
O3W 0.35(3) 0.161(12) 0.046(6) 0.012(7) 0.047(10) 0.163(15)
O4 0.020(9) 0.097(7) 0.053(5) -0.012(4) -0.010(5) 0.026(5)
O5 0.034(8) 0.071(5) 0.062(5) -0.031(4) 0.011(5) -0.005(5)
O6 0.010(8) 0.101(7) 0.048(5) 0.004(5) 0.007(4) 0.004(5)
O7 0.035(9) 0.075(6) 0.045(5) 0.009(4) -0.017(4) 0.003(5)
O8 0.088(9) 0.027(4) 0.060(5) -0.001(3) -0.021(5) 0.006(4)
O9 0.125(11) 0.047(4) 0.037(4) 0.003(4) -0.032(6) -0.006(6)
O10 0.094(11) 0.055(5) 0.056(6) -0.015(4) -0.024(6) 0.017(5)
O11 0.124(10) 0.014(3) 0.053(5) -0.001(3) -0.038(5) 0.009(4)
O12 0.108(12) 0.072(6) 0.030(4) 0.005(4) 0.006(5) 0.016(6)
O13 0.113(13) 0.096(7) 0.044(5) -0.004(5) 0.015(7) 0.030(7)
C1 0.065(13) 0.051(6) 0.034(6) -0.012(6) -0.011(8) 0.011(6)
C2 0.035(14) 0.069(7) 0.033(6) -0.012(5) 0.015(7) -0.003(6)
C3 0.019(11) 0.040(5) 0.052(6) -0.012(5) -0.019(7) -0.011(4)
C4 0.079(16) 0.050(7) 0.054(7) -0.011(6) -0.005(8) 0.013(7)
C5 0.045(14) 0.070(8) 0.063(8) -0.040(6) 0.014(8) -0.013(7)
C6 0.024(12) 0.078(8) 0.046(7) -0.032(6) -0.011(7) 0.004(7)
C7 0.037(12) 0.062(7) 0.054(7) -0.016(6) -0.009(7) 0.007(7)
C8 0.088(15) 0.048(6) 0.039(6) -0.022(6) 0.006(8) -0.001(7)
C9 0.052(14) 0.073(8) 0.043(7) -0.028(6) 0.009(7) 0.007(8)
C10 0.011(15) 0.198(19) 0.059(9) -0.062(11) -0.020(8) 0.022(11)
C11 0.14(2) 0.122(14) 0.039(8) -0.036(8) 0.008(10) 0.022(13)
C12 0.088(16) 0.069(8) 0.037(7) 0.005(6) -0.012(8) 0.000(8)
C13 0.14(2) 0.096(11) 0.067(10) 0.006(8) 0.000(13) 0.011(12)
C14 0.123(19) 0.057(7) 0.032(6) -0.014(6) -0.009(8) -0.014(9)
C15 0.085(15) 0.061(7) 0.020(5) -0.004(5) -0.008(6) 0.018(8)
C16 0.14(2) 0.074(9) 0.048(8) 0.020(7) -0.056(10) -0.032(10)
C17 0.103(18) 0.049(6) 0.038(6) -0.003(5) -0.019(8) 0.009(7)
C18 0.14(2) 0.083(9) 0.068(9) 0.019(8) -0.055(11) -0.038(11)
C19 0.21(3) 0.069(8) 0.043(8) 0.027(7) -0.035(11) -0.025(12)
C20 0.112(15) 0.015(4) 0.051(7) 0.011(4) -0.046(8) 0.006(6)
C21 0.066(13) 0.041(6) 0.037(6) -0.003(4) -0.014(6) -0.007(6)
C22 0.109(15) 0.028(5) 0.037(6) 0.008(5) -0.020(7) -0.015(6)
C23 0.079(15) 0.054(6) 0.028(6) 0.002(5) -0.017(7) -0.002(6)
C24 0.151(18) 0.040(6) 0.019(5) 0.007(4) -0.030(7) -0.009(8)
C25 0.032(10) 0.026(5) 0.047(6) 0.007(4) 0.002(6) -0.005(4)
C26 0.012(9) 0.036(5) 0.046(6) 0.014(5) -0.016(6) -0.020(4)
C27 0.061(12) 0.034(5) 0.040(6) 0.007(5) 0.005(7) -0.018(5)
C28 0.19(2) 0.049(7) 0.048(8) -0.011(6) -0.054(11) -0.012(10)
C29 0.064(17) 0.137(14) 0.063(9) -0.044(9) 0.000(9) 0.056(12)
C30 0.062(15) 0.086(10) 0.031(6) 0.007(6) 0.002(7) 0.012(9)

_geom_special_details            
; 
 All esds (except the esd in the dihedral angle between two l.s. planes) 
 are estimated using the full covariance matrix.  The cell esds are taken 
 into account individually in the estimation of esds in distances, angles 
 and torsion angles; correlations between esds in cell parameters are only 
 used when they are defined by crystal symmetry.  An approximate (isotropic) 
 treatment of cell esds is used for estimating esds involving l.s. planes. 
;

loop_
_geom_bond_atom_site_label_1
_geom_bond_atom_site_label_2
_geom_bond_distance
_geom_bond_site_symmetry_2
_geom_bond_publ_flag
Zn1 O1 1.927(6) . ?
Zn1 O7 1.931(8) . ?
Zn1 O9 1.947(8) 3_345 ?
Zn1 O2 1.958(12) . ?
Zn1 Zn4 3.021(2) . ?
Zn1 Zn2 3.1035(15) . ?
Zn1 Zn3 3.2183(18) . ?
Zn2 O1 1.971(6) . ?
Zn2 O1W 1.977(14) . ?
Zn2 O10 2.023(8) 3_355 ?
Zn2 O5 2.041(10) 4_445 ?
Zn2 O6 2.211(9) . ?
Zn2 Zn3 3.1342(18) . ?
Zn3 O1 2.004(8) . ?
Zn3 O11 2.036(6) 3_355 ?
Zn3 O4 2.055(9) 4_445 ?
Zn3 O12 2.105(9) 2_445 ?
Zn3 O8 2.128(6) 3_345 ?
Zn3 O3W 2.419(17) . ?
Zn3 Zn4 3.171(2) . ?
Zn4 O1 1.921(8) . ?
Zn4 O3 1.927(8) . ?
Zn4 O2W 1.990(10) . ?
Zn4 O13 2.031(10) 2_445 ?
O1W H1WA 0.9000 . ?
O1W H1WB 0.9001 . ?
O2 C1 1.213(16) . ?
O2W H2WA 0.9000 . ?
O2W H2WB 0.8999 . ?
O3 C1 1.316(13) . ?
O3W H3WA 0.9000 . ?
O3W H3WB 0.9001 . ?
O4 C8 1.260(13) . ?
O4 Zn3 2.055(9) 4_545 ?
O5 C8 1.266(16) . ?
O5 Zn2 2.041(10) 4_545 ?
O6 C14 1.202(17) . ?
O7 C14 1.312(15) . ?
O8 C26 1.180(11) . ?
O8 Zn3 2.128(6) 3_354 ?
O9 C26 1.352(13) . ?
O9 Zn1 1.947(8) 3_354 ?
O10 C27 1.375(15) . ?
O10 Zn2 2.023(8) 3_344 ?
O11 C27 1.199(12) . ?
O11 Zn3 2.036(6) 3_344 ?
O12 C30 1.269(16) . ?
O12 Zn3 2.105(9) 2_444 ?
O13 C30 1.226(17) . ?
O13 Zn4 2.031(10) 2_444 ?
C1 C2 1.535(18) . ?
C2 C7 1.387(16) . ?
C2 C3 1.392(18) . ?
C3 C4 1.424(18) . ?
C3 H3A 0.9300 . ?
C4 C5 1.396(16) . ?
C4 C8 1.44(2) . ?
C5 C6 1.38(2) . ?
C5 H5A 0.9300 . ?
C6 C7 1.336(18) . ?
C6 C9 1.488(15) . ?
C7 H7A 0.9300 . ?
C9 C13 1.38(2) . ?
C9 C10 1.44(2) . ?
C10 C11 1.459(18) . ?
C10 H10A 0.9300 . ?
C11 C12 1.43(2) . ?
C11 H11A 0.9300 . ?
C12 C29 1.40(2) . ?
C12 C30 1.467(18) . ?
C13 C29 1.40(2) . ?
C13 H13A 0.9300 . ?
C14 C15 1.448(18) . ?
C15 C16 1.348(17) . ?
C15 C19 1.45(2) . ?
C16 C28 1.404(18) . ?
C16 H16A 0.9300 . ?
C17 C18 1.337(17) . ?
C17 C28 1.37(2) . ?
C17 C20 1.500(16) . ?
C18 C19 1.325(19) . ?
C18 H18A 0.9300 . ?
C19 H19A 0.9300 . ?
C20 C21 1.354(13) . ?
C20 C24 1.441(15) . ?
C21 C22 1.470(16) . ?
C21 H21A 0.9300 . ?
C22 C23 1.358(14) . ?
C22 C26 1.472(13) . ?
C23 C25 1.327(13) . ?
C23 H23A 0.9300 . ?
C24 C25 1.351(16) . ?
C24 H24A 0.9300 . ?
C25 C27 1.426(13) . ?
C28 H28A 0.9300 . ?
C29 H29A 0.9300 . ?

loop_
_geom_angle_atom_site_label_1
_geom_angle_atom_site_label_2
_geom_angle_atom_site_label_3
_geom_angle
_geom_angle_site_symmetry_1
_geom_angle_site_symmetry_3
_geom_angle_publ_flag
O1 Zn1 O7 118.6(3) . . ?
O1 Zn1 O9 113.0(3) . 3_345 ?
O7 Zn1 O9 107.9(4) . 3_345 ?
O1 Zn1 O2 110.1(4) . . ?
O7 Zn1 O2 106.0(4) . . ?
O9 Zn1 O2 99.3(4) 3_345 . ?
O1 Zn1 Zn4 38.2(2) . . ?
O7 Zn1 Zn4 152.1(3) . . ?
O9 Zn1 Zn4 98.1(3) 3_345 . ?
O2 Zn1 Zn4 78.9(3) . . ?
O1 Zn1 Zn2 37.72(18) . . ?
O7 Zn1 Zn2 84.0