####################################################################### 
# 
# This file contains crystal structure data downloaded from the 
# Cambridge Structural Database (CSD) hosted by the Cambridge 
# Crystallographic Data Centre (CCDC).
# 
# Full information about CCDC data access policies and citation 
# guidelines are available at http://www.ccdc.cam.ac.uk/access/V1 
# 
# Audit and citation data items may have been added by the CCDC. 
# Please retain this information to preserve the provenance of 
# this file and to allow appropriate attribution of the data. 
# 
#######################################################################

data_squeezed
_audit_block_doi                 10.5517/cct3mr8
_database_code_depnum_ccdc_archive 'CCDC 748270'
loop_
_citation_id
_citation_doi
_citation_year
1 10.1002/anie.200905497 2010
_audit_update_record             
;
2009-09-18 deposited with the CCDC.	2024-07-14 downloaded from the CCDC.
;

_audit_creation_method           SHELXL-97
_chemical_name_systematic        
;
?
;
_chemical_name_common            ?
_chemical_melting_point          ?
_chemical_formula_moiety         'C84 H96 Cu3 N4 O12, (C4 H8 O)22.5'
_chemical_formula_sum            'C174 H276 Cu3 N4 O32.5'
_chemical_formula_weight         3162.785

loop_
_atom_type_symbol
_atom_type_description
_atom_type_scat_dispersion_real
_atom_type_scat_dispersion_imag
_atom_type_scat_source
C C 0.0033 0.0016 'International Tables Vol C Tables 4.2.6.8 and 6.1.1.4'
H H 0.0000 0.0000 'International Tables Vol C Tables 4.2.6.8 and 6.1.1.4'
N N 0.0061 0.0033 'International Tables Vol C Tables 4.2.6.8 and 6.1.1.4'
O O 0.0106 0.0060 'International Tables Vol C Tables 4.2.6.8 and 6.1.1.4'
Cu Cu 0.3201 1.2651 'International Tables Vol C Tables 4.2.6.8 and 6.1.1.4'

_symmetry_cell_setting           cubic
_symmetry_space_group_name_H-M   P213
_symmetry_space_group_name_Hall  'P 2ac 2ab 3'
_Intl_tables_symmetry_number     198

loop_
_symmetry_equiv_pos_as_xyz
'x, y, z'
'-x+1/2, -y, z+1/2'
'x+1/2, -y+1/2, -z'
'-x, y+1/2, -z+1/2'
'z, x, y'
'y, z, x'
'-z+1/2, -x, y+1/2'
'-y, z+1/2, -x+1/2'
'z+1/2, -x+1/2, -y'
'-y+1/2, -z, x+1/2'
'-z, x+1/2, -y+1/2'
'y+1/2, -z+1/2, -x'

_cell_length_a                   24.2096(30)
_cell_length_b                   24.2096(30)
_cell_length_c                   24.2096(30)
_cell_angle_alpha                90.00
_cell_angle_beta                 90.00
_cell_angle_gamma                90.00
_cell_volume                     14189(3)
_cell_formula_units_Z            4
_cell_measurement_temperature    150(2)
_cell_measurement_reflns_used    771
_cell_measurement_theta_min      3.034
_cell_measurement_theta_max      16.96

_exptl_crystal_description       prism
_exptl_crystal_colour            green
_exptl_crystal_size_max          0.21
_exptl_crystal_size_mid          0.16
_exptl_crystal_size_min          0.15
_exptl_crystal_density_meas      ?
_exptl_crystal_density_diffrn    1.4807
_exptl_crystal_density_method    'not measured'
_exptl_crystal_F_000             3244
_exptl_absorpt_coefficient_mu    0.480
_exptl_absorpt_correction_type   Multi-scan
_exptl_absorpt_correction_T_min  0.089495
_exptl_absorpt_correction_T_max  1.00000
_exptl_absorpt_process_details   'SADABS (Sheldrick, 2003)'

_exptl_special_details           
;
The crystal was coated in Exxon Paratone N hydrocarbon
oil and mounted on a thin mohair fibre attached to a copper pin.
Upon mounting on the diffractometer,
the crystal was quenched to 150(K) under a cold nitrogen gas stream
supplied by an Oxford Cryosystems Cryostream and data were
collected at this temperature.
;

_diffrn_ambient_temperature      150(2)
_diffrn_radiation_wavelength     0.71073
_diffrn_radiation_type           MoK\a
_diffrn_radiation_source         'rotating anode'
_diffrn_radiation_monochromator  graphite
_diffrn_measurement_device_type  APEXII-FR591
_diffrn_measurement_method       \w+\f
_diffrn_detector_area_resol_mean ?
_diffrn_standards_number         0
_diffrn_standards_interval_count 0
_diffrn_standards_interval_time  0
_diffrn_standards_decay_%        0
_diffrn_reflns_number            15657
_diffrn_reflns_av_R_equivalents  0.1250
_diffrn_reflns_av_sigmaI/netI    0.1171
_diffrn_reflns_limit_h_min       -16
_diffrn_reflns_limit_h_max       23
_diffrn_reflns_limit_k_min       -23
_diffrn_reflns_limit_k_max       16
_diffrn_reflns_limit_l_min       -23
_diffrn_reflns_limit_l_max       10
_diffrn_reflns_theta_min         2.66
_diffrn_reflns_theta_max         19.98
_reflns_number_total             4325
_reflns_number_gt                3013
_reflns_threshold_expression     >2sigma(I)

_computing_data_collection       'APEX (Bruker-Nonius, 2003)'
_computing_cell_refinement       'SAINT (Bruker-Nonius, 2003)'
_computing_data_reduction        
'SAINT (Bruker-Nonius, 2003), XPREP (Bruker-Nonius, 2003)'
_computing_structure_solution    'SIR97 (Altomare, et. al. 1999)'
_computing_structure_refinement  'SHELXL-97 (Sheldrick, 1997)'
_computing_molecular_graphics    
;ORTEP-3 (Farrugia, 1997)
WINGX-32 (Farrugia, 1999)
POV-Ray 3.5 (Cason, 2002)
WebLab ViewerPro 3.7 (Molecular Simulations, 2000)
;
_computing_publication_material  'enCIFer 1.1 (CCDC, 2005)'

_refine_special_details          
;
Refinement of F^2^ against ALL reflections. The weighted R-factor wR and
goodness of fit S are based on F^2^, conventional R-factors R are based
on F, with F set to zero for negative F^2^. The threshold expression of
F^2^ > 2sigma(F^2^) is used only for calculating R-factors(gt) etc. and is
not relevant to the choice of reflections for refinement. R-factors based
on F^2^ are statistically about twice as large as those based on F, and R-
factors based on ALL data will be even larger.
;
# SQUEEZE RESULTS (APPEND TO CIF)
# Note: Data are Listed for all Voids in the P1 Unit Cell
# i.e. Centre of Gravity, Solvent Accessible Volume,
# Recovered number of Electrons in the Void and
# Details about the Squeezed Material
loop_
_platon_squeeze_void_nr
_platon_squeeze_void_average_x
_platon_squeeze_void_average_y
_platon_squeeze_void_average_z
_platon_squeeze_void_volume
_platon_squeeze_void_count_electrons
_platon_squeeze_void_content
1 -0.040 -0.033 -0.034 7871 3698 ' '
_platon_squeeze_details          
;
Spek, A.L. (2003), J.Appl.Cryst. 36, 7-13
;
_refine_ls_structure_factor_coef Fsqd
_refine_ls_matrix_type           full
_refine_ls_weighting_scheme      calc
_refine_ls_weighting_details     
'calc w=1/[\s^2^(Fo^2^)+(0.0011P)^2^+0.0000P] where P=(Fo^2^+2Fc^2^)/3'
_atom_sites_solution_primary     direct
_atom_sites_solution_secondary   difmap
_atom_sites_solution_hydrogens   geom
_refine_ls_hydrogen_treatment    constr
_refine_ls_extinction_method     none
_refine_ls_extinction_coef       ?
_refine_ls_abs_structure_details 'Flack H D (1983), Acta Cryst. A39, 876-881'
_refine_ls_abs_structure_Flack   0.07(4)
_chemical_absolute_configuration unk
_refine_ls_number_reflns         4325
_refine_ls_number_parameters     269
_refine_ls_number_restraints     0
_refine_ls_R_factor_all          0.0826
_refine_ls_R_factor_gt           0.0586
_refine_ls_wR_factor_ref         0.1158
_refine_ls_wR_factor_gt          0.1114
_refine_ls_goodness_of_fit_ref   1.196
_refine_ls_restrained_S_all      1.196
_refine_ls_shift/su_max          0.000
_refine_ls_shift/su_mean         0.000

loop_
_atom_site_label
_atom_site_type_symbol
_atom_site_fract_x
_atom_site_fract_y
_atom_site_fract_z
_atom_site_U_iso_or_equiv
_atom_site_adp_type
_atom_site_occupancy
_atom_site_symmetry_multiplicity
_atom_site_calc_flag
_atom_site_refinement_flags
_atom_site_disorder_assembly
_atom_site_disorder_group
C1 C 0.4390(5) 0.3529(4) 0.5027(4) 0.138(5) Uani 1 1 d . . .
H1A H 0.4703 0.3760 0.5139 0.207 Uiso 1 1 calc R . .
H1B H 0.4203 0.3699 0.4710 0.207 Uiso 1 1 calc R . .
H1C H 0.4525 0.3161 0.4923 0.207 Uiso 1 1 calc R . .
C2 C 0.3415(5) 0.3296(4) 0.5323(6) 0.194(7) Uani 1 1 d . . .
H2A H 0.3333 0.3438 0.4953 0.291 Uiso 1 1 calc R . .
H2B H 0.3145 0.3441 0.5586 0.291 Uiso 1 1 calc R . .
H2C H 0.3396 0.2892 0.5319 0.291 Uiso 1 1 calc R . .
C3 C 0.4233(5) 0.3064(4) 0.5859(5) 0.137(5) Uani 1 1 d . . .
H3A H 0.4274 0.2715 0.5657 0.205 Uiso 1 1 calc R . .
H3B H 0.3989 0.3008 0.6177 0.205 Uiso 1 1 calc R . .
H3C H 0.4595 0.3189 0.5988 0.205 Uiso 1 1 calc R . .
C4 C 0.3996(3) 0.3478(4) 0.5495(4) 0.0656(13) Uani 1 1 d . . .
C5 C 0.3955(4) 0.4030(3) 0.5787(4) 0.0656(13) Uani 1 1 d . . .
C6 C 0.3510(3) 0.4396(3) 0.5754(3) 0.0656(13) Uani 1 1 d . . .
H6 H 0.3191 0.4262 0.5569 0.079 Uiso 1 1 calc R . .
C7 C 0.3476(4) 0.4912(4) 0.5951(4) 0.0656(13) Uani 1 1 d . . .
C8 C 0.3013(3) 0.5262(4) 0.5842(3) 0.054(2) Uani 1 1 d . . .
C9 C 0.3031(4) 0.5802(5) 0.5996(4) 0.085(3) Uani 1 1 d . . .
H9 H 0.3339 0.5939 0.6196 0.102 Uiso 1 1 calc R . .
C10 C 0.2590(5) 0.6158(4) 0.5859(4) 0.097(3) Uani 1 1 d . . .
H10 H 0.2635 0.6538 0.5943 0.116 Uiso 1 1 calc R . .
C11 C 0.2103(3) 0.6003(4) 0.5616(3) 0.059(3) Uani 1 1 d . . .
C12 C 0.2109(4) 0.5439(5) 0.5479(4) 0.084(3) Uani 1 1 d . . .
H12 H 0.1786 0.5295 0.5308 0.101 Uiso 1 1 calc R . .
C13 C 0.2537(4) 0.5074(4) 0.5569(4) 0.071(3) Uani 1 1 d . . .
H13 H 0.2511 0.4702 0.5448 0.085 Uiso 1 1 calc R . .
C14 C 0.1652(4) 0.6389(4) 0.5505(4) 0.0885(14) Uani 1 1 d . . .
C15 C 0.1611(4) 0.6855(4) 0.5748(4) 0.0885(14) Uani 1 1 d . . .
H15 H 0.1899 0.6964 0.5991 0.106 Uiso 1 1 calc R . .
C16 C 0.1171(4) 0.7210(3) 0.5676(4) 0.0885(14) Uani 1 1 d . . .
H16 H 0.1118 0.7516 0.5915 0.106 Uiso 1 1 calc R . .
C17 C 0.0799(4) 0.7104(4) 0.5234(4) 0.0885(14) Uani 1 1 d . . .
C18 C 0.0889(4) 0.6640(3) 0.4919(4) 0.0885(14) Uani 1 1 d . . .
H18 H 0.0660 0.6570 0.4607 0.106 Uiso 1 1 calc R . .
C19 C 0.1311(3) 0.6268(3) 0.5050(4) 0.0885(14) Uani 1 1 d . . .
H19 H 0.1366 0.5943 0.4838 0.106 Uiso 1 1 calc R . .
C20 C 0.0333(3) 0.7504(4) 0.5146(4) 0.056(2) Uani 1 1 d . . .
C21 C -0.0053(4) 0.7405(3) 0.4710(4) 0.063(2) Uani 1 1 d . . .
H21 H 0.0007 0.7089 0.4484 0.076 Uiso 1 1 calc R . .
C22 C -0.0507(4) 0.7733(4) 0.4591(4) 0.064(3) Uani 1 1 d . . .
C23 C -0.0878(4) 0.7599(4) 0.4132(4) 0.071(3) Uani 1 1 d . . .
C24 C -0.0806(5) 0.8040(5) 0.3707(4) 0.120(4) Uani 1 1 d . . .
H24A H -0.0849 0.8403 0.3881 0.180 Uiso 1 1 calc R . .
H24B H -0.1085 0.7995 0.3417 0.180 Uiso 1 1 calc R . .
H24C H -0.0437 0.8012 0.3544 0.180 Uiso 1 1 calc R . .
C25 C -0.1475(4) 0.7617(3) 0.4382(4) 0.093(3) Uani 1 1 d . . .
H25A H -0.1544 0.7983 0.4541 0.140 Uiso 1 1 calc R . .
H25B H -0.1510 0.7336 0.4670 0.140 Uiso 1 1 calc R . .
H25C H -0.1746 0.7544 0.4089 0.140 Uiso 1 1 calc R . .
C26 C -0.0754(4) 0.7028(4) 0.3874(4) 0.087(3) Uani 1 1 d . . .
H26A H -0.1053 0.6926 0.3621 0.131 Uiso 1 1 calc R . .
H26B H -0.0724 0.6751 0.4168 0.131 Uiso 1 1 calc R . .
H26C H -0.0404 0.7046 0.3670 0.131 Uiso 1 1 calc R . .
C27 C 0.5483(3) 0.5613(4) 0.6222(3) 0.063(2) Uani 1 1 d . . .
H27A H 0.5256 0.5894 0.6415 0.076 Uiso 1 1 calc R . .
H27B H 0.5674 0.5389 0.6507 0.076 Uiso 1 1 calc R . .
C28 C 0.4824(3) 0.5588(3) 0.5452(3) 0.0435(19) Uani 1 1 d . . .
H28A H 0.4595 0.5349 0.5213 0.052 Uiso 1 1 calc R . .
H28B H 0.4578 0.5860 0.5633 0.052 Uiso 1 1 calc R . .
N1 N 0.5109(2) 0.5241(3) 0.5885(2) 0.0441(16) Uani 1 1 d . . .
N2 N 0.5886(2) 0.5886(2) 0.5886(2) 0.044(3) Uani 1 3 d S . .
O1 O 0.4398(2) 0.4142(2) 0.6057(2) 0.0682(17) Uani 1 1 d . . .
O2 O 0.3849(2) 0.51142(19) 0.6252(2) 0.0536(14) Uani 1 1 d . . .
O3 O 0.03327(18) 0.7921(2) 0.5438(2) 0.0531(15) Uani 1 1 d . . .
O4 O -0.06041(19) 0.8181(2) 0.4847(2) 0.0541(15) Uani 1 1 d . . .
Cu1 Cu 0.45256(4) 0.47829(4) 0.65056(4) 0.0542(3) Uani 1 1 d . . .

loop_
_atom_site_aniso_label
_atom_site_aniso_U_11
_atom_site_aniso_U_22
_atom_site_aniso_U_33
_atom_site_aniso_U_23
_atom_site_aniso_U_13
_atom_site_aniso_U_12
C1 0.163(11) 0.110(9) 0.139(10) -0.049(8) 0.023(10) 0.067(9)
C2 0.185(14) 0.118(10) 0.279(18) -0.124(11) -0.112(13) 0.095(10)
C3 0.156(12) 0.059(7) 0.196(13) -0.010(8) 0.000(10) 0.016(8)
C4 0.038(3) 0.058(3) 0.101(4) -0.021(3) -0.012(3) 0.002(3)
C5 0.038(3) 0.058(3) 0.101(4) -0.021(3) -0.012(3) 0.002(3)
C6 0.038(3) 0.058(3) 0.101(4) -0.021(3) -0.012(3) 0.002(3)
C7 0.038(3) 0.058(3) 0.101(4) -0.021(3) -0.012(3) 0.002(3)
C8 0.040(6) 0.043(7) 0.079(7) -0.008(5) 0.011(5) -0.009(5)
C9 0.045(7) 0.065(8) 0.145(10) 0.001(7) -0.014(6) 0.004(6)
C10 0.119(10) 0.030(6) 0.141(10) -0.010(6) 0.004(8) 0.003(7)
C11 0.037(6) 0.077(8) 0.064(6) -0.026(5) -0.010(5) -0.037(6)
C12 0.081(8) 0.072(7) 0.100(8) -0.026(7) -0.034(6) -0.022(7)
C13 0.058(6) 0.060(6) 0.095(8) -0.009(6) -0.015(6) 0.015(6)
C14 0.074(3) 0.068(3) 0.123(4) -0.022(3) -0.042(3) 0.026(3)
C15 0.074(3) 0.068(3) 0.123(4) -0.022(3) -0.042(3) 0.026(3)
C16 0.074(3) 0.068(3) 0.123(4) -0.022(3) -0.042(3) 0.026(3)
C17 0.074(3) 0.068(3) 0.123(4) -0.022(3) -0.042(3) 0.026(3)
C18 0.074(3) 0.068(3) 0.123(4) -0.022(3) -0.042(3) 0.026(3)
C19 0.074(3) 0.068(3) 0.123(4) -0.022(3) -0.042(3) 0.026(3)
C20 0.059(7) 0.037(5) 0.073(7) -0.017(5) -0.004(6) -0.011(5)
C21 0.064(7) 0.051(6) 0.074(7) -0.022(5) 0.001(6) 0.001(6)
C22 0.065(7) 0.040(6) 0.087(8) 0.001(6) -0.023(6) 0.012(6)
C23 0.083(8) 0.060(7) 0.070(7) -0.025(6) -0.035(7) -0.001(6)
C24 0.165(11) 0.121(9) 0.073(7) 0.034(7) -0.036(7) -0.013(8)
C25 0.058(6) 0.070(6) 0.153(9) -0.013(6) -0.015(7) -0.001(6)
C26 0.084(7) 0.080(7) 0.098(8) -0.020(6) -0.020(6) 0.004(6)
C27 0.055(5) 0.089(7) 0.047(5) -0.003(5) -0.007(5) 0.019(6)
C28 0.047(5) 0.032(4) 0.051(5) -0.001(4) 0.012(5) -0.003(5)
N1 0.041(4) 0.044(4) 0.048(4) -0.018(4) 0.002(4) 0.001(4)
N2 0.044(3) 0.044(3) 0.044(3) 0.002(4) 0.002(4) 0.002(4)
O1 0.057(4) 0.047(3) 0.100(4) -0.007(3) 0.005(4) 0.022(3)
O2 0.038(3) 0.042(3) 0.081(4) -0.003(3) 0.016(3) 0.014(3)
O3 0.054(4) 0.049(3) 0.057(3) 0.002(3) -0.007(3) -0.003(3)
O4 0.053(4) 0.046(4) 0.063(4) 0.008(3) -0.019(3) 0.000(3)
Cu1 0.0514(7) 0.0519(7) 0.0594(7) -0.0007(6) 0.0059(6) 0.0069(5)

_geom_special_details            
;
All esds (except the esd in the dihedral angle between two l.s. planes)
are estimated using the full covariance matrix. The cell esds are taken
into account individually in the estimation of esds in distances, angles
and torsion angles; correlations between esds in cell parameters are only
used when they are defined by crystal symmetry. An approximate (isotropic)
treatment of cell esds is used for estimating esds involving l.s. planes.
;

loop_
_geom_bond_atom_site_label_1
_geom_bond_atom_site_label_2
_geom_bond_distance
_geom_bond_site_symmetry_2
_geom_bond_publ_flag
C1 C4 1.487(12) . ?
C1 H1A 0.9800 . ?
C1 H1B 0.9800 . ?
C1 H1C 0.9800 . ?
C2 C4 1.530(12) . ?
C2 H2A 0.9800 . ?
C2 H2B 0.9800 . ?
C2 H2C 0.9800 . ?
C3 C4 1.453(12) . ?
C3 H3A 0.9800 . ?
C3 H3B 0.9800 . ?
C3 H3C 0.9800 . ?
C4 C5 1.516(11) . ?
C5 O1 1.286(8) . ?
C5 C6 1.397(10) . ?
C6 C7 1.338(10) . ?
C6 H6 0.9500 . ?
C7 O2 1.259(8) . ?
C7 C8 1.430(10) . ?
C8 C9 1.360(11) . ?
C8 C13 1.404(10) . ?
C9 C10 1.411(11) . ?
C9 H9 0.9500 . ?
C10 C11 1.370(11) . ?
C10 H10 0.9500 . ?
C11 C12 1.405(11) . ?
C11 C14 1.461(11) . ?
C12 C13 1.381(10) . ?
C12 H12 0.9500 . ?
C13 H13 0.9500 . ?
C14 C15 1.277(10) . ?
C14 C19 1.407(11) . ?
C15 C16 1.379(10) . ?
C15 H15 0.9500 . ?
C16 C17 1.422(11) . ?
C16 H16 0.9500 . ?
C17 C18 1.376(11) . ?
C17 C20 1.501(11) . ?
C18 C19 1.398(10) . ?
C18 H18 0.9500 . ?
C19 H19 0.9500 . ?
C20 O3 1.234(8) . ?
C20 C21 1.430(10) . ?
C21 C22 1.388(10) . ?
C21 H21 0.9500 . ?
C22 O4 1.270(9) . ?
C22 C23 1.467(11) . ?
C23 C24 1.494(12) . ?
C23 C26 1.545(10) . ?
C23 C25 1.568(11) . ?
C24 H24A 0.9800 . ?
C24 H24B 0.9800 . ?
C24 H24C 0.9800 . ?
C25 H25A 0.9800 . ?
C25 H25B 0.9800 . ?
C25 H25C 0.9800 . ?
C26 H26A 0.9800 . ?
C26 H26B 0.9800 . ?
C26 H26C 0.9800 . ?
C27 N2 1.432(8) . ?
C27 N1 1.516(9) . ?
C27 H27A 0.9900 . ?
C27 H27B 0.9900 . ?
C28 N1 1.492(8) 6 ?
C28 N1 1.509(8) . ?
C28 H28A 0.9900 . ?
C28 H28B 0.9900 . ?
N1 C28 1.492(8) 5 ?
N1 Cu1 2.342(6) . ?
N2 C27 1.432(8) 6 ?
N2 C27 1.432(8) 5 ?
O1 Cu1 1.918(5) . ?
O2 Cu1 1.924(5) . ?
O3 Cu1 1.925(5) 12_466 ?
O4 Cu1 1.940(5) 12_466 ?
Cu1 O3 1.925(5) 11_656 ?
Cu1 O4 1.940(5) 11_656 ?

loop_
_geom_angle_atom_site_label_1
_geom_angle_atom_site_label_2
_geom_angle_atom_site_label_3
_geom_angle
_geom_angle_site_symmetry_1
_geom_angle_site_symmetry_3
_geom_angle_publ_flag
C4 C1 H1A 109.5 . . ?
C4 C1 H1B 109.5 . . ?
H1A C1 H1B 109.5 . . ?
C4 C1 H1C 109.5 . . ?
H1A C1 H1C 109.5 . . ?
H1B C1 H1C 109.5 . . ?
C4 C2 H2A 109.5 . . ?
C4 C2 H2B 109.5 . . ?
H2A C2 H2B 109.5 . . ?
C4 C2 H2C 109.5 . . ?
H2A C2 H2C 109.5 . . ?
H2B C2 H2C 109.5 . . ?
C4 C3 H3A 109.5 . . ?
C4 C3 H3B 109.5 . . ?
H3A C3 H3B 109.5 . . ?
C4 C3 H3C 109.5 . . ?
H3A C3 H3C 109.5 . . ?
H3B C3 H3C 109.5 . . ?
C3 C4 C1 105.4(8) . . ?
C3 C4 C5 110.6(8) . . ?
C1 C4 C5 108.9(8) . . ?
C3 C4 C2 109.2(9) . . ?
C1 C4 C2 114.0(10) . . ?
C5 C4 C2 108.7(8) . . ?
O1 C5 C6 122.6(7) . . ?
O1 C5 C4 111.6(7) . . ?
C6 C5 C4 125.6(8) . . ?
C7 C6 C5 128.1(9) . . ?
C7 C6 H6 115.9 . . ?
C5 C6 H6 115.9 . . ?
O2 C7 C6 121.8(9) . . ?
O2 C7 C8 115.9(8) . . ?
C6 C7 C8 122.3(9) . . ?
C9 C8 C13 117.8(8) . . ?
C9 C8 C7 119.6(9) . . ?
C13 C8 C7 122.6(9) . . ?
C8 C9 C10 119.9(9) . . ?
C8 C9 H9 120.0 . . ?
C10 C9 H9 120.0 . . ?
C11 C10 C9 125.8(9) . . ?
C11 C10 H10 117.1 . . ?
C9 C10 H10 117.1 . . ?
C10 C11 C12 111.0(8) . . ?
C10 C11 C14 123.2(9) . . ?
C12 C11 C14 125.8(8) . . ?
C13 C12 C11 126.3(8) . . ?
C13 C12 H12 116.8 . . ?
C11 C12 H12 116.8 . . ?
C12 C13 C8 118.9(8) . . ?
C12 C13 H13 120.5 . . ?
C8 C13 H13 120.5 . . ?
C15 C14 C19 119.8(9) . . ?
C15 C14 C11 122.7(9) . . ?
C19 C14 C11 116.7(8) . . ?
C14 C15 C16 123.6(9) . . ?
C14 C15 H15 118.2 . . ?
C1