####################################################################### 
# 
# This file contains crystal structure data downloaded from the 
# Cambridge Structural Database (CSD) hosted by the Cambridge 
# Crystallographic Data Centre (CCDC).
# 
# Full information about CCDC data access policies and citation 
# guidelines are available at http://www.ccdc.cam.ac.uk/access/V1 
# 
# Audit and citation data items may have been added by the CCDC. 
# Please retain this information to preserve the provenance of 
# this file and to allow appropriate attribution of the data. 
# 
#######################################################################

data_hm51i
_audit_block_doi                 10.5517/ccskyfp
_database_code_depnum_ccdc_archive 'CCDC 732233'
loop_
_citation_id
_citation_doi
_citation_year
1 10.1002/anie.200906188 2010
_audit_update_record             
;
2009-05-14 deposited with the CCDC.	2024-07-14 downloaded from the CCDC.
;

_chemical_name_systematic        
;
(2-methyl-imidazolate-4-amide-5-imidato)-zinc(II) hydrate
;

_chemical_formula_sum            'C6 H6 N4 O2 Zn'
_chemical_formula_weight         231.52

loop_
_atom_type_symbol
_atom_type_description
_atom_type_scat_dispersion_real
_atom_type_scat_dispersion_imag
_atom_type_scat_source
C C 0.0033 0.0016 'International Tables Vol C Tables 4.2.6.8 and 6.1.1.4'
H H 0.0000 0.0000 'International Tables Vol C Tables 4.2.6.8 and 6.1.1.4'
N N 0.0061 0.0033 'International Tables Vol C Tables 4.2.6.8 and 6.1.1.4'
O O 0.0106 0.0060 'International Tables Vol C Tables 4.2.6.8 and 6.1.1.4'
Zn Zn 0.2839 1.4301 'International Tables Vol C Tables 4.2.6.8 and 6.1.1.4'

_symmetry_cell_setting           trigonal
_symmetry_space_group_name_H-M   'R -3'

loop_
_symmetry_equiv_pos_as_xyz
'x, y, z'
'-y, x-y, z'
'-x+y, -x, z'
'x+2/3, y+1/3, z+1/3'
'-y+2/3, x-y+1/3, z+1/3'
'-x+y+2/3, -x+1/3, z+1/3'
'x+1/3, y+2/3, z+2/3'
'-y+1/3, x-y+2/3, z+2/3'
'-x+y+1/3, -x+2/3, z+2/3'
'-x, -y, -z'
'y, -x+y, -z'
'x-y, x, -z'
'-x+2/3, -y+1/3, -z+1/3'
'y+2/3, -x+y+1/3, -z+1/3'
'x-y+2/3, x+1/3, -z+1/3'
'-x+1/3, -y+2/3, -z+2/3'
'y+1/3, -x+y+2/3, -z+2/3'
'x-y+1/3, x+2/3, -z+2/3'

_cell_length_a                   17.9244(14)
_cell_length_b                   17.9244(14)
_cell_length_c                   18.4454(16)
_cell_angle_alpha                90.00
_cell_angle_beta                 90.00
_cell_angle_gamma                120.00
_cell_volume                     5132.2(7)
_cell_formula_units_Z            18
_cell_measurement_temperature    210(2)
_cell_measurement_reflns_used    12846
_cell_measurement_theta_min      1.63
_cell_measurement_theta_max      29.46

_exptl_crystal_description       prism
_exptl_crystal_colour            colorless
_exptl_crystal_size_max          0.18
_exptl_crystal_size_mid          0.14
_exptl_crystal_size_min          0.09
_exptl_crystal_density_diffrn    1.348
_exptl_crystal_density_method    'not measured'
_exptl_crystal_F_000             2088
_exptl_absorpt_coefficient_mu    2.131
_exptl_absorpt_correction_type   sphere
_exptl_absorpt_correction_T_min  0.7709
_exptl_absorpt_correction_T_max  0.7727

_diffrn_ambient_temperature      210(2)
_diffrn_radiation_wavelength     0.71073
_diffrn_radiation_type           MoK\a
_diffrn_radiation_source         'fine-focus sealed tube'
_diffrn_radiation_monochromator  'plane graphite'

_diffrn_measurement_device       '2-circle goniometer'
_diffrn_measurement_device_type  'STOE IPDS 2'
_diffrn_measurement_method       '\w scan, 1.0 \%'

_diffrn_measurement_details      
;
180 frames, detector distance = 140 mm, t = 10 min
;

_diffrn_detector                 'image plate (34 cm diameter)'
_diffrn_detector_type            STOE
_diffrn_detector_area_resol_mean 6.67

_diffrn_reflns_number            11122
_diffrn_reflns_av_R_equivalents  0.0594
_diffrn_reflns_av_sigmaI/netI    0.0335
_diffrn_reflns_limit_h_min       -21
_diffrn_reflns_limit_h_max       19
_diffrn_reflns_limit_k_min       -20
_diffrn_reflns_limit_k_max       20
_diffrn_reflns_limit_l_min       -21
_diffrn_reflns_limit_l_max       21
_diffrn_reflns_theta_min         1.71
_diffrn_reflns_theta_max         24.99
_diffrn_measured_fraction_theta_max 1.000
_diffrn_reflns_theta_full        24.99
_diffrn_measured_fraction_theta_full 1.000

_reflns_number_total             2017
_reflns_number_gt                1724
_reflns_threshold_expression     >2sigma(I)

_computing_data_collection       'X-AREA (Stoe, 2004)'
_computing_cell_refinement       'X-AREA (Stoe, 2004)'
_computing_data_reduction        'X-RED (Stoe, 2004)'
_computing_structure_solution    'SHELXS-97 (Sheldrick, 1997)'
_computing_structure_refinement  'SHELXL-97 (Sheldrick, 1997)'
_computing_publication_material  'SHELXL-97 (Sheldrick, 1997)'

_refine_ls_structure_factor_coef Fsqd
_refine_ls_matrix_type           full
_refine_ls_weighting_scheme      calc
_refine_ls_weighting_details     
'calc w=1/[\s^2^(Fo^2^)+(0.0530P)^2^+0.0000P] where P=(Fo^2^+2Fc^2^)/3'
_atom_sites_solution_primary     direct
_atom_sites_solution_secondary   difmap
_atom_sites_solution_hydrogens   geom
_refine_ls_hydrogen_treatment    mixed
_refine_ls_extinction_method     SHELXL
_refine_ls_extinction_coef       0.00007(5)
_refine_ls_extinction_expression Fc^*^=kFc[1+0.001xFc^2^\l^3^/sin(2\q)]^-1/4^
_refine_ls_number_reflns         2017
_refine_ls_number_parameters     128
_refine_ls_number_restraints     3
_refine_ls_R_factor_all          0.0381
_refine_ls_R_factor_gt           0.0314
_refine_ls_wR_factor_ref         0.0842
_refine_ls_wR_factor_gt          0.0825
_refine_ls_goodness_of_fit_ref   1.045
_refine_ls_restrained_S_all      1.048
_refine_ls_shift/su_max          0.000
_refine_ls_shift/su_mean         0.000
_refine_diff_density_max         0.412
_refine_diff_density_min         -0.453
_refine_diff_density_rms         0.069

loop_
_atom_site_label
_atom_site_type_symbol
_atom_site_fract_x
_atom_site_fract_y
_atom_site_fract_z
_atom_site_U_iso_or_equiv
_atom_site_adp_type
_atom_site_occupancy
_atom_site_symmetry_multiplicity
_atom_site_calc_flag
_atom_site_refinement_flags
_atom_site_disorder_assembly
_atom_site_disorder_group
C1 C 0.28512(19) 0.35653(19) -0.12217(13) 0.0399(6) Uani 1 1 d . . .
C2 C 0.2736(2) 0.4323(2) -0.11101(16) 0.0548(8) Uani 1 1 d . . .
H2A H 0.2611 0.4356 -0.0609 0.082 Uiso 1 1 calc R . .
H2B H 0.2267 0.4262 -0.1404 0.082 Uiso 1 1 calc R . .
H2C H 0.3254 0.4838 -0.1245 0.082 Uiso 1 1 calc R . .
C3 C 0.4426(2) 0.4349(2) 0.09540(13) 0.0484(7) Uani 1 1 d . . .
C4 C 0.40551(18) 0.37849(18) 0.15918(13) 0.0382(6) Uani 1 1 d . . .
C5 C 0.28939(19) 0.23991(18) -0.10171(12) 0.0386(6) Uani 1 1 d . . .
C6 C 0.2849(2) 0.1704(2) -0.05544(13) 0.0449(7) Uani 1 1 d . . .
N1 N 0.27668(15) 0.30098(15) -0.06927(11) 0.0386(5) Uani 1 1 d . . .
N2 N 0.33257(16) 0.30206(15) 0.14707(10) 0.0384(5) Uani 1 1 d . . .
N3 N 0.5139(2) 0.5084(2) 0.10170(13) 0.0695(10) Uani 1 1 d D . .
H3A H 0.539(2) 0.524(3) 0.1435(14) 0.083 Uiso 1 1 d D . .
H3B H 0.543(2) 0.540(2) 0.0668(18) 0.083 Uiso 1 1 d D . .
N4 N 0.27431(18) 0.17870(16) 0.01239(11) 0.0441(6) Uani 1 1 d D . .
H4 H 0.261(2) 0.1369(16) 0.0360(17) 0.053 Uiso 1 1 d D . .
O1 O 0.40203(14) 0.40920(15) 0.03671(9) 0.0564(6) Uani 1 1 d . . .
O2 O 0.18116(15) 0.29089(18) 0.08570(9) 0.0579(6) Uani 1 1 d . . .
Zn1 Zn 0.28253(2) 0.28958(2) 0.043710(13) 0.03852(15) Uani 1 1 d . . .

loop_
_atom_site_aniso_label
_atom_site_aniso_U_11
_atom_site_aniso_U_22
_atom_site_aniso_U_33
_atom_site_aniso_U_23
_atom_site_aniso_U_13
_atom_site_aniso_U_12
C1 0.0532(17) 0.0517(16) 0.0169(12) 0.0007(10) -0.0007(10) 0.0279(14)
C2 0.083(2) 0.060(2) 0.0304(14) 0.0055(13) 0.0066(14) 0.0427(19)
C3 0.0581(19) 0.0567(19) 0.0185(13) 0.0054(11) -0.0005(12) 0.0198(16)
C4 0.0482(16) 0.0451(16) 0.0174(11) 0.0022(10) 0.0015(10) 0.0205(13)
C5 0.0555(17) 0.0483(16) 0.0155(11) -0.0005(10) 0.0001(10) 0.0286(14)
C6 0.071(2) 0.0530(17) 0.0160(11) 0.0019(11) 0.0028(11) 0.0353(16)
N1 0.0542(14) 0.0513(14) 0.0128(10) 0.0009(8) -0.0005(8) 0.0282(12)
N2 0.0479(14) 0.0542(14) 0.0139(9) -0.0017(9) -0.0029(9) 0.0261(12)
N3 0.073(2) 0.073(2) 0.0179(11) 0.0090(11) -0.0057(11) 0.0026(17)
N4 0.0786(18) 0.0508(15) 0.0107(9) 0.0020(9) 0.0017(9) 0.0381(14)
O1 0.0623(14) 0.0668(14) 0.0152(9) 0.0041(8) -0.0071(8) 0.0135(11)
O2 0.0614(13) 0.112(2) 0.0159(8) -0.0087(10) -0.0032(8) 0.0552(14)
Zn1 0.0514(2) 0.0568(2) 0.01105(18) -0.00245(11) -0.00053(11) 0.02981(18)

loop_
_geom_bond_atom_site_label_1
_geom_bond_atom_site_label_2
_geom_bond_distance
_geom_bond_site_symmetry_2
_geom_bond_publ_flag
C1 N2 1.337(3) 9_554 ?
C1 N1 1.348(3) . ?
C1 C2 1.486(4) . ?
C2 H2A 0.9600 . ?
C2 H2B 0.9600 . ?
C2 H2C 0.9600 . ?
C3 O1 1.256(3) . ?
C3 N3 1.303(4) . ?
C3 C4 1.475(4) . ?
C4 N2 1.358(4) . ?
C4 C5 1.381(3) 5 ?
C5 N1 1.363(3) . ?
C5 C4 1.381(3) 9_554 ?
C5 C6 1.478(4) . ?
C6 O2 1.275(3) 11 ?
C6 N4 1.285(3) . ?
N1 Zn1 2.102(2) . ?
N2 C1 1.337(3) 5 ?
N2 Zn1 2.071(2) . ?
N3 H3A 0.864(19) . ?
N3 H3B 0.847(19) . ?
N4 Zn1 2.003(2) . ?
N4 H4 0.793(18) . ?
O1 Zn1 2.147(2) . ?
O2 C6 1.275(3) 12 ?
O2 Zn1 1.986(2) . ?

loop_
_geom_angle_atom_site_label_1
_geom_angle_atom_site_label_2
_geom_angle_atom_site_label_3
_geom_angle
_geom_angle_site_symmetry_1
_geom_angle_site_symmetry_3
_geom_angle_publ_flag
N2 C1 N1 112.0(2) 9_554 . ?
N2 C1 C2 124.0(2) 9_554 . ?
N1 C1 C2 124.0(2) . . ?
C1 C2 H2A 109.5 . . ?
C1 C2 H2B 109.5 . . ?
H2A C2 H2B 109.5 . . ?
C1 C2 H2C 109.5 . . ?
H2A C2 H2C 109.5 . . ?
H2B C2 H2C 109.5 . . ?
O1 C3 N3 122.9(3) . . ?
O1 C3 C4 117.1(3) . . ?
N3 C3 C4 120.0(2) . . ?
N2 C4 C5 108.4(2) . 5 ?
N2 C4 C3 115.9(2) . . ?
C5 C4 C3 135.7(3) 5 . ?
N1 C5 C4 107.8(2) . 9_554 ?
N1 C5 C6 117.5(2) . . ?
C4 C5 C6 134.7(3) 9_554 . ?
O2 C6 N4 127.2(3) 11 . ?
O2 C6 C5 118.3(2) 11 . ?
N4 C6 C5 114.5(3) . . ?
C1 N1 C5 105.9(2) . . ?
C1 N1 Zn1 142.87(19) . . ?
C5 N1 Zn1 108.71(16) . . ?
C1 N2 C4 106.0(2) 5 . ?
C1 N2 Zn1 139.3(2) 5 . ?
C4 N2 Zn1 114.01(16) . . ?
C3 N3 H3A 119(3) . . ?
C3 N3 H3B 125(3) . . ?
H3A N3 H3B 115(4) . . ?
C6 N4 Zn1 116.9(2) . . ?
C6 N4 H4 115(3) . . ?
Zn1 N4 H4 128(3) . . ?
C3 O1 Zn1 114.84(18) . . ?
C6 O2 Zn1 130.80(17) 12 . ?
O2 Zn1 N4 120.68(11) . . ?
O2 Zn1 N2 89.37(8) . . ?
N4 Zn1 N2 100.70(9) . . ?
O2 Zn1 N1 107.17(8) . . ?
N4 Zn1 N1 80.10(8) . . ?
N2 Zn1 N1 160.45(9) . . ?
O2 Zn1 O1 118.26(11) . . ?
N4 Zn1 O1 121.02(10) . . ?
N2 Zn1 O1 77.62(8) . . ?
N1 Zn1 O1 85.22(8) . . ?

loop_
_geom_torsion_atom_site_label_1
_geom_torsion_atom_site_label_2
_geom_torsion_atom_site_label_3
_geom_torsion_atom_site_label_4
_geom_torsion
_geom_torsion_site_symmetry_1
_geom_torsion_site_symmetry_2
_geom_torsion_site_symmetry_3
_geom_torsion_site_symmetry_4
_geom_torsion_publ_flag
O1 C3 C4 N2 2.7(4) . . . . ?
N3 C3 C4 N2 -178.0(3) . . . . ?
O1 C3 C4 C5 -177.8(3) . . . 5 ?
N3 C3 C4 C5 1.5(6) . . . 5 ?
N1 C5 C6 O2 175.4(3) . . . 11 ?
C4 C5 C6 O2 -6.5(6) 9_554 . . 11 ?
N1 C5 C6 N4 -4.0(4) . . . . ?
C4 C5 C6 N4 174.1(3) 9_554 . . . ?
N2 C1 N1 C5 -0.3(3) 9_554 . . . ?
C2 C1 N1 C5 178.1(3) . . . . ?
N2 C1 N1 Zn1 157.8(2) 9_554 . . . ?
C2 C1 N1 Zn1 -23.8(5) . . . . ?
C4 C5 N1 C1 0.7(3) 9_554 . . . ?
C6 C5 N1 C1 179.2(3) . . . . ?
C4 C5 N1 Zn1 -165.59(19) 9_554 . . . ?
C6 C5 N1 Zn1 13.0(3) . . . . ?
C5 C4 N2 C1 0.6(3) 5 . . 5 ?
C3 C4 N2 C1 -179.7(3) . . . 5 ?
C5 C4 N2 Zn1 173.31(19) 5 . . . ?
C3 C4 N2 Zn1 -7.0(3) . . . . ?
O2 C6 N4 Zn1 172.4(3) 11 . . . ?
C5 C6 N4 Zn1 -8.3(4) . . . . ?
N3 C3 O1 Zn1 -176.4(3) . . . . ?
C4 C3 O1 Zn1 2.9(4) . . . . ?
C6 O2 Zn1 N4 -77.2(3) 12 . . . ?
C6 O2 Zn1 N2 -179.3(3) 12 . . . ?
C6 O2 Zn1 N1 11.3(3) 12 . . . ?
C6 O2 Zn1 O1 105.1(3) 12 . . . ?
C6 N4 Zn1 O2 116.2(2) . . . . ?
C6 N4 Zn1 N2 -148.1(2) . . . . ?
C6 N4 Zn1 N1 12.0(2) . . . . ?
C6 N4 Zn1 O1 -66.2(3) . . . . ?
C1 N2 Zn1 O2 56.4(3) 5 . . . ?
C4 N2 Zn1 O2 -112.8(2) . . . . ?
C1 N2 Zn1 N4 -64.8(3) 5 . . . ?
C4 N2 Zn1 N4 126.1(2) . . . . ?
C1 N2 Zn1 N1 -155.3(3) 5 . . . ?
C4 N2 Zn1 N1 35.6(4) . . . . ?
C1 N2 Zn1 O1 175.5(3) 5 . . . ?
C4 N2 Zn1 O1 6.39(19) . . . . ?
C1 N1 Zn1 O2 70.1(3) . . . . ?
C5 N1 Zn1 O2 -132.15(19) . . . . ?
C1 N1 Zn1 N4 -170.7(3) . . . . ?
C5 N1 Zn1 N4 -12.93(19) . . . . ?
C1 N1 Zn1 N2 -76.6(5) . . . . ?
C5 N1 Zn1 N2 81.2(3) . . . . ?
C1 N1 Zn1 O1 -48.0(3) . . . . ?
C5 N1 Zn1 O1 109.7(2) . . . . ?
C3 O1 Zn1 O2 77.4(3) . . . . ?
C3 O1 Zn1 N4 -100.3(2) . . . . ?
C3 O1 Zn1 N2 -5.1(2) . . . . ?
C3 O1 Zn1 N1 -175.7(3) . . . . ?

loop_
_geom_hbond_atom_site_label_D
_geom_hbond_atom_site_label_H
_geom_hbond_atom_site_label_A
_geom_hbond_distance_DH
_geom_hbond_distance_HA
_geom_hbond_distance_DA
_geom_hbond_angle_DHA
_geom_hbond_site_symmetry_A
N3 H3A O2 0.864(19) 1.97(2) 2.787(3) 158(4) 15
N3 H3B O1 0.847(19) 2.13(2) 2.957(3) 165(4) 10_665
N4 H4 N1 0.793(18) 2.53(2) 3.211(3) 145(3) 11


