
#######################################################################
#
#                 Cambridge Crystallographic Data Centre
#                                CCDC
#
#######################################################################
#
# If this CIF has been generated from an entry in the Cambridge
# Structural Database, then it will include bibliographic, chemical,
# crystal, experimental, refinement or atomic coordinate data resulting
# from the CCDC's data processing and validation procedures.
#
#######################################################################

data_CSD_CIF_XUNNAX01
_audit_creation_date 2015-09-15
_audit_creation_method CSD-ConQuest-V1
_database_code_CSD XUNNAX01
_database_code_depnum_ccdc_archive 'CCDC 1424594'
_chemical_formula_sum 'C6 H6 Fe1 K4 N6 O3'
_chemical_formula_moiety
;
C6 Fe1 N6 4-,3(H2 O1),4(K1 1+)
;
_journal_coden_Cambridge 9
_journal_volume 48
_journal_year 2009
_journal_page_first 4342
_journal_name_full 'Inorg.Chem. '
loop_
_publ_author_name
"M.J.Willans"
"R.E.Wasylishen"
"R.McDonald"
_chemical_name_systematic
;
Potassium tetracyano-iron trihydrate
;
_chemical_name_common
;
Teaching Subset: Fundamental Chemistry, Symmetry
;
_cell_volume   1466.627
_exptl_crystal_colour 'colorless'
_exptl_crystal_density_diffrn 1.913
_exptl_crystal_description 'prism'
_diffrn_ambient_temperature 193
#These two values have been output from a single CSD field.
_refine_ls_R_factor_gt 0.0275
_refine_ls_wR_factor_gt 0.0275
_symmetry_cell_setting monoclinic
_symmetry_space_group_name_H-M 'C c'
_symmetry_Int_Tables_number 9
loop_
_symmetry_equiv_pos_site_id
_symmetry_equiv_pos_as_xyz
1 x,y,z
2 x,-y,1/2+z
3 1/2+x,1/2+y,z
4 1/2+x,1/2-y,1/2+z
_cell_length_a 9.3528(13)
_cell_length_b 16.755(2)
_cell_length_c 9.3591(13)
_cell_angle_alpha 90
_cell_angle_beta 90.076(2)
_cell_angle_gamma 90
_cell_formula_units_Z 4
loop_
_atom_type_symbol
_atom_type_radius_bond
C 0.68
H 0.23
Fe 1.52
K 2.03
N 0.68
O 0.68
loop_
_atom_site_label
_atom_site_type_symbol
_atom_site_fract_x
_atom_site_fract_y
_atom_site_fract_z
Fe1 Fe 0.00819(9) 0.17757(2) 0.25000(9)
N1 N 0.3178(5) 0.18462(17) 0.3646(5)
N2 N 0.1162(5) 0.18150(17) -0.0596(5)
N3 N 0.0051(6) 0.35908(16) 0.2539(6)
N4 N -0.3016(5) 0.1662(2) 0.1404(5)
N5 N -0.1017(4) 0.1732(2) 0.5609(5)
N6 N 0.0250(5) -0.00593(16) 0.2492(5)
C1 C 0.2010(4) 0.18206(17) 0.3209(4)
C2 C 0.0760(4) 0.17997(17) 0.0558(5)
C3 C 0.0050(5) 0.29357(17) 0.2513(6)
C4 C -0.1844(4) 0.17284(19) 0.1812(4)
C5 C -0.0611(4) 0.17558(19) 0.4417(4)
C6 C 0.0176(5) 0.06344(16) 0.2503(5)
K1 K 0.40770(8) 0.14506(5) 0.06432(8)
K2 K 0.32328(8) 0.36519(5) 0.34264(8)
K3 K 0.10358(8) 0.35825(5) -0.05848(8)
K4 K -0.30470(8) 0.35105(5) 0.15356(8)
O1 O 0.2357(3) 0.00118(17) -0.0014(3)
H1 H 0.14650 0.02000 -0.01440
H2 H 0.26590 -0.01400 -0.08850
O2 O 0.2489(4) 0.49626(17) 0.0316(4)
H3 H 0.33190 0.47940 0.06990
H4 H 0.19730 0.51650 0.10420
O3 O 0.4596(3) 0.02959(15) 0.2744(3)
H5 H 0.37950 0.01070 0.31550
H6 H 0.51560 -0.01070 0.24440
#END
