####################################################################### 
# 
# This file contains crystal structure data downloaded from the 
# Cambridge Structural Database (CSD) hosted by the Cambridge 
# Crystallographic Data Centre (CCDC).
# 
# Full information about CCDC data access policies and citation 
# guidelines are available at http://www.ccdc.cam.ac.uk/access/V1 
# 
# Audit and citation data items may have been added by the CCDC. 
# Please retain this information to preserve the provenance of 
# this file and to allow appropriate attribution of the data. 
# 
#######################################################################

data_[Zn(bpdc)(DMSO)]2DMSO
_audit_block_doi                 10.5517/cc68gxt
_database_code_depnum_ccdc_archive 'CCDC 186896'
loop_
_citation_id
_citation_doi
_citation_year
1 10.1016/S1387-7003(02)00623-8 2002
_audit_update_record             
;
2002-06-02 deposited with the CCDC.	2024-07-14 downloaded from the CCDC.
;

_audit_creation_method           SHELXL-97
_chemical_name_systematic        
; 
? 
;
_chemical_name_common            ?
_chemical_melting_point          ?
_chemical_formula_moiety         ?
_chemical_formula_sum            'C20 H26 O7 S3 Zn'
_chemical_formula_weight         539.96

loop_
_atom_type_symbol
_atom_type_description
_atom_type_scat_dispersion_real
_atom_type_scat_dispersion_imag
_atom_type_scat_source
C C 0.0033 0.0016 'International Tables Vol C Tables 4.2.6.8 and 6.1.1.4'
H H 0.0000 0.0000 'International Tables Vol C Tables 4.2.6.8 and 6.1.1.4'
O O 0.0106 0.0060 'International Tables Vol C Tables 4.2.6.8 and 6.1.1.4'
S S 0.1246 0.1234 'International Tables Vol C Tables 4.2.6.8 and 6.1.1.4'
Zn Zn 0.2839 1.4301 'International Tables Vol C Tables 4.2.6.8 and 6.1.1.4'

_symmetry_cell_setting           Monoclinic
_symmetry_space_group_name_H-M   P21/a

loop_
_symmetry_equiv_pos_as_xyz
'x, y, z'
'-x+1/2, y+1/2, -z'
'-x, -y, -z'
'x-1/2, -y-1/2, z'

_cell_length_a                   12.445(4)
_cell_length_b                   15.252(3)
_cell_length_c                   13.567(3)
_cell_angle_alpha                90.00
_cell_angle_beta                 108.17(3)
_cell_angle_gamma                90.00
_cell_volume                     2447(1)
_cell_formula_units_Z            4
_cell_measurement_temperature    298(2)
_cell_measurement_reflns_used    25
_cell_measurement_theta_min      14
_cell_measurement_theta_max      16

_exptl_crystal_description       Block
_exptl_crystal_colour            Colorless
_exptl_crystal_size_max          0.40
_exptl_crystal_size_mid          0.40
_exptl_crystal_size_min          0.30
_exptl_crystal_density_meas      ?
_exptl_crystal_density_diffrn    1.466
_exptl_crystal_density_method    'not measured'
_exptl_crystal_F_000             1120
_exptl_absorpt_coefficient_mu    1.296
_exptl_absorpt_correction_type   Empirical
_exptl_absorpt_correction_T_min  0.555
_exptl_absorpt_correction_T_max  0.650
_exptl_absorpt_process_details   '\y scans (North et al., 1968)'

_exptl_special_details           
; 
? 
;

_diffrn_ambient_temperature      298(2)
_diffrn_radiation_wavelength     0.71073
_diffrn_radiation_type           MoK\a
_diffrn_radiation_source         'fine-focus sealed tube'
_diffrn_radiation_monochromator  graphite
_diffrn_measurement_device_type  'Enraf-Nonius CAD4 diffractometer'
_diffrn_measurement_method       '\w scan'
_diffrn_detector_area_resol_mean ?
_diffrn_standards_number         3
_diffrn_standards_interval_count 60
_diffrn_standards_interval_time  ?
_diffrn_standards_decay_%        7
_diffrn_reflns_number            5035
_diffrn_reflns_av_R_equivalents  0.0180
_diffrn_reflns_av_sigmaI/netI    0.0367
_diffrn_reflns_limit_h_min       0
_diffrn_reflns_limit_h_max       15
_diffrn_reflns_limit_k_min       -18
_diffrn_reflns_limit_k_max       0
_diffrn_reflns_limit_l_min       -16
_diffrn_reflns_limit_l_max       15
_diffrn_reflns_theta_min         1.58
_diffrn_reflns_theta_max         25.97
_reflns_number_total             4799
_reflns_number_gt                3407
_reflns_threshold_expression     >2sigma(I)

_computing_data_collection       'CAD4 software (Enraf-Nonius Delft, 1988)'
_computing_cell_refinement       'CELDIM (Enraf-Nonius Delft, 1988)'
_computing_data_reduction        'XCAD4 (Harms, 1997)'
_computing_structure_solution    'SHELXS-97 (Sheldrick, 1997b)'
_computing_structure_refinement  'SHELXL-97 (Sheldrick, 1997a)'
_computing_molecular_graphics    'ORTEP-II (Johnson, 1976)'
_computing_publication_material  'SHELXL-97 (Sheldrick, 1997a)'

_refine_ls_structure_factor_coef Fsqd
_refine_ls_matrix_type           full
_refine_ls_weighting_scheme      calc
_refine_ls_weighting_details     
'calc w=1/[\s^2^(Fo^2^)+(0.0680P)^2^+3.6407P] where P=(Fo^2^+2Fc^2^)/3'
_atom_sites_solution_primary     direct
_atom_sites_solution_secondary   difmap
_atom_sites_solution_hydrogens   geom
_refine_ls_hydrogen_treatment    mixed
_refine_ls_extinction_method     none
_refine_ls_extinction_coef       ?
_refine_ls_number_reflns         4799
_refine_ls_number_parameters     284
_refine_ls_number_restraints     8
_refine_ls_R_factor_all          0.0771
_refine_ls_R_factor_gt           0.0501
_refine_ls_wR_factor_ref         0.1363
_refine_ls_wR_factor_gt          0.1207
_refine_ls_goodness_of_fit_ref   1.017
_refine_ls_restrained_S_all      1.028
_refine_ls_shift/su_max          <0.001
_refine_ls_shift/su_mean         <0.001

loop_
_atom_site_label
_atom_site_type_symbol
_atom_site_fract_x
_atom_site_fract_y
_atom_site_fract_z
_atom_site_U_iso_or_equiv
_atom_site_adp_type
_atom_site_occupancy
_atom_site_symmetry_multiplicity
_atom_site_calc_flag
_atom_site_refinement_flags
_atom_site_disorder_assembly
_atom_site_disorder_group
Zn1 Zn 0.58060(3) 0.50176(3) 0.44028(3) 0.0191(1) Uani 1 1 d . . .
S1 S 0.6463(1) 0.4514(1) 0.2525(1) 0.0449(3) Uani 1 1 d . . .
S2 S 0.5194(4) 0.2448(2) 0.0694(3) 0.172(2) Uani 1 1 d D . .
S3 S 0.6427(2) 0.1937(2) -0.2455(2) 0.0687(8) Uani 0.733(5) 1 d PD A 1
S3' S 0.7156(5) 0.2478(4) -0.1659(4) 0.0687(8) Uani 0.27 1 d PD A 2
O1 O 0.6942(2) 0.4906(2) 0.5849(2) 0.038(1) Uani 1 1 d . . .
O2 O 0.5734(2) 0.4946(2) 0.6753(2) 0.039(1) Uani 1 1 d . . .
O3 O 0.5598(3) 0.3692(2) 0.4437(3) 0.043(1) Uani 1 1 d . . .
O4 O 0.4345(3) 0.3696(2) 0.5295(3) 0.043(1) Uani 1 1 d . . .
O5 O 0.6741(3) 0.5116(2) 0.3463(2) 0.038(1) Uani 1 1 d . . .
O6 O 0.5779(7) 0.3273(4) 0.0576(5) 0.148(3) Uani 1 1 d . . .
O7 O 0.7074(4) 0.1475(3) -0.1425(4) 0.095(2) Uani 1 1 d D . .
C1 C 0.6713(3) 0.4924(2) 0.6680(3) 0.026(1) Uani 1 1 d . . .
C2 C 0.7679(3) 0.4930(3) 0.7664(3) 0.030(1) Uani 1 1 d . . .
C3 C 0.8752(4) 0.4696(3) 0.7684(3) 0.039(1) Uani 1 1 d . . .
C4 C 0.9644(4) 0.4705(3) 0.8589(3) 0.039(1) Uani 1 1 d . . .
C5 C 0.9516(3) 0.4975(3) 0.9515(3) 0.034(1) Uani 1 1 d . . .
C6 C 0.8424(4) 0.5204(4) 0.9502(3) 0.056(2) Uani 1 1 d . . .
C7 C 0.7529(4) 0.5176(4) 0.8592(3) 0.053(2) Uani 1 1 d . . .
C8 C 0.4957(4) 0.3320(2) 0.4847(3) 0.030(1) Uani 1 1 d . . .
C9 C 0.4932(3) 0.2334(2) 0.4832(3) 0.028(1) Uani 1 1 d . . .
C10 C 0.5791(4) 0.1859(3) 0.4644(4) 0.036(1) Uani 1 1 d . . .
C11 C 0.5822(4) 0.0955(3) 0.4710(4) 0.036(1) Uani 1 1 d . . .
C12 C 0.4976(3) 0.0488(2) 0.4957(3) 0.026(1) Uani 1 1 d . . .
C13 C 0.4093(3) 0.0970(2) 0.5102(3) 0.028(1) Uani 1 1 d . . .
C14 C 0.4078(4) 0.1875(3) 0.5058(3) 0.030(1) Uani 1 1 d . . .
C15 C 0.5796(5) 0.5191(4) 0.1454(4) 0.062(2) Uani 1 1 d . . .
C16 C 0.7798(5) 0.4383(5) 0.2311(5) 0.075(2) Uani 1 1 d . . .
C17 C 0.580(1) 0.2124(6) 0.1930(8) 0.214(8) Uani 1 1 d D . .
C18 C 0.406(1) 0.2806(9) 0.098(1) 0.251(9) Uani 1 1 d D . .
C19 C 0.7445(6) 0.2450(5) -0.2841(5) 0.088(2) Uani 1 1 d D . .
C20 C 0.5807(7) 0.2826(5) -0.2078(7) 0.123(3) Uani 1 1 d D . .
H3 H 0.8879 0.4529 0.7070 0.047 Uiso 1 1 calc R . .
H4 H 1.0352 0.4523 0.8576 0.047 Uiso 1 1 calc R . .
H6 H 0.8298 0.5378 1.0114 0.068 Uiso 1 1 calc R . .
H7 H 0.6809 0.5326 0.8604 0.064 Uiso 1 1 calc R . .
H10 H 0.6361 0.2153 0.4468 0.043 Uiso 1 1 calc R . .
H11 H 0.6417 0.0652 0.4588 0.043 Uiso 1 1 calc R . .
H13 H 0.3496 0.0676 0.5232 0.034 Uiso 1 1 calc R . .
H14 H 0.3486 0.2180 0.5182 0.036 Uiso 1 1 calc R . .
H15a H 0.5045 0.5330 0.1458 0.094 Uiso 1 1 calc R . .
H15b H 0.5758 0.4890 0.0823 0.094 Uiso 1 1 calc R . .
H15c H 0.6222 0.5723 0.1499 0.094 Uiso 1 1 calc R . .
H16a H 0.8275 0.4013 0.2842 0.113 Uiso 1 1 calc R . .
H16b H 0.8150 0.4946 0.2333 0.113 Uiso 1 1 calc R . .
H16c H 0.7688 0.4119 0.1644 0.113 Uiso 1 1 calc R . .
H17a H 0.6537 0.1885 0.2004 0.321 Uiso 1 1 calc R . .
H17b H 0.5340 0.1686 0.2106 0.321 Uiso 1 1 calc R . .
H17c H 0.5878 0.2619 0.2385 0.321 Uiso 1 1 calc R . .
H18a H 0.3521 0.3047 0.0368 0.377 Uiso 1 1 calc R . .
H18b H 0.4278 0.3251 0.1505 0.377 Uiso 1 1 calc R . .
H18c H 0.3714 0.2326 0.1229 0.377 Uiso 1 1 calc R . .
H19a H 0.7879 0.2020 -0.3070 0.132 Uiso 1 1 calc R A 1
H19b H 0.7935 0.2773 -0.2269 0.132 Uiso 1 1 calc R A 1
H19c H 0.7096 0.2844 -0.3400 0.132 Uiso 1 1 calc R A 1
H20a H 0.5197 0.2632 -0.1840 0.185 Uiso 1 1 calc R A 1
H20b H 0.5520 0.3215 -0.2657 0.185 Uiso 1 1 calc R A 1
H20c H 0.6358 0.3128 -0.1527 0.185 Uiso 1 1 calc R A 1

loop_
_atom_site_aniso_label
_atom_site_aniso_U_11
_atom_site_aniso_U_22
_atom_site_aniso_U_33
_atom_site_aniso_U_23
_atom_site_aniso_U_13
_atom_site_aniso_U_12
Zn1 0.0179(2) 0.0164(2) 0.0202(2) -0.0002(2) 0.0020(2) 0.0002(2)
S1 0.0566(8) 0.0452(7) 0.0374(6) -0.0065(5) 0.0211(6) -0.0031(6)
S2 0.309(5) 0.088(2) 0.130(2) -0.019(2) 0.084(3) -0.019(3)
S3 0.061(1) 0.064(1) 0.074(1) 0.018(1) 0.012(1) -0.007(1)
S3' 0.061(1) 0.064(1) 0.074(1) 0.018(1) 0.012(1) -0.007(1)
O1 0.026(1) 0.058(2) 0.023(1) 0.001(1) -0.002(1) 0.007(2)
O2 0.021(1) 0.061(2) 0.029(1) -0.001(2) -0.001(1) -0.001(2)
O3 0.052(2) 0.016(1) 0.062(2) 0.002(1) 0.020(2) -0.005(1)
O4 0.055(2) 0.018(2) 0.056(2) -0.002(1) 0.018(2) 0.004(1)
O5 0.036(2) 0.048(2) 0.034(2) -0.007(1) 0.017(1) -0.008(1)
O6 0.255(9) 0.082(4) 0.124(5) -0.023(4) 0.085(6) -0.040(5)
O7 0.095(4) 0.089(3) 0.112(4) 0.049(3) 0.050(3) 0.030(3)
C1 0.022(2) 0.023(2) 0.026(2) -0.001(2) -0.003(1) 0.000(2)
C2 0.022(2) 0.039(2) 0.023(2) -0.004(2) -0.002(2) -0.002(2)
C3 0.026(2) 0.063(3) 0.025(2) -0.009(2) 0.002(2) 0.006(2)
C4 0.023(2) 0.060(3) 0.027(2) -0.007(2) -0.003(2) 0.010(2)
C5 0.020(2) 0.051(3) 0.024(2) -0.002(2) -0.003(2) -0.002(2)
C6 0.024(2) 0.116(5) 0.024(2) -0.017(3) 0.001(2) 0.004(3)
C7 0.019(2) 0.106(5) 0.028(2) -0.014(3) -0.003(2) 0.009(2)
C8 0.035(2) 0.017(2) 0.028(2) 0.000(2) -0.005(2) 0.001(2)
C9 0.035(2) 0.016(2) 0.030(2) 0.001(2) 0.004(2) 0.001(2)
C10 0.040(3) 0.019(2) 0.054(3) -0.001(2) 0.022(2) -0.001(2)
C11 0.032(2) 0.019(2) 0.060(3) 0.002(2) 0.021(2) 0.004(2)
C12 0.027(2) 0.018(2) 0.030(2 -0.001(2) 0.005(2) -0.001(2)
C13 0.026(2) 0.019(2) 0.040(2) 0.000(2) 0.010(2) -0.001(2)
C14 0.029(2) 0.023(2) 0.038(2) -0.001(2) 0.009(2) 0.007(2)
C15 0.059(4) 0.077(4) 0.044(3) 0.007(3) 0.004(3) 0.003(3)
C16 0.070(4) 0.106(5) 0.060(4) 0.001(4) 0.037(3) 0.032(4)
C17 0.38(2) 0.072(6) 0.13(1) 0.010(6) 0.00(1) 0.03(1)
C18 0.42(3) 0.16(1) 0.22(2) 0.03(1) 0.17(2) 0.11(2)
C19 0.095(5) 0.093(5) 0.078(5) 0.013(4) 0.031(4) -0.007(4)
C20 0.134(8) 0.112(7) 0.144(8) 0.051(6) 0.074(7) 0.057(6)

loop_
_geom_bond_atom_site_label_1
_geom_bond_atom_site_label_2
_geom_bond_distance
_geom_bond_site_symmetry_2
_geom_bond_publ_flag
Zn1 O1 2.036(3) . ?
Zn1 O2 2.064(3) 3_666 ?
Zn1 O3 2.041(3) . ?
Zn1 O4 2.026(3) 3_666 ?
Zn1 O5 1.982(3) . ?
Zn1 Zn1 2.946(1) 3_666 ?
S1 O5 1.519(3) . ?
S1 C15 1.765(5) . ?
S1 C16 1.785(6) . ?
S2 O6 1.487(7) . ?
S2 C18 1.67(1) . ?
S2 C17 1.684(9) . ?
S3 O7 1.548(5) . ?
S3 C19 1.706(6) . ?
S3 C20 1.715(7) . ?
S3' O7 1.573(7) . ?
S3' C20 1.681(7) . ?
S3' C19 1.750(7) . ?
O1 C1 1.245(5) . ?
O2 C1 1.253(5) . ?
O3 C8 1.243(5) . ?
O4 C8 1.252(5) . ?
C1 C2 1.493(5) . ?
C2 C3 1.374(6) . ?
C2 C7 1.380(6) . ?
C3 C4 1.375(6) . ?
C4 C5 1.377(6) . ?
C5 C6 1.398(6) . ?
C5 C5 1.484(7) 3_767 ?
C6 C7 1.382(6) . ?
C8 C9 1.503(5) . ?
C9 C10 1.380(6) . ?
C9 C14 1.385(6) . ?
C10 C11 1.382(5) . ?
C11 C12 1.396(6) . ?
C12 C13 1.386(5) . ?
C12 C12 1.493(7) 3_656 ?
C13 C14 1.382(5) . ?

loop_
_geom_angle_atom_site_label_1
_geom_angle_atom_site_label_2
_geom_angle_atom_site_label_3
_geom_angle
_geom_angle_site_symmetry_1
_geom_angle_site_symmetry_3
_geom_angle_publ_flag
O1 Zn1 O2 159.3(1) . 3_666 ?
O1 Zn1 O3 87.1(1) . . ?
O1 Zn1 O4 88.1(1) . 3_666 ?
O1 Zn1 O5 104.8(1) . . ?
O1 Zn1 Zn1 81.7(1) . 3_666 ?
O2 Zn1 O3 87.1(1) 3_666 . ?
O2 Zn1 O4 90.3(1) 3_666 3_666 ?
O2 Zn1 O5 95.9(1) 3_666 . ?
O2 Zn1 Zn1 77.8(1) 3_666 3_666 ?
O3 Zn1 O4 159.2(1) . 3_666 ?
O3 Zn1 O5 101.2(1) . . ?
O3 Zn1 Zn1 81.8(1) . 3_666 ?
O4 Zn1 O5 99.6(1) 3_666 . ?
O4 Zn1 Zn1 77.6(1) 3_666 3_666 ?
O5 Zn1 Zn1 172.9(1) . 3_666 ?
O5 S1 C15 105.2(2) . . ?
O5 S1 C16 102.9(3) . . ?
C15 S1 C16 98.9(3) . . ?
O6 S2 C18 103.1(6) . . ?
O6 S2 C17 105.8(6) . . ?
C18 S2 C17 90.9(8) . . ?
O7 S3 C19 105.0(3) . . ?
O7 S3 C20 104.3(4) . . ?
C19 S3 C20 100.1(4) . . ?
O7 S3' C20 104.7(4) . . ?
O7 S3' C19 101.9(4) . . ?
C20 S3' C19 99.6(4) . . ?
C1 O1 Zn1 125.7(3) . . ?
C1 O2 Zn1 129.5(3) . 3_666 ?
C8 O3 Zn1 124.5(3) . . ?
C8 O4 Zn1 130.6(3) . 3_666 ?
S1 O5 Zn1 117.8(2) . . ?
O1 C1 O2 125.0(4) . . ?
O1 C1 C2 117.5(3) . . ?
O2 C1 C2 117.4(3) . . ?
C3 C2 C7 117.4(4) . . ?
C3 C2 C1 121.5(4) . . ?
C7 C2 C1 121.1(4) . . ?
C4 C3 C2 121.5(4) . . ?
C3 C4 C5 121.8(4) . . ?
C4 C5 C6 116.9(4) . . ?
C4 C5 C5 122.1(5) . 3_767 ?
C6 C5 C5 121.0(5) . 3_767 ?
C7 C6 C5 120.8(4) . . ?
C6 C7 C2 121.5(4) . . ?
O3 C8 O4 125.5(4) . . ?
O3 C8 C9 117.6(4) . . ?
O4 C8 C9 116.8(4) . . ?
C10 C9 C14 117.9(4) . . ?
C10 C9 C8 120.9(4) . . ?
C14 C9 C8 121.1(4) . . ?
C9 C10 C11 121.3(4) . . ?
C10 C11 C12 121.2(4) . . ?
C13 C12 C11 117.0(3) . . ?
C13 C12 C12 122.1(5) . 3_656 ?
C11 C12 C12 120.8(5) . 3_656 ?
C12 C13 C14 121.6(4) . . ?
C13 C14 C9 120.9(4) . . ?

_diffrn_measured_fraction_theta_max 1.000
_diffrn_reflns_theta_full        25.97
_diffrn_measured_fraction_theta_full 1.000
_refine_diff_density_max         0.738
_refine_diff_density_min         -0.677
_refine_diff_density_rms         0.087
#_eof
#End of Crystallographic Information File

