####################################################################### 
# 
# This file contains crystal structure data downloaded from the 
# Cambridge Structural Database (CSD) hosted by the Cambridge 
# Crystallographic Data Centre (CCDC).
# 
# Full information about CCDC data access policies and citation 
# guidelines are available at http://www.ccdc.cam.ac.uk/access/V1 
# 
# Audit and citation data items may have been added by the CCDC. 
# Please retain this information to preserve the provenance of 
# this file and to allow appropriate attribution of the data. 
# 
#######################################################################

data_ny135nc2c
_audit_block_doi                 10.5517/cc1jbvh6
_database_code_depnum_ccdc_archive 'CCDC 1410608'
loop_
_citation_id
_citation_doi
_citation_year
1 10.1039/C5RA14948G 2015
_audit_update_record             
;
2015-09-08 deposited with the CCDC.	2024-07-14 downloaded from the CCDC.
;
_audit_creation_date             2015-09-08
_audit_creation_method           
;
Olex2 1.2-beta
(compiled 2015.08.17 svn.r3210 for OlexSys, GUI svn.r5083)
;
_shelxl_version_number           2014-3
_chemical_name_common            ?
_chemical_name_systematic        
;
 ? 
;
_chemical_formula_moiety         'C32 H24 N20 O8 Zn2'
_chemical_formula_sum            'C32 H24 N20 O8 Zn2'
_chemical_formula_weight         947.45
_chemical_melting_point          ?
loop_
_atom_type_symbol
_atom_type_description
_atom_type_scat_dispersion_real
_atom_type_scat_dispersion_imag
_atom_type_scat_source
C C 0.0033 0.0016 'International Tables Vol C Tables 4.2.6.8 and 6.1.1.4'
H H 0.0000 0.0000 'International Tables Vol C Tables 4.2.6.8 and 6.1.1.4'
N N 0.0061 0.0033 'International Tables Vol C Tables 4.2.6.8 and 6.1.1.4'
O O 0.0106 0.0060 'International Tables Vol C Tables 4.2.6.8 and 6.1.1.4'
Zn Zn 0.2839 1.4301 'International Tables Vol C Tables 4.2.6.8 and 6.1.1.4'

_shelx_space_group_comment       
;
The symmetry employed for this shelxl refinement is uniquely defined
by the following loop, which should always be used as a source of
symmetry information in preference to the above space-group names.
They are only intended as comments.
;
_space_group_crystal_system      monoclinic
_space_group_IT_number           15
_space_group_name_H-M_alt        'C 1 2/c 1'
_space_group_name_Hall           '-C 2yc'
loop_
_space_group_symop_operation_xyz
'x, y, z'
'-x, y, -z+1/2'
'x+1/2, y+1/2, z'
'-x+1/2, y+1/2, -z+1/2'
'-x, -y, -z'
'x, -y, z-1/2'
'-x+1/2, -y+1/2, -z'
'x+1/2, -y+1/2, z-1/2'

_cell_length_a                   19.841(9)
_cell_length_b                   14.971(7)
_cell_length_c                   6.892(3)
_cell_angle_alpha                90
_cell_angle_beta                 92.590(10)
_cell_angle_gamma                90
_cell_volume                     2045.1(16)
_cell_formula_units_Z            2
_cell_measurement_reflns_used    1355
_cell_measurement_temperature    293(2)
_cell_measurement_theta_max      25.99
_cell_measurement_theta_min      2.05
_shelx_estimated_absorpt_T_max   0.855
_shelx_estimated_absorpt_T_min   0.797
_exptl_absorpt_coefficient_mu    1.247
_exptl_absorpt_correction_T_max  0.8546
_exptl_absorpt_correction_T_min  0.7975
_exptl_absorpt_correction_type   none
_exptl_absorpt_process_details   ?
_exptl_crystal_colour            colorless
_exptl_crystal_density_diffrn    1.539
_exptl_crystal_density_meas      ?
_exptl_crystal_density_method    'not measured'
_exptl_crystal_description       block
_exptl_crystal_F_000             960
_exptl_crystal_size_max          0.19
_exptl_crystal_size_mid          0.17
_exptl_crystal_size_min          0.13
_exptl_special_details           
;
 ? 
;
_exptl_transmission_factor_max   ?
_exptl_transmission_factor_min   ?
_diffrn_reflns_av_R_equivalents  0.0714
_diffrn_reflns_av_unetI/netI     0.0912
_diffrn_reflns_Laue_measured_fraction_full 0.998
_diffrn_reflns_Laue_measured_fraction_max 0.998
_diffrn_reflns_limit_h_max       19
_diffrn_reflns_limit_h_min       -24
_diffrn_reflns_limit_k_max       14
_diffrn_reflns_limit_k_min       -18
_diffrn_reflns_limit_l_max       8
_diffrn_reflns_limit_l_min       -7
_diffrn_reflns_number            5598
_diffrn_reflns_point_group_measured_fraction_full 0.998
_diffrn_reflns_point_group_measured_fraction_max 0.998
_diffrn_reflns_theta_full        25.242
_diffrn_reflns_theta_max         25.993
_diffrn_reflns_theta_min         2.055
_diffrn_ambient_temperature      293(2)
_diffrn_detector_area_resol_mean ?
_diffrn_measured_fraction_theta_full 0.998
_diffrn_measured_fraction_theta_max 0.998
_diffrn_measurement_device_type  'CCD area detector'
_diffrn_measurement_method       'phi and omega scans'
_diffrn_radiation_monochromator  graphite
_diffrn_radiation_type           MoK\a
_diffrn_radiation_wavelength     0.71073
_diffrn_source                   ?
_reflns_Friedel_coverage         0.000
_reflns_Friedel_fraction_full    .
_reflns_Friedel_fraction_max     .
_reflns_number_gt                1355
_reflns_number_total             2019
_reflns_special_details          
;
 Reflections were merged by SHELXL according to the crystal
 class for the calculation of statistics and refinement.
 
 _reflns_Friedel_fraction is defined as the number of unique
 Friedel pairs measured divided by the number that would be
 possible theoretically, ignoring centric projections and
 systematic absences.
;
_reflns_threshold_expression     'I > 2\s(I)'
_computing_cell_refinement       'Bruker XSCANS'
_computing_data_collection       'Bruker XSCANS'
_computing_data_reduction        'Bruker SHELXTL'
_computing_molecular_graphics    'Olex2 (Dolomanov et al., 2009)'
_computing_publication_material  'Olex2 (Dolomanov et al., 2009)'
_computing_structure_refinement  'ShelXL (Sheldrick, 2015)'
_computing_structure_solution    'Bruker SHELXTL'
_refine_diff_density_max         0.343
_refine_diff_density_min         -0.398
_refine_diff_density_rms         0.084
_refine_ls_extinction_coef       .
_refine_ls_extinction_method     none
_refine_ls_goodness_of_fit_ref   0.997
_refine_ls_hydrogen_treatment    constr
_refine_ls_matrix_type           full
_refine_ls_number_parameters     142
_refine_ls_number_reflns         2019
_refine_ls_number_restraints     0
_refine_ls_R_factor_all          0.0796
_refine_ls_R_factor_gt           0.0488
_refine_ls_restrained_S_all      0.997
_refine_ls_shift/su_max          0.001
_refine_ls_shift/su_mean         0.000
_refine_ls_structure_factor_coef Fsqd
_refine_ls_weighting_details     
'w=1/[\s^2^(Fo^2^)+(0.0290P)^2^] where P=(Fo^2^+2Fc^2^)/3'
_refine_ls_weighting_scheme      calc
_refine_ls_wR_factor_gt          0.0846
_refine_ls_wR_factor_ref         0.0935
_refine_special_details          SQUEEZE
loop_
_platon_squeeze_void_nr
_platon_squeeze_void_average_x
_platon_squeeze_void_average_y
_platon_squeeze_void_average_z
_platon_squeeze_void_volume
_platon_squeeze_void_count_electrons
_platon_squeeze_void_content
1 0.500 0.000 -0.024 183 9 ' '
2 1.000 0.500 -0.092 183 9 ' '
_platon_squeeze_details          
;
;

_olex2_refinement_description    
;
1. Fixed Uiso
 At 1.2 times of:
  All C(H) groups, All N(H) groups
 At 1.5 times of:
  All O(H) groups
2.a Aromatic/amide H refined with riding coordinates:
 N1(H1), C2(H2), C3(H3), C4(H4), C5(H5)
2.b Idealised tetrahedral OH refined as rotating group:
 O1(H1A)
;
_atom_sites_solution_hydrogens   geom
_atom_sites_solution_primary     ?
_atom_sites_solution_secondary   ?
loop_
_atom_site_label
_atom_site_type_symbol
_atom_site_fract_x
_atom_site_fract_y
_atom_site_fract_z
_atom_site_U_iso_or_equiv
_atom_site_adp_type
_atom_site_occupancy
_atom_site_site_symmetry_order
_atom_site_calc_flag
_atom_site_refinement_flags_posn
_atom_site_refinement_flags_adp
_atom_site_refinement_flags_occupancy
_atom_site_disorder_assembly
_atom_site_disorder_group
Zn1 Zn 1.0000 0.92791(4) 0.2500 0.0270(2) Uani 1 2 d S T P . .
N1 N 0.86312(15) 0.8008(2) 0.3565(5) 0.0441(9) Uani 1 1 d . . . . .
H1 H 0.8313 0.7663 0.3917 0.053 Uiso 1 1 calc R . . . .
N2 N 0.93848(13) 0.91498(19) 0.4829(4) 0.0269(7) Uani 1 1 d . . . . .
N3 N 0.93244(14) 0.97251(18) 0.6305(4) 0.0269(7) Uani 1 1 d . . . . .
N4 N 0.87545(15) 0.9589(2) 0.7133(5) 0.0389(9) Uani 1 1 d . . . . .
N5 N 0.84250(15) 0.8928(2) 0.6220(5) 0.0433(9) Uani 1 1 d . . . . .
O1 O 0.77308(14) 0.6794(2) 0.2894(4) 0.0627(10) Uani 1 1 d . . . . .
H1A H 0.7377 0.6517 0.2967 0.094 Uiso 1 1 calc GR . . . .
O2 O 0.93801(12) 0.82354(17) 0.1280(4) 0.0407(7) Uani 1 1 d . . . . .
C1 C 0.79751(19) 0.6673(3) 0.1140(6) 0.0400(10) Uani 1 1 d . . . . .
C2 C 0.7668(2) 0.6083(3) -0.0170(7) 0.0534(12) Uani 1 1 d . . . . .
H2 H 0.7281 0.5779 0.0161 0.064 Uiso 1 1 calc R . . . .
C3 C 0.7927(3) 0.5945(3) -0.1927(7) 0.0701(15) Uani 1 1 d . . . . .
H3 H 0.7714 0.5548 -0.2793 0.084 Uiso 1 1 calc R . . . .
C4 C 0.8500(3) 0.6385(3) -0.2451(7) 0.0784(17) Uani 1 1 d . . . . .
H4 H 0.8680 0.6278 -0.3651 0.094 Uiso 1 1 calc R . . . .
C5 C 0.8802(2) 0.6988(3) -0.1170(7) 0.0614(14) Uani 1 1 d . . . . .
H5 H 0.9185 0.7294 -0.1526 0.074 Uiso 1 1 calc R . . . .
C6 C 0.85480(18) 0.7143(2) 0.0623(6) 0.0333(9) Uani 1 1 d . . . . .
C7 C 0.88212(18) 0.8685(2) 0.4834(6) 0.0329(9) Uani 1 1 d . . . . .
C8 C 0.88911(18) 0.7831(3) 0.1832(6) 0.0346(9) Uani 1 1 d . . . . .

loop_
_atom_site_aniso_label
_atom_site_aniso_U_11
_atom_site_aniso_U_22
_atom_site_aniso_U_33
_atom_site_aniso_U_23
_atom_site_aniso_U_13
_atom_site_aniso_U_12
Zn1 0.0216(3) 0.0270(4) 0.0327(4) 0.000 0.0055(2) 0.000
N1 0.043(2) 0.049(2) 0.042(2) -0.0159(17) 0.0168(16) -0.0276(18)
N2 0.0226(15) 0.0290(19) 0.0291(18) -0.0005(14) 0.0006(13) -0.0031(14)
N3 0.0259(17) 0.0274(18) 0.0278(18) -0.0043(14) 0.0038(14) -0.0058(14)
N4 0.0296(18) 0.049(2) 0.039(2) -0.0116(16) 0.0121(15) -0.0141(16)
N5 0.0343(19) 0.053(2) 0.044(2) -0.0206(17) 0.0142(16) -0.0229(17)
O1 0.053(2) 0.080(2) 0.057(2) -0.0315(17) 0.0256(16) -0.0451(18)
O2 0.0388(16) 0.0433(17) 0.0410(18) -0.0081(13) 0.0133(13) -0.0180(14)
C1 0.036(2) 0.040(3) 0.044(3) -0.008(2) 0.0027(19) -0.011(2)
C2 0.054(3) 0.048(3) 0.058(3) -0.007(2) 0.001(2) -0.021(2)
C3 0.099(4) 0.062(4) 0.050(3) -0.019(3) 0.000(3) -0.040(3)
C4 0.119(5) 0.077(4) 0.041(3) -0.024(3) 0.023(3) -0.046(4)
C5 0.077(3) 0.061(3) 0.048(3) -0.013(3) 0.016(3) -0.030(3)
C6 0.033(2) 0.030(2) 0.037(2) -0.0053(19) 0.0052(18) -0.0075(19)
C7 0.030(2) 0.033(2) 0.036(3) -0.0025(19) 0.0067(18) -0.0081(18)
C8 0.030(2) 0.033(2) 0.040(3) 0.000(2) 0.0064(18) -0.0026(19)

_geom_special_details            
;
 All esds (except the esd in the dihedral angle between two l.s. planes)
 are estimated using the full covariance matrix.  The cell esds are taken
 into account individually in the estimation of esds in distances, angles
 and torsion angles; correlations between esds in cell parameters are only
 used when they are defined by crystal symmetry.  An approximate (isotropic)
 treatment of cell esds is used for estimating esds involving l.s. planes.
;
loop_
_geom_bond_atom_site_label_1
_geom_bond_atom_site_label_2
_geom_bond_distance
_geom_bond_site_symmetry_2
_geom_bond_publ_flag
Zn1 N2 2.069(3) 2_755 ?
Zn1 N2 2.069(3) . ?
Zn1 N3 2.144(3) 6_575 ?
Zn1 N3 2.144(3) 5_776 ?
Zn1 O2 2.137(3) 2_755 ?
Zn1 O2 2.137(3) . ?
N1 H1 0.8600 . ?
N1 C7 1.380(4) . ?
N1 C8 1.349(5) . ?
N2 N3 1.343(4) . ?
N2 C7 1.317(4) . ?
N3 Zn1 2.144(3) 5_776 ?
N3 N4 1.306(4) . ?
N4 N5 1.329(4) . ?
N5 C7 1.315(4) . ?
O1 H1A 0.8200 . ?
O1 C1 1.335(4) . ?
O2 C8 1.219(4) . ?
C1 C2 1.385(5) . ?
C1 C6 1.396(5) . ?
C2 H2 0.9300 . ?
C2 C3 1.352(6) . ?
C3 H3 0.9300 . ?
C3 C4 1.376(6) . ?
C4 H4 0.9300 . ?
C4 C5 1.381(6) . ?
C5 H5 0.9300 . ?
C5 C6 1.376(5) . ?
C6 C8 1.473(5) . ?

loop_
_geom_angle_atom_site_label_1
_geom_angle_atom_site_label_2
_geom_angle_atom_site_label_3
_geom_angle
_geom_angle_site_symmetry_1
_geom_angle_site_symmetry_3
_geom_angle_publ_flag
N2 Zn1 N2 169.26(16) 2_755 . ?
N2 Zn1 N3 98.49(10) 2_755 6_575 ?
N2 Zn1 N3 89.00(11) . 6_575 ?
N2 Zn1 N3 89.00(11) 2_755 5_776 ?
N2 Zn1 N3 98.49(10) . 5_776 ?
N2 Zn1 O2 83.54(10) 2_755 2_755 ?
N2 Zn1 O2 88.60(10) 2_755 . ?
N2 Zn1 O2 88.61(10) . 2_755 ?
N2 Zn1 O2 83.54(10) . . ?
N3 Zn1 N3 91.91(15) 5_776 6_575 ?
O2 Zn1 N3 91.06(10) . 6_575 ?
O2 Zn1 N3 91.06(10) 2_755 5_776 ?
O2 Zn1 N3 176.43(11) . 5_776 ?
O2 Zn1 N3 176.43(11) 2_755 6_575 ?
O2 Zn1 O2 86.04(15) 2_755 . ?
C7 N1 H1 116.5 . . ?
C8 N1 H1 116.5 . . ?
C8 N1 C7 127.0(3) . . ?
N3 N2 Zn1 127.1(2) . . ?
C7 N2 Zn1 125.6(2) . . ?
C7 N2 N3 103.4(3) . . ?
N2 N3 Zn1 131.4(2) . 5_776 ?
N4 N3 Zn1 118.6(2) . 5_776 ?
N4 N3 N2 109.9(3) . . ?
N3 N4 N5 109.0(3) . . ?
C7 N5 N4 104.6(3) . . ?
C1 O1 H1A 109.5 . . ?
C8 O2 Zn1 133.8(3) . . ?
O1 C1 C2 120.7(4) . . ?
O1 C1 C6 119.7(4) . . ?
C2 C1 C6 119.6(4) . . ?
C1 C2 H2 119.7 . . ?
C3 C2 C1 120.5(4) . . ?
C3 C2 H2 119.7 . . ?
C2 C3 H3 119.6 . . ?
C2 C3 C4 120.9(4) . . ?
C4 C3 H3 119.6 . . ?
C3 C4 H4 120.5 . . ?
C3 C4 C5 119.1(5) . . ?
C5 C4 H4 120.5 . . ?
C4 C5 H5 119.4 . . ?
C4 C5 C6 121.2(4) . . ?
C6 C5 H5 119.4 . . ?
C1 C6 C8 124.7(4) . . ?
C5 C6 C1 118.7(4) . . ?
C5 C6 C8 116.6(3) . . ?
N2 C7 N1 126.4(3) . . ?
N5 C7 N1 120.5(3) . . ?
N5 C7 N2 113.0(3) . . ?
N1 C8 C6 117.0(3) . . ?
O2 C8 N1 121.3(4) . . ?
O2 C8 C6 121.7(4) . . ?

_shelx_res_file                  
;
TITL ny135nc2c in C2/c
CELL 0.71073 19.841 14.971 6.892 90 92.59 90
ZERR 2 0.009 0.007 0.003 0 0.01 0
LATT 7
SYMM -X,+Y,0.5-Z
SFAC C H N O Zn
UNIT 64 48 40 16 4

L.S. 8
PLAN  5
SIZE 0.19 0.17 0.13
BOND $H
HTAB
fmap 2
acta
OMIT 0 52
OMIT 0 2 0
OMIT 0 4 2
REM <olex2.extras>
REM <HklSrc "%.\\ny135nc2c.hkl">
REM </olex2.extras>

WGHT    0.029000
FVAR       0.87456
ZN1   5    1.000000    0.927911    0.250000    10.50000    0.02158    0.02703 =
         0.03275    0.00000    0.00550    0.00000
N1    3    0.863119    0.800849    0.356510    11.00000    0.04324    0.04854 =
         0.04199   -0.01593    0.01683   -0.02763
AFIX  43
H1    2    0.831284    0.766273    0.391704    11.00000   -1.20000
AFIX   0
N2    3    0.938482    0.914976    0.482856    11.00000    0.02260    0.02899 =
         0.02915   -0.00047    0.00055   -0.00312
N3    3    0.932440    0.972512    0.630493    11.00000    0.02588    0.02743 =
         0.02777   -0.00433    0.00384   -0.00584
N4    3    0.875445    0.958932    0.713332    11.00000    0.02957    0.04940 =
         0.03856   -0.01162    0.01214   -0.01412
N5    3    0.842503    0.892823    0.621997    11.00000    0.03432    0.05316 =
         0.04356   -0.02065    0.01420   -0.02292
O1    4    0.773077    0.679437    0.289439    11.00000    0.05264    0.08035 =
         0.05734   -0.03149    0.02557   -0.04515
AFIX 147
H1A   2    0.737652    0.651678    0.296703    11.00000   -1.50000
AFIX   0
O2    4    0.938014    0.823542    0.128032    11.00000    0.03876    0.04327 =
         0.04102   -0.00809    0.01330   -0.01802
C1    1    0.797505    0.667272    0.113978    11.00000    0.03622    0.04006 =
         0.04395   -0.00826    0.00268   -0.01137
C2    1    0.766790    0.608278   -0.017024    11.00000    0.05423    0.04780 =
         0.05806   -0.00744    0.00134   -0.02059
AFIX  43
H2    2    0.728072    0.577894    0.016072    11.00000   -1.20000
AFIX   0
C3    1    0.792658    0.594501   -0.192732    11.00000    0.09851    0.06191 =
         0.04970   -0.01948    0.00021   -0.04030
AFIX  43
H3    2    0.771438    0.554755   -0.279337    11.00000   -1.20000
AFIX   0
C4    1    0.849967    0.638503   -0.245145    11.00000    0.11899    0.07710 =
         0.04085   -0.02422    0.02290   -0.04594
AFIX  43
H4    2    0.868035    0.627802   -0.365139    11.00000   -1.20000
AFIX   0
C5    1    0.880246    0.698753   -0.117033    11.00000    0.07684    0.06066 =
         0.04807   -0.01331    0.01635   -0.02992
AFIX  43
H5    2    0.918535    0.729419   -0.152613    11.00000   -1.20000
AFIX   0
C6    1    0.854798    0.714251    0.062340    11.00000    0.03312    0.03046 =
         0.03678   -0.00530    0.00517   -0.00753
C7    1    0.882119    0.868524    0.483412    11.00000    0.03030    0.03266 =
         0.03636   -0.00251    0.00667   -0.00812
C8    1    0.889113    0.783096    0.183193    11.00000    0.03032    0.03346 =
         0.04043   -0.00032    0.00637   -0.00255
HKLF 4

REM  ny135nc2c in C2/c
REM R1 =  0.0488 for    1355 Fo > 4sig(Fo)  and  0.0796 for all    2019 data
REM    142 parameters refined using      0 restraints

END

WGHT      0.0428      0.0000

REM Instructions for potential hydrogen bonds
HTAB N1 O1
EQIV $1 -x+3/2, -y+3/2, -z+1
HTAB O1 N5_$1

REM Highest difference peak  0.343,  deepest hole -0.398,  1-sigma level  0.084
Q1    1   1.0000  0.7753 -0.2500  10.50000  0.05    0.34
Q2    1   0.8601  0.9660  0.8187  11.00000  0.05    0.34
Q3    1   0.8099  0.7847 -0.0863  11.00000  0.05    0.30
Q4    1   0.9566  0.9350  0.0649  11.00000  0.05    0.30
Q5    1   0.7159  0.5272 -0.2812  11.00000  0.05    0.29
;
_shelx_res_checksum              32484
_shelx_hkl_file                  
;
   2   0   0       0      51                                                        1658   45.38    0.00  1.0000
   4   0   0    4088      65                                                        1612   26.96    0.01  1.0000
  -6   0   0     201      76                                                         680   13.47   -0.02  1.0000
  -6   0   0     308      75                                                         866   13.47   -0.02  1.0000
   6   0   0     282      59                                                         823   13.47    0.02  1.0000
  -8   0   0   13467     393                                                       14801    6.36   -0.04  1.0000
   8   0   0   13226     350                                                       14548    6.36    0.04  1.0000
 -10   0   0       5      53                                                          16    1.94   -0.04  1.0000
 -10   0   0       1      45                                                           1    1.94   -0.04  1.0000
  10   0   0       3      34                                                         -10    1.94    0.04  1.0000
 -12   0   0      32      63                                                          36    0.40   -0.01  1.0000
 -12   0   0      74      66                                                          80    0.40   -0.01  1.0000
  12   0   0      57      41                                                          62    0.40    0.01  1.0000
 -14   0   0   12234     435                                                       12466    1.18    0.01  1.0000
 -14   0   0   12310     477                                                       12543    1.18    0.01  1.0000
 -16   0   0    7415     352                                                        7624    1.37    0.00  1.0000
 -16   0   0    6450     360                                                        6645    1.37    0.00  1.0000
 -18   0   0    4046     314                                                        4105    0.52   -0.01  1.0000
 -20   0   0     598     174                                                         587   -0.27   -0.02  1.0000
 -22   0   0       1     124                                                         -28   -1.28   -0.02  1.0000
 -24   0   0      26     140                                                          10   -2.25   -0.02  1.0000
 -26   0   0     301     200                                                         245   -1.92   -0.01  1.0000
   3  -1   0   12423     191                                                        7274  -29.66   -0.01  1.0000
   5  -1   0    3180     168                                                        4932  -15.69   -0.02  1.0000
  -5  -1   0    3381     183                                                        5181  -15.68   -0.02  1.0000
  -5   1   0    3366     183                                                        5164  -15.69    0.02  1.0000
  -7  -1   0    7975     243                                                        6736   -8.19    0.00  1.0000
   7  -1   0    7817     217                                                        6590   -8.20   -0.02  1.0000
  -7   1   0    8279     209                                                        7015   -8.20    0.02  1.0000
  -7   1   0    8109     246                                                        6858   -8.20    0.02  1.0000
   9  -1   0      76      51                                                         149   -3.96   -0.03  1.0000
  -9  -1   0      15      55                                                          54   -3.95    0.00  1.0000
  -9   1   0      51      52                                                         113   -3.96    0.03  1.0000
   9   1   0      78      30                                                         151   -3.95    0.00  1.0000
  -9   1   0      14      50                                                          53   -3.96    0.03  1.0000
 -11  -1   0    2271     169                                                        2161   -1.33   -0.01  1.0000
  11  -1   0    2370     141                                                        2257   -1.33   -0.03  1.0000
 -11  -1   0    2283     168                                                        2173   -1.33   -0.01  1.0000
  11   1   0    2300      96                                                        2189   -1.33    0.01  1.0000
 -11   1   0    2365     152                                                        2252   -1.33    0.03  1.0000
 -11   1   0    2321     172                                                        2209   -1.33    0.03  1.0000
 -13  -1   0    2640     202                                                        2528   -1.25   -0.02  1.0000
 -13  -1   0    3144     212                                                        3022   -1.25   -0.02  1.0000
  13  -1   0    2773     162                                                        2657   -1.26   -0.01  1.0000
 -13   1   0    2953     189                                                        2834   -1.26    0.01  1.0000
 -13   1   0    3134     223                                                        3011   -1.26    0.01  1.0000
 -15  -1   0    5683     316                                                        5446   -1.80   -0.02  1.0000
 -15  -1   0    6579     325                                                        6324   -1.80   -0.02  1.0000
 -15   1   0    6581     300                                                        6324   -1.81    0.00  1.0000
 -15   1   0    6297     335                                                        6046   -1.81    0.00  1.0000
 -17  -1   0    4742     310                                                        4604   -1.14    0.00  1.0000
 -17  -1   0    5131     305                                                        4988   -1.14    0.00  1.0000
 -17   1   0    4936     323                                                        4794   -1.15    0.01  1.0000
 -19  -1   0     924     185                                                         915   -0.17    0.01  1.0000
 -19   1   0    1104     195                                                        1093   -0.18    0.01  1.0000
 -21  -1   0      40     113                                                          48    0.68    0.01  1.0000
 -21   1   0      44     120                                                          52    0.67    0.01  1.0000
 -23  -1   0     137     154                                                         177    1.80    0.01  1.0000
 -23   1   0      76     142                                                         106    1.79    0.00  1.0000
 -25  -1   0     455     203                                                         542    2.22    0.01  1.0000
 -25   1   0     302     187                                                         374    2.21   -0.01  1.0000
   0  -2   0     819      17                                                          31   26.13    0.01  1.0000
   2  -2   0   12881     394                                                       17435   21.02    0.01  1.0000
  -2  -2   0   12757     355                                                       17291   21.02    0.02  1.0000
  -4  -2   0   13572     407                                                       16139   11.95    0.03  1.0000
   4  -2   0   13905     402                                                       16503   11.95    0.01  1.0000
  -4   2   0   14072     398                                                       16685   11.95   -0.01  1.0000
  -6  -2   0    1044     120                                                        1482    7.02    0.02  1.0000
   6  -2   0    1226     113                                                        1699    7.02    0.00  1.0000
  -6   2   0    1292     117                                                        1776    7.02    0.00  1.0000
   8  -2   0     125      41                                                          43    5.23   -0.01  1.0000
  -8  -2   0     125      53                                                          43    5.22    0.02  1.0000
  -8   2   0     156      36                                                          62    5.23    0.01  1.0000
  -8   2   0     194      51                                                          87    5.23    0.01  1.0000
 -10  -2   0    1812     170                                                        2072    3.35    0.04  1.0000
  10  -2   0    1701     141                                                        1954    3.35    0.01  1.0000
 -10   2   0    2182     135                                                        2467    3.35   -0.01  1.0000
 -10   2   0    1977     170                                                        2249    3.35   -0.01  1.0000
  12  -2   0    3053     192                                                        3288    2.37    0.02  1.0000
 -12  -2   0    2914     221                                                        3144    2.36    0.04  1.0000
 -12  -2   0    3270     217                                                        3513    2.36    0.04  1.0000
 -12   2   0    3463     187                                                        3713    2.37   -0.02  1.0000
 -12   2   0    2960     219                                                        3192    2.37   -0.02  1.0000
 -14  -2   0    1134     171                                                        1291    2.55    0.03  1.0000
  14  -2   0    1358     147                                                        1529    2.55    0.01  1.0000
 -14  -2   0    1104     159                                                        1259    2.55    0.03  1.0000
 -14   2   0    1433     149                                                        1609    2.55   -0.01  1.0000
 -14   2   0    1197     176                                                        1358    2.55   -0.01  1.0000
 -16  -2   0    1771     210                                                        1928    2.06    0.01  1.0000
 -16  -2   0    1564     207                                                        1711    2.06    0.01  1.0000
 -16   2   0    1852     218                                                        2012    2.07    0.00  1.0000
 -18  -2   0     618     164                                                         659    0.91    0.01  1.0000
 -18  -2   0     690     166                                                         733    0.91    0.01  1.0000
 -18   2   0     659     159                                                         701    0.92    0.00  1.0000
 -20  -2   0       0      99                                                         -63    0.10    0.02  1.0000
 -20   2   0     106     126                                                         108    0.11    0.00  1.0000
 -22  -2   0       0     123                                                         -65   -0.76    0.02  1.0000
 -22   2   0       0     109                                                        -120   -0.76    0.02  1.0000
 -24  -2   0     307     178                                                         259   -1.63    0.01  1.0000
 -24   2   0     652     213                                                         581   -1.62    0.03  1.0000
 -26  -2   0       2     158                                                        -205   -1.50    0.00  1.0000
 -26   2   0     153     187                                                         122   -1.49    0.02  1.0000
   1  -3   0     911      57                                                         441  -10.40    0.00  1.0000
  -1  -3   0    1056      60                                                         544  -10.40   -0.01  1.0000
  -1  -3   0    1009      54                                                         510  -10.40   -0.01  1.0000
   3  -3   0    2740     160                                                        3387   -6.63   -0.01  1.0000
  -3  -3   0    2810     119                                                        3465   -6.63   -0.02  1.0000
  -3  -3   0    2882     160                                                        3545   -6.63   -0.02  1.0000
  -3   3   0    2958     150                                                        3629   -6.63    0.01  1.0000
   5  -3   0    5174     205                                                        4626   -4.44    0.00  1.0000
  -5  -3   0    5738     129                                                        5159   -4.44   -0.01  1.0000
  -5  -3   0    5715     214                                                        5138   -4.44   -0.01  1.0000
  -5   3   0    5331     199                                                        4774   -4.44    0.00  1.0000
   7  -3   0     493      94                                                         705   -4.92    0.03  1.0000
  -7  -3   0     423      96                                                         621   -4.93    0.00  1.0000
  -7   3   0     423      90                                                         620   -4.92   -0.03  1.0000
  -9  -3   0    3344     195                                                        2866   -4.86   -0.01  1.0000
   9  -3   0    4059     194                                                        3531   -4.86    0.03  1.0000
  -9   3   0    3827     196                                                        3315   -4.86   -0.03  1.0000
 -11  -3   0     232     104                                                         346   -3.80   -0.04  1.0000
  11  -3   0       6      62                                                          34   -3.80    0.00  1.0000
 -11   3   0       2      49                                                          24   -3.80    0.00  1.0000
 -11   3   0     127      89                                                         214   -3.80    0.00  1.0000
  13  -3   0    1168     135                                                         981   -3.23   -0.01  1.0000
 -13  -3   0     827     143                                                         671   -3.24   -0.03  1.0000
 -13   3   0     957     141                                                         789   -3.23    0.01  1.0000
 -15  -3   0       6     103                                                         -25   -2.68    0.00  1.0000
 -15  -3   0      88      80                                                          49   -2.68    0.00  1.0000
  15  -3   0      99      81                                                          58   -2.67    0.00  1.0000
 -15   3   0       6      90                                                         -43   -2.67    0.00  1.0000
 -17  -3   0      55      91                                                          36   -1.60    0.00  1.0000
 -17  -3   0       2      97                                                         -93   -1.60    0.00  1.0000
 -17   3   0       2      85                                                         -29   -1.59   -0.01  1.0000
 -19  -3   0       1     109                                                         -74   -0.91   -0.02  1.0000
 -19  -3   0      45     102                                                          56   -0.91   -0.02  1.0000
 -19   3   0      72     113                                                          86   -0.90   -0.01  1.0000
 -21  -3   0       0     130                                                         -41   -0.62   -0.03  1.0000
 -21  -3   0       0      95                                                        -110   -0.62   -0.03  1.0000
 -21   3   0      25     125                                                          20   -0.61   -0.01  1.0000
 -23  -3   0      60     137                                                          60    0.03   -0.03  1.0000
 -23   3   0      47     147                                                          47    0.03   -0.02  1.0000
 -25  -3   0       0     167                                                         -31    0.57   -0.02  1.0000
 -25   3   0     213     194                                                         228    0.57   -0.02  1.0000
   0  -4   0   12333     299                                                       11411    4.80   -0.01  1.0000
  -2  -4   0    3443     169                                                        3857    3.88    0.00  1.0000
  -2  -4   0    3216     150                                                        3616    3.88    0.00  1.0000
   2  -4   0    3161     176                                                        3558    3.88    0.00  1.0000
  -4  -4   0    3958     135                                                        3634    2.98   -0.01  1.0000
   4  -4   0    4130     192                                                        3799    2.98    0.01  1.0000
  -4   4   0    4050     172                                                        3722    2.98   -0.01  1.0000
  -6  -4   0     886     102                                                         694    3.87   -0.04  1.0000
   6  -4   0     934      99                                                         737    3.86   -0.01  1.0000
  -6  -4   0     822      48                                                         638    3.87   -0.04  1.0000
  -6   4   0     678      85                                                         512    3.86    0.01  1.0000
   8  -4   0       9      48                                                           2    4.92   -0.03  1.0000
  -8  -4   0      45      72                                                         122    4.92   -0.04  1.0000
  -8   4   0       0      52                                                          23    4.92    0.03  1.0000
 -10  -4   0      16      68                                                         -45    4.56    0.00  1.0000
  10  -4   0      39      57                                                           5    4.55   -0.01  1.0000
 -10   4   0      16      51                                                         -16    4.55    0.01  1.0000
 -12  -4   0     112      99                                                          56    3.53    0.01  1.0000
  12  -4   0     337      95                                                         233    3.52    0.01  1.0000
 -12   4   0     191      89                                                         115    3.52   -0.01  1.0000
 -14  -4   0     426     134                                                         340    2.51   -0.01  1.0000
  14  -4   0     320     101                                                         246    2.50    0.00  1.0000
 -14   4   0     236     103                                                         173    2.50    0.00  1.0000
  16  -4   0       6      91                                                          13    1.43   -0.02  1.0000
 -16  -4   0       2     107                                                          -3    1.43   -0.01  1.0000
 -16  -4   0      24      83                                                          38    1.43   -0.01  1.0000
 -16   4   0       2      87                                                         -49    1.43    0.02  1.0000
 -18  -4   0     336     151                                                         306    0.94    0.00  1.0000
 -18  -4   0     326     124                                                         297    0.94    0.00  1.0000
 -18   4   0     394     148                                                         362    0.93    0.02  1.0000
 -20  -4   0     190     125                                                         160    1.28    0.01  1.0000
 -20  -4   0      38     135                                                          25    1.28    0.01  1.0000
 -20   4   0      88     128                                                          68    1.27    0.00  1.0000
 -22  -4   0       2     115                                                         -60    1.43    0.01  1.0000
 -22  -4   0      23     139                                                          37    1.43    0.01  1.0000
 -22   4   0       2     123                                                          -2    1.42   -0.01  1.0000
 -24  -4   0       1     144                                                         -41    0.86    0.01  1.0000
 -24   4   0      23     152                                                          16    0.86   -0.01  1.0000
  -1  -5   0    1637     125                                                        1833   -2.67    0.02  1.0000
  -1  -5   0    1643     130                                                        1840   -2.67    0.02  1.0000
   1  -5   0    1676     115                                                        1875   -2.67    0.02  1.0000
   1  -5   0    1730     142                                                        1932   -2.67    0.02  1.0000
  -3  -5   0     877     107                                                         999   -2.26    0.02  1.0000
   3  -5   0     804     113                                                         921   -2.26    0.00  1.0000
  -3  -5   0     763      86                                                         877   -2.26    0.02  1.0000
  -3   5   0     948      95                                                        1075   -2.26    0.00  1.0000
   5  -5   0    4557     243                                                        4858   -2.49   -0.01  1.0000
  -5  -5   0    4931     180                                                        5244   -2.49    0.04  1.0000
  -5  -5   0    4783     242                                                        5091   -2.49    0.04  1.0000
  -5   5   0    5111     227                                                        5430   -2.49    0.01  1.0000
   7  -5   0    5127     271                                                        5566   -3.40    0.01  1.0000
  -7  -5   0    4748     162                                                        5170   -3.40    0.05  1.0000
  -7  -5   0    5011     271                                                        5445   -3.40    0.05  1.0000
  -7   5   0    4886     250                                                        5314   -3.40   -0.01  1.0000
   9  -5   0     928     142                                                        1145   -3.83    0.01  1.0000
  -9  -5   0     959     153                                                        1179   -3.83    0.01  1.0000
  -9   5   0     967     142                                                        1188   -3.83   -0.01  1.0000
  11  -5   0    1429     180                                                        1645   -3.12   -0.01  1.0000
 -11  -5   0    1384     189                                                        1596   -3.12   -0.02  1.0000
 -11   5   0    1306     172                                                        1513   -3.12    0.01  1.0000
  13  -5   0    2396     226                                                        2546   -1.71   -0.01  1.0000
 -13  -5   0    2052     229                                                        2191   -1.71    0.00  1.0000
 -13   5   0    1830     210                                                        1961   -1.71    0.01  1.0000
 -15  -5   0      41     121                                                          46   -0.40    0.02  1.0000
  15  -5   0      69      95                                                          75   -0.40    0.01  1.0000
 -15   5   0      19     108                                                          22   -0.40   -0.01  1.0000
 -17  -5   0     502     172                                                         502    0.00    0.01  1.0000
 -17  -5   0     570     149                                                         570    0.00    0.01  1.0000
 -17   5   0     296     132                                                         296    0.00   -0.02  1.0000
 -19  -5   0    1236     211                                                        1284   -0.77    0.00  1.0000
 -19  -5   0    1202     226                                                        1249   -0.77    0.00  1.0000
 -19   5   0    1334     239                                                        1384   -0.77   -0.01  1.0000
 -21  -5   0     471     192                                                         539   -1.72    0.01  1.0000
 -21  -5   0     123     136                                                         159   -1.72    0.01  1.0000
 -21   5   0     483     195                                                         552   -1.72    0.00  1.0000
 -23  -5   0      79     156                                                         107   -1.67    0.02  1.0000
 -23  -5   0     100     153                                                         132   -1.67    0.02  1.0000
 -23   5   0       2     162                                                         -29   -1.67    0.01  1.0000
 -25  -5   0      24     169                                                          32   -0.85    0.01  1.0000
 -25   5   0     293     208                                                         319   -0.85    0.02  1.0000
   0  -6   0    1594     130                                                        1465    1.87   -0.02  1.0000
   0  -6   0    1773     124                                                        1637    1.87   -0.02  1.0000
  -2  -6   0    4730     208                                                        4520    1.75   -0.01  1.0000
   2  -6   0    5021     239                                                        4804    1.76   -0.01  1.0000
   2  -6   0    4963     181                                                        4747    1.76   -0.01  1.0000
  -2  -6   0    4877     222                                                        4663    1.75   -0.01  1.0000
   4  -6   0    4558     239                                                        4380    1.51    0.01  1.0000
  -4  -6   0    4427     227                                                        4252    1.51   -0.01  1.0000
  -4  -6   0    4449     189                                                        4274    1.51   -0.01  1.0000
  -4   6   0    4631     205                                                        4451    1.51   -0.01  1.0000
   6  -6   0    6658     309                                                        6440    1.53    0.00  1.0000
  -6  -6   0    6695     303                                                        6477    1.52   -0.01  1.0000
  -6  -6   0    6693     220                                                        6475    1.52   -0.01  1.0000
  -6   6   0    7001     280                                                        6777    1.53    0.00  1.0000
  -8  -6   0    3935     145                                                        3723    1.94    0.00  1.0000
   8  -6   0    4679     261                                                        4446    1.95   -0.01  1.0000
  -8  -6   0    3994     248                                                        3780    1.94    0.00  1.0000
  -8   6   0    4239     237                                                        4018    1.95    0.01  1.0000
 -10  -6   0    2292     214                                                        2135    1.89    0.03  1.0000
  10  -6   0    2747     222                                                        2574    1.90    0.01  1.0000
 -10   6   0    2050     186                                                        1901    1.90   -0.01  1.0000
 -12  -6   0    3342     276                                                        3276    0.65    0.03  1.0000
  12  -6   0    3970     285                                                        3897    0.66    0.02  1.0000
 -12   6   0    3529     262                                                        3460    0.66   -0.02  1.0000
  14  -6   0     590     150                                                         628   -0.86    0.01  1.0000
 -14  -6   0     750     187                                                         793   -0.87    0.00  1.0000
 -14   6   0     634     164                                                         673   -0.86   -0.01  1.0000
 -16  -6   0    1091     214                                                        1165   -1.25   -0.01  1.0000
  16  -6   0    1227     202                                                        1305   -1.24    0.00  1.0000
 -16   6   0    1190     215                                                        1266   -1.24    0.00  1.0000
 -18  -6   0    1353     230                                                        1365   -0.18    0.00  1.0000
 -18  -6   0    1093     193                                                        1104   -0.18    0.00  1.0000
 -18   6   0    1802     260                                                        1815   -0.17    0.00  1.0000
 -20  -6   0    1090     200                                                        1016    1.29    0.00  1.0000
 -20  -6   0    1207     232                                                        1129    1.29    0.00  1.0000
 -20   6   0    1145     249                                                        1069    1.30    0.01  1.0000
 -22  -6   0     303     164                                                         249    1.86   -0.01  1.0000
 -22  -6   0     578     203                                                         502    1.86   -0.01  1.0000
 -22   6   0     244     179                                                         195    1.87    0.02  1.0000
 -24  -6   0       4     172                                                           1    1.15   -0.01  1.0000
 -24  -6   0     346     181                                                         309    1.15   -0.01  1.0000
 -24   6   0     496     226                                                         452    1.15    0.01  1.0000
  -1  -7   0    7527     298                                                        7854   -2.12    0.01  1.0000
  -1  -7   0    7702     318                                                        8033   -2.12    0.01  1.0000
   1  -7   0    7439     328                                                        7764   -2.11    0.00  1.0000
   1  -7   0    7945     281                                                        8281   -2.11    0.00  1.0000
   3  -7   0    4635     265                                                        4867   -1.91   -0.01  1.0000
  -3  -7   0    4185     222                                                        4406   -1.91    0.00  1.0000
   3  -7   0    4449     187                                                        4677   -1.91   -0.01  1.0000
  -3  -7   0    4807     252                                                        5043   -1.91    0.00  1.0000
   5  -7   0    4871     278                                                        5020   -1.20    0.00  1.0000
  -5  -7   0    5409     287                                                        5566   -1.20    0.00  1.0000
  -5  -7   0    5057     222                                                        5209   -1.20    0.00  1.0000
  -5   7   0    4644     234                                                        4790   -1.20    0.00  1.0000
  -7  -7   0    3160     155                                                        3231   -0.71   -0.01  1.0000
  -7  -7   0    2990     236                                                        3059   -0.71   -0.01  1.0000
   7  -7   0    2857     230                                                        2925   -0.72    0.01  1.0000
  -7   7   0    2949     202                                                        3018   -0.72   -0.01  1.0000
  -9  -7   0    2298     228                                                        2357   -0.70   -0.02  1.0000
   9  -7   0    2783     238                                                        2849   -0.70    0.00  1.0000
  -9   7   0    2583     214                                                        2646   -0.70    0.00  1.0000
 -11  -7   0    2802     271                                                        2799    0.03   -0.03  1.0000
  11  -7   0    2864     254                                                        2861    0.03    0.00  1.0000
 -11   7   0    3083     245                                                        3080    0.03    0.00  1.0000
  13  -7   0    1269     196                                                        1176    1.51    0.00  1.0000
 -13  -7   0    1313     210                                                        1218    1.52   -0.02  1.0000
 -13   7   0    1127     180                                                        1039    1.51    0.00  1.0000
  15  -7   0    1483     210                                                        1350    2.01   -0.01  1.0000
 -15  -7   0    1635     239                                                        1495    2.01    0.01  1.0000
 -15   7   0    2274     252                                                        2108    2.01    0.01  1.0000
  17  -7   0    1601     233                                                        1543    0.83   -0.02  1.0000
 -17  -7   0    1781     257                                                        1720    0.83    0.01  1.0000
 -17   7   0    1752     252                                                        1692    0.83    0.02  1.0000
 -19  -7   0    1469     226                                                        1530   -0.90    0.00  1.0000
 -19  -7   0    1494     266                                                        1556   -0.90    0.00  1.0000
 -19   7   0    1185     246                                                        1240   -0.90    0.01  1.0000
 -21  -7   0     532     214                                                         613   -1.91   -0.01  1.0000
 -21  -7   0     947     211                                                        1054   -1.91   -0.01  1.0000
 -21   7   0     511     209                                                         590   -1.91   -0.02  1.0000
 -23  -7   0     516     187                                                         584   -1.65   -0.02  1.0000
 -23  -7   0     563     234                                                         634   -1.65   -0.02  1.0000
 -23   7   0     641     246                                                         717   -1.65   -0.03  1.0000
   0  -8   0   10977     408                                                       10544    2.36    0.00  1.0000
   0  -8   0   11283     368                                                       10844    2.36    0.00  1.0000
   2  -8   0    4166     191                                                        3894    2.42    0.02  1.0000
  -2  -8   0    3762     221                                                        3504    2.43   -0.02  1.0000
  -2  -8   0    4317     230                                                        4040    2.43   -0.02  1.0000
   2  -8   0    4559     253                                                        4275    2.42    0.02  1.0000
  -4  -8   0    4035     244                                                        3821    1.94   -0.01  1.0000
   4  -8   0    4082     257                                                        3867    1.93    0.01  1.0000
  -4  -8   0    4237     216                                                        4017    1.94   -0.01  1.0000
   4  -8   0    4002     170                                                        3789    1.93    0.01  1.0000
  -4   8   0    4128     211                                                        3912    1.93   -0.01  1.0000
   6  -8   0     964     153                                                         917    0.86    0.00  1.0000
  -6  -8   0     959     105                                                         912    0.87   -0.01  1.0000
  -6  -8   0     945     153                                                         899    0.87   -0.01  1.0000
  -6   8   0     962     125                                                         915    0.86    0.00  1.0000
   8  -8   0    1678     200                                                        1648    0.41   -0.01  1.0000
  -8  -8   0    1046     172                                                        1022    0.42    0.00  1.0000
  -8  -8   0    1393     113                                                        1366    0.42    0.00  1.0000
  -8   8   0    1141     144                                                        1116    0.41    0.01  1.0000
 -10  -8   0    1731     227                                                        1714    0.23    0.00  1.0000
  10  -8   0    1902     224                                                        1885    0.22   -0.01  1.0000
 -10   8   0    1818     193                                                        1801    0.22    0.01  1.0000
  12  -8   0     618     166                                                         652   -0.77   -0.02  1.0000
 -12  -8   0     433     168                                                         461   -0.76    0.00  1.0000
 -12   8   0     399     144                                                         427   -0.77    0.02  1.0000
 -14  -8   0    2154     279                                                        2279   -1.50   -0.02  1.0000
  14  -8   0    2611     286                                                        2749   -1.51   -0.01  1.0000
 -14   8   0    2434     260                                                        2567   -1.51    0.01  1.0000
 -16  -8   0    2299     287                                                        2361   -0.73   -0.04  1.0000
  16  -8   0    2331     282                                                        2394   -0.74    0.02  1.0000
 -16   8   0    2085     257                                                        2145   -0.74   -0.02  1.0000
  18  -8   0    1173     228                                                        1131    0.71    0.04  1.0000
 -18  -8   0     348     188                                                         325    0.72   -0.04  1.0000
 -18   8   0     841     211                                                         805    0.71   -0.04  1.0000
 -20  -8   0     568     203                                                         500    1.66   -0.02  1.0000
 -20  -8   0     398     161                                                         342    1.66   -0.02  1.0000
 -20   8   0     595     202                                                         526    1.65   -0.02  1.0000
 -22  -8   0     337     196                                                         280    1.83    0.01  1.0000
 -22  -8   0     537     191                                                         465    1.83    0.01  1.0000
 -22   8   0     776     233                                                         689    1.82    0.01  1.0000
 -24  -8   0       1     175                                                          -9    1.16    0.02  1.0000
 -24  -8   0     313     172                                                         278    1.16    0.02  1.0000
 -24   8   0      94     197                                                          75    1.15    0.01  1.0000
  -1  -9   0    1709     171                                                        1804   -1.28    0.02  1.0000
   1  -9   0    1741     154                                                        1836   -1.28   -0.01  1.0000
   1  -9   0    1757     191                                                        1853   -1.28   -0.01  1.0000
  -1  -9   0    1630     179                                                        1722   -1.28    0.02  1.0000
  -3  -9   0    3006     216                                                        3152   -1.49    0.03  1.0000
   3  -9   0    3357     264                                                        3511   -1.49   -0.02  1.0000
  -3  -9   0    3672     247                                                        3833   -1.49    0.03  1.0000
   3  -9   0    3224     181                                                        3375   -1.49   -0.02  1.0000
   5  -9   0     263     117                                                         290   -0.91    0.00  1.0000
   5  -9   0     428      68                                                         462   -0.91    0.00  1.0000
  -5  -9   0     415     135                                                         448   -0.91    0.02  1.0000
  -5  -9   0     341      93                                                         371   -0.91    0.02  1.0000
  -5   9   0     365      96                                                         396   -0.91    0.00  1.0000
  -7  -9   0     887     171                                                         908   -0.39    0.01  1.0000
  -7  -9   0     761     106                                                         780   -0.39    0.01  1.0000
   7  -9   0    1011     178                                                        1033   -0.39    0.00  1.0000
  -7   9   0     778     129                                                         797   -0.39    0.00  1.0000
   9  -9   0     393     145                                                         421   -0.80    0.00  1.0000
  -9  -9   0     402     156                                                         431   -0.80    0.01  1.0000
  -9   9   0     255     107                                                         278   -0.80    0.00  1.0000
  11  -9   0     132     116                                                         151   -0.92    0.01  1.0000
 -11  -9   0      69     123                                                          83   -0.93    0.02  1.0000
 -11   9   0      87     101                                                         103   -0.92   -0.01  1.0000
  13  -9   0    1540     237                                                        1565   -0.37    0.01  1.0000
 -13  -9   0    1306     232                                                        1330   -0.37    0.03  1.0000
 -13   9   0    1520     212                                                        1545   -0.37   -0.01  1.0000
 