####################################################################### 
# 
# This file contains crystal structure data downloaded from the 
# Cambridge Structural Database (CSD) hosted by the Cambridge 
# Crystallographic Data Centre (CCDC).
# 
# Full information about CCDC data access policies and citation 
# guidelines are available at http://www.ccdc.cam.ac.uk/access/V1 
# 
# Audit and citation data items may have been added by the CCDC. 
# Please retain this information to preserve the provenance of 
# this file and to allow appropriate attribution of the data. 
# 
#######################################################################

data_13-1-cc2
_audit_block_doi                 10.5517/cc1jbvj7
_database_code_depnum_ccdc_archive 'CCDC 1410609'
loop_
_citation_id
_citation_doi
_citation_year
1 10.1039/C5RA14948G 2015
_audit_update_record             
;
2015-08-30 deposited with the CCDC.	2024-07-14 downloaded from the CCDC.
;
_audit_creation_date             2015-08-30
_audit_creation_method           
;
Olex2 1.2-beta
(compiled 2015.08.17 svn.r3210 for OlexSys, GUI svn.r5083)
;
_shelxl_version_number           2014-3
_chemical_name_common            ?
_chemical_name_systematic        
;
 ? 
;
_chemical_formula_moiety         '0.5(C32 H24 Cd2 N20 O8)'
_chemical_formula_sum            'C16 H12 Cd N10 O4'
_chemical_formula_weight         520.76
_chemical_melting_point          ?
loop_
_atom_type_symbol
_atom_type_description
_atom_type_scat_dispersion_real
_atom_type_scat_dispersion_imag
_atom_type_scat_source
C C 0.0033 0.0016 'International Tables Vol C Tables 4.2.6.8 and 6.1.1.4'
H H 0.0000 0.0000 'International Tables Vol C Tables 4.2.6.8 and 6.1.1.4'
N N 0.0061 0.0033 'International Tables Vol C Tables 4.2.6.8 and 6.1.1.4'
O O 0.0106 0.0060 'International Tables Vol C Tables 4.2.6.8 and 6.1.1.4'
Cd Cd -0.8075 1.2024 'International Tables Vol C Tables 4.2.6.8 and 6.1.1.4'

_shelx_space_group_comment       
;
The symmetry employed for this shelxl refinement is uniquely defined
by the following loop, which should always be used as a source of
symmetry information in preference to the above space-group names.
They are only intended as comments.
;
_space_group_crystal_system      monoclinic
_space_group_IT_number           15
_space_group_name_H-M_alt        'C 1 2/c 1'
_space_group_name_Hall           '-C 2yc'
loop_
_space_group_symop_operation_xyz
'x, y, z'
'-x, y, -z+1/2'
'x+1/2, y+1/2, z'
'-x+1/2, y+1/2, -z+1/2'
'-x, -y, -z'
'x, -y, z-1/2'
'-x+1/2, -y+1/2, -z'
'x+1/2, -y+1/2, z-1/2'

_cell_length_a                   21.091(9)
_cell_length_b                   14.402(7)
_cell_length_c                   7.062(3)
_cell_angle_alpha                90
_cell_angle_beta                 93.230(10)
_cell_angle_gamma                90
_cell_volume                     2141.7(17)
_cell_formula_units_Z            4
_cell_measurement_reflns_used    2376
_cell_measurement_temperature    296(2)
_cell_measurement_theta_max      28.60
_cell_measurement_theta_min      1.93
_shelx_estimated_absorpt_T_max   0.883
_shelx_estimated_absorpt_T_min   0.848
_exptl_absorpt_coefficient_mu    1.064
_exptl_absorpt_correction_T_max  0.8829
_exptl_absorpt_correction_T_min  0.8482
_exptl_absorpt_correction_type   none
_exptl_absorpt_process_details   ?
_exptl_crystal_colour            colorless
_exptl_crystal_density_diffrn    1.615
_exptl_crystal_density_meas      ?
_exptl_crystal_density_method    'not measured'
_exptl_crystal_description       block
_exptl_crystal_F_000             1032
_exptl_crystal_size_max          0.16
_exptl_crystal_size_mid          0.15
_exptl_crystal_size_min          0.12
_exptl_special_details           
;
 ? 
;
_exptl_transmission_factor_max   ?
_exptl_transmission_factor_min   ?
_diffrn_reflns_av_R_equivalents  0.0290
_diffrn_reflns_av_unetI/netI     0.0382
_diffrn_reflns_Laue_measured_fraction_full 0.998
_diffrn_reflns_Laue_measured_fraction_max 0.971
_diffrn_reflns_limit_h_max       17
_diffrn_reflns_limit_h_min       -27
_diffrn_reflns_limit_k_max       19
_diffrn_reflns_limit_k_min       -18
_diffrn_reflns_limit_l_max       9
_diffrn_reflns_limit_l_min       -9
_diffrn_reflns_number            6837
_diffrn_reflns_point_group_measured_fraction_full 0.998
_diffrn_reflns_point_group_measured_fraction_max 0.971
_diffrn_reflns_theta_full        25.242
_diffrn_reflns_theta_max         28.598
_diffrn_reflns_theta_min         1.934
_diffrn_ambient_temperature      296.15
_diffrn_detector_area_resol_mean ?
_diffrn_measured_fraction_theta_full 0.998
_diffrn_measured_fraction_theta_max 0.971
_diffrn_measurement_device_type  'CCD area detector'
_diffrn_measurement_method       'phi and omega scans'
_diffrn_radiation_monochromator  graphite
_diffrn_radiation_type           MoK\a
_diffrn_radiation_wavelength     0.71073
_diffrn_source                   ?
_reflns_Friedel_coverage         0.000
_reflns_Friedel_fraction_full    .
_reflns_Friedel_fraction_max     .
_reflns_number_gt                2376
_reflns_number_total             2667
_reflns_special_details          
;
 Reflections were merged by SHELXL according to the crystal
 class for the calculation of statistics and refinement.
 
 _reflns_Friedel_fraction is defined as the number of unique
 Friedel pairs measured divided by the number that would be
 possible theoretically, ignoring centric projections and
 systematic absences.
;
_reflns_threshold_expression     'I > 2\s(I)'
_computing_cell_refinement       'Bruker XSCANS'
_computing_data_collection       'Bruker XSCANS'
_computing_data_reduction        'Bruker SHELXTL'
_computing_molecular_graphics    'Olex2 (Dolomanov et al., 2009)'
_computing_publication_material  'Olex2 (Dolomanov et al., 2009)'
_computing_structure_refinement  'ShelXL (Sheldrick, 2015)'
_computing_structure_solution    'Bruker SHELXTL'
_refine_diff_density_max         0.488
_refine_diff_density_min         -0.310
_refine_diff_density_rms         0.079
_refine_ls_extinction_coef       .
_refine_ls_extinction_method     none
_refine_ls_goodness_of_fit_ref   1.113
_refine_ls_hydrogen_treatment    constr
_refine_ls_matrix_type           full
_refine_ls_number_parameters     142
_refine_ls_number_reflns         2667
_refine_ls_number_restraints     0
_refine_ls_R_factor_all          0.0331
_refine_ls_R_factor_gt           0.0284
_refine_ls_restrained_S_all      1.113
_refine_ls_shift/su_max          0.001
_refine_ls_shift/su_mean         0.000
_refine_ls_structure_factor_coef Fsqd
_refine_ls_weighting_details     
'w=1/[\s^2^(Fo^2^)+(0.0255P)^2^+2.9712P] where P=(Fo^2^+2Fc^2^)/3'
_refine_ls_weighting_scheme      calc
_refine_ls_wR_factor_gt          0.0727
_refine_ls_wR_factor_ref         0.0750
_refine_special_details          SQUEEZE
_olex2_refinement_description    
;
1. Fixed Uiso
 At 1.2 times of:
  All C(H) groups
 At 1.5 times of:
  All N(H) groups, All O(H) groups
2.a Aromatic/amide H refined with riding coordinates:
 N1(H1), C3(H3), C4(H4), C5(H5), C6(H6)
2.b Idealised tetrahedral OH refined as rotating group:
 O1(H1A)
;
_atom_sites_solution_hydrogens   geom
_atom_sites_solution_primary     ?
_atom_sites_solution_secondary   ?
loop_
_atom_site_label
_atom_site_type_symbol
_atom_site_fract_x
_atom_site_fract_y
_atom_site_fract_z
_atom_site_U_iso_or_equiv
_atom_site_adp_type
_atom_site_occupancy
_atom_site_site_symmetry_order
_atom_site_calc_flag
_atom_site_refinement_flags_posn
_atom_site_refinement_flags_adp
_atom_site_refinement_flags_occupancy
_atom_site_disorder_assembly
_atom_site_disorder_group
Cd1 Cd 1.0000 0.42047(2) 0.7500 0.02690(9) Uani 1 2 d S T P . .
N1 N 0.86001(12) 0.29141(18) 0.8625(3) 0.0436(6) Uani 1 1 d . . . . .
H1 H 0.8284 0.2586 0.8957 0.065 Uiso 1 1 calc R . . . .
N2 N 0.93535(10) 0.40466(15) 0.9914(3) 0.0299(5) Uani 1 1 d . . . . .
N3 N 0.93085(10) 0.46536(16) 1.1336(3) 0.0326(5) Uani 1 1 d . . . . .
N4 N 0.87664(12) 0.45566(19) 1.2110(4) 0.0426(6) Uani 1 1 d . . . . .
N5 N 0.84384(12) 0.3891(2) 1.1198(4) 0.0450(7) Uani 1 1 d . . . . .
O1 O 0.76877(11) 0.17484(19) 0.7975(3) 0.0579(7) Uani 1 1 d . . . . .
H1A H 0.7347 0.1483 0.8062 0.087 Uiso 1 1 calc GR . . . .
O2 O 0.93172(10) 0.30501(15) 0.6404(3) 0.0474(6) Uani 1 1 d . . . . .
C1 C 0.84613(15) 0.2025(2) 0.5750(4) 0.0394(7) Uani 1 1 d . . . . .
C2 C 0.78964(15) 0.1609(2) 0.6247(4) 0.0408(7) Uani 1 1 d . . . . .
C3 C 0.75604(18) 0.1052(2) 0.4947(5) 0.0507(8) Uani 1 1 d . . . . .
H3 H 0.7179 0.0784 0.5263 0.061 Uiso 1 1 calc R . . . .
C4 C 0.7785(2) 0.0896(3) 0.3211(5) 0.0658(11) Uani 1 1 d . . . . .
H4 H 0.7553 0.0526 0.2344 0.079 Uiso 1 1 calc R . . . .
C5 C 0.8354(2) 0.1279(3) 0.2711(5) 0.0735(13) Uani 1 1 d . . . . .
H5 H 0.8512 0.1152 0.1536 0.088 Uiso 1 1 calc R . . . .
C6 C 0.86804(18) 0.1847(3) 0.3981(5) 0.0567(9) Uani 1 1 d . . . . .
H6 H 0.9058 0.2119 0.3642 0.068 Uiso 1 1 calc R . . . .
C7 C 0.88337(14) 0.2699(2) 0.6948(4) 0.0374(6) Uani 1 1 d . . . . .
C8 C 0.88079(13) 0.3598(2) 0.9870(4) 0.0338(6) Uani 1 1 d . . . . .

loop_
_atom_site_aniso_label
_atom_site_aniso_U_11
_atom_site_aniso_U_22
_atom_site_aniso_U_33
_atom_site_aniso_U_23
_atom_site_aniso_U_13
_atom_site_aniso_U_12
Cd1 0.01993(14) 0.02894(15) 0.03255(16) 0.000 0.00784(10) 0.000
N1 0.0400(14) 0.0548(16) 0.0376(14) -0.0126(11) 0.0153(11) -0.0256(12)
N2 0.0252(11) 0.0353(12) 0.0298(12) -0.0006(9) 0.0058(9) -0.0063(9)
N3 0.0267(11) 0.0405(13) 0.0312(12) -0.0058(10) 0.0065(9) -0.0069(10)
N4 0.0317(13) 0.0551(15) 0.0423(15) -0.0151(12) 0.0138(11) -0.0160(12)
N5 0.0345(13) 0.0603(16) 0.0417(14) -0.0144(12) 0.0155(11) -0.0223(12)
O1 0.0510(14) 0.0802(18) 0.0444(13) -0.0202(12) 0.0186(10) -0.0397(13)
O2 0.0437(12) 0.0534(13) 0.0469(13) -0.0146(10) 0.0192(10) -0.0221(11)
C1 0.0430(17) 0.0424(16) 0.0333(15) -0.0053(12) 0.0065(12) -0.0141(13)
C2 0.0433(17) 0.0448(17) 0.0345(16) -0.0019(12) 0.0045(13) -0.0151(14)
C3 0.056(2) 0.0496(18) 0.0461(19) 0.0002(14) -0.0015(15) -0.0234(16)
C4 0.088(3) 0.066(2) 0.042(2) -0.0110(17) -0.0049(19) -0.030(2)
C5 0.100(3) 0.083(3) 0.039(2) -0.0194(19) 0.018(2) -0.036(3)
C6 0.064(2) 0.065(2) 0.0430(19) -0.0094(16) 0.0180(16) -0.0253(19)
C7 0.0377(16) 0.0391(15) 0.0362(15) -0.0052(12) 0.0085(12) -0.0102(13)
C8 0.0309(14) 0.0403(15) 0.0309(14) -0.0021(11) 0.0080(11) -0.0131(12)

_geom_special_details            
;
 All esds (except the esd in the dihedral angle between two l.s. planes)
 are estimated using the full covariance matrix.  The cell esds are taken
 into account individually in the estimation of esds in distances, angles
 and torsion angles; correlations between esds in cell parameters are only
 used when they are defined by crystal symmetry.  An approximate (isotropic)
 treatment of cell esds is used for estimating esds involving l.s. planes.
;
loop_
_geom_bond_atom_site_label_1
_geom_bond_atom_site_label_2
_geom_bond_distance
_geom_bond_site_symmetry_2
_geom_bond_publ_flag
Cd1 N2 2.253(2) 2_756 ?
Cd1 N2 2.253(2) . ?
Cd1 N3 2.318(2) 6_565 ?
Cd1 N3 2.318(2) 5_767 ?
Cd1 O2 2.305(2) 2_756 ?
Cd1 O2 2.305(2) . ?
N1 H1 0.8600 . ?
N1 C7 1.344(4) . ?
N1 C8 1.375(3) . ?
N2 N3 1.339(3) . ?
N2 C8 1.319(3) . ?
N3 Cd1 2.317(2) 5_767 ?
N3 N4 1.302(3) . ?
N4 N5 1.327(3) . ?
N5 C8 1.322(4) . ?
O1 H1A 0.8200 . ?
O1 C2 1.336(3) . ?
O2 C7 1.219(3) . ?
C1 C2 1.396(4) . ?
C1 C6 1.381(4) . ?
C1 C7 1.483(4) . ?
C2 C3 1.384(4) . ?
C3 H3 0.9300 . ?
C3 C4 1.357(5) . ?
C4 H4 0.9300 . ?
C4 C5 1.383(6) . ?
C5 H5 0.9300 . ?
C5 C6 1.371(5) . ?
C6 H6 0.9300 . ?

loop_
_geom_angle_atom_site_label_1
_geom_angle_atom_site_label_2
_geom_angle_atom_site_label_3
_geom_angle
_geom_angle_site_symmetry_1
_geom_angle_site_symmetry_3
_geom_angle_publ_flag
N2 Cd1 N2 168.40(11) 2_756 . ?
N2 Cd1 N3 101.47(8) 2_756 6_565 ?
N2 Cd1 N3 86.82(8) . 6_565 ?
N2 Cd1 N3 86.82(8) 2_756 5_767 ?
N2 Cd1 N3 101.48(8) . 5_767 ?
N2 Cd1 O2 77.76(8) 2_756 2_756 ?
N2 Cd1 O2 93.80(8) 2_756 . ?
N2 Cd1 O2 93.80(8) . 2_756 ?
N2 Cd1 O2 77.76(8) . . ?
N3 Cd1 N3 89.62(12) 5_767 6_565 ?
O2 Cd1 N3 91.37(9) . 6_565 ?
O2 Cd1 N3 91.37(9) 2_756 5_767 ?
O2 Cd1 N3 178.71(8) . 5_767 ?
O2 Cd1 N3 178.71(8) 2_756 6_565 ?
O2 Cd1 O2 87.65(13) 2_756 . ?
C7 N1 H1 116.3 . . ?
C7 N1 C8 127.5(2) . . ?
C8 N1 H1 116.3 . . ?
N3 N2 Cd1 124.95(16) . . ?
C8 N2 Cd1 126.61(18) . . ?
C8 N2 N3 103.8(2) . . ?
N2 N3 Cd1 131.26(16) . 5_767 ?
N4 N3 Cd1 118.50(18) . 5_767 ?
N4 N3 N2 110.2(2) . . ?
N3 N4 N5 108.7(2) . . ?
C8 N5 N4 105.2(2) . . ?
C2 O1 H1A 109.5 . . ?
C7 O2 Cd1 135.29(19) . . ?
C2 C1 C7 124.7(3) . . ?
C6 C1 C2 118.8(3) . . ?
C6 C1 C7 116.4(3) . . ?
O1 C2 C1 119.6(3) . . ?
O1 C2 C3 120.7(3) . . ?
C3 C2 C1 119.6(3) . . ?
C2 C3 H3 119.9 . . ?
C4 C3 C2 120.2(3) . . ?
C4 C3 H3 119.9 . . ?
C3 C4 H4 119.5 . . ?
C3 C4 C5 121.1(3) . . ?
C5 C4 H4 119.5 . . ?
C4 C5 H5 120.6 . . ?
C6 C5 C4 118.8(3) . . ?
C6 C5 H5 120.6 . . ?
C1 C6 H6 119.3 . . ?
C5 C6 C1 121.4(3) . . ?
C5 C6 H6 119.3 . . ?
N1 C7 C1 116.4(2) . . ?
O2 C7 N1 122.5(3) . . ?
O2 C7 C1 121.1(3) . . ?
N2 C8 N1 127.7(3) . . ?
N2 C8 N5 112.1(2) . . ?
N5 C8 N1 120.2(2) . . ?
loop_
_platon_squeeze_void_nr
_platon_squeeze_void_average_x
_platon_squeeze_void_average_y
_platon_squeeze_void_average_z
_platon_squeeze_void_volume
_platon_squeeze_void_count_electrons
_platon_squeeze_void_content
1 0.000 0.000 -0.032 218 24 ' '
2 0.500 0.500 -0.043 218 24 ' '
3 0.000 0.308 0.250 6 0 ' '
4 0.500 0.808 0.250 6 0 ' '
5 0.500 0.192 0.750 5 0 ' '
6 0.000 0.692 0.750 5 0 ' '
_platon_squeeze_details          
;
;

_shelx_res_file                  
;
TITL 13-1-cc2 in C2/c
CELL 0.71073 21.091 14.402 7.062 90 93.23 90
ZERR 4 0.009 0.007 0.003 0 0.01 0
LATT 7
SYMM -X,+Y,0.5-Z
SFAC C H N O Cd
UNIT 64 48 40 16 4

L.S. 6
PLAN  5
SIZE 0.16 0.15 0.12
TEMP 23
BOND $H
HTAB
fmap 2
acta
REM <olex2.extras>
REM <HklSrc "%.\\13-1-cc2.hkl">
REM </olex2.extras>

WGHT    0.025500    2.971200
FVAR       0.72625
CD1   5    1.000000    0.420471    0.750000    10.50000    0.01993    0.02894 =
         0.03255    0.00000    0.00784    0.00000
N1    3    0.860012    0.291406    0.862479    11.00000    0.04001    0.05479 =
         0.03758   -0.01258    0.01535   -0.02558
AFIX  43
H1    2    0.828436    0.258601    0.895749    11.00000   -1.50000
AFIX   0
N2    3    0.935349    0.404658    0.991350    11.00000    0.02524    0.03529 =
         0.02976   -0.00061    0.00578   -0.00627
N3    3    0.930852    0.465363    1.133602    11.00000    0.02674    0.04051 =
         0.03122   -0.00580    0.00652   -0.00693
N4    3    0.876643    0.455661    1.210966    11.00000    0.03173    0.05514 =
         0.04232   -0.01514    0.01382   -0.01605
N5    3    0.843837    0.389127    1.119797    11.00000    0.03455    0.06029 =
         0.04166   -0.01443    0.01551   -0.02234
O1    4    0.768774    0.174837    0.797541    11.00000    0.05102    0.08017 =
         0.04436   -0.02016    0.01862   -0.03968
AFIX 147
H1A   2    0.734666    0.148286    0.806175    11.00000   -1.50000
AFIX   0
O2    4    0.931724    0.305007    0.640369    11.00000    0.04365    0.05345 =
         0.04689   -0.01462    0.01915   -0.02205
C1    1    0.846134    0.202544    0.575032    11.00000    0.04300    0.04238 =
         0.03332   -0.00533    0.00650   -0.01415
C2    1    0.789639    0.160883    0.624700    11.00000    0.04330    0.04482 =
         0.03454   -0.00189    0.00455   -0.01514
C3    1    0.756043    0.105204    0.494660    11.00000    0.05577    0.04960 =
         0.04610    0.00019   -0.00146   -0.02344
AFIX  43
H3    2    0.717946    0.078378    0.526264    11.00000   -1.20000
AFIX   0
C4    1    0.778523    0.089623    0.321122    11.00000    0.08806    0.06587 =
         0.04246   -0.01095   -0.00492   -0.03028
AFIX  43
H4    2    0.755313    0.052630    0.234383    11.00000   -1.20000
AFIX   0
C5    1    0.835383    0.127857    0.271145    11.00000    0.09980    0.08289 =
         0.03941   -0.01942    0.01818   -0.03577
AFIX  43
H5    2    0.851173    0.115198    0.153555    11.00000   -1.20000
AFIX   0
C6    1    0.868036    0.184738    0.398062    11.00000    0.06388    0.06484 =
         0.04299   -0.00943    0.01800   -0.02525
AFIX  43
H6    2    0.905761    0.211924    0.364223    11.00000   -1.20000
AFIX   0
C7    1    0.883373    0.269946    0.694789    11.00000    0.03765    0.03910 =
         0.03616   -0.00523    0.00854   -0.01022
C8    1    0.880785    0.359787    0.987012    11.00000    0.03087    0.04033 =
         0.03090   -0.00209    0.00796   -0.01307
HKLF 4

REM  13-1-cc2 in C2/c
REM R1 =  0.0284 for    2376 Fo > 4sig(Fo)  and  0.0331 for all    2667 data
REM    142 parameters refined using      0 restraints

END

WGHT      0.0242      2.8650

REM Instructions for potential hydrogen bonds
HTAB N1 O1
EQIV $1 -x+3/2, -y+1/2, -z+2
HTAB O1 N5_$1

REM Highest difference peak  0.488,  deepest hole -0.310,  1-sigma level  0.079
Q1    1   0.8855  0.0834  0.0914  11.00000  0.05    0.49
Q2    1   1.0434  0.4168  0.7847  11.00000  0.05    0.45
Q3    1   1.0186  0.4636  0.8008  11.00000  0.05    0.39
Q4    1   1.0000 -0.0022  0.2500  10.50000  0.05    0.28
Q5    1   0.8098  0.3783  1.1278  11.00000  0.05    0.28
;
_shelx_res_checksum              4831
_shelx_hkl_file                  
;
  -2   0   0    1055       1                                                           0   44.38    0.00  1.0000
  -4   0   0     249      49                                                        1601   33.10    0.00  1.0000
  -6   0   0    2867     128                                                        4819   21.69    0.00  1.0000
  -6   0   0    2880     125                                                        4836   21.69    0.00  1.0000
  -8   0   0   23816     602                                                       26646   12.18    0.00  1.0000
  -8   0   0   22937     608                                                       25716   12.18    0.00  1.0000
 -10   0   0      51      19                                                         120    5.24    0.00  1.0000
 -10   0   0      63      19                                                         139    5.24    0.00  1.0000
 -12   0   0    5667     174                                                        5874    1.86    0.00  1.0000
 -12   0   0    5764     167                                                        5973    1.86    0.00  1.0000
 -14   0   0   17415     443                                                       17621    1.06    0.00  1.0000
 -14   0   0   17263     430                                                       17468    1.06    0.00  1.0000
 -16   0   0    9453     269                                                        9583    0.91    0.00  1.0000
 -16   0   0    8804     253                                                        8929    0.91    0.00  1.0000
 -18   0   0    5677     196                                                        5757    0.73    0.00  1.0000
 -18   0   0    5824     186                                                        5905    0.73    0.00  1.0000
 -20   0   0     962      73                                                         980    0.39    0.00  1.0000
 -20   0   0     924      66                                                         941    0.39    0.00  1.0000
 -22   0   0     357      51                                                         355   -0.09    0.00  1.0000
 -22   0   0     343      48                                                         341   -0.09    0.00  1.0000
  -3  -1   0   14236     210                                                        8888   34.22    0.00  1.0000
  -3   1   0   13982     207                                                        8687   34.22    0.00  1.0000
  -5  -1   0     357      49                                                        1354   24.48    0.00  1.0000
  -5   1   0     339      46                                                        1320   24.48    0.00  1.0000
  -5   1   0     305      45                                                        1251   24.48    0.00  1.0000
  -7  -1   0   10164     205                                                        7965   15.81    0.00  1.0000
  -7  -1   0   10091     197                                                        7900   15.81    0.00  1.0000
  -7   1   0   10215     202                                                        8010   15.81    0.00  1.0000
  -7   1   0   10453     202                                                        8221   15.81    0.00  1.0000
  -9  -1   0    1681      47                                                        1201    8.67    0.00  1.0000
  -9  -1   0    1584      52                                                        1119    8.67    0.00  1.0000
  -9   1   0    1517      49                                                        1063    8.67    0.00  1.0000
  -9   1   0    1590      50                                                        1124    8.67    0.00  1.0000
 -11  -1   0    6617     177                                                        6143    4.06    0.00  1.0000
 -11  -1   0    6558     167                                                        6086    4.06    0.00  1.0000
 -11   1   0    6630     175                                                        6155    4.06    0.00  1.0000
 -11   1   0    6607     171                                                        6133    4.06    0.00  1.0000
 -13  -1   0    4462     130                                                        4242    2.28    0.00  1.0000
 -13  -1   0    4564     142                                                        4342    2.28    0.00  1.0000
 -13   1   0    4306     135                                                        4090    2.28    0.00  1.0000
 -13   1   0    4662     141                                                        4437    2.28    0.00  1.0000
 -15  -1   0   10490     270                                                       10233    1.73    0.00  1.0000
 -15  -1   0   10482     285                                                       10225    1.73    0.00  1.0000
 -15   1   0   10655     284                                                       10396    1.73    0.00  1.0000
 -15   1   0   10221     276                                                        9967    1.73    0.00  1.0000
 -17  -1   0    4857     153                                                        4731    1.24    0.00  1.0000
 -17  -1   0    4847     166                                                        4721    1.24    0.00  1.0000
 -17   1   0    4858     166                                                        4732    1.24    0.00  1.0000
 -17   1   0    4955     161                                                        4828    1.24    0.00  1.0000
 -19  -1   0    2034      92                                                        1985    0.74    0.00  1.0000
 -19  -1   0    1953     102                                                        1905    0.74    0.00  1.0000
 -19   1   0    1892      94                                                        1845    0.74    0.00  1.0000
 -19   1   0    1953     100                                                        1905    0.74    0.00  1.0000
 -21  -1   0     606      62                                                         599    0.19    0.00  1.0000
 -21  -1   0     395      49                                                         390    0.19    0.00  1.0000
 -21   1   0     426      54                                                         420    0.19    0.00  1.0000
 -21   1   0     460      54                                                         454    0.19    0.00  1.0000
 -23  -1   0     600      69                                                         607   -0.18    0.00  1.0000
 -23   1   0     723      69                                                         730   -0.18    0.00  1.0000
 -25  -1   0    1238      97                                                        1241   -0.06    0.00  1.0000
   0  -2   0       5      19                                                         559   29.21    0.00  1.0000
  -2  -2   0   13715     433                                                       18701   26.84    0.00  1.0000
  -2   2   0   13987     434                                                       19019   26.84    0.00  1.0000
  -4  -2   0   12813     428                                                       16682   21.81    0.00  1.0000
  -4   2   0   15234     426                                                       19429   21.81    0.00  1.0000
  -4   2   0   15010     428                                                       19176   21.81    0.00  1.0000
  -6  -2   0    1370      80                                                        2430   16.77    0.00  1.0000
  -6  -2   0    1324      71                                                        2368   16.77    0.00  1.0000
  -6   2   0    1398      79                                                        2467   16.77    0.00  1.0000
  -6   2   0    1412      74                                                        2485   16.77    0.00  1.0000
  -8  -2   0     489      46                                                         950   11.90    0.00  1.0000
  -8  -2   0     437      38                                                         877   11.90    0.00  1.0000
  -8   2   0     401      44                                                         826   11.90    0.00  1.0000
  -8   2   0     425      41                                                         860   11.90    0.00  1.0000
 -10  -2   0    4259     138                                                        5009    7.54    0.00  1.0000
 -10  -2   0    4223     150                                                        4970    7.54    0.00  1.0000
 -10   2   0    4327     146                                                        5083    7.54    0.00  1.0000
 -10   2   0    4229     147                                                        4977    7.54    0.00  1.0000
 -12  -2   0    2723     110                                                        3107    4.86    0.00  1.0000
 -12  -2   0    2656      99                                                        3035    4.86    0.00  1.0000
 -12   2   0    2676     108                                                        3056    4.86    0.00  1.0000
 -12   2   0    2669     107                                                        3049    4.86    0.00  1.0000
 -14  -2   0    1121      60                                                        1300    3.52    0.00  1.0000
 -14  -2   0    1164      72                                                        1346    3.52    0.00  1.0000
 -14   2   0    1192      70                                                        1376    3.52    0.00  1.0000
 -14   2   0    1117      68                                                        1296    3.52    0.00  1.0000
 -16  -2   0    1772      94                                                        1923    2.40    0.00  1.0000
 -16  -2   0    1878      83                                                        2033    2.40    0.00  1.0000
 -16   2   0    1819      92                                                        1972    2.40    0.00  1.0000
 -16   2   0    1772      91                                                        1923    2.40    0.00  1.0000
 -18  -2   0    1130      68                                                        1198    1.36    0.00  1.0000
 -18  -2   0    1188      79                                                        1257    1.36    0.00  1.0000
 -18   2   0    1058      73                                                        1124    1.36    0.00  1.0000
 -18   2   0    1231      79                                                        1302    1.36    0.00  1.0000
 -20  -2   0     384      45                                                         401    0.57    0.00  1.0000
 -20  -2   0     535      59                                                         555    0.57    0.00  1.0000
 -20   2   0     448      52                                                         466    0.57    0.00  1.0000
 -20   2   0     439      52                                                         457    0.57    0.00  1.0000
 -22  -2   0     360      52                                                         362    0.08    0.00  1.0000
 -22   2   0     329      51                                                         331    0.08    0.00  1.0000
 -24  -2   0     477      65                                                         476   -0.04    0.00  1.0000
 -24   2   0     659      70                                                         657   -0.04    0.00  1.0000
 -26  -2   0     353      63                                                         353    0.00    0.00  1.0000
  -1  -3   0     195       5                                                           5   16.02    0.00  1.0000
   1  -3   0     195       3                                                           5   16.02    0.00  1.0000
   1   3   0     283       7                                                          26   16.02    0.00  1.0000
  -1   3   0     243       9                                                          15   16.02    0.00  1.0000
  -3  -3   0    2525      98                                                        3759   15.12    0.00  1.0000
  -3   3   0    2181      89                                                        3337   15.12    0.00  1.0000
   3   3   0    2186      85                                                        3343   15.12    0.00  1.0000
  -3   3   0    2142      98                                                        3289   15.12    0.00  1.0000
  -5  -3   0    4025      90                                                        2821   14.11    0.00  1.0000
  -5   3   0    4050      80                                                        2842   14.11    0.00  1.0000
  -5   3   0    4114      92                                                        2896   14.11    0.00  1.0000
  -7  -3   0     242      38                                                         612   12.53    0.00  1.0000
  -7   3   0     165      29                                                         484   12.53    0.00  1.0000
  -7   3   0     182      36                                                         513   12.53    0.00  1.0000
  -9  -3   0    1386      51                                                         902    9.83    0.00  1.0000
  -9  -3   0    1370      40                                                         889    9.83    0.00  1.0000
  -9   3   0    1461      46                                                         963    9.83    0.00  1.0000
  -9   3   0    1501      52                                                         995    9.83    0.00  1.0000
 -11  -3   0     213      37                                                         391    7.06    0.00  1.0000
 -11  -3   0     199      27                                                         371    7.06    0.00  1.0000
 -11   3   0     214      33                                                         392    7.06    0.00  1.0000
 -11   3   0     233      38                                                         418    7.06    0.00  1.0000
 -13  -3   0     444      28                                                         301    5.09    0.00  1.0000
 -13  -3   0     509      37                                                         355    5.09    0.00  1.0000
 -13   3   0     466      37                                                         319    5.09    0.00  1.0000
 -13   3   0     498      35                                                         346    5.09    0.00  1.0000
 -15  -3   0     118      32                                                         180    3.48    0.00  1.0000
 -15  -3   0      75      21                                                         126    3.48    0.00  1.0000
 -15   3   0      37      26                                                          75    3.48    0.00  1.0000
 -15   3   0      76      26                                                         127    3.48    0.00  1.0000
 -17  -3   0      40      16                                                          24    1.99    0.00  1.0000
 -17  -3   0      23      21                                                          11    1.99    0.00  1.0000
 -17   3   0      26      24                                                          13    1.99    0.00  1.0000
 -17   3   0      42      21                                                          25    1.99    0.00  1.0000
 -19  -3   0       0      20                                                         -20    0.93    0.00  1.0000
 -19   3   0      18      25                                                          13    0.93    0.00  1.0000
 -21  -3   0       0      24                                                          -5    0.44    0.00  1.0000
 -21   3   0       0      28                                                          -3    0.44    0.00  1.0000
 -23  -3   0      61      32                                                          57    0.35    0.00  1.0000
 -23   3   0      67      37                                                          63    0.35    0.00  1.0000
 -25  -3   0       0      27                                                         -10    0.22    0.00  1.0000
 -25   3   0      63      42                                                          60    0.22    0.00  1.0000
 -27  -3   0       7      31                                                           6   -0.19    0.00  1.0000
   0  -4   0   16266     350                                                       15184    5.90    0.00  1.0000
   0   4   0   16425     355                                                       15338    5.90    0.00  1.0000
   0   4   0   15804     320                                                       14738    5.90    0.00  1.0000
  -2  -4   0     808      42                                                        1103    6.53    0.00  1.0000
   2  -4   0     851      36                                                        1153    6.53    0.00  1.0000
   2   4   0     817      43                                                        1113    6.53    0.00  1.0000
  -2   4   0     848      39                                                        1149    6.53    0.00  1.0000
   2   4   0     800      39                                                        1093    6.53    0.00  1.0000
  -2   4   0     842      47                                                        1142    6.53    0.00  1.0000
  -4  -4   0    8044     183                                                        7010    8.14    0.00  1.0000
   4   4   0    7857     162                                                        6836    8.14    0.00  1.0000
  -4   4   0    8009     184                                                        6978    8.14    0.00  1.0000
  -4   4   0    8099     172                                                        7062    8.14    0.00  1.0000
  -6  -4   0    2201      65                                                        1595    9.54    0.00  1.0000
   6   4   0    2082      53                                                        1494    9.54    0.00  1.0000
  -6   4   0    2119      66                                                        1525    9.54    0.00  1.0000
  -6   4   0    2153      53                                                        1554    9.54    0.00  1.0000
  -8  -4   0    1426      52                                                         957    9.33    0.00  1.0000
  -8   4   0    1370      42                                                         911    9.33    0.00  1.0000
  -8   4   0    1427      55                                                         958    9.33    0.00  1.0000
 -10  -4   0     415      30                                                         218    7.66    0.00  1.0000
 -10  -4   0     508      23                                                         287    7.66    0.00  1.0000
 -10   4   0     531      34                                                         304    7.66    0.00  1.0000
 -10   4   0     476      25                                                         263    7.66    0.00  1.0000
 -12  -4   0    1957      64                                                        1605    5.71    0.00  1.0000
 -12  -4   0    1930      78                                                        1580    5.71    0.00  1.0000
 -12   4   0    1917      69                                                        1569    5.71    0.00  1.0000
 -12   4   0    2050      81                                                        1689    5.71    0.00  1.0000
 -14  -4   0     946      57                                                         776    3.96    0.00  1.0000
 -14  -4   0     896      44                                                         731    3.96    0.00  1.0000
 -14   4   0     907      50                                                         741    3.96    0.00  1.0000
 -14   4   0     905      59                                                         739    3.96    0.00  1.0000
 -16  -4   0     113      19                                                          80    2.31    0.00  1.0000
 -16  -4   0     111      28                                                          78    2.31    0.00  1.0000
 -16   4   0     116      25                                                          82    2.31    0.00  1.0000
 -16   4   0     123      32                                                          88    2.31    0.00  1.0000
 -18  -4   0    1097      74                                                        1050    0.99    0.00  1.0000
 -18   4   0    1156      78                                                        1107    0.99    0.00  1.0000
 -20  -4   0     712      66                                                         698    0.37    0.00  1.0000
 -20   4   0     625      66                                                         612    0.37    0.00  1.0000
 -22  -4   0     114      37                                                         107    0.45    0.00  1.0000
 -22   4   0     182      46                                                         173    0.45    0.00  1.0000
 -24  -4   0     276      52                                                         262    0.58    0.00  1.0000
 -24   4   0     253      53                                                         240    0.58    0.00  1.0000
 -26  -4   0     220      53                                                         216    0.19    0.00  1.0000
 -26   4   0     147      51                                                         144    0.19    0.00  1.0000
  -1  -5   0    6119     159                                                        6224    0.91    0.00  1.0000
   1  -5   0    6091     154                                                        6196    0.91    0.00  1.0000
   1   5   0    6203     164                                                        6309    0.91    0.00  1.0000
  -1   5   0    5953     146                                                        6057    0.91    0.00  1.0000
  -1   5   0    5946     164                                                        6050    0.91    0.00  1.0000
   1   5   0    6172     147                                                        6277    0.91    0.00  1.0000
  -3  -5   0    4631     134                                                        4906    2.72    0.00  1.0000
   3  -5   0    4459     121                                                        4729    2.72    0.00  1.0000
  -3   5   0    4478     119                                                        4749    2.72    0.00  1.0000
   3   5   0    4504     131                                                        4775    2.72    0.00  1.0000
  -3   5   0    4708     138                                                        4985    2.72    0.00  1.0000
   3   5   0    4317     119                                                        4583    2.72    0.00  1.0000
  -5  -5   0   10056     267                                                       10828    5.16    0.00  1.0000
  -5   5   0    9295     264                                                       10038    5.16    0.00  1.0000
   5   5   0    9410     235                                                       10157    5.16    0.00  1.0000
  -5   5   0    9470     249                                                       10219    5.16    0.00  1.0000
  -7  -5   0    9036     258                                                        9981    6.62    0.00  1.0000
  -7   5   0    8403     255                                                        9315    6.62    0.00  1.0000
  -7   5   0    8511     237                                                        9429    6.62    0.00  1.0000
  -9   5   0    3386     134                                                        3947    6.34    0.00  1.0000
  -9   5   0    3230     114                                                        3779    6.34    0.00  1.0000
 -11  -5   0    3342     135                                                        3769    4.90    0.00  1.0000
 -11  -5   0    3390     116                                                        3820    4.90    0.00  1.0000
 -11   5   0    3319     119                                                        3745    4.90    0.00  1.0000
 -11   5   0    3388     137                                                        3818    4.90    0.00  1.0000
 -13  -5   0    3723     146                                                        4022    3.28    0.00  1.0000
 -13  -5   0    3781     124                                                        4082    3.28    0.00  1.0000
 -13   5   0    3634     130                                                        3930    3.28    0.00  1.0000
 -13   5   0    3739     148                                                        4039    3.28    0.00  1.0000
 -15  -5   0    1234      80                                                        1333    1.88    0.00  1.0000
 -15  -5   0    1287      64                                                        1388    1.88    0.00  1.0000
 -15   5   0    1328      85                                                        1430    1.88    0.00  1.0000
 -17  -5   0    1522      90                                                        1561    0.68    0.00  1.0000
 -17   5   0    1635      98                                                        1675    0.68    0.00  1.0000
 -19  -5   0    2574     126                                                        2569   -0.07    0.00  1.0000
 -19   5   0    2567     127                                                        2562   -0.07    0.00  1.0000
 -21  -5   0    1350      93                                                        1349   -0.02    0.00  1.0000
 -21   5   0    1258      92                                                        1257   -0.02    0.00  1.0000
 -23  -5   0     733      77                                                         750    0.44    0.00  1.0000
 -23   5   0     620      74                                                         636    0.44    0.00  1.0000
 -25  -5   0     820      87                                                         836    0.39    0.00  1.0000
 -25   5   0     893      91                                                         910    0.39    0.00  1.0000
 -27   5   0     377      67                                                         372   -0.16    0.00  1.0000
   0  -6   0    8738     217                                                        8720    0.13    0.00  1.0000
   0   6   0    8760     226                                                        8742    0.13    0.00  1.0000
   0   6   0    8842     202                                                        8824    0.13    0.00  1.0000
   2  -6   0   12302     285                                                       12180    0.75    0.00  1.0000
  -2  -6   0   12416     296                                                       12293    0.75    0.00  1.0000
   2   6   0   12025     268                                                       11904    0.75    0.00  1.0000
   2   6   0   11981     297                                                       11860    0.75    0.00  1.0000
  -2   6   0   11781     299                                                       11661    0.75    0.00  1.0000
  -2   6   0   12135     267                                                       12014    0.75    0.00  1.0000
   4  -6   0    8155     193                                                        7868    2.19    0.00  1.0000
  -4  -6   0    8140     211                                                        7854    2.19    0.00  1.0000
  -4   6   0    7801     211                                                        7521    2.19    0.00  1.0000
  -4   6   0    8414     187                                                        8123    2.19    0.00  1.0000
   4   6   0    8159     206                                                        7872    2.19    0.00  1.0000
   4   6   0    8246     188                                                        7958    2.19    0.00  1.0000
  -6   6   0    7593     206                                                        7160    3.45    0.00  1.0000
  -6   6   0    7809     187                                                        7369    3.45    0.00  1.0000
   6   6   0    8019     182                                                        7573    3.45    0.00  1.0000
  -8  -6   0    6430     178                                                        6007    3.66    0.00  1.0000
  -8   6   0    6123     154                                                        5711    3.66    0.00  1.0000
  -8   6   0    5825     174                                                        5423    3.66    0.00  1.0000
 -10  -6   0    4338     144                                                        4082    2.69    0.00  1.0000
 -10   6   0    4308     122                                                        4053    2.69    0.00  1.0000
 -10   6   0    4380     145                                                        4123    2.69    0.00  1.0000
 -12  -6   0    5781     185                                                        5632    1.35    0.00  1.0000
 -12   6   0    5681     162                                                        5534    1.35    0.00  1.0000
 -12   6   0    5636     185                                                        5489    1.35    0.00  1.0000
 -14  -6   0    2219      82                                                        2184    0.51    0.00  1.0000
 -14  -6   0    2086     100                                                        2052    0.51    0.00  1.0000
 -14   6   0    2169     105                                                        2134    0.51    0.00  1.0000
 -16  -6   0    3551     145                                                        3539    0.13    0.00  1.0000
 -16   6   0    3614     149                                                        3602    0.13    0.00  1.0000
 -18  -6   0    3212     143                                                        3224   -0.15    0.00  1.0000
 -18   6   0    3283     146                                                        3295   -0.15    0.00  1.0000
 -20  -6   0    2520     130                                                        2524   -0.05    0.00  1.0000
 -20   6   0    2451     128                                                        2454   -0.05    0.00  1.0000
 -22  -6   0     956      82                                                         932    0.54    0.00  1.0000
 -22   6   0     827      79                                                         804    0.54    0.00  1.0000
 -24  -6   0    1091      92                                                        1053    0.79    0.00  1.0000
 -24   6   0    1013      92                                                         976    0.79    0.00  1.0000
 -26  -6   0     781      90                                                         772    0.23    0.00  1.0000
 -26   6   0     872      90                                                         862    0.23    0.00  1.0000
   1  -7   0   13208     319                                                       13385    1.05    0.00  1.0000
  -1  -7   0   13360     325                                                       13538    1.05    0.00  1.0000
  -1   7   0   12949     333                                                       13124    1.05    0.00  1.0000
  -1   7   0   12994     296                                                       13169    1.05    0.00  1.0000
   1   7   0   12883     331                                                       13058    1.05    0.00  1.0000
   1   7   0   13110     297                                                       13286    1.05    0.00  1.0000
  -3  -7   0    6382     179                                                        6518    1.16    0.00  1.0000
   3  -7   0    6227     162                                                        6361    1.16    0.00  1.0000
  -3   7   0    6263     159                                                        6398    1.16    0.00  1.0000
   3   7   0    6392     179                                                        6528    1.16    0.00  1.0000
  -3   7   0    6228     182                                                        6362    1.16    0.00  1.0000
   3   7   0    6159     160                                                        6293    1.16    0.00  1.0000
  -5  -7   0    5803     171                                                        5947    1.28    0.00  1.0000
   5  -7   0    5516     146                                                        5656    1.28    0.00  1.0000
  -5   7   0    5389     169                                                        5527    1.28    0.00  1.0000
  -5   7   0    5604     147                                                        5745    1.28    0.00  1.0000
   5   7   0    5350     147                                                        5488    1.28    0.00  1.0000
  -7  -7   0    2969     112                                                        3063    1.16    0.00  1.0000
   7  -7   0    2773      86                                                        2863    1.16    0.00  1.0000
  -7   7   0    2953     114                                                        3046    1.16    0.00  1.0000
   7   7   0    2928      96                                                        3021    1.16    0.00  1.0000
  -9   7   0    3484     130                                                        3519    0.41    0.00  1.0000
  -9   7   0    3472     106                                                        3507    0.41    0.00  1.0000
 -11  -7   0    3469     134                                                        3404   -0.76    0.00  1.0000
 -11   7   0    3616     135                                                        3549   -0.76    0.00  1.0000
 -13  -7   0    2540     115                                                        2446   -1.29    0.00  1.0000
 -13   7   0    3048     123                                                        2944   -1.29    0.00  1.0000
 -15  -7   0    4841     175                                                        4754   -0.86    0.00  1.0000
 -15   7   0    4645     174                                                        4560   -0.86    0.00  1.0000
 -17  -7   0    2860     131                                                        2834   -0.33    0.00  1.0000
 -17   7   0    2803     134                                                        2777   -0.33    0.00  1.0000
 -19  -7   0    1817     106                                                        1817    0.00    0.00  1.0000
 -19   7   0    1730     106                                                        1730    0.00    0.00  1.0000
 -21  -7   0     896      84                                                         924    0.63    0.00  1.0000
 -21   7   0     760      77                                                         785    0.63    0.00  1.0000
 -23  -7   0    1227     101                                                        1290    1.22    0.00  1.0000
 -23   7   0    1195      98                                                        1257    1.22    0.00  1.0000
 -25  -7   0     535      76                                                         569    1.00    0.00  1.0000
 -25   7   0     376      68                                                         405    1.00    0.00  1.0000
   0  -8   0    7360     186                                                        7100    2.09    0.00  1.0000
   0   8   0    7182     173                                                        6925    2.09    0.00  1.0000
   0   8   0    7055     196                                                        6801    2.09    0.00  1.0000
  -2  -8   0    3158     101                                                        3016    1.74    0.00  1.0000
   2  -8   0    3199      91                                                        3056    1.74    0.00  1.0000
   2   8   0    3164     105                                                        3022    1.74    0.00  1.0000
   2   8   0    3055      91                                                        2916    1.74    0.00  1.0000
  -2   8   0    3091      91                                                        2951    1.74    0.00  1.0000
  -2   8   0    3151     108                                                        3010    1.74    0.00  1.0000
   4  -8   0    3141      87                                                        3062    0.97    0.00  1.0000
  -4  -8   0    2844     103                                                        2768    0.97    0.00  1.0000
   4   8   0    2982      92                                                        2905    0.97    0.00  1.0000
  -4   8   0    2974      90                                                        2897    0.97    0.00  1.0000
   4   8   0    2911     102                                                        2835    0.97    0.00  1.0000
  -4   8   0    3080     109                                                        3001    0.97    0.00  1.0000
   6  -8   0     751      34                                                         742    0.24    0.00  1.0000
  -6  -8   0     879      56                                                         869    0.24    0.00  1.0000
  -6   8   0     814      55                                                         804    0.24    0.00  1.0000
  -6   8   0     843      43                                                         833    0.24    0.00  1.0000
   6   8   0     723      42                                                         714    0.24    0.00  1.0000
  -8  -8   0    1761      86                                                        1796   -0.57    0.00  1.0000
   8  -8   0    1643      59                                                        1677   -0.57    0.00  1.0000
  -8   8   0    1691      85                                                        1725   -0.57    0.00  1.0000
   8   8   0    1732      71                                                        1767   -0.57    0.00  1.0000
 -10  -8   0     903      68                                                         980   -1.71    0.00  1.0000
 -10   8   0    1166      75                                                        1253   -1.71    0.00  1.0000
 -12  -8   0    1199      82                                                        1328   -2.49    0.00  1.0000
 -12   8   0    1123      79                                                        1248   -2.49    0.00  1.0000
 -14  -8   0    3331     146                                                        3507   -2.05    0.00  1.0000
 -14   8   0    3138     143                                                        3309   -2.05    0.00  1.0000
 -16  -8   0    1090      81                                                        1146   -1.15    0.00  1.0000
 -16   8   0    1075      84                                                        1131   -1.15    0.00  1.0000
 -18  -8   0     594      67                                                         620   -0.71    0.00  1.0000
 -18   8   0     566      65                                                         591   -0.71    0.00  1.0000
 -20  -8   0     320      56                                                         328   -0.30    0.00  1.0000
 -20   8   0     336      58                                                         344   -0.30    0.00  1.0000
 -22  -8   0     878      84                                                         860    0.42    0.00  1.0000
 -22   8   0     695      76                                                         679    0.42    0.00  1.0000
 -24  -8   0     121      48                                                         109    0.75    0.00  1.0000
 -24   8   0     199      52                                                         184    0.75    0.00  1.0000
  -1  -9   0       1      11                                                           1    2.44    0.00  1.0000
   1  -9   0       2      11                                                          10    2.44    0.00  1.0000
   1   9   0       0      12                                                           5    2.44    0.00  1.0000
   1   9   0       0      12                                                           5    2.44    0.00  1.0000
  -1   9   0       1      11                                                           7    2.44    0.00  1.0000
  -1   9   0       8      15                                                          21    2.44    0.00  1.0000
  -3  -9   0    1010      59                                                        1080    1.49    0.00  1.0000
   3  -9   0    1076      48                                                        1149    1.49    0.00  1.0000
  -3   9   0    1070      65                                                        1142    1.49    0.00  1.0000
   3   9   0    1090      61                                                        1163    1.49    0.00  1.0000
   3   9   0    1142      54                                                        1217    1.49    0.00  1.0000
  -3   9   0    1142      53                                                        1217    1.49    0.00  1.0000
   5  -9   0      66      12                                                          70    0.30    0.00  1.0000
  -5  -9   0      64      21                                                          68    0.30    0.00  1.0000
  -5   9   0      79      25                                                          83    0.30    0.00  1.0000
  -5   9   0      45      16                                                          48    0.30    0.00  1.0000
   5   9   0      46      17                                                          49    0.30    0.00  1.0000
   5   9   0      80      18                                                          84    0.30    0.00  1.0000
  -7  -9   0     393      42                                                         374   -0.66    0.00  1.0000
  -7   9   0     369      41                                                         351   -0.66    0.00  1.0000
  -7   9   0     365      30                                                         347   -0.66    0.00  1.0000
   7   9   0     347      32                                                         329   -0.66    0.00  1.0000
  -9  -9   0      81      24                                                          60   -1.72    0.00  1.0000
  -9   9   0     102      29                                                          78   -1.72    0.00  1.0000
   9   9   0      54      17                                                          37   -1.72    0.00  1.0000
 -11  -9   0     635      55                                                         538   -2.74    0.00  1.0000
 -11   9   0     952      65                                                         832   -2.74    0.00  1.0000
 -13  -9   0      54      32                                                          88   -2.75    0.00  1.0000
 -13   9   0      90      37                                                         132   -2.75    0.00  1.0000
 -15  -9   0      42      27                                                          26   -1.85    0.00  1.0000
 -15   9   0      61      29                                                          42   -1.85    0.00  1.0000
 -17  -9   0      89      34                                                          72   -1.26    0.00  1.0000
 -17   9   0      74      34                                                          59   -1.26    0.00  1.0000
 -19  -9   0      20      24                                                          14   -1.06    0.00  1.0000
 -19   9   0       1      29                                                          -3   -1.06    0.00  1.0000
 -21  -9   0     112      39                                                         105   -0.48    0.00  1.0000
 -21   9   0      76      38                                                          70   -0.48    0.00  1.0000
 -23  -9   0      15      32                                                          15    0.08    0.00  1.0000
 -23   9   0      16      38                                                          16    0.08    0.00  1.0000
 -25   9   0      83      46                                                          84    0.10    0.00  1.0000
   0 -10   0    2429      93                                                        2587    2.16    0.00  1.0000
   0  10   0    2372      87                                                        2528    2.16    0.00  1.0000
   0  10   0    2362     103                                                        2518    2.16    0.00  1.0000
   2 -10   0     268      28                                                         308    1.63    0.00  1.0000
  -2 -10   0     224      32                                                         261    1.63    0.00  1.0000
   2  10   0     180      30                                                         214    1.63    0.00  1.0000
   2  10   0     