####################################################################### 
# 
# This file contains crystal structure data downloaded from the 
# Cambridge Structural Database (CSD) hosted by the Cambridge 
# Crystallographic Data Centre (CCDC).
# 
# Full information about CCDC data access policies and citation 
# guidelines are available at http://www.ccdc.cam.ac.uk/access/V1 
# 
# Audit and citation data items may have been added by the CCDC. 
# Please retain this information to preserve the provenance of 
# this file and to allow appropriate attribution of the data. 
# 
#######################################################################

data_[Ni6(btc)4(bipy)6(MeOH)3(H2O)9.guests]
_audit_block_doi                 10.5517/cc6f0j4
_database_code_depnum_ccdc_archive 'CCDC 191255'
loop_
_citation_id
_citation_doi
_citation_year
1 10.1039/b211124c 2003
_audit_update_record             
;
2002-11-04 deposited with the CCDC.	2024-07-14 downloaded from the CCDC.
;

_audit_creation_method           SHELXL-97
_chemical_name_systematic        
;
?
;
_chemical_name_common            ?
_chemical_melting_point          ?
_chemical_formula_moiety         ?
_chemical_formula_structural     
'Ni 6 (C 9 H 3 O 6) 4 (C 10 H 8 N 2) 6 (C H 4 O) 3 (H 2 O) 9 . guests'
_chemical_formula_sum            'C49 H33 N6 Ni3 O18'
_chemical_formula_weight         1169.94

loop_
_atom_type_symbol
_atom_type_description
_atom_type_scat_dispersion_real
_atom_type_scat_dispersion_imag
_atom_type_scat_source
C C 0.0033 0.0016 'International Tables Vol C Tables 4.2.6.8 and 6.1.1.4'
H H 0.0000 0.0000 'International Tables Vol C Tables 4.2.6.8 and 6.1.1.4'
N N 0.0061 0.0033 'International Tables Vol C Tables 4.2.6.8 and 6.1.1.4'
O O 0.0106 0.0060 'International Tables Vol C Tables 4.2.6.8 and 6.1.1.4'
Ni Ni 0.3393 1.1124 'International Tables Vol C Tables 4.2.6.8 and 6.1.1.4'

_symmetry_cell_setting           Trigonal
_symmetry_space_group_name_H-M   P3

loop_
_symmetry_equiv_pos_as_xyz
'x, y, z'
'-y, x-y, z'
'-x+y, -x, z'

_cell_length_a                   33.5211(10)
_cell_length_b                   33.5211(10)
_cell_length_c                   11.3015(5)
_cell_angle_alpha                90.00
_cell_angle_beta                 90.00
_cell_angle_gamma                120.00
_cell_volume                     10997.7(7)
_cell_formula_units_Z            3
_cell_measurement_temperature    150(2)
_cell_measurement_reflns_used    34269
_cell_measurement_theta_min      4.41
_cell_measurement_theta_max      50.79

_exptl_crystal_description       'hexagonal plate'
_exptl_crystal_colour            blue
_exptl_crystal_size_max          0.14
_exptl_crystal_size_mid          0.11
_exptl_crystal_size_min          0.08
_exptl_crystal_density_meas      'not measured'
_exptl_crystal_density_diffrn    0.530
_exptl_crystal_density_method    'not measured'
_exptl_crystal_F_000             1791
_exptl_absorpt_coefficient_mu    0.409
_exptl_absorpt_correction_type   multi-scan
_exptl_absorpt_correction_T_min  0.9374
_exptl_absorpt_correction_T_max  0.9878
_exptl_absorpt_process_details   
;
Sheldrick, G. M., SADABS; Universitat Gottingen, 1997'
;
_exptl_special_details           
;
?
;

_diffrn_ambient_temperature      150(2)
_diffrn_radiation_wavelength     0.68670
_diffrn_radiation_type           Synchrotron
_diffrn_radiation_source         'Daresbury SRS Station 9.8'
_diffrn_radiation_monochromator  'Silicon 111'
_diffrn_measurement_device_type  'Bruker AXS SMART 1K CCD Diffractomer'
_diffrn_measurement_method       'omega rotation with narrow frames'
_diffrn_detector_area_resol_mean 8.192
_diffrn_standards_number         0
_diffrn_standards_interval_count ?
_diffrn_standards_interval_time  ?
_diffrn_standards_decay_%        ?
_diffrn_reflns_number            87340
_diffrn_reflns_av_R_equivalents  0.0534
_diffrn_reflns_av_sigmaI/netI    0.0737
_diffrn_reflns_limit_h_min       -41
_diffrn_reflns_limit_h_max       41
_diffrn_reflns_limit_k_min       -41
_diffrn_reflns_limit_k_max       41
_diffrn_reflns_limit_l_min       -14
_diffrn_reflns_limit_l_max       14
_diffrn_reflns_theta_min         1.74
_diffrn_reflns_theta_max         25.46
_reflns_number_total             30013
_reflns_number_gt                22377
_reflns_threshold_expression     >2sigma(I)

_computing_data_collection       'Bruker SMART version 5.054 (Bruker, 1998)'
_computing_cell_refinement       'Bruker SAINT version 6.02a (Bruker, 2000)'
_computing_data_reduction        'Bruker SAINT version 6.02a (Bruker, 2000)'
_computing_structure_solution    'SHELXS-97 (Sheldrick, 1990)'
_computing_structure_refinement  'SHELXL-97 (Sheldrick, 1997)'
_computing_molecular_graphics    ?
_computing_publication_material  ?

_refine_special_details          
;
Refinement of F^2^ against ALL reflections.  The weighted R-factor wR and=

goodness of fit S are based on F^2^, conventional R-factors R are based
on F, with F set to zero for negative F^2^. The threshold expression of
F^2^ > 2sigma(F^2^) is used only for calculating R-factors(gt) etc. and is=

not relevant to the choice of reflections for refinement.  R-factors based=

on F^2^ are statistically about twice as large as those based on F, and R-=

factors based on ALL data will be even larger.

This 3-D framework exhibits supercell reflections as intense as those
predicted for the subcell which indicate that the observed supercell is th=
e
true cell. There are no systematic absences in the data and thus a large=

number of space groups are possible for this material, the acentric sp grp
P3 (Laue class -3) gives the best refinement for this structure.

Application of the twin law -1 0 0 0 -1 0 0 0 1 -4 is necessary as the
aggregate crystal mimics the higher Laue group 6/mmm and is applied in
conjunction with the inversion operator such that four twin components
are calculated. All aromatic rings are constrained to be approximately pla=
nar
and to have sensible bond lengths. Isotropic thermal parameters of the
non-hydrogen atoms (other than aniso Ni atoms) are also constrained to
be roughly equal within each aromatic ring system.

Solvent within the voids is not crystallographically well defined and
this extra- framework electron density was removed from the structure and =
the
data treated with the SQUEEZE routine within PLATON. This suggests a void=

electron population of 679 per formula unit. This corresponds to 4 ethylen=
e
glycol and 5 methanol molecules per metal centre. Structural refinement of=
the
framework without this electron density, following modification of the
data with the SQUEEZE routine, gives a significant improvement in the
quality of the fit (before SQUEEZE: R1 == 0.1910, wR2 == 0.4882 for 25938 =
data
with (I > 2sI) and R1 == 0.2015, wR2 == 0.4997 for all
data / restraint / parameters 30013 / 161 / 286)

;

_refine_ls_structure_factor_coef Fsqd
_refine_ls_matrix_type           full
_refine_ls_weighting_scheme      calc
_refine_ls_weighting_details     
'calc w==1/[\s^2^(Fo^2^)+(0.2000P)^2^+0.0000P] where P==(Fo^2^+2Fc^2^)/3'
_atom_sites_solution_primary     direct
_atom_sites_solution_secondary   difmap
_atom_sites_solution_hydrogens   geom
_refine_ls_hydrogen_treatment    mixed
_refine_ls_extinction_method     none
_refine_ls_extinction_coef       ?
_refine_ls_abs_structure_details 'Flack H D (1983), Acta Cryst. A39, 876-881'
_refine_ls_abs_structure_Flack   0.00
_refine_ls_number_reflns         30013
_refine_ls_number_parameters     299
_refine_ls_number_restraints     161
_refine_ls_R_factor_all          0.1608
_refine_ls_R_factor_gt           0.1469
_refine_ls_wR_factor_ref         0.3591
_refine_ls_wR_factor_gt          0.3414
_refine_ls_goodness_of_fit_ref   1.328
_refine_ls_restrained_S_all      1.334
_refine_ls_shift/su_max          0.001
_refine_ls_shift/su_mean         0.000

loop_
_atom_site_label
_atom_site_type_symbol
_atom_site_fract_x
_atom_site_fract_y
_atom_site_fract_z
_atom_site_U_iso_or_equiv
_atom_site_adp_type
_atom_site_occupancy
_atom_site_symmetry_multiplicity
_atom_site_calc_flag
_atom_site_refinement_flags
_atom_site_disorder_assembly
_atom_site_disorder_group
Ni1 Ni 0.83454(3) 0.66984(3) 1.00668(9) 0.0248(2) Uani 1 1 d . . .
Ni2 Ni 0.99847(4) 0.49920(4) 0.90870(11) 0.0380(3) Uani 1 1 d . . .
Ni3 Ni 1.16566(3) 0.83496(3) 0.84811(10) 0.0273(2) Uani 1 1 d . . .
C11 C 0.96954(12) 0.68369(13) 0.9483(2) 0.0269(14) Uiso 1 1 d GDU . .
C12 C 1.01495(13) 0.71519(10) 0.9193(2) 0.0257(13) Uiso 1 1 d GDU . .
H12 H 1.0250 0.7472 0.9169 0.031 Uiso 1 1 calc R . .
C13 C 1.04564(10) 0.69989(13) 0.8938(2) 0.0323(15) Uiso 1 1 d GDU . .
C14 C 1.03092(12) 0.65309(14) 0.8972(2) 0.0407(18) Uiso 1 1 d GDU . .
H14 H 1.0519 0.6426 0.8797 0.049 Uiso 1 1 calc R . .
C15 C 0.98551(14) 0.62159(10) 0.9262(3) 0.0310(15) Uiso 1 1 d GDU . .
C16 C 0.95482(10) 0.63689(11) 0.9517(2) 0.0220(13) Uiso 1 1 d GDU . .
H16 H 0.9238 0.6154 0.9715 0.026 Uiso 1 1 calc R . .
C17 C 0.9324(3) 0.6958(3) 0.9773(5) 0.0443(19) Uiso 1 1 d DU . .
O11 O 0.89592(17) 0.67223(17) 1.0033(4) 0.0287(11) Uiso 1 1 d DU . .
O12 O 0.9487(2) 0.7413(2) 0.9733(5) 0.0509(15) Uiso 1 1 d DU . .
C18 C 1.0923(2) 0.7366(2) 0.8662(5) 0.0274(14) Uiso 1 1 d DU . .
O13 O 1.10406(16) 0.77381(16) 0.8614(4) 0.0209(10) Uiso 1 1 d DU . .
O14 O 1.12501(18) 0.72247(18) 0.8370(4) 0.0380(12) Uiso 1 1 d DU . .
C19 C 0.9705(3) 0.5707(2) 0.9276(5) 0.0417(18) Uiso 1 1 d DU . .
O15 O 0.99668(17) 0.55922(17) 0.9091(4) 0.0273(11) Uiso 1 1 d DU . .
O16 O 0.9283(3) 0.5425(3) 0.9566(6) 0.080(2) Uiso 1 1 d DU . .
C21 C 0.96964(13) 0.28654(10) 0.9479(2) 0.0257(13) Uiso 1 1 d GDU . .
C22 C 0.95487(10) 0.31859(13) 0.9492(2) 0.0256(13) Uiso 1 1 d GDU . .
H22 H 0.9237 0.3091 0.9670 0.031 Uiso 1 1 calc R . .
C23 C 0.98575(14) 0.36460(12) 0.9244(3) 0.0273(14) Uiso 1 1 d GDU . .
C24 C 1.03140(12) 0.37855(10) 0.8982(3) 0.0349(16) Uiso 1 1 d GDU . .
H24 H 1.0525 0.4100 0.8812 0.042 Uiso 1 1 calc R . .
C25 C 1.04617(10) 0.34649(14) 0.8969(2) 0.0395(17) Uiso 1 1 d GDU . .
C26 C 1.01529(14) 0.30049(13) 0.9217(2) 0.0350(16) Uiso 1 1 d GDU . .
H26 H 1.0254 0.2786 0.9208 0.042 Uiso 1 1 calc R . .
C27 C 0.9337(2) 0.2362(2) 0.9751(5) 0.0313(15) Uiso 1 1 d DU . .
O21 O 0.9485(2) 0.2076(2) 0.9738(5) 0.0488(15) Uiso 1 1 d DU . .
O22 O 0.89399(19) 0.22437(19) 0.9998(4) 0.0351(12) Uiso 1 1 d DU . .
C28 C 0.9720(3) 0.4019(2) 0.9231(5) 0.0366(16) Uiso 1 1 d DU . .
O23 O 0.9268(3) 0.3861(3) 0.9502(6) 0.088(3) Uiso 1 1 d DU . .
O24 O 0.99715(18) 0.43880(18) 0.9045(4) 0.0327(12) Uiso 1 1 d DU . .
C29 C 1.0916(2) 0.3583(2) 0.8716(5) 0.0256(13) Uiso 1 1 d DU . .
O25 O 1.1237(2) 0.4024(2) 0.8457(5) 0.0448(13) Uiso 1 1 d DU . .
O26 O 1.10690(15) 0.33353(15) 0.8678(4) 0.0214(10) Uiso 1 1 d DU . .
N30 N 0.83212(17) 0.67046(16) 0.8316(6) 0.0259(13) Uiso 1 1 d DU . .
C30 C 0.7944(3) 0.6438(2) 0.7569(6) 0.0409(18) Uiso 1 1 d DU . .
H30 H 0.7655 0.6235 0.7921 0.049 Uiso 1 1 calc R . .
C31 C 0.7973(3) 0.6454(2) 0.6357(7) 0.0421(18) Uiso 1 1 d DU . .
H31 H 0.7702 0.6260 0.5920 0.050 Uiso 1 1 calc R . .
C32 C 0.83786(18) 0.67392(17) 0.5718(5) 0.0165(12) Uiso 1 1 d DU . .
C33 C 0.8764(3) 0.7009(2) 0.6394(6) 0.0418(18) Uiso 1 1 d DU . .
H33 H 0.9055 0.7213 0.6052 0.050 Uiso 1 1 calc R . .
C34 C 0.8698(3) 0.6963(2) 0.7579(7) 0.0456(19) Uiso 1 1 d DU . .
H34 H 0.8973 0.7152 0.8010 0.055 Uiso 1 1 calc R . .
N35 N 0.83813(15) 0.67265(14) 0.1938(5) 0.0115(11) Uiso 1 1 d DU . .
C35 C 0.8082(2) 0.68256(19) 0.2566(7) 0.0434(18) Uiso 1 1 d DU . .
H35 H 0.7894 0.6911 0.2129 0.052 Uiso 1 1 calc R . .
C36 C 0.8043(3) 0.6806(2) 0.3769(7) 0.048(2) Uiso 1 1 d DU . .
H36 H 0.7833 0.6875 0.4155 0.058 Uiso 1 1 calc R . .
C37 C 0.8313(3) 0.6687(2) 0.4406(7) 0.052(3) Uiso 1 1 d DU . .
C38 C 0.8608(3) 0.6583(2) 0.3791(7) 0.0448(19) Uiso 1 1 d DU . .
H38 H 0.8793 0.6494 0.4230 0.054 Uiso 1 1 calc R . .
C39 C 0.8646(2) 0.6602(2) 0.2597(6) 0.0330(15) Uiso 1 1 d DU . .
H39 H 0.8855 0.6530 0.2216 0.040 Uiso 1 1 calc R . .
N40 N 0.99606(17) 0.49735(16) 0.7180(7) 0.0312(15) Uiso 1 1 d DU . .
C40 C 0.9717(3) 0.5167(3) 0.6639(8) 0.061(2) Uiso 1 1 d DU . .
H40 H 0.9553 0.5292 0.7027 0.074 Uiso 1 1 calc R . .
C41 C 0.9762(3) 0.5137(3) 0.5457(9) 0.070(3) Uiso 1 1 d DU . .
H41 H 0.9603 0.5261 0.5037 0.083 Uiso 1 1 calc R . .
C42 C 0.9968(2) 0.4982(2) 0.4693(7) 0.042(2) Uiso 1 1 d DU . .
C43 C 1.0193(3) 0.4800(3) 0.5290(8) 0.060(2) Uiso 1 1 d DU . .
H43 H 1.0350 0.4674 0.4870 0.072 Uiso 1 1 calc R . .
C44 C 1.0190(3) 0.4800(3) 0.6501(9) 0.068(3) Uiso 1 1 d DU . .
H44 H 1.0352 0.4675 0.6903 0.082 Uiso 1 1 calc R . .
N45 N 0.99807(14) 0.49881(14) 0.0978(5) 0.0147(11) Uiso 1 1 d DU . .
C45 C 0.9757(2) 0.4566(3) 0.1564(6) 0.059(2) Uiso 1 1 d DU . .
H45 H 0.9609 0.4282 0.1149 0.070 Uiso 1 1 calc R . .
C46 C 0.9762(3) 0.4586(3) 0.2772(7) 0.070(3) Uiso 1 1 d DU . .
H46 H 0.9615 0.4305 0.3203 0.084 Uiso 1 1 calc R . .
C47 C 0.99696(19) 0.49880(18) 0.3385(6) 0.0383(19) Uiso 1 1 d DU . .
C48 C 1.0185(3) 0.5394(3) 0.2782(7) 0.071(3) Uiso 1 1 d DU . .
H48 H 1.0327 0.5675 0.3214 0.085 Uiso 1 1 calc R . .
C49 C 1.0203(3) 0.5409(3) 0.1578(7) 0.063(3) Uiso 1 1 d DU . .
H49 H 1.0360 0.5693 0.1163 0.076 Uiso 1 1 calc R . .
N50 N 1.16279(18) 0.8338(2) 0.6651(7) 0.0402(18) Uiso 1 1 d DU . .
C50 C 1.1355(3) 0.7947(3) 0.5961(7) 0.055(2) Uiso 1 1 d DU . .
H50 H 1.1148 0.7669 0.6354 0.066 Uiso 1 1 calc R . .
C51 C 1.1370(2) 0.7945(2) 0.4766(6) 0.0322(15) Uiso 1 1 d DU . .
H51 H 1.1178 0.7672 0.4330 0.039 Uiso 1 1 calc R . .
C52 C 1.16721(19) 0.8351(2) 0.4193(6) 0.0309(17) Uiso 1 1 d DU . .
C53 C 1.1943(2) 0.8736(2) 0.4830(6) 0.0322(15) Uiso 1 1 d DU . .
H53 H 1.2151 0.9012 0.4431 0.039 Uiso 1 1 calc R . .
C54 C 1.1921(2) 0.8733(3) 0.6023(6) 0.0410(18) Uiso 1 1 d DU . .
H54 H 1.2111 0.9010 0.6444 0.049 Uiso 1 1 calc R . .
N55 N 1.17040(13) 0.83209(13) 0.0184(4) 0.0066(9) Uiso 1 1 d DU . .
C55 C 1.1305(3) 0.8202(2) 0.0928(7) 0.0413(18) Uiso 1 1 d DU . .
H55 H 1.1022 0.8108 0.0532 0.050 Uiso 1 1 calc R . .
C56 C 1.1296(3) 0.8213(3) 0.2152(8) 0.066(3) Uiso 1 1 d DU . .
H56 H 1.1010 0.8128 0.2525 0.079 Uiso 1 1 calc R . .
C57 C 1.1684(2) 0.8344(2) 0.2878(7) 0.039(2) Uiso 1 1 d DU . .
C58 C 1.2081(3) 0.8465(2) 0.2245(6) 0.0421(18) Uiso 1 1 d DU . .
H58 H 1.2367 0.8563 0.2630 0.051 Uiso 1 1 calc R . .
C59 C 1.2044(2) 0.8439(2) 0.1050(6) 0.0352(16) Uiso 1 1 d DU . .
H59 H 1.2333 0.8526 0.0697 0.042 Uiso 1 1 calc R . .
O5W O 1.20239(14) 0.79971(14) 0.8543(4) 0.0158(9) Uiso 1 1 d . . .
O1 O 1.12997(16) 0.87236(16) 0.8784(5) 0.0263(10) Uiso 1 1 d . . .
C1M C 1.1317(5) 0.9089(5) 0.8207(13) 0.081(4) Uiso 1 1 d . . .
H1M1 H 1.1096 0.9164 0.8568 0.122 Uiso 1 1 calc R . .
H1M2 H 1.1237 0.9010 0.7372 0.122 Uiso 1 1 calc R . .
H1M3 H 1.1628 0.9356 0.8266 0.122 Uiso 1 1 calc R . .
O3W O 0.9300(3) 0.4676(3) 0.9246(7) 0.0592(19) Uiso 1 1 d . . .
O4W O 1.0729(2) 0.5387(2) 0.9303(5) 0.0390(14) Uiso 1 1 d . . .
O1W O 0.7949(2) 0.5972(2) 0.9907(6) 0.0469(15) Uiso 1 1 d . . .
O2W O 0.86955(15) 0.73961(15) 1.0105(4) 0.0210(9) Uiso 1 1 d . . .

loop_
_atom_site_aniso_label
_atom_site_aniso_U_11
_atom_site_aniso_U_22
_atom_site_aniso_U_33
_atom_site_aniso_U_23
_atom_site_aniso_U_13
_atom_site_aniso_U_12
Ni1 0.0254(5) 0.0303(5) 0.0183(5) -0.0011(3) -0.0013(3) 0.0138(4)
Ni2 0.0420(6) 0.0403(5) 0.0334(8) 0.0009(5) -0.0001(5) 0.0219(4)
Ni3 0.0290(5) 0.0321(5) 0.0204(5) -0.0007(4) -0.0007(4) 0.0149(4)

_geom_special_details            
;
All esds (except the esd in the dihedral angle between two l.s. planes)
are estimated using the full covariance matrix.  The cell esds are taken=

into account individually in the estimation of esds in distances, angles=

and torsion angles; correlations between esds in cell parameters are only=

used when they are defined by crystal symmetry.  An approximate (isotropic=
)
treatment of cell esds is used for estimating esds involving l.s. planes.=

;

loop_
_geom_bond_atom_site_label_1
_geom_bond_atom_site_label_2
_geom_bond_distance
_geom_bond_site_symmetry_2
_geom_bond_publ_flag
Ni1 O22 1.973(6) 2_655 ?
Ni1 N30 1.981(7) . ?
Ni1 O11 2.019(5) . ?
Ni1 O2W 2.026(4) . ?
Ni1 N35 2.118(5) 1_556 ?
Ni1 O1W 2.118(7) . ?
Ni2 O3W 1.997(8) . ?
Ni2 O24 2.003(5) . ?
Ni2 O15 2.043(5) . ?
Ni2 N45 2.137(5) 1_556 ?
Ni2 N40 2.156(8) . ?
Ni2 O4W 2.176(6) . ?
Ni3 N55 1.937(5) 1_556 ?
Ni3 O26 2.010(5) 3_775 ?
Ni3 O13 2.063(5) . ?
Ni3 N50 2.070(8) . ?
Ni3 O5W 2.091(4) . ?
Ni3 O1 2.1