####################################################################### 
# 
# This file contains crystal structure data downloaded from the 
# Cambridge Structural Database (CSD) hosted by the Cambridge 
# Crystallographic Data Centre (CCDC).
# 
# Full information about CCDC data access policies and citation 
# guidelines are available at http://www.ccdc.cam.ac.uk/access/V1 
# 
# Audit and citation data items may have been added by the CCDC. 
# Please retain this information to preserve the provenance of 
# this file and to allow appropriate attribution of the data. 
# 
#######################################################################

data_gzhang32r-3
_audit_block_doi                 10.5517/cc134v8c
_database_code_depnum_ccdc_archive 'CCDC 1017552'
loop_
_citation_id
_citation_doi
_citation_year
1 10.1016/j.poly.2015.09.008 2015
_audit_update_record             
;
2014-08-01 deposited with the CCDC.	2024-07-14 downloaded from the CCDC.
;

_audit_creation_method           SHELXL-97
_chemical_name_systematic        
; 
 ? 
;
_chemical_name_common            ?
_chemical_melting_point          ?
_chemical_formula_moiety         ?
_chemical_formula_sum            'C48 H52 Co N10 O6 S2'
_chemical_formula_weight         988.05

loop_
_atom_type_symbol
_atom_type_description
_atom_type_scat_dispersion_real
_atom_type_scat_dispersion_imag
_atom_type_scat_source
C C 0.0033 0.0016 'International Tables Vol C Tables 4.2.6.8 and 6.1.1.4'
H H 0.0000 0.0000 'International Tables Vol C Tables 4.2.6.8 and 6.1.1.4'
N N 0.0061 0.0033 'International Tables Vol C Tables 4.2.6.8 and 6.1.1.4'
S S 0.1246 0.1234 'International Tables Vol C Tables 4.2.6.8 and 6.1.1.4'
Co Co 0.3494 0.9721 'International Tables Vol C Tables 4.2.6.8 and 6.1.1.4'
O O 0.0106 0.0060 'International Tables Vol C Tables 4.2.6.8 and 6.1.1.4'

_symmetry_cell_setting           Rhombohedral
_symmetry_space_group_name_H-M   R-3

loop_
_symmetry_equiv_pos_as_xyz
'x, y, z'
'-y, x-y, z'
'-x+y, -x, z'
'x+2/3, y+1/3, z+1/3'
'-y+2/3, x-y+1/3, z+1/3'
'-x+y+2/3, -x+1/3, z+1/3'
'x+1/3, y+2/3, z+2/3'
'-y+1/3, x-y+2/3, z+2/3'
'-x+y+1/3, -x+2/3, z+2/3'
'-x, -y, -z'
'y, -x+y, -z'
'x-y, x, -z'
'-x+2/3, -y+1/3, -z+1/3'
'y+2/3, -x+y+1/3, -z+1/3'
'x-y+2/3, x+1/3, -z+1/3'
'-x+1/3, -y+2/3, -z+2/3'
'y+1/3, -x+y+2/3, -z+2/3'
'x-y+1/3, x+2/3, -z+2/3'

_cell_length_a                   28.729(3)
_cell_length_b                   28.729(3)
_cell_length_c                   14.9816(15)
_cell_angle_alpha                90.00
_cell_angle_beta                 90.00
_cell_angle_gamma                120.00
_cell_volume                     10708.3(18)
_cell_formula_units_Z            9
_cell_measurement_temperature    100(2)
_cell_measurement_reflns_used    9902
_cell_measurement_theta_min      2.46
_cell_measurement_theta_max      25.68

_exptl_crystal_description       block
_exptl_crystal_colour            orange
_exptl_crystal_size_max          0.20
_exptl_crystal_size_mid          0.06
_exptl_crystal_size_min          0.06
_exptl_crystal_density_meas      ?
_exptl_crystal_density_diffrn    1.379
_exptl_crystal_density_method    'not measured'
_exptl_crystal_F_000             4653
_exptl_absorpt_coefficient_mu    0.508
_exptl_absorpt_correction_type   multi-scan
_exptl_absorpt_correction_T_min  0.9051
_exptl_absorpt_correction_T_max  0.9701
_exptl_absorpt_process_details   sadabs

_exptl_special_details           
; 
Platon program SQUEEZE used to treat diffused solvent.
Found void volume of 3064 A3 with 1028 e. This was associated
with 54 methanol molecules and was added to unit card to
address changes in molecular mass, denisty and F000 value. 
REM ASSOCIATED WITH METHANOL (18E) OR 54 MOLECULES
REM C378 H252 N90 S18 Co9 TO C432 H468 N90 S18 Co9 O54
;

_diffrn_ambient_temperature      100(2)
_diffrn_radiation_wavelength     0.71073
_diffrn_radiation_type           MoK\a
_diffrn_radiation_source         'fine-focus sealed tube'
_diffrn_radiation_monochromator  graphite
_diffrn_measurement_device_type  'Bruker APEX-I CCD'
_diffrn_measurement_method       '\f and \w scans'
_diffrn_detector_area_resol_mean ?
_diffrn_reflns_number            4504
_diffrn_reflns_av_R_equivalents  0.0000
_diffrn_reflns_av_sigmaI/netI    0.0640
_diffrn_reflns_limit_h_min       -35
_diffrn_reflns_limit_h_max       17
_diffrn_reflns_limit_k_min       0
_diffrn_reflns_limit_k_max       35
_diffrn_reflns_limit_l_min       0
_diffrn_reflns_limit_l_max       18
_diffrn_reflns_theta_min         1.42
_diffrn_reflns_theta_max         25.71
_reflns_number_total             4504
_reflns_number_gt                3016
_reflns_threshold_expression     >2sigma(I)

_computing_data_collection       'Bruker APEX2'
_computing_cell_refinement       'Bruker SAINT'
_computing_data_reduction        'Bruker SAINT'
_computing_structure_solution    'SHELXS-97 (Sheldrick, 2008)'
_computing_structure_refinement  'SHELXL-97 (Sheldrick, 2008)'
_computing_molecular_graphics    'Bruker SHELXTL'
_computing_publication_material  'Bruker SHELXTL'

_refine_special_details          
; 
 Refinement of F^2^ against ALL reflections.  The weighted R-factor wR and 
 goodness of fit S are based on F^2^, conventional R-factors R are based 
 on F, with F set to zero for negative F^2^. The threshold expression of 
 F^2^ > 2sigma(F^2^) is used only for calculating R-factors(gt) etc. and is 
 not relevant to the choice of reflections for refinement.  R-factors based 
 on F^2^ are statistically about twice as large as those based on F, and R- 
 factors based on ALL data will be even larger. 
;

_refine_ls_structure_factor_coef Fsqd
_refine_ls_matrix_type           full
_refine_ls_weighting_scheme      calc
_refine_ls_weighting_details     
'calc w=1/[\s^2^(Fo^2^)+(0.0793P)^2^+0.0000P] where P=(Fo^2^+2Fc^2^)/3'
_atom_sites_solution_primary     direct
_atom_sites_solution_secondary   difmap
_atom_sites_solution_hydrogens   geom
_refine_ls_hydrogen_treatment    constr
_refine_ls_extinction_method     none
_refine_ls_extinction_coef       ?
_refine_ls_number_reflns         4504
_refine_ls_number_parameters     250
_refine_ls_number_restraints     240
_refine_ls_R_factor_all          0.0866
_refine_ls_R_factor_gt           0.0556
_refine_ls_wR_factor_ref         0.1406
_refine_ls_wR_factor_gt          0.1314
_refine_ls_goodness_of_fit_ref   1.006
_refine_ls_restrained_S_all      1.006
_refine_ls_shift/su_max          0.000
_refine_ls_shift/su_mean         0.000

loop_
_atom_site_label
_atom_site_type_symbol
_atom_site_fract_x
_atom_site_fract_y
_atom_site_fract_z
_atom_site_U_iso_or_equiv
_atom_site_adp_type
_atom_site_occupancy
_atom_site_symmetry_multiplicity
_atom_site_calc_flag
_atom_site_refinement_flags
_atom_site_disorder_assembly
_atom_site_disorder_group
Co1 Co 0.5000 0.0000 0.5000 0.03020(19) Uani 1 2 d SU . .
S1 S 0.65554(4) 0.17659(4) 0.51587(8) 0.0680(4) Uani 1 1 d U . .
N1 N 0.55845(11) 0.08038(11) 0.51190(15) 0.0338(6) Uani 1 1 d U . .
N2 N 0.51297(10) -0.01205(10) 0.64188(16) 0.0317(6) Uani 1 1 d U . .
N3 N 0.58368(9) -0.00183(9) 0.95159(15) 0.0256(5) Uani 1 1 d U . .
N4 N 0.47262(12) -0.11154(11) 1.21122(19) 0.0506(8) Uani 1 1 d U . .
N5 N 0.75439(9) 0.10396(10) 1.12284(15) 0.0295(6) Uani 1 1 d U . .
C1 C 0.59864(14) 0.12037(14) 0.51329(19) 0.0322(7) Uani 1 1 d U . .
C2 C 0.55622(12) 0.02373(12) 0.68952(19) 0.0308(7) Uani 1 1 d U . .
H2A H 0.5829 0.0550 0.6600 0.037 Uiso 1 1 calc R . .
C3 C 0.56360(12) 0.01727(12) 0.77772(19) 0.0300(7) Uani 1 1 d U . .
H3A H 0.5950 0.0437 0.8074 0.036 Uiso 1 1 calc R . .
C4 C 0.52606(11) -0.02727(12) 0.82436(19) 0.0295(7) Uani 1 1 d U . .
C5 C 0.48132(13) -0.06404(15) 0.7765(2) 0.0469(9) Uani 1 1 d U . .
H5A H 0.4539 -0.0953 0.8051 0.056 Uiso 1 1 calc R . .
C6 C 0.47670(13) -0.05519(15) 0.6878(2) 0.0468(9) Uani 1 1 d U . .
H6A H 0.4458 -0.0813 0.6568 0.056 Uiso 1 1 calc R . .
C7 C 0.53389(11) -0.03448(12) 0.92053(19) 0.0276(6) Uani 1 1 d U . .
C8 C 0.49252(12) -0.07148(12) 0.97449(19) 0.0317(7) Uani 1 1 d U . .
H8A H 0.4576 -0.0934 0.9505 0.038 Uiso 1 1 calc R . .
C9 C 0.50264(11) -0.07622(11) 1.06366(19) 0.0283(7) Uani 1 1 d U . .
C10 C 0.55408(11) -0.04250(11) 1.09543(19) 0.0267(6) Uani 1 1 d U . .
H10A H 0.5624 -0.0443 1.1563 0.032 Uiso 1 1 calc R . .
C11 C 0.59345(11) -0.00614(11) 1.03833(17) 0.0244(6) Uani 1 1 d U . .
C12 C 0.64927(11) 0.03107(11) 1.06767(17) 0.0243(6) Uani 1 1 d U . .
C13 C 0.67346(12) 0.01904(12) 1.13843(19) 0.0325(7) Uani 1 1 d U . .
H13A H 0.6543 -0.0141 1.1696 0.039 Uiso 1 1 calc R . .
C14 C 0.72545(12) 0.05601(12) 1.16204(19) 0.0356(8) Uani 1 1 d U . .
H14A H 0.7417 0.0469 1.2089 0.043 Uiso 1 1 calc R . .
C15 C 0.73130(12) 0.11463(12) 1.05458(19) 0.0311(7) Uani 1 1 d U . .
H15A H 0.7514 0.1480 1.0244 0.037 Uiso 1 1 calc R . .
C16 C 0.67980(11) 0.07973(11) 1.02580(19) 0.0288(7) Uani 1 1 d U . .
H16A H 0.6653 0.0893 0.9768 0.035 Uiso 1 1 calc R . .
C17 C 0.45980(12) -0.11476(12) 1.1248(2) 0.0333(7) Uani 1 1 d U . .
C18 C 0.40978(14) -0.15168(16) 1.0948(3) 0.0588(11) Uani 1 1 d U . .
H18A H 0.4008 -0.1536 1.0333 0.071 Uiso 1 1 calc R . .
C19 C 0.37198(15) -0.18667(19) 1.1570(4) 0.0758(13) Uani 1 1 d U . .
H19A H 0.3372 -0.2134 1.1377 0.091 Uiso 1 1 calc R . .
C20 C 0.38507(16) -0.18229(16) 1.2445(3) 0.0601(11) Uani 1 1 d U . .
H20A H 0.3597 -0.2049 1.2880 0.072 Uiso 1 1 calc R . .
C21 C 0.43473(17) -0.14524(14) 1.2675(3) 0.0593(11) Uani 1 1 d U . .
H21A H 0.4440 -0.1425 1.3290 0.071 Uiso 1 1 calc R . .

loop_
_atom_site_aniso_label
_atom_site_aniso_U_11
_atom_site_aniso_U_22
_atom_site_aniso_U_33
_atom_site_aniso_U_23
_atom_site_aniso_U_13
_atom_site_aniso_U_12
Co1 0.0319(3) 0.0513(4) 0.0181(3) -0.0190(3) -0.0122(2) 0.0289(3)
S1 0.0533(6) 0.0526(6) 0.0826(8) 0.0041(6) 0.0276(6) 0.0148(5)
N1 0.0377(16) 0.0523(17) 0.0210(13) -0.0149(12) -0.0117(11) 0.0296(14)
N2 0.0291(14) 0.0476(16) 0.0231(13) -0.0140(11) -0.0096(10) 0.0225(13)
N3 0.0288(13) 0.0320(13) 0.0180(12) -0.0070(10) -0.0055(10) 0.0169(11)
N4 0.0584(19) 0.0306(15) 0.0370(17) -0.0120(12) 0.0175(14) 0.0029(14)
N5 0.0268(13) 0.0336(14) 0.0189(13) 0.0083(10) -0.0053(10) 0.0082(11)
C1 0.0429(19) 0.052(2) 0.0154(15) -0.0011(13) 0.0006(13) 0.0337(17)
C2 0.0320(17) 0.0357(17) 0.0265(16) -0.0083(13) -0.0108(12) 0.0183(14)
C3 0.0309(16) 0.0330(17) 0.0266(16) -0.0130(12) -0.0143(12) 0.0164(14)
C4 0.0274(16) 0.0421(18) 0.0215(15) -0.0133(12) -0.0082(12) 0.0193(14)
C5 0.0334(18) 0.061(2) 0.0246(17) -0.0089(15) -0.0034(14) 0.0070(17)
C6 0.0285(17) 0.068(2) 0.0254(17) -0.0197(16) -0.0108(14) 0.0099(17)
C7 0.0263(15) 0.0341(17) 0.0230(15) -0.0100(12) -0.0066(12) 0.0157(13)
C8 0.0241(15) 0.0362(17) 0.0314(17) -0.0158(13) -0.0065(12) 0.0126(14)
C9 0.0274(15) 0.0293(16) 0.0298(16) -0.0097(12) -0.0013(12) 0.0153(13)
C10 0.0294(16) 0.0298(16) 0.0205(15) -0.0066(12) -0.0022(12) 0.0144(13)
C11 0.0288(15) 0.0276(15) 0.0182(14) -0.0094(11) -0.0060(11) 0.0150(13)
C12 0.0286(15) 0.0291(15) 0.0136(14) -0.0037(11) -0.0015(11) 0.0131(13)
C13 0.0311(17) 0.0286(16) 0.0259(17) 0.0071(12) -0.0064(12) 0.0059(13)
C14 0.0359(17) 0.0361(17) 0.0237(16) 0.0111(13) -0.0109(13) 0.0097(14)
C15 0.0330(16) 0.0296(16) 0.0232(16) 0.0056(12) -0.0061(12) 0.0100(13)
C16 0.0349(17) 0.0304(16) 0.0204(15) 0.0017(12) -0.0101(12) 0.0158(14)
C17 0.0274(16) 0.0331(17) 0.0462(19) -0.0050(14) 0.0050(13) 0.0202(14)
C18 0.0274(19) 0.073(3) 0.068(3) 0.014(2) -0.0052(17) 0.0187(18)
C19 0.0207(19) 0.082(3) 0.109(4) 0.019(3) 0.002(2) 0.013(2)
C20 0.047(2) 0.057(2) 0.078(3) 0.010(2) 0.028(2) 0.028(2)
C21 0.069(3) 0.0327(19) 0.050(2) -0.0094(16) 0.0311(19) 0.0061(19)

_geom_special_details            
; 
 All esds (except the esd in the dihedral angle between two l.s. planes) 
 are estimated using the full covariance matrix.  The cell esds are taken 
 into account individually in the estimation of esds in distances, angles 
 and torsion angles; correlations between esds in cell parameters are only 
 used when they are defined by crystal symmetry.  An approximate (isotropic) 
 treatment of cell esds is used for estimating esds involving l.s. planes. 
;

loop_
_geom_bond_atom_site_label_1
_geom_bond_atom_site_label_2
_geom_bond_distance
_geom_bond_site_symmetry_2
_geom_bond_publ_flag
Co1 N1 2.075(3) . ?
Co1 N1 2.075(3) 10_656 ?
Co1 N5 2.176(2) 17_556 ?
Co1 N5 2.176(2) 5_544 ?
Co1 N2 2.215(2) 10_656 ?
Co1 N2 2.215(2) . ?
S1 C1 1.625(4) . ?
N1 C1 1.152(4) . ?
N2 C6 1.343(4) . ?
N2 C2 1.354(4) . ?
N3 C7 1.342(3) . ?
N3 C11 1.348(3) . ?
N4 C21 1.334(4) . ?
N4 C17 1.337(4) . ?
N5 C15 1.335(3) . ?
N5 C14 1.337(4) . ?
N5 Co1 2.176(2) 9_655 ?
C2 C3 1.366(4) . ?
C2 H2A 0.9500 . ?
C3 C4 1.381(4) . ?
C3 H3A 0.9500 . ?
C4 C5 1.387(4) . ?
C4 C7 1.489(4) . ?
C5 C6 1.372(5) . ?
C5 H5A 0.9500 . ?
C6 H6A 0.9500 . ?
C7 C8 1.390(4) . ?
C8 C9 1.388(4) . ?
C8 H8A 0.9500 . ?
C9 C10 1.385(4) . ?
C9 C17 1.489(4) . ?
C10 C11 1.386(4) . ?
C10 H10A 0.9500 . ?
C11 C12 1.481(4) . ?
C12 C16 1.375(4) . ?
C12 C13 1.402(4) . ?
C13 C14 1.378(4) . ?
C13 H13A 0.9500 . ?
C14 H14A 0.9500 . ?
C15 C16 1.377(4) . ?
C15 H15A 0.9500 . ?
C16 H16A 0.9500 . ?
C17 C18 1.367(5) . ?
C18 C19 1.402(6) . ?
C18 H18A 0.9500 . ?
C19 C20 1.353(6) . ?
C19 H19A 0.9500 . ?
C20 C21 1.330(5) . ?
C20 H20A 0.9500 . ?
C21 H21A 0.9500 . ?

loop_
_geom_angle_atom_site_label_1
_geom_angle_atom_site_label_2
_geom_angle_atom_site_label_3
_geom_angle
_geom_angle_site_symmetry_1
_geom_angle_site_symmetry_3
_geom_angle_publ_flag
N1 Co1 N1 180.0 . 10_656 ?
N1 Co1 N5 91.81(9) . 17_556 ?
N1 Co1 N5 88.19(9) 10_656 17_556 ?
N1 Co1 N5 88.19(9) . 5_544 ?
N1 Co1 N5 91.81(9) 10_656 5_544 ?
N5 Co1 N5 180.0 17_556 5_544 ?
N1 Co1 N2 90.82(9) . 10_656 ?
N1 Co1 N2 89.18(9) 10_656 10_656 ?
N5 Co1 N2 91.96(9) 17_556 10_656 ?
N5 Co1 N2 88.04(9) 5_544 10_656 ?
N1 Co1 N2 89.18(9) . . ?
N1 Co1 N2 90.82(9) 10_656 . ?
N5 Co1 N2 88.04(9) 17_556 . ?
N5 Co1 N2 91.96(9) 5_544 . ?
N2 Co1 N2 180.0 10_656 . ?
C1 N1 Co1 164.0(2) . . ?
C6 N2 C2 115.1(3) . . ?
C6 N2 Co1 121.48(19) . . ?
C2 N2 Co1 123.3(2) . . ?
C7 N3 C11 117.9(2) . . ?
C21 N4 C17 117.8(3) . . ?
C15 N5 C14 116.6(2) . . ?
C15 N5 Co1 118.22(19) . 9_655 ?
C14 N5 Co1 125.04(18) . 9_655 ?
N1 C1 S1 179.5(3) . . ?
N2 C2 C3 123.6(3) . . ?
N2 C2 H2A 118.2 . . ?
C3 C2 H2A 118.2 . . ?
C2 C3 C4 120.9(3) . . ?
C2 C3 H3A 119.6 . . ?
C4 C3 H3A 119.6 . . ?
C3 C4 C5 116.2(3) . . ?
C3 C4 C7 121.1(3) . . ?
C5 C4 C7 122.8(3) . . ?
C6 C5 C4 119.9(3) . . ?
C6 C5 H5A 120.1 . . ?
C4 C5 H5A 120.1 . . ?
N2 C6 C5 124.4(3) . . ?
N2 C6 H6A 117.8 . . ?
C5 C6 H6A 117.8 . . ?
N3 C7 C8 122.5(3) . . ?
N3 C7 C4 114.9(3) . . ?
C8 C7 C4 122.6(3) . . ?
C9 C8 C7 119.6(3) . . ?
C9 C8 H8A 120.2 . . ?
C7 C8 H8A 120.2 . . ?
C10 C9 C8 117.7(3) . . ?
C10 C9 C17 120.3(3) . . ?
C8 C9 C17 122.0(3) . . ?
C9 C10 C11 119.9(3) . . ?
C9 C10 H10A 120.0 . . ?
C11 C10 H10A 120.0 . . ?
N3 C11 C10 122.3(3) . . ?
N3 C11 C12 114.8(2) . . ?
C10 C11 C12 122.8(2) . . ?
C16 C12 C13 116.9(3) . . ?
C16 C12 C11 120.6(2) . . ?
C13 C12 C11 122.5(3) . . ?
C14 C13 C12 118.9(3) . . ?
C14 C13 H13A 120.5 . . ?
C12 C13 H13A 120.5 . . ?
N5 C14 C13 123.9(3) . . ?
N5 C14 H14A 118.1 . . ?
C13 C14 H14A 118.1 . . ?
N5 C15 C16 123.3(3) . . ?
N5 C15 H15A 118.4 . . ?
C16 C15 H15A 118.4 . . ?
C12 C16 C15 120.3(3) . . ?
C12 C16 H16A 119.9 . . ?
C15 C16 H16A 119.9 . . ?
N4 C17 C18 121.2(3) . . ?
N4 C17 C9 116.6(3) . . ?
C18 C17 C9 122.2(3) . . ?
C17 C18 C19 118.4(4) . . ?
C17 C18 H18A 120.8 . . ?
C19 C18 H18A 120.8 . . ?
C20 C19 C18 119.8(4) . . ?
C20 C19 H19A 120.1 . . ?
C18 C19 H19A 120.1 . . ?
C21 C20 C19 117.6(4) . . ?
C21 C20 H20A 121.2 . . ?
C19 C20 H20A 121.2 . . ?
C20 C21 N4 125.2(4) . . ?
C20 C21 H21A 117.4 . . ?
N4 C21 H21A 117.4 . . ?

loop_
_geom_torsion_atom_site_label_1
_geom_torsion_atom_site_label_2
_geom_torsion_atom_site_label_3
_geom_torsion_atom_site_label_4
_geom_torsion
_geom_torsion_site_symmetry_1
_geom_torsion_site_symmetry_2
_geom_torsion_site_symmetry_3
_geom_torsion_site_symmetry_4
_geom_torsion_publ_flag
N1 Co1 N1 C1 1(4) 10_656 . . . ?
N5 Co1 N1 C1 175.8(8) 17_556 . . . ?
N5 Co1 N1 C1 -4.2(8) 5_544 . . . ?
N2 Co1 N1 C1 -92.2(8) 10_656 . . . ?
N2 Co1 N1 C1 87.8(8) . . . . ?
N1 Co1 N2 C6 162.5(3) . . . . ?
N1 Co1 N2 C6 -17.5(3) 10_656 . . . ?
N5 Co1 N2 C6 70.7(3) 17_556 . . . ?
N5 Co1 N2 C6 -109.3(3) 5_544 . . . ?
N2 Co1 N2 C6 -53.4(10) 10_656 . . . ?
N1 Co1 N2 C2 -14.9(2) . . . . ?
N1 Co1 N2 C2 165.1(2) 10_656 . . . ?
N5 Co1 N2 C2 -106.8(2) 17_556 . . . ?
N5 Co1 N2 C2 73.2(2) 5_544 . . . ?
N2 Co1 N2 C2 129.1(9) 10_656 . . . ?
Co1 N1 C1 S1 -58(52) . . . . ?
C6 N2 C2 C3 0.4(4) . . . . ?
Co1 N2 C2 C3 178.0(2) . . . . ?
N2 C2 C3 C4 -0.4(5) . . . . ?
C2 C3 C4 C5 -0.2(4) . . . . ?
C2 C3 C4 C7 -179.9(3) . . . . ?
C3 C4 C5 C6 0.7(5) . . . . ?
C7 C4 C5 C6 -179.6(3) . . . . ?
C2 N2 C6 C5 0.2(5) . . . . ?
Co1 N2 C6 C5 -177.5(3) . . . . ?
C4 C5 C6 N2 -0.7(6) . . . . ?
C11 N3 C7 C8 0.9(4) . . . . ?
C11 N3 C7 C4 179.8(2) . . . . ?
C3 C4 C7 N3 -13.7(4) . . . . ?
C5 C4 C7 N3 166.5(3) . . . . ?
C3 C4 C7 C8 165.1(3) . . . . ?
C5 C4 C7 C8 -14.7(5) . . . . ?
N3 C7 C8 C9 -1.4(4) . . . . ?
C4 C7 C8 C9 179.9(3) . . . . ?
C7 C8 C9 C10 1.3(4) . . . . ?
C7 C8 C9 C17 179.4(3) . . . . ?
C8 C9 C10 C11 -0.8(4) . . . . ?
C17 C9 C10 C11 -178.9(3) . . . . ?
C7 N3 C11 C10 -0.4(4) . . . . ?
C7 N3 C11 C12 179.9(2) . . . . ?
C9 C10 C11 N3 0.3(4) . . . . ?
C9 C10 C11 C12 -179.9(3) . . . . ?
N3 C11 C12 C16 28.0(4) . . . . ?
C10 C11 C12 C16 -151.8(3) . . . . ?
N3 C11 C12 C13 -152.2(3) . . . . ?
C10 C11 C12 C13 28.0(4) . . . . ?
C16 C12 C13 C14 0.3(4) . . . . ?
C11 C12 C13 C14 -179.5(3) . . . . ?
C15 N5 C14 C13 -2.8(5) . . . . ?
Co1 N5 C14 C13 173.4(2) 9_655 . . . ?
C12 C13 C14 N5 1.8(5) . . . . ?
C14 N5 C15 C16 1.9(5) . . . . ?
Co1 N5 C15 C16 -174.6(2) 9_655 . . . ?
C13 C12 C16 C15 -1.2(4) . . . . ?
C11 C12 C16 C15 178.7(3) . . . . ?
N5 C15 C16 C12 0.1(5) . . . . ?
C21 N4 C17 C18 -0.7(5) . . . . ?
C21 N4 C17 C9 179.2(3) . . . . ?
C10 C9 C17 N4 5.5(4) . . . . ?
C8 C9 C17 N4 -172.6(3) . . . . ?
C10 C9 C17 C18 -174.6(3) . . . . ?
C8 C9 C17 C18 7.3(5) . . . . ?
N4 C17 C18 C19 -0.5(5) . . . . ?
C9 C17 C18 C19 179.6(3) . . . . ?
C17 C18 C19 C20 1.8(6) . . . . ?
C18 C19 C20 C21 -1.9(7) . . . . ?
C19 C20 C21 N4 0.8(6) . . . . ?
C17 N4 C21 C20 0.6(6) . . . . ?

_diffrn_measured_fraction_theta_max 0.991
_diffrn_reflns_theta_full        25.00
_diffrn_measured_fraction_theta_full 0.991
_refine_diff_density_max         0.443
_refine_diff_density_min         -0.441
_refine_diff_density_rms         0.068
