####################################################################### 
# 
# This file contains crystal structure data downloaded from the 
# Cambridge Structural Database (CSD) hosted by the Cambridge 
# Crystallographic Data Centre (CCDC).
# 
# Full information about CCDC data access policies and citation 
# guidelines are available at http://www.ccdc.cam.ac.uk/access/V1 
# 
# Audit and citation data items may have been added by the CCDC. 
# Please retain this information to preserve the provenance of 
# this file and to allow appropriate attribution of the data. 
# 
#######################################################################

data_YADNEW
#This CIF has been generated from an entry in the Cambridge Structural Database
_database_code_depnum_ccdc_archive 'CCDC 1298503'
_database_code_CSD               YADNEW
loop_
_citation_id
_citation_doi
_citation_year
1 10.1016/S0020-1693(99)00585-X 2000
_audit_creation_method           'Created from the CSD'
_audit_update_record             
;
2024-07-14 downloaded from the CCDC.
;
_database_code_NBS               769808
_chemical_formula_moiety         '(C28 H28 Cl8 N4 O8 Re4)n'
_chemical_name_systematic        
catena-(cis-tetrakis(\m~2~-Acetato-O,O')-bis(\m~2~-4,4'-bipyridine-N,N')-octachloro-tetra-rhenium(iii))
_chemical_absolute_configuration unk
_diffrn_ambient_temperature      203
_exptl_crystal_density_diffrn    2.047
#These two values have been output from a single CSD field.
_refine_ls_R_factor_gt           0.039
_refine_ls_wR_factor_gt          0.039
_diffrn_radiation_probe          x-ray
_symmetry_cell_setting           monoclinic
_symmetry_space_group_name_H-M   'C 2/c'
_symmetry_Int_Tables_number      15
_space_group_name_Hall           '-C 2yc'
loop_
_symmetry_equiv_pos_site_id
_symmetry_equiv_pos_as_xyz
1 x,y,z
2 -x,y,1/2-z
3 1/2+x,1/2+y,z
4 1/2-x,1/2+y,1/2-z
5 -x,-y,-z
6 x,-y,1/2+z
7 1/2-x,1/2-y,-z
8 1/2+x,1/2-y,1/2+z
_cell_length_a                   21.4581(9)
_cell_length_b                   12.8902(6)
_cell_length_c                   19.1995(7)
_cell_angle_alpha                90
_cell_angle_beta                 105.500(2)
_cell_angle_gamma                90
_cell_volume                     5117.42
_cell_formula_units_Z            4
loop_
_atom_site_label
_atom_site_type_symbol
_atom_site_fract_x
_atom_site_fract_y
_atom_site_fract_z
Re1 Re 0.141833(14) 0.13230(3) 0.064239(15)
Re2 Re 0.178954(15) 0.13927(3) 0.185452(15)
Cl1 Cl 0.23544(10) 0.11363(16) 0.02781(11)
Cl2 Cl 0.11429(11) -0.04052(17) 0.04187(11)
Cl3 Cl 0.28997(10) 0.1308(2) 0.20594(12)
Cl4 Cl 0.17663(11) -0.03220(17) 0.22062(11)
O1 O 0.1493(3) 0.2895(4) 0.0589(3)
O2 O 0.1839(3) 0.2972(5) 0.1783(3)
O3 O 0.0496(3) 0.1544(4) 0.0733(3)
O4 O 0.0860(3) 0.1554(4) 0.1927(3)
N1 N 0.0848(3) 0.1596(5) -0.0640(3)
N2 N 0.1977(4) 0.1904(6) 0.3126(3)
C1 C 0.1679(4) 0.3434(7) 0.1167(4)
C2 C 0.1715(5) 0.4574(7) 0.1133(5)
C3 C 0.0394(4) 0.1595(7) 0.1353(4)
C4 C -0.0283(4) 0.1670(9) 0.1409(5)
C5 C 0.0230(4) 0.1323(8) -0.0874(4)
C6 C -0.0126(4) 0.1350(7) -0.1597(4)
C7 C 0.0176(4) 0.1672(6) -0.2112(4)
C8 C 0.0821(4) 0.1973(7) -0.1874(4)
C9 C 0.1141(4) 0.1928(7) -0.1140(4)
C10 C 0.2216(9) 0.2835(11) 0.3365(6)
C11 C 0.2418(8) 0.3096(11) 0.4083(5)
C12 C 0.2382(5) 0.2379(8) 0.4608(4)
C13 C 0.2106(4) 0.1447(6) 0.4359(4)
C14 C 0.1912(4) 0.1230(7) 0.3626(4)
H1 H 0.002 0.110 -0.053
H2 H -0.056 0.115 -0.173
H3 H 0.104 0.220 -0.220
H4 H 0.157 0.213 -0.099
H5 H 0.225 0.333 0.303
H6 H 0.258 0.376 0.422
H7 H 0.205 0.095 0.469
H8 H 0.173 0.059 0.348
H9 H 0.130 0.485 0.089
H10 H 0.202 0.477 0.087
H11 H 0.185 0.485 0.161
H12 H -0.036 0.236 0.156
H13 H -0.035 0.118 0.176
H14 H -0.058 0.152 0.095
C7A C -0.0176(4) 0.1672(6) -0.2888(4)
C6A C 0.0126(4) 0.1350(7) -0.3403(4)
C5A C -0.0230(4) 0.1323(8) -0.4126(4)
N1A N -0.0848(3) 0.1596(5) -0.4360(3)
C9A C -0.1141(4) 0.1928(7) -0.3860(4)
C8A C -0.0821(4) 0.1973(7) -0.3126(4)
H3A H -0.104 0.220 -0.280
H4A H -0.157 0.213 -0.401
H1A H -0.002 0.110 -0.447
H2A H 0.056 0.115 -0.327
C12F C 0.2618(5) 0.2621(8) 0.5392(4)
C11F C 0.2582(8) 0.1904(11) 0.5917(5)
C10F C 0.2784(9) 0.2165(11) 0.6635(6)
N2F N 0.3023(4) 0.3096(6) 0.6874(3)
C14F C 0.3088(4) 0.3770(7) 0.6374(4)
C13F C 0.2894(4) 0.3553(6) 0.5641(4)
H7F H 0.295 0.405 0.531
H8F H 0.327 0.441 0.652
H5F H 0.275 0.167 0.697
H6F H 0.242 0.124 0.578
Re1A Re -0.141833(14) 0.13230(3) -0.564239(15)
Cl1A Cl -0.23544(10) 0.11363(16) -0.52781(11)
Cl2A Cl -0.11429(11) -0.04052(17) -0.54187(11)
O1A O -0.1493(3) 0.2895(4) -0.5589(3)
O2A O -0.1839(3) 0.2972(5) -0.6783(3)
C1A C -0.1679(4) 0.3434(7) -0.6167(4)
C2A C -0.1715(5) 0.4574(7) -0.6133(5)
H9A H -0.130 0.485 -0.589
H10A H -0.202 0.477 -0.587
H11A H -0.185 0.485 -0.661
O3A O -0.0496(3) 0.1544(4) -0.5733(3)
O4A O -0.0860(3) 0.1554(4) -0.6927(3)
C3A C -0.0394(4) 0.1595(7) -0.6353(4)
C4A C 0.0283(4) 0.1670(9) -0.6409(5)
H12A H 0.036 0.236 -0.656
H13A H 0.035 0.118 -0.676
H14A H 0.058 0.152 -0.595
Re2A Re -0.178954(15) 0.13927(3) -0.685452(15)
Cl3A Cl -0.28997(10) 0.1308(2) -0.70594(12)
Cl4A Cl -0.17663(11) -0.03220(17) -0.72062(11)
Re2F Re 0.321046(15) 0.36073(3) 0.814548(15)
N2A N -0.1977(4) 0.1904(6) -0.8126(3)

#END
