
#######################################################################
#
#                 Cambridge Crystallographic Data Centre
#                                CCDC
#
#######################################################################
#
# If this CIF has been generated from an entry in the Cambridge
# Structural Database, then it will include bibliographic, chemical,
# crystal, experimental, refinement or atomic coordinate data resulting
# from the CCDC's data processing and validation procedures.
#
#######################################################################

data_CSD_CIF_YAHSIJ
_audit_creation_date 1993-05-24
_audit_creation_method CSD-ConQuest-V1
_database_code_CSD YAHSIJ
_database_code_depnum_ccdc_archive 'CCDC 1298838'
_chemical_formula_sum 'C24 H18'
_chemical_formula_moiety
;
C24 H18
;
_journal_coden_Cambridge 579
_journal_volume 11
_journal_year 1992
_journal_page_first 3174
_journal_name_full 'Organometallics '
loop_
_publ_author_name
"H.-F.Klein"
"M.Mager"
"S.Isringhausen-Bley"
"U.Florke"
"H.-J.Haupt"
_chemical_name_systematic
;
1,3,6-Triphenyl-hexa-3,5-dien-1-yne
;
_chemical_name_common
;
Teaching Subset: Fundamental Chemistry
;
_chemical_melting_point 379
_cell_volume   1770.578
_exptl_crystal_colour 'yellow'
_exptl_crystal_density_diffrn 1.149
_exptl_special_details
;
Melting point range 379-380K

;
_diffrn_ambient_temperature ?
_diffrn_special_details
;
The study was carried out at room temperature,in the range 283-303K

;
#These two values have been output from a single CSD field.
_refine_ls_R_factor_gt 0.081
_refine_ls_wR_factor_gt 0.081
_symmetry_cell_setting orthorhombic
_symmetry_space_group_name_H-M 'P c a 21'
_symmetry_Int_Tables_number 29
loop_
_symmetry_equiv_pos_site_id
_symmetry_equiv_pos_as_xyz
1 x,y,z
2 1/2-x,y,1/2+z
3 1/2+x,-y,z
4 -x,-y,1/2+z
_cell_length_a 12.021(2)
_cell_length_b 16.446(3)
_cell_length_c 8.956(2)
_cell_angle_alpha 90
_cell_angle_beta 90
_cell_angle_gamma 90
_cell_formula_units_Z 4
loop_
_atom_type_symbol
_atom_type_radius_bond
C 0.68
loop_
_atom_site_label
_atom_site_type_symbol
_atom_site_fract_x
_atom_site_fract_y
_atom_site_fract_z
C1 C 0.1643(13) 0.0775(10) -0.3440(1)
C2 C 0.2469(17) 0.0211(9) -0.3820(29)
C3 C 0.2342(16) -0.0438(10) -0.4738(31)
C4 C 0.1325(13) -0.0608(10) -0.5443(27)
C5 C 0.0432(16) -0.0045(11) -0.5184(32)
C6 C 0.0608(13) 0.0590(9) -0.4201(25)
C7 C 0.1806(13) 0.1425(9) -0.2509(25)
C8 C 0.1095(16) 0.1966(10) -0.2009(26)
C9 C 0.1320(13) 0.2587(10) -0.0975(29)
C10 C 0.0600(16) 0.3090(11) -0.0247(31)
C11 C 0.0965(16) 0.3736(11) 0.0674(28)
C12 C 0.2087(15) 0.3875(11) 0.1111(30)
C13 C 0.2385(21) 0.4437(11) 0.2173(30)
C14 C 0.1665(16) 0.4927(13) 0.2849(29)
C15 C 0.0564(16) 0.4807(12) 0.2601(28)
C16 C 0.0187(16) 0.4218(10) 0.1519(28)
C17 C -0.0556(15) 0.3015(9) -0.0607(28)
C18 C -0.1529(13) 0.2938(9) -0.0776(28)
C19 C -0.2719(13) 0.2818(9) -0.0895(30)
C20 C -0.3414(15) 0.3231(10) 0.0109(27)
C21 C -0.4582(18) 0.3087(12) -0.0028(30)
C22 C -0.4955(16) 0.2558(12) -0.1016(29)
C23 C -0.4313(16) 0.2127(11) -0.1992(29)
C24 C -0.3152(13) 0.2281(9) -0.1902(25)
#END
