####################################################################### 
# 
# This file contains crystal structure data downloaded from the 
# Cambridge Structural Database (CSD) hosted by the Cambridge 
# Crystallographic Data Centre (CCDC).
# 
# Full information about CCDC data access policies and citation 
# guidelines are available at http://www.ccdc.cam.ac.uk/access/V1 
# 
# Audit and citation data items may have been added by the CCDC. 
# Please retain this information to preserve the provenance of 
# this file and to allow appropriate attribution of the data. 
# 
#######################################################################

data_Mb-InS-2
_audit_block_doi                 10.5517/ccw5rrj
_database_code_depnum_ccdc_archive 'CCDC 809898'
loop_
_citation_id
_citation_doi
_citation_year
1 10.1039/c1dt10153f 2011
_audit_update_record             
;
2011-01-26 deposited with the CCDC.	2024-07-14 downloaded from the CCDC.
;
#TrackingRef '- Mb-InS-1-3-R4.CIF'


_audit_creation_method           SHELXL-97
_chemical_name_systematic        
;
?
;
_chemical_name_common            ?
_chemical_melting_point          ?
_chemical_formula_moiety         ?
_chemical_formula_sum            'C74 H78 In10 N16 Ni2 O4 S19'
_chemical_formula_weight         3130.26

loop_
_atom_type_symbol
_atom_type_description
_atom_type_scat_dispersion_real
_atom_type_scat_dispersion_imag
_atom_type_scat_source
C C 0.0033 0.0016 'International Tables Vol C Tables 4.2.6.8 and 6.1.1.4'
H H 0.0000 0.0000 'International Tables Vol C Tables 4.2.6.8 and 6.1.1.4'
N N 0.0061 0.0033 'International Tables Vol C Tables 4.2.6.8 and 6.1.1.4'
O O 0.0106 0.0060 'International Tables Vol C Tables 4.2.6.8 and 6.1.1.4'
Ni Ni 0.3393 1.1124 'International Tables Vol C Tables 4.2.6.8 and 6.1.1.4'
S S 0.1246 0.1234 'International Tables Vol C Tables 4.2.6.8 and 6.1.1.4'
In In -0.7276 1.3100 'International Tables Vol C Tables 4.2.6.8 and 6.1.1.4'

_symmetry_cell_setting           orthorhombic
_symmetry_space_group_name_H-M   'P b c n '
_symmetry_space_group_name_Hall  '-P 2n 2ab '

loop_
_symmetry_equiv_pos_as_xyz
'x, y, z'
'-x+1/2, y+1/2, z'
'x, -y, z+1/2'
'-x+1/2, -y+1/2, z+1/2'
'-x, -y, -z'
'x-1/2, -y-1/2, -z'
'-x, y, -z-1/2'
'x-1/2, y-1/2, -z-1/2'

_cell_length_a                   43.056(4)
_cell_length_b                   28.770(2)
_cell_length_c                   19.3275(17)
_cell_angle_alpha                90.00
_cell_angle_beta                 90.00
_cell_angle_gamma                90.00
_cell_volume                     23942(4)
_cell_formula_units_Z            8
_cell_measurement_temperature    223(2)
_cell_measurement_reflns_used    95484
_cell_measurement_theta_min      3.0
_cell_measurement_theta_max      27.5

_exptl_crystal_description       Chip
_exptl_crystal_colour            Red
_exptl_crystal_size_max          0.50
_exptl_crystal_size_mid          0.25
_exptl_crystal_size_min          0.20
_exptl_crystal_density_meas      ?
_exptl_crystal_density_diffrn    1.759
_exptl_crystal_density_method    'not measured'
_exptl_crystal_F_000             12288
_exptl_absorpt_coefficient_mu    2.592
_exptl_absorpt_correction_type   multi-scan
_exptl_absorpt_correction_T_min  0.3573
_exptl_absorpt_correction_T_max  0.6252
_exptl_absorpt_process_details   'Jacobson, R. (1998) Private communication'
_exptl_special_details           
;
?
;

_diffrn_ambient_temperature      223(2)
_diffrn_radiation_wavelength     0.71075
_diffrn_radiation_type           MoK\a
_diffrn_radiation_source         'fine-focus sealed tube'
_diffrn_radiation_monochromator  graphite
_diffrn_measurement_device_type  'Rigaku Saturn'
_diffrn_measurement_method       \w
_diffrn_detector_area_resol_mean 14.63
_diffrn_standards_number         ?
_diffrn_standards_interval_count ?
_diffrn_standards_interval_time  ?
_diffrn_standards_decay_%        ?
_diffrn_reflns_number            102550
_diffrn_reflns_av_R_equivalents  0.1084
_diffrn_reflns_av_sigmaI/netI    0.0976
_diffrn_reflns_limit_h_min       -51
_diffrn_reflns_limit_h_max       50
_diffrn_reflns_limit_k_min       -31
_diffrn_reflns_limit_k_max       34
_diffrn_reflns_limit_l_min       -19
_diffrn_reflns_limit_l_max       22
_diffrn_reflns_theta_min         3.02
_diffrn_reflns_theta_max         25.00
_reflns_number_total             21003
_reflns_number_gt                15453
_reflns_threshold_expression     >2sigma(I)

_computing_data_collection       ?
_computing_cell_refinement       ?
_computing_data_reduction        ?
_computing_structure_solution    'SHELXS-97 (Sheldrick, 1990)'
_computing_structure_refinement  'SHELXL-97 (Sheldrick, 1997)'
_computing_molecular_graphics    ?
_computing_publication_material  ?

_refine_special_details          
;
Refinement of F^2^ against ALL reflections. The weighted R-factor wR and
goodness of fit S are based on F^2^, conventional R-factors R are based
on F, with F set to zero for negative F^2^. The threshold expression of
F^2^ > 2sigma(F^2^) is used only for calculating R-factors(gt) etc. and is
not relevant to the choice of reflections for refinement. R-factors based
on F^2^ are statistically about twice as large as those based on F, and R-
factors based on ALL data will be even larger. Two ethanolamine
molecules and two water molecules contribution to the scattering factors
has been taken into account with PLATON/SQUEEZE.
;

_refine_ls_structure_factor_coef Fsqd
_refine_ls_matrix_type           full
_refine_ls_weighting_scheme      calc
_refine_ls_weighting_details     
'calc w=1/[\s^2^(Fo^2^)+(0.0009P)^2^+250.2458P] where P=(Fo^2^+2Fc^2^)/3'
_atom_sites_solution_primary     direct
_atom_sites_solution_secondary   difmap
_atom_sites_solution_hydrogens   geom
_refine_ls_hydrogen_treatment    constr
_refine_ls_extinction_method     none
_refine_ls_extinction_coef       ?
_refine_ls_number_reflns         21003
_refine_ls_number_parameters     971
_refine_ls_number_restraints     220
_refine_ls_R_factor_all          0.1355
_refine_ls_R_factor_gt           0.0987
_refine_ls_wR_factor_ref         0.1723
_refine_ls_wR_factor_gt          0.1565
_refine_ls_goodness_of_fit_ref   1.185
_refine_ls_restrained_S_all      1.183
_refine_ls_shift/su_max          0.029
_refine_ls_shift/su_mean         0.002

loop_
_atom_site_label
_atom_site_type_symbol
_atom_site_fract_x
_atom_site_fract_y
_atom_site_fract_z
_atom_site_U_iso_or_equiv
_atom_site_adp_type
_atom_site_occupancy
_atom_site_symmetry_multiplicity
_atom_site_calc_flag
_atom_site_refinement_flags
_atom_site_disorder_assembly
_atom_site_disorder_group
In1 In 0.12139(2) 0.08797(3) 0.17483(5) 0.0598(3) Uani 1 1 d . . .
In2 In 0.09626(2) 0.19286(4) 0.06646(6) 0.0644(3) Uani 1 1 d . . .
In3 In 0.17374(2) 0.11677(4) 0.01888(5) 0.0616(3) Uani 1 1 d . . .
In4 In 0.17236(2) 0.19763(4) 0.19278(5) 0.0611(3) Uani 1 1 d . . .
In5 In 0.07707(3) 0.30069(4) -0.04148(6) 0.0786(3) Uani 1 1 d . . .
In6 In 0.14963(2) 0.23066(4) -0.09735(5) 0.0695(3) Uani 1 1 d . . .
In7 In 0.14859(2) 0.31138(4) 0.07703(6) 0.0672(3) Uani 1 1 d . . .
In8 In 0.22455(2) 0.16138(4) -0.13864(5) 0.0714(3) Uani 1 1 d . . .
In9 In 0.22617(2) 0.23480(4) 0.03022(5) 0.0673(3) Uani 1 1 d . . .
In10 In 0.22191(2) 0.31272(4) 0.19428(5) 0.0624(3) Uani 1 1 d . . .
Ni1 Ni 0.09284(4) 0.10515(6) 0.50609(9) 0.0583(4) Uani 1 1 d . . .
Ni2 Ni 0.09768(7) 0.39055(8) -0.47996(14) 0.1083(8) Uani 1 1 d . . .
S1 S 0.09496(9) 0.02459(13) 0.2393(2) 0.0694(10) Uani 1 1 d . . .
S2 S 0.07563(9) 0.12924(13) 0.1328(2) 0.0755(11) Uani 1 1 d . . .
S3 S 0.15341(8) 0.05219(13) 0.08466(18) 0.0652(9) Uani 1 1 d . . .
S4 S 0.15273(9) 0.13204(14) 0.25745(19) 0.0728(11) Uani 1 1 d . . .
S5 S 0.05315(9) 0.23763(15) 0.0231(2) 0.0822(12) Uani 1 1 d . . .
S6 S 0.12907(8) 0.16242(13) -0.03017(19) 0.0653(9) Uani 1 1 d . . .
S7 S 0.12774(8) 0.24415(13) 0.14524(19) 0.0660(10) Uani 1 1 d . . .
S8 S 0.20546(9) 0.09192(15) -0.0772(2) 0.0769(11) Uani 1 1 d . . .
S9 S 0.20575(8) 0.16719(14) 0.09731(18) 0.0666(10) Uani 1 1 d . . .
S10 S 0.20185(9) 0.24902(14) 0.26692(19) 0.0728(11) Uani 1 1 d . . .
S11 S 0.03176(12) 0.34378(18) -0.0873(3) 0.1099(17) Uani 1 1 d . . .
S12 S 0.10577(11) 0.27351(16) -0.1420(2) 0.0898(13) Uani 1 1 d . . .
S13 S 0.10532(10) 0.35485(15) 0.0315(3) 0.0936(14) Uani 1 1 d . . .
S14 S 0.18264(11) 0.20668(16) -0.1915(2) 0.0871(13) Uani 1 1 d . . .
S15 S 0.18170(9) 0.28096(14) -0.0188(2) 0.0726(11) Uani 1 1 d . . .
S16 S 0.18015(9) 0.36121(14) 0.1466(2) 0.0777(11) Uani 1 1 d . . .
S17 S 0.25870(9) 0.20773(17) -0.0635(2) 0.0864(13) Uani 1 1 d . . .
S18 S 0.25745(8) 0.28164(15) 0.1068(2) 0.0778(12) Uani 1 1 d . . .
S19 S 0.24742(9) 0.37266(15) 0.2643(2) 0.0751(11) Uani 1 1 d . . .
N1 N 0.1274(2) 0.1009(4) 0.5796(6) 0.065(3) Uani 1 1 d . . .
N2 N 0.1236(2) 0.1552(4) 0.4732(6) 0.059(3) Uani 1 1 d . . .
N3 N 0.0675(3) 0.1562(4) 0.5578(6) 0.069(3) Uani 1 1 d . . .
N4 N 0.0584(2) 0.1203(4) 0.4339(5) 0.055(3) Uani 1 1 d . . .
N5 N 0.0656(3) 0.0495(5) 0.5394(6) 0.075(4) Uani 1 1 d . . .
N6 N 0.1125(3) 0.0511(4) 0.4507(6) 0.060(3) Uani 1 1 d . . .
N8 N 0.1235(4) 0.3381(5) -0.4281(8) 0.104(5) Uani 1 1 d . . .
N12 N 0.1229(5) 0.4437(6) -0.4341(13) 0.145(8) Uani 1 1 d . . .
N13 N 0.5306(5) 0.4151(6) 0.2269(10) 0.151(7) Uani 1 1 d U . .
C1 C 0.1277(3) 0.0719(5) 0.6320(9) 0.078(4) Uani 1 1 d . . .
H1 H 0.1123 0.0486 0.6340 0.094 Uiso 1 1 calc R . .
C2 C 0.1500(3) 0.0740(6) 0.6857(8) 0.081(5) Uani 1 1 d . . .
H2 H 0.1495 0.0528 0.7228 0.097 Uiso 1 1 calc R . .
C3 C 0.1717(4) 0.1068(7) 0.6820(9) 0.102(6) Uani 1 1 d . . .
H3 H 0.1859 0.1105 0.7184 0.122 Uiso 1 1 calc R . .
C4 C 0.1733(3) 0.1354(6) 0.6250(9) 0.086(5) Uani 1 1 d . . .
H4 H 0.1899 0.1564 0.6193 0.103 Uiso 1 1 calc R . .
C5 C 0.1499(3) 0.1323(5) 0.5765(8) 0.065(4) Uani 1 1 d . . .
C6 C 0.1208(3) 0.1819(5) 0.4159(8) 0.074(4) Uani 1 1 d . . .
H6 H 0.1032 0.1777 0.3877 0.089 Uiso 1 1 calc R . .
C7 C 0.1419(4) 0.2145(6) 0.3971(8) 0.084(5) Uani 1 1 d . . .
H7 H 0.1386 0.2329 0.3576 0.101 Uiso 1 1 calc R . .
C8 C 0.1679(4) 0.2200(6) 0.4361(9) 0.094(6) Uani 1 1 d . . .
H8 H 0.1830 0.2421 0.4238 0.113 Uiso 1 1 calc R . .
C9 C 0.1718(4) 0.1924(5) 0.4950(9) 0.086(5) Uani 1 1 d . . .
H9 H 0.1901 0.1951 0.5212 0.103 Uiso 1 1 calc R . .
C10 C 0.1496(3) 0.1616(5) 0.5147(7) 0.066(4) Uani 1 1 d . . .
C11 C 0.0741(4) 0.1774(7) 0.6172(9) 0.091(5) Uani 1 1 d . . .
H11 H 0.0921 0.1673 0.6405 0.109 Uiso 1 1 calc R . .
C12 C 0.0579(5) 0.2116(9) 0.6470(12) 0.132(9) Uani 1 1 d . . .
H12 H 0.0634 0.2238 0.6905 0.158 Uiso 1 1 calc R . .
C13 C 0.0330(6) 0.2279(9) 0.6109(13) 0.158(11) Uani 1 1 d . . .
H13 H 0.0220 0.2539 0.6275 0.189 Uiso 1 1 calc R . .
C14 C 0.0238(5) 0.2072(7) 0.5515(12) 0.130(8) Uani 1 1 d . . .
H14 H 0.0052 0.2163 0.5295 0.156 Uiso 1 1 calc R . .
C15 C 0.0424(3) 0.1719(6) 0.5233(10) 0.087(5) Uani 1 1 d . . .
C16 C 0.0557(3) 0.1001(5) 0.3711(7) 0.067(4) Uani 1 1 d . . .
H16 H 0.0712 0.0792 0.3564 0.081 Uiso 1 1 calc R . .
C17 C 0.0312(3) 0.1092(6) 0.3282(9) 0.084(5) Uani 1 1 d . . .
H17 H 0.0304 0.0956 0.2840 0.101 Uiso 1 1 calc R . .
C18 C 0.0074(4) 0.1385(6) 0.3495(9) 0.088(5) Uani 1 1 d . . .
H18 H -0.0102 0.1439 0.3219 0.106 Uiso 1 1 calc R . .
C19 C 0.0110(3) 0.1594(6) 0.4129(11) 0.094(6) Uani 1 1 d . . .
H19 H -0.0039 0.1811 0.4278 0.113 Uiso 1 1 calc R . .
C20 C 0.0359(3) 0.1491(5) 0.4552(8) 0.065(4) Uani 1 1 d . . .
C21 C 0.0413(4) 0.0515(7) 0.5842(9) 0.097(5) Uani 1 1 d . . .
H21 H 0.0368 0.0803 0.6049 0.116 Uiso 1 1 calc R . .
C22 C 0.0232(5) 0.0146(9) 0.6011(12) 0.123(9) Uani 1 1 d . . .
H22 H 0.0065 0.0180 0.6320 0.147 Uiso 1 1 calc R . .
C23 C 0.0297(5) -0.0266(10) 0.5731(14) 0.139(11) Uani 1 1 d . . .
H23 H 0.0176 -0.0526 0.5854 0.166 Uiso 1 1 calc R . .
C24 C 0.0542(5) -0.0321(6) 0.5253(11) 0.110(7) Uani 1 1 d . . .
H24 H 0.0583 -0.0607 0.5037 0.132 Uiso 1 1 calc R . .
C25 C 0.0727(4) 0.0092(5) 0.5116(8) 0.070(4) Uani 1 1 d . . .
C26 C 0.1365(3) 0.0531(6) 0.4069(7) 0.073(4) Uani 1 1 d . . .
H26 H 0.1453 0.0824 0.3975 0.087 Uiso 1 1 calc R . .
C27 C 0.1491(4) 0.0147(6) 0.3745(9) 0.089(5) Uani 1 1 d U . .
H27 H 0.1657 0.0179 0.3431 0.106 Uiso 1 1 calc R . .
C28 C 0.1369(4) -0.0288(6) 0.3896(9) 0.096(5) Uani 1 1 d U . .
H28 H 0.1456 -0.0559 0.3704 0.116 Uiso 1 1 calc R . .
C29 C 0.1113(4) -0.0315(5) 0.4338(9) 0.089(5) Uani 1 1 d U . .
H29 H 0.1023 -0.0605 0.4438 0.107 Uiso 1 1 calc R . .
C30 C 0.0993(3) 0.0081(5) 0.4628(8) 0.067(4) Uani 1 1 d . . .
N7 N 0.0719(5) 0.3831(8) -0.3952(8) 0.146(7) Uani 1 1 d U . .
C31 C 0.0464(6) 0.4030(12) -0.3785(14) 0.188(9) Uani 1 1 d U . .
H31 H 0.0372 0.4211 -0.4134 0.225 Uiso 1 1 calc R . .
C32 C 0.0311(7) 0.4017(13) -0.3181(15) 0.206(8) Uani 1 1 d U . .
H32 H 0.0150 0.4222 -0.3061 0.247 Uiso 1 1 calc R . .
C33 C 0.0423(7) 0.3654(13) -0.2743(15) 0.206(8) Uani 1 1 d U . .
H33 H 0.0319 0.3601 -0.2323 0.247 Uiso 1 1 calc R . .
C34 C 0.0679(6) 0.3373(12) -0.2899(13) 0.188(8) Uani 1 1 d U . .
H34 H 0.0747 0.3122 -0.2626 0.225 Uiso 1 1 calc RD . .
C35 C 0.0811(6) 0.3504(12) -0.3470(12) 0.156(7) Uani 1 1 d U . .
C36 C 0.1501(7) 0.3179(9) -0.4457(14) 0.156(10) Uani 1 1 d . . .
H36 H 0.1583 0.3256 -0.4892 0.188 Uiso 1 1 calc R . .
C37 C 0.1661(7) 0.2881(10) -0.4084(13) 0.159(11) Uani 1 1 d . . .
H37 H 0.1856 0.2776 -0.4237 0.191 Uiso 1 1 calc R . .
C38 C 0.1540(9) 0.2725(11) -0.3470(17) 0.192(13) Uani 1 1 d U . .
H38 H 0.1645 0.2495 -0.3216 0.231 Uiso 1 1 calc R . .
C39 C 0.1232(7) 0.2928(9) -0.3197(16) 0.182(13) Uani 1 1 d U . .
H39 H 0.1136 0.2832 -0.2783 0.218 Uiso 1 1 calc RD . .
C40 C 0.1101(7) 0.3297(7) -0.3670(11) 0.124(8) Uani 1 1 d . . .
N9 N 0.0714(5) 0.3432(7) -0.5348(11) 0.147(6) Uani 1 1 d U . .
C41 C 0.0436(7) 0.3284(9) -0.5166(15) 0.175(7) Uani 1 1 d U . .
H41 H 0.0341 0.3365 -0.4745 0.210 Uiso 1 1 calc R . .
C42 C 0.0282(8) 0.2969(10) -0.5699(16) 0.196(7) Uani 1 1 d U . .
H42 H 0.0070 0.2892 -0.5661 0.235 Uiso 1 1 calc R . .
C43 C 0.0453(8) 0.2805(11) -0.6220(16) 0.198(6) Uani 1 1 d U . .
H43 H 0.0377 0.2548 -0.6466 0.238 Uiso 1 1 calc R . .
C44 C 0.0716(8) 0.2975(11) -0.6409(17) 0.198(6) Uani 1 1 d U . .
H44 H 0.0820 0.2901 -0.6823 0.238 Uiso 1 1 calc R . .
C45 C 0.0830(7) 0.3297(10) -0.5896(17) 0.168(6) Uani 1 1 d DU . .
N10 N 0.1262(6) 0.3835(8) -0.5654(11) 0.148(7) Uani 1 1 d . . .
C46 C 0.1544(8) 0.4051(11) -0.5698(16) 0.192(13) Uani 1 1 d D . .
H46 H 0.1603 0.4268 -0.5360 0.231 Uiso 1 1 calc R . .
C47 C 0.1751(9) 0.3945(12) -0.6261(17) 0.225(11) Uani 1 1 d DU . .
H47 H 0.1936 0.4107 -0.6352 0.270 Uiso 1 1 calc R . .
C48 C 0.1641(8) 0.3562(12) -0.6663(17) 0.218(11) Uani 1 1 d DU . .
H48 H 0.1789 0.3438 -0.6968 0.262 Uiso 1 1 calc R . .
C49 C 0.1346(8) 0.3333(12) -0.6688(17) 0.217(12) Uani 1 1 d DU . .
H49 H 0.1292 0.3110 -0.7022 0.261 Uiso 1 1 calc R . .
C50 C 0.1138(7) 0.3486(11) -0.6137(17) 0.169(8) Uani 1 1 d DU . .
N11 N 0.0750(6) 0.4485(7) -0.5193(14) 0.190(7) Uani 1 1 d U . .
C51 C 0.0477(8) 0.4442(10) -0.5464(19) 0.223(8) Uani 1 1 d U . .
H51 H 0.0383 0.4149 -0.5511 0.268 Uiso 1 1 calc R . .
C52 C 0.0331(8) 0.4831(11) -0.568(2) 0.252(9) Uani 1 1 d U . .
H52 H 0.0143 0.4795 -0.5916 0.302 Uiso 1 1 calc R . .
C53 C 0.0435(9) 0.5278(11) -0.557(2) 0.263(9) Uani 1 1 d U . .
H53 H 0.0332 0.5541 -0.5739 0.315 Uiso 1 1 calc R . .
C54 C 0.0717(8) 0.5306(10) -0.516(2) 0.240(8) Uani 1 1 d U . .
H54 H 0.0796 0.5596 -0.5024 0.288 Uiso 1 1 calc R . .
C55 C 0.0882(7) 0.4862(9) -0.4975(18) 0.204(7) Uani 1 1 d DU . .
C56 C 0.1499(7) 0.4387(8) -0.3943(15) 0.153(10) Uani 1 1 d . . .
H56 H 0.1568 0.4084 -0.3841 0.183 Uiso 1 1 calc R . .
C57 C 0.1666(7) 0.4745(9) -0.3700(17) 0.190(9) Uani 1 1 d U . .
H57 H 0.1845 0.4706 -0.3429 0.228 Uiso 1 1 calc R . .
C58 C 0.1549(7) 0.5186(9) -0.3882(18) 0.204(8) Uani 1 1 d U . .
H58 H 0.1643 0.5448 -0.3681 0.244 Uiso 1 1 calc R . .
C59 C 0.1312(7) 0.5260(8) -0.4326(17) 0.193(8) Uani 1 1 d U . .
H59 H 0.1252 0.5557 -0.4482 0.232 Uiso 1 1 calc R . .
C60 C 0.1166(7) 0.4851(8) -0.4525(17) 0.189(7) Uani 1 1 d DU . .
C61 C 0.5153(4) 0.3746(7) 0.2334(9) 0.094(5) Uani 1 1 d . . .
C62 C 0.5277(5) 0.3352(6) 0.2052(11) 0.116(7) Uani 1 1 d . . .
H62 H 0.5175 0.3066 0.2113 0.139 Uiso 1 1 calc R . .
C63 C 0.5547(6) 0.3365(8) 0.1683(14) 0.155(11) Uani 1 1 d . . .
H63 H 0.5609 0.3110 0.1414 0.187 Uiso 1 1 calc R . .
C64 C 0.5713(5) 0.3731(9) 0.1711(12) 0.143(10) Uani 1 1 d . . .
H64 H 0.5918 0.3729 0.1545 0.172 Uiso 1 1 calc R . .
C65 C 0.5589(7) 0.4122(9) 0.1985(13) 0.164(8) Uani 1 1 d U . .
H65 H 0.5710 0.4394 0.1975 0.197 Uiso 1 1 calc R . .

loop_
_atom_site_aniso_label
_atom_site_aniso_U_11
_atom_site_aniso_U_22
_atom_site_aniso_U_33
_atom_site_aniso_U_23
_atom_site_aniso_U_13
_atom_site_aniso_U_12
In1 0.0563(5) 0.0622(6) 0.0610(6) 0.0077(5) 0.0039(5) -0.0126(5)
In2 0.0521(5) 0.0667(6) 0.0743(7) 0.0111(5) -0.0108(5) -0.0112(5)
In3 0.0551(5) 0.0743(7) 0.0554(6) 0.0078(5) 0.0001(5) -0.0137(5)
In4 0.0542(5) 0.0744(7) 0.0545(6) 0.0084(5) -0.0047(5) -0.0175(5)
In5 0.0729(7) 0.0743(7) 0.0886(8) 0.0131(6) -0.0288(6) -0.0090(6)
In6 0.0728(7) 0.0777(7) 0.0580(6) 0.0107(5) -0.0103(5) -0.0198(6)
In7 0.0644(6) 0.0681(7) 0.0692(7) 0.0055(5) -0.0152(5) -0.0145(5)
In8 0.0671(6) 0.0947(8) 0.0523(6) -0.0012(6) 0.0058(5) -0.0281(6)
In9 0.0581(6) 0.0896(8) 0.0541(6) -0.0012(5) 0.0011(5) -0.0263(5)
In10 0.0564(6) 0.0767(7) 0.0541(6) 0.0038(5) -0.0062(5) -0.0218(5)
Ni1 0.0459(9) 0.0682(11) 0.0609(11) 0.0013(9) -0.0002(8) -0.0101(8)
Ni2 0.144(2) 0.0757(15) 0.1046(19) 0.0031(14) 0.0242(17) -0.0022(15)
S1 0.073(2) 0.067(2) 0.06