####################################################################### 
# 
# This file contains crystal structure data downloaded from the 
# Cambridge Structural Database (CSD) hosted by the Cambridge 
# Crystallographic Data Centre (CCDC).
# 
# Full information about CCDC data access policies and citation 
# guidelines are available at http://www.ccdc.cam.ac.uk/access/V1 
# 
# Audit and citation data items may have been added by the CCDC. 
# Please retain this information to preserve the provenance of 
# this file and to allow appropriate attribution of the data. 
# 
#######################################################################

data_Mb-InS-3
_audit_block_doi                 10.5517/ccw5rsk
_database_code_depnum_ccdc_archive 'CCDC 809899'
loop_
_citation_id
_citation_doi
_citation_year
1 10.1039/c1dt10153f 2011
_audit_update_record             
;
2011-01-26 deposited with the CCDC.	2024-07-14 downloaded from the CCDC.
;
#TrackingRef '- Mb-InS-1-3-R4.CIF'


_audit_creation_method           SHELXL-97
_chemical_name_systematic        
;
?
;
_chemical_name_common            ?
_chemical_melting_point          ?
_chemical_formula_moiety         ?
_chemical_formula_sum            'C286 H275 In40 N59 Ni7 O11 S74'
_chemical_formula_weight         12090.86

loop_
_atom_type_symbol
_atom_type_description
_atom_type_scat_dispersion_real
_atom_type_scat_dispersion_imag
_atom_type_scat_source
C C 0.0033 0.0016 'International Tables Vol C Tables 4.2.6.8 and 6.1.1.4'
H H 0.0000 0.0000 'International Tables Vol C Tables 4.2.6.8 and 6.1.1.4'
N N 0.0061 0.0033 'International Tables Vol C Tables 4.2.6.8 and 6.1.1.4'
O O 0.0106 0.0060 'International Tables Vol C Tables 4.2.6.8 and 6.1.1.4'
S S 0.1246 0.1234 'International Tables Vol C Tables 4.2.6.8 and 6.1.1.4'
In In -0.7276 1.3100 'International Tables Vol C Tables 4.2.6.8 and 6.1.1.4'
Ni Ni 0.3393 1.1124 'International Tables Vol C Tables 4.2.6.8 and 6.1.1.4'

_symmetry_cell_setting           monoclinic
_symmetry_space_group_name_H-M   'C 2 '
_symmetry_space_group_name_Hall  'C 2y '

loop_
_symmetry_equiv_pos_as_xyz
'x, y, z'
'-x, y, -z'
'x+1/2, y+1/2, z'
'-x+1/2, y+1/2, -z'

_cell_length_a                   31.983(2)
_cell_length_b                   20.9749(14)
_cell_length_c                   35.380(2)
_cell_angle_alpha                90.00
_cell_angle_beta                 92.042(2)
_cell_angle_gamma                90.00
_cell_volume                     23719(3)
_cell_formula_units_Z            2
_cell_measurement_temperature    223(2)
_cell_measurement_reflns_used    52617
_cell_measurement_theta_min      3.0
_cell_measurement_theta_max      27.5

_exptl_crystal_description       Platelet
_exptl_crystal_colour            pink
_exptl_crystal_size_max          0.50
_exptl_crystal_size_mid          0.30
_exptl_crystal_size_min          0.10
_exptl_crystal_density_meas      ?
_exptl_crystal_density_diffrn    1.693
_exptl_crystal_density_method    'not measured'
_exptl_crystal_F_000             11664
_exptl_absorpt_coefficient_mu    2.543
_exptl_absorpt_correction_type   multi-scan
_exptl_absorpt_correction_T_min  0.3629
_exptl_absorpt_correction_T_max  0.7851
_exptl_absorpt_process_details   'Jacobson, R. (1998) Private communication'
_exptl_special_details           
;
?
;

_diffrn_ambient_temperature      223(2)
_diffrn_radiation_wavelength     0.71075
_diffrn_radiation_type           MoK\a
_diffrn_radiation_source         'fine-focus sealed tube'
_diffrn_radiation_monochromator  graphite
_diffrn_measurement_device_type  'Rigaku Saturn'
_diffrn_measurement_method       \w
_diffrn_detector_area_resol_mean 14.63
_diffrn_standards_number         ?
_diffrn_standards_interval_count ?
_diffrn_standards_interval_time  ?
_diffrn_standards_decay_%        ?
_diffrn_reflns_number            57632
_diffrn_reflns_av_R_equivalents  0.0759
_diffrn_reflns_av_sigmaI/netI    0.1446
_diffrn_reflns_limit_h_min       -33
_diffrn_reflns_limit_h_max       38
_diffrn_reflns_limit_k_min       -22
_diffrn_reflns_limit_k_max       24
_diffrn_reflns_limit_l_min       -32
_diffrn_reflns_limit_l_max       42
_diffrn_reflns_theta_min         3.01
_diffrn_reflns_theta_max         25.00
_reflns_number_total             36115
_reflns_number_gt                24980
_reflns_threshold_expression     >2sigma(I)

_computing_data_collection       ?
_computing_cell_refinement       ?
_computing_data_reduction        ?
_computing_structure_solution    'SHELXS-97 (Sheldrick, 1990)'
_computing_structure_refinement  'SHELXL-97 (Sheldrick, 1997)'
_computing_molecular_graphics    ?
_computing_publication_material  ?

_refine_special_details          
;
Refinement of F^2^ against ALL reflections. The weighted R-factor wR and
goodness of fit S are based on F^2^, conventional R-factors R are based
on F, with F set to zero for negative F^2^. The threshold expression of
F^2^ > 2sigma(F^2^) is used only for calculating R-factors(gt) etc. and is
not relevant to the choice of reflections for refinement. R-factors based
on F^2^ are statistically about twice as large as those based on F, and R-
factors based on ALL data will be even larger. five bpy molecules,
one ethanolamine molecule and eight water molecules contribution to
the scattering factors has been taken into account with PLATON/SQUEEZE.
;

_refine_ls_structure_factor_coef Fsqd
_refine_ls_matrix_type           full
_refine_ls_weighting_scheme      calc
_refine_ls_weighting_details     
'calc w=1/[\s^2^(Fo^2^)+(0.0010P)^2^+240.0000P] where P=(Fo^2^+2Fc^2^)/3'
_atom_sites_solution_primary     direct
_atom_sites_solution_secondary   difmap
_atom_sites_solution_hydrogens   geom
_refine_ls_hydrogen_treatment    constr
_refine_ls_extinction_method     none
_refine_ls_extinction_coef       ?
_refine_ls_abs_structure_details 'Flack H D (1983), Acta Cryst. A39, 876-881'
_refine_ls_abs_structure_Flack   0.00(12)
_refine_ls_number_reflns         36115
_refine_ls_number_parameters     1830
_refine_ls_number_restraints     1030
_refine_ls_R_factor_all          0.1152
_refine_ls_R_factor_gt           0.0832
_refine_ls_wR_factor_ref         0.1436
_refine_ls_wR_factor_gt          0.1285
_refine_ls_goodness_of_fit_ref   1.066
_refine_ls_restrained_S_all      1.058
_refine_ls_shift/su_max          0.020
_refine_ls_shift/su_mean         0.001

loop_
_atom_site_label
_atom_site_type_symbol
_atom_site_fract_x
_atom_site_fract_y
_atom_site_fract_z
_atom_site_U_iso_or_equiv
_atom_site_adp_type
_atom_site_occupancy
_atom_site_symmetry_multiplicity
_atom_site_calc_flag
_atom_site_refinement_flags
_atom_site_disorder_assembly
_atom_site_disorder_group
In1 In -0.25498(5) -0.09396(8) 0.15717(4) 0.0555(4) Uani 1 1 d . . .
In2 In -0.34660(5) -0.20958(7) 0.16899(4) 0.0486(4) Uani 1 1 d . . .
In3 In -0.35739(5) -0.05132(7) 0.10037(4) 0.0501(4) Uani 1 1 d . . .
In4 In -0.34461(4) -0.03334(7) 0.21679(4) 0.0448(4) Uani 1 1 d . . .
In5 In -0.44573(5) -0.31532(7) 0.17711(4) 0.0464(4) Uani 1 1 d . . .
In6 In -0.45765(5) -0.16668(7) 0.11220(4) 0.0492(4) Uani 1 1 d . . .
In7 In -0.44515(5) -0.14862(7) 0.22764(4) 0.0432(4) Uani 1 1 d . . .
In8 In -0.46588(5) -0.01371(7) 0.05119(4) 0.0476(4) Uani 1 1 d . . .
In9 In -0.45514(4) 0.00995(7) 0.16106(4) 0.0423(3) Uani 1 1 d . . .
In10 In -0.44297(4) 0.02372(6) 0.26992(4) 0.0399(3) Uani 1 1 d . . .
In11 In -0.25316(4) 0.41247(7) 0.35900(4) 0.0487(4) Uani 1 1 d . . .
In12 In -0.34419(4) 0.29484(7) 0.34599(4) 0.0466(4) Uani 1 1 d . . .
In13 In -0.34516(4) 0.47034(7) 0.29476(4) 0.0452(4) Uani 1 1 d . . .
In14 In -0.35441(4) 0.45685(7) 0.41213(4) 0.0437(4) Uani 1 1 d . . .
In15 In -0.44155(4) 0.18551(7) 0.33076(4) 0.0407(3) Uani 1 1 d . . .
In16 In -0.44455(4) 0.35019(7) 0.27967(4) 0.0420(3) Uani 1 1 d . . .
In17 In -0.45245(4) 0.33578(6) 0.39542(4) 0.0411(3) Uani 1 1 d . . .
In18 In -0.44425(4) 0.52260(6) 0.23513(4) 0.0423(3) Uani 1 1 d . . .
In19 In -0.45558(4) 0.50987(7) 0.34460(4) 0.0409(3) Uani 1 1 d . . .
In20 In -0.46256(4) 0.49207(6) 0.45313(4) 0.0403(3) Uani 1 1 d . . .
Ni1 Ni -0.62705(8) 0.66237(12) 0.33494(8) 0.0476(7) Uani 1 1 d . . .
Ni2 Ni 0.12922(9) 0.65893(14) 0.82602(9) 0.0599(8) Uani 1 1 d D . .
Ni3 Ni -0.19899(8) -0.25864(14) 0.38445(8) 0.0511(7) Uani 1 1 d . . .
Ni4 Ni 0.5000 -0.10033(17) 0.5000 0.0433(9) Uani 1 2 d S . .
S1 S -0.17877(18) -0.0816(4) 0.1482(2) 0.082(2) Uani 1 1 d . . .
S2 S -0.27127(18) -0.2074(3) 0.16439(19) 0.0660(17) Uani 1 1 d . . .
S3 S -0.28191(19) -0.0446(3) 0.09816(17) 0.0678(18) Uani 1 1 d . . .
S4 S -0.26904(15) -0.0363(3) 0.21608(17) 0.0584(16) Uani 1 1 d . . .
S5 S -0.36901(17) -0.3173(3) 0.18180(17) 0.0605(16) Uani 1 1 d . . .
S6 S -0.37911(17) -0.1643(3) 0.10954(14) 0.0498(14) Uani 1 1 d . . .
S7 S -0.36704(16) -0.1472(3) 0.22583(15) 0.0487(13) Uani 1 1 d . . .
S8 S -0.38997(18) -0.0088(3) 0.04254(16) 0.0645(17) Uani 1 1 d . . .
S9 S -0.37717(16) 0.0116(3) 0.15737(14) 0.0476(13) Uani 1 1 d . . .
S10 S -0.36704(17) 0.0357(3) 0.26672(17) 0.0570(15) Uani 1 1 d . . .
S11 S -0.4767(2) -0.2773(3) 0.11720(15) 0.0608(17) Uani 1 1 d . . .
S12 S -0.47154(16) -0.2561(2) 0.23216(14) 0.0456(13) Uani 1 1 d . . .
S13 S -0.4921(2) -0.1225(3) 0.05735(16) 0.0615(17) Uani 1 1 d . . .
S14 S -0.47821(16) -0.1025(2) 0.16838(14) 0.0461(13) Uani 1 1 d . . .
S15 S -0.46283(17) -0.0872(3) 0.28286(14) 0.0515(14) Uani 1 1 d . . .
S16 S -0.5000 0.0453(4) 0.0000 0.072(3) Uani 1 2 d S . .
S17 S -0.48315(18) 0.0564(3) 0.10380(15) 0.0562(15) Uani 1 1 d . . .
S18 S -0.48011(17) 0.0691(3) 0.21410(14) 0.0507(14) Uani 1 1 d . . .
S19 S -0.46809(17) 0.0771(2) 0.32608(15) 0.0463(13) Uani 1 1 d . . .
S20 S -0.17655(17) 0.4200(3) 0.3645(2) 0.075(2) Uani 1 1 d . . .
S21 S -0.26881(16) 0.2992(2) 0.35220(17) 0.0515(14) Uani 1 1 d . . .
S22 S -0.26983(16) 0.4688(3) 0.30000(17) 0.0662(18) Uani 1 1 d . . .
S23 S -0.27867(16) 0.4611(3) 0.41722(16) 0.0605(16) Uani 1 1 d . . .
S24 S -0.36557(15) 0.1853(3) 0.33818(19) 0.0607(17) Uani 1 1 d . . .
S25 S -0.36667(15) 0.3562(3) 0.28716(15) 0.0480(13) Uani 1 1 d . . .
S26 S -0.37544(15) 0.3423(2) 0.40311(15) 0.0455(13) Uani 1 1 d . . .
S27 S -0.36725(16) 0.5378(2) 0.24309(15) 0.0493(14) Uani 1 1 d . . .
S28 S -0.37688(15) 0.5153(2) 0.35253(14) 0.0436(12) Uani 1 1 d . . .
S29 S -0.38611(16) 0.5011(3) 0.46650(15) 0.0530(14) Uani 1 1 d . . .
S30 S -0.46687(16) 0.2410(2) 0.27336(14) 0.0441(13) Uani 1 1 d . . .
S31 S -0.47109(17) 0.2252(2) 0.38987(15) 0.0484(14) Uani 1 1 d . . .
S32 S -0.46246(18) 0.4101(3) 0.22376(15) 0.0539(15) Uani 1 1 d . . .
S33 S -0.47714(15) 0.3952(2) 0.33738(13) 0.0387(11) Uani 1 1 d . . .
S34 S -0.48607(16) 0.3805(2) 0.44845(14) 0.0418(12) Uani 1 1 d . . .
S35 S -0.4729(2) 0.5769(3) 0.17928(16) 0.0605(17) Uani 1 1 d . . .
S36 S -0.47946(17) 0.5690(3) 0.29004(15) 0.0494(14) Uani 1 1 d . . .
S37 S -0.48110(18) 0.5608(2) 0.39895(16) 0.0537(15) Uani 1 1 d . . .
S38 S -0.5000 0.5510(4) 0.5000 0.059(2) Uani 1 2 d S . .
N4 N -0.5684(4) 0.7074(8) 0.3342(5) 0.051(5) Uani 1 1 d U . .
N6 N -0.6075(5) 0.5842(9) 0.3655(6) 0.059(5) Uani 1 1 d U . .
N7 N 0.0724(5) 0.6977(8) 0.8287(5) 0.055(4) Uani 1 1 d U . .
N8 N 0.1379(6) 0.7446(9) 0.7982(5) 0.066(5) Uani 1 1 d U . .
N10 N 0.1916(5) 0.6241(11) 0.8208(6) 0.086(6) Uani 1 1 d DU . .
N13 N -0.1653(6) -0.2215(10) 0.4273(5) 0.066(5) Uani 1 1 d U . .
N14 N -0.1436(5) -0.2499(8) 0.3598(5) 0.049(5) Uani 1 1 d . . .
N16 N -0.2330(5) -0.2889(9) 0.3353(5) 0.061(5) Uani 1 1 d U . .
N17 N -0.2509(5) -0.2793(9) 0.4171(5) 0.050(5) Uani 1 1 d . . .
N18 N -0.1845(5) -0.3507(8) 0.4023(4) 0.052(5) Uani 1 1 d . . .
N19 N 0.5274(5) -0.0906(7) 0.5549(4) 0.054(5) Uani 1 1 d . . .
N21 N 0.5340(4) -0.1767(7) 0.4782(3) 0.025(3) Uani 1 1 d . . .
N1 N -0.6860(5) 0.6293(9) 0.3263(5) 0.062(5) Uani 1 1 d U . .
C1 C -0.7172(6) 0.6415(9) 0.3510(6) 0.049(5) Uani 1 1 d U . .
H1 H -0.7102 0.6598 0.3746 0.059 Uiso 1 1 calc R . .
C2 C -0.7635(6) 0.6260(11) 0.3409(7) 0.068(7) Uani 1 1 d U . .
H2 H -0.7851 0.6314 0.3579 0.082 Uiso 1 1 calc R . .
C3 C -0.7696(7) 0.6047(11) 0.3066(8) 0.070(6) Uani 1 1 d U . .
H3 H -0.7976 0.5984 0.2984 0.084 Uiso 1 1 calc R . .
C4 C -0.7369(8) 0.5892(12) 0.2790(8) 0.081(7) Uani 1 1 d U . .
H4 H -0.7426 0.5731 0.2545 0.097 Uiso 1 1 calc R . .
C5 C -0.6964(7) 0.6020(11) 0.2942(7) 0.068(7) Uani 1 1 d U . .
N2 N -0.6215(6) 0.6176(9) 0.2832(5) 0.065(5) Uani 1 1 d U . .
C6 C -0.5874(8) 0.6136(11) 0.2620(7) 0.069(5) Uani 1 1 d U . .
H6 H -0.5625 0.6318 0.2718 0.083 Uiso 1 1 calc R . .
C7 C -0.5865(9) 0.5856(13) 0.2278(8) 0.089(6) Uani 1 1 d U . .
H7 H -0.5617 0.5862 0.2142 0.107 Uiso 1 1 calc R . .
C8 C -0.6219(10) 0.5559(15) 0.2125(9) 0.107(8) Uani 1 1 d U . .
H8 H -0.6215 0.5327 0.1899 0.129 Uiso 1 1 calc R . .
C9 C -0.6587(10) 0.5627(14) 0.2332(9) 0.105(10) Uani 1 1 d U . .
H9 H -0.6840 0.5475 0.2223 0.126 Uiso 1 1 calc R . .
C10 C -0.6594(8) 0.5915(12) 0.2697(8) 0.073(7) Uani 1 1 d U . .
N3 N -0.6431(5) 0.7478(8) 0.3093(5) 0.056(5) Uani 1 1 d U . .
C11 C -0.6793(7) 0.7686(11) 0.2944(6) 0.067(6) Uani 1 1 d U . .
H11 H -0.7032 0.7432 0.2969 0.080 Uiso 1 1 calc R . .
C12 C -0.6834(8) 0.8302(13) 0.2742(7) 0.078(6) Uani 1 1 d U . .
H12 H -0.7099 0.8454 0.2660 0.094 Uiso 1 1 calc R . .
C13 C -0.6507(8) 0.8621(11) 0.2681(6) 0.066(6) Uani 1 1 d U . .
H13 H -0.6533 0.8994 0.2536 0.079 Uiso 1 1 calc R . .
C14 C -0.6111(8) 0.8443(13) 0.2820(7) 0.080(8) Uani 1 1 d U . .
H14 H -0.5874 0.8695 0.2780 0.096 Uiso 1 1 calc R . .
C15 C -0.6084(7) 0.7845(11) 0.3033(6) 0.062(6) Uani 1 1 d U . .
C16 C -0.5336(6) 0.6822(10) 0.3521(6) 0.059(6) Uani 1 1 d U . .
H16 H -0.5356 0.6441 0.3659 0.071 Uiso 1 1 calc R . .
C17 C -0.4957(5) 0.7123(9) 0.3498(6) 0.047(5) Uani 1 1 d U . .
H17 H -0.4709 0.6934 0.3593 0.056 Uiso 1 1 calc R . .
C18 C -0.4957(6) 0.7741(9) 0.3323(6) 0.053(5) Uani 1 1 d U . .
H18 H -0.4709 0.7979 0.3309 0.063 Uiso 1 1 calc R . .
C19 C -0.5301(6) 0.7956(9) 0.3186(6) 0.056(5) Uani 1 1 d U . .
H19 H -0.5300 0.8371 0.3085 0.067 Uiso 1 1 calc R . .
C20 C -0.5679(6) 0.7631(10) 0.3172(6) 0.047(5) Uani 1 1 d U . .
N5 N -0.6329(5) 0.6903(9) 0.3898(4) 0.048(4) Uani 1 1 d U . .
C21 C -0.6502(7) 0.7494(11) 0.4006(6) 0.061(6) Uani 1 1 d U . .
H21 H -0.6646 0.7750 0.3826 0.073 Uiso 1 1 calc R . .
C22 C -0.6458(8) 0.7694(13) 0.4381(7) 0.080(6) Uani 1 1 d U . .
H22 H -0.6553 0.8098 0.4455 0.096 Uiso 1 1 calc R . .
C23 C -0.6269(9) 0.7282(15) 0.4643(9) 0.099(7) Uani 1 1 d U . .
H23 H -0.6229 0.7412 0.4896 0.119 Uiso 1 1 calc R . .
C24 C -0.6145(9) 0.6712(15) 0.4540(9) 0.098(8) Uani 1 1 d U . .
H24 H -0.6035 0.6427 0.4723 0.118 Uiso 1 1 calc R . .
C25 C -0.6176(6) 0.6527(11) 0.4162(7) 0.056(6) Uani 1 1 d U . .
C26 C -0.5961(7) 0.5258(13) 0.3519(8) 0.076(6) Uani 1 1 d U . .
H26 H -0.5958 0.5183 0.3257 0.091 Uiso 1 1 calc R . .
C27 C -0.5847(6) 0.4761(12) 0.3783(8) 0.071(7) Uani 1 1 d U . .
H27 H -0.5766 0.4360 0.3692 0.085 Uiso 1 1 calc R . .
C28 C -0.5852(8) 0.4861(14) 0.4166(8) 0.086(8) Uani 1 1 d U . .
H28 H -0.5806 0.4519 0.4334 0.104 Uiso 1 1 calc R . .
C29 C -0.5919(8) 0.5409(13) 0.4291(8) 0.081(8) Uani 1 1 d U . .
H29 H -0.5885 0.5481 0.4552 0.097 Uiso 1 1 calc R . .
C30 C -0.6048(6) 0.5942(12) 0.4046(7) 0.064(7) Uani 1 1 d U . .
C31 C 0.0379(8) 0.6797(13) 0.8423(7) 0.076(6) Uani 1 1 d U . .
H31 H 0.0391 0.6376 0.8513 0.092 Uiso 1 1 calc R . .
C32 C 0.0013(6) 0.7058(12) 0.8468(7) 0.074(6) Uani 1 1 d U . .
H32 H -0.0201 0.6855 0.8598 0.088 Uiso 1 1 calc R . .
C33 C -0.0037(7) 0.7712(12) 0.8296(7) 0.073(6) Uani 1 1 d U . .
H33 H -0.0287 0.7948 0.8287 0.088 Uiso 1 1 calc R . .
C34 C 0.0322(8) 0.7908(12) 0.8160(7) 0.076(7) Uani 1 1 d U . .
H34 H 0.0322 0.8337 0.8082 0.091 Uiso 1 1 calc R . .
C35 C 0.0697(7) 0.7593(10) 0.8112(7) 0.060(6) Uani 1 1 d U . .
C36 C 0.1763(6) 0.7627(10) 0.7832(6) 0.060(6) Uani 1 1 d D . .
H36 H 0.2001 0.7363 0.7845 0.072 Uiso 1 1 calc R . .
C37 C 0.1763(10) 0.8238(11) 0.7658(7) 0.087(9) Uani 1 1 d DU . .
H37 H 0.2027 0.8411 0.7609 0.105 Uiso 1 1 calc R . .
C38 C 0.1440(9) 0.8586(14) 0.7560(7) 0.096(10) Uani 1 1 d D . .
H38 H 0.1448 0.8916 0.7381 0.115 Uiso 1 1 calc R . .
C39 C 0.1079(8) 0.8416(11) 0.7752(6) 0.079(8) Uani 1 1 d D . .
H39 H 0.0853 0.8701 0.7760 0.095 Uiso 1 1 calc R . .
C40 C 0.1056(7) 0.7822(11) 0.7931(6) 0.056(5) Uani 1 1 d U . .
N9 N 0.1183(6) 0.6091(9) 0.7763(6) 0.073(5) Uani 1 1 d U . .
C41 C 0.0831(8) 0.6061(12) 0.7510(8) 0.076(6) Uani 1 1 d U . .
H41 H 0.0575 0.6228 0.7588 0.091 Uiso 1 1 calc R . .
C42 C 0.0847(9) 0.5819(15) 0.7187(7) 0.093(8) Uani 1 1 d U . .
H42 H 0.0603 0.5837 0.7031 0.112 Uiso 1 1 calc R . .
C43 C 0.1169(10) 0.5549(15) 0.7049(9) 0.105(8) Uani 1 1 d U . .
H43 H 0.1156 0.5386 0.6801 0.125 Uiso 1 1 calc R . .
C44 C 0.1535(9) 0.5500(13) 0.7270(8) 0.088(8) Uani 1 1 d U . .
H44 H 0.1765 0.5270 0.7183 0.105 Uiso 1 1 calc R . .
C45 C 0.1555(8) 0.5785(12) 0.7607(8) 0.077(6) Uani 1 1 d U . .
C46 C 0.2223(10) 0.6287(15) 0.8452(9) 0.108(8) Uani 1 1 d U . .
H46 H 0.2202 0.6481 0.8690 0.129 Uiso 1 1 calc R . .
C47 C 0.2599(11) 0.6011(16) 0.8324(10) 0.114(8) Uani 1 1 d U . .
H47 H 0.2855 0.6134 0.8441 0.137 Uiso 1 1 calc R . .
C48 C 0.2602(10) 0.5643(17) 0.8082(10) 0.115(9) Uani 1 1 d U . .
H48 H 0.2854 0.5412 0.8071 0.138 Uiso 1 1 calc R . .
C49 C 0.2285(9) 0.5465(13) 0.7784(8) 0.093(9) Uani 1 1 d U . .
H49 H 0.2305 0.5181 0.7579 0.112 Uiso 1 1 calc R . .
C50 C 0.1946(8) 0.5842(14) 0.7894(8) 0.086(7) Uani 1 1 d U . .
N11 N 0.1147(5) 0.5847(9) 0.8608(6) 0.065(5) Uani 1 1 d U . .
C51 C 0.0998(7) 0.5278(13) 0.8518(8) 0.084(7) Uani 1 1 d U . .
H51 