
#######################################################################
#
#                 Cambridge Crystallographic Data Centre
#                                CCDC
#
#######################################################################
#
# If this CIF has been generated from an entry in the Cambridge
# Structural Database, then it will include bibliographic, chemical,
# crystal, experimental, refinement or atomic coordinate data resulting
# from the CCDC's data processing and validation procedures.
#
#######################################################################

data_CSD_CIF_YALROS
_audit_creation_date 1994-01-24
_audit_creation_method CSD-ConQuest-V1
_database_code_CSD YALROS
_database_code_depnum_ccdc_archive 'CCDC 1299137'
_database_code_depnum_ccdc_fiz 'CSD 56371'
_chemical_formula_sum 'C4 H12 F5 N1 Se1'
_chemical_formula_moiety
;
C4 H12 N1 1+,F5 Se1 1-
;
_journal_coden_Cambridge 29
_journal_volume 618
_journal_year 1992
_journal_page_first 83
_journal_name_full 'Z.Anorg.Allg.Chem. '
loop_
_publ_author_name
"A.R.Mahjoub"
"D.Leopold"
"K.Seppelt"
_chemical_name_systematic
;
Tetramethylammonium pentafluoro-selenate(iv)
;
_chemical_name_common
;
Teaching Subset: Fundamental Chemistry, Symmetry
;
_cell_volume   1672.946
_exptl_crystal_colour 'colorless'
_diffrn_ambient_temperature 115.15
#These two values have been output from a single CSD field.
_refine_ls_R_factor_gt 0.023
_refine_ls_wR_factor_gt 0.023
_symmetry_cell_setting monoclinic
_symmetry_space_group_name_H-M 'I 2/m'
_symmetry_Int_Tables_number 12
loop_
_symmetry_equiv_pos_site_id
_symmetry_equiv_pos_as_xyz
1 x,y,z
2 1/2+x,1/2+y,1/2+z
3 -x,y,-z
4 1/2-x,1/2+y,1/2-z
5 -x,-y,-z
6 -1/2-x,-1/2-y,-1/2-z
7 x,-y,z
8 -1/2+x,-1/2-y,-1/2+z
_cell_length_a 11.209(1)
_cell_length_b 13.266(1)
_cell_length_c 11.252(1)
_cell_angle_alpha 90
_cell_angle_beta 90.91
_cell_angle_gamma 90
_cell_formula_units_Z 8
loop_
_atom_type_symbol
_atom_type_radius_bond
C 0.68
H 0.23
F 0.64
N 0.68
Se 1.22
loop_
_atom_site_label
_atom_site_type_symbol
_atom_site_fract_x
_atom_site_fract_y
_atom_site_fract_z
Se1 Se 0.21790 0.50000 0.74110
F1 F 0.1945(3) 0.50000 0.5908(3)
F2 F 0.2154(2) 0.3630(2) 0.7226(2)
F3 F 0.3769(2) 0.50000 0.7010(3)
F4 F 0.0551(2) 0.50000 0.7475(3)
Se2 Se 0.20320 0.50000 0.17680
F5 F 0.3558(2) 0.50000 0.1702(3)
F6 F 0.2202(2) 0.3621(2) 0.1759(2)
F7 F 0.2286(3) 0.50000 0.3351(3)
F8 F 0.2135(3) 0.50000 0.0111(3)
N1 N 0.00000 0.7889(3) 0.00000
C1 C 0.0702(3) 0.7246(2) -0.0817(3)
C2 C -0.0845(3) 0.8548(2) -0.0718(3)
H1 H 0.13170 0.67800 -0.03150
H2 H 0.11930 0.77240 -0.14130
H3 H 0.00980 0.67730 -0.13250
H4 H -0.14000 0.90200 -0.01740
H5 H -0.14020 0.80610 -0.12600
H6 H -0.03080 0.90160 -0.12840
N2 N 0.00000 0.7596(3) 0.50000
C3 C 0.0779(3) 0.8241(2) 0.5782(3)
C4 C -0.0759(3) 0.6937(3) 0.5758(3)
H7 H 0.13190 0.87710 0.52990
H8 H 0.13500 0.77650 0.63230
H9 H 0.01730 0.86470 0.63450
H10 H -0.13160 0.64760 0.51860
H11 H -0.13150 0.74000 0.63120
H12 H -0.02040 0.64590 0.63120
F2F F 0.2154(2) 0.6370(2) 0.7226(2)
F6F F 0.2202(2) 0.6379(2) 0.1759(2)
C1B C -0.0702(3) 0.7246(2) 0.0817(3)
C2B C 0.0845(3) 0.8548(2) 0.0718(3)
H1B H -0.13170 0.67800 0.03150
H2B H -0.11930 0.77240 0.14130
H3B H -0.00980 0.67730 0.13250
H4B H 0.14000 0.90200 0.01740
H5B H 0.14020 0.80610 0.12600
H6B H 0.03080 0.90160 0.12840
C3B C -0.0779(3) 0.8241(2) 0.4218(3)
C4B C 0.0759(3) 0.6937(3) 0.4242(3)
H7B H -0.13190 0.87710 0.47010
H8B H -0.13500 0.77650 0.36770
H9B H -0.01730 0.86470 0.36550
H10B H 0.13160 0.64760 0.48140
H11B H 0.13150 0.74000 0.36880
H12B H 0.02040 0.64590 0.36880
#END
