
#######################################################################
#
#                 Cambridge Crystallographic Data Centre
#                                CCDC
#
#######################################################################
#
# If this CIF has been generated from an entry in the Cambridge
# Structural Database, then it will include bibliographic, chemical,
# crystal, experimental, refinement or atomic coordinate data resulting
# from the CCDC's data processing and validation procedures.
#
#######################################################################

data_CSD_CIF_YANYUH
_audit_creation_date 1994-02-15
_audit_creation_method CSD-ConQuest-V1
_database_code_CSD YANYUH
_database_code_depnum_ccdc_archive 'CCDC 1299372'
_chemical_formula_sum 'C22 H41 As2 B1'
_chemical_formula_moiety
;
C22 H41 As2 B1
;
_journal_coden_Cambridge 4
_journal_volume 115
_journal_year 1993
_journal_page_first 3221
_journal_name_full 'J.Am.Chem.Soc. '
loop_
_publ_author_name
"M.A.Petrie"
"M.M.Olmstead"
"H.Hope"
"R.A.Bartlett"
"P.P.Power"
_chemical_name_systematic
;
bis(Di-t-butyl-arsino)-phenyl-borane
;
_chemical_name_common
;
Teaching Subset: Fundamental Chemistry
;
_chemical_melting_point 341.15
_cell_volume   1220.896
_exptl_crystal_colour 'yellow-orange'
_exptl_crystal_density_diffrn 1.268
_exptl_special_details
;
Melting point range 341.15-345.15K

;
_diffrn_ambient_temperature 130
#These two values have been output from a single CSD field.
_refine_ls_R_factor_gt 0.0506
_refine_ls_wR_factor_gt 0.0506
_symmetry_cell_setting triclinic
_symmetry_space_group_name_H-M 'P -1'
_symmetry_Int_Tables_number 2
loop_
_symmetry_equiv_pos_site_id
_symmetry_equiv_pos_as_xyz
1 x,y,z
2 -x,-y,-z
_cell_length_a 9.321(2)
_cell_length_b 9.329(2)
_cell_length_c 15.185(2)
_cell_angle_alpha 96.05(1)
_cell_angle_beta 104.17(1)
_cell_angle_gamma 104.33(1)
_cell_formula_units_Z 2
loop_
_atom_type_symbol
_atom_type_radius_bond
C 0.68
H 0.23
As 1.21
B 0.83
loop_
_atom_site_label
_atom_site_type_symbol
_atom_site_fract_x
_atom_site_fract_y
_atom_site_fract_z
As1 As 0.1059(1) 0.8604(1) 0.3398(1)
As2 As 0.2860(1) 1.1612(1) 0.2555(1)
C1 C 0.2217(4) 0.8276(4) 0.1579(3)
C2 C 0.0977(5) 0.7653(4) 0.0800(3)
C3 C 0.1125(5) 0.6783(5) 0.0036(3)
C4 C 0.2544(5) 0.6511(5) 0.0073(3)
C5 C 0.3764(5) 0.7091(5) 0.0869(3)
C6 C 0.3607(5) 0.7968(5) 0.1580(3)
C7 C 0.3959(5) 1.2131(5) 0.1568(3)
C8 C 0.4161(7) 1.3820(6) 0.1557(4)
C9 C 0.5471(5) 1.1779(5) 0.1671(3)
C10 C 0.2799(6) 1.1298(5) 0.0637(3)
C11 C 0.4467(5) 1.2224(5) 0.3799(3)
C12 C 0.3588(5) 1.2287(5) 0.4531(3)
C13 C 0.5542(5) 1.3793(5) 0.3874(3)
C14 C 0.5408(5) 1.1109(5) 0.3972(3)
C15 C 0.0530(5) 0.6328(5) 0.3166(3)
C16 C 0.0036(6) 0.5798(5) 0.4002(3)
C17 C 0.2060(6) 0.5961(5) 0.3179(3)
C18 C -0.0718(5) 0.5469(5) 0.2275(3)
C19 C -0.0934(4) 0.9222(5) 0.3028(3)
C20 C -0.2088(5) 0.8300(6) 0.3482(3)
C21 C -0.0538(5) 1.0871(6) 0.3471(3)
C22 C -0.1620(5) 0.9056(6) 0.1995(3)
B1 B 0.2083(5) 0.9337(5) 0.2403(3)
H1 H -0.00060 0.78230 0.07720
H2 H 0.02730 0.63870 -0.05100
H3 H 0.26510 0.58910 -0.04390
H4 H 0.47360 0.68940 0.08980
H5 H 0.44720 0.83860 0.21170
H6 H 0.46690 1.41070 0.10980
H7 H 0.31850 1.40390 0.14220
H8 H 0.47920 1.43710 0.21540
H9 H 0.58930 1.20840 0.11810
H10 H 0.61940 1.22790 0.22550
H11 H 0.52740 1.07110 0.16330
H12 H 0.32470 1.15190 0.01440
H13 H 0.25640 1.02380 0.06430
H14 H 0.18680 1.16000 0.05470
H15 H 0.43100 1.25790 0.51350
H16 H 0.30110 1.30050 0.44320
H17 H 0.28950 1.13120 0.44840
H18 H 0.63020 1.40840 0.44640
H19 H 0.60470 1.37790 0.33940
H20 H 0.49460 1.45000 0.38030
H21 H 0.61590 1.14320 0.45650
H22 H 0.47190 1.01470 0.39560
H23 H 0.59230 1.10310 0.35010
H24 H -0.02190 0.47210 0.39030
H25 H 0.08670 0.62090 0.45560
H26 H -0.08500 0.61080 0.40600
H27 H 0.18710 0.48890 0.30800
H28 H 0.24380 0.63570 0.26940
H29 H 0.28130 0.63960 0.37620
H30 H -0.08700 0.44080 0.22530
H31 H -0.16700 0.57010 0.22610
H32 H -0.03870 0.57610 0.17530
H33 H -0.30320 0.85760 0.33210
H34 H -0.22880 0.72480 0.32580
H35 H -0.16690 0.85020 0.41410
H36 H -0.14550 1.11940 0.33130
H37 H -0.01610 1.09950 0.41300
H38 H 0.02350 1.14640 0.32370
H39 H -0.25450 0.93700 0.18810
H40 H -0.09010 0.96570 0.17280
H41 H -0.18640 0.80180 0.17220
#END
