####################################################################### 
# 
# This file contains crystal structure data downloaded from the 
# Cambridge Structural Database (CSD) hosted by the Cambridge 
# Crystallographic Data Centre (CCDC).
# 
# Full information about CCDC data access policies and citation 
# guidelines are available at http://www.ccdc.cam.ac.uk/access/V1 
# 
# Audit and citation data items may have been added by the CCDC. 
# Please retain this information to preserve the provenance of 
# this file and to allow appropriate attribution of the data. 
# 
#######################################################################

data_ql_srbr_0m
_audit_block_doi                 10.5517/ccxnblg
_database_code_depnum_ccdc_archive 'CCDC 853696'
loop_
_citation_id
_citation_doi
_citation_year
1 10.1021/ja208224f 2012
_audit_update_record             
;
2011-11-11 deposited with the CCDC.	2024-07-14 downloaded from the CCDC.
;
#TrackingRef 'ql_srbr_0m.cif'


_audit_creation_method           SHELXL-97
_chemical_name_systematic        
;
?
;
_chemical_name_common            ?
_chemical_melting_point          ?
_chemical_formula_moiety         'C48 H80 O40, Sr, 2(Br), 3(H2 O)'
_chemical_formula_sum            'C48 H75 Br2 O46 Sr'
_chemical_formula_weight         1635.52
_chemical_absolute_configuration syn

loop_
_atom_type_symbol
_atom_type_description
_atom_type_scat_dispersion_real
_atom_type_scat_dispersion_imag
_atom_type_scat_source
C C 0.0181 0.0091 'International Tables Vol C Tables 4.2.6.8 and 6.1.1.4'
H H 0.0000 0.0000 'International Tables Vol C Tables 4.2.6.8 and 6.1.1.4'
O O 0.0492 0.0322 'International Tables Vol C Tables 4.2.6.8 and 6.1.1.4'
Br Br -0.6763 1.2805 'International Tables Vol C Tables 4.2.6.8 and 6.1.1.4'
Sr Sr -0.3528 1.8200 'International Tables Vol C Tables 4.2.6.8 and 6.1.1.4'

_symmetry_cell_setting           trigonal
_symmetry_space_group_name_H-M   'P 32'

loop_
_symmetry_equiv_pos_as_xyz
'x, y, z'
'-y, x-y, z+2/3'
'-x+y, -x, z+1/3'

_cell_length_a                   17.4843(2)
_cell_length_b                   17.4843(2)
_cell_length_c                   22.5856(5)
_cell_angle_alpha                90.00
_cell_angle_beta                 90.00
_cell_angle_gamma                120.00
_cell_volume                     5979.41(16)
_cell_formula_units_Z            3
_cell_measurement_temperature    100(2)
_cell_measurement_reflns_used    ?
_cell_measurement_theta_min      ?
_cell_measurement_theta_max      ?

_exptl_crystal_description       'octahedral shape'
_exptl_crystal_colour            colorless
_exptl_crystal_size_max          0.6
_exptl_crystal_size_mid          0.5
_exptl_crystal_size_min          0.5
_exptl_crystal_density_meas      ?
_exptl_crystal_density_diffrn    1.363
_exptl_crystal_density_method    'not measured'
_exptl_crystal_F_000             2517
_exptl_absorpt_coefficient_mu    2.932
_exptl_absorpt_correction_type   multi-scan
_exptl_absorpt_correction_T_min  0.215
_exptl_absorpt_correction_T_max  0.231
_exptl_absorpt_process_details   
;
Blessing, R. H. (1995) Acta Cryst. A51, 33-38.

Sheldrick, G. M. (2004) SADABS University of G\"ottingen, Germany.
;

_exptl_special_details           
;
Cell was solved using direct methods and refined to convergence.
A solvent void was found and contains 1368 /A^3^, which is 23 vol%;
Platon SQUEEZE was used to remove disordered solvent within that void.
;

# SQUEEZE RESULTS (APPEND TO CIF)
# Note: Data are Listed for all Voids in the P1 Unit Cell
# i.e. Centre of Gravity, Solvent Accessible Volume,
# Recovered number of Electrons in the Void and
# Details about the Squeezed Material
loop_
_platon_squeeze_void_nr
_platon_squeeze_void_average_x
_platon_squeeze_void_average_y
_platon_squeeze_void_average_z
_platon_squeeze_void_volume
_platon_squeeze_void_count_electrons
_platon_squeeze_void_content
1 -0.333 0.333 0.739 1621 528 ' '
_platon_squeeze_details          
;
;


_diffrn_ambient_temperature      100(2)
_diffrn_radiation_wavelength     1.54178
_diffrn_radiation_type           CuK\a
_diffrn_radiation_source         'fine-focus sealed tube'
_diffrn_radiation_monochromator  graphite
_diffrn_measurement_device_type  'Bruker d8-APEX II CCD diffractometer'
_diffrn_measurement_method       '\f and \w scans'
_diffrn_detector_area_resol_mean ?
_diffrn_standards_number         ?
_diffrn_standards_interval_count ?
_diffrn_standards_interval_time  ?
_diffrn_standards_decay_%        ?
_diffrn_reflns_number            31821
_diffrn_reflns_av_R_equivalents  0.1164
_diffrn_reflns_av_sigmaI/netI    0.0657
_diffrn_reflns_limit_h_min       -18
_diffrn_reflns_limit_h_max       20
_diffrn_reflns_limit_k_min       -19
_diffrn_reflns_limit_k_max       20
_diffrn_reflns_limit_l_min       -26
_diffrn_reflns_limit_l_max       25
_diffrn_reflns_theta_min         2.92
_diffrn_reflns_theta_max         64.71
_reflns_number_total             12077
_reflns_number_gt                11942
_reflns_threshold_expression     >2sigma(I)

_computing_data_collection       'APEX2 (Bruker, 2004)'
_computing_cell_refinement       'APEX2/SAINT (Bruker, 2004)'
_computing_data_reduction        'SAINT/XPREP (Bruker, 2004; Sheldrick, 2003)'
_computing_structure_solution    'XS (Sheldrick, 2001)'
_computing_structure_refinement  'XL (Sheldrick, 2001)'
_computing_molecular_graphics    'XP (Sheldrick, 1998)'
_computing_publication_material  'enCIFer (CCDC, 2004)'

_refine_special_details          
;
Refinement of F^2^ against ALL reflections. The weighted R-factor wR and
goodness of fit S are based on F^2^, conventional R-factors R are based
on F, with F set to zero for negative F^2^. The threshold expression of
F^2^ > 2sigma(F^2^) is used only for calculating R-factors(gt) etc. and is
not relevant to the choice of reflections for refinement. R-factors based
on F^2^ are statistically about twice as large as those based on F, and R-
factors based on ALL data will be even larger.
;

_refine_ls_structure_factor_coef Fsqd
_refine_ls_matrix_type           full
_refine_ls_weighting_scheme      calc
_refine_ls_weighting_details     
'calc w=1/[\s^2^(Fo^2^)+(0.1646P)^2^+36.9463P] where P=(Fo^2^+2Fc^2^)/3'
_atom_sites_solution_primary     direct
_atom_sites_solution_secondary   difmap
_atom_sites_solution_hydrogens   geom
_refine_ls_hydrogen_treatment    constr
_refine_ls_extinction_method     none
_refine_ls_extinction_coef       ?
_refine_ls_abs_structure_details 'Flack H D (1983), Acta Cryst. A39, 876-881'
_refine_ls_abs_structure_Flack   0.04(2)
_refine_ls_number_reflns         12077
_refine_ls_number_parameters     894
_refine_ls_number_restraints     277
_refine_ls_R_factor_all          0.0906
_refine_ls_R_factor_gt           0.0899
_refine_ls_wR_factor_ref         0.2351
_refine_ls_wR_factor_gt          0.2337
_refine_ls_goodness_of_fit_ref   1.031
_refine_ls_restrained_S_all      1.021
_refine_ls_shift/su_max          0.001
_refine_ls_shift/su_mean         0.000

loop_
_atom_site_label
_atom_site_type_symbol
_atom_site_fract_x
_atom_site_fract_y
_atom_site_fract_z
_atom_site_U_iso_or_equiv
_atom_site_adp_type
_atom_site_occupancy
_atom_site_symmetry_multiplicity
_atom_site_calc_flag
_atom_site_refinement_flags
_atom_site_disorder_assembly
_atom_site_disorder_group
Sr01 Sr 0.41921(5) 0.67413(5) 0.28771(3) 0.01131(19) Uani 1 1 d U . .
Br1 Br 0.12213(8) 0.61207(7) 0.17003(6) 0.0392(3) Uani 1 1 d . . .
O28 O 0.4434(4) 0.6347(4) 0.1717(3) 0.0129(11) Uani 1 1 d U . .
O32 O 0.1357(4) 0.3745(4) 0.1970(3) 0.0194(13) Uani 1 1 d U . .
O33 O 0.0830(4) 0.2605(4) 0.1289(3) 0.0166(12) Uani 1 1 d U . .
O35 O -0.0749(5) 0.0305(4) 0.1670(3) 0.0251(15) Uani 1 1 d U . .
O2S O 0.4490(5) 0.8212(5) 0.3416(3) 0.0234(13) Uani 1 1 d U . .
O26 O 0.1419(5) 0.4488(5) 0.3360(3) 0.0280(16) Uani 1 1 d U . .
H26 H 0.1827 0.4371 0.3407 0.042 Uiso 1 1 calc R . .
C5 C 0.7590(7) 0.9429(6) 0.3913(5) 0.0224(18) Uani 1 1 d U . .
H5 H 0.7679 1.0040 0.3916 0.027 Uiso 1 1 calc R . .
O29 O 0.3354(4) 0.5273(4) 0.1122(3) 0.0120(12) Uani 1 1 d U . .
C48 C -0.0727(7) 0.0436(7) 0.0613(5) 0.028(2) Uani 1 1 d U . .
H48 H -0.1283 0.0466 0.0634 0.034 Uiso 1 1 calc R . .
O36 O 0.0094(8) 0.1925(6) 0.0173(3) 0.045(2) Uani 1 1 d U . .
H36 H 0.0465 0.2453 0.0252 0.068 Uiso 1 1 calc R . .
O3S O 0.3219(4) 0.7191(5) 0.2320(3) 0.0222(14) Uani 1 1 d U . .
C10 C 0.5570(6) 0.6905(6) 0.4081(4) 0.0142(16) Uani 1 1 d U . .
H10 H 0.5882 0.6598 0.3927 0.017 Uiso 1 1 calc R . .
C45 C -0.0019(7) 0.1178(6) 0.1739(4) 0.0198(18) Uani 1 1 d U . .
H45 H 0.0539 0.1151 0.1748 0.024 Uiso 1 1 calc R . .
O1S O 0.5369(4) 0.8175(4) 0.2360(3) 0.0189(13) Uani 1 1 d U . .
C46 C 0.0031(6) 0.1768(6) 0.1238(4) 0.0160(17) Uani 1 1 d U . .
H46 H -0.0492 0.1855 0.1249 0.019 Uiso 1 1 calc R . .
C3 C 0.8995(6) 0.9927(6) 0.4458(4) 0.0201(18) Uani 1 1 d U . .
H3 H 0.9132 1.0555 0.4480 0.024 Uiso 1 1 calc R . .
C13 C 0.5045(7) 0.4364(6) 0.5707(4) 0.0206(19) Uani 1 1 d U . .
H13A H 0.5303 0.4120 0.5988 0.025 Uiso 1 1 calc R . .
H13B H 0.5457 0.5007 0.5669 0.025 Uiso 1 1 calc R . .
C22 C -0.4545(6) 0.1570(6) 0.4060(4) 0.0182(18) Uani 1 1 d U . .
H22 H -0.4023 0.2103 0.3890 0.022 Uiso 1 1 calc R . .
C47 C 0.0064(7) 0.1366(7) 0.0647(4) 0.024(2) Uani 1 1 d U . .
H47 H 0.0615 0.1326 0.0634 0.029 Uiso 1 1 calc R . .
C40 C 0.2455(6) 0.4814(6) 0.1301(4) 0.0136(16) Uani 1 1 d U . .
H40 H 0.2294 0.5254 0.1449 0.016 Uiso 1 1 calc R . .
C23 C -0.4257(6) 0.0897(6) 0.4206(4) 0.0169(17) Uani 1 1 d U . .
H23 H -0.4788 0.0348 0.4350 0.020 Uiso 1 1 calc R . .
O34 O -0.0866(5) 0.1653(5) 0.2323(3) 0.0280(16) Uani 1 1 d U . .
H34 H -0.0698 0.2170 0.2438 0.042 Uiso 1 1 calc R . .
C28 C -0.1621(6) 0.2346(6) 0.3801(4) 0.0159(17) Uani 1 1 d U . .
H28 H -0.1532 0.2957 0.3791 0.019 Uiso 1 1 calc R . .
C6 C 0.7112(6) 0.8967(6) 0.4479(4) 0.0215(18) Uani 1 1 d U . .
H6 H 0.6544 0.8975 0.4499 0.026 Uiso 1 1 calc R . .
C26 C -0.1377(7) 0.2381(7) 0.4909(4) 0.0210(18) Uani 1 1 d U . .
H26A H -0.1267 0.2996 0.4953 0.025 Uiso 1 1 calc R . .
C11 C 0.4630(5) 0.6224(5) 0.4252(4) 0.0093(15) Uani 1 1 d U . .
H11 H 0.4334 0.6550 0.4401 0.011 Uiso 1 1 calc R . .
C4 C 0.8478(6) 0.9499(6) 0.3897(4) 0.0196(18) Uani 1 1 d U . .
H4 H 0.8394 0.8892 0.3864 0.024 Uiso 1 1 calc R . .
C41 C 0.1852(6) 0.4314(6) 0.0770(4) 0.0172(17) Uani 1 1 d U . .
H41 H 0.1953 0.3821 0.0651 0.021 Uiso 1 1 calc R . .
C30 C -0.0148(6) 0.2847(6) 0.4267(4) 0.0175(17) Uani 1 1 d U . .
H30 H 0.0406 0.2816 0.4223 0.021 Uiso 1 1 calc R . .
O37 O -0.0707(6) 0.0035(6) 0.0064(3) 0.0362(19) Uani 1 1 d U . .
H37 H -0.1086 0.0029 -0.0168 0.054 Uiso 1 1 calc R . .
C12 C 0.4626(5) 0.5641(6) 0.4752(4) 0.0110(15) Uani 1 1 d U . .
H12 H 0.4004 0.5253 0.4890 0.013 Uiso 1 1 calc R . .
C33 C 0.0976(6) 0.4371(6) 0.4388(4) 0.0136(16) Uani 1 1 d U . .
H33 H 0.1315 0.4062 0.4473 0.016 Uiso 1 1 calc R . .
C8 C 0.6040(6) 0.6810(6) 0.5099(4) 0.0157(17) Uani 1 1 d U . .
H8 H 0.6343 0.6495 0.4941 0.019 Uiso 1 1 calc R . .
C34 C 0.1384(6) 0.4966(6) 0.3858(4) 0.0140(17) Uani 1 1 d U . .
H34A H 0.1034 0.5258 0.3757 0.017 Uiso 1 1 calc R . .
C9 C 0.6045(5) 0.7438(6) 0.4624(4) 0.0150(16) Uani 1 1 d U . .
H9 H 0.5728 0.7740 0.4778 0.018 Uiso 1 1 calc R . .
C42 C 0.0912(6) 0.3942(6) 0.0967(4) 0.0169(17) Uani 1 1 d U . .
H42 H 0.0837 0.4443 0.1106 0.020 Uiso 1 1 calc R . .
C29 C -0.0726(6) 0.2401(6) 0.3733(4) 0.0153(17) Uani 1 1 d U . .
H29 H -0.0830 0.1785 0.3711 0.018 Uiso 1 1 calc R . .
C7 C 0.6470(6) 0.7258(6) 0.5668(4) 0.0167(18) Uani 1 1 d U . .
H7A H 0.6486 0.6821 0.5939 0.020 Uiso 1 1 calc R . .
H7B H 0.7088 0.7721 0.5587 0.020 Uiso 1 1 calc R . .
C43 C 0.0754(6) 0.3327(5) 0.1499(4) 0.0166(17) Uani 1 1 d U . .
H43 H 0.0140 0.3101 0.1649 0.020 Uiso 1 1 calc R . .
C36 C 0.3845(6) 0.6178(6) 0.1249(4) 0.0154(17) Uani 1 1 d U . .
H36A H 0.3428 0.6387 0.1364 0.018 Uiso 1 1 calc R . .
C35 C 0.2329(6) 0.5669(5) 0.4020(4) 0.0124(16) Uani 1 1 d U . .
H35 H 0.2673 0.5363 0.4100 0.015 Uiso 1 1 calc R . .
C17 C 0.3807(7) 0.2710(7) 0.4229(5) 0.027(2) Uani 1 1 d U . .
H17 H 0.3221 0.2597 0.4380 0.032 Uiso 1 1 calc R . .
C14 C 0.4902(6) 0.3914(6) 0.5101(4) 0.0207(18) Uani 1 1 d U . .
H14 H 0.5487 0.4037 0.4942 0.025 Uiso 1 1 calc R . .
C24 C -0.3573(6) 0.1232(6) 0.4699(4) 0.0177(17) Uani 1 1 d U . .
H24 H -0.3437 0.0757 0.4805 0.021 Uiso 1 1 calc R . .
O63 O 0.2847(4) 0.5259(4) 0.2560(3) 0.0210(13) Uani 1 1 d U . .
C27 C -0.2031(6) 0.1917(6) 0.4409(4) 0.0147(16) Uani 1 1 d U . .
H27 H -0.2192 0.1282 0.4401 0.018 Uiso 1 1 calc R . .
C15 C 0.4462(6) 0.4201(6) 0.4648(4) 0.0156(17) Uani 1 1 d U . .
H15 H 0.3868 0.4057 0.4801 0.019 Uiso 1 1 calc R . .
C44 C -0.0144(7) 0.1502(7) 0.2334(4) 0.024(2) Uani 1 1 d U . .
H44A H -0.0245 0.1058 0.2642 0.029 Uiso 1 1 calc R . .
H44B H 0.0401 0.2057 0.2439 0.029 Uiso 1 1 calc R . .
C49 C 1.0611(6) 1.0689(7) 0.4466(5) 0.023(2) Uani 1 1 d U . .
H49 H 1.0503 1.1197 0.4441 0.028 Uiso 1 1 calc R . .
C1 C 0.8839(8) 0.9815(8) 0.5575(5) 0.033(2) Uani 1 1 d U . .
H1A H 0.9351 0.9733 0.5651 0.039 Uiso 1 1 calc R . .
H1B H 0.9061 1.0458 0.5555 0.039 Uiso 1 1 calc R . .
C16 C 0.4338(6) 0.3684(6) 0.4084(4) 0.0211(19) Uani 1 1 d U . .
H16 H 0.4929 0.3825 0.3926 0.025 Uiso 1 1 calc R . .
C2 C 0.8454(7) 0.9420(7) 0.4996(5) 0.024(2) Uani 1 1 d U . .
H2 H 0.8347 0.8803 0.4982 0.029 Uiso 1 1 calc R . .
C18 C 0.4214(7) 0.2438(6) 0.4714(5) 0.0258(19) Uani 1 1 d U . .
H18 H 0.3805 0.1807 0.4823 0.031 Uiso 1 1 calc R . .
C25 C -0.1720(7) 0.1882(7) 0.5494(5) 0.029(2) Uani 1 1 d U . .
H25A H -0.2271 0.1873 0.5609 0.035 Uiso 1 1 calc R . .
H25B H -0.1857 0.1263 0.5444 0.035 Uiso 1 1 calc R . .
C31 C 0.5656(6) 0.6337(6) 0.2153(4) 0.0199(18) Uani 1 1 d U . .
H31A H 0.6080 0.6121 0.2117 0.024 Uiso 1 1 calc R . .
H31B H 0.5997 0.6987 0.2198 0.024 Uiso 1 1 calc R . .
C20 C -0.4050(7) 0.2154(7) 0.5109(4) 0.0216(19) Uani 1 1 d U . .
H20 H -0.3505 0.2686 0.4960 0.026 Uiso 1 1 calc R . .
O4S O 0.0556(6) 0.7100(7) 0.2679(4) 0.050(2) Uani 1 1 d . . .
C38 C 0.2823(7) 0.4492(6) 0.2322(4) 0.0169(17) Uani 1 1 d U . .
H38A H 0.2606 0.4029 0.2631 0.020 Uiso 1 1 calc R . .
H38B H 0.3432 0.4639 0.2218 0.020 Uiso 1 1 calc R . .
C21 C -0.4800(6) 0.1853(7) 0.4640(4) 0.0217(19) Uani 1 1 d U . .
H21 H -0.5348 0.1338 0.4802 0.026 Uiso 1 1 calc R . .
C19 C -0.4312(8) 0.2360(9) 0.5686(5) 0.035(2) Uani 1 1 d U . .
H19A H -0.3868 0.2439 0.5988 0.042 Uiso 1 1 calc R . .
H19B H -0.4308 0.2927 0.5651 0.042 Uiso 1 1 calc R . .
C39 C 0.2258(6) 0.4129(6) 0.1791(4) 0.0182(17) Uani 1 1 d U . .
H39 H 0.2349 0.3650 0.1624 0.022 Uiso 1 1 calc R . .
O3 O 0.7064(5) 0.8983(5) 0.3434(3) 0.0328(17) Uani 1 1 d U . .
H3A H 0.6861 0.8438 0.3477 0.049 Uiso 1 1 calc R . .
O6 O 0.6026(5) 0.7647(5) 0.5951(3) 0.0251(15) Uani 1 1 d U . .
H6A H 0.5642 0.7635 0.5721 0.038 Uiso 1 1 calc R . .
O9 O 0.5148(4) 0.6179(4) 0.5239(3) 0.0140(12) Uani 1 1 d U . .
O5 O 0.6916(4) 0.8085(4) 0.4459(3) 0.0154(12) Uani 1 1 d U . .
O7 O 0.5510(4) 0.7429(4) 0.3629(3) 0.0176(12) Uani 1 1 d U . .
O2 O 0.7616(5) 0.9396(5) 0.4981(3) 0.0261(15) Uani 1 1 d U . .
O22 O -0.0568(4) 0.2403(5) 0.4795(3) 0.0226(14) Uani 1 1 d U . .
O23 O -0.2205(4) 0.1850(4) 0.3357(3) 0.0175(13) Uani 1 1 d U . .
H23A H -0.2291 0.2183 0.3133 0.026 Uiso 1 1 calc R . .
O31 O 0.0295(4) 0.3501(4) 0.0520(3) 0.0215(14) Uani 1 1 d U . .
H31 H -0.0075 0.2991 0.0636 0.032 Uiso 1 1 calc R . .
O61 O 0.2759(4) 0.6288(4) 0.3547(3) 0.0166(12) Uani 1 1 d U . .
O30 O 0.2067(4) 0.4915(4) 0.0287(3) 0.0162(12) Uani 1 1 d U . .
H30A H 0.1675 0.5056 0.0253 0.024 Uiso 1 1 calc R . .
O84 O 0.9797(4) 0.9899(4) 0.4435(3) 0.0198(13) Uani 1 1 d U . .
O25 O 0.0083(4) 0.3727(4) 0.4260(3) 0.0194(13) Uani 1 1 d U . .
O16 O -0.5173(6) 0.1688(6) 0.5887(3) 0.0385(19) Uani 1 1 d U . .
H16A H -0.5383 0.1265 0.5647 0.058 Uiso 1 1 calc R . .
O17 O -0.3876(4) 0.1459(4) 0.5201(3) 0.0206(13) Uani 1 1 d U . .
O20 O -0.2803(4) 0.1966(4) 0.4483(3) 0.0158(12) Uani 1 1 d U . .
O8 O 0.4127(4) 0.5693(4) 0.3760(3) 0.0131(11) Uani 1 1 d U . .
O15 O 0.5019(5) 0.2538(4) 0.4507(3) 0.0247(14) Uani 1 1 d U . .
O19 O -0.3926(5) 0.0670(5) 0.3711(3) 0.0251(15) Uani 1 1 d U . .
H19 H -0.3440 0.1104 0.3610 0.038 Uiso 1 1 calc R . .
O11 O 0.4951(4) 0.5107(4) 0.4529(3) 0.0154(12) Uani 1 1 d U . .
O14 O 0.4379(4) 0.2991(4) 0.5227(3) 0.0222(13) Uani 1 1 d U . .
O10 O 0.4198(5) 0.4206(4) 0.5926(3) 0.0208(14) Uani 1 1 d U . .
H10A H 0.4221 0.4691 0.5986 0.031 Uiso 1 1 calc R . .
O18 O -0.5220(5) 0.1274(5) 0.3650(3) 0.0279(15) Uani 1 1 d U . .
H18A H -0.5637 0.0780 0.3756 0.042 Uiso 1 1 calc R . .
O24 O -0.0308(5) 0.2836(5) 0.3211(3) 0.0284(16) Uani 1 1 d U . .
H24A H -0.0002 0.2626 0.3080 0.043 Uiso 1 1 calc R . .
O4 O 0.8926(5) 0.9984(6) 0.3386(4) 0.042(2) Uani 1 1 d U . .
H4A H 0.9471 1.0271 0.3453 0.062 Uiso 1 1 calc R . .
O27 O 0.5119(5) 0.5956(5) 0.2664(3) 0.0250(14) Uani 1 1 d U . .
O5S O 0.1900(5) 0.3025(6) 0.3727(4) 0.041(2) Uani 1 1 d . . .
O12 O 0.3897(5) 0.3926(5) 0.3657(3) 0.0253(15) Uani 1 1 d U . .
H12A H 0.3728 0.3567 0.3374 0.038 Uiso 1 1 calc R . .
O6S O 0.2631(5) 0.2484(5) 0.5839(3) 0.0306(17) Uani 1 1 d . . .
O1 O 0.8248(7) 0.9459(7) 0.6053(4) 0.053(2) Uani 1 1 d U . .
H1 H 0.7731 0.9281 0.5933 0.079 Uiso 1 1 calc R . .
O13 O 0.3634(6) 0.2150(6) 0.3732(4) 0.043(2) Uani 1 1 d U . .
H13 H 0.4107 0.2185 0.3617 0.065 Uiso 1 1 calc R . .
C32 C 0.5102(6) 0.6104(6) 0.1601(4) 0.0163(17) Uani 1 1 d U . .
H32 H 0.4812 0.5454 0.1528 0.020 Uiso 1 1 calc R . .
O21 O -0.1073(8) 0.2298(9) 0.5953(5) 0.065(3) Uani 1 1 d U . .
H21A H 