####################################################################### 
# 
# This file contains crystal structure data downloaded from the 
# Cambridge Structural Database (CSD) hosted by the Cambridge 
# Crystallographic Data Centre (CCDC).
# 
# Full information about CCDC data access policies and citation 
# guidelines are available at http://www.ccdc.cam.ac.uk/access/V1 
# 
# Audit and citation data items may have been added by the CCDC. 
# Please retain this information to preserve the provenance of 
# this file and to allow appropriate attribution of the data. 
# 
#######################################################################

data_ad07qz
_audit_block_doi                 10.5517/ccxdw16
_database_code_depnum_ccdc_archive 'CCDC 846518'
loop_
_citation_id
_citation_doi
_citation_year
1 10.1016/j.ica.2012.01.041 2012
_audit_update_record             
;
2011-09-28 deposited with the CCDC.	2024-07-14 downloaded from the CCDC.
;
#TrackingRef '7408_web_deposit_cif_file_0_MarkD.Smith_1317242591.ad07.cif'


_audit_creation_method           SHELXL-97
_chemical_name_systematic        
;
?
;
_chemical_name_common            ?
_chemical_melting_point          ?
_chemical_formula_moiety         'C81 H74 Cu4 N6 O21'
_chemical_formula_sum            'C81 H74 Cu4 N6 O21'
_chemical_formula_weight         1721.62

loop_
_atom_type_symbol
_atom_type_description
_atom_type_scat_dispersion_real
_atom_type_scat_dispersion_imag
_atom_type_scat_source
C C 0.0033 0.0016 'International Tables Vol C Tables 4.2.6.8 and 6.1.1.4'
H H 0.0000 0.0000 'International Tables Vol C Tables 4.2.6.8 and 6.1.1.4'
N N 0.0061 0.0033 'International Tables Vol C Tables 4.2.6.8 and 6.1.1.4'
O O 0.0106 0.0060 'International Tables Vol C Tables 4.2.6.8 and 6.1.1.4'
Cu Cu 0.3201 1.2651 'International Tables Vol C Tables 4.2.6.8 and 6.1.1.4'

_symmetry_cell_setting           Monoclinic
_symmetry_space_group_name_H-M   'C 2/c'
_symmetry_space_group_name_Hall  '-C 2yc'

loop_
_symmetry_equiv_pos_as_xyz
'x, y, z'
'-x, y, -z+1/2'
'x+1/2, y+1/2, z'
'-x+1/2, y+1/2, -z+1/2'
'-x, -y, -z'
'x, -y, z-1/2'
'-x+1/2, -y+1/2, -z'
'x+1/2, -y+1/2, z-1/2'

_cell_length_a                   28.108(4)
_cell_length_b                   27.934(4)
_cell_length_c                   28.988(4)
_cell_angle_alpha                90.00
_cell_angle_beta                 115.139(3)
_cell_angle_gamma                90.00
_cell_volume                     20605(5)
_cell_formula_units_Z            8
_cell_measurement_temperature    294(2)
_cell_measurement_reflns_used    5229
_cell_measurement_theta_min      2.165
_cell_measurement_theta_max      22.218

_exptl_crystal_description       needle
_exptl_crystal_colour            blue-green
_exptl_crystal_size_max          0.66
_exptl_crystal_size_mid          0.18
_exptl_crystal_size_min          0.16
_exptl_crystal_density_meas      ?
_exptl_crystal_density_diffrn    1.110
_exptl_crystal_density_method    'not measured'
_exptl_crystal_F_000             7088
_exptl_absorpt_coefficient_mu    0.873
_exptl_absorpt_correction_type   multi-scan
_exptl_absorpt_correction_T_min  0.8216
_exptl_absorpt_correction_T_max  1.0000
_exptl_absorpt_process_details   'SADABS Version 2.05 (Bruker, 2001)'

_exptl_special_details           
;
Instantaneous decomposition of crystals when removed from
crystallization solvent. Data crystal mounted in the mother
liquor inside a 0.2 mm id glass capillary.
;

_diffrn_ambient_temperature      294(2)
_diffrn_radiation_wavelength     0.71073
_diffrn_radiation_type           MoK\a
_diffrn_radiation_source         'fine-focus sealed tube'
_diffrn_radiation_monochromator  graphite
_diffrn_measurement_device_type  'Bruker SMART APEX CCD diffractometer'
_diffrn_measurement_method       'omega scans'
_diffrn_detector_area_resol_mean ?
_diffrn_standards_number         ?
_diffrn_standards_interval_count ?
_diffrn_standards_interval_time  ?
_diffrn_standards_decay_%        ?
_diffrn_reflns_number            85945
_diffrn_reflns_av_R_equivalents  0.0727
_diffrn_reflns_av_sigmaI/netI    0.0449
_diffrn_reflns_limit_h_min       -28
_diffrn_reflns_limit_h_max       28
_diffrn_reflns_limit_k_min       -27
_diffrn_reflns_limit_k_max       27
_diffrn_reflns_limit_l_min       -28
_diffrn_reflns_limit_l_max       28
_diffrn_reflns_theta_min         1.08
_diffrn_reflns_theta_max         20.82
_reflns_number_total             10792
_reflns_number_gt                6856
_reflns_threshold_expression     >2sigma(I)

_computing_data_collection       'SMART Version 5.625 (Bruker, 2001)'
_computing_cell_refinement       'SAINT-Plus Version 6.45 (Bruker, 2001)'
_computing_data_reduction        'SAINT-Plus Version 6.45 (Bruker, 2001)'
_computing_structure_solution    'SHELXS-97 (Sheldrick, 1990)'
_computing_structure_refinement  'SHELXL-97 (Sheldrick, 1997)'
_computing_molecular_graphics    various
_computing_publication_material  'SHELXTL Version 6.14 (Bruker, 2000)'

_refine_special_details          
;
Crystal composed of 1D chains surrounded by large solvent-filled cavities.

Cavity dimension is 7281 cubic angstroms per unit cell.
Cavities are occupied by heavily disordered solvent species, which could
not be satisfactorily modeled.

The contribution of these diffusely scattering species was removed from the
structure factor calculations with the Squeeze program.

Disorder of napthalimide ligand denoted by atom label suffix "D" and "E"

No X-ray diffraction observed > 2-theta ca 40 degrees because of the
extensive solvent disorder, and related napthalimide ligand disorder.

149 restraints used to model disorder of "D" and "E" ligand, and part of
the "A" ligand.

Only the general structural connectivity should be considered reliable.

The precision of the structure determination is low, as reflected in the
large standard uncertainties of the measured and derived quantities.
This is because of the unusually large unit cell size and high percentage
of solvent and non-solvent disorder observed in the crystal.


Refinement of F^2^ against ALL reflections. The weighted R-factor wR and
goodness of fit S are based on F^2^, conventional R-factors R are based
on F, with F set to zero for negative F^2^. The threshold expression of
F^2^ > 2sigma(F^2^) is used only for calculating R-factors(gt) etc. and is
not relevant to the choice of reflections for refinement. R-factors based
on F^2^ are statistically about twice as large as those based on F, and R-
factors based on ALL data will be even larger.
;

_refine_ls_structure_factor_coef Fsqd
_refine_ls_matrix_type           full
_refine_ls_weighting_scheme      calc
_refine_ls_weighting_details     
'calc w=1/[\s^2^(Fo^2^)+(0.0962P)^2^+0.0000P] where P=(Fo^2^+2Fc^2^)/3'
_atom_sites_solution_primary     direct
_atom_sites_solution_secondary   difmap
_atom_sites_solution_hydrogens   geom
_refine_ls_hydrogen_treatment    constr
_refine_ls_extinction_method     none
_refine_ls_extinction_coef       ?
_refine_ls_number_reflns         10792
_refine_ls_number_parameters     979
_refine_ls_number_restraints     149
_refine_ls_R_factor_all          0.0891
_refine_ls_R_factor_gt           0.0560
_refine_ls_wR_factor_ref         0.1621
_refine_ls_wR_factor_gt          0.1480
_refine_ls_goodness_of_fit_ref   0.988
_refine_ls_restrained_S_all      0.993
_refine_ls_shift/su_max          0.001
_refine_ls_shift/su_mean         0.000

loop_
_atom_site_label
_atom_site_type_symbol
_atom_site_fract_x
_atom_site_fract_y
_atom_site_fract_z
_atom_site_U_iso_or_equiv
_atom_site_adp_type
_atom_site_occupancy
_atom_site_symmetry_multiplicity
_atom_site_calc_flag
_atom_site_refinement_flags
_atom_site_disorder_assembly
_atom_site_disorder_group
Cu1 Cu 0.15721(3) 0.28313(3) 0.24220(2) 0.0734(3) Uani 1 1 d . . .
Cu2 Cu 0.27471(3) 0.28177(3) 0.27666(2) 0.0731(3) Uani 1 1 d . . .
Cu3 Cu 0.21261(3) 0.36864(3) 0.30526(3) 0.0740(3) Uani 1 1 d . . .
Cu4 Cu 0.22508(3) 0.36493(3) 0.20745(2) 0.0744(3) Uani 1 1 d . . .
C1A C 0.0975(3) 0.0234(3) 0.2118(3) 0.097(2) Uani 1 1 d D . .
C2A C 0.0510(3) -0.0044(3) 0.2000(2) 0.0758(17) Uani 1 1 d D . .
C3A C 0.0019(3) 0.0163(2) 0.1869(2) 0.0687(16) Uani 1 1 d D . .
C4A C -0.0029(2) 0.0665(3) 0.18597(19) 0.0666(16) Uani 1 1 d D . .
C5A C 0.0428(3) 0.0963(3) 0.1995(3) 0.0873(19) Uani 1 1 d D . .
C6A C 0.0550(3) -0.0531(3) 0.2003(3) 0.099(2) Uani 1 1 d D . .
H6A H 0.0875 -0.0671 0.2084 0.119 Uiso 1 1 calc R . .
C7A C 0.0111(4) -0.0822(3) 0.1889(3) 0.119(3) Uani 1 1 d D . .
H7A H 0.0148 -0.1153 0.1900 0.143 Uiso 1 1 calc R . .
C8A C -0.0363(4) -0.0626(3) 0.1761(3) 0.116(3) Uani 1 1 d D . .
H8A H -0.0653 -0.0824 0.1682 0.139 Uiso 1 1 calc R . .
C9A C -0.0430(3) -0.0137(3) 0.1744(2) 0.0846(19) Uani 1 1 d D . .
C10A C -0.0909(3) 0.0096(4) 0.1618(3) 0.112(3) Uani 1 1 d D . .
H10A H -0.1209 -0.0087 0.1539 0.135 Uiso 1 1 calc R . .
C11A C -0.0951(3) 0.0567(4) 0.1607(3) 0.113(3) Uani 1 1 d D . .
H11A H -0.1280 0.0706 0.1512 0.136 Uiso 1 1 calc R . .
C12A C -0.0508(3) 0.0863(3) 0.1736(2) 0.091(2) Uani 1 1 d D . .
H12A H -0.0544 0.1194 0.1737 0.109 Uiso 1 1 calc R . .
N1A N 0.0904(2) 0.0731(2) 0.2096(2) 0.108(2) Uani 1 1 d D . .
O1A O 0.1410(2) 0.00669(19) 0.2220(2) 0.139(2) Uani 1 1 d D . .
O2A O 0.0407(2) 0.13995(19) 0.2009(2) 0.1171(17) Uani 1 1 d D . .
C13A C 0.1348(3) 0.1031(3) 0.2117(3) 0.157(4) Uani 1 1 d D . .
H13A H 0.1216 0.1325 0.1928 0.189 Uiso 1 1 calc R . .
H13B H 0.1546 0.0861 0.1964 0.189 Uiso 1 1 calc R . .
C14A C 0.1699(3) 0.1144(3) 0.2665(3) 0.147(3) Uani 1 1 d D . .
H14A H 0.1797 0.0852 0.2864 0.176 Uiso 1 1 calc R . .
H14B H 0.1519 0.1352 0.2806 0.176 Uiso 1 1 calc R . .
C15A C 0.2196(3) 0.1397(2) 0.2674(4) 0.197(6) Uani 1 1 d D . .
H15A H 0.2491 0.1320 0.2994 0.236 Uiso 1 1 calc R . .
H15B H 0.2271 0.1263 0.2403 0.236 Uiso 1 1 calc R . .
C16A C 0.2167(3) 0.1940(2) 0.2615(2) 0.089(2) Uani 1 1 d D . .
O3A O 0.17250(16) 0.21365(14) 0.24990(14) 0.0790(12) Uani 1 1 d . . .
O4A O 0.25949(16) 0.21360(14) 0.27114(14) 0.0809(12) Uani 1 1 d . . .
C1B C 0.0497(3) 0.5224(4) 0.1944(3) 0.110(3) Uani 1 1 d . . .
C2B C -0.0008(4) 0.5418(4) 0.1866(3) 0.109(2) Uani 1 1 d . . .
C3B C -0.0094(4) 0.5912(5) 0.1829(3) 0.111(3) Uani 1 1 d . . .
C4B C 0.0305(5) 0.6225(4) 0.1848(3) 0.121(3) Uani 1 1 d . . .
C5B C 0.0823(4) 0.6047(4) 0.1905(3) 0.124(3) Uani 1 1 d . . .
C6B C -0.0414(4) 0.5114(4) 0.1831(3) 0.145(3) Uani 1 1 d . . .
H6B H -0.0362 0.4785 0.1867 0.174 Uiso 1 1 calc R . .
C7B C -0.0915(5) 0.5321(7) 0.1736(4) 0.193(6) Uani 1 1 d . . .
H7B H -0.1200 0.5127 0.1693 0.231 Uiso 1 1 calc R . .
C8B C -0.0967(6) 0.5813(7) 0.1711(5) 0.180(7) Uani 1 1 d . . .
H8B H -0.1290 0.5937 0.1665 0.217 Uiso 1 1 calc R . .
C9B C -0.0579(5) 0.6138(7) 0.1747(4) 0.148(5) Uani 1 1 d . . .
C10B C -0.0640(8) 0.6629(7) 0.1724(6) 0.211(9) Uani 1 1 d . . .
H10B H -0.0962 0.6759 0.1678 0.253 Uiso 1 1 calc R . .
C11B C -0.0251(8) 0.6918(7) 0.1766(7) 0.209(8) Uani 1 1 d . . .
H11B H -0.0295 0.7248 0.1758 0.251 Uiso 1 1 calc R . .
C12B C 0.0233(5) 0.6717(5) 0.1823(4) 0.170(4) Uani 1 1 d . . .
H12B H 0.0505 0.6918 0.1844 0.204 Uiso 1 1 calc R . .
N1B N 0.0872(3) 0.5549(3) 0.1948(2) 0.1027(18) Uani 1 1 d D . .
O1B O 0.0604(2) 0.4802(2) 0.2015(3) 0.149(2) Uani 1 1 d . . .
O2B O 0.1181(3) 0.6292(3) 0.1923(3) 0.180(3) Uani 1 1 d . . .
O3B O 0.21487(16) 0.43650(16) 0.29019(17) 0.0886(13) Uani 1 1 d D . .
O4B O 0.22654(15) 0.43409(15) 0.21826(17) 0.0848(12) Uani 1 1 d D A .
C13B C 0.1376(3) 0.5345(3) 0.1991(3) 0.117(2) Uani 1 1 d D . .
H13C H 0.1499 0.5528 0.1778 0.141 Uiso 1 1 calc R . .
H13D H 0.1319 0.5018 0.1866 0.141 Uiso 1 1 calc R . .
C14B C 0.1800(3) 0.5350(2) 0.2542(3) 0.102(2) Uani 1 1 d D . .
H14C H 0.1882 0.5678 0.2659 0.123 Uiso 1 1 calc R . .
H14D H 0.1670 0.5189 0.2762 0.123 Uiso 1 1 calc R . .
C15B C 0.2295(2) 0.5100(2) 0.2575(3) 0.098(2) Uani 1 1 d D . .
H15C H 0.2589 0.5185 0.2893 0.118 Uiso 1 1 calc R A .
H15D H 0.2375 0.5208 0.2298 0.118 Uiso 1 1 calc R . .
C16B C 0.2227(2) 0.4557(2) 0.2546(3) 0.0790(19) Uani 1 1 d D A .
C1C C 0.4174(3) 0.4961(3) 0.5392(2) 0.085(2) Uani 1 1 d . . .
C2C C 0.4723(3) 0.5134(3) 0.5539(2) 0.086(2) Uani 1 1 d . . .
C3C C 0.5126(3) 0.4805(4) 0.5645(2) 0.084(2) Uani 1 1 d . . .
C4C C 0.5029(3) 0.4320(4) 0.5617(2) 0.088(2) Uani 1 1 d . . .
C5C C 0.4502(3) 0.4138(3) 0.5485(2) 0.092(2) Uani 1 1 d . . .
C6C C 0.4806(4) 0.5615(3) 0.5565(3) 0.109(2) Uani 1 1 d . . .
H6C H 0.4529 0.5829 0.5485 0.131 Uiso 1 1 calc R . .
C7C C 0.5321(6) 0.5775(4) 0.5718(4) 0.139(4) Uani 1 1 d . . .
H7C H 0.5386 0.6102 0.5753 0.166 Uiso 1 1 calc R . .
C8C C 0.5709(6) 0.5490(7) 0.5810(4) 0.150(5) Uani 1 1 d . . .
H8C H 0.6041 0.5618 0.5894 0.180 Uiso 1 1 calc R . .
C9C C 0.5646(4) 0.4995(6) 0.5787(3) 0.120(3) Uani 1 1 d . . .
C10C C 0.6036(4) 0.4651(6) 0.5878(3) 0.145(4) Uani 1 1 d . . .
H10C H 0.6380 0.4751 0.5970 0.174 Uiso 1 1 calc R . .
C11C C 0.5928(5) 0.4171(6) 0.5837(4) 0.161(5) Uani 1 1 d . . .
H11C H 0.6199 0.3953 0.5900 0.194 Uiso 1 1 calc R . .
C12C C 0.5420(4) 0.4001(4) 0.5703(3) 0.126(3) Uani 1 1 d . . .
H12C H 0.5350 0.3674 0.5674 0.152 Uiso 1 1 calc R . .
N1C N 0.4111(2) 0.4471(3) 0.53877(17) 0.0802(14) Uani 1 1 d . . .
O1C O 0.3800(2) 0.5225(2) 0.52730(19) 0.1184(17) Uani 1 1 d . . .
O2C O 0.4395(2) 0.3709(2) 0.5453(2) 0.1267(19) Uani 1 1 d . . .
O3C O 0.25897(17) 0.38038(15) 0.37563(16) 0.0868(12) Uani 1 1 d . . .
O4C O 0.1891(2) 0.3871(2) 0.3899(2) 0.155(2) Uani 1 1 d . . .
C13C C 0.3582(3) 0.4274(3) 0.5272(2) 0.100(2) Uani 1 1 d . . .
H13E H 0.3390 0.4500 0.5384 0.120 Uiso 1 1 calc R . .
H13F H 0.3619 0.3979 0.5461 0.120 Uiso 1 1 calc R . .
C14C C 0.3267(2) 0.4175(3) 0.4699(2) 0.094(2) Uani 1 1 d . . .
H14E H 0.3245 0.4466 0.4508 0.113 Uiso 1 1 calc R . .
H14F H 0.3447 0.3935 0.4591 0.113 Uiso 1 1 calc R . .
C15C C 0.2719(3) 0.4003(3) 0.4589(3) 0.122(3) Uani 1 1 d . . .
H15E H 0.2750 0.3719 0.4793 0.146 Uiso 1 1 calc R A .
H15F H 0.2548 0.4247 0.4702 0.146 Uiso 1 1 calc R . .
C16C C 0.2368(3) 0.3885(3) 0.4041(3) 0.102(2) Uani 1 1 d . . .
C1D C 0.0328(7) 0.4035(5) -0.0454(11) 0.102(11) Uiso 0.50 1 d PD A 1
C2D C 0.0064(5) 0.4482(4) -0.0563(5) 0.086(4) Uiso 0.50 1 d PD A 1
C3D C 0.0266(6) 0.4919(5) -0.0618(8) 0.099(6) Uiso 0.50 1 d PD A 1
C4D C 0.0801(6) 0.4928(6) -0.0530(8) 0.124(7) Uiso 0.50 1 d PD A 1
C5D C 0.1079(5) 0.4474(5) -0.0483(6) 0.097(4) Uiso 0.50 1 d PD A 1
C6D C -0.0444(6) 0.4501(6) -0.0613(6) 0.102(5) Uiso 0.50 1 d PD A 1
H6D H -0.0604 0.4219 -0.0582 0.122 Uiso 0.50 1 calc PR A 1
C7D C -0.0727(8) 0.4923(6) -0.0706(9) 0.138(7) Uiso 0.50 1 d PD A 1
H7D H -0.1064 0.4911 -0.0721 0.165 Uiso 0.50 1 calc PR A 1
C8D C -0.0546(8) 0.5345(8) -0.0775(13) 0.157(10) Uiso 0.50 1 d PD A 1
H8D H -0.0753 0.5619 -0.0862 0.188 Uiso 0.50 1 calc PR A 1
C9D C -0.0030(6) 0.5349(5) -0.0710(6) 0.122(5) Uiso 0.50 1 d PD A 1
C10D C 0.0252(9) 0.5779(7) -0.0716(11) 0.174(10) Uiso 0.50 1 d PD A 1
H10D H 0.0082 0.6073 -0.0760 0.209 Uiso 0.50 1 calc PR A 1
C11D C 0.0725(9) 0.5770(7) -0.0664(9) 0.192(9) Uiso 0.50 1 d PD A 1
H11D H 0.0887 0.6059 -0.0667 0.231 Uiso 0.50 1 calc PR A 1
C12D C 0.1016(7) 0.5347(6) -0.0601(7) 0.161(7) Uiso 0.50 1 d PD A 1
H12D H 0.1344 0.5350 -0.0607 0.193 Uiso 0.50 1 calc PR A 1
N1D N 0.0845(5) 0.4050(5) -0.0417(5) 0.099(4) Uiso 0.50 1 d PD A 1
O1D O 0.0110(5) 0.3689(4) -0.0329(5) 0.121(5) Uiso 0.50 1 d PD A 1
O2D O 0.1535(5) 0.4485(5) -0.0430(5) 0.151(4) Uiso 0.50 1 d PD A 1
O3D O 0.1763(3) 0.3808(3) 0.1376(3) 0.068(3) Uiso 0.50 1 d PD A 1
O4D O 0.2562(4) 0.3793(4) 0.1371(4) 0.090(3) Uiso 0.50 1 d PD A 1
C13D C 0.1169(6) 0.3611(6) -0.0317(6) 0.116(4) Uiso 0.50 1 d PD A 1
H13G H 0.1398 0.3637 -0.0489 0.140 Uiso 0.50 1 calc PR A 1
H13H H 0.0940 0.3338 -0.0459 0.140 Uiso 0.50 1 calc PR A 1
C14D C 0.1515(8) 0.3520(6) 0.0269(6) 0.147(5) Uiso 0.50 1 d PD A 1
H14G H 0.1294 0.3376 0.0412 0.176 Uiso 0.50 1 calc PR A 1
H14H H 0.1786 0.3290 0.0302 0.176 Uiso 0.50 1 calc PR A 1
C15D C 0.1778(6) 0.3960(5) 0.0584(5) 0.106(4) Uiso 0.50 1 d PD A 1
H15G H 0.1515 0.4204 0.0534 0.127 Uiso 0.50 1 calc PR A 1
H15H H 0.2030 0.4089 0.0469 0.127 Uiso 0.50 1 calc PR A 1
C16D C 0.2063(4) 0.3834(5) 0.1157(4) 0.075(3) Uiso 0.50 1 d PD A 1
C1E C 0.0229(8) 0.4038(5) -0.0442(13) 0.121(13) Uiso 0.50 1 d PD A 2
C2E C -0.0182(7) 0.4368(5) -0.0562(8) 0.124(6) Uiso 0.50 1 d PD A 2
C3E C -0.0099(6) 0.4861(5) -0.0609(6) 0.110(5) Uiso 0.50 1 d PD A 2
C4E C 0.0384(7) 0.5036(7) -0.0582(10) 0.134(9) Uiso 0.50 1 d PD A 2
C5E C 0.0810(6) 0.4706(7) -0.0490(8) 0.126(7) Uiso 0.50 1 d PD A 2
C6E C -0.0652(7) 0.4217(7) -0.0580(7) 0.157(7) Uiso 0.50 1 d PD A 2
H6E H -0.0704 0.3896 -0.0530 0.188 Uiso 0.50 1 calc PR A 2
C7E C -0.1048(8) 0.4547(7) -0.0672(8) 0.191(9) Uiso 0.50 1 d PD A 2
H7E H -0.1361 0.4443 -0.0670 0.229 Uiso 0.50 1 calc PR A 2
C8E C -0.1000(8) 0.5011(8) -0.0766(11) 0.207(12) Uiso 0.50 1 d PD A 2
H8E H -0.1285 0.5216 -0.0847 0.248 Uiso 0.50 1 calc PR A 2
C9E C -0.0541(7) 0.5181(7) -0.0744(12) 0.142(9) Uiso 0.50 1 d PD A 2
C10E C -0.0446(9) 0.5673(7) -0.0800(9) 0.176(9) Uiso 0.50 1 d PD A 2
H10E H -0.0711 0.5898 -0.0863 0.211 Uiso 0.50 1 calc PR A 2
C11E C -0.0