####################################################################### 
# 
# This file contains crystal structure data downloaded from the 
# Cambridge Structural Database (CSD) hosted by the Cambridge 
# Crystallographic Data Centre (CCDC).
# 
# Full information about CCDC data access policies and citation 
# guidelines are available at http://www.ccdc.cam.ac.uk/access/V1 
# 
# Audit and citation data items may have been added by the CCDC. 
# Please retain this information to preserve the provenance of 
# this file and to allow appropriate attribution of the data. 
# 
#######################################################################

data_igor49
_audit_block_doi                 10.5517/cc8vn7z
_database_code_depnum_ccdc_archive 'CCDC 263941'
loop_
_citation_id
_citation_doi
_citation_year
1 10.1002/chem.200500180 2005
_audit_update_record             
;
2005-02-16 deposited with the CCDC.	2024-07-14 downloaded from the CCDC.
;

_audit_creation_method           SHELXL-97
_chemical_name_systematic        
;
?
;
_chemical_name_common            ?
_chemical_melting_point          ?
_chemical_formula_moiety         ?
_chemical_formula_sum            'C36 H32 Ag Cl1.50 N5 O3'
_chemical_formula_weight         743.71

loop_
_atom_type_symbol
_atom_type_description
_atom_type_scat_dispersion_real
_atom_type_scat_dispersion_imag
_atom_type_scat_source
C C 0.0033 0.0016 'International Tables Vol C Tables 4.2.6.8 and 6.1.1.4'
H H 0.0000 0.0000 'International Tables Vol C Tables 4.2.6.8 and 6.1.1.4'
N N 0.0061 0.0033 'International Tables Vol C Tables 4.2.6.8 and 6.1.1.4'
O O 0.0106 0.0060 'International Tables Vol C Tables 4.2.6.8 and 6.1.1.4'
Ag Ag -0.8971 1.1015 'International Tables Vol C Tables 4.2.6.8 and 6.1.1.4'
Cl Cl 0.1484 0.1585 'International Tables Vol C Tables 4.2.6.8 and 6.1.1.4'

_symmetry_cell_setting           ?
_symmetry_space_group_name_H-M   ?

loop_
_symmetry_equiv_pos_as_xyz
'x, y, z'
'-x+1/2, -y+1/2, z'
'-x, y+1/2, -z+1/2'
'x+1/2, -y, -z+1/2'
'-x, -y, -z'
'x-1/2, y-1/2, -z'
'x, -y-1/2, z-1/2'
'-x-1/2, y, z-1/2'

_cell_length_a                   34.8648(17)
_cell_length_b                   10.9050(5)
_cell_length_c                   15.1589(7)
_cell_angle_alpha                90.00
_cell_angle_beta                 90.00
_cell_angle_gamma                90.00
_cell_volume                     5763.4(5)
_cell_formula_units_Z            8
_cell_measurement_temperature    173(2)
_cell_measurement_reflns_used    ?
_cell_measurement_theta_min      ?
_cell_measurement_theta_max      ?

_exptl_crystal_description       ?
_exptl_crystal_colour            ?
_exptl_crystal_size_max          ?
_exptl_crystal_size_mid          ?
_exptl_crystal_size_min          ?
_exptl_crystal_density_meas      ?
_exptl_crystal_density_diffrn    1.714
_exptl_crystal_density_method    'not measured'
_exptl_crystal_F_000             3036
_exptl_absorpt_coefficient_mu    0.889
_exptl_absorpt_correction_type   ?
_exptl_absorpt_correction_T_min  ?
_exptl_absorpt_correction_T_max  ?
_exptl_absorpt_process_details   ?

_exptl_special_details           
;
?
;

_diffrn_ambient_temperature      173(2)
_diffrn_radiation_wavelength     0.71073
_diffrn_radiation_type           MoK\a
_diffrn_radiation_source         'fine-focus sealed tube'
_diffrn_radiation_monochromator  graphite
_diffrn_measurement_device_type  ?
_diffrn_measurement_method       ?
_diffrn_detector_area_resol_mean ?
_diffrn_standards_number         ?
_diffrn_standards_interval_count ?
_diffrn_standards_interval_time  ?
_diffrn_standards_decay_%        ?
_diffrn_reflns_number            75588
_diffrn_reflns_av_R_equivalents  0.0735
_diffrn_reflns_av_sigmaI/netI    0.0344
_diffrn_reflns_limit_h_min       -46
_diffrn_reflns_limit_h_max       46
_diffrn_reflns_limit_k_min       -14
_diffrn_reflns_limit_k_max       14
_diffrn_reflns_limit_l_min       -20
_diffrn_reflns_limit_l_max       20
_diffrn_reflns_theta_min         1.17
_diffrn_reflns_theta_max         28.34
_reflns_number_total             7187
_reflns_number_gt                6220
_reflns_threshold_expression     >2sigma(I)

_computing_data_collection       ?
_computing_cell_refinement       ?
_computing_data_reduction        ?
_computing_structure_solution    'SHELXS-97 (Sheldrick, 1990)'
_computing_structure_refinement  'SHELXL-97 (Sheldrick, 1997)'
_computing_molecular_graphics    ?
_computing_publication_material  ?

_refine_special_details          
;
Refinement of F^2^ against ALL reflections. The weighted R-factor wR and
goodness of fit S are based on F^2^, conventional R-factors R are based
on F, with F set to zero for negative F^2^. The threshold expression of
F^2^ > 2sigma(F^2^) is used only for calculating R-factors(gt) etc. and is
not relevant to the choice of reflections for refinement. R-factors based
on F^2^ are statistically about twice as large as those based on F, and R-
factors based on ALL data will be even larger.
;

_refine_ls_structure_factor_coef Fsqd
_refine_ls_matrix_type           full
_refine_ls_weighting_scheme      calc
_refine_ls_weighting_details     
'calc w=1/[\s^2^(Fo^2^)+(0.1126P)^2^+21.1322P] where P=(Fo^2^+2Fc^2^)/3'
_atom_sites_solution_primary     direct
_atom_sites_solution_secondary   difmap
_atom_sites_solution_hydrogens   geom
_refine_ls_hydrogen_treatment    mixed
_refine_ls_extinction_method     none
_refine_ls_extinction_coef       ?
_refine_ls_number_reflns         7187
_refine_ls_number_parameters     316
_refine_ls_number_restraints     0
_refine_ls_R_factor_all          0.1775
_refine_ls_R_factor_gt           0.1630
_refine_ls_wR_factor_ref         0.4208
_refine_ls_wR_factor_gt          0.4146
_refine_ls_goodness_of_fit_ref   2.079
_refine_ls_restrained_S_all      2.079
_refine_ls_shift/su_max          0.004
_refine_ls_shift/su_mean         0.001

loop_
_atom_site_label
_atom_site_type_symbol
_atom_site_fract_x
_atom_site_fract_y
_atom_site_fract_z
_atom_site_U_iso_or_equiv
_atom_site_adp_type
_atom_site_occupancy
_atom_site_symmetry_multiplicity
_atom_site_calc_flag
_atom_site_refinement_flags
_atom_site_disorder_assembly
_atom_site_disorder_group
Ag1 Ag 0.10642(2) 0.74317(8) 0.47975(6) 0.0392(3) Uani 1 1 d . . .
C1 C 0.1616(3) 0.6348(10) 0.3353(7) 0.036(2) Uani 1 1 d . . .
H1 H 0.1476 0.5633 0.3510 0.044 Uiso 1 1 calc R . .
C2 C 0.1847(3) 0.6296(12) 0.2585(8) 0.041(3) Uani 1 1 d . . .
H2 H 0.1854 0.5578 0.2230 0.050 Uiso 1 1 calc R . .
C3 C 0.2057(3) 0.7291(11) 0.2370(7) 0.035(2) Uani 1 1 d . . .
C4 C 0.2031(3) 0.8304(11) 0.2912(6) 0.032(2) Uani 1 1 d . . .
H4 H 0.2179 0.9016 0.2788 0.038 Uiso 1 1 calc R . .
C5 C 0.1786(3) 0.8277(11) 0.3649(6) 0.031(2) Uani 1 1 d . . .
H5 H 0.1766 0.8986 0.4011 0.037 Uiso 1 1 calc R . .
C6 C 0.2286(3) 0.7341(14) 0.1538(7) 0.047(3) Uani 1 1 d . . .
C7 C 0.2124(3) 0.7903(18) 0.0702(7) 0.062(5) Uani 1 1 d . . .
H7 H 0.1848 0.8154 0.0701 0.075 Uiso 1 1 calc R . .
C8 C 0.2212(3) 0.659(2) 0.0723(8) 0.064(5) Uani 1 1 d . . .
H8 H 0.1996 0.5991 0.0725 0.077 Uiso 1 1 calc R . .
C9 C 0.2588(4) 0.623(2) 0.0309(9) 0.080(7) Uani 1 1 d . . .
H9A H 0.2578 0.6323 -0.0341 0.096 Uiso 1 1 calc R . .
H9B H 0.2653 0.5370 0.0453 0.096 Uiso 1 1 calc R . .
C21 C 0.0569(3) 0.6816(11) 0.3082(8) 0.041(3) Uani 1 1 d . . .
H21 H 0.0786 0.6303 0.3000 0.049 Uiso 1 1 calc R . .
C22 C 0.0269(3) 0.6739(10) 0.2474(7) 0.035(2) Uani 1 1 d . . .
H22 H 0.0282 0.6174 0.1998 0.042 Uiso 1 1 calc R . .
C23 C -0.0040(3) 0.7473(9) 0.2567(7) 0.032(2) Uani 1 1 d . . .
C24 C -0.0047(3) 0.8288(9) 0.3288(6) 0.0285(19) Uani 1 1 d . . .
H24 H -0.0257 0.8826 0.3380 0.034 Uiso 1 1 calc R . .
C25 C 0.0266(3) 0.8279(9) 0.3866(6) 0.0285(19) Uani 1 1 d . . .
H25 H 0.0262 0.8818 0.4358 0.034 Uiso 1 1 calc R . .
C26 C -0.0367(3) 0.7385(8) 0.1942(6) 0.031(2) Uani 1 1 d . . .
C27 C -0.0535(4) 0.8545(10) 0.1506(7) 0.049(3) Uani 1 1 d . . .
H27 H -0.0419 0.9358 0.1655 0.059 Uiso 1 1 calc R . .
C28 C -0.0299(4) 0.7642(11) 0.0962(7) 0.047(3) Uani 1 1 d . . .
H28 H -0.0036 0.7889 0.0763 0.056 Uiso 1 1 calc R . .
C29 C -0.0517(4) 0.6740(11) 0.0426(6) 0.046(3) Uani 1 1 d . . .
H29A H -0.0344 0.6098 0.0193 0.055 Uiso 1 1 calc R . .
H29B H -0.0645 0.7152 -0.0076 0.055 Uiso 1 1 calc R . .
C31 C 0.0668(4) 0.5193(11) 0.5785(7) 0.043(3) Uani 1 1 d . . .
H31 H 0.0545 0.5110 0.5229 0.051 Uiso 1 1 calc R . .
C32 C 0.0578(3) 0.4364(11) 0.6427(6) 0.039(3) Uani 1 1 d . . .
H32 H 0.0401 0.3724 0.6305 0.047 Uiso 1 1 calc R . .
C33 C 0.0746(3) 0.4454(9) 0.7268(5) 0.0232(18) Uani 1 1 d . . .
C34 C 0.0986(3) 0.5475(12) 0.7385(7) 0.040(3) Uani 1 1 d . . .
H34 H 0.1094 0.5635 0.7949 0.048 Uiso 1 1 calc R . .
C35 C 0.1063(3) 0.6231(12) 0.6703(7) 0.042(3) Uani 1 1 d . . .
H35 H 0.1232 0.6898 0.6803 0.051 Uiso 1 1 calc R . .
C36 C 0.0687(3) 0.3541(9) 0.7990(6) 0.0264(19) Uani 1 1 d . . .
C37 C 0.1054(4) 0.2962(13) 0.8407(8) 0.045(3) Uani 1 1 d . . .
H37 H 0.1313 0.3222 0.8194 0.054 Uiso 1 1 calc R . .
C38 C 0.0818(3) 0.3826(10) 0.8946(6) 0.032(2) Uani 1 1 d . . .
H38 H 0.0923 0.4657 0.9082 0.039 Uiso 1 1 calc R . .
C39 C 0.0964(4) 0.1556(13) 0.8536(8) 0.054(4) Uani 1 1 d . . .
H39A H 0.1084 0.1064 0.8062 0.065 Uiso 1 1 calc R . .
H39B H 0.1061 0.1265 0.9113 0.065 Uiso 1 1 calc R . .
N1 N 0.1582(2) 0.7297(8) 0.3851(5) 0.0307(18) Uani 1 1 d . . .
N2 N 0.0564(3) 0.7564(8) 0.3763(7) 0.037(2) Uani 1 1 d . . .
N3 N 0.0913(2) 0.6099(8) 0.5885(5) 0.0301(18) Uani 1 1 d . . .
N4 N 0.0997(3) 0.9692(10) 0.5945(6) 0.046(3) Uani 1 1 d . . .
O1 O 0.1298(3) 0.9355(11) 0.5570(7) 0.070(3) Uani 1 1 d . . .
O2 O 0.0689(3) 0.9223(9) 0.5704(6) 0.048(2) Uani 1 1 d . . .
O3 O 0.0985(3) 1.0492(13) 0.6514(8) 0.085(4) Uani 1 1 d . . .

loop_
_atom_site_aniso_label
_atom_site_aniso_U_11
_atom_site_aniso_U_22
_atom_site_aniso_U_33
_atom_site_aniso_U_23
_atom_site_aniso_U_13
_atom_site_aniso_U_12
Ag1 0.0377(5) 0.0475(6) 0.0325(5) 0.0070(3) 0.0129(3) -0.0045(4)
C1 0.034(5) 0.040(6) 0.035(5) 0.004(5) 0.007(4) -0.007(4)
C2 0.036(6) 0.047(6) 0.041(6) -0.002(5) 0.008(5) -0.006(5)
C3 0.020(4) 0.062(7) 0.024(5) 0.001(5) -0.002(4) -0.007(4)
C4 0.024(4) 0.057(7) 0.015(4) 0.007(4) 0.000(3) -0.012(4)
C5 0.025(4) 0.053(6) 0.015(4) 0.003(4) -0.002(3) -0.003(4)
C6 0.026(5) 0.098(10) 0.018(5) 0.001(5) -0.001(4) -0.010(6)
C7 0.020(5) 0.151(16) 0.017(5) 0.000(7) 0.004(4) -0.018(7)
C8 0.021(5) 0.141(16) 0.031(6) -0.025(8) -0.010(4) -0.002(7)
C9 0.034(7) 0.17(2) 0.031(6) -0.043(9) 0.001(5) -0.014(9)
C21 0.037(6) 0.043(6) 0.043(6) -0.008(5) 0.014(5) -0.004(5)
C22 0.047(6) 0.032(5) 0.027(5) -0.007(4) 0.005(4) -0.001(4)
C23 0.045(6) 0.026(5) 0.023(4) 0.002(4) 0.006(4) -0.004(4)
C24 0.036(5) 0.029(5) 0.021(4) -0.005(4) 0.000(4) -0.001(4)
C25 0.024(4) 0.032(5) 0.029(5) -0.008(4) -0.001(4) -0.004(4)
C26 0.055(6) 0.023(4) 0.017(4) 0.001(3) -0.002(4) -0.009(4)
C27 0.091(10) 0.024(5) 0.031(5) 0.004(4) -0.029(6) 0.000(6)
C28 0.077(9) 0.044(7) 0.019(5) 0.004(4) -0.004(5) -0.021(6)
C29 0.084(9) 0.040(6) 0.013(4) -0.001(4) 0.003(5) -0.010(6)
C31 0.056(7) 0.051(7) 0.022(5) 0.008(5) 0.000(5) -0.016(6)
C32 0.046(6) 0.055(7) 0.016(4) 0.001(4) -0.006(4) -0.022(5)
C33 0.024(4) 0.035(5) 0.010(3) -0.005(3) 0.004(3) -0.006(4)
C34 0.049(6) 0.055(7) 0.017(4) -0.005(4) -0.003(4) -0.021(5)
C35 0.046(6) 0.050(7) 0.030(5) -0.005(5) -0.002(5) -0.018(5)
C36 0.034(5) 0.032(5) 0.013(4) -0.003(3) 0.001(3) -0.001(4)
C37 0.050(7) 0.056(7) 0.029(5) -0.006(5) -0.010(5) 0.024(6)
C38 0.048(6) 0.037(5) 0.012(4) 0.000(4) -0.005(4) -0.006(4)
C39 0.076(9) 0.053(7) 0.034(6) 0.006(5) -0.012(6) 0.033(7)
N1 0.032(4) 0.038(5) 0.023(4) 0.013(3) 0.006(3) -0.004(3)
N2 0.039(5) 0.032(4) 0.040(5) -0.003(4) 0.001(4) -0.006(4)
N3 0.036(4) 0.034(4) 0.020(4) 0.002(3) 0.004(3) -0.004(4)
N4 0.063(7) 0.058(6) 0.019(4) -0.008(4) -0.009(4) 0.021(5)
O1 0.039(5) 0.101(8) 0.070(7) -0.033(6) -0.004(5) 0.020(5)
O2 0.047(5) 0.061(6) 0.036(4) 0.007(4) 0.001(4) -0.005(4)
O3 0.079(8) 0.112(10) 0.063(7) -0.061(7) -0.011(6) 0.013(7)

_geom_special_details            
;
All esds (except the esd in the dihedral angle between two l.s. planes)
are estimated using the full covariance matrix. The cell esds are taken
into account individually in the estimation of esds in distances, angles
and torsion angles; correlations between esds in cell parameters are only
used when they are defined by crystal symmetry. An approximate (isotropic)
treatment of cell esds is used for estimating esds involving l.s. planes.
;

loop_
_geom_bond_atom_site_label_1
_geom_bond_atom_site_label_2
_geom_bond_distance
_geom_bond_site_symmetry_2
_geom_bond_publ_flag
Ag1 N3 2.260(8) . ?
Ag1 N1 2.311(8) . ?
Ag1 N2 2.350(10) . ?
Ag1 O1 2.537(11) . ?
C1 N1 1.287(14) . ?
C1 C2 1.416(15) . ?
C2 C3 1.350(16) . ?
C3 C4 1.379(16) . ?
C3 C6 1.494(14) . ?
C4 C5 1.408(12) . ?
C5 N1 1.320(13) . ?
C6 C7 1.518(17) . ?
C6 C8 1.502(17) . ?
C6 C6 1.53(2) 2_565 ?
C7 C8 1.46(3) . ?
C7 C9 1.50(2) 2_565 ?
C8 C9 1.507(18) . ?
C9 C7 1.50(2) 2_565 ?
C21 N2 1.316(15) . ?
C21 C22 1.396(16) . ?
C22 C23 1.348(16) . ?
C23 C24 1.409(13) . ?
C23 C26 1.486(16) . ?
C24 C25 1.398(13) . ?
C25 N2 1.308(13) . ?
C26 C36 1.508(14) 5_566 ?
C26 C27 1.544(14) . ?
C26 C28 1.532(14) . ?
C27 C28 1.526(19) . ?
C27 C39 1.50(2) 5_566 ?
C28 C29 1.486(16) . ?
C29 C38 1.544(15) 5_566 ?
C31 N3 1.316(14) . ?
C31 C32 1.364(15) . ?
C32 C33 1.406(12) . ?
C33 C34 1.403(14) . ?
C33 C36 1.494(13) . ?
C34 C35 1.350(16) . ?
C35 N3 1.352(14) . ?
C36 C26 1.508(14) 5_566 ?
C36 C38 1.550(12) . ?
C36 C37 1.561(14) . ?
C37 C38 1.494(16) . ?
C37 C39 1.58(2) . ?
C38 C29 1.544(15) 5_566 ?
C39 C27 1.50(2) 5_566 ?
N4 O3 1.227(13) . ?
N4 O2 1.244(14) . ?
N4 O1 1.248(13) . ?

loop_
_geom_angle_atom_site_label_1
_geom_angle_atom_site_label_2
_geom_angle_atom_site_label_3
_geom_angle
_geom_angle_site_symmetry_1
_geom_angle_site_symmetry_3
_geom_angle_publ_flag
N3 Ag1 N1 126.4(3) . . ?
N3 Ag1 N2 110.7(3) . . ?
N1 Ag1 N2 99.8(3) . . ?
N3 Ag1 O1 105.7(3) . . ?
N1 Ag1 O1 95.0(3) . . ?
N2 Ag1 O1 119.7(3) . . ?
N1 C1 C2 124.6(10) . . ?
C3 C2 C1 118.3(11) . . ?
C2 C3 C4 117.8(10) . . ?
C2 C3 C6 121.6(11) . . ?
C4 C3 C6 120.5(10) . . ?
C3 C4 C5 119.7(10) . . ?
N1 C5 C4 121.9(10) . . ?
C3 C6 C7 121.4(10) . . ?
C3 C6 C8 125.6(11) . . ?
C7 C6 C8 57.9(10) . . ?
C3 C6 C6 122.0(6) . 2_565 ?
C7 C6 C6 105.8(9) . 2_565 ?
C8 C6 C6 106.9(9) . 2_565 ?
C8 C7 C6 60.6(10) . . ?
C8 C7 C9 118.9(14) . 2_565 ?
C6 C7 C9 109.7(10) . 2_565 ?
C7 C8 C9 115.5(16) . . ?
C7 C8 C6 61.6(10) . . ?
C9 C8 C6 109.6(10) . . ?
C8 C9 C7 104.5(13) . 2_565 ?
N2 C21 C22 123.1(11) . . ?
C23 C22 C21 119.5(10) . . ?
C22 C23 C24 118.0(10) . . ?
C22 C23 C26 120.5(9) . . ?
C24 C23 C26 121.5(10) . . ?
C25 C24 C23 117.9(9) . . ?
N2 C25 C24 123.3(9) . . ?
C23 C26 C36 124.6(8) . 5_566 ?
C23 C26 C27 120.7(8) . . ?
C36 C26 C27 107.3(10) 5_566 . ?
C23 C26 C28 119.2(10) . . ?
C36 C26 C28 107.7(8) 5_566 . ?
C27 C26 C28 59.5(8) . . ?
C28 C27 C39 117.9(10) . 5_566 ?
C28 C27 C26 59.9(7) . . ?
C39 C27 C26 109.6(10) 5_566 . ?
C27 C28 C29 116.4(13) . . ?
C27 C28 C26 60.6(7) . . ?
C29 C28 C26 109.2(9) . . ?
C28 C29 C38 106.0(8) . 5_566 ?
N3 C31 C32 124.4(10) . . ?
C31 C32 C33 120.3(10) . . ?
C34 C33 C32 114.7(9) . . ?
C34 C33 C36 121.2(8) . . ?
C32 C33 C36 124.1(9) . . ?
C35 C34 C33 120.4(9) . . ?
N3 C35 C34 124.1(10) . . ?
C33 C36 C26 126.7(8) . 5_566 ?
C33 C36 C38 120.7(8) . . ?
C26 C36 C38 106.8(8) 5_566 . ?
C33 C36 C37 116.9(9) . . ?
C26 C36 C37 108.0(9) 5_566 . ?
C38 C36 C37 57.4(7) . . ?
C38 C37 C36 60.9(6) . . ?
C38 C37 C39 115.8(11) . . ?
C36 C37 C39 106.3(10) . . ?
C37 C38 C29 117.3(10) . 5_566 ?
C37 C38 C36 61.7(7) . . ?
C29 C38 C36 107.3(8) 5_566 . ?
C27 C39 C37 105.4(9) 5_566 . ?
C1 N1 C5 117.8(9) . . ?
C1 N1 Ag1 119.2(7) . . ?
C5 N1 Ag1 120.9(7) . . ?
C25 N2 C21 118.2(10) . . ?
C25 N2 Ag1 123.1(7) . . ?
C21 N2 Ag1 118.5(8) . . ?
C31 N3 C35 115.8(9) . . ?
C31 N3 Ag1 123.4(7) . . ?
C35 N3 Ag1 120.7(7) . . ?
O3 N4 O2 117.8(11) . . ?
O3 N4 O1 124.1(12) . . ?
O2 N4 O1 118.0(10) . . ?
N4 O1 Ag1 100.6(8) . . ?

_diffrn_measured_fraction_theta_max 0.998
_diffrn_reflns_theta_full        28.34
_diffrn_measured_fraction_theta_full 0.998
_refine_diff_density_max         5.730
_refine_diff_density_min         -1.808
_refine_diff_density_rms         0.414
