####################################################################### 
# 
# This file contains crystal structure data downloaded from the 
# Cambridge Structural Database (CSD) hosted by the Cambridge 
# Crystallographic Data Centre (CCDC).
# 
# Full information about CCDC data access policies and citation 
# guidelines are available at http://www.ccdc.cam.ac.uk/access/V1 
# 
# Audit and citation data items may have been added by the CCDC. 
# Please retain this information to preserve the provenance of 
# this file and to allow appropriate attribution of the data. 
# 
#######################################################################

data_2
_audit_block_doi                 10.5517/cc82mb8
_database_code_depnum_ccdc_archive 'CCDC 240849'
loop_
_citation_id
_citation_doi
_citation_year
1 10.1021/cg0496538 2005
_audit_update_record             
;
2004-06-06 deposited with the CCDC.	2024-07-14 downloaded from the CCDC.
;

_audit_creation_method           SHELXL-97
_chemical_name_systematic        
;
?
;
_chemical_name_common            ?
_chemical_melting_point          ?
_chemical_formula_moiety         ?
_chemical_formula_sum            'C26 H38 Cd Cl2 N4 O13 S4'
_chemical_formula_weight         926.14

loop_
_atom_type_symbol
_atom_type_description
_atom_type_scat_dispersion_real
_atom_type_scat_dispersion_imag
_atom_type_scat_source
C C 0.0033 0.0016 'International Tables Vol C Tables 4.2.6.8 and 6.1.1.4'
H H 0.0000 0.0000 'International Tables Vol C Tables 4.2.6.8 and 6.1.1.4'
N N 0.0061 0.0033 'International Tables Vol C Tables 4.2.6.8 and 6.1.1.4'
O O 0.0106 0.0060 'International Tables Vol C Tables 4.2.6.8 and 6.1.1.4'
S S 0.1246 0.1234 'International Tables Vol C Tables 4.2.6.8 and 6.1.1.4'
Cl Cl 0.1484 0.1585 'International Tables Vol C Tables 4.2.6.8 and 6.1.1.4'
Cd Cd -0.8075 1.2024 'International Tables Vol C Tables 4.2.6.8 and 6.1.1.4'

_symmetry_cell_setting           Monoclinic
_symmetry_space_group_name_H-M   P2(1)/m

loop_
_symmetry_equiv_pos_as_xyz
'x, y, z'
'-x, y+1/2, -z'
'-x, -y, -z'
'x, -y-1/2, z'

_cell_length_a                   9.740(3)
_cell_length_b                   17.466(6)
_cell_length_c                   14.327(5)
_cell_angle_alpha                90.00
_cell_angle_beta                 109.790(6)
_cell_angle_gamma                90.00
_cell_volume                     2293.4(13)
_cell_formula_units_Z            2
_cell_measurement_temperature    293(2)
_cell_measurement_reflns_used    836
_cell_measurement_theta_min      2.51
_cell_measurement_theta_max      20.39

_exptl_crystal_description       block
_exptl_crystal_colour            colorless
_exptl_crystal_size_max          0.22
_exptl_crystal_size_mid          0.20
_exptl_crystal_size_min          0.18
_exptl_crystal_density_meas      none
_exptl_crystal_density_diffrn    1.341
_exptl_crystal_density_method    'not measured'
_exptl_crystal_F_000             944
_exptl_absorpt_coefficient_mu    0.827
_exptl_absorpt_correction_type   MULTI-SCAN
_exptl_absorpt_correction_T_min  0.865351
_exptl_absorpt_correction_T_max  1.000000
_exptl_absorpt_process_details   '(SADABS; Sheldrick, 1996)'

_exptl_special_details           
;
?
;

_diffrn_ambient_temperature      293(2)
_diffrn_radiation_wavelength     0.71073
_diffrn_radiation_type           MoK\a
_diffrn_radiation_source         'fine-focus sealed tube'
_diffrn_radiation_monochromator  graphite
_diffrn_measurement_device_type  'Bruker SMART CCD area-detector'
_diffrn_measurement_method       '\f and \w scans'
_diffrn_detector_area_resol_mean ?
_diffrn_standards_number         0
_diffrn_standards_interval_count ?
_diffrn_standards_interval_time  ?
_diffrn_standards_decay_%        ?
_diffrn_reflns_number            9149
_diffrn_reflns_av_R_equivalents  0.0535
_diffrn_reflns_av_sigmaI/netI    0.0712
_diffrn_reflns_limit_h_min       -11
_diffrn_reflns_limit_h_max       11
_diffrn_reflns_limit_k_min       -20
_diffrn_reflns_limit_k_max       18
_diffrn_reflns_limit_l_min       -17
_diffrn_reflns_limit_l_max       7
_diffrn_reflns_theta_min         2.33
_diffrn_reflns_theta_max         25.02
_reflns_number_total             4036
_reflns_number_gt                2418
_reflns_threshold_expression     I>2\s(I)

_computing_data_collection       'SMART (Bruker, 1998)'
_computing_cell_refinement       SMART
_computing_data_reduction        'SAINT (Bruker, 1998)'
_computing_structure_solution    'SHELXS-97 (Sheldrick, 1997a)'
_computing_structure_refinement  'SHELXL-97 (Sheldrick, 1997a)'
_computing_molecular_graphics    'SHELXTL (Sheldrick, 1997b)'
_computing_publication_material  SHELXTL

_refine_special_details          
;
Refinement of F^2^ against ALL reflections. The weighted R-factor wR and
goodness of fit S are based on F^2^, conventional R-factors R are based
on F, with F set to zero for negative F^2^. The threshold expression of
F^2^ > 2sigma(F^2^) is used only for calculating R-factors(gt) etc. and is
not relevant to the choice of reflections for refinement. R-factors based
on F^2^ are statistically about twice as large as those based on F, and R-
factors based on ALL data will be even larger.
;

_refine_ls_structure_factor_coef Fsqd
_refine_ls_matrix_type           full
_refine_ls_weighting_scheme      calc
_refine_ls_weighting_details     
'calc w=1/[\s^2^(Fo^2^)+(0.0900P)^2^+0.0000P] where P=(Fo^2^+2Fc^2^)/3'
_atom_sites_solution_primary     direct
_atom_sites_solution_secondary   difmap
_atom_sites_solution_hydrogens   geom
_refine_ls_hydrogen_treatment    mixed
_refine_ls_extinction_method     none
_refine_ls_extinction_coef       ?
_refine_ls_number_reflns         4036
_refine_ls_number_parameters     250
_refine_ls_number_restraints     0
_refine_ls_R_factor_all          0.1127
_refine_ls_R_factor_gt           0.0598
_refine_ls_wR_factor_ref         0.1620
_refine_ls_wR_factor_gt          0.1374
_refine_ls_goodness_of_fit_ref   0.995
_refine_ls_restrained_S_all      0.995
_refine_ls_shift/su_max          0.001
_refine_ls_shift/su_mean         0.000

loop_
_atom_site_label
_atom_site_type_symbol
_atom_site_fract_x
_atom_site_fract_y
_atom_site_fract_z
_atom_site_U_iso_or_equiv
_atom_site_adp_type
_atom_site_occupancy
_atom_site_symmetry_multiplicity
_atom_site_calc_flag
_atom_site_refinement_flags
_atom_site_disorder_assembly
_atom_site_disorder_group
Cd1 Cd 0.0000 0.5000 0.0000 0.0497(2) Uani 1 2 d S . .
S1 S -0.5061(3) 0.41049(12) 0.22183(19) 0.0961(7) Uani 1 1 d . . .
S2 S 0.5131(2) 0.59277(10) 0.44701(14) 0.0919(7) Uani 1 1 d . . .
N1 N -0.1706(5) 0.4666(3) 0.0753(3) 0.0544(12) Uani 1 1 d . . .
N2 N 0.1625(5) 0.5381(3) 0.1524(3) 0.0541(12) Uani 1 1 d . . .
C1 C -0.2770(7) 0.5146(4) 0.0767(5) 0.0652(17) Uani 1 1 d . . .
H1 H -0.2834 0.5618 0.0454 0.078 Uiso 1 1 calc R . .
C2 C -0.3763(8) 0.4978(4) 0.1215(6) 0.0724(18) Uani 1 1 d . . .
H2 H -0.4477 0.5333 0.1212 0.087 Uiso 1 1 calc R . .
C3 C -0.3703(7) 0.4288(4) 0.1668(5) 0.0641(17) Uani 1 1 d . . .
C4 C -0.2626(7) 0.3788(4) 0.1656(5) 0.0652(17) Uani 1 1 d . . .
H4 H -0.2544 0.3313 0.1964 0.078 Uiso 1 1 calc R . .
C5 C -0.1682(7) 0.3992(4) 0.1188(5) 0.0615(16) Uani 1 1 d . . .
H5 H -0.0976 0.3639 0.1170 0.074 Uiso 1 1 calc R . .
C6 C -0.4530(9) 0.3210(4) 0.2862(6) 0.083(2) Uani 1 1 d . . .
H6A H -0.3477 0.3206 0.3170 0.099 Uiso 1 1 calc R . .
H6B H -0.4944 0.3184 0.3389 0.099 Uiso 1 1 calc R . .
C7 C -0.4984(12) 0.2500 0.2228(8) 0.075(3) Uani 1 2 d S . .
H7A H -0.4531 0.2500 0.1720 0.090 Uiso 1 2 calc SR . .
H7B H -0.6034 0.2500 0.1901 0.090 Uiso 1 2 calc SR . .
C8 C 0.2604(7) 0.5930(3) 0.1591(4) 0.0601(16) Uani 1 1 d . . .
H8 H 0.2554 0.6188 0.1012 0.072 Uiso 1 1 calc R . .
C9 C 0.3668(7) 0.6141(3) 0.2442(4) 0.0611(17) Uani 1 1 d . . .
H9 H 0.4311 0.6534 0.2437 0.073 Uiso 1 1 calc R . .
C10 C 0.3789(6) 0.5768(3) 0.3318(4) 0.0569(16) Uani 1 1 d . . .
C11 C 0.2796(7) 0.5192(4) 0.3259(5) 0.0643(17) Uani 1 1 d . . .
H11 H 0.2846 0.4911 0.3821 0.077 Uiso 1 1 calc R . .
C12 C 0.1736(6) 0.5034(4) 0.2370(4) 0.0590(15) Uani 1 1 d . . .
H12 H 0.1049 0.4661 0.2359 0.071 Uiso 1 1 calc R . .
C13 C 0.6051(7) 0.6784(3) 0.4284(5) 0.073(2) Uani 1 1 d . . .
H13A H 0.6998 0.6818 0.4801 0.087 Uiso 1 1 calc R . .
H13B H 0.6208 0.6749 0.3652 0.087 Uiso 1 1 calc R . .
C14 C 0.5196(10) 0.7500 0.4297(7) 0.065(2) Uani 1 2 d S . .
H14A H 0.4308 0.7500 0.3725 0.078 Uiso 1 2 calc SR . .
H14B H 0.4922 0.7500 0.4888 0.078 Uiso 1 2 calc SR . .
Cl1 Cl 0.5391(4) 0.7500 0.0854(2) 0.0879(9) Uani 1 2 d S . .
O1 O 0.0980(5) 0.3727(2) 0.0289(4) 0.0752(13) Uani 1 1 d . . .
O2 O 0.5991(13) 0.7500 0.1892(8) 0.150(4) Uani 1 2 d S . .
O3 O 0.3744(16) 0.7500 0.0539(12) 0.225(7) Uani 1 2 d S . .
Cl2 Cl 0.1312(3) 0.2500 0.28341(19) 0.0736(7) Uani 1 2 d S . .
O4 O 0.568(2) 0.6903(7) 0.0466(8) 0.284(8) Uani 1 1 d . . .
O5 O -0.0031(16) 0.2500 0.2894(14) 0.191(6) Uani 1 2 d S . .
O6 O 0.1037(16) 0.2500 0.1819(7) 0.170(5) Uani 1 2 d S . .
O7 O 0.2101(10) 0.3131(5) 0.3208(7) 0.169(3) Uani 1 1 d . . .
O8 O 0.0461(17) 0.2500 0.8864(13) 0.200(6) Uani 1 2 d S . .
O9 O 0.0064(17) 0.4193(12) 0.4350(11) 0.166(7) Uani 0.50 1 d P . .
O10 O 0.873(3) 0.5123(16) 0.4256(18) 0.250(13) Uani 0.50 1 d P . .

loop_
_atom_site_aniso_label
_atom_site_aniso_U_11
_atom_site_aniso_U_22
_atom_site_aniso_U_33
_atom_site_aniso_U_23
_atom_site_aniso_U_13
_atom_site_aniso_U_12
Cd1 0.0503(4) 0.0472(3) 0.0465(4) -0.0009(3) 0.0095(2) -0.0042(3)
S1 0.1100(16) 0.0741(12) 0.1392(19) 0.0067(13) 0.0879(15) 0.0164(11)
S2 0.1203(16) 0.0531(10) 0.0607(11) 0.0112(9) -0.0238(11) -0.0100(10)
N1 0.053(3) 0.054(3) 0.051(3) 0.001(2) 0.011(2) -0.002(2)
N2 0.058(3) 0.052(3) 0.048(3) 0.000(2) 0.013(2) -0.007(2)
C1 0.066(4) 0.056(4) 0.074(4) 0.000(3) 0.024(3) 0.006(3)
C2 0.067(4) 0.055(4) 0.102(5) -0.003(4) 0.037(4) 0.009(3)
C3 0.071(4) 0.055(4) 0.076(4) -0.006(3) 0.037(4) 0.007(3)
C4 0.073(4) 0.055(4) 0.071(4) 0.005(3) 0.029(4) 0.003(3)
C5 0.056(4) 0.052(4) 0.079(4) -0.001(3) 0.026(3) 0.005(3)
C6 0.110(6) 0.072(5) 0.088(5) 0.000(4) 0.062(5) -0.008(4)
C7 0.077(6) 0.081(7) 0.083(7) 0.000 0.048(6) 0.000
C8 0.073(4) 0.055(4) 0.043(3) 0.000(3) 0.007(3) -0.007(3)
C9 0.072(4) 0.047(3) 0.053(4) -0.005(3) 0.006(3) -0.012(3)
C10 0.065(4) 0.040(3) 0.052(4) 0.001(3) 0.001(3) 0.002(3)
C11 0.071(4) 0.061(4) 0.054(4) 0.009(3) 0.014(3) 0.004(3)
C12 0.055(3) 0.061(3) 0.058(4) 0.013(4) 0.015(3) -0.008(3)
C13 0.074(4) 0.055(4) 0.061(4) -0.006(3) -0.014(3) -0.003(3)
C14 0.078(6) 0.056(5) 0.045(5) 0.000 0.000(4) 0.000
Cl1 0.131(3) 0.0531(14) 0.0789(19) 0.000 0.0348(17) 0.000
O1 0.082(3) 0.059(3) 0.088(3) 0.013(2) 0.034(3) 0.017(2)
O2 0.161(9) 0.196(11) 0.097(7) 0.000 0.049(7) 0.000
O3 0.146(11) 0.34(2) 0.190(14) 0.000 0.053(10) 0.000
Cl2 0.0677(15) 0.0778(17) 0.0646(16) 0.000 0.0085(12) 0.000
O4 0.46(2) 0.187(9) 0.155(8) -0.049(8) 0.032(11) 0.165(12)
O5 0.157(10) 0.139(9) 0.316(19) 0.000 0.129(12) 0.000
O6 0.237(13) 0.167(10) 0.069(6) 0.000 0.004(7) 0.000
O7 0.176(7) 0.142(6) 0.187(8) -0.063(6) 0.060(6) -0.071(6)
O8 0.222(13) 0.073(6) 0.287(18) 0.000 0.061(13) 0.000
O9 0.138(12) 0.24(2) 0.120(11) -0.024(13) 0.050(9) 0.008(13)
O10 0.19(2) 0.27(3) 0.20(2) -0.006(18) -0.056(17) 0.003(17)

_geom_special_details            
;
All esds (except the esd in the dihedral angle between two l.s. planes)
are estimated using the full covariance matrix. The cell esds are taken
into account individually in the estimation of esds in distances, angles
and torsion angles; correlations between esds in cell parameters are only
used when they are defined by crystal symmetry. An approximate (isotropic)
treatment of cell esds is used for estimating esds involving l.s. planes.
;

loop_
_geom_bond_atom_site_label_1
_geom_bond_atom_site_label_2
_geom_bond_distance
_geom_bond_site_symmetry_2
_geom_bond_publ_flag
Cd1 N2 2.318(5) 3_565 ?
Cd1 N2 2.318(5) . ?
Cd1 N1 2.341(5) . ?
Cd1 N1 2.341(5) 3_565 ?
Cd1 O1 2.399(4) 3_565 ?
Cd1 O1 2.399(4) . ?
S1 C3 1.784(7) . ?
S1 C6 1.800(8) . ?
S2 C10 1.746(6) . ?
S2 C13 1.810(7) . ?
N1 C5 1.328(8) . ?
N1 C1 1.339(8) . ?
N2 C12 1.326(7) . ?
N2 C8 1.333(8) . ?
C1 C2 1.363(10) . ?
C1 H1 0.9300 . ?
C2 C3 1.360(9) . ?
C2 H2 0.9300 . ?
C3 C4 1.370(9) . ?
C4 C5 1.356(9) . ?
C4 H4 0.9300 . ?
C5 H5 0.9300 . ?
C6 C7 1.512(10) . ?
C6 H6A 0.9700 . ?
C6 H6B 0.9700 . ?
C7 C6 1.512(10) 4_565 ?
C7 H7A 0.9700 . ?
C7 H7B 0.9700 . ?
C8 C9 1.357(8) . ?
C8 H8 0.9300 . ?
C9 C10 1.383(8) . ?
C9 H9 0.9300 . ?
C10 C11 1.379(9) . ?
C11 C12 1.369(9) . ?
C11 H11 0.9300 . ?
C12 H12 0.9300 . ?
C13 C14 1.505(9) . ?
C13 H13A 0.9700 . ?
C13 H13B 0.9700 . ?
C14 C13 1.505(9) 4_575 ?
C14 H14A 0.9700 . ?
C14 H14B 0.9700 . ?
Cl1 O4 1.256(9) . ?
Cl1 O4 1.256(9) 4_575 ?
Cl1 O2 1.403(10) . ?
Cl1 O3 1.513(15) . ?
Cl2 O5 1.339(13) . ?
Cl2 O7 1.347(7) . ?
Cl2 O7 1.347(7) 4_565 ?
Cl2 O6 1.387(10) . ?

loop_
_geom_angle_atom_site_label_1
_geom_angle_atom_site_label_2
_geom_angle_atom_site_label_3
_geom_angle
_geom_angle_site_symmetry_1
_geom_angle_site_symmetry_3
_geom_angle_publ_flag
N2 Cd1 N2 180.000(1) 3_565 . ?
N2 Cd1 N1 89.86(17) 3_565 . ?
N2 Cd1 N1 90.14(17) . . ?
N2 Cd1 N1 90.14(17) 3_565 3_565 ?
N2 Cd1 N1 89.86(17) . 3_565 ?
N1 Cd1 N1 180.0(2) . 3_565 ?
N2 Cd1 O1 89.91(17) 3_565 3_565 ?
N2 Cd1 O1 90.09(17) . 3_565 ?
N1 Cd1 O1 90.42(17) . 3_565 ?
N1 Cd1 O1 89.58(17) 3_565 3_565 ?
N2 Cd1 O1 90.09(17) 3_565 . ?
N2 Cd1 O1 89.91(17) . . ?
N1 Cd1 O1 89.58(17) . . ?
N1 Cd1 O1 90.42(17) 3_565 . ?
O1 Cd1 O1 180.0 3_565 . ?
C3 S1 C6 104.8(3) . . ?
C10 S2 C13 104.0(3) . . ?
C5 N1 C1 116.0(5) . . ?
C5 N1 Cd1 122.4(4) . . ?
C1 N1 Cd1 121.6(4) . . ?
C12 N2 C8 115.3(5) . . ?
C12 N2 Cd1 123.2(4) . . ?
C8 N2 Cd1 121.2(4) . . ?
N1 C1 C2 123.3(6) . . ?
N1 C1 H1 118.3 . . ?
C2 C1 H1 118.3 . . ?
C3 C2 C1 119.5(6) . . ?
C3 C2 H2 120.3 . . ?
C1 C2 H2 120.3 . . ?
C2 C3 C4 118.0(6) . . ?
C2 C3 S1 116.8(5) . . ?
C4 C3 S1 125.2(5) . . ?
C5 C4 C3 119.2(6) . . ?
C5 C4 H4 120.4 . . ?
C3 C4 H4 120.4 . . ?
N1 C5 C4 123.9(6) . . ?
N1 C5 H5 118.0 . . ?
C4 C5 H5 118.0 . . ?
C7 C6 S1 115.4(6) . . ?
C7 C6 H6A 108.4 . . ?
S1 C6 H6A 108.4 . . ?
C7 C6 H6B 108.4 . . ?
S1 C6 H6B 108.4 . . ?
H6A C6 H6B 107.5 . . ?
C6 C7 C6 110.2(9) . 4_565 ?
C6 C7 H7A 109.6 . . ?
C6 C7 H7A 109.6 4_565 . ?
C6 C7 H7B 109.6 . . ?
C6 C7 H7B 109.6 4_565 . ?
H7A C7 H7B 108.1 . . ?
N2 C8 C9 124.7(6) . . ?
N2 C8 H8 117.6 . . ?
C9 C8 H8 117.6 . . ?
C8 C9 C10 119.5(6) . . ?
C8 C9 H9 120.2 . . ?
C10 C9 H9 120.2 . . ?
C11 C10 C9 116.4(5) . . ?
C11 C10 S2 117.4(5) . . ?
C9 C10 S2 126.1(5) . . ?
C12 C11 C10 119.8(6) . . ?
C12 C11 H11 120.1 . . ?
C10 C11 H11 120.1 . . ?
N2 C12 C11 124.1(6) . . ?
N2 C12 H12 117.9 . . ?
C11 C12 H12 117.9 . . ?
C14 C13 S2 112.4(6) . . ?
C14 C13 H13A 109.1 . . ?
S2 C13 H13A 109.1 . . ?
C14 C13 H13B 109.1 . . ?
S2 C13 H13B 109.1 . . ?
H13A C13 H13B 107.9 . . ?
C13 C14 C13 112.3(8) 4_575 . ?
C13 C14 H14A 109.2 4_575 . ?
C13 C14 H14A 109.2 . . ?
C13 C14 H14B 109.2 4_575 . ?
C13 C14 H14B 109.2 . . ?
H14A C14 H14B 107.9 . . ?
O4 Cl1 O4 112.0(16) . 4_575 ?
O4 Cl1 O2 113.2(6) . . ?
O4 Cl1 O2 113.2(6) 4_575 . ?
O4 Cl1 O3 104.0(9) . . ?
O4 Cl1 O3 104.0(9) 4_575 . ?
O2 Cl1 O3 109.6(8) . . ?
O5 Cl2 O7 114.4(6) . . ?
O5 Cl2 O7 114.4(6) . 4_565 ?
O7 Cl2 O7 109.9(9) . 4_565 ?
O5 Cl2 O6 102.8(10) . . ?
O7 Cl2 O6 107.4(6) . . ?
O7 Cl2 O6 107.4(6) 4_565 . ?

loop_
_geom_torsion_atom_site_label_1
_geom_torsion_atom_site_label_2
_geom_torsion_atom_site_label_3
_geom_torsion_atom_site_label_4
_geom_torsion
_geom_torsion_site_symmetry_1
_geom_torsion_site_symmetry_2
_geom_torsion_site_symmetry_3
_geom_torsion_site_symmetry_4
_geom_torsion_publ_flag
N2 Cd1 N1 C5 95.9(5) 3_565 . . . ?
N2 Cd1 N1 C5 -84.1(5) . . . . ?
N1 Cd1 N1 C5 38(100) 3_565 . . . ?
O1 Cd1 N1 C5 -174.2(4) 3_565 . . . ?
O1 Cd1 N1 C5 5.8(4) . . . . ?
N2 Cd1 N1 C1 -83.9(5) 3_565 . . . ?
N2 Cd1 N1 C1 96.1(5) . . . . ?
N1 Cd1 N1 C1 -142(100) 3_565 . . . ?
O1 Cd1 N1 C1 6.0(4) 3_565 . . . ?
O1 Cd1 N1 C1 -174.0(4) . . . . ?
N2 Cd1 N2 C12 56.7(6) 3_565 . . . ?
N1 Cd1 N2 C12 34.9(5) . . . . ?
N1 Cd1 N2 C12 -145.1(5) 3_565 . . . ?
O1 Cd1 N2 C12 125.3(5) 3_565 . . . ?
O1 Cd1 N2 C12 -54.7(5) . . . . ?
N2 Cd1 N2 C8 -129.1(4) 3_565 . . . ?
N1 Cd1 N2 C8 -150.8(5) . . . . ?
N1 Cd1 N2 C8 29.2(5) 3_565 . . . ?
O1 Cd1 N2 C8 -60.4(5) 3_565 . . . ?
O1 Cd1 N2 C8 119.6(5) . . . . ?
C5 N1 C1 C2 1.6(9) . . . . ?
Cd1 N1 C1 C2 -178.6(5) . . . . ?
N1 C1 C2 C3 -0.8(11) . . . . ?
C1 C2 C3 C4 0.3(10) . . . . ?
C1 C2 C3 S1 -178.9(5) . . . . ?
C6 S1 C3 C2 -173.4(6) . . . . ?
C6 S1 C3 C4 7.4(7) . . . . ?
C2 C3 C4 C5 -0.8(10) . . . . ?
S1 C3 C4 C5 178.3(5) . . . . ?
C1 N1 C5 C4 -2.2(9) . . . . ?
Cd1 N1 C5 C4 178.0(5) . . . . ?
C3 C4 C5 N1 1.8(10) . . . . ?
C3 S1 C6 C7 -82.2(7) . . . . ?
S1 C6 C7 C6 -177.6(4) . . . 4_565 ?
C12 N2 C8 C9 0.4(9) . . . . ?
Cd1 N2 C8 C9 -174.2(5) . . . . ?
N2 C8 C9 C10 0.6(10) . . . . ?
C8 C9 C10 C11 0.3(9) . . . . ?
C8 C9 C10 S2 176.8(5) . . . . ?
C13 S2 C10 C11 -173.2(5) . . . . ?
C13 S2 C10 C9 10.3(7) . . . . ?
C9 C10 C11 C12 -2.1(9) . . . . ?
S2 C10 C11 C12 -179.0(5) . . . . ?
C8 N2 C12 C11 -2.4(9) . . . . ?
Cd1 N2 C12 C11 172.2(5) . . . . ?
C10 C11 C12 N2 3.3(10) . . . . ?
C10 S2 C13 C14 77.9(6) . . . . ?
S2 C13 C14 C13 172.1(4) . . . 4_575 ?

_diffrn_measured_fraction_theta_max 0.963
_diffrn_reflns_theta_full        25.02
_diffrn_measured_fraction_theta_full 0.963
_refine_diff_density_max         0.888
_refine_diff_density_min         -0.429
_refine_diff_density_rms         0.089
