
#######################################################################
#
#                 Cambridge Crystallographic Data Centre
#                                CCDC
#
#######################################################################
#
# If this CIF has been generated from an entry in the Cambridge
# Structural Database, then it will include bibliographic, chemical,
# crystal, experimental, refinement or atomic coordinate data resulting
# from the CCDC's data processing and validation procedures.
#
#######################################################################

data_CSD_CIF_YAVZEB01
_audit_creation_date 2006-11-30
_audit_creation_method CSD-ConQuest-V1
_database_code_CSD YAVZEB01
_database_code_depnum_ccdc_archive 'CCDC 617429'
_chemical_formula_sum 'C1 H6 F6 N3 Ta1'
_chemical_formula_moiety
;
C1 H6 N3 1+,F6 Ta1 1-
;
_journal_coden_Cambridge 1078
_journal_year 2006
_journal_name_full 'CSD Communication(Private Communication) '
loop_
_publ_author_name
"G.Reck"
_chemical_name_systematic
;
Diaminomethyleneammonium hexafluoro-tantalum
;
_chemical_name_common
;
Teaching Subset: Fundamental Chemistry
;
_cell_volume   1100.240
_exptl_crystal_colour 'colorless'
_exptl_crystal_density_diffrn 3.215
_exptl_special_details
;
contribution from Federal Institute of Materials Research and Testing, 
Richard-Willstaetter-Str. 11, 12489 Berlin, Germany
;
_exptl_crystal_description 'prismatic'
_diffrn_ambient_temperature 293
#These two values have been output from a single CSD field.
_refine_ls_R_factor_gt 0.0483
_refine_ls_wR_factor_gt 0.0483
_symmetry_cell_setting rhombohedral
_symmetry_space_group_name_H-M 'R -3 m'
_symmetry_Int_Tables_number 166
loop_
_symmetry_equiv_pos_site_id
_symmetry_equiv_pos_as_xyz
1 x,y,z
2 -y,x-y,z
3 -x+y,-x,z
4 y,x,-z
5 2/3+x,1/3+y,1/3+z
6 2/3-y,1/3+x-y,1/3+z
7 2/3-x+y,1/3-x,1/3+z
8 2/3+y,1/3+x,1/3-z
9 1/3+x,2/3+y,2/3+z
10 1/3+y,2/3+x,2/3-z
11 x-y,-y,-z
12 -x,-x+y,-z
13 1/3-y,2/3+x-y,2/3+z
14 1/3-x+y,2/3-x,2/3+z
15 1/3+x-y,2/3-y,2/3-z
16 1/3-x,2/3-x+y,2/3-z
17 2/3+x-y,1/3-y,1/3-z
18 2/3-x,1/3-x+y,1/3-z
19 -x,-y,-z
20 y,-x+y,-z
21 x-y,x,-z
22 -y,-x,z
23 -2/3-x,-1/3-y,-1/3-z
24 -2/3+y,-1/3-x+y,-1/3-z
25 -2/3+x-y,-1/3+x,-1/3-z
26 -2/3-y,-1/3-x,-1/3+z
27 -1/3-x,-2/3-y,-2/3-z
28 -1/3-y,-2/3-x,-2/3+z
29 -x+y,y,z
30 x,x-y,z
31 -1/3+y,-2/3-x+y,-2/3-z
32 -1/3+x-y,-2/3+x,-2/3-z
33 -1/3-x+y,-2/3+y,-2/3+z
34 -1/3+x,-2/3+x-y,-2/3+z
35 -2/3-x+y,-1/3+y,-1/3+z
36 -2/3+x,-1/3+x-y,-1/3+z
_cell_length_a 8.643(1)
_cell_length_b 8.643(1)
_cell_length_c 17.007(2)
_cell_angle_alpha 90
_cell_angle_beta 90
_cell_angle_gamma 120
_cell_formula_units_Z 6
loop_
_atom_type_symbol
_atom_type_radius_bond
C 0.68
H 0.23
F 0.64
N 0.68
Ta 1.43
loop_
_atom_site_label
_atom_site_type_symbol
_atom_site_fract_x
_atom_site_fract_y
_atom_site_fract_z
Ta1 Ta 0.00000 0.00000 0.00000
F1 F -0.1031(8) 0.1031(8) -0.0646(7)
Ta2 Ta 0.00000 0.00000 0.50000
F2 F -0.1022(7) 0.1022(7) 0.5655(7)
C1 C 0.00000 0.00000 0.7448(15)
N1 N 0.0857(9) -0.0857(9) 0.7556(9)
H1 H 0.200(13) -0.023(15) 0.755(7)
F1A F -0.1031(8) -0.2062(8) -0.0646(7)
F1B F 0.2062(8) 0.1031(8) -0.0646(7)
F1C F 0.1031(8) -0.1031(8) 0.0646(7)
F1S F 0.1031(8) 0.2062(8) 0.0646(7)
F1T F -0.2062(8) -0.1031(8) 0.0646(7)
F2A F -0.1022(7) -0.2044(7) 0.5655(7)
F2B F 0.2044(7) 0.1022(7) 0.5655(7)
F2C F 0.1022(7) -0.1022(7) 0.4345(7)
F2S F 0.1022(7) 0.2044(7) 0.4345(7)
F2T F -0.2044(7) -0.1022(7) 0.4345(7)
N1A N 0.0857(9) 0.1714(9) 0.7556(9)
N1B N -0.1714(9) -0.0857(9) 0.7556(9)
H1U H 0.023(13) -0.200(15) 0.755(7)
H1A H 0.023(13) 0.223(15) 0.755(7)
H1CA H 0.200(13) 0.223(15) 0.755(7)
H1B H -0.223(13) -0.200(15) 0.755(7)
H1BA H -0.223(13) -0.023(15) 0.755(7)
#END
