####################################################################### 
# 
# This file contains crystal structure data downloaded from the 
# Cambridge Structural Database (CSD) hosted by the Cambridge 
# Crystallographic Data Centre (CCDC).
# 
# Full information about CCDC data access policies and citation 
# guidelines are available at http://www.ccdc.cam.ac.uk/access/V1 
# 
# Audit and citation data items may have been added by the CCDC. 
# Please retain this information to preserve the provenance of 
# this file and to allow appropriate attribution of the data. 
# 
#######################################################################

data_s200
_audit_block_doi                 10.5517/cc8w25c
_database_code_depnum_ccdc_archive 'CCDC 264342'
loop_
_citation_id
_citation_doi
_citation_year
1 10.1016/j.poly.2005.04.020 2005
_audit_update_record             
;
2005-02-21 deposited with the CCDC.	2024-07-14 downloaded from the CCDC.
;

_audit_creation_method           SHELXL-97
_chemical_name_systematic        
;
?
;
_chemical_name_common            ?
_chemical_melting_point          ?
_chemical_formula_moiety         ?
_chemical_formula_sum            'C34 H55 Cl5 Cu4 N20 O7'
_chemical_formula_weight         1287.39

loop_
_atom_type_symbol
_atom_type_description
_atom_type_scat_dispersion_real
_atom_type_scat_dispersion_imag
_atom_type_scat_source
C C 0.0033 0.0016 'International Tables Vol C Tables 4.2.6.8 and 6.1.1.4'
H H 0.0000 0.0000 'International Tables Vol C Tables 4.2.6.8 and 6.1.1.4'
N N 0.0061 0.0033 'International Tables Vol C Tables 4.2.6.8 and 6.1.1.4'
O O 0.0106 0.0060 'International Tables Vol C Tables 4.2.6.8 and 6.1.1.4'
Cl Cl 0.1484 0.1585 'International Tables Vol C Tables 4.2.6.8 and 6.1.1.4'
Cu Cu 0.3201 1.2651 'International Tables Vol C Tables 4.2.6.8 and 6.1.1.4'

_symmetry_cell_setting           monoclinic
_symmetry_space_group_name_H-M   P21/c

loop_
_symmetry_equiv_pos_as_xyz
'x, y, z'
'-x, y+1/2, -z+1/2'
'-x, -y, -z'
'x, -y-1/2, z-1/2'

_cell_length_a                   17.133(5)
_cell_length_b                   22.219(5)
_cell_length_c                   19.058(5)
_cell_angle_alpha                90.000(5)
_cell_angle_beta                 112.408(5)
_cell_angle_gamma                90.000(5)
_cell_volume                     6707(3)
_cell_formula_units_Z            4
_cell_measurement_temperature    293(2)
_cell_measurement_reflns_used    6285
_cell_measurement_theta_min      1.48
_cell_measurement_theta_max      25.00

_exptl_crystal_description       prismatic
_exptl_crystal_colour            blue
_exptl_crystal_size_max          0.35
_exptl_crystal_size_mid          0.24
_exptl_crystal_size_min          0.20
_exptl_crystal_density_meas      ?
_exptl_crystal_density_diffrn    1.275
_exptl_crystal_density_method    'not measured'
_exptl_crystal_F_000             2624
_exptl_absorpt_coefficient_mu    1.500
_exptl_absorpt_correction_type   multi-scan
_exptl_absorpt_correction_T_min  0.614307
_exptl_absorpt_correction_T_max  1
_exptl_absorpt_process_details   'BRUKER AXS SADABS'

_exptl_special_details           
;
?
;

_diffrn_ambient_temperature      293(2)
_diffrn_radiation_wavelength     0.71073
_diffrn_radiation_type           MoK\a
_diffrn_radiation_source         'fine-focus sealed tube'
_diffrn_radiation_monochromator  graphite
_diffrn_measurement_device_type  'Bruker AXS Smart 1000'
_diffrn_measurement_method       omega-scan
_diffrn_detector_area_resol_mean '8.192 pixels/mm'
_diffrn_standards_number         0
_diffrn_standards_interval_count 0
_diffrn_standards_interval_time  0
_diffrn_standards_decay_%        0
_diffrn_reflns_number            63035
_diffrn_reflns_av_R_equivalents  0.0288
_diffrn_reflns_av_sigmaI/netI    0.0174
_diffrn_reflns_limit_h_min       -20
_diffrn_reflns_limit_h_max       20
_diffrn_reflns_limit_k_min       -26
_diffrn_reflns_limit_k_max       26
_diffrn_reflns_limit_l_min       -22
_diffrn_reflns_limit_l_max       22
_diffrn_reflns_theta_min         1.48
_diffrn_reflns_theta_max         25.00
_reflns_number_total             11810
_reflns_number_gt                10613
_reflns_threshold_expression     >2sigma(I)

_computing_data_collection       SMART
_computing_cell_refinement       ?
_computing_data_reduction        'SAINT (Bruker, 1998)'
_computing_structure_solution    'SIR97 (Giacovazzo et al., 1999)'
_computing_structure_refinement  'SHELXL-97 (Sheldrick, 1997)'
_computing_molecular_graphics    ?
_computing_publication_material  ?

_refine_special_details          
;
Refinement of F^2^ against ALL reflections. The weighted R-factor wR and
goodness of fit S are based on F^2^, conventional R-factors R are based
on F, with F set to zero for negative F^2^. The threshold expression of
F^2^ > 2sigma(F^2^) is used only for calculating R-factors(gt) etc. and is
not relevant to the choice of reflections for refinement. R-factors based
on F^2^ are statistically about twice as large as those based on F, and R-
factors based on ALL data will be even larger.
;

_refine_ls_structure_factor_coef Fsqd
_refine_ls_matrix_type           full
_refine_ls_weighting_scheme      calc
_refine_ls_weighting_details     
'calc w=1/[\s^2^(Fo^2^)+(0.0397P)^2^+13.3003P] where P=(Fo^2^+2Fc^2^)/3'
_atom_sites_solution_primary     direct
_atom_sites_solution_secondary   difmap
_atom_sites_solution_hydrogens   geom
_refine_ls_hydrogen_treatment    constr
_refine_ls_extinction_method     none
_refine_ls_extinction_coef       ?
_refine_ls_number_reflns         11810
_refine_ls_number_parameters     606
_refine_ls_number_restraints     0
_refine_ls_R_factor_all          0.0721
_refine_ls_R_factor_gt           0.0657
_refine_ls_wR_factor_ref         0.1421
_refine_ls_wR_factor_gt          0.1412
_refine_ls_goodness_of_fit_ref   1.274
_refine_ls_restrained_S_all      1.274
_refine_ls_shift/su_max          0.001
_refine_ls_shift/su_mean         0.000

loop_
_atom_site_label
_atom_site_type_symbol
_atom_site_fract_x
_atom_site_fract_y
_atom_site_fract_z
_atom_site_U_iso_or_equiv
_atom_site_adp_type
_atom_site_occupancy
_atom_site_symmetry_multiplicity
_atom_site_calc_flag
_atom_site_refinement_flags
_atom_site_disorder_assembly
_atom_site_disorder_group
Cu1 Cu 0.84794(4) -0.16715(2) 0.67511(3) 0.04836(16) Uani 1 1 d . . .
Cu2 Cu 0.92237(4) 0.01683(2) 0.62373(3) 0.04721(16) Uani 1 1 d . . .
Cu3 Cu 0.55665(4) -0.03902(3) 0.45609(4) 0.05896(18) Uani 1 1 d . . .
Cu4 Cu 1.06104(4) -0.02607(2) 0.95097(3) 0.05132(17) Uani 1 1 d . . .
Cl1 Cl 0.84035(8) -0.05153(5) 0.68049(7) 0.0529(3) Uani 1 1 d . . .
Cl2 Cl 0.59604(8) -0.00406(6) 0.58072(8) 0.0588(3) Uani 1 1 d . . .
Cl3 Cl 0.91796(9) -0.00438(5) 0.90829(7) 0.0536(3) Uani 1 1 d . . .
Cl4 Cl 0.92857(11) -0.31269(5) 0.81379(9) 0.0684(4) Uani 1 1 d . . .
Cl5 Cl 0.87342(12) 0.15565(6) 0.46440(10) 0.0822(5) Uani 1 1 d . . .
O1W O 0.5430(3) -0.07950(15) 0.34591(19) 0.0641(10) Uani 1 1 d . . .
O2W O 1.19472(16) -0.05089(11) 0.97074(17) 0.0355(7) Uani 1 1 d . . .
N1 N 0.7192(2) -0.17316(17) 0.6481(2) 0.0438(9) Uani 1 1 d . . .
H1 H 0.7067 -0.2131 0.6439 0.066 Uiso 1 1 calc R . .
N2 N 0.8800(2) -0.17244(15) 0.7907(2) 0.0412(8) Uani 1 1 d . . .
H2 H 0.8861 -0.2123 0.8023 0.062 Uiso 1 1 calc R . .
N3 N 0.8133(3) -0.18158(17) 0.5629(2) 0.0548(11) Uani 1 1 d . . .
N4 N 0.7077(5) -0.1846(2) 0.4512(3) 0.095(2) Uani 1 1 d . . .
H4 H 0.6580 -0.1826 0.4161 0.142 Uiso 0.50 1 calc PR . .
N5 N 0.9718(3) -0.18103(17) 0.7095(2) 0.0502(10) Uani 1 1 d . . .
N6 N 1.0947(3) -0.1827(2) 0.8050(4) 0.0807(17) Uani 1 1 d . . .
H6 H 1.1336 -0.1789 0.8495 0.121 Uiso 0.50 1 calc PR . .
N7 N 0.5459(4) -0.2137(3) 0.5342(4) 0.118(3) Uani 1 1 d . . .
H7 H 0.5689 -0.2454 0.5595 0.177 Uiso 1 1 calc R . .
N8 N 0.5322(2) -0.11852(19) 0.4871(3) 0.0584(12) Uani 1 1 d . . .
N9 N 1.0194(3) -0.21179(16) 0.9429(2) 0.0521(11) Uani 1 1 d . . .
H9 H 1.0049 -0.2460 0.9204 0.078 Uiso 1 1 calc R . .
N10 N 1.0395(3) -0.11300(15) 0.9624(2) 0.0499(10) Uani 1 1 d . . .
N11 N 0.8152(2) 0.06549(16) 0.5634(2) 0.0459(9) Uani 1 1 d . . .
H11 H 0.8302 0.0927 0.5351 0.069 Uiso 1 1 calc R . .
N12 N 0.9605(3) 0.07544(16) 0.7165(2) 0.0462(9) Uani 1 1 d . . .
H12 H 0.9920 0.1046 0.7063 0.069 Uiso 1 1 calc R . .
N13 N 0.8897(3) -0.02261(18) 0.5211(2) 0.0565(11) Uani 1 1 d . . .
N14 N 0.7916(4) -0.0415(2) 0.4116(3) 0.0760(15) Uani 1 1 d . . .
N15 N 1.0377(3) -0.01598(18) 0.6778(2) 0.0502(10) Uani 1 1 d . . .
N16 N 1.1504(3) -0.0132(3) 0.7849(3) 0.0856(17) Uani 1 1 d . . .
N17 N 0.6049(3) 0.03428(19) 0.4259(2) 0.0564(11) Uani 1 1 d . . .
N18 N 0.6870(4) 0.0999(3) 0.4061(3) 0.0846(16) Uani 1 1 d . . .
H18 H 0.7306 0.1203 0.4086 0.127 Uiso 1 1 calc R . .
N19 N 1.0873(3) 0.05576(16) 0.9199(2) 0.0492(10) Uani 1 1 d . . .
N20 N 1.1060(3) 0.12808(18) 0.8514(3) 0.0640(12) Uani 1 1 d . . .
H20 H 1.1035 0.1483 0.8121 0.096 Uiso 1 1 calc R . .
C1 C 0.4594(4) -0.1438(3) 0.4611(4) 0.0821(19) Uani 1 1 d . . .
H1A H 0.4100 -0.1251 0.4293 0.123 Uiso 1 1 calc R . .
C2 C 0.4642(5) -0.2051(4) 0.4878(6) 0.117(3) Uani 1 1 d . . .
H2A H 0.4204 -0.2329 0.4755 0.175 Uiso 1 1 calc R . .
C3 C 0.5848(4) -0.1569(2) 0.5310(4) 0.0763(19) Uani 1 1 d . . .
C4 C 0.6783(3) -0.1475(2) 0.5699(3) 0.0582(13) Uani 1 1 d . . .
H4A H 0.6881 -0.1039 0.5742 0.087 Uiso 1 1 calc R . .
C5 C 0.7315(4) -0.1731(2) 0.5285(3) 0.0629(15) Uani 1 1 d . . .
C6 C 0.7868(6) -0.2009(3) 0.4439(5) 0.099(2) Uani 1 1 d . . .
H6A H 0.7935 -0.2102 0.3989 0.148 Uiso 1 1 calc R . .
C7 C 0.8462(5) -0.2003(3) 0.5113(3) 0.0786(19) Uani 1 1 d . . .
H7A H 0.9023 -0.2108 0.5227 0.118 Uiso 1 1 calc R . .
C8 C 0.6828(3) -0.1482(2) 0.7018(3) 0.0586(14) Uani 1 1 d . . .
H8A H 0.6235 -0.1587 0.6845 0.088 Uiso 1 1 calc R . .
H8B H 0.6873 -0.1047 0.7029 0.088 Uiso 1 1 calc R . .
C9 C 0.7308(3) -0.1740(2) 0.7830(3) 0.0630(14) Uani 1 1 d . . .
H9A H 0.6974 -0.1661 0.8133 0.094 Uiso 1 1 calc R . .
H9B H 0.7352 -0.2173 0.7793 0.094 Uiso 1 1 calc R . .
C10 C 0.8191(3) -0.1484(2) 0.8246(3) 0.0580(13) Uani 1 1 d . . .
H10A H 0.8171 -0.1049 0.8211 0.087 Uiso 1 1 calc R . .
H10B H 0.8390 -0.1593 0.8778 0.087 Uiso 1 1 calc R . .
C11 C 0.9644(3) -0.14602(18) 0.8273(2) 0.0378(9) Uani 1 1 d . . .
H11A H 0.9588 -0.1024 0.8190 0.057 Uiso 1 1 calc R . .
C12 C 1.0144(3) -0.1704(2) 0.7823(3) 0.0482(11) Uani 1 1 d . . .
C13 C 1.0256(4) -0.2029(3) 0.6766(5) 0.086(2) Uani 1 1 d . . .
H13 H 1.0116 -0.2135 0.6260 0.129 Uiso 1 1 calc R . .
C14 C 1.1019(6) -0.2056(3) 0.7327(5) 0.104(3) Uani 1 1 d . . .
H14 H 1.1511 -0.2193 0.7282 0.156 Uiso 1 1 calc R . .
C15 C 1.0075(3) -0.15602(18) 0.9091(3) 0.0467(11) Uani 1 1 d . . .
C16 C 1.0582(4) -0.2022(2) 1.0182(3) 0.0602(14) Uani 1 1 d . . .
H16 H 1.0725 -0.2315 1.0558 0.090 Uiso 1 1 calc R . .
C17 C 1.0724(4) -0.14242(19) 1.0293(3) 0.0590(15) Uani 1 1 d . . .
H17 H 1.1008 -0.1243 1.0761 0.088 Uiso 1 1 calc R . .
C18 C 0.5538(5) 0.0670(3) 0.3694(4) 0.093(3) Uani 1 1 d . . .
H18A H 0.4963 0.0612 0.3426 0.139 Uiso 1 1 calc R . .
C19 C 0.5997(5) 0.1081(5) 0.3591(4) 0.117(3) Uani 1 1 d . . .
H19 H 0.5792 0.1398 0.3252 0.176 Uiso 1 1 calc R . .
C20 C 0.6810(3) 0.0500(2) 0.4462(3) 0.0513(12) Uani 1 1 d . . .
C21 C 0.7556(3) 0.0245(2) 0.5103(3) 0.0525(12) Uani 1 1 d . . .
H21 H 0.7335 -0.0017 0.5397 0.079 Uiso 1 1 calc R . .
C22 C 0.8109(3) -0.0148(2) 0.4807(3) 0.0511(12) Uani 1 1 d . . .
C23 C 0.8658(4) -0.0716(3) 0.4146(4) 0.0767(18) Uani 1 1 d . . .
H23 H 0.8723 -0.0942 0.3761 0.115 Uiso 1 1 calc R . .
C24 C 0.9241(4) -0.0613(2) 0.4832(3) 0.0566(13) Uani 1 1 d . . .
H24 H 0.9785 -0.0771 0.5025 0.085 Uiso 1 1 calc R . .
C25 C 0.7714(3) 0.0999(2) 0.6048(3) 0.0547(12) Uani 1 1 d . . .
H25A H 0.7442 0.0722 0.6277 0.082 Uiso 1 1 calc R . .
H25B H 0.7282 0.1253 0.5695 0.082 Uiso 1 1 calc R . .
C26 C 0.8372(4) 0.1403(3) 0.6689(3) 0.0634(14) Uani 1 1 d . . .
H26A H 0.8712 0.1621 0.6466 0.095 Uiso 1 1 calc R . .
H26B H 0.8061 0.1698 0.6854 0.095 Uiso 1 1 calc R . .
C27 C 0.8950(3) 0.1074(2) 0.7368(3) 0.0528(12) Uani 1 1 d . . .
H27A H 0.8633 0.0785 0.7536 0.079 Uiso 1 1 calc R . .
H27B H 0.9220 0.1355 0.7779 0.079 Uiso 1 1 calc R . .
C28 C 1.0179(3) 0.04123(18) 0.7796(2) 0.0409(10) Uani 1 1 d . . .
H28 H 0.9829 0.0126 0.7939 0.061 Uiso 1 1 calc R . .
C29 C 1.0718(3) 0.0038(2) 0.7491(3) 0.0495(11) Uani 1 1 d . . .
C30 C 1.0972(4) -0.0524(3) 0.6677(4) 0.0729(17) Uani 1 1 d . . .
H30 H 1.0907 -0.0740 0.6241 0.109 Uiso 1 1 calc R . .
C31 C 1.1669(4) -0.0512(3) 0.7322(4) 0.086(2) Uani 1 1 d . . .
H31 H 1.2170 -0.0716 0.7408 0.129 Uiso 1 1 calc R . .
C32 C 1.0686(3) 0.07492(18) 0.8508(3) 0.0449(11) Uani 1 1 d . . .
C33 C 1.1385(4) 0.0969(2) 0.9676(3) 0.0614(14) Uani 1 1 d . . .
H33 H 1.1627 0.0935 1.0201 0.092 Uiso 1 1 calc R . .
C34 C 1.1491(4) 0.1447(3) 0.9260(4) 0.0807(19) Uani 1 1 d . . .
H34 H 1.1787 0.1802 0.9442 0.121 Uiso 1 1 calc R . .
O3W O 0.67558(19) -0.31472(14) 0.61069(17) 0.0468(7) Uiso 1 1 d . . .
O4W O 1.2341(5) -0.1728(4) 0.9350(5) 0.172(3) Uiso 1 1 d . . .
O5W O 1.3029(8) 0.0407(6) 0.8989(7) 0.271(6) Uiso 1 1 d . . .
O6W O 0.6484(6) -0.0404(4) 0.2782(5) 0.190(3) Uiso 1 1 d . . .
O7W O 0.5508(7) -0.2223(5) 0.3319(6) 0.240(5) Uiso 1 1 d . . .

loop_
_atom_site_aniso_label
_atom_site_aniso_U_11
_atom_site_aniso_U_22
_atom_site_aniso_U_33
_atom_site_aniso_U_23
_atom_site_aniso_U_13
_atom_site_aniso_U_12
Cu1 0.0703(4) 0.0292(3) 0.0516(3) -0.0027(2) 0.0300(3) 0.0026(3)
Cu2 0.0597(4) 0.0331(3) 0.0554(4) -0.0011(2) 0.0294(3) -0.0016(3)
Cu3 0.0606(4) 0.0465(4) 0.0675(4) -0.0033(3) 0.0219(3) -0.0012(3)
Cu4 0.0792(4) 0.0246(3) 0.0512(3) 0.0009(2) 0.0259(3) -0.0023(3)
Cl1 0.0728(8) 0.0212(5) 0.0709(8) 0.0064(5) 0.0344(7) -0.0045(5)
Cl2 0.0559(7) 0.0477(7) 0.0693(8) -0.0013(6) 0.0200(6) -0.0041(6)
Cl3 0.0787(8) 0.0306(5) 0.0493(6) -0.0016(5) 0.0218(6) -0.0010(5)
Cl4 0.1086(12) 0.0256(6) 0.0828(9) -0.0063(6) 0.0496(9) 0.0027(6)
Cl5 0.1194(13) 0.0465(7) 0.1077(12) -0.0045(8) 0.0733(11) -0.0193(8)
O1W 0.110(3) 0.0419(19) 0.0447(19) -0.0153(15) 0.034(2) -0.0068(19)
O2W 0.0287(14) 0.0178(12) 0.0654(19) 0.0286(12) 0.0239(13) 0.0053(10)
N1 0.039(2) 0.040(2) 0.051(2) -0.0046(17) 0.0144(17) -0.0082(16)
N2 0.052(2) 0.0244(17) 0.049(2) -0.0030(15) 0.0210(18) -0.0048(16)
N3 0.077(3) 0.036(2) 0.046(2) -0.0060(17) 0.018(2) -0.002(2)
N4 0.150(6) 0.067(3) 0.038(3) -0.013(2) 0.003(3) -0.022(4)
N5 0.060(3) 0.036(2) 0.065(3) 0.0004(18) 0.035(2) 0.0085(18)
N6 0.040(2) 0.054(3) 0.151(5) 0.027(3) 0.040(3) 0.009(2)
N7 0.078(4) 0.067(4) 0.171(7) 0.020(4) 0.004(4) -0.022(3)
N8 0.035(2) 0.046(2) 0.070(3) 0.004(2) -0.006(2) -0.0127(19)
N9 0.096(3) 0.0292(19) 0.038(2) 0.0098(16) 0.033(2) 0.011(2)
N10 0.076(3) 0.0195(17) 0.051(2) 0.0090(16) 0.022(2) -0.0019(17)
N11 0.061(2) 0.0320(19) 0.045(2) -0.0111(16) 0.0208(19) -0.0025(17)
N12 0.067(3) 0.0331(19) 0.039(2) -0.0022(16) 0.0217(19) -0.0215(18)
N13 0.071(3) 0.048(2) 0.062(3) -0.020(2) 0.039(2) -0.014(2)
N14 0.104(4) 0.058(3) 0.070(3) -0.030(2) 0.037(3) -0.023(3)
N15 0.059(2) 0.046(2) 0.040(2) -0.0050(17) 0.0125(19) -0.0065(19)
N16 0.067(3) 0.122(5) 0.060(3) -0.014(3) 0.016(3) 0.036(3)
N17 0.061(3) 0.052(2) 0.058(3) 0.023(2) 0.024(2) -0.004(2)
N18 0.088(4) 0.088(4) 0.081(4) 0.020(3) 0.035(3) -0.011(3)
N19 0.077(3) 0.0284(18) 0.035(2) -0.0015(15) 0.0140(19) -0.0202(18)
N20 0.089(3) 0.032(2) 0.070(3) 0.010(2) 0.029(3) -0.013(2)
C1 0.081(5) 0.065(4) 0.086(4) 0.009(3) 0.016(4) 0.025(4)
C2 0.068(5) 0.104(6) 0.176(9) -0.068(6) 0.044(5) -0.027(4)
C3 0.089(4) 0.023(2) 0.123(5) -0.015(3) 0.048(4) -0.019(3)
C4 0.048(3) 0.046(3) 0.066(3) 0.005(2) 0.004(3) 0.009(2)
C5 0.085(4) 0.034(3) 0.071(4) 0.008(2) 0.031(3) -0.014(3)
C6 0.126(7) 0.072(5) 0.102(6) -0.030(4) 0.048(5) 0.019(4)
C7 0.113(5) 0.066(4) 0.053(3) -0.003(3) 0.027(4) 0.023(4)
C8 0.050(3) 0.055(3) 0.088(4) 0.007(3) 0.047(3) 0.006(2)
C9 0.064(3) 0.049(3) 0.093(4) 0.006(3) 0.049(3) 0.000(3)
C10 0.071(4) 0.049(3) 0.073(3) -0.007(3) 0.050(3) 0.005(3)
C11 0.057(3) 0.028(2) 0.035(2) -0.0044(17) 0.025(2) -0.0030(19)
C12 0.057(3) 0.032(2) 0.055(3) 0.019(2) 0.021(2) -0.003(2)
C13 0.061(4) 0.073(4) 0.122(6) 0.021(4) 0.034(4) 0.012(3)
C14 0.152(8) 0.064(4) 0.166(8) -0.002(5) 0.140(7) 0.000(5)
C15 0.066(3) 0.0183(19) 0.054(3) -0.0019(18) 0.022(2) 0.0003(19)
C16 0.096(4) 0.037(3) 0.060(3) 0.013(2) 0.044(3) -0.001(3)
C17 0.109(4) 0.023(2) 0.036(2) 0.0045(18) 0.017(3) 0.018(2)
C18 0.093(5) 0.086(5) 0.102(6) 0.007(4) 0.042(5) -0.052(4)
C19 0.104(6) 0.159(8) 0.046(4) 0.010(4) -0.021(4) 0.076(6)
C20 0.043(3) 0.064(3) 0.062(3) 0.023(2) 0.037(2) 0.009(2)
C21 0.036(2) 0.067(3) 0.056(3) 0.001(2) 0.020(2) -0.014(2)
C22 0.052(3) 0.038(2) 0.055(3) -0.002(2) 0.011(2) -0.022(2)
C23 0.089(5) 0.062(4) 0.092(5) -0.025(3) 0.050(4) -0.013(3)
C24 0.079(4) 0.039(3) 0.070(4) -0.003(2) 0.048(3) -0.004(2)
C25 0.057(3) 0.043(3) 0.069(3) 0.004(2) 0.029(3) 0.008(2)
C26 0.068(4) 0.058(3) 0.058(3) -0.023(3) 0.017(3) -0.003(3)
C27 0.058(3) 0.044(3) 0.062(3) -0.012(2) 0.029(3) 0.010(2)
C28 0.070(3) 0.026(2) 0.035(2) 0.0082(17) 0.028(2) 0.002(2)
C29 0.044(3) 0.048(3) 0.054(3) 0.011(2) 0.015(2) 0.000(2)
C30 0.068(4) 0.051(3) 0.099(5) 0.005(3) 0.031(4) 0.013(3)
C31 0.065(4) 0.089(5) 0.095(5) 0.011(4) 0.022(4) 0.024(4)
C32 0.059(3) 0.025(2) 0.054(3) -0.0102(19) 0.026(2) -0.022(2)
C33 0.087(4) 0.032(2) 0.059(3) 0.000(2) 0.021(3) -0.022(3)
C34 0.094(5) 0.080(4) 0.070(4) -0.003(3) 0.033(4) -0.037(4)

_geom_special_details            
;
A