
#######################################################################
#
#                 Cambridge Crystallographic Data Centre
#                                CCDC
#
#######################################################################
#
# If this CIF has been generated from an entry in the Cambridge
# Structural Database, then it will include bibliographic, chemical,
# crystal, experimental, refinement or atomic coordinate data resulting
# from the CCDC's data processing and validation procedures.
#
#######################################################################

data_CSD_CIF_YAXXAW
_audit_creation_date 1994-07-25
_audit_creation_method CSD-ConQuest-V1
_database_code_CSD YAXXAW
_database_code_depnum_ccdc_archive 'CCDC 1300204'
_chemical_formula_sum 'C6 H21 Al1 F6 N6'
_chemical_formula_moiety
;
3(C2 H7 N2 1+),Al1 F6 3-
;
_journal_coden_Cambridge 29
_journal_volume 619
_journal_year 1993
_journal_page_first 1939
_journal_name_full 'Z.Anorg.Allg.Chem. '
loop_
_publ_author_name
"U.Calov"
"R.Seydel"
"K.-H.Jost"
"R.Hedel"
"G.Reck"
_chemical_name_systematic
;
tris(Acetamidinium) hexafluoro-aluminium
;
_chemical_name_common
;
Teaching Subset: Fundamental Chemistry, Symmetry
;
_cell_volume   1445.230
_exptl_crystal_colour 'colorless'
_exptl_crystal_density_diffrn 1.46
_exptl_special_details
;
Alternative sg may be P43212

;
_diffrn_ambient_temperature ?
_diffrn_special_details
;
The study was carried out at room temperature,in the range 283-303K

;
#These two values have been output from a single CSD field.
_refine_ls_R_factor_gt 0.054
_refine_ls_wR_factor_gt 0.054
_symmetry_cell_setting tetragonal
_symmetry_space_group_name_H-M 'P 41 21 2'
_symmetry_Int_Tables_number 92
loop_
_symmetry_equiv_pos_site_id
_symmetry_equiv_pos_as_xyz
1 x,y,z
2 1/2-y,1/2+x,1/4+z
3 -x,-y,1/2+z
4 1/2+y,1/2-x,3/4+z
5 y,x,-z
6 1/2+x,1/2-y,3/4-z
7 -y,-x,1/2-z
8 1/2-x,1/2+y,1/4-z
_cell_length_a 8.987(1)
_cell_length_b 8.987(1)
_cell_length_c 17.894(3)
_cell_angle_alpha 90
_cell_angle_beta 90
_cell_angle_gamma 90
_cell_formula_units_Z 4
loop_
_atom_type_symbol
_atom_type_radius_bond
C 0.68
Al 1.35
F 0.64
N 0.68
loop_
_atom_site_label
_atom_site_type_symbol
_atom_site_fract_x
_atom_site_fract_y
_atom_site_fract_z
Al1 Al 0.5428(2) 0.5428(2) 0.00000
F1 F 0.4571(4) 0.4252(4) 0.0699(2)
F2 F 0.6599(4) 0.6259(4) 0.0711(2)
F3 F 0.4051(4) 0.6872(4) 0.0173(2)
N1 N -0.0783(6) 0.3554(6) 0.0835(3)
N2 N 0.1716(5) 0.3433(6) 0.1046(3)
C1 C 0.0588(7) 0.3954(7) 0.0662(3)
C2 C 0.0839(7) 0.4992(8) 0.0035(4)
N3 N 0.8620(6) 0.8390(6) 0.0615(2)
C3 C 0.9047(6) 0.9047(6) 0.00000
C4 C 1.0227(8) 1.0227(8) 0.00000
F1D F 0.4252(4) 0.4571(4) -0.0699(2)
F2D F 0.6259(4) 0.6599(4) -0.0711(2)
F3D F 0.6872(4) 0.4051(4) -0.0173(2)
N3D N 0.8390(6) 0.8620(6) -0.0615(2)
#END
