####################################################################### 
# 
# This file contains crystal structure data downloaded from the 
# Cambridge Structural Database (CSD) hosted by the Cambridge 
# Crystallographic Data Centre (CCDC).
# 
# Full information about CCDC data access policies and citation 
# guidelines are available at http://www.ccdc.cam.ac.uk/access/V1 
# 
# Audit and citation data items may have been added by the CCDC. 
# Please retain this information to preserve the provenance of 
# this file and to allow appropriate attribution of the data. 
# 
#######################################################################

data_pemt63b
_audit_block_doi                 10.5517/cc98m6c
_database_code_depnum_ccdc_archive 'CCDC 276402'
loop_
_citation_id
_citation_doi
_citation_year
1 10.1016/j.inoche.2005.09.008 2005
_audit_update_record             
;
2005-06-27 deposited with the CCDC.	2024-07-14 downloaded from the CCDC.
;

_audit_creation_method           SHELXL-97
_chemical_name_systematic        
;
?
;
_chemical_name_common            ?
_chemical_melting_point          ?
_chemical_formula_moiety         ?
_chemical_formula_sum            'C7 H18 Cl Cu N2 O5.50'
_chemical_formula_weight         317.22

loop_
_atom_type_symbol
_atom_type_description
_atom_type_scat_dispersion_real
_atom_type_scat_dispersion_imag
_atom_type_scat_source
C C 0.0181 0.0091 'International Tables Vol C Tables 4.2.6.8 and 6.1.1.4'
H H 0.0000 0.0000 'International Tables Vol C Tables 4.2.6.8 and 6.1.1.4'
N N 0.0311 0.0180 'International Tables Vol C Tables 4.2.6.8 and 6.1.1.4'
O O 0.0492 0.0322 'International Tables Vol C Tables 4.2.6.8 and 6.1.1.4'
Cl Cl 0.3639 0.7018 'International Tables Vol C Tables 4.2.6.8 and 6.1.1.4'
Cu Cu -1.9646 0.5888 'International Tables Vol C Tables 4.2.6.8 and 6.1.1.4'

_symmetry_cell_setting           hexagonal
_symmetry_space_group_name_H-M   P62

loop_
_symmetry_equiv_pos_as_xyz
'x, y, z'
'-y, x-y, z+2/3'
'-x+y, -x, z+1/3'
'-x, -y, z'
'y, -x+y, z+2/3'
'x-y, x, z+1/3'

_cell_length_a                   15.915(1)
_cell_length_b                   15.915(1)
_cell_length_c                   8.6777(8)
_cell_angle_alpha                90.00
_cell_angle_beta                 90.00
_cell_angle_gamma                120.00
_cell_volume                     1903.5(3)
_cell_formula_units_Z            6
_cell_measurement_temperature    298
_cell_measurement_reflns_used    25
_cell_measurement_theta_min      11
_cell_measurement_theta_max      27

_exptl_crystal_description       parall
_exptl_crystal_colour            green
_exptl_crystal_size_max          0.50
_exptl_crystal_size_mid          0.25
_exptl_crystal_size_min          0.15
_exptl_crystal_density_meas      1.64
_exptl_crystal_density_diffrn    1.660
_exptl_crystal_density_method    'floating method'
_exptl_crystal_F_000             984
_exptl_absorpt_coefficient_mu    4.529
_exptl_absorpt_correction_type   'psi-scan empirical'
_exptl_absorpt_correction_T_min  0.71
_exptl_absorpt_correction_T_max  1.00
_exptl_absorpt_process_details   ?

_exptl_special_details           
;
?
;

_diffrn_ambient_temperature      298
_diffrn_radiation_wavelength     1.54180
_diffrn_radiation_type           CuK\a
_diffrn_radiation_source         'fine-focus sealed tube'
_diffrn_radiation_monochromator  graphite
_diffrn_measurement_device_type  'P21 Nicolet upgraded by Crystal Logic'
_diffrn_measurement_method       \q/2\q
_diffrn_detector_area_resol_mean ?
_diffrn_standards_number         3
_diffrn_standards_interval_count 97
_diffrn_standards_interval_time  ?
_diffrn_standards_decay_%        2.9
_diffrn_reflns_number            1921
_diffrn_reflns_av_R_equivalents  0.0107
_diffrn_reflns_av_sigmaI/netI    0.0397
_diffrn_reflns_limit_h_min       0
_diffrn_reflns_limit_h_max       16
_diffrn_reflns_limit_k_min       0
_diffrn_reflns_limit_k_max       16
_diffrn_reflns_limit_l_min       -8
_diffrn_reflns_limit_l_max       10
_diffrn_reflns_theta_min         3.21
_diffrn_reflns_theta_max         64.89
_reflns_number_total             1711
_reflns_number_gt                1688
_reflns_threshold_expression     >2sigma(I)

_computing_data_collection       ?
_computing_cell_refinement       ?
_computing_data_reduction        ?
_computing_structure_solution    'SHELXS-86 (sheldrick, 1986)'
_computing_structure_refinement  'SHELXL-97 (Sheldrick, 1997)'
_computing_molecular_graphics    ?
_computing_publication_material  ?

_refine_special_details          
;
Refinement of F^2^ against ALL reflections. The weighted R-factor wR and
goodness of fit S are based on F^2^, conventional R-factors R are based
on F, with F set to zero for negative F^2^. The threshold expression of
F^2^ > 2sigma(F^2^) is used only for calculating R-factors(gt) etc. and is
not relevant to the choice of reflections for refinement. R-factors based
on F^2^ are statistically about twice as large as those based on F, and R-
factors based on ALL data will be even larger.
;

_refine_ls_structure_factor_coef Fsqd
_refine_ls_matrix_type           full
_refine_ls_weighting_scheme      calc
_refine_ls_weighting_details     
'calc w=1/[\s^2^(Fo^2^)+(0.0613P)^2^+2.2439P] where P=(Fo^2^+2Fc^2^)/3'
_atom_sites_solution_primary     direct
_atom_sites_solution_secondary   difmap
_atom_sites_solution_hydrogens   geom
_refine_ls_hydrogen_treatment    mixed
_refine_ls_extinction_method     SHELXL
_refine_ls_extinction_coef       0.0042(4)
_refine_ls_extinction_expression Fc^*^=kFc[1+0.001xFc^2^\l^3^/sin(2\q)]^-1/4^
_refine_ls_abs_structure_details 'Flack H D (1983), Acta Cryst. A39, 876-881'
_refine_ls_abs_structure_Flack   0.07(3)
_refine_ls_number_reflns         1711
_refine_ls_number_parameters     166
_refine_ls_number_restraints     1
_refine_ls_R_factor_all          0.0384
_refine_ls_R_factor_gt           0.0380
_refine_ls_wR_factor_ref         0.1114
_refine_ls_wR_factor_gt          0.1109
_refine_ls_goodness_of_fit_ref   1.153
_refine_ls_restrained_S_all      1.153
_refine_ls_shift/su_max          0.003
_refine_ls_shift/su_mean         0.000

loop_
_atom_site_label
_atom_site_type_symbol
_atom_site_fract_x
_atom_site_fract_y
_atom_site_fract_z
_atom_site_U_iso_or_equiv
_atom_site_adp_type
_atom_site_occupancy
_atom_site_symmetry_multiplicity
_atom_site_calc_flag
_atom_site_refinement_flags
_atom_site_disorder_assembly
_atom_site_disorder_group
Cu Cu 0.38141(5) 0.79046(5) 0.11000(7) 0.0327(3) Uani 1 1 d . . .
Cl Cl 0.41507(10) 0.66844(9) 0.15540(15) 0.0375(4) Uani 1 1 d . . .
O1 O 0.4867(3) 1.1278(3) 0.0377(4) 0.0379(9) Uani 1 1 d . . .
O3 O 0.3537(3) 0.9001(3) 0.1001(5) 0.0381(9) Uani 1 1 d . . .
N2 N 0.2506(3) 0.7269(3) 0.2046(6) 0.0365(11) Uani 1 1 d . . .
C1 C 0.4247(4) 1.0934(4) 0.1490(6) 0.0322(12) Uani 1 1 d . . .
O2 O 0.4455(3) 1.0996(3) 0.2869(5) 0.0451(10) Uani 1 1 d . . .
C2 C 0.3198(4) 1.0481(4) 0.0977(8) 0.0353(13) Uani 1 1 d . . .
N1 N 0.2594(3) 0.9568(3) 0.1824(5) 0.0348(10) Uani 1 1 d . . .
C3 C 0.2831(5) 1.1189(5) 0.1275(10) 0.060(2) Uani 1 1 d . . .
H3A H 0.2213 1.0955 0.0783 0.101(18) Uiso 1 1 calc R . .
H3B H 0.3287 1.1815 0.0864 0.101(18) Uiso 1 1 calc R . .
H3C H 0.2763 1.1243 0.2364 0.101(18) Uiso 1 1 calc R . .
C4 C 0.2831(4) 0.8886(4) 0.1781(6) 0.0330(12) Uani 1 1 d . . .
C5 C 0.2292(4) 0.7996(4) 0.2781(6) 0.0388(13) Uani 1 1 d . . .
C6 C 0.2788(7) 0.8255(5) 0.4368(8) 0.063(2) Uani 1 1 d . . .
H6A H 0.2504 0.7690 0.5014 0.072(14) Uiso 1 1 calc R . .
H6B H 0.2702 0.8754 0.4834 0.072(14) Uiso 1 1 calc R . .
H6C H 0.3468 0.8484 0.4246 0.072(14) Uiso 1 1 calc R . .
C7 C 0.1195(5) 0.7606(5) 0.2858(10) 0.061(2) Uani 1 1 d . . .
H7A H 0.0898 0.7048 0.3519 0.055(12) Uiso 1 1 calc R . .
H7B H 0.0923 0.7427 0.1843 0.055(12) Uiso 1 1 calc R . .
H7C H 0.1078 0.8100 0.3261 0.055(12) Uiso 1 1 calc R . .
HN1 H 0.198(6) 0.931(5) 0.249(9) 0.07(2) Uiso 1 1 d . . .
H2 H 0.321(4) 1.040(4) -0.003(8) 0.036(17) Uiso 1 1 d . . .
HN2A H 0.2348 0.6781 0.2653 0.019 Uiso 1 1 d . . .
HN2B H 0.2237 0.7306 0.1077 0.102 Uiso 1 1 d . . .
OW1 O 0.0000 0.0000 0.2442(5) 0.0179(9) Uani 1 2 d S . .
OW2 O 0.0242(3) 0.1200(2) 0.0758(4) 0.0339(8) Uani 1 1 d . . .
OW3 O 0.0000 0.5000 0.1674(12) 0.099(3) Uani 1 2 d S . .
OW4 O 0.5000 1.0000 -0.1890(17) 0.139(5) Uani 1 2 d S . .

loop_
_atom_site_aniso_label
_atom_site_aniso_U_11
_atom_site_aniso_U_22
_atom_site_aniso_U_33
_atom_site_aniso_U_23
_atom_site_aniso_U_13
_atom_site_aniso_U_12
Cu 0.0323(5) 0.0291(4) 0.0359(4) 0.0001(3) -0.0002(3) 0.0148(3)
Cl 0.0456(8) 0.0351(7) 0.0352(7) 0.0018(5) -0.0016(5) 0.0227(6)
O1 0.033(2) 0.034(2) 0.042(2) 0.0029(17) 0.0045(17) 0.0131(17)
O3 0.036(2) 0.034(2) 0.044(2) 0.0048(17) 0.0095(19) 0.0175(17)
N2 0.043(3) 0.029(2) 0.039(2) 0.0023(19) 0.002(2) 0.019(2)
C1 0.032(3) 0.028(3) 0.038(3) 0.001(2) 0.000(2) 0.016(2)
O2 0.049(2) 0.041(2) 0.040(2) -0.0018(18) -0.0043(19) 0.0182(19)
C2 0.027(3) 0.036(3) 0.045(4) 0.009(3) 0.007(2) 0.017(2)
N1 0.030(2) 0.032(2) 0.041(3) 0.006(2) 0.004(2) 0.015(2)
C3 0.060(4) 0.042(3) 0.087(6) 0.024(4) 0.014(4) 0.033(3)
C4 0.035(3) 0.028(3) 0.034(3) -0.002(2) -0.003(2) 0.014(2)
C5 0.046(3) 0.032(3) 0.036(3) 0.002(2) 0.008(3) 0.018(3)
C6 0.108(6) 0.053(4) 0.036(3) -0.004(3) -0.006(4) 0.046(4)
C7 0.059(4) 0.046(4) 0.086(6) 0.020(4) 0.038(4) 0.034(3)
Ow1 0.0095(19) 0.0109(19) 0.034(3) 0.000 0.000 0.0058(16)
Ow2 0.051(2) 0.0214(16) 0.034(2) 0.0070(14) -0.0029(16) 0.0212(17)
Ow3 0.116(8) 0.099(7) 0.079(6) 0.000 0.000 0.051(6)
Ow4 0.213(15) 0.104(8) 0.120(9) 0.000 0.000 0.095(10)

_geom_special_details            
;
All esds (except the esd in the dihedral angle between two l.s. planes)
are estimated using the full covariance matrix. The cell esds are taken
into account individually in the estimation of esds in distances, angles
and torsion angles; correlations between esds in cell parameters are only
used when they are defined by crystal symmetry. An approximate (isotropic)
treatment of cell esds is used for estimating esds involving l.s. planes.
;

loop_
_geom_bond_atom_site_label_1
_geom_bond_atom_site_label_2
_geom_bond_distance
_geom_bond_site_symmetry_2
_geom_bond_publ_flag
Cu O1 1.940(4) 4_675 ?
Cu N2 1.981(5) . ?
Cu O3 2.005(4) . ?
Cu Cl 2.2921(15) . ?
Cu Cl 2.6087(15) 2_664 ?
Cl Cu 2.6087(14) 3_565 ?
O1 C1 1.291(7) . ?
O1 Cu 1.940(4) 4_675 ?
O3 C4 1.244(7) . ?
N2 C5 1.501(7) . ?
C1 O2 1.233(7) . ?
C1 C2 1.517(8) . ?
C2 N1 1.475(7) . ?
C2 C3 1.529(9) . ?
N1 C4 1.318(8) . ?
C4 C5 1.510(7) . ?
C5 C7 1.534(9) . ?
C5 C6 1.538(9) . ?

loop_
_geom_angle_atom_site_label_1
_geom_angle_atom_site_label_2
_geom_angle_atom_site_label_3
_geom_angle
_geom_angle_site_symmetry_1
_geom_angle_site_symmetry_3
_geom_angle_publ_flag
O1 Cu N2 170.09(18) 4_675 . ?
O1 Cu O3 92.15(16) 4_675 . ?
N2 Cu O3 80.21(17) . . ?
O1 Cu Cl 89.48(12) 4_675 . ?
N2 Cu Cl 97.30(14) . . ?
O3 Cu Cl 172.51(12) . . ?
O1 Cu Cl 87.24(12) 4_675 2_664 ?
N2 Cu Cl 99.15(15) . 2_664 ?
O3 Cu Cl 91.25(12) . 2_664 ?
Cl Cu Cl 96.13(5) . 2_664 ?
Cu Cl Cu 115.70(6) . 3_565 ?
C1 O1 Cu 112.6(4) . 4_675 ?
C4 O3 Cu 115.0(4) . . ?
C5 N2 Cu 111.6(3) . . ?
O2 C1 O1 125.1(5) . . ?
O2 C1 C2 120.7(5) . . ?
O1 C1 C2 114.1(5) . . ?
N1 C2 C1 110.0(4) . . ?
N1 C2 C3 109.9(5) . . ?
C1 C2 C3 109.6(5) . . ?
C4 N1 C2 118.9(4) . . ?
O3 C4 N1 120.2(5) . . ?
O3 C4 C5 120.0(5) . . ?
N1 C4 C5 119.7(5) . . ?
N2 C5 C4 103.7(4) . . ?
N2 C5 C7 111.0(5) . . ?
C4 C5 C7 113.7(5) . . ?
N2 C5 C6 107.6(5) . . ?
C4 C5 C6 106.7(5) . . ?
C7 C5 C6 113.4(6) . . ?

_diffrn_measured_fraction_theta_max 0.958
_diffrn_reflns_theta_full        64.89
_diffrn_measured_fraction_theta_full 0.958
_refine_diff_density_max         0.785
_refine_diff_density_min         -0.297
_refine_diff_density_rms         0.102
