
#######################################################################
#
#                 Cambridge Crystallographic Data Centre
#                                CCDC
#
#######################################################################
#
# If this CIF has been generated from an entry in the Cambridge
# Structural Database, then it will include bibliographic, chemical,
# crystal, experimental, refinement or atomic coordinate data resulting
# from the CCDC's data processing and validation procedures.
#
#######################################################################

data_CSD_CIF_YECFAN
_audit_creation_date 1994-10-12
_audit_creation_method CSD-ConQuest-V1
_database_code_CSD YECFAN
_database_code_depnum_ccdc_archive 'CCDC 1300544'
_chemical_formula_sum 'C32 H24 Br4 Cd1 N6 O6'
_chemical_formula_moiety
;
(C20 H16 Cd1 N6 O6)n,2n(C6 H4 Br2)
;
_journal_coden_Cambridge 4
_journal_volume 116
_journal_year 1994
_journal_page_first 1151
_journal_name_full 'J.Am.Chem.Soc. '
loop_
_publ_author_name
"M.Fujita"
"Yoon Jung Kwon"
"S.Washizu"
"K.Ogura"
_chemical_name_systematic
;
catena-(bis(\m~3~-4,4'-Bipyridine)-(dinitrato-O)-cadmium 
bis(o-dibromobenzene) clathrate)
;
_chemical_name_common
;
Teaching Subset: MOFs
;
_cell_volume   3505.018
_exptl_special_details
;
Fw and dx given as 940.60 and 1.98, respectively; we calculate 1020.60 and 
1.93
;
_diffrn_ambient_temperature ?
_diffrn_special_details
;
The study was carried out at room temperature,in the range 283-303K

;
#These two values have been output from a single CSD field.
_refine_ls_R_factor_gt 0.074
_refine_ls_wR_factor_gt 0.074
_symmetry_cell_setting monoclinic
_symmetry_space_group_name_H-M 'C 2/c'
_symmetry_Int_Tables_number 15
loop_
_symmetry_equiv_pos_site_id
_symmetry_equiv_pos_as_xyz
1 x,y,z
2 1/2+x,1/2+y,z
3 -x,y,1/2-z
4 1/2-x,1/2+y,1/2-z
5 -x,-y,-z
6 -1/2-x,-1/2-y,-z
7 x,-y,-1/2+z
8 -1/2+x,-1/2-y,-1/2+z
_cell_length_a 21.828(4)
_cell_length_b 11.769(2)
_cell_length_c 13.878(2)
_cell_angle_alpha 90
_cell_angle_beta 100.54(1)
_cell_angle_gamma 90
_cell_formula_units_Z 4
loop_
_atom_type_symbol
_atom_type_radius_bond
C 0.68
H 0.23
Br 1.21
Cd 1.69
N 0.68
O 0.68
loop_
_atom_site_label
_atom_site_type_symbol
_atom_site_fract_x
_atom_site_fract_y
_atom_site_fract_z
Cd1 Cd 0.00000 0.20490(6) 0.25000
N1 N -0.1006(3) 0.2180(6) 0.1504(6)
C1 C -0.1436(5) 0.2846(9) 0.1758(9)
C2 C -0.2026(4) 0.2996(8) 0.1190(8)
C3 C -0.2190(3) 0.2432(6) 0.0308(7)
C4 C -0.1735(4) 0.1712(8) 0.0041(8)
C5 C -0.1161(4) 0.1620(8) 0.0654(8)
N2 N 0.00000 0.4053(7) 0.25000
C6 C -0.0205(4) 0.4629(7) 0.1690(8)
C7 C -0.0232(5) 0.5799(7) 0.1667(8)
C8 C 0.00000 0.6404(9) 0.25000
C9 C 0.00000 0.7673(9) 0.25000
C10 C -0.0143(5) 0.8291(8) 0.329(1)
C11 C -0.0130(5) 0.9454(8) 0.3267(9)
N3 N 0.00000 1.0049(8) 0.25000
N4 N 0.0711(6) 0.203(1) 0.0643(7)
O1 O 0.0988(6) 0.237(1) 0.010(1)
O2 O 0.0262(7) 0.223(1) 0.084(1)
O3 O 0.097(1) 0.117(2) 0.096(2)
H1 H -0.141(6) 0.34(1) 0.22(1)
H2 H -0.240(5) 0.34(1) 0.158(9)
H3 H -0.193(5) 0.10(1) -0.050(9)
H4 H -0.083(5) 0.13(1) 0.018(9)
H5 H -0.027(6) 0.43(1) 0.110(9)
H6 H -0.049(5) 0.58(1) 0.087(9)
H7 H -0.029(6) 0.78(1) 0.40(1)
H8 H -0.028(5) 0.98(1) 0.388(9)
C12 C 0.2977(6) 0.0047(9) -0.1234(8)
C13 C 0.2567(7) -0.032(1) -0.2029(9)
C14 C 0.1975(8) 0.003(2) -0.221(1)
C15 C 0.1780(6) 0.088(1) -0.141(2)
C16 C 0.2157(8) 0.111(1) -0.070(1)
C17 C 0.2778(7) 0.079(1) -0.055(1)
Br1 Br 0.38190(8) -0.0419(2) -0.0972(2)
Br2 Br 0.2818(2) -0.1367(2) -0.2899(2)
C3E C -0.2810(3) 0.2568(6) -0.0308(7)
C2E C -0.2974(4) 0.2004(8) -0.1190(8)
C1E C -0.3564(5) 0.2154(9) -0.1758(9)
N1E N -0.3994(3) 0.2820(6) -0.1504(6)
C5E C -0.3839(4) 0.3380(8) -0.0654(8)
C4E C -0.3265(4) 0.3288(8) -0.0041(8)
H3E H -0.307(5) 0.40(1) 0.050(9)
H4E H -0.417(5) 0.37(1) -0.018(9)
H1E H -0.359(6) 0.16(1) -0.22(1)
H2E H -0.260(5) 0.16(1) -0.158(9)
C7B C 0.0232(5) 0.5799(7) 0.3333(8)
C6B C 0.0205(4) 0.4629(7) 0.3310(8)
H5B H 0.027(6) 0.43(1) 0.390(9)
H6B H 0.049(5) 0.58(1) 0.413(9)
C11B C 0.0130(5) 0.9454(8) 0.1733(9)
C10B C 0.0143(5) 0.8291(8) 0.171(1)
H7B H 0.029(6) 0.78(1) 0.10(1)
H8B H 0.028(5) 0.98(1) 0.112(9)
N4B N -0.0711(6) 0.203(1) 0.4357(7)
O1B O -0.0988(6) 0.237(1) 0.490(1)
O2B O -0.0262(7) 0.223(1) 0.416(1)
O3B O -0.097(1) 0.117(2) 0.404(2)
N1B N 0.1006(3) 0.2180(6) 0.3496(6)
N3* N 0.00000 0.0049(8) 0.25000
Cd1* Cd 0.00000 1.20490(6) 0.25000
Cd1E Cd -0.50000 0.29510(6) -0.25000
#END
