####################################################################### 
# 
# This file contains crystal structure data downloaded from the 
# Cambridge Structural Database (CSD) hosted by the Cambridge 
# Crystallographic Data Centre (CCDC).
# 
# Full information about CCDC data access policies and citation 
# guidelines are available at http://www.ccdc.cam.ac.uk/access/V1 
# 
# Audit and citation data items may have been added by the CCDC. 
# Please retain this information to preserve the provenance of 
# this file and to allow appropriate attribution of the data. 
# 
#######################################################################

data_5a
_audit_block_doi                 10.5517/cc9z2s3
_database_code_depnum_ccdc_archive 'CCDC 297035'
loop_
_citation_id
_citation_doi
_citation_year
1 10.1021/ic051365t 2006
_audit_update_record             
;
2006-02-01 deposited with the CCDC.	2024-07-14 downloaded from the CCDC.
;

_audit_creation_method           SHELXL-97
_chemical_name_systematic        
;
?
;
_chemical_name_common            ?
_chemical_melting_point          ?
_chemical_formula_moiety         ?
_chemical_formula_sum            'C159 H144 Ag4 F12 N16 O26'
_chemical_formula_weight         3354.38

loop_
_atom_type_symbol
_atom_type_description
_atom_type_scat_dispersion_real
_atom_type_scat_dispersion_imag
_atom_type_scat_source
C C 0.0033 0.0016 'International Tables Vol C Tables 4.2.6.8 and 6.1.1.4'
H H 0.0000 0.0000 'International Tables Vol C Tables 4.2.6.8 and 6.1.1.4'
N N 0.0061 0.0033 'International Tables Vol C Tables 4.2.6.8 and 6.1.1.4'
O O 0.0106 0.0060 'International Tables Vol C Tables 4.2.6.8 and 6.1.1.4'
F F 0.0171 0.0103 'International Tables Vol C Tables 4.2.6.8 and 6.1.1.4'
Ag Ag -0.8971 1.1015 'International Tables Vol C Tables 4.2.6.8 and 6.1.1.4'

_symmetry_cell_setting           Orthorhombic
_symmetry_space_group_name_H-M   P2(1)2(1)2(1)

loop_
_symmetry_equiv_pos_as_xyz
'x, y, z'
'-x+1/2, -y, z+1/2'
'-x, y+1/2, -z+1/2'
'x+1/2, -y+1/2, -z'

_cell_length_a                   23.500(5)
_cell_length_b                   23.828(5)
_cell_length_c                   26.897(5)
_cell_angle_alpha                90.00
_cell_angle_beta                 90.00
_cell_angle_gamma                90.00
_cell_volume                     15061(5)
_cell_formula_units_Z            4
_cell_measurement_temperature    150(2)
_cell_measurement_reflns_used    14273
_cell_measurement_theta_min      1.70
_cell_measurement_theta_max      25.03

_exptl_crystal_description       block
_exptl_crystal_colour            colourless
_exptl_crystal_size_max          0.23
_exptl_crystal_size_mid          0.15
_exptl_crystal_size_min          0.10
_exptl_crystal_density_meas      ?
_exptl_crystal_density_diffrn    1.479
_exptl_crystal_density_method    'not measured'
_exptl_crystal_F_000             6856
_exptl_absorpt_coefficient_mu    0.604
_exptl_absorpt_correction_type   multi-scan
_exptl_absorpt_correction_T_min  0.8761
_exptl_absorpt_correction_T_max  0.9421
_exptl_absorpt_process_details   'DENZO-SMN (Otwinowski & Minor, 1997)'

_exptl_special_details           
;
?
;

_diffrn_ambient_temperature      150(2)
_diffrn_radiation_wavelength     0.71073
_diffrn_radiation_type           MoK\a
_diffrn_radiation_source         'fine-focus sealed tube'
_diffrn_radiation_monochromator  graphite
_diffrn_measurement_device_type  'Nonius Kappa CCD'
_diffrn_measurement_method       'phi\omega scans'
_diffrn_detector_area_resol_mean ?
_diffrn_standards_number         ?
_diffrn_standards_interval_count ?
_diffrn_standards_interval_time  ?
_diffrn_standards_decay_%        ?
_diffrn_reflns_number            101063
_diffrn_reflns_av_R_equivalents  0.105
_diffrn_reflns_av_sigmaI/netI    0.1489
_diffrn_reflns_limit_h_min       -27
_diffrn_reflns_limit_h_max       27
_diffrn_reflns_limit_k_min       -28
_diffrn_reflns_limit_k_max       28
_diffrn_reflns_limit_l_min       -31
_diffrn_reflns_limit_l_max       32
_diffrn_reflns_theta_min         1.71
_diffrn_reflns_theta_max         25.03
_reflns_number_total             26544
_reflns_number_gt                13391
_reflns_threshold_expression     I>2sigma(I)

_computing_data_collection       'Nonius COLLECT'
_computing_cell_refinement       'Nonius DENZO'
_computing_data_reduction        'Nonius DENZO'
_computing_structure_solution    'SHELXS-97 (Sheldrick, 1990)'
_computing_structure_refinement  'SHELXL-97 (Sheldrick, 1997)'
_computing_molecular_graphics    'Bruker SHELXTL'
_computing_publication_material  'Bruker SHELXTL'

_refine_special_details          
;
Refinement of F^2^ against ALL reflections. The weighted R-factor wR and
goodness of fit S are based on F^2^, conventional R-factors R are based
on F, with F set to zero for negative F^2^. The threshold expression of
F^2^ > 2sigma(F^2^) is used only for calculating R-factors(gt) etc. and is
not relevant to the choice of reflections for refinement. R-factors based
on F^2^ are statistically about twice as large as those based on F, and R-
factors based on ALL data will be even larger.
;

_refine_ls_structure_factor_coef Fsqd
_refine_ls_matrix_type           full
_refine_ls_weighting_scheme      calc
_refine_ls_weighting_details     
'calc w=1/[\s^2^(Fo^2^)+(0.1014P)^2^+0.0000P] where P=(Fo^2^+2Fc^2^)/3'
_atom_sites_solution_primary     direct
_atom_sites_solution_secondary   difmap
_atom_sites_solution_hydrogens   geom
_refine_ls_hydrogen_treatment    constr
_refine_ls_extinction_method     SHELXL
_refine_ls_extinction_coef       0.00134(9)
_refine_ls_extinction_expression Fc^*^=kFc[1+0.001xFc^2^\l^3^/sin(2\q)]^-1/4^
_refine_ls_abs_structure_details 'Flack H D (1983), Acta Cryst. A39, 876-881'
_refine_ls_abs_structure_Flack   0.00(2)
_refine_ls_number_reflns         26544
_refine_ls_number_parameters     1847
_refine_ls_number_restraints     85
_refine_ls_R_factor_all          0.1696
_refine_ls_R_factor_gt           0.0636
_refine_ls_wR_factor_ref         0.1858
_refine_ls_wR_factor_gt          0.1469
_refine_ls_goodness_of_fit_ref   0.950
_refine_ls_restrained_S_all      0.953
_refine_ls_shift/su_max          0.008
_refine_ls_shift/su_mean         0.000

loop_
_atom_site_label
_atom_site_type_symbol
_atom_site_fract_x
_atom_site_fract_y
_atom_site_fract_z
_atom_site_U_iso_or_equiv
_atom_site_adp_type
_atom_site_occupancy
_atom_site_symmetry_multiplicity
_atom_site_calc_flag
_atom_site_refinement_flags
_atom_site_disorder_assembly
_atom_site_disorder_group
Ag1 Ag 0.20300(3) 1.36828(3) -0.53096(3) 0.0611(2) Uani 1 1 d . . .
Ag2 Ag 0.12509(3) 1.06919(3) -0.26157(3) 0.0584(2) Uani 1 1 d . . .
Ag3 Ag -0.11339(4) 1.37046(4) 0.12864(3) 0.0666(3) Uani 1 1 d . . .
Ag4 Ag 0.17045(4) 1.18992(4) -0.54173(3) 0.0715(3) Uani 1 1 d . . .
O150 O 0.0601(3) 1.2098(4) -0.4549(3) 0.083(2) Uani 1 1 d . . .
O151 O 0.0238(3) 1.2305(3) -0.3794(3) 0.065(2) Uani 1 1 d . . .
C150 C 0.0235(5) 1.2246(4) -0.4264(5) 0.067(3) Uani 1 1 d . . .
C151 C -0.0341(6) 1.2404(5) -0.4497(4) 0.084(4) Uani 1 1 d D . .
F101 F -0.0471(4) 1.2949(3) -0.4413(3) 0.125(3) Uani 1 1 d D . .
F102 F -0.0774(3) 1.2101(4) -0.4316(3) 0.112(3) Uani 1 1 d D . .
F103 F -0.0362(3) 1.2348(3) -0.4994(3) 0.096(2) Uani 1 1 d D . .
O250 O -0.2790(4) 1.2816(4) -0.0652(4) 0.112(3) Uani 1 1 d . . .
O251 O -0.2325(4) 1.3627(3) -0.0691(3) 0.081(2) Uani 1 1 d . . .
C250 C -0.2677(6) 1.3334(6) -0.0551(5) 0.073(3) Uani 1 1 d . . .
C251 C -0.3138(6) 1.3606(6) -0.0196(5) 0.099(5) Uani 1 1 d D . .
F201 F -0.3520(3) 1.3246(4) -0.0009(3) 0.118(3) Uani 1 1 d D . .
F202 F -0.2874(4) 1.3810(4) 0.0207(4) 0.157(4) Uani 1 1 d D . .
F203 F -0.3419(4) 1.4000(4) -0.0421(4) 0.169(5) Uani 1 1 d D . .
O350 O -0.1546(4) 1.4539(4) 0.1560(3) 0.106(3) Uani 1 1 d . . .
O351 O -0.2315(4) 1.4065(4) 0.1318(4) 0.109(3) Uani 1 1 d . . .
C350 C -0.2062(7) 1.4484(6) 0.1492(5) 0.087(4) Uani 1 1 d . A .
C351 C -0.2464(6) 1.4944(6) 0.1572(5) 0.107(5) Uani 1 1 d D . .
F301 F -0.2189(7) 1.5354(6) 0.1884(6) 0.123(5) Uiso 0.55 1 d PD A 1
F302 F -0.2517(9) 1.5264(8) 0.1169(6) 0.154(7) Uiso 0.55 1 d PD A 1
F303 F -0.2985(6) 1.4894(5) 0.1747(6) 0.088(4) Uiso 0.55 1 d PD A 1
F311 F -0.2796(6) 1.4878(6) 0.1967(5) 0.067(4) Uiso 0.45 1 d PD A 2
F312 F -0.2305(7) 1.5461(6) 0.1542(7) 0.093(5) Uiso 0.45 1 d PD A 2
F313 F -0.2881(9) 1.4913(9) 0.1191(7) 0.141(7) Uiso 0.45 1 d PD A 2
O450 O 0.1645(5) 1.2835(4) -0.5844(4) 0.111(3) Uani 1 1 d . . .
O451 O 0.1150(5) 1.3577(5) -0.5887(4) 0.135(4) Uani 1 1 d . . .
C450 C 0.1280(6) 1.3118(5) -0.6018(5) 0.077(3) Uani 1 1 d . . .
C451 C 0.0947(6) 1.2865(5) -0.6443(5) 0.093(4) Uani 1 1 d D . .
F401 F 0.0935(5) 1.3192(4) -0.6837(4) 0.154(4) Uani 1 1 d D . .
F402 F 0.0396(4) 1.2759(5) -0.6342(4) 0.160(4) Uani 1 1 d D . .
F403 F 0.1146(5) 1.2389(3) -0.6618(3) 0.146(4) Uani 1 1 d D . .
N101 N 0.2537(4) 1.3884(3) -0.5960(3) 0.055(2) Uani 1 1 d . . .
C101 C 0.2345(4) 1.4271(5) -0.6295(4) 0.059(3) Uani 1 1 d . . .
H10A H 0.1998 1.4464 -0.6236 0.071 Uiso 1 1 calc R . .
C102 C 0.2667(4) 1.4383(4) -0.6732(4) 0.050(3) Uani 1 1 d . . .
H10B H 0.2533 1.4654 -0.6962 0.060 Uiso 1 1 calc R . .
C103 C 0.3166(4) 1.4106(4) -0.6826(3) 0.043(2) Uani 1 1 d . . .
C104 C 0.3348(4) 1.3713(4) -0.6476(3) 0.044(2) Uani 1 1 d . . .
H10C H 0.3688 1.3507 -0.6532 0.053 Uiso 1 1 calc R . .
C105 C 0.3036(5) 1.3623(4) -0.6049(3) 0.058(3) Uani 1 1 d . . .
H10D H 0.3178 1.3366 -0.5808 0.070 Uiso 1 1 calc R . .
C106 C 0.3484(4) 1.4249(4) -0.7300(3) 0.045(2) Uani 1 1 d . . .
O101 O 0.3349(3) 1.4657(3) -0.7552(2) 0.0497(16) Uani 1 1 d . . .
N102 N 0.3920(3) 1.3896(3) -0.7410(3) 0.0429(18) Uani 1 1 d . . .
H10E H 0.3989 1.3613 -0.7209 0.051 Uiso 1 1 calc R . .
C107 C 0.4272(4) 1.3966(4) -0.7842(3) 0.037(2) Uani 1 1 d . . .
C108 C 0.4259(4) 1.3538(4) -0.8196(3) 0.047(2) Uani 1 1 d . . .
H10F H 0.4013 1.3225 -0.8152 0.057 Uiso 1 1 calc R . .
C109 C 0.4600(4) 1.3573(4) -0.8604(3) 0.040(2) Uani 1 1 d . . .
H10H H 0.4603 1.3274 -0.8838 0.048 Uiso 1 1 calc R . .
C110 C 0.4943(4) 1.4041(4) -0.8683(3) 0.042(2) Uani 1 1 d . . .
C111 C 0.5273(4) 1.4099(4) -0.9113(3) 0.047(2) Uani 1 1 d . . .
H11A H 0.5257 1.3811 -0.9357 0.057 Uiso 1 1 calc R . .
C112 C 0.5607(4) 1.4540(5) -0.9195(4) 0.056(3) Uani 1 1 d . . .
H11B H 0.5837 1.4554 -0.9485 0.067 Uiso 1 1 calc R . .
C113 C 0.5622(4) 1.4999(4) -0.8841(4) 0.058(3) Uani 1 1 d . . .
H11C H 0.5849 1.5322 -0.8902 0.070 Uiso 1 1 calc R . .
C114 C 0.5304(4) 1.4960(4) -0.8418(3) 0.048(2) Uani 1 1 d . . .
H11D H 0.5314 1.5258 -0.8184 0.058 Uiso 1 1 calc R . .
C115 C 0.4957(4) 1.4481(4) -0.8319(3) 0.038(2) Uani 1 1 d . . .
C116 C 0.4608(4) 1.4430(4) -0.7880(3) 0.041(2) Uani 1 1 d . . .
C117 C 0.4640(4) 1.4867(3) -0.7478(3) 0.037(2) Uani 1 1 d . . .
C118 C 0.4897(4) 1.4731(4) -0.7006(3) 0.040(2) Uani 1 1 d . . .
C119 C 0.5116(4) 1.4187(4) -0.6894(3) 0.047(2) Uani 1 1 d . . .
H11E H 0.5104 1.3902 -0.7142 0.056 Uiso 1 1 calc R . .
C120 C 0.5343(4) 1.4067(4) -0.6440(4) 0.054(3) Uani 1 1 d . . .
H12A H 0.5481 1.3701 -0.6372 0.065 Uiso 1 1 calc R . .
C121 C 0.5371(4) 1.4489(5) -0.6069(4) 0.056(3) Uani 1 1 d . . .
H12B H 0.5528 1.4407 -0.5752 0.067 Uiso 1 1 calc R . .
C122 C 0.5181(4) 1.4991(4) -0.6166(3) 0.046(2) Uani 1 1 d . . .
H12C H 0.5215 1.5269 -0.5915 0.056 Uiso 1 1 calc R . .
C123 C 0.4924(4) 1.5147(4) -0.6628(3) 0.040(2) Uani 1 1 d . . .
C124 C 0.4721(4) 1.5688(4) -0.6731(3) 0.044(2) Uani 1 1 d . . .
H12D H 0.4760 1.5976 -0.6489 0.053 Uiso 1 1 calc R . .
C125 C 0.4472(4) 1.5801(4) -0.7169(3) 0.046(2) Uani 1 1 d . . .
H12E H 0.4324 1.6165 -0.7229 0.055 Uiso 1 1 calc R . .
C126 C 0.4429(4) 1.5392(3) -0.7536(3) 0.038(2) Uani 1 1 d . . .
N103 N 0.4134(3) 1.5536(3) -0.7977(3) 0.0434(19) Uani 1 1 d . . .
H10I H 0.3852 1.5321 -0.8078 0.052 Uiso 1 1 calc R . .
C127 C 0.4274(4) 1.5997(4) -0.8249(4) 0.050(3) Uani 1 1 d . . .
O102 O 0.4699(3) 1.6287(3) -0.8153(2) 0.0596(18) Uani 1 1 d . . .
C128 C 0.3916(4) 1.6125(3) -0.8691(3) 0.043(2) Uani 1 1 d . . .
C129 C 0.4175(4) 1.6422(4) -0.9091(4) 0.051(3) Uani 1 1 d . . .
H12F H 0.4558 1.6548 -0.9073 0.062 Uiso 1 1 calc R . .
C130 C 0.3844(5) 1.6520(4) -0.9506(4) 0.056(3) Uani 1 1 d . . .
H13A H 0.4014 1.6720 -0.9773 0.067 Uiso 1 1 calc R . .
C131 C 0.3065(4) 1.6105(4) -0.9174(4) 0.049(2) Uani 1 1 d . . .
H13B H 0.2674 1.6008 -0.9197 0.059 Uiso 1 1 calc R . .
C132 C 0.3359(4) 1.5976(4) -0.8731(4) 0.049(2) Uani 1 1 d . . .
H13C H 0.3171 1.5788 -0.8466 0.059 Uiso 1 1 calc R . .
N104 N 0.3308(3) 1.6358(3) -0.9563(3) 0.0468(18) Uani 1 1 d . . .
N201 N 0.1139(4) 1.1389(3) -0.2102(3) 0.0471(19) Uani 1 1 d . . .
C201 C 0.0761(4) 1.1803(4) -0.2154(4) 0.052(3) Uani 1 1 d . . .
H20A H 0.0550 1.1821 -0.2454 0.062 Uiso 1 1 calc R . .
C202 C 0.0659(4) 1.2206(4) -0.1795(3) 0.041(2) Uani 1 1 d . . .
H20B H 0.0376 1.2485 -0.1846 0.049 Uiso 1 1 calc R . .
C203 C 0.0974(4) 1.2199(4) -0.1360(3) 0.041(2) Uani 1 1 d . . .
C204 C 0.1371(4) 1.1768(4) -0.1306(3) 0.054(3) Uani 1 1 d . . .
H20C H 0.1587 1.1750 -0.1008 0.065 Uiso 1 1 calc R . .
C205 C 0.1464(4) 1.1358(4) -0.1673(4) 0.056(3) Uani 1 1 d . . .
H20D H 0.1740 1.1071 -0.1629 0.068 Uiso 1 1 calc R . .
C206 C 0.0904(5) 1.2623(4) -0.0952(3) 0.043(2) Uani 1 1 d . . .
O201 O 0.1310(3) 1.2742(2) -0.0686(2) 0.0511(16) Uani 1 1 d . . .
N202 N 0.0383(3) 1.2830(3) -0.0904(2) 0.0390(18) Uani 1 1 d . . .
H20E H 0.0119 1.2691 -0.1100 0.047 Uiso 1 1 calc R . .
C207 C 0.0214(4) 1.3252(3) -0.0569(3) 0.034(2) Uani 1 1 d . . .
C208 C 0.0585(4) 1.3715(4) -0.0461(3) 0.043(2) Uani 1 1 d . . .
H20F H 0.0963 1.3722 -0.0587 0.051 Uiso 1 1 calc R . .
C209 C 0.0383(5) 1.4150(4) -0.0173(3) 0.048(3) Uani 1 1 d . . .
H20G H 0.0631 1.4453 -0.0099 0.057 Uiso 1 1 calc R . .
C210 C -0.0169(4) 1.4162(4) 0.0012(3) 0.043(2) Uani 1 1 d . . .
C211 C -0.0379(5) 1.4622(4) 0.0282(3) 0.050(3) Uani 1 1 d . . .
H21A H -0.0132 1.4929 0.0352 0.060 Uiso 1 1 calc R . .
C212 C -0.0905(5) 1.4639(4) 0.0439(4) 0.055(3) Uani 1 1 d . . .
H21B H -0.1035 1.4962 0.0613 0.066 Uiso 1 1 calc R . .
C213 C -0.1285(4) 1.4191(4) 0.0357(3) 0.053(3) Uani 1 1 d . . .
H21C H -0.1665 1.4213 0.0476 0.064 Uiso 1 1 calc R . .
C214 C -0.1102(4) 1.3718(4) 0.0102(3) 0.044(2) Uani 1 1 d . . .
H21D H -0.1354 1.3412 0.0049 0.053 Uiso 1 1 calc R . .
C215 C -0.0538(4) 1.3695(3) -0.0077(3) 0.036(2) Uani 1 1 d . . .
C216 C -0.0325(4) 1.3222(3) -0.0356(3) 0.034(2) Uani 1 1 d . . .
C217 C -0.0675(4) 1.2702(3) -0.0402(3) 0.036(2) Uani 1 1 d . . .
C218 C -0.0506(4) 1.2225(3) -0.0106(3) 0.039(2) Uani 1 1 d . . .
C219 C -0.0008(4) 1.2199(4) 0.0178(3) 0.040(2) Uani 1 1 d . . .
H21E H 0.0237 1.2516 0.0186 0.048 Uiso 1 1 calc R . .
C220 C 0.0135(4) 1.1732(4) 0.0441(3) 0.051(3) Uani 1 1 d . . .
H22A H 0.0487 1.1721 0.0615 0.061 Uiso 1 1 calc R . .
C221 C -0.0231(5) 1.1270(4) 0.0459(3) 0.054(3) Uani 1 1 d . . .
H22B H -0.0134 1.0950 0.0651 0.065 Uiso 1 1 calc R . .
C222 C -0.0733(5) 1.1282(4) 0.0194(3) 0.050(3) Uani 1 1 d . . .
H22C H -0.0983 1.0969 0.0204 0.060 Uiso 1 1 calc R . .
C223 C -0.0874(4) 1.1754(3) -0.0088(3) 0.040(2) Uani 1 1 d . . .
C224 C -0.1398(4) 1.1767(4) -0.0353(3) 0.045(2) Uani 1 1 d . . .
H22D H -0.1653 1.1459 -0.0324 0.054 Uiso 1 1 calc R . .
C225 C -0.1542(4) 1.2207(4) -0.0644(3) 0.046(2) Uani 1 1 d . . .
H22E H -0.1885 1.2207 -0.0830 0.055 Uiso 1 1 calc R . .
C226 C -0.1157(4) 1.2672(3) -0.0661(3) 0.036(2) Uani 1 1 d . . .
N203 N -0.1315(3) 1.3138(3) -0.0980(3) 0.0397(17) Uani 1 1 d . . .
H20H H -0.1625 1.3332 -0.0912 0.048 Uiso 1 1 calc R . .
C227 C -0.0997(4) 1.3282(4) -0.1381(3) 0.043(2) Uani 1 1 d . . .
O202 O -0.0576(3) 1.3019(2) -0.1524(2) 0.0432(15) Uani 1 1 d . . .
C228 C -0.1171(4) 1.3805(3) -0.1632(3) 0.038(2) Uani 1 1 d . . .
C229 C -0.1421(4) 1.4259(4) -0.1381(4) 0.050(2) Uani 1 1 d . . .
H22F H -0.1538 1.4221 -0.1045 0.060 Uiso 1 1 calc R . .
C230 C -0.1493(4) 1.4753(4) -0.1624(3) 0.046(2) Uani 1 1 d . . .
H23A H -0.1658 1.5058 -0.1448 0.055 Uiso 1 1 calc R . .
C231 C -0.1116(4) 1.4397(4) -0.2342(4) 0.051(2) Uani 1 1 d . . .
H23B H -0.1018 1.4444 -0.2682 0.062 Uiso 1 1 calc R . .
C232 C -0.1018(4) 1.3895(4) -0.2132(3) 0.048(3) Uani 1 1 d . . .
H23C H -0.0847 1.3603 -0.2319 0.057 Uiso 1 1 calc R . .
N204 N -0.1342(3) 1.4832(3) -0.2105(3) 0.049(2) Uani 1 1 d . . .
N301 N -0.0169(3) 1.3771(3) 0.1336(3) 0.057(2) Uani 1 1 d . . .
C301 C 0.0055(4) 1.4189(4) 0.1609(4) 0.053(3) Uani 1 1 d . . .
H30A H -0.0193 1.4411 0.1807 0.063 Uiso 1 1 calc R . .
C302 C 0.0629(5) 1.4308(4) 0.1613(4) 0.060(3) Uani 1 1 d . . .
H30B H 0.0776 1.4592 0.1826 0.072 Uiso 1 1 calc R . .
C303 C 0.0987(4) 1.4008(4) 0.1303(3) 0.044(2) Uani 1 1 d . . .
C304 C 0.0756(4) 1.3572(4) 0.1020(3) 0.051(3) Uani 1 1 d . . .
H30C H 0.0991 1.3352 0.0808 0.061 Uiso 1 1 calc R . .
C305 C 0.0184(4) 1.3468(4) 0.1056(3) 0.046(2) Uani 1 1 d . . .
H30D H 0.0030 1.3163 0.0871 0.056 Uiso 1 1 calc R . .
C306 C 0.1605(4) 1.4188(4) 0.1305(4) 0.046(2) Uani 1 1 d . . .
O301 O 0.1789(3) 1.4463(3) 0.1645(3) 0.064(2) Uani 1 1 d . . .
N302 N 0.1889(3) 1.4068(3) 0.0892(3) 0.0424(19) Uani 1 1 d . . .
H30E H 0.1728 1.3850 0.0669 0.051 Uiso 1 1 calc R . .
C307 C 0.2453(4) 1.4282(3) 0.0798(3) 0.039(2) Uani 1 1 d . . .
C308 C 0.2871(4) 1.4256(4) 0.1184(3) 0.047(2) Uani 1 1 d . . .
H30F H 0.2782 1.4090 0.1495 0.056 Uiso 1 1 calc R . .
C309 C 0.3392(4) 1.4471(4) 0.1097(4) 0.047(2) Uani 1 1 d . . .
H30G H 0.3669 1.4447 0.1353 0.056 Uiso 1 1 calc R . .
C310 C 0.3547(4) 1.4730(4) 0.0645(3) 0.040(2) Uani 1 1 d . . .
C311 C 0.4082(4) 1.4950(4) 0.0544(4) 0.047(2) Uani 1 1 d . . .
H31A H 0.4365 1.4928 0.0795 0.056 Uiso 1 1 calc R . .
C312 C 0.4222(4) 1.5198(4) 0.0097(4) 0.052(3) Uani 1 1 d . . .
H31B H 0.4590 1.5353 0.0048 0.062 Uiso 1 1 calc R . .
C313 C 0.3813(4) 1.5221(3) -0.0288(3) 0.044(2) Uani 1 1 d . . .
H31C H 0.3907 1.5388 -0.0599 0.052 Uiso 1 1 calc R . .
C314 C 0.3287(4) 1.5005(3) -0.0212(3) 0.043(2) Uani 1 1 d . . .
H31D H 0.3018 1.5023 -0.0475 0.051 Uiso 1 1 calc R . .
C315 C 0.3122(4) 1.4753(3) 0.0240(3) 0.041(2) Uani 1 1 d . . .
C316 C 0.2567(4) 1.4536(3) 0.0356(3) 0.040(2) Uani 1 1 d . . .
C317 C 0.211