####################################################################### 
# 
# This file contains crystal structure data downloaded from the 
# Cambridge Structural Database (CSD) hosted by the Cambridge 
# Crystallographic Data Centre (CCDC).
# 
# Full information about CCDC data access policies and citation 
# guidelines are available at http://www.ccdc.cam.ac.uk/access/V1 
# 
# Audit and citation data items may have been added by the CCDC. 
# Please retain this information to preserve the provenance of 
# this file and to allow appropriate attribution of the data. 
# 
#######################################################################

data_cage
_audit_block_doi                 10.5517/ccngrwq
_database_code_depnum_ccdc_archive 'CCDC 610014'
loop_
_citation_id
_citation_doi
_citation_year
1 10.1021/ic060157d 2006
_audit_update_record             
;
2006-06-06 deposited with the CCDC.	2024-07-14 downloaded from the CCDC.
;

_audit_creation_method           SHELXL-97
_chemical_name_systematic        
;
[Cd12(L)18][BF4]24.6(Et2O).4.5(MeCN).4(H2O)
;
_chemical_name_common            ?
_chemical_melting_point          ?
_chemical_formula_moiety         
'2(C504 H396 Cd12 N108), 24(B F4), 6(C4 H10 O), 4.5(C2 H3 N), 4(H2 O)'
_chemical_formula_sum            'C537 H477.50 B24 Cd12 F96 N112.50 O10'
_chemical_formula_weight         12099.06

loop_
_atom_type_symbol
_atom_type_description
_atom_type_scat_dispersion_real
_atom_type_scat_dispersion_imag
_atom_type_scat_source
C C 0.0181 0.0091 'International Tables Vol C Tables 4.2.6.8 and 6.1.1.4'
H H 0.0000 0.0000 'International Tables Vol C Tables 4.2.6.8 and 6.1.1.4'
N N 0.0311 0.0180 'International Tables Vol C Tables 4.2.6.8 and 6.1.1.4'
F F 0.0727 0.0534 'International Tables Vol C Tables 4.2.6.8 and 6.1.1.4'
B B 0.0090 0.0039 'International Tables Vol C Tables 4.2.6.8 and 6.1.1.4'
Cd Cd 0.1185 4.6533 'International Tables Vol C Tables 4.2.6.8 and 6.1.1.4'
O O 0.0492 0.0322 'International Tables Vol C Tables 4.2.6.8 and 6.1.1.4'

_symmetry_cell_setting           hexagonal
_symmetry_space_group_name_H-M   P6(3)

loop_
_symmetry_equiv_pos_as_xyz
'x, y, z'
'-y, x-y, z'
'-x+y, -x, z'
'-x, -y, z+1/2'
'y, -x+y, z+1/2'
'x-y, x, z+1/2'

_cell_length_a                   29.3977(7)
_cell_length_b                   29.3977(7)
_cell_length_c                   92.802(4)
_cell_angle_alpha                90.00
_cell_angle_beta                 90.00
_cell_angle_gamma                120.00
_cell_volume                     69457(4)
_cell_formula_units_Z            4
_cell_measurement_temperature    100(2)
_cell_measurement_reflns_used    6830
_cell_measurement_theta_min      4.761
_cell_measurement_theta_max      57.478

_exptl_crystal_description       plate
_exptl_crystal_colour            colourless
_exptl_crystal_size_max          0.35
_exptl_crystal_size_mid          0.3
_exptl_crystal_size_min          0.1
_exptl_crystal_density_meas      ?
_exptl_crystal_density_diffrn    1.157
_exptl_crystal_density_method    'not measured'
_exptl_crystal_F_000             24508
_exptl_absorpt_coefficient_mu    3.558
_exptl_absorpt_correction_type   multi-scan
_exptl_absorpt_correction_T_min  0.240207
_exptl_absorpt_correction_T_max  1.000000
_exptl_absorpt_process_details   'SADABS (Sheldrick, 2001)'

_exptl_special_details           
;
The sheer size and complexity of the structure/no. of independent atoms in the
asymmetric unit (ca. 500) placed a heavy burden on the refinement process and,
with the exception of the CdII centres, all atoms were refined with isotropic
thermal parameters in attempt to minimise the number of parameters in the
array. The data was generally of sufficient quality to refine most fragments
of the complex cation without the use of geometric restraints and, thus, only
three pyridyl residues required the use of similarity restraints (SAME) to
converge with a satisfactory geometry. Of the expected sixteen BF4-
counterions (per asymmetric unit), a total of 21 were located in the Fourier
difference map, seven of which straddled crystallographic three-fold axes and
three of which were refined with 0.5 site-occupancy; giving a total of 14.8
(largely disordered) anions per asymmetric unit. An additional five
acetonitrile and six diethyl ether molecules were also located, of which
four (in each case) were refined with 0.5 site-occupancies; to give a total of
three MeCN and four Et2O molecules per asymmetric unit. Seven remaining
peaks in the electron density map were refined as water molecules (two of
which were refined with 0.5 site-occupancy and five of which were located on
three-fold axes); totalling 2.6 water molecules per asymmetric unit. As a
consequence of widespread disorder in the regions occupied by solvent/anion
species, geometric and librational restraints/constraints were applied to many
of both. Thus, nine tetrafluoroborate anions and eight solvent (MeCN/Et2O)
species were modelled with similarity restraints (SAME) and the thermal
parameters of 22 atoms (whose isotropic displacement parameters exceeded
0.2 A2) were also restrained to values of 0.2 A2.
;

_diffrn_ambient_temperature      100(2)
_diffrn_radiation_wavelength     1.54178
_diffrn_radiation_type           CuK\a
_diffrn_radiation_source         '4.8 kW rotating anode'
_diffrn_radiation_monochromator  'Osmic ConFocal MaxFlux mirror optics'
_diffrn_measurement_device_type  'CCD area detector'
_diffrn_measurement_method       'Frames, each covering 0.3 \% in \w'
_diffrn_detector_area_resol_mean 5.6
_diffrn_standards_number         ?
_diffrn_standards_interval_count ?
_diffrn_standards_interval_time  ?
_diffrn_standards_decay_%        ?
_diffrn_reflns_number            332207
_diffrn_reflns_av_R_equivalents  0.0941
_diffrn_reflns_av_sigmaI/netI    0.0896
_diffrn_reflns_limit_h_min       -34
_diffrn_reflns_limit_h_max       22
_diffrn_reflns_limit_k_min       -35
_diffrn_reflns_limit_k_max       35
_diffrn_reflns_limit_l_min       -96
_diffrn_reflns_limit_l_max       112
_diffrn_reflns_theta_min         1.80
_diffrn_reflns_theta_max         70.10
_reflns_number_total             78362
_reflns_number_gt                53390
_reflns_threshold_expression     >2sigma(I)

_computing_data_collection       'SMART (Bruker, 2001)'
_computing_cell_refinement       'SAINT (Bruker, 2001)'
_computing_data_reduction        'SHELXTL (Bruker, 2001)'
_computing_structure_solution    'SHELXTL (Bruker, 2001)'
_computing_structure_refinement  'SHELXTL (Bruker, 2001)'
_computing_molecular_graphics    'SHELXTL (Bruker, 2001)'
_computing_publication_material  'SHELXTL (Bruker, 2001)'

_refine_special_details          
;
Refinement of F^2^ against ALL reflections. The weighted R-factor wR and
goodness of fit S are based on F^2^, conventional R-factors R are based
on F, with F set to zero for negative F^2^. The threshold expression of
F^2^ > 2sigma(F^2^) is used only for calculating R-factors(gt) etc. and is
not relevant to the choice of reflections for refinement. R-factors based
on F^2^ are statistically about twice as large as those based on F, and R-
factors based on ALL data will be even larger.
;

_refine_ls_structure_factor_coef Fsqd
_refine_ls_matrix_type           full
_refine_ls_weighting_scheme      calc
_refine_ls_weighting_details     
'calc w=1/[\s^2^(Fo^2^)+(0.2000P)^2^+0.0000P] where P=(Fo^2^+2Fc^2^)/3'
_atom_sites_solution_primary     direct
_atom_sites_solution_secondary   difmap
_atom_sites_solution_hydrogens   geom
_refine_ls_hydrogen_treatment    mixed
_refine_ls_extinction_method     none
_refine_ls_extinction_coef       ?
_refine_ls_abs_structure_details 'Flack H D (1983), Acta Cryst. A39, 876-881'
_refine_ls_abs_structure_Flack   0.075(6)
_refine_ls_number_reflns         78362
_refine_ls_number_parameters     2241
_refine_ls_number_restraints     378
_refine_ls_R_factor_all          0.1479
_refine_ls_R_factor_gt           0.1124
_refine_ls_wR_factor_ref         0.3335
_refine_ls_wR_factor_gt          0.3019
_refine_ls_goodness_of_fit_ref   1.164
_refine_ls_restrained_S_all      1.168
_refine_ls_shift/su_max          1.074
_refine_ls_shift/su_mean         0.008

loop_
_atom_site_label
_atom_site_type_symbol
_atom_site_fract_x
_atom_site_fract_y
_atom_site_fract_z
_atom_site_U_iso_or_equiv
_atom_site_adp_type
_atom_site_occupancy
_atom_site_symmetry_multiplicity
_atom_site_calc_flag
_atom_site_refinement_flags
_atom_site_disorder_assembly
_atom_site_disorder_group
Cd1 Cd 0.75515(4) 0.90592(4) 0.801843(11) 0.0721(2) Uani 1 1 d . . .
Cd2 Cd 0.63531(4) 0.97616(4) 0.886600(13) 0.0755(3) Uani 1 1 d . . .
Cd3 Cd 0.65332(3) 0.66599(3) 0.880104(10) 0.05918(19) Uani 1 1 d . . .
Cd4 Cd 0.54411(3) 0.75782(4) 0.722059(10) 0.0623(2) Uani 1 1 d . . .
N11A N 0.8403(5) 0.9518(5) 0.79106(13) 0.079(3) Uiso 1 1 d D . .
C12A C 0.8782(6) 0.9679(6) 0.80039(18) 0.091(4) Uiso 1 1 d D . .
C13A C 0.9295(7) 1.0087(7) 0.7980(2) 0.106(6) Uiso 1 1 d D . .
H13A H 0.9564 1.0169 0.8045 0.128 Uiso 1 1 calc R . .
C14A C 0.9382(9) 1.0369(10) 0.7848(3) 0.144(9) Uiso 1 1 d D . .
H14A H 0.9702 1.0674 0.7832 0.172 Uiso 1 1 calc R . .
C15A C 0.8992(7) 1.0191(8) 0.7744(2) 0.113(6) Uiso 1 1 d D . .
H15A H 0.9056 1.0340 0.7653 0.135 Uiso 1 1 calc R . .
C16A C 0.8487(7) 0.9769(7) 0.77832(18) 0.100(5) Uiso 1 1 d D . .
H16A H 0.8209 0.9663 0.7719 0.120 Uiso 1 1 calc R . .
N21A N 0.8155(4) 0.8965(4) 0.81567(13) 0.069(3) Uiso 1 1 d . . .
C22A C 0.8662(7) 0.9346(7) 0.8140(2) 0.091(5) Uiso 1 1 d . . .
C23A C 0.8952(8) 0.9360(7) 0.8256(2) 0.095(5) Uiso 1 1 d . . .
H23A H 0.9306 0.9601 0.8271 0.114 Uiso 1 1 calc R . .
C24A C 0.8644(7) 0.8970(7) 0.8343(2) 0.090(4) Uiso 1 1 d . . .
H24A H 0.8738 0.8871 0.8428 0.109 Uiso 1 1 calc R . .
N25A N 0.8159(5) 0.8745(5) 0.82812(14) 0.074(3) Uiso 1 1 d . . .
C26A C 0.7697(6) 0.8253(6) 0.83209(19) 0.081(4) Uiso 1 1 d . . .
H26A H 0.7388 0.8281 0.8301 0.098 Uiso 1 1 calc R . .
H26B H 0.7708 0.8204 0.8424 0.098 Uiso 1 1 calc R . .
C31A C 0.7637(6) 0.7782(6) 0.82474(18) 0.077(4) Uiso 1 1 d . . .
C32A C 0.8068(7) 0.7859(7) 0.81603(19) 0.084(4) Uiso 1 1 d . . .
H32A H 0.8376 0.8182 0.8160 0.101 Uiso 1 1 calc R . .
C33A C 0.8030(9) 0.7461(9) 0.8078(3) 0.114(6) Uiso 1 1 d . . .
H33A H 0.8300 0.7543 0.8012 0.137 Uiso 1 1 calc R . .
C34A C 0.7622(7) 0.6940(7) 0.8081(2) 0.088(4) Uiso 1 1 d . . .
H34A H 0.7630 0.6666 0.8034 0.106 Uiso 1 1 calc R . .
C35A C 0.7194(6) 0.6877(6) 0.81671(19) 0.081(4) Uiso 1 1 d . . .
C36A C 0.6761(7) 0.6344(7) 0.8162(2) 0.096(5) Uiso 1 1 d . . .
H36A H 0.6782 0.6090 0.8107 0.115 Uiso 1 1 calc R . .
C37A C 0.6307(7) 0.6216(7) 0.8243(2) 0.089(4) Uiso 1 1 d . . .
H37A H 0.6015 0.5881 0.8235 0.106 Uiso 1 1 calc R . .
C38A C 0.6287(7) 0.6586(6) 0.83331(19) 0.083(4) Uiso 1 1 d . . .
H38A H 0.5989 0.6492 0.8388 0.099 Uiso 1 1 calc R . .
C39A C 0.6717(5) 0.7101(5) 0.83412(17) 0.071(3) Uiso 1 1 d . . .
C40A C 0.7180(6) 0.7254(6) 0.82578(18) 0.077(4) Uiso 1 1 d . . .
N41A N 0.6158(4) 0.7056(4) 0.86642(11) 0.058(2) Uiso 1 1 d . . .
C42A C 0.5663(5) 0.6898(5) 0.87117(15) 0.065(3) Uiso 1 1 d . . .
C43A C 0.5377(5) 0.6992(4) 0.86006(13) 0.055(3) Uiso 1 1 d . . .
H43A H 0.5034 0.6929 0.8606 0.066 Uiso 1 1 calc R . .
C44A C 0.5708(5) 0.7191(5) 0.84881(15) 0.061(3) Uiso 1 1 d . . .
H44A H 0.5630 0.7279 0.8399 0.074 Uiso 1 1 calc R . .
N45A N 0.6183(4) 0.7242(4) 0.85289(12) 0.064(2) Uiso 1 1 d . . .
C46A C 0.6690(4) 0.7488(4) 0.84470(14) 0.056(3) Uiso 1 1 d . . .
H46A H 0.6980 0.7611 0.8515 0.067 Uiso 1 1 calc R . .
H46B H 0.6728 0.7789 0.8394 0.067 Uiso 1 1 calc R . .
N51A N 0.5806(4) 0.6535(4) 0.89233(12) 0.061(2) Uiso 1 1 d . . .
C52A C 0.5495(5) 0.6698(5) 0.88556(14) 0.059(3) Uiso 1 1 d . . .
C53A C 0.5099(6) 0.6710(6) 0.89235(17) 0.075(4) Uiso 1 1 d . . .
H53A H 0.4893 0.6816 0.8874 0.090 Uiso 1 1 calc R . .
C54A C 0.4991(6) 0.6560(6) 0.90721(18) 0.076(4) Uiso 1 1 d . . .
H54A H 0.4724 0.6574 0.9122 0.092 Uiso 1 1 calc R . .
C55A C 0.5296(6) 0.6397(6) 0.91348(18) 0.077(4) Uiso 1 1 d . . .
H55A H 0.5246 0.6303 0.9232 0.092 Uiso 1 1 calc R . .
C56A C 0.5688(6) 0.6367(6) 0.90571(17) 0.075(4) Uiso 1 1 d . . .
H56A H 0.5871 0.6224 0.9101 0.091 Uiso 1 1 calc R . .
N11B N 0.6955(4) 0.6375(4) 0.89593(13) 0.070(3) Uiso 1 1 d . . .
C12B C 0.7394(5) 0.6753(5) 0.90234(15) 0.064(3) Uiso 1 1 d . . .
C13B C 0.7737(6) 0.6645(6) 0.90963(17) 0.072(3) Uiso 1 1 d . . .
H13B H 0.8039 0.6917 0.9138 0.086 Uiso 1 1 calc R . .
C14B C 0.7637(6) 0.6135(6) 0.91084(19) 0.081(4) Uiso 1 1 d . . .
H14B H 0.7872 0.6062 0.9156 0.097 Uiso 1 1 calc R . .
C15B C 0.7170(6) 0.5726(7) 0.90477(19) 0.082(4) Uiso 1 1 d . . .
H15B H 0.7087 0.5378 0.9058 0.099 Uiso 1 1 calc R . .
C16B C 0.6828(6) 0.5846(6) 0.89708(17) 0.072(3) Uiso 1 1 d . . .
H16B H 0.6524 0.5580 0.8929 0.086 Uiso 1 1 calc R . .
N21B N 0.7074(4) 0.7333(4) 0.89622(11) 0.057(2) Uiso 1 1 d . . .
C22B C 0.7455(5) 0.7280(5) 0.90107(15) 0.064(3) Uiso 1 1 d . . .
C23B C 0.7884(6) 0.7759(6) 0.90539(18) 0.081(4) Uiso 1 1 d . . .
H23B H 0.8201 0.7819 0.9093 0.097 Uiso 1 1 calc R . .
C24B C 0.7725(6) 0.8127(6) 0.90239(17) 0.073(3) Uiso 1 1 d . . .
H24B H 0.7920 0.8488 0.9037 0.088 Uiso 1 1 calc R . .
N25B N 0.7232(4) 0.7848(4) 0.89712(13) 0.067(3) Uiso 1 1 d . . .
C26B C 0.6851(5) 0.8037(5) 0.89480(16) 0.068(3) Uiso 1 1 d . . .
H26C H 0.6638 0.7868 0.8864 0.082 Uiso 1 1 calc R . .
H26D H 0.7040 0.8413 0.8932 0.082 Uiso 1 1 calc R . .
C31B C 0.6505(5) 0.7906(5) 0.90800(16) 0.069(3) Uiso 1 1 d . . .
C32B C 0.6677(6) 0.7777(6) 0.92056(17) 0.075(3) Uiso 1 1 d . . .
H32B H 0.7002 0.7797 0.9208 0.090 Uiso 1 1 calc R . .
C33B C 0.6336(7) 0.7608(7) 0.9336(2) 0.094(5) Uiso 1 1 d . . .
H33B H 0.6429 0.7480 0.9415 0.112 Uiso 1 1 calc R . .
C34B C 0.5903(6) 0.7639(6) 0.93387(19) 0.080(4) Uiso 1 1 d . . .
H34B H 0.5714 0.7567 0.9424 0.096 Uiso 1 1 calc R . .
C35B C 0.5718(6) 0.7780(6) 0.92127(18) 0.077(4) Uiso 1 1 d . . .
C36B C 0.5229(6) 0.7763(6) 0.92200(17) 0.073(3) Uiso 1 1 d . . .
H36B H 0.5027 0.7648 0.9303 0.087 Uiso 1 1 calc R . .
C37B C 0.5058(6) 0.7915(6) 0.91055(18) 0.079(4) Uiso 1 1 d . . .
H37B H 0.4735 0.7900 0.9111 0.095 Uiso 1 1 calc R . .
C38B C 0.5354(5) 0.8096(5) 0.89780(17) 0.071(3) Uiso 1 1 d . . .
H38B H 0.5229 0.8212 0.8903 0.085 Uiso 1 1 calc R . .
C39B C 0.5817(5) 0.8104(5) 0.89624(16) 0.069(3) Uiso 1 1 d . . .
C40B C 0.6021(6) 0.7948(5) 0.90786(16) 0.071(3) Uiso 1 1 d . . .
N41B N 0.6006(4) 0.9022(4) 0.87160(12) 0.061(2) Uiso 1 1 d . . .
C42B C 0.5731(5) 0.9052(5) 0.86053(14) 0.060(3) Uiso 1 1 d . . .
C43B C 0.5381(5) 0.8559(5) 0.85464(15) 0.061(3) Uiso 1 1 d . . .
H43B H 0.5137 0.8480 0.8473 0.073 Uiso 1 1 calc R . .
C44B C 0.5484(5) 0.8218(5) 0.86231(15) 0.066(3) Uiso 1 1 d . . .
H44B H 0.5325 0.7857 0.8610 0.079 Uiso 1 1 calc R . .
N45B N 0.5857(4) 0.8506(4) 0.87210(12) 0.060(2) Uiso 1 1 d . . .
C46B C 0.6117(5) 0.8314(5) 0.88225(14) 0.059(3) Uiso 1 1 d . . .
H46C H 0.6467 0.8599 0.8844 0.071 Uiso 1 1 calc R . .
H46D H 0.6152 0.8038 0.8776 0.071 Uiso 1 1 calc R . .
N51B N 0.6030(4) 0.9954(4) 0.86638(13) 0.067(3) Uiso 1 1 d . . .
C52B C 0.5789(5) 0.9578(5) 0.85645(14) 0.060(3) Uiso 1 1 d . . .
C53B C 0.5630(5) 0.9655(5) 0.84376(17) 0.070(3) Uiso 1 1 d . . .
H53B H 0.5461 0.9380 0.8373 0.083 Uiso 1 1 calc R . .
C54B C 0.5720(5) 1.0161(5) 0.84025(17) 0.072(3) Uiso 1 1 d . . .
H54B H 0.5606 1.0223 0.8315 0.087 Uiso 1 1 calc R . .
C55B C 0.5973(6) 1.0548(6) 0.84983(17) 0.075(3) Uiso 1 1 d . . .
H55B H 0.6028 1.0883 0.8480 0.090 Uiso 1 1 calc R . .
C56B C 0.6150(6) 1.0445(6) 0.86252(19) 0.082(4) Uiso 1 1 d . . .
H56B H 0.6360 1.0723 0.8686 0.098 Uiso 1 1 calc R . .
N11C N 0.6780(5) 1.0525(5) 0.90140(14) 0.074(3) Uiso 1 1 d . . .
C12C C 0.7310(6) 1.0682(6) 0.90228(19) 0.081(4) Uiso 1 1 d . . .
C13C C 0.7579(6) 1.0995(6) 0.91472(19) 0.080(4) Uiso 1 1 d . . .
H13C H 0.7935 1.1112 0.9159 0.096 Uiso 1 1 calc R . .
C14C C 0.7327(7) 1.1126(7) 0.9249(2) 0.087(4) Uiso 1 1 d . . .
H14C H 0.7496 1.1301 0.9333 0.105 Uiso 1 1 calc R . .
C15C C 0.6838(6) 1.0997(6) 0.92230(18) 0.079(4) Uiso 1 1 d . . .
H15C H 0.6668 1.1109 0.9286 0.094 Uiso 1 1 calc R . .
C16C C 0.6570(6) 1.0697(6) 0.91047(18) 0.076(4) Uiso 1 1 d . . .
H16C H 0.6225 1.0617 0.9090 0.091 Uiso 1 1 calc R . .
N21C N 0.7235(4) 1.0263(4) 0.88009(14) 0.072(3) Uiso 1 1 d . . .
C22C C 0.7551(5) 1.0566(5) 0.89048(16) 0.071(3) Uiso 1 1 d . . .
C23C C 0.8053(6) 1.0686(6) 0.8877(2) 0.083(4) Uiso 1 1 d . . .
H23C H 0.8344 1.0879 0.8935 0.100 Uiso 1 1 calc R . .
C24C C 0.8053(7) 1.0472(6) 0.8747(2) 0.086(4) Uiso 1 1 d . . .
H24C H 0.8342 1.0502 0.8698 0.103 Uiso 1 1 calc R . .
N25C N 0.7546(5) 1.0208(5) 0.87027(14) 0.072(3) Uiso 1 1 d . . .
C26C C 0.7334(6) 0.9968(6) 0.85654(17) 0.076(4) Uiso 1 1 d . . .
H26E H 0.7002 0.9647 0.8581 0.092 Uiso 1 1 calc R . .
H26F H 0.7573 0.9873 0.8520 0.092 Uiso 1 1 calc R . .
C31C C 0.7249(5) 1.0329(5) 0.84648(16) 0.068(3) Uiso 1 1 d . . .
C32C C 0.7494(6) 