####################################################################### 
# 
# This file contains crystal structure data downloaded from the 
# Cambridge Structural Database (CSD) hosted by the Cambridge 
# Crystallographic Data Centre (CCDC).
# 
# Full information about CCDC data access policies and citation 
# guidelines are available at http://www.ccdc.cam.ac.uk/access/V1 
# 
# Audit and citation data items may have been added by the CCDC. 
# Please retain this information to preserve the provenance of 
# this file and to allow appropriate attribution of the data. 
# 
#######################################################################

data_bu
_audit_block_doi                 10.5517/ccy42mr
_database_code_depnum_ccdc_archive 'CCDC 867864'
loop_
_citation_id
_citation_doi
_citation_year
1 10.1002/anie.201203425 2012
_audit_update_record             
;
2012-02-21 deposited with the CCDC.	2024-07-14 downloaded from the CCDC.
;
#TrackingRef 'bu.cif'


_audit_creation_method           SHELXL-97
_chemical_name_systematic        
;
?
;
_chemical_name_common            ?
_chemical_melting_point          ?
_chemical_formula_moiety         'C144 H52 O139 Zn26'
_chemical_formula_sum            'C144 H52 O139 Zn26'
_chemical_formula_weight         5706.00

loop_
_atom_type_symbol
_atom_type_description
_atom_type_scat_dispersion_real
_atom_type_scat_dispersion_imag
_atom_type_scat_source
C C 0.0033 0.0016 'International Tables Vol C Tables 4.2.6.8 and 6.1.1.4'
H H 0.0000 0.0000 'International Tables Vol C Tables 4.2.6.8 and 6.1.1.4'
N N 0.0061 0.0033 'International Tables Vol C Tables 4.2.6.8 and 6.1.1.4'
O O 0.0106 0.0060 'International Tables Vol C Tables 4.2.6.8 and 6.1.1.4'
Zn Zn 0.2839 1.4301 'International Tables Vol C Tables 4.2.6.8 and 6.1.1.4'

_symmetry_cell_setting           Cubic
_symmetry_space_group_name_H-M   'I 2 3'
_symmetry_space_group_name_Hall  'I 2 2 3'

loop_
_symmetry_equiv_pos_as_xyz
'x, y, z'
'-x, -y, z'
'-x, y, -z'
'x, -y, -z'
'z, x, y'
'z, -x, -y'
'-z, -x, y'
'-z, x, -y'
'y, z, x'
'-y, z, -x'
'y, -z, -x'
'-y, -z, x'
'x+1/2, y+1/2, z+1/2'
'-x+1/2, -y+1/2, z+1/2'
'-x+1/2, y+1/2, -z+1/2'
'x+1/2, -y+1/2, -z+1/2'
'z+1/2, x+1/2, y+1/2'
'z+1/2, -x+1/2, -y+1/2'
'-z+1/2, -x+1/2, y+1/2'
'-z+1/2, x+1/2, -y+1/2'
'y+1/2, z+1/2, x+1/2'
'-y+1/2, z+1/2, -x+1/2'
'y+1/2, -z+1/2, -x+1/2'
'-y+1/2, -z+1/2, x+1/2'

_cell_length_a                   30.9836(3)
_cell_length_b                   30.9836(3)
_cell_length_c                   30.9836(3)
_cell_angle_alpha                90.00
_cell_angle_beta                 90.00
_cell_angle_gamma                90.00
_cell_volume                     29743.7(5)
_cell_formula_units_Z            4
_cell_measurement_temperature    296(2)
_cell_measurement_reflns_used    ?
_cell_measurement_theta_min      ?
_cell_measurement_theta_max      ?

_exptl_crystal_description       cube
_exptl_crystal_colour            colourless
_exptl_crystal_size_max          0.32
_exptl_crystal_size_mid          0.32
_exptl_crystal_size_min          0.32
_exptl_crystal_density_meas      1.224
_exptl_crystal_density_diffrn    1.274
_exptl_crystal_density_method    'not measured'
_exptl_crystal_F_000             11232.0
_exptl_absorpt_coefficient_mu    2.132
_exptl_absorpt_correction_type   multi-scan
_exptl_absorpt_correction_T_min  0.505
_exptl_absorpt_correction_T_max  0.511
_exptl_absorpt_process_details   ?

_exptl_special_details           
;
?
;

_diffrn_ambient_temperature      296(2)
_diffrn_radiation_wavelength     0.71073
_diffrn_radiation_type           MoK\a
_diffrn_radiation_source         'fine-focus sealed tube'
_diffrn_radiation_monochromator  graphite
_diffrn_measurement_device_type  'CCD area detector'
_diffrn_measurement_method       'phi and omega scans'
_diffrn_detector_area_resol_mean ?
_diffrn_standards_number         none
_diffrn_standards_interval_count none
_diffrn_standards_interval_time  0
_diffrn_standards_decay_%        none
_diffrn_reflns_number            47922
_diffrn_reflns_av_R_equivalents  0.0885
_diffrn_reflns_av_sigmaI/netI    0.0892
_diffrn_reflns_limit_h_min       -36
_diffrn_reflns_limit_h_max       34
_diffrn_reflns_limit_k_min       -26
_diffrn_reflns_limit_k_max       36
_diffrn_reflns_limit_l_min       -36
_diffrn_reflns_limit_l_max       31
_diffrn_reflns_theta_min         0.93
_diffrn_reflns_theta_max         24.98
_reflns_number_total             8726
_reflns_number_gt                6210
_reflns_threshold_expression     >2sigma(I)

_computing_data_collection       'Bruker SMART'
_computing_cell_refinement       'Bruker SMART'
_computing_data_reduction        'Bruker SAINT'
_computing_structure_solution    'SHELXS-97 (Sheldrick, 1990)'
_computing_structure_refinement  'SHELXL-97 (Sheldrick, 1997)'
_computing_molecular_graphics    'Bruker SHELXTL'
_computing_publication_material  'Bruker SHELXTL'

_refine_special_details          
;
Refinement of F^2^ against ALL reflections. The weighted R-factor wR and
goodness of fit S are based on F^2^, conventional R-factors R are based
on F, with F set to zero for negative F^2^. The threshold expression of
F^2^ > 2sigma(F^2^) is used only for calculating R-factors(gt) etc. and is
not relevant to the choice of reflections for refinement. R-factors based
on F^2^ are statistically about twice as large as those based on F, and R-
factors based on ALL data will be even larger.
;

_refine_ls_structure_factor_coef Fsqd
_refine_ls_matrix_type           full
_refine_ls_weighting_scheme      calc
_refine_ls_weighting_details     
'calc w=1/[\s^2^(Fo^2^)+(0.0647P)^2^+0.0000P] where P=(Fo^2^+2Fc^2^)/3'
_atom_sites_solution_primary     direct
_atom_sites_solution_secondary   difmap
_atom_sites_solution_hydrogens   geom
_refine_ls_hydrogen_treatment    constr
_refine_ls_extinction_method     none
_refine_ls_extinction_coef       ?
_refine_ls_abs_structure_details 'Flack H D (1983), Acta Cryst. A39, 876-881'
_refine_ls_abs_structure_Flack   0.063(16)
_refine_ls_number_reflns         8735
_refine_ls_number_parameters     465
_refine_ls_number_restraints     493
_refine_ls_R_factor_all          0.0782
_refine_ls_R_factor_gt           0.0526
_refine_ls_wR_factor_ref         0.1190
_refine_ls_wR_factor_gt          0.1114
_refine_ls_goodness_of_fit_ref   0.939
_refine_ls_restrained_S_all      0.967
_refine_ls_shift/su_max          0.001
_refine_ls_shift/su_mean         0.000

loop_
_atom_site_label
_atom_site_type_symbol
_atom_site_fract_x
_atom_site_fract_y
_atom_site_fract_z
_atom_site_U_iso_or_equiv
_atom_site_adp_type
_atom_site_occupancy
_atom_site_symmetry_multiplicity
_atom_site_calc_flag
_atom_site_refinement_flags
_atom_site_disorder_assembly
_atom_site_disorder_group
Zn1 Zn 0.00551(2) 0.44778(2) 0.79181(2) 0.02991(19) Uani 1 1 d U . .
Zn2 Zn 0.24038(3) 0.75962(3) 0.75962(3) 0.0304(3) Uani 1 3 d SU . .
Zn3 Zn 0.05383(2) 0.50480(2) 0.72572(2) 0.02939(19) Uani 1 1 d U . .
Zn4 Zn 0.20876(3) 0.87942(4) 0.84488(4) 0.0678(3) Uani 1 1 d U . .
Zn5 Zn 0.27466(3) 0.63790(3) 0.67421(3) 0.0594(3) Uani 1 1 d U . .
O72 O 0.1435(3) 0.8984(3) 0.7638(3) 0.129(3) Uani 1 1 d DU . .
O71 O 0.1821(3) 0.9304(2) 0.8128(3) 0.108(2) Uani 1 1 d DU . .
O32 O 0.03610(16) 0.59763(15) 0.77266(17) 0.0480(13) Uani 1 1 d U . .
O7 O 0.17021(18) 0.82979(18) 0.82979(18) 0.060(2) Uani 1 3 d SU . .
H7W H 0.1885 0.8115 0.8115 0.072 Uiso 1 3 calc SR . .
O41 O 0.21763(17) 0.63535(17) 0.70329(19) 0.0567(15) Uani 1 1 d U . .
O62 O 0.40099(14) 0.96158(15) 0.75910(17) 0.0432(12) Uani 1 1 d U . .
O52 O 0.26445(16) 0.88449(17) 0.81301(17) 0.0518(13) Uani 1 1 d U . .
O42 O 0.22816(14) 0.69787(14) 0.73462(14) 0.0377(12) Uani 1 1 d U . .
O51 O 0.25493(13) 0.82055(14) 0.78462(14) 0.0359(11) Uani 1 1 d U . .
O31 O 0.08560(14) 0.55849(15) 0.73743(16) 0.0428(12) Uani 1 1 d U . .
O2 O 0.14112(15) 0.62390(13) 0.73815(14) 0.0367(11) Uani 1 1 d U . .
O61 O 0.44049(15) 0.91725(15) 0.71904(15) 0.0413(12) Uani 1 1 d U . .
O12 O -0.06312(15) 0.47480(18) 0.83577(17) 0.0515(14) Uani 1 1 d U . .
O6 O 0.31145(16) 0.68855(16) 0.68855(16) 0.043(2) Uani 1 3 d SU . .
H6W H 0.2932 0.7068 0.7068 0.051 Uiso 1 3 calc SR . .
O11 O 0.00064(16) 0.44781(15) 0.85395(14) 0.0462(12) Uani 1 1 d U . .
O1 O -0.09598(15) 0.46285(18) 0.91326(16) 0.0545(14) Uani 1 1 d U . .
O22 O -0.17688(16) 0.47261(15) 0.93846(16) 0.0458(13) Uani 1 1 d DU . .
C14 C 0.1231(3) 0.9849(4) 0.7305(4) 0.171(4) Uani 1 1 d DU . .
H14A H 0.1061 0.9671 0.7134 0.205 Uiso 1 1 calc R . .
O3 O 0.33909(13) 0.89682(13) 0.76867(14) 0.0338(11) Uani 1 1 d U . .
O21 O -0.16147(13) 0.44573(15) 1.00354(15) 0.0439(12) Uani 1 1 d DU . .
O5 O 0.0000 0.5000 0.75657(18) 0.0248(12) Uani 1 2 d SU . .
C6 C 0.1000(2) 0.6681(2) 0.7792(2) 0.0408(17) Uani 1 1 d U . .
H6A H 0.0768 0.6791 0.7947 0.049 Uiso 1 1 calc R . .
C7 C 0.1395(2) 0.6890(2) 0.7714(2) 0.0445(18) Uani 1 1 d U . .
H7A H 0.1476 0.7163 0.7809 0.053 Uiso 1 1 calc R . .
C401 C 0.2062(2) 0.6648(2) 0.7271(2) 0.0409(17) Uani 1 1 d U . .
C5 C 0.1020(2) 0.6279(2) 0.7594(2) 0.0353(16) Uani 1 1 d U . .
C9 C 0.3173(2) 0.8575(2) 0.7649(2) 0.0337(16) Uani 1 1 d U . .
C8 C 0.1637(2) 0.6610(2) 0.7472(2) 0.0383(17) Uani 1 1 d U . .
C301 C 0.0716(2) 0.5920(2) 0.7547(2) 0.0315(15) Uani 1 1 d U . .
C501 C 0.2756(2) 0.8533(2) 0.7893(2) 0.0366(16) Uani 1 1 d U . .
C1 C -0.0515(2) 0.4546(3) 0.9091(3) 0.052(2) Uani 1 1 d U . .
C3 C -0.0683(3) 0.4437(4) 0.9760(3) 0.086(3) Uani 1 1 d U . .
H3A H -0.0651 0.4365 1.0050 0.103 Uiso 1 1 calc R . .
C4 C -0.1063(2) 0.4559(3) 0.9568(2) 0.059(2) Uani 1 1 d DU . .
C101 C -0.0392(2) 0.4614(3) 0.8617(2) 0.0465(19) Uani 1 1 d U . .
C601 C 0.4082(2) 0.9272(2) 0.7412(2) 0.0322(16) Uani 1 1 d U . .
C2 C -0.0348(3) 0.4440(4) 0.9451(3) 0.086(3) Uani 1 1 d U . .
H2A H -0.0059 0.4375 0.9501 0.104 Uiso 1 1 calc R . .
C201 C -0.1528(2) 0.45938(15) 0.9646(2) 0.0438(19) Uani 1 1 d DU . .
C11 C 0.3772(2) 0.8503(2) 0.7267(3) 0.0446(19) Uani 1 1 d U . .
H11A H 0.3983 0.8387 0.7088 0.053 Uiso 1 1 calc R . .
C10 C 0.3403(2) 0.8290(2) 0.7414(3) 0.0455(19) Uani 1 1 d U . .
H10A H 0.3330 0.8004 0.7359 0.055 Uiso 1 1 calc R . .
C12 C 0.3769(2) 0.8912(2) 0.7434(2) 0.0360(16) Uani 1 1 d U . .
C701 C 0.1602(4) 0.9275(4) 0.7815(4) 0.119(3) Uani 1 1 d DU . .
C13 C 0.1499(3) 0.9718(4) 0.7632(3) 0.139(3) Uani 1 1 d DU . .
O4 O 0.1687(2) 1.0076(3) 0.7794(2) 0.140(3) Uani 1 1 d DU . .
C15 C 0.1261(4) 1.0291(4) 0.7275(4) 0.172(4) Uani 1 1 d DU . .
H15A H 0.1112 1.0465 0.7082 0.206 Uiso 1 1 calc R . .
C16 C 0.1546(3) 1.0426(4) 0.7580(3) 0.150(3) Uani 1 1 d DU . .
C801 C 0.1717(4) 1.0869(5) 0.7708(4) 0.145(3) Uani 1 1 d DU . .
O81 O 0.1972(3) 1.0871(3) 0.7998(3) 0.129(3) Uani 1 1 d DU . .
O82 O 0.1559(3) 1.1156(3) 0.7498(3) 0.174(4) Uani 1 1 d DU . .
O8 O 0.2355(5) 0.9457(5) 0.8811(5) 0.272(7) Uani 1 1 d U . .
O9 O 0.1612(5) 0.9064(4) 0.8863(4) 0.238(6) Uani 1 1 d U . .

loop_
_atom_site_aniso_label
_atom_site_aniso_U_11
_atom_site_aniso_U_22
_atom_site_aniso_U_33
_atom_site_aniso_U_23
_atom_site_aniso_U_13
_atom_site_aniso_U_12
Zn1 0.0211(4) 0.0283(4) 0.0403(5) 0.0076(3) 0.0020(4) 0.0016(4)
Zn2 0.0304(3) 0.0304(3) 0.0304(3) 0.0074(4) -0.0074(4) -0.0074(4)
Zn3 0.0256(4) 0.0218(4) 0.0408(5) -0.0030(4) 0.0066(3) -0.0020(4)
Zn4 0.0448(6) 0.0808(8) 0.0776(8) 0.0306(6) 0.0058(5) -0.0134(5)
Zn5 0.0479(6) 0.0664(7) 0.0638(7) 0.0116(5) -0.0053(5) -0.0171(5)
O72 0.177(6) 0.095(5) 0.115(5) 0.004(4) -0.045(5) 0.006(5)
O71 0.116(5) 0.076(4) 0.132(5) 0.016(4) -0.022(4) 0.001(4)
O32 0.036(3) 0.031(3) 0.077(4) -0.007(3) 0.011(3) -0.018(2)
O7 0.060(2) 0.060(2) 0.060(2) 0.006(3) -0.006(3) -0.006(3)
O41 0.050(3) 0.048(3) 0.073(4) -0.024(3) 0.016(3) -0.020(3)
O62 0.028(3) 0.035(3) 0.067(3) -0.012(3) 0.008(2) -0.008(2)
O52 0.050(3) 0.053(3) 0.052(3) 0.010(3) -0.009(2) -0.032(3)
O42 0.036(3) 0.033(3) 0.044(3) 0.004(2) -0.008(2) -0.015(2)
O51 0.030(2) 0.034(2) 0.044(3) 0.014(2) 0.006(2) -0.015(2)
O31 0.033(3) 0.031(3) 0.064(3) -0.002(2) 0.008(2) -0.017(2)
O2 0.043(3) 0.030(3) 0.037(3) -0.010(2) 0.000(2) -0.012(2)
O61 0.034(3) 0.044(3) 0.046(3) -0.006(2) 0.009(2) -0.017(2)
O12 0.031(3) 0.075(4) 0.048(3) 0.012(3) 0.011(2) 0.005(3)
O6 0.043(2) 0.043(2) 0.043(2) 0.002(2) -0.002(2) -0.002(2)
O11 0.037(3) 0.066(3) 0.035(2) 0.000(2) 0.009(2) -0.002(3)
O1 0.032(3) 0.082(4) 0.049(3) 0.005(3) 0.016(2) 0.003(3)
O22 0.042(3) 0.051(3) 0.045(3) 0.010(3) 0.010(2) 0.000(3)
C14 0.199(6) 0.135(6) 0.179(6) 0.008(5) -0.064(5) 0.004(5)
O3 0.022(2) 0.031(2) 0.048(3) 0.002(2) 0.007(2) -0.009(2)
O21 0.034(3) 0.063(3) 0.035(3) 0.007(3) 0.012(2) -0.004(2)
O5 0.011(3) 0.015(3) 0.049(4) 0.000 0.000 0.001(3)
C6 0.042(4) 0.036(4) 0.045(4) -0.005(3) -0.005(3) -0.003(3)
C7 0.059(5) 0.025(4) 0.050(5) 0.002(3) -0.004(4) -0.023(3)
C401 0.042(4) 0.037(4) 0.043(4) -0.004(3) -0.019(3) -0.009(3)
C5 0.035(4) 0.026(3) 0.045(4) 0.000(3) -0.001(3) -0.016(3)
C9 0.024(3) 0.041(4) 0.037(4) 0.001(3) -0.011(3) -0.020(3)
C8 0.048(4) 0.023(4) 0.044(4) 0.009(3) 0.005(3) -0.020(3)
C301 0.037(4) 0.017(3) 0.040(4) 0.009(3) -0.006(3) -0.003(3)
C501 0.043(4) 0.037(4) 0.030(4) 0.011(3) -0.020(3) -0.020(3)
C1 0.027(4) 0.080(6) 0.049(4) -0.007(4) 0.005(3) 0.000(4)
C3 0.041(4) 0.175(10) 0.042(4) -0.002(6) -0.002(4) -0.008(6)
C4 0.037(4) 0.105(7) 0.035(4) -0.016(5) 0.009(3) -0.020(4)
C101 0.023(4) 0.075(6) 0.042(4) -0.003(4) -0.001(3) 0.000(4)
C601 0.028(4) 0.031(4) 0.038(4) 0.019(3) -0.005(3) -0.004(3)
C2 0.038(4) 0.184(11) 0.038(4) -0.005(6) -0.001(4) 0.009(6)
C201 0.038(4) 0.059(5) 0.035(4) -0.006(4) 0.019(3) -0.007(4)
C11 0.023(4) 0.032(4) 0.078(6) -0.008(4) 0.009(4) 0.002(3)
C10 0.047(4) 0.023(4) 0.066(5) -0.006(4) -0.009(4) -0.008(3)
C12 0.019(3) 0.044(4) 0.045(4) -0.001(3) -0.001(3) -0.010(3)
C701 0.148(6) 0.094(4) 0.115(5) 0.008(4) -0.031(4) -0.005(5)
C13 0.170(6) 0.107(4) 0.139(5) 0.001(5) -0.049(5) 0.001(5)
O4 0.170(5) 0.100(4) 0.148(5) -0.001(4) -0.042(4) 0.002(4)
C15 0.200(7) 0.133(6) 0.182(6) 0.016(5) -0.058(5) -0.004(6)
C16 0.180(6) 0.116(4) 0.154(6) 0.011(5) -0.044(5) 0.005(5)
C801 0.181(6) 0.108(5) 0.147(6) 0.004(5) -0.026(5) 0.012(5)
O81 0.139(6) 0.099(5) 0.150(6) -0.005(5) -0.003(5) -0.004(4)
O82 0.235(7) 0.116(5) 0.169(6) 0.004(5) -0.041(6) 0.013(6)
O8 0.315(14) 0.228(12) 0.272(15) -0.177(12) -0.130(10) 0.037(10)
O9 0.348(15) 0.184(11) 0.181(11) -0.034(7) 0.126(13) 0.057(10)

_geom_special_details            
;
All esds (except the esd in the dihedral angle between two l.s. planes)
are estimated using the full covariance matrix. The cell esds are taken
into account individually in the estimation of esds in distances, angles
and torsion angles; correlations between esds in cell parameters are only
used when they are defined by crystal symmetry. An approximate (isotropic)
treatment of cell esds is used for estimating esds involving l.s. planes.
;

loop_
_geom_bond_atom_site_label_1
_geom_bond_atom_site_label_2
_geom_bond_distance
_geom_bond_site_symmetry_2
_geom_bond_publ_flag
Zn1 O11 1.931(4) . ?
Zn1 O61 1.951(4) 15_546 ?
Zn1 O5 1.959(3) . ?
Zn1 O32 1.998(4) 2_565 ?
Zn1 Zn3 3.0911(10) . ?
Zn1 Zn3 3.1195(10) 2_565 ?
Zn2 O51 2.090(5) 7_665 ?
Zn2 O51 2.090(5) . ?
Zn2 O51 2.090(5) 10_656 ?
Zn2 O42 2.098(4) . ?
Zn2 O42 2.098(4) 10_656 ?
Zn2 O42 2.098(4) 7_665 ?
Zn3 O5 1.928(3) . ?
Zn3 O31 1.967(4) . ?
Zn3 O21 1.991(4) 22_545 ?
Zn3 O62 1.994(5) 15_546 ?
Zn3 Zn1 3.1195(10) 2_565 ?
Zn4 O72 1.994(9) 7_665 ?
Zn4 O52 1.994(5) . ?
Zn4 O7 2.003(3) . ?
Zn4 O71 2.040(8) . ?
Zn4 O9 2.125(11) . ?
Zn4 O8 2.482(11) . ?
Zn5 O81 1.972(9) 15_546 ?
Zn5 O41 1.985(5) . ?
Zn5 O6 1.990(2) . ?
Zn5 O82 2.050(10) 17_454 ?
O72 C701 1.176(11) . ?
O72 Zn4 1.994(9) 10_656 ?
O71 C701 1.186(12) . ?
O32 C301 1.246(8) . ?
O32 Zn1 1.998(4) 2_565 ?
O7 Zn4 2.003(3) 7_665 ?
O7 Zn4 2.003(3) 10_656 ?
O41 C401 1.225(8) . ?
O62 C601 1.222(8) . ?
O62 Zn3 1.994(5) 15_556 ?
O52 C501 1.261(9) . ?
O42 C401 1.252(8) . ?
O51 C501 1.208(7) . ?
O31 C301 1.245(8) . ?
O2 C8 1.374(7) . ?
O2 C5 1.384(8) . ?
O61 C601 1.251(8) . ?
O61 Zn1 1.951(4) 15_556 ?
O12 C101 1.170(8) . ?
O6 Zn5 1.990(2) 10_656 ?
O6 Zn5 1.990(2) 7_665 ?
O11 C101 1.326(9) . ?
O1 C4 1.402(9) . ?
O1 C1 1.407(8) . ?
O22 C201 1.174(8) . ?
C14 C13 1.370(9) . ?
C14 C15 1.374(9) . ?
O3 C9 1.396(7) . ?
O3 C12 1.421(8) . ?
O21 C201 1.307(9) . ?
O21 Zn3 1.991(4) 19 ?
O5 Zn3 1.928(3) 2_565 ?
O5 Zn1 1.959(3) 2_565 ?
C6 C5 1.390(9) . ?
C6 C7 1.406(10) . ?
C7 C8 1.371(10) . ?
C401 C8 1.462(10) . ?
C5 C301 1.464(9) . ?
C9 C10 1.349(10) . ?
C9 C501 1.505(10) . ?
C1 C2 1.274(11) . ?
C1 C101 1.531(10) . ?
C3 C4 1.372(11) . ?
C3 C2 1.414(11) . ?
C4 C201 1.466(10) . ?
C601 C12 1.478(9) . ?
C11 C12 1.370(9) . ?
C11 C10 1.396(9) . ?
C701 C13 1.522(13) . ?
C13 O4 1.349(8) . ?
O4 C16 1.345(9) . ?
C15 C16 1.361(9) . ?
C16 C801 1.524(14) . ?
C801 O81 1.197(13) . ?
C801 O82 1.205(12) . ?
O81 Zn5 1.972(9) 15_556 ?
O82 Zn5 2.050(10) 21_455 ?

loop_
_geom_angle_atom_site_label_1
_geom_angle_atom_site_label_2
_geom_angle_atom_site_label_3
_geom_angle
_geom_angle_site_symmetry_1
_geom_angle_site_symmetry_3
_geom_angle_publ_flag
O11 Zn1 O61 103.8(2) . 15_546 ?
O11 Zn1 O5 123.3(2) . . ?
O61 Zn1 O5 112.27(16) 15_546 . ?
O11 Zn1 O32 104.2(2) . 2_565 ?
O61 Zn1 O32 99.3(2) 15_546 2_565 ?
O5 Zn1 O32 111.08(17) . 2_565 ?
O11 Zn1 Zn3 134.26(15) . . ?
O61 Zn1 Zn3 75.39(14) 15_546 . ?
O5 Zn1 Zn3 36.98(6) . . ?
O32 Zn1 Zn3 121.21(15) 2_565 . ?
O11 Zn1 Zn3 127.46(16) . 2_565 ?
O61 Zn1 Zn3 128.36(14) 15_546 2_565 ?
O5 Zn1 Zn3 36.29(6) . 2_565 ?
O32 Zn1 Zn3 75.91(14) 2_565 2_565 ?
Zn3 Zn1 Zn3 65.25(3) . 2_565 ?
O51 Zn2 O51 86.55(17) 7_665 . ?
O51 Zn2 O51 86.55(17) 7_665 10_656 ?
O51 Zn2 O51 86.55(17) . 10_656 ?
O51 Zn2 O42 94.01(17) 7_665 . ?
O51 Zn2 O42 177.93(18) . . ?
O51 Zn2 O42 95.47(17) 10_656 . ?
O51 Zn2 O42 95.47(17) 