
#######################################################################
#
#                 Cambridge Crystallographic Data Centre
#                                CCDC
#
#######################################################################
#
# If this CIF has been generated from an entry in the Cambridge
# Structural Database, then it will include bibliographic, chemical,
# crystal, experimental, refinement or atomic coordinate data resulting
# from the CCDC's data processing and validation procedures.
#
#######################################################################

data_CSD_CIF_YESZEB
_audit_creation_date 1995-06-19
_audit_creation_method CSD-ConQuest-V1
_database_code_CSD YESZEB
_database_code_depnum_ccdc_archive 'CCDC 1301720'
_chemical_formula_sum 'C12 H8 I2 N2 O4'
_chemical_formula_moiety
;
C6 H4 I2,C6 H4 N2 O4
;
_journal_coden_Cambridge 182
_journal_year 1994
_journal_page_first 2729
_journal_name_full 'Chem.Commun. '
loop_
_publ_author_name
"F.H.Allen"
"B.S.Goud"
"V.J.Hoy"
"J.A.K.Howard"
"G.R.Desiraju"
_chemical_name_systematic
;
1,4-Di-iodobenzene 1,4-dinitrobenzene
;
_chemical_name_common
;
Teaching Subset: Fundamental Chemistry, Symmetry
;
_chemical_melting_point 429
_cell_volume    712.154
_exptl_crystal_colour 'dark yellow'
_exptl_crystal_density_diffrn 2.322
_diffrn_ambient_temperature 123
#These two values have been output from a single CSD field.
_refine_ls_R_factor_gt 0.0164
_refine_ls_wR_factor_gt 0.0164
_symmetry_cell_setting monoclinic
_symmetry_space_group_name_H-M 'C 2/m'
_symmetry_Int_Tables_number 12
loop_
_symmetry_equiv_pos_site_id
_symmetry_equiv_pos_as_xyz
1 x,y,z
2 1/2+x,1/2+y,z
3 -x,y,-z
4 1/2-x,1/2+y,-z
5 -x,-y,-z
6 -1/2-x,-1/2-y,-z
7 x,-y,z
8 -1/2+x,-1/2-y,z
_cell_length_a 9.662(2)
_cell_length_b 9.780(2)
_cell_length_c 7.550(2)
_cell_angle_alpha 90
_cell_angle_beta 93.43(3)
_cell_angle_gamma 90
_cell_formula_units_Z 2
loop_
_atom_type_symbol
_atom_type_radius_bond
C 0.68
H 0.23
I 1.40
N 0.68
O 0.68
loop_
_atom_site_label
_atom_site_type_symbol
_atom_site_fract_x
_atom_site_fract_y
_atom_site_fract_z
I1 I 0.8417(1) 0.50000 0.6774(1)
C1 C 0.5682(4) 0.6233(4) 0.5367(4)
C2 C 0.6341(5) 0.50000 0.5719(5)
H1 H 0.6082(37) 0.7049(39) 0.5603(36)
O1 O 0.8289(3) 0.3897(4) 0.1892(3)
N1 N 0.7735(4) 0.50000 0.1583(4)
C3 C 0.5673(3) 0.3755(3) 0.0405(3)
C4 C 0.6294(5) 0.50000 0.0785(5)
H2 H 0.6170(42) 0.2903(44) 0.0659(41)
C1F C 0.5682(4) 0.3767(4) 0.5367(4)
C1B C 0.4318(4) 0.6233(4) 0.4633(4)
C1D C 0.4318(4) 0.3767(4) 0.4633(4)
H1F H 0.6082(37) 0.2951(39) 0.5603(36)
C2B C 0.3659(5) 0.50000 0.4281(5)
H1B H 0.3918(37) 0.7049(39) 0.4397(36)
H1D H 0.3918(37) 0.2951(39) 0.4397(36)
I1B I 0.1583(1) 0.50000 0.3226(1)
O1F O 0.8289(3) 0.6103(4) 0.1892(3)
C3F C 0.5673(3) 0.6245(3) 0.0405(3)
C3B C 0.4327(3) 0.3755(3) -0.0405(3)
C3D C 0.4327(3) 0.6245(3) -0.0405(3)
H2F H 0.6170(42) 0.7097(44) 0.0659(41)
C4B C 0.3706(5) 0.50000 -0.0785(5)
H2B H 0.3830(42) 0.2903(44) -0.0659(41)
H2D H 0.3830(42) 0.7097(44) -0.0659(41)
N1B N 0.2265(4) 0.50000 -0.1583(4)
O1D O 0.1711(3) 0.6103(4) -0.1892(3)
O1B O 0.1711(3) 0.3897(4) -0.1892(3)
#END
