####################################################################### 
# 
# This file contains crystal structure data downloaded from the 
# Cambridge Structural Database (CSD) hosted by the Cambridge 
# Crystallographic Data Centre (CCDC).
# 
# Full information about CCDC data access policies and citation 
# guidelines are available at http://www.ccdc.cam.ac.uk/access/V1 
# 
# Audit and citation data items may have been added by the CCDC. 
# Please retain this information to preserve the provenance of 
# this file and to allow appropriate attribution of the data. 
# 
#######################################################################

data_compound_5
_audit_block_doi                 10.5517/cc8zj5x
_database_code_depnum_ccdc_archive 'CCDC 267659'
loop_
_citation_id
_citation_doi
_citation_year
1 10.1016/j.inoche.2006.09.010 2007
_audit_update_record             
;
2005-04-01 deposited with the CCDC.	2024-07-14 downloaded from the CCDC.
;


_audit_creation_method           SHELXL-97
_chemical_name_systematic        
;
?
;
_chemical_name_common            ?
_chemical_melting_point          ?
_chemical_formula_moiety         ?
_chemical_formula_sum            'C7 H12 N3 Ni0.50 O5 S'
_chemical_formula_weight         279.61

loop_
_atom_type_symbol
_atom_type_description
_atom_type_scat_dispersion_real
_atom_type_scat_dispersion_imag
_atom_type_scat_source
C C 0.0033 0.0016 'International Tables Vol C Tables 4.2.6.8 and 6.1.1.4'
H H 0.0000 0.0000 'International Tables Vol C Tables 4.2.6.8 and 6.1.1.4'
N N 0.0061 0.0033 'International Tables Vol C Tables 4.2.6.8 and 6.1.1.4'
O O 0.0106 0.0060 'International Tables Vol C Tables 4.2.6.8 and 6.1.1.4'
S S 0.1246 0.1234 'International Tables Vol C Tables 4.2.6.8 and 6.1.1.4'
Ni Ni 0.3393 1.1124 'International Tables Vol C Tables 4.2.6.8 and 6.1.1.4'

_symmetry_cell_setting           monoclinic
_symmetry_space_group_name_H-M   p2(1)/n

loop_
_symmetry_equiv_pos_as_xyz
'x, y, z'
'-x+1/2, y+1/2, -z+1/2'
'-x, -y, -z'
'x-1/2, -y-1/2, z-1/2'

_cell_length_a                   8.960(4)
_cell_length_b                   12.486(6)
_cell_length_c                   11.259(5)
_cell_angle_alpha                90.00
_cell_angle_beta                 102.763(8)
_cell_angle_gamma                90.00
_cell_volume                     1228.5(10)
_cell_formula_units_Z            4
_cell_measurement_temperature    293(2)
_cell_measurement_reflns_used    ?
_cell_measurement_theta_min      ?
_cell_measurement_theta_max      ?

_exptl_crystal_description       ?
_exptl_crystal_colour            ?
_exptl_crystal_size_max          0.15
_exptl_crystal_size_mid          0.14
_exptl_crystal_size_min          0.04
_exptl_crystal_density_meas      ?
_exptl_crystal_density_diffrn    1.512
_exptl_crystal_density_method    'not measured'
_exptl_crystal_F_000             580
_exptl_absorpt_coefficient_mu    1.018
_exptl_absorpt_correction_type   ?
_exptl_absorpt_correction_T_min  0.8590
_exptl_absorpt_correction_T_max  0.9575
_exptl_absorpt_process_details   ?

_exptl_special_details           
;
?
;

_diffrn_ambient_temperature      293(2)
_diffrn_radiation_wavelength     0.71073
_diffrn_radiation_type           MoK\a
_diffrn_radiation_source         'fine-focus sealed tube'
_diffrn_radiation_monochromator  graphite
_diffrn_measurement_device_type  ?
_diffrn_measurement_method       ?
_diffrn_detector_area_resol_mean ?
_diffrn_standards_number         ?
_diffrn_standards_interval_count ?
_diffrn_standards_interval_time  ?
_diffrn_standards_decay_%        ?
_diffrn_reflns_number            7189
_diffrn_reflns_av_R_equivalents  0.0426
_diffrn_reflns_av_sigmaI/netI    0.0615
_diffrn_reflns_limit_h_min       -11
_diffrn_reflns_limit_h_max       11
_diffrn_reflns_limit_k_min       -16
_diffrn_reflns_limit_k_max       16
_diffrn_reflns_limit_l_min       -12
_diffrn_reflns_limit_l_max       14
_diffrn_reflns_theta_min         2.47
_diffrn_reflns_theta_max         28.27
_reflns_number_total             2818
_reflns_number_gt                2217
_reflns_threshold_expression     >2sigma(I)

_computing_data_collection       ?
_computing_cell_refinement       ?
_computing_data_reduction        ?
_computing_structure_solution    'SHELXS-97 (Sheldrick, 1990)'
_computing_structure_refinement  'SHELXL-97 (Sheldrick, 1997)'
_computing_molecular_graphics    ?
_computing_publication_material  ?

_refine_special_details          
;
Refinement of F^2^ against ALL reflections. The weighted R-factor wR and
goodness of fit S are based on F^2^, conventional R-factors R are based
on F, with F set to zero for negative F^2^. The threshold expression of
F^2^ > 2sigma(F^2^) is used only for calculating R-factors(gt) etc. and is
not relevant to the choice of reflections for refinement. R-factors based
on F^2^ are statistically about twice as large as those based on F, and R-
factors based on ALL data will be even larger.
;

_refine_ls_structure_factor_coef Fsqd
_refine_ls_matrix_type           full
_refine_ls_weighting_scheme      calc
_refine_ls_weighting_details     
'calc w=1/[\s^2^(Fo^2^)+(0.0813P)^2^+3.3723P] where P=(Fo^2^+2Fc^2^)/3'
_atom_sites_solution_primary     direct
_atom_sites_solution_secondary   difmap
_atom_sites_solution_hydrogens   geom
_refine_ls_hydrogen_treatment    mixed
_refine_ls_extinction_method     none
_refine_ls_extinction_coef       ?
_refine_ls_number_reflns         2818
_refine_ls_number_parameters     167
_refine_ls_number_restraints     0
_refine_ls_R_factor_all          0.1018
_refine_ls_R_factor_gt           0.0785
_refine_ls_wR_factor_ref         0.1910
_refine_ls_wR_factor_gt          0.1790
_refine_ls_goodness_of_fit_ref   1.092
_refine_ls_restrained_S_all      1.092
_refine_ls_shift/su_max          0.001
_refine_ls_shift/su_mean         0.000

loop_
_atom_site_label
_atom_site_type_symbol
_atom_site_fract_x
_atom_site_fract_y
_atom_site_fract_z
_atom_site_U_iso_or_equiv
_atom_site_adp_type
_atom_site_occupancy
_atom_site_symmetry_multiplicity
_atom_site_calc_flag
_atom_site_refinement_flags
_atom_site_disorder_assembly
_atom_site_disorder_group
Ni1 Ni 0.0000 0.5000 0.5000 0.0219(3) Uani 1 2 d S . .
S1 S 0.42753(16) 0.47082(13) 0.68523(13) 0.0430(4) Uani 1 1 d . . .
O1 O 0.4267(4) 0.3460(3) 0.4942(3) 0.0322(8) Uani 1 1 d . . .
O1W O 0.1220(4) 0.5991(3) 0.6356(3) 0.0390(9) Uani 1 1 d . . .
H1WA H 0.2179 0.5906 0.6610 0.047 Uiso 1 1 d R . .
H1WB H 0.0760 0.6483 0.6656 0.047 Uiso 1 1 d R . .
O2W O 0.027(4) 0.580(2) 0.8890(12) 0.51(3) Uani 1 1 d . . .
H2WA H -0.0179 0.6403 0.8839 0.609 Uiso 1 1 d R . .
H2WB H 0.0502 0.5477 0.9571 0.609 Uiso 1 1 d R . .
O3W O -0.268(4) 0.966(3) 0.501(3) 0.64(3) Uani 1 1 d . . .
H3WA H -0.2808 0.9823 0.5710 0.767 Uiso 1 1 d R . .
H3WB H -0.2994 1.0078 0.4409 0.767 Uiso 1 1 d R . .
O4W O 0.007(6) 0.879(4) 0.520(3) 0.74(4) Uani 1 1 d . . .
H4B H 0.0964 0.9125 0.5216 0.889 Uiso 1 1 d R . .
H4C H -0.0768 0.9171 0.5239 0.889 Uiso 1 1 d R . .
N1 N 0.2001(4) 0.4154(3) 0.4904(3) 0.0264(9) Uani 1 1 d . . .
N2 N 0.1893(5) 0.3531(4) 0.3851(4) 0.0328(10) Uani 1 1 d . . .
N3 N 0.4494(4) 0.1085(3) 0.1305(4) 0.0296(9) Uani 1 1 d . . .
C1 C 0.3424(5) 0.4106(4) 0.5539(4) 0.0279(10) Uani 1 1 d . . .
C2 C 0.3239(5) 0.3156(4) 0.3926(4) 0.0291(10) Uani 1 1 d . . .
C3 C 0.3716(5) 0.2453(4) 0.3029(5) 0.0311(11) Uani 1 1 d . . .
C4 C 0.5226(6) 0.2161(5) 0.3103(5) 0.0378(13) Uani 1 1 d . . .
H4A H 0.593(7) 0.248(5) 0.370(6) 0.051(18) Uiso 1 1 d . . .
C5 C 0.5551(6) 0.1481(5) 0.2232(5) 0.0352(12) Uani 1 1 d . . .
H5A H 0.658(6) 0.132(4) 0.224(5) 0.036(15) Uiso 1 1 d . . .
C6 C 0.3032(6) 0.1384(4) 0.1235(5) 0.0359(12) Uani 1 1 d . . .
H6A H 0.236(6) 0.106(5) 0.062(5) 0.037(15) Uiso 1 1 d . . .
C7 C 0.2611(6) 0.2063(4) 0.2076(5) 0.0360(12) Uani 1 1 d . . .
H7A H 0.157(7) 0.217(5) 0.197(5) 0.042(16) Uiso 1 1 d . . .

loop_
_atom_site_aniso_label
_atom_site_aniso_U_11
_atom_site_aniso_U_22
_atom_site_aniso_U_33
_atom_site_aniso_U_23
_atom_site_aniso_U_13
_atom_site_aniso_U_12
Ni1 0.0175(4) 0.0264(5) 0.0235(4) -0.0006(3) 0.0083(3) 0.0005(3)
S1 0.0316(7) 0.0576(9) 0.0377(8) -0.0120(6) 0.0033(6) 0.0043(6)
O1 0.0232(16) 0.042(2) 0.0309(19) -0.0066(15) 0.0058(14) 0.0044(14)
O1W 0.0264(18) 0.044(2) 0.047(2) -0.0176(17) 0.0088(16) 0.0005(15)
O2W 0.89(6) 0.43(3) 0.111(10) -0.102(15) -0.08(2) 0.46(4)
O3W 0.93(7) 0.64(5) 0.28(3) 0.37(4) -0.02(5) -0.13(6)
O4W 0.93(8) 0.94(8) 0.44(4) -0.49(5) 0.34(5) -0.43(8)
N1 0.0223(19) 0.031(2) 0.027(2) -0.0056(16) 0.0093(16) 0.0015(16)
N2 0.027(2) 0.041(3) 0.032(2) -0.0070(19) 0.0088(18) 0.0039(18)
N3 0.0226(19) 0.035(2) 0.033(2) -0.0060(17) 0.0100(17) 0.0006(17)
C1 0.027(2) 0.030(3) 0.030(3) -0.0001(19) 0.012(2) 0.0028(19)
C2 0.022(2) 0.036(3) 0.030(3) -0.003(2) 0.0091(19) 0.0008(19)
C3 0.027(2) 0.036(3) 0.033(3) -0.006(2) 0.013(2) 0.003(2)
C4 0.022(2) 0.053(4) 0.037(3) -0.016(3) 0.003(2) 0.002(2)
C5 0.020(2) 0.049(3) 0.038(3) -0.010(2) 0.010(2) 0.006(2)
C6 0.027(3) 0.041(3) 0.040(3) -0.014(2) 0.006(2) -0.002(2)
C7 0.024(2) 0.042(3) 0.044(3) -0.008(2) 0.011(2) 0.007(2)

_geom_special_details            
;
All esds (except the esd in the dihedral angle between two l.s. planes)
are estimated using the full covariance matrix. The cell esds are taken
into account individually in the estimation of esds in distances, angles
and torsion angles; correlations between esds in cell parameters are only
used when they are defined by crystal symmetry. An approximate (isotropic)
treatment of cell esds is used for estimating esds involving l.s. planes.
;

loop_
_geom_bond_atom_site_label_1
_geom_bond_atom_site_label_2
_geom_bond_distance
_geom_bond_site_symmetry_2
_geom_bond_publ_flag
Ni1 O1W 2.079(3) . ?
Ni1 O1W 2.079(3) 3_566 ?
Ni1 N1 2.104(4) . ?
Ni1 N1 2.104(4) 3_566 ?
Ni1 N3 2.120(4) 2 ?
Ni1 N3 2.120(4) 4_566 ?
S1 C1 1.684(5) . ?
O1 C2 1.354(6) . ?
O1 C1 1.378(5) . ?
N1 C1 1.318(6) . ?
N1 N2 1.403(5) . ?
N2 C2 1.280(6) . ?
N3 C5 1.339(6) . ?
N3 C6 1.348(6) . ?
N3 Ni1 2.120(4) 2_545 ?
C2 C3 1.471(7) . ?
C3 C7 1.379(7) . ?
C3 C4 1.385(7) . ?
C4 C5 1.376(7) . ?
C6 C7 1.384(7) . ?

loop_
_geom_angle_atom_site_label_1
_geom_angle_atom_site_label_2
_geom_angle_atom_site_label_3
_geom_angle
_geom_angle_site_symmetry_1
_geom_angle_site_symmetry_3
_geom_angle_publ_flag
O1W Ni1 O1W 180.00(16) . 3_566 ?
O1W Ni1 N1 91.19(14) . . ?
O1W Ni1 N1 88.81(14) 3_566 . ?
O1W Ni1 N1 88.81(14) . 3_566 ?
O1W Ni1 N1 91.19(14) 3_566 3_566 ?
N1 Ni1 N1 180.000(1) . 3_566 ?
O1W Ni1 N3 88.30(16) . 2 ?
O1W Ni1 N3 91.70(16) 3_566 2 ?
N1 Ni1 N3 88.30(15) . 2 ?
N1 Ni1 N3 91.70(15) 3_566 2 ?
O1W Ni1 N3 91.70(16) . 4_566 ?
O1W Ni1 N3 88.30(16) 3_566 4_566 ?
N1 Ni1 N3 91.70(15) . 4_566 ?
N1 Ni1 N3 88.30(15) 3_566 4_566 ?
N3 Ni1 N3 180.00(17) 2 4_566 ?
C2 O1 C1 103.5(3) . . ?
C1 N1 N2 108.1(4) . . ?
C1 N1 Ni1 136.7(3) . . ?
N2 N1 Ni1 114.9(3) . . ?
C2 N2 N1 105.0(4) . . ?
C5 N3 C6 117.0(4) . . ?
C5 N3 Ni1 123.6(3) . 2_545 ?
C6 N3 Ni1 119.4(3) . 2_545 ?
N1 C1 O1 109.3(4) . . ?
N1 C1 S1 130.7(4) . . ?
O1 C1 S1 119.9(3) . . ?
N2 C2 O1 114.1(4) . . ?
N2 C2 C3 125.9(5) . . ?
O1 C2 C3 120.1(4) . . ?
C7 C3 C4 118.5(5) . . ?
C7 C3 C2 118.5(4) . . ?
C4 C3 C2 122.9(5) . . ?
C5 C4 C3 118.5(5) . . ?
N3 C5 C4 124.0(4) . . ?
N3 C6 C7 122.5(5) . . ?
C3 C7 C6 119.5(5) . . ?

_diffrn_measured_fraction_theta_max 0.928
_diffrn_reflns_theta_full        28.27
_diffrn_measured_fraction_theta_full 0.928
_refine_diff_density_max         1.073
_refine_diff_density_min         -0.733
_refine_diff_density_rms         0.117
