####################################################################### 
# 
# This file contains crystal structure data downloaded from the 
# Cambridge Structural Database (CSD) hosted by the Cambridge 
# Crystallographic Data Centre (CCDC).
# 
# Full information about CCDC data access policies and citation 
# guidelines are available at http://www.ccdc.cam.ac.uk/access/V1 
# 
# Audit and citation data items may have been added by the CCDC. 
# Please retain this information to preserve the provenance of 
# this file and to allow appropriate attribution of the data. 
# 
#######################################################################

data_1
_audit_block_doi                 10.5517/ccnq8l6
_database_code_depnum_ccdc_archive 'CCDC 617228'
loop_
_citation_id
_citation_doi
_citation_year
1 10.1002/anie.200603270 2007
_audit_update_record             
;
2006-08-07 deposited with the CCDC.	2024-07-14 downloaded from the CCDC.
;

_audit_creation_method           SHELXL-97
_chemical_name_systematic        
;
?
;
_chemical_name_common            ?
_chemical_melting_point          ?
_chemical_formula_moiety         ?
_chemical_formula_sum            'C11 H15 Ag2 N4 O0.50'
_chemical_formula_weight         427.01

loop_
_atom_type_symbol
_atom_type_description
_atom_type_scat_dispersion_real
_atom_type_scat_dispersion_imag
_atom_type_scat_source
C C 0.0033 0.0016 'International Tables Vol C Tables 4.2.6.8 and 6.1.1.4'
H H 0.0000 0.0000 'International Tables Vol C Tables 4.2.6.8 and 6.1.1.4'
N N 0.0061 0.0033 'International Tables Vol C Tables 4.2.6.8 and 6.1.1.4'
O O 0.0106 0.0060 'International Tables Vol C Tables 4.2.6.8 and 6.1.1.4'
Ag Ag -0.8971 1.1015 'International Tables Vol C Tables 4.2.6.8 and 6.1.1.4'

_symmetry_cell_setting           ?
_symmetry_space_group_name_H-M   ?

loop_
_symmetry_equiv_pos_as_xyz
'x, y, z'
'-x+1/2, -y, z+1/2'
'-x, y+1/2, -z+1/2'
'x+1/2, -y+1/2, -z'
'z, x, y'
'z+1/2, -x+1/2, -y'
'-z+1/2, -x, y+1/2'
'-z, x+1/2, -y+1/2'
'y, z, x'
'-y, z+1/2, -x+1/2'
'y+1/2, -z+1/2, -x'
'-y+1/2, -z, x+1/2'
'y+1/4, x+1/4, z+1/4'
'-y+1/4, -x+3/4, z+3/4'
'y+3/4, -x+1/4, -z+3/4'
'-y+3/4, x+3/4, -z+1/4'
'x+1/4, z+1/4, y+1/4'
'-x+3/4, z+3/4, -y+1/4'
'-x+1/4, -z+3/4, y+3/4'
'x+3/4, -z+1/4, -y+3/4'
'z+1/4, y+1/4, x+1/4'
'z+3/4, -y+1/4, -x+3/4'
'-z+3/4, y+3/4, -x+1/4'
'-z+1/4, -y+3/4, x+3/4'
'x+1/2, y+1/2, z+1/2'
'-x+1, -y+1/2, z+1'
'-x+1/2, y+1, -z+1'
'x+1, -y+1, -z+1/2'
'z+1/2, x+1/2, y+1/2'
'z+1, -x+1, -y+1/2'
'-z+1, -x+1/2, y+1'
'-z+1/2, x+1, -y+1'
'y+1/2, z+1/2, x+1/2'
'-y+1/2, z+1, -x+1'
'y+1, -z+1, -x+1/2'
'-y+1, -z+1/2, x+1'
'y+3/4, x+3/4, z+3/4'
'-y+3/4, -x+5/4, z+5/4'
'y+5/4, -x+3/4, -z+5/4'
'-y+5/4, x+5/4, -z+3/4'
'x+3/4, z+3/4, y+3/4'
'-x+5/4, z+5/4, -y+3/4'
'-x+3/4, -z+5/4, y+5/4'
'x+5/4, -z+3/4, -y+5/4'
'z+3/4, y+3/4, x+3/4'
'z+5/4, -y+3/4, -x+5/4'
'-z+5/4, y+5/4, -x+3/4'
'-z+3/4, -y+5/4, x+5/4'

_cell_length_a                   27.147(2)
_cell_length_b                   27.147(2)
_cell_length_c                   27.147(2)
_cell_angle_alpha                90.00
_cell_angle_beta                 90.00
_cell_angle_gamma                90.00
_cell_volume                     20006(3)
_cell_formula_units_Z            48
_cell_measurement_temperature    213(2)
_cell_measurement_reflns_used    ?
_cell_measurement_theta_min      ?
_cell_measurement_theta_max      ?

_exptl_crystal_description       ?
_exptl_crystal_colour            ?
_exptl_crystal_size_max          0.12
_exptl_crystal_size_mid          0.10
_exptl_crystal_size_min          0.10
_exptl_crystal_density_meas      ?
_exptl_crystal_density_diffrn    1.701
_exptl_crystal_density_method    'not measured'
_exptl_crystal_F_000             9936
_exptl_absorpt_coefficient_mu    2.339
_exptl_absorpt_correction_type   ?
_exptl_absorpt_correction_T_min  0.7666
_exptl_absorpt_correction_T_max  0.7997
_exptl_absorpt_process_details   ?

_exptl_special_details           
;
?
;

_diffrn_ambient_temperature      213(2)
_diffrn_radiation_wavelength     0.71073
_diffrn_radiation_type           MoK\a
_diffrn_radiation_source         'fine-focus sealed tube'
_diffrn_radiation_monochromator  graphite
_diffrn_measurement_device_type  ?
_diffrn_measurement_method       ?
_diffrn_detector_area_resol_mean ?
_diffrn_standards_number         ?
_diffrn_standards_interval_count ?
_diffrn_standards_interval_time  ?
_diffrn_standards_decay_%        ?
_diffrn_reflns_number            33326
_diffrn_reflns_av_R_equivalents  0.0572
_diffrn_reflns_av_sigmaI/netI    0.0263
_diffrn_reflns_limit_h_min       -33
_diffrn_reflns_limit_h_max       22
_diffrn_reflns_limit_k_min       -33
_diffrn_reflns_limit_k_max       22
_diffrn_reflns_limit_l_min       -31
_diffrn_reflns_limit_l_max       33
_diffrn_reflns_theta_min         3.00
_diffrn_reflns_theta_max         25.98
_reflns_number_total             3279
_reflns_number_gt                2875
_reflns_threshold_expression     >2sigma(I)

_computing_data_collection       ?
_computing_cell_refinement       ?
_computing_data_reduction        ?
_computing_structure_solution    'SHELXS-97 (Sheldrick, 1990)'
_computing_structure_refinement  'SHELXL-97 (Sheldrick, 1997)'
_computing_molecular_graphics    ?
_computing_publication_material  ?

_refine_special_details          
;
Refinement of F^2^ against ALL reflections. The weighted R-factor wR and
goodness of fit S are based on F^2^, conventional R-factors R are based
on F, with F set to zero for negative F^2^. The threshold expression of
F^2^ > 2sigma(F^2^) is used only for calculating R-factors(gt) etc. and is
not relevant to the choice of reflections for refinement. R-factors based
on F^2^ are statistically about twice as large as those based on F, and R-
factors based on ALL data will be even larger.
;

_refine_ls_structure_factor_coef Fsqd
_refine_ls_matrix_type           full
_refine_ls_weighting_scheme      calc
_refine_ls_weighting_details     
'calc w=1/[\s^2^(Fo^2^)+(0.0210P)^2^+304.0187P] where P=(Fo^2^+2Fc^2^)/3'
_atom_sites_solution_primary     direct
_atom_sites_solution_secondary   difmap
_atom_sites_solution_hydrogens   geom
_refine_ls_hydrogen_treatment    mixed
_refine_ls_extinction_method     none
_refine_ls_extinction_coef       ?
_refine_ls_abs_structure_details 'Flack H D (1983), Acta Cryst. A39, 876-881'
_refine_ls_abs_structure_Flack   0.06(10)
_refine_ls_number_reflns         3279
_refine_ls_number_parameters     178
_refine_ls_number_restraints     0
_refine_ls_R_factor_all          0.0883
_refine_ls_R_factor_gt           0.0773
_refine_ls_wR_factor_ref         0.1318
_refine_ls_wR_factor_gt          0.1263
_refine_ls_goodness_of_fit_ref   1.035
_refine_ls_restrained_S_all      1.035
_refine_ls_shift/su_max          0.001
_refine_ls_shift/su_mean         0.000

loop_
_atom_site_label
_atom_site_type_symbol
_atom_site_fract_x
_atom_site_fract_y
_atom_site_fract_z
_atom_site_U_iso_or_equiv
_atom_site_adp_type
_atom_site_occupancy
_atom_site_symmetry_multiplicity
_atom_site_calc_flag
_atom_site_refinement_flags
_atom_site_disorder_assembly
_atom_site_disorder_group
Ag1 Ag 0.31585(4) 0.26411(4) 0.71981(4) 0.0846(3) Uani 1 1 d . . .
Ag2 Ag 0.52975(4) 0.47864(4) 0.88555(4) 0.0856(3) Uani 1 1 d . . .
N1 N 0.3289(4) 0.3170(4) 0.7714(4) 0.074(3) Uani 1 1 d . . .
N2 N 0.2977(4) 0.3229(4) 0.8112(4) 0.080(3) Uani 1 1 d . . .
N3 N 0.4762(4) 0.4261(4) 0.8798(4) 0.077(3) Uani 1 1 d . . .
N4 N 0.4716(4) 0.3887(4) 0.9137(4) 0.084(3) Uani 1 1 d . . .
C1 C 0.4147(5) 0.3389(7) 0.7469(5) 0.108(5) Uani 1 1 d . . .
H1A H 0.4448 0.3482 0.7638 0.162 Uiso 1 1 calc R . .
H1B H 0.4072 0.3631 0.7217 0.162 Uiso 1 1 calc R . .
H1C H 0.4190 0.3069 0.7317 0.162 Uiso 1 1 calc R . .
C2 C 0.3733(6) 0.3367(5) 0.7831(5) 0.083(4) Uani 1 1 d . . .
C3 C 0.3705(5) 0.3576(5) 0.8309(5) 0.080(4) Uani 1 1 d . . .
C4 C 0.3238(6) 0.3489(5) 0.8447(5) 0.085(4) Uani 1 1 d . . .
C5 C 0.3000(6) 0.3585(6) 0.8961(6) 0.110(6) Uani 1 1 d . . .
H5A H 0.3244 0.3729 0.9179 0.165 Uiso 1 1 calc R . .
H5B H 0.2884 0.3277 0.9098 0.165 Uiso 1 1 calc R . .
H5C H 0.2725 0.3810 0.8924 0.165 Uiso 1 1 calc R . .
C6 C 0.4331(5) 0.4566(5) 0.8053(5) 0.088(4) Uani 1 1 d . . .
H6A H 0.4392 0.4899 0.8168 0.132 Uiso 1 1 calc R . .
H6B H 0.4000 0.4543 0.7922 0.132 Uiso 1 1 calc R . .
H6C H 0.4567 0.4483 0.7797 0.132 Uiso 1 1 calc R . .
C7 C 0.4387(5) 0.4214(5) 0.8473(5) 0.080(4) Uani 1 1 d . . .
C8 C 0.4120(5) 0.3807(5) 0.8595(6) 0.081(4) Uani 1 1 d . . .
C9 C 0.4331(6) 0.3623(5) 0.9008(5) 0.084(4) Uani 1 1 d . . .
C10 C 0.4211(7) 0.3183(6) 0.9300(6) 0.114(5) Uani 1 1 d . . .
H10A H 0.4151 0.3277 0.9639 0.170 Uiso 1 1 calc R . .
H10B H 0.4485 0.2954 0.9287 0.170 Uiso 1 1 calc R . .
H10C H 0.3919 0.3027 0.9166 0.170 Uiso 1 1 calc R . .
O1 O 0.415(4) 0.163(4) 0.854(4) 0.20(4) Uiso 0.21 1 d P A 1
C11 C 0.441(5) 0.182(4) 0.856(5) 0.16(4) Uiso 0.25 1 d P B 2
C14 C 0.419(3) 0.2002(19) 0.814(3) 0.17(4) Uiso 0.25 1 d P B 2
H14 H 0.3863 0.2088 0.8239 0.07(3) Uiso 1 1 d R B 2
H14A H 0.4072 0.1886 0.7831 0.07(3) Uiso 1 1 d R B 2
C12 C 0.443(3) 0.189(3) 0.793(3) 0.13(3) Uiso 0.25 1 d P C 3
O2 O 0.447(2) 0.148(2) 0.812(2) 0.15(2) Uiso 0.25 1 d P D 4
C13 C 0.457(2) 0.179(3) 0.829(3) 0.13(3) Uiso 0.25 1 d P D 4
H13 H 0.4531 0.2135 0.8353 0.06(3) Uiso 1 1 d R D 4
O3 O 0.358(6) 0.142(6) 0.858(6) 0.21(11) Uiso 0.12 3 d SP E 5

loop_
_atom_site_aniso_label
_atom_site_aniso_U_11
_atom_site_aniso_U_22
_atom_site_aniso_U_33
_atom_site_aniso_U_23
_atom_site_aniso_U_13
_atom_site_aniso_U_12
Ag1 0.0949(7) 0.0799(7) 0.0791(7) -0.0103(6) -0.0033(6) -0.0019(6)
Ag2 0.0759(6) 0.0887(7) 0.0922(7) -0.0020(6) -0.0012(5) -0.0096(6)
N1 0.076(7) 0.072(6) 0.073(6) 0.001(6) 0.002(6) -0.016(5)
N2 0.082(7) 0.074(7) 0.084(8) 0.003(6) -0.025(6) -0.010(6)
N3 0.068(7) 0.070(6) 0.092(8) 0.002(6) 0.002(6) -0.006(6)
N4 0.084(7) 0.099(8) 0.069(6) 0.005(6) 0.004(6) -0.009(7)
C1 0.085(10) 0.152(15) 0.087(10) -0.012(10) 0.026(8) -0.016(10)
C2 0.107(11) 0.069(8) 0.073(8) 0.002(7) -0.006(8) 0.001(7)
C3 0.062(8) 0.091(9) 0.087(9) 0.013(7) -0.019(7) -0.010(7)
C4 0.089(10) 0.072(9) 0.095(10) -0.014(7) 0.018(8) 0.007(7)
C5 0.112(12) 0.108(12) 0.111(12) -0.041(10) 0.014(10) -0.024(10)
C6 0.087(9) 0.081(9) 0.096(10) 0.008(8) -0.018(8) -0.015(7)
C7 0.072(9) 0.090(10) 0.078(9) 0.008(8) -0.002(7) -0.012(7)
C8 0.082(9) 0.069(8) 0.092(10) -0.012(7) 0.011(8) 0.000(7)
C9 0.081(9) 0.096(10) 0.074(9) 0.006(8) -0.006(7) -0.024(8)
C10 0.145(15) 0.111(12) 0.085(10) 0.010(10) -0.002(10) -0.023(11)

_geom_special_details            
;
All esds (except the esd in the dihedral angle between two l.s. planes)
are estimated using the full covariance matrix. The cell esds are taken
into account individually in the estimation of esds in distances, angles
and torsion angles; correlations between esds in cell parameters are only
used when they are defined by crystal symmetry. An approximate (isotropic)
treatment of cell esds is used for estimating esds involving l.s. planes.
;

loop_
_geom_bond_atom_site_label_1
_geom_bond_atom_site_label_2
_geom_bond_distance
_geom_bond_site_symmetry_2
_geom_bond_publ_flag
Ag1 N1 2.035(10) . ?
Ag1 N2 2.043(11) 6_456 ?
Ag1 Ag2 3.3191(15) 37_444 ?
Ag2 N3 2.042(10) . ?
Ag2 N4 2.046(12) 7_665 ?
Ag2 Ag1 3.3191(15) 13 ?
N1 C2 1.358(16) . ?
N1 N2 1.382(14) . ?
N2 C4 1.353(17) . ?
N2 Ag1 2.043(11) 12_565 ?
N3 C7 1.355(16) . ?
N3 N4 1.375(14) . ?
N4 C9 1.315(16) . ?
N4 Ag2 2.046(12) 10_646 ?
C1 C2 1.495(18) . ?
C2 C3 1.417(18) . ?
C3 C4 1.345(19) . ?
C3 C8 1.506(17) . ?
C4 C5 1.558(19) . ?
C6 C7 1.494(17) . ?
C7 C8 1.363(19) . ?
C8 C9 1.353(19) . ?
C9 C10 1.469(18) . ?
C11 C14 1.37(13) . ?
O2 C13 1.01(9) . ?

loop_
_geom_angle_atom_site_label_1
_geom_angle_atom_site_label_2
_geom_angle_atom_site_label_3
_geom_angle
_geom_angle_site_symmetry_1
_geom_angle_site_symmetry_3
_geom_angle_publ_flag
N1 Ag1 N2 168.4(4) . 6_456 ?
N1 Ag1 Ag2 120.5(3) . 37_444 ?
N2 Ag1 Ag2 70.7(3) 6_456 37_444 ?
N3 Ag2 N4 176.3(4) . 7_665 ?
N3 Ag2 Ag1 117.4(3) . 13 ?
N4 Ag2 Ag1 66.2(3) 7_665 13 ?
C2 N1 N2 108.3(11) . . ?
C2 N1 Ag1 126.5(9) . . ?
N2 N1 Ag1 120.9(7) . . ?
C4 N2 N1 105.5(11) . . ?
C4 N2 Ag1 133.2(10) . 12_565 ?
N1 N2 Ag1 119.0(8) . 12_565 ?
C7 N3 N4 107.3(11) . . ?
C7 N3 Ag2 130.6(9) . . ?
N4 N3 Ag2 122.0(9) . . ?
C9 N4 N3 107.3(12) . . ?
C9 N4 Ag2 134.5(10) . 10_646 ?
N3 N4 Ag2 118.2(9) . 10_646 ?
N1 C2 C3 109.1(12) . . ?
N1 C2 C1 121.9(13) . . ?
C3 C2 C1 128.7(13) . . ?
C4 C3 C2 103.6(12) . . ?
C4 C3 C8 129.4(14) . . ?
C2 C3 C8 126.9(13) . . ?
C3 C4 N2 113.4(13) . . ?
C3 C4 C5 127.7(14) . . ?
N2 C4 C5 118.2(13) . . ?
N3 C7 C8 108.5(12) . . ?
N3 C7 C6 120.9(12) . . ?
C8 C7 C6 130.6(14) . . ?
C9 C8 C7 106.1(13) . . ?
C9 C8 C3 126.2(13) . . ?
C7 C8 C3 127.5(14) . . ?
N4 C9 C8 110.8(12) . . ?
N4 C9 C10 118.4(13) . . ?
C8 C9 C10 130.7(14) . . ?

_diffrn_measured_fraction_theta_max 0.998
_diffrn_reflns_theta_full        25.98
_diffrn_measured_fraction_theta_full 0.998
_refine_diff_density_max         0.425
_refine_diff_density_min         -0.377
_refine_diff_density_rms         0.075
