
#######################################################################
#
#                 Cambridge Crystallographic Data Centre
#                                CCDC
#
#######################################################################
#
# If this CIF has been generated from an entry in the Cambridge
# Structural Database, then it will include bibliographic, chemical,
# crystal, experimental, refinement or atomic coordinate data resulting
# from the CCDC's data processing and validation procedures.
#
#######################################################################

data_CSD_CIF_YEVRUN
_audit_creation_date 2007-04-11
_audit_creation_method CSD-ConQuest-V1
_database_code_CSD YEVRUN
_database_code_depnum_ccdc_archive 'CCDC 618935'
_chemical_formula_sum 'C3 H18 Am1 F9 O18 S3'
_chemical_formula_moiety
;
H18 Am1 O9 3+,3(C1 F3 O3 S1 1-)
;
_journal_coden_Cambridge 179
_journal_volume 46
_journal_year 2007
_journal_page_first 919
_journal_name_full 'Angew.Chem.,Int.Ed. '
loop_
_publ_author_name
"P.Lindqvist-Reis"
"C.Apostolidis"
"J.Rebizant"
"A.Morgenstern"
"R.Klenze"
"O.Walter"
"T.Fanghaenel"
"R.G.Haire"
_chemical_name_systematic
;
Nona-aqua-americium(iii) tris(trifluoromethanesulfonate)
;
_chemical_name_common
;
Teaching Subset: Fundamental Chemistry, Symmetry
;
_cell_volume   1240.327
_exptl_crystal_colour 'colorless'
_exptl_crystal_density_diffrn 2.282
_exptl_crystal_description 'hexagonal'
_diffrn_ambient_temperature 293
#These two values have been output from a single CSD field.
_refine_ls_R_factor_gt 0.0239
_refine_ls_wR_factor_gt 0.0239
_symmetry_cell_setting hexagonal
_symmetry_space_group_name_H-M 'P 63/m'
_symmetry_Int_Tables_number 176
loop_
_symmetry_equiv_pos_site_id
_symmetry_equiv_pos_as_xyz
1 x,y,z
2 -y,x-y,z
3 y,-x+y,1/2+z
4 -x+y,-x,z
5 x-y,x,1/2+z
6 -x,-y,1/2+z
7 -x,-y,-z
8 y,-x+y,-z
9 -y,x-y,-1/2-z
10 x-y,x,-z
11 -x+y,-x,-1/2-z
12 x,y,-1/2-z
_cell_length_a 13.854(3)
_cell_length_b 13.854(3)
_cell_length_c 7.462(2)
_cell_angle_alpha 90
_cell_angle_beta 90
_cell_angle_gamma 120
_cell_formula_units_Z 2
loop_
_atom_type_symbol
_atom_type_radius_bond
C 0.68
H 0.23
Am 1.51
F 0.64
O 0.68
S 1.02
loop_
_atom_site_label
_atom_site_type_symbol
_atom_site_fract_x
_atom_site_fract_y
_atom_site_fract_z
Am1 Am 0.33330 0.66670 0.25000
O1 O 0.1402(6) 0.6516(7) 0.25000
O2 O 0.2068(3) 0.5423(3) 0.4843(6)
H1 H 0.119(8) 0.663(9) 0.336(6)
H2 H 0.142(5) 0.497(8) 0.454(16)
H3 H 0.220(9) 0.513(9) 0.563(12)
O3 O 0.3808(4) 0.3983(4) 0.9126(6)
O4 O 0.2502(6) 0.4316(6) 0.75000
S1 S 0.3188(2) 0.3807(2) 0.75000
C1 C 0.2198(11) 0.2306(11) 0.75000
F1 F 0.1583(5) 0.2045(5) 0.6071(10)
F2 F 0.2746(7) 0.1759(6) 0.75000
O1A O 0.3484(6) 0.4886(7) 0.25000
O1C O 0.5114(6) 0.8598(7) 0.25000
O2A O 0.4577(3) 0.6645(3) 0.4843(6)
O2C O 0.3355(3) 0.7932(3) 0.4843(6)
O2K O 0.2068(3) 0.5423(3) 0.0157(6)
O2H O 0.4577(3) 0.6645(3) 0.0157(6)
O2J O 0.3355(3) 0.7932(3) 0.0157(6)
H1K H 0.119(8) 0.663(9) 0.164(6)
H1A H 0.337(8) 0.456(9) 0.336(6)
H1H H 0.337(8) 0.456(9) 0.164(6)
H1C H 0.544(8) 0.881(9) 0.336(6)
H1J H 0.544(8) 0.881(9) 0.164(6)
H2A H 0.503(5) 0.645(8) 0.454(16)
H2C H 0.355(5) 0.858(8) 0.454(16)
H2K H 0.142(5) 0.497(8) 0.046(16)
H2H H 0.503(5) 0.645(8) 0.046(16)
H2J H 0.355(5) 0.858(8) 0.046(16)
H3A H 0.487(9) 0.707(9) 0.563(12)
H3C H 0.293(9) 0.780(9) 0.563(12)
H3K H 0.220(9) 0.513(9) -0.063(12)
H3H H 0.487(9) 0.707(9) -0.063(12)
H3J H 0.293(9) 0.780(9) -0.063(12)
O3K O 0.3808(4) 0.3983(4) 0.5874(6)
F1K F 0.1583(5) 0.2045(5) 0.8929(10)
#END
