
#######################################################################
#
#                 Cambridge Crystallographic Data Centre
#                                CCDC
#
#######################################################################
#
# If this CIF has been generated from an entry in the Cambridge
# Structural Database, then it will include bibliographic, chemical,
# crystal, experimental, refinement or atomic coordinate data resulting
# from the CCDC's data processing and validation procedures.
#
#######################################################################

data_CSD_CIF_YEVROH
_audit_creation_date 2007-04-11
_audit_creation_method CSD-ConQuest-V1
_database_code_CSD YEVROH
_database_code_depnum_ccdc_archive 'CCDC 618933'
_chemical_formula_sum 'C3 H18 Cm1 F9 O18 S3'
_chemical_formula_moiety
;
H18 Cm1 O9 3+,3(C1 F3 O3 S1 1-)
;
_journal_coden_Cambridge 179
_journal_volume 46
_journal_year 2007
_journal_page_first 919
_journal_name_full 'Angew.Chem.,Int.Ed. '
loop_
_publ_author_name
"P.Lindqvist-Reis"
"C.Apostolidis"
"J.Rebizant"
"A.Morgenstern"
"R.Klenze"
"O.Walter"
"T.Fanghaenel"
"R.G.Haire"
_chemical_name_systematic
;
Nona-aqua-curium(iii) tris(trifluoromethanesulfonate)
;
_chemical_name_common
;
Teaching Subset: Fundamental Chemistry, Symmetry
;
_cell_volume   1235.405
_exptl_crystal_colour 'colorless'
_exptl_crystal_density_diffrn 2.302
_exptl_crystal_description 'hexagonal'
_diffrn_ambient_temperature 293
#These two values have been output from a single CSD field.
_refine_ls_R_factor_gt 0.0306
_refine_ls_wR_factor_gt 0.0306
_symmetry_cell_setting hexagonal
_symmetry_space_group_name_H-M 'P 63/m'
_symmetry_Int_Tables_number 176
loop_
_symmetry_equiv_pos_site_id
_symmetry_equiv_pos_as_xyz
1 x,y,z
2 -y,x-y,z
3 -x+y,-x,z
4 y,-x+y,1/2+z
5 x-y,x,1/2+z
6 -x,-y,1/2+z
7 -x,-y,-z
8 y,-x+y,-z
9 x-y,x,-z
10 -y,x-y,-1/2-z
11 -x+y,-x,-1/2-z
12 x,y,-1/2-z
_cell_length_a 13.8352(19)
_cell_length_b 13.8352(19)
_cell_length_c 7.4526(13)
_cell_angle_alpha 90
_cell_angle_beta 90
_cell_angle_gamma 120
_cell_formula_units_Z 2
loop_
_atom_type_symbol
_atom_type_radius_bond
C 0.68
H 0.23
Cm 1.56
F 0.64
O 0.68
S 1.02
loop_
_atom_site_label
_atom_site_type_symbol
_atom_site_fract_x
_atom_site_fract_y
_atom_site_fract_z
Cm1 Cm 0.33330 0.66670 0.25000
O1 O 0.1413(8) 0.6524(9) 0.25000
O2 O 0.2075(5) 0.5431(5) 0.4839(9)
H1 H 0.114(10) 0.660(12) 0.334(6)
H2 H 0.144(6) 0.497(10) 0.46(2)
H3 H 0.225(11) 0.519(12) 0.565(15)
O3 O 0.3802(6) 0.3976(6) 0.9123(9)
O4 O 0.2509(8) 0.4323(8) 0.75000
S1 S 0.3190(3) 0.3811(3) 0.75000
C1 C 0.2191(15) 0.2323(15) 0.75000
F1 F 0.1578(7) 0.2054(7) 0.6090(14)
F2 F 0.2739(10) 0.1750(8) 0.75000
O1A O 0.3476(8) 0.4889(9) 0.25000
O1B O 0.5111(8) 0.8587(9) 0.25000
O2A O 0.4569(5) 0.6644(5) 0.4839(9)
O2B O 0.3356(5) 0.7925(5) 0.4839(9)
O2K O 0.2075(5) 0.5431(5) 0.0161(9)
O2I O 0.4569(5) 0.6644(5) 0.0161(9)
O2J O 0.3356(5) 0.7925(5) 0.0161(9)
H1K H 0.114(10) 0.660(12) 0.166(6)
H1A H 0.34(1) 0.454(12) 0.334(6)
H1I H 0.34(1) 0.454(12) 0.166(6)
H1B H 0.546(10) 0.886(12) 0.334(6)
H1J H 0.546(10) 0.886(12) 0.166(6)
H2A H 0.503(6) 0.647(10) 0.46(2)
H2B H 0.353(6) 0.856(10) 0.46(2)
H2K H 0.144(6) 0.497(10) 0.04(2)
H2I H 0.503(6) 0.647(10) 0.04(2)
H2J H 0.353(6) 0.856(10) 0.04(2)
H3A H 0.481(11) 0.706(12) 0.565(15)
H3B H 0.294(11) 0.775(12) 0.565(15)
H3K H 0.225(11) 0.519(12) -0.065(15)
H3I H 0.481(11) 0.706(12) -0.065(15)
H3J H 0.294(11) 0.775(12) -0.065(15)
O3K O 0.3802(6) 0.3976(6) 0.5877(9)
F1K F 0.1578(7) 0.2054(7) 0.8910(14)
#END
