####################################################################### 
# 
# This file contains crystal structure data downloaded from the 
# Cambridge Structural Database (CSD) hosted by the Cambridge 
# Crystallographic Data Centre (CCDC).
# 
# Full information about CCDC data access policies and citation 
# guidelines are available at http://www.ccdc.cam.ac.uk/access/V1 
# 
# Audit and citation data items may have been added by the CCDC. 
# Please retain this information to preserve the provenance of 
# this file and to allow appropriate attribution of the data. 
# 
#######################################################################

data_comp-2
_audit_block_doi                 10.5517/ccb1tdk
_database_code_depnum_ccdc_archive 'CCDC 299658'
loop_
_citation_id
_citation_doi
_citation_year
1 10.1016/j.molstruc.2006.05.019 2007
_audit_update_record             
;
2006-02-24 deposited with the CCDC.	2024-07-14 downloaded from the CCDC.
;

_audit_creation_method           SHELXL-97
_chemical_name_systematic        
;
?
;
_chemical_name_common            ?
_chemical_melting_point          ?
_chemical_formula_moiety         ?
_chemical_formula_sum            'C44 H38 Cu3 N6 O16 S2'
_chemical_formula_weight         1161.54

loop_
_atom_type_symbol
_atom_type_description
_atom_type_scat_dispersion_real
_atom_type_scat_dispersion_imag
_atom_type_scat_source
C C 0.0033 0.0016 'International Tables Vol C Tables 4.2.6.8 and 6.1.1.4'
H H 0.0000 0.0000 'International Tables Vol C Tables 4.2.6.8 and 6.1.1.4'
Cu Cu 0.3201 1.2651 'International Tables Vol C Tables 4.2.6.8 and 6.1.1.4'
N N 0.0061 0.0033 'International Tables Vol C Tables 4.2.6.8 and 6.1.1.4'
O O 0.0106 0.0060 'International Tables Vol C Tables 4.2.6.8 and 6.1.1.4'
S S 0.1246 0.1234 'International Tables Vol C Tables 4.2.6.8 and 6.1.1.4'

_symmetry_cell_setting           ?
_symmetry_space_group_name_H-M   ?

loop_
_symmetry_equiv_pos_as_xyz
'x, y, z'

_cell_length_a                   8.6730(19)
_cell_length_b                   9.320(2)
_cell_length_c                   14.037(3)
_cell_angle_alpha                80.429(4)
_cell_angle_beta                 81.957(4)
_cell_angle_gamma                84.640(4)
_cell_volume                     1105.0(4)
_cell_formula_units_Z            1
_cell_measurement_temperature    293(2)
_cell_measurement_reflns_used    ?
_cell_measurement_theta_min      ?
_cell_measurement_theta_max      ?

_exptl_crystal_description       ?
_exptl_crystal_colour            ?
_exptl_crystal_size_max          ?
_exptl_crystal_size_mid          ?
_exptl_crystal_size_min          ?
_exptl_crystal_density_meas      ?
_exptl_crystal_density_diffrn    1.746
_exptl_crystal_density_method    'not measured'
_exptl_crystal_F_000             591
_exptl_absorpt_coefficient_mu    1.608
_exptl_absorpt_correction_type   ?
_exptl_absorpt_correction_T_min  ?
_exptl_absorpt_correction_T_max  ?
_exptl_absorpt_process_details   ?

_exptl_special_details           
;
?
;

_diffrn_ambient_temperature      293(2)
_diffrn_radiation_wavelength     0.71073
_diffrn_radiation_type           MoK\a
_diffrn_radiation_source         'fine-focus sealed tube'
_diffrn_radiation_monochromator  graphite
_diffrn_measurement_device_type  ?
_diffrn_measurement_method       ?
_diffrn_detector_area_resol_mean ?
_diffrn_standards_number         ?
_diffrn_standards_interval_count ?
_diffrn_standards_interval_time  ?
_diffrn_standards_decay_%        ?
_diffrn_reflns_number            8685
_diffrn_reflns_av_R_equivalents  0.0132
_diffrn_reflns_av_sigmaI/netI    0.0407
_diffrn_reflns_limit_h_min       -10
_diffrn_reflns_limit_h_max       10
_diffrn_reflns_limit_k_min       -11
_diffrn_reflns_limit_k_max       11
_diffrn_reflns_limit_l_min       -17
_diffrn_reflns_limit_l_max       17
_diffrn_reflns_theta_min         2.22
_diffrn_reflns_theta_max         26.10
_reflns_number_total             7744
_reflns_number_gt                7542
_reflns_threshold_expression     >2sigma(I)

_computing_data_collection       ?
_computing_cell_refinement       ?
_computing_data_reduction        ?
_computing_structure_solution    ?
_computing_structure_refinement  'SHELXL-97 (Sheldrick, 1997)'
_computing_molecular_graphics    ?
_computing_publication_material  ?

_refine_special_details          
;
Refinement of F^2^ against ALL reflections. The weighted R-factor wR and
goodness of fit S are based on F^2^, conventional R-factors R are based
on F, with F set to zero for negative F^2^. The threshold expression of
F^2^ > 2sigma(F^2^) is used only for calculating R-factors(gt) etc. and is
not relevant to the choice of reflections for refinement. R-factors based
on F^2^ are statistically about twice as large as those based on F, and R-
factors based on ALL data will be even larger.
;

_refine_ls_structure_factor_coef Fsqd
_refine_ls_matrix_type           full
_refine_ls_weighting_scheme      calc
_refine_ls_weighting_details     
'calc w=1/[\s^2^(Fo^2^)+(0.0541P)^2^+1.5426P] where P=(Fo^2^+2Fc^2^)/3'
_atom_sites_solution_primary     direct
_atom_sites_solution_secondary   difmap
_atom_sites_solution_hydrogens   geom
_refine_ls_hydrogen_treatment    mixed
_refine_ls_extinction_method     none
_refine_ls_extinction_coef       ?
_refine_ls_abs_structure_details 'Flack H D (1983), Acta Cryst. A39, 876-881'
_refine_ls_abs_structure_Flack   0.420(14)
_refine_ls_number_reflns         7744
_refine_ls_number_parameters     640
_refine_ls_number_restraints     3
_refine_ls_R_factor_all          0.0504
_refine_ls_R_factor_gt           0.0492
_refine_ls_wR_factor_ref         0.1175
_refine_ls_wR_factor_gt          0.1168
_refine_ls_goodness_of_fit_ref   1.121
_refine_ls_restrained_S_all      1.121
_refine_ls_shift/su_max          0.012
_refine_ls_shift/su_mean         0.000

loop_
_atom_site_label
_atom_site_type_symbol
_atom_site_fract_x
_atom_site_fract_y
_atom_site_fract_z
_atom_site_U_iso_or_equiv
_atom_site_adp_type
_atom_site_occupancy
_atom_site_symmetry_multiplicity
_atom_site_calc_flag
_atom_site_refinement_flags
_atom_site_disorder_assembly
_atom_site_disorder_group
Cu2 Cu 0.88216(7) 0.12901(7) 0.07389(5) 0.02293(15) Uani 1 1 d . . .
Cu1 Cu 0.70612(7) 0.20975(7) 0.38253(5) 0.02906(18) Uani 1 1 d . . .
Cu3 Cu 0.50919(7) -0.20618(7) -0.32516(5) 0.03238(18) Uani 1 1 d . . .
S2 S -0.26789(17) -0.44766(16) -0.18271(11) 0.0308(3) Uani 1 1 d . . .
S1 S 1.48531(16) 0.45733(16) 0.23893(10) 0.0273(3) Uani 1 1 d . . .
O9 O 0.3553(5) -0.2919(6) -0.3736(3) 0.0393(12) Uani 1 1 d . . .
C6 C 1.3049(7) 0.3912(6) 0.2957(4) 0.0256(12) Uani 1 1 d . . .
C2 C 1.0671(6) 0.2776(6) 0.2921(4) 0.0239(12) Uani 1 1 d . . .
C30 C 0.2150(7) -0.3172(7) -0.3279(4) 0.0301(13) Uani 1 1 d . . .
N6 N 0.6743(6) -0.0782(6) -0.3089(4) 0.0324(12) Uani 1 1 d . . .
O1 O 0.8388(5) 0.1669(5) 0.2666(3) 0.0326(10) Uani 1 1 d . . .
C39 C 0.7813(7) -0.1436(7) -0.4622(4) 0.0309(13) Uani 1 1 d . . .
N2 N 0.5443(6) 0.0796(6) 0.3649(4) 0.0318(12) Uani 1 1 d . . .
C40 C 0.7883(7) -0.0563(7) -0.3841(5) 0.0316(14) Uani 1 1 d . . .
O4 O 1.5292(6) 0.3828(6) 0.1552(4) 0.0543(14) Uani 1 1 d . . .
O5 O 1.5938(6) 0.4232(5) 0.3105(4) 0.0389(11) Uani 1 1 d . . .
O12 O -0.3716(6) -0.4302(6) -0.2573(4) 0.0521(14) Uani 1 1 d . . .
O6 O 1.4564(6) 0.6127(5) 0.2117(4) 0.0550(14) Uani 1 1 d . . .
C12 C 0.4421(7) 0.1365(7) 0.5212(5) 0.0310(14) Uani 1 1 d . . .
C5 C 1.2473(7) 0.4270(7) 0.3875(5) 0.0357(15) Uani 1 1 d . . .
H5 H 1.3071 0.4767 0.4196 0.043 Uiso 1 1 calc R . .
O11 O -0.2398(7) -0.5976(6) -0.1418(4) 0.0560(14) Uani 1 1 d . . .
O10 O -0.3218(6) -0.3549(6) -0.1092(4) 0.0563(14) Uani 1 1 d . . .
C32 C -0.0191(8) -0.4407(8) -0.3261(5) 0.0388(16) Uani 1 1 d . . .
H32 H -0.0734 -0.5020 -0.3531 0.047 Uiso 1 1 calc R . .
C41 C 0.9043(8) 0.0374(8) -0.3840(5) 0.0407(16) Uani 1 1 d . . .
H41 H 0.9822 0.0531 -0.4366 0.049 Uiso 1 1 calc R . .
C36 C 0.7445(10) -0.3162(10) -0.5961(6) 0.053(2) Uani 1 1 d . . .
H36 H 0.7315 -0.3772 -0.6401 0.063 Uiso 1 1 calc R . .
C9 C 0.4753(9) 0.3066(9) 0.6570(5) 0.0468(19) Uani 1 1 d . . .
H9 H 0.4882 0.3670 0.7014 0.056 Uiso 1 1 calc R . .
C1 C 0.9754(6) 0.2036(6) 0.2346(4) 0.0197(11) Uani 1 1 d . . .
C14 C 0.3186(8) -0.0416(8) 0.4417(5) 0.0426(17) Uani 1 1 d . . .
H14 H 0.2427 -0.0591 0.4952 0.051 Uiso 1 1 calc R . .
C16 C 0.4329(9) -0.0819(9) 0.2849(6) 0.052(2) Uani 1 1 d . . .
H16 H 0.4343 -0.1258 0.2299 0.062 Uiso 1 1 calc R . .
C44 C 0.6733(9) -0.0088(9) -0.2333(5) 0.0459(18) Uani 1 1 d . . .
H44 H 0.5929 -0.0231 -0.1821 0.055 Uiso 1 1 calc R . .
C43 C 0.7862(9) 0.0834(9) -0.2272(6) 0.0496(19) Uani 1 1 d . . .
H43 H 0.7837 0.1282 -0.1725 0.059 Uiso 1 1 calc R . .
C7 C 1.2171(7) 0.3169(6) 0.2494(4) 0.0267(12) Uani 1 1 d . . .
H7 H 1.2570 0.2920 0.1888 0.032 Uiso 1 1 calc R . .
C38 C 0.8892(9) -0.1418(9) -0.5454(6) 0.051(2) Uani 1 1 d . . .
H38 H 0.9716 -0.0816 -0.5567 0.061 Uiso 1 1 calc R . .
C17 C 0.5424(8) 0.0129(8) 0.2885(5) 0.0434(17) Uani 1 1 d . . .
H17 H 0.6186 0.0314 0.2352 0.052 Uiso 1 1 calc R . .
O2 O 1.0384(5) 0.1779(5) 0.1517(3) 0.0316(10) Uani 1 1 d . . .
C8 C 0.5810(8) 0.3019(8) 0.5743(5) 0.0405(16) Uani 1 1 d . . .
H8 H 0.6664 0.3583 0.5644 0.049 Uiso 1 1 calc R . .
C42 C 0.9009(9) 0.1069(8) -0.3034(6) 0.0478(18) Uani 1 1 d . . .
H42 H 0.9774 0.1697 -0.3016 0.057 Uiso 1 1 calc R . .
C15 C 0.3217(8) -0.1112(8) 0.3628(6) 0.0478(18) Uani 1 1 d . . .
H15 H 0.2486 -0.1779 0.3625 0.057 Uiso 1 1 calc R . .
N1 N 0.5649(6) 0.2194(6) 0.5080(4) 0.0315(12) Uani 1 1 d . . .
N5 N 0.6566(6) -0.2229(6) -0.4480(4) 0.0324(12) Uani 1 1 d . . .
O13 O 0.8109(5) 0.3361(4) 0.0505(3) 0.0355(10) Uani 1 1 d . . .
O14 O 1.0307(6) 0.1478(5) -0.0639(3) 0.0418(11) Uani 1 1 d . . .
N4 N 0.9312(6) -0.0848(5) 0.1028(4) 0.0284(10) Uani 1 1 d . . .
O3 O 0.8666(5) 0.2888(6) 0.4310(3) 0.0388(12) Uani 1 1 d . . .
N3 N 0.6867(6) 0.0594(5) 0.0390(4) 0.0257(11) Uani 1 1 d . . .
C10 C 0.3508(9) 0.2209(10) 0.6732(5) 0.050(2) Uani 1 1 d . . .
H10 H 0.2795 0.2201 0.7293 0.060 Uiso 1 1 calc R . .
C4 C 1.1028(8) 0.3884(9) 0.4297(5) 0.0424(18) Uani 1 1 d . . .
H4 H 1.0664 0.4116 0.4912 0.051 Uiso 1 1 calc R . .
C13 C 0.4299(7) 0.0548(7) 0.4404(4) 0.0293(13) Uani 1 1 d . . .
C3 C 1.0051(7) 0.3144(7) 0.3839(4) 0.0281(13) Uani 1 1 d . . .
C35 C 0.6387(8) -0.3070(8) -0.5143(5) 0.0418(17) Uani 1 1 d . . .
H35 H 0.5514 -0.3610 -0.5045 0.050 Uiso 1 1 calc R . .
O7 O 0.3704(5) -0.1433(6) -0.2204(4) 0.0447(12) Uani 1 1 d . . .
C22 C 0.6850(7) -0.0857(6) 0.0482(4) 0.0255(12) Uani 1 1 d . . .
O15 O 1.3755(7) 0.5285(8) -0.0216(5) 0.0764(18) Uani 1 1 d . . .
C34 C -0.0033(7) -0.2986(6) -0.2018(4) 0.0242(12) Uani 1 1 d . . .
H34 H -0.0485 -0.2618 -0.1460 0.029 Uiso 1 1 calc R . .
C29 C 0.1467(7) -0.2612(6) -0.2431(4) 0.0257(12) Uani 1 1 d . . .
C18 C 0.5616(8) 0.1405(7) 0.0087(5) 0.0375(14) Uani 1 1 d . . .
H18 H 0.5632 0.2415 0.0001 0.045 Uiso 1 1 calc R . .
O16 O 1.2054(8) 0.3835(6) -0.1251(5) 0.0711(17) Uani 1 1 d . . .
C33 C -0.0861(7) -0.3879(6) -0.2411(4) 0.0270(12) Uani 1 1 d . . .
C26 C 1.1010(8) -0.2961(8) 0.1375(5) 0.0479(17) Uani 1 1 d . . .
H26 H 1.1952 -0.3383 0.1572 0.057 Uiso 1 1 calc R . .
C31 C 0.1257(8) -0.4033(9) -0.3699(5) 0.0440(18) Uani 1 1 d . . .
H31 H 0.1660 -0.4351 -0.4283 0.053 Uiso 1 1 calc R . .
C23 C 0.8288(7) -0.1676(6) 0.0805(4) 0.0272(12) Uani 1 1 d . . .
C11 C 0.3343(8) 0.1358(9) 0.6036(5) 0.0402(17) Uani 1 1 d . . .
H11 H 0.2501 0.0779 0.6125 0.048 Uiso 1 1 calc R . .
C21 C 0.5593(8) -0.1509(7) 0.0298(4) 0.0358(14) Uani 1 1 d . . .
H21 H 0.5606 -0.2520 0.0371 0.043 Uiso 1 1 calc R . .
C27 C 1.0656(7) -0.1465(7) 0.1308(5) 0.0335(14) Uani 1 1 d . . .
H27 H 1.1373 -0.0884 0.1461 0.040 Uiso 1 1 calc R . .
C28 C 0.2250(8) -0.1609(7) -0.1946(5) 0.0333(14) Uani 1 1 d . . .
C25 C 0.9953(10) -0.3792(8) 0.1148(6) 0.055(2) Uani 1 1 d . . .
H25 H 1.0171 -0.4796 0.1193 0.066 Uiso 1 1 calc R . .
C19 C 0.4318(8) 0.0831(8) -0.0102(5) 0.0477(17) Uani 1 1 d . . .
H19 H 0.3464 0.1431 -0.0298 0.057 Uiso 1 1 calc R . .
C24 C 0.8572(9) -0.3175(7) 0.0853(6) 0.0449(17) Uani 1 1 d . . .
H24 H 0.7848 -0.3739 0.0691 0.054 Uiso 1 1 calc R . .
C37 C 0.8700(10) -0.2322(11) -0.6106(6) 0.061(2) Uani 1 1 d . . .
H37 H 0.9433 -0.2363 -0.6654 0.073 Uiso 1 1 calc R . .
C20 C 0.4317(8) -0.0656(8) 0.0005(5) 0.0422(16) Uani 1 1 d . . .
H20 H 0.3455 -0.1086 -0.0120 0.051 Uiso 1 1 calc R . .
O8 O 0.1470(5) -0.1020(5) -0.1305(4) 0.0473(12) Uani 1 1 d . . .
H13A H 0.7510 0.3970 0.0806 0.080 Uiso 1 1 d . . .
H13B H 0.8271 0.3770 -0.0093 0.080 Uiso 1 1 d . . .
H14A H 0.9974 0.1945 -0.1159 0.080 Uiso 1 1 d . . .
H14B H 1.1031 0.0856 -0.0820 0.080 Uiso 1 1 d . . .
H15A H 1.4021 0.4983 0.0364 0.080 Uiso 1 1 d . . .
H15B H 1.4534 0.5731 -0.0535 0.080 Uiso 1 1 d . . .
H16A H 1.2059 0.4591 -0.1689 0.080 Uiso 1 1 d . . .
H16B H 1.1697 0.4154 -0.0706 0.080 Uiso 1 1 d . . .

loop_
_atom_site_aniso_label
_atom_site_aniso_U_11
_atom_site_aniso_U_22
_atom_site_aniso_U_33
_atom_site_aniso_U_23
_atom_site_aniso_U_13
_atom_site_aniso_U_12
Cu2 0.0202(3) 0.0227(3) 0.0284(3) -0.0091(2) -0.0041(3) -0.0040(2)
Cu1 0.0241(4) 0.0376(4) 0.0265(4) -0.0063(3) 0.0010(3) -0.0117(3)
Cu3 0.0269(4) 0.0411(4) 0.0301(4) -0.0072(3) 0.0014(3) -0.0122(3)
S2 0.0273(8) 0.0348(8) 0.0304(8) -0.0045(6) -0.0008(6) -0.0081(6)
S1 0.0210(7) 0.0323(7) 0.0296(8) -0.0063(6) -0.0025(6) -0.0063(6)
O9 0.029(2) 0.062(3) 0.032(3) -0.020(2) 0.002(2) -0.017(2)
C6 0.022(3) 0.029(3) 0.028(3) -0.008(2) -0.004(2) -0.006(2)
C2 0.022(3) 0.025(3) 0.026(3) -0.002(2) -0.005(2) -0.002(2)
C30 0.026(3) 0.040(3) 0.026(3) -0.007(3) -0.002(2) -0.009(3)
N6 0.028(3) 0.040(3) 0.031(3) -0.007(2) -0.001(2) -0.013(2)
O1 0.028(2) 0.048(3) 0.026(2) -0.0181(19) 0.0059(17) -0.0149(19)
C39 0.025(3) 0.044(4) 0.023(3) 0.001(3) -0.005(2) -0.007(3)
N2 0.029(3) 0.030(3) 0.037(3) -0.006(2) 0.002(2) -0.011(2)
C40 0.022(3) 0.030(3) 0.041(4) 0.001(3) -0.009(3) 0.002(2)
O4 0.035(3) 0.089(4) 0.045(3) -0.033(3) 0.010(2) -0.024(3)
O5 0.034(3) 0.043(3) 0.042(3) -0.004(2) -0.012(2) -0.010(2)
O12 0.038(3) 0.060(3) 0.058(3) 0.001(3) -0.011(2) -0.018(2)
O6 0.035(3) 0.038(3) 0.084(4) 0.014(3) -0.007(3) -0.008(2)
C12 0.027(3) 0.033(3) 0.030(3) 0.001(3) -0.003(3) -0.003(3)
C5 0.028(3) 0.049(4) 0.037(4) -0.022(3) -0.005(3) -0.009(3)
O11 0.057(3) 0.045(3) 0.062(4) -0.002(3) 0.002(3) -0.010(3)
O10 0.048(3) 0.066(3) 0.056(3) -0.025(3) 0.010(3) -0.010(3)
C32 0.031(3) 0.051(4) 0.040(4) -0.020(3) 0.002(3) -0.015(3)
C41 0.026(3) 0.052(4) 0.044(4) -0.006(3) -0.001(3) -0.014(3)
C36 0.056(5) 0.069(5) 0.039(4) -0.024(4) -0.006(4) -0.006(4)
C9 0.045(4) 0.071(5) 0.032(4) -0.028(4) -0.004(3) -0.008(4)
C1 0.022(3) 0.020(3) 0.020(3) -0.002(2) -0.008(2) -0.008(2)
C14 0.030(3) 0.056(4) 0.041(4) -0.006(3) 0.003(3) -0.015(3)
C16 0.046(4) 0.061(5) 0.059(5) -0.030(4) -0.004(4) -0.015(4)
C44 0.044(4) 0.062(5) 0.033(4) -0.013(3) 0.004(3) -0.015(4)
C43 0.043(4) 0.067(5) 0.045(4) -0.022(4) -0.003(3) -0.013(4)
C7 0.025(3) 0.028(3) 0.028(3) -0.007(2) -0.005(2) 0.002(2)
C38 0.036(4) 0.067(5) 0.050(5) -0.011(4) 0.003(3) -0.017(4)
C17 0.037(4) 0.053(4) 0.044(4) -0.019(3) 0.006(3) -0.017(3)
O2 0.024(2) 0.049(3) 0.028(2) -0.0155(19) -0.0041(17) -0.0114(18)
C8 0.038(4) 0.043(4) 0.042(4) -0.011(3) -0.002(3) -0.010(3)
C42 0.039(4) 0.049(4) 0.059(5) -0.009(4) -0.010(4) -0.018(3)
C15 0.039(4) 0.053(4) 0.056(5) -0.016(4) 0.002(3) -0.025(3)
N1 0.026(3) 0.038(3) 0.030(3) -0.003(2) -0.001(2) -0.007(2)
N5 0.027(3) 0.038(3) 0.033(3) -0.008(2) 0.000(2) -0.008(2)
O13 0.034(2) 0.020(2) 0.051(3) -0.0087(18) 0.003(2) 0.0001(17)
O14 0.042(3) 0.042(3) 0.040(3) -0.012(2) 0.006(2) -0.003(2)
N4 0.029(3) 0.025(2) 0.031(3) -0.004(2) -0.003(2) -0.002(2)
O3 0.026(2) 0.066(3) 0.028(2) -0.015(2) 0.0037(19) -0.020(2)
N3 0.025(3) 0.028(3) 0.026(3) -0.010(2) -0.004(2) -0.002(2)
C10 0.034(4) 0.083(6) 0.034(4) -0.020(4) 0.004(3) -0.003(4)
C4 0.030(4) 0.072(5) 0.031(4) -0.028(3) 0.005(3) -0.011(3)
C13 0.027(3) 0.032(3) 0.027(3) 0.001(2) 0.001(3) -0.005(3)
C3 0.020(3) 0.036(3) 0.030(3) -0.006(2) -0.006(2) -0.003(2)
C35 0.037(4) 0.049(4) 0.041(4) -0.014(3) 0.003(3) -0.012(3)
O7 0.030(2) 0.059(3) 0.050(3) -0.023(2) 0.003(2) -0.019(2)
C22 0.028(3) 0.029(3) 0.021(3) -0.005(2) -0.001(2) -0.012(2)
O15 0.058(4) 0.104(5) 0.069(4) -0.013(4) 0.002(3) -0.033(3)
C34 0.025(3) 0.023(3) 0.024(3) -0.003(2) -0.001(2) -0.001(2)
C29 0.027(3) 0.025(3) 0.026(3) -0.004(2) -0.005(2) -0.004(2)
C18 0.034(3) 0.038(3) 0.042(4) -0.010(3) -0.009(3) 0.003(3)
O16 0.092(5) 0.044(3) 0.075(4) 0.011(3) -0.020(3) -0.015(3)
C33 0.021(3) 0.031(3) 0.029(3) -0.005(2) -0.003(2) -0.001(2)
C26 0.039(4) 0.052(4) 0.050(4) -0.005(3) -0.008(3) 0.016(3)
C31 0.037(4) 0.071(5) 0.033(4) -0.032(4) 0.002(3) -0.015(3)
C23 0.034(3) 0.018(3) 0.029(3) -0.001(2) 0.001(2) -0.008(2)
C11 0.026(3) 0.060(5) 0.033(4) -0.006(3) 0.007(3) -0.014(3)
C21 0.040(4) 0.038(4) 0.029(3) -0.006(3) 0.005(3) -0.019(3)
C27 0.027(3) 0.040(4) 0.033(3) -0.005(3) -0.009(3) 0.002(3)
C28 0.039(4) 0.032(3) 0.029(3) -0.005(3) -0.004(3) -0.004(3)
C25 0.063(5) 0.030(4) 0.069(5) 0.002(3) -0.016(4) 0.012(3)
C19 0.034(4) 0.059(5) 0.054(4) -0.016(4) -0.014(3) 0.005(3)
C24 0.048(4) 0.032(3) 0.057(5) -0.007(3) -0.015(4) -0.007(3)
C37 0.049(5) 0.092(7) 0.044(5) -0.022(4) 0.012(4) -0.024(5)
C20 0.034(4) 0.064(5) 0.032(3) -0.011(3) -0.004(3) -0.013(3)
O8 0.035(3) 0.059(3) 0.058(3) -0.041(3) 0.001(2) -0.006(2)

_geom_special_details            
;
All esds (except the esd in the dihedral angle between two l.s. planes)
are estimated using the full covariance matrix. The cell esds are taken
into account individually in the estimation of esds in distances, angles
and torsion angles; correlations between esds in cell parameters are only
used when they are defined by crystal symmetry. An approximate (isotropic)
treatment of cell esds is used for estimating esds involving l.s. planes.
;

loop_
_geom_bond_atom_site_label_