####################################################################### 
# 
# This file contains crystal structure data downloaded from the 
# Cambridge Structural Database (CSD) hosted by the Cambridge 
# Crystallographic Data Centre (CCDC).
# 
# Full information about CCDC data access policies and citation 
# guidelines are available at http://www.ccdc.cam.ac.uk/access/V1 
# 
# Audit and citation data items may have been added by the CCDC. 
# Please retain this information to preserve the provenance of 
# this file and to allow appropriate attribution of the data. 
# 
#######################################################################

data_1
_audit_block_doi                 10.5517/cc1030mr
_database_code_depnum_ccdc_archive 'CCDC 926423'
loop_
_citation_id
_citation_doi
_citation_year
1 10.1007/s11243-013-9715-7 2013
_audit_update_record             
;
2013-02-26 deposited with the CCDC.	2024-07-14 downloaded from the CCDC.
;
#TrackingRef '1.cif'


_audit_creation_method           SHELXL-97
_chemical_name_systematic        
;
?
;
_chemical_name_common            ?
_chemical_melting_point          ?
_chemical_formula_moiety         ?
_chemical_formula_sum            'C30 H28 Cu3 N20 O15 S2'
_chemical_formula_weight         1163.46

loop_
_atom_type_symbol
_atom_type_description
_atom_type_scat_dispersion_real
_atom_type_scat_dispersion_imag
_atom_type_scat_source
C C 0.0033 0.0016 'International Tables Vol C Tables 4.2.6.8 and 6.1.1.4'
H H 0.0000 0.0000 'International Tables Vol C Tables 4.2.6.8 and 6.1.1.4'
N N 0.0061 0.0033 'International Tables Vol C Tables 4.2.6.8 and 6.1.1.4'
O O 0.0106 0.0060 'International Tables Vol C Tables 4.2.6.8 and 6.1.1.4'
S S 0.1246 0.1234 'International Tables Vol C Tables 4.2.6.8 and 6.1.1.4'
Cu Cu 0.3201 1.2651 'International Tables Vol C Tables 4.2.6.8 and 6.1.1.4'

_symmetry_cell_setting           Triclinic
_symmetry_space_group_name_H-M   P-1

loop_
_symmetry_equiv_pos_as_xyz
'x, y, z'
'-x, -y, -z'

_cell_length_a                   7.662(6)
_cell_length_b                   12.442(10)
_cell_length_c                   14.359(11)
_cell_angle_alpha                106.425(14)
_cell_angle_beta                 105.041(11)
_cell_angle_gamma                104.747(14)
_cell_volume                     1186.0(16)
_cell_formula_units_Z            1
_cell_measurement_temperature    296(2)
_cell_measurement_reflns_used    2813
_cell_measurement_theta_min      2.80
_cell_measurement_theta_max      30.48

_exptl_crystal_description       BLOCK
_exptl_crystal_colour            BLUE
_exptl_crystal_size_max          0.28
_exptl_crystal_size_mid          0.22
_exptl_crystal_size_min          0.20
_exptl_crystal_density_meas      NONE
_exptl_crystal_density_diffrn    1.629
_exptl_crystal_density_method    'not measured'
_exptl_crystal_F_000             587
_exptl_absorpt_coefficient_mu    1.505
_exptl_absorpt_correction_type   MULTI-SCAN
_exptl_absorpt_correction_T_min  0.6780
_exptl_absorpt_correction_T_max  0.7529
_exptl_absorpt_process_details   SADABS

_exptl_special_details           
;
?
;

_diffrn_ambient_temperature      296(2)
_diffrn_radiation_wavelength     0.71073
_diffrn_radiation_type           MoK\a
_diffrn_radiation_source         'fine-focus sealed tube'
_diffrn_radiation_monochromator  graphite
_diffrn_measurement_device_type  'CCD area detector'
_diffrn_measurement_method       'phi and omega scans'
_diffrn_detector_area_resol_mean ?
_diffrn_standards_number         ?
_diffrn_standards_interval_count ?
_diffrn_standards_interval_time  ?
_diffrn_standards_decay_%        ?
_diffrn_reflns_number            5734
_diffrn_reflns_av_R_equivalents  0.0495
_diffrn_reflns_av_sigmaI/netI    0.1067
_diffrn_reflns_limit_h_min       -9
_diffrn_reflns_limit_h_max       8
_diffrn_reflns_limit_k_min       -14
_diffrn_reflns_limit_k_max       10
_diffrn_reflns_limit_l_min       -15
_diffrn_reflns_limit_l_max       17
_diffrn_reflns_theta_min         1.58
_diffrn_reflns_theta_max         25.03
_reflns_number_total             4131
_reflns_number_gt                2985
_reflns_threshold_expression     >2sigma(I)

_computing_data_collection       'Bruker SMART'
_computing_cell_refinement       'Bruker SMART'
_computing_data_reduction        'Bruker SAINT'
_computing_structure_solution    'SHELXS-97 (Sheldrick, 1990)'
_computing_structure_refinement  'SHELXL-97 (Sheldrick, 1997)'
_computing_molecular_graphics    'Bruker SHELXTL'
_computing_publication_material  'Bruker SHELXTL'

_refine_special_details          
;
Refinement of F^2^ against ALL reflections. The weighted R-factor wR and
goodness of fit S are based on F^2^, conventional R-factors R are based
on F, with F set to zero for negative F^2^. The threshold expression of
F^2^ > 2sigma(F^2^) is used only for calculating R-factors(gt) etc. and is
not relevant to the choice of reflections for refinement. R-factors based
on F^2^ are statistically about twice as large as those based on F, and R-
factors based on ALL data will be even larger.
;

_refine_ls_structure_factor_coef Fsqd
_refine_ls_matrix_type           full
_refine_ls_weighting_scheme      calc
_refine_ls_weighting_details     
'calc w=1/[\s^2^(Fo^2^)+(0.1460P)^2^+1.0999P] where P=(Fo^2^+2Fc^2^)/3'
_atom_sites_solution_primary     direct
_atom_sites_solution_secondary   difmap
_atom_sites_solution_hydrogens   geom
_refine_ls_hydrogen_treatment    constr
_refine_ls_extinction_method     none
_refine_ls_extinction_coef       ?
_refine_ls_number_reflns         4131
_refine_ls_number_parameters     322
_refine_ls_number_restraints     0
_refine_ls_R_factor_all          0.1138
_refine_ls_R_factor_gt           0.0803
_refine_ls_wR_factor_ref         0.2361
_refine_ls_wR_factor_gt          0.2142
_refine_ls_goodness_of_fit_ref   1.043
_refine_ls_restrained_S_all      1.043
_refine_ls_shift/su_max          0.000
_refine_ls_shift/su_mean         0.000

loop_
_atom_site_label
_atom_site_type_symbol
_atom_site_fract_x
_atom_site_fract_y
_atom_site_fract_z
_atom_site_U_iso_or_equiv
_atom_site_adp_type
_atom_site_occupancy
_atom_site_symmetry_multiplicity
_atom_site_calc_flag
_atom_site_refinement_flags
_atom_site_disorder_assembly
_atom_site_disorder_group
Cu1 Cu 0.0000 0.5000 0.0000 0.0342(4) Uani 1 2 d S . .
Cu2 Cu 0.53972(11) 0.68305(8) 0.50142(6) 0.0285(3) Uani 1 1 d . . .
S1 S 0.6340(3) 0.5830(2) 0.67921(15) 0.0436(6) Uani 1 1 d . . .
O1 O 0.4951(8) 0.9086(6) 0.3458(5) 0.0506(16) Uani 1 1 d . . .
O2 O 0.0327(9) 0.3299(7) 0.0366(5) 0.0600(18) Uani 1 1 d . . .
H2A H -0.0393 0.2586 -0.0043 0.090 Uiso 1 1 d R . .
H2B H 0.0599 0.3453 0.1013 0.090 Uiso 1 1 d R . .
O3 O 0.5865(9) 0.6711(5) 0.6359(4) 0.0496(16) Uani 1 1 d . . .
O4 O 0.6312(8) 0.4833(5) 0.5921(4) 0.0472(15) Uani 1 1 d . . .
O5 O 0.5020(10) 0.5438(8) 0.7280(5) 0.078(3) Uani 1 1 d . . .
O6 O 0.8347(9) 0.6409(7) 0.7546(5) 0.067(2) Uani 1 1 d . . .
O7 O 0.265(2) 0.6966(16) 0.8023(11) 0.182(7) Uani 1 1 d . . .
N1 N 0.6839(8) 0.7186(7) 0.1125(5) 0.0455(18) Uani 1 1 d . . .
N2 N 0.2923(7) 0.5851(6) 0.0373(4) 0.0298(14) Uani 1 1 d . . .
N3 N 0.0774(7) 0.5784(6) 0.1511(4) 0.0305(14) Uani 1 1 d . . .
N4 N -0.0142(8) 0.5801(6) 0.2215(4) 0.0345(15) Uani 1 1 d . . .
N5 N 0.2978(7) 0.6762(6) 0.3027(4) 0.0285(14) Uani 1 1 d . . .
N6 N 0.2281(9) 0.6936(8) 0.4974(5) 0.052(2) Uani 1 1 d . . .
N7 N -0.1470(9) 0.6658(8) 0.4934(5) 0.052(2) Uani 1 1 d . . .
N8 N 0.4766(7) 0.7401(5) 0.3867(4) 0.0270(13) Uani 1 1 d . . .
N9 N 0.7087(8) 0.8644(6) 0.5736(5) 0.0381(16) Uani 1 1 d . . .
N10 N 0.9581(12) 1.0996(8) 0.6342(7) 0.072(3) Uani 1 1 d . . .
C1 C 0.3881(9) 0.5956(8) -0.0256(6) 0.0345(18) Uani 1 1 d . . .
H1 H 0.3225 0.5567 -0.0969 0.041 Uiso 1 1 calc R . .
C2 C 0.5819(11) 0.6622(8) 0.0108(6) 0.044(2) Uani 1 1 d . . .
H2 H 0.6434 0.6680 -0.0365 0.052 Uiso 1 1 calc R . .
C3 C 0.5868(10) 0.7090(8) 0.1774(6) 0.039(2) Uani 1 1 d . . .
H3 H 0.6536 0.7459 0.2487 0.047 Uiso 1 1 calc R . .
C4 C 0.3914(9) 0.6459(7) 0.1409(5) 0.0272(16) Uani 1 1 d . . .
C5 C 0.2637(9) 0.6357(7) 0.2005(5) 0.0279(16) Uani 1 1 d . . .
C6 C 0.1212(9) 0.6392(7) 0.3123(5) 0.0286(16) Uani 1 1 d . . .
C7 C 0.0833(10) 0.6608(7) 0.4112(5) 0.0339(18) Uani 1 1 d . . .
C8 C 0.1853(13) 0.7108(13) 0.5847(7) 0.079(4) Uani 1 1 d . . .
H8 H 0.2833 0.7324 0.6479 0.094 Uiso 1 1 calc R . .
C9 C -0.0017(13) 0.6971(13) 0.5822(7) 0.077(4) Uani 1 1 d . . .
H9 H -0.0262 0.7100 0.6438 0.092 Uiso 1 1 calc R . .
C10 C -0.1015(10) 0.6471(7) 0.4088(6) 0.0365(18) Uani 1 1 d . . .
H10 H -0.1990 0.6237 0.3450 0.044 Uiso 1 1 calc R . .
C11 C 0.5446(9) 0.8570(7) 0.4030(5) 0.0294(16) Uani 1 1 d . . .
C12 C 0.7019(9) 0.9245(7) 0.5095(6) 0.0323(17) Uani 1 1 d . . .
C13 C 0.8247(12) 1.0382(8) 0.5382(7) 0.049(2) Uani 1 1 d . . .
H13 H 0.8162 1.0746 0.4897 0.059 Uiso 1 1 calc R . .
C14 C 0.9570(14) 1.0414(11) 0.6993(7) 0.072(4) Uani 1 1 d . . .
H14 H 1.0422 1.0810 0.7678 0.087 Uiso 1 1 calc R . .
C15 C 0.8342(12) 0.9239(10) 0.6693(6) 0.056(3) Uani 1 1 d . . .
H15 H 0.8408 0.8869 0.7174 0.067 Uiso 1 1 calc R . .
O8 O 0.299(3) 0.8823(18) 0.1312(14) 0.105(6) Uani 0.50 1 d P . .

loop_
_atom_site_aniso_label
_atom_site_aniso_U_11
_atom_site_aniso_U_22
_atom_site_aniso_U_33
_atom_site_aniso_U_23
_atom_site_aniso_U_13
_atom_site_aniso_U_12
Cu1 0.0148(6) 0.0567(10) 0.0103(6) 0.0004(6) -0.0012(5) -0.0011(6)
Cu2 0.0275(5) 0.0305(5) 0.0126(5) 0.0029(4) -0.0027(3) 0.0025(4)
S1 0.0390(11) 0.0457(13) 0.0258(10) 0.0199(11) -0.0063(8) -0.0062(9)
O1 0.053(3) 0.043(4) 0.045(3) 0.022(3) 0.000(3) 0.011(3)
O2 0.050(4) 0.081(5) 0.044(4) 0.023(4) 0.011(3) 0.022(4)
O3 0.075(4) 0.040(3) 0.022(3) 0.009(3) 0.008(3) 0.016(3)
O4 0.053(3) 0.024(3) 0.034(3) 0.000(3) -0.005(3) -0.002(3)
O5 0.063(4) 0.095(6) 0.056(4) 0.044(5) 0.011(3) -0.010(4)
O6 0.045(3) 0.089(5) 0.027(3) 0.018(4) -0.013(3) -0.006(3)
O7 0.199(14) 0.224(18) 0.124(11) 0.098(13) 0.037(10) 0.058(13)
N1 0.023(3) 0.057(5) 0.035(4) 0.004(4) 0.006(3) -0.001(3)
N2 0.018(3) 0.042(4) 0.017(3) 0.005(3) 0.000(2) 0.004(3)
N3 0.016(3) 0.046(4) 0.014(3) 0.003(3) 0.000(2) 0.001(3)
N4 0.024(3) 0.048(4) 0.013(3) 0.000(3) 0.003(2) 0.001(3)
N5 0.020(3) 0.036(4) 0.015(3) 0.006(3) -0.003(2) -0.001(3)
N6 0.037(4) 0.078(6) 0.017(3) 0.004(4) 0.002(3) 0.005(4)
N7 0.034(4) 0.081(6) 0.025(4) 0.012(4) 0.009(3) 0.004(4)
N8 0.021(3) 0.029(3) 0.011(3) 0.000(3) -0.004(2) -0.003(2)
N9 0.032(3) 0.040(4) 0.020(3) 0.001(3) 0.002(3) -0.003(3)
N10 0.058(5) 0.054(6) 0.044(5) -0.011(5) 0.001(4) -0.025(4)
C1 0.023(3) 0.052(5) 0.020(4) 0.006(4) 0.007(3) 0.009(3)
C2 0.031(4) 0.057(6) 0.030(4) 0.008(4) 0.012(3) 0.005(4)
C3 0.023(4) 0.051(5) 0.020(4) 0.004(4) -0.003(3) 0.000(4)
C4 0.019(3) 0.033(4) 0.014(3) 0.004(3) -0.003(3) 0.001(3)
C5 0.022(3) 0.037(4) 0.011(3) 0.004(3) -0.002(3) 0.003(3)
C6 0.020(3) 0.036(4) 0.015(3) 0.001(3) 0.001(3) 0.002(3)
C7 0.031(4) 0.042(5) 0.012(3) 0.000(4) 0.003(3) 0.003(3)
C8 0.042(5) 0.149(13) 0.019(4) 0.013(6) 0.005(4) 0.018(6)
C9 0.041(5) 0.145(12) 0.025(5) 0.020(7) 0.014(4) 0.013(6)
C10 0.032(4) 0.040(5) 0.018(4) -0.001(4) 0.005(3) 0.000(4)
C11 0.024(3) 0.035(4) 0.019(4) 0.006(4) 0.004(3) 0.004(3)
C12 0.022(3) 0.034(4) 0.027(4) 0.004(4) 0.003(3) 0.001(3)
C13 0.051(5) 0.036(5) 0.038(5) 0.001(4) 0.011(4) -0.003(4)
C14 0.057(6) 0.072(8) 0.023(5) -0.006(5) -0.013(4) -0.025(5)
C15 0.047(5) 0.067(7) 0.020(4) 0.007(5) -0.006(4) -0.004(5)
O8 0.140(16) 0.102(15) 0.071(12) 0.037(12) 0.017(11) 0.054(13)

_geom_special_details            
;
All esds (except the esd in the dihedral angle between two l.s. planes)
are estimated using the full covariance matrix. The cell esds are taken
into account individually in the estimation of esds in distances, angles
and torsion angles; correlations between esds in cell parameters are only
used when they are defined by crystal symmetry. An approximate (isotropic)
treatment of cell esds is used for estimating esds involving l.s. planes.
;

loop_
_geom_bond_atom_site_label_1
_geom_bond_atom_site_label_2
_geom_bond_distance
_geom_bond_site_symmetry_2
_geom_bond_publ_flag
Cu1 N3 1.963(6) . ?
Cu1 N3 1.963(6) 2_565 ?
Cu1 N2 2.067(5) 2_565 ?
Cu1 N2 2.067(5) . ?
Cu1 O2 2.377(7) 2_565 ?
Cu1 O2 2.377(7) . ?
Cu2 O3 1.926(5) . ?
Cu2 N8 1.969(5) . ?
Cu2 O4 1.984(6) 2_666 ?
Cu2 N9 2.082(7) . ?
Cu2 N6 2.412(7) . ?
S1 O5 1.436(7) . ?
S1 O6 1.478(6) . ?
S1 O3 1.480(6) . ?
S1 O4 1.483(7) . ?
O1 C11 1.222(8) . ?
O2 H2A 0.8511 . ?
O2 H2B 0.8504 . ?
O4 Cu2 1.984(6) 2_666 ?
N1 C2 1.337(10) . ?
N1 C3 1.346(10) . ?
N2 C1 1.316(9) . ?
N2 C4 1.359(9) . ?
N3 C5 1.311(8) . ?
N3 N4 1.370(8) . ?
N4 C6 1.298(9) . ?
N5 C5 1.339(9) . ?
N5 C6 1.370(8) . ?
N5 N8 1.417(7) . ?
N6 C7 1.304(9) . ?
N6 C8 1.350(11) . ?
N7 C10 1.324(10) . ?
N7 C9 1.333(10) . ?
N8 C11 1.341(10) . ?
N9 C15 1.319(10) . ?
N9 C12 1.339(9) . ?
N10 C14 1.335(13) . ?
N10 C13 1.343(11) . ?
C1 C2 1.375(10) . ?
C1 H1 0.9300 . ?
C2 H2 0.9300 . ?
C3 C4 1.377(9) . ?
C3 H3 0.9300 . ?
C4 C5 1.463(9) . ?
C6 C7 1.487(9) . ?
C7 C10 1.373(11) . ?
C8 C9 1.389(13) . ?
C8 H8 0.9300 . ?
C9 H9 0.9300 . ?
C10 H10 0.9300 . ?
C11 C12 1.516(10) . ?
C12 C13 1.359(11) . ?
C13 H13 0.9300 . ?
C14 C15 1.394(14) . ?
C14 H14 0.9300 . ?
C15 H15 0.9300 . ?

loop_
_geom_angle_atom_site_label_1
_geom_angle_atom_site_label_2
_geom_angle_atom_site_label_3
_geom_angle
_geom_angle_site_symmetry_1
_geom_angle_site_symmetry_3
_geom_angle_publ_flag
N3 Cu1 N3 180.000(1) . 2_565 ?
N3 Cu1 N2 99.4(2) . 2_565 ?
N3 Cu1 N2 80.6(2) 2_565 2_565 ?
N3 Cu1 N2 80.6(2) . . ?
N3 Cu1 N2 99.4(2) 2_565 . ?
N2 Cu1 N2 180.0 2_565 . ?
N3 Cu1 O2 95.1(3) . 2_565 ?
N3 Cu1 O2 84.9(3) 2_565 2_565 ?
N2 Cu1 O2 95.1(2) 2_565 2_565 ?
N2 Cu1 O2 84.9(2) . 2_565 ?
N3 Cu1 O2 84.9(3) . . ?
N3 Cu1 O2 95.1(3) 2_565 . ?
N2 Cu1 O2 84.9(2) 2_565 . ?
N2 Cu1 O2 95.1(2) . . ?
O2 Cu1 O2 180.00(8) 2_565 . ?
O3 Cu2 N8 162.0(3) . . ?
O3 Cu2 O4 101.5(2) . 2_666 ?
N8 Cu2 O4 90.9(2) . 2_666 ?
O3 Cu2 N9 89.5(2) . . ?
N8 Cu2 N9 78.2(2) . . ?
O4 Cu2 N9 169.0(2) 2_666 . ?
O3 Cu2 N6 89.5(2) . . ?
N8 Cu2 N6 79.8(2) . . ?
O4 Cu2 N6 79.4(3) 2_666 . ?
N9 Cu2 N6 99.9(3) . . ?
O5 S1 O6 111.0(4) . . ?
O5 S1 O3 111.1(4) . . ?
O6 S1 O3 107.6(4) . . ?
O5 S1 O4 112.7(4) . . ?
O6 S1 O4 107.3(4) . . ?
O3 S1 O4 106.8(3) . . ?
Cu1 O2 H2A 122.4 . . ?
Cu1 O2 H2B 109.5 . . ?
H2A O2 H2B 116.8 . . ?
S1 O3 Cu2 134.3(4) . . ?
S1 O4 Cu2 138.8(4) . 2_666 ?
C2 N1 C3 116.7(6) . . ?
C1 N2 C4 117.3(6) . . ?
C1 N2 Cu1 128.7(5) . . ?
C4 N2 Cu1 113.8(4) . . ?
C5 N3 N4 109.6(5) . . ?
C5 N3 Cu1 114.7(4) . . ?
N4 N3 Cu1 135.4(4) . . ?
C6 N4 N3 105.6(5) . . ?
C5 N5 C6 105.8(5) . . ?
C5 N5 N8 129.0(5) . . ?
C6 N5 N8 125.2(5) . . ?
C7 N6 C8 116.1(7) . . ?
C7 N6 Cu2 123.0(6) . . ?
C8 N6 Cu2 119.6(6) . . ?
C10 N7 C9 115.7(7) . . ?
C11 N8 N5 113.1(5) . . ?
C11 N8 Cu2 121.0(5) . . ?
N5 N8 Cu2 119.4(4) . . ?
C15 N9 C12 116.4(7) . . ?
C15 N9 Cu2 129.0(6) . . ?
C12 N9 Cu2 114.2(5) . . ?
C14 N10 C13 114.8(8) . . ?
N2 C1 C2 122.2(7) . . ?
N2 C1 H1 118.9 . . ?
C2 C1 H1 118.9 . . ?
N1 C2 C1 121.5(7) . . ?
N1 C2 H2 119.3 . . ?
C1 C2 H2 119.3 . . ?
N1 C3 C4 121.8(7) . . ?
N1 C3 H3 119.1 . . ?
C4 C3 H3 119.1 . . ?
N2 C4 C3 120.4(6) . . ?
N2 C4 C5 111.5(5) . . ?
C3 C4 C5 128.1(6) . . ?
N3 C5 N5 108.4(6) . . ?
N3 C5 C4 119.3(6) . . ?
N5 C5 C4 132.3(6) . . ?
N4 C6 N5 110.6(6) . . ?
N4 C6 C7 123.1(6) . . ?
N5 C6 C7 126.3(6) . . ?
N6 C7 C10 122.3(7) . . ?
N6 C7 C6 118.6(6) . . ?
C10 C7 C6 119.1(6) . . ?
N6 C8 C9 121.4(8) . . ?
N6 C8 H8 119.3 . . ?
C9 C8 H8 119.3 . . ?
N7 C9 C8 121.5(8) . . ?
N7 C9 H9 119.3 . . ?
C8 C9 H9 119.3 . . ?
N7 C10 C7 122.9(7) . . ?
N7 C10 H10 118.6 . . ?
C7 C10 H10 118.6 . . ?
O1 C11 N8 128.9(7) . . ?
O1 C11 C12 121.4(7) . . ?
N8 C11 C12 109.8(5) . . ?
N9 C12 C13 122.6(7) . . ?
N9 C12 C11 114.9(6) . . ?
C13 C12 C11 122.5(6) . . ?
N10 C13 C12 122.2(8) . . ?
N10 C13 H13 118.9 . . ?
C12 C13 H13 118.9 . . ?
N10 C14 C15 123.0(8) . . ?
N10 C14 H14 118.5 . . ?
C15 C14 H14 118.5 . . ?
N9 C15 C14 120.8(8) . . ?
N9 C15 H15 119.6 . . ?
C14 C15 H15 119.6 . . ?

loop_
_geom_torsion_atom_site_label_1
_geom_torsion_atom_site_label_2
_geom_torsion_atom_site_label_3
_geom_torsion_atom_site_label_4
_geom_torsion
_geom_torsion_site_symmetry_1
_geom_torsion_site_symmetry_2
_geom_torsion_site_symmetry_3
_geom_torsion_site_symmetry_4
_geom_torsion_publ_flag
O5 S1 O3 Cu2 -127.0(6) . . . . ?
O6 S1 O3 Cu2 111.3(6) . . . . ?
O4 S1 O3 Cu2 -3.7(6) . . . . ?
N8 Cu2 O3 S1 176.8(5) . . . . ?
O4 Cu2 O3 S1 44.2(6) 2_666 . . . ?
N9 Cu2 O3 S1 -136.8(6) . . . . ?
N6 Cu2 O3 S1 123.2(6) . . . . ?
O5 S1 O4 Cu2 18.9(6) . . . 2_666 ?
O6 S1 O4 Cu2 141.4(5) . . . 2_666 ?
O3 S1 O4 Cu2 -103.4(5) . . . 2_666 ?
N3 Cu1 N2 C1 -171.6(7) . . . . ?
N3 Cu1 N2 C1 8.4(7) 2_565 . . . ?
O2 Cu1 N2 C1 -75.6(7) 2_565 . . . ?
O2 Cu1 N2 C1 104.4(7) . . . . ?
N3 Cu1 N2 C4 2.3(5) . . . . ?
N3 Cu1 N2 C4 -177.7(5) 2_565 . . . ?
O2 Cu1 N2 C4 98.3(5) 2_565 . . . ?
O2 Cu1 N2 C4 -81.7(5) . . . . ?
N2 Cu1 N3 C5 175.8(5) 2_565 . . . ?
N2 Cu1 N3 C5 -4.2(5) . . . . ?
O2 Cu1 N3 C5 -88.2(5) 2_565 . . . ?
O2 Cu1 N3 C5 91.8(5) . . . . ?
N2 Cu1 N3 N4 3.0(8) 2_565 . . . ?
N2 Cu1 N3 N4 -177.0(8) . . . . ?
O2 Cu1 N3 N4 99.1(7) 2_565 . . . ?
O2 Cu1 N3 N4 -80.9(7) . . . . ?
C5 N3 N4 C6 0.1(9) . . . . ?
Cu1 N3 N4 C6 173.2(6) . . . . ?
O3 Cu2 N6 C7 -154.5(7) . . . . ?
N8 Cu2 N6 C7 40.2(7) . . . . ?
O4 Cu2 N6 C7 -52.7(7) 2_666 . . . ?
N9 Cu2 N6 C7 116.1(7) . . . . ?
O3 Cu2 N6 C8 11.8(9) . . . . ?
N8 Cu2 N6 C8 -153.5(10) . . . . ?
O4 Cu2 N6 C8 113.6(9) 2_666 . . . ?
N9 Cu2 N6 C8 -77.6(9) . . . . ?
C5 N5 N8 C11 79.0(9) . . . . ?
C6 N5 N8 C11 -103.7(8) . . . . ?
C5 N5 N8 Cu2 -129.0(6) . . . . ?
C6 N5 N8 Cu2 48.3(9) . . . . ?
O3 Cu2 N8 C11 42.0(10) . . . . ?
O4 Cu2 N8 C11 175.8(6) 2_666 . . . ?
N9 Cu2 N8 C11 -5.7(5) . . . . ?
N6 Cu2 N8 C11 96.8(6) . . . . ?
O3 Cu2 N8 N5 -107.7(8) . . . . ?
O4 Cu2 N8 N5 26.1(5) 2_666 . . . ?
N9 Cu2 N8 N5 -155.4(6) . . . . ?
N6 Cu2 N8 N5 -52.9(5) . . . . ?
O3 Cu2 N9 C15 17.0(8) . . . . ?
N8 Cu2 N9 C15 -176.3(