
#######################################################################
#
#                 Cambridge Crystallographic Data Centre
#                                CCDC
#
#######################################################################
#
# If this CIF has been generated from an entry in the Cambridge
# Structural Database, then it will include bibliographic, chemical,
# crystal, experimental, refinement or atomic coordinate data resulting
# from the CCDC's data processing and validation procedures.
#
#######################################################################

data_CSD_CIF_YIGCIB
_audit_creation_date 2007-07-26
_audit_creation_method CSD-ConQuest-V1
_database_code_CSD YIGCIB
_database_code_depnum_ccdc_archive 'CCDC 617816'
_chemical_formula_sum 'C25 H34 Cl1 Co1 N6 O8'
_chemical_formula_moiety
;
C25 H34 Co1 N6 O4 1+,Cl1 O4 1-
;
_journal_coden_Cambridge 580
_journal_volume 26
_journal_year 2007
_journal_page_first 1669
_journal_name_full 'Polyhedron '
loop_
_publ_author_name
"S.Boyd"
"W.D.McFadyen"
"B.F.Abrahams"
"M.J.Grannas"
"K.P.Ghiggino"
_chemical_name_systematic
;
trans-(1-(Anthracen-9-ylmethyl)-1,4,8,11-tetra-azacyclotetradecane)-(nitrito-O
)-(nitrite-N)-cobalt(iii) perchlorate
;
_chemical_name_common
;
Teaching Subset: Fundamental Chemistry
;
_cell_volume   5552.358
_exptl_crystal_colour 'orange-red'
_exptl_crystal_density_diffrn 1.533
_exptl_crystal_description 'irregular block'
_exptl_crystal_preparation 'acetonitrile/water'
_diffrn_ambient_temperature 293
_diffrn_special_details
;
twinned

;
#These two values have been output from a single CSD field.
_refine_ls_R_factor_gt 0.0758
_refine_ls_wR_factor_gt 0.0758
loop_
_citation_database_id_CSD
_citation_special_details
YIBPEF "is a stereoisomer of this entry"
_symmetry_cell_setting orthorhombic
_symmetry_space_group_name_H-M 'P b c a'
_symmetry_Int_Tables_number 61
loop_
_symmetry_equiv_pos_site_id
_symmetry_equiv_pos_as_xyz
1 x,y,z
2 1/2-x,-y,1/2+z
3 1/2+x,1/2-y,-z
4 -x,1/2+y,1/2-z
5 -x,-y,-z
6 -1/2+x,y,-1/2-z
7 -1/2-x,-1/2+y,z
8 x,-1/2-y,-1/2+z
_cell_length_a 9.845(3)
_cell_length_b 19.230(5)
_cell_length_c 29.328(8)
_cell_angle_alpha 90
_cell_angle_beta 90
_cell_angle_gamma 90
_cell_formula_units_Z 8
loop_
_atom_type_symbol
_atom_type_radius_bond
C 0.68
H 0.23
Cl 0.99
Co 1.33
N 0.68
O 0.68
loop_
_atom_site_label
_atom_site_type_symbol
_atom_site_fract_x
_atom_site_fract_y
_atom_site_fract_z
Co1 Co 0.7541(2) 0.13837(8) 0.57540(6)
N1 N 0.7244(11) 0.0349(5) 0.5740(3)
H1 H 0.63400 0.02870 0.56900
O1 O 0.5579(9) 0.1493(5) 0.5728(3)
C1 C 0.8516(13) 0.0332(7) 0.8031(5)
H2 H 0.83490 0.00860 0.82980
C2 C 0.9349(14) 0.0351(7) 0.7257(5)
O2 O 1.0137(10) 0.0803(5) 0.5796(3)
N2 N 0.7540(11) 0.2413(4) 0.5752(3)
H3 H 0.83930 0.25600 0.58220
C3 C 0.7492(15) 0.0102(6) 0.6198(4)
H4 H 0.84610 0.00820 0.62570
H5 H 0.71180 -0.03610 0.62370
C4 C 0.7797(14) 0.0203(6) 0.4907(4)
H6 H 0.82280 -0.01200 0.46980
H7 H 0.68360 0.02140 0.48350
C5 C 0.8003(12) 0.2160(6) 0.4960(4)
H8 H 0.89720 0.22300 0.49980
H9 H 0.77650 0.22500 0.46450
O3 O 1.0108(10) 0.1901(5) 0.5714(3)
C6 C 0.8161(13) 0.1009(7) 0.8004(5)
C7 C 1.0075(12) -0.0014(7) 0.6905(5)
H10 H 1.02270 0.01990 0.66250
C8 C 0.6845(12) 0.0584(6) 0.6512(4)
H11 H 0.69660 0.04200 0.68220
H12 H 0.58780 0.06020 0.64490
N3 N 0.9501(12) 0.1354(7) 0.5765(4)
C9 C 0.8320(12) 0.1392(7) 0.7572(4)
C10 C 0.9108(13) 0.0009(7) 0.7677(5)
C11 C 0.6769(13) 0.2593(6) 0.6548(4)
H13 H 0.62170 0.28940 0.67380
H14 H 0.77120 0.26710 0.66290
C12 C 0.8364(13) 0.0896(6) 0.4830(4)
H15 H 0.83250 0.10010 0.45070
H16 H 0.93110 0.08970 0.49210
C13 C 0.8010(12) 0.2108(6) 0.7595(4)
H17 H 0.81460 0.23750 0.73350
N4 N 0.7434(12) 0.1289(5) 0.6466(3)
C14 C 0.7962(13) -0.0064(7) 0.5376(4)
H18 H 0.89240 -0.00750 0.54470
H19 H 0.76310 -0.05380 0.53850
C15 C 0.6404(12) 0.1835(6) 0.6650(4)
H20 H 0.55200 0.17370 0.65180
H21 H 0.63270 0.17780 0.69770
C16 C 0.6561(13) 0.2792(7) 0.6054(4)
H22 H 0.56390 0.26810 0.59640
H23 H 0.66890 0.32890 0.60190
C17 C 0.8790(11) 0.1358(6) 0.6733(3)
H24 H 0.95080 0.11480 0.65530
H25 H 0.90020 0.18480 0.67660
C18 C 0.7244(14) 0.2618(6) 0.5264(4)
H26 H 0.62790 0.25770 0.52040
H27 H 0.75100 0.30970 0.52130
N5 N 0.7626(12) 0.1452(5) 0.5089(3)
H28 H 0.67470 0.14090 0.49970
C19 C 0.8789(12) 0.1029(7) 0.7198(4)
C20 C 0.7525(15) 0.2433(7) 0.7973(5)
H29 H 0.73450 0.29080 0.79700
C21 C 1.0554(14) -0.0693(7) 0.6984(5)
H30 H 1.11000 -0.09140 0.67700
C22 C 0.7299(15) 0.2033(7) 0.8376(5)
H31 H 0.69250 0.22480 0.86310
C23 C 0.9520(15) -0.0684(8) 0.7728(5)
H32 H 0.93310 -0.09180 0.79980
C24 C 0.7603(15) 0.1373(7) 0.8396(4)
H33 H 0.74600 0.11310 0.86660
O4 O 0.3684(11) 0.1242(5) 0.5481(3)
N6 N 0.4871(14) 0.1102(7) 0.5480(4)
C25 C 1.0207(13) -0.1024(8) 0.7381(4)
H34 H 1.04380 -0.14890 0.74180
Cl1 Cl 1.0429(4) 0.3767(2) 0.59640(14)
O5 O 0.9407(10) 0.3480(5) 0.6279(3)
O6 O 1.1774(12) 0.3595(6) 0.6125(3)
O7 O 1.0345(11) 0.4486(6) 0.5937(3)
O8 O 1.0189(11) 0.3500(5) 0.5514(4)
#END
