
#######################################################################
#
#                 Cambridge Crystallographic Data Centre
#                                CCDC
#
#######################################################################
#
# If this CIF has been generated from an entry in the Cambridge
# Structural Database, then it will include bibliographic, chemical,
# crystal, experimental, refinement or atomic coordinate data resulting
# from the CCDC's data processing and validation procedures.
#
#######################################################################

data_CSD_CIF_YIGPIO05
_audit_creation_date 2022-10-03
_audit_creation_method CSD-ConQuest-V1
_database_code_CSD YIGPIO05
_database_code_depnum_ccdc_archive 'CCDC 2207870'
_chemical_formula_sum 'C37 H48 N6 O5 S2'
_chemical_formula_moiety
;
C37 H48 N6 O5 S2
;
_journal_coden_Cambridge 83
_journal_volume 112
_journal_year 2022
_journal_page_first 237
_journal_name_full 'J.Pharm.Sci. '
loop_
_publ_author_name
"Xin Yao"
"R.F.Henry"
"G.G.Z.Zhang"
_chemical_name_systematic
;
N-[4-hydroxy-1,6-diphenyl-5-({[(1,3-thiazol-5-yl)methoxy]carbonyl}amino)hexan-
2-yl]-N^2^-(methyl{[2-(propan-2-yl)-1,3-thiazol-4-yl]methyl}carbamoyl)valinami
de
;
_chemical_name_common
;
Ritonavir; Norvir; DrugBank: DB00503; Teaching Subset: Drug Molecules
;
_cell_volume   4006.872
_exptl_crystal_colour 'colorless'
_exptl_crystal_density_diffrn 1.195
_exptl_special_details
;
Absolute configuration
monoclinic form III polymorph
Ritonavir was investigated in 2020 as a potential candidate to target 
COVID-19 (coronavirus).
;
_exptl_crystal_description 'plate'
_diffrn_ambient_temperature 273
_refine_special_details
;
C1,C3,C5,C6,C7,C8,C9,N1,N2,N3,O1,S1 and 
C1',C3',C5',C6',C7',C8',C9',N1',N2',N3',O1',S1' disordered over two sites 
with occupancies 0.520:0.480; C36,C37,N6,S2 and C36',C37',N6',S2' disordered 
over two sites with occupancies 0.688:0.312.
;
#These two values have been output from a single CSD field.
_refine_ls_R_factor_gt 0.0826
_refine_ls_wR_factor_gt 0.0826
_symmetry_cell_setting monoclinic
_symmetry_space_group_name_H-M 'C 2'
_symmetry_Int_Tables_number 5
loop_
_symmetry_equiv_pos_site_id
_symmetry_equiv_pos_as_xyz
1 x,y,z
2 -x,y,-z
3 1/2+x,1/2+y,z
4 1/2-x,1/2+y,-z
_cell_length_a 23.5942(7)
_cell_length_b 5.0195(1)
_cell_length_c 33.8356(11)
_cell_angle_alpha 90
_cell_angle_beta 90.718(2)
_cell_angle_gamma 90
_cell_formula_units_Z 4
loop_
_atom_type_symbol
_atom_type_radius_bond
C 0.68
H 0.23
N 0.68
O 0.68
S 1.02
loop_
_atom_site_label
_atom_site_type_symbol
_atom_site_fract_x
_atom_site_fract_y
_atom_site_fract_z
S1 S 0.1200(3) 0.4800(16) 0.8296(3)
S2 S 0.3127(3) 0.5823(12) 0.48881(16)
O1 O 0.22184(19) 0.608(1) 0.88135(17)
O2 O 0.2893(2) 0.9287(10) 0.8821(2)
O3 O 0.4040(2) 0.1332(9) 0.85523(16)
H1 H 0.43325 0.08537 0.84455
O4 O 0.3427(3) 0.0136(9) 0.73633(18)
O5 O 0.3445(6) 0.6656(18) 0.6433(3)
N1 N 0.0327(6) 0.556(4) 0.8607(7)
N2 N 0.3112(2) 0.4897(11) 0.89111(17)
H2 H 0.29742 0.33278 0.89436
N3 N 0.3575(2) 0.4532(10) 0.74589(15)
H3 H 0.34974 0.61108 0.73755
N4 N 0.3217(7) 0.249(4) 0.6607(4)
H4 H 0.32224 0.08389 0.65362
N5 N 0.3853(6) 0.328(2) 0.6089(4)
N6 N 0.4038(5) 0.741(2) 0.5177(4)
C1 C 0.0510(9) 0.426(4) 0.8357(7)
H5 H 0.02981 0.30465 0.82089
C2 C 0.0666(6) 0.723(3) 0.8800(6)
H6 H 0.05554 0.84077 0.89970
C3 C 0.1262(3) 0.6917(17) 0.8646(3)
C4 C 0.1824(4) 0.8175(18) 0.8708(4)
H7 H 0.19439 0.90584 0.84680
H8 H 0.18068 0.94881 0.89178
C5 C 0.2761(3) 0.6932(15) 0.8852(2)
C6 C 0.3729(2) 0.5251(14) 0.89225(19)
H9 H 0.38072 0.71649 0.89406
C7 C 0.4002(3) 0.4209(13) 0.8542(2)
H10 H 0.43885 0.49198 0.85309
C8 C 0.3686(3) 0.5073(14) 0.81663(18)
H11 H 0.33085 0.43105 0.81682
H12 H 0.36461 0.69962 0.81691
C9 C 0.3974(3) 0.4259(13) 0.77872(19)
H13 H 0.40867 0.23850 0.78087
C10 C 0.3322(3) 0.2478(13) 0.72796(19)
C11 C 0.2893(3) 0.3134(14) 0.6965(2)
H14 H 0.28252 0.50594 0.69690
C12 C 0.2335(4) 0.173(2) 0.7032(3)
H15 H 0.24035 -0.01982 0.70292
C13 C 0.1906(6) 0.240(4) 0.6699(5)
H16 H 0.15773 0.12892 0.67229
H17 H 0.20774 0.21027 0.64471
H18 H 0.17956 0.42388 0.67196
C14 C 0.2110(5) 0.249(3) 0.7439(4)
H19 H 0.23770 0.19462 0.76395
H20 H 0.17539 0.16211 0.74806
H21 H 0.20591 0.43868 0.74511
C15 C 0.3508(6) 0.422(3) 0.6376(4)
C16 C 0.4014(9) 0.045(3) 0.6060(6)
H22 H 0.40100 -0.03468 0.63179
H23 H 0.43881 0.03111 0.59529
H24 H 0.37499 -0.04660 0.58896
C17 C 0.4126(6) 0.520(3) 0.5827(4)
H25 H 0.45058 0.45817 0.57712
H26 H 0.41601 0.68908 0.59649
C18 C 0.3817(6) 0.565(3) 0.5445(4)
C19 C 0.3295(6) 0.461(3) 0.5328(4)
H27 H 0.30772 0.34248 0.54733
C20 C 0.3815(5) 0.774(2) 0.4888(3)
C21 C 0.3978(6) 0.962(3) 0.4536(4)
H28 H 0.42385 1.10151 0.46279
C22 C 0.4259(13) 0.787(6) 0.4251(7)
H29 H 0.40159 0.63887 0.41885
H30 H 0.46083 0.72218 0.43632
H31 H 0.43361 0.88504 0.40140
C23 C 0.3453(11) 1.083(7) 0.4353(8)
H32 H 0.35556 1.18659 0.41266
H33 H 0.32727 1.19610 0.45431
H34 H 0.31967 0.94412 0.42739
C24 C 0.3979(3) 0.3923(16) 0.9293(2)
H35 H 0.38569 0.20783 0.93001
H36 H 0.43892 0.39369 0.92768
C25 C 0.3808(3) 0.5260(18) 0.9665(2)
C26 C 0.3311(4) 0.455(3) 0.9853(3)
H37 H 0.30843 0.31981 0.97509
C27 C 0.3151(6) 0.592(4) 1.0203(4)
H38 H 0.28181 0.54612 1.03307
C28 C 0.3481(8) 0.785(4) 1.0347(5)
H39 H 0.33623 0.87571 1.05706
C29 C 0.3989(8) 0.856(3) 1.0182(4)
H40 H 0.42204 0.98614 1.02960
C30 C 0.4142(6) 0.725(2) 0.9833(3)
H41 H 0.44784 0.77195 0.97103
C31 C 0.4511(3) 0.5958(16) 0.7701(2)
H42 H 0.43966 0.77852 0.76520
H43 H 0.47563 0.59493 0.79332
C32 C 0.4834(3) 0.4991(17) 0.7360(3)
C33 C 0.4731(5) 0.594(3) 0.6993(4)
H44 H 0.44486 0.72101 0.69546
C34 C 0.5044(8) 0.505(5) 0.6671(5)
H45 H 0.49715 0.57507 0.64206
C35 C 0.5436(9) 0.325(5) 0.6718(7)
H46 H 0.56230 0.25962 0.64987
C36 C 0.5574(8) 0.234(5) 0.7075(7)
H47 H 0.58757 0.11677 0.71081
C37 C 0.5254(6) 0.318(3) 0.7405(5)
H48 H 0.53338 0.24768 0.76534
S3? S 0.0830(7) 0.826(4) 0.8926(6)
S4? S 0.4469(3) 0.5890(15) 0.5117(2)
O6? O 0.2936(6) 0.6791(19) 0.6362(3)
N7? N 0.0368(7) 0.487(6) 0.8568(9)
N8? N 0.3011(8) 0.243(4) 0.6556(4)
H49? H 0.31039 0.08304 0.64916
N9? N 0.3007(6) 0.356(2) 0.5904(3)
N10? N 0.3459(6) 0.750(2) 0.5064(4)
C38? C 0.0266(9) 0.636(7) 0.8802(10)
H50? H -0.00893 0.65258 0.89152
C39? C 0.0922(6) 0.480(4) 0.8440(7)
H51? H 0.10627 0.36152 0.82545
H52? H 0.28224 0.50562 0.69747
C40? C 0.2971(6) 0.437(2) 0.6282(4)
C41? C 0.2975(10) 0.068(3) 0.5793(5)
H53? H 0.33498 0.00298 0.57419
H54? H 0.27429 0.04833 0.55602
H55? H 0.28136 -0.03101 0.60062
C42? C 0.2938(7) 0.547(3) 0.5584(4)
H56? H 0.28163 0.71725 0.56889
H57? H 0.26515 0.48444 0.53983
C43? C 0.3488(7) 0.578(3) 0.5382(4)
C44? C 0.4026(8) 0.470(4) 0.5443(5)
H58? H 0.41200 0.34729 0.56396
H59? H 0.37900 1.13099 0.45954
C45? C 0.4578(12) 1.033(9) 0.4488(11)
H60? H 0.46144 1.15363 0.42700
H61? H 0.47944 0.87473 0.44381
H62? H 0.47172 1.11671 0.47254
C46? C 0.3707(19) 0.870(11) 0.4173(8)
H63? H 0.33030 0.87221 0.42033
H64? H 0.38297 0.69210 0.41162
H65? H 0.38092 0.98589 0.39595
#END
