
#######################################################################
#
#                 Cambridge Crystallographic Data Centre
#                                CCDC
#
#######################################################################
#
# If this CIF has been generated from an entry in the Cambridge
# Structural Database, then it will include bibliographic, chemical,
# crystal, experimental, refinement or atomic coordinate data resulting
# from the CCDC's data processing and validation procedures.
#
#######################################################################

data_CSD_CIF_YIGPIO03
_audit_creation_date 2008-12-16
_audit_creation_method CSD-ConQuest-V1
_database_code_CSD YIGPIO03
_database_code_depnum_ccdc_archive 'CCDC 710529'
_chemical_formula_sum 'C37 H48 N6 O5 S2'
_chemical_formula_moiety
;
C37 H48 N6 O5 S2
;
_journal_coden_Cambridge 688
_journal_volume 18
_journal_year 2001
_journal_page_first 859
_journal_name_full 'Pharm. Res. '
loop_
_publ_author_name
"J.Bauer"
"S.Spanton"
"R.Henry"
"J.Quick"
"W.Dziki"
"W.Porter"
"J.Morris"
_chemical_name_systematic
;
(5S-(5R*,8R*,10R*,11R*))-10-Hydroxy-2-methyl-5-isopropyl-1-(2-isopropyl-4-thia
zolyl)-3,6-dioxo-8,11-dibenzyl-2,4,7,12-tetra-azatridecan-13-oic acid 
5-thiazolyl methyl ester
;
_chemical_name_common
;
Ritonavir; Norvir; PDB Chemical Component code: RIT; DrugBank: DB00503; 
Teaching Subset: Drug Molecules, 'Bound' Drugs
;
_cell_volume   3681.951
_exptl_crystal_colour 'colorless'
_exptl_crystal_density_diffrn 1.3
_exptl_special_details
;
stable orthorhombic polymorph 2
This polymorph does not have adequate bioavailability due to solubility 
difficulties.  Ritonavir was investigated in 2020 as a potential candidate to 
target COVID-19 (coronavirus).
The authors deposited this low temperature dataset in addition to the 
original datasets reported in the paper
;
_exptl_crystal_description 'rod'
_diffrn_ambient_temperature 100
#These two values have been output from a single CSD field.
_refine_ls_R_factor_gt 0.0647
_refine_ls_wR_factor_gt 0.0647
_symmetry_cell_setting orthorhombic
_symmetry_space_group_name_H-M 'P 21 21 21'
_symmetry_Int_Tables_number 19
loop_
_symmetry_equiv_pos_site_id
_symmetry_equiv_pos_as_xyz
1 x,y,z
2 1/2-x,-y,1/2+z
3 -x,1/2+y,1/2-z
4 1/2+x,1/2-y,-z
_cell_length_a 9.831(6)
_cell_length_b 18.485(11)
_cell_length_c 20.261(12)
_cell_angle_alpha 90
_cell_angle_beta 90
_cell_angle_gamma 90
_cell_formula_units_Z 4
loop_
_atom_type_symbol
_atom_type_radius_bond
C 0.68
H 0.23
N 0.68
O 0.68
S 1.02
loop_
_atom_site_label
_atom_site_type_symbol
_atom_site_fract_x
_atom_site_fract_y
_atom_site_fract_z
S1 S 0.47476(19) 1.27833(7) 0.87135(6)
S2 S 0.25929(16) 0.40685(8) 0.69865(6)
O1 O 0.6262(4) 1.00322(17) 1.03045(16)
O2 O 0.2718(4) 0.85622(18) 1.05507(17)
O3 O 0.2495(4) 0.62262(17) 0.99852(16)
H1 H 0.20190 0.59010 0.98350
O4 O 0.6697(4) 0.50157(19) 0.84532(16)
O5 O 0.4471(4) 0.47760(18) 0.86008(15)
N1 N 0.5088(5) 1.1453(2) 0.90195(18)
N2 N 0.4756(5) 1.0958(2) 1.04426(18)
N3 N 0.4341(5) 0.9827(2) 1.08919(19)
H2 H 0.35740 0.99920 1.10300
N4 N 0.4748(5) 0.8108(2) 1.02276(17)
H3 H 0.56170 0.81410 1.02690
N5 N 0.5661(5) 0.5327(2) 0.94099(18)
H4 H 0.64260 0.54630 0.95740
N6 N 0.0960(5) 0.3712(2) 0.7921(2)
C1 C 0.5850(7) 1.1382(3) 0.7519(3)
H5 H 0.62840 1.10130 0.77790
H6 H 0.64280 1.17990 0.74980
H7 H 0.56890 1.12020 0.70820
C2 C 0.4509(7) 1.1587(3) 0.7835(2)
H8 H 0.39490 1.11500 0.78710
C3 C 0.3734(7) 1.2141(3) 0.7420(2)
H9 H 0.42980 1.25580 0.73480
H10 H 0.29210 1.22830 0.76490
H11 H 0.34960 1.19300 0.70030
C4 C 0.4763(6) 1.1872(3) 0.8522(2)
C5 C 0.5189(6) 1.2579(3) 0.9511(2)
H12 H 0.53210 1.29170 0.98450
C6 C 0.5316(6) 1.1858(3) 0.9583(2)
C7 C 0.5770(6) 1.1479(3) 1.0203(2)
H13 H 0.66170 1.12270 1.01160
H14 H 0.59410 1.18360 1.05430
C8 C 0.3516(6) 1.1243(3) 1.0728(2)
H15 H 0.36170 1.12770 1.11980
H16 H 0.27720 1.09260 1.06250
H17 H 0.33380 1.17150 1.05490
C9 C 0.5170(6) 1.0256(3) 1.0540(2)
C10 C 0.4730(6) 0.9077(2) 1.1043(2)
H18 H 0.57100 0.90220 1.09690
C11 C 0.4409(6) 0.8879(3) 1.1762(2)
H19 H 0.34270 0.89240 1.18330
C12 C 0.5150(7) 0.9391(3) 1.2239(2)
H20 H 0.61130 0.93590 1.21670
H21 H 0.49470 0.92560 1.26860
H22 H 0.48540 0.98790 1.21630
C13 C 0.4829(7) 0.8097(3) 1.1892(2)
H23 H 0.57820 0.80400 1.18020
H24 H 0.43160 0.77800 1.16110
H25 H 0.46520 0.79780 1.23460
C14 C 0.3964(6) 0.8559(3) 1.0578(2)
C15 C 0.4198(5) 0.7558(2) 0.9776(2)
H26 H 0.32020 0.75830 0.97860
C16 C 0.4687(6) 0.7720(3) 0.9071(2)
H27 H 0.56680 0.77790 0.90770
H28 H 0.44830 0.73060 0.87930
C17 C 0.4051(6) 0.8393(3) 0.8763(2)
C18 C 0.4488(6) 0.9089(3) 0.8945(2)
H29 H 0.51850 0.91430 0.92510
C19 C 0.3888(6) 0.9692(3) 0.8672(2)
H30 H 0.41610 1.01490 0.88090
C20 C 0.2892(6) 0.9626(3) 0.8200(2)
H31 H 0.25070 1.00380 0.80130
C21 C 0.2461(7) 0.8942(3) 0.8001(3)
H32 H 0.17870 0.88920 0.76820
C22 C 0.3050(6) 0.8334(3) 0.8287(2)
H33 H 0.27640 0.78770 0.81540
C23 C 0.4642(6) 0.6801(2) 1.0001(2)
H34 H 0.55930 0.67350 0.98890
H35 H 0.45660 0.67740 1.04780
C24 C 0.3823(6) 0.6186(3) 0.9700(2)
H36 H 0.37480 0.62670 0.92230
C25 C 0.4444(5) 0.5427(2) 0.9818(2)
H37 H 0.37700 0.50660 0.96830
C26 C 0.4784(6) 0.5295(2) 1.0550(2)
H38 H 0.56520 0.55210 1.06460
H39 H 0.41010 0.55350 1.08170
C27 C 0.4856(6) 0.4511(3) 1.0756(2)
C28 C 0.6077(6) 0.4152(3) 1.0808(2)
H40 H 0.68740 0.43860 1.06820
C29 C 0.6146(7) 0.3441(3) 1.1045(2)
H41 H 0.69820 0.32110 1.10850
C30 C 0.4963(6) 0.3084(3) 1.1220(2)
H42 H 0.50010 0.26160 1.13870
C31 C 0.3720(6) 0.3429(3) 1.1144(2)
H43 H 0.29190 0.31850 1.12450
C32 C 0.3671(6) 0.4133(3) 1.0918(2)
H44 H 0.28330 0.43610 1.08740
C33 C 0.5681(6) 0.5038(3) 0.8799(2)
C34 C 0.4508(6) 0.4488(3) 0.7937(2)
H45 H 0.51770 0.41040 0.79060
H46 H 0.47500 0.48660 0.76250
C35 C 0.3121(6) 0.4203(3) 0.7787(2)
C36 C 0.2122(6) 0.3986(3) 0.8204(2)
H47 H 0.22180 0.40220 0.86600
C37 C 0.1089(6) 0.3731(3) 0.7284(3)
H48 H 0.04030 0.35710 0.70040
#END
