
#######################################################################
#
#                 Cambridge Crystallographic Data Centre
#                                CCDC
#
#######################################################################
#
# If this CIF has been generated from an entry in the Cambridge
# Structural Database, then it will include bibliographic, chemical,
# crystal, experimental, refinement or atomic coordinate data resulting
# from the CCDC's data processing and validation procedures.
#
#######################################################################

data_CSD_CIF_YIGPIO02
_audit_creation_date 2008-12-16
_audit_creation_method CSD-ConQuest-V1
_database_code_CSD YIGPIO02
_database_code_depnum_ccdc_archive 'CCDC 710527'
_chemical_formula_sum 'C37 H48 N6 O5 S2'
_chemical_formula_moiety
;
C37 H48 N6 O5 S2
;
_journal_coden_Cambridge 688
_journal_volume 18
_journal_year 2001
_journal_page_first 859
_journal_name_full 'Pharm. Res. '
loop_
_publ_author_name
"J.Bauer"
"S.Spanton"
"R.Henry"
"J.Quick"
"W.Dziki"
"W.Porter"
"J.Morris"
_chemical_name_systematic
;
(5S-(5R*,8R*,10R*,11R*))-10-Hydroxy-2-methyl-5-isopropyl-1-(2-isopropyl-4-thia
zolyl)-3,6-dioxo-8,11-dibenzyl-2,4,7,12-tetra-azatridecan-13-oic acid 
5-thiazolyl methyl ester
;
_chemical_name_common
;
Ritonavir; Norvir; DrugBank: DB00503; Teaching Subset: Drug Molecules
;
_cell_volume   1806.547
_exptl_crystal_colour 'colorless'
_exptl_crystal_density_diffrn 1.325
_exptl_special_details
;
metastable monoclinic polymorph 1
protease inhibitor in treatment of AIDS.  Ritonavir was investigated in 2020 
as a potential candidate to target COVID-19 (coronavirus).
The authors deposited this low temperature dataset in addition to the 
original datasets reported in the paper
;
_exptl_crystal_description 'rod'
_diffrn_ambient_temperature 100
_refine_special_details
;
One isopropyl group is disordered over two sites with occupancies 0.56:0.44.

;
#These two values have been output from a single CSD field.
_refine_ls_R_factor_gt 0.0518
_refine_ls_wR_factor_gt 0.0518
_symmetry_cell_setting monoclinic
_symmetry_space_group_name_H-M 'P 21'
_symmetry_Int_Tables_number 4
loop_
_symmetry_equiv_pos_site_id
_symmetry_equiv_pos_as_xyz
1 x,y,z
2 -x,1/2+y,-z
_cell_length_a 13.344(2)
_cell_length_b 5.2150(8)
_cell_length_c 26.693(4)
_cell_angle_alpha 90
_cell_angle_beta 103.456(2)
_cell_angle_gamma 90
_cell_formula_units_Z 2
loop_
_atom_type_symbol
_atom_type_radius_bond
C 0.68
H 0.23
N 0.68
O 0.68
S 1.02
loop_
_atom_site_label
_atom_site_type_symbol
_atom_site_fract_x
_atom_site_fract_y
_atom_site_fract_z
S1 S 0.3562(3) -0.2987(9) 0.08269(10)
S2 S 0.67655(10) -0.0326(3) 0.58435(5)
O1 O 0.0610(3) 0.2599(11) 0.16301(19)
O2 O 0.3233(3) -0.3494(7) 0.24015(14)
O3 O 0.6163(3) -0.2848(7) 0.31582(12)
O4 O 0.7179(3) 0.4767(8) 0.42460(12)
O5 O 0.6687(3) 0.1634(6) 0.47272(12)
N1 N 0.1864(7) -0.0893(16) 0.0382(3)
N2 N 0.0240(5) -0.0599(16) 0.1038(2)
N3 N 0.1226(3) -0.1362(10) 0.18546(15)
H1 H 0.12160 -0.29580 0.17720
N4 N 0.3568(3) 0.0766(9) 0.23836(16)
H2 H 0.33130 0.22830 0.23790
N5 N 0.6965(3) 0.0596(8) 0.39644(15)
H3 H 0.68040 -0.09110 0.40510
N6 N 0.5290(3) 0.1802(9) 0.61448(16)
C1 C 0.379(2) -0.126(5) -0.0334(11)
H4 H 0.32440 -0.22970 -0.05340
H5 H 0.43060 -0.23510 -0.01300
H6 H 0.40880 -0.02420 -0.05600
C2 C 0.2716(19) 0.215(5) -0.0261(8)
H7 H 0.22700 0.11630 -0.05260
H8 H 0.31190 0.33010 -0.04140
H9 H 0.23080 0.31110 -0.00750
C3 C 0.3315(13) 0.064(3) 0.0048(6)
H10 H 0.38790 0.16420 0.02580
C4 C 0.2845(11) -0.088(2) 0.0389(4)
C5 C 0.1667(10) -0.256(2) 0.0745(3)
C6 C 0.2459(11) -0.379(3) 0.1009(4)
H11 H 0.24290 -0.49710 0.12660
C7 C 0.0611(9) -0.287(2) 0.0827(3)
H12 H 0.01440 -0.32870 0.05010
H13 H 0.06070 -0.42980 0.10600
C8 C -0.0380(8) 0.122(2) 0.0658(3)
H14 H -0.08110 0.22270 0.08240
H15 H -0.08010 0.02720 0.03790
H16 H 0.00740 0.23290 0.05280
C9 C 0.0692(5) 0.0340(16) 0.1518(2)
C10 C 0.1823(4) -0.0535(11) 0.23575(17)
H17 H 0.17720 0.13360 0.23770
C11 C 0.1441(4) -0.1699(11) 0.28081(18)
H18 H 0.16350 -0.35150 0.28400
C12 C 0.0295(4) -0.1500(12) 0.2729(2)
H19 H 0.00940 0.02690 0.26900
H20 H 0.00900 -0.22140 0.30210
H21 H -0.00320 -0.24290 0.24240
C13 C 0.1987(4) -0.0312(12) 0.32987(17)
H22 H 0.18550 0.14950 0.32600
H23 H 0.27160 -0.06140 0.33610
H24 H 0.17360 -0.09440 0.35840
C14 C 0.2942(4) -0.1231(11) 0.23871(18)
C15 C 0.4670(4) 0.0523(10) 0.23878(18)
H25 H 0.48120 -0.12680 0.23160
C16 C 0.4867(4) 0.2206(12) 0.19441(19)
H26 H 0.44390 0.15850 0.16220
H27 H 0.46530 0.39470 0.19940
C17 C 0.5974(4) 0.2252(11) 0.18995(19)
C18 C 0.6367(5) 0.0396(12) 0.1635(2)
H28 H 0.59300 -0.08690 0.14610
C19 C 0.7405(5) 0.0355(12) 0.1620(2)
H29 H 0.76560 -0.09450 0.14450
C20 C 0.8063(5) 0.2269(15) 0.1869(2)
H30 H 0.87540 0.22820 0.18590
C21 C 0.7666(5) 0.4145(12) 0.2131(2)
H31 H 0.80990 0.54290 0.23000
C22 C 0.6649(4) 0.416(1) 0.2148(2)
H32 H 0.64020 0.54530 0.23270
C23 C 0.5344(4) 0.1254(10) 0.29200(18)
H33 H 0.54890 0.30780 0.29270
H34 H 0.49700 0.08930 0.31830
C24 C 0.6352(4) -0.0223(10) 0.30383(18)
H35 H 0.66050 -0.02450 0.27220
C25 C 0.7213(4) 0.0921(10) 0.34636(17)
H36 H 0.72740 0.27560 0.33970
C26 C 0.8229(3) -0.0393(12) 0.34568(17)
H37 H 0.81710 -0.21960 0.35350
H38 H 0.83400 -0.02790 0.31110
C27 C 0.9166(4) 0.0696(10) 0.38302(19)
C28 C 0.9640(4) 0.2884(10) 0.37048(19)
H39 H 0.93760 0.37050 0.33930
C29 C 1.0502(4) 0.3853(10) 0.4040(2)
H40 H 1.08170 0.53230 0.39520
C30 C 1.0897(4) 0.2673(10) 0.44985(19)
H41 H 1.14760 0.33420 0.47240
C31 C 1.0434(4) 0.0479(10) 0.4627(2)
H42 H 1.07040 -0.03540 0.49370
C32 C 0.9563(4) -0.0465(12) 0.42893(17)
H43 H 0.92430 -0.19250 0.43780
C33 C 0.6975(4) 0.2515(11) 0.42934(19)
C34 C 0.6615(4) 0.3546(10) 0.51005(18)
H44 H 0.61530 0.49030 0.49400
H45 H 0.72880 0.42900 0.52400
C35 C 0.6222(4) 0.2355(9) 0.55163(17)
C36 C 0.5448(4) 0.3168(10) 0.57314(18)
H46 H 0.50450 0.45840 0.56040
C37 C 0.5939(4) -0.0092(12) 0.6242(2)
H47 H 0.59520 -0.12390 0.65100
C38? C 0.432(2) 0.140(8) 0.0249(13)
H48? H 0.47800 0.00620 0.01980
H49? H 0.44150 0.17330 0.06110
H50? H 0.44580 0.29280 0.00770
C39? C 0.277(4) 0.026(11) -0.0486(14)
H51? H 0.23660 0.17520 -0.06070
H52? H 0.23290 -0.12090 -0.05110
H53? H 0.32620 -0.00110 -0.06930
C40? C 0.3315(13) 0.064(3) 0.0048(6)
H54? H 0.29890 0.22700 0.00990
#END
