
#######################################################################
#
#                 Cambridge Crystallographic Data Centre
#                                CCDC
#
#######################################################################
#
# If this CIF has been generated from an entry in the Cambridge
# Structural Database, then it will include bibliographic, chemical,
# crystal, experimental, refinement or atomic coordinate data resulting
# from the CCDC's data processing and validation procedures.
#
#######################################################################

data_CSD_CIF_YIGPIO01
_audit_creation_date 2007-11-27
_audit_creation_method CSD-ConQuest-V1
_database_code_CSD YIGPIO01
_database_code_depnum_ccdc_archive 'CCDC 710530'
_chemical_formula_sum 'C37 H48 N6 O5 S2'
_chemical_formula_moiety
;
C37 H48 N6 O5 S2
;
_journal_coden_Cambridge 688
_journal_volume 18
_journal_year 2001
_journal_page_first 859
_journal_name_full 'Pharm. Res. '
loop_
_publ_author_name
"J.Bauer"
"S.Spanton"
"R.Henry"
"J.Quick"
"W.Dziki"
"W.Porter"
"J.Morris"
_chemical_name_systematic
;
(5S-(5R*,8R*,10R*,11R*))-10-Hydroxy-2-methyl-5-isopropyl-1-(2-isopropyl-4-thia
zolyl)-3,6-dioxo-8,11-dibenzyl-2,4,7,12-tetra-azatridecan-13-oic acid 
5-thiazolyl methyl ester
;
_chemical_name_common
;
Ritonavir; Norvir; DrugBank: DB00503; Teaching Subset: Drug Molecules
;
_cell_volume   3831.521
_exptl_crystal_colour 'colorless'
_exptl_crystal_density_diffrn 1.25
_exptl_special_details
;
stable orthorhombic polymorph 2
this polymorph does not have adequate bioavailablilty due to solubility 
difficulties.  Ritonavir was investigated in 2020 as a potential candidate to 
target COVID-19 (coronavirus).
;
_exptl_crystal_description 'needle'
_diffrn_ambient_temperature 273.2
#These two values have been output from a single CSD field.
_refine_ls_R_factor_gt 0.1097
_refine_ls_wR_factor_gt 0.1097
_symmetry_cell_setting orthorhombic
_symmetry_space_group_name_H-M 'P 21 21 21'
_symmetry_Int_Tables_number 19
loop_
_symmetry_equiv_pos_site_id
_symmetry_equiv_pos_as_xyz
1 x,y,z
2 1/2-x,-y,1/2+z
3 1/2+x,1/2-y,-z
4 -x,1/2+y,1/2-z
_cell_length_a 10.0236(3)
_cell_length_b 18.6744(4)
_cell_length_c 20.4692(7)
_cell_angle_alpha 90
_cell_angle_beta 90
_cell_angle_gamma 90
_cell_formula_units_Z 4
loop_
_atom_type_symbol
_atom_type_radius_bond
C 0.68
H 0.23
N 0.68
O 0.68
S 1.02
loop_
_atom_site_label
_atom_site_type_symbol
_atom_site_fract_x
_atom_site_fract_y
_atom_site_fract_z
S1 S 0.2393(6) -0.5964(3) 0.7940(3)
S2 S 0.0213(7) 0.2750(3) 0.6272(3)
O1 O -0.121(1) 0.0009(5) 0.4725(5)
O2 O 0.234(1) -0.1415(6) 0.4506(7)
O3 O 0.256(1) -0.3761(5) 0.5024(5)
O4 O -0.167(1) -0.4994(6) 0.6509(6)
O5 O 0.054(1) -0.5218(5) 0.6369(5)
N1 N -0.017(1) 0.1451(7) 0.6020(6)
N2 N 0.024(1) 0.0923(7) 0.4577(6)
N3 N 0.069(1) -0.0174(6) 0.4176(6)
N4 N 0.033(1) -0.1888(5) 0.4811(5)
N5 N -0.057(1) -0.4649(6) 0.5581(6)
N6 N 0.398(1) -0.6293(9) 0.704(1)
C1 C 0.086(1) -0.2438(7) 0.5229(7)
C2 C 0.039(2) -0.2277(8) 0.5934(8)
C3 C 0.095(2) -0.1610(7) 0.6236(7)
C4 C 0.202(2) -0.1650(8) 0.6669(10)
C5 C 0.257(2) -0.104(1) 0.696(1)
C6 C 0.208(2) -0.0397(8) 0.6810(9)
C7 C 0.099(2) -0.0341(9) 0.6351(10)
C8 C 0.039(2) -0.0968(7) 0.6082(8)
C9 C -0.034(2) 0.1810(7) 0.5470(8)
C10 C -0.014(2) 0.2531(9) 0.5504(7)
C11 C 0.014(2) 0.190(1) 0.651(1)
C12 C 0.029(4) 0.159(1) 0.716(1)
C13 C -0.107(3) 0.138(1) 0.7476(10)
C14 C -0.075(2) 0.1449(8) 0.4868(8)
C15 C 0.143(2) 0.1227(9) 0.4307(8)
C16 C -0.016(2) 0.0219(7) 0.4486(7)
C17 C -0.004(2) -0.0597(9) 0.2847(7)
C18 C 0.062(1) -0.1103(8) 0.3349(9)
C19 C 0.027(2) -0.1890(9) 0.315(1)
C20 C 0.032(2) -0.0914(7) 0.4020(7)
C21 C 0.114(2) -0.1418(8) 0.4471(8)
C22 C 0.043(2) -0.3151(7) 0.4988(7)
C23 C 0.122(1) -0.3812(7) 0.5314(7)
C24 C 0.063(1) -0.4564(7) 0.5155(7)
C25 C 0.031(2) -0.4653(7) 0.4473(9)
C26 C 0.010(2) -0.5454(8) 0.4257(7)
C27 C -0.107(2) -0.5750(7) 0.4215(8)
C28 C -0.127(2) -0.6434(10) 0.4011(9)
C29 C -0.010(2) -0.6845(8) 0.3811(9)
C30 C 0.111(2) -0.6540(8) 0.3890(8)
C31 C -0.061(2) -0.4918(8) 0.6168(7)
C32 C 0.052(2) -0.5512(8) 0.7030(8)
C33 C 0.184(1) -0.5792(7) 0.7144(7)
C34 C 0.285(2) -0.6014(8) 0.6749(8)
C35 C 0.387(2) -0.628(1) 0.763(1)
C36 C 0.117(3) 0.202(2) 0.756(1)
C37 C 0.117(2) -0.5868(8) 0.4077(8)
H1 H 0.15490 -0.00040 0.40540
H2 H -0.06250 -0.18790 0.47460
H3 H -0.13960 -0.44710 0.54050
H4 H 0.18070 -0.24110 0.52130
H5 H -0.05330 -0.22300 0.59370
H6 H 0.06630 -0.26680 0.62050
H7 H 0.24400 -0.20950 0.67480
H8 H 0.32750 -0.10580 0.72680
H9 H 0.24510 0.00270 0.69830
H10 H 0.06720 0.01200 0.62470
H11 H -0.02850 -0.09350 0.57760
H12 H -0.02910 0.28560 0.51470
H13 H 0.07540 0.11210 0.71090
H14 H -0.15620 0.18110 0.74620
H15 H -0.14310 0.10250 0.72240
H16 H -0.08970 0.12420 0.79080
H17 H -0.09530 0.18080 0.45250
H18 H -0.15870 0.12010 0.49400
H19 H 0.22030 0.09830 0.44690
H20 H 0.14290 0.11890 0.38400
H21 H 0.15050 0.17230 0.44200
H22 H 0.02520 -0.01230 0.28760
H23 H 0.00990 -0.07640 0.23990
H24 H -0.10120 -0.06010 0.29050
H25 H 0.15690 -0.10390 0.32850
H26 H -0.06220 -0.19760 0.31940
H27 H 0.05720 -0.19810 0.27130
H28 H 0.07800 -0.22100 0.34340
H29 H -0.06030 -0.09800 0.40790
H30 H -0.04880 -0.32320 0.50840
H31 H 0.05580 -0.31860 0.45280
H32 H 0.12710 -0.37350 0.57610
H33 H 0.12700 -0.49030 0.52750
H34 H -0.04640 -0.44080 0.43640
H35 H 0.10450 -0.44860 0.42120
H36 H -0.18670 -0.54850 0.43250
H37 H -0.20880 -0.66740 0.39680
H38 H -0.02280 -0.73110 0.36470
H39 H 0.19350 -0.68170 0.37940
H40 H 0.02930 -0.51530 0.73200
H41 H -0.01080 -0.58940 0.70390
H42 H 0.27230 -0.59950 0.62940
H43 H 0.45620 -0.64130 0.79190
H44 H 0.13320 0.17880 0.79580
H45 H 0.20270 0.20290 0.73180
H46 H 0.08290 0.24620 0.75890
H47 H 0.20050 -0.56380 0.41100
#END
