
#######################################################################
#
#                 Cambridge Crystallographic Data Centre
#                                CCDC
#
#######################################################################
#
# If this CIF has been generated from an entry in the Cambridge
# Structural Database, then it will include bibliographic, chemical,
# crystal, experimental, refinement or atomic coordinate data resulting
# from the CCDC's data processing and validation procedures.
#
#######################################################################

data_CSD_CIF_YIGPIO
_audit_creation_date 2007-11-27
_audit_creation_method CSD-ConQuest-V1
_database_code_CSD YIGPIO
_database_code_depnum_ccdc_archive 'CCDC 710528'
_chemical_formula_sum 'C37 H48 N6 O5 S2'
_chemical_formula_moiety
;
C37 H48 N6 O5 S2
;
_journal_coden_Cambridge 688
_journal_volume 18
_journal_year 2001
_journal_page_first 859
_journal_name_full 'Pharm. Res. '
loop_
_publ_author_name
"J.Bauer"
"S.Spanton"
"R.Henry"
"J.Quick"
"W.Dziki"
"W.Porter"
"J.Morris"
_chemical_name_systematic
;
(5S-(5R*,8R*,10R*,11R*))-10-Hydroxy-2-methyl-5-isopropyl-1-(2-isopropyl-4-thia
zolyl)-3,6-dioxo-8,11-dibenzyl-2,4,7,12-tetra-azatridecan-13-oic acid 
5-thiazolyl methyl ester
;
_chemical_name_common
;
Ritonavir; Norvir; DrugBank: DB00503; Teaching Subset: Drug Molecules
;
_cell_volume   1872.119
_exptl_crystal_density_diffrn 1.279
_exptl_special_details
;
metastable monoclinic polymorph 1
protease inhibitor in treatment of AIDS. Ritonavir was investigated in 2020 
as a potential candidate to target COVID-19 (coronavirus).
;
_exptl_crystal_description 'needle'
_exptl_crystal_preparation 'ethanol'
_diffrn_ambient_temperature 296.2
_refine_special_details
;
The authors report that they were only able to refine the major occupancies 
for one isopropyl group.
;
#These two values have been output from a single CSD field.
_refine_ls_R_factor_gt 0.1074
_refine_ls_wR_factor_gt 0.1074
_symmetry_cell_setting monoclinic
_symmetry_space_group_name_H-M 'P 21'
_symmetry_Int_Tables_number 4
loop_
_symmetry_equiv_pos_site_id
_symmetry_equiv_pos_as_xyz
1 x,y,z
2 -x,1/2+y,-z
_cell_length_a 13.438(3)
_cell_length_b 5.288(1)
_cell_length_c 27.055(5)
_cell_angle_alpha 90
_cell_angle_beta 103.15(2)
_cell_angle_gamma 90
_cell_formula_units_Z 2
loop_
_atom_type_symbol
_atom_type_radius_bond
C 0.68
H 0.23
N 0.68
O 0.68
S 1.02
loop_
_atom_site_label
_atom_site_type_symbol
_atom_site_fract_x
_atom_site_fract_y
_atom_site_fract_z
S1 S 1.1736(2) 0.4352(6) 0.08255(9)
S2 S 0.8613(4) 0.218(2) -0.4239(2)
O1 O 1.1705(4) 0.631(1) -0.0278(2)
O2 O 1.2189(4) 0.934(1) -0.0758(2)
O3 O 1.1153(4) 0.187(1) -0.1844(2)
O4 O 0.8283(4) 0.132(1) -0.2618(2)
O5 O 0.5689(4) 0.719(2) -0.3371(2)
N1 N 1.0262(5) 0.652(1) 0.1109(2)
N2 N 1.1959(4) 0.526(1) -0.1041(2)
N3 N 0.8625(5) 0.552(1) -0.2611(2)
N4 N 0.6257(5) 0.348(1) -0.3181(2)
N5 N 0.5318(6) 0.402(2) -0.4000(3)
N6 N 0.6971(8) 0.378(2) -0.4679(3)
C1 C 1.0901(7) 0.468(2) 0.1231(3)
C2 C 1.0480(5) 0.789(2) 0.0724(3)
C3 C 1.1216(6) 0.707(2) 0.0516(3)
C4 C 1.1634(6) 0.825(2) 0.0099(3)
C5 C 1.1976(5) 0.718(2) -0.0722(3)
C6 C 1.2190(6) 0.556(1) -0.1549(3)
C7 C 1.1359(5) 0.441(2) -0.1971(2)
C8 C 1.0358(5) 0.588(2) -0.2090(3)
C9 C 0.9705(6) 0.529(2) -0.2608(3)
C10 C 0.9928(6) 0.695(2) -0.3029(3)
C11 C 1.1014(6) 0.691(2) -0.3082(3)
C12 C 1.1675(7) 0.881(2) -0.2863(3)
C13 C 1.2747(7) 0.856(2) -0.2925(3)
C14 C 1.3010(7) 0.659(3) -0.3209(4)
C15 C 1.2347(8) 0.510(3) -0.3402(5)
C16 C 1.1376(7) 0.515(2) -0.3348(3)
C17 C 1.3213(5) 0.428(2) -0.1561(3)
C18 C 0.7977(6) 0.348(2) -0.2621(3)
C19 C 0.6839(5) 0.418(2) -0.2687(3)
C20 C 0.6472(6) 0.298(2) -0.2248(3)
C21 C 0.5308(6) 0.319(2) -0.2338(3)
C22 C 0.5674(8) 0.504(2) -0.3558(4)
C23 C 0.577(1) 0.175(3) -0.4172(4)
C24 C 0.4738(9) 0.586(3) -0.4362(4)
C25 C 1.4524(5) 0.419(2) -0.0752(3)
C26 C 1.5412(6) 0.525(2) -0.0399(3)
C27 C 1.5856(5) 0.736(2) -0.0527(3)
C28 C 1.5452(6) 0.844(2) -0.1006(3)
C29 C 1.4602(5) 0.750(2) -0.1328(3)
C30 C 1.4123(6) 0.540(2) -0.1219(3)
C31 C 0.679(1) 0.244(3) -0.4274(4)
C32 C 0.6995(6) 0.436(2) -0.1736(3)
C33 C 0.790(1) 0.406(4) -0.4714(5)
C34 C 0.879(2) 0.584(7) -0.487(1)
C35 C 0.771(1) 0.622(4) -0.5272(6)
C36 C 0.842(1) 0.408(5) -0.5402(7)
C37 C 0.761(1) 0.128(3) -0.4024(4)
H1 H 1.17880 0.36250 -0.09390
H2 H 0.83470 0.71630 -0.26080
H3 H 0.62690 0.17340 -0.32660
H4 H 1.09100 0.35890 0.15090
H5 H 1.01110 0.93780 0.06070
H6 H 1.22960 0.89140 0.02380
H7 H 1.11950 0.95630 -0.00560
H8 H 1.22440 0.73110 -0.16140
H9 H 1.16130 0.43680 -0.22730
H10 H 0.99870 0.54860 -0.18410
H11 H 1.05120 0.76480 -0.20740
H12 H 0.98300 0.35860 -0.26850
H13 H 0.95080 0.63800 -0.33410
H14 H 0.97590 0.86300 -0.29650
H15 H 1.14580 1.01720 -0.26880
H16 H 1.32360 0.97840 -0.27690
H17 H 1.37000 0.64360 -0.32400
H18 H 1.25400 0.38650 -0.36150
H19 H 1.09320 0.38260 -0.35070
H20 H 1.31720 0.25410 -0.14660
H21 H 1.33060 0.43460 -0.18990
H22 H 0.67950 0.59810 -0.26590
H23 H 0.66480 0.12550 -0.22290
H24 H 0.51270 0.49670 -0.23430
H25 H 0.49970 0.24700 -0.26520
H26 H 0.50860 0.24010 -0.20710
H27 H 0.58480 0.04930 -0.39230
H28 H 0.53480 0.11890 -0.44810
H29 H 0.51830 0.71530 -0.44220
H30 H 0.44430 0.50200 -0.46700
H31 H 0.42120 0.65750 -0.42220
H32 H 1.42120 0.26890 -0.06670
H33 H 1.56750 0.44500 -0.00840
H34 H 1.64260 0.81010 -0.02980
H35 H 1.57850 0.98710 -0.11090
H36 H 1.43310 0.83630 -0.16390
H37 H 0.67730 0.35580 -0.14630
H38 H 0.77160 0.41740 -0.16820
H39 H 0.68150 0.60730 -0.17530
H40 H 0.76170 0.00310 -0.37530
#END
