
#######################################################################
#
#                 Cambridge Crystallographic Data Centre
#                                CCDC
#
#######################################################################
#
# If this CIF has been generated from an entry in the Cambridge
# Structural Database, then it will include bibliographic, chemical,
# crystal, experimental, refinement or atomic coordinate data resulting
# from the CCDC's data processing and validation procedures.
#
#######################################################################

data_CSD_CIF_YIGPIO04
_audit_creation_date 2022-10-03
_audit_creation_method CSD-ConQuest-V1
_database_code_CSD YIGPIO04
_database_code_depnum_ccdc_archive 'CCDC 2207871'
_chemical_formula_sum 'C37 H48 N6 O5 S2'
_chemical_formula_moiety
;
C37 H48 N6 O5 S2
;
_journal_coden_Cambridge 83
_journal_volume 112
_journal_year 2022
_journal_page_first 237
_journal_name_full 'J.Pharm.Sci. '
loop_
_publ_author_name
"Xin Yao"
"R.F.Henry"
"G.G.Z.Zhang"
_chemical_name_systematic
;
N-[4-hydroxy-1,6-diphenyl-5-({[(1,3-thiazol-5-yl)methoxy]carbonyl}amino)hexan-
2-yl]-N^2^-(methyl{[2-(propan-2-yl)-1,3-thiazol-4-yl]methyl}carbamoyl)valinami
de
;
_chemical_name_common
;
Ritonavir; Norvir; DrugBank: DB00503; Teaching Subset: Drug Molecules
;
_cell_volume   3891.155
_exptl_crystal_colour 'colorless'
_exptl_crystal_density_diffrn 1.231
_exptl_special_details
;
Absolute configuration
monoclinic low temperature form III polymorph
Ritonavir was investigated in 2020 as a potential candidate to target 
COVID-19 (coronavirus).
;
_exptl_crystal_description 'plate'
_diffrn_ambient_temperature 100
_refine_special_details
;
C1,C3,C5,C6,C7,C8,C9,N1,N2,N3,O1,S1 and 
C1',C3',C5',C6',C7',C8',C9',N1',N2',N3',O1',S1' disordered over two sites 
with occupancies 0.518:0.482; C36,C37,N6,S2 and C36',C37',N6',S2' disordered 
over two sites with occupancies 0.534:0.466.
;
#These two values have been output from a single CSD field.
_refine_ls_R_factor_gt 0.1207
_refine_ls_wR_factor_gt 0.1207
_symmetry_cell_setting monoclinic
_symmetry_space_group_name_H-M 'C 2'
_symmetry_Int_Tables_number 5
loop_
_symmetry_equiv_pos_site_id
_symmetry_equiv_pos_as_xyz
1 x,y,z
2 -x,y,-z
3 1/2+x,1/2+y,z
4 1/2-x,1/2+y,-z
_cell_length_a 23.354(2)
_cell_length_b 4.9531(4)
_cell_length_c 33.648(3)
_cell_angle_alpha 90
_cell_angle_beta 91.342(10)
_cell_angle_gamma 90
_cell_formula_units_Z 4
loop_
_atom_type_symbol
_atom_type_radius_bond
C 0.68
H 0.23
N 0.68
O 0.68
S 1.02
loop_
_atom_site_label
_atom_site_type_symbol
_atom_site_fract_x
_atom_site_fract_y
_atom_site_fract_z
S1 S 0.1374(2) 0.5027(15) 0.8187(2)
S2 S 0.3139(3) 0.6044(13) 0.48716(18)
O1 O 0.2256(3) 0.6026(16) 0.8826(3)
O2 O 0.2923(4) 0.932(2) 0.8867(5)
O3 O 0.4105(3) 0.1295(15) 0.8560(2)
H1 H 0.44264 0.08401 0.84940
O4 O 0.3458(4) 0.0125(16) 0.7365(3)
O5 O 0.3483(6) 0.673(2) 0.6427(5)
N1 N 0.0381(6) 0.534(4) 0.8448(7)
N2 N 0.3166(3) 0.4847(19) 0.8919(3)
H2 H 0.30338 0.32360 0.89419
N3 N 0.3604(3) 0.4605(17) 0.7461(2)
H3 H 0.35202 0.62087 0.73804
N4 N 0.3246(7) 0.248(4) 0.6602(4)
H4 H 0.32545 0.08013 0.65363
N5 N 0.3879(6) 0.328(3) 0.6077(5)
N6 N 0.4086(6) 0.752(3) 0.5183(5)
C1 C 0.0641(9) 0.433(4) 0.8172(7)
H5 H 0.04641 0.32957 0.79745
C2 C 0.0720(8) 0.675(4) 0.8684(6)
H6 H 0.05772 0.77078 0.88976
C3 C 0.1289(4) 0.674(2) 0.8607(3)
C4 C 0.1828(6) 0.811(3) 0.8745(6)
H7 H 0.19608 0.93336 0.85420
H8 H 0.17601 0.91444 0.89844
C5 C 0.2802(5) 0.688(3) 0.8871(4)
C6 C 0.3787(4) 0.526(3) 0.8933(3)
H9 H 0.38582 0.72114 0.89502
C7 C 0.4061(5) 0.421(2) 0.8552(3)
H10 H 0.44491 0.49549 0.85396
C8 C 0.3723(4) 0.514(2) 0.8177(3)
H11 H 0.36806 0.70858 0.81836
H12 H 0.33427 0.43504 0.81783
C9 C 0.4021(4) 0.432(2) 0.7784(3)
H13 H 0.41432 0.24279 0.78028
C10 C 0.3344(4) 0.254(2) 0.7281(3)
C11 C 0.2910(4) 0.317(2) 0.6959(3)
H14 H 0.28434 0.51194 0.69586
C12 C 0.2352(5) 0.179(3) 0.7021(4)
H15 H 0.24204 -0.01604 0.70133
C13 C 0.1929(7) 0.250(4) 0.6669(7)
H16 H 0.16046 0.13085 0.66746
H17 H 0.21204 0.22880 0.64218
H18 H 0.18021 0.43312 0.66956
C14 C 0.2121(7) 0.247(4) 0.7430(6)
H19 H 0.23973 0.19623 0.76319
H20 H 0.17701 0.15084 0.74693
H21 H 0.20500 0.43793 0.74463
C15 C 0.3538(8) 0.418(4) 0.6371(6)
C16 C 0.4077(10) 0.045(4) 0.6065(8)
H22 H 0.43310 0.01147 0.62878
H23 H 0.42761 0.01425 0.58226
H24 H 0.37535 -0.07369 0.60764
C17 C 0.4162(7) 0.520(4) 0.5824(5)
H25 H 0.45411 0.45204 0.57664
H26 H 0.42092 0.68840 0.59672
C18 C 0.3838(7) 0.577(4) 0.5426(5)
C19 C 0.3328(7) 0.477(4) 0.5317(5)
H27 H 0.31117 0.35721 0.54642
C20 C 0.3834(6) 0.786(3) 0.4887(4)
C21 C 0.3995(6) 0.982(3) 0.4537(4)
H28 H 0.42878 1.11396 0.46190
C22 C 0.4209(11) 0.792(5) 0.4220(8)
H29 H 0.39242 0.65572 0.41658
H30 H 0.45569 0.70719 0.43125
H31 H 0.42795 0.89125 0.39815
C23 C 0.3446(13) 1.120(8) 0.4371(8)
H32 H 0.35479 1.25789 0.41858
H33 H 0.32414 1.19867 0.45861
H34 H 0.32087 0.98767 0.42390
C24 C 0.4054(4) 0.395(3) 0.9304(3)
H35 H 0.39532 0.20477 0.93069
H36 H 0.44679 0.40746 0.92923
C25 C 0.3861(4) 0.524(3) 0.9681(3)
C26 C 0.3348(5) 0.445(4) 0.9853(4)
H37 H 0.31299 0.30719 0.97383
C27 C 0.3159(7) 0.576(5) 1.0199(4)
H38 H 0.28196 0.52497 1.03172
C28 C 0.3492(9) 0.780(4) 1.0356(5)
H39 H 0.33596 0.87002 1.05780
C29 C 0.3998(10) 0.857(4) 1.0210(5)
H40 H 0.42225 0.98885 1.03332
C30 C 0.4167(6) 0.728(3) 0.9862(4)
H41 H 0.45055 0.78443 0.97471
C31 C 0.4539(4) 0.609(2) 0.7703(4)
H42 H 0.47883 0.61029 0.79383
H43 H 0.44096 0.79240 0.76569
C32 C 0.4881(4) 0.518(2) 0.7353(4)
C33 C 0.4762(7) 0.606(5) 0.6988(5)
H44 H 0.44667 0.73004 0.69462
C34 C 0.5068(8) 0.517(7) 0.6677(6)
H45 H 0.49744 0.58976 0.64286
C35 C 0.5464(7) 0.347(4) 0.6690(6)
H46 H 0.56312 0.28322 0.64594
C36 C 0.5641(10) 0.258(6) 0.7059(8)
H47 H 0.59639 0.14921 0.70915
C37 C 0.5312(8) 0.338(5) 0.7394(7)
H48 H 0.53968 0.26502 0.76434
S3? S 0.0718(5) 0.784(2) 0.8815(4)
S4? S 0.4495(3) 0.5817(18) 0.5107(2)
O6? O 0.2933(6) 0.691(2) 0.6357(4)
N7? N 0.0567(10) 0.387(5) 0.8371(8)
N8? N 0.3018(8) 0.244(5) 0.6547(5)
H49? H 0.31095 0.08247 0.64816
N9? N 0.2989(8) 0.363(3) 0.5890(5)
N10? N 0.3458(7) 0.765(3) 0.5064(5)
C38? C 0.0288(9) 0.536(6) 0.8573(8)
H50? H -0.01068 0.52278 0.85982
C39? C 0.1096(7) 0.459(4) 0.8396(5)
H51? H 0.13621 0.35578 0.82606
H52? H 0.28395 0.51155 0.69663
C40? C 0.2969(8) 0.440(4) 0.6277(6)
C41? C 0.2997(12) 0.069(4) 0.5782(6)
H53? H 0.33674 -0.00516 0.58456
H54? H 0.29161 0.04900 0.55027
H55? H 0.27113 -0.02497 0.59295
C42? C 0.2946(8) 0.562(4) 0.5575(6)
H56? H 0.28466 0.73607 0.56870
H57? H 0.26440 0.51058 0.53875
C43? C 0.3508(7) 0.587(4) 0.5359(5)
C44? C 0.4014(8) 0.475(4) 0.5435(5)
H58? H 0.40918 0.35448 0.56418
H59? H 0.38778 1.15690 0.46443
C45? C 0.4611(10) 1.038(10) 0.4439(11)
H60? H 0.46286 1.11198 0.41759
H61? H 0.48261 0.87350 0.44531
H62? H 0.47691 1.16568 0.46269
C46? C 0.3612(14) 0.96(1) 0.4183(10)
H63? H 0.34352 0.78465 0.41787
H64? H 0.38291 0.98370 0.39474
H65? H 0.33206 1.09629 0.41942
S1A S 0.8626(2) 0.5027(15) 0.1813(2)
S2A S 0.6861(3) 0.6044(13) 0.51284(18)
O1A O 0.7744(3) 0.6026(16) 0.1174(3)
O2A O 0.7077(4) 0.932(2) 0.1133(5)
O3A O 0.5895(3) 0.1295(15) 0.1440(2)
H1A H 0.55736 0.08401 0.15060
O4A O 0.6542(4) 0.0125(16) 0.2635(3)
O5A O 0.6517(6) 0.673(2) 0.3573(5)
N1A N 0.9619(6) 0.534(4) 0.1552(7)
N2A N 0.6834(3) 0.4847(19) 0.1081(3)
H2A H 0.69662 0.32360 0.10581
N3A N 0.6396(3) 0.4605(17) 0.2539(2)
H3A H 0.64798 0.62087 0.26196
N4A N 0.6754(7) 0.248(4) 0.3398(4)
H4A H 0.67455 0.08013 0.34637
N5A N 0.6121(6) 0.328(3) 0.3923(5)
N6A N 0.5914(6) 0.752(3) 0.4817(5)
C1A C 0.9359(9) 0.433(4) 0.1828(7)
H5A H 0.95359 0.32957 0.20255
C2A C 0.9280(8) 0.675(4) 0.1316(6)
H6A H 0.94228 0.77078 0.11024
C3A C 0.8711(4) 0.674(2) 0.1393(3)
C4A C 0.8172(6) 0.811(3) 0.1255(6)
H7A H 0.80392 0.93336 0.14580
H8A H 0.82399 0.91444 0.10156
C5A C 0.7198(5) 0.688(3) 0.1129(4)
C6A C 0.6213(4) 0.526(3) 0.1067(3)
H9A H 0.61418 0.72114 0.10498
C7A C 0.5939(5) 0.421(2) 0.1448(3)
H10A H 0.55509 0.49549 0.14604
C8A C 0.6277(4) 0.514(2) 0.1823(3)
H11A H 0.63194 0.70858 0.18164
H12A H 0.66573 0.43504 0.18217
C9A C 0.5979(4) 0.432(2) 0.2216(3)
H13A H 0.58567 0.24279 0.21972
C10A C 0.6656(4) 0.254(2) 0.2719(3)
C11A C 0.7090(4) 0.317(2) 0.3041(3)
H14A H 0.71566 0.51194 0.30414
C12A C 0.7648(5) 0.179(3) 0.2979(4)
H15A H 0.75796 -0.01604 0.29867
C13A C 0.8071(7) 0.250(4) 0.3331(7)
H16A H 0.83954 0.13085 0.33254
H17A H 0.78796 0.22880 0.35782
H18A H 0.81979 0.43312 0.33044
C14A C 0.7879(7) 0.247(4) 0.2570(6)
H19A H 0.76027 0.19623 0.23681
H20A H 0.82299 0.15084 0.25307
H21A H 0.79500 0.43793 0.25537
C15A C 0.6462(8) 0.418(4) 0.3629(6)
C16A C 0.5923(10) 0.045(4) 0.3935(8)
H22A H 0.56690 0.01147 0.37122
H23A H 0.57239 0.01425 0.41774
H24A H 0.62465 -0.07369 0.39236
C17A C 0.5838(7) 0.520(4) 0.4176(5)
H25A H 0.54589 0.45204 0.42336
H26A H 0.57908 0.68840 0.40328
C18A C 0.6162(7) 0.577(4) 0.4574(5)
C19A C 0.6672(7) 0.477(4) 0.4683(5)
H27A H 0.68883 0.35721 0.45358
C20A C 0.6166(6) 0.786(3) 0.5113(4)
C21A C 0.6005(6) 0.982(3) 0.5463(4)
H28A H 0.57122 1.11396 0.53810
C22A C 0.5791(11) 0.792(5) 0.5780(8)
H29A H 0.60757 0.65572 0.58342
H30A H 0.54431 0.70719 0.56875
H31A H 0.57205 0.89125 0.60185
C23A C 0.6554(13) 1.120(8) 0.5629(8)
H32A H 0.64521 1.25789 0.58142
H33A H 0.67586 1.19867 0.54139
H34A H 0.67912 0.98767 0.57610
C24A C 0.5946(4) 0.395(3) 0.0696(3)
H35A H 0.60468 0.20477 0.06931
H36A H 0.55320 0.40746 0.07077
C25A C 0.6139(4) 0.524(3) 0.0319(3)
C26A C 0.6652(5) 0.445(4) 0.0147(4)
H37A H 0.68701 0.30719 0.02617
C27A C 0.6841(7) 0.576(5) -0.0199(4)
H38A H 0.71804 0.52497 -0.03172
C28A C 0.6508(9) 0.780(4) -0.0356(5)
H39A H 0.66404 0.87002 -0.05780
C29A C 0.6002(10) 0.857(4) -0.0210(5)
H40A H 0.57775 0.98885 -0.03332
C30A C 0.5833(6) 0.728(3) 0.0138(4)
H41A H 0.54945 0.78443 0.02529
C31A C 0.5461(4) 0.609(2) 0.2297(4)
H42A H 0.52117 0.61029 0.20617
H43A H 0.55904 0.79240 0.23431
C32A C 0.5119(4) 0.518(2) 0.2647(4)
C33A C 0.5238(7) 0.606(5) 0.3012(5)
H44A H 0.55333 0.73004 0.30538
C34A C 0.4932(8) 0.517(7) 0.3323(6)
H45A H 0.50256 0.58976 0.35714
C35A C 0.4536(7) 0.347(4) 0.3310(6)
H46A H 0.43688 0.28322 0.35406
C36A C 0.4359(10) 0.258(6) 0.2941(8)
H47A H 0.40361 0.14921 0.29085
C37A C 0.4688(8) 0.338(5) 0.2606(7)
H48A H 0.46032 0.26502 0.23566
#END
