####################################################################### 
# 
# This file contains crystal structure data downloaded from the 
# Cambridge Structural Database (CSD) hosted by the Cambridge 
# Crystallographic Data Centre (CCDC).
# 
# Full information about CCDC data access policies and citation 
# guidelines are available at http://www.ccdc.cam.ac.uk/access/V1 
# 
# Audit and citation data items may have been added by the CCDC. 
# Please retain this information to preserve the provenance of 
# this file and to allow appropriate attribution of the data. 
# 
#######################################################################

data_(R)-MOF-1B
_audit_block_doi                 10.5517/cc110v2z
_database_code_depnum_ccdc_archive 'CCDC 954120'
loop_
_citation_id
_citation_doi
_citation_year
1 10.1002/ajoc.201300140 2013
_audit_update_record             
;
2013-08-06 deposited with the CCDC.	2024-07-14 downloaded from the CCDC.
;

#==============================================================================
# CHEMICAL DATA

_chemical_formula_sum            'C129 H149 Cu4 N11 O39'
_chemical_formula_moiety         
'C51 H41 Cu2 N O14, C48 H36 Cu2 O14, 10(C3 H7 N O), H2 O'
_chemical_formula_weight         2731.83
_chemical_melting_point          ?
_chemical_absolute_configuration ad

#==============================================================================
# CRYSTAL DATA
_symmetry_cell_setting           monoclinic
_symmetry_space_group_name_H-M   'P 1 21 1'
_symmetry_space_group_name_Hall  'P 2yb'
_symmetry_Int_Tables_number      4
loop_
_symmetry_equiv_pos_site_id
_symmetry_equiv_pos_as_xyz
1 +X,+Y,+Z
2 -X,1/2+Y,-Z
#------------------------------------------------------------------------------
_cell_length_a                   15.5137(11)
_cell_length_b                   26.7605(8)
_cell_length_c                   15.6854(11)
_cell_angle_alpha                90.0000
_cell_angle_beta                 90.796(7)
_cell_angle_gamma                90.0000
_cell_volume                     6511.2(7)
_cell_formula_units_Z            2
_cell_measurement_reflns_used    33601
_cell_measurement_theta_min      3.27
_cell_measurement_theta_max      68.36
_cell_measurement_temperature    153
#------------------------------------------------------------------------------
_exptl_crystal_description       platelet
_exptl_crystal_colour            blue
_exptl_crystal_size_max          0.150
_exptl_crystal_size_mid          0.130
_exptl_crystal_size_min          0.050
_exptl_crystal_density_diffrn    1.393
_exptl_crystal_density_meas      ?
_exptl_crystal_density_method    'not measured'
_exptl_crystal_F_000             2856.00
_exptl_absorpt_coefficient_mu    1.455
_exptl_absorpt_correction_type   multi-scan
_exptl_absorpt_process_details   'ABSCOR (Rigaku, 1995)'
_exptl_absorpt_correction_T_min  0.521
_exptl_absorpt_correction_T_max  0.930

#==============================================================================
# EXPERIMENTAL DATA

_diffrn_ambient_temperature      153
_diffrn_radiation_type           'Cu K\a'
_diffrn_radiation_wavelength     1.54187
_diffrn_measurement_device_type  'Rigaku R-AXIS RAPID'
_diffrn_measurement_method       \w
_diffrn_detector_area_resol_mean 10.000
_diffrn_reflns_number            76410
_diffrn_reflns_av_R_equivalents  0.0795
_diffrn_reflns_theta_max         68.25
_diffrn_reflns_theta_full        68.25
_diffrn_measured_fraction_theta_max 0.992
_diffrn_measured_fraction_theta_full 0.992
_diffrn_reflns_limit_h_min       -18
_diffrn_reflns_limit_h_max       18
_diffrn_reflns_limit_k_min       -32
_diffrn_reflns_limit_k_max       32
_diffrn_reflns_limit_l_min       -18
_diffrn_reflns_limit_l_max       18
_diffrn_standards_number         0
_diffrn_standards_interval_count .
_diffrn_standards_decay_%        ?

#==============================================================================
# REFINEMENT DATA

_refine_special_details          
;
    Refinement was performed using all reflections. The weighted 
    R-factor (wR) and goodness of fit (S) are based on F^2^.
    R-factor (gt) are based on F. The threshold expression of
    F^2^ > 2.0 sigma(F^2^) is used only for calculating R-factor (gt).
;
_reflns_number_total             22924
_reflns_number_gt                18359
_reflns_threshold_expression     F^2^>2.0\s(F^2^)
_refine_ls_structure_factor_coef Fsqd
_refine_ls_R_factor_gt           0.0806
_refine_ls_wR_factor_ref         0.2076
_refine_ls_number_restraints     1524
_refine_ls_hydrogen_treatment    constr
_refine_ls_number_reflns         22924
_refine_ls_number_parameters     1677
_refine_ls_goodness_of_fit_ref   1.010
_refine_ls_weighting_scheme      calc
_refine_ls_weighting_details     
'w = 1/[\s^2^(Fo^2^)+(0.1349P)^2^+0.0000P] where P=(Fo^2^+2Fc^2^)/3'
_atom_sites_solution_hydrogens   geom
_atom_sites_solution_primary     direct
_atom_sites_solution_secondary   difmap
_refine_ls_shift/su_max          0.026
_refine_diff_density_max         1.310
_refine_diff_density_min         -0.520
_refine_ls_extinction_method     none
_refine_ls_extinction_coef       ?
_refine_ls_abs_structure_details 
'Flack, H. D. (1983), Acta Cryst. A39, 876-881.  10786 Friedel Pairs'
_refine_ls_abs_structure_Flack   0.01(3)

loop_
_atom_type_symbol
_atom_type_description
_atom_type_scat_dispersion_real
_atom_type_scat_dispersion_imag
_atom_type_scat_source
C C 0.018 0.009
;
International Tables for Crystallography
(1992, Vol. C, Tables 4.2.6.8 and 6.1.1.4)
;
H H 0.000 0.000
;
International Tables for Crystallography
(1992, Vol. C, Table 6.1.1.4)
;
Cu Cu -1.965 0.589
;
International Tables for Crystallography
(1992, Vol. C, Tables 4.2.6.8 and 6.1.1.4)
;
N N 0.031 0.018
;
International Tables for Crystallography
(1992, Vol. C, Tables 4.2.6.8 and 6.1.1.4)
;
O O 0.049 0.032
;
International Tables for Crystallography
(1992, Vol. C, Tables 4.2.6.8 and 6.1.1.4)
;

#==============================================================================
# ATOMIC COORDINATES AND THERMAL PARAMETERS

loop_
_atom_site_label
_atom_site_type_symbol
_atom_site_fract_x
_atom_site_fract_y
_atom_site_fract_z
_atom_site_U_iso_or_equiv
_atom_site_adp_type
_atom_site_occupancy
_atom_site_symmetry_multiplicity
_atom_site_calc_flag
_atom_site_refinement_flags
_atom_site_disorder_assembly
_atom_site_disorder_group
Cu1 Cu 0.57987(5) 0.82791(3) 0.11374(5) 0.0440(2) Uani 1.0 2 d U . .
Cu2 Cu 0.54289(5) 0.92377(3) 0.12720(5) 0.0451(2) Uani 1.0 2 d U . .
Cu3 Cu -0.07966(5) 0.70630(3) 0.62558(5) 0.0438(2) Uani 1.0 2 d U . .
Cu4 Cu -0.04703(5) 0.60986(3) 0.64199(5) 0.0434(2) Uani 1.0 2 d U . .
O1 O 0.4550(3) 0.81862(16) 0.1047(3) 0.0567(10) Uani 1.0 2 d U . .
O2 O 0.4236(3) 0.89901(18) 0.1211(3) 0.0592(11) Uani 1.0 2 d U . .
O3 O 0.5713(3) 0.83107(16) 0.2383(3) 0.0523(9) Uani 1.0 2 d U . .
O4 O 0.5432(3) 0.91223(15) 0.2511(3) 0.0527(10) Uani 1.0 2 d U . .
O5 O 0.6984(3) 0.85202(17) 0.1163(3) 0.0569(10) Uani 1.0 2 d U . .
O6 O 0.6680(3) 0.93256(17) 0.1297(3) 0.0599(11) Uani 1.0 2 d U . .
O7 O 0.5818(4) 0.84006(17) -0.0111(3) 0.0641(12) Uani 1.0 2 d U . .
O8 O 0.5469(4) 0.92006(19) 0.0021(3) 0.0685(12) Uani 1.0 2 d U . .
O9 O 0.6126(3) 0.75019(15) 0.1046(3) 0.0531(10) Uani 1.0 2 d U . .
O10 O 0.5169(3) 1.00172(17) 0.1302(4) 0.0648(12) Uani 1.0 2 d U . .
O11 O 0.0774(3) 0.96068(16) -0.0956(3) 0.0568(10) Uani 1.0 2 d U . .
O12 O 0.0313(3) 0.84307(17) -0.1443(3) 0.0579(11) Uani 1.0 2 d U . .
O13 O 0.3736(4) 0.98832(18) 0.6065(3) 0.0672(12) Uani 1.0 2 d U . .
O14 O 0.2868(3) 0.8896(2) 0.6489(3) 0.0657(12) Uani 1.0 2 d U . .
O15 O -0.0855(4) 0.69052(17) 0.5006(3) 0.0627(12) Uani 1.0 2 d U . .
O16 O -0.0616(4) 0.60903(16) 0.5175(3) 0.0614(11) Uani 1.0 2 d U . .
O17 O 0.0446(3) 0.71401(17) 0.6159(3) 0.0581(11) Uani 1.0 2 d U . .
O18 O 0.0734(3) 0.63355(17) 0.6247(3) 0.0572(11) Uani 1.0 2 d U . .
O19 O -0.0696(3) 0.70282(17) 0.7505(3) 0.0588(11) Uani 1.0 2 d U . .
O20 O -0.0370(3) 0.62189(16) 0.7644(3) 0.0565(11) Uani 1.0 2 d U . .
O21 O -0.2008(3) 0.68751(17) 0.6296(3) 0.0574(10) Uani 1.0 2 d U . .
O22 O -0.1741(3) 0.60674(17) 0.6514(3) 0.0558(10) Uani 1.0 2 d U . .
O23 O -0.1084(3) 0.78379(16) 0.6147(3) 0.0546(10) Uani 1.0 2 d U . .
O24 O -0.0248(3) 0.53191(17) 0.6502(3) 0.0587(11) Uani 1.0 2 d U . .
O25 O 0.2036(3) 0.64756(19) 0.1728(3) 0.0608(11) Uani 1.0 2 d U . .
O26 O 0.1202(4) 0.54557(17) 0.1298(3) 0.0615(11) Uani 1.0 2 d U . .
O27 O 0.4197(3) 0.57410(17) 0.4097(3) 0.0584(11) Uani 1.0 2 d U . .
O28 O 0.4675(3) 0.68828(17) 0.3583(3) 0.0556(10) Uani 1.0 2 d U . .
O29 O 0.0209(6) 0.8931(3) 0.4908(6) 0.126(3) Uani 1.0 2 d U . .
O30 O 0.1861(4) 0.4985(3) 0.3269(4) 0.0863(16) Uani 1.0 2 d U . .
O31 O 0.6760(6) 0.5389(3) 0.1644(6) 0.124(3) Uani 1.0 2 d U . .
O32 O 0.6431(6) 1.0620(4) 0.0668(6) 0.142(3) Uani 1.0 2 d U . .
O33 O 0.3605(4) 1.0329(3) 0.0835(5) 0.0911(17) Uani 1.0 2 d U . .
O34 O 0.3571(6) 0.6897(4) 1.0272(5) 0.123(3) Uani 1.0 2 d U . .
O35 O -0.2228(4) 0.7956(2) 0.7428(3) 0.0708(12) Uani 1.0 2 d U . .
O36 O -0.1822(6) 0.8009(3) 0.4606(4) 0.117(3) Uani 1.0 2 d U . .
O37 O 0.1365(4) 0.4995(3) 0.6240(4) 0.0854(16) Uani 1.0 2 d U . .
O38 O 0.2521(6) 0.9143(4) 0.3313(6) 0.148(3) Uani 1.0 2 d U . .
O39 O -0.1349(6) 0.4677(3) 0.5658(5) 0.124(3) Uani 1.0 2 d . . .
N1 N 0.6008(5) 0.6759(3) 0.0374(4) 0.0707(14) Uani 1.0 2 d U . .
N2 N 0.0360(6) 0.8304(4) 0.3987(7) 0.105(2) Uani 1.0 2 d U . .
N3 N 0.0411(4) 0.4870(3) 0.3433(4) 0.0706(14) Uani 1.0 2 d U . .
N4 N 0.5276(5) 0.5457(3) 0.1596(5) 0.0735(15) Uani 1.0 2 d U . .
N5 N 0.7219(6) 1.0905(4) 0.1789(6) 0.106(2) Uani 1.0 2 d U . .
N6 N 0.2340(6) 1.0271(4) 0.1462(6) 0.104(3) Uani 1.0 2 d U . .
N7 N 0.2586(6) 0.7252(4) 0.9321(6) 0.110(3) Uani 1.0 2 d U . .
N8 N -0.3505(4) 0.7596(3) 0.7738(4) 0.0723(15) Uani 1.0 2 d U . .
N9 N -0.1937(5) 0.7906(3) 0.3193(5) 0.0862(18) Uani 1.0 2 d U . .
N10 N 0.2274(5) 0.4510(3) 0.5510(5) 0.0876(18) Uani 1.0 2 d U . .
N11 N 0.2962(6) 0.8367(5) 0.3795(6) 0.117(3) Uani 1.0 2 d U . .
C1 C 0.4020(4) 0.8533(3) 0.1067(4) 0.0483(12) Uani 1.0 2 d U . .
C2 C 0.5537(4) 0.8696(3) 0.2815(4) 0.0443(12) Uani 1.0 2 d U . .
C3 C 0.7195(4) 0.8977(3) 0.1202(4) 0.0510(13) Uani 1.0 2 d U . .
C4 C 0.5669(5) 0.8829(3) -0.0410(4) 0.0508(13) Uani 1.0 2 d U . .
C5 C 0.3094(4) 0.8416(3) 0.0929(4) 0.0526(13) Uani 1.0 2 d U . .
C6 C 0.2775(5) 0.7977(3) 0.1250(5) 0.0627(16) Uani 1.0 2 d U . .
C7 C 0.1905(5) 0.7861(3) 0.1200(5) 0.0638(16) Uani 1.0 2 d U . .
C8 C 0.1352(4) 0.8168(3) 0.0774(5) 0.0571(15) Uani 1.0 2 d U . .
C9 C 0.1632(4) 0.8613(3) 0.0380(4) 0.0477(12) Uani 1.0 2 d U . .
C10 C 0.1055(4) 0.8917(3) -0.0090(4) 0.0475(12) Uani 1.0 2 d U . .
C11 C 0.1373(4) 0.9350(3) -0.0505(4) 0.0497(12) Uani 1.0 2 d U . .
C12 C 0.2238(4) 0.9480(3) -0.0435(4) 0.0505(13) Uani 1.0 2 d U . .
C13 C 0.2805(4) 0.9189(3) 0.0047(4) 0.0492(12) Uani 1.0 2 d U . .
C14 C 0.2524(4) 0.8749(3) 0.0464(4) 0.0484(12) Uani 1.0 2 d U . .
C15 C 0.1033(5) 1.0074(3) -0.1333(6) 0.0701(18) Uani 1.0 2 d U . .
C16 C 0.0119(4) 0.8821(3) -0.0136(4) 0.0468(12) Uani 1.0 2 d U . .
C17 C -0.0438(4) 0.8993(3) 0.0518(4) 0.0486(12) Uani 1.0 2 d U . .
C18 C -0.0085(4) 0.9296(3) 0.1196(4) 0.0544(14) Uani 1.0 2 d U . .
C19 C -0.0614(5) 0.9508(3) 0.1791(5) 0.0639(16) Uani 1.0 2 d U . .
C20 C -0.1510(5) 0.9417(3) 0.1757(5) 0.0583(15) Uani 1.0 2 d U . .
C21 C -0.1870(4) 0.9100(3) 0.1148(4) 0.0533(14) Uani 1.0 2 d U . .
C22 C -0.1331(4) 0.8892(3) 0.0497(4) 0.0471(12) Uani 1.0 2 d U . .
C23 C -0.1666(4) 0.8611(3) -0.0205(4) 0.0493(13) Uani 1.0 2 d U . .
C24 C -0.1146(4) 0.8467(2) -0.0862(4) 0.0451(12) Uani 1.0 2 d U . .
C25 C -0.0249(4) 0.8568(3) -0.0821(4) 0.0477(12) Uani 1.0 2 d U . .
C26 C -0.0032(5) 0.8210(3) -0.2200(4) 0.0649(17) Uani 1.0 2 d U . .
C27 C 0.5435(4) 0.8618(3) 0.3752(4) 0.0458(12) Uani 1.0 2 d U . .
C28 C 0.5800(4) 0.8188(3) 0.4097(4) 0.0522(13) Uani 1.0 2 d U . .
C29 C 0.5699(5) 0.8063(3) 0.4960(4) 0.0547(14) Uani 1.0 2 d U . .
C30 C 0.5214(5) 0.8354(3) 0.5476(4) 0.0533(13) Uani 1.0 2 d U . .
C31 C 0.4858(4) 0.8812(2) 0.5181(4) 0.0468(12) Uani 1.0 2 d U . .
C32 C 0.4435(4) 0.9134(3) 0.5755(4) 0.0487(12) Uani 1.0 2 d U . .
C33 C 0.4100(4) 0.9581(3) 0.5469(4) 0.0513(13) Uani 1.0 2 d U . .
C34 C 0.4181(5) 0.9712(3) 0.4599(4) 0.0603(15) Uani 1.0 2 d U . .
C35 C 0.4595(5) 0.9411(3) 0.4059(4) 0.0557(14) Uani 1.0 2 d U . .
C36 C 0.4965(4) 0.8946(3) 0.4297(4) 0.0494(12) Uani 1.0 2 d U . .
C37 C 0.3380(7) 1.0339(3) 0.5795(6) 0.088(3) Uani 1.0 2 d U . .
C38 C 0.4357(4) 0.9002(3) 0.6688(4) 0.0480(12) Uani 1.0 2 d U . .
C39 C 0.5100(4) 0.8992(3) 0.7228(4) 0.0464(12) Uani 1.0 2 d U . .
C40 C 0.5933(4) 0.9111(2) 0.6924(4) 0.0476(13) Uani 1.0 2 d U . .
C41 C 0.6637(4) 0.9117(3) 0.7457(4) 0.0521(14) Uani 1.0 2 d U . .
C42 C 0.6556(4) 0.9016(3) 0.8325(4) 0.0543(14) Uani 1.0 2 d U . .
C43 C 0.5744(4) 0.8895(3) 0.8653(4) 0.0501(13) Uani 1.0 2 d U . .
C44 C 0.5021(4) 0.8889(3) 0.8115(4) 0.0482(12) Uani 1.0 2 d U . .
C45 C 0.4188(4) 0.8788(3) 0.8435(4) 0.0542(14) Uani 1.0 2 d U . .
C46 C 0.3487(5) 0.8787(3) 0.7893(4) 0.0569(14) Uani 1.0 2 d U . .
C47 C 0.3552(4) 0.8900(3) 0.7017(4) 0.0505(13) Uani 1.0 2 d U . .
C48 C 0.2029(6) 0.8925(5) 0.6801(6) 0.096(3) Uani 1.0 2 d U . .
C49 C 0.5701(5) 0.7201(3) 0.0636(4) 0.0583(14) Uani 1.0 2 d U . .
C50 C 0.6898(7) 0.6624(4) 0.0578(7) 0.091(3) Uani 1.0 2 d U . .
C51 C 0.5505(7) 0.6416(4) -0.0130(6) 0.089(3) Uani 1.0 2 d U . .
C52 C -0.0783(4) 0.6466(3) 0.4742(4) 0.0473(12) Uani 1.0 2 d U . .
C53 C 0.0949(4) 0.6782(3) 0.6145(4) 0.0475(12) Uani 1.0 2 d U . .
C54 C -0.0494(4) 0.6651(3) 0.7950(4) 0.0449(12) Uani 1.0 2 d U . .
C55 C -0.2232(4) 0.6414(3) 0.6394(4) 0.0478(12) Uani 1.0 2 d U . .
C56 C -0.0871(4) 0.6395(3) 0.3795(4) 0.0456(12) Uani 1.0 2 d U . .
C57 C -0.1650(4) 0.6255(3) 0.3440(4) 0.0501(13) Uani 1.0 2 d U . .
C58 C -0.1722(4) 0.6167(3) 0.2573(4) 0.0499(13) Uani 1.0 2 d U . .
C59 C -0.1034(4) 0.6211(2) 0.2057(4) 0.0469(12) Uani 1.0 2 d U . .
C60 C -0.0199(4) 0.6335(2) 0.2396(4) 0.0425(11) Uani 1.0 2 d U . .
C61 C 0.0543(4) 0.6344(3) 0.1878(4) 0.0480(12) Uani 1.0 2 d U . .
C62 C 0.1331(4) 0.6465(3) 0.2256(4) 0.0504(13) Uani 1.0 2 d U . .
C63 C 0.1399(4) 0.6566(3) 0.3134(4) 0.0509(13) Uani 1.0 2 d U . .
C64 C 0.0696(4) 0.6563(3) 0.3629(4) 0.0498(13) Uani 1.0 2 d U . .
C65 C -0.0135(4) 0.6430(3) 0.3285(4) 0.0461(12) Uani 1.0 2 d U . .
C66 C 0.2854(6) 0.6407(5) 0.2101(6) 0.095(3) Uani 1.0 2 d U . .
C67 C 0.0500(4) 0.6210(3) 0.0951(4) 0.0478(12) Uani 1.0 2 d U . .
C68 C 0.0072(4) 0.6528(3) 0.0360(4) 0.0487(12) Uani 1.0 2 d U . .
C69 C -0.0268(4) 0.6992(2) 0.0620(4) 0.0475(12) Uani 1.0 2 d U . .
C70 C -0.0703(5) 0.7298(3) 0.0055(4) 0.0544(14) Uani 1.0 2 d U . .
C71 C -0.0775(5) 0.7170(3) -0.0806(4) 0.0541(14) Uani 1.0 2 d U . .
C72 C -0.0432(4) 0.6723(3) -0.1108(4) 0.0502(13) Uani 1.0 2 d U . .
C73 C -0.0001(4) 0.6399(3) -0.0522(4) 0.0469(12) Uani 1.0 2 d U . .
C74 C 0.0349(5) 0.5918(3) -0.0752(4) 0.0560(14) Uani 1.0 2 d U . .
C75 C 0.0737(5) 0.5617(3) -0.0176(4) 0.0597(15) Uani 1.0 2 d U . .
C76 C 0.0811(5) 0.5753(3) 0.0693(4) 0.0562(14) Uani 1.0 2 d U . .
C77 C 0.1560(6) 0.4997(3) 0.1053(5) 0.0703(19) Uani 1.0 2 d U . .
C78 C 0.1894(4) 0.6898(3) 0.6008(4) 0.0496(12) Uani 1.0 2 d U . .
C79 C 0.2189(5) 0.7337(3) 0.6342(5) 0.0603(15) Uani 1.0 2 d U . .
C80 C 0.3080(5) 0.7479(3) 0.6269(5) 0.0656(16) Uani 1.0 2 d U . .
C81 C 0.3623(4) 0.7184(3) 0.5821(4) 0.0538(14) Uani 1.0 2 d U . .
C82 C 0.3344(4) 0.6725(3) 0.5442(4) 0.0479(12) Uani 1.0 2 d U . .
C83 C 0.3908(4) 0.6423(3) 0.4961(4) 0.0472(12) Uani 1.0 2 d U . .
C84 C 0.3609(4) 0.5997(3) 0.4567(4) 0.0468(12) Uani 1.0 2 d U . .
C85 C 0.2752(4) 0.5848(3) 0.4670(4) 0.0484(13) Uani 1.0 2 d U . .
C86 C 0.2199(4) 0.6122(3) 0.5147(4) 0.0500(13) Uani 1.0 2 d U . .
C87 C 0.2445(4) 0.6578(3) 0.5532(4) 0.0457(12) Uani 1.0 2 d U . .
C88 C 0.3972(5) 0.5261(3) 0.3792(5) 0.0641(17) Uani 1.0 2 d U . .
C89 C 0.4860(4) 0.6532(3) 0.4940(4) 0.0495(12) Uani 1.0 2 d U . .
C90 C 0.5392(4) 0.6381(3) 0.5636(4) 0.0496(12) Uani 1.0 2 d U . .
C91 C 0.5050(4) 0.6098(3) 0.6333(4) 0.0582(14) Uani 1.0 2 d U . .
C92 C 0.5571(5) 0.5938(3) 0.6976(5) 0.0654(17) Uani 1.0 2 d U . .
C93 C 0.6449(5) 0.6036(3) 0.6989(4) 0.0616(15) Uani 1.0 2 d U . .
C94 C 0.6811(4) 0.6318(3) 0.6351(4) 0.0513(13) Uani 1.0 2 d U . .
C95 C 0.6279(4) 0.6487(3) 0.5648(4) 0.0469(12) Uani 1.0 2 d U . .
C96 C 0.6627(4) 0.6728(3) 0.4927(4) 0.0487(13) Uani 1.0 2 d U . .
C97 C 0.6127(4) 0.6855(2) 0.4247(4) 0.0492(13) Uani 1.0 2 d U . .
C98 C 0.5232(4) 0.6765(2) 0.4241(4) 0.0472(12) Uani 1.0 2 d U . .
C99 C 0.5036(5) 0.7100(3) 0.2829(4) 0.0594(15) Uani 1.0 2 d U . .
C100 C 0.0250(8) 0.8471(5) 0.4788(9) 0.112(3) Uani 1.0 2 d U . .
C101 C 0.0411(8) 0.8630(5) 0.3249(8) 0.115(3) Uani 1.0 2 d U . .
C102 C 0.0415(8) 0.7763(4) 0.3881(9) 0.123(3) Uani 1.0 2 d U . .
C103 C 0.1149(6) 0.5129(3) 0.3491(6) 0.0743(18) Uani 1.0 2 d U . .
C104 C 0.0395(6) 0.4389(3) 0.3051(6) 0.0755(19) Uani 1.0 2 d U . .
C105 C -0.0395(6) 0.5070(4) 0.3760(6) 0.077(2) Uani 1.0 2 d U . .
C107 C 0.5307(6) 0.5891(4) 0.2057(6) 0.087(3) Uani 1.0 2 d U . .
C108 C 0.4488(6) 0.5280(4) 0.1282(7) 0.085(3) Uani 1.0 2 d U . .
C109 C 0.7089(9) 1.0614(5) 0.1116(9) 0.125(3) Uani 1.0 2 d U . .
C106 C 0.6033(7) 0.5218(4) 0.1429(7) 0.094(3) Uani 1.0 2 d U . .
C110 C 0.6630(10) 1.1329(6) 0.2010(10) 0.142(4) Uani 1.0 2 d U . .
C111 C 0.7996(8) 1.0875(6) 0.2329(8) 0.122(3) Uani 1.0 2 d U . .
C112 C 0.3117(7) 1.0141(4) 0.1374(7) 0.091(3) Uani 1.0 2 d U . .
C113 C 0.1959(8) 1.0660(6) 0.1017(9) 0.138(4) Uani 1.0 2 d U . .
C114 C 0.1754(8) 1.0099(5) 0.2065(9) 0.134(4) Uani 1.0 2 d U . .
C115 C 0.2796(9) 0.6957(6) 0.9945(8) 0.123(3) Uani 1.0 2 d U . .
C116 C 0.3226(8) 0.7588(6) 0.9014(8) 0.125(4) Uani 1.0 2 d U . .
C117 C 0.1713(8) 0.7315(7) 0.9009(8) 0.132(4) Uani 1.0 2 d U . .
C118 C -0.2935(5) 0.7797(3) 0.7219(5) 0.0675(16) Uani 1.0 2 d U . .
C119 C -0.3278(7) 0.7531(4) 0.8621(6) 0.094(3) Uani 1.0 2 d U . .
C120 C -0.4342(6) 0.7433(4) 0.7403(7) 0.094(3) Uani 1.0 2 d U . .
C121 C -0.1873(7) 0.7745(4) 0.3983(6) 0.090(3) Uani 1.0 2 d U . .
C122 C -0.2016(7) 0.8449(4) 0.3061(6) 0.092(3) Uani 1.0 2 d U . .
C123 C -0.2003(8) 0.7585(4) 0.2477(7) 0.108(3) Uani 1.0 2 d U . .
C124 C 0.1502(6) 0.4668(4) 0.5689(6) 0.084(2) Uani 1.0 2 d U . .
C125 C 0.3029(6) 0.4683(5) 0.6024(7) 0.102(3) Uani 1.0 2 d U . .
C126 C 0.2386(8) 0.4148(4) 0.4842(6) 0.104(3) Uani 1.0 2 d U . .
C127 C 0.2936(8) 0.8749(6) 0.3249(9) 0.128(3) Uani 1.0 2 d U . .
C128 C 0.2545(8) 0.8476(6) 0.4585(8) 0.131(4) Uani 1.0 2 d U . .
C129 C 0.3497(8) 0.7960(6) 0.3633(8) 0.127(4) Uani 1.0 2 d U . .
H6 H 0.3161 0.7747 0.1514 0.0753 Uiso 1.0 2 calc R . .
H7 H 0.1696 0.7566 0.1463 0.0765 Uiso 1.0 2 calc R . .
H8 H 0.0759 0.8082 0.0739 0.0685 Uiso 1.0 2 calc R . .
H10A H 0.0989 0.8608 0.3007 0.1385 Uiso 1.0 2 calc R . .
H10B H 0.0297 0.8975 0.3421 0.1385 Uiso 1.0 2 calc R . .
H10C H -0.0017 0.8526 0.2819 0.1385 Uiso 1.0 2 calc R . .
H10D H 0.0101 0.7598 0.4340 0.1478 Uiso 1.0 2 calc R . .
H10E H 0.1021 0.7660 0.3903 0.1478 Uiso 1.0 2 calc R . .
H10F H 0.0160 0.7669 0.3329 0.1478 Uiso 1.0 2 calc R . .
H10G H 0.0961 0.4316 0.2810 0.0906 Uiso 1.0 2 calc R . .
H10H H -0.0045 0.4381 0.2598 0.0906 Uiso 1.0 2 calc R . .
H10I H 0.0260 0.4138 0.3484 0.0906 Uiso 1.0 2 calc R . .
H10J H -0.0783 0.5152 0.3282 0.0929 Uiso 1.0 2 calc R . .
H10K H -0.0275 0.5373 0.