####################################################################### 
# 
# This file contains crystal structure data downloaded from the 
# Cambridge Structural Database (CSD) hosted by the Cambridge 
# Crystallographic Data Centre (CCDC).
# 
# Full information about CCDC data access policies and citation 
# guidelines are available at http://www.ccdc.cam.ac.uk/access/V1 
# 
# Audit and citation data items may have been added by the CCDC. 
# Please retain this information to preserve the provenance of 
# this file and to allow appropriate attribution of the data. 
# 
#######################################################################

data_I
_audit_block_doi                 10.5517/ccwssr5
_database_code_depnum_ccdc_archive 'CCDC 828188'
loop_
_citation_id
_citation_doi
_citation_year
1 10.1107/S0108270113027984 2013
_audit_update_record             
;
2013-10-11 deposited with the CCDC.	2024-07-14 downloaded from the CCDC.
;

_iucr_refine_instructions_details 
;
TITL c in P2(1)/c
CELL 0.71073  10.8740  22.7023   9.1367  90.000 106.7012  90.000
ZERR    4.00   0.0039   0.0082   0.0028   0.000   0.0082  0.000
LATT  1
SYMM -X, 0.5+Y, 0.5-Z
SFAC C H N O CU
UNIT 88 92 12 20 4
L.S. 8
EQIV $1 x,1/2-y,-1/2+z
EQIV $2 x,1/2-y, 1/2+z
ACTA
CONF
HTAB
BOND $H
HTAB O1w O4
HTAB O1w O1_$1
RTAB D..D CU1 O3_$2
RTAB D..D CU1 CU1_$2
RTAB ANG O3_$2 CU1 O1
RTAB ANG O3_$2 CU1 O2
RTAB ANG O3_$2 CU1 N1
RTAB ANG O3_$2 CU1 N2_$2
RTAB D..D O1W O4
RTAB D..D H1W O4
RTAB ANG O1W H1W O4
RTAB D..D O1W O1_$1
RTAB D..D H2W O1_$1
RTAB ANG O1W H2W O1_$1
CONF CU1 N1 N2 CU1_$1
MPLA 4 O1 O2 N1 N2_$2 O3_$2 CU1
MPLA C1 C2 C3 C4 C5 C6
MPLA C10 C11 C12 C13 C14 C15 C16 C17 C18 C19
MPLA C1 C2 C3 C4 C5 C6 C7 C8 C9 O1 O2 N1 N2
MPLA C10 C11 C12 C13 C14 C15 C16 C17 C18 C19 O3
MPLA C1 C2 C3 C4 C5 C6
MPLA C2 C7 C1 O1 CU1 N1
MPLA CU1 O2 C8 N2 N1
MPLA C10 C11 C12 C13 C14 C15 C16 C17 C18 C19
DFIX 0.84 0.02 O1w H2w
DFIX 0.84 0.02 O1w h1w
FMAP 2
PLAN 20
WGHT    0.044900
FVAR       0.24069
CU1   5    0.224695    0.276839    0.766830    11.00000    0.05446    0.04969 =
         0.02148   -0.00012    0.01581    0.00126
O1    4    0.091652    0.329666    0.770903    11.00000    0.06271    0.06925 =
         0.03057   -0.00020    0.01947    0.01240
O2    4    0.357349    0.223660    0.740370    11.00000    0.06467    0.06610 =
         0.02265    0.00058    0.01304    0.01559
O3    4    0.385824    0.150399    0.414103    11.00000    0.07109    0.06332 =
         0.03262   -0.00559    0.00962    0.02008
N1    3    0.189719    0.281990    0.547774    11.00000    0.05263    0.04213 =
         0.02520   -0.00103    0.01603    0.00106
N2    3    0.261435    0.242762    0.487683    11.00000    0.05420    0.04413 =
         0.02310    0.00224    0.01730    0.00603
C1    1    0.027778    0.364352    0.658815    11.00000    0.05577    0.05687 =
         0.03596   -0.00430    0.01476    0.00393
C2    1    0.033412    0.358883    0.504985    11.00000    0.05809    0.05266 =
         0.03591    0.00095    0.01495    0.00848
C3    1   -0.039765    0.397755    0.393282    11.00000    0.09118    0.07518 =
         0.04503    0.00757    0.02104    0.02945
AFIX  43
H3A   2   -0.036959    0.394086    0.292914    11.00000   -1.20000
AFIX   0
C4    1   -0.114489    0.440554    0.428296    11.00000    0.11244    0.09305 =
         0.05929    0.01439    0.02485    0.05306
AFIX  43
H4A   2   -0.162057    0.465874    0.353188    11.00000   -1.20000
AFIX   0
C5    1   -0.118178    0.445610    0.579112    11.00000    0.09964    0.09138 =
         0.06794   -0.00391    0.02298    0.04569
AFIX  43
H5A   2   -0.168233    0.474853    0.604712    11.00000   -1.20000
AFIX   0
C6    1   -0.049567    0.408360    0.689526    11.00000    0.07798    0.08330 =
         0.04834   -0.00552    0.02287    0.02620
AFIX  43
H6A   2   -0.054828    0.412617    0.788785    11.00000   -1.20000
AFIX   0
C7    1    0.110017    0.316594    0.457327    11.00000    0.05859    0.05190 =
         0.02634    0.00277    0.01443    0.00084
AFIX  43
H7A   2    0.101777    0.313825    0.353390    11.00000   -1.20000
AFIX   0
C8    1    0.345290    0.215232    0.598777    11.00000    0.05258    0.04974 =
         0.02739   -0.00171    0.01775   -0.00011
C9    1    0.437497    0.173298    0.563133    11.00000    0.06252    0.05972 =
         0.03107   -0.00337    0.01424    0.00637
AFIX  23
H9A   2    0.517795    0.193317    0.570147    11.00000   -1.20000
H9B   2    0.454896    0.141347    0.636722    11.00000   -1.20000
AFIX   0
C10   1    0.446818    0.102443    0.374278    11.00000    0.06131    0.05221 =
         0.03899   -0.00007    0.01964    0.00533
C11   1    0.566287    0.083528    0.450985    11.00000    0.06726    0.05932 =
         0.04048   -0.00299    0.01713    0.00613
AFIX  43
H11A  2    0.612064    0.102918    0.539556    11.00000   -1.20000
AFIX   0
C12   1    0.622010    0.034836    0.398182    11.00000    0.07078    0.05482 =
         0.04856    0.00647    0.02855    0.00862
C13   1    0.747834    0.015015    0.471603    11.00000    0.08000    0.08554 =
         0.06432    0.00400    0.01756    0.02968
AFIX  43
H13A  2    0.796636    0.034373    0.558668    11.00000   -1.20000
AFIX   0
C14   1    0.798335   -0.031617    0.417286    11.00000    0.08965    0.08964 =
         0.08781    0.01524    0.03238    0.03472
AFIX  43
H14A  2    0.881219   -0.044025    0.467612    11.00000   -1.20000
AFIX   0
C15   1    0.728016   -0.061194    0.287366    11.00000    0.10519    0.05823 =
         0.10712    0.00971    0.06290    0.01972
AFIX  43
H15A  2    0.763986   -0.093200    0.251142    11.00000   -1.20000
AFIX   0
C16   1    0.607345   -0.043675    0.213148    11.00000    0.09534    0.05338 =
         0.08104   -0.00721    0.04709   -0.00397
AFIX  43
H16A  2    0.560824   -0.064022    0.126579    11.00000   -1.20000
AFIX   0
C17   1    0.550639    0.005315    0.265433    11.00000    0.07717    0.04492 =
         0.06030    0.00023    0.03760    0.00170
C18   1    0.426826    0.026011    0.190579    11.00000    0.07360    0.06565 =
         0.06015   -0.01891    0.02088   -0.01204
AFIX  43
H18A  2    0.378653    0.006685    0.103117    11.00000   -1.20000
AFIX   0
C19   1    0.375541    0.073216    0.241887    11.00000    0.06035    0.06635 =
         0.05248   -0.01251    0.01461    0.00281
AFIX  43
H19A  2    0.293544    0.086196    0.189688    11.00000   -1.20000
AFIX   0
O4    4   -0.163255    0.231173    0.554356    11.00000    0.12414    0.13703 =
         0.11352   -0.02910    0.03284    0.05104
N3    3   -0.291402    0.299750    0.606008    11.00000    0.07240    0.09372 =
         0.07347   -0.00880    0.01721    0.01499
C20   1   -0.198068    0.261237    0.644615    11.00000    0.07686    0.10296 =
         0.07705   -0.00569    0.01676    0.02055
AFIX  43
H20A  2   -0.155733    0.256647    0.747986    11.00000   -1.20000
AFIX   0
C21   1   -0.352302    0.313046    0.446926    11.00000    0.13030    0.16261 =
         0.09241   -0.01101   -0.02142    0.03864
AFIX 137
H21A  2   -0.319127    0.287327    0.383937    11.00000   -1.50000
H21B  2   -0.334889    0.353211    0.426689    11.00000   -1.50000
H21C  2   -0.443339    0.307432    0.424491    11.00000   -1.50000
AFIX   0
C22   1   -0.330907    0.333968    0.718175    11.00000    0.13829    0.12594 =
         0.12694   -0.01840    0.06939    0.03764
AFIX 137
H22A  2   -0.287504    0.319765    0.818731    11.00000   -1.50000
H22B  2   -0.421988    0.330235    0.700203    11.00000   -1.50000
H22C  2   -0.309454    0.374620    0.710050    11.00000   -1.50000
AFIX   0
O1W   4    0.043498    0.160603    0.572700    11.00000    0.09058    0.09851 =
         0.05611    0.02288    0.03435    0.02451
H1W   2   -0.025924    0.180129    0.554697    11.00000    0.08274
H2W   2    0.051903    0.159913    0.487691    11.00000    0.07747
 
HKLF 4
 
REM  c in P2(1)/c
REM R1 =  0.0423 for   3261 Fo > 4sig(Fo)  and  0.0750 for all   4922 data
REM    290 parameters refined using      2 restraints
 
END  
     
WGHT      0.0450      0.0000 
REM Highest difference peak  0.448,  deepest hole -0.405,  1-sigma level  0.056
Q1    1   0.2084  0.2780  0.6445  11.00000  0.05    0.45
Q2    1   0.3267  0.2781  0.6932  11.00000  0.05    0.44
Q3    1   0.2426  0.2281  0.3986  11.00000  0.05    0.43
Q4    1   0.2797  0.2456  0.7465  11.00000  0.05    0.40
Q5    1   0.2793  0.3082  0.7417  11.00000  0.05    0.35
Q6    1   0.1964  0.2182  0.7167  11.00000  0.05    0.32
Q7    1   0.1620  0.3058  0.7919  11.00000  0.05    0.31
Q8    1  -0.1961  0.4703  0.3146  11.00000  0.05    0.27
Q9    1   0.3738  0.2128  0.7688  11.00000  0.05    0.26
Q10   1   0.4013  0.2195  0.7948  11.00000  0.05    0.26
Q11   1   0.1075  0.3498  0.7506  11.00000  0.05    0.26
Q12   1   0.0068  0.3503  0.5652  11.00000  0.05    0.26
Q13   1   0.0738  0.3370  0.5008  11.00000  0.05    0.24
Q14   1   0.3418  0.2773  0.8756  11.00000  0.05    0.24
Q15   1   0.1986  0.3293  0.6819  11.00000  0.05    0.23
Q16   1   0.2433  0.3343  0.8562  11.00000  0.05    0.23
Q17   1  -0.1598  0.4889  0.3441  11.00000  0.05    0.23
Q18   1  -0.5378  0.3000  0.5904  11.00000  0.05    0.22
Q19   1   0.1703  0.2484  0.7997  11.00000  0.05    0.22
Q20   1  -0.0823  0.2039  0.6286  11.00000  0.05    0.22

;
_publcif_datablock.id            {a67734ae-1b77-4a66-ab20-ce908aa0b95d}
_audit_creation_method           SHELXL-97
_chemical_name_systematic        
;
Catena-{[(2-oxidobenzylidene)(2-naphthoxyacetyl)hydrazonato] copper(II)
dimethylformamide solvate hydrate}
;
_chemical_name_common            ?
_chemical_melting_point          ?
_chemical_formula_moiety         'C22 H23 Cu N3 O5'
_chemical_formula_sum            'C22 H23 Cu N3 O5'
_chemical_formula_weight         472.97

loop_
_atom_type_symbol
_atom_type_description
_atom_type_scat_dispersion_real
_atom_type_scat_dispersion_imag
_atom_type_scat_source
C C 0.0033 0.0016 'International Tables Vol C Tables 4.2.6.8 and 6.1.1.4'
H H 0.0000 0.0000 'International Tables Vol C Tables 4.2.6.8 and 6.1.1.4'
N N 0.0061 0.0033 'International Tables Vol C Tables 4.2.6.8 and 6.1.1.4'
O O 0.0106 0.0060 'International Tables Vol C Tables 4.2.6.8 and 6.1.1.4'
Cu Cu 0.3201 1.2651 'International Tables Vol C Tables 4.2.6.8 and 6.1.1.4'
#========================================================================== 

# 6. CRYSTAL DATA   
_symmetry_cell_setting           monoclinic
_symmetry_space_group_name_H-M   'P 21/c'
_symmetry_space_group_name_Hall  '-P 2ybc'

loop_
_symmetry_equiv_pos_as_xyz
'x, y, z'
'-x, y+1/2, -z+1/2'
'-x, -y, -z'
'x, -y-1/2, z-1/2'

_cell_length_a                   10.874(4)
_cell_length_b                   22.702(8)
_cell_length_c                   9.137(3)
_cell_angle_alpha                90.00
_cell_angle_beta                 106.701(8)
_cell_angle_gamma                90.00
_cell_volume                     2160.4(13)
_cell_formula_units_Z            4
_cell_measurement_temperature    293(2)
_cell_measurement_reflns_used    3261
_cell_measurement_theta_min      3.14
_cell_measurement_theta_max      27.48

_exptl_crystal_description       prism
_exptl_crystal_colour            green
_exptl_crystal_size_max          0.38
_exptl_crystal_size_mid          0.24
_exptl_crystal_size_min          0.16
_exptl_crystal_density_meas      ?
_exptl_crystal_density_diffrn    1.454
_exptl_crystal_density_method    'not measured'
_exptl_crystal_F_000             980
_exptl_absorpt_coefficient_mu    1.050
_exptl_absorpt_correction_type   multi-scan
_exptl_absorpt_correction_T_min  0.746
_exptl_absorpt_correction_T_max  0.845
_exptl_absorpt_process_details   
'TEXRAY version 1.10 (Molecular Structure Corporation, 1999)'

_exptl_special_details           ?

_diffrn_ambient_temperature      293(2)
_diffrn_radiation_wavelength     0.71073
_diffrn_radiation_type           MoK\a
_diffrn_radiation_source         'fine-focus sealed tube'
_diffrn_radiation_monochromator  graphite
_diffrn_measurement_device_type  'Rigaku R-AXIS RAPID'
_diffrn_measurement_method       '\w scans'
_diffrn_detector_area_resol_mean ?
_diffrn_standards_number         none
_diffrn_standards_interval_count 'not measured'
_diffrn_standards_interval_time  'not measured'
_diffrn_standards_decay_%        0
_diffrn_reflns_number            20932
_diffrn_reflns_av_R_equivalents  0.0639
_diffrn_reflns_av_sigmaI/netI    0.0562
_diffrn_reflns_limit_h_min       -12
_diffrn_reflns_limit_h_max       14
_diffrn_reflns_limit_k_min       -29
_diffrn_reflns_limit_k_max       29
_diffrn_reflns_limit_l_min       -11
_diffrn_reflns_limit_l_max       10
_diffrn_reflns_theta_min         3.14
_diffrn_reflns_theta_max         27.48
_reflns_number_total             4922
_reflns_number_gt                3261
_reflns_threshold_expression     >2sigma(I)

_computing_data_collection       
'TEXRAY software (Molecular Structure Corporation,1999)'
_computing_cell_refinement       'TEXRAY Version 1.10'
_computing_data_reduction        'TEXSAN (Molecular Structure Corporation,1999)'
_computing_structure_solution    'SHELXS-97 (Sheldrick, 2008)'
_computing_structure_refinement  'SHELXL-97 (Sheldrick, 2008)'
_computing_molecular_graphics    'ORTEX (P.McArdle,1995)'
_computing_publication_material  'SHELXL-97/2 (Sheldrick, 2008)'

_refine_special_details          
;
Refinement of <i>F</i>^2^ against ALL reflections. The weighted <i>R</i>-factor
<i>wR</i> and goodness of fit <i>S</i> are based on <i>F</i>^2^, conventional
<i>R</i>-factors <i>R</i> are based on <i>F</i>, with <i>F</i> set to zero for
negative <i>F</i>^2^. The threshold expression of <i>F</i>^2^ >
\s(<i>F</i>^2^) is used only for calculating <i>R</i>-factors(gt) <i>etc</i>.
and is not relevant to the choice of reflections for refinement.
<i>R</i>-factors based on <i>F</i>^2^ are statistically about twice as large
as those based on <i>F</i>, and <i>R</i>- factors based on ALL data will be
even larger.
;

_refine_ls_structure_factor_coef Fsqd
_refine_ls_matrix_type           full
_refine_ls_weighting_scheme      calc
_refine_ls_weighting_details     
'calc w=1/[\s^2^(Fo^2^)+(0.0449P)^2^+0.0000P] where P=(Fo^2^+2Fc^2^)/3'
_atom_sites_solution_primary     direct
_atom_sites_solution_secondary   difmap
_atom_sites_solution_hydrogens   geom
_refine_ls_hydrogen_treatment    mixed
_refine_ls_extinction_method     none
_refine_ls_extinction_coef       ?
_refine_ls_number_reflns         4922
_refine_ls_number_parameters     290
_refine_ls_number_restraints     2
_refine_ls_R_factor_all          0.0750
_refine_ls_R_factor_gt           0.0423
_refine_ls_wR_factor_ref         0.1056
_refine_ls_wR_factor_gt          0.0938
_refine_ls_goodness_of_fit_ref   1.052
_refine_ls_restrained_S_all      1.052
_refine_ls_shift/su_max          0.001
_refine_ls_shift/su_mean         0.000
#=========================================================================

loop_
_atom_site_label
_atom_site_type_symbol
_atom_site_fract_x
_atom_site_fract_y
_atom_site_fract_z
_atom_site_U_iso_or_equiv
_atom_site_adp_type
_atom_site_occupancy
_atom_site_symmetry_multiplicity
_atom_site_calc_flag
_atom_site_refinement_flags
_atom_site_disorder_assembly
_atom_site_disorder_group
Cu1 Cu 0.22469(3) 0.276839(14) 0.76683(3) 0.04085(12) Uani 1 1 d . . .
O1 O 0.09165(19) 0.32967(9) 0.77090(17) 0.0529(5) Uani 1 1 d . . .
O2 O 0.35735(19) 0.22366(8) 0.74037(17) 0.0510(5) Uani 1 1 d . . .
O3 O 0.3858(2) 0.15040(9) 0.41410(18) 0.0568(5) Uani 1 1 d . . .
N1 N 0.1897(2) 0.28199(9) 0.5478(2) 0.0390(5) Uani 1 1 d . . .
N2 N 0.2614(2) 0.24276(9) 0.48768(19) 0.0392(5) Uani 1 1 d . . .
C1 C 0.0278(3) 0.36435(13) 0.6588(3) 0.0492(7) Uani 1 1 d . . .
C2 C 0.0334(3) 0.35888(12) 0.5050(3) 0.0486(7) Uani 1 1 d . . .
C3 C -0.0398(3) 0.39776(15) 0.3933(3) 0.0702(10) Uani 1 1 d . . .
H3A H -0.0370 0.3941 0.2929 0.084 Uiso 1 1 calc R . .
C4 C -0.1145(4) 0.44055(18) 0.4283(4) 0.0882(13) Uani 1 1 d . . .
H4A H -0.1621 0.4659 0.3532 0.106 Uiso 1 1 calc R . .
C5 C -0.1182(4) 0.44561(17) 0.5791(4) 0.0865(12) Uani 1 1 d . . .
H5A H -0.1682 0.4749 0.6047 0.104 Uiso 1 1 calc R . .
C6 C -0.0496(3) 0.40836(15) 0.6895(3) 0.0689(10) Uani 1 1 d . . .
H6A H -0.0548 0.4126 0.7888 0.083 Uiso 1 1 calc R . .
C7 C 0.1100(3) 0.31659(12) 0.4573(3) 0.0451(7) Uani 1 1 d . . .
H7A H 0.1018 0.3138 0.3534 0.054 Uiso 1 1 calc R . .
C8 C 0.3453(3) 0.21523(11) 0.5988(2) 0.0419(6) Uani 1 1 d . . .
C9 C 0.4375(3) 0.17330(13) 0.5631(3) 0.0509(7) Uani 1 1 d . . .
H9A H 0.5178 0.1933 0.5701 0.061 Uiso 1 1 calc R . .
H9B H 0.4549 0.1413 0.6367 0.061 Uiso 1 1 calc R . .
C10 C 0.4468(3) 0.10244(13) 0.3743(3) 0.0497(7) Uani 1 1 d . . .
C11 C 0.5663(3) 0.08353(13) 0.4510(3) 0.0553(8) Uani 1 1 d . . .
H11A H 0.6121 0.1029 0.5396 0.066 Uiso 1 1 calc R . .
C12 C 0.6220(3) 0.03484(13) 0.3982(3) 0.0557(8) Uani 1 1 d . . .
C13 C 0.7478(4) 0.01502(17) 0.4716(4) 0.0773(11) Uani 1 1 d . . .
H13A H 0.7966 0.0344 0.5587 0.093 Uiso 1 1 calc R . .
C14 C 0.7983(4) -0.03162(19) 0.4173(5) 0.0876(12) Uani 1 1 d . . .
H14A H 0.8812 -0.0440 0.4676 0.105 Uiso 1 1 calc R . .
C15 C 0.7280(4) -0.0