
#######################################################################
#
#                 Cambridge Crystallographic Data Centre
#                                CCDC
#
#######################################################################
#
# If this CIF has been generated from an entry in the Cambridge
# Structural Database, then it will include bibliographic, chemical,
# crystal, experimental, refinement or atomic coordinate data resulting
# from the CCDC's data processing and validation procedures.
#
#######################################################################

data_CSD_CIF_YIMWEW
_audit_creation_date 1995-07-26
_audit_creation_method CSD-ConQuest-V1
_database_code_CSD YIMWEW
_database_code_depnum_ccdc_archive 'CCDC 1303314'
_chemical_formula_sum 'C10 H16 O4'
_chemical_formula_moiety
;
C10 H16 O4
;
_journal_coden_Cambridge 182
_journal_year 1995
_journal_page_first 339
_journal_name_full 'Chem.Commun. '
loop_
_publ_author_name
"D.S.Reddy"
"D.C.Craig"
"G.R.Desiraju"
_chemical_name_systematic
;
1,3,5,7-Tetrahydroxyadamantane
;
_chemical_name_common
;
Teaching Subset: Fundamental Chemistry, Symmetry
;
_chemical_melting_point 590
_cell_volume   3025.177
_exptl_crystal_density_diffrn 1.32
_exptl_special_details
;
The packing of this structure is clearly understood only when it is 
simplified and reduced in terms of its hydrogen bond network
;
_diffrn_ambient_temperature ?
_diffrn_special_details
;
The study was carried out at room temperature,in the range 283-303K

;
#These two values have been output from a single CSD field.
_refine_ls_R_factor_gt 0.036
_refine_ls_wR_factor_gt 0.036
_symmetry_cell_setting orthorhombic
_symmetry_space_group_name_H-M 'P b c n'
_symmetry_Int_Tables_number 60
loop_
_symmetry_equiv_pos_site_id
_symmetry_equiv_pos_as_xyz
1 x,y,z
2 1/2-x,1/2-y,1/2+z
3 1/2+x,1/2-y,-z
4 -x,y,1/2-z
5 -x,-y,-z
6 -1/2+x,-1/2+y,-1/2-z
7 -1/2-x,-1/2+y,z
8 x,-y,-1/2+z
_cell_length_a 24.4809
_cell_length_b 10.9912
_cell_length_c 11.2429
_cell_angle_alpha 90
_cell_angle_beta 90
_cell_angle_gamma 90
_cell_formula_units_Z 12
loop_
_atom_type_symbol
_atom_type_radius_bond
C 0.68
H 0.23
O 0.68
loop_
_atom_site_label
_atom_site_type_symbol
_atom_site_fract_x
_atom_site_fract_y
_atom_site_fract_z
O1 O 0.15259(4) 0.1779(1) -0.0215(1)
O2 O 0.27772(4) 0.2394(1) 0.3084(1)
O3 O 0.16258(4) 0.5689(1) 0.1831(1)
O4 O 0.08144(5) 0.2212(1) 0.3760(1)
C1 C 0.1608(1) 0.2395(1) 0.0892(1)
C2 C 0.2170(1) 0.2074(1) 0.1392(1)
C3 C 0.2249(1) 0.2679(1) 0.2608(1)
C4 C 0.2206(1) 0.4061(1) 0.2452(1)
C5 C 0.1644(1) 0.4389(1) 0.1953(1)
C6 C 0.1200(1) 0.3950(1) 0.2809(1)
C7 C 0.1241(1) 0.2571(1) 0.2957(1)
C8 C 0.1165(1) 0.1957(1) 0.1745(1)
C9 C 0.1564(1) 0.3775(1) 0.0741(1)
C10 C 0.1805(1) 0.2239(1) 0.3458(1)
H1 H 0.17900 0.19980 -0.07580
H2 H 0.29460 0.17680 0.26970
H3 H 0.12960 0.58660 0.14660
H4 H 0.07840 0.13080 0.38210
H5 H 0.24580 0.23740 0.08300
H6 H 0.21990 0.11730 0.14730
H7 H 0.24940 0.43460 0.18830
H8 H 0.22570 0.44740 0.32350
H9 H 0.08330 0.41710 0.24830
H10 H 0.12530 0.43540 0.35980
H11 H 0.07980 0.21720 0.14180
H12 H 0.11920 0.10560 0.18450
H13 H 0.11970 0.39830 0.04070
H14 H 0.18550 0.40610 0.01720
H15 H 0.18600 0.26420 0.42550
H16 H 0.18370 0.13370 0.35620
O5 O 0.57485(4) 0.4726(1) 0.1139(1)
O6 O 0.43696(4) 0.1525(1) 0.0871(1)
C11 C 0.5394(1) 0.3936(1) 0.1795(1)
C12 C 0.50000 0.4740(2) 0.25000
C13 C 0.4674(1) 0.2320(1) 0.1644(1)
C14 C 0.50000 0.1515(2) 0.25000
C15 C 0.5069(1) 0.3125(1) 0.0938(1)
C16 C 0.5719(1) 0.3134(1) 0.2654(1)
H17 H 0.60170 0.42160 0.07750
H18 H 0.42980 0.19630 0.01660
H19 H 0.47890 0.52710 0.19380
H20 H 0.47430 0.09880 0.29640
H21 H 0.48570 0.36550 0.03770
H22 H 0.53280 0.26060 0.04740
H23 H 0.59240 0.36610 0.32200
H24 H 0.59770 0.26150 0.21950
C11C C 0.4606(1) 0.3936(1) 0.3205(1)
H19C H 0.52110 0.52710 0.30620
C16C C 0.4281(1) 0.3134(1) 0.2346(1)
C13C C 0.5326(1) 0.2320(1) 0.3356(1)
H20C H 0.52570 0.09880 0.20360
O5C O 0.42515(4) 0.4726(1) 0.3861(1)
C15C C 0.4931(1) 0.3125(1) 0.4062(1)
H23C H 0.40760 0.36610 0.17800
H24C H 0.40230 0.26150 0.28050
O6C O 0.56304(4) 0.1525(1) 0.4129(1)
H17C H 0.39830 0.42160 0.42250
H21C H 0.51430 0.36550 0.46230
H22C H 0.46720 0.26060 0.45260
H18C H 0.57020 0.19630 0.48340
#END
