####################################################################### 
# 
# This file contains crystal structure data downloaded from the 
# Cambridge Structural Database (CSD) hosted by the Cambridge 
# Crystallographic Data Centre (CCDC).
# 
# Full information about CCDC data access policies and citation 
# guidelines are available at http://www.ccdc.cam.ac.uk/access/V1 
# 
# Audit and citation data items may have been added by the CCDC. 
# Please retain this information to preserve the provenance of 
# this file and to allow appropriate attribution of the data. 
# 
#######################################################################

data_compound3
_audit_block_doi                 10.5517/cc11qm7m
_database_code_depnum_ccdc_archive 'CCDC 975050'
loop_
_citation_id
_citation_doi
_citation_year
1 10.1016/j.ica.2014.01.022 2014
_audit_update_record             
;
2013-12-03 deposited with the CCDC.	2024-07-14 downloaded from the CCDC.
;

_audit_creation_method           SHELXL-2013
_chemical_name_systematic        
;
 ?
;
_chemical_name_common            ?
_chemical_melting_point          ?
_chemical_formula_moiety         'C15 H19 Cu N3 O9.50 V2'
_chemical_formula_sum            'C15 H19 Cu N3 O9.50 V2'
_chemical_formula_weight         558.75

loop_
_atom_type_symbol
_atom_type_description
_atom_type_scat_dispersion_real
_atom_type_scat_dispersion_imag
_atom_type_scat_source
C C 0.0033 0.0016 'International Tables Vol C Tables 4.2.6.8 and 6.1.1.4'
H H 0.0000 0.0000 'International Tables Vol C Tables 4.2.6.8 and 6.1.1.4'
N N 0.0061 0.0033 'International Tables Vol C Tables 4.2.6.8 and 6.1.1.4'
V V 0.3005 0.5294 'International Tables Vol C Tables 4.2.6.8 and 6.1.1.4'
Cu Cu 0.3201 1.2651 'International Tables Vol C Tables 4.2.6.8 and 6.1.1.4'
O O 0.0106 0.0060 'International Tables Vol C Tables 4.2.6.8 and 6.1.1.4'

_space_group_crystal_system      monoclinic
_space_group_IT_number           15
_space_group_name_H-M_alt        'C 2/c'
_space_group_name_Hall           '-C 2yc'

_shelx_space_group_comment       
;
The symmetry employed for this shelxl refinement is uniquely defined
by the following loop, which should always be used as a source of
symmetry information in preference to the above space-group names.
They are only intended as comments.
;

loop_
_space_group_symop_operation_xyz
'x, y, z'
'-x, y, -z+1/2'
'x+1/2, y+1/2, z'
'-x+1/2, y+1/2, -z+1/2'
'-x, -y, -z'
'x, -y, z-1/2'
'-x+1/2, -y+1/2, -z'
'x+1/2, -y+1/2, z-1/2'

_cell_length_a                   30.448(4)
_cell_length_b                   11.3273(14)
_cell_length_c                   11.5744(14)
_cell_angle_alpha                90
_cell_angle_beta                 106.572(3)
_cell_angle_gamma                90
_cell_volume                     3826.1(8)
_cell_formula_units_Z            8
_cell_measurement_temperature    90(2)
_cell_measurement_reflns_used    231
_cell_measurement_theta_min      2.4788
_cell_measurement_theta_max      22.3278

_exptl_crystal_description       block
_exptl_crystal_colour            orange
_exptl_crystal_density_meas      ?
_exptl_crystal_density_method    ?
_exptl_crystal_density_diffrn    1.940
_exptl_crystal_F_000             2248
_exptl_transmission_factor_min   ?
_exptl_transmission_factor_max   ?
_exptl_crystal_size_max          0.176
_exptl_crystal_size_mid          0.061
_exptl_crystal_size_min          0.059
_exptl_absorpt_coefficient_mu    2.118
_shelx_estimated_absorpt_T_min   0.707
_shelx_estimated_absorpt_T_max   0.885
_exptl_absorpt_correction_type   multi-scan
_exptl_absorpt_correction_T_min  0.82
_exptl_absorpt_correction_T_max  0.91
_exptl_absorpt_process_details   'SADABS V2012/1 (Bruker AXS Inc.)'

_exptl_special_details           
;
 ?
;

_diffrn_ambient_temperature      90(2)
_diffrn_radiation_wavelength     0.71073
_diffrn_radiation_type           MoK\a
_diffrn_radiation_source         'fine-focus sealed tube'
_diffrn_radiation_monochromator  graphite
_diffrn_measurement_device_type  'Bruker APEX-II CCD'
_diffrn_measurement_method       '\f and \w scans'
_diffrn_detector_area_resol_mean ?
_diffrn_reflns_number            19781
_diffrn_reflns_av_unetI/netI     0.0458
_diffrn_reflns_av_R_equivalents  0.0634
_diffrn_reflns_limit_h_min       -37
_diffrn_reflns_limit_h_max       37
_diffrn_reflns_limit_k_min       -13
_diffrn_reflns_limit_k_max       13
_diffrn_reflns_limit_l_min       -14
_diffrn_reflns_limit_l_max       14
_diffrn_reflns_theta_min         1.396
_diffrn_reflns_theta_max         25.681
_diffrn_reflns_theta_full        25.242
_diffrn_measured_fraction_theta_max 1.000
_diffrn_measured_fraction_theta_full 1.000
_diffrn_reflns_Laue_measured_fraction_max 1.000
_diffrn_reflns_Laue_measured_fraction_full 1.000
_diffrn_reflns_point_group_measured_fraction_max 1.000
_diffrn_reflns_point_group_measured_fraction_full 1.000
_reflns_number_total             3636
_reflns_number_gt                2763
_reflns_threshold_expression     'I > 2\s(I)'
_reflns_Friedel_coverage         0.000
_reflns_Friedel_fraction_max     .
_reflns_Friedel_fraction_full    .

_reflns_special_details          
;
 Reflections were merged by SHELXL according to the crystal
 class for the calculation of statistics and refinement.
 
 Structure factors included contributions from the .fab file.
 
 _reflns_Friedel_fraction is defined as the number of unique
 Friedel pairs measured divided by the number that would be
 possible theoretically, ignoring centric projections and
 systematic absences.
;

_computing_data_collection       'Bruker APEX2 (Bruker, 2011)'
_computing_cell_refinement       'SAINT V8.30C (Bruker AXS Inc., 2013)'
_computing_data_reduction        'SAINT V8.30C (Bruker AXS Inc., 2013)'
_computing_structure_solution    'SHELXL-2013 (Sheldrick, 2013)'
_computing_structure_refinement  'SHELXL-2013 (Sheldrick, 2013)'
_computing_molecular_graphics    'CrystalMaker (Palmer, 2010)'
_computing_publication_material  'Bruker SHELXTL (Bruker, 2011)'

_refine_special_details          
; 
 Refinement of F^2^ against ALL reflections.  The weighted R-factor wR and 
 goodness of fit S are based on F^2^, conventional R-factors R are based 
 on F, with F set to zero for negative F^2^. The threshold expression of 
 F^2^ > 2sigma(F^2^) is used only for calculating R-factors(gt) etc. and is 
 not relevant to the choice of reflections for refinement.  R-factors based 
 on F^2^ are statistically about twice as large as those based on F, and R- 
 factors based on ALL data will be even larger.
;
# SQUEEZE RESULTS (APPEND TO CIF)
# Note: Data are Listed for all Voids in the P1 Unit Cell
# i.e. Centre of Gravity, Solvent Accessible Volume,
# Recovered number of Electrons in the Void and
# Details about the Squeezed Material
loop_
_platon_squeeze_void_nr
_platon_squeeze_void_average_x
_platon_squeeze_void_average_y
_platon_squeeze_void_average_z
_platon_squeeze_void_volume
_platon_squeeze_void_count_electrons
_platon_squeeze_void_content
1 0.500 0.000 0.321 269 104 ' '
2 0.000 0.500 0.490 269 104 ' '
_platon_squeeze_details          
;
 The unit cell contains 2.5 water molecules which have been treated as a diffuse contribution to the overall scattering without specific atom positions by SQUEEZE/PLATON. 
;

_refine_ls_structure_factor_coef Fsqd
_refine_ls_matrix_type           full
_refine_ls_weighting_scheme      calc
_refine_ls_weighting_details     
'w=1/[\s^2^(Fo^2^)+(0.0540P)^2^+20.5236P] where P=(Fo^2^+2Fc^2^)/3'
_atom_sites_solution_primary     ?
_atom_sites_solution_secondary   ?
_atom_sites_solution_hydrogens   mixed
_refine_ls_hydrogen_treatment    mixed
_refine_ls_extinction_method     none
_refine_ls_extinction_coef       .
_refine_ls_number_reflns         3636
_refine_ls_number_parameters     262
_refine_ls_number_restraints     75
_refine_ls_R_factor_all          0.0625
_refine_ls_R_factor_gt           0.0398
_refine_ls_wR_factor_ref         0.1095
_refine_ls_wR_factor_gt          0.0990
_refine_ls_goodness_of_fit_ref   1.016
_refine_ls_restrained_S_all      1.007
_refine_ls_shift/su_max          0.000
_refine_ls_shift/su_mean         0.000

loop_
_atom_site_label
_atom_site_type_symbol
_atom_site_fract_x
_atom_site_fract_y
_atom_site_fract_z
_atom_site_U_iso_or_equiv
_atom_site_adp_type
_atom_site_occupancy
_atom_site_site_symmetry_order
_atom_site_calc_flag
_atom_site_refinement_flags_posn
_atom_site_refinement_flags_adp
_atom_site_refinement_flags_occupancy
_atom_site_disorder_assembly
_atom_site_disorder_group
Cu1 Cu 0.2500 0.7500 1.0000 0.01218(19) Uani 1 2 d S U P . .
Cu2 Cu 0.0000 1.0000 0.5000 0.0164(2) Uani 1 2 d S U P . .
V1 V 0.14481(2) 0.90902(6) 0.93969(6) 0.00760(17) Uani 1 1 d . U . . .
V2 V 0.10759(2) 1.08940(6) 0.68172(6) 0.00720(17) Uani 1 1 d . U . . .
O1 O 0.20030(9) 0.8739(2) 0.9731(2) 0.0087(6) Uani 1 1 d . U . . .
O2 O 0.11296(12) 0.7938(3) 0.8960(3) 0.0255(8) Uani 1 1 d . U . . .
O3 O 0.13279(11) 1.0178(3) 0.8238(3) 0.0192(7) Uani 1 1 d . U . . .
O4 O 0.11896(12) 1.2290(3) 0.6980(3) 0.0221(8) Uani 1 1 d . U . . .
O5 O 0.13350(10) 1.0313(3) 0.5721(2) 0.0132(6) Uani 1 1 d . U . . .
O6 O 0.05091(10) 1.0721(3) 0.6370(3) 0.0166(7) Uani 1 1 d . U . . .
O7 O 0.02697(12) 1.0809(4) 0.3688(3) 0.0280(9) Uani 1 1 d D U . . .
H7A H 0.031(2) 1.152(2) 0.381(5) 0.034 Uiso 1 1 d D U . . .
H7B H 0.0197(19) 1.078(5) 0.2967(18) 0.034 Uiso 1 1 d D U . . .
N1 N 0.23899(11) 0.7311(3) 0.7995(3) 0.0064(7) Uani 1 1 d . U . . .
N2 N 0.04255(12) 0.8491(3) 0.5067(3) 0.0119(8) Uani 1 1 d . U . . .
N3 N 0.20038(11) 0.3881(3) 0.5022(3) 0.0081(7) Uani 1 1 d . U . . .
C1 C 0.26297(14) 0.6520(4) 0.7561(3) 0.0078(8) Uani 1 1 d . U . . .
H1 H 0.2779 0.5903 0.8082 0.009 Uiso 1 1 calc R U . . .
C2 C 0.21786(14) 0.8150(4) 0.7222(4) 0.0109(9) Uani 1 1 d . U . . .
H2 H 0.1998 0.8712 0.7491 0.013 Uiso 1 1 calc R U . . .
C3 C 0.26752(13) 0.6542(4) 0.6400(3) 0.0075(8) Uani 1 1 d . U . . .
H3 H 0.2845 0.5944 0.6142 0.009 Uiso 1 1 calc R U . . .
C4 C 0.22084(15) 0.8248(4) 0.6049(4) 0.0141(9) Uani 1 1 d . U . . .
H4 H 0.2049 0.8863 0.5542 0.017 Uiso 1 1 calc R U . . .
C5 C 0.24693(14) 0.7452(4) 0.5615(3) 0.0087(8) Uani 1 1 d . U . . .
C6 C 0.06699(15) 0.7988(4) 0.6094(4) 0.0135(9) Uani 1 1 d . U . . .
H6 H 0.0632 0.8278 0.6830 0.016 Uiso 1 1 calc R U . . .
C7 C 0.04826(18) 0.8044(5) 0.4046(4) 0.0269(12) Uani 1 1 d . U . . .
H7 H 0.0310 0.8378 0.3302 0.032 Uiso 1 1 calc R U . . .
C8 C 0.09743(14) 0.7068(4) 0.6148(4) 0.0110(9) Uani 1 1 d . U . . .
H8 H 0.1141 0.6746 0.6904 0.013 Uiso 1 1 calc R U . . .
C9 C 0.07728(18) 0.7141(5) 0.4010(4) 0.0273(12) Uani 1 1 d . U . . .
H9 H 0.0798 0.6864 0.3257 0.033 Uiso 1 1 calc R U . . .
C10 C 0.10345(14) 0.6620(4) 0.5086(4) 0.0106(8) Uani 1 1 d . U . . .
C11 C 0.13633(14) 0.5672(4) 0.5064(3) 0.0097(8) Uani 1 1 d . U . . .
C12 C 0.14452(15) 0.4745(4) 0.5888(4) 0.0123(9) Uani 1 1 d . U . . .
H12 H 0.1288 0.4709 0.6487 0.015 Uiso 1 1 calc R U . . .
C13 C 0.16071(15) 0.5657(4) 0.4201(4) 0.0118(9) Uani 1 1 d . U . . .
H13 H 0.1557 0.6256 0.3604 0.014 Uiso 1 1 calc R U . . .
C14 C 0.17569(15) 0.3879(4) 0.5829(4) 0.0122(9) Uani 1 1 d . U . . .
H14 H 0.1801 0.3244 0.6387 0.015 Uiso 1 1 calc R U . . .
C15 C 0.19187(14) 0.4771(4) 0.4224(3) 0.0104(9) Uani 1 1 d . U . . .
H15 H 0.2083 0.4790 0.3640 0.012 Uiso 1 1 calc R U . . .

loop_
_atom_site_aniso_label
_atom_site_aniso_U_11
_atom_site_aniso_U_22
_atom_site_aniso_U_33
_atom_site_aniso_U_23
_atom_site_aniso_U_13
_atom_site_aniso_U_12
Cu1 0.0132(4) 0.0127(4) 0.0113(4) 0.0006(3) 0.0045(3) 0.0012(3)
Cu2 0.0124(4) 0.0221(5) 0.0137(4) 0.0015(3) 0.0024(3) 0.0044(3)
V1 0.0059(3) 0.0124(4) 0.0045(3) 0.0007(3) 0.0015(3) -0.0012(3)
V2 0.0073(3) 0.0088(4) 0.0049(3) 0.0015(3) 0.0009(3) 0.0004(3)
O1 0.0103(14) 0.0091(15) 0.0068(13) 0.0014(11) 0.0028(11) 0.0048(12)
O2 0.0300(19) 0.033(2) 0.0125(15) -0.0050(14) 0.0043(14) -0.0221(16)
O3 0.0185(17) 0.0262(19) 0.0125(15) 0.0094(13) 0.0040(13) 0.0116(14)
O4 0.038(2) 0.0115(17) 0.0215(17) -0.0030(13) 0.0156(16) -0.0067(15)
O5 0.0154(16) 0.0155(17) 0.0118(14) -0.0005(12) 0.0089(12) -0.0025(13)
O6 0.0072(14) 0.0254(19) 0.0150(15) -0.0055(13) -0.0005(12) 0.0032(13)
O7 0.0169(18) 0.046(2) 0.0196(17) 0.0169(18) 0.0030(15) -0.0027(18)
N1 0.0076(16) 0.0072(18) 0.0060(15) 0.0007(13) 0.0045(13) -0.0017(13)
N2 0.0079(17) 0.016(2) 0.0121(17) 0.0015(14) 0.0030(14) 0.0059(15)
N3 0.0079(17) 0.0071(18) 0.0096(16) -0.0002(13) 0.0031(13) -0.0005(14)
C1 0.011(2) 0.006(2) 0.0057(17) 0.0007(15) 0.0006(16) 0.0013(17)
C2 0.014(2) 0.011(2) 0.0104(19) 0.0006(16) 0.0082(17) 0.0056(17)
C3 0.0081(19) 0.008(2) 0.0077(18) 0.0001(15) 0.0047(15) 0.0023(16)
C4 0.019(2) 0.016(2) 0.0086(19) 0.0056(17) 0.0072(17) 0.0062(19)
C5 0.009(2) 0.010(2) 0.0065(19) 0.0007(15) 0.0005(16) 0.0016(17)
C6 0.015(2) 0.015(2) 0.0081(19) -0.0022(16) 0.0003(17) 0.0048(18)
C7 0.030(3) 0.039(3) 0.011(2) 0.004(2) 0.005(2) 0.020(2)
C8 0.011(2) 0.012(2) 0.0098(19) 0.0023(16) 0.0023(16) 0.0027(17)
C9 0.036(3) 0.039(3) 0.008(2) 0.003(2) 0.008(2) 0.022(2)
C10 0.009(2) 0.010(2) 0.014(2) 0.0010(16) 0.0056(16) 0.0003(17)
C11 0.009(2) 0.011(2) 0.0093(19) -0.0009(15) 0.0023(16) -0.0021(16)
C12 0.014(2) 0.013(2) 0.013(2) 0.0026(16) 0.0095(17) 0.0031(18)
C13 0.015(2) 0.011(2) 0.010(2) 0.0026(16) 0.0047(17) 0.0020(18)
C14 0.017(2) 0.010(2) 0.012(2) 0.0028(16) 0.0082(17) 0.0015(17)
C15 0.009(2) 0.018(2) 0.0068(18) 0.0008(16) 0.0054(16) -0.0002(17)

_geom_special_details            
;
 All esds (except the esd in the dihedral angle between two l.s. planes)
 are estimated using the full covariance matrix.  The cell esds are taken
 into account individually in the estimation of esds in distances, angles
 and torsion angles; correlations between esds in cell parameters are only
 used when they are defined by crystal symmetry.  An approximate (isotropic)
 treatment of cell esds is used for estimating esds involving l.s. planes.
;

loop_
_geom_bond_atom_site_label_1
_geom_bond_atom_site_label_2
_geom_bond_distance
_geom_bond_site_symmetry_2
_geom_bond_publ_flag
Cu1 O1 2.022(3) 7_567 ?
Cu1 O1 2.022(3) . ?
Cu1 N3 2.180(3) 6_566 ?
Cu1 N3 2.180(3) 4_556 ?
Cu1 N1 2.259(3) 7_567 ?
Cu1 N1 2.259(3) . ?
Cu2 O6 2.045(3) . ?
Cu2 O6 2.045(3) 5_576 ?
Cu2 O7 2.129(3) . ?
Cu2 O7 2.129(3) 5_576 ?
Cu2 N2 2.132(3) . ?
Cu2 N2 2.133(3) 5_576 ?
V1 O2 1.619(3) . ?
V1 O1 1.670(3) . ?
V1 O3 1.781(3) . ?
V1 O5 1.796(3) 6_576 ?
V2 O4 1.618(3) . ?
V2 O6 1.666(3) . ?
V2 O3 1.797(3) . ?
V2 O5 1.799(3) . ?
O5 V1 1.796(3) 6_575 ?
O7 H7A 0.83(2) . ?
O7 H7B 0.801(19) . ?
N1 C2 1.337(5) . ?
N1 C1 1.340(5) . ?
N2 C6 1.337(5) . ?
N2 C7 1.343(6) . ?
N3 C15 1.341(5) . ?
N3 C14 1.356(5) . ?
N3 Cu1 2.180(3) 4_546 ?
C1 C3 1.390(5) . ?
C1 H1 0.9500 . ?
C2 C4 1.391(5) . ?
C2 H2 0.9500 . ?
C3 C5 1.398(6) . ?
C3 H3 0.9500 . ?
C4 C5 1.387(6) . ?
C4 H4 0.9500 . ?
C5 C5 1.491(8) 7_566 ?
C6 C8 1.384(6) . ?
C6 H6 0.9500 . ?
C7 C9 1.359(7) . ?
C7 H7 0.9500 . ?
C8 C10 1.389(6) . ?
C8 H8 0.9500 . ?
C9 C10 1.403(6) . ?
C9 H9 0.9500 . ?
C10 C11 1.474(6) . ?
C11 C12 1.393(6) . ?
C11 C13 1.404(6) . ?
C12 C14 1.380(6) . ?
C12 H12 0.9500 . ?
C13 C15 1.376(6) . ?
C13 H13 0.9500 . ?
C14 H14 0.9500 . ?
C15 H15 0.9500 . ?

loop_
_geom_angle_atom_site_label_1
_geom_angle_atom_site_label_2
_geom_angle_atom_site_label_3
_geom_angle
_geom_angle_site_symmetry_1
_geom_angle_site_symmetry_3
_geom_angle_publ_flag
O1 Cu1 O1 180.0 7_567 . ?
O1 Cu1 N3 89.47(12) 7_567 6_566 ?
O1 Cu1 N3 90.53(12) . 6_566 ?
O1 Cu1 N3 90.53(12) 7_567 4_556 ?
O1 Cu1 N3 89.47(12) . 4_556 ?
N3 Cu1 N3 180.00(13) 6_566 4_556 ?
O1 Cu1 N1 91.27(11) 7_567 7_567 ?
O1 Cu1 N1 88.73(11) . 7_567 ?
N3 Cu1 N1 87.50(12) 6_566 7_567 ?
N3 Cu1 N1 92.50(12) 4_556 7_567 ?
O1 Cu1 N1 88.72(11) 7_567 . ?
O1 Cu1 N1 91.28(11) . . ?
N3 Cu1 N1 92.50(12) 6_566 . ?
N3 Cu1 N1 87.50(12) 4_556 . ?
N1 Cu1 N1 180.0 7_567 . ?
O6 Cu2 O6 180.00(18) . 5_576 ?
O6 Cu2 O7 91.13(13) . . ?
O6 Cu2 O7 88.88(13) 5_576 . ?
O6 Cu2 O7 88.88(13) . 5_576 ?
O6 Cu2 O7 91.12(13) 5_576 5_576 ?
O7 Cu2 O7 180.0 . 5_576 ?
O6 Cu2 N2 88.49(13) . . ?
O6 Cu2 N2 91.51(13) 5_576 . ?
O7 Cu2 N2 90.98(15) . . ?
O7 Cu2 N2 89.02(15) 5_576 . ?
O6 Cu2 N2 91.51(13) . 5_576 ?
O6 Cu2 N2 88.49(13) 5_576 5_576 ?
O7 Cu2 N2 89.02(15) . 5_576 ?
O7 Cu2 N2 90.98(15) 5_576 5_576 ?
N2 Cu2 N2 180.0 . 5_576 ?
O