####################################################################### 
# 
# This file contains crystal structure data downloaded from the 
# Cambridge Structural Database (CSD) hosted by the Cambridge 
# Crystallographic Data Centre (CCDC).
# 
# Full information about CCDC data access policies and citation 
# guidelines are available at http://www.ccdc.cam.ac.uk/access/V1 
# 
# Audit and citation data items may have been added by the CCDC. 
# Please retain this information to preserve the provenance of 
# this file and to allow appropriate attribution of the data. 
# 
#######################################################################

data_JUC-92
_audit_block_doi                 10.5517/ccyl7h7
_database_code_depnum_ccdc_archive 'CCDC 881469'
loop_
_citation_id
_citation_doi
_citation_year
1 10.1007/s40242-013-2473-4 2013
_audit_update_record             
;
2012-05-10 deposited with the CCDC.	2024-07-14 downloaded from the CCDC.
;
#TrackingRef 'JUC-92.cif'


_audit_creation_method           SHELXL-97
_chemical_name_systematic        
;
?
;
_chemical_name_common            ?
_chemical_melting_point          ?
_chemical_formula_moiety         ?
_chemical_formula_sum            'C29 H25 Cd N3 O5'
_chemical_formula_weight         607.92

loop_
_atom_type_symbol
_atom_type_description
_atom_type_scat_dispersion_real
_atom_type_scat_dispersion_imag
_atom_type_scat_source
C C 0.0033 0.0016 'International Tables Vol C Tables 4.2.6.8 and 6.1.1.4'
H H 0.0000 0.0000 'International Tables Vol C Tables 4.2.6.8 and 6.1.1.4'
N N 0.0061 0.0033 'International Tables Vol C Tables 4.2.6.8 and 6.1.1.4'
O O 0.0106 0.0060 'International Tables Vol C Tables 4.2.6.8 and 6.1.1.4'
Cd Cd -0.8075 1.2024 'International Tables Vol C Tables 4.2.6.8 and 6.1.1.4'

_symmetry_cell_setting           monoclinic
_symmetry_space_group_name_H-M   C2/c

loop_
_symmetry_equiv_pos_as_xyz
'x, y, z'
'-x, y, -z+1/2'
'x+1/2, y+1/2, z'
'-x+1/2, y+1/2, -z+1/2'
'-x, -y, -z'
'x, -y, z-1/2'
'-x+1/2, -y+1/2, -z'
'x+1/2, -y+1/2, z-1/2'

_cell_length_a                   29.525(6)
_cell_length_b                   14.050(3)
_cell_length_c                   16.602(3)
_cell_angle_alpha                90.00
_cell_angle_beta                 107.64(3)
_cell_angle_gamma                90.00
_cell_volume                     6563(2)
_cell_formula_units_Z            8
_cell_measurement_temperature    293(2)
_cell_measurement_reflns_used    ?
_cell_measurement_theta_min      ?
_cell_measurement_theta_max      ?

_exptl_crystal_description       ?
_exptl_crystal_colour            ?
_exptl_crystal_size_max          0.15
_exptl_crystal_size_mid          0.14
_exptl_crystal_size_min          0.12
_exptl_crystal_density_meas      ?
_exptl_crystal_density_diffrn    1.230
_exptl_crystal_density_method    'not measured'
_exptl_crystal_F_000             2464
_exptl_absorpt_coefficient_mu    0.701
_exptl_absorpt_correction_type   multi-scan
_exptl_absorpt_correction_T_min  0.9022
_exptl_absorpt_correction_T_max  0.9206
_exptl_absorpt_process_details   ?

_exptl_special_details           
;
?
;

_diffrn_ambient_temperature      293(2)
_diffrn_radiation_wavelength     0.71073
_diffrn_radiation_type           MoK\a
_diffrn_radiation_source         'fine-focus sealed tube'
_diffrn_radiation_monochromator  graphite
_diffrn_measurement_device_type  ?
_diffrn_measurement_method       ?
_diffrn_detector_area_resol_mean ?
_diffrn_standards_number         ?
_diffrn_standards_interval_count ?
_diffrn_standards_interval_time  ?
_diffrn_standards_decay_%        ?
_diffrn_reflns_number            14422
_diffrn_reflns_av_R_equivalents  0.0575
_diffrn_reflns_av_sigmaI/netI    0.0744
_diffrn_reflns_limit_h_min       -33
_diffrn_reflns_limit_h_max       35
_diffrn_reflns_limit_k_min       -16
_diffrn_reflns_limit_k_max       16
_diffrn_reflns_limit_l_min       -18
_diffrn_reflns_limit_l_max       19
_diffrn_reflns_theta_min         1.93
_diffrn_reflns_theta_max         25.00
_reflns_number_total             5264
_reflns_number_gt                2801
_reflns_threshold_expression     >2sigma(I)

_computing_data_collection       ?
_computing_cell_refinement       ?
_computing_data_reduction        ?
_computing_structure_solution    'SHELXS-97 (Sheldrick, 1990)'
_computing_structure_refinement  'SHELXL-97 (Sheldrick, 1997)'
_computing_molecular_graphics    ?
_computing_publication_material  ?

_refine_special_details          
;
Refinement of F^2^ against ALL reflections. The weighted R-factor wR and
goodness of fit S are based on F^2^, conventional R-factors R are based
on F, with F set to zero for negative F^2^. The threshold expression of
F^2^ > 2sigma(F^2^) is used only for calculating R-factors(gt) etc. and is
not relevant to the choice of reflections for refinement. R-factors based
on F^2^ are statistically about twice as large as those based on F, and R-
factors based on ALL data will be even larger.
;

_refine_ls_structure_factor_coef Fsqd
_refine_ls_matrix_type           full
_refine_ls_weighting_scheme      calc
_refine_ls_weighting_details     
'calc w=1/[\s^2^(Fo^2^)+(0.0980P)^2^+0.0000P] where P=(Fo^2^+2Fc^2^)/3'
_atom_sites_solution_primary     direct
_atom_sites_solution_secondary   difmap
_atom_sites_solution_hydrogens   geom
_refine_ls_hydrogen_treatment    constr
_refine_ls_extinction_method     none
_refine_ls_extinction_coef       ?
_refine_ls_number_reflns         5264
_refine_ls_number_parameters     345
_refine_ls_number_restraints     64
_refine_ls_R_factor_all          0.1125
_refine_ls_R_factor_gt           0.0580
_refine_ls_wR_factor_ref         0.1859
_refine_ls_wR_factor_gt          0.1440
_refine_ls_goodness_of_fit_ref   1.019
_refine_ls_restrained_S_all      1.023
_refine_ls_shift/su_max          0.001
_refine_ls_shift/su_mean         0.000

loop_
_platon_squeeze_void_nr
_platon_squeeze_void_average_x
_platon_squeeze_void_average_y
_platon_squeeze_void_average_z
_platon_squeeze_void_volume
_platon_squeeze_void_count_electrons
_platon_squeeze_void_content
1 0.000 0.000 -0.005 738 188 ' '
2 0.440 0.036 0.068 26 2 ' '
3 0.440 -0.036 0.568 26 2 ' '
4 0.560 0.036 0.432 26 2 ' '
5 0.560 -0.036 0.932 26 2 ' '
6 0.500 0.500 0.570 738 188 ' '
7 0.060 0.464 0.932 26 2 ' '
8 0.940 0.464 0.568 26 2 ' '
9 0.060 0.536 0.432 26 2 ' '
10 0.940 0.536 0.068 26 2 ' '

loop_
_atom_site_label
_atom_site_type_symbol
_atom_site_fract_x
_atom_site_fract_y
_atom_site_fract_z
_atom_site_U_iso_or_equiv
_atom_site_adp_type
_atom_site_occupancy
_atom_site_symmetry_multiplicity
_atom_site_calc_flag
_atom_site_refinement_flags
_atom_site_disorder_assembly
_atom_site_disorder_group
Cd1 Cd 0.220806(15) 0.26675(3) 0.08866(4) 0.0455(2) Uani 1 1 d . . .
N1 N 0.2212(2) 0.4335(4) 0.0712(5) 0.061(2) Uani 1 1 d . . .
N2 N 0.2186(2) 1.1018(4) 0.0909(5) 0.0556(19) Uani 1 1 d . . .
N3 N 0.0768(8) 0.5574(11) 0.1624(18) 0.243(10) Uani 1 1 d DU . .
O1 O 0.18870(19) 0.2708(4) 0.2133(5) 0.074(2) Uani 1 1 d . . .
O2 O 0.1419(2) 0.2821(4) 0.0791(6) 0.081(2) Uani 1 1 d . . .
O3 O 0.29686(17) 0.2776(3) 0.1907(5) 0.0629(17) Uani 1 1 d . . .
O4 O 0.29886(18) 0.2502(3) 0.0603(5) 0.0591(17) Uani 1 1 d . . .
O5 O 0.1075(13) 0.525(3) 0.283(3) 0.57(3) Uani 1 1 d DU . .
C1 C 0.1473(3) 0.2783(5) 0.1551(9) 0.068(3) Uani 1 1 d . . .
C2 C 0.1041(3) 0.2856(5) 0.1865(7) 0.060(3) Uani 1 1 d . . .
C3 C 0.0598(3) 0.2999(7) 0.1281(7) 0.086(3) Uani 1 1 d . . .
H3 H 0.0570 0.3065 0.0711 0.103 Uiso 1 1 calc R . .
C4 C 0.0193(3) 0.3042(8) 0.1552(7) 0.085(3) Uani 1 1 d . . .
H4 H -0.0101 0.3182 0.1165 0.102 Uiso 1 1 calc R . .
C5 C 0.0224(3) 0.2887(6) 0.2355(7) 0.067(3) Uani 1 1 d . . .
C6 C 0.0671(3) 0.2748(7) 0.2951(9) 0.094(4) Uani 1 1 d . . .
H6 H 0.0700 0.2693 0.3523 0.113 Uiso 1 1 calc R . .
C7 C 0.1073(3) 0.2694(6) 0.2674(8) 0.080(3) Uani 1 1 d . . .
H7 H 0.1366 0.2545 0.3058 0.096 Uiso 1 1 calc R . .
C8 C 0.3197(2) 0.2646(4) 0.1382(6) 0.0435(19) Uani 1 1 d . . .
C9 C 0.3731(2) 0.2698(5) 0.1698(6) 0.0487(19) Uani 1 1 d . . .
C10 C 0.3968(3) 0.2905(6) 0.2555(7) 0.068(3) Uani 1 1 d . . .
H10 H 0.3787 0.2999 0.2920 0.081 Uiso 1 1 calc R . .
C11 C 0.4458(3) 0.2973(6) 0.2876(7) 0.069(3) Uani 1 1 d . . .
H11 H 0.4603 0.3146 0.3436 0.083 Uiso 1 1 calc R . .
C12 C 0.4733(2) 0.2774(5) 0.2335(6) 0.055(2) Uani 1 1 d . . .
C13 C 0.4492(3) 0.2591(6) 0.1502(7) 0.071(3) Uani 1 1 d . . .
H13 H 0.4663 0.2492 0.1123 0.085 Uiso 1 1 calc R . .
C14 C 0.4011(3) 0.2550(5) 0.1219(7) 0.064(3) Uani 1 1 d . . .
H14 H 0.3868 0.2409 0.0652 0.077 Uiso 1 1 calc R . .
C15 C 0.2502(3) 0.4891(6) 0.1333(7) 0.077(3) Uani 1 1 d . . .
H15 H 0.2721 0.4617 0.1801 0.092 Uiso 1 1 calc R . .
C16 C 0.2462(4) 0.5880(6) 0.1247(8) 0.088(4) Uani 1 1 d . . .
H16 H 0.2680 0.6258 0.1639 0.106 Uiso 1 1 calc R . .
C17 C 0.2119(4) 0.6311(6) 0.0618(8) 0.078(3) Uani 1 1 d . . .
C18 C 0.1823(4) 0.5729(6) -0.0021(8) 0.087(3) Uani 1 1 d U . .
H18 H 0.1597 0.5988 -0.0488 0.105 Uiso 1 1 calc R . .
C19 C 0.1885(3) 0.4753(5) 0.0082(7) 0.074(3) Uani 1 1 d . . .
H19 H 0.1682 0.4363 -0.0321 0.088 Uiso 1 1 calc R . .
C20 C 0.2055(5) 0.7356(7) 0.0547(10) 0.094(4) Uani 1 1 d U . .
H20 H 0.1833 0.7564 0.0052 0.113 Uiso 1 1 calc R . .
C21 C 0.2243(4) 0.7978(7) 0.1031(10) 0.110(5) Uani 1 1 d . . .
H21 H 0.2452 0.7756 0.1535 0.132 Uiso 1 1 calc R . .
C22 C 0.2209(3) 0.9020(5) 0.0977(7) 0.068(3) Uani 1 1 d . . .
C23 C 0.2501(4) 0.9568(5) 0.1549(9) 0.089(4) Uani 1 1 d . . .
H23 H 0.2724 0.9272 0.1997 0.107 Uiso 1 1 calc R . .
C24 C 0.2498(3) 1.0531(5) 0.1527(8) 0.075(3) Uani 1 1 d . . .
H24 H 0.2718 1.0865 0.1954 0.090 Uiso 1 1 calc R . .
C25 C 0.1890(4) 1.0506(5) 0.0318(9) 0.090(4) Uani 1 1 d . . .
H25 H 0.1672 1.0819 -0.0128 0.108 Uiso 1 1 calc R . .
C26 C 0.1889(4) 0.9496(6) 0.0330(10) 0.105(5) Uani 1 1 d . . .
H26 H 0.1673 0.9159 -0.0100 0.126 Uiso 1 1 calc R . .
C27 C 0.0623(13) 0.532(2) 0.239(2) 0.339(18) Uani 1 1 d DU . .
H27 H 0.0336 0.5238 0.2502 0.407 Uiso 1 1 calc R . .
C28 C 0.1312(7) 0.5575(15) 0.174(2) 0.260(13) Uani 1 1 d DU . .
H28A H 0.1483 0.5455 0.2321 0.391 Uiso 1 1 calc R . .
H28B H 0.1403 0.6184 0.1576 0.391 Uiso 1 1 calc R . .
H28C H 0.1384 0.5088 0.1391 0.391 Uiso 1 1 calc R . .
C29 C 0.0578(14) 0.607(3) 0.076(2) 0.51(3) Uani 1 1 d DU . .
H29A H 0.0252 0.5894 0.0501 0.759 Uiso 1 1 calc R . .
H29B H 0.0764 0.5884 0.0404 0.759 Uiso 1 1 calc R . .
H29C H 0.0598 0.6749 0.0840 0.759 Uiso 1 1 calc R . .

loop_
_atom_site_aniso_label
_atom_site_aniso_U_11
_atom_site_aniso_U_22
_atom_site_aniso_U_33
_atom_site_aniso_U_23
_atom_site_aniso_U_13
_atom_site_aniso_U_12
Cd1 0.0278(3) 0.0346(3) 0.0786(5) -0.0019(3) 0.0229(3) -0.00026(17)
N1 0.061(4) 0.043(3) 0.087(6) -0.007(4) 0.035(5) 0.000(3)
N2 0.049(4) 0.036(3) 0.085(6) -0.012(3) 0.027(4) -0.006(3)
N3 0.36(2) 0.109(9) 0.35(3) -0.089(14) 0.23(2) -0.042(12)
O1 0.036(3) 0.106(4) 0.087(6) -0.022(4) 0.028(4) -0.005(3)
O2 0.044(3) 0.106(5) 0.107(7) -0.011(4) 0.045(4) -0.002(3)
O3 0.031(3) 0.072(3) 0.085(5) -0.008(3) 0.017(3) -0.002(2)
O4 0.027(2) 0.065(3) 0.085(6) -0.008(3) 0.016(3) -0.004(2)
O5 0.64(5) 0.57(5) 0.48(5) -0.02(4) 0.16(4) -0.06(3)
C1 0.035(4) 0.055(4) 0.130(11) 0.002(5) 0.050(6) 0.000(3)
C2 0.041(4) 0.067(5) 0.082(8) 0.000(5) 0.034(5) 0.001(3)
C3 0.038(5) 0.139(8) 0.087(9) 0.002(7) 0.030(6) 0.004(5)
C4 0.044(5) 0.129(8) 0.091(9) 0.008(7) 0.034(6) 0.002(5)
C5 0.046(5) 0.086(6) 0.084(9) 0.004(5) 0.043(6) -0.002(4)
C6 0.042(5) 0.145(9) 0.108(11) 0.004(7) 0.043(7) 0.007(5)
C7 0.046(5) 0.112(7) 0.086(10) -0.008(6) 0.028(6) -0.005(4)
C8 0.023(3) 0.041(3) 0.064(7) 0.011(4) 0.009(4) 0.002(3)
C9 0.038(4) 0.050(4) 0.053(6) -0.001(4) 0.005(4) -0.003(3)
C10 0.044(4) 0.079(5) 0.087(9) -0.008(5) 0.030(5) 0.001(4)
C11 0.042(4) 0.093(6) 0.072(8) -0.007(5) 0.015(5) 0.005(4)
C12 0.033(4) 0.073(5) 0.054(6) 0.000(4) 0.005(4) 0.002(3)
C13 0.038(4) 0.116(7) 0.057(7) -0.009(5) 0.011(5) 0.007(4)
C14 0.036(4) 0.091(5) 0.070(8) -0.007(5) 0.021(5) 0.000(3)
C15 0.081(6) 0.048(5) 0.096(9) -0.010(5) 0.019(6) -0.007(4)
C16 0.094(7) 0.055(5) 0.121(11) -0.039(6) 0.039(8) -0.019(5)
C17 0.086(7) 0.044(4) 0.119(10) -0.003(6) 0.051(7) 0.008(4)
C18 0.099(7) 0.045(4) 0.119(10) 0.010(6) 0.036(7) 0.013(4)
C19 0.070(6) 0.043(4) 0.089(9) 0.003(5) -0.004(6) 0.004(4)
C20 0.112(8) 0.059(5) 0.126(11) -0.002(6) 0.056(8) -0.001(5)
C21 0.126(10) 0.045(5) 0.184(17) 0.005(7) 0.086(11) 0.006(5)
C22 0.086(6) 0.035(4) 0.087(9) 0.017(5) 0.032(7) 0.010(4)
C23 0.101(7) 0.039(5) 0.128(12) 0.011(6) 0.036(8) 0.005(5)
C24 0.081(6) 0.048(5) 0.098(9) 0.004(5) 0.029(7) 0.000(4)
C25 0.085(7) 0.043(5) 0.144(12) 0.013(6) 0.038(8) 0.000(4)
C26 0.116(9) 0.045(5) 0.164(15) -0.013(7) 0.054(10) -0.022(5)
C27 0.49(4) 0.21(3) 0.34(4) -0.10(3) 0.16(4) 0.01(3)
C28 0.20(2) 0.25(2) 0.37(4) -0.01(2) 0.14(2) 0.010(16)
C29 0.53(4) 0.47(4) 0.49(4) -0.041(18) 0.13(2) 0.042(18)

_geom_special_details            
;
All esds (except the esd in the dihedral angle between two l.s. planes)
are estimated using the full covariance matrix. The cell esds are taken
into account individually in the estimation of esds in distances, angles
and torsion angles; correlations between esds in cell parameters are only
used when they are defined by crystal symmetry. An approximate (isotropic)
treatment of cell esds is used for estimating esds involving l.s. planes.
;

loop_
_geom_bond_atom_site_label_1
_geom_bond_atom_site_label_2
_geom_bond_distance
_geom_bond_site_symmetry_2
_geom_bond_publ_flag
Cd1 O2 2.297(5) . ?
Cd1 N2 2.318(6) 1_545 ?
Cd1 N1 2.361(6) . ?
Cd1 O3 2.373(6) . ?
Cd1 O4 2.374(8) 7 ?
Cd1 O4 2.499(4) . ?
Cd1 O1 2.524(6) . ?
Cd1 C1 2.721(7) . ?
N1 C19 1.328(12) . ?
N1 C15 1.367(12) . ?
N2 C25 1.314(13) . ?
N2 C24 1.340(12) . ?
N2 Cd1 2.318(6) 1_565 ?
N3 C27 1.502(19) . ?
N3 C29 1.540(19) . ?
N3 C28 1.557(16) . ?
O1 C1 1.312(14) . ?
O2 C1 1.225(15) . ?
O3 C8 1.268(10) . ?
O4 C8 1.269(11) . ?
O4 Cd1 2.374(8) 7 ?
O5 C27 1.32(2) . ?
C1 C2 1.521(9) . ?
C2 C7 1.337(16) . ?
C2 C3 1.387(14) . ?
C3 C4 1.402(9) . ?
C3 H3 0.9300 . ?
C4 C5 1.327(15) . ?
C4 H4 0.9300 . ?
C5 C6 1.403(16) . ?
C5 C5 1.536(11) 2 ?
C6 C7 1.400(10) . ?
C6 H6 0.9300 . ?
C7 H7 0.9300 . ?
C8 C9 1.506(9) . ?
C9 C14 1.325(11) . ?
C9 C10 1.412(13) . ?
C10 C11 1.386(11) . ?
C10 H10 0.9300 . ?
C11 C12 1.408(11) . ?
C11 H11 0.9300 . ?
C12 C13 1.375(14) . ?
C12 C12 1.502(14) 2_655 ?
C13 C14 1.355(11) . ?
C13 H13 0.9300 . ?
C14 H14 0.9300 . ?
C15 C16 1.398(12) . ?
C15 H15 0.9300 . ?
C16 C17 1.358(16) . ?
C16 H16 0.9300 . ?
C17 C18 1.413(15) . ?
C17 C20 1.480(12) . ?
C18 C19 1.387(11) . ?
C18 H18 0.9300 . ?
C19 H19 0.9300 . ?
C20 C21 1.203(17) . ?
C20 H20 0.9300 . ?
C21 C22 1.469(13) . ?
C21 H21 0.9300 . ?
C22 C23 1.319(15) . ?
C22 C26 1.370(16) . ?
C23 C24 1.355(11) . ?
C23 H23 0.9300 . ?
C24 H24 0.9300 . ?
C25 C26 1.420(12) . ?
C25 H25 0.9300 . ?
C26 H26 0.9300 . ?
C27 H27 0.9300 . ?
C28 H28A 0.9600 . ?
C28 H28B 0.9600 . ?
C28 H28C 0.9600 . ?
C29 H29A 0.9600 . ?
C29 H29B 0.9600 . ?
C29 H29C 0.9600 . ?

loop_
_geom_angle_atom_site_label_1
_geom_angle_atom_site_label_2
_geom_angle_atom_site_label_3
_geom_angle
_geom_angle_site_symmetry_1
_geom_angle_site_symmetry_3
_geom_angle_publ_flag
O2 Cd1 N2 93.6(2) . 1_545 ?
O2 Cd1 N1 86.6(2) . . ?
N2 Cd1 N1 174.1(3) 1_545 . ?
O2 Cd1 O3 139.8(3) . . ?
N2 Cd1 O3 94.5(2) 1_545 . ?
N1 Cd1 O3 89.1(2) . . ?
O2 Cd1 O4 90.8(3) . 7 ?
N2 Cd1 O4 85.3(2) 1_545 7 ?
N1 Cd1 O4 88.9(2) . 7 ?
O3 Cd1 O4 129.06(18) . 7 ?
O2 Cd1 O4 165.9(3) . . ?
N2 Cd1 O4 86.66(16) 1_545 . ?
N1 Cd1 O4 91.73(17) . . ?
O3 Cd1 O4 54.1(2) . . ?
O4 Cd1 O4 75.1(2) 7 . ?
O2 Cd1 O1 55.2(3) . . ?
N2 Cd1 O1 89.4(2) 1_545 . ?
N1 Cd1 O1 95.5(2) . . ?
O3 Cd1 O1 85.5(2) . . ?
O4 Cd1 O1 145.27(18) 7 . ?
O4 Cd1 O1 138.9(3) . . ?
O2 Cd1 C1 26.6(3) . . ?
N2 Cd1 C1 91.36(19) 1_545 . ?
N1 Cd1 C1 91.4(2) . . ?
O3 Cd1 C1 113.9(3) . . ?
O4 Cd1 C1 117.1(3) 7 . ?
O4 Cd1 C1 167.5(3) . . ?
O1 Cd1 C1 28.7(3) . . ?
C19 N1 C15 118.8(7) . . ?
C19 N1 Cd1 120.4(6) . . ?
C15 N1 Cd1 120.0(7) . . ?
C25 N2 C24 116.1(7) . . ?
C25 N2 Cd1 123.4(6) . 1_565 ?
C24 N2 Cd1 120.4(6) . 1_565 ?
C27 N3 C29 141(3) . . ?
C27 N3 C28 116(3) . . ?
C29 N3 C28 101(2) . . ?
C1 O1 Cd1 84.0(6) . . ?
C1 O2 Cd1 96.4(6) . . ?
C8 O3 Cd1 94.9(5) . . ?
C8 O4 Cd1 165.3(4) . 7 ?
C8 O4 Cd1 89.0(4) . . ?
Cd1 O4 Cd1 104.9(2) 7 . ?
O2 C1 O1 124.4(7) . . ?
O2 C1 C2 119.3(10) . . ?
O1 C1 C2 116.4(11) . . ?
O2 C1 Cd1 57.0(4) . . ?
O1 C1 Cd1 67.3(4) . . ?
C2 C1 Cd1 176.3(9) . . ?
C7 C2 C3 119.5(7) . . ?
C7 C2 C1 121.4(10) . . ?
C3 C2 C1 118.8(10) . . ?
C2 C3 C4 119.9(10) . . ?
C2 C3 H3 120.1 . . ?
C4 C3 H3 120.1 . . ?
C5 C4 C3 120.7(10) . . ?
C5 C4 H4 119.7 . . ?
C3 C4 H4 119.7 . . ?
C4 C5 C6 119.7(7) . . ?
C4 C5 C5 120.7(12) . 2 ?
C6 C5 C5 119.6(12) . 2 ?
C7 C6 C5 119.1(12) . . ?
C7 C6 H6 120.4 . . ?
C5 C6 H6 120.4 . . ?
C2 C7 C6 120.8(11) . . ?
C2 C7 H7 119.6 . . ?
C6 C7 H7 119.6 . . ?
O3 C8 O4 122.0(6) . . ?
O3 C8 C9 118.2(8) . . ?
O4 C8 C9 119.8(7) . . ?
C14 C9 C10 115.4(7) . . ?
C14 C9 C8 124.1(9) . . ?
C10 C9 C8 120.5(7) . . ?
C11 C10 C9 122.8(8) . . ?
C11 C10 H10 118.6 . . ?
C9 C10 H10 118.6 . . ?
C10 C11 C12 118.6(9) . . ?
C10 C11 H11 120.7 . . ?
C12 C11 H11 120.7 . . ?
C13 C12 C11 117.1(7) . . ?
C13 C12 C12 122.2(9) . 2_655 ?
C11 C12 C12 120.7(11) . 2_655 ?
C14 C13 C12 121.7(8) . . ?
C14 C13 H13 119.1 . . ?
C12 C13 H13 119.1 . . ?
C9 C14 C13 124.3(10) . . ?
C9 C14 H14 117.8 . . ?
C13 C14 H14 117.8 . . ?
N1 C15 C16 118.5(10) . . ?
N1 C15 H15 120.8 . . ?
C16 C15 H15 120.8 . . ?
C17 C16 C15 122.8(10) . . ?
C17 C16 H16 118.6 . . ?
C15 C16 H16 118.6 . . ?
C16 C17 C18 117.8(8) . . ?
C16 C17 C20 123.5(12) . . ?
C18 C17 C