####################################################################### 
# 
# This file contains crystal structure data downloaded from the 
# Cambridge Structural Database (CSD) hosted by the Cambridge 
# Crystallographic Data Centre (CCDC).
# 
# Full information about CCDC data access policies and citation 
# guidelines are available at http://www.ccdc.cam.ac.uk/access/V1 
# 
# Audit and citation data items may have been added by the CCDC. 
# Please retain this information to preserve the provenance of 
# this file and to allow appropriate attribution of the data. 
# 
#######################################################################

data_comp_8
_audit_block_doi                 10.5517/cc12cx9n
_database_code_depnum_ccdc_archive 'CCDC 994551'
loop_
_citation_id
_citation_doi
_citation_year
1 10.1007/s11172-014-0421-1 2014
_audit_update_record             
;
2014-03-31 deposited with the CCDC.	2024-07-14 downloaded from the CCDC.
;

_audit_creation_method           SHELXL-97
_chemical_name_systematic        
; 
 ? 
;
_chemical_name_common            ?
_chemical_melting_point          ?
_chemical_formula_moiety         'C32 H44 Cu2 N4 O8'
_chemical_formula_sum            'C32 H44 Cu2 N4 O8'
_chemical_formula_weight         739.79

loop_
_atom_type_symbol
_atom_type_description
_atom_type_scat_dispersion_real
_atom_type_scat_dispersion_imag
_atom_type_scat_source
C C 0.0033 0.0016 'International Tables Vol C Tables 4.2.6.8 and 6.1.1.4'
H H 0.0000 0.0000 'International Tables Vol C Tables 4.2.6.8 and 6.1.1.4'
N N 0.0061 0.0033 'International Tables Vol C Tables 4.2.6.8 and 6.1.1.4'
O O 0.0106 0.0060 'International Tables Vol C Tables 4.2.6.8 and 6.1.1.4'
Cu Cu 0.3201 1.2651 'International Tables Vol C Tables 4.2.6.8 and 6.1.1.4'

_symmetry_cell_setting           Cubic
_symmetry_space_group_name_H-M   Ia-3

loop_
_symmetry_equiv_pos_as_xyz
'x, y, z'
'-x+1/2, -y, z+1/2'
'-x, y+1/2, -z+1/2'
'x+1/2, -y+1/2, -z'
'z, x, y'
'z+1/2, -x+1/2, -y'
'-z+1/2, -x, y+1/2'
'-z, x+1/2, -y+1/2'
'y, z, x'
'-y, z+1/2, -x+1/2'
'y+1/2, -z+1/2, -x'
'-y+1/2, -z, x+1/2'
'x+1/2, y+1/2, z+1/2'
'-x+1, -y+1/2, z+1'
'-x+1/2, y+1, -z+1'
'x+1, -y+1, -z+1/2'
'z+1/2, x+1/2, y+1/2'
'z+1, -x+1, -y+1/2'
'-z+1, -x+1/2, y+1'
'-z+1/2, x+1, -y+1'
'y+1/2, z+1/2, x+1/2'
'-y+1/2, z+1, -x+1'
'y+1, -z+1, -x+1/2'
'-y+1, -z+1/2, x+1'
'-x, -y, -z'
'x-1/2, y, -z-1/2'
'x, -y-1/2, z-1/2'
'-x-1/2, y-1/2, z'
'-z, -x, -y'
'-z-1/2, x-1/2, y'
'z-1/2, x, -y-1/2'
'z, -x-1/2, y-1/2'
'-y, -z, -x'
'y, -z-1/2, x-1/2'
'-y-1/2, z-1/2, x'
'y-1/2, z, -x-1/2'
'-x+1/2, -y+1/2, -z+1/2'
'x, y+1/2, -z'
'x+1/2, -y, z'
'-x, y, z+1/2'
'-z+1/2, -x+1/2, -y+1/2'
'-z, x, y+1/2'
'z, x+1/2, -y'
'z+1/2, -x, y'
'-y+1/2, -z+1/2, -x+1/2'
'y+1/2, -z, x'
'-y, z, x+1/2'
'y, z+1/2, -x'

_cell_length_a                   30.69(2)
_cell_length_b                   30.69(2)
_cell_length_c                   30.69(2)
_cell_angle_alpha                90.00
_cell_angle_beta                 90.00
_cell_angle_gamma                90.00
_cell_volume                     28898(33)
_cell_formula_units_Z            24
_cell_measurement_temperature    150(2)
_cell_measurement_reflns_used    656
_cell_measurement_theta_min      2.30
_cell_measurement_theta_max      15.46

_exptl_crystal_description       prismatic
_exptl_crystal_colour            green
_exptl_crystal_size_max          0.06
_exptl_crystal_size_mid          0.04
_exptl_crystal_size_min          0.02
_exptl_crystal_density_meas      ?
_exptl_crystal_density_diffrn    1.020
_exptl_crystal_density_method    'not measured'
_exptl_crystal_F_000             9264
_exptl_absorpt_coefficient_mu    0.921
_exptl_absorpt_correction_type   'multi scan'
_exptl_absorpt_correction_T_min  0.9468
_exptl_absorpt_correction_T_max  0.9818
_exptl_absorpt_process_details   'SADABS v2004/1, Sheldrick, G.M., (2004)'

_exptl_special_details           
; 
A series of disordered solvate molecules could not be 
properly modeled and their electron density was instead corrected  
using the Squeeze procedure implemented in Platon. 
;

_diffrn_ambient_temperature      150(2)
_diffrn_radiation_wavelength     0.71073
_diffrn_radiation_type           MoK\a
_diffrn_radiation_source         'fine-focus sealed tube'
_diffrn_radiation_monochromator  graphite
_diffrn_measurement_device_type  'Bruker APEX-II CCD'
_diffrn_measurement_method       '\f and \w scans'
_diffrn_detector_area_resol_mean ?
_diffrn_standards_number         0
_diffrn_standards_interval_count ?
_diffrn_standards_interval_time  ?
_diffrn_standards_decay_%        ?
_diffrn_reflns_number            3496
_diffrn_reflns_av_R_equivalents  0.0000
_diffrn_reflns_av_sigmaI/netI    0.1640
_diffrn_reflns_limit_h_min       0
_diffrn_reflns_limit_h_max       23
_diffrn_reflns_limit_k_min       0
_diffrn_reflns_limit_k_max       24
_diffrn_reflns_limit_l_min       2
_diffrn_reflns_limit_l_max       34
_diffrn_reflns_theta_min         1.33
_diffrn_reflns_theta_max         23.33
_reflns_number_total             3496
_reflns_number_gt                1304
_reflns_threshold_expression     >2sigma(I)

_computing_data_collection       'Bruker APEX2'
_computing_cell_refinement       'Bruker SAINT'
_computing_data_reduction        'Bruker SAINT'
_computing_structure_solution    'SHELXS-97 (Sheldrick, 1990)'
_computing_structure_refinement  'SHELXL-97 (Sheldrick, 1997)'
_computing_molecular_graphics    'Bruker SHELXTL'
_computing_publication_material  'Bruker SHELXTL'

_refine_special_details          
; 
 Refinement of F^2^ against ALL reflections.  The weighted R-factor wR and 
 goodness of fit S are based on F^2^, conventional R-factors R are based 
 on F, with F set to zero for negative F^2^. The threshold expression of 
 F^2^ > 2sigma(F^2^) is used only for calculating R-factors(gt) etc. and is 
 not relevant to the choice of reflections for refinement.  R-factors based 
 on F^2^ are statistically about twice as large as those based on F, and R- 
 factors based on ALL data will be even larger. 
;

_refine_ls_structure_factor_coef Fsqd
_refine_ls_matrix_type           full
_refine_ls_weighting_scheme      calc
_refine_ls_weighting_details     
'calc w=1/[\s^2^(Fo^2^)+(0.0500P)^2^+0.0000P] where P=(Fo^2^+2Fc^2^)/3'
_atom_sites_solution_primary     direct
_atom_sites_solution_secondary   difmap
_atom_sites_solution_hydrogens   geom
_refine_ls_hydrogen_treatment    constr
_refine_ls_extinction_method     none
_refine_ls_extinction_coef       ?
_refine_ls_number_reflns         3496
_refine_ls_number_parameters     208
_refine_ls_number_restraints     24
_refine_ls_R_factor_all          0.1501
_refine_ls_R_factor_gt           0.0670
_refine_ls_wR_factor_ref         0.1632
_refine_ls_wR_factor_gt          0.1511
_refine_ls_goodness_of_fit_ref   1.007
_refine_ls_restrained_S_all      1.041
_refine_ls_shift/su_max          0.001
_refine_ls_shift/su_mean         0.000

loop_
_atom_site_label
_atom_site_type_symbol
_atom_site_fract_x
_atom_site_fract_y
_atom_site_fract_z
_atom_site_U_iso_or_equiv
_atom_site_adp_type
_atom_site_occupancy
_atom_site_symmetry_multiplicity
_atom_site_calc_flag
_atom_site_refinement_flags
_atom_site_disorder_assembly
_atom_site_disorder_group
Cu1 Cu 0.65759(3) 0.54185(3) 0.25834(3) 0.0625(4) Uani 1 1 d . . .
N1 N 0.6635(2) 0.60735(19) 0.2845(2) 0.0537(18) Uani 1 1 d . . .
N2 N 0.7712(2) 0.68323(18) 0.2565(2) 0.0489(17) Uani 1 1 d . . .
O1 O 0.70674(17) 0.54746(19) 0.21909(18) 0.0720(17) Uani 1 1 d . . .
O2 O 0.69864(18) 0.4782(2) 0.19624(18) 0.0742(18) Uani 1 1 d . . .
O3 O 0.61708(17) 0.54394(18) 0.20746(18) 0.0653(16) Uani 1 1 d . . .
O4 O 0.60870(16) 0.47268(18) 0.20370(17) 0.0661(17) Uani 1 1 d . . .
C1 C 0.7186(3) 0.5142(3) 0.1960(3) 0.069(3) Uani 1 1 d . . .
C2 C 0.7589(4) 0.5183(4) 0.1654(4) 0.102(4) Uani 1 1 d . . .
C3 C 0.7786(3) 0.5646(3) 0.1716(3) 0.111(4) Uani 1 1 d . . .
H3A H 0.8032 0.5684 0.1516 0.166 Uiso 1 1 calc R . .
H3B H 0.7888 0.5679 0.2017 0.166 Uiso 1 1 calc R . .
H3C H 0.7563 0.5866 0.1654 0.166 Uiso 1 1 calc R . .
C4 C 0.7912(3) 0.4828(4) 0.1774(5) 0.194(7) Uani 1 1 d . . .
H4A H 0.7776 0.4542 0.1730 0.292 Uiso 1 1 calc R . .
H4B H 0.7996 0.4860 0.2081 0.292 Uiso 1 1 calc R . .
H4C H 0.8171 0.4853 0.1589 0.292 Uiso 1 1 calc R . .
C5 C 0.7421(4) 0.5113(4) 0.1192(4) 0.169(6) Uani 1 1 d . . .
H5A H 0.7293 0.4822 0.1168 0.254 Uiso 1 1 calc R . .
H5B H 0.7664 0.5140 0.0986 0.254 Uiso 1 1 calc R . .
H5C H 0.7199 0.5333 0.1125 0.254 Uiso 1 1 calc R . .
C6 C 0.6006(3) 0.5102(3) 0.1906(3) 0.064(2) Uani 1 1 d U . .
C7 C 0.5686(3) 0.5165(3) 0.1544(3) 0.088(2) Uani 1 1 d U . .
C8 C 0.5636(4) 0.5599(3) 0.1367(3) 0.118(4) Uani 1 1 d U . .
H8A H 0.5562 0.5802 0.1602 0.178 Uiso 1 1 calc R . .
H8B H 0.5403 0.5599 0.1149 0.178 Uiso 1 1 calc R . .
H8C H 0.5910 0.5690 0.1230 0.178 Uiso 1 1 calc R . .
C9 C 0.5226(4) 0.5049(4) 0.1728(4) 0.152(4) Uani 1 1 d U . .
H9A H 0.5152 0.5250 0.1965 0.228 Uiso 1 1 calc R . .
H9B H 0.5228 0.4750 0.1839 0.228 Uiso 1 1 calc R . .
H9C H 0.5009 0.5074 0.1495 0.228 Uiso 1 1 calc R . .
C10 C 0.5774(4) 0.4836(4) 0.1177(4) 0.158(5) Uani 1 1 d U . .
H10A H 0.6053 0.4903 0.1038 0.237 Uiso 1 1 calc R . .
H10B H 0.5540 0.4854 0.0960 0.237 Uiso 1 1 calc R . .
H10C H 0.5783 0.4541 0.1299 0.237 Uiso 1 1 calc R . .
C11 C 0.6342(3) 0.6231(3) 0.3117(3) 0.061(2) Uani 1 1 d . . .
H11A H 0.6080 0.6072 0.3163 0.073 Uiso 1 1 calc R . .
C12 C 0.6401(3) 0.6617(3) 0.3336(3) 0.071(3) Uani 1 1 d . . .
H12A H 0.6183 0.6723 0.3528 0.086 Uiso 1 1 calc R . .
C13 C 0.6776(3) 0.6845(3) 0.3276(3) 0.063(2) Uani 1 1 d . . .
H13A H 0.6819 0.7113 0.3426 0.076 Uiso 1 1 calc R . .
C14 C 0.7086(3) 0.6694(3) 0.3004(3) 0.052(2) Uani 1 1 d . . .
C15 C 0.6995(3) 0.6305(3) 0.2792(3) 0.054(2) Uani 1 1 d . . .
H15A H 0.7206 0.6197 0.2593 0.065 Uiso 1 1 calc R . .
C16 C 0.7471(2) 0.6952(3) 0.2907(3) 0.051(2) Uani 1 1 d . . .

loop_
_atom_site_aniso_label
_atom_site_aniso_U_11
_atom_site_aniso_U_22
_atom_site_aniso_U_33
_atom_site_aniso_U_23
_atom_site_aniso_U_13
_atom_site_aniso_U_12
Cu1 0.0604(7) 0.0525(7) 0.0746(8) -0.0071(6) 0.0055(6) -0.0037(6)
N1 0.056(5) 0.042(4) 0.063(5) -0.009(4) 0.006(4) -0.003(4)
N2 0.049(5) 0.037(4) 0.061(5) -0.001(4) 0.004(4) -0.012(4)
O1 0.064(4) 0.074(5) 0.078(4) -0.013(4) 0.007(3) -0.011(3)
O2 0.071(4) 0.064(4) 0.088(5) -0.017(4) -0.002(3) 0.003(4)
O3 0.067(4) 0.049(4) 0.081(4) 0.001(3) -0.005(3) 0.001(3)
O4 0.062(4) 0.056(4) 0.081(4) 0.003(3) -0.013(3) 0.001(3)
C1 0.064(7) 0.068(8) 0.075(8) -0.011(6) 0.000(6) 0.009(6)
C2 0.092(8) 0.091(8) 0.122(10) 0.000(8) 0.053(8) -0.018(7)
C3 0.097(8) 0.121(9) 0.114(9) -0.036(7) 0.057(7) -0.049(7)
C4 0.072(8) 0.159(13) 0.35(2) 0.058(13) 0.062(11) 0.056(9)
C5 0.210(15) 0.194(14) 0.104(10) -0.071(10) 0.075(10) -0.097(11)
C6 0.065(6) 0.052(6) 0.075(6) 0.001(5) 0.002(5) 0.011(5)
C7 0.103(6) 0.068(5) 0.092(6) 0.009(5) -0.034(5) 0.016(5)
C8 0.162(9) 0.076(7) 0.116(8) 0.010(6) -0.047(7) 0.005(7)
C9 0.116(8) 0.156(9) 0.185(10) 0.091(8) -0.044(8) -0.027(8)
C10 0.233(11) 0.122(9) 0.118(9) -0.024(8) -0.057(9) 0.068(9)
C11 0.054(6) 0.046(6) 0.083(7) -0.024(5) 0.004(6) -0.001(5)
C12 0.059(6) 0.081(7) 0.075(7) -0.010(6) 0.034(5) 0.005(6)
C13 0.048(6) 0.053(6) 0.088(7) -0.013(5) 0.019(5) -0.006(5)
C14 0.058(6) 0.038(6) 0.058(6) -0.018(5) 0.017(5) -0.002(5)
C15 0.047(6) 0.051(6) 0.064(6) 0.012(5) 0.008(5) 0.002(5)
C16 0.048(6) 0.060(7) 0.045(6) -0.002(5) 0.006(5) -0.005(5)

_geom_special_details            
; 
 All esds (except the esd in the dihedral angle between two l.s. planes) 
 are estimated using the full covariance matrix.  The cell esds are taken 
 into account individually in the estimation of esds in distances, angles 
 and torsion angles; correlations between esds in cell parameters are only 
 used when they are defined by crystal symmetry.  An approximate (isotropic) 
 treatment of cell esds is used for estimating esds involving l.s. planes. 
;

loop_
_geom_bond_atom_site_label_1
_geom_bond_atom_site_label_2
_geom_bond_distance
_geom_bond_site_symmetry_2
_geom_bond_publ_flag
Cu1 O1 1.938(6) . ?
Cu1 O4 1.951(5) 16_455 ?
Cu1 O2 1.977(6) 16_455 ?
Cu1 O3 1.997(6) . ?
Cu1 N1 2.172(6) . ?
Cu1 Cu1 2.619(3) 16_455 ?
N1 C15 1.324(8) . ?
N1 C11 1.320(9) . ?
N2 C16 1.336(8) . ?
N2 C16 1.338(8) 12_664 ?
O1 C1 1.296(9) . ?
O2 C1 1.261(9) . ?
O2 Cu1 1.977(6) 16_455 ?
O3 C6 1.262(9) . ?
O4 C6 1.244(9) . ?
O4 Cu1 1.951(5) 16_455 ?
C1 C2 1.556(12) . ?
C2 C4 1.519(13) . ?
C2 C5 1.525(13) . ?
C2 C3 1.555(12) . ?
C6 C7 1.496(12) . ?
C7 C8 1.446(11) . ?
C7 C10 1.537(13) . ?
C7 C9 1.563(13) . ?
C11 C12 1.374(10) . ?
C12 C13 1.360(10) . ?
C13 C14 1.349(9) . ?
C14 C15 1.388(9) . ?
C14 C16 1.451(10) . ?
C16 N2 1.339(8) 6_566 ?

loop_
_geom_angle_atom_site_label_1
_geom_angle_atom_site_label_2
_geom_angle_atom_site_label_3
_geom_angle
_geom_angle_site_symmetry_1
_geom_angle_site_symmetry_3
_geom_angle_publ_flag
O1 Cu1 O4 171.8(2) . 16_455 ?
O1 Cu1 O2 88.3(2) . 16_455 ?
O4 Cu1 O2 89.9(2) 16_455 16_455 ?
O1 Cu1 O3 89.7(2) . . ?
O4 Cu1 O3 89.7(2) 16_455 . ?
O2 Cu1 O3 163.3(2) 16_455 . ?
O1 Cu1 N1 94.7(3) . . ?
O4 Cu1 N1 93.1(3) 16_455 . ?
O2 Cu1 N1 88.6(2) 16_455 . ?
O3 Cu1 N1 108.1(2) . . ?
O1 Cu1 Cu1 88.03(18) . 16_455 ?
O4 Cu1 Cu1 83.84(17) 16_455 16_455 ?
O2 Cu1 Cu1 80.33(17) 16_455 16_455 ?
O3 Cu1 Cu1 83.03(16) . 16_455 ?
N1 Cu1 Cu1 168.49(17) . 16_455 ?
C15 N1 C11 116.7(7) . . ?
C15 N1 Cu1 121.4(6) . . ?
C11 N1 Cu1 121.1(6) . . ?
C16 N2 C16 115.7(8) . 12_664 ?
C1 O1 Cu1 119.3(6) . . ?
C1 O2 Cu1 125.9(6) . 16_455 ?
C6 O3 Cu1 122.9(6) . . ?
C6 O4 Cu1 123.9(6) . 16_455 ?
O2 C1 O1 123.3(9) . . ?
O2 C1 C2 117.5(9) . . ?
O1 C1 C2 119.2(9) . . ?
C4 C2 C5 110.2(11) . . ?
C4 C2 C3 111.9(10) . . ?
C5 C2 C3 111.9(9) . . ?
C4 C2 C1 108.2(9) . . ?
C5 C2 C1 106.4(9) . . ?
C3 C2 C1 108.1(9) . . ?
O4 C6 O3 123.2(9) . . ?
O4 C6 C7 119.4(9) . . ?
O3 C6 C7 117.4(8) . . ?
C8 C7 C6 117.9(9) . . ?
C8 C7 C10 110.4(9) . . ?
C6 C7 C10 110.1(8) . . ?
C8 C7 C9 104.5(9) . . ?
C6 C7 C9 107.2(8) . . ?
C10 C7 C9 105.8(10) . . ?
N1 C11 C12 122.4(8) . . ?
C13 C12 C11 119.4(8) . . ?
C14 C13 C12 120.2(8) . . ?
C13 C14 C15 116.4(8) . . ?
C13 C14 C16 120.9(8) . . ?
C15 C14 C16 122.4(8) . . ?
N1 C15 C14 124.9(7) . . ?
N2 C16 N2 124.2(8) . 6_566 ?
N2 C16 C14 117.6(9) . . ?
N2 C16 C14 118.2(9) 6_566 . ?

_diffrn_measured_fraction_theta_max 0.997
_diffrn_reflns_theta_full        23.33
_diffrn_measured_fraction_theta_full 0.997
_refine_diff_density_max         0.441
_refine_diff_density_min         -0.446
_refine_diff_density_rms         0.100

# SQUEEZE RESULTS (APPEND TO CIF)
# Note: Data are Listed for all Voids in the P1 Unit Cell
# i.e. Centre of Gravity, Solvent Accessible Volume,
# Recovered number of Electrons in the Void and
# Details about the Squeezed Material
loop_
_platon_squeeze_void_nr
_platon_squeeze_void_average_x
_platon_squeeze_void_average_y
_platon_squeeze_void_average_z
_platon_squeeze_void_volume
_platon_squeeze_void_count_electrons
_platon_squeeze_void_content
1 0.012 -0.017 0.014 10113 5165 ' '
_platon_squeeze_details          
;
;
