
#######################################################################
#
#                 Cambridge Crystallographic Data Centre
#                                CCDC
#
#######################################################################
#
# If this CIF has been generated from an entry in the Cambridge
# Structural Database, then it will include bibliographic, chemical,
# crystal, experimental, refinement or atomic coordinate data resulting
# from the CCDC's data processing and validation procedures.
#
#######################################################################

data_CSD_CIF_YIYJEV
_audit_creation_date 1995-12-04
_audit_creation_method CSD-ConQuest-V1
_database_code_CSD YIYJEV
_database_code_depnum_ccdc_archive 'CCDC 1304070'
_chemical_formula_sum 'C28 H56 Cl6 O7 Tb2'
_chemical_formula_moiety
;
C20 H40 Cl2 O5 Tb1 1+,C8 H16 Cl4 O2 Tb1 1-
;
_journal_coden_Cambridge 9
_journal_volume 34
_journal_year 1995
_journal_page_first 576
_journal_name_full 'Inorg.Chem. '
loop_
_publ_author_name
"W.J.Evans"
"J.L.Shreeve"
"J.W.Ziller"
"R.J.Doedens"
_chemical_name_systematic
;
Dichloro-pentakis(tetrahydrofuran)-terbium 
tetrachloro-bis(tetrahydrofuran)-terbium
;
_chemical_name_common
;
Teaching Subset: Fundamental Chemistry, Symmetry
;
_cell_volume   3881.498
_exptl_crystal_colour 'colorless'
_exptl_crystal_density_diffrn 1.772
_diffrn_ambient_temperature 168
#These two values have been output from a single CSD field.
_refine_ls_R_factor_gt 0.034
_refine_ls_wR_factor_gt 0.034
_symmetry_cell_setting monoclinic
_symmetry_space_group_name_H-M 'C 2/c'
_symmetry_Int_Tables_number 15
loop_
_symmetry_equiv_pos_site_id
_symmetry_equiv_pos_as_xyz
1 x,y,z
2 -x,y,1/2-z
3 1/2+x,1/2+y,z
4 1/2-x,1/2+y,1/2-z
5 -x,-y,-z
6 x,-y,-1/2+z
7 -1/2-x,-1/2-y,-z
8 -1/2+x,-1/2-y,-1/2+z
_cell_length_a 12.401(2)
_cell_length_b 11.420(2)
_cell_length_c 27.413(3)
_cell_angle_alpha 90
_cell_angle_beta 91.100(11)
_cell_angle_gamma 90
_cell_formula_units_Z 4
loop_
_atom_type_symbol
_atom_type_radius_bond
C 0.68
H 0.23
Cl 0.99
O 0.68
Tb 1.76
loop_
_atom_site_label
_atom_site_type_symbol
_atom_site_fract_x
_atom_site_fract_y
_atom_site_fract_z
Tb1 Tb 0.00000 0.07583(2) 0.25000
Cl1 Cl 0.19589(9) 0.07554(11) 0.28531(5)
O1 O -0.07925(27) 0.01125(31) 0.32387(12)
O2 O -0.02566(26) 0.24536(28) 0.30057(12)
O3 O 0.00000 -0.13693(42) 0.25000
C1 C -0.18092(44) -0.04937(58) 0.32958(21)
C2 C -0.17973(56) -0.09900(87) 0.37821(27)
C3 C -0.07956(51) -0.06607(63) 0.40309(22)
C4 C -0.02825(70) 0.01910(89) 0.37207(22)
C5 C 0.05601(44) 0.33293(49) 0.31329(22)
C6 C 0.01663(41) 0.38769(45) 0.35941(18)
C7 C -0.10433(42) 0.38820(48) 0.35156(21)
C8 C -0.12766(45) 0.28495(66) 0.32014(27)
C9 C -0.06364(60) -0.21084(55) 0.21773(29)
C10 C -0.02487(75) -0.33207(63) 0.22497(35)
H1 H -0.18790 -0.11070 0.30580
H2 H -0.23920 0.00500 0.32470
H3 H -0.18880 -0.18240 0.37690
H4 H -0.23840 -0.06610 0.39600
H5 H -0.03530 -0.13470 0.40620
H6 H -0.09170 -0.03530 0.43510
H7 H -0.03750 0.09630 0.38520
H8 H 0.04750 0.00290 0.36980
H9 H 0.06190 0.39080 0.28810
H10 H 0.12500 0.29620 0.31830
H11 H 0.04520 0.46520 0.36390
H12 H 0.03590 0.34060 0.38720
H13 H -0.12580 0.45880 0.33510
H14 H -0.14140 0.38350 0.38190
H15 H -0.15920 0.22400 0.33930
H16 H -0.17720 0.30510 0.29410
H17 H -0.05660 -0.18620 0.18450
H18 H -0.13820 -0.20640 0.22630
H19 H 0.03020 -0.34910 0.20190
H20 H -0.08160 -0.38880 0.22140
Tb2 Tb 0.25000 0.25000 0.00000
Cl2 Cl 0.32711(10) 0.20312(13) 0.08817(4)
Cl3 Cl 0.05109(9) 0.21821(12) 0.02776(5)
O4 O 0.23644(26) 0.44934(30) 0.01931(14)
C11 C 0.14592(47) 0.52614(51) 0.00984(26)
C12 C 0.15185(55) 0.61862(64) 0.04711(27)
C13 C 0.26687(46) 0.62147(52) 0.06378(25)
C14 C 0.31755(44) 0.51354(52) 0.04633(27)
H21 H 0.08030 0.48240 0.01290
H22 H 0.14780 0.55860 -0.02240
H23 H 0.10500 0.60170 0.07370
H24 H 0.13080 0.69220 0.03290
H25 H 0.27060 0.62440 0.09880
H26 H 0.30220 0.68950 0.05110
H27 H 0.37670 0.53260 0.02570
H28 H 0.34430 0.46720 0.07320
Cl1A Cl -0.19589(9) 0.07554(11) 0.21469(5)
O1A O 0.07925(27) 0.01125(31) 0.17613(12)
O2A O 0.02566(26) 0.24536(28) 0.19943(12)
C9A C 0.06364(60) -0.21084(55) 0.28227(29)
C10A C 0.02487(75) -0.33207(63) 0.27503(35)
C1A C 0.18092(44) -0.04937(58) 0.17042(21)
C4A C 0.02825(70) 0.01910(89) 0.12793(22)
C5A C -0.05601(44) 0.33293(49) 0.18671(22)
C8A C 0.12766(45) 0.28495(66) 0.17986(27)
H17A H 0.05660 -0.18620 0.31550
H18A H 0.13820 -0.20640 0.27370
H19A H -0.03020 -0.34910 0.29810
H20A H 0.08160 -0.38880 0.27860
C2A C 0.17973(56) -0.09900(87) 0.12179(27)
H1A H 0.18790 -0.11070 0.19420
H2A H 0.23920 0.00500 0.17530
C3A C 0.07956(51) -0.06607(63) 0.09691(22)
H7A H 0.03750 0.09630 0.11480
H8A H -0.04750 0.00290 0.13020
C6A C -0.01663(41) 0.38769(45) 0.14059(18)
H9A H -0.06190 0.39080 0.21190
H10A H -0.12500 0.29620 0.18170
C7A C 0.10433(42) 0.38820(48) 0.14844(21)
H15A H 0.15920 0.22400 0.16070
H16A H 0.17720 0.30510 0.20590
H3A H 0.18880 -0.18240 0.12310
H4A H 0.23840 -0.06610 0.10400
H5A H 0.03530 -0.13470 0.09380
H6A H 0.09170 -0.03530 0.06490
H11A H -0.04520 0.46520 0.13610
H12A H -0.03590 0.34060 0.11280
H13A H 0.12580 0.45880 0.16490
H14A H 0.14140 0.38350 0.11810
Cl2F Cl 0.17289(10) 0.29688(13) -0.08817(4)
Cl3F Cl 0.44891(9) 0.28179(12) -0.02776(5)
O4F O 0.26356(26) 0.05066(30) -0.01931(14)
C11F C 0.35408(47) -0.02614(51) -0.00984(26)
C14F C 0.18245(44) -0.01354(52) -0.04633(27)
C12F C 0.34815(55) -0.11862(64) -0.04711(27)
H21F H 0.41970 0.01760 -0.01290
H22F H 0.35220 -0.05860 0.02240
C13F C 0.23313(46) -0.12147(52) -0.06378(25)
H27F H 0.12330 -0.03260 -0.02570
H28F H 0.15570 0.03280 -0.07320
H23F H 0.39500 -0.10170 -0.07370
H24F H 0.36920 -0.19220 -0.03290
H25F H 0.22940 -0.12440 -0.09880
H26F H 0.19780 -0.18950 -0.05110
#END
