####################################################################### 
# 
# This file contains crystal structure data downloaded from the 
# Cambridge Structural Database (CSD) hosted by the Cambridge 
# Crystallographic Data Centre (CCDC).
# 
# Full information about CCDC data access policies and citation 
# guidelines are available at http://www.ccdc.cam.ac.uk/access/V1 
# 
# Audit and citation data items may have been added by the CCDC. 
# Please retain this information to preserve the provenance of 
# this file and to allow appropriate attribution of the data. 
# 
#######################################################################

data_compound12
_audit_block_doi                 10.5517/cc11xfcr
_database_code_depnum_ccdc_archive 'CCDC 980634'
loop_
_citation_id
_citation_doi
_citation_year
1 10.1002/chem.201400285 2014
_audit_update_record             
;
2014-01-08 deposited with the CCDC.	2024-07-14 downloaded from the CCDC.
;


_audit_creation_method           SHELXL-2013
_chemical_name_systematic        
;
 ?
;
_chemical_name_common            ?
_chemical_melting_point          ?
_chemical_formula_moiety         'C80 H72 B4 N18 O20 Zn5, 12(C3 H7 N O)'
_chemical_formula_sum            'C116 H156 B4 N30 O32 Zn5'
_chemical_formula_weight         2852.79

loop_
_atom_type_symbol
_atom_type_description
_atom_type_scat_dispersion_real
_atom_type_scat_dispersion_imag
_atom_type_scat_source
C C 0.0033 0.0016 'International Tables Vol C Tables 4.2.6.8 and 6.1.1.4'
H H 0.0000 0.0000 'International Tables Vol C Tables 4.2.6.8 and 6.1.1.4'
B B 0.0013 0.0007 'International Tables Vol C Tables 4.2.6.8 and 6.1.1.4'
N N 0.0061 0.0033 'International Tables Vol C Tables 4.2.6.8 and 6.1.1.4'
O O 0.0106 0.0060 'International Tables Vol C Tables 4.2.6.8 and 6.1.1.4'
Zn Zn 0.2839 1.4301 'International Tables Vol C Tables 4.2.6.8 and 6.1.1.4'

_space_group_crystal_system      monoclinic
_space_group_IT_number           15
_space_group_name_H-M_alt        'C 2/c'
_space_group_name_Hall           '-C 2yc'

_shelx_space_group_comment       
;
The symmetry employed for this shelxl refinement is uniquely defined
by the following loop, which should always be used as a source of
symmetry information in preference to the above space-group names.
They are only intended as comments.
;

loop_
_space_group_symop_operation_xyz
'x, y, z'
'-x, y, -z+1/2'
'x+1/2, y+1/2, z'
'-x+1/2, y+1/2, -z+1/2'
'-x, -y, -z'
'x, -y, z-1/2'
'-x+1/2, -y+1/2, -z'
'x+1/2, -y+1/2, z-1/2'

_cell_length_a                   31.331(3)
_cell_length_b                   31.780(8)
_cell_length_c                   18.834(3)
_cell_angle_alpha                90
_cell_angle_beta                 115.962(7)
_cell_angle_gamma                90
_cell_volume                     16861(5)
_cell_formula_units_Z            4
_cell_measurement_temperature    100(2)
_cell_measurement_reflns_used    527
_cell_measurement_theta_min      3
_cell_measurement_theta_max      22

_exptl_crystal_description       prismatic
_exptl_crystal_colour            yellow

_exptl_crystal_density_meas      ?
_exptl_crystal_density_method    ?
_exptl_crystal_density_diffrn    1.124
_exptl_crystal_F_000             5952
_exptl_transmission_factor_min   ?
_exptl_transmission_factor_max   ?
_exptl_crystal_size_max          0.329
_exptl_crystal_size_mid          0.190
_exptl_crystal_size_min          0.160
_exptl_absorpt_coefficient_mu    0.768
_shelx_estimated_absorpt_T_min   0.786
_shelx_estimated_absorpt_T_max   0.887

_exptl_absorpt_correction_type   multi-scan
_exptl_absorpt_correction_T_min  0.6564
_exptl_absorpt_correction_T_max  0.7456
_exptl_absorpt_process_details   
;
SADABS 2008, Bruker AXS, 2008
;

_diffrn_ambient_temperature      100(2)
_diffrn_radiation_wavelength     0.71073
_diffrn_radiation_type           MoK\a
_diffrn_radiation_source         'fine-focus sealed tube'
_diffrn_radiation_monochromator  graphite
_diffrn_measurement_device_type  'Bruker APEX II CCD'
_diffrn_measurement_method       'phi and omega scans'
_diffrn_detector_area_resol_mean ?
_diffrn_reflns_number            110234
_diffrn_reflns_av_unetI/netI     0.0616
_diffrn_reflns_av_R_equivalents  0.0591
_diffrn_reflns_limit_h_min       -40
_diffrn_reflns_limit_h_max       40
_diffrn_reflns_limit_k_min       -41
_diffrn_reflns_limit_k_max       41
_diffrn_reflns_limit_l_min       -24
_diffrn_reflns_limit_l_max       24
_diffrn_reflns_theta_min         3.102
_diffrn_reflns_theta_max         27.499
_diffrn_reflns_theta_full        25.242
_diffrn_measured_fraction_theta_max 0.997
_diffrn_measured_fraction_theta_full 0.998
_diffrn_reflns_Laue_measured_fraction_max 0.997
_diffrn_reflns_Laue_measured_fraction_full 0.998
_diffrn_reflns_point_group_measured_fraction_max 0.997
_diffrn_reflns_point_group_measured_fraction_full 0.998
_reflns_number_total             19326
_reflns_number_gt                12681
_reflns_threshold_expression     'I > 2\s(I)'
_reflns_Friedel_coverage         0.000
_reflns_Friedel_fraction_max     .
_reflns_Friedel_fraction_full    .

_reflns_special_details          
;
 Reflections were merged by SHELXL according to the crystal
 class for the calculation of statistics and refinement.
 
 Structure factors included contributions from the .fab file.
 
 _reflns_Friedel_fraction is defined as the number of unique
 Friedel pairs measured divided by the number that would be
 possible theoretically, ignoring centric projections and
 systematic absences.
;

_computing_data_collection       'Collect (Bruker AXS BV, 1997-2004)'
_computing_cell_refinement       'Dirax/lsq (Duisenberg & Schreurs, 1989-2000)'
_computing_data_reduction        'EvalCCD (Duisenberg & Schreurs, 1990-2000)'
_computing_structure_solution    'SHELXS-97 (Sheldrick, 1990)'
_computing_refinement_gui        'shelXle (Huebschle et al, 2011)'
_computing_structure_refinement  'SHELXL-2013 (Sheldrick, 2013)'
_computing_molecular_graphics    'shelXle (Huebschle et al, 2011)'
_computing_publication_material  'enCIFer 1.3, CCDC, 2008'

_refine_special_details          
;
Geometrical restraints were generated for the organic fragments of the structure
using GRADE (www.grade.globalphasing.com). They were applied to the 
clathrochelate ligand and solvent molecules.
;
_refine_ls_structure_factor_coef Fsqd
_refine_ls_matrix_type           full
_refine_ls_weighting_scheme      calc
_refine_ls_weighting_details     
'w=1/[\s^2^(Fo^2^)+(0.0716P)^2^+85.0001P] where P=(Fo^2^+2Fc^2^)/3'
_atom_sites_solution_primary     ?
_atom_sites_solution_secondary   ?
_atom_sites_solution_hydrogens   geom
_refine_ls_hydrogen_treatment    constr
_refine_ls_extinction_method     none
_refine_ls_extinction_coef       .
_refine_ls_number_reflns         19326
_refine_ls_number_parameters     889
_refine_ls_number_restraints     2066
_refine_ls_R_factor_all          0.1054
_refine_ls_R_factor_gt           0.0723
_refine_ls_wR_factor_ref         0.1892
_refine_ls_wR_factor_gt          0.1730
_refine_ls_goodness_of_fit_ref   1.032
_refine_ls_restrained_S_all      1.008
_refine_ls_shift/su_max          0.002
_refine_ls_shift/su_mean         0.000

loop_
_atom_site_label
_atom_site_type_symbol
_atom_site_fract_x
_atom_site_fract_y
_atom_site_fract_z
_atom_site_U_iso_or_equiv
_atom_site_adp_type
_atom_site_occupancy
_atom_site_site_symmetry_order
_atom_site_calc_flag
_atom_site_refinement_flags_posn
_atom_site_refinement_flags_adp
_atom_site_refinement_flags_occupancy
_atom_site_disorder_assembly
_atom_site_disorder_group
Zn1 Zn 0.5000 0.25317(2) 0.2500 0.01982(14) Uani 1 2 d S T P . .
Zn2 Zn 0.28198(2) 0.46727(2) 0.25541(3) 0.02463(12) Uani 1 1 d . . . . .
Zn3 Zn 0.21464(2) 0.53292(2) 0.25095(3) 0.02546(12) Uani 1 1 d . . . . .
C1_1 C 0.38928(12) 0.36248(11) 0.2615(2) 0.0256(8) Uani 1 1 d D U . . .
C2_1 C 0.37404(12) 0.32954(11) 0.2058(2) 0.0268(8) Uani 1 1 d D U . . .
H2_1 H 0.3417 0.3278 0.1684 0.032 Uiso 1 1 calc R U . . .
C3_1 C 0.40658(12) 0.29942(11) 0.2054(2) 0.0269(9) Uani 1 1 d D U . . .
H3_1 H 0.3954 0.2775 0.1675 0.032 Uiso 1 1 calc R U . . .
N4_1 N 0.45265(10) 0.30013(9) 0.25607(19) 0.0230(7) Uani 1 1 d D U . . .
C5_1 C 0.46751(13) 0.33126(11) 0.3089(3) 0.0288(9) Uani 1 1 d D U . . .
H5_1 H 0.5002 0.3324 0.3452 0.035 Uiso 1 1 calc R U . . .
C6_1 C 0.43731(13) 0.36213(12) 0.3131(3) 0.0322(10) Uani 1 1 d D U . . .
H6_1 H 0.4498 0.3835 0.3523 0.039 Uiso 1 1 calc R U . . .
B7_1 B 0.35248(15) 0.39820(13) 0.2604(3) 0.0293(10) Uani 1 1 d D U . . .
O8_1 O 0.37331(10) 0.41788(9) 0.33924(19) 0.0412(8) Uani 1 1 d D U . . .
N9_1 N 0.34953(11) 0.45358(10) 0.3486(2) 0.0305(8) Uani 1 1 d D U . . .
C10_1 C 0.37509(13) 0.47414(11) 0.4112(2) 0.0303(9) Uani 1 1 d D U . . .
H10_1 H 0.4060 0.4635 0.4432 0.036 Uiso 1 1 calc R U . . .
C11_1 C 0.36094(13) 0.51263(11) 0.4379(2) 0.0262(8) Uani 1 1 d D U . . .
C12_1 C 0.31473(13) 0.53051(11) 0.3996(2) 0.0252(8) Uani 1 1 d D U . . .
C13_1 C 0.30659(13) 0.56852(11) 0.4316(2) 0.0274(8) Uani 1 1 d D U . . .
C14_1 C 0.34305(14) 0.58723(12) 0.4970(2) 0.0325(9) Uani 1 1 d D U . . .
H14_1 H 0.3366 0.6128 0.5168 0.039 Uiso 1 1 calc R U . . .
C15_1 C 0.38854(14) 0.57011(13) 0.5346(3) 0.0350(10) Uani 1 1 d D U . . .
C16_1 C 0.39642(14) 0.53249(12) 0.5045(3) 0.0330(9) Uani 1 1 d D U . . .
H16_1 H 0.4268 0.5197 0.5297 0.040 Uiso 1 1 calc R U . . .
C17_1 C 0.26114(13) 0.59081(13) 0.3984(2) 0.0330(9) Uani 1 1 d D U . . .
H17_1 H 0.2588 0.6152 0.4256 0.040 Uiso 1 1 calc R U . . .
N18_1 N 0.22415(11) 0.58043(10) 0.3357(2) 0.0295(8) Uani 1 1 d D U . . .
O19_1 O 0.18674(10) 0.60901(10) 0.31946(19) 0.0420(8) Uani 1 1 d D U . . .
B20_1 B 0.14350(16) 0.60236(14) 0.2444(3) 0.0310(10) Uani 1 1 d D U . . .
O21_1 O 0.30727(9) 0.37612(9) 0.24202(19) 0.0341(7) Uani 1 1 d D U . . .
N22_1 N 0.27012(11) 0.40148(10) 0.2409(2) 0.0280(7) Uani 1 1 d D U . . .
C23_1 C 0.23453(12) 0.37890(12) 0.2331(2) 0.0287(9) Uani 1 1 d D U . . .
H23_1 H 0.2368 0.3495 0.2266 0.034 Uiso 1 1 calc R U . . .
C24_1 C 0.19062(13) 0.39435(12) 0.2332(2) 0.0306(9) Uani 1 1 d D U . . .
C25_1 C 0.18090(13) 0.43823(12) 0.2360(3) 0.0314(9) Uani 1 1 d D U . . .
C26_1 C 0.13737(15) 0.44831(13) 0.2391(3) 0.0414(11) Uani 1 1 d D U . . .
C27_1 C 0.10722(17) 0.41621(13) 0.2412(4) 0.0537(15) Uani 1 1 d D U . . .
H27_1 H 0.0788 0.4239 0.2445 0.064 Uiso 1 1 calc R U . . .
C28_1 C 0.11691(16) 0.37374(13) 0.2387(3) 0.0495(13) Uani 1 1 d D U . . .
C29_1 C 0.15860(15) 0.36377(14) 0.2334(3) 0.0425(11) Uani 1 1 d D U . . .
H29_1 H 0.1656 0.3350 0.2297 0.051 Uiso 1 1 calc R U . . .
C30_1 C 0.12195(15) 0.49155(12) 0.2404(3) 0.0458(13) Uani 1 1 d D U . . .
H30_1 H 0.0917 0.4952 0.2399 0.055 Uiso 1 1 calc R U . . .
N31_1 N 0.14500(12) 0.52501(10) 0.2420(3) 0.0388(9) Uani 1 1 d D U . . .
O32_1 O 0.11984(11) 0.56152(9) 0.2446(2) 0.0500(9) Uani 1 1 d D U . . .
O33_1 O 0.34922(10) 0.42756(9) 0.1975(2) 0.0387(8) Uani 1 1 d D U . . .
N34_1 N 0.31739(12) 0.46116(10) 0.1820(2) 0.0295(8) Uani 1 1 d D U . . .
C35_1 C 0.31731(14) 0.48508(12) 0.1271(2) 0.0327(9) Uani 1 1 d D U . . .
H35_1 H 0.3379 0.4774 0.1043 0.039 Uiso 1 1 calc R U . . .
C36_1 C 0.28874(14) 0.52294(12) 0.0964(2) 0.0308(9) Uani 1 1 d D U . . .
C37_1 C 0.25739(14) 0.53902(12) 0.1267(2) 0.0289(9) Uani 1 1 d D U . . .
C38_1 C 0.23052(15) 0.57538(12) 0.0896(2) 0.0337(9) Uani 1 1 d D U . . .
C39_1 C 0.23675(17) 0.59509(14) 0.0282(3) 0.0412(11) Uani 1 1 d D U . . .
H39_1 H 0.2189 0.6197 0.0051 0.049 Uiso 1 1 calc R U . . .
C40_1 C 0.26789(17) 0.58019(14) -0.0002(3) 0.0414(11) Uani 1 1 d D U . . .
C41_1 C 0.29295(16) 0.54350(13) 0.0342(3) 0.0363(10) Uani 1 1 d D U . . .
H41_1 H 0.3137 0.5321 0.0145 0.044 Uiso 1 1 calc R U . . .
C42_1 C 0.19603(15) 0.59497(13) 0.1124(2) 0.0360(10) Uani 1 1 d D U . . .
H42_1 H 0.1796 0.6191 0.0836 0.043 Uiso 1 1 calc R U . . .
N43_1 N 0.18624(12) 0.58233(11) 0.1679(2) 0.0344(8) Uani 1 1 d D U . . .
O44_1 O 0.15132(12) 0.60764(10) 0.1740(2) 0.0461(9) Uani 1 1 d D U . . .
C45_1 C 0.10798(13) 0.63908(11) 0.2440(2) 0.0289(9) Uani 1 1 d D U . . .
C46_1 C 0.09496(14) 0.67292(12) 0.1910(3) 0.0324(9) Uani 1 1 d D U . . .
H46_1 H 0.1067 0.6744 0.1524 0.039 Uiso 1 1 calc R U . . .
C47_1 C 0.06487(13) 0.70457(12) 0.1943(2) 0.0279(9) Uani 1 1 d D U . . .
H47_1 H 0.0569 0.7272 0.1578 0.033 Uiso 1 1 calc R U . . .
N48_1 N 0.04697(11) 0.70418(9) 0.2468(2) 0.0263(7) Uani 1 1 d D U . . .
C49_1 C 0.05861(13) 0.67156(11) 0.2976(3) 0.0289(9) Uani 1 1 d D U . . .
H49_1 H 0.0459 0.6708 0.3351 0.035 Uiso 1 1 calc R U . . .
C50_1 C 0.08827(13) 0.63895(12) 0.2978(2) 0.0293(9) Uani 1 1 d D U . . .
H50_1 H 0.0952 0.6165 0.3346 0.035 Uiso 1 1 calc R U . . .
O12A_1 O 0.28069(9) 0.51162(8) 0.33867(17) 0.0299(6) Uani 1 1 d D U . . .
C15A_1 C 0.42802(16) 0.59141(16) 0.6056(3) 0.0509(14) Uani 1 1 d D U . . .
H15A_1 H 0.4588 0.5847 0.6065 0.076 Uiso 1 1 calc R U . . .
H15B_1 H 0.4274 0.5812 0.6543 0.076 Uiso 1 1 calc R U . . .
H15C_1 H 0.4232 0.6219 0.6016 0.076 Uiso 1 1 calc R U . . .
O25A_1 O 0.21023(9) 0.46726(8) 0.23557(18) 0.0327(7) Uani 1 1 d D U . . .
C28A_1 C 0.0831(2) 0.34010(17) 0.2420(5) 0.075(2) Uani 1 1 d D U . . .
H28A_1 H 0.0589 0.3533 0.2544 0.112 Uiso 1 1 calc R U . . .
H28B_1 H 0.1010 0.3195 0.2829 0.112 Uiso 1 1 calc R U . . .
H28C_1 H 0.0677 0.3259 0.1907 0.112 Uiso 1 1 calc R U . . .
O37A_1 O 0.25353(11) 0.52080(9) 0.18612(19) 0.0373(7) Uani 1 1 d D U . . .
C40A_1 C 0.2748(2) 0.60273(19) -0.0649(3) 0.0650(17) Uani 1 1 d D U . . .
H40A_1 H 0.2785 0.5820 -0.1005 0.097 Uiso 1 1 calc R U . . .
H40B_1 H 0.3034 0.6203 -0.0416 0.097 Uiso 1 1 calc R U . . .
H40C_1 H 0.2472 0.6205 -0.0948 0.097 Uiso 1 1 calc R U . . .
N1_10 N 0.2399(3) 0.7268(2) 0.2611(6) 0.156(4) Uani 1 1 d D U . . .
C2_10 C 0.2252(5) 0.6846(4) 0.2349(12) 0.305(11) Uani 1 1 d D U . . .
H2A_10 H 0.2514 0.6652 0.2636 0.458 Uiso 1 1 calc R U . . .
H2B_10 H 0.2161 0.6826 0.1781 0.458 Uiso 1 1 calc R U . . .
H2C_10 H 0.1980 0.6772 0.2450 0.458 Uiso 1 1 calc R U . . .
C3_10 C 0.1982(5) 0.7561(4) 0.2370(13) 0.291(12) Uani 1 1 d D U . . .
H3A_10 H 0.1769 0.7518 0.1810 0.436 Uiso 1 1 calc R U . . .
H3B_10 H 0.2095 0.7852 0.2456 0.436 Uiso 1 1 calc R U . . .
H3C_10 H 0.1811 0.7502 0.2687 0.436 Uiso 1 1 calc R U . . .
C4_10 C 0.2821(4) 0.7430(3) 0.2932(8) 0.173(5) Uani 1 1 d D U . . .
H4_10 H 0.3070 0.7232 0.3042 0.207 Uiso 1 1 calc R U . . .
O5_10 O 0.29441(18) 0.77622(16) 0.3104(4) 0.106(2) Uani 1 1 d D U . . .
N1_11 N 0.0852(2) 0.6586(2) -0.0440(4) 0.0969(19) Uani 1 1 d D U . . .
C2_11 C 0.0934(3) 0.6182(3) -0.0727(6) 0.121(3) Uani 1 1 d D U . . .
H2A_11 H 0.0670 0.6119 -0.1240 0.181 Uiso 1 1 calc R U . . .
H2B_11 H 0.0958 0.5960 -0.0349 0.181 Uiso 1 1 calc R U . . .
H2C_11 H 0.1230 0.6195 -0.0784 0.181 Uiso 1 1 calc R U . . .
C3_11 C 0.0417(4) 0.6655(5) -0.0375(8) 0.187(6) Uani 1 1 d D U . . .
H3A_11 H 0.0147 0.6616 -0.0893 0.281 Uiso 1 1 calc R U . . .
H3B_11 H 0.0413 0.6943 -0.0191 0.281 Uiso 1 1 calc R U . . .
H3C_11 H 0.0394 0.6455 0.0002 0.281 Uiso 1 1 calc R U . . .
C4_11 C 0.1187(3) 0.6891(3) -0.0174(5) 0.110(3) Uani 1 1 d D U . . .
H4_11 H 0.1103 0.7151 -0.0017 0.132 Uiso 1 1 calc R U . . .
O5_11 O 0.1599(3) 0.6856(2) -0.0120(6) 0.170(4) Uani 1 1 d D U . . .
N1_12 N 0.1628(3) 0.4729(3) -0.0019(5) 0.058(2) Uani 0.685(10) 1 d D U P A 1
C2_12 C 0.1953(3) 0.4383(3) 0.0338(6) 0.077(3) Uani 0.685(10) 1 d D U P A 1
H2A_12 H 0.1855 0.4140 -0.0019 0.115 Uiso 0.685(10) 1 calc R U P A 1
H2B_12 H 0.1948 0.4306 0.0839 0.115 Uiso 0.685(10) 1 calc R U P A 1
H2C_12 H 0.2274 0.4468 0.0438 0.115 Uiso 0.685(10) 1 calc R U P A 1
C3_12 C 0.1636(4) 0.4909(3) -0.0721(5) 0.073(3) Uani 0.685(10) 1 d D U P A 1
H3A_12 H 0.1401 0.5135 -0.0923 0.088 Uiso 0.685(10) 1 calc R U P A 1
H3B_12 H 0.1559 0.4690 -0.1126 0.088 Uiso 0.685(10) 1 calc R U P A 1
H3C_12 H 0.1953 0.5022 -0.0590 0.088 Uiso 0.685(10) 1 calc R U P A 1
C4_12 C 0.1331(4) 0.4884(4) 0.0270(7) 0.089(4) Uani 0.685(10) 1 d D U P A 1
H4_12 H 0.1371 0.4778 0.0768 0.107 Uiso 0.685(10) 1 calc R U P A 1
O5_12 O 0.1023(4) 0.5141(4) -0.0037(6) 0.124(4) Uani 0.685(10) 1 d D U P A 1
N1_13 N 0.2065(3) 0.6876(2) 0.4961(5) 0.146(3) Uani 1 1 d D U . . .
C2_13 C 0.1671(4) 0.6777(4) 0.5184(7) 0.201(5) Uani 1 1 d D U . . .
H2A_13 H 0.1516 0.7038 0.5218 0.302 Uiso 1 1 calc R U . . .
H2B_13 H 0.1802 0.6634 0.5696 0.302 Uiso 1 1 calc R U . . .
H2C_13 H 0.1439 0.6593 0.4782 0.302 Uiso 1 1 calc R U . . .
C3_13 C 0.1908(4) 0.7131(4) 0.4247(7) 0.221(6) Uani 1 1 d D U . . .
H3A_13 H 0.2181 0.7202 0.4148 0.331 Uiso 1 1 calc R U . . .
H3B_13 H 0.1760 0.7389 0.4315 0.331 Uiso 1 1 calc R U . . .
H3C_13 H 0.1677 0.6971 0.3798 0.331 Uiso 1 1 calc R U . . .
C4_13 C 0.2480(3) 0.6739(3) 0.5380(5) 0.126(3) Uani 1 1 d D U . . .
H4_13 H 0.2537 0.6579 0.5839 0.151 Uiso 1 1 calc R U . . .
O5_13 O 0.2849(2) 0.68155(18) 0.5193(4) 0.123(2) Uani 1 1 d D U . . .
N1_14 N 0.4281(3) 0.3247(2) 0.4850(4) 0.116(2) Uani 1 1 d D U . . .
C2_14 C 0.3793(3) 0.3128(3) 0.4389(6) 0.134(4) Uani 1 1 d D U . . .
H2A_14 H 0.3621 0.33