####################################################################### 
# 
# This file contains crystal structure data downloaded from the 
# Cambridge Structural Database (CSD) hosted by the Cambridge 
# Crystallographic Data Centre (CCDC).
# 
# Full information about CCDC data access policies and citation 
# guidelines are available at http://www.ccdc.cam.ac.uk/access/V1 
# 
# Audit and citation data items may have been added by the CCDC. 
# Please retain this information to preserve the provenance of 
# this file and to allow appropriate attribution of the data. 
# 
#######################################################################

data_compound15
_audit_block_doi                 10.5517/cc11xfgv
_database_code_depnum_ccdc_archive 'CCDC 980637'
loop_
_citation_id
_citation_doi
_citation_year
1 10.1002/chem.201400285 2014
_audit_update_record             
;
2014-01-08 deposited with the CCDC.	2024-07-14 downloaded from the CCDC.
;


_audit_creation_method           SHELXL-2013
_chemical_name_systematic        
;
 ?
;
_chemical_name_common            ?
_chemical_melting_point          ?
_chemical_formula_moiety         '2(C92 H94 B4 Cd N16 O20 Zn4), 13(C3 H7 N O)'
_chemical_formula_sum            'C223 H279 B8 Cd2 N45 O52 Zn8'
_chemical_formula_weight         5256.13

loop_
_atom_type_symbol
_atom_type_description
_atom_type_scat_dispersion_real
_atom_type_scat_dispersion_imag
_atom_type_scat_source
C C 0.0033 0.0016 'International Tables Vol C Tables 4.2.6.8 and 6.1.1.4'
H H 0.0000 0.0000 'International Tables Vol C Tables 4.2.6.8 and 6.1.1.4'
B B 0.0013 0.0007 'International Tables Vol C Tables 4.2.6.8 and 6.1.1.4'
N N 0.0061 0.0033 'International Tables Vol C Tables 4.2.6.8 and 6.1.1.4'
O O 0.0106 0.0060 'International Tables Vol C Tables 4.2.6.8 and 6.1.1.4'
Zn Zn 0.2839 1.4301 'International Tables Vol C Tables 4.2.6.8 and 6.1.1.4'
Cd Cd -0.8075 1.2024 'International Tables Vol C Tables 4.2.6.8 and 6.1.1.4'

_space_group_crystal_system      triclinic
_space_group_IT_number           2
_space_group_name_H-M_alt        'P -1'
_space_group_name_Hall           '-P 1'

_shelx_space_group_comment       
;
The symmetry employed for this shelxl refinement is uniquely defined
by the following loop, which should always be used as a source of
symmetry information in preference to the above space-group names.
They are only intended as comments.
;

loop_
_space_group_symop_operation_xyz
'x, y, z'
'-x, -y, -z'

_cell_length_a                   22.243(4)
_cell_length_b                   22.810(5)
_cell_length_c                   31.765(6)
_cell_angle_alpha                77.27(3)
_cell_angle_beta                 80.38(3)
_cell_angle_gamma                85.85(3)
_cell_volume                     15489(6)
_cell_formula_units_Z            2
_cell_measurement_temperature    140(2)
_cell_measurement_reflns_used    1393
_cell_measurement_theta_min      3
_cell_measurement_theta_max      22

_exptl_crystal_description       prismatic
_exptl_crystal_colour            colourless
_exptl_crystal_density_meas      ?
_exptl_crystal_density_method    ?
_exptl_crystal_density_diffrn    1.127
_exptl_crystal_F_000             5448
_exptl_transmission_factor_min   ?
_exptl_transmission_factor_max   ?
_exptl_crystal_size_max          0.312
_exptl_crystal_size_mid          0.258
_exptl_crystal_size_min          0.222
_exptl_absorpt_coefficient_mu    0.808
_shelx_estimated_absorpt_T_min   0.787
_shelx_estimated_absorpt_T_max   0.841
_exptl_absorpt_correction_type   none
_exptl_absorpt_correction_T_min  ?
_exptl_absorpt_correction_T_max  ?
_exptl_absorpt_process_details   ?

_exptl_special_details           
;
 ?
;

_diffrn_ambient_temperature      140(2)
_diffrn_radiation_wavelength     0.71073
_diffrn_radiation_type           MoK\a
_diffrn_radiation_source         'Genix micro-source sealed tube'
_diffrn_radiation_monochromator  mirrors
_diffrn_measurement_device_type  marmux
_diffrn_measurement_method       '\p scans'
_diffrn_detector_area_resol_mean ?
_diffrn_reflns_number            84926
_diffrn_reflns_av_unetI/netI     0.3036
_diffrn_reflns_av_R_equivalents  0.1477
_diffrn_reflns_limit_h_min       -27
_diffrn_reflns_limit_h_max       27
_diffrn_reflns_limit_k_min       -27
_diffrn_reflns_limit_k_max       26
_diffrn_reflns_limit_l_min       -38
_diffrn_reflns_limit_l_max       39
_diffrn_reflns_theta_min         2.555
_diffrn_reflns_theta_max         26.021
_diffrn_reflns_theta_full        25.242
_diffrn_measured_fraction_theta_max 0.863
_diffrn_measured_fraction_theta_full 0.881
_diffrn_reflns_Laue_measured_fraction_max 0.863
_diffrn_reflns_Laue_measured_fraction_full 0.881
_diffrn_reflns_point_group_measured_fraction_max 0.863
_diffrn_reflns_point_group_measured_fraction_full 0.881
_reflns_number_total             52657
_reflns_number_gt                11552
_reflns_threshold_expression     'I > 2\s(I)'
_reflns_Friedel_coverage         0.000
_reflns_Friedel_fraction_max     .
_reflns_Friedel_fraction_full    .
_diffrn_standards_number         0
_diffrn_standards_interval_count 0
_diffrn_standards_interval_time  0
_diffrn_standards_decay_%        0

_reflns_special_details          
;
 Reflections were merged by SHELXL according to the crystal
 class for the calculation of statistics and refinement.
 
 Structure factors included contributions from the .fab file.
 
 _reflns_Friedel_fraction is defined as the number of unique
 Friedel pairs measured divided by the number that would be
 possible theoretically, ignoring centric projections and
 systematic absences.
;

_computing_data_collection       'marmux - Micro-beam system, marresearch, 2010'
_computing_cell_refinement       'automar, marresearch, 2010'
_computing_data_reduction        'EvalCCD (Duisenberg & Schreurs, 1990-2000)'
_computing_structure_solution    'SHELXS-97 (Sheldrick, 1990)'
_computing_refinement_gui        'shelXle (Huebschle et al, 2011)'
_computing_structure_refinement  'SHELXL-2013 (Sheldrick, 2013)'
_computing_molecular_graphics    'shelXle (Huebschle et al, 2011)'
_computing_publication_material  'enCIFer 1.3, CCDC, 2008'

_refine_special_details          
;
Geometrical restraints were generated for the organic fragments of the structure
using GRADE (www.grade.globalphasing.com). They were applied to the 
clathrochelate ligand and solvent molecules.
;

_refine_ls_structure_factor_coef Fsqd
_refine_ls_matrix_type           full
_refine_ls_weighting_scheme      calc
_refine_ls_weighting_details     
'w=1/[\s^2^(Fo^2^)+(0.2000P)^2^] where P=(Fo^2^+2Fc^2^)/3'
_atom_sites_solution_primary     ?
_atom_sites_solution_secondary   ?
_atom_sites_solution_hydrogens   geom
_refine_ls_hydrogen_treatment    constr
_refine_ls_extinction_method     none
_refine_ls_extinction_coef       .
_refine_ls_number_reflns         52657
_refine_ls_number_parameters     3043
_refine_ls_number_restraints     8278
_refine_ls_R_factor_all          0.2902
_refine_ls_R_factor_gt           0.1392
_refine_ls_wR_factor_ref         0.4281
_refine_ls_wR_factor_gt          0.3535
_refine_ls_goodness_of_fit_ref   0.884
_refine_ls_restrained_S_all      0.854
_refine_ls_shift/su_max          0.000
_refine_ls_shift/su_mean         0.000

loop_
_atom_site_label
_atom_site_type_symbol
_atom_site_fract_x
_atom_site_fract_y
_atom_site_fract_z
_atom_site_U_iso_or_equiv
_atom_site_adp_type
_atom_site_occupancy
_atom_site_site_symmetry_order
_atom_site_calc_flag
_atom_site_refinement_flags_posn
_atom_site_refinement_flags_adp
_atom_site_refinement_flags_occupancy
_atom_site_disorder_assembly
_atom_site_disorder_group
Cd1 Cd 0.03976(5) 0.66266(4) 0.85478(4) 0.0758(4) Uani 1 1 d . . . . .
Cd2 Cd 0.33780(5) 0.95978(4) 0.64511(4) 0.0800(4) Uani 1 1 d . . . . .
Zn1_1 Zn -0.09860(8) 0.96690(8) 0.64581(6) 0.0784(5) Uani 1 1 d . . . . .
Zn2_1 Zn -0.22849(8) 0.96748(8) 0.64703(6) 0.0785(5) Uani 1 1 d . . . . .
C1_1 C 0.1067(5) 0.9672(5) 0.6430(4) 0.091(3) Uani 1 1 d D U . . .
C2_1 C 0.1488(6) 0.9978(6) 0.6102(5) 0.114(5) Uani 1 1 d D U . . .
H2_1 H 0.1342 1.0218 0.5852 0.136 Uiso 1 1 calc R U . . .
C3_1 C 0.2111(6) 0.9960(6) 0.6111(5) 0.110(5) Uani 1 1 d D U . . .
H3_1 H 0.2368 1.0189 0.5872 0.132 Uiso 1 1 calc R U . . .
N4_1 N 0.2357(5) 0.9637(5) 0.6438(4) 0.087(3) Uani 1 1 d D U . . .
C5_1 C 0.1969(6) 0.9346(6) 0.6759(5) 0.111(5) Uani 1 1 d D U . . .
H5_1 H 0.2128 0.9113 0.7006 0.133 Uiso 1 1 calc R U . . .
C6_1 C 0.1347(6) 0.9353(6) 0.6765(5) 0.113(5) Uani 1 1 d D U . . .
H6_1 H 0.1103 0.9126 0.7013 0.135 Uiso 1 1 calc R U . . .
B7_1 B 0.0347(5) 0.9661(7) 0.6440(5) 0.088(3) Uani 1 1 d D U . . .
O8_1 O 0.0230(4) 1.0126(4) 0.6080(3) 0.092(3) Uani 1 1 d D U . . .
N9_1 N -0.0391(5) 1.0273(5) 0.6083(4) 0.082(3) Uani 1 1 d D U . . .
C10_1 C -0.0480(6) 1.0790(5) 0.5851(4) 0.094(4) Uani 1 1 d D U . . .
H10_1 H -0.0129 1.1006 0.5702 0.112 Uiso 1 1 calc R U . . .
C11_1 C -0.1070(5) 1.1078(5) 0.5795(4) 0.103(4) Uani 1 1 d D U . . .
C12_1 C -0.1626(5) 1.0778(5) 0.5949(4) 0.099(4) Uani 1 1 d D U . . .
C13_1 C -0.2163(5) 1.1146(5) 0.5898(4) 0.103(4) Uani 1 1 d D U . . .
C14_1 C -0.2152(7) 1.1760(5) 0.5713(5) 0.131(5) Uani 1 1 d D U . . .
H14_1 H -0.2522 1.1994 0.5698 0.157 Uiso 1 1 calc R U . . .
C15_1 C -0.1600(6) 1.2023(5) 0.5552(5) 0.146(5) Uani 1 1 d D U . . .
C16_1 C -0.1062(7) 1.1693(5) 0.5608(5) 0.130(5) Uani 1 1 d D U . . .
H16_1 H -0.0683 1.1885 0.5518 0.156 Uiso 1 1 calc R U . . .
C17_1 C -0.2754(6) 1.0891(5) 0.6020(5) 0.102(4) Uani 1 1 d D U . . .
H17_1 H -0.3098 1.1147 0.5955 0.122 Uiso 1 1 calc R U . . .
N18_1 N -0.2852(5) 1.0350(5) 0.6207(4) 0.095(4) Uani 1 1 d D U . . .
O19_1 O -0.3489(5) 1.0285(4) 0.6275(3) 0.096(3) Uani 1 1 d D U . . .
B20_1 B -0.3629(5) 0.9667(7) 0.6466(5) 0.083(3) Uani 1 1 d D U . . .
O21_1 O 0.0104(4) 0.9790(4) 0.6856(3) 0.093(3) Uani 1 1 d D U . . .
N22_1 N -0.0509(5) 0.9726(5) 0.6955(4) 0.085(3) Uani 1 1 d D U . . .
C23_1 C -0.0688(6) 0.9639(6) 0.7363(4) 0.089(4) Uani 1 1 d D U . . .
H23_1 H -0.0389 0.9632 0.7546 0.107 Uiso 1 1 calc R U . . .
C24_1 C -0.1307(5) 0.9551(5) 0.7569(4) 0.084(3) Uani 1 1 d D U . . .
C25_1 C -0.1818(5) 0.9592(5) 0.7339(4) 0.085(3) Uani 1 1 d D U . . .
C26_1 C -0.2407(5) 0.9489(5) 0.7586(4) 0.080(3) Uani 1 1 d D U . . .
C27_1 C -0.2489(6) 0.9350(6) 0.8038(4) 0.095(4) Uani 1 1 d D U . . .
H27_1 H -0.2886 0.9281 0.8200 0.114 Uiso 1 1 calc R U . . .
C28_1 C -0.1987(6) 0.9312(6) 0.8253(4) 0.112(4) Uani 1 1 d D U . . .
C29_1 C -0.1396(6) 0.9405(6) 0.8025(4) 0.101(4) Uani 1 1 d D U . . .
H29_1 H -0.1059 0.9370 0.8179 0.121 Uiso 1 1 calc R U . . .
C30_1 C -0.2965(6) 0.9498(5) 0.7408(4) 0.080(3) Uani 1 1 d D U . . .
H30_1 H -0.3343 0.9455 0.7600 0.095 Uiso 1 1 calc R U . . .
N31_1 N -0.2961(5) 0.9563(5) 0.7002(4) 0.080(3) Uani 1 1 d D U . . .
O32_1 O -0.3558(4) 0.9501(4) 0.6936(3) 0.088(3) Uani 1 1 d D U . . .
O33_1 O 0.0258(4) 0.9057(4) 0.6395(3) 0.094(3) Uani 1 1 d D U . . .
N34_1 N -0.0335(5) 0.8991(5) 0.6317(4) 0.088(3) Uani 1 1 d D U . . .
C35_1 C -0.0365(6) 0.8491(5) 0.6200(4) 0.094(4) Uani 1 1 d D U . . .
H35_1 H -0.0002 0.8246 0.6180 0.113 Uiso 1 1 calc R U . . .
C36_1 C -0.0907(5) 0.8266(5) 0.6094(4) 0.082(3) Uani 1 1 d D U . . .
C37_1 C -0.1485(5) 0.8584(5) 0.6156(4) 0.081(3) Uani 1 1 d D U . . .
C38_1 C -0.1971(5) 0.8318(4) 0.6022(3) 0.076(3) Uani 1 1 d D U . . .
C39_1 C -0.1884(6) 0.7790(5) 0.5851(4) 0.086(4) Uani 1 1 d D U . . .
H39_1 H -0.2225 0.7630 0.5776 0.104 Uiso 1 1 calc R U . . .
C40_1 C -0.1315(5) 0.7495(5) 0.5789(4) 0.096(3) Uani 1 1 d D U . . .
C41_1 C -0.0847(6) 0.7750(5) 0.5921(4) 0.087(4) Uani 1 1 d D U . . .
H41_1 H -0.0454 0.7556 0.5891 0.104 Uiso 1 1 calc R U . . .
C42_1 C -0.2588(6) 0.8603(5) 0.6067(4) 0.088(4) Uani 1 1 d D U . . .
H42_1 H -0.2893 0.8427 0.5963 0.106 Uiso 1 1 calc R U . . .
N43_1 N -0.2755(5) 0.9065(5) 0.6232(4) 0.086(3) Uani 1 1 d D U . . .
O44_1 O -0.3360(4) 0.9213(4) 0.6227(3) 0.089(3) Uani 1 1 d D U . . .
C45_1 C -0.4347(5) 0.9639(5) 0.6481(4) 0.094(3) Uani 1 1 d D U . . .
C46_1 C -0.4584(6) 0.9374(6) 0.6185(5) 0.105(4) Uani 1 1 d D U . . .
H46_1 H -0.4314 0.9209 0.5973 0.126 Uiso 1 1 calc R U . . .
C47_1 C -0.5212(6) 0.9354(6) 0.6204(5) 0.104(4) Uani 1 1 d D U . . .
H47_1 H -0.5363 0.9176 0.6001 0.125 Uiso 1 1 calc R U . . .
N48_1 N -0.5606(5) 0.9575(5) 0.6495(4) 0.083(3) Uani 1 1 d D U . . .
C49_1 C -0.5408(6) 0.9800(6) 0.6795(5) 0.109(4) Uani 1 1 d D U . . .
H49_1 H -0.5692 0.9933 0.7016 0.131 Uiso 1 1 calc R U . . .
C50_1 C -0.4788(6) 0.9841(6) 0.6789(5) 0.113(4) Uani 1 1 d D U . . .
H50_1 H -0.4658 1.0014 0.7003 0.136 Uiso 1 1 calc R U . . .
O12A_1 O -0.1621(4) 1.0216(4) 0.6133(4) 0.093(3) Uani 1 1 d D U . . .
C15A_1 C -0.1569(9) 1.2686(6) 0.5326(7) 0.178(6) Uani 1 1 d D U . . .
C15B_1 C -0.0989(10) 1.2786(9) 0.4992(8) 0.232(9) Uani 1 1 d D U . . .
H15A_1 H -0.0970 1.3212 0.4847 0.347 Uiso 1 1 calc R U . . .
H15B_1 H -0.0990 1.2541 0.4774 0.347 Uiso 1 1 calc R U . . .
H15C_1 H -0.0632 1.2669 0.5141 0.347 Uiso 1 1 calc R U . . .
C15C_1 C -0.1644(12) 1.3046(9) 0.5672(7) 0.225(8) Uani 1 1 d D U . . .
H15D_1 H -0.1630 1.3475 0.5535 0.338 Uiso 1 1 calc R U . . .
H15E_1 H -0.1314 1.2935 0.5847 0.338 Uiso 1 1 calc R U . . .
H15F_1 H -0.2038 1.2964 0.5860 0.338 Uiso 1 1 calc R U . . .
C15D_1 C -0.2088(10) 1.2850(9) 0.5061(8) 0.211(8) Uani 1 1 d D U . . .
H15G_1 H -0.2072 1.3277 0.4917 0.316 Uiso 1 1 calc R U . . .
H15H_1 H -0.2478 1.2776 0.5256 0.316 Uiso 1 1 calc R U . . .
H15I_1 H -0.2048 1.2604 0.4840 0.316 Uiso 1 1 calc R U . . .
O25A_1 O -0.1742(4) 0.9741(5) 0.6929(3) 0.089(3) Uani 1 1 d D U . . .
C28A_1 C -0.2070(8) 0.9162(8) 0.8755(4) 0.139(5) Uani 1 1 d D U . . .
C28B_1 C -0.1500(9) 0.8931(11) 0.8923(6) 0.178(7) Uani 1 1 d D U . . .
H28A_1 H -0.1577 0.8837 0.9243 0.267 Uiso 1 1 calc R U . . .
H28B_1 H -0.1190 0.9237 0.8820 0.267 Uiso 1 1 calc R U . . .
H28C_1 H -0.1353 0.8566 0.8817 0.267 Uiso 1 1 calc R U . . .
C28C_1 C -0.2230(11) 0.9774(9) 0.8923(6) 0.191(7) Uani 1 1 d D U . . .
H28D_1 H -0.2285 0.9688 0.9243 0.286 Uiso 1 1 calc R U . . .
H28E_1 H -0.2608 0.9959 0.8824 0.286 Uiso 1 1 calc R U . . .
H28F_1 H -0.1897 1.0051 0.8805 0.286 Uiso 1 1 calc R U . . .
C28D_1 C -0.2552(9) 0.8725(9) 0.8922(6) 0.168(7) Uani 1 1 d D U . . .
H28G_1 H -0.2605 0.8623 0.9242 0.251 Uiso 1 1 calc R U . . .
H28H_1 H -0.2438 0.8360 0.8807 0.251 Uiso 1 1 calc R U . . .
H28I_1 H -0.2936 0.8900 0.8828 0.251 Uiso 1 1 calc R U . . .
O37A_1 O -0.1554(5) 0.9071(4) 0.6331(3) 0.088(3) Uani 1 1 d D U . . .
C40A_1 C -0.1215(7) 0.6918(6) 0.5607(6) 0.128(4) Uani 1 1 d D U . . .
C40B_1 C -0.0704(9) 0.6968(9) 0.5229(6) 0.169(6) Uani 1 1 d D U . . .
H40A_1 H -0.0655 0.6592 0.5124 0.253 Uiso 1 1 calc R U . . .
H40B_1 H -0.0324 0.7045 0.5323 0.253 Uiso 1 1 calc R U . . .
H40C_1 H -0.0798 0.7301 0.4993 0.253 Uiso 1 1 calc R U . . .
C40C_1 C -0.0966(9) 0.6405(7) 0.5938(6) 0.159(6) Uani 1 1 d D U . . .
H40D_1 H -0.0905 0.6040 0.5819 0.239 Uiso 1 1 calc R U . . .
H40E_1 H -0.1257 0.6331 0.6210 0.239 Uiso 1 1 calc R U . . .
H40F_1 H -0.0575 0.6516 0.5997 0.239 Uiso 1 1 calc R U . . .
C40D_1 C -0.1787(8) 0.6724(9) 0.5496(8) 0.168(7) Uani 1 1 d D U . . .
H40G_1 H -0.1700 0.6355 0.5383 0.253 Uiso 1 1 calc R U . . .
H40H_1 H -0.1939 0.7042 0.5273 0.253 Uiso 1 1 calc R U . . .
H40I_1 H -0.2096 0.6649 0.5758 0.253 Uiso 1 1 calc R U . . .
Zn3_2 Zn 0.35264(8) 0.52359(7) 0.64247(6) 0.0790(6) Uani 1 1 d . . . . .
Zn4_2 Zn 0.35533(8) 0.39359(7) 0.64078(6) 0.0767(5) Uani 1 1 d . . . . .
C1_2 C 0.3490(6) 0.7312(4) 0.6436(4) 0.098(3) Uani 1 1 d D U . . .
C2_2 C 0.3101(6) 0.7719(5) 0.6202(5) 0.106(4) Uani 1 1 d D U . . .
H2_2 H 0.2845 0.7585 0.6033 0.127 Uiso 1 1 calc R U . . .
C3_2 C 0.3095(6) 0.8320(5) 0.6222(5) 0.103(4) Uani 1 1 d D U . . .
H3_2 H 0.2823 0.8585 0.6063 0.123 Uiso 1 1 calc R U . . .
N4_2 N 0.3433(5) 0.8561(5) 0.6443(4) 0.093(4) Uani 1 1 d D U . . .
C5_2 C 0.3804(6) 0.8184(5) 0.6663(4) 0.094(4) Uani 1 1 d D U . . .
H5_2 H 0.4063 0.8338 0.6820 0.113 Uiso 1 1 calc R U . . .
C6_2 C 0.3831(6) 0.7567(5) 0.6676(5) 0.101(4) Uani 1 1 d D U . . .
H6_2 H 0.4090 0.7312 0.6853 0.122 Uiso 1 1 calc R U . . .
B7_2 B 0.3520(8) 0.6616(5) 0.6416(6) 0.094(3) Uani 1 1 d D U . . .
O8_2 O 0.2929(5) 0.6481(4) 0.6315(3) 0.094(3) Uani 1 1 d D U . . .
N9_2 N 0.2851(5) 0.5875(5) 0.6278(4) 0.087(3) Uani 1 1 d D U . . .
C10_2 C 0.2363(6) 0.5865(5) 0.6120(4) 0.083(4) Uani 1 1 d D U . . .
H10_2 H 0.2126 0.6228 0.6061 0.099 Uiso 1 1 calc R U . . .
C11_2 C 0.2150(5) 0.5319(5) 0.6026(4) 0.083(3) Uani 1 1 d D U . . .
C12_2 C 0.2458(6) 0.4738(5) 0.6113(4) 0.082(3) Uani 1 1 d D U . . .
C13_2 C 0.2213(5) 0.4250(5) 0.5984(4) 0.087(3) Uani 1 1 d D U . . .
C14_2 C 0.1696(5) 0.4346(5) 0.5776(4) 0.093(4) Uani 1 1 d D U . . .
H14_2 H 0.1539 0.4022 0.5690 0.111 Uiso 1 1 calc R U . . .
C15_2 C 0.1412(5) 0.4914(5) 0.5696(4) 0.099(4) Uani 1 1 d D U . . .
C16_2 C 0.1641(6) 0.5393(5) 0.5813(4) 0.086(4) Uani 1 1 d D U . . .
H16_2 H 0.1447 0.5780 0.5747 0.103 Uiso 1 1 calc R U . . .
C17_2 C 0.2459(6) 0.3634(5) 0.6044(4) 0.095(4) Uani 1 1 d D U . . .
H17_2 H 0.2243 0.3346 0.5959 0.114 Uiso 1 1 calc R U . . .
N18_2 N 0.2946(6) 0.3459(5) 0.6203(4) 0.095(4) Uani 1 1 d D U . . .
O19_2 O 0.3011(5) 0.2848(4) 0.6228(4) 0.113(3) Uani 1 1 d D U . . .
B20_2 B 0.3553(8) 0.2572(5) 0.6395(5) 0.092(3) Uani 1 1 d D U . . .
O21_2 O 0.3609(5) 0.6295(4) 0.6864(3) 0.095(3) Uani 1 1 d D U . . .
N22_2 N 0.3550(6) 0.5691(5) 0.6942(4) 0.087(3) Uani 1 1 d D U . . .
C23_2 C 0.3507(6) 0.5482(5) 0.7352(4) 0.086(4) Uani 1 1 d D U . . .
H23_2 H 0.3485 0.5749 0.7546 0.104 Uiso 1 1 calc R U . . .
C24_2 C 0.3490(5) 0.4839(5) 0.7523(4) 0.075(3) Uani 1 1 d D U . . .
C25_2 C 0.3553(5) 0.4374(5) 0.7280(4) 0.070(3) Uani 1 1 d D U . . .
C26_2 C 0.3524(5) 0.3769(4) 0.7509(4) 0.075(3) Uani 1 1 d D U . . .
C27_2 C 0.3423(6) 0.3661(6) 0.7963(4) 0.093(4) Uani 1 1 d D U . . .
H27_2 H 0.3390 0.3257 0.8121 0.112 Uiso 1 1 calc R U . . .
C28_2 C 0.3368(6) 0.4116(5) 0.8199(4) 0.103(4) Uani 1 1 d D U . . .
C29_2 C 0.3386(6) 0.4713(5) 0.7979(4) 0.086(4) Uani 1 1 d D U . . .
H29_2 H 0.3329 0.5028 0.8135 0.103 Uiso 1 1 calc R U . . .
C30_2 C 0.3547(6) 0.3243(5) 0.731