####################################################################### 
# 
# This file contains crystal structure data downloaded from the 
# Cambridge Structural Database (CSD) hosted by the Cambridge 
# Crystallographic Data Centre (CCDC).
# 
# Full information about CCDC data access policies and citation 
# guidelines are available at http://www.ccdc.cam.ac.uk/access/V1 
# 
# Audit and citation data items may have been added by the CCDC. 
# Please retain this information to preserve the provenance of 
# this file and to allow appropriate attribution of the data. 
# 
#######################################################################

data_shelxl
_audit_block_doi                 10.5517/cc10p641
_database_code_depnum_ccdc_archive 'CCDC 943892'
loop_
_citation_id
_citation_doi
_citation_year
1 10.1002/chem.201303434 2014
_audit_update_record             
;
2013-06-11 deposited with the CCDC.	2024-07-14 downloaded from the CCDC.
;

_audit_creation_method           SHELXL-97
_chemical_name_systematic        
; 
 ? 
;
_chemical_name_common            ?
_chemical_melting_point          ?
_chemical_formula_moiety         ?
_chemical_formula_sum            'C56 H68 N4 Ni2 O30 Zn2'
_chemical_formula_weight         1525.30

loop_
_atom_type_symbol
_atom_type_description
_atom_type_scat_dispersion_real
_atom_type_scat_dispersion_imag
_atom_type_scat_source
C C 0.0033 0.0016 'International Tables Vol C Tables 4.2.6.8 and 6.1.1.4'
H H 0.0000 0.0000 'International Tables Vol C Tables 4.2.6.8 and 6.1.1.4'
O O 0.0106 0.0060 'International Tables Vol C Tables 4.2.6.8 and 6.1.1.4'
N N 0.0061 0.0033 'International Tables Vol C Tables 4.2.6.8 and 6.1.1.4'
Ni Ni 0.3393 1.1124 'International Tables Vol C Tables 4.2.6.8 and 6.1.1.4'
Zn Zn 0.2839 1.4301 'International Tables Vol C Tables 4.2.6.8 and 6.1.1.4'

_symmetry_cell_setting           tetragonal
_symmetry_space_group_name_H-M   I-4

loop_
_symmetry_equiv_pos_as_xyz
'x, y, z'
'y, -x, -z'
'-x, -y, z'
'-y, x, -z'
'x+1/2, y+1/2, z+1/2'
'y+1/2, -x+1/2, -z+1/2'
'-x+1/2, -y+1/2, z+1/2'
'-y+1/2, x+1/2, -z+1/2'

_cell_length_a                   25.314(4)
_cell_length_b                   25.314(4)
_cell_length_c                   33.458(5)
_cell_angle_alpha                90.00
_cell_angle_beta                 90.00
_cell_angle_gamma                90.00
_cell_volume                     21440(6)
_cell_formula_units_Z            8
_cell_measurement_temperature    113(2)
_cell_measurement_reflns_used    ?
_cell_measurement_theta_min      ?
_cell_measurement_theta_max      ?

_exptl_crystal_description       prism
_exptl_crystal_colour            grass-green
_exptl_crystal_size_max          0.40
_exptl_crystal_size_mid          0.30
_exptl_crystal_size_min          0.20
_exptl_crystal_density_meas      ?
_exptl_crystal_density_diffrn    0.945
_exptl_crystal_density_method    'not measured'
_exptl_crystal_F_000             5344.0
_exptl_absorpt_coefficient_mu    0.843
_exptl_absorpt_correction_type   Multi-scan
_exptl_absorpt_correction_T_min  0.746
_exptl_absorpt_correction_T_max  0.845
_exptl_absorpt_process_details   ?

_exptl_special_details           
; 
 ? 
;

_diffrn_ambient_temperature      113(2)
_diffrn_radiation_wavelength     0.71075
_diffrn_radiation_type           MoK\a
_diffrn_radiation_source         'fine-focus sealed tube'
_diffrn_radiation_monochromator  graphite
_diffrn_measurement_device_type  ?
_diffrn_measurement_method       ?
_diffrn_detector_area_resol_mean ?
_diffrn_standards_number         ?
_diffrn_standards_interval_count ?
_diffrn_standards_interval_time  ?
_diffrn_standards_decay_%        ?
_diffrn_reflns_number            110798
_diffrn_reflns_av_R_equivalents  0.0503
_diffrn_reflns_av_sigmaI/netI    0.0474
_diffrn_reflns_limit_h_min       -33
_diffrn_reflns_limit_h_max       33
_diffrn_reflns_limit_k_min       -30
_diffrn_reflns_limit_k_max       33
_diffrn_reflns_limit_l_min       -42
_diffrn_reflns_limit_l_max       43
_diffrn_reflns_theta_min         1.14
_diffrn_reflns_theta_max         27.87
_reflns_number_total             25415
_reflns_number_gt                24305
_reflns_threshold_expression     >2sigma(I)

_computing_data_collection       ?
_computing_cell_refinement       ?
_computing_data_reduction        ?
_computing_structure_solution    'SHELXS-97 (Sheldrick, 1990)'
_computing_structure_refinement  'SHELXL-97 (Sheldrick, 1997)'
_computing_molecular_graphics    ?
_computing_publication_material  ?

_refine_special_details          
; 
 Refinement of F^2^ against ALL reflections.  The weighted R-factor wR and 
 goodness of fit S are based on F^2^, conventional R-factors R are based 
 on F, with F set to zero for negative F^2^. The threshold expression of 
 F^2^ > 2sigma(F^2^) is used only for calculating R-factors(gt) etc. and is 
 not relevant to the choice of reflections for refinement.  R-factors based 
 on F^2^ are statistically about twice as large as those based on F, and R- 
 factors based on ALL data will be even larger. 
;

_refine_ls_structure_factor_coef Fsqd
_refine_ls_matrix_type           full
_refine_ls_weighting_scheme      calc
_refine_ls_weighting_details     
'calc w=1/[\s^2^(Fo^2^)+(0.1435P)^2^+0.0000P] where P=(Fo^2^+2Fc^2^)/3'
_atom_sites_solution_primary     direct
_atom_sites_solution_secondary   difmap
_atom_sites_solution_hydrogens   geom
_refine_ls_hydrogen_treatment    mixed
_refine_ls_extinction_method     SHELXL
_refine_ls_extinction_coef       ?
_refine_ls_abs_structure_details 'Flack H D (1983), Acta Cryst. A39, 876-881'
_refine_ls_abs_structure_Flack   0.183(16)
_refine_ls_number_reflns         25415
_refine_ls_number_parameters     736
_refine_ls_number_restraints     6
_refine_ls_R_factor_all          0.0763
_refine_ls_R_factor_gt           0.0744
_refine_ls_wR_factor_ref         0.2083
_refine_ls_wR_factor_gt          0.2058
_refine_ls_goodness_of_fit_ref   1.112
_refine_ls_restrained_S_all      1.112
_refine_ls_shift/su_max          0.016
_refine_ls_shift/su_mean         0.000

loop_
_atom_site_label
_atom_site_type_symbol
_atom_site_fract_x
_atom_site_fract_y
_atom_site_fract_z
_atom_site_U_iso_or_equiv
_atom_site_adp_type
_atom_site_occupancy
_atom_site_symmetry_multiplicity
_atom_site_calc_flag
_atom_site_refinement_flags
_atom_site_disorder_assembly
_atom_site_disorder_group
Ni1 Ni 0.23338(3) 0.86060(3) 0.347704(19) 0.03527(13) Uani 1 1 d . . .
Zn2 Zn 0.26978(2) 0.76111(2) 0.288258(18) 0.03543(12) Uani 1 1 d . . .
Zn3 Zn 0.23643(2) 0.76983(2) 0.462066(17) 0.03517(12) Uani 1 1 d . . .
Ni4 Ni 0.76909(4) 0.65403(3) 0.46488(2) 0.0513(2) Uani 1 1 d . . .
O1 O 0.20110(17) 0.8294(2) 0.39897(13) 0.0489(10) Uani 1 1 d . . .
O2 O 0.17486(16) 0.75496(18) 0.42634(14) 0.0469(9) Uani 1 1 d . . .
O3 O 0.21055(15) 0.78520(16) 0.32289(12) 0.0386(8) Uani 1 1 d . . .
O4 O 0.15893(19) 0.7762(3) 0.26954(15) 0.0679(16) Uani 1 1 d . . .
O5 O -0.1888(3) 0.7552(3) 0.2308(2) 0.0807(19) Uani 1 1 d . . .
O6 O -0.2083(3) 0.8322(5) 0.2565(2) 0.109(3) Uani 1 1 d . . .
O7 O -0.19969(17) 0.7286(2) 0.45780(15) 0.0539(10) Uani 1 1 d . . .
O8 O -0.1667(2) 0.7768(2) 0.50727(15) 0.0550(11) Uani 1 1 d . . .
O9 O 0.32256(18) 0.7554(2) 0.33106(15) 0.0530(11) Uani 1 1 d . . .
O10 O 0.30672(16) 0.83254(18) 0.36173(13) 0.0443(9) Uani 1 1 d . . .
O11 O 0.30274(16) 0.76899(19) 0.43306(13) 0.0437(8) Uani 1 1 d . . .
O12 O 0.35312(18) 0.80484(18) 0.48022(13) 0.0454(9) Uani 1 1 d . . .
O13 O 0.70309(17) 0.7707(2) 0.50831(14) 0.0502(10) Uani 1 1 d . . .
O14 O 0.70074(19) 0.6880(2) 0.48734(19) 0.0622(13) Uani 1 1 d . . .
O15 O 0.67932(18) 0.7851(2) 0.24648(15) 0.0528(11) Uani 1 1 d . . .
O16 O 0.61323(19) 0.7547(3) 0.20693(14) 0.0626(14) Uani 1 1 d . . .
C1 C 0.1204(2) 0.7875(3) 0.37483(18) 0.0434(12) Uani 1 1 d . . .
C2 C 0.1178(2) 0.7849(3) 0.33307(19) 0.0449(12) Uani 1 1 d . . .
C3 C 0.0692(2) 0.7856(3) 0.31429(19) 0.0512(15) Uani 1 1 d . . .
H3 H 0.0679 0.7848 0.2859 0.061 Uiso 1 1 calc R . .
C4 C 0.0217(2) 0.7875(3) 0.3359(2) 0.0526(15) Uani 1 1 d . . .
C5 C 0.0240(2) 0.7864(3) 0.3780(2) 0.0477(13) Uani 1 1 d . . .
C6 C 0.0730(2) 0.7881(3) 0.3961(2) 0.0480(13) Uani 1 1 d . . .
H6 H 0.0745 0.7897 0.4244 0.058 Uiso 1 1 calc R . .
C7 C 0.1691(2) 0.7903(3) 0.40016(18) 0.0428(12) Uani 1 1 d . . .
C8 C 0.1645(3) 0.7820(3) 0.3059(2) 0.0509(14) Uani 1 1 d . . .
C9 C -0.0293(2) 0.7893(3) 0.3126(2) 0.0524(15) Uani 1 1 d . . .
C10 C -0.0390(3) 0.7524(4) 0.2834(2) 0.0626(18) Uani 1 1 d . . .
H10 H -0.0136 0.7262 0.2767 0.075 Uiso 1 1 calc R . .
C11 C -0.0885(3) 0.7550(4) 0.2638(3) 0.069(2) Uani 1 1 d . . .
H11 H -0.0970 0.7294 0.2440 0.083 Uiso 1 1 calc R . .
C12 C -0.1245(3) 0.7936(3) 0.2728(2) 0.0601(17) Uani 1 1 d . . .
C13 C -0.1152(3) 0.8302(4) 0.3007(3) 0.069(2) Uani 1 1 d . . .
H13 H -0.1407 0.8568 0.3061 0.083 Uiso 1 1 calc R . .
C14 C -0.0657(3) 0.8291(4) 0.3227(3) 0.0621(18) Uani 1 1 d . . .
H14 H -0.0583 0.8542 0.3431 0.075 Uiso 1 1 calc R . .
C15 C -0.1789(3) 0.7941(4) 0.2518(2) 0.064(2) Uani 1 1 d . . .
C16 C -0.0244(2) 0.7806(3) 0.4022(2) 0.0564(17) Uani 1 1 d . . .
C17 C -0.0601(2) 0.7393(3) 0.3931(2) 0.0552(15) Uani 1 1 d . . .
H17 H -0.0536 0.7169 0.3709 0.066 Uiso 1 1 calc R . .
C18 C -0.1044(2) 0.7319(4) 0.4164(2) 0.0590(16) Uani 1 1 d . . .
H18 H -0.1284 0.7041 0.4105 0.071 Uiso 1 1 calc R . .
C19 C -0.1138(2) 0.7651(3) 0.4487(2) 0.0526(14) Uani 1 1 d . . .
C20 C -0.0781(3) 0.8033(4) 0.4591(3) 0.068(2) Uani 1 1 d . . .
H20 H -0.0837 0.8240 0.4824 0.081 Uiso 1 1 calc R . .
C21 C -0.0331(3) 0.8120(4) 0.4351(3) 0.0619(18) Uani 1 1 d . . .
H21 H -0.0089 0.8394 0.4416 0.074 Uiso 1 1 calc R . .
C22 C -0.1638(3) 0.7555(3) 0.4732(2) 0.0539(16) Uani 1 1 d . . .
C23 C 0.3834(2) 0.7845(3) 0.37666(17) 0.0429(12) Uani 1 1 d . . .
C24 C 0.3914(2) 0.7856(3) 0.41755(17) 0.0429(12) Uani 1 1 d . . .
C25 C 0.4426(2) 0.7821(3) 0.43291(19) 0.0495(14) Uani 1 1 d . . .
H25 H 0.4479 0.7840 0.4610 0.059 Uiso 1 1 calc R . .
C26 C 0.4855(2) 0.7760(3) 0.4079(2) 0.0534(16) Uani 1 1 d . . .
C27 C 0.4791(2) 0.7752(3) 0.3666(2) 0.0558(16) Uani 1 1 d . . .
C28 C 0.4281(3) 0.7791(4) 0.3512(2) 0.0581(18) Uani 1 1 d . . .
H28 H 0.4231 0.7781 0.3231 0.070 Uiso 1 1 calc R . .
C29 C 0.3325(2) 0.7904(2) 0.35557(16) 0.0375(10) Uani 1 1 d . . .
C30 C 0.3454(2) 0.7864(2) 0.44515(17) 0.0362(10) Uani 1 1 d . . .
C31 C 0.5383(2) 0.7650(4) 0.42750(18) 0.0550(16) Uani 1 1 d . . .
C32 C 0.5667(3) 0.7212(4) 0.4188(2) 0.0608(18) Uani 1 1 d . . .
H32 H 0.5543 0.6971 0.3992 0.073 Uiso 1 1 calc R . .
C33 C 0.6138(3) 0.7116(3) 0.4385(2) 0.0574(16) Uani 1 1 d . . .
H33 H 0.6334 0.6807 0.4322 0.069 Uiso 1 1 calc R . .
C34 C 0.6330(3) 0.7462(3) 0.4673(2) 0.0504(14) Uani 1 1 d . . .
C35 C 0.6052(3) 0.7920(4) 0.4757(2) 0.065(2) Uani 1 1 d . . .
H35 H 0.6184 0.8166 0.4947 0.078 Uiso 1 1 calc R . .
C36 C 0.5575(3) 0.8015(4) 0.4558(2) 0.065(2) Uani 1 1 d . . .
H36 H 0.5379 0.8327 0.4614 0.078 Uiso 1 1 calc R . .
C37 C 0.6832(2) 0.7340(3) 0.4887(2) 0.0512(13) Uani 1 1 d . . .
C38 C 0.5221(2) 0.7711(4) 0.33661(19) 0.0542(16) Uani 1 1 d . . .
C39 C 0.5130(3) 0.7391(4) 0.3034(2) 0.066(2) Uani 1 1 d . . .
H39 H 0.4819 0.7181 0.3020 0.080 Uiso 1 1 calc R . .
C40 C 0.5499(3) 0.7379(4) 0.2720(2) 0.0589(17) Uani 1 1 d . . .
H40 H 0.5443 0.7157 0.2495 0.071 Uiso 1 1 calc R . .
C41 C 0.5944(2) 0.7694(3) 0.2742(2) 0.0534(15) Uani 1 1 d . . .
C42 C 0.6037(3) 0.8009(3) 0.3077(2) 0.0582(16) Uani 1 1 d . . .
H42 H 0.6347 0.8221 0.3091 0.070 Uiso 1 1 calc R . .
C43 C 0.5676(3) 0.8015(3) 0.3389(2) 0.0576(17) Uani 1 1 d . . .
H43 H 0.5740 0.8226 0.3619 0.069 Uiso 1 1 calc R . .
C44 C 0.6322(3) 0.7708(3) 0.2395(2) 0.0524(14) Uani 1 1 d . . .
N1 N 0.1053(4) 0.9638(4) 0.3317(6) 0.146(6) Uani 1 1 d D . .
O17 O 0.1590(2) 0.8967(2) 0.3354(2) 0.0674(14) Uani 1 1 d . . .
C45 C 0.1517(4) 0.9434(4) 0.3326(4) 0.079(3) Uani 1 1 d . . .
H45 H 0.1814 0.9662 0.3311 0.095 Uiso 1 1 calc R . .
C46 C 0.0565(6) 0.9341(6) 0.3391(7) 0.136(6) Uani 1 1 d D . .
H46A H 0.0555 0.9029 0.3218 0.204 Uiso 1 1 calc R . .
H46B H 0.0259 0.9566 0.3334 0.204 Uiso 1 1 calc R . .
H46C H 0.0553 0.9229 0.3671 0.204 Uiso 1 1 calc R . .
C47 C 0.0985(8) 1.0216(6) 0.3309(16) 0.33(3) Uani 1 1 d D . .
H47A H 0.0889 1.0353 0.3566 0.494 Uiso 1 1 d R . .
H47B H 0.1312 1.0373 0.3224 0.494 Uiso 1 1 d R . .
H47C H 0.0713 1.0298 0.3119 0.494 Uiso 1 1 d R . .
N2 N 0.2916(5) 0.9576(3) 0.4374(3) 0.088(3) Uani 1 1 d D . .
O18 O 0.2550(3) 0.9272(2) 0.38004(18) 0.0637(13) Uani 1 1 d . . .
C48 C 0.2762(4) 0.9198(4) 0.4136(3) 0.075(2) Uani 1 1 d . . .
H48 H 0.2813 0.8844 0.4221 0.090 Uiso 1 1 calc R . .
C49 C 0.2800(11) 1.0120(4) 0.4281(9) 0.206(12) Uani 1 1 d D . .
H49A H 0.2647 1.0153 0.4020 0.309 Uiso 1 1 d R . .
H49B H 0.2559 1.0258 0.4477 0.309 Uiso 1 1 d R . .
H49C H 0.3125 1.0314 0.4292 0.309 Uiso 1 1 d R . .
C50 C 0.3193(6) 0.9463(5) 0.4756(3) 0.100(4) Uani 1 1 d D . .
H50A H 0.3109 0.9740 0.4951 0.150 Uiso 1 1 calc R . .
H50B H 0.3575 0.9456 0.4710 0.150 Uiso 1 1 calc R . .
H50C H 0.3077 0.9120 0.4860 0.150 Uiso 1 1 calc R . .
N3 N 0.7308(6) 0.6967(6) 0.3478(3) 0.137(6) Uani 1 1 d D . .
O19 O 0.7348(4) 0.6598(3) 0.4073(2) 0.099(3) Uani 1 1 d . . .
C51 C 0.7476(5) 0.6895(5) 0.3834(3) 0.090(3) Uani 1 1 d . . .
H51 H 0.7753 0.7126 0.3913 0.108 Uiso 1 1 calc R . .
C52 C 0.6782(7) 0.6745(8) 0.3350(6) 0.139(6) Uani 1 1 d D . .
H52A H 0.6710 0.6419 0.3498 0.208 Uiso 1 1 calc R . .
H52B H 0.6791 0.6669 0.3062 0.208 Uiso 1 1 calc R . .
H52C H 0.6503 0.7004 0.3405 0.208 Uiso 1 1 calc R . .
C53 C 0.7472(9) 0.7373(8) 0.3217(5) 0.151(8) Uani 1 1 d D . .
H53A H 0.7419 0.7256 0.2947 0.226 Uiso 1 1 d R . .
H53B H 0.7266 0.7686 0.3263 0.226 Uiso 1 1 d R . .
H53C H 0.7839 0.7451 0.3258 0.226 Uiso 1 1 d R . .
O20 O 0.7315(4) 0.5803(2) 0.4715(2) 0.100(3) Uani 1 1 d . . .
H20A H 0.7043 0.5743 0.4862 0.150 Uiso 1 1 d R . .
H20B H 0.7410 0.5515 0.4599 0.150 Uiso 1 1 d R . .
O21 O 0.8339(4) 0.6173(3) 0.4417(2) 0.111(3) Uani 1 1 d . . .
H21A H 0.8522 0.5933 0.4536 0.166 Uiso 1 1 d R . .
H21B H 0.8473 0.6232 0.4184 0.166 Uiso 1 1 d R . .

loop_
_atom_site_aniso_label
_atom_site_aniso_U_11
_atom_site_aniso_U_22
_atom_site_aniso_U_33
_atom_site_aniso_U_23
_atom_site_aniso_U_13
_atom_site_aniso_U_12
Ni1 0.0399(3) 0.0389(3) 0.0270(3) -0.0009(2) -0.0008(3) 0.0027(3)
Zn2 0.0397(3) 0.0362(3) 0.0304(3) -0.0030(2) -0.0023(2) 0.0020(2)
Zn3 0.0372(3) 0.0393(3) 0.0290(3) 0.0038(2) -0.0002(2) 0.0007(2)
Ni4 0.0820(6) 0.0417(3) 0.0302(3) -0.0036(3) -0.0050(4) 0.0012(4)
O1 0.0401(19) 0.067(3) 0.039(2) -0.008(2) -0.0005(17) -0.0081(17)
O2 0.0403(19) 0.055(2) 0.045(2) 0.0019(19) -0.0062(17) -0.0014(16)
O3 0.0342(17) 0.0431(19) 0.0385(19) -0.0067(16) -0.0036(15) 0.0012(13)
O4 0.045(2) 0.124(5) 0.035(2) -0.017(3) -0.0021(18) -0.010(3)
O5 0.070(4) 0.094(5) 0.078(4) 0.029(4) -0.024(3) -0.010(3)
O6 0.050(3) 0.203(10) 0.072(4) 0.006(5) -0.023(3) 0.032(4)
O7 0.043(2) 0.067(3) 0.052(3) 0.005(2) 0.0068(18) -0.0034(19)
O8 0.054(2) 0.067(3) 0.044(2) 0.004(2) 0.0070(19) 0.001(2)
O9 0.047(2) 0.063(3) 0.048(2) -0.010(2) -0.0141(19) 0.0143(19)
O10 0.0383(18) 0.056(2) 0.038(2) -0.0081(18) -0.0062(16) 0.0022(16)
O11 0.0365(17) 0.058(2) 0.036(2) 0.0032(18) -0.0005(15) -0.0025(16)
O12 0.049(2) 0.055(2) 0.032(2) -0.0034(17) 0.0042(16) -0.0020(17)
O13 0.043(2) 0.067(3) 0.041(2) 0.000(2) -0.0073(17) -0.0014(19)
O14 0.045(2) 0.059(3) 0.083(4) 0.010(3) -0.015(2) -0.0050(19)
O15 0.045(2) 0.069(3) 0.045(2) -0.009(2) 0.0101(19) -0.0052(19)
O16 0.051(2) 0.101(4) 0.036(2) -0.006(2) 0.0103(19) -0.006(2)
C1 0.038(2) 0.060(3) 0.033(3) -0.003(2) -0.002(2) -0.006(2)
C2 0.044(3) 0.054(3) 0.037(3) -0.005(2) -0.008(2) 0.002(2)
C3 0.037(3) 0.085(4) 0.032(3) -0.009(3) -0.002(2) -0.006(3)
C4 0.033(3) 0.075(4) 0.049(4) 0.003(3) -0.009(2) 0.003(2)
C5 0.034(2) 0.069(4) 0.040(3) -0.002(3) -0.005(2) 0.001(2)
C6 0.036(3) 0.071(4) 0.037(3) -0.003(3) -0.001(2) -0.002(2)
C7 0.038(3) 0.059(3) 0.032(3) -0.002(2) -0.001(2) -0.001(2)
C8 0.049(3) 0.068(4) 0.036(3) -0.014(3) -0.011(2) 0.001(3)
C9 0.038(3) 0.072(4) 0.047(4) 0.001(3) -0.002(3) -0.005(3)
C10 0.057(4) 0.083(5) 0.048(4) -0.003(3) -0.016(3) 0.002(3)
C11 0.049(3) 0.093(6) 0.066(5) 0.001(4) -0.010(3) -0.007(3)
C12 0.051(4) 0.075(5) 0.055(4) 0.013(4) -0.008(3) 0.001(3)
C13 0.054(4) 0.082(5) 0.070(5) 0.017(4) -0.006(4) 0.004(3)
C14 0.044(3) 0.086(5) 0.057(4) 0.008(4) -0.007(3) 0.009(3)
C15 0.057(4) 0.084(5) 0.052(4) 0.019(4) -0.005(3) 0.011(3)
C16 0.034(3) 0.094(5) 0.041(3) 0.006(3) -0.004(2) -0.004(3)
C17 0.039(3) 0.080(5) 0.047(3) -0.002(3) 0.002(2) -0.007(3)
C18 0.037(3) 0.087(5) 0.053(4) 0.004(4) -0.002(3) -0.008(3)
C19 0.039(3) 0.073(4) 0.046(3) 0.005(3) 0.001(2) -0.010(3)
C20 0.066(4) 0.079(5) 0.058(5) -0.011(4) 0.015(4) -0.005(4)
C21 0.039(3) 0.088(5) 0.058(4) -0.010(4) 0.004(3) -0.003(3)
C22 0.049(3) 0.066(4) 0.047(4) 0.013(3) 0.006(3) 0.011(3)
C23 0.036(2) 0.063(3) 0.029(3) -0.004(2) 0.000(2) 0.006(2)
C24 0.036(2) 0.061(3) 0.032(3) 0.003(2) 0.000(2) 0.002(2)
C25 0.033(2) 0.080(4) 0.036(3) -0.004(3) -0.002(2) 0.001(2)
C26 0.035(2) 0.089(5) 0.036(3) 0.005(3) 0.002(2) 0.004(3)
C27 0.033(2) 0.087(5) 0.047(3) -0.011(3) 0.003(2) 0.003(3)
C28 0.042(3) 0.100(6) 0.032(3) -0.007(3) 0.002(2) 0.002(3)
C29 0.040(2) 0.048(3) 0.025(2) 0.005(2) -0.0028(19) -0.0009(19)
C30 0.032(2) 0.042(2) 0.034(3) -0.001(2) -0.0087(19) 0.0045(17)
C31 0.031(2) 0.100(5) 0.034(3) -0.004(3) -0.002(2) -0.001(3)
C32 0.044(3) 0.096(6) 0.042(3) -0.010(3) -0.006(3) 0.004(3)
C33 0.047(3) 0.081(5) 0.044(3) -0.011(3) -0.007(3) 0.010(3)
C34 0.046(3) 0.064(4) 0.041(3) -0.003(3) -0.006(3) -0.002(2)
C35 0.049(3) 0.093(6) 0.053(4) -0.014(4) -0.014(3) 0.012(3)
C36 0.048(3) 0.096(6) 0.051(4) -0.011(4) -0.008(3) 0.005(3)
C37 0.043(3) 0.059(3) 0.052(3) 0.005(3) -0.009(2) -0.004(3)
C38 0.033(2) 0.091(5) 0.038(3) -0.005(3) 0.000(2) 0.008(3)
C39 0.051(3) 0.104(6) 0.043(3) -0.006(4) 0.011(3) -0.016(4)
C40 0.049(3) 0.083(5) 0.044(3) -0.019(3) 0.008(3) -0.007(3)
C41 0.038(3) 0.084(5) 0.038(3) -0.009(3) 0.005(2) 0.007(3)
C42 0.042(3) 0.