####################################################################### 
# 
# This file contains crystal structure data downloaded from the 
# Cambridge Structural Database (CSD) hosted by the Cambridge 
# Crystallographic Data Centre (CCDC).
# 
# Full information about CCDC data access policies and citation 
# guidelines are available at http://www.ccdc.cam.ac.uk/access/V1 
# 
# Audit and citation data items may have been added by the CCDC. 
# Please retain this information to preserve the provenance of 
# this file and to allow appropriate attribution of the data. 
# 
#######################################################################

data_shelxl
_audit_block_doi                 10.5517/cczmqlw
_database_code_depnum_ccdc_archive 'CCDC 912689'
loop_
_citation_id
_citation_doi
_citation_year
1 10.1002/chem.201303434 2014
_audit_update_record             
;
2012-11-27 deposited with the CCDC.	2024-07-14 downloaded from the CCDC.
;
#TrackingRef 'shelxl.cif'


_audit_creation_method           SHELXL-97
_chemical_name_systematic        
;
?
;
_chemical_name_common            ?
_chemical_melting_point          ?
_chemical_formula_moiety         ?
_chemical_formula_sum            'C56 H68 N4 O30 Zn4'
_chemical_formula_weight         1538.62

loop_
_atom_type_symbol
_atom_type_description
_atom_type_scat_dispersion_real
_atom_type_scat_dispersion_imag
_atom_type_scat_source
C C 0.0033 0.0016 'International Tables Vol C Tables 4.2.6.8 and 6.1.1.4'
H H 0.0000 0.0000 'International Tables Vol C Tables 4.2.6.8 and 6.1.1.4'
O O 0.0106 0.0060 'International Tables Vol C Tables 4.2.6.8 and 6.1.1.4'
N N 0.0061 0.0033 'International Tables Vol C Tables 4.2.6.8 and 6.1.1.4'
Zn Zn 0.2839 1.4301 'International Tables Vol C Tables 4.2.6.8 and 6.1.1.4'

_symmetry_cell_setting           tetragonal
_symmetry_space_group_name_H-M   I-4

loop_
_symmetry_equiv_pos_as_xyz
'x, y, z'
'-x, -y, z'
'y, -x, -z'
'-y, x, -z'
'x+1/2, y+1/2, z+1/2'
'-x+1/2, -y+1/2, z+1/2'
'y+1/2, -x+1/2, -z+1/2'
'-y+1/2, x+1/2, -z+1/2'

_cell_length_a                   25.356(4)
_cell_length_b                   25.356(4)
_cell_length_c                   33.358(7)
_cell_angle_alpha                90.00
_cell_angle_beta                 90.00
_cell_angle_gamma                90.00
_cell_volume                     21447(6)
_cell_formula_units_Z            8
_cell_measurement_temperature    293(2)
_cell_measurement_reflns_used    ?
_cell_measurement_theta_min      ?
_cell_measurement_theta_max      ?

_exptl_crystal_description       prism
_exptl_crystal_colour            Colorless
_exptl_crystal_size_max          0.40
_exptl_crystal_size_mid          0.30
_exptl_crystal_size_min          0.20
_exptl_crystal_density_meas      ?
_exptl_crystal_density_diffrn    0.953
_exptl_crystal_density_method    'not measured'
_exptl_crystal_F_000             6336
_exptl_absorpt_coefficient_mu    0.939
_exptl_absorpt_correction_type   Multi-scan
_exptl_absorpt_correction_T_min  0.7051
_exptl_absorpt_correction_T_max  0.8344
_exptl_absorpt_process_details   'Jacobson, R. (1998) private communication'

_exptl_special_details           
;
?
;

_diffrn_ambient_temperature      293(2)
_diffrn_radiation_wavelength     0.71073
_diffrn_radiation_type           MoK\a
_diffrn_radiation_source         'fine-focus sealed tube'
_diffrn_radiation_monochromator  graphite
_diffrn_measurement_device_type  'Bruker SMART APEX CCD'
_diffrn_measurement_method       '\w scan'
_diffrn_detector_area_resol_mean ?
_diffrn_standards_number         ?
_diffrn_standards_interval_count ?
_diffrn_standards_interval_time  ?
_diffrn_standards_decay_%        ?
_diffrn_reflns_number            99078
_diffrn_reflns_av_R_equivalents  0.0488
_diffrn_reflns_av_sigmaI/netI    0.0497
_diffrn_reflns_limit_h_min       -33
_diffrn_reflns_limit_h_max       33
_diffrn_reflns_limit_k_min       -23
_diffrn_reflns_limit_k_max       33
_diffrn_reflns_limit_l_min       -43
_diffrn_reflns_limit_l_max       43
_diffrn_reflns_theta_min         1.67
_diffrn_reflns_theta_max         27.88
_reflns_number_total             25543
_reflns_number_gt                24092
_reflns_threshold_expression     >2sigma(I)

_computing_data_collection       'Bruker XSCANS'
_computing_cell_refinement       'Bruker XSCANS'
_computing_data_reduction        'Bruker SHELXTL'
_computing_structure_solution    'SHELXS-97 (Sheldrick, 1990)'
_computing_structure_refinement  'SHELXL-97 (Sheldrick, 1997)'
_computing_molecular_graphics    'Bruker SHELXTL'
_computing_publication_material  'Bruker SHELXTL'

_refine_special_details          
;
Refinement of F^2^ against ALL reflections. The weighted R-factor wR and
goodness of fit S are based on F^2^, conventional R-factors R are based
on F, with F set to zero for negative F^2^. The threshold expression of
F^2^ > 2sigma(F^2^) is used only for calculating R-factors(gt) etc. and is
not relevant to the choice of reflections for refinement. R-factors based
on F^2^ are statistically about twice as large as those based on F, and R-
factors based on ALL data will be even larger.
;

_refine_ls_structure_factor_coef Fsqd
_refine_ls_matrix_type           full
_refine_ls_weighting_scheme      calc
_refine_ls_weighting_details     
'calc w=1/[\s^2^(Fo^2^)+(0.1389P)^2^+0.0000P] where P=(Fo^2^+2Fc^2^)/3'
_atom_sites_solution_primary     direct
_atom_sites_solution_secondary   difmap
_atom_sites_solution_hydrogens   geom
_refine_ls_hydrogen_treatment    mixed
_refine_ls_extinction_method     none
_refine_ls_extinction_coef       ?
_refine_ls_abs_structure_details 'Flack H D (1983), Acta Cryst. A39, 876-881'
_refine_ls_abs_structure_Flack   0.502(16)
_refine_ls_number_reflns         25543
_refine_ls_number_parameters     733
_refine_ls_number_restraints     0
_refine_ls_R_factor_all          0.0751
_refine_ls_R_factor_gt           0.0721
_refine_ls_wR_factor_ref         0.1989
_refine_ls_wR_factor_gt          0.1952
_refine_ls_goodness_of_fit_ref   1.098
_refine_ls_restrained_S_all      1.098
_refine_ls_shift/su_max          0.001
_refine_ls_shift/su_mean         0.000

loop_
_atom_site_label
_atom_site_type_symbol
_atom_site_fract_x
_atom_site_fract_y
_atom_site_fract_z
_atom_site_U_iso_or_equiv
_atom_site_adp_type
_atom_site_occupancy
_atom_site_symmetry_multiplicity
_atom_site_calc_flag
_atom_site_refinement_flags
_atom_site_disorder_assembly
_atom_site_disorder_group
Zn1 Zn 0.23289(3) 0.86186(3) 0.347769(19) 0.03301(13) Uani 1 1 d . . .
Zn2 Zn 0.26944(3) 0.76154(3) 0.288671(17) 0.02947(12) Uani 1 1 d . . .
Zn3 Zn 0.23593(3) 0.76943(3) 0.461693(17) 0.02970(12) Uani 1 1 d . . .
Zn4 Zn 0.76636(4) 0.65419(3) 0.46486(2) 0.04221(17) Uani 1 1 d . . .
O1 O 0.20020(19) 0.8302(2) 0.39882(13) 0.0407(10) Uani 1 1 d . . .
O2 O 0.17420(19) 0.7554(2) 0.42570(14) 0.0405(10) Uani 1 1 d . . .
O3 O 0.21014(17) 0.78516(18) 0.32367(12) 0.0323(8) Uani 1 1 d . . .
O4 O 0.1581(2) 0.7770(3) 0.26959(14) 0.0579(16) Uani 1 1 d . . .
O5 O -0.1888(3) 0.7539(3) 0.2293(2) 0.070(2) Uani 1 1 d . . .
O6 O -0.2086(3) 0.8322(6) 0.2556(2) 0.112(4) Uani 1 1 d . . .
O7 O -0.20078(18) 0.7289(2) 0.45629(13) 0.0417(10) Uani 1 1 d . . .
O8 O -0.1678(2) 0.7767(2) 0.50616(15) 0.0470(12) Uani 1 1 d . . .
O9 O 0.3224(2) 0.7557(2) 0.33158(16) 0.0445(11) Uani 1 1 d . . .
O10 O 0.30693(18) 0.8339(2) 0.36164(14) 0.0374(9) Uani 1 1 d . . .
O11 O 0.30238(18) 0.7694(2) 0.43285(12) 0.0379(9) Uani 1 1 d . . .
O12 O 0.35204(19) 0.80414(19) 0.48052(13) 0.0367(9) Uani 1 1 d . . .
O13 O 0.70242(19) 0.7721(2) 0.50963(14) 0.0433(11) Uani 1 1 d . . .
O14 O 0.6991(2) 0.6892(2) 0.48872(17) 0.0483(12) Uani 1 1 d . . .
O15 O 0.6789(2) 0.7856(2) 0.24678(14) 0.0416(11) Uani 1 1 d . . .
O16 O 0.6130(2) 0.7537(3) 0.20748(14) 0.0572(16) Uani 1 1 d . . .
C1 C 0.1202(3) 0.7883(3) 0.37477(18) 0.0387(14) Uani 1 1 d . . .
C2 C 0.1181(3) 0.7850(3) 0.33258(19) 0.0383(14) Uani 1 1 d . . .
C3 C 0.0683(3) 0.7857(3) 0.31420(19) 0.0433(16) Uani 1 1 d . . .
H3 H 0.0667 0.7852 0.2864 0.052 Uiso 1 1 calc R . .
C4 C 0.0214(3) 0.7872(3) 0.3356(2) 0.0435(16) Uani 1 1 d . . .
C5 C 0.0235(3) 0.7863(3) 0.37736(19) 0.0404(15) Uani 1 1 d . . .
C6 C 0.0726(3) 0.7882(3) 0.3958(2) 0.0423(15) Uani 1 1 d . . .
H6 H 0.0738 0.7894 0.4236 0.051 Uiso 1 1 calc R . .
C7 C 0.1686(3) 0.7917(3) 0.40028(18) 0.0384(13) Uani 1 1 d . . .
C8 C 0.1640(3) 0.7833(3) 0.3060(2) 0.0415(15) Uani 1 1 d . . .
C9 C -0.0289(3) 0.7897(3) 0.3124(2) 0.0434(15) Uani 1 1 d . . .
C10 C -0.0395(3) 0.7524(4) 0.2822(2) 0.0524(18) Uani 1 1 d . . .
H10 H -0.0147 0.7270 0.2753 0.063 Uiso 1 1 calc R . .
C11 C -0.0883(3) 0.7546(4) 0.2627(3) 0.060(2) Uani 1 1 d . . .
H11 H -0.0962 0.7298 0.2430 0.072 Uiso 1 1 calc R . .
C12 C -0.1249(3) 0.7928(4) 0.2721(3) 0.055(2) Uani 1 1 d . . .
C13 C -0.1157(3) 0.8299(4) 0.3005(2) 0.057(2) Uani 1 1 d . . .
H13 H -0.1409 0.8555 0.3060 0.068 Uiso 1 1 calc R . .
C14 C -0.0662(3) 0.8294(4) 0.3221(3) 0.0553(19) Uani 1 1 d . . .
H14 H -0.0592 0.8543 0.3418 0.066 Uiso 1 1 calc R . .
C15 C -0.1790(4) 0.7924(5) 0.2507(2) 0.062(2) Uani 1 1 d . . .
C16 C -0.0245(2) 0.7800(4) 0.40205(19) 0.0455(18) Uani 1 1 d . . .
C17 C -0.0605(3) 0.7386(4) 0.3934(2) 0.0489(16) Uani 1 1 d . . .
H17 H -0.0538 0.7162 0.3719 0.059 Uiso 1 1 calc R . .
C18 C -0.1044(3) 0.7311(4) 0.4160(2) 0.0461(15) Uani 1 1 d . . .
H18 H -0.1275 0.7037 0.4101 0.055 Uiso 1 1 calc R . .
C19 C -0.1145(2) 0.7641(3) 0.44760(18) 0.0401(13) Uani 1 1 d . . .
C20 C -0.0797(3) 0.8027(4) 0.4587(3) 0.058(2) Uani 1 1 d . . .
H20 H -0.0859 0.8222 0.4818 0.070 Uiso 1 1 calc R . .
C21 C -0.0347(3) 0.8129(4) 0.4353(3) 0.0532(18) Uani 1 1 d . . .
H21 H -0.0122 0.8406 0.4415 0.064 Uiso 1 1 calc R . .
C22 C -0.1654(3) 0.7559(3) 0.47218(19) 0.0400(14) Uani 1 1 d . . .
C23 C 0.3830(2) 0.7861(3) 0.37711(18) 0.0382(14) Uani 1 1 d . . .
C24 C 0.3913(3) 0.7865(3) 0.41792(17) 0.0371(13) Uani 1 1 d . . .
C25 C 0.4422(3) 0.7828(3) 0.43307(18) 0.0404(15) Uani 1 1 d . . .
H25 H 0.4472 0.7829 0.4607 0.048 Uiso 1 1 calc R . .
C26 C 0.4851(3) 0.7789(3) 0.4086(2) 0.0442(16) Uani 1 1 d . . .
C27 C 0.4789(3) 0.7763(4) 0.3671(2) 0.0483(17) Uani 1 1 d . . .
C28 C 0.4280(3) 0.7821(4) 0.3519(2) 0.0489(19) Uani 1 1 d . . .
H28 H 0.4233 0.7834 0.3242 0.059 Uiso 1 1 calc R . .
C29 C 0.3325(2) 0.7920(3) 0.35583(16) 0.0303(11) Uani 1 1 d . . .
C30 C 0.3452(2) 0.7874(3) 0.44580(17) 0.0312(11) Uani 1 1 d . . .
C31 C 0.5380(3) 0.7668(4) 0.42807(18) 0.0488(17) Uani 1 1 d . . .
C32 C 0.5672(3) 0.7235(4) 0.4187(2) 0.0507(19) Uani 1 1 d . . .
H32 H 0.5560 0.7006 0.3987 0.061 Uiso 1 1 calc R . .
C33 C 0.6128(3) 0.7140(3) 0.4388(2) 0.0464(16) Uani 1 1 d . . .
H33 H 0.6319 0.6837 0.4328 0.056 Uiso 1 1 calc R . .
C34 C 0.6319(3) 0.7481(3) 0.4681(2) 0.0427(15) Uani 1 1 d . . .
C35 C 0.6035(3) 0.7932(4) 0.4768(2) 0.0514(19) Uani 1 1 d . . .
H35 H 0.6163 0.8171 0.4956 0.062 Uiso 1 1 calc R . .
C36 C 0.5564(3) 0.8030(4) 0.4576(2) 0.0533(19) Uani 1 1 d . . .
H36 H 0.5369 0.8329 0.4638 0.064 Uiso 1 1 calc R . .
C37 C 0.6823(3) 0.7348(3) 0.4897(2) 0.0431(14) Uani 1 1 d . . .
C38 C 0.5215(3) 0.7738(4) 0.33704(19) 0.0473(18) Uani 1 1 d . . .
C39 C 0.5127(3) 0.7416(5) 0.3034(2) 0.060(2) Uani 1 1 d . . .
H39 H 0.4818 0.7219 0.3015 0.072 Uiso 1 1 calc R . .
C40 C 0.5500(3) 0.7390(4) 0.2727(2) 0.0544(19) Uani 1 1 d . . .
H40 H 0.5448 0.7163 0.2511 0.065 Uiso 1 1 calc R . .
C41 C 0.5943(2) 0.7700(4) 0.27420(19) 0.0489(18) Uani 1 1 d . . .
C42 C 0.6039(3) 0.8018(4) 0.3085(2) 0.0522(18) Uani 1 1 d . . .
H42 H 0.6346 0.8217 0.3102 0.063 Uiso 1 1 calc R . .
C43 C 0.5679(3) 0.8032(4) 0.3391(2) 0.055(2) Uani 1 1 d . . .
H43 H 0.5745 0.8240 0.3615 0.066 Uiso 1 1 calc R . .
C44 C 0.6324(3) 0.7707(3) 0.2397(2) 0.0455(15) Uani 1 1 d . . .
N1 N 0.1043(4) 0.9643(5) 0.3282(7) 0.131(7) Uani 1 1 d . . .
O17 O 0.1588(2) 0.8975(2) 0.3352(2) 0.0545(14) Uani 1 1 d . . .
C45 C 0.1522(4) 0.9468(3) 0.3312(3) 0.062(2) Uani 1 1 d . . .
H45 H 0.1809 0.9697 0.3305 0.075 Uiso 1 1 calc R . .
C46 C 0.0553(9) 0.9346(6) 0.3365(8) 0.152(9) Uani 1 1 d . . .
H46A H 0.0364 0.9284 0.3120 0.228 Uiso 1 1 d R . .
H46B H 0.0336 0.9547 0.3545 0.228 Uiso 1 1 d R . .
H46C H 0.0640 0.9014 0.3487 0.228 Uiso 1 1 d R . .
C47 C 0.1003(7) 1.0248(6) 0.3305(10) 0.169(12) Uani 1 1 d . . .
H47A H 0.0802 1.0353 0.3536 0.253 Uiso 1 1 d R . .
H47B H 0.0831 1.0371 0.3066 0.253 Uiso 1 1 d R . .
H47C H 0.1350 1.0397 0.3321 0.253 Uiso 1 1 d R . .
N2 N 0.2931(5) 0.9576(4) 0.4380(3) 0.080(3) Uani 1 1 d . . .
O18 O 0.2552(3) 0.9282(2) 0.38105(18) 0.0571(14) Uani 1 1 d . . .
C48 C 0.2761(5) 0.9203(4) 0.4143(3) 0.066(2) Uani 1 1 d . . .
H48 H 0.2799 0.8856 0.4228 0.079 Uiso 1 1 calc R . .
C49 C 0.2813(9) 1.0117(4) 0.4302(7) 0.144(9) Uani 1 1 d . . .
H49A H 0.2744 1.0163 0.4021 0.216 Uiso 1 1 calc R . .
H49B H 0.3108 1.0332 0.4379 0.216 Uiso 1 1 calc R . .
H49C H 0.2508 1.0220 0.4453 0.216 Uiso 1 1 calc R . .
C50 C 0.3206(6) 0.9442(5) 0.4766(3) 0.085(4) Uani 1 1 d . . .
H50A H 0.3087 0.9677 0.4973 0.128 Uiso 1 1 d R . .
H50B H 0.3580 0.9481 0.4732 0.128 Uiso 1 1 d R . .
H50C H 0.3127 0.9085 0.4840 0.128 Uiso 1 1 d R . .
N3 N 0.7283(6) 0.6994(5) 0.3475(2) 0.109(5) Uani 1 1 d . . .
O19 O 0.7302(3) 0.6605(3) 0.40742(16) 0.0612(15) Uani 1 1 d . . .
C51 C 0.7467(5) 0.6879(6) 0.3831(3) 0.088(4) Uani 1 1 d . . .
H51 H 0.7782 0.7046 0.3898 0.105 Uiso 1 1 calc R . .
C52 C 0.6734(6) 0.6750(6) 0.3348(4) 0.091(4) Uani 1 1 d . . .
H52A H 0.6675 0.6430 0.3494 0.136 Uiso 1 1 calc R . .
H52B H 0.6736 0.6676 0.3066 0.136 Uiso 1 1 calc R . .
H52C H 0.6458 0.6997 0.3407 0.136 Uiso 1 1 calc R . .
C53 C 0.7485(9) 0.7329(8) 0.3191(4) 0.136(8) Uani 1 1 d . . .
H53A H 0.7394 0.7687 0.3256 0.205 Uiso 1 1 d R . .
H53B H 0.7342 0.7240 0.2933 0.205 Uiso 1 1 d R . .
H53C H 0.7861 0.7293 0.3185 0.205 Uiso 1 1 d R . .
O20 O 0.7279(3) 0.5809(2) 0.47291(18) 0.0658(18) Uani 1 1 d . . .
H20A H 0.6951 0.5742 0.4885 0.099 Uiso 1 1 d R . .
H20B H 0.7390 0.5461 0.4620 0.099 Uiso 1 1 d R . .
O21 O 0.8302(4) 0.6182(3) 0.4399(2) 0.083(2) Uani 1 1 d . . .
H21A H 0.8487 0.5900 0.4505 0.125 Uiso 1 1 d R . .
H21B H 0.8460 0.6270 0.4158 0.125 Uiso 1 1 d R . .

loop_
_atom_site_aniso_label
_atom_site_aniso_U_11
_atom_site_aniso_U_22
_atom_site_aniso_U_33
_atom_site_aniso_U_23
_atom_site_aniso_U_13
_atom_site_aniso_U_12
Zn1 0.0370(3) 0.0356(3) 0.0264(2) -0.0005(2) -0.0009(3) 0.0022(3)
Zn2 0.0334(3) 0.0298(3) 0.0252(2) -0.0026(2) -0.0015(3) 0.0015(3)
Zn3 0.0315(3) 0.0346(3) 0.0229(2) 0.0028(3) -0.0007(2) 0.0010(3)
Zn4 0.0595(5) 0.0395(4) 0.0277(3) -0.0038(3) -0.0011(3) -0.0046(4)
O1 0.032(2) 0.058(3) 0.032(2) -0.006(2) -0.0013(18) -0.0052(19)
O2 0.035(2) 0.050(3) 0.037(2) 0.001(2) -0.0045(18) 0.0003(19)
O3 0.028(2) 0.038(2) 0.0300(17) -0.0081(17) -0.0034(16) 0.0018(15)
O4 0.043(3) 0.106(5) 0.0250(19) -0.015(3) -0.0027(19) -0.009(3)
O5 0.050(3) 0.092(5) 0.066(4) 0.033(4) -0.019(3) -0.009(3)
O6 0.050(4) 0.224(13) 0.063(4) -0.008(6) -0.018(3) 0.045(6)
O7 0.036(2) 0.055(3) 0.034(2) -0.002(2) 0.0028(17) -0.001(2)
O8 0.041(3) 0.061(3) 0.040(2) 0.007(2) 0.002(2) -0.003(2)
O9 0.046(3) 0.044(3) 0.044(2) -0.009(2) -0.011(2) 0.010(2)
O10 0.033(2) 0.046(3) 0.033(2) -0.0048(19) -0.0067(17) 0.0001(18)
O11 0.032(2) 0.054(3) 0.0274(17) 0.005(2) -0.0007(15) 0.000(2)
O12 0.040(2) 0.042(2) 0.0282(19) -0.0035(18) 0.0038(17) 0.0009(19)
O13 0.037(2) 0.054(3) 0.039(2) -0.008(2) -0.0070(19) 0.000(2)
O14 0.037(2) 0.053(3) 0.055(3) 0.008(2) 0.000(2) -0.005(2)
O15 0.037(2) 0.051(3) 0.038(2) -0.006(2) 0.0124(19) -0.0033(19)
O16 0.048(3) 0.094(5) 0.029(2) -0.011(2) 0.014(2) -0.006(3)
C1 0.034(3) 0.054(4) 0.027(3) -0.006(3) 0.000(2) -0.007(3)
C2 0.034(3) 0.052(4) 0.028(3) -0.006(3) 0.000(2) 0.001(3)
C3 0.029(3) 0.072(5) 0.029(3) -0.006(3) -0.004(2) -0.005(3)
C4 0.033(3) 0.060(4) 0.038(3) -0.003(3) -0.006(3) 0.000(3)
C5 0.029(3) 0.063(4) 0.029(3) 0.002(3) -0.003(2) 0.001(3)
C6 0.029(3) 0.062(4) 0.036(3) -0.011(3) -0.005(2) -0.003(3)
C7 0.039(3) 0.049(4) 0.028(3) -0.007(3) -0.002(2) -0.005(3)
C8 0.036(3) 0.055(4) 0.033(3) -0.006(3) -0.011(3) 0.002(3)
C9 0.027(3) 0.060(4) 0.042(3) -0.001(3) 0.000(3) 0.002(3)
C10 0.054(4) 0.066(5) 0.038(3) -0.006(3) -0.012(3) -0.004(3)
C11 0.045(4) 0.085(7) 0.049(4) -0.002(4) -0.011(3) -0.003(4)
C12 0.043(4) 0.071(5) 0.050(4) 0.020(4) -0.008(3) -0.004(4)
C13 0.042(4) 0.078(6) 0.050(4) 0.007(4) -0.009(3) 0.006(4)
C14 0.046(4) 0.065(5) 0.055(4) 0.009(4) -0.008(3) 0.005(4)
C15 0.063(5) 0.082(7) 0.040(4) 0.021(4) -0.007(4) 0.001(5)
C16 0.025(3) 0.081(6) 0.030(3) 0.004(3) -0.006(2) 0.000(3)
C17 0.039(3) 0.066(5) 0.042(3) -0.014(3) 0.004(3) -0.006(3)
C18 0.037(3) 0.055(4) 0.046(3) 0.000(3) 0.000(3) -0.008(3)
C19 0.030(3) 0.056(4) 0.034(3) 0.007(3) 0.002(2) -0.007(3)
C20 0.049(4) 0.077(6) 0.049(4) -0.016(4) 0.015(4) -0.002(4)
C21 0.038(4) 0.069(5) 0.054(4) -0.003(4) 0.006(3) -0.007(3)
C22 0.037(3) 0.049(4) 0.034(3) 0.008(3) 0.007(2) 0.003(3)
C23 0.027(3) 0.062(4) 0.026(2) -0.005(3) -0.002(2) 0.004(3)
C24 0.039(3) 0.047(3) 0.026(2) 0.001(2) 0.005(2) 0.001(3)
C25 0.037(3) 0.062(4) 0.022(2) -0.004(2) -0.002(2) 0.006(3)
C26 0.030(3) 0.064(5) 0.040(3) 0.003(3) 0.001(2) 0.004(3)
C27 0.036(3) 0.070(5) 0.039(3) -0.006(3) 0.007(3) 0.013(3)
C28 0.034(3) 0.085(6) 0.028(3) -0.009(3) 0.001(2) -0.007(3)
C29 0.026(3) 0.044(3) 0.021(2) 0.007(2) -0.0014(19) -0.003(2)
C30 0.024(2) 0.041(3) 0.029(2) 0.002(2) -0.002(2) 0.006(2)
C31 0.028(3) 0.089(5) 0.030(3) 0.003(4) -0.003(2) -0.006(4)
C32 0.037(3) 0.081(6) 0.034(3) -0.012(3) -0.007(3) 0.004(3)
C33 0.038(3) 0.064(5) 0.037(3) -0.012(3) -0.003(3) 0.004(3)
C34 0.038(3) 0.055(4) 0.035(3) -0.002(3) -0.001(3) -0.002(3)
C35 0.043(4) 0.063(5) 0.048(4) -0.015(4) -0.013(3) 0.010(3)
C36 0.042(4) 0.082(6) 0.035(3) -0.002(3) -0.006(3) 0.004(4)
C37 0.032(3) 0.053(4) 0.045(3) -0.001(3) 0.000(2) 0.005(3)
C38 0.029(3) 0.081(6) 0.033(3) -0.003(3) 0.001(2) 0.006(3)
C39 0.037(3) 0.101(7) 0.043(3) -0.005(4) 0.011(3) -0.015(4)
C40 0.059(4) 0.0