####################################################################### 
# 
# This file contains crystal structure data downloaded from the 
# Cambridge Structural Database (CSD) hosted by the Cambridge 
# Crystallographic Data Centre (CCDC).
# 
# Full information about CCDC data access policies and citation 
# guidelines are available at http://www.ccdc.cam.ac.uk/access/V1 
# 
# Audit and citation data items may have been added by the CCDC. 
# Please retain this information to preserve the provenance of 
# this file and to allow appropriate attribution of the data. 
# 
#######################################################################

data_KT0218
_audit_block_doi                 10.5517/cc1256xc
_database_code_depnum_ccdc_archive 'CCDC 988122'
loop_
_citation_id
_citation_doi
_citation_year
1 10.1039/C4CE00385C 2014
_audit_update_record             
;
2014-08-04 deposited with the CCDC.	2024-07-14 downloaded from the CCDC.
;

_audit_creation_method           SHELXL-2013
_chemical_name_systematic        
;
 ?
;
_chemical_name_common            ?
_chemical_melting_point          ?
_chemical_formula_moiety         'C30 H18 O10 Zn2, 1.5(C3 H7 N O)'
_chemical_formula_sum            'C34.50 H28.50 N1.50 O11.50 Zn2'
_chemical_formula_weight         778.83

loop_
_atom_type_symbol
_atom_type_description
_atom_type_scat_dispersion_real
_atom_type_scat_dispersion_imag
_atom_type_scat_source
C C 0.0033 0.0016 'International Tables Vol C Tables 4.2.6.8 and 6.1.1.4'
H H 0.0000 0.0000 'International Tables Vol C Tables 4.2.6.8 and 6.1.1.4'
N N 0.0061 0.0033 'International Tables Vol C Tables 4.2.6.8 and 6.1.1.4'
O O 0.0106 0.0060 'International Tables Vol C Tables 4.2.6.8 and 6.1.1.4'
Zn Zn 0.2839 1.4301 'International Tables Vol C Tables 4.2.6.8 and 6.1.1.4'

_space_group_crystal_system      trigonal
_space_group_IT_number           166
_space_group_name_H-M_alt        'R -3 m :H'
_space_group_name_Hall           '-R 3 2"'

_shelx_space_group_comment       
;
The symmetry employed for this shelxl refinement is uniquely defined
by the following loop, which should always be used as a source of
symmetry information in preference to the above space-group names.
They are only intended as comments.
;

loop_
_space_group_symop_operation_xyz
'x, y, z'
'-y, x-y, z'
'-x+y, -x, z'
'x-y, -y, -z'
'-x, -x+y, -z'
'y, x, -z'
'x+2/3, y+1/3, z+1/3'
'-y+2/3, x-y+1/3, z+1/3'
'-x+y+2/3, -x+1/3, z+1/3'
'x-y+2/3, -y+1/3, -z+1/3'
'-x+2/3, -x+y+1/3, -z+1/3'
'y+2/3, x+1/3, -z+1/3'
'x+1/3, y+2/3, z+2/3'
'-y+1/3, x-y+2/3, z+2/3'
'-x+y+1/3, -x+2/3, z+2/3'
'x-y+1/3, -y+2/3, -z+2/3'
'-x+1/3, -x+y+2/3, -z+2/3'
'y+1/3, x+2/3, -z+2/3'
'-x, -y, -z'
'y, -x+y, -z'
'x-y, x, -z'
'-x+y, y, z'
'x, x-y, z'
'-y, -x, z'
'-x+2/3, -y+1/3, -z+1/3'
'y+2/3, -x+y+1/3, -z+1/3'
'x-y+2/3, x+1/3, -z+1/3'
'-x+y+2/3, y+1/3, z+1/3'
'x+2/3, x-y+1/3, z+1/3'
'-y+2/3, -x+1/3, z+1/3'
'-x+1/3, -y+2/3, -z+2/3'
'y+1/3, -x+y+2/3, -z+2/3'
'x-y+1/3, x+2/3, -z+2/3'
'-x+y+1/3, y+2/3, z+2/3'
'x+1/3, x-y+2/3, z+2/3'
'-y+1/3, -x+2/3, z+2/3'

_cell_length_a                   27.063(9)
_cell_length_b                   27.063(9)
_cell_length_c                   16.107(3)
_cell_angle_alpha                90
_cell_angle_beta                 90
_cell_angle_gamma                120
_cell_volume                     10216(7)
_cell_formula_units_Z            9
_cell_measurement_temperature    100(2)
_cell_measurement_reflns_used    71879
_cell_measurement_theta_min      2.607
_cell_measurement_theta_max      30.956

_exptl_crystal_description       block
_exptl_crystal_colour            colourless
_exptl_crystal_density_meas      ?
_exptl_crystal_density_method    ?
_exptl_crystal_density_diffrn    1.139
_exptl_crystal_F_000             3582
_exptl_transmission_factor_min   ?
_exptl_transmission_factor_max   ?
_exptl_crystal_size_max          0.050
_exptl_crystal_size_mid          0.040
_exptl_crystal_size_min          0.040
_exptl_absorpt_coefficient_mu    1.104
_shelx_estimated_absorpt_T_min   0.947
_shelx_estimated_absorpt_T_max   0.957
_exptl_absorpt_correction_type   none
_exptl_absorpt_correction_T_min  ?
_exptl_absorpt_correction_T_max  ?
_exptl_absorpt_process_details   ?

_exptl_special_details           
;
 ?
;

_diffrn_ambient_temperature      100(2)
_diffrn_measurement_device_type  'ADSC Quantum 210r'
_diffrn_radiation_monochromator  'Silicon Double Crystal'
_diffrn_radiation_type           Synchrotron
_diffrn_radiation_wavelength     0.71073
_diffrn_source                   'Australian Synchrotron'
_diffrn_measurement_method       'phi scan'
_diffrn_detector_area_resol_mean ?
_diffrn_reflns_number            71870
_diffrn_reflns_av_unetI/netI     0.0282
_diffrn_reflns_av_R_equivalents  0.0906
_diffrn_reflns_limit_h_min       -38
_diffrn_reflns_limit_h_max       39
_diffrn_reflns_limit_k_min       -38
_diffrn_reflns_limit_k_max       38
_diffrn_reflns_limit_l_min       -23
_diffrn_reflns_limit_l_max       23
_diffrn_reflns_theta_min         2.607
_diffrn_reflns_theta_max         30.956
_diffrn_reflns_theta_full        27.500
_diffrn_measured_fraction_theta_max 0.982
_diffrn_measured_fraction_theta_full 0.988
_diffrn_reflns_Laue_measured_fraction_max 0.982
_diffrn_reflns_Laue_measured_fraction_full 0.988
_diffrn_reflns_point_group_measured_fraction_max 0.982
_diffrn_reflns_point_group_measured_fraction_full 0.988
_reflns_number_total             3753
_reflns_number_gt                3455
_reflns_threshold_expression     'I > 2\s(I)'
_reflns_Friedel_coverage         0.000
_reflns_Friedel_fraction_max     .
_reflns_Friedel_fraction_full    .

_reflns_special_details          
;
 Reflections were merged by SHELXL according to the crystal
 class for the calculation of statistics and refinement.
 
 _reflns_Friedel_fraction is defined as the number of unique
 Friedel pairs measured divided by the number that would be
 possible theoretically, ignoring centric projections and
 systematic absences.
;

_computing_cell_refinement       'XDS (Kabsch, 1993)'
_computing_data_collection       'BluIce (McPhillips, 2002)'
_computing_data_reduction        'XDS (Kabsch, 1993)'
_computing_structure_solution    'SHELXS-97 (Sheldrick, 1997)'
_computing_structure_refinement  'SHELXL-2013 (Sheldrick, 2013)'
_computing_molecular_graphics    ?
_computing_publication_material  ?

_refine_special_details          SQUEEZE

loop_
_platon_squeeze_void_nr
_platon_squeeze_void_average_x
_platon_squeeze_void_average_y
_platon_squeeze_void_average_z
_platon_squeeze_void_volume
_platon_squeeze_void_count_electrons
_platon_squeeze_void_content
1 0.000 0.000 -0.004 1699 203 ' '
2 0.333 0.667 0.272 1697 202 ' '
3 0.667 0.333 0.938 1697 202 ' '
_platon_squeeze_details          
;
 Squeeze suggests 1.5 DMF molecules per formula unit.
 These solvent molecules are included in the formula.
;

_refine_ls_structure_factor_coef Fsqd
_refine_ls_matrix_type           full
_refine_ls_weighting_scheme      calc
_refine_ls_weighting_details     
;
 w=1/[\s^2^(Fo^2^)+(0.0815P)^2^+42.6837P]
 where P=(Fo^2^+2Fc^2^)/3
;
_atom_sites_solution_primary     ?
_atom_sites_solution_secondary   ?
_atom_sites_solution_hydrogens   geom
_refine_ls_hydrogen_treatment    constr
_refine_ls_extinction_method     none
_refine_ls_extinction_coef       .
_refine_ls_number_reflns         3753
_refine_ls_number_parameters     100
_refine_ls_number_restraints     0
_refine_ls_R_factor_all          0.0746
_refine_ls_R_factor_gt           0.0690
_refine_ls_wR_factor_ref         0.1954
_refine_ls_wR_factor_gt          0.1920
_refine_ls_goodness_of_fit_ref   1.177
_refine_ls_restrained_S_all      1.177
_refine_ls_shift/su_max          0.000
_refine_ls_shift/su_mean         0.000

loop_
_atom_site_label
_atom_site_type_symbol
_atom_site_fract_x
_atom_site_fract_y
_atom_site_fract_z
_atom_site_U_iso_or_equiv
_atom_site_adp_type
_atom_site_occupancy
_atom_site_site_symmetry_order
_atom_site_calc_flag
_atom_site_refinement_flags_posn
_atom_site_refinement_flags_adp
_atom_site_refinement_flags_occupancy
_atom_site_disorder_assembly
_atom_site_disorder_group
Zn1 Zn 0.13443(2) 0.26886(2) 0.34117(3) 0.03470(18) Uani 1 2 d S T P . .
O1 O 0.19512(11) 0.28390(14) 0.25573(19) 0.0616(7) Uani 1 1 d . . . . .
O2 O 0.24271(13) 0.37919(14) 0.2422(2) 0.0641(8) Uani 1 1 d . . . . .
O7 O 0.09245(8) 0.18491(16) 0.3448(4) 0.0778(14) Uani 1 2 d S T P . .
C1 C 0.3333 0.3766(2) 0.1667 0.0446(9) Uani 1 2 d S T P . .
H1 H 0.3333 0.4117 0.1667 0.053 Uiso 1 2 calc R U P . .
C2 C 0.28670(13) 0.32749(16) 0.1964(2) 0.0445(7) Uani 1 1 d . . . . .
C3 C 0.28620(13) 0.27624(16) 0.1954(2) 0.0453(7) Uani 1 1 d . . . . .
H3 H 0.2534 0.2426 0.2144 0.054 Uiso 1 1 calc R U . . .
C4 C 0.3333 0.27329(19) 0.1667 0.0432(9) Uani 1 2 d S T P . .
C5 C 0.23715(15) 0.3307(2) 0.2336(2) 0.0524(8) Uani 1 1 d . . . . .
C6 C 0.3333 0.21845(19) 0.1667 0.0433(9) Uani 1 2 d S T P . .
C7 C 0.31263(15) 0.18280(15) 0.0976(2) 0.0460(7) Uani 1 1 d . . . . .
C8 C 0.29101(19) 0.1971(2) 0.0247(2) 0.0579(9) Uani 1 1 d . . . . .
H8 H 0.2906 0.2320 0.0233 0.069 Uiso 1 1 calc R U . . .
C9 C 0.2715(2) 0.1618(2) -0.0414(3) 0.0712(12) Uani 1 1 d . . . . .
H9 H 0.2576 0.1722 -0.0885 0.085 Uiso 1 1 calc R U . . .

loop_
_atom_site_aniso_label
_atom_site_aniso_U_11
_atom_site_aniso_U_22
_atom_site_aniso_U_33
_atom_site_aniso_U_23
_atom_site_aniso_U_13
_atom_site_aniso_U_12
Zn1 0.0252(2) 0.0192(2) 0.0576(3) 0.00973(17) 0.00487(8) 0.00959(11)
O1 0.0359(12) 0.079(2) 0.0726(17) 0.0196(15) 0.0170(12) 0.0307(13)
O2 0.0474(15) 0.0699(19) 0.0777(18) -0.0004(15) 0.0172(13) 0.0313(14)
O7 0.067(2) 0.0285(17) 0.125(4) 0.015(2) 0.0074(11) 0.0142(9)
C1 0.035(2) 0.0464(18) 0.048(2) -0.0002(9) -0.0004(17) 0.0176(10)
C2 0.0305(13) 0.0526(18) 0.0474(15) 0.0038(14) 0.0046(11) 0.0186(13)
C3 0.0290(13) 0.0509(18) 0.0481(16) 0.0082(14) 0.0080(11) 0.0141(13)
C4 0.034(2) 0.0466(18) 0.045(2) 0.0035(8) 0.0071(16) 0.0169(10)
C5 0.0365(16) 0.074(2) 0.0514(17) 0.0044(17) 0.0072(13) 0.0307(17)
C6 0.0321(19) 0.0451(18) 0.048(2) 0.0030(8) 0.0061(16) 0.0160(10)
C7 0.0402(16) 0.0500(18) 0.0436(15) 0.0036(13) 0.0054(12) 0.0194(14)
C8 0.063(2) 0.062(2) 0.0530(19) 0.0057(17) -0.0026(17) 0.035(2)
C9 0.085(3) 0.079(3) 0.0479(19) 0.0006(19) -0.014(2) 0.040(3)

_geom_special_details            
;
 All esds (except the esd in the dihedral angle between two l.s. planes)
 are estimated using the full covariance matrix.  The cell esds are taken
 into account individually in the estimation of esds in distances, angles
 and torsion angles; correlations between esds in cell parameters are only
 used when they are defined by crystal symmetry.  An approximate (isotropic)
 treatment of cell esds is used for estimating esds involving l.s. planes.
;

loop_
_geom_bond_atom_site_label_1
_geom_bond_atom_site_label_2
_geom_bond_distance
_geom_bond_site_symmetry_2
_geom_bond_publ_flag
Zn1 O7 1.969(4) . ?
Zn1 O2 2.014(3) 31 ?
Zn1 O2 2.015(3) 16 ?
Zn1 O1 2.022(3) . ?
Zn1 O1 2.022(3) 22 ?
Zn1 Zn1 3.0324(13) 31 ?
O1 C5 1.258(5) . ?
O2 C5 1.252(5) . ?
O2 Zn1 2.014(3) 31 ?
C1 C2 1.383(4) . ?
C1 C2 1.383(4) 11 ?
C1 H1 0.9500 . ?
C2 C3 1.380(5) . ?
C2 C5 1.509(5) . ?
C3 C4 1.396(4) . ?
C3 H3 0.9500 . ?
C4 C3 1.396(4) 11 ?
C4 C6 1.484(7) . ?
C6 C7 1.393(4) 11 ?
C6 C7 1.393(4) . ?
C7 C7 1.433(7) 23 ?
C7 C8 1.449(5) . ?
C8 C9 1.349(6) . ?
C8 H8 0.9500 . ?
C9 C9 1.411(11) 23 ?
C9 H9 0.9500 . ?

loop_
_geom_angle_atom_site_label_1
_geom_angle_atom_site_label_2
_geom_angle_atom_site_label_3
_geom_angle
_geom_angle_site_symmetry_1
_geom_angle_site_symmetry_3
_geom_angle_publ_flag
O7 Zn1 O2 101.33(15) . 31 ?
O7 Zn1 O2 101.33(15) . 16 ?
O2 Zn1 O2 91.1(2) 31 16 ?
O7 Zn1 O1 101.22(15) . . ?
O2 Zn1 O1 157.45(14) 31 . ?
O2 Zn1 O1 84.71(13) 16 . ?
O7 Zn1 O1 101.22(16) . 22 ?
O2 Zn1 O1 84.72(13) 31 22 ?
O2 Zn1 O1 157.45(14) 16 22 ?
O1 Zn1 O1 90.74(17) . 22 ?
O7 Zn1 Zn1 176.94(18) . 31 ?
O2 Zn1 Zn1 80.78(10) 31 31 ?
O2 Zn1 Zn1 80.78(10) 16 31 ?
O1 Zn1 Zn1 76.68(10) . 31 ?
O1 Zn1 Zn1 76.68(10) 22 31 ?
C5 O1 Zn1 129.1(3) . . ?
C5 O2 Zn1 124.0(3) . 31 ?
C2 C1 C2 119.3(5) . 11 ?
C2 C1 H1 120.3 . . ?
C2 C1 H1 120.3 11 . ?
C3 C2 C1 120.5(3) . . ?
C3 C2 C5 120.0(3) . . ?
C1 C2 C5 119.5(4) . . ?
C2 C3 C4 120.8(3) . . ?
C2 C3 H3 119.6 . . ?
C4 C3 H3 119.6 . . ?
C3 C4 C3 118.1(5) . 11 ?
C3 C4 C6 120.9(2) . . ?
C3 C4 C6 120.9(2) 11 . ?
O2 C5 O1 126.7(3) . . ?
O2 C5 C2 117.3(4) . . ?
O1 C5 C2 115.9(4) . . ?
C7 C6 C7 121.1(5) 11 . ?
C7 C6 C4 119.4(2) 11 . ?
C7 C6 C4 119.4(2) . . ?
C6 C7 C7 119.4(2) . 23 ?
C6 C7 C8 122.6(4) . . ?
C7 C7 C8 118.0(2) 23 . ?
C9 C8 C7 121.2(4) . . ?
C9 C8 H8 119.4 . . ?
C7 C8 H8 119.4 . . ?
C8 C9 C9 120.8(3) . 23 ?
C8 C9 H9 119.6 . . ?
C9 C9 H9 119.6 23 . ?

loop_
_geom_torsion_atom_site_label_1
_geom_torsion_atom_site_label_2
_geom_torsion_atom_site_label_3
_geom_torsion_atom_site_label_4
_geom_torsion
_geom_torsion_site_symmetry_1
_geom_torsion_site_symmetry_2
_geom_torsion_site_symmetry_3
_geom_torsion_site_symmetry_4
_geom_torsion_publ_flag
C2 C1 C2 C3 -1.0(2) 11 . . . ?
C2 C1 C2 C5 176.5(3) 11 . . . ?
C1 C2 C3 C4 1.9(5) . . . . ?
C5 C2 C3 C4 -175.5(3) . . . . ?
C2 C3 C4 C3 -1.0(2) . . . 11 ?
C2 C3 C4 C6 179.0(2) . . . . ?
Zn1 O2 C5 O1 21.1(6) 31 . . . ?
Zn1 O2 C5 C2 -155.9(3) 31 . . . ?
Zn1 O1 C5 O2 -21.0(6) . . . . ?
Zn1 O1 C5 C2 156.0(2) . . . . ?
C3 C2 C5 O2 171.5(4) . . . . ?
C1 C2 C5 O2 -5.9(5) . . . . ?
C3 C2 C5 O1 -5.8(5) . . . . ?
C1 C2 C5 O1 176.8(3) . . . . ?
C3 C4 C6 C7 -90.8(2) . . . 11 ?
C3 C4 C6 C7 89.2(2) 11 . . 11 ?
C3 C4 C6 C7 89.2(2) . . . . ?
C3 C4 C6 C7 -90.8(2) 11 . . . ?
C7 C6 C7 C7 -0.004(1) 11 . . 23 ?
C4 C6 C7 C7 180.000(1) . . . 23 ?
C7 C6 C7 C8 -179.8(4) 11 . . . ?
C4 C6 C7 C8 0.2(4) . . . . ?
C6 C7 C8 C9 179.7(4) . . . . ?
C7 C7 C8 C9 -0.1(5) 23 . . . ?
C7 C8 C9 C9 0.1(5) . . . 23 ?

_refine_diff_density_max         0.875
_refine_diff_density_min         -1.170
_refine_diff_density_rms         0.092

_shelxl_version_number           2013-2

_shelx_res_file                  
;
REM TRMX -1.500 -0.500 -1.000  1.500 -0.500  1.000  0.000  0.000  1.000 hR 13
REM SPGR R-3m
REM  monoc in C2/m               New: R-3m
REM R1 =  0.0723 for    3455 Fo > 4sig(Fo)  and  0.0778 for all    3753 data
REM    100 parameters refined using      0 restraints
REM Highest difference peak  0.932,  deepest hole -1.944,  1-sigma level  0.097
REM  monoc in C2/m               New: R-3m
REM R1 =  0.0942 for    3337 Fo > 4sig(Fo)  and  0.1003 for all    3753 data
REM    100 parameters refined using      0 restraints
REM Highest difference peak  1.866,  deepest hole -1.921,  1-sigma level  0.157
REM  monoc in C2/m               New: R-3m
REM R1 =  0.0701 for    3467 Fo > 4sig(Fo)  and  0.0755 for all    3753 data
REM    100 parameters refined using      0 restraints
REM Highest difference peak  0.869,  deepest hole -1.172,  1-sigma level  0.091
TITL monoc in C2/m               New: R-3m
CELL 0.71073 27.0630 27.0630 16.1070 90.000 90.000 120.000
ZERR 9.0000 0.0090 0.0090 0.0030 0.000 0.000 0.000
LATT 3
SYMM -Y, X-Y, Z
SYMM -X+Y, -X, Z
SYMM X-Y, -Y, -Z
SYMM -X, -X+Y, -Z
SYMM Y, X, -Z
SFAC C H N O ZN
UNIT 310.5 256.5 13.5 103.5 18
MERG 2
OMIT -2 180
FMAP 2
GRID
PLAN -20
TEMP -173
SIZE 0.05 0.04 0.04
BOND $H
CONF
L.S. 20
ACTA 55
WGHT    0.081500   42.683701
FVAR       0.73550
ZN1   5    0.134432    0.268864    0.341174    10.50000    0.02525    0.01919 =
         0.05763    0.00973    0.00487    0.00959
O1    4    0.195122    0.283897    0.255734    11.00000    0.03590    0.07899 =
         0.07255    0.01960    0.01704    0.03073
O2    4    0.242711    0.379191    0.242164    11.00000    0.04738    0.06992 =
         0.07766   -0.00035    0.01716    0.03130
O7    4    0.092453    0.184906    0.344831    10.50000    0.06710    0.02847 =
         0.12504    0.01476    0.00738    0.01423
C1    1    0.333333    0.376612    0.166667    10.50000    0.03526    0.04639 =
         0.04838   -0.00019   -0.00037    0.01763
AFIX  43
H1    2    0.333333    0.411716    0.166666    10.50000   -1.20000
AFIX   0
C2    1    0.286696    0.327494    0.196433    11.00000    0.03050    0.05261 =
         0.04738    0.00380    0.00461    0.01860
C3    1    0.286201    0.276244    0.195396    11.00000    0.02897    0.05091 =
         0.04814    0.00824    0.00797    0.01411
AFIX  43
H3    2    0.253418    0.242601    0.214447    11.00000   -1.20000
AFIX   0
C4    1    0.333333    0.273288    0.166667    10.50000    0.03387    0.04655 =
         0.04482    0.00355    0.00709    0.01693
C5    1    0.237148    0.330670    0.233562    11.00000    0.03646    0.07367 =
         0.05138    0.00443    0.00721    0.03071
C6    1    0.333333    0.218450    0.166667    10.50000    0.03209    0.04514 =
         0.04835    0.00303    0.00605    0.01605
C7    1    0.312630    0.182797    0.097601    11.00000    0.04025    0.05002 =
         0.04361    0.00361    0.00540    0.01943
C8    1    0.291011    0.197101    0.024655    11.00000    0.06308    0.06192 =
         0.05300    0.00575   -0.00258    0.03455
AFIX  43
H8    2    0.290575    0.231975    0.023345    11.00000   -1.20000
AFIX   0
C9    1    0.271492    0.161819   -0.041430    11.00000    0.08535    0.07925 =
         0.04790    0.00057   -0.01407    0.04025
AFIX  43
H9    2    0.257573    0.172198   -0.088546    11.00000   -1.20000
AFIX   0
HKLF 4  1  -1.5000 -0.5000 -1.0000 1.5000 -0.5000 1.0000 0.0000 0.0000 1.0000

REM  monoc in C2/m               New: R-3m
REM R1 =  0.0690 for    3455 Fo > 4sig(Fo)  and  0.0746 for all    3753 data
REM    100 parameters refined using      0 restraints

END

WGHT      0.0851     39.9599

REM Highest difference peak  0.875,  deepest hole -1.170,  1-sigma level  0.092
Q1    1   0.1223  0.2447  0.3027  10.50000  0.05    0.88
Q2    1   0.1117  0.2526  0.3775  11.00000  0.05    0.81
Q3    1   0.1468  0.2937  0.3813  10.50000  0.05    0.65
Q4    1   0.3112  0.2762  0.1780  11.00000  0.05    0.41
Q5    1   0.0764  0.1528  0.2934  10.50000  0.05    0.39
Q6    1   0.0118  0.0235  0.9921  10.50000  0.05    0.37
Q7    1   0.3375  0.