
#######################################################################
#
#                 Cambridge Crystallographic Data Centre
#                                CCDC
#
#######################################################################
#
# If this CIF has been generated from an entry in the Cambridge
# Structural Database, then it will include bibliographic, chemical,
# crystal, experimental, refinement or atomic coordinate data resulting
# from the CCDC's data processing and validation procedures.
#
#######################################################################

data_CSD_CIF_YOHPOA
_audit_creation_date 1995-12-04
_audit_creation_method CSD-ConQuest-V1
_database_code_CSD YOHPOA
_database_code_depnum_ccdc_archive 'CCDC 1304764; CCDC 401447'
_database_code_depnum_ccdc_fiz 'CSD 401447'
_chemical_formula_sum 'C34 H36 O4'
_chemical_formula_moiety
;
C34 H36 O4
;
_journal_coden_Cambridge 179
_journal_volume 34
_journal_year 1995
_journal_page_first 685
_journal_name_full 'Angew.Chem.,Int.Ed. '
loop_
_publ_author_name
"H.Hopf"
"H.Greiving"
"P.G.Jones"
"P.Bubenitschek"
_chemical_name_systematic
;
Diethyl 1,12-(o,o'-(2.2)paracyclophane)(5)ladderane-6,7-dicarboxylate
;
_chemical_name_common
;
Teaching Subset: Fundamental Chemistry
;
_cell_volume   1297.650
_exptl_crystal_colour 'colorless'
_exptl_crystal_description 'prism'
_diffrn_ambient_temperature 173.15
#These two values have been output from a single CSD field.
_refine_ls_R_factor_gt 0.047
_refine_ls_wR_factor_gt 0.047
_symmetry_cell_setting triclinic
_symmetry_space_group_name_H-M 'P -1'
_symmetry_Int_Tables_number 2
loop_
_symmetry_equiv_pos_site_id
_symmetry_equiv_pos_as_xyz
1 x,y,z
2 -x,-y,-z
_cell_length_a 9.4532
_cell_length_b 11.564
_cell_length_c 13.151
_cell_angle_alpha 105.291
_cell_angle_beta 98.518
_cell_angle_gamma 105.642
_cell_formula_units_Z 2
loop_
_atom_type_symbol
_atom_type_radius_bond
C 0.68
H 0.23
O 0.68
loop_
_atom_site_label
_atom_site_type_symbol
_atom_site_fract_x
_atom_site_fract_y
_atom_site_fract_z
O1 O -0.2990(2) 0.25410(15) 0.16628(13)
O2 O -0.1771(2) 0.40419(15) 0.10246(12)
O3 O -0.3903(2) 0.5134(2) 0.2064(2)
O4 O -0.2481(2) 0.71738(14) 0.26766(13)
C1 C 0.8675(2) 1.0013(2) 0.5998(2)
H1 H 0.9619(2) 1.0730(2) 0.6165(2)
H2 H 0.7953(2) 1.0060(2) 0.5395(2)
C2 C 0.9030(2) 0.8718(2) 0.5624(2)
H3 H 0.8472(2) 0.8246(2) 0.4862(2)
H4 H 1.0124(2) 0.8908(2) 0.5653(2)
C3 C 0.8596(2) 0.7895(2) 0.6324(2)
C4 C 0.7081(2) 0.7248(2) 0.6250(2)
C5 C 0.6701(2) 0.6907(2) 0.7141(2)
H5 H 0.5689(2) 0.6418(2) 0.7080(2)
C6 C 0.7764(2) 0.7263(2) 0.8119(2)
C7 C 0.9280(2) 0.7701(2) 0.8104(2)
H6 H 1.0041(2) 0.7804(2) 0.8712(2)
C8 C 0.9688(2) 0.7989(2) 0.7209(2)
H7 H 1.0726(2) 0.8255(2) 0.7197(2)
C9 C 0.7244(3) 0.7463(2) 0.9165(2)
H8 H 0.8028(3) 0.7437(2) 0.9740(2)
H9 H 0.6310(3) 0.6760(2) 0.9066(2)
C10 C 0.6919(3) 0.8781(2) 0.9555(2)
H10 H 0.5859(3) 0.8608(2) 0.9625(2)
H11 H 0.7585(3) 0.9289(2) 1.0281(2)
C11 C 0.7173(2) 0.9546(2) 0.8789(2)
C12 C 0.8590(2) 1.0386(2) 0.8894(2)
H12 H 0.9292(2) 1.0743(2) 0.9579(2)
C13 C 0.8989(2) 1.0707(2) 0.8008(2)
H13 H 0.9935(2) 1.1326(2) 0.8102(2)
C14 C 0.8017(2) 1.0133(2) 0.6982(2)
C15 C 0.6510(2) 0.9438(2) 0.6896(2)
C16 C 0.6098(2) 0.9200(2) 0.7821(2)
H14 H 0.5067(2) 0.8795(2) 0.7787(2)
C17 C 0.5877(2) 0.7300(2) 0.5396(2)
H15 H 0.6141(2) 0.7153(2) 0.4674(2)
C18 C 0.4198(2) 0.6580(2) 0.5298(2)
H16 H 0.3963(2) 0.5985(2) 0.5726(2)
C19 C 0.3183(2) 0.6232(2) 0.4168(2)
H17 H 0.3606(2) 0.6018(2) 0.3516(2)
C20 C 0.1525(2) 0.5531(2) 0.4098(2)
H18 H 0.1297(2) 0.4952(2) 0.4541(2)
C21 C 0.0480(2) 0.5186(2) 0.2983(2)
H19 H 0.0889(2) 0.4970(2) 0.2324(2)
C22 C -0.1193(2) 0.4463(2) 0.2920(2)
H20 H -0.1266(2) 0.4034(2) 0.3488(2)
C23 C -0.2100(2) 0.3564(2) 0.1818(2)
C24 C -0.2664(3) 0.3260(3) -0.0062(2)
H21 H -0.3738(3) 0.3205(3) -0.0120(2)
H22 H -0.2599(3) 0.2393(3) -0.0219(2)
C25 C -0.2054(3) 0.3853(3) -0.0839(2)
H23 H -0.2616(14) 0.333(1) -0.1579(2)
H24 H -0.0983(7) 0.3926(16) -0.0759(11)
H25 H -0.2157(19) 0.4699(8) -0.0693(10)
C26 C 0.5530(2) 0.8630(2) 0.5789(2)
H26 H 0.5640(2) 0.9094(2) 0.5247(2)
C27 C 0.3865(2) 0.7873(2) 0.5664(2)
H27 H 0.3408(2) 0.8051(2) 0.6303(2)
C28 C 0.2871(2) 0.7547(2) 0.4528(2)
H28 H 0.3113(2) 0.8144(2) 0.4101(2)
C29 C 0.1220(2) 0.6849(2) 0.4452(2)
H29 H 0.0806(2) 0.7063(2) 0.5108(2)
C30 C 0.0171(2) 0.6484(2) 0.3333(2)
H30 H 0.0372(2) 0.7061(2) 0.2886(2)
C31 C -0.1488(2) 0.5760(2) 0.3290(2)
H31 H -0.1638(2) 0.5924(2) 0.4046(2)
C32 C -0.2752(2) 0.5950(2) 0.2589(2)
C33 C -0.3694(3) 0.7488(2) 0.2110(2)
H32 H -0.4679(3) 0.7006(2) 0.2201(2)
H33 H -0.3720(3) 0.7259(2) 0.1325(2)
C34 C -0.3425(4) 0.8848(3) 0.2560(3)
H34 H -0.4239(12) 0.9071(4) 0.2187(11)
H35 H -0.2455(11) 0.9318(3) 0.2459(14)
H36 H -0.3402(21) 0.9066(4) 0.3336(4)
#END
