
#######################################################################
#
#                 Cambridge Crystallographic Data Centre
#                                CCDC
#
#######################################################################
#
# If this CIF has been generated from an entry in the Cambridge
# Structural Database, then it will include bibliographic, chemical,
# crystal, experimental, refinement or atomic coordinate data resulting
# from the CCDC's data processing and validation procedures.
#
#######################################################################

data_CSD_CIF_YOHPIU
_audit_creation_date 1995-12-04
_audit_creation_method CSD-ConQuest-V1
_database_code_CSD YOHPIU
_database_code_depnum_ccdc_archive 'CCDC 1304763; CCDC 401446'
_database_code_depnum_ccdc_fiz 'CSD 401446'
_chemical_formula_sum 'C30 H32 O4'
_chemical_formula_moiety
;
C30 H32 O4
;
_journal_coden_Cambridge 179
_journal_volume 34
_journal_year 1995
_journal_page_first 685
_journal_name_full 'Angew.Chem.,Int.Ed. '
loop_
_publ_author_name
"H.Hopf"
"H.Greiving"
"P.G.Jones"
"P.Bubenitschek"
_chemical_name_systematic
;
Diethyl 1,8-(o,o'-(2.2)paracyclophane)(3)ladderane-4,5-dicarboxylate
;
_chemical_name_common
;
Teaching Subset: Fundamental Chemistry
;
_cell_volume   2278.294
_exptl_crystal_colour 'colorless'
_exptl_crystal_description 'prism'
_diffrn_ambient_temperature 143.15
#These two values have been output from a single CSD field.
_refine_ls_R_factor_gt 0.068
_refine_ls_wR_factor_gt 0.068
_symmetry_cell_setting monoclinic
_symmetry_space_group_name_H-M 'P 21/n'
_symmetry_Int_Tables_number 14
loop_
_symmetry_equiv_pos_site_id
_symmetry_equiv_pos_as_xyz
1 x,y,z
2 1/2-x,1/2+y,1/2-z
3 -x,-y,-z
4 -1/2+x,-1/2-y,-1/2+z
_cell_length_a 7.4797
_cell_length_b 16.64
_cell_length_c 18.398
_cell_angle_alpha 90
_cell_angle_beta 95.76
_cell_angle_gamma 90
_cell_formula_units_Z 4
loop_
_atom_type_symbol
_atom_type_radius_bond
C 0.68
H 0.23
O 0.68
loop_
_atom_site_label
_atom_site_type_symbol
_atom_site_fract_x
_atom_site_fract_y
_atom_site_fract_z
O1 O 0.0517(4) 0.4780(2) 0.24130(13)
O2 O -0.4484(4) 0.4805(2) 0.3951(2)
O3 O -0.0844(3) 0.39189(15) 0.31179(12)
O4 O -0.3405(4) 0.5391(2) 0.2995(2)
C1 C 0.1285(5) 0.9146(2) 0.4653(2)
H1 H 0.1302(5) 0.9723(2) 0.4786(2)
H2 H 0.0045(5) 0.9007(2) 0.4454(2)
C2 C 0.2598(5) 0.9003(2) 0.4045(2)
H3 H 0.1924(5) 0.8747(2) 0.3615(2)
H4 H 0.3048(5) 0.9528(2) 0.3887(2)
C3 C 0.4174(5) 0.8479(2) 0.4309(2)
C4 C 0.4007(4) 0.7642(2) 0.4335(2)
C5 C 0.5228(4) 0.7207(2) 0.4803(2)
H5 H 0.5198(4) 0.6636(2) 0.4786(2)
C6 C 0.6490(4) 0.7587(2) 0.5295(2)
C7 C 0.6798(5) 0.8396(2) 0.5186(2)
H6 H 0.7790(5) 0.8654(2) 0.5453(2)
C8 C 0.5672(5) 0.8829(2) 0.4693(2)
H7 H 0.5924(5) 0.9380(2) 0.4613(2)
C9 C 0.7115(5) 0.7175(3) 0.6004(2)
H8 H 0.8259(5) 0.7420(3) 0.6211(2)
H9 H 0.7348(5) 0.6601(3) 0.5906(2)
C10 C 0.5691(5) 0.7236(3) 0.6583(2)
H10 H 0.5322(5) 0.6687(3) 0.6711(2)
H11 H 0.6271(5) 0.7490(3) 0.7033(2)
C11 C 0.4027(5) 0.7716(2) 0.6316(2)
C12 C 0.3928(5) 0.8542(2) 0.6401(2)
H12 H 0.4643(5) 0.8797(2) 0.6790(2)
C13 C 0.2802(5) 0.8996(2) 0.5926(2)
H13 H 0.2708(5) 0.9558(2) 0.6007(2)
C14 C 0.1801(5) 0.8650(2) 0.5330(2)
C15 C 0.1636(4) 0.7807(2) 0.5317(2)
C16 C 0.2721(5) 0.7362(2) 0.5824(2)
H14 H 0.2569(5) 0.6796(2) 0.5837(2)
C17 C 0.2232(4) 0.7268(2) 0.4059(2)
H15 H 0.1790(4) 0.7469(2) 0.3561(2)
C18 C 0.1953(5) 0.6357(2) 0.4129(2)
H16 H 0.3004(5) 0.6012(2) 0.4302(2)
C19 C 0.0534(4) 0.6027(2) 0.3551(2)
H17 H 0.0456(4) 0.6252(2) 0.3045(2)
C20 C 0.0171(5) 0.5126(2) 0.3653(2)
H18 H 0.1147(5) 0.4898(2) 0.4004(2)
C21 C -0.0038(5) 0.4611(2) 0.2985(2)
C22 C -0.0946(5) 0.3324(2) 0.2535(2)
H19 H -0.1010(5) 0.2779(2) 0.2748(2)
H20 H 0.0155(5) 0.3353(2) 0.2279(2)
C23 C -0.2556(6) 0.3460(3) 0.1999(2)
H21 H -0.2613(20) 0.3042(9) 0.1622(8)
H22 H -0.2465(18) 0.3988(7) 0.177(1)
H23 H -0.3646(6) 0.3440(16) 0.2253(3)
C24 C 0.0777(4) 0.7415(2) 0.4634(2)
H24 H -0.0296(4) 0.7719(2) 0.4414(2)
C25 C 0.0431(4) 0.6505(2) 0.4652(2)
H25 H 0.0518(4) 0.6224(2) 0.5135(2)
C26 C -0.0992(4) 0.6222(2) 0.4043(2)
H26 H -0.1948(4) 0.6611(2) 0.3855(2)
C27 C -0.1493(5) 0.5319(2) 0.4076(2)
H27 H -0.1355(5) 0.5104(2) 0.4586(2)
C28 C -0.3296(5) 0.5133(2) 0.3685(2)
C29 C -0.5109(6) 0.5298(3) 0.2548(3)
H28 H -0.4954(6) 0.4936(3) 0.2132(3)
H29 H -0.6006(6) 0.5056(3) 0.2843(3)
C30 C -0.5735(6) 0.6075(3) 0.2279(3)
H30 H -0.6828(20) 0.6007(3) 0.1943(11)
H31 H -0.4803(15) 0.6331(7) 0.2020(13)
H32 H -0.6000(33) 0.6414(6) 0.2690(3)
#END
