####################################################################### 
# 
# This file contains crystal structure data downloaded from the 
# Cambridge Structural Database (CSD) hosted by the Cambridge 
# Crystallographic Data Centre (CCDC).
# 
# Full information about CCDC data access policies and citation 
# guidelines are available at http://www.ccdc.cam.ac.uk/access/V1 
# 
# Audit and citation data items may have been added by the CCDC. 
# Please retain this information to preserve the provenance of 
# this file and to allow appropriate attribution of the data. 
# 
#######################################################################

data_1
_audit_block_doi                 10.5517/cc11n4f8
_database_code_depnum_ccdc_archive 'CCDC 972669'
loop_
_citation_id
_citation_doi
_citation_year
1 10.1002/anie.201311124 2014
_audit_update_record             
;
2013-11-19 deposited with the CCDC.	2024-07-14 downloaded from the CCDC.
;

_audit_creation_method           SHELXL-97
_chemical_name_systematic        
; 
 ? 
;
_chemical_name_common            ?
_chemical_melting_point          ?
_chemical_formula_moiety         ?
_chemical_formula_sum            'C39 H24 F6 N2 O4 S2 Zn'
_chemical_formula_weight         828.09

loop_
_atom_type_symbol
_atom_type_description
_atom_type_scat_dispersion_real
_atom_type_scat_dispersion_imag
_atom_type_scat_source
C C 0.0033 0.0016 'International Tables Vol C Tables 4.2.6.8 and 6.1.1.4'
H H 0.0000 0.0000 'International Tables Vol C Tables 4.2.6.8 and 6.1.1.4'
N N 0.0061 0.0033 'International Tables Vol C Tables 4.2.6.8 and 6.1.1.4'
O O 0.0106 0.0060 'International Tables Vol C Tables 4.2.6.8 and 6.1.1.4'
Zn Zn 0.2839 1.4301 'International Tables Vol C Tables 4.2.6.8 and 6.1.1.4'
S S 0.1246 0.1234 'International Tables Vol C Tables 4.2.6.8 and 6.1.1.4'
F F 0.0171 0.0103 'International Tables Vol C Tables 4.2.6.8 and 6.1.1.4'

_symmetry_cell_setting           Orthorhombic
_symmetry_space_group_name_H-M   P2(1)2(1)2(1)

loop_
_symmetry_equiv_pos_as_xyz
'x, y, z'
'-x+1/2, -y, z+1/2'
'-x, y+1/2, -z+1/2'
'x+1/2, -y+1/2, -z'

_cell_length_a                   7.1674(4)
_cell_length_b                   24.5523(13)
_cell_length_c                   29.5142(18)
_cell_angle_alpha                90.00
_cell_angle_beta                 90.00
_cell_angle_gamma                90.00
_cell_volume                     5193.8(5)
_cell_formula_units_Z            4
_cell_measurement_temperature    296(2)
_cell_measurement_reflns_used    2211
_cell_measurement_theta_min      2.65
_cell_measurement_theta_max      18.07

_exptl_crystal_description       Block
_exptl_crystal_colour            Colorless
_exptl_crystal_size_max          0.20
_exptl_crystal_size_mid          0.18
_exptl_crystal_size_min          0.12
_exptl_crystal_density_meas      ?
_exptl_crystal_density_diffrn    1.059
_exptl_crystal_density_method    'not measured'
_exptl_crystal_F_000             1680
_exptl_absorpt_coefficient_mu    0.606
_exptl_absorpt_correction_type   Multi-scan
_exptl_absorpt_correction_T_min  0.8884
_exptl_absorpt_correction_T_max  0.9309
_exptl_absorpt_process_details   ?

_exptl_special_details           
; 
 ? 
;

_diffrn_ambient_temperature      296(2)
_diffrn_radiation_wavelength     0.71073
_diffrn_radiation_type           MoK\a
_diffrn_radiation_source         'fine-focus sealed tube'
_diffrn_radiation_monochromator  graphite
_diffrn_measurement_device_type  'CCD area detector'
_diffrn_measurement_method       'phi and omega scans'
_diffrn_detector_area_resol_mean ?
_diffrn_standards_number         ?
_diffrn_standards_interval_count ?
_diffrn_standards_interval_time  ?
_diffrn_standards_decay_%        ?
_diffrn_reflns_number            22788
_diffrn_reflns_av_R_equivalents  0.0741
_diffrn_reflns_av_sigmaI/netI    0.1490
_diffrn_reflns_limit_h_min       -8
_diffrn_reflns_limit_h_max       7
_diffrn_reflns_limit_k_min       -23
_diffrn_reflns_limit_k_max       29
_diffrn_reflns_limit_l_min       -28
_diffrn_reflns_limit_l_max       35
_diffrn_reflns_theta_min         1.80
_diffrn_reflns_theta_max         25.00
_reflns_number_total             9149
_reflns_number_gt                5021
_reflns_threshold_expression     >2sigma(I)

_computing_data_collection       'Bruker SMART'
_computing_cell_refinement       'Bruker SMART'
_computing_data_reduction        'Bruker SAINT'
_computing_structure_solution    'SHELXS-97 (Sheldrick, 1990)'
_computing_structure_refinement  'SHELXL-97 (Sheldrick, 1997)'
_computing_molecular_graphics    'Bruker SHELXTL'
_computing_publication_material  'Bruker SHELXTL'

_refine_special_details          
; 
 Refinement of F^2^ against ALL reflections.  The weighted R-factor wR and 
 goodness of fit S are based on F^2^, conventional R-factors R are based 
 on F, with F set to zero for negative F^2^. The threshold expression of 
 F^2^ > 2sigma(F^2^) is used only for calculating R-factors(gt) etc. and is 
 not relevant to the choice of reflections for refinement.  R-factors based 
 on F^2^ are statistically about twice as large as those based on F, and R- 
 factors based on ALL data will be even larger. 
;

_refine_ls_structure_factor_coef Fsqd
_refine_ls_matrix_type           full
_refine_ls_weighting_scheme      calc
_refine_ls_weighting_details     
'calc w=1/[\s^2^(Fo^2^)+(0.0396P)^2^+0.0000P] where P=(Fo^2^+2Fc^2^)/3'
_atom_sites_solution_primary     direct
_atom_sites_solution_secondary   difmap
_atom_sites_solution_hydrogens   geom
_refine_ls_hydrogen_treatment    constr
_refine_ls_extinction_method     none
_refine_ls_extinction_coef       ?
_refine_ls_abs_structure_details 'Flack H D (1983), Acta Cryst. A39, 876-881'
_refine_ls_abs_structure_Flack   0.017(17)
_refine_ls_number_reflns         9149
_refine_ls_number_parameters     489
_refine_ls_number_restraints     0
_refine_ls_R_factor_all          0.1150
_refine_ls_R_factor_gt           0.0608
_refine_ls_wR_factor_ref         0.1614
_refine_ls_wR_factor_gt          0.1450
_refine_ls_goodness_of_fit_ref   0.967
_refine_ls_restrained_S_all      0.967
_refine_ls_shift/su_max          0.001
_refine_ls_shift/su_mean         0.000

loop_
_atom_site_label
_atom_site_type_symbol
_atom_site_fract_x
_atom_site_fract_y
_atom_site_fract_z
_atom_site_U_iso_or_equiv
_atom_site_adp_type
_atom_site_occupancy
_atom_site_symmetry_multiplicity
_atom_site_calc_flag
_atom_site_refinement_flags
_atom_site_disorder_assembly
_atom_site_disorder_group
C1 C 1.1672(9) 0.9656(3) 0.6987(2) 0.0625(16) Uani 1 1 d . . .
C2 C 1.2803(9) 0.9140(3) 0.7015(2) 0.0623(17) Uani 1 1 d . . .
C3 C 1.4391(10) 0.9100(3) 0.6755(2) 0.083(2) Uani 1 1 d . . .
H3 H 1.4713 0.9374 0.6552 0.100 Uiso 1 1 calc R . .
C4 C 1.5510(11) 0.8636(3) 0.6802(2) 0.093(2) Uani 1 1 d . . .
H4 H 1.6549 0.8598 0.6615 0.111 Uiso 1 1 calc R . .
C5 C 1.5116(9) 0.8217(2) 0.7126(2) 0.0632(17) Uani 1 1 d . . .
C6 C 1.3476(8) 0.8270(2) 0.7376(2) 0.0652(17) Uani 1 1 d . . .
H6 H 1.3138 0.8000 0.7582 0.078 Uiso 1 1 calc R . .
C7 C 1.2348(8) 0.8723(2) 0.7319(2) 0.0601(15) Uani 1 1 d . . .
H7 H 1.1255 0.8750 0.7488 0.072 Uiso 1 1 calc R . .
C8 C 1.6374(8) 0.7747(3) 0.7191(2) 0.0680(18) Uani 1 1 d . . .
C9 C 1.8266(10) 0.7783(3) 0.7106(3) 0.087(2) Uani 1 1 d . . .
H9 H 1.8756 0.8107 0.6994 0.104 Uiso 1 1 calc R . .
C10 C 1.9443(10) 0.7348(3) 0.7184(3) 0.088(2) Uani 1 1 d . . .
H10 H 2.0717 0.7389 0.7135 0.105 Uiso 1 1 calc R . .
C11 C 1.8764(9) 0.6851(3) 0.7333(2) 0.0714(17) Uani 1 1 d . . .
C12 C 1.6882(9) 0.6813(3) 0.7426(3) 0.093(2) Uani 1 1 d . . .
H12 H 1.6392 0.6486 0.7532 0.112 Uiso 1 1 calc R . .
C13 C 1.5711(10) 0.7257(3) 0.7363(3) 0.092(2) Uani 1 1 d . . .
H13 H 1.4455 0.7226 0.7438 0.110 Uiso 1 1 calc R . .
C14 C 2.0044(12) 0.6368(3) 0.7399(3) 0.082(2) Uani 1 1 d . . .
C15 C 0.5601(10) 1.0431(3) 0.7839(2) 0.078(2) Uani 1 1 d . . .
H15 H 0.5707 1.0800 0.7770 0.094 Uiso 1 1 calc R . .
C16 C 0.4013(10) 1.0265(3) 0.8067(2) 0.077(2) Uani 1 1 d . . .
H16 H 0.3090 1.0513 0.8146 0.093 Uiso 1 1 calc R . .
C17 C 0.3833(8) 0.9713(3) 0.81747(18) 0.0582(16) Uani 1 1 d . . .
C18 C 0.5300(9) 0.9374(3) 0.8048(2) 0.0649(18) Uani 1 1 d . . .
H18 H 0.5278 0.9007 0.8127 0.078 Uiso 1 1 calc R . .
C19 C 0.6786(9) 0.9581(3) 0.78053(19) 0.0603(16) Uani 1 1 d . . .
H19 H 0.7700 0.9342 0.7703 0.072 Uiso 1 1 calc R . .
C20 C 0.2221(9) 0.9493(3) 0.84202(18) 0.0592(17) Uani 1 1 d . . .
C21 C 0.1720(9) 0.8969(3) 0.84921(18) 0.0597(16) Uani 1 1 d . . .
H21 H 0.2376 0.8673 0.8377 0.072 Uiso 1 1 calc R . .
C22 C 0.0118(8) 0.8919(3) 0.87566(18) 0.0519(15) Uani 1 1 d . . .
C23 C -0.0605(9) 0.9389(3) 0.8887(2) 0.0681(18) Uani 1 1 d . . .
C24 C -0.2364(10) 0.9508(3) 0.9162(3) 0.097(3) Uani 1 1 d . . .
H24A H -0.3318 0.9251 0.9083 0.145 Uiso 1 1 calc R . .
H24B H -0.2792 0.9870 0.9095 0.145 Uiso 1 1 calc R . .
H24C H -0.2089 0.9480 0.9479 0.145 Uiso 1 1 calc R . .
C25 C -0.0592(9) 0.8382(2) 0.89049(19) 0.0598(17) Uani 1 1 d . . .
C26 C -0.1213(11) 0.7969(3) 0.8557(2) 0.075(2) Uani 1 1 d . . .
C27 C -0.2206(12) 0.7517(4) 0.8827(2) 0.084(2) Uani 1 1 d . . .
C28 C -0.1626(9) 0.7637(3) 0.9317(2) 0.0680(18) Uani 1 1 d . . .
C29 C -0.0785(8) 0.8190(2) 0.93231(19) 0.0493(14) Uani 1 1 d . . .
C30 C -0.0226(8) 0.8449(2) 0.9756(2) 0.0583(17) Uani 1 1 d . . .
C31 C -0.1386(8) 0.8552(2) 1.0149(2) 0.0575(16) Uani 1 1 d . . .
H31 H -0.2636 0.8450 1.0157 0.069 Uiso 1 1 calc R . .
C32 C -0.0561(8) 0.8803(2) 1.0503(2) 0.0588(16) Uani 1 1 d . . .
C33 C 0.1566(8) 0.8625(3) 0.98289(19) 0.0639(18) Uani 1 1 d . . .
C34 C 0.3280(9) 0.8576(4) 0.9524(2) 0.098(3) Uani 1 1 d . . .
H34A H 0.3062 0.8303 0.9298 0.146 Uiso 1 1 calc R . .
H34B H 0.4343 0.8476 0.9703 0.146 Uiso 1 1 calc R . .
H34C H 0.3512 0.8920 0.9379 0.146 Uiso 1 1 calc R . .
C35 C -0.1338(8) 0.8966(2) 1.09281(19) 0.0540(15) Uani 1 1 d . . .
C36 C -0.3210(9) 0.8899(3) 1.1031(2) 0.083(2) Uani 1 1 d . . .
H36 H -0.4000 0.8730 1.0824 0.100 Uiso 1 1 calc R . .
C37 C -0.3902(9) 0.9082(3) 1.1437(2) 0.076(2) Uani 1 1 d . . .
H37 H -0.5143 0.9009 1.1507 0.091 Uiso 1 1 calc R . .
C38 C -0.1095(10) 0.9419(3) 1.1630(2) 0.0714(19) Uani 1 1 d . . .
H38 H -0.0348 0.9598 1.1841 0.086 Uiso 1 1 calc R . .
C39 C -0.0280(9) 0.9245(3) 1.1243(2) 0.075(2) Uani 1 1 d . . .
H39 H 0.0977 0.9313 1.1189 0.090 Uiso 1 1 calc R . .
F1 F 0.0264(8) 0.7745(2) 0.83482(17) 0.139(2) Uani 1 1 d . . .
F2 F -0.2250(9) 0.8174(2) 0.82466(16) 0.150(2) Uani 1 1 d . . .
F3 F -0.1935(11) 0.70392(19) 0.86971(15) 0.153(3) Uani 1 1 d . . .
F4 F -0.4073(8) 0.7628(3) 0.87939(17) 0.149(2) Uani 1 1 d . . .
F5 F -0.0388(7) 0.72614(15) 0.94690(15) 0.1004(14) Uani 1 1 d . . .
F6 F -0.3125(6) 0.75837(15) 0.96005(13) 0.0961(14) Uani 1 1 d . . .
N1 N 0.6962(6) 1.0112(2) 0.77120(16) 0.0573(12) Uani 1 1 d . . .
N2 N -0.2903(7) 0.93525(19) 1.17317(15) 0.0555(13) Uani 1 1 d . . .
O1 O 1.0336(5) 0.96778(15) 0.72671(15) 0.0666(11) Uani 1 1 d . . .
O2 O 1.2095(6) 1.0014(2) 0.67080(17) 0.0853(15) Uani 1 1 d . . .
O3 O 1.9227(6) 0.59389(17) 0.74899(16) 0.0828(14) Uani 1 1 d . . .
O4 O 2.1756(7) 0.6437(2) 0.7380(2) 0.1049(17) Uani 1 1 d . . .
S1 S 0.0617(3) 0.99323(7) 0.86713(6) 0.0780(5) Uani 1 1 d . . .
S2 S 0.1750(2) 0.89170(8) 1.03657(5) 0.0706(5) Uani 1 1 d . . .
Zn1 Zn 0.90928(9) 1.03741(3) 0.73117(2) 0.0576(2) Uani 1 1 d . . .

loop_
_atom_site_aniso_label
_atom_site_aniso_U_11
_atom_site_aniso_U_22
_atom_site_aniso_U_33
_atom_site_aniso_U_23
_atom_site_aniso_U_13
_atom_site_aniso_U_12
C1 0.054(4) 0.057(4) 0.076(5) -0.003(4) 0.002(3) 0.005(4)
C2 0.060(4) 0.054(4) 0.073(4) 0.010(3) 0.001(3) -0.001(3)
C3 0.077(5) 0.069(5) 0.104(6) 0.027(4) 0.030(4) 0.016(4)
C4 0.086(6) 0.086(5) 0.105(6) 0.008(5) 0.035(5) 0.001(5)
C5 0.065(4) 0.043(4) 0.081(5) 0.010(3) 0.002(3) -0.006(3)
C6 0.063(4) 0.053(4) 0.080(5) 0.008(4) 0.017(4) -0.002(3)
C7 0.055(3) 0.057(4) 0.069(4) 0.015(4) 0.006(3) -0.010(3)
C8 0.056(4) 0.064(4) 0.084(5) 0.011(4) 0.004(3) 0.005(3)
C9 0.061(4) 0.060(5) 0.141(7) 0.024(4) 0.004(4) -0.001(4)
C10 0.058(4) 0.079(5) 0.126(7) 0.003(5) 0.014(4) 0.010(4)
C11 0.066(4) 0.053(4) 0.096(5) -0.006(4) -0.003(4) 0.004(3)
C12 0.059(4) 0.064(5) 0.156(8) 0.003(5) -0.003(5) -0.006(4)
C13 0.057(4) 0.060(4) 0.158(7) 0.023(5) -0.003(5) 0.007(4)
C14 0.077(5) 0.069(5) 0.099(6) -0.017(5) 0.002(4) 0.015(5)
C15 0.080(5) 0.063(4) 0.091(5) 0.027(4) 0.013(4) 0.001(4)
C16 0.071(4) 0.061(4) 0.101(5) 0.019(4) 0.025(4) 0.011(4)
C17 0.058(4) 0.063(4) 0.054(3) 0.011(3) 0.001(3) -0.009(4)
C18 0.069(4) 0.048(4) 0.078(5) 0.011(3) 0.015(3) -0.001(3)
C19 0.064(4) 0.050(4) 0.067(4) 0.008(3) 0.008(3) 0.003(3)
C20 0.064(4) 0.069(5) 0.044(3) 0.000(3) 0.004(3) 0.010(3)
C21 0.072(4) 0.052(4) 0.055(4) 0.008(3) 0.011(3) -0.006(3)
C22 0.062(4) 0.055(4) 0.038(3) 0.003(3) 0.005(3) -0.008(3)
C23 0.051(4) 0.080(5) 0.073(4) 0.023(4) 0.012(3) -0.006(4)
C24 0.095(5) 0.078(5) 0.118(6) 0.008(5) 0.046(5) 0.014(4)
C25 0.071(4) 0.068(4) 0.041(4) 0.004(3) 0.011(3) 0.003(4)
C26 0.092(6) 0.086(5) 0.047(4) -0.006(4) 0.007(4) -0.006(5)
C27 0.093(6) 0.098(7) 0.060(5) -0.007(5) -0.001(4) -0.013(5)
C28 0.054(4) 0.076(5) 0.075(5) -0.004(4) 0.013(3) 0.003(4)
C29 0.043(3) 0.045(3) 0.060(4) -0.011(3) 0.006(3) -0.003(3)
C30 0.049(4) 0.049(4) 0.077(5) 0.009(3) 0.007(3) -0.003(3)
C31 0.039(3) 0.068(4) 0.066(4) 0.001(3) 0.008(3) -0.003(3)
C32 0.048(4) 0.064(4) 0.065(4) -0.009(3) -0.005(3) -0.008(3)
C33 0.054(4) 0.086(5) 0.051(4) 0.008(3) 0.002(3) 0.003(4)
C34 0.047(4) 0.160(8) 0.086(5) 0.005(5) 0.020(4) 0.016(5)
C35 0.051(4) 0.060(4) 0.051(4) -0.011(3) 0.006(3) 0.001(3)
C36 0.052(4) 0.110(6) 0.087(5) -0.048(5) -0.004(4) -0.020(4)
C37 0.049(4) 0.097(5) 0.082(5) -0.045(4) 0.009(4) -0.015(4)
C38 0.066(4) 0.084(5) 0.064(4) -0.028(4) -0.001(4) -0.023(4)
C39 0.051(4) 0.108(6) 0.066(5) -0.026(4) -0.003(3) -0.006(4)
F1 0.152(5) 0.141(4) 0.124(4) -0.056(3) 0.082(4) -0.035(4)
F2 0.240(7) 0.118(4) 0.093(3) 0.004(3) -0.091(4) -0.024(5)
F3 0.312(9) 0.059(3) 0.087(3) -0.021(3) 0.026(4) -0.022(4)
F4 0.099(4) 0.230(6) 0.117(4) 0.000(4) -0.010(3) -0.043(5)
F5 0.115(4) 0.065(3) 0.121(3) 0.006(2) -0.014(3) 0.013(3)
F6 0.101(3) 0.082(3) 0.105(3) -0.020(2) 0.045(3) -0.037(2)
N1 0.050(3) 0.056(3) 0.066(3) 0.017(3) 0.004(3) 0.008(2)
N2 0.052(3) 0.059(3) 0.056(3) -0.024(3) 0.011(2) -0.004(3)
O1 0.062(2) 0.051(2) 0.086(3) 0.009(3) 0.015(2) 0.010(2)
O2 0.070(3) 0.070(3) 0.116(4) 0.044(3) 0.019(3) 0.013(3)
O3 0.074(3) 0.045(2) 0.130(4) -0.003(2) -0.034(3) -0.004(3)
O4 0.069(3) 0.077(3) 0.169(5) 0.006(4) 0.012(4) 0.013(3)
S1 0.0770(12) 0.0634(11) 0.0935(13) 0.0100(10) 0.0257(11) 0.0030(10)
S2 0.0489(9) 0.0964(14) 0.0663(11) -0.0075(10) -0.0015(8) -0.0065(10)
Zn1 0.0513(4) 0.0530(4) 0.0684(5) 0.0185(4) -0.0007(4) -0.0028(4)

_geom_special_details            
; 
 All esds (except the esd in the dihedral angle between two l.s. planes) 
 are estimated using the full covariance matrix.  The cell esds are taken 
 into account individually in the estimation of esds in distances, angles 
 and torsion angles; correlations between esds in cell parameters are only 
 used when they are defined by crystal symmetry.  An approximate (isotropic) 
 treatment of cell esds is used for estimating esds involving l.s. planes. 
;

loop_
_geom_bond_atom_site_label_1
_geom_bond_atom_site_label_2
_geom_bond_distance
_geom_bond_site_symmetry_2
_geom_bond_publ_flag
C1 O2 1.243(7) . ?
C1 O1 1.267(7) . ?
C1 C2 1.505(9) . ?
C2 C3 1.377(9) . ?
C2 C7 1.402(8) . ?
C3 C4 1.399(9) . ?
C3 H3 0.9300 . ?
C4 C5 1.433(9) . ?
C4 H4 0.9300 . ?
C5 C6 1.394(8) . ?
C5 C8 1.477(8) . ?
C6 C7 1.385(8) . ?
C6 H6 0.9300 . ?
C7 H7 0.9300 . ?
C8 C9 1.382(9) . ?
C8 C13 1.389(9) . ?
C9 C10 1.381(9) . ?
C9 H9 0.9300 . ?
C10 C11 1.385(9) . ?
C10 H10 0.9300 . ?
C11 C12 1.380(8) . ?
C11 C14 1.511(9) . ?
C12 C13 1.389(9) . ?
C12 H12 0.9300 . ?
C13 H13 0.9300 . ?
C14 O4 1.240(8) . ?
C14 O3 1.236(9) . ?
C15 N1 1.306(8) . ?
C15 C16 1.384(9) . ?
C15 H15 0.9300 . ?
C16 C17 1.397(8) . ?
C16 H16 0.9300 . ?
C17 C18 1.392(8) . ?
C17 C20 1.466(8) . ?
C18 C19 1.380(8) . ?
C18 H18 0.9300 . ?
C19 N1 1.338(7) . ?
C19 H19 0.9300 . ?
C20 C21 1.354(8) . ?
C20 S1 1.741(6) . ?
C21 C22 1.393(8) . ?
C21 H21 0.9300 . ?
C22 C23 1.321(8) . ?
C22 C25 1.481(8) . ?
C23 C24 1.527(9) . ?
C23 S1 1.719(6) . ?
C24 H24A 0.9600 . ?
C24 H24B 0.9600 . ?
C24 H24C 0.9600 . ?
C25 C29 1.328(7) . ?
C25 C26 1.510(9) . ?
C26 F2 1.283(8) . ?
C26 F1 1.343(8) . ?
C26 C27 1.541(10) . ?
C27 F3 1.249(8) . ?
C27 F4 1.369(9) . ?
C27 C28 1.534(9) . ?
C28 F5 1.356(7) . ?
C28 F6 1.367(7) . ?
C28 C29 1.486(8) . ?
C29 C30 1.482(8) . ?
C30 C33 1.372(8) . ?
C30 C31 1.450(8) . ?
C31 C32 1.349(7) . ?
C31 H31 0.9300 . ?
C32 C35 1.429(8) . ?
C32 S2 1.728(6) . ?
C33 C34 1.528(8) . ?
C33 S2 1.744(6) . ?
C34 H34A 0.9600 . ?
C34 H34B 0.9600 . ?
C34 H34C 0.9600 . ?
C35 C36 1.386(8) . ?
C35 C39 1.382(8) . ?
C36 C37 1.374(8) . ?
C36 H36 0.9300 . ?
C37 N2 1.307(7) . ?
C37 H37 0.9300 . ?
C38 N2 1.340(8) . ?
C38 C39 1.353(8) . ?
C38 H38 0.9300 . ?
C39 H39 0.9300 . ?
N1 Zn1 2.035(5) . ?
N2 Zn1 2.027(4) 2_575 ?
O1 Zn1 1.932(4) . ?
O3 Zn1 1.928(4) 3_846 ?
Zn1 O3 1.928(4) 3_856 ?
Zn1 N2 2.027(4) 2_574 ?

loop_
_geom_angle_atom_site_label_1
_geom_angle_atom_site_label_2
_geom_angle_atom_site_label_3
_geom_angle
_geom_angle_site_symmetry_1
_geom_angle_site_symmetry_3
_geom_angle_publ_flag
O2 C1 O1 1