####################################################################### 
# 
# This file contains crystal structure data downloaded from the 
# Cambridge Structural Database (CSD) hosted by the Cambridge 
# Crystallographic Data Centre (CCDC).
# 
# Full information about CCDC data access policies and citation 
# guidelines are available at http://www.ccdc.cam.ac.uk/access/V1 
# 
# Audit and citation data items may have been added by the CCDC. 
# Please retain this information to preserve the provenance of 
# this file and to allow appropriate attribution of the data. 
# 
#######################################################################

data_3
_audit_block_doi                 10.5517/cc11qzxn
_database_code_depnum_ccdc_archive 'CCDC 975412'
loop_
_citation_id
_citation_doi
_citation_year
1 10.1016/j.ica.2014.05.037 2014
_audit_update_record             
;
2013-12-05 deposited with the CCDC.	2024-07-14 downloaded from the CCDC.
;
_audit_creation_date             2013-12-05
_audit_creation_method           
;
Olex2 1.2
(compiled 2013.11.15 svn.r2834 for OlexSys, GUI svn.r4715)
;
_shelxl_version_number           2013-4
_chemical_name_common            ?
_chemical_name_systematic        
;
 ?
;
_chemical_formula_moiety         'C83 H89 Ag3 P4 S3, 2(C7 H8)'
_chemical_formula_sum            'C97 H105 Ag3 P4 S3'
_chemical_formula_weight         1814.47
_chemical_melting_point          ?
loop_
_atom_type_symbol
_atom_type_description
_atom_type_scat_dispersion_real
_atom_type_scat_dispersion_imag
_atom_type_scat_source
C C 0.0033 0.0016 'International Tables Vol C Tables 4.2.6.8 and 6.1.1.4'
H H 0.0000 0.0000 'International Tables Vol C Tables 4.2.6.8 and 6.1.1.4'
P P 0.1023 0.0942 'International Tables Vol C Tables 4.2.6.8 and 6.1.1.4'
S S 0.1246 0.1234 'International Tables Vol C Tables 4.2.6.8 and 6.1.1.4'
Ag Ag -0.8971 1.1015 'International Tables Vol C Tables 4.2.6.8 and 6.1.1.4'

_shelx_space_group_comment       
;
The symmetry employed for this shelxl refinement is uniquely defined
by the following loop, which should always be used as a source of
symmetry information in preference to the above space-group names.
They are only intended as comments.
;
_space_group_crystal_system      triclinic
_space_group_IT_number           2
_space_group_name_H-M_alt        'P -1'
_space_group_name_Hall           '-P 1'
loop_
_space_group_symop_operation_xyz
'x, y, z'
'-x, -y, -z'

_cell_length_a                   16.2893(4)
_cell_length_b                   16.7991(5)
_cell_length_c                   17.4829(5)
_cell_angle_alpha                86.419(2)
_cell_angle_beta                 87.725(2)
_cell_angle_gamma                66.905(2)
_cell_volume                     4391.5(2)
_cell_formula_units_Z            2
_cell_measurement_reflns_used    ?
_cell_measurement_temperature    150.15
_cell_measurement_theta_max      ?
_cell_measurement_theta_min      ?
_shelx_estimated_absorpt_T_max   ?
_shelx_estimated_absorpt_T_min   ?
_exptl_absorpt_coefficient_mu    0.852
_exptl_absorpt_correction_T_max  ?
_exptl_absorpt_correction_T_min  ?
_exptl_absorpt_correction_type   none
_exptl_absorpt_process_details   ?
_exptl_crystal_colour            colourless
_exptl_crystal_colour_primary    colourless
_exptl_crystal_density_diffrn    1.372
_exptl_crystal_density_meas      ?
_exptl_crystal_density_method    ?
_exptl_crystal_description       plate
_exptl_crystal_F_000             1872
_exptl_crystal_size_max          0.21
_exptl_crystal_size_mid          0.14
_exptl_crystal_size_min          0.06
_exptl_special_details           
;
 ?
;
_exptl_transmission_factor_max   ?
_exptl_transmission_factor_min   ?
_diffrn_reflns_av_R_equivalents  0.0294
_diffrn_reflns_av_unetI/netI     0.0634
_diffrn_reflns_Laue_measured_fraction_full 0.965
_diffrn_reflns_Laue_measured_fraction_max 0.837
_diffrn_reflns_limit_h_max       24
_diffrn_reflns_limit_h_min       -22
_diffrn_reflns_limit_k_max       24
_diffrn_reflns_limit_k_min       -25
_diffrn_reflns_limit_l_max       22
_diffrn_reflns_limit_l_min       -26
_diffrn_reflns_number            56549
_diffrn_reflns_point_group_measured_fraction_full 0.965
_diffrn_reflns_point_group_measured_fraction_max 0.837
_diffrn_reflns_theta_full        25.242
_diffrn_reflns_theta_max         33.169
_diffrn_reflns_theta_min         1.939
_diffrn_ambient_temperature      150.15
_diffrn_detector                 Pilatus300K
_diffrn_detector_area_resol_mean 5.81
_diffrn_detector_type            DECTRIS
_diffrn_measured_fraction_theta_full 0.965
_diffrn_measured_fraction_theta_max 0.837
_diffrn_measurement_device       '4-circle goniometer'
_diffrn_measurement_device_type  'Stoe StadiVari'
_diffrn_measurement_method       'rotation method'
_diffrn_radiation_collimation    '0.3 mm diameter, monocapillary'
_diffrn_radiation_monochromator  'plane graphite'
_diffrn_radiation_polarisn_norm  0
_diffrn_radiation_probe          x-ray
_diffrn_radiation_type           MoK\a
_diffrn_radiation_wavelength     0.71073
_diffrn_source                   'Mo GeniX 3D HF'
_diffrn_source_current           1.000
_diffrn_source_power             0.050
_diffrn_source_target            Mo
_diffrn_source_type              'microfocus sealed X-ray tube'
_diffrn_source_voltage           50
_reflns_Friedel_coverage         0.000
_reflns_Friedel_fraction_full    .
_reflns_Friedel_fraction_max     .
_reflns_number_gt                18087
_reflns_number_total             28083
_reflns_special_details          
;
 Reflections were merged by SHELXL according to the crystal
 class for the calculation of statistics and refinement.
 
 _reflns_Friedel_fraction is defined as the number of unique
 Friedel pairs measured divided by the number that would be
 possible theoretically, ignoring centric projections and
 systematic absences.
;
_reflns_threshold_expression     'I > 2\s(I)'
_computing_cell_refinement       ?
_computing_data_collection       ?
_computing_data_reduction        ?
_computing_molecular_graphics    'Olex2 (Dolomanov et al., 2009)'
_computing_publication_material  'Olex2 (Dolomanov et al., 2009)'
_computing_structure_refinement  'ShelXL (Sheldrick, 2008)'
_computing_structure_solution    'ShelXS-2013 (Sheldrick, 2008)'
_refine_diff_density_max         0.841
_refine_diff_density_min         -0.440
_refine_diff_density_rms         0.067
_refine_ls_extinction_coef       .
_refine_ls_extinction_method     none
_refine_ls_goodness_of_fit_ref   0.853
_refine_ls_hydrogen_treatment    mixed
_refine_ls_matrix_type           full
_refine_ls_number_parameters     934
_refine_ls_number_reflns         28083
_refine_ls_number_restraints     0
_refine_ls_R_factor_all          0.0679
_refine_ls_R_factor_gt           0.0339
_refine_ls_restrained_S_all      0.853
_refine_ls_shift/su_max          0.007
_refine_ls_shift/su_mean         0.000
_refine_ls_structure_factor_coef Fsqd
_refine_ls_weighting_details     
'w=1/[\s^2^(Fo^2^)+(0.0244P)^2^] where P=(Fo^2^+2Fc^2^)/3'
_refine_ls_weighting_scheme      calc
_refine_ls_wR_factor_gt          0.0608
_refine_ls_wR_factor_ref         0.0675
_refine_special_details          
;
 ?
;
_olex2_refinement_description    
;
1. Fixed Uiso
 At 1.2 times of:
  All C(H) groups, All C(H,H) groups
 At 1.5 times of:
  All C(H,H,H) groups
2. Others
 Fixed Sof: C84A(0.5) H84A(0.5) H84B(0.5) H84C(0.5) C85A(0.5) C86A(0.5)
 H86A(0.5) C87A(0.5) H87A(0.5) C88A(0.5) H88A(0.5) C89A(0.5) H89A(0.5)
 C90A(0.5) H90A(0.5) C84B(0.5) H84D(0.5) H84E(0.5) H84F(0.5) C85B(0.5)
 C86B(0.5) H86B(0.5) C87B(0.5) H87B(0.5) C88B(0.5) H88B(0.5) C89B(0.5)
 H89B(0.5) C90B(0.5) H90B(0.5)
3.a Secondary CH2 refined with riding coordinates:
 C13(H13A,H13B), C14(H14A,H14B), C27(H27A,H27B), C28(H28A,H28B), C41(H41A,
 H41B), C42(H42A,H42B), C55(H55A,H55B), C56(H56A,H56B)
3.b Aromatic/amide H refined with riding coordinates:
 C2(H2), C3(H3), C4(H4), C5(H5), C6(H6), C8(H8), C9(H9), C10(H10), C11(H11),
 C12(H12), C16(H16), C17(H17), C18(H18), C19(H19), C20(H20), C22(H22), C23(H23),
  C24(H24), C25(H25), C26(H26), C30(H30), C31(H31), C32(H32), C33(H33),
 C34(H34), C36(H36), C37(H37), C38(H38), C39(H39), C40(H40), C44(H44), C45(H45),
  C46(H46), C47(H47), C48(H48), C50(H50), C51(H51), C52(H52), C53(H53),
 C54(H54), C59(H59), C61(H61), C68(H68), C70(H70), C77(H77), C79(H79),
 C86A(H86A), C87A(H87A), C88A(H88A), C89A(H89A), C90A(H90A), C86B(H86B),
 C87B(H87B), C88B(H88B), C89B(H89B), C90B(H90B), C93(H93), C94(H94), C95(H95),
 C96(H96), C97(H97)
3.c Idealised Me refined as rotating group:
 C63(H63A,H63B,H63C), C64(H64A,H64B,H64C), C65(H65A,H65B,H65C), C72(H72A,H72B,
 H72C), C73(H73A,H73B,H73C), C74(H74A,H74B,H74C), C81(H81A,H81B,H81C), C82(H82A,
 H82B,H82C), C83(H83A,H83B,H83C), C84A(H84A,H84B,H84C), C84B(H84D,H84E,H84F),
 C91(H91A,H91B,H91C)
;
_atom_sites_solution_hydrogens   geom
_atom_sites_solution_primary     direct
_atom_sites_solution_secondary   ?
loop_
_atom_site_label
_atom_site_type_symbol
_atom_site_fract_x
_atom_site_fract_y
_atom_site_fract_z
_atom_site_U_iso_or_equiv
_atom_site_adp_type
_atom_site_occupancy
_atom_site_site_symmetry_order
_atom_site_calc_flag
_atom_site_refinement_flags_posn
_atom_site_refinement_flags_adp
_atom_site_refinement_flags_occupancy
_atom_site_disorder_assembly
_atom_site_disorder_group
Ag1 Ag 0.77904(2) 0.07106(2) 0.14922(2) 0.03221(4) Uani 1 1 d . . . . .
Ag2 Ag 0.60357(2) 0.29885(2) 0.20186(2) 0.03110(4) Uani 1 1 d . . . . .
Ag3 Ag 0.73149(2) 0.09990(2) 0.39054(2) 0.03047(4) Uani 1 1 d . . . . .
S1 S 0.72035(4) 0.22555(4) 0.10260(3) 0.03260(11) Uani 1 1 d . . . . .
S2 S 0.84658(4) 0.04202(4) 0.27879(3) 0.03146(11) Uani 1 1 d . . . . .
S3 S 0.59986(4) 0.19271(4) 0.30620(3) 0.03301(11) Uani 1 1 d . . . . .
P1 P 0.77354(3) 0.12101(4) 0.51875(3) 0.02639(10) Uani 1 1 d . . . . .
P2 P 0.71244(3) -0.04593(3) 0.42098(3) 0.02722(10) Uani 1 1 d . . . . .
P3 P 0.81842(4) -0.04608(4) 0.06126(3) 0.03048(11) Uani 1 1 d . . . . .
P4 P 0.49932(4) 0.44823(4) 0.19426(3) 0.03034(11) Uani 1 1 d . . . . .
C1 C 0.69369(14) 0.10307(14) 0.58670(11) 0.0288(4) Uani 1 1 d . . . . .
C2 C 0.60358(14) 0.15000(15) 0.57268(13) 0.0326(4) Uani 1 1 d . . . . .
H2 H 0.5863 0.1904 0.5299 0.039 Uiso 1 1 calc R . . . .
C3 C 0.53853(16) 0.13842(16) 0.62056(14) 0.0383(5) Uani 1 1 d . . . . .
H3 H 0.4772 0.1716 0.6110 0.046 Uiso 1 1 calc R . . . .
C4 C 0.56302(17) 0.07889(17) 0.68172(14) 0.0411(6) Uani 1 1 d . . . . .
H4 H 0.5185 0.0704 0.7139 0.049 Uiso 1 1 calc R . . . .
C5 C 0.65235(18) 0.03138(17) 0.69645(13) 0.0408(5) Uani 1 1 d . . . . .
H5 H 0.6690 -0.0095 0.7389 0.049 Uiso 1 1 calc R . . . .
C6 C 0.71821(16) 0.04325(16) 0.64903(12) 0.0351(5) Uani 1 1 d . . . . .
H6 H 0.7795 0.0106 0.6593 0.042 Uiso 1 1 calc R . . . .
C7 C 0.77962(13) 0.21932(14) 0.55417(12) 0.0305(4) Uani 1 1 d . . . . .
C8 C 0.77609(15) 0.28703(16) 0.50335(14) 0.0371(5) Uani 1 1 d . . . . .
H8 H 0.7709 0.2826 0.4500 0.045 Uiso 1 1 calc R . . . .
C9 C 0.7802(2) 0.36141(18) 0.53010(18) 0.0505(7) Uani 1 1 d . . . . .
H9 H 0.7772 0.4079 0.4950 0.061 Uiso 1 1 calc R . . . .
C10 C 0.78848(19) 0.36817(19) 0.60714(18) 0.0505(7) Uani 1 1 d . . . . .
H10 H 0.7915 0.4192 0.6251 0.061 Uiso 1 1 calc R . . . .
C11 C 0.79241(17) 0.30141(19) 0.65797(16) 0.0456(6) Uani 1 1 d . . . . .
H11 H 0.7982 0.3061 0.7112 0.055 Uiso 1 1 calc R . . . .
C12 C 0.78790(15) 0.22705(16) 0.63201(13) 0.0362(5) Uani 1 1 d . . . . .
H12 H 0.7905 0.1810 0.6675 0.043 Uiso 1 1 calc R . . . .
C13 C 0.88143(13) 0.03637(14) 0.54631(12) 0.0290(4) Uani 1 1 d . . . . .
H13A H 0.8974 0.0473 0.5976 0.035 Uiso 1 1 calc R . . . .
H13B H 0.8765 -0.0207 0.5496 0.035 Uiso 1 1 calc R . . . .
C14 C 0.95502(13) 0.03422(14) 0.48829(12) 0.0305(4) Uani 1 1 d . . . . .
H14A H 0.9397 0.0219 0.4373 0.037 Uiso 1 1 calc R . . . .
H14B H 0.9588 0.0917 0.4840 0.037 Uiso 1 1 calc R . . . .
C15 C 0.69201(14) -0.09464(14) 0.33670(12) 0.0315(4) Uani 1 1 d . . . . .
C16 C 0.66090(15) -0.04202(16) 0.27039(13) 0.0354(5) Uani 1 1 d . . . . .
H16 H 0.6523 0.0173 0.2695 0.043 Uiso 1 1 calc R . . . .
C17 C 0.64239(17) -0.07555(19) 0.20565(14) 0.0429(6) Uani 1 1 d . . . . .
H17 H 0.6211 -0.0392 0.1609 0.052 Uiso 1 1 calc R . . . .
C18 C 0.65493(18) -0.1617(2) 0.20650(16) 0.0482(6) Uani 1 1 d . . . . .
H18 H 0.6423 -0.1847 0.1622 0.058 Uiso 1 1 calc R . . . .
C19 C 0.68578(19) -0.21464(19) 0.27148(18) 0.0497(7) Uani 1 1 d . . . . .
H19 H 0.6944 -0.2740 0.2719 0.060 Uiso 1 1 calc R . . . .
C20 C 0.70432(17) -0.18142(16) 0.33631(15) 0.0413(5) Uani 1 1 d . . . . .
H20 H 0.7256 -0.2183 0.3808 0.050 Uiso 1 1 calc R . . . .
C21 C 0.81580(14) -0.12811(14) 0.45894(13) 0.0313(4) Uani 1 1 d . . . . .
C22 C 0.82305(16) -0.16454(16) 0.53345(14) 0.0398(5) Uani 1 1 d . . . . .
H22 H 0.7711 -0.1515 0.5650 0.048 Uiso 1 1 calc R . . . .
C23 C 0.90516(18) -0.21960(19) 0.56199(17) 0.0494(6) Uani 1 1 d . . . . .
H23 H 0.9092 -0.2439 0.6129 0.059 Uiso 1 1 calc R . . . .
C24 C 0.98145(17) -0.23928(19) 0.51635(18) 0.0518(7) Uani 1 1 d . . . . .
H24 H 1.0378 -0.2769 0.5360 0.062 Uiso 1 1 calc R . . . .
C25 C 0.97532(16) -0.20428(18) 0.44289(18) 0.0491(7) Uani 1 1 d . . . . .
H25 H 1.0276 -0.2182 0.4116 0.059 Uiso 1 1 calc R . . . .
C26 C 0.89347(16) -0.14863(16) 0.41361(15) 0.0402(5) Uani 1 1 d . . . . .
H26 H 0.8902 -0.1244 0.3627 0.048 Uiso 1 1 calc R . . . .
C27 C 0.62855(13) -0.05493(14) 0.49083(12) 0.0293(4) Uani 1 1 d . . . . .
H27A H 0.6331 -0.1156 0.4944 0.035 Uiso 1 1 calc R . . . .
H27B H 0.6418 -0.0409 0.5419 0.035 Uiso 1 1 calc R . . . .
C28 C 0.53351(13) 0.00473(13) 0.46996(11) 0.0264(4) Uani 1 1 d . . . . .
H28A H 0.5194 -0.0095 0.4193 0.032 Uiso 1 1 calc R . . . .
H28B H 0.5284 0.0655 0.4663 0.032 Uiso 1 1 calc R . . . .
C29 C 0.73681(14) -0.06094(15) 0.00140(12) 0.0325(4) Uani 1 1 d . . . . .
C30 C 0.68076(17) 0.01046(17) -0.04165(15) 0.0431(5) Uani 1 1 d . . . . .
H30 H 0.6865 0.0644 -0.0396 0.052 Uiso 1 1 calc R . . . .
C31 C 0.61669(18) 0.00415(19) -0.08758(16) 0.0480(6) Uani 1 1 d . . . . .
H31 H 0.5786 0.0538 -0.1165 0.058 Uiso 1 1 calc R . . . .
C32 C 0.60765(19) -0.0733(2) -0.09169(17) 0.0502(6) Uani 1 1 d . . . . .
H32 H 0.5634 -0.0775 -0.1232 0.060 Uiso 1 1 calc R . . . .
C33 C 0.6636(2) -0.1453(2) -0.0495(2) 0.0589(8) Uani 1 1 d . . . . .
H33 H 0.6581 -0.1993 -0.0527 0.071 Uiso 1 1 calc R . . . .
C34 C 0.72765(18) -0.13963(19) -0.00279(17) 0.0482(6) Uani 1 1 d . . . . .
H34 H 0.7653 -0.1893 0.0264 0.058 Uiso 1 1 calc R . . . .
C35 C 0.88497(14) -0.15404(15) 0.10150(13) 0.0329(4) Uani 1 1 d . . . . .
C36 C 0.88045(17) -0.16942(18) 0.17996(14) 0.0438(6) Uani 1 1 d . . . . .
H36 H 0.8433 -0.1241 0.2109 0.053 Uiso 1 1 calc R . . . .
C37 C 0.9294(2) -0.2502(2) 0.21383(17) 0.0576(8) Uani 1 1 d . . . . .
H37 H 0.9256 -0.2599 0.2677 0.069 Uiso 1 1 calc R . . . .
C38 C 0.98349(19) -0.31618(19) 0.16987(18) 0.0541(7) Uani 1 1 d . . . . .
H38 H 1.0167 -0.3716 0.1933 0.065 Uiso 1 1 calc R . . . .
C39 C 0.98960(18) -0.30203(19) 0.09174(17) 0.0514(7) Uani 1 1 d . . . . .
H39 H 1.0272 -0.3476 0.0613 0.062 Uiso 1 1 calc R . . . .
C40 C 0.94088(17) -0.22132(18) 0.05770(15) 0.0430(6) Uani 1 1 d . . . . .
H40 H 0.9456 -0.2117 0.0039 0.052 Uiso 1 1 calc R . . . .
C41 C 0.89364(15) -0.02402(17) -0.01032(12) 0.0350(5) Uani 1 1 d . . . . .
H41A H 0.9190 -0.0732 -0.0443 0.042 Uiso 1 1 calc R . . . .
H41B H 0.8596 0.0286 -0.0423 0.042 Uiso 1 1 calc R . . . .
C42 C 0.96925(15) -0.01095(17) 0.02900(12) 0.0347(5) Uani 1 1 d . . . . .
H42A H 0.9436 0.0366 0.0647 0.042 Uiso 1 1 calc R . . . .
H42B H 1.0045 -0.0645 0.0594 0.042 Uiso 1 1 calc R . . . .
C43 C 0.50785(16) 0.51368(14) 0.26999(12) 0.0335(4) Uani 1 1 d . . . . .
C44 C 0.43795(19) 0.55457(18) 0.32052(14) 0.0455(6) Uani 1 1 d . . . . .
H44 H 0.3828 0.5482 0.3167 0.055 Uiso 1 1 calc R . . . .
C45 C 0.4485(2) 0.6044(2) 0.37623(16) 0.0553(7) Uani 1 1 d . . . . .
H45 H 0.4002 0.6323 0.4103 0.066 Uiso 1 1 calc R . . . .
C46 C 0.5272(2) 0.61396(18) 0.38299(16) 0.0541(7) Uani 1 1 d . . . . .
H46 H 0.5333 0.6494 0.4208 0.065 Uiso 1 1 calc R . . . .
C47 C 0.5984(2) 0.5717(2) 0.33435(17) 0.0553(7) Uani 1 1 d . . . . .
H47 H 0.6536 0.5774 0.3394 0.066 Uiso 1 1 calc R . . . .
C48 C 0.58896(18) 0.52111(18) 0.27830(14) 0.0458(6) Uani 1 1 d . . . . .
H48 H 0.6381 0.4915 0.2456 0.055 Uiso 1 1 calc R . . . .
C49 C 0.38250(15) 0.46276(15) 0.19258(12) 0.0350(5) Uani 1 1 d . . . . .
C50 C 0.36084(18) 0.39265(19) 0.21336(16) 0.0500(7) Uani 1 1 d . . . . .
H50 H 0.4061 0.3392 0.2304 0.060 Uiso 1 1 calc R . . . .
C51 C 0.2732(2) 0.3999(2) 0.2094(2) 0.0665(9) Uani 1 1 d . . . . .
H51 H 0.2586 0.3516 0.2244 0.080 Uiso 1 1 calc R . . . .
C52 C 0.2074(2) 0.4767(2) 0.1840(2) 0.0659(9) Uani 1 1 d . . . . .
H52 H 0.1478 0.4810 0.1805 0.079 Uiso 1 1 calc R . . . .
C53 C 0.22787(19) 0.5473(2) 0.16350(19) 0.0588(8) Uani 1 1 d . . . . .
H53 H 0.1823 0.6006 0.1468 0.071 Uiso 1 1 calc R . . . .
C54 C 0.31486(18) 0.54027(18) 0.16740(17) 0.0483(6) Uani 1 1 d . . . . .
H54 H 0.3289 0.5889 0.1527 0.058 Uiso 1 1 calc R . . . .
C55 C 0.51045(16) 0.51171(14) 0.10832(12) 0.0340(5) Uani 1 1 d . . . . .
H55A H 0.4648 0.5715 0.1102 0.041 Uiso 1 1 calc R . . . .
H55B H 0.5700 0.5148 0.1074 0.041 Uiso 1 1 calc R . . . .
C56 C 0.49937(17) 0.47190(15) 0.03573(12) 0.0362(5) Uani 1 1 d . . . . .
H56A H 0.4421 0.4641 0.0388 0.043 Uiso 1 1 calc R . . . .
H56B H 0.5482 0.4140 0.0318 0.043 Uiso 1 1 calc R . . . .
C57 C 0.67253(16) 0.23017(14) 0.01231(12) 0.0326(4) Uani 1 1 d . . . . .
C58 C 0.58782(17) 0.22834(15) 0.00450(14) 0.0384(5) Uani 1 1 d . . . . .
C59 C 0.5535(2) 0.23483(17) -0.06853(16) 0.0479(6) Uani 1 1 d . . . . .
H59 H 0.4951 0.2360 -0.0732 0.057 Uiso 1 1 calc R . . . .
C60 C 0.6018(2) 0.23962(16) -0.13438(15) 0.0529(7) Uani 1 1 d . . . . .
C61 C 0.6862(2) 0.23799(17) -0.12582(14) 0.0499(7) Uani 1 1 d . . . . .
H61 H 0.7208 0.2395 -0.1706 0.060 Uiso 1 1 calc R . . . .
C62 C 0.72310(18) 0.23