####################################################################### 
# 
# This file contains crystal structure data downloaded from the 
# Cambridge Structural Database (CSD) hosted by the Cambridge 
# Crystallographic Data Centre (CCDC).
# 
# Full information about CCDC data access policies and citation 
# guidelines are available at http://www.ccdc.cam.ac.uk/access/V1 
# 
# Audit and citation data items may have been added by the CCDC. 
# Please retain this information to preserve the provenance of 
# this file and to allow appropriate attribution of the data. 
# 
#######################################################################

data_5
_audit_block_doi                 10.5517/cc11qzzq
_database_code_depnum_ccdc_archive 'CCDC 975414'
loop_
_citation_id
_citation_doi
_citation_year
1 10.1016/j.ica.2014.05.037 2014
_audit_update_record             
;
2013-12-05 deposited with the CCDC.	2024-07-14 downloaded from the CCDC.
;
_audit_creation_date             2013-12-05
_audit_creation_method           
;
Olex2 1.2
(compiled 2013.11.15 svn.r2834 for OlexSys, GUI svn.r4715)
;
_shelxl_version_number           2013-4
_chemical_name_common            ?
_chemical_name_systematic        
;
 ?
;
_chemical_formula_moiety         'C87 H97 Ag3 P4 S3, 2(C7 H8), 0.5(C6 H14)'
_chemical_formula_sum            'C104 H120 Ag3 P4 S3'
_chemical_formula_weight         1913.66
_chemical_melting_point          ?
loop_
_atom_type_symbol
_atom_type_description
_atom_type_scat_dispersion_real
_atom_type_scat_dispersion_imag
_atom_type_scat_source
C C 0.0033 0.0016 'International Tables Vol C Tables 4.2.6.8 and 6.1.1.4'
H H 0.0000 0.0000 'International Tables Vol C Tables 4.2.6.8 and 6.1.1.4'
P P 0.1023 0.0942 'International Tables Vol C Tables 4.2.6.8 and 6.1.1.4'
S S 0.1246 0.1234 'International Tables Vol C Tables 4.2.6.8 and 6.1.1.4'
Ag Ag -0.8971 1.1015 'International Tables Vol C Tables 4.2.6.8 and 6.1.1.4'

_shelx_space_group_comment       
;
The symmetry employed for this shelxl refinement is uniquely defined
by the following loop, which should always be used as a source of
symmetry information in preference to the above space-group names.
They are only intended as comments.
;
_space_group_crystal_system      triclinic
_space_group_IT_number           2
_space_group_name_H-M_alt        'P -1'
_space_group_name_Hall           '-P 1'
loop_
_space_group_symop_operation_xyz
'x, y, z'
'-x, -y, -z'

_cell_length_a                   15.558(3)
_cell_length_b                   16.771(3)
_cell_length_c                   19.313(4)
_cell_angle_alpha                85.89(3)
_cell_angle_beta                 76.36(3)
_cell_angle_gamma                73.96(3)
_cell_volume                     4706.5(19)
_cell_formula_units_Z            2
_cell_measurement_reflns_used    ?
_cell_measurement_temperature    150.15
_cell_measurement_theta_max      ?
_cell_measurement_theta_min      ?
_shelx_estimated_absorpt_T_max   ?
_shelx_estimated_absorpt_T_min   ?
_exptl_absorpt_coefficient_mu    0.798
_exptl_absorpt_correction_T_max  ?
_exptl_absorpt_correction_T_min  ?
_exptl_absorpt_correction_type   none
_exptl_absorpt_process_details   ?
_exptl_crystal_colour            colourless
_exptl_crystal_colour_primary    colourless
_exptl_crystal_density_diffrn    1.350
_exptl_crystal_density_meas      ?
_exptl_crystal_density_method    ?
_exptl_crystal_description       needle
_exptl_crystal_F_000             1986
_exptl_crystal_preparation       ?
_exptl_crystal_size_max          0.28
_exptl_crystal_size_mid          0.04
_exptl_crystal_size_min          0.03
_exptl_special_details           
;
 ?
;
_exptl_transmission_factor_max   ?
_exptl_transmission_factor_min   ?
_diffrn_reflns_av_R_equivalents  0.0541
_diffrn_reflns_av_unetI/netI     0.1214
_diffrn_reflns_Laue_measured_fraction_full 0.943
_diffrn_reflns_Laue_measured_fraction_max 0.920
_diffrn_reflns_limit_h_max       21
_diffrn_reflns_limit_h_min       -21
_diffrn_reflns_limit_k_max       23
_diffrn_reflns_limit_k_min       -23
_diffrn_reflns_limit_l_max       24
_diffrn_reflns_limit_l_min       -27
_diffrn_reflns_number            44184
_diffrn_reflns_point_group_measured_fraction_full 0.943
_diffrn_reflns_point_group_measured_fraction_max 0.920
_diffrn_reflns_theta_full        25.242
_diffrn_reflns_theta_max         30.174
_diffrn_reflns_theta_min         1.953
_diffrn_ambient_temperature      150.15
_diffrn_detector                 Pilatus300K
_diffrn_detector_area_resol_mean 5.81
_diffrn_detector_type            DECTRIS
_diffrn_measured_fraction_theta_full 0.943
_diffrn_measured_fraction_theta_max 0.920
_diffrn_measurement_device       '4-circle goniometer'
_diffrn_measurement_device_type  'Stoe StadiVari'
_diffrn_measurement_method       'rotation method'
_diffrn_radiation_collimation    '0.3 mm diameter, monocapillary'
_diffrn_radiation_monochromator  'plane graphite'
_diffrn_radiation_polarisn_norm  0
_diffrn_radiation_probe          x-ray
_diffrn_radiation_type           MoK\a
_diffrn_radiation_wavelength     0.71073
_diffrn_source                   'Mo GeniX 3D HF'
_diffrn_source_current           1.000
_diffrn_source_power             0.050
_diffrn_source_target            Mo
_diffrn_source_type              'microfocus sealed X-ray tube'
_diffrn_source_voltage           50
_reflns_Friedel_coverage         0.000
_reflns_Friedel_fraction_full    .
_reflns_Friedel_fraction_max     .
_reflns_number_gt                12659
_reflns_number_total             25648
_reflns_special_details          
;
 Reflections were merged by SHELXL according to the crystal
 class for the calculation of statistics and refinement.
 
 _reflns_Friedel_fraction is defined as the number of unique
 Friedel pairs measured divided by the number that would be
 possible theoretically, ignoring centric projections and
 systematic absences.
;
_reflns_threshold_expression     'I > 2\s(I)'
_computing_cell_refinement       ?
_computing_data_collection       ?
_computing_data_reduction        ?
_computing_molecular_graphics    'Olex2 (Dolomanov et al., 2009)'
_computing_publication_material  'Olex2 (Dolomanov et al., 2009)'
_computing_structure_refinement  'ShelXL (Sheldrick, 2008)'
_computing_structure_solution    'ShelXD-2013 (Sheldrick, 2008)'
_refine_diff_density_max         0.895
_refine_diff_density_min         -0.929
_refine_diff_density_rms         0.090
_refine_ls_extinction_coef       .
_refine_ls_extinction_method     none
_refine_ls_goodness_of_fit_ref   0.872
_refine_ls_hydrogen_treatment    constr
_refine_ls_matrix_type           full
_refine_ls_number_parameters     942
_refine_ls_number_reflns         25648
_refine_ls_number_restraints     1
_refine_ls_R_factor_all          0.1306
_refine_ls_R_factor_gt           0.0548
_refine_ls_restrained_S_all      0.872
_refine_ls_shift/su_max          0.001
_refine_ls_shift/su_mean         0.000
_refine_ls_structure_factor_coef Fsqd
_refine_ls_weighting_details     
'w=1/[\s^2^(Fo^2^)+(0.0455P)^2^] where P=(Fo^2^+2Fc^2^)/3'
_refine_ls_weighting_scheme      calc
_refine_ls_wR_factor_gt          0.1067
_refine_ls_wR_factor_ref         0.1304
_refine_special_details          
;
 ?
;
_olex2_refinement_description    
;
1. Fixed Uiso
 At 1.2 times of:
  All C(H) groups, {H89A,H89B,H89C} of C89, {H96A,H96B,H96C} of C96, {H10A,
  H10B,H10C} of C103, All C(H,H) groups
 At 1.5 times of:
  {H87A,H87B,H87C} of C87, {H86A,H86B,H86C} of C86, {H76A,H76B,H76C} of C76,
  {H78A,H78B,H78C} of C78, {H77A,H77B,H77C} of C77, {H69A,H69B,H69C} of C69,
  {H68A,H68B,H68C} of C68, {H67A,H67B,H67C} of C67, {H88A,H88B,H88C} of C88
2. Restrained distances
 C90-C95
 1.39 with sigma of 0.01
3.a Secondary CH2 refined with riding coordinates:
 C13(H13A,H13B), C14(H14A,H14B), C15(H15A,H15B), C16(H16A,H16B), C17(H17A,
 H17B), C18(H18A,H18B), C43(H43A,H43B), C44(H44A,H44B), C45(H45A,H45B),
 C46(H46A,H46B), C47(H47A,H47B), C48(H48A,H48B), C104(H10D,H10E), C105(H10F,
 H10G)
3.b Me refined with riding coordinates:
 C67(H67A,H67B,H67C), C68(H68A,H68B,H68C), C69(H69A,H69B,H69C), C76(H76A,H76B,
 H76C), C77(H77A,H77B,H77C), C78(H78A,H78B,H78C), C86(H86A,H86B,H86C), C87(H87A,
 H87B,H87C), C88(H88A,H88B,H88C), C89(H89A,H89B,H89C), C96(H96A,H96B,H96C),
 C103(H10A,H10B,H10C)
3.c Aromatic/amide H refined with riding coordinates:
 C2(H2), C3(H3), C4(H4), C5(H5), C6(H6), C8(H8), C9(H9), C10(H10), C11(H11),
 C12(H12), C20(H20), C21(H21), C22(H22), C23(H23), C24(H24), C26(H26), C27(H27),
  C28(H28), C29(H29), C30(H30), C32(H32), C33(H33), C34(H34), C35(H35),
 C36(H36), C38(H38), C39(H39), C40(H40), C41(H41), C42(H42), C50(H50), C51(H51),
  C52(H52), C53(H53), C54(H54), C56(H56), C57(H57), C58(H58), C59(H59),
 C60(H60), C63(H63), C65(H65), C72(H72), C74(H74), C82(H82), C84(H84), C91(H91),
  C92(H92), C93(H93), C94(H94), C95(H95), C98(H98), C99(H99), C100(H100),
 C101(H101), C102(H102)
;
_atom_sites_solution_hydrogens   geom
_atom_sites_solution_primary     dual
_atom_sites_solution_secondary   ?
loop_
_atom_site_label
_atom_site_type_symbol
_atom_site_fract_x
_atom_site_fract_y
_atom_site_fract_z
_atom_site_U_iso_or_equiv
_atom_site_adp_type
_atom_site_occupancy
_atom_site_site_symmetry_order
_atom_site_calc_flag
_atom_site_refinement_flags_posn
_atom_site_refinement_flags_adp
_atom_site_refinement_flags_occupancy
_atom_site_disorder_assembly
_atom_site_disorder_group
Ag1 Ag 0.37098(2) 0.49302(2) 0.30293(2) 0.03823(9) Uani 1 1 d . . . . .
Ag2 Ag 0.16837(3) 0.71289(2) 0.24366(2) 0.03895(9) Uani 1 1 d . . . . .
Ag3 Ag 0.12521(3) 0.45230(3) 0.29339(2) 0.04715(11) Uani 1 1 d . . . . .
S1 S 0.25426(8) 0.42002(8) 0.35250(7) 0.0439(3) Uani 1 1 d . . . . .
S2 S 0.07429(10) 0.60323(9) 0.26784(8) 0.0536(3) Uani 1 1 d . . . . .
S3 S 0.32819(8) 0.64315(8) 0.26688(6) 0.0407(3) Uani 1 1 d . . . . .
P1 P 0.09034(9) 0.77917(8) 0.36607(6) 0.0377(3) Uani 1 1 d . . . . .
P3 P 0.83329(10) 0.19544(8) -0.13926(6) 0.0462(3) Uani 1 1 d . . . . .
P2 P -0.02566(10) 0.62809(10) 0.72788(9) 0.0543(4) Uani 1 1 d . . . . .
P4 P 0.53443(8) 0.46127(8) 0.29976(6) 0.0360(3) Uani 1 1 d . . . . .
C1 C -0.0211(3) 0.8519(3) 0.3686(2) 0.0367(10) Uani 1 1 d . . . . .
C2 C -0.1028(4) 0.8475(3) 0.4156(3) 0.0449(12) Uani 1 1 d . . . . .
H2 H -0.1017 0.8067 0.4523 0.054 Uiso 1 1 calc R . . . .
C3 C -0.1855(4) 0.9021(3) 0.4092(3) 0.0497(13) Uani 1 1 d . . . . .
H3 H -0.2407 0.8980 0.4414 0.060 Uiso 1 1 calc R . . . .
C4 C -0.1888(4) 0.9623(4) 0.3569(3) 0.0540(13) Uani 1 1 d . . . . .
H4 H -0.2457 0.9994 0.3525 0.065 Uiso 1 1 calc R . . . .
C5 C -0.1084(4) 0.9679(4) 0.3112(3) 0.0571(15) Uani 1 1 d . . . . .
H5 H -0.1098 1.0095 0.2751 0.068 Uiso 1 1 calc R . . . .
C6 C -0.0264(4) 0.9144(3) 0.3170(3) 0.0485(13) Uani 1 1 d . . . . .
H6 H 0.0283 0.9199 0.2850 0.058 Uiso 1 1 calc R . . . .
C7 C 0.1477(3) 0.8397(3) 0.4061(2) 0.0419(11) Uani 1 1 d . . . . .
C8 C 0.1015(4) 0.8936(4) 0.4616(3) 0.0532(13) Uani 1 1 d . . . . .
H8 H 0.0377 0.9005 0.4801 0.064 Uiso 1 1 calc R . . . .
C9 C 0.1480(4) 0.9383(4) 0.4908(3) 0.0552(14) Uani 1 1 d . . . . .
H9 H 0.1160 0.9751 0.5292 0.066 Uiso 1 1 calc R . . . .
C10 C 0.2394(4) 0.9288(4) 0.4638(3) 0.0535(13) Uani 1 1 d . . . . .
H10 H 0.2707 0.9603 0.4827 0.064 Uiso 1 1 calc R . . . .
C11 C 0.2865(4) 0.8741(4) 0.4096(3) 0.0668(18) Uani 1 1 d . . . . .
H11 H 0.3506 0.8663 0.3922 0.080 Uiso 1 1 calc R . . . .
C12 C 0.2407(4) 0.8304(4) 0.3803(3) 0.0621(17) Uani 1 1 d . . . . .
H12 H 0.2734 0.7935 0.3421 0.075 Uiso 1 1 calc R . . . .
C13 C 0.0685(4) 0.7030(3) 0.4362(3) 0.0486(13) Uani 1 1 d . . . . .
H13A H 0.0438 0.7312 0.4829 0.058 Uiso 1 1 calc R . . . .
H13B H 0.0221 0.6773 0.4270 0.058 Uiso 1 1 calc R . . . .
C14 C 0.1565(4) 0.6360(4) 0.4386(3) 0.0613(17) Uani 1 1 d . . . . .
H14A H 0.2040 0.6626 0.4438 0.074 Uiso 1 1 calc R . . . .
H14B H 0.1786 0.6059 0.3928 0.074 Uiso 1 1 calc R . . . .
C15 C 0.1445(7) 0.5732(6) 0.4998(4) 0.139(5) Uani 1 1 d . . . . .
H15A H 0.1062 0.5403 0.4877 0.167 Uiso 1 1 calc R . . . .
H15B H 0.2060 0.5345 0.4978 0.167 Uiso 1 1 calc R . . . .
C16 C 0.1109(6) 0.5942(7) 0.5652(5) 0.145(5) Uani 1 1 d . . . . .
H16A H 0.0459 0.6253 0.5688 0.174 Uiso 1 1 calc R . . . .
H16B H 0.1426 0.6343 0.5754 0.174 Uiso 1 1 calc R . . . .
C17 C 0.1124(4) 0.5315(5) 0.6252(4) 0.086(3) Uani 1 1 d . . . . .
H17A H 0.1734 0.4906 0.6164 0.103 Uiso 1 1 calc R . . . .
H17B H 0.0661 0.5012 0.6249 0.103 Uiso 1 1 calc R . . . .
C18 C 0.0932(4) 0.5685(4) 0.6981(4) 0.0652(18) Uani 1 1 d . . . . .
H18A H 0.1338 0.6051 0.6969 0.078 Uiso 1 1 calc R . . . .
H18B H 0.1079 0.5234 0.7328 0.078 Uiso 1 1 calc R . . . .
C19 C -0.0336(4) 0.7311(4) 0.6865(3) 0.0546(14) Uani 1 1 d . . . . .
C20 C -0.1037(4) 0.7684(4) 0.6541(3) 0.0504(13) Uani 1 1 d . . . . .
H20 H -0.1469 0.7393 0.6505 0.060 Uiso 1 1 calc R . . . .
C21 C -0.1130(4) 0.8477(4) 0.6264(3) 0.0525(13) Uani 1 1 d . . . . .
H21 H -0.1625 0.8733 0.6044 0.063 Uiso 1 1 calc R . . . .
C22 C -0.0490(4) 0.8897(4) 0.6311(3) 0.0595(16) Uani 1 1 d . . . . .
H22 H -0.0551 0.9444 0.6123 0.071 Uiso 1 1 calc R . . . .
C23 C 0.0217(5) 0.8532(4) 0.6621(4) 0.075(2) Uani 1 1 d . . . . .
H23 H 0.0662 0.8817 0.6636 0.090 Uiso 1 1 calc R . . . .
C24 C 0.0296(5) 0.7745(4) 0.6915(4) 0.074(2) Uani 1 1 d . . . . .
H24 H 0.0778 0.7501 0.7151 0.089 Uiso 1 1 calc R . . . .
C25 C -0.0341(5) 0.6538(4) 0.8202(4) 0.0650(17) Uani 1 1 d . . . . .
C26 C 0.0396(6) 0.6307(5) 0.8538(4) 0.083(2) Uani 1 1 d . . . . .
H26 H 0.0980 0.5997 0.8285 0.099 Uiso 1 1 calc R . . . .
C27 C 0.0275(9) 0.6530(7) 0.9244(5) 0.100(3) Uani 1 1 d . . . . .
H27 H 0.0774 0.6360 0.9474 0.121 Uiso 1 1 calc R . . . .
C28 C -0.0522(11) 0.6971(6) 0.9590(6) 0.113(4) Uani 1 1 d . . . . .
H28 H -0.0584 0.7128 1.0066 0.136 Uiso 1 1 calc R . . . .
C29 C -0.1289(9) 0.7221(6) 0.9289(5) 0.110(3) Uani 1 1 d . . . . .
H29 H -0.1864 0.7538 0.9551 0.132 Uiso 1 1 calc R . . . .
C30 C -0.1176(6) 0.6988(5) 0.8589(5) 0.086(2) Uani 1 1 d . . . . .
H30 H -0.1688 0.7143 0.8373 0.104 Uiso 1 1 calc R . . . .
C31 C 0.8156(4) 0.0972(3) -0.1606(3) 0.0526(14) Uani 1 1 d . . . . .
C32 C 0.7388(6) 0.1029(5) -0.1853(4) 0.082(2) Uani 1 1 d . . . . .
H32 H 0.6993 0.1560 -0.1917 0.099 Uiso 1 1 calc R . . . .
C33 C 0.7178(8) 0.0325(6) -0.2012(5) 0.107(3) Uani 1 1 d . . . . .
H33 H 0.6620 0.0369 -0.2150 0.128 Uiso 1 1 calc R . . . .
C34 C 0.7782(7) -0.0442(5) -0.1970(4) 0.093(3) Uani 1 1 d . . . . .
H34 H 0.7664 -0.0922 -0.2116 0.112 Uiso 1 1 calc R . . . .
C35 C 0.8537(6) -0.0512(4) -0.1724(4) 0.082(2) Uani 1 1 d . . . . .
H35 H 0.8939 -0.1044 -0.1678 0.099 Uiso 1 1 calc R . . . .
C36 C 0.8737(5) 0.0198(4) -0.1535(3) 0.0651(17) Uani 1 1 d . . . . .
H36 H 0.9270 0.0146 -0.1358 0.078 Uiso 1 1 calc R . . . .
C37 C 0.9400(5) 0.1663(3) -0.1090(3) 0.0549(14) Uani 1 1 d . . . . .
C38 C 1.0149(5) 0.1885(4) -0.1509(4) 0.0634(16) Uani 1 1 d . . . . .
H38 H 1.0085 0.2184 -0.1938 0.076 Uiso 1 1 calc R . . . .
C39 C 1.1004(6) 0.1684(4) -0.1322(5) 0.085(2) Uani 1 1 d . . . . .
H39 H 1.1514 0.1832 -0.1626 0.102 Uiso 1 1 calc R . . . .
C40 C 1.1088(7) 0.1279(5) -0.0708(6) 0.095(3) Uani 1 1 d . . . . .
H40 H 1.1665 0.1135 -0.0580 0.114 Uiso 1 1 calc R . . . .
C41 C 1.0349(7) 0.1065(5) -0.0255(4) 0.094(3) Uani 1 1 d . . . . .
H41 H 1.0417 0.0796 0.0186 0.113 Uiso 1 1 calc R . . . .
C42 C 0.9506(6) 0.1246(4) -0.0447(3) 0.075(2) Uani 1 1 d . . . . .
H42 H 0.9004 0.1087 -0.0143 0.090 Uiso 1 1 calc R . . . .
C43 C 0.7435(4) 0.2230(3) -0.0565(3) 0.0543(15) Uani 1 1 d . . . . .
H43A H 0.6826 0.2376 -0.0687 0.065 Uiso 1 1 calc R . . . .
H43B H 0.7472 0.1736 -0.0249 0.065 Uiso 1 1 calc R . . . .
C44 C 0.7499(4) 0.2945(3) -0.0158(3) 0.0531(14) Uani 1 1 d . . . . .
H44A H 0.8102 0.2801 -0.0027 0.064 Uiso 1 1 calc R . . . .
H44B H 0.7460 0.3443 -0.0470 0.064 Uiso 1 1 calc R . . . .
C45 C 0.6742(4) 0.3144(3) 0.0511(3) 0.0485(13) Uani 1 1 d . . . . .
H45A H 0.6143 0.3306 0.0374 0.058 Uiso 1 1 calc R . . . .
H45B H 0.6766 0.2636 0.0808 0.058 Uiso 1 1 calc R . . . .
C46 C 0.6792(4) 0.3825(3) 0.0954(3) 0.0492(13) Uani 1 1 d . . . . .
H46A H 0.6734 0.4344 0.0668 0.059 Uiso 1 1 calc R . . . .
H46B H 0.7401 0.3677 0.1075 0.059 Uiso 1 1 calc R . . . .
C47 C 0.6049(3) 0.3978(3) 0.1638(2) 0.0436(11) Uani 1 1 d . . . . .
H47A H 0.6060 0.3444 0.1895 0.052 Uiso 1 1 calc R . . . .
H47B H 0.5443 0.4190 0.1515 0.052 Uiso 1 1 calc R . . . .
C48 C 0.6158(3) 0.4594(3) 0.2132(2) 0.0397(10) Uani 1 1 d . . . . .
H48A H 0.6044 0.5155 0.1914 0.048 Uiso 1 1 calc R . . . .
H48B H 0.6794 0.4432 0.2203 0.048 Uiso 1 1 calc R . . . .
C49 C 0.5539(3) 0.5378(3) 0.3525(2) 0.0390(10) Uani 1 1 d . . . . .
C50 C 0.4858(4) 0.5669(4) 0.4124(3) 0.0566(15) Uani 1 1 d . . . . .
H50 H 0.4321 0.5476 0.4235 0.068 Uiso 1 1 calc R . . . .
C51 C 0.4959(5) 0.6242(4) 0.4563(3) 0.0687(18) Uani 1 1 d . . . . .
H51 H 0.4498 0.6429 0.4981 0.082 Uiso 1 1 calc R . . . .
C52 C 0.5716(5) 0.6539(4) 0.4400(4) 0.0648(16) Uani 1 1 d . . . . .
H52 H 0.5779 0.6936 0.4697 0.078 Uiso 1 1 calc R . . . .
C53 C 0.6388(4) 0.6256(4) 0.3799(4) 0.0657(17) Uani 1 1 d . . . . .
H53 H 0.6919 0.6458 0.3684 0.079 Uiso 1 1 calc R . . . .
C54 C 0.6299(4) 0.5682(4) 0.3363(3) 0.0551(14) Uani 1 1 d . . . . .
H54 H 0.6765 0.5496 0.2948 0.066 Uiso 1 1 calc R . . . .
C55 C 0.5837(3) 0.3635(3) 0.3412(2) 0.0384(10) Uani 1 1 d . . . . .
C56 C 0.5330(4) 0.3046(4) 0.3548(3) 0.0503(13) Uani 1 1 d . . . . .
H56 H 0.4753 0.3161 0.3423 0.060 Uiso 1 1 calc R . . . .
C57 C 0.5670(5) 0.2294(4) 0.3866(4) 0.0700(18) Uani 1 1 d . . . . .
H57 H 0.5322 0.1898 0.3962 0.084 Uiso 1 1 calc R . . . .
C58 C 0.6515(5) 0.2117(4) 0.4043(4) 0.0688(17) Uani 1 1 d . . . . .
H58 H 0.6750 0.1597 0.4254 0.083 Uiso 1 1 calc R . . . .
C59 C 0.7019(4) 0.2696(4) 0.3914(3) 0.0562(14) Uani 1 1 d . . . . .
H59 H 0.7596 0.2577 0.4040 0.067 Uiso 1 1 calc R . . . .
C60 C 0.6678(4) 0.3451(3) 0.3601(3) 0.0469(12) Uani 1 1 d . . . . .
H60 H 0.7025 0.3847 0.3514 0.056 Uiso 1 1 calc R . . . .
C61 C 0.3007(3) 0.3117(3) 0.3456(3) 0.0389(10) Uani 1 1 d . . . . .
C62 C 0.2950(3) 0.2624(3) 0.4077(3) 0.0431(11) Uani 1 1 d . . . . .
C63 C 0.3275(4) 0.1776(4) 0.4019(3) 0.0511(13) Uani 1 1 d . . . . .
H63 H 0.3242 0.1449 0.4442