
#######################################################################
#
#                 Cambridge Crystallographic Data Centre
#                                CCDC
#
#######################################################################
#
# If this CIF has been generated from an entry in the Cambridge
# Structural Database, then it will include bibliographic, chemical,
# crystal, experimental, refinement or atomic coordinate data resulting
# from the CCDC's data processing and validation procedures.
#
#######################################################################

data_CSD_CIF_YONMIX
_audit_creation_date 1996-01-18
_audit_creation_method CSD-ConQuest-V1
_database_code_CSD YONMIX
_database_code_depnum_ccdc_archive 'CCDC 1305229'
_chemical_formula_sum 'C29 H36 O4 Si1'
_chemical_formula_moiety
;
C29 H36 O4 Si1
;
_journal_coden_Cambridge 16
_journal_volume 51
_journal_year 1995
_journal_page_first 3749
_journal_name_full 'Tetrahedron '
loop_
_publ_author_name
"P.Huber"
"V.Enev"
"A.Linden"
"S.Bienz"
_chemical_name_systematic
;
(S~Si~,1S*,3R*)-1-(((Benzyloxy)methyl)-(t-butyl)methylsilyl)-3-hydroxy-3-pheny
lpropyl benzoate
;
_chemical_name_common
;
Teaching Subset: Fundamental Chemistry
;
_cell_volume   2710.562
_exptl_crystal_colour 'colorless'
_exptl_crystal_density_diffrn 1.168
_diffrn_ambient_temperature 173
#These two values have been output from a single CSD field.
_refine_ls_R_factor_gt 0.042
_refine_ls_wR_factor_gt 0.042
loop_
_citation_database_id_CSD
_citation_special_details
YONMET "is a stereoisomer of this entry"
_symmetry_cell_setting monoclinic
_symmetry_space_group_name_H-M 'P 21/n'
_symmetry_Int_Tables_number 14
loop_
_symmetry_equiv_pos_site_id
_symmetry_equiv_pos_as_xyz
1 x,y,z
2 1/2-x,1/2+y,1/2-z
3 -x,-y,-z
4 -1/2+x,-1/2-y,-1/2+z
_cell_length_a 8.965(1)
_cell_length_b 22.585(1)
_cell_length_c 13.393(2)
_cell_angle_alpha 90
_cell_angle_beta 91.69(2)
_cell_angle_gamma 90
_cell_formula_units_Z 4
loop_
_atom_type_symbol
_atom_type_radius_bond
C 0.68
H 0.23
O 0.68
Si 1.20
loop_
_atom_site_label
_atom_site_type_symbol
_atom_site_fract_x
_atom_site_fract_y
_atom_site_fract_z
Si1 Si 0.68580(6) 0.17514(3) 0.76083(4)
O1 O 0.2048(2) 0.26692(8) 0.7746(1)
O2 O 0.4416(1) 0.17964(6) 0.6346(1)
O3 O 0.2128(2) 0.15268(7) 0.6847(1)
O4 O 0.7706(2) 0.21397(6) 0.5783(1)
C1 C 0.3117(2) 0.2915(1) 0.7098(2)
C2 C 0.4701(2) 0.2689(1) 0.7343(2)
C3 C 0.4870(2) 0.20199(9) 0.7346(2)
C4 C 0.3048(2) 0.15669(9) 0.6197(2)
C5 C 0.7008(2) 0.0929(1) 0.7392(2)
C6 C 0.3052(2) 0.35845(9) 0.7183(2)
C7 C 0.2399(3) 0.3866(1) 0.7976(2)
C8 C 0.2360(3) 0.4483(1) 0.8025(2)
C9 C 0.3009(3) 0.4815(1) 0.7305(2)
C10 C 0.3689(3) 0.4544(1) 0.6522(2)
C11 C 0.3698(3) 0.3932(1) 0.6451(2)
C12 C 0.2796(2) 0.1373(1) 0.5148(2)
C13 C 0.3826(3) 0.1495(1) 0.4411(2)
C14 C 0.3531(3) 0.1325(1) 0.3425(2)
C15 C 0.2230(3) 0.1033(1) 0.3176(2)
C16 C 0.1212(3) 0.0904(1) 0.3896(3)
C17 C 0.1479(3) 0.1076(1) 0.4890(2)
C18 C 0.7367(3) 0.1941(1) 0.8937(2)
C19 C 0.8157(2) 0.2181(1) 0.6811(2)
C20 C 0.8685(3) 0.2454(1) 0.5137(2)
C21 C 0.8496(2) 0.31153(9) 0.5201(1)
C22 C 0.7271(3) 0.3388(1) 0.4730(2)
C23 C 0.7082(3) 0.3995(1) 0.4771(2)
C24 C 0.8128(3) 0.4346(1) 0.5274(2)
C25 C 0.9344(3) 0.4079(1) 0.5751(2)
C26 C 0.9512(3) 0.3472(1) 0.5715(2)
C27 C 0.5696(3) 0.0608(1) 0.7869(3)
C28 C 0.7032(4) 0.0770(1) 0.6274(2)
C29 C 0.8480(3) 0.0704(1) 0.7894(3)
H1 H 0.204(3) 0.233(1) 0.758(2)
H2 H 0.285(2) 0.2795(8) 0.641(1)
H3 H 0.421(2) 0.1847(9) 0.786(1)
H4 H 0.198(2) 0.3624(9) 0.848(2)
H5 H 0.194(3) 0.464(1) 0.862(2)
H6 H 0.302(2) 0.526(1) 0.734(2)
H7 H 0.413(2) 0.480(1) 0.599(2)
H8 H 0.415(2) 0.3733(9) 0.590(2)
H9 H 0.472(2) 0.174(1) 0.459(2)
H10 H 0.432(3) 0.143(1) 0.285(2)
H11 H 0.208(3) 0.088(1) 0.242(2)
H12 H 0.029(3) 0.072(1) 0.374(2)
H13 H 0.082(2) 0.0981(8) 0.545(1)
H14 H 0.656(2) 0.313(1) 0.434(2)
H15 H 0.621(3) 0.415(1) 0.444(2)
H16 H 0.799(3) 0.481(1) 0.529(2)
H17 H 1.004(3) 0.431(1) 0.610(2)
H18 H 1.040(2) 0.328(1) 0.603(2)
H19 H 0.499(2) 0.2815(9) 0.800(2)
H20 H 0.539(2) 0.2841(9) 0.690(1)
H21 H 0.714(3) 0.231(1) 0.904(2)
H22 H 0.845(3) 0.193(1) 0.904(2)
H23 H 0.686(3) 0.172(1) 0.943(2)
H24 H 0.820(2) 0.259(1) 0.704(1)
H25 H 0.919(2) 0.204(1) 0.688(2)
H26 H 0.837(2) 0.2291(9) 0.443(2)
H27 H 0.977(2) 0.2320(9) 0.531(1)
H28 H 0.567(2) 0.073(1) 0.863(2)
H29 H 0.467(3) 0.070(1) 0.752(2)
H30 H 0.582(3) 0.020(1) 0.781(2)
H31 H 0.791(3) 0.097(1) 0.592(2)
H32 H 0.608(3) 0.090(1) 0.594(2)
H33 H 0.708(3) 0.031(1) 0.624(2)
H34 H 0.847(3) 0.080(1) 0.862(2)
H35 H 0.859(3) 0.028(1) 0.780(2)
H36 H 0.939(3) 0.092(1) 0.764(2)
#END
