
#######################################################################
#
#                 Cambridge Crystallographic Data Centre
#                                CCDC
#
#######################################################################
#
# If this CIF has been generated from an entry in the Cambridge
# Structural Database, then it will include bibliographic, chemical,
# crystal, experimental, refinement or atomic coordinate data resulting
# from the CCDC's data processing and validation procedures.
#
#######################################################################

data_CSD_CIF_YONMET
_audit_creation_date 1996-01-18
_audit_creation_method CSD-ConQuest-V1
_database_code_CSD YONMET
_database_code_depnum_ccdc_archive 'CCDC 1305228'
_chemical_formula_sum 'C29 H36 O4 Si1'
_chemical_formula_moiety
;
C29 H36 O4 Si1
;
_journal_coden_Cambridge 16
_journal_volume 51
_journal_year 1995
_journal_page_first 3749
_journal_name_full 'Tetrahedron '
loop_
_publ_author_name
"P.Huber"
"V.Enev"
"A.Linden"
"S.Bienz"
_chemical_name_systematic
;
(R*~Si~,1S*,3R*)-1-(((Benzyloxy)methyl)-(t-butyl)methylsilyl)-3-hydroxy-3-phen
ylpropyl benzoate
;
_chemical_name_common
;
Teaching Subset: Fundamental Chemistry
;
_chemical_melting_point 362.15
_cell_volume   1347.459
_exptl_crystal_colour 'colorless'
_exptl_crystal_density_diffrn 1.175
_exptl_special_details
;
Melting point range 362.15-363.15K

;
_diffrn_ambient_temperature 173
#These two values have been output from a single CSD field.
_refine_ls_R_factor_gt 0.0416
_refine_ls_wR_factor_gt 0.0416
loop_
_citation_database_id_CSD
_citation_special_details
YONMIX "is a stereoisomer of this entry"
_symmetry_cell_setting triclinic
_symmetry_space_group_name_H-M 'P -1'
_symmetry_Int_Tables_number 2
loop_
_symmetry_equiv_pos_site_id
_symmetry_equiv_pos_as_xyz
1 x,y,z
2 -x,-y,-z
_cell_length_a 12.092(5)
_cell_length_b 14.285(4)
_cell_length_c 9.532(4)
_cell_angle_alpha 92.42(3)
_cell_angle_beta 111.73(4)
_cell_angle_gamma 114.97(2)
_cell_formula_units_Z 2
loop_
_atom_type_symbol
_atom_type_radius_bond
C 0.68
H 0.23
O 0.68
Si 1.20
loop_
_atom_site_label
_atom_site_type_symbol
_atom_site_fract_x
_atom_site_fract_y
_atom_site_fract_z
Si1 Si 0.72846(5) 0.34814(3) 0.06228(5)
O1 O 0.5523(1) 0.2248(1) 0.4350(1)
O2 O 0.7472(1) 0.45246(8) 0.3233(1)
O3 O 0.5669(1) 0.42280(9) 0.3710(1)
O4 O 0.6843(1) 0.14272(8) 0.0257(1)
C1 C 0.6944(2) 0.2679(1) 0.4796(2)
C2 C 0.7261(2) 0.2754(1) 0.3377(2)
C3 C 0.6808(2) 0.3418(1) 0.2328(2)
C4 C 0.6793(2) 0.4820(1) 0.3835(2)
C5 C 0.6702(2) 0.4323(1) -0.0634(2)
C6 C 0.7432(2) 0.1976(1) 0.5687(2)
C7 C 0.8627(2) 0.2418(2) 0.7037(2)
C8 C 0.9131(2) 0.1780(2) 0.7804(3)
C9 C 0.8444(2) 0.0695(2) 0.7232(3)
C10 C 0.7243(2) 0.0240(2) 0.5905(2)
C11 C 0.6736(2) 0.0875(1) 0.5136(2)
C12 C 0.7569(2) 0.5965(1) 0.4657(2)
C13 C 0.8822(2) 0.6631(1) 0.4699(2)
C14 C 0.9515(2) 0.7690(2) 0.5477(2)
C15 C 0.8957(2) 0.8084(2) 0.6225(2)
C16 C 0.7709(2) 0.7430(2) 0.6178(2)
C17 C 0.7009(2) 0.6370(1) 0.5397(2)
C18 C 0.9142(2) 0.3989(2) 0.1395(3)
C19 C 0.6374(2) 0.2085(1) -0.0600(2)
C20 C 0.6323(2) 0.0411(1) -0.0689(2)
C21 C 0.6905(2) -0.0232(1) 0.0225(2)
C22 C 0.7397(2) -0.0044(1) 0.1831(2)
C23 C 0.7895(2) -0.0673(2) 0.2636(2)
C24 C 0.7899(2) -0.1496(2) 0.1844(3)
C25 C 0.7415(2) -0.1691(2) 0.0245(3)
C26 C 0.6920(2) -0.1064(1) -0.0555(2)
C27 C 0.7547(3) 0.5509(2) 0.0161(3)
C28 C 0.6846(3) 0.4168(2) -0.2152(2)
C29 C 0.5210(2) 0.3970(2) -0.1038(3)
H1 H 0.531(2) 0.273(2) 0.407(2)
H2 H 0.744(2) 0.341(1) 0.550(2)
H3 H 0.589(2) 0.315(1) 0.198(2)
H4 H 0.908(2) 0.317(1) 0.746(2)
H5 H 0.995(2) 0.213(2) 0.876(2)
H6 H 0.880(2) 0.027(2) 0.776(2)
H7 H 0.670(2) -0.051(2) 0.550(2)
H8 H 0.591(2) 0.058(1) 0.426(2)
H9 H 0.921(2) 0.635(1) 0.420(2)
H10 H 1.039(2) 0.817(1) 0.548(2)
H11 H 0.945(2) 0.880(2) 0.677(2)
H12 H 0.731(2) 0.771(2) 0.667(2)
H13 H 0.613(2) 0.590(1) 0.536(2)
H14 H 0.740(2) 0.052(1) 0.236(2)
H15 H 0.821(2) -0.055(2) 0.373(2)
H16 H 0.827(2) -0.189(1) 0.238(2)
H17 H 0.740(2) -0.227(2) -0.031(2)
H18 H 0.658(2) -0.119(1) -0.167(2)
H19 H 0.825(2) 0.304(1) 0.375(2)
H20 H 0.686(2) 0.206(1) 0.275(2)
H21 H 0.945(2) 0.415(2) 0.058(3)
H22 H 0.961(2) 0.461(2) 0.218(2)
H23 H 0.940(2) 0.346(2) 0.179(2)
H24 H 0.541(2) 0.179(1) -0.095(2)
H25 H 0.653(2) 0.209(1) -0.155(2)
H26 H 0.653(2) 0.049(1) -0.159(2)
H27 H 0.530(2) 0.004(1) -0.108(2)
H28 H 0.751(2) 0.569(2) 0.114(2)
H29 H 0.720(2) 0.591(2) -0.055(2)
H30 H 0.851(2) 0.576(2) 0.039(2)
H31 H 0.785(2) 0.439(2) -0.192(2)
H32 H 0.659(2) 0.464(2) -0.280(2)
H33 H 0.626(2) 0.341(2) -0.278(2)
H34 H 0.490(2) 0.442(1) -0.167(2)
H35 H 0.463(2) 0.322(2) -0.159(2)
H36 H 0.508(2) 0.410(2) -0.010(3)
#END
