####################################################################### 
# 
# This file contains crystal structure data downloaded from the 
# Cambridge Structural Database (CSD) hosted by the Cambridge 
# Crystallographic Data Centre (CCDC).
# 
# Full information about CCDC data access policies and citation 
# guidelines are available at http://www.ccdc.cam.ac.uk/access/V1 
# 
# Audit and citation data items may have been added by the CCDC. 
# Please retain this information to preserve the provenance of 
# this file and to allow appropriate attribution of the data. 
# 
#######################################################################

data_MOF-12
_audit_block_doi                 10.5517/cc129mpp
_database_code_depnum_ccdc_archive 'CCDC 992362'
loop_
_citation_id
_citation_doi
_citation_year
1 10.1002/chem.201402791 2014
_audit_update_record             
;
2014-03-18 deposited with the CCDC.	2024-07-14 downloaded from the CCDC.
;

_audit_creation_method           SHELXL-97
_chemical_name_systematic        
;
 ?
;
_chemical_name_common            ?
_chemical_melting_point          ?
_chemical_formula_moiety         'C66 H46 N4 O10 Zn2'
_chemical_formula_sum            'C66 H46 N4 O10 Zn2'
_chemical_formula_weight         1185.85

loop_
_atom_type_symbol
_atom_type_description
_atom_type_scat_dispersion_real
_atom_type_scat_dispersion_imag
_atom_type_scat_source
C C 0.0033 0.0016 'International Tables Vol C Tables 4.2.6.8 and 6.1.1.4'
H H 0.0000 0.0000 'International Tables Vol C Tables 4.2.6.8 and 6.1.1.4'
N N 0.0061 0.0033 'International Tables Vol C Tables 4.2.6.8 and 6.1.1.4'
O O 0.0106 0.0060 'International Tables Vol C Tables 4.2.6.8 and 6.1.1.4'
Zn Zn 0.2839 1.4301 'International Tables Vol C Tables 4.2.6.8 and 6.1.1.4'

_symmetry_cell_setting           Triclinic
_symmetry_space_group_name_H-M   'P -1'
_symmetry_space_group_name_Hall  '-P 1'

loop_
_symmetry_equiv_pos_as_xyz
'x, y, z'
'-x, -y, -z'

_cell_length_a                   15.558(4)
_cell_length_b                   15.599(4)
_cell_length_c                   16.283(4)
_cell_angle_alpha                89.943(7)
_cell_angle_beta                 89.961(6)
_cell_angle_gamma                83.859(7)
_cell_volume                     3929.1(16)
_cell_formula_units_Z            2
_cell_measurement_temperature    90(2)
_cell_measurement_reflns_used    ?
_cell_measurement_theta_min      ?
_cell_measurement_theta_max      ?

_exptl_crystal_description       Needles
_exptl_crystal_colour            colorless
_exptl_crystal_size_max          0.41
_exptl_crystal_size_mid          0.18
_exptl_crystal_size_min          0.18
_exptl_crystal_density_meas      ?
_exptl_crystal_density_diffrn    1.002
_exptl_crystal_density_method    'not measured'
_exptl_crystal_F_000             1220.0
_exptl_absorpt_coefficient_mu    0.657
_exptl_absorpt_correction_type   EMPIRICAL
_exptl_absorpt_correction_T_min  0.868
_exptl_absorpt_correction_T_max  0.900
_exptl_absorpt_process_details   SADABS

_exptl_special_details           
;
 ?
;

_diffrn_ambient_temperature      90(2)
_diffrn_radiation_wavelength     0.71073
_diffrn_radiation_type           MoK\a
_diffrn_radiation_source         'fine-focus sealed tube'
_diffrn_radiation_monochromator  graphite
_diffrn_measurement_device_type  'CCD area detector'
_diffrn_measurement_method       'phi and omega scan'
_diffrn_detector_area_resol_mean ?
_diffrn_standards_number         ?
_diffrn_standards_interval_count ?
_diffrn_standards_interval_time  ?
_diffrn_standards_decay_%        ?
_diffrn_reflns_number            69192
_diffrn_reflns_av_R_equivalents  0.0959
_diffrn_reflns_av_sigmaI/netI    0.1254
_diffrn_reflns_limit_h_min       -19
_diffrn_reflns_limit_h_max       19
_diffrn_reflns_limit_k_min       -19
_diffrn_reflns_limit_k_max       19
_diffrn_reflns_limit_l_min       -20
_diffrn_reflns_limit_l_max       20
_diffrn_reflns_theta_min         3.06
_diffrn_reflns_theta_max         26.37
_reflns_number_total             16061
_reflns_number_gt                8795
_reflns_threshold_expression     >2\s(I)

_computing_data_collection       'Bruker kappa apex ccd'
_computing_cell_refinement       'Bruker kappa apex ccd'
_computing_data_reduction        'Bruker saint'
_computing_structure_solution    shelxs-97
_computing_structure_refinement  'SHELXL-97 (Sheldrick, 2008)'
_computing_molecular_graphics    ortep-III
_computing_publication_material  WinGX1.80.05

_refine_special_details          
;
 Refinement of F^2^ against ALL reflections.  The weighted R-factor wR and
 goodness of fit S are based on F^2^, conventional R-factors R are based
 on F, with F set to zero for negative F^2^. The threshold expression of
 F^2^ > 2\s(F^2^) is used only for calculating R-factors(gt) etc. and is
 not relevant to the choice of reflections for refinement.  R-factors based
 on F^2^ are statistically about twice as large as those based on F, and R-
 factors based on ALL data will be even larger.
;

_refine_ls_structure_factor_coef Fsqd
_refine_ls_matrix_type           fullcycle
_refine_ls_weighting_scheme      calc
_refine_ls_weighting_details     
'calc w=1/[\s^2^(Fo^2^)+(0.2000P)^2^+0.0000P] where P=(Fo^2^+2Fc^2^)/3'
_atom_sites_solution_primary     direct
_atom_sites_solution_secondary   difmap
_atom_sites_solution_hydrogens   geom
_refine_ls_hydrogen_treatment    mixed
_refine_ls_extinction_method     none
_refine_ls_extinction_coef       ?
_refine_ls_number_reflns         15858
_refine_ls_number_parameters     739
_refine_ls_number_restraints     336
_refine_ls_R_factor_all          0.2258
_refine_ls_R_factor_gt           0.1759
_refine_ls_wR_factor_ref         0.4579
_refine_ls_wR_factor_gt          0.4344
_refine_ls_goodness_of_fit_ref   1.548
_refine_ls_restrained_S_all      1.574
_refine_ls_shift/su_max          0.076
_refine_ls_shift/su_mean         0.010

loop_
_atom_site_label
_atom_site_type_symbol
_atom_site_fract_x
_atom_site_fract_y
_atom_site_fract_z
_atom_site_U_iso_or_equiv
_atom_site_adp_type
_atom_site_occupancy
_atom_site_symmetry_multiplicity
_atom_site_calc_flag
_atom_site_refinement_flags
_atom_site_disorder_assembly
_atom_site_disorder_group
Zn1 Zn 0.12408(6) 0.51006(7) 0.03651(6) 0.0205(3) Uani 1 1 d . . .
Zn2 Zn -0.37594(7) 0.51047(9) 0.46352(6) 0.0342(4) Uani 1 1 d . . .
N4 N 0.1195(4) 0.6478(5) 0.0331(4) 0.0210(16) Uani 1 1 d U . .
N2 N 0.1236(5) 0.3800(7) 0.0377(5) 0.043(2) Uani 1 1 d U . .
C3 C 0.1166(7) 0.8250(7) 0.0364(7) 0.041(3) Uani 1 1 d U . .
N3 N -0.3764(5) 0.3822(6) 0.4618(5) 0.0299(19) Uani 1 1 d U . .
N1 N -0.3824(5) 0.6418(5) 0.4672(5) 0.0275(19) Uani 1 1 d U . .
C1 C 0.0770(9) 0.6976(8) 0.0936(8) 0.056(3) Uani 1 1 d U . .
H1 H 0.0488 0.6707 0.1352 0.067 Uiso 1 1 calc R . .
C2 C 0.0755(8) 0.7814(8) 0.0943(8) 0.054(3) Uani 1 1 d U . .
H2 H 0.0452 0.8124 0.1358 0.065 Uiso 1 1 calc R . .
C5 C 0.1552(8) 0.6866(8) -0.0221(7) 0.050(3) Uani 1 1 d U . .
H5 H 0.1818 0.6543 -0.0647 0.060 Uiso 1 1 calc R . .
C6 C 0.1067(11) 0.9677(11) 0.1063(10) 0.080(5) Uani 1 1 d U . .
H6 H 0.0948 0.9398 0.1549 0.096 Uiso 1 1 calc R . .
C8 C 0.1223(10) 0.9652(8) -0.0340(9) 0.065(4) Uani 1 1 d U . .
H8 H 0.1176 0.9364 -0.0835 0.078 Uiso 1 1 calc R . .
C16 C 0.1094(11) 0.0568(10) 0.1039(10) 0.077(4) Uani 1 1 d U . .
H16 H 0.1024 0.0878 0.1527 0.093 Uiso 1 1 calc R . .
C27 C -0.3741(13) 0.9691(15) 0.5337(13) 0.107(6) Uani 1 1 d U . .
H27 H -0.3723 0.9400 0.5836 0.128 Uiso 1 1 calc R . .
C21 C -0.3665(16) 0.0548(18) 0.5341(16) 0.132(8) Uani 1 1 d U . .
H21 H -0.3514 0.0815 0.5822 0.159 Uiso 1 1 calc R . .
C23 C -0.3944(14) 0.0586(15) 0.3940(14) 0.109(7) Uani 1 1 d U . .
H23 H -0.4048 0.0892 0.3453 0.131 Uiso 1 1 calc R . .
C10 C 0.0876(10) 0.2468(10) 0.0981(9) 0.065(4) Uani 1 1 d U . .
H10 H 0.0669 0.2190 0.1435 0.078 Uiso 1 1 calc R . .
O9 O 0.0744(6) 0.5075(8) 0.4006(5) 0.087(3) Uani 1 1 d DU . .
O10 O 0.5725(6) 0.5079(8) 0.0998(5) 0.082(3) Uani 1 1 d DU . .
C13 C 0.1617(9) 0.3245(9) -0.0200(7) 0.054(3) Uani 1 1 d U . .
H13 H 0.1931 0.3487 -0.0610 0.065 Uiso 1 1 calc R . .
C40 C 0.0021(9) 0.5145(11) 0.3530(8) 0.066(4) Uani 1 1 d U . .
C44 C 0.5005(10) 0.5237(12) 0.1493(8) 0.072(4) Uani 1 1 d U . .
C43 C 0.4236(7) 0.5075(10) 0.1126(8) 0.057(3) Uani 1 1 d U . .
H43 H 0.4216 0.4990 0.0561 0.068 Uiso 1 1 calc R . .
C41 C -0.0773(7) 0.5048(10) 0.3894(8) 0.056(3) Uani 1 1 d U . .
H41 H -0.0814 0.4991 0.4461 0.067 Uiso 1 1 calc R . .
C49 C 0.6447(11) 0.5632(9) 0.1294(12) 0.108(6) Uani 1 1 d DU . .
H49A H 0.6633 0.5399 0.1825 0.130 Uiso 1 1 calc R . .
H49B H 0.6930 0.5494 0.0924 0.130 Uiso 1 1 calc R . .
C45 C 0.3552(7) 0.5092(8) 0.2411(6) 0.041(3) Uani 1 1 d U . .
H45 H 0.3044 0.5122 0.2715 0.049 Uiso 1 1 calc R . .
C39 C 0.0083(7) 0.5134(9) 0.2624(6) 0.045(3) Uani 1 1 d U . .
H39 H 0.0608 0.5151 0.2354 0.054 Uiso 1 1 calc R . .
C12 C 0.1584(9) 0.2396(9) -0.0237(9) 0.061(4) Uani 1 1 d U . .
H12 H 0.1817 0.2093 -0.0691 0.073 Uiso 1 1 calc R . .
C14 C 0.1293(10) 0.0567(10) -0.0346(10) 0.069(4) Uani 1 1 d U . .
H14 H 0.1391 0.0852 -0.0833 0.083 Uiso 1 1 calc R . .
C19 C -0.3765(8) 0.1960(9) 0.4622(8) 0.050(3) Uani 1 1 d U . .
C22 C -0.3814(11) 0.1021(13) 0.4630(11) 0.085(5) Uani 1 1 d U . .
C47 C -0.0603(7) 0.5037(8) 0.1279(6) 0.042(3) Uani 1 1 d U . .
C48 C 0.5076(7) 0.5160(8) 0.2379(6) 0.042(3) Uani 1 1 d U . .
H48 H 0.5608 0.5148 0.2642 0.051 Uiso 1 1 calc R . .
C24 C -0.3465(10) 0.6905(10) 0.5221(8) 0.064(4) Uani 1 1 d U . .
H24 H -0.3185 0.6603 0.5655 0.077 Uiso 1 1 calc R . .
C11 C 0.1229(8) 0.1973(7) 0.0356(7) 0.044(3) Uani 1 1 d U . .
C7 C 0.1223(8) 0.9222(7) 0.0345(7) 0.042(3) Uani 1 1 d U . .
C15 C 0.1215(7) 0.0989(7) 0.0356(7) 0.037(3) Uani 1 1 d U . .
O5 O -0.1258(3) 0.4912(4) 0.0861(3) 0.0142(12) Uani 1 1 d U . .
O7 O -0.6272(5) 0.4934(6) 0.4153(4) 0.0427(18) Uani 1 1 d U . .
O1 O 0.2625(4) 0.5022(5) 0.0404(4) 0.0306(16) Uani 1 1 d . . .
O4 O -0.2384(4) 0.4999(5) 0.4600(4) 0.0335(17) Uani 1 1 d . . .
O2 O 0.1976(4) 0.5062(5) 0.1618(4) 0.0331(17) Uani 1 1 d . . .
O3 O -0.3023(4) 0.5068(5) 0.3391(4) 0.0364(19) Uani 1 1 d . . .
C26 C -0.3817(10) 0.8236(10) 0.4636(9) 0.071(4) Uani 1 1 d . . .
C28 C -0.3845(11) 0.9216(12) 0.4613(11) 0.080(5) Uani 1 1 d . . .
C32 C -0.2367(6) 0.5046(7) 0.3842(6) 0.033(2) Uani 1 1 d . . .
C31 C 0.2627(6) 0.5038(7) 0.1149(6) 0.030(2) Uani 1 1 d . . .
C17 C -0.3384(10) 0.3241(9) 0.5192(7) 0.063(4) Uani 1 1 d . . .
H17 H -0.3075 0.3477 0.5608 0.076 Uiso 1 1 calc R . .
C29 C -0.3929(14) 0.9665(14) 0.3924(11) 0.109(7) Uani 1 1 d . . .
H29 H -0.3979 0.9382 0.3427 0.131 Uiso 1 1 calc R . .
C18 C -0.3404(10) 0.2347(9) 0.5227(9) 0.067(4) Uani 1 1 d . . .
H18 H -0.3166 0.2032 0.5673 0.080 Uiso 1 1 calc R . .
C33 C -0.1493(7) 0.5038(10) 0.3412(7) 0.050(3) Uani 1 1 d . . .
C25 C -0.3444(11) 0.7765(10) 0.5245(9) 0.074(4) Uani 1 1 d . . .
H25 H -0.3176 0.8023 0.5675 0.088 Uiso 1 1 calc R . .
C4 C 0.1575(15) 0.7677(10) -0.0235(11) 0.116(9) Uani 1 1 d . . .
H4 H 0.1875 0.7910 -0.0660 0.140 Uiso 1 1 calc R . .
C9 C 0.0807(9) 0.3348(10) 0.0985(7) 0.062(4) Uani 1 1 d . . .
H9 H 0.0477 0.3653 0.1386 0.075 Uiso 1 1 calc R . .
C34 C -0.4253(9) 0.6942(10) 0.4061(8) 0.063(4) Uani 1 1 d . . .
H34 H -0.4551 0.6683 0.3651 0.076 Uiso 1 1 calc R . .
C20 C -0.4168(10) 0.3348(11) 0.4002(7) 0.069(4) Uani 1 1 d . . .
H20 H -0.4483 0.3650 0.3590 0.083 Uiso 1 1 calc R . .
O6 O -0.4908(4) 0.5230(5) 0.4028(4) 0.0369(18) Uani 1 1 d . . .
O8 O 0.0103(4) 0.5229(5) 0.0976(4) 0.0321(17) Uani 1 1 d . . .
C38 C -0.0673(6) 0.5096(9) 0.2206(6) 0.045(3) Uani 1 1 d . . .
C42 C 0.3501(6) 0.5039(10) 0.1590(6) 0.054(4) Uani 1 1 d . . .
C46 C 0.4319(7) 0.5105(10) 0.2821(6) 0.056(4) Uani 1 1 d . . .
C37 C -0.1431(7) 0.5015(8) 0.2576(6) 0.037(3) Uani 1 1 d . . .
H37 H -0.1916 0.4941 0.2261 0.045 Uiso 1 1 calc R . .
C36 C -0.4108(14) 0.2455(11) 0.3998(10) 0.097(6) Uani 1 1 d . . .
H36 H -0.4314 0.2183 0.3541 0.117 Uiso 1 1 calc R . .
C35 C -0.4249(10) 0.7832(10) 0.4048(9) 0.072(4) Uani 1 1 d . . .
H35 H -0.4542 0.8154 0.3635 0.087 Uiso 1 1 calc R . .
C55 C -0.5594(6) 0.5107(7) 0.3715(6) 0.038(2) Uani 1 1 d . . .
C50 C 0.6355(14) 0.6617(10) 0.1392(14) 0.116(7) Uani 1 1 d DU . .
C70 C 0.1403(10) 0.5735(9) 0.3737(10) 0.093(5) Uani 1 1 d DU . .
H70A H 0.1854 0.5637 0.4149 0.112 Uiso 1 1 calc R . .
H70B H 0.1655 0.5472 0.3241 0.112 Uiso 1 1 calc R . .
C71 C 0.1398(11) 0.6692(10) 0.3558(11) 0.087(5) Uani 1 1 d DU . .
C72 C 0.1802(13) 0.6820(10) 0.2874(13) 0.128(6) Uani 1 1 d DU . .
H72 H 0.2008 0.6410 0.2487 0.153 Uiso 1 1 calc R . .
C54 C 0.6173(19) 0.722(2) 0.0868(19) 0.169(11) Uani 1 1 d DU . .
H54 H 0.5882 0.7027 0.0419 0.203 Uiso 1 1 calc R . .
C69 C 0.629(2) 0.811(2) 0.0775(12) 0.222(14) Uani 1 1 d DU . .
H69 H 0.6299 0.8463 0.0312 0.267 Uiso 1 1 calc R . .
C51 C 0.6764 0.6803 0.2069 0.171 Uani 1 1 d DU . .
H51 H 0.6974 0.6385 0.2447 0.205 Uiso 1 1 calc R . .
C52 C 0.6860 0.7729 0.2178 0.250 Uani 1 1 d DU . .
H52 H 0.7209 0.7931 0.2582 0.300 Uiso 1 1 calc R . .
C73 C 0.1183 0.7198 0.4176 0.077 Uani 1 1 d DU . .
C58 C 0.1176 0.6958 0.5019 0.085 Uani 1 1 d U . .
H58 H 0.1170 0.6371 0.5115 0.102 Uiso 1 1 calc R . .
C60 C 0.130(2) 0.858(2) 0.477(2) 0.210(12) Uani 1 1 d U . .
H60 H 0.1521 0.9104 0.4720 0.252 Uiso 1 1 calc R . .
C75 C 0.1201(19) 0.8109(12) 0.400(2) 0.189(11) Uani 1 1 d DU . .
C74 C 0.1462(15) 0.8455(17) 0.3318(15) 0.135(8) Uani 1 1 d DU . .
H74 H 0.1403 0.9034 0.3170 0.163 Uiso 1 1 calc R . .
C53 C 0.6372(16) 0.8291(15) 0.1612(10) 0.162(10) Uani 1 1 d DU . .
H53 H 0.6094 0.8805 0.1814 0.195 Uiso 1 1 calc R . .
C56 C 0.186(2) 0.7730(11) 0.2849(19) 0.224(12) Uani 1 1 d DU . .
H56 H 0.2236 0.7890 0.2445 0.269 Uiso 1 1 calc R . .
C57 C 0.113(2) 0.837(3) 0.544(3) 0.286(15) Uani 1 1 d DU . .
H57 H 0.0927 0.8833 0.5776 0.343 Uiso 1 1 calc R . .
C59 C 0.118(3) 0.755(3) 0.584(3) 0.304(16) Uani 1 1 d DU . .
H59 H 0.1201 0.7398 0.6389 0.365 Uiso 1 1 calc R . .

loop_
_atom_site_aniso_label
_atom_site_aniso_U_11
_atom_site_aniso_U_22
_atom_site_aniso_U_33
_atom_site_aniso_U_23
_atom_site_aniso_U_13
_atom_site_aniso_U_12
Zn1 0.0246(6) 0.0226(7) 0.0150(5) 0.0010(4) -0.0001(4) -0.0058(4)
Zn2 0.0214(6) 0.0726(10) 0.0097(5) -0.0037(5) 0.0009(4) -0.0093(6)
N4 0.0215(18) 0.0203(18) 0.0212(18) 0.0013(10) -0.0003(10) -0.0021(10)
N2 0.032(4) 0.074(5) 0.023(3) -0.013(3) -0.002(3) -0.004(3)
C3 0.048(4) 0.029(4) 0.043(4) -0.002(4) 0.007(4) 0.005(4)
N3 0.015(3) 0.049(4) 0.026(3) 0.016(3) -0.004(3) -0.006(3)
N1 0.026(4) 0.034(5) 0.024(4) -0.022(3) 0.007(3) -0.012(3)
C1 0.069(7) 0.040(7) 0.057(6) -0.002(5) 0.021(5) 0.003(5)
C2 0.066(7) 0.030(6) 0.066(7) -0.010(5) 0.010(6) -0.002(5)
C5 0.070(7) 0.040(7) 0.036(5) 0.001(5) 0.025(5) 0.010(5)
C6 0.107(9) 0.063(8) 0.071(8) -0.003(7) 0.010(7) -0.021(7)
C8 0.099(8) 0.027(6) 0.073(7) 0.004(6) 0.015(6) -0.023(6)
C16 0.113(9) 0.051(8) 0.070(7) -0.007(6) 0.001(7) -0.017(7)
C27 0.115(10) 0.104(10) 0.100(10) -0.026(8) -0.016(8) -0.005(8)
C21 0.134(11) 0.138(12) 0.126(11) 0.015(9) -0.015(9) -0.022(9)
C23 0.129(10) 0.100(10) 0.103(10) 0.002(8) -0.011(8) -0.030(8)
C10 0.088(8) 0.052(7) 0.055(7) 0.009(6) 0.006(6) -0.015(6)
O9 0.056(5) 0.167(8) 0.039(5) 0.016(5) 0.006(4) -0.019(5)
O10 0.050(5) 0.162(8) 0.036(4) -0.011(5) 0.001(4) -0.020(5)
C13 0.069(7) 0.053(7) 0.040(6) -0.006(5) 0.026(5) -0.001(6)
C40 0.052(6) 0.099(9) 0.049(6) -0.014(6) -0.013(5) -0.015(6)
C44 0.063(7) 0.109(9) 0.048(6) 0.026(6) 0.002(6) -0.022(7)
C43 0.028(5) 0.098(8) 0.045(6) 0.012(6) -0.007(4) -0.009(5)
C41 0.033(5) 0.094(8) 0.043(6) -0.012(6) -0.003(4) -0.013(6)
C49 0.106(10) 0.127(10) 0.096(9) 0.002(8) 0.015(8) -0.031(8)
C45 0.028(5) 0.064(7) 0.029(5) -0.011(5) 0.013(4) -0.004(5)
C39 0.024(5) 0.082(8) 0.028(5) -0.007(5) 0.006(4) -0.004(5)
C12 0.075(7) 0.052(7) 0.057(7) -0.011(6) 0.000(6) -0.014(6)
C14 0.091(8) 0.047(7) 0.069(7) 0.006(6) 0.010(6) -0.002(6)
C19 0.061(6) 0.047(7) 0.045(6) 0.003(5) 0.000(5) -0.019(5)
C22 0.091(8) 0.088(9) 0.078(8) 0.005(7) -0.010(7) -0.018(7)
C47 0.029(5) 0.070(7) 0.024(5) -0.004(5) -0.003(4) 0.008(5)
C48 0.027(5) 0.074(7) 0.027(5) 0.001(5) 0.001(4) -0.009(5)
C24 0.083(7) 0.062(8) 0.048(6) 0.001(6) -0.034(6) -0.006(6)
C11 0.063(6) 0.021(6) 0.048(6) -0.001(5) -0.002(5) -0.001(5)
C7 0.053(5) 0.025(4) 0.046(4) -0.002(4) -0.003(4) -0.003(4)
C15 0.045(4) 0.025(4) 0.041(4) -0.004(4) 0.004(3) -0.009(4)
O5 0.0155(14) 0.0141(15) 0.0131(14) 0.0005(10) -0.0013(9) -0.0019(10)
O7 0.040(3) 0.075(4) 0.014(3) -0.014(3) 0.006(2) -0.007(3)
O1 0.029(4) 0.047(5) 0.017(3) 0.002(3) -0.003(3) -0.007(3)
O4 0.023(3) 0.058(5) 0.020(3) -0.016(3) 0.006(3) -0.006(3)
O2 0.018(3) 0.059(5) 0.023(3) 0.008(3) -0.005(3) -0.005(3)
O3 0.017(3) 0.072(6) 0.022(3) -0.009(3) 0.005(3) -0.013(3)
C26 0.094(11) 0.057(10) 0.067(9) 0.010(8) -0.035(8) -0.034(8)
C28 0.082(11) 0.078(13) 0.072(11) 0.010(9) 0.002(8) 0.025(9)
C32 0.022(5) 0.047(7) 0.028(5) -0.003(5) 0.009(4) -0.001(5)
C31 0.024(5) 0.030(6) 0.036(6) 0.001(5) 0.007(4) 0.000(4)
C17 0.097(11) 0.060(10) 0.035(6) 0.017(6) -0.046(7) -0.012(8)
C29 0.150(19) 0.111(18) 0.066(11) -0.003(11) -0.036(11) -0.012(14)
C18 0.092(11) 0.045(9) 0.061(9) 0.006(7) -0.008(8) -0.001(8)
C33 0.023(6) 0.098(11) 0.030(6) 0.002(6) -0.005(4) -0.007(6)
C25 0.103(13) 0.054(10) 0.066(10) -0.002(8) -0.021(9) -0.018(9)
C4 0.22(2) 0.041(11) 0.086(12) 0.002(9) 0.100(14) -0.025(12)
C9 0.083(10) 0.076(11) 0.028(6) 0.010(6) 0.023(6) -0.012(8)
C34 0.075(10) 0.064(11) 0.047(7) -0.021(7) -0.016(7) 0.013(8)
C20 0.086(10) 0.095(13) 0.027(6) 0.022(7) -0.014(6) -0.004(9)
O6 0.025(4) 0.061(5) 0.028(4) 0.004(4) 0.000(3) -0.017(3)
O8 0.024(4) 0.046(5) 0.027(4) -0.011(