####################################################################### 
# 
# This file contains crystal structure data downloaded from the 
# Cambridge Structural Database (CSD) hosted by the Cambridge 
# Crystallographic Data Centre (CCDC).
# 
# Full information about CCDC data access policies and citation 
# guidelines are available at http://www.ccdc.cam.ac.uk/access/V1 
# 
# Audit and citation data items may have been added by the CCDC. 
# Please retain this information to preserve the provenance of 
# this file and to allow appropriate attribution of the data. 
# 
#######################################################################

data_MOF-13
_audit_block_doi                 10.5517/cc129mqq
_database_code_depnum_ccdc_archive 'CCDC 992363'
loop_
_citation_id
_citation_doi
_citation_year
1 10.1002/chem.201402791 2014
_audit_update_record             
;
2014-03-18 deposited with the CCDC.	2024-07-14 downloaded from the CCDC.
;

_audit_creation_method           SHELXL-97
_chemical_name_systematic        
;
 ?
;
_chemical_name_common            ?
_chemical_melting_point          ?
_chemical_formula_moiety         'C72 H47 N4 O10 Zn2'
_chemical_formula_sum            'C72 H47 N4 O10 Zn2'
_chemical_formula_weight         1258.92

loop_
_atom_type_symbol
_atom_type_description
_atom_type_scat_dispersion_real
_atom_type_scat_dispersion_imag
_atom_type_scat_source
C C 0.0033 0.0016 'International Tables Vol C Tables 4.2.6.8 and 6.1.1.4'
H H 0.0000 0.0000 'International Tables Vol C Tables 4.2.6.8 and 6.1.1.4'
N N 0.0061 0.0033 'International Tables Vol C Tables 4.2.6.8 and 6.1.1.4'
O O 0.0106 0.0060 'International Tables Vol C Tables 4.2.6.8 and 6.1.1.4'
Zn Zn 0.2839 1.4301 'International Tables Vol C Tables 4.2.6.8 and 6.1.1.4'

_symmetry_cell_setting           Triclinic
_symmetry_space_group_name_H-M   'P -1'
_symmetry_space_group_name_Hall  '-P 1'

loop_
_symmetry_equiv_pos_as_xyz
'x, y, z'
'-x, -y, -z'

_cell_length_a                   15.637(5)
_cell_length_b                   15.691(5)
_cell_length_c                   16.291(5)
_cell_angle_alpha                90.097(5)
_cell_angle_beta                 90.067(5)
_cell_angle_gamma                90.015(5)
_cell_volume                     3997(2)
_cell_formula_units_Z            2
_cell_measurement_temperature    90(2)
_cell_measurement_reflns_used    ?
_cell_measurement_theta_min      ?
_cell_measurement_theta_max      ?

_exptl_crystal_description       Needles
_exptl_crystal_colour            'light brown'
_exptl_crystal_size_max          0.38
_exptl_crystal_size_mid          0.22
_exptl_crystal_size_min          0.14
_exptl_crystal_density_meas      ?
_exptl_crystal_density_diffrn    1.046
_exptl_crystal_density_method    'not measured'
_exptl_crystal_F_000             1294.0
_exptl_absorpt_coefficient_mu    0.650
_exptl_absorpt_correction_type   EMPIRICAL
_exptl_absorpt_correction_T_min  0.842
_exptl_absorpt_correction_T_max  0.913
_exptl_absorpt_process_details   SADABS

_exptl_special_details           
;
 ?
;

_diffrn_ambient_temperature      90(2)
_diffrn_radiation_wavelength     0.71073
_diffrn_radiation_type           MoK\a
_diffrn_radiation_source         'fine-focus sealed tube'
_diffrn_radiation_monochromator  graphite
_diffrn_measurement_device_type  'CCD area detector'
_diffrn_measurement_method       'phi and omega scan'
_diffrn_detector_area_resol_mean ?
_diffrn_standards_number         ?
_diffrn_standards_interval_count ?
_diffrn_standards_interval_time  ?
_diffrn_standards_decay_%        ?
_diffrn_reflns_number            69317
_diffrn_reflns_av_R_equivalents  0.0660
_diffrn_reflns_av_sigmaI/netI    0.0930
_diffrn_reflns_limit_h_min       -19
_diffrn_reflns_limit_h_max       19
_diffrn_reflns_limit_k_min       -19
_diffrn_reflns_limit_k_max       19
_diffrn_reflns_limit_l_min       -20
_diffrn_reflns_limit_l_max       20
_diffrn_reflns_theta_min         1.25
_diffrn_reflns_theta_max         26.37
_reflns_number_total             16357
_reflns_number_gt                7409
_reflns_threshold_expression     >2\s(I)

_computing_data_collection       'Bruker kappa apex ccd'
_computing_cell_refinement       'Bruker kappa apex ccd'
_computing_data_reduction        'Bruker saint'
_computing_structure_solution    shelxs-97
_computing_structure_refinement  'SHELXL-97 (Sheldrick, 2008)'
_computing_molecular_graphics    ortep-III
_computing_publication_material  WinGX1.80.05

_refine_special_details          
;
 Refinement of F^2^ against ALL reflections.  The weighted R-factor wR and
 goodness of fit S are based on F^2^, conventional R-factors R are based
 on F, with F set to zero for negative F^2^. The threshold expression of
 F^2^ > 2\s(F^2^) is used only for calculating R-factors(gt) etc. and is
 not relevant to the choice of reflections for refinement.  R-factors based
 on F^2^ are statistically about twice as large as those based on F, and R-
 factors based on ALL data will be even larger.
;

_refine_ls_structure_factor_coef Fsqd
_refine_ls_matrix_type           fullcycle
_refine_ls_weighting_scheme      calc
_refine_ls_weighting_details     
'calc w=1/[\s^2^(Fo^2^)+(0.2000P)^2^+0.0000P] where P=(Fo^2^+2Fc^2^)/3'
_atom_sites_solution_primary     direct
_atom_sites_solution_secondary   difmap
_atom_sites_solution_hydrogens   geom
_refine_ls_hydrogen_treatment    mixed
_refine_ls_extinction_method     none
_refine_ls_extinction_coef       ?
_refine_ls_number_reflns         16330
_refine_ls_number_parameters     672
_refine_ls_number_restraints     47
_refine_ls_R_factor_all          0.1771
_refine_ls_R_factor_gt           0.0966
_refine_ls_wR_factor_ref         0.3228
_refine_ls_wR_factor_gt          0.2915
_refine_ls_goodness_of_fit_ref   0.973
_refine_ls_restrained_S_all      0.987
_refine_ls_shift/su_max          1.164
_refine_ls_shift/su_mean         0.153

loop_
_atom_site_label
_atom_site_type_symbol
_atom_site_fract_x
_atom_site_fract_y
_atom_site_fract_z
_atom_site_U_iso_or_equiv
_atom_site_adp_type
_atom_site_occupancy
_atom_site_symmetry_multiplicity
_atom_site_calc_flag
_atom_site_refinement_flags
_atom_site_disorder_assembly
_atom_site_disorder_group
Zn1 Zn 0.12529(3) 1.00007(7) 0.46407(3) 0.0815(4) Uani 1 1 d . . .
Zn2 Zn 0.37470(3) 0.99988(7) 0.96416(3) 0.0826(4) Uani 1 1 d . . .
O7 O 0.3736(2) 0.9989(3) 1.08886(18) 0.0794(16) Uani 1 1 d . . .
O1 O 0.1264(2) 1.0004(4) 0.58781(18) 0.0929(19) Uani 1 1 d . . .
O6 O 0.2400(2) 0.9993(4) 0.9588(2) 0.0930(18) Uani 1 1 d . . .
O2 O 0.2604(2) 0.9996(4) 0.4593(2) 0.0858(17) Uani 1 1 d . . .
O3 O 0.1975(2) 1.0008(3) 0.33946(19) 0.0774(16) Uani 1 1 d . . .
O5 O 0.30254(19) 1.0005(3) 0.83900(19) 0.0818(16) Uani 1 1 d . . .
C14 C 0.0671(3) 0.9997(5) 0.7200(3) 0.076(2) Uani 1 1 d . . .
C2 C 0.4341(3) 0.9985(5) 1.2198(3) 0.073(2) Uani 1 1 d . . .
O4 O 0.0129(2) 1.0005(4) 0.40325(19) 0.106(2) Uani 1 1 d . . .
O8 O 0.4879(2) 0.9993(4) 0.90255(19) 0.0951(19) Uani 1 1 d . . .
C7 C 0.3550(3) 1.0003(4) 1.2569(3) 0.0414(14) Uani 1 1 d . . .
H7 H 0.3055 1.0019 1.2252 0.050 Uiso 1 1 calc R . .
C1 C 0.4417(3) 1.0012(4) 1.1283(3) 0.0494(16) Uani 1 1 d . . .
C15 C 0.1451(3) 0.9984(4) 0.7586(3) 0.0471(16) Uani 1 1 d . . .
H15 H 0.1947 0.9958 0.7273 0.057 Uiso 1 1 calc R . .
C11 C 0.0775(3) 0.9994(5) 0.8900(3) 0.090(3) Uani 1 1 d . . .
H11 H 0.0815 0.9978 0.9469 0.108 Uiso 1 1 calc R . .
C5 C 0.4219(3) 1.0008(6) 1.3895(3) 0.111(3) Uani 1 1 d . . .
H5 H 0.4182 1.0017 1.4465 0.134 Uiso 1 1 calc R . .
O10 O -0.0713(2) 1.0042(6) 0.9023(2) 0.185(4) Uani 1 1 d D . .
C16 C 0.0591(3) 0.9991(4) 0.6284(3) 0.0420(14) Uani 1 1 d . . .
O9 O 0.5709(2) 1.0002(7) 1.4027(2) 0.217(5) Uani 1 1 d D B .
C17 C 0.2628(3) 1.0000(5) 0.3840(3) 0.078(2) Uani 1 1 d . . .
C9 C 0.2368(3) 0.9991(5) 0.8844(3) 0.072(2) Uani 1 1 d . . .
C13 C -0.0096(3) 1.0008(6) 0.7665(3) 0.092(3) Uani 1 1 d . . .
H13 H -0.0628 1.0017 0.7409 0.111 Uiso 1 1 calc R . .
C10 C 0.1512(3) 1.0007(5) 0.8417(3) 0.069(2) Uani 1 1 d . . .
C6 C 0.3497(3) 0.9998(4) 1.3429(3) 0.0569(18) Uani 1 1 d . . .
C3 C 0.5091(3) 0.9990(5) 1.2651(3) 0.088(3) Uani 1 1 d . . .
H3 H 0.5622 0.9984 1.2394 0.106 Uiso 1 1 calc R . .
C4 C 0.5026(3) 1.0003(7) 1.3507(3) 0.124(4) Uani 1 1 d . . .
C12 C -0.0024(3) 1.0006(8) 0.8515(3) 0.147(5) Uani 1 1 d . . .
N2 N 0.3808(3) 1.1318(6) 0.9614(3) 0.107(3) Uani 1 1 d . . .
N3 N 0.1191(3) 0.8705(6) 0.4608(3) 0.113(3) Uani 1 1 d . . .
N1 N 0.3792(3) 0.8663(6) 0.9606(3) 0.105(3) Uani 1 1 d . . .
N4 N 0.1199(3) 1.1312(6) 0.4619(3) 0.117(3) Uani 1 1 d . . .
C34 C 0.1177(5) 0.6821(9) 0.4597(5) 0.105(3) Uani 1 1 d . . .
C26 C 0.3835(5) 0.6844(8) 0.9598(5) 0.095(3) Uani 1 1 d . . .
C37 C 0.1172(6) 0.5898(10) 0.4594(6) 0.116(4) Uani 1 1 d . . .
C29 C 0.3821(5) 0.5937(8) 0.9597(5) 0.093(3) Uani 1 1 d . . .
C24 C 0.3525(6) 0.8128(8) 1.0248(5) 0.104(3) Uani 1 1 d . . .
H24 H 0.3326 0.8397 1.0720 0.125 Uiso 1 1 calc R . .
C30 C 0.3523(6) 1.1838(9) 1.0251(5) 0.112(4) Uani 1 1 d . . .
H30 H 0.3317 1.1564 1.0717 0.134 Uiso 1 1 calc R . .
C25 C 0.3527(8) 0.7275(9) 1.0257(6) 0.132(4) Uani 1 1 d . . .
H25 H 0.3319 0.6981 1.0710 0.158 Uiso 1 1 calc R . .
C32 C 0.1499(6) 0.8126(11) 0.5229(5) 0.140(5) Uani 1 1 d . . .
H32 H 0.1759 0.8378 0.5681 0.168 Uiso 1 1 calc R . .
C33 C 0.1460(9) 0.7272(10) 0.5239(6) 0.153(6) Uani 1 1 d . . .
H33 H 0.1636 0.6984 0.5709 0.183 Uiso 1 1 calc R . .
C39 C 0.1483(6) 1.1829(10) 0.5236(5) 0.132(5) Uani 1 1 d . . .
H39 H 0.1699 1.1559 0.5700 0.159 Uiso 1 1 calc R . .
C40 C 0.1483(8) 1.2711(10) 0.5249(5) 0.132(4) Uani 1 1 d . . .
H40 H 0.1695 1.3000 0.5705 0.159 Uiso 1 1 calc R . .
C41 C 0.0860(6) 1.1796(10) 0.3993(5) 0.140(5) Uani 1 1 d . . .
H41 H 0.0619 1.1505 0.3552 0.168 Uiso 1 1 calc R . .
C28 C 0.4145(7) 0.8189(10) 0.8978(5) 0.144(5) Uani 1 1 d . . .
H28 H 0.4391 0.8476 0.8538 0.173 Uiso 1 1 calc R . .
C35 C 0.0876(7) 0.7381(10) 0.3959(5) 0.140(5) Uani 1 1 d . . .
H35 H 0.0641 0.7126 0.3495 0.168 Uiso 1 1 calc R . .
C36 C 0.0902(7) 0.8272(9) 0.3969(5) 0.133(4) Uani 1 1 d . . .
H36 H 0.0710 0.8569 0.3512 0.160 Uiso 1 1 calc R . .
C27 C 0.4153(9) 0.7310(11) 0.8969(7) 0.169(7) Uani 1 1 d . . .
H27 H 0.4382 0.7029 0.8517 0.203 Uiso 1 1 calc R . .
C31 C 0.4116(7) 1.1843(9) 0.8984(5) 0.124(4) Uani 1 1 d . . .
H31 H 0.4282 1.1563 0.8507 0.149 Uiso 1 1 calc R . .
C54 C 0.1178(5) 1.3154(8) 0.4604(5) 0.090(3) Uani 1 1 d . . .
C52 C 0.3828(5) 1.3186(9) 0.9593(5) 0.097(3) Uani 1 1 d . . .
C44 C 0.3824(5) 0.4099(8) 0.9587(5) 0.096(3) Uani 1 1 d . . .
C49 C 0.1184(5) 0.4084(9) 0.4594(5) 0.103(3) Uani 1 1 d . . .
C53 C 0.3513(7) 1.2690(8) 1.0263(5) 0.120(4) Uani 1 1 d . . .
H53 H 0.3295 1.2968 1.0722 0.145 Uiso 1 1 calc R . .
C51 C 0.4200(7) 1.2663(9) 0.8974(6) 0.124(4) Uani 1 1 d . . .
H51 H 0.4511 1.2916 0.8553 0.149 Uiso 1 1 calc R . .
C55 C 0.0846(7) 1.2675(9) 0.3963(6) 0.128(4) Uani 1 1 d . . .
H55 H 0.0612 1.2948 0.3509 0.154 Uiso 1 1 calc R . .
C43 C 0.3697(16) 0.4550(13) 1.0262(11) 0.295(13) Uani 1 1 d . . .
H43 H 0.3622 0.4257 1.0752 0.354 Uiso 1 1 calc R . .
C45 C 0.4014(13) 0.4636(14) 0.8925(8) 0.223(9) Uani 1 1 d . . .
H45 H 0.4081 0.4385 0.8412 0.268 Uiso 1 1 calc R . .
C47 C 0.0981(14) 0.5410(13) 0.3934(8) 0.227(9) Uani 1 1 d . . .
H47 H 0.0817 0.5687 0.3455 0.273 Uiso 1 1 calc R . .
C48 C 0.1010(14) 0.4562(13) 0.3917(8) 0.216(8) Uani 1 1 d . . .
H48 H 0.0907 0.4285 0.3422 0.259 Uiso 1 1 calc R . .
C46 C 0.4103(17) 0.5460(12) 0.8975(10) 0.246(11) Uani 1 1 d . . .
H46 H 0.4382 0.5736 0.8547 0.295 Uiso 1 1 calc R . .
C50 C 0.1312(15) 0.4578(12) 0.5258(10) 0.253(12) Uani 1 1 d . . .
H50 H 0.1375 0.4309 0.5762 0.304 Uiso 1 1 calc R . .
C42 C 0.3667(13) 0.5431(13) 1.0286(10) 0.242(10) Uani 1 1 d . . .
H42 H 0.3540 0.5698 1.0781 0.290 Uiso 1 1 calc R . .
C38 C 0.1354(13) 0.5382(12) 0.5245(9) 0.215(9) Uani 1 1 d . . .
C56 C -0.1495 1.0674 0.8679 0.244 Uani 1 1 d DU . .
H56A H -0.1919 1.0614 0.9110 0.293 Uiso 1 1 calc R . .
H56B H -0.1719 1.0341 0.8225 0.293 Uiso 1 1 calc R . .
C72 C 0.6509 1.0594 1.3705 0.240 Uani 1 1 d DU . .
H72A H 0.6967 1.0481 1.4093 0.288 Uiso 1 1 calc R A 1
H72B H 0.6686 1.0328 1.3195 0.288 Uiso 1 1 calc R A 1
C73 C 0.7306 1.1842 1.3088 0.552 Uiso 1 1 d GD B 1
H73 H 0.7695 1.1425 1.2929 0.662 Uiso 1 1 calc R B 1
C74 C 0.6578 1.1615 1.3526 0.311 Uiso 1 1 d GD B 1
C75 C 0.5996 1.2237 1.3764 0.604 Uiso 1 1 d G B 1
H75 H 0.5509 1.2086 1.4057 0.725 Uiso 1 1 calc R B 1
C70 C 0.6142 1.3086 1.3566 0.511 Uiso 1 1 d G B 1
H70 H 0.5753 1.3502 1.3725 0.613 Uiso 1 1 calc R B 1
C68 C 0.6870 1.3313 1.3128 0.371 Uiso 1 1 d G B 1
H68 H 0.6968 1.3880 1.2995 0.445 Uiso 1 1 calc R B 1
C67 C 0.7452 1.2690 1.2890 0.682 Uiso 1 1 d G B 1
H67 H 0.7939 1.2842 1.2597 0.819 Uiso 1 1 calc R B 1
C61 C -0.1423 1.3330 0.8367 0.264 Uiso 1 1 d D . .
C60 C -0.2136 1.3173 0.7900 0.376 Uiso 1 1 d D . .
C58 C -0.0846 1.1966 0.8569 0.535 Uiso 1 1 d D . .
H58 H -0.0390 1.1586 0.8548 0.642 Uiso 1 1 calc R . .
C59 C -0.1682 1.1673 0.8356 0.355 Uiso 1 1 d D . .
C62 C -0.0696 1.2797 0.8805 0.603 Uiso 1 1 d D . .
H62 H -0.0264 1.3000 0.9146 0.723 Uiso 1 1 calc R . .
C83 C -0.2294 1.2247 0.7946 0.473 Uiso 1 1 d D . .
C78 C -0.2582 1.4845 0.7956 0.487 Uiso 1 1 d D . .
C80 C -0.3456 1.3811 0.7201 1.484 Uiso 1 1 d D . .
C79 C -0.2648 1.3960 0.7672 0.587 Uiso 1 1 d D . .
C84 C -0.3838 1.4670 0.7025 0.899 Uiso 1 1 d D . .
H84 H -0.4319 1.4618 0.6692 1.079 Uiso 1 1 calc R . .
C85 C -0.3676 1.5558 0.7222 0.720 Uiso 1 1 d D . .
H85 H -0.4055 1.6006 0.7135 0.864 Uiso 1 1 calc R . .
C86 C -0.2828 1.5638 0.7576 0.523 Uiso 1 1 d D . .
H86 H -0.2493 1.6127 0.7561 0.628 Uiso 1 1 calc R . .
C77 C -0.1735 1.4957 0.8234 0.456 Uiso 1 1 d D . .
H77 H -0.1472 1.5489 0.8232 0.547 Uiso 1 1 calc R . .
C81 C -0.3597 1.2861 0.7181 0.524 Uiso 1 1 d D . .
H81 H -0.4143 1.2699 0.7016 0.629 Uiso 1 1 calc R . .
C76 C -0.1303 1.4221 0.8513 1.015 Uiso 1 1 d D . .
H76 H -0.0849 1.4341 0.8864 1.218 Uiso 1 1 calc R . .
C82 C -0.3017 1.2130 0.7376 0.623 Uiso 1 1 d D . .
H82 H -0.3114 1.1600 0.7137 0.748 Uiso 1 1 calc R . .

loop_
_atom_site_aniso_label
_atom_site_aniso_U_11
_atom_site_aniso_U_22
_atom_site_aniso_U_33
_atom_site_aniso_U_23
_atom_site_aniso_U_13
_atom_site_aniso_U_12
Zn1 0.0085(3) 0.2274(13) 0.0085(3) -0.0009(4) 0.0019(2) -0.0017(4)
Zn2 0.0082(3) 0.2319(13) 0.0078(3) -0.0014(4) -0.0012(2) 0.0002(4)
O7 0.0190(18) 0.212(5) 0.0073(15) 0.002(2) -0.0043(13) -0.001(2)
O1 0.0150(17) 0.261(6) 0.0032(14) 0.000(2) 0.0051(12) 0.001(2)
O6 0.0121(16) 0.252(6) 0.0153(17) 0.000(2) -0.0045(13) 0.001(2)
O2 0.0123(16) 0.229(6) 0.0160(17) 0.001(2) 0.0039(13) 0.003(2)
O3 0.0120(16) 0.202(5) 0.0178(17) -0.005(2) 0.0044(13) -0.007(2)
O5 0.0073(15) 0.219(5) 0.0190(18) -0.005(2) -0.0014(13) -0.001(2)
C14 0.009(2) 0.211(8) 0.007(2) -0.004(3) 0.0027(16) 0.001(3)
C2 0.010(2) 0.203(7) 0.006(2) -0.001(3) -0.0009(16) 0.004(3)
O4 0.0139(17) 0.295(7) 0.0101(17) -0.001(3) -0.0025(13) 0.001(3)
O8 0.0165(17) 0.258(6) 0.0104(17) -0.005(2) 0.0013(13) 0.001(2)
C7 0.0076(18) 0.094(5) 0.023(2) -0.003(2) -0.0045(16) 0.007(2)
C1 0.014(2) 0.120(5) 0.014(2) 0.002(2) 0.0042(17) -0.002(3)
C15 0.0079(19) 0.114(5) 0.020(2) 0.001(2) 0.0088(16) -0.002(2)
C11 0.013(2) 0.245(9) 0.013(2) 0.010(3) 0.0036(18) 0.011(4)
C5 0.010(2) 0.316(11) 0.008(2) -0.006(4) 0.0004(18) -0.004(4)
O10 0.017(2) 0.530(13) 0.0078(18) 0.007(4) 0.0014(15) 0.011(4)
C16 0.016(2) 0.095(5) 0.016(2) 0.001(2) 0.0022(16) -0.006(2)
O9 0.0121(19) 0.631(15) 0.0072(19) -0.006(4) -0.0012(15) -0.013(4)
C17 0.013(2) 0.204(8) 0.016(2) -0.006(3) 0.0059(18) -0.004(3)
C9 0.008(2) 0.193(7) 0.015(2) 0.001(3) -0.0033(17) 0.001(3)
C13 0.009(2) 0.251(9) 0.016(2) 0.001(4) 0.0076(19) 0.005(3)
C10 0.006(2) 0.182(7) 0.018(2) -0.007(3) -0.0031(17) -0.004(3)
C6 0.014(2) 0.141(6) 0.016(2) -0.007(3) 0.0038(17) -0.003(3)
C3 0.010(2) 0.234(9) 0.019(3) -0.007(4) -0.0031(19) 0.001(3)
C4 0.019(3) 0.343(13) 0.010(3) 0.003(4) -0.003(2) -0.001(5)
C12 0.009(2) 0.421(15) 0.012(3) -0.005(5) 0.005(2) -0.005(5)
N2 0.023(2) 0.269(10) 0.027(3) -0.001(4) 0.0032(19) -0.011(4)
N3 0.024(2) 0.298(10) 0.016(2) -0.006(4) -0.0059(18) -0.023(4)
N1 0.029(3) 0.265(10) 0.021(2) -0.006(4) 0.0067(19) 0.004(4)
N4 0.027(3) 0.303(11) 0.022(3) -0.008(4) -0.002(2) 0.001(4)
C34 0.062(5) 0.204(11) 0.049(5) 0.006(6) -0.008(3) -0.010(6)
C26 0.064(5) 0.164(10) 0.058(5) 0.002(6) 0.013(4) -0.024(6)
C37 0.064(5) 0.221(13) 0.063(6) 0.001(7) -0.004(4) 0.000(7)
C29 0.079(5) 0.139(10) 0.061(5) 0.004(6) 0.010(4) -0.015(6)
C24 0.085(6) 0.186(11) 0.040(4) 0.003(6) 0.012(4) -0.005(7)
C30 0.081(6) 0.218(12) 0.036(4) -0.009(6) 0.015(4) 0.014(7)
C25 0.154(11) 0.192(13) 0.050(5) -0.007(7) 0.015(5) -0.014(10)
C32 0.070(5) 0.312(18) 0.038(4) -0.026(8) -0.008(4) -0.026(9)
C33 0.189(13) 0.229(15) 0.041(5) -0.001(8) -0.010(6) -0.038(11)
C39 0.067(5) 0.290(15) 0.040(4) 0.013(7) -0.012(4) 0.008(8)
C40 0.131(9) 0.225(13) 0.040(5) 0.004(7) -0.003(5) 0.022(10)
C41 0.101(7) 0.279(16) 0.041(4) 0.010(7) -0.029(4) -0.010(9)
C28 0.096(7) 0.296(17) 0.040(4) 0.011(8) 0.012(4) -0.023(10)
C35 0.131(9) 0.238(14) 0.051(5) 0.012(7) -0.042(5) -0.009(10)
C36 0.108(8) 0.237(14) 0.055(5) 0.020(8) -0.018(5) -0.003(9)
C27 0.176(12) 0.266(17) 0.065(6) -0.019(10) 0.053(7) -0.077(13)
C31 0.115(8) 0.215(13) 0.043(4) -0.003(7) 0.028(4) -0.023(9)
C54 0.063(5) 0.148(10) 0.059(5) 0.006(5) 0.001(4) 0.004(5)
C52 0.055(4) 0.179(11) 0.057(5) -0.004(6) 0.011(3) -0.006(6)
C44 0.074(5) 0.144(1