####################################################################### 
# 
# This file contains crystal structure data downloaded from the 
# Cambridge Structural Database (CSD) hosted by the Cambridge 
# Crystallographic Data Centre (CCDC).
# 
# Full information about CCDC data access policies and citation 
# guidelines are available at http://www.ccdc.cam.ac.uk/access/V1 
# 
# Audit and citation data items may have been added by the CCDC. 
# Please retain this information to preserve the provenance of 
# this file and to allow appropriate attribution of the data. 
# 
#######################################################################

data_1146ys_sqr
_audit_block_doi                 10.5517/cc10hv0c
_database_code_depnum_ccdc_archive 'CCDC 938742'
loop_
_citation_id
_citation_doi
_citation_year
1 10.1134/S0022476614030135 2014
_audit_update_record             
;
2013-05-13 deposited with the CCDC.	2024-07-14 downloaded from the CCDC.
;

_audit_creation_method           SHELXL-97
_chemical_name_systematic        
; 
 ? 
;
_chemical_name_common            ?
_chemical_melting_point          ?
_chemical_formula_moiety         ?
_chemical_formula_sum            'C35 H53 F6 K N4 Ni2 O10'
_chemical_formula_weight         960.33

loop_
_atom_type_symbol
_atom_type_description
_atom_type_scat_dispersion_real
_atom_type_scat_dispersion_imag
_atom_type_scat_source
C C 0.0033 0.0016 'International Tables Vol C Tables 4.2.6.8 and 6.1.1.4'
H H 0.0000 0.0000 'International Tables Vol C Tables 4.2.6.8 and 6.1.1.4'
N N 0.0061 0.0033 'International Tables Vol C Tables 4.2.6.8 and 6.1.1.4'
O O 0.0106 0.0060 'International Tables Vol C Tables 4.2.6.8 and 6.1.1.4'
F F 0.0171 0.0103 'International Tables Vol C Tables 4.2.6.8 and 6.1.1.4'
K K 0.2009 0.2494 'International Tables Vol C Tables 4.2.6.8 and 6.1.1.4'
Ni Ni 0.3393 1.1124 'International Tables Vol C Tables 4.2.6.8 and 6.1.1.4'

_symmetry_cell_setting           Triclinic
_symmetry_space_group_name_H-M   P-1

loop_
_symmetry_equiv_pos_as_xyz
'x, y, z'
'-x, -y, -z'

_cell_length_a                   17.4083(8)
_cell_length_b                   19.6802(9)
_cell_length_c                   20.5154(9)
_cell_angle_alpha                79.814(3)
_cell_angle_beta                 79.357(3)
_cell_angle_gamma                64.558(3)
_cell_volume                     6200.0(5)
_cell_formula_units_Z            4
_cell_measurement_temperature    296(2)
_cell_measurement_reflns_used    9888
_cell_measurement_theta_min      2.28
_cell_measurement_theta_max      20.32

_exptl_crystal_description       prism
_exptl_crystal_colour            yellow
_exptl_crystal_size_max          0.18
_exptl_crystal_size_mid          0.03
_exptl_crystal_size_min          0.03
_exptl_crystal_density_meas      ?
_exptl_crystal_density_diffrn    1.029
_exptl_crystal_density_method    'not measured'
_exptl_crystal_F_000             2000
_exptl_absorpt_coefficient_mu    0.731
_exptl_absorpt_correction_type   multi-scan
_exptl_absorpt_correction_T_min  0.4125
_exptl_absorpt_correction_T_max  0.5612
_exptl_absorpt_process_details   sadabs

_exptl_special_details           
; 
 ? 
;

_diffrn_ambient_temperature      296(2)
_diffrn_radiation_wavelength     0.71073
_diffrn_radiation_type           MoK\a
_diffrn_radiation_source         'fine-focus sealed tube'
_diffrn_radiation_monochromator  graphite
_diffrn_measurement_device_type  'Bruker APEX-II CCD'
_diffrn_measurement_method       '\f and \w scans'
_diffrn_detector_area_resol_mean ?
_diffrn_standards_number         0
_diffrn_standards_interval_count ?
_diffrn_standards_interval_time  ?
_diffrn_standards_decay_%        ?
_diffrn_reflns_number            30171
_diffrn_reflns_av_R_equivalents  0.0000
_diffrn_reflns_av_sigmaI/netI    0.2182
_diffrn_reflns_limit_h_min       -22
_diffrn_reflns_limit_h_max       23
_diffrn_reflns_limit_k_min       -25
_diffrn_reflns_limit_k_max       26
_diffrn_reflns_limit_l_min       0
_diffrn_reflns_limit_l_max       27
_diffrn_reflns_theta_min         1.75
_diffrn_reflns_theta_max         28.36
_reflns_number_total             30171
_reflns_number_gt                9056
_reflns_threshold_expression     >2sigma(I)

_computing_data_collection       'Bruker APEX2'
_computing_cell_refinement       'Bruker SAINT'
_computing_data_reduction        'Bruker SAINT'
_computing_structure_solution    'SHELXS-97 (Sheldrick, 1990)'
_computing_structure_refinement  'SHELXL-97 (Sheldrick, 1997)'
_computing_molecular_graphics    'Bruker SHELXTL'
_computing_publication_material  'Bruker SHELXTL'

_refine_special_details          
; 
 Refinement of F^2^ against ALL reflections.  The weighted R-factor wR and 
 goodness of fit S are based on F^2^, conventional R-factors R are based 
 on F, with F set to zero for negative F^2^. The threshold expression of 
 F^2^ > 2sigma(F^2^) is used only for calculating R-factors(gt) etc. and is 
 not relevant to the choice of reflections for refinement.  R-factors based 
 on F^2^ are statistically about twice as large as those based on F, and R- 
 factors based on ALL data will be even larger. 
;

_refine_ls_structure_factor_coef Fsqd
_refine_ls_matrix_type           full
_refine_ls_weighting_scheme      calc
_refine_ls_weighting_details     
'calc w=1/[\s^2^(Fo^2^)+(0.1202P)^2^+0.0000P] where P=(Fo^2^+2Fc^2^)/3'
_atom_sites_solution_primary     direct
_atom_sites_solution_secondary   difmap
_atom_sites_solution_hydrogens   geom
_refine_ls_hydrogen_treatment    constr
_refine_ls_extinction_method     none
_refine_ls_extinction_coef       ?
_refine_ls_number_reflns         30171
_refine_ls_number_parameters     1045
_refine_ls_number_restraints     0
_refine_ls_R_factor_all          0.1906
_refine_ls_R_factor_gt           0.0879
_refine_ls_wR_factor_ref         0.2536
_refine_ls_wR_factor_gt          0.2345
_refine_ls_goodness_of_fit_ref   0.854
_refine_ls_restrained_S_all      0.854
_refine_ls_shift/su_max          0.002
_refine_ls_shift/su_mean         0.000

loop_
_atom_site_label
_atom_site_type_symbol
_atom_site_fract_x
_atom_site_fract_y
_atom_site_fract_z
_atom_site_U_iso_or_equiv
_atom_site_adp_type
_atom_site_occupancy
_atom_site_symmetry_multiplicity
_atom_site_calc_flag
_atom_site_refinement_flags
_atom_site_disorder_assembly
_atom_site_disorder_group
Ni1 Ni 2.31757(5) -1.05654(4) 0.82753(3) 0.0538(2) Uani 1 1 d . . .
O1 O 2.2528(2) -1.0079(2) 0.74598(16) 0.0505(10) Uani 1 1 d . . .
K1 K 2.34192(8) -1.15556(7) 0.69212(6) 0.0568(4) Uani 1 1 d . . .
C1A C 1.2476(5) -0.4862(5) 0.6077(5) 0.135(4) Uani 1 1 d . . .
H1AA H 1.2019 -0.4606 0.5803 0.202 Uiso 1 1 calc R . .
H1AB H 1.2813 -0.4574 0.6031 0.202 Uiso 1 1 calc R . .
H1AC H 1.2239 -0.4912 0.6535 0.202 Uiso 1 1 calc R . .
Ni2 Ni 1.50024(5) -0.76414(4) 0.67364(4) 0.0579(2) Uani 1 1 d . . .
O2 O 1.4538(3) -0.7026(2) 0.7560(2) 0.0605(11) Uani 1 1 d . . .
K2 K 1.61461(9) -0.80644(7) 0.80846(6) 0.0597(4) Uani 1 1 d . . .
C2A C 2.1474(4) -0.9297(4) 0.8717(3) 0.0606(17) Uani 1 1 d . . .
Ni3 Ni 2.12858(5) -1.01042(4) 0.76667(4) 0.0578(2) Uani 1 1 d . . .
O3 O 2.4199(3) -1.1021(2) 0.76101(17) 0.0590(10) Uani 1 1 d . . .
C3A C 2.3303(11) -0.9312(9) 0.6234(6) 0.302(11) Uani 1 1 d . . .
H3AA H 2.3651 -0.9037 0.6058 0.453 Uiso 1 1 calc R . .
H3AB H 2.2970 -0.9289 0.5900 0.453 Uiso 1 1 calc R . .
H3AC H 2.3665 -0.9831 0.6362 0.453 Uiso 1 1 calc R . .
Ni4 Ni 1.48268(5) -0.60591(4) 0.73032(4) 0.0656(3) Uani 1 1 d . . .
O4 O 1.6142(2) -0.7578(2) 0.66371(19) 0.0606(11) Uani 1 1 d . . .
O5 O 1.5667(3) -0.6536(2) 0.7992(2) 0.0682(12) Uani 1 1 d . . .
C5A C 1.2657(8) -0.6489(8) 0.8836(6) 0.201(6) Uani 1 1 d . . .
H5AA H 1.2406 -0.5954 0.8701 0.302 Uiso 1 1 calc R . .
H5AB H 1.3006 -0.6591 0.9183 0.302 Uiso 1 1 calc R . .
H5AC H 1.2211 -0.6662 0.9000 0.302 Uiso 1 1 calc R . .
O6 O 2.1041(3) -0.9366(2) 0.8349(2) 0.0668(11) Uani 1 1 d . . .
C6A C 2.2695(5) -0.8957(4) 0.6853(3) 0.078(2) Uani 1 1 d . . .
O7 O 2.1695(2) -1.0821(2) 0.69605(19) 0.0628(11) Uani 1 1 d . . .
O8 O 1.5306(3) -0.8541(2) 0.74145(18) 0.0598(11) Uani 1 1 d . . .
C8A C 2.3305(7) -0.9034(6) 0.7345(5) 0.148(4) Uani 1 1 d . . .
H8AA H 2.2978 -0.8769 0.7723 0.222 Uiso 1 1 calc R . .
H8AB H 2.3703 -0.8823 0.7127 0.222 Uiso 1 1 calc R . .
H8AC H 2.3613 -0.9560 0.7493 0.222 Uiso 1 1 calc R . .
O9 O 2.2877(3) -1.1451(2) 0.83949(19) 0.0606(11) Uani 1 1 d . . .
N10 N 2.3968(3) -1.1009(3) 0.9018(2) 0.0541(12) Uani 1 1 d . . .
F11 F 2.5720(4) -1.1168(3) 0.6755(2) 0.1325(19) Uani 1 1 d . . .
N11 N 1.5409(3) -0.8331(3) 0.5990(2) 0.0555(13) Uani 1 1 d . . .
O12 O 1.3914(3) -0.5714(2) 0.6662(2) 0.0731(12) Uani 1 1 d . . .
O13 O 2.1471(3) -0.9228(2) 0.6957(2) 0.0682(12) Uani 1 1 d . . .
F14 F 1.6205(3) -0.9631(2) 0.83508(18) 0.0947(13) Uani 1 1 d . . .
O15 O 1.5783(3) -0.6354(3) 0.6557(2) 0.0734(12) Uani 1 1 d . . .
O16 O 2.1447(3) -1.0975(2) 0.84004(19) 0.0691(12) Uani 1 1 d . . .
O17 O 2.4450(3) -1.1586(3) 1.0673(2) 0.0810(13) Uani 1 1 d . . .
N18 N 1.5922(3) -0.8777(3) 0.4952(2) 0.0650(14) Uani 1 1 d . . .
F19 F 2.5286(2) -1.2000(2) 0.67244(19) 0.0917(12) Uani 1 1 d . . .
F20 F 2.6325(3) -1.2254(3) 0.7212(2) 0.1143(16) Uani 1 1 d . . .
C22 C 2.2177(5) -1.1479(3) 0.8520(2) 0.0500(15) Uani 1 1 d . . .
F23 F 1.6326(3) -1.0509(2) 0.78232(18) 0.0974(13) Uani 1 1 d . . .
N24 N 2.0039(3) -0.9922(3) 0.7652(2) 0.0594(13) Uani 1 1 d . . .
N25 N 2.4439(3) -1.1446(3) 1.0054(2) 0.0671(14) Uani 1 1 d . . .
F26 F 1.7142(3) -0.7410(3) 0.8516(2) 0.1188(16) Uani 1 1 d . . .
F27 F 2.2438(3) -1.2218(3) 0.6505(3) 0.1382(19) Uani 1 1 d . . .
O28 O 1.6072(3) -0.8814(3) 0.4328(2) 0.0825(14) Uani 1 1 d . . .
N29 N 1.4875(4) -0.5048(3) 0.7305(3) 0.0689(15) Uani 1 1 d . . .
C30 C 1.5998(4) -0.9529(4) 0.6695(3) 0.0626(17) Uani 1 1 d . . .
H30A H 1.6295 -1.0050 0.6696 0.075 Uiso 1 1 calc R . .
C31 C 1.5830(5) -0.9796(4) 0.7935(3) 0.0646(18) Uani 1 1 d . . .
C32 C 1.6228(4) -0.9440(4) 0.5453(3) 0.0679(18) Uani 1 1 d . . .
F34 F 1.5105(3) -0.9779(3) 0.8247(2) 0.1172(16) Uani 1 1 d . . .
C35 C 2.1227(5) -1.1104(4) 0.6791(3) 0.0692(19) Uani 1 1 d . . .
O36 O 1.4197(3) -0.6755(3) 0.6212(2) 0.0828(14) Uani 1 1 d . . .
C37 C 2.5569(4) -1.1731(4) 0.7114(3) 0.0635(17) Uani 1 1 d . . .
C38 C 2.5243(4) -1.1725(3) 0.8314(3) 0.0622(17) Uani 1 1 d . . .
H38A H 2.5808 -1.2078 0.8323 0.075 Uiso 1 1 calc R . .
C39 C 1.5703(4) -0.9233(4) 0.7300(3) 0.0571(17) Uani 1 1 d . . .
C40 C 1.9823(4) -1.0346(4) 0.7357(4) 0.074(2) Uani 1 1 d . . .
C41 C 2.4958(4) -1.1477(3) 0.7730(3) 0.0480(14) Uani 1 1 d . . .
O42 O 1.4271(3) -0.3069(3) 0.6955(3) 0.1008(17) Uani 1 1 d . . .
C43 C 1.6318(5) -0.7023(4) 0.6475(3) 0.0637(18) Uani 1 1 d . . .
C44 C 1.5868(4) -0.9073(4) 0.6072(3) 0.0576(16) Uani 1 1 d . . .
C45 C 1.5358(4) -0.8089(4) 0.5256(3) 0.0648(18) Uani 1 1 d . . .
C46 C 2.4740(4) -1.1491(4) 0.8946(3) 0.0564(16) Uani 1 1 d . . .
F48 F 2.1984(4) -1.1412(3) 0.5720(3) 0.166(2) Uani 1 1 d . . .
F49 F 2.1304(3) -1.2050(3) 0.6169(3) 0.147(2) Uani 1 1 d . . .
N50 N 1.8600(4) -0.9464(4) 0.7787(3) 0.0774(16) Uani 1 1 d . . .
C51 C 2.3686(4) -1.0873(4) 0.9735(3) 0.0662(18) Uani 1 1 d . . .
C52 C 1.6091(4) -0.6216(4) 0.8162(3) 0.0744(19) Uani 1 1 d . . .
O53 O 1.3779(4) -0.5998(3) 0.8063(3) 0.1083(18) Uani 1 1 d . . .
C54 C 2.2195(4) -0.9444(3) 0.7099(3) 0.0603(16) Uani 1 1 d . . .
O55 O 1.7789(3) -0.9066(3) 0.7982(3) 0.1029(16) Uani 1 1 d . . .
C56 C 1.3773(5) -0.6075(5) 0.6289(3) 0.0685(19) Uani 1 1 d . . .
C57 C 2.0390(5) -1.0940(4) 0.6974(3) 0.0713(19) Uani 1 1 d . . .
H57A H 2.0166 -1.1238 0.6840 0.086 Uiso 1 1 calc R . .
C58 C 2.2125(4) -1.2235(4) 0.8867(3) 0.0733(19) Uani 1 1 d . . .
C59 C 1.6047(5) -0.5507(4) 0.7989(4) 0.087(2) Uani 1 1 d . . .
H59A H 1.6432 -0.5376 0.8139 0.104 Uiso 1 1 calc R . .
F60 F 1.7213(4) -0.6482(3) 0.8819(3) 0.181(3) Uani 1 1 d . . .
C61 C 1.3192(5) -0.6890(4) 0.8258(4) 0.079(2) Uani 1 1 d . . .
N62 N 1.4592(4) -0.3756(3) 0.7145(3) 0.0877(18) Uani 1 1 d . . .
C63 C 2.2898(4) -1.1036(4) 1.0017(3) 0.081(2) Uani 1 1 d . . .
H63A H 2.3002 -1.1534 0.9930 0.121 Uiso 1 1 calc R . .
H63B H 2.2412 -1.0669 0.9808 0.121 Uiso 1 1 calc R . .
H63C H 2.2786 -1.1008 1.0489 0.121 Uiso 1 1 calc R . .
C64 C 1.7207(4) -0.7102(4) 0.6160(4) 0.0708(19) Uani 1 1 d . . .
C65 C 2.5178(4) -1.1816(4) 0.9580(3) 0.0659(18) Uani 1 1 d . . .
C66 C 1.5880(5) -1.0008(4) 0.5383(3) 0.080(2) Uani 1 1 d . . .
H66A H 1.5265 -0.9773 0.5444 0.120 Uiso 1 1 calc R . .
H66B H 1.6079 -1.0435 0.5713 0.120 Uiso 1 1 calc R . .
H66C H 1.6076 -1.0174 0.4946 0.120 Uiso 1 1 calc R . .
F67 F 1.6265(4) -0.6855(3) 0.9238(3) 0.155(2) Uani 1 1 d . . .
C69 C 1.3042(5) -0.5647(4) 0.5857(3) 0.082(2) Uani 1 1 d . . .
C70 C 1.5433(5) -0.4951(4) 0.7584(4) 0.076(2) Uani 1 1 d . . .
C72 C 2.1093(4) -0.8629(4) 0.9143(3) 0.0709(19) Uani 1 1 d . . .
C73 C 1.8872(4) -1.0139(4) 0.7470(4) 0.074(2) Uani 1 1 d . . .
C74 C 1.5372(5) -0.4151(4) 0.7460(4) 0.083(2) Uani 1 1 d . . .
C75 C 2.3580(5) -1.0066(4) 0.9850(3) 0.088(2) Uani 1 1 d . . .
H75A H 2.4093 -0.9998 0.9661 0.132 Uiso 1 1 calc R . .
H75B H 2.3479 -1.0022 1.0320 0.132 Uiso 1 1 calc R . .
H75C H 2.3103 -0.9685 0.9639 0.132 Uiso 1 1 calc R . .
C76 C 1.3900(6) -0.6661(5) 0.7947(4) 0.085(2) Uani 1 1 d . . .
C77 C 2.1682(5) -1.1691(5) 0.6305(5) 0.095(2) Uani 1 1 d . . .
C78 C 1.9307(4) -0.9364(4) 0.7974(4) 0.0721(19) Uani 1 1 d . . .
C79 C 1.6679(6) -0.6716(4) 0.8658(5) 0.085(2) Uani 1 1 d . . .
C80 C 1.4445(4) -0.7859(4) 0.5101(3) 0.090(2) Uani 1 1 d . . .
H80A H 1.4272 -0.8267 0.5265 0.134 Uiso 1 1 calc R . .
H80B H 1.4431 -0.7750 0.4628 0.134 Uiso 1 1 calc R . .
H80C H 1.4061 -0.7418 0.5315 0.134 Uiso 1 1 calc R . .
C82 C 1.5698(5) -0.7477(4) 0.5024(3) 0.081(2) Uani 1 1 d . . .
H82A H 1.6269 -0.7658 0.5140 0.122 Uiso 1 1 calc R . .
H82B H 1.5332 -0.7031 0.5238 0.122 Uiso 1 1 calc R . .
H82C H 1.5708 -0.7358 0.4549 0.122 Uiso 1 1 calc R . .
C83 C 1.7167(5) -0.6615(5) 0.5488(4) 0.129(3) Uani 1 1 d . . .
H83A H 1.6804 -0.6096 0.5551 0.194 Uiso 1 1 calc R . .
H83B H 1.6939 -0.6784 0.5189 0.194 Uiso 1 1 calc R . .
H83C H 1.7733 -0.6660 0.5304 0.194 Uiso 1 1 calc R . .
O84 O 2.2266(3) -0.9735(3) 0.87873(18) 0.0703(12) Uani 1 1 d . . .
C86 C 2.1668(5) -0.8239(4) 0.9103(4) 0.108(3) Uani 1 1 d . . .
H86A H 2.1746 -0.8018 0.8653 0.161 Uiso 1 1 calc R . .
H86B H 2.2213 -0.8599 0.9233 0.161 Uiso 1 1 calc R . .
H86C H 2.1416 -0.7849 0.9397 0.161 Uiso 1 1 calc R . .
C87 C 1.7217(4) -0.9798(4) 0.5346(3) 0.090(2) Uani 1 1 d . . .
H87A H 1.7424 -0.9426 0.5376 0.135 Uiso 1 1 calc R . .
H87B H 1.7412 -0.9975 0.4913 0.135 Uiso 1 1 calc R . .
H87C H 1.7428 -1.0216 0.5683 0.135 Uiso 1 1 calc R . .
C88 C 1.5240(5) -0.3764(4) 0.8096(4) 0.098(2) Uani 1 1 d . . .
H88A H 1.4737 -0.3771 0.8377 0.148 Uiso 1 1 calc R . .
H88B H 1.5172 -0.3249 0.7968 0.148 Uiso 1 1 calc R . .
H88C H 1.5730 -0.4033 0.8334 0.148 Uiso 1 1 calc R . .
C93 C 2.0967(5) -0.9001(4) 0.9877(3) 0.102(3) Uani 1 1 d . . .
H93A H 2.1514 -0.9356 1.0007 0.152 Uiso 1 1 calc R . .
H93B H 2.0603 -0.9259 0.9898 0.152 Uiso 1 1 calc R . .
H93C H 2.0708 -0.8614 1.0174 0.152 Uiso 1 1 calc R . .
C95 C 1.6162(5) -0.4138(4) 0.6982(4) 0.113(3) Uani 1 1 d . . .
H95A H 1.6221 -0.4375 0.6594 0.169 Uiso 1 1 calc R . .
H95B H 1.6666 -0.4407 0.7204 0.169 Uiso 1 1 calc R . .
H95C H 1.6090 -0.3623 0.6850 0.169 Uiso 1 1 calc R . .
C97 C 1.4309(5) -0.4325(4) 0.6958(4) 0.0734(19) Uani 1 1 d . . .
C99 C 1.3388(4) -0.4139(4) 0.7255(4) 0.092(2) Uani 1 1 d . . .
H99A H 1.3336 -0.4131 0.7728 0.138 Uiso 1 1 calc R . .
H99B H 1.3220 -0.4516 0.7169 0.138 Uiso 1 1 calc R . .
H99C H 1.3025 -0.3651 0.7056 0.138 Uiso 1 1 calc R . .
C101 C 1.2479(5) -0.6077(5) 0.5929(4) 0.115(3) Uani 1 1 d . . .
H10A H 1.2011 -0.5797 0.5670 0.173 Uiso 1 1 calc R . .
H10B H 1.2259 -0.6141 0.6390 0.173 Uiso 1 1 calc R . .
H10C H 1.2812 -0.6564 0.5773 0.173 Uiso 1 1 calc R . .
C103 C 2.1546(7) -1.2058(5) 0.9522(5) 0.210(7) Uani 1 1 d . . .
H10D H 2.1484 -1.2507 0.9745 0.315 Uiso 1 1 calc R . .
H10E H 2.0993 -1.1672 0.9435 0.315 Uiso 1 1 calc R . .
H10F H 2.1793 -1.1882 0.9801 0.315 Uiso 1 1 calc R . .
C105 C 2.0246(5) -0.8067(4) 0.8936(4) 0.098(2) Uani 1 1 d . . .
H10G H 2.0330 -0.7835 0.8492 0.147 Uiso 1 1 calc R . .
H10H H 1.9984 -0.7685 0.9238 0.147 Uiso 1 1 calc R . .
H10I H 1.9879 -0.8321 0.8947 0.147 Uiso 1 1 calc R . .
C106 C 1.7609(5) -0.6879(5) 0.6613(5) 0.126(3) Uani 1 1 d . . .
H10J H 1.7651 -0.7199 0.7028 0.189 Uiso 1 1 calc R . .
H10K H 1.7265 -0.6362 0.6693 0.189 Uiso 1 1 calc R . .
H10L H 1.8172 -0.6931 0.6410 0.189 Uiso 1 1 calc R . .
C107 C 1.3613(7) -0.7756(7) 0.8539(5) 0.197(6) Uani 1 1 d . . .
H10M H 1.3964 -0.8049 0.8183 0.296 Uiso 1 1 calc R . .
H10N H 1.3170 -0.7926 0.8728 0.296 Uiso 1 1 calc R . .
H10O H 1.3961 -0.7819 0.8877 0.296 Uiso 1 1 calc R . .
C108 C 2.5915(5) -1.1613(5) 0.9592(3) 0.110(3) Uani 1 1 d . . .
H10P H 2.5721 -1.1072 0.9528 0.165 Uiso 1 1 calc R . .
H10R H 2.6360 -1.1831 0.9240 0.165 Uiso 1 1 calc R . .
H10Y H 2.6134 -1.1806 1.0014 0.165 Uiso 1 1 calc R . .
C110 C 1.3411(5) -0.5562(5) 0.5131(4) 0.118(3) Uani 1 1 d . . .
H11A H 1.2952 -0.5283 0.4862 0.178 Uiso 1 1 calc R . .
H11B H 1.3743 -0.6054 0.4983 0.178 Uiso 1 1 calc R . .
H11C H 1.3771 -0.5296 0.5088 0.178 Uiso 1 1 calc R . .
C111 C 1.9252(4) -0.8560(4) 0.7691(3) 0.080(2) Uani 1 1 d . . .
H11D H 1.9288 -0.8506 0.7214 0.119 Uiso 1 1 calc R . .
H11E H 1.9716 -0.8491 0.7817 0.119 Uiso 1 1 calc R . .
H11F H 1.8716 -0.8187 0.7868 0.119 Uiso 1 1 calc R . .
C113 C 1.4494(5) -0.4363(4) 0.6203(4) 0.100(2) Uani 1 1 d . . .
H11G H 1.5092 -0.4487 0.6062 0.149 Uiso 1 1 calc R . .
H11H H 1.4159 -0.3881 0.5978 0.149 Uiso 1 1 calc R . .
H11I H 1.4348 -0.4744 0.6094 0.149 Uiso 1 1 calc R . .
C114 C 1.2617(7) -0.6786(8) 0.7801(6) 0.228