####################################################################### 
# 
# This file contains crystal structure data downloaded from the 
# Cambridge Structural Database (CSD) hosted by the Cambridge 
# Crystallographic Data Centre (CCDC).
# 
# Full information about CCDC data access policies and citation 
# guidelines are available at http://www.ccdc.cam.ac.uk/access/V1 
# 
# Audit and citation data items may have been added by the CCDC. 
# Please retain this information to preserve the provenance of 
# this file and to allow appropriate attribution of the data. 
# 
#######################################################################

data_v_49_oh29_corr
_audit_block_doi                 10.5517/cc129prt
_database_code_depnum_ccdc_archive 'CCDC 992426'
loop_
_citation_id
_citation_doi
_citation_year
1 10.1021/cg5008236 2014
_audit_update_record             
;
2015-02-16 deposited with the CCDC.	2024-07-14 downloaded from the CCDC.
;

_audit_creation_method           SHELXL-97
_chemical_name_systematic        
; 
 ? 
;
_chemical_name_common            ?
_chemical_melting_point          ?
_chemical_formula_moiety         ?
_chemical_formula_sum            'C91.50 H169 Cl3 Fe6 N6 O44'
_chemical_formula_weight         2498.78

loop_
_atom_type_symbol
_atom_type_description
_atom_type_scat_dispersion_real
_atom_type_scat_dispersion_imag
_atom_type_scat_source
C C 0.0033 0.0016 'International Tables Vol C Tables 4.2.6.8 and 6.1.1.4'
H H 0.0000 0.0000 'International Tables Vol C Tables 4.2.6.8 and 6.1.1.4'
N N 0.0061 0.0033 'International Tables Vol C Tables 4.2.6.8 and 6.1.1.4'
O O 0.0106 0.0060 'International Tables Vol C Tables 4.2.6.8 and 6.1.1.4'
Cl Cl 0.1484 0.1585 'International Tables Vol C Tables 4.2.6.8 and 6.1.1.4'
Fe Fe 0.3463 0.8444 'International Tables Vol C Tables 4.2.6.8 and 6.1.1.4'

_symmetry_cell_setting           hexagonal
_symmetry_space_group_name_H-M   P6/mcc

loop_
_symmetry_equiv_pos_as_xyz
'x, y, z'
'-y, x-y, z'
'-x+y, -x, z'
'-x, -y, z'
'y, -x+y, z'
'x-y, x, z'
'y, x, -z+1/2'
'x-y, -y, -z+1/2'
'-x, -x+y, -z+1/2'
'-y, -x, -z+1/2'
'-x+y, y, -z+1/2'
'x, x-y, -z+1/2'
'-x, -y, -z'
'y, -x+y, -z'
'x-y, x, -z'
'x, y, -z'
'-y, x-y, -z'
'-x+y, -x, -z'
'-y, -x, z-1/2'
'-x+y, y, z-1/2'
'x, x-y, z-1/2'
'y, x, z-1/2'
'x-y, -y, z-1/2'
'-x, -x+y, z-1/2'

_cell_length_a                   38.8452(8)
_cell_length_b                   38.8452(8)
_cell_length_c                   24.8241(7)
_cell_angle_alpha                90.00
_cell_angle_beta                 90.00
_cell_angle_gamma                120.00
_cell_volume                     32439.8(13)
_cell_formula_units_Z            8
_cell_measurement_temperature    293(2)
_cell_measurement_reflns_used    8057
_cell_measurement_theta_min      2.8877
_cell_measurement_theta_max      28.3507

_exptl_crystal_description       prizm
_exptl_crystal_colour            brown
_exptl_crystal_size_max          0.21
_exptl_crystal_size_mid          0.19
_exptl_crystal_size_min          0.16
_exptl_crystal_density_meas      ?
_exptl_crystal_density_diffrn    1.023
_exptl_crystal_density_method    'not measured'
_exptl_crystal_F_000             10552
_exptl_absorpt_coefficient_mu    0.633
_exptl_absorpt_correction_type   multi-scan
_exptl_absorpt_correction_T_min  0.8785
_exptl_absorpt_correction_T_max  0.9055
_exptl_absorpt_process_details   
;
CrysAlisPro, Oxford Diffraction Ltd.,
Version 1.171.33.66 (release 28-04-2010 CrysAlis171 .NET)
(compiled Apr 28 2010,14:27:37)
Empirical absorption correction using spherical harmonics,
 implemented in SCALE3 ABSPACK scaling algorithm.
;
_exptl_special_details           
; 
 ? 
;

_diffrn_ambient_temperature      293(2)
_diffrn_radiation_wavelength     0.71073
_diffrn_radiation_type           MoK\a
_diffrn_radiation_source         'Enhance (Mo) X-ray Source'
_diffrn_radiation_monochromator  graphite
_diffrn_measurement_device_type  'Xcalibur, Eos'
_diffrn_measurement_method       ?
_diffrn_detector_area_resol_mean 15.9914
_diffrn_standards_number         ?
_diffrn_standards_interval_count ?
_diffrn_standards_interval_time  ?
_diffrn_standards_decay_%        ?
_diffrn_reflns_number            69846
_diffrn_reflns_av_R_equivalents  0.1256
_diffrn_reflns_av_sigmaI/netI    0.0902
_diffrn_reflns_limit_h_min       -35
_diffrn_reflns_limit_h_max       35
_diffrn_reflns_limit_k_min       -33
_diffrn_reflns_limit_k_max       31
_diffrn_reflns_limit_l_min       -22
_diffrn_reflns_limit_l_max       22
_diffrn_reflns_theta_min         2.89
_diffrn_reflns_theta_max         18.84
_reflns_number_total             4390
_reflns_number_gt                2230
_reflns_threshold_expression     >2sigma(I)

_computing_data_collection       ?
_computing_cell_refinement       ?
_computing_data_reduction        ?
_computing_structure_solution    'SHELXS-97 (Sheldrick, 1990)'
_computing_structure_refinement  'SHELXL-97 (Sheldrick, 1997)'
_computing_molecular_graphics    ?
_computing_publication_material  ?

_refine_special_details          
; 
 Refinement of F^2^ against ALL reflections.  The weighted R-factor wR and 
 goodness of fit S are based on F^2^, conventional R-factors R are based 
 on F, with F set to zero for negative F^2^. The threshold expression of 
 F^2^ > 2sigma(F^2^) is used only for calculating R-factors(gt) etc. and is 
 not relevant to the choice of reflections for refinement.  R-factors based 
 on F^2^ are statistically about twice as large as those based on F, and R- 
 factors based on ALL data will be even larger. 
;

_refine_ls_structure_factor_coef Fsqd
_refine_ls_matrix_type           full
_refine_ls_weighting_scheme      calc
_refine_ls_weighting_details     
'calc w=1/[\s^2^(Fo^2^)+(0.1470P)^2^+0.0000P] where P=(Fo^2^+2Fc^2^)/3'
_atom_sites_solution_primary     direct
_atom_sites_solution_secondary   difmap
_atom_sites_solution_hydrogens   geom
_refine_ls_hydrogen_treatment    constr
_refine_ls_extinction_method     none
_refine_ls_extinction_coef       ?
_refine_ls_number_reflns         4390
_refine_ls_number_parameters     489
_refine_ls_number_restraints     708
_refine_ls_R_factor_all          0.1390
_refine_ls_R_factor_gt           0.0849
_refine_ls_wR_factor_ref         0.2464
_refine_ls_wR_factor_gt          0.2254
_refine_ls_goodness_of_fit_ref   1.006
_refine_ls_restrained_S_all      0.984
_refine_ls_shift/su_max          0.000
_refine_ls_shift/su_mean         0.000

loop_
_atom_site_label
_atom_site_type_symbol
_atom_site_fract_x
_atom_site_fract_y
_atom_site_fract_z
_atom_site_U_iso_or_equiv
_atom_site_adp_type
_atom_site_occupancy
_atom_site_symmetry_multiplicity
_atom_site_calc_flag
_atom_site_refinement_flags
_atom_site_disorder_assembly
_atom_site_disorder_group
Fe1 Fe -0.06601(5) 0.23947(5) 0.06611(6) 0.0699(7) Uani 1 1 d . . .
Fe2 Fe 0.00408(7) 0.31434(7) 0.0000 0.0710(9) Uani 1 2 d S . .
Fe3 Fe 0.28701(7) 0.61637(7) 0.0000 0.0874(10) Uani 1 2 d S . .
O1 O -0.0423(3) 0.2648(3) 0.0000 0.061(3) Uani 1 2 d S . .
O2 O -0.0146(3) 0.3384(3) 0.0552(4) 0.100(3) Uani 1 1 d . . .
O3 O -0.0630(3) 0.2874(3) 0.0992(3) 0.099(3) Uani 1 1 d . . .
O4 O 0.0318(2) 0.3007(3) 0.0559(3) 0.092(3) Uani 1 1 d . . .
O5 O -0.0159(3) 0.2506(3) 0.1018(3) 0.099(3) Uani 1 1 d . . .
O6 O -0.0727(2) 0.1862(2) 0.0447(3) 0.086(3) Uani 1 1 d . . .
O7 O -0.1216(2) 0.2244(2) 0.0441(3) 0.086(3) Uani 1 1 d . . .
O8 O 0.3333 0.6667 0.0000 0.081(6) Uani 1 6 d S . .
O9 O 0.2587(3) 0.6295(3) -0.0576(4) 0.116(3) Uani 1 1 d . . .
O10 O 0.2883(3) 0.6950(3) -0.0571(4) 0.113(3) Uani 1 1 d . . .
N1 N -0.0935(3) 0.2092(3) 0.1393(4) 0.076(3) Uani 1 1 d . . .
N2 N 0.0585(4) 0.3726(4) 0.0000 0.078(4) Uani 1 2 d S . .
N3 N 0.2343(5) 0.5591(5) 0.0000 0.102(5) Uani 1 2 d S . .
C1 C -0.0404(5) 0.3243(5) 0.0898(6) 0.095(5) Uani 1 1 d D A .
C2 C -0.0478(4) 0.3517(5) 0.1265(7) 0.166(8) Uani 1 1 d D . .
C3 C -0.0904(6) 0.3372(10) 0.133(2) 0.36(4) Uani 0.50 1 d PD A 1
H3A H -0.1031 0.3109 0.1480 0.539 Uiso 0.50 1 calc PR A 1
H3B H -0.1020 0.3368 0.0988 0.539 Uiso 0.50 1 calc PR A 1
H3C H -0.0940 0.3546 0.1572 0.539 Uiso 0.50 1 calc PR A 1
C4 C -0.0281(13) 0.3929(5) 0.1059(15) 0.36(4) Uani 0.50 1 d PD A 1
H4A H -0.0004 0.4021 0.1001 0.535 Uiso 0.50 1 calc PR A 1
H4B H -0.0309 0.4097 0.1317 0.535 Uiso 0.50 1 calc PR A 1
H4C H -0.0402 0.3936 0.0725 0.535 Uiso 0.50 1 calc PR A 1
C5 C -0.0302(17) 0.3533(14) 0.1807(9) 0.32(3) Uani 0.50 1 d PD A 1
H5A H -0.0022 0.3632 0.1771 0.484 Uiso 0.50 1 calc PR A 1
H5B H -0.0427 0.3271 0.1959 0.484 Uiso 0.50 1 calc PR A 1
H5C H -0.0346 0.3705 0.2039 0.484 Uiso 0.50 1 calc PR A 1
C3A C -0.0118(8) 0.3904(7) 0.1347(19) 0.36(4) Uani 0.50 1 d PD A 2
H3A1 H -0.0017 0.4029 0.1005 0.539 Uiso 0.50 1 calc PR A 2
H3A2 H 0.0079 0.3867 0.1527 0.539 Uiso 0.50 1 calc PR A 2
H3A3 H -0.0182 0.4070 0.1563 0.539 Uiso 0.50 1 calc PR A 2
C4A C -0.0626(17) 0.3328(11) 0.1796(10) 0.36(4) Uani 0.50 1 d PD A 2
H4A1 H -0.0876 0.3087 0.1751 0.535 Uiso 0.50 1 calc PR A 2
H4A2 H -0.0663 0.3506 0.2026 0.535 Uiso 0.50 1 calc PR A 2
H4A3 H -0.0437 0.3268 0.1956 0.535 Uiso 0.50 1 calc PR A 2
C5A C -0.0790(12) 0.3581(13) 0.1016(17) 0.32(3) Uani 0.50 1 d PD A 2
H5A1 H -0.0698 0.3712 0.0675 0.484 Uiso 0.50 1 calc PR A 2
H5A2 H -0.0847 0.3744 0.1250 0.484 Uiso 0.50 1 calc PR A 2
H5A3 H -0.1027 0.3330 0.0963 0.484 Uiso 0.50 1 calc PR A 2
C6 C 0.0194(4) 0.2765(5) 0.0941(5) 0.083(4) Uani 1 1 d D B .
C7 C 0.0513(5) 0.2778(4) 0.1316(6) 0.144(7) Uani 1 1 d D . .
C8 C 0.0417(11) 0.2824(16) 0.1885(6) 0.22(2) Uani 0.50 1 d PD B 1
H8A H 0.0159 0.2607 0.1977 0.333 Uiso 0.50 1 calc PR B 1
H8B H 0.0418 0.3070 0.1923 0.333 Uiso 0.50 1 calc PR B 1
H8C H 0.0612 0.2823 0.2122 0.333 Uiso 0.50 1 calc PR B 1
C9 C 0.0909(5) 0.3126(12) 0.1197(15) 0.22(2) Uani 0.50 1 d PD B 1
H9A H 0.0899 0.3366 0.1245 0.336 Uiso 0.50 1 calc PR B 1
H9B H 0.0981 0.3111 0.0831 0.336 Uiso 0.50 1 calc PR B 1
H9C H 0.1103 0.3127 0.1437 0.336 Uiso 0.50 1 calc PR B 1
C10 C 0.0512(17) 0.2396(12) 0.1278(19) 0.31(3) Uani 0.50 1 d PD B 1
H10A H 0.0251 0.2181 0.1363 0.464 Uiso 0.50 1 calc PR B 1
H10B H 0.0701 0.2398 0.1529 0.464 Uiso 0.50 1 calc PR B 1
H10C H 0.0583 0.2363 0.0919 0.464 Uiso 0.50 1 calc PR B 1
C8A C 0.0860(8) 0.2831(17) 0.1002(12) 0.22(2) Uani 0.50 1 d PD B 2
H8A1 H 0.0964 0.3070 0.0792 0.333 Uiso 0.50 1 calc PR B 2
H8A2 H 0.0780 0.2607 0.0767 0.333 Uiso 0.50 1 calc PR B 2
H8A3 H 0.1062 0.2850 0.1244 0.333 Uiso 0.50 1 calc PR B 2
C9A C 0.0368(8) 0.2424(9) 0.1653(16) 0.22(2) Uani 0.50 1 d PD B 2
H9A1 H 0.0141 0.2387 0.1854 0.336 Uiso 0.50 1 calc PR B 2
H9A2 H 0.0574 0.2458 0.1897 0.336 Uiso 0.50 1 calc PR B 2
H9A3 H 0.0295 0.2196 0.1429 0.336 Uiso 0.50 1 calc PR B 2
C10A C 0.0657(14) 0.3133(10) 0.1680(16) 0.31(3) Uani 0.50 1 d PD B 2
H10D H 0.0751 0.3369 0.1467 0.464 Uiso 0.50 1 calc PR B 2
H10E H 0.0870 0.3154 0.1901 0.464 Uiso 0.50 1 calc PR B 2
H10F H 0.0442 0.3102 0.1906 0.464 Uiso 0.50 1 calc PR B 2
C11 C -0.0706(4) 0.1738(4) 0.0000 0.055(4) Uani 1 2 d SD . .
C12 C -0.0657(6) 0.1372(7) 0.0000 0.137(8) Uani 1 2 d SD . .
C13 C -0.0219(7) 0.1512(9) 0.0000 0.23(2) Uani 0.66(3) 2 d SPDU C 1
H13A H -0.0100 0.1660 0.0323 0.343 Uiso 0.332(16) 1 calc PR C 1
H13B H -0.0097 0.1677 -0.0308 0.343 Uiso 0.332(16) 1 calc PR C 1
H13C H -0.0181 0.1286 -0.0014 0.343 Uiso 0.66(3) 2 calc SPR C 1
C14 C -0.0829(8) 0.1128(6) 0.0491(8) 0.182(16) Uani 0.66(3) 1 d PDU C 1
H14A H -0.0706 0.1289 0.0804 0.273 Uiso 0.66(3) 1 calc PR C 1
H14B H -0.0782 0.0908 0.0486 0.273 Uiso 0.66(3) 1 calc PR C 1
H14C H -0.1109 0.1031 0.0502 0.273 Uiso 0.66(3) 1 calc PR C 1
C13A C -0.1056(10) 0.1006(6) 0.0000 0.28(6) Uani 0.34(3) 2 d SPDU C 2
H13D H -0.1193 0.0995 -0.0327 0.415 Uiso 0.168(16) 1 calc PR C 2
H13E H -0.1207 0.1013 0.0303 0.415 Uiso 0.168(16) 1 calc PR C 2
H13F H -0.1026 0.0776 0.0025 0.415 Uiso 0.168(16) 1 calc PR C 2
C14A C -0.0444(11) 0.1364(9) 0.0492(12) 0.14(2) Uani 0.34(3) 1 d PDU C 2
H14D H -0.0179 0.1588 0.0491 0.211 Uiso 0.34(3) 1 calc PR C 2
H14E H -0.0432 0.1123 0.0498 0.211 Uiso 0.34(3) 1 calc PR C 2
H14F H -0.0583 0.1374 0.0805 0.211 Uiso 0.34(3) 1 calc PR C 2
C15 C -0.1376(4) 0.2219(5) 0.0000 0.076(5) Uani 1 2 d SD . .
C16 C -0.1810(6) 0.2130(5) 0.0000 0.110(7) Uani 1 2 d SD . .
C17 C -0.1815(10) 0.2511(8) 0.0000 0.24(3) Uani 0.64(2) 2 d SPD D 1
H17A H -0.1689 0.2657 0.0322 0.357 Uiso 0.319(10) 1 calc PR D 1
H17B H -0.2084 0.2456 -0.0013 0.357 Uiso 0.64(2) 2 calc SPR D 1
H17C H -0.1673 0.2665 -0.0309 0.357 Uiso 0.319(10) 1 calc PR D 1
C18 C -0.2018(5) 0.1911(8) 0.0491(8) 0.184(17) Uani 0.64(2) 1 d PD D 1
H18A H -0.1879 0.2062 0.0803 0.276 Uiso 0.64(2) 1 calc PR D 1
H18B H -0.2027 0.1659 0.0497 0.276 Uiso 0.64(2) 1 calc PR D 1
H18C H -0.2284 0.1867 0.0491 0.276 Uiso 0.64(2) 1 calc PR D 1
C17A C -0.2085(8) 0.1696(7) 0.0000 0.24(3) Uani 0.36(2) 2 d SPD D 2
H17D H -0.2044 0.1583 0.0321 0.357 Uiso 0.181(10) 1 calc PR D 2
H17E H -0.2034 0.1581 -0.0310 0.357 Uiso 0.181(10) 1 calc PR D 2
H17F H -0.2354 0.1643 -0.0011 0.357 Uiso 0.36(2) 2 calc SPR D 2
C18A C -0.1888(8) 0.2307(12) -0.0472(14) 0.184(17) Uani 0.36(2) 1 d PD D 2
H18D H -0.1848 0.2194 -0.0794 0.276 Uiso 0.36(2) 1 calc PR D 2
H18E H -0.1710 0.2589 -0.0472 0.276 Uiso 0.36(2) 1 calc PR D 2
H18F H -0.2157 0.2253 -0.0461 0.276 Uiso 0.36(2) 1 calc PR D 2
C20 C 0.2653(4) 0.6620(5) -0.0749(6) 0.109(5) Uani 1 1 d D . .
C21 C 0.2391(5) 0.6613(4) -0.1207(8) 0.207(11) Uani 1 1 d D . .
C22 C 0.2124(7) 0.6756(9) -0.1007(11) 0.358(19) Uani 1 1 d DU . .
H22A H 0.2278 0.7034 -0.0925 0.537 Uiso 1 1 calc R . .
H22B H 0.1990 0.6611 -0.0688 0.537 Uiso 1 1 calc R . .
H22C H 0.1931 0.6715 -0.1279 0.537 Uiso 1 1 calc R . .
C23 C 0.2142(8) 0.6208(6) -0.1421(9) 0.383(19) Uani 1 1 d DU . .
H23A H 0.1945 0.6047 -0.1159 0.574 Uiso 1 1 calc R . .
H23B H 0.2305 0.6093 -0.1500 0.574 Uiso 1 1 calc R . .
H23C H 0.2012 0.6219 -0.1745 0.574 Uiso 1 1 calc R . .
C24 C 0.2632(7) 0.6874(8) -0.1650(8) 0.49(4) Uani 1 1 d D . .
H24A H 0.2826 0.7128 -0.1506 0.741 Uiso 1 1 calc R . .
H24B H 0.2463 0.6909 -0.1898 0.741 Uiso 1 1 calc R . .
H24C H 0.2766 0.6757 -0.1833 0.741 Uiso 1 1 calc R . .
C25 C -0.1216(5) 0.2153(4) 0.1605(5) 0.093(4) Uani 1 1 d . . .
H25 H -0.1261 0.2346 0.1454 0.111 Uiso 1 1 calc R . .
C26 C -0.1446(4) 0.1934(4) 0.2050(5) 0.096(4) Uani 1 1 d . . .
H26 H -0.1634 0.1989 0.2194 0.115 Uiso 1 1 calc R . .
C27 C -0.1391(4) 0.1634(4) 0.2274(4) 0.063(3) Uani 1 1 d . . .
C28 C -0.1083(4) 0.1598(4) 0.2054(5) 0.072(3) Uani 1 1 d . . .
H28 H -0.1019 0.1417 0.2202 0.086 Uiso 1 1 calc R . .
C29 C -0.0872(3) 0.1823(5) 0.1624(5) 0.071(4) Uani 1 1 d . . .
H29 H -0.0671 0.1784 0.1485 0.085 Uiso 1 1 calc R . .
C30 C 0.0759(4) 0.3909(5) 0.0456(4) 0.104(5) Uani 1 1 d . . .
H30 H 0.0646 0.3783 0.0780 0.125 Uiso 1 1 calc R . .
C31 C 0.1097(4) 0.4276(4) 0.0474(5) 0.109(5) Uani 1 1 d . . .
H31 H 0.1208 0.4394 0.0803 0.130 Uiso 1 1 calc R . .
C32 C 0.1271(6) 0.4467(6) 0.0000 0.078(5) Uani 1 2 d S . .
C33 C 0.1642(5) 0.4852(5) 0.0000 0.071(5) Uani 1 2 d S . .
C34 C 0.1835(4) 0.5051(5) 0.0473(5) 0.109(5) Uani 1 1 d . . .
H34 H 0.1730 0.4937 0.0806 0.131 Uiso 1 1 calc R . .
C35 C 0.2175(4) 0.5410(4) 0.0450(6) 0.114(5) Uani 1 1 d . . .
H35 H 0.2296 0.5533 0.0773 0.137 Uiso 1 1 calc R . .
Cl1 Cl 0.8161(3) 0.2732(3) 0.2790(2) 0.147(4) Uani 0.50 1 d PDU . .
Cl2 Cl 0.7448(4) 0.1917(4) 0.3047(3) 0.205(5) Uani 0.50 1 d PDU . .
C1D C 0.7894(8) 0.2366(6) 0.3343(14) 0.159(13) Uiso 0.50 1 d PD . .
O1H O 0.8026(4) 0.3195(4) 0.2962(6) 0.096(5) Uiso 0.50 1 d P . .
O1W O 0.8636(8) 0.2725(8) 0.3110(9) 0.188(9) Uiso 0.50 1 d P . .
O2W O 0.8911(10) 0.3134(11) 0.3030(12) 0.109(11) Uiso 0.25 1 d P . .
O3W O 0.0810(18) 0.5226(17) -0.083(2) 0.20(2) Uiso 0.22 1 d P . .
O4W O 0.075(2) 0.523(2) 0.0000 0.18(3) Uiso 0.20 2 d SP . .
O5W O -0.0853(10) 0.0853(10) 0.2500 0.15(2) Uiso 0.20 2 d SP . .

loop_
_atom_site_aniso_label
_atom_site_aniso_U_11
_atom_site_aniso_U_22
_atom_site_aniso_U_33
_atom_site_aniso_U_23
_atom_site_aniso_U_13
_atom_site_aniso_U_12
Fe1 0.0591(12) 0.0734(14) 0.0605(11) 0.0060(9) 0.0045(9) 0.0205(10)
Fe2 0.0576(17) 0.0685(18) 0.0628(15) 0.000 0.000 0.0135(14)
Fe3 0.0594(18) 0.0558(18) 0.139(2) 0.000 0.000 0.0230(15)
O1 0.044(6) 0.066(7) 0.062(6) 0.000 0.000 0.018(6)
O2 0.086(7) 0.094(7) 0.100(7) -0.004(5) 0.032(5) 0.030(6)
O3 0.111(8) 0.080(6) 0.091(6) -0.003(6) 0.030(5) 0.036(6)
O4 0.069(6) 0.111(7) 0.074(6) 0.021(5) -0.009(5) 0.027(6)
O5 0.061(6) 0.121(8) 0.080(6) 0.031(5) -0.011(5) 0.019(6)
O6 0.111(7) 0.083(6) 0.061(5) -0.008(5) 0.005(5) 0.047(5)
O7 0.063(5) 0.125(7) 0.069(5) 0.026(5) 0.015(5) 0.045(5)
O8 0.044(7) 0.044(7) 0.154(16) 0.000 0.000 0.022(3)
O9 0.091(7) 0.063(7) 0.177(9) -0.005(7) -0.022(6) 0.026(6)
O10 0.092(7) 0.054(6) 0.184(9) -0.005(6) -0.024(7) 0.030(6)
N1 0.056(8) 0.089(9) 0.075(7) 0.003(7) 0.001(6) 0.030(6)
N2 0.059(10) 0.068(10) 0.065(10) 0.000 0.000 -0.001(8)
N3 0.072(13) 0.060(13) 0.136(16) 0.000 0.000 0.004(11)
C1 0.127(16) 0.094(14) 0.087(11) -0.061(12) -0.013(11) 0.073(14)
C2 0.128(16) 0.115(15) 0.204(18) 0.045(15) 0.065(15) 0.022(13)
C3 0.15(3) 0.09(3) 0.74(11) -0.16(4) 0.17(5) -0.01(2)
C4 0.51(8) 0.18(4) 0.30(5) -0.01(3) 0.29(6) 0.11(5)
C5 0.50(9) 0.30(6) 0.32(5) -0.19(5) -0.19(5) 0.31(6)
C3A 0.15(3) 0.09(3) 0.74(11) -0.16(4) 0.17(5) -0.01(2)
C4A 0.51(8) 0.18(4) 0.30(5) -0.01(3) 0.29(6) 0.11(5)
C5A 0.50(9) 0.30(6) 0.32(5) -0.19(5) -0.19(5) 0.31(6)
C6 0.062(11) 0.127(15) 0.060(10) -0.025(10) -0.042(10) 0.047(12)
C7 0.092(12) 0.136(16) 0.144(14) 0.060(12) 0.017(12) 0.012(11)
C8 0.17(4) 0.33(6) 0.15(3) 0.08(4) 0.00(2) 0.12(4)
C9 0.09(2) 0.29(5) 0.21(4) 0.09(3) -0.08(2) 0.03(2)
C10 0.51(8) 0.20(4) 0.25(5) -0.04(3) -0.24(5) 0.21(5)
C8A 0.17(4) 0.33(6) 0.15(3) 0.08(4) 0.00(2) 0.12(4)
C9A 0.09(2) 0.29(5) 0.21(4) 0.09(3) -0.08(2) 0.03(2)
C10A 0.51(8) 0.20(4) 0.25(5) -0.04(3) -0.24(5) 0.21(5)
C11 0.064(12) 0.043(12) 0.056(14) 0.000 0.000 0.025(9)
C12 0.16(2) 0.17(3) 0.088(16) 0.000 0.000 0.08(2)
C13 0.21(3) 0.22(3) 0.31(4) 0.000 0.000 0.16(3)
C14 0.25(3) 0.12(2) 0.17(2) 0.037(17) 0.03(2) 0.091(19)
C13A 0.28(6) 0.27(6) 0.28(6) 0.000 0.000 0.14(3)
C14