####################################################################### 
# 
# This file contains crystal structure data downloaded from the 
# Cambridge Structural Database (CSD) hosted by the Cambridge 
# Crystallographic Data Centre (CCDC).
# 
# Full information about CCDC data access policies and citation 
# guidelines are available at http://www.ccdc.cam.ac.uk/access/V1 
# 
# Audit and citation data items may have been added by the CCDC. 
# Please retain this information to preserve the provenance of 
# this file and to allow appropriate attribution of the data. 
# 
#######################################################################

data_shelxl
_audit_block_doi                 10.5517/cc13chpn
_database_code_depnum_ccdc_archive 'CCDC 1023951'
loop_
_citation_id
_citation_doi
_citation_year
1 10.1080/00958972.2014.997721 2015
_audit_update_record             
;
2014-09-12 deposited with the CCDC.	2024-07-14 downloaded from the CCDC.
;

_audit_creation_method           SHELXL-97
_chemical_name_systematic        
;
 ?
;
_chemical_name_common            ?
_chemical_melting_point          ?
_chemical_formula_moiety         ?
_chemical_formula_sum            'C13 H19 Ag N4 O3 Zn'
_chemical_formula_weight         452.56

loop_
_atom_type_symbol
_atom_type_description
_atom_type_scat_dispersion_real
_atom_type_scat_dispersion_imag
_atom_type_scat_source
C C 0.0033 0.0016 'International Tables Vol C Tables 4.2.6.8 and 6.1.1.4'
H H 0.0000 0.0000 'International Tables Vol C Tables 4.2.6.8 and 6.1.1.4'
Ag Ag -0.8971 1.1015 'International Tables Vol C Tables 4.2.6.8 and 6.1.1.4'
N N 0.0061 0.0033 'International Tables Vol C Tables 4.2.6.8 and 6.1.1.4'
O O 0.0106 0.0060 'International Tables Vol C Tables 4.2.6.8 and 6.1.1.4'
Zn Zn 0.2839 1.4301 'International Tables Vol C Tables 4.2.6.8 and 6.1.1.4'

_symmetry_cell_setting           Monoclinic
_symmetry_space_group_name_H-M   C2/c

loop_
_symmetry_equiv_pos_as_xyz
'x, y, z'
'-x, y, -z+1/2'
'x+1/2, y+1/2, z'
'-x+1/2, y+1/2, -z+1/2'
'-x, -y, -z'
'x, -y, z-1/2'
'-x+1/2, -y+1/2, -z'
'x+1/2, -y+1/2, z-1/2'

_cell_length_a                   21.903(4)
_cell_length_b                   10.271(2)
_cell_length_c                   17.428(4)
_cell_angle_alpha                90.00
_cell_angle_beta                 101.34(3)
_cell_angle_gamma                90.00
_cell_volume                     3844.2(13)
_cell_formula_units_Z            8
_cell_measurement_temperature    293(2)
_cell_measurement_reflns_used    18623
_cell_measurement_theta_min      2.41
_cell_measurement_theta_max      30.90

_exptl_crystal_description       prism
_exptl_crystal_colour            yellow
_exptl_crystal_size_max          0.6
_exptl_crystal_size_mid          0.2
_exptl_crystal_size_min          0.02
_exptl_crystal_density_meas      'not measured'
_exptl_crystal_density_diffrn    1.564
_exptl_crystal_density_method    'not measured'
_exptl_crystal_F_000             1808
_exptl_absorpt_coefficient_mu    2.280
_exptl_absorpt_correction_type   multi-scan
_exptl_absorpt_correction_T_min  0.5081
_exptl_absorpt_correction_T_max  0.8673
_exptl_absorpt_process_details   
;
[c.f. r.h. blessing, acta cryst. (1995), a51, 33-38]
;
_exptl_special_details           
;
 ?
;

_diffrn_ambient_temperature      293(2)
_diffrn_radiation_wavelength     0.71073
_diffrn_radiation_type           MoK\a
_diffrn_radiation_source         'fine-focus sealed tube'
_diffrn_radiation_monochromator  graphite
_diffrn_measurement_device_type  'STOE IPDS II'
_diffrn_measurement_method       'omega scans'
_diffrn_detector_area_resol_mean ?
_diffrn_standards_number         ?
_diffrn_standards_interval_count ?
_diffrn_standards_interval_time  ?
_diffrn_standards_decay_%        ?
_diffrn_reflns_number            23733
_diffrn_reflns_av_R_equivalents  0.0778
_diffrn_reflns_av_sigmaI/netI    0.0722
_diffrn_reflns_limit_h_min       -31
_diffrn_reflns_limit_h_max       31
_diffrn_reflns_limit_k_min       -14
_diffrn_reflns_limit_k_max       14
_diffrn_reflns_limit_l_min       -25
_diffrn_reflns_limit_l_max       25
_diffrn_reflns_theta_min         2.41
_diffrn_reflns_theta_max         30.90
_reflns_number_total             6013
_reflns_number_gt                2765
_reflns_threshold_expression     >2sigma(I)

_computing_data_collection       X-Area
_computing_cell_refinement       X-Area
_computing_data_reduction        X-Area
_computing_structure_solution    'SHELXS-97 (Sheldrick, 1997)'
_computing_structure_refinement  'SHELXL-97 (Sheldrick, 1997)'
_computing_molecular_graphics    ?
_computing_publication_material  ?

_refine_special_details          
;
 Refinement of F^2^ against ALL reflections.  The weighted R-factor wR and
 goodness of fit S are based on F^2^, conventional R-factors R are based
 on F, with F set to zero for negative F^2^. The threshold expression of
 F^2^ > 2sigma(F^2^) is used only for calculating R-factors(gt) etc. and is
 not relevant to the choice of reflections for refinement.  R-factors based
 on F^2^ are statistically about twice as large as those based on F, and R-
 factors based on ALL data will be even larger.
;

_refine_ls_structure_factor_coef Fsqd
_refine_ls_matrix_type           full
_refine_ls_weighting_scheme      calc
_refine_ls_weighting_details     
'calc w=1/[\s^2^(Fo^2^)+(0.0662P)^2^+0.0000P] where P=(Fo^2^+2Fc^2^)/3'
_atom_sites_solution_primary     direct
_atom_sites_solution_secondary   difmap
_atom_sites_solution_hydrogens   geom
_refine_ls_hydrogen_treatment    constr
_refine_ls_extinction_method     none
_refine_ls_extinction_coef       ?
_refine_ls_number_reflns         6013
_refine_ls_number_parameters     200
_refine_ls_number_restraints     0
_refine_ls_R_factor_all          0.1329
_refine_ls_R_factor_gt           0.0532
_refine_ls_wR_factor_ref         0.1414
_refine_ls_wR_factor_gt          0.1157
_refine_ls_goodness_of_fit_ref   0.901
_refine_ls_restrained_S_all      0.901
_refine_ls_shift/su_max          0.000
_refine_ls_shift/su_mean         0.000

loop_
_atom_site_label
_atom_site_type_symbol
_atom_site_fract_x
_atom_site_fract_y
_atom_site_fract_z
_atom_site_U_iso_or_equiv
_atom_site_adp_type
_atom_site_occupancy
_atom_site_symmetry_multiplicity
_atom_site_calc_flag
_atom_site_refinement_flags
_atom_site_disorder_assembly
_atom_site_disorder_group
C1 C 0.1934(3) 0.1156(4) 0.1003(3) 0.0548(12) Uani 1 1 d . . .
C2 C 0.1871(4) -0.0109(5) 0.1285(3) 0.0790(18) Uani 1 1 d . . .
H2 H 0.1510 -0.0571 0.1079 0.095 Uiso 1 1 calc R . .
C3 C 0.2306(4) -0.0694(6) 0.1842(4) 0.089(2) Uani 1 1 d . . .
H3 H 0.2238 -0.1533 0.2007 0.107 Uiso 1 1 calc R . .
C4 C 0.2842(4) -0.0056(6) 0.2158(3) 0.087(2) Uani 1 1 d . . .
H4 H 0.3139 -0.0455 0.2542 0.104 Uiso 1 1 calc R . .
C5 C 0.2942(3) 0.1164(6) 0.1910(3) 0.0703(16) Uani 1 1 d . . .
H5 H 0.3312 0.1587 0.2121 0.084 Uiso 1 1 calc R . .
C6 C 0.2493(3) 0.1814(5) 0.1336(3) 0.0574(13) Uani 1 1 d . . .
C7 C 0.2635(3) 0.3123(5) 0.1131(3) 0.0590(12) Uani 1 1 d . . .
H7 H 0.3038 0.3418 0.1317 0.071 Uiso 1 1 calc R . .
C8 C 0.2470(3) 0.5253(5) 0.0620(4) 0.0731(15) Uani 1 1 d . . .
H8A H 0.2587 0.5348 0.0114 0.088 Uiso 1 1 calc R . .
H8B H 0.2832 0.5436 0.1024 0.088 Uiso 1 1 calc R . .
C9 C 0.1951(3) 0.6188(5) 0.0686(4) 0.0793(18) Uani 1 1 d . . .
H9A H 0.1892 0.6202 0.1223 0.095 Uiso 1 1 calc R . .
H9B H 0.2069 0.7058 0.0554 0.095 Uiso 1 1 calc R . .
C10 C 0.0842(4) 0.6500(7) 0.0401(6) 0.126(3) Uani 1 1 d . . .
H10A H 0.0823 0.6263 0.0928 0.189 Uiso 1 1 calc R . .
H10B H 0.0459 0.6262 0.0059 0.189 Uiso 1 1 calc R . .
H10C H 0.0903 0.7423 0.0372 0.189 Uiso 1 1 calc R . .
C11 C 0.1367(5) 0.6209(7) -0.0642(4) 0.119(3) Uani 1 1 d . . .
H11A H 0.1711 0.5793 -0.0809 0.178 Uiso 1 1 calc R . .
H11B H 0.1413 0.7137 -0.0667 0.178 Uiso 1 1 calc R . .
H11C H 0.0985 0.5950 -0.0978 0.178 Uiso 1 1 calc R . .
C12 C 0.0534(3) 0.3683(5) 0.1647(3) 0.0646(14) Uani 1 1 d . . .
C13 C 0.0513(3) 0.3251(5) -0.1362(3) 0.0657(14) Uani 1 1 d . . .
Ag1 Ag 0.0000 0.36537(8) 0.2500 0.0845(2) Uani 1 2 d S . .
Ag2 Ag 0.0000 0.31586(7) -0.2500 0.0766(2) Uani 1 2 d S . .
N1 N 0.2250(2) 0.3931(4) 0.0709(2) 0.0555(10) Uani 1 1 d . . .
N2 N 0.1355(2) 0.5825(4) 0.0163(2) 0.0613(11) Uani 1 1 d . . .
N3 N 0.0801(2) 0.3701(4) 0.1165(2) 0.0611(11) Uani 1 1 d . . .
N4 N 0.0794(2) 0.3350(4) -0.0748(2) 0.0642(12) Uani 1 1 d . . .
O1 O 0.14995(19) 0.1648(3) 0.0453(2) 0.0663(10) Uani 1 1 d . . .
O2W O 0.0696(8) -0.0073(8) -0.0525(7) 0.328(9) Uani 1 1 d . . .
O3W O 0.0834(11) 0.046(3) 0.2828(15) 0.59(2) Uani 1 1 d . . .
Zn1 Zn 0.13238(3) 0.35814(5) 0.03254(3) 0.04817(16) Uani 1 1 d . . .

loop_
_atom_site_aniso_label
_atom_site_aniso_U_11
_atom_site_aniso_U_22
_atom_site_aniso_U_33
_atom_site_aniso_U_23
_atom_site_aniso_U_13
_atom_site_aniso_U_12
C1 0.075(4) 0.045(3) 0.046(2) -0.0031(19) 0.016(2) 0.001(2)
C2 0.116(6) 0.057(3) 0.064(3) 0.002(3) 0.017(3) -0.006(3)
C3 0.139(7) 0.069(4) 0.063(3) 0.011(3) 0.030(4) 0.011(4)
C4 0.127(7) 0.080(4) 0.050(3) 0.003(3) 0.011(3) 0.038(4)
C5 0.073(4) 0.079(4) 0.056(3) -0.009(3) 0.005(3) 0.021(3)
C6 0.072(4) 0.059(3) 0.042(2) -0.006(2) 0.014(2) 0.016(3)
C7 0.052(3) 0.066(3) 0.060(3) -0.014(2) 0.013(2) -0.007(3)
C8 0.074(4) 0.061(3) 0.087(4) -0.002(3) 0.024(3) -0.005(3)
C9 0.108(6) 0.053(3) 0.077(4) -0.003(3) 0.021(4) -0.016(3)
C10 0.128(8) 0.070(4) 0.195(9) 0.016(5) 0.070(7) 0.032(4)
C11 0.200(10) 0.087(5) 0.063(4) 0.019(3) 0.014(5) -0.021(5)
C12 0.067(4) 0.077(4) 0.053(3) 0.003(2) 0.018(3) 0.000(3)
C13 0.076(4) 0.074(3) 0.045(2) 0.002(2) 0.006(2) 0.001(3)
Ag1 0.0937(6) 0.1154(6) 0.0544(3) 0.000 0.0393(3) 0.000
Ag2 0.0833(5) 0.1032(5) 0.0361(2) 0.000 -0.0057(3) 0.000
N1 0.058(3) 0.054(2) 0.058(2) -0.0016(18) 0.020(2) 0.000(2)
N2 0.073(3) 0.058(2) 0.054(2) 0.0058(19) 0.016(2) 0.000(2)
N3 0.066(3) 0.077(3) 0.0446(19) 0.0035(19) 0.022(2) 0.000(2)
N4 0.078(3) 0.072(3) 0.0376(19) -0.0006(18) -0.001(2) -0.001(2)
O1 0.082(3) 0.050(2) 0.0608(19) -0.0012(15) -0.0027(19) -0.0061(17)
O2W 0.54(2) 0.107(6) 0.252(13) 0.030(6) -0.120(13) -0.076(9)
O3W 0.32(2) 1.05(6) 0.35(3) 0.18(3) -0.04(2) 0.06(3)
Zn1 0.0561(4) 0.0549(3) 0.0333(2) -0.0020(2) 0.0083(2) -0.0007(3)

_geom_special_details            
;
 All esds (except the esd in the dihedral angle between two l.s. planes)
 are estimated using the full covariance matrix.  The cell esds are taken
 into account individually in the estimation of esds in distances, angles
 and torsion angles; correlations between esds in cell parameters are only
 used when they are defined by crystal symmetry.  An approximate (isotropic)
 treatment of cell esds is used for estimating esds involving l.s. planes.
;

loop_
_geom_bond_atom_site_label_1
_geom_bond_atom_site_label_2
_geom_bond_distance
_geom_bond_site_symmetry_2
_geom_bond_publ_flag
C1 O1 1.312(6) . ?
C1 C2 1.405(7) . ?
C1 C6 1.419(8) . ?
C2 C3 1.360(9) . ?
C2 H2 0.9300 . ?
C3 C4 1.364(10) . ?
C3 H3 0.9300 . ?
C4 C5 1.357(9) . ?
C4 H4 0.9300 . ?
C5 C6 1.424(7) . ?
C5 H5 0.9300 . ?
C6 C7 1.441(7) . ?
C7 N1 1.302(7) . ?
C7 H7 0.9300 . ?
C8 N1 1.458(7) . ?
C8 C9 1.509(8) . ?
C8 H8A 0.9700 . ?
C8 H8B 0.9700 . ?
C9 N2 1.486(8) . ?
C9 H9A 0.9700 . ?
C9 H9B 0.9700 . ?
C10 N2 1.450(9) . ?
C10 H10A 0.9600 . ?
C10 H10B 0.9600 . ?
C10 H10C 0.9600 . ?
C11 N2 1.462(7) . ?
C11 H11A 0.9600 . ?
C11 H11B 0.9600 . ?
C11 H11C 0.9600 . ?
C12 N3 1.114(6) . ?
C12 Ag1 2.065(5) . ?
C13 N4 1.130(6) . ?
C13 Ag2 2.080(5) . ?
Ag1 C12 2.065(5) 2 ?
Ag1 Ag2 3.2740(12) 5_565 ?
Ag2 C13 2.080(5) 2_554 ?
Ag2 Ag1 3.2740(12) 5_565 ?
N1 Zn1 2.040(4) . ?
N2 Zn1 2.324(4) . ?
N3 Zn1 2.031(4) . ?
N4 Zn1 2.012(4) . ?
O1 Zn1 2.026(3) . ?

loop_
_geom_angle_atom_site_label_1
_geom_angle_atom_site_label_2
_geom_angle_atom_site_label_3
_geom_angle
_geom_angle_site_symmetry_1
_geom_angle_site_symmetry_3
_geom_angle_publ_flag
O1 C1 C2 120.3(5) . . ?
O1 C1 C6 123.9(4) . . ?
C2 C1 C6 115.7(5) . . ?
C3 C2 C1 123.7(7) . . ?
C3 C2 H2 118.2 . . ?
C1 C2 H2 118.2 . . ?
C2 C3 C4 120.2(6) . . ?
C2 C3 H3 119.9 . . ?
C4 C3 H3 119.9 . . ?
C5 C4 C3 119.6(6) . . ?
C5 C4 H4 120.2 . . ?
C3 C4 H4 120.2 . . ?
C4 C5 C6 121.7(6) . . ?
C4 C5 H5 119.2 . . ?
C6 C5 H5 119.2 . . ?
C1 C6 C5 119.0(5) . . ?
C1 C6 C7 123.7(5) . . ?
C5 C6 C7 117.3(5) . . ?
N1 C7 C6 126.0(5) . . ?
N1 C7 H7 117.0 . . ?
C6 C7 H7 117.0 . . ?
N1 C8 C9 108.4(5) . . ?
N1 C8 H8A 110.0 . . ?
C9 C8 H8A 110.0 . . ?
N1 C8 H8B 110.0 . . ?
C9 C8 H8B 110.0 . . ?
H8A C8 H8B 108.4 . . ?
N2 C9 C8 112.1(5) . . ?
N2 C9 H9A 109.2 . . ?
C8 C9 H9A 109.2 . . ?
N2 C9 H9B 109.2 . . ?
C8 C9 H9B 109.2 . . ?
H9A C9 H9B 107.9 . . ?
N2 C10 H10A 109.5 . . ?
N2 C10 H10B 109.5 . . ?
H10A C10 H10B 109.5 . . ?
N2 C10 H10C 109.5 . . ?
H10A C10 H10C 109.5 . . ?
H10B C10 H10C 109.5 . . ?
N2 C11 H11A 109.5 . . ?
N2 C11 H11B 109.5 . . ?
H11A C11 H11B 109.5 . . ?
N2 C11 H11C 109.5 . . ?
H11A C11 H11C 109.5 . . ?
H11B C11 H11C 109.5 . . ?
N3 C12 Ag1 177.3(5) . . ?
N4 C13 Ag2 177.3(5) . . ?
C12 Ag1 C12 178.4(3) 2 . ?
C12 Ag1 Ag2 89.18(16) 2 5_565 ?
C12 Ag1 Ag2 89.18(16) . 5_565 ?
C13 Ag2 C13 174.8(3) 2_554 . ?
C13 Ag2 Ag1 87.40(15) 2_554 5_565 ?
C13 Ag2 Ag1 87.40(15) . 5_565 ?
C7 N1 C8 117.6(5) . . ?
C7 N1 Zn1 124.3(4) . . ?
C8 N1 Zn1 117.1(4) . . ?
C10 N2 C11 107.8(6) . . ?
C10 N2 C9 110.0(5) . . ?
C11 N2 C9 110.0(5) . . ?
C10 N2 Zn1 113.3(4) . . ?
C11 N2 Zn1 113.0(4) . . ?
C9 N2 Zn1 102.6(3) . . ?
C12 N3 Zn1 174.9(5) . . ?
C13 N4 Zn1 177.3(5) . . ?
C1 O1 Zn1 123.6(3) . . ?
N4 Zn1 O1 92.79(15) . . ?
N4 Zn1 N3 111.96(19) . . ?
O1 Zn1 N3 95.85(16) . . ?
N4 Zn1 N1 132.84(18) . . ?
O1 Zn1 N1 88.94(16) . . ?
N3 Zn1 N1 114.71(17) . . ?
N4 Zn1 N2 91.65(16) . . ?
O1 Zn1 N2 167.21(17) . . ?
N3 Zn1 N2 93.59(16) . . ?
N1 Zn1 N2 79.27(16) . . ?

_diffrn_measured_fraction_theta_max 0.990
_diffrn_reflns_theta_full        30.90
_diffrn_measured_fraction_theta_full 0.990
_refine_diff_density_max         0.641
_refine_diff_density_min         -0.561
_refine_diff_density_rms         0.099
