####################################################################### 
# 
# This file contains crystal structure data downloaded from the 
# Cambridge Structural Database (CSD) hosted by the Cambridge 
# Crystallographic Data Centre (CCDC).
# 
# Full information about CCDC data access policies and citation 
# guidelines are available at http://www.ccdc.cam.ac.uk/access/V1 
# 
# Audit and citation data items may have been added by the CCDC. 
# Please retain this information to preserve the provenance of 
# this file and to allow appropriate attribution of the data. 
# 
#######################################################################

data_YOVTOS
#This CIF has been generated from an entry in the Cambridge Structural Database
_database_code_depnum_ccdc_archive 'CCDC 1305722'
_database_code_CSD               YOVTOS
loop_
_citation_id
_citation_doi
_citation_year
1 10.1007/BF00705820 1994
_audit_creation_method           'Created from the CSD'
_audit_update_record             
;
2024-07-14 downloaded from the CCDC.
;
_database_code_NBS               654241
_chemical_formula_moiety         '(C40 H24 N8 Zn1)n,3n(H2 O1)'
_chemical_name_systematic        
'catena-(tetrakis(4-Pyridyl)porphyrin-zinc(ii) trihydrate clathrate)'
_chemical_absolute_configuration unk
_diffrn_ambient_temperature      295
_exptl_crystal_density_diffrn    1.233
#These two values have been output from a single CSD field.
_refine_ls_R_factor_gt           0.056
_refine_ls_wR_factor_gt          0.056
_diffrn_radiation_probe          x-ray
_symmetry_cell_setting           rhombohedral
_symmetry_space_group_name_H-M   'R -3'
_symmetry_Int_Tables_number      148
_space_group_name_Hall           '-R 3'
loop_
_symmetry_equiv_pos_site_id
_symmetry_equiv_pos_as_xyz
1 x,y,z
2 -y,x-y,z
3 -x+y,-x,z
4 1/3+x,2/3+y,2/3+z
5 1/3-y,2/3+x-y,2/3+z
6 1/3-x+y,2/3-x,2/3+z
7 2/3+x,1/3+y,1/3+z
8 2/3-y,1/3+x-y,1/3+z
9 2/3-x+y,1/3-x,1/3+z
10 -x,-y,-z
11 y,-x+y,-z
12 x-y,x,-z
13 2/3-x,1/3-y,1/3-z
14 2/3+y,1/3-x+y,1/3-z
15 2/3+x-y,1/3+x,1/3-z
16 1/3-x,2/3-y,2/3-z
17 1/3+y,2/3-x+y,2/3-z
18 1/3+x-y,2/3+x,2/3-z
_cell_length_a                   33.145(3)
_cell_length_b                   33.145(3)
_cell_length_c                   9.374(3)
_cell_angle_alpha                90
_cell_angle_beta                 90
_cell_angle_gamma                120
_cell_volume                     8918.5
_cell_formula_units_Z            9
loop_
_atom_site_label
_atom_site_type_symbol
_atom_site_fract_x
_atom_site_fract_y
_atom_site_fract_z
N1 N 0.5592(1) 0.0582(1) 0.5724(3)
N2 N 0.5338(1) -0.0008(1) 0.3142(3)
C1 C 0.5810(1) 0.0262(1) 0.2915(4)
C2 C 0.6120(1) 0.0626(1) 0.3801(4)
C3 C 0.6021(1) 0.0769(1) 0.5091(4)
C4 C 0.6364(1) 0.1138(2) 0.5990(5)
C5 C 0.6134(1) 0.1163(2) 0.7154(5)
C6 C 0.5649(1) 0.0810(1) 0.6995(4)
C7 C 0.5301(1) 0.0709(1) 0.8011(4)
C8 C 0.5163(1) -0.0341(1) 0.2087(4)
C9 C 0.5538(2) -0.0269(2) 0.1141(5)
C10 C 0.5931(1) 0.0098(2) 0.1643(5)
C11 C 0.6624(1) 0.0873(1) 0.3362(4)
C12 C 0.6796(2) 0.1217(2) 0.2338(5)
C13 C 0.7262(2) 0.1443(2) 0.2008(5)
N3 N 0.7565(1) 0.1348(1) 0.2617(4)
C14 C 0.7401(1) 0.1016(2) 0.3590(5)
C15 C 0.6938(1) 0.0772(2) 0.3999(5)
C16 C 0.5429(1) 0.1025(1) 0.9277(4)
C17 C 0.5561(2) 0.1490(2) 0.9094(6)
C18 C 0.5686(2) 0.1773(2) 1.0302(9)
N4 N 0.5692(2) 0.1623(2) 1.1628(6)
C19 C 0.5562(2) 0.1176(2) 1.1774(6)
C20 C 0.5426(2) 0.0866(2) 1.0659(5)
Zn1 Zn 0.5000 0.0000 0.5000
H1 H 0.6683 0.1332 0.5634
H2 H 0.6263 0.1372 0.7870
H3 H 0.5500 -0.0437 0.0507
H4 H 0.6217 0.0252 0.1203
H5 H 0.6611 0.1277 0.1847
H6 H 0.7373 0.1652 0.1259
H7 H 0.7635 0.0942 0.3894
H8 H 0.6835 0.0528 0.4692
H9 H 0.5548 0.1628 0.8204
H10 H 0.5760 0.2067 1.0136
H11 H 0.5562 0.1042 1.2637
H12 H 0.5329 0.0540 1.0805
C8I C 0.4837(1) 0.0341(1) 0.7913(4)
C7I C 0.4699(1) -0.0709(1) 0.1989(4)
Zn1E Zn 0.8333 0.1667 0.1667
N1I N 0.4408(1) -0.0582(1) 0.4276(3)
N2I N 0.4662(1) 0.0008(1) 0.6858(3)
N3G N 0.5319(1) -0.0450(1) 0.5950(4)
N3P N 0.4681(1) 0.0450(1) 0.4050(4)
C6I C 0.4351(1) -0.0810(1) 0.3005(4)
C16I C 0.4571(1) -0.1025(1) 0.0723(4)
C1I C 0.4190(1) -0.0262(1) 0.7085(4)
C9I C 0.4462(2) 0.0269(2) 0.8859(5)
C5I C 0.3866(1) -0.1163(2) 0.2846(5)
C17I C 0.4439(2) -0.1490(2) 0.0906(6)
C20I C 0.4574(2) -0.0866(2) -0.0659(5)
C2I C 0.3880(1) -0.0626(1) 0.6199(4)
C10I C 0.4069(1) -0.0098(2) 0.8357(5)
H3I H 0.4500 0.0437 0.9493
C4I C 0.3636(1) -0.1138(2) 0.4010(5)
H2I H 0.3737 -0.1372 0.2130
C18I C 0.4314(2) -0.1773(2) -0.0302(9)
H9I H 0.4452 -0.1628 0.1796
C19I C 0.4438(2) -0.1176(2) -0.1774(6)
H12I H 0.4671 -0.0540 -0.0805
C3I C 0.3979(1) -0.0769(1) 0.4909(4)
C11I C 0.3376(1) -0.0873(1) 0.6638(4)
H4I H 0.3783 -0.0252 0.8797
H1I H 0.3317 -0.1332 0.4366
N4I N 0.4308(2) -0.1623(2) -0.1628(6)
H10I H 0.4240 -0.2067 -0.0136
H11I H 0.4438 -0.1042 -0.2637
C12I C 0.3204(2) -0.1217(2) 0.7662(5)
C15I C 0.3062(1) -0.0772(2) 0.6001(5)
C13I C 0.2738(2) -0.1443(2) 0.7992(5)
H5I H 0.3389 -0.1277 0.8153
C14I C 0.2599(1) -0.1016(2) 0.6410(5)
H8I H 0.3165 -0.0528 0.5308
N3I N 0.2435(1) -0.1348(1) 0.7383(4)
H6I H 0.2627 -0.1652 0.8741
H7I H 0.2365 -0.0942 0.6106
Zn1H Zn 0.1667 -0.1667 0.8333
O1 O 0.0580(3) 0.0958(3) 0.9723(10)
O2? O 0.1056(10) 0.1256(10) 0.7166(30)
O3? O 0.0575(14) 0.0870(14) 0.6542(45)

#END
