####################################################################### 
# 
# This file contains crystal structure data downloaded from the 
# Cambridge Structural Database (CSD) hosted by the Cambridge 
# Crystallographic Data Centre (CCDC).
# 
# Full information about CCDC data access policies and citation 
# guidelines are available at http://www.ccdc.cam.ac.uk/access/V1 
# 
# Audit and citation data items may have been added by the CCDC. 
# Please retain this information to preserve the provenance of 
# this file and to allow appropriate attribution of the data. 
# 
#######################################################################

data_compound1
_audit_block_doi                 10.5517/cc13bknn
_database_code_depnum_ccdc_archive 'CCDC 1023051'
loop_
_citation_id
_citation_doi
_citation_year
1 10.1021/cg501332u 2014
_audit_update_record             
;
2015-02-17 deposited with the CCDC.	2024-07-14 downloaded from the CCDC.
;

_audit_creation_method           SHELXL-97
_chemical_name_systematic        
;
 ?
;
_chemical_name_common            ?
_chemical_melting_point          ?
_chemical_formula_moiety         ?
_chemical_formula_sum            'C52 H70 B2 Co Cu4 N18 O16'
_chemical_formula_weight         1537.97

loop_
_atom_type_symbol
_atom_type_description
_atom_type_scat_dispersion_real
_atom_type_scat_dispersion_imag
_atom_type_scat_source
C C 0.0033 0.0016 'International Tables Vol C Tables 4.2.6.8 and 6.1.1.4'
H H 0.0000 0.0000 'International Tables Vol C Tables 4.2.6.8 and 6.1.1.4'
B B 0.0013 0.0007 'International Tables Vol C Tables 4.2.6.8 and 6.1.1.4'
N N 0.0061 0.0033 'International Tables Vol C Tables 4.2.6.8 and 6.1.1.4'
O O 0.0106 0.0060 'International Tables Vol C Tables 4.2.6.8 and 6.1.1.4'
Co Co 0.3494 0.9721 'International Tables Vol C Tables 4.2.6.8 and 6.1.1.4'
Cu Cu 0.3201 1.2651 'International Tables Vol C Tables 4.2.6.8 and 6.1.1.4'

_symmetry_cell_setting           monoclinic
_symmetry_space_group_name_H-M   C2

loop_
_symmetry_equiv_pos_as_xyz
'x, y, z'
'-x, y, -z'
'x+1/2, y+1/2, z'
'-x+1/2, y+1/2, -z'

_cell_length_a                   26.676(5)
_cell_length_b                   18.145(4)
_cell_length_c                   18.954(4)
_cell_angle_alpha                90.00
_cell_angle_beta                 118.54(3)
_cell_angle_gamma                90.00
_cell_volume                     8059(3)
_cell_formula_units_Z            4
_cell_measurement_temperature    100(2)
_cell_measurement_reflns_used    22620
_cell_measurement_theta_min      0.72
_cell_measurement_theta_max      38.74

_exptl_crystal_description       plate
_exptl_crystal_colour            green
_exptl_crystal_size_max          0.10
_exptl_crystal_size_mid          0.08
_exptl_crystal_size_min          0.02
_exptl_crystal_density_meas      ?
_exptl_crystal_density_diffrn    1.268
_exptl_crystal_density_method    'not measured'
_exptl_crystal_F_000             3156
_exptl_absorpt_coefficient_mu    1.303
_exptl_absorpt_correction_type   Empirical
_exptl_absorpt_correction_T_min  0.8764
_exptl_absorpt_correction_T_max  0.9744
_exptl_absorpt_process_details   HKL2000-Scalepack

_exptl_special_details           
;
 ?
;

_diffrn_ambient_temperature      100(2)
_diffrn_radiation_wavelength     0.70000
_diffrn_radiation_type           synchrotron
_diffrn_radiation_source         'bending magnet beamline'
_diffrn_radiation_monochromator  'Pt coated Si double crystal'
_diffrn_measurement_device_type  'CCD area detector'
_diffrn_measurement_method       'phi scans'
_diffrn_detector_area_resol_mean ?
_diffrn_standards_number         ?
_diffrn_standards_interval_count ?
_diffrn_standards_interval_time  ?
_diffrn_standards_decay_%        ?
_diffrn_reflns_number            32597
_diffrn_reflns_av_R_equivalents  0.0550
_diffrn_reflns_av_sigmaI/netI    0.0804
_diffrn_reflns_limit_h_min       -40
_diffrn_reflns_limit_h_max       33
_diffrn_reflns_limit_k_min       -22
_diffrn_reflns_limit_k_max       23
_diffrn_reflns_limit_l_min       -24
_diffrn_reflns_limit_l_max       28
_diffrn_reflns_theta_min         1.20
_diffrn_reflns_theta_max         32.03
_reflns_number_total             22650
_reflns_number_gt                13877
_reflns_threshold_expression     >2sigma(I)

_computing_data_collection       'PAL ADSC Quantum-210'
_computing_cell_refinement       HKL2000
_computing_data_reduction        HKL2000
_computing_structure_solution    SHELXTL
_computing_structure_refinement  'SHELXL-97 (Sheldrick, 1997)'
_computing_molecular_graphics    WingX
_computing_publication_material  WingX

_refine_special_details          
;
 Refinement of F^2^ against ALL reflections.  The weighted R-factor wR and
 goodness of fit S are based on F^2^, conventional R-factors R are based
 on F, with F set to zero for negative F^2^. The threshold expression of
 F^2^ > 2sigma(F^2^) is used only for calculating R-factors(gt) etc. and is
 not relevant to the choice of reflections for refinement.  R-factors based
 on F^2^ are statistically about twice as large as those based on F, and R-
 factors based on ALL data will be even larger.
;

_refine_ls_structure_factor_coef Fsqd
_refine_ls_matrix_type           full
_refine_ls_weighting_scheme      calc
_refine_ls_weighting_details     
'calc w=1/[\s^2^(Fo^2^)+(0.1478P)^2^+0.0000P] where P=(Fo^2^+2Fc^2^)/3'
_atom_sites_solution_primary     direct
_atom_sites_solution_secondary   difmap
_atom_sites_solution_hydrogens   geom
_refine_ls_hydrogen_treatment    constr
_refine_ls_extinction_method     none
_refine_ls_extinction_coef       ?
_refine_ls_abs_structure_details 'Flack H D (1983), Acta Cryst. A39, 876-881'
_refine_ls_abs_structure_Flack   -0.028(15)
_refine_ls_number_reflns         22650
_refine_ls_number_parameters     794
_refine_ls_number_restraints     1
_refine_ls_R_factor_all          0.1080
_refine_ls_R_factor_gt           0.0726
_refine_ls_wR_factor_ref         0.2196
_refine_ls_wR_factor_gt          0.2032
_refine_ls_goodness_of_fit_ref   0.962
_refine_ls_restrained_S_all      0.962
_refine_ls_shift/su_max          0.014
_refine_ls_shift/su_mean         0.001

loop_
_atom_site_label
_atom_site_type_symbol
_atom_site_fract_x
_atom_site_fract_y
_atom_site_fract_z
_atom_site_U_iso_or_equiv
_atom_site_adp_type
_atom_site_occupancy
_atom_site_symmetry_multiplicity
_atom_site_calc_flag
_atom_site_refinement_flags
_atom_site_disorder_assembly
_atom_site_disorder_group
Co1 Co -0.00348(2) 1.12597(4) 0.77782(3) 0.04482(14) Uani 1 1 d . . .
B1 B -0.0395(3) 0.9949(4) 0.8566(4) 0.0608(15) Uani 1 1 d . . .
H1 H -0.0514 0.9542 0.8810 0.073 Uiso 1 1 calc R . .
N1 N 0.0504(2) 1.0393(3) 0.8558(3) 0.0628(13) Uani 1 1 d . . .
N2 N 0.0243(2) 0.9890(3) 0.8833(3) 0.0641(12) Uani 1 1 d . . .
C1 C 0.1009(3) 1.0125(3) 0.8815(4) 0.0662(16) Uani 1 1 d . . .
H1A H 0.1292 1.0387 0.8750 0.079 Uiso 1 1 calc R . .
C2 C 0.0637(3) 0.9361(4) 0.9211(3) 0.0662(15) Uani 1 1 d . . .
H2 H 0.0582 0.8950 0.9476 0.079 Uiso 1 1 calc R . .
N3 N 0.1118(2) 0.9487(3) 0.9165(3) 0.0668(14) Uani 1 1 d . . .
N4 N -0.0632(2) 1.0411(3) 0.7187(3) 0.0646(13) Uani 1 1 d . . .
N5 N -0.0706(2) 0.9883(3) 0.7660(3) 0.0590(11) Uani 1 1 d . . .
C3 C -0.0947(3) 1.0150(4) 0.6446(4) 0.0752(19) Uani 1 1 d . . .
H3 H -0.1001 1.0413 0.5981 0.090 Uiso 1 1 calc R . .
C4 C -0.1019(3) 0.9343(4) 0.7214(4) 0.0722(17) Uani 1 1 d . . .
H4 H -0.1124 0.8916 0.7403 0.087 Uiso 1 1 calc R . .
N6 N -0.1178(2) 0.9497(3) 0.6406(3) 0.0682(14) Uani 1 1 d . . .
N7 N -0.03875(18) 1.1300(3) 0.8562(2) 0.0612(11) Uani 1 1 d . . .
N8 N -0.0518(2) 1.0686(3) 0.8817(3) 0.0576(11) Uani 1 1 d . . .
C5 C -0.0542(3) 1.1865(4) 0.8880(3) 0.0630(15) Uani 1 1 d . . .
H5 H -0.0499 1.2372 0.8796 0.076 Uiso 1 1 calc R . .
C6 C -0.0742(3) 1.0870(4) 0.9299(4) 0.0673(16) Uani 1 1 d . . .
H6 H -0.0863 1.0529 0.9568 0.081 Uiso 1 1 calc R . .
N9 N -0.0769(2) 1.1601(3) 0.9342(3) 0.0698(14) Uani 1 1 d . . .
B2 B 0.0278(3) 1.2552(5) 0.6887(4) 0.075(2) Uani 1 1 d . . .
H2A H 0.0388 1.2941 0.6613 0.090 Uiso 1 1 calc R . .
N16 N 0.03001(19) 1.1167(3) 0.6990(3) 0.0618(10) Uiso 1 1 d . . .
N17 N 0.0409(2) 1.1772(4) 0.6680(3) 0.0667(14) Uani 1 1 d . . .
C7 C 0.0411(4) 1.0623(7) 0.6610(5) 0.106(3) Uani 1 1 d . . .
H7 H 0.0350 1.0122 0.6690 0.127 Uiso 1 1 calc R . .
C8 C 0.0577(4) 1.1536(7) 0.6131(4) 0.091(3) Uani 1 1 d . . .
H8 H 0.0660 1.1854 0.5802 0.109 Uiso 1 1 calc R . .
N18 N 0.0607(3) 1.0810(7) 0.6128(5) 0.112(3) Uani 1 1 d . . .
N10 N -0.0589(2) 1.2129(3) 0.6975(3) 0.0573(11) Uani 1 1 d . . .
N11 N -0.0338(2) 1.2600(3) 0.6644(3) 0.0639(12) Uani 1 1 d . . .
C9 C -0.1090(4) 1.2323(4) 0.6624(4) 0.085(2) Uani 1 1 d . . .
H9 H -0.1372 1.2051 0.6683 0.102 Uiso 1 1 calc R . .
C10 C -0.0742(3) 1.3040(4) 0.6164(4) 0.0766(18) Uani 1 1 d . . .
H10 H -0.0687 1.3406 0.5850 0.092 Uiso 1 1 calc R . .
N12 N -0.1236(3) 1.2931(4) 0.6150(4) 0.0781(16) Uani 1 1 d . . .
N13 N 0.0565(2) 1.2143(3) 0.8332(3) 0.0661(14) Uani 1 1 d . . .
N14 N 0.0627(2) 1.2636(3) 0.7821(3) 0.0689(13) Uani 1 1 d . . .
C11 C 0.0902(3) 1.2406(4) 0.9031(4) 0.0657(16) Uani 1 1 d . . .
H11 H 0.0966 1.2153 0.9505 0.079 Uiso 1 1 calc R . .
C12 C 0.0983(3) 1.3160(4) 0.8263(4) 0.0741(18) Uani 1 1 d . . .
H12 H 0.1100 1.3560 0.8051 0.089 Uiso 1 1 calc R . .
N15 N 0.1162(3) 1.3055(3) 0.9066(4) 0.0786(16) Uani 1 1 d . . .
Cu1 Cu 0.19407(3) 0.89142(3) 0.96621(4) 0.05367(17) Uani 1 1 d . . .
Cu2 Cu 0.30311(3) 0.85671(3) 1.02480(4) 0.05222(18) Uani 1 1 d . . .
O1 O 0.2104(2) 0.9427(2) 0.8887(2) 0.0632(11) Uani 1 1 d . . .
O2 O 0.3031(2) 0.9084(3) 0.9346(2) 0.0690(12) Uani 1 1 d . . .
C13 C 0.2560(3) 0.9406(3) 0.8844(3) 0.0609(16) Uani 1 1 d . . .
C14 C 0.2586(4) 0.9795(3) 0.8142(3) 0.0701(19) Uani 1 1 d . . .
O3 O 0.1792(2) 0.8016(3) 0.9006(2) 0.0737(13) Uani 1 1 d . . .
O4 O 0.2687(2) 0.7707(2) 0.9543(3) 0.0686(12) Uani 1 1 d . . .
C19 C 0.2181(3) 0.7587(3) 0.9105(3) 0.0590(15) Uani 1 1 d . . .
C20 C 0.2026(4) 0.6876(3) 0.8619(3) 0.0702(19) Uani 1 1 d . . .
H20 H 0.1651 0.6942 0.8122 0.084 Uiso 1 1 calc R . .
C21 C 0.2490(6) 0.6633(4) 0.8376(6) 0.119(4) Uani 1 1 d . . .
H21A H 0.2371 0.6774 0.7814 0.142 Uiso 1 1 calc R . .
H21B H 0.2861 0.6868 0.8732 0.142 Uiso 1 1 calc R . .
C22 C 0.1982(4) 0.6223(4) 0.9107(4) 0.089(2) Uani 1 1 d . . .
C23 C 0.2479(4) 0.6239(4) 0.9991(3) 0.104(3) Uani 1 1 d . . .
H23A H 0.2519 0.6739 1.0208 0.156 Uiso 1 1 calc R . .
H23B H 0.2836 0.6092 1.0001 0.156 Uiso 1 1 calc R . .
H23C H 0.2393 0.5896 1.0319 0.156 Uiso 1 1 calc R . .
C24 C 0.1389(6) 0.6227(7) 0.9067(9) 0.168(6) Uani 1 1 d . . .
H24A H 0.1337 0.6692 0.9289 0.252 Uiso 1 1 calc R . .
H24B H 0.1363 0.5814 0.9380 0.252 Uiso 1 1 calc R . .
H24C H 0.1091 0.6180 0.8507 0.252 Uiso 1 1 calc R . .
O5 O 0.1911(2) 0.8289(3) 1.0492(3) 0.0716(12) Uani 1 1 d . . .
O6 O 0.2836(2) 0.8146(2) 1.1068(2) 0.0704(12) Uani 1 1 d . . .
C25 C 0.2342(4) 0.8072(3) 1.1014(4) 0.0616(16) Uani 1 1 d . . .
C26 C 0.2360(4) 0.7650(4) 1.1716(4) 0.084(2) Uani 1 1 d . . .
C27 C 0.2823(6) 0.7062(9) 1.2066(9) 0.150(4) Uiso 1 1 d . . .
C28 C 0.1721(6) 0.7380(9) 1.1545(9) 0.145(4) Uiso 1 1 d . . .
C29 C 0.2452(7) 0.8144(4) 1.2439(6) 0.146(6) Uani 1 1 d . . .
C31 C 0.3196(5) 0.8350(7) 1.2962(7) 0.120(3) Uiso 1 1 d . . .
O7 O 0.2305(2) 0.9700(2) 1.0469(2) 0.0577(10) Uani 1 1 d . . .
O8 O 0.32244(19) 0.9491(2) 1.0861(2) 0.0587(10) Uani 1 1 d . . .
C32 C 0.2831(3) 0.9846(3) 1.0872(3) 0.0528(14) Uani 1 1 d . . .
C33 C 0.2996(4) 1.0541(3) 1.1381(3) 0.076(2) Uani 1 1 d . . .
C34 C 0.3488(4) 1.0416(4) 1.2146(4) 0.091(2) Uani 1 1 d . . .
H34A H 0.3380 1.0112 1.2480 0.137 Uiso 1 1 calc R . .
H34B H 0.3637 1.0890 1.2413 0.137 Uiso 1 1 calc R . .
H34C H 0.3782 1.0162 1.2069 0.137 Uiso 1 1 calc R . .
C35 C 0.2467(4) 1.0814(4) 1.1530(5) 0.083(2) Uani 1 1 d . . .
H35A H 0.2097 1.0675 1.1067 0.099 Uiso 1 1 calc R . .
H35B H 0.2495 1.0581 1.2020 0.099 Uiso 1 1 calc R . .
Cu3 Cu -0.19223(3) 0.88956(4) 0.54986(4) 0.05693(19) Uani 1 1 d . . .
Cu4 Cu -0.29786(3) 0.84408(4) 0.46088(4) 0.05674(19) Uani 1 1 d . . .
O9 O -0.1987(2) 0.9327(2) 0.4525(2) 0.0655(11) Uani 1 1 d . . .
O10 O -0.2906(2) 0.9058(3) 0.3801(2) 0.0663(11) Uani 1 1 d . . .
C36 C -0.2453(4) 0.9358(3) 0.3891(4) 0.070(2) Uani 1 1 d . . .
C37 C -0.2479(4) 0.9785(4) 0.3180(4) 0.081(2) Uani 1 1 d . . .
C38 C -0.3086(7) 1.0077(7) 0.2580(8) 0.163(7) Uani 1 1 d . . .
C39 C -0.2052(6) 1.0376(9) 0.3433(10) 0.157(5) Uiso 1 1 d . . .
O11 O -0.2407(2) 0.9715(3) 0.5586(3) 0.0753(13) Uani 1 1 d . . .
O12 O -0.3284(2) 0.9307(3) 0.4885(3) 0.0764(13) Uani 1 1 d . . .
C40 C -0.2921(3) 0.9792(3) 0.5320(3) 0.0553(13) Uani 1 1 d . . .
C41 C -0.3149(4) 1.0482(4) 0.5500(5) 0.076(2) Uani 1 1 d . . .
H41 H -0.3544 1.0372 0.5406 0.092 Uiso 1 1 calc R . .
O13 O -0.1952(2) 0.8370(3) 0.6372(2) 0.0726(12) Uani 1 1 d . . .
O14 O -0.2848(2) 0.7957(2) 0.5632(2) 0.0638(11) Uani 1 1 d . . .
C42 C -0.2414(3) 0.8018(4) 0.6258(4) 0.0674(17) Uani 1 1 d . . .
C43 C -0.2352(4) 0.7634(3) 0.7010(4) 0.077(2) Uani 1 1 d . . .
H43 H -0.2645 0.7236 0.6835 0.093 Uiso 1 1 calc R . .
C44 C -0.1774(5) 0.7278(6) 0.7497(7) 0.128(4) Uani 1 1 d . . .
H44A H -0.1468 0.7548 0.7451 0.153 Uiso 1 1 calc R . .
H44B H -0.1773 0.6754 0.7352 0.153 Uiso 1 1 calc R . .
O15 O -0.1676(2) 0.7950(3) 0.5248(3) 0.0676(11) Uani 1 1 d . . .
O16 O -0.2593(2) 0.7656(2) 0.4396(2) 0.0617(10) Uani 1 1 d . . .
C45 C -0.2041(4) 0.7522(4) 0.4745(4) 0.075(2) Uani 1 1 d . . .
C46 C -0.1854(4) 0.6804(4) 0.4491(5) 0.080(2) Uani 1 1 d . . .
C47 C -0.2347(8) 0.6477(6) 0.3662(6) 0.167(7) Uani 1 1 d . . .
H47A H -0.2724 0.6506 0.3643 0.200 Uiso 1 1 calc R . .
H47B H -0.2365 0.6746 0.3196 0.200 Uiso 1 1 calc R . .
C48 C -0.2183(6) 0.5742(4) 0.3668(5) 0.116(4) Uani 1 1 d . . .
H48A H -0.1951 0.5702 0.3390 0.139 Uiso 1 1 calc R . .
H48B H -0.2527 0.5430 0.3378 0.139 Uiso 1 1 calc R . .
C49 C -0.1384(7) 0.7004(7) 0.4364(12) 0.191(8) Uani 1 1 d . . .
H49A H -0.1088 0.7246 0.4846 0.286 Uiso 1 1 calc R . .
H49B H -0.1516 0.7343 0.3907 0.286 Uiso 1 1 calc R . .
H49C H -0.1225 0.6560 0.4251 0.286 Uiso 1 1 calc R . .
C50 C -0.1811(4) 0.6147(4) 0.5035(4) 0.087(2) Uani 1 1 d . . .
C51 C -0.2300(6) 0.6139(5) 0.5232(7) 0.147(5) Uani 1 1 d . . .
H51A H -0.2356 0.5636 0.5370 0.221 Uiso 1 1 calc R . .
H51B H -0.2650 0.6308 0.4765 0.221 Uiso 1 1 calc R . .
H51C H -0.2210 0.6466 0.5689 0.221 Uiso 1 1 calc R . .
C52 C -0.1224(6) 0.6056(11) 0.5726(9) 0.198(8) Uani 1 1 d . . .
H52A H -0.1224 0.6194 0.6226 0.297 Uiso 1 1 calc R . .
H52B H -0.0957 0.6372 0.5647 0.297 Uiso 1 1 calc R . .
H52C H -0.1105 0.5540 0.5759 0.297 Uiso 1 1 calc R . .
C30 C 0.2306(4) 0.8853(6) 1.2332(6) 0.097(2) Uiso 1 1 d . . .
C16 C 0.2468(4) 0.8573(5) 0.7467(6) 0.093(2) Uiso 1 1 d . . .
C15 C 0.2316(4) 0.9322(6) 0.7360(7) 0.108(3) Uiso 1 1 d . . .
C17 C 0.3125(5) 1.0140(7) 0.8308(8) 0.122(3) Uiso 1 1 d . . .
C18 C 0.1665(5) 0.9177(7) 0.6975(8) 0.129(4) Uiso 1 1 d . . .

loop_
_atom_site_aniso_label
_atom_site_aniso_U_11
_atom_site_aniso_U_22
_atom_site_aniso_U_33
_atom_site_aniso_U_23
_atom_site_aniso_U_13
_atom_site_aniso_U_12
Co1 0.0442(3) 0.0453(3) 0.0398(3) 0.0011(3) 0.0159(2) 0.0014(3)
B1 0.063(4) 0.078(4) 0.042(3) -0.006(3) 0.025(3) -0.008(3)
N1 0.068(3) 0.045(3) 0.064(3) 0.000(2) 0.022(2) -0.006(2)
N2 0.085(3) 0.061(3) 0.049(2) -0.004(2) 0.035(2) -0.001(3)
C1 0.080(4) 0.047(3) 0.067(4) -0.002(3) 0.031(3) 0.003(3)
C2 0.081(4) 0.066(4) 0.045(3) -0.003(2) 0.025(3) 0.006(3)
N3 0.055(3) 0.053(3) 0.072(3) 0.012(2) 0.014(2) 0.004(2)
N4 0.076(3) 0.049(3) 0.065(3) 0.006(2) 0.031(3) 0.002(2)
N5 0.079(3) 0.055(3) 0.042(2) 0.0022(19) 0.029(2) -0.008(2)
C3 0.101(5) 0.048(3) 0.056(3) -0.004(3) 0.021(3) -0.005(3)
C4 0.075(4) 0.073(4) 0.049(3) -0.003(3) 0.014(3) -0.013(3)
N6 0.076(3) 0.069(3) 0.057(3) 0.001(2) 0.030(3) -0.013(3)
N7 0.058(2) 0.082(3) 0.0390(18) 0.000(2) 0.0188(17) -0.003(3)
N8 0.059(3) 0.062(3) 0.052(2) 0.006(2) 0.026(2) 0.005(2)
C5 0.070(4) 0.066(4) 0.047(3) -0.002(3) 0.023(3) 0.002(3)
C6 0.061(3) 0.089(5) 0.049(3) 0.001(3) 0.024(3) 0.011(3)
N9 0.074(3) 0.081(4) 0.060(3) -0.003(3) 0.037(3) 0.010(3)
B2 0.073(4) 0.094(6) 0.052(3) 0.013(4) 0.026(3) -0.024(4)
N17 0.046(2) 0.099(4) 0.047(2) 0.002(3) 0.017(2) 0.005(2)
C7 0.089(5) 0.176(10) 0.061(4) -0.014(5) 0.042(4) 0.024(6)
C8 0.075(5) 0.146(8) 0.044(3) -0.001(4) 0.022(3) -0.004(5)
N18 0.083(5) 0.192(11) 0.067(4) -0.008(5) 0.040(4) 0.005(6)
N10 0.054(3) 0.052(3) 0.057(3) 0.007(2) 0.018(2) 0.000(2)
N11 0.073(3) 0.065(3) 0.050(2) 0.012(2) 0.026(2) 0.000(2)
C9 0.101(5) 0.055(4) 0.058(4) 0.003(3) 0.006(4) -0.003(4)
C10 0.082(4) 0.079(5) 0.068(4) 0.017(3) 0.035(3) -0.012(4)
N12 0.082(4) 0.071(4) 0.075(4) 0.011(3) 0.033(3) 0.003(3)
N13 0.062(3) 0.041(3) 0.067(3) 0.009(2) 0.009(2) -0.003(2)
N14 0.082(3) 0.068(3) 0.056(3) 0.007(2) 0.032(3) -0.008(3)
C11 0.071(4) 0.058(4) 0.057(3) 0.015(3) 0.021(3) -0.001(3)
C12 0.092(4) 0.074(4) 0.062(3) 0.010(3) 0.041(3) -0.015(4)
N15 0.092(4) 0.058(3) 0.075(4) -0.003(3) 0.031(3) -0.011(3)
Cu1 0.0815(4) 0.0436(3) 0.0432(3) 0.0017(3) 0.0357(3) 0.0102(3)
Cu2 0.0832(4) 0.0426(3) 0.0403(3) 0.0024(2) 0.0371(3) 0.0085(3)
O1 0.112(3) 0.048(2) 0.050(2) 0.0064(16) 0.055(2) 0.012(2)
O2 0.111(3) 0.063(3) 0.055(2) 0.0003(19) 0.058(2) 0.003(2)
C13 0.113(5) 0.032(3) 0.049(3) 0.000(2) 0.048(3) 0.000(3)
C14 0.145(6) 0.038(3) 0.052(3) -0.004(2) 0.067(4) -0.010(3)
O3 0.106(3) 0.060(3) 0.043(2) -0.0041(18) 0.026(2) -0.002(3)
O4 0.109(4) 0.047(2) 0.057(2) 0.0000(19) 0.047(3) 0.014(2)
C19 0.096(5) 0.037(3) 0.034(2) 0.007(2) 0.023(3) 0.011(3)
C20 0.133(6) 0.040(3) 0.038(2) -0.002(2) 0.042(3) 0.001(3)
C21 0.259(13) 0.053(4) 0.102(6) -0.026(4) 0.134(8) -0.042(6)
C22 0.186(7) 0.040(3) 0.060(3) 0.010(3) 0.075(4) 0.021(