####################################################################### 
# 
# This file contains crystal structure data downloaded from the 
# Cambridge Structural Database (CSD) hosted by the Cambridge 
# Crystallographic Data Centre (CCDC).
# 
# Full information about CCDC data access policies and citation 
# guidelines are available at http://www.ccdc.cam.ac.uk/access/V1 
# 
# Audit and citation data items may have been added by the CCDC. 
# Please retain this information to preserve the provenance of 
# this file and to allow appropriate attribution of the data. 
# 
#######################################################################

data_compound2
_audit_block_doi                 10.5517/cc13bkpp
_database_code_depnum_ccdc_archive 'CCDC 1023052'
loop_
_citation_id
_citation_doi
_citation_year
1 10.1021/cg501332u 2014
_audit_update_record             
;
2015-02-17 deposited with the CCDC.	2024-07-14 downloaded from the CCDC.
;

_audit_creation_method           SHELXL-97
_chemical_name_systematic        
;
 ?
;
_chemical_name_common            ?
_chemical_melting_point          ?
_chemical_formula_moiety         ?
_chemical_formula_sum            'C52 H70 B2 Co Cu4 N18 O16'
_chemical_formula_weight         1537.97

loop_
_atom_type_symbol
_atom_type_description
_atom_type_scat_dispersion_real
_atom_type_scat_dispersion_imag
_atom_type_scat_source
C C 0.0033 0.0016 'International Tables Vol C Tables 4.2.6.8 and 6.1.1.4'
H H 0.0000 0.0000 'International Tables Vol C Tables 4.2.6.8 and 6.1.1.4'
B B 0.0013 0.0007 'International Tables Vol C Tables 4.2.6.8 and 6.1.1.4'
N N 0.0061 0.0033 'International Tables Vol C Tables 4.2.6.8 and 6.1.1.4'
O O 0.0106 0.0060 'International Tables Vol C Tables 4.2.6.8 and 6.1.1.4'
Co Co 0.3494 0.9721 'International Tables Vol C Tables 4.2.6.8 and 6.1.1.4'
Cu Cu 0.3201 1.2651 'International Tables Vol C Tables 4.2.6.8 and 6.1.1.4'

_symmetry_cell_setting           monoclinic
_symmetry_space_group_name_H-M   C2

loop_
_symmetry_equiv_pos_as_xyz
'x, y, z'
'-x, y, -z'
'x+1/2, y+1/2, z'
'-x+1/2, y+1/2, -z'

_cell_length_a                   26.604(5)
_cell_length_b                   18.113(4)
_cell_length_c                   18.925(4)
_cell_angle_alpha                90.00
_cell_angle_beta                 118.24(3)
_cell_angle_gamma                90.00
_cell_volume                     8034(3)
_cell_formula_units_Z            4
_cell_measurement_temperature    100(2)
_cell_measurement_reflns_used    31763
_cell_measurement_theta_min      0.43
_cell_measurement_theta_max      35.23

_exptl_crystal_description       plate
_exptl_crystal_colour            green
_exptl_crystal_size_max          0.12
_exptl_crystal_size_mid          0.09
_exptl_crystal_size_min          0.02
_exptl_crystal_density_meas      ?
_exptl_crystal_density_diffrn    1.272
_exptl_crystal_density_method    'not measured'
_exptl_crystal_F_000             3156
_exptl_absorpt_coefficient_mu    1.307
_exptl_absorpt_correction_type   Empirical
_exptl_absorpt_correction_T_min  0.8621
_exptl_absorpt_correction_T_max  0.9807
_exptl_absorpt_process_details   HKL2000-Scalepack

_exptl_special_details           
;
 ?
;

_diffrn_ambient_temperature      100(2)
_diffrn_radiation_wavelength     0.70000
_diffrn_radiation_type           synchrotron
_diffrn_radiation_source         'bending magnet beamline'
_diffrn_radiation_monochromator  'Pt coated Si double crystal'
_diffrn_measurement_device_type  'CCD area detector'
_diffrn_measurement_method       'phi scans'
_diffrn_detector_area_resol_mean ?
_diffrn_standards_number         ?
_diffrn_standards_interval_count ?
_diffrn_standards_interval_time  ?
_diffrn_standards_decay_%        ?
_diffrn_reflns_number            21577
_diffrn_reflns_av_R_equivalents  0.0669
_diffrn_reflns_av_sigmaI/netI    0.0737
_diffrn_reflns_limit_h_min       -32
_diffrn_reflns_limit_h_max       32
_diffrn_reflns_limit_k_min       -22
_diffrn_reflns_limit_k_max       20
_diffrn_reflns_limit_l_min       -23
_diffrn_reflns_limit_l_max       28
_diffrn_reflns_theta_min         1.20
_diffrn_reflns_theta_max         31.29
_reflns_number_total             14012
_reflns_number_gt                9944
_reflns_threshold_expression     >2sigma(I)

_computing_data_collection       'PAL ADSC Quantum-210'
_computing_cell_refinement       HKL2000
_computing_data_reduction        HKL2000
_computing_structure_solution    SHELXTL
_computing_structure_refinement  'SHELXL-97 (Sheldrick, 1997)'
_computing_molecular_graphics    WingX
_computing_publication_material  WingX

_refine_special_details          
;
 Refinement of F^2^ against ALL reflections.  The weighted R-factor wR and
 goodness of fit S are based on F^2^, conventional R-factors R are based
 on F, with F set to zero for negative F^2^. The threshold expression of
 F^2^ > 2sigma(F^2^) is used only for calculating R-factors(gt) etc. and is
 not relevant to the choice of reflections for refinement.  R-factors based
 on F^2^ are statistically about twice as large as those based on F, and R-
 factors based on ALL data will be even larger.
;

_refine_ls_structure_factor_coef Fsqd
_refine_ls_matrix_type           full
_refine_ls_weighting_scheme      calc
_refine_ls_weighting_details     
'calc w=1/[\s^2^(Fo^2^)+(0.1776P)^2^+0.0000P] where P=(Fo^2^+2Fc^2^)/3'
_atom_sites_solution_primary     direct
_atom_sites_solution_secondary   difmap
_atom_sites_solution_hydrogens   geom
_refine_ls_hydrogen_treatment    constr
_refine_ls_extinction_method     none
_refine_ls_extinction_coef       ?
_refine_ls_abs_structure_details 'Flack H D (1983), Acta Cryst. A39, 876-881'
_refine_ls_abs_structure_Flack   0.03(2)
_refine_ls_number_reflns         14012
_refine_ls_number_parameters     816
_refine_ls_number_restraints     1
_refine_ls_R_factor_all          0.1036
_refine_ls_R_factor_gt           0.0811
_refine_ls_wR_factor_ref         0.2540
_refine_ls_wR_factor_gt          0.2290
_refine_ls_goodness_of_fit_ref   1.036
_refine_ls_restrained_S_all      1.036
_refine_ls_shift/su_max          0.026
_refine_ls_shift/su_mean         0.001

loop_
_atom_site_label
_atom_site_type_symbol
_atom_site_fract_x
_atom_site_fract_y
_atom_site_fract_z
_atom_site_U_iso_or_equiv
_atom_site_adp_type
_atom_site_occupancy
_atom_site_symmetry_multiplicity
_atom_site_calc_flag
_atom_site_refinement_flags
_atom_site_disorder_assembly
_atom_site_disorder_group
Co1 Co -0.00352(4) 1.08090(8) 0.77893(6) 0.0635(3) Uani 1 1 d . . .
B1 B 0.0276(5) 0.9513(8) 0.6893(7) 0.089(3) Uani 1 1 d . . .
H1 H 0.0388 0.9126 0.6617 0.107 Uiso 1 1 calc R . .
N1 N 0.0554(4) 0.9931(5) 0.8349(5) 0.080(2) Uani 1 1 d . . .
N2 N 0.0613(4) 0.9428(5) 0.7819(5) 0.094(3) Uani 1 1 d . . .
C1 C 0.0909(6) 0.9652(6) 0.9039(7) 0.096(3) Uani 1 1 d . . .
H1A H 0.0998 0.9911 0.9521 0.115 Uiso 1 1 calc R . .
C2 C 0.0984(5) 0.8884(7) 0.8268(7) 0.102(3) Uani 1 1 d . . .
H2A H 0.1110 0.8488 0.8063 0.122 Uiso 1 1 calc R . .
N3 N 0.1144(5) 0.9005(5) 0.9064(6) 0.092(3) Uani 1 1 d . . .
N4 N -0.0578(4) 0.9942(5) 0.6988(5) 0.079(2) Uani 1 1 d . . .
N5 N -0.0331(5) 0.9465(5) 0.6661(5) 0.094(3) Uani 1 1 d . . .
C3 C -0.1106(7) 0.9737(6) 0.6637(7) 0.102(4) Uani 1 1 d . . .
H3 H -0.1384 1.0000 0.6716 0.122 Uiso 1 1 calc R . .
C4 C -0.0745(5) 0.9007(6) 0.6170(7) 0.093(3) Uani 1 1 d . . .
H4 H -0.0689 0.8631 0.5865 0.112 Uiso 1 1 calc R . .
N6 N -0.1252(4) 0.9135(5) 0.6153(6) 0.088(2) Uani 1 1 d . . .
N7 N 0.0299(3) 1.0883(6) 0.7005(4) 0.0829(19) Uani 1 1 d . . .
N8 N 0.0404(4) 1.0285(6) 0.6701(6) 0.093(3) Uani 1 1 d . . .
C5 C 0.0427(6) 1.1452(10) 0.6647(7) 0.111(4) Uani 1 1 d . . .
H5 H 0.0380 1.1954 0.6750 0.133 Uiso 1 1 calc R . .
C6 C 0.0568(6) 1.0523(13) 0.6134(7) 0.126(6) Uani 1 1 d . . .
H6 H 0.0634 1.0204 0.5787 0.151 Uiso 1 1 calc R . .
N9 N 0.0620(6) 1.1256(11) 0.6146(8) 0.131(4) Uani 1 1 d . . .
B2 B -0.0387(5) 1.2130(7) 0.8573(6) 0.081(3) Uani 1 1 d . . .
H2 H -0.0509 1.2540 0.8811 0.097 Uiso 1 1 calc R . .
N10 N -0.0638(4) 1.1654(5) 0.7187(5) 0.082(2) Uani 1 1 d . . .
N11 N -0.0700(4) 1.2185(4) 0.7657(4) 0.080(2) Uani 1 1 d . . .
C7 C -0.0949(5) 1.1904(6) 0.6439(7) 0.087(3) Uani 1 1 d . . .
H7 H -0.1006 1.1633 0.5977 0.104 Uiso 1 1 calc R . .
C8 C -0.1024(6) 1.2740(6) 0.7176(6) 0.097(3) Uani 1 1 d . . .
H8 H -0.1127 1.3175 0.7356 0.117 Uiso 1 1 calc R . .
N12 N -0.1178(4) 1.2581(6) 0.6405(6) 0.093(3) Uani 1 1 d . . .
N13 N 0.0507(5) 1.1678(5) 0.8565(5) 0.089(2) Uani 1 1 d . . .
N14 N 0.0254(4) 1.2185(4) 0.8852(5) 0.088(2) Uani 1 1 d . . .
C9 C 0.1016(6) 1.1937(6) 0.8831(6) 0.083(3) Uani 1 1 d . . .
H9 H 0.1299 1.1667 0.8770 0.100 Uiso 1 1 calc R . .
C10 C 0.0642(5) 1.2725(6) 0.9228(6) 0.083(3) Uani 1 1 d . . .
H10 H 0.0583 1.3142 0.9482 0.099 Uiso 1 1 calc R . .
N15 N 0.1133(4) 1.2582(5) 0.9188(6) 0.087(2) Uani 1 1 d . . .
N16 N -0.0383(3) 1.0772(5) 0.8563(4) 0.0768(18) Uani 1 1 d . . .
N17 N -0.0514(4) 1.1387(5) 0.8830(4) 0.076(2) Uani 1 1 d . . .
C11 C -0.0539(4) 1.0219(6) 0.8882(5) 0.078(3) Uani 1 1 d . . .
H11 H -0.0498 0.9711 0.8794 0.094 Uiso 1 1 calc R . .
C12 C -0.0756(5) 1.1199(8) 0.9308(6) 0.088(3) Uani 1 1 d . . .
H12 H -0.0893 1.1536 0.9562 0.106 Uiso 1 1 calc R . .
N18 N -0.0765(4) 1.0472(6) 0.9353(6) 0.090(2) Uani 1 1 d . . .
Cu1 Cu 0.19695(5) 0.85002(5) 0.97582(6) 0.0717(3) Uani 1 1 d . . .
Cu2 Cu 0.30583(5) 0.81547(6) 1.03345(6) 0.0750(3) Uani 1 1 d . . .
O1 O 0.2171(4) 0.8923(4) 0.8938(4) 0.093(2) Uani 1 1 d . . .
O2 O 0.3095(4) 0.8770(4) 0.9512(4) 0.0859(19) Uani 1 1 d . . .
C13 C 0.2657(6) 0.8993(6) 0.8981(6) 0.082(3) Uani 1 1 d . . .
C14 C 0.2631(6) 0.9416(6) 0.8274(6) 0.090(3) Uani 1 1 d . . .
C15 C 0.2164(8) 0.9980(12) 0.7919(12) 0.158(6) Uiso 1 1 d . . .
C16 C 0.3157(12) 0.9785(16) 0.8533(16) 0.198(9) Uiso 1 1 d . . .
C17 C 0.2539(10) 0.8941(6) 0.7558(8) 0.162(9) Uani 1 1 d . . .
C18 C 0.1822(11) 0.8685(14) 0.7066(10) 0.214(12) Uani 1 1 d . . .
H18A H 0.1742 0.8355 0.7411 0.321 Uiso 1 1 calc R . .
H18B H 0.1738 0.8429 0.6566 0.321 Uiso 1 1 calc R . .
H18C H 0.1582 0.9126 0.6944 0.321 Uiso 1 1 calc R . .
C19 C 0.2719(7) 0.8246(10) 0.7677(10) 0.134(5) Uiso 1 1 d . . .
O3 O 0.2308(5) 0.9360(4) 1.0459(5) 0.093(2) Uani 1 1 d . . .
O4 O 0.3205(4) 0.9041(4) 1.0994(4) 0.087(2) Uani 1 1 d . . .
C20 C 0.2819(7) 0.9481(6) 1.0898(6) 0.081(3) Uani 1 1 d . . .
C21 C 0.2949(6) 1.0180(5) 1.1369(5) 0.090(3) Uani 1 1 d . . .
H21 H 0.3321 1.0116 1.1868 0.108 Uiso 1 1 calc R . .
C22 C 0.2495(9) 1.0452(7) 1.1615(9) 0.130(6) Uani 1 1 d . . .
H22A H 0.2117 1.0236 1.1257 0.155 Uiso 1 1 calc R . .
H22B H 0.2607 1.0305 1.2174 0.155 Uiso 1 1 calc R . .
C23 C 0.3005(6) 1.0819(7) 1.0903(6) 0.108(4) Uani 1 1 d . . .
C24 C 0.2526(7) 1.0815(7) 1.0009(5) 0.122(4) Uani 1 1 d . . .
H24A H 0.2153 1.0771 0.9990 0.183 Uiso 1 1 calc R . .
H24B H 0.2584 1.0395 0.9729 0.183 Uiso 1 1 calc R . .
H24C H 0.2542 1.1275 0.9749 0.183 Uiso 1 1 calc R . .
C25 C 0.3610(8) 1.0838(12) 1.0925(14) 0.199(10) Uani 1 1 d . . .
H25A H 0.3635 1.0431 1.0601 0.298 Uiso 1 1 calc R . .
H25B H 0.3913 1.0785 1.1480 0.298 Uiso 1 1 calc R . .
H25C H 0.3656 1.1309 1.0708 0.298 Uiso 1 1 calc R . .
O5 O 0.1984(4) 0.7976(4) 1.0673(4) 0.089(2) Uani 1 1 d . . .
O6 O 0.2895(3) 0.7634(4) 1.1108(4) 0.0784(18) Uani 1 1 d . . .
C26 C 0.2447(6) 0.7651(5) 1.1155(6) 0.081(3) Uani 1 1 d . . .
C27 C 0.2409(7) 0.7258(5) 1.1864(6) 0.100(4) Uani 1 1 d . . .
C28 C 0.1829(8) 0.6966(9) 1.1681(9) 0.138(6) Uani 1 1 d . . .
H28A H 0.1760 0.6465 1.1445 0.166 Uiso 1 1 calc R . .
H28B H 0.1518 0.7301 1.1326 0.166 Uiso 1 1 calc R . .
C29 C 0.2673(7) 0.7782(9) 1.2639(10) 0.121(4) Uiso 1 1 d . . .
C30 C 0.2486(6) 0.8514(8) 1.2506(8) 0.113(4) Uiso 1 1 d . . .
C31 C 0.3315(9) 0.7874(11) 1.3031(15) 0.172(8) Uani 1 1 d . . .
O7 O 0.1772(3) 0.7575(4) 0.9151(4) 0.0779(17) Uani 1 1 d . . .
O8 O 0.2698(3) 0.7383(4) 0.9534(4) 0.0750(17) Uani 1 1 d . . .
C32 C 0.2171(6) 0.7242(6) 0.9126(6) 0.079(3) Uani 1 1 d . . .
C33 C 0.1995(6) 0.6524(6) 0.8613(6) 0.091(3) Uani 1 1 d . . .
C34 C 0.1511(7) 0.6678(7) 0.7857(7) 0.124(5) Uani 1 1 d . . .
H34A H 0.1210 0.6903 0.7944 0.186 Uiso 1 1 calc R . .
H34B H 0.1369 0.6217 0.7555 0.186 Uiso 1 1 calc R . .
H34C H 0.1621 0.7018 0.7552 0.186 Uiso 1 1 calc R . .
C35 C 0.2525(8) 0.6256(7) 0.8458(8) 0.121(5) Uani 1 1 d . . .
H35A H 0.2490 0.6484 0.7961 0.145 Uiso 1 1 calc R . .
H35B H 0.2894 0.6411 0.8912 0.145 Uiso 1 1 calc R . .
Cu3 Cu -0.20283(6) 0.86262(7) 0.53850(7) 0.0790(4) Uani 1 1 d . . .
Cu4 Cu -0.30832(6) 0.81690(7) 0.44980(6) 0.0781(4) Uani 1 1 d . . .
O9 O -0.2399(4) 0.9408(4) 0.5616(4) 0.0843(19) Uani 1 1 d . . .
O10 O -0.3318(3) 0.9109(4) 0.4761(4) 0.0863(19) Uani 1 1 d . . .
C36 C -0.2937(8) 0.9553(6) 0.5269(7) 0.107(5) Uani 1 1 d . . .
C37 C -0.3169(6) 1.0267(6) 0.5503(8) 0.100(4) Uani 1 1 d . . .
C38 C -0.2681(11) 1.0587(11) 0.6334(9) 0.189(10) Uani 1 1 d . . .
H38A H -0.2681 1.0331 0.6796 0.227 Uiso 1 1 calc R . .
H38B H -0.2300 1.0537 0.6369 0.227 Uiso 1 1 calc R . .
C39 C -0.3721(8) 1.0101(11) 0.5467(15) 0.180(9) Uani 1 1 d . . .
H39A H -0.4023 1.0113 0.4908 0.271 Uiso 1 1 calc R . .
H39B H -0.3803 1.0471 0.5778 0.271 Uiso 1 1 calc R . .
H39C H -0.3707 0.9610 0.5692 0.271 Uiso 1 1 calc R . .
C40 C -0.3214(7) 1.0912(8) 0.4956(7) 0.121(4) Uani 1 1 d . . .
C41 C -0.2713(9) 1.0930(8) 0.4747(9) 0.157(7) Uani 1 1 d . . .
H41A H -0.2370 1.0722 0.5194 0.235 Uiso 1 1 calc R . .
H41B H -0.2639 1.1442 0.4655 0.235 Uiso 1 1 calc R . .
H41C H -0.2816 1.0639 0.4262 0.235 Uiso 1 1 calc R . .
C42 C -0.3753(9) 1.0993(16) 0.4253(12) 0.225(13) Uani 1 1 d . . .
H42A H -0.3776 1.1483 0.4020 0.338 Uiso 1 1 calc R . .
H42B H -0.4060 1.0940 0.4396 0.338 Uiso 1 1 calc R . .
H42C H -0.3793 1.0613 0.3862 0.338 Uiso 1 1 calc R . .
O11 O -0.2110(4) 0.7999(4) 0.6192(4) 0.092(2) Uani 1 1 d . . .
O12 O -0.3037(4) 0.7737(4) 0.5455(4) 0.087(2) Uani 1 1 d . . .
C43 C -0.2575(6) 0.7697(5) 0.6086(7) 0.083(3) Uani 1 1 d . . .
C44 C -0.2545(6) 0.7285(6) 0.6810(6) 0.098(4) Uani 1 1 d . . .
C45 C -0.1919(9) 0.6963(10) 0.7420(11) 0.161(8) Uani 1 1 d . . .
H45A H -0.1882 0.6452 0.7263 0.194 Uiso 1 1 calc R . .
H45B H -0.1621 0.7270 0.7391 0.194 Uiso 1 1 calc R . .
C46 C -0.2981(9) 0.6739(11) 0.6583(13) 0.206(11) Uani 1 1 d . . .
H46A H -0.3124 0.6731 0.6975 0.309 Uiso 1 1 calc R . .
H46B H -0.2824 0.6254 0.6567 0.309 Uiso 1 1 calc R . .
H46C H -0.3295 0.6858 0.6051 0.309 Uiso 1 1 calc R . .
O13 O -0.1711(4) 0.7760(5) 0.5122(6) 0.105(3) Uani 1 1 d . . .
O14 O -0.2593(4) 0.7343(5) 0.4420(4) 0.100(2) Uani 1 1 d . . .
C47 C -0.2054(6) 0.7280(7) 0.4706(6) 0.079(3) Uani 1 1 d . . .
C48 C -0.1847(6) 0.6591(7) 0.4520(7) 0.097(3) Uani 1 1 d . . .
H48 H -0.1454 0.6701 0.4605 0.117 Uiso 1 1 calc R . .
C49 C -0.2168(12) 0.6325(8) 0.3691(9) 0.193(11) Uani 1 1 d . . .
H49A H -0.2517 0.6626 0.3400 0.232 Uiso 1 1 calc R . .
H49B H -0.1932 0.6384 0.3418 0.232 Uiso 1 1 calc R . .
O15 O -0.2150(3) 0.9123(4) 0.4376(4) 0.086(2) Uani 1 1 d . . .
O16 O -0.3038(4) 0.8683(5) 0.3625(4) 0.095(2) Uani 1 1 d . . .
C50 C -0.2593(6) 0.9053(6) 0.3739(6) 0.087(3) Uani 1 1 d . . .
C51 C -0.2654(6) 0.9445(6) 0.2992(6) 0.092(3) Uani 1 1 d . . .
H51 H -0.2369 0.9856 0.3167 0.111 Uiso 1 1 calc R . .
C52 C -0.3275(8) 0.9797(11) 0.2511(12) 0.148(6) Uiso 1 1 d . . .

loop_
_atom_site_aniso_label
_atom_site_aniso_U_11
_atom_site_aniso_U_22
_atom_site_aniso_U_33
_atom_site_aniso_U_23
_atom_site_aniso_U_13
_atom_site_aniso_U_12
Co1 0.0669(6) 0.0677(6) 0.0565(5) -0.0008(6) 0.0297(4) -0.0016(6)
B1 0.080(8) 0.114(10) 0.069(6) -0.021(6) 0.031(6) 0.008(7)
N1 0.081(5) 0.074(5) 0.072(5) -0.009(4) 0.025(4) 0.000(4)
N2 0.107(7) 0.108(6) 0.075(5) -0.018(5) 0.051(5) 0.002(6)
C1 0.125(9) 0.076(6) 0.087(7) -0.017(5) 0.050(7) -0.003(6)
C2 0.121(9) 0.094(8) 0.088(7) -0.017(6) 0.048(7) 0.013(7)
N3 0.116(7) 0.076(5) 0.085(5) -0.001(4) 0.048(5) 0.021(5)
N4 0.077(6) 0.077(5) 0.088(5) 0.005(4) 0.041(5) 0.013(4)
N5 0.130(8) 0.082(5) 0.070(4) -0.011(4) 0.048(5) 0.004(5)
C3 0.147(12) 0.070(6) 0.091(7) 0.010(5) 0.060(8) 0.018(7)
C4 0.109(8) 0.083(6) 0.088(6) -0.021(5) 0.047(6) 0.009(6)
N6 0.091(6) 0.077(5) 0.087(5) -0.016(4) 0.035(5) -0.004(5)
N7 0.082(5) 0.103(6) 0.069(4) -0.001(5) 0.040(4) -0.007(5)
N8 0.080(6) 0.111(7) 0.077(5) -0.001(5) 0.029(5) -0.005(5)
C5 0.099(8) 0.172(13) 0.078(6) 0.011(7) 0.055(6) -0.025(8)
C6 0.089(8) 0.23(2) 0.065(6) 0.024(9) 0.041(6) 0.044(11)
N9 0.122(9) 0.186(14) 0.097(8) 0.023(9) 0.061(7) 0.032(11)
B2 0.086(8) 0.086(7) 0.066(5) 0.008(5) 0.033(5) -0.002(6)
N10 0.094(6) 0.074(5) 0.082(5) -0.004(4) 0.047(5) 0.007(4)
N11 0.114(6) 0.077(5) 0.064(4) -0.006(4) 0.053(4) 0.001(4)
C7 0.095(8) 0.079(7) 0.080(6) -0.004(5) 0.036(6) -0.003(6)
C8 0.141(10) 0.084(7) 0.068(5) 0.003(5) 0.051(6) 0.004(6)
N12 0.090(6) 0.100(6) 0.088(6) -0.002(5) 0.043(5) 0.002(5)
N13 0.104(7) 0.076(5) 0.082(5) -0.008(4) 0.041(5) 0.003(5)
N14 0.131(7) 0.072(5) 0.072(4) 0.010(4) 0.059(5) 0.007(5)
C9 0.100(8) 0.075(6) 0.082(6) 0.009(5) 0.048(6) 0.010(6)
C10 0.097(7) 0.074(6) 0.077(6) 0.002(4) 0.042(5) -0.001(5)
N15 0.091(6) 0.071(5) 0.091(6) 0.000(4) 0.038(5) -0.006(4)
N16 0.083(4) 0.088(5) 0.061(3) 0.007(4) 0.035(3) 0.010(5)
N17 0.075(5) 0.094(6) 0.063(4) -0.004(4) 0.035(4) -0.014(4)
C11 0.088(7) 0.089(6) 0.061(4) 0.003(4) 0.037(5) -0.010(5)
C12 0.089(7) 0.125(10) 0.063(5) 0.010(6) 0.045(5) 0.010(7)
N18 0.098(6) 0.103(7) 0.081(5) 0.008(5) 0.053(5) 0.001(6)
Cu1 0.1046(9) 0.0656(6) 0.0587(5) 0.0016(4) 0.0499(6) 0.0071(6)
Cu2 0.1074(9) 0.0678(6) 0.0638(5) 0.0018(5) 0.0519(6) 0.0095(6)
O1 0.156(7) 0.073(4) 0.066(4) 0.002(3) 0.064(5) 0.013(5)
O2 0.119(6) 0.079(4) 0.072(4) -0.002(3) 0.055(4) -0.005(4)
C13 0.122(9) 0.075(6) 0.074(6) -0.0