####################################################################### 
# 
# This file contains crystal structure data downloaded from the 
# Cambridge Structural Database (CSD) hosted by the Cambridge 
# Crystallographic Data Centre (CCDC).
# 
# Full information about CCDC data access policies and citation 
# guidelines are available at http://www.ccdc.cam.ac.uk/access/V1 
# 
# Audit and citation data items may have been added by the CCDC. 
# Please retain this information to preserve the provenance of 
# this file and to allow appropriate attribution of the data. 
# 
#######################################################################

data_ZIF80GMESQZ
_audit_block_doi                 10.5517/ccrnlyx
_database_code_depnum_ccdc_archive 'CCDC 705000'
loop_
_citation_id
_citation_doi
_citation_year
1 10.1021/ja809459e 2009
_audit_update_record             
;
2008-10-09 deposited with the CCDC.	2024-07-14 downloaded from the CCDC.
;



_audit_creation_method           SHELXL-97
_chemical_name_systematic        
;

?

;

_chemical_name_common            ZIF80GMESQZ

_chemical_melting_point          ?

_chemical_formula_moiety         'C5.90 H3 Cl2 N5 O2 Zn'

_chemical_formula_sum            'C5.90 H3 Cl2 N5 O2 Zn'

_chemical_formula_weight         312.17



loop_

_atom_type_symbol

_atom_type_description

_atom_type_scat_dispersion_real

_atom_type_scat_dispersion_imag

_atom_type_scat_source












C C 0.0181 0.0091 'International Tables Vol C Tables 4.2.6.8 and 6.1.1.4'
H H 0.0000 0.0000 'International Tables Vol C Tables 4.2.6.8 and 6.1.1.4'
N N 0.0311 0.0180 'International Tables Vol C Tables 4.2.6.8 and 6.1.1.4'
O O 0.0492 0.0322 'International Tables Vol C Tables 4.2.6.8 and 6.1.1.4'
Zn Zn -1.5491 0.6778 'International Tables Vol C Tables 4.2.6.8 and 6.1.1.4'
Cl Cl 0.3639 0.7018 'International Tables Vol C Tables 4.2.6.8 and 6.1.1.4'



_symmetry_cell_setting           Hexagonal

_symmetry_space_group_name_H-M   P6(3)/mmc



loop_

_symmetry_equiv_pos_as_xyz
























'x, y, z'
'-y, x-y, z'
'-x+y, -x, z'
'-x, -y, z+1/2'
'y, -x+y, z+1/2'
'x-y, x, z+1/2'
'y, x, -z'
'x-y, -y, -z'
'-x, -x+y, -z'
'-y, -x, -z+1/2'
'-x+y, y, -z+1/2'
'x, x-y, -z+1/2'
'-x, -y, -z'
'y, -x+y, -z'
'x-y, x, -z'
'x, y, -z-1/2'
'-y, x-y, -z-1/2'
'-x+y, -x, -z-1/2'
'-y, -x, z'
'-x+y, y, z'
'x, x-y, z'
'y, x, z-1/2'
'x-y, -y, z-1/2'
'-x, -x+y, z-1/2'



_cell_length_a                   26.307(4)

_cell_length_b                   26.307(4)

_cell_length_c                   19.361(4)

_cell_angle_alpha                90.00

_cell_angle_beta                 90.00

_cell_angle_gamma                120.00

_cell_volume                     11604(3)

_cell_formula_units_Z            24

_cell_measurement_temperature    153(2)

_cell_measurement_reflns_used    9713

_cell_measurement_theta_min      3.10

_cell_measurement_theta_max      64.11



_exptl_crystal_description       prismic

_exptl_crystal_colour            yellow

_exptl_crystal_size_max          0.24

_exptl_crystal_size_mid          0.18

_exptl_crystal_size_min          0.16

_exptl_crystal_density_meas      ?

_exptl_crystal_density_diffrn    1.072

_exptl_crystal_density_method    'not measured'

_exptl_crystal_F_000             3681

_exptl_absorpt_coefficient_mu    4.297

_exptl_absorpt_correction_type   multi-scan

_exptl_absorpt_correction_T_min  0.450

_exptl_absorpt_correction_T_max  0.500

_exptl_absorpt_process_details   'Blessing, Acta Cryst. (1995) A51 33-58'



_exptl_special_details           
;

The experimental observation is that there are
few high-angle data and the diffraction was
limited to a theta max 35.35. We propose that
this could be due to the highly porous nature
of this compound solvent included in the
pores was highly disordered causing a high
background which washed out high
angle data.

;



_diffrn_ambient_temperature      153(2)

_diffrn_radiation_wavelength     1.54178

_diffrn_radiation_type           CuK\a

_diffrn_radiation_source         'fine-focus sealed tube'

_diffrn_radiation_monochromator  graphite

_diffrn_measurement_device_type  'CCD area detector'

_diffrn_measurement_method       'phi and omega scans'

_diffrn_detector_area_resol_mean ?

_diffrn_standards_number         ?

_diffrn_standards_interval_count ?

_diffrn_standards_interval_time  ?

_diffrn_standards_decay_%        ?

_diffrn_reflns_number            16661

_diffrn_reflns_av_R_equivalents  0.0926

_diffrn_reflns_av_sigmaI/netI    0.0866

_diffrn_reflns_limit_h_min       -17

_diffrn_reflns_limit_h_max       17

_diffrn_reflns_limit_k_min       -17

_diffrn_reflns_limit_k_max       19

_diffrn_reflns_limit_l_min       -12

_diffrn_reflns_limit_l_max       14

_diffrn_reflns_theta_min         1.94

_diffrn_reflns_theta_max         35.35

_reflns_number_total             999

_reflns_number_gt                697

_reflns_threshold_expression     >2sigma(I)



_computing_data_collection       'Bruker XSCANS'

_computing_cell_refinement       'Bruker XSCANS'

_computing_data_reduction        'Bruker SHELXTL'

_computing_structure_solution    'SHELXS-97 (Sheldrick, 1990)'

_computing_structure_refinement  'SHELXL-97 (Sheldrick, 1997)'

_computing_molecular_graphics    'Bruker SHELXTL'

_computing_publication_material  'Bruker SHELXTL'



_refine_special_details          
;

Refinement of F^2^ against ALL reflections. The weighted R-factor wR and

goodness of fit S are based on F^2^, conventional R-factors R are based

on F, with F set to zero for negative F^2^. The threshold expression of

F^2^ > 2sigma(F^2^) is used only for calculating R-factors(gt) etc. and is

not relevant to the choice of reflections for refinement. R-factors based

on F^2^ are statistically about twice as large as those based on F, and R-

factors based on ALL data will be even larger.

;



_refine_ls_structure_factor_coef Fsqd

_refine_ls_matrix_type           full

_refine_ls_weighting_scheme      calc

_refine_ls_weighting_details     
'calc w=1/[\s^2^(Fo^2^)+(0.2000P)^2^+0.0000P] where P=(Fo^2^+2Fc^2^)/3'

_atom_sites_solution_primary     direct

_atom_sites_solution_secondary   difmap

_atom_sites_solution_hydrogens   geom

_refine_ls_hydrogen_treatment    constr

_refine_ls_extinction_method     SHELXL

_refine_ls_extinction_coef       0.00006(3)

_refine_ls_extinction_expression Fc^*^=kFc[1+0.001xFc^2^\l^3^/sin(2\q)]^-1/4^

_refine_ls_number_reflns         999

_refine_ls_number_parameters     97

_refine_ls_number_restraints     4

_refine_ls_R_factor_all          0.1228

_refine_ls_R_factor_gt           0.0869

_refine_ls_wR_factor_ref         0.3002

_refine_ls_wR_factor_gt          0.2796

_refine_ls_goodness_of_fit_ref   1.205

_refine_ls_restrained_S_all      1.203

_refine_ls_shift/su_max          0.000

_refine_ls_shift/su_mean         0.000



loop_

_atom_site_label

_atom_site_type_symbol

_atom_site_fract_x

_atom_site_fract_y

_atom_site_fract_z

_atom_site_U_iso_or_equiv

_atom_site_adp_type

_atom_site_occupancy

_atom_site_symmetry_multiplicity

_atom_site_calc_flag

_atom_site_refinement_flags

_atom_site_disorder_assembly

_atom_site_disorder_group























Zn1 Zn 0.89576(8) 0.33177(7) 0.40572(11) 0.116(2) Uani 1 1 d . . .
N1A N 0.8264(5) 0.2603(6) 0.4435(7) 0.112(4) Uiso 1 1 d D . .
C1A C 0.7820(2) 0.2180(2) 0.4031(11) 0.102(7) Uiso 1 2 d SD . .
H1A H 0.7808 0.2192 0.3552 0.123 Uiso 1 2 calc SR . .
C2A C 0.8108(6) 0.2386(6) 0.5079(10) 0.157(8) Uiso 1 1 d . . .
Cl5A Cl 0.8511(2) 0.2789(3) 0.5799(3) 0.232(4) Uani 1 1 d D . .
N1B N 0.9631(5) 0.3392(5) 0.4610(6) 0.120(5) Uiso 1 1 d D . .
C1B C 1.0000 0.3882(8) 0.5000 0.116(7) Uiso 1 2 d SD . .
H1B H 1.0000 0.4236 0.5000 0.139 Uiso 1 2 calc SR . .
C2B C 0.9773(6) 0.2962(7) 0.4767(7) 0.112(12) Uiso 0.90(4) 1 d P . .
Cl5B Cl 0.9419(2) 0.22803(19) 0.4421(3) 0.212(4) Uani 1 1 d D . .
N1C N 0.8869(5) 0.4011(6) 0.4318(6) 0.134(5) Uiso 1 1 d . . .
C1C C 0.9086(14) 0.4543(7) 0.4158(14) 0.157(10) Uiso 1 2 d S . .
C2C C 0.8377(9) 0.3904(8) 0.4722(10) 0.225(10) Uiso 1 1 d . . .
H2C H 0.8112 0.3556 0.4941 0.270 Uiso 1 1 calc R . .
N3C N 0.9603(14) 0.4802(7) 0.3780(14) 0.201(10) Uiso 1 2 d S . .
O7C O 0.9925(11) 0.5350(7) 0.3786(16) 0.57(3) Uani 1 1 d . . .
N1D N 0.9148(5) 0.3261(4) 0.3067(8) 0.110(5) Uiso 1 1 d . . .
C1D C 0.8891(11) 0.3261(7) 0.2500 0.086(8) Uiso 1 2 d S . .
C2D C 0.9628(7) 0.3214(6) 0.2857(7) 0.159(7) Uiso 1 1 d . . .
H2D H 0.9898 0.3187 0.3142 0.191 Uiso 1 1 calc R . .
N3D N 0.8354(12) 0.3259(8) 0.2500 0.123(10) Uiso 1 2 d S . .
O8D O 0.8149(4) 0.3263(4) 0.3071(7) 0.143(5) Uani 1 1 d . . .



loop_

_atom_site_aniso_label

_atom_site_aniso_U_11

_atom_site_aniso_U_22

_atom_site_aniso_U_33

_atom_site_aniso_U_23

_atom_site_aniso_U_13

_atom_site_aniso_U_12





Zn1 0.094(3) 0.097(3) 0.146(4) -0.0127(12) -0.0288(14) 0.0382(17)
Cl5A 0.228(6) 0.248(7) 0.129(5) -0.019(4) -0.066(4) 0.051(5)
Cl5B 0.235(7) 0.122(5) 0.288(7) -0.063(4) -0.114(5) 0.095(4)
O7C 0.58(4) 0.106(13) 0.88(5) 0.015(18) 0.53(4) 0.063(16)
O8D 0.138(10) 0.164(11) 0.106(10) -0.012(7) -0.017(8) 0.059(8)



_geom_special_details            
;

All esds (except the esd in the dihedral angle between two l.s. planes)

are estimated using the full covariance matrix. The cell esds are taken

into account individually in the estimation of esds in distances, angles

and torsion angles; correlations between esds in cell parameters are only

used when they are defined by crystal symmetry. An approximate (isotropic)

treatment of cell esds is used for estimating esds involving l.s. planes.

;



loop_

_geom_bond_atom_site_label_1

_geom_bond_atom_site_label_2

_geom_bond_distance

_geom_bond_site_symmetry_2

_geom_bond_publ_flag
































Zn1 N1A 1.992(14) . ?
Zn1 N1B 1.993(14) . ?
Zn1 N1D 2.006(14) . ?
Zn1 N1C 2.015(16) . ?
N1A C2A 1.346(14) . ?
N1A C1A 1.384(13) . ?
C1A N1A 1.384(13) 19_665 ?
C1A H1A 0.9300 . ?
C2A C2A 1.30(3) 19_665 ?
C2A Cl5A 1.751(16) . ?
N1B C1B 1.388(12) . ?
N1B C2B 1.391(14) . ?
C1B N1B 1.388(12) 9_766 ?
C1B H1B 0.9300 . ?
C2B C2B 1.37(3) 9_766 ?
C2B Cl5B 1.692(15) . ?
N1C C1C 1.259(16) . ?
N1C C2C 1.415(19) . ?
C1C N1C 1.259(16) 21 ?
C1C N3C 1.39(3) . ?
C2C C2C 1.50(3) 21 ?
C2C H2C 0.9300 . ?
N3C O7C 1.255(18) . ?
N3C O7C 1.255(18) 21 ?
N1D C1D 1.290(14) . ?
N1D C2D 1.389(16) . ?
C1D N1D 1.290(14) 16_556 ?
C1D N3D 1.41(2) . ?
C2D C2D 1.38(3) 16_556 ?
C2D H2D 0.9300 . ?
N3D O8D 1.234(13) . ?
N3D O8D 1.234(13) 16_556 ?



loop_

_geom_angle_atom_site_label_1

_geom_angle_atom_site_label_2

_geom_angle_atom_site_label_3

_geom_angle

_geom_angle_site_symmetry_1

_geom_angle_site_symmetry_3

_geom_angle_publ_flag
















































N1A Zn1 N1B 104.2(4) . . ?
N1A Zn1 N1D 115.2(5) . . ?
N1B Zn1 N1D 106.1(5) . . ?
N1A Zn1 N1C 107.2(5) . . ?
N1B Zn1 N1C 106.0(5) . . ?
N1D Zn1 N1C 117.0(5) . . ?
C2A N1A C1A 103.1(16) . . ?
C2A N1A Zn1 133.0(11) . . ?
C1A N1A Zn1 123.9(11) . . ?
N1A C1A N1A 111(2) . 19_665 ?
N1A C1A H1A 124.5 . . ?
N1A C1A H1A 124.5 19_665 . ?
C2A C2A N1A 111.4(9) 19_665 . ?
C2A C2A Cl5A 127.2(5) 19_665 . ?
N1A C2A Cl5A 121.1(11) . . ?
C1B N1B C2B 106.8(16) . . ?
C1B N1B Zn1 123.9(11) . . ?
C2B N1B Zn1 128.7(10) . . ?
N1B C1B N1B 109(2) 9_766 . ?
N1B C1B H1B 125.4 9_766 . ?
N1B C1B H1B 125.4 . . ?
C2B C2B N1B 108.6(8) 9_766 . ?
C2B C2B Cl5B 128.3(5) 9_766 . ?
N1B C2B Cl5B 123.1(11) . . ?
C1C N1C C2C 103(2) . . ?
C1C N1C Zn1 138.7(19) . . ?
C2C N1C Zn1 117.9(11) . . ?
N1C C1C N1C 125(4) . 21 ?
N1C C1C N3C 117.7(18) . . ?
N1C C1C N3C 117.7(18) 21 . ?
N1C C2C C2C 105.0(10) . 21 ?
N1C C2C H2C 127.5 . . ?
C2C C2C H2C 127.5 21 . ?
O7C N3C O7C 109(4) . 21 ?
O7C N3C C1C 119.4(19) . . ?
O7C N3C C1C 119.4(19) 21 . ?
C1D N1D C2D 104.5(19) . . ?
C1D N1D Zn1 131.5(15) . . ?
C2D N1D Zn1 124.0(11) . . ?
N1D C1D N1D 117(3) . 16_556 ?
N1D C1D N3D 121.7(13) . . ?
N1D C1D N3D 121.7(13) 16_556 . ?
C2D C2D N1D 107.1(9) 16_556 . ?
C2D C2D H2D 126.5 16_556 . ?
N1D C2D H2D 126.5 . . ?
O8D N3D O8D 127(3) . 16_556 ?
O8D N3D C1D 116.3(15) . . ?
O8D N3D C1D 116.3(15) 16_556 . ?



loop_

_geom_torsion_atom_site_label_1

_geom_torsion_atom_site_label_2

_geom_torsion_atom_site_label_3

_geom_torsion_atom_site_label_4

_geom_torsion

_geom_torsion_site_symmetry_1

_geom_torsion_site_symmetry_2

_geom_torsion_site_symmetry_3

_geom_torsion_site_symmetry_4

_geom_torsion_publ_flag
























































N1B Zn1 N1A C2A 38.4(11) . . . . ?
N1D Zn1 N1A C2A 154.3(11) . . . . ?
N1C Zn1 N1A C2A -73.7(11) . . . . ?
N1B Zn1 N1A C1A -137.8(6) . . . . ?
N1D Zn1 N1A C1A -22.0(7) . . . . ?
N1C Zn1 N1A C1A 110.1(6) . . . . ?
C2A N1A C1A N1A 3.0(10) . . . 19_665 ?
Zn1 N1A C1A N1A -179.9(4) . . . 19_665 ?
C1A N1A C2A C2A -1.8(6) . . . 19_665 ?
Zn1 N1A C2A C2A -178.6(6) . . . 19_665 ?
C1A N1A C2A Cl5A -175.7(8) . . . . ?
Zn1 N1A C2A Cl5A 7.5(17) . . . . ?
N1A Zn1 N1B C1B -121.9(7) . . . . ?
N1D Zn1 N1B C1B 116.0(7) . . . . ?
N1C Zn1 N1B C1B -9.0(9) . . . . ?
N1A Zn1 N1B C2B 47.8(12) . . . . ?
N1D Zn1 N1B C2B -74.3(12) . . . . ?
N1C Zn1 N1B C2B 160.7(12) . . . . ?
C2B N1B C1B N1B 0.4(7) . . . 9_766 ?
Zn1 N1B C1B N1B 172.0(9) . . . 9_766 ?
C1B N1B C2B C2B -1.2(19) . . . 9_766 ?
Zn1 N1B C2B C2B -172.2(11) . . . 9_766 ?
C1B N1B C2B Cl5B 178.5(9) . . . . ?
Zn1 N1B C2B Cl5B 7.4(19) . . . . ?
N1A Zn1 N1C C1C -166(2) . . . . ?
N1B Zn1 N1C C1C 84(2) . . . . ?
N1D Zn1 N1C C1C -34(2) . . . . ?
N1A Zn1 N1C C2C 2.1(13) . . . . ?
N1B Zn1 N1C C2C -108.7(12) . . . . ?
N1D Zn1 N1C C2C 133.2(11) . . . . ?
C2C N1C C1C N1C -3(3) . . . 21 ?
Zn1 N1C C1C N1C 166.0(10) . . . 21 ?
C2C N1C C1C N3C 176.9(19) . . . . ?
Zn1 N1C C1C N3C -14(4) . . . . ?
C1C N1C C2C C2C 1.4(16) . . . 21 ?
Zn1 N1C C2C C2C -170.4(6) . . . 21 ?
N1C C1C N3C O7C -159(3) . . . . ?
N1C C1C N3C O7C 21(4) 21 . . . ?
N1C C1C N3C O7C -21(4) . . . 21 ?
N1C C1C N3C O7C 159(3) 21 . . 21 ?
N1A Zn1 N1D C1D 72.6(14) . . . . ?
N1B Zn1 N1D C1D -172.7(13) . . . . ?
N1C Zn1 N1D C1D -54.7(14) . . . . ?
N1A Zn1 N1D C2D -107.9(10) . . . . ?
N1B Zn1 N1D C2D 6.9(11) . . . . ?
N1C Zn1 N1D C2D 124.8(11) . . . . ?
C2D N1D C1D N1D -4(2) . . . 16_556 ?
Zn1 N1D C1D N1D 175.1(5) . . . 16_556 ?
C2D N1D C1D N3D 175.1(14) . . . . ?
Zn1 N1D C1D N3D -5(2) . . . . ?
C1D N1D C2D C2D 2.5(11) . . . 16_556 ?
Zn1 N1D C2D C2D -177.2(5) . . . 16_556 ?
N1D C1D N3D O8D 1(3) . . . . ?
N1D C1D N3D O8D -179.5(15) 16_556 . . . ?
N1D C1D N3D O8D 179.5(15) . . . 16_556 ?
N1D C1D N3D O8D -1(3) 16_556 . . 16_556 ?



_diffrn_measured_fraction_theta_max 0.992

_diffrn_reflns_theta_full        35.35

_diffrn_measured_fraction_theta_full 0.992

_refine_diff_density_max         0.489

_refine_diff_density_min         -0.576

_refine_diff_density_rms         0.093
