####################################################################### 
# 
# This file contains crystal structure data downloaded from the 
# Cambridge Structural Database (CSD) hosted by the Cambridge 
# Crystallographic Data Centre (CCDC).
# 
# Full information about CCDC data access policies and citation 
# guidelines are available at http://www.ccdc.cam.ac.uk/access/V1 
# 
# Audit and citation data items may have been added by the CCDC. 
# Please retain this information to preserve the provenance of 
# this file and to allow appropriate attribution of the data. 
# 
#######################################################################

data_ZIF80GME
_audit_block_doi                 10.5517/ccrnlxw
_database_code_depnum_ccdc_archive 'CCDC 704999'
loop_
_citation_id
_citation_doi
_citation_year
1 10.1021/ja809459e 2009
_audit_update_record             
;
2008-10-09 deposited with the CCDC.	2024-07-14 downloaded from the CCDC.
;

_audit_creation_method           SHELXL-97

_chemical_name_systematic        
;
?
;
_chemical_name_common            ZIF80GME
_chemical_melting_point          ?
_chemical_formula_moiety         'C6.91 H3 Cl2 N5 O2.25 Zn'
_chemical_formula_sum            'C6.91 H3 Cl2 N5 O2.25 Zn'
_chemical_formula_weight         328.36

loop_
_atom_type_symbol
_atom_type_description
_atom_type_scat_dispersion_real
_atom_type_scat_dispersion_imag
_atom_type_scat_source
C C 0.0181 0.0091 'International Tables Vol C Tables 4.2.6.8 and 6.1.1.4'
H H 0.0000 0.0000 'International Tables Vol C Tables 4.2.6.8 and 6.1.1.4'
N N 0.0311 0.0180 'International Tables Vol C Tables 4.2.6.8 and 6.1.1.4'
O O 0.0492 0.0322 'International Tables Vol C Tables 4.2.6.8 and 6.1.1.4'
Zn Zn -1.5491 0.6778 'International Tables Vol C Tables 4.2.6.8 and 6.1.1.4'
Cl Cl 0.3639 0.7018 'International Tables Vol C Tables 4.2.6.8 and 6.1.1.4'

_symmetry_cell_setting           Hexagonal
_symmetry_space_group_name_H-M   P6(3)/mmc

loop_
_symmetry_equiv_pos_as_xyz
'x, y, z'
'-y, x-y, z'
'-x+y, -x, z'
'-x, -y, z+1/2'
'y, -x+y, z+1/2'
'x-y, x, z+1/2'
'y, x, -z'
'x-y, -y, -z'
'-x, -x+y, -z'
'-y, -x, -z+1/2'
'-x+y, y, -z+1/2'
'x, x-y, -z+1/2'
'-x, -y, -z'
'y, -x+y, -z'
'x-y, x, -z'
'x, y, -z-1/2'
'-y, x-y, -z-1/2'
'-x+y, -x, -z-1/2'
'-y, -x, z'
'-x+y, y, z'
'x, x-y, z'
'y, x, z-1/2'
'x-y, -y, z-1/2'
'-x, -x+y, z-1/2'

_cell_length_a                   26.307(4)
_cell_length_b                   26.307(4)
_cell_length_c                   19.361(4)
_cell_angle_alpha                90.00
_cell_angle_beta                 90.00
_cell_angle_gamma                120.00
_cell_volume                     11604(3)
_cell_formula_units_Z            24
_cell_measurement_temperature    153(2)
_cell_measurement_reflns_used    9713
_cell_measurement_theta_min      3.10
_cell_measurement_theta_max      64.11

_exptl_crystal_description       prismic
_exptl_crystal_colour            yellow
_exptl_crystal_size_max          0.24
_exptl_crystal_size_mid          0.18
_exptl_crystal_size_min          0.16
_exptl_crystal_density_meas      ?
_exptl_crystal_density_diffrn    1.128
_exptl_crystal_density_method    'not measured'
_exptl_crystal_F_000             3875
_exptl_absorpt_coefficient_mu    4.331
_exptl_absorpt_correction_type   multi-scan
_exptl_absorpt_correction_T_min  0.450
_exptl_absorpt_correction_T_max  0.501
_exptl_absorpt_process_details   'Blessing, Acta Cryst. (1995) A51 33-58'

_exptl_special_details           
;
Due to the highly porous nature of this compound
solvent included in the pores was highly disordered
causing a high background which washed out high angle
data. Therefore diffraction was limited to a theta max 35.35.
;

_diffrn_ambient_temperature      153(2)
_diffrn_radiation_wavelength     1.54178
_diffrn_radiation_type           CuK\a
_diffrn_radiation_source         'fine-focus sealed tube'
_diffrn_radiation_monochromator  graphite
_diffrn_measurement_device_type  'CCD area detector'
_diffrn_measurement_method       'phi and omega scans'
_diffrn_detector_area_resol_mean ?
_diffrn_standards_number         ?
_diffrn_standards_interval_count ?
_diffrn_standards_interval_time  ?
_diffrn_standards_decay_%        ?
_diffrn_reflns_number            16661
_diffrn_reflns_av_R_equivalents  0.1072
_diffrn_reflns_av_sigmaI/netI    0.1008
_diffrn_reflns_limit_h_min       -17
_diffrn_reflns_limit_h_max       17
_diffrn_reflns_limit_k_min       -17
_diffrn_reflns_limit_k_max       19
_diffrn_reflns_limit_l_min       -12
_diffrn_reflns_limit_l_max       14
_diffrn_reflns_theta_min         1.94
_diffrn_reflns_theta_max         35.35
_reflns_number_total             999
_reflns_number_gt                639
_reflns_threshold_expression     >2sigma(I)

_computing_data_collection       'Bruker SMART'
_computing_cell_refinement       'Bruker SMART'
_computing_data_reduction        'Bruker SAINT'
_computing_structure_solution    'SHELXS-97 (Sheldrick, 1990)'
_computing_structure_refinement  'SHELXL-97 (Sheldrick, 1997)'
_computing_molecular_graphics    'Bruker SHELXTL'
_computing_publication_material  'Bruker SHELXTL'


_refine_special_details          
;
Refinement of F^2^ against ALL reflections. The weighted R-factor wR and
goodness of fit S are based on F^2^, conventional R-factors R are based
on F, with F set to zero for negative F^2^. The threshold expression of
F^2^ > 2sigma(F^2^) is used only for calculating R-factors(gt) etc. and is
not relevant to the choice of reflections for refinement. R-factors based
on F^2^ are statistically about twice as large as those based on F, and R-
factors based on ALL data will be even larger.
;

_refine_ls_structure_factor_coef Fsqd
_refine_ls_matrix_type           full
_refine_ls_weighting_scheme      calc
_refine_ls_weighting_details     
'calc w=1/[\s^2^(Fo^2^)+(0.2000P)^2^+0.0000P] where P=(Fo^2^+2Fc^2^)/3'
_atom_sites_solution_primary     direct
_atom_sites_solution_secondary   difmap
_atom_sites_solution_hydrogens   geom
_refine_ls_hydrogen_treatment    constr
_refine_ls_extinction_method     SHELXL
_refine_ls_extinction_coef       0.0010(3)
_refine_ls_extinction_expression Fc^*^=kFc[1+0.001xFc^2^\l^3^/sin(2\q)]^-1/4^
_refine_ls_number_reflns         999
_refine_ls_number_parameters     107
_refine_ls_number_restraints     4
_refine_ls_R_factor_all          0.2041
_refine_ls_R_factor_gt           0.1397
_refine_ls_wR_factor_ref         0.4350
_refine_ls_wR_factor_gt          0.3853
_refine_ls_goodness_of_fit_ref   1.804
_refine_ls_restrained_S_all      1.800
_refine_ls_shift/su_max          0.005
_refine_ls_shift/su_mean         0.001

loop_
_atom_site_label
_atom_site_type_symbol
_atom_site_fract_x
_atom_site_fract_y
_atom_site_fract_z
_atom_site_U_iso_or_equiv
_atom_site_adp_type
_atom_site_occupancy
_atom_site_symmetry_multiplicity
_atom_site_calc_flag
_atom_site_refinement_flags
_atom_site_disorder_assembly
_atom_site_disorder_group
Zn1 Zn 0.89586(15) 0.33205(13) 0.4057(2) 0.118(4) Uani 1 1 d . . .
N1A N 0.8262(9) 0.2592(10) 0.4437(12) 0.124(8) Uiso 1 1 d D . .
C1A C 0.7823(4) 0.2177(4) 0.402(2) 0.117(14) Uiso 1 2 d SD . .
H1A H 0.7810 0.2190 0.3536 0.140 Uiso 1 2 calc SR . .
C2A C 0.8100(11) 0.2401(10) 0.5109(17) 0.159(13) Uiso 1 1 d . . .
Cl5A Cl 0.8527(4) 0.2789(4) 0.5789(4) 0.218(6) Uani 1 1 d D . .
N1B N 0.9634(9) 0.3392(9) 0.4633(10) 0.124(9) Uiso 1 1 d D . .
C1B C 1.0000 0.3900(15) 0.5000 0.131(14) Uiso 1 2 d SD . .
H1B H 1.0000 0.4253 0.5000 0.157 Uiso 1 2 calc SR . .
C2B C 0.9791(11) 0.2966(12) 0.4768(14) 0.10(2) Uiso 0.80(7) 1 d P . .
Cl5B Cl 0.9424(4) 0.2280(3) 0.4420(5) 0.216(6) Uani 1 1 d D . .
N1C N 0.8868(9) 0.4003(11) 0.4323(11) 0.136(8) Uiso 1 1 d . . .
C1C C 0.907(2) 0.4533(12) 0.413(2) 0.148(17) Uiso 1 2 d S . .
C2C C 0.8409(16) 0.3938(14) 0.4738(17) 0.235(18) Uiso 1 1 d . . .
H2C H 0.8147 0.3599 0.4975 0.282 Uiso 1 1 calc R . .
N3C N 0.963(3) 0.4813(13) 0.377(2) 0.194(17) Uiso 1 2 d S . .
O7C O 0.9852(12) 0.5402(12) 0.3699(17) 0.316(18) Uani 1 1 d . . .
N1D N 0.9164(10) 0.3251(8) 0.3101(13) 0.133(9) Uiso 1 1 d . . .
C1D C 0.8898(19) 0.3238(13) 0.2500 0.111(15) Uiso 1 2 d S . .
C2D C 0.9645(13) 0.3229(10) 0.2852(12) 0.161(13) Uiso 1 1 d . . .
H2D H 0.9929 0.3215 0.3126 0.193 Uiso 1 1 calc R . .
N3D N 0.8337(17) 0.3258(12) 0.2500 0.099(13) Uiso 1 2 d S . .
O8D O 0.8148(7) 0.3263(6) 0.3098(10) 0.144(8) Uani 1 1 d . . .
O1S O 0.192(2) 0.383(5) 0.7500 0.25(7) Uiso 1 4 d S . .
C2S C 0.817(4) 0.183(4) 0.2500 0.25(12) Uiso 1 4 d S . .
C3S C 0.8592(12) 0.1408(12) 0.274(3) 0.29(3) Uiso 1 2 d S . .
C1X C 0.6667 0.3333 0.400(6) 0.32(6) Uiso 1 6 d S . .
C2X C 0.6667 0.3333 0.2500 0.35(9) Uiso 1 12 d S . .

loop_
_atom_site_aniso_label
_atom_site_aniso_U_11
_atom_site_aniso_U_22
_atom_site_aniso_U_33
_atom_site_aniso_U_23
_atom_site_aniso_U_13
_atom_site_aniso_U_12
Zn1 0.099(5) 0.097(5) 0.144(6) -0.010(2) -0.024(2) 0.038(3)
Cl5A 0.237(10) 0.235(11) 0.126(9) -0.038(7) -0.063(7) 0.076(9)
Cl5B 0.244(12) 0.119(8) 0.295(13) -0.073(7) -0.127(9) 0.098(7)
O7C 0.27(3) 0.18(2) 0.50(5) 0.10(3) 0.14(3) 0.12(2)
O8D 0.137(17) 0.163(18) 0.116(17) -0.027(13) 0.002(13) 0.062(13)

_geom_special_details            
;
All esds (except the esd in the dihedral angle between two l.s. planes)
are estimated using the full covariance matrix. The cell esds are taken
into account individually in the estimation of esds in distances, angles
and torsion angles; correlations between esds in cell parameters are only
used when they are defined by crystal symmetry. An approximate (isotropic)
treatment of cell esds is used for estimating esds involving l.s. planes.
;

loop_
_geom_bond_atom_site_label_1
_geom_bond_atom_site_label_2
_geom_bond_distance
_geom_bond_site_symmetry_2
_geom_bond_publ_flag
Zn1 N1D 1.96(3) . ?
Zn1 N1C 1.99(3) . ?
Zn1 N1A 2.02(2) . ?
Zn1 N1B 2.03(2) . ?
N1A C2A 1.38(3) . ?
N1A C1A 1.39(2) . ?
C1A N1A 1.39(2) 19_665 ?
C1A H1A 0.9300 . ?
C2A C2A 1.32(5) 19_665 ?
C2A Cl5A 1.70(3) . ?
N1B C1B 1.39(2) . ?
N1B C2B 1.40(3) . ?
C1B N1B 1.39(2) 9_766 ?
C1B H1B 0.9300 . ?
C2B C2B 1.31(5) 9_766 ?
C2B Cl5B 1.70(3) . ?
N1C C1C 1.27(3) . ?
N1C C2C 1.39(3) . ?
C1C N1C 1.27(3) 21 ?
C1C N3C 1.46(5) . ?
C1C C2C 2.03(6) 21 ?
C1C C2C 2.03(6) . ?
C2C C2C 1.40(6) 21 ?
C2C H2C 0.9300 . ?
N3C O7C 1.36(2) 21 ?
N3C O7C 1.36(2) . ?
N1D C1D 1.35(2) . ?
N1D C2D 1.38(3) . ?
C1D N1D 1.35(2) 16_556 ?
C1D N3D 1.50(4) . ?
C2D C2D 1.36(5) 16_556 ?
C2D H2D 0.9300 . ?
N3D O8D 1.263(19) . ?
N3D O8D 1.263(19) 16_556 ?
C2S C3S 1.99(17) 16_556 ?
C2S C3S 1.99(17) . ?
C3S C3S 0.95(13) 16_556 ?

loop_
_geom_angle_atom_site_label_1
_geom_angle_atom_site_label_2
_geom_angle_atom_site_label_3
_geom_angle
_geom_angle_site_symmetry_1
_geom_angle_site_symmetry_3
_geom_angle_publ_flag
N1D Zn1 N1C 119.4(9) . . ?
N1D Zn1 N1A 114.7(8) . . ?
N1C Zn1 N1A 107.5(8) . . ?
N1D Zn1 N1B 105.0(9) . . ?
N1C Zn1 N1B 105.5(8) . . ?
N1A Zn1 N1B 103.1(7) . . ?
C2A N1A C1A 106(3) . . ?
C2A N1A Zn1 131.1(19) . . ?
C1A N1A Zn1 122.5(19) . . ?
N1A C1A N1A 108(4) . 19_665 ?
N1A C1A H1A 126.0 . . ?
N1A C1A H1A 126.0 19_665 . ?
C2A C2A N1A 109.6(15) 19_665 . ?
C2A C2A Cl5A 129.1(10) 19_665 . ?
N1A C2A Cl5A 121(2) . . ?
C1B N1B C2B 110(3) . . ?
C1B N1B Zn1 121.7(19) . . ?
C2B N1B Zn1 128.7(19) . . ?
N1B C1B N1B 104(4) . 9_766 ?
N1B C1B H1B 128.0 . . ?
N1B C1B H1B 128.0 9_766 . ?
C2B C2B N1B 108.3(15) 9_766 . ?
C2B C2B Cl5B 129.0(9) 9_766 . ?
N1B C2B Cl5B 122(2) . . ?
C1C N1C C2C 99(4) . . ?
C1C N1C Zn1 138(3) . . ?
C2C N1C Zn1 122(2) . . ?
N1C C1C N1C 126(6) 21 . ?
N1C C1C N3C 117(3) 21 . ?
N1C C1C N3C 117(3) . . ?
N1C C1C C2C 43(2) 21 21 ?
N1C C1C C2C 83(4) . 21 ?
N3C C1C C2C 157.8(17) . 21 ?
N1C C1C C2C 83(4) 21 . ?
N1C C1C C2C 43(2) . . ?
N3C C1C C2C 157.8(17) . . ?
C2C C1C C2C 41(2) 21 . ?
N1C C2C C2C 108.1(17) . 21 ?
N1C C2C C1C 38.4(17) . . ?
C2C C2C C1C 69.7(11) 21 . ?
N1C C2C H2C 125.9 . . ?
C2C C2C H2C 125.9 21 . ?
C1C C2C H2C 164.3 . . ?
O7C N3C O7C 134(6) 21 . ?
O7C N3C C1C 112(3) 21 . ?
O7C N3C C1C 112(3) . . ?
C1D N1D C2D 100(3) . . ?
C1D N1D Zn1 131(3) . . ?
C2D N1D Zn1 129.4(19) . . ?
N1D C1D N1D 119(5) . 16_556 ?
N1D C1D N3D 120(2) . . ?
N1D C1D N3D 120(2) 16_556 . ?
C2D C2D N1D 110.4(15) 16_556 . ?
C2D C2D H2D 124.8 16_556 . ?
N1D C2D H2D 124.8 . . ?
O8D N3D O8D 133(4) . 16_556 ?
O8D N3D C1D 114(2) . . ?
O8D N3D C1D 114(2) 16_556 . ?
C3S C2S C3S 28(5) 16_556 . ?
C3S C3S C2S 76(2) 16_556 . ?

loop_
_geom_torsion_atom_site_label_1
_geom_torsion_atom_site_label_2
_geom_torsion_atom_site_label_3
_geom_torsion_atom_site_label_4
_geom_torsion
_geom_torsion_site_symmetry_1
_geom_torsion_site_symmetry_2
_geom_torsion_site_symmetry_3
_geom_torsion_site_symmetry_4
_geom_torsion_publ_flag
N1D Zn1 N1A C2A 156.5(18) . . . . ?
N1C Zn1 N1A C2A -68.2(19) . . . . ?
N1B Zn1 N1A C2A 43.0(18) . . . . ?
N1D Zn1 N1A C1A -25.4(11) . . . . ?
N1C Zn1 N1A C1A 109.9(9) . . . . ?
N1B Zn1 N1A C1A -138.9(8) . . . . ?
C2A N1A C1A N1A -0.7(14) . . . 19_665 ?
Zn1 N1A C1A N1A -179.2(6) . . . 19_665 ?
C1A N1A C2A C2A 0.4(9) . . . 19_665 ?
Zn1 N1A C2A C2A 178.7(10) . . . 19_665 ?
C1A N1A C2A Cl5A 179.5(13) . . . . ?
Zn1 N1A C2A Cl5A -2(3) . . . . ?
N1D Zn1 N1B C1B 114.9(11) . . . . ?
N1C Zn1 N1B C1B -12.1(13) . . . . ?
N1A Zn1 N1B C1B -124.7(11) . . . . ?
N1D Zn1 N1B C2B -69(2) . . . . ?
N1C Zn1 N1B C2B 163.6(19) . . . . ?
N1A Zn1 N1B C2B 51(2) . . . . ?
C2B N1B C1B N1B -1.4(13) . . . 9_766 ?
Zn1 N1B C1B N1B 175.0(14) . . . 9_766 ?
C1B N1B C2B C2B 4(4) . . . 9_766 ?
Zn1 N1B C2B C2B -172(2) . . . 9_766 ?
C1B N1B C2B Cl5B 178.5(15) . . . . ?
Zn1 N1B C2B Cl5B 2(3) . . . . ?
N1D Zn1 N1C C1C -28(4) . . . . ?
N1A Zn1 N1C C1C -160(4) . . . . ?
N1B Zn1 N1C C1C 90(4) . . . . ?
N1D Zn1 N1C C2C 137(2) . . . . ?
N1A Zn1 N1C C2C 4(2) . . . . ?
N1B Zn1 N1C C2C -106(2) . . . . ?
C2C N1C C1C N1C 2(6) . . . 21 ?
Zn1 N1C C1C N1C 168.5(16) . . . 21 ?
C2C N1C C1C N3C 170(3) . . . . ?
Zn1 N1C C1C N3C -23(6) . . . . ?
C2C N1C C1C C2C 0.6(18) . . . 21 ?
Zn1 N1C C1C C2C 167(3) . . . 21 ?
Zn1 N1C C1C C2C 167(4) . . . . ?
C1C N1C C2C C2C -1(3) . . . 21 ?
Zn1 N1C C2C C2C -170.4(11) . . . 21 ?
Zn1 N1C C2C C1C -169(3) . . . . ?
N1C C1C C2C N1C -178(4) 21 . . . ?
N3C C1C C2C N1C -24(7) . . . . ?
C2C C1C C2C N1C -179(3) 21 . . . ?
N1C C1C C2C C2C 0.6(18) 21 . . 21 ?
N1C C1C C2C C2C 179(3) . . . 21 ?
N3C C1C C2C C2C 155(8) . . . 21 ?
N1C C1C N3C O7C 169(3) 21 . . 21 ?
N1C C1C N3C O7C -1(6) . . . 21 ?
C2C C1C N3C O7C 150(6) 21 . . 21 ?
C2C C1C N3C O7C 18(10) . . . 21 ?
N1C C1C N3C O7C 1(6) 21 . . . ?
N1C C1C N3C O7C -169(3) . . . . ?
C2C C1C N3C O7C -18(10) 21 . . . ?
C2C C1C N3C O7C -150(6) . . . . ?
N1C Zn1 N1D C1D -56(3) . . . . ?
N1A Zn1 N1D C1D 74(3) . . . . ?
N1B Zn1 N1D C1D -174(2) . . . . ?
N1C Zn1 N1D C2D 120(2) . . . . ?
N1A Zn1 N1D C2D -109.9(19) . . . . ?
N1B Zn1 N1D C2D 3(2) . . . . ?
C2D N1D C1D N1D -4(4) . . . 16_556 ?
Zn1 N1D C1D N1D 172.9(11) . . . 16_556 ?
C2D N1D C1D N3D -180(2) . . . . ?
Zn1 N1D C1D N3D -2(4) . . . . ?
C1D N1D C2D C2D 2(2) . . . 16_556 ?
Zn1 N1D C2D C2D -175.0(11) . . . 16_556 ?
N1D C1D N3D O8D -3(4) . . . . ?
N1D C1D N3D O8D -178(2) 16_556 . . . ?
N1D C1D N3D O8D 178(2) . . . 16_556 ?
N1D C1D N3D O8D 3(4) 16_556 . . 16_556 ?

_diffrn_measured_fraction_theta_max 0.992
_diffrn_reflns_theta_full        35.35
_diffrn_measured_fraction_theta_full 0.992
_refine_diff_density_max         0.834
_refine_diff_density_min         -0.582
_refine_diff_density_rms         0.168
