####################################################################### 
# 
# This file contains crystal structure data downloaded from the 
# Cambridge Structural Database (CSD) hosted by the Cambridge 
# Crystallographic Data Centre (CCDC).
# 
# Full information about CCDC data access policies and citation 
# guidelines are available at http://www.ccdc.cam.ac.uk/access/V1 
# 
# Audit and citation data items may have been added by the CCDC. 
# Please retain this information to preserve the provenance of 
# this file and to allow appropriate attribution of the data. 
# 
#######################################################################

data_UoC-2
_audit_block_doi                 10.5517/ccrz450
_database_code_depnum_ccdc_archive 'CCDC 714152'
loop_
_citation_id
_citation_doi
_citation_year
1 10.1002/chem.200900341 2009
_audit_update_record             
;
2008-12-19 deposited with the CCDC.	2024-07-14 downloaded from the CCDC.
;

_audit_creation_method           SHELXL-97
_chemical_name_systematic        
;
?
;
_chemical_name_common            ?
_chemical_melting_point          ?
_chemical_formula_moiety         ?
_chemical_formula_sum            'C70 H30 O34 S5 Zn6'
_chemical_formula_weight         1967.63

loop_
_atom_type_symbol
_atom_type_description
_atom_type_scat_dispersion_real
_atom_type_scat_dispersion_imag
_atom_type_scat_source
C C 0.0033 0.0016 'International Tables Vol C Tables 4.2.6.8 and 6.1.1.4'
H H 0.0000 0.0000 'International Tables Vol C Tables 4.2.6.8 and 6.1.1.4'
N N 0.0061 0.0033 'International Tables Vol C Tables 4.2.6.8 and 6.1.1.4'
O O 0.0106 0.0060 'International Tables Vol C Tables 4.2.6.8 and 6.1.1.4'
S S 0.1246 0.1234 'International Tables Vol C Tables 4.2.6.8 and 6.1.1.4'
Zn Zn 0.2839 1.4301 'International Tables Vol C Tables 4.2.6.8 and 6.1.1.4'

_symmetry_cell_setting           Triclinic
_symmetry_space_group_name_H-M   'P -1'

loop_
_symmetry_equiv_pos_as_xyz
'x, y, z'
'-x, -y, -z'

_cell_length_a                   21.441(4)
_cell_length_b                   23.212(5)
_cell_length_c                   24.646(5)
_cell_angle_alpha                68.10(3)
_cell_angle_beta                 67.49(3)
_cell_angle_gamma                79.99(3)
_cell_volume                     10507(4)
_cell_formula_units_Z            2
_cell_measurement_temperature    100(2)
_cell_measurement_reflns_used    28140
_cell_measurement_theta_min      3.22
_cell_measurement_theta_max      21.37

_exptl_crystal_description       ?
_exptl_crystal_colour            ?
_exptl_crystal_size_max          0.49
_exptl_crystal_size_mid          0.33
_exptl_crystal_size_min          0.16
_exptl_crystal_density_meas      ?
_exptl_crystal_density_diffrn    0.622
_exptl_crystal_density_method    'not measured'
_exptl_crystal_F_000             1964
_exptl_absorpt_coefficient_mu    0.757
_exptl_absorpt_correction_type   integration
_exptl_absorpt_correction_T_min  0.7303
_exptl_absorpt_correction_T_max  0.9075
_exptl_absorpt_process_details   ?

_exptl_special_details           
;
?
;

_diffrn_ambient_temperature      100(2)
_diffrn_radiation_wavelength     0.71073
_diffrn_radiation_type           MoK\a
_diffrn_radiation_source         'fine-focus sealed tube'
_diffrn_radiation_monochromator  graphite
_diffrn_measurement_device_type  'STOE IPDS 2T'
_diffrn_measurement_method       'rotation method'
_diffrn_detector_area_resol_mean 6.67
_diffrn_standards_number         ?
_diffrn_standards_interval_count ?
_diffrn_standards_interval_time  ?
_diffrn_standards_decay_%        ?
_diffrn_reflns_number            69048
_diffrn_reflns_av_R_equivalents  0.1218
_diffrn_reflns_av_sigmaI/netI    0.1235
_diffrn_reflns_limit_h_min       -20
_diffrn_reflns_limit_h_max       20
_diffrn_reflns_limit_k_min       -22
_diffrn_reflns_limit_k_max       22
_diffrn_reflns_limit_l_min       -23
_diffrn_reflns_limit_l_max       23
_diffrn_reflns_theta_min         3.18
_diffrn_reflns_theta_max         20.00
_reflns_number_total             19544
_reflns_number_gt                10326
_reflns_threshold_expression     >2sigma(I)

_computing_data_collection       'STOE X-AREA'
_computing_cell_refinement       'STOE X-AREA'
_computing_data_reduction        'STOE X-RED'
_computing_structure_solution    'SHELXS-97 (Sheldrick, 1990)'
_computing_structure_refinement  'SHELXL-97 (Sheldrick, 1997)'
_computing_molecular_graphics    ?
_computing_publication_material  ?

_refine_special_details          
;
Refinement of F^2^ against ALL reflections. The weighted R-factor wR and
goodness of fit S are based on F^2^, conventional R-factors R are based
on F, with F set to zero for negative F^2^. The threshold expression of
F^2^ > 2sigma(F^2^) is used only for calculating R-factors(gt) etc. and is
not relevant to the choice of reflections for refinement. R-factors based
on F^2^ are statistically about twice as large as those based on F, and R-
factors based on ALL data will be even larger.

R-factors before treating the data with SQUEEZE subroutine of PLATON 
are bracketed in supp on journal web site.
;

_refine_ls_structure_factor_coef Fsqd
_refine_ls_matrix_type           full
_refine_ls_weighting_scheme      calc
_refine_ls_weighting_details     
'calc w=1/[\s^2^(Fo^2^)+(0.1000P)^2^+0.0000P] where P=(Fo^2^+2Fc^2^)/3'
_atom_sites_solution_primary     direct
_atom_sites_solution_secondary   difmap
_atom_sites_solution_hydrogens   geom
_refine_ls_hydrogen_treatment    mixed
_refine_ls_extinction_method     none
_refine_ls_extinction_coef       ?
_refine_ls_number_reflns         19544
_refine_ls_number_parameters     1011
_refine_ls_number_restraints     0
_refine_ls_R_factor_all          0.0959
_refine_ls_R_factor_gt           0.0492
_refine_ls_wR_factor_ref         0.1371
_refine_ls_wR_factor_gt          0.1213
_refine_ls_goodness_of_fit_ref   0.664
_refine_ls_restrained_S_all      0.664
_refine_ls_shift/su_max          0.011
_refine_ls_shift/su_mean         0.001

loop_
_atom_site_label
_atom_site_type_symbol
_atom_site_fract_x
_atom_site_fract_y
_atom_site_fract_z
_atom_site_U_iso_or_equiv
_atom_site_adp_type
_atom_site_occupancy
_atom_site_symmetry_multiplicity
_atom_site_calc_flag
_atom_site_refinement_flags
_atom_site_disorder_assembly
_atom_site_disorder_group
Zn1 Zn 0.74203(3) 0.18920(3) 0.22661(3) 0.0757(3) Uani 1 1 d . . .
Zn2 Zn 0.90677(3) 0.19987(3) 0.19229(3) 0.0754(3) Uani 1 1 d . . .
Zn3 Zn 0.75922(3) 0.30872(3) 0.09234(3) 0.0747(3) Uani 1 1 d . . .
Zn4 Zn 0.83055(4) 0.08328(3) 0.27453(3) 0.0762(3) Uani 1 1 d . . .
Zn5 Zn 0.80258(3) 0.20440(3) 0.32222(3) 0.0763(3) Uani 1 1 d . . .
Zn6 Zn 0.68102(3) 0.32578(3) 0.23632(3) 0.0790(3) Uani 1 1 d . . .
S1 S 0.40607(10) 0.14123(10) 0.50939(12) 0.1107(9) Uani 1 1 d . . .
O1 O 0.60922(19) 0.2821(2) 0.31679(18) 0.0811(15) Uani 1 1 d . . .
O2 O 0.7027(2) 0.22333(19) 0.31920(18) 0.0770(14) Uani 1 1 d . . .
C1 C 0.6396(4) 0.2341(3) 0.3425(3) 0.085(2) Uani 1 1 d . . .
C2 C 0.6000(3) 0.1864(3) 0.4017(3) 0.068(2) Uani 1 1 d . . .
C3 C 0.6322(3) 0.1341(3) 0.4312(3) 0.074(2) Uani 1 1 d . . .
H3 H 0.6791 0.1307 0.4170 0.089 Uiso 1 1 calc R . .
C4 C 0.5319(3) 0.1928(3) 0.4228(3) 0.087(2) Uani 1 1 d . . .
H4 H 0.5100 0.2285 0.4040 0.104 Uiso 1 1 calc R . .
C5 C 0.5955(3) 0.0875(3) 0.4811(3) 0.078(2) Uani 1 1 d . . .
H5 H 0.6180 0.0525 0.5000 0.093 Uiso 1 1 calc R . .
C6 C 0.4951(3) 0.1443(3) 0.4739(3) 0.080(2) Uani 1 1 d . . .
C7 C 0.5262(3) 0.0912(3) 0.5040(3) 0.070(2) Uani 1 1 d . . .
C8 C 0.4787(3) 0.0460(3) 0.5544(3) 0.0679(19) Uani 1 1 d . . .
C9 C 0.4917(3) -0.0128(3) 0.5908(3) 0.072(2) Uani 1 1 d . . .
H9 H 0.5360 -0.0276 0.5860 0.087 Uiso 1 1 calc R . .
C10 C 0.4117(3) 0.0664(3) 0.5616(3) 0.076(2) Uani 1 1 d . . .
C11 C 0.4392(3) -0.0490(3) 0.6341(3) 0.080(2) Uani 1 1 d . . .
H11 H 0.4484 -0.0885 0.6590 0.096 Uiso 1 1 calc R . .
C12 C 0.3583(3) 0.0315(3) 0.6060(3) 0.084(2) Uani 1 1 d . . .
H12 H 0.3142 0.0474 0.6120 0.101 Uiso 1 1 calc R . .
C13 C 0.3718(3) -0.0287(3) 0.6422(3) 0.072(2) Uani 1 1 d . . .
C14 C 0.6865(4) 0.0701(4) 0.3105(3) 0.078(2) Uani 1 1 d . . .
O3 O 0.7450(2) 0.04483(19) 0.30214(18) 0.0801(14) Uani 1 1 d . . .
O4 O 0.67204(19) 0.1258(2) 0.28566(18) 0.0771(14) Uani 1 1 d . . .
O5 O 0.3762(2) 0.1400(3) 0.4676(3) 0.155(3) Uani 1 1 d . . .
O6 O 0.3785(3) 0.1854(3) 0.5429(3) 0.161(3) Uani 1 1 d . . .
S2 S 0.97677(10) -0.10699(10) 0.50705(9) 0.0898(7) Uani 1 1 d . . .
O7 O 0.7870(2) 0.1106(2) 0.39218(19) 0.0911(17) Uani 1 1 d . . .
O8 O 0.8607(2) 0.0455(2) 0.3468(2) 0.0876(17) Uani 1 1 d . . .
C15 C 0.8293(4) 0.0660(4) 0.3921(4) 0.076(2) Uani 1 1 d . . .
C16 C 0.8503(3) 0.0311(3) 0.4486(4) 0.080(2) Uani 1 1 d . . .
C17 C 0.8990(3) -0.0163(3) 0.4466(3) 0.078(2) Uani 1 1 d . . .
H17 H 0.9184 -0.0287 0.4117 0.094 Uiso 1 1 calc R . .
C18 C 0.8222(4) 0.0489(4) 0.5001(5) 0.111(3) Uani 1 1 d . . .
H18 H 0.7894 0.0810 0.5001 0.133 Uiso 1 1 calc R . .
C19 C 0.8407(3) 0.0210(4) 0.5523(3) 0.101(3) Uani 1 1 d . . .
H19 H 0.8213 0.0342 0.5867 0.121 Uiso 1 1 calc R . .
C20 C 0.9174(3) -0.0439(3) 0.4974(4) 0.083(2) Uani 1 1 d . . .
C21 C 0.8897(3) -0.0278(3) 0.5518(4) 0.094(3) Uani 1 1 d . . .
C22 C 0.9223(4) -0.0627(4) 0.5984(4) 0.091(3) Uani 1 1 d . . .
C23 C 0.9094(4) -0.0569(4) 0.6544(4) 0.105(3) Uani 1 1 d . . .
H23 H 0.8754 -0.0298 0.6689 0.126 Uiso 1 1 calc R . .
C24 C 0.9732(4) -0.1040(3) 0.5785(3) 0.078(2) Uani 1 1 d . . .
C25 C 1.0016(3) -0.1332(3) 0.6667(5) 0.088(3) Uani 1 1 d . . .
C26 C 0.9529(3) 0.1657(3) 0.2926(5) 0.088(3) Uani 1 1 d . . .
C69 C 1.0146(3) -0.1382(3) 0.6112(4) 0.077(2) Uani 1 1 d . . .
H69 H 1.0500 -0.1636 0.5953 0.092 Uiso 1 1 calc R . .
C70 C 0.9499(4) -0.0941(4) 0.6906(3) 0.107(3) Uani 1 1 d . . .
H70 H 0.9419 -0.0921 0.7297 0.128 Uiso 1 1 calc R . .
O9 O 0.9013(2) 0.18987(19) 0.3229(2) 0.0801(14) Uani 1 1 d . . .
O10 O 0.9709(2) 0.1678(2) 0.2372(2) 0.0906(17) Uani 1 1 d . . .
O11 O 1.0416(2) -0.0884(2) 0.4599(2) 0.1113(19) Uani 1 1 d . . .
O12 O 0.9499(3) -0.1634(2) 0.5163(2) 0.1038(17) Uani 1 1 d . . .
S3 S 0.45699(9) 0.54892(10) 0.08723(9) 0.0812(6) Uani 1 1 d . . .
O13 O 0.7325(2) 0.39835(18) 0.10695(19) 0.0778(14) Uani 1 1 d . . .
O14 O 0.63672(19) 0.39715(18) 0.1873(2) 0.0772(14) Uani 1 1 d . . .
C27 C 0.6744(4) 0.4172(3) 0.1291(3) 0.081(2) Uani 1 1 d . . .
C28 C 0.6400(3) 0.4655(3) 0.0876(3) 0.077(2) Uani 1 1 d . . .
C29 C 0.5706(3) 0.4801(3) 0.1101(3) 0.078(2) Uani 1 1 d . . .
H29 H 0.5444 0.4612 0.1516 0.094 Uiso 1 1 calc R . .
C30 C 0.6769(3) 0.4933(3) 0.0257(3) 0.092(3) Uani 1 1 d . . .
H30 H 0.7228 0.4831 0.0110 0.111 Uiso 1 1 calc R . .
C31 C 0.5424(3) 0.5234(3) 0.0688(3) 0.070(2) Uani 1 1 d . . .
C32 C 0.6478(3) 0.5359(3) -0.0151(3) 0.104(3) Uani 1 1 d . . .
H32 H 0.6737 0.5540 -0.0569 0.125 Uiso 1 1 calc R . .
C33 C 0.5796(4) 0.5517(3) 0.0065(3) 0.077(2) Uani 1 1 d . . .
C34 C 0.4633(3) 0.4059(3) 0.0274(3) 0.086(2) Uani 1 1 d . . .
C35 C 0.4446(3) 0.3697(3) 0.0905(3) 0.099(3) Uani 1 1 d . . .
H35 H 0.3996 0.3686 0.1164 0.118 Uiso 1 1 calc R . .
C36 C 0.4705(3) 0.5951(3) 0.0078(3) 0.076(2) Uani 1 1 d . . .
C37 C 0.4937(4) 0.3354(3) 0.1140(3) 0.094(3) Uani 1 1 d . . .
H37 H 0.4806 0.3098 0.1556 0.113 Uiso 1 1 calc R . .
C38 C 0.4201(3) 0.6280(3) -0.0166(3) 0.079(2) Uani 1 1 d . . .
H38 H 0.3749 0.6265 0.0089 0.095 Uiso 1 1 calc R . .
C39 C 0.5605(3) 0.3377(3) 0.0786(3) 0.072(2) Uani 1 1 d . . .
C40 C 0.6110(4) 0.3065(3) 0.1076(4) 0.083(2) Uani 1 1 d . . .
O15 O 0.6730(2) 0.31684(19) 0.07222(19) 0.0780(14) Uani 1 1 d . . .
O16 O 0.59470(19) 0.27154(19) 0.1633(2) 0.0885(16) Uani 1 1 d . . .
O17 O 0.4122(2) 0.4993(2) 0.1094(2) 0.0942(16) Uani 1 1 d . . .
O18 O 0.4402(2) 0.5872(3) 0.1242(2) 0.1043(18) Uani 1 1 d . . .
S4 S 1.12319(8) 0.42789(8) -0.07417(9) 0.0758(6) Uani 1 1 d . . .
O19 O 0.7514(2) 0.36240(18) 0.24205(17) 0.0726(13) Uani 1 1 d . . .
O20 O 0.83488(19) 0.2919(2) 0.25653(18) 0.0849(15) Uani 1 1 d . . .
C41 C 0.8126(4) 0.3457(3) 0.2336(3) 0.087(2) Uani 1 1 d . . .
C42 C 1.1367(3) 0.6074(3) -0.1929(3) 0.080(2) Uani 1 1 d . . .
C43 C 1.1580(3) 0.5484(3) -0.1620(3) 0.080(2) Uani 1 1 d . . .
H43 H 1.2037 0.5382 -0.1690 0.096 Uiso 1 1 calc R . .
C44 C 1.0663(3) 0.6203(3) -0.1818(3) 0.076(2) Uani 1 1 d . . .
H44 H 1.0519 0.6591 -0.2036 0.092 Uiso 1 1 calc R . .
C45 C 1.0185(3) 0.5764(3) -0.1391(3) 0.072(2) Uani 1 1 d . . .
H45 H 0.9727 0.5859 -0.1321 0.086 Uiso 1 1 calc R . .
C46 C 1.1086(3) 0.5043(3) -0.1200(3) 0.0667(19) Uani 1 1 d . . .
C47 C 1.0396(3) 0.5191(3) -0.1077(3) 0.071(2) Uani 1 1 d . . .
C48 C 0.9971(3) 0.4704(3) -0.0546(3) 0.075(2) Uani 1 1 d . . .
C49 C 0.9272(3) 0.4688(3) -0.0259(3) 0.073(2) Uani 1 1 d . . .
H49 H 0.9002 0.5026 -0.0401 0.087 Uiso 1 1 calc R . .
C50 C 1.0360(3) 0.4172(3) -0.0315(3) 0.0673(19) Uani 1 1 d . . .
C51 C 0.8982(3) 0.4178(3) 0.0230(3) 0.067(2) Uani 1 1 d . . .
H51 H 0.8514 0.4174 0.0420 0.080 Uiso 1 1 calc R . .
C52 C 1.0078(3) 0.3670(3) 0.0166(3) 0.069(2) Uani 1 1 d . . .
H52 H 1.0346 0.3331 0.0309 0.083 Uiso 1 1 calc R . .
C53 C 0.9373(3) 0.3662(3) 0.0452(3) 0.0668(19) Uani 1 1 d . . .
C54 C 0.9032(4) 0.3118(3) 0.1002(3) 0.073(2) Uani 1 1 d . . .
O21 O 0.94517(19) 0.27350(18) 0.12458(17) 0.0739(13) Uani 1 1 d . . .
O22 O 0.8424(2) 0.30298(19) 0.11902(18) 0.0786(14) Uani 1 1 d . . .
O23 O 1.15869(19) 0.42645(18) -0.0345(2) 0.0807(14) Uani 1 1 d . . .
O24 O 1.1501(2) 0.3886(2) -0.1123(2) 0.0822(14) Uani 1 1 d . . .
S5 S 0.95201(11) 0.11750(9) -0.10019(9) 0.0907(7) Uani 1 1 d . . .
O25 O 0.8985(2) 0.04968(19) 0.2119(2) 0.0742(13) Uani 1 1 d . . .
O26 O 0.9362(2) 0.1427(2) 0.14298(19) 0.0835(15) Uani 1 1 d . . .
C55 C 0.9357(3) 0.0836(4) 0.1588(3) 0.073(2) Uani 1 1 d . . .
C56 C 0.9789(3) 0.0528(3) 0.1156(3) 0.070(2) Uani 1 1 d . . .
C57 C 1.0161(3) 0.0874(3) 0.0524(3) 0.083(2) Uani 1 1 d . . .
H57 H 1.0120 0.1305 0.0398 0.100 Uiso 1 1 calc R . .
C58 C 0.9872(3) -0.0109(3) 0.1327(3) 0.0737(19) Uiso 1 1 d . . .
H58 H 0.9644 -0.0358 0.1733 0.088 Uiso 1 1 calc R . .
C59 C 0.9448(3) -0.0622(3) -0.0115(4) 0.080(2) Uiso 1 1 d . . .
H59 H 0.9229 -0.0872 0.0293 0.096 Uiso 1 1 calc R . .
C60 C 0.9710(3) 0.0373(3) -0.0900(3) 0.0699(19) Uani 1 1 d . . .
C61 C 0.9354(3) 0.0020(3) -0.0283(3) 0.073(2) Uani 1 1 d . . .
C62 C 0.8951(3) 0.0382(3) 0.0115(3) 0.077(2) Uani 1 1 d . . .
C63 C 0.8540(3) 0.0202(3) 0.0744(3) 0.077(2) Uani 1 1 d . . .
H63 H 0.8470 -0.0217 0.0973 0.092 Uiso 1 1 calc R . .
C64 C 0.8985(3) 0.1045(3) -0.0218(3) 0.0712(18) Uiso 1 1 d . . .
C65 C 0.8677(3) 0.1458(3) 0.0064(3) 0.0678(18) Uiso 1 1 d . . .
H65 H 0.8717 0.1881 -0.0162 0.081 Uiso 1 1 calc R . .
C66 C 0.8245(3) 0.0631(3) 0.1022(3) 0.0736(19) Uiso 1 1 d . . .
H66 H 0.7999 0.0500 0.1448 0.088 Uiso 1 1 calc R . .
C67 C 0.8298(3) 0.1263(3) 0.0691(3) 0.071(2) Uani 1 1 d . . .
C68 C 0.7971(3) 0.1684(4) 0.1041(4) 0.086(2) Uani 1 1 d . . .
O27 O 0.7721(2) 0.1480(2) 0.1634(2) 0.0843(15) Uani 1 1 d . . .
O28 O 0.7970(2) 0.2274(2) 0.0719(2) 0.0821(14) Uani 1 1 d . . .
O29 O 1.0109(3) 0.1484(2) -0.1125(2) 0.0972(16) Uani 1 1 d . . .
O30 O 0.9143(2) 0.1438(2) -0.1419(2) 0.1072(18) Uani 1 1 d . . .
O31 O 0.81952(18) 0.17319(16) 0.25085(16) 0.0645(12) Uani 1 1 d . . .
O32 O 0.70355(17) 0.26915(17) 0.18865(16) 0.0647(12) Uani 1 1 d . . .
O33 O 0.8068(2) 0.35358(19) -0.00305(17) 0.0793(13) Uani 1 1 d . . .
O34 O 0.7720(2) 0.2343(2) 0.3967(2) 0.0981(16) Uani 1 1 d . . .

loop_
_atom_site_aniso_label
_atom_site_aniso_U_11
_atom_site_aniso_U_22
_atom_site_aniso_U_33
_atom_site_aniso_U_23
_atom_site_aniso_U_13
_atom_site_aniso_U_12
Zn1 0.0575(5) 0.0618(5) 0.0677(5) 0.0232(4) -0.0209(4) -0.0080(4)
Zn2 0.0569(5) 0.0657(5) 0.0642(5) 0.0192(4) -0.0170(4) -0.0081(4)
Zn3 0.0553(4) 0.0627(5) 0.0659(5) 0.0208(4) -0.0187(4) -0.0054(4)
Zn4 0.0590(5) 0.0639(5) 0.0647(5) 0.0184(4) -0.0163(4) -0.0047(4)
Zn5 0.0554(5) 0.0661(5) 0.0668(5) 0.0205(4) -0.0192(4) -0.0043(4)
Zn6 0.0559(5) 0.0672(5) 0.0701(5) 0.0261(4) -0.0196(4) -0.0115(4)
S1 0.0579(12) 0.0752(15) 0.1118(17) 0.0421(14) -0.0083(13) -0.0051(11)
O1 0.057(3) 0.070(3) 0.070(3) 0.023(2) -0.019(2) -0.001(2)
O2 0.047(3) 0.078(3) 0.069(3) 0.014(2) -0.014(2) -0.016(2)
C1 0.062(5) 0.069(5) 0.081(5) 0.029(4) -0.021(4) -0.027(4)
C2 0.031(4) 0.077(5) 0.059(4) -0.004(4) 0.005(3) -0.004(3)
C3 0.053(4) 0.059(4) 0.063(4) 0.026(4) -0.017(3) 0.002(4)
C4 0.076(5) 0.057(5) 0.080(5) 0.024(4) -0.019(4) -0.016(4)
C5 0.068(5) 0.058(4) 0.075(5) 0.015(4) -0.027(4) -0.005(4)
C6 0.038(4) 0.072(5) 0.077(5) 0.010(4) 0.003(3) -0.007(3)
C7 0.067(5) 0.041(4) 0.064(4) 0.015(3) -0.017(4) 0.001(4)
C8 0.049(4) 0.056(5) 0.068(4) 0.007(4) -0.016(3) 0.003(3)
C9 0.051(4) 0.059(5) 0.065(4) 0.016(4) -0.008(4) -0.008(4)
C10 0.072(5) 0.039(4) 0.069(4) 0.037(3) -0.020(4) -0.015(4)
C11 0.076(5) 0.056(4) 0.076(5) 0.020(4) -0.035(4) 0.000(4)
C12 0.076(5) 0.060(5) 0.062(4) 0.020(4) -0.008(4) 0.004(4)
C13 0.067(5) 0.061(5) 0.057(4) 0.019(4) -0.018(4) -0.018(4)
C14 0.068(5) 0.071(6) 0.061(4) 0.010(4) -0.016(4) -0.008(4)
O3 0.058(3) 0.067(3) 0.069(3) 0.019(2) -0.010(2) -0.010(2)
O4 0.068(3) 0.059(3) 0.070(3) 0.015(2) -0.021(2) -0.008(2)
O5 0.065(3) 0.153(6) 0.148(5) 0.085(4) -0.051(4) -0.038(3)
O6 0.090(4) 0.073(4) 0.167(6) 0.028(4) 0.045(4) 0.008(3)
S2 0.0794(14) 0.0786(15) 0.0820(14) 0.0094(11) -0.0380(12) 0.0097(11)
O7 0.058(3) 0.079(3) 0.072(3) 0.030(2) -0.014(2) 0.012(3)
O8 0.061(3) 0.082(3) 0.067(3) 0.025(3) -0.021(3) 0.011(2)
C15 0.054(5) 0.078(6) 0.067(5) 0.005(5) -0.011(4) -0.020(4)
C16 0.055(4) 0.094(6) 0.059(5) 0.007(4) -0.023(4) 0.007(4)
C17 0.052(4) 0.073(5) 0.075(5) 0.013(4) -0.023(4) 0.001(4)
C18 0.072(5) 0.111(7) 0.104(7) 0.015(6) -0.038(6) 0.012(5)
C19 0.074(5) 0.110(6) 0.086(6) -0.006(5) -0.031(4) 0.027(5)
C20 0.050(4) 0.066(5) 0.086(6) 0.015(4) -0.025(4) 0.022(3)
C21 0.051(4) 0.083(6) 0.087(6) 0.014(5) -0.006(4) 0.008(4)
C22 0.077(5) 0.094(6) 0.052(5) 0.008(4) -0.012(4) 0.020(5)
C23 0.088(5) 0.120(7) 0.067(5) -0.013(5) -0.021(5) 0.039(5)
C24 0.07