####################################################################### 
# 
# This file contains crystal structure data downloaded from the 
# Cambridge Structural Database (CSD) hosted by the Cambridge 
# Crystallographic Data Centre (CCDC).
# 
# Full information about CCDC data access policies and citation 
# guidelines are available at http://www.ccdc.cam.ac.uk/access/V1 
# 
# Audit and citation data items may have been added by the CCDC. 
# Please retain this information to preserve the provenance of 
# this file and to allow appropriate attribution of the data. 
# 
#######################################################################

data_UoC-1
_audit_block_doi                 10.5517/ccrz44z
_database_code_depnum_ccdc_archive 'CCDC 714151'
loop_
_citation_id
_citation_doi
_citation_year
1 10.1002/chem.200900341 2009
_audit_update_record             
;
2008-12-19 deposited with the CCDC.	2024-07-14 downloaded from the CCDC.
;

_audit_creation_method           SHELXL-97
_chemical_name_systematic        
;
?
;
_chemical_name_common            ?
_chemical_melting_point          ?
_chemical_formula_moiety         ?
_chemical_formula_sum            'C93 H57 N3 O43 S6 Zn7'
_chemical_formula_weight         2554.57

loop_
_atom_type_symbol
_atom_type_description
_atom_type_scat_dispersion_real
_atom_type_scat_dispersion_imag
_atom_type_scat_source
C C 0.0033 0.0016 'International Tables Vol C Tables 4.2.6.8 and 6.1.1.4'
N N 0.0061 0.0033 'International Tables Vol C Tables 4.2.6.8 and 6.1.1.4'
O O 0.0106 0.0060 'International Tables Vol C Tables 4.2.6.8 and 6.1.1.4'
S S 0.1246 0.1234 'International Tables Vol C Tables 4.2.6.8 and 6.1.1.4'
Zn Zn 0.2839 1.4301 'International Tables Vol C Tables 4.2.6.8 and 6.1.1.4'
H H 0.0000 0.0000 'International Tables Vol C Tables 4.2.6.8 and 6.1.1.4'

_symmetry_cell_setting           Trigonal
_symmetry_space_group_name_H-M   'R -3'

loop_
_symmetry_equiv_pos_as_xyz
'x, y, z'
'-y, x-y, z'
'-x+y, -x, z'
'x+2/3, y+1/3, z+1/3'
'-y+2/3, x-y+1/3, z+1/3'
'-x+y+2/3, -x+1/3, z+1/3'
'x+1/3, y+2/3, z+2/3'
'-y+1/3, x-y+2/3, z+2/3'
'-x+y+1/3, -x+2/3, z+2/3'
'-x, -y, -z'
'y, -x+y, -z'
'x-y, x, -z'
'-x+2/3, -y+1/3, -z+1/3'
'y+2/3, -x+y+1/3, -z+1/3'
'x-y+2/3, x+1/3, -z+1/3'
'-x+1/3, -y+2/3, -z+2/3'
'y+1/3, -x+y+2/3, -z+2/3'
'x-y+1/3, x+2/3, -z+2/3'

_cell_length_a                   23.078(3)
_cell_length_b                   23.078(3)
_cell_length_c                   71.754(14)
_cell_angle_alpha                90.00
_cell_angle_beta                 90.00
_cell_angle_gamma                120.00
_cell_volume                     33097(9)
_cell_formula_units_Z            6
_cell_measurement_temperature    100(2)
_cell_measurement_reflns_used    82989
_cell_measurement_theta_min      3.28
_cell_measurement_theta_max      26.67

_exptl_crystal_description       ?
_exptl_crystal_colour            ?
_exptl_crystal_size_max          0.50
_exptl_crystal_size_mid          0.16
_exptl_crystal_size_min          0.17
_exptl_crystal_density_meas      ?
_exptl_crystal_density_diffrn    0.769
_exptl_crystal_density_method    'not measured'
_exptl_crystal_F_000             7716
_exptl_absorpt_coefficient_mu    0.848
_exptl_absorpt_correction_type   integration
_exptl_absorpt_correction_T_min  0.7372
_exptl_absorpt_correction_T_max  0.9005
_exptl_absorpt_process_details   ?

_exptl_special_details           
;
?
;

_diffrn_ambient_temperature      100(2)
_diffrn_radiation_wavelength     0.71073
_diffrn_radiation_type           MoK\a
_diffrn_radiation_source         'fine-focus sealed tube'
_diffrn_radiation_monochromator  graphite
_diffrn_measurement_device_type  'STOE IPDS 2T'
_diffrn_measurement_method       'rotation method'
_diffrn_detector_area_resol_mean ?
_diffrn_standards_number         ?
_diffrn_standards_interval_count ?
_diffrn_standards_interval_time  ?
_diffrn_standards_decay_%        ?
_diffrn_reflns_number            63157
_diffrn_reflns_av_R_equivalents  0.0992
_diffrn_reflns_av_sigmaI/netI    0.0516
_diffrn_reflns_limit_h_min       -22
_diffrn_reflns_limit_h_max       22
_diffrn_reflns_limit_k_min       -22
_diffrn_reflns_limit_k_max       22
_diffrn_reflns_limit_l_min       -69
_diffrn_reflns_limit_l_max       69
_diffrn_reflns_theta_min         3.29
_diffrn_reflns_theta_max         20.00
_reflns_number_total             6848
_reflns_number_gt                5250
_reflns_threshold_expression     >2sigma(I)

_computing_data_collection       'STOE X-AREA'
_computing_cell_refinement       'STOE X-AREA'
_computing_data_reduction        'STOE X-RED'
_computing_structure_solution    'SHELXS-97 (Sheldrick, 1990)'
_computing_structure_refinement  'SHELXL-97 (Sheldrick, 1997)'
_computing_molecular_graphics    ?
_computing_publication_material  ?

_refine_special_details          
;
Refinement of F^2^ against ALL reflections. The weighted R-factor wR and
goodness of fit S are based on F^2^, conventional R-factors R are based
on F, with F set to zero for negative F^2^. The threshold expression of
F^2^ > 2sigma(F^2^) is used only for calculating R-factors(gt) etc. and is
not relevant to the choice of reflections for refinement. R-factors based
on F^2^ are statistically about twice as large as those based on F, and R-
factors based on ALL data will be even larger.

R-factors for the data pre-treatment with SQUEEZE subroutine of PLATON 
are bracketed in supp. on journal web site.
;

_refine_ls_structure_factor_coef Fsqd
_refine_ls_matrix_type           full
_refine_ls_weighting_scheme      calc
_refine_ls_weighting_details     
'calc w=1/[\s^2^(Fo^2^)+(0.1000P)^2^+0.0000P] where P=(Fo^2^+2Fc^2^)/3'
_atom_sites_solution_primary     direct
_atom_sites_solution_secondary   difmap
_atom_sites_solution_hydrogens   geom
_refine_ls_hydrogen_treatment    mixed
_refine_ls_extinction_method     none
_refine_ls_extinction_coef       ?
_refine_ls_number_reflns         6848
_refine_ls_number_parameters     457
_refine_ls_number_restraints     0
_refine_ls_R_factor_all          0.1046
_refine_ls_R_factor_gt           0.0781
_refine_ls_wR_factor_ref         0.2123
_refine_ls_wR_factor_gt          0.2022
_refine_ls_goodness_of_fit_ref   1.400
_refine_ls_restrained_S_all      1.400
_refine_ls_shift/su_max          0.474
_refine_ls_shift/su_mean         0.003

loop_
_atom_site_label
_atom_site_type_symbol
_atom_site_fract_x
_atom_site_fract_y
_atom_site_fract_z
_atom_site_U_iso_or_equiv
_atom_site_adp_type
_atom_site_occupancy
_atom_site_symmetry_multiplicity
_atom_site_calc_flag
_atom_site_refinement_flags
_atom_site_disorder_assembly
_atom_site_disorder_group
Zn1 Zn 0.6667 0.3333 0.06818(2) 0.0487(5) Uani 1 3 d S . .
Zn2 Zn 0.82730(5) 0.40197(5) 0.092701(13) 0.0613(4) Uani 1 1 d . . .
Zn3 Zn 0.77327(5) 0.27379(6) 0.070708(14) 0.0685(4) Uani 1 1 d . . .
C1 C 0.7991(5) 0.4639(5) 0.12043(13) 0.060(2) Uani 1 1 d . . .
C2 C 0.8157(5) 0.5105(4) 0.13641(12) 0.057(2) Uani 1 1 d . . .
C3 C 0.8813(5) 0.5547(5) 0.14185(14) 0.073(3) Uani 1 1 d . . .
H3 H 0.9173 0.5594 0.1349 0.088 Uiso 1 1 calc R . .
C4 C 0.9242(5) 0.0968(5) 0.18626(12) 0.061(2) Uani 1 1 d . . .
H4 H 0.9099 0.0530 0.1899 0.073 Uiso 1 1 calc R . .
C5 C 0.9662(4) 0.2246(4) 0.17522(13) 0.063(2) Uani 1 1 d . . .
C6 C 0.8974(5) 0.1082(4) 0.17048(13) 0.063(2) Uani 1 1 d . . .
H6 H 0.8639 0.0723 0.1639 0.075 Uiso 1 1 calc R . .
C7 C 0.9198(4) 0.1715(5) 0.16452(12) 0.062(2) Uani 1 1 d . . .
C8 C 0.8992(5) 0.1959(5) 0.14843(14) 0.071(3) Uani 1 1 d . . .
C9 C 0.9292(4) 0.2648(5) 0.14707(14) 0.069(3) Uani 1 1 d . . .
C10 C 0.8528(5) 0.1567(4) 0.13466(13) 0.067(3) Uani 1 1 d . . .
H10 H 0.8312 0.1102 0.1353 0.080 Uiso 1 1 calc R . .
C11 C 0.8397(5) 0.1879(5) 0.12027(14) 0.071(3) Uani 1 1 d . . .
H11 H 0.8119 0.1622 0.1106 0.085 Uiso 1 1 calc R . .
C12 C 0.9122(4) 0.2952(5) 0.13305(15) 0.071(3) Uani 1 1 d . . .
H12 H 0.9316 0.3415 0.1327 0.085 Uiso 1 1 calc R . .
C13 C 0.8669(4) 0.2566(5) 0.11994(13) 0.061(2) Uani 1 1 d . . .
C14 C 0.8453(4) 0.2882(6) 0.10561(14) 0.062(2) Uani 1 1 d . . .
O1 O 0.8625(3) 0.3488(3) 0.10702(8) 0.0670(16) Uani 1 1 d . . .
O2 O 0.8083(3) 0.2491(3) 0.09265(9) 0.0661(16) Uani 1 1 d . . .
O3 O 0.8482(3) 0.4701(3) 0.11073(10) 0.088(2) Uani 1 1 d . . .
O4 O 0.7400(3) 0.4210(3) 0.11708(7) 0.0599(15) Uani 1 1 d . . .
S1 S 0.98253(15) 0.30179(14) 0.16628(5) 0.0881(9) Uani 1 1 d . . .
O5 O 1.0503(3) 0.3394(4) 0.16033(13) 0.118(3) Uani 1 1 d . . .
O6 O 0.9573(4) 0.3333(4) 0.17865(11) 0.105(3) Uani 1 1 d . . .
C15 C 0.8974(4) 0.4010(5) 0.06022(12) 0.056(2) Uani 1 1 d . . .
C16 C 0.9530(4) 0.4333(5) 0.04600(12) 0.059(2) Uani 1 1 d . . .
C17 C 0.9880(5) 0.5026(5) 0.04469(12) 0.069(3) Uani 1 1 d . . .
H17 H 0.9784 0.5274 0.0530 0.083 Uiso 1 1 calc R . .
C18 C 0.9667(4) 0.3953(5) 0.03415(13) 0.066(3) Uani 1 1 d . . .
H18 H 0.9435 0.3489 0.0350 0.080 Uiso 1 1 calc R . .
C19 C 1.0374(5) 0.5360(5) 0.03118(14) 0.079(3) Uani 1 1 d . . .
H19 H 1.0604 0.5824 0.0302 0.095 Uiso 1 1 calc R . .
C20 C 1.0152(5) 0.4270(5) 0.02105(13) 0.066(3) Uani 1 1 d . . .
C21 C 0.4964(5) 0.4457(5) -0.01918(13) 0.070(3) Uani 1 1 d . . .
C22 C 0.5203(6) 0.4213(5) -0.00342(13) 0.071(3) Uani 1 1 d . . .
C23 C 1.0984(5) 0.4676(6) -0.00617(16) 0.087(3) Uani 1 1 d . . .
C24 C 0.5844(5) 0.4433(5) 0.00301(14) 0.080(3) Uani 1 1 d . . .
H24 H 0.6206 0.4786 -0.0030 0.096 Uiso 1 1 calc R . .
C25 C 0.4763(6) 0.3371(5) 0.02126(14) 0.091(3) Uani 1 1 d . . .
H25 H 0.4402 0.3016 0.0272 0.109 Uiso 1 1 calc R . .
C26 C 0.5948(6) 0.4137(6) 0.01808(15) 0.077(3) Uani 1 1 d . . .
H26 H 0.6382 0.4293 0.0223 0.093 Uiso 1 1 calc R . .
C27 C 0.5419(7) 0.3609(6) 0.02709(15) 0.087(3) Uani 1 1 d . . .
C28 C 0.5543(7) 0.3291(6) 0.04396(16) 0.093(4) Uani 1 1 d . . .
O7 O 0.6109(4) 0.3580(3) 0.05069(9) 0.0813(19) Uani 1 1 d . . .
O8 O 0.7252(5) 0.2305(6) 0.04933(15) 0.183(6) Uani 1 1 d . . .
O9 O 0.8918(3) 0.4377(3) 0.07205(8) 0.0613(15) Uani 1 1 d . . .
O10 O 0.8610(3) 0.3390(3) 0.05881(8) 0.0628(16) Uani 1 1 d . . .
S2 S 1.0403(2) 0.38914(17) 0.00400(5) 0.1022(11) Uani 1 1 d . . .
O11 O 0.9865(5) 0.3513(4) -0.00880(12) 0.123(3) Uani 1 1 d . . .
O12 O 1.0720(5) 0.3566(4) 0.01230(13) 0.138(4) Uani 1 1 d . . .
C29 C 0.7676(9) -0.1007(9) 0.1672(4) 0.207(11) Uani 1 1 d . . .
H29A H 0.7256 -0.1238 0.1608 0.310 Uiso 1 1 calc R . .
H29B H 0.7775 -0.0562 0.1702 0.310 Uiso 1 1 calc R . .
H29C H 0.7652 -0.1243 0.1784 0.310 Uiso 1 1 calc R . .
C30 C 0.7977(13) -0.1333(10) 0.1377(3) 0.292(16) Uani 1 1 d . . .
H30A H 0.7504 -0.1513 0.1363 0.439 Uiso 1 1 calc R . .
H30B H 0.8076 -0.1691 0.1376 0.439 Uiso 1 1 calc R . .
H30C H 0.8209 -0.1030 0.1277 0.439 Uiso 1 1 calc R . .
C31 C 0.8839(8) -0.0677(7) 0.1608(2) 0.116(4) Uani 1 1 d . . .
H31 H 0.9148 -0.0681 0.1525 0.139 Uiso 1 1 calc R . .
O13 O 0.9045(4) -0.0397(4) 0.17596(12) 0.101(2) Uani 1 1 d . . .
N1 N 0.8196(9) -0.0976(6) 0.1554(2) 0.154(5) Uani 1 1 d . . .
O14 O 0.7404(2) 0.3284(2) 0.08436(6) 0.0488(14) Uani 1 1 d . . .
O15 O 1.0000 0.0000 0.19509(8) 0.0102(14) Uani 1 3 d S . .

loop_
_atom_site_aniso_label
_atom_site_aniso_U_11
_atom_site_aniso_U_22
_atom_site_aniso_U_33
_atom_site_aniso_U_23
_atom_site_aniso_U_13
_atom_site_aniso_U_12
Zn1 0.0568(7) 0.0568(7) 0.0324(9) 0.000 0.000 0.0284(3)
Zn2 0.0549(7) 0.0794(8) 0.0442(6) -0.0045(5) 0.0040(5) 0.0296(6)
Zn3 0.0601(7) 0.0945(9) 0.0437(7) 0.0067(6) 0.0019(5) 0.0332(6)
C1 0.058(7) 0.058(6) 0.060(6) 0.000(5) 0.005(6) 0.026(6)
C2 0.066(7) 0.053(6) 0.056(6) -0.003(5) 0.003(5) 0.032(5)
C3 0.079(8) 0.062(6) 0.084(8) -0.010(6) 0.008(6) 0.039(6)
C4 0.076(6) 0.069(6) 0.055(6) 0.011(5) -0.008(5) 0.049(6)
C5 0.062(6) 0.057(6) 0.069(6) 0.004(5) -0.021(5) 0.030(5)
C6 0.076(6) 0.051(6) 0.065(7) 0.005(5) -0.003(5) 0.035(5)
C7 0.066(6) 0.067(7) 0.061(6) 0.002(6) -0.010(5) 0.040(6)
C8 0.054(6) 0.078(8) 0.078(7) -0.022(6) -0.016(5) 0.032(6)
C9 0.043(5) 0.057(7) 0.094(8) -0.002(5) -0.015(5) 0.015(5)
C10 0.076(7) 0.055(6) 0.078(7) 0.014(6) 0.003(6) 0.040(5)
C11 0.076(7) 0.074(8) 0.077(7) 0.005(6) -0.010(5) 0.049(6)
C12 0.048(6) 0.070(6) 0.094(8) 0.012(6) -0.005(6) 0.029(5)
C13 0.042(5) 0.069(7) 0.072(7) 0.012(6) -0.002(5) 0.027(5)
C14 0.048(6) 0.068(7) 0.062(7) 0.009(6) 0.009(5) 0.024(5)
O1 0.070(4) 0.059(4) 0.062(4) 0.006(3) -0.006(3) 0.025(3)
O2 0.078(4) 0.065(4) 0.067(4) 0.008(4) 0.007(4) 0.044(4)
O3 0.072(5) 0.060(4) 0.107(6) -0.015(4) 0.026(4) 0.015(3)
O4 0.066(4) 0.064(4) 0.042(3) -0.003(3) -0.005(3) 0.027(4)
S1 0.078(2) 0.0654(17) 0.113(2) 0.0036(17) -0.0343(17) 0.0295(16)
O5 0.064(5) 0.089(5) 0.168(8) 0.042(5) -0.028(5) 0.014(4)
O6 0.141(7) 0.087(5) 0.111(6) -0.027(5) -0.057(5) 0.075(5)
C15 0.055(6) 0.051(6) 0.049(6) 0.001(5) -0.010(5) 0.016(5)
C16 0.057(6) 0.067(7) 0.048(6) 0.011(5) 0.013(5) 0.027(5)
C17 0.072(6) 0.077(8) 0.046(6) 0.001(5) 0.015(5) 0.028(6)
C18 0.071(6) 0.064(6) 0.065(6) 0.011(5) 0.025(6) 0.034(5)
C19 0.079(7) 0.071(7) 0.073(7) 0.008(6) 0.025(6) 0.026(6)
C20 0.065(6) 0.067(7) 0.063(6) 0.016(5) 0.028(5) 0.031(5)
C21 0.086(8) 0.086(7) 0.051(6) 0.007(6) -0.007(6) 0.054(6)
C22 0.095(8) 0.079(7) 0.055(6) 0.004(6) -0.008(6) 0.055(7)
C23 0.090(8) 0.102(9) 0.086(8) 0.045(7) 0.049(7) 0.061(7)
C24 0.081(8) 0.107(8) 0.069(7) -0.007(6) -0.026(6) 0.059(7)
C25 0.117(10) 0.077(7) 0.072(7) 0.010(6) -0.031(7) 0.044(7)
C26 0.083(7) 0.091(8) 0.073(7) 0.001(6) -0.018(6) 0.055(7)
C27 0.119(10) 0.089(8) 0.070(8) -0.014(7) -0.048(8) 0.064(8)
C28 0.120(10) 0.070(8) 0.087(8) 0.013(6) -0.040(8) 0.045(8)
O7 0.096(5) 0.089(5) 0.071(5) -0.003(4) -0.029(4) 0.056(4)
O8 0.100(7) 0.252(12) 0.207(11) -0.192(10) -0.067(7) 0.095(8)
O9 0.075(4) 0.057(4) 0.046(4) 0.000(3) -0.001(3) 0.029(3)
O10 0.060(4) 0.075(5) 0.056(4) 0.003(3) 0.011(3) 0.035(4)
S2 0.128(3) 0.092(2) 0.102(2) 0.036(2) 0.071(2) 0.066(2)
O11 0.155(8) 0.078(5) 0.107(7) -0.001(5) 0.062(6) 0.037(5)
O12 0.176(8) 0.147(7) 0.151(8) 0.090(6) 0.112(7) 0.127(7)
C29 0.139(15) 0.142(15) 0.38(4) 0.006(18) -0.034(19) 0.101(14)
C30 0.37(3) 0.20(2) 0.164(18) -0.044(16) -0.18(2) 0.03(2)
C31 0.140(13) 0.099(10) 0.101(11) -0.006(9) -0.019(10) 0.054(9)
O13 0.116(6) 0.082(5) 0.107(6) -0.021(5) -0.036(5) 0.050(5)
N1 0.171(14) 0.117(9) 0.158(13) -0.032(9) -0.099(12) 0.060(10)
O14 0.045(3) 0.065(3) 0.031(3) -0.002(3) -0.001(2) 0.024(3)
O15 0.015(2) 0.015(2) 0.000(3) 0.000 0.000 0.0076(11)

_geom_special_details            
;
All esds (except the esd in the dihedral angle between two l.s. planes)
are estimated using the full covariance matrix. The cell esds are taken
into account individually in the estimation of esds in distances, angles
and torsion angles; correlations between esds in cell parameters are only
used when they are defined by crystal symmetry. An approximate (isotropic)
treatment of cell esds is used for estimating esds involving l.s. planes.
;

loop_
_geom_bond_atom_site_label_1
_geom_bond_atom_site_label_2
_geom_bond_distance
_geom_bond_site_symmetry_2
_geom_bond_publ_flag
Zn1 O7 2.071(7) 2_655 ?
Zn1 O7 2.071(7) 3_665 ?
Zn1 O7 2.071(7) . ?
Zn1 O14 2.109(5) . ?
Zn1 O14 2.109(5) 3_665 ?
Zn1 O14 2.109(5) 2_655 ?
Zn2 O3 1.903(7) . ?
Zn2 O14 1.964(5) . ?
Zn2 O9 1.966(6) . ?
Zn2 O1 2.054(6) . ?
Zn2 Zn3 3.0179(16) . ?
Zn3 O8 1.863(8) . ?
Zn3 O2 1.979(6) . ?
Zn3 O10 2.011(6) . ?
Zn3 O14 2.021(5) . ?
C1 O4 1.244(10) . ?
C1 O3 1.274(10) . ?
C1 C2 1.486(12) . ?
C2 C4 1.387(11) 14_565 ?
C2 C3 1.393(12) . ?
C3 C5 1.397(12) 14_565 ?
C4 C6 1.376(11) . ?
C4 C2 1.387(12) 15_545 ?
C5 C7 1.388(12) . ?
C5 C3 1.396(12) 15_545 ?
C5 S1 1.747(9) . ?
C6 C7 1.352(11) . ?
C7 C8 1.464(13) . ?
C8 C9 1.384(12) . ?
C8 C10 1.405(12) . ?
C9 C12 1.391(13) . ?
C9 S1 1.758(10) . ?
C10 C11 1.377(12) . ?
C11 C13 1.383(12) . ?
C12 C13 1.357(12) . ?
C13 C14 1.483(12) . ?
C14 O1 1.252(11) . ?
C14 O2 1.280(11) . ?
S1 O5 1.423(8) . ?
S1 O6 1.442(8) . ?
C15 O9 1.249(10) . ?
C15 O10 1.250(10) . ?
C15 C16 1.512(12) . ?
C16 C18 1.369(12) . ?
C16 C17 1.387(12) . ?
C17 C19 1.399(12) . ?
C18 C20 1.360(11) . ?
C19 C21 1.397(13) 12_655 ?
C20 C21 1.394(13) 12_655 ?
C20 S2 1.762(9) . ?
C21 C20 1.394(12) 11_565 ?
C21 C19 1.397(13) 11_565 ?
C21 C22 1.487(13) . ?
C22 C24 1.380(13) . ?
C22 C23 1.393(14) 11_565 ?
C23 C25 1.382(13) 12_655 ?
C23 C22 1.393(14) 12_655 ?
C23 S2 1.783(10) . ?
C24 C26 1.363(13) . ?
C25 C23 1.382(13) 11_565 ?
C25 C27 1.393(14) . ?
C26 C27 1.381(14) . ?
C27 C28 1.514(14) . ?
C28 O7 1.229(13) . ?
C28 O8 1.258(13) 3_665 ?
O8 C28 1.258(13) 2_655 ?
S2 O12 1.416(9) . ?
S2 O11 1.437(10) . ?
C29 N1 1.44(2) . ?
C30 N1 1.46(2) . ?
C31 O13 1.234(14) . ?
C31 N1 1.344(17) . ?

loop_
_geom_angle_atom_site_label_1
_geom_angle_atom_site_label_2
_geom_angle_atom_site_label_3
_geom_angle
_geom_angle_site_symmetry_1
_geom_angle_site_symmetry_3
_geom_angle_publ_flag
O7 Zn1 O7 87.1(3) 2_655 3_665 ?
O7 Zn1 O7 87.1(3) 2_655 . ?
O7 Zn1 O7 87.1(3) 3_665 . ?
O7 Zn1 O14 98.8(2) 2_655 . ?
O7 Zn1 O14 82.5(2) 3_665 . ?
O7 Zn1 O14 167.8(2) . . ?
O7 Zn1 O14 82.5(2) 2_655 3_665 ?
O7 Zn1 O14 167.8(2) 3_665 3_665 ?
O7 Zn1 O14 98.8(2) . 3_665 ?
O14 Zn1 O14 92.60(18) . 3_665 ?
O7 Zn1 O14 167.8(2) 2_655 2_655 ?
O7 Zn1 O14 98.8(2) 3_665 2_655 ?
O7 Zn1 O14 82.5(2) . 2_655 ?
O14 Zn1 O14 92.60(18) . 2_655 ?
O14 Zn1 O14 92.60(18) 3_665 2_655 ?
O3 Zn2 O14 130.4(3) . . ?
O3 Zn2 O9 109.9(3) . . ?
O14 Zn2 O9 111.4(2) . . ?
O3 Zn2 O1 98.1(3) . . ?
O14 Zn2 O1 100.0(2) . . ?
O9 Zn2 O1 100.7(2) . . ?
O3 Zn2 Zn3 167.3(2) . . ?
O14 Zn2 Zn3 41.47(14) . . ?
O9 Zn2 Zn3 82.65(18) . . ?
O1 Zn2 Zn3 76.63(18) . . ?
O8 Zn3 O2 136.0(5) . . ?
O8 Zn3 O10 99.1(4) . . ?
O2 Zn3 O10 98.7(2) . . ?
O8 Zn3 O14 115.1(3) . . ?
O2 Zn3 O14 97.4(2) . . ?
O10 Zn3 O14 106.9(2) . . ?
O8 Zn3 Zn2 1