####################################################################### 
# 
# This file contains crystal structure data downloaded from the 
# Cambridge Structural Database (CSD) hosted by the Cambridge 
# Crystallographic Data Centre (CCDC).
# 
# Full information about CCDC data access policies and citation 
# guidelines are available at http://www.ccdc.cam.ac.uk/access/V1 
# 
# Audit and citation data items may have been added by the CCDC. 
# Please retain this information to preserve the provenance of 
# this file and to allow appropriate attribution of the data. 
# 
#######################################################################

data_[1]
_audit_block_doi                 10.5517/ccskpqq
_database_code_depnum_ccdc_archive 'CCDC 731994'
loop_
_citation_id
_citation_doi
_citation_year
1 10.1021/ic802060e 2009
_audit_update_record             
;
2009-05-14 deposited with the CCDC.	2024-07-14 downloaded from the CCDC.
;

_audit_creation_method           SHELXL-97
_chemical_name_systematic        
;
?
;
_chemical_name_common            ?
_chemical_melting_point          ?
_chemical_formula_moiety         ?
_chemical_formula_sum            'C132 H132 N12 Nd2 O42'
_chemical_formula_weight         2846.98

loop_
_atom_type_symbol
_atom_type_description
_atom_type_scat_dispersion_real
_atom_type_scat_dispersion_imag
_atom_type_scat_source
C C 0.0033 0.0016 'International Tables Vol C Tables 4.2.6.8 and 6.1.1.4'
H H 0.0000 0.0000 'International Tables Vol C Tables 4.2.6.8 and 6.1.1.4'
N N 0.0061 0.0033 'International Tables Vol C Tables 4.2.6.8 and 6.1.1.4'
O O 0.0106 0.0060 'International Tables Vol C Tables 4.2.6.8 and 6.1.1.4'
Nd Nd -0.1943 3.0179 'International Tables Vol C Tables 4.2.6.8 and 6.1.1.4'

_symmetry_cell_setting           Monoclinic
_symmetry_space_group_name_H-M   C2/c

loop_
_symmetry_equiv_pos_as_xyz
'x, y, z'
'-x, y, -z+1/2'
'x+1/2, y+1/2, z'
'-x+1/2, y+1/2, -z+1/2'
'-x, -y, -z'
'x, -y, z-1/2'
'-x+1/2, -y+1/2, -z'
'x+1/2, -y+1/2, z-1/2'

_cell_length_a                   35.6360(19)
_cell_length_b                   23.5611(19)
_cell_length_c                   22.6605(15)
_cell_angle_alpha                90.00
_cell_angle_beta                 90.7780(10)
_cell_angle_gamma                90.00
_cell_volume                     19025(2)
_cell_formula_units_Z            4
_cell_measurement_temperature    294(2)
_cell_measurement_reflns_used    6234
_cell_measurement_theta_min      2.25
_cell_measurement_theta_max      18.82

_exptl_crystal_description       hexagon
_exptl_crystal_colour            purple
_exptl_crystal_size_max          0.30
_exptl_crystal_size_mid          0.25
_exptl_crystal_size_min          0.25
_exptl_crystal_density_meas      ?
_exptl_crystal_density_diffrn    0.994
_exptl_crystal_density_method    'not measured'
_exptl_crystal_F_000             5856
_exptl_absorpt_coefficient_mu    0.601
_exptl_absorpt_correction_type   multi-scan
_exptl_absorpt_correction_T_min  0.8402
_exptl_absorpt_correction_T_max  0.8642
_exptl_absorpt_process_details   SADABS

_exptl_special_details           
;
?
;

_diffrn_ambient_temperature      294(2)
_diffrn_radiation_wavelength     0.71073
_diffrn_radiation_type           MoK\a
_diffrn_radiation_source         'fine-focus sealed tube'
_diffrn_radiation_monochromator  graphite
_diffrn_measurement_device_type  'CCD area detector'
_diffrn_measurement_method       'phi and omega scans'
_diffrn_detector_area_resol_mean ?
_diffrn_standards_number         ?
_diffrn_standards_interval_count ?
_diffrn_standards_interval_time  ?
_diffrn_standards_decay_%        ?
_diffrn_reflns_number            48306
_diffrn_reflns_av_R_equivalents  0.0672
_diffrn_reflns_av_sigmaI/netI    0.0920
_diffrn_reflns_limit_h_min       -43
_diffrn_reflns_limit_h_max       23
_diffrn_reflns_limit_k_min       -27
_diffrn_reflns_limit_k_max       28
_diffrn_reflns_limit_l_min       -27
_diffrn_reflns_limit_l_max       27
_diffrn_reflns_theta_min         1.80
_diffrn_reflns_theta_max         25.50
_reflns_number_total             17446
_reflns_number_gt                8965
_reflns_threshold_expression     >2sigma(I)

_computing_data_collection       'Bruker SMART'
_computing_cell_refinement       'Bruker SMART'
_computing_data_reduction        'Bruker SAINT'
_computing_structure_solution    'SHELXS-97 (Sheldrick, 1990)'
_computing_structure_refinement  'SHELXL-97 (Sheldrick, 1997)'
_computing_molecular_graphics    'Bruker SHELXTL'
_computing_publication_material  'Bruker SHELXTL'

_refine_special_details          
;
Refinement of F^2^ against ALL reflections. The weighted R-factor wR and
goodness of fit S are based on F^2^, conventional R-factors R are based
on F, with F set to zero for negative F^2^. The threshold expression of
F^2^ > 2sigma(F^2^) is used only for calculating R-factors(gt) etc. and is
not relevant to the choice of reflections for refinement. R-factors based
on F^2^ are statistically about twice as large as those based on F, and R-
factors based on ALL data will be even larger.

>>> The Following Level A ALERT was generated <<<
#==============================================================================
Format: test-name_ALERT_alert-type_alert-level text

PLAT602_ALERT_2_A VERY LARGE Solvent Accessible VOID(S) in Structure !

Author Response: Difference map shows no unaccounted electron density.
#==============================================================================

;

_refine_ls_structure_factor_coef Fsqd
_refine_ls_matrix_type           full
_refine_ls_weighting_scheme      calc
_refine_ls_weighting_details     
'calc w=1/[\s^2^(Fo^2^)+(0.1257P)^2^+0.0000P] where P=(Fo^2^+2Fc^2^)/3'
_atom_sites_solution_primary     direct
_atom_sites_solution_secondary   difmap
_atom_sites_solution_hydrogens   geom
_refine_ls_hydrogen_treatment    CONSTR
_refine_ls_extinction_method     SHELXL
_refine_ls_extinction_coef       0.00012(5)
_refine_ls_extinction_expression Fc^*^=kFc[1+0.001xFc^2^\l^3^/sin(2\q)]^-1/4^
_refine_ls_number_reflns         17446
_refine_ls_number_parameters     795
_refine_ls_number_restraints     9
_refine_ls_R_factor_all          0.1498
_refine_ls_R_factor_gt           0.0787
_refine_ls_wR_factor_ref         0.2489
_refine_ls_wR_factor_gt          0.2032
_refine_ls_goodness_of_fit_ref   1.064
_refine_ls_restrained_S_all      1.064
_refine_ls_shift/su_max          0.000
_refine_ls_shift/su_mean         0.000

loop_
_atom_site_label
_atom_site_type_symbol
_atom_site_fract_x
_atom_site_fract_y
_atom_site_fract_z
_atom_site_U_iso_or_equiv
_atom_site_adp_type
_atom_site_occupancy
_atom_site_symmetry_multiplicity
_atom_site_calc_flag
_atom_site_refinement_flags
_atom_site_disorder_assembly
_atom_site_disorder_group
Nd1 Nd 0.329582(11) -0.031578(16) -0.012573(16) 0.05926(18) Uani 1 1 d . . 1
C1 C 0.5202(3) -0.0517(4) 0.2533(4) 0.091(3) Uani 1 1 d . . 1
C2 C 0.5386(3) -0.0887(5) 0.2879(5) 0.125(4) Uani 1 1 d . A 1
H2 H 0.5249 -0.1125 0.3122 0.150 Uiso 1 1 calc R A 1
C3 C 0.5780(5) -0.0930(8) 0.2889(6) 0.153(5) Uani 1 1 d . A 1
H3 H 0.5897 -0.1205 0.3120 0.184 Uiso 1 1 calc R A 1
C4 C 0.5988(4) -0.0569(8) 0.2563(6) 0.147(5) Uani 1 1 d . A 1
H4 H 0.6248 -0.0600 0.2569 0.176 Uiso 1 1 calc R A 1
C5 C 0.5817(3) -0.0153(6) 0.2219(5) 0.124(4) Uani 1 1 d . A 1
H5 H 0.5958 0.0106 0.2006 0.149 Uiso 1 1 calc R A 1
C6 C 0.5422(3) -0.0138(5) 0.2204(5) 0.099(3) Uani 1 1 d . A 1
C7 C 0.5377(3) 0.0412(5) 0.1340(8) 0.131(5) Uani 1 1 d . A 1
H7A H 0.5638 0.0520 0.1394 0.158 Uiso 1 1 calc R A 1
H7B H 0.5243 0.0739 0.1186 0.158 Uiso 1 1 calc R A 1
C8 C 0.5353(2) -0.0049(6) 0.0911(5) 0.121(4) Uani 1 1 d . A 1
H8A H 0.5481 -0.0381 0.1066 0.145 Uiso 1 1 calc R A 1
H8B H 0.5475 0.0063 0.0549 0.145 Uiso 1 1 calc R A 1
C9 C 0.4854(3) -0.0655(5) 0.0484(4) 0.089(3) Uani 1 1 d . A 1
C10 C 0.5112(4) -0.1025(7) 0.0236(5) 0.129(4) Uani 1 1 d . A 1
H10 H 0.5367 -0.0952 0.0285 0.154 Uiso 1 1 calc R A 1
C11 C 0.5005(5) -0.1471(8) -0.0064(7) 0.163(6) Uani 1 1 d . A 1
H11 H 0.5182 -0.1707 -0.0237 0.196 Uiso 1 1 calc R A 1
C12 C 0.4622(5) -0.1592(6) -0.0123(5) 0.140(4) Uani 1 1 d . A 1
H12 H 0.4547 -0.1917 -0.0326 0.168 Uiso 1 1 calc R A 1
C13 C 0.4348(3) -0.1237(4) 0.0116(5) 0.105(3) Uani 1 1 d . A 1
H13 H 0.4095 -0.1323 0.0069 0.126 Uiso 1 1 calc R A 1
C14 C 0.4461(2) -0.0756(4) 0.0426(4) 0.081(2) Uani 1 1 d . A 1
C15 C 0.4161(2) -0.0383(3) 0.0643(3) 0.068(2) Uani 1 1 d . A 1
C16 C 0.3987(3) 0.0470(5) 0.1186(5) 0.113(4) Uani 1 1 d . A 1
H16A H 0.3884 0.0322 0.1549 0.136 Uiso 1 1 calc R A 1
H16B H 0.3782 0.0522 0.0905 0.136 Uiso 1 1 calc R A 1
C17 C 0.4173(3) 0.1033(5) 0.1308(4) 0.094(3) Uani 1 1 d . A 1
C18 C 0.4431(4) 0.1078(6) 0.1751(6) 0.155(6) Uani 1 1 d . A 1
H18 H 0.4498 0.0770 0.1987 0.186 Uiso 1 1 calc R A 1
C19 C 0.4592(5) 0.1616(9) 0.1834(9) 0.196(8) Uani 1 1 d . A 1
H19 H 0.4776 0.1673 0.2123 0.235 Uiso 1 1 calc R A 1
C20 C 0.4469(6) 0.2077(6) 0.1465(11) 0.173(6) Uani 1 1 d . A 1
H20 H 0.4567 0.2437 0.1534 0.207 Uiso 1 1 calc R A 1
C21 C 0.4220(6) 0.2011(11) 0.1031(10) 0.187(7) Uani 1 1 d . A 1
H21 H 0.4150 0.2308 0.0782 0.224 Uiso 1 1 calc R A 1
C22 C 0.4076(4) 0.1490(7) 0.0976(6) 0.132(4) Uani 1 1 d . A 1
H22 H 0.3893 0.1436 0.0685 0.159 Uiso 1 1 calc R A 1
C23 C 0.2985(4) 0.2486(6) 0.0411(5) 0.128(4) Uani 1 1 d . B 1
H23 H 0.2777 0.2555 0.0644 0.154 Uiso 1 1 calc R B 1
C24 C 0.3246(7) 0.2935(7) 0.0312(7) 0.162(6) Uani 1 1 d . B 1
H24 H 0.3209 0.3292 0.0478 0.194 Uiso 1 1 calc R B 1
C25 C 0.3542(6) 0.2833(12) -0.0021(9) 0.176(8) Uani 1 1 d . B 1
H25 H 0.3721 0.3114 -0.0084 0.211 Uiso 1 1 calc R B 1
C26 C 0.3579(8) 0.2323(16) -0.0261(10) 0.213(13) Uani 1 1 d . B 1
H26 H 0.3784 0.2256 -0.0500 0.255 Uiso 1 1 calc R B 1
C27 C 0.3317(6) 0.1870(9) -0.0170(8) 0.164(7) Uani 1 1 d . B 1
H27 H 0.3351 0.1520 -0.0352 0.196 Uiso 1 1 calc R B 1
C28 C 0.3031(4) 0.1957(5) 0.0173(4) 0.107(4) Uani 1 1 d . B 1
C29 C 0.2765(4) 0.1475(5) 0.0281(4) 0.121(4) Uani 1 1 d . B 1
H29A H 0.2509 0.1614 0.0263 0.145 Uiso 1 1 calc R B 1
H29B H 0.2794 0.1191 -0.0025 0.145 Uiso 1 1 calc R B 1
C30 C 0.2987(2) 0.0711(4) 0.0948(3) 0.072(2) Uani 1 1 d . B 1
C31 C 0.3021(2) 0.0494(4) 0.1561(3) 0.073(2) Uani 1 1 d . B 1
C32 C 0.2883(3) -0.0046(5) 0.1673(4) 0.111(3) Uani 1 1 d . B 1
H32 H 0.2774 -0.0259 0.1371 0.133 Uiso 1 1 calc R B 1
C33 C 0.2911(4) -0.0265(5) 0.2241(5) 0.133(4) Uani 1 1 d . B 1
H33 H 0.2818 -0.0625 0.2322 0.160 Uiso 1 1 calc R B 1
C34 C 0.3076(4) 0.0053(6) 0.2683(5) 0.129(4) Uani 1 1 d . B 1
H34 H 0.3089 -0.0094 0.3063 0.155 Uiso 1 1 calc R B 1
C35 C 0.3217(3) 0.0567(5) 0.2579(4) 0.104(3) Uani 1 1 d . B 1
H35 H 0.3335 0.0766 0.2883 0.125 Uiso 1 1 calc R B 1
C36 C 0.3190(2) 0.0808(4) 0.2013(3) 0.076(2) Uani 1 1 d . B 1
C37 C 0.3444(3) 0.1710(4) 0.2308(5) 0.111(3) Uani 1 1 d . B 1
H37A H 0.3709 0.1655 0.2395 0.133 Uiso 1 1 calc R B 1
H37B H 0.3305 0.1651 0.2667 0.133 Uiso 1 1 calc R B 1
C38 C 0.3377(3) 0.2291(4) 0.2077(6) 0.121(4) Uani 1 1 d . B 1
H38A H 0.3473 0.2578 0.2347 0.146 Uiso 1 1 calc R B 1
H38B H 0.3490 0.2343 0.1693 0.146 Uiso 1 1 calc R B 1
C39 C 0.2771(4) 0.2801(4) 0.1914(4) 0.107(3) Uani 1 1 d . B 1
C40 C 0.2956(5) 0.3323(6) 0.1815(5) 0.146(5) Uani 1 1 d . B 1
H40 H 0.3215 0.3360 0.1860 0.175 Uiso 1 1 calc R B 1
C41 C 0.2724(7) 0.3789(5) 0.1640(6) 0.173(8) Uani 1 1 d . B 1
H41 H 0.2832 0.4143 0.1576 0.208 Uiso 1 1 calc R B 1
C42 C 0.2352(8) 0.3726(9) 0.1568(7) 0.192(11) Uani 1 1 d . B 1
H42 H 0.2202 0.4029 0.1449 0.230 Uiso 1 1 calc R B 1
C43 C 0.2200(5) 0.3212(6) 0.1673(5) 0.145(6) Uani 1 1 d . B 1
H43 H 0.1942 0.3170 0.1625 0.174 Uiso 1 1 calc R B 1
C44 C 0.2405(4) 0.2749(5) 0.1845(4) 0.100(3) Uani 1 1 d . B 1
C45 C 0.2222(3) 0.2192(5) 0.1898(4) 0.100(3) Uani 1 1 d . B 1
C46 C 0.2023(4) 0.1982(7) 0.1403(5) 0.133(4) Uani 1 1 d . B 1
H46 H 0.2001 0.2199 0.1061 0.160 Uiso 1 1 calc R B 1
C47 C 0.1862(4) 0.1456(9) 0.1432(8) 0.169(6) Uani 1 1 d . B 1
H47 H 0.1717 0.1324 0.1116 0.203 Uiso 1 1 calc R B 1
C48 C 0.1911(5) 0.1116(7) 0.1925(8) 0.169(6) Uani 1 1 d . B 1
H48 H 0.1822 0.0745 0.1928 0.203 Uiso 1 1 calc R B 1
C49 C 0.2096(4) 0.1339(6) 0.2413(5) 0.134(4) Uani 1 1 d . B 1
H49 H 0.2116 0.1124 0.2757 0.161 Uiso 1 1 calc R B 1
C50 C 0.2247(3) 0.1860(4) 0.2397(4) 0.091(3) Uani 1 1 d . B 1
C51 C 0.2469(3) 0.1744(3) 0.3379(4) 0.093(3) Uani 1 1 d . B 1
H51A H 0.2570 0.1378 0.3267 0.112 Uiso 1 1 calc R B 1
H51B H 0.2230 0.1683 0.3568 0.112 Uiso 1 1 calc R B 1
C52 C 0.2739(3) 0.2045(3) 0.3800(4) 0.087(3) Uani 1 1 d . B 1
H52A H 0.2807 0.1797 0.4126 0.105 Uiso 1 1 calc R B 1
H52B H 0.2966 0.2151 0.3596 0.105 Uiso 1 1 calc R B 1
C53 C 0.2739(2) 0.2883(3) 0.4408(3) 0.072(2) Uani 1 1 d . B 1
C54 C 0.3082(3) 0.2735(4) 0.4662(4) 0.097(3) Uani 1 1 d . B 1
H54 H 0.3192 0.2390 0.4567 0.116 Uiso 1 1 calc R B 1
C55 C 0.3257(3) 0.3090(5) 0.5046(5) 0.115(4) Uani 1 1 d . B 1
H55 H 0.3486 0.2983 0.5214 0.138 Uiso 1 1 calc R B 1
C56 C 0.3101(3) 0.3610(5) 0.5195(5) 0.112(3) Uani 1 1 d . B 1
H56 H 0.3221 0.3850 0.5463 0.134 Uiso 1 1 calc R B 1
C57 C 0.2761(2) 0.3762(4) 0.4932(4) 0.088(3) Uani 1 1 d . B 1
H57 H 0.2658 0.4115 0.5020 0.106 Uiso 1 1 calc R B 1
C58 C 0.2569(2) 0.3412(3) 0.4549(3) 0.070(2) Uani 1 1 d . B 1
C59 C 0.2196(2) 0.3622(4) 0.4315(4) 0.074(2) Uani 1 1 d . B 1
C60 C 0.1675(3) 0.3483(5) 0.3651(6) 0.139 Uani 1 1 d . B 1
H60A H 0.1537 0.3700 0.3940 0.167 Uiso 1 1 calc R B 1
H60B H 0.1715 0.3725 0.3312 0.167 Uiso 1 1 calc R B 1
C61 C 0.1455(3) 0.3016(5) 0.3473(6) 0.129(4) Uani 1 1 d . B 1
C62 C 0.1521(4) 0.2747(6) 0.2940(7) 0.156 Uani 1 1 d . B 1
H62 H 0.1697 0.2895 0.2682 0.187 Uiso 1 1 calc R B 1
C63 C 0.1326(4) 0.2255(6) 0.2791(7) 0.159 Uani 1 1 d . B 1
H63 H 0.1370 0.2075 0.2434 0.191 Uiso 1 1 calc R B 1
C64 C 0.1063(4) 0.2034(7) 0.3177(7) 0.160 Uani 1 1 d . B 1
H64 H 0.0932 0.1705 0.3078 0.192 Uiso 1 1 calc R B 1
C65 C 0.0997(4) 0.2304(6) 0.3711(7) 0.156 Uani 1 1 d . B 1
H65 H 0.0821 0.2156 0.3969 0.187 Uiso 1 1 calc R B 1
C66 C 0.1192(3) 0.2795(5) 0.3859(6) 0.160 Uani 1 1 d . B 1
H66 H 0.1148 0.2976 0.4216 0.192 Uiso 1 1 calc R B 1
H1W H 0.1727 0.0331 0.0069 0.192 Uiso 1 1 d RD B 1
H2W H 0.1410 0.0367 0.0425 0.192 Uiso 1 1 d RD B 1
H3W H 0.5424 0.7472 0.1230 0.192 Uiso 1 1 d RD B 1
H4W H 0.5483 0.7959 0.1604 0.192 Uiso 1 1 d RD B 1
H5W H 0.3135 0.3934 0.3339 0.192 Uiso 1 1 d RD B 1
H6W H 0.3421 0.4275 0.3154 0.192 Uiso 1 1 d RD B 1
N1 N 0.42575(19) 0.0064(3) 0.0949(3) 0.093(2) Uani 1 1 d . A 1
H1 H 0.4492 0.0124 0.1014 0.112 Uiso 1 1 calc R A 1
N2 N 0.3629(2) -0.1193(4) -0.0872(4) 0.085(2) Uani 1 1 d . C 1
N3 N 0.3674(2) 0.0626(3) -0.0754(3) 0.0789(18) Uani 1 1 d . D 1
N4 N 0.2614(2) -0.0314(3) -0.0899(3) 0.0772(19) Uani 1 1 d . E 1
N5 N 0.2839(3) 0.1213(3) 0.0866(3) 0.119(3) Uani 1 1 d . B 1
H5A H 0.2779 0.1405 0.1174 0.143 Uiso 1 1 calc R B 1
N6 N 0.2034(2) 0.3331(3) 0.3903(4) 0.119(3) Uani 1 1 d . B 1
H6 H 0.2146 0.3033 0.3772 0.143 Uiso 1 1 calc R B 1
O1 O 0.52283(18) 0.0261(3) 0.1886(4) 0.106(2) Uani 1 1 d . A 1
O2 O 0.49601(15) -0.0186(3) 0.0786(3) 0.0989(19) Uani 1 1 d . A 1
O3 O 0.38242(15) -0.0488(2) 0.0526(2) 0.0770(14) Uani 1 1 d . A 1
O4 O 0.34488(17) -0.1327(2) -0.0415(3) 0.0809(15) Uani 1 1 d . C 1
O5 O 0.37004(17) -0.0679(3) -0.0953(2) 0.0839(16) Uani 1 1 d . C 1
O6 O 0.3727(2) -0.1563(3) -0.1222(3) 0.127(2) Uani 1 1 d . C 1
O7 O 0.38136(16) 0.0402(2) -0.0301(3) 0.0842(16) Uani 1 1 d . D 1
O8 O 0.33466(19) 0.0452(2) -0.0901(2) 0.0848(16) Uani 1 1 d . D 1
O9 O 0.3832(2) 0.0986(3) -0.1043(3) 0.117(2) Uani 1 1 d . D 1
O10 O 0.28870(17) -0.0657(2) -0.0972(2) 0.0797(15) Uani 1 1 d . E 1
O11 O 0.23437(19) -0.0302(3) -0.1229(3) 0.109(2) Uani 1 1 d . E 1
O12 O 0.26412(15) 0.0015(2) -0.0456(2) 0.0808(15) Uani 1 1 d . E 1
O13 O 0.30784(15) 0.0410(2) 0.0527(2) 0.0724(14) Uani 1 1 d . B 1
O14 O 0.33195(18) 0.1317(3) 0.1856(2) 0.0928(18) Uani 1 1 d . B 1
O15 O 0.2972(2) 0.2303(3) 0.2039(4) 0.127(2) Uani 1 1 d . B 1
O16 O 0.24207(18) 0.2093(2) 0.2871(3) 0.0912(17) Uani 1 1 d . B 1
O17 O 0.25496(15) 0.2550(2) 0.4017(2) 0.0776(15) Uani 1 1 d . B 1
O18 O 0.20556(15) 0.4061(2) 0.4522(2) 0.0813(15) Uani 1 1 d . . 1
O19 O 0.1604(3) 0.0152(6) 0.0344(6) 0.252 Uani 1 1 d D F 1
O20 O 0.5318(3) 0.7709(5) 0.1501(6) 0.248 Uani 1 1 d D G 1
O21 O 0.3378(3) 0.3973(5) 0.3375(6) 0.252 Uani 1 1 d D H 1

loop_
_atom_site_aniso_label
_atom_site_aniso_U_11
_atom_site_aniso_U_22
_atom_site_aniso_U_33
_atom_site_aniso_U_23
_atom_site_aniso_U_13
_atom_site_aniso_U_12
Nd1 0.0631(3) 0.0631(3) 0.0515(3) 0.00127(18) -0.00082(17) -0.0074(2)
C1 0.076(5) 0.113(7) 0.082(6) -0.002(5) -0.018(5) 0.006(5)
C2 0.114(9) 0.154(10) 0.108(8) 0.016(7) -0.025(7) 0.015(8)
C3 0.137(12) 0.210(15) 0.112(10) 0.005(10) -0.040(9) 0.070(12)
C4 0.087(8) 0.241(16) 0.112(10) 0.018(10) -0.020(7) 0.046(10)
C5 0.073(6) 0.165(10) 0.135(10) -0.007(8) -0.020(6) 0.017(7)
C6 0.075(6) 0.118(8) 0.103(7) -0.022(6) -0.027(6) 0.021(6)
C7 0.085(8) 0.128(10) 0.181(14) 0.027(10) -0.032(9) -0.024(7)
C8 0.046(5) 0.196(12) 0.122(9) 0.066(9) 0.008(5) 0.004(6)
C9 0.069(6) 0.124(8) 0.074(6) 0.013(5) 0.006(5) 0.021(6)
C10 0.099(8) 0.184(13) 0.103(9) -0.020(8) -0.002(7) 0.049(9)
C11 0.125(12) 0.213(17) 0.151(13) -0.018(13) -0.002(10) 0.075(13)
C12 0.163(13) 0.140(10) 0.117(10) -0.038(8) -0.007(9) 0.029(10)
C13 0.107(7) 0.104(7) 0.103(7) -0.008(6) -0.019(6) 0.028(6)
C14 0.073(6) 0.098(6) 0.072(5) 0.013(5) -0.008(4) 0.007(5)
C15 0.057(5) 0.084(6) 0.061(5) 0.008(4) -0.004(4) -0.004(4)
C16 0.063(5) 0.142(9) 0.133(9) -0.043(7) -0.009(6) 0.011(6)
C17 0.078(6) 0.110(7) 0.093(7) -0.025(6) -0.017(5) 0.012(6)
C18 0.140(10) 0.126(9) 0.197(13) -0.028(9) -0.103(10) 0.011(8)
C