####################################################################### 
# 
# This file contains crystal structure data downloaded from the 
# Cambridge Structural Database (CSD) hosted by the Cambridge 
# Crystallographic Data Centre (CCDC).
# 
# Full information about CCDC data access policies and citation 
# guidelines are available at http://www.ccdc.cam.ac.uk/access/V1 
# 
# Audit and citation data items may have been added by the CCDC. 
# Please retain this information to preserve the provenance of 
# this file and to allow appropriate attribution of the data. 
# 
#######################################################################

data_1b
_audit_block_doi                 10.5517/cc13n4ws
_database_code_depnum_ccdc_archive 'CCDC 1032265'
loop_
_citation_id
_citation_doi
_citation_year
1 10.1039/C4QI00193A 2015
_audit_update_record             
;
2014-11-01 deposited with the CCDC.	2024-07-14 downloaded from the CCDC.
;

_audit_creation_method           SHELXL-97
_chemical_name_systematic        
;
 ?
;
_chemical_name_common            ?
_chemical_melting_point          ?
_chemical_formula_moiety         'C34 H25 F Gd N8 O27'
_chemical_formula_sum            'C34 H25 F Gd N8 O27'
_chemical_formula_weight         1153.87

loop_
_atom_type_symbol
_atom_type_description
_atom_type_scat_dispersion_real
_atom_type_scat_dispersion_imag
_atom_type_scat_source
C C 0.0033 0.0016 'International Tables Vol C Tables 4.2.6.8 and 6.1.1.4'
H H 0.0000 0.0000 'International Tables Vol C Tables 4.2.6.8 and 6.1.1.4'
N N 0.0061 0.0033 'International Tables Vol C Tables 4.2.6.8 and 6.1.1.4'
O O 0.0106 0.0060 'International Tables Vol C Tables 4.2.6.8 and 6.1.1.4'
F F 0.0171 0.0103 'International Tables Vol C Tables 4.2.6.8 and 6.1.1.4'
Gd Gd -0.1653 3.9035 'International Tables Vol C Tables 4.2.6.8 and 6.1.1.4'

_symmetry_cell_setting           monoclinic
_symmetry_space_group_name_H-M   C2/c

loop_
_symmetry_equiv_pos_as_xyz
'x, y, z'
'-x, y, -z+1/2'
'x+1/2, y+1/2, z'
'-x+1/2, y+1/2, -z+1/2'
'-x, -y, -z'
'x, -y, z-1/2'
'-x+1/2, -y+1/2, -z'
'x+1/2, -y+1/2, z-1/2'

_cell_length_a                   25.179(5)
_cell_length_b                   14.747(5)
_cell_length_c                   26.053(5)
_cell_angle_alpha                90.000
_cell_angle_beta                 94.964(5)
_cell_angle_gamma                90.000
_cell_volume                     9638(4)
_cell_formula_units_Z            8
_cell_measurement_temperature    100(2)
_cell_measurement_reflns_used    999
_cell_measurement_theta_min      2.29
_cell_measurement_theta_max      25.50

_exptl_crystal_description       block
_exptl_crystal_colour            colorless
_exptl_crystal_size_max          0.22
_exptl_crystal_size_mid          0.16
_exptl_crystal_size_min          0.12
_exptl_crystal_density_meas      ?
_exptl_crystal_density_diffrn    1.590
_exptl_crystal_density_method    'not measured'
_exptl_crystal_F_000             4592
_exptl_absorpt_coefficient_mu    1.477
_exptl_absorpt_correction_type   empirical
_exptl_absorpt_correction_T_min  0.7371
_exptl_absorpt_correction_T_max  0.8427
_exptl_absorpt_process_details   sadabs

_exptl_special_details           
;
 ?
;

_diffrn_ambient_temperature      100(2)
_diffrn_radiation_wavelength     0.71073
_diffrn_radiation_type           MoK\a
_diffrn_radiation_source         'fine-focus sealed tube'
_diffrn_radiation_monochromator  graphite
_diffrn_measurement_device_type  'BRUKER SMART APEX'
_diffrn_measurement_method       /w-scans
_diffrn_detector_area_resol_mean ?
_diffrn_standards_number         ?
_diffrn_standards_interval_count ?
_diffrn_standards_interval_time  ?
_diffrn_standards_decay_%        ?
_diffrn_reflns_number            33262
_diffrn_reflns_av_R_equivalents  0.0412
_diffrn_reflns_av_sigmaI/netI    0.0424
_diffrn_reflns_limit_h_min       -20
_diffrn_reflns_limit_h_max       30
_diffrn_reflns_limit_k_min       -17
_diffrn_reflns_limit_k_max       17
_diffrn_reflns_limit_l_min       -31
_diffrn_reflns_limit_l_max       31
_diffrn_reflns_theta_min         2.29
_diffrn_reflns_theta_max         25.50
_reflns_number_total             8924
_reflns_number_gt                6214
_reflns_threshold_expression     >2sigma(I)

_computing_data_collection       ?
_computing_cell_refinement       ?
_computing_data_reduction        ?
_computing_structure_solution    ?
_computing_structure_refinement  'SHELXL-97 (Sheldrick, 1997)'
_computing_molecular_graphics    ?
_computing_publication_material  ?

_refine_special_details          
;
 Refinement of F^2^ against ALL reflections.  The weighted R-factor wR and
 goodness of fit S are based on F^2^, conventional R-factors R are based
 on F, with F set to zero for negative F^2^. The threshold expression of
 F^2^ > 2sigma(F^2^) is used only for calculating R-factors(gt) etc. and is
 not relevant to the choice of reflections for refinement.  R-factors based
 on F^2^ are statistically about twice as large as those based on F, and R-
 factors based on ALL data will be even larger.
;

_refine_ls_structure_factor_coef Fsqd
_refine_ls_matrix_type           full
_refine_ls_weighting_scheme      calc
_refine_ls_weighting_details     
'calc w=1/[\s^2^(Fo^2^)+(0.0963P)^2^+64.2392P] where P=(Fo^2^+2Fc^2^)/3'
_atom_sites_solution_primary     direct
_atom_sites_solution_secondary   difmap
_atom_sites_solution_hydrogens   geom
_refine_ls_hydrogen_treatment    mixed
_refine_ls_extinction_method     none
_refine_ls_extinction_coef       ?
_refine_ls_number_reflns         8924
_refine_ls_number_parameters     607
_refine_ls_number_restraints     12
_refine_ls_R_factor_all          0.0930
_refine_ls_R_factor_gt           0.0626
_refine_ls_wR_factor_ref         0.1833
_refine_ls_wR_factor_gt          0.1607
_refine_ls_goodness_of_fit_ref   1.035
_refine_ls_restrained_S_all      1.045
_refine_ls_shift/su_max          0.000
_refine_ls_shift/su_mean         0.000

loop_
_atom_site_label
_atom_site_type_symbol
_atom_site_fract_x
_atom_site_fract_y
_atom_site_fract_z
_atom_site_U_iso_or_equiv
_atom_site_adp_type
_atom_site_occupancy
_atom_site_symmetry_multiplicity
_atom_site_calc_flag
_atom_site_refinement_flags
_atom_site_disorder_assembly
_atom_site_disorder_group
Gd1 Gd 0.850250(14) 0.24571(2) 0.007078(11) 0.04257(15) Uani 1 1 d . . .
C1 C 0.8418(3) 0.0413(5) 0.0699(2) 0.0513(19) Uani 1 1 d . . .
C2 C 0.8241(3) 0.0075(5) 0.1205(2) 0.0400(15) Uani 1 1 d . . .
C3 C 0.7948(3) 0.0610(5) 0.1503(2) 0.0457(17) Uani 1 1 d . . .
H3 H 0.7841 0.1183 0.1387 0.055 Uiso 1 1 calc R . .
C4 C 0.7811(3) 0.0306(5) 0.1976(2) 0.0431(16) Uani 1 1 d . . .
C5 C 0.7952(3) -0.0556(5) 0.2173(2) 0.0383(15) Uani 1 1 d . . .
C6 C 0.8244(3) -0.1078(5) 0.1850(2) 0.0404(15) Uani 1 1 d . . .
C7 C 0.8388(3) -0.0791(5) 0.1381(2) 0.0420(16) Uani 1 1 d . . .
H7 H 0.8582 -0.1170 0.1182 0.050 Uiso 1 1 calc R . .
C8 C 0.7816(3) -0.0850(4) 0.2697(2) 0.0361(14) Uani 1 1 d . . .
C9 C 0.8179(3) -0.0764(4) 0.3129(2) 0.0370(15) Uani 1 1 d . . .
C10 C 0.8080(3) -0.1071(4) 0.3616(2) 0.0377(15) Uani 1 1 d . . .
H10 H 0.8339 -0.1020 0.3891 0.045 Uiso 1 1 calc R . .
C11 C 0.7588(3) -0.1452(4) 0.3685(2) 0.0363(15) Uani 1 1 d . . .
C12 C 0.7216(3) -0.1534(4) 0.3273(2) 0.0393(15) Uani 1 1 d . . .
H12 H 0.6882 -0.1775 0.3319 0.047 Uiso 1 1 calc R . .
C13 C 0.7335(3) -0.1257(5) 0.2787(2) 0.0393(15) Uani 1 1 d . . .
C14 C 0.8669(3) 0.3256(5) -0.1143(2) 0.0421(16) Uani 1 1 d . . .
C15 C 0.9066(3) 0.3188(4) -0.1545(2) 0.0367(15) Uani 1 1 d . . .
C16 C 0.9475(3) 0.2566(4) -0.1493(3) 0.0400(15) Uani 1 1 d . . .
H16 H 0.9514 0.2190 -0.1206 0.048 Uiso 1 1 calc R . .
C17 C 0.9826(3) 0.2502(4) -0.1869(3) 0.0416(16) Uani 1 1 d . . .
C18 C 0.9797(3) 0.3040(4) -0.2304(2) 0.0405(16) Uani 1 1 d . . .
C19 C 0.9377(3) 0.3662(5) -0.2345(3) 0.0511(19) Uani 1 1 d . . .
C20 C 0.9011(3) 0.3729(5) -0.1970(3) 0.0480(18) Uani 1 1 d . . .
H20 H 0.8731 0.4142 -0.2012 0.058 Uiso 1 1 calc R . .
C21 C 0.9448(5) 0.1659(9) 0.0982(5) 0.094(3) Uani 1 1 d . . .
H21 H 0.9673 0.1355 0.0775 0.113 Uiso 1 1 calc R . .
C22 C 0.9840(6) 0.0768(10) 0.1696(5) 0.137(6) Uani 1 1 d . . .
H22A H 0.9810 0.0739 0.2060 0.206 Uiso 1 1 calc R . .
H22B H 1.0200 0.0915 0.1633 0.206 Uiso 1 1 calc R . .
H22C H 0.9746 0.0191 0.1543 0.206 Uiso 1 1 calc R . .
C23 C 0.9187(5) 0.1909(11) 0.1830(5) 0.124(5) Uani 1 1 d . . .
H23A H 0.9275 0.1681 0.2172 0.186 Uiso 1 1 calc R . .
H23B H 0.8815 0.1816 0.1734 0.186 Uiso 1 1 calc R . .
H23C H 0.9266 0.2545 0.1821 0.186 Uiso 1 1 calc R . .
C24 C 0.8634(10) -0.1344(16) -0.1080(8) 0.35(3) Uani 1 1 d D . .
C25 C 0.8467(8) -0.0942(16) -0.0638(9) 0.40(4) Uani 1 1 d D . .
H25 H 0.8725 -0.0852 -0.0365 0.477 Uiso 1 1 calc R . .
C26 C 0.8296 -0.1769 -0.1465 0.89(10) Uiso 1 1 d D . .
H26 H 0.8388 -0.2191 -0.1708 1.065 Uiso 1 1 calc R . .
C27 C 0.7456(3) 0.1772(4) -0.0784(2) 0.0400(16) Uani 1 1 d . . .
C28 C 0.7938 -0.0656 -0.0566 0.213(14) Uani 1 1 d D . .
H28 H 0.7829 -0.0342 -0.0284 0.256 Uiso 1 1 calc R . .
C29 C 0.7784(7) -0.1411(8) -0.1401(4) 0.277(19) Uani 1 1 d D . .
H29 H 0.7531 -0.1519 -0.1676 0.332 Uiso 1 1 calc R . .
C30 C 0.7603 -0.0946 -0.1013 0.79(10) Uani 1 1 d D . .
C31 C 0.7094(9) -0.0689(14) -0.0976(9) 0.32(2) Uani 1 1 d D . .
H31 H 0.6837 -0.0869 -0.1234 0.385 Uiso 1 1 calc R . .
C32 C 1.030(3) 0.162(3) -0.016(3) 0.67(7) Uiso 1 1 d D . .
H32 H 1.0478 0.1535 0.0161 0.808 Uiso 1 1 calc R . .
C33 C 1.0111(7) 0.3116(12) -0.0161(9) 0.211(11) Uani 1 1 d D . .
H33A H 1.0230 0.3733 -0.0176 0.317 Uiso 1 1 calc R . .
H33B H 1.0016 0.2985 0.0180 0.317 Uiso 1 1 calc R . .
H33C H 0.9805 0.3031 -0.0403 0.317 Uiso 1 1 calc R . .
C34 C 1.0946(12) 0.304(2) -0.0514(10) 0.34(2) Uani 1 1 d D . .
H34A H 1.1238 0.2632 -0.0556 0.504 Uiso 1 1 calc R . .
H34B H 1.1066 0.3529 -0.0293 0.504 Uiso 1 1 calc R . .
H34C H 1.0812 0.3269 -0.0845 0.504 Uiso 1 1 calc R . .
N1 N 0.7514(3) 0.0913(5) 0.2281(2) 0.062(2) Uani 1 1 d . . .
N2 N 0.8398(3) -0.2011(4) 0.1999(2) 0.0540(16) Uani 1 1 d . . .
N3 N 0.8696(2) -0.0341(4) 0.3087(2) 0.0471(15) Uani 1 1 d . . .
N4 N 0.6931(3) -0.1450(5) 0.2362(2) 0.0595(18) Uani 1 1 d . . .
N5 N 0.9282(3) 0.4251(5) -0.2791(3) 0.071(2) Uani 1 1 d . . .
N6 N 1.0256(2) 0.1830(4) -0.1781(2) 0.0503(15) Uani 1 1 d . . .
N7 N 0.9494(3) 0.1438(6) 0.1477(3) 0.082(2) Uani 1 1 d . . .
N8 N 1.0516 0.2539 -0.0282 0.41(3) Uani 1 1 d D . .
O1 O 0.8215(2) 0.1140(4) 0.05331(17) 0.0533(13) Uani 1 1 d . . .
O2 O 0.8766(2) -0.0037(4) 0.05031(19) 0.0658(16) Uani 1 1 d . . .
O1W O 0.8957(3) 0.3861(6) 0.0261(3) 0.113(3) Uani 1 1 d . . .
O3 O 0.7650(3) 0.1704(5) 0.2296(2) 0.0772(19) Uani 1 1 d . . .
O2W O 0.7942(2) 0.3709(3) -0.02905(18) 0.0507(13) Uani 1 1 d . . .
O4 O 0.8424(3) -0.2213(5) 0.2453(2) 0.082(2) Uani 1 1 d . . .
O3W O 0.8986(2) 0.1159(4) -0.02295(18) 0.0586(15) Uani 1 1 d . . .
O5 O 0.8509(3) -0.2528(3) 0.1661(2) 0.0717(18) Uani 1 1 d . . .
O6 O 0.7064(3) -0.1416(7) 0.1922(2) 0.111(3) Uani 1 1 d . . .
O7 O 0.6491(2) -0.1691(4) 0.24633(19) 0.0618(15) Uani 1 1 d . . .
O8 O 0.8727(2) 0.0279(4) 0.2775(2) 0.0682(17) Uani 1 1 d . . .
O9 O 0.9076(2) -0.0617(4) 0.3364(2) 0.0555(13) Uani 1 1 d . . .
O10 O 0.8794(2) 0.2815(4) -0.07329(19) 0.0537(13) Uani 1 1 d . . .
O11 O 0.8267(2) 0.3715(3) -0.12401(18) 0.0525(13) Uani 1 1 d . . .
O12 O 1.0361(2) 0.1562(5) -0.1343(2) 0.082(2) Uani 1 1 d . . .
O13 O 1.0491(2) 0.1577(4) -0.21435(19) 0.0561(14) Uani 1 1 d . . .
O14 O 0.9031(4) 0.4919(6) -0.2751(3) 0.149(5) Uani 1 1 d . . .
O15 O 0.9431(3) 0.3989(5) -0.3198(2) 0.092(2) Uani 1 1 d . . .
O16 O 0.9151(3) 0.2204(6) 0.0768(3) 0.095(2) Uani 1 1 d . . .
O17 O 0.8007(2) 0.2962(4) 0.07512(17) 0.0556(14) Uani 1 1 d . . .
O20 O 0.78249(19) 0.1764(3) -0.04327(16) 0.0419(11) Uani 1 1 d . . .
O22 O 0.7144(3) 0.0608(5) 0.2504(2) 0.087(2) Uani 1 1 d . . .
O23 O 0.6955 -0.0238 -0.0626 0.39(2) Uani 1 1 d D . .
O24 O 1.0042(4) 0.0877(16) -0.0211(6) 0.356(17) Uani 1 1 d D . .
OW4 O 1.071(3) 0.412(3) 0.119(2) 1.02(8) Uani 1 1 d . . .
OW5 O 0.992(3) 0.434(3) 0.106(2) 1.12(9) Uani 1 1 d . . .
OW6 O 1.253(4) 0.207(4) -0.0300(12) 1.05(10) Uani 1 1 d . . .
F1 F 0.9174 -0.1753 -0.1121 0.325(9) Uiso 1 1 d . . .

loop_
_atom_site_aniso_label
_atom_site_aniso_U_11
_atom_site_aniso_U_22
_atom_site_aniso_U_33
_atom_site_aniso_U_23
_atom_site_aniso_U_13
_atom_site_aniso_U_12
Gd1 0.0503(2) 0.0577(2) 0.0223(2) 0.00411(14) 0.01766(15) 0.01551(17)
C1 0.068(5) 0.067(5) 0.020(3) 0.013(3) 0.011(3) 0.011(4)
C2 0.044(4) 0.058(4) 0.020(3) 0.010(3) 0.010(3) 0.006(3)
C3 0.053(4) 0.058(4) 0.027(3) 0.017(3) 0.010(3) 0.010(3)
C4 0.043(4) 0.058(4) 0.029(3) 0.013(3) 0.013(3) 0.003(3)
C5 0.037(4) 0.053(4) 0.026(3) 0.007(3) 0.008(3) -0.005(3)
C6 0.043(4) 0.045(4) 0.033(3) 0.011(3) 0.008(3) -0.004(3)
C7 0.044(4) 0.054(4) 0.029(3) 0.009(3) 0.009(3) -0.003(3)
C8 0.043(4) 0.042(4) 0.023(3) 0.008(3) 0.005(3) -0.008(3)
C9 0.036(4) 0.042(4) 0.032(3) 0.011(3) 0.001(3) -0.010(3)
C10 0.049(4) 0.042(3) 0.023(3) 0.007(3) 0.004(3) -0.012(3)
C11 0.049(4) 0.038(3) 0.022(3) 0.001(2) 0.007(3) -0.013(3)
C12 0.039(4) 0.048(4) 0.033(3) -0.001(3) 0.014(3) -0.016(3)
C13 0.040(4) 0.054(4) 0.024(3) -0.001(3) 0.005(3) -0.014(3)
C14 0.052(4) 0.045(4) 0.033(4) 0.002(3) 0.025(3) 0.005(3)
C15 0.043(4) 0.040(3) 0.030(3) 0.000(3) 0.020(3) 0.000(3)
C16 0.040(4) 0.051(4) 0.031(3) 0.004(3) 0.015(3) -0.003(3)
C17 0.048(4) 0.044(4) 0.035(4) 0.001(3) 0.016(3) 0.003(3)
C18 0.052(4) 0.045(4) 0.028(3) -0.001(3) 0.021(3) 0.001(3)
C19 0.074(5) 0.045(4) 0.041(4) 0.011(3) 0.036(4) 0.002(4)
C20 0.065(5) 0.045(4) 0.038(4) -0.001(3) 0.026(3) 0.008(3)
C21 0.078(7) 0.116(9) 0.087(8) -0.019(7) -0.005(6) 0.015(7)
C22 0.175(14) 0.122(11) 0.103(10) 0.021(8) -0.048(10) 0.030(10)
C23 0.095(9) 0.175(14) 0.108(10) -0.021(10) 0.038(8) 0.004(9)
C24 0.32(4) 0.30(4) 0.45(6) 0.27(4) 0.22(5) 0.06(3)
C25 0.68(9) 0.39(5) 0.111(17) 0.10(2) -0.04(3) -0.40(6)
C27 0.054(4) 0.041(4) 0.028(3) 0.005(3) 0.019(3) 0.017(3)
C28 0.36(4) 0.142(16) 0.127(17) 0.025(12) -0.02(2) -0.14(2)
C29 0.67(5) 0.122(12) 0.028(6) 0.006(6) -0.011(14) -0.23(2)
C30 1.8(2) 0.41(6) 0.11(2) 0.09(3) -0.03(6) -0.77(12)
C31 0.60(7) 0.14(2) 0.23(4) 0.02(2) 0.09(4) -0.19(3)
C33 0.23(2) 0.173(19) 0.24(2) -0.075(17) 0.083(19) -0.109(18)
C34 0.35(4) 0.47(5) 0.22(3) -0.11(3) 0.21(3) -0.21(4)
N1 0.081(5) 0.078(5) 0.029(3) 0.022(3) 0.019(3) 0.037(4)
N2 0.066(4) 0.054(4) 0.045(4) 0.018(3) 0.020(3) -0.005(3)
N3 0.048(4) 0.063(4) 0.030(3) 0.011(3) 0.003(3) -0.019(3)
N4 0.046(4) 0.098(5) 0.034(3) 0.009(3) 0.006(3) -0.024(4)
N5 0.107(6) 0.063(4) 0.053(4) 0.028(3) 0.056(4) 0.032(4)
N6 0.044(3) 0.072(4) 0.037(3) 0.006(3) 0.016(3) 0.006(3)
N7 0.066(5) 0.117(7) 0.064(5) 0.011(5) 0.005(4) 0.022(5)
N8 0.090(10) 1.01(9) 0.141(15) -0.20(3) 0.074(11) -0.12(2)
O1 0.065(3) 0.068(3) 0.030(2) 0.026(2) 0.022(2) 0.022(3)
O2 0.094(4) 0.072(4) 0.037(3) 0.020(3) 0.032(3) 0.031(3)
O1W 0.114(6) 0.120(6) 0.101(6) 0.011(5) -0.010(5) -0.041(5)
O3 0.130(6) 0.068(4) 0.037(3) 0.008(3) 0.024(3) 0.026(4)
O2W 0.067(3) 0.049(3) 0.040(3) 0.003(2) 0.028(2) 0.014(2)
O4 0.114(5) 0.082(4) 0.056(4) 0.038(3) 0.050(4) 0.035(4)
O3W 0.076(4) 0.069(3) 0.035(3) 0.013(2) 0.033(3) 0.029(3)
O5 0.114(5) 0.048(3) 0.056(4) -0.002(3) 0.019(4) 0.000(3)
O6 0.078(4) 0.232(9) 0.023(3) 0.004(4) 0.004(3) -0.080(5)
O7 0.043(3) 0.099(4) 0.043(3) 0.004(3) 0.005(2) -0.024(3)
O8 0.073(4) 0.082(4) 0.049(3) 0.034(3) -0.006(3) -0.043(3)
O9 0.042(3) 0.075(4) 0.049(3) 0.017(3) -0.001(2) -0.017(3)
O10 0.059(3) 0.068(3) 0.038(3) 0.018(2) 0.029(2) 0.020(3)
O11 0.061(3) 0.062(3) 0.038(3) 0.016(2) 0.027(2) 0.020(3)
O12 0.070(4) 0.131(6) 0.048(3) 0.030(4) 0.024(3) 0.040(4)
O13 0.064(3) 0.061(3) 0.048(3) 0.002(2) 0.029(3) 0.014(3)
O14 0.238(11) 0.109(6) 0.120(6) 0.081(5) 0.133(7) 0.106(7)
O15 0.130(6) 0.095(5) 0.061(4) 0.033(3) 0.063(4) 0.052(4)
O16 0.062(4) 0.115(5) 0.101(6) 0.005(5) -0.027(4) 0.029(4)
O17 0.068(4) 0.077(4) 0.025(2) -0.003(2) 0.015(2) 0.029(3)
O20 0.056(3) 0.051(3) 0.021(2) 0.0046(19) 0.015(2) 0.013(2)
O22 0.091(5) 0.111(5) 0.067(4) 0.055(4) 0.058(4) 0.054(4)
O23 0.85(6) 0.133(13) 0.207(18) -0.071(12) 0.24(3) -0.14(2)
O24 0.099(8) 0.67(4) 0.32(2) 0.37(3) 0.115(10) 0.155(15)
OW4 1.25(13) 0.43(5) 1.19(12) -0.56(7) -0.96(11) 0.27(6)
OW5 1.45(15) 0.67(7) 1.09(11) -0.79(9) -0.82(12) 0.74(9)
OW6 2.0(2) 0.78(10) 0.30(4) 0.33(6) -0.31(9) -1.00(13)

_geom_special_details            
;
 All esds (except the esd in the dihedral angle between two l.s. planes)
 are estimated using the full covariance matrix.  The cell esds are taken
 into account individually in the estimation of esds in distances, angles
 and torsion angles; correlations between esds in cell parameters are only
 used when they are defined by crystal symmetry.  An approximate (isotropic)
 treatment of cell esds is used for estimating esds involving l.s. planes.
;

loop_
_geom_bond_atom_site_label_1
_geom_bond_atom_site_label_2
_geom_bond_distance
_geom_bond_site_symmetry_2
_geom_bond_publ_flag
Gd1 O20 2.300(5) . ?
Gd1 O10 2.338(4) . ?
Gd1 O16 2.365(7) . ?
Gd1 O17 2.374(4) . ?
Gd1 O1W 2.397(8) . ?
Gd1 O1 2.429(5) . ?
Gd1 O3W 2.434(5) . ?
Gd1 O2W 2.460(5) . ?
C1 O2 1.244(9) . ?
C1 O1 1.248(9) . ?
C1 C2 1.515(8) . ?
C2 C3 1.367(9) . ?
C2 C7 1.395(10) . ?
C3 C4 1.382(8) . ?
C3 H3 0.9300 . ?
C4 C5 1.405(9) . ?
C4 N1 1.447(9) . ?
C5 C6 1.395(9) . ?
C5 C8 1.501(8) . ?
C6 C7 1.371(8) . ?
C6 N2 1.473(9) . ?
C7 H7 0.9300 . ?
C8 C13 1.388(9) . ?
C8 C9 1.394(9) . ?
C9 C10 