####################################################################### 
# 
# This file contains crystal structure data downloaded from the 
# Cambridge Structural Database (CSD) hosted by the Cambridge 
# Crystallographic Data Centre (CCDC).
# 
# Full information about CCDC data access policies and citation 
# guidelines are available at http://www.ccdc.cam.ac.uk/access/V1 
# 
# Audit and citation data items may have been added by the CCDC. 
# Please retain this information to preserve the provenance of 
# this file and to allow appropriate attribution of the data. 
# 
#######################################################################

data_1c
_audit_block_doi                 10.5517/cc13n4xt
_database_code_depnum_ccdc_archive 'CCDC 1032266'
loop_
_citation_id
_citation_doi
_citation_year
1 10.1039/C4QI00193A 2015
_audit_update_record             
;
2014-11-01 deposited with the CCDC.	2024-07-14 downloaded from the CCDC.
;

_audit_creation_method           SHELXL-97
_chemical_name_systematic        
;
 ?
;
_chemical_name_common            ?
_chemical_melting_point          ?
_chemical_formula_moiety         'C38 H34 Gd N9 O26'
_chemical_formula_sum            'C38 H34 Gd N9 O26'
_chemical_formula_weight         1189.99

loop_
_atom_type_symbol
_atom_type_description
_atom_type_scat_dispersion_real
_atom_type_scat_dispersion_imag
_atom_type_scat_source
C C 0.0033 0.0016 'International Tables Vol C Tables 4.2.6.8 and 6.1.1.4'
H H 0.0000 0.0000 'International Tables Vol C Tables 4.2.6.8 and 6.1.1.4'
N N 0.0061 0.0033 'International Tables Vol C Tables 4.2.6.8 and 6.1.1.4'
O O 0.0106 0.0060 'International Tables Vol C Tables 4.2.6.8 and 6.1.1.4'
Gd Gd -0.1653 3.9035 'International Tables Vol C Tables 4.2.6.8 and 6.1.1.4'

_symmetry_cell_setting           monoclinic
_symmetry_space_group_name_H-M   C2/c

loop_
_symmetry_equiv_pos_as_xyz
'x, y, z'
'-x, y, -z+1/2'
'x+1/2, y+1/2, z'
'-x+1/2, y+1/2, -z+1/2'
'-x, -y, -z'
'x, -y, z-1/2'
'-x+1/2, -y+1/2, -z'
'x+1/2, -y+1/2, z-1/2'

_cell_length_a                   25.466(5)
_cell_length_b                   14.961(5)
_cell_length_c                   26.140(5)
_cell_angle_alpha                90.000(5)
_cell_angle_beta                 94.842(5)
_cell_angle_gamma                90.000(5)
_cell_volume                     9924(4)
_cell_formula_units_Z            8
_cell_measurement_temperature    100(2)
_cell_measurement_reflns_used    999
_cell_measurement_theta_min      4.15
_cell_measurement_theta_max      25.02

_exptl_crystal_description       block
_exptl_crystal_colour            colorless
_exptl_crystal_size_max          0.22
_exptl_crystal_size_mid          0.16
_exptl_crystal_size_min          0.12
_exptl_crystal_density_meas      ?
_exptl_crystal_density_diffrn    1.593
_exptl_crystal_density_method    'not measured'
_exptl_crystal_F_000             4776
_exptl_absorpt_coefficient_mu    1.433
_exptl_absorpt_correction_type   empirical
_exptl_absorpt_correction_T_min  0.7433
_exptl_absorpt_correction_T_max  0.8468
_exptl_absorpt_process_details   sadabs

_exptl_special_details           
;
 ?
;

_diffrn_ambient_temperature      100(2)
_diffrn_radiation_wavelength     0.71073
_diffrn_radiation_type           MoK\a
_diffrn_radiation_source         'fine-focus sealed tube'
_diffrn_radiation_monochromator  graphite
_diffrn_measurement_device_type  'BRUKER SMART APEX'
_diffrn_measurement_method       /w-scans
_diffrn_detector_area_resol_mean ?
_diffrn_standards_number         ?
_diffrn_standards_interval_count ?
_diffrn_standards_interval_time  ?
_diffrn_standards_decay_%        ?
_diffrn_reflns_number            25478
_diffrn_reflns_av_R_equivalents  0.0930
_diffrn_reflns_av_sigmaI/netI    0.1002
_diffrn_reflns_limit_h_min       -27
_diffrn_reflns_limit_h_max       30
_diffrn_reflns_limit_k_min       -17
_diffrn_reflns_limit_k_max       16
_diffrn_reflns_limit_l_min       -31
_diffrn_reflns_limit_l_max       23
_diffrn_reflns_theta_min         4.15
_diffrn_reflns_theta_max         25.02
_reflns_number_total             8722
_reflns_number_gt                5767
_reflns_threshold_expression     >2sigma(I)

_computing_data_collection       ?
_computing_cell_refinement       ?
_computing_data_reduction        ?
_computing_structure_solution    ?
_computing_structure_refinement  'SHELXL-97 (Sheldrick, 1997)'
_computing_molecular_graphics    ?
_computing_publication_material  ?

_refine_special_details          
;
 Refinement of F^2^ against ALL reflections.  The weighted R-factor wR and
 goodness of fit S are based on F^2^, conventional R-factors R are based
 on F, with F set to zero for negative F^2^. The threshold expression of
 F^2^ > 2sigma(F^2^) is used only for calculating R-factors(gt) etc. and is
 not relevant to the choice of reflections for refinement.  R-factors based
 on F^2^ are statistically about twice as large as those based on F, and R-
 factors based on ALL data will be even larger.
;

_refine_ls_structure_factor_coef Fsqd
_refine_ls_matrix_type           full
_refine_ls_weighting_scheme      calc
_refine_ls_weighting_details     
'calc w=1/[\s^2^(Fo^2^)+(0.1573P)^2^+1.9482P] where P=(Fo^2^+2Fc^2^)/3'
_atom_sites_solution_primary     direct
_atom_sites_solution_secondary   difmap
_atom_sites_solution_hydrogens   geom
_refine_ls_hydrogen_treatment    mixed
_refine_ls_extinction_method     none
_refine_ls_extinction_coef       ?
_refine_ls_number_reflns         8722
_refine_ls_number_parameters     612
_refine_ls_number_restraints     17
_refine_ls_R_factor_all          0.1222
_refine_ls_R_factor_gt           0.0831
_refine_ls_wR_factor_ref         0.2520
_refine_ls_wR_factor_gt          0.2171
_refine_ls_goodness_of_fit_ref   1.026
_refine_ls_restrained_S_all      1.029
_refine_ls_shift/su_max          0.000
_refine_ls_shift/su_mean         0.000

loop_
_atom_site_label
_atom_site_type_symbol
_atom_site_fract_x
_atom_site_fract_y
_atom_site_fract_z
_atom_site_U_iso_or_equiv
_atom_site_adp_type
_atom_site_occupancy
_atom_site_symmetry_multiplicity
_atom_site_calc_flag
_atom_site_refinement_flags
_atom_site_disorder_assembly
_atom_site_disorder_group
Gd1 Gd 0.348238(18) 0.26371(3) 0.006582(18) 0.0370(2) Uani 1 1 d . . .
C1 C 0.2432(4) 0.3197(6) -0.0799(4) 0.041(2) Uani 1 1 d . . .
C2 C 0.2555(4) 0.3515(7) -0.1317(4) 0.044(3) Uani 1 1 d . . .
C3 C 0.2201(4) 0.3387(7) -0.1748(4) 0.045(3) Uani 1 1 d . . .
H3 H 0.1878 0.3114 -0.1711 0.054 Uiso 1 1 calc R . .
C4 C 0.2322(4) 0.3659(7) -0.2227(4) 0.049(3) Uani 1 1 d . . .
C5 C 0.2780(4) 0.4124(7) -0.2315(4) 0.047(3) Uani 1 1 d . . .
C6 C 0.3121(4) 0.4249(7) -0.1875(4) 0.047(3) Uani 1 1 d . . .
C7 C 0.3039(4) 0.3943(7) -0.1384(4) 0.053(3) Uani 1 1 d . . .
H7 H 0.3294 0.4018 -0.1111 0.064 Uiso 1 1 calc R . .
C8 C 0.2918(4) 0.4413(7) -0.2844(4) 0.049(3) Uani 1 1 d . . .
C9 C 0.2738(4) 0.5245(8) -0.3054(4) 0.055(3) Uani 1 1 d . . .
C10 C 0.2873(4) 0.5558(8) -0.3512(4) 0.051(3) Uani 1 1 d . . .
H10 H 0.2754 0.6116 -0.3629 0.062 Uiso 1 1 calc R . .
C11 C 0.3182(4) 0.5061(7) -0.3802(4) 0.048(3) Uani 1 1 d . . .
C12 C 0.3371(4) 0.4233(7) -0.3614(4) 0.048(3) Uani 1 1 d . . .
H12 H 0.3589 0.3890 -0.3804 0.057 Uiso 1 1 calc R . .
C13 C 0.3232(4) 0.3932(7) -0.3145(4) 0.048(3) Uani 1 1 d . . .
C14 C 0.3347(4) 0.5384(7) -0.4321(4) 0.047(3) Uani 1 1 d . . .
C15 C 0.3691(4) 0.1825(7) -0.1126(4) 0.045(2) Uani 1 1 d . . .
C16 C 0.4078(4) 0.1913(6) -0.1541(3) 0.035(2) Uani 1 1 d . . .
C17 C 0.4042(4) 0.1361(6) -0.1957(4) 0.041(2) Uani 1 1 d . . .
H17 H 0.3780 0.0927 -0.1990 0.049 Uiso 1 1 calc R . .
C18 C 0.4393(4) 0.1442(6) -0.2332(4) 0.039(2) Uani 1 1 d . . .
C19 C 0.4801(3) 0.2065(7) -0.2304(4) 0.040(2) Uani 1 1 d . . .
C20 C 0.4825(4) 0.2627(6) -0.1869(4) 0.036(2) Uani 1 1 d . . .
C21 C 0.4470(4) 0.2555(6) -0.1493(4) 0.040(2) Uani 1 1 d . . .
H21 H 0.4497 0.2937 -0.1211 0.048 Uiso 1 1 calc R . .
C22 C 0.3649(8) 0.665(2) -0.1180(10) 0.29(3) Uani 1 1 d D . .
H22 H 0.3676 0.6894 -0.1503 0.350 Uiso 1 1 calc R . .
C23 C 0.3141 0.6342 -0.1077 0.157(10) Uani 1 1 d D . .
C24 C 0.3078(7) 0.5859(11) -0.0610(5) 0.138(8) Uani 1 1 d D . .
H24 H 0.3355 0.5802 -0.0356 0.165 Uiso 1 1 calc R . .
C25 C 0.2589 0.5479 -0.0551 0.110(7) Uani 1 1 d D . .
H25 H 0.2551 0.5130 -0.0262 0.132 Uiso 1 1 calc R . .
C26 C 0.2140 0.5596 -0.0911 0.141(9) Uani 1 1 d . . .
C27 C 0.1634 0.5189 -0.0859 0.166(11) Uani 1 1 d . . .
H27A H 0.1630 0.4933 -0.0522 0.248 Uiso 1 1 calc R . .
H27B H 0.1572 0.4729 -0.1113 0.248 Uiso 1 1 calc R . .
H27C H 0.1363 0.5634 -0.0907 0.248 Uiso 1 1 calc R . .
C28 C 0.2685(10) 0.6305(13) -0.1431(8) 0.168(14) Uani 1 1 d D . .
H28 H 0.2738 0.6540 -0.1753 0.202 Uiso 1 1 calc R . .
C29 C 0.4170(8) 0.343(2) 0.1795(10) 0.187(13) Uani 1 1 d . . .
H29A H 0.4303 0.3624 0.2132 0.281 Uiso 1 1 calc R . .
H29B H 0.4118 0.2796 0.1796 0.281 Uiso 1 1 calc R . .
H29C H 0.3841 0.3724 0.1700 0.281 Uiso 1 1 calc R . .
C30 C 0.4968(9) 0.4185(17) 0.1620(10) 0.201(14) Uani 1 1 d . . .
H30A H 0.4982 0.4257 0.1986 0.302 Uiso 1 1 calc R . .
H30B H 0.4935 0.4761 0.1459 0.302 Uiso 1 1 calc R . .
H30C H 0.5285 0.3901 0.1529 0.302 Uiso 1 1 calc R . .
C31 C 0.4445(5) 0.3438(10) 0.0972(5) 0.071(4) Uani 1 1 d . . .
C32 C 0.2180(11) 0.5988(14) -0.1392(9) 0.176(14) Uani 1 1 d D . .
H32 H 0.1906 0.6029 -0.1649 0.211 Uiso 1 1 calc R . .
C33 C 0.5436(11) 0.3595(10) -0.0157(7) 0.167(12) Uani 1 1 d D . .
H33 H 0.5723 0.3935 -0.0029 0.201 Uiso 1 1 calc R . .
C34 C 0.6171(11) 0.257(2) -0.0415(16) 0.234(17) Uiso 1 1 d D . .
H34A H 0.6296 0.2018 -0.0257 0.351 Uiso 1 1 calc R . .
H34B H 0.6397 0.3049 -0.0294 0.351 Uiso 1 1 calc R . .
H34C H 0.6175 0.2516 -0.0781 0.351 Uiso 1 1 calc R . .
C35 C 0.5265(10) 0.1951(18) -0.0214(12) 0.201(12) Uiso 1 1 d D . .
H35A H 0.5440 0.1422 -0.0320 0.302 Uiso 1 1 calc R . .
H35B H 0.4938 0.2024 -0.0420 0.302 Uiso 1 1 calc R . .
H35C H 0.5197 0.1895 0.0140 0.302 Uiso 1 1 calc R . .
C37 C 0.5682(17) 0.100(3) 0.132(2) 0.41(3) Uiso 1 1 d D . .
H37A H 0.6025 0.1048 0.1191 0.608 Uiso 1 1 calc R . .
H37B H 0.5717 0.0806 0.1666 0.608 Uiso 1 1 calc R . .
H37C H 0.5513 0.1577 0.1294 0.608 Uiso 1 1 calc R . .
C40 C 0.5459(10) -0.0177(17) 0.0532(8) 0.176(10) Uiso 1 1 d D . .
H40A H 0.5810 -0.0068 0.0439 0.264 Uiso 1 1 calc R . .
H40B H 0.5210 -0.0002 0.0254 0.264 Uiso 1 1 calc R . .
H40C H 0.5418 -0.0801 0.0603 0.264 Uiso 1 1 calc R . .
C41 C 0.4827(10) 0.042(4) 0.109(3) 0.52(5) Uiso 1 1 d D . .
H41 H 0.4595 -0.0005 0.0942 0.626 Uiso 1 1 calc R . .
N1 N 0.3627(4) 0.4720(7) -0.1918(4) 0.062(3) Uani 1 1 d . . .
N2 N 0.1927(4) 0.3449(6) -0.2653(3) 0.055(2) Uani 1 1 d . . .
N3 N 0.2398(4) 0.5818(8) -0.2759(4) 0.065(3) Uani 1 1 d . . .
N4 N 0.3432(4) 0.3011(9) -0.2992(6) 0.074(4) Uani 1 1 d . . .
N5 N 0.5248(3) 0.3286(6) -0.1772(4) 0.048(2) Uani 1 1 d . . .
N6 N 0.4317(3) 0.0849(6) -0.2780(4) 0.054(2) Uani 1 1 d . . .
N7 N 0.4523(4) 0.3646(7) 0.1451(4) 0.069(3) Uani 1 1 d . . .
N8 N 0.5609(8) 0.2748(13) -0.0279(9) 0.157(7) Uiso 1 1 d D . .
N9 N 0.5365 0.0359 0.1003 2.0(5) Uiso 1 1 d D . .
O1 O 0.2778(3) 0.3201(4) -0.0445(3) 0.0432(16) Uani 1 1 d . . .
O2 O 0.1958(3) 0.2919(5) -0.0763(3) 0.0543(19) Uani 1 1 d . . .
O1W O 0.3936(4) 0.3943(5) -0.0228(3) 0.075(3) Uani 1 1 d . . .
O3 O 0.4010(3) 0.4471(6) -0.1630(3) 0.075(3) Uani 1 1 d . . .
O2W O 0.4114(4) 0.1476(8) 0.0190(6) 0.136(5) Uani 1 1 d . . .
O4 O 0.3633(3) 0.5336(6) -0.2219(3) 0.085(3) Uani 1 1 d . . .
O3W O 0.3000(3) 0.1312(4) -0.0274(3) 0.0481(17) Uani 1 1 d . . .
O5 O 0.1486(3) 0.3207(6) -0.2561(3) 0.065(2) Uani 1 1 d . . .
O6 O 0.2065(3) 0.3454(7) -0.3099(3) 0.081(3) Uani 1 1 d . . .
O7 O 0.3463(4) 0.2875(9) -0.2533(5) 0.122(5) Uani 1 1 d . . .
O8 O 0.3563(5) 0.2508(6) -0.3318(5) 0.079(3) Uani 1 1 d . . .
O9 O 0.2046(3) 0.5462(7) -0.2555(4) 0.083(3) Uani 1 1 d . . .
O10 O 0.2513(4) 0.6624(7) -0.2745(3) 0.072(2) Uani 1 1 d . . .
O11 O 0.3687(4) 0.4923(5) -0.4514(3) 0.072(3) Uani 1 1 d . . .
O12 O 0.3143(3) 0.6088(5) -0.4494(3) 0.0493(18) Uani 1 1 d . . .
O13 O 0.3782(3) 0.2304(5) -0.0740(3) 0.066(3) Uani 1 1 d . . .
O14 O 0.3321(3) 0.1298(5) -0.1210(3) 0.0535(19) Uani 1 1 d . . .
O15 O 0.5342(3) 0.3569(7) -0.1348(3) 0.078(3) Uani 1 1 d . . .
O16 O 0.5484(3) 0.3526(5) -0.2141(3) 0.063(2) Uani 1 1 d . . .
O17 O 0.4121(4) 0.0121(6) -0.2702(3) 0.084(3) Uani 1 1 d . . .
O18 O 0.4431(3) 0.1116(5) -0.3198(3) 0.066(2) Uani 1 1 d . . .
O20 O 0.4090(4) 0.3005(7) 0.0797(5) 0.102(4) Uani 1 1 d . . .
O22 O 0.4040(7) 0.6628(11) -0.0908(7) 0.184(8) Uani 1 1 d D . .
O23 O 0.5007(7) 0.408(2) -0.0158(10) 0.40(3) Uani 1 1 d D . .
O24 O 0.4656(13) 0.1012(14) 0.1340(11) 1.10(12) Uani 1 1 d D . .
OW4 O 0.7293(13) 0.271(2) -0.0425(14) 0.314(16) Uiso 1 1 d . . .

loop_
_atom_site_aniso_label
_atom_site_aniso_U_11
_atom_site_aniso_U_22
_atom_site_aniso_U_33
_atom_site_aniso_U_23
_atom_site_aniso_U_13
_atom_site_aniso_U_12
Gd1 0.0417(3) 0.0371(3) 0.0340(3) -0.0036(2) 0.0140(2) -0.0058(2)
C1 0.063(6) 0.034(5) 0.026(6) 0.003(4) 0.003(5) -0.013(5)
C2 0.047(5) 0.051(6) 0.034(6) 0.023(5) 0.002(5) -0.017(5)
C3 0.049(6) 0.054(6) 0.032(6) 0.020(5) 0.008(5) -0.023(5)
C4 0.055(6) 0.060(7) 0.030(6) 0.016(5) -0.009(5) -0.016(5)
C5 0.049(6) 0.056(7) 0.038(6) 0.021(5) 0.009(5) -0.009(5)
C6 0.051(6) 0.045(6) 0.042(6) 0.023(5) -0.006(5) -0.021(5)
C7 0.070(7) 0.040(6) 0.048(7) 0.015(5) -0.006(6) -0.019(5)
C8 0.052(6) 0.058(7) 0.035(6) 0.032(5) -0.010(5) -0.022(5)
C9 0.039(5) 0.086(8) 0.040(7) 0.028(6) 0.006(5) 0.010(5)
C10 0.052(6) 0.057(7) 0.045(7) 0.033(5) 0.002(5) 0.001(5)
C11 0.055(6) 0.051(6) 0.038(6) 0.012(5) 0.002(5) -0.009(5)
C12 0.048(6) 0.055(6) 0.038(6) 0.020(5) -0.010(5) -0.009(5)
C13 0.032(5) 0.066(7) 0.048(7) 0.031(5) 0.007(5) -0.005(5)
C14 0.068(7) 0.044(6) 0.029(6) 0.008(5) 0.000(5) -0.019(5)
C15 0.044(5) 0.046(6) 0.046(7) -0.016(5) 0.016(5) -0.004(5)
C16 0.044(5) 0.034(5) 0.029(5) -0.001(4) 0.013(4) 0.000(4)
C17 0.042(5) 0.041(5) 0.042(6) 0.001(4) 0.015(5) -0.005(4)
C18 0.044(5) 0.038(5) 0.035(6) -0.002(4) 0.009(4) 0.003(4)
C19 0.031(5) 0.053(6) 0.037(6) -0.004(5) 0.011(4) 0.000(4)
C20 0.036(5) 0.035(5) 0.039(6) -0.003(4) 0.011(4) 0.001(4)
C21 0.037(5) 0.041(5) 0.043(6) -0.009(4) 0.012(5) 0.010(4)
C22 0.38(5) 0.34(5) 0.15(3) -0.08(3) -0.03(3) -0.22(5)
C23 0.24(3) 0.085(13) 0.14(2) 0.031(13) -0.03(2) -0.059(16)
C24 0.20(2) 0.089(13) 0.111(17) -0.013(11) -0.048(15) -0.045(14)
C25 0.199(19) 0.040(8) 0.082(12) 0.011(7) -0.047(12) 0.018(10)
C26 0.186(19) 0.037(8) 0.18(2) 0.005(10) -0.079(17) 0.021(10)
C27 0.149(17) 0.069(12) 0.26(3) -0.017(15) -0.073(19) 0.028(12)
C28 0.36(4) 0.052(11) 0.078(14) 0.006(9) -0.09(2) 0.022(18)
C29 0.122(17) 0.29(4) 0.15(2) 0.07(2) 0.060(17) 0.07(2)
C30 0.20(2) 0.18(2) 0.20(3) 0.068(19) -0.12(2) -0.126(19)
C31 0.064(8) 0.090(10) 0.058(9) -0.016(7) -0.003(7) 0.000(7)
C32 0.31(4) 0.067(14) 0.13(2) 0.023(13) -0.09(2) 0.036(18)
C33 0.38(4) 0.050(9) 0.062(12) 0.008(8) -0.015(17) -0.056(16)
N1 0.060(6) 0.076(7) 0.049(6) 0.030(5) -0.004(5) -0.027(5)
N2 0.060(6) 0.073(7) 0.033(6) 0.013(4) 0.003(4) -0.017(5)
N3 0.063(6) 0.082(8) 0.050(7) 0.035(6) 0.008(5) 0.006(6)
N4 0.051(6) 0.078(8) 0.095(10) 0.068(8) 0.022(6) 0.008(6)
N5 0.050(5) 0.048(5) 0.048(6) -0.007(4) 0.014(5) -0.006(4)
N6 0.059(5) 0.041(5) 0.065(7) -0.016(4) 0.027(5) -0.016(4)
N7 0.083(7) 0.074(7) 0.051(7) 0.001(5) 0.005(6) -0.011(6)
O1 0.064(4) 0.038(4) 0.027(4) 0.002(3) 0.005(3) -0.006(3)
O2 0.079(5) 0.049(4) 0.035(4) 0.015(3) 0.007(4) -0.025(4)
O1W 0.112(6) 0.068(5) 0.052(5) -0.022(4) 0.046(5) -0.052(5)
O3 0.054(5) 0.092(6) 0.074(6) 0.032(5) -0.014(4) -0.027(4)
O2W 0.101(7) 0.097(8) 0.198(14) -0.041(8) -0.054(8) 0.056(7)
O4 0.075(5) 0.108(7) 0.068(6) 0.064(6) -0.019(4) -0.051(5)
O3W 0.060(4) 0.030(3) 0.057(5) -0.004(3) 0.019(4) 0.002(3)
O5 0.041(4) 0.101(7) 0.052(5) 0.009(4) 0.001(4) -0.032(4)
O6 0.085(6) 0.119(8) 0.039(5) 0.012(5) 0.005(4) -0.039(6)
O7 0.107(8) 0.163(11) 0.107(9) 0.099(9) 0.067(7) 0.077(8)
O8 0.099(8) 0.045(5) 0.091(9) 0.015(5) 0.002(7) -0.003(5)
O9 0.057(5) 0.119(8) 0.078(7) 0.061(6) 0.036(5) 0.026(5)
O10 0.089(6) 0.084(7) 0.048(6) 0.011(4) 0.023(5) 0.009(5)
O11 0.141(8) 0.039(4) 0.040(5) 0.004(3) 0.023(5) 0.023(5)
O12 0.058(4) 0.050(4) 0.042(4) 0.027(3) 0.014(3) 0.003(3)
O13 0.054(4) 0.082(6) 0.067(6) -0.048(5) 0.042(4) -0.028(4)
O14 0.052(4) 0.065(5) 0.047(5) -0.021(4) 0.024(4) -0.018(4)
O15 0.080(6) 0.110(7) 0.047(6) -0.027(5) 0.012(4) -0.052(5)
O16 0.072(5) 0.060(5) 0.060(6) -0.013(4) 0.030(4) -0.028(4)
O17 0.136(8) 0.058(5) 0.066(6) -0.017(4) 0.054(6) -0.029(5)
O18 0.091(6) 0.059(5) 0.052(5) -0.019(4) 0.043(5) -0.031(4)
O20 0.081(6) 0.081(7) 0.133(10) 0.005(7) -0.052(7) -0.025(6)
O22 0.225(17) 0.156(14) 0.155(16) -0.019(11) -0.079(13) -0.075(13)
O23 0.168(15) 0.60(5) 0.48(4) -0.47(4) 0.24(2) -0.22(2)
O24 2.0(2) 0.43(5) 0.68(8) 0.48(6) -0.99(13) -0.86(11)

_geom_special_details            
;
 All esds (except the esd in the dihedral angle between two l.s. planes)
 are estimated using the full covariance matrix.  The cell esds are taken
 into account individually in the estimation of esds in distances, angles
 and torsion angles; correlations between esds in cell parameters are only
 used when they are defined by crystal symmetry.  An approximate (isotropic)
 treatment of cell esds is used for estimating esds involving l.s. planes.
;

loop_
_geom_bond_atom_site_label_1
_geom_bond_atom_site_label_