
#######################################################################
#
#                 Cambridge Crystallographic Data Centre
#                                CCDC
#
#######################################################################
#
# If this CIF has been generated from an entry in the Cambridge
# Structural Database, then it will include bibliographic, chemical,
# crystal, experimental, refinement or atomic coordinate data resulting
# from the CCDC's data processing and validation procedures.
#
#######################################################################

data_CSD_CIF_YUHROI
_audit_creation_date 1995-10-10
_audit_creation_method CSD-ConQuest-V1
_database_code_CSD YUHROI
_database_code_depnum_ccdc_archive 'CCDC 1022068'
_chemical_formula_sum 'C11 H12 Cl3 F3 N2 Os1'
_chemical_formula_moiety
;
C11 H12 N2 2+,Cl3 F3 Os1 2-
;
_journal_coeditor_code "IUCr JZ1030"
_journal_coden_Cambridge 591
_journal_volume 51
_journal_year 1995
_journal_page_first 1112
_journal_name_full 'Acta Crystallogr.,Sect.C:Cryst.Struct.Commun. '
loop_
_publ_author_name
"C.Bruhn"
"W.Preetz"
_chemical_name_systematic
;
mer-N,N'-Methylenedipyridinium trichloro-trifluoro-osmium(iv)
;
_chemical_name_common
;
mer-Dipyridiniomethane trichloro-trifluoro-osmium(iv); Teaching Subset: 
Fundamental Chemistry, Symmetry
;
_cell_volume   1412.062
_exptl_crystal_colour 'pink'
_exptl_crystal_density_diffrn 2.473
_diffrn_ambient_temperature ?
_diffrn_special_details
;
The study was carried out at room temperature,in the range 283-303K

;
#These two values have been output from a single CSD field.
_refine_ls_R_factor_gt 0.0183
_refine_ls_wR_factor_gt 0.0183
loop_
_citation_database_id_CSD
_citation_special_details
YUHRIC "is a stereoisomer of this entry"
_symmetry_cell_setting monoclinic
_symmetry_space_group_name_H-M 'P 21/n'
_symmetry_Int_Tables_number 14
loop_
_symmetry_equiv_pos_site_id
_symmetry_equiv_pos_as_xyz
1 x,y,z
2 1/2-x,1/2+y,1/2-z
3 -x,-y,-z
4 -1/2+x,-1/2-y,-1/2+z
_cell_length_a 9.676(5)
_cell_length_b 14.046(3)
_cell_length_c 10.476(3)
_cell_angle_alpha 90
_cell_angle_beta 97.357(4)
_cell_angle_gamma 90
_cell_formula_units_Z 4
loop_
_atom_type_symbol
_atom_type_radius_bond
C 0.68
H 0.23
Cl 0.99
F 0.64
N 0.68
Os 1.37
loop_
_atom_site_label
_atom_site_type_symbol
_atom_site_fract_x
_atom_site_fract_y
_atom_site_fract_z
Os1 Os 0.44963(2) 0.225211(13) 0.55497(2)
Cl1 Cl 0.52155(13) 0.37830(9) 0.53482(12)
Cl2 Cl 0.26497(14) 0.27513(10) 0.65670(14)
Cl3 Cl 0.62901(14) 0.16791(10) 0.45067(13)
F1 F 0.5627(3) 0.2095(2) 0.7206(3)
F2 F 0.3839(3) 0.0931(2) 0.5714(3)
F3 F 0.3345(3) 0.2371(2) 0.3892(3)
N1 N 0.6841(4) 0.5026(3) 0.8098(3)
N2 N 0.8449(4) 0.4624(3) 0.6601(4)
C1 C 0.8323(5) 0.4957(4) 0.7934(5)
C2 C 0.6200(7) 0.5884(4) 0.7916(5)
C3 C 0.4815(7) 0.5958(5) 0.8046(5)
C4 C 0.4108(7) 0.5178(6) 0.8396(5)
C5 C 0.4773(6) 0.4304(5) 0.8561(5)
C6 C 0.6148(6) 0.4248(4) 0.8400(5)
C7 C 0.8126(5) 0.5226(4) 0.5602(5)
C8 C 0.8210(6) 0.4917(4) 0.4376(5)
C9 C 0.8646(5) 0.3999(4) 0.4177(5)
C10 C 0.8983(6) 0.3411(4) 0.5213(6)
C11 C 0.8866(6) 0.3729(4) 0.6428(5)
H1 H 0.8771(57) 0.4453(41) 0.8623(52)
H2 H 0.8676(46) 0.5592(34) 0.7957(41)
H3 H 0.6843(60) 0.6412(45) 0.7760(56)
H4 H 0.4357(65) 0.6601(49) 0.8004(56)
H5 H 0.3279(65) 0.5222(44) 0.8578(55)
H6 H 0.4328(71) 0.3762(50) 0.8762(65)
H7 H 0.6629(59) 0.3703(43) 0.8568(52)
H8 H 0.7881(58) 0.5843(43) 0.5882(53)
H9 H 0.8086(51) 0.5354(36) 0.3713(46)
H10 H 0.8789(66) 0.3710(49) 0.3304(65)
H11 H 0.9364(62) 0.2718(45) 0.5064(60)
H12 H 0.9089(56) 0.3345(42) 0.7135(53)
#END
