
#######################################################################
#
#                 Cambridge Crystallographic Data Centre
#                                CCDC
#
#######################################################################
#
# If this CIF has been generated from an entry in the Cambridge
# Structural Database, then it will include bibliographic, chemical,
# crystal, experimental, refinement or atomic coordinate data resulting
# from the CCDC's data processing and validation procedures.
#
#######################################################################

data_CSD_CIF_YUHRIC
_audit_creation_date 1995-10-10
_audit_creation_method CSD-ConQuest-V1
_database_code_CSD YUHRIC
_database_code_depnum_ccdc_archive 'CCDC 1022067'
_chemical_formula_sum 'C11 H12 Cl3 F3 N2 Os1'
_chemical_formula_moiety
;
C11 H12 N2 2+,Cl3 F3 Os1 2-
;
_journal_coeditor_code "IUCr JZ1030"
_journal_coden_Cambridge 591
_journal_volume 51
_journal_year 1995
_journal_page_first 1112
_journal_name_full 'Acta Crystallogr.,Sect.C:Cryst.Struct.Commun. '
loop_
_publ_author_name
"C.Bruhn"
"W.Preetz"
_chemical_name_systematic
;
fac-N,N'-Methylenedipyridinium trichloro-trifluoro-osmate(iv)
;
_chemical_name_common
;
fac-Dipyridiniomethane trichloro-trifluoro-osmate(iv); Teaching Subset: 
Fundamental Chemistry, Symmetry
;
_cell_volume   1444.494
_exptl_crystal_colour 'orange'
_exptl_crystal_density_diffrn 2.418
_diffrn_ambient_temperature ?
_diffrn_special_details
;
The study was carried out at room temperature,in the range 283-303K

;
#These two values have been output from a single CSD field.
_refine_ls_R_factor_gt 0.0187
_refine_ls_wR_factor_gt 0.0187
loop_
_citation_database_id_CSD
_citation_special_details
YUHROI "is a stereoisomer of this entry"
_symmetry_cell_setting triclinic
_symmetry_space_group_name_H-M 'P -1'
_symmetry_Int_Tables_number 2
loop_
_symmetry_equiv_pos_site_id
_symmetry_equiv_pos_as_xyz
1 x,y,z
2 -x,-y,-z
_cell_length_a 7.223(3)
_cell_length_b 13.9130(15)
_cell_length_c 14.9310(15)
_cell_angle_alpha 100.655(9)
_cell_angle_beta 101.33(3)
_cell_angle_gamma 90.32(2)
_cell_formula_units_Z 4
loop_
_atom_type_symbol
_atom_type_radius_bond
C 0.68
H 0.23
Cl 0.99
F 0.64
N 0.68
Os 1.37
loop_
_atom_site_label
_atom_site_type_symbol
_atom_site_fract_x
_atom_site_fract_y
_atom_site_fract_z
Os1 Os 0.08135(2) 0.743535(11) 0.716558(10)
Cl1 Cl 0.0457(2) 0.58840(8) 0.62422(7)
Cl2 Cl -0.2303(2) 0.74164(9) 0.73219(9)
Cl3 Cl 0.1849(2) 0.68734(10) 0.85412(8)
F1 F 0.0098(4) 0.7957(2) 0.6033(2)
F2 F 0.1204(4) 0.8786(2) 0.7842(2)
F3 F 0.3427(3) 0.7518(2) 0.7024(2)
Os2 Os 0.02144(2) 0.228196(11) 0.788450(11)
Cl4 Cl -0.2961(2) 0.22074(9) 0.71695(8)
Cl5 Cl 0.0408(2) 0.39441(8) 0.78529(8)
Cl6 Cl 0.1186(2) 0.18417(10) 0.64789(9)
F4 F 0.0072(4) 0.0905(2) 0.7975(2)
F5 F -0.0482(4) 0.2566(2) 0.9096(2)
F6 F 0.2838(4) 0.2317(2) 0.8551(2)
C1 C 0.4389(7) 0.5242(3) 0.7390(3)
N1 N 0.4770(5) 0.4584(3) 0.6562(2)
N2 N 0.5584(5) 0.5044(3) 0.8245(2)
C2 C 0.3386(6) 0.3968(3) 0.6020(3)
C3 C 0.3661(7) 0.3425(4) 0.5201(3)
C4 C 0.5364(8) 0.3504(4) 0.4942(3)
C5 C 0.6781(8) 0.4107(4) 0.5525(4)
C6 C 0.6469(7) 0.4653(4) 0.6329(3)
C7 C 0.5385(7) 0.4175(3) 0.8507(3)
C8 C 0.6380(7) 0.4019(4) 0.9333(3)
C9 C 0.7562(7) 0.4754(4) 0.9912(3)
C10 C 0.7749(8) 0.5627(4) 0.9640(3)
C11 C 0.6752(7) 0.5766(4) 0.8796(3)
H1 H 0.4601(63) 0.5931(35) 0.7363(30)
H2 H 0.3105(85) 0.5156(40) 0.7430(37)
H3 H 0.2127(78) 0.3913(38) 0.6221(36)
H4 H 0.2779(84) 0.3036(42) 0.4854(40)
H5 H 0.5604(74) 0.3167(38) 0.4385(38)
H6 H 0.7774(96) 0.4163(48) 0.5435(45)
H7 H 0.7255(75) 0.5057(38) 0.6648(35)
H8 H 0.4577(76) 0.3773(39) 0.8138(36)
H9 H 0.6291(72) 0.3452(39) 0.9528(35)
H10 H 0.8116(81) 0.4656(41) 1.0475(41)
H11 H 0.8655(84) 0.6106(42) 1.0045(40)
H12 H 0.6820(75) 0.6293(41) 0.8620(36)
C12 C 0.4345(7) 0.0317(4) 0.7720(3)
N3 N 0.4748(5) -0.0236(3) 0.6853(3)
N4 N 0.5655(5) 0.0096(3) 0.8539(2)
C13 C 0.3276(7) -0.0660(4) 0.6189(4)
C14 C 0.3550(9) -0.1103(4) 0.5335(4)
C15 C 0.5337(9) -0.1131(4) 0.5165(4)
C16 C 0.6842(8) -0.0722(4) 0.5853(4)
C17 C 0.6523(7) -0.0270(3) 0.6698(3)
C18 C 0.6735(7) 0.0827(4) 0.9121(4)
C19 C 0.7793(8) 0.0663(5) 0.9931(4)
C20 C 0.7785(8) -0.0249(5) 1.0145(4)
C21 C 0.6716(8) -0.1007(5) 0.9521(4)
C22 C 0.5634(7) -0.0819(4) 0.8717(3)
H13 H 0.3156(90) 0.0176(43) 0.7738(40)
H14 H 0.4632(81) 0.1019(45) 0.7753(38)
H15 H 0.2104(78) -0.0622(37) 0.6359(35)
H16 H 0.2418(81) -0.1371(40) 0.4864(39)
H17 H 0.5547(94) -0.1348(49) 0.4632(48)
H18 H 0.7932(77) -0.0713(37) 0.5804(35)
H19 H 0.7452(66) 0.0019(32) 0.7111(31)
H20 H 0.6752(74) 0.1445(40) 0.8941(36)
H21 H 0.8275(80) 0.1128(42) 1.0272(40)
H22 H 0.8575(76) -0.0337(38) 1.0697(38)
H23 H 0.6566(90) -0.1568(48) 0.9680(44)
H24 H 0.4898(76) -0.1269(40) 0.8299(37)
#END
