####################################################################### 
# 
# This file contains crystal structure data downloaded from the 
# Cambridge Structural Database (CSD) hosted by the Cambridge 
# Crystallographic Data Centre (CCDC).
# 
# Full information about CCDC data access policies and citation 
# guidelines are available at http://www.ccdc.cam.ac.uk/access/V1 
# 
# Audit and citation data items may have been added by the CCDC. 
# Please retain this information to preserve the provenance of 
# this file and to allow appropriate attribution of the data. 
# 
#######################################################################

data_1
_audit_block_doi                 10.5517/ccrv0td
_database_code_depnum_ccdc_archive 'CCDC 710204'
loop_
_citation_id
_citation_doi
_citation_year
1 10.1002/chem.200901707 2009
_audit_update_record             
;
2008-11-19 deposited with the CCDC.	2024-07-14 downloaded from the CCDC.
;

_audit_creation_method           SHELXL-97
_chemical_name_systematic        
;
?
;
_chemical_name_common            ?
_chemical_melting_point          ?
_chemical_formula_moiety         'C30 H20 Mn2 N2 O12, 8(H2O)'
_chemical_formula_sum            'C30 H36 Mn2 N2 O20'
_chemical_formula_weight         854.49

loop_
_atom_type_symbol
_atom_type_description
_atom_type_scat_dispersion_real
_atom_type_scat_dispersion_imag
_atom_type_scat_source
C C 0.0033 0.0016 'International Tables Vol C Tables 4.2.6.8 and 6.1.1.4'
H H 0.0000 0.0000 'International Tables Vol C Tables 4.2.6.8 and 6.1.1.4'
N N 0.0061 0.0033 'International Tables Vol C Tables 4.2.6.8 and 6.1.1.4'
O O 0.0106 0.0060 'International Tables Vol C Tables 4.2.6.8 and 6.1.1.4'
Mn Mn 0.3368 0.7283 'International Tables Vol C Tables 4.2.6.8 and 6.1.1.4'

_symmetry_cell_setting           monoclinic
_symmetry_space_group_name_H-M   C2/m
_symmetry_space_group_name_Hall  -C_2y

loop_
_symmetry_equiv_pos_as_xyz
'x, y, z'
'-x, y, -z'
'x+1/2, y+1/2, z'
'-x+1/2, y+1/2, -z'
'-x, -y, -z'
'x, -y, z'
'-x+1/2, -y+1/2, -z'
'x+1/2, -y+1/2, z'

_cell_length_a                   9.4700(16)
_cell_length_b                   17.125(3)
_cell_length_c                   12.7425(18)
_cell_angle_alpha                90.00
_cell_angle_beta                 95.697(13)
_cell_angle_gamma                90.00
_cell_volume                     2056.3(5)
_cell_formula_units_Z            2
_cell_measurement_temperature    294(2)
_cell_measurement_reflns_used    2450
_cell_measurement_theta_min      2.3784
_cell_measurement_theta_max      27.4719

_exptl_crystal_description       lamellar
_exptl_crystal_colour            Colorless
_exptl_crystal_size_max          0.3600
_exptl_crystal_size_mid          0.2500
_exptl_crystal_size_min          0.2500
_exptl_crystal_density_meas      ?
_exptl_crystal_density_diffrn    1.380
_exptl_crystal_density_method    'not measured'
_exptl_crystal_F_000             848
_exptl_absorpt_coefficient_mu    0.689
_exptl_absorpt_correction_type   Multi-scan
_exptl_absorpt_correction_T_min  0.7411
_exptl_absorpt_correction_T_max  1.0000
_exptl_absorpt_process_details   '(R.H. Blessing, 1995&1997)'

_exptl_special_details           
;
?
;

_diffrn_ambient_temperature      294(2)
_diffrn_radiation_wavelength     0.71073
_diffrn_radiation_type           MoK\a
_diffrn_radiation_source         'fine-focus sealed tube'
_diffrn_radiation_monochromator  graphite
_diffrn_measurement_device_type  'CCD area detector'
_diffrn_measurement_method       CCD_Profile_fitting
_diffrn_detector_area_resol_mean ?
_diffrn_standards_number         ?
_diffrn_standards_interval_count ?
_diffrn_standards_interval_time  ?
_diffrn_standards_decay_%        ?
_diffrn_reflns_number            7884
_diffrn_reflns_av_R_equivalents  0.0544
_diffrn_reflns_av_sigmaI/netI    0.0526
_diffrn_reflns_limit_h_min       -12
_diffrn_reflns_limit_h_max       10
_diffrn_reflns_limit_k_min       -18
_diffrn_reflns_limit_k_max       22
_diffrn_reflns_limit_l_min       -16
_diffrn_reflns_limit_l_max       16
_diffrn_reflns_theta_min         4.55
_diffrn_reflns_theta_max         27.48
_reflns_number_total             2368
_reflns_number_gt                1782
_reflns_threshold_expression     >2sigma(I)

_computing_data_collection       'CrystalClear (Rigaku/MSC Inc., 2005)'
_computing_cell_refinement       'CrystalClear (Rigaku/MSC Inc., 2005)'
_computing_data_reduction        'CrystalClear (Rigaku/MSC Inc., 2005)'
_computing_structure_solution    'SHELXS-97 (Sheldrick, 1990)'
_computing_structure_refinement  'SHELXL-97 (Sheldrick, 1997)'
_computing_molecular_graphics    ?
_computing_publication_material  ?

_refine_special_details          
;
Refinement of F^2^ against ALL reflections. The weighted R-factor wR and
goodness of fit S are based on F^2^, conventional R-factors R are based
on F, with F set to zero for negative F^2^. The threshold expression of
F^2^ > 2sigma(F^2^) is used only for calculating R-factors(gt) etc. and is
not relevant to the choice of reflections for refinement. R-factors based
on F^2^ are statistically about twice as large as those based on F, and R-
factors based on ALL data will be even larger.
;

_refine_ls_structure_factor_coef Fsqd
_refine_ls_matrix_type           full
_refine_ls_weighting_scheme      calc
_refine_ls_weighting_details     
'calc w=1/[\s^2^(Fo^2^)+(0.0745P)^2^+8.2905P] where P=(Fo^2^+2Fc^2^)/3'
_atom_sites_solution_primary     direct
_atom_sites_solution_secondary   difmap
_atom_sites_solution_hydrogens   geom
_refine_ls_hydrogen_treatment    mixed
_refine_ls_extinction_method     none
_refine_ls_extinction_coef       ?
_refine_ls_number_reflns         2368
_refine_ls_number_parameters     137
_refine_ls_number_restraints     0
_refine_ls_R_factor_all          0.0866
_refine_ls_R_factor_gt           0.0672
_refine_ls_wR_factor_ref         0.1927
_refine_ls_wR_factor_gt          0.1832
_refine_ls_goodness_of_fit_ref   1.117
_refine_ls_restrained_S_all      1.117
_refine_ls_shift/su_max          0.000
_refine_ls_shift/su_mean         0.000

loop_
_atom_site_label
_atom_site_type_symbol
_atom_site_fract_x
_atom_site_fract_y
_atom_site_fract_z
_atom_site_U_iso_or_equiv
_atom_site_adp_type
_atom_site_occupancy
_atom_site_symmetry_multiplicity
_atom_site_calc_flag
_atom_site_refinement_flags
_atom_site_disorder_assembly
_atom_site_disorder_group
Mn1 Mn 0.0000 0.34574(5) 0.0000 0.0347(3) Uani 1 2 d S . .
O1 O 0.0592(3) 0.43537(16) 0.1123(3) 0.0458(8) Uani 1 1 d . . .
O1WA O 0.456(3) 0.2533(16) -0.305(2) 0.224(11) Uiso 0.50 1 d P . .
O1WB O 0.343(4) 0.248(2) -0.325(3) 0.169(11) Uiso 0.30 1 d P . .
O1WC O 0.368(7) 0.724(4) 0.419(5) 0.21(2) Uiso 0.20 1 d P . .
O2 O 0.3205(3) 0.18130(17) 0.0915(3) 0.0424(7) Uani 1 1 d . . .
O2WA O 0.547(2) 0.5366(11) 0.4471(15) 0.232(8) Uiso 0.70 1 d P . .
O2WB O 0.396(5) 0.5000 0.416(3) 0.267(16) Uiso 0.60 2 d SP . .
O3 O 0.1305(3) 0.25735(17) 0.0946(3) 0.0417(7) Uani 1 1 d . . .
N1 N 0.8132(5) 0.5000 0.2491(4) 0.0354(10) Uani 1 2 d S . .
C1 C 0.9598(7) 0.5000 0.4472(5) 0.0422(14) Uani 1 2 d S . .
C2 C 0.9230(8) 0.5681(3) 0.3936(4) 0.0720(19) Uani 1 1 d . . .
H2A H 0.9475 0.6169 0.4258 0.086 Uiso 1 1 calc R . .
C3 C 0.8521(7) 0.5666(3) 0.2951(4) 0.0668(17) Uani 1 1 d . . .
H3A H 0.8303 0.6143 0.2590 0.080 Uiso 1 1 calc R . .
C4 C 0.7355(6) 0.5000 0.1404(4) 0.0328(11) Uani 1 2 d S . .
C5 C 0.5767(5) 0.5000 0.1442(4) 0.0286(10) Uani 1 2 d S . .
C6 C 0.5038(4) 0.4303(2) 0.1425(4) 0.0379(9) Uani 1 1 d . . .
H6A H 0.5544 0.3823 0.1443 0.045 Uiso 1 1 calc R . .
C7 C 0.3561(4) 0.4299(2) 0.1381(4) 0.0378(9) Uani 1 1 d . . .
H7A H 0.3065 0.3818 0.1387 0.045 Uiso 1 1 calc R . .
C8 C 0.2813(5) 0.5000 0.1328(4) 0.0283(10) Uani 1 2 d S . .
C9 C 0.1225(5) 0.5000 0.1175(4) 0.0315(11) Uani 1 2 d S . .
C10 C 0.2359(4) 0.2323(2) 0.0531(4) 0.0340(9) Uani 1 1 d . . .
H4A H 0.766(5) 0.550(3) 0.108(4) 0.047(13) Uiso 1 1 d . . .

loop_
_atom_site_aniso_label
_atom_site_aniso_U_11
_atom_site_aniso_U_22
_atom_site_aniso_U_33
_atom_site_aniso_U_23
_atom_site_aniso_U_13
_atom_site_aniso_U_12
Mn1 0.0206(4) 0.0219(4) 0.0616(6) 0.000 0.0037(3) 0.000
O1 0.0301(14) 0.0278(14) 0.079(2) -0.0080(14) 0.0023(14) -0.0054(11)
O2 0.0315(14) 0.0343(14) 0.0612(19) 0.0121(13) 0.0032(13) 0.0075(12)
O3 0.0329(15) 0.0334(14) 0.0608(19) 0.0088(13) 0.0142(13) 0.0078(12)
N1 0.029(2) 0.042(3) 0.034(2) 0.000 -0.0038(19) 0.000
C1 0.043(3) 0.039(3) 0.042(3) 0.000 -0.010(3) 0.000
C2 0.115(5) 0.037(3) 0.055(3) -0.002(2) -0.038(3) -0.008(3)
C3 0.097(4) 0.039(3) 0.057(3) 0.005(2) -0.032(3) -0.008(3)
C4 0.026(3) 0.041(3) 0.030(3) 0.000 -0.002(2) 0.000
C5 0.023(2) 0.035(3) 0.027(2) 0.000 -0.0010(19) 0.000
C6 0.0297(19) 0.0293(19) 0.053(2) -0.0030(17) -0.0018(17) 0.0049(15)
C7 0.0301(19) 0.0244(18) 0.058(3) -0.0015(17) -0.0017(18) -0.0027(15)
C8 0.021(2) 0.027(2) 0.036(3) 0.000 0.000(2) 0.000
C9 0.025(2) 0.031(3) 0.037(3) 0.000 -0.001(2) 0.000
C10 0.0235(18) 0.0216(16) 0.057(2) 0.0014(16) 0.0031(16) 0.0003(13)

_geom_special_details            
;
All esds (except the esd in the dihedral angle between two l.s. planes)
are estimated using the full covariance matrix. The cell esds are taken
into account individually in the estimation of esds in distances, angles
and torsion angles; correlations between esds in cell parameters are only
used when they are defined by crystal symmetry. An approximate (isotropic)
treatment of cell esds is used for estimating esds involving l.s. planes.
;

loop_
_geom_bond_atom_site_label_1
_geom_bond_atom_site_label_2
_geom_bond_distance
_geom_bond_site_symmetry_2
_geom_bond_publ_flag
Mn1 O1 2.135(3) . ?
Mn1 O1 2.135(3) 2 ?
Mn1 O2 2.204(3) 8_455 ?
Mn1 O2 2.204(3) 7 ?
Mn1 O3 2.231(3) 2 ?
Mn1 O3 2.231(3) . ?
O1 C9 1.257(4) . ?
O1WA O1WB 1.08(4) . ?
O2 C10 1.252(5) . ?
O2 Mn1 2.204(3) 7 ?
O2WA O2WA 1.25(4) 6_565 ?
O2WA O2WB 1.58(4) . ?
O2WA O2WA 1.69(4) 2_656 ?
O2WB O2WA 1.58(4) 6_565 ?
O3 C10 1.250(5) . ?
N1 C3 1.317(5) . ?
N1 C3 1.317(5) 6_565 ?
N1 C4 1.503(7) . ?
C1 C2 1.379(6) 6_565 ?
C1 C2 1.379(6) . ?
C1 C1 1.479(12) 5_766 ?
C2 C3 1.364(7) . ?
C2 H2A 0.9500 . ?
C3 H3A 0.9500 . ?
C4 C5 1.510(7) . ?
C4 H4A 1.01(5) . ?
C5 C6 1.378(5) . ?
C5 C6 1.378(5) 6_565 ?
C6 C7 1.394(6) . ?
C6 H6A 0.9500 . ?
C7 C8 1.392(5) . ?
C7 H7A 0.9500 . ?
C8 C7 1.392(5) 6_565 ?
C8 C9 1.497(7) . ?
C9 O1 1.257(4) 6_565 ?
C10 C10 1.531(9) 7 ?

loop_
_geom_angle_atom_site_label_1
_geom_angle_atom_site_label_2
_geom_angle_atom_site_label_3
_geom_angle
_geom_angle_site_symmetry_1
_geom_angle_site_symmetry_3
_geom_angle_publ_flag
O1 Mn1 O1 88.09(18) . 2 ?
O1 Mn1 O2 87.77(11) . 8_455 ?
O1 Mn1 O2 109.93(12) 2 8_455 ?
O1 Mn1 O2 109.93(12) . 7 ?
O1 Mn1 O2 87.77(11) 2 7 ?
O2 Mn1 O2 155.75(16) 8_455 7 ?
O1 Mn1 O3 160.82(11) . 2 ?
O1 Mn1 O3 91.78(12) 2 2 ?
O2 Mn1 O3 74.24(11) 8_455 2 ?
O2 Mn1 O3 89.23(11) 7 2 ?
O1 Mn1 O3 91.78(12) . . ?
O1 Mn1 O3 160.82(11) 2 . ?
O2 Mn1 O3 89.23(11) 8_455 . ?
O2 Mn1 O3 74.24(11) 7 . ?
O3 Mn1 O3 94.52(17) 2 . ?
C9 O1 Mn1 139.5(4) . . ?
C10 O2 Mn1 115.9(3) . 7 ?
O2WA O2WA O2WB 66.6(9) 6_565 . ?
O2WA O2WA O2WA 90.000(6) 6_565 2_656 ?
O2WB O2WA O2WA 70.1(19) . 2_656 ?
O2WA O2WB O2WA 46.8(19) . 6_565 ?
C10 O3 Mn1 115.3(3) . . ?
C3 N1 C3 119.8(5) . 6_565 ?
C3 N1 C4 120.0(3) . . ?
C3 N1 C4 120.0(3) 6_565 . ?
C2 C1 C2 115.5(6) 6_565 . ?
C2 C1 C1 122.2(3) 6_565 5_766 ?
C2 C1 C1 122.2(3) . 5_766 ?
C3 C2 C1 121.1(5) . . ?
C3 C2 H2A 119.4 . . ?
C1 C2 H2A 119.4 . . ?
N1 C3 C2 121.1(5) . . ?
N1 C3 H3A 119.5 . . ?
C2 C3 H3A 119.5 . . ?
N1 C4 C5 111.6(4) . . ?
N1 C4 H4A 104(3) . . ?
C5 C4 H4A 110(3) . . ?
C6 C5 C6 120.1(5) . 6_565 ?
C6 C5 C4 119.9(2) . . ?
C6 C5 C4 119.9(2) 6_565 . ?
C5 C6 C7 120.2(4) . . ?
C5 C6 H6A 119.9 . . ?
C7 C6 H6A 119.9 . . ?
C8 C7 C6 120.2(4) . . ?
C8 C7 H7A 119.9 . . ?
C6 C7 H7A 119.9 . . ?
C7 C8 C7 119.1(5) 6_565 . ?
C7 C8 C9 120.4(2) 6_565 . ?
C7 C8 C9 120.4(2) . . ?
O1 C9 O1 123.4(5) 6_565 . ?
O1 C9 C8 118.3(2) 6_565 . ?
O1 C9 C8 118.3(2) . . ?
O3 C10 O2 125.5(4) . . ?
O3 C10 C10 117.1(4) . 7 ?
O2 C10 C10 117.4(4) . 7 ?

_diffrn_measured_fraction_theta_max 0.969
_diffrn_reflns_theta_full        27.48
_diffrn_measured_fraction_theta_full 0.969
_refine_diff_density_max         1.079
_refine_diff_density_min         -0.455
_refine_diff_density_rms         0.088



