####################################################################### 
# 
# This file contains crystal structure data downloaded from the 
# Cambridge Structural Database (CSD) hosted by the Cambridge 
# Crystallographic Data Centre (CCDC).
# 
# Full information about CCDC data access policies and citation 
# guidelines are available at http://www.ccdc.cam.ac.uk/access/V1 
# 
# Audit and citation data items may have been added by the CCDC. 
# Please retain this information to preserve the provenance of 
# this file and to allow appropriate attribution of the data. 
# 
#######################################################################

data_shelx
_audit_block_doi                 10.5517/cc1j0y4m
_database_code_depnum_ccdc_archive 'CCDC 1401080'
loop_
_citation_id
_citation_doi
_citation_year
1 10.1039/C5DT01875G 2015
_audit_update_record             
;
2015-05-15 deposited with the CCDC.	2024-07-14 downloaded from the CCDC.
;

_audit_creation_method           SHELXL-2014/7
_shelx_SHELXL_version_number     2014/7
_chemical_name_systematic        ?
_chemical_name_common            ?
_chemical_melting_point          ?
_chemical_formula_moiety         
'Yb, 3(C10 H8 N2 O2), 3(C S O3 F3), 0.5(C H4 O), 3(C H CL3)'
_chemical_formula_sum            'C36.50 H29 Cl9 F9 N6 O15.50 S3 Yb'
_chemical_formula_weight         1558.93

loop_
_atom_type_symbol
_atom_type_description
_atom_type_scat_dispersion_real
_atom_type_scat_dispersion_imag
_atom_type_scat_source
C C 0.0181 0.0091 'International Tables Vol C Tables 4.2.6.8 and 6.1.1.4'
H H 0.0000 0.0000 'International Tables Vol C Tables 4.2.6.8 and 6.1.1.4'
F F 0.0727 0.0534 'International Tables Vol C Tables 4.2.6.8 and 6.1.1.4'
N N 0.0311 0.0180 'International Tables Vol C Tables 4.2.6.8 and 6.1.1.4'
O O 0.0492 0.0322 'International Tables Vol C Tables 4.2.6.8 and 6.1.1.4'
S S 0.3331 0.5567 'International Tables Vol C Tables 4.2.6.8 and 6.1.1.4'
Yb Yb -7.2108 4.4329 'International Tables Vol C Tables 4.2.6.8 and 6.1.1.4'
Cl Cl 0.3639 0.7018 'International Tables Vol C Tables 4.2.6.8 and 6.1.1.4'

_space_group_crystal_system      triclinic
_space_group_IT_number           2
_space_group_name_H-M_alt        'P -1'
_space_group_name_Hall           '-P 1'

_shelx_space_group_comment       
;
The symmetry employed for this shelxl refinement is uniquely defined
by the following loop, which should always be used as a source of
symmetry information in preference to the above space-group names.
They are only intended as comments.
;

loop_
_space_group_symop_operation_xyz
'x, y, z'
'-x, -y, -z'

_cell_length_a                   11.2221(8)
_cell_length_b                   16.3393(12)
_cell_length_c                   17.6442(11)
_cell_angle_alpha                65.394(7)
_cell_angle_beta                 76.958(6)
_cell_angle_gamma                74.365(6)
_cell_volume                     2808.8(4)
_cell_formula_units_Z            2
_cell_measurement_temperature    190(2)
_cell_measurement_reflns_used    5060
_cell_measurement_theta_min      3.2800
_cell_measurement_theta_max      61.4690

_exptl_crystal_description       block
_exptl_crystal_colour            colourless
_exptl_crystal_density_meas      ?
_exptl_crystal_density_method    ?
_exptl_crystal_density_diffrn    1.843
_exptl_crystal_F_000             1532
_exptl_transmission_factor_min   ?
_exptl_transmission_factor_max   ?
_exptl_crystal_size_max          0.40
_exptl_crystal_size_mid          0.20
_exptl_crystal_size_min          0.19
_exptl_absorpt_coefficient_mu    8.944

_exptl_absorpt_correction_type   multi-scan
_exptl_absorpt_correction_T_min  0.32847
_exptl_absorpt_correction_T_max  1.00000
_exptl_absorpt_process_details   
;
CrysAlisPro, Agilent Technologies,
Version 1.171.36.28 (release 01-02-2013 CrysAlis171 .NET)
(compiled Feb  1 2013,16:14:44)
Empirical absorption correction using spherical harmonics,
 implemented in SCALE3 ABSPACK scaling algorithm.
;
_exptl_absorpt_special_details   ?
_diffrn_ambient_temperature      190(2)
_diffrn_radiation_wavelength     1.5418
_diffrn_radiation_type           'Cu K\a'
_diffrn_radiation_source         'Enhance Ultra (Cu) X-ray Source'
_diffrn_radiation_monochromator  mirror
_diffrn_measurement_device_type  'Xcalibur, Sapphire3, Gemini ultra'
_diffrn_measurement_method       '\w scans'
_diffrn_detector_area_resol_mean 16.0696
_diffrn_reflns_number            16150
_diffrn_reflns_av_unetI/netI     0.0843
_diffrn_reflns_av_R_equivalents  0.0683
_diffrn_reflns_limit_h_min       -12
_diffrn_reflns_limit_h_max       11
_diffrn_reflns_limit_k_min       -18
_diffrn_reflns_limit_k_max       18
_diffrn_reflns_limit_l_min       -20
_diffrn_reflns_limit_l_max       12
_diffrn_reflns_theta_min         3.035
_diffrn_reflns_theta_max         61.669
_diffrn_reflns_theta_full        61.669
_diffrn_measured_fraction_theta_max 0.972
_diffrn_measured_fraction_theta_full 0.972
_diffrn_reflns_Laue_measured_fraction_max 0.972
_diffrn_reflns_Laue_measured_fraction_full 0.972
_diffrn_reflns_point_group_measured_fraction_max 0.972
_diffrn_reflns_point_group_measured_fraction_full 0.972
_reflns_number_total             8516
_reflns_number_gt                6869
_reflns_threshold_expression     'I > 2\s(I)'
_reflns_Friedel_coverage         0.000
_reflns_Friedel_fraction_max     .
_reflns_Friedel_fraction_full    .

_reflns_special_details          
;
 Reflections were merged by SHELXL according to the crystal
 class for the calculation of statistics and refinement.
 
 _reflns_Friedel_fraction is defined as the number of unique
 Friedel pairs measured divided by the number that would be
 possible theoretically, ignoring centric projections and
 systematic absences.
;
_computing_data_collection       
;
CrysAlisPro, Agilent Technologies,
Version 1.171.36.24 (release 03-12-2012 CrysAlis171 .NET)
(compiled Dec  3 2012,18:21:49)
;
_computing_cell_refinement       
;
CrysAlisPro, Agilent Technologies,
Version 1.171.36.24 (release 03-12-2012 CrysAlis171 .NET)
(compiled Dec  3 2012,18:21:49)
;
_computing_data_reduction        
;
CrysAlisPro, Agilent Technologies,
Version 1.171.36.24 (release 03-12-2012 CrysAlis171 .NET)
(compiled Dec  3 2012,18:21:49)
;
_computing_structure_solution    'SIR-97 (Altomare et. al., 1999)'
_computing_molecular_graphics    
'ORTEP-3 (Farrugia, 1997), WINGX-32 (Farrugia, 1999)'

_computing_publication_material  'enCIFer 1.0 (CCDC, 2003)'
_computing_structure_refinement  'SHELXL-2014/7 (Sheldrick, 2014)'
_refine_special_details          ?
_refine_ls_structure_factor_coef Fsqd
_refine_ls_matrix_type           full
_refine_ls_weighting_scheme      calc
_refine_ls_weighting_details     
'w=1/[\s^2^(Fo^2^)+(0.1588P)^2^+42.1440P] where P=(Fo^2^+2Fc^2^)/3'
_atom_sites_solution_primary     ?
_atom_sites_solution_secondary   ?
_atom_sites_solution_hydrogens   mixed
_refine_ls_hydrogen_treatment    constr
_refine_ls_extinction_method     none
_refine_ls_extinction_coef       .
_refine_ls_number_reflns         8516
_refine_ls_number_parameters     659
_refine_ls_number_restraints     6
_refine_ls_R_factor_all          0.1181
_refine_ls_R_factor_gt           0.0993
_refine_ls_wR_factor_ref         0.2888
_refine_ls_wR_factor_gt          0.2689
_refine_ls_goodness_of_fit_ref   1.016
_refine_ls_restrained_S_all      1.015
_refine_ls_shift/su_max          0.001
_refine_ls_shift/su_mean         0.000

loop_
_atom_site_label
_atom_site_type_symbol
_atom_site_fract_x
_atom_site_fract_y
_atom_site_fract_z
_atom_site_U_iso_or_equiv
_atom_site_adp_type
_atom_site_occupancy
_atom_site_site_symmetry_order
_atom_site_calc_flag
_atom_site_refinement_flags_posn
_atom_site_refinement_flags_adp
_atom_site_refinement_flags_occupancy
_atom_site_disorder_assembly
_atom_site_disorder_group
S2 S 0.6316(4) 0.5055(3) 1.1406(3) 0.0747(12) Uani 1 1 d . . . . .
S1 S 0.1907(4) 1.0297(3) 0.9036(4) 0.0790(14) Uani 1 1 d . . . . .
O11 O 0.1734(9) 0.9675(6) 0.8701(6) 0.054(2) Uani 1 1 d . . . . .
F1 F 0.3980(11) 0.9204(8) 0.9514(9) 0.102(4) Uani 1 1 d . . . . .
F2 F 0.3859(10) 1.0627(10) 0.9310(10) 0.115(5) Uani 1 1 d . . . . .
O21 O 0.5985(14) 0.5826(10) 1.1617(10) 0.098(4) Uani 1 1 d . . . . .
O13 O 0.1568(15) 1.1213(9) 0.8582(14) 0.126(7) Uani 1 1 d . . . . .
F3 F 0.4100(14) 1.0260(12) 0.8231(11) 0.139(6) Uani 1 1 d . . . . .
O22 O 0.6016(16) 0.5289(11) 1.0584(11) 0.112(5) Uani 1 1 d . . . . .
O12 O 0.1446(18) 1.0023(15) 0.9941(11) 0.134(7) Uani 1 1 d . . . . .
C1S1 C 0.3528(18) 1.0084(16) 0.9055(18) 0.098(8) Uani 1 1 d . . . . .
O23 O 0.7484(15) 0.4480(13) 1.1585(12) 0.129(6) Uani 1 1 d . . . . .
F5 F 0.4117(15) 0.4719(11) 1.2073(15) 0.173(8) Uani 1 1 d . . . . .
F4 F 0.545(2) 0.394(2) 1.2849(14) 0.247(16) Uani 1 1 d . . . . .
F6 F 0.548(2) 0.3632(11) 1.1778(19) 0.220(12) Uani 1 1 d . . . . .
C1S2 C 0.530(2) 0.4314(14) 1.207(3) 0.137(13) Uani 1 1 d . . . . .
C3CL C 0.136(3) 1.4507(13) 1.105(2) 0.24(3) Uani 1 1 d D . . A 1
H3CL H 0.2066 1.4716 1.0604 0.288 Uiso 1 1 calc R U . A 1
Cl7 Cl 0.0604(9) 1.3676(11) 1.0959(9) 0.218(6) Uani 1 1 d D . . A 1
Cl8 Cl 0.1759(18) 1.3810(13) 1.2141(12) 0.292(10) Uani 1 1 d D . . A 1
Cl9 Cl 0.0145(13) 1.5419(13) 1.1308(9) 0.260(8) Uani 1 1 d D . . A 1
C2CL C 0.302(4) 1.394(2) 0.701(2) 0.180(19) Uani 1 1 d . . . . .
H2CL H 0.3125 1.4206 0.7402 0.216 Uiso 1 1 calc R U . . .
Cl1 Cl 0.4492(19) 1.3821(13) 0.6306(12) 0.292(9) Uani 1 1 d . . . . .
Cl2 Cl 0.1903(13) 1.4597(7) 0.6453(9) 0.223(6) Uani 1 1 d . . . . .
Cl3 Cl 0.2870(13) 1.2850(6) 0.7548(8) 0.194(5) Uani 1 1 d . . . . .
O1M O 0.047(2) 0.5154(14) 0.4663(14) 0.127(8) Uani 0.5 1 d . . P B 1
H1M H 0.0175 0.5596 0.4249 0.190 Uiso 0.5 1 d R U P B 1
C1M C 0.047(2) 0.5154(14) 0.4663(14) 0.127(8) Uani 0.5 1 d . . P C 2
H1M1 H 0.0339 0.5827 0.4425 0.190 Uiso 0.5 1 d R U P C 2
H1M2 H 0.0488 0.4935 0.4221 0.190 Uiso 0.5 1 d R U P C 2
H1M3 H 0.1271 0.4900 0.4892 0.190 Uiso 0.5 1 d R U P C 2
Cl4 Cl 0.290(3) 0.4642(16) 0.4178(14) 0.361(13) Uani 1 1 d D . . . .
Cl5 Cl 0.187(2) 0.6540(8) 0.3929(8) 0.278(9) Uani 1 1 d D . . . .
Cl6 Cl 0.149(2) 0.5633(18) 0.3035(13) 0.347(12) Uani 1 1 d D . . . .
C1CL C 0.248(5) 0.5726(16) 0.355(3) 0.35(5) Uani 1 1 d D . . . .
H1CL H 0.3230 0.5908 0.3136 0.415 Uiso 1 1 calc R U . . .
S3 S 0.2940(5) 0.9277(4) 0.4574(3) 0.0909(15) Uani 0.565(7) 1 d G . P D 1
C100 C 0.3806(6) 0.8169(4) 0.4572(4) 0.0909(15) Uani 0.565(7) 1 d G . P D 1
O32 O 0.3834(6) 0.9639(3) 0.4743(3) 0.0909(15) Uani 0.565(7) 1 d G . P D 1
O31 O 0.1941(4) 0.9054(6) 0.5235(3) 0.0909(15) Uani 0.565(7) 1 d G . P D 1
O30 O 0.2590(6) 0.9739(4) 0.3744(3) 0.0909(15) Uani 0.565(7) 1 d G . P D 1
F100 F 0.3108(8) 0.7718(4) 0.4430(5) 0.0909(15) Uani 0.565(7) 1 d G . P D 1
F101 F 0.4777(6) 0.8243(6) 0.3981(5) 0.0909(15) Uani 0.565(7) 1 d G . P D 1
F102 F 0.4218(8) 0.7641(3) 0.5303(5) 0.0909(15) Uani 0.565(7) 1 d G . P D 1
S3B S 0.2693(5) 0.8965(4) 0.4494(3) 0.0909(15) Uani 0.435(7) 1 d G . P D 2
C10B C 0.4380(5) 0.8653(5) 0.4412(3) 0.0909(15) Uani 0.435(7) 1 d G . P D 2
O30B O 0.2337(4) 0.8995(5) 0.5316(3) 0.0909(15) Uani 0.435(7) 1 d G . P D 2
O31B O 0.2349(7) 0.8234(5) 0.4408(4) 0.0909(15) Uani 0.435(7) 1 d G . P D 2
O32B O 0.2485(7) 0.9836(4) 0.3813(3) 0.0909(15) Uani 0.435(7) 1 d G . P D 2
F10B F 0.4887(5) 0.8581(7) 0.3678(4) 0.0909(15) Uani 0.435(7) 1 d G . P D 2
F11B F 0.4873(5) 0.9270(5) 0.4470(3) 0.0909(15) Uani 0.435(7) 1 d G . P D 2
F12B F 0.4750(7) 0.7853(4) 0.5008(5) 0.0909(15) Uani 0.435(7) 1 d G . P D 2
C18 C 0.7200(9) 0.8812(8) 0.8230(6) 0.039(3) Uani 1 1 d G . . . .
H18 H 0.7300 0.9215 0.7658 0.047 Uiso 1 1 calc R U . . .
C17 C 0.6369(11) 0.8219(9) 0.8506(9) 0.046(3) Uani 1 1 d . . . . .
C21 C 0.6293(14) 0.7595(11) 0.9335(9) 0.058(4) Uani 1 1 d . . . . .
H21 H 0.5760 0.7166 0.9526 0.069 Uiso 1 1 calc R U . . .
O5 O 0.8608(8) 0.9411(6) 0.8505(5) 0.043(2) Uani 1 1 d . . . . .
N5 N 0.7867(8) 0.8810(7) 0.8784(7) 0.039(2) Uani 1 1 d . . . . .
C19 C 0.7757(12) 0.8232(9) 0.9603(8) 0.047(3) Uani 1 1 d . . . . .
H19 H 0.8204 0.8260 0.9987 0.056 Uiso 1 1 calc R U . . .
C20 C 0.6993(13) 0.7604(11) 0.9874(9) 0.058(4) Uani 1 1 d . . . . .
H20 H 0.6952 0.7173 1.0438 0.070 Uiso 1 1 calc R U . . .
C12 C -0.1036(12) 0.8975(9) 0.4433(8) 0.044(3) Uani 1 1 d . . . . .
H12 H -0.0698 0.9429 0.4470 0.053 Uiso 1 1 calc R U . . .
C11 C -0.0865(13) 0.8098(9) 0.5035(9) 0.048(3) Uani 1 1 d . . . . .
C15 C -0.136(2) 0.7439(12) 0.4969(11) 0.078(5) Uani 1 1 d . . . . .
H15 H -0.1311 0.6840 0.5395 0.093 Uiso 1 1 calc R U . . .
C14 C -0.192(2) 0.7677(12) 0.4279(12) 0.084(6) Uani 1 1 d . . . . .
H14 H -0.2166 0.7215 0.4188 0.100 Uiso 1 1 calc R U . . .
N3 N -0.1680(10) 0.9198(8) 0.3790(6) 0.046(3) Uani 1 1 d . . . . .
C13 C -0.2137(18) 0.8551(12) 0.3718(11) 0.074(5) Uani 1 1 d . . . . .
H13 H -0.2609 0.8711 0.3275 0.088 Uiso 1 1 calc R U . . .
O3 O -0.1841(9) 1.0029(6) 0.3224(6) 0.052(2) Uani 1 1 d . . . . .
Yb1 Yb 0.06267(6) 0.92827(4) 0.79735(4) 0.0392(3) Uani 1 1 d . . . . .
O2 O -0.0122(8) 0.8722(7) 0.7287(6) 0.054(2) Uani 1 1 d . . . . .
O7 O 0.2420(7) 0.8234(5) 0.7926(5) 0.0394(18) Uani 1 1 d . . . . .
N7 N 0.3588(8) 0.8343(7) 0.7614(6) 0.035(2) Uani 1 1 d . . . . .
O1 O 0.0487(8) 0.8036(6) 0.9193(6) 0.047(2) Uani 1 1 d . . . . .
C7 C -0.0402(11) 0.8417(8) 0.6182(8) 0.038(3) Uani 1 1 d . . . . .
H7 H -0.0992 0.8979 0.6021 0.046 Uiso 1 1 calc R U . . .
N6 N 0.1324(10) 0.8771(7) 1.2242(7) 0.045(3) Uani 1 1 d . . . . .
N2 N 0.0216(9) 0.8169(8) 0.6849(7) 0.042(2) Uani 1 1 d . . . . .
O6 O 0.0207(10) 0.9187(6) 1.2546(6) 0.059(3) Uani 1 1 d . . . . .
C25 C 0.1298(13) 0.8352(9) 1.1723(8) 0.048(3) Uani 1 1 d . . . . .
H25 H 0.0526 0.8367 1.1577 0.057 Uiso 1 1 calc R U . . .
N1 N 0.1363(9) 0.7587(7) 0.9712(6) 0.041(2) Uani 1 1 d . . . . .
C30 C 0.4346(11) 0.8235(9) 0.8170(8) 0.041(3) Uani 1 1 d . . . . .
H30 H 0.4018 0.8117 0.8743 0.049 Uiso 1 1 calc R U . . .
C31 C 0.3985(12) 0.8517(9) 0.6812(9) 0.045(3) Uani 1 1 d . . . . .
H31 H 0.3426 0.8593 0.6445 0.054 Uiso 1 1 calc R U . . .
C2 C 0.2157(13) 0.6831(9) 0.9643(9) 0.051(3) Uani 1 1 d . . . . .
H2 H 0.2073 0.6600 0.9249 0.061 Uiso 1 1 calc R U . . .
C5 C 0.2333(12) 0.7505(9) 1.0801(8) 0.047(3) Uani 1 1 d . . . . .
C24 C 0.3499(13) 0.7869(11) 1.1656(10) 0.057(4) Uani 1 1 d . . . . .
H24 H 0.4265 0.7569 1.1441 0.069 Uiso 1 1 calc R U . . .
C8 C -0.0173(12) 0.7856(9) 0.5740(9) 0.047(3) Uani 1 1 d . . . . .
C6 C 0.1089(14) 0.7418(10) 0.7075(9) 0.056(4) Uani 1 1 d . . . . .
H6 H 0.1523 0.7275 0.7532 0.068 Uiso 1 1 calc R U . . .
C32 C 0.5228(14) 0.8589(11) 0.6502(9) 0.057(4) Uani 1 1 d . . . . .
H32 H 0.5517 0.8721 0.5922 0.069 Uiso 1 1 calc R U . . .
C3 C 0.3101(14) 0.6393(11) 1.0156(9) 0.057(4) Uani 1 1 d . . . . .
H3 H 0.3674 0.5865 1.0110 0.068 Uiso 1 1 calc R U . . .
C33 C 0.6031(13) 0.8468(11) 0.7040(9) 0.057(4) Uani 1 1 d . . . . .
H33 H 0.6884 0.8500 0.6839 0.069 Uiso 1 1 calc R U . . .
C23 C 0.2394(12) 0.7905(9) 1.1409(8) 0.046(3) Uani 1 1 d . . . . .
C1 C 0.1423(12) 0.7920(9) 1.0274(8) 0.046(3) Uani 1 1 d . . . . .
H1 H 0.0834 0.8447 1.0310 0.055 Uiso 1 1 calc R U . . .
C27 C 0.3498(14) 0.8263(12) 1.2207(12) 0.068(5) Uani 1 1 d . . . . .
H27 H 0.4255 0.8212 1.2393 0.082 Uiso 1 1 calc R U . . .
C34 C 0.5572(12) 0.8293(9) 0.7906(8) 0.044(3) Uani 1 1 d . . . . .
C28 C 0.2391(13) 0.8734(10) 1.2489(10) 0.054(3) Uani 1 1 d . . . . .
H28 H 0.2385 0.9029 1.2855 0.065 Uiso 1 1 calc R U . . .
C4 C 0.3197(13) 0.6736(10) 1.0733(9) 0.053(3) Uani 1 1 d . . . . .
H4 H 0.3845 0.6450 1.1080 0.063 Uiso 1 1 calc R U . . .
C10 C 0.0731(17) 0.7047(11) 0.5976(11) 0.069(5) Uani 1 1 d . . . . .
H10 H 0.0908 0.6644 0.5684 0.083 Uiso 1 1 calc R U . . .
C9 C 0.1363(18) 0.6845(11) 0.6639(12) 0.074(5) Uani 1 1 d . . . . .
H9 H 0.1993 0.6306 0.6797 0.089 Uiso 1 1 calc R U . . .

loop_
_atom_site_aniso_label
_atom_site_aniso_U_11
_atom_site_aniso_U_22
_atom_site_aniso_U_33
_atom_site_aniso_U_23
_atom_site_aniso_U_13
_atom_site_aniso_U_12
S2 0.071(3) 0.063(2) 0.095(3) -0.036(2) -0.038(2) 0.009(2)
S1 0.075(3) 0.066(3) 0.129(4) -0.055(3) -0.054(3) -0.002(2)
O11 0.068(6) 0.052(5) 0.063(6) -0.031(5) -0.023(5) -0.020(5)
F1 0.092(8) 0.100(8) 0.140(10) -0.069(8) -0.064(8) 0.023(7)
F2 0.064(6) 0.147(11) 0.209(14) -0.134(11) -0.038(8) -0.013(6)
O21 0.104(11) 0.089(9) 0.134(12) -0.064(9) -0.032(9) -0.022(8)
O13 0.107(11) 0.058(8) 0.24(2) -0.047(10) -0.097(13) -0.005(7)
F3 0.121(11) 0.165(14) 0.170(14) -0.114(12) 0.060(11) -0.072(10)
O22 0.120(13) 0.108(11) 0.120(12) -0.052(10) -0.059(10) 0.010(9)
O12 0.152(16) 0.200(19) 0.118(12) -0.125(14) 0.044(11) -0.084(14)
C1S1 0.061(11) 0.102(16) 0.18(2) -0.100(17) -0.038(14) 0.005(11)
O23 0.076(10) 0.136(14) 0.134(14) -0.030(11) -0.040(9) 0.031(9)
F5 0.092(11) 0.102(11) 0.27(2) -0.028(13) -0.012(12) -0.015(9)
F4 0.156(18) 0.24(3) 0.149(17) 0.070(18) 0.016(14) 0.004(17)
F6 0.26(3) 0.082(10) 0.32(3) -0.097(15) 0.03(2) -0.061(13)
C1S2 0.084(1