####################################################################### 
# 
# This file contains crystal structure data downloaded from the 
# Cambridge Structural Database (CSD) hosted by the Cambridge 
# Crystallographic Data Centre (CCDC).
# 
# Full information about CCDC data access policies and citation 
# guidelines are available at http://www.ccdc.cam.ac.uk/access/V1 
# 
# Audit and citation data items may have been added by the CCDC. 
# Please retain this information to preserve the provenance of 
# this file and to allow appropriate attribution of the data. 
# 
#######################################################################

data_Dy
_audit_block_doi                 10.5517/ccsqr07
_database_code_depnum_ccdc_archive 'CCDC 736839'
_audit_update_record             
;
2009-06-18 deposited with the CCDC.	2024-07-14 downloaded from the CCDC.
;

_audit_creation_method           SHELXL-97
_chemical_name_systematic        
;
?
;
_chemical_name_common            ?
_chemical_melting_point          ?
_chemical_formula_moiety         ?
_chemical_formula_sum            'C60 H59 Dy2 N6 O25 S3'
_chemical_formula_weight         1685.31

loop_
_atom_type_symbol
_atom_type_description
_atom_type_scat_dispersion_real
_atom_type_scat_dispersion_imag
_atom_type_scat_source
Dy Dy -0.1892 4.4098 'International Tables Vol C Tables 4.2.6.8 and 6.1.1.4'
C C 0.0033 0.0016 'International Tables Vol C Tables 4.2.6.8 and 6.1.1.4'
O O 0.0106 0.0060 'International Tables Vol C Tables 4.2.6.8 and 6.1.1.4'
S S 0.1246 0.1234 'International Tables Vol C Tables 4.2.6.8 and 6.1.1.4'
H H 0.0000 0.0000 'International Tables Vol C Tables 4.2.6.8 and 6.1.1.4'
N N 0.0061 0.0033 'International Tables Vol C Tables 4.2.6.8 and 6.1.1.4'

_symmetry_cell_setting           Triclinic
_symmetry_space_group_name_H-M   P-1

loop_
_symmetry_equiv_pos_as_xyz
'x, y, z'
'-x, -y, -z'

_cell_length_a                   12.4996(12)
_cell_length_b                   17.7008(16)
_cell_length_c                   22.3869(18)
_cell_angle_alpha                79.657(7)
_cell_angle_beta                 80.452(7)
_cell_angle_gamma                81.326(8)
_cell_volume                     4767.6(7)
_cell_formula_units_Z            2
_cell_measurement_temperature    130(2)
_cell_measurement_reflns_used    4432
_cell_measurement_theta_min      1.79
_cell_measurement_theta_max      25.08

_exptl_crystal_description       rod
_exptl_crystal_colour            colorless
_exptl_crystal_size_max          0.15
_exptl_crystal_size_mid          0.1
_exptl_crystal_size_min          0.1
_exptl_crystal_density_meas      ?
_exptl_crystal_density_diffrn    1.174
_exptl_crystal_density_method    'not measured'
_exptl_crystal_F_000             1682
_exptl_absorpt_coefficient_mu    1.680
_exptl_absorpt_correction_type   integration
_exptl_absorpt_correction_T_min  0.6400
_exptl_absorpt_correction_T_max  0.9255
_exptl_absorpt_process_details   ?

_exptl_special_details           
;
?
;

_diffrn_ambient_temperature      130(2)
_diffrn_radiation_wavelength     0.71073
_diffrn_radiation_type           MoK\a
_diffrn_radiation_source         'fine-focus sealed tube'
_diffrn_radiation_monochromator  graphite
_diffrn_measurement_device_type  'STOE IPDS 2'
_diffrn_measurement_method       'rotation method'
_diffrn_detector_area_resol_mean ?
_diffrn_standards_number         ?
_diffrn_standards_interval_count ?
_diffrn_standards_interval_time  ?
_diffrn_standards_decay_%        ?
_diffrn_reflns_number            46387
_diffrn_reflns_av_R_equivalents  0.1589
_diffrn_reflns_av_sigmaI/netI    0.2736
_diffrn_reflns_limit_h_min       -14
_diffrn_reflns_limit_h_max       14
_diffrn_reflns_limit_k_min       -21
_diffrn_reflns_limit_k_max       21
_diffrn_reflns_limit_l_min       -26
_diffrn_reflns_limit_l_max       26
_diffrn_reflns_theta_min         1.79
_diffrn_reflns_theta_max         25.09
_reflns_number_total             16433
_reflns_number_gt                7474
_reflns_threshold_expression     >2sigma(I)

_computing_data_collection       'STOE X-AREA'
_computing_cell_refinement       'STOE X-AREA'
_computing_data_reduction        'STOE X-RED'
_computing_structure_solution    'SHELXS-97 (Sheldrick, 1990)'
_computing_structure_refinement  'SHELXL-97 (Sheldrick, 1997)'
_computing_molecular_graphics    ?
_computing_publication_material  ?

_refine_special_details          
;
Refinement of F^2^ against ALL reflections. The weighted R-factor wR and
goodness of fit S are based on F^2^, conventional R-factors R are based
on F, with F set to zero for negative F^2^. The threshold expression of
F^2^ > 2sigma(F^2^) is used only for calculating R-factors(gt) etc. and is
not relevant to the choice of reflections for refinement. R-factors based
on F^2^ are statistically about twice as large as those based on F, and R-
factors based on ALL data will be even larger.
;

_refine_ls_structure_factor_coef Fsqd
_refine_ls_matrix_type           full
_refine_ls_weighting_scheme      calc
_refine_ls_weighting_details     
'calc w=1/[\s^2^(Fo^2^)+(0.0869P)^2^+0.0000P] where P=(Fo^2^+2Fc^2^)/3'
_atom_sites_solution_primary     direct
_atom_sites_solution_secondary   difmap
_atom_sites_solution_hydrogens   geom
_refine_ls_hydrogen_treatment    constr
_refine_ls_extinction_method     none
_refine_ls_extinction_coef       ?
_refine_ls_number_reflns         16433
_refine_ls_number_parameters     865
_refine_ls_number_restraints     96
_refine_ls_R_factor_all          0.1711
_refine_ls_R_factor_gt           0.0714
_refine_ls_wR_factor_ref         0.2047
_refine_ls_wR_factor_gt          0.1719
_refine_ls_goodness_of_fit_ref   0.866
_refine_ls_restrained_S_all      0.865
_refine_ls_shift/su_max          0.005
_refine_ls_shift/su_mean         0.000

loop_
_atom_site_label
_atom_site_type_symbol
_atom_site_fract_x
_atom_site_fract_y
_atom_site_fract_z
_atom_site_U_iso_or_equiv
_atom_site_adp_type
_atom_site_occupancy
_atom_site_symmetry_multiplicity
_atom_site_calc_flag
_atom_site_refinement_flags
_atom_site_disorder_assembly
_atom_site_disorder_group
Dy1 Dy 0.34663(6) 0.97079(4) 0.00208(3) 0.0182(2) Uani 1 1 d . . .
Dy2 Dy 1.12882(6) 0.57010(4) 0.48195(3) 0.0178(2) Uani 1 1 d . . .
O1 O 0.2871(8) 0.9853(6) -0.0960(4) 0.028(2) Uani 1 1 d U . .
O2 O 0.2769(8) 0.8667(6) -0.0410(5) 0.029(3) Uani 1 1 d . . .
C1 C 0.2759(12) 0.9153(9) -0.0922(7) 0.027(4) Uani 1 1 d . . .
C2 C 0.2656(12) 0.8853(8) -0.1508(7) 0.026(3) Uani 1 1 d . . .
C3 C 0.2490(13) 0.9404(8) -0.2034(7) 0.033(4) Uani 1 1 d . . .
H3 H 0.2464 0.9927 -0.2017 0.040 Uiso 1 1 calc R . .
C4 C 0.2752(12) 0.8067(9) -0.1535(7) 0.027(4) Uani 1 1 d . . .
H4 H 0.2884 0.7698 -0.1195 0.032 Uiso 1 1 calc R . .
C5 C 0.2644(13) 0.7855(9) -0.2078(7) 0.029(4) Uani 1 1 d . . .
C6 C 0.2365(14) 0.9175(9) -0.2574(7) 0.038(4) Uani 1 1 d . . .
H6 H 0.2226 0.9542 -0.2915 0.045 Uiso 1 1 calc R . .
C7 C 0.2451(14) 0.8387(9) -0.2601(7) 0.035(4) Uani 1 1 d . . .
C8 C 0.2322(12) 0.8023(8) -0.3132(7) 0.027(4) Uani 1 1 d . . .
C9 C 0.2455(13) 0.7217(9) -0.3001(7) 0.029(4) Uani 1 1 d . . .
C10 C 0.2083(13) 0.8377(9) -0.3707(7) 0.033(4) Uani 1 1 d U . .
H10 H 0.2007 0.8914 -0.3810 0.040 Uiso 1 1 calc R . .
C11 C 0.2331(12) 0.6752(8) -0.3420(7) 0.025(4) Uani 1 1 d . . .
H11 H 0.2420 0.6215 -0.3321 0.030 Uiso 1 1 calc R . .
C12 C 0.1957(14) 0.7918(8) -0.4129(7) 0.035(4) Uani 1 1 d . . .
H12 H 0.1794 0.8152 -0.4515 0.042 Uiso 1 1 calc R . .
C13 C 0.2072(11) 0.7112(8) -0.3983(7) 0.026(3) Uani 1 1 d . . .
C14 C 0.1915(12) 0.6613(9) -0.4449(7) 0.023(4) Uani 1 1 d U . .
O3 O 0.1588(9) 0.6961(6) -0.4949(5) 0.036(3) Uani 1 1 d . . .
O4 O 0.2069(9) 0.5900(6) -0.4301(5) 0.030(3) Uani 1 1 d U . .
S1 S 0.2800(4) 0.6894(2) -0.22441(19) 0.0330(10) Uani 1 1 d . . .
O5 O 0.2004(10) 0.6443(6) -0.1850(5) 0.043(3) Uani 1 1 d . . .
O6 O 0.3942(9) 0.6554(6) -0.2276(5) 0.045(3) Uani 1 1 d . . .
O7 O 0.5504(8) 0.9326(5) 0.0506(4) 0.023(2) Uani 1 1 d U . .
O8 O 0.4119(8) 0.8639(5) 0.0732(5) 0.027(2) Uani 1 1 d . . .
C15 C 0.5033(13) 0.8759(8) 0.0813(7) 0.027(4) Uani 1 1 d . . .
C16 C 0.5633(12) 0.8240(8) 0.1293(7) 0.027(4) Uani 1 1 d . . .
C17 C 0.6587(14) 0.8425(9) 0.1455(7) 0.034(4) Uani 1 1 d . . .
H17 H 0.6907 0.8859 0.1253 0.041 Uiso 1 1 calc R . .
C18 C 0.5174(15) 0.7585(10) 0.1622(8) 0.048(5) Uani 1 1 d U . .
H18 H 0.4542 0.7466 0.1511 0.058 Uiso 1 1 calc R . .
C19 C 0.5623(16) 0.7097(11) 0.2113(9) 0.055(5) Uani 1 1 d U . .
H19 H 0.5303 0.6667 0.2326 0.066 Uiso 1 1 calc R . .
C20 C 0.7034(13) 0.7926(9) 0.1936(7) 0.031(4) Uani 1 1 d . . .
C21 C 0.6573(15) 0.7295(9) 0.2261(8) 0.043(5) Uani 1 1 d . . .
C22 C 0.7186(15) 0.6876(8) 0.2785(8) 0.037(4) Uani 1 1 d . . .
C23 C 0.8099(14) 0.7246(8) 0.2819(7) 0.031(4) Uani 1 1 d . . .
C24 C 0.6941(16) 0.6220(10) 0.3202(9) 0.055(6) Uani 1 1 d . . .
H24 H 0.6355 0.5966 0.3176 0.066 Uiso 1 1 calc R . .
C25 C 0.7619(14) 0.5949(9) 0.3671(8) 0.039(4) Uani 1 1 d . . .
H25 H 0.7474 0.5514 0.3959 0.047 Uiso 1 1 calc R . .
C26 C 0.8732(14) 0.6997(9) 0.3266(7) 0.033(4) Uani 1 1 d . . .
H26 H 0.9311 0.7261 0.3285 0.040 Uiso 1 1 calc R . .
C27 C 0.8526(13) 0.6349(8) 0.3697(7) 0.025(4) Uani 1 1 d . . .
C28 C 0.9223(13) 0.6054(9) 0.4180(7) 0.027(4) Uani 1 1 d U . .
O9 O 0.9033(8) 0.5450(5) 0.4566(4) 0.024(2) Uani 1 1 d . . .
O10 O 1.0016(8) 0.6423(6) 0.4189(5) 0.030(3) Uani 1 1 d . . .
S2 S 0.8207(4) 0.8064(3) 0.2240(2) 0.0417(12) Uani 1 1 d . . .
O11 O 0.7999(11) 0.8747(7) 0.2505(6) 0.061(4) Uani 1 1 d . . .
O12 O 0.9209(11) 0.7961(8) 0.1811(6) 0.068(4) Uani 1 1 d . . .
O13 O 0.0194(8) 1.3950(5) 0.4420(4) 0.021(2) Uani 1 1 d . . .
O14 O 0.1321(8) 1.4863(5) 0.4103(4) 0.023(2) Uani 1 1 d . . .
C29 C 0.0959(12) 1.4238(8) 0.4081(6) 0.019(3) Uani 1 1 d . . .
C30 C 0.1561(12) 1.3802(8) 0.3567(6) 0.024(3) Uani 1 1 d U . .
C31 C 0.1106(12) 1.3195(8) 0.3421(7) 0.025(3) Uani 1 1 d . . .
H31 H 0.0448 1.3046 0.3634 0.030 Uiso 1 1 calc R . .
C32 C 0.2558(13) 1.3997(9) 0.3261(7) 0.035(4) Uani 1 1 d . . .
H32 H 0.2853 1.4396 0.3370 0.042 Uiso 1 1 calc R . .
C33 C 0.1678(13) 1.2822(8) 0.2943(7) 0.029(4) Uani 1 1 d . . .
C34 C 0.3146(14) 1.3605(9) 0.2784(7) 0.036(4) Uani 1 1 d U . .
H34 H 0.3813 1.3746 0.2577 0.044 Uiso 1 1 calc R . .
C35 C 0.2689(13) 1.2999(8) 0.2635(7) 0.030(4) Uani 1 1 d . . .
C36 C 0.3154(12) 1.2509(8) 0.2156(7) 0.028(4) Uani 1 1 d . . .
C37 C 0.2494(12) 1.1954(9) 0.2122(7) 0.032(4) Uani 1 1 d . . .
C38 C 0.4123(13) 1.2524(9) 0.1773(7) 0.037(4) Uani 1 1 d . . .
H38 H 0.4580 1.2890 0.1780 0.044 Uiso 1 1 calc R . .
C39 C 0.2784(13) 1.1410(8) 0.1714(7) 0.029(4) Uani 1 1 d . . .
H39 H 0.2320 1.1053 0.1698 0.034 Uiso 1 1 calc R . .
C40 C 0.4424(13) 1.1989(8) 0.1371(7) 0.031(4) Uani 1 1 d U . .
H40 H 0.5084 1.2007 0.1110 0.037 Uiso 1 1 calc R . .
C41 C 0.3771(11) 1.1427(8) 0.1345(6) 0.020(3) Uani 1 1 d U . .
C42 C 0.4152(13) 1.0855(8) 0.0893(6) 0.019(3) Uani 1 1 d . . .
O15 O 0.3512(8) 1.0389(6) 0.0847(4) 0.025(2) Uani 1 1 d . . .
S3 S 0.1263(4) 1.2048(3) 0.2652(2) 0.0342(11) Uani 1 1 d . . .
O16 O 0.1208(10) 1.1369(6) 0.3110(5) 0.049(3) Uani 1 1 d . . .
O17 O 0.0337(9) 1.2325(7) 0.2322(5) 0.046(3) Uani 1 1 d . . .
O18 O 0.4906(8) 0.9078(6) -0.0590(4) 0.027(2) Uani 1 1 d . . .
O19 O 0.1936(8) 0.9359(6) 0.0723(5) 0.031(3) Uani 1 1 d . . .
O20 O 0.2052(9) 1.0812(6) -0.0071(5) 0.039(3) Uani 1 1 d U . .
O21 O 1.3092(9) 0.5014(6) 0.4762(6) 0.042(3) Uani 1 1 d . . .
O22 O 1.2348(9) 0.6337(6) 0.3912(6) 0.056(4) Uani 1 1 d . . .
C43 C 1.3432(14) 0.4388(10) 0.4646(9) 0.043(5) Uani 1 1 d . . .
H43 H 1.2965 0.4008 0.4749 0.052 Uiso 1 1 calc R . .
C44 C 0.1678(15) 0.9423(10) 0.1271(9) 0.041(4) Uani 1 1 d . . .
C45 C 0.1553(19) 1.1199(13) 0.0311(11) 0.068(6) Uani 1 1 d . . .
H45 H 0.1832 1.1144 0.0678 0.082 Uiso 1 1 calc R . .
N1 N 0.0666(13) 0.9670(9) 0.1508(7) 0.047(4) Uani 1 1 d . . .
N2 N 1.4447(12) 0.4198(8) 0.4377(8) 0.052(4) Uani 1 1 d . . .
N3 N 0.0641(16) 1.1695(10) 0.0250(10) 0.074(6) Uani 1 1 d . . .
C46 C -0.0211(17) 0.9894(15) 0.1081(11) 0.078(8) Uani 1 1 d . . .
H46A H -0.0899 1.0056 0.1313 0.118 Uiso 1 1 calc R . .
H46B H -0.0279 0.9455 0.0898 0.118 Uiso 1 1 calc R . .
H46C H -0.0005 1.0310 0.0764 0.118 Uiso 1 1 calc R . .
C47 C 1.4820(17) 0.3406(12) 0.4197(13) 0.088(9) Uani 1 1 d . . .
H47A H 1.5571 0.3379 0.4012 0.132 Uiso 1 1 calc R . .
H47B H 1.4378 0.3318 0.3910 0.132 Uiso 1 1 calc R . .
H47C H 1.4746 0.3018 0.4556 0.132 Uiso 1 1 calc R . .
C48 C 1.5242(17) 0.4752(12) 0.4148(13) 0.083(8) Uani 1 1 d . . .
H48A H 1.5917 0.4486 0.3974 0.125 Uiso 1 1 calc R . .
H48B H 1.5368 0.4986 0.4480 0.125 Uiso 1 1 calc R . .
H48C H 1.4960 0.5145 0.3839 0.125 Uiso 1 1 calc R . .
C49 C 0.0349(18) 0.9799(13) 0.2144(9) 0.073(7) Uani 1 1 d . . .
H49A H -0.0420 0.9972 0.2213 0.109 Uiso 1 1 calc R . .
H49B H 0.0751 1.0184 0.2221 0.109 Uiso 1 1 calc R . .
H49C H 0.0509 0.9323 0.2415 0.109 Uiso 1 1 calc R . .
C50 C 0.013(3) 1.2107(19) 0.0741(14) 0.131(13) Uani 1 1 d . . .
H50A H -0.0517 1.2427 0.0626 0.196 Uiso 1 1 calc R . .
H50B H 0.0630 1.2427 0.0822 0.196 Uiso 1 1 calc R . .
H50C H -0.0059 1.1744 0.1103 0.196 Uiso 1 1 calc R . .
C51 C 0.005(3) 1.178(2) -0.0298(15) 0.140(13) Uani 1 1 d . . .
H51A H -0.0587 1.2157 -0.0253 0.210 Uiso 1 1 calc R . .
H51B H -0.0163 1.1294 -0.0327 0.210 Uiso 1 1 calc R . .
H51C H 0.0528 1.1956 -0.0664 0.210 Uiso 1 1 calc R . .
O23 O 0.2801(14) 0.9331(10) 0.2624(8) 0.096(5) Uani 1 1 d . . .
C52 C 0.320(3) 0.9816(18) 0.2877(15) 0.120(10) Uani 1 1 d U . .
H52 H 0.2749 1.0043 0.3189 0.144 Uiso 1 1 calc R . .
N4 N 0.4203(16) 1.0000(11) 0.2712(8) 0.071(5) Uani 1 1 d . . .
C53 C 0.459(3) 1.0622(18) 0.292(2) 0.160(16) Uani 1 1 d . . .
H53A H 0.5339 1.0655 0.2741 0.241 Uiso 1 1 calc R . .
H53B H 0.4536 1.0524 0.3357 0.241 Uiso 1 1 calc R . .
H53C H 0.4153 1.1101 0.2793 0.241 Uiso 1 1 calc R . .
C54 C 0.497(2) 0.9722(18) 0.2283(14) 0.133(13) Uani 1 1 d . . .
H54A H 0.5628 0.9956 0.2257 0.200 Uiso 1 1 calc R . .
H54B H 0.4714 0.9839 0.1892 0.200 Uiso 1 1 calc R . .
H54C H 0.5131 0.9171 0.2393 0.200 Uiso 1 1 calc R . .
O24 O 0.8064(18) 0.9659(11) 0.3932(8) 0.115(7) Uani 1 1 d . . .
C55 C 0.884(3) 0.9066(19) 0.3876(14) 0.108(10) Uani 1 1 d U . .
H55 H 0.8623 0.8596 0.3843 0.130 Uiso 1 1 calc R . .
N5 N 0.997(2) 0.9095(11) 0.3863(10) 0.099(8) Uani 1 1 d . . .
C56 C 1.066(3) 0.8436(16) 0.3776(11) 0.109(10) Uani 1 1 d . . .
H56A H 1.0250 0.8047 0.3717 0.164 Uiso 1 1 calc R . .
H56B H 1.1026 0.8254 0.4130 0.164 Uiso 1 1 calc R . .
H56C H 1.1195 0.8545 0.3421 0.164 Uiso 1 1 calc R . .
C57 C 1.030(3) 0.9780(15) 0.3945(14) 0.125(12) Uani 1 1 d . . .
H57A H 0.9671 1.0160 0.3994 0.187 Uiso 1 1 calc R . .
H57B H 1.0798 0.9964 0.3592 0.187 Uiso 1 1 calc R . .
H57C H 1.0657 0.9689 0.4304 0.187 Uiso 1 1 calc R . .
O25 O 0.2468(14) 1.2703(10) 0.5043(8) 0.093(5) Uani 1 1 d . . .
C58 C 0.170(2) 1.2418(12) 0.4964(9) 0.062(6) Uani 1 1 d . . .
H58 H 0.1013 1.2643 0.5116 0.074 Uiso 1 1 calc R . .
N6 N 0.1730(15) 1.1825(9) 0.4686(8) 0.055(4) Uani 1 1 d . . .
C59 C 0.074(2) 1.1550(12) 0.4618(10) 0.078(7) Uani 1 1 d . . .
H59A H 0.0918 1.1122 0.4394 0.116 Uiso 1 1 calc R . .
H59B H 0.0293 1.1959 0.4398 0.116 Uiso 1 1 calc R . .
H59C H 0.0352 1.1384 0.5016 0.116 Uiso 1 1 calc R . .
C60 C 0.275(2) 1.149(2) 0.4428(16) 0.148(14) Uani 1 1 d . . .
H60A H 0.2656 1.1068 0.4231 0.221 Uiso 1 1 calc R . .
H60B H 0.3201 1.1294 0.4746 0.221 Uiso 1 1 calc R . .
H60C H 0.3105 1.1869 0.4131 0.221 Uiso 1 1 calc R . .

loop_
_atom_site_aniso_label
_atom_site_aniso_U_11
_atom_site_aniso_U_22
_atom_site_aniso_U_33
_atom_site_aniso_U_23
_atom_site_aniso_U_13
_atom_site_aniso_U_12
Dy1 0.0202(5) 0.0212(4) 0.0156(4) -0.0110(3) -0.0068(3) 0.0048(3)
Dy2 0.0178(5) 0.0186(4) 0.0204(4) -0.0109(3) -0.0081(3) 0.0024(3)
O1 0.031(4) 0.029(4) 0.027(4) -0.008(3) -0.012(3) 0.000(3)
O2 0.028(7) 0.033(6) 0.029(6) -0.014(5) -0.004(5) -0.005(5)
C1 0.022(9) 0.025(8) 0.038(10) -0.007(7) -0.012(7) -0.005(7)
C2 0.022(9) 0.031(8) 0.032(9) -0.018(7) -0.007(7) -0.004(7)
C3 0.042(11) 0.023(8) 0.043(10) -0.021(7) -0.022(8) 0.007(7)
C4 0.032(10) 0.031(9) 0.020(8) -0.001(7) -0.015(7) -0.002(7)
C5 0.040(11) 0.027(9) 0.029(9) -0.012(7) -0.011(8) -0.013(8)
C6 0.064(13) 0.029(9) 0.026(9) -0.002(7) -0.021(8) -0.010(8)
C7 0.058(12) 0.031(9) 0.024(9) 0.000(7) -0.028(8) -0.009(8)
C8 0.035(10) 0.029(8) 0.024(9) -0.016(7) -0.014(7) -0.002(7)
C9 0.036(10) 0.028(9) 0.026(9) -0.012(7) -0.007(7) -0.006(7)
C10 0.040(6) 0.028(5) 0.033(5) -0.008(4) -0.005(4) -0.005(4)
C11 0.031(10) 0.018(7) 0.035(10) -0.011(7) -0.012(7) -0.010(7)
C12 0.053(12) 0.028(8) 0.035(10) -0.013(7) -0.027(8) -0.004(8)
C13 0.014(9) 0.031(8) 0.039(10) -0.016(7) -0.008(7) -0.001(6)
C14 0.020(5) 0.027(5) 0.025(5) -0.006(4) -0.007(4) -0.003(4)
O3 0.040(7) 0.033(6) 0.045(7) -0.023(5) -0.016(6) -0.002(5)
O4 0.029(4) 0.034(4) 0.033(4) -0.010(4) -0.017(4) -0.002(4)
S1 0.048(3) 0.024(2) 0.034(2) -0.0111(17) -0.018(2) -0.0048(19)
O5 0.070(9) 0.028(6) 0.039(7) -0.011(5) -0.017(6) -0.011(6)
O6 0.044(8) 0.045(7) 0.056(8) -0.028(6) -0.030(6) 0.011(6)
O7 0.028(4) 0.025(4) 0.020(4) -0.007(3) -0.012(3) 0.003(3)
O8 0.018(6) 0.030(6) 0.036(6) 0.001(5) -0.019(5) -0.002(5)
C15 0.035(11) 0.018(8) 0.026(9) -0.004(6) -0.011(7) 0.006(7)
C16 0.030(10) 0.024(8) 0.029(9) 0.005(7) -0.020(7) -0.002(7)
C17 0.051(12) 0.030(9) 0.026(9) 0.009(7) -0.023(8) -0.014(8)
C18 0.049(6) 0.049(6) 0.049(6) -0.002(4) -0.019(5) -0.009(4)
C19 0.055(7) 0.055(6) 0.058(7) -0.003(5) -0.014(5) -0.015(5)
C20 0.025(9) 0.030(9) 0.038(10) 0.003(7) -0.023(8) 0.005(7)
C21 0.056(13) 0.034(10) 0.045(11) 0.009(8) -0.036(10) -0.013(9)
C22 0.05