####################################################################### 
# 
# This file contains crystal structure data downloaded from the 
# Cambridge Structural Database (CSD) hosted by the Cambridge 
# Crystallographic Data Centre (CCDC).
# 
# Full information about CCDC data access policies and citation 
# guidelines are available at http://www.ccdc.cam.ac.uk/access/V1 
# 
# Audit and citation data items may have been added by the CCDC. 
# Please retain this information to preserve the provenance of 
# this file and to allow appropriate attribution of the data. 
# 
#######################################################################

data_La2
_audit_block_doi                 10.5517/ccsqr18
_database_code_depnum_ccdc_archive 'CCDC 736840'
_audit_update_record             
;
2009-06-18 deposited with the CCDC.	2024-07-14 downloaded from the CCDC.
;

_audit_creation_method           SHELXL-97
_chemical_name_systematic        
;
?
;
_chemical_name_common            ?
_chemical_melting_point          ?
_chemical_formula_moiety         ?
_chemical_formula_sum            'C63 H67 La2 N7 O25 S3'
_chemical_formula_weight         1696.24

loop_
_atom_type_symbol
_atom_type_description
_atom_type_scat_dispersion_real
_atom_type_scat_dispersion_imag
_atom_type_scat_source
C C 0.0015 0.0009 'International Tables Vol C Tables 4.2.6.8 and 6.1.1.4'
H H 0.0000 0.0000 'International Tables Vol C Tables 4.2.6.8 and 6.1.1.4'
N N 0.0030 0.0019 'International Tables Vol C Tables 4.2.6.8 and 6.1.1.4'
O O 0.0056 0.0036 'International Tables Vol C Tables 4.2.6.8 and 6.1.1.4'
S S 0.0826 0.0763 'International Tables Vol C Tables 4.2.6.8 and 6.1.1.4'
La La -0.6411 1.6148 'International Tables Vol C Tables 4.2.6.8 and 6.1.1.4'

_symmetry_cell_setting           Monoclinic
_symmetry_space_group_name_H-M   P21/n

loop_
_symmetry_equiv_pos_as_xyz
'x, y, z'
'-x+1/2, y+1/2, -z+1/2'
'-x, -y, -z'
'x-1/2, -y-1/2, z-1/2'

_cell_length_a                   19.5011(13)
_cell_length_b                   16.7853(12)
_cell_length_c                   24.2950(17)
_cell_angle_alpha                90.00
_cell_angle_beta                 112.891(2)
_cell_angle_gamma                90.00
_cell_volume                     7326.2(9)
_cell_formula_units_Z            4
_cell_measurement_temperature    100(2)
_cell_measurement_reflns_used    9999
_cell_measurement_theta_min      5.85
_cell_measurement_theta_max      16.93

_exptl_crystal_description       rod
_exptl_crystal_colour            colorless
_exptl_crystal_size_max          0.15
_exptl_crystal_size_mid          0.1
_exptl_crystal_size_min          0.1
_exptl_crystal_density_meas      ?
_exptl_crystal_density_diffrn    1.538
_exptl_crystal_density_method    'not measured'
_exptl_crystal_F_000             3424
_exptl_absorpt_coefficient_mu    0.700
_exptl_absorpt_correction_type   empirical
_exptl_absorpt_correction_T_min  0.6334
_exptl_absorpt_correction_T_max  0.7443
_exptl_absorpt_process_details   ?

_exptl_special_details           
;
?
;

_diffrn_ambient_temperature      100(2)
_diffrn_radiation_wavelength     0.40759
_diffrn_radiation_type           ?
_diffrn_radiation_source         'fine-focus sealed tube'
_diffrn_radiation_monochromator  graphite
_diffrn_measurement_device_type  ?
_diffrn_measurement_method       ?
_diffrn_detector_area_resol_mean ?
_diffrn_standards_number         ?
_diffrn_standards_interval_count ?
_diffrn_standards_interval_time  ?
_diffrn_standards_decay_%        ?
_diffrn_reflns_number            161465
_diffrn_reflns_av_R_equivalents  0.0946
_diffrn_reflns_av_sigmaI/netI    0.0691
_diffrn_reflns_limit_h_min       -23
_diffrn_reflns_limit_h_max       27
_diffrn_reflns_limit_k_min       -23
_diffrn_reflns_limit_k_max       23
_diffrn_reflns_limit_l_min       -34
_diffrn_reflns_limit_l_max       34
_diffrn_reflns_theta_min         5.85
_diffrn_reflns_theta_max         16.93
_reflns_number_total             21354
_reflns_number_gt                12719
_reflns_threshold_expression     >2sigma(I)

_computing_data_collection       APEX2
_computing_cell_refinement       ?
_computing_data_reduction        ?
_computing_structure_solution    'SHELXS-97 (Sheldrick, 1990)'
_computing_structure_refinement  'SHELXL-97 (Sheldrick, 1997)'
_computing_molecular_graphics    ?
_computing_publication_material  ?

_refine_special_details          
;
The following least-square restraints (total 66) were applied
to atoms corresponding to disordered guest DMF molecules:

DFIX 1.45 0.02 N4 C5
DFIX 1.45 0.02 N4 C8
DFIX 1.22 0.02 C58 O22
DFIX 2.26 0.02 N3 O22
DFIX 1.37 0.02 C30 C12 C15 C47
isor 0.005 C5, O6, C6, C8, C15, C17, O12
isor 0.005 C55, C58, N4

All the other non-hydrogen atoms were refined anisotropically.

Refinement of F^2^ against ALL reflections. The weighted R-factor wR and
goodness of fit S are based on F^2^, conventional R-factors R are based
on F, with F set to zero for negative F^2^. The threshold expression of
F^2^ > 2sigma(F^2^) is used only for calculating R-factors(gt) etc. and is
not relevant to the choice of reflections for refinement. R-factors based
on F^2^ are statistically about twice as large as those based on F, and R-
factors based on ALL data will be even larger.
;

_refine_ls_structure_factor_coef Fsqd
_refine_ls_matrix_type           full
_refine_ls_weighting_scheme      calc
_refine_ls_weighting_details     
'calc w=1/[\s^2^(Fo^2^)+(0.0600P)^2^+30.4768P] where P=(Fo^2^+2Fc^2^)/3'
_atom_sites_solution_primary     direct
_atom_sites_solution_secondary   difmap
_atom_sites_solution_hydrogens   geom
_refine_ls_hydrogen_treatment    constr
_refine_ls_extinction_method     none
_refine_ls_extinction_coef       ?
_refine_ls_number_reflns         21354
_refine_ls_number_parameters     901
_refine_ls_number_restraints     66
_refine_ls_R_factor_all          0.1485
_refine_ls_R_factor_gt           0.0717
_refine_ls_wR_factor_ref         0.2192
_refine_ls_wR_factor_gt          0.1693
_refine_ls_goodness_of_fit_ref   1.388
_refine_ls_restrained_S_all      1.402
_refine_ls_shift/su_max          0.011
_refine_ls_shift/su_mean         0.000

loop_
_atom_site_label
_atom_site_type_symbol
_atom_site_fract_x
_atom_site_fract_y
_atom_site_fract_z
_atom_site_U_iso_or_equiv
_atom_site_adp_type
_atom_site_occupancy
_atom_site_symmetry_multiplicity
_atom_site_calc_flag
_atom_site_refinement_flags
_atom_site_disorder_assembly
_atom_site_disorder_group
La1 La 0.113202(17) 0.48420(2) 0.031491(15) 0.02100(10) Uani 1 1 d . . .
La2 La 0.382445(18) 0.47805(3) -0.019118(16) 0.02827(11) Uani 1 1 d . . .
S1 S 0.60346(8) 0.73756(11) -0.19846(7) 0.0302(3) Uani 1 1 d . . .
S2 S 0.17717(8) 0.69600(11) -0.26297(8) 0.0329(4) Uani 1 1 d . . .
S3 S 0.33319(10) 0.70654(12) 0.27047(9) 0.0397(4) Uani 1 1 d . . .
O1 O 0.1541(2) 0.4833(3) -0.05168(19) 0.0263(9) Uani 1 1 d . . .
O2 O 0.3496(2) 0.4707(3) 0.06934(19) 0.0296(10) Uani 1 1 d . . .
O3 O 0.1217(2) 0.5957(3) 0.1099(2) 0.0314(10) Uani 1 1 d . . .
O4 O 0.2462(2) 0.5124(4) 0.0796(2) 0.0405(12) Uani 1 1 d . . .
O5 O 0.4233(3) 0.6082(3) 0.0360(2) 0.0383(11) Uani 1 1 d . . .
O6 O 0.2577(3) 0.5379(5) -0.0547(3) 0.0524(15) Uani 1 1 d U . .
O7 O 0.3779(3) 0.5858(4) -0.0942(3) 0.0485(15) Uani 1 1 d . . .
O8 O 0.3037(3) 0.7776(4) 0.2355(3) 0.0561(17) Uani 1 1 d . . .
O9 O 0.2208(3) 0.7631(4) -0.2308(3) 0.0486(14) Uani 1 1 d . . .
O10 O 0.5082(3) 0.4577(4) 0.0659(3) 0.0504(15) Uani 1 1 d . . .
O11 O 0.1630(6) 0.3459(4) 0.0241(3) 0.094(3) Uani 1 1 d . . .
O12 O 0.2866(4) 0.6665(5) 0.2951(4) 0.0630(18) Uani 1 1 d U . .
O13 O 0.4607(4) 0.3739(5) -0.0412(4) 0.070(2) Uani 1 1 d . . .
O14 O 0.6423(3) 0.6702(4) -0.2090(3) 0.0468(14) Uani 1 1 d . . .
O15 O 0.3503(6) 0.3281(6) -0.0044(6) 0.095(3) Uani 1 1 d . . .
O16 O 0.0956(5) 0.6230(4) -0.0182(3) 0.061(2) Uani 1 1 d . . .
O17 O 0.2112(3) 0.6438(4) -0.2920(3) 0.0429(13) Uani 1 1 d . . .
O18 O 0.6455(3) 0.7933(4) -0.1530(2) 0.0449(13) Uani 1 1 d . . .
O19 O 0.0097(2) 0.5393(4) 0.0674(2) 0.0420(13) Uani 1 1 d . . .
O20 O 0.1560(3) 0.4345(3) 0.1399(2) 0.0442(13) Uani 1 1 d . . .
O21 O 0.0301(5) 0.3741(6) 0.0339(3) 0.089(3) Uani 1 1 d . . .
O22 O 0.3150(8) 0.4270(8) -0.1265(3) 0.120(4) Uani 1 1 d D . .
O23 O 0.6588(6) 0.4771(6) 0.3759(5) 0.094(3) Uani 1 1 d . . .
O24 O 0.1238(5) 0.9448(6) 0.0373(4) 0.084(2) Uani 1 1 d . . .
O25 O 0.4525(8) 0.8486(7) -0.0535(6) 0.114(4) Uani 1 1 d . . .
N1 N 0.2242(3) 0.4591(4) 0.2382(3) 0.0325(12) Uani 1 1 d . . .
N2 N 0.1641(4) 0.2129(4) 0.0299(3) 0.0387(14) Uani 1 1 d . . .
N3 N 0.2604(5) 0.4437(6) -0.2263(3) 0.058(2) Uani 1 1 d D . .
N4 N 0.3251(7) 0.2038(8) -0.0438(5) 0.092(3) Uani 1 1 d DU . .
N5 N 0.5432(4) 0.4754(4) 0.3772(3) 0.0464(16) Uani 1 1 d . . .
N6 N 0.1755(4) 0.8229(5) 0.0682(3) 0.0477(16) Uani 1 1 d . . .
N7 N 0.3383(5) 0.8134(6) -0.0614(4) 0.066(2) Uani 1 1 d . . .
C1 C 0.3127(18) 0.8949(16) -0.0768(8) 0.158(12) Uani 1 1 d . . .
H1A H 0.2609 0.8983 -0.0837 0.238 Uiso 1 1 calc R . .
H1B H 0.3196 0.9104 -0.1123 0.238 Uiso 1 1 calc R . .
H1C H 0.3408 0.9297 -0.0446 0.238 Uiso 1 1 calc R . .
C2 C 0.1843(7) 0.4328(9) -0.2629(7) 0.081(4) Uani 1 1 d . . .
H2A H 0.1768 0.4409 -0.3040 0.122 Uiso 1 1 calc R . .
H2B H 0.1549 0.4705 -0.2518 0.122 Uiso 1 1 calc R . .
H2C H 0.1695 0.3797 -0.2578 0.122 Uiso 1 1 calc R . .
C4 C 0.2908(9) 0.7448(15) -0.0583(9) 0.117(7) Uani 1 1 d . . .
H4A H 0.2410 0.7632 -0.0670 0.175 Uiso 1 1 calc R . .
H4B H 0.3109 0.7222 -0.0189 0.175 Uiso 1 1 calc R . .
H4C H 0.2900 0.7051 -0.0870 0.175 Uiso 1 1 calc R . .
C5 C 0.2571(6) 0.2412(8) -0.0980(6) 0.078(3) Uani 1 1 d DU . .
H5A H 0.2529 0.2968 -0.0906 0.117 Uiso 1 1 calc R . .
H5B H 0.2120 0.2144 -0.1018 0.117 Uiso 1 1 calc R . .
H5C H 0.2653 0.2350 -0.1343 0.117 Uiso 1 1 calc R . .
C6 C 0.0866(13) 0.1972(14) -0.0113(11) 0.124(6) Uani 1 1 d U . .
H6A H 0.0789 0.1408 -0.0166 0.187 Uiso 1 1 calc R . .
H6B H 0.0775 0.2217 -0.0492 0.187 Uiso 1 1 calc R . .
H6C H 0.0531 0.2190 0.0051 0.187 Uiso 1 1 calc R . .
C7 C 0.3159(3) 0.5080(4) 0.0959(3) 0.0220(11) Uani 1 1 d . . .
C8 C 0.3472(10) 0.1266(9) -0.0470(8) 0.101(4) Uani 1 1 d DU . .
H8A H 0.3075 0.0982 -0.0773 0.152 Uiso 1 1 calc R . .
H8B H 0.3591 0.1009 -0.0091 0.152 Uiso 1 1 calc R . .
H8C H 0.3903 0.1268 -0.0569 0.152 Uiso 1 1 calc R . .
C9 C 0.3609(3) 0.5511(4) 0.1525(3) 0.0245(12) Uani 1 1 d . . .
C10 C 0.4386(3) 0.5448(4) 0.1784(3) 0.0245(12) Uani 1 1 d . . .
H10 H 0.4627 0.5133 0.1600 0.029 Uiso 1 1 calc R . .
C11 C 0.0621(3) 0.6441(4) -0.2427(3) 0.0252(12) Uani 1 1 d . . .
C12 C -0.0412(3) 0.7141(4) -0.3312(3) 0.0283(13) Uani 1 1 d D . .
H12 H -0.0799 0.6923 -0.3228 0.034 Uiso 1 1 calc R . .
C13 C 0.1445(3) 0.5644(4) -0.1353(3) 0.0281(13) Uani 1 1 d . . .
C14 C 0.0256(3) 0.6040(4) -0.2126(3) 0.0274(13) Uani 1 1 d . . .
H14 H -0.0262 0.6039 -0.2275 0.033 Uiso 1 1 calc R . .
C15 C 0.3893(4) 0.7193(5) -0.2339(3) 0.0345(14) Uani 1 1 d DU . .
H15 H 0.3461 0.7392 -0.2635 0.041 Uiso 1 1 calc R . .
C16 C 0.1132(8) 0.7938(7) 0.0796(8) 0.082(4) Uani 1 1 d . . .
H16A H 0.1224 0.7398 0.0935 0.123 Uiso 1 1 calc R . .
H16B H 0.0692 0.7958 0.0435 0.123 Uiso 1 1 calc R . .
H16C H 0.1061 0.8264 0.1095 0.123 Uiso 1 1 calc R . .
C17 C 0.3702(8) 0.2603(9) -0.0084(6) 0.077(3) Uani 1 1 d U . .
H17 H 0.4194 0.2467 0.0143 0.092 Uiso 1 1 calc R . .
C18 C 0.3095(8) 0.4642(10) -0.2564(10) 0.102(6) Uani 1 1 d . . .
H18A H 0.2812 0.4670 -0.2987 0.153 Uiso 1 1 calc R . .
H18B H 0.3474 0.4243 -0.2482 0.153 Uiso 1 1 calc R . .
H18C H 0.3323 0.5150 -0.2423 0.153 Uiso 1 1 calc R . .
C20 C 0.4807(3) 0.5847(4) 0.2312(3) 0.0252(12) Uani 1 1 d . . .
H20 H 0.5321 0.5785 0.2484 0.030 Uiso 1 1 calc R . .
C21 C 0.4757(3) 0.7821(4) -0.2791(3) 0.0252(12) Uani 1 1 d . . .
C22 C 0.5519(4) 0.6958(4) 0.3494(3) 0.0267(12) Uani 1 1 d . . .
H22 H 0.5894 0.6684 0.3427 0.032 Uiso 1 1 calc R . .
C23 C 0.4500(3) 0.6412(4) -0.1430(3) 0.0291(13) Uani 1 1 d . . .
C24 C 0.5220(3) 0.7065(4) -0.1883(3) 0.0246(12) Uani 1 1 d . . .
C25 C 0.0663(3) 0.5635(4) -0.1595(3) 0.0292(13) Uani 1 1 d . . .
H25 H 0.0412 0.5355 -0.1400 0.035 Uiso 1 1 calc R . .
C26 C 0.0320(3) 0.6942(4) -0.2970(3) 0.0256(12) Uani 1 1 d . . .
C27 C 0.4585(3) 0.7360(4) -0.2346(3) 0.0251(12) Uani 1 1 d . . .
C28 C 0.4450(3) 0.6338(4) 0.2578(3) 0.0248(12) Uani 1 1 d . . .
C29 C 0.2391(8) 0.7715(8) 0.0799(6) 0.076(3) Uani 1 1 d . . .
H29A H 0.2297 0.7206 0.0936 0.115 Uiso 1 1 calc R . .
H29B H 0.2822 0.7952 0.1099 0.115 Uiso 1 1 calc R . .
H29C H 0.2476 0.7646 0.0438 0.115 Uiso 1 1 calc R . .
C30 C -0.0560(3) 0.7678(4) -0.3788(3) 0.0315(14) Uani 1 1 d D . .
H30 H -0.1049 0.7828 -0.4012 0.038 Uiso 1 1 calc R . .
C31 C 0.5798(3) 0.8270(4) -0.3035(3) 0.0310(14) Uani 1 1 d . . .
H31 H 0.6307 0.8282 -0.2945 0.037 Uiso 1 1 calc R . .
C32 C 0.5133(5) 0.7906(4) 0.4082(3) 0.0348(15) Uani 1 1 d . . .
C33 C 0.4256(3) 0.8184(5) -0.3307(3) 0.0312(14) Uani 1 1 d . . .
H33 H 0.3747 0.8154 -0.3400 0.037 Uiso 1 1 calc R . .
C34 C 0.3243(3) 0.5997(4) 0.1792(3) 0.0272(12) Uani 1 1 d . . .
H34 H 0.2728 0.6051 0.1626 0.033 Uiso 1 1 calc R . .
C36 C 0.6123(6) 0.5001(6) 0.3953(5) 0.053(2) Uani 1 1 d . . .
H36 H 0.6277 0.5382 0.4255 0.064 Uiso 1 1 calc R . .
C37 C 0.4921(6) 0.5055(6) 0.4022(5) 0.056(2) Uani 1 1 d . . .
H37A H 0.4444 0.4805 0.3827 0.084 Uiso 1 1 calc R . .
H37B H 0.4869 0.5621 0.3964 0.084 Uiso 1 1 calc R . .
H37C H 0.5110 0.4938 0.4442 0.084 Uiso 1 1 calc R . .
C38 C 0.1745(6) 0.8976(7) 0.0484(4) 0.059(2) Uani 1 1 d . . .
H38 H 0.2165 0.9148 0.0425 0.071 Uiso 1 1 calc R . .
C39 C 0.5141(7) 0.4140(7) 0.3308(5) 0.064(3) Uani 1 1 d . . .
H39A H 0.4626 0.4042 0.3231 0.096 Uiso 1 1 calc R . .
H39B H 0.5420 0.3657 0.3443 0.096 Uiso 1 1 calc R . .
H39C H 0.5186 0.4319 0.2949 0.096 Uiso 1 1 calc R . .
C40 C 0.4078(7) 0.7989(7) -0.0509(6) 0.068(3) Uani 1 1 d . . .
H40 H 0.4248 0.7471 -0.0406 0.081 Uiso 1 1 calc R . .
C41 C 0.5203(3) 0.6591(4) -0.1428(3) 0.0258(12) Uani 1 1 d . . .
H41 H 0.5637 0.6396 -0.1133 0.031 Uiso 1 1 calc R . .
C42 C 0.1825(3) 0.6029(4) -0.1657(3) 0.0300(14) Uani 1 1 d . . .
H42 H 0.2342 0.6026 -0.1510 0.036 Uiso 1 1 calc R . .
C43 C 0.4778(3) 0.6841(4) 0.3121(3) 0.0256(12) Uani 1 1 d . . .
C44 C 0.0012(4) 0.7993(5) -0.3933(3) 0.0345(15) Uani 1 1 d . . .
C45 C 0.1413(3) 0.6416(4) -0.2184(3) 0.0280(13) Uani 1 1 d . . .
C46 C 0.5298(4) 0.8643(5) -0.3543(3) 0.0325(14) Uani 1 1 d . . .
C47 C 0.3860(4) 0.6721(5) -0.1881(3) 0.0393(17) Uani 1 1 d D . .
H47 H 0.3398 0.6605 -0.1873 0.047 Uiso 1 1 calc R . .
C48 C 0.1895(4) 0.2851(5) 0.0459(4) 0.0395(16) Uani 1 1 d . . .
H48 H 0.2345 0.2886 0.0787 0.047 Uiso 1 1 calc R . .
C49 C 0.4871(4) 0.6385(5) 0.0584(4) 0.0451(19) Uani 1 1 d . . .
C50 C 0.5516(3) 0.7879(4) -0.2665(3) 0.0283(13) Uani 1 1 d . . .
C51 C 0.4401(3) 0.5881(5) -0.0969(3) 0.0362(16) Uani 1 1 d . . .
C52 C 0.3669(3) 0.6392(4) 0.2307(3) 0.0270(12) Uani 1 1 d . . .
C53 C 0.4231(4) 0.7260(4) 0.3246(3) 0.0297(13) Uani 1 1 d . . .
C54 C 0.0881(3) 0.7267(4) -0.3127(3) 0.0286(13) Uani 1 1 d . . .
C55 C 0.1859(10) 0.1410(9) 0.0624(8) 0.094(4) Uani 1 1 d U . .
H55A H 0.1551 0.0982 0.0398 0.141 Uiso 1 1 calc R . .
H55B H 0.1805 0.1460 0.0998 0.141 Uiso 1 1 calc R . .
H55C H 0.2370 0.1299 0.0696 0.141 Uiso 1 1 calc R . .
C56 C 0.0298(7) 0.6467(5) -0.0447(3) 0.058(3) Uani 1 1 d . . .
C57 C 0.2953(5) 0.4553(6) 0.2882(3) 0.048(2) Uani 1 1 d . . .
H57A H 0.2897 0.4732 0.3237 0.072 Uiso 1 1 calc R . .
H57B H 0.3304 0.4888 0.2804 0.072 Uiso 1 1 calc R . .
H57C H 0.3131 0.4014 0.2936 0.072 Uiso 1 1 calc R . .
C58 C 0.2647(10) 0.4279(11) -0.1696(7) 0.100(5) Uani 1 1 d DU . .
H58 H 0.2197 0.4162 -0.1665 0.120 Uiso 1 1 calc R . .
C59 C 0.1626(4) 0.4842(7) 0.2526(4) 0.052(2) Uani 1 1 d . . .
H59A H 0.1802 0.4971 0.2943 0.078 Uiso 1 1 calc R . .
H59B H 0.1267 0.4420 0.2436 0.078 Uiso 1 1 calc R . .
H59C H 0.1399 0.5304 0.2293 0.078 Uiso 1 1 calc R . .
C60 C 0.5696(4) 0.7490(4) 0.3967(3) 0.0331(14) Uani 1 1 d . . .
H60 H 0.6192 0.7574 0.4213 0.040 Uiso 1 1 calc R . .
C61 C 0.0749(4) 0.7780(5) -0.3600(3) 0.0348(15) Uani 1 1 d . . .
H61 H 0.1136 0.7976 -0.3693 0.042 Uiso 1 1 calc R . .
C62 C 0.2168(4) 0.4375(4) 0.1839(3) 0.0367(15) Uani 1 1 d . . .
H62 H 0.2596 0.4237 0.1780 0.044 Uiso 1 1 calc R . .
C63 C 0.4525(4) 0.8591(5) -0.3680(3) 0.0339(15) Uani 1 1 d . . .
H63 H 0.4191 0.8832 -0.4024 0.041 Uiso 1 1 calc R . .
C64 C 0.0560(4) 0.5884(5) 0.1049(3) 0.0327(14) Uani 1 1 d . . .
C65 C 0.4388(5) 0.7777(4) 0.3715(3) 0.0373(16) Uani 1 1 d . . .
H65 H 0.4009 0.8036 0.3786 0.045 Uiso 1 1 calc R . .
C66 C 0.1871(4) 0.5261(5) -0.0761(3) 0.0346(15) Uani 1 1 d . . .

loop_
_atom_site_aniso_label
_atom_site_aniso_U_11
_atom_site_aniso_U_22
_atom_site_aniso_U_33
_atom_site_aniso_U_23
_atom_site_aniso_U_13
_atom_site_aniso_U_12
La1 0.01226(15) 0.02519(17) 0.02148(16) 0.00114(13) 0.00214(11) -0.00224(12)
La2 0.01405(16) 0.0467(2) 0.02273(18) -0.00053(15) 0.00571(13) -0.00088(14)
S1 0.0117(6) 0.0435(9) 0.0337(8) 0.0054(7) 0.0070(6) 0.0017(6)
S2 0.0120(6) 0.0451(10) 0.0404(9) 0.0093(7) 0.0089(6) 0.0035(6)
S3 0.0249(8) 0.0440(10) 0.0548(11) -0.0170(8) 0.0206(8) 0.0038(7)
O1 0.025(2) 0.030(2) 0.026(2) 0.0071(18) 0.0121(17) 0.0090(18)
O2 0.0132(18) 0.055(3) 0.0212(19) 0.0018(19) 0.0074(15) 0.0050(18)
O3 0.018(2) 0.044(3) 0.036(2) 0.000(2) 0.0152(18) 0.0022(18)
O4 0.0117(19) 0.072(4) 0.034(2) -0.016(2) 0.0050(17) 0.003(2)
O5 0.028(2) 0.046(3) 0.034(3) 0.003(2) 0.004(2) -0.013(2)
O6 0.023(2) 0.090(4) 0.046(3) 0.016(3) 0.015(2) 0.006(2)
O7 0.022(2) 0.084(4) 0.040(3) 0.026(3) 0.013(2) 0.003(3)
O8 0.041(3) 0.054(4) 0.054(3) -0.018(3) -0.002(3) 0.026(3)
O9 0.020(2) 0.057(4) 0.055(3) 0.015(3) -0.001(2) -0.005(2)
O10 0.029(3) 0.084(4) 0.040(3) 0.029(3) 0.015(2) 0.0