####################################################################### 
# 
# This file contains crystal structure data downloaded from the 
# Cambridge Structural Database (CSD) hosted by the Cambridge 
# Crystallographic Data Centre (CCDC).
# 
# Full information about CCDC data access policies and citation 
# guidelines are available at http://www.ccdc.cam.ac.uk/access/V1 
# 
# Audit and citation data items may have been added by the CCDC. 
# Please retain this information to preserve the provenance of 
# this file and to allow appropriate attribution of the data. 
# 
#######################################################################

data_1
_audit_block_doi                 10.5517/ccs0wc0
_database_code_depnum_ccdc_archive 'CCDC 715832'
loop_
_citation_id
_citation_doi
_citation_year
1 10.1002/zaac.200900457 2010
_audit_update_record             
;
2009-01-09 deposited with the CCDC.	2024-07-14 downloaded from the CCDC.
;
#TrackingRef '1.CIF'


_audit_creation_method           SHELXL-97
_chemical_name_systematic        
;
?
;
_chemical_name_common            "'anhydrous acetate '"
_chemical_melting_point          ?
_chemical_formula_moiety         'C20 H30 Co5 O20'
_chemical_formula_sum            'C20 H30 Co5 O20'
_chemical_formula_weight         885.09

loop_
_atom_type_symbol
_atom_type_description
_atom_type_scat_dispersion_real
_atom_type_scat_dispersion_imag
_atom_type_scat_source
C C 0.0033 0.0016 'International Tables Vol C Tables 4.2.6.8 and 6.1.1.4'
H H 0.0000 0.0000 'International Tables Vol C Tables 4.2.6.8 and 6.1.1.4'
O O 0.0106 0.0060 'International Tables Vol C Tables 4.2.6.8 and 6.1.1.4'
Co Co 0.3494 0.9721 'International Tables Vol C Tables 4.2.6.8 and 6.1.1.4'

_symmetry_cell_setting           orthorhombic
_symmetry_space_group_name_H-M   Pbcn

loop_
_symmetry_equiv_pos_as_xyz
'x, y, z'
'-x+1/2, -y+1/2, z+1/2'
'-x, y, -z+1/2'
'x+1/2, -y+1/2, -z'
'-x, -y, -z'
'x-1/2, y-1/2, -z-1/2'
'x, -y, z-1/2'
'-x-1/2, y-1/2, z'

_cell_length_a                   17.951(2)
_cell_length_b                   22.147(3)
_cell_length_c                   8.2553(10)
_cell_angle_alpha                90.00
_cell_angle_beta                 90.00
_cell_angle_gamma                90.00
_cell_volume                     3282.0(7)
_cell_formula_units_Z            4
_cell_measurement_temperature    293(2)
_cell_measurement_reflns_used    ?
_cell_measurement_theta_min      none
_cell_measurement_theta_max      none

_exptl_crystal_description       prism
_exptl_crystal_colour            pink
_exptl_crystal_size_max          1.29
_exptl_crystal_size_mid          0.31
_exptl_crystal_size_min          0.16
_exptl_crystal_density_meas      'not measured'
_exptl_crystal_density_diffrn    1.791
_exptl_crystal_density_method    'not measured'
_exptl_crystal_F_000             1780
_exptl_absorpt_coefficient_mu    2.553
_exptl_absorpt_correction_type   'empirical used sadabs'
_exptl_absorpt_correction_T_min  0.1372
_exptl_absorpt_correction_T_max  0.6853
_exptl_absorpt_process_details   ?

_exptl_special_details           
;
?
;

_diffrn_ambient_temperature      293(2)
_diffrn_radiation_wavelength     0.71073
_diffrn_radiation_type           MoK\a
_diffrn_radiation_source         'fine-focus sealed tube'
_diffrn_radiation_monochromator  graphite
_diffrn_measurement_device_type  'Bruker SMART CCD area detector'
_diffrn_measurement_method       'phi and omega scans'
_diffrn_detector_area_resol_mean ?
_diffrn_standards_number         ?
_diffrn_standards_interval_count ?
_diffrn_standards_interval_time  ?
_diffrn_standards_decay_%        0
_diffrn_reflns_number            17091
_diffrn_reflns_av_R_equivalents  0.0781
_diffrn_reflns_av_sigmaI/netI    0.0586
_diffrn_reflns_limit_h_min       -22
_diffrn_reflns_limit_h_max       18
_diffrn_reflns_limit_k_min       -23
_diffrn_reflns_limit_k_max       27
_diffrn_reflns_limit_l_min       -10
_diffrn_reflns_limit_l_max       10
_diffrn_reflns_theta_min         1.84
_diffrn_reflns_theta_max         26.36
_reflns_number_total             3339
_reflns_number_gt                2376
_reflns_threshold_expression     >2sigma(I)

_computing_data_collection       'Bruker SMART'
_computing_cell_refinement       'Bruker SAINT'
_computing_data_reduction        'Bruker SAINT'
_computing_structure_solution    'SHELXS-97 (Sheldrick, 1990)'
_computing_structure_refinement  'SHELXL-97 (Sheldrick, 1997)'
_computing_molecular_graphics    'Bruker SHELXTL'
_computing_publication_material  'Bruker SHELXTL'

_refine_special_details          
;
Refinement of F^2^ against ALL reflections. The weighted R-factor wR and
goodness of fit S are based on F^2^, conventional R-factors R are based
on F, with F set to zero for negative F^2^. The threshold expression of
F^2^ > 2sigma(F^2^) is used only for calculating R-factors(gt) etc. and is
not relevant to the choice of reflections for refinement. R-factors based
on F^2^ are statistically about twice as large as those based on F, and R-
factors based on ALL data will be even larger.
;

_refine_ls_structure_factor_coef Fsqd
_refine_ls_matrix_type           full
_refine_ls_weighting_scheme      calc
_refine_ls_weighting_details     
'calc w=1/[\s^2^(Fo^2^)+(0.0788P)^2^+0.0000P] where P=(Fo^2^+2Fc^2^)/3'
_atom_sites_solution_primary     direct
_atom_sites_solution_secondary   difmap
_atom_sites_solution_hydrogens   geom
_refine_ls_hydrogen_treatment    geom
_refine_ls_extinction_method     none
_refine_ls_extinction_coef       ?
_refine_ls_number_reflns         3339
_refine_ls_number_parameters     204
_refine_ls_number_restraints     1
_refine_ls_R_factor_all          0.0761
_refine_ls_R_factor_gt           0.0487
_refine_ls_wR_factor_ref         0.1390
_refine_ls_wR_factor_gt          0.1221
_refine_ls_goodness_of_fit_ref   1.004
_refine_ls_restrained_S_all      1.006
_refine_ls_shift/su_max          0.000
_refine_ls_shift/su_mean         0.000

loop_
_atom_site_label
_atom_site_type_symbol
_atom_site_fract_x
_atom_site_fract_y
_atom_site_fract_z
_atom_site_U_iso_or_equiv
_atom_site_adp_type
_atom_site_occupancy
_atom_site_symmetry_multiplicity
_atom_site_calc_flag
_atom_site_refinement_flags
_atom_site_disorder_assembly
_atom_site_disorder_group
Co1 Co 0.0000 0.34910(4) 0.2500 0.0245(3) Uani 1 2 d S . .
Co2 Co 0.17452(4) 0.31914(3) 0.33871(8) 0.0230(2) Uani 1 1 d . . .
Co3 Co 0.29482(4) 0.30591(3) 0.02054(8) 0.0257(2) Uani 1 1 d . . .
O1 O 0.03660(19) 0.41614(16) 0.3990(5) 0.0348(9) Uani 1 1 d . . .
O2 O 0.15506(19) 0.39614(16) 0.4540(4) 0.0328(9) Uani 1 1 d . . .
O3 O 0.26601(19) 0.21715(15) 0.0502(4) 0.0277(8) Uani 1 1 d . . .
O4 O 0.19616(19) 0.22940(15) 0.2703(4) 0.0247(7) Uani 1 1 d . . .
O5 O 0.1921(2) 0.32816(19) -0.0554(4) 0.0395(10) Uani 1 1 d . . .
O6 O 0.10800(19) 0.34336(16) 0.1358(4) 0.0281(8) Uani 1 1 d . . .
O7 O 0.27527(19) 0.35213(15) 0.2443(4) 0.0287(8) Uani 1 1 d . . .
O8 O 0.3192(3) 0.40040(18) 0.0345(5) 0.0452(10) Uani 1 1 d . . .
O9 O 0.4042(2) 0.29151(19) 0.0547(5) 0.0421(10) Uani 1 1 d . . .
O10 O 0.43681(18) 0.21539(16) -0.1042(4) 0.0277(8) Uani 1 1 d . . .
C1 C 0.0973(3) 0.4288(2) 0.4629(6) 0.0276(11) Uani 1 1 d . . .
C2 C 0.1053(4) 0.4863(3) 0.5576(8) 0.0528(17) Uani 1 1 d . . .
H2A H 0.0588 0.5078 0.5567 0.079 Uiso 1 1 calc R . .
H2B H 0.1433 0.5109 0.5094 0.079 Uiso 1 1 calc R . .
H2C H 0.1188 0.4769 0.6673 0.079 Uiso 1 1 calc R . .
C3 C 0.2222(3) 0.1968(2) 0.1575(6) 0.0243(11) Uani 1 1 d . . .
C4 C 0.1989(3) 0.1324(2) 0.1486(7) 0.0354(13) Uani 1 1 d . . .
H4A H 0.2228 0.1133 0.0580 0.053 Uiso 1 1 calc R . .
H4B H 0.1458 0.1302 0.1354 0.053 Uiso 1 1 calc R . .
H4C H 0.2130 0.1121 0.2467 0.053 Uiso 1 1 calc R . .
C5 C 0.1290(3) 0.3431(2) -0.0113(6) 0.0277(11) Uani 1 1 d . . .
C6 C 0.0739(3) 0.3566(3) -0.1424(7) 0.0529(18) Uani 1 1 d . . .
H6A H 0.0983 0.3548 -0.2458 0.079 Uiso 1 1 calc R . .
H6B H 0.0537 0.3963 -0.1263 0.079 Uiso 1 1 calc R . .
H6C H 0.0344 0.3274 -0.1391 0.079 Uiso 1 1 calc R . .
C7 C 0.2963(3) 0.4015(2) 0.1789(7) 0.0342(12) Uani 1 1 d D . .
C8 C 0.2971(4) 0.4596(3) 0.2733(7) 0.0514(17) Uani 1 1 d D . .
H8A H 0.3147 0.4917 0.2051 0.077 Uiso 1 1 calc R . .
H8B H 0.3295 0.4555 0.3651 0.077 Uiso 1 1 calc R . .
H8C H 0.2476 0.4687 0.3097 0.077 Uiso 1 1 calc R . .
C9 C 0.4519(3) 0.2626(2) -0.0237(6) 0.0287(11) Uani 1 1 d . . .
C10 C 0.5284(3) 0.2874(3) -0.0222(9) 0.0538(18) Uani 1 1 d . . .
H10A H 0.5298 0.3229 0.0445 0.081 Uiso 1 1 calc R . .
H10B H 0.5430 0.2977 -0.1306 0.081 Uiso 1 1 calc R . .
H10C H 0.5621 0.2578 0.0205 0.081 Uiso 1 1 calc R . .

loop_
_atom_site_aniso_label
_atom_site_aniso_U_11
_atom_site_aniso_U_22
_atom_site_aniso_U_33
_atom_site_aniso_U_23
_atom_site_aniso_U_13
_atom_site_aniso_U_12
Co1 0.0179(5) 0.0287(5) 0.0268(5) 0.000 -0.0012(4) 0.000
Co2 0.0203(4) 0.0256(4) 0.0231(4) -0.0006(3) -0.0013(3) 0.0027(3)
Co3 0.0235(4) 0.0284(4) 0.0253(4) -0.0021(3) 0.0026(3) 0.0017(3)
O1 0.024(2) 0.035(2) 0.045(2) -0.0094(17) -0.0071(17) 0.0070(15)
O2 0.0241(19) 0.034(2) 0.040(2) -0.0092(17) -0.0051(16) 0.0064(15)
O3 0.030(2) 0.0266(19) 0.0269(18) -0.0002(15) 0.0034(15) 0.0027(15)
O4 0.0257(18) 0.0281(19) 0.0204(17) -0.0015(14) 0.0028(14) 0.0043(14)
O5 0.029(2) 0.058(3) 0.032(2) -0.0030(18) 0.0032(17) 0.0116(18)
O6 0.0246(19) 0.038(2) 0.0215(18) 0.0020(15) -0.0018(14) 0.0028(15)
O7 0.027(2) 0.032(2) 0.0280(19) 0.0013(16) 0.0017(14) -0.0023(15)
O8 0.066(3) 0.039(2) 0.030(2) 0.0007(18) 0.014(2) -0.008(2)
O9 0.031(2) 0.053(3) 0.043(2) -0.021(2) -0.0012(17) 0.0032(18)
O10 0.0214(18) 0.033(2) 0.0284(18) -0.0036(15) -0.0011(15) 0.0020(14)
C1 0.027(3) 0.028(3) 0.028(3) -0.002(2) -0.002(2) 0.002(2)
C2 0.045(4) 0.046(4) 0.068(4) -0.029(3) -0.010(3) 0.009(3)
C3 0.023(3) 0.028(3) 0.022(3) -0.003(2) -0.003(2) 0.005(2)
C4 0.039(3) 0.030(3) 0.037(3) -0.002(2) 0.010(2) -0.008(2)
C5 0.026(3) 0.034(3) 0.023(3) -0.001(2) -0.001(2) -0.001(2)
C6 0.038(4) 0.091(5) 0.030(3) 0.001(3) -0.007(3) 0.020(3)
C7 0.028(3) 0.033(3) 0.041(3) -0.002(2) -0.002(2) 0.001(2)
C8 0.075(5) 0.033(3) 0.047(4) -0.007(3) 0.014(3) -0.006(3)
C9 0.021(3) 0.032(3) 0.033(3) -0.002(2) -0.002(2) 0.002(2)
C10 0.026(3) 0.052(4) 0.084(5) -0.026(4) 0.009(3) -0.006(3)

_geom_special_details            
;
All esds (except the esd in the dihedral angle between two l.s. planes)
are estimated using the full covariance matrix. The cell esds are taken
into account individually in the estimation of esds in distances, angles
and torsion angles; correlations between esds in cell parameters are only
used when they are defined by crystal symmetry. An approximate (isotropic)
treatment of cell esds is used for estimating esds involving l.s. planes.
;

loop_
_geom_bond_atom_site_label_1
_geom_bond_atom_site_label_2
_geom_bond_distance
_geom_bond_site_symmetry_2
_geom_bond_publ_flag
Co1 O1 2.037(4) . ?
Co1 O1 2.037(4) 3 ?
Co1 O6 2.159(3) 3 ?
Co1 O6 2.159(3) . ?
Co1 O10 2.185(3) 4_455 ?
Co1 O10 2.185(3) 2 ?
Co2 O2 1.984(3) . ?
Co2 O7 2.101(3) . ?
Co2 O4 2.102(3) . ?
Co2 O6 2.126(3) . ?
Co2 O10 2.191(3) 2 ?
Co2 O3 2.199(3) 2 ?
Co3 O9 2.010(4) . ?
Co3 O5 2.010(4) . ?
Co3 O3 2.047(4) . ?
Co3 O7 2.141(3) . ?
Co3 O8 2.141(4) . ?
Co3 O4 2.215(3) 2_554 ?
Co3 C7 2.488(5) . ?
O1 C1 1.242(6) . ?
O2 C1 1.267(6) . ?
O3 C3 1.267(6) . ?
O3 Co2 2.199(3) 2_554 ?
O4 C3 1.268(5) . ?
O4 Co3 2.215(3) 2 ?
O5 C5 1.234(6) . ?
O6 C5 1.272(6) . ?
O7 C7 1.276(6) . ?
O8 C7 1.261(6) . ?
O9 C9 1.249(6) . ?
O10 C9 1.269(6) . ?
O10 Co1 2.185(3) 2_554 ?
O10 Co2 2.191(3) 2_554 ?
C1 C2 1.501(7) . ?
C3 C4 1.488(7) . ?
C5 C6 1.496(7) . ?
C7 C8 1.506(6) . ?
C9 C10 1.480(8) . ?

loop_
_geom_angle_atom_site_label_1
_geom_angle_atom_site_label_2
_geom_angle_atom_site_label_3
_geom_angle
_geom_angle_site_symmetry_1
_geom_angle_site_symmetry_3
_geom_angle_publ_flag
O1 Co1 O1 86.4(2) . 3 ?
O1 Co1 O6 93.95(14) . 3 ?
O1 Co1 O6 90.98(14) 3 3 ?
O1 Co1 O6 90.98(14) . . ?
O1 Co1 O6 93.95(14) 3 . ?
O6 Co1 O6 173.25(19) 3 . ?
O1 Co1 O10 167.54(13) . 4_455 ?
O1 Co1 O10 88.65(14) 3 4_455 ?
O6 Co1 O10 74.68(12) 3 4_455 ?
O6 Co1 O10 100.78(12) . 4_455 ?
O1 Co1 O10 88.65(14) . 2 ?
O1 Co1 O10 167.54(13) 3 2 ?
O6 Co1 O10 100.78(12) 3 2 ?
O6 Co1 O10 74.68(12) . 2 ?
O10 Co1 O10 98.37(19) 4_455 2 ?
O2 Co2 O7 91.76(14) . . ?
O2 Co2 O4 166.90(14) . . ?
O7 Co2 O4 94.01(13) . . ?
O2 Co2 O6 93.58(14) . . ?
O7 Co2 O6 95.94(13) . . ?
O4 Co2 O6 97.51(13) . . ?
O2 Co2 O10 92.08(14) . 2 ?
O7 Co2 O10 170.58(13) . 2 ?
O4 Co2 O10 84.05(13) . 2 ?
O6 Co2 O10 75.23(13) . 2 ?
O2 Co2 O3 91.06(14) . 2 ?
O7 Co2 O3 90.22(13) . 2 ?
O4 Co2 O3 77.18(13) . 2 ?
O6 Co2 O3 172.16(14) . 2 ?
O10 Co2 O3 98.31(13) 2 2 ?
O9 Co3 O5 168.46(16) . . ?
O9 Co3 O3 94.46(16) . . ?
O5 Co3 O3 92.35(16) . . ?
O9 Co3 O7 96.60(14) . . ?
O5 Co3 O7 90.08(14) . . ?
O3 Co3 O7 108.33(13) . . ?
O9 Co3 O8 87.01(18) . . ?
O5 Co3 O8 87.98(18) . . ?
O3 Co3 O8 169.61(14) . . ?
O7 Co3 O8 61.29(13) . . ?
O9 Co3 O4 90.21(14) . 2_554 ?
O5 Co3 O4 82.10(14) . 2_554 ?
O3 Co3 O4 77.95(12) . 2_554 ?
O7 Co3 O4 170.26(12) . 2_554 ?
O8 Co3 O4 112.36(13) . 2_554 ?
O9 Co3 C7 92.89(17) . . ?
O5 Co3 C7 88.02(17) . . ?
O3 Co3 C7 139.16(16) . . ?
O7 Co3 C7 30.85(15) . . ?
O8 Co3 C7 30.45(16) . . ?
O4 Co3 C7 142.16(16) 2_554 . ?
C1 O1 Co1 134.7(3) . . ?
C1 O2 Co2 131.5(3) . . ?
C3 O3 Co3 125.6(3) . . ?
C3 O3 Co2 136.5(3) . 2_554 ?
Co3 O3 Co2 97.66(14) . 2_554 ?
C3 O4 Co2 143.5(3) . . ?
C3 O4 Co3 117.2(3) . 2 ?
Co2 O4 Co3 95.55(12) . 2 ?
C5 O5 Co3 144.6(4) . . ?
C5 O6 Co2 125.8(3) . . ?
C5 O6 Co1 133.1(3) . . ?
Co2 O6 Co1 100.09(13) . . ?
C7 O7 Co2 135.2(3) . . ?
C7 O7 Co3 89.8(3) . . ?
Co2 O7 Co3 107.16(15) . . ?
C7 O8 Co3 90.1(3) . . ?
C9 O9 Co3 132.6(3) . . ?
C9 O10 Co1 135.8(3) . 2_554 ?
C9 O10 Co2 126.5(3) . 2_554 ?
Co1 O10 Co2 97.29(13) 2_554 2_554 ?
O1 C1 O2 124.4(5) . . ?
O1 C1 C2 119.8(5) . . ?
O2 C1 C2 115.8(5) . . ?
O3 C3 O4 122.6(4) . . ?
O3 C3 C4 118.8(4) . . ?
O4 C3 C4 118.6(4) . . ?
O5 C5 O6 123.8(5) . . ?
O5 C5 C6 116.5(5) . . ?
O6 C5 C6 119.6(5) . . ?
O8 C7 O7 118.7(5) . . ?
O8 C7 C8 120.1(5) . . ?
O7 C7 C8 121.1(5) . . ?
O8 C7 Co3 59.4(3) . . ?
O7 C7 Co3 59.4(2) . . ?
C8 C7 Co3 179.4(4) . . ?
O9 C9 O10 123.3(5) . . ?
O9 C9 C10 116.2(5) . . ?
O10 C9 C10 120.5(5) . . ?

_diffrn_measured_fraction_theta_max 0.992
_diffrn_reflns_theta_full        26.36
_diffrn_measured_fraction_theta_full 0.992
_refine_diff_density_max         0.995
_refine_diff_density_min         -0.555
_refine_diff_density_rms         0.133


