####################################################################### 
# 
# This file contains crystal structure data downloaded from the 
# Cambridge Structural Database (CSD) hosted by the Cambridge 
# Crystallographic Data Centre (CCDC).
# 
# Full information about CCDC data access policies and citation 
# guidelines are available at http://www.ccdc.cam.ac.uk/access/V1 
# 
# Audit and citation data items may have been added by the CCDC. 
# Please retain this information to preserve the provenance of 
# this file and to allow appropriate attribution of the data. 
# 
#######################################################################

data_ZABQIC
#This CIF has been generated from an entry in the Cambridge Structural Database
_database_code_depnum_ccdc_archive 'CCDC 1307997'
_database_code_CSD               ZABQIC
loop_
_citation_id
_citation_doi
_citation_year
1 10.1038/374792a0 1995
_audit_creation_method           'Created from the CSD'
_audit_update_record             
;
2024-07-14 downloaded from the CCDC.
;
_database_code_NBS               654901
_chemical_formula_moiety         
'(C33 H15 Ag1 N3 1+)n,n(C1 F3 O3 S1 1-),2n(C6 H6)'
_chemical_name_systematic        
'catena-((\m~3~-1,3,5-tris(4-Ethynylbenzonitrile)benzene)-silver trifluoromethanesulfonate benzene solvate)'
_chemical_absolute_configuration unk
_diffrn_ambient_temperature      295
_exptl_crystal_density_diffrn    1.342
#These two values have been output from a single CSD field.
_refine_ls_R_factor_gt           0.2367
_refine_ls_wR_factor_gt          0.2367
_diffrn_radiation_probe          x-ray
_symmetry_cell_setting           orthorhombic
_symmetry_space_group_name_H-M   'P n n 2'
_symmetry_Int_Tables_number      34
_space_group_name_Hall           'P 2 -2n'
loop_
_symmetry_equiv_pos_site_id
_symmetry_equiv_pos_as_xyz
1 x,y,z
2 -x,-y,z
3 1/2-x,1/2+y,1/2+z
4 1/2+x,1/2-y,1/2+z
_cell_length_a                   11.592(1)
_cell_length_b                   19.0992(4)
_cell_length_c                   38.7481(4)
_cell_angle_alpha                90
_cell_angle_beta                 90
_cell_angle_gamma                90
_cell_volume                     8578.75
_exptl_crystal_colour            'light yellow'
_cell_formula_units_Z            8
loop_
_atom_site_label
_atom_site_type_symbol
_atom_site_fract_x
_atom_site_fract_y
_atom_site_fract_z
Ag1 Ag 1.2006(2) 0.5341(1) 0.2566(2)
N1 N 1.2538(17) 0.4383(11) 0.2849(6)
N2 N 1.6705(20) -0.0121(14) 0.7038(7)
N3 N 2.0641(17) -0.4038(12) 0.2838(6)
C3 C 1.6075(14) 0.0644(10) 0.4440(5)
C4 C 1.6018(16) 0.0725(11) 0.4091(5)
C5 C 1.5458(18) 0.1283(13) 0.3902(6)
C6 C 1.4998(20) 0.1787(14) 0.3740(6)
C7 C 1.4459(17) 0.2327(12) 0.3577(6)
C8 C 1.4142(17) 0.2935(12) 0.3739(6)
C9 C 1.3656(18) 0.3491(13) 0.3539(6)
C10 C 1.3580(21) 0.3393(14) 0.3200(6)
C11 C 1.3019(23) 0.3957(15) 0.3032(7)
C12 C 1.3898(18) 0.2808(13) 0.3053(6)
C13 C 1.4353(18) 0.2278(12) 0.3248(6)
C14 C 1.6564(15) 0.0212(11) 0.3875(5)
C15 C 1.7161(17) -0.0389(11) 0.4024(5)
C16 C 1.7705(17) -0.0891(12) 0.3823(6)
C17 C 1.8180(19) -0.1327(14) 0.3664(6)
C18 C 1.8671(17) -0.1924(12) 0.3496(6)
C19 C 1.8810(19) -0.1796(13) 0.3140(6)
C20 C 1.9334(19) -0.2385(12) 0.2934(7)
C21 C 1.9649(15) -0.3028(11) 0.3143(5)
C22 C 2.0265(20) -0.3608(14) 0.2958(7)
C23 C 1.9497(16) -0.3057(11) 0.3501(6)
C24 C 1.8956(16) -0.2516(11) 0.3665(5)
C25 C 1.7144(17) -0.0429(11) 0.4384(5)
C26 C 1.6583(16) 0.0100(12) 0.4600(5)
C27 C 1.6640(17) 0.0049(12) 0.4949(6)
C28 C 1.6677(19) -0.0005(14) 0.5258(7)
C29 C 1.6718(19) -0.0036(15) 0.5639(6)
C30 C 1.7007(19) -0.0613(13) 0.5801(6)
C31 C 1.7128(21) -0.0637(15) 0.6156(7)
C32 C 1.6732(22) -0.0058(18) 0.6345(7)
C33 C 1.6745(24) -0.0093(16) 0.6757(9)
C34 C 1.6389(21) 0.0523(16) 0.6161(7)
C35 C 1.6307(19) 0.0542(14) 0.5827(6)
H1 H 1.5741(14) 0.0989(10) 0.4577(5)
H2 H 1.4241(17) 0.2986(12) 0.3975(6)
H3 H 1.3405(18) 0.3903(13) 0.3642(6)
H4 H 1.3816(18) 0.2752(13) 0.2816(6)
H5 H 1.4593(18) 0.1870(12) 0.3138(6)
H6 H 1.6536(15) 0.0263(11) 0.3636(5)
H7 H 1.8591(19) -0.1375(13) 0.3038(6)
H8 H 1.9455(19) -0.2356(12) 0.2697(7)
H9 H 1.9762(16) -0.3440(11) 0.3625(6)
H10 H 1.8780(16) -0.2558(11) 0.3898(5)
H11 H 1.7504(17) -0.0806(11) 0.4491(5)
H12 H 1.7135(19) -0.1018(13) 0.5673(6)
H13 H 1.7458(21) -0.1021(15) 0.6265(7)
H14 H 1.6205(21) 0.0926(16) 0.6284(7)
H15 H 1.5986(19) 0.0926(14) 0.5715(6)
N2C N 1.1705(20) 0.5121(14) 0.2038(7)
N3 N 1.0641(17) 0.5962(12) 0.2838(6)
Ag1C Ag 1.7006(2) -0.0341(1) 0.7566(2)
Ag1 Ag 2.2006(2) -0.4659(1) 0.2566(2)
Ag2 Ag 1.5000 0.5000 0.2900(2)
N4 N 1.3926(19) 0.5681(12) 0.3251(6)
N5 N 1.0000 1.0000 0.7333(9)
C36 C 1.0000 1.0000 0.4193(8)
C37 C 1.0396(17) 0.9450(12) 0.4365(6)
C38 C 1.0877(18) 0.8856(13) 0.4189(6)
C39 C 1.1274(19) 0.8353(14) 0.4037(6)
C40 C 1.1860(18) 0.7823(12) 0.3881(6)
C41 C 1.2235(18) 0.7254(13) 0.4057(6)
C42 C 1.2813(18) 0.6640(13) 0.3916(6)
C43 C 1.2932(18) 0.6668(12) 0.3557(6)
C44 C 1.3498(2) 0.6134(16) 0.3358(7)
C45 C 1.2598(18) 0.7201(13) 0.3355(7)
C46 C 1.2031(20) 0.7841(13) 0.3522(7)
C47 C 1.0419(16) 0.9419(11) 0.4745(5)
C48 C 1.0000 1.0000 0.4919(7)
C49 C 1.0000 1.0000 0.5298(9)
C50 C 1.0000 1.0000 0.5961(10)
C51 C 1.0000 1.0000 0.5607(10)
C52 C 1.0000 1.0000 0.6641(13)
C53 C 1.0000 1.0000 0.6994(10)
C54 C 1.0240(18) 0.9346(14) 0.6509(6)
C55 C 1.0230(21) 0.9405(15) 0.6158(7)
H16 H 1.0000 1.0000 0.3953(8)
H17 H 1.2110(18) 0.7256(13) 0.4294(6)
H18 H 1.3075(18) 0.6270(13) 0.4051(6)
H19 H 1.2708(18) 0.7182(13) 0.3117(7)
H20 H 1.1809(20) 0.8226(13) 0.3392(7)
H21 H 1.0700(16) 0.9030(11) 0.4862(5)
H22 H 1.0381(18) 0.8941(14) 0.6636(6)
H23 H 1.0397(21) 0.8999(15) 0.6036(7)
C37A C 0.9604(17) 1.0550(12) 0.4365(6)
C38A C 0.9123(18) 1.1144(13) 0.4189(6)
C39A C 0.8726(19) 1.1647(14) 0.4037(6)
C40A C 0.8140(18) 1.2177(12) 0.3881(6)
C41A C 0.7765(18) 1.2746(13) 0.4057(6)
C42A C 0.7187(18) 1.3360(13) 0.3916(6)
C43A C 0.7068(18) 1.3332(12) 0.3557(6)
C44A C 0.6502(2) 1.3866(16) 0.3358(7)
N4A N 0.6074(19) 1.4319(12) 0.3251(6)
C45A C 0.7402(18) 1.2799(13) 0.3355(7)
C46A C 0.7969(20) 1.2159(13) 0.3522(7)
H20A H 0.8191(20) 1.1774(13) 0.3392(7)
H19A H 0.7292(18) 1.2818(13) 0.3117(7)
H18A H 0.6925(18) 1.3730(13) 0.4051(6)
H17A H 0.7890(18) 1.2744(13) 0.4294(6)
C47A C 0.9581(16) 1.0581(11) 0.4745(5)
C54A C 0.9760(18) 1.0654(14) 0.6509(6)
C55A C 0.9770(21) 1.0595(15) 0.6158(7)
H23A H 0.9603(21) 1.1001(15) 0.6036(7)
H22A H 0.9619(18) 1.1059(14) 0.6636(6)
H21A H 0.9300(16) 1.0970(11) 0.4862(5)
N4A N 1.6074(19) 0.4319(12) 0.3251(6)
N5B N 1.5000 0.5000 0.2333(9)
Ag2B Ag 1.0000 1.0000 0.7900(2)
Ag2 Ag 0.5000 1.5000 0.2900(2)
S1 S 1.3598 0.6802 0.2253
F1 F 1.2042 0.7635 0.2404
F2 F 1.2955 0.7991 0.2066
F3 F 1.3622 0.7911 0.2604
O1 O 1.3166 0.6405 0.2584
O2 O 1.3034 0.6617 0.1946
O3 O 1.4802 0.6785 0.2189
C1 C 1.3106 0.7750 0.2326
C65 C 1.0764(42) 0.3480(20) 0.2104(14)
C66 C 1.1910(37) 0.3365(22) 0.2088(14)
C67 C 1.0033(24) 0.2994(28) 0.1983(14)
C68 C 1.1548(42) 0.2200(18) 0.1950(13)
C69 C 1.2299(24) 0.2746(28) 0.1972(14)
C70 C 1.0415(36) 0.2343(22) 0.1915(13)
H28 H 1.0482(42) 0.3894(20) 0.2197(14)
H29 H 1.2426(37) 0.3711(22) 0.2156(14)
H30 H 0.9262(24) 0.3106(28) 0.1948(14)
H31 H 1.1810(42) 0.1740(18) 0.1959(13)
H32 H 1.3066(24) 0.2691(28) 0.1907(14)
H33 H 0.9905(36) 0.1996(22) 0.1844(13)
C71 C 1.5000 0.5000 -0.1927(32)
C72 C 1.6060(77) 0.5339(35) -0.2084(21)
C73 C 1.5000 0.5000 -0.2415(33)
C74 C 1.5686(69) 0.5713(37) -0.2232(20)
C74A C 1.4314(69) 0.4287(37) -0.2232(20)
C72A C 1.3940(77) 0.4661(35) -0.2084(21)
S2? S 0.5000 0.5000 0.4234
F4? F 1.4881 0.4385 0.4971
F5? F 1.5798 0.4617 0.4967
F6? F 1.4051 0.4768 0.4970
O4? O 0.3916 0.4973 0.4035
O5? O 0.5106 0.5751 0.4242
O6? O 0.4887 0.5525 0.3821
C2? C 1.5000 0.5000 0.4864
C56? C 1.5525(23) 1.0000(20) -0.1433(8)
C57? C 1.6141(19) 1.0000(20) -0.1139(8)
C58? C 1.5590(23) 0.9989(20) -0.0833(8)
C59? C 0.8992(44) 0.7583(27) 0.4723(15)
C60? C 0.7779(40) 0.2250(29) -0.0358(16)
C61? C 0.9057(49) 0.6958(29) 0.4587(15)
C62? C 0.8045(47) 0.7901(24) 0.4816(15)
C63? C 0.7222(40) 0.1691(30) -0.0451(16)
C64? C 0.8889(41) 0.2330(25) -0.0338(15)
C75? C 0.9685(92) 0.4614(50) -0.2063(25)
C76? C 0.8981(74) 0.4468(44) -0.2288(22)
C77? C 1.4667(68) 0.0949(41) 0.2562(26)
C78? C 1.062(11) 0.4676(73) -0.2171(32)
C79? C 1.4449(77) 0.0219(62) 0.2290(29)
H24? H 1.5913(23) 0.9999(20) -0.1643(8)
H25? H 1.6942(19) 1.0009(20) -0.1147(8)
H26? H 1.6000(23) 0.9966(20) -0.0627(8)
H27? H 1.6175(78) 0.9423(26) -0.0941(11)

#END
