
#######################################################################
#
#                 Cambridge Crystallographic Data Centre
#                                CCDC
#
#######################################################################
#
# If this CIF has been generated from an entry in the Cambridge
# Structural Database, then it will include bibliographic, chemical,
# crystal, experimental, refinement or atomic coordinate data resulting
# from the CCDC's data processing and validation procedures.
#
#######################################################################

data_CSD_CIF_ZAQBIC
_audit_creation_date 1996-03-13
_audit_creation_method CSD-ConQuest-V1
_database_code_CSD ZAQBIC
_database_code_depnum_ccdc_archive 'CCDC 1309136'
_database_code_depnum_ccdc_fiz 'CSD 58848'
_chemical_formula_sum 'C11 H24 Br1 F6 N1'
_chemical_formula_moiety
;
C11 H24 N1 1+,Br1 F6 1-
;
_journal_coden_Cambridge 1220
_journal_volume 1
_journal_year 1995
_journal_page_first 261
_journal_name_full 'Chem.-Eur.J. '
loop_
_publ_author_name
"A.R.Mahjoub"
"Xiongzhi Zhang"
"K.Seppelt"
"S.Giese"
"U.Gross"
_chemical_name_systematic
;
1,1,3,3,5,5-Hexamethylpiperidinium hexafluorobromate(v)
;
_chemical_name_common
;
Teaching Subset: Fundamental Chemistry
;
_cell_volume    749.720
_exptl_crystal_colour 'colorless'
_diffrn_ambient_temperature 130.15
#These two values have been output from a single CSD field.
_refine_ls_R_factor_gt 0.038
_refine_ls_wR_factor_gt 0.038
_symmetry_cell_setting triclinic
_symmetry_space_group_name_H-M 'P -1'
_symmetry_Int_Tables_number 2
loop_
_symmetry_equiv_pos_site_id
_symmetry_equiv_pos_as_xyz
1 x,y,z
2 -x,-y,-z
_cell_length_a 7.477(1)
_cell_length_b 8.358(2)
_cell_length_c 12.692(2)
_cell_angle_alpha 86.50(1)
_cell_angle_beta 73.55(1)
_cell_angle_gamma 80.29(1)
_cell_formula_units_Z 2
loop_
_atom_type_symbol
_atom_type_radius_bond
C 0.68
H 0.23
Br 1.21
F 0.64
N 0.68
loop_
_atom_site_label
_atom_site_type_symbol
_atom_site_fract_x
_atom_site_fract_y
_atom_site_fract_z
Br1 Br 0.31490 0.71100 0.67010
F1 F 0.2622(3) 0.9141(2) 0.7372(2)
F2 F 0.3609(3) 0.5109(2) 0.6085(2)
F3 F 0.2599(5) 0.8091(3) 0.5466(2)
F4 F 0.5543(3) 0.7296(3) 0.6137(2)
F5 F 0.3703(4) 0.6159(3) 0.7916(2)
F6 F 0.0766(4) 0.6831(3) 0.7292(3)
N1 N 1.0618(3) 0.7390(3) 0.3304(2)
C1 C 0.9846(4) 0.7167(3) 0.2360(2)
C2 C 1.1149(4) 0.7164(3) 0.1204(2)
C3 C 1.2104(4) 0.8660(4) 0.1054(2)
C4 C 1.2955(4) 0.9000(4) 0.1956(3)
C5 C 1.1567(4) 0.8879(4) 0.3082(2)
C6 C 0.9032(5) 0.7711(4) 0.4312(2)
C7 C 1.1820(5) 0.5883(4) 0.3541(3)
C8 C 0.9892(5) 0.7358(5) 0.0446(3)
C9 C 1.2450(5) 0.5557(4) 0.0894(3)
C10 C 1.4825(5) 0.7980(5) 0.1866(4)
C11 C 1.3247(5) 1.0789(4) 0.1835(4)
H1 H 0.93700 0.61940 0.25100
H2 H 0.88420 0.81050 0.23720
H3 H 1.31010 0.86700 0.02890
H4 H 1.12910 0.95850 0.10240
H5 H 1.04850 0.98500 0.31560
H6 H 1.20390 0.89140 0.36710
H7 H 0.82190 0.87130 0.42740
H8 H 0.94700 0.78050 0.49690
H9 H 0.82380 0.67690 0.44870
H10 H 1.28380 0.55550 0.29580
H11 H 1.11200 0.49610 0.36960
H12 H 1.22300 0.59810 0.42430
H13 H 1.06340 0.74800 -0.02720
H14 H 0.89410 0.83680 0.06010
H15 H 0.92890 0.65390 0.05320
H16 H 1.33610 0.53780 0.11890
H17 H 1.29560 0.55960 0.01120
H18 H 1.17380 0.46510 0.10540
H19 H 1.48880 0.68370 0.18440
H20 H 1.52650 0.82380 0.24220
H21 H 1.57070 0.82020 0.11360
H22 H 1.41450 1.09380 0.11330
H23 H 1.37100 1.11600 0.23800
H24 H 1.21060 1.15690 0.19180
#END
