####################################################################### 
# 
# This file contains crystal structure data downloaded from the 
# Cambridge Structural Database (CSD) hosted by the Cambridge 
# Crystallographic Data Centre (CCDC).
# 
# Full information about CCDC data access policies and citation 
# guidelines are available at http://www.ccdc.cam.ac.uk/access/V1 
# 
# Audit and citation data items may have been added by the CCDC. 
# Please retain this information to preserve the provenance of 
# this file and to allow appropriate attribution of the data. 
# 
#######################################################################

data_j016_Zn5MOF
_audit_block_doi                 10.5517/ccx9y37
_database_code_depnum_ccdc_archive 'CCDC 843699'
loop_
_citation_id
_citation_doi
_citation_year
1 10.1039/c2cc17357c 2012
_audit_update_record             
;
2011-09-09 deposited with the CCDC.	2024-07-14 downloaded from the CCDC.
;
#TrackingRef '- TCM-2.cif'


_audit_creation_method           SHELXL-97
_chemical_name_systematic        
;
Department of Chemistry
Trinity College Dublin
Dublin 2
Dublin, Republic of Ireland
;
_chemical_name_common            
;
Department of Chemistry Trinity College Dublin Dublin 2
Dublin, Republic of Ireland
;
_chemical_melting_point          ?
_chemical_formula_moiety         'C105 H59 N2 O22 Zn5'
_chemical_formula_sum            'C105 H59 N2 O22 Zn5'
_chemical_formula_weight         2027.39

loop_
_atom_type_symbol
_atom_type_description
_atom_type_scat_dispersion_real
_atom_type_scat_dispersion_imag
_atom_type_scat_source
C C 0.0033 0.0016 'International Tables Vol C Tables 4.2.6.8 and 6.1.1.4'
H H 0.0000 0.0000 'International Tables Vol C Tables 4.2.6.8 and 6.1.1.4'
O O 0.0106 0.0060 'International Tables Vol C Tables 4.2.6.8 and 6.1.1.4'
Zn Zn 0.2839 1.4301 'International Tables Vol C Tables 4.2.6.8 and 6.1.1.4'
N N 0.0061 0.0033 'International Tables Vol C Tables 4.2.6.8 and 6.1.1.4'

_symmetry_cell_setting           monoclinic
_symmetry_space_group_name_H-M   'C 2/c'
_symmetry_space_group_name_Hall  '-C 2yc'

loop_
_symmetry_equiv_pos_as_xyz
'x, y, z'
'-x, y, -z+1/2'
'x+1/2, y+1/2, z'
'-x+1/2, y+1/2, -z+1/2'
'-x, -y, -z'
'x, -y, z-1/2'
'-x+1/2, -y+1/2, -z'
'x+1/2, -y+1/2, z-1/2'

_cell_length_a                   25.1355(17)
_cell_length_b                   37.055(2)
_cell_length_c                   20.2587(14)
_cell_angle_alpha                90.00
_cell_angle_beta                 124.71(2)
_cell_angle_gamma                90.00
_cell_volume                     15510(4)
_cell_formula_units_Z            4
_cell_measurement_temperature    120(2)
_cell_measurement_reflns_used    9755
_cell_measurement_theta_min      2.2572
_cell_measurement_theta_max      26.6438

_exptl_crystal_description       prism
_exptl_crystal_colour            colourless
_exptl_crystal_size_max          0.5
_exptl_crystal_size_mid          0.4
_exptl_crystal_size_min          0.25
_exptl_crystal_density_meas      ?
_exptl_crystal_density_diffrn    0.868
_exptl_crystal_density_method    'not measured'
_exptl_crystal_F_000             4116
_exptl_absorpt_coefficient_mu    0.807
_exptl_absorpt_correction_type   empirical
_exptl_absorpt_correction_T_min  0.588903
_exptl_absorpt_correction_T_max  1.000000
_exptl_absorpt_process_details   SADABS

_exptl_special_details           
;
Department of Chemistry
Trinity College Dublin
Dublin 2
Dublin, Republic of Ireland
;

_diffrn_ambient_temperature      120(2)
_diffrn_radiation_wavelength     0.71073
_diffrn_radiation_type           MoK\a
_diffrn_radiation_source         'fine-focus sealed tube'
_diffrn_radiation_monochromator  graphite
_diffrn_measurement_device_type  'Bruker APEX CCD'
_diffrn_measurement_method       w-scan
_diffrn_detector_area_resol_mean ?
_diffrn_standards_number         ?
_diffrn_standards_interval_count ?
_diffrn_standards_interval_time  ?
_diffrn_standards_decay_%        0.0(2)
_diffrn_reflns_number            36437
_diffrn_reflns_av_R_equivalents  0.0353
_diffrn_reflns_av_sigmaI/netI    0.0501
_diffrn_reflns_limit_h_min       -29
_diffrn_reflns_limit_h_max       30
_diffrn_reflns_limit_k_min       -40
_diffrn_reflns_limit_k_max       45
_diffrn_reflns_limit_l_min       -24
_diffrn_reflns_limit_l_max       21
_diffrn_reflns_theta_min         1.10
_diffrn_reflns_theta_max         25.68
_reflns_number_total             14739
_reflns_number_gt                9682
_reflns_threshold_expression     >2\s(I)

_computing_data_collection       SMART
_computing_cell_refinement       SMART
_computing_data_reduction        SAINTPLUS
_computing_structure_solution    'SHELXS - 97'
_computing_structure_refinement  'SHELXL-97 (Sheldrick, 2008)'
_computing_molecular_graphics    'Ortep-3 for Windows (Farrugia, 1997)'
_computing_publication_material  'WinGX publication routines (Farrugia, 1999)'

_refine_special_details          
;
Refinement of F^2^ against ALL reflections. The weighted R-factor wR and
goodness of fit S are based on F^2^, conventional R-factors R are based
on F, with F set to zero for negative F^2^. The threshold expression of
F^2^ > 2\s(F^2^) is used only for calculating R-factors(gt) etc. and is
not relevant to the choice of reflections for refinement. R-factors based
on F^2^ are statistically about twice as large as those based on F, and R-
factors based on ALL data will be even larger.
;

_refine_ls_structure_factor_coef Fsqd
_refine_ls_matrix_type           full
_refine_ls_weighting_scheme      calc
_refine_ls_weighting_details     
'calc w=1/[\s^2^(Fo^2^)+(0.0939P)^2^+0.0000P] where P=(Fo^2^+2Fc^2^)/3'
_atom_sites_solution_primary     direct
_atom_sites_solution_secondary   difmap
_atom_sites_solution_hydrogens   geom
_refine_ls_hydrogen_treatment    constr
_refine_ls_extinction_method     none
_refine_ls_extinction_coef       ?
_refine_ls_number_reflns         14739
_refine_ls_number_parameters     597
_refine_ls_number_restraints     0
_refine_ls_R_factor_all          0.0672
_refine_ls_R_factor_gt           0.0472
_refine_ls_wR_factor_ref         0.1385
_refine_ls_wR_factor_gt          0.1303
_refine_ls_goodness_of_fit_ref   0.914
_refine_ls_restrained_S_all      0.914
_refine_ls_shift/su_max          0.004
_refine_ls_shift/su_mean         0.000

# SQUEEZE RESULTS (APPEND TO CIF)
# Note: Data are Listed for all Voids in the P1 Unit Cell
# i.e. Centre of Gravity, Solvent Accessible Volume,
# Recovered number of Electrons in the Void and
# Details about the Squeezed Material
loop_
_platon_squeeze_void_nr
_platon_squeeze_void_average_x
_platon_squeeze_void_average_y
_platon_squeeze_void_average_z
_platon_squeeze_void_volume
_platon_squeeze_void_count_electrons
_platon_squeeze_void_content
1 0.352 -0.070 -0.084 7673 1660 ' '
_platon_squeeze_details          
;
;


loop_
_atom_site_label
_atom_site_type_symbol
_atom_site_fract_x
_atom_site_fract_y
_atom_site_fract_z
_atom_site_U_iso_or_equiv
_atom_site_adp_type
_atom_site_occupancy
_atom_site_symmetry_multiplicity
_atom_site_calc_flag
_atom_site_refinement_flags
_atom_site_disorder_assembly
_atom_site_disorder_group
Zn1 Zn 0.900709(12) 0.716038(7) 0.240672(19) 0.03582(11) Uani 1 1 d . . .
Zn2 Zn 0.997817(13) 0.680763(8) 0.41548(2) 0.04245(12) Uani 1 1 d . . .
Zn3 Zn 1.0000 0.651625(12) 0.2500 0.0668(2) Uani 1 2 d S . .
O10 O 0.94770(7) 0.74868(4) 0.19872(11) 0.0371(5) Uani 1 1 d . . .
O1 O 0.98848(8) 0.68946(4) 0.31322(11) 0.0409(5) Uani 1 1 d . . .
O7 O 0.92932(8) 0.75439(5) 0.33063(11) 0.0450(5) Uani 1 1 d . . .
O11 O 0.82047(8) 0.74712(5) 0.16522(12) 0.0455(5) Uani 1 1 d . . .
O5 O 0.84949(8) 0.68348(5) 0.27058(13) 0.0470(5) Uani 1 1 d . . .
O2 O 0.91952(9) 0.62650(5) 0.19112(15) 0.0611(7) Uani 1 1 d . . .
O6 O 1.00111(8) 0.73061(5) 0.45130(12) 0.0476(5) Uani 1 1 d . . .
O3 O 0.86427(9) 0.67788(5) 0.14336(12) 0.0469(5) Uani 1 1 d . . .
C48 C 0.5000 0.41925(9) 0.2500 0.0382(9) Uani 1 2 d S . .
O8 O 1.07946(10) 0.65651(7) 0.48804(16) 0.0755(8) Uani 1 1 d . . .
C45 C 0.5000 0.49033(9) 0.2500 0.0322(8) Uani 1 2 d S . .
C1 C 0.86750(13) 0.64444(7) 0.14864(18) 0.0447(7) Uani 1 1 d . . .
O4 O 0.91837(9) 0.65835(6) 0.39049(13) 0.0634(7) Uani 1 1 d . . .
C51 C 0.55806(12) 0.32388(6) 0.29277(18) 0.0407(7) Uani 1 1 d . . .
H51 H 0.5979 0.3111 0.3224 0.049 Uiso 1 1 calc R . .
C44 C 0.55635(12) 0.50904(6) 0.27593(16) 0.0343(6) Uani 1 1 d . . .
H44 H 0.5954 0.4962 0.2953 0.041 Uiso 1 1 calc R . .
C15 C 0.53178(12) 0.48433(7) -0.05610(16) 0.0368(6) Uani 1 1 d . . .
H15 H 0.5721 0.4720 -0.0258 0.044 Uiso 1 1 calc R . .
C52 C 0.5000 0.30504(9) 0.2500 0.0358(9) Uani 1 2 d S . .
C25 C 0.47718(12) 0.42806(7) -0.06701(16) 0.0397(7) Uani 1 1 d . . .
C30 C 0.51818(12) 0.29312(7) 0.05805(17) 0.0408(7) Uani 1 1 d . . .
C47 C 0.5000 0.45139(9) 0.2500 0.0340(8) Uani 1 2 d S . .
C10 C 0.53060(12) 0.52127(7) -0.06999(15) 0.0358(6) Uani 1 1 d . . .
C43 C 0.55599(12) 0.54705(7) 0.27365(17) 0.0356(6) Uani 1 1 d . . .
C50 C 0.55794(12) 0.36135(7) 0.29234(17) 0.0415(7) Uani 1 1 d . . .
H50 H 0.5978 0.3741 0.3212 0.050 Uiso 1 1 calc R . .
C13 C 0.41529(12) 0.48344(7) -0.13281(15) 0.0359(6) Uani 1 1 d . . .
H13 H 0.3759 0.4706 -0.1547 0.043 Uiso 1 1 calc R . .
C9 C 0.58948(14) 0.54121(8) -0.03732(18) 0.0462(7) Uani 1 1 d . . .
C11 C 0.47182(13) 0.53899(7) -0.11558(15) 0.0364(6) Uani 1 1 d . . .
H11 H 0.4709 0.5641 -0.1254 0.044 Uiso 1 1 calc R . .
C42 C 0.61248(14) 0.56613(7) 0.29099(19) 0.0446(7) Uani 1 1 d . . .
C34 C 0.86295(12) 0.66332(8) 0.3264(2) 0.0482(8) Uani 1 1 d . . .
C2 C 0.80641(13) 0.62265(7) 0.10249(19) 0.0509(8) Uani 1 1 d . . .
N1 N 0.71498(11) 0.75196(8) 0.06520(16) 0.0625(8) Uani 1 1 d . . .
C54 C 0.76500(12) 0.73453(8) 0.1239(2) 0.0529(9) Uani 1 1 d . . .
H54 H 0.7584 0.7108 0.1355 0.064 Uiso 1 1 calc R . .
C46 C 0.5000 0.56544(9) 0.2500 0.0385(9) Uani 1 2 d S . .
H46 H 0.5000 0.5911 0.2500 0.046 Uiso 1 2 calc SR . .
C27 C 0.49440(13) 0.36188(7) -0.01059(18) 0.0461(8) Uani 1 1 d . . .
C31 C 0.55085(17) 0.32306(7) 0.1063(2) 0.0591(10) Uani 1 1 d . . .
H31 H 0.5811 0.3201 0.1625 0.071 Uiso 1 1 calc R . .
C49 C 0.5000 0.38030(9) 0.2500 0.0359(9) Uani 1 2 d S . .
C12 C 0.41414(12) 0.52038(7) -0.14717(16) 0.0362(6) Uani 1 1 d . . .
C14 C 0.47462(12) 0.46531(7) -0.08613(15) 0.0351(6) Uani 1 1 d . . .
C16 C 0.35421(14) 0.53982(8) -0.19773(19) 0.0508(8) Uani 1 1 d . . .
C41 C 0.65702(14) 0.58247(8) 0.3007(2) 0.0499(8) Uani 1 1 d . . .
C38 C 0.70937(14) 0.60260(8) 0.3077(2) 0.0508(8) Uani 1 1 d . . .
C8 C 0.63675(14) 0.55928(8) -0.0093(2) 0.0540(9) Uani 1 1 d . . .
C29 C 0.47539(15) 0.29797(8) -0.0231(2) 0.0588(9) Uani 1 1 d . . .
H29 H 0.4535 0.2777 -0.0567 0.071 Uiso 1 1 calc R . .
C4 C 0.69133(14) 0.61776(8) 0.0170(2) 0.0556(9) Uani 1 1 d . . .
H4 H 0.6506 0.6294 -0.0162 0.067 Uiso 1 1 calc R . .
C32 C 0.53941(17) 0.35691(8) 0.0725(2) 0.0635(10) Uani 1 1 d . . .
H32 H 0.5622 0.3771 0.1057 0.076 Uiso 1 1 calc R . .
C3 C 0.74734(13) 0.63798(8) 0.0547(2) 0.0564(9) Uani 1 1 d . . .
H3 H 0.7443 0.6634 0.0469 0.068 Uiso 1 1 calc R . .
C37 C 0.70013(14) 0.61898(9) 0.2409(2) 0.0634(10) Uani 1 1 d . . .
H37 H 0.6600 0.6165 0.1902 0.076 Uiso 1 1 calc R . .
C35 C 0.80874(13) 0.64200(8) 0.31962(19) 0.0491(8) Uani 1 1 d . . .
C26 C 0.48403(13) 0.39725(7) -0.04410(18) 0.0455(7) Uani 1 1 d . . .
C5 C 0.69389(14) 0.58097(8) 0.0270(2) 0.0591(9) Uani 1 1 d . . .
C20 C 0.18819(17) 0.61565(10) -0.4119(2) 0.0708(11) Uani 1 1 d . . .
H20 H 0.1815 0.6252 -0.4596 0.085 Uiso 1 1 calc R . .
C21 C 0.14534(17) 0.62302(10) -0.3942(3) 0.0728(11) Uani 1 1 d . . .
C28 C 0.46375(15) 0.33214(8) -0.05673(19) 0.0579(9) Uani 1 1 d . . .
H28 H 0.4338 0.3349 -0.1131 0.070 Uiso 1 1 calc R . .
C18 C 0.25211(16) 0.57990(10) -0.2934(2) 0.0716(11) Uani 1 1 d . . .
C36 C 0.74978(14) 0.63930(9) 0.2479(2) 0.0658(11) Uani 1 1 d . . .
H36 H 0.7425 0.6514 0.2021 0.079 Uiso 1 1 calc R . .
C40 C 0.81811(16) 0.62447(11) 0.3857(2) 0.0774(13) Uani 1 1 d . . .
H40 H 0.8592 0.6257 0.4356 0.093 Uiso 1 1 calc R . .
C56 C 0.7201(2) 0.78753(11) 0.0427(3) 0.0892(14) Uani 1 1 d . . .
H56A H 0.7041 0.8049 0.0640 0.134 Uiso 1 1 calc R . .
H56B H 0.6941 0.7894 -0.0160 0.134 Uiso 1 1 calc R . .
H56C H 0.7654 0.7928 0.0646 0.134 Uiso 1 1 calc R . .
C7 C 0.80943(17) 0.58598(10) 0.1121(4) 0.141(3) Uani 1 1 d . . .
H7 H 0.8503 0.5747 0.1470 0.169 Uiso 1 1 calc R . .
C19 C 0.24241(17) 0.59416(10) -0.3613(2) 0.0711(11) Uani 1 1 d . . .
H19 H 0.2726 0.5895 -0.3743 0.085 Uiso 1 1 calc R . .
C39 C 0.76912(17) 0.60522(11) 0.3806(2) 0.0790(13) Uani 1 1 d . . .
H39 H 0.7762 0.5938 0.4270 0.095 Uiso 1 1 calc R . .
C17 C 0.30845(15) 0.55768(9) -0.2402(2) 0.0624(10) Uani 1 1 d . . .
C22 C 0.1546(2) 0.60929(13) -0.3253(3) 0.1004(16) Uani 1 1 d . . .
H22 H 0.1242 0.6145 -0.3129 0.120 Uiso 1 1 calc R . .
O9 O 1.04825(15) 0.65340(11) 0.5687(2) 0.1242(13) Uani 1 1 d . . .
C23 C 0.2079(2) 0.58789(15) -0.2741(3) 0.1068(18) Uani 1 1 d . . .
H23 H 0.2145 0.5787 -0.2262 0.128 Uiso 1 1 calc R . .
C6 C 0.75466(18) 0.56539(10) 0.0722(4) 0.162(3) Uani 1 1 d . . .
H6 H 0.7584 0.5398 0.0755 0.195 Uiso 1 1 calc R . .
C55 C 0.65023(16) 0.73427(15) 0.0191(3) 0.1071(18) Uani 1 1 d . . .
H55A H 0.6529 0.7111 0.0439 0.161 Uiso 1 1 calc R . .
H55B H 0.6364 0.7303 -0.0364 0.161 Uiso 1 1 calc R . .
H55C H 0.6188 0.7498 0.0193 0.161 Uiso 1 1 calc R . .
C53 C 1.0000 0.76462(9) 0.2500 0.0304(8) Uiso 1 2 d S . .
C24 C 0.96943(13) 0.75672(7) 0.40420(17) 0.0376(6) Uiso 1 1 d . . .
C33 C 1.0859(2) 0.64637(11) 0.5496(3) 0.0744(11) Uiso 1 1 d . . .

loop_
_atom_site_aniso_label
_atom_site_aniso_U_11
_atom_site_aniso_U_22
_atom_site_aniso_U_33
_atom_site_aniso_U_23
_atom_site_aniso_U_13
_atom_site_aniso_U_12
Zn1 0.01627(14) 0.01859(15) 0.0482(2) 0.00427(12) 0.00386(13) -0.00025(10)
Zn2 0.01912(15) 0.02342(16) 0.0557(2) 0.00810(14) 0.00403(14) -0.00053(11)
Zn3 0.0243(2) 0.0239(2) 0.1109(5) 0.000 0.0141(3) 0.000
O10 0.0182(8) 0.0203(8) 0.0503(11) 0.0007(8) 0.0061(8) -0.0028(7)
O1 0.0198(8) 0.0211(9) 0.0574(12) 0.0055(8) 0.0075(8) 0.0009(7)
O7 0.0325(10) 0.0262(9) 0.0509(12) -0.0023(8) 0.0087(9) 0.0013(7)
O11 0.0210(9) 0.0293(10) 0.0605(12) 0.0093(9) 0.0080(9) 0.0041(7)
O5 0.0235(9) 0.0374(11) 0.0601(13) 0.0146(10) 0.0120(9) -0.0029(8)
O2 0.0284(10) 0.0217(10) 0.0963(17) -0.0093(10) 0.0136(11) -0.0043(8)
O6 0.0342(10) 0.0235(9) 0.0577(13) 0.0044(9) 0.0100(9) 0.0009(8)
O3 0.0307(10) 0.0249(10) 0.0561(13) 0.0046(8) 0.0076(9) -0.0045(7)
C48 0.039(2) 0.0233(19) 0.051(2) 0.000 0.0245(19) 0.000
O8 0.0359(12) 0.0689(16) 0.0847(18) 0.0333(14) 0.0125(12) 0.0087(11)
C45 0.0371(19) 0.0200(17) 0.038(2) 0.000 0.0203(17) 0.000
C1 0.0302(14) 0.0318(15) 0.0559(18) -0.0074(13) 0.0150(13) -0.0083(12)
O4 0.0242(10) 0.0575(13) 0.0675(14) 0.0231(11) 0.0017(10) -0.0161(9)
C51 0.0212(12) 0.0231(13) 0.0586(18) -0.0010(12) 0.0114(13) 0.0005(10)
C44 0.0330(13) 0.0250(13) 0.0447(16) 0.0003(11) 0.0220(12) 0.0028(10)
C15 0.0243(12) 0.0359(14) 0.0342(14) -0.0006(11) 0.0072(11) 0.0025(10)
C52 0.0264(17) 0.0193(17) 0.049(2) 0.000 0.0138(17) 0.000
C25 0.0297(13) 0.0345(15) 0.0407(15) -0.0014(12) 0.0116(12) 0.0016(11)
C30 0.0269(13) 0.0289(14) 0.0487(17) -0.0012(12) 0.0108(13) 0.0036(10)
C47 0.039(2) 0.0245(19) 0.042(2) 0.000 0.0257(18) 0.000
C10 0.0283(13) 0.0356(14) 0.0300(14) -0.0031(11) 0.0087(11) -0.0033(11)
C43 0.0334(13) 0.0265(13) 0.0476(16) -0.0037(12) 0.0235(13) -0.0062(10)
C50 0.0271(13) 0.0262(13) 0.0562(18) -0.0041(12) 0.0148(13) -0.0065(10)
C13 0.0270(13) 0.0373(15) 0.0328(14) -0.0004(11) 0.0108(11) -0.0036(11)
C9 0.0393(16) 0.0370(15) 0.0463(17) -0.0035(13) 0.0148(14) -0.0047(13)
C11 0.0409(15) 0.0282(13) 0.0330(14) 0.0020(11) 0.0169(12) 0.0010(11)
C42 0.0415(15) 0.0257(14) 0.0616(19) -0.0013(13) 0.0264(14) -0.0013(12)
C34 0.0245(13) 0.0367(16) 0.064(2) 0.0063(15) 0.0142(14) -0.0057(11)
C2 0.0332(15) 0.0306(15) 0.065(2) -0.0103(14) 0.0142(14) -0.0071(12)
N1 0.0215(12) 0.079(2) 0.0565(17) 0.0130(15) 0.0042(12) 0.0165(12)
C54 0.0230(13) 0.0459(17) 0.064(2) 0.0103(15) 0.0097(14) 0.0057(12)
C46 0.044(2) 0.0152(16) 0.055(2) 0.000 0.0276(19) 0.000
C27 0.0398(15) 0.0283(14) 0.0532(18) 0.0041(13) 0.0163(14) 0.0067(12)
C31 0.065(2) 0.0293(15) 0.0527(19) 0.0049(14) 0.0157(17) 0.0012(14)
C49 0.042(2) 0.0178(17) 0.048(2) 0.000 0.0252(18) 0.000
C12 0.0319(13) 0.0334(14) 0.0347(14) 0.0060(11) 0.0138(12) 0.0085(11)
C14 0.0316(13) 0.0272(13) 0.0323(14) -0.0009(11) 0.0098(11) 0.0012(10)
C16 0.0389(16) 0.0462(17) 0.0516(18) 0.0134(15) 0.0164(14) 0.0098(13)
C41 0.0393(16) 0.0335(15) 0.067(2) -0.0024(14) 0.0243(15) -0.0068(13)
C38 0.0377(16) 0.0364(16) 0.069(2) -0.0015(15) 0.0250(15) -0.0119(12)
C8 0.0391(16) 0.0388(16) 0.065(2) -0.0059(15) 0.0184(15) -0.0105(13)
C29 0.0487(18) 0.0347(16) 0.055(2) -0.0026(14) 0.0065(15) -0.0029(13)
C4 0.0344(15) 0.0451(18) 0.062(2) 0.0019(15) 0.0127(15) -0.0034(13)
C32 0.074(2) 0.0249(15) 0.062(2) -0.0061(14) 0.0204(18) -0.0026(14)
C3 0.0346(15) 0.0324(15) 0.069(2) -0.0021(14) 0.0093(15) -0.0089(12)
C37 0.0311(15) 0.057(2) 0.073(2) 0.0156(18) 0.0120(16) -0.0090(14)
C35 0.0285(14) 0.0358(15) 0.0596(19) 0.0085(14) 0.0112(14) -0.0104(11)
C26 0.0369(15) 0.0336(16) 0.0504(18) 0.0022(13) 0.0157(14) 0.0038(12)
C5 0.0355(16) 0.0433(18) 0.069(2) -0.0