####################################################################### 
# 
# This file contains crystal structure data downloaded from the 
# Cambridge Structural Database (CSD) hosted by the Cambridge 
# Crystallographic Data Centre (CCDC).
# 
# Full information about CCDC data access policies and citation 
# guidelines are available at http://www.ccdc.cam.ac.uk/access/V1 
# 
# Audit and citation data items may have been added by the CCDC. 
# Please retain this information to preserve the provenance of 
# this file and to allow appropriate attribution of the data. 
# 
#######################################################################

data_BPS-2
_audit_block_doi                 10.5517/ccwwd48
_database_code_depnum_ccdc_archive 'CCDC 830680'
loop_
_citation_id
_citation_doi
_citation_year
1 10.1039/c2dt12427k 2012
_audit_update_record             
;
2011-06-20 deposited with the CCDC.	2024-07-14 downloaded from the CCDC.
;
#TrackingRef 'web_deposit_cif_file_0_DiSun_1329271777.BPS-2-3-r2.cif'


_audit_creation_method           SHELXL-97
_chemical_name_systematic        
;
?
;
_chemical_name_common            ?
_chemical_melting_point          ?
_chemical_formula_moiety         ?
_chemical_formula_sum            'C182 H280 Cl2 Cu9 N18 O96'
_chemical_formula_weight         4899.05

loop_
_atom_type_symbol
_atom_type_description
_atom_type_scat_dispersion_real
_atom_type_scat_dispersion_imag
_atom_type_scat_source
C C 0.0033 0.0016 'International Tables Vol C Tables 4.2.6.8 and 6.1.1.4'
H H 0.0000 0.0000 'International Tables Vol C Tables 4.2.6.8 and 6.1.1.4'
N N 0.0061 0.0033 'International Tables Vol C Tables 4.2.6.8 and 6.1.1.4'
O O 0.0106 0.0060 'International Tables Vol C Tables 4.2.6.8 and 6.1.1.4'
Cu Cu 0.3201 1.2651 'International Tables Vol C Tables 4.2.6.8 and 6.1.1.4'
Cl Cl 0.1484 0.1585 'International Tables Vol C Tables 4.2.6.8 and 6.1.1.4'


_symmetry_cell_setting           tetragonal
_symmetry_space_group_name_H-M   'P -4 21 c'

loop_
_symmetry_equiv_pos_as_xyz
'x, y, z'
'-x, -y, z'
'y, -x, -z'
'-y, x, -z'
'-x+1/2, y+1/2, -z+1/2'
'x+1/2, -y+1/2, -z+1/2'
'-y+1/2, -x+1/2, z+1/2'
'y+1/2, x+1/2, z+1/2'

_cell_length_a                   31.010(4)
_cell_length_b                   31.010(4)
_cell_length_c                   28.765(6)
_cell_angle_alpha                90.00
_cell_angle_beta                 90.00
_cell_angle_gamma                90.00
_cell_volume                     27661(8)
_cell_formula_units_Z            4
_cell_measurement_temperature    173(2)
_cell_measurement_reflns_used    14532
_cell_measurement_theta_min      3.2957
_cell_measurement_theta_max      51.1957

_exptl_crystal_description       block
_exptl_crystal_colour            blue
_exptl_crystal_size_max          0.10
_exptl_crystal_size_mid          0.10
_exptl_crystal_size_min          0.10
_exptl_crystal_density_meas      ?
_exptl_crystal_density_diffrn    0.934
_exptl_crystal_density_method    'not measured'
_exptl_crystal_F_000             8004
_exptl_absorpt_coefficient_mu    0.749
_exptl_absorpt_correction_type   multi-scan
_exptl_absorpt_correction_T_min  0.9288
_exptl_absorpt_correction_T_max  0.9288
_exptl_absorpt_process_details   sadabs

_exptl_special_details           
;
?
;

_diffrn_ambient_temperature      173(2)
_diffrn_radiation_wavelength     0.71073
_diffrn_radiation_type           MoK\a
_diffrn_radiation_source         'fine-focus sealed tube'
_diffrn_radiation_monochromator  graphite
_diffrn_measurement_device_type  ?
_diffrn_measurement_method       ?
_diffrn_detector_area_resol_mean ?
_diffrn_standards_number         ?
_diffrn_standards_interval_count ?
_diffrn_standards_interval_time  ?
_diffrn_standards_decay_%        ?
_diffrn_reflns_number            14894
_diffrn_reflns_av_R_equivalents  0.0000
_diffrn_reflns_av_sigmaI/netI    0.0218
_diffrn_reflns_limit_h_min       0
_diffrn_reflns_limit_h_max       38
_diffrn_reflns_limit_k_min       0
_diffrn_reflns_limit_k_max       27
_diffrn_reflns_limit_l_min       0
_diffrn_reflns_limit_l_max       35
_diffrn_reflns_theta_min         1.31
_diffrn_reflns_theta_max         26.37
_reflns_number_total             14894
_reflns_number_gt                13323
_reflns_threshold_expression     >2sigma(I)

_computing_data_collection       ?
_computing_cell_refinement       ?
_computing_data_reduction        ?
_computing_structure_solution    'SHELXS-97 (Sheldrick, 1990)'
_computing_structure_refinement  'SHELXL-97 (Sheldrick, 1997)'
_computing_molecular_graphics    ?
_computing_publication_material  ?

_refine_special_details          
;
Refinement of F^2^ against ALL reflections. The weighted R-factor wR and
goodness of fit S are based on F^2^, conventional R-factors R are based
on F, with F set to zero for negative F^2^. The threshold expression of
F^2^ > 2sigma(F^2^) is used only for calculating R-factors(gt) etc. and is
not relevant to the choice of reflections for refinement. R-factors based
on F^2^ are statistically about twice as large as those based on F, and R-
factors based on ALL data will be even larger.

The Cu5/Cu5' was disordered with a ratio of 55/45.
The one pyridine ligand was also disordered in two positions
(N3, C77 > C81 and N3', C77' > C81') with a ratio of 55/45.
The Cl2/Cl2' was disordered with a ratio of 80/20.
The non-hydrogen atoms except some atoms with high thermal parameters due to
disorder (C47, C48, C49 C50, C51, N3, C77, C78, C79, C80, C81, Cl2, Cl2')
were refined anisotropically.

In order to subtract the contribution from the disordered
solvent molecules and cations, the SQUEEZE command was applied.

;

_refine_ls_structure_factor_coef Fsqd
_refine_ls_matrix_type           full
_refine_ls_weighting_scheme      calc
_refine_ls_weighting_details     
'calc w=1/[\s^2^(Fo^2^)+(0.2000P)^2^+0.0200P] where P=(Fo^2^+2Fc^2^)/3'
_atom_sites_solution_primary     direct
_atom_sites_solution_secondary   difmap
_atom_sites_solution_hydrogens   geom
_refine_ls_hydrogen_treatment    CONSTR
_refine_ls_extinction_method     none
_refine_ls_extinction_coef       ?
_refine_ls_abs_structure_details 'Flack H D (1983), Acta Cryst. A39, 876-881'
_refine_ls_abs_structure_Flack   0.221(16)
_refine_ls_number_reflns         14894
_refine_ls_number_parameters     993
_refine_ls_number_restraints     0
_refine_ls_R_factor_all          0.0846
_refine_ls_R_factor_gt           0.0801
_refine_ls_wR_factor_ref         0.2348
_refine_ls_wR_factor_gt          0.2281
_refine_ls_goodness_of_fit_ref   1.078
_refine_ls_restrained_S_all      1.078
_refine_ls_shift/su_max          0.002
_refine_ls_shift/su_mean         0.000

loop_
_atom_site_label
_atom_site_type_symbol
_atom_site_fract_x
_atom_site_fract_y
_atom_site_fract_z
_atom_site_U_iso_or_equiv
_atom_site_adp_type
_atom_site_occupancy
_atom_site_symmetry_multiplicity
_atom_site_calc_flag
_atom_site_refinement_flags
_atom_site_disorder_assembly
_atom_site_disorder_group
Cu1 Cu 1.08548(2) 0.82530(3) 0.52057(2) 0.03514(19) Uani 1 1 d . . .
Cu2 Cu 1.20816(3) 0.71639(2) 0.25941(3) 0.03614(19) Uani 1 1 d . . .
Cu3 Cu 1.0000 1.0000 0.24565(4) 0.0324(2) Uani 1 2 d S . .
Cu4 Cu 0.86390(3) 0.63497(3) 0.27053(3) 0.0469(2) Uani 1 1 d . . .
Cu5' Cu 0.98651(5) 0.76724(5) 0.02329(4) 0.0398(3) Uani 0.55 1 d P . .
Cu5 Cu 0.92525(6) 0.80390(9) 0.01794(6) 0.0542(6) Uani 0.45 1 d P . .
Cl1 Cl 1.0000 1.0000 0.33055(11) 0.0696(8) Uani 1 2 d S . .
N1 N 1.17250(13) 0.70849(11) 0.20083(16) 0.066(2) Uani 1 1 d G . .
C51 C 1.14216(14) 0.67550(10) 0.20135(15) 0.065(2) Uiso 1 1 d G . .
H51A H 1.1391 0.6583 0.2276 0.078 Uiso 1 1 calc R . .
C50 C 1.11641(15) 0.66820(10) 0.16259(14) 0.105(4) Uiso 1 1 d G . .
H50A H 1.0961 0.6461 0.1629 0.126 Uiso 1 1 calc R . .
C49 C 1.12099(16) 0.69390(11) 0.12331(14) 0.226(13) Uiso 1 1 d G . .
H49A H 1.1038 0.6890 0.0974 0.272 Uiso 1 1 calc R . .
C48 C 1.15133(15) 0.72690(12) 0.12279(14) 0.119(5) Uiso 1 1 d G . .
H48A H 1.1544 0.7441 0.0965 0.143 Uiso 1 1 calc R . .
C47 C 1.17708(13) 0.73419(11) 0.16155(15) 0.096(4) Uiso 1 1 d G . .
H47A H 1.1974 0.7563 0.1612 0.115 Uiso 1 1 calc R . .
N8 N 1.04588(12) 1.04741(9) 0.23570(19) 0.062(2) Uani 1 1 d G . .
C82 C 1.06024(13) 1.06252(9) 0.27848(19) 0.067(2) Uiso 1 1 d G . .
H82A H 1.0501 1.0501 0.3058 0.080 Uiso 1 1 calc R . .
C83 C 1.08970(14) 1.09624(9) 0.2804(2) 0.102(4) Uiso 1 1 d G . .
H83A H 1.0993 1.1064 0.3091 0.122 Uiso 1 1 calc R . .
C84 C 1.10482(14) 1.11486(9) 0.2396(2) 0.114(5) Uiso 1 1 d G . .
H84A H 1.1245 1.1374 0.2409 0.137 Uiso 1 1 calc R . .
C85 C 1.09047(14) 1.09975(10) 0.1968(2) 0.104(4) Uiso 1 1 d G . .
H85A H 1.1006 1.1122 0.1695 0.125 Uiso 1 1 calc R . .
C86 C 1.06100(13) 1.06602(10) 0.19487(19) 0.085(3) Uiso 1 1 d G . .
H86A H 1.0514 1.0559 0.1662 0.102 Uiso 1 1 calc R . .
N5 N 0.87634(15) 0.65086(13) 0.3351(2) 0.075(3) Uani 1 1 d G . .
C67 C 0.84630(16) 0.66996(15) 0.3644(2) 0.108(4) Uiso 1 1 d G . .
C68 C 0.85790(17) 0.68113(15) 0.4095(2) 0.231(15) Uiso 1 1 d G . .
C69 C 0.89954(18) 0.67321(15) 0.42526(19) 0.203(12) Uiso 1 1 d G . .
C70 C 0.92958(17) 0.65411(13) 0.39589(17) 0.144(7) Uiso 1 1 d G . .
C71 C 0.91798(16) 0.64294(13) 0.35079(18) 0.130(6) Uiso 1 1 d G . .
H71A H 0.9381 0.6302 0.3311 0.156 Uiso 1 1 calc R . .
C1 C 1.13264(19) 0.74439(19) 0.29718(18) 0.0306(11) Uani 1 1 d . . .
C2 C 1.09851(18) 0.77554(17) 0.31387(18) 0.0275(11) Uani 1 1 d . . .
C3 C 1.10393(17) 0.79236(18) 0.35927(18) 0.0277(10) Uani 1 1 d . . .
C4 C 1.07259(18) 0.82207(16) 0.37396(17) 0.0270(10) Uani 1 1 d . . .
C5 C 1.03848(17) 0.83539(16) 0.34552(19) 0.0267(10) Uani 1 1 d . . .
C6 C 1.03458(17) 0.81846(16) 0.30018(17) 0.0243(10) Uani 1 1 d . . .
C7 C 1.06631(16) 0.78869(16) 0.28409(18) 0.0229(9) Uani 1 1 d . . .
C8 C 1.1405(2) 0.7786(2) 0.3898(2) 0.0440(15) Uani 1 1 d . . .
H8A H 1.1355 0.7886 0.4209 0.066 Uiso 1 1 calc R . .
H8B H 1.1669 0.7907 0.3783 0.066 Uiso 1 1 calc R . .
H8C H 1.1425 0.7477 0.3897 0.066 Uiso 1 1 calc R . .
C9 C 1.00733(17) 0.86900(17) 0.36443(18) 0.0272(10) Uani 1 1 d . . .
H9A H 0.9786 0.8622 0.3545 0.041 Uiso 1 1 calc R . .
H9B H 1.0152 0.8970 0.3529 0.041 Uiso 1 1 calc R . .
H9C H 1.0086 0.8691 0.3978 0.041 Uiso 1 1 calc R . .
C10 C 1.0651(2) 0.7712(2) 0.2352(2) 0.0377(13) Uani 1 1 d . . .
H10A H 1.0860 0.7486 0.2320 0.057 Uiso 1 1 calc R . .
H10B H 1.0716 0.7939 0.2136 0.057 Uiso 1 1 calc R . .
H10C H 1.0369 0.7599 0.2287 0.057 Uiso 1 1 calc R . .
C11 C 1.07980(19) 0.84099(19) 0.42210(19) 0.0315(12) Uani 1 1 d . . .
C12 C 0.99873(17) 0.83659(15) 0.26905(18) 0.0247(10) Uani 1 1 d . . .
H12A H 0.9781 0.8508 0.2893 0.030 Uiso 1 1 calc R . .
H12B H 1.0116 0.8588 0.2498 0.030 Uiso 1 1 calc R . .
C13 C 0.97307(16) 0.80712(16) 0.23675(18) 0.0246(10) Uani 1 1 d . . .
C14 C 0.97474(18) 0.81205(19) 0.1885(2) 0.0311(11) Uani 1 1 d . . .
C15 C 0.94948(19) 0.7845(2) 0.1611(2) 0.0388(14) Uani 1 1 d . . .
C16 C 0.9226(2) 0.7543(3) 0.1791(2) 0.0417(15) Uani 1 1 d . . .
C17 C 0.9207(2) 0.7499(2) 0.2283(2) 0.0415(15) Uani 1 1 d . . .
C18 C 0.94609(19) 0.77573(19) 0.25681(18) 0.0314(12) Uani 1 1 d . . .
C19 C 0.8931(2) 0.7150(3) 0.2476(2) 0.0454(16) Uani 1 1 d . . .
C20 C 0.9521(3) 0.7886(3) 0.1083(2) 0.0504(18) Uani 1 1 d . . .
C21 C 0.9435(2) 0.7700(2) 0.30929(19) 0.0390(14) Uani 1 1 d . . .
H21A H 0.9225 0.7484 0.3166 0.058 Uiso 1 1 calc R . .
H21B H 0.9353 0.7969 0.3234 0.058 Uiso 1 1 calc R . .
H21C H 0.9712 0.7613 0.3210 0.058 Uiso 1 1 calc R . .
C22 C 0.8975(3) 0.7224(3) 0.1482(3) 0.065(3) Uani 1 1 d . . .
H22A H 0.9044 0.7277 0.1162 0.097 Uiso 1 1 calc R . .
H22B H 0.8671 0.7262 0.1530 0.097 Uiso 1 1 calc R . .
H22C H 0.9055 0.6934 0.1562 0.097 Uiso 1 1 calc R . .
C23 C 1.00302(18) 0.84517(18) 0.1640(2) 0.0297(11) Uani 1 1 d . . .
H23A H 1.0107 0.8676 0.1855 0.045 Uiso 1 1 calc R . .
H23B H 0.9875 0.8574 0.1383 0.045 Uiso 1 1 calc R . .
H23C H 1.0287 0.8314 0.1527 0.045 Uiso 1 1 calc R . .
C24 C 1.23625(18) 0.6324(2) 0.24546(18) 0.0318(11) Uani 1 1 d . . .
C25 C 1.26601(19) 0.59997(19) 0.2250(2) 0.0327(12) Uani 1 1 d . . .
C26 C 1.28919(16) 0.57183(18) 0.25478(18) 0.0272(10) Uani 1 1 d . . .
C27 C 1.31594(15) 0.53849(16) 0.23563(17) 0.0219(9) Uani 1 1 d . . .
C28 C 1.32174(17) 0.53653(17) 0.18744(19) 0.0276(11) Uani 1 1 d . . .
C29 C 1.29838(17) 0.56616(16) 0.15874(17) 0.0257(10) Uani 1 1 d . . .
C30 C 1.26974(19) 0.59676(18) 0.1770(2) 0.0323(11) Uani 1 1 d . . .
C31 C 1.2438(2) 0.6249(2) 0.1445(2) 0.0440(15) Uani 1 1 d . . .
H31A H 1.2449 0.6131 0.1137 0.066 Uiso 1 1 calc R . .
H31B H 1.2558 0.6535 0.1443 0.066 Uiso 1 1 calc R . .
H31C H 1.2145 0.6261 0.1549 0.066 Uiso 1 1 calc R . .
C32 C 1.2853(2) 0.5784(2) 0.30705(19) 0.0332(12) Uani 1 1 d . . .
H32A H 1.2687 0.6039 0.3132 0.050 Uiso 1 1 calc R . .
H32B H 1.3136 0.5817 0.3203 0.050 Uiso 1 1 calc R . .
H32C H 1.2714 0.5539 0.3207 0.050 Uiso 1 1 calc R . .
C33 C 1.3530(2) 0.50544(17) 0.1652(2) 0.0317(12) Uani 1 1 d . . .
H33A H 1.3693 0.4911 0.1890 0.047 Uiso 1 1 calc R . .
H33B H 1.3723 0.5210 0.1451 0.047 Uiso 1 1 calc R . .
H33C H 1.3373 0.4845 0.1474 0.047 Uiso 1 1 calc R . .
C34 C 1.30486(19) 0.56548(18) 0.10635(18) 0.0301(11) Uani 1 1 d . . .
C35 C 1.33712(14) 0.50579(14) 0.26808(16) 0.0189(9) Uani 1 1 d . . .
H35A H 1.3513 0.4838 0.2496 0.023 Uiso 1 1 calc R . .
H35B H 1.3590 0.5203 0.2864 0.023 Uiso 1 1 calc R . .
C36 C 1.30534(18) 0.48444(18) 0.30039(19) 0.0290(11) Uani 1 1 d . . .
C37 C 1.31210(19) 0.48348(18) 0.3498(2) 0.0314(11) Uani 1 1 d . . .
C38 C 1.2801(2) 0.4655(2) 0.3789(2) 0.0364(12) Uani 1 1 d . . .
C39 C 1.2388(2) 0.4529(2) 0.3618(2) 0.0402(13) Uani 1 1 d . . .
C40 C 1.2338(2) 0.45283(19) 0.3133(2) 0.0349(12) Uani 1 1 d . . .
C41 C 1.2663(2) 0.46696(18) 0.28320(19) 0.0308(11) Uani 1 1 d . . .
C42 C 1.2597(2) 0.4618(2) 0.2306(2) 0.0407(14) Uani 1 1 d . . .
H42A H 1.2300 0.4552 0.2244 0.061 Uiso 1 1 calc R . .
H42B H 1.2776 0.4388 0.2194 0.061 Uiso 1 1 calc R . .
H42C H 1.2674 0.4881 0.2152 0.061 Uiso 1 1 calc R . .
C43 C 1.3526(2) 0.5016(2) 0.3712(2) 0.0373(12) Uani 1 1 d . . .
H43A H 1.3714 0.5117 0.3470 0.056 Uiso 1 1 calc R . .
H43B H 1.3670 0.4794 0.3887 0.056 Uiso 1 1 calc R . .
H43C H 1.3453 0.5250 0.3915 0.056 Uiso 1 1 calc R . .
C44 C 1.2037(3) 0.4363(3) 0.3941(3) 0.0535(18) Uani 1 1 d . . .
H44A H 1.1786 0.4292 0.3763 0.080 Uiso 1 1 calc R . .
H44B H 1.1966 0.4583 0.4164 0.080 Uiso 1 1 calc R . .
H44C H 1.2139 0.4111 0.4101 0.080 Uiso 1 1 calc R . .
C45 C 1.2865(2) 0.4640(2) 0.4309(2) 0.0407(14) Uani 1 1 d . . .
C46 C 1.1921(2) 0.4373(2) 0.2932(2) 0.0415(14) Uani 1 1 d . . .
C52 C 1.2543(3) 0.7540(3) 0.3410(3) 0.0512(17) Uani 1 1 d . . .
H52A H 1.2617 0.7759 0.3203 0.061 Uiso 1 1 calc R . .
C53 C 1.2655(3) 0.7585(3) 0.3873(3) 0.062(2) Uani 1 1 d . . .
H53A H 1.2795 0.7831 0.3979 0.075 Uiso 1 1 calc R . .
C54 C 1.2548(3) 0.7241(3) 0.4185(3) 0.069(2) Uani 1 1 d . . .
H54A H 1.2612 0.7261 0.4500 0.083 Uiso 1 1 calc R . .
C55 C 1.2356(3) 0.6895(3) 0.4015(3) 0.062(2) Uani 1 1 d . . .
H55A H 1.2300 0.6662 0.4211 0.074 Uiso 1 1 calc R . .
C56 C 1.2235(3) 0.6870(3) 0.3543(3) 0.056(2) Uani 1 1 d . . .
H56A H 1.2086 0.6628 0.3437 0.067 Uiso 1 1 calc R . .
C57 C 1.1563(3) 0.7610(4) 0.5256(3) 0.074(3) Uani 1 1 d . . .
H57A H 1.1722 0.7854 0.5332 0.089 Uiso 1 1 calc R . .
C58 C 1.1767(4) 0.7218(4) 0.5242(3) 0.082(4) Uani 1 1 d . . .
H58A H 1.2060 0.7188 0.5301 0.098 Uiso 1 1 calc R . .
C59 C 1.1482(5) 0.6838(4) 0.5127(5) 0.094(4) Uani 1 1 d . . .
H59A H 1.1593 0.6560 0.5131 0.113 Uiso 1 1 calc R . .
C60 C 1.1073(5) 0.6905(4) 0.5020(5) 0.104(5) Uani 1 1 d . . .
H60A H 1.0904 0.6675 0.4922 0.125 Uiso 1 1 calc R . .
C61 C 1.0892(4) 0.7318(3) 0.5053(3) 0.079(3) Uani 1 1 d . . .
H61A H 1.0599 0.7352 0.4997 0.094 Uiso 1 1 calc R . .
C62 C 1.0605(2) 0.9111(2) 0.5581(2) 0.0442(15) Uani 1 1 d . . .
H62A H 1.0893 0.9134 0.5668 0.053 Uiso 1 1 calc R . .
C63 C 1.0329(3) 0.9408(2) 0.5727(3) 0.0504(17) Uani 1 1 d . . .
H63A H 1.0432 0.9641 0.5898 0.060 Uiso 1 1 calc R . .
C64 C 0.9898(3) 0.9382(2) 0.5634(3) 0.0519(18) Uani 1 1 d . . .
H64A H 0.9702 0.9582 0.5749 0.062 Uiso 1 1 calc R . .
C65 C 0.9774(2) 0.9049(3) 0.5365(3) 0.0540(19) Uani 1 1 d . . .
H65A H 0.9484 0.9031 0.5282 0.065 Uiso 1 1 calc R . .
C66 C 1.0051(2) 0.8734(2) 0.5204(2) 0.0417(14) Uani 1 1 d . . .
H66A H 0.9949 0.8503 0.5030 0.050 Uiso 1 1 calc R . .
C72 C 0.8044(3) 0.6362(3) 0.1896(3) 0.062(2) Uani 1 1 d . . .
H72A H 0.7854 0.6489 0.2106 0.075 Uiso 1 1 calc R . .
C73 C 0.7904(4) 0.6285(3) 0.1454(4) 0.074(3) Uani 1 1 d . . .
H73A H 0.7619 0.6342 0.1376 0.089 Uiso 1 1 calc R . .
C74 C 0.8177(4) 0.6125(4) 0.1129(3) 0.083(3) Uani 1 1 d . . .
H74A H 0.8086 0.6061 0.0829 0.100 Uiso 1 1 calc R . .
C75 C 0.8599(6) 0.6062(5) 0.1270(4) 0.106(5) Uani 1 1 d . . .
H75A H 0.8800 0.5982 0.1047 0.128 Uiso 1 1 calc R . .
C76 C 0.8743(4) 0.6112(4) 0.1725(4) 0.074(3) Uani 1 1 d . . .
H76A H 0.9025 0.6046 0.1809 0.089 Uiso 1 1 calc R . .
C87 C 1.0665(2) 0.93478(19) 0.2694(3) 0.0414(14) Uani 1 1 d . . .
H87A H 1.0572 0.9407 0.2995 0.050 Uiso 1 1 calc R . .
C88 C 1.0994(2) 0.9050(2) 0.2639(3) 0.0458(16) Uani 1 1 d . . .
H88A H 1.1125 0.8925 0.2896 0.055 Uiso 1 1 calc R . .
C89 C 1.1120(2) 0.8946(2) 0.2209(4) 0.057(2) Uani 1 1 d . . .
H89A H 1.1334 0.8740 0.2163 0.068 Uiso 1 1 calc R . .
C90 C 1.0925(2) 0.9154(2) 0.1822(3) 0.0492(17) Uani 1 1 d . . .
H90A H 1.1008 0.9091 0.1519 0.059 Uiso 1 1 calc R . .
C91 C 1.0605(2) 0.9453(2) 0.1916(3) 0.0441(15) Uani 1 1 d . . .
H91A H 1.0473 0.9593 0.1669 0.053 Uiso 1 1 calc R . .
N2 N 1.23281(19) 0.71857(18) 0.3246(2) 0.0412(12) Uani 1 1 d . . .
N4 N 0.8450(2) 0.62625(18) 0.2046(2) 0.0454(14) Uani 1 1 d . . .
N6 N 1.04813(17) 0.87732(17) 0.53088(17) 0.0358(11) Uani 1 1 d . . .
N7 N 1.1120(2) 0.7653(2) 0.5158(2) 0.