####################################################################### 
# 
# This file contains crystal structure data downloaded from the 
# Cambridge Structural Database (CSD) hosted by the Cambridge 
# Crystallographic Data Centre (CCDC).
# 
# Full information about CCDC data access policies and citation 
# guidelines are available at http://www.ccdc.cam.ac.uk/access/V1 
# 
# Audit and citation data items may have been added by the CCDC. 
# Please retain this information to preserve the provenance of 
# this file and to allow appropriate attribution of the data. 
# 
#######################################################################

data_so
_audit_block_doi                 10.5517/ccw4zqp
_database_code_depnum_ccdc_archive 'CCDC 809153'
loop_
_citation_id
_citation_doi
_citation_year
1 10.1016/j.ica.2012.02.010 2012
_audit_update_record             
;
2011-01-21 deposited with the CCDC.	2024-07-14 downloaded from the CCDC.
;
#TrackingRef 'so.cif'


_audit_creation_method           SHELXL-97
_chemical_name_systematic        
;
?
;
_chemical_name_common            ?
_chemical_melting_point          ?
_chemical_formula_moiety         'C14 H6 Ag N2 O8 Sm, 2(H2 O)'
_chemical_formula_sum            'C14 H10 Ag N2 O10 Sm'
_chemical_formula_weight         624.46

loop_
_atom_type_symbol
_atom_type_description
_atom_type_scat_dispersion_real
_atom_type_scat_dispersion_imag
_atom_type_scat_source
C C 0.0033 0.0016 'International Tables Vol C Tables 4.2.6.8 and 6.1.1.4'
H H 0.0000 0.0000 'International Tables Vol C Tables 4.2.6.8 and 6.1.1.4'
Ag Ag -0.8971 1.1015 'International Tables Vol C Tables 4.2.6.8 and 6.1.1.4'
N N 0.0061 0.0033 'International Tables Vol C Tables 4.2.6.8 and 6.1.1.4'
O O 0.0106 0.0060 'International Tables Vol C Tables 4.2.6.8 and 6.1.1.4'
Sm Sm -0.1638 3.4418 'International Tables Vol C Tables 4.2.6.8 and 6.1.1.4'

_symmetry_cell_setting           Triclinic
_symmetry_space_group_name_H-M   'P -1'
_symmetry_space_group_name_Hall  '-P 1'

loop_
_symmetry_equiv_pos_as_xyz
'x, y, z'
'-x, -y, -z'

_cell_length_a                   7.2745(9)
_cell_length_b                   10.4148(13)
_cell_length_c                   11.5977(14)
_cell_angle_alpha                99.777(2)
_cell_angle_beta                 100.9500(10)
_cell_angle_gamma                95.779(2)
_cell_volume                     842.08(18)
_cell_formula_units_Z            2
_cell_measurement_temperature    293(2)
_cell_measurement_reflns_used    2968
_cell_measurement_theta_min      2.43
_cell_measurement_theta_max      27.33

_exptl_crystal_description       block
_exptl_crystal_colour            black
_exptl_crystal_size_max          0.26
_exptl_crystal_size_mid          0.22
_exptl_crystal_size_min          0.18
_exptl_crystal_density_meas      ?
_exptl_crystal_density_diffrn    2.463
_exptl_crystal_density_method    'not measured'
_exptl_crystal_F_000             594
_exptl_absorpt_coefficient_mu    4.677
_exptl_absorpt_correction_type   multi-scan
_exptl_absorpt_correction_T_min  0.3760
_exptl_absorpt_correction_T_max  0.4865
_exptl_absorpt_process_details   'SADABS(Bruker, 2000)'

_exptl_special_details           
;
?
;

_diffrn_ambient_temperature      293(2)
_diffrn_radiation_wavelength     0.71073
_diffrn_radiation_type           MoK\a
_diffrn_radiation_source         'sealed tube'
_diffrn_radiation_monochromator  graphite
_diffrn_measurement_device_type  'Bruker Smart Aepex CCD area detector'
_diffrn_measurement_method       'phi and omega scans'
_diffrn_detector_area_resol_mean ?
_diffrn_standards_number         ?
_diffrn_standards_interval_count ?
_diffrn_standards_interval_time  ?
_diffrn_standards_decay_%        ?
_diffrn_reflns_number            5873
_diffrn_reflns_av_R_equivalents  0.0222
_diffrn_reflns_av_sigmaI/netI    0.0367
_diffrn_reflns_limit_h_min       -8
_diffrn_reflns_limit_h_max       8
_diffrn_reflns_limit_k_min       -10
_diffrn_reflns_limit_k_max       12
_diffrn_reflns_limit_l_min       -14
_diffrn_reflns_limit_l_max       14
_diffrn_reflns_theta_min         2.43
_diffrn_reflns_theta_max         25.50
_reflns_number_total             3086
_reflns_number_gt                2774
_reflns_threshold_expression     >2sigma(I)

_computing_data_collection       'SMART (Bruker, 2000)'
_computing_cell_refinement       SMART
_computing_data_reduction        'SAINT (Bruker, 2000)'
_computing_structure_solution    'SHELXTL (Bruker, 2000)'
_computing_structure_refinement  SHELXTL
_computing_molecular_graphics    SHELXTL
_computing_publication_material  SHELXTL

_refine_special_details          
;
Refinement of F^2^ against ALL reflections. The weighted R-factor wR and
goodness of fit S are based on F^2^, conventional R-factors R are based
on F, with F set to zero for negative F^2^. The threshold expression of
F^2^ > 2sigma(F^2^) is used only for calculating R-factors(gt) etc. and is
not relevant to the choice of reflections for refinement. R-factors based
on F^2^ are statistically about twice as large as those based on F, and R-
factors based on ALL data will be even larger.
;

_refine_ls_structure_factor_coef Fsqd
_refine_ls_matrix_type           full
_refine_ls_weighting_scheme      calc
_refine_ls_weighting_details     
'calc w=1/[\s^2^(Fo^2^)+(0.0315P)^2^+3.6396P] where P=(Fo^2^+2Fc^2^)/3'
_atom_sites_solution_primary     direct
_atom_sites_solution_secondary   difmap
_atom_sites_solution_hydrogens   geom
_refine_ls_hydrogen_treatment    constr
_refine_ls_extinction_method     none
_refine_ls_extinction_coef       ?
_refine_ls_number_reflns         3086
_refine_ls_number_parameters     253
_refine_ls_number_restraints     0
_refine_ls_R_factor_all          0.0351
_refine_ls_R_factor_gt           0.0303
_refine_ls_wR_factor_ref         0.0786
_refine_ls_wR_factor_gt          0.0764
_refine_ls_goodness_of_fit_ref   1.093
_refine_ls_restrained_S_all      1.093
_refine_ls_shift/su_max          0.000
_refine_ls_shift/su_mean         0.000

loop_
_atom_site_label
_atom_site_type_symbol
_atom_site_fract_x
_atom_site_fract_y
_atom_site_fract_z
_atom_site_U_iso_or_equiv
_atom_site_adp_type
_atom_site_occupancy
_atom_site_symmetry_multiplicity
_atom_site_calc_flag
_atom_site_refinement_flags
_atom_site_disorder_assembly
_atom_site_disorder_group
Ag1 Ag 1.79070(8) 1.25493(6) 0.70886(5) 0.04294(17) Uani 1 1 d . . .
Sm1 Sm 0.75668(4) 0.97349(3) 0.06742(2) 0.01537(10) Uani 1 1 d . . .
N1 N 1.5417(7) 1.1798(5) 0.5658(4) 0.0246(11) Uani 1 1 d . . .
N2 N -0.0098(7) 0.4288(5) -0.1947(5) 0.0284(12) Uani 1 1 d . . .
O1 O 0.4386(6) 0.7353(5) 0.1281(4) 0.0330(11) Uani 1 1 d . . .
O2 O 0.4297(5) 0.8582(4) -0.0133(4) 0.0194(9) Uani 1 1 d . . .
O3 O 0.0396(5) 0.8732(4) 0.0057(3) 0.0188(8) Uani 1 1 d . . .
O4 O -0.2165(5) 0.7366(4) -0.0030(4) 0.0249(10) Uani 1 1 d . . .
O5 O 0.9655(6) 1.1334(4) 0.2402(4) 0.0265(10) Uani 1 1 d . . .
O6 O 0.9884(6) 0.9254(4) 0.2513(4) 0.0252(10) Uani 1 1 d . . .
O7 O 1.3063(5) 1.0635(4) 0.1485(3) 0.0235(9) Uani 1 1 d . . .
O8 O 1.5981(6) 1.0273(4) 0.2265(4) 0.0247(10) Uani 1 1 d . . .
O1W O 0.069(2) 0.6388(12) 0.5915(11) 0.174(5) Uani 1 1 d . . .
H1WA H 0.1183 0.6655 0.5375 0.209 Uiso 1 1 d R . .
H1WB H 0.1542 0.6097 0.6371 0.209 Uiso 1 1 d R . .
O2W O 0.311(3) 0.4924(16) 0.517(2) 0.336(14) Uani 1 1 d . . .
H2WA H 0.2008 0.4930 0.4771 0.403 Uiso 1 1 d R . .
H2WB H 0.3245 0.4129 0.5208 0.403 Uiso 1 1 d R . .
C1 C 0.3774(8) 0.7574(6) 0.0280(5) 0.0204(13) Uani 1 1 d . . .
C2 C 0.2341(8) 0.6494(6) -0.0570(5) 0.0195(12) Uani 1 1 d . . .
C3 C 0.3036(9) 0.5416(6) -0.1117(6) 0.0266(14) Uani 1 1 d . . .
H3 H 0.4333 0.5414 -0.1030 0.032 Uiso 1 1 calc R . .
C4 C 0.1805(9) 0.4349(7) -0.1791(6) 0.0298(15) Uani 1 1 d . . .
H4 H 0.2299 0.3637 -0.2157 0.036 Uiso 1 1 calc R . .
C5 C -0.0771(8) 0.5337(6) -0.1428(5) 0.0252(14) Uani 1 1 d . . .
H5 H -0.2074 0.5310 -0.1525 0.030 Uiso 1 1 calc R . .
C6 C 0.0383(8) 0.6473(6) -0.0748(5) 0.0194(12) Uani 1 1 d . . .
C7 C -0.0526(8) 0.7583(6) -0.0208(5) 0.0178(12) Uani 1 1 d . . .
C8 C 1.0476(8) 1.0467(7) 0.2831(5) 0.0226(13) Uani 1 1 d . . .
C9 C 1.2218(8) 1.0914(6) 0.3822(5) 0.0198(12) Uani 1 1 d . . .
C10 C 1.2050(9) 1.1274(6) 0.4994(5) 0.0239(13) Uani 1 1 d . . .
H10 H 1.0864 1.1223 0.5186 0.029 Uiso 1 1 calc R . .
C11 C 1.3670(9) 1.1713(6) 0.5888(5) 0.0256(14) Uani 1 1 d . . .
H11 H 1.3539 1.1957 0.6674 0.031 Uiso 1 1 calc R . .
C12 C 1.5556(8) 1.1435(6) 0.4519(5) 0.0221(13) Uani 1 1 d . . .
H12 H 1.6756 1.1485 0.4348 0.026 Uiso 1 1 calc R . .
C13 C 1.4023(8) 1.0992(6) 0.3584(5) 0.0196(12) Uani 1 1 d . . .
C14 C 1.4395(8) 1.0609(6) 0.2327(5) 0.0185(12) Uani 1 1 d . . .

loop_
_atom_site_aniso_label
_atom_site_aniso_U_11
_atom_site_aniso_U_22
_atom_site_aniso_U_33
_atom_site_aniso_U_23
_atom_site_aniso_U_13
_atom_site_aniso_U_12
Ag1 0.0305(3) 0.0496(4) 0.0348(3) -0.0132(3) -0.0010(2) -0.0090(3)
Sm1 0.00963(15) 0.02025(17) 0.01565(16) 0.00119(11) 0.00332(10) 0.00190(11)
N1 0.022(3) 0.028(3) 0.021(3) 0.001(2) 0.003(2) 0.002(2)
N2 0.022(3) 0.023(3) 0.033(3) -0.006(2) 0.001(2) 0.001(2)
O1 0.033(3) 0.038(3) 0.024(2) 0.008(2) -0.002(2) 0.000(2)
O2 0.0093(19) 0.021(2) 0.027(2) 0.0027(17) 0.0055(16) -0.0012(16)
O3 0.0138(19) 0.019(2) 0.023(2) 0.0022(16) 0.0057(16) 0.0006(17)
O4 0.012(2) 0.022(2) 0.041(3) 0.0024(19) 0.0112(18) 0.0015(17)
O5 0.017(2) 0.033(3) 0.027(2) 0.0055(19) 0.0013(17) 0.0010(19)
O6 0.021(2) 0.027(3) 0.025(2) 0.0031(18) 0.0013(17) -0.0003(19)
O7 0.014(2) 0.038(3) 0.017(2) 0.0005(18) 0.0044(16) 0.0028(18)
O8 0.014(2) 0.038(3) 0.022(2) 0.0010(18) 0.0077(16) 0.0067(19)
O1W 0.245(16) 0.145(11) 0.129(10) 0.003(8) 0.049(10) 0.033(11)
O2W 0.45(4) 0.147(14) 0.50(4) 0.110(19) 0.26(3) 0.079(19)
C1 0.013(3) 0.025(3) 0.023(3) -0.001(2) 0.007(2) 0.004(2)
C2 0.015(3) 0.022(3) 0.022(3) 0.005(2) 0.005(2) 0.001(2)
C3 0.020(3) 0.025(3) 0.034(3) -0.001(3) 0.005(3) 0.006(3)
C4 0.029(4) 0.026(4) 0.032(4) -0.003(3) 0.006(3) 0.008(3)
C5 0.015(3) 0.027(4) 0.029(3) -0.004(3) 0.001(2) 0.003(3)
C6 0.013(3) 0.017(3) 0.026(3) 0.002(2) 0.004(2) 0.002(2)
C7 0.015(3) 0.022(3) 0.018(3) 0.006(2) 0.005(2) 0.003(2)
C8 0.015(3) 0.039(4) 0.014(3) 0.003(3) 0.009(2) 0.004(3)
C9 0.013(3) 0.025(3) 0.020(3) 0.004(2) 0.004(2) 0.000(2)
C10 0.021(3) 0.030(4) 0.021(3) -0.001(3) 0.008(2) 0.007(3)
C11 0.028(3) 0.031(4) 0.017(3) 0.000(3) 0.004(2) 0.006(3)
C12 0.017(3) 0.025(3) 0.025(3) 0.004(3) 0.007(2) 0.004(3)
C13 0.016(3) 0.025(3) 0.016(3) 0.001(2) 0.003(2) 0.002(2)
C14 0.015(3) 0.023(3) 0.015(3) -0.001(2) 0.005(2) -0.002(2)

_geom_special_details            
;
All esds (except the esd in the dihedral angle between two l.s. planes)
are estimated using the full covariance matrix. The cell esds are taken
into account individually in the estimation of esds in distances, angles
and torsion angles; correlations between esds in cell parameters are only
used when they are defined by crystal symmetry. An approximate (isotropic)
treatment of cell esds is used for estimating esds involving l.s. planes.
;

loop_
_geom_bond_atom_site_label_1
_geom_bond_atom_site_label_2
_geom_bond_distance
_geom_bond_site_symmetry_2
_geom_bond_publ_flag
Ag1 N1 2.186(5) . ?
Ag1 N2 2.192(5) 1_766 ?
Sm1 O8 2.374(4) 1_455 ?
Sm1 O7 2.415(4) 2_775 ?
Sm1 O2 2.415(4) 2_675 ?
Sm1 O3 2.434(4) 2_675 ?
Sm1 O2 2.485(4) . ?
Sm1 O4 2.503(4) 1_655 ?
Sm1 O5 2.509(4) . ?
Sm1 O3 2.565(4) 1_655 ?
Sm1 O6 2.609(4) . ?
Sm1 C7 2.895(6) 1_655 ?
Sm1 Sm1 3.8969(7) 2_675 ?
N1 C12 1.337(8) . ?
N1 C11 1.344(8) . ?
N2 C5 1.339(8) . ?
N2 C4 1.355(8) . ?
N2 Ag1 2.192(5) 1_344 ?
O1 C1 1.231(7) . ?
O2 C1 1.279(7) . ?
O2 Sm1 2.415(4) 2_675 ?
O3 C7 1.269(7) . ?
O3 Sm1 2.434(4) 2_675 ?
O3 Sm1 2.565(4) 1_455 ?
O4 C7 1.252(7) . ?
O4 Sm1 2.503(4) 1_455 ?
O5 C8 1.252(7) . ?
O6 C8 1.261(8) . ?
O7 C14 1.244(7) . ?
O7 Sm1 2.415(4) 2_775 ?
O8 C14 1.250(7) . ?
O8 Sm1 2.374(4) 1_655 ?
O1W H1WA 0.8500 . ?
O1W H1WB 0.8499 . ?
O2W H2WA 0.8500 . ?
O2W H2WB 0.8500 . ?
C1 C2 1.523(8) . ?
C2 C3 1.382(8) . ?
C2 C6 1.398(8) . ?
C3 C4 1.373(9) . ?
C3 H3 0.9300 . ?
C4 H4 0.9300 . ?
C5 C6 1.399(8) . ?
C5 H5 0.9300 . ?
C6 C7 1.494(8) . ?
C7 Sm1 2.895(6) 1_455 ?
C8 C9 1.513(8) . ?
C9 C10 1.379(8) . ?
C9 C13 1.390(8) . ?
C10 C11 1.392(8) . ?
C10 H10 0.9300 . ?
C11 H11 0.9300 . ?
C12 C13 1.379(8) . ?
C12 H12 0.9300 . ?
C13 C14 1.527(7) . ?

loop_
_geom_angle_atom_site_label_1
_geom_angle_atom_site_label_2
_geom_angle_atom_site_label_3
_geom_angle
_geom_angle_site_symmetry_1
_geom_angle_site_symmetry_3
_geom_angle_publ_flag
N1 Ag1 N2 145.7(2) . 1_766 ?
O8 Sm1 O7 139.44(13) 1_455 2_775 ?
O8 Sm1 O2 74.65(14) 1_455 2_675 ?
O7 Sm1 O2 74.58(14) 2_775 2_675 ?
O8 Sm1 O3 126.04(14) 1_455 2_675 ?
O7 Sm1 O3 67.88(14) 2_775 2_675 ?
O2 Sm1 O3 73.60(13) 2_675 2_675 ?
O8 Sm1 O2 75.95(14) 1_455 . ?
O7 Sm1 O2 70.88(13) 2_775 . ?
O2 Sm1 O2 74.64(15) 2_675 . ?
O3 Sm1 O2 133.02(13) 2_675 . ?
O8 Sm1 O4 118.23(15) 1_455 1_655 ?
O7 Sm1 O4 73.45(14) 2_775 1_655 ?
O2 Sm1 O4 140.34(13) 2_675 1_655 ?
O3 Sm1 O4 114.16(13) 2_675 1_655 ?
O2 Sm1 O4 73.15(13) . 1_655 ?
O8 Sm1 O5 68.55(14) 1_455 . ?
O7 Sm1 O5 137.72(14) 2_775 . ?
O2 Sm1 O5 91.51(13) 2_675 . ?
O3 Sm1 O5 69.91(14) 2_675 . ?
O2 Sm1 O5 144.22(13) . . ?
O4 Sm1 O5 128.08(14) 1_655 . ?
O8 Sm1 O3 145.22(13) 1_455 1_655 ?
O7 Sm1 O3 73.97(13) 2_775 1_655 ?
O2 Sm1 O3 136.79(13) 2_675 1_655 ?
O3 Sm1 O3 67.49(15) 2_675 1_655 ?
O2 Sm1 O3 120.57(12) . 1_655 ?
O4 Sm1 O3 51.49(13) 1_655 1_655 ?
O5 Sm1 O3 92.25(13) . 1_655 ?
O8 Sm1 O6 77.08(13) 1_455 . ?
O7 Sm1 O6 141.99(13) 2_775 . ?
O2 Sm1 O6 139.69(13) 2_675 . ?
O3 Sm1 O6 101.66(13) 2_675 . ?
O2 Sm1 O6 124.84(13) . . ?
O4 Sm1 O6 78.91(14) 1_655 . ?
O5 Sm1 O6 51.18(14) . . ?
O3 Sm1 O6 68.43(13) 1_655 . ?
O8 Sm1 C7 136.61(15) 1_455 1_655 ?
O7 Sm1 C7 70.87(14) 2_775 1_655 ?
O2 Sm1 C7 145.33(14) 2_675 1_655 ?
O3 Sm1 C7 90.64(15) 2_675 1_655 ?
O2 Sm1 C7 96.39(14) . 1_655 ?
O4 Sm1 C7 25.53(15) 1_655 1_655 ?
O5 Sm1 C7 112.20(15) . 1_655 ?
O3 Sm1 C7 25.99(14) 1_655 1_655 ?
O6 Sm1 C7 72.91(14) . 1_655 ?
O8 Sm1 Sm1 71.41(10) 1_455 2_675 ?
O7 Sm1 Sm1 68.06(9) 2_775 2_675 ?
O2 Sm1 Sm1 37.94(9) 2_675 2_675 ?
O3 Sm1 Sm1 105.07(9) 2_675 2_675 ?
O2 Sm1 Sm1 36.70(9) . 2_675 ?
O4 Sm1 Sm1 107.00(9) 1_655 2_675 ?
O5 Sm1 Sm1 122.25(10) . 2_675 ?
O3 Sm1 Sm1 140.90(9) 1_655 2_675 ?
O6 Sm1 Sm1 146.81(10) . 2_675 ?
C7 Sm1 Sm1 125.50(11) 1_655 2_675 ?
C12 N1 C11 117.2(5) . . ?
C12 N1 Ag1 121.8(4) . . ?
C11 N1 Ag1 121.1(4) . . ?
C5 N2 C4 117.2(5) . . ?
C5 N2 Ag1 118.9(4) . 1_344 ?
C4 N2 Ag1 123.8(4) . 1_344 ?
C1 O2 Sm1 127.5(3) . 2_675 ?
C1 O2 Sm1 118.2(3) . . ?
Sm1 O2 Sm1 105.35(15) 2_675 . ?
C7 O3 Sm1 143.1(4) . 2_675 ?
C7 O3 Sm1 91.7(3) . 1_455 ?
Sm1 O3 Sm1 112.51(15) 2_675 1_455 ?
C7 O4 Sm1 95.0(4) . 1_455 ?
C8 O5 Sm1 94.3(4) . . ?
C8 O6 Sm1 89.5(3) . . ?
C14 O7 Sm1 138.3(4) . 2_775 ?
C14 O8 Sm1 134.2(4) . 1_655 ?
H1WA O1W H1WB 107.7 . . ?
H2WA O2W H2WB 107.7 . . ?
O1 C1 O2 126.5(6) . . ?
O1 C1 C2 116.2(5) . . ?
O2 C1 C2 117.3(5) . . ?
C3 C2 C6 118.4(5) . . ?
C3 C2 C1 117.1(5) . . ?
C6 C2 C1 124.2(5) . . ?
C4 C3 C2 119.8(6) . . ?
C4 C3 H3 120.1 . . ?
C2 C3 H3 120.1 . . ?
N2 C4 C3 123.0(6) . . ?
N2 C4 H4 118.5 . . ?
C3 C4 H4 118.5 . . ?
N2 C5 C6 123.4(6) . . ?
N2 C5 H5 118.3 . . ?
C6 C5 H5 118.3 . . ?
C2 C6 C5 118.1(5) . . ?
C2 C6 C7 123.1(5) . . ?
C5 C6 C7 118.8(5) . . ?
O4 C7 O3 121.7(5) . . ?
O4 C7 C6 119.8(5) . . ?
O3 C7 C6 118.5(5) . . ?
O4 C7 Sm1 59.5(3) . 1_455 ?
O3 C7 Sm1 62.3(3) . 1_455 ?
C6 C7 Sm1 176.0(4) . 1_455 ?
O5 C8 O6 123.4(5) . . ?
O5 C8 C9 117.8(6) . . ?
O6 C8 C9 118.8(5) . . ?
C10 C9 C13 118.0(5) . . ?
C10 C9 C8 120.5(5) . . ?
C13 C9 C8 121.5(5) . . ?
C9 C10 C11 119.5(6) . . ?
C9 C10 H10 120.3 . . ?
C11 C10 H10 120.3 . . ?
N1 C11 C10 122.6(6) . . ?
N1 C11 H11 118.7 . . ?
C10 C11 H11 118.7 . . ?
N1 C12 C13 123.8(5) . . ?
N1 C12 H12 118.1 . . ?
C13 C12 H12 118.1 . . ?
C12 C13 C9 118.9(5) . . ?
C12 C13 C14 118.1(5) . . ?
C9 C13 C14 123.0(5) . . ?
O7 C14 O8 127.7(5) . . ?
O7 C14 C13 116.0(5) . . ?
O8 C14 C13 116.3(5) . . ?

loop_
_geom_torsion_atom_site_label_1
_geom_torsion_atom_site_label_2
_geom_torsion_atom_site_label_3
_geom_torsion_atom_site_label_4
_geom_torsion
_geom_torsion_site_symmetry_1
_geom_torsion_site_symmetry_2
_geom_torsion_site_symmetry_3
_geom_torsion_site_symmetry_4
_geom_torsion_publ_flag
N2 Ag1 N1 C12 85.3(6) 1_766 . . . ?
N2 Ag1 N1 C11 -93.1(6) 1_766 . . . ?
O8 Sm1 O2 C1 -71.9(4) 1_455 . . . ?
O7 Sm1 O2 C1 131.8(4) 2_775 . . . ?
O2 Sm1 O2 C1 -149.6(5) 2_675 . . . ?
O3 Sm1 O2 C1 161.5(4) 2_675 . . . ?
O4 Sm1 O2 C1 53.9(4) 1_655 . . . ?
O5 Sm1 O2 C1 -79.1(4) . . . . ?
O3 Sm1 O2 C1 74.7(4) 1_655 . . . ?
O6 Sm1 O2 C1 -9.0(4) . . . . ?
C7 Sm1 O2 C1 64.6(4) 1_655 . . . ?
Sm1 Sm1 O2 C1 -149.6(5) 2_675 . . . ?
O8 Sm1 O2 Sm1 77.63(16) 1_455 . . 2_675 ?
O7 Sm1 O2 Sm1 -78.66(16) 2_775 . . 2_675 ?
O2 Sm1 O2 Sm1 0.0 2_675 . . 2_675 ?
O3 Sm1 O2 Sm1 -48.9(2) 2_675 . . 2_675 ?
O4 Sm1 O2 Sm1 -156.54(18) 1_655 . . 2_675 ?
O5 Sm1 O2 Sm1 70.5(3) . . . 2_675 ?
O3 Sm1 O2 Sm1 -135.69(14) 1_655 . . 2_675 ?
O6 Sm1 O2 Sm1 140.57(14) . . . 2_675 ?
C7 Sm1 O2 Sm1 -145.84(16) 1_655 . . 2_675 ?
O8 Sm1 O5 C8 97.5(4) 1_455 . . . ?
O7 Sm1 O5 C8 -121.2(3) 2_775 . . . ?
O2 Sm1 O5 C8 170.3(3) 2_675 . . . ?
O3 Sm1 O5 C8 -117.7(4) 2_675 . . . ?
O2 Sm1 O5 C8 105.0(4) . . . . ?
O4 Sm1 O5 C8 -12.3(4) 1_655 . . . ?
O3 Sm1 O5 C8 -52.7(3) 1_655 . . . ?
O6 Sm1 O5 C8 7.0(3) . . . . ?
C7 Sm1 O5 C8 -35.6(4) 1_655 . . . ?
Sm1 Sm1 O5 C8 146.7(3) 2_675 . . . ?
O8 Sm1 O6 C8 -79.7(3) 1_455 . . . ?
O7 Sm1 O6 C8 113.9(4) 2_775 . . . ?
O2 Sm1 O6 C8 -33.3(4) 2_675 . . . ?
O3 Sm1 O6 C8 45.0(3) 2_675 . . . ?
O2 Sm1 O6 C8 -142.1(3) . . . . ?
O4 Sm1 O6 C8 157.7(3) 1_655 . . . ?
O5 Sm1 O6 C8 -7.0(3) . . . . ?
O3 Sm1 O6 C8 104.9(3) 1_655 . . . ?
C7 Sm1 O6 C8 132.0(4) 1_655 . . . ?
Sm1 Sm1 O6 C8 -98.2(3) 2_675 . . . ?
Sm1 O2 C1 O1 -114.6(6) 2_675 . . . ?
Sm1 O2 C1 O1 27.5(8) . . . . ?
Sm1 O2 C1 C2 69.5(6) 2_675 . . . ?
Sm1 O2 C1 C2 -148.5(4) . . . . ?
O1 C1 C2 C3 -77.7(7) . . . . ?
O2 C1 C2 C3 98.6(6) . . . . ?
O1 C1 C2 C6 96.5(7) . . . . ?
O2 C1 C2 C6 -87.1(7) . . . . ?
C6 C2 C3 C4 -1.5(9) . . . . ?
C1 C2 C3 C4 173.1(6) . . . . ?
C5 N2 C4 C3 1.2(10) 