####################################################################### 
# 
# This file contains crystal structure data downloaded from the 
# Cambridge Structural Database (CSD) hosted by the Cambridge 
# Crystallographic Data Centre (CCDC).
# 
# Full information about CCDC data access policies and citation 
# guidelines are available at http://www.ccdc.cam.ac.uk/access/V1 
# 
# Audit and citation data items may have been added by the CCDC. 
# Please retain this information to preserve the provenance of 
# this file and to allow appropriate attribution of the data. 
# 
#######################################################################

data_ddd
_audit_block_doi                 10.5517/ccvr0xh
_database_code_depnum_ccdc_archive 'CCDC 796697'
loop_
_citation_id
_citation_doi
_citation_year
1 10.1016/j.ica.2012.02.010 2012
_audit_update_record             
;
2010-10-13 deposited with the CCDC.	2024-07-14 downloaded from the CCDC.
;
#TrackingRef 'ICC-A78.cif'


_audit_creation_method           SHELXL-97
_chemical_name_systematic        
;
?
;
_chemical_name_common            ?
_chemical_melting_point          ?
_chemical_formula_moiety         '2(C14 H6 Ag N2 O8 Tb), 2(H O0.50)'
_chemical_formula_sum            'C28 H14 Ag2 N4 O17 Tb2'
_chemical_formula_weight         1212.01

loop_
_atom_type_symbol
_atom_type_description
_atom_type_scat_dispersion_real
_atom_type_scat_dispersion_imag
_atom_type_scat_source
C C 0.0033 0.0016 'International Tables Vol C Tables 4.2.6.8 and 6.1.1.4'
H H 0.0000 0.0000 'International Tables Vol C Tables 4.2.6.8 and 6.1.1.4'
N N 0.0061 0.0033 'International Tables Vol C Tables 4.2.6.8 and 6.1.1.4'
O O 0.0106 0.0060 'International Tables Vol C Tables 4.2.6.8 and 6.1.1.4'
Tb Tb -0.1723 4.1537 'International Tables Vol C Tables 4.2.6.8 and 6.1.1.4'
Ag Ag -0.8971 1.1015 'International Tables Vol C Tables 4.2.6.8 and 6.1.1.4'

_symmetry_cell_setting           Triclinic
_symmetry_space_group_name_H-M   'P-1 '
_symmetry_space_group_name_Hall  '-P 1'

loop_
_symmetry_equiv_pos_as_xyz
'x, y, z'
'-x, -y, -z'

_cell_length_a                   7.2139(15)
_cell_length_b                   10.355(2)
_cell_length_c                   11.554(2)
_cell_angle_alpha                99.443(2)
_cell_angle_beta                 101.070(3)
_cell_angle_gamma                95.396(2)
_cell_volume                     828.5(3)
_cell_formula_units_Z            1
_cell_measurement_temperature    291(2)
_cell_measurement_reflns_used    3175
_cell_measurement_theta_min      2.45
_cell_measurement_theta_max      27.42

_exptl_crystal_description       ?
_exptl_crystal_colour            ?
_exptl_crystal_size_max          0.28
_exptl_crystal_size_mid          0.24
_exptl_crystal_size_min          0.22
_exptl_crystal_density_meas      ?
_exptl_crystal_density_diffrn    2.429
_exptl_crystal_density_method    'not measured'
_exptl_crystal_F_000             570
_exptl_absorpt_coefficient_mu    5.465
_exptl_absorpt_correction_type   multi-scan
_exptl_absorpt_correction_T_min  0.7
_exptl_absorpt_correction_T_max  0.8
_exptl_absorpt_process_details   'SADABS; Bruker, 2000'

_exptl_special_details           
;
?
;

_diffrn_ambient_temperature      291(2)
_diffrn_radiation_wavelength     0.71073
_diffrn_radiation_type           MoK\a
_diffrn_radiation_source         'sealed tube'
_diffrn_radiation_monochromator  graphite
_diffrn_measurement_device_type  'Bruker Smart Apex CCD'
_diffrn_measurement_method       'phi and omega scans'
_diffrn_detector_area_resol_mean ?
_diffrn_standards_number         ?
_diffrn_standards_interval_count ?
_diffrn_standards_interval_time  ?
_diffrn_standards_decay_%        ?
_diffrn_reflns_number            6751
_diffrn_reflns_av_R_equivalents  0.0387
_diffrn_reflns_av_sigmaI/netI    0.0589
_diffrn_reflns_limit_h_min       -8
_diffrn_reflns_limit_h_max       8
_diffrn_reflns_limit_k_min       -12
_diffrn_reflns_limit_k_max       12
_diffrn_reflns_limit_l_min       -14
_diffrn_reflns_limit_l_max       14
_diffrn_reflns_theta_min         2.45
_diffrn_reflns_theta_max         26.00
_reflns_number_total             3197
_reflns_number_gt                2402
_reflns_threshold_expression     >2sigma(I)

_computing_data_collection       'SMART (Bruker, 2000)'
_computing_cell_refinement       SMART
_computing_data_reduction        'SAINT (Bruker, 2000)'
_computing_structure_solution    'SHELXTL (Bruker, 2000)'
_computing_structure_refinement  SHELXTL
_computing_molecular_graphics    SHELXTL
_computing_publication_material  SHELXTL

_refine_special_details          
;
Refinement of F^2^ against ALL reflections. The weighted R-factor wR and
goodness of fit S are based on F^2^, conventional R-factors R are based
on F, with F set to zero for negative F^2^. The threshold expression of
F^2^ > 2sigma(F^2^) is used only for calculating R-factors(gt) etc. and is
not relevant to the choice of reflections for refinement. R-factors based
on F^2^ are statistically about twice as large as those based on F, and R-
factors based on ALL data will be even larger.
;

_refine_ls_structure_factor_coef Fsqd
_refine_ls_matrix_type           full
_refine_ls_weighting_scheme      calc
_refine_ls_weighting_details     
'calc w=1/[\s^2^(Fo^2^)+(0.09P)^2^+1.99P] where P=(Fo^2^+2Fc^2^)/3'
_atom_sites_solution_primary     direct
_atom_sites_solution_secondary   difmap
_atom_sites_solution_hydrogens   geom
_refine_ls_hydrogen_treatment    constr
_refine_ls_extinction_method     none
_refine_ls_extinction_coef       ?
_refine_ls_number_reflns         3197
_refine_ls_number_parameters     244
_refine_ls_number_restraints     0
_refine_ls_R_factor_all          0.0706
_refine_ls_R_factor_gt           0.0498
_refine_ls_wR_factor_ref         0.1469
_refine_ls_wR_factor_gt          0.1358
_refine_ls_goodness_of_fit_ref   1.048
_refine_ls_restrained_S_all      1.048
_refine_ls_shift/su_max          0.000
_refine_ls_shift/su_mean         0.000

loop_
_atom_site_label
_atom_site_type_symbol
_atom_site_fract_x
_atom_site_fract_y
_atom_site_fract_z
_atom_site_U_iso_or_equiv
_atom_site_adp_type
_atom_site_occupancy
_atom_site_symmetry_multiplicity
_atom_site_calc_flag
_atom_site_refinement_flags
_atom_site_disorder_assembly
_atom_site_disorder_group
C1 C 0.0546(16) 0.6437(11) -0.0467(11) 0.035(2) Uani 1 1 d . . .
H1 H 0.1770 0.6493 -0.0616 0.042 Uiso 1 1 calc R . .
C2 C -0.0949(16) 0.5995(10) -0.1458(9) 0.031(2) Uani 1 1 d . . .
C3 C -0.2793(14) 0.5927(10) -0.1227(9) 0.027(2) Uani 1 1 d . . .
C4 C -0.2982(15) 0.6275(10) -0.0033(10) 0.032(2) Uani 1 1 d . . .
H4 H -0.4187 0.6223 0.0146 0.038 Uiso 1 1 calc R . .
C5 C -0.1353(14) 0.6705(10) 0.0899(10) 0.032(2) Uani 1 1 d . . .
H5 H -0.1497 0.6936 0.1686 0.038 Uiso 1 1 calc R . .
C6 C -0.0621(14) 0.5603(9) -0.2704(10) 0.027(2) Uani 1 1 d . . .
C7 C -0.4552(14) 0.5455(10) -0.2215(9) 0.030(2) Uani 1 1 d . . .
C8 C 0.6797(15) 0.9349(10) 0.3186(9) 0.030(2) Uani 1 1 d . . .
H8 H 0.7295 0.8630 0.2822 0.036 Uiso 1 1 calc R . .
C9 C 0.8017(15) 1.0442(10) 0.3885(9) 0.029(2) Uani 1 1 d . . .
H9 H 0.9326 1.0439 0.3974 0.035 Uiso 1 1 calc R . .
C10 C 0.7357(13) 1.1510(9) 0.4438(9) 0.026(2) Uani 1 1 d . . .
C11 C 0.5415(15) 1.1497(11) 0.4241(9) 0.030(2) Uani 1 1 d . . .
C12 C 0.4256(15) 1.0379(10) 0.3567(10) 0.033(2) Uani 1 1 d . . .
H12 H 0.2945 1.0359 0.3480 0.039 Uiso 1 1 calc R . .
C13 C 0.8757(15) 1.2564(10) 0.5276(8) 0.027(2) Uani 1 1 d . . .
C14 C 0.4455(13) 1.2596(11) 0.4828(9) 0.028(2) Uani 1 1 d . . .
N1 N 0.0403(12) 0.6785(8) 0.0660(8) 0.0300(19) Uani 1 1 d . . .
N2 N 0.4914(12) 0.9335(8) 0.3040(7) 0.0270(17) Uani 1 1 d . . .
O1 O 0.0996(9) 0.5262(7) -0.2755(7) 0.0294(15) Uani 1 1 d . . .
O2 O -0.1941(10) 0.5639(7) -0.3533(6) 0.0299(15) Uani 1 1 d . . .
O3 O -0.5165(10) 0.4247(7) -0.2536(7) 0.0316(16) Uani 1 1 d . . .
O4 O -0.5361(10) 0.6321(7) -0.2640(6) 0.0280(15) Uani 1 1 d . . .
O5 O 0.9385(11) 1.2355(7) 0.6302(6) 0.0300(16) Uani 1 1 d . . .
O6 O 0.9317(11) 1.3605(6) 0.4895(6) 0.0277(15) Uani 1 1 d . . .
O7 O 0.5378(11) 1.3750(7) 0.5094(7) 0.0325(16) Uani 1 1 d . . .
O8 O 0.2800(9) 1.2398(7) 0.5000(6) 0.0273(15) Uani 1 1 d . . .
Ag1 Ag 0.29189(12) 0.75593(8) 0.20854(7) 0.0340(2) Uani 1 1 d . . .
Tb2 Tb 0.25642(7) 1.47473(5) 0.56653(5) 0.02932(19) Uani 1 1 d . . .
O1W O 0.190(3) 0.0163(18) -0.0225(17) 0.048(4) Uani 0.50 1 d P . .
H1WA H 0.2890 0.0513 0.0297 0.072 Uiso 0.50 1 d PR . .
H1WB H 0.0917 0.0260 0.0073 0.072 Uiso 0.50 1 d PR . .

loop_
_atom_site_aniso_label
_atom_site_aniso_U_11
_atom_site_aniso_U_22
_atom_site_aniso_U_33
_atom_site_aniso_U_23
_atom_site_aniso_U_13
_atom_site_aniso_U_12
C1 0.028(5) 0.034(6) 0.044(6) 0.006(5) 0.006(5) 0.010(4)
C2 0.036(6) 0.029(5) 0.024(5) -0.003(4) -0.004(4) 0.013(4)
C3 0.023(5) 0.032(5) 0.024(5) 0.005(4) 0.000(4) 0.005(4)
C4 0.023(5) 0.031(5) 0.033(6) -0.013(4) 0.007(4) -0.007(4)
C5 0.018(5) 0.029(5) 0.041(6) -0.007(4) 0.000(4) 0.005(4)
C6 0.019(5) 0.021(5) 0.037(6) 0.006(4) -0.002(4) -0.006(4)
C7 0.023(5) 0.036(6) 0.028(5) -0.002(4) 0.002(4) 0.002(4)
C8 0.032(5) 0.029(5) 0.026(5) -0.005(4) 0.004(4) 0.007(4)
C9 0.025(5) 0.030(5) 0.035(6) -0.003(4) 0.017(4) 0.006(4)
C10 0.017(4) 0.021(5) 0.035(5) -0.008(4) 0.007(4) 0.000(4)
C11 0.027(5) 0.042(6) 0.021(5) 0.000(4) 0.009(4) 0.012(4)
C12 0.032(6) 0.033(5) 0.040(6) 0.012(5) 0.018(5) 0.007(4)
C13 0.039(6) 0.028(5) 0.018(5) 0.009(4) 0.014(4) 0.002(4)
C14 0.015(5) 0.038(6) 0.025(5) -0.004(4) -0.003(4) 0.002(4)
N1 0.030(5) 0.026(4) 0.033(5) 0.001(4) 0.006(4) 0.005(3)
N2 0.027(4) 0.030(4) 0.020(4) 0.000(3) 0.003(3) -0.006(3)
O1 0.016(3) 0.036(4) 0.034(4) 0.006(3) 0.000(3) 0.004(3)
O2 0.026(4) 0.028(4) 0.029(4) -0.004(3) 0.000(3) -0.001(3)
O3 0.026(4) 0.033(4) 0.034(4) 0.004(3) 0.004(3) 0.000(3)
O4 0.023(3) 0.030(4) 0.031(4) 0.007(3) 0.006(3) 0.001(3)
O5 0.037(4) 0.031(4) 0.014(3) -0.006(3) 0.004(3) -0.010(3)
O6 0.038(4) 0.020(3) 0.016(3) -0.004(2) -0.007(3) -0.001(3)
O7 0.032(4) 0.028(4) 0.029(4) -0.005(3) 0.001(3) -0.005(3)
O8 0.018(3) 0.036(4) 0.026(4) 0.005(3) 0.002(3) -0.002(3)
Ag1 0.0330(4) 0.0378(5) 0.0277(4) -0.0013(3) 0.0043(3) 0.0039(3)
Tb2 0.0243(3) 0.0279(3) 0.0318(3) 0.00066(19) 0.0009(2) 0.00203(19)
O1W 0.047(10) 0.060(11) 0.057(11) 0.035(9) 0.029(9) 0.024(9)

_geom_special_details            
;
All esds (except the esd in the dihedral angle between two l.s. planes)
are estimated using the full covariance matrix. The cell esds are taken
into account individually in the estimation of esds in distances, angles
and torsion angles; correlations between esds in cell parameters are only
used when they are defined by crystal symmetry. An approximate (isotropic)
treatment of cell esds is used for estimating esds involving l.s. planes.
;

loop_
_geom_bond_atom_site_label_1
_geom_bond_atom_site_label_2
_geom_bond_distance
_geom_bond_site_symmetry_2
_geom_bond_publ_flag
C1 N1 1.320(15) . ?
C1 C2 1.395(15) . ?
C1 H1 0.9300 . ?
C2 C3 1.404(15) . ?
C2 C6 1.500(15) . ?
C3 C4 1.405(14) . ?
C3 C7 1.515(14) . ?
C4 C5 1.413(14) . ?
C4 H4 0.9300 . ?
C5 N1 1.345(14) . ?
C5 H5 0.9300 . ?
C6 O2 1.222(12) . ?
C6 O1 1.259(12) . ?
C7 O4 1.232(13) . ?
C7 O3 1.256(13) . ?
C7 Tb2 2.834(10) 1_444 ?
C8 N2 1.335(14) . ?
C8 C9 1.396(15) . ?
C8 H8 0.9300 . ?
C9 C10 1.358(13) . ?
C9 H9 0.9300 . ?
C10 C11 1.374(14) . ?
C10 C13 1.489(14) . ?
C11 C12 1.385(16) . ?
C11 C14 1.520(13) . ?
C12 N2 1.325(13) . ?
C12 H12 0.9300 . ?
C13 O5 1.247(12) . ?
C13 O6 1.290(12) . ?
C14 O8 1.251(12) . ?
C14 O7 1.272(12) . ?
C14 Tb2 2.852(10) . ?
N1 Ag1 2.189(9) . ?
N2 Ag1 2.213(8) . ?
O1 Tb2 2.341(7) 1_544 ?
O2 Tb2 2.377(7) 2_575 ?
O3 Tb2 2.545(7) 1_444 ?
O4 Tb2 2.470(7) 1_444 ?
O6 Tb2 2.373(7) 2_686 ?
O6 Tb2 2.452(7) 1_655 ?
O7 Tb2 2.431(7) 2_686 ?
O7 Tb2 2.511(8) . ?
O8 Tb2 2.460(7) . ?
Tb2 O1 2.341(7) 1_566 ?
Tb2 O6 2.373(7) 2_686 ?
Tb2 O2 2.377(7) 2_575 ?
Tb2 O7 2.431(8) 2_686 ?
Tb2 O6 2.452(7) 1_455 ?
Tb2 O4 2.470(7) 1_666 ?
Tb2 O3 2.545(7) 1_666 ?
Tb2 C7 2.834(10) 1_666 ?
O1W H1WA 0.8500 . ?
O1W H1WB 0.8499 . ?

loop_
_geom_angle_atom_site_label_1
_geom_angle_atom_site_label_2
_geom_angle_atom_site_label_3
_geom_angle
_geom_angle_site_symmetry_1
_geom_angle_site_symmetry_3
_geom_angle_publ_flag
N1 C1 C2 126.7(11) . . ?
N1 C1 H1 116.6 . . ?
C2 C1 H1 116.6 . . ?
C1 C2 C3 116.3(10) . . ?
C1 C2 C6 122.3(10) . . ?
C3 C2 C6 121.4(9) . . ?
C2 C3 C4 118.1(9) . . ?
C2 C3 C7 122.1(9) . . ?
C4 C3 C7 119.8(9) . . ?
C3 C4 C5 120.4(10) . . ?
C3 C4 H4 119.8 . . ?
C5 C4 H4 119.8 . . ?
N1 C5 C4 120.8(10) . . ?
N1 C5 H5 119.6 . . ?
C4 C5 H5 119.6 . . ?
O2 C6 O1 128.4(10) . . ?
O2 C6 C2 116.7(9) . . ?
O1 C6 C2 114.8(9) . . ?
O4 C7 O3 123.0(9) . . ?
O4 C7 C3 116.2(9) . . ?
O3 C7 C3 120.8(9) . . ?
O4 C7 Tb2 60.4(5) . 1_444 ?
O3 C7 Tb2 63.9(5) . 1_444 ?
C3 C7 Tb2 169.7(8) . 1_444 ?
N2 C8 C9 119.9(9) . . ?
N2 C8 H8 120.0 . . ?
C9 C8 H8 120.0 . . ?
C10 C9 C8 122.2(9) . . ?
C10 C9 H9 118.9 . . ?
C8 C9 H9 118.9 . . ?
C9 C10 C11 116.9(9) . . ?
C9 C10 C13 118.5(9) . . ?
C11 C10 C13 124.5(8) . . ?
C10 C11 C12 118.9(9) . . ?
C10 C11 C14 123.3(9) . . ?
C12 C11 C14 117.6(9) . . ?
N2 C12 C11 123.6(10) . . ?
N2 C12 H12 118.2 . . ?
C11 C12 H12 118.2 . . ?
O5 C13 O6 123.6(9) . . ?
O5 C13 C10 117.3(8) . . ?
O6 C13 C10 119.1(9) . . ?
O8 C14 O7 120.8(9) . . ?
O8 C14 C11 122.1(9) . . ?
O7 C14 C11 117.0(9) . . ?
O8 C14 Tb2 59.3(5) . . ?
O7 C14 Tb2 61.7(5) . . ?
C11 C14 Tb2 173.3(7) . . ?
C1 N1 C5 117.7(10) . . ?
C1 N1 Ag1 121.3(7) . . ?
C5 N1 Ag1 120.9(7) . . ?
C12 N2 C8 118.3(9) . . ?
C12 N2 Ag1 120.0(7) . . ?
C8 N2 Ag1 121.5(7) . . ?
C6 O1 Tb2 133.3(7) . 1_544 ?
C6 O2 Tb2 137.9(7) . 2_575 ?
C7 O3 Tb2 89.8(6) . 1_444 ?
C7 O4 Tb2 93.9(6) . 1_444 ?
C13 O6 Tb2 126.6(7) . 2_686 ?
C13 O6 Tb2 120.5(6) . 1_655 ?
Tb2 O6 Tb2 105.6(3) 2_686 1_655 ?
C14 O7 Tb2 141.9(7) . 2_686 ?
C14 O7 Tb2 91.8(6) . . ?
Tb2 O7 Tb2 113.0(3) 2_686 . ?
C14 O8 Tb2 94.8(6) . . ?
N1 Ag1 N2 145.6(3) . . ?
O1 Tb2 O6 75.5(2) 1_566 2_686 ?
O1 Tb2 O2 140.0(2) 1_566 2_575 ?
O6 Tb2 O2 74.7(2) 2_686 2_575 ?
O1 Tb2 O7 127.4(2) 1_566 2_686 ?
O6 Tb2 O7 74.6(3) 2_686 2_686 ?
O2 Tb2 O7 67.7(2) 2_575 2_686 ?
O1 Tb2 O6 75.4(2) 1_566 1_455 ?
O6 Tb2 O6 74.4(3) 2_686 1_455 ?
O2 Tb2 O6 71.4(2) 2_575 1_455 ?
O7 Tb2 O6 133.6(2) 2_686 1_455 ?
O1 Tb2 O8 116.7(2) 1_566 . ?
O6 Tb2 O8 139.6(2) 2_686 . ?
O2 Tb2 O8 73.4(2) 2_575 . ?
O7 Tb2 O8 114.2(2) 2_686 . ?
O6 Tb2 O8 72.4(2) 1_455 . ?
O1 Tb2 O4 68.8(2) 1_566 1_666 ?
O6 Tb2 O4 92.2(2) 2_686 1_666 ?
O2 Tb2 O4 138.0(2) 2_575 1_666 ?
O7 Tb2 O4 70.3(2) 2_686 1_666 ?
O6 Tb2 O4 144.0(2) 1_455 1_666 ?
O8 Tb2 O4 128.2(2) . 1_666 ?
O1 Tb2 O7 143.9(2) 1_566 . ?
O6 Tb2 O7 137.5(3) 2_686 . ?
O2 Tb2 O7 74.4(2) 2_575 . ?
O7 Tb2 O7 67.0(3) 2_686 . ?
O6 Tb2 O7 121.1(2) 1_455 . ?
O8 Tb2 O7 52.4(2) . . ?
O4 Tb2 O7 91.6(2) 1_666 . ?
O1 Tb2 O3 76.6(2) 1_566 1_666 ?
O6 Tb2 O3 140.7(2) 2_686 1_666 ?
O2 Tb2 O3 141.4(2) 2_575 1_666 ?
O7 Tb2 O3 102.0(2) 2_686 1_666 ?
O6 Tb2 O3 123.7(2) 1_455 1_666 ?
O8 Tb2 O3 78.4(2) . 1_666 ?
O4 Tb2 O3 51.7(2) 1_666 1_666 ?
O7 Tb2 O3 67.6(2) . 1_666 ?
O1 Tb2 C7 73.8(3) 1_566 1_666 ?
O6 Tb2 C7 117.5(3) 2_686 1_666 ?
O2 Tb2 C7 144.7(3) 2_575 1_666 ?
O7 Tb2 C7 83.3(3) 2_686 1_666 ?
O6 Tb2 C7 142.2(3) 1_455 1_666 ?
O8 Tb2 C7 102.8(3) . 1_666 ?
O4 Tb2 C7 25.7(3) 1_666 1_666 ?
O7 Tb2 C7 76.0(3) . 1_666 ?
O3 Tb2 C7 26.3(3) 1_666 1_666 ?
O1 Tb2 C14 135.2(3) 1_566 . ?
O6 Tb2 C14 145.5(3) 2_686 . ?
O2 Tb2 C14 70.9(3) 2_575 . ?
O7 Tb2 C14 90.4(3) 2_686 . ?
O6 Tb2 C14 96.2(3) 1_455 . ?
O8 Tb2 C14 25.9(3) . . ?
O4 Tb2 C14 112.0(3) 1_666 . ?
O7 Tb2 C14 26.5(3) . . ?
O3 Tb2 C14 72.1(3) 1_666 . ?
C7 Tb2 C14 90.5(3) 1_666 . ?
O1 Tb2 Tb2 71.61(17) 1_566 2_586 ?
O6 Tb2 Tb2 37.92(17) 2_686 2_586 ?
O2 Tb2 Tb2 68.48(17) 2_575 2_586 ?
O7 Tb2 Tb2 106.02(18) 2_686 2_586 ?
O6 Tb2 Tb2 36.49(16) 1_455 2_586 ?
O8 Tb2 Tb2 106.08(16) . 2_586 ?
O4 Tb2 Tb2 122.69(16) 1_666 2_586 ?
O7 Tb2 Tb2 141.64(17) . 2_586 ?
O3 Tb2 Tb2 146.31(17) 1_666 2_586 ?
C7 Tb2 Tb2 142.1(2) 1_666 2_586 ?
C14 Tb2 Tb2 125.29(19) . 2_586 ?
H1WA O1W H1WB 109.5 . . ?

loop_
_geom_torsion_atom_site_label_1
_geom_torsion_atom_site_label_2
_geom_torsion_atom_site_label_3
_geom_torsion_atom_site_label_4
_geom_torsion
_geom_torsion_site_symmetry_1
_geom_torsion_site_symmetry_2
_geom_torsion_site_symmetry_3
_geom_torsion_site_symmetry_4
_geom_torsion_publ_flag
N1 C1 C2 C3 0.6(17) . . . . ?
N1 C1 C2 C6 -179.0(10) . . . . ?
C1 C2 C3 C4 -1.4(15) . . . . ?
C6 C2 C3 C4 178.3(10) . . . . ?
C1 C2 C3 C7 -179.6(10) . . . . ?
C6 C2 C3 C7 0.1(16) . . . . ?
C2 C3 C4 C5 1.2(16) . . . . ?
C7 C3 C4 C5 179.4(10) . . . . ?
C3 C4 C5 N1 -0.1(17) . . . . ?
C1 C2 C6 O2 -157.3(10) . . . . ?
C3 C2 C6 O2 23.1(15) . . . . ?
C1 C2 C6 O1 23.6(15) . . . . ?
C3 C2 C6 O1 -156.1(9) . . . . ?
C2 C3 C7 O4 -96.3(12) . . . . ?
C4 C3 C7 O4 85.5(13) . . . . ?
C2 C3 C7 O3 86.3(14) . . . . ?
C4 C3 C7 O3 -91.9(13) . . . . ?
C2 C3 C7 Tb2 -28(5) . . . 1_444 ?
C4 C3 C7 Tb2 154(3) . . . 1_444 ?
N2 C8 C9 C10 0.3(17) . . . . ?
C8 C9 C10 C11 -2.7(16) . . . . ?
C8 C9 C10 C13 173.2(10) . . . . ?
C9 C10 C11 C12 4.3(15) . . . . ?
C13 C10 C11 C12 -171.3(10) . . . . ?
C9 C10 C11 C14 177.9(10) . . . . ?
C13 C10 C11 C14 2.3(17) . . . . ?
C10 C11 C12 N2 -3.9(16) . . . . ?
C14 C11 C12 N2 -177.8(10) . . . . ?
C9 C10 C13 O5 -78.6(13) . . . . ?
C11 C10 C13 O5 97.0(13) . . . . ?
C9 C10 C13 O6 98.4(12) . . . . ?
C11 C10 C13 O6 -86.0(13) . . . . ?
C10 C11 C14 O8 -154.0(10) . . . . ?
C12 C11 C14 O8 19.7(15) . . . . ?
C10 C11 C14 O7 29.0(15) . . . . ?
C12 C11 C14 O7 -157.3(10) . . . . ?
C2 C1 N1 C5 0.4(17) . . . . ?
C2 C1 N1 Ag1 -176.7(9) . . . . ?
C4 C5 N1 C1 -0.6(16) . . . . ?
C4 C5 N1 Ag1 176.4(8) . . . . ?
C11 C12 N2 C8 1.5(16) . . . . ?
C11 C12 N2 Ag1 176.1(8) . . . . ?
C9 C8 N2 C12 0.3(15) . . . . ?
C9 C8 N2 Ag1 -174.2(8) . . . . ?
O2 C6 O1 Tb2 8.0(16) . . . 1_544 ?
C2 C6 O1 Tb2 -173.0(7) . . . 1_544 ?
O1 C6 O2 Tb2 -2.9(17) . . . 2_575 ?
C2 C6 O2 Tb2 178.1(7) . . . 2_575 ?
O4 C7 O3 Tb2 13.3(10) . . . 1_444 ?
C3 C7 O3 Tb2 -169.5(9) . . . 1_444 ?
O3 C7 O4 Tb2 -13.8(11) . . . 1_444 ?
C3 C7 O4 Tb2 168.9(8) . . . 1_444 ?
O5 C13 O6 Tb2 -115.9(10) . . . 2_686 ?
C10 C13 O6 Tb2 67.3(11) . . . 2_686 ?
O5 C13 O6 Tb2 29.7(13) . . . 1_655 ?
C10 C13 O6 Tb2 -147.1(7) . . . 1_655 ?
O8 C14 O7 