####################################################################### 
# 
# This file contains crystal structure data downloaded from the 
# Cambridge Structural Database (CSD) hosted by the Cambridge 
# Crystallographic Data Centre (CCDC).
# 
# Full information about CCDC data access policies and citation 
# guidelines are available at http://www.ccdc.cam.ac.uk/access/V1 
# 
# Audit and citation data items may have been added by the CCDC. 
# Please retain this information to preserve the provenance of 
# this file and to allow appropriate attribution of the data. 
# 
#######################################################################

data_1
_audit_block_doi                 10.5517/ccwm77y
_database_code_depnum_ccdc_archive 'CCDC 822840'
_audit_update_record             
;
2011-04-21 deposited with the CCDC.	2024-07-14 downloaded from the CCDC.
;

_audit_creation_method           SHELXL-97
_chemical_name_systematic        
;
?
;
_chemical_name_common            ?
_chemical_melting_point          ?
_chemical_formula_moiety         'C11 H13 N O6 Cu'
_chemical_formula_sum            'C11 H13 Cu N O6'
_chemical_formula_weight         318.76

loop_
_atom_type_symbol
_atom_type_description
_atom_type_scat_dispersion_real
_atom_type_scat_dispersion_imag
_atom_type_scat_source
C C 0.0033 0.0016 'International Tables Vol C Tables 4.2.6.8 and 6.1.1.4'
H H 0.0000 0.0000 'International Tables Vol C Tables 4.2.6.8 and 6.1.1.4'
N N 0.0061 0.0033 'International Tables Vol C Tables 4.2.6.8 and 6.1.1.4'
O O 0.0106 0.0060 'International Tables Vol C Tables 4.2.6.8 and 6.1.1.4'
Cu Cu 0.3201 1.2651 'International Tables Vol C Tables 4.2.6.8 and 6.1.1.4'

_symmetry_cell_setting           triclinic
_symmetry_space_group_name_H-M   P-1

loop_
_symmetry_equiv_pos_as_xyz
'x, y, z'
'-x, -y, -z'

_cell_length_a                   6.605
_cell_length_b                   10.44780(10)
_cell_length_c                   11.0881(6)
_cell_angle_alpha                62.064(11)
_cell_angle_beta                 73.410(15)
_cell_angle_gamma                78.404(16)
_cell_volume                     645.79(8)
_cell_formula_units_Z            2
_cell_measurement_temperature    293(2)
_cell_measurement_reflns_used    ?
_cell_measurement_theta_min      3.2285
_cell_measurement_theta_max      27.4797

_exptl_crystal_description       Prism
_exptl_crystal_colour            Green
_exptl_crystal_size_max          0.15
_exptl_crystal_size_mid          0.1
_exptl_crystal_size_min          0.1
_exptl_crystal_density_meas      ?
_exptl_crystal_density_diffrn    1.639
_exptl_crystal_density_method    'not measured'
_exptl_crystal_F_000             326
_exptl_absorpt_coefficient_mu    1.712
_exptl_absorpt_correction_type   Multi-scan
_exptl_absorpt_correction_T_min  0.4011
_exptl_absorpt_correction_T_max  1.0000
_exptl_absorpt_process_details   '(CrystalClear; Rigaku, 2000)'

_exptl_special_details           
;
?
;

_diffrn_ambient_temperature      293(2)
_diffrn_radiation_wavelength     0.71073
_diffrn_radiation_type           MoK\a
_diffrn_radiation_source         'fine-focus sealed tube'
_diffrn_radiation_monochromator  graphite
_diffrn_measurement_device_type  'Rigaku Mercury CCD area-detector'
_diffrn_measurement_method       \w
_diffrn_detector_area_resol_mean ?
_diffrn_standards_number         ?
_diffrn_standards_interval_count ?
_diffrn_standards_interval_time  ?
_diffrn_standards_decay_%        ?
_diffrn_reflns_number            5136
_diffrn_reflns_av_R_equivalents  0.0344
_diffrn_reflns_av_sigmaI/netI    0.0584
_diffrn_reflns_limit_h_min       -8
_diffrn_reflns_limit_h_max       8
_diffrn_reflns_limit_k_min       -13
_diffrn_reflns_limit_k_max       12
_diffrn_reflns_limit_l_min       -14
_diffrn_reflns_limit_l_max       14
_diffrn_reflns_theta_min         2.13
_diffrn_reflns_theta_max         27.47
_reflns_number_total             2926
_reflns_number_gt                2055
_reflns_threshold_expression     >2sigma(I)

_computing_data_collection       'CrystalClear (Rigaku, 2000)'
_computing_cell_refinement       CrystalClear
_computing_data_reduction        CrystalClear
_computing_structure_solution    'SHELXS-97 (Sheldrick, 1990)'
_computing_structure_refinement  'SHELXL-97 (Sheldrick, 1997)'
_computing_molecular_graphics    'SHELXL-97 (Sheldrick, 1997)'
_computing_publication_material  'SHELXL-97 (Sheldrick, 1997)'

_refine_special_details          
;
Refinement of F^2^ against ALL reflections. The weighted R-factor wR and
goodness of fit S are based on F^2^, conventional R-factors R are based
on F, with F set to zero for negative F^2^. The threshold expression of
F^2^ > 2sigma(F^2^) is used only for calculating R-factors(gt) etc. and is
not relevant to the choice of reflections for refinement. R-factors based
on F^2^ are statistically about twice as large as those based on F, and R-
factors based on ALL data will be even larger.
;

_refine_ls_structure_factor_coef Fsqd
_refine_ls_matrix_type           full
_refine_ls_weighting_scheme      calc
_refine_ls_weighting_details     
'calc w=1/[\s^2^(Fo^2^)+(0.0723P)^2^+0.0000P] where P=(Fo^2^+2Fc^2^)/3'
_atom_sites_solution_primary     direct
_atom_sites_solution_secondary   difmap
_atom_sites_solution_hydrogens   geom
_refine_ls_hydrogen_treatment    constr
_refine_ls_extinction_method     none
_refine_ls_extinction_coef       ?
_refine_ls_number_reflns         2926
_refine_ls_number_parameters     177
_refine_ls_number_restraints     0
_refine_ls_R_factor_all          0.0634
_refine_ls_R_factor_gt           0.0362
_refine_ls_wR_factor_ref         0.1330
_refine_ls_wR_factor_gt          0.0919
_refine_ls_goodness_of_fit_ref   1.098
_refine_ls_restrained_S_all      1.098
_refine_ls_shift/su_max          0.001
_refine_ls_shift/su_mean         0.000

loop_
_atom_site_label
_atom_site_type_symbol
_atom_site_fract_x
_atom_site_fract_y
_atom_site_fract_z
_atom_site_U_iso_or_equiv
_atom_site_adp_type
_atom_site_occupancy
_atom_site_symmetry_multiplicity
_atom_site_calc_flag
_atom_site_refinement_flags
_atom_site_disorder_assembly
_atom_site_disorder_group
Cu1 Cu 1.0000 0.0000 0.5000 0.01574(18) Uani 1 2 d S . .
Cu2 Cu 0.5000 0.0000 0.5000 0.01815(18) Uani 1 2 d S . .
O1 O 0.6708(4) -0.0125(3) 0.3302(2) 0.0239(6) Uani 1 1 d . . .
O3 O 0.7870(4) 0.1676(3) 0.4793(3) 0.0248(6) Uani 1 1 d . . .
O5 O 0.3165(4) 0.1469(3) 0.3877(3) 0.0262(6) Uani 1 1 d . . .
H5A H 0.3093 0.1675 0.3051 0.031 Uiso 1 1 d R . .
H5B H 0.2621 0.2200 0.4035 0.031 Uiso 1 1 d R . .
O2 O 1.0023(4) 0.0220(3) 0.3159(2) 0.0246(6) Uani 1 1 d . . .
C4 C 0.8637(5) 0.0039(4) 0.2711(3) 0.0176(7) Uani 1 1 d . . .
C5 C 0.8353(6) 0.2823(4) 0.4740(4) 0.0242(8) Uani 1 1 d . . .
O4 O 1.0189(4) 0.3081(3) 0.4595(4) 0.0410(8) Uani 1 1 d . . .
C7 C 0.4486(6) 0.3629(4) 0.5337(4) 0.0272(9) Uani 1 1 d . . .
H7 H 0.4133 0.2690 0.5571 0.033 Uiso 1 1 calc R . .
C2 C 0.9345(6) 0.0013(4) 0.1303(3) 0.0212(8) Uani 1 1 d . . .
C6 C 0.6598(6) 0.3946(4) 0.4868(4) 0.0224(8) Uani 1 1 d . . .
C8 C 0.7099(6) 0.5326(4) 0.4537(5) 0.0292(9) Uani 1 1 d . . .
H8 H 0.8538 0.5547 0.4224 0.035 Uiso 1 1 calc R . .
C3 C 0.7937(6) -0.0277(5) 0.0756(4) 0.0294(9) Uani 1 1 d . . .
H3 H 0.6522 -0.0465 0.1272 0.035 Uiso 1 1 calc R . .
C1 C 1.1400(6) 0.0293(5) 0.0547(4) 0.0303(9) Uani 1 1 d . . .
H1 H 1.2362 0.0497 0.0917 0.036 Uiso 1 1 calc R . .
O6 O 0.4119(7) 0.2716(5) 0.1106(4) 0.0702(13) Uani 1 1 d . . .
N1 N 0.7021(10) 0.3632(6) -0.0587(6) 0.0837(19) Uani 1 1 d . . .
C11 C 0.5936(13) 0.3131(7) 0.0696(6) 0.074(2) Uani 1 1 d . . .
H11 H 0.6585 0.3076 0.1383 0.089 Uiso 1 1 calc R . .
C9 C 0.9167(16) 0.4061(10) -0.1018(11) 0.144(5) Uani 1 1 d . . .
H9A H 0.9597 0.3991 -0.0212 0.216 Uiso 1 1 calc R . .
H9B H 0.9222 0.5066 -0.1749 0.216 Uiso 1 1 calc R . .
H9C H 1.0130 0.3417 -0.1386 0.216 Uiso 1 1 calc R . .
C10 C 0.616(2) 0.3737(13) -0.1695(8) 0.159(5) Uani 1 1 d . . .
H10A H 0.4895 0.3188 -0.1286 0.238 Uiso 1 1 calc R . .
H10B H 0.7220 0.3337 -0.2276 0.238 Uiso 1 1 calc R . .
H10C H 0.5765 0.4760 -0.2274 0.238 Uiso 1 1 calc R . .

loop_
_atom_site_aniso_label
_atom_site_aniso_U_11
_atom_site_aniso_U_22
_atom_site_aniso_U_33
_atom_site_aniso_U_23
_atom_site_aniso_U_13
_atom_site_aniso_U_12
Cu1 0.0172(3) 0.0177(3) 0.0131(3) -0.0092(2) -0.0049(2) 0.0057(2)
Cu2 0.0155(3) 0.0235(4) 0.0105(3) -0.0078(2) -0.0008(2) 0.0068(2)
O1 0.0173(12) 0.0361(16) 0.0151(12) -0.0139(11) 0.0012(10) 0.0042(11)
O3 0.0225(13) 0.0227(14) 0.0333(15) -0.0185(12) -0.0082(11) 0.0090(11)
O5 0.0286(14) 0.0279(14) 0.0172(12) -0.0093(11) -0.0079(11) 0.0107(11)
O2 0.0227(13) 0.0393(16) 0.0139(12) -0.0144(11) -0.0027(10) -0.0014(11)
C4 0.0210(17) 0.0181(17) 0.0103(15) -0.0064(13) -0.0007(13) 0.0014(14)
C5 0.0217(19) 0.0215(19) 0.0279(19) -0.0135(16) -0.0054(15) 0.0080(15)
O4 0.0171(14) 0.0328(17) 0.079(2) -0.0349(17) -0.0073(15) 0.0081(12)
C7 0.0228(19) 0.0186(18) 0.041(2) -0.0170(17) -0.0045(17) 0.0028(15)
C2 0.0195(17) 0.030(2) 0.0138(16) -0.0119(15) -0.0005(13) 0.0011(15)
C6 0.0176(17) 0.0181(18) 0.032(2) -0.0138(16) -0.0063(15) 0.0072(14)
C8 0.0185(18) 0.024(2) 0.045(2) -0.0177(18) -0.0038(17) 0.0027(15)
C3 0.0157(18) 0.055(3) 0.0200(19) -0.0219(19) 0.0042(14) -0.0058(17)
C1 0.0212(19) 0.053(3) 0.023(2) -0.0214(19) -0.0020(15) -0.0061(18)
O6 0.079(3) 0.069(3) 0.032(2) -0.0043(19) -0.004(2) 0.000(2)
N1 0.101(5) 0.052(3) 0.054(3) -0.008(3) 0.015(3) 0.000(3)
C11 0.107(6) 0.041(3) 0.040(3) -0.004(3) -0.005(3) 0.016(4)
C9 0.130(8) 0.076(6) 0.130(9) -0.004(6) 0.040(7) -0.010(6)
C10 0.260(14) 0.143(10) 0.039(4) -0.027(5) -0.021(6) 0.006(9)

_geom_special_details            
;
All esds (except the esd in the dihedral angle between two l.s. planes)
are estimated using the full covariance matrix. The cell esds are taken
into account individually in the estimation of esds in distances, angles
and torsion angles; correlations between esds in cell parameters are only
used when they are defined by crystal symmetry. An approximate (isotropic)
treatment of cell esds is used for estimating esds involving l.s. planes.
;

loop_
_geom_bond_atom_site_label_1
_geom_bond_atom_site_label_2
_geom_bond_distance
_geom_bond_site_symmetry_2
_geom_bond_publ_flag
Cu1 O2 1.940(2) . ?
Cu1 O2 1.940(2) 2_756 ?
Cu1 O3 1.979(2) 2_756 ?
Cu1 O3 1.979(2) . ?
Cu2 O5 1.923(2) . ?
Cu2 O5 1.923(2) 2_656 ?
Cu2 O1 1.947(2) . ?
Cu2 O1 1.947(2) 2_656 ?
O1 C4 1.260(4) . ?
O3 C5 1.273(5) . ?
O2 C4 1.240(4) . ?
C4 C2 1.508(4) . ?
C5 O4 1.244(5) . ?
C5 C6 1.502(5) . ?
C7 C8 1.382(5) 2_666 ?
C7 C6 1.391(5) . ?
C2 C1 1.382(5) . ?
C2 C3 1.390(6) . ?
C6 C8 1.396(5) . ?
C8 C7 1.382(5) 2_666 ?
C3 C1 1.392(5) 2_755 ?
C1 C3 1.392(5) 2_755 ?
O6 C11 1.244(8) . ?
N1 C11 1.297(7) . ?
N1 C10 1.449(13) . ?
N1 C9 1.452(12) . ?

loop_
_geom_angle_atom_site_label_1
_geom_angle_atom_site_label_2
_geom_angle_atom_site_label_3
_geom_angle
_geom_angle_site_symmetry_1
_geom_angle_site_symmetry_3
_geom_angle_publ_flag
O2 Cu1 O2 180.0 . 2_756 ?
O2 Cu1 O3 88.66(11) . 2_756 ?
O2 Cu1 O3 91.34(11) 2_756 2_756 ?
O2 Cu1 O3 91.34(11) . . ?
O2 Cu1 O3 88.66(11) 2_756 . ?
O3 Cu1 O3 180.0 2_756 . ?
O5 Cu2 O5 180.00(15) . 2_656 ?
O5 Cu2 O1 88.03(11) . . ?
O5 Cu2 O1 91.97(11) 2_656 . ?
O5 Cu2 O1 91.97(11) . 2_656 ?
O5 Cu2 O1 88.03(11) 2_656 2_656 ?
O1 Cu2 O1 180.0 . 2_656 ?
C4 O1 Cu2 132.2(2) . . ?
C5 O3 Cu1 120.1(2) . . ?
C4 O2 Cu1 130.8(2) . . ?
O2 C4 O1 127.1(3) . . ?
O2 C4 C2 116.2(3) . . ?
O1 C4 C2 116.6(3) . . ?
O4 C5 O3 124.5(3) . . ?
O4 C5 C6 117.3(3) . . ?
O3 C5 C6 118.2(3) . . ?
C8 C7 C6 120.2(4) 2_666 . ?
C1 C2 C3 119.8(3) . . ?
C1 C2 C4 119.8(3) . . ?
C3 C2 C4 120.4(3) . . ?
C7 C6 C8 119.4(3) . . ?
C7 C6 C5 121.3(3) . . ?
C8 C6 C5 119.3(3) . . ?
C7 C8 C6 120.4(4) 2_666 . ?
C2 C3 C1 120.1(3) . 2_755 ?
C2 C1 C3 120.1(4) . 2_755 ?
C11 N1 C10 120.7(8) . . ?
C11 N1 C9 124.1(8) . . ?
C10 N1 C9 115.2(7) . . ?
O6 C11 N1 125.7(8) . . ?

_diffrn_measured_fraction_theta_max 0.986
_diffrn_reflns_theta_full        27.47
_diffrn_measured_fraction_theta_full 0.986
_refine_diff_density_max         0.598
_refine_diff_density_min         -1.274
_refine_diff_density_rms         0.289
