####################################################################### 
# 
# This file contains crystal structure data downloaded from the 
# Cambridge Structural Database (CSD) hosted by the Cambridge 
# Crystallographic Data Centre (CCDC).
# 
# Full information about CCDC data access policies and citation 
# guidelines are available at http://www.ccdc.cam.ac.uk/access/V1 
# 
# Audit and citation data items may have been added by the CCDC. 
# Please retain this information to preserve the provenance of 
# this file and to allow appropriate attribution of the data. 
# 
#######################################################################

data_ZBPPHN01
#This CIF has been generated from an entry in the Cambridge Structural Database
_database_code_depnum_ccdc_archive 'CCDC 1310001'
_database_code_CSD               ZBPPHN01
loop_
_citation_id
_citation_doi
_citation_year
1 10.1107/S0567740869003530 1969
_audit_creation_method           'Created from the CSD'
_audit_update_record             
;
2024-07-14 downloaded from the CCDC.
;
_database_code_NBS               529654
_chemical_formula_moiety         '(C40 H56 O8 P4 Zn2)n'
_chemical_name_systematic        
catena-(tetrakis(\m~2~-n-Butylphenylphosphinato-O,O')-di-zinc)
_chemical_absolute_configuration unk
_diffrn_ambient_temperature      295
_exptl_crystal_density_diffrn    1.31215
#These two values have been output from a single CSD field.
_refine_ls_R_factor_gt           0.23
_refine_ls_wR_factor_gt          0.23
_diffrn_radiation_probe          x-ray
_symmetry_cell_setting           orthorhombic
_symmetry_space_group_name_H-M   'P 21 21 21'
_symmetry_Int_Tables_number      19
_space_group_name_Hall           'P 2ac 2ab'
loop_
_symmetry_equiv_pos_site_id
_symmetry_equiv_pos_as_xyz
1 x,y,z
2 1/2+x,1/2-y,-z
3 -x,1/2+y,1/2-z
4 1/2-x,-y,1/2+z
_cell_length_a                   10.18(2)
_cell_length_b                   14.10(2)
_cell_length_c                   32.43(4)
_cell_angle_alpha                90
_cell_angle_beta                 90
_cell_angle_gamma                90
_cell_volume                     4654.94
_cell_formula_units_Z            4
loop_
_atom_site_label
_atom_site_type_symbol
_atom_site_fract_x
_atom_site_fract_y
_atom_site_fract_z
C1 C 0.34500 0.55500 0.54100
C2 C 0.34500 0.36400 0.50000
C3 C 0.34500 0.22400 0.38000
C4 C 0.34500 0.39800 0.31200
C5 C 0.34500 0.77000 0.34000
C6 C 0.34500 0.75900 0.43100
C7 C -0.15500 0.36800 0.36900
C8 C -0.15500 0.57300 0.34000
O1 O 0.22200 0.51100 0.46900
O2 O 0.22200 0.40500 0.38200
O3 O 0.22200 0.62800 0.38600
O4 O 0.46800 0.51200 0.46800
O5 O 0.46800 0.40300 0.38300
O6 O 0.46800 0.62800 0.38300
O7 O -0.03200 0.52000 0.40900
O8 O -0.27800 0.51000 0.40700
P1 P 0.34500 0.48800 0.49100
P2 P 0.34500 0.36700 0.36400
P3 P 0.34500 0.68400 0.38600
P4 P -0.15500 0.49700 0.38500
Zn1 Zn 0.15800 0.51500 0.41200
Zn2 Zn 0.53200 0.51300 0.41200
Zn2 Zn -0.46800 0.51300 0.41200
O8 O 0.72200 0.51000 0.40700

#END
