####################################################################### 
# 
# This file contains crystal structure data downloaded from the 
# Cambridge Structural Database (CSD) hosted by the Cambridge 
# Crystallographic Data Centre (CCDC).
# 
# Full information about CCDC data access policies and citation 
# guidelines are available at http://www.ccdc.cam.ac.uk/access/V1 
# 
# Audit and citation data items may have been added by the CCDC. 
# Please retain this information to preserve the provenance of 
# this file and to allow appropriate attribution of the data. 
# 
#######################################################################

data_1a
_audit_block_doi                 10.5517/ccymhrs
_database_code_depnum_ccdc_archive 'CCDC 882686'
loop_
_citation_id
_citation_doi
_citation_year
1 10.1002/chem.201201820 2012
_audit_update_record             
;
2012-05-17 deposited with the CCDC.	2024-07-14 downloaded from the CCDC.
;

_audit_creation_method           SHELXL-97
_chemical_name_systematic        
;
?
;
_chemical_name_common            ?
_chemical_melting_point          ?
_chemical_formula_moiety         ?
_chemical_formula_sum            'C3 H3 Cu0.50 N O1.25'
_chemical_formula_weight         104.83

loop_
_atom_type_symbol
_atom_type_description
_atom_type_scat_dispersion_real
_atom_type_scat_dispersion_imag
_atom_type_scat_source
C C 0.0033 0.0016 'International Tables Vol C Tables 4.2.6.8 and 6.1.1.4'
H H 0.0000 0.0000 'International Tables Vol C Tables 4.2.6.8 and 6.1.1.4'
Cu Cu 0.3201 1.2651 'International Tables Vol C Tables 4.2.6.8 and 6.1.1.4'
N N 0.0061 0.0033 'International Tables Vol C Tables 4.2.6.8 and 6.1.1.4'
O O 0.0106 0.0060 'International Tables Vol C Tables 4.2.6.8 and 6.1.1.4'

_symmetry_cell_setting           Tetragonal
_symmetry_space_group_name_H-M   I41md

loop_
_symmetry_equiv_pos_as_xyz
'x, y, z'
'-x, -y, z'
'-y, x+1/2, z+1/4'
'y, -x+1/2, z+1/4'
'-x, y, z'
'x, -y, z'
'y, x+1/2, z+1/4'
'-y, -x+1/2, z+1/4'
'x+1/2, y+1/2, z+1/2'
'-x+1/2, -y+1/2, z+1/2'
'-y+1/2, x+1, z+3/4'
'y+1/2, -x+1, z+3/4'
'-x+1/2, y+1/2, z+1/2'
'x+1/2, -y+1/2, z+1/2'
'y+1/2, x+1, z+3/4'
'-y+1/2, -x+1, z+3/4'

_cell_length_a                   16.756(8)
_cell_length_b                   16.756(8)
_cell_length_c                   14.209(7)
_cell_angle_alpha                90.00
_cell_angle_beta                 90.00
_cell_angle_gamma                90.00
_cell_volume                     3989(3)
_cell_formula_units_Z            16
_cell_measurement_temperature    223(2)
_cell_measurement_reflns_used    ?
_cell_measurement_theta_min      3
_cell_measurement_theta_max      27.5

_exptl_crystal_description       plate
_exptl_crystal_colour            green
_exptl_crystal_size_max          0.20
_exptl_crystal_size_mid          0.20
_exptl_crystal_size_min          0.20
_exptl_crystal_density_meas      ?
_exptl_crystal_density_diffrn    0.698
_exptl_crystal_density_method    'not measured'
_exptl_crystal_F_000             840
_exptl_absorpt_coefficient_mu    1.078
_exptl_absorpt_correction_type   empirical
_exptl_absorpt_correction_T_min  0.8133
_exptl_absorpt_correction_T_max  0.8133
_exptl_absorpt_process_details   ?

_exptl_special_details           
;
?
;

_diffrn_ambient_temperature      223(2)
_diffrn_radiation_wavelength     0.71075
_diffrn_radiation_type           MoK\a
_diffrn_radiation_source         'fine-focus sealed tube'
_diffrn_radiation_monochromator  graphite
_diffrn_measurement_device_type  CCD
_diffrn_measurement_method       \w
_diffrn_detector_area_resol_mean ?
_diffrn_standards_number         ?
_diffrn_standards_interval_count ?
_diffrn_standards_interval_time  ?
_diffrn_standards_decay_%        ?
_diffrn_reflns_number            15481
_diffrn_reflns_av_R_equivalents  0.0940
_diffrn_reflns_av_sigmaI/netI    0.0592
_diffrn_reflns_limit_h_min       -21
_diffrn_reflns_limit_h_max       21
_diffrn_reflns_limit_k_min       -21
_diffrn_reflns_limit_k_max       21
_diffrn_reflns_limit_l_min       -18
_diffrn_reflns_limit_l_max       16
_diffrn_reflns_theta_min         3.07
_diffrn_reflns_theta_max         27.48
_reflns_number_total             2335
_reflns_number_gt                1998
_reflns_threshold_expression     >2sigma(I)

_computing_data_collection       ?
_computing_cell_refinement       ?
_computing_data_reduction        ?
_computing_structure_solution    'SHELXS-97 (Sheldrick, 1990)'
_computing_structure_refinement  'SHELXL-97 (Sheldrick, 1997)'
_computing_molecular_graphics    ?
_computing_publication_material  ?

_refine_special_details          
;
Refinement of F^2^ against ALL reflections. The weighted R-factor wR and
goodness of fit S are based on F^2^, conventional R-factors R are based
on F, with F set to zero for negative F^2^. The threshold expression of
F^2^ > 2sigma(F^2^) is used only for calculating R-factors(gt) etc. and is
not relevant to the choice of reflections for refinement. R-factors based
on F^2^ are statistically about twice as large as those based on F, and R-
factors based on ALL data will be even larger.
;

_refine_ls_structure_factor_coef Fsqd
_refine_ls_matrix_type           full
_refine_ls_weighting_scheme      calc
_refine_ls_weighting_details     
'calc w=1/[\s^2^(Fo^2^)+(0.2000P)^2^+0.0000P] where P=(Fo^2^+2Fc^2^)/3'
_atom_sites_solution_primary     direct
_atom_sites_solution_secondary   difmap
_atom_sites_solution_hydrogens   geom
_refine_ls_hydrogen_treatment    mixed
_refine_ls_extinction_method     none
_refine_ls_extinction_coef       ?
_refine_ls_abs_structure_details 'Flack H D (1983), Acta Cryst. A39, 876-881'
_refine_ls_abs_structure_Flack   0.08(9)
_refine_ls_number_reflns         2335
_refine_ls_number_parameters     60
_refine_ls_number_restraints     1
_refine_ls_R_factor_all          0.1654
_refine_ls_R_factor_gt           0.1449
_refine_ls_wR_factor_ref         0.4061
_refine_ls_wR_factor_gt          0.3887
_refine_ls_goodness_of_fit_ref   1.556
_refine_ls_restrained_S_all      1.556
_refine_ls_shift/su_max          0.000
_refine_ls_shift/su_mean         0.000

loop_
_atom_site_label
_atom_site_type_symbol
_atom_site_fract_x
_atom_site_fract_y
_atom_site_fract_z
_atom_site_U_iso_or_equiv
_atom_site_adp_type
_atom_site_occupancy
_atom_site_symmetry_multiplicity
_atom_site_calc_flag
_atom_site_refinement_flags
_atom_site_disorder_assembly
_atom_site_disorder_group
Cu1 Cu 0.09908(10) 0.0000 0.47883(14) 0.0627(7) Uani 1 2 d S . .
N1 N 0.0406(5) -0.0872(5) 0.5383(7) 0.057(2) Uani 1 1 d . . .
C3 C 0.0667(6) -0.1554(7) 0.5756(8) 0.062(3) Uani 1 1 d . . .
C7 C 0.0000 -0.2045(9) 0.6002(12) 0.056(3) Uani 1 2 d S . .
C9 C 0.1530(7) -0.1733(10) 0.5874(13) 0.097(5) Uani 1 1 d . . .
H1 H 0.1630 -0.2285 0.5708 0.145 Uiso 1 1 calc R . .
H2 H 0.1683 -0.1643 0.6524 0.145 Uiso 1 1 calc R . .
H3 H 0.1840 -0.1386 0.5467 0.145 Uiso 1 1 calc R . .
O1 O 0.0651(5) -0.3151(6) 0.6655(8) 0.080(3) Uani 1 1 d . . .
C1 C 0.0000 -0.2792(10) 0.6447(15) 0.072(4) Uani 1 2 d S . .
O2 O 0.0000 0.0000 0.3527(16) 0.087(5) Uani 1 4 d S . .

loop_
_atom_site_aniso_label
_atom_site_aniso_U_11
_atom_site_aniso_U_22
_atom_site_aniso_U_33
_atom_site_aniso_U_23
_atom_site_aniso_U_13
_atom_site_aniso_U_12
Cu1 0.0522(10) 0.0481(9) 0.0877(13) 0.000 0.0161(9) 0.000
N1 0.042(4) 0.051(4) 0.076(6) 0.011(4) 0.004(4) -0.003(3)
C3 0.041(5) 0.073(6) 0.072(7) 0.009(5) 0.007(4) 0.005(4)
C7 0.028(5) 0.063(7) 0.078(9) 0.009(7) 0.000 0.000
C9 0.051(6) 0.108(11) 0.131(12) 0.055(10) -0.006(7) 0.021(6)
O1 0.049(4) 0.075(5) 0.115(7) 0.042(5) 0.002(4) 0.006(3)
C1 0.046(7) 0.069(9) 0.102(13) 0.011(9) 0.000 0.000
O2 0.077(11) 0.092(12) 0.093(12) 0.000 0.000 0.000

_geom_special_details            
;
All esds (except the esd in the dihedral angle between two l.s. planes)
are estimated using the full covariance matrix. The cell esds are taken
into account individually in the estimation of esds in distances, angles
and torsion angles; correlations between esds in cell parameters are only
used when they are defined by crystal symmetry. An approximate (isotropic)
treatment of cell esds is used for estimating esds involving l.s. planes.
;

loop_
_geom_bond_atom_site_label_1
_geom_bond_atom_site_label_2
_geom_bond_distance
_geom_bond_site_symmetry_2
_geom_bond_publ_flag
Cu1 N1 1.952(8) . ?
Cu1 N1 1.952(8) 6 ?
Cu1 O1 2.016(9) 12_544 ?
Cu1 O1 2.016(9) 15_544 ?
Cu1 C1 2.365(18) 12_544 ?
N1 C3 1.334(14) . ?
N1 N1 1.359(17) 5 ?
C3 C7 1.431(13) . ?
C3 C9 1.486(14) . ?
C7 C1 1.40(2) . ?
C7 C3 1.431(13) 5 ?
C9 H1 0.9700 . ?
C9 H2 0.9700 . ?
C9 H3 0.9700 . ?
O1 C1 1.281(12) . ?
O1 Cu1 2.016(9) 3_545 ?
C1 O1 1.281(12) 5 ?
C1 Cu1 2.365(18) 3_545 ?

loop_
_geom_angle_atom_site_label_1
_geom_angle_atom_site_label_2
_geom_angle_atom_site_label_3
_geom_angle
_geom_angle_site_symmetry_1
_geom_angle_site_symmetry_3
_geom_angle_publ_flag
N1 Cu1 N1 96.9(5) . 6 ?
N1 Cu1 O1 98.4(3) . 12_544 ?
N1 Cu1 O1 163.0(3) 6 12_544 ?
N1 Cu1 O1 163.0(3) . 15_544 ?
N1 Cu1 O1 98.4(3) 6 15_544 ?
O1 Cu1 O1 65.5(4) 12_544 15_544 ?
N1 Cu1 C1 130.7(3) . 12_544 ?
N1 Cu1 C1 130.7(3) 6 12_544 ?
O1 Cu1 C1 32.8(2) 12_544 12_544 ?
O1 Cu1 C1 32.8(2) 15_544 12_544 ?
C3 N1 N1 109.2(5) . 5 ?
C3 N1 Cu1 130.4(7) . . ?
N1 N1 Cu1 120.2(3) 5 . ?
N1 C3 C7 109.5(9) . . ?
N1 C3 C9 122.5(10) . . ?
C7 C3 C9 128.0(11) . . ?
C1 C7 C3 128.6(6) . 5 ?
C1 C7 C3 128.6(6) . . ?
C3 C7 C3 102.7(13) 5 . ?
C3 C9 H1 109.5 . . ?
C3 C9 H2 109.5 . . ?
H1 C9 H2 109.5 . . ?
C3 C9 H3 109.5 . . ?
H1 C9 H3 109.5 . . ?
H2 C9 H3 109.5 . . ?
C1 O1 Cu1 88.7(8) . 3_545 ?
O1 C1 O1 116.8(16) 5 . ?
O1 C1 C7 121.6(8) 5 . ?
O1 C1 C7 121.6(8) . . ?
O1 C1 Cu1 58.5(8) 5 3_545 ?
O1 C1 Cu1 58.5(8) . 3_545 ?
C7 C1 Cu1 176.4(15) . 3_545 ?

loop_
_geom_torsion_atom_site_label_1
_geom_torsion_atom_site_label_2
_geom_torsion_atom_site_label_3
_geom_torsion_atom_site_label_4
_geom_torsion
_geom_torsion_site_symmetry_1
_geom_torsion_site_symmetry_2
_geom_torsion_site_symmetry_3
_geom_torsion_site_symmetry_4
_geom_torsion_publ_flag
N1 Cu1 N1 C3 -137.4(9) 6 . . . ?
O1 Cu1 N1 C3 35.2(12) 12_544 . . . ?
O1 Cu1 N1 C3 17(2) 15_544 . . . ?
C1 Cu1 N1 C3 28.9(14) 12_544 . . . ?
N1 Cu1 N1 N1 49.0(5) 6 . . 5 ?
O1 Cu1 N1 N1 -138.4(4) 12_544 . . 5 ?
O1 Cu1 N1 N1 -156.8(16) 15_544 . . 5 ?
C1 Cu1 N1 N1 -144.7(7) 12_544 . . 5 ?
N1 N1 C3 C7 1.2(12) 5 . . . ?
Cu1 N1 C3 C7 -172.9(10) . . . . ?
N1 N1 C3 C9 -178.8(11) 5 . . . ?
Cu1 N1 C3 C9 7.1(19) . . . . ?
N1 C3 C7 C1 -177.1(17) . . . . ?
C9 C3 C7 C1 3(3) . . . . ?
N1 C3 C7 C3 -1.8(18) . . . 5 ?
C9 C3 C7 C3 178.2(11) . . . 5 ?
Cu1 O1 C1 O1 -4.9(19) 3_545 . . 5 ?
Cu1 O1 C1 C7 175.8(18) 3_545 . . . ?
C3 C7 C1 O1 3(3) 5 . . 5 ?
C3 C7 C1 O1 177.3(16) . . . 5 ?
C3 C7 C1 O1 -177.3(16) 5 . . . ?
C3 C7 C1 O1 -3(3) . . . . ?
C3 C7 C1 Cu1 -87.0(17) 5 . . 3_545 ?
C3 C7 C1 Cu1 87.0(17) . . . 3_545 ?

_diffrn_measured_fraction_theta_max 0.984
_diffrn_reflns_theta_full        27.48
_diffrn_measured_fraction_theta_full 0.984
_refine_diff_density_max         1.306
_refine_diff_density_min         -0.903
_refine_diff_density_rms         0.312


