####################################################################### 
# 
# This file contains crystal structure data downloaded from the 
# Cambridge Structural Database (CSD) hosted by the Cambridge 
# Crystallographic Data Centre (CCDC).
# 
# Full information about CCDC data access policies and citation 
# guidelines are available at http://www.ccdc.cam.ac.uk/access/V1 
# 
# Audit and citation data items may have been added by the CCDC. 
# Please retain this information to preserve the provenance of 
# this file and to allow appropriate attribution of the data. 
# 
#######################################################################

data_1
_audit_block_doi                 10.5517/ccymhqr
_database_code_depnum_ccdc_archive 'CCDC 882685'
loop_
_citation_id
_citation_doi
_citation_year
1 10.1002/chem.201201820 2012
_audit_update_record             
;
2012-05-17 deposited with the CCDC.	2024-07-14 downloaded from the CCDC.
;

_audit_creation_method           SHELXL-97
_chemical_name_systematic        
;
?
;
_chemical_name_common            ?
_chemical_melting_point          ?
_chemical_formula_moiety         ?
_chemical_formula_sum            'C3 H3 Cu0.50 N O1.25'
_chemical_formula_weight         104.83

loop_
_atom_type_symbol
_atom_type_description
_atom_type_scat_dispersion_real
_atom_type_scat_dispersion_imag
_atom_type_scat_source
C C 0.0033 0.0016 'International Tables Vol C Tables 4.2.6.8 and 6.1.1.4'
H H 0.0000 0.0000 'International Tables Vol C Tables 4.2.6.8 and 6.1.1.4'
Cu Cu 0.3201 1.2651 'International Tables Vol C Tables 4.2.6.8 and 6.1.1.4'
N N 0.0061 0.0033 'International Tables Vol C Tables 4.2.6.8 and 6.1.1.4'
O O 0.0106 0.0060 'International Tables Vol C Tables 4.2.6.8 and 6.1.1.4'

_symmetry_cell_setting           Tetragonal
_symmetry_space_group_name_H-M   I41md

loop_
_symmetry_equiv_pos_as_xyz
'x, y, z'
'-x, -y, z'
'-y, x+1/2, z+1/4'
'y, -x+1/2, z+1/4'
'-x, y, z'
'x, -y, z'
'y, x+1/2, z+1/4'
'-y, -x+1/2, z+1/4'
'x+1/2, y+1/2, z+1/2'
'-x+1/2, -y+1/2, z+1/2'
'-y+1/2, x+1, z+3/4'
'y+1/2, -x+1, z+3/4'
'-x+1/2, y+1/2, z+1/2'
'x+1/2, -y+1/2, z+1/2'
'y+1/2, x+1, z+3/4'
'-y+1/2, -x+1, z+3/4'

_cell_length_a                   16.119(4)
_cell_length_b                   16.119(4)
_cell_length_c                   16.455(4)
_cell_angle_alpha                90.00
_cell_angle_beta                 90.00
_cell_angle_gamma                90.00
_cell_volume                     4275.4(18)
_cell_formula_units_Z            16
_cell_measurement_temperature    223(2)
_cell_measurement_reflns_used    ?
_cell_measurement_theta_min      3
_cell_measurement_theta_max      27.5

_exptl_crystal_description       plate
_exptl_crystal_colour            blue
_exptl_crystal_size_max          0.20
_exptl_crystal_size_mid          0.20
_exptl_crystal_size_min          0.20
_exptl_crystal_density_meas      ?
_exptl_crystal_density_diffrn    0.651
_exptl_crystal_density_method    'not measured'
_exptl_crystal_F_000             840
_exptl_absorpt_coefficient_mu    1.005
_exptl_absorpt_correction_type   empirical
_exptl_absorpt_correction_T_min  0.8242
_exptl_absorpt_correction_T_max  0.8242
_exptl_absorpt_process_details   ?

_exptl_special_details           
;
?
;

_diffrn_ambient_temperature      223(2)
_diffrn_radiation_wavelength     0.71075
_diffrn_radiation_type           MoK\a
_diffrn_radiation_source         'fine-focus sealed tube'
_diffrn_radiation_monochromator  graphite
_diffrn_measurement_device_type  CCD
_diffrn_measurement_method       \w
_diffrn_detector_area_resol_mean ?
_diffrn_standards_number         ?
_diffrn_standards_interval_count ?
_diffrn_standards_interval_time  ?
_diffrn_standards_decay_%        ?
_diffrn_reflns_number            17058
_diffrn_reflns_av_R_equivalents  0.0661
_diffrn_reflns_av_sigmaI/netI    0.0397
_diffrn_reflns_limit_h_min       -19
_diffrn_reflns_limit_h_max       20
_diffrn_reflns_limit_k_min       -20
_diffrn_reflns_limit_k_max       20
_diffrn_reflns_limit_l_min       -19
_diffrn_reflns_limit_l_max       21
_diffrn_reflns_theta_min         3.05
_diffrn_reflns_theta_max         27.48
_reflns_number_total             2539
_reflns_number_gt                2437
_reflns_threshold_expression     >2sigma(I)

_computing_data_collection       ?
_computing_cell_refinement       ?
_computing_data_reduction        ?
_computing_structure_solution    'SHELXS-97 (Sheldrick, 1990)'
_computing_structure_refinement  'SHELXL-97 (Sheldrick, 1997)'
_computing_molecular_graphics    ?
_computing_publication_material  ?

_refine_special_details          
;
Refinement of F^2^ against ALL reflections. The weighted R-factor wR and
goodness of fit S are based on F^2^, conventional R-factors R are based
on F, with F set to zero for negative F^2^. The threshold expression of
F^2^ > 2sigma(F^2^) is used only for calculating R-factors(gt) etc. and is
not relevant to the choice of reflections for refinement. R-factors based
on F^2^ are statistically about twice as large as those based on F, and R-
factors based on ALL data will be even larger.
;

_refine_ls_structure_factor_coef Fsqd
_refine_ls_matrix_type           full
_refine_ls_weighting_scheme      calc
_refine_ls_weighting_details     
'calc w=1/[\s^2^(Fo^2^)+(0.1593P)^2^+5.0827P] where P=(Fo^2^+2Fc^2^)/3'
_atom_sites_solution_primary     direct
_atom_sites_solution_secondary   difmap
_atom_sites_solution_hydrogens   geom
_refine_ls_hydrogen_treatment    mixed
_refine_ls_extinction_method     none
_refine_ls_extinction_coef       ?
_refine_ls_abs_structure_details 'Flack H D (1983), Acta Cryst. A39, 876-881'
_refine_ls_abs_structure_Flack   0.94(6)
_refine_ls_number_reflns         2539
_refine_ls_number_parameters     60
_refine_ls_number_restraints     1
_refine_ls_R_factor_all          0.0988
_refine_ls_R_factor_gt           0.0859
_refine_ls_wR_factor_ref         0.2685
_refine_ls_wR_factor_gt          0.2539
_refine_ls_goodness_of_fit_ref   1.240
_refine_ls_restrained_S_all      1.240
_refine_ls_shift/su_max          0.000
_refine_ls_shift/su_mean         0.000

loop_
_atom_site_label
_atom_site_type_symbol
_atom_site_fract_x
_atom_site_fract_y
_atom_site_fract_z
_atom_site_U_iso_or_equiv
_atom_site_adp_type
_atom_site_occupancy
_atom_site_symmetry_multiplicity
_atom_site_calc_flag
_atom_site_refinement_flags
_atom_site_disorder_assembly
_atom_site_disorder_group
Cu1 Cu 0.0000 0.10143(6) 0.80027(7) 0.0498(4) Uani 1 2 d S . .
N1 N 0.0899(3) 0.0419(3) 0.7441(4) 0.0491(12) Uani 1 1 d . . .
O1 O 0.0000 0.0000 0.9071(7) 0.067(3) Uani 1 4 d S . .
C6 C 0.2008(6) 0.0000 0.6770(6) 0.052(2) Uani 1 2 d S . .
C7 C 0.1557(4) 0.0692(4) 0.7037(4) 0.0523(15) Uani 1 1 d . . .
C9 C 0.1729(6) 0.1597(4) 0.6926(6) 0.076(2) Uani 1 1 d . . .
H1 H 0.1528 0.1901 0.7395 0.114 Uiso 1 1 calc R . .
H2 H 0.1449 0.1794 0.6441 0.114 Uiso 1 1 calc R . .
H3 H 0.2322 0.1683 0.6870 0.114 Uiso 1 1 calc R . .
O2 O 0.3101(4) 0.0669(3) 0.6066(3) 0.0646(15) Uani 1 1 d . . .
C1 C 0.2752(6) 0.0000 0.6294(6) 0.056(2) Uani 1 2 d S . .

loop_
_atom_site_aniso_label
_atom_site_aniso_U_11
_atom_site_aniso_U_22
_atom_site_aniso_U_33
_atom_site_aniso_U_23
_atom_site_aniso_U_13
_atom_site_aniso_U_12
Cu1 0.0386(5) 0.0500(6) 0.0607(6) -0.0181(5) 0.000 0.000
N1 0.050(3) 0.038(3) 0.059(3) 0.001(2) 0.005(2) -0.003(2)
O1 0.069(6) 0.064(6) 0.069(6) 0.000 0.000 0.000
C6 0.060(5) 0.040(4) 0.056(5) 0.000 0.019(4) 0.000
C7 0.055(3) 0.038(3) 0.064(4) -0.003(3) 0.020(3) -0.004(2)
C9 0.078(5) 0.038(3) 0.113(7) 0.003(4) 0.032(5) -0.006(3)
O2 0.068(3) 0.037(2) 0.089(4) -0.001(2) 0.033(3) -0.0020(19)
C1 0.054(5) 0.048(5) 0.065(6) 0.000 0.021(4) 0.000

_geom_special_details            
;
All esds (except the esd in the dihedral angle between two l.s. planes)
are estimated using the full covariance matrix. The cell esds are taken
into account individually in the estimation of esds in distances, angles
and torsion angles; correlations between esds in cell parameters are only
used when they are defined by crystal symmetry. An approximate (isotropic)
treatment of cell esds is used for estimating esds involving l.s. planes.
;

loop_
_geom_bond_atom_site_label_1
_geom_bond_atom_site_label_2
_geom_bond_distance
_geom_bond_site_symmetry_2
_geom_bond_publ_flag
Cu1 N1 1.968(6) 5 ?
Cu1 N1 1.968(6) . ?
Cu1 O2 2.014(5) 4 ?
Cu1 O2 2.014(5) 8 ?
Cu1 C1 2.377(9) 4 ?
Cu1 O1 2.400(9) . ?
N1 C7 1.328(8) . ?
N1 N1 1.351(11) 6 ?
O1 Cu1 2.400(9) 2 ?
C6 C7 1.402(8) . ?
C6 C7 1.402(8) 6 ?
C6 C1 1.432(12) . ?
C7 C9 1.496(9) . ?
C9 H1 0.9700 . ?
C9 H2 0.9700 . ?
C9 H3 0.9700 . ?
O2 C1 1.273(7) . ?
O2 Cu1 2.014(5) 11_544 ?
C1 O2 1.273(7) 6 ?
C1 Cu1 2.377(9) 11_544 ?

loop_
_geom_angle_atom_site_label_1
_geom_angle_atom_site_label_2
_geom_angle_atom_site_label_3
_geom_angle
_geom_angle_site_symmetry_1
_geom_angle_site_symmetry_3
_geom_angle_publ_flag
N1 Cu1 N1 94.8(3) 5 . ?
N1 Cu1 O2 162.8(2) 5 4 ?
N1 Cu1 O2 99.6(2) . 4 ?
N1 Cu1 O2 99.6(2) 5 8 ?
N1 Cu1 O2 162.8(2) . 8 ?
O2 Cu1 O2 64.7(3) 4 8 ?
N1 Cu1 C1 131.68(17) 5 4 ?
N1 Cu1 C1 131.68(17) . 4 ?
O2 Cu1 C1 32.37(14) 4 4 ?
O2 Cu1 C1 32.37(14) 8 4 ?
N1 Cu1 O1 90.7(2) 5 . ?
N1 Cu1 O1 90.7(2) . . ?
O2 Cu1 O1 98.4(2) 4 . ?
O2 Cu1 O1 98.4(2) 8 . ?
C1 Cu1 O1 99.7(3) 4 . ?
C7 N1 N1 109.4(4) . 6 ?
C7 N1 Cu1 131.5(4) . . ?
N1 N1 Cu1 119.18(15) 6 . ?
Cu1 O1 Cu1 85.9(4) . 2 ?
C7 C6 C7 105.4(8) . 6 ?
C7 C6 C1 127.3(4) . . ?
C7 C6 C1 127.3(4) 6 . ?
N1 C7 C6 107.9(6) . . ?
N1 C7 C9 122.2(6) . . ?
C6 C7 C9 129.9(6) . . ?
C7 C9 H1 109.5 . . ?
C7 C9 H2 109.5 . . ?
H1 C9 H2 109.5 . . ?
C7 C9 H3 109.5 . . ?
H1 C9 H3 109.5 . . ?
H2 C9 H3 109.5 . . ?
C1 O2 Cu1 89.7(4) . 11_544 ?
O2 C1 O2 115.8(8) . 6 ?
O2 C1 C6 122.1(4) . . ?
O2 C1 C6 122.1(4) 6 . ?
O2 C1 Cu1 57.9(4) . 11_544 ?
O2 C1 Cu1 57.9(4) 6 11_544 ?
C6 C1 Cu1 180.0(8) . 11_544 ?

loop_
_geom_torsion_atom_site_label_1
_geom_torsion_atom_site_label_2
_geom_torsion_atom_site_label_3
_geom_torsion_atom_site_label_4
_geom_torsion
_geom_torsion_site_symmetry_1
_geom_torsion_site_symmetry_2
_geom_torsion_site_symmetry_3
_geom_torsion_site_symmetry_4
_geom_torsion_publ_flag
N1 Cu1 N1 C7 127.9(6) 5 . . . ?
O2 Cu1 N1 C7 -42.7(7) 4 . . . ?
O2 Cu1 N1 C7 -19.3(14) 8 . . . ?
C1 Cu1 N1 C7 -37.7(9) 4 . . . ?
O1 Cu1 N1 C7 -141.3(7) . . . . ?
N1 Cu1 N1 N1 -52.6(3) 5 . . 6 ?
O2 Cu1 N1 N1 136.73(19) 4 . . 6 ?
O2 Cu1 N1 N1 160.2(8) 8 . . 6 ?
C1 Cu1 N1 N1 141.8(4) 4 . . 6 ?
O1 Cu1 N1 N1 38.13(17) . . . 6 ?
N1 Cu1 O1 Cu1 47.41(16) 5 . . 2 ?
N1 Cu1 O1 Cu1 -47.41(16) . . . 2 ?
O2 Cu1 O1 Cu1 -147.24(14) 4 . . 2 ?
O2 Cu1 O1 Cu1 147.24(14) 8 . . 2 ?
C1 Cu1 O1 Cu1 180.0 4 . . 2 ?
N1 N1 C7 C6 -0.6(8) 6 . . . ?
Cu1 N1 C7 C6 178.9(6) . . . . ?
N1 N1 C7 C9 179.7(7) 6 . . . ?
Cu1 N1 C7 C9 -0.8(12) . . . . ?
C7 C6 C7 N1 1.0(12) 6 . . . ?
C1 C6 C7 N1 178.4(10) . . . . ?
C7 C6 C7 C9 -179.4(6) 6 . . . ?
C1 C6 C7 C9 -2.0(17) . . . . ?
Cu1 O2 C1 O2 -0.6(11) 11_544 . . 6 ?
Cu1 O2 C1 C6 -180.0(10) 11_544 . . . ?
C7 C6 C1 O2 1.2(18) . . . . ?
C7 C6 C1 O2 178.1(10) 6 . . . ?
C7 C6 C1 O2 -178.1(10) . . . 6 ?
C7 C6 C1 O2 -1.2(18) 6 . . 6 ?
C7 C6 C1 Cu1 -88(100) . . . 11_544 ?
C7 C6 C1 Cu1 88(100) 6 . . 11_544 ?

_diffrn_measured_fraction_theta_max 0.995
_diffrn_reflns_theta_full        27.48
_diffrn_measured_fraction_theta_full 0.995
_refine_diff_density_max         1.243
_refine_diff_density_min         -0.758
_refine_diff_density_rms         0.251
