
#######################################################################
#
#                 Cambridge Crystallographic Data Centre
#                                CCDC
#
#######################################################################
#
# If this CIF has been generated from an entry in the Cambridge
# Structural Database, then it will include bibliographic, chemical,
# crystal, experimental, refinement or atomic coordinate data resulting
# from the CCDC's data processing and validation procedures.
#
#######################################################################

data_CSD_CIF_ZEFTEJ
_audit_creation_date 1996-05-02
_audit_creation_method CSD-ConQuest-V1
_database_code_CSD ZEFTEJ
_database_code_depnum_ccdc_archive 'CCDC 1310387'
_chemical_formula_sum 'C21 H33 Lu1'
_chemical_formula_moiety
;
C21 H33 Lu1
;
_journal_coden_Cambridge 579
_journal_volume 14
_journal_year 1995
_journal_page_first 3724
_journal_name_full 'Organometallics '
loop_
_publ_author_name
"M.B.Zielinski"
"D.K.Drummond"
"P.S.Iyer"
"J.T.Leman"
"W.J.Evans"
_chemical_name_systematic
;
(\h^5^-2,4-Dimethylpentadienyl)-(\h^3^,\h^5^-2,4,7,9-tetramethyldeca-1,3,8-tri
enyl)-lutetium
;
_chemical_name_common
;
Teaching Subset: Fundamental Chemistry
;
_cell_volume    960.503
_exptl_crystal_colour 'pale orange'
_exptl_crystal_density_diffrn 1.592
_diffrn_ambient_temperature ?
_diffrn_special_details
;
The study was carried out at room temperature,in the range 283-303K

;
#These two values have been output from a single CSD field.
_refine_ls_R_factor_gt 0.033
_refine_ls_wR_factor_gt 0.033
_symmetry_cell_setting triclinic
_symmetry_space_group_name_H-M 'P -1'
_symmetry_Int_Tables_number 2
loop_
_symmetry_equiv_pos_site_id
_symmetry_equiv_pos_as_xyz
1 x,y,z
2 -x,-y,-z
_cell_length_a 7.382(4)
_cell_length_b 8.703(2)
_cell_length_c 16.443(6)
_cell_angle_alpha 78.54(2)
_cell_angle_beta 84.74(4)
_cell_angle_gamma 68.11(3)
_cell_formula_units_Z 2
loop_
_atom_type_symbol
_atom_type_radius_bond
C 0.68
H 0.23
Lu 1.72
loop_
_atom_site_label
_atom_site_type_symbol
_atom_site_fract_x
_atom_site_fract_y
_atom_site_fract_z
Lu1 Lu -0.22425(2) 0.03474(2) 0.22059(1)
C1 C 0.0361(9) -0.1464(7) 0.3336(3)
C2 C -0.0164(7) -0.2687(6) 0.3091(3)
C3 C -0.0167(7) -0.2961(6) 0.2291(3)
C4 C 0.0481(7) -0.2203(6) 0.1517(3)
C5 C 0.1181(8) -0.0921(8) 0.1419(4)
C6 C -0.0974(10) -0.3737(7) 0.3761(4)
C7 C 0.0256(10) -0.2858(8) 0.0771(4)
C8 C -0.1403(7) 0.2854(6) 0.1785(3)
C9 C -0.2849(7) 0.3468(5) 0.2387(3)
C10 C -0.2798(7) 0.2535(6) 0.3187(3)
C11 C -0.4231(10) 0.3020(8) 0.3887(3)
C12 C -0.5561(10) 0.1993(9) 0.4090(3)
C13 C -0.6885(8) 0.2158(8) 0.3381(3)
C14 C -0.5909(6) 0.1106(6) 0.2721(3)
C15 C -0.5981(6) 0.2044(5) 0.1896(3)
C16 C -0.5152(6) 0.1483(6) 0.1143(3)
C17 C -0.5375(9) 0.2847(7) 0.0391(3)
C18 C -0.4531(9) 0.5100(6) 0.2112(3)
C19 C -0.3045(14) 0.2756(12) 0.4668(4)
C20 C -0.4972(7) -0.0585(6) 0.2951(3)
C21 C -0.4058(7) -0.0142(6) 0.1046(3)
H1 H 0.00070 -0.12720 0.38940
H2 H 0.16750 -0.15370 0.31870
H3 H -0.09180 -0.36200 0.22230
H4 H 0.23160 -0.11460 0.17330
H5 H 0.12680 -0.03750 0.08570
H6 H 0.00650 -0.47570 0.39790
H7 H -0.15630 -0.31190 0.41990
H8 H -0.19380 -0.40060 0.35250
H9 H 0.14400 -0.37540 0.06640
H10 H -0.07970 -0.32700 0.08710
H11 H -0.00310 -0.19610 0.03000
H12 H -0.17230 0.34250 0.12250
H13 H -0.01040 0.27080 0.19200
H14 H -0.15400 0.23160 0.33990
H15 H -0.50440 0.41870 0.37470
H16 H -0.63450 0.22930 0.45740
H17 H -0.47310 0.08310 0.42260
H18 H -0.73990 0.33210 0.31210
H19 H -0.79660 0.18510 0.36190
H20 H -0.63920 0.32390 0.18630
H21 H -0.65320 0.30360 0.01010
H22 H -0.54800 0.38640 0.05680
H23 H -0.42570 0.25170 0.00280
H24 H -0.43000 0.60110 0.22740
H25 H -0.46390 0.53010 0.15200
H26 H -0.57200 0.50200 0.23710
H27 H -0.39370 0.30590 0.51230
H28 H -0.22150 0.15930 0.48020
H29 H -0.22610 0.34430 0.45670
H30 H -0.48290 -0.09870 0.35380
H31 H -0.53810 -0.12740 0.26770
H32 H -0.46770 -0.09500 0.12210
H33 H -0.33640 -0.02670 0.05250
#END
