####################################################################### 
# 
# This file contains crystal structure data downloaded from the 
# Cambridge Structural Database (CSD) hosted by the Cambridge 
# Crystallographic Data Centre (CCDC).
# 
# Full information about CCDC data access policies and citation 
# guidelines are available at http://www.ccdc.cam.ac.uk/access/V1 
# 
# Audit and citation data items may have been added by the CCDC. 
# Please retain this information to preserve the provenance of 
# this file and to allow appropriate attribution of the data. 
# 
#######################################################################

data_vv
_audit_block_doi                 10.5517/cczrggm
_database_code_depnum_ccdc_archive 'CCDC 916281'
_audit_update_record             
;
2012-12-18 deposited with the CCDC.	2024-07-14 downloaded from the CCDC.
;

_audit_creation_method           SHELXL-97
_chemical_name_systematic        
;
?
;
_chemical_name_common            ?
_chemical_melting_point          ?
_chemical_formula_moiety         ?
_chemical_formula_sum            'C18 H21 Ag0.50 N2 O1.50'
_chemical_formula_weight         343.30

loop_
_atom_type_symbol
_atom_type_description
_atom_type_scat_dispersion_real
_atom_type_scat_dispersion_imag
_atom_type_scat_source
C C 0.0033 0.0016 'International Tables Vol C Tables 4.2.6.8 and 6.1.1.4'
H H 0.0000 0.0000 'International Tables Vol C Tables 4.2.6.8 and 6.1.1.4'
N N 0.0061 0.0033 'International Tables Vol C Tables 4.2.6.8 and 6.1.1.4'
O O 0.0106 0.0060 'International Tables Vol C Tables 4.2.6.8 and 6.1.1.4'
Ag Ag -0.8971 1.1015 'International Tables Vol C Tables 4.2.6.8 and 6.1.1.4'

_symmetry_cell_setting           ?
_symmetry_space_group_name_H-M   ?

loop_
_symmetry_equiv_pos_as_xyz
'x, y, z'
'-x, -y, -z'

_cell_length_a                   6.2587(10)
_cell_length_b                   15.6631(10)
_cell_length_c                   20.6525(10)
_cell_angle_alpha                71.130(10)
_cell_angle_beta                 81.663(10)
_cell_angle_gamma                82.453(10)
_cell_volume                     1887.8(3)
_cell_formula_units_Z            4
_cell_measurement_temperature    293(2)
_cell_measurement_reflns_used    ?
_cell_measurement_theta_min      ?
_cell_measurement_theta_max      ?

_exptl_crystal_description       ?
_exptl_crystal_colour            ?
_exptl_crystal_size_max          ?
_exptl_crystal_size_mid          ?
_exptl_crystal_size_min          ?
_exptl_crystal_density_meas      ?
_exptl_crystal_density_diffrn    1.208
_exptl_crystal_density_method    'not measured'
_exptl_crystal_F_000             714
_exptl_absorpt_coefficient_mu    0.570
_exptl_absorpt_correction_type   ?
_exptl_absorpt_correction_T_min  ?
_exptl_absorpt_correction_T_max  ?
_exptl_absorpt_process_details   ?

_exptl_special_details           
;
?
;

_diffrn_ambient_temperature      293(2)
_diffrn_radiation_wavelength     0.71073
_diffrn_radiation_type           MoK\a
_diffrn_radiation_source         'fine-focus sealed tube'
_diffrn_radiation_monochromator  graphite
_diffrn_measurement_device_type  ?
_diffrn_measurement_method       ?
_diffrn_detector_area_resol_mean ?
_diffrn_standards_number         ?
_diffrn_standards_interval_count ?
_diffrn_standards_interval_time  ?
_diffrn_standards_decay_%        ?
_diffrn_reflns_number            10115
_diffrn_reflns_av_R_equivalents  0.0903
_diffrn_reflns_av_sigmaI/netI    0.2982
_diffrn_reflns_limit_h_min       -1
_diffrn_reflns_limit_h_max       7
_diffrn_reflns_limit_k_min       -21
_diffrn_reflns_limit_k_max       19
_diffrn_reflns_limit_l_min       -26
_diffrn_reflns_limit_l_max       26
_diffrn_reflns_theta_min         2.63
_diffrn_reflns_theta_max         28.87
_reflns_number_total             7945
_reflns_number_gt                2398
_reflns_threshold_expression     >2sigma(I)

_computing_data_collection       ?
_computing_cell_refinement       ?
_computing_data_reduction        ?
_computing_structure_solution    'SHELXS-97 (Sheldrick, 1990)'
_computing_structure_refinement  'SHELXL-97 (Sheldrick, 1997)'
_computing_molecular_graphics    ?
_computing_publication_material  ?

_refine_special_details          
;
Refinement of F^2^ against ALL reflections. The weighted R-factor wR and
goodness of fit S are based on F^2^, conventional R-factors R are based
on F, with F set to zero for negative F^2^. The threshold expression of
F^2^ > 2sigma(F^2^) is used only for calculating R-factors(gt) etc. and is
not relevant to the choice of reflections for refinement. R-factors based
on F^2^ are statistically about twice as large as those based on F, and R-
factors based on ALL data will be even larger.
;

_refine_ls_structure_factor_coef Fsqd
_refine_ls_matrix_type           full
_refine_ls_weighting_scheme      calc
_refine_ls_weighting_details     
'calc w=1/[\s^2^(Fo^2^)+(0.1000P)^2^+0.0000P] where P=(Fo^2^+2Fc^2^)/3'
_atom_sites_solution_primary     direct
_atom_sites_solution_secondary   difmap
_atom_sites_solution_hydrogens   geom
_refine_ls_hydrogen_treatment    mixed
_refine_ls_extinction_method     SHELXL
_refine_ls_extinction_coef       0.0028(16)
_refine_ls_extinction_expression Fc^*^=kFc[1+0.001xFc^2^\l^3^/sin(2\q)]^-1/4^
_refine_ls_number_reflns         7945
_refine_ls_number_parameters     398
_refine_ls_number_restraints     0
_refine_ls_R_factor_all          0.2918
_refine_ls_R_factor_gt           0.0683
_refine_ls_wR_factor_ref         0.2181
_refine_ls_wR_factor_gt          0.1509
_refine_ls_goodness_of_fit_ref   0.964
_refine_ls_restrained_S_all      0.964
_refine_ls_shift/su_max          0.000
_refine_ls_shift/su_mean         0.000

loop_
_atom_site_label
_atom_site_type_symbol
_atom_site_fract_x
_atom_site_fract_y
_atom_site_fract_z
_atom_site_U_iso_or_equiv
_atom_site_adp_type
_atom_site_occupancy
_atom_site_symmetry_multiplicity
_atom_site_calc_flag
_atom_site_refinement_flags
_atom_site_disorder_assembly
_atom_site_disorder_group
Ag1 Ag 0.39801(12) 0.49450(4) 0.12249(3) 0.0642(3) Uani 1 1 d . . .
N1 N 0.4727(10) 0.6324(4) 0.1148(3) 0.0595(18) Uani 1 1 d . . .
H1A H 0.6089 0.6287 0.1254 0.071 Uiso 1 1 calc R . .
H1B H 0.4695 0.6676 0.0708 0.071 Uiso 1 1 calc R . .
N2 N 0.4373(10) 0.3569(4) 0.1127(3) 0.0484(15) Uani 1 1 d . . .
H2B H 0.3378 0.3536 0.0865 0.058 Uiso 1 1 calc R . .
H2C H 0.5689 0.3489 0.0902 0.058 Uiso 1 1 calc R . .
N3 N -0.0048(9) 0.5200(4) 0.1555(3) 0.0527(16) Uani 1 1 d . . .
H3B H -0.0335 0.5804 0.1449 0.063 Uiso 1 1 calc R . .
H3C H -0.0689 0.5034 0.1257 0.063 Uiso 1 1 calc R . .
N4 N 0.0268(14) 0.6242(5) -0.0203(4) 0.071(2) Uani 1 1 d . . .
O1 O 0.1834(12) 0.6304(5) 0.0073(3) 0.098(2) Uani 1 1 d . . .
O2 O 0.0469(11) 0.6284(6) -0.0805(3) 0.100(2) Uani 1 1 d . . .
O3 O -0.1541(13) 0.6090(7) 0.0123(4) 0.138(4) Uani 1 1 d . . .
C1 C -0.1224(10) 0.4843(4) 0.2196(3) 0.0370(16) Uani 1 1 d . . .
C2 C -0.2644(11) 0.4186(5) 0.2310(3) 0.0420(18) Uani 1 1 d . . .
H2A H -0.2847 0.3983 0.1948 0.050 Uiso 1 1 calc R . .
C3 C -0.3742(11) 0.3835(4) 0.2939(4) 0.0429(18) Uani 1 1 d . . .
H3A H -0.4646 0.3383 0.2998 0.051 Uiso 1 1 calc R . .
C4 C -0.3574(11) 0.4124(4) 0.3506(3) 0.0387(16) Uani 1 1 d . . .
C5 C -0.2129(11) 0.4781(4) 0.3380(4) 0.0441(18) Uani 1 1 d . . .
H5A H -0.1935 0.4997 0.3736 0.053 Uiso 1 1 calc R . .
C6 C -0.0982(12) 0.5119(5) 0.2744(4) 0.0442(17) Uani 1 1 d . . .
H6A H -0.0014 0.5547 0.2685 0.053 Uiso 1 1 calc R . .
C7 C -0.4721(12) 0.3701(4) 0.4212(3) 0.0415(17) Uani 1 1 d . . .
C8 C -0.3511(15) 0.2802(5) 0.4542(4) 0.063(2) Uani 1 1 d . . .
H8A H -0.3460 0.2417 0.4259 0.095 Uiso 1 1 calc R . .
H8B H -0.4241 0.2521 0.4989 0.095 Uiso 1 1 calc R . .
H8C H -0.2062 0.2895 0.4588 0.095 Uiso 1 1 calc R . .
C9 C -0.7066(14) 0.3515(6) 0.4157(4) 0.066(2) Uani 1 1 d . . .
H9A H -0.7881 0.4078 0.3949 0.099 Uiso 1 1 calc R . .
H9B H -0.7758 0.3230 0.4608 0.099 Uiso 1 1 calc R . .
H9C H -0.7001 0.3124 0.3879 0.099 Uiso 1 1 calc R . .
C10 C -0.4894(11) 0.4365(4) 0.4642(3) 0.0400(17) Uani 1 1 d . . .
C11 C -0.6207(14) 0.5140(5) 0.4471(4) 0.057(2) Uani 1 1 d . . .
H11A H -0.7076 0.5251 0.4118 0.068 Uiso 1 1 calc R . .
C12 C -0.3719(14) 0.4217(5) 0.5182(4) 0.057(2) Uani 1 1 d . . .
H12A H -0.2847 0.3676 0.5324 0.069 Uiso 1 1 calc R . .
C13 C 0.1486(14) 0.7281(5) 0.1381(4) 0.054(2) Uani 1 1 d . . .
H13A H 0.1187 0.7404 0.0930 0.065 Uiso 1 1 calc R . .
C14 C 0.3850(11) 0.6629(5) 0.2241(4) 0.0465(18) Uani 1 1 d . . .
H14A H 0.5122 0.6289 0.2389 0.056 Uiso 1 1 calc R . .
C15 C 0.2412(12) 0.7024(5) 0.2677(4) 0.0468(18) Uani 1 1 d . . .
H15A H 0.2765 0.6941 0.3116 0.056 Uiso 1 1 calc R . .
C16 C 0.0496(11) 0.7528(4) 0.2480(4) 0.0430(18) Uani 1 1 d . . .
C17 C 0.0026(12) 0.7642(5) 0.1815(4) 0.0516(19) Uani 1 1 d . . .
H17A H -0.1265 0.7960 0.1664 0.062 Uiso 1 1 calc R . .
C18 C 0.3315(13) 0.6763(4) 0.1576(4) 0.049(2) Uani 1 1 d . . .
C19 C -0.1016(11) 0.7919(5) 0.2990(4) 0.0478(19) Uani 1 1 d . . .
C20 C -0.1695(15) 0.7125(5) 0.3622(4) 0.075(3) Uani 1 1 d . . .
H20A H -0.2475 0.6735 0.3485 0.112 Uiso 1 1 calc R . .
H20B H -0.2609 0.7354 0.3955 0.112 Uiso 1 1 calc R . .
H20C H -0.0427 0.6789 0.3822 0.112 Uiso 1 1 calc R . .
C21 C -0.3047(14) 0.8460(6) 0.2682(5) 0.079(3) Uani 1 1 d . . .
H21A H -0.2631 0.8958 0.2287 0.119 Uiso 1 1 calc R . .
H21B H -0.3943 0.8687 0.3020 0.119 Uiso 1 1 calc R . .
H21C H -0.3842 0.8074 0.2546 0.119 Uiso 1 1 calc R . .
C22 C 0.0188(11) 0.8590(5) 0.3175(4) 0.0431(17) Uani 1 1 d . . .
C23 C 0.0413(13) 0.8526(5) 0.3844(4) 0.053(2) Uani 1 1 d . . .
H23A H -0.0122 0.8044 0.4203 0.064 Uiso 1 1 calc R . .
C24 C 0.1440(13) 0.9181(5) 0.3994(4) 0.0486(19) Uani 1 1 d . . .
H24A H 0.1561 0.9122 0.4451 0.058 Uiso 1 1 calc R . .
C25 C 0.3399(11) 1.0611(4) 0.3645(4) 0.0443(18) Uani 1 1 d . . .
C26 C 0.2037(12) 0.9940(5) 0.2812(4) 0.0497(19) Uani 1 1 d . . .
H26A H 0.2586 1.0414 0.2448 0.060 Uiso 1 1 calc R . .
C27 C 0.1027(13) 0.9299(5) 0.2673(4) 0.0491(19) Uani 1 1 d . . .
H27A H 0.0917 0.9354 0.2216 0.059 Uiso 1 1 calc R . .
C28 C 0.5566(14) 1.0147(5) 0.3923(4) 0.066(2) Uani 1 1 d . . .
H28A H 0.6474 0.9943 0.3576 0.098 Uiso 1 1 calc R . .
H28B H 0.5282 0.9638 0.4325 0.098 Uiso 1 1 calc R . .
H28C H 0.6286 1.0571 0.4042 0.098 Uiso 1 1 calc R . .
C29 C 0.1959(14) 1.0905(6) 0.4240(4) 0.063(2) Uani 1 1 d . . .
H29A H 0.0601 1.1201 0.4084 0.094 Uiso 1 1 calc R . .
H29B H 0.2698 1.1314 0.4371 0.094 Uiso 1 1 calc R . .
H29C H 0.1700 1.0379 0.4630 0.094 Uiso 1 1 calc R . .
C30 C 0.3700(11) 1.1420(4) 0.3014(4) 0.0387(16) Uani 1 1 d . . .
C31 C 0.2012(12) 1.2046(5) 0.2762(4) 0.0511(19) Uani 1 1 d . . .
H31A H 0.0651 1.1994 0.3013 0.061 Uiso 1 1 calc R . .
C32 C 0.2253(12) 1.2731(5) 0.2164(4) 0.0511(19) Uani 1 1 d . . .
H32A H 0.1062 1.3140 0.2027 0.061 Uiso 1 1 calc R . .
C33 C 0.4174(11) 1.2844(5) 0.1754(3) 0.0405(17) Uani 1 1 d . . .
C34 C 0.5971(11) 1.2242(5) 0.1991(4) 0.0467(18) Uani 1 1 d . . .
H34A H 0.7329 1.2313 0.1738 0.056 Uiso 1 1 calc R . .
C35 C 0.5709(11) 1.1549(5) 0.2596(4) 0.0460(18) Uani 1 1 d . . .
H35A H 0.6903 1.1145 0.2739 0.055 Uiso 1 1 calc R . .
C36 C 0.2258(11) 0.9898(4) 0.3483(3) 0.0371(16) Uani 1 1 d . . .

loop_
_atom_site_aniso_label
_atom_site_aniso_U_11
_atom_site_aniso_U_22
_atom_site_aniso_U_33
_atom_site_aniso_U_23
_atom_site_aniso_U_13
_atom_site_aniso_U_12
Ag1 0.0675(5) 0.0564(4) 0.0804(5) -0.0424(3) 0.0006(3) -0.0024(3)
N1 0.038(4) 0.071(4) 0.081(4) -0.050(4) 0.020(3) -0.007(3)
N2 0.043(4) 0.056(4) 0.058(4) -0.034(3) -0.006(3) -0.004(3)
N3 0.048(4) 0.068(4) 0.052(4) -0.031(3) -0.004(3) -0.013(3)
N4 0.062(5) 0.105(6) 0.050(5) -0.029(4) -0.005(4) -0.005(4)
O1 0.084(5) 0.160(7) 0.079(4) -0.062(4) -0.033(4) -0.023(5)
O2 0.102(6) 0.167(7) 0.053(4) -0.057(4) -0.001(4) -0.040(5)
O3 0.069(5) 0.249(11) 0.086(5) -0.052(6) 0.017(4) -0.007(6)
C1 0.032(4) 0.050(4) 0.032(4) -0.018(3) 0.000(3) -0.001(3)
C2 0.044(4) 0.058(4) 0.037(4) -0.028(3) -0.003(3) -0.017(4)
C3 0.038(4) 0.045(4) 0.059(5) -0.029(4) -0.010(4) -0.011(3)
C4 0.047(4) 0.039(4) 0.038(4) -0.021(3) -0.010(3) -0.002(3)
C5 0.052(5) 0.045(4) 0.051(5) -0.030(3) -0.006(4) -0.016(4)
C6 0.041(4) 0.053(4) 0.049(4) -0.029(4) 0.000(4) -0.011(3)
C7 0.057(5) 0.035(4) 0.040(4) -0.021(3) 0.001(3) -0.012(3)
C8 0.092(7) 0.040(4) 0.060(5) -0.022(4) -0.003(5) -0.005(4)
C9 0.077(6) 0.072(5) 0.060(5) -0.037(4) 0.019(4) -0.032(5)
C10 0.041(4) 0.039(4) 0.045(4) -0.026(3) 0.006(4) 0.003(3)
C11 0.073(6) 0.065(5) 0.045(4) -0.038(4) -0.015(4) 0.014(5)
C12 0.068(6) 0.052(5) 0.065(5) -0.036(4) -0.027(5) 0.015(4)
C13 0.067(6) 0.054(4) 0.054(5) -0.032(4) -0.018(4) 0.008(4)
C14 0.026(4) 0.053(4) 0.075(5) -0.039(4) -0.010(4) 0.001(3)
C15 0.038(5) 0.056(4) 0.064(5) -0.040(4) -0.011(4) -0.006(4)
C16 0.032(4) 0.039(4) 0.068(5) -0.032(3) 0.003(4) -0.006(3)
C17 0.041(5) 0.063(5) 0.059(5) -0.036(4) -0.010(4) 0.015(4)
C18 0.053(5) 0.033(4) 0.064(5) -0.025(4) 0.015(4) -0.010(4)
C19 0.028(4) 0.057(4) 0.076(5) -0.048(4) 0.005(4) -0.008(4)
C20 0.078(6) 0.067(5) 0.092(6) -0.049(5) 0.034(5) -0.034(5)
C21 0.051(6) 0.100(7) 0.129(8) -0.096(6) -0.005(5) -0.004(5)
C22 0.045(4) 0.042(4) 0.053(5) -0.029(4) -0.008(4) -0.002(3)
C23 0.060(5) 0.051(4) 0.055(5) -0.022(4) -0.010(4) -0.012(4)
C24 0.072(5) 0.045(4) 0.041(4) -0.026(4) -0.013(4) -0.005(4)
C25 0.041(4) 0.046(4) 0.059(5) -0.032(4) -0.008(4) -0.008(3)
C26 0.066(5) 0.039(4) 0.047(4) -0.012(3) -0.004(4) -0.020(4)
C27 0.073(5) 0.046(4) 0.040(4) -0.024(4) -0.004(4) -0.018(4)
C28 0.072(6) 0.067(5) 0.071(5) -0.025(4) -0.035(5) -0.013(5)
C29 0.073(6) 0.067(5) 0.069(5) -0.049(4) -0.002(4) -0.014(4)
C30 0.034(4) 0.035(4) 0.059(4) -0.031(3) -0.010(4) 0.000(3)
C31 0.042(5) 0.049(4) 0.067(5) -0.031(4) 0.010(4) -0.003(4)
C32 0.045(5) 0.042(4) 0.063(5) -0.020(4) 0.002(4) 0.007(4)
C33 0.029(4) 0.061(5) 0.045(4) -0.031(4) -0.007(3) -0.008(4)
C34 0.024(4) 0.055(4) 0.066(5) -0.028(4) 0.002(4) -0.006(4)
C35 0.024(4) 0.053(4) 0.074(5) -0.041(4) -0.010(4) 0.010(3)
C36 0.044(4) 0.036(4) 0.038(4) -0.022(3) -0.004(3) -0.002(3)

_geom_special_details            
;
All esds (except the esd in the dihedral angle between two l.s. planes)
are estimated using the full covariance matrix. The cell esds are taken
into account individually in the estimation of esds in distances, angles
and torsion angles; correlations between esds in cell parameters are only
used when they are defined by crystal symmetry. An approximate (isotropic)
treatment of cell esds is used for estimating esds involving l.s. planes.
;

loop_
_geom_bond_atom_site_label_1
_geom_bond_atom_site_label_2
_geom_bond_distance
_geom_bond_site_symmetry_2
_geom_bond_publ_flag
Ag1 N2 2.207(6) . ?
Ag1 N1 2.221(6) . ?
Ag1 N3 2.529(6) . ?
N1 C18 1.428(9) . ?
N1 H1A 0.9000 . ?
N1 H1B 0.9000 . ?
N2 C33 1.422(8) 1_545 ?
N2 H2B 0.9000 . ?
N2 H2C 0.9000 . ?
N3 C1 1.398(8) . ?
N3 H3B 0.9000 . ?
N3 H3C 0.9000 . ?
N4 O2 1.212(8) . ?
N4 O1 1.232(9) . ?
N4 O3 1.240(9) . ?
C1 C6 1.369(10) . ?
C1 C2 1.389(9) . ?
C2 C3 1.357(9) . ?
C2 H2A 0.9300 . ?
C3 C4 1.407(9) . ?
C3 H3A 0.9300 . ?
C4 C5 1.396(9) . ?
C4 C7 1.509(9) . ?
C5 C6 1.377(9) . ?
C5 H5A 0.9300 . ?
C6 H6A 0.9300 . ?
C7 C8 1.506(10) . ?
C7 C10 1.556(9) . ?
C7 C9 1.560(11) . ?
C8 H8A 0.9600 . ?
C8 H8B 0.9600 . ?
C8 H8C 0.9600 . ?
C9 H9A 0.9600 . ?
C9 H9B 0.9600 . ?
C9 H9C 0.9600 . ?
C10 C11 1.348(10) . ?
C10 C12 1.366(10) . ?
C11 C12 1.406(11) 2_466 ?
C11 H11A 0.9300 . ?
C12 C11 1.406(11) 2_466 ?
C12 H12A 0.9300 . ?
C13 C18 1.345(11) . ?
C13 C17 1.383(10) . ?
C13 H13A 0.9300 . ?
C14 C18 1.404(10) . ?
C14 C15 1.407(10) . ?
C14 H14A 0.9300 . ?
C15 C16 1.383(10) . ?
C15 H15A 0.9300 . ?
C16 C17 1.396(10) . ?
C16 C19 1.536(9) . ?
C17 H17A 0.9300 . ?
C19 C21 1.530(12) . ?
C19 C20 1.536(10) . ?
C19 C22 1.541(10) . ?
C20 H20A 0.9600 . ?
C20 H20B 0.9600 . ?
C20 H20C 0.9600 . ?
C21 H21A 0.9600 . ?
C21 H21B 0.9600 . ?
C21 H21C 0.9600 . ?
C22 C27 1.354(9) . ?
C22 C23 1.379(10) . ?
C23 C24 1.413(10) . ?
C23 H23A 0.9300 . ?
C24 C36 1.366(9) . ?
C24 H24A 0.9300 . ?
C25 C30 1.504(9) . ?
C25 C36 1.546(9) . ?
C25 C28 1.547(11) . ?
C25 C29 1.573(10) . ?
C26 C27 1.378(10) . ?
C26 C36 1.393(9) . ?
C26 H26A 0.9300 . ?
C27 H27A 0.9300 . ?
C28 H28A 0.9600 . ?
C28 H28B 0.9600 . ?
C28 H28C 0.9600 . ?
C29 H29A 0.9600 . ?
C29 H29B 0.9600 . ?
C29 H29C 0.9600 . ?
C30 C31 1.380(10) . ?
C30 C35 1.416(9) . ?
C31 C32 1.353(9) . ?
C31 H31A 0.9300 . ?
C32 C33 1.362(9) . ?
C32 H32A 0.9300 . ?
C33 C34 1.406(10) . ?
C33 N2 1.422(8) 1_565 ?
C34 C35 1.371(9) . ?
C34 H34A 0.9300 . ?
C35 H35A 0.9300 . ?

loop_
_geom_angle_atom_site_label_1
_geom_angle_atom_site_label_2
_geom_angle_atom_site_label_3
_geom_angle
_geom_angle_site_symmetry_1
_geom_angle_site_symmetry_3
_geom_angle_publ_flag
N2 Ag1 N1 160.5(2) . . ?
N2 Ag1 N3 103.4(2) . . ?
N1 Ag1 N3 95.7(2) . . ?
C18 N1 Ag1 115.9(4) . . ?
C18 N1 H1A 108.3 . . ?
Ag1 N1 H1A 108.3 . . ?
C18 N1 H1B 108.3 . . ?
Ag1 N1 H1B 108.3 . . ?
H1A N1 H1B 107.4 . . ?
C33 N2 Ag1 116.0(4) 1_545 . ?
C33 N2 H2B 108.3 1_545 . ?
Ag1 N2 H2B 108.3 . . ?
C33 N2 H2C 108.3 1_545 . ?
Ag1 N2 H2C 108.3 . . ?
H2B N2 H2C 107.4 . . ?
C1 N3 Ag1 127.9(4) . . ?
C1 N3 H3B 105.3 . . ?
Ag1 N3 H3B 105.3 . . ?
C1 N3 H3C 105.3 . . ?
Ag1 N3 H3C 105.3 . . ?
H3B N3 H3C 106.0 . . ?
O2 N4 O1 120.7(8) . . ?
O2 N4 O3 117.0(9) . . ?
O1 N4 O3 122.2(8) . . ?
C6 C1 C2 117.2(6) . . ?
C6 C1 N3 120.8(6) . . ?
C2 C1 N3 121.9(6) . . ?
C3 C2 C1 121.1(6) . . ?
C3 C2 H2A 119.5 . . ?
C1 C2 H2A 119.5 . . ?
C2 C3 C4 123.0(6) . . ?
C2 C3 H3A 118.5 . . ?
C4 C3 H3A 118.5 . . ?
C5 C4 C3 114.8(6) . . ?
C5 C4 C7 122.4(6) . . ?
C3 C4 C7 122.6(6) . . ?
C6 C5 C4 121.9(6) . . ?
C6 C5 H5A 119.1 . . ?
C4 C5 H5A 119.1 . . ?
C1 C6 C5 122.0(6) . . ?
C1 C6 H6A 119.0 . . ?
C5 C6 H6A 119.0 . . ?
C8 C7 C4 108.7(6) . . ?
C8 C7 C10 112.8(6) . . ?
C4 C7 C10 109.3(5) . . ?
C8 C7 C9 107.5(6) . . ?
C4 C7 C9 110.5(6) . . ?
C10 C7 C9 108.0(6) . . ?
C7 C8 H8A 109.5 . . ?
C7 C8 H8B 109.5 . . ?
H8A C8 H8B 109.5 . . ?
C7 C8 H8C 109.5 . . ?
H8A C8 H8C 109.5 . . ?
H8B C8 H8C 109.5 . . ?
C7 C9 H9A 109.5 . . ?
C7 C9 H9B 109.5 . . ?
H9A C9 H9B 109.5 . . ?
C7 C9 H9C 109.5 . . ?
H9A C9 H9C 109.5 . . ?
H9B C9 H9C 109.5 . . ?
C11 C10 C12 117.3(7) . . ?
C11 C10 C7 119.7(7) . . ?
C12 C