####################################################################### 
# 
# This file contains crystal structure data downloaded from the 
# Cambridge Structural Database (CSD) hosted by the Cambridge 
# Crystallographic Data Centre (CCDC).
# 
# Full information about CCDC data access policies and citation 
# guidelines are available at http://www.ccdc.cam.ac.uk/access/V1 
# 
# Audit and citation data items may have been added by the CCDC. 
# Please retain this information to preserve the provenance of 
# this file and to allow appropriate attribution of the data. 
# 
#######################################################################

data_100512
_audit_block_doi                 10.5517/ccwgb0n
_database_code_depnum_ccdc_archive 'CCDC 818121'
_audit_update_record             
;
2011-03-21 deposited with the CCDC.	2024-07-14 downloaded from the CCDC.
;
#TrackingRef '100512-1.txt'


_audit_creation_method           SHELXL-97
_chemical_name_systematic        
;
?
;
_chemical_name_common            ?
_chemical_melting_point          ?
_chemical_formula_moiety         ?
_chemical_formula_sum            'C27 H52 N4 Ni O8'
_chemical_formula_weight         619.44

loop_
_atom_type_symbol
_atom_type_description
_atom_type_scat_dispersion_real
_atom_type_scat_dispersion_imag
_atom_type_scat_source
C C 0.0033 0.0016 'International Tables Vol C Tables 4.2.6.8 and 6.1.1.4'
H H 0.0000 0.0000 'International Tables Vol C Tables 4.2.6.8 and 6.1.1.4'
N N 0.0061 0.0033 'International Tables Vol C Tables 4.2.6.8 and 6.1.1.4'
O O 0.0106 0.0060 'International Tables Vol C Tables 4.2.6.8 and 6.1.1.4'
Ni Ni 0.3393 1.1124 'International Tables Vol C Tables 4.2.6.8 and 6.1.1.4'

_symmetry_cell_setting           monoclinic
_symmetry_space_group_name_H-M   C2/c

loop_
_symmetry_equiv_pos_as_xyz
'x, y, z'
'-x, y, -z+1/2'
'x+1/2, y+1/2, z'
'-x+1/2, y+1/2, -z+1/2'
'-x, -y, -z'
'x, -y, z-1/2'
'-x+1/2, -y+1/2, -z'
'x+1/2, -y+1/2, z-1/2'

_cell_length_a                   39.447(2)
_cell_length_b                   9.8541(4)
_cell_length_c                   18.4277(8)
_cell_angle_alpha                90.00
_cell_angle_beta                 96.583(5)
_cell_angle_gamma                90.00
_cell_volume                     7115.9(6)
_cell_formula_units_Z            8
_cell_measurement_temperature    291(2)
_cell_measurement_reflns_used    6573
_cell_measurement_theta_min      2.8652
_cell_measurement_theta_max      29.0473

_exptl_crystal_description       ?
_exptl_crystal_colour            ?
_exptl_crystal_size_max          0.40
_exptl_crystal_size_mid          0.40
_exptl_crystal_size_min          0.30
_exptl_crystal_density_meas      ?
_exptl_crystal_density_diffrn    1.156
_exptl_crystal_density_method    'not measured'
_exptl_crystal_F_000             2672
_exptl_absorpt_coefficient_mu    0.590
_exptl_absorpt_correction_type   multi-scan
_exptl_absorpt_correction_T_min  0.7981
_exptl_absorpt_correction_T_max  0.8428
_exptl_absorpt_process_details   
;
CrysAlisPro, Oxford Diffraction Ltd.,
Version 1.171.33.52 (release 06-11-2009 CrysAlis171 .NET)
(compiled Nov 6 2009,16:24:50)
Empirical absorption correction using spherical harmonics,
implemented in SCALE3 ABSPACK scaling algorithm.
;

_exptl_special_details           
;
?
;

_diffrn_ambient_temperature      291(2)
_diffrn_radiation_wavelength     0.71073
_diffrn_radiation_type           MoK\a
_diffrn_radiation_source         'Enhance (Mo) X-ray Source'
_diffrn_radiation_monochromator  graphite
_diffrn_measurement_device_type  'Gemini S Ultra, Oxford Diffraction'
_diffrn_measurement_method       '\w scans'
_diffrn_detector_area_resol_mean 15.9149
_diffrn_standards_number         ?
_diffrn_standards_interval_count ?
_diffrn_standards_interval_time  ?
_diffrn_standards_decay_%        ?
_diffrn_reflns_number            24049
_diffrn_reflns_av_R_equivalents  0.0457
_diffrn_reflns_av_sigmaI/netI    0.0831
_diffrn_reflns_limit_h_min       -43
_diffrn_reflns_limit_h_max       48
_diffrn_reflns_limit_k_min       -12
_diffrn_reflns_limit_k_max       11
_diffrn_reflns_limit_l_min       -22
_diffrn_reflns_limit_l_max       22
_diffrn_reflns_theta_min         2.87
_diffrn_reflns_theta_max         26.02
_reflns_number_total             6996
_reflns_number_gt                3568
_reflns_threshold_expression     >2sigma(I)

_computing_data_collection       'CrysAlisPro (Oxford Diffraction Ltd.)'
_computing_cell_refinement       'CrysAlisPro (Oxford Diffraction Ltd.)'
_computing_data_reduction        'CrysAlisPro (Oxford Diffraction Ltd.)'
_computing_structure_solution    'SHELXS-97 (Sheldrick, 1997)'
_computing_structure_refinement  'SHELXL-97 (Sheldrick, 1997)'
_computing_molecular_graphics    'Ortep-3 (L. J. Farrugia, 2001)'
_computing_publication_material  SHELXL-97

_refine_special_details          
;
Refinement of F^2^ against ALL reflections. The weighted R-factor wR and
goodness of fit S are based on F^2^, conventional R-factors R are based
on F, with F set to zero for negative F^2^. The threshold expression of
F^2^ > 2sigma(F^2^) is used only for calculating R-factors(gt) etc. and is
not relevant to the choice of reflections for refinement. R-factors based
on F^2^ are statistically about twice as large as those based on F, and R-
factors based on ALL data will be even larger.
;

_refine_ls_structure_factor_coef Fsqd
_refine_ls_matrix_type           full
_refine_ls_weighting_scheme      calc
_refine_ls_weighting_details     
'calc w=1/[\s^2^(Fo^2^)+(0.0734P)^2^+0.0000P] where P=(Fo^2^+2Fc^2^)/3'
_atom_sites_solution_primary     direct
_atom_sites_solution_secondary   difmap
_atom_sites_solution_hydrogens   geom
_refine_ls_hydrogen_treatment    mixed
_refine_ls_extinction_method     none
_refine_ls_extinction_coef       ?
_refine_ls_number_reflns         6996
_refine_ls_number_parameters     403
_refine_ls_number_restraints     26
_refine_ls_R_factor_all          0.1098
_refine_ls_R_factor_gt           0.0581
_refine_ls_wR_factor_ref         0.1623
_refine_ls_wR_factor_gt          0.1533
_refine_ls_goodness_of_fit_ref   1.046
_refine_ls_restrained_S_all      1.061
_refine_ls_shift/su_max          0.000
_refine_ls_shift/su_mean         0.000

loop_
_atom_site_label
_atom_site_type_symbol
_atom_site_fract_x
_atom_site_fract_y
_atom_site_fract_z
_atom_site_U_iso_or_equiv
_atom_site_adp_type
_atom_site_occupancy
_atom_site_symmetry_multiplicity
_atom_site_calc_flag
_atom_site_refinement_flags
_atom_site_disorder_assembly
_atom_site_disorder_group
Ni1 Ni 0.123010(14) 0.18178(5) 0.03970(2) 0.04175(19) Uani 1 1 d . . .
O4 O 0.08596(8) -0.0247(3) 0.15076(15) 0.0650(9) Uani 1 1 d . . .
O2 O 0.16259(8) 0.4644(3) -0.00252(16) 0.0705(9) Uani 1 1 d . . .
O7 O -0.04707(8) -0.1687(3) 0.13435(15) 0.0657(9) Uani 1 1 d . . .
H29 H -0.0545 -0.1835 0.1733 0.099 Uiso 1 1 calc R . .
O3 O 0.09162(8) 0.1948(3) 0.12486(14) 0.0565(8) Uani 1 1 d . . .
O1 O 0.15274(8) 0.3379(3) 0.09265(14) 0.0600(8) Uani 1 1 d . . .
O6 O 0.07149(10) -0.2223(3) 0.23916(17) 0.0737(10) Uani 1 1 d D . .
H28 H 0.0737 -0.1592 0.2111 0.111 Uiso 1 1 calc R . .
N3 N 0.09319(10) -0.6655(4) -0.01761(19) 0.0451(9) Uani 1 1 d D . .
N4 N 0.15595(10) -0.1734(4) 0.45526(17) 0.0459(9) Uani 1 1 d D . .
O5 O 0.19833(11) -0.0831(4) -0.0065(2) 0.0824(11) Uani 1 1 d D . .
N2 N 0.15346(11) 0.0364(4) 0.10302(18) 0.0483(9) Uani 1 1 d D . .
N1 N 0.09031(10) 0.0223(3) -0.0069(2) 0.0451(9) Uani 1 1 d D . .
C3 C 0.08461(11) -0.3344(4) -0.0117(2) 0.0476(10) Uani 1 1 d . . .
H3 H 0.1050 -0.3410 0.0187 0.057 Uiso 1 1 calc R . .
C14 C 0.16901(12) -0.1676(4) 0.3245(2) 0.0511(11) Uani 1 1 d . . .
C2 C 0.07741(11) -0.2158(4) -0.0499(2) 0.0459(11) Uani 1 1 d . . .
C4 C 0.06244(11) -0.4445(4) -0.0170(2) 0.0456(10) Uani 1 1 d . . .
C5 C 0.03175(13) -0.4339(4) -0.0618(2) 0.0588(12) Uani 1 1 d . . .
H5 H 0.0166 -0.5065 -0.0663 0.071 Uiso 1 1 calc R . .
C15 C 0.16184(11) -0.0627(4) 0.2739(2) 0.0503(11) Uani 1 1 d . . .
H15 H 0.1415 -0.0151 0.2734 0.060 Uiso 1 1 calc R . .
O8 O 0.17769(14) -0.3147(4) -0.0721(3) 0.1240(15) Uani 1 1 d DU . .
C16 C 0.14355(11) -0.2021(5) 0.37819(19) 0.0545(12) Uani 1 1 d . . .
H16A H 0.1228 -0.1508 0.3649 0.065 Uiso 1 1 calc R . .
H16B H 0.1379 -0.2977 0.3735 0.065 Uiso 1 1 calc R . .
C10 C 0.18423(12) -0.0279(5) 0.2245(2) 0.0544(12) Uani 1 1 d . . .
C7 C 0.04675(13) -0.2075(4) -0.0936(2) 0.0563(12) Uani 1 1 d . . .
H7 H 0.0413 -0.1281 -0.1196 0.068 Uiso 1 1 calc R . .
C1 C 0.10247(12) -0.0986(4) -0.0421(2) 0.0578(12) Uani 1 1 d . . .
H1A H 0.1234 -0.1293 -0.0140 0.069 Uiso 1 1 calc R . .
H1B H 0.1080 -0.0737 -0.0903 0.069 Uiso 1 1 calc R . .
C19 C 0.08098(11) 0.0990(5) 0.1617(2) 0.0508(11) Uani 1 1 d . . .
C8 C 0.07208(11) -0.5740(4) 0.0230(2) 0.0530(11) Uani 1 1 d . . .
H8A H 0.0846 -0.5522 0.0699 0.064 Uiso 1 1 calc R . .
H8B H 0.0514 -0.6214 0.0321 0.064 Uiso 1 1 calc R . .
C6 C 0.02385(13) -0.3150(5) -0.0996(2) 0.0675(13) Uani 1 1 d . . .
H6 H 0.0032 -0.3069 -0.1291 0.081 Uiso 1 1 calc R . .
C17 C 0.16401(12) 0.4415(5) 0.0649(3) 0.0595(12) Uani 1 1 d . . .
C20 C 0.06141(15) 0.1372(5) 0.2232(3) 0.0862(18) Uani 1 1 d . . .
H20B H 0.0597 0.2343 0.2256 0.129 Uiso 1 1 calc R . .
H20C H 0.0730 0.1036 0.2682 0.129 Uiso 1 1 calc R . .
H20A H 0.0390 0.0985 0.2153 0.129 Uiso 1 1 calc R . .
C13 C 0.19908(13) -0.2371(6) 0.3243(2) 0.0726(15) Uani 1 1 d . . .
H13 H 0.2042 -0.3087 0.3566 0.087 Uiso 1 1 calc R . .
C9 C 0.17476(13) 0.0838(5) 0.1697(2) 0.0655(13) Uani 1 1 d . . .
H9A H 0.1625 0.1539 0.1928 0.079 Uiso 1 1 calc R . .
H9B H 0.1955 0.1240 0.1558 0.079 Uiso 1 1 calc R . .
C11 C 0.21430(14) -0.0971(6) 0.2266(3) 0.0796(16) Uani 1 1 d . . .
H11 H 0.2299 -0.0740 0.1943 0.095 Uiso 1 1 calc R . .
C18 C 0.18047(16) 0.5488(6) 0.1163(3) 0.103(2) Uani 1 1 d . . .
H18A H 0.1879 0.6232 0.0885 0.154 Uiso 1 1 calc R . .
H18B H 0.1997 0.5104 0.1459 0.154 Uiso 1 1 calc R . .
H18C H 0.1642 0.5809 0.1473 0.154 Uiso 1 1 calc R . .
C21 C 0.0677(2) -0.4604(9) 0.2394(5) 0.168(3) Uani 1 1 d U . .
H21A H 0.0759 -0.5428 0.2198 0.252 Uiso 1 1 calc R . .
H21B H 0.0434 -0.4553 0.2280 0.252 Uiso 1 1 calc R . .
H21C H 0.0734 -0.4597 0.2915 0.252 Uiso 1 1 calc R . .
C27 C 0.1672(2) -0.3384(8) -0.1550(4) 0.157(3) Uani 1 1 d DU . .
H27A H 0.1569 -0.2575 -0.1765 0.235 Uiso 1 1 calc R . .
H27B H 0.1512 -0.4120 -0.1614 0.235 Uiso 1 1 calc R . .
H27C H 0.1871 -0.3604 -0.1782 0.235 Uiso 1 1 calc R . .
C23 C -0.01135(13) -0.1804(6) 0.1438(3) 0.0779(15) Uani 1 1 d . . .
H23A H -0.0051 -0.2711 0.1608 0.094 Uiso 1 1 calc R . .
H23B H -0.0019 -0.1164 0.1807 0.094 Uiso 1 1 calc R . .
C12 C 0.22181(15) -0.2008(6) 0.2760(3) 0.0913(19) Uani 1 1 d . . .
H12 H 0.2424 -0.2469 0.2769 0.110 Uiso 1 1 calc R . .
C24 C 0.00329(14) -0.1538(6) 0.0750(3) 0.0883(17) Uani 1 1 d . . .
H24A H 0.0277 -0.1631 0.0831 0.132 Uiso 1 1 calc R . .
H24B H -0.0025 -0.0633 0.0587 0.132 Uiso 1 1 calc R . .
H24C H -0.0058 -0.2177 0.0385 0.132 Uiso 1 1 calc R . .
C22 C 0.0832(2) -0.3468(7) 0.2083(3) 0.129(2) Uani 1 1 d DU . .
H22A H 0.0772 -0.3465 0.1557 0.155 Uiso 1 1 calc R . .
H22B H 0.1078 -0.3532 0.2183 0.155 Uiso 1 1 calc R . .
C26 C 0.23270(17) -0.0605(7) -0.0187(5) 0.151(3) Uani 1 1 d . . .
H26A H 0.2465 -0.1362 0.0011 0.181 Uiso 1 1 calc R . .
H26B H 0.2340 -0.0574 -0.0709 0.181 Uiso 1 1 calc R . .
C25 C 0.24617(18) 0.0593(8) 0.0128(4) 0.140(3) Uani 1 1 d . . .
H25A H 0.2693 0.0698 0.0024 0.209 Uiso 1 1 calc R . .
H25B H 0.2456 0.0558 0.0647 0.209 Uiso 1 1 calc R . .
H25C H 0.2328 0.1350 -0.0070 0.209 Uiso 1 1 calc R . .
H4A H 0.0815(8) -0.702(3) -0.0578(15) 0.039(11) Uiso 1 1 d D . .
H14B H 0.1671(9) -0.099(3) 0.459(2) 0.051(14) Uiso 1 1 d D . .
H2B H 0.0793(10) 0.006(5) 0.0296(19) 0.077(17) Uiso 1 1 d D . .
H14A H 0.1712(9) -0.234(4) 0.4751(19) 0.052(13) Uiso 1 1 d D . .
H2A H 0.0757(8) 0.049(4) -0.0400(16) 0.039(12) Uiso 1 1 d D . .
H10A H 0.1663(9) -0.009(4) 0.0749(19) 0.061(15) Uiso 1 1 d D . .
H10B H 0.1356(9) -0.016(4) 0.110(2) 0.083(18) Uiso 1 1 d D . .
H4B H 0.1072(9) -0.620(4) -0.040(2) 0.060(15) Uiso 1 1 d D . .
H17 H 0.1732(16) -0.381(4) -0.048(3) 0.124 Uiso 1 1 d D . .
H19 H 0.1902(13) -0.147(4) -0.027(3) 0.08(2) Uiso 1 1 d D . .

loop_
_atom_site_aniso_label
_atom_site_aniso_U_11
_atom_site_aniso_U_22
_atom_site_aniso_U_33
_atom_site_aniso_U_23
_atom_site_aniso_U_13
_atom_site_aniso_U_12
Ni1 0.0564(4) 0.0318(3) 0.0376(3) 0.0026(2) 0.0074(2) -0.0020(3)
O4 0.090(3) 0.047(2) 0.0622(19) 0.0091(16) 0.0290(17) -0.0063(18)
O2 0.092(3) 0.061(2) 0.060(2) 0.0066(16) 0.0098(17) -0.0293(19)
O7 0.062(2) 0.083(2) 0.0525(17) 0.0083(17) 0.0071(15) 0.0052(18)
O3 0.080(2) 0.0406(18) 0.0523(17) 0.0036(14) 0.0233(15) -0.0024(16)
O1 0.084(2) 0.046(2) 0.0487(16) 0.0052(14) 0.0004(15) -0.0187(17)
O6 0.109(3) 0.055(2) 0.063(2) 0.0074(16) 0.0362(19) -0.004(2)
N3 0.061(3) 0.031(2) 0.044(2) -0.0010(17) 0.0100(19) -0.0019(19)
N4 0.059(3) 0.041(2) 0.0383(19) -0.0034(18) 0.0051(17) 0.002(2)
O5 0.073(3) 0.062(3) 0.115(3) -0.010(2) 0.023(2) -0.006(2)
N2 0.058(3) 0.051(2) 0.036(2) 0.0070(18) 0.0042(19) 0.001(2)
N1 0.059(3) 0.032(2) 0.043(2) -0.0005(17) 0.005(2) 0.0017(18)
C3 0.055(3) 0.039(3) 0.050(2) -0.003(2) 0.009(2) 0.003(2)
C14 0.068(3) 0.051(3) 0.034(2) 0.001(2) 0.004(2) -0.001(2)
C2 0.060(3) 0.032(2) 0.048(2) -0.0040(18) 0.015(2) 0.002(2)
C4 0.058(3) 0.032(2) 0.050(2) 0.0011(19) 0.018(2) 0.002(2)
C5 0.074(4) 0.036(3) 0.068(3) -0.001(2) 0.010(3) -0.007(2)
C15 0.050(3) 0.056(3) 0.044(2) 0.000(2) 0.000(2) 0.004(2)
O8 0.171(5) 0.057(3) 0.146(3) 0.015(2) 0.029(3) -0.036(3)
C16 0.061(3) 0.064(3) 0.039(2) 0.000(2) 0.006(2) -0.006(2)
C10 0.065(3) 0.058(3) 0.039(2) 0.010(2) -0.001(2) -0.005(3)
C7 0.075(3) 0.039(3) 0.055(3) 0.009(2) 0.006(2) 0.004(2)
C1 0.067(3) 0.033(3) 0.078(3) -0.011(2) 0.027(2) -0.006(2)
C19 0.061(3) 0.048(3) 0.044(2) 0.005(2) 0.010(2) -0.001(2)
C8 0.068(3) 0.032(2) 0.063(3) 0.001(2) 0.024(2) 0.007(2)
C6 0.069(3) 0.061(3) 0.068(3) 0.001(3) -0.010(3) -0.005(3)
C17 0.059(3) 0.050(3) 0.069(3) -0.002(3) 0.003(2) -0.008(2)
C20 0.116(5) 0.074(4) 0.079(3) 0.007(3) 0.057(3) 0.011(3)
C13 0.079(4) 0.084(4) 0.057(3) 0.026(3) 0.017(3) 0.038(3)
C9 0.081(4) 0.059(3) 0.055(3) 0.010(2) -0.001(2) -0.010(3)
C11 0.073(4) 0.109(5) 0.060(3) 0.023(3) 0.026(3) 0.015(4)
C18 0.144(6) 0.085(4) 0.079(4) -0.017(3) 0.008(4) -0.059(4)
C21 0.170(3) 0.166(3) 0.169(3) 0.0024(10) 0.0209(11) -0.0021(10)
C27 0.160(3) 0.156(3) 0.154(3) 0.0026(10) 0.0157(10) -0.0009(10)
C23 0.067(4) 0.098(4) 0.068(3) 0.010(3) 0.003(3) 0.004(3)
C12 0.082(4) 0.124(5) 0.072(3) 0.027(3) 0.025(3) 0.046(4)
C24 0.080(4) 0.105(5) 0.083(4) 0.001(3) 0.024(3) -0.008(3)
C22 0.186(8) 0.126(5) 0.079(4) -0.009(4) 0.035(4) 0.044(4)
C26 0.077(5) 0.085(6) 0.292(11) -0.059(6) 0.025(6) -0.015(4)
C25 0.094(5) 0.141(7) 0.180(7) -0.012(6) 0.002(5) -0.007(5)

_geom_special_details            
;
All esds (except the esd in the dihedral angle between two l.s. planes)
are estimated using the full covariance matrix. The cell esds are taken
into account individually in the estimation of esds in distances, angles
and torsion angles; correlations between esds in cell parameters are only
used when they are defined by crystal symmetry. An approximate (isotropic)
treatment of cell esds is used for estimating esds involving l.s. planes.
;

loop_
_geom_bond_atom_site_label_1
_geom_bond_atom_site_label_2
_geom_bond_distance
_geom_bond_site_symmetry_2
_geom_bond_publ_flag
Ni1 O1 2.105(3) . ?
Ni1 O3 2.111(3) . ?
Ni1 N3 2.116(4) 1_565 ?
Ni1 N2 2.129(4) . ?
Ni1 N4 2.140(3) 6 ?
Ni1 N1 2.148(4) . ?
O4 C19 1.255(5) . ?
O2 C17 1.257(5) . ?
O7 C23 1.405(5) . ?
O7 H29 0.8200 . ?
O3 C19 1.263(5) . ?
O1 C17 1.246(5) . ?
O6 C22 1.449(6) . ?
O6 H28 0.8200 . ?
N3 C8 1.486(5) . ?
N3 Ni1 2.116(4) 1_545 ?
N3 H4A 0.90(2) . ?
N3 H4B 0.85(2) . ?
N4 C16 1.475(5) . ?
N4 Ni1 2.140(3) 6_556 ?
N4 H14B 0.86(2) . ?
N4 H14A 0.89(3) . ?
O5 C26 1.417(7) . ?
O5 H19 0.79(3) . ?
N2 C9 1.482(5) . ?
N2 H10A 0.88(3) . ?
N2 H10B 0.89(3) . ?
N1 C1 1.464(5) . ?
N1 H2B 0.86(3) . ?
N1 H2A 0.83(2) . ?
C3 C2 1.376(5) . ?
C3 C4 1.391(5) . ?
C3 H3 0.9300 . ?
C14 C13 1.370(6) . ?
C14 C15 1.400(5) . ?
C14 C16 1.527(5) . ?
C2 C7 1.376(6) . ?
C2 C1 1.516(6) . ?
C4 C5 1.389(6) . ?
C4 C8 1.500(5) . ?
C5 C6 1.380(6) . ?
C5 H5 0.9300 . ?
C15 C10 1.382(5) . ?
C15 H15 0.9300 . ?
O8 C27 1.554(7) . ?
O8 H17 0.83(3) . ?
C16 H16A 0.9700 . ?
C16 H16B 0.9700 . ?
C10 C11 1.365(6) . ?
C10 C9 1.511(6) . ?
C7 C6 1.389(6) . ?
C7 H7 0.9300 . ?
C1 H1A 0.9700 . ?
C1 H1B 0.9700 . ?
C19 C20 1.491(5) . ?
C8 H8A 0.9700 . ?
C8 H8B 0.9700 . ?
C6 H6 0.9300 . ?
C17 C18 1.516(6) . ?
C20 H20B 0.9600 . ?
C20 H20C 0.9600 . ?
C20 H20A 0.9600 . ?
C13 C12 1.381(6) . ?
C13 H13 0.9300 . ?
C9 H9A 0.9700 . ?
C9 H9B 0.9700 . ?
C11 C12 1.379(7) . ?
C11 H11 0.9300 . ?
C18 H18A 0.9600 . ?
C18 H18B 0.9600 . ?
C18 H18C 0.9600 . ?
C21 C22 1.428(9) . ?
C21 H21A 0.9600 . ?
C21 H21B 0.9600 . ?
C21 H21C 0.9600 . ?
C27 H27A 0.9600 . ?
C27 H27B 0.9600 . ?
C27 H27C 0.9600 . ?
C23 C24 1.475(6) . ?
C23 H23A 0.9700 . ?
C23 H23B 0.9700 . ?
C12 H12 0.9300 . ?
C24 H24A 0.9600 . ?
C24 H24B 0.9600 . ?
C24 H24C 0.9600 . ?
C22 H22A 0.9700 . ?
C22 H22B 0.9700 . ?
C26 C25 1.394(8) . ?
C26 H26A 0.9700 . ?
C26 H26B 0.9700 . ?
C25 H25A 0.9600 . ?
C25 H25B 0.9600 . ?
C25 H25C 0.9600 . ?

loop_
_geom_angle_a