####################################################################### 
# 
# This file contains crystal structure data downloaded from the 
# Cambridge Structural Database (CSD) hosted by the Cambridge 
# Crystallographic Data Centre (CCDC).
# 
# Full information about CCDC data access policies and citation 
# guidelines are available at http://www.ccdc.cam.ac.uk/access/V1 
# 
# Audit and citation data items may have been added by the CCDC. 
# Please retain this information to preserve the provenance of 
# this file and to allow appropriate attribution of the data. 
# 
#######################################################################

data_360a4monop
_audit_block_doi                 10.5517/ccz6kl9
_database_code_depnum_ccdc_archive 'CCDC 900041'
loop_
_citation_id
_citation_doi
_citation_year
1 10.1002/ejic.201201113 2013
_audit_update_record             
;
2012-09-04 deposited with the CCDC.	2024-07-14 downloaded from the CCDC.
;
#TrackingRef '1_Cl033C29Cr067Br2FeMn067H36O13N6.cif'


_audit_creation_method           SHELXL-97
_chemical_name_systematic        
;
?
;
_chemical_name_common            ?
_chemical_melting_point          ?
_chemical_formula_moiety         ?
_chemical_formula_sum            'C29 H35 Br2 Cl0.33 Cr0.67 Fe Mn0.67 N6 O13'
_chemical_formula_weight         974.41

loop_
_atom_type_symbol
_atom_type_description
_atom_type_scat_dispersion_real
_atom_type_scat_dispersion_imag
_atom_type_scat_source
C C 0.0033 0.0016 'International Tables Vol C Tables 4.2.6.8 and 6.1.1.4'
H H 0.0000 0.0000 'International Tables Vol C Tables 4.2.6.8 and 6.1.1.4'
N N 0.0061 0.0033 'International Tables Vol C Tables 4.2.6.8 and 6.1.1.4'
O O 0.0106 0.0060 'International Tables Vol C Tables 4.2.6.8 and 6.1.1.4'
Cr Cr 0.3209 0.6236 'International Tables Vol C Tables 4.2.6.8 and 6.1.1.4'
Mn Mn 0.3368 0.7283 'International Tables Vol C Tables 4.2.6.8 and 6.1.1.4'
Fe Fe 0.3463 0.8444 'International Tables Vol C Tables 4.2.6.8 and 6.1.1.4'
Br Br -0.2901 2.4595 'International Tables Vol C Tables 4.2.6.8 and 6.1.1.4'
Cl Cl 0.1484 0.1585 'International Tables Vol C Tables 4.2.6.8 and 6.1.1.4'

_symmetry_cell_setting           Trigonal
_symmetry_space_group_name_H-M   P-3

loop_
_symmetry_equiv_pos_as_xyz
'x, y, z'
'-y, x-y, z'
'-x+y, -x, z'
'-x, -y, -z'
'y, -x+y, -z'
'x-y, x, -z'

_cell_length_a                   18.7107(5)
_cell_length_b                   18.7107(5)
_cell_length_c                   18.5675(7)
_cell_angle_alpha                90.00
_cell_angle_beta                 90.00
_cell_angle_gamma                120.00
_cell_volume                     5629.4(3)
_cell_formula_units_Z            6
_cell_measurement_temperature    120(2)
_cell_measurement_reflns_used    10521
_cell_measurement_theta_min      2.4300
_cell_measurement_theta_max      29.8345

_exptl_crystal_description       prism
_exptl_crystal_colour            black
_exptl_crystal_size_max          0.26
_exptl_crystal_size_mid          0.17
_exptl_crystal_size_min          0.04
_exptl_crystal_density_meas      ?
_exptl_crystal_density_diffrn    1.725
_exptl_crystal_density_method    'not measured'
_exptl_crystal_F_000             2936
_exptl_absorpt_coefficient_mu    3.021
_exptl_absorpt_correction_type   multi-scan
_exptl_absorpt_correction_T_min  0.5072
_exptl_absorpt_correction_T_max  0.8887
_exptl_absorpt_process_details   
;
CrysAlisPro, Oxford Diffraction Ltd.,
Version 1.171.33.41 (release 06-05-2009 CrysAlis171 .NET)
(compiled May 6 2009,17:20:42)
Empirical absorption correction using spherical harmonics,
implemented in SCALE3 ABSPACK scaling algorithm.
;
_diffrn_ambient_temperature      120(2)
_diffrn_radiation_wavelength     0.7107
_diffrn_radiation_type           'Mo K\a'
_diffrn_radiation_source         'Enhance (Mo) X-ray Source'
_diffrn_radiation_monochromator  graphite
_diffrn_measurement_device_type  'Xcalibur, Sapphire3, Gemini'
_diffrn_measurement_method       '\w scans'
_diffrn_detector_area_resol_mean 16.067
_diffrn_standards_number         ?
_diffrn_standards_interval_count ?
_diffrn_standards_interval_time  ?
_diffrn_standards_decay_%        ?
_diffrn_reflns_number            67242
_diffrn_reflns_av_R_equivalents  0.0929
_diffrn_reflns_av_sigmaI/netI    0.2041
_diffrn_reflns_limit_h_min       -25
_diffrn_reflns_limit_h_max       25
_diffrn_reflns_limit_k_min       -25
_diffrn_reflns_limit_k_max       25
_diffrn_reflns_limit_l_min       -25
_diffrn_reflns_limit_l_max       25
_diffrn_reflns_theta_min         2.44
_diffrn_reflns_theta_max         29.88
_reflns_number_total             10053
_reflns_number_gt                4294
_reflns_threshold_expression     >2sigma(I)

_computing_data_collection       ?
_computing_cell_refinement       ?
_computing_data_reduction        ?
_computing_structure_solution    ?
_computing_structure_refinement  'SHELXL-97 (Sheldrick, 1997)'
_computing_molecular_graphics    ?
_computing_publication_material  ?

_refine_special_details          
;
Refinement of F^2^ against ALL reflections. The weighted R-factor wR and
goodness of fit S are based on F^2^, conventional R-factors R are based
on F, with F set to zero for negative F^2^. The threshold expression of
F^2^ > 2sigma(F^2^) is used only for calculating R-factors(gt) etc. and is
not relevant to the choice of reflections for refinement. R-factors based
on F^2^ are statistically about twice as large as those based on F, and R-
factors based on ALL data will be even larger.
;

_refine_ls_structure_factor_coef Fsqd
_refine_ls_matrix_type           full
_refine_ls_weighting_scheme      calc
_refine_ls_weighting_details     
'calc w=1/[\s^2^(Fo^2^)+(0.0388P)^2^+0.0000P] where P=(Fo^2^+2Fc^2^)/3'
_atom_sites_solution_primary     direct
_atom_sites_solution_secondary   difmap
_atom_sites_solution_hydrogens   geom
_refine_ls_hydrogen_treatment    constr
_refine_ls_extinction_method     none
_refine_ls_extinction_coef       ?
_refine_ls_number_reflns         10053
_refine_ls_number_parameters     394
_refine_ls_number_restraints     1
_refine_ls_R_factor_all          0.1091
_refine_ls_R_factor_gt           0.0398
_refine_ls_wR_factor_ref         0.0934
_refine_ls_wR_factor_gt          0.0884
_refine_ls_goodness_of_fit_ref   0.784
_refine_ls_restrained_S_all      0.785
_refine_ls_shift/su_max          0.001
_refine_ls_shift/su_mean         0.000

loop_
_atom_site_label
_atom_site_type_symbol
_atom_site_fract_x
_atom_site_fract_y
_atom_site_fract_z
_atom_site_U_iso_or_equiv
_atom_site_adp_type
_atom_site_occupancy
_atom_site_symmetry_multiplicity
_atom_site_calc_flag
_atom_site_refinement_flags
_atom_site_disorder_assembly
_atom_site_disorder_group
C1 C 0.5728(2) 0.0678(2) 0.3660(2) 0.0173(9) Uani 1 1 d . . .
C2 C 0.6236(2) 0.0323(2) 0.3622(2) 0.0188(9) Uani 1 1 d . . .
H2 H 0.6337 0.0153 0.3169 0.023 Uiso 1 1 calc R . .
C3 C 0.6588(2) 0.0220(2) 0.4233(2) 0.0237(10) Uani 1 1 d . . .
C4 C 0.6494(2) 0.0476(2) 0.4902(2) 0.0250(10) Uani 1 1 d . . .
H4 H 0.6760 0.0412 0.5313 0.030 Uiso 1 1 calc R . .
C5 C 0.6002(3) 0.0827(2) 0.4958(2) 0.0281(11) Uani 1 1 d . . .
H5 H 0.5923 0.1003 0.5416 0.034 Uiso 1 1 calc R . .
C6 C 0.5613(2) 0.0930(2) 0.4349(2) 0.0216(10) Uani 1 1 d . . .
C7 C 0.5081(2) 0.1278(2) 0.4459(2) 0.0225(10) Uani 1 1 d . . .
H7 H 0.5085 0.1497 0.4921 0.027 Uiso 1 1 calc R . .
C8 C 0.4117(2) 0.1702(2) 0.4146(2) 0.0274(11) Uani 1 1 d . . .
H8A H 0.4419 0.2292 0.4010 0.033 Uiso 1 1 calc R . .
H8B H 0.3990 0.1658 0.4667 0.033 Uiso 1 1 calc R . .
C9 C 0.3331(2) 0.1237(2) 0.3710(2) 0.0263(10) Uani 1 1 d . . .
H9A H 0.2962 0.0699 0.3940 0.032 Uiso 1 1 calc R . .
H9B H 0.3040 0.1557 0.3697 0.032 Uiso 1 1 calc R . .
C10 C 0.3696(2) 0.1766(2) 0.2440(2) 0.0236(10) Uani 1 1 d . . .
H10A H 0.3346 0.2011 0.2551 0.028 Uiso 1 1 calc R . .
H10B H 0.3562 0.1535 0.1947 0.028 Uiso 1 1 calc R . .
C11 C 0.4604(2) 0.2431(2) 0.2481(2) 0.0248(10) Uani 1 1 d . . .
H11A H 0.4769 0.2756 0.2029 0.030 Uiso 1 1 calc R . .
H11B H 0.4689 0.2810 0.2885 0.030 Uiso 1 1 calc R . .
C12 C 0.5520(2) 0.1957(2) 0.1923(2) 0.0179(9) Uani 1 1 d . . .
H12A H 0.5980 0.1859 0.2043 0.022 Uiso 1 1 calc R . .
H12B H 0.5745 0.2472 0.1638 0.022 Uiso 1 1 calc R . .
C13 C 0.4873(2) 0.1242(2) 0.1493(2) 0.0194(9) Uani 1 1 d . . .
H13A H 0.4493 0.1395 0.1259 0.023 Uiso 1 1 calc R . .
H13B H 0.5135 0.1075 0.1115 0.023 Uiso 1 1 calc R . .
C14 C 0.4118(2) -0.0189(2) 0.1786(2) 0.0195(9) Uani 1 1 d . . .
H14 H 0.4200 -0.0273 0.1296 0.023 Uiso 1 1 calc R . .
C15 C 0.3660(2) -0.0908(2) 0.2239(2) 0.0159(9) Uani 1 1 d . . .
C16 C 0.3363(2) -0.1685(2) 0.1899(2) 0.0224(10) Uani 1 1 d . . .
H16 H 0.3512 -0.1707 0.1414 0.027 Uiso 1 1 calc R . .
C17 C 0.2860(2) -0.2410(2) 0.2263(2) 0.0234(10) Uani 1 1 d . . .
H17 H 0.2678 -0.2931 0.2041 0.028 Uiso 1 1 calc R . .
C18 C 0.2631(2) -0.2356(2) 0.2956(2) 0.0184(9) Uani 1 1 d . . .
C19 C 0.2920(2) -0.1618(2) 0.3323(2) 0.0184(9) Uani 1 1 d . . .
H19 H 0.2757 -0.1612 0.3807 0.022 Uiso 1 1 calc R . .
C20 C 0.3469(2) -0.0863(2) 0.2962(2) 0.0178(9) Uani 1 1 d . . .
C21 C 0.4989(3) 0.2293(2) 0.9625(2) 0.0176(9) Uani 1 1 d . A .
C22 C 0.5010(3) 0.2775(2) 1.0313(2) 0.0186(9) Uani 1 1 d . A .
C23 C 0.2743(2) 0.0059(3) 1.0361(2) 0.0211(10) Uani 1 1 d . A .
C24 C 0.2311(2) 0.0054(3) 0.9650(2) 0.0235(10) Uani 1 1 d . A .
N1 N 0.46074(18) 0.13095(18) 0.39769(18) 0.0181(8) Uani 1 1 d . . .
N2 N 0.35236(19) 0.11011(18) 0.29611(18) 0.0216(8) Uani 1 1 d . . .
H2A H 0.3070 0.0621 0.2791 0.026 Uiso 1 1 calc R . .
N3 N 0.51317(18) 0.20351(18) 0.25922(17) 0.0181(8) Uani 1 1 d . . .
H3 H 0.5549 0.2357 0.2916 0.022 Uiso 1 1 calc R . .
N4 N 0.44200(17) 0.05606(19) 0.20118(17) 0.0160(7) Uani 1 1 d . . .
O1 O 0.54174(15) 0.07779(15) 0.30594(14) 0.0179(6) Uani 1 1 d . . .
O2 O 0.37272(15) -0.01773(15) 0.33338(14) 0.0208(6) Uani 1 1 d . . .
O3 O 0.42920(17) 0.17913(16) 0.93805(15) 0.0260(7) Uani 1 1 d . . .
O4 O 0.43217(16) 0.25987(15) 1.05794(14) 0.0233(7) Uani 1 1 d . . .
O5 O 0.56755(17) 0.24610(15) 0.93663(14) 0.0232(7) Uani 1 1 d . . .
O6 O 0.57045(16) 0.32759(15) 1.05584(14) 0.0218(6) Uani 1 1 d . . .
O7 O 0.32278(16) 0.07666(17) 1.06168(15) 0.0270(7) Uani 1 1 d . . .
O8 O 0.24701(16) 0.07352(17) 0.93921(16) 0.0316(8) Uani 1 1 d . . .
O9 O 0.24796(16) 0.18339(16) 1.06188(15) 0.0300(7) Uani 1 1 d . . .
O10 O 0.32056(16) 0.25878(16) 0.93874(15) 0.0266(7) Uani 1 1 d . . .
Mn1 Mn 0.33303(4) 0.17226(4) 0.99867(4) 0.02194(16) Uani 0.50 1 d P A 1
Cr1 Cr 0.33303(4) 0.17226(4) 0.99867(4) 0.02194(16) Uani 0.50 1 d P A 2
Mn2 Mn 0.6667 0.3333 0.99462(6) 0.0164(2) Uani 0.50 3 d SP . 3
Cr2 Cr 0.6667 0.3333 0.99462(6) 0.0164(2) Uani 0.50 3 d SP . 4
Fe Fe 0.44747(3) 0.08972(3) 0.30038(3) 0.01628(14) Uani 1 1 d . . .
Cl Cl 0.6667 0.3333 0.35244(9) 0.0217(4) Uani 1 3 d S . .
Br1 Br 0.72335(3) -0.03053(3) 0.41509(3) 0.03894(14) Uani 1 1 d . . .
Br2 Br 0.18837(3) -0.33438(3) 0.34428(3) 0.03803(14) Uani 1 1 d . . .
O1M O 0.7733(3) -0.2021(3) 0.2378(3) 0.1181(17) Uiso 1 1 d D . .
C1M C 0.7355(4) -0.1563(4) 0.2411(3) 0.0775(19) Uiso 1 1 d D . .
H101 H 0.6961 -0.1756 0.2811 0.116 Uiso 1 1 calc R . .
H102 H 0.7062 -0.1619 0.1958 0.116 Uiso 1 1 calc R . .
H103 H 0.7770 -0.0982 0.2487 0.116 Uiso 1 1 calc R . .

loop_
_atom_site_aniso_label
_atom_site_aniso_U_11
_atom_site_aniso_U_22
_atom_site_aniso_U_33
_atom_site_aniso_U_23
_atom_site_aniso_U_13
_atom_site_aniso_U_12
C1 0.019(2) 0.009(2) 0.013(3) 0.0012(17) -0.0029(18) -0.0007(18)
C2 0.020(2) 0.018(2) 0.020(3) 0.0031(18) 0.0028(19) 0.0108(19)
C3 0.022(2) 0.015(2) 0.032(3) 0.002(2) -0.003(2) 0.0071(19)
C4 0.027(2) 0.026(2) 0.014(3) 0.008(2) -0.0068(19) 0.007(2)
C5 0.031(3) 0.025(2) 0.018(3) 0.002(2) -0.003(2) 0.006(2)
C6 0.023(2) 0.013(2) 0.020(3) 0.0023(18) 0.000(2) 0.0029(18)
C7 0.030(2) 0.015(2) 0.017(3) -0.0037(18) 0.006(2) 0.007(2)
C8 0.030(3) 0.024(2) 0.027(3) -0.004(2) 0.007(2) 0.013(2)
C9 0.029(3) 0.026(2) 0.028(3) 0.001(2) 0.009(2) 0.017(2)
C10 0.019(2) 0.019(2) 0.034(3) 0.003(2) -0.001(2) 0.011(2)
C11 0.027(2) 0.015(2) 0.032(3) 0.0069(19) 0.004(2) 0.010(2)
C12 0.017(2) 0.020(2) 0.018(2) 0.0061(18) 0.0047(18) 0.0101(19)
C13 0.028(2) 0.017(2) 0.010(2) 0.0049(18) 0.0037(18) 0.0085(19)
C14 0.020(2) 0.024(2) 0.015(2) -0.0018(19) 0.0010(18) 0.011(2)
C15 0.020(2) 0.020(2) 0.009(2) -0.0022(18) -0.0009(17) 0.0109(19)
C16 0.026(2) 0.023(2) 0.018(3) -0.0031(19) 0.0013(19) 0.012(2)
C17 0.025(2) 0.016(2) 0.024(3) -0.0056(19) -0.001(2) 0.0058(19)
C18 0.020(2) 0.014(2) 0.018(3) 0.0083(18) 0.0032(18) 0.0065(18)
C19 0.027(2) 0.014(2) 0.017(2) 0.0034(18) 0.0058(19) 0.0113(19)
C20 0.017(2) 0.014(2) 0.022(3) -0.0020(19) -0.0048(18) 0.0074(18)
C21 0.030(3) 0.009(2) 0.015(2) 0.0027(18) -0.002(2) 0.011(2)
C22 0.032(3) 0.011(2) 0.015(3) 0.0019(18) -0.003(2) 0.013(2)
C23 0.014(2) 0.027(3) 0.027(3) -0.003(2) -0.002(2) 0.014(2)
C24 0.014(2) 0.030(3) 0.028(3) -0.001(2) -0.003(2) 0.012(2)
N1 0.0161(18) 0.0144(17) 0.022(2) -0.0011(15) 0.0003(16) 0.0062(15)
N2 0.0191(18) 0.0149(18) 0.025(2) 0.0007(16) 0.0014(16) 0.0044(15)
N3 0.0106(17) 0.0193(18) 0.023(2) -0.0027(15) -0.0019(15) 0.0060(15)
N4 0.0158(17) 0.0170(18) 0.013(2) 0.0015(15) -0.0018(14) 0.0067(15)
O1 0.0212(15) 0.0218(15) 0.0122(16) 0.0009(12) -0.0022(12) 0.0119(13)
O2 0.0286(16) 0.0134(14) 0.0185(17) 0.0009(12) 0.0035(13) 0.0090(13)
O3 0.0353(18) 0.0234(16) 0.0227(18) -0.0062(13) -0.0083(14) 0.0173(15)
O4 0.0279(17) 0.0216(16) 0.0225(18) 0.0005(13) 0.0066(14) 0.0139(14)
O5 0.0322(17) 0.0261(16) 0.0170(17) -0.0026(13) 0.0015(14) 0.0189(14)
O6 0.0315(17) 0.0182(15) 0.0149(17) -0.0052(12) -0.0026(13) 0.0120(14)
O7 0.0229(16) 0.0351(18) 0.0263(19) -0.0098(14) -0.0105(14) 0.0169(15)
O8 0.0289(17) 0.0313(18) 0.036(2) 0.0094(15) -0.0103(14) 0.0162(15)
O9 0.0309(17) 0.0256(17) 0.034(2) 0.0157(14) 0.0085(14) 0.0143(14)
O10 0.0219(16) 0.0293(17) 0.0254(19) -0.0008(14) 0.0067(13) 0.0104(14)
Mn1 0.0168(3) 0.0167(3) 0.0324(4) -0.0003(3) -0.0011(3) 0.0084(3)
Cr1 0.0168(3) 0.0167(3) 0.0324(4) -0.0003(3) -0.0011(3) 0.0084(3)
Mn2 0.0166(4) 0.0166(4) 0.0159(7) 0.000 0.000 0.00830(18)
Cr2 0.0166(4) 0.0166(4) 0.0159(7) 0.000 0.000 0.00830(18)
Fe 0.0175(3) 0.0139(3) 0.0156(3) 0.0003(2) 0.0007(3) 0.0065(3)
Cl 0.0226(6) 0.0226(6) 0.0198(11) 0.000 0.000 0.0113(3)
Br1 0.0418(3) 0.0396(3) 0.0456(3) 0.0074(2) -0.0053(2) 0.0279(3)
Br2 0.0507(3) 0.0149(2) 0.0346(3) 0.0032(2) 0.0156(2) 0.0060(2)

_geom_special_details            
;
All esds (except the esd in the dihedral angle between two l.s. planes)
are estimated using the full covariance matrix. The cell esds are taken
into account individually in the estimation of esds in distances, angles
and torsion angles; correlations between esds in cell parameters are only
used when they are defined by crystal symmetry. An approximate (isotropic)
treatment of cell esds is used for estimating esds involving l.s. planes.
;

loop_
_geom_bond_atom_site_label_1
_geom_bond_atom_site_label_2
_geom_bond_distance
_geom_bond_site_symmetry_2
_geom_bond_publ_flag
C1 O1 1.314(4) . ?
C1 C2 1.408(5) . ?
C1 C6 1.415(5) . ?
C2 C3 1.373(5) . ?
C2 H2 0.9500 . ?
C3 C4 1.373(6) . ?
C3 Br1 1.906(4) . ?
C4 C5 1.376(5) . ?
C4 H4 0.9500 . ?
C5 C6 1.410(5) . ?
C5 H5 0.9500 . ?
C6 C7 1.450(5) . ?
C7 N1 1.282(5) . ?
C7 H7 0.9500 . ?
C8 N1 1.468(5) . ?
C8 C9 1.515(5) . ?
C8 H8A 0.9900 . ?
C8 H8B 0.9900 . ?
C9 N2 1.490(5) . ?
C9 H9A 0.9900 . ?
C9 H9B 0.9900 . ?
C10 N2 1.479(5) . ?
C10 C11 1.525(5) . ?
C10 H10A 0.9900 . ?
C10 H10B 0.9900 . ?
C11 N3 1.515(5) . ?
C11 H11A 0.9900 . ?
C11 H11B 0.9900 . ?
C12 N3 1.484(5) . ?
C12 C13 1.508(5) . ?
C12 H12A 0.9900 . ?
C12 H12B 0.9900 . ?
C13 N4 1.481(4) . ?
C13 H13A 0.9900 . ?
C13 H13B 0.9900 . ?
C14 N4 1.292(4) . ?
C14 C15 1.449(5) . ?
C14 H14 0.9500 . ?
C15 C20 1.403(5) . ?
C15 C16 1.418(5) . ?
C16 C17 1.380(5) . ?
C16 H16 0.9500 . ?
C17 C18 1.377(5) . ?
C17 H17 0.9500 . ?
C18 C19 1.385(5) . ?
C18 Br2 1.898(4) . ?
C19 C20 1.431(5) . ?
C19 H19 0.9500 . ?
C20 O2 1.318(4) . ?
C21 O3 1.251(4) . ?
C21 O5 1.255(4) . ?
C21 C22 1.552(5) . ?
C22 O6 1.248(4) . ?
C22 O4 1.260(4) . ?
C23 O10 1.239(4) 5_557 ?
C23 O7 1.265(5) . ?
C23 C24 1.546(6) . ?
C24 O8 1.251(5) . ?
C24 O9 1.261(5) 5_557 ?
N1 Fe 1.931(3) . ?
N2 Fe 1.999(3) . ?
N2 H2A 0.9300 . ?
N3 Fe 2.003(3) . ?
N3 H3 0.9300 . ?
N4 Fe 1.933(3) . ?
O1 Fe 1.888(2) . ?
O2 Fe 1.887(2) . ?
O3 Mn1 2.071(3) . ?
O4 Mn1 2.073(3) . ?
O5 Mn2 2.058(3) . ?
O6 Mn2 2.086(3) . ?
O7 Mn1 2.064(3) . ?
O8 Mn1 2.061(3) . ?
O9 C24 1.261(5) 6_557 ?
O9 Mn1 2.070(3) . ?
O10 C23 1.239(4) 6_557 ?
O10 Mn1 2.072(3) . ?
Mn2 O5 2.058(3) 2_655 ?
Mn2 O5 2.058(3) 3_665 ?
Mn2 O6 2.086(3) 2_655 ?
Mn2 O6 2.086(3) 3_665 ?
O1M C1M 1.359(6) . ?
C1M H101 0.9800 . ?
C1M H102 0.9800 . ?
C1M H103 0.9800 . ?

loop_
_geom_angle_atom_site_label_1
_geom_angle_atom_site_label_2
_geom_angle_atom_site_label_3
_geom_angle
_geom_angle_site_symmetry_1
_geom_angle_site_symmetry_3
_geom_angle_publ_flag
O1 C1 C2 118.4(3) . . ?
O1 C1 C6 124.6(4) . . ?
C2 C1 C6 117.0(4) . . ?
C3 C2 C1 120.6(4) . . ?
C3 C2 H2 119.7 . . ?
C1 C2 H2 119.7 . . ?
C2 C3 C4 122.9(4) . . ?
C2 C3 Br1 118.6(3) . . ?
C4 C3 Br1 118.5(3) . . ?
C3 C4 C5 118.0(4) . . ?
C3 C4 H4 121.0 . . ?
C5 C4 H4 121.0 . . ?
C4 C5 C6 121.2(4) . . ?
C4 C5 H5 119.4 . . ?
C6 C5 H5 119.4 . . ?
C5 C6 C1 120.3(4) . . ?
C5 C6 C7 117.7(4) . . ?
C1 C6 C7 121.9(4) . . ?
N1 C7 C6 124.7(4) . . ?
N1 C7 H7 117.7 . . ?
C6 C7 H7 117.7 . . ?
N1 C8 C9 105.6(3) . . ?
N1 C8 H8A 110.6 . . ?
C9 C8 H8A 110.6 . . ?
N1 C8 H8B 110.6 . . ?
C9 C8 H8B 110.6 . . ?
H8A C8 H8B 108.7 . . ?
N2 C9 C8 110.4(3) . . ?
N2 C9 H9A 109.6 . . ?
C8 C9 H9A 109.6 . . ?
N2 C9 H9B 109.6 . . ?
C8 C9 H9B 109.6 . . ?
H9A C9 H9B 108.1 . . ?
N2 C10 C11 109.8(3) . . ?
N2 C