####################################################################### 
# 
# This file contains crystal structure data downloaded from the 
# Cambridge Structural Database (CSD) hosted by the Cambridge 
# Crystallographic Data Centre (CCDC).
# 
# Full information about CCDC data access policies and citation 
# guidelines are available at http://www.ccdc.cam.ac.uk/access/V1 
# 
# Audit and citation data items may have been added by the CCDC. 
# Please retain this information to preserve the provenance of 
# this file and to allow appropriate attribution of the data. 
# 
#######################################################################

data_compound8a
_audit_block_doi                 10.5517/ccz5vwv
_database_code_depnum_ccdc_archive 'CCDC 899368'
loop_
_citation_id
_citation_doi
_citation_year
1 10.1002/chem.201203133 2013
_audit_update_record             
;
2012-08-31 deposited with the CCDC.	2024-07-14 downloaded from the CCDC.
;
#TrackingRef 'ChemEurJ.cif'


_audit_creation_method           SHELXL-97
_chemical_name_systematic        
;
?
;
_chemical_name_common            ?
_chemical_melting_point          ?
_chemical_formula_moiety         ?
_chemical_formula_sum            'C36 H26 Cd N8'
_chemical_formula_weight         683.05

loop_
_atom_type_symbol
_atom_type_description
_atom_type_scat_dispersion_real
_atom_type_scat_dispersion_imag
_atom_type_scat_source
C C 0.0033 0.0016 'International Tables Vol C Tables 4.2.6.8 and 6.1.1.4'
H H 0.0000 0.0000 'International Tables Vol C Tables 4.2.6.8 and 6.1.1.4'
N N 0.0061 0.0033 'International Tables Vol C Tables 4.2.6.8 and 6.1.1.4'
Cd Cd -0.8075 1.2024 'International Tables Vol C Tables 4.2.6.8 and 6.1.1.4'

_symmetry_cell_setting           Monoclinic
_symmetry_space_group_name_H-M   'Cc '

loop_
_symmetry_equiv_pos_as_xyz
'x, y, z'
'x, -y, z+1/2'
'x+1/2, y+1/2, z'
'x+1/2, -y+1/2, z+1/2'

_cell_length_a                   24.6972(5)
_cell_length_b                   9.6072(2)
_cell_length_c                   18.2223(4)
_cell_angle_alpha                90.00
_cell_angle_beta                 107.7100(10)
_cell_angle_gamma                90.00
_cell_volume                     4118.72(15)
_cell_formula_units_Z            4
_cell_measurement_temperature    173(2)
_cell_measurement_reflns_used    9954
_cell_measurement_theta_min      2.29
_cell_measurement_theta_max      29.87

_exptl_crystal_description       plate
_exptl_crystal_colour            orange
_exptl_crystal_size_max          0.50
_exptl_crystal_size_mid          0.25
_exptl_crystal_size_min          0.04
_exptl_crystal_density_meas      'not measured'
_exptl_crystal_density_diffrn    1.102
_exptl_crystal_density_method    'not measured'
_exptl_crystal_F_000             1384
_exptl_absorpt_coefficient_mu    0.560
_exptl_absorpt_correction_type   multi-scan
_exptl_absorpt_correction_T_min  0.7671
_exptl_absorpt_correction_T_max  0.9779
_exptl_absorpt_process_details   sadabs

_exptl_special_details           
;
The structure contains three highly disordered DMSO
molecules. Owing to the high disorder, the SQUEEZE
command was applied.
;

_diffrn_ambient_temperature      173(2)
_diffrn_radiation_wavelength     0.71073
_diffrn_radiation_type           MoK\a
_diffrn_radiation_source         'fine-focus sealed tube'
_diffrn_radiation_monochromator  graphite
_diffrn_measurement_device_type  'Bruker APEX-II CCD'
_diffrn_measurement_method       '\f and \w scans'
_diffrn_detector_area_resol_mean ?
_diffrn_standards_number         ?
_diffrn_standards_interval_count ?
_diffrn_standards_interval_time  ?
_diffrn_standards_decay_%        ?
_diffrn_reflns_number            67813
_diffrn_reflns_av_R_equivalents  0.0318
_diffrn_reflns_av_sigmaI/netI    0.0268
_diffrn_reflns_limit_h_min       -34
_diffrn_reflns_limit_h_max       34
_diffrn_reflns_limit_k_min       -13
_diffrn_reflns_limit_k_max       13
_diffrn_reflns_limit_l_min       -25
_diffrn_reflns_limit_l_max       25
_diffrn_reflns_theta_min         2.29
_diffrn_reflns_theta_max         30.11
_reflns_number_total             11739
_reflns_number_gt                11208
_reflns_threshold_expression     >2sigma(I)

_computing_data_collection       'Bruker APEX2'
_computing_cell_refinement       'Bruker SAINT'
_computing_data_reduction        'Bruker SAINT'

_computing_structure_solution    'SHELXS-97 (Sheldrick, 2008)'
_computing_structure_refinement  'SHELXL-97 (Sheldrick, 2008)'
_computing_molecular_graphics    'Bruker SHELXTL'
_computing_publication_material  'Bruker SHELXTL'

_refine_special_details          
;
Refinement of F^2^ against ALL reflections. The weighted R-factor wR and
goodness of fit S are based on F^2^, conventional R-factors R are based
on F, with F set to zero for negative F^2^. The threshold expression of
F^2^ > 2sigma(F^2^) is used only for calculating R-factors(gt) etc. and is
not relevant to the choice of reflections for refinement. R-factors based
on F^2^ are statistically about twice as large as those based on F, and R-
factors based on ALL data will be even larger.
;

_refine_ls_structure_factor_coef Fsqd
_refine_ls_matrix_type           full
_refine_ls_weighting_scheme      calc
_refine_ls_weighting_details     
'calc w=1/[\s^2^(Fo^2^)+(0.0438P)^2^+0.8794P] where P=(Fo^2^+2Fc^2^)/3'
_atom_sites_solution_primary     direct
_atom_sites_solution_secondary   difmap
_atom_sites_solution_hydrogens   geom
_refine_ls_hydrogen_treatment    constr
_refine_ls_extinction_method     none
_refine_ls_extinction_coef       ?
_refine_ls_abs_structure_details 'Flack H D (1983), Acta Cryst. A39, 876-881'
_refine_ls_abs_structure_Flack   0.043(12)
_refine_ls_number_reflns         11739
_refine_ls_number_parameters     406
_refine_ls_number_restraints     2
_refine_ls_R_factor_all          0.0284
_refine_ls_R_factor_gt           0.0269
_refine_ls_wR_factor_ref         0.0710
_refine_ls_wR_factor_gt          0.0703
_refine_ls_goodness_of_fit_ref   1.048
_refine_ls_restrained_S_all      1.048
_refine_ls_shift/su_max          0.001
_refine_ls_shift/su_mean         0.000

loop_
_platon_squeeze_void_nr
_platon_squeeze_void_average_x
_platon_squeeze_void_average_y
_platon_squeeze_void_average_z
_platon_squeeze_void_volume
_platon_squeeze_void_count_electrons
_platon_squeeze_void_content
1 0.195 -0.264 -0.171 709 245 ' '
2 0.578 -0.119 0.329 709 245 ' '
_platon_squeeze_details          
;
;

loop_
_atom_site_label
_atom_site_type_symbol
_atom_site_fract_x
_atom_site_fract_y
_atom_site_fract_z
_atom_site_U_iso_or_equiv
_atom_site_adp_type
_atom_site_occupancy
_atom_site_symmetry_multiplicity
_atom_site_calc_flag
_atom_site_refinement_flags
_atom_site_disorder_assembly
_atom_site_disorder_group
C1 C 0.53183(12) 0.4619(4) 0.25220(17) 0.0416(6) Uani 1 1 d . . .
H1 H 0.4978 0.5047 0.2509 0.050 Uiso 1 1 calc R . .
C2 C 0.57528(18) 0.4300(4) 0.3207(2) 0.0520(11) Uani 1 1 d . . .
H2 H 0.5751 0.4471 0.3709 0.062 Uiso 1 1 calc R . .
C3 C 0.61720(13) 0.3693(4) 0.29858(18) 0.0443(7) Uani 1 1 d . . .
H3 H 0.6515 0.3359 0.3309 0.053 Uiso 1 1 calc R . .
C4 C 0.59894(10) 0.3661(3) 0.21604(15) 0.0321(5) Uani 1 1 d . . .
C5 C 0.62907(8) 0.3055(2) 0.17002(13) 0.0317(4) Uani 1 1 d . . .
C6 C 0.61000(10) 0.2849(2) 0.09032(14) 0.0302(5) Uani 1 1 d . . .
C7 C 0.64295(11) 0.2322(3) 0.04354(15) 0.0445(6) Uani 1 1 d . . .
H7 H 0.6810 0.2063 0.0610 0.053 Uiso 1 1 calc R . .
C8 C 0.60962(12) 0.2268(4) -0.02904(15) 0.0506(7) Uani 1 1 d . . .
H8 H 0.6198 0.1962 -0.0715 0.061 Uiso 1 1 calc R . .
C9 C 0.55506(10) 0.2771(3) -0.02913(14) 0.0370(5) Uani 1 1 d . . .
H9 H 0.5237 0.2856 -0.0728 0.044 Uiso 1 1 calc R . .
C10 C 0.68811(9) 0.2546(3) 0.21118(13) 0.0336(5) Uani 1 1 d . . .
C11 C 0.70235(10) 0.1161(3) 0.20785(14) 0.0391(5) Uani 1 1 d . . .
H11 H 0.6754 0.0548 0.1781 0.047 Uiso 1 1 calc R . .
C12 C 0.75531(11) 0.0673(3) 0.24749(15) 0.0394(6) Uani 1 1 d . . .
H12 H 0.7633 -0.0273 0.2479 0.047 Uiso 1 1 calc R . .
C13 C 0.79638(9) 0.1598(3) 0.28660(12) 0.0323(4) Uani 1 1 d . . .
C14 C 0.78431(10) 0.2989(3) 0.28788(14) 0.0362(5) Uani 1 1 d . . .
H14 H 0.8124 0.3613 0.3137 0.043 Uiso 1 1 calc R . .
C15 C 0.73005(9) 0.3455(3) 0.25055(15) 0.0376(5) Uani 1 1 d . . .
H15 H 0.7217 0.4397 0.2520 0.045 Uiso 1 1 calc R . .
C16 C 0.87967(10) 0.1400(3) 0.40339(13) 0.0307(5) Uani 1 1 d . . .
H16 H 0.8666 0.2020 0.4333 0.037 Uiso 1 1 calc R . .
C17 C 0.93114(11) -0.0065(3) 0.36650(15) 0.0349(6) Uani 1 1 d . . .
H17 H 0.9609 -0.0662 0.3671 0.042 Uiso 1 1 calc R . .
C18 C 0.88557(13) 0.0189(4) 0.30396(17) 0.0446(8) Uani 1 1 d . . .
H18 H 0.8783 -0.0187 0.2549 0.054 Uiso 1 1 calc R . .
C19 C 0.41212(9) 0.6823(2) 0.11894(13) 0.0308(4) Uani 1 1 d . . .
H19 H 0.4439 0.7392 0.1278 0.037 Uiso 1 1 calc R . .
C20 C 0.35891(10) 0.7282(2) 0.12534(15) 0.0328(5) Uani 1 1 d . . .
H20 H 0.3496 0.8169 0.1381 0.039 Uiso 1 1 calc R . .
C21 C 0.32401(9) 0.6125(2) 0.10858(12) 0.0260(4) Uani 1 1 d . . .
H21 H 0.2863 0.6080 0.1080 0.031 Uiso 1 1 calc R . .
C22 C 0.35687(8) 0.5012(2) 0.09235(11) 0.0223(3) Uani 1 1 d . . .
C23 C 0.33789(8) 0.3623(2) 0.07682(11) 0.0226(4) Uani 1 1 d . . .
C24 C 0.36887(9) 0.2465(2) 0.06659(13) 0.0247(4) Uani 1 1 d . . .
C25 C 0.34592(10) 0.1103(2) 0.04517(14) 0.0349(5) Uani 1 1 d . . .
H25 H 0.3089 0.0812 0.0392 0.042 Uiso 1 1 calc R . .
C26 C 0.38997(11) 0.0302(3) 0.03508(18) 0.0428(6) Uani 1 1 d . . .
H26 H 0.3886 -0.0628 0.0205 0.051 Uiso 1 1 calc R . .
C27 C 0.43773(10) 0.1212(2) 0.05190(15) 0.0358(5) Uani 1 1 d . . .
H27 H 0.4734 0.0943 0.0498 0.043 Uiso 1 1 calc R . .
C28 C 0.27632(8) 0.3382(2) 0.06654(12) 0.0254(4) Uani 1 1 d . . .
C29 C 0.25965(9) 0.2640(2) 0.12161(12) 0.0293(4) Uani 1 1 d . . .
H29 H 0.2870 0.2310 0.1654 0.035 Uiso 1 1 calc R . .
C30 C 0.20219(9) 0.2390(2) 0.11158(13) 0.0333(5) Uani 1 1 d . . .
H30 H 0.1912 0.1905 0.1489 0.040 Uiso 1 1 calc R . .
C31 C 0.16138(8) 0.2869(2) 0.04547(12) 0.0258(4) Uani 1 1 d . . .
C32 C 0.17761(8) 0.3620(2) -0.00973(12) 0.0309(4) Uani 1 1 d . . .
H32 H 0.1505 0.3943 -0.0539 0.037 Uiso 1 1 calc R . .
C33 C 0.23530(9) 0.3882(2) 0.00245(13) 0.0311(4) Uani 1 1 d . . .
H33 H 0.2463 0.4405 -0.0335 0.037 Uiso 1 1 calc R . .
C34 C 0.08238(9) 0.1401(2) 0.05464(15) 0.0354(5) Uani 1 1 d . . .
H34 H 0.1049 0.0654 0.0784 0.042 Uiso 1 1 calc R . .
C35 C 0.01041(9) 0.2687(3) 0.00283(16) 0.0379(5) Uani 1 1 d . . .
H35 H -0.0269 0.3003 -0.0155 0.045 Uiso 1 1 calc R . .
C36 C 0.05721(9) 0.3431(3) 0.00008(16) 0.0378(5) Uani 1 1 d . . .
H36 H 0.0578 0.4312 -0.0208 0.045 Uiso 1 1 calc R . .
N1 N 0.54527(13) 0.4236(2) 0.18956(18) 0.0335(6) Uani 1 1 d . . .
N2 N 0.55553(7) 0.3101(2) 0.04205(11) 0.0287(4) Uani 1 1 d . . .
N3 N 0.85235(9) 0.1122(3) 0.32841(11) 0.0286(4) Uani 1 1 d . . .
N4 N 0.92701(12) 0.0684(2) 0.42853(16) 0.0301(6) Uani 1 1 d . . .
N5 N 0.41128(7) 0.54926(18) 0.09895(11) 0.0252(3) Uani 1 1 d . . .
N6 N 0.42599(7) 0.24817(19) 0.07082(10) 0.0254(3) Uani 1 1 d . . .
N7 N 0.10288(8) 0.2595(2) 0.03490(13) 0.0302(4) Uani 1 1 d . . .
N8 N 0.02621(7) 0.1424(2) 0.03602(11) 0.0304(4) Uani 1 1 d . . .
Cd1 Cd 0.482541(6) 0.435010(12) 0.066286(7) 0.02274(4) Uani 1 1 d . . .

loop_
_atom_site_aniso_label
_atom_site_aniso_U_11
_atom_site_aniso_U_22
_atom_site_aniso_U_33
_atom_site_aniso_U_23
_atom_site_aniso_U_13
_atom_site_aniso_U_12
C1 0.0213(12) 0.0645(18) 0.0352(14) 0.0049(12) 0.0030(11) 0.0066(12)
C2 0.0388(18) 0.092(3) 0.0225(13) 0.0063(13) 0.0047(12) -0.0044(15)
C3 0.0270(14) 0.066(2) 0.0352(15) 0.0001(14) 0.0025(12) 0.0074(14)
C4 0.0191(11) 0.0407(12) 0.0339(12) 0.0049(10) 0.0041(9) -0.0003(9)
C5 0.0157(9) 0.0416(11) 0.0317(10) -0.0001(9) -0.0019(8) 0.0011(8)
C6 0.0182(10) 0.0334(12) 0.0350(12) 0.0018(9) 0.0025(9) 0.0044(8)
C7 0.0242(11) 0.0667(17) 0.0416(13) 0.0053(12) 0.0085(10) 0.0205(11)
C8 0.0401(14) 0.077(2) 0.0359(12) -0.0039(12) 0.0130(11) 0.0198(13)
C9 0.0242(10) 0.0470(13) 0.0352(11) -0.0006(10) 0.0019(9) 0.0056(9)
C10 0.0197(10) 0.0456(12) 0.0298(10) 0.0020(9) -0.0008(8) 0.0117(9)
C11 0.0247(11) 0.0457(13) 0.0369(12) -0.0072(10) -0.0054(9) 0.0055(10)
C12 0.0272(12) 0.0476(14) 0.0338(12) -0.0096(9) -0.0049(10) 0.0179(10)
C13 0.0199(9) 0.0487(13) 0.0240(9) 0.0002(8) 0.0000(8) 0.0126(8)
C14 0.0207(10) 0.0440(12) 0.0368(11) 0.0031(10) -0.0020(9) 0.0056(9)
C15 0.0189(10) 0.0421(12) 0.0453(13) 0.0016(10) 0.0003(9) 0.0042(9)
C16 0.0202(11) 0.0458(13) 0.0238(10) -0.0043(9) 0.0032(9) 0.0038(9)
C17 0.0237(11) 0.0467(15) 0.0317(12) 0.0016(11) 0.0049(10) 0.0124(11)
C18 0.0237(13) 0.080(2) 0.0252(12) -0.0063(14) 0.0000(10) 0.0245(15)
C19 0.0217(10) 0.0309(10) 0.0384(11) -0.0020(9) 0.0071(9) -0.0064(8)
C20 0.0277(11) 0.0267(10) 0.0463(13) -0.0047(9) 0.0147(10) 0.0000(8)
C21 0.0186(9) 0.0269(9) 0.0341(10) 0.0015(8) 0.0103(8) 0.0015(7)
C22 0.0127(8) 0.0258(9) 0.0278(9) 0.0024(7) 0.0054(7) 0.0003(7)
C23 0.0127(8) 0.0299(10) 0.0252(9) 0.0038(7) 0.0057(7) -0.0035(7)
C24 0.0182(10) 0.0231(9) 0.0335(11) 0.0030(8) 0.0091(8) -0.0026(7)
C25 0.0319(12) 0.0267(10) 0.0486(13) 0.0005(9) 0.0158(10) -0.0052(9)
C26 0.0363(13) 0.0228(10) 0.0699(18) -0.0025(11) 0.0170(13) -0.0006(9)
C27 0.0279(11) 0.0308(11) 0.0498(13) 0.0039(10) 0.0132(10) 0.0016(9)
C28 0.0178(8) 0.0272(9) 0.0320(10) 0.0013(7) 0.0087(8) -0.0065(7)
C29 0.0164(9) 0.0405(11) 0.0276(9) 0.0054(8) 0.0017(8) -0.0097(8)
C30 0.0199(10) 0.0420(12) 0.0380(11) 0.0097(9) 0.0089(9) -0.0075(8)
C31 0.0141(8) 0.0299(9) 0.0331(10) 0.0000(8) 0.0067(8) -0.0066(7)
C32 0.0150(9) 0.0418(12) 0.0306(10) 0.0131(9) -0.0009(8) -0.0057(8)
C33 0.0207(10) 0.0378(11) 0.0355(11) 0.0099(9) 0.0097(9) -0.0071(8)
C34 0.0173(10) 0.0355(11) 0.0507(13) 0.0146(10) 0.0065(10) -0.0037(8)
C35 0.0161(9) 0.0405(12) 0.0583(15) 0.0080(10) 0.0131(10) -0.0015(8)
C36 0.0203(10) 0.0342(11) 0.0565(14) 0.0115(10) 0.0081(10) 0.0014(8)
N1 0.0250(13) 0.0413(12) 0.0307(13) -0.0009(8) 0.0031(10) 0.0052(8)
N2 0.0135(8) 0.0368(9) 0.0327(9) 0.0015(8) 0.0028(7) -0.0001(7)
N3 0.0227(10) 0.0423(10) 0.0149(8) -0.0002(8) -0.0027(8) 0.0112(9)
N4 0.0171(11) 0.0426(13) 0.0234(11) -0.0068(7) -0.0046(9) 0.0079(7)
N5 0.0141(8) 0.0303(9) 0.0298(8) -0.0009(7) 0.0044(7) -0.0046(6)
N6 0.0148(8) 0.0282(8) 0.0311(9) 0.0062(7) 0.0040(7) -0.0002(6)
N7 0.0150(8) 0.0313(10) 0.0441(11) 0.0057(8) 0.0085(8) -0.0041(7)
N8 0.0133(8) 0.0383(9) 0.0380(9) 0.0045(8) 0.0051(7) -0.0078(7)
Cd1 0.01029(5) 0.02943(6) 0.02646(6) 0.00315(7) 0.00252(4) -0.00156(7)

_geom_special_details            
;
All esds (except the esd in the dihedral angle between two l.s. planes)
are estimated using the full covariance matrix. The cell esds are taken
into account individually in the estimation of esds in distances, angles
and torsion angles; correlations between esds in cell parameters are only
used when they are defined by crystal symmetry. An approximate (isotropic)
treatment of cell esds is used for estimating esds involving l.s. planes.
;

loop_
_geom_bond_atom_site_label_1
_geom_bond_atom_site_label_2
_geom_bond_distance
_geom_bond_site_symmetry_2
_geom_bond_publ_flag
C1 N1 1.334(4) . ?
C1 C2 1.410(5) . ?
C1 H1 0.9300 . ?
C2 C3 1.352(5) . ?
C2 H2 0.9300 . ?
C3 C4 1.433(4) . ?
C3 H3 0.9300 . ?
C4 N1 1.381(4) . ?
C4 C5 1.406(3) . ?
C5 C6 1.398(3) . ?
C5 C10 1.504(3) . ?
C6 N2 1.386(3) . ?
C6 C7 1.438(3) . ?
C7 C8 1.329(4) . ?
C7 H7 0.9300 . ?
C8 C9 1.431(3) . ?
C8 H8 0.9300 . ?
C9 N2 1.332(3) . ?
C9 H9 0.9300 . ?
C10 C15 1.378(4) . ?
C10 C11 1.382(3) . ?
C11 C12 1.370(3) . ?
C11 H11 0.9300 . ?
C12 C13 1.373(4) . ?
C12 H12 0.9300 . ?
C13 C14 1.371(3) . ?
C13 N3 1.435(3) . ?
C14 C15 1.380(3) . ?
C14 H14 0.9300 . ?
C15 H15 0.9300 . ?
C16 N4 1.313(4) . ?
C16 N3 1.354(3) . ?
C16 H16 0.9300 . ?
C17 C18 1.358(4) . ?
C17 N4 1.370(3) . ?
C17 H17 0.9300 . ?
C18 N3 1.377(4) . ?
C18 H18 0.9300 . ?
C19 N5 1.327(3) . ?
C19 C20 1.424(3) . ?
C19 H19 0.9300 . ?
C20 C21 1.383(3) . ?
C20 H20 0.9300 . ?
C21 C22 1.427(3) . ?
C21 H21 0.9300 . ?
C22 N5 1.391(2) . ?
C22 C23 1.414(3) . ?
C23 C24 1.394(3) . ?
C23 C28 1.492(2) . ?
C24 N6 1.389(3) . ?
C24 C25 1.433(3) . ?
C25 C26 1.389(3) . ?
C25 H25 0.9300 . ?
C26 C27 1.425(3) . ?
C26 H26 0.9300 . ?
C27 N6 1.323(3) . ?
C27 H27 0.9300 . ?
C28 C33 1.379(3) . ?
C28 C29 1.391(3) . ?
C29 C30 1.396(3) . ?
C29 H29 0.9300 . ?
C30 C31 1.393(3) . ?
C30 H30 0.9300 . ?
C31 C32 1.393(3) . ?
C31 N7 1.423(2) . ?
C32 C33 1.397(3) . ?
C32 H32 0.9300 . ?
C33 H33 0.9300 . ?
C34 N8 1.324(3) . ?
C34 N7 1.346(3) . ?
C34 H34 0.9300 . ?
C35 N8 1.359(3) . ?
C35 C36 1.373(3) . ?
C35 H35 0.9300 . ?
C36 N7 1.373(3) . ?
C36 H36 0.9300 . ?
N1 Cd1 2.311(3) . ?
N2 Cd1 2.3171(18) . ?
N4 Cd1 2.468(3) 4 ?
N5 Cd1 2.3008(17) . ?
N6 Cd1 2.2913(17) . ?
N8 Cd1 2.4080(17) 3_445 ?
Cd1 N8 2.4080(17) 3 ?
Cd1 N4 2.468(3) 4_454 ?

loop_
_geom_angle_atom_site_label_1
_geom_angle_atom_site_label_2
_geom_angle_atom_site_label_3
_geom_angle
_geom_angle_site_symmetry_1
_geom_angle_site_symmetry_3
_geom_angle_publ_flag
N1 C1 C2 112.2(3) . . ?
N1 C1 H1 123.9 . . ?
C2 C1 H1 123.9 . . ?
C3 C2 C1 106.0(3) . . ?
C3 C2 H2 127.0 . . ?
C1 C2 H2 127.0 . . ?
C2 C3 C4 107.3(3) . . ?
C2 C3 H3 126.4 . . ?
C4 C3 H3 126.4 . . ?
N1 C4 C5 125.7(2) . . ?
N1 C4 C3 108.7(2) . . ?
C5 C4 C3 125.5(2) . . ?
C6 C5 C4 127.3(2) . . ?
C6 C5 C10 116.18(19) . . ?
C4 C5 C10 116.5(2) . . ?
N2 C