####################################################################### 
# 
# This file contains crystal structure data downloaded from the 
# Cambridge Structural Database (CSD) hosted by the Cambridge 
# Crystallographic Data Centre (CCDC).
# 
# Full information about CCDC data access policies and citation 
# guidelines are available at http://www.ccdc.cam.ac.uk/access/V1 
# 
# Audit and citation data items may have been added by the CCDC. 
# Please retain this information to preserve the provenance of 
# this file and to allow appropriate attribution of the data. 
# 
#######################################################################

data_compound8
_audit_block_doi                 10.5517/ccz5vvt
_database_code_depnum_ccdc_archive 'CCDC 899367'
loop_
_citation_id
_citation_doi
_citation_year
1 10.1002/chem.201203133 2013
_audit_update_record             
;
2012-08-31 deposited with the CCDC.	2024-07-14 downloaded from the CCDC.
;
#TrackingRef 'ChemEurJ.cif'
#TrackingRef 'ChemEurJ.cif'


_audit_creation_method           SHELXL-97
_chemical_name_systematic        
;
?
;
_chemical_name_common            ?
_chemical_melting_point          ?
_chemical_formula_moiety         ?
_chemical_formula_sum            'C36 H26 Cd N8'
_chemical_formula_weight         683.05

loop_
_atom_type_symbol
_atom_type_description
_atom_type_scat_dispersion_real
_atom_type_scat_dispersion_imag
_atom_type_scat_source
C C 0.0033 0.0016 'International Tables Vol C Tables 4.2.6.8 and 6.1.1.4'
H H 0.0000 0.0000 'International Tables Vol C Tables 4.2.6.8 and 6.1.1.4'
N N 0.0061 0.0033 'International Tables Vol C Tables 4.2.6.8 and 6.1.1.4'
Cd Cd -0.8075 1.2024 'International Tables Vol C Tables 4.2.6.8 and 6.1.1.4'

_symmetry_cell_setting           Monoclinic
_symmetry_space_group_name_H-M   'Cc '

loop_
_symmetry_equiv_pos_as_xyz
'x, y, z'
'x, -y, z+1/2'
'x+1/2, y+1/2, z'
'x+1/2, -y+1/2, z+1/2'

_cell_length_a                   24.7115(5)
_cell_length_b                   9.6638(2)
_cell_length_c                   18.3643(4)
_cell_angle_alpha                90.00
_cell_angle_beta                 107.8560(10)
_cell_angle_gamma                90.00
_cell_volume                     4174.27(15)
_cell_formula_units_Z            4
_cell_measurement_temperature    173(2)
_cell_measurement_reflns_used    9903
_cell_measurement_theta_min      2.33
_cell_measurement_theta_max      30.07

_exptl_crystal_description       plate
_exptl_crystal_colour            orange
_exptl_crystal_size_max          0.30
_exptl_crystal_size_mid          0.20
_exptl_crystal_size_min          0.04
_exptl_crystal_density_meas      'not measured'
_exptl_crystal_density_diffrn    1.087
_exptl_crystal_density_method    'not measured'
_exptl_crystal_F_000             1384
_exptl_absorpt_coefficient_mu    0.553
_exptl_absorpt_correction_type   multi-scan
_exptl_absorpt_correction_T_min  0.8517
_exptl_absorpt_correction_T_max  0.9782
_exptl_absorpt_process_details   sadabs

_exptl_special_details           
;
The structure contains three highly disordered DMSO
molecules. Owing to the high disorder, the SQUEEZE
command was applied.

;

_diffrn_ambient_temperature      173(2)
_diffrn_radiation_wavelength     0.71073
_diffrn_radiation_type           MoK\a
_diffrn_radiation_source         'fine-focus sealed tube'
_diffrn_radiation_monochromator  graphite
_diffrn_measurement_device_type  'Bruker APEX-II CCD'
_diffrn_measurement_method       '\f and \w scans'
_diffrn_detector_area_resol_mean ?
_diffrn_standards_number         ?
_diffrn_standards_interval_count ?
_diffrn_standards_interval_time  ?
_diffrn_standards_decay_%        ?
_diffrn_reflns_number            21727
_diffrn_reflns_av_R_equivalents  0.0205
_diffrn_reflns_av_sigmaI/netI    0.0317
_diffrn_reflns_limit_h_min       -32
_diffrn_reflns_limit_h_max       19
_diffrn_reflns_limit_k_min       -13
_diffrn_reflns_limit_k_max       13
_diffrn_reflns_limit_l_min       -25
_diffrn_reflns_limit_l_max       25
_diffrn_reflns_theta_min         2.28
_diffrn_reflns_theta_max         29.59
_reflns_number_total             9087
_reflns_number_gt                8657
_reflns_threshold_expression     >2sigma(I)

_computing_data_collection       'Bruker APEX2'
_computing_cell_refinement       'Bruker SAINT'
_computing_data_reduction        'Bruker SAINT'

_computing_structure_solution    'SHELXS-97 (Sheldrick, 2008)'
_computing_structure_refinement  'SHELXL-97 (Sheldrick, 2008)'
_computing_molecular_graphics    'Bruker SHELXTL'
_computing_publication_material  'Bruker SHELXTL'

_refine_special_details          
;
Refinement of F^2^ against ALL reflections. The weighted R-factor wR and
goodness of fit S are based on F^2^, conventional R-factors R are based
on F, with F set to zero for negative F^2^. The threshold expression of
F^2^ > 2sigma(F^2^) is used only for calculating R-factors(gt) etc. and is
not relevant to the choice of reflections for refinement. R-factors based
on F^2^ are statistically about twice as large as those based on F, and R-
factors based on ALL data will be even larger.
;

_refine_ls_structure_factor_coef Fsqd
_refine_ls_matrix_type           full
_refine_ls_weighting_scheme      calc
_refine_ls_weighting_details     
'calc w=1/[\s^2^(Fo^2^)+(0.0460P)^2^+0.8402P] where P=(Fo^2^+2Fc^2^)/3'
_atom_sites_solution_primary     direct
_atom_sites_solution_secondary   difmap
_atom_sites_solution_hydrogens   geom
_refine_ls_hydrogen_treatment    constr
_refine_ls_extinction_method     none
_refine_ls_extinction_coef       ?
_refine_ls_abs_structure_details 'Flack H D (1983), Acta Cryst. A39, 876-881'
_refine_ls_abs_structure_Flack   0.062(15)
_refine_ls_number_reflns         9087
_refine_ls_number_parameters     406
_refine_ls_number_restraints     2
_refine_ls_R_factor_all          0.0292
_refine_ls_R_factor_gt           0.0280
_refine_ls_wR_factor_ref         0.0749
_refine_ls_wR_factor_gt          0.0742
_refine_ls_goodness_of_fit_ref   1.044
_refine_ls_restrained_S_all      1.044
_refine_ls_shift/su_max          0.001
_refine_ls_shift/su_mean         0.000

loop_
_platon_squeeze_void_nr
_platon_squeeze_void_average_x
_platon_squeeze_void_average_y
_platon_squeeze_void_average_z
_platon_squeeze_void_volume
_platon_squeeze_void_count_electrons
_platon_squeeze_void_content
1 0.402 -0.079 -0.002 734 281 ' '
2 0.601 -0.120 0.498 734 280 ' '
_platon_squeeze_details          
;
;


loop_
_atom_site_label
_atom_site_type_symbol
_atom_site_fract_x
_atom_site_fract_y
_atom_site_fract_z
_atom_site_U_iso_or_equiv
_atom_site_adp_type
_atom_site_occupancy
_atom_site_symmetry_multiplicity
_atom_site_calc_flag
_atom_site_refinement_flags
_atom_site_disorder_assembly
_atom_site_disorder_group
C1 C -0.54183(14) -0.1221(3) -0.27942(16) 0.0330(6) Uani 1 1 d . . .
H1 H -0.5063 -0.0955 -0.2818 0.040 Uiso 1 1 calc R . .
C2 C -0.58959(16) -0.0319(3) -0.2954(2) 0.0424(8) Uani 1 1 d . . .
H2 H -0.5910 0.0608 -0.3094 0.051 Uiso 1 1 calc R . .
C3 C -0.63414(14) -0.1124(3) -0.28577(17) 0.0334(6) Uani 1 1 d . . .
H3 H -0.6713 -0.0842 -0.2921 0.040 Uiso 1 1 calc R . .
C4 C -0.61039(12) -0.2480(3) -0.26401(15) 0.0245(5) Uani 1 1 d . . .
C5 C -0.64140(11) -0.3625(2) -0.25296(12) 0.0213(5) Uani 1 1 d . . .
C6 C -0.62177(11) -0.5010(3) -0.23797(13) 0.0215(5) Uani 1 1 d . . .
C7 C -0.65485(12) -0.6127(3) -0.22220(14) 0.0240(5) Uani 1 1 d . . .
H7 H -0.6925 -0.6085 -0.2226 0.029 Uiso 1 1 calc R . .
C8 C -0.62001(14) -0.7272(3) -0.20640(17) 0.0306(6) Uani 1 1 d . . .
H8 H -0.6293 -0.8155 -0.1939 0.037 Uiso 1 1 calc R . .
C9 C -0.56678(13) -0.6823(3) -0.21310(14) 0.0285(5) Uani 1 1 d . . .
H9 H -0.5352 -0.7395 -0.2053 0.034 Uiso 1 1 calc R . .
C10 C -0.70257(11) -0.3391(3) -0.26280(13) 0.0239(5) Uani 1 1 d . . .
C11 C -0.71902(13) -0.2630(3) -0.20859(14) 0.0304(6) Uani 1 1 d . . .
H11 H -0.6916 -0.2291 -0.1654 0.037 Uiso 1 1 calc R . .
C12 C -0.77622(12) -0.2379(3) -0.21886(15) 0.0312(6) Uani 1 1 d . . .
H12 H -0.7871 -0.1891 -0.1819 0.037 Uiso 1 1 calc R . .
C13 C -0.81764(11) -0.2857(3) -0.28468(13) 0.0235(5) Uani 1 1 d . . .
C14 C -0.80144(12) -0.3615(3) -0.33919(14) 0.0301(6) Uani 1 1 d . . .
H14 H -0.8286 -0.3934 -0.3832 0.036 Uiso 1 1 calc R . .
C15 C -0.74380(13) -0.3887(3) -0.32661(15) 0.0307(6) Uani 1 1 d . . .
H15 H -0.7329 -0.4416 -0.3621 0.037 Uiso 1 1 calc R . .
C16 C -0.89629(15) -0.1382(3) -0.27602(18) 0.0388(7) Uani 1 1 d . . .
H16 H -0.8735 -0.0648 -0.2517 0.047 Uiso 1 1 calc R . .
C17 C -0.96837(13) -0.2646(3) -0.32742(17) 0.0338(6) Uani 1 1 d . . .
H17 H -1.0058 -0.2949 -0.3460 0.041 Uiso 1 1 calc R . .
C18 C -0.92212(13) -0.3406(3) -0.32926(18) 0.0357(6) Uani 1 1 d . . .
H18 H -0.9217 -0.4294 -0.3485 0.043 Uiso 1 1 calc R . .
C19 C -0.42295(14) -0.2780(3) -0.35868(15) 0.0367(7) Uani 1 1 d . . .
H19 H -0.4544 -0.2844 -0.4021 0.044 Uiso 1 1 calc R . .
C20 C -0.36777(15) -0.2328(4) -0.35893(16) 0.0478(9) Uani 1 1 d . . .
H20 H -0.3572 -0.2049 -0.4011 0.057 Uiso 1 1 calc R . .
C21 C -0.33442(15) -0.2389(4) -0.28558(16) 0.0412(8) Uani 1 1 d . . .
H21 H -0.2962 -0.2149 -0.2680 0.049 Uiso 1 1 calc R . .
C22 C -0.36782(13) -0.2890(3) -0.23872(15) 0.0276(6) Uani 1 1 d . . .
C23 C -0.34895(11) -0.3077(3) -0.15989(13) 0.0252(5) Uani 1 1 d . . .
C24 C -0.38009(13) -0.3659(3) -0.11494(16) 0.0261(6) Uani 1 1 d . . .
C25 C -0.36229(17) -0.3687(4) -0.03373(19) 0.0369(8) Uani 1 1 d . . .
H25 H -0.3276 -0.3366 -0.0020 0.044 Uiso 1 1 calc R . .
C26 C -0.4038(2) -0.4254(4) -0.0099(2) 0.0405(10) Uani 1 1 d . . .
H26 H -0.4038 -0.4402 0.0401 0.049 Uiso 1 1 calc R . .
C27 C -0.44763(15) -0.4575(3) -0.07870(17) 0.0325(7) Uani 1 1 d . . .
H27 H -0.4819 -0.4988 -0.0800 0.039 Uiso 1 1 calc R . .
C28 C -0.29054(12) -0.2588(3) -0.11923(13) 0.0274(5) Uani 1 1 d . . .
C29 C -0.24858(13) -0.3482(3) -0.07816(16) 0.0323(6) Uani 1 1 d . . .
H29 H -0.2567 -0.4419 -0.0763 0.039 Uiso 1 1 calc R . .
C30 C -0.19505(12) -0.3005(3) -0.04005(14) 0.0294(5) Uani 1 1 d . . .
H30 H -0.1676 -0.3620 -0.0119 0.035 Uiso 1 1 calc R . .
C31 C -0.18161(11) -0.1644(3) -0.04291(12) 0.0253(5) Uani 1 1 d . . .
C32 C -0.22226(14) -0.0723(3) -0.08396(14) 0.0296(6) Uani 1 1 d . . .
H32 H -0.2135 0.0211 -0.0850 0.035 Uiso 1 1 calc R . .
C33 C -0.27602(12) -0.1195(3) -0.12341(14) 0.0273(5) Uani 1 1 d . . .
H33 H -0.3029 -0.0583 -0.1531 0.033 Uiso 1 1 calc R . .
C34 C -0.09920(13) -0.1411(3) 0.07362(14) 0.0270(6) Uani 1 1 d . . .
H34 H -0.1125 -0.2018 0.1035 0.032 Uiso 1 1 calc R . .
C35 C -0.04717(14) 0.0028(3) 0.03689(17) 0.0301(6) Uani 1 1 d . . .
H35 H -0.0171 0.0611 0.0374 0.036 Uiso 1 1 calc R . .
C36 C -0.09268(16) -0.0221(4) -0.02568(18) 0.0343(7) Uani 1 1 d . . .
H36 H -0.0997 0.0155 -0.0743 0.041 Uiso 1 1 calc R . .
N1 N -0.55383(10) -0.2483(2) -0.26071(11) 0.0230(4) Uani 1 1 d . . .
N2 N -0.56747(11) -0.5478(2) -0.23206(12) 0.0249(5) Uani 1 1 d . . .
N3 N -0.87670(11) -0.2570(3) -0.29654(15) 0.0291(5) Uani 1 1 d . . .
N4 N -0.95245(10) -0.1399(2) -0.29510(12) 0.0279(5) Uani 1 1 d . . .
N5 N -0.42331(10) -0.3101(2) -0.28748(12) 0.0260(4) Uani 1 1 d . . .
N6 N -0.43403(16) -0.4216(3) -0.14148(19) 0.0296(7) Uani 1 1 d . . .
N7 N -0.12642(11) -0.1151(3) -0.00193(12) 0.0227(5) Uani 1 1 d . . .
N8 N -0.05144(15) -0.0691(2) 0.09896(17) 0.0258(7) Uani 1 1 d . . .
Cd1 Cd -0.496499(9) -0.433510(14) -0.264310(9) 0.02107(4) Uani 1 1 d . . .

loop_
_atom_site_aniso_label
_atom_site_aniso_U_11
_atom_site_aniso_U_22
_atom_site_aniso_U_33
_atom_site_aniso_U_23
_atom_site_aniso_U_13
_atom_site_aniso_U_12
C1 0.0264(17) 0.0293(13) 0.0425(14) -0.0048(11) 0.0092(11) -0.0048(12)
C2 0.035(2) 0.0263(13) 0.067(2) 0.0020(13) 0.0173(16) 0.0002(12)
C3 0.0264(18) 0.0268(12) 0.0500(15) 0.0027(11) 0.0162(13) 0.0076(11)
C4 0.0197(16) 0.0255(11) 0.0312(12) -0.0006(9) 0.0121(11) 0.0066(10)
C5 0.0128(14) 0.0275(11) 0.0226(9) -0.0050(8) 0.0038(9) 0.0031(9)
C6 0.0099(13) 0.0290(12) 0.0268(10) -0.0029(8) 0.0071(9) 0.0012(9)
C7 0.0148(15) 0.0296(11) 0.0289(11) -0.0026(9) 0.0085(10) -0.0007(10)
C8 0.0230(17) 0.0303(14) 0.0420(14) 0.0061(11) 0.0152(13) 0.0023(11)
C9 0.0203(16) 0.0324(13) 0.0314(11) 0.0064(10) 0.0059(11) 0.0077(11)
C10 0.0193(15) 0.0272(11) 0.0278(10) -0.0013(8) 0.0108(10) 0.0061(9)
C11 0.0186(16) 0.0449(15) 0.0266(11) -0.0087(10) 0.0052(10) 0.0104(11)
C12 0.0128(16) 0.0459(15) 0.0334(12) -0.0102(10) 0.0051(10) 0.0069(11)
C13 0.0094(14) 0.0307(12) 0.0282(10) 0.0000(9) 0.0027(9) 0.0074(9)
C14 0.0107(15) 0.0418(15) 0.0324(12) -0.0163(10) -0.0014(10) 0.0042(11)
C15 0.0212(17) 0.0388(13) 0.0310(11) -0.0108(10) 0.0063(11) 0.0091(11)
C16 0.030(2) 0.0377(16) 0.0495(16) -0.0137(13) 0.0135(14) 0.0086(13)
C17 0.0075(16) 0.0462(16) 0.0465(14) -0.0051(12) 0.0066(11) 0.0029(11)
C18 0.0133(17) 0.0343(14) 0.0564(17) -0.0084(12) 0.0063(12) 0.0011(11)
C19 0.0273(19) 0.0454(16) 0.0297(12) 0.0024(11) -0.0029(11) -0.0041(12)
C20 0.034(2) 0.080(2) 0.0247(12) 0.0092(13) 0.0019(12) -0.0169(17)
C21 0.0225(19) 0.067(2) 0.0337(13) -0.0029(13) 0.0081(12) -0.0173(14)
C22 0.0179(16) 0.0358(14) 0.0246(11) 0.0022(10) -0.0002(10) -0.0022(11)
C23 0.0086(14) 0.0362(13) 0.0262(10) -0.0032(9) -0.0012(9) 0.0008(10)
C24 0.0117(16) 0.0368(14) 0.0268(12) -0.0039(10) 0.0013(10) -0.0006(11)
C25 0.029(2) 0.049(2) 0.0309(15) 0.0002(13) 0.0065(14) -0.0061(15)
C26 0.026(2) 0.072(3) 0.0216(13) -0.0082(13) 0.0047(13) -0.0013(16)
C27 0.0190(18) 0.0475(18) 0.0285(14) -0.0049(12) 0.0036(12) -0.0053(13)
C28 0.0142(15) 0.0386(13) 0.0238(10) -0.0038(9) -0.0024(9) -0.0052(10)
C29 0.0137(16) 0.0366(14) 0.0409(13) -0.0012(10) 0.0002(11) -0.0010(10)
C30 0.0133(15) 0.0404(14) 0.0275(11) 0.0001(10) -0.0044(9) 0.0007(11)
C31 0.0094(14) 0.0414(14) 0.0199(9) -0.0019(9) -0.0029(8) -0.0056(9)
C32 0.0254(18) 0.0363(13) 0.0245(10) 0.0021(9) 0.0039(10) -0.0092(11)
C33 0.0162(15) 0.0331(12) 0.0271(11) 0.0013(9) -0.0014(9) -0.0011(10)
C34 0.0222(18) 0.0397(15) 0.0182(10) 0.0035(9) 0.0049(10) -0.0027(12)
C35 0.0202(16) 0.0378(16) 0.0308(13) -0.0030(11) 0.0056(11) -0.0122(12)
C36 0.0198(18) 0.056(2) 0.0225(12) 0.0010(13) -0.0002(11) -0.0175(16)
N1 0.0146(12) 0.0263(10) 0.0261(9) -0.0052(7) 0.0033(8) -0.0006(8)
N2 0.0148(13) 0.0314(11) 0.0281(9) 0.0008(8) 0.0061(9) 0.0070(8)
N3 0.0180(14) 0.0313(12) 0.0411(12) -0.0054(10) 0.0139(10) 0.0022(9)
N4 0.0079(13) 0.0395(12) 0.0332(10) -0.0066(9) 0.0017(8) 0.0083(9)
N5 0.0108(13) 0.0353(12) 0.0284(9) 0.0013(8) 0.0006(8) 0.0011(9)
N6 0.0216(19) 0.0390(14) 0.0268(13) 0.0013(9) 0.0051(12) -0.0091(10)
N7 0.0175(15) 0.0353(12) 0.0113(8) -0.0003(8) -0.0015(9) -0.0058(10)
N8 0.0110(17) 0.0396(14) 0.0215(12) 0.0059(8) -0.0027(10) -0.0029(8)
Cd1 0.00940(9) 0.02927(7) 0.02273(6) -0.00244(8) 0.00223(5) 0.00166(9)

_geom_special_details            
;
All esds (except the esd in the dihedral angle between two l.s. planes)
are estimated using the full covariance matrix. The cell esds are taken
into account individually in the estimation of esds in distances, angles
and torsion angles; correlations between esds in cell parameters are only
used when they are defined by crystal symmetry. An approximate (isotropic)
treatment of cell esds is used for estimating esds involving l.s. planes.
;

loop_
_geom_bond_atom_site_label_1
_geom_bond_atom_site_label_2
_geom_bond_distance
_geom_bond_site_symmetry_2
_geom_bond_publ_flag
C1 N1 1.325(3) . ?
C1 C2 1.424(5) . ?
C1 H1 0.9300 . ?
C2 C3 1.403(5) . ?
C2 H2 0.9300 . ?
C3 C4 1.441(4) . ?
C3 H3 0.9300 . ?
C4 N1 1.380(4) . ?
C4 C5 1.395(4) . ?
C5 C6 1.422(3) . ?
C5 C10 1.484(4) . ?
C6 N2 1.388(3) . ?
C6 C7 1.436(4) . ?
C7 C8 1.377(4) . ?
C7 H7 0.9300 . ?
C8 C9 1.426(4) . ?
C8 H8 0.9300 . ?
C9 N2 1.345(3) . ?
C9 H9 0.9300 . ?
C10 C15 1.382(4) . ?
C10 C11 1.394(3) . ?
C11 C12 1.389(4) . ?
C11 H11 0.9300 . ?
C12 C13 1.401(4) . ?
C12 H12 0.9300 . ?
C13 C14 1.395(3) . ?
C13 N3 1.435(4) . ?
C14 C15 1.396(4) . ?
C14 H14 0.9300 . ?
C15 H15 0.9300 . ?
C16 N4 1.323(4) . ?
C16 N3 1.344(4) . ?
C16 H16 0.9300 . ?
C17 N4 1.347(4) . ?
C17 C18 1.367(4) . ?
C17 H17 0.9300 . ?
C18 N3 1.364(4) . ?
C18 H18 0.9300 . ?
C19 N5 1.346(3) . ?
C19 C20 1.433(5) . ?
C19 H19 0.9300 . ?
C20 C21 1.348(4) . ?
C20 H20 0.9300 . ?
C21 C22 1.446(4) . ?
C21 H21 0.9300 . ?
C22 C23 1.390(3) . ?
C22 N5 1.404(4) . ?
C23 C24 1.407(4) . ?
C23 C28 1.484(4) . ?
C24 N6 1.380(5) . ?
C24 C25 1.420(4) . ?
C25 C26 1.349(6) . ?
C25 H25 0.9300 . ?
C26 C27 1.423(5) . ?
C26 H26 0.9300 . ?
C27 N6 1.342(4) . ?
C27 H27 0.9300 . ?
C28 C29 1.382(4) . ?
C28 C33 1.401(4) . ?
C29 C30 1.373(4) . ?
C29 H29 0.9300 . ?
C30 C31 1.362(4) . ?
C30 H30 0.9300 . ?
C31 C32 1.380(4) . ?
C31 N7 1.423(4) . ?
C32 C33 1.381(4) . ?
C32 H32 0.9300 . ?
C33 H33 0.9300 . ?
C34 N8 1.326(4) . ?
C34 N7 1.367(3) . ?
C34 H34 0.9300 . ?
C35 C36 1.360(4) . ?
C35 N8 1.367(4) . ?
C35 H35 0.9300 . ?
C36 N7 1.384(4) . ?
C36 H36 0.9300 . ?
N1 Cd1 2.296(2) . ?
N2 Cd1 2.298(2) . ?
N4 Cd1 2.421(2) 3_455 ?
N5 Cd1 2.312(2) . ?
N6 Cd1 2.313(4) . ?
N8 Cd1 2.461(3) 4_545 ?
Cd1 N4 2.421(2) 3_545 ?
Cd1 N8 2.461(3) 4_444 ?

loop_
_geom_angle_atom_site_label_1
_geom_angle_atom_site_label_2
_geom_angle_atom_site_label_3
_geom_angle
_geom_angle_site_symmetry_1
_geom_angle_site_symmetry_3
_geom_angle_publ_flag
N1 C1 C2 112.3(3) . . ?
N1 C1 H1 123.8 . . ?
C2 C1 H1 123.8 . . ?
C3 C2 C1 105.5(3) . . ?
C3 C2 H2 127.2 . . ?
C1 C2 H2 127.2 . . ?
C