####################################################################### 
# 
# This file contains crystal structure data downloaded from the 
# Cambridge Structural Database (CSD) hosted by the Cambridge 
# Crystallographic Data Centre (CCDC).
# 
# Full information about CCDC data access policies and citation 
# guidelines are available at http://www.ccdc.cam.ac.uk/access/V1 
# 
# Audit and citation data items may have been added by the CCDC. 
# Please retain this information to preserve the provenance of 
# this file and to allow appropriate attribution of the data. 
# 
#######################################################################

data_Compound1
_audit_block_doi                 10.5517/ccz5lk8
_database_code_depnum_ccdc_archive 'CCDC 899110'
loop_
_citation_id
_citation_doi
_citation_year
1 10.1002/chem.201203267 2013
_audit_update_record             
;
2012-08-30 deposited with the CCDC.	2024-07-14 downloaded from the CCDC.
;
#TrackingRef 'InHyeokPark.cif'


# data_ih110

_audit_creation_method           SHELXL-97
_chemical_name_systematic        
;
?
;
_chemical_name_common            ?
_chemical_melting_point          ?
_chemical_formula_moiety         ?
_chemical_formula_sum            'C48 H42 N2 O15 Zn2'
_chemical_formula_weight         1017.58

loop_
_atom_type_symbol
_atom_type_description
_atom_type_scat_dispersion_real
_atom_type_scat_dispersion_imag
_atom_type_scat_source
C C 0.0033 0.0016 'International Tables Vol C Tables 4.2.6.8 and 6.1.1.4'
H H 0.0000 0.0000 'International Tables Vol C Tables 4.2.6.8 and 6.1.1.4'
N N 0.0061 0.0033 'International Tables Vol C Tables 4.2.6.8 and 6.1.1.4'
O O 0.0106 0.0060 'International Tables Vol C Tables 4.2.6.8 and 6.1.1.4'
Zn Zn 0.2839 1.4301 'International Tables Vol C Tables 4.2.6.8 and 6.1.1.4'

_symmetry_cell_setting           Monoclinic
_symmetry_space_group_name_H-M   C2/c

loop_
_symmetry_equiv_pos_as_xyz
'x, y, z'
'-x, y, -z+1/2'
'x+1/2, y+1/2, z'
'-x+1/2, y+1/2, -z+1/2'
'-x, -y, -z'
'x, -y, z-1/2'
'-x+1/2, -y+1/2, -z'
'x+1/2, -y+1/2, z-1/2'

_cell_length_a                   15.1869(8)
_cell_length_b                   24.1587(12)
_cell_length_c                   15.8511(8)
_cell_angle_alpha                90.00
_cell_angle_beta                 111.141(3)
_cell_angle_gamma                90.00
_cell_volume                     5424.3(5)
_cell_formula_units_Z            4
_cell_measurement_temperature    173(2)
_cell_measurement_reflns_used    2456
_cell_measurement_theta_min      2.74
_cell_measurement_theta_max      20.79

_exptl_crystal_description       block
_exptl_crystal_colour            colourless
_exptl_crystal_size_max          0.21
_exptl_crystal_size_mid          0.14
_exptl_crystal_size_min          0.13
_exptl_crystal_density_meas      'not measured'
_exptl_crystal_density_diffrn    1.246
_exptl_crystal_density_method    'not measured'
_exptl_crystal_F_000             2096
_exptl_absorpt_coefficient_mu    0.946
_exptl_absorpt_correction_type   multi-scan
_exptl_absorpt_correction_T_min  0.8261
_exptl_absorpt_correction_T_max  0.8869
_exptl_absorpt_process_details   'SADABS (Sheldrick, 2001)'

_exptl_special_details           
;
?
;

_diffrn_ambient_temperature      173(2)
_diffrn_radiation_wavelength     0.71073
_diffrn_radiation_type           MoK\a
_diffrn_radiation_source         'fine-focus sealed tube'
_diffrn_radiation_monochromator  graphite
_diffrn_measurement_device_type  'Bruker APEX-II CCD'
_diffrn_measurement_method       '\f and \w scans'
_diffrn_detector_area_resol_mean ?
_diffrn_standards_number         0
_diffrn_standards_interval_count ?
_diffrn_standards_interval_time  ?
_diffrn_standards_decay_%        ?
_diffrn_reflns_number            35035
_diffrn_reflns_av_R_equivalents  0.2180
_diffrn_reflns_av_sigmaI/netI    0.1552
_diffrn_reflns_limit_h_min       -18
_diffrn_reflns_limit_h_max       18
_diffrn_reflns_limit_k_min       -29
_diffrn_reflns_limit_k_max       29
_diffrn_reflns_limit_l_min       -19
_diffrn_reflns_limit_l_max       19
_diffrn_reflns_theta_min         1.67
_diffrn_reflns_theta_max         26.00
_reflns_number_total             5353
_reflns_number_gt                2824
_reflns_threshold_expression     >2sigma(I)

_computing_data_collection       'Bruker APEX2'
_computing_cell_refinement       'Bruker SAINT'
_computing_data_reduction        'Bruker SAINT'
_computing_structure_solution    'SHELXS-97 (Sheldrick, 1990)'
_computing_structure_refinement  'SHELXL-97 (Sheldrick, 1997)'
_computing_molecular_graphics    'Bruker SHELXTL'
_computing_publication_material  'Bruker SHELXTL'

_refine_special_details          
;
Refinement of F^2^ against ALL reflections. The weighted R-factor wR and
goodness of fit S are based on F^2^, conventional R-factors R are based
on F, with F set to zero for negative F^2^. The threshold expression of
F^2^ > 2sigma(F^2^) is used only for calculating R-factors(gt) etc. and is
not relevant to the choice of reflections for refinement. R-factors based
on F^2^ are statistically about twice as large as those based on F, and R-
factors based on ALL data will be even larger.
;

_refine_ls_structure_factor_coef Fsqd
_refine_ls_matrix_type           full
_refine_ls_weighting_scheme      calc
_refine_ls_weighting_details     
'calc w=1/[\s^2^(Fo^2^)+(0.0750P)^2^+0.0000P] where P=(Fo^2^+2Fc^2^)/3'
_atom_sites_solution_primary     direct
_atom_sites_solution_secondary   difmap
_atom_sites_solution_hydrogens   geom
_refine_ls_hydrogen_treatment    constr
_refine_ls_extinction_method     SHELXL
_refine_ls_extinction_coef       0.0017(2)
_refine_ls_extinction_expression Fc^*^=kFc[1+0.001xFc^2^\l^3^/sin(2\q)]^-1/4^
_refine_ls_number_reflns         5353
_refine_ls_number_parameters     329
_refine_ls_number_restraints     0
_refine_ls_R_factor_all          0.1416
_refine_ls_R_factor_gt           0.0678
_refine_ls_wR_factor_ref         0.1937
_refine_ls_wR_factor_gt          0.1647
_refine_ls_goodness_of_fit_ref   1.063
_refine_ls_restrained_S_all      1.063
_refine_ls_shift/su_max          0.000
_refine_ls_shift/su_mean         0.000

loop_
_atom_site_label
_atom_site_type_symbol
_atom_site_fract_x
_atom_site_fract_y
_atom_site_fract_z
_atom_site_U_iso_or_equiv
_atom_site_adp_type
_atom_site_occupancy
_atom_site_symmetry_multiplicity
_atom_site_calc_flag
_atom_site_refinement_flags
_atom_site_disorder_assembly
_atom_site_disorder_group
Zn1 Zn 0.57358(5) 0.48734(3) 0.36179(4) 0.0360(3) Uani 1 1 d . . .
O1 O 0.6714(3) 0.56556(16) 0.3570(3) 0.0466(11) Uani 1 1 d . . .
O2 O 0.5274(3) 0.56422(15) 0.3577(2) 0.0387(10) Uani 1 1 d . . .
O3 O 0.5934(3) 0.82411(16) 0.3651(3) 0.0510(12) Uani 1 1 d . . .
O4 O 0.6300(3) 0.44646(17) 0.2885(3) 0.0475(11) Uani 1 1 d . . .
O5 O 0.5405(3) 0.44544(16) 0.1426(3) 0.0459(11) Uani 1 1 d . . .
N1 N 0.6580(3) 0.46782(19) 0.4888(3) 0.0365(12) Uani 1 1 d . . .
C1 C 0.6240(4) 0.4495(2) 0.5512(4) 0.0395(15) Uani 1 1 d . . .
H1 H 0.5588 0.4405 0.5318 0.047 Uiso 1 1 calc R . .
C2 C 0.6772(4) 0.4428(2) 0.6409(4) 0.0389(14) Uani 1 1 d . . .
H2 H 0.6496 0.4288 0.6816 0.047 Uiso 1 1 calc R . .
C3 C 0.7728(4) 0.4567(2) 0.6717(4) 0.0432(15) Uani 1 1 d . . .
C4 C 0.8089(5) 0.4736(3) 0.6073(4) 0.0513(18) Uani 1 1 d . . .
H4 H 0.8742 0.4819 0.6248 0.062 Uiso 1 1 calc R . .
C5 C 0.7508(5) 0.4786(2) 0.5182(5) 0.0484(17) Uani 1 1 d . . .
H5 H 0.7776 0.4903 0.4754 0.058 Uiso 1 1 calc R . .
C6 C 0.8273(4) 0.4566(3) 0.7688(4) 0.0484(17) Uani 1 1 d . . .
H6 H 0.8088 0.4316 0.8056 0.058 Uiso 1 1 calc R . .
C7 C 0.9010(4) 0.4892(3) 0.8089(4) 0.0446(15) Uani 1 1 d . . .
H7 H 0.9227 0.5114 0.7710 0.053 Uiso 1 1 calc R . .
C8 C 0.9516(4) 0.4938(2) 0.9065(4) 0.0401(15) Uani 1 1 d . . .
C9 C 1.0064(4) 0.5405(3) 0.9409(4) 0.0463(16) Uani 1 1 d . . .
H9 H 1.0113 0.5685 0.9007 0.056 Uiso 1 1 calc R . .
C10 C 0.9463(4) 0.4535(3) 0.9671(4) 0.0464(16) Uani 1 1 d . . .
H10 H 0.9095 0.4212 0.9448 0.056 Uiso 1 1 calc R . .
C11 C 0.5995(4) 0.5905(2) 0.3570(4) 0.0364(14) Uani 1 1 d . . .
C12 C 0.5980(4) 0.6519(2) 0.3574(4) 0.0353(14) Uani 1 1 d . . .
C13 C 0.6717(4) 0.6807(2) 0.3470(4) 0.0447(16) Uani 1 1 d . . .
H13 H 0.7225 0.6613 0.3393 0.054 Uiso 1 1 calc R . .
C14 C 0.6718(4) 0.7381(3) 0.3479(4) 0.0489(17) Uani 1 1 d . . .
H14 H 0.7217 0.7580 0.3391 0.059 Uiso 1 1 calc R . .
C15 C 0.5993(4) 0.7660(3) 0.3616(4) 0.0414(15) Uani 1 1 d . . .
C16 C 0.5249(4) 0.7375(2) 0.3727(4) 0.0405(15) Uani 1 1 d . . .
H16 H 0.4749 0.7569 0.3820 0.049 Uiso 1 1 calc R . .
C17 C 0.5247(4) 0.6806(2) 0.3698(4) 0.0385(14) Uani 1 1 d . . .
H17 H 0.4736 0.6607 0.3765 0.046 Uiso 1 1 calc R . .
C18 C 0.6157(4) 0.4352(2) 0.2075(4) 0.0339(13) Uani 1 1 d . . .
C19 C 0.6936(4) 0.4073(2) 0.1888(4) 0.0320(13) Uani 1 1 d . . .
C20 C 0.7738(4) 0.3916(2) 0.2577(4) 0.0450(16) Uani 1 1 d . . .
H20 H 0.7804 0.3995 0.3183 0.054 Uiso 1 1 calc R . .
C21 C 0.8457(4) 0.3641(2) 0.2406(4) 0.0480(17) Uani 1 1 d . . .
H21 H 0.9012 0.3531 0.2889 0.058 Uiso 1 1 calc R . .
C22 C 0.8350(4) 0.3531(2) 0.1526(5) 0.0426(15) Uani 1 1 d . . .
C23 C 0.7580(4) 0.3696(3) 0.0829(4) 0.0485(17) Uani 1 1 d . . .
H23 H 0.7531 0.3627 0.0223 0.058 Uiso 1 1 calc R . .
C24 C 0.6867(4) 0.3965(3) 0.1005(4) 0.0488(17) Uani 1 1 d . . .
H24 H 0.6319 0.4078 0.0516 0.059 Uiso 1 1 calc R . .
O1S O 0.350(4) 0.789(2) 0.484(4) 0.25(2) Uiso 0.25 1 d P . .
O2S O 0.293(3) 0.7743(15) 0.422(2) 0.147(12) Uiso 0.25 1 d P . .
O3S O 0.229(5) 0.756(3) 0.470(4) 0.13(2) Uiso 0.13 1 d P . .
O4S O 0.286(4) 0.711(2) 0.424(3) 0.24(2) Uiso 0.25 1 d P . .
O5S O 0.972(4) 0.247(3) 0.887(4) 0.28(3) Uiso 0.25 1 d P . .
O6S O 0.933(4) 0.302(2) 0.910(4) 0.112(17) Uiso 0.13 1 d P . .
O7S O 0.994(4) 0.328(2) 0.848(3) 0.229(19) Uiso 0.25 1 d P . .
O8S O 0.909(4) 0.306(3) 0.786(4) 0.26(2) Uiso 0.25 1 d P . .
O9S O 0.835(3) 0.2573(17) 0.723(3) 0.188(15) Uiso 0.25 1 d P . .
O10S O 0.921(4) 0.240(2) 0.815(4) 0.207(19) Uiso 0.25 1 d P . .
O11S O 0.971(5) 0.206(2) 0.793(4) 0.115(17) Uiso 0.13 1 d P . .
O12S O 1.065(5) 0.194(3) 0.837(4) 0.15(2) Uiso 0.13 1 d P . .

loop_
_atom_site_aniso_label
_atom_site_aniso_U_11
_atom_site_aniso_U_22
_atom_site_aniso_U_33
_atom_site_aniso_U_23
_atom_site_aniso_U_13
_atom_site_aniso_U_12
Zn1 0.0347(4) 0.0384(4) 0.0368(4) -0.0098(3) 0.0152(3) -0.0090(3)
O1 0.052(3) 0.039(2) 0.055(3) 0.003(2) 0.026(2) -0.003(2)
O2 0.036(2) 0.036(2) 0.042(2) -0.0010(18) 0.0118(19) -0.0134(18)
O3 0.041(3) 0.034(2) 0.082(3) 0.009(2) 0.027(3) -0.0058(19)
O4 0.044(3) 0.057(3) 0.043(3) -0.015(2) 0.017(2) 0.001(2)
O5 0.041(3) 0.049(3) 0.046(3) 0.010(2) 0.014(2) 0.018(2)
N1 0.033(3) 0.041(3) 0.039(3) -0.003(2) 0.018(2) -0.008(2)
C1 0.036(4) 0.036(3) 0.049(4) -0.006(3) 0.018(3) -0.010(3)
C2 0.032(4) 0.050(4) 0.035(3) 0.000(3) 0.012(3) -0.011(3)
C3 0.040(4) 0.044(4) 0.049(4) 0.006(3) 0.020(3) 0.002(3)
C4 0.030(4) 0.071(5) 0.054(4) 0.005(3) 0.016(3) -0.008(3)
C5 0.039(4) 0.055(4) 0.056(4) 0.010(3) 0.023(4) 0.002(3)
C6 0.043(4) 0.058(4) 0.046(4) 0.007(3) 0.019(3) -0.001(3)
C7 0.036(4) 0.049(4) 0.051(4) -0.002(3) 0.017(3) 0.000(3)
C8 0.027(3) 0.046(4) 0.049(4) -0.002(3) 0.016(3) 0.002(3)
C9 0.033(4) 0.049(4) 0.053(4) 0.004(3) 0.011(3) -0.005(3)
C10 0.034(4) 0.048(4) 0.056(4) -0.003(3) 0.015(3) -0.004(3)
C11 0.042(4) 0.040(4) 0.028(3) 0.001(3) 0.014(3) -0.004(3)
C12 0.025(3) 0.042(4) 0.033(3) 0.006(3) 0.004(3) -0.009(3)
C13 0.029(3) 0.045(4) 0.058(4) 0.014(3) 0.013(3) 0.002(3)
C14 0.031(4) 0.048(4) 0.071(5) 0.016(3) 0.024(3) -0.010(3)
C15 0.029(4) 0.044(4) 0.047(4) 0.010(3) 0.009(3) -0.008(3)
C16 0.028(3) 0.042(4) 0.053(4) 0.005(3) 0.016(3) -0.001(3)
C17 0.029(3) 0.036(3) 0.052(4) 0.005(3) 0.017(3) -0.009(3)
C18 0.041(4) 0.022(3) 0.039(4) 0.000(2) 0.015(3) -0.003(3)
C19 0.035(3) 0.022(3) 0.037(3) 0.003(2) 0.011(3) 0.008(2)
C20 0.041(4) 0.051(4) 0.038(4) -0.005(3) 0.008(3) 0.008(3)
C21 0.036(4) 0.053(4) 0.040(4) -0.004(3) -0.006(3) 0.013(3)
C22 0.033(4) 0.030(3) 0.063(4) -0.006(3) 0.015(3) 0.006(3)
C23 0.045(4) 0.064(4) 0.037(4) -0.008(3) 0.016(3) 0.016(3)
C24 0.043(4) 0.055(4) 0.041(4) 0.005(3) 0.006(3) 0.022(3)

_geom_special_details            
;
All esds (except the esd in the dihedral angle between two l.s. planes)
are estimated using the full covariance matrix. The cell esds are taken
into account individually in the estimation of esds in distances, angles
and torsion angles; correlations between esds in cell parameters are only
used when they are defined by crystal symmetry. An approximate (isotropic)
treatment of cell esds is used for estimating esds involving l.s. planes.
;

loop_
_geom_bond_atom_site_label_1
_geom_bond_atom_site_label_2
_geom_bond_distance
_geom_bond_site_symmetry_2
_geom_bond_publ_flag
Zn1 O4 1.944(4) . ?
Zn1 O2 1.978(4) . ?
Zn1 O5 1.987(4) 2_655 ?
Zn1 N1 2.015(5) . ?
Zn1 O1 2.422(4) . ?
Zn1 C11 2.527(6) . ?
O1 C11 1.246(7) . ?
O2 C11 1.268(7) . ?
O3 C22 1.404(7) 4_655 ?
O3 C15 1.410(7) . ?
O4 C18 1.252(6) . ?
O5 C18 1.255(6) . ?
O5 Zn1 1.987(4) 2_655 ?
N1 C5 1.341(7) . ?
N1 C1 1.345(7) . ?
C1 C2 1.368(7) . ?
C2 C3 1.396(8) . ?
C3 C4 1.382(8) . ?
C3 C6 1.462(8) . ?
C4 C5 1.375(9) . ?
C6 C7 1.328(8) . ?
C7 C8 1.461(8) . ?
C8 C10 1.391(8) . ?
C8 C9 1.391(8) . ?
C9 C10 1.382(8) 5_767 ?
C10 C9 1.382(8) 5_767 ?
C11 C12 1.485(8) . ?
C12 C13 1.377(8) . ?
C12 C17 1.384(8) . ?
C13 C14 1.386(8) . ?
C14 C15 1.373(8) . ?
C15 C16 1.387(8) . ?
C16 C17 1.375(7) . ?
C18 C19 1.481(8) . ?
C19 C20 1.364(7) . ?
C19 C24 1.391(8) . ?
C20 C21 1.385(8) . ?
C21 C22 1.371(8) . ?
C22 C23 1.348(8) . ?
C22 O3 1.404(7) 4_645 ?
C23 C24 1.375(8) . ?
O1S O2S 1.10(5) . ?
O2S O3S 1.50(8) . ?
O2S O4S 1.54(5) . ?
O3S O3S 0.97(11) 7_566 ?
O3S O4S 1.71(8) . ?
O5S O10S 1.13(6) . ?
O5S O6S 1.55(7) . ?
O5S O11S 1.79(8) . ?
O6S O7S 1.70(7) . ?
O7S O8S 1.42(6) . ?
O8S O10S 1.65(6) . ?
O8S O9S 1.68(7) . ?
O9S O10S 1.62(6) . ?
O10S O11S 1.27(6) . ?
O11S O12S 1.38(7) . ?

loop_
_geom_angle_atom_site_label_1
_geom_angle_atom_site_label_2
_geom_angle_atom_site_label_3
_geom_angle
_geom_angle_site_symmetry_1
_geom_angle_site_symmetry_3
_geom_angle_publ_flag
O4 Zn1 O2 133.23(17) . . ?
O4 Zn1 O5 106.72(17) . 2_655 ?
O2 Zn1 O5 100.54(17) . 2_655 ?
O4 Zn1 N1 102.70(18) . . ?
O2 Zn1 N1 110.04(17) . . ?
O5 Zn1 N1 98.51(18) 2_655 . ?
O4 Zn1 O1 88.27(16) . . ?
O2 Zn1 O1 58.69(16) . . ?
O5 Zn1 O1 159.03(16) 2_655 . ?
N1 Zn1 O1 92.17(16) . . ?
O4 Zn1 C11 112.07(18) . . ?
O2 Zn1 C11 29.62(18) . . ?
O5 Zn1 C11 130.13(19) 2_655 . ?
N1 Zn1 C11 102.18(18) . . ?
O1 Zn1 C11 29.07(15) . . ?
C11 O1 Zn1 80.2(3) . . ?
C11 O2 Zn1 99.9(4) . . ?
C22 O3 C15 115.1(4) 4_655 . ?
C18 O4 Zn1 140.5(4) . . ?
C18 O5 Zn1 130.7(4) . 2_655 ?
C5 N1 C1 116.3(5) . . ?
C5 N1 Zn1 120.7(4) . . ?
C1 N1 Zn1 122.5(4) . . ?
N1 C1 C2 124.3(5) . . ?
C1 C2 C3 119.0(6) . . ?
C4 C3 C2 116.9(6) . . ?
C4 C3 C6 123.6(6) . . ?
C2 C3 C6 119.3(6) . . ?
C5 C4 C3 120.4(6) . . ?
N1 C5 C4 122.9(6) . . ?
C7 C6 C3 124.3(6) . . ?
C6 C7 C8 125.6(6) . . ?
C10 C8 C9 118.2(6) . . ?
C10 C8 C7 122.6(6) . . ?
C9 C8 C7 119.2(6) . . ?
C10 C9 C8 120.6(6) 5_767 . ?
C9 C10 C8 121.2(6) 5_767 . ?
O1 C11 O2 121.2(5) . . ?
O1 C11 C12 119.8(5) . . ?
O2 C11 C12 119.0(5) . . ?
O1 C11 Zn1 70.8(3) . . ?
O2 C11 Zn1 50.4(3) . . ?
C12 C11 Zn1 169.3(4) . . ?
C13 C12 C17 119.5(6) . . ?
C13 C12 C11 119.4(6) . . ?
C17 C12 C11 121.0(5) . . ?
C12 C13 C14 120.2(6) . . ?
C15 C14 C13 119.6(5) . . ?
C14 C15 C16 120.8(6) . . ?
C14 C15 O3 124.1(5) . . ?
C16 C15 O3 115.0(5) . . ?
C17 C16 C15 119.0(6) . . ?
C16 C17 C12 120.8(5) . . ?
O4 C18 O5 124.7(6) . . ?
O4 C18 C19 116.6(5) . . ?
O5 C18 C19 118.7(5) . . ?
C20 C19 C24 118.3(5) . . ?
C20 C19 C18 121.0(5) . . ?
C24 C19 C18 120.8(5) . . ?
C19 C20 C21 121.1(6) . . ?
C22 C21 C20 118.6(6) . . ?
C23 C22 C21 121.8(6) . . ?
C23 C22 O3 119.3(6) . 4_645 ?
C21 C22 O3 119.0(5) . 4_645 ?
C22 C23 C24 119.2(6) . . ?
C23 C24 C19 121.0(6) . . ?
O1S O2S O3S 95(5) . . ?
O1S O2S O4S 110(4) . . ?
O3S O2S O4S 68(4) . . ?
O3S O3S O2S 106(10) 7_566 . ?
O3S O3S O4S 89(9) 7_566 . ?
O2S O3S O4S 57(3) . . ?
O2S O4S O3S 55(3) . . ?
O10S O5S O6S 101(6) . . ?
O10S O5S O11S 45(4) . . ?
O6S O5S O11S 142(5) . . ?
O5S O6S O7S 81(4) . . ?
O8S O7S O6S 73(4) . . ?
O7S O8S O10S 101(5) . . ?
O7S O8S O9S 157(5) . . ?
O10S O8S O9S 58(3) . . ?
O10S O9S O8S 60(3) . . ?
O5S O10S O11S 97(6) . . ?
O5S O10S O9S 155(6) . . ?
O11S O10S O9S 106(5) . . ?
O5S O10S O8S 96(6) . . ?
O11S O10S O8S 125(5) . . ?
O9S O10S O8S 62(3) . . ?
O10S O11S O12S 128(6) . . ?
O10S O11S O5S 39(3) . . ?
O12S O11S O5S 90(5) . . ?

_diffrn_measured_fraction_theta_max 1.000
_diffrn_reflns_theta_full        26.00
_diffrn_measured_fraction_theta_full 1.000
_refine_diff_density_max         0.882
_refine_diff_density_min         -0.385
_refine_diff_density_rms         0.150
