####################################################################### 
# 
# This file contains crystal structure data downloaded from the 
# Cambridge Structural Database (CSD) hosted by the Cambridge 
# Crystallographic Data Centre (CCDC).
# 
# Full information about CCDC data access policies and citation 
# guidelines are available at http://www.ccdc.cam.ac.uk/access/V1 
# 
# Audit and citation data items may have been added by the CCDC. 
# Please retain this information to preserve the provenance of 
# this file and to allow appropriate attribution of the data. 
# 
#######################################################################

data_4b
_audit_block_doi                 10.5517/cczr483
_database_code_depnum_ccdc_archive 'CCDC 915965'
loop_
_citation_id
_citation_doi
_citation_year
1 10.1021/cg400036x 2013
_audit_update_record             
;
2012-12-17 deposited with the CCDC.	2024-07-14 downloaded from the CCDC.
;
#TrackingRef 'AdelCS29.cif'


_vrf_CHEMW03_ALERT_2_A           
;
PROBLEM: The ratio of given/expected molecular weight as
calculated from the _atom_site* data lies outside
the range 0.90 <> 1.10
From the CIF: _cell_formula_units_Z 8
From the CIF: _chemical_formula_weight 2641.10
TEST: Calculate formula weight from _atom_site_*
atom mass num sum
C 12.01 96.00 1153.06
H 1.01 48.00 48.38
Cu 63.55 2.00 127.09
F 19.00 0.00 0.00
N 14.01 12.00 168.08
O 16.00 0.00 0.00
P 30.97 0.00 0.00
Calculated formula weight 1496.62
RESPONSE:
SQUEEZE routine of PLATON was applied to
the collected data; see _publ_section_exptl_refinement
;

_vrf_PLAT027_ALERT_3_A           
;
PROBLEM: _diffrn_reflns_theta_full (too) Low ............21.00 Deg.
RESPONSE:
The crystal was weakly diffracting; see
_publ_section_exptl_refinement
;

_vrf_PLAT241_ALERT_2_A           
;
PROBLEM: Check High Ueq as Compared to Neighbors for C132
RESPONSE:
Checked, the atom is assigned correctly.
;

_audit_creation_method           SHELXL-97
_chemical_name_systematic        
;
?
;
_chemical_name_common            ?
_chemical_melting_point          ?
_chemical_formula_moiety         ?
_chemical_formula_sum            'C110 H90 Cu2 F12 N26 O28 P2'
_chemical_formula_weight         2641.10

loop_
_atom_type_symbol
_atom_type_description
_atom_type_scat_dispersion_real
_atom_type_scat_dispersion_imag
_atom_type_scat_source
C C 0.0033 0.0016 'International Tables Vol C Tables 4.2.6.8 and 6.1.1.4'
H H 0.0000 0.0000 'International Tables Vol C Tables 4.2.6.8 and 6.1.1.4'
Cu Cu 0.3201 1.2651 'International Tables Vol C Tables 4.2.6.8 and 6.1.1.4'
F F 0.0171 0.0103 'International Tables Vol C Tables 4.2.6.8 and 6.1.1.4'
N N 0.0061 0.0033 'International Tables Vol C Tables 4.2.6.8 and 6.1.1.4'
O O 0.0106 0.0060 'International Tables Vol C Tables 4.2.6.8 and 6.1.1.4'
P P 0.1023 0.0942 'International Tables Vol C Tables 4.2.6.8 and 6.1.1.4'

_symmetry_cell_setting           orthorhombic
_symmetry_space_group_name_H-M   Pbca

loop_
_symmetry_equiv_pos_as_xyz
'x, y, z'
'-x+1/2, -y, z+1/2'
'x+1/2, -y+1/2, -z'
'-x, y+1/2, -z+1/2'
'-x, -y, -z'
'x-1/2, y, -z-1/2'
'-x-1/2, y-1/2, z'
'x, -y-1/2, z-1/2'

_cell_length_a                   23.653(5)
_cell_length_b                   23.737(4)
_cell_length_c                   51.930(10)
_cell_angle_alpha                90.00
_cell_angle_beta                 90.00
_cell_angle_gamma                90.00
_cell_volume                     29156(10)
_cell_formula_units_Z            8
_cell_measurement_temperature    150(2)
_cell_measurement_reflns_used    25220
_cell_measurement_theta_min      1.16
_cell_measurement_theta_max      28.86

_exptl_crystal_description       octahedron
_exptl_crystal_colour            red
_exptl_crystal_size_max          1.6
_exptl_crystal_size_mid          1.3
_exptl_crystal_size_min          1.1
_exptl_crystal_density_meas      ?
_exptl_crystal_density_diffrn    1.2032
_exptl_crystal_density_method    'not measured'
_exptl_crystal_F_000             10816
_exptl_absorpt_coefficient_mu    0.399
_exptl_absorpt_correction_type   multi-scan
_exptl_absorpt_correction_T_min  ?
_exptl_absorpt_correction_T_max  ?
_exptl_absorpt_process_details   
;
Using multiple and symmetry-related data measurements via the program SADABS
See R.H. Blessing, Acta Cryst (1995), A51, 33-38
;

_exptl_special_details           
;
?
;

_diffrn_ambient_temperature      150(2)
_diffrn_radiation_wavelength     0.71073
_diffrn_radiation_type           synchrotron
_diffrn_radiation_source         'Australian Synchrotron, Station MX1'
_diffrn_radiation_monochromator  ?
_diffrn_measurement_device_type  'CCD detector'
_diffrn_measurement_method       'phi scan'
_diffrn_detector_area_resol_mean ?
_diffrn_standards_number         ?
_diffrn_standards_interval_count ?
_diffrn_standards_interval_time  ?
_diffrn_standards_decay_%        ?
_diffrn_reflns_number            174567
_diffrn_reflns_av_R_equivalents  0.1581
_diffrn_reflns_av_sigmaI/netI    0.1253
_diffrn_reflns_limit_h_min       -28
_diffrn_reflns_limit_h_max       29
_diffrn_reflns_limit_k_min       -25
_diffrn_reflns_limit_k_max       26
_diffrn_reflns_limit_l_min       -68
_diffrn_reflns_limit_l_max       68
_diffrn_reflns_theta_min         1.16
_diffrn_reflns_theta_max         28.86
_reflns_number_total             25220
_reflns_number_gt                13060
_reflns_threshold_expression     >2sigma(I)

_computing_data_collection       Blu-Ice
_computing_cell_refinement       ?
_computing_data_reduction        ?
_computing_structure_solution    'SHELXS-97 (Sheldrick, 1990)'
_computing_structure_refinement  'SHELXL-97 (Sheldrick, 1997)'
_computing_molecular_graphics    'XSeed (Barbour, 2001)'
_computing_publication_material  'CIFTAB (Sheldrick)'

_refine_special_details          
;
Refinement of F^2^ against ALL reflections. The weighted R-factor wR and
goodness of fit S are based on F^2^, conventional R-factors R are based
on F, with F set to zero for negative F^2^. The threshold expression of
F^2^ > 2sigma(F^2^) is used only for calculating R-factors(gt) etc. and is
not relevant to the choice of reflections for refinement. R-factors based
on F^2^ are statistically about twice as large as those based on F, and R-
factors based on ALL data will be even larger.

The structure has large solvent accessible voids. These contained a number
of diffuse electron density peaks that could not be adequately identified
and refined as solvent. The SQUEEZE routine of PLATON was applied to
the collected data, which resulted in significant reductions in R1 and wR2
and an improvement in the GOF. R1, wR2 and GOF before SQUEEZE routine:
37.9%, 74.2% and 3.16; after SQUEEZE routine: 13.3%, 35.8% and 1.08.
The contents of the solvent region calculated from the result of the
SQUEEZE routine (2 PF6- and 32 CH3NO2 per asymmetric unit) did not
correspond with the crystal solvent determined via 1H NMR digestion
(14 CH3NO2 per asymmetric unit). In this case the 1H NMR digestion value
is represented in the unit cell contents of the crystal data as it
correlates better with that of the isomorphous structure 4a. Three
restraints were used to maintain chemically sensible bond lengths within
radialene core. Complex 4b was very weakly diffracting and as such the
data was omitted to 42\% to provide a reasonable completeness for the data.
;

_refine_ls_structure_factor_coef Fsqd
_refine_ls_matrix_type           full
_refine_ls_weighting_scheme      calc
_refine_ls_weighting_details     
'calc w=1/[\s^2^(Fo^2^)+(0.2000P)^2^+0.0000P] where P=(Fo^2^+2Fc^2^)/3'
_atom_sites_solution_primary     direct
_atom_sites_solution_secondary   difmap
_atom_sites_solution_hydrogens   geom
_refine_ls_hydrogen_treatment    constr
_refine_ls_extinction_method     none
_refine_ls_extinction_coef       ?
_refine_ls_number_reflns         25220
_refine_ls_number_parameters     901
_refine_ls_number_restraints     3
_refine_ls_R_factor_all          0.1779
_refine_ls_R_factor_gt           0.1336
_refine_ls_wR_factor_ref         0.3590
_refine_ls_wR_factor_gt          0.3397
_refine_ls_goodness_of_fit_ref   1.086
_refine_ls_restrained_S_all      1.088
_refine_ls_shift/su_max          0.001
_refine_ls_shift/su_mean         0.000

loop_
_atom_site_label
_atom_site_type_symbol
_atom_site_fract_x
_atom_site_fract_y
_atom_site_fract_z
_atom_site_U_iso_or_equiv
_atom_site_adp_type
_atom_site_occupancy
_atom_site_symmetry_multiplicity
_atom_site_calc_flag
_atom_site_refinement_flags
_atom_site_disorder_assembly
_atom_site_disorder_group
Cu1 Cu 0.97449(3) 0.57303(3) 0.136801(13) 0.0396(2) Uani 1 1 d . . .
C1 C 1.1782(3) 0.2860(3) 0.22305(11) 0.0431(15) Uani 1 1 d D . .
Cu2 Cu 1.03582(4) 0.24477(4) -0.106508(15) 0.0530(3) Uani 1 1 d . . .
C2 C 1.2228(3) 0.2387(3) 0.22524(12) 0.0436(16) Uani 1 1 d D . .
C3 C 1.2259(3) 0.2787(3) 0.20617(13) 0.060(2) Uani 1 1 d D . .
C4 C 1.1365(3) 0.3127(3) 0.23291(11) 0.0436(16) Uani 1 1 d . . .
C5 C 1.2442(2) 0.1971(3) 0.23803(11) 0.0391(15) Uani 1 1 d . . .
C6 C 1.2503(3) 0.2995(3) 0.18352(10) 0.0407(15) Uani 1 1 d D . .
C11 C 1.10554(7) 0.35416(8) 0.21633(3) 0.0391(15) Uani 1 1 d G . .
C12 C 1.08173(8) 0.40323(8) 0.22611(3) 0.0432(15) Uani 1 1 d G . .
H12 H 1.0831 0.4106 0.2441 0.052 Uiso 1 1 calc R . .
C13 C 1.05593(8) 0.44149(7) 0.20961(3) 0.0424(15) Uani 1 1 d G . .
H13 H 1.0397 0.4750 0.2163 0.051 Uiso 1 1 calc R . .
C14 C 1.05394(7) 0.43068(7) 0.18332(3) 0.0416(15) Uani 1 1 d G . .
C15 C 1.07775(6) 0.38161(7) 0.17353(3) 0.0504(17) Uani 1 1 d G . .
H15 H 1.0764 0.3742 0.1556 0.061 Uiso 1 1 calc R . .
C16 C 1.10355(6) 0.34335(7) 0.19004(3) 0.061(2) Uani 1 1 d G . .
H16 H 1.1198 0.3098 0.1834 0.073 Uiso 1 1 calc R . .
C17 C 1.02687(7) 0.46882(7) 0.16697(3) 0.066(2) Uani 1 1 d G . .
N18 N 0.99958(8) 0.50317(7) 0.15187(3) 0.0515(14) Uani 1 1 d G . .
C21 C 1.11795(8) 0.30218(9) 0.26009(3) 0.0505(17) Uani 1 1 d G . .
C22 C 1.06102(8) 0.30386(9) 0.26668(3) 0.0480(16) Uani 1 1 d G . .
H22 H 1.0337 0.3124 0.2539 0.058 Uiso 1 1 calc R . .
C23 C 1.0436(3) 0.2932(3) 0.29169(12) 0.0553(18) Uani 1 1 d . . .
H23 H 1.0050 0.2971 0.2965 0.066 Uiso 1 1 calc R . .
C24 C 1.0859(3) 0.2759(3) 0.31030(11) 0.0421(15) Uani 1 1 d . . .
C25 C 1.1422(3) 0.2795(3) 0.30399(11) 0.0452(16) Uani 1 1 d . . .
H25 H 1.1700 0.2757 0.3171 0.054 Uiso 1 1 calc R . .
C26 C 1.1590(2) 0.2888(3) 0.27863(11) 0.0411(15) Uani 1 1 d . . .
H26 H 1.1977 0.2860 0.2739 0.049 Uiso 1 1 calc R . .
C27 C 1.0683(3) 0.2669(3) 0.33597(14) 0.0558(18) Uani 1 1 d . . .
N28 N 1.0538(2) 0.2559(3) 0.35754(11) 0.0560(15) Uani 1 1 d . . .
C31 C 1.2099(3) 0.1728(3) 0.25969(14) 0.0566(19) Uani 1 1 d . . .
C32 C 1.1517(3) 0.1708(3) 0.25802(13) 0.0547(18) Uani 1 1 d . . .
H32 H 1.1326 0.1863 0.2436 0.066 Uiso 1 1 calc R . .
C33 C 1.1207(3) 0.1447(3) 0.27878(12) 0.0490(17) Uani 1 1 d . . .
H33 H 1.0816 0.1367 0.2770 0.059 Uiso 1 1 calc R . .
C34 C 1.1502(3) 0.1311(3) 0.30227(12) 0.0469(16) Uani 1 1 d . . .
C35 C 1.2041(3) 0.1341(3) 0.30189(13) 0.0583(19) Uani 1 1 d . . .
H35 H 1.2227 0.1222 0.3171 0.070 Uiso 1 1 calc R . .
C36 C 1.2378(3) 0.1520(3) 0.28286(11) 0.0414(15) Uani 1 1 d . . .
H36 H 1.2778 0.1511 0.2844 0.050 Uiso 1 1 calc R . .
C37 C 1.1173(3) 0.1138(3) 0.32279(13) 0.0544(18) Uani 1 1 d . . .
N38 N 1.08673(12) 0.09719(12) 0.34053(5) 0.0489(14) Uani 1 1 d G . .
C41 C 1.29894(10) 0.17121(13) 0.23158(4) 0.0485(17) Uani 1 1 d G . .
C42 C 1.30553(13) 0.11303(13) 0.23174(4) 0.079(3) Uani 1 1 d G . .
H42 H 1.2743 0.0896 0.2359 0.095 Uiso 1 1 calc R . .
C43 C 1.3562(3) 0.0896(3) 0.22595(12) 0.0450(16) Uani 1 1 d . . .
H43 H 1.3601 0.0498 0.2255 0.054 Uiso 1 1 calc R . .
C44 C 1.4022(3) 0.1234(3) 0.22077(13) 0.0511(17) Uani 1 1 d . . .
C45 C 1.3986(3) 0.1834(3) 0.21906(15) 0.062(2) Uani 1 1 d . . .
H45 H 1.4297 0.2062 0.2140 0.074 Uiso 1 1 calc R . .
C46 C 1.3455(3) 0.2065(3) 0.22546(11) 0.0426(15) Uani 1 1 d . . .
H46 H 1.3408 0.2462 0.2257 0.051 Uiso 1 1 calc R . .
C47 C 1.4567(3) 0.1037(3) 0.21348(13) 0.0520(17) Uani 1 1 d . . .
N48 N 1.5002(3) 0.0787(3) 0.20841(13) 0.0666(17) Uani 1 1 d . . .
C51 C 1.2973(3) 0.2629(3) 0.17127(13) 0.0538(18) Uani 1 1 d . . .
C52 C 1.2885(3) 0.2067(3) 0.16972(11) 0.0393(15) Uani 1 1 d . . .
H52 H 1.2533 0.1928 0.1757 0.047 Uiso 1 1 calc R . .
C53 C 1.3255(4) 0.1693(4) 0.16045(16) 0.082(3) Uani 1 1 d . . .
H53 H 1.3179 0.1305 0.1575 0.099 Uiso 1 1 calc R . .
C54 C 1.3862(3) 0.2009(3) 0.15494(11) 0.0395(15) Uani 1 1 d . . .
C55 C 1.3922(3) 0.2542(3) 0.15561(12) 0.0514(18) Uani 1 1 d . . .
H55 H 1.4279 0.2700 0.1513 0.062 Uiso 1 1 calc R . .
C56 C 1.3469(3) 0.2913(3) 0.16259(12) 0.0472(16) Uani 1 1 d . . .
H56 H 1.3497 0.3311 0.1615 0.057 Uiso 1 1 calc R . .
C57 C 1.4315(3) 0.1664(3) 0.14679(11) 0.0492(17) Uani 1 1 d . . .
N58 N 1.4633(2) 0.1284(2) 0.14177(9) 0.0438(13) Uani 1 1 d . . .
C61 C 1.2361(2) 0.3602(3) 0.17156(10) 0.0375(14) Uani 1 1 d . . .
C62 C 1.2345(3) 0.3634(3) 0.14640(12) 0.0485(17) Uani 1 1 d . . .
H62 H 1.2465 0.3326 0.1361 0.058 Uiso 1 1 calc R . .
C63 C 1.2142(3) 0.4150(3) 0.13459(10) 0.0409(15) Uani 1 1 d . . .
H63 H 1.2132 0.4197 0.1164 0.049 Uiso 1 1 calc R . .
C64 C 1.1960(3) 0.4578(3) 0.15163(12) 0.0474(16) Uani 1 1 d . . .
C65 C 1.2004(3) 0.4504(3) 0.17734(12) 0.0495(17) Uani 1 1 d . . .
H65 H 1.1893 0.4798 0.1887 0.059 Uiso 1 1 calc R . .
C66 C 1.2217(3) 0.3987(3) 0.18772(12) 0.0511(17) Uani 1 1 d . . .
H66 H 1.2250 0.3931 0.2058 0.061 Uiso 1 1 calc R . .
C67 C 1.1721(3) 0.5088(3) 0.14231(12) 0.0482(17) Uani 1 1 d . . .
N68 N 1.14615(9) 0.54182(10) 0.13318(4) 0.0588(16) Uani 1 1 d G . .
C71 C 0.80305(10) 0.52763(10) -0.02709(3) 0.0395(15) Uani 1 1 d G . .
C72 C 0.75795(11) 0.53319(11) -0.04586(4) 0.0411(15) Uani 1 1 d GD . .
C73 C 0.76091(10) 0.57139(11) -0.02470(4) 0.061(2) Uani 1 1 d G . .
C74 C 0.84773(10) 0.50052(10) -0.01708(3) 0.0515(17) Uani 1 1 d G . .
C75 C 0.72367(12) 0.50482(12) -0.06357(4) 0.0492(17) Uani 1 1 d GD . .
C76 C 0.74565(10) 0.61586(11) -0.01335(4) 0.063(2) Uani 1 1 d G . .
C81 C 0.87068(7) 0.51721(8) 0.00716(3) 0.0473(16) Uani 1 1 d G . .
C82 C 0.83329(7) 0.52234(8) 0.02768(3) 0.0525(18) Uani 1 1 d G . .
H82 H 0.7940 0.5159 0.0251 0.063 Uiso 1 1 calc R . .
C83 C 0.85332(8) 0.53683(8) 0.05195(3) 0.0512(17) Uani 1 1 d G . .
H83 H 0.8278 0.5403 0.0660 0.061 Uiso 1 1 calc R . .
C84 C 0.91073(8) 0.54619(8) 0.05571(3) 0.0444(15) Uani 1 1 d G . .
C85 C 0.94813(7) 0.54106(9) 0.03520(4) 0.0406(15) Uani 1 1 d G . .
H85 H 0.9874 0.5475 0.0378 0.049 Uiso 1 1 calc R . .
C86 C 0.92810(7) 0.52657(9) 0.01092(3) 0.0432(15) Uani 1 1 d G . .
H86 H 0.9537 0.5231 -0.0031 0.052 Uiso 1 1 calc R . .
C87 C 0.93061(9) 0.55528(9) 0.08144(3) 0.0325(13) Uani 1 1 d G . .
N88 N 0.94863(10) 0.56369(11) 0.10113(4) 0.0490(14) Uani 1 1 d G . .
C91 C 0.87793(9) 0.45521(10) -0.03390(4) 0.0460(16) Uani 1 1 d G . .
C92 C 0.90533(10) 0.41065(10) -0.02182(4) 0.0397(15) Uani 1 1 d G . .
H92 H 0.9054 0.4092 -0.0035 0.048 Uiso 1 1 calc R . .
C93 C 0.9329(2) 0.3678(3) -0.03552(11) 0.0385(14) Uani 1 1 d . . .
H93 H 0.9531 0.3387 -0.0270 0.046 Uiso 1 1 calc R . .
C94 C 0.9288(3) 0.3706(3) -0.06382(11) 0.0454(16) Uani 1 1 d . . .
C95 C 0.8978(3) 0.4138(3) -0.07487(13) 0.0560(19) Uani 1 1 d . . .
H95 H 0.8903 0.4111 -0.0928 0.067 Uiso 1 1 calc R . .
C96 C 0.8764(3) 0.4615(3) -0.06179(12) 0.0496(17) Uani 1 1 d . . .
H96 H 0.8625 0.4941 -0.0703 0.059 Uiso 1 1 calc R . .
C97 C 0.9560(3) 0.3285(3) -0.07723(14) 0.0595(19) Uani 1 1 d . . .
N98 N 0.9796(2) 0.2966(3) -0.09012(11) 0.0559(15) Uani 1 1 d . . .
C101 C 0.7356(3) 0.4484(3) -0.07216(12) 0.0483(17) Uani 1 1 d . . .
C102 C 0.7544(3) 0.4092(3) -0.05418(11) 0.0427(15) Uani 1 1 d . . .
H102 H 0.7608 0.4205 -0.0369 0.051 Uiso 1 1 calc R . .
C103 C 0.7640(3) 0.3518(4) -0.06162(15) 0.067(2) Uani 1 1 d . . .
H103 H 0.7746 0.3242 -0.0493 0.080 Uiso 1 1 calc R . .
C104 C 0.7578(3) 0.3386(3) -0.08636(13) 0.0508(17) Uani 1 1 d . . .
C105 C 0.7377(3) 0.3740(3) -0.10475(13) 0.0567(19) Uani 1 1 d . . .
H105 H 0.7312 0.3603 -0.1217 0.068 Uiso 1 1 calc R . .
C106 C 0.7259(3) 0.4338(3) -0.09864(12) 0.0513(17) Uani 1 1 d . . .
H106 H 0.7130 0.4602 -0.1111 0.062 Uiso 1 1 calc R . .
C107 C 0.7659(3) 0.2843(3) -0.09470(12) 0.0562(19) Uani 1 1 d . . .
N108 N 0.7749(2) 0.23037(14) -0.09786(8) 0.126(3) Uani 1 1 d G . .
C111 C 0.67429(13) 0.53949(15) -0.07437(5) 0.0457(16) Uani 1 1 d G . .
C112 C 0.62140(13) 0.51488(17) -0.07742(6) 0.0534(19) Uani 1 1 d G . .
H112 H 0.6171 0.4755 -0.0747 0.064 Uiso 1 1 calc R . .
C113 C 0.5747(3) 0.5470(3) -0.08440(12) 0.0510(17) Uani 1 1 d . . .
H113 H 0.5378 0.5312 -0.0845 0.061 Uiso 1 1 calc R . .
C114 C 0.5844(3) 0.6073(3) -0.09183(11) 0.0375(14) Uani 1 1 d . . .
C115 C 0.6383(3) 0.6335(3) -0.08835(15) 0.067(2) Uani 1 1 d . . .
H115 H 0.