####################################################################### 
# 
# This file contains crystal structure data downloaded from the 
# Cambridge Structural Database (CSD) hosted by the Cambridge 
# Crystallographic Data Centre (CCDC).
# 
# Full information about CCDC data access policies and citation 
# guidelines are available at http://www.ccdc.cam.ac.uk/access/V1 
# 
# Audit and citation data items may have been added by the CCDC. 
# Please retain this information to preserve the provenance of 
# this file and to allow appropriate attribution of the data. 
# 
#######################################################################

data_3
_audit_block_doi                 10.5517/cczr461
_database_code_depnum_ccdc_archive 'CCDC 915963'
loop_
_citation_id
_citation_doi
_citation_year
1 10.1021/cg400036x 2013
_audit_update_record             
;
2012-12-17 deposited with the CCDC.	2024-07-14 downloaded from the CCDC.
;
#TrackingRef 'AdelCS29.cif'



_vrf_CHEMW03_ALERT_2_A           
;
PROBLEM: The ratio of given/expected molecular weight as
calculated from the _atom_site* data lies outside
the range 0.90 <> 1.10
From the CIF: _cell_formula_units_Z 8
From the CIF: _chemical_formula_weight 1367.74
TEST: Calculate formula weight from _atom_site_*
atom mass num sum
C 12.01 48.00 576.53
H 1.01 24.00 24.19
Ag 107.87 3.00 323.60
Cl 35.45 0.00 0.00
N 14.01 6.00 84.04
O 16.00 0.00 0.00
Calculated formula weight 1008.37
RESPONSE:
SQUEEZE routine of PLATON was applied to
the collected data; see _publ_section_exptl_refinement
;

_audit_creation_method           SHELXL-97
_chemical_name_systematic        
;
?
;
_chemical_name_common            ?
_chemical_melting_point          ?
_chemical_formula_moiety         ?
_chemical_formula_sum            'C49 H27 Ag3 Cl3 N7 O14'
_chemical_formula_weight         1367.74

loop_
_atom_type_symbol
_atom_type_description
_atom_type_scat_dispersion_real
_atom_type_scat_dispersion_imag
_atom_type_scat_source
C C 0.0033 0.0016 'International Tables Vol C Tables 4.2.6.8 and 6.1.1.4'
H H 0.0000 0.0000 'International Tables Vol C Tables 4.2.6.8 and 6.1.1.4'
Ag Ag -0.8971 1.1015 'International Tables Vol C Tables 4.2.6.8 and 6.1.1.4'
Cl Cl 0.1484 0.1585 'International Tables Vol C Tables 4.2.6.8 and 6.1.1.4'
N N 0.0061 0.0033 'International Tables Vol C Tables 4.2.6.8 and 6.1.1.4'
O O 0.0106 0.0060 'International Tables Vol C Tables 4.2.6.8 and 6.1.1.4'

_symmetry_cell_setting           orthorhombic
_symmetry_space_group_name_H-M   Pnna

loop_
_symmetry_equiv_pos_as_xyz
'x, y, z'
'-x+1/2, -y, z'
'x, -y+1/2, -z+1/2'
'-x+1/2, y+1/2, -z+1/2'
'-x, -y, -z'
'x-1/2, y, -z'
'-x, y-1/2, z-1/2'
'x-1/2, -y-1/2, z-1/2'

_cell_length_a                   28.799(6)
_cell_length_b                   30.905(6)
_cell_length_c                   15.631(3)
_cell_angle_alpha                90.00
_cell_angle_beta                 90.00
_cell_angle_gamma                90.00
_cell_volume                     13912(5)
_cell_formula_units_Z            8
_cell_measurement_temperature    150(2)
_cell_measurement_reflns_used    11121
_cell_measurement_theta_min      1.46
_cell_measurement_theta_max      24.19

_exptl_crystal_description       rod
_exptl_crystal_colour            'dark red'
_exptl_crystal_size_max          0.10
_exptl_crystal_size_mid          0.03
_exptl_crystal_size_min          0.01
_exptl_crystal_density_meas      ?
_exptl_crystal_density_diffrn    1.306
_exptl_crystal_density_method    'not measured'
_exptl_crystal_F_000             5392
_exptl_absorpt_coefficient_mu    1.006
_exptl_absorpt_correction_type   multi-scan
_exptl_absorpt_correction_T_min  ?
_exptl_absorpt_correction_T_max  ?
_exptl_absorpt_process_details   
;
Using multiple and symmetry-related data measurements via the program SADABS
See R.H. Blessing, Acta Cryst (1995), A51, 33-38
;


_exptl_special_details           
;
?
;

_diffrn_ambient_temperature      150(2)
_diffrn_radiation_wavelength     0.7107
_diffrn_radiation_type           synchrotron
_diffrn_radiation_source         'Australian Synchrotron, station MX1'
_diffrn_radiation_monochromator  ?
_diffrn_measurement_device_type  'CCD detector'
_diffrn_measurement_method       'phi scan'
_diffrn_detector_area_resol_mean ?
_diffrn_standards_number         ?
_diffrn_standards_interval_count ?
_diffrn_standards_interval_time  ?
_diffrn_standards_decay_%        ?
_diffrn_reflns_number            150585
_diffrn_reflns_av_R_equivalents  0.0973
_diffrn_reflns_av_sigmaI/netI    0.0427
_diffrn_reflns_limit_h_min       -32
_diffrn_reflns_limit_h_max       33
_diffrn_reflns_limit_k_min       -35
_diffrn_reflns_limit_k_max       35
_diffrn_reflns_limit_l_min       -18
_diffrn_reflns_limit_l_max       17
_diffrn_reflns_theta_min         1.46
_diffrn_reflns_theta_max         24.19
_reflns_number_total             11121
_reflns_number_gt                7088
_reflns_threshold_expression     >2sigma(I)

_computing_data_collection       Blu-Ice
_computing_cell_refinement       ?
_computing_data_reduction        ?
_computing_structure_solution    'SHELXS-97 (Sheldrick, 1990)'
_computing_structure_refinement  'SHELXL-97 (Sheldrick, 1997)'
_computing_molecular_graphics    'XSeed (Barbour, 2001)'
_computing_publication_material  'CIFTAB (Sheldrick)'

_refine_special_details          
;
Refinement of F^2^ against ALL reflections. The weighted R-factor wR and
goodness of fit S are based on F^2^, conventional R-factors R are based
on F, with F set to zero for negative F^2^. The threshold expression of
F^2^ > 2sigma(F^2^) is used only for calculating R-factors(gt) etc. and is
not relevant to the choice of reflections for refinement. R-factors based
on F^2^ are statistically about twice as large as those based on F, and R-
factors based on ALL data will be even larger.

The structure has large solvent accessible voids. These contained a number
of diffuse electron density peaks that could not be adequately identified
and refined as solvent. The SQUEEZE routine of PLATON was applied to
the collected data, which resulted in significant reductions in R1 and
wR2 and an improvement in the GOF. R1, wR2 and GOF before SQUEEZE routine:
23.5%, 64.3% and 3.18; after SQUEEZE routine: 11.1%, 35.2% and 1.29. The
contents of the solvent region calculated from the result of SQUEEZE
routine (3 ClO4- and 1 CH3NO2 per asymmetric unit) are represented in
the unit cell contents in crystal data.
;

_refine_ls_structure_factor_coef Fsqd
_refine_ls_matrix_type           full
_refine_ls_weighting_scheme      calc
_refine_ls_weighting_details     
'calc w=1/[\s^2^(Fo^2^)+(0.2000P)^2^+0.0000P] where P=(Fo^2^+2Fc^2^)/3'
_atom_sites_solution_primary     direct
_atom_sites_solution_secondary   difmap
_atom_sites_solution_hydrogens   geom
_refine_ls_hydrogen_treatment    constr
_refine_ls_extinction_method     none
_refine_ls_extinction_coef       ?
_refine_ls_number_reflns         11121
_refine_ls_number_parameters     515
_refine_ls_number_restraints     0
_refine_ls_R_factor_all          0.1463
_refine_ls_R_factor_gt           0.1107
_refine_ls_wR_factor_ref         0.3522
_refine_ls_wR_factor_gt          0.3245
_refine_ls_goodness_of_fit_ref   1.287
_refine_ls_restrained_S_all      1.287
_refine_ls_shift/su_max          0.000
_refine_ls_shift/su_mean         0.000

loop_
_atom_site_label
_atom_site_type_symbol
_atom_site_fract_x
_atom_site_fract_y
_atom_site_fract_z
_atom_site_U_iso_or_equiv
_atom_site_adp_type
_atom_site_occupancy
_atom_site_symmetry_multiplicity
_atom_site_calc_flag
_atom_site_refinement_flags
_atom_site_disorder_assembly
_atom_site_disorder_group
Ag1 Ag -0.14261(5) 0.2500 0.2500 0.1576(6) Uani 1 2 d S . .
C1 C -0.0840(2) -0.05673(15) 0.2726(4) 0.0732(17) Uani 1 1 d . . .
Ag2 Ag 0.00762(5) 0.2500 0.2500 0.1596(6) Uani 1 2 d S . .
C2 C -0.04034(19) -0.05631(16) 0.2273(4) 0.0635(14) Uani 1 1 d . . .
Ag3 Ag -0.33052(4) -0.19597(3) 0.57499(7) 0.1790(6) Uani 1 1 d . . .
C3 C -0.06323(17) -0.09695(18) 0.2467(4) 0.0670(15) Uani 1 1 d . . .
Ag4 Ag -0.30829(4) -0.28784(4) 0.42822(7) 0.2017(7) Uani 1 1 d . . .
C4 C -0.12004(18) -0.03437(15) 0.3098(4) 0.0697(16) Uani 1 1 d . . .
C5 C -0.00517(18) -0.03589(15) 0.1894(4) 0.0653(14) Uani 1 1 d . . .
C6 C -0.06335(16) -0.13987(17) 0.2507(4) 0.0653(15) Uani 1 1 d . . .
C11 C -0.12420(18) 0.01302(16) 0.2988(5) 0.0721(16) Uani 1 1 d . . .
C12 C -0.1328(2) 0.03991(19) 0.3651(5) 0.0843(19) Uani 1 1 d . . .
H12 H -0.1360 0.0284 0.4211 0.101 Uiso 1 1 calc R . .
C13 C -0.1371(2) 0.08357(19) 0.3527(5) 0.088(2) Uani 1 1 d . . .
H13 H -0.1424 0.1023 0.3998 0.105 Uiso 1 1 calc R . .
C14 C -0.1335(3) 0.09984(19) 0.2715(7) 0.097(2) Uani 1 1 d . . .
C15 C -0.1235(3) 0.0753(2) 0.2061(6) 0.109(3) Uani 1 1 d . . .
H15 H -0.1198 0.0879 0.1511 0.130 Uiso 1 1 calc R . .
C16 C -0.1181(3) 0.0311(2) 0.2161(6) 0.101(2) Uani 1 1 d . . .
H16 H -0.1105 0.0132 0.1686 0.121 Uiso 1 1 calc R . .
C17 C -0.1427(3) 0.1472(2) 0.2581(6) 0.107(3) Uani 1 1 d . . .
N18 N -0.1487(3) 0.1804(2) 0.2481(6) 0.134(3) Uani 1 1 d . . .
C21 C -0.1546(2) -0.05718(17) 0.3571(5) 0.0773(17) Uani 1 1 d . . .
C22 C -0.1419(2) -0.09237(18) 0.4106(4) 0.0796(18) Uani 1 1 d . . .
H22 H -0.1100 -0.0998 0.4171 0.096 Uiso 1 1 calc R . .
C23 C -0.1757(2) -0.11605(19) 0.4535(5) 0.0839(18) Uani 1 1 d . . .
H23 H -0.1672 -0.1387 0.4915 0.101 Uiso 1 1 calc R . .
C24 C -0.2215(3) -0.1062(2) 0.4403(6) 0.101(2) Uani 1 1 d . . .
C25 C -0.2349(3) -0.0709(2) 0.3888(6) 0.117(3) Uani 1 1 d . . .
H25 H -0.2668 -0.0640 0.3820 0.140 Uiso 1 1 calc R . .
C26 C -0.2017(2) -0.0466(2) 0.3489(6) 0.107(3) Uani 1 1 d . . .
H26 H -0.2106 -0.0224 0.3153 0.128 Uiso 1 1 calc R . .
C27 C -0.2566(3) -0.1318(2) 0.4814(8) 0.151(5) Uani 1 1 d . . .
N28 N -0.2818(3) -0.1539(3) 0.5100(7) 0.162(3) Uani 1 1 d . . .
C31 C -0.10638(18) -0.16381(15) 0.2735(4) 0.0619(14) Uani 1 1 d . . .
C32 C -0.1047(2) -0.19920(16) 0.3292(4) 0.0740(16) Uani 1 1 d . . .
H32 H -0.0757 -0.2089 0.3509 0.089 Uiso 1 1 calc R . .
C33 C -0.1447(2) -0.21971(16) 0.3524(4) 0.0757(17) Uani 1 1 d . . .
H33 H -0.1437 -0.2440 0.3897 0.091 Uiso 1 1 calc R . .
C34 C -0.1857(2) -0.20528(18) 0.3219(5) 0.0799(18) Uani 1 1 d . . .
C35 C -0.1889(2) -0.1708(2) 0.2660(4) 0.0780(17) Uani 1 1 d . . .
H35 H -0.2183 -0.1619 0.2448 0.094 Uiso 1 1 calc R . .
C36 C -0.14974(19) -0.14962(19) 0.2416(5) 0.0788(18) Uani 1 1 d . . .
H36 H -0.1514 -0.1257 0.2036 0.095 Uiso 1 1 calc R . .
C37 C -0.2280(2) -0.2280(2) 0.3483(6) 0.103(2) Uani 1 1 d . . .
N38 N -0.2620(3) -0.2453(2) 0.3673(5) 0.126(2) Uani 1 1 d . . .
C41 C -0.02181(19) -0.16563(16) 0.2234(4) 0.0671(15) Uani 1 1 d . . .
C42 C 0.02156(18) -0.15203(17) 0.2499(4) 0.0640(14) Uani 1 1 d . . .
H42 H 0.0246 -0.1268 0.2842 0.077 Uiso 1 1 calc R . .
C43 C 0.06103(19) -0.1755(2) 0.2259(4) 0.0754(17) Uani 1 1 d . . .
H43 H 0.0910 -0.1668 0.2446 0.090 Uiso 1 1 calc R . .
C44 C 0.0556(2) -0.21064(16) 0.1758(4) 0.0663(15) Uani 1 1 d . . .
C45 C 0.0126(2) -0.22363(18) 0.1484(4) 0.0732(16) Uani 1 1 d . . .
H45 H 0.0099 -0.2480 0.1117 0.088 Uiso 1 1 calc R . .
C46 C -0.0267(2) -0.20165(14) 0.1736(4) 0.0700(16) Uani 1 1 d . . .
H46 H -0.0566 -0.2114 0.1566 0.084 Uiso 1 1 calc R . .
C47 C 0.0956(3) -0.2356(2) 0.1491(5) 0.097(2) Uani 1 1 d . . .
N48 N 0.1264(2) -0.2559(2) 0.1289(5) 0.113(2) Uani 1 1 d . . .
C51 C 0.0284(2) -0.06178(17) 0.1371(5) 0.083(2) Uani 1 1 d . . .
C52 C 0.0749(3) -0.0548(2) 0.1410(6) 0.110(3) Uani 1 1 d . . .
H52 H 0.0867 -0.0320 0.1756 0.131 Uiso 1 1 calc R . .
C53 C 0.1047(3) -0.0803(3) 0.0957(8) 0.128(4) Uani 1 1 d . . .
H53 H 0.1371 -0.0749 0.0983 0.153 Uiso 1 1 calc R . .
C54 C 0.0886(3) -0.1129(3) 0.0475(6) 0.120(3) Uani 1 1 d . . .
C55 C 0.0430(3) -0.1209(2) 0.0384(4) 0.099(2) Uani 1 1 d . . .
H55 H 0.0328 -0.1437 0.0024 0.119 Uiso 1 1 calc R . .
C56 C 0.0096(3) -0.09435(19) 0.0840(4) 0.089(2) Uani 1 1 d . . .
H56 H -0.0229 -0.0986 0.0785 0.107 Uiso 1 1 calc R . .
C57 C 0.1181(4) -0.1442(3) 0.0039(7) 0.154(5) Uani 1 1 d . . .
N58 N 0.1409(4) -0.1700(3) -0.0297(6) 0.178(5) Uani 1 1 d . . .
C61 C 0.0009(2) 0.01162(17) 0.1990(4) 0.0739(16) Uani 1 1 d . . .
C62 C -0.0135(2) 0.03119(18) 0.2742(4) 0.0765(17) Uani 1 1 d . . .
H62 H -0.0260 0.0144 0.3195 0.092 Uiso 1 1 calc R . .
C63 C -0.0092(2) 0.0768(2) 0.2824(5) 0.0824(18) Uani 1 1 d . . .
H63 H -0.0175 0.0906 0.3346 0.099 Uiso 1 1 calc R . .
C64 C 0.0066(2) 0.10087(19) 0.2155(6) 0.090(2) Uani 1 1 d . . .
C65 C 0.0221(2) 0.0810(2) 0.1401(5) 0.094(2) Uani 1 1 d . . .
H65 H 0.0347 0.0980 0.0951 0.113 Uiso 1 1 calc R . .
C66 C 0.0190(2) 0.03668(17) 0.1311(5) 0.0834(19) Uani 1 1 d . . .
H66 H 0.0289 0.0231 0.0797 0.100 Uiso 1 1 calc R . .
C67 C 0.0105(3) 0.1457(2) 0.2214(6) 0.108(2) Uani 1 1 d . . .
N68 N 0.0128(3) 0.1831(2) 0.2332(6) 0.139(3) Uani 1 1 d . . .

loop_
_atom_site_aniso_label
_atom_site_aniso_U_11
_atom_site_aniso_U_22
_atom_site_aniso_U_33
_atom_site_aniso_U_23
_atom_site_aniso_U_13
_atom_site_aniso_U_12
Ag1 0.1710(11) 0.0311(5) 0.2707(16) 0.0017(5) 0.000 0.000
C1 0.063(3) 0.021(2) 0.135(5) 0.007(3) 0.004(3) 0.008(2)
Ag2 0.1846(12) 0.0335(5) 0.2608(15) -0.0062(5) 0.000 0.000
C2 0.065(3) 0.033(3) 0.092(4) 0.008(2) 0.021(3) 0.003(2)
Ag3 0.1667(9) 0.1497(9) 0.2207(11) 0.0084(6) 0.0809(7) -0.0937(7)
C3 0.058(3) 0.037(3) 0.106(4) 0.008(2) 0.022(3) 0.004(2)
Ag4 0.1921(11) 0.2077(11) 0.2054(11) 0.0025(8) 0.0666(8) -0.1368(9)
C4 0.057(3) 0.027(2) 0.125(5) 0.011(3) 0.023(3) 0.001(2)
C5 0.069(3) 0.031(2) 0.096(4) 0.013(2) 0.025(3) 0.004(2)
C6 0.048(3) 0.032(3) 0.116(4) -0.008(2) 0.023(3) -0.0022(19)
C11 0.060(3) 0.032(3) 0.125(5) -0.007(3) 0.032(3) 0.004(2)
C12 0.070(4) 0.052(3) 0.131(5) 0.007(3) 0.037(4) -0.001(3)
C13 0.092(5) 0.041(3) 0.130(6) -0.016(4) 0.024(4) 0.010(3)
C14 0.098(5) 0.022(3) 0.172(8) 0.003(4) 0.011(5) 0.003(3)
C15 0.135(6) 0.042(4) 0.148(7) 0.025(4) 0.034(5) 0.015(4)
C16 0.107(5) 0.044(3) 0.151(7) 0.021(4) 0.028(5) 0.018(3)
C17 0.128(6) 0.024(4) 0.168(7) 0.013(3) -0.008(5) 0.015(3)
N18 0.149(7) 0.049(5) 0.204(8) 0.003(4) -0.015(5) -0.002(4)
C21 0.063(3) 0.042(3) 0.128(5) 0.006(3) 0.035(3) 0.006(2)
C22 0.070(4) 0.045(3) 0.124(5) 0.004(3) 0.019(3) -0.008(3)
C23 0.089(5) 0.051(3) 0.111(5) -0.001(3) 0.034(4) -0.005(3)
C24 0.083(5) 0.049(3) 0.170(7) -0.003(4) 0.061(5) -0.007(3)
C25 0.099(5) 0.055(4) 0.196(8) 0.009(5) 0.047(6) 0.002(4)
C26 0.059(4) 0.054(3) 0.207(8) 0.033(4) 0.043(4) 0.018(3)
C27 0.130(7) 0.070(4) 0.254(12) -0.005(6) 0.120(8) -0.044(5)
N28 0.109(6) 0.169(8) 0.209(9) -0.012(7) 0.062(6) -0.040(6)
C31 0.056(3) 0.026(2) 0.104(4) 0.006(2) 0.022(3) 0.001(2)
C32 0.063(3) 0.040(3) 0.119(5) 0.007(3) 0.007(3) 0.006(2)
C33 0.080(4) 0.033(3) 0.114(5) 0.013(3) 0.034(3) -0.003(3)
C34 0.061(4) 0.046(3) 0.132(6) -0.001(3) 0.019(3) -0.007(3)
C35 0.070(4) 0.057(4) 0.107(5) -0.004(3) 0.006(3) 0.001(3)
C36 0.057(3) 0.043(3) 0.136(5) 0.015(3) 0.007(3) -0.005(2)
C37 0.071(4) 0.065(4) 0.172(7) -0.015(4) 0.038(4) -0.038(3)
N38 0.105(5) 0.104(5) 0.170(6) 0.019(4) 0.006(5) -0.034(4)
C41 0.069(4) 0.029(3) 0.103(4) 0.018(3) 0.023(3) 0.006(2)
C42 0.056(3) 0.041(3) 0.095(4) 0.003(2) 0.015(3) 0.000(2)
C43 0.049(3) 0.066(4) 0.111(5) 0.017(3) 0.020(3) 0.007(3)
C44 0.078(4) 0.037(3) 0.085(4) 0.000(2) 0.023(3) 0.013(2)
C45 0.073(4) 0.045(3) 0.102(4) 0.002(3) 0.026(3) 0.002(3)
C46 0.076(4) 0.028(2) 0.106(4) 0.002(3) 0.020(3) 0.005(2)
C47 0.092(5) 0.063(4) 0.135(6) 0.003(4) 0.041(4) 0.028(4)
N48 0.101(5) 0.085(4) 0.152(6) 0.004(4) 0.034(4) 0.028(4)
C51 0.069(4) 0.038(3) 0.143(6) 0.016(3) 0.052(4) 0.006(2)
C52 0.082(5) 0.066(4) 0.181(8) 0.027(5) 0.053(5) 0.009(3)
C53 0.093(5) 0.064(4) 0.225(10) 0.013(6) 0.075(6) 0.019(4)
C54 0.103(6) 0.095(6) 0.160(8) 0.041(6) 0.075(6) 0.049(5)
C55 0.147(8) 0.070(4) 0.080(4) 0.005(3) 0.039(4) 0.039(4)
C56 0.126(6) 0.048(3) 0.094(4) 0.005(3) 0.043(4) 0.022(3)
C57 0.200(10) 0.089(6) 0.173(8) 0.053(6) 0.135(8) 0.062(6)
N58 0.194(9) 0.171(9) 0.168(8) 0.029(6) 0.076(7) 0.114(8)
C61 0.071(3) 0.040(3) 0.111(5) 0.005(3) 0.011(3) 0.001(2)
C62 0.087(4) 0.033(3) 0.109(5) 0.004(3) 0.025(3) 0.001(3)
C63 0.076(4) 0.052(4) 0.119(5) -0.007(3) 0.003(4) -0.002(3)
C64 0.082(4) 0.034(3) 0.153(6) 0.002(4) 0.009(4) 0.002(3)
C65 0.095(5) 0.053(4) 0.134(6) 0.026(4) 0.026(4) -0.006(3)
C66 0.079(4) 0.038(3) 0.133(5) 0.009(3) 0.029(4) -0.003(3)
C67 0.128(6) 0.034(4) 0.161(7) 0.006(4) 0.006(5) 0.008(3)
N68 0.146(6) 0.051(4) 0.220(9) 0.011(4) 0.003(6) 0.001(4)

_geom_special_details            
;
All esds (except the esd in the dihedral angle between two l.s. planes)
are estimated using the full covariance matrix. The cell esds are taken
into account individually in the estimation of esds in distances, angles
and torsion angles; correlations between 