
#######################################################################
#
#                 Cambridge Crystallographic Data Centre
#                                CCDC
#
#######################################################################
#
# If this CIF has been generated from an entry in the Cambridge
# Structural Database, then it will include bibliographic, chemical,
# crystal, experimental, refinement or atomic coordinate data resulting
# from the CCDC's data processing and validation procedures.
#
#######################################################################

data_CSD_CIF_ZEXQAU
_audit_creation_date 1996-01-18
_audit_creation_method CSD-ConQuest-V1
_database_code_CSD ZEXQAU
_database_code_depnum_ccdc_archive 'CCDC 125960'
_chemical_formula_sum 'C9 H3 N3'
_chemical_formula_moiety
;
C9 H3 N3
;
_journal_coeditor_code "IUCr SE1078"
_journal_coden_Cambridge 591
_journal_volume 51
_journal_year 1995
_journal_page_first 2352
_journal_name_full 'Acta Crystallogr.,Sect.C:Cryst.Struct.Commun. '
loop_
_publ_author_name
"D.S.Reddy"
"K.Panneerselvam"
"G.R.Desiraju"
"H.L.Carrell"
"C.J.Carrell"
_chemical_name_systematic
;
1,3,5-Tricyanobenzene
;
_chemical_name_common
;
sym-Tricyanobenzene; Teaching Subset: Fundamental Chemistry, Symmetry
;
_chemical_melting_point 526
_cell_volume    408.832
_exptl_crystal_colour 'colorless'
_exptl_crystal_density_diffrn 1.244
_diffrn_ambient_temperature ?
_diffrn_special_details
;
The study was carried out at room temperature,in the range 283-303K

;
#These two values have been output from a single CSD field.
_refine_ls_R_factor_gt 0.0428
_refine_ls_wR_factor_gt 0.0428
_symmetry_cell_setting monoclinic
_symmetry_space_group_name_H-M 'P 21'
_symmetry_Int_Tables_number 4
loop_
_symmetry_equiv_pos_site_id
_symmetry_equiv_pos_as_xyz
1 x,y,z
2 -x,1/2+y,-z
_cell_length_a 13.719(2)
_cell_length_b 7.726(1)
_cell_length_c 3.875(1)
_cell_angle_alpha 90
_cell_angle_beta 95.50(2)
_cell_angle_gamma 90
_cell_formula_units_Z 2
loop_
_atom_type_symbol
_atom_type_radius_bond
C 0.68
H 0.23
N 0.68
loop_
_atom_site_label
_atom_site_type_symbol
_atom_site_fract_x
_atom_site_fract_y
_atom_site_fract_z
C1 C 0.33209(12) -0.1833(4) 0.0931(5)
C2 C 0.33233(13) -0.0144(4) 0.2138(5)
C3 C 0.24702(13) 0.08260 0.1607(4)
C4 C 0.16236(12) 0.0130(3) -0.0110(4)
C5 C 0.16440(12) -0.1561(3) -0.1302(4)
C6 C 0.24880(14) -0.2560(3) -0.0801(4)
C7 C 0.4200(2) -0.2871(5) 0.1493(7)
C8 C 0.2467(2) 0.2570(4) 0.2919(6)
C9 C 0.0773(2) -0.2309(4) -0.3094(5)
N1 N 0.4893(2) -0.3663(7) 0.1975(8)
N2 N 0.2465(2) 0.3933(4) 0.4012(7)
N3 N 0.0093(2) -0.2902(5) -0.4519(7)
H1 H 0.3907(18) 0.0295(39) 0.3413(70)
H2 H 0.105(2) 0.0746(49) -0.0621(76)
H3 H 0.2448(16) -0.3673(41) -0.1592(65)
#END
