####################################################################### 
# 
# This file contains crystal structure data downloaded from the 
# Cambridge Structural Database (CSD) hosted by the Cambridge 
# Crystallographic Data Centre (CCDC).
# 
# Full information about CCDC data access policies and citation 
# guidelines are available at http://www.ccdc.cam.ac.uk/access/V1 
# 
# Audit and citation data items may have been added by the CCDC. 
# Please retain this information to preserve the provenance of 
# this file and to allow appropriate attribution of the data. 
# 
#######################################################################

data_c:
_audit_block_doi                 10.5517/cc10frck
_database_code_depnum_ccdc_archive 'CCDC 936738'
loop_
_citation_id
_citation_doi
_citation_year
1 10.1039/C3CE40776D 2014
_audit_update_record             
;
2013-04-30 deposited with the CCDC.	2024-07-14 downloaded from the CCDC.
;
_audit_creation_method           SHELXL-97
_chemical_name_systematic        
; 
 [Chlorotrisdimethylformamide{(+-)-2,7,12-trimethoxy-
3,8,13-tris(4-N-oxide-pyridyloxy)-10,15-dihydro-5H-
tribenzo[a,d,g]cyclononatriene}samarium(III)
pentachlorodimethylformamidesamariumate(III) dimethylformamide 
;
_chemical_name_common            ?
_chemical_melting_point          ?
_chemical_formula_moiety         ?
_chemical_formula_sum            'C61.50 H78.50 Cl6 N9.50 O18.50 Sm2'
_chemical_formula_weight         1760.24

loop_
_atom_type_symbol
_atom_type_description
_atom_type_scat_dispersion_real
_atom_type_scat_dispersion_imag
_atom_type_scat_source
C C 0.0033 0.0016 'International Tables Vol C Tables 4.2.6.8 and 6.1.1.4'
H H 0.0000 0.0000 'International Tables Vol C Tables 4.2.6.8 and 6.1.1.4'
N N 0.0061 0.0033 'International Tables Vol C Tables 4.2.6.8 and 6.1.1.4'
O O 0.0106 0.0060 'International Tables Vol C Tables 4.2.6.8 and 6.1.1.4'
Cl Cl 0.1484 0.1585 'International Tables Vol C Tables 4.2.6.8 and 6.1.1.4'
Sm Sm -0.1638 3.4418 'International Tables Vol C Tables 4.2.6.8 and 6.1.1.4'

_symmetry_cell_setting           Triclinic
_symmetry_space_group_name_H-M   P-1

loop_
_symmetry_equiv_pos_as_xyz
'x, y, z'
'-x, -y, -z'

_cell_length_a                   12.7326(12)
_cell_length_b                   16.1047(13)
_cell_length_c                   19.7002(17)
_cell_angle_alpha                103.648(2)
_cell_angle_beta                 91.582(3)
_cell_angle_gamma                94.159(3)
_cell_volume                     3911.0(6)
_cell_formula_units_Z            2
_cell_measurement_temperature    150(2)
_cell_measurement_reflns_used    ?
_cell_measurement_theta_min      ?
_cell_measurement_theta_max      ?

_exptl_crystal_description       block
_exptl_crystal_colour            yellow
_exptl_crystal_size_max          0.24
_exptl_crystal_size_mid          0.18
_exptl_crystal_size_min          0.13
_exptl_crystal_density_meas      ?
_exptl_crystal_density_diffrn    1.495
_exptl_crystal_density_method    'not measured'
_exptl_crystal_F_000             1776
_exptl_absorpt_coefficient_mu    1.760
_exptl_absorpt_correction_type   multi-scan
_exptl_absorpt_correction_T_min  0.6774
_exptl_absorpt_correction_T_max  0.8035
_exptl_absorpt_process_details   SADABS

_exptl_special_details           
; 
 ? 
;

_diffrn_ambient_temperature      150(2)
_diffrn_radiation_wavelength     0.71073
_diffrn_radiation_type           MoK\a
_diffrn_radiation_source         'rotating anode'
_diffrn_radiation_monochromator  graphite
_diffrn_measurement_device_type  'BRUKER X8 CCD area detector'
_diffrn_measurement_method       ?
_diffrn_detector_area_resol_mean ?
_diffrn_standards_number         ?
_diffrn_standards_interval_count ?
_diffrn_standards_interval_time  ?
_diffrn_standards_decay_%        ?
_diffrn_reflns_number            61774
_diffrn_reflns_av_R_equivalents  0.0517
_diffrn_reflns_av_sigmaI/netI    0.0557
_diffrn_reflns_limit_h_min       -16
_diffrn_reflns_limit_h_max       16
_diffrn_reflns_limit_k_min       -20
_diffrn_reflns_limit_k_max       20
_diffrn_reflns_limit_l_min       -25
_diffrn_reflns_limit_l_max       24
_diffrn_reflns_theta_min         1.06
_diffrn_reflns_theta_max         27.28
_reflns_number_total             17431
_reflns_number_gt                12627
_reflns_threshold_expression     >2sigma(I)

_computing_data_collection       ?
_computing_cell_refinement       ?
_computing_data_reduction        ?
_computing_structure_solution    'SHELXS-97 (Sheldrick, 1990)'
_computing_structure_refinement  'SHELXL-97 (Sheldrick, 1997)'
_computing_molecular_graphics    ?
_computing_publication_material  ?

_refine_special_details          
; 
 Refinement of F^2^ against ALL reflections.  The weighted R-factor wR and 
 goodness of fit S are based on F^2^, conventional R-factors R are based 
 on F, with F set to zero for negative F^2^. The threshold expression of 
 F^2^ > 2sigma(F^2^) is used only for calculating R-factors(gt) etc. and is 
 not relevant to the choice of reflections for refinement.  R-factors based 
 on F^2^ are statistically about twice as large as those based on F, and R- 
 factors based on ALL data will be even larger. 

Two methyl groups of ligand 2 were refined as being disordered
 across two positions, one with OMe in two positions 
each at 50% occupancy, and the other with the CH3 group 
across two positions at 75:25 occupancy. The coordinated 
DMF of the [SmCl5.(DMF)] was refined as
 disordered across two positions each at 50% occupancy. 
Two uncoordinated solvent DMF molecules were refined isotropically and one shows a symmetry-related disorder 
and was refined at 50% occupancy. Some bond lengths of 
this DMF were restrained to be chemically reasonable
;

_refine_ls_structure_factor_coef Fsqd
_refine_ls_matrix_type           full
_refine_ls_weighting_scheme      calc
_refine_ls_weighting_details     
'calc w=1/[\s^2^(Fo^2^)+(0.0748P)^2^+8.2961P] where P=(Fo^2^+2Fc^2^)/3'
_atom_sites_solution_primary     direct
_atom_sites_solution_secondary   difmap
_atom_sites_solution_hydrogens   geom
_refine_ls_hydrogen_treatment    constr
_refine_ls_extinction_method     none
_refine_ls_extinction_coef       ?
_refine_ls_number_reflns         17431
_refine_ls_number_parameters     933
_refine_ls_number_restraints     4
_refine_ls_R_factor_all          0.0773
_refine_ls_R_factor_gt           0.0504
_refine_ls_wR_factor_ref         0.1494
_refine_ls_wR_factor_gt          0.1334
_refine_ls_goodness_of_fit_ref   1.034
_refine_ls_restrained_S_all      1.038
_refine_ls_shift/su_max          0.001
_refine_ls_shift/su_mean         0.000

loop_
_atom_site_label
_atom_site_type_symbol
_atom_site_fract_x
_atom_site_fract_y
_atom_site_fract_z
_atom_site_U_iso_or_equiv
_atom_site_adp_type
_atom_site_occupancy
_atom_site_symmetry_multiplicity
_atom_site_calc_flag
_atom_site_refinement_flags
_atom_site_disorder_assembly
_atom_site_disorder_group
Sm1 Sm 0.35522(2) 0.413374(16) 0.687637(14) 0.03056(8) Uani 1 1 d . . .
Cl1 Cl 0.30778(17) 0.43211(12) 0.55413(10) 0.0647(5) Uani 1 1 d . A 1
O1 O 0.4239(3) 0.1284(3) 1.0907(2) 0.0458(10) Uani 1 1 d . . .
N1 N 0.3642(4) 0.3032(3) 0.8187(3) 0.0465(12) Uani 1 1 d . . .
C1 C 0.7173(4) -0.0251(4) 1.1613(3) 0.0378(12) Uani 1 1 d . . .
H1A H 0.7612 -0.0687 1.1346 0.045 Uiso 1 1 calc R . .
H1B H 0.6585 -0.0558 1.1796 0.045 Uiso 1 1 calc R . .
Sm2 Sm 0.73750(2) 0.083148(18) 0.717584(15) 0.03585(9) Uani 1 1 d . . .
Cl2 Cl 0.69437(17) 0.24823(11) 0.73647(10) 0.0626(5) Uani 1 1 d . B 1
O2 O 0.5283(3) 0.1496(3) 0.9747(2) 0.0408(9) Uani 1 1 d . . .
N2 N 1.4419(4) 0.5011(3) 1.1962(3) 0.0415(11) Uani 1 1 d . . .
C2 C 0.6720(4) 0.0237(3) 1.1118(3) 0.0342(12) Uani 1 1 d . . .
Cl3 Cl 0.78720(16) 0.12184(13) 0.85463(9) 0.0635(5) Uani 1 1 d . B 1
O3 O 0.5382(4) 0.2822(3) 1.0462(2) 0.0595(13) Uani 1 1 d . . .
N3 N 0.5758(4) 0.3664(3) 1.5898(3) 0.0434(12) Uani 1 1 d . . .
C3 C 0.5716(4) 0.0547(4) 1.1254(3) 0.0366(12) Uani 1 1 d . . .
H3 H 0.5362 0.0446 1.1648 0.044 Uiso 1 1 calc R . .
Cl4 Cl 0.53031(12) 0.03693(12) 0.71892(9) 0.0528(4) Uani 1 1 d . B .
O4 O 0.3127(4) 0.3236(3) 0.7660(2) 0.0510(11) Uani 1 1 d . A .
N4 N 0.2075(4) 0.6492(3) 0.8193(3) 0.0501(13) Uani 1 1 d . A .
C4 C 0.5235(4) 0.0994(4) 1.0825(3) 0.0377(13) Uani 1 1 d . . .
Cl5 Cl 0.77000(13) -0.08303(10) 0.70349(9) 0.0504(4) Uani 1 1 d . B 1
O5 O 1.0676(4) 0.2565(3) 1.0122(3) 0.0631(13) Uani 1 1 d . . .
N5 N 0.0014(5) 0.3182(5) 0.6390(5) 0.079(2) Uani 1 1 d . A .
C5 C 0.5773(4) 0.1143(4) 1.0255(3) 0.0370(12) Uani 1 1 d . . .
Cl6 Cl 0.74904(14) 0.06857(11) 0.57721(8) 0.0513(4) Uani 1 1 d . B .
O6 O 1.1817(3) 0.2507(3) 1.1280(2) 0.0485(11) Uani 1 1 d . D .
N6 N 0.4048(5) 0.1568(3) 0.5287(3) 0.0539(14) Uani 1 1 d . A .
C6 C 0.6761(4) 0.0853(3) 1.0111(3) 0.0344(12) Uani 1 1 d . . .
H6 H 0.7113 0.0972 0.9722 0.041 Uiso 1 1 calc R . .
O7 O 1.0752(3) 0.3566(3) 1.1677(3) 0.0670(15) Uani 1 1 d . D .
N7 N 0.5507(7) 0.6765(5) 0.6939(4) 0.092(3) Uani 1 1 d . A .
C7 C 0.7246(4) 0.0390(3) 1.0532(3) 0.0336(12) Uani 1 1 d . . .
O8 O 1.5277(3) 0.5543(3) 1.2084(2) 0.0411(9) Uani 1 1 d . . .
C8 C 0.8297(4) 0.0043(4) 1.0302(3) 0.0379(13) Uani 1 1 d . . .
H8A H 0.8295 -0.0106 0.9785 0.045 Uiso 1 1 calc R . .
H8B H 0.8374 -0.0489 1.0462 0.045 Uiso 1 1 calc R . .
N9 N 0.9509(9) 0.5509(9) 0.6017(6) 0.070(4) Uiso 0.50 1 d PD . .
C9 C 0.9252(4) 0.0691(4) 1.0594(3) 0.0362(12) Uani 1 1 d . D .
O10 O 0.7306(4) 0.1673(3) 1.3969(2) 0.0494(11) Uani 1 1 d . . .
N10 N 0.8108(9) 0.4261(7) 0.9305(6) 0.116(3) Uiso 1 1 d . . .
C10 C 0.9512(4) 0.1316(4) 1.0222(3) 0.0396(13) Uani 1 1 d . . .
H10 H 0.9109 0.1319 0.9809 0.048 Uiso 1 1 calc R D .
O11 O 0.7587(4) 0.2932(3) 1.3649(3) 0.0667(14) Uani 1 1 d . . .
C11 C 1.0356(5) 0.1936(4) 1.0450(3) 0.0435(14) Uani 1 1 d . D .
O12 O 0.5314(3) 0.4051(3) 1.6479(2) 0.0500(11) Uani 1 1 d . . .
C12 C 1.0919(4) 0.1905(4) 1.1062(3) 0.0441(15) Uani 1 1 d . . .
O13 O 0.2551(4) 0.5191(3) 0.7622(3) 0.0592(13) Uani 1 1 d . A .
C13 C 1.0692(4) 0.1299(4) 1.1425(3) 0.0395(13) Uani 1 1 d . D .
H13 H 1.1106 0.1300 1.1834 0.047 Uiso 1 1 calc R . .
O14 O 0.1716(4) 0.3611(3) 0.6699(3) 0.0593(13) Uani 1 1 d . A .
C14 C 0.9843(4) 0.0665(4) 1.1199(3) 0.0350(12) Uani 1 1 d . . .
O15 O 0.3643(4) 0.2661(3) 0.6186(2) 0.0496(11) Uani 1 1 d . A .
C15 C 0.9613(5) 0.0030(4) 1.1641(3) 0.0415(14) Uani 1 1 d . D .
H15A H 1.0285 -0.0129 1.1821 0.050 Uiso 1 1 calc R . .
H15B H 0.9232 -0.0497 1.1349 0.050 Uiso 1 1 calc R . .
O16 O 0.4364(4) 0.5621(3) 0.6951(3) 0.0531(11) Uani 1 1 d . A .
C16 C 0.8942(5) 0.0414(4) 1.2258(3) 0.0418(13) Uani 1 1 d . . .
O17 O 0.9241(4) 0.1121(4) 0.7092(3) 0.0662(16) Uani 1 1 d . B .
C17 C 0.9481(5) 0.0926(5) 1.2860(4) 0.063(2) Uani 1 1 d . C .
H17 H 1.0230 0.0982 1.2879 0.076 Uiso 1 1 calc R . .
O18 O 0.8025(9) 0.4869(7) 0.6316(6) 0.068(3) Uiso 0.50 1 d PD . .
C18 C 0.8954(6) 0.1352(6) 1.3426(4) 0.069(2) Uani 1 1 d . . .
O19 O 0.7987(13) 0.5416(10) 1.0085(9) 0.230(6) Uiso 1 1 d . . .
C19 C 0.7863(5) 0.1254(4) 1.3382(3) 0.0482(15) Uani 1 1 d . C .
C20 C 0.7317(5) 0.0748(4) 1.2812(3) 0.0416(13) Uani 1 1 d . . .
H20 H 0.6569 0.0687 1.2805 0.050 Uiso 1 1 calc R C .
C21 C 0.7846(4) 0.0313(4) 1.2234(3) 0.0367(12) Uani 1 1 d . C .
C22 C 0.3588(5) 0.0931(4) 1.1371(3) 0.0454(14) Uani 1 1 d . . .
H22A H 0.3569 0.0304 1.1238 0.068 Uiso 1 1 calc R . .
H22B H 0.2872 0.1109 1.1340 0.068 Uiso 1 1 calc R . .
H22C H 0.3879 0.1140 1.1852 0.068 Uiso 1 1 calc R . .
C23 C 0.5132(5) 0.2329(4) 0.9908(3) 0.0422(14) Uani 1 1 d . . .
C24 C 0.4612(5) 0.2571(4) 0.9293(3) 0.0432(14) Uani 1 1 d . A .
C25 C 0.3968(8) 0.3251(5) 0.9400(4) 0.077(3) Uani 1 1 d . . .
H25 H 0.3872 0.3571 0.9862 0.093 Uiso 1 1 calc R A .
C26 C 0.3475(7) 0.3459(6) 0.8846(4) 0.076(3) Uani 1 1 d . A .
H26 H 0.3014 0.3907 0.8925 0.091 Uiso 1 1 calc R . .
C27 C 0.4284(5) 0.2412(4) 0.8066(3) 0.0496(15) Uani 1 1 d . A .
H27 H 0.4413 0.2137 0.7597 0.060 Uiso 1 1 calc R . .
C28 C 0.4773(5) 0.2154(4) 0.8609(3) 0.0454(14) Uani 1 1 d . . .
H28 H 0.5217 0.1695 0.8514 0.055 Uiso 1 1 calc R A .
C30 C 1.1625(5) 0.3330(4) 1.1555(3) 0.0484(16) Uani 1 1 d . . .
C31 C 1.2614(5) 0.3899(4) 1.1691(3) 0.0426(14) Uani 1 1 d . D .
C32 C 1.2573(5) 0.4747(4) 1.2056(4) 0.0515(16) Uani 1 1 d . . .
H32 H 1.1919 0.4947 1.2217 0.062 Uiso 1 1 calc R D .
C33 C 1.3479(5) 0.5304(4) 1.2187(3) 0.0484(15) Uani 1 1 d . D .
H33 H 1.3446 0.5885 1.2432 0.058 Uiso 1 1 calc R . .
C34 C 1.4478(5) 0.4191(4) 1.1594(3) 0.0421(14) Uani 1 1 d . D .
H34 H 1.5136 0.4004 1.1431 0.051 Uiso 1 1 calc R . .
C35 C 1.3580(4) 0.3623(4) 1.1454(3) 0.0406(13) Uani 1 1 d . . .
H35 H 1.3625 0.3049 1.1197 0.049 Uiso 1 1 calc R D .
C37 C 0.7251(5) 0.2526(4) 1.4050(3) 0.0470(15) Uani 1 1 d . . .
C38 C 0.6727(4) 0.2910(4) 1.4709(3) 0.0395(13) Uani 1 1 d . . .
C39 C 0.6322(6) 0.3706(4) 1.4767(3) 0.0512(16) Uani 1 1 d . . .
H39 H 0.6391 0.3991 1.4399 0.061 Uiso 1 1 calc R . .
C40 C 0.5829(6) 0.4071(4) 1.5357(4) 0.0516(16) Uani 1 1 d . . .
H40 H 0.5534 0.4604 1.5395 0.062 Uiso 1 1 calc R . .
C41 C 0.6139(5) 0.2916(4) 1.5853(3) 0.0432(14) Uani 1 1 d . . .
H41 H 0.6081 0.2650 1.6234 0.052 Uiso 1 1 calc R . .
C42 C 0.6629(5) 0.2506(4) 1.5251(3) 0.0421(13) Uani 1 1 d . . .
H42 H 0.6889 0.1961 1.5217 0.050 Uiso 1 1 calc R . .
C43 C 0.2391(5) 0.5946(4) 0.7647(4) 0.0525(16) Uani 1 1 d . . .
H43 H 0.2507 0.6147 0.7237 0.063 Uiso 1 1 calc R A .
C44 C 0.1887(8) 0.6261(6) 0.8847(4) 0.081(3) Uani 1 1 d . . .
H44A H 0.2072 0.5673 0.8813 0.122 Uiso 1 1 calc R A .
H44B H 0.1141 0.6300 0.8949 0.122 Uiso 1 1 calc R . .
H44C H 0.2321 0.6654 0.9224 0.122 Uiso 1 1 calc R . .
C45 C 0.1906(7) 0.7384(4) 0.8182(4) 0.068(2) Uani 1 1 d . . .
H45A H 0.2086 0.7485 0.7726 0.102 Uiso 1 1 calc R A .
H45B H 0.2354 0.7777 0.8551 0.102 Uiso 1 1 calc R . .
H45C H 0.1165 0.7485 0.8263 0.102 Uiso 1 1 calc R . .
C46 C 0.1034(7) 0.3333(6) 0.6288(6) 0.079(2) Uani 1 1 d . . .
H46 H 0.1228 0.3193 0.5815 0.095 Uiso 1 1 calc R A .
C47 C -0.0348(10) 0.3375(7) 0.7077(8) 0.124(5) Uani 1 1 d . . .
H47A H -0.0608 0.2843 0.7199 0.186 Uiso 1 1 calc R A .
H47B H -0.0919 0.3755 0.7104 0.186 Uiso 1 1 calc R . .
H47C H 0.0234 0.3659 0.7405 0.186 Uiso 1 1 calc R . .
C48 C -0.0725(9) 0.2782(8) 0.5822(8) 0.139(5) Uani 1 1 d . . .
H48A H -0.0998 0.3221 0.5611 0.209 Uiso 1 1 calc R A .
H48B H -0.1309 0.2475 0.5998 0.209 Uiso 1 1 calc R . .
H48C H -0.0370 0.2376 0.5469 0.209 Uiso 1 1 calc R . .
C49 C 0.3717(6) 0.2338(5) 0.5537(4) 0.0587(18) Uani 1 1 d . . .
H49 H 0.3525 0.2663 0.5215 0.070 Uiso 1 1 calc R A .
C50 C 0.4204(8) 0.1257(6) 0.4514(4) 0.085(3) Uani 1 1 d . . .
H50A H 0.4100 0.1721 0.4281 0.127 Uiso 1 1 calc R A .
H50B H 0.3693 0.0769 0.4316 0.127 Uiso 1 1 calc R . .
H50C H 0.4921 0.1078 0.4444 0.127 Uiso 1 1 calc R . .
C51 C 0.4366(7) 0.1013(5) 0.5704(4) 0.070(2) Uani 1 1 d . . .
H51A H 0.4292 0.1285 0.6199 0.105 Uiso 1 1 calc R A .
H51B H 0.5104 0.0899 0.5625 0.105 Uiso 1 1 calc R . .
H51C H 0.3922 0.0472 0.5577 0.105 Uiso 1 1 calc R . .
C52 C 0.5228(8) 0.5930(5) 0.6810(4) 0.072(2) Uani 1 1 d . . .
H52 H 0.5721 0.5545 0.6597 0.087 Uiso 1 1 calc R A .
C53 C 0.6649(11) 0.7052(8) 0.6822(8) 0.150(6) Uani 1 1 d . . .
H53A H 0.7072 0.7145 0.7260 0.225 Uiso 1 1 calc R A .
H53B H 0.6664 0.7588 0.6666 0.225 Uiso 1 1 calc R . .
H53C H 0.6939 0.6608 0.6464 0.225 Uiso 1 1 calc R . .
C54 C 0.4833(10) 0.7397(6) 0.7272(9) 0.149(7) Uani 1 1 d . . .
H54A H 0.4109 0.7235 0.7079 0.224 Uiso 1 1 calc R A .
H54B H 0.5075 0.7955 0.7190 0.224 Uiso 1 1 calc R . .
H54C H 0.4852 0.7433 0.7776 0.224 Uiso 1 1 calc R . .
C58 C 0.8433(9) 0.5206(7) 0.5966(6) 0.041(3) Uiso 0.50 1 d PD . .
H58 H 0.8020 0.5307 0.5589 0.049 Uiso 0.50 1 calc PR . .
C59 C 1.0089(9) 0.5630(7) 0.6672(6) 0.038(3) Uiso 0.50 1 d PD . .
H59A H 1.0813 0.5854 0.6627 0.058 Uiso 0.50 1 calc PR . .
H59B H 1.0097 0.5080 0.6803 0.058 Uiso 0.50 1 calc PR . .
H59C H 0.9752 0.6039 0.7033 0.058 Uiso 0.50 1 calc PR . .
C60 C 1.0208(18) 0.5483(15) 0.5397(10) 0.109(7) Uiso 0.50 1 d PD . .
H60A H 1.0920 0.5729 0.5567 0.164 Uiso 0.50 1 calc PR . .
H60B H 0.9914 0.5816 0.5090 0.164 Uiso 0.50 1 calc PR . .
H60C H 1.0237 0.4888 0.5135 0.164 Uiso 0.50 1 calc PR . .
C61 C 0.8550(14) 0.5041(11) 0.9679(9) 0.150(6) Uiso 1 1 d . . .
H61 H 0.9245 0.5259 0.9616 0.180 Uiso 1 1 calc R . .
C62 C 0.8880(16) 0.3869(13) 0.8765(11) 0.209(8) Uiso 1 1 d . . .
H62A H 0.8576 0.3823 0.8294 0.314 Uiso 1 1 calc R . .
H62B H 0.9016 0.3297 0.8821 0.314 Uiso 1 1 calc R . .
H62C H 0.9542 0.4234 0.8834 0.314 Uiso 1 1 calc R . .
C63 C 0.7090(14) 0.3924(11) 0.9352(9) 0.177(7) Uiso 1 1 d . . .
H63A H 0.7101 0.3482 0.9618 0.265 Uiso 1 1 calc R . .
H63B H 0.6781 0.3669 0.8881 0.265 Uiso 1 1 calc R . .
H63C H 0.6666 0.4381 0.9588 0.265 Uiso 1 1 calc R . .
N8A N 1.0855(14) 0.0909(11) 0.6489(8) 0.058(4) Uani 0.50 1 d P B 1
O9A O 0.9472(10) 0.2060(9) 1.3976(6) 0.053(3) Uani 0.50 1 d P C 1
C29A C 1.0120(12) 0.2586(8) 0.9539(7) 0.082(4) Uani 0.75 1 d P D 1
H29A H 1.0205 0.2064 0.9177 0.123 Uiso 0.75 1 calc PR D 1
H29B H 1.0376 0.3089 0.9373 0.123 Uiso 0.75 1 calc PR D 1
H29C H 0.9373 0.2620 0.9640 0.123 Uiso 0.75 1 calc PR D 1
C36A C 1.0628(11) 0.2261(13) 1.3960(9) 0.080(