####################################################################### 
# 
# This file contains crystal structure data downloaded from the 
# Cambridge Structural Database (CSD) hosted by the Cambridge 
# Crystallographic Data Centre (CCDC).
# 
# Full information about CCDC data access policies and citation 
# guidelines are available at http://www.ccdc.cam.ac.uk/access/V1 
# 
# Audit and citation data items may have been added by the CCDC. 
# Please retain this information to preserve the provenance of 
# this file and to allow appropriate attribution of the data. 
# 
#######################################################################

data_ZIFBAR
#This CIF has been generated from an entry in the Cambridge Structural Database
_database_code_depnum_ccdc_archive 'CCDC 1312228'
_database_code_CSD               ZIFBAR
loop_
_citation_id
_citation_doi
_citation_year
1 10.1021/ic00126a045 1995
_audit_creation_method           'Created from the CSD'
_audit_update_record             
;
2024-07-14 downloaded from the CCDC.
;
_database_code_NBS               658761
_chemical_formula_moiety         
'(C38 H42 N12 O4 Zn2 2+)n,2n(B1 F4 1-),2n(C1 H4 O1),2n(C4 H10 O1)'
_chemical_name_systematic        
'catena(bis(\m~2~-Hydroxy)-bis(\m~2~-3-(1-methylimidazole)-1-(hydroxy-bis(1-methylimidazole)tolyl))-di-zinc-bis(tetrafluoroborate) methanol diethyl ether solvate)'
_chemical_absolute_configuration unk
_diffrn_ambient_temperature      173
_exptl_crystal_density_diffrn    1.529
#These two values have been output from a single CSD field.
_refine_ls_R_factor_gt           0.16
_refine_ls_wR_factor_gt          0.16
_diffrn_radiation_probe          x-ray
_symmetry_cell_setting           monoclinic
_symmetry_space_group_name_H-M   'P 21/c'
_symmetry_Int_Tables_number      14
_space_group_name_Hall           '-P 2ybc'
loop_
_symmetry_equiv_pos_site_id
_symmetry_equiv_pos_as_xyz
1 x,y,z
2 -x,1/2+y,1/2-z
3 -x,-y,-z
4 x,1/2-y,1/2+z
_cell_length_a                   12.011(2)
_cell_length_b                   22.552(5)
_cell_length_c                   20.670(4)
_cell_angle_alpha                90
_cell_angle_beta                 104.55(3)
_cell_angle_gamma                90
_cell_volume                     5419.36
_exptl_crystal_colour            colorless
_cell_formula_units_Z            4
loop_
_atom_site_label
_atom_site_type_symbol
_atom_site_fract_x
_atom_site_fract_y
_atom_site_fract_z
B1 B -0.254(2) 0.091(2) 0.2446(13)
F1 F -0.3256(8) 0.0699(4) 0.2823(5)
F2 F -0.1526(10) 0.1059(5) 0.2892(5)
F3 F -0.2232(8) 0.0397(4) 0.2147(6)
F4 F -0.2924(11) 0.1314(5) 0.2055(6)
B2 B -0.1977(12) 0.4406(6) 0.3411(7)
F5 F -0.1688(9) 0.3929(4) 0.3809(4)
F6 F -0.2436(11) 0.4253(5) 0.2765(6)
F7 F -0.2821(12) 0.4731(4) 0.3575(6)
F8 F -0.1070(9) 0.4757(5) 0.3446(7)
O5 O 0.5585(8) 0.3755(4) 0.4921(4)
C39 C 0.4529(14) 0.3846(8) 0.5135(7)
O6 O 0.734(2) 0.4450(9) 0.5599(10)
C49 C 0.847(2) 0.4793(11) 0.5354(12)
Zn1 Zn 0.14910(12) 0.27738(7) 0.02881(6)
Zn2 Zn 0.25102(12) 0.27359(7) -0.09640(6)
O1 O 0.1276(5) 0.2395(3) -0.0619(3)
O2 O 0.2577(5) 0.3249(3) -0.0095(3)
N1 N 0.1378(9) 0.3418(4) 0.0963(4)
C1 C 0.0460(12) 0.3600(6) 0.1180(6)
N2 N 0.0723(10) 0.4124(5) 0.1530(5)
C2 C 0.1881(12) 0.4258(6) 0.1553(6)
C3 C 0.2265(12) 0.3830(6) 0.1205(6)
C4 C 0.0035(11) 0.4467(5) 0.1896(6)
C5 C -0.0667(11) 0.3256(6) 0.1111(7)
C6 C -0.0887(13) 0.2778(7) 0.0576(7)
N3 N -0.0213(8) 0.2634(4) 0.0195(4)
C7 C -0.0774(12) 0.2168(6) -0.0198(6)
C8 C -0.1818(12) 0.2056(6) -0.0036(6)
N4 N -0.1850(9) 0.2449(5) 0.0457(5)
C9 C -0.2811(10) 0.2473(6) 0.0774(6)
O3 O -0.1571(7) 0.3670(3) 0.0971(4)
C10 C -0.0570(11) 0.2971(5) 0.1803(5)
C11 C 0.0160(10) 0.2491(5) 0.1986(5)
C12 C 0.0249(10) 0.2217(5) 0.2575(6)
C13 C -0.0407(11) 0.2422(5) 0.3018(6)
C14 C -0.1125(11) 0.2890(6) 0.2829(6)
C15 C -0.1238(10) 0.3157(5) 0.2231(6)
C16 C 0.1007(11) 0.1707(6) 0.2758(6)
N5 N 0.1867(9) 0.1656(4) 0.3319(4)
C17 C 0.2323(11) 0.1097(6) 0.3296(6)
C18 C 0.1767(13) 0.0801(6) 0.2754(7)
N6 N 0.0931(9) 0.1203(5) 0.2408(5)
C19 C 0.0030(10) 0.1060(5) 0.1779(5)
N7 N 0.4225(8) 0.2833(5) -0.0808(5)
C20 C 0.4905(12) 0.2598(7) -0.1158(7)
N8 N 0.5854(10) 0.2923(5) -0.1117(5)
C21 C 0.5788(12) 0.3390(6) -0.0710(7)
C22 C 0.4833(13) 0.3347(7) -0.0505(6)
C23 C 0.6800(10) 0.2845(6) -0.1454(6)
C24 C 0.4728(11) 0.2004(6) -0.1537(6)
C25 C 0.3594(11) 0.1715(6) -0.1517(5)
N9 N 0.2670(10) 0.1944(4) -0.1402(5)
C26 C 0.1893(12) 0.1487(7) -0.1495(6)
C27 C 0.2324(12) 0.0993(7) -0.1656(6)
N10 N 0.3454(9) 0.1127(5) -0.1677(4)
C28 C 0.4230(12) 0.0667(6) -0.1843(6)
O4 O 0.5719(7) 0.1660(4) -0.1247(4)
C29 C 0.4718(10) 0.2107(5) -0.2277(6)
C30 C 0.3951(10) 0.2525(5) -0.2641(5)
C31 C 0.3872(10) 0.2612(5) -0.3319(6)
C32 C 0.4562(11) 0.2269(6) -0.3629(6)
C33 C 0.5320(12) 0.1854(6) -0.3273(7)
C34 C 0.5405(10) 0.1792(6) -0.2609(7)
C35 C 0.3137(12) 0.3065(7) -0.3681(6)
N11 N 0.2267(9) 0.2952(4) -0.4248(5)
C36 C 0.1817(12) 0.3507(6) -0.4472(6)
C37 C 0.2366(12) 0.3934(6) -0.4077(6)
N12 N 0.3199(9) 0.3642(5) -0.3576(5)
C38 C 0.4131(11) 0.3918(6) -0.3042(6)
H1 H 0.2323 0.4588 0.1773
H2 H 0.3020 0.3804 0.1129
H3 H -0.0721 0.4298 0.1809
H4 H 0.0384 0.4459 0.2367
H5 H -0.0018 0.4870 0.1740
H6 H -0.0488 0.1966 -0.0532
H7 H -0.2368 0.1751 -0.0214
H8 H -0.2661 0.2793 0.1090
H9 H -0.3526 0.2543 0.0450
H10 H -0.2858 0.2108 0.1005
H11 H 0.0592 0.2357 0.1681
H12 H -0.0354 0.2231 0.3440
H13 H -0.1559 0.3033 0.3129
H14 H -0.1769 0.3478 0.2088
H15 H 0.2962 0.0942 0.3630
H16 H 0.1901 0.0403 0.2627
H17 H -0.0453 0.1397 0.1631
H18 H 0.0423 0.0954 0.1444
H19 H -0.0433 0.0732 0.1853
H20 H 0.6366 0.3693 -0.0595
H21 H 0.4588 0.3631 -0.0223
H22 H 0.7340 0.3159 -0.1299
H23 H 0.6501 0.2876 -0.1929
H24 H 0.7179 0.2469 -0.1348
H25 H 0.1115 0.1528 -0.1461
H26 H 0.1961 0.0611 -0.1722
H27 H 0.4968 0.0826 -0.1851
H28 H 0.3866 0.0506 -0.2274
H29 H 0.4327 0.0359 -0.1512
H30 H 0.3505 0.2765 -0.2416
H31 H 0.4510 0.2334 -0.4095
H32 H 0.5771 0.1605 -0.3486
H33 H 0.5973 0.1536 -0.2338
H34 H 0.1191 0.3577 -0.4857
H35 H 0.2246 0.4356 -0.4097
H36 H 0.4584 0.3612 -0.2778
H37 H 0.3809 0.4168 -0.2760
H38 H 0.4608 0.4151 -0.3254
N5C N 0.1867(9) 0.3344(4) -0.1681(4)
N11C N 0.2267(9) 0.2048(4) 0.0752(5)
Zn2C Zn 0.25102(12) 0.22641(7) 0.40360(6)
Zn1C Zn 0.14910(12) 0.22262(7) -0.47119(6)
C40? C -0.185(2) 0.4498(9) 0.0048(9)
C41? C -0.154(3) 0.4232(13) -0.024(2)
C42? C -0.078(3) 0.4253(13) -0.082(2)
C43? C 0.042(3) 0.4118(14) -0.064(2)
C44? C -0.7020(14) 0.4502(7) -0.0063(8)
C45? C -0.520(3) 0.4619(14) 0.046(2)
C46? C -0.376(2) 0.4556(12) 0.1073(14)
C47? C -0.450(4) 0.488(2) 0.148(2)
C48? C -0.5369(13) 0.5092(6) 0.1452(7)

#END
