####################################################################### 
# 
# This file contains crystal structure data downloaded from the 
# Cambridge Structural Database (CSD) hosted by the Cambridge 
# Crystallographic Data Centre (CCDC).
# 
# Full information about CCDC data access policies and citation 
# guidelines are available at http://www.ccdc.cam.ac.uk/access/V1 
# 
# Audit and citation data items may have been added by the CCDC. 
# Please retain this information to preserve the provenance of 
# this file and to allow appropriate attribution of the data. 
# 
#######################################################################

data_CCDC931661
_audit_block_doi                 10.5517/cc108glb
_database_code_depnum_ccdc_archive 'CCDC 931661'
loop_
_citation_id
_citation_doi
_citation_year
1 10.1039/C3CE40840J 2013
_audit_update_record             
;
2013-06-24 deposited with the CCDC.	2024-07-14 downloaded from the CCDC.
;
_audit_creation_method           SHELXL-97
_chemical_name_systematic        
;
 ?
;
_chemical_name_common            ?
_chemical_melting_point          ?
_chemical_formula_moiety         ?
_chemical_formula_sum            'C144 H446 Cl8 N96 O199 Sr4'
_chemical_formula_weight         7342.05

loop_
_atom_type_symbol
_atom_type_description
_atom_type_scat_dispersion_real
_atom_type_scat_dispersion_imag
_atom_type_scat_source
C C 0.0033 0.0016 'International Tables Vol C Tables 4.2.6.8 and 6.1.1.4'
H H 0.0000 0.0000 'International Tables Vol C Tables 4.2.6.8 and 6.1.1.4'
N N 0.0061 0.0033 'International Tables Vol C Tables 4.2.6.8 and 6.1.1.4'
O O 0.0106 0.0060 'International Tables Vol C Tables 4.2.6.8 and 6.1.1.4'
Sr Sr -1.5307 3.2498 'International Tables Vol C Tables 4.2.6.8 and 6.1.1.4'
Cl Cl 0.1484 0.1585 'International Tables Vol C Tables 4.2.6.8 and 6.1.1.4'

_symmetry_cell_setting           triclinic
_symmetry_space_group_name_H-M   'P -1'
_symmetry_space_group_name_Hall  '-P 1'

loop_
_symmetry_equiv_pos_as_xyz
'x, y, z'
'-x, -y, -z'

_cell_length_a                   18.733(6)
_cell_length_b                   21.701(7)
_cell_length_c                   22.301(7)
_cell_angle_alpha                118.963(4)
_cell_angle_beta                 90.299(5)
_cell_angle_gamma                104.709(5)
_cell_volume                     7583(4)
_cell_formula_units_Z            1
_cell_measurement_temperature    223(2)
_cell_measurement_reflns_used    ?
_cell_measurement_theta_min      ?
_cell_measurement_theta_max      ?

_exptl_crystal_description       prism
_exptl_crystal_colour            colorless
_exptl_crystal_size_max          0.21
_exptl_crystal_size_mid          0.16
_exptl_crystal_size_min          0.13
_exptl_crystal_density_meas      ?
_exptl_crystal_density_diffrn    1.608
_exptl_crystal_density_method    'not measured'
_exptl_crystal_F_000             3862
_exptl_absorpt_coefficient_mu    0.903
_exptl_absorpt_correction_type   multi-scan
_exptl_absorpt_correction_T_min  0.8330
_exptl_absorpt_correction_T_max  0.8916
_exptl_absorpt_process_details   'SADABS (Bruker, 2008)'

_exptl_special_details           
;
 ?
;

_diffrn_ambient_temperature      223(2)
_diffrn_radiation_wavelength     0.71073
_diffrn_radiation_type           MoK\a
_diffrn_radiation_source         'fine-focus sealed tube'
_diffrn_radiation_monochromator  graphite
_diffrn_measurement_device_type  'Bruker Smart Apex2 CCD Detector'
_diffrn_measurement_method       '\f and \w scan'
_diffrn_detector_area_resol_mean ?
_diffrn_standards_number         ?
_diffrn_standards_interval_count ?
_diffrn_standards_interval_time  ?
_diffrn_standards_decay_%        ?
_diffrn_reflns_number            69347
_diffrn_reflns_av_R_equivalents  0.0713
_diffrn_reflns_av_sigmaI/netI    0.1386
_diffrn_reflns_limit_h_min       -22
_diffrn_reflns_limit_h_max       22
_diffrn_reflns_limit_k_min       -25
_diffrn_reflns_limit_k_max       25
_diffrn_reflns_limit_l_min       -26
_diffrn_reflns_limit_l_max       26
_diffrn_reflns_theta_min         1.09
_diffrn_reflns_theta_max         25.00
_reflns_number_total             25594
_reflns_number_gt                12059
_reflns_threshold_expression     >2sigma(I)

_computing_data_collection       ?
_computing_cell_refinement       ?
_computing_data_reduction        ?
_computing_structure_solution    ?
_computing_structure_refinement  'SHELXL-97 (Sheldrick, 1997)'
_computing_molecular_graphics    ?
_computing_publication_material  ?

_refine_special_details          
;
 Refinement of F^2^ against ALL reflections.  The weighted R-factor wR and
 goodness of fit S are based on F^2^, conventional R-factors R are based
 on F, with F set to zero for negative F^2^. The threshold expression of
 F^2^ > 2sigma(F^2^) is used only for calculating R-factors(gt) etc. and is
 not relevant to the choice of reflections for refinement.  R-factors based
 on F^2^ are statistically about twice as large as those based on F, and R-
 factors based on ALL data will be even larger.
;

_refine_ls_structure_factor_coef Fsqd
_refine_ls_matrix_type           full
_refine_ls_weighting_scheme      calc
_refine_ls_weighting_details     
'calc w=1/[\s^2^(Fo^2^)+(0.1364P)^2^+0.0000P] where P=(Fo^2^+2Fc^2^)/3'
_atom_sites_solution_primary     direct
_atom_sites_solution_secondary   difmap
_atom_sites_solution_hydrogens   geom
_refine_ls_hydrogen_treatment    constr
_refine_ls_extinction_method     none
_refine_ls_extinction_coef       ?
_refine_ls_number_reflns         25594
_refine_ls_number_parameters     1487
_refine_ls_number_restraints     0
_refine_ls_R_factor_all          0.1384
_refine_ls_R_factor_gt           0.0835
_refine_ls_wR_factor_ref         0.2491
_refine_ls_wR_factor_gt          0.2258
_refine_ls_goodness_of_fit_ref   0.968
_refine_ls_restrained_S_all      0.968
_refine_ls_shift/su_max          0.016
_refine_ls_shift/su_mean         0.000

loop_
_atom_site_label
_atom_site_type_symbol
_atom_site_fract_x
_atom_site_fract_y
_atom_site_fract_z
_atom_site_U_iso_or_equiv
_atom_site_adp_type
_atom_site_occupancy
_atom_site_symmetry_multiplicity
_atom_site_calc_flag
_atom_site_refinement_flags
_atom_site_disorder_assembly
_atom_site_disorder_group
Cl1 Cl -0.55384(12) -0.10603(18) -0.12679(14) 0.1165(10) Uani 1 1 d . . .
Cl2 Cl 0.5175(4) 1.0550(5) 0.6869(4) 0.169(3) Uani 0.50 1 d P . .
Cl3 Cl 0.3560(4) 0.2837(5) 0.3862(4) 0.167(3) Uani 0.50 1 d P . .
Cl4 Cl -0.4342(4) -0.2173(5) -0.2965(4) 0.178(3) Uani 0.50 1 d P . .
Cl5 Cl 0.5363(4) 0.6588(6) 0.4725(5) 0.184(4) Uani 0.50 1 d P . .
Cl6 Cl 0.2343(8) 0.4568(4) 0.1097(5) 0.260(7) Uani 0.50 1 d P . .
Cl7 Cl 0.4473(6) 0.4285(4) 0.2811(6) 0.283(8) Uani 0.50 1 d P . .
O11W O 0.0917(7) 0.8813(6) 0.7211(6) 0.112(5) Uani 0.50 1 d P . .
O12W O 0.2092(8) 0.8901(9) 0.7631(6) 0.124(5) Uani 0.50 1 d P . .
O1W O 0.2026(3) 0.2267(2) 0.3705(2) 0.0528(13) Uani 1 1 d . . .
O2W O 0.1202(4) 0.4362(3) 0.5203(3) 0.093(2) Uani 1 1 d . . .
O3W O 0.1089(3) 0.4128(3) 0.3796(3) 0.0649(14) Uani 1 1 d . . .
O4W O -0.0221(5) 0.8256(5) 0.6493(5) 0.164(4) Uani 1 1 d . . .
O5W O -0.0193(4) 0.3122(7) 0.4364(6) 0.208(5) Uani 1 1 d . . .
O6W O 0.3265(3) 0.8398(2) 0.7330(2) 0.0738(16) Uani 1 1 d . . .
O7W O 0.3566(4) 1.0067(4) 0.7887(4) 0.124(3) Uani 1 1 d . . .
O8W O 0.3821(4) 0.9201(4) 0.6238(4) 0.125(3) Uani 1 1 d . . .
O9W O 0.1600(4) 0.7814(4) 0.6656(3) 0.129(3) Uani 1 1 d . . .
O10W O 0.1607(6) 0.8894(4) 0.5950(6) 0.224(6) Uani 1 1 d . . .
Sr1 Sr 0.11415(4) 0.31090(4) 0.40564(3) 0.0448(2) Uani 1 1 d . . .
Sr2 Sr 0.26483(4) 0.89711(4) 0.67424(4) 0.0561(2) Uani 1 1 d . . .
C1 C 0.2889(3) 0.1663(3) 0.1960(3) 0.0342(15) Uani 1 1 d . . .
C2 C 0.3745(3) 0.1689(3) 0.1218(3) 0.0345(15) Uani 1 1 d . . .
H2 H 0.4278 0.1836 0.1390 0.041 Uiso 1 1 calc R . .
C3 C 0.3447(3) 0.2351(3) 0.1467(3) 0.0345(15) Uani 1 1 d . . .
H3 H 0.3852 0.2815 0.1691 0.041 Uiso 1 1 calc R . .
C4 C 0.3199(3) 0.1651(3) 0.0251(3) 0.0408(16) Uani 1 1 d . . .
C5 C 0.2667(3) 0.2883(3) 0.2427(3) 0.0369(15) Uani 1 1 d . . .
H5A H 0.3059 0.3346 0.2608 0.044 Uiso 1 1 calc R . .
H5B H 0.2543 0.2810 0.2814 0.044 Uiso 1 1 calc R . .
C6 C 0.2842(4) 0.2798(4) 0.0771(3) 0.0433(17) Uani 1 1 d . . .
H6A H 0.3219 0.3268 0.1053 0.052 Uiso 1 1 calc R . .
H6B H 0.2815 0.2690 0.0294 0.052 Uiso 1 1 calc R . .
C7 C 0.1346(3) 0.2829(3) 0.2336(3) 0.0345(15) Uani 1 1 d . . .
C8 C 0.2070(3) 0.3310(3) 0.1735(3) 0.0315(14) Uani 1 1 d . . .
H8 H 0.2462 0.3784 0.1959 0.038 Uiso 1 1 calc R . .
C9 C 0.1282(3) 0.3408(3) 0.1701(3) 0.0349(15) Uani 1 1 d . . .
H9 H 0.1303 0.3929 0.1942 0.042 Uiso 1 1 calc R . .
C10 C 0.1547(4) 0.2771(3) 0.0570(3) 0.0417(16) Uani 1 1 d . . .
C11 C 0.0190(3) 0.3161(3) 0.2289(3) 0.0349(15) Uani 1 1 d . . .
H11A H 0.0247 0.3685 0.2512 0.042 Uiso 1 1 calc R . .
H11B H 0.0102 0.3015 0.2637 0.042 Uiso 1 1 calc R . .
C12 C 0.0449(3) 0.3237(3) 0.0696(3) 0.0359(15) Uani 1 1 d . . .
H12A H 0.0516 0.3762 0.0972 0.043 Uiso 1 1 calc R . .
H12B H 0.0502 0.3121 0.0223 0.043 Uiso 1 1 calc R . .
C13 C -0.1057(3) 0.2322(4) 0.1789(3) 0.0355(15) Uani 1 1 d . . .
C14 C -0.0638(3) 0.3058(3) 0.1329(3) 0.0332(15) Uani 1 1 d . . .
H14 H -0.0545 0.3593 0.1601 0.040 Uiso 1 1 calc R . .
C15 C -0.1480(3) 0.2653(3) 0.1044(3) 0.0347(15) Uani 1 1 d . . .
H15 H -0.1783 0.2994 0.1174 0.042 Uiso 1 1 calc R . .
C16 C -0.0815(4) 0.2392(3) 0.0113(3) 0.0351(15) Uani 1 1 d . . .
C17 C -0.2416(4) 0.1803(4) 0.1365(3) 0.062(2) Uani 1 1 d . . .
H17A H -0.2413 0.1698 0.1741 0.075 Uiso 1 1 calc R . .
H17B H -0.2730 0.2123 0.1455 0.075 Uiso 1 1 calc R . .
C18 C -0.2180(4) 0.1910(3) -0.0201(3) 0.0417(17) Uani 1 1 d . . .
H18A H -0.2493 0.2236 -0.0035 0.050 Uiso 1 1 calc R . .
H18B H -0.2052 0.1860 -0.0640 0.050 Uiso 1 1 calc R . .
C19 C -0.2986(3) 0.0479(4) 0.0716(3) 0.0463(18) Uani 1 1 d . . .
C20 C -0.3111(3) 0.1089(4) 0.0120(3) 0.0421(17) Uani 1 1 d . . .
H20 H -0.3437 0.1409 0.0249 0.051 Uiso 1 1 calc R . .
C21 C -0.3548(3) 0.0270(3) -0.0312(3) 0.0283(13) Uani 1 1 d . . .
H21 H -0.4078 0.0206 -0.0423 0.034 Uiso 1 1 calc R . .
C22 C -0.2649(4) 0.0576(3) -0.0928(3) 0.0368(16) Uani 1 1 d . . .
C23 C -0.3880(4) -0.0737(3) -0.0005(3) 0.0424(16) Uani 1 1 d . . .
H23A H -0.4390 -0.0833 -0.0191 0.051 Uiso 1 1 calc R . .
H23B H -0.3887 -0.0725 0.0436 0.051 Uiso 1 1 calc R . .
C24 C -0.3485(4) -0.0691(3) -0.1548(3) 0.0419(16) Uani 1 1 d . . .
H24A H -0.3285 -0.0656 -0.1934 0.050 Uiso 1 1 calc R . .
H24B H -0.4025 -0.0817 -0.1640 0.050 Uiso 1 1 calc R . .
C25 C -0.1652(3) 0.4723(3) 0.2659(3) 0.0353(15) Uani 1 1 d . . .
C26 C -0.2275(3) 0.5600(3) 0.3228(3) 0.0275(13) Uani 1 1 d . . .
H26 H -0.2710 0.5592 0.2975 0.033 Uiso 1 1 calc R . .
C27 C -0.1548(3) 0.5960(3) 0.3077(3) 0.0314(14) Uani 1 1 d . . .
H27 H -0.1626 0.6188 0.2805 0.038 Uiso 1 1 calc R . .
C28 C -0.1570(4) 0.6572(3) 0.4277(3) 0.0345(15) Uani 1 1 d . . .
C29 C -0.0642(3) 0.5386(3) 0.2293(3) 0.0328(14) Uani 1 1 d . . .
H29A H -0.0735 0.5636 0.2053 0.039 Uiso 1 1 calc R . .
H29B H -0.0663 0.4886 0.1947 0.039 Uiso 1 1 calc R . .
C30 C -0.0487(3) 0.7114(3) 0.3882(3) 0.0389(16) Uani 1 1 d . . .
H30A H -0.0425 0.7523 0.4350 0.047 Uiso 1 1 calc R . .
H30B H -0.0582 0.7279 0.3563 0.047 Uiso 1 1 calc R . .
C31 C 0.0646(3) 0.5412(3) 0.2612(3) 0.0333(14) Uani 1 1 d . . .
C32 C 0.0410(3) 0.6541(3) 0.3077(3) 0.0303(14) Uani 1 1 d . . .
H32 H 0.0305 0.6762 0.2806 0.036 Uiso 1 1 calc R . .
C33 C 0.1249(3) 0.6676(3) 0.3235(3) 0.0345(15) Uani 1 1 d . . .
H33 H 0.1537 0.6927 0.3009 0.041 Uiso 1 1 calc R . .
C34 C 0.0804(4) 0.7253(3) 0.4278(4) 0.0437(17) Uani 1 1 d . . .
C35 C 0.2006(3) 0.5764(3) 0.2858(3) 0.0359(15) Uani 1 1 d . . .
H35A H 0.1916 0.5256 0.2493 0.043 Uiso 1 1 calc R . .
H35B H 0.2321 0.6075 0.2704 0.043 Uiso 1 1 calc R . .
C36 C 0.2190(3) 0.7510(3) 0.4339(3) 0.0381(16) Uani 1 1 d . . .
H36A H 0.2486 0.7672 0.4058 0.046 Uiso 1 1 calc R . .
H36B H 0.2184 0.7945 0.4770 0.046 Uiso 1 1 calc R . .
C37 C 0.2491(3) 0.5295(3) 0.3530(3) 0.0303(14) Uani 1 1 d . . .
C38 C 0.2904(3) 0.6571(3) 0.3980(3) 0.0335(14) Uani 1 1 d . . .
H38 H 0.3240 0.6807 0.3766 0.040 Uiso 1 1 calc R . .
C39 C 0.3341(3) 0.6365(3) 0.4422(3) 0.0309(14) Uani 1 1 d . . .
H39 H 0.3878 0.6489 0.4404 0.037 Uiso 1 1 calc R . .
C40 C 0.2743(3) 0.7225(3) 0.5146(3) 0.0383(15) Uani 1 1 d . . .
C41 C 0.3345(3) 0.5119(3) 0.4227(3) 0.0374(16) Uani 1 1 d . . .
H41A H 0.3880 0.5287 0.4242 0.045 Uiso 1 1 calc R . .
H41B H 0.3161 0.4620 0.3838 0.045 Uiso 1 1 calc R . .
C42 C 0.3614(3) 0.6922(3) 0.5732(3) 0.0384(16) Uani 1 1 d . . .
H42A H 0.4133 0.6998 0.5665 0.046 Uiso 1 1 calc R . .
H42B H 0.3577 0.7369 0.6134 0.046 Uiso 1 1 calc R . .
C43 C 0.2869(3) 0.4472(3) 0.4859(3) 0.0316(14) Uani 1 1 d . . .
C44 C 0.3638(3) 0.5689(3) 0.5536(3) 0.0303(14) Uani 1 1 d . . .
H44 H 0.4173 0.5813 0.5510 0.036 Uiso 1 1 calc R . .
C45 C 0.3445(3) 0.5329(3) 0.5994(3) 0.0328(14) Uani 1 1 d . . .
H45 H 0.3896 0.5342 0.6230 0.039 Uiso 1 1 calc R . .
C46 C 0.3041(3) 0.6370(3) 0.6432(3) 0.0386(16) Uani 1 1 d . . .
C47 C 0.2860(3) 0.3987(3) 0.5650(3) 0.0319(14) Uani 1 1 d . . .
H47A H 0.3304 0.4046 0.5922 0.038 Uiso 1 1 calc R . .
H47B H 0.2764 0.3524 0.5217 0.038 Uiso 1 1 calc R . .
C48 C 0.2878(4) 0.5732(4) 0.7093(3) 0.0445(17) Uani 1 1 d . . .
H48A H 0.2809 0.6196 0.7440 0.053 Uiso 1 1 calc R . .
H48B H 0.3312 0.5674 0.7275 0.053 Uiso 1 1 calc R . .
C49 C 0.2910(4) 0.9789(4) 0.4806(4) 0.0439(17) Uani 1 1 d . . .
C50 C 0.3332(3) 1.0468(3) 0.4240(3) 0.0317(14) Uani 1 1 d . . .
H50 H 0.3755 1.0399 0.3984 0.038 Uiso 1 1 calc R . .
C51 C 0.3590(4) 1.0951(3) 0.5008(3) 0.0365(15) Uani 1 1 d . . .
H51 H 0.4133 1.1166 0.5121 0.044 Uiso 1 1 calc R . .
C52 C 0.2851(3) 1.1459(3) 0.4628(3) 0.0337(14) Uani 1 1 d . . .
C53 C 0.3592(4) 1.0627(4) 0.5961(3) 0.0457(17) Uani 1 1 d . . .
H53A H 0.4126 1.0859 0.6055 0.055 Uiso 1 1 calc R . .
H53B H 0.3508 1.0161 0.5948 0.055 Uiso 1 1 calc R . .
C54 C 0.3397(4) 1.2207(3) 0.5867(3) 0.0382(15) Uani 1 1 d . . .
H54A H 0.3936 1.2395 0.5984 0.046 Uiso 1 1 calc R . .
H54B H 0.3219 1.2570 0.5827 0.046 Uiso 1 1 calc R . .
C55 C 0.2852(4) 1.0858(4) 0.6910(3) 0.0413(17) Uani 1 1 d . . .
C56 C 0.3431(3) 1.1880(3) 0.6809(3) 0.0385(16) Uani 1 1 d . . .
H56 H 0.3971 1.2118 0.6926 0.046 Uiso 1 1 calc R . .
C57 C 0.3047(3) 1.2108(4) 0.7482(3) 0.0412(16) Uani 1 1 d . . .
H57 H 0.3416 1.2427 0.7904 0.049 Uiso 1 1 calc R . .
C58 C 0.2621(3) 1.2523(3) 0.6779(3) 0.0379(15) Uani 1 1 d . . .
C59 C 0.2366(4) 1.1389(4) 0.8009(4) 0.0499(18) Uani 1 1 d . . .
H59A H 0.2685 1.1776 0.8439 0.060 Uiso 1 1 calc R . .
H59B H 0.2355 1.0920 0.7967 0.060 Uiso 1 1 calc R . .
C60 C 0.2226(3) 1.2969(3) 0.7943(3) 0.0365(15) Uani 1 1 d . . .
H60A H 0.2563 1.3227 0.8378 0.044 Uiso 1 1 calc R . .
H60B H 0.2132 1.3336 0.7849 0.044 Uiso 1 1 calc R . .
C61 C 0.0978(4) 1.0880(4) 0.7871(4) 0.0497(18) Uani 1 1 d . . .
C62 C 0.1458(3) 1.2172(3) 0.8403(3) 0.0362(15) Uani 1 1 d . . .
H62 H 0.1758 1.2488 0.8865 0.043 Uiso 1 1 calc R . .
C63 C 0.0619(3) 1.1959(3) 0.8445(3) 0.0368(15) Uani 1 1 d . . .
H63 H 0.0528 1.2165 0.8927 0.044 Uiso 1 1 calc R . .
C64 C 0.0868(3) 1.2651(3) 0.7880(3) 0.0286(14) Uani 1 1 d . . .
C65 C -0.0298(3) 1.0730(3) 0.8134(3) 0.0368(15) Uani 1 1 d . . .
H65A H -0.0242 1.0255 0.8022 0.044 Uiso 1 1 calc R . .
H65B H -0.0388 1.0969 0.8611 0.044 Uiso 1 1 calc R . .
C66 C -0.0412(3) 1.2371(3) 0.8127(3) 0.0356(15) Uani 1 1 d . . .
H66A H -0.0515 1.2544 0.8598 0.043 Uiso 1 1 calc R . .
H66B H -0.0431 1.2743 0.8009 0.043 Uiso 1 1 calc R . .
C67 C -0.1388(3) 0.9915(3) 0.7244(3) 0.0334(14) Uani 1 1 d . . .
C68 C -0.1328(3) 1.1164(3) 0.7864(3) 0.0313(14) Uani 1 1 d . . .
H68 H -0.1401 1.1397 0.8352 0.038 Uiso 1 1 calc R . .
C69 C -0.2070(3) 1.0728(3) 0.7376(3) 0.0355(15) Uani 1 1 d . . .
H69 H -0.2501 1.0784 0.7624 0.043 Uiso 1 1 calc R . .
C70 C -0.1413(3) 1.1617(3) 0.7118(3) 0.0354(15) Uani 1 1 d . . .
C71 C 0.2696(3) 1.0664(3) 0.3348(3) 0.0374(15) Uani 1 1 d . . .
H71A H 0.3111 1.0561 0.3096 0.045 Uiso 1 1 calc R . .
H71B H 0.2608 1.1090 0.3358 0.045 Uiso 1 1 calc R . .
C72 C -0.2680(3) 1.0911(3) 0.6477(3) 0.0408(16) Uani 1 1 d . . .
H72A H -0.3100 1.0928 0.6731 0.049 Uiso 1 1 calc R . .
H72B H -0.2592 1.1311 0.6378 0.049 Uiso 1 1 calc R . .
N1 N 0.3287(3) 0.1272(3) 0.1501(2) 0.0325(12) Uani 1 1 d . . .
N2 N 0.2950(3) 0.2300(3) 0.1953(2) 0.0372(13) Uani 1 1 d . . .
N3 N 0.3597(3) 0.1329(3) 0.0474(2) 0.0420(13) Uani 1 1 d . . .
N4 N 0.3066(3) 0.2226(3) 0.0821(2) 0.0375(12) Uani 1 1 d . . .
N5 N 0.2020(3) 0.2941(2) 0.2132(2) 0.0323(12) Uani 1 1 d . . .
N6 N 0.0872(3) 0.3031(3) 0.2038(2) 0.0330(12) Uani 1 1 d . . .
N7 N 0.2125(3) 0.2860(3) 0.0997(2) 0.0345(12) Uani 1 1 d . . .
N8 N 0.1034(3) 0.3057(3) 0.0964(2) 0.0329(12) Uani 1 1 d . . .
N9 N -0.0451(3) 0.2769(3) 0.1753(2) 0.0337(12) Uani 1 1 d . . .
N10 N -0.1639(3) 0.2206(3) 0.1368(3) 0.0437(14) Uani 1 1 d . . .
N11 N -0.0290(3) 0.2847(3) 0.0705(2) 0.0338(12) Uani 1 1 d . . .
N12 N -0.1482(3) 0.2251(3) 0.0307(2) 0.0357(12) Uani 1 1 d . . .
N13 N -0.2739(3) 0.1127(3) 0.0731(2) 0.0419(13) Uani 1 1 d . . .
N14 N -0.3446(3) -0.0033(3) 0.0111(2) 0.0368(13) Uani 1 1 d . . .
N15 N -0.2589(3) 0.1212(3) -0.0309(2) 0.0362(12) Uani 1 1 d . . .
N16 N -0.3209(3) 0.0015(3) -0.0924(2) 0.0349(12) Uani 1 1 d . . .
N17 N -0.2235(3) 0.4857(2) 0.3008(2) 0.0321(12) Uani 1 1 d . . .
N18 N -0.1205(3) 0.5366(2) 0.2709(2) 0.0320(12) Uani 1 1 d . . .
N19 N -0.2228(3) 0.6053(2) 0.3972(2) 0.0338(12) Uani 1 1 d . . .
N20 N -0.1121(3) 0.6513(2) 0.3781(2) 0.0294(11) Uani 1 1 d . . .
N21 N 0.0104(3) 0.5764(2) 0.2703(2) 0.0323(12) Uani 1 1 d . . .
N22 N 0.1307(3) 0.5929(2) 0.2955(2) 0.0309(12) Uani 1 1 d . . .
N23 N 0.0198(3) 0.6900(2) 0.3769(2) 0.0340(12) Uani 1 1 d . . .
N24 N 0.1427(3) 0.7111(3) 0.3973(3) 0.0387(13) Uani 1 1 d . . .
N25 N 0.2397(3) 0.5869(2) 0.3464(2) 0.0309(12) Uani 1 1 d . . .
N26 N 0.3001(3) 0.5587(2) 0.4113(2) 0.0345(12) Uani 1 1 d . . .
N27 N 0.2531(3) 0.7076(3) 0.4486(2) 0.0363(12) Uani 1 1 d . . .
N28 N 0.3168(3) 0.6804(2) 0.5120(2) 0.0353(12) Uani 1 1 d . . .
N29 N 0.3201(2) 0.5111(2) 0.4865(2) 0.0290(11) Uani 1 1 d . . .
N30 N 0.3004(3) 0.4575(2) 0.5501(2) 0.0293(11) Uani 1 1 d . . .
N31 N 0.3391(3) 0.6327(