####################################################################### 
# 
# This file contains crystal structure data downloaded from the 
# Cambridge Structural Database (CSD) hosted by the Cambridge 
# Crystallographic Data Centre (CCDC).
# 
# Full information about CCDC data access policies and citation 
# guidelines are available at http://www.ccdc.cam.ac.uk/access/V1 
# 
# Audit and citation data items may have been added by the CCDC. 
# Please retain this information to preserve the provenance of 
# this file and to allow appropriate attribution of the data. 
# 
#######################################################################

data_II
_audit_block_doi                 10.5517/cc113tfd
_database_code_depnum_ccdc_archive 'CCDC 956983'
loop_
_citation_id
_citation_doi
_citation_year
1 10.1107/S0108270113012134 2013
_audit_update_record             
;
2013-08-22 deposited with the CCDC.	2024-07-14 downloaded from the CCDC.
;
_audit_creation_method           SHELXL97
_chemical_name_systematic        
;\
<i>catena</i>-Poly[[[dinitratocopper(II)]-bis{\m-5-(pyridin-4-yl)-\
3-[2-(pyridin-4-yl)ethyl]-1,3,4-oxadiazole-2(3<i>H</i>)-thione}]
nitrate acetonitrile sesquisolvate dichloromethane sesquisolvate]
;

_chemical_name_common            ?
_chemical_formula_moiety         
'C28 H24 Cu N9 O5 S2, N O3 -, 1.5(C2 H3 N), 1.5(C H2 Cl2)'
_chemical_formula_sum            'C32.50 H31.50 Cl3 Cu N11.50 O8 S2'
_chemical_formula_iupac          
'[Cu (N O3) (C14 H12 N4 O S)2] N O3 , 1.5 C2 H3 N , 1.5C H2 Cl2'
_chemical_formula_weight         945.20
_chemical_melting_point          ?
_symmetry_cell_setting           triclinic
_symmetry_space_group_name_H-M   'P -1'
_symmetry_space_group_name_Hall  '-P 1'
loop_
_symmetry_equiv_pos_as_xyz

'x, y, z'
'-x, -y, -z'


_cell_length_a                   12.012(6)

_cell_length_b                   13.225(7)

_cell_length_c                   14.402(7)

_cell_angle_alpha                99.751(7)

_cell_angle_beta                 110.223(7)

_cell_angle_gamma                106.204(7)

_cell_volume                     1969.8(17)

_cell_formula_units_Z            2

_cell_measurement_reflns_used    4378

_cell_measurement_theta_min      2.620

_cell_measurement_theta_max      27.143

_cell_measurement_temperature    123(2)

_exptl_crystal_description       block

_exptl_crystal_colour            blue

_exptl_crystal_size_max          0.26

_exptl_crystal_size_mid          0.20

_exptl_crystal_size_min          0.10

_exptl_crystal_density_diffrn    1.594

_exptl_crystal_density_meas      ?

_exptl_crystal_density_method    'not measured'

_exptl_crystal_F_000             966

_exptl_absorpt_coefficient_mu    0.930

_exptl_absorpt_correction_type   multi-scan

_exptl_absorpt_process_details   '(SADABS; Bruker, 2003)'

_exptl_absorpt_correction_T_min  0.7941

_exptl_absorpt_correction_T_max  0.9128

_exptl_special_details           ?

_diffrn_ambient_temperature      123(2)

_diffrn_radiation_type           MoK\a

_diffrn_radiation_wavelength     0.71073

_diffrn_radiation_source         'fine-focus sealed tube'

_diffrn_radiation_monochromator  graphite

_diffrn_measurement_device_type  'Bruker SMART CCD area-detector'

_diffrn_measurement_method       '\f and \w'

_diffrn_detector_area_resol_mean ?

_diffrn_reflns_number            10698

_diffrn_reflns_av_R_equivalents  0.0000

_diffrn_reflns_av_sigmaI/netI    0.0469

_diffrn_reflns_theta_min         1.58

_diffrn_reflns_theta_max         26.00

_diffrn_reflns_theta_full        26.00

_diffrn_measured_fraction_theta_max 0.969

_diffrn_measured_fraction_theta_full 0.969

_diffrn_reflns_limit_h_min       -14

_diffrn_reflns_limit_h_max       14

_diffrn_reflns_limit_k_min       -16

_diffrn_reflns_limit_k_max       16

_diffrn_reflns_limit_l_min       -17

_diffrn_reflns_limit_l_max       17

_diffrn_standards_number         ?

_diffrn_standards_interval_count ?

_diffrn_standards_interval_time  ?

_diffrn_standards_decay_%        ?

_refine_special_details          
;
Refinement of F^2^ against ALL reflections. The weighted R-factor wR and
goodness of fit S are based on F^2^, conventional R-factors R are based on F,
with F set to zero for negative F^2^. The threshold expression of F^2^ >
2sigma(F^2^) is used only for calculating R-factors(gt) etc. and is not
relevant to the choice of reflections for refinement. R-factors based on F^2^
are statistically about twice as large as those based on F, and R-factors based
on ALL data will be even larger.
;


_reflns_number_total             10698

_reflns_number_gt                8513

_reflns_threshold_expression     I>2\s(I)

_refine_ls_structure_factor_coef Fsqd

_refine_ls_matrix_type           full

_refine_ls_R_factor_all          0.0665

_refine_ls_R_factor_gt           0.0515

_refine_ls_wR_factor_gt          0.1428

_refine_ls_wR_factor_ref         0.1697

_refine_ls_goodness_of_fit_ref   1.074

_refine_ls_restrained_S_all      1.074

_refine_ls_number_reflns         10698

_refine_ls_number_parameters     553

_refine_ls_number_restraints     0

_refine_ls_hydrogen_treatment    constr

_refine_ls_weighting_scheme      calc

_refine_ls_weighting_details     
'calc w = 1/[\s^2^(Fo^2^)+(0.0976P)^2^+1.7273P] where P=(Fo^2^+2Fc^2^)/3'

_atom_sites_solution_hydrogens   geom

_atom_sites_solution_primary     direct

_atom_sites_solution_secondary   difmap

_refine_ls_shift/su_max          0.000

_refine_ls_shift/su_mean         0.000

_refine_diff_density_max         0.729

_refine_diff_density_min         -0.492

_refine_ls_extinction_method     none

_refine_ls_extinction_coef       ?
loop_
_atom_type_symbol
_atom_type_description
_atom_type_scat_dispersion_real
_atom_type_scat_dispersion_imag
_atom_type_scat_source

C C 0.0033 0.0016 'International Tables Vol C Tables 4.2.6.8 and 6.1.1.4'
H H 0.0000 0.0000 'International Tables Vol C Tables 4.2.6.8 and 6.1.1.4'
N N 0.0061 0.0033 'International Tables Vol C Tables 4.2.6.8 and 6.1.1.4'
O O 0.0106 0.0060 'International Tables Vol C Tables 4.2.6.8 and 6.1.1.4'
S S 0.1246 0.1234 'International Tables Vol C Tables 4.2.6.8 and 6.1.1.4'
Cu Cu 0.3201 1.2651 'International Tables Vol C Tables 4.2.6.8 and 6.1.1.4'
Cl Cl 0.1484 0.1585 'International Tables Vol C Tables 4.2.6.8 and 6.1.1.4'


_computing_data_collection       'SMART (Bruker, 2003)'

_computing_cell_refinement       'SMART (Bruker, 2003)'

_computing_data_reduction        'SAINT (Bruker, 2003)'

_computing_structure_solution    'SHELXS97 (Sheldrick, 2008)'

_computing_structure_refinement  'SHELXL97 (Sheldrick, 2008)'

_computing_molecular_graphics    'SHELXTL (Sheldrick, 2008)'

_computing_publication_material  'SHELXTL (Sheldrick, 2008)'
loop_
_atom_site_type_symbol
_atom_site_label
_atom_site_fract_x
_atom_site_fract_y
_atom_site_fract_z
_atom_site_U_iso_or_equiv
_atom_site_adp_type
_atom_site_calc_flag
_atom_site_refinement_flags
_atom_site_occupancy
_atom_site_symmetry_multiplicity
_atom_site_disorder_assembly
_atom_site_disorder_group

C C1 -0.0619(4) 0.8208(3) 0.5264(3) 0.0213(8) Uani d . 1 1 . .
H H1 -0.1321 0.8435 0.5006 0.026 Uiso calc R 1 1 . .
C C2 0.0543(3) 0.8995(3) 0.5924(3) 0.0202(8) Uani d . 1 1 . .
H H2 0.0637 0.9748 0.6117 0.024 Uiso calc R 1 1 . .
C C3 0.1581(4) 0.8685(3) 0.6309(3) 0.0192(7) Uani d . 1 1 . .
C C4 0.1382(4) 0.7578(3) 0.6001(3) 0.0232(8) Uani d . 1 1 . .
H H4 0.2073 0.7334 0.6240 0.028 Uiso calc R 1 1 . .
C C5 0.0192(4) 0.6837(3) 0.5354(3) 0.0230(8) Uani d . 1 1 . .
H H5 0.0071 0.6077 0.5173 0.028 Uiso calc R 1 1 . .
C C6 0.2885(3) 0.9528(3) 0.6967(3) 0.0224(8) Uani d . 1 1 . .
H H6A 0.3465 0.9153 0.7272 0.027 Uiso calc R 1 1 . .
H H6B 0.2851 1.0029 0.7543 0.027 Uiso calc R 1 1 . .
C C7 0.3412(4) 1.0197(3) 0.6357(3) 0.0261(8) Uani d . 1 1 . .
H H7A 0.2853 1.0598 0.6076 0.031 Uiso calc R 1 1 . .
H H7B 0.4269 1.0749 0.6824 0.031 Uiso calc R 1 1 . .
C C8 0.2748(4) 0.9180(3) 0.4494(3) 0.0240(8) Uani d . 1 1 . .
C C9 0.4194(3) 0.8435(3) 0.4827(3) 0.0217(8) Uani d . 1 1 . .
C C10 0.4932(4) 0.7797(3) 0.4606(3) 0.0207(8) Uani d . 1 1 . .
C C11 0.5859(4) 0.7660(3) 0.5390(3) 0.0236(8) Uani d . 1 1 . .
H H11 0.6000 0.7946 0.6089 0.028 Uiso calc R 1 1 . .
C C12 0.6587(4) 0.7105(3) 0.5161(3) 0.0232(8) Uani d . 1 1 . .
H H12 0.7215 0.6997 0.5710 0.028 Uiso calc R 1 1 . .
C C13 0.5512(4) 0.6838(3) 0.3425(3) 0.0217(8) Uani d . 1 1 . .
H H13 0.5398 0.6559 0.2732 0.026 Uiso calc R 1 1 . .
C C14 0.4717(3) 0.7346(3) 0.3589(3) 0.0210(8) Uani d . 1 1 . .
H H14 0.4043 0.7389 0.3026 0.025 Uiso calc R 1 1 . .
C C15 -0.0529(4) 0.6454(3) 0.2922(3) 0.0207(8) Uani d . 1 1 . .
H H15 -0.0437 0.7196 0.3185 0.025 Uiso calc R 1 1 . .
C C16 0.0197(4) 0.6249(3) 0.2411(3) 0.0208(8) Uani d . 1 1 . .
H H16 0.0786 0.6836 0.2326 0.025 Uiso calc R 1 1 . .
C C17 0.0051(4) 0.5169(3) 0.2023(3) 0.0222(8) Uani d . 1 1 . .
C C18 -0.0793(4) 0.4334(3) 0.2170(3) 0.0250(8) Uani d . 1 1 . .
H H18 -0.0902 0.3586 0.1913 0.030 Uiso calc R 1 1 . .
C C19 -0.1469(4) 0.4611(3) 0.2697(3) 0.0229(8) Uani d . 1 1 . .
H H19 -0.2044 0.4036 0.2807 0.027 Uiso calc R 1 1 . .
C C20 0.0759(4) 0.4912(3) 0.1428(3) 0.0249(8) Uani d . 1 1 . .
C C21 0.2109(4) 0.5254(3) 0.0722(3) 0.0275(9) Uani d . 1 1 . .
C C22 0.1588(4) 0.3268(3) -0.0158(3) 0.0263(8) Uani d . 1 1 . .
H H22A 0.2079 0.3565 -0.0543 0.032 Uiso calc R 1 1 . .
H H22B 0.0734 0.2749 -0.0671 0.032 Uiso calc R 1 1 . .
C C23 0.2255(4) 0.2653(3) 0.0486(3) 0.0248(8) Uani d . 1 1 . .
H H23A 0.1746 0.2334 0.0850 0.030 Uiso calc R 1 1 . .
H H23B 0.2302 0.2037 0.0023 0.030 Uiso calc R 1 1 . .
C C24 0.3571(4) 0.3367(3) 0.1266(3) 0.0226(8) Uani d . 1 1 . .
C C25 0.3878(4) 0.3593(3) 0.2320(3) 0.0253(8) Uani d . 1 1 . .
H H25 0.3262 0.3263 0.2559 0.030 Uiso calc R 1 1 . .
C C26 0.5074(4) 0.4294(3) 0.3013(3) 0.0233(8) Uani d . 1 1 . .
H H26 0.5273 0.4424 0.3732 0.028 Uiso calc R 1 1 . .
C C27 0.5681(4) 0.4582(3) 0.1711(3) 0.0219(8) Uani d . 1 1 . .
H H27 0.6309 0.4929 0.1490 0.026 Uiso calc R 1 1 . .
C C28 0.4509(3) 0.3871(3) 0.0973(3) 0.0209(8) Uani d . 1 1 . .
H H28 0.4345 0.3726 0.0260 0.025 Uiso calc R 1 1 . .
C C29 0.4048(5) 0.8284(4) -0.0570(4) 0.0472(12) Uani d . 1 1 . .
C C30 0.5098(5) 0.8611(4) 0.0424(4) 0.0498(12) Uani d . 1 1 . .
H H30B 0.5553 0.9410 0.0639 0.075 Uiso calc R 1 1 . .
H H30A 0.5680 0.8233 0.0377 0.075 Uiso calc R 1 1 . .
H H30C 0.4777 0.8414 0.0934 0.075 Uiso calc R 1 1 . .
C C31 0.2757(5) 0.9767(4) 0.1943(4) 0.0510(13) Uani d . 1 1 . .
H H31A 0.3188 0.9932 0.2704 0.061 Uiso calc R 1 1 . .
H H31B 0.1931 0.9869 0.1777 0.061 Uiso calc R 1 1 . .
C C32 0.933(2) 0.0860(13) 0.1436(17) 0.065(7) Uani d P 0.50 1 A 1
H H32A 0.8608 0.1059 0.1052 0.079 Uiso calc PR 0.50 1 A 1
H H32B 0.9044 0.0345 0.1802 0.079 Uiso calc PR 0.50 1 A 1
C C33 0.887(2) 0.085(2) 0.127(2) 0.087(8) Uani d P 0.50 1 B 2
H H33A 0.8502 0.0116 0.1338 0.131 Uiso calc PR 0.50 1 B 2
H H33B 0.8706 0.0786 0.0546 0.131 Uiso calc PR 0.50 1 B 2
H H33C 0.8485 0.1339 0.1512 0.131 Uiso calc PR 0.50 1 B 2
C C34 1.0259(13) 0.1299(8) 0.1908(8) 0.037(2) Uani d P 0.50 1 B 2
Cl Cl1 0.24799(17) 0.83986(10) 0.13530(11) 0.0680(4) Uani d . 1 1 . .
Cl Cl2 0.36992(14) 1.06891(10) 0.15306(11) 0.0579(4) Uani d . 1 1 . .
Cl Cl3 1.0581(3) 0.2049(3) 0.2343(2) 0.0544(7) Uani d P 0.50 1 A 1
Cl Cl4 0.9810(3) 0.0205(2) 0.0557(2) 0.0683(8) Uani d P 0.50 1 . 1
Cu Cu1 -0.24221(4) 0.59940(3) 0.38295(3) 0.01993(13) Uani d . 1 1 . .
N N1 -0.0818(3) 0.7133(2) 0.4962(2) 0.0187(6) Uani d . 1 1 . .
N N2 0.3501(3) 0.9495(2) 0.5504(2) 0.0217(7) Uani d . 1 1 . .
N N3 0.4424(3) 0.9028(2) 0.5728(2) 0.0221(7) Uani d . 1 1 . .
N N4 0.6438(3) 0.6712(2) 0.4186(2) 0.0201(6) Uani d . 1 1 . .
N N5 -0.1367(3) 0.5649(2) 0.3067(2) 0.0204(6) Uani d . 1 1 . .
N N6 0.0599(3) 0.3944(3) 0.0915(2) 0.0261(7) Uani d . 1 1 . .
N N7 0.1449(3) 0.4170(2) 0.0471(2) 0.0242(7) Uani d . 1 1 . .
N N8 0.5982(3) 0.4809(2) 0.2729(2) 0.0202(6) Uani d . 1 1 . .
N N9 -0.2433(3) 0.4513(3) 0.5325(3) 0.0309(8) Uani d . 1 1 . .
N N10 0.7546(3) 0.7875(2) 0.2167(2) 0.0260(7) Uani d . 1 1 . .
N N11 0.3232(5) 0.8035(4) -0.1342(4) 0.0749(16) Uani d . 1 1 . .
N N12 1.1293(9) 0.1598(7) 0.2420(6) 0.047(2) Uani d P 0.50 1 B 2
O O1 0.3215(2) 0.84979(19) 0.40484(19) 0.0231(6) Uani d . 1 1 . .
O O2 0.1647(3) 0.5744(2) 0.1352(2) 0.0269(6) Uani d . 1 1 . .
O O3 -0.2129(3) 0.4670(2) 0.4586(2) 0.0304(6) Uani d . 1 1 . .
O O4 -0.2311(3) 0.3730(2) 0.5648(2) 0.0399(7) Uani d . 1 1 . .
O O5 -0.2904(5) 0.5104(3) 0.5668(3) 0.0801(14) Uani d . 1 1 . .
O O7 0.7940(3) 0.8094(2) 0.3124(2) 0.0399(7) Uani d . 1 1 . .
O O6 0.6784(3) 0.6944(2) 0.1613(2) 0.0474(8) Uani d . 1 1 . .
O O8 0.7936(4) 0.8580(2) 0.1786(2) 0.0506(9) Uani d . 1 1 . .
S S1 0.15509(10) 0.94974(8) 0.38462(8) 0.0315(2) Uani d . 1 1 . .
S S2 0.32176(11) 0.59376(9) 0.04184(9) 0.0376(3) Uani d . 1 1 . .

loop_
_atom_site_aniso_label
_atom_site_aniso_U_11
_atom_site_aniso_U_22
_atom_site_aniso_U_33
_atom_site_aniso_U_12
_atom_site_aniso_U_13
_atom_site_aniso_U_23

C1 0.026(2) 0.0226(18) 0.0214(18) 0.0114(16) 0.0144(16) 0.0063(14)
C2 0.023(2) 0.0201(17) 0.0211(18) 0.0078(15) 0.0132(16) 0.0056(14)
C3 0.028(2) 0.0196(17) 0.0163(17) 0.0111(16) 0.0144(16) 0.0045(14)
C4 0.025(2) 0.0240(19) 0.0221(19) 0.0130(17) 0.0079(16) 0.0075(15)
C5 0.029(2) 0.0168(17) 0.0238(19) 0.0110(16) 0.0108(17) 0.0046(14)
C6 0.019(2) 0.0238(18) 0.0212(18) 0.0072(16) 0.0082(16) 0.0013(15)
C7 0.027(2) 0.0220(19) 0.033(2) 0.0107(17) 0.0171(18) 0.0032(16)
C8 0.031(2) 0.0164(17) 0.034(2) 0.0116(16) 0.0214(18) 0.0084(15)
C9 0.019(2) 0.0192(18) 0.028(2) 0.0056(15) 0.0118(16) 0.0076(15)
C10 0.023(2) 0.0169(17) 0.0258(19) 0.0059(15) 0.0141(16) 0.0080(14)
C11 0.029(2) 0.0208(18) 0.0227(19) 0.0091(16) 0.0142(17) 0.0044(15)
C12 0.023(2) 0.0223(18) 0.0210(19) 0.0065(16) 0.0082(16) 0.0035(15)
C13 0.029(2) 0.0174(17) 0.0223(19) 0.0101(16) 0.0133(17) 0.0053(14)
C14 0.0186(19) 0.0193(17) 0.0216(19) 0.0064(15) 0.0050(15) 0.0054(14)
C15 0.024(2) 0.0179(17) 0.0244(19) 0.0095(15) 0.0147(16) 0.0049(14)
C16 0.021(2) 0.0205(18) 0.0228(19) 0.0039(15) 0.0129(16) 0.0074(14)
C17 0.022(2) 0.0259(19) 0.0191(18) 0.0101(16) 0.0090(16) 0.0044(15)
C18 0.031(2) 0.0198(18) 0.028(2) 0.0103(17) 0.0179(18) 0.0036(15)
C19 0.023(2) 0.0195(18) 0.027(2) 0.0082(16) 0.0123(17) 0.0054(15)
C20 0.020(2) 0.028(2) 0.026(2) 0.0049(16) 0.0129(17) 0.0059(16)
C21 0.033(2) 0.032(2) 0.025(2) 0.0186(19) 0.0154(18) 0.0102(16)
C22 0.023(2) 0.032(2) 0.0204(19) 0.0100(17) 0.0095(16) -0.0018(16)
C23 0.029(2) 0.0201(18) 0.0218(19) 0.0057(16) 0.0124(17) -0.0012(15)
C24 0.026(2) 0.0218(18) 0.0232(19) 0.0123(16) 0.0118(16) 0.0060(15)
C25 0.031(2) 0.0229(18) 0.026(2) 0.0090(17) 0.0180(18) 0.0060(15)
C26 0.031(2) 0.0272(19) 0.0191(18) 0.0131(17) 0.0152(17) 0.0087(15)
C27 0.028(2) 0.0210(18) 0.0260(19) 0.0111(16) 0.0196(17) 0.0089(15)
C28 0.025(2) 0.0224(18) 0.0210(18) 0.0101(16) 0.0156(16) 0.0057(14)
C29 0.056(3) 0.034(2) 0.041(3) 0.002(2) 0.017(3) 0.015(2)
C30 0.043(3) 0.041(3) 0.048(3) 0.006(2) 0.006(2) 0.012(2)
C31 0.068(4) 0.037(3) 0.063(3) 0.019(3) 0.044(3) 0.016(2)
C32 0.063(16) 0.026(6) 0.070(12) -0.029(8) 0.041(12) -0.026(7)
C33 0.042(13) 0.134(18) 0.079(12) 0.011(11) 0.027(10) 0.046(12)
C34 0.063(9) 0.016(5) 0.034(5) 0.009(5) 0.030(6) 0.003(4)
Cl1 0.1086(13) 0.0358(6) 0.0641(9) 0.0193(7) 0.0468(9) 0.0136(6)
Cl2 0.0644(9) 0.0474(7) 0.0644(8) 0.0155(7) 0.0278(7) 0.0286(6)
Cl3 0.0576(18) 0.0609(19) 0.0400(14) 0.0062(16) 0.0263(13) 0.0165(15)
Cl4 0.066(2) 0.0419(14) 0.082(2) 0.0001(13) 0.0362(17) 0.0020(13)
Cu1 0.0201(3) 0.0191(2) 0.0208(2) 0.00786(19) 0.01034(19) 0.00148(17)
N1 0.0215(17) 0.0201(15) 0.0186(15) 0.0085(13) 0.0118(13) 0.0064(12)
N2 0.0267(18) 0.0224(15) 0.0252(17) 0.0138(14) 0.0171(14) 0.0075(13)
N3 0.0204(17) 0.0208(15) 0.0303(18) 0.0098(13) 0.0137(14) 0.0089(13)
N4 0.0246(17) 0.0165(14) 0.0191(15) 0.0059(13) 0.0110(13) 0.0038(12)
N5 0.0194(17) 0.0216(15) 0.0207(15) 0.0090(13) 0.0093(13) 0.0031(12)
N6 0.0226(18) 0.0325(18) 0.0269(17) 0.0101(14) 0.0167(15) 0.0038(14)
N7 0.0235(18) 0.0272(17) 0.0267(17) 0.0084(14) 0.0181(15) 0.0043(13)
N8 0.0249(17) 0.0152(14) 0.0222(16) 0.0096(13) 0.0120(14) 0.0011(12)
N9 0.034(2) 0.0303(18) 0.0299(19) 0.0145(16) 0.0124(16) 0.0099(15)
N10 0.0331(19) 0.0259(17) 0.0264(18) 0.0164(15) 0.0166(15) 0.0074(14)
N11 0.076(4) 0.058(3) 0.044(3) -0.014(3) -0.003(3) 0.024(2)
N12 0.058(6) 0.040(5) 0.032(5) 0.010(5) 0.011(5) 0.013(4)
O1 0.0264(15) 0.0229(13) 0.0275(14) 0.0128(11) 0.0165(12) 0.0080(11)
O2 0.0303(16) 0.0243(13) 0.0345(15) 0.0121(12) 0.0219(13) 0.0072(11)
O3 0.0414(18) 0.0273(14) 0.0275(15) 0.0144(13) 0.0171(13) 0.0111(11)
O4 0.048(2) 0.0352(16) 0.0513(19) 0.0205(15) 0.0253(16) 0.0299(14)
O5 0.156(4) 0.080(3) 0.085(3) 0.088(3) 0.093(3) 0.054(2)
O7 0.053(2) 0.0506(18) 0.0195(15) 0.0240(16) 0.0158(14) 0.0075(13)
O6 0.058(2) 0.0302(16) 0.0408(18) 0.0015(15) 0.0239(17) -0.0041(14)
O8 0.083(3) 0.0371(17) 0.0459(19) 0.0211(18) 0.039(2) 0.0207(15)
S1 0.0355(6) 0.0354(6) 0.0360(6) 0.0235(5) 0.0184(5) 0.0149(4)
S2 0.0454(7) 0.0337(6) 0.0497(7) 0.0144(5) 0.0360(6) 0.0167(5)


_geom_special_details            
;
All esds (except the esd in the dihedral angle between two l.s. planes) are
estimated using the full covariance matrix. The cell esds are taken into
account individually in the estimation of esds in distances, angles and torsion
angles; correlations between esds in cell parameters are only used when they
are defined by crystal symmetry. An approximate (isotropic) treatment of cell
esds 