####################################################################### 
# 
# This file contains crystal structure data downloaded from the 
# Cambridge Structural Database (CSD) hosted by the Cambridge 
# Crystallographic Data Centre (CCDC).
# 
# Full information about CCDC data access policies and citation 
# guidelines are available at http://www.ccdc.cam.ac.uk/access/V1 
# 
# Audit and citation data items may have been added by the CCDC. 
# Please retain this information to preserve the provenance of 
# this file and to allow appropriate attribution of the data. 
# 
#######################################################################

data_to
_audit_block_doi                 10.5517/ccxl08r
_database_code_depnum_ccdc_archive 'CCDC 851454'
loop_
_citation_id
_citation_doi
_citation_year
1 10.1016/S1002-0721(12)60117-3 2012
_audit_update_record             
;
2011-10-29 deposited with the CCDC.	2024-07-14 downloaded from the CCDC.
;
#TrackingRef 'JRE1029.cif'


_audit_creation_method           SHELXL-97
_chemical_name_systematic        
;
?
;
_chemical_name_common            ?
_chemical_melting_point          ?
_chemical_formula_moiety         'C14 H6 Ag N2 Nd O8, 2(H2 O)'
_chemical_formula_sum            'C14 H10 Ag N2 Nd O10'
_chemical_formula_weight         618.35

loop_
_atom_type_symbol
_atom_type_description
_atom_type_scat_dispersion_real
_atom_type_scat_dispersion_imag
_atom_type_scat_source
C C 0.0033 0.0016 'International Tables Vol C Tables 4.2.6.8 and 6.1.1.4'
H H 0.0000 0.0000 'International Tables Vol C Tables 4.2.6.8 and 6.1.1.4'
Ag Ag -0.8971 1.1015 'International Tables Vol C Tables 4.2.6.8 and 6.1.1.4'
N N 0.0061 0.0033 'International Tables Vol C Tables 4.2.6.8 and 6.1.1.4'
Nd Nd -0.1943 3.0179 'International Tables Vol C Tables 4.2.6.8 and 6.1.1.4'
O O 0.0106 0.0060 'International Tables Vol C Tables 4.2.6.8 and 6.1.1.4'

_symmetry_cell_setting           Triclinic
_symmetry_space_group_name_H-M   'P -1'
_symmetry_space_group_name_Hall  '-P 1'

loop_
_symmetry_equiv_pos_as_xyz
'x, y, z'
'-x, -y, -z'

_cell_length_a                   7.3209(12)
_cell_length_b                   10.4579(17)
_cell_length_c                   11.632(2)
_cell_angle_alpha                100.170(2)
_cell_angle_beta                 100.846(2)
_cell_angle_gamma                96.142(2)
_cell_volume                     851.8(2)
_cell_formula_units_Z            2
_cell_measurement_temperature    293(2)
_cell_measurement_reflns_used    2160
_cell_measurement_theta_min      2.42
_cell_measurement_theta_max      26.88

_exptl_crystal_description       block
_exptl_crystal_colour            'pale purple'
_exptl_crystal_size_max          0.22
_exptl_crystal_size_mid          0.18
_exptl_crystal_size_min          0.16
_exptl_crystal_density_meas      ?
_exptl_crystal_density_diffrn    2.411
_exptl_crystal_density_method    'not measured'
_exptl_crystal_F_000             590
_exptl_absorpt_coefficient_mu    4.224
_exptl_absorpt_correction_type   multi-scan
_exptl_absorpt_correction_T_min  0.4567
_exptl_absorpt_correction_T_max  0.5513
_exptl_absorpt_process_details   'SADABS(Bruker, 2000)'

_exptl_special_details           
;
?
;

_diffrn_ambient_temperature      293(2)
_diffrn_radiation_wavelength     0.71073
_diffrn_radiation_type           MoK\a
_diffrn_radiation_source         'sealed tube'
_diffrn_radiation_monochromator  graphite
_diffrn_measurement_device_type  'Bruker Smart Aepex CCD area detector'
_diffrn_measurement_method       'phi and omega scans'
_diffrn_detector_area_resol_mean ?
_diffrn_standards_number         ?
_diffrn_standards_interval_count ?
_diffrn_standards_interval_time  ?
_diffrn_standards_decay_%        ?
_diffrn_reflns_number            5857
_diffrn_reflns_av_R_equivalents  0.0360
_diffrn_reflns_av_sigmaI/netI    0.0622
_diffrn_reflns_limit_h_min       -8
_diffrn_reflns_limit_h_max       8
_diffrn_reflns_limit_k_min       -12
_diffrn_reflns_limit_k_max       10
_diffrn_reflns_limit_l_min       -14
_diffrn_reflns_limit_l_max       14
_diffrn_reflns_theta_min         2.42
_diffrn_reflns_theta_max         25.49
_reflns_number_total             3112
_reflns_number_gt                2611
_reflns_threshold_expression     >2sigma(I)

_computing_data_collection       'SMART (Bruker, 2000)'
_computing_cell_refinement       SMART
_computing_data_reduction        'SAINT (Bruker, 2000)'
_computing_structure_solution    'SHELXTL (Bruker, 2000)'
_computing_structure_refinement  SHELXTL
_computing_molecular_graphics    SHELXTL
_computing_publication_material  SHELXTL

_refine_special_details          
;
Refinement of F^2^ against ALL reflections. The weighted R-factor wR and
goodness of fit S are based on F^2^, conventional R-factors R are based
on F, with F set to zero for negative F^2^. The threshold expression of
F^2^ > 2sigma(F^2^) is used only for calculating R-factors(gt) etc. and is
not relevant to the choice of reflections for refinement. R-factors based
on F^2^ are statistically about twice as large as those based on F, and R-
factors based on ALL data will be even larger.
;

_refine_ls_structure_factor_coef Fsqd
_refine_ls_matrix_type           full
_refine_ls_weighting_scheme      calc
_refine_ls_weighting_details     
'calc w=1/[\s^2^(Fo^2^)+(0.0389P)^2^+2.8442P] where P=(Fo^2^+2Fc^2^)/3'
_atom_sites_solution_primary     direct
_atom_sites_solution_secondary   difmap
_atom_sites_solution_hydrogens   geom
_refine_ls_hydrogen_treatment    constr
_refine_ls_extinction_method     none
_refine_ls_extinction_coef       ?
_refine_ls_number_reflns         3112
_refine_ls_number_parameters     262
_refine_ls_number_restraints     0
_refine_ls_R_factor_all          0.0515
_refine_ls_R_factor_gt           0.0410
_refine_ls_wR_factor_ref         0.0996
_refine_ls_wR_factor_gt          0.0955
_refine_ls_goodness_of_fit_ref   1.059
_refine_ls_restrained_S_all      1.059
_refine_ls_shift/su_max          0.000
_refine_ls_shift/su_mean         0.000

loop_
_atom_site_label
_atom_site_type_symbol
_atom_site_fract_x
_atom_site_fract_y
_atom_site_fract_z
_atom_site_U_iso_or_equiv
_atom_site_adp_type
_atom_site_occupancy
_atom_site_symmetry_multiplicity
_atom_site_calc_flag
_atom_site_refinement_flags
_atom_site_disorder_assembly
_atom_site_disorder_group
Ag1 Ag 0.71068(10) -0.25391(7) -0.20931(6) 0.0472(2) Uani 1 1 d . . 4
Nd1 Nd 0.74332(5) 0.02789(4) 0.43187(3) 0.01872(14) Uani 1 1 d . . 4
N1 N 0.9601(8) -0.1791(6) -0.0669(5) 0.0255(14) Uani 1 1 d . . 4
N2 N 0.5099(9) 0.5726(6) 0.6936(6) 0.0343(16) Uani 1 1 d . . 4
O1 O 0.9048(7) -0.0283(5) 0.2718(5) 0.0288(12) Uani 1 1 d . . 4
O2 O 1.1931(7) -0.0630(5) 0.3503(4) 0.0273(12) Uani 1 1 d . . 4
O3 O 1.5101(7) 0.0751(5) 0.2478(5) 0.0301(12) Uani 1 1 d . . 4
O4 O 1.5324(7) -0.1330(5) 0.2568(5) 0.0283(12) Uani 1 1 d . . 4
O5 O 0.7158(6) 0.2650(5) 0.5065(5) 0.0302(13) Uani 1 1 d . . 4
O6 O 0.4605(6) 0.1285(5) 0.4962(4) 0.0236(11) Uani 1 1 d . . 4
O7 O 0.0741(6) 0.1434(5) 0.5157(5) 0.0254(12) Uani 1 1 d . . 4
O8 O 0.0574(8) 0.2626(6) 0.3740(5) 0.0400(14) Uani 1 1 d . . 4
O1W O 0.429(3) 0.3668(17) 0.9089(15) 0.226(9) Uani 1 1 d . A 4
O2W O 0.973(6) 0.425(4) 0.854(6) 0.27(3) Uani 0.40 1 d P B 4
O3W O 0.211(5) 0.507(2) 0.994(3) 0.208(13) Uani 0.60 1 d P C 4
C1 C 1.0615(9) -0.0594(7) 0.2644(6) 0.0211(16) Uani 1 1 d . . 4
C2 C 1.0971(9) -0.0988(7) 0.1408(6) 0.0211(15) Uani 1 1 d . . 4
C3 C 0.9457(10) -0.1433(7) 0.0460(7) 0.0249(17) Uani 1 1 d . . 4
H3 H 0.8259 -0.1487 0.0624 0.030 Uiso 1 1 calc R . 4
C4 C 1.1351(10) -0.1695(8) -0.0884(7) 0.0283(17) Uani 1 1 d . . 4
H4 H 1.1487 -0.1922 -0.1670 0.034 Uiso 1 1 calc R . 4
C5 C 1.2921(11) -0.1287(8) -0.0015(7) 0.0311(18) Uani 1 1 d . . 4
H5 H 1.4099 -0.1263 -0.0207 0.037 Uiso 1 1 calc R . 4
C6 C 1.2769(10) -0.0902(7) 0.1165(6) 0.0213(15) Uani 1 1 d . . 4
C7 C 1.4509(10) -0.0459(8) 0.2147(6) 0.0253(17) Uani 1 1 d . . 4
C8 C 0.5525(10) 0.2436(7) 0.5230(7) 0.0243(16) Uani 1 1 d . . 4
C9 C 0.4604(10) 0.3549(7) 0.5747(7) 0.0246(17) Uani 1 1 d . . 4
C10 C 0.5749(10) 0.4684(7) 0.6421(7) 0.0285(18) Uani 1 1 d . . 4
H10 H 0.7044 0.4714 0.6515 0.034 Uiso 1 1 calc R . 4
C11 C 0.3214(11) 0.5677(8) 0.6758(8) 0.0341(19) Uani 1 1 d . . 4
H11 H 0.2731 0.6406 0.7096 0.041 Uiso 1 1 calc R . 4
C12 C 0.1975(11) 0.4599(7) 0.6100(7) 0.0313(18) Uani 1 1 d . . 4
H12 H 0.0686 0.4600 0.6011 0.038 Uiso 1 1 calc R . 4
C13 C 0.2663(10) 0.3518(7) 0.5573(7) 0.0234(16) Uani 1 1 d . . 4
C14 C 0.1219(9) 0.2430(7) 0.4725(7) 0.0219(16) Uani 1 1 d . . 4

loop_
_atom_site_aniso_label
_atom_site_aniso_U_11
_atom_site_aniso_U_22
_atom_site_aniso_U_33
_atom_site_aniso_U_23
_atom_site_aniso_U_13
_atom_site_aniso_U_12
Ag1 0.0348(4) 0.0505(5) 0.0413(4) -0.0142(3) 0.0007(3) -0.0073(3)
Nd1 0.0123(2) 0.0214(2) 0.0216(2) -0.00062(15) 0.00589(15) 0.00284(14)
N1 0.021(3) 0.031(4) 0.020(3) -0.001(3) -0.001(3) 0.003(3)
N2 0.027(4) 0.025(4) 0.044(4) -0.008(3) 0.007(3) -0.001(3)
O1 0.018(3) 0.041(3) 0.028(3) 0.000(2) 0.009(2) 0.009(2)
O2 0.021(3) 0.040(3) 0.019(3) -0.001(2) 0.006(2) 0.006(2)
O3 0.023(3) 0.027(3) 0.039(3) 0.002(3) 0.008(2) 0.002(2)
O4 0.019(3) 0.031(3) 0.031(3) 0.001(2) -0.001(2) 0.007(2)
O5 0.014(2) 0.029(3) 0.050(4) 0.005(3) 0.014(2) 0.003(2)
O6 0.017(2) 0.024(3) 0.029(3) -0.002(2) 0.008(2) 0.005(2)
O7 0.017(3) 0.024(3) 0.034(3) 0.002(2) 0.009(2) 0.000(2)
O8 0.042(4) 0.042(4) 0.031(3) 0.006(3) -0.002(3) 0.004(3)
O1W 0.35(3) 0.182(16) 0.155(15) 0.009(12) 0.095(16) 0.054(17)
O2W 0.16(3) 0.20(4) 0.58(10) 0.29(6) 0.13(5) 0.08(3)
O3W 0.31(4) 0.074(14) 0.24(3) 0.036(17) 0.08(3) 0.026(19)
C1 0.017(4) 0.023(4) 0.023(4) -0.001(3) 0.008(3) -0.001(3)
C2 0.017(4) 0.021(4) 0.022(4) 0.000(3) 0.004(3) 0.001(3)
C3 0.017(4) 0.029(4) 0.028(4) 0.003(3) 0.005(3) 0.004(3)
C4 0.027(4) 0.034(4) 0.021(4) -0.002(3) 0.003(3) 0.005(3)
C5 0.026(4) 0.041(5) 0.028(4) 0.001(4) 0.012(4) 0.009(3)
C6 0.022(4) 0.019(4) 0.023(4) -0.002(3) 0.007(3) 0.005(3)
C7 0.018(4) 0.039(5) 0.019(4) -0.001(3) 0.011(3) 0.004(3)
C8 0.025(4) 0.018(4) 0.029(4) 0.003(3) 0.003(3) 0.003(3)
C9 0.026(4) 0.019(4) 0.031(4) 0.001(3) 0.015(3) 0.007(3)
C10 0.019(4) 0.025(4) 0.039(5) -0.002(4) 0.007(3) 0.007(3)
C11 0.032(4) 0.026(4) 0.043(5) -0.003(4) 0.009(4) 0.010(3)
C12 0.023(4) 0.025(4) 0.043(5) -0.002(4) 0.006(4) 0.007(3)
C13 0.020(4) 0.020(4) 0.032(4) 0.006(3) 0.007(3) 0.003(3)
C14 0.013(3) 0.020(4) 0.035(5) 0.000(3) 0.012(3) 0.007(3)

_geom_special_details            
;
All esds (except the esd in the dihedral angle between two l.s. planes)
are estimated using the full covariance matrix. The cell esds are taken
into account individually in the estimation of esds in distances, angles
and torsion angles; correlations between esds in cell parameters are only
used when they are defined by crystal symmetry. An approximate (isotropic)
treatment of cell esds is used for estimating esds involving l.s. planes.
;

loop_
_geom_bond_atom_site_label_1
_geom_bond_atom_site_label_2
_geom_bond_distance
_geom_bond_site_symmetry_2
_geom_bond_publ_flag
Ag1 N1 2.188(6) . ?
Ag1 N2 2.193(6) 1_544 ?
Nd1 O1 2.409(5) . ?
Nd1 O7 2.441(5) 2_656 ?
Nd1 O2 2.442(5) 2_756 ?
Nd1 O6 2.456(5) 2_656 ?
Nd1 O7 2.518(5) 1_655 ?
Nd1 O5 2.521(5) . ?
Nd1 O4 2.533(5) 1_455 ?
Nd1 O6 2.594(4) . ?
Nd1 O3 2.631(6) 1_455 ?
Nd1 C7 2.912(8) 1_455 ?
Nd1 Nd1 3.9409(9) 2_756 ?
N1 C3 1.328(9) . ?
N1 C4 1.348(9) . ?
N2 C10 1.327(9) . ?
N2 C11 1.350(10) . ?
N2 Ag1 2.193(6) 1_566 ?
O1 C1 1.239(8) . ?
O2 C1 1.259(8) . ?
O2 Nd1 2.442(5) 2_756 ?
O3 C7 1.258(9) . ?
O3 Nd1 2.631(6) 1_655 ?
O4 C7 1.261(9) . ?
O4 Nd1 2.533(5) 1_655 ?
O5 C8 1.250(8) . ?
O6 C8 1.271(8) . ?
O6 Nd1 2.456(5) 2_656 ?
O7 C14 1.278(9) . ?
O7 Nd1 2.441(5) 2_656 ?
O7 Nd1 2.518(5) 1_455 ?
O8 C14 1.216(9) . ?
C1 C2 1.504(9) . ?
C2 C3 1.381(10) . ?
C2 C6 1.394(9) . ?
C3 H3 0.9300 . ?
C4 C5 1.353(11) . ?
C4 H4 0.9300 . ?
C5 C6 1.389(10) . ?
C5 H5 0.9300 . ?
C6 C7 1.511(10) . ?
C7 Nd1 2.912(8) 1_655 ?
C8 C9 1.498(10) . ?
C9 C10 1.391(10) . ?
C9 C13 1.393(10) . ?
C10 H10 0.9300 . ?
C11 C12 1.377(11) . ?
C11 H11 0.9300 . ?
C12 C13 1.379(10) . ?
C12 H12 0.9300 . ?
C13 C14 1.529(10) . ?

loop_
_geom_angle_atom_site_label_1
_geom_angle_atom_site_label_2
_geom_angle_atom_site_label_3
_geom_angle
_geom_angle_site_symmetry_1
_geom_angle_site_symmetry_3
_geom_angle_publ_flag
N1 Ag1 N2 145.7(3) . 1_544 ?
O1 Nd1 O7 74.05(17) . 2_656 ?
O1 Nd1 O2 138.69(17) . 2_756 ?
O7 Nd1 O2 74.25(17) 2_656 2_756 ?
O1 Nd1 O6 125.16(17) . 2_656 ?
O7 Nd1 O6 72.58(15) 2_656 2_656 ?
O2 Nd1 O6 67.65(16) 2_756 2_656 ?
O1 Nd1 O7 76.02(17) . 1_655 ?
O7 Nd1 O7 74.78(18) 2_656 1_655 ?
O2 Nd1 O7 70.60(16) 2_756 1_655 ?
O6 Nd1 O7 132.27(16) 2_656 1_655 ?
O1 Nd1 O5 119.58(17) . . ?
O7 Nd1 O5 140.70(18) 2_656 . ?
O2 Nd1 O5 73.43(18) 2_756 . ?
O6 Nd1 O5 113.90(15) 2_656 . ?
O7 Nd1 O5 73.83(16) 1_655 . ?
O1 Nd1 O4 68.66(17) . 1_455 ?
O7 Nd1 O4 91.12(17) 2_656 1_455 ?
O2 Nd1 O4 137.41(16) 2_756 1_455 ?
O6 Nd1 O4 69.83(16) 2_656 1_455 ?
O7 Nd1 O4 144.41(16) 1_655 1_455 ?
O5 Nd1 O4 128.02(18) . 1_455 ?
O1 Nd1 O6 146.21(17) . . ?
O7 Nd1 O6 136.21(15) 2_656 . ?
O2 Nd1 O6 73.96(16) 2_756 . ?
O6 Nd1 O6 67.89(18) 2_656 . ?
O7 Nd1 O6 120.55(15) 1_655 . ?
O5 Nd1 O6 50.89(14) . . ?
O4 Nd1 O6 92.37(16) 1_455 . ?
O1 Nd1 O3 77.91(17) . 1_455 ?
O7 Nd1 O3 139.26(17) 2_656 1_455 ?
O2 Nd1 O3 142.21(16) 2_756 1_455 ?
O6 Nd1 O3 101.56(16) 2_656 1_455 ?
O7 Nd1 O3 125.76(16) 1_655 1_455 ?
O5 Nd1 O3 79.30(17) . 1_455 ?
O4 Nd1 O3 50.86(16) 1_455 1_455 ?
O6 Nd1 O3 68.57(16) . 1_455 ?
O1 Nd1 C7 74.40(17) . 1_455 ?
O7 Nd1 C7 116.4(2) 2_656 1_455 ?
O2 Nd1 C7 144.74(16) 2_756 1_455 ?
O6 Nd1 C7 83.12(18) 2_656 1_455 ?
O7 Nd1 C7 143.37(17) 1_655 1_455 ?
O5 Nd1 C7 103.0(2) . 1_455 ?
O4 Nd1 C7 25.58(19) 1_455 1_455 ?
O6 Nd1 C7 77.08(18) . 1_455 ?
O3 Nd1 C7 25.60(19) 1_455 1_455 ?
O1 Nd1 Nd1 71.06(12) . 2_756 ?
O7 Nd1 Nd1 38.07(11) 2_656 2_756 ?
O2 Nd1 Nd1 67.64(11) 2_756 2_756 ?
O6 Nd1 Nd1 104.14(12) 2_656 2_756 ?
O7 Nd1 Nd1 36.71(11) 1_655 2_756 ?
O5 Nd1 Nd1 107.54(12) . 2_756 ?
O4 Nd1 Nd1 122.12(12) 1_455 2_756 ?
O6 Nd1 Nd1 140.54(11) . 2_756 ?
O3 Nd1 Nd1 147.45(11) 1_455 2_756 ?
C7 Nd1 Nd1 141.98(14) 1_455 2_756 ?
C3 N1 C4 116.7(6) . . ?
C3 N1 Ag1 121.2(5) . . ?
C4 N1 Ag1 122.1(5) . . ?
C10 N2 C11 117.1(7) . . ?
C10 N2 Ag1 118.8(5) . 1_566 ?
C11 N2 Ag1 123.9(5) . 1_566 ?
C1 O1 Nd1 135.4(5) . . ?
C1 O2 Nd1 139.4(4) . 2_756 ?
C7 O3 Nd1 89.8(5) . 1_655 ?
C7 O4 Nd1 94.3(4) . 1_655 ?
C8 O5 Nd1 95.8(4) . . ?
C8 O6 Nd1 143.5(5) . 2_656 ?
C8 O6 Nd1 91.8(4) . . ?
Nd1 O6 Nd1 112.11(18) 2_656 . ?
C14 O7 Nd1 129.2(4) . 2_656 ?
C14 O7 Nd1 115.7(5) . 1_455 ?
Nd1 O7 Nd1 105.22(17) 2_656 1_455 ?
O1 C1 O2 126.4(6) . . ?
O1 C1 C2 116.8(7) . . ?
O2 C1 C2 116.7(6) . . ?
C3 C2 C6 118.0(6) . . ?
C3 C2 C1 119.0(6) . . ?
C6 C2 C1 123.0(6) . . ?
N1 C3 C2 124.3(6) . . ?
N1 C3 H3 117.9 . . ?
C2 C3 H3 117.9 . . ?
N1 C4 C5 123.4(7) . . ?
N1 C4 H4 118.3 . . ?
C5 C4 H4 118.3 . . ?
C4 C5 C6 119.9(7) . . ?
C4 C5 H5 120.1 . . ?
C6 C5 H5 120.1 . . ?
C5 C6 C2 117.7(7) . . ?
C5 C6 C7 120.5(6) . . ?
C2 C6 C7 121.7(6) . . ?
O3 C7 O4 123.5(7) . . ?
O3 C7 C6 118.7(7) . . ?
O4 C7 C6 117.8(7) . . ?
O3 C7 Nd1 64.6(4) . 1_655 ?
O4 C7 Nd1 60.1(4) . 1_655 ?
C6 C7 Nd1 169.9(4) . 1_655 ?
O5 C8 O6 121.4(7) . . ?
O5 C8 C9 120.1(6) . . ?
O6 C8 C9 118.5(6) . . ?
C10 C9 C13 118.3(7) . . ?
C10 C9 C8 118.2(6) . . ?
C13 C9 C8 123.5(7) . . ?
N2 C10 C9 123.7(7) . . ?
N2 C10 H10 118.1 . . ?
C9 C10 H10 118.1 . . ?
N2 C11 C12 123.1(7) . . ?
N2 C11 H11 118.4 . . ?
C12 C11 H11 118.4 . . ?
C11 C12 C13 119.4(7) . . ?
C11 C12 H12 120.3 . . ?
C13 C12 H12 120.3 . . ?
C12 C13 C9 118.4(7) . . ?
C12 C13 C14 116.6(6) . . ?
C9 C13 C14 124.7(6) . . ?
O8 C14 O7 126.7(7) . . ?
O8 C14 C13 117.3(6) . . ?
O7 C14 C13 115.9(7) . . ?

loop_
_geom_torsion_atom_site_label_1
_geom_torsion_atom_site_label_2
_geom_torsion_atom_site_label_3
_geom_torsion_atom_site_label_4
_geom_torsion
_geom_torsion_site_symmetry_1
_geom_torsion_site_symmetry_2
_geom_torsion_site_symmetry_3
_geom_torsion_site_symmetry_4
_geom_torsion_publ_flag
N2 Ag1 N1 C3 -85.4(7) 1_544 . . . ?
N2 Ag1 N1 C4 93.2(7) 1_544 . . . ?
O7 Nd1 O1 C1 -36.8(7) 2_656 . . . ?
O2 Nd1 O1 C1 4.4(8) 2_756 . . . ?
O6 Nd1 O1 C1 -91.2(7) 2_656 . . . ?
O7 Nd1 O1 C1 41.1(7) 1_655 . . . ?
O5 Nd1 O1 C1 102.9(7) . . . . ?
O4 Nd1 O1 C1 -134.5(7) 1_455 . . . ?
O6 Nd1 O1 C1 165.8(6) . . . . ?
O3 Nd1 O1 C1 173.1(7) 1_455 . . . ?
C7 Nd1 O1 C1 -160.8(7) 1_455 . . . ?
Nd1 Nd1 O1 C1 3.0(6) 2_756 . . . ?
O1 Nd1 O5 C8 142.0(4) . . . . ?
O7 Nd1 O5 C8 -116.8(5) 2_656 . . . ?
O2 Nd1 O5 C8 -80.9(5) 2_756 . . . ?
O6 Nd1 O5 C8 -25.4(5) 2_656 . . . ?
O7 Nd1 O5 C8 -155.0(5) 1_655 . . . ?
O4 Nd1 O5 C8 57.0(5) 1_455 . . . ?
O6 Nd1 O5 C8 1.6(4) . . . . ?
O3 Nd1 O5 C8 72.6(5) 1_455 . . . ?
C7 Nd1 O5 C8 62.8(5) 1_455 . . . ?
Nd1 Nd1 O5 C8 -140.2(4) 2_756 . . . ?
O1 Nd1 O6 C8 -87.5(5) . . . . ?
O7 Nd1 O6 C8 124.8(4) 2_656 . . . ?
O2 Nd1 O6 C8 79.9(4) 2_756 . . . ?
O6 Nd1 O6 C8 151.8(5) 2_656 . . . ?
O7 Nd1 O6 C8 24.7(5) 1_655 . . . ?
O5 Nd1 O6 C8 -1.6(4) . . . . ?
O4 Nd1 O6 C8 -141.1(4) 1_455 . . . ?
O3 Nd1 O6 C8 -95.1(4) 1_455 . . . ?
C7 Nd1 O6 C8 -120.5(5) 1_455 . . . ?
Nd1 Nd1 O6 C8 66.3(5) 2_756 . . . ?
O1 Nd1 O6 Nd1 120.7(3) . . . 2_656 ?
O7 Nd1 O6 Nd1 -27.0(3) 2_656 . . 2_656 ?
O2 Nd1 O6 Nd1 -71.9(2) 2_756 . . 2_656 ?
O6 Nd1 O6 Nd1 0.0 2_656 . . 2_656 ?
O7 Nd1 O6 Nd1 -127.10(19) 1_655 . . 2_656 ?
O5 Nd1 O6 Nd1 -153.4(3) . . . 2_656 ?
O4 Nd1 O6 Nd1 67.1(2) 1_455 . . 2_656 ?
O3 Nd1 O6 Nd1 113.1(2) 1_455 . . 2_656 ?
C7 Nd1 O6 Nd1 87.7(2) 1_455 . . 2_656 ?
Nd1 Nd1 O6 Nd1 -85.5(2) 2_756 . . 2_656 ?
Nd1 O1 C1 O2 -4.3(12) . . . . ?
Nd1 O1 C1 C2 174.6(4) . . . . ?
Nd1 O2 C1 O1 2.2(12) 2_756 . . . ?
Nd1 O2 C1 C2 -176.8(5) 2_756 . . . ?
O1 C1 C2 C3 -22.7(10) . . . . ?
O2 C1 C2 C3 156.3(7) . . . . ?
O1 C1 C2 C6 156.1(7) . . . . ?
O2 C1 C2 C6 -24.8(10) . . . . ?
C4 N1 C3 C2 -0.5(11) . . . . ?
Ag1 N1 C3 C2 178.2(6) . . . . ?
C6 C2 C3 N1 0.2(11) . . . . ?
C1 C2 C3 N1 179.1(7) . . . . ?
C3 N1 C4 C5 1.4(12) . . . . ?
Ag1 N1 C4 C5 -177.3(6) . . . . ?
N1 C4 C5 C6 -1.9(13) . . . . ?
C4 C5 C6 C2 1.5(11) . . . . ?
C4 C5 C6 C7 179.3(7) . . . . ?
C3 C2 C6 C5 -0.7(11) . . . . ?
C1 C2 C6 C5 -179.6(7) . . . . ?
C3 C2 C6 C7 -178.4(7) . . 