####################################################################### 
# 
# This file contains crystal structure data downloaded from the 
# Cambridge Structural Database (CSD) hosted by the Cambridge 
# Crystallographic Data Centre (CCDC).
# 
# Full information about CCDC data access policies and citation 
# guidelines are available at http://www.ccdc.cam.ac.uk/access/V1 
# 
# Audit and citation data items may have been added by the CCDC. 
# Please retain this information to preserve the provenance of 
# this file and to allow appropriate attribution of the data. 
# 
#######################################################################

data_1
_audit_block_doi                 10.5517/cc10kvq4
_database_code_depnum_ccdc_archive 'CCDC 940686'
loop_
_citation_id
_citation_doi
_citation_year
1 10.1016/j.ica.2013.10.018 2014
_audit_update_record             
;
2013-05-22 deposited with the CCDC.	2024-07-14 downloaded from the CCDC.
;

_audit_creation_method           SHELXL-97
_chemical_name_systematic        
; 
 ? 
;
_chemical_name_common            ?
_chemical_melting_point          ?
_chemical_formula_moiety         'C64 H50 Mn2 N4 O15'
_chemical_formula_sum            'C64 H50 Mn2 N4 O15'
_chemical_formula_weight         1224.96

loop_
_atom_type_symbol
_atom_type_description
_atom_type_scat_dispersion_real
_atom_type_scat_dispersion_imag
_atom_type_scat_source
C C 0.0033 0.0016 'International Tables Vol C Tables 4.2.6.8 and 6.1.1.4'
H H 0.0000 0.0000 'International Tables Vol C Tables 4.2.6.8 and 6.1.1.4'
Mn Mn 0.3368 0.7283 'International Tables Vol C Tables 4.2.6.8 and 6.1.1.4'
N N 0.0061 0.0033 'International Tables Vol C Tables 4.2.6.8 and 6.1.1.4'
O O 0.0106 0.0060 'International Tables Vol C Tables 4.2.6.8 and 6.1.1.4'

_symmetry_cell_setting           Monoclinic
_symmetry_space_group_name_H-M   'C 2/c'
_symmetry_space_group_name_Hall  '-C 2yc '

loop_
_symmetry_equiv_pos_as_xyz
'x, y, z'
'-x, y, -z+1/2'
'x+1/2, y+1/2, z'
'-x+1/2, y+1/2, -z+1/2'
'-x, -y, -z'
'x, -y, z-1/2'
'-x+1/2, -y+1/2, -z'
'x+1/2, -y+1/2, z-1/2'

_cell_length_a                   14.5110(18)
_cell_length_b                   16.046(2)
_cell_length_c                   29.703(4)
_cell_angle_alpha                90.00
_cell_angle_beta                 95.220(3)
_cell_angle_gamma                90.00
_cell_volume                     6887.5(15)
_cell_formula_units_Z            4
_cell_measurement_temperature    296(2)
_cell_measurement_reflns_used    ?
_cell_measurement_theta_min      ?
_cell_measurement_theta_max      ?

_exptl_crystal_description       ?
_exptl_crystal_colour            ?
_exptl_crystal_size_max          0.32
_exptl_crystal_size_mid          0.28
_exptl_crystal_size_min          0.19
_exptl_crystal_density_meas      ?
_exptl_crystal_density_diffrn    1.181
_exptl_crystal_density_method    'not measured'
_exptl_crystal_F_000             2528
_exptl_absorpt_coefficient_mu    0.428
_exptl_absorpt_correction_type   multi-scan
_exptl_absorpt_correction_T_min  0.8751
_exptl_absorpt_correction_T_max  0.9215
_exptl_absorpt_process_details   sadabs

_exptl_special_details           
; 
 ? 
;

loop_
_platon_squeeze_void_nr
_platon_squeeze_void_average_x
_platon_squeeze_void_average_y
_platon_squeeze_void_average_z
_platon_squeeze_void_volume
_platon_squeeze_void_count_electrons
1 0.000 0.000 0.000 16.6 -0.1
2 0.000 0.500 -0.003 782.3 18.1
3 0.000 1.000 0.500 16.7 -0.1
4 0.500 0.000 0.388 782.3 18.1
5 0.500 0.500 0.000 16.6 -0.1
6 0.500 0.500 0.500 16.6 -0.1
_platon_squeeze_details          
;
;

_diffrn_ambient_temperature      296(2)
_diffrn_radiation_wavelength     0.71073
_diffrn_radiation_type           MoK\a
_diffrn_radiation_source         'fine-focus sealed tube'
_diffrn_radiation_monochromator  graphite
_diffrn_measurement_device_type  ?
_diffrn_measurement_method       ?
_diffrn_detector_area_resol_mean ?
_diffrn_standards_number         ?
_diffrn_standards_interval_count ?
_diffrn_standards_interval_time  ?
_diffrn_standards_decay_%        ?
_diffrn_reflns_number            17239
_diffrn_reflns_av_R_equivalents  0.0641
_diffrn_reflns_av_sigmaI/netI    0.0815
_diffrn_reflns_limit_h_min       -17
_diffrn_reflns_limit_h_max       17
_diffrn_reflns_limit_k_min       -19
_diffrn_reflns_limit_k_max       16
_diffrn_reflns_limit_l_min       -35
_diffrn_reflns_limit_l_max       24
_diffrn_reflns_theta_min         1.38
_diffrn_reflns_theta_max         25.10
_reflns_number_total             6113
_reflns_number_gt                3406
_reflns_threshold_expression     >2sigma(I)

_computing_data_collection       ?
_computing_cell_refinement       ?
_computing_data_reduction        ?
_computing_structure_solution    'SHELXS-97 (Sheldrick, 1990)'
_computing_structure_refinement  'SHELXL-97 (Sheldrick, 1997)'
_computing_molecular_graphics    ?
_computing_publication_material  ?

_refine_special_details          
; 
 Refinement of F^2^ against ALL reflections.  The weighted R-factor wR and 
 goodness of fit S are based on F^2^, conventional R-factors R are based 
 on F, with F set to zero for negative F^2^. The threshold expression of 
 F^2^ > 2sigma(F^2^) is used only for calculating R-factors(gt) etc. and is 
 not relevant to the choice of reflections for refinement.  R-factors based 
 on F^2^ are statistically about twice as large as those based on F, and R- 
 factors based on ALL data will be even larger. 
;

_refine_ls_structure_factor_coef Fsqd
_refine_ls_matrix_type           full
_refine_ls_weighting_scheme      calc
_refine_ls_weighting_details     
'calc w=1/[\s^2^(Fo^2^)+(0.0305P)^2^+0.0000P] where P=(Fo^2^+2Fc^2^)/3'
_atom_sites_solution_primary     direct
_atom_sites_solution_secondary   difmap
_atom_sites_solution_hydrogens   geom
_refine_ls_hydrogen_treatment    constr
_refine_ls_extinction_method     none
_refine_ls_extinction_coef       ?
_refine_ls_number_reflns         6113
_refine_ls_number_parameters     384
_refine_ls_number_restraints     0
_refine_ls_R_factor_all          0.0926
_refine_ls_R_factor_gt           0.0518
_refine_ls_wR_factor_ref         0.1094
_refine_ls_wR_factor_gt          0.0999
_refine_ls_goodness_of_fit_ref   1.014
_refine_ls_restrained_S_all      1.014
_refine_ls_shift/su_max          0.000
_refine_ls_shift/su_mean         0.000

loop_
_atom_site_label
_atom_site_type_symbol
_atom_site_fract_x
_atom_site_fract_y
_atom_site_fract_z
_atom_site_U_iso_or_equiv
_atom_site_adp_type
_atom_site_occupancy
_atom_site_symmetry_multiplicity
_atom_site_calc_flag
_atom_site_refinement_flags
_atom_site_disorder_assembly
_atom_site_disorder_group
Mn1 Mn 0.38019(3) 0.46836(3) 0.264882(15) 0.04643(17) Uani 1 1 d . . .
C1 C 0.4482(3) 0.56070(19) 0.18317(10) 0.0471(8) Uani 1 1 d . . .
C2 C 0.4257(2) 0.6076(2) 0.13977(10) 0.0487(8) Uani 1 1 d . . .
C3 C 0.4883(2) 0.6140(2) 0.10818(11) 0.0600(10) Uani 1 1 d . . .
H3 H 0.5455 0.5879 0.1134 0.072 Uiso 1 1 calc R . .
C4 C 0.4680(3) 0.6590(2) 0.06838(11) 0.0637(10) Uani 1 1 d . . .
H4 H 0.5107 0.6614 0.0469 0.076 Uiso 1 1 calc R . .
C5 C 0.3857(3) 0.6993(2) 0.06102(11) 0.0541(9) Uani 1 1 d . . .
C6 C 0.3235(3) 0.6952(2) 0.09202(12) 0.0794(12) Uani 1 1 d . . .
H6 H 0.2676 0.7235 0.0871 0.095 Uiso 1 1 calc R . .
C7 C 0.3424(3) 0.6489(2) 0.13116(12) 0.0773(12) Uani 1 1 d . . .
H7 H 0.2983 0.6455 0.1519 0.093 Uiso 1 1 calc R . .
C8 C 0.3831(2) 0.7211(2) -0.01831(11) 0.0546(9) Uani 1 1 d . . .
C9 C 0.4231(3) 0.7774(2) -0.04570(12) 0.0726(11) Uani 1 1 d . . .
H9 H 0.4406 0.8301 -0.0350 0.087 Uiso 1 1 calc R . .
C10 C 0.4366(2) 0.7536(2) -0.08978(12) 0.0688(11) Uani 1 1 d . . .
H10 H 0.4655 0.7904 -0.1082 0.083 Uiso 1 1 calc R . .
C11 C 0.4084(2) 0.6769(2) -0.10682(10) 0.0462(8) Uani 1 1 d . . .
C12 C 0.3672(3) 0.6246(2) -0.07838(11) 0.0645(10) Uani 1 1 d . . .
H12 H 0.3474 0.5725 -0.0891 0.077 Uiso 1 1 calc R . .
C13 C 0.3535(3) 0.6461(2) -0.03404(11) 0.0701(11) Uani 1 1 d . . .
H13 H 0.3244 0.6094 -0.0156 0.084 Uiso 1 1 calc R . .
C14 C 0.4213(2) 0.6530(2) -0.15476(11) 0.0516(9) Uani 1 1 d . . .
C15 C 0.2581(2) 0.3661(2) 0.18808(11) 0.0603(10) Uani 1 1 d . . .
H15 H 0.2905 0.4005 0.1699 0.072 Uiso 1 1 calc R . .
C16 C 0.1929(3) 0.3116(2) 0.16709(12) 0.0631(10) Uani 1 1 d . . .
C17 C 0.1446(3) 0.2616(3) 0.19401(14) 0.0948(15) Uani 1 1 d . . .
H17 H 0.0997 0.2255 0.1810 0.114 Uiso 1 1 calc R . .
C18 C 0.1623(3) 0.2645(3) 0.23987(15) 0.1162(18) Uani 1 1 d . . .
H18 H 0.1309 0.2300 0.2585 0.139 Uiso 1 1 calc R . .
C19 C 0.2290(3) 0.3210(3) 0.25808(13) 0.0975(15) Uani 1 1 d . . .
H19 H 0.2409 0.3234 0.2894 0.117 Uiso 1 1 calc R . .
C20 C 0.1731(3) 0.3094(2) 0.11680(12) 0.0735(11) Uani 1 1 d . . .
H20A H 0.1704 0.2521 0.1064 0.088 Uiso 1 1 calc R . .
H20B H 0.1138 0.3354 0.1081 0.088 Uiso 1 1 calc R . .
C21 C 0.2373(3) 0.3593(2) 0.04978(13) 0.0676(10) Uani 1 1 d . . .
C22 C 0.3064(3) 0.4029(2) 0.03238(13) 0.0819(12) Uani 1 1 d . . .
H22 H 0.3543 0.4259 0.0514 0.098 Uiso 1 1 calc R . .
C23 C 0.3041(3) 0.4124(2) -0.01384(13) 0.0741(11) Uani 1 1 d . . .
H23 H 0.3501 0.4431 -0.0261 0.089 Uiso 1 1 calc R . .
C24 C 0.2343(3) 0.3770(2) -0.04208(13) 0.0677(10) Uani 1 1 d . . .
C25 C 0.1662(3) 0.3346(2) -0.02425(12) 0.0750(11) Uani 1 1 d . . .
H25 H 0.1186 0.3111 -0.0432 0.090 Uiso 1 1 calc R . .
C26 C 0.1667(3) 0.3260(2) 0.02195(12) 0.0747(11) Uani 1 1 d . . .
H26 H 0.1190 0.2976 0.0342 0.090 Uiso 1 1 calc R . .
C27 C 0.1644(2) 0.3579(2) -0.11711(11) 0.0670(10) Uani 1 1 d . . .
H27A H 0.1073 0.3834 -0.1094 0.080 Uiso 1 1 calc R . .
H27B H 0.1592 0.2981 -0.1133 0.080 Uiso 1 1 calc R . .
C28 C 0.1796(2) 0.3773(2) -0.16496(12) 0.0602(9) Uani 1 1 d . . .
C29 C 0.2452(2) 0.4328(2) -0.17721(11) 0.0539(9) Uani 1 1 d . . .
H29 H 0.2821 0.4594 -0.1543 0.065 Uiso 1 1 calc R . .
C30 C 0.2054(3) 0.4129(3) -0.25217(12) 0.0830(13) Uani 1 1 d . . .
H30 H 0.2147 0.4240 -0.2822 0.100 Uiso 1 1 calc R . .
C31 C 0.1373(3) 0.3582(3) -0.24362(15) 0.1092(17) Uani 1 1 d . . .
H31 H 0.0998 0.3343 -0.2672 0.131 Uiso 1 1 calc R . .
C32 C 0.1252(3) 0.3392(3) -0.19954(14) 0.0917(14) Uani 1 1 d . . .
H32 H 0.0805 0.3006 -0.1930 0.110 Uiso 1 1 calc R . .
N1 N 0.2768(2) 0.37199(17) 0.23297(9) 0.0623(8) Uani 1 1 d . . .
N2 N 0.25930(19) 0.45107(17) -0.22006(9) 0.0591(8) Uani 1 1 d . . .
O1 O 0.53150(16) 0.55499(14) 0.19698(7) 0.0657(7) Uani 1 1 d . . .
O2 O 0.38127(15) 0.53112(13) 0.20150(7) 0.0582(6) Uani 1 1 d . . .
O3 O 0.36540(18) 0.75072(14) 0.02416(7) 0.0751(8) Uani 1 1 d . . .
O4 O 0.47597(18) 0.69682(15) -0.17550(8) 0.0818(8) Uani 1 1 d . . .
O5 O 0.37532(16) 0.59333(14) -0.17128(7) 0.0630(7) Uani 1 1 d . . .
O6 O 0.24453(18) 0.35295(16) 0.09652(8) 0.0844(8) Uani 1 1 d . . .
O7 O 0.23990(17) 0.38881(16) -0.08827(8) 0.0783(8) Uani 1 1 d . . .
O8 O 0.5000 0.38497(16) 0.2500 0.0492(8) Uani 1 2 d S . .
H8A H 0.5078 0.3588 0.2257 0.059 Uiso 1 1 d R . .

loop_
_atom_site_aniso_label
_atom_site_aniso_U_11
_atom_site_aniso_U_22
_atom_site_aniso_U_33
_atom_site_aniso_U_23
_atom_site_aniso_U_13
_atom_site_aniso_U_12
Mn1 0.0495(3) 0.0573(3) 0.0328(3) 0.0007(3) 0.0053(2) 0.0049(3)
C1 0.059(2) 0.046(2) 0.0357(19) -0.0005(16) 0.0035(19) 0.0020(18)
C2 0.050(2) 0.064(2) 0.0312(18) 0.0050(17) 0.0004(16) 0.0057(18)
C3 0.053(2) 0.080(3) 0.046(2) 0.011(2) 0.0034(18) 0.0126(19)
C4 0.070(3) 0.080(3) 0.043(2) 0.014(2) 0.0195(19) 0.009(2)
C5 0.077(3) 0.055(2) 0.0294(18) 0.0055(17) 0.0041(19) 0.014(2)
C6 0.077(3) 0.111(3) 0.052(2) 0.023(2) 0.014(2) 0.045(2)
C7 0.071(3) 0.117(3) 0.047(2) 0.023(2) 0.022(2) 0.028(2)
C8 0.072(3) 0.058(2) 0.0327(19) 0.0052(18) 0.0014(18) 0.017(2)
C9 0.093(3) 0.074(3) 0.051(2) -0.014(2) 0.005(2) -0.016(2)
C10 0.077(3) 0.084(3) 0.047(2) -0.013(2) 0.016(2) -0.031(2)
C11 0.047(2) 0.058(2) 0.0338(18) -0.0006(17) 0.0068(16) -0.0079(17)
C12 0.103(3) 0.051(2) 0.041(2) -0.0048(18) 0.016(2) -0.016(2)
C13 0.120(3) 0.050(2) 0.043(2) 0.0100(19) 0.024(2) -0.006(2)
C14 0.056(2) 0.065(2) 0.0342(19) -0.0051(18) 0.0065(18) -0.0085(19)
C15 0.065(2) 0.065(2) 0.051(2) 0.003(2) 0.004(2) -0.005(2)
C16 0.068(3) 0.068(3) 0.051(2) -0.001(2) -0.003(2) -0.011(2)
C17 0.120(4) 0.098(3) 0.064(3) 0.006(3) -0.003(3) -0.054(3)
C18 0.143(4) 0.133(4) 0.070(3) 0.018(3) -0.003(3) -0.078(4)
C19 0.118(4) 0.119(4) 0.054(3) 0.015(3) -0.002(3) -0.045(3)
C20 0.078(3) 0.079(3) 0.063(3) -0.005(2) 0.000(2) -0.014(2)
C21 0.072(3) 0.075(3) 0.055(2) 0.002(2) 0.006(2) -0.018(2)
C22 0.081(3) 0.097(3) 0.067(3) -0.001(2) 0.001(2) -0.035(2)
C23 0.069(3) 0.084(3) 0.071(3) 0.006(2) 0.014(2) -0.024(2)
C24 0.063(3) 0.084(3) 0.057(2) 0.000(2) 0.007(2) -0.018(2)
C25 0.069(3) 0.098(3) 0.057(2) 0.002(2) 0.005(2) -0.033(2)
C26 0.074(3) 0.096(3) 0.055(2) 0.008(2) 0.008(2) -0.031(2)
C27 0.060(2) 0.082(3) 0.059(2) 0.001(2) 0.009(2) -0.018(2)
C28 0.056(2) 0.069(2) 0.056(2) -0.005(2) 0.012(2) -0.017(2)
C29 0.058(2) 0.059(2) 0.045(2) 0.0003(18) 0.0020(18) -0.0105(18)
C30 0.088(3) 0.116(3) 0.046(2) -0.001(2) 0.006(2) -0.047(3)
C31 0.099(4) 0.163(5) 0.065(3) -0.016(3) 0.002(3) -0.076(3)
C32 0.079(3) 0.116(4) 0.079(3) -0.005(3) 0.007(3) -0.057(3)
N1 0.071(2) 0.073(2) 0.0425(17) 0.0034(16) 0.0027(16) -0.0115(16)
N2 0.0611(19) 0.073(2) 0.0431(17) -0.0046(15) 0.0032(15) -0.0206(16)
O1 0.0583(16) 0.0827(17) 0.0535(15) 0.0221(13) -0.0082(13) -0.0005(14)
O2 0.0589(15) 0.0767(16) 0.0393(13) 0.0113(12) 0.0066(12) -0.0038(13)
O3 0.123(2) 0.0748(16) 0.0280(13) 0.0036(12) 0.0069(14) 0.0383(16)
O4 0.100(2) 0.0974(19) 0.0532(16) -0.0257(14) 0.0380(15) -0.0428(17)
O5 0.0788(18) 0.0734(17) 0.0384(14) -0.0102(12) 0.0145(13) -0.0246(14)
O6 0.0834(19) 0.112(2) 0.0570(17) 0.0053(16) 0.0043(15) -0.0386(16)
O7 0.0721(18) 0.109(2) 0.0550(16) 0.0023(16) 0.0111(14) -0.0276(15)
O8 0.058(2) 0.0546(18) 0.0372(17) 0.000 0.0172(15) 0.000

_geom_special_details            
; 
 All esds (except the esd in the dihedral angle between two l.s. planes) 
 are estimated using the full covariance matrix.  The cell esds are taken 
 into account individually in the estimation of esds in distances, angles 
 and torsion angles; correlations between esds in cell parameters are only 
 used when they are defined by crystal symmetry.  An approximate (isotropic) 
 treatment of cell esds is used for estimating esds involving l.s. planes. 
;

loop_
_geom_bond_atom_site_label_1
_geom_bond_atom_site_label_2
_geom_bond_distance
_geom_bond_site_symmetry_2
_geom_bond_publ_flag
Mn1 O2 2.136(2) . ?
Mn1 O1 2.143(2) 2_655 ?
Mn1 O5 2.146(2) 6_566 ?
Mn1 N2 2.257(3) 6_566 ?
Mn1 O8 2.2689(16) . ?
Mn1 N1 2.299(3) . ?
C1 O1 1.244(4) . ?
C1 O2 1.250(4) . ?
C1 C2 1.503(4) . ?
C2 C3 1.368(4) . ?
C2 C7 1.382(4) . ?
C3 C4 1.393(4) . ?
C3 H3 0.9300 . ?
C4 C5 1.358(4) . ?
C4 H4 0.9300 . ?
C5 C6 1.348(4) . ?
C5 O3 1.381(3) . ?
C6 C7 1.386(4) . ?
C6 H6 0.9300 . ?
C7 H7 0.9300 . ?
C8 C13 1.347(4) . ?
C8 C9 1.378(4) . ?
C8 O3 1.393(3) . ?
C9 C10 1.395(4) . ?
C9 H9 0.9300 . ?
C10 C11 1.378(4) . ?
C10 H10 0.9300 . ?
C11 C12 1.366(4) . ?
C11 C14 1.503(4) . ?
C12 C13 1.393(4) . ?
C12 H12 0.9300 . ?
C13 H13 0.9300 . ?
C14 O5 1.242(3) . ?
C14 O4 1.262(4) . ?
C15 N1 1.340(4) . ?
C15 C16 1.394(4) . ?
C15 H15 0.9300 . ?
C16 C17 1.370(5) . ?
C16 C20 1.496(4) . ?
C17 C18 1.364(5) . ?
C17 H17 0.9300 . ?
C18 C19 1.399(5) . ?
C18 H18 0.9300 . ?
C19 N1 1.342(4) . ?
C19 H19 0.9300 . ?
C20 O6 1.427(4) . ?
C20 H20A 0.9700 . ?
C20 H20B 0.9700 . ?
C21 C22 1.363(5) . ?
C21 C26 1.364(4) . ?
C21 O6 1.386(4) . ?
C22 C23 1.379(5) . ?
C22 H22 0.9300 . ?
C23 C24 1.378(4) . ?
C23 H23 0.9300 . ?
C24 C25 1.347(4) . ?
C24 O7 1.395(4) . ?
C25 C26 1.379(4) . ?
C25 H25 0.9300 . ?
C26 H26 0.9300 . ?
C27 O7 1.417(4) . ?
C27 C28 1.491(4) . ?
C27 H27A 0.9700 . ?
C27 H27B 0.9700 . ?
C28 C29 1.377(4) . ?
C28 C32 1.381(4) . ?
C29 N2 1.340(4) . ?
C29 H29 0.9300 . ?
C30 N2 1.327(4) . ?
C30 C31 1.363(5) . ?
C30 H30 0.9300 . ?
C31 C32 1.371(5) . ?
C31 H31 0.9300 . ?
C32 H32 0.9300 . ?
N2 Mn1 2.257(3) 6_565 ?
O1 Mn1 2.143(2) 2_655 ?
O5 Mn1 2.146(2) 6_565 ?
O8 Mn1 2.2689(16) 2_655 ?
O8 H8A 0.8501 . ?

loop_
_geom_angle_atom_site_label_1
_geom_angle_atom_site_label_2
_geom_angle_atom_site_label_3
_geom_angle
_geom_angle_site_symmetry_1
_geom_angle_site_symmetry_3
_geom_angle_publ_flag
O2 Mn1 O1 96.21(9) . 2_655 ?
O2 Mn1 O5 178.40(9) . 6_566 ?
O1 Mn1 O5 84.16(9) 2_655 6_566 ?
O2 Mn1 N2 88.44(9) . 6_566 ?
O1 Mn1 N2 87.81(9) 2_655 6_566 ?
O5 Mn1 N2 90.02(9) 6_566 6_566 ?
O2 Mn1 O8 92.24(7) . . ?
O1 Mn1 O8 93.07(8) 2_655 . ?
O5 Mn1 O8 89.29(7) 6_566 . ?
N2 Mn1 O8 178.82(9) 6_566 . ?
O2 Mn1 N1 90.60(9) . . ?
O1 Mn1 N1 172.25(10) 2_655 . ?
O5 Mn1 N1 88.93(9) 6_566 . ?
N2 Mn1 N1 88.68(10) 6_566 . ?
O8 Mn1 N1 90.35(9) . . ?
O1 C1 O2 126.8(3) . . ?
O1 C1 C2 116.7(3) . . ?
O2 C1 C2 116.5(3) . . ?
C3 C2 C7 117.5(3) . . ?
C3 C2 C1 121.3(3) . . ?
C7 C2 C1 121.1(3) . . ?
C2 C3 C4 121.2(3) . . ?
C2 C3 H3 119.4 . . ?
C4 C3 H3 119.4 . . ?
C5 C4 C3 119.9(3) . . ?
C5 C4 H4 120.1 . . ?
C3 C4 H4 120.1 . . ?
C6 C5 C4 120.0(3) . . ?
C6 C5 O3 117.6(3) . . ?
C4 C5 O3 122.2(3) . . ?
C5 C6 C7 120.4(3) . . ?
C5 C6 H6 119.8 . . ?
C7 C6 H6 119.8 . . ?
C2 C7 C6 121.0(3) . . ?
C2 C7 H7 119.5 . . ?
C6 C7 H7 119.5 . . ?
C13 C8 C9 121.2(3) . . ?
C13 C8 O3 122.6(3) . . ?
C9 C8 O3 115.7(3) . . ?
C8 C9 C10 118.5(3) . . ?
C8 C9 H9 120.8 . . ?
C10 C9 H9 120.8 . . ?
C11 C10 C9 121.8(3) . . ?
C11 C10 H10 119.1 . . ?
C9 C10 H10 119.1 . . ?
C12 C11 C10 117.0(3) . . ?
C12 C11 C14 121.9(3) . . ?
C10 C11 C14 121.1(3) . . ?
C11 C12 C13 122.7(3) . . ?
C11 C12 H12 118.6 . . ?
C13 C12 H12 118.6 . . ?
C8 C13 C12 118.7(3) . . ?
C8 C13 H13 120.6 . . ?
C12 C13 H13 120.6 . . ?
O5 C14 O4 125.1(3) . . ?
O5 C14 C11 117.5(3) . . ?
O4 C14 C11 117.3(3) . . ?
N1 C15 C16 123.8(3) . . ?
