####################################################################### 
# 
# This file contains crystal structure data downloaded from the 
# Cambridge Structural Database (CSD) hosted by the Cambridge 
# Crystallographic Data Centre (CCDC).
# 
# Full information about CCDC data access policies and citation 
# guidelines are available at http://www.ccdc.cam.ac.uk/access/V1 
# 
# Audit and citation data items may have been added by the CCDC. 
# Please retain this information to preserve the provenance of 
# this file and to allow appropriate attribution of the data. 
# 
#######################################################################

data_1a-rm
_audit_block_doi                 10.5517/cczyvh7
_database_code_depnum_ccdc_archive 'CCDC 922420'
loop_
_citation_id
_citation_doi
_citation_year
1 10.1002/chem.201303991 2014
_audit_update_record             
;
2013-01-30 deposited with the CCDC.	2024-07-14 downloaded from the CCDC.
;
#TrackingRef 'cifs.cif'


_audit_creation_method           SHELXL-97
_chemical_name_systematic        
;
?
;
_chemical_name_common            ?
_chemical_melting_point          ?
_chemical_formula_moiety         ?
_chemical_formula_sum            'C24 H16 Cu4 N20'
_chemical_formula_weight         838.73

loop_
_atom_type_symbol
_atom_type_description
_atom_type_scat_dispersion_real
_atom_type_scat_dispersion_imag
_atom_type_scat_source
C C 0.0033 0.0016 'International Tables Vol C Tables 4.2.6.8 and 6.1.1.4'
H H 0.0000 0.0000 'International Tables Vol C Tables 4.2.6.8 and 6.1.1.4'
Cu Cu 0.3201 1.2651 'International Tables Vol C Tables 4.2.6.8 and 6.1.1.4'
N N 0.0061 0.0033 'International Tables Vol C Tables 4.2.6.8 and 6.1.1.4'

_symmetry_cell_setting           triclinic
_symmetry_space_group_name_H-M   P-1

loop_
_symmetry_equiv_pos_as_xyz
'x, y, z'
'-x, -y, -z'

_cell_length_a                   7.1544(6)
_cell_length_b                   15.3457(11)
_cell_length_c                   16.4009(13)
_cell_angle_alpha                93.540(6)
_cell_angle_beta                 102.074(7)
_cell_angle_gamma                95.765(6)
_cell_volume                     1745.6(2)
_cell_formula_units_Z            2
_cell_measurement_temperature    293(2)
_cell_measurement_reflns_used    1804
_cell_measurement_theta_min      2.8605
_cell_measurement_theta_max      28.1590

_exptl_crystal_description       block
_exptl_crystal_colour            light-yellow
_exptl_crystal_size_max          0.20
_exptl_crystal_size_mid          0.15
_exptl_crystal_size_min          0.13
_exptl_crystal_density_meas      ?
_exptl_crystal_density_diffrn    1.596
_exptl_crystal_density_method    'not measured'
_exptl_crystal_F_000             832
_exptl_absorpt_coefficient_mu    2.452
_exptl_absorpt_correction_type   multi-scan
_exptl_absorpt_correction_T_min  0.6398
_exptl_absorpt_correction_T_max  0.7411
_exptl_absorpt_process_details   
;
CrysAlisPro, Agilent Technologies,
Version 1.171.35.21 (release 20-01-2012 CrysAlis171 .NET)
(compiled Jan 23 2012,18:06:46)
Empirical absorption correction using spherical harmonics,
implemented in SCALE3 ABSPACK scaling algorithm.
;

_exptl_special_details           
;
Large voids within the structure are filled with ill defined solvate molecules
(ethanol and DMF)and no suitable model for these molecules could be deduced. The
electron density within the voids was thus instead corrected for using the
Squeeze algorithm implemented in Platon (see Squeeze report appended to this
cif file).
;

_diffrn_ambient_temperature      293(2)
_diffrn_radiation_wavelength     0.71073
_diffrn_radiation_type           MoK\a
_diffrn_radiation_source         "Enhance (Mo) X-ray Source'"
_diffrn_radiation_monochromator  graphite
_diffrn_measurement_device_type  'Xcalibur, Atlas, Gemini'
_diffrn_measurement_method       'phi and omega scans'
_diffrn_detector_area_resol_mean 10.4098
_diffrn_standards_number         ?
_diffrn_standards_interval_count ?
_diffrn_standards_interval_time  ?
_diffrn_standards_decay_%        ?
_diffrn_reflns_number            10773
_diffrn_reflns_av_R_equivalents  0.0445
_diffrn_reflns_av_sigmaI/netI    0.0986
_diffrn_reflns_limit_h_min       -8
_diffrn_reflns_limit_h_max       7
_diffrn_reflns_limit_k_min       -13
_diffrn_reflns_limit_k_max       18
_diffrn_reflns_limit_l_min       -19
_diffrn_reflns_limit_l_max       18
_diffrn_reflns_theta_min         2.87
_diffrn_reflns_theta_max         25.00
_reflns_number_total             6060
_reflns_number_gt                3278
_reflns_threshold_expression     >2sigma(I)

_computing_data_collection       
;
CrysAlisPro, Agilent Technologies,
Version 1.171.35.21 (release 20-01-2012 CrysAlis171 .NET)
(compiled Jan 23 2012,18:06:46)
;
_computing_cell_refinement       
;
CrysAlisPro, Agilent Technologies,
Version 1.171.35.21 (release 20-01-2012 CrysAlis171 .NET)
(compiled Jan 23 2012,18:06:46)
;
_computing_data_reduction        
;
CrysAlisPro, Agilent Technologies,
Version 1.171.35.21 (release 20-01-2012 CrysAlis171 .NET)
(compiled Jan 23 2012,18:06:46)
;
_computing_structure_solution    'SHELXS-97 (Sheldrick, 1990)'
_computing_structure_refinement  'SHELXL-97 (Sheldrick, 1997)'
_computing_molecular_graphics    Olex-2
_computing_publication_material  Olex-2

_refine_special_details          
;
Refinement of F^2^ against ALL reflections. The weighted R-factor wR and
goodness of fit S are based on F^2^, conventional R-factors R are based
on F, with F set to zero for negative F^2^. The threshold expression of
F^2^ > 2sigma(F^2^) is used only for calculating R-factors(gt) etc. and is
not relevant to the choice of reflections for refinement. R-factors based
on F^2^ are statistically about twice as large as those based on F, and R-
factors based on ALL data will be even larger.
;

_refine_ls_structure_factor_coef Fsqd
_refine_ls_matrix_type           full
_refine_ls_weighting_scheme      calc
_refine_ls_weighting_details     
'calc w=1/[\s^2^(Fo^2^)+(0.0566P)^2^+0.0000P] where P=(Fo^2^+2Fc^2^)/3'
_atom_sites_solution_primary     direct
_atom_sites_solution_secondary   difmap
_atom_sites_solution_hydrogens   geom
_refine_ls_hydrogen_treatment    constr
_refine_ls_extinction_method     none
_refine_ls_extinction_coef       ?
_refine_ls_number_reflns         6060
_refine_ls_number_parameters     433
_refine_ls_number_restraints     0
_refine_ls_R_factor_all          0.1248
_refine_ls_R_factor_gt           0.0628
_refine_ls_wR_factor_ref         0.1670
_refine_ls_wR_factor_gt          0.1502
_refine_ls_goodness_of_fit_ref   1.114
_refine_ls_restrained_S_all      1.114
_refine_ls_shift/su_max          0.000
_refine_ls_shift/su_mean         0.000

loop_
_atom_site_label
_atom_site_type_symbol
_atom_site_fract_x
_atom_site_fract_y
_atom_site_fract_z
_atom_site_U_iso_or_equiv
_atom_site_adp_type
_atom_site_occupancy
_atom_site_symmetry_multiplicity
_atom_site_calc_flag
_atom_site_refinement_flags
_atom_site_disorder_assembly
_atom_site_disorder_group
Cu1 Cu 0.58539(14) 0.64370(7) 0.20469(6) 0.0402(3) Uani 1 1 d . . .
Cu2 Cu 0.88804(14) 0.78522(7) 0.34585(6) 0.0401(3) Uani 1 1 d . . .
Cu3 Cu 0.75039(15) 1.13908(7) -0.15521(6) 0.0434(3) Uani 1 1 d . . .
Cu4 Cu 0.73888(14) 0.28624(7) 0.70349(5) 0.0385(3) Uani 1 1 d . . .
N7 N 0.6267(9) 0.7970(4) 0.1029(4) 0.0327(16) Uani 1 1 d . . .
N1 N -0.1061(9) 0.3147(5) -0.1837(4) 0.0388(17) Uani 1 1 d . . .
N4 N -0.1079(8) 0.2586(4) -0.1255(4) 0.0346(16) Uani 1 1 d . . .
N6 N 0.6678(8) 0.7614(4) 0.1768(4) 0.0341(16) Uani 1 1 d . . .
N12 N 1.5884(9) 1.1712(4) 0.6753(4) 0.0344(16) Uani 1 1 d . . .
N13 N 1.6043(8) 1.1097(4) 0.7294(4) 0.0332(16) Uani 1 1 d . . .
N9 N 0.7951(9) 0.8165(4) 0.2307(4) 0.0347(17) Uani 1 1 d . . .
N19 N 0.6807(9) 0.6104(4) 0.3173(4) 0.0371(17) Uani 1 1 d . . .
N16 N 0.7907(9) 0.6693(4) 0.3751(4) 0.0368(17) Uani 1 1 d . . .
N14 N 1.4998(9) 1.0334(4) 0.6940(4) 0.0368(17) Uani 1 1 d . . .
N18 N 0.6458(9) 0.5350(5) 0.3511(4) 0.0372(17) Uani 1 1 d . . .
N5 N 0.4205(8) 0.5584(4) 0.1173(4) 0.0332(16) Uani 1 1 d . . .
N15 N 1.0670(9) 0.8687(4) 0.4289(4) 0.0353(16) Uani 1 1 d . . .
C8 C 0.7370(11) 0.9340(5) 0.0517(5) 0.034(2) Uani 1 1 d . . .
C20 C 0.7379(10) 0.4870(5) 0.4938(5) 0.0294(19) Uani 1 1 d . . .
C22 C 0.8318(12) 0.4498(6) 0.6347(5) 0.044(2) Uani 1 1 d . . .
H22 H 0.8982 0.4658 0.6895 0.052 Uiso 1 1 calc R . .
N3 N 0.0014(9) 0.2919(5) -0.0514(4) 0.0394(17) Uani 1 1 d . . .
N8 N 0.8418(9) 0.8899(4) 0.1948(4) 0.0389(17) Uani 1 1 d . . .
N11 N 1.4716(8) 1.1367(4) 0.6032(4) 0.0319(16) Uani 1 1 d . . .
C2 C 0.1940(10) 0.4360(5) -0.0056(5) 0.036(2) Uani 1 1 d . . .
N10 N 0.7459(9) 1.0535(4) -0.0700(4) 0.0366(17) Uani 1 1 d . . .
C14 C 1.3003(10) 0.9906(5) 0.5525(5) 0.0302(18) Uani 1 1 d . . .
N2 N 0.0077(9) 0.3884(4) -0.1485(4) 0.0363(17) Uani 1 1 d . . .
C17 C 1.1314(10) 0.8446(5) 0.5080(4) 0.037(2) Uani 1 1 d . . .
H17 H 1.0966 0.7877 0.5204 0.044 Uiso 1 1 calc R . .
C4 C 0.3605(10) 0.5793(6) 0.0398(5) 0.0336(19) Uani 1 1 d . . .
H4 H 0.3962 0.6360 0.0272 0.040 Uiso 1 1 calc R . .
N20 N 0.7383(8) 0.3681(4) 0.6162(4) 0.0330(16) Uani 1 1 d . . .
C12 C 0.8330(11) 1.0198(5) 0.0721(5) 0.034(2) Uani 1 1 d . . .
H12 H 0.8945 1.0378 0.1272 0.041 Uiso 1 1 calc R . .
C9 C 0.6476(11) 0.9127(5) -0.0300(5) 0.036(2) Uani 1 1 d . . .
H9 H 0.5819 0.8569 -0.0465 0.043 Uiso 1 1 calc R . .
C7 C 0.7320(10) 0.8740(5) 0.1159(4) 0.0271(18) Uani 1 1 d . . .
C11 C 0.8363(11) 1.0770(6) 0.0109(5) 0.039(2) Uani 1 1 d . . .
H11 H 0.9019 1.1331 0.0253 0.047 Uiso 1 1 calc R . .
C1 C 0.0680(10) 0.3737(5) -0.0685(5) 0.0292(18) Uani 1 1 d . . .
C19 C 0.7365(11) 0.5510(5) 0.4307(5) 0.0312(19) Uani 1 1 d . . .
C18 C 1.2505(10) 0.9049(6) 0.5712(5) 0.038(2) Uani 1 1 d . . .
H18 H 1.2949 0.8876 0.6245 0.046 Uiso 1 1 calc R . .
C6 C 0.2577(10) 0.4147(5) 0.0769(5) 0.039(2) Uani 1 1 d . . .
H6 H 0.2243 0.3585 0.0914 0.046 Uiso 1 1 calc R . .
C13 C 1.4231(9) 1.0543(5) 0.6159(4) 0.0260(17) Uani 1 1 d . . .
C23 C 0.6461(11) 0.3469(5) 0.5368(5) 0.035(2) Uani 1 1 d . . .
H23 H 0.5804 0.2908 0.5226 0.042 Uiso 1 1 calc R . .
C21 C 0.8342(11) 0.5106(6) 0.5769(5) 0.041(2) Uani 1 1 d . . .
H21 H 0.8991 0.5667 0.5927 0.049 Uiso 1 1 calc R . .
C15 C 1.2350(11) 1.0117(5) 0.4724(5) 0.035(2) Uani 1 1 d . . .
H15 H 1.2676 1.0678 0.4575 0.042 Uiso 1 1 calc R . .
C10 C 0.6537(10) 0.9735(6) -0.0887(5) 0.039(2) Uani 1 1 d . . .
H10 H 0.5899 0.9572 -0.1438 0.047 Uiso 1 1 calc R . .
C5 C 0.3681(11) 0.4756(6) 0.1359(5) 0.043(2) Uani 1 1 d . . .
H5 H 0.4086 0.4602 0.1901 0.051 Uiso 1 1 calc R . .
C3 C 0.2486(10) 0.5216(5) -0.0226(5) 0.034(2) Uani 1 1 d . . .
H3 H 0.2091 0.5395 -0.0760 0.041 Uiso 1 1 calc R . .
C24 C 0.6427(11) 0.4035(6) 0.4748(5) 0.042(2) Uani 1 1 d . . .
H24 H 0.5765 0.3854 0.4203 0.051 Uiso 1 1 calc R . .
C16 C 1.1202(11) 0.9493(5) 0.4136(5) 0.036(2) Uani 1 1 d . . .
H16 H 1.0780 0.9656 0.3597 0.043 Uiso 1 1 calc R . .
N17 N 0.8280(9) 0.6342(5) 0.4486(4) 0.0371(17) Uani 1 1 d . . .

loop_
_atom_site_aniso_label
_atom_site_aniso_U_11
_atom_site_aniso_U_22
_atom_site_aniso_U_33
_atom_site_aniso_U_23
_atom_site_aniso_U_13
_atom_site_aniso_U_12
Cu1 0.0527(7) 0.0304(7) 0.0280(6) 0.0057(5) -0.0060(5) -0.0112(5)
Cu2 0.0527(7) 0.0293(7) 0.0286(6) 0.0067(5) -0.0072(5) -0.0102(5)
Cu3 0.0595(7) 0.0322(7) 0.0292(6) 0.0112(5) -0.0063(5) -0.0105(5)
Cu4 0.0525(7) 0.0286(6) 0.0275(6) 0.0090(5) -0.0024(5) -0.0086(5)
N7 0.040(4) 0.024(4) 0.031(4) 0.011(3) 0.004(3) -0.004(3)
N1 0.054(4) 0.040(5) 0.018(3) 0.012(3) 0.000(3) -0.004(4)
N4 0.035(4) 0.029(4) 0.031(4) 0.000(3) -0.005(3) -0.010(3)
N6 0.039(4) 0.029(4) 0.027(4) 0.007(3) -0.004(3) -0.006(3)
N12 0.050(4) 0.024(4) 0.025(4) 0.012(3) -0.005(3) 0.002(3)
N13 0.040(4) 0.023(4) 0.028(4) 0.000(3) -0.001(3) -0.013(3)
N9 0.047(4) 0.024(4) 0.029(4) 0.007(3) 0.003(3) -0.008(3)
N19 0.052(4) 0.026(4) 0.023(4) 0.009(3) -0.007(3) -0.015(3)
N16 0.044(4) 0.032(5) 0.030(4) 0.013(3) 0.000(3) -0.001(3)
N14 0.042(4) 0.032(4) 0.029(4) 0.001(3) -0.001(3) -0.010(3)
N18 0.045(4) 0.040(5) 0.023(4) 0.010(3) 0.000(3) -0.003(3)
N5 0.040(4) 0.022(4) 0.030(4) -0.001(3) -0.001(3) -0.011(3)
N15 0.040(4) 0.031(5) 0.030(4) 0.010(3) -0.001(3) -0.003(3)
C8 0.039(5) 0.033(5) 0.026(5) 0.009(4) -0.001(4) 0.003(4)
C20 0.031(4) 0.024(5) 0.036(5) 0.016(4) 0.010(4) 0.003(4)
C22 0.055(6) 0.043(6) 0.032(5) 0.020(4) 0.004(4) 0.005(5)
N3 0.045(4) 0.035(5) 0.031(4) -0.005(3) -0.001(3) -0.009(3)
N8 0.050(4) 0.026(4) 0.039(4) 0.016(3) 0.007(3) -0.006(3)
N11 0.039(4) 0.021(4) 0.031(4) 0.002(3) 0.000(3) -0.008(3)
C2 0.035(4) 0.035(5) 0.034(5) 0.005(4) 0.004(4) -0.003(4)
N10 0.042(4) 0.028(4) 0.037(4) 0.009(3) 0.003(3) -0.004(3)
C14 0.027(4) 0.024(5) 0.035(5) -0.003(4) -0.002(3) 0.003(3)
N2 0.045(4) 0.027(4) 0.028(4) -0.003(3) -0.004(3) -0.011(3)
C17 0.043(5) 0.028(5) 0.028(5) -0.002(4) -0.006(4) -0.014(4)
C4 0.038(5) 0.034(5) 0.027(5) 0.006(4) 0.003(4) 0.002(4)
N20 0.035(4) 0.032(4) 0.031(4) 0.014(3) 0.002(3) 0.001(3)
C12 0.043(5) 0.032(5) 0.023(4) 0.003(4) 0.002(4) -0.001(4)
C9 0.040(5) 0.029(5) 0.033(5) 0.000(4) 0.002(4) -0.008(4)
C7 0.026(4) 0.031(5) 0.021(4) 0.006(3) -0.006(3) 0.006(4)
C11 0.044(5) 0.036(6) 0.033(5) 0.012(4) -0.001(4) -0.003(4)
C1 0.027(4) 0.024(5) 0.030(5) -0.006(4) -0.002(3) -0.005(4)
C19 0.040(5) 0.024(5) 0.034(5) 0.017(4) 0.010(4) 0.007(4)
C18 0.038(5) 0.042(6) 0.029(5) 0.008(4) -0.003(4) -0.003(4)
C6 0.041(5) 0.033(5) 0.037(5) 0.007(4) 0.003(4) -0.012(4)
C13 0.024(4) 0.020(5) 0.031(4) 0.000(3) 0.003(3) -0.004(3)
C23 0.049(5) 0.019(5) 0.033(5) 0.007(4) 0.000(4) -0.004(4)
C21 0.053(5) 0.027(5) 0.036(5) 0.006(4) -0.003(4) -0.006(4)
C15 0.046(5) 0.024(5) 0.033(5) 0.005(4) 0.006(4) -0.005(4)
C10 0.037(5) 0.044(6) 0.024(4) 0.008(4) -0.011(3) -0.015(4)
C5 0.050(5) 0.039(6) 0.030(5) 0.000(4) -0.005(4) -0.006(4)
C3 0.038(5) 0.032(5) 0.030(5) 0.014(4) 0.003(4) 0.001(4)
C24 0.046(5) 0.040(6) 0.037(5) 0.011(4) 0.001(4) -0.004(4)
C16 0.045(5) 0.038(6) 0.025(4) 0.009(4) 0.012(4) -0.005(4)
N17 0.049(4) 0.029(5) 0.033(4) 0.019(3) 0.002(3) 0.009(3)

_geom_special_details            
;
All esds (except the esd in the dihedral angle between two l.s. planes)
are estimated using the full covariance matrix. The cell esds are taken
into account individually in the estimation of esds in distances, angles
and torsion angles; correlations between esds in cell parameters are only
used when they are defined by crystal symmetry. An approximate (isotropic)
treatment of cell esds is used for estimating esds involving l.s. planes.
;

loop_
_geom_bond_atom_site_label_1
_geom_bond_atom_site_label_2
_geom_bond_distance
_geom_bond_site_symmetry_2
_geom_bond_publ_flag
Cu1 N19 1.949(6) . ?
Cu1 N6 1.955(6) . ?
Cu1 N5 1.977(6) . ?
Cu2 N15 1.965(6) . ?
Cu2 N16 1.969(6) . ?
Cu2 N9 1.973(6) . ?
Cu3 N13 1.962(6) 1_454 ?
Cu3 N10 1.979(6) . ?
Cu3 N4 1.985(6) 1_665 ?
Cu4 N1 1.947(6) 1_656 ?
Cu4 N12 1.949(6) 1_445 ?
Cu4 N20 1.961(6) . ?
N7 C7 1.317(9) . ?
N7 N6 1.349(8) . ?
N1 N4 1.324(8) . ?
N1 N2 1.346(8) . ?
N1 Cu4 1.947(6) 1_454 ?
N4 N3 1.340(8) . ?
N4 Cu3 1.985(6) 1_445 ?
N6 N9 1.319(8) . ?
N12 N13 1.332(8) . ?
N12 N11 1.341(8) . ?
N12 Cu4 1.949(6) 1_665 ?
N13 N14 1.351(8) . ?
N13 Cu3 1.962(6) 1_656 ?
N9 N8 1.348(8) . ?
N19 N16 1.332(8) . ?
N19 N18 1.337(8) . ?
N16 N17 1.337(8) . ?
N14 C13 1.356(9) . ?
N18 C19 1.326(10) . ?
N5 C4 1.324(9) . ?
N5 C5 1.359(10) . ?
N15 C16 1.312(9) . ?
N15 C17 1.369(9) . ?
C8 C9 1.363(10) . ?
C8 C12 1.408(11) . ?
C8 C7 1.445(10) . ?
C20 C24 1.375(11) . ?
C20 C21 1.399(10) . ?
C20 C19 1.469(9) . ?
C22 N20 1.346(10) . ?
C22 C21 1.373(11) . ?
C22 H22 0.9300 . ?
N3 C1 1.365(9) . ?
N8 C7 1.359(9) . ?
N11 C13 1.317(9) . ?
C2 C3 1.394(11) . ?
C2 C6 1.404(10) . ?
C2 C1 1.452(10) . ?
N10 C10 1.319(10) . ?
N10 C11 1.358(10) . ?
C14 C15 1.369(10) . ?
C14 C18 1.397(11) . ?
C14 C13 1.459(10) . ?
N2 C1 1.333(9) . ?
C17 C18 1.418(10) . ?
C17 H17 0.9300 . ?
C4 C3 1.370(10) . ?
C4 H4 0.9300 . ?
N20 C23 1.335(9) . ?
C12 C11 1.377(10) . ?
C12 H12 0.9300 . ?
C9 C10 1.385(11) . ?
C9 H9 0.9300 . ?
C11 H11 0.9300 . ?
C19 N17 1.361(10) . ?
C18 H18 0.9300 . ?
C6 C5 1.361(10) . ?
C6 H6 0.9300 . ?
C23 C24 1.376(11) . ?
C23 H23 0.9300 . ?
C21 H21 0.9300 . ?
C15 C16 1.385(10) . ?
C15 H15 0.9300 . ?
C10 H10 0.9300 . ?
C5 H5 0.9300 . ?
C3 H3 0.9300 . ?
C24 H24 0.9300 . ?
C16 H16 0.9300 . ?

loop_
_geom_angle_atom_site_label_1
_geom_angle_atom_site_label_2
_geom_angle_atom_site_label_3
_geom_angle
_geom_angle_site_symmetry_1
_geom_angle_site_symmetry_3
_geom_angle_publ_flag
N19 Cu1 N6 118.9(3) . . ?
N19 Cu1 N5 121.1(3) . . ?
N6 Cu1 N5 119.9(3) . . ?
N15 Cu2 N16 121.4(3) . . ?
N15 Cu2 N9 120.7(3) . . ?
N16 Cu2 N9 117.8(3) . . ?
N13 Cu3 N10 120.7(3) 1_454 . ?
N13 Cu3 N4 118.1(3) 1_454 1_665 ?
N10 Cu3 N4 121.2(3) . 1_665 ?
N1 Cu4 N12 119.0(3) 1_656 1_445 ?
N1 Cu4 N20 121.9(3) 1_656 . ?
N12 Cu4 N20 119.1(3) 1_445 . ?
C7 N7 N6 104.5(6) . . ?
N4 N1 N2 108.2(6) . . ?
N4 N1 Cu4 121.0(5) . 1_454 ?
N2 N1 Cu4 130.7(5) . 1_454 ?
N1 N4 N3 111.9(6) . . ?
N1 N4 Cu3 120.1(5) . 1_445 ?
N3 N4 Cu3 127.9(5) . 1_445 ?
N9 N6 N7 109.2(6) . . ?
N9 N6 Cu1 121.5(5) . . ?
N7 N6 Cu1 129.0(5) . . ?
N13 N12 N11 108.8(6) . . ?
N13 N12 Cu4 120.8(5) . 1_665 ?
N11 N12 Cu4 130.2(5) . 1_665 ?
N12 N13 N14 110.5(6) . . ?
N12 N13 Cu3 120.2(5) . 1_656 ?
N14 N13 Cu3 129.2(5) . 1_656 ?
N6 N9 N8 110.6(6) . . ?
N6 N9 Cu2 120.0(5) . . ?
N8 N9 Cu2 129.5(5) . . ?
N16 N19 N18 109.9(6) . . ?
N16 N19 Cu1 119.9(5) . . ?
N18 N19 Cu1 130.1(5) . . ?
N19 N16 N17 109.6(6) . . ?
N19 N16 Cu2 121.2(5) . . ?
N17 N16 Cu2 129.0(5) . . ?
N13 N14 C13 102.3(6) . . ?
C19 N18 N19 104.3(6) . . ?
C4 N5 C5 118.4(6) . . ?
C4 N5 Cu1 121.6(5) . . ?
C5 N5 Cu1 120.1(5) . . ?
C16 N15 C17 117.7(6) . . ?
C16 N15 Cu2 122.8(5) . . ?
C17 N15 Cu2 119.4(5) . . ?
C9 C