####################################################################### 
# 
# This file contains crystal structure data downloaded from the 
# Cambridge Structural Database (CSD) hosted by the Cambridge 
# Crystallographic Data Centre (CCDC).
# 
# Full information about CCDC data access policies and citation 
# guidelines are available at http://www.ccdc.cam.ac.uk/access/V1 
# 
# Audit and citation data items may have been added by the CCDC. 
# Please retain this information to preserve the provenance of 
# this file and to allow appropriate attribution of the data. 
# 
#######################################################################

data_1_sq_d
_audit_block_doi                 10.5517/cc119d2t
_database_code_depnum_ccdc_archive 'CCDC 962335'
loop_
_citation_id
_citation_doi
_citation_year
1 10.1039/C3QI00042G 2014
_audit_update_record             
;
2013-09-20 deposited with the CCDC.	2024-07-14 downloaded from the CCDC.
;
_audit_creation_date             2013-09-20
_audit_creation_method           
;
Olex2 1.2
(compiled 2013.09.17 svn.r2790 for OlexSys, GUI svn.r4601)
;
_chemical_name_common            ?
_chemical_name_systematic        
;
 ? 
;
_chemical_formula_moiety         'C126 H72 N42 O27 Zn9, C3 H7 N O'
_chemical_formula_sum            'C129 H79 N43 O28 Zn9'
_chemical_formula_weight         3267.68
_chemical_melting_point          ?
loop_
_atom_type_symbol
_atom_type_description
_atom_type_scat_dispersion_real
_atom_type_scat_dispersion_imag
_atom_type_scat_source
C C 0.0033 0.0016 'International Tables Vol C Tables 4.2.6.8 and 6.1.1.4'
H H 0.0000 0.0000 'International Tables Vol C Tables 4.2.6.8 and 6.1.1.4'
N N 0.0061 0.0033 'International Tables Vol C Tables 4.2.6.8 and 6.1.1.4'
O O 0.0106 0.0060 'International Tables Vol C Tables 4.2.6.8 and 6.1.1.4'
Zn Zn 0.2839 1.4301 'International Tables Vol C Tables 4.2.6.8 and 6.1.1.4'

_space_group_crystal_system      triclinic
_space_group_IT_number           2
_space_group_name_H-M_alt        'P -1'
_space_group_name_Hall           '-P 1'
loop_
_space_group_symop_id
_space_group_symop_operation_xyz
1 'x, y, z'
2 '-x, -y, -z'

_cell_length_a                   19.801(7)
_cell_length_b                   20.162(7)
_cell_length_c                   27.225(9)
_cell_angle_alpha                97.544(5)
_cell_angle_beta                 100.609(5)
_cell_angle_gamma                111.627(5)
_cell_volume                     9692(6)
_cell_formula_units_Z            2
_cell_measurement_reflns_used    6426
_cell_measurement_temperature    110(2)
_cell_measurement_theta_max      18.5137
_cell_measurement_theta_min      2.2195
_exptl_absorpt_coefficient_mu    1.156
_exptl_absorpt_correction_T_max  0.8017
_exptl_absorpt_correction_T_min  0.8017
_exptl_absorpt_correction_type   multi-scan
_exptl_absorpt_process_details   ?
_exptl_crystal_colour            colorless
_exptl_crystal_density_diffrn    1.120
_exptl_crystal_density_meas      'not measured'
_exptl_crystal_density_method    'not measured'
_exptl_crystal_description       block
_exptl_crystal_F_000             3296
_exptl_crystal_size_max          0.2
_exptl_crystal_size_mid          0.2
_exptl_crystal_size_min          0.2
_exptl_special_details           
;
 ? 
;
_diffrn_reflns_av_R_equivalents  0.0615
_diffrn_reflns_av_unetI/netI     0.0985
_diffrn_reflns_limit_h_max       21
_diffrn_reflns_limit_h_min       -21
_diffrn_reflns_limit_k_max       21
_diffrn_reflns_limit_k_min       -21
_diffrn_reflns_limit_l_max       29
_diffrn_reflns_limit_l_min       -27
_diffrn_reflns_number            56718
_diffrn_reflns_theta_full        22.62
_diffrn_reflns_theta_max         22.62
_diffrn_reflns_theta_min         1.14
_diffrn_ambient_temperature      110.15
_diffrn_detector_area_resol_mean ?
_diffrn_measured_fraction_theta_full 0.991
_diffrn_measured_fraction_theta_max 0.991
_diffrn_measurement_device_type  'Bruker SMART APEX II CCD area detector'
_diffrn_measurement_method       'phi and omega scans'
_diffrn_radiation_monochromator  graphite
_diffrn_radiation_type           MoK\a
_diffrn_radiation_wavelength     0.71073
_diffrn_source                   'fine-focus sealed tube'
_reflns_number_gt                14669
_reflns_number_total             25509
_reflns_threshold_expression     >2sigma(I)
_computing_cell_refinement       ?
_computing_data_collection       ?
_computing_data_reduction        'SAINT v7.68A (Bruker, 2009)'
_computing_molecular_graphics    
;
O. V. Dolomanov, L. J. Bourhis, R. J. Gildea, J. A. K. Howard and H. Puschmann,
OLEX2: a complete structure solution, refinement and analysis program.
J. Appl. Cryst. (2009). 42, 339-341.
;
_computing_publication_material  
;
O. V. Dolomanov, L. J. Bourhis, R. J. Gildea, J. A. K. Howard and H. Puschmann,
OLEX2: a complete structure solution, refinement and analysis program.
J. Appl. Cryst. (2009). 42, 339-341.
;
_computing_structure_refinement  
;
SHELX, G.M. Sheldrick, Acta Cryst.
(2008). A64, 112-122
;
_computing_structure_solution    
;
SHELX, G.M. Sheldrick, Acta Cryst.
(2008). A64, 112-122
;
_refine_diff_density_max         1.435
_refine_diff_density_min         -0.438
_refine_diff_density_rms         0.075
_refine_ls_extinction_coef       ?
_refine_ls_extinction_method     none
_refine_ls_goodness_of_fit_ref   1.003
_refine_ls_hydrogen_treatment    constr
_refine_ls_matrix_type           full
_refine_ls_number_parameters     1882
_refine_ls_number_reflns         25509
_refine_ls_number_restraints     0
_refine_ls_R_factor_all          0.0836
_refine_ls_R_factor_gt           0.0492
_refine_ls_restrained_S_all      1.003
_refine_ls_shift/su_max          0.002
_refine_ls_shift/su_mean         0.000
_refine_ls_structure_factor_coef Fsqd
_refine_ls_weighting_details     
'calc w=1/[\s^2^(Fo^2^)+(0.0420P)^2^+0.1000P] where P=(Fo^2^+2Fc^2^)/3'
_refine_ls_weighting_scheme      calc
_refine_ls_wR_factor_gt          0.1221
_refine_ls_wR_factor_ref         0.1321
_refine_special_details          
;
 Refinement of F^2^ against ALL reflections.  The weighted R-factor wR and 
 goodness of fit S are based on F^2^, conventional R-factors R are based 
 on F, with F set to zero for negative F^2^. The threshold expression of 
 F^2^ > 2sigma(F^2^) is used only for calculating R-factors(gt) etc. and is 
 not relevant to the choice of reflections for refinement.  R-factors based 
 on F^2^ are statistically about twice as large as those based on F, and R- 
 factors based on ALL data will be even larger. 
;
_olex2_refinement_description    
;
1. Fixed Uiso
 At 1.2 times of:
  All C(H) groups, All N(H,H) groups
 At 1.5 times of:
  All C(H,H,H) groups
2.a Me refined with riding coordinates:
 C2S(H2SA,H2SB,H2SC), C3S(H3SA,H3SB,H3SC)
2.b Aromatic/amide H refined with riding coordinates:
 C3(H3), C4(H4), C6(H6), C7(H7), C12(H12), C15(H15), C16(H16), C19(H19),
 C20(H20), C22(H22), C23(H23), C27(H27), C28(H28), C30(H30), C31(H31), C36(H36),
  C37(H37), C39(H39), C40(H40), C43(H43), C44(H44), C46(H46), C47(H47),
 C51(H51), C52(H52), C54(H54), C55(H55), C60(H60), C61(H61), C63(H63), C64(H64),
  C67(H67), C68(H68), C70(H70), C71(H71), C75(H75), C76(H76), C78(H78),
 C79(H79), C84(H84), C85(H85), C87(H87), C88(H88), C91(H91), C92(H92), C94(H94),
  C95(H95), C100(H100), C103(H103), C105(H105), C109(H109), C110(H110),
 C114(H114), C115(H115), C118(H118), C120(H120), C124(H124), C125(H125),
 C127(H127), C13(H13), C1S(H1S)
2.c X=CH2 refined with riding coordinates:
 N104(H10A,H10B), N109(H10C,H10D), N114(H11A,H11B), N119(H11C,H11D), N124(H12A,
 H12B), N125(H12C,H12D)
;
_atom_sites_solution_hydrogens   geom
_atom_sites_solution_primary     direct
_atom_sites_solution_secondary   difmap
loop_
_atom_site_label
_atom_site_type_symbol
_atom_site_fract_x
_atom_site_fract_y
_atom_site_fract_z
_atom_site_U_iso_or_equiv
_atom_site_adp_type
_atom_site_occupancy
_atom_site_symmetry_multiplicity
_atom_site_calc_flag
_atom_site_refinement_flags
_atom_site_disorder_assembly
_atom_site_disorder_group
Zn1 Zn 0.55489(4) 0.26488(4) 0.88037(3) 0.0470(2) Uani 1 1 d . . .
Zn2 Zn 1.06265(4) 0.66882(3) 1.19364(3) 0.0514(2) Uani 1 1 d . . .
Zn3 Zn 0.47331(4) -0.03612(4) 0.67530(3) 0.0507(2) Uani 1 1 d . . .
Zn4 Zn 1.16166(4) 0.76243(4) 1.57125(3) 0.0579(2) Uani 1 1 d . . .
Zn5 Zn 1.04032(4) 0.89018(4) 1.34986(3) 0.0577(2) Uani 1 1 d . . .
Zn6 Zn 0.70354(4) 0.36791(4) 1.09631(3) 0.0539(2) Uani 1 1 d . . .
Zn7 Zn 0.45359(4) 0.11128(4) 0.66828(3) 0.0512(2) Uani 1 1 d . . .
Zn8 Zn 0.86140(4) 0.35883(4) 1.10011(3) 0.0555(2) Uani 1 1 d . . .
Zn9 Zn 0.93285(4) 0.78222(4) 1.40667(3) 0.0573(2) Uani 1 1 d . . .
O1 O 0.5513(2) 0.3382(2) 0.83862(15) 0.0557(11) Uani 1 1 d . . .
O2 O 0.6388(2) 0.3079(2) 0.81466(17) 0.0746(14) Uani 1 1 d . . .
O3 O 0.4610(3) 0.8499(3) 0.6865(2) 0.0940(17) Uani 1 1 d . . .
O4 O 0.5436(3) 0.9192(3) 0.6532(2) 0.0962(18) Uani 1 1 d . . .
O5 O 1.0727(3) 0.7502(3) 0.5976(2) 0.0929(18) Uani 1 1 d . . .
O6 O 1.0352(4) 0.6359(4) 0.5635(3) 0.159(3) Uani 1 1 d . . .
O7 O 1.1455(3) 0.9429(2) 1.30174(19) 0.0894(16) Uani 1 1 d . . .
O8 O 1.0578(3) 0.9750(2) 1.32014(18) 0.0798(15) Uani 1 1 d . . .
O9 O 1.0883(4) 1.5823(4) 1.2468(3) 0.149(3) Uani 1 1 d . . .
O10 O 1.1268(3) 1.6148(3) 1.1788(3) 0.114(2) Uani 1 1 d . . .
O11 O 1.5872(3) 1.3961(3) 1.0723(2) 0.0855(16) Uani 1 1 d . . .
O12 O 1.6138(3) 1.3240(3) 1.12013(18) 0.0789(15) Uani 1 1 d . . .
O13 O 0.4759(2) 0.2605(2) 0.91745(15) 0.0560(11) Uani 1 1 d . . .
O14 O 0.5076(3) 0.1741(2) 0.94289(18) 0.0775(14) Uani 1 1 d . . .
O15 O -0.0098(3) 0.3840(3) 1.08519(19) 0.0826(15) Uani 1 1 d . . .
O16 O -0.0791(3) 0.3046(3) 1.12292(17) 0.0769(14) Uani 1 1 d . . .
O19 O 0.8439(3) 0.7614(3) 1.4327(2) 0.0909(17) Uani 1 1 d . . .
O20 O 0.8849(3) 0.6787(3) 1.4545(2) 0.105(2) Uani 1 1 d . . .
O21 O 0.2664(4) 0.7586(4) 1.5286(3) 0.142(3) Uani 1 1 d . . .
O22 O 0.2121(3) 0.6938(3) 1.5776(3) 0.122(3) Uani 1 1 d . . .
O25 O 0.9489(2) 0.8715(2) 1.37746(16) 0.0710(13) Uani 1 1 d . . .
O18 O 0.1594(3) -0.2235(2) 1.19288(18) 0.0828(16) Uani 1 1 d . . .
O17 O 0.0424(3) -0.2500(3) 1.1558(2) 0.0914(17) Uani 1 1 d . . .
O28 O 0.7711(2) 0.3234(2) 1.12821(15) 0.0591(11) Uani 1 1 d . . .
O29 O 0.5062(2) 0.05205(18) 0.64476(14) 0.0498(10) Uani 1 1 d . . .
N129 N 0.2392(3) -0.1463(2) 0.6229(2) 0.0573(14) Uani 1 1 d . . .
N1 N 0.7249(2) 0.5668(2) 0.67073(17) 0.0422(12) Uani 1 1 d . . .
N2 N 0.6323(2) 0.6044(2) 0.69062(17) 0.0439(12) Uani 1 1 d . . .
N3 N 0.7204(3) 0.6755(2) 0.65008(17) 0.0461(12) Uani 1 1 d . . .
N4 N 1.1928(2) 1.2873(2) 1.21863(18) 0.0467(13) Uani 1 1 d . . .
N5 N 1.2805(3) 1.2423(2) 1.19466(18) 0.0496(13) Uani 1 1 d . . .
N6 N 1.2751(3) 1.3499(2) 1.17164(19) 0.0519(13) Uani 1 1 d . . .
N7 N 0.2059(3) 0.1815(2) 1.06096(19) 0.0552(14) Uani 1 1 d . . .
N8 N 0.1355(3) 0.0989(2) 1.10526(18) 0.0508(13) Uani 1 1 d . . .
N9 N 0.2388(3) 0.0843(2) 1.08074(19) 0.0522(14) Uani 1 1 d . . .
N10 N 0.5397(3) 0.6207(2) 1.53961(17) 0.0439(12) Uani 1 1 d . . .
N11 N 0.4716(2) 0.5306(2) 1.58106(17) 0.0450(12) Uani 1 1 d . . .
N12 N 0.5802(3) 0.5272(2) 1.55728(17) 0.0454(12) Uani 1 1 d . . .
N100 N 1.1288(3) 0.7982(3) 1.5088(2) 0.0577(14) Uani 1 1 d . . .
N101 N 1.0378(3) 0.8073(2) 1.44855(18) 0.0493(13) Uani 1 1 d . . .
N102 N 1.1204(3) 0.9019(3) 1.4127(2) 0.0606(15) Uani 1 1 d . . .
N103 N 1.2509(3) 0.9444(3) 1.4537(2) 0.0784(18) Uani 1 1 d . . .
N104 N 1.2951(3) 0.8986(3) 1.5182(2) 0.092(2) Uani 1 1 d . . .
H10A H 1.3407 0.9294 1.5191 0.110 Uiso 1 1 calc R . .
H10B H 1.2886 0.8687 1.5395 0.110 Uiso 1 1 calc R . .
N105 N 1.0179(3) 0.7896(2) 1.30998(19) 0.0517(13) Uani 1 1 d . . .
N106 N 1.0340(3) 0.7035(3) 1.25736(19) 0.0550(14) Uani 1 1 d . . .
N107 N 0.9208(3) 0.7086(3) 1.34401(19) 0.0621(15) Uani 1 1 d . . .
N108 N 0.8850(4) 0.5824(3) 1.3090(3) 0.097(2) Uani 1 1 d . . .
N109 N 0.9472(4) 0.5397(3) 1.2581(2) 0.114(3) Uani 1 1 d . . .
H10C H 0.9209 0.4951 1.2609 0.136 Uiso 1 1 calc R . .
H10D H 0.9806 0.5471 1.2398 0.136 Uiso 1 1 calc R . .
N110 N 0.9632(3) 0.5862(2) 1.15052(19) 0.0529(14) Uani 1 1 d . . .
N111 N 0.8879(3) 0.4659(2) 1.12178(18) 0.0492(13) Uani 1 1 d . . .
N112 N 0.7680(3) 0.4750(3) 1.1235(2) 0.0592(14) Uani 1 1 d . . .
N113 N 0.7792(3) 0.5974(3) 1.1517(3) 0.084(2) Uani 1 1 d . . .
N114 N 0.8912(3) 0.6968(3) 1.1708(3) 0.101(2) Uani 1 1 d . . .
H11A H 0.8671 0.7248 1.1765 0.121 Uiso 1 1 calc R . .
H11B H 0.9400 0.7165 1.1744 0.121 Uiso 1 1 calc R . .
N115 N 0.6994(3) 0.3384(2) 1.02235(18) 0.0499(13) Uani 1 1 d . . .
N116 N 0.6483(3) 0.3030(3) 0.93714(19) 0.0526(13) Uani 1 1 d . . .
N117 N 0.8139(3) 0.3185(3) 1.02331(19) 0.0593(14) Uani 1 1 d . . .
N118 N 0.8219(3) 0.2715(3) 0.9402(2) 0.0681(16) Uani 1 1 d . . .
N119 N 0.7371(3) 0.2564(3) 0.8661(2) 0.0638(15) Uani 1 1 d . . .
H11C H 0.7654 0.2429 0.8491 0.077 Uiso 1 1 calc R . .
H11D H 0.6953 0.2577 0.8494 0.077 Uiso 1 1 calc R . .
N120 N 0.5203(3) 0.1718(2) 0.82739(19) 0.0489(13) Uani 1 1 d . . .
N121 N 0.4818(3) 0.1164(2) 0.74353(18) 0.0483(13) Uani 1 1 d . . .
N122 N 0.5161(3) 0.0143(3) 0.75061(19) 0.0581(14) Uani 1 1 d . . .
N123 N 0.5778(3) 0.0173(3) 0.8362(2) 0.0703(16) Uani 1 1 d . . .
N124 N 0.5914(3) 0.1033(3) 0.9055(2) 0.0718(17) Uani 1 1 d . . .
H12A H 0.6127 0.0816 0.9253 0.086 Uiso 1 1 calc R . .
H12B H 0.5856 0.1424 0.9190 0.086 Uiso 1 1 calc R . .
N125 N 0.1177(3) -0.0847(3) 0.6022(2) 0.089(2) Uani 1 1 d . . .
H12C H 0.0858 -0.0639 0.5972 0.107 Uiso 1 1 calc R . .
H12D H 0.1010 -0.1323 0.5998 0.107 Uiso 1 1 calc R . .
N126 N 0.2180(4) 0.0290(3) 0.6172(2) 0.0780(18) Uani 1 1 d . . .
N127 N 0.3447(3) 0.0450(2) 0.64352(19) 0.0563(14) Uani 1 1 d . . .
N128 N 0.3614(2) -0.0671(3) 0.65136(18) 0.0477(13) Uani 1 1 d . . .
C1 C 0.5994(4) 0.3428(3) 0.8125(2) 0.0527(17) Uani 1 1 d . . .
C2 C 0.6090(3) 0.3956(3) 0.7768(2) 0.0452(15) Uani 1 1 d . . .
C3 C 0.5779(3) 0.4462(3) 0.7785(2) 0.0523(17) Uani 1 1 d . . .
H3 H 0.5451 0.4455 0.8001 0.063 Uiso 1 1 calc R . .
C4 C 0.5940(3) 0.4978(3) 0.7492(2) 0.0525(17) Uani 1 1 d . . .
H4 H 0.5721 0.5325 0.7505 0.063 Uiso 1 1 calc R . .
C5 C 0.6426(3) 0.4997(3) 0.7175(2) 0.0410(14) Uani 1 1 d . . .
C6 C 0.6713(3) 0.4465(3) 0.7139(2) 0.0447(15) Uani 1 1 d . . .
H6 H 0.7027 0.4457 0.6915 0.054 Uiso 1 1 calc R . .
C7 C 0.6536(3) 0.3948(3) 0.7434(2) 0.0512(16) Uani 1 1 d . . .
H7 H 0.6725 0.3578 0.7406 0.061 Uiso 1 1 calc R . .
C8 C 0.6676(3) 0.5603(3) 0.6914(2) 0.0431(15) Uani 1 1 d . . .
C9 C 0.6609(3) 0.6616(3) 0.6696(2) 0.0418(14) Uani 1 1 d . . .
C10 C 0.7516(3) 0.6272(3) 0.6528(2) 0.0410(14) Uani 1 1 d . . .
C11 C 0.6229(3) 0.7128(3) 0.6677(2) 0.0442(15) Uani 1 1 d . . .
C12 C 0.5639(4) 0.7025(3) 0.6902(2) 0.0643(19) Uani 1 1 d . . .
H12 H 0.5470 0.6622 0.7060 0.077 Uiso 1 1 calc R . .
C14 C 0.5521(4) 0.8090(4) 0.6676(3) 0.0604(18) Uani 1 1 d . . .
C15 C 0.6102(4) 0.8180(3) 0.6449(3) 0.072(2) Uani 1 1 d . . .
H15 H 0.6267 0.8584 0.6291 0.086 Uiso 1 1 calc R . .
C16 C 0.6457(3) 0.7700(3) 0.6443(2) 0.0614(19) Uani 1 1 d . . .
H16 H 0.6853 0.7770 0.6277 0.074 Uiso 1 1 calc R . .
C17 C 0.5166(5) 0.8625(5) 0.6688(3) 0.079(2) Uani 1 1 d . . .
C18 C 0.8203(3) 0.6419(3) 0.6352(2) 0.0455(15) Uani 1 1 d . . .
C19 C 0.8602(3) 0.7106(3) 0.6267(2) 0.0616(18) Uani 1 1 d . . .
H19 H 0.8418 0.7478 0.6306 0.074 Uiso 1 1 calc R . .
C20 C 0.9277(4) 0.7244(4) 0.6124(3) 0.074(2) Uani 1 1 d . . .
H20 H 0.9552 0.7718 0.6075 0.088 Uiso 1 1 calc R . .
C21 C 0.9551(4) 0.6721(4) 0.6054(3) 0.0649(19) Uani 1 1 d . . .
C22 C 0.9143(4) 0.6038(4) 0.6136(3) 0.090(3) Uani 1 1 d . . .
H22 H 0.9323 0.5663 0.6091 0.108 Uiso 1 1 calc R . .
C23 C 0.8484(4) 0.5896(3) 0.6281(3) 0.069(2) Uani 1 1 d . . .
H23 H 0.8215 0.5423 0.6333 0.083 Uiso 1 1 calc R . .
C24 C 1.0271(5) 0.6880(6) 0.5888(4) 0.091(3) Uani 1 1 d . . .
C25 C 1.1137(4) 0.9845(4) 1.3009(3) 0.067(2) Uani 1 1 d . . .
C26 C 1.1405(4) 1.0511(3) 1.2788(2) 0.0547(17) Uani 1 1 d . . .
C27 C 1.1056(4) 1.0994(3) 1.2786(2) 0.0663(19) Uani 1 1 d . . .
H27 H 1.0628 1.0905 1.2920 0.080 Uiso 1 1 calc R . .
C28 C 1.1336(4) 1.1603(3) 1.2588(2) 0.0619(18) Uani 1 1 d . . .
H28 H 1.1105 1.1940 1.2593 0.074 Uiso 1 1 calc R . .
C29 C 1.1941(3) 1.1733(3) 1.2384(2) 0.0471(15) Uani 1 1 d . . .
C30 C 1.2289(3) 1.1257(3) 1.2396(2) 0.0603(18) Uani 1 1 d . . .
H30 H 1.2723 1.1352 1.2268 0.072 Uiso 1 1 calc R . .
C31 C 1.2016(4) 1.0646(3) 1.2590(2) 0.0644(19) Uani 1 1 d . . .
H31 H 1.2253 1.0314 1.2587 0.077 Uiso 1 1 calc R . .
C32 C 1.2239(3) 1.2381(3) 1.2157(2) 0.0419(14) Uani 1 1 d . . .
C33 C 1.2200(3) 1.3423(3) 1.1958(2) 0.0421(15) Uani 1 1 d . . .
C34 C 1.3059(3) 1.3006(3) 1.1745(2) 0.0487(16) Uani 1 1 d . . .
C35 C 1.1906(3) 1.3979(3) 1.1963(2) 0.0439(15) Uani 1 1 d . . .
C36 C 1.1438(3) 1.4027(3) 1.2276(2) 0.0542(17) Uani 1 1 d . . .
H36 H 1.1268 1.3655 1.2461 0.065 Uiso 1 1 calc R . .
C37 C 1.1215(3) 1.4595(3) 1.2327(3) 0.067(2) Uani 1 1 d . . .
H37 H 1.0917 1.4628 1.2558 0.081 Uiso 1 1 calc R . .
C38 C 1.1423(4) 1.5115(4) 1.2044(3) 0.068(2) Uani 1 1 d . . .
C39 C 1.1857(4) 1.5062(3) 1.1708(3) 0.073(2) Uani 1 1 d . . .
H39