####################################################################### 
# 
# This file contains crystal structure data downloaded from the 
# Cambridge Structural Database (CSD) hosted by the Cambridge 
# Crystallographic Data Centre (CCDC).
# 
# Full information about CCDC data access policies and citation 
# guidelines are available at http://www.ccdc.cam.ac.uk/access/V1 
# 
# Audit and citation data items may have been added by the CCDC. 
# Please retain this information to preserve the provenance of 
# this file and to allow appropriate attribution of the data. 
# 
#######################################################################

data_1
_audit_block_doi                 10.5517/cc1124dn
_database_code_depnum_ccdc_archive 'CCDC 955370'
loop_
_citation_id
_citation_doi
_citation_year
1 10.1002/chem.201304962 2014
_audit_update_record             
;
2013-08-09 deposited with the CCDC.	2024-07-14 downloaded from the CCDC.
;

_audit_creation_method           SHELXL-97
_chemical_name_systematic        
; 
 ? 
;
_chemical_name_common            ?
_chemical_melting_point          ?
_chemical_formula_moiety         'C72 H48 O13 Zn4'
_chemical_formula_sum            'C72 H48 O13 Zn4'
_chemical_formula_weight         1382.58

loop_
_atom_type_symbol
_atom_type_description
_atom_type_scat_dispersion_real
_atom_type_scat_dispersion_imag
_atom_type_scat_source
C C 0.0033 0.0016 'International Tables Vol C Tables 4.2.6.8 and 6.1.1.4'
H H 0.0000 0.0000 'International Tables Vol C Tables 4.2.6.8 and 6.1.1.4'
O O 0.0106 0.0060 'International Tables Vol C Tables 4.2.6.8 and 6.1.1.4'
Zn Zn 0.2839 1.4301 'International Tables Vol C Tables 4.2.6.8 and 6.1.1.4'

_symmetry_cell_setting           trigonal
_symmetry_space_group_name_H-M   R-3c

loop_
_symmetry_equiv_pos_as_xyz
'x, y, z'
'-y, x-y, z'
'-x+y, -x, z'
'y, x, -z+1/2'
'x-y, -y, -z+1/2'
'-x, -x+y, -z+1/2'
'x+2/3, y+1/3, z+1/3'
'-y+2/3, x-y+1/3, z+1/3'
'-x+y+2/3, -x+1/3, z+1/3'
'y+2/3, x+1/3, -z+5/6'
'x-y+2/3, -y+1/3, -z+5/6'
'-x+2/3, -x+y+1/3, -z+5/6'
'x+1/3, y+2/3, z+2/3'
'-y+1/3, x-y+2/3, z+2/3'
'-x+y+1/3, -x+2/3, z+2/3'
'y+1/3, x+2/3, -z+7/6'
'x-y+1/3, -y+2/3, -z+7/6'
'-x+1/3, -x+y+2/3, -z+7/6'
'-x, -y, -z'
'y, -x+y, -z'
'x-y, x, -z'
'-y, -x, z-1/2'
'-x+y, y, z-1/2'
'x, x-y, z-1/2'
'-x+2/3, -y+1/3, -z+1/3'
'y+2/3, -x+y+1/3, -z+1/3'
'x-y+2/3, x+1/3, -z+1/3'
'-y+2/3, -x+1/3, z-1/6'
'-x+y+2/3, y+1/3, z-1/6'
'x+2/3, x-y+1/3, z-1/6'
'-x+1/3, -y+2/3, -z+2/3'
'y+1/3, -x+y+2/3, -z+2/3'
'x-y+1/3, x+2/3, -z+2/3'
'-y+1/3, -x+2/3, z+1/6'
'-x+y+1/3, y+2/3, z+1/6'
'x+1/3, x-y+2/3, z+1/6'

_cell_length_a                   19.887(3)
_cell_length_b                   19.887(3)
_cell_length_c                   83.536(17)
_cell_angle_alpha                90.00
_cell_angle_beta                 90.00
_cell_angle_gamma                120.00
_cell_volume                     28613(8)
_cell_formula_units_Z            12
_cell_measurement_temperature    296(2)
_cell_measurement_reflns_used    ?
_cell_measurement_theta_min      ?
_cell_measurement_theta_max      ?

_exptl_crystal_description       ?
_exptl_crystal_colour            ?
_exptl_crystal_size_max          0.30
_exptl_crystal_size_mid          0.30
_exptl_crystal_size_min          0.30
_exptl_crystal_density_meas      ?
_exptl_crystal_density_diffrn    0.963
_exptl_crystal_density_method    'not measured'
_exptl_crystal_F_000             8448
_exptl_absorpt_coefficient_mu    1.037
_exptl_absorpt_correction_type   none
_exptl_absorpt_correction_T_min  0.7462
_exptl_absorpt_correction_T_max  0.7462
_exptl_absorpt_process_details   ?

_exptl_special_details           
; 
 ? 
;

_diffrn_ambient_temperature      296(2)
_diffrn_radiation_wavelength     0.71073
_diffrn_radiation_type           MoK\a
_diffrn_radiation_source         'fine-focus sealed tube'
_diffrn_radiation_monochromator  graphite
_diffrn_measurement_device_type  'Bruker P4'
_diffrn_measurement_method       '\w scans'
_diffrn_detector_area_resol_mean ?
_diffrn_standards_number         ?
_diffrn_standards_interval_count ?
_diffrn_standards_interval_time  ?
_diffrn_standards_decay_%        ?
_diffrn_reflns_number            58003
_diffrn_reflns_av_R_equivalents  0.0533
_diffrn_reflns_av_sigmaI/netI    0.0402
_diffrn_reflns_limit_h_min       -25
_diffrn_reflns_limit_h_max       25
_diffrn_reflns_limit_k_min       -26
_diffrn_reflns_limit_k_max       26
_diffrn_reflns_limit_l_min       -111
_diffrn_reflns_limit_l_max       52
_diffrn_reflns_theta_min         1.28
_diffrn_reflns_theta_max         28.41
_reflns_number_total             7992
_reflns_number_gt                5120
_reflns_threshold_expression     >2sigma(I)

_computing_data_collection       'Bruker XSCANS'
_computing_cell_refinement       'Bruker XSCANS'
_computing_data_reduction        'Bruker SHELXTL'
_computing_structure_solution    'SHELXS-97 (Sheldrick, 1990)'
_computing_structure_refinement  'SHELXL-97 (Sheldrick, 1997)'
_computing_molecular_graphics    'Bruker SHELXTL'
_computing_publication_material  'Bruker SHELXTL'

_refine_special_details          
; 
 Refinement of F^2^ against ALL reflections.  The weighted R-factor wR and 
 goodness of fit S are based on F^2^, conventional R-factors R are based 
 on F, with F set to zero for negative F^2^. The threshold expression of 
 F^2^ > 2sigma(F^2^) is used only for calculating R-factors(gt) etc. and is 
 not relevant to the choice of reflections for refinement.  R-factors based 
 on F^2^ are statistically about twice as large as those based on F, and R- 
 factors based on ALL data will be even larger. 
;

_refine_ls_structure_factor_coef Fsqd
_refine_ls_matrix_type           full
_refine_ls_weighting_scheme      calc
_refine_ls_weighting_details     
'calc w=1/[\s^2^(Fo^2^)+(0.1499P)^2^+0.0000P] where P=(Fo^2^+2Fc^2^)/3'
_atom_sites_solution_primary     direct
_atom_sites_solution_secondary   difmap
_atom_sites_solution_hydrogens   geom
_refine_ls_hydrogen_treatment    constr
_refine_ls_extinction_method     none
_refine_ls_extinction_coef       ?
_refine_ls_number_reflns         7992
_refine_ls_number_parameters     268
_refine_ls_number_restraints     0
_refine_ls_R_factor_all          0.0905
_refine_ls_R_factor_gt           0.0663
_refine_ls_wR_factor_ref         0.2155
_refine_ls_wR_factor_gt          0.1976
_refine_ls_goodness_of_fit_ref   0.974
_refine_ls_restrained_S_all      0.974
_refine_ls_shift/su_max          0.000
_refine_ls_shift/su_mean         0.000

loop_
_atom_site_label
_atom_site_type_symbol
_atom_site_fract_x
_atom_site_fract_y
_atom_site_fract_z
_atom_site_U_iso_or_equiv
_atom_site_adp_type
_atom_site_occupancy
_atom_site_symmetry_multiplicity
_atom_site_calc_flag
_atom_site_refinement_flags
_atom_site_disorder_assembly
_atom_site_disorder_group
O6 O 0.4366(4) 0.6794(6) 0.10476(9) 0.282(5) Uani 1 1 d . . .
C26 C 0.5073(4) 0.7070(4) 0.10029(8) 0.118(2) Uani 1 1 d . . .
Zn2 Zn 0.3333 0.6667 0.104133(18) 0.1629(7) Uani 1 3 d S . .
Zn1 Zn 0.43737(2) 0.69039(2) 0.073107(4) 0.04220(15) Uani 1 1 d . . .
O4 O 0.3333 0.6667 0.07981(4) 0.0395(7) Uani 1 3 d S . .
O1 O 0.42697(14) 0.60497(15) 0.05984(3) 0.0655(7) Uani 1 1 d . . .
O3 O 0.47856(15) 0.77817(15) 0.05834(3) 0.0658(7) Uani 1 1 d . . .
C2 C 0.47179(19) 0.30194(18) -0.01610(4) 0.0480(7) Uani 1 1 d . . .
H2A H 0.4874 0.2842 -0.0248 0.058 Uiso 1 1 calc R . .
C3 C 0.59600(18) 0.33300(18) -0.00262(4) 0.0429(7) Uani 1 1 d . . .
C4 C 0.59550(18) 0.26223(18) -0.00252(4) 0.0432(7) Uani 1 1 d . . .
C5 C 0.36990(19) 0.54512(19) 0.05480(4) 0.0479(7) Uani 1 1 d . . .
C6 C 0.41272(18) 0.40662(18) 0.02154(4) 0.0473(7) Uani 1 1 d . . .
C7 C 0.42986(18) 0.36517(18) 0.00912(4) 0.0474(7) Uani 1 1 d . . .
C8 C 0.38437(19) 0.49484(19) 0.04377(4) 0.0482(7) Uani 1 1 d . . .
C9 C 0.39886(18) 0.29677(19) -0.01636(4) 0.0487(7) Uani 1 1 d . . .
C10 C 0.52083(18) 0.33277(18) -0.00312(4) 0.0447(7) Uani 1 1 d . . .
C11 C 0.49918(18) 0.36357(18) 0.00942(4) 0.0474(7) Uani 1 1 d . . .
H11A H 0.5317 0.3837 0.0183 0.057 Uiso 1 1 calc R . .
C12 C 0.3667(2) 0.2578(2) -0.04529(4) 0.0628(9) Uani 1 1 d . . .
H12A H 0.4193 0.2848 -0.0478 0.075 Uiso 1 1 calc R . .
C13 C 0.33840(19) 0.3803(2) 0.02749(4) 0.0549(8) Uani 1 1 d . . .
H13A H 0.2978 0.3328 0.0240 0.066 Uiso 1 1 calc R . .
C14 C 0.3434(2) 0.2573(2) -0.02945(4) 0.0574(9) Uani 1 1 d . . .
C15 C 0.47256(19) 0.47785(19) 0.02729(4) 0.0553(8) Uani 1 1 d . . .
H15A H 0.5229 0.4964 0.0236 0.066 Uiso 1 1 calc R . .
C16 C 0.37980(19) 0.33013(19) -0.00388(4) 0.0523(8) Uani 1 1 d . . .
H16A H 0.3326 0.3292 -0.0041 0.063 Uiso 1 1 calc R . .
C17 C 0.3239(2) 0.4238(2) 0.03847(4) 0.0545(8) Uani 1 1 d . . .
H17A H 0.2738 0.4056 0.0423 0.065 Uiso 1 1 calc R . .
O2 O 0.5268(2) 0.7193(2) 0.08655(5) 0.1060(13) Uani 1 1 d . . .
C18 C 0.45863(19) 0.5201(2) 0.03808(4) 0.0566(9) Uani 1 1 d . . .
H18A H 0.4996 0.5668 0.0417 0.068 Uiso 1 1 calc R . .
C19 C 0.3130(3) 0.2189(2) -0.05727(5) 0.0717(11) Uani 1 1 d . . .
H19A H 0.3299 0.2208 -0.0677 0.086 Uiso 1 1 calc R . .
C20 C 0.2359(3) 0.1780(3) -0.05393(6) 0.0871(15) Uani 1 1 d . . .
C21 C 0.2655(3) 0.2151(4) -0.02602(6) 0.114(2) Uani 1 1 d . . .
H21A H 0.2485 0.2130 -0.0156 0.137 Uiso 1 1 calc R . .
C22 C 0.2114(3) 0.1751(4) -0.03818(7) 0.136(3) Uani 1 1 d . . .
H22A H 0.1588 0.1465 -0.0357 0.163 Uiso 1 1 calc R . .
C24 C 0.5202(2) 0.1874(2) -0.00153(5) 0.0612(10) Uani 1 1 d . . .
H24A H 0.5290 0.1449 -0.0042 0.073 Uiso 1 1 calc R . .
H24B H 0.4845 0.1879 -0.0094 0.073 Uiso 1 1 calc R . .
C23 C 0.4829(3) 0.1733(3) 0.01529(7) 0.0911(15) Uani 1 1 d . . .
H23A H 0.4347 0.1249 0.0153 0.137 Uiso 1 1 calc R . .
H23B H 0.4734 0.2148 0.0179 0.137 Uiso 1 1 calc R . .
H23C H 0.5175 0.1713 0.0231 0.137 Uiso 1 1 calc R . .

loop_
_atom_site_aniso_label
_atom_site_aniso_U_11
_atom_site_aniso_U_22
_atom_site_aniso_U_33
_atom_site_aniso_U_23
_atom_site_aniso_U_13
_atom_site_aniso_U_12
O6 0.106(4) 0.394(12) 0.233(7) 0.068(7) -0.115(5) 0.039(5)
C26 0.115(5) 0.109(4) 0.100(4) 0.012(3) -0.064(4) 0.034(4)
Zn2 0.2006(11) 0.2006(11) 0.0875(9) 0.000 0.000 0.1003(5)
Zn1 0.0435(2) 0.0435(2) 0.0392(2) -0.00325(14) -0.00523(14) 0.02138(17)
O4 0.0442(11) 0.0442(11) 0.0299(16) 0.000 0.000 0.0221(6)
O1 0.0535(14) 0.0604(15) 0.0811(18) -0.0298(13) -0.0034(13) 0.0273(13)
O3 0.0597(15) 0.0628(15) 0.0768(17) 0.0259(14) 0.0168(13) 0.0319(13)
C2 0.0492(17) 0.0545(18) 0.0433(16) -0.0145(14) -0.0075(14) 0.0282(15)
C3 0.0410(15) 0.0483(16) 0.0395(15) -0.0064(13) -0.0060(12) 0.0225(14)
C4 0.0405(15) 0.0434(16) 0.0442(16) -0.0086(13) 0.0005(13) 0.0200(13)
C5 0.0480(18) 0.0501(18) 0.0488(17) -0.0087(14) -0.0001(14) 0.0268(15)
C6 0.0469(17) 0.0506(17) 0.0497(17) -0.0141(14) -0.0100(14) 0.0284(15)
C7 0.0464(17) 0.0472(17) 0.0499(17) -0.0133(14) -0.0078(14) 0.0244(14)
C8 0.0501(17) 0.0481(17) 0.0474(17) -0.0083(14) -0.0028(14) 0.0254(15)
C9 0.0415(16) 0.0548(18) 0.0457(17) -0.0099(14) -0.0067(13) 0.0211(14)
C10 0.0395(15) 0.0447(16) 0.0500(17) -0.0115(14) -0.0076(13) 0.0210(13)
C11 0.0447(16) 0.0526(18) 0.0466(17) -0.0159(14) -0.0148(14) 0.0255(14)
C12 0.062(2) 0.073(2) 0.052(2) -0.0194(18) -0.0163(17) 0.0334(19)
C13 0.0477(18) 0.0498(18) 0.059(2) -0.0159(16) -0.0014(15) 0.0179(15)
C14 0.0486(18) 0.068(2) 0.0518(19) -0.0197(17) -0.0151(15) 0.0263(17)
C15 0.0410(17) 0.0539(19) 0.071(2) -0.0152(17) 0.0010(15) 0.0240(15)
C16 0.0435(17) 0.061(2) 0.0547(19) -0.0103(16) -0.0065(14) 0.0283(16)
C17 0.0453(17) 0.0511(18) 0.063(2) -0.0083(16) -0.0003(15) 0.0209(15)
O2 0.125(3) 0.103(3) 0.089(2) -0.019(2) -0.064(2) 0.057(2)
C18 0.0463(18) 0.0518(19) 0.067(2) -0.0231(17) -0.0059(16) 0.0209(15)
C19 0.084(3) 0.087(3) 0.051(2) -0.024(2) -0.023(2) 0.047(2)
C20 0.073(3) 0.109(4) 0.082(3) -0.049(3) -0.043(2) 0.048(3)
C21 0.050(2) 0.170(6) 0.075(3) -0.057(3) -0.007(2) 0.018(3)
C22 0.054(3) 0.205(7) 0.102(4) -0.081(5) -0.031(3) 0.030(4)
C24 0.0448(18) 0.0419(18) 0.093(3) -0.0109(18) -0.0005(18) 0.0189(15)
C23 0.066(3) 0.065(3) 0.135(4) 0.009(3) 0.039(3) 0.027(2)

_geom_special_details            
; 
 All esds (except the esd in the dihedral angle between two l.s. planes) 
 are estimated using the full covariance matrix.  The cell esds are taken 
 into account individually in the estimation of esds in distances, angles 
 and torsion angles; correlations between esds in cell parameters are only 
 used when they are defined by crystal symmetry.  An approximate (isotropic) 
 treatment of cell esds is used for estimating esds involving l.s. planes. 
;

loop_
_geom_bond_atom_site_label_1
_geom_bond_atom_site_label_2
_geom_bond_distance
_geom_bond_site_symmetry_2
_geom_bond_publ_flag
O6 C26 1.283(10) . ?
O6 Zn2 1.940(7) . ?
C26 O2 1.197(8) . ?
C26 C20 1.514(6) 36 ?
C26 Zn1 2.595(5) . ?
Zn2 O6 1.940(7) 2_665 ?
Zn2 O6 1.940(7) 3_565 ?
Zn2 O4 2.032(4) . ?
Zn1 O2 1.932(3) . ?
Zn1 O1 1.951(2) . ?
Zn1 O3 1.952(2) . ?
Zn1 O4 1.9599(10) . ?
O4 Zn1 1.9599(10) 3_565 ?
O4 Zn1 1.9599(10) 2_665 ?
O1 C5 1.237(4) . ?
O3 C5 1.267(4) 2_665 ?
C2 C10 1.380(4) . ?
C2 C9 1.402(4) . ?
C3 C4 1.403(4) . ?
C3 C4 1.414(4) 3_665 ?
C3 C10 1.493(4) . ?
C4 C3 1.414(4) 2_655 ?
C4 C24 1.495(4) . ?
C5 O3 1.267(4) 3_565 ?
C5 C8 1.490(4) . ?
C6 C13 1.390(4) . ?
C6 C15 1.403(4) . ?
C6 C7 1.467(4) . ?
C7 C11 1.395(4) . ?
C7 C16 1.401(4) . ?
C8 C18 1.385(5) . ?
C8 C17 1.392(5) . ?
C9 C16 1.386(4) . ?
C9 C14 1.471(4) . ?
C10 C11 1.386(4) . ?
C12 C19 1.384(5) . ?
C12 C14 1.401(5) . ?
C13 C17 1.387(4) . ?
C14 C21 1.373(6) . ?
C15 C18 1.352(4) . ?
C19 C20 1.358(7) . ?
C20 C22 1.395(7) . ?
C20 C26 1.514(6) 30_455 ?
C21 C22 1.402(6) . ?
C24 C23 1.548(6) . ?

loop_
_geom_angle_atom_site_label_1
_geom_angle_atom_site_label_2
_geom_angle_atom_site_label_3
_geom_angle
_geom_angle_site_symmetry_1
_geom_angle_site_symmetry_3
_geom_angle_publ_flag
C26 O6 Zn2 155.5(6) . . ?
O2 C26 O6 122.8(6) . . ?
O2 C26 C20 117.9(7) . 36 ?
O6 C26 C20 119.4(6) . 36 ?
O2 C26 Zn1 44.4(3) . . ?
O6 C26 Zn1 78.3(4) . . ?
C20 C26 Zn1 162.3(5) 36 . ?
O6 Zn2 O6 119.93(3) 2_665 . ?
O6 Zn2 O6 119.93(2) 2_665 3_565 ?
O6 Zn2 O6 119.93(2) . 3_565 ?
O6 Zn2 O4 91.6(2) 2_665 . ?
O6 Zn2 O4 91.6(2) . . ?
O6 Zn2 O4 91.6(2) 3_565 . ?
O2 Zn1 O1 105.71(14) . . ?
O2 Zn1 O3 100.89(16) . . ?
O1 Zn1 O3 103.53(13) . . ?
O2 Zn1 O4 127.55(16) . . ?
O1 Zn1 O4 108.25(9) . . ?
O3 Zn1 O4 108.44(9) . . ?
O2 Zn1 C26 25.7(2) . . ?
O1 Zn1 C26 115.14(18) . . ?
O3 Zn1 C26 118.71(17) . . ?
O4 Zn1 C26 102.4(2) . . ?
Zn1 O4 Zn1 112.18(8) 3_565 2_665 ?
Zn1 O4 Zn1 112.18(8) 3_565 . ?
Zn1 O4 Zn1 112.18(8) 2_665 . ?
Zn1 O4 Zn2 106.61(9) 3_565 . ?
Zn1 O4 Zn2 106.61(9) 2_665 . ?
Zn1 O4 Zn2 106.60(9) . . ?
C5 O1 Zn1 132.7(2) . . ?
C5 O3 Zn1 131.2(2) 2_665 . ?
C10 C2 C9 121.3(3) . . ?
C4 C3 C4 120.9(3) . 3_665 ?
C4 C3 C10 119.5(3) . . ?
C4 C3 C10 119.6(3) 3_665 . ?
C3 C4 C3 119.1(3) . 2_655 ?
C3 C4 C24 120.0(3) . . ?
C3 C4 C24 120.8(3) 2_655 . ?
O1 C5 O3 126.1(3) . 3_565 ?
O1 C5 C8 117.6(3) . . ?
O3 C5 C8 116.3(3) 3_565 . ?
C13 C6 C15 117.6(3) . . ?
C13 C6 C7 122.9(3) . . ?
C15 C6 C7 119.4(3) . . ?
C11 C7 C16 117.9(3) . . ?
C11 C7 C6 120.7(3) . . ?
C16 C7 C6 121.4(3) . . ?
C18 C8 C17 118.9(3) . . ?
C18 C8 C5 119.9(3) . . ?
C17 C8 C5 121.2(3) . . ?
C16 C9 C2 118.3(3) . . ?
C16 C9 C14 120.2(3) . . ?
C2 C9 C14 121.5(3) . . ?
C2 C10 C11 118.9(3) . . ?
C2 C10 C3 120.5(3) . . ?
C11 C10 C3 120.6(3) . . ?
C10 C11 C7 121.7(3) . . ?
C19 C12 C14 121.2(4) . . ?
C17 C13 C6 121.1(3) . . ?
C21 C14 C12 118.1(3) . . ?
C21 C14 C9 119.1(3) . . ?
C12 C14 C9 122.7(3) . . ?
C18 C15 C6 121.5(3) . . ?
C9 C16 C7 121.6(3) . . ?
C13 C17 C8 119.9(3) . . ?
C26 O2 Zn1 109.9(4) . . ?
C15 C18 C8 121.1(3) . . ?
C20 C19 C12 120.7(4) . . ?
C19 C20 C22 119.0(4) . . ?
C19 C20 C26 123.7(5) . 30_455 ?
C22 C20 C26 117.2(5) . 30_455 ?
C14 C21 C22 120.4(4) . . ?
C20 C22 C21 120.5(5) . . ?
C4 C24 C23 112.4(3) . . ?

_diffrn_measured_fraction_theta_max 0.998
_diffrn_reflns_theta_full        28.41
_diffrn_measured_fraction_theta_full 0.998
_refine_diff_density_max         1.075
_refine_diff_density_min         -2.590
_refine_diff_density_rms         0.112
