####################################################################### 
# 
# This file contains crystal structure data downloaded from the 
# Cambridge Structural Database (CSD) hosted by the Cambridge 
# Crystallographic Data Centre (CCDC).
# 
# Full information about CCDC data access policies and citation 
# guidelines are available at http://www.ccdc.cam.ac.uk/access/V1 
# 
# Audit and citation data items may have been added by the CCDC. 
# Please retain this information to preserve the provenance of 
# this file and to allow appropriate attribution of the data. 
# 
#######################################################################

data_1
_audit_block_doi                 10.5517/cc12vhv8
_database_code_depnum_ccdc_archive 'CCDC 1008580'
loop_
_citation_id
_citation_doi
_citation_year
1 10.1007/s11172-014-0522-x 2014
_audit_update_record             
;
2014-06-16 deposited with the CCDC.	2024-07-14 downloaded from the CCDC.
;

_audit_creation_method           SHELXL-97
_chemical_name_systematic        
;
 ?
;
_chemical_name_common            ?
_chemical_melting_point          ?
_chemical_formula_moiety         ?
_chemical_formula_sum            'C18 H6 Cl2.55 Fe3 O15'
_chemical_formula_weight         720.62

loop_
_atom_type_symbol
_atom_type_description
_atom_type_scat_dispersion_real
_atom_type_scat_dispersion_imag
_atom_type_scat_source
C C 0.0033 0.0016 'International Tables Vol C Tables 4.2.6.8 and 6.1.1.4'
Fe Fe 0.3463 0.8444 'International Tables Vol C Tables 4.2.6.8 and 6.1.1.4'
O O 0.0106 0.0060 'International Tables Vol C Tables 4.2.6.8 and 6.1.1.4'
H H 0.0000 0.0000 'International Tables Vol C Tables 4.2.6.8 and 6.1.1.4'
Cl Cl 0.1484 0.1585 'International Tables Vol C Tables 4.2.6.8 and 6.1.1.4'

_symmetry_cell_setting           cubic
_symmetry_space_group_name_H-M   Fm-3m

loop_
_symmetry_equiv_pos_as_xyz
'x, y, z'
'-y, x, z'
'-x, -y, z'
'y, -x, z'
'x, -z, y'
'x, -y, -z'
'x, z, -y'
'z, y, -x'
'-x, y, -z'
'-z, y, x'
'z, x, y'
'y, z, x'
'-y, -z, x'
'z, -x, -y'
'-y, z, -x'
'-z, -x, y'
'-z, x, -y'
'y, -z, -x'
'y, x, -z'
'-y, -x, -z'
'-x, z, y'
'-x, -z, -y'
'z, -y, x'
'-z, -y, -x'
'x, y+1/2, z+1/2'
'-y, x+1/2, z+1/2'
'-x, -y+1/2, z+1/2'
'y, -x+1/2, z+1/2'
'x, -z+1/2, y+1/2'
'x, -y+1/2, -z+1/2'
'x, z+1/2, -y+1/2'
'z, y+1/2, -x+1/2'
'-x, y+1/2, -z+1/2'
'-z, y+1/2, x+1/2'
'z, x+1/2, y+1/2'
'y, z+1/2, x+1/2'
'-y, -z+1/2, x+1/2'
'z, -x+1/2, -y+1/2'
'-y, z+1/2, -x+1/2'
'-z, -x+1/2, y+1/2'
'-z, x+1/2, -y+1/2'
'y, -z+1/2, -x+1/2'
'y, x+1/2, -z+1/2'
'-y, -x+1/2, -z+1/2'
'-x, z+1/2, y+1/2'
'-x, -z+1/2, -y+1/2'
'z, -y+1/2, x+1/2'
'-z, -y+1/2, -x+1/2'
'x+1/2, y, z+1/2'
'-y+1/2, x, z+1/2'
'-x+1/2, -y, z+1/2'
'y+1/2, -x, z+1/2'
'x+1/2, -z, y+1/2'
'x+1/2, -y, -z+1/2'
'x+1/2, z, -y+1/2'
'z+1/2, y, -x+1/2'
'-x+1/2, y, -z+1/2'
'-z+1/2, y, x+1/2'
'z+1/2, x, y+1/2'
'y+1/2, z, x+1/2'
'-y+1/2, -z, x+1/2'
'z+1/2, -x, -y+1/2'
'-y+1/2, z, -x+1/2'
'-z+1/2, -x, y+1/2'
'-z+1/2, x, -y+1/2'
'y+1/2, -z, -x+1/2'
'y+1/2, x, -z+1/2'
'-y+1/2, -x, -z+1/2'
'-x+1/2, z, y+1/2'
'-x+1/2, -z, -y+1/2'
'z+1/2, -y, x+1/2'
'-z+1/2, -y, -x+1/2'
'x+1/2, y+1/2, z'
'-y+1/2, x+1/2, z'
'-x+1/2, -y+1/2, z'
'y+1/2, -x+1/2, z'
'x+1/2, -z+1/2, y'
'x+1/2, -y+1/2, -z'
'x+1/2, z+1/2, -y'
'z+1/2, y+1/2, -x'
'-x+1/2, y+1/2, -z'
'-z+1/2, y+1/2, x'
'z+1/2, x+1/2, y'
'y+1/2, z+1/2, x'
'-y+1/2, -z+1/2, x'
'z+1/2, -x+1/2, -y'
'-y+1/2, z+1/2, -x'
'-z+1/2, -x+1/2, y'
'-z+1/2, x+1/2, -y'
'y+1/2, -z+1/2, -x'
'y+1/2, x+1/2, -z'
'-y+1/2, -x+1/2, -z'
'-x+1/2, z+1/2, y'
'-x+1/2, -z+1/2, -y'
'z+1/2, -y+1/2, x'
'-z+1/2, -y+1/2, -x'
'-x, -y, -z'
'y, -x, -z'
'x, y, -z'
'-y, x, -z'
'-x, z, -y'
'-x, y, z'
'-x, -z, y'
'-z, -y, x'
'x, -y, z'
'z, -y, -x'
'-z, -x, -y'
'-y, -z, -x'
'y, z, -x'
'-z, x, y'
'y, -z, x'
'z, x, -y'
'z, -x, y'
'-y, z, x'
'-y, -x, z'
'y, x, z'
'x, -z, -y'
'x, z, y'
'-z, y, -x'
'z, y, x'
'-x, -y+1/2, -z+1/2'
'y, -x+1/2, -z+1/2'
'x, y+1/2, -z+1/2'
'-y, x+1/2, -z+1/2'
'-x, z+1/2, -y+1/2'
'-x, y+1/2, z+1/2'
'-x, -z+1/2, y+1/2'
'-z, -y+1/2, x+1/2'
'x, -y+1/2, z+1/2'
'z, -y+1/2, -x+1/2'
'-z, -x+1/2, -y+1/2'
'-y, -z+1/2, -x+1/2'
'y, z+1/2, -x+1/2'
'-z, x+1/2, y+1/2'
'y, -z+1/2, x+1/2'
'z, x+1/2, -y+1/2'
'z, -x+1/2, y+1/2'
'-y, z+1/2, x+1/2'
'-y, -x+1/2, z+1/2'
'y, x+1/2, z+1/2'
'x, -z+1/2, -y+1/2'
'x, z+1/2, y+1/2'
'-z, y+1/2, -x+1/2'
'z, y+1/2, x+1/2'
'-x+1/2, -y, -z+1/2'
'y+1/2, -x, -z+1/2'
'x+1/2, y, -z+1/2'
'-y+1/2, x, -z+1/2'
'-x+1/2, z, -y+1/2'
'-x+1/2, y, z+1/2'
'-x+1/2, -z, y+1/2'
'-z+1/2, -y, x+1/2'
'x+1/2, -y, z+1/2'
'z+1/2, -y, -x+1/2'
'-z+1/2, -x, -y+1/2'
'-y+1/2, -z, -x+1/2'
'y+1/2, z, -x+1/2'
'-z+1/2, x, y+1/2'
'y+1/2, -z, x+1/2'
'z+1/2, x, -y+1/2'
'z+1/2, -x, y+1/2'
'-y+1/2, z, x+1/2'
'-y+1/2, -x, z+1/2'
'y+1/2, x, z+1/2'
'x+1/2, -z, -y+1/2'
'x+1/2, z, y+1/2'
'-z+1/2, y, -x+1/2'
'z+1/2, y, x+1/2'
'-x+1/2, -y+1/2, -z'
'y+1/2, -x+1/2, -z'
'x+1/2, y+1/2, -z'
'-y+1/2, x+1/2, -z'
'-x+1/2, z+1/2, -y'
'-x+1/2, y+1/2, z'
'-x+1/2, -z+1/2, y'
'-z+1/2, -y+1/2, x'
'x+1/2, -y+1/2, z'
'z+1/2, -y+1/2, -x'
'-z+1/2, -x+1/2, -y'
'-y+1/2, -z+1/2, -x'
'y+1/2, z+1/2, -x'
'-z+1/2, x+1/2, y'
'y+1/2, -z+1/2, x'
'z+1/2, x+1/2, -y'
'z+1/2, -x+1/2, y'
'-y+1/2, z+1/2, x'
'-y+1/2, -x+1/2, z'
'y+1/2, x+1/2, z'
'x+1/2, -z+1/2, -y'
'x+1/2, z+1/2, y'
'-z+1/2, y+1/2, -x'
'z+1/2, y+1/2, x'

_cell_length_a                   26.669(17)
_cell_length_b                   26.669(17)
_cell_length_c                   26.669(17)
_cell_angle_alpha                90.00
_cell_angle_beta                 90.00
_cell_angle_gamma                90.00
_cell_volume                     18968(21)
_cell_formula_units_Z            16
_cell_measurement_temperature    293(2)
_cell_measurement_reflns_used    ?
_cell_measurement_theta_min      ?
_cell_measurement_theta_max      ?

_exptl_crystal_description       block
_exptl_crystal_colour            yellow
_exptl_crystal_size_max          0.1
_exptl_crystal_size_mid          0.1
_exptl_crystal_size_min          0.1
_exptl_crystal_density_meas      ?
_exptl_crystal_density_diffrn    1.009
_exptl_crystal_density_method    'not measured'
_exptl_crystal_F_000             5689
_exptl_absorpt_coefficient_mu    1.089
_exptl_absorpt_correction_type   none
_exptl_absorpt_correction_T_min  ?
_exptl_absorpt_correction_T_max  ?
_exptl_absorpt_process_details   ?

_exptl_special_details           
; 
A series of disordered DMF and water solvate molecules could not be 
properly modeled and their electron density was instead corrected  
using the Squeese procedure implemented in Platon. 
;


_diffrn_ambient_temperature      293(2)
_diffrn_radiation_wavelength     0.71073
_diffrn_radiation_type           MoK\a
_diffrn_radiation_source         'fine-focus sealed tube'
_diffrn_radiation_monochromator  graphite
_diffrn_measurement_device_type  'Bruker APEX-II CCD'
_diffrn_measurement_method       '\f and \w scans'
_diffrn_detector_area_resol_mean ?
_diffrn_standards_number         0
_diffrn_standards_interval_count ?
_diffrn_standards_interval_time  ?
_diffrn_standards_decay_%        ?
_diffrn_reflns_number            32110
_diffrn_reflns_av_R_equivalents  0.3504
_diffrn_reflns_av_sigmaI/netI    0.0849
_diffrn_reflns_limit_h_min       -31
_diffrn_reflns_limit_h_max       31
_diffrn_reflns_limit_k_min       -31
_diffrn_reflns_limit_k_max       31
_diffrn_reflns_limit_l_min       -31
_diffrn_reflns_limit_l_max       31
_diffrn_reflns_theta_min         1.32
_diffrn_reflns_theta_max         25.08
_reflns_number_total             910
_reflns_number_gt                578
_reflns_threshold_expression     >2sigma(I)

_computing_data_collection       'Bruker APEX2'
_computing_cell_refinement       'Bruker SAINT'
_computing_data_reduction        'Bruker SAINT'
_computing_structure_solution    'SHELXS-97 (Sheldrick, 1990)'
_computing_structure_refinement  Sir-97
_computing_molecular_graphics    ?
_computing_publication_material  ?


_refine_special_details          
;
 Refinement of F^2^ against ALL reflections.  The weighted R-factor wR and
 goodness of fit S are based on F^2^, conventional R-factors R are based
 on F, with F set to zero for negative F^2^. The threshold expression of
 F^2^ > 2sigma(F^2^) is used only for calculating R-factors(gt) etc. and is
 not relevant to the choice of reflections for refinement.  R-factors based
 on F^2^ are statistically about twice as large as those based on F, and R-
 factors based on ALL data will be even larger.
;

_refine_ls_structure_factor_coef Fsqd
_refine_ls_matrix_type           full
_refine_ls_weighting_scheme      calc
_refine_ls_weighting_details     
'calc w=1/[\s^2^(Fo^2^)+(0.2000P)^2^+0.0000P] where P=(Fo^2^+2Fc^2^)/3'
_atom_sites_solution_primary     direct
_atom_sites_solution_secondary   difmap
_atom_sites_solution_hydrogens   geom
_refine_ls_hydrogen_treatment    constr
_refine_ls_extinction_method     none
_refine_ls_extinction_coef       ?
_refine_ls_number_reflns         910
_refine_ls_number_parameters     39
_refine_ls_number_restraints     0
_refine_ls_R_factor_all          0.1858
_refine_ls_R_factor_gt           0.1482
_refine_ls_wR_factor_ref         0.4056
_refine_ls_wR_factor_gt          0.3869
_refine_ls_goodness_of_fit_ref   1.362
_refine_ls_restrained_S_all      1.362
_refine_ls_shift/su_max          0.000
_refine_ls_shift/su_mean         0.000

loop_
_atom_site_label
_atom_site_type_symbol
_atom_site_fract_x
_atom_site_fract_y
_atom_site_fract_z
_atom_site_U_iso_or_equiv
_atom_site_adp_type
_atom_site_occupancy
_atom_site_symmetry_multiplicity
_atom_site_calc_flag
_atom_site_refinement_flags
_atom_site_disorder_assembly
_atom_site_disorder_group
C1 C 0.2000(4) 0.3000(4) 0.0695(5) 0.071(4) Uani 1 2 d S . .
C2 C 0.1790(4) 0.3210(4) 0.1138(5) 0.072(4) Uani 1 2 d S . .
Fe1 Fe 0.21063(7) 0.21063(7) 0.0000 0.0630(13) Uani 1 4 d S . .
O1 O 0.1826(4) 0.2573(3) 0.0533(3) 0.094(3) Uani 1 1 d . . .
C3 C 0.1975(7) 0.3658(4) 0.1342(4) 0.088(5) Uani 1 2 d S . .
H3 H 0.2230 0.3825 0.1175 0.106 Uiso 1 2 calc SR . .
O1W O 0.1488(4) 0.1488(4) 0.0000 0.156(11) Uani 1 4 d S . .
Cl1 Cl 0.0000 0.434(3) 0.0000 1.000 Uiso 0.85 8 d SP . .
Cl2 Cl 0.055(3) 0.0000 0.0000 0.79(13) Uiso 0.85 8 d SP . .

loop_
_atom_site_aniso_label
_atom_site_aniso_U_11
_atom_site_aniso_U_22
_atom_site_aniso_U_33
_atom_site_aniso_U_23
_atom_site_aniso_U_13
_atom_site_aniso_U_12
C1 0.082(6) 0.082(6) 0.047(8) 0.009(5) -0.009(5) 0.018(8)
C2 0.072(6) 0.072(6) 0.072(9) -0.008(5) 0.008(5) 0.000(7)
Fe1 0.0757(16) 0.0757(16) 0.0376(15) 0.000 0.000 -0.0249(14)
O1 0.113(7) 0.102(6) 0.067(5) -0.026(4) 0.019(4) -0.018(5)
C3 0.113(14) 0.076(6) 0.076(6) 0.000(8) 0.021(7) -0.021(7)
O1W 0.089(9) 0.089(9) 0.29(3) 0.000 0.000 -0.057(11)

_geom_special_details            
;
 All esds (except the esd in the dihedral angle between two l.s. planes)
 are estimated using the full covariance matrix.  The cell esds are taken
 into account individually in the estimation of esds in distances, angles
 and torsion angles; correlations between esds in cell parameters are only
 used when they are defined by crystal symmetry.  An approximate (isotropic)
 treatment of cell esds is used for estimating esds involving l.s. planes.
;

loop_
_geom_bond_atom_site_label_1
_geom_bond_atom_site_label_2
_geom_bond_distance
_geom_bond_site_symmetry_2
_geom_bond_publ_flag
C1 O1 1.304(10) . ?
C1 O1 1.304(10) 187 ?
C1 C2 1.423(19) . ?
C2 C3 1.402(10) . ?
C2 C3 1.402(10) 38 ?
Fe1 O1 2.031(8) 116 ?
Fe1 O1 2.031(8) . ?
Fe1 O1 2.031(8) 19 ?
Fe1 O1 2.031(8) 99 ?
Fe1 O1W 2.331(15) . ?
Fe1 Fe1 2.970(6) 169 ?
C3 C2 1.402(10) 85 ?
Cl1 Cl1 2.49(10) 125 ?
Cl1 Cl1 2.49(10) 74 ?
Cl1 Cl1 2.49(10) 170_455 ?
Cl1 Cl1 2.49(10) 29_554 ?
Cl2 Cl2 2.07(13) 8 ?
Cl2 Cl2 2.07(13) 98 ?
Cl2 Cl2 2.07(13) 104 ?
Cl2 Cl2 2.07(13) 2 ?

loop_
_geom_angle_atom_site_label_1
_geom_angle_atom_site_label_2
_geom_angle_atom_site_label_3
_geom_angle
_geom_angle_site_symmetry_1
_geom_angle_site_symmetry_3
_geom_angle_publ_flag
O1 C1 O1 120.9(13) . 187 ?
O1 C1 C2 118.6(7) . . ?
O1 C1 C2 118.6(7) 187 . ?
C3 C2 C3 116.6(16) . 38 ?
C3 C2 C1 121.3(8) . . ?
C3 C2 C1 121.3(8) 38 . ?
O1 Fe1 O1 87.8(5) 116 . ?
O1 Fe1 O1 88.8(5) 116 19 ?
O1 Fe1 O1 160.1(5) . 19 ?
O1 Fe1 O1 160.1(5) 116 99 ?
O1 Fe1 O1 88.8(5) . 99 ?
O1 Fe1 O1 87.8(5) 19 99 ?
O1 Fe1 O1W 99.9(3) 116 . ?
O1 Fe1 O1W 99.9(3) . . ?
O1 Fe1 O1W 99.9(3) 19 . ?
O1 Fe1 O1W 99.9(3) 99 . ?
O1 Fe1 Fe1 80.1(3) 116 169 ?
O1 Fe1 Fe1 80.1(3) . 169 ?
O1 Fe1 Fe1 80.1(3) 19 169 ?
O1 Fe1 Fe1 80.1(3) 99 169 ?
O1W Fe1 Fe1 180.0(4) . 169 ?
C1 O1 Fe1 129.4(8) . . ?
C2 C3 C2 122.6(15) . 85 ?
Cl1 Cl1 Cl1 60.000(3) 125 74 ?
Cl1 Cl1 Cl1 60.0 125 170_455 ?
Cl1 Cl1 Cl1 90.000(2) 74 170_455 ?
Cl1 Cl1 Cl1 90.000(1) 125 29_554 ?
Cl1 Cl1 Cl1 60.0 74 29_554 ?
Cl1 Cl1 Cl1 60.000(1) 170_455 29_554 ?
Cl2 Cl2 Cl2 60.0 8 98 ?
Cl2 Cl2 Cl2 90.0 8 104 ?
Cl2 Cl2 Cl2 60.000(1) 98 104 ?
Cl2 Cl2 Cl2 60.0 8 2 ?
Cl2 Cl2 Cl2 90.0 98 2 ?
Cl2 Cl2 Cl2 60.0 104 2 ?

_diffrn_measured_fraction_theta_max 1.000
_diffrn_reflns_theta_full        25.08
_diffrn_measured_fraction_theta_full 1.000
_refine_diff_density_max         0.735
_refine_diff_density_min         -0.756
_refine_diff_density_rms         0.146

# SQUEEZE RESULTS 
loop_
_platon_squeeze_void_nr
_platon_squeeze_void_average_x
_platon_squeeze_void_average_y
_platon_squeeze_void_average_z
_platon_squeeze_void_volume
_platon_squeeze_void_count_electrons
1 0.195 -0.013 -0.010 10975.9 2109.4
_platon_squeeze_details          
;
;
