####################################################################### 
# 
# This file contains crystal structure data downloaded from the 
# Cambridge Structural Database (CSD) hosted by the Cambridge 
# Crystallographic Data Centre (CCDC).
# 
# Full information about CCDC data access policies and citation 
# guidelines are available at http://www.ccdc.cam.ac.uk/access/V1 
# 
# Audit and citation data items may have been added by the CCDC. 
# Please retain this information to preserve the provenance of 
# this file and to allow appropriate attribution of the data. 
# 
#######################################################################

data_zzz
_audit_block_doi                 10.5517/cc123jd3
_database_code_depnum_ccdc_archive 'CCDC 986494'
loop_
_citation_id
_citation_doi
_citation_year
1 10.1007/s10904-014-0029-9 2014
_audit_update_record             
;
2014-02-12 deposited with the CCDC.	2024-07-14 downloaded from the CCDC.
;

_audit_creation_method           SHELXL-97
_chemical_name_systematic        
; 
 ? 
;
_chemical_name_common            ?
_chemical_melting_point          ?
_chemical_formula_moiety         'C32 H16 Cd5 Mo12 N32 O70 P8, 10(H2 O)'
_chemical_formula_sum            'C32 H36 Cd5 Mo12 N32 O80 P8'
_chemical_formula_weight         4110.02

loop_
_atom_type_symbol
_atom_type_description
_atom_type_scat_dispersion_real
_atom_type_scat_dispersion_imag
_atom_type_scat_source
C C 0.0033 0.0016 'International Tables Vol C Tables 4.2.6.8 and 6.1.1.4'
H H 0.0000 0.0000 'International Tables Vol C Tables 4.2.6.8 and 6.1.1.4'
Cd Cd -0.8075 1.2024 'International Tables Vol C Tables 4.2.6.8 and 6.1.1.4'
Mo Mo -1.6832 0.6857 'International Tables Vol C Tables 4.2.6.8 and 6.1.1.4'
N N 0.0061 0.0033 'International Tables Vol C Tables 4.2.6.8 and 6.1.1.4'
O O 0.0106 0.0060 'International Tables Vol C Tables 4.2.6.8 and 6.1.1.4'
P P 0.1023 0.0942 'International Tables Vol C Tables 4.2.6.8 and 6.1.1.4'

_symmetry_cell_setting           triclinic
_symmetry_space_group_name_H-M   'P -1'
_symmetry_space_group_name_H     '-P 1'
loop_
_symmetry_equiv_pos_as_xyz
'x, y, z'
'-x, -y, -z'

_cell_length_a                   14.8533(7)
_cell_length_b                   15.2753(7)
_cell_length_c                   15.5992(7)
_cell_angle_alpha                92.2220(10)
_cell_angle_beta                 108.6170(10)
_cell_angle_gamma                106.8500(10)
_cell_volume                     3176.3(3)
_cell_formula_units_Z            1
_cell_measurement_temperature    293(2)
_cell_measurement_reflns_used    9940
_cell_measurement_theta_min      2.36
_cell_measurement_theta_max      28.28

_exptl_crystal_description       block
_exptl_crystal_colour            blue
_exptl_crystal_size_max          0.28
_exptl_crystal_size_mid          0.24
_exptl_crystal_size_min          0.20
_exptl_crystal_density_meas      0
_exptl_crystal_density_diffrn    2.149
_exptl_crystal_density_method    'not measured'
_exptl_crystal_F_000             1955
_exptl_absorpt_coefficient_mu    2.166
_exptl_absorpt_correction_type   multi-scan
_exptl_absorpt_correction_T_min  0.4113
_exptl_absorpt_correction_T_max  0.5076
_exptl_absorpt_process_details   ?

_exptl_special_details           
; 
 ? 
;

_diffrn_ambient_temperature      293(2)
_diffrn_radiation_wavelength     0.71073
_diffrn_radiation_type           MoK\a
_diffrn_radiation_source         'fine-focus sealed tube'
_diffrn_radiation_monochromator  graphite
_diffrn_measurement_device_type  'CCD area detector'
_diffrn_measurement_method       'phi and omega scans'
_diffrn_detector_area_resol_mean ?
_diffrn_standards_number         ?
_diffrn_standards_interval_count ?
_diffrn_standards_interval_time  ?
_diffrn_standards_decay_%        ?
_diffrn_reflns_number            27628
_diffrn_reflns_av_R_equivalents  0.0181
_diffrn_reflns_av_sigmaI/netI    0.0305
_diffrn_reflns_limit_h_min       -19
_diffrn_reflns_limit_h_max       19
_diffrn_reflns_limit_k_min       -20
_diffrn_reflns_limit_k_max       20
_diffrn_reflns_limit_l_min       -20
_diffrn_reflns_limit_l_max       20
_diffrn_reflns_theta_min         2.36
_diffrn_reflns_theta_max         28.29
_reflns_number_total             15731
_reflns_number_gt                12965
_reflns_threshold_expression     >2sigma(I)

_computing_data_collection       'Bruker SMART'
_computing_cell_refinement       'Bruker SMART'
_computing_data_reduction        'Bruker SMART'
_computing_structure_solution    'SHELXS-97 (Sheldrick, 1990)'
_computing_structure_refinement  'SHELXL-97 (Sheldrick, 1997)'
_computing_molecular_graphics    'Bruker SHELXTL'
_computing_publication_material  'Bruker SHELXTL'

_refine_special_details          
; 
 Refinement of F^2^ against ALL reflections.  The weighted R-factor wR and 
 goodness of fit S are based on F^2^, conventional R-factors R are based 
 on F, with F set to zero for negative F^2^. The threshold expression of 
 F^2^ > 2sigma(F^2^) is used only for calculating R-factors(gt) etc. and is 
 not relevant to the choice of reflections for refinement.  R-factors based 
 on F^2^ are statistically about twice as large as those based on F, and R- 
 factors based on ALL data will be even larger. 
;

_refine_ls_structure_factor_coef Fsqd
_refine_ls_matrix_type           full
_refine_ls_weighting_scheme      calc
_refine_ls_weighting_details     
'calc w=1/[\s^2^(Fo^2^)+(0.1273P)^2^+36.0109P] where P=(Fo^2^+2Fc^2^)/3'
_atom_sites_solution_primary     direct
_atom_sites_solution_secondary   difmap
_atom_sites_solution_hydrogens   geom
_refine_ls_hydrogen_treatment    constr
_refine_ls_extinction_method     none
_refine_ls_extinction_coef       ?
_refine_ls_number_reflns         15231
_refine_ls_number_parameters     763
_refine_ls_number_restraints     0
_refine_ls_R_factor_all          0.0481
_refine_ls_R_factor_gt           0.0389
_refine_ls_wR_factor_ref         0.1012
_refine_ls_wR_factor_gt          0.9762
_refine_ls_goodness_of_fit_ref   1.058
_refine_ls_restrained_S_all      1.058
_refine_ls_shift/su_max          0.001
_refine_ls_shift/su_mean         0.000

loop_
_atom_site_label
_atom_site_type_symbol
_atom_site_fract_x
_atom_site_fract_y
_atom_site_fract_z
_atom_site_U_iso_or_equiv
_atom_site_adp_type
_atom_site_occupancy
_atom_site_symmetry_multiplicity
_atom_site_calc_flag
_atom_site_refinement_flags
_atom_site_disorder_assembly
_atom_site_disorder_group
Cd1 Cd 0.0000 0.5000 0.0000 0.01803(16) Uani 1 2 d S . .
Cd2 Cd 0.23372(5) 0.15790(4) 0.07876(4) 0.02863(15) Uani 1 1 d . . .
Cd3 Cd 0.45350(6) 0.59007(5) 0.52907(5) 0.03899(18) Uani 1 1 d . . .
Mo1 Mo 0.23660(5) 0.45566(4) -0.02103(5) 0.02120(15) Uani 1 1 d . . .
Mo2 Mo -0.07753(5) 0.33525(4) 0.16619(4) 0.01999(14) Uani 1 1 d . . .
Mo3 Mo 0.27626(5) 0.52808(4) 0.14617(5) 0.02214(15) Uani 1 1 d . . .
Mo4 Mo 0.09484(5) 0.45987(4) 0.25443(4) 0.02093(14) Uani 1 1 d . . .
Mo5 Mo -0.13041(4) 0.23394(4) -0.05973(4) 0.01792(14) Uani 1 1 d . . .
Mo6 Mo 0.00289(5) 0.28442(4) -0.13837(4) 0.01880(14) Uani 1 1 d . . .
P1 P 0.11059(13) 0.30796(12) 0.09533(12) 0.0160(3) Uani 1 1 d . . .
P2 P 0.21906(16) 0.25044(15) -0.12043(15) 0.0270(4) Uani 1 1 d . . .
P3 P -0.17508(16) 0.10581(13) 0.09946(15) 0.0249(4) Uani 1 1 d . . .
P4 P 0.31948(18) 0.43697(17) 0.33796(16) 0.0337(5) Uani 1 1 d . . .
O1 O -0.0570(4) 0.3566(3) -0.0804(4) 0.0202(10) Uani 1 1 d . . .
O2 O 0.1595(4) 0.4009(3) 0.1608(4) 0.0196(10) Uani 1 1 d . . .
O3 O -0.0027(4) 0.2772(3) 0.0790(3) 0.0192(10) Uani 1 1 d . . .
O4 O 0.1923(4) 0.5697(4) 0.2168(4) 0.0248(11) Uani 1 1 d . . .
O5 O 0.1256(4) 0.3263(3) 0.0030(4) 0.0204(10) Uani 1 1 d . . .
O6 O -0.0463(4) 0.1712(4) -0.0928(4) 0.0231(10) Uani 1 1 d . . .
O7 O 0.1656(4) 0.5205(4) 0.0320(4) 0.0216(10) Uani 1 1 d . . .
O8 O 0.1065(4) 0.4141(4) -0.1380(4) 0.0220(10) Uani 1 1 d . . .
O9 O -0.2374(4) 0.2076(4) -0.1486(4) 0.0293(12) Uani 1 1 d . . .
O10 O 0.0085(4) 0.5459(3) -0.1357(4) 0.0205(10) Uani 1 1 d . . .
O11 O -0.1742(4) 0.3057(4) 0.0297(4) 0.0214(10) Uani 1 1 d . . .
O12 O -0.1752(5) 0.1220(4) 0.0042(4) 0.0287(12) Uani 1 1 d . . .
O13 O 0.1602(4) 0.2396(4) 0.1385(4) 0.0259(11) Uani 1 1 d . . .
O14 O 0.0378(4) 0.3320(4) 0.2669(4) 0.0269(11) Uani 1 1 d . . .
O15 O 0.3533(5) 0.4962(5) 0.2700(4) 0.0356(14) Uani 1 1 d . . .
O16 O 0.3237(4) 0.4396(4) 0.0952(4) 0.0261(11) Uani 1 1 d . . .
O17 O -0.1374(5) 0.1946(4) 0.1658(4) 0.0300(12) Uani 1 1 d . . .
O18 O 0.1064(4) 0.2278(4) -0.1575(4) 0.0315(13) Uani 1 1 d . . .
O19 O -0.0670(5) 0.2701(4) -0.2495(4) 0.0318(13) Uani 1 1 d . . .
O20 O 0.2271(5) 0.4536(4) 0.3502(4) 0.0317(13) Uani 1 1 d . . .
O21 O 0.0653(5) 0.5211(4) 0.3262(4) 0.0350(14) Uani 1 1 d . . .
O22 O 0.3798(5) 0.2906(5) 0.1515(5) 0.0417(16) Uani 1 1 d . . .
O23 O 0.0710(5) 0.0614(4) -0.0256(4) 0.0314(12) Uani 1 1 d . . .
O24 O 0.3585(5) 0.6315(4) 0.1528(5) 0.0365(14) Uani 1 1 d . . .
O25 O 0.3084(5) 0.5420(4) -0.0575(5) 0.0373(14) Uani 1 1 d . . .
O26 O 0.4050(5) 0.4566(5) 0.4281(4) 0.0385(15) Uani 1 1 d . . .
O27 O -0.1525(5) 0.3655(4) 0.2139(4) 0.0331(13) Uani 1 1 d . . .
O28 O -0.2838(5) 0.0517(4) 0.0947(5) 0.0396(15) Uani 1 1 d . . .
O29 O 0.2719(5) 0.3529(4) -0.0810(5) 0.0339(14) Uani 1 1 d . . .
O30 O 0.2520(6) 0.2329(5) -0.2037(5) 0.0439(16) Uani 1 1 d . . .
O31 O -0.1142(5) 0.0426(5) 0.1388(5) 0.0376(14) Uani 1 1 d . . .
O32 O 0.2534(5) 0.1901(5) -0.0506(5) 0.0389(15) Uani 1 1 d . . .
O33 O 0.2952(6) 0.3318(5) 0.3057(5) 0.0448(17) Uani 1 1 d . . .
O34 O 0.5230(9) 0.7088(8) 0.6502(7) 0.088(4) Uani 1 1 d . . .
O35 O 0.3580(11) 0.5084(9) 0.6060(10) 0.099(4) Uani 1 1 d . . .
N1 N 0.3565(6) 0.0816(5) 0.1191(5) 0.0306(15) Uani 1 1 d . . .
N2 N 0.2005(6) 0.0583(5) 0.1825(5) 0.0331(15) Uani 1 1 d . . .
N3 N 0.3347(7) 0.6678(6) 0.4615(6) 0.0398(18) Uani 1 1 d . . .
N4 N 0.5737(6) 0.1354(7) 0.0392(8) 0.051(2) Uani 1 1 d . . .
N5 N 0.4125(6) -0.0187(6) 0.2033(6) 0.0400(18) Uani 1 1 d . . .
N6 N 0.4735(7) 0.0161(6) 0.1552(7) 0.044(2) Uani 1 1 d . . .
N7 N 0.5095(8) 0.6814(7) 0.4267(7) 0.050(2) Uani 1 1 d . . .
N8 N 0.4497(9) 0.1897(9) 0.0027(10) 0.076(4) Uani 1 1 d . . .
N9 N 0.1947(9) 0.5705(9) 0.5604(8) 0.066(3) Uani 1 1 d . . .
N10 N 0.3052(9) 0.7760(9) 0.3742(9) 0.073(4) Uani 1 1 d . . .
N11 N 0.2340(9) 0.7456(10) 0.4105(10) 0.079(4) Uani 1 1 d . . .
N12 N 0.5150(11) 0.2369(10) -0.0363(13) 0.092(5) Uani 1 1 d . . .
N13 N 0.1069(10) 0.6715(12) 0.5122(10) 0.084(4) Uani 1 1 d . . .
N14 N 0.0706(14) 0.6190(17) 0.5665(15) 0.124(7) Uani 1 1 d . . .
N15 N 0.5610(11) 0.7912(9) 0.3001(10) 0.077(4) Uani 1 1 d . . .
N16 N 0.1684(9) -0.0604(6) 0.3068(7) 0.052(2) Uani 1 1 d . . .
C1 C 0.3443(7) 0.0221(5) 0.1788(6) 0.0297(17) Uani 1 1 d . . .
C2 C 0.2616(7) 0.0082(6) 0.2147(6) 0.0326(18) Uani 1 1 d . . .
C3 C 0.4394(7) 0.0765(6) 0.1065(7) 0.0349(19) Uani 1 1 d . . .
C4 C 0.3633(9) 0.7254(7) 0.4067(7) 0.045(2) Uani 1 1 d . . .
C5 C 0.2470(8) -0.0509(6) 0.2768(6) 0.038(2) Uani 1 1 d . . .
H5 H 0.2908 -0.0844 0.2984 0.046 Uiso 1 1 calc R . .
C6 C 0.4881(8) 0.1331(7) 0.0499(8) 0.042(2) Uani 1 1 d . . .
C7 C 0.1237(9) 0.0482(8) 0.2128(8) 0.047(2) Uani 1 1 d . . .
H7 H 0.0791 0.0810 0.1919 0.057 Uiso 1 1 calc R . .
C8 C 0.4525(9) 0.7323(7) 0.3839(7) 0.045(2) Uani 1 1 d . . .
C9 C 0.1853(9) 0.6428(10) 0.5111(8) 0.057(3) Uani 1 1 d . . .
C10 C 0.2501(9) 0.6814(9) 0.4629(8) 0.051(3) Uani 1 1 d . . .
C11 C 0.1114(11) -0.0129(9) 0.2769(9) 0.058(3) Uani 1 1 d . . .
H11 H 0.0585 -0.0185 0.2981 0.070 Uiso 1 1 calc R . .
C12 C 0.5873(10) 0.2022(9) -0.0130(11) 0.061(3) Uani 1 1 d . . .
H12 H 0.6432 0.2215 -0.0308 0.073 Uiso 1 1 calc R . .
C13 C 0.4794(12) 0.7864(9) 0.3197(9) 0.063(3) Uani 1 1 d . . .
H13 H 0.4385 0.8200 0.2899 0.076 Uiso 1 1 calc R . .
C14 C 0.5926(13) 0.6861(10) 0.4079(11) 0.069(4) Uani 1 1 d . . .
H14 H 0.6345 0.6534 0.4376 0.083 Uiso 1 1 calc R . .
C15 C 0.1175(11) 0.5588(14) 0.5915(10) 0.074(4) Uani 1 1 d . . .
H15 H 0.0999 0.5134 0.6266 0.088 Uiso 1 1 calc R . .
C16 C 0.6163(17) 0.7422(13) 0.3413(16) 0.101(7) Uani 1 1 d . . .
H16 H 0.6729 0.7437 0.3271 0.121 Uiso 1 1 calc R . .
O1W O 0.8868(10) 0.1742(9) 0.5875(9) 0.128(7) Uani 1 1 d . . .
H1WA H 0.9492 0.2003 0.5992 0.192 Uiso 1 1 d R . .
H1WB H 0.8675 0.1997 0.6246 0.192 Uiso 1 1 d R . .
O2W O 0.3887(10) 0.0686(9) 0.8075(11) 0.106(5) Uani 1 1 d . . .
H2WA H 0.3348 0.0312 0.8097 0.160 Uiso 1 1 d R . .
H2WB H 0.4387 0.0585 0.8458 0.160 Uiso 1 1 d R . .
O3W O 0.5289(8) 0.5805(9) 0.0710(10) 0.100(4) Uani 1 1 d . . .
H3WA H 0.4904 0.5891 0.0208 0.149 Uiso 1 1 d R . .
H3WB H 0.5862 0.5867 0.0674 0.149 Uiso 1 1 d R . .
O4W O 0.8612(12) 0.0415(10) 0.4063(14) 0.136(7) Uani 1 1 d . . .
H4WA H 0.8939 0.0494 0.3698 0.204 Uiso 1 1 d R . .
H4WB H 0.9001 0.0408 0.4596 0.204 Uiso 1 1 d R . .
O5W O 0.565(3) 0.460(5) 0.215(3) 0.83(9) Uani 1 1 d . . .
H5WA H 0.6027 0.4780 0.1836 1.239 Uiso 1 1 d R . .
H5WB H 0.5137 0.4777 0.1951 1.239 Uiso 1 1 d R . .

loop_
_atom_site_aniso_label
_atom_site_aniso_U_11
_atom_site_aniso_U_22
_atom_site_aniso_U_33
_atom_site_aniso_U_23
_atom_site_aniso_U_13
_atom_site_aniso_U_12
Cd1 0.0162(3) 0.0140(3) 0.0218(3) 0.0023(2) 0.0032(3) 0.0056(2)
Cd2 0.0260(3) 0.0252(3) 0.0375(3) 0.0068(2) 0.0093(2) 0.0138(2)
Cd3 0.0449(4) 0.0387(4) 0.0381(4) 0.0105(3) 0.0131(3) 0.0210(3)
Mo1 0.0152(3) 0.0187(3) 0.0303(3) 0.0064(2) 0.0076(2) 0.0064(2)
Mo2 0.0213(3) 0.0166(3) 0.0236(3) 0.0040(2) 0.0087(2) 0.0070(2)
Mo3 0.0144(3) 0.0172(3) 0.0286(3) 0.0032(2) 0.0006(2) 0.0036(2)
Mo4 0.0224(3) 0.0192(3) 0.0194(3) 0.0019(2) 0.0027(2) 0.0092(2)
Mo5 0.0147(3) 0.0128(3) 0.0234(3) 0.0012(2) 0.0034(2) 0.0039(2)
Mo6 0.0179(3) 0.0166(3) 0.0212(3) 0.0015(2) 0.0044(2) 0.0073(2)
P1 0.0129(7) 0.0130(7) 0.0208(8) 0.0026(6) 0.0028(6) 0.0058(6)
P2 0.0263(10) 0.0295(10) 0.0325(10) 0.0067(8) 0.0132(8) 0.0158(8)
P3 0.0237(9) 0.0160(8) 0.0376(11) 0.0071(7) 0.0137(8) 0.0064(7)
P4 0.0290(11) 0.0332(11) 0.0300(11) 0.0036(9) -0.0040(9) 0.0126(9)
O1 0.020(2) 0.012(2) 0.026(3) 0.0014(18) 0.005(2) 0.0056(18)
O2 0.016(2) 0.016(2) 0.024(2) 0.0026(19) 0.0034(19) 0.0045(18)
O3 0.015(2) 0.018(2) 0.022(2) 0.0030(18) 0.0038(19) 0.0031(18)
O4 0.026(3) 0.016(2) 0.026(3) -0.001(2) 0.004(2) 0.004(2)
O5 0.015(2) 0.019(2) 0.027(3) 0.0030(19) 0.008(2) 0.0032(18)
O6 0.025(3) 0.017(2) 0.029(3) 0.004(2) 0.009(2) 0.010(2)
O7 0.015(2) 0.019(2) 0.027(3) 0.0030(19) 0.002(2) 0.0050(19)
O8 0.018(2) 0.024(3) 0.022(2) 0.003(2) 0.005(2) 0.006(2)
O9 0.021(3) 0.024(3) 0.036(3) 0.000(2) 0.003(2) 0.005(2)
O10 0.019(2) 0.017(2) 0.023(2) 0.0044(19) 0.003(2) 0.0061(19)
O11 0.016(2) 0.020(2) 0.026(3) 0.002(2) 0.003(2) 0.0078(19)
O12 0.031(3) 0.018(2) 0.033(3) 0.006(2) 0.010(2) 0.002(2)
O13 0.026(3) 0.024(3) 0.031(3) 0.009(2) 0.006(2) 0.017(2)
O14 0.029(3) 0.023(3) 0.028(3) 0.007(2) 0.006(2) 0.011(2)
O15 0.023(3) 0.039(3) 0.035(3) 0.009(3) -0.001(2) 0.007(3)
O16 0.016(2) 0.023(3) 0.035(3) 0.006(2) 0.001(2) 0.009(2)
O17 0.039(3) 0.019(3) 0.033(3) 0.007(2) 0.017(3) 0.005(2)
O18 0.026(3) 0.031(3) 0.039(3) -0.005(2) 0.011(3) 0.013(2)
O19 0.036(3) 0.029(3) 0.025(3) 0.003(2) 0.005(2) 0.009(3)
O20 0.029(3) 0.037(3) 0.023(3) 0.004(2) -0.003(2) 0.016(3)
O21 0.042(4) 0.035(3) 0.029(3) -0.002(2) 0.011(3) 0.015(3)
O22 0.030(3) 0.032(3) 0.055(4) 0.002(3) 0.004(3) 0.011(3)
O23 0.028(3) 0.028(3) 0.038(3) 0.005(2) 0.008(3) 0.011(2)
O24 0.027(3) 0.022(3) 0.049(4) 0.004(3) 0.008(3) -0.002(2)
O25 0.030(3) 0.033(3) 0.053(4) 0.016(3) 0.019(3) 0.009(3)
O26 0.034(3) 0.036(3) 0.032(3) 0.001(3) -0.010(3) 0.016(3)
O27 0.035(3) 0.034(3) 0.039(3) 0.004(3) 0.020(3) 0.015(3)
O28 0.028(3) 0.030(3) 0.064(5) 0.014(3) 0.025(3) 0.003(3)
O29 0.030(3) 0.030(3) 0.051(4) 0.004(3) 0.021(3) 0.015(3)
O30 0.049(4) 0.050(4) 0.048(4) 0.007(3) 0.030(3) 0.024(3)
O31 0.042(4) 0.038(3) 0.043(4) 0.013(3) 0.015(3) 0.028(3)
O32 0.037(4) 0.041(4) 0.050(4) 0.016(3) 0.020(3) 0.022(3)
O33 0.042(4) 0.036(3) 0.045(4) -0.001(3) -0.007(3) 0.019(3)
O34 0.097(8) 0.087(8) 0.065(6) -0.015(5) -0.018(6) 0.062(7)
O35 0.122(11) 0.088(8) 0.129(11) 0.051(8) 0.079(10) 0.049(8)
N1 0.029(4) 0.027(3) 0.036(4) 0.007(3) 0.007(3) 0.015(3)
N2 0.034(4) 0.030(4) 0.033(4) 0.006(3) 0.010(3) 0.010(3)
N3 0.049(5) 0.036(4) 0.032(4) 0.008(3) 0.005(4) 0.019(4)
N4 0.025(4) 0.050(5) 0.087(7) 0.016(5) 0.025(4) 0.017(4)
N5 0.033(4) 0.032(4) 0.048(5) 0.009(3) 0.004(4) 0.011(3)
N6 0.036(4) 0.035(4) 0.060(6) 0.014(4) 0.008(4) 0.021(4)
N7 0.063(6) 0.042(5) 0.051(5) 0.018(4) 0.025(5) 0.019(4)
N8 0.058(7) 0.090(9) 0.127(11) 0.078(8) 0.062(7) 0.050(6)
N9 0.062(7) 0.087(8) 0.052(6) 0.014(6) 0.024(5) 0.024(6)
N10 0.055(7) 0.084(8) 0.079(8) 0.043(7) 0.007(6) 0.034(6)
N11 0.044(6) 0.084(9) 0.096(10) 0.037(7) -0.004(6) 0.032(6)
N12 0.078(9) 0.090(9) 0.167(15) 0.080(10) 0.091(10) 0.052(8)
N13 0.058(8) 0.115(12) 0.079(9) -0.007(8) 0.012(7) 0.043(8)
N14 0.088(12) 0.17(2) 0.126(15) -0.019(14) 0.059(12) 0.047(13)
N15 0.094(10) 0.058(7) 0.085(9) 0.036(6) 0.050(8) 0.011(7)
N16 0.068(7) 0.036(5) 0.049(5) 0.001(4) 0.026(5) 0.005(4)
C1 0.030(4) 0.020(3) 0.036(4) 0.004(3) 0.005(3) 0.011(3)
C2 0.038(5) 0.020(4) 0.035(4) 0.001(3) 0.006(4) 0.010(3)
C3 0.030(4) 0.028(4) 0.048(5) 0.008(4) 0.010(4) 0.015(3)
C4 0.053(6) 0.034(5) 0.037(5) 0.005(4) 0.000(4) 0.016(4)
C5 0.052(6) 0.029(4) 0.031(4) 0.004(3) 0.009(4) 0.013(4)
C6 0.033(5) 0.044(5) 0.059(6) 0.018(5) 0.019(5) 0.022(4)
C7 0.042(6) 0.047(6) 0.055(6) 0.008(5) 0.016(5) 0.017(5)
C8 0.058(7) 0.034(5) 0.038(5) 0.008(4) 0.016(5) 0.007(4)
C9 0.042(6) 0.080(9) 0.042(6) -0.007(6) 0.010(5) 0.017(6)
C10 0.043(6) 0.056(7) 0.044(6) -0.002(5) -0.006(5) 0.025(5)
C11 0.061(8) 0.048(6) 0.064(8) 0.002(6) 0.036(6) 0.001(6)
C12 0.044(6) 0.060(7) 0.097(10) 0.029(7) 0.038(7) 0.025(6)
C13 0.086(10) 0.047(7) 0.057(7) 0.024(6) 0.024(7) 0.019(7)
C14 0.091(11) 0.056(7) 0.092(11) 0.034(7) 0.059(9) 0.038(7)
C15 0.056(8) 0.114(13) 0.052(7) 0.002(8) 0.031(7) 0.016(8)
C16 0.138(17) 0.084(12) 0.152(18) 0.069(12) 0.115(16) 0.061(12)
O1W 0.097(9) 0.092(8) 0.101(9) 0.068(7) -0.047(7) -0.026(7)
O2W 0.098(9) 0.116(10) 0.181(14) 0.1