
#######################################################################
#
#                 Cambridge Crystallographic Data Centre
#                                CCDC
#
#######################################################################
#
# If this CIF has been generated from an entry in the Cambridge
# Structural Database, then it will include bibliographic, chemical,
# crystal, experimental, refinement or atomic coordinate data resulting
# from the CCDC's data processing and validation procedures.
#
#######################################################################

data_CSD_CIF_ZOSXEK01
_audit_creation_date 1998-11-26
_audit_creation_method CSD-ConQuest-V1
_database_code_CSD ZOSXEK01
_database_code_depnum_ccdc_archive 'CCDC 117090; CCDC 101029'
_chemical_formula_sum 'C6 H18 W1'
_chemical_formula_moiety
;
C6 H18 W1
;
_journal_coden_Cambridge 1220
_journal_volume 4
_journal_year 1998
_journal_page_first 1687
_journal_name_full 'Chem.-Eur.J. '
loop_
_publ_author_name
"S.Kleinhenz"
"V.Pfennig"
"K.Seppelt"
_chemical_name_systematic
;
Hexamethyl-tungsten
;
_chemical_name_common
;
Teaching Subset: Fundamental Chemistry
;
_cell_volume   1736.068
_exptl_crystal_colour 'red-brown'
_exptl_crystal_density_diffrn 2.097
_exptl_crystal_description 'needle'
_exptl_crystal_preparation 'acetone'
_diffrn_ambient_temperature 115
#These two values have been output from a single CSD field.
_refine_ls_R_factor_gt 0.0489
_refine_ls_wR_factor_gt 0.0489
_symmetry_cell_setting orthorhombic
_symmetry_space_group_name_H-M 'P b c 21'
_symmetry_Int_Tables_number 29
loop_
_symmetry_equiv_pos_site_id
_symmetry_equiv_pos_as_xyz
1 x,y,z
2 -x,-y,1/2+z
3 -x,1/2+y,z
4 x,1/2-y,1/2+z
_cell_length_a 6.309(4)
_cell_length_b 13.158(2)
_cell_length_c 20.913(1)
_cell_angle_alpha 90
_cell_angle_beta 90
_cell_angle_gamma 90
_cell_formula_units_Z 8
loop_
_atom_type_symbol
_atom_type_radius_bond
C 0.68
H 0.23
W 1.37
loop_
_atom_site_label
_atom_site_type_symbol
_atom_site_fract_x
_atom_site_fract_y
_atom_site_fract_z
W1 W 0.41955(5) 0.28818(3) 0.24999(3)
C1 C 0.1840(19) 0.1752(9) 0.2608(6)
H1 H 0.04020 0.19030 0.27240
H2 H 0.22790 0.11360 0.28170
H3 H 0.19360 0.16670 0.21530
C2 C 0.6033(18) 0.2065(11) 0.1837(7)
H4 H 0.73540 0.22940 0.16610
H5 H 0.49990 0.20080 0.15020
H6 H 0.62310 0.14140 0.20350
C3 C 0.593(2) 0.2435(13) 0.3326(7)
H7 H 0.52710 0.24360 0.37390
H8 H 0.72370 0.28110 0.33460
H9 H 0.62250 0.17480 0.31990
C4 C 0.1203(16) 0.3730(9) 0.2403(7)
H10 H 0.12150 0.44580 0.23700
H11 H 0.04280 0.35320 0.27780
H12 H 0.05370 0.34460 0.20310
C5 C 0.480(2) 0.4298(11) 0.3009(6)
H13 H 0.41940 0.41630 0.34210
H14 H 0.41730 0.49020 0.28330
H15 H 0.63000 0.43920 0.30510
C6 C 0.487(2) 0.3999(12) 0.1749(6)
H16 H 0.40810 0.46230 0.17620
H17 H 0.46460 0.36730 0.13430
H18 H 0.63470 0.41400 0.18040
W2 W 1.16515(5) 1.02976(3) 0.99443(3)
C7 C 1.3989(19) 0.9179(10) 0.9804(7)
H19 H 1.45610 0.89730 1.02090
H20 H 1.51030 0.94510 0.95420
H21 H 1.33670 0.86020 0.95940
C8 C 0.993(2) 0.9885(11) 0.9136(6)
H22 H 1.04700 1.00800 0.87240
H23 H 0.85930 1.02140 0.92080
H24 H 0.97380 0.91610 0.91470
C9 C 0.988(2) 0.9430(12) 1.0593(6)
H25 H 0.84310 0.95690 1.07030
H26 H 1.07450 0.94740 1.09700
H27 H 0.99840 0.87590 1.04160
C10 C 1.4610(16) 1.1149(9) 1.0035(6)
H28 H 1.55740 1.08830 1.03490
H29 H 1.45420 1.18750 1.00740
H30 H 1.50990 1.09730 0.96150
C11 C 1.108(2) 1.1316(13) 1.0746(7)
H31 H 1.14400 1.20210 1.06970
H32 H 1.15370 1.10840 1.11590
H33 H 0.95730 1.12350 1.07100
C12 C 1.095(2) 1.1752(11) 0.9494(7)
H34 H 1.16110 1.23650 0.96430
H35 H 0.94710 1.17620 0.96040
H36 H 1.10990 1.17040 0.90380
#END
