####################################################################### 
# 
# This file contains crystal structure data downloaded from the 
# Cambridge Structural Database (CSD) hosted by the Cambridge 
# Crystallographic Data Centre (CCDC).
# 
# Full information about CCDC data access policies and citation 
# guidelines are available at http://www.ccdc.cam.ac.uk/access/V1 
# 
# Audit and citation data items may have been added by the CCDC. 
# Please retain this information to preserve the provenance of 
# this file and to allow appropriate attribution of the data. 
# 
#######################################################################

data_compound_1
_audit_block_doi                 10.5517/cc133wps
_database_code_depnum_ccdc_archive 'CCDC 1016635'
loop_
_citation_id
_citation_doi
_citation_year
1 10.1002/chem.201405395 2015
_audit_update_record             
;
2014-07-28 deposited with the CCDC.	2024-07-14 downloaded from the CCDC.
;

_audit_creation_method           SHELXL-97
_chemical_name_systematic        
;
 ?
;
_chemical_name_common            ?
_chemical_melting_point          ?
_chemical_formula_moiety         'C28 H18 Cd N8 O4'
_chemical_formula_sum            'C28 H18 Cd N8 O4'
_chemical_formula_weight         642.91

loop_
_atom_type_symbol
_atom_type_description
_atom_type_scat_dispersion_real
_atom_type_scat_dispersion_imag
_atom_type_scat_source
C C 0.0033 0.0016 'International Tables Vol C Tables 4.2.6.8 and 6.1.1.4'
H H 0.0000 0.0000 'International Tables Vol C Tables 4.2.6.8 and 6.1.1.4'
Cd Cd -0.8075 1.2024 'International Tables Vol C Tables 4.2.6.8 and 6.1.1.4'
N N 0.0061 0.0033 'International Tables Vol C Tables 4.2.6.8 and 6.1.1.4'
O O 0.0106 0.0060 'International Tables Vol C Tables 4.2.6.8 and 6.1.1.4'

_symmetry_cell_setting           orthorhombic
_symmetry_space_group_name_H-M   'F ddd'
_symmetry_Int_Tables_number      70
_symmetry_space_group_name_Hall  '-F 2uv 2vw'

loop_
_symmetry_equiv_pos_as_xyz
'x, y, z'
'-x+1/4, -y+1/4, z'
'x, -y+1/4, -z+1/4'
'-x+1/4, y, -z+1/4'
'x, y+1/2, z+1/2'
'-x+1/4, -y+3/4, z+1/2'
'x, -y+3/4, -z+3/4'
'-x+1/4, y+1/2, -z+3/4'
'x+1/2, y, z+1/2'
'-x+3/4, -y+1/4, z+1/2'
'x+1/2, -y+1/4, -z+3/4'
'-x+3/4, y, -z+3/4'
'x+1/2, y+1/2, z'
'-x+3/4, -y+3/4, z'
'x+1/2, -y+3/4, -z+1/4'
'-x+3/4, y+1/2, -z+1/4'
'-x, -y, -z'
'x-1/4, y-1/4, -z'
'-x, y-1/4, z-1/4'
'x-1/4, -y, z-1/4'
'-x, -y+1/2, -z+1/2'
'x-1/4, y+1/4, -z+1/2'
'-x, y+1/4, z+1/4'
'x-1/4, -y+1/2, z+1/4'
'-x+1/2, -y, -z+1/2'
'x+1/4, y-1/4, -z+1/2'
'-x+1/2, y-1/4, z+1/4'
'x+1/4, -y, z+1/4'
'-x+1/2, -y+1/2, -z'
'x+1/4, y+1/4, -z'
'-x+1/2, y+1/4, z-1/4'
'x+1/4, -y+1/2, z-1/4'

_cell_length_a                   16.5421(15)
_cell_length_b                   23.4933(16)
_cell_length_c                   40.781(2)
_cell_angle_alpha                90.00
_cell_angle_beta                 90.00
_cell_angle_gamma                90.00
_cell_volume                     15848(2)
_cell_formula_units_Z            16
_cell_measurement_temperature    180(2)
_cell_measurement_reflns_used    23317
_cell_measurement_theta_min      1.65
_cell_measurement_theta_max      25.00

_exptl_crystal_description       block
_exptl_crystal_colour            colourless
_exptl_crystal_size_max          1.06
_exptl_crystal_size_mid          0.97
_exptl_crystal_size_min          0.69
_exptl_crystal_density_meas      ?
_exptl_crystal_density_diffrn    1.078
_exptl_crystal_density_method    'not measured'
_exptl_crystal_F_000             5408
_exptl_absorpt_coefficient_mu    0.586
_exptl_absorpt_correction_type   numerical
_exptl_absorpt_correction_T_min  0.5544
_exptl_absorpt_correction_T_max  0.7148
_exptl_absorpt_process_details   'STOE X-Red'

_exptl_special_details           
;
 ?
;

_diffrn_ambient_temperature      180(2)
_diffrn_radiation_wavelength     0.71073
_diffrn_radiation_type           MoK\a
_diffrn_radiation_source         'fine-focus sealed tube'
_diffrn_radiation_monochromator  graphite
_diffrn_measurement_device_type  'STOE IPDS-I'
_diffrn_measurement_method       '\w scans'
_diffrn_detector_area_resol_mean 6.67
_diffrn_standards_number         none
_diffrn_standards_interval_count ?
_diffrn_standards_interval_time  ?
_diffrn_standards_decay_%        ?
_diffrn_reflns_number            14289
_diffrn_reflns_av_R_equivalents  0.0386
_diffrn_reflns_av_sigmaI/netI    0.0245
_diffrn_reflns_limit_h_min       -16
_diffrn_reflns_limit_h_max       19
_diffrn_reflns_limit_k_min       -27
_diffrn_reflns_limit_k_max       27
_diffrn_reflns_limit_l_min       -45
_diffrn_reflns_limit_l_max       47
_diffrn_reflns_theta_min         1.65
_diffrn_reflns_theta_max         25.00
_reflns_number_total             3468
_reflns_number_gt                3008
_reflns_threshold_expression     >2sigma(I)

_computing_data_collection       'STOE X-AREA'
_computing_cell_refinement       'STOE X-AREA'
_computing_data_reduction        'STOE X-AREA, STOE X-RED'
_computing_structure_solution    'SHELXS-97 Sheldrick'
_computing_structure_refinement  'SHELXL-97 Sheldrick'
_computing_molecular_graphics    'DIAMOND 3.2'
_computing_publication_material  'WinGX publication routines (Farrugia, 1999)'

_refine_special_details          
;
 Refinement of F^2^ against ALL reflections.  The weighted R-factor wR and
 goodness of fit S are based on F^2^, conventional R-factors R are based
 on F, with F set to zero for negative F^2^. The threshold expression of
 F^2^ > 2sigma(F^2^) is used only for calculating R-factors(gt) etc. and is
 not relevant to the choice of reflections for refinement.  R-factors based
 on F^2^ are statistically about twice as large as those based on F, and R-
 factors based on ALL data will be even larger.
;

_refine_ls_structure_factor_coef Fsqd
_refine_ls_matrix_type           full
_refine_ls_weighting_scheme      calc
_refine_ls_weighting_details     
'calc w=1/[\s^2^(Fo^2^)+(0.0843P)^2^+2.3941P] where P=(Fo^2^+2Fc^2^)/3'
_atom_sites_solution_primary     direct
_atom_sites_solution_secondary   difmap
_atom_sites_solution_hydrogens   geom
_refine_ls_hydrogen_treatment    constr
_refine_ls_extinction_method     none
_refine_ls_extinction_coef       ?
_refine_ls_number_reflns         3468
_refine_ls_number_parameters     186
_refine_ls_number_restraints     0
_refine_ls_R_factor_all          0.0395
_refine_ls_R_factor_gt           0.0357
_refine_ls_wR_factor_ref         0.1131
_refine_ls_wR_factor_gt          0.1115
_refine_ls_goodness_of_fit_ref   1.078
_refine_ls_restrained_S_all      1.078
_refine_ls_shift/su_max          0.000
_refine_ls_shift/su_mean         0.000

loop_
_atom_site_label
_atom_site_type_symbol
_atom_site_fract_x
_atom_site_fract_y
_atom_site_fract_z
_atom_site_U_iso_or_equiv
_atom_site_adp_type
_atom_site_occupancy
_atom_site_symmetry_multiplicity
_atom_site_calc_flag
_atom_site_refinement_flags
_atom_site_disorder_assembly
_atom_site_disorder_group
C1 C 0.2932(2) 0.30915(17) 0.12169(8) 0.0664(9) Uani 1 1 d . . .
C2 C 0.24505(19) 0.28580(13) 0.15048(7) 0.0601(7) Uani 1 1 d . . .
C3 C 0.2697(2) 0.23656(16) 0.16596(10) 0.0800(11) Uani 1 1 d . . .
H3 H 0.3177 0.2179 0.1589 0.096 Uiso 1 1 calc R . .
C4 C 0.2252(2) 0.21402(15) 0.19164(10) 0.0809(11) Uani 1 1 d . . .
H4 H 0.2418 0.1799 0.2021 0.097 Uiso 1 1 calc R . .
C5 C 0.15627(19) 0.24217(13) 0.20172(7) 0.0573(7) Uani 1 1 d . . .
C6 C 0.13215(19) 0.29232(15) 0.18729(9) 0.0647(8) Uani 1 1 d . . .
H6 H 0.0855 0.3120 0.1948 0.078 Uiso 1 1 calc R . .
C7 C 0.1778(2) 0.31347(14) 0.16141(8) 0.0653(8) Uani 1 1 d . . .
H7 H 0.1617 0.3479 0.1511 0.078 Uiso 1 1 calc R . .
C8 C 0.03486(18) 0.19328(13) 0.22495(8) 0.0611(7) Uani 1 1 d . . .
H8 H 0.0041 0.1932 0.2053 0.073 Uiso 1 1 calc R . .
C9 C 0.13047(16) 0.20830(11) 0.26040(7) 0.0499(6) Uani 1 1 d . . .
C10 C 0.20447(17) 0.22652(12) 0.27717(7) 0.0544(7) Uani 1 1 d . . .
C11 C 0.2504(3) 0.27283(16) 0.26793(10) 0.0862(11) Uani 1 1 d . . .
H11 H 0.2357 0.2952 0.2495 0.103 Uiso 1 1 calc R . .
C12 C 0.3184(3) 0.2860(2) 0.28618(14) 0.1136(18) Uani 1 1 d . . .
H12 H 0.3522 0.3169 0.2800 0.136 Uiso 1 1 calc R . .
C13 C 0.3361(3) 0.2543(2) 0.31312(13) 0.1020(14) Uani 1 1 d . . .
H13 H 0.3822 0.2631 0.3261 0.122 Uiso 1 1 calc R . .
C14 C 0.2869(2) 0.20929(17) 0.32146(9) 0.0742(9) Uani 1 1 d . . .
H14 H 0.2997 0.1877 0.3405 0.089 Uiso 1 1 calc R . .
Cd1 Cd 0.3750 0.3750 0.072699(6) 0.04190(14) Uani 1 2 d S . .
N3 N 0.07226(14) 0.17977(9) 0.27498(6) 0.0504(5) Uani 1 1 d . . .
N2 N 0.01165(15) 0.16963(11) 0.25251(6) 0.0575(6) Uani 1 1 d . . .
N1 N 0.10873(15) 0.21789(10) 0.22823(6) 0.0544(6) Uani 1 1 d . . .
N4 N 0.22198(14) 0.19473(10) 0.30396(6) 0.0528(5) Uani 1 1 d . . .
O1 O 0.27669(16) 0.35726(11) 0.11152(6) 0.0767(7) Uani 1 1 d . . .
O2 O 0.3481(2) 0.27996(14) 0.10958(8) 0.1054(11) Uani 1 1 d . . .

loop_
_atom_site_aniso_label
_atom_site_aniso_U_11
_atom_site_aniso_U_22
_atom_site_aniso_U_33
_atom_site_aniso_U_23
_atom_site_aniso_U_13
_atom_site_aniso_U_12
C1 0.075(2) 0.085(2) 0.0400(18) 0.0105(15) 0.0113(14) -0.0087(17)
C2 0.0694(18) 0.0672(17) 0.0438(17) 0.0152(13) 0.0120(13) 0.0021(14)
C3 0.085(2) 0.083(2) 0.072(2) 0.0240(18) 0.0340(19) 0.0263(18)
C4 0.099(3) 0.072(2) 0.072(2) 0.0299(18) 0.035(2) 0.0303(19)
C5 0.0670(16) 0.0647(16) 0.0402(16) 0.0169(12) 0.0140(13) 0.0078(14)
C6 0.0690(19) 0.0751(19) 0.0500(19) 0.0223(16) 0.0147(14) 0.0212(15)
C7 0.077(2) 0.0721(18) 0.0469(18) 0.0251(14) 0.0103(14) 0.0168(15)
C8 0.0629(17) 0.0716(18) 0.0488(18) 0.0113(14) 0.0046(13) 0.0109(14)
C9 0.0623(16) 0.0470(13) 0.0402(16) 0.0110(11) 0.0114(11) 0.0079(11)
C10 0.0636(16) 0.0505(14) 0.0491(17) 0.0061(12) 0.0118(13) 0.0007(12)
C11 0.107(3) 0.074(2) 0.078(3) 0.0230(19) 0.001(2) -0.025(2)
C12 0.118(4) 0.105(3) 0.118(4) 0.030(3) -0.012(3) -0.057(3)
C13 0.092(3) 0.108(3) 0.106(4) 0.011(3) -0.020(3) -0.038(3)
C14 0.076(2) 0.080(2) 0.067(2) 0.0093(17) -0.0120(17) -0.0127(17)
Cd1 0.0537(2) 0.04355(19) 0.0285(2) 0.000 0.000 -0.00183(9)
N3 0.0579(13) 0.0526(12) 0.0408(13) 0.0095(9) 0.0083(10) 0.0062(9)
N2 0.0607(14) 0.0663(14) 0.0454(14) 0.0123(11) 0.0068(11) 0.0028(11)
N1 0.0638(14) 0.0604(13) 0.0390(13) 0.0144(11) 0.0112(10) 0.0053(11)
N4 0.0611(13) 0.0540(12) 0.0434(14) 0.0034(10) 0.0019(10) -0.0004(10)
O1 0.0924(17) 0.0853(15) 0.0523(14) 0.0272(13) 0.0141(12) -0.0096(13)
O2 0.117(2) 0.113(2) 0.086(2) 0.0229(18) 0.057(2) 0.0128(19)

_geom_special_details            
;
 All s.u. (except the s.u. in the dihedral angle between two l.s. planes)
 are estimated using the full covariance matrix.  The cell s.u. are taken
 into account individually in the estimation of s.u. in distances, angles
 and torsion angles; correlations between s.u. in cell parameters are only
 used when they are defined by crystal symmetry.  An approximate (isotropic)
 treatment of cell s.u. is used for estimating s.u. involving l.s. planes.
;

loop_
_geom_bond_atom_site_label_1
_geom_bond_atom_site_label_2
_geom_bond_distance
_geom_bond_site_symmetry_2
_geom_bond_publ_flag
C1 O1 1.235(4) . ?
C1 O2 1.240(5) . ?
C1 C2 1.521(4) . ?
C2 C7 1.364(4) . ?
C2 C3 1.380(4) . ?
C3 C4 1.386(5) . ?
C3 H3 0.9500 . ?
C4 C5 1.381(4) . ?
C4 H4 0.9500 . ?
C5 C6 1.376(4) . ?
C5 N1 1.453(4) . ?
C6 C7 1.389(4) . ?
C6 H6 0.9500 . ?
C7 H7 0.9500 . ?
C8 N2 1.311(4) . ?
C8 N1 1.358(4) . ?
C8 H8 0.9500 . ?
C9 N3 1.315(3) . ?
C9 N1 1.379(4) . ?
C9 C10 1.466(4) . ?
C10 N4 1.354(4) . ?
C10 C11 1.380(4) . ?
C11 C12 1.383(6) . ?
C11 H11 0.9500 . ?
C12 C13 1.360(7) . ?
C12 H12 0.9500 . ?
C13 C14 1.377(5) . ?
C13 H13 0.9500 . ?
C14 N4 1.334(4) . ?
C14 H14 0.9500 . ?
Cd1 O1 2.308(2) 14 ?
Cd1 O1 2.308(2) . ?
Cd1 N4 2.417(2) 31 ?
Cd1 N4 2.417(2) 32 ?
Cd1 N3 2.491(2) 32 ?
Cd1 N3 2.491(2) 31 ?
N3 N2 1.379(3) . ?
N3 Cd1 2.491(2) 27 ?
N4 Cd1 2.417(2) 27 ?

loop_
_geom_angle_atom_site_label_1
_geom_angle_atom_site_label_2
_geom_angle_atom_site_label_3
_geom_angle
_geom_angle_site_symmetry_1
_geom_angle_site_symmetry_3
_geom_angle_publ_flag
O1 C1 O2 122.3(3) . . ?
O1 C1 C2 118.2(3) . . ?
O2 C1 C2 119.4(3) . . ?
C7 C2 C3 119.5(3) . . ?
C7 C2 C1 120.5(3) . . ?
C3 C2 C1 120.0(3) . . ?
C2 C3 C4 120.6(3) . . ?
C2 C3 H3 119.7 . . ?
C4 C3 H3 119.7 . . ?
C5 C4 C3 118.7(3) . . ?
C5 C4 H4 120.6 . . ?
C3 C4 H4 120.6 . . ?
C6 C5 C4 121.5(3) . . ?
C6 C5 N1 119.8(3) . . ?
C4 C5 N1 118.7(3) . . ?
C5 C6 C7 118.3(3) . . ?
C5 C6 H6 120.9 . . ?
C7 C6 H6 120.9 . . ?
C2 C7 C6 121.4(3) . . ?
C2 C7 H7 119.3 . . ?
C6 C7 H7 119.3 . . ?
N2 C8 N1 111.1(3) . . ?
N2 C8 H8 124.5 . . ?
N1 C8 H8 124.5 . . ?
N3 C9 N1 108.8(3) . . ?
N3 C9 C10 123.3(3) . . ?
N1 C9 C10 127.9(2) . . ?
N4 C10 C11 122.5(3) . . ?
N4 C10 C9 113.2(2) . . ?
C11 C10 C9 124.3(3) . . ?
C12 C11 C10 118.5(4) . . ?
C12 C11 H11 120.7 . . ?
C10 C11 H11 120.7 . . ?
C13 C12 C11 119.1(4) . . ?
C13 C12 H12 120.4 . . ?
C11 C12 H12 120.4 . . ?
C12 C13 C14 119.5(4) . . ?
C12 C13 H13 120.2 . . ?
C14 C13 H13 120.2 . . ?
N4 C14 C13 122.7(4) . . ?
N4 C14 H14 118.6 . . ?
C13 C14 H14 118.6 . . ?
O1 Cd1 O1 93.36(14) 14 . ?
O1 Cd1 N4 124.21(9) 14 31 ?
O1 Cd1 N4 82.63(9) . 31 ?
O1 Cd1 N4 82.62(9) 14 32 ?
O1 Cd1 N4 124.21(9) . 32 ?
N4 Cd1 N4 143.13(11) 31 32 ?
O1 Cd1 N3 151.19(9) 14 32 ?
O1 Cd1 N3 101.29(9) . 32 ?
N4 Cd1 N3 82.57(8) 31 32 ?
N4 Cd1 N3 68.61(8) 32 32 ?
O1 Cd1 N3 101.29(9) 14 31 ?
O1 Cd1 N3 151.19(9) . 31 ?
N4 Cd1 N3 68.61(8) 31 31 ?
N4 Cd1 N3 82.57(8) 32 31 ?
N3 Cd1 N3 77.25(10) 32 31 ?
C9 N3 N2 108.7(2) . . ?
C9 N3 Cd1 111.10(18) . 27 ?
N2 N3 Cd1 133.20(16) . 27 ?
C8 N2 N3 106.5(2) . . ?
C8 N1 C9 105.0(2) . . ?
C8 N1 C5 125.5(3) . . ?
C9 N1 C5 129.1(3) . . ?
C14 N4 C10 117.5(3) . . ?
C14 N4 Cd1 122.6(2) . 27 ?
C10 N4 Cd1 119.13(19) . 27 ?
C1 O1 Cd1 103.9(2) . . ?

_diffrn_measured_fraction_theta_max 0.991
_diffrn_reflns_theta_full        25.00
_diffrn_measured_fraction_theta_full 0.991
_refine_diff_density_max         0.439
_refine_diff_density_min         -0.541
_refine_diff_density_rms         0.096
