####################################################################### 
# 
# This file contains crystal structure data downloaded from the 
# Cambridge Structural Database (CSD) hosted by the Cambridge 
# Crystallographic Data Centre (CCDC).
# 
# Full information about CCDC data access policies and citation 
# guidelines are available at http://www.ccdc.cam.ac.uk/access/V1 
# 
# Audit and citation data items may have been added by the CCDC. 
# Please retain this information to preserve the provenance of 
# this file and to allow appropriate attribution of the data. 
# 
#######################################################################

data_C44H28CoN6O4
_audit_block_doi                 10.5517/cc13r321
_database_code_depnum_ccdc_archive 'CCDC 1035092'
_audit_update_record             
;
2014-11-19 deposited with the CCDC.	2024-07-14 downloaded from the CCDC.
;

_audit_creation_method           SHELXL-97
_chemical_name_systematic        
; 
 ? 
;
_chemical_name_common            ?
_chemical_melting_point          ?
_chemical_formula_moiety         ?
_chemical_formula_sum            'C44 H28 Co N6 O4'
_chemical_formula_weight         763.65

loop_
_atom_type_symbol
_atom_type_description
_atom_type_scat_dispersion_real
_atom_type_scat_dispersion_imag
_atom_type_scat_source
C C 0.0033 0.0016 'International Tables Vol C Tables 4.2.6.8 and 6.1.1.4'
H H 0.0000 0.0000 'International Tables Vol C Tables 4.2.6.8 and 6.1.1.4'
N N 0.0061 0.0033 'International Tables Vol C Tables 4.2.6.8 and 6.1.1.4'
O O 0.0106 0.0060 'International Tables Vol C Tables 4.2.6.8 and 6.1.1.4'
Co Co 0.3494 0.9721 'International Tables Vol C Tables 4.2.6.8 and 6.1.1.4'

_symmetry_cell_setting           triclinic
_symmetry_space_group_name_H-M   P-1

loop_
_symmetry_equiv_pos_as_xyz
'x, y, z'
'-x, -y, -z'

_cell_length_a                   15.4790(11)
_cell_length_b                   15.4787(11)
_cell_length_c                   15.9311(12)
_cell_angle_alpha                99.278(15)
_cell_angle_beta                 116.035(14)
_cell_angle_gamma                98.777(14)
_cell_volume                     3276(4)
_cell_formula_units_Z            2
_cell_measurement_temperature    296(2)
_cell_measurement_reflns_used    ?
_cell_measurement_theta_min      ?
_cell_measurement_theta_max      ?

_exptl_crystal_description       block
_exptl_crystal_colour            red
_exptl_crystal_size_max          0.24
_exptl_crystal_size_mid          0.21
_exptl_crystal_size_min          0.19
_exptl_crystal_density_meas      ?
_exptl_crystal_density_diffrn    0.774
_exptl_crystal_density_method    'not measured'
_exptl_crystal_F_000             786
_exptl_absorpt_coefficient_mu    0.292
_exptl_absorpt_correction_type   multi-scan
_exptl_absorpt_correction_T_min  0.9332
_exptl_absorpt_correction_T_max  0.9466
_exptl_absorpt_process_details   '(SADABS; Bruker, 2001)'

_exptl_special_details           
; 
 ? 
;

_diffrn_ambient_temperature      296(2)
_diffrn_radiation_wavelength     0.71073
_diffrn_radiation_type           MoK\a
_diffrn_radiation_source         'fine-focus sealed tube'
_diffrn_radiation_monochromator  graphite
_diffrn_measurement_device_type  'Bruker APEX2 CCD area-detector diffractometer'
_diffrn_measurement_method       '\f and \w scans'
_diffrn_detector_area_resol_mean ?
_diffrn_standards_number         ?
_diffrn_standards_interval_count ?
_diffrn_standards_interval_time  ?
_diffrn_standards_decay_%        ?
_diffrn_reflns_number            19399
_diffrn_reflns_av_R_equivalents  0.0727
_diffrn_reflns_av_sigmaI/netI    0.1820
_diffrn_reflns_limit_h_min       -18
_diffrn_reflns_limit_h_max       18
_diffrn_reflns_limit_k_min       -18
_diffrn_reflns_limit_k_max       14
_diffrn_reflns_limit_l_min       -16
_diffrn_reflns_limit_l_max       18
_diffrn_reflns_theta_min         1.47
_diffrn_reflns_theta_max         25.03
_reflns_number_total             11571
_reflns_number_gt                4609
_reflns_threshold_expression     >2sigma(I)

_computing_data_collection       'Bruker APEX2'
_computing_cell_refinement       'Bruker SMART'
_computing_data_reduction        'Bruker SAINT'
_computing_structure_solution    'SIR97 (Altomare,1999)'
_computing_structure_refinement  'SHELXL-97 (Sheldrick, 2008)'
_computing_molecular_graphics    'SHELXTL(Sheldrick, 2008)'
_computing_publication_material  'WINGX (Farrugia,1999)'

_refine_special_details          SQUEEZE
loop_
_platon_squeeze_void_nr
_platon_squeeze_void_average_x
_platon_squeeze_void_average_y
_platon_squeeze_void_average_z
_platon_squeeze_void_volume
_platon_squeeze_void_count_electrons
1 0.500 1.023 0.488 1843.4 317.3
_platon_squeeze_details          
;
;

_refine_ls_structure_factor_coef Fsqd
_refine_ls_matrix_type           full
_refine_ls_weighting_scheme      calc
_refine_ls_weighting_details     
'calc w=1/[\s^2^(Fo^2^)+(0.0718P)^2^+0.0000P] where P=(Fo^2^+2Fc^2^)/3'
_atom_sites_solution_primary     direct
_atom_sites_solution_secondary   difmap
_atom_sites_solution_hydrogens   geom
_refine_ls_hydrogen_treatment    constr
_refine_ls_extinction_method     none
_refine_ls_extinction_coef       ?
_refine_ls_number_reflns         11571
_refine_ls_number_parameters     496
_refine_ls_number_restraints     189
_refine_ls_R_factor_all          0.1238
_refine_ls_R_factor_gt           0.0600
_refine_ls_wR_factor_ref         0.1660
_refine_ls_wR_factor_gt          0.1435
_refine_ls_goodness_of_fit_ref   0.734
_refine_ls_restrained_S_all      0.803
_refine_ls_shift/su_max          0.004
_refine_ls_shift/su_mean         0.000

loop_
_atom_site_label
_atom_site_type_symbol
_atom_site_fract_x
_atom_site_fract_y
_atom_site_fract_z
_atom_site_U_iso_or_equiv
_atom_site_adp_type
_atom_site_occupancy
_atom_site_symmetry_multiplicity
_atom_site_calc_flag
_atom_site_refinement_flags
_atom_site_disorder_assembly
_atom_site_disorder_group
Co1 Co -0.22278(4) 0.56849(4) 0.75911(4) 0.0400(2) Uani 1 1 d U . .
O2 O -0.1443(2) 0.51467(18) 0.8717(2) 0.0469(8) Uani 1 1 d U . .
O1 O -0.2471(2) 0.41787(18) 0.7319(2) 0.0534(8) Uani 1 1 d U . .
O3 O 0.6483(2) 0.5824(2) 0.6458(2) 0.0552(8) Uani 1 1 d U . .
O4 O 0.6444(2) 0.5612(2) 0.7777(2) 0.0662(10) Uani 1 1 d U . .
N1 N -0.1347(2) 0.5753(2) 0.6921(2) 0.0402(8) Uani 1 1 d U . .
N4 N -0.1742(3) -0.2940(2) 0.8333(3) 0.0459(9) Uani 1 1 d U . .
N2 N 0.0090(2) 0.6406(2) 0.4744(3) 0.0463(9) Uani 1 1 d U . .
C24 C -0.1723(3) 0.3570(3) 0.8679(3) 0.0423(11) Uani 1 1 d U . .
C2 C 0.4969(3) 0.5851(3) 0.6550(3) 0.0506(12) Uani 1 1 d U . .
C21 C 0.0599(3) 0.6572(3) 0.4272(3) 0.0456(11) Uani 1 1 d U . .
C5 C 0.3050(3) 0.6075(3) 0.5824(3) 0.0492(12) Uani 1 1 d U . .
C10 C 0.0495(3) 0.6124(3) 0.5544(3) 0.0397(10) Uani 1 1 d U . .
C14 C -0.1658(3) 0.5970(3) 0.6072(3) 0.0467(11) Uani 1 1 d U . .
H14 H -0.2295 0.6057 0.5776 0.056 Uiso 1 1 calc R . .
C23 C -0.1897(3) 0.4331(3) 0.8198(4) 0.0443(11) Uani 1 1 d U . .
C15 C -0.1089(3) 0.6073(3) 0.5611(3) 0.0502(12) Uani 1 1 d U . .
H15 H -0.1353 0.6212 0.5016 0.060 Uiso 1 1 calc R . .
C25 C -0.1008(3) 0.3723(3) 0.9627(3) 0.0493(12) Uani 1 1 d U . .
H25 H -0.0628 0.4307 0.9981 0.059 Uiso 1 1 calc R . .
C1 C 0.6036(3) 0.5758(3) 0.6955(4) 0.0507(12) Uani 1 1 d U . .
C12 C 0.0206(3) 0.5748(3) 0.6905(3) 0.0480(11) Uani 1 1 d U . .
H12 H 0.0848 0.5679 0.7223 0.058 Uiso 1 1 calc R . .
C20 C 0.0107(4) 0.6881(3) 0.3394(4) 0.0605(13) Uani 1 1 d U . .
C11 C -0.0124(3) 0.5968(3) 0.6028(3) 0.0382(10) Uani 1 1 d U . .
C13 C -0.0417(3) 0.5631(3) 0.7309(3) 0.0492(11) Uani 1 1 d U . .
H13 H -0.0182 0.5456 0.7885 0.059 Uiso 1 1 calc R . .
C30 C -0.1231(3) 0.1362(3) 0.9992(3) 0.0533(12) Uani 1 1 d U . .
N5 N -0.0934(3) -0.0097(2) 1.0819(3) 0.0693(12) Uani 1 1 d U . .
C7 C 0.4462(3) 0.5885(3) 0.5621(3) 0.0570(13) Uani 1 1 d U . .
H7 H 0.4764 0.5839 0.5229 0.068 Uiso 1 1 calc R . .
C27 C -0.1402(3) 0.2124(3) 0.9533(3) 0.0467(11) Uani 1 1 d U . .
C8 C 0.2013(3) 0.6188(3) 0.5450(3) 0.0451(11) Uani 1 1 d U . .
C9 C 0.1455(3) 0.6005(3) 0.5914(3) 0.0489(12) Uani 1 1 d U . .
H9 H 0.1723 0.5803 0.6472 0.059 Uiso 1 1 calc R . .
C42 C -0.1363(3) -0.1134(3) 0.9341(3) 0.0504(12) Uani 1 1 d U . .
C29 C -0.2280(3) 0.2695(3) 0.8140(4) 0.0607(14) Uani 1 1 d U . .
H29 H -0.2753 0.2586 0.7496 0.073 Uiso 1 1 calc R . .
C22 C 0.1562(3) 0.6474(3) 0.4622(3) 0.0529(12) Uani 1 1 d U . .
H22 H 0.1911 0.6605 0.4290 0.063 Uiso 1 1 calc R . .
C44 C -0.1340(3) 0.0515(3) 0.9455(3) 0.0548(13) Uani 1 1 d U . .
H44 H -0.1505 0.0429 0.8806 0.066 Uiso 1 1 calc R . .
C38 C -0.1300(3) -0.1831(3) 0.9792(3) 0.0578(13) Uani 1 1 d U . .
H38 H -0.1124 -0.1712 1.0446 0.069 Uiso 1 1 calc R . .
C26 C -0.0851(3) 0.3013(3) 1.0054(3) 0.0529(12) Uani 1 1 d U . .
H26 H -0.0373 0.3127 1.0697 0.064 Uiso 1 1 calc R . .
C6 C 0.3498(3) 0.5988(3) 0.5244(4) 0.0605(13) Uani 1 1 d U . .
H6 H 0.3155 0.5999 0.4600 0.073 Uiso 1 1 calc R . .
C39 C -0.1505(3) -0.2722(3) 0.9258(3) 0.0557(13) Uani 1 1 d U . .
H39 H -0.1473 -0.3183 0.9572 0.067 Uiso 1 1 calc R . .
C43 C -0.1204(3) -0.0199(3) 0.9875(3) 0.0551(12) Uani 1 1 d U . .
C28 C -0.2117(4) 0.1982(3) 0.8580(3) 0.0591(13) Uani 1 1 d U . .
H28 H -0.2498 0.1397 0.8224 0.071 Uiso 1 1 calc R . .
C40 C -0.1788(4) -0.2258(3) 0.7901(3) 0.0659(15) Uani 1 1 d U . .
H40 H -0.1944 -0.2390 0.7253 0.079 Uiso 1 1 calc R . .
C4 C 0.3588(4) 0.6036(4) 0.6771(4) 0.0805(17) Uani 1 1 d U . .
H4 H 0.3300 0.6093 0.7174 0.097 Uiso 1 1 calc R . .
C19 C 0.0424(4) 0.6905(4) 0.2733(4) 0.097(2) Uani 1 1 d U . .
H19 H 0.0983 0.6704 0.2806 0.117 Uiso 1 1 calc R . .
C31 C -0.0952(4) 0.1455(3) 1.0958(4) 0.0696(15) Uani 1 1 d U . .
H31 H -0.0868 0.2011 1.1348 0.084 Uiso 1 1 calc R . .
C32 C -0.0799(5) 0.0724(3) 1.1347(4) 0.0789(17) Uani 1 1 d U . .
C41 C -0.1615(4) -0.1374(3) 0.8373(4) 0.0739(16) Uani 1 1 d U . .
H41 H -0.1668 -0.0930 0.8036 0.089 Uiso 1 1 calc R . .
C3 C 0.4524(3) 0.5917(4) 0.7132(4) 0.0788(17) Uani 1 1 d U . .
H3 H 0.4862 0.5882 0.7768 0.095 Uiso 1 1 calc R . .
N3 N -0.0891(4) 0.7505(5) 0.1747(4) 0.128(2) Uani 1 1 d U . .
C18 C -0.0086(5) 0.7229(5) 0.1945(5) 0.133(3) Uani 1 1 d U . .
H18 H 0.0169 0.7253 0.1516 0.159 Uiso 1 1 calc R . .
C16 C -0.0734(4) 0.7179(4) 0.3211(4) 0.099(2) Uani 1 1 d U . .
H16 H -0.0992 0.7180 0.3639 0.119 Uiso 1 1 calc R . .
C33 C -0.0495(6) 0.0789(4) 1.2378(4) 0.120(3) Uani 1 1 d U . .
C17 C -0.1192(5) 0.7476(5) 0.2396(5) 0.127(3) Uani 1 1 d U . .
H17 H -0.1761 0.7671 0.2296 0.153 Uiso 1 1 calc R . .
C34 C -0.0148(6) 0.1579(5) 1.3051(5) 0.145(3) Uani 1 1 d U . .
H34 H -0.0096 0.2121 1.2876 0.174 Uiso 1 1 calc R . .
N6 N 0.0024(8) 0.0881(5) 1.4335(5) 0.219(4) Uani 1 1 d U . .
C37 C -0.0541(7) 0.0037(5) 1.2693(5) 0.163(3) Uani 1 1 d U . .
H37 H -0.0737 -0.0526 1.2264 0.195 Uiso 1 1 calc R . .
C36 C -0.0298(8) 0.0092(6) 1.3664(6) 0.191(4) Uani 1 1 d U . .
H36 H -0.0362 -0.0443 1.3850 0.230 Uiso 1 1 calc R . .
C35 C 0.0137(8) 0.1586(5) 1.4019(6) 0.180(4) Uani 1 1 d U . .
H35 H 0.0431 0.2145 1.4471 0.216 Uiso 1 1 calc R . .

loop_
_atom_site_aniso_label
_atom_site_aniso_U_11
_atom_site_aniso_U_22
_atom_site_aniso_U_33
_atom_site_aniso_U_23
_atom_site_aniso_U_13
_atom_site_aniso_U_12
Co1 0.0458(4) 0.0421(4) 0.0437(4) 0.0190(3) 0.0256(3) 0.0204(3)
O2 0.0586(19) 0.0389(18) 0.0477(19) 0.0201(14) 0.0239(16) 0.0194(14)
O1 0.063(2) 0.0497(19) 0.047(2) 0.0219(15) 0.0221(17) 0.0173(15)
O3 0.0456(18) 0.082(2) 0.047(2) 0.0176(16) 0.0268(17) 0.0247(16)
O4 0.054(2) 0.099(3) 0.067(3) 0.047(2) 0.034(2) 0.0318(18)
N1 0.039(2) 0.047(2) 0.038(2) 0.0122(17) 0.0189(18) 0.0177(16)
N4 0.064(2) 0.041(2) 0.041(2) 0.0191(17) 0.026(2) 0.0248(18)
N2 0.054(2) 0.057(2) 0.046(2) 0.0229(18) 0.033(2) 0.0248(18)
C24 0.055(3) 0.042(3) 0.044(3) 0.023(2) 0.029(2) 0.019(2)
C2 0.044(3) 0.065(3) 0.050(3) 0.017(2) 0.024(2) 0.021(2)
C21 0.050(3) 0.057(3) 0.054(3) 0.030(2) 0.036(2) 0.028(2)
C5 0.040(3) 0.074(3) 0.041(3) 0.024(2) 0.021(2) 0.020(2)
C10 0.047(3) 0.043(3) 0.041(3) 0.019(2) 0.026(2) 0.019(2)
C14 0.041(3) 0.062(3) 0.055(3) 0.025(2) 0.031(2) 0.028(2)
C23 0.042(3) 0.049(3) 0.050(3) 0.022(2) 0.023(2) 0.017(2)
C15 0.053(3) 0.070(3) 0.044(3) 0.030(2) 0.027(2) 0.032(2)
C25 0.063(3) 0.036(3) 0.050(3) 0.019(2) 0.024(3) 0.017(2)
C1 0.042(3) 0.057(3) 0.048(3) 0.006(2) 0.020(3) 0.012(2)
C12 0.043(3) 0.068(3) 0.046(3) 0.027(2) 0.025(2) 0.023(2)
C20 0.067(3) 0.087(4) 0.067(4) 0.049(3) 0.047(3) 0.047(3)
C11 0.041(2) 0.046(3) 0.040(3) 0.018(2) 0.024(2) 0.020(2)
C13 0.056(3) 0.060(3) 0.047(3) 0.024(2) 0.031(3) 0.025(2)
C30 0.071(3) 0.041(3) 0.051(3) 0.019(2) 0.029(3) 0.017(2)
N5 0.124(4) 0.046(2) 0.051(3) 0.0220(19) 0.045(3) 0.035(2)
C7 0.050(3) 0.084(4) 0.052(3) 0.018(3) 0.032(3) 0.030(3)
C27 0.062(3) 0.034(3) 0.050(3) 0.018(2) 0.028(3) 0.016(2)
C8 0.044(3) 0.056(3) 0.046(3) 0.016(2) 0.026(2) 0.023(2)
C9 0.042(3) 0.072(3) 0.040(3) 0.023(2) 0.021(2) 0.024(2)
C42 0.074(3) 0.042(3) 0.046(3) 0.023(2) 0.030(3) 0.028(2)
C29 0.076(3) 0.047(3) 0.054(3) 0.017(2) 0.024(3) 0.018(3)
C22 0.055(3) 0.067(3) 0.055(3) 0.026(2) 0.036(3) 0.024(2)
C44 0.086(3) 0.037(3) 0.051(3) 0.020(2) 0.035(3) 0.025(2)
C38 0.092(4) 0.046(3) 0.036(3) 0.019(2) 0.025(3) 0.030(3)
C26 0.064(3) 0.046(3) 0.037(3) 0.013(2) 0.013(2) 0.014(2)
C6 0.052(3) 0.096(4) 0.052(3) 0.024(3) 0.033(3) 0.035(3)
C39 0.085(4) 0.041(3) 0.049(3) 0.020(2) 0.032(3) 0.025(2)
C43 0.081(3) 0.041(3) 0.047(3) 0.019(2) 0.028(3) 0.023(2)
C28 0.079(3) 0.036(3) 0.051(3) 0.015(2) 0.020(3) 0.011(2)
C40 0.122(4) 0.050(3) 0.042(3) 0.027(2) 0.044(3) 0.034(3)
C4 0.062(3) 0.155(5) 0.066(4) 0.061(4) 0.046(3) 0.058(3)
C19 0.099(4) 0.180(6) 0.087(5) 0.096(4) 0.070(4) 0.092(4)
C31 0.120(4) 0.040(3) 0.055(3) 0.019(2) 0.044(3) 0.023(3)
C32 0.159(5) 0.040(3) 0.052(3) 0.019(2) 0.058(4) 0.031(3)
C41 0.146(5) 0.049(3) 0.065(4) 0.038(3) 0.069(4) 0.048(3)
C3 0.051(3) 0.159(5) 0.063(4) 0.059(4) 0.039(3) 0.056(3)
N3 0.132(5) 0.233(7) 0.108(5) 0.126(5) 0.083(4) 0.122(5)
C18 0.142(6) 0.259(9) 0.116(6) 0.139(6) 0.104(5) 0.141(6)
C16 0.103(5) 0.166(6) 0.096(5) 0.089(4) 0.070(4) 0.086(4)
C33 0.263(9) 0.040(3) 0.068(4) 0.020(3) 0.084(5) 0.048(4)
C17 0.123(6) 0.233(8) 0.114(6) 0.124(6) 0.080(5) 0.125(6)
C34 0.283(8) 0.090(4) 0.060(4) 0.032(3) 0.071(5) 0.064(5)
N6 0.454(9) 0.103(5) 0.090(4) 0.051(3) 0.116(5) 0.058(6)
C37 0.308(8) 0.096(5) 0.083(5) 0.050(4) 0.080(5) 0.061(5)
C36 0.367(10) 0.106(5) 0.102(5) 0.041(4) 0.104(6) 0.066(6)
C35 0.358(9) 0.090(5) 0.089(5) 0.039(4) 0.096(6) 0.065(6)

_geom_special_details            
; 
 All esds (except the esd in the dihedral angle between two l.s. planes) 
 are estimated using the full covariance matrix.  The cell esds are taken 
 into account individually in the estimation of esds in distances, angles 
 and torsion angles; correlations between esds in cell parameters are only 
 used when they are defined by crystal symmetry.  An approximate (isotropic) 
 treatment of cell esds is used for estimating esds involving l.s. planes. 
;

loop_
_geom_bond_atom_site_label_1
_geom_bond_atom_site_label_2
_geom_bond_distance
_geom_bond_site_symmetry_2
_geom_bond_publ_flag
Co1 O2 2.065(3) . ?
Co1 N1 2.069(3) . ?
Co1 O3 2.093(3) 1_455 ?
Co1 N4 2.100(4) 1_565 ?
Co1 O4 2.191(3) 1_455 ?
Co1 O1 2.242(3) . ?
Co1 C1 2.449(5) 1_455 ?
Co1 C23 2.477(5) . ?
O2 C23 1.286(5) . ?
O1 C23 1.242(5) . ?
O3 C1 1.265(5) . ?
O3 Co1 2.093(3) 1_655 ?
O4 C1 1.256(5) . ?
O4 Co1 2.191(3) 1_655 ?
N1 C14 1.341(5) . ?
N1 C13 1.353(5) . ?
N4 C39 1.322(5) . ?
N4 C40 1.344(5) . ?
N4 Co1 2.100(4) 1_545 ?
N2 C21 1.332(5) . ?
N2 C10 1.330(5) . ?
C24 C25 1.378(6) . ?
C24 C29 1.390(6) . ?
C24 C23 1.502(6) . ?
C2 C7 1.352(6) . ?
C2 C3 1.377(6) . ?
C2 C1 1.527(6) . ?
C21 C22 1.386(5) . ?
C21 C20 1.468(6) . ?
C5 C4 1.384(6) . ?
C5 C6 1.380(6) . ?
C5 C8 1.497(6) . ?
C10 C9 1.393(5) . ?
C10 C11 1.486(5) . ?
C14 C15 1.379(5) . ?
C14 H14 0.9300 . ?
C15 C11 1.391(5) . ?
C15 H15 0.9300 . ?
C25 C26 1.380(6) . ?
C25 H25 0.9300 . ?
C1 Co1 2.449(5) 1_655 ?
C12 C13 1.381(5) . ?
C12 C11 1.381(5) . ?
C12 H12 0.9300 . ?
C20 C19 1.345(6) . ?
C20 C16 1.373(6) . ?
C13 H13 0.9300 . ?
C30 C31 1.379(6) . ?
C30 C44 1.387(6) . ?
C30 C27 1.483(6) . ?
N5 C32 1.336(5) . ?
N5 C43 1.346(6) . ?
C7 C6 1.389(6) . ?
C7 H7 0.9300 . ?
C27 C28 1.387(6) . ?
C27 C26 1.400(5) . ?
C8 C22 1.378(6) . ?
C8 C9 1.388(5) . ?
C9 H9 0.9300 . ?
C42 C38 1.383(6) . ?
C42 C41 1.382(6) . ?
C42 C43 1.481(6) . ?
C29 C28 1.397(6) . ?
C29 H29 0.9300 . ?
C22 H22 0.9300 . ?
C44 C43 1.379(6) . ?
C44 H44 0.9300 . ?
C38 C39 1.406(6) . ?
C38 H38 0.9300 . ?
C26 H26 0.9300 . ?
C6 H6 0.9300 . ?
C39 H39 0.9300 . ?
C28 H28 0.9300 . ?
C40 C41 1.374(6) . ?
C40 H40 0.9300 . ?
C4 C3 1.359(6) . ?
C4 H4 0.9300 . ?
C19 C18 1.380(7) . ?
C19 H19 0.9300 . ?
C31 C32 1.378(6) . ?
C31 H31 0.9300 . ?
C32 C33 1.477(7) . ?
C41 H41 0.9300 . ?
C3 H3 0.9300 . ?
N3 C18 1.302(7) . ?
N3 C17 1.313(7) . ?
C18 H18 0.9300 . ?
C16 C17 1.372(7) . ?
C16 H16 0.9300 . ?
C33 C34 1.344(7) . ?
C33 C37 1.343(8) . ?
C17 H17 0.9300 . ?
C34 C35 1.402(9) . ?
C34 H34 0.9300 . ?
N6 C35 1.294(9) . ?
N6 C36 1.346(9) . ?
C37 C36 1.406(9) . ?
C37 H37 0.9300 . ?
C36 H36 0.9300 . ?
C35 H35 0.9300 . ?

loop_
_geom_angle_atom_site_label_1
_geom_angle_atom_site_label_2
_geom_angle_atom_site_label_3
_geom_angle
_geom_angle_site_symmetry_1
_geom_angle_site_symmetry_3
_geom_angle_publ_flag
O2 Co1 N1 101.74(13) . . ?
O2 Co1 O3 154.66(12) . 1_455 ?
N1 Co1 O3 97.58(14) . 1_455 ?
O2 Co1 N4 99.52(13) . 1_565 ?
N1 Co1 N4 96.25(14) . 1_565 ?
O3 Co1 N4 94.47(13) 1_455 1_565 ?
O2 Co1 O4 97.38(12) . 1_455 ?
N1 Co1 O4 159.27(13) . 1_455 ?
O3 Co1 O4 61.84(13) 1_455 1_455 ?
N4 Co1 O4 88.36(13) 1_565 1_455 ?
O2 Co1 O1 61.14(11) . . ?
N1 Co1 O1 91.46(12) . . ?
O3 Co1 O1 102.39(12) 1_455 . ?
N4 Co1 O1 160.37(13) 1_565 . ?
O4 Co1 O1 90.77(12) 1_455 . ?
O2 Co1 C1 127.12(15) . 1_455 ?
N1 Co1 C1 128.68(1