####################################################################### 
# 
# This file contains crystal structure data downloaded from the 
# Cambridge Structural Database (CSD) hosted by the Cambridge 
# Crystallographic Data Centre (CCDC).
# 
# Full information about CCDC data access policies and citation 
# guidelines are available at http://www.ccdc.cam.ac.uk/access/V1 
# 
# Audit and citation data items may have been added by the CCDC. 
# Please retain this information to preserve the provenance of 
# this file and to allow appropriate attribution of the data. 
# 
#######################################################################

data_3
_audit_block_doi                 10.5517/cc14ggqs
_database_code_depnum_ccdc_archive 'CCDC 1056595'
loop_
_citation_id
_citation_doi
_citation_year
1 10.1021/ic502772k 2015
_audit_update_record             
;
2015-03-27 deposited with the CCDC.	2024-07-14 downloaded from the CCDC.
;

_audit_creation_method           SHELXL-97
_chemical_name_systematic        
;
 ?
;
_chemical_name_common            ?
_chemical_melting_point          ?
_chemical_formula_moiety         'C84 H44 Co2 Mn5 N12 O46, 22(O)'
_chemical_formula_sum            'C84 H44 Co2 Mn5 N12 O68'
_chemical_formula_weight         2701.87

loop_
_atom_type_symbol
_atom_type_description
_atom_type_scat_dispersion_real
_atom_type_scat_dispersion_imag
_atom_type_scat_source
C C 0.0033 0.0016 'International Tables Vol C Tables 4.2.6.8 and 6.1.1.4'
H H 0.0000 0.0000 'International Tables Vol C Tables 4.2.6.8 and 6.1.1.4'
N N 0.0061 0.0033 'International Tables Vol C Tables 4.2.6.8 and 6.1.1.4'
O O 0.0106 0.0060 'International Tables Vol C Tables 4.2.6.8 and 6.1.1.4'
Mn Mn 0.3368 0.7283 'International Tables Vol C Tables 4.2.6.8 and 6.1.1.4'
Co Co 0.3494 0.9721 'International Tables Vol C Tables 4.2.6.8 and 6.1.1.4'

_symmetry_cell_setting           triclinic
_symmetry_space_group_name_H-M   'P -1'
_symmetry_space_group_name_Hall  '-P 1'

loop_
_symmetry_equiv_pos_as_xyz
'x, y, z'
'-x, -y, -z'

_cell_length_a                   13.6848(7)
_cell_length_b                   14.5766(8)
_cell_length_c                   15.3761(8)
_cell_angle_alpha                98.393(4)
_cell_angle_beta                 91.034(4)
_cell_angle_gamma                98.274(4)
_cell_volume                     3000.4(3)
_cell_formula_units_Z            1
_cell_measurement_temperature    298(2)
_cell_measurement_reflns_used    10879
_cell_measurement_theta_min      ?
_cell_measurement_theta_max      ?

_exptl_crystal_description       block
_exptl_crystal_colour            green
_exptl_crystal_size_max          0.30
_exptl_crystal_size_mid          0.18
_exptl_crystal_size_min          0.12
_exptl_crystal_density_meas      ?
_exptl_crystal_density_diffrn    1.495
_exptl_crystal_density_method    'not measured'
_exptl_crystal_F_000             1355
_exptl_absorpt_coefficient_mu    0.885
_exptl_absorpt_correction_type   none
_exptl_absorpt_correction_T_min  ?
_exptl_absorpt_correction_T_max  ?
_exptl_absorpt_process_details   ?

_exptl_special_details           
;
 ?
;

_diffrn_ambient_temperature      298(2)
_diffrn_radiation_wavelength     0.71073
_diffrn_radiation_type           MoK\a
_diffrn_radiation_source         'fine-focus sealed tube'
_diffrn_radiation_monochromator  graphite
_diffrn_measurement_device_type  'Xcalibur, Sapphire3'
_diffrn_measurement_method       '\w scans'
_diffrn_detector_area_resol_mean ?
_diffrn_standards_number         ?
_diffrn_standards_interval_count ?
_diffrn_standards_interval_time  ?
_diffrn_standards_decay_%        ?
_diffrn_reflns_number            36929
_diffrn_reflns_av_R_equivalents  0.1048
_diffrn_reflns_av_sigmaI/netI    0.1074
_diffrn_reflns_limit_h_min       -16
_diffrn_reflns_limit_h_max       16
_diffrn_reflns_limit_k_min       -17
_diffrn_reflns_limit_k_max       17
_diffrn_reflns_limit_l_min       -18
_diffrn_reflns_limit_l_max       18
_diffrn_reflns_theta_min         2.84
_diffrn_reflns_theta_max         25.00
_reflns_number_total             10319
_reflns_number_gt                7445
_reflns_threshold_expression     >2sigma(I)

_computing_data_collection       'X-calibur S oxford'
_computing_cell_refinement       'X-calibur S SAINT'
_computing_data_reduction        'X-calibur S SAINT'
_computing_structure_solution    'SHELXS-97 (Sheldrick, 1990)'
_computing_structure_refinement  'SHELXL-97 (Sheldrick, 1997)'
_computing_molecular_graphics    'Oxford SHELXTL'
_computing_publication_material  'Oxford SHELXTL'

_refine_special_details          
;
 Refinement of F^2^ against ALL reflections.  The weighted R-factor wR and
 goodness of fit S are based on F^2^, conventional R-factors R are based
 on F, with F set to zero for negative F^2^. The threshold expression of
 F^2^ > 2sigma(F^2^) is used only for calculating R-factors(gt) etc. and is
 not relevant to the choice of reflections for refinement.  R-factors based
 on F^2^ are statistically about twice as large as those based on F, and R-
 factors based on ALL data will be even larger.
;

_refine_ls_structure_factor_coef Fsqd
_refine_ls_matrix_type           full
_refine_ls_weighting_scheme      calc
_refine_ls_weighting_details     
'calc w=1/[\s^2^(Fo^2^)+(0.1265P)^2^+4.5394P] where P=(Fo^2^+2Fc^2^)/3'
_atom_sites_solution_primary     direct
_atom_sites_solution_secondary   difmap
_atom_sites_solution_hydrogens   geom
_refine_ls_hydrogen_treatment    mixed
_refine_ls_extinction_method     none
_refine_ls_extinction_coef       ?
_refine_ls_number_reflns         10319
_refine_ls_number_parameters     772
_refine_ls_number_restraints     0
_refine_ls_R_factor_all          0.1154
_refine_ls_R_factor_gt           0.0898
_refine_ls_wR_factor_ref         0.2389
_refine_ls_wR_factor_gt          0.2183
_refine_ls_goodness_of_fit_ref   1.028
_refine_ls_restrained_S_all      1.028
_refine_ls_shift/su_max          0.001
_refine_ls_shift/su_mean         0.000

loop_
_atom_site_label
_atom_site_type_symbol
_atom_site_fract_x
_atom_site_fract_y
_atom_site_fract_z
_atom_site_U_iso_or_equiv
_atom_site_adp_type
_atom_site_occupancy
_atom_site_symmetry_multiplicity
_atom_site_calc_flag
_atom_site_refinement_flags
_atom_site_disorder_assembly
_atom_site_disorder_group
C1 C 1.0303(5) 0.5934(4) 0.7845(4) 0.0339(14) Uani 1 1 d . . .
C2 C 0.9621(4) 0.5440(4) 0.7102(4) 0.0280(13) Uani 1 1 d . . .
C3 C 0.8614(5) 0.5383(4) 0.7145(4) 0.0355(15) Uani 1 1 d . . .
H3 H 0.8342 0.5725 0.7615 0.043 Uiso 1 1 calc R . .
C4 C 0.7996(5) 0.4816(4) 0.6488(4) 0.0353(15) Uani 1 1 d . . .
H4 H 0.7314 0.4776 0.6523 0.042 Uiso 1 1 calc R . .
C5 C 0.8390(4) 0.4314(4) 0.5786(4) 0.0226(12) Uani 1 1 d . . .
C6 C 0.9398(4) 0.4408(4) 0.5720(4) 0.0277(13) Uani 1 1 d . . .
H6 H 0.9665 0.4092 0.5233 0.033 Uiso 1 1 calc R . .
C7 C 1.0020(4) 0.4965(4) 0.6368(4) 0.0311(14) Uani 1 1 d . . .
H7 H 1.0701 0.5023 0.6315 0.037 Uiso 1 1 calc R . .
C8 C 0.7525(4) 0.3742(4) 0.4382(4) 0.0242(12) Uani 1 1 d . . .
C9 C 0.7157(4) 0.2843(4) 0.3807(4) 0.0254(12) Uani 1 1 d . . .
C10 C 0.6958(5) 0.2679(4) 0.2909(4) 0.0381(16) Uani 1 1 d . . .
H10 H 0.6976 0.3176 0.2589 0.046 Uiso 1 1 calc R . .
C11 C 0.6731(6) 0.1763(5) 0.2495(4) 0.0456(18) Uani 1 1 d . . .
H11 H 0.6601 0.1646 0.1890 0.055 Uiso 1 1 calc R . .
C12 C 0.6694(5) 0.1024(4) 0.2957(4) 0.0349(15) Uani 1 1 d . . .
H12 H 0.6549 0.0411 0.2670 0.042 Uiso 1 1 calc R . .
C13 C 0.6874(4) 0.1205(4) 0.3853(4) 0.0222(12) Uani 1 1 d . . .
C14 C 0.6830(4) 0.0533(4) 0.4498(4) 0.0256(13) Uani 1 1 d . . .
C15 C 0.6922(4) 0.0510(4) 0.6059(4) 0.0241(12) Uani 1 1 d . . .
C16 C 0.7704(4) 0.0203(4) 0.6465(4) 0.0310(14) Uani 1 1 d . . .
H16 H 0.8315 0.0234 0.6207 0.037 Uiso 1 1 calc R . .
C17 C 0.7577(4) -0.0148(4) 0.7254(4) 0.0309(14) Uani 1 1 d . . .
H17 H 0.8103 -0.0353 0.7523 0.037 Uiso 1 1 calc R . .
C18 C 0.6669(5) -0.0195(4) 0.7640(4) 0.0311(14) Uani 1 1 d . . .
C19 C 0.5886(5) 0.0111(4) 0.7225(4) 0.0363(15) Uani 1 1 d . . .
H19 H 0.5275 0.0086 0.7481 0.044 Uiso 1 1 calc R . .
C20 C 0.6015(5) 0.0446(4) 0.6440(4) 0.0346(15) Uani 1 1 d . . .
H20 H 0.5485 0.0633 0.6162 0.042 Uiso 1 1 calc R . .
C21 C 0.6522(6) -0.0581(6) 0.8468(5) 0.055(2) Uani 1 1 d . . .
C22 C 0.9798(4) 0.0136(4) 0.2022(4) 0.0287(13) Uani 1 1 d . . .
C23 C 0.9632(4) 0.0697(4) 0.2896(4) 0.0255(12) Uani 1 1 d . . .
C24 C 0.9553(4) 0.0257(4) 0.3633(3) 0.0245(12) Uani 1 1 d . . .
H24 H 0.9637 -0.0370 0.3589 0.029 Uiso 1 1 calc R . .
C25 C 0.9348(4) 0.0740(4) 0.4437(4) 0.0279(13) Uani 1 1 d . . .
H25 H 0.9295 0.0436 0.4929 0.033 Uiso 1 1 calc R . .
C26 C 0.9222(4) 0.1676(4) 0.4512(4) 0.0217(12) Uani 1 1 d . . .
C27 C 0.9330(4) 0.2127(4) 0.3781(4) 0.0257(13) Uani 1 1 d . . .
H27 H 0.9274 0.2761 0.3830 0.031 Uiso 1 1 calc R . .
C28 C 0.9521(4) 0.1637(4) 0.2973(4) 0.0265(13) Uani 1 1 d . . .
H28 H 0.9576 0.1941 0.2481 0.032 Uiso 1 1 calc R . .
C29 C 0.9408(4) 0.2245(4) 0.6056(4) 0.0234(12) Uani 1 1 d . . .
C30 C 0.8805(4) 0.2528(4) 0.6838(4) 0.0229(12) Uani 1 1 d . . .
C31 C 0.9118(5) 0.2712(5) 0.7708(4) 0.0436(17) Uani 1 1 d . . .
H31 H 0.9773 0.2700 0.7873 0.052 Uiso 1 1 calc R . .
C32 C 0.8438(6) 0.2916(7) 0.8331(5) 0.060(2) Uani 1 1 d . . .
H32 H 0.8631 0.3046 0.8925 0.071 Uiso 1 1 calc R . .
C33 C 0.7465(6) 0.2925(6) 0.8070(4) 0.053(2) Uani 1 1 d . . .
H33 H 0.7000 0.3057 0.8486 0.063 Uiso 1 1 calc R . .
C34 C 0.7197(4) 0.2740(4) 0.7192(4) 0.0271(13) Uani 1 1 d . . .
C35 C 0.6219(4) 0.2767(4) 0.6754(4) 0.0300(14) Uani 1 1 d . . .
C36 C 0.5478(4) 0.2734(4) 0.5322(4) 0.0226(12) Uani 1 1 d . . .
C37 C 0.5413(5) 0.3666(4) 0.5219(4) 0.0332(14) Uani 1 1 d . . .
H37 H 0.5734 0.4159 0.5623 0.040 Uiso 1 1 calc R . .
C38 C 0.4871(5) 0.3841(4) 0.4517(5) 0.0416(17) Uani 1 1 d . . .
H38 H 0.4849 0.4459 0.4438 0.050 Uiso 1 1 calc R . .
C39 C 0.4355(4) 0.3116(4) 0.3920(4) 0.0290(13) Uani 1 1 d . . .
C40 C 0.4350(4) 0.2209(4) 0.4075(4) 0.0300(13) Uani 1 1 d . . .
H40 H 0.3967 0.1719 0.3710 0.036 Uiso 1 1 calc R . .
C41 C 0.4910(4) 0.2017(4) 0.4770(4) 0.0275(13) Uani 1 1 d . . .
H41 H 0.4902 0.1400 0.4864 0.033 Uiso 1 1 calc R . .
C42 C 0.6096(4) -0.3338(4) 0.6894(4) 0.0333(14) Uani 1 1 d . . .
N1 N 0.7798(3) 0.3599(3) 0.5178(3) 0.0237(10) Uani 1 1 d . . .
N2 N 0.7129(3) 0.2095(3) 0.4242(3) 0.0213(10) Uani 1 1 d . . .
N3 N 0.7074(3) 0.0976(3) 0.5311(3) 0.0217(10) Uani 1 1 d . . .
N4 N 0.8871(3) 0.2119(3) 0.5312(3) 0.0206(10) Uani 1 1 d . . .
N5 N 0.7869(3) 0.2544(3) 0.6612(3) 0.0208(10) Uani 1 1 d . . .
N6 N 0.6232(3) 0.2568(3) 0.5892(3) 0.0218(10) Uani 1 1 d . . .
O1 O 0.7571(3) 0.4501(3) 0.4096(3) 0.0336(10) Uani 1 1 d . . .
O2 O 0.6556(3) -0.0325(3) 0.4263(3) 0.0337(10) Uani 1 1 d . . .
O1W O 0.8668(3) -0.2297(3) 0.8346(3) 0.0400(11) Uani 1 1 d . . .
O3 O 1.0285(3) 0.2129(3) 0.6161(3) 0.0289(9) Uani 1 1 d . . .
O2W O 0.7704(4) -0.2274(4) 1.0098(3) 0.0580(14) Uani 1 1 d . . .
O4 O 0.5482(3) 0.2952(4) 0.7191(3) 0.0485(12) Uani 1 1 d . . .
O3W O 0.6882(4) -0.3993(3) 0.8652(4) 0.0576(14) Uani 1 1 d . . .
O5 O 1.1145(4) 0.5707(4) 0.7914(3) 0.0574(14) Uani 1 1 d . . .
O4W O 0.5613(4) -0.2468(5) 0.9148(5) 0.0808(19) Uani 1 1 d . . .
O6 O 1.0005(4) 0.6560(3) 0.8392(3) 0.0515(13) Uani 1 1 d . . .
O5W O 1.1573(4) -0.0058(4) -0.0065(4) 0.0633(15) Uani 1 1 d . . .
O7 O 0.5735(6) -0.0549(8) 0.8829(6) 0.153(5) Uani 1 1 d . . .
O6W O 0.9730(4) -0.1443(3) 0.0319(3) 0.0471(12) Uani 1 1 d . . .
O8 O 0.7201(4) -0.0970(3) 0.8768(3) 0.0416(11) Uani 1 1 d . . .
O7W O 1.1753(4) 0.3623(3) 0.5376(3) 0.0472(12) Uani 1 1 d . . .
O9 O 0.9626(4) -0.0735(3) 0.1949(3) 0.0471(13) Uani 1 1 d . . .
O8W O 1.1583(4) 0.3869(3) 0.7435(3) 0.0494(12) Uani 1 1 d . . .
O10 O 1.0097(3) 0.0577(3) 0.1403(2) 0.0339(10) Uani 1 1 d . . .
O9W O 1.3392(4) 0.3233(4) 0.6720(5) 0.0715(18) Uani 1 1 d . . .
O11 O 0.5841(4) -0.4125(3) 0.7126(3) 0.0545(14) Uani 1 1 d . . .
O10W O 1.1894(4) 0.1865(3) 0.7414(3) 0.0503(13) Uani 1 1 d . . .
O12 O 0.6717(3) -0.2688(3) 0.7339(3) 0.0366(10) Uani 1 1 d . . .
O11W O 1.2209(4) 0.1618(3) 0.5385(3) 0.0483(12) Uani 1 1 d . . .
O12W O 1.3868(4) 0.5127(4) 0.7097(4) 0.0631(15) Uani 1 1 d . . .
O13W O 1.1314(7) 0.7876(6) 0.9510(5) 0.116(3) Uani 1 1 d . . .
O14W O 0.6125(6) -0.1405(5) 0.2677(5) 0.103(2) Uani 1 1 d . . .
O15W O 0.2295(8) -0.3800(10) 0.9402(7) 0.183(5) Uani 1 1 d . . .
O16W O 0.4146(7) -0.4001(7) 0.8841(7) 0.133(3) Uani 1 1 d . . .
O17W O 0.8178(4) -0.2336(3) 0.6160(3) 0.0478(12) Uani 1 1 d . . .
O18W O 0.4983(11) 0.3178(16) 0.8903(8) 0.278(11) Uani 1 1 d . . .
O19W O 0.7527(19) -0.3794(8) 1.0976(8) 0.359(16) Uani 1 1 d . . .
O20W O 0.4036(14) 0.002(2) 0.9268(11) 0.316(13) Uani 1 1 d . . .
O21W O 0.9576(19) 0.5838(19) 0.9960(14) 0.379(17) Uani 1 1 d . . .
O22W O 0.6685(16) -0.129(2) 0.1255(13) 0.364(15) Uani 1 1 d . . .
Mn1 Mn 0.71386(7) -0.24625(7) 0.87095(6) 0.0329(3) Uani 1 1 d . . .
Mn2 Mn 1.0000 0.0000 0.0000 0.0320(3) Uani 1 2 d S . .
Mn3 Mn 1.18080(7) 0.27259(6) 0.63898(6) 0.0310(3) Uani 1 1 d . . .
Co Co 0.74953(5) 0.23214(5) 0.54228(5) 0.0184(2) Uani 1 1 d . . .

loop_
_atom_site_aniso_label
_atom_site_aniso_U_11
_atom_site_aniso_U_22
_atom_site_aniso_U_33
_atom_site_aniso_U_23
_atom_site_aniso_U_13
_atom_site_aniso_U_12
C1 0.036(4) 0.030(3) 0.034(4) 0.001(3) -0.003(3) 0.004(3)
C2 0.029(3) 0.022(3) 0.032(3) 0.005(2) -0.003(3) 0.002(3)
C3 0.035(4) 0.029(3) 0.039(4) -0.009(3) 0.003(3) 0.007(3)
C4 0.023(3) 0.028(3) 0.052(4) -0.004(3) 0.000(3) 0.004(3)
C5 0.025(3) 0.013(3) 0.028(3) 0.002(2) -0.004(2) 0.001(2)
C6 0.035(3) 0.022(3) 0.026(3) 0.002(2) 0.003(3) 0.002(3)
C7 0.026(3) 0.032(3) 0.035(4) 0.006(3) 0.006(3) 0.004(3)
C8 0.016(3) 0.025(3) 0.033(3) 0.009(2) -0.001(2) 0.002(2)
C9 0.025(3) 0.026(3) 0.026(3) 0.009(2) 0.001(2) 0.001(2)
C10 0.054(4) 0.032(3) 0.027(4) 0.009(3) -0.008(3) 0.000(3)
C11 0.069(5) 0.041(4) 0.025(4) 0.003(3) -0.011(3) 0.004(4)
C12 0.040(4) 0.031(3) 0.030(4) -0.002(3) -0.004(3) 0.003(3)
C13 0.017(3) 0.022(3) 0.026(3) -0.001(2) 0.000(2) 0.004(2)
C14 0.017(3) 0.027(3) 0.035(4) 0.009(3) 0.000(2) 0.006(2)
C15 0.024(3) 0.020(3) 0.028(3) 0.004(2) 0.000(2) 0.003(2)
C16 0.020(3) 0.039(3) 0.037(4) 0.013(3) 0.005(3) 0.005(3)
C17 0.027(3) 0.031(3) 0.040(4) 0.016(3) 0.001(3) 0.012(3)
C18 0.034(3) 0.029(3) 0.033(3) 0.007(3) 0.003(3) 0.014(3)
C19 0.023(3) 0.041(4) 0.052(4) 0.021(3) 0.012(3) 0.014(3)
C20 0.030(3) 0.031(3) 0.048(4) 0.018(3) -0.001(3) 0.008(3)
C21 0.055(5) 0.077(5) 0.051(5) 0.035(4) 0.024(4) 0.037(4)
C22 0.030(3) 0.027(3) 0.028(3) 0.004(2) 0.003(3) 0.001(3)
C23 0.021(3) 0.031(3) 0.024(3) 0.002(2) 0.003(2) 0.004(3)
C24 0.032(3) 0.020(3) 0.023(3) 0.006(2) 0.002(2) 0.008(2)
C25 0.029(3) 0.031(3) 0.025(3) 0.006(2) 0.001(2) 0.009(3)
C26 0.016(3) 0.025(3) 0.025(3) 0.003(2) -0.002(2) 0.006(2)
C27 0.027(3) 0.021(3) 0.031(3) 0.006(2) 0.008(2) 0.007(2)
C28 0.024(3) 0.030(3) 0.028(3) 0.012(3) 0.002(2) 0.004(3)
C29 0.032(3) 0.017(3) 0.023(3) 0.007(2) 0.006(2) 0.008(2)
C30 0.020(3) 0.025(3) 0.025(3) 0.006(2) 0.000(2) 0.004(2)
C31 0.032(4) 0.071(5) 0.030(4) 0.007(3) -0.005(3) 0.014(4)
C32 0.047(4) 0.116(7) 0.020(4) 0.007(4) -0.001(3) 0.030(5)
C33 0.048(4) 0.091(6) 0.026(4) 0.010(4) 0.009(3) 0.034(4)
C34 0.023(3) 0.031(3) 0.028(3) 0.004(2) 0.007(2) 0.007(3)
C35 0.021(3) 0.032(3) 0.037(4) 0.004(3) 0.005(3) 0.006(3)
C36 0.014(3) 0.026(3) 0.030(3) 0.004(2) 0.001(2) 0.008(2)
C37 0.033(3) 0.023(3) 0.040(4) -0.009(3) -0.013(3) 0.008(3)
C38 0.047(4) 0.024(3) 0.054(4) -0.002(3) -0.019(3) 0.019(3)
C39 0.020(3) 0.029(3) 0.038(4) 0.000(3) -0.007(3) 0.009(3)
C40 0.028(3) 0.026(3) 0.034(3) -0.001(2) -0.007(3) 0.001(3)
C41 0.019(3) 0.020(3) 0.044(4) 0.006(3) 0.002(3) 0.006(2)
C42 0.025(3) 0.033(3) 0.041(4) 0.002(3) -0.002(3) 0.007(3)
N1 0.024(2) 0.018(2) 0.029(3) 0.0048(19) -0.002(2) -0.001(2)
N2 0.020(2) 0.021(2) 0.023(2) 0.0029(19) 0.0051(19) 0.006(2)
N3 0.022(2) 0.018(2) 0.025(3) 0.0056(19) -0.0012(19) 0.0036(19)
N4 0.018(2) 0.021(2) 0.024(3) 0.0049(19) 0.0025(19) 0.0049(19)
N5 0.026(3) 0.016(2) 0.021(2) 0.0019(18) 0.0037(19) 0.004(2)
N6 0.015(2) 0.021(2) 0.029(3) 0.0025(19) 0.0001(19) 0.0051(19)
O1 0.047(3) 0.021(2) 0.034(2) 0.0102(18) -0.005(2) 0.0023(19)
O2 0.041(3) 0.016(2) 0.042(3) 0.0020(17) -0.006(2) -0.0006(19)
O1W 0.026(2) 0.035(2) 0.055(3) 0.002(2) 0.001(2) -0.003(2)
O3 0.018(2) 0.033(2) 0.038(2) 0.0055(18) 0.0004(17) 0.0100(18)
O2W 0.069(4) 0.064(3) 0.041(3) 0.020(2) -0.009(3) 0.001(3)
O4 0.033(3) 0.076(3) 0.040(3) 0.005(2) 0.009(2) 0.023(3)
O3W 0.059(3) 0.047(3) 0.066(4) 0.011(3) -0.002(3) 0.005(3)
O5 0.041(3) 0.065(3) 0.061(3) -0.021(3) -0.017(2) 0.025(3)
O4W 0.045(3) 0.083(4) 0.116(5) 0.018(4) 0.032(3) 0.007(3)
O6 0.055(3) 0.048(3) 0.048(3) -0.013(2) -0.017(2) 0.019(3)
O5W 0.040(3) 0.068(4) 0.077(4) -0.005(3) 0.003(3) 0.011(3)
O7 0.121(6) 0.286(12) 0.128(7) 0.156(8) 0.092(6) 0.145(8)
O6W 0.064(3) 0.037(3) 0.036(3) -0.001(2) -0.003(2) 0.000(2)
O8 0.050(3) 0.042(3) 0.037(3) 0.016(2) -0.001(2) 0.010(2)
O7W 0.065(3) 0.030(2) 0.050(3) 0.015(2) 0.014(2) 0.008(2)
O9 0.081(4) 0.029(2) 0.029(2) 0.0027(18) 0.020(2) -0.001(2)
O8W 0.053(3) 0.043(3) 0.052(3) -0.006(2) -0.006(2) 0.018(2)
O10 0.045(3) 0.031(2) 0.023(2) 0.0032(17) 0.0098(19) -0.004(2)
O9W 0.026(3) 0.050(3) 0.139(6) 0.014(3) 0.009(3) 0.005(3)
O11 0.059(3) 0.040(3) 0.063(3) 0.018(2) -0.024(3) -0.005(3)
O10W 0.046(3) 0.052(3) 0.056(3) 0.021(2) -0.006(2) 0.005(2)
O12 0.035(2) 0.038(2) 0.033(2) 0.0072(19) -0.0091(19) -0.007(2)
O11W 0.058(3) 0.043(3) 0.050(3) 0.006(2) 0.016(2) 0.029(2)
O12W 0.066(4) 0.048(3) 0.076(4) 0.025(3) -0.017(3) -0.002(3)
O13W 0.127(7) 0.108(6) 0.106(6) -0.040(5) -0.039(5) 0.049(5)
O14W 0.092(5) 0.101(5) 0.117(6) -0.005(4) -0.003(5) 0.042(5)
O15W 0.120(8) 0.271(15) 0.142(9) -0.042(9) -0.051(7) 0.058(9)
O16W 0.107(7) 0.142(8) 0.143(8) 0.016(6) 0.015(6) 0.000(6)
O17W 0.041(3) 0.056(3) 0.046(3) 0.005(2) -0.001(2) 0.008(2)
O18W 0.172(13) 0.49(3) 0.120(10) -0.053(13) 0.032(9) -0.028(16)
O19W 0.83(4) 0.097(7) 0.120(9) 0.055(7) -0.191(17) -0.051(14)
O20W 0.202(17) 0.52(4) 0.185(15) -0.074(18) 0.057(12) 0.04(2)
O21W 0.45(3) 0.52(4) 0.30(2) 0.27(3) 0.25(2) 0.28(3)
O22W 0.27(2) 0.58(4) 0.237(19) -0.13(2) 0.038(16) 0.23(3)
Mn1 0.0300(5) 0.0389(6) 0.0297(5) 0.0076(4) -0.0005(4) 0.0023(4)
Mn2 0.0385(8) 0.0324(7) 0.0222(7) 0.0001(5) 0.0030(6) 0.0000(6)
Mn3 0.0270(5) 0.0265(5) 0.0402(6) 0.0072(4) 0.0051(4) 0.0037(4)
C