####################################################################### 
# 
# This file contains crystal structure data downloaded from the 
# Cambridge Structural Database (CSD) hosted by the Cambridge 
# Crystallographic Data Centre (CCDC).
# 
# Full information about CCDC data access policies and citation 
# guidelines are available at http://www.ccdc.cam.ac.uk/access/V1 
# 
# Audit and citation data items may have been added by the CCDC. 
# Please retain this information to preserve the provenance of 
# this file and to allow appropriate attribution of the data. 
# 
#######################################################################

data_a
_audit_block_doi                 10.5517/cc13mnx9
_database_code_depnum_ccdc_archive 'CCDC 1031801'
loop_
_citation_id
_citation_doi
_citation_year
1 10.1021/ic502664e 2015
_audit_update_record             
;
2014-10-30 deposited with the CCDC.	2024-07-14 downloaded from the CCDC.
;

_audit_creation_method           SHELXL-97
_chemical_name_systematic        
; 
 ? 
;
_chemical_name_common            ?
_chemical_melting_point          ?
_chemical_formula_moiety         ?
_chemical_formula_sum            'C72 H47 Mn4 N O31 S5'
_chemical_formula_weight         1802.17

loop_
_atom_type_symbol
_atom_type_description
_atom_type_scat_dispersion_real
_atom_type_scat_dispersion_imag
_atom_type_scat_source
C C 0.0033 0.0016 'International Tables Vol C Tables 4.2.6.8 and 6.1.1.4'
H H 0.0000 0.0000 'International Tables Vol C Tables 4.2.6.8 and 6.1.1.4'
N N 0.0061 0.0033 'International Tables Vol C Tables 4.2.6.8 and 6.1.1.4'
O O 0.0106 0.0060 'International Tables Vol C Tables 4.2.6.8 and 6.1.1.4'
S S 0.1246 0.1234 'International Tables Vol C Tables 4.2.6.8 and 6.1.1.4'
Mn Mn 0.3368 0.7283 'International Tables Vol C Tables 4.2.6.8 and 6.1.1.4'

_symmetry_cell_setting           monoclinic
_symmetry_space_group_name_H-M   Cc

loop_
_symmetry_equiv_pos_as_xyz
'x, y, z'
'x, -y, z+1/2'
'x+1/2, y+1/2, z'
'x+1/2, -y+1/2, z+1/2'

_cell_length_a                   23.604(8)
_cell_length_b                   41.954(12)
_cell_length_c                   11.675(4)
_cell_angle_alpha                90.00
_cell_angle_beta                 116.908(4)
_cell_angle_gamma                90.00
_cell_volume                     10310(6)
_cell_formula_units_Z            4
_cell_measurement_temperature    293(2)
_cell_measurement_reflns_used    9307
_cell_measurement_theta_min      3.0382
_cell_measurement_theta_max      27.5127

_exptl_crystal_description       Prism
_exptl_crystal_colour            colorless
_exptl_crystal_size_max          0.5000
_exptl_crystal_size_mid          0.4000
_exptl_crystal_size_min          0.1500
_exptl_crystal_density_meas      ?
_exptl_crystal_density_diffrn    1.161
_exptl_crystal_density_method    'not measured'
_exptl_crystal_F_000             3656
_exptl_absorpt_coefficient_mu    0.645
_exptl_absorpt_correction_type   Multi-scan
_exptl_absorpt_correction_T_min  0.8876
_exptl_absorpt_correction_T_max  1.0000
_exptl_absorpt_process_details   ?

_exptl_special_details           
; 
 ? 
;

_diffrn_ambient_temperature      293(2)
_diffrn_radiation_wavelength     0.71073
_diffrn_radiation_type           MoK\a
_diffrn_radiation_source         'fine-focus sealed tube'
_diffrn_radiation_monochromator  graphite
_diffrn_measurement_device_type  'Mercury70 (2x2 bin mode)'
_diffrn_measurement_method       CCD_Profile_fitting
_diffrn_detector_area_resol_mean 14.6306
_diffrn_standards_number         ?
_diffrn_standards_interval_count ?
_diffrn_standards_interval_time  ?
_diffrn_standards_decay_%        ?
_diffrn_reflns_number            39611
_diffrn_reflns_av_R_equivalents  0.0319
_diffrn_reflns_av_sigmaI/netI    0.0612
_diffrn_reflns_limit_h_min       -30
_diffrn_reflns_limit_h_max       30
_diffrn_reflns_limit_k_min       -54
_diffrn_reflns_limit_k_max       54
_diffrn_reflns_limit_l_min       -15
_diffrn_reflns_limit_l_max       15
_diffrn_reflns_theta_min         2.94
_diffrn_reflns_theta_max         27.49
_reflns_number_total             20646
_reflns_number_gt                14198
_reflns_threshold_expression     >2sigma(I)

_computing_data_collection       'CrystalClear (Rigaku Inc., 2008)'
_computing_cell_refinement       'CrystalClear (Rigaku Inc., 2008)'
_computing_data_reduction        'CrystalClear (Rigaku Inc., 2008)'
_computing_structure_solution    'SHELXS-97 (Sheldrick, 1990)'
_computing_structure_refinement  'SHELXL-97 (Sheldrick, 1997)'
_computing_molecular_graphics    'DIAMOND. Version 3.0. Crystal Impact'
_computing_publication_material  'Windows Word 2007'

_refine_special_details          SQUEEZE

_refine_ls_structure_factor_coef Fsqd
_refine_ls_matrix_type           full
_refine_ls_weighting_scheme      calc
_refine_ls_weighting_details     
'calc w=1/[\s^2^(Fo^2^)+(0.1000P)^2^+0.0000P] where P=(Fo^2^+2Fc^2^)/3'
_atom_sites_solution_primary     direct
_atom_sites_solution_secondary   difmap
_atom_sites_solution_hydrogens   geom
_refine_ls_hydrogen_treatment    mixed
_refine_ls_extinction_method     none
_refine_ls_extinction_coef       ?
_refine_ls_abs_structure_details 'Flack H D (1983), Acta Cryst. A39, 876-881'
_refine_ls_abs_structure_Flack   0.101(18)
_refine_ls_number_reflns         20646
_refine_ls_number_parameters     1006
_refine_ls_number_restraints     4
_refine_ls_R_factor_all          0.0840
_refine_ls_R_factor_gt           0.0612
_refine_ls_wR_factor_ref         0.1873
_refine_ls_wR_factor_gt          0.1635
_refine_ls_goodness_of_fit_ref   1.038
_refine_ls_restrained_S_all      1.039
_refine_ls_shift/su_max          0.059
_refine_ls_shift/su_mean         0.012

loop_
_atom_site_label
_atom_site_type_symbol
_atom_site_fract_x
_atom_site_fract_y
_atom_site_fract_z
_atom_site_U_iso_or_equiv
_atom_site_adp_type
_atom_site_occupancy
_atom_site_symmetry_multiplicity
_atom_site_calc_flag
_atom_site_refinement_flags
_atom_site_disorder_assembly
_atom_site_disorder_group
Mn1 Mn 0.82281(6) 0.122883(14) 0.51320(10) 0.05087(16) Uani 1 1 d . . .
Mn2 Mn 0.91077(4) 0.14929(2) 0.83268(7) 0.0516(2) Uani 1 1 d . . .
Mn3 Mn 0.82158(5) 0.171620(13) 1.01443(9) 0.04439(14) Uani 1 1 d . . .
Mn4 Mn 0.73149(5) 0.14606(2) 1.18611(8) 0.0597(3) Uani 1 1 d . . .
S1 S 1.00800(10) 0.27882(5) 0.3754(2) 0.0888(6) Uani 1 1 d . . .
S2 S 1.07260(8) -0.04053(4) 0.82010(18) 0.0645(4) Uani 1 1 d . . .
S3 S 0.57270(7) 0.04146(3) 0.71001(17) 0.0578(4) Uani 1 1 d . . .
S4 S 0.45295(12) 0.14949(5) 0.3683(2) 0.1050(9) Uani 1 1 d . . .
S5 S 0.70589(11) 0.35254(4) 1.1299(2) 0.1039(9) Uani 1 1 d . . .
O1 O 0.8843(3) 0.16315(12) 0.5838(5) 0.0847(15) Uani 1 1 d . . .
O2 O 0.9728(3) 0.16830(13) 0.7589(5) 0.0931(15) Uani 1 1 d . . .
O3 O 0.8968(3) 0.09082(12) 0.6144(4) 0.0776(14) Uani 1 1 d . . .
O4 O 0.9397(3) 0.10152(11) 0.8246(5) 0.0725(13) Uani 1 1 d . . .
O5 O 0.8054(2) 0.12824(10) 0.6801(4) 0.0585(11) Uani 1 1 d . . .
O6 O 0.83195(19) 0.13349(8) 0.8851(4) 0.0487(9) Uani 1 1 d . . .
O7 O 0.7231(2) 0.16946(10) 0.9065(5) 0.0686(12) Uani 1 1 d . . .
O8 O 0.6660(2) 0.14580(11) 0.9923(4) 0.0666(11) Uani 1 1 d . . .
O9 O 0.8131(2) 0.20395(11) 1.1473(4) 0.0738(12) Uani 1 1 d . . .
O10 O 0.7361(3) 0.19512(10) 1.2004(5) 0.0798(14) Uani 1 1 d . . .
O11 O 1.1194(4) 0.2099(3) -0.0035(10) 0.208(3) Uani 1 1 d . . .
O12 O 1.2031(5) 0.2131(3) 0.1747(9) 0.208(3) Uani 1 1 d . . .
H12B H 1.2191 0.2040 0.1340 0.312 Uiso 1 1 calc R . .
O13 O 0.8386(2) -0.12714(12) 0.8433(4) 0.0686(12) Uani 1 1 d . . .
O14 O 0.8113(2) -0.13180(9) 0.6382(4) 0.0507(9) Uani 1 1 d . . .
O15 O 0.7021(3) -0.10030(10) 0.7075(4) 0.0725(13) Uani 1 1 d . . .
O16 O 0.7543(3) -0.08736(11) 0.9169(4) 0.0737(13) Uani 1 1 d . . .
O17 O 0.3722(3) 0.30364(11) 0.2963(5) 0.0924(17) Uani 1 1 d . . .
O18 O 0.3263(2) 0.28765(10) 0.4117(5) 0.0819(14) Uani 1 1 d . . .
O19 O 0.4758(2) 0.34593(14) 0.5255(4) 0.0803(14) Uani 1 1 d . . .
O20 O 0.4211(2) 0.33111(10) 0.6309(4) 0.0647(12) Uani 1 1 d . . .
O21 O 0.9489(3) 0.29129(14) 0.2774(6) 0.1088(19) Uani 1 1 d . . .
O22 O 1.0528(3) 0.29984(14) 0.4753(6) 0.118(2) Uani 1 1 d . . .
O23 O 1.1211(2) -0.04259(12) 0.9493(6) 0.0876(16) Uani 1 1 d . . .
O24 O 1.0886(2) -0.04584(12) 0.7153(5) 0.0763(13) Uani 1 1 d . . .
O25 O 0.5576(2) 0.04800(11) 0.8133(6) 0.0788(14) Uani 1 1 d . . .
O26 O 0.5234(2) 0.04326(12) 0.5788(5) 0.0776(13) Uani 1 1 d . . .
O27 O 0.4072(3) 0.12713(12) 0.3691(7) 0.140(3) Uani 1 1 d . . .
O28 O 0.4771(4) 0.14700(18) 0.2730(6) 0.145(3) Uani 1 1 d . . .
O29 O 0.7558(3) 0.37083(15) 1.1101(9) 0.163(4) Uani 1 1 d . . .
O30 O 0.6871(4) 0.36214(14) 1.2256(5) 0.141(3) Uani 1 1 d . . .
O31 O 0.7434(3) 0.15641(13) 0.4072(5) 0.0854(15) Uani 1 1 d . . .
C1 C 0.9349(4) 0.17564(14) 0.6362(8) 0.0750(19) Uani 1 1 d . . .
C2 C 1.1446(8) 0.2150(6) 0.1074(18) 0.208(3) Uani 1 1 d . . .
C3 C 0.9359(3) 0.22960(17) 0.3869(7) 0.0796(18) Uani 1 1 d . . .
H3A H 0.9105 0.2332 0.2998 0.096 Uiso 1 1 calc R . .
C4 C 0.9198(3) 0.20678(15) 0.4496(6) 0.0714(16) Uani 1 1 d . . .
H4A H 0.8826 0.1952 0.4044 0.086 Uiso 1 1 calc R . .
C5 C 0.9574(3) 0.20014(13) 0.5797(5) 0.0569(12) Uani 1 1 d . . .
C6 C 1.0134(3) 0.21665(15) 0.6444(6) 0.0698(16) Uani 1 1 d . . .
H6A H 1.0407 0.2117 0.7295 0.084 Uiso 1 1 calc R . .
C7 C 1.0287(3) 0.24049(18) 0.5822(7) 0.0814(19) Uani 1 1 d . . .
H7A H 1.0656 0.2523 0.6272 0.098 Uiso 1 1 calc R . .
C8 C 0.9900(3) 0.24729(16) 0.4533(6) 0.0728(17) Uani 1 1 d . . .
C9 C 1.0467(4) 0.2336(3) 0.1172(9) 0.110(3) Uani 1 1 d . . .
H9A H 1.0233 0.2248 0.0361 0.132 Uiso 1 1 calc R . .
C10 C 1.0173(4) 0.2473(3) 0.1818(10) 0.102(3) Uani 1 1 d . . .
H10A H 0.9731 0.2478 0.1439 0.122 Uiso 1 1 calc R . .
C11 C 1.0513(3) 0.26030(17) 0.3016(7) 0.080(2) Uani 1 1 d . . .
C12 C 1.1151(4) 0.2601(3) 0.3645(9) 0.116(4) Uani 1 1 d . . .
H12A H 1.1375 0.2686 0.4466 0.140 Uiso 1 1 calc R . .
C13 C 1.1457(4) 0.2464(3) 0.2984(9) 0.123(3) Uani 1 1 d . . .
H13A H 1.1898 0.2460 0.3375 0.148 Uiso 1 1 calc R . .
C14 C 1.1120(4) 0.2332(2) 0.1748(9) 0.104(3) Uani 1 1 d . . .
C15 C 0.8501(3) -0.12185(13) 0.7515(5) 0.0514(14) Uani 1 1 d . . .
C16 C 0.9333(3) 0.08492(15) 0.7321(6) 0.0598(15) Uani 1 1 d . . .
C17 C 1.0436(4) 0.01612(15) 0.8998(6) 0.0619(16) Uani 1 1 d . . .
H17A H 1.0701 0.0093 0.9829 0.074 Uiso 1 1 calc R . .
C18 C 1.0120(3) 0.04378(17) 0.8804(6) 0.0622(16) Uani 1 1 d . . .
H18A H 1.0168 0.0560 0.9507 0.075 Uiso 1 1 calc R . .
C19 C 0.9715(3) 0.05463(14) 0.7554(6) 0.0612(16) Uani 1 1 d . . .
C20 C 0.9980(4) 0.00779(16) 0.6740(7) 0.0746(19) Uani 1 1 d . . .
H20A H 0.9935 -0.0047 0.6044 0.089 Uiso 1 1 calc R . .
C21 C 1.0367(3) -0.00177(15) 0.7982(6) 0.0597(15) Uani 1 1 d . . .
C22 C 0.9671(5) 0.03548(17) 0.6564(7) 0.081(2) Uani 1 1 d . . .
H22A H 0.9413 0.0421 0.5727 0.097 Uiso 1 1 calc R . .
C23 C 0.9509(3) -0.09352(17) 0.8909(6) 0.0668(17) Uani 1 1 d . . .
H23A H 0.9460 -0.0998 0.9624 0.080 Uiso 1 1 calc R . .
C24 C 1.0025(3) -0.07495(17) 0.9058(7) 0.0658(17) Uani 1 1 d . . .
H24A H 1.0324 -0.0684 0.9870 0.079 Uiso 1 1 calc R . .
C25 C 1.0083(3) -0.06649(14) 0.7993(6) 0.0557(15) Uani 1 1 d . . .
C26 C 0.9658(3) -0.07546(14) 0.6767(6) 0.0555(14) Uani 1 1 d . . .
H26A H 0.9713 -0.0694 0.6058 0.067 Uiso 1 1 calc R . .
C27 C 0.9150(3) -0.09376(13) 0.6634(5) 0.0506(13) Uani 1 1 d . . .
H27A H 0.8857 -0.1002 0.5816 0.061 Uiso 1 1 calc R . .
C28 C 0.9058(3) -0.10288(13) 0.7664(5) 0.0495(13) Uani 1 1 d . . .
C58 C 0.4700(3) 0.33999(14) 0.6248(6) 0.0568(15) Uani 1 1 d . . .
C29 C 0.7955(3) 0.12293(12) 0.7758(5) 0.0423(12) Uani 1 1 d . . .
C30 C 0.7135(4) -0.08273(13) 0.8039(6) 0.0633(18) Uani 1 1 d . . .
C31 C 0.6798(3) 0.07518(13) 0.8464(6) 0.0514(13) Uani 1 1 d . . .
H31A H 0.6747 0.0688 0.9175 0.062 Uiso 1 1 calc R . .
C32 C 0.7324(3) 0.09327(13) 0.8646(6) 0.0493(13) Uani 1 1 d . . .
H32A H 0.7630 0.0986 0.9468 0.059 Uiso 1 1 calc R . .
C33 C 0.7385(3) 0.10337(12) 0.7552(5) 0.0459(12) Uani 1 1 d . . .
C34 C 0.6923(3) 0.09539(14) 0.6348(6) 0.0595(16) Uani 1 1 d . . .
H34A H 0.6956 0.1027 0.5629 0.071 Uiso 1 1 calc R . .
C35 C 0.6412(3) 0.07677(14) 0.6186(6) 0.0572(14) Uani 1 1 d . . .
H35A H 0.6109 0.0711 0.5366 0.069 Uiso 1 1 calc R . .
C36 C 0.6352(3) 0.06659(12) 0.7261(6) 0.0523(14) Uani 1 1 d . . .
C37 C 0.6334(4) -0.04420(13) 0.6526(7) 0.0643(17) Uani 1 1 d . . .
H37A H 0.6278 -0.0573 0.5840 0.077 Uiso 1 1 calc R . .
C38 C 0.6001(3) -0.01517(15) 0.6307(6) 0.0579(14) Uani 1 1 d . . .
H38A H 0.5731 -0.0087 0.5474 0.070 Uiso 1 1 calc R . .
C39 C 0.6082(3) 0.00393(13) 0.7355(6) 0.0505(13) Uani 1 1 d . . .
C40 C 0.6473(3) -0.00578(14) 0.8598(6) 0.0599(15) Uani 1 1 d . . .
H40A H 0.6519 0.0069 0.9289 0.072 Uiso 1 1 calc R . .
C41 C 0.6801(3) -0.03482(14) 0.8815(6) 0.0571(14) Uani 1 1 d . . .
H41A H 0.7053 -0.0418 0.9650 0.068 Uiso 1 1 calc R . .
C42 C 0.6745(3) -0.05310(13) 0.7774(5) 0.0531(14) Uani 1 1 d . . .
C43 C 0.6724(3) 0.15718(15) 0.9000(7) 0.0573(15) Uani 1 1 d . . .
C44 C 0.3584(3) 0.28297(14) 0.3535(6) 0.0601(15) Uani 1 1 d . . .
C45 C 0.4448(4) 0.21296(18) 0.3069(7) 0.0755(19) Uani 1 1 d . . .
H45A H 0.4756 0.2090 0.2796 0.091 Uiso 1 1 calc R . .
C46 C 0.4233(4) 0.24251(16) 0.3059(7) 0.0714(19) Uani 1 1 d . . .
H46A H 0.4404 0.2593 0.2795 0.086 Uiso 1 1 calc R . .
C47 C 0.3759(3) 0.24909(13) 0.3430(6) 0.0516(13) Uani 1 1 d . . .
C48 C 0.3508(3) 0.22461(16) 0.3840(7) 0.0692(17) Uani 1 1 d . . .
H48A H 0.3199 0.2286 0.4107 0.083 Uiso 1 1 calc R . .
C49 C 0.3729(4) 0.19347(16) 0.3845(7) 0.0759(19) Uani 1 1 d . . .
H49A H 0.3554 0.1764 0.4084 0.091 Uiso 1 1 calc R . .
C50 C 0.4200(4) 0.18850(16) 0.3498(7) 0.0733(19) Uani 1 1 d . . .
C51 C 0.5628(4) 0.14105(19) 0.7485(8) 0.085(2) Uani 1 1 d . . .
H51A H 0.5595 0.1330 0.8195 0.102 Uiso 1 1 calc R . .
C52 C 0.5102(4) 0.1382(2) 0.6248(9) 0.094(3) Uani 1 1 d . . .
H52A H 0.4725 0.1287 0.6136 0.113 Uiso 1 1 calc R . .
C53 C 0.5170(4) 0.15005(16) 0.5236(8) 0.084(2) Uani 1 1 d U . .
C54 C 0.5753(4) 0.1644(3) 0.5423(9) 0.101(3) Uani 1 1 d U . .
H54A H 0.5810 0.1720 0.4734 0.122 Uiso 1 1 calc R . .
C55 C 0.6220(4) 0.1667(2) 0.6650(8) 0.089(3) Uani 1 1 d . . .
H55A H 0.6595 0.1770 0.6791 0.107 Uiso 1 1 calc R . .
C56 C 0.6170(3) 0.15509(15) 0.7650(7) 0.0600(16) Uani 1 1 d . . .
C57 C 0.7703(3) 0.21253(15) 1.1740(6) 0.0621(16) Uani 1 1 d . . .
C59 C 0.5813(4) 0.34254(18) 0.9805(7) 0.0746(19) Uani 1 1 d . . .
H59A H 0.5800 0.3397 1.0583 0.090 Uiso 1 1 calc R . .
C60 C 0.5272(4) 0.33868(17) 0.8669(6) 0.0685(17) Uani 1 1 d . . .
H60A H 0.4893 0.3330 0.8677 0.082 Uiso 1 1 calc R . .
C61 C 0.5290(3) 0.34331(12) 0.7503(6) 0.0492(12) Uani 1 1 d . . .
C62 C 0.5862(4) 0.3524(2) 0.7532(9) 0.092(3) Uani 1 1 d . . .
H62A H 0.5883 0.3564 0.6769 0.111 Uiso 1 1 calc R . .
C63 C 0.6394(4) 0.3554(2) 0.8680(9) 0.093(3) Uani 1 1 d . . .
H63A H 0.6779 0.3610 0.8694 0.112 Uiso 1 1 calc R . .
C64 C 0.6365(3) 0.35045(14) 0.9789(7) 0.0663(17) Uani 1 1 d . . .
C67 C 0.7300(3) 0.31243(15) 1.1546(7) 0.071(2) Uani 1 1 d . . .
C65 C 0.7183(3) 0.25937(16) 1.2178(7) 0.0669(17) Uani 1 1 d . . .
H65A H 0.7010 0.2455 1.2556 0.080 Uiso 1 1 calc R . .
C66 C 0.7034(4) 0.29209(17) 1.2076(8) 0.077(2) Uani 1 1 d . . .
H66A H 0.6755 0.2998 1.2372 0.092 Uiso 1 1 calc R . .
C68 C 0.7732(4) 0.30122(17) 1.1161(8) 0.079(2) Uani 1 1 d . . .
H68A H 0.7921 0.3153 1.0822 0.095 Uiso 1 1 calc R . .
C69 C 0.7887(4) 0.26997(17) 1.1266(7) 0.0721(18) Uani 1 1 d . . .
H69A H 0.8196 0.2629 1.1039 0.087 Uiso 1 1 calc R . .
C70 C 0.7582(3) 0.24825(14) 1.1718(6) 0.0585(15) Uani 1 1 d . . .
N1 N 0.3325(5) 0.1733(5) 0.0017(11) 0.268(10) Uani 1 1 d D . .
H1A H 0.3565 0.1598 0.0650 0.322 Uiso 1 1 calc R . .
H1B H 0.3109 0.1609 -0.0675 0.322 Uiso 1 1 calc R . .
C72 C 0.3756(6) 0.1883(7) -0.0268(12) 0.289(14) Uani 1 1 d . . .
H72A H 0.3998 0.1727 -0.0461 0.433 Uiso 1 1 calc R . .
H72B H 0.4036 0.2008 0.0455 0.433 Uiso 1 1 calc R . .
H72C H 0.3538 0.2019 -0.0998 0.433 Uiso 1 1 calc R . .
C71 C 0.2872(6) 0.1830(6) 0.0360(14) 0.34(2) Uani 1 1 d D . .
H71A H 0.2669 0.1647 0.0506 0.510 Uiso 1 1 calc R . .
H71B H 0.2561 0.1957 -0.0317 0.510 Uiso 1 1 calc R . .
H71C H 0.3066 0.1955 0.1132 0.510 Uiso 1 1 calc R . .

loop_
_atom_site_aniso_label
_atom_site_aniso_U_11
_atom_site_aniso_U_22
_atom_site_aniso_U_33
_atom_site_aniso_U_23
_atom_site_aniso_U_13
_atom_site_aniso_U_12
Mn1 0.0708(4) 0.0514(3) 0.0305(3) -0.0006(4) 0.0231(3) -0.0057(5)
Mn2 0.0646(5) 0.0550(5) 0.0383(5) -0.0051(4) 0.0261(4) -0.0116(4)
Mn3 0.0533(3) 0.0428(3) 0.0361(3) 0.0004(4) 0.0194(3) -0.0012(4)
Mn4 0.0870(7) 0.0490(5) 0.0528(6) 0.0056(4) 0.0403(6) -0.0008(4)
S1 0.0844(13) 0.0779(11) 0.1027(15) 0.0215(10) 0.0410(12) -0.0170(9)
S2 0.0560(10) 0.0636(9) 0.0728(12) -0.0009(8) 0.0282(10) 0.0024(7)
S3 0.0514(9) 0.0464(7) 0.0748(11) -0.0011(7) 0.0278(9) -0.0004(6)
S4 0.1029(16) 0.0662(11) 0.0810(14) -0.0227(10) -0.0154(12) 0.0325(10)
S5 0.0926(14) 0.0475(9) 0.0916(16) -0.0080(9) -0.0287(12) 0.0086(8)
O1 0.100(4) 0.080(3) 0.092(4) -0.022(3) 0.059(3) -0.036(3)
O2 0.100(4) 0.112(4) 0.081(4) 0.018(3) 0.053(3) -0.010(3)
O3 0.102(4) 0.081(3) 0.044(3) 0.009(2) 0.029(3) 0.031(3)
O4 0.099(4) 0.061(3) 0.058(3) -0.008(2) 0.037(3) 0.009(2)
O5 0.080(3) 0.062(2) 0.041(2) -0.0033(18) 0.034(2) -0.014(2)
O6 0.062(2) 0.0462(19) 0.038(2) -0.0047(16) 0.023(2) -0.0115(17)
O7 0.062(3) 0.063(3) 0.075(3) 0.006(2) 0.026(3) -0.001(2)
O8 0.056(3) 0.081(3) 0.055(3) 0.003(2) 0.019(2) 0.0022(19)
O9 0.075(3) 0.073(3) 0.061(3) -0.017(2) 0.021(2) 0.010(2)
O10 0.121(4) 0.049(2) 0.088(4) 0.005(2) 0.064(3) 0.005(2)
O11 0.124(5) 0.360(10) 0.130(5) -0.016(6) 0.049(5) 0.029(6)
O12 0.124(5) 0.360(10) 0.130(5) -0.016(6) 0.049(5) 0.029(6)
O13 0.087(3) 0.094(3) 0.034(2) -0.005(2) 0.035(2) -0.015(2)
O14 0.066(3) 0.051(2) 0.034(2) -0.0061(17) 0.021(2) -0.0057(17)
O15 