
#######################################################################
#
#                 Cambridge Crystallographic Data Centre
#                                CCDC
#
#######################################################################
#
# If this CIF has been generated from an entry in the Cambridge
# Structural Database, then it will include bibliographic, chemical,
# crystal, experimental, refinement or atomic coordinate data resulting
# from the CCDC's data processing and validation procedures.
#
#######################################################################

data_CSD_CIF_ZOZLAB
_audit_creation_date 1996-06-14
_audit_creation_method CSD-ConQuest-V1
_database_code_CSD ZOZLAB
_database_code_depnum_ccdc_archive 'CCDC 126437'
_chemical_formula_sum 'C16 H16 Np1'
_chemical_formula_moiety
;
C16 H16 Np1
;
_journal_coeditor_code "IUCr JZ1077"
_journal_coden_Cambridge 591
_journal_volume 52
_journal_year 1996
_journal_page_first 597
_journal_name_full 'Acta Crystallogr.,Sect.C:Cryst.Struct.Commun. '
loop_
_publ_author_name
"D.J.A.De Ridder"
"J.Rebizant"
"C.Apostolidis"
"B.Kanellakopulos"
"E.Dornberger"
_chemical_name_systematic
;
bis(\h^8^-Cyclo-octatetraenyl)-neptunium(iv)
;
_chemical_name_common
;
Neptunocene; Teaching Subset: Fundamental Chemistry, Symmetry
;
_cell_volume    648.575
_exptl_crystal_colour 'dark brown'
_exptl_crystal_density_diffrn 2.28
_exptl_special_details
;
Isostructural and isomorphous with the thorocene, plutonocene and uranocene 
analogues
;
_diffrn_ambient_temperature ?
_diffrn_special_details
;
The study was carried out at room temperature,in the range 283-303K

;
#These two values have been output from a single CSD field.
_refine_ls_R_factor_gt 0.038
_refine_ls_wR_factor_gt 0.038
_symmetry_cell_setting monoclinic
_symmetry_space_group_name_H-M 'P 21/n'
_symmetry_Int_Tables_number 14
loop_
_symmetry_equiv_pos_site_id
_symmetry_equiv_pos_as_xyz
1 x,y,z
2 1/2-x,1/2+y,1/2-z
3 -x,-y,-z
4 -1/2+x,-1/2-y,-1/2+z
_cell_length_a 7.124(4)
_cell_length_b 8.687(3)
_cell_length_c 10.6064(13)
_cell_angle_alpha 90
_cell_angle_beta 98.85(4)
_cell_angle_gamma 90
_cell_formula_units_Z 2
loop_
_atom_type_symbol
_atom_type_radius_bond
C 0.68
H 0.23
Np 1.57
loop_
_atom_site_label
_atom_site_type_symbol
_atom_site_fract_x
_atom_site_fract_y
_atom_site_fract_z
Np1 Np 0.00000 0.00000 0.00000
C1 C 0.259(2) 0.0201(7) 0.205(1)
C2 C 0.335(1) 0.092(1) 0.1128(9)
C3 C 0.278(1) 0.1992(9) 0.0229(8)
C4 C 0.110(1) 0.2879(9) -0.0114(7)
C5 C -0.066(1) 0.293(1) 0.0344(8)
C6 C -0.1452(9) 0.2193(9) 0.1283(7)
C7 C -0.088(1) 0.112(1) 0.2140(7)
C8 C 0.077(2) 0.0261(9) 0.2501(8)
H1 H 0.34300 -0.05200 0.25200
H2 H 0.46100 0.05800 0.11000
H3 H 0.37200 0.22100 -0.02900
H4 H 0.11700 0.35800 -0.07900
H5 H -0.15000 0.36600 -0.01100
H6 H -0.27100 0.25400 0.13300
H7 H -0.18400 0.08600 0.26300
H8 H 0.06900 -0.04200 0.31900
C1B C -0.259(2) -0.0201(7) -0.205(1)
C2B C -0.335(1) -0.092(1) -0.1128(9)
C3B C -0.278(1) -0.1992(9) -0.0229(8)
H2B H -0.46100 -0.05800 -0.11000
C4B C -0.110(1) -0.2879(9) 0.0114(7)
C5B C 0.066(1) -0.293(1) -0.0344(8)
H4B H -0.11700 -0.35800 0.07900
C6B C 0.1452(9) -0.2193(9) -0.1283(7)
C7B C 0.088(1) -0.112(1) -0.2140(7)
H6B H 0.27100 -0.25400 -0.13300
C8B C -0.077(2) -0.0261(9) -0.2501(8)
H1B H -0.34300 0.05200 -0.25200
H8B H -0.06900 0.04200 -0.31900
H7B H 0.18400 -0.08600 -0.26300
H5B H 0.15000 -0.36600 0.01100
H3B H -0.37200 -0.22100 0.02900
#END
