####################################################################### 
# 
# This file contains crystal structure data downloaded from the 
# Cambridge Structural Database (CSD) hosted by the Cambridge 
# Crystallographic Data Centre (CCDC).
# 
# Full information about CCDC data access policies and citation 
# guidelines are available at http://www.ccdc.cam.ac.uk/access/V1 
# 
# Audit and citation data items may have been added by the CCDC. 
# Please retain this information to preserve the provenance of 
# this file and to allow appropriate attribution of the data. 
# 
#######################################################################

data_902fjr61
_audit_block_doi                 10.5517/cc14hdkl
_database_code_depnum_ccdc_archive 'CCDC 1057489'
_audit_update_record             
;
2015-04-02 deposited with the CCDC.	2024-07-14 downloaded from the CCDC.
;

_audit_creation_method           SHELXL-97
_chemical_name_systematic        
; 
catena-[(acetone)-bis(2,3-di(pyrazol-1-yl)quinoxaline)-dicopper(i)] bis(tetrafluoroborate) acetone disolvate
;
_chemical_name_common            '902  R-61  Cu2(bpzqnx)2(BF4)2.3Me2CO'
_chemical_melting_point          ?
_chemical_formula_moiety         'C31 H26 Cu2 N12 O, 2(B F4), 2(C3 H6 O)'
_chemical_formula_sum            'C37 H38 B2 Cu2 F8 N12 O3'
_chemical_formula_weight         999.49

loop_
_atom_type_symbol
_atom_type_description
_atom_type_scat_dispersion_real
_atom_type_scat_dispersion_imag
_atom_type_scat_source
C C 0.0033 0.0016 'International Tables Vol C Tables 4.2.6.8 and 6.1.1.4'
H H 0.0000 0.0000 'International Tables Vol C Tables 4.2.6.8 and 6.1.1.4'
B B 0.0013 0.0007 'International Tables Vol C Tables 4.2.6.8 and 6.1.1.4'
N N 0.0061 0.0033 'International Tables Vol C Tables 4.2.6.8 and 6.1.1.4'
O O 0.0106 0.0060 'International Tables Vol C Tables 4.2.6.8 and 6.1.1.4'
F F 0.0171 0.0103 'International Tables Vol C Tables 4.2.6.8 and 6.1.1.4'
Cu Cu 0.3201 1.2651 'International Tables Vol C Tables 4.2.6.8 and 6.1.1.4'

_symmetry_cell_setting           Triclinic
_symmetry_space_group_name_H-M   P-1
_symmetry_space_group_name_Hall  '-P 1'

loop_
_symmetry_equiv_pos_as_xyz
'x, y, z'
'-x, -y, -z'

_cell_length_a                   11.4055(5)
_cell_length_b                   14.3647(7)
_cell_length_c                   15.3589(7)
_cell_angle_alpha                63.6090(10)
_cell_angle_beta                 76.3790(10)
_cell_angle_gamma                66.7950(10)
_cell_volume                     2066.17(16)
_cell_formula_units_Z            2
_cell_measurement_temperature    173(2)
_cell_measurement_reflns_used    7643
_cell_measurement_theta_min      2.36
_cell_measurement_theta_max      29.96

_exptl_crystal_description       prism
_exptl_crystal_colour            red
_exptl_crystal_size_max          0.72
_exptl_crystal_size_mid          0.24
_exptl_crystal_size_min          0.18
_exptl_crystal_density_meas      ?
_exptl_crystal_density_diffrn    1.607
_exptl_crystal_density_method    'not measured'
_exptl_crystal_F_000             1016
_exptl_absorpt_coefficient_mu    1.120
_exptl_absorpt_correction_type   multi-scan
_exptl_absorpt_correction_T_min  0.81
_exptl_absorpt_correction_T_max  1.00
_exptl_absorpt_process_details   'program SADABS, V2.10'

_exptl_special_details           
; 
Crystals from acetone / pentane
Bruker AXS Smart APEX CCD platform 3-circle diffractometer 
and Kryoflex crystal cooler. 
;

_diffrn_ambient_temperature      173(2)
_diffrn_radiation_wavelength     0.71073
_diffrn_radiation_type           MoK\a
_diffrn_radiation_source         'normal-focus sealed tube'
_diffrn_radiation_monochromator  graphite
_diffrn_measurement_device_type  'Bruker Smart APEX CCD'
_diffrn_measurement_method       '\w scans'
_diffrn_reflns_number            31158
_diffrn_reflns_av_R_equivalents  0.0164
_diffrn_reflns_av_sigmaI/netI    0.0220
_diffrn_reflns_limit_h_min       -16
_diffrn_reflns_limit_h_max       16
_diffrn_reflns_limit_k_min       -20
_diffrn_reflns_limit_k_max       20
_diffrn_reflns_limit_l_min       -21
_diffrn_reflns_limit_l_max       21
_diffrn_reflns_theta_min         2.36
_diffrn_reflns_theta_max         30.00
_reflns_number_total             11868
_reflns_number_gt                10175
_reflns_threshold_expression     >2sigma(I)

_computing_data_collection       'Bruker SMART'
_computing_cell_refinement       'Bruker SAINT'
_computing_data_reduction        'Bruker SAINT'
_computing_structure_solution    'SHELXS-97 (Sheldrick, 1990)'
_computing_structure_refinement  'SHELXL-97 (Sheldrick, 1997)'
_computing_molecular_graphics    'Bruker SHELXTL'
_computing_publication_material  'Bruker SHELXTL'

_refine_special_details          
; 
 Refinement of F^2^ against ALL reflections.  The weighted R-factor wR and 
 goodness of fit S are based on F^2^, conventional R-factors R are based 
 on F, with F set to zero for negative F^2^. The threshold expression of 
 F^2^ > 2sigma(F^2^) is used only for calculating R-factors(gt) etc. and is 
 not relevant to the choice of reflections for refinement.  R-factors based 
 on F^2^ are statistically about twice as large as those based on F, and R- 
 factors based on ALL data will be even larger. 
;

_refine_ls_structure_factor_coef Fsqd
_refine_ls_matrix_type           full
_refine_ls_weighting_scheme      calc
_refine_ls_weighting_details     
'calc w=1/[\s^2^(Fo^2^)+(0.0485P)^2^+0.6867P] where P=(Fo^2^+2Fc^2^)/3'
_atom_sites_solution_primary     direct
_atom_sites_solution_secondary   difmap
_atom_sites_solution_hydrogens   geom
_refine_ls_hydrogen_treatment    constr
_refine_ls_extinction_method     none
_refine_ls_extinction_coef       ?
_refine_ls_number_reflns         11868
_refine_ls_number_parameters     577
_refine_ls_number_restraints     0
_refine_ls_R_factor_all          0.0385
_refine_ls_R_factor_gt           0.0312
_refine_ls_wR_factor_ref         0.0875
_refine_ls_wR_factor_gt          0.0827
_refine_ls_goodness_of_fit_ref   1.024
_refine_ls_restrained_S_all      1.024
_refine_ls_shift/su_max          0.001
_refine_ls_shift/su_mean         0.000

loop_
_atom_site_label
_atom_site_type_symbol
_atom_site_fract_x
_atom_site_fract_y
_atom_site_fract_z
_atom_site_U_iso_or_equiv
_atom_site_adp_type
_atom_site_occupancy
_atom_site_symmetry_multiplicity
_atom_site_calc_flag
_atom_site_refinement_flags
_atom_site_disorder_assembly
_atom_site_disorder_group
Cu1 Cu 0.565546(16) 0.392149(14) 0.376819(12) 0.02203(5) Uani 1 1 d . . .
Cu2 Cu 0.326396(17) 0.595988(15) 0.087995(12) 0.02570(5) Uani 1 1 d . . .
N1 N 0.67260(10) 0.44838(9) 0.43072(8) 0.0194(2) Uani 1 1 d . . .
C2 C 0.61970(12) 0.55243(11) 0.41789(9) 0.0190(2) Uani 1 1 d . . .
C3 C 0.66831(12) 0.59999(11) 0.45971(9) 0.0201(2) Uani 1 1 d . . .
N4 N 0.77277(11) 0.54636(10) 0.50486(8) 0.0227(2) Uani 1 1 d . . .
C5 C 0.83292(12) 0.43936(12) 0.51553(10) 0.0225(2) Uani 1 1 d . . .
C6 C 0.94713(14) 0.37815(13) 0.56385(11) 0.0290(3) Uani 1 1 d . . .
H6 H 0.9835 0.4117 0.5866 0.035 Uiso 1 1 calc R . .
C7 C 1.00468(14) 0.26937(14) 0.57746(12) 0.0329(3) Uani 1 1 d . . .
H7 H 1.0825 0.2281 0.6087 0.040 Uiso 1 1 calc R . .
C8 C 0.95078(15) 0.21785(13) 0.54613(11) 0.0310(3) Uani 1 1 d . . .
H8 H 0.9919 0.1421 0.5574 0.037 Uiso 1 1 calc R . .
C9 C 0.83936(14) 0.27548(12) 0.49939(11) 0.0263(3) Uani 1 1 d . . .
H9 H 0.8031 0.2398 0.4790 0.032 Uiso 1 1 calc R . .
C10 C 0.77939(12) 0.38815(11) 0.48205(9) 0.0207(2) Uani 1 1 d . . .
N11 N 0.51234(11) 0.61290(9) 0.36221(8) 0.0201(2) Uani 1 1 d . . .
N12 N 0.45567(11) 0.55419(10) 0.34608(8) 0.0218(2) Uani 1 1 d . . .
C13 C 0.36359(13) 0.62951(12) 0.28816(10) 0.0256(3) Uani 1 1 d . . .
H13 H 0.3062 0.6131 0.2657 0.031 Uiso 1 1 calc R . .
C14 C 0.36128(15) 0.73655(13) 0.26410(11) 0.0292(3) Uani 1 1 d . . .
H14 H 0.3051 0.8039 0.2231 0.035 Uiso 1 1 calc R . .
C15 C 0.45702(14) 0.72323(12) 0.31211(11) 0.0263(3) Uani 1 1 d . . .
H15 H 0.4807 0.7802 0.3109 0.032 Uiso 1 1 calc R . .
N16 N 0.59997(11) 0.70834(9) 0.45624(8) 0.0216(2) Uani 1 1 d . . .
N17 N 0.48402(11) 0.72880(10) 0.50777(8) 0.0226(2) Uani 1 1 d . . .
C18 C 0.44188(15) 0.83762(12) 0.48391(11) 0.0284(3) Uani 1 1 d . . .
H18 H 0.3626 0.8767 0.5085 0.034 Uiso 1 1 calc R . .
C19 C 0.52946(17) 0.88656(13) 0.41822(13) 0.0338(3) Uani 1 1 d . . .
H19 H 0.5213 0.9624 0.3906 0.041 Uiso 1 1 calc R . .
C20 C 0.62966(15) 0.80178(12) 0.40214(12) 0.0298(3) Uani 1 1 d . . .
H20 H 0.7053 0.8075 0.3610 0.036 Uiso 1 1 calc R . .
N1' N 0.61513(10) 0.37189(9) 0.24550(8) 0.0187(2) Uani 1 1 d . . .
C2' C 0.53338(12) 0.36669(10) 0.20126(9) 0.0189(2) Uani 1 1 d . . .
C3' C 0.56342(12) 0.36196(11) 0.10783(9) 0.0196(2) Uani 1 1 d . . .
N4' N 0.67026(10) 0.37433(9) 0.05622(8) 0.0205(2) Uani 1 1 d . . .
C5' C 0.75727(12) 0.38015(11) 0.09942(9) 0.0203(2) Uani 1 1 d . . .
C6' C 0.87503(13) 0.38904(13) 0.04750(11) 0.0266(3) Uani 1 1 d . . .
H6' H 0.8908 0.3964 -0.0184 0.032 Uiso 1 1 calc R . .
C7' C 0.96591(14) 0.38696(14) 0.09294(12) 0.0301(3) Uani 1 1 d . . .
H7' H 1.0462 0.3907 0.0589 0.036 Uiso 1 1 calc R . .
C8' C 0.94240(14) 0.37940(14) 0.18959(12) 0.0309(3) Uani 1 1 d . . .
H8' H 1.0070 0.3779 0.2201 0.037 Uiso 1 1 calc R . .
C9' C 0.82739(13) 0.37420(13) 0.24017(11) 0.0267(3) Uani 1 1 d . . .
H9' H 0.8117 0.3709 0.3049 0.032 Uiso 1 1 calc R . .
C10' C 0.73254(12) 0.37375(11) 0.19642(9) 0.0198(2) Uani 1 1 d . . .
N11' N 0.40830(10) 0.37365(9) 0.24661(8) 0.0200(2) Uani 1 1 d . . .
N12' N 0.30852(11) 0.46602(10) 0.20353(9) 0.0221(2) Uani 1 1 d . . .
C13' C 0.20482(13) 0.44727(13) 0.25947(11) 0.0268(3) Uani 1 1 d . . .
H13' H 0.1202 0.4977 0.2484 0.032 Uiso 1 1 calc R . .
C14' C 0.23674(14) 0.34382(14) 0.33655(11) 0.0290(3) Uani 1 1 d . . .
H14' H 0.1797 0.3117 0.3858 0.035 Uiso 1 1 calc R . .
C15' C 0.36685(14) 0.29826(12) 0.32661(10) 0.0253(3) Uani 1 1 d . . .
H15' H 0.4182 0.2278 0.3675 0.030 Uiso 1 1 calc R . .
N16' N 0.48156(11) 0.34767(10) 0.06266(8) 0.0221(2) Uani 1 1 d . . .
N17' N 0.50937(11) 0.36839(10) -0.03512(8) 0.0244(2) Uani 1 1 d . . .
C18' C 0.42375(14) 0.34418(13) -0.05882(12) 0.0294(3) Uani 1 1 d . . .
H18' H 0.4187 0.3514 -0.1225 0.035 Uiso 1 1 calc R . .
C19' C 0.34157(15) 0.30662(14) 0.02196(13) 0.0327(3) Uani 1 1 d . . .
H19' H 0.2730 0.2841 0.0233 0.039 Uiso 1 1 calc R . .
C20' C 0.38037(14) 0.30898(13) 0.09837(12) 0.0288(3) Uani 1 1 d . . .
H20' H 0.3442 0.2879 0.1637 0.035 Uiso 1 1 calc R . .
B1 B 0.84808(17) 0.63465(17) 0.22630(14) 0.0333(4) Uani 1 1 d . . .
F1 F 0.90616(10) 0.53644(10) 0.30091(8) 0.0431(2) Uani 1 1 d . . .
F2 F 0.73135(11) 0.63597(12) 0.21502(9) 0.0593(4) Uani 1 1 d . . .
F3 F 0.92452(12) 0.64480(12) 0.14128(9) 0.0599(3) Uani 1 1 d . . .
F4 F 0.8296(2) 0.72058(13) 0.25162(13) 0.0832(5) Uani 1 1 d . . .
B2 B 0.75573(19) 0.07482(16) 0.30888(15) 0.0353(4) Uani 1 1 d . . .
F5 F 0.79487(15) 0.13763(11) 0.21661(10) 0.0616(3) Uani 1 1 d . . .
F6 F 0.62291(11) 0.11515(10) 0.31884(10) 0.0514(3) Uani 1 1 d . . .
F7 F 0.79598(14) -0.03275(10) 0.31945(13) 0.0724(4) Uani 1 1 d . . .
F8 F 0.80528(14) 0.08710(16) 0.37598(11) 0.0754(5) Uani 1 1 d . . .
O1S O 0.18110(11) 0.71114(10) 0.13376(9) 0.0368(3) Uani 1 1 d . . .
C1S C 0.09460(15) 0.79678(13) 0.10357(12) 0.0322(3) Uani 1 1 d . . .
C2S C 0.0233(2) 0.85814(17) 0.16700(15) 0.0529(5) Uani 1 1 d . . .
H2SA H 0.0585 0.8179 0.2310 0.079 Uiso 1 1 calc R . .
H2SB H -0.0672 0.8654 0.1747 0.079 Uiso 1 1 calc R . .
H2SC H 0.0318 0.9315 0.1371 0.079 Uiso 1 1 calc R . .
C3S C 0.0563(3) 0.84431(17) 0.00235(16) 0.0553(6) Uani 1 1 d . . .
H3SA H 0.1113 0.7960 -0.0311 0.083 Uiso 1 1 calc R . .
H3SB H 0.0655 0.9174 -0.0328 0.083 Uiso 1 1 calc R . .
H3SC H -0.0330 0.8509 0.0043 0.083 Uiso 1 1 calc R . .
O2S O 0.2781(2) 0.94153(19) 0.03590(15) 0.0874(6) Uani 1 1 d . . .
C4S C 0.3304(2) 0.99064(17) -0.03881(17) 0.0514(5) Uani 1 1 d . . .
C5S C 0.3678(3) 0.9540(3) -0.1197(2) 0.0848(9) Uani 1 1 d . . .
H5SA H 0.3484 0.8863 -0.0997 0.127 Uiso 1 1 calc R . .
H5SB H 0.4597 0.9397 -0.1372 0.127 Uiso 1 1 calc R . .
H5SC H 0.3202 1.0115 -0.1761 0.127 Uiso 1 1 calc R . .
C6S C 0.3525(4) 1.0908(3) -0.0517(3) 0.1106(15) Uani 1 1 d . . .
H6SA H 0.3288 1.1013 0.0097 0.166 Uiso 1 1 calc R . .
H6SB H 0.3003 1.1548 -0.1026 0.166 Uiso 1 1 calc R . .
H6SC H 0.4431 1.0827 -0.0708 0.166 Uiso 1 1 calc R . .
O3S O 1.2533(3) 0.1363(3) 0.2329(2) 0.1407(13) Uani 1 1 d . . .
C7S C 1.1758(2) 0.09275(19) 0.27548(17) 0.0548(5) Uani 1 1 d . . .
C8S C 1.1208(3) 0.0862(3) 0.3743(2) 0.0751(8) Uani 1 1 d . . .
H8SA H 1.1600 0.1208 0.3965 0.113 Uiso 1 1 calc R . .
H8SB H 1.1377 0.0087 0.4190 0.113 Uiso 1 1 calc R . .
H8SC H 1.0283 0.1247 0.3730 0.113 Uiso 1 1 calc R . .
C9S C 1.1251(3) 0.0450(3) 0.2305(3) 0.0883(10) Uani 1 1 d . . .
H9SA H 1.1690 0.0525 0.1659 0.132 Uiso 1 1 calc R . .
H9SB H 1.0331 0.0842 0.2241 0.132 Uiso 1 1 calc R . .
H9SC H 1.1396 -0.0331 0.2718 0.132 Uiso 1 1 calc R . .

loop_
_atom_site_aniso_label
_atom_site_aniso_U_11
_atom_site_aniso_U_22
_atom_site_aniso_U_33
_atom_site_aniso_U_23
_atom_site_aniso_U_13
_atom_site_aniso_U_12
Cu1 0.02218(8) 0.02175(9) 0.02387(8) -0.01007(6) -0.00157(6) -0.00780(6)
Cu2 0.02498(9) 0.02821(10) 0.02195(9) -0.00954(7) -0.00072(6) -0.00785(7)
N1 0.0185(5) 0.0200(5) 0.0196(5) -0.0072(4) -0.0023(4) -0.0064(4)
C2 0.0179(5) 0.0202(6) 0.0186(5) -0.0064(5) -0.0017(4) -0.0073(5)
C3 0.0202(6) 0.0201(6) 0.0212(6) -0.0075(5) -0.0008(4) -0.0091(5)
N4 0.0212(5) 0.0242(6) 0.0241(5) -0.0085(4) -0.0028(4) -0.0094(4)
C5 0.0199(6) 0.0246(6) 0.0224(6) -0.0074(5) -0.0029(4) -0.0083(5)
C6 0.0223(6) 0.0315(7) 0.0319(7) -0.0087(6) -0.0086(5) -0.0084(6)
C7 0.0222(6) 0.0321(8) 0.0350(8) -0.0066(6) -0.0091(6) -0.0034(6)
C8 0.0267(7) 0.0239(7) 0.0327(7) -0.0069(6) -0.0051(6) -0.0022(6)
C9 0.0262(6) 0.0223(6) 0.0280(7) -0.0090(5) -0.0041(5) -0.0057(5)
C10 0.0184(5) 0.0220(6) 0.0201(6) -0.0073(5) -0.0019(4) -0.0060(5)
N11 0.0203(5) 0.0198(5) 0.0208(5) -0.0072(4) -0.0045(4) -0.0064(4)
N12 0.0207(5) 0.0241(5) 0.0240(5) -0.0115(4) -0.0044(4) -0.0069(4)
C13 0.0242(6) 0.0281(7) 0.0253(6) -0.0120(5) -0.0071(5) -0.0048(5)
C14 0.0297(7) 0.0256(7) 0.0271(7) -0.0070(5) -0.0117(5) -0.0026(6)
C15 0.0287(7) 0.0203(6) 0.0268(6) -0.0059(5) -0.0082(5) -0.0053(5)
N16 0.0220(5) 0.0201(5) 0.0248(5) -0.0088(4) -0.0013(4) -0.0096(4)
N17 0.0230(5) 0.0212(5) 0.0243(5) -0.0098(4) -0.0016(4) -0.0070(4)
C18 0.0319(7) 0.0206(6) 0.0320(7) -0.0110(6) -0.0050(6) -0.0058(5)
C19 0.0400(8) 0.0211(7) 0.0403(8) -0.0084(6) -0.0061(7) -0.0128(6)
C20 0.0314(7) 0.0243(7) 0.0340(7) -0.0065(6) -0.0020(6) -0.0154(6)
N1' 0.0180(5) 0.0172(5) 0.0215(5) -0.0077(4) -0.0016(4) -0.0061(4)
C2' 0.0176(5) 0.0184(6) 0.0211(6) -0.0079(5) -0.0009(4) -0.0066(4)
C3' 0.0180(5) 0.0195(6) 0.0227(6) -0.0093(5) -0.0025(4) -0.0058(5)
N4' 0.0173(5) 0.0227(5) 0.0218(5) -0.0096(4) -0.0019(4) -0.0057(4)
C5' 0.0182(5) 0.0202(6) 0.0226(6) -0.0082(5) -0.0020(4) -0.0065(5)
C6' 0.0217(6) 0.0332(7) 0.0254(6) -0.0117(6) 0.0016(5) -0.0113(5)
C7' 0.0205(6) 0.0358(8) 0.0363(8) -0.0150(6) 0.0019(5) -0.0128(6)
C8' 0.0233(6) 0.0410(8) 0.0375(8) -0.0199(7) -0.0022(6) -0.0145(6)
C9' 0.0233(6) 0.0350(8) 0.0287(7) -0.0168(6) -0.0019(5) -0.0115(6)
C10' 0.0175(5) 0.0192(6) 0.0236(6) -0.0090(5) -0.0009(4) -0.0066(5)
N11' 0.0169(5) 0.0224(5) 0.0213(5) -0.0089(4) -0.0005(4) -0.0073(4)
N12' 0.0181(5) 0.0237(5) 0.0259(5) -0.0108(4) -0.0029(4) -0.0063(4)
C13' 0.0182(6) 0.0351(8) 0.0326(7) -0.0181(6) 0.0010(5) -0.0103(5)
C14' 0.0261(7) 0.0378(8) 0.0288(7) -0.0141(6) 0.0036(5) -0.0183(6)
C15' 0.0270(6) 0.0265(7) 0.0238(6) -0.0075(5) -0.0001(5) -0.0141(5)
N16' 0.0213(5) 0.0270(6) 0.0236(5) -0.0134(5) -0.0009(4) -0.0099(4)
N17' 0.0246(5) 0.0284(6) 0.0229(5) -0.0118(5) -0.0041(4) -0.0082(5)
C18' 0.0267(7) 0.0364(8) 0.0332(7) -0.0197(6) -0.0060(5) -0.0095(6)
C19' 0.0269(7) 0.0427(9) 0.0427(8) -0.0265(7) 0.0002(6) -0.0160(6)
C20' 0.0261(7) 0.0367(8) 0.0344(7) -0.0203(6) 0.0037(5) -0.0171(6)
B1 0.0267(8) 0.0412(10) 0.0338(9) -0.0178(8) 0.0013(6) -0.0115(7)
F1 0.0310(5) 0.0531(6) 0.0370(5) -0.0130(5) -0.0046(4) -0.0099(5)
F2 0.0340(6) 0.0799(9) 0.0525(7) -0.0067(6) -0.0124(5) -0.0249(6)
F3 0.0505(7) 0.0684(8) 0.0402(6) -0.0137(6) 0.0178(5) -0.0205(6)
F4 0.1211(14) 0.0580(9) 0.0857(11) -0.0443(8) -0.0199(10) -0.0192(9)
B2 0.0345(9) 0.0282(9) 0.0379(9) -0.0106(7) -0.0028(7) -0.0078(7)
F5 0.0810(9) 0.0503(7) 0.0462(7) -0.0106(6) 0.0080(6) -0.0316(7)
F6 0.0348(5) 0.0436(6) 0.0760(8) -0.0308(6) -0.0079(5) -0.0027(5)
F7 0.0605(8) 0.0249(6) 0.1025(12) -0.0140(6) -0.0012(8) -0.0011(5)
F8 0.0498(7) 0.1321(15) 0.0618(8) -0.0548(10) -0.0016(6) -0.0295(8)
O1S 0.0301(5) 0.0374(6) 0.0391(6) -0.0201(5) -0.0078(5) 0.0012(5)
C1S 0.0302(7) 0.0285(7) 0.0349(8) -0.0107(6) -0.0034(6) -0.0085(6)
C2S 0.0609(13) 0.0375(10) 0.0426(10) -0.0183(8) 0.0007(9) 0.0013(9)
C3S 0.0755(15) 0.0344(10) 0.0450(11) -0.0126(8) -0.0263(10) 0.0015(9)
O2S 0.1102(18) 0.0854(15) 0.0615(12) -0.0206(11) 0.0007(11) -0.0410(13)
C4S 0.0597(12) 0.0358(10) 0.0514(11) -0.0113(9) -0.0205(10) -0.0060(9)
C5S 0.0754(19) 0.101(2) 0.0781(19) -0.0524(19) -0.0133(15) -0.0055(17)
C6S 0.138(3) 0.0455(16) 0.150(4) -0.0133(19) -0.066(3) -0.0301(19)
O3S 0.178(3) 0.183(3) 0.120(2) -0.060(2) 0.055(2) -0.156(3)
C7S 0.0629(13) 0.0485(12) 0.0549(12) -0.0158(10) 0.0036(10) -0.0301(11)
C8S 