####################################################################### 
# 
# This file contains crystal structure data downloaded from the 
# Cambridge Structural Database (CSD) hosted by the Cambridge 
# Crystallographic Data Centre (CCDC).
# 
# Full information about CCDC data access policies and citation 
# guidelines are available at http://www.ccdc.cam.ac.uk/access/V1 
# 
# Audit and citation data items may have been added by the CCDC. 
# Please retain this information to preserve the provenance of 
# this file and to allow appropriate attribution of the data. 
# 
#######################################################################

data_ZUMWUZ
#This CIF has been generated from an entry in the Cambridge Structural Database
_database_code_depnum_ccdc_archive 'CCDC 1316647'
_database_code_CSD               ZUMWUZ
loop_
_citation_id
_citation_doi
_citation_year
1 10.1039/dt9960000835 1996
_audit_creation_method           'Created from the CSD'
_audit_update_record             
;
2024-07-14 downloaded from the CCDC.
;
_database_code_NBS               666844
_chemical_formula_moiety         '(C52 H90 N16 Sn4)n'
_chemical_name_systematic        
catena-(2,2'-bis(Tributylstannyl)-5,5'-o-phenylenebis(tetrazole))
_chemical_absolute_configuration unk
_diffrn_ambient_temperature      295
_exptl_crystal_density_diffrn    2.45046
#These two values have been output from a single CSD field.
_refine_ls_R_factor_gt           0.1503
_refine_ls_wR_factor_gt          0.1503
_diffrn_radiation_probe          x-ray
_symmetry_cell_setting           orthorhombic
_symmetry_space_group_name_H-M   'P 2 21 21'
_symmetry_Int_Tables_number      18
_space_group_name_Hall           'P 2bc 2'
loop_
_symmetry_equiv_pos_site_id
_symmetry_equiv_pos_as_xyz
1 x,y,z
2 -x,1/2-y,1/2+z
3 x,-y,-z
4 -x,1/2+y,1/2-z
_cell_length_a                   13.819(2)
_cell_length_b                   23.075(3)
_cell_length_c                   24.043(6)
_cell_angle_alpha                90
_cell_angle_beta                 90
_cell_angle_gamma                90
_cell_volume                     7666.67
_exptl_crystal_colour            colorless
_chemical_melting_point          '175 deg.C (dec.)'
_cell_formula_units_Z            8
loop_
_atom_site_label
_atom_site_type_symbol
_atom_site_fract_x
_atom_site_fract_y
_atom_site_fract_z
Sn1 Sn 0.5881(2) 0.3029(1) 0.1848(2)
Sn2 Sn 0.0680(3) 0.2931(2) 0.2094(2)
Sn3 Sn 0.6416(4) 0.5566(2) 0.2938(2)
Sn4 Sn 0.1375(4) 0.2073(2) -0.0466(2)
N1 N 0.7637(30) 0.3871(18) 0.2216(17)
N2 N 0.6708(33) 0.3818(19) 0.2114(21)
N3 N 0.6298(46) 0.4291(26) 0.2318(24)
N4 N 0.7048(42) 0.4664(23) 0.2524(24)
N5 N 0.1609(35) 0.2616(19) 0.1278(19)
N6 N 0.1192(38) 0.2407(21) 0.0845(21)
N7 N 0.1886(28) 0.2399(16) 0.0435(17)
N8 N 0.2514(32) 0.2715(18) 0.1253(18)
N9 N 0.3901(33) 0.1609(19) 0.1156(19)
N10 N 0.4153(38) 0.1423(20) 0.1673(20)
N11 N 0.4828(31) 0.1766(18) 0.1873(19)
N12 N 0.5000(30) 0.2172(18) 0.1516(17)
N13 N 0.9746(30) 0.3327(18) 0.2856(19)
N14 N 0.9491(28) 0.2922(18) 0.3237(17)
N15 N 0.8972(49) 0.3245(30) 0.3589(28)
N16 N 0.8996(52) 0.3737(31) 0.3471(30)
C1 C 0.7841(46) 0.4398(27) 0.2400(25)
C2 C 0.4452(31) 0.2063(20) 0.1129(18)
C3 C 0.2620(48) 0.2587(28) 0.0680(27)
C4 C 0.9426(48) 0.3761(28) 0.2973(30)
C5 C 0.4460(31) 0.2442(16) 0.0559(14)
C6 C 0.5316(31) 0.2530(16) 0.0263(14)
C7 C 0.5313(31) 0.2870(16) -0.0216(14)
C8 C 0.4454(31) 0.3123(16) -0.0400(14)
C9 C 0.3597(31) 0.3035(16) -0.0105(14)
C10 C 0.3600(31) 0.2695(16) 0.0375(14)
C11 C 0.8819(23) 0.4675(19) 0.2474(19)
C12 C 0.9610(23) 0.4384(19) 0.2701(19)
C13 C 1.0534(23) 0.4625(19) 0.2664(19)
C14 C 1.0666(23) 0.5158(19) 0.2401(19)
C15 C 0.9875(23) 0.5450(19) 0.2174(19)
C16 C 0.8951(23) 0.5208(19) 0.2211(19)
C17 C 0.4560(45) 0.3601(26) 0.1708(26)
C18 C 0.6174(41) 0.2568(23) 0.2620(23)
C19 C 0.7074(34) 0.2993(23) 0.1227(20)
C20 C -0.0088(50) 0.1987(33) 0.2143(30)
C21 C -0.0081(52) 0.3479(29) 0.1498(28)
C22 C 0.2019(44) 0.3247(26) 0.2484(26)
C23 C 0.1107(45) 0.2985(30) -0.0791(25)
C24 C -0.0029(60) 0.1698(35) -0.0192(33)
C25 C 0.2776(75) 0.1494(45) -0.0478(44)
Sn2 Sn 1.0680(3) 0.2931(2) 0.2094(2)
Sn3 Sn 0.3584(4) 0.0566(2) 0.2062(2)
Sn4 Sn 0.8625(4) 0.2927(2) 0.4534(2)
N10 N 0.5847(38) 0.6423(20) 0.3327(20)
N13 N -0.0254(30) 0.3327(18) 0.2856(19)
N15 N 0.1028(49) 0.1755(30) -0.1411(28)

#END
