####################################################################### 
# 
# This file contains crystal structure data downloaded from the 
# Cambridge Structural Database (CSD) hosted by the Cambridge 
# Crystallographic Data Centre (CCDC).
# 
# Full information about CCDC data access policies and citation 
# guidelines are available at http://www.ccdc.cam.ac.uk/access/V1 
# 
# Audit and citation data items may have been added by the CCDC. 
# Please retain this information to preserve the provenance of 
# this file and to allow appropriate attribution of the data. 
# 
#######################################################################

data_DATMOF1a
_audit_block_doi                 10.5517/cc1jgn5t
_database_code_depnum_ccdc_archive 'CCDC 1414256'
loop_
_citation_id
_citation_doi
_citation_year
1 10.1039/C5CC06128H 2015
_audit_update_record             
;
2015-07-24 deposited with the CCDC.	2024-07-14 downloaded from the CCDC.
;

_audit_creation_method           SHELXL-2014/7
_shelx_SHELXL_version_number     2014/7
_chemical_name_systematic        ?
_chemical_name_common            ?
_chemical_melting_point          ?
_chemical_formula_moiety         'C20 H16 Cu N10 O4'
_chemical_formula_sum            'C20 H16 Cu N10 O4'
_chemical_formula_weight         523.97

loop_
_atom_type_symbol
_atom_type_description
_atom_type_scat_dispersion_real
_atom_type_scat_dispersion_imag
_atom_type_scat_source
C C 0.0033 0.0016 'International Tables Vol C Tables 4.2.6.8 and 6.1.1.4'
H H 0.0000 0.0000 'International Tables Vol C Tables 4.2.6.8 and 6.1.1.4'
N N 0.0061 0.0033 'International Tables Vol C Tables 4.2.6.8 and 6.1.1.4'
O O 0.0106 0.0060 'International Tables Vol C Tables 4.2.6.8 and 6.1.1.4'
Cu Cu 0.3201 1.2651 'International Tables Vol C Tables 4.2.6.8 and 6.1.1.4'

_space_group_crystal_system      Orthorhombic
_space_group_IT_number           ?
_space_group_name_H-M_alt        'P b n b'
_space_group_name_Hall           ?

_shelx_space_group_comment       
;
The symmetry employed for this shelxl refinement is uniquely defined
by the following loop, which should always be used as a source of
symmetry information in preference to the above space-group names.
They are only intended as comments.
;

loop_
_space_group_symop_operation_xyz
'x, y, z'
'-x, -y+1/2, z+1/2'
'x+1/2, -y+1/2, -z'
'-x+1/2, y, -z+1/2'
'-x, -y, -z'
'x, y-1/2, -z-1/2'
'-x-1/2, y-1/2, z'
'x-1/2, -y, z-1/2'

_cell_length_a                   17.7157(6)
_cell_length_b                   22.1231(8)
_cell_length_c                   25.3814(9)
_cell_angle_alpha                90
_cell_angle_beta                 90
_cell_angle_gamma                90
_cell_volume                     9947.6(6)
_cell_formula_units_Z            8
_cell_measurement_temperature    100(2)
_cell_measurement_reflns_used    ?
_cell_measurement_theta_min      ?
_cell_measurement_theta_max      ?

_exptl_crystal_description       'Block shaped'
_exptl_crystal_colour            Green
_exptl_crystal_density_meas      ?
_exptl_crystal_density_method    ?
_exptl_crystal_density_diffrn    0.700
_exptl_crystal_F_000             2136
_exptl_transmission_factor_min   ?
_exptl_transmission_factor_max   ?
_exptl_crystal_size_max          0.150
_exptl_crystal_size_mid          0.110
_exptl_crystal_size_min          0.100
_exptl_absorpt_coefficient_mu    0.462
_shelx_estimated_absorpt_T_min   0.934
_shelx_estimated_absorpt_T_max   0.955
_exptl_absorpt_correction_type   multi-scan
_exptl_absorpt_correction_T_min  0.9339
_exptl_absorpt_correction_T_max  0.9552
_exptl_absorpt_process_details   'multi-scan absorption correction'
_exptl_absorpt_special_details   ?
_diffrn_ambient_temperature      100(2)
_diffrn_radiation_wavelength     0.71073
_diffrn_radiation_type           MoK\a
_diffrn_source                   ?
_diffrn_measurement_device_type  'Bruker APEX-II CCD'
_diffrn_measurement_method       '\f and \w scans'
_diffrn_detector_area_resol_mean ?
_diffrn_reflns_number            163610
_diffrn_reflns_av_unetI/netI     0.0366
_diffrn_reflns_av_R_equivalents  0.0919
_diffrn_reflns_limit_h_min       -21
_diffrn_reflns_limit_h_max       21
_diffrn_reflns_limit_k_min       -23
_diffrn_reflns_limit_k_max       26
_diffrn_reflns_limit_l_min       -30
_diffrn_reflns_limit_l_max       30
_diffrn_reflns_theta_min         1.402
_diffrn_reflns_theta_max         25.414
_diffrn_reflns_theta_full        25.242
_diffrn_measured_fraction_theta_max 0.994
_diffrn_measured_fraction_theta_full 1.000
_diffrn_reflns_Laue_measured_fraction_max 0.994
_diffrn_reflns_Laue_measured_fraction_full 1.000
_diffrn_reflns_point_group_measured_fraction_max 0.994
_diffrn_reflns_point_group_measured_fraction_full 1.000
_reflns_number_total             9132
_reflns_number_gt                7528
_reflns_threshold_expression     'I > 2\s(I)'
_reflns_Friedel_coverage         0.000
_reflns_Friedel_fraction_max     .
_reflns_Friedel_fraction_full    .

_reflns_special_details          
;
 Reflections were merged by SHELXL according to the crystal
 class for the calculation of statistics and refinement.
 
 _reflns_Friedel_fraction is defined as the number of unique
 Friedel pairs measured divided by the number that would be
 possible theoretically, ignoring centric projections and
 systematic absences.
;

__computing_data_collection      'Bruker APEX2'
_computing_cell_refinement       'Bruker SAINT'
_computing_data_reduction        'Bruker SAINT'
_computing_structure_solution    'SHELXS-97 (Sheldrick 2008)'
_computing_structure_refinement  'SHELXL-2013 (Sheldrick 2013)'
_computing_molecular_graphics    'Bruker SHELXTL'
_computing_publication_material  'Bruker SHELXTL'
_refine_special_details          ?
_refine_ls_structure_factor_coef Fsqd
_refine_ls_matrix_type           full
_refine_ls_weighting_scheme      calc
_refine_ls_weighting_details     
'w=1/[\s^2^(Fo^2^)+(0.0808P)^2^+14.5162P] where P=(Fo^2^+2Fc^2^)/3'
_atom_sites_solution_primary     ?
_atom_sites_solution_secondary   ?
_atom_sites_solution_hydrogens   geom
_refine_ls_hydrogen_treatment    constr
_refine_ls_extinction_method     none
_refine_ls_extinction_coef       .
_refine_ls_number_reflns         9132
_refine_ls_number_parameters     316
_refine_ls_number_restraints     0
_refine_ls_R_factor_all          0.0814
_refine_ls_R_factor_gt           0.0656
_refine_ls_wR_factor_ref         0.1646
_refine_ls_wR_factor_gt          0.1540
_refine_ls_goodness_of_fit_ref   0.963
_refine_ls_restrained_S_all      0.963
_refine_ls_shift/su_max          0.001
_refine_ls_shift/su_mean         0.000

loop_
_atom_site_label
_atom_site_type_symbol
_atom_site_fract_x
_atom_site_fract_y
_atom_site_fract_z
_atom_site_U_iso_or_equiv
_atom_site_adp_type
_atom_site_occupancy
_atom_site_site_symmetry_order
_atom_site_calc_flag
_atom_site_refinement_flags_posn
_atom_site_refinement_flags_adp
_atom_site_refinement_flags_occupancy
_atom_site_disorder_assembly
_atom_site_disorder_group
Cu01 Cu 0.94383(2) 0.03615(2) 0.01442(2) 0.03434(13) Uani 1 1 d . . . . .
O4 O 1.01902(11) 0.09943(8) 0.00348(10) 0.0420(5) Uani 1 1 d . . . . .
O2 O 0.88448(10) -0.03964(8) 0.01893(8) 0.0331(4) Uani 1 1 d . . . . .
O1 O 0.98551(12) 0.02099(9) 0.08466(8) 0.0387(5) Uani 1 1 d . . . . .
O3 O 0.92009(12) 0.04084(9) -0.06151(8) 0.0395(5) Uani 1 1 d . . . . .
N7 N 0.85608(12) 0.09804(9) 0.04245(9) 0.0251(5) Uani 1 1 d . . . . .
N9 N 0.76496(13) 0.04808(10) -0.00468(10) 0.0338(6) Uani 1 1 d . . . . .
H9A H 0.7228 0.0474 -0.0214 0.041 Uiso 1 1 calc R U . . .
H9B H 0.7919 0.0158 -0.0025 0.041 Uiso 1 1 calc R U . . .
N6 N 0.82906(13) 0.19922(10) 0.06940(10) 0.0320(5) Uani 1 1 d . . . . .
N8 N 0.74360(13) 0.14693(9) 0.01272(9) 0.0292(5) Uani 1 1 d . . . . .
N2 N 1.14057(15) -0.05362(12) 0.41796(11) 0.0438(6) Uani 1 1 d . . . . .
C18 C 0.76814(15) 0.19614(11) 0.03873(11) 0.0284(6) Uani 1 1 d . . . . .
N10 N 0.93101(14) 0.14818(11) 0.10168(11) 0.0430(7) Uani 1 1 d . . . . .
H10A H 0.9420 0.1794 0.1203 0.052 Uiso 1 1 calc R U . . .
H10B H 0.9590 0.1165 0.1032 0.052 Uiso 1 1 calc R U . . .
N3 N 1.14900(17) -0.09137(12) 0.32937(11) 0.0483(7) Uani 1 1 d . . . . .
C19 C 0.87094(15) 0.14889(12) 0.07058(11) 0.0289(6) Uani 1 1 d . . . . .
C13 C 0.70943(15) 0.36033(12) 0.03410(12) 0.0332(6) Uani 1 1 d . . . . .
H13 H 0.7299 0.3982 0.0410 0.040 Uiso 1 1 calc R U . . .
C20 C 0.78810(14) 0.09795(11) 0.01739(10) 0.0250(5) Uani 1 1 d . . . . .
C16 C 0.64803(16) 0.24686(12) 0.01416(13) 0.0386(7) Uani 1 1 d . . . . .
H16 H 0.6267 0.2090 0.0086 0.046 Uiso 1 1 calc R U . . .
N4 N 1.19721(19) -0.14296(12) 0.39862(11) 0.0534(8) Uani 1 1 d . . . . .
H4A H 1.2117 -0.1703 0.3768 0.064 Uiso 1 1 calc R U . . .
H4B H 1.2062 -0.1471 0.4317 0.064 Uiso 1 1 calc R U . . .
C14 C 0.75241(16) 0.30901(12) 0.04108(14) 0.0379(7) Uani 1 1 d . . . . .
H14 H 0.8020 0.3127 0.0528 0.046 Uiso 1 1 calc R U . . .
C1 C 1.04050(16) -0.01317(13) 0.09457(12) 0.0337(6) Uani 1 1 d . . . . .
C15 C 0.72283(15) 0.25118(11) 0.03089(11) 0.0297(6) Uani 1 1 d . . . . .
C7 C 1.12225(19) -0.05513(14) 0.16620(13) 0.0430(7) Uani 1 1 d . . . . .
H7 H 1.1517 -0.0740 0.1407 0.052 Uiso 1 1 calc R U . . .
N1 N 1.08862(18) 0.00272(15) 0.34593(12) 0.0590(8) Uani 1 1 d . . . . .
C12 C 0.63503(16) 0.35517(12) 0.01663(12) 0.0333(6) Uani 1 1 d . . . . .
C2 C 1.06199(18) -0.02046(15) 0.15139(13) 0.0415(7) Uani 1 1 d . . . . .
C8 C 1.1114(2) -0.04113(16) 0.31509(13) 0.0511(9) Uani 1 1 d . . . . .
C11 C 0.58660(15) 0.41037(11) 0.01044(11) 0.0287(6) Uani 1 1 d . . . . .
C9 C 1.1036(2) -0.00472(18) 0.39835(14) 0.0534(9) Uani 1 1 d . . . . .
C10 C 1.16115(18) -0.09484(14) 0.38141(13) 0.0414(7) Uani 1 1 d . . . . .
C6 C 1.13986(19) -0.06236(15) 0.21996(13) 0.0441(8) Uani 1 1 d . . . . .
H6 H 1.1813 -0.0854 0.2301 0.053 Uiso 1 1 calc R U . . .
C17 C 0.60484(16) 0.29847(12) 0.00567(13) 0.0365(7) Uani 1 1 d . . . . .
H17 H 0.5559 0.2951 -0.0073 0.044 Uiso 1 1 calc R U . . .
C3 C 1.0173(2) 0.0066(2) 0.18972(14) 0.0714(13) Uani 1 1 d . . . . .
H3 H 0.9753 0.0290 0.1795 0.086 Uiso 1 1 calc R U . . .
N5 N 1.0832(2) 0.03714(17) 0.43163(13) 0.0717(11) Uani 1 1 d . . . . .
H5A H 1.0932 0.0332 0.4646 0.086 Uiso 1 1 calc R U . . .
H5B H 1.0597 0.0687 0.4206 0.086 Uiso 1 1 calc R U . . .
C5 C 1.0955(2) -0.03513(17) 0.25719(13) 0.0529(9) Uani 1 1 d . . . . .
C4 C 1.0340(2) 0.0010(2) 0.24229(15) 0.0704(13) Uani 1 1 d . . . . .
H4 H 1.0051 0.0208 0.2676 0.084 Uiso 1 1 calc R U . . .

loop_
_atom_site_aniso_label
_atom_site_aniso_U_11
_atom_site_aniso_U_22
_atom_site_aniso_U_33
_atom_site_aniso_U_23
_atom_site_aniso_U_13
_atom_site_aniso_U_12
Cu01 0.0331(2) 0.02255(19) 0.0474(2) 0.00171(15) -0.00524(16) -0.00238(14)
O4 0.0273(11) 0.0175(9) 0.0813(16) -0.0063(9) 0.0118(10) -0.0065(8)
O2 0.0237(9) 0.0169(9) 0.0585(13) -0.0025(8) -0.0012(9) -0.0009(7)
O1 0.0474(12) 0.0357(11) 0.0330(10) -0.0016(8) -0.0165(9) 0.0176(9)
O3 0.0390(11) 0.0459(12) 0.0336(11) 0.0072(9) -0.0109(9) 0.0162(9)
N7 0.0246(11) 0.0124(9) 0.0385(12) -0.0034(9) -0.0102(9) 0.0015(8)
N9 0.0298(12) 0.0171(11) 0.0545(15) -0.0095(10) -0.0179(11) 0.0109(9)
N6 0.0288(12) 0.0210(11) 0.0461(14) -0.0075(10) -0.0117(10) 0.0073(9)
N8 0.0309(12) 0.0152(10) 0.0414(13) -0.0088(9) -0.0059(10) 0.0031(9)
N2 0.0448(15) 0.0440(15) 0.0425(15) 0.0084(12) -0.0158(12) -0.0066(12)
C18 0.0279(14) 0.0193(12) 0.0381(15) -0.0054(11) -0.0046(12) 0.0012(10)
N10 0.0412(14) 0.0278(13) 0.0600(17) -0.0155(12) -0.0253(13) 0.0127(11)
N3 0.0573(17) 0.0444(15) 0.0430(15) 0.0016(12) -0.0193(13) 0.0064(13)
C19 0.0225(13) 0.0247(13) 0.0395(15) -0.0020(11) -0.0063(11) -0.0018(10)
C13 0.0248(13) 0.0181(12) 0.0566(18) 0.0017(12) -0.0095(13) -0.0026(10)
C20 0.0204(12) 0.0229(12) 0.0316(13) 0.0020(11) -0.0057(11) 0.0049(10)
C16 0.0310(15) 0.0168(13) 0.068(2) -0.0097(13) -0.0075(14) 0.0033(11)
N4 0.082(2) 0.0391(15) 0.0394(15) 0.0027(12) -0.0209(15) 0.0052(15)
C14 0.0250(13) 0.0198(13) 0.069(2) -0.0103(13) -0.0119(14) 0.0007(11)
C1 0.0366(15) 0.0244(13) 0.0401(16) 0.0014(12) -0.0101(13) 0.0069(12)
C15 0.0309(14) 0.0179(12) 0.0403(15) -0.0041(11) -0.0091(12) 0.0066(11)
C7 0.0459(18) 0.0384(16) 0.0447(17) -0.0017(14) -0.0043(15) 0.0074(14)
N1 0.0581(18) 0.075(2) 0.0439(16) 0.0002(15) -0.0203(14) 0.0282(17)
C12 0.0272(14) 0.0170(13) 0.0558(18) -0.0005(12) 0.0004(13) 0.0047(10)
C2 0.0389(17) 0.0420(17) 0.0435(17) 0.0061(14) -0.0114(14) 0.0088(14)
C8 0.062(2) 0.057(2) 0.0348(17) 0.0003(15) -0.0115(16) 0.0193(17)
C11 0.0240(13) 0.0173(13) 0.0448(16) -0.0006(11) 0.0019(12) 0.0022(10)
C9 0.0453(19) 0.068(2) 0.0468(19) 0.0028(18) -0.0062(16) 0.0127(18)
C10 0.0421(17) 0.0360(16) 0.0462(18) 0.0009(14) -0.0157(14) -0.0053(14)
C6 0.0444(18) 0.0449(18) 0.0430(18) 0.0039(14) -0.0094(14) 0.0100(15)
C17 0.0246(14) 0.0239(13) 0.0609(19) -0.0084(13) -0.0122(13) 0.0048(11)
C3 0.068(3) 0.104(3) 0.0428(19) -0.016(2) -0.0157(18) 0.057(3)
N5 0.076(2) 0.095(3) 0.0436(17) 0.0056(17) -0.0140(16) 0.039(2)
C5 0.061(2) 0.064(2) 0.0337(17) 0.0051(16) -0.0143(16) 0.0149(18)
C4 0.065(2) 0.101(3) 0.045(2) -0.006(2) -0.0111(18) 0.045(2)

_geom_special_details            
;
 All esds (except the esd in the dihedral angle between two l.s. planes)
 are estimated using the full covariance matrix.  The cell esds are taken
 into account individually in the estimation of esds in distances, angles
 and torsion angles; correlations between esds in cell parameters are only
 used when they are defined by crystal symmetry.  An approximate (isotropic)
 treatment of cell esds is used for estimating esds involving l.s. planes.
;

loop_
_geom_bond_atom_site_label_1
_geom_bond_atom_site_label_2
_geom_bond_distance
_geom_bond_site_symmetry_2
_geom_bond_publ_flag
Cu01 O4 1.9522(19) . ?
Cu01 O1 1.9585(19) . ?
Cu01 O3 1.975(2) . ?
Cu01 O2 1.9824(18) . ?
Cu01 N7 2.190(2) . ?
Cu01 Cu01 2.6563(7) 5_755 ?
O4 C11 1.267(3) 3 ?
O2 C11 1.238(3) 7_755 ?
O1 C1 1.258(3) . ?
O3 C1 1.252(4) 5_755 ?
N7 C19 1.358(3) . ?
N7 C20 1.362(3) . ?
N9 C20 1.303(3) . ?
N6 C18 1.332(3) . ?
N6 C19 1.338(3) . ?
N8 C20 1.345(3) . ?
N8 C18 1.345(3) . ?
N2 C10 1.351(4) . ?
N2 C9 1.359(4) . ?
C18 C15 1.472(3) . ?
N10 C19 1.325(4) . ?
N3 C10 1.340(4) . ?
N3 C8 1.346(4) . ?
C13 C14 1.378(4) . ?
C13 C12 1.395(4) . ?
C16 C17 1.391(4) . ?
C16 C15 1.395(4) . ?
N4 C10 1.316(4) . ?
C14 C15 1.407(4) . ?
C1 O3 1.252(4) 5_755 ?
C1 C2 1.500(4) . ?
C7 C2 1.367(4) . ?
C7 C6 1.409(5) . ?
N1 C8 1.310(5) . ?
N1 C9 1.367(5) . ?
C12 C17 1.392(4) . ?
C12 C11 1.501(3) . ?
C2 C3 1.390(5) . ?
C8 C5 1.502(4) . ?
C11 O2 1.238(3) 7_765 ?
C11 O4 1.267(3) 3_455 ?
C9 N5 1.305(5) . ?
C6 C5 1.369(5) . ?
C3 C4 1.372(5) . ?
C5 C4 1.404(5) . ?

loop_
_geom_angle_atom_site_label_1
_geom_angle_atom_site_label_2
_geom_angle_atom_site_label_3
_geom_angle
_geom_angle_site_symmetry_1
_geom_angle_site_symmetry_3
_geom_angle_publ_flag
O4 Cu01 O1 89.72(10) . . ?
O4 Cu01 O3 88.21(10) . . ?
O1 Cu01 O3 167.78(9) . . ?
O4 Cu01 O2 167.58(8) . . ?
O1 Cu01 O2 90.14(9) . . ?
O3 Cu01 O2 89.30(9) . . ?
O4 Cu01 N7 94.72(8) . . ?
O1 Cu01 N7 94.53(8) . . ?
O3 Cu01 N7 97.64(8) . . ?
O2 Cu01 N7 97.67(8) . . ?
O4 Cu01 Cu01 83.18(6) . 5_755 ?
O1 Cu01 Cu01 82.25(6) . 5_755 ?
O3 Cu01 Cu01 85.54(6) . 5_755 ?
O2 Cu01 Cu01 84.49(6) . 5_755 ?
N7 Cu01 Cu01 176.15(6) . 5_755 ?
C11 O4 Cu01 124.18(16) 3 . ?
C11 O2 Cu01 121.74(17) 7_755 . ?
C1 O1 Cu01 125.23(19) . . ?
C1 O3 Cu01 120.65(17) 5_755 . ?
C19 N7 C20 114.7(2) . . ?
C19 N7 Cu01 123.44(17) . . ?
C20 N7 Cu01 118.36(16) . . ?
C18 N6 C19 114.8(2) . . ?
C20 N8 C18 114.8(2) . . ?
C10 N2 C9 114.6(3) . . ?
N6 C18 N8 126.2(2) . . ?
N6 C18 C15 118.6(2) . . ?
N8 C18 C15 115.3(2) . . ?
C10 N3 C8 113.1(3) . . ?
N10 C19 N6 117.9(2) . . ?
N10 C19 N7 117.3(2) . . ?
N6 C19 N7 124.7(2) . . ?
C14 C13 C12 119.7(2) . . ?
N9 C20 N8 117.4(2) . . ?
N9 C20 N7 118.7(2) . . ?
N8 C20 N7 123.9(2) . . ?
C17 C16 C15 120.9(3) . . ?
C13 C14 C15 121.3(3) . . ?
O3 C1 O1 126.3(3) 5_755 . ?
O3 C1 C2 116.8(2) 5_755 . ?
O1 C1 C2 117.0(3) . . ?
C16 C15 C14 118.2(2) . . ?
C16 C15 C18 120.2(2) . . ?
C14 C15 C18 121.6(2) . . ?
C2 C7 C6 120.2(3) . . ?
C8 N1 C9 115.6(3) . . ?
C17 C12 C13 120.0(2) . . ?
C17 C12 C11 119.5(2) . . ?
C13 C12 C11 120.5(2) . . ?
C7 C2 C3 119.6(3) . . ?
C7 C2 C1 121.5(3) . . ?
C3 C2 C1 118.8(3) . . ?
N1 C8 N3 127.1(3) . . ?
N1 C8 C5 117.5(3) . . ?
N3 C8 C5 115.4(3) . . ?
O2 C11 O4 126.3(2) 7_765 3_455 ?
O2 C11 C12 118.2(2) 7_765 . ?
O4 C11 C12 115.5(2) 3_455 . ?
N5 C9 N2 117.5(3) . . ?
N5 C9 N1 119.4(3) . . ?
N2 C9 N1 123.1(3) . . ?
N4 C10 N3 116.8(3) . . ?
N4 C10 N2 116.7(3) . . ?
N3 C10 N2 126.5(3) . . ?
C5 C6 C7 119.4(3) . . ?
C16 C17 C12 119.8(3) . . ?
C4 C3 C2 121.3(3) . . ?
C6 C5 C4 120.7(3) . . ?
C6 C5 C8 122.0(3) . . ?
C4 C5 C8 117.3(3) . . ?
C3 C4 C5 118.7(3) . . ?

_refine_diff_density_max         1.273
_refine_diff_density_min         -0.315
_refine_diff_density_rms         0.079
# SQUEEZE RESULTS (APPEND TO CIF)
# Note: Data are Listed for all Voids in the P1 Unit Cell
# i.e. Centre of Gravity, Solvent Accessible Volume,
# Recovered number of Electrons in the Void and
# Details about the Squeezed Material
loop_
_platon_squeeze_void_nr
_platon_squeeze_void_average_x
_platon_squeeze_void_average_y
_platon_squeeze_void_average_z
_platon_squeeze_void_volume
_platon_squeeze_void_count_electrons
_platon_squeeze_void_content
1 -0.003 0.043 0.506 6514 2359 ' '
_platon_squeeze_details          
;
;
_shelx_res_file                  
;

    squeezed.res created by SHELXL-2014/7

TITL    tr2 in P b n b
CELL   0.71073  17.7157  22.1231  25.3814  90.000  90.000  90.000
ZERR     8       0.0006   0.0008   0.0009   0.000   0.000   0.000
LATT 1
SYMM -X, 0.50000-Y, 0.50000+Z
SYMM  0.50000+X, 0.50000-Y,-Z
SYMM  0.50000-X,Y, 0.50000-Z
SFAC C  H  N  O  Cu
UNIT 160  128  80  32  8
MERG 2
L.S. 75
ACTA
FMAP 2
PLAN 50
SIZE 0.15 0.11 0.10
WGHT    0.080800   14.516200
FVAR       0.52455
CU01  5    0.943828    0.036152    0.014423    11.00000    0.03312    0.02255 =
         0.04735    0.00171   -0.00524   -0.00238
O4    4    1.019016    0.099427    0.003481    11.00000    0.02727    0.01753 =
         0.08132   -0.00628    0.01183   -0.00647
O2    4    0.884475   -0.039638    0.018932    11.00000    0.02372    0.01691 =
         0.05852   -0.00254   -0.00123   -0.00089
O1    4    0.985507    0.020986    0.084658    11.00000    0.04744    0.03573 =
         0.03302   -0.00159   -0.01648    0.01764
O3    4    0.920090    0.040843   -0.061509    11.00000    0.03899    0.04594 =
         0.03361    0.00718   -0.01091    0.01621
N7    3    0.856082    0.098039    0.042454    11.00000    0.02459    0.01235 =
         0.03846   -0.00337   -0.01025    0.00155
N9    3    0.764964    0.048081   -0.004681    11.00000    0.02977    0.01710 =
         0.05453   -0.00952   -0.01787    0.01088
AFIX  93
H9A   2    0.722754    0.047417   -0.021405    11.00000   -1.20000
H9B   2    0.791912    0.015843   -0.002519    11.00000   -1.20000
AFIX   0
N6    3    0.829059    0.199220    0.069402    11.00000    0.02880    0.02099 =
         0.04613   -0.00754   -0.01175    0.00732
N8    3    0.743600    0.146933    0.012715    11.00000    0.03094    0.01516 =
         0.04142   -0.00876   -0.00593    0.00315
N2    3    1.140572   -0.053623    0.417959    11.00000    0.04476    0.04404 =
         0.04255    0.00844   -0.01579   -0.00655
C18   1    0.768143    0.196139    0.038731    11.00000    0.02789    0.01930 =
         0.03806   -0.00544   -0.00460    0.00121
N10   3    0.931013    0.148179    0.101680    11.00000    0.04117    0.02784 =
         0.06005   -0.01550   -0.02528    0.01274
AFIX  93
H10A  2    0.942035    0.179437    0.120296    11.00000   -1.20000
H10B  2    0.958981    0.116456    0.103245    11.00000   -1.20000
AFIX   0
N3    3    1.149001   -0.091374    0.329375    11.00000    0.05733    0.04444 =
         0.04302    0.00164   -0.01927    0.00641
C19   1    0.870936    0.148895    0.070583    11.00000    0.02250    0.02470 =
         0.03949   -0.00197   -0.00632   -0.00184
C13   1    0.709425    0.360326    0.034098    11.00000    0.02477    0.01809 =
         0.05659    0.00173   -0.00946   -0.00265
AFIX  43
H13   2    0.729921    0.398209    0.040998    11.00000   -1.20000
AFIX   0
C20   1    0.788097    0.097952    0.017392    11.00000    0.02044    0.02292 =
         0.03164    0.00196   -0.00567    0.00486
C16   1    0.648031    0.246864    0.014163    11.00000    0.03100    0.01683 =
         0.06782   -0.00973   -0.00748    0.00330
AFIX  43
H16   2    0.626737    0.208971    0.008613    11.00000   -1.20000
AFIX   0
N4    3    1.197211   -0.142959    0.398616    11.00000    0.08158    0.03915 =
         0.03938    0.00275   -0.02092    0.00524
AFIX  93
H4A   2    1.211747   -0.170288    0.376760    11.00000   -1.20000
H4B   2    1.206240   -0.147073    0.431714    11.00000   -1.20000
AFIX   0
C14   1    0.752409    0.309012    0.041079    11.00000    0.02504    0.01983 =
         0.06888   -0.01034   -0.01190    0.00070
AFIX  43
H14   2    0.801953    0.312700    0.052760    11.00000   -1.20000
AFIX   0
C1    1    1.040497   -0.013172    0.094574    11.00000    0.03661    0.02440 =
         0.04008    0.00136   -0.01009    0.00694
C15   1    0.722825    0.251183    0.030887    11.00000    0.03087    0.01793 =
         0.04029   -0.00409   -0.00915    0.00657
C7    1    1.122247   -0.055135    0.166197    11.00000    0.04590    0.03843 =
         0.04470   -0.00171   -0.00425    0.00739
AFIX  43
H7    2    1.151690   -0.074004    0.140708    11.00000   -1.20000
AFIX   0
N1    3    1.088616    0.002716    0.345932    11.00000    0.05813    0.07480 =
         0.04392    0.00022   -0.02033    0.02818
C12   1    0.635029    0.355171    0.016634    11.00000    0.02721    0.01702 =
         0.05582   -0.00049    0.00042    0.00468
C2    1    1.061988   -0.020458    0.151390    11.00000    0.03889    0.04196 =
         0.04353    0.00609   -0.01139    0.00881
C8    1    1.111361   -0.041132    0.315093    11.00000    0.06162    0.05672 =
         0.03481    0.00032   -0.01145    0.01930
C11   1    0.586600    0.410366    0.010445    11.00000    0.02402    0.01730 =
         0.04476   -0.00060    0.00191    0.00220
C9    1    1.103592   -0.004723    0.398354    11.00000    0.04529    0.06794 =
         0.04684    0.00276   -0.00617    0.01268
C10   1    1.161149   -0.094840    0.381412    11.00000    0.04209    0.03602 =
         0.04617    0.00092   -0.01567   -0.00533
C6    1    1.139863   -0.062363    0.219961    11.00000    0.04439    0.04485 =
         0.04299    0.00394   -0.00935    0.01001
AFIX  43
H6    2    1.181276   -0.085449    0.230066    11.00000   -1.20000
AFIX   0
C17   1    0.604842    0.298474    0.005669    11.00000    0.02463    0.02388 =
         0.06087   -0.00845   -0.01219    0.00476
AFIX  43
H17   2    0.555928    0.295095   -0.007301    11.00000   -1.20000
AFIX   0
C3    1    1.017319    0.006615    0.189722    11.00000    0.06755    0.10377 =
         0.04281   -0.01628   -0.01570    0.05701
AFIX  43
H3    2    0.975308    0.028950    0.179539    11.00000   -1.20000
AFIX   0
N5    3    1.083189    0.037137    0.431634    11.00000    0.07616    0.09534 =
         0.04359    0.00563   -0.01397    0.03863
AFIX  93
H5A   2    1.093246    0.033163    0.464600    11.00000   -1.20000
H5B   2    1.059680    0.068708    0.420607    11.00000   -1.20000
AFIX   0
C5    1    1.095521   -0.035128    0.257191    11.00000    0.06077    0.06437 =
         0.03365    0.00508   -0.01427    0.01490
C4    1    1.033974    0.001042    0.242293    11.00000    0.06462    0.10127 =
         0.04531   -0.00570   -0.01109    0.04456
AFIX  43
H4    2    1.005076    0.020827    0.267559    11.00000   -1.20000
AFIX   0
HKLF      4

REM     tr2 in P b n b
REM R1 =  0.0656 for    7528 Fo > 4sig(Fo)  and  0.0814 for all    9132 data
REM    316 parameters refined using      0 restraints

END

WGHT      0.0971      7.8457

REM Highest difference peak  1.273,  deepest hole -0.315,  1-sigma level  0.079
Q1    1   0.9429  0.0376  0.0535  11.00000  0.05    1.27
Q2    1   0.9387  0.0373 -0.0261  11.00000  0.05    1.04
Q3    1   0.8245  0.2050  0.0331  11.00000  0.05    0.48
Q4    1   1.0740 -0.0333  0.0934  11.00000  0.05    0.47
Q5    1   0.8194  0.0992  0.0393  11.00000  0.05    0.43
Q6    1   0.8840 -0.0447  0.0534  11.00000  0.05    0.43
Q7    1   0.9799  0.0222  0.1194  11.00000  0.05    0.39
Q8    1   1.0567 -0.0092  0.1211  11.00000  0.05    0.38
Q9    1   0.8953  0.0680  0.0239  11.00000  0.05    0.38
Q10   1   0.6617  0.3545  0.0410  11.00000  0.05    0.37
Q11   1   0.7509  0.0415  0.0335  11.00000  0.05    0.37
Q12   1   0.7024  0.3607  0.0735  11.00000  0.05    0.35
Q13   1   0.9073 -0.0630  0.0357  11.00000  0.05    0.35
Q14   1   0.8596 -0.0344  0.0215  11.00000  0.05    0.34
Q15   1   0.6749  0.3613  0.0207  11.00000  0.05    0.34
Q16   1   1.1390 -0.0462  0.3884  11.00000  0.05    0.34
Q17   1   1.0050  0.0873 -0.0330  11.00000  0.05    0.34
Q18   1   0.7917  0.1965  0.0662  11.00000  0.05    0.34
Q19   1   1.0405  0.0200  0.2193  11.00000  0.05    0.33
Q20   1   0.7649  0.1720  0.0125  11.00000  0.05    0.33
Q21   1   1.1366  0.0416  0.4261  11.00000  0.05    0.33
Q22   1   1.0557  0.0126  0.1673  11.00000  0.05    0.33
Q23   1   1.0203  0.1116 -0.0361  11.00000  0.05    0.33
Q24   1   0.6943  0.2509  0.0186  11.00000  0.05    0.31
Q25   1   0.8701  0.0999  0.0125  11.00000  0.05    0.30
Q26   1   0.6387  0.2179  0.0397  11.00000  0.05    0.30
Q27   1   0.9277  0.1499  0.0627  11.00000  0.05    0.30
Q28   1   0.9135 -0.0243  0.0128  11.00000  0.05    0.30
Q29   1   1.0341  0.0775 -0.0079  11.00000  0.05    0.29
Q30   1   1.0041  0.0047  0.2865  11.00000  0.05    0.29
Q31   1   1.1533 -0.0798  0.4111  11.00000  0.05    0.29
Q32   1   1.1446 -0.0418  0.4504  11.00000  0.05    0.29
Q33   1   0.6252  0.3282 -0.0160  11.00000  0.05    0.29
Q34   1   1.0978 -0.0256  0.2771  11.00000  0.05    0.29
Q35   1   1.0462  0.0983  0.0303  11.00000  0.05    0.29
Q36   1   1.0511 -0.0232  0.3034  11.00000  0.05    0.28
Q37   1   1.1585 -0.0848  0.3587  11.00000  0.05    0.28
Q38   1   0.5759  0.2988  0.0106  11.00000  0.05    0.28
Q39   1   0.6213  0.3773  0.0226  11.00000  0.05    0.28
Q40   1   1.1511 -0.0523  0.1901  11.00000  0.05    0.27
Q41   1   1.1721 -0.0474  0.4118  11.00000  0.05    0.27
Q42   1   0.7408  0.2226  0.0334  11.00000  0.05    0.27
Q43   1   0.6989  0.0373 -0.0014  11.00000  0.05    0.27
Q44   1   1.0776 -0.0006  0.4322  11.00000  0.05    0.27
Q45   1   1.1354 -0.0370  0.2433  11.00000  0.05    0.27
Q46   1   0.8784 -0.0366 -0.0256  11.00000  0.05    0.27
Q47   1   1.1548 -0.0547  0.4573  11.00000  0.05    0.26
Q48   1   0.7543  0.1486  0.0465  11.00000  0.05    0.26
Q49   1   0.8559  0.0793  0.0508  11.00000  0.05    0.26
Q50   1   0.9604  0.1404  0.0705  11.00000  0.05    0.26
;
_shelx_res_checksum              15660

_shelx_hkl_file                  
;
  -2   0   0    8592     353                                                        4546  -51.43  -21.34  1.0000
   4   0   0    5797     156                                                        2291  120.71   82.13  1.0000
  -4   0   0    5652     168                                                        2011  120.71  -82.13  1.0000
   6   0   0   14022    1376                                                       19059  -35.64  -36.75  1.0000
  -6   0   0   14351    1493                                                       19445  -35.64   36.75  1.0000
  -8   0   0     446     387                                                        5577  103.58   11.49  1.0000
   8   0   0     333     369                                                        5158  103.58  -11.49  1.0000
   8   0   0     250     305                                                        4813  103.58  -11.49  1.0000
   8   0   0     235     345                                                        4747  103.58  -11.49  1.0000
   8   0   0     251     383                                                        4815  103.58  -11.49  1.0000
   8   0   0     223     358                                                        4688  103.58  -11.49  1.0000
  -8   0   0     291     309                                                        4986  103.58   11.49  1.0000
  -8   0   0     231     334                                                        4725  103.58   11.49  1.0000
  10   0   0    5941     477                                                        5830    1.75    9.94  1.0000
 -10   0   0    6766     452                                                        6649    1.75   -9.94  1.0000
 -10   0   0    6775     399                                                        6658    1.75   -9.94  1.0000
 -10   0   0    7606     456                                                        7484    1.75   -9.94  1.0000
  10   0   0    5642     506                                                        5533    1.75    9.94  1.0000
  10   0   0    6368     394                                                        6254    1.75    9.94  1.0000
 -10   0   0    6371     431                                                        6257    1.75   -9.94  1.0000
 -10   0   0    5926     500                                                        5815    1.75   -9.94  1.0000
  10   0   0    7276     447                                                        7156    1.75    9.94  1.0000
 -12   0   0     473     114                                                        1525  -32.80   -9.71  1.0000
  12   0   0     254     119                                                        1101  -32.80    9.71  1.0000
  12   0   0     336      94                                                        1267  -32.80    9.71  1.0000
 -12   0   0     383      92                                                        1357  -32.80   -9.71  1.0000
 -12   0   0     406     109                                                        1402  -32.80   -9.71  1.0000
  12   0   0     272     112                                                        1138  -32.80    9.71  1.0000
 -12   0   0     298     101                                                        1191  -32.80   -9.71  1.0000
  12   0   0     419     106                                                        1426  -32.80    9.71  1.0000
  12   0   0     456     124                                                        1493  -32.80    9.71  1.0000
 -12   0   0     288     117                                                        1172  -32.80   -9.71  1.0000
 -14   0   0     953      65                                                         524  -16.29    8.13  1.0000
  14   0   0     957      73                                                         527  -16.29   -8.13  1.0000
  14   0   0     821      71                                                         426  -16.29   -8.13  1.0000
 -14   0   0     898      79                                                         483  -16.29    8.13  1.0000
  14   0   0     911      61                                                         493  -16.29   -8.13  1.0000
 -14   0   0     903      76                                                         487  -16.29    8.13  1.0000
 -14   0   0     922      54                                                         501  -16.29    8.13  1.0000
  14   0   0     915      65                                                         496  -16.29   -8.13  1.0000
 -16   0   0     434      80                                                         626    7.21    7.64  1.0000
 -16   0   0     383      62                                                         564    7.21    7.64  1.0000
  16   0   0     507      80                                                         714    7.21   -7.64  1.0000
  16   0   0     466      68                                                         664    7.21   -7.64  1.0000
  16   0   0     369      79                                                         546    7.21   -7.64  1.0000
  18   0   0     295      59                                                         342    1.84   -5.94  1.0000
  18   0   0     242      56                                                         283    1.84   -5.94  1.0000
 -18   0   0     262      51                                                         305    1.84    5.94  1.0000
  18   0   0     240      53                                                         281    1.84   -5.94  1.0000
 -20   0   0     176      38                                                         182    0.34    2.47  1.0000
  20   0   0     227      55                                                         235    0.34   -2.47  1.0000
  20   0   0     144      49                                                         150    0.34   -2.47  1.0000
   0  -2   0  175423    3018                                                       34897 -451.81  -17.51  1.0000
   0  -2   0  191104    2929                                                       42087 -451.81  -17.51  1.0000
   0  -2   0  175662    2778                                                       35004 -451.81  -17.51  1.0000
   0   2   0  194087    2930                                                       43495 -451.81   17.51  1.0000
  -1  -2   0   45956     276                                                        3463 -304.16   14.42  1.0000
  -1  -2   0   49169     291                                                        4397 -304.16   14.42  1.0000
   1  -2   0   43560     300                                                        3553  309.98  -51.71  1.0000
  -1   2   0   43444     300                                                        3514  309.98   51.71  1.0000
   1   2   0   46448     276                                                        3601 -304.16  -14.42  1.0000
   1   2   0   49089     291                                                        4373 -304.16  -14.42  1.0000
  -2  -2   0  110160    2868                                                       40608 -255.65   32.95  1.0000
   2  -2   0  109457    3117                                                       40763 -253.09  -35.10  1.0000
   2   2   0  100965    3023                                                       35080 -255.65  -32.95  1.0000
  -2   2   0  110841    3117                                                       41613 -253.09   35.10  1.0000
   2   2   0  113785    2868                                                       42830 -255.65  -32.95  1.0000
   3  -2   0    1513     260                                                        3752  -39.14   30.32  1.0000
  -3  -2   0    1053     239                                                        2952   42.50    3.87  1.0000
   3   2   0     991     239                                                        2847   42.50   -3.87  1.0000
  -3   2   0    1526     260                                                        3772  -39.14  -30.32  1.0000
   4  -2   0    3847    2576                                                       31875 -226.57   -1.04  1.0000
  -4  -2   0    4871    2373                                                       34307 -224.42    5.70  1.0000
  -4   2   0    3605    2576                                                       31171 -226.57    1.04  1.0000
   4   2   0    5367    2372                                                       35604 -224.42   -5.70  1.0000
   5  -2   0     197     432                                                        5367  115.04   -5.64  1.0000
   5   2   0     286     398                                                        5692 -113.67    5.89  1.0000
  -5   2   0     240     432                                                        5583  115.04    5.64  1.0000
  -6  -2   0    6822     622                                                        8220  -13.04   28.53  1.0000
  -6   2   0    6178     623                                                        7664  -13.30   36.41  1.0000
   6   2   0    6741     574                                                        8129  -13.04  -28.53  1.0000
   7  -2   0    1451     121                                                        1771   -4.62  -20.63  1.0000
   7  -2   0    1246     118                                                        1535   -4.62  -20.63  1.0000
  -7  -2   0    1378     127                                                        1767    6.70  -20.17  1.0000
  -7  -2   0    1172     104                                                        1524    6.70  -20.17  1.0000
   7   2   0    1106     132                                                        1446    6.70   20.17  1.0000
   7   2   0    1258     120                                                        1626    6.70   20.17  1.0000
  -7   2   0    1301     105                                                        1599   -4.62   20.63  1.0000
   7   2   0    1086     118                                                        1423    6.70   20.17  1.0000
   7   2   0    1301     127                                                        1677    6.70   20.17  1.0000
  -8  -2   0    2001     132                                                        2164   -3.37   -4.45  1.0000
   8  -2   0    2048     169                                                        2242   -3.99    3.71  1.0000
  -8  -2   0    1889     162                                                        2048   -3.37   -4.45  1.0000
   8  -2   0    1871     149                                                        2056   -3.99    3.71  1.0000
   8  -2   0    1579     159                                                        1749   -3.99    3.71  1.0000
   8   2   0    2178     167                                                        2348   -3.37    4.45  1.0000
  -8   2   0    1728     143                                                        1906   -3.99   -3.71  1.0000
   8   2   0    1869     159                                                        2027   -3.37    4.45  1.0000
  -8   2   0    1748     132                                                        1927   -3.99   -3.71  1.0000
   8   2   0    1871     132                                                        2029   -3.37    4.45  1.0000
  -8   2   0    1913     153                                                        2100   -3.99   -3.71  1.0000
   8   2   0    1813     155                                                        1968   -3.37    4.45  1.0000
   8   2   0    1994     149                                                        2157   -3.37    4.45  1.0000
  -8   2   0    1792     151                                                        1973   -3.99   -3.71  1.0000
  -8   2   0    1864     164                                                        2049   -3.99   -3.71  1.0000
  -9  -2   0     738      48                                                         292  -33.62   22.50  1.0000
   9  -2   0     772      41                                                         259   34.77   19.06  1.0000
   9  -2   0     803      48                                                         285   34.77   19.06  1.0000
  -9  -2   0     661      32                                                         217  -33.62   22.50  1.0000
   9  -2   0     693      37                                                         193   34.77   19.06  1.0000
  -9  -2   0     660      30                                                         216  -33.62   22.50  1.0000
  -9  -2   0     653      43                                                         209  -33.62   22.50  1.0000
  -9   2   0     815      41                                                         295   34.77  -19.06  1.0000
   9   2   0     643      30                                                         200  -33.62  -22.50  1.0000
  -9   2   0     778      36                                                         264   34.77  -19.06  1.0000
   9   2   0     671      30                                                         227  -33.62  -22.50  1.0000
   9   2   0     659      42                                                         215  -33.62  -22.50  1.0000
  -9   2   0     740      31                                                         232   34.77  -19.06  1.0000
  -9   2   0     810      42                                                         291   34.77  -19.06  1.0000
   9   2   0     626      34                                                         183  -33.62  -22.50  1.0000
  -9   2   0     758      35                                                         247   34.77  -19.06  1.0000
  10  -2   0     508      63                                                         571   -2.24    6.87  1.0000
 -10  -2   0     806      67                                                         831   -0.45   -5.78  1.0000
 -10  -2   0     773      76                                                         797   -0.45   -5.78  1.0000
 -10  -2   0     531      78                                                         549   -0.45   -5.78  1.0000
 -10  -2   0     692      67                                                         714   -0.45   -5.78  1.0000
  10  -2   0     629      72                                                         701   -2.24    6.87  1.0000
 -10  -2   0     753      55                                                         776   -0.45   -5.78  1.0000
  10  -2   0     575      85                                                         643   -2.24    6.87  1.0000
  10  -2   0     619      83                                                         690   -2.24    6.87  1.0000
  10   2   0     784      69                                                         808   -0.45    5.78  1.0000
 -10   2   0     581      56                                                         649   -2.24   -6.87  1.0000
 -10   2   0     579      69                                                         647   -2.24   -6.87  1.0000
 -10   2   0     565      61                                                         632   -2.24   -6.87  1.0000
  10   2   0     693      72                                                         715   -0.45    5.78  1.0000
 -10   2   0     562      65                                                         629   -2.24   -6.87  1.0000
  10   2   0     796      61                                                         820   -0.45    5.78  1.0000
 -10   2   0     523      66                                                         587   -2.24   -6.87  1.0000
  10   2   0     710      66                                                         733   -0.45    5.78  1.0000
  10   2   0     661      75                                                         682   -0.45    5.78  1.0000
  10   2   0     701      76                                                         723   -0.45    5.78  1.0000
 -11  -2   0    5247     364                                                        6189  -12.12   -0.66  1.0000
  11  -2   0    4765     360                                                        5665   12.10   -3.05  1.0000
 -11  -2   0    5070     417                                                        5997  -12.12   -0.66  1.0000
  11  -2   0    5191     453                                                        6129   12.10   -3.05  1.0000
  11  -2   0    5166     408                                                        6102   12.10   -3.05  1.0000
  11  -2   0    4514     435                                                        5391   12.10   -3.05  1.0000
  11  -2   0    4115     461                                                        4954   12.10   -3.05  1.0000
 -11  -2   0    4933     394                                                        5847  -12.12   -0.66  1.0000
 -11  -2   0    5018     413                                                        5940  -12.12   -0.66  1.0000
 -11   2   0    4522     459                                                        5400   12.10    3.05  1.0000
  11   2   0    4797     449                                                        5699  -12.12    0.66  1.0000
  11   2   0    4864     360                                                        5772  -12.12    0.66  1.0000
 -11   2   0    5150     415                                                        6084   12.10    3.05  1.0000
 -11   2   0    5221     365                                                        6162   12.10    3.05  1.0000
 -11   2   0    4350     429                                                        5212   12.10    3.05  1.0000
 -11   2   0    4615     412                                                        5501   12.10    3.05  1.0000
  11   2   0    4686     461                                                        5578  -12.12    0.66  1.0000
  11   2   0    5549     454                                                        6517  -12.12    0.66  1.0000
  11   2   0    4896     435                                                        5807  -12.12    0.66  1.0000
  11   2   0    5459     409                                                        6419  -12.12    0.66  1.0000
 -11   2   0    4886     393                                                        5797   12.10    3.05  1.0000
  11   2   0    4874     378                                                        5783  -12.12    0.66  1.0000
  12  -2   0     540      86                                                         784   -9.25   -0.18  1.0000
 -12  -2   0     658      66                                                         917   -8.48    7.47  1.0000
  12  -2   0     568      69                                                         817   -9.25   -0.18  1.0000
  12  -2   0     695      80                                                         968   -9.25   -0.18  1.0000
 -12  -2   0     519      79                                                         749   -8.48    7.47  1.0000
 -12  -2   0     707      93                                                         975   -8.48    7.47  1.0000
  12  -2   0     793     102                                                        1084   -9.25   -0.18  1.0000
 -12  -2   0     620      92                                                         871   -8.48    7.47  1.0000
  12  -2   0     437      89                                                         659   -9.25   -0.18  1.0000
 -12   2   0     431      88                                                         651   -9.25    0.18  1.0000
  12   2   0     495      82                                                         720   -8.48   -7.47  1.0000
 -12   2   0     572      66                                                         822   -9.25    0.18  1.0000
  12   2   0     757      81                                                        1033   -8.48   -7.47  1.0000
 -12   2   0     584      74                                                         836   -9.25    0.18  1.0000
  12   2   0     487      86                                                         710   -8.48   -7.47  1.0000
  12   2   0     604      72                                                         852   -8.48   -7.47  1.0000
 -12   2   0     707      79                                                         983   -9.25    0.18  1.0000
 -13  -2   0    2012     174                                                        1881    2.90    1.58  1.0000
  13  -2   0    2461     168                                                        2350   -2.61    8.54  1.0000
 -13  -2   0    2079     162                                                        1946    2.90    1.58  1.0000
 -13  -2   0    2098     177                                                        1964    2.90    1.58  1.0000
 -13  -2   0    2356     146                                                        2214    2.90    1.58  1.0000
  13  -2   0    2422     147                                                        2312   -2.61    8.54  1.0000
  13  -2   0    2294     193                                                        2186   -2.61    8.54  1.0000
  13  -2   0    2426     178                                                        2316   -2.61    8.54  1.0000
 -13   2   0    2419     168                                                        2309   -2.61   -8.54  1.0000
  13   2   0    2321     185                                                        2180    2.90   -1.58  1.0000
 -13   2   0    2492     160                                                        2380   -2.61   -8.54  1.0000
 -13   2   0    2353     172                                                        2244   -2.61   -8.54  1.0000
  13   2   0    2376     147                                                        2233    2.90   -1.58  1.0000
 -13   2   0    2398     176                                                        2288   -2.61   -8.54  1.0000
 -13   2   0    2404     147                                                        2294   -2.61   -8.54  1.0000
  13   2   0    2294     167                                                        2154    2.90   -1.58  1.0000
  13   2   0    2292     178                                                        2152    2.90   -1.58  1.0000
 -14  -2   0     144      74                                                         525   21.25    0.19  1.0000
 -14  -2   0     106      73                                                         450   21.25    0.19  1.0000
 -14  -2   0     100      52                                                         437   21.25    0.19  1.0000
  14  -2   0      49      63                                                         320   20.03   12.89  1.0000
  14  -2   0     112      59                                                         475   20.03   12.89  1.0000
 -14  -2   0     135      99                                                         508   21.25    0.19  1.0000
  14  -2   0     183      77                                                         619   20.03   12.89  1.0000
  14   2   0     134      70                                                         507   21.25   -0.19  1.0000
 -14   2   0     109      68                                                         470   20.03  -12.89  1.0000
 -14   2   0      79      51                                                         400   20.03  -12.89  1.0000
  14   2   0     126      62                                                         491   21.25   -0.19  1.0000
 -14   2   0     123      60                                                         499   20.03  -12.89  1.0000
  14   2   0     173      72                                                         580   21.25   -0.19  1.0000
  15  -2   0     114      47                                                          70   -5.23    5.23  1.0000
 -15  -2   0     197      31                                                         132    4.96    0.38  1.0000
  15  -2   0     237      39                                                         176   -5.23    5.23  1.0000
 -15  -2   0     252      48                                                         178    4.96    0.38  1.0000
  15  -2   0     160      36                                                         109   -5.23    5.23  1.0000
 -15   2   0     280      38                                                         214   -5.23   -5.23  1.0000
  15   2   0     226      39                                                         156    4.96   -0.38  1.0000
  15   2   0     142      41                                                          88    4.96   -0.38  1.0000
  15   2   0     190      39                                                         126    4.96   -0.38  1.0000
  15   2   0     122      39                                                          72    4.96   -0.38  1.0000
 -15   2   0     218      31                                                         159   -5.23   -5.23  1.0000
 -15   2   0     238      39                                                         177   -5.23   -5.23  1.0000
 -15   2   0     276      48                                                         210   -5.23   -5.23  1.0000
 -16  -2   0     434      65                                                         448    0.67   -0.07  1.0000
  16  -2   0     361      69                                                         414    1.77    7.96  1.0000
  16  -2   0     381      61                                                         436    1.77    7.96  1.0000
 -16  -2   0     337      54                                                         350    0.67   -0.07  1.0000
  16  -2   0     336      74                                                         387    1.77    7.96  1.0000
 -16   2   0     334      63                                                         385    1.77   -7.96  1.0000
 -16   2   0     399      53                                                         456    1.77   -7.96  1.0000
 -16   2   0     323      57                                                         373    1.77   -7.96  1.0000
  16   2   0     464      67                                                         479    0.67    0.07  1.0000
  16   2   0     334      69                                                         347    0.67    0.07  1.0000
  16   2   0     379      62                                                         393    0.67    0.07  1.0000
  17  -2   0       2      36                                                          72   13.94    0.64  1.0000
  17  -2   0       0      40                                                          60   13.94    0.64  1.0000
 -17  -2   0       5      29                                                          29  -14.72   -2.78  1.0000
  17  -2   0      16      48                                                         125   13.94    0.64  1.0000
  17   2   0       1      40                                                          