
#######################################################################
#
#                 Cambridge Crystallographic Data Centre
#                                CCDC
#
#######################################################################
#
# If this CIF has been generated from an entry in the Cambridge
# Structural Database, then it will include bibliographic, chemical,
# crystal, experimental, refinement or atomic coordinate data resulting
# from the CCDC's data processing and validation procedures.
#
#######################################################################

data_CSD_CIF_ZZZMRU02
_audit_creation_date 2001-01-15
_audit_creation_method CSD-ConQuest-V1
_database_code_CSD ZZZMRU02
_database_code_depnum_ccdc_archive 'CCDC 148915'
_chemical_formula_sum 'C9 H9 N1 O1'
_chemical_formula_moiety
;
C9 H9 N1 O1
;
_journal_coeditor_code "IUCr OA0024"
_journal_coden_Cambridge 622
_journal_volume 56
_journal_year 2000
_journal_page_first 682
_journal_name_full 'Acta Crystallogr.,Sect.B:Struct.Sci. '
loop_
_publ_author_name
"H.Hosomi"
"Y.Ito"
"S.Ohba"
_chemical_name_systematic
;
trans-Cinnamamide
;
_chemical_name_common
;
Teaching Subset: Fundamental Chemistry
;
_cell_volume    779.929
_exptl_crystal_colour 'colorless'
_exptl_crystal_density_diffrn 1.253
_exptl_crystal_description 'prism'
_exptl_crystal_preparation 'chloroform'
_diffrn_ambient_temperature ?
_diffrn_special_details
;
The study was carried out at room temperature,in the range 283-303K

;
#These two values have been output from a single CSD field.
_refine_ls_R_factor_gt 0.04
_refine_ls_wR_factor_gt 0.04
_symmetry_cell_setting monoclinic
_symmetry_space_group_name_H-M 'P 21/a'
_symmetry_Int_Tables_number 14
loop_
_symmetry_equiv_pos_site_id
_symmetry_equiv_pos_as_xyz
1 x,y,z
2 1/2-x,1/2+y,-z
3 -x,-y,-z
4 -1/2+x,-1/2-y,z
_cell_length_a 16.047(2)
_cell_length_b 5.084(2)
_cell_length_c 9.584(2)
_cell_angle_alpha 90
_cell_angle_beta 94.06(1)
_cell_angle_gamma 90
_cell_formula_units_Z 4
loop_
_atom_type_symbol
_atom_type_radius_bond
C 0.68
H 0.23
N 0.68
O 0.68
loop_
_atom_site_label
_atom_site_type_symbol
_atom_site_fract_x
_atom_site_fract_y
_atom_site_fract_z
O1 O 0.95690(8) 0.7028(2) 1.3471(1)
N1 N 0.93750(9) 0.2729(3) 1.3872(1)
C1 C 0.93202(9) 0.4845(3) 1.3059(1)
C2 C 0.8932(1) 0.4470(3) 1.1619(1)
C3 C 0.89926(9) 0.6276(3) 1.0648(1)
C4 C 0.86334(8) 0.6225(3) 0.9191(1)
C5 C 0.8039(1) 0.4387(3) 0.8718(2)
C6 C 0.7713(1) 0.4412(4) 0.7342(2)
C7 C 0.7979(1) 0.6235(4) 0.6423(2)
C8 C 0.8554(1) 0.8082(4) 0.6870(2)
C9 C 0.8882(1) 0.8088(4) 0.8249(2)
H1 H 0.968(1) 0.287(4) 1.469(2)
H2 H 0.929(1) 0.114(4) 1.351(2)
H3 H 0.8634(10) 0.281(3) 1.145(2)
H4 H 0.931(1) 0.784(4) 1.090(2)
H5 H 0.787(1) 0.302(4) 0.934(2)
H6 H 0.732(1) 0.306(5) 0.706(2)
H7 H 0.774(1) 0.621(4) 0.542(3)
H8 H 0.878(1) 0.938(5) 0.629(2)
H9 H 0.929(1) 0.932(4) 0.858(2)
#END
