
#######################################################################
#
#                 Cambridge Crystallographic Data Centre
#                                CCDC
#
#######################################################################
#
# If this CIF has been generated from an entry in the Cambridge
# Structural Database, then it will include bibliographic, chemical,
# crystal, experimental, refinement or atomic coordinate data resulting
# from the CCDC's data processing and validation procedures.
#
#######################################################################

data_CSD_CIF_ZZZNWQ05
_audit_creation_date 1995-01-30
_audit_creation_method CSD-ConQuest-V1
_database_code_CSD ZZZNWQ05
_database_code_depnum_ccdc_archive 'CCDC 1206459'
_chemical_formula_sum 'C6 H8 O2'
_chemical_formula_moiety
;
C6 H8 O2
;
_journal_coeditor_code "IUCr LI1092"
_journal_coden_Cambridge 591
_journal_volume 50
_journal_year 1994
_journal_page_first 1620
_journal_name_full 'Acta Crystallogr.,Sect.C:Cryst.Struct.Commun. '
loop_
_publ_author_name
"P.J.Cox"
_chemical_name_systematic
;
(E,E)-2,4-Hexadienoic acid
;
_chemical_name_common
;
Sorbic acid; Teaching Subset: Fundamental Chemistry, Symmetry
;
_cell_volume   1191.176
_exptl_crystal_colour 'Colorless'
_exptl_crystal_density_diffrn 1.25
_exptl_special_details
;
antibacterial and antifungal activity

;
_diffrn_ambient_temperature 150
#These two values have been output from a single CSD field.
_refine_ls_R_factor_gt 0.039
_refine_ls_wR_factor_gt 0.039
_symmetry_cell_setting monoclinic
_symmetry_space_group_name_H-M 'C 2/c'
_symmetry_Int_Tables_number 15
loop_
_symmetry_equiv_pos_site_id
_symmetry_equiv_pos_as_xyz
1 x,y,z
2 1/2+x,1/2+y,z
3 -x,y,1/2-z
4 1/2-x,1/2+y,1/2-z
5 -x,-y,-z
6 -1/2-x,-1/2-y,-z
7 x,-y,-1/2+z
8 -1/2+x,-1/2-y,-1/2+z
_cell_length_a 19.749(3)
_cell_length_b 3.9355(5)
_cell_length_c 15.649(2)
_cell_angle_alpha 90
_cell_angle_beta 101.66(1)
_cell_angle_gamma 90
_cell_formula_units_Z 8
loop_
_atom_type_symbol
_atom_type_radius_bond
C 0.68
H 0.23
O 0.68
loop_
_atom_site_label
_atom_site_type_symbol
_atom_site_fract_x
_atom_site_fract_y
_atom_site_fract_z
O1 O 0.4644(1) 0.2581(3) 0.4074(1)
O2 O 0.4164(1) -0.0584(3) 0.4985(1)
C1 C 0.0880(1) 0.1738(5) 0.3066(1)
C2 C 0.1573(1) 0.0909(4) 0.3597(1)
C3 C 0.2171(1) 0.2111(4) 0.3460(1)
C4 C 0.2839(1) 0.1218(4) 0.3970(1)
C5 C 0.3442(1) 0.2344(4) 0.3819(1)
C6 C 0.4106(1) 0.1308(4) 0.4348(1)
H1 H 0.5074(12) 0.1804(50) 0.4458(16)
H2 H 0.05900 0.27080 0.34430
H3 H 0.06640 -0.03360 0.27900
H4 H 0.09300 0.33890 0.26140
H5 H 0.15900 -0.06060 0.40730
H6 H 0.21560 0.36700 0.29930
H7 H 0.28520 -0.02820 0.44480
H8 H 0.34390 0.38780 0.33490
#END
