
#######################################################################
#
#                 Cambridge Crystallographic Data Centre
#                                CCDC
#
#######################################################################
#
# If this CIF has been generated from an entry in the Cambridge
# Structural Database, then it will include bibliographic, chemical,
# crystal, experimental, refinement or atomic coordinate data resulting
# from the CCDC's data processing and validation procedures.
#
#######################################################################

data_CSD_CIF_ZZZNQS03
_audit_creation_date 2001-09-03
_audit_creation_method CSD-ConQuest-V1
_database_code_CSD ZZZNQS03
_database_code_depnum_ccdc_archive 'CCDC 158886'
_database_code_depnum_ccdc_journal 1294/204
_chemical_formula_sum 'C11 H12 O3'
_chemical_formula_moiety
;
C11 H12 O3
;
_journal_coden_Cambridge 1294
_journal_volume 4
_journal_year 2001
_journal_page_first 215
_journal_name_full 'Crystal Engineering '
loop_
_publ_author_name
"M.A.Fernandes"
"D.C.Levendis"
"C.B.de Koning"
_chemical_name_systematic
;
(E)-3-(2-Ethoxyphenyl)propenoic acid
;
_chemical_name_common
;
o-Ethoxy-trans-cinnamic acid; Teaching Subset: Fundamental Chemistry, Symmetry
;
_chemical_melting_point 407.9
_cell_volume    499.536
_exptl_crystal_colour 'colorless'
_exptl_crystal_density_diffrn 1.278
_exptl_special_details
;
Melting point range 407.9-408.9K
alpha polymorph

;
_exptl_crystal_description 'prism'
_exptl_crystal_preparation 'ethyl acetate'
_diffrn_ambient_temperature 173
#These two values have been output from a single CSD field.
_refine_ls_R_factor_gt 0.0578
_refine_ls_wR_factor_gt 0.0578
loop_
_citation_database_id_CSD
_citation_special_details
ZZZSPE "is a stereoisomer of this entry"
_symmetry_cell_setting triclinic
_symmetry_space_group_name_H-M 'P -1'
_symmetry_Int_Tables_number 2
loop_
_symmetry_equiv_pos_site_id
_symmetry_equiv_pos_as_xyz
1 x,y,z
2 -x,-y,-z
_cell_length_a 6.6992(6)
_cell_length_b 8.6807(8)
_cell_length_c 10.0151(9)
_cell_angle_alpha 72.019(2)
_cell_angle_beta 71.464(2)
_cell_angle_gamma 67.867(2)
_cell_formula_units_Z 2
loop_
_atom_type_symbol
_atom_type_radius_bond
C 0.68
H 0.23
O 0.68
loop_
_atom_site_label
_atom_site_type_symbol
_atom_site_fract_x
_atom_site_fract_y
_atom_site_fract_z
O1 O 0.3144(2) -0.00638(17) 0.17326(15)
O2 O 0.8164(2) 0.02514(19) 0.40783(16)
C1 C 0.5358(3) -0.2680(2) 0.28554(19)
O3 O 1.0081(2) -0.2163(2) 0.53478(16)
H1 H 1.05200 -0.14820 0.55350
C2 C 0.3744(3) -0.1792(2) 0.2018(2)
C3 C 0.7810(3) -0.2387(3) 0.4123(2)
H2 H 0.83400 -0.35880 0.44420
C4 C 0.1569(3) 0.0884(3) 0.0851(2)
H3 H 0.01700 0.05980 0.13000
H4 H 0.21580 0.06050 -0.01140
C5 C 0.8675(3) -0.1309(3) 0.4513(2)
C6 C 0.1164(4) 0.2731(3) 0.0723(2)
H5 H 0.05640 0.29950 0.16840
H6 H 0.01010 0.34130 0.01180
H7 H 0.25600 0.29970 0.02840
C7 C 0.6012(3) -0.4459(3) 0.3171(2)
H8 H 0.70890 -0.50740 0.37310
C8 C 0.6290(3) -0.1723(3) 0.3329(2)
H9 H 0.57700 -0.05170 0.30470
C9 C 0.2879(3) -0.2702(3) 0.1540(2)
H10 H 0.18000 -0.21090 0.09790
C10 C 0.5150(4) -0.5348(3) 0.2697(2)
H11 H 0.56240 -0.65580 0.29290
C11 C 0.3582(4) -0.4459(3) 0.1877(2)
H12 H 0.29840 -0.50660 0.15440
#END
